Node Number	X Location (mm)	Y Location (mm)	Z Location (mm)	Equivalent (von-Mises) Stress (MPa)
1	7.76	3.69	0.	112.5
2	7.07	2.7	0.	172.44
3	8.27	2.6	0.	170.32
4	-1.84	-5.74	0.	155.94
5	-1.02	-6.41	0.	130.8
6	-0.85	-5.36	0.	158.23
7	-7.79	8.42	0.	166.9
8	-7.44	7.26	0.	117.84
9	-6.61	8.14	0.	179.87
10	7.	0.	0.	130.45
11	7.	-1.	0.	133.25
12	8.	0.	0.	131.43
13	8.	-1.	0.	132.7
14	8.	6.	0.	130.93
15	8.	5.	0.	130.99
16	9.	6.	0.	134.14
17	9.	5.	0.	135.82
18	4.	-6.	0.	130.95
19	4.	-8.	0.	131.31
20	6.	-6.	0.	131.22
21	6.	-8.	0.	131.55
22	4.	-4.	0.	134.67
23	4.	-5.	0.	130.57
24	6.	-4.	0.	133.5
25	6.	-5.	0.	129.87
26	-2.	5.	0.	140.58
27	-2.	4.	0.	138.7
28	0.	5.	0.	124.24
29	0.	4.	0.	132.44
30	1.	3.	0.	132.86
31	1.	1.	0.	126.91
32	2.	3.	0.	131.17
33	2.	1.	0.	130.45
34	0.	-2.	0.	133.83
35	0.	-3.	0.	135.2
36	2.	-2.	0.	134.43
37	2.	-3.	0.	137.6
38	-1.	8.	0.	135.96
39	-1.	6.	0.	128.11
40	1.	8.	0.	137.7
41	1.	6.	0.	136.69
42	-8.	3.	0.	130.1
43	-8.	1.	0.	129.65
44	-7.	3.	0.	129.72
45	-7.	1.	0.	131.08
46	-7.	6.	0.	128.44
47	-7.	5.	0.	128.44
48	-6.	6.	0.	133.39
49	-6.	5.	0.	133.14
50	-9.	-6.	0.	131.95
51	-9.	-7.	0.	132.34
52	-8.	-6.	0.	131.67
53	-8.	-7.	0.	132.58
54	-9.	-1.	0.	131.36
55	-9.	-3.	0.	131.23
56	-8.	-1.	0.	130.07
57	-8.	-3.	0.	130.
58	10.	10.	0.	124.99
59	-10.	10.	0.	125.09
60	10.	-10.	0.	131.81
61	-10.	-10.	0.	123.5
62	7.53	3.36	0.	90.651
63	7.3	3.03	0.	101.44
64	7.93	3.3267	0.	110.77
65	8.1	2.9633	0.	127.79
66	7.47	2.6667	0.	97.808
67	7.87	2.6333	0.	104.98
68	-1.43	-6.075	0.	60.994
69	-1.345	-5.55	0.	87.32
70	-0.935	-5.885	0.	141.
71	-7.6733	8.0333	0.	140.57
72	-7.5567	7.6467	0.	126.44
73	-7.3967	8.3267	0.	111.35
74	-7.0033	8.2333	0.	89.118
75	-7.1633	7.5533	0.	85.788
76	-6.8867	7.8467	0.	87.915
77	7.	-0.5	0.	141.
78	7.5	0.	0.	109.16
79	7.5	-1.	0.	110.47
80	8.	-0.5	0.	141.69
81	8.	5.5	0.	138.86
82	8.5	6.	0.	110.12
83	8.5	5.	0.	110.
84	9.	5.5	0.	144.22
85	4.	-6.5	0.	140.21
86	4.	-7.	0.	141.07
87	4.	-7.5	0.	139.89
88	4.5	-6.	0.	107.42
89	5.	-6.	0.	110.05
90	5.5	-6.	0.	107.4
91	4.5	-8.	0.	109.11
92	5.	-8.	0.	113.09
93	5.5	-8.	0.	109.35
94	6.	-6.5	0.	140.76
95	6.	-7.	0.	141.68
96	6.	-7.5	0.	140.44
97	4.	-4.5	0.	141.73
98	4.5	-4.	0.	113.37
99	5.	-4.	0.	117.48
100	5.5	-4.	0.	112.71
101	4.5	-5.	0.	109.41
102	5.	-5.	0.	111.6
103	5.5	-5.	0.	109.18
104	6.	-4.5	0.	140.35
105	-2.	4.5	0.	147.76
106	-1.5	5.	0.	121.96
107	-1.	5.	0.	121.75
108	-0.5	5.	0.	110.81
109	-1.5	4.	0.	118.33
110	-1.	4.	0.	121.91
111	-0.5	4.	0.	115.3
112	0.	4.5	0.	136.38
113	1.	2.5	0.	139.38
114	1.	2.	0.	138.42
115	1.	1.5	0.	137.05
116	1.5	3.	0.	107.22
117	1.5	1.	0.	104.81
118	2.	2.5	0.	139.94
119	2.	2.	0.	139.93
120	2.	1.5	0.	139.18
121	0.	-2.5	0.	142.72
122	0.5	-2.	0.	116.29
123	1.	-2.	0.	121.4
124	1.5	-2.	0.	116.67
125	0.5	-3.	0.	117.82
126	1.	-3.	0.	123.3
127	1.5	-3.	0.	118.32
128	2.	-2.5	0.	144.87
129	-1.	7.5	0.	142.55
130	-1.	7.	0.	142.16
131	-1.	6.5	0.	139.11
132	-0.5	8.	0.	114.34
133	0.	8.	0.	119.46
134	0.5	8.	0.	115.03
135	-0.5	6.	0.	109.49
136	0.	6.	0.	117.49
137	0.5	6.	0.	116.26
138	1.	7.5	0.	145.19
139	1.	7.	0.	146.15
140	1.	6.5	0.	144.95
141	-8.	2.5	0.	139.48
142	-8.	2.	0.	139.66
143	-8.	1.5	0.	138.73
144	-7.5	3.	0.	105.8
145	-7.5	1.	0.	106.11
146	-7.	2.5	0.	138.77
147	-7.	2.	0.	139.8
148	-7.	1.5	0.	139.93
149	-7.	5.5	0.	136.78
150	-6.5	6.	0.	108.65
151	-6.5	5.	0.	108.79
152	-6.	5.5	0.	142.53
153	-9.	-6.5	0.	142.56
154	-8.5	-6.	0.	109.61
155	-8.5	-7.	0.	110.25
156	-8.	-6.5	0.	141.33
157	-9.	-1.5	0.	142.07
158	-9.	-2.	0.	142.71
159	-9.	-2.5	0.	141.77
160	-8.5	-1.	0.	106.31
161	-8.5	-3.	0.	106.07
162	-8.	-1.5	0.	138.67
163	-8.	-2.	0.	139.55
164	-8.	-2.5	0.	139.21
165	9.5	10.	0.	124.98
166	9.	10.	0.	124.9
167	8.5	10.	0.	124.84
168	8.	10.	0.	124.89
169	7.5	10.	0.	125.07
170	7.	10.	0.	125.36
171	6.5	10.	0.	125.71
172	6.	10.	0.	126.07
173	5.5	10.	0.	126.44
174	5.	10.	0.	126.79
175	4.5	10.	0.	127.14
176	4.	10.	0.	127.49
177	3.5	10.	0.	127.79
178	3.	10.	0.	127.94
179	2.5	10.	0.	127.7
180	2.	10.	0.	126.7
181	1.5	10.	0.	124.71
182	1.	10.	0.	122.11
183	0.5	10.	0.	119.91
184	-5.2042e-015	10.	0.	119.01
185	-0.5	10.	0.	119.75
186	-1.	10.	0.	121.81
187	-1.5	10.	0.	124.37
188	-2.	10.	0.	126.46
189	-2.5	10.	0.	127.7
190	-3.	10.	0.	128.26
191	-3.5	10.	0.	128.48
192	-4.	10.	0.	128.58
193	-4.5	10.	0.	128.66
194	-5.	10.	0.	128.67
195	-5.5	10.	0.	128.19
196	-6.	10.	0.	126.39
197	-6.5	10.	0.	123.03
198	-7.	10.	0.	120.06
199	-7.5	10.	0.	119.9
200	-8.	10.	0.	122.49
201	-8.5	10.	0.	124.95
202	-9.	10.	0.	125.97
203	-9.5	10.	0.	125.33
204	10.	9.5	0.	125.04
205	10.	9.	0.	125.27
206	10.	8.5	0.	125.75
207	10.	8.	0.	126.7
208	10.	7.5	0.	128.46
209	10.	7.	0.	131.07
210	10.	6.5	0.	132.03
211	10.	6.	0.	129.19
212	10.	5.5	0.	126.38
213	10.	5.	0.	131.18
214	10.	4.5	0.	134.02
215	10.	4.	0.	131.96
216	10.	3.5	0.	126.49
217	10.	3.	0.	123.44
218	10.	2.5	0.	125.14
219	10.	2.	0.	129.34
220	10.	1.5	0.	132.26
221	10.	1.	0.	132.51
222	10.	0.5	0.	131.01
223	10.	-5.2042e-015	0.	128.96
224	10.	-0.5	0.	127.84
225	10.	-1.	0.	128.4
226	10.	-1.5	0.	129.7
227	10.	-2.	0.	130.53
228	10.	-2.5	0.	130.46
229	10.	-3.	0.	129.8
230	10.	-3.5	0.	128.95
231	10.	-4.	0.	128.17
232	10.	-4.5	0.	127.57
233	10.	-5.	0.	127.17
234	10.	-5.5	0.	126.94
235	10.	-6.	0.	126.9
236	10.	-6.5	0.	127.06
237	10.	-7.	0.	127.49
238	10.	-7.5	0.	128.19
239	10.	-8.	0.	129.12
240	10.	-8.5	0.	130.12
241	10.	-9.	0.	131.01
242	10.	-9.5	0.	131.61
243	-10.	9.5	0.	124.3
244	-10.	9.	0.	122.3
245	-10.	8.5	0.	120.37
246	-10.	8.	0.	119.92
247	-10.	7.5	0.	121.46
248	-10.	7.	0.	123.93
249	-10.	6.5	0.	125.9
250	-10.	6.	0.	126.92
251	-10.	5.5	0.	127.44
252	-10.	5.	0.	128.06
253	-10.	4.5	0.	128.81
254	-10.	4.	0.	129.21
255	-10.	3.5	0.	128.63
256	-10.	3.	0.	127.12
257	-10.	2.5	0.	125.5
258	-10.	2.	0.	124.8
259	-10.	1.5	0.	125.48
260	-10.	1.	0.	127.61
261	-10.	0.5	0.	130.74
262	-10.	-5.2042e-015	0.	134.27
263	-10.	-0.5	0.	135.77
264	-10.	-1.	0.	133.27
265	-10.	-1.5	0.	129.87
266	-10.	-2.	0.	129.24
267	-10.	-2.5	0.	128.37
268	-10.	-3.	0.	130.49
269	-10.	-3.5	0.	132.26
270	-10.	-4.	0.	131.21
271	-10.	-4.5	0.	129.72
272	-10.	-5.	0.	130.04
273	-10.	-5.5	0.	129.6
274	-10.	-6.	0.	125.62
275	-10.	-6.5	0.	121.77
276	-10.	-7.	0.	125.4
277	-10.	-7.5	0.	128.93
278	-10.	-8.	0.	128.37
279	-10.	-8.5	0.	126.05
280	-10.	-9.	0.	124.49
281	-10.	-9.5	0.	123.72
282	-9.5	-10.	0.	123.5
283	-9.	-10.	0.	123.1
284	-8.5	-10.	0.	122.99
285	-8.	-10.	0.	123.5
286	-7.5	-10.	0.	124.5
287	-7.	-10.	0.	125.65
288	-6.5	-10.	0.	126.64
289	-6.	-10.	0.	127.35
290	-5.5	-10.	0.	127.79
291	-5.	-10.	0.	128.
292	-4.5	-10.	0.	128.
293	-4.	-10.	0.	127.8
294	-3.5	-10.	0.	127.37
295	-3.	-10.	0.	126.74
296	-2.5	-10.	0.	125.99
297	-2.	-10.	0.	125.29
298	-1.5	-10.	0.	124.89
299	-1.	-10.	0.	124.94
300	-0.5	-10.	0.	125.46
301	5.2042e-015	-10.	0.	126.29
302	0.5	-10.	0.	127.23
303	1.	-10.	0.	128.09
304	1.5	-10.	0.	128.72
305	2.	-10.	0.	128.97
306	2.5	-10.	0.	128.5
307	3.	-10.	0.	126.77
308	3.5	-10.	0.	123.34
309	4.	-10.	0.	118.61
310	4.5	-10.	0.	114.39
311	5.	-10.	0.	112.71
312	5.5	-10.	0.	114.47
313	6.	-10.	0.	118.8
314	6.5	-10.	0.	123.66
315	7.	-10.	0.	127.27
316	7.5	-10.	0.	129.22
317	8.	-10.	0.	130.01
318	8.5	-10.	0.	130.27
319	9.	-10.	0.	130.42
320	9.5	-10.	0.	130.81
321	-3.4961	-0.51129	0.	127.99
322	-4.4697	-4.5158	0.	127.94
323	-4.4709	-2.0458	0.	127.53
324	-3.9585	-2.5668	0.	127.54
325	-2.9989	-5.4171e-003	0.	127.79
326	-2.9996	0.49693	0.	127.77
327	-3.9897	-1.0221	0.	127.96
328	-4.4793	-4.9834	0.	127.49
329	-4.4802	-1.5332	0.	127.74
330	-3.9712	-2.0498	0.	127.47
331	-4.4574	-4.0414	0.	128.14
332	-3.4914	-1.0204	0.	127.7
333	-3.4982	-6.7061e-003	0.	128.18
334	-4.4605	-2.5574	0.	127.58
335	4.5117	5.4816	0.	126.85
336	-2.9969	-0.51028	0.	127.69
337	-2.9999	0.99827	0.	127.8
338	-2.4996	0.49687	0.	127.14
339	-3.9946	-0.51367	0.	128.31
340	-4.9851	-4.5067	0.	127.86
341	-4.4869	-5.4573	0.	126.99
342	-2.4991	-5.1551e-003	0.	127.41
343	-4.4873	-1.023	0.	128.15
344	-4.981	-1.5267	0.	127.68
345	-3.4734	-2.0483	0.	127.2
346	4.5179	4.9768	0.	127.5
347	-3.4998	0.99814	0.	128.45
348	-4.4526	-3.0648	0.	127.8
349	-3.4461	-3.0816	0.	127.69
350	4.5065	5.9872	0.	126.16
351	-2.9632	-2.5576	0.	126.73
352	-2.9931	-1.0178	0.	127.44
353	-2.4999	0.99824	0.	126.87
354	4.9962	3.9866	0.	127.86
355	5.0137	5.4812	0.	126.74
356	-3.9999	1.4988	0.	129.02
357	-3.9974	-8.0139e-003	0.	128.58
358	-4.9921	-4.9877	0.	127.48
359	-4.9665	-2.5392	0.	127.44
360	-4.9704	-4.0228	0.	128.01
361	-4.4928	-5.9456	0.	126.74
362	-2.4977	-0.50888	0.	127.5
363	-3.4999	1.4989	0.	128.78
364	4.5214	4.474	0.	127.91
365	5.4115	3.9267	0.	128.1
366	-4.4999	1.9992	0.	129.12
367	-4.4931	-0.5145	0.	128.62
368	-5.4783	-2.0221	0.	127.12
369	-5.4925	-4.5018	0.	127.95
370	-4.9871	-1.02	0.	128.22
371	4.0153	4.9805	0.	127.67
372	-3.9999	1.9993	0.	129.44
373	-1.9992	-4.6992e-003	0.	127.11
374	-2.9474	-3.0734	0.	127.16
375	-3.9401	-3.5851	0.	128.26
376	-4.9974	-6.4627	0.	126.76
377	-5.4835	-1.5198	0.	127.41
378	-4.4999	2.4995	0.	129.51
379	4.0033	6.4921	0.	125.64
380	4.5032	6.4917	0.	125.59
381	-2.9866	-1.5287	0.	127.07
382	-2.9766	-2.0423	0.	126.76
383	-2.	0.99814	0.	125.76
384	-1.9998	0.49704	0.	126.48
385	5.0226	4.4719	0.	127.93
386	5.0072	5.9875	0.	126.07
387	4.0063	5.9882	0.	126.27
388	-3.9996	0.99774	0.	128.83
389	-4.9924	-5.4759	0.	127.04
390	-4.9632	-3.0412	0.	127.68
391	-4.4977	-6.4426	0.	126.89
392	-3.9734	-5.4459	0.	127.
393	-2.4674	-2.546	0.	125.93
394	-2.4946	-1.0149	0.	127.29
395	-2.9999	1.4988	0.	128.07
396	4.5066	1.4617	0.	128.
397	-1.5001	1.4991	0.	123.53
398	4.53	3.9696	0.	127.88
399	5.5149	5.4848	0.	126.56
400	3.5036	6.4928	0.	125.84
401	-4.4998	1.4987	0.	128.98
402	-4.4964	-8.8539e-003	0.	128.97
403	4.4982	-0.50974	0.	126.4
404	-5.4978	-4.9923	0.	127.6
405	-5.474	-2.5241	0.	127.21
406	-5.4826	-4.0117	0.	128.06
407	4.5149	1.9569	0.	127.55
408	-5.9958	-4.4996	0.	128.11
409	5.0026	1.4414	0.	128.59
410	-4.9919	-0.514	0.	128.89
411	5.8124	3.7603	0.	128.68
412	4.02	4.4768	0.	128.14
413	4.014	1.9735	0.	127.44
414	-4.	2.4996	0.	130.05
415	-3.4999	1.9992	0.	129.41
416	1.4883	-6.4989	0.	125.15
417	-2.4515	-3.0567	0.	126.16
418	-3.4332	-3.5875	0.	128.38
419	3.9987	-0.50582	0.	127.47
420	-5.4979	-6.4772	0.	126.58
421	-4.9984	-6.9644	0.	127.04
422	-3.9405	-4.065	0.	128.49
423	-1.4994	-3.6832e-003	0.	126.87
424	3.5127	4.9845	0.	127.85
425	-5.488	-1.0159	0.	128.09
426	-5.9833	-2.0142	0.	126.76
427	-4.5	2.9997	0.	130.06
428	-4.9999	1.9993	0.	128.66
429	5.5015	6.9956	0.	125.42
430	-1.0001	1.9995	0.	121.
431	-3.9899	-5.9309	0.	126.64
432	-4.0027	-6.437	0.	127.03
433	-4.5028	-6.9523	0.	127.3
434	5.0013	6.9954	0.	125.3
435	3.502	6.9949	0.	125.4
436	4.0021	6.9945	0.	125.22
437	1.5036	-5.9976	0.	124.48
438	-2.4801	-2.0336	0.	126.22
439	-2.	1.499	0.	125.13
440	4.5012	0.96903	0.	128.23
441	-1.5	0.9982	0.	124.73
442	-1.4998	0.49745	0.	125.89
443	4.5712	3.4661	0.	127.45
444	5.5536	4.4341	0.	128.44
445	5.5035	6.4934	0.	125.57
446	5.508	5.9898	0.	125.9
447	3.506	5.99	0.	126.5
448	-4.4994	0.99741	0.	129.03
449	4.498	-1.5956e-002	0.	127.36
450	-5.4988	-5.9791	0.	126.7
451	-5.4985	-5.4846	0.	127.12
452	-5.4731	-3.0235	0.	127.54
453	4.5588	2.9607	0.	127.12
454	4.5333	2.4566	0.	127.15
455	-3.5009	6.9896	0.	127.69
456	3.002	6.9958	0.	125.93
457	1.9821	-7.0016	0.	126.25
458	5.138	3.4833	0.	127.21
459	5.0112	1.9322	0.	127.95
460	-5.9891	-4.0046	0.	128.2
461	-5.9811	-2.5139	0.	126.98
462	-4.0008	6.9793	0.	127.87
463	-5.9998	-4.9953	0.	127.78
464	4.9987	0.95352	0.	128.63
465	4.9997	-2.002	0.	121.4
466	-4.9996	1.4984	0.	128.83
467	3.0038	6.4936	0.	126.34
468	5.9619	4.1704	0.	129.47
469	6.2274	3.6535	0.	129.49
470	6.0162	5.4944	0.	126.06
471	4.0267	2.4726	0.	127.36
472	4.0292	3.9737	0.	128.28
473	3.9986	-9.7512e-003	0.	128.09
474	4.0067	1.4769	0.	127.77
475	-4.	2.9997	0.	130.63
476	-3.	1.9993	0.	128.76
477	-1.5001	1.9994	0.	122.39
478	-1.996	-1.011	0.	127.4
479	-1.9723	-2.5327	0.	125.09
480	1.4738	-6.9978	0.	126.01
481	1.0077	-5.9891	0.	123.45
482	-1.957	-3.0425	0.	125.02
483	-2.9302	-3.5795	0.	128.08
484	3.999	-1.0036	0.	126.56
485	1.9913	-6.5018	0.	126.05
486	-5.4979	-6.9779	0.	126.81
487	-5.9987	-6.4881	0.	126.33
488	-3.4248	-4.0723	0.	129.04
489	-3.5251	-6.965	0.	128.35
490	-1.4988	-0.50513	0.	127.6
491	-3.5	2.4996	0.	130.34
492	3.4991	-0.50327	0.	128.43
493	-0.99958	-2.498e-003	0.	126.55
494	3.0102	4.9888	0.	127.86
495	3.5172	4.4824	0.	128.42
496	5.4959	1.4213	0.	129.44
497	1.5219	-4.9945	0.	123.76
498	4.4997	-2.0015	0.	122.07
499	-5.4921	-0.51182	0.	129.02
500	-5.9865	-1.5134	0.	126.95
501	-4.5	3.4996	0.	130.56
502	-4.9999	2.4995	0.	128.84
503	6.0014	6.9969	0.	125.59
504	-0.50007	1.9997	0.	121.47
505	-6.4973	-4.499	0.	128.06
506	-3.5003	6.492	0.	129.1
507	-3.001	6.9952	0.	127.66
508	1.0318	-4.4893	0.	122.08
509	-1.	2.4997	0.	119.3
510	3.5112	1.9851	0.	127.76
511	2.502	6.9962	0.	127.17
512	-5.4998	1.9991	0.	128.43
513	2.4886	-7.002	0.	126.99
514	4.9999	-2.501	0.	118.84
515	-6.4883	-2.0085	0.	126.69
516	5.0752	2.938	0.	126.66
517	5.0329	2.4298	0.	127.1
518	-5.9811	-3.0123	0.	127.49
519	-3.9999	4.4987	0.	130.09
520	-4.0034	6.4862	0.	128.95
521	-6.	-5.989	0.	126.62
522	-6.0005	-5.4915	0.	127.22
523	4.9972	-2.3898e-002	0.	126.88
524	4.9992	-1.5046	0.	123.23
525	-4.9992	0.99717	0.	129.24
526	3.0053	5.9917	0.	127.
527	6.0095	5.9926	0.	125.59
528	6.3909	4.0706	0.	130.85
529	6.0409	4.5664	0.	128.73
530	4.0431	3.473	0.	128.04
531	-1.	0.99863	0.	124.1
532	-0.99982	0.49786	0.	125.46
533	4.0019	0.98116	0.	128.18
534	-4.0001	4.9972	0.	129.81
535	-3.9999	3.9993	0.	130.56
536	-4.	3.4996	0.	130.83
537	-2.	1.9994	0.	124.81
538	-1.9914	-1.5168	0.	126.77
539	-1.9836	-2.0243	0.	125.8
540	1.0243	-5.4884	0.	122.99
541	1.0321	-4.9883	0.	122.91
542	0.96425	-6.988	0.	126.35
543	0.98591	-6.4883	0.	124.87
544	-1.9387	-3.5533	0.	125.16
545	-2.4322	-3.5671	0.	126.97
546	3.9994	-1.502	0.	125.35
547	2.0013	-6.0011	0.	126.18
548	2.0095	-5.4997	0.	126.25
549	-5.9982	-6.9876	0.	126.64
550	0.94881	-7.4857	0.	127.19
551	1.4641	-7.4952	0.	126.81
552	1.9762	-7.4995	0.	126.8
553	-6.9928	-2.0043	0.	127.8
554	5.	-3.0005	0.	115.66
555	2.9932	-7.0015	0.	128.63
556	-5.9998	1.9992	0.	129.23
557	2.0017	6.9972	0.	129.92
558	3.0073	1.9923	0.	129.09
559	-1.	2.9999	0.	117.42
560	1.0246	-3.9917	0.	120.
561	-2.9998	6.4959	0.	129.43
562	-4.4702	7.4465	0.	126.85
563	-4.0053	7.476	0.	126.6
564	-3.5079	7.4882	0.	126.56
565	-3.0056	7.4945	0.	126.66
566	-2.5033	7.4977	0.	127.11
567	7.	-7.	0.	130.04
568	7.5	-7.	0.	128.91
569	7.5	-7.5	0.	128.76
570	-6.9979	-4.4991	0.	127.09
571	-4.6573e-005	1.9999	0.	124.18
572	3.0013	7.497	0.	125.88
573	3.5012	7.4967	0.	125.29
574	4.0009	7.4969	0.	125.07
575	4.5006	7.4972	0.	125.07
576	5.0005	7.4973	0.	125.18
577	5.5004	7.4976	0.	125.33
578	6.0004	7.4983	0.	125.48
579	6.5003	7.4992	0.	125.55
580	7.0004	7.4996	0.	125.25
581	-5.	2.9996	0.	129.37
582	-5.	3.4994	0.	130.13
583	-5.9898	-1.0116	0.	127.63
584	-5.9926	-0.50938	0.	128.72
585	-6.49	-1.5086	0.	126.61
586	4.4999	-2.5008	0.	120.04
587	-5.4999	2.4995	0.	128.27
588	1.5221	-4.494	0.	123.06
589	-2.5009	6.9978	0.	127.71
590	-0.50003	2.4998	0.	120.14
591	2.4851	-7.5008	0.	127.18
592	2.5013	7.4971	0.	127.19
593	5.5028	1.9001	0.	128.81
594	5.682	3.3152	0.	126.73
595	-6.4872	-2.5075	0.	127.05
596	-6.493	-4.0012	0.	128.24
597	-4.5	3.9991	0.	130.76
598	-4.5044	6.9719	0.	128.48
599	-4.5023	5.4926	0.	129.24
600	-6.5001	-4.9972	0.	127.87
601	-6.4993	-6.4942	0.	126.16
602	-2.0916	-7.5223	0.	125.54
603	-2.5648	-7.5077	0.	128.46
604	-3.0421	-7.4863	0.	128.96
605	-3.5256	-7.4761	0.	128.6
606	-4.0147	-7.4691	0.	128.11
607	-4.5057	-7.4643	0.	127.72
608	-5.001	-7.4713	0.	127.44
609	-5.4998	-7.4804	0.	127.25
610	-5.9992	-7.488	0.	127.2
611	5.9891	1.4054	0.	130.17
612	5.4935	0.93978	0.	129.31
613	5.4977	-0.52089	0.	125.32
614	7.5001	-2.5002	0.	123.87
615	7.5	-6.5	0.	129.72
616	7.5	-3.0001	0.	125.93
617	7.5	-4.5	0.	128.01
618	5.4997	-2.0032	0.	122.53
619	5.4999	-2.5019	0.	120.39
620	2.0142	-4.9981	0.	126.05
621	2.494	-6.5023	0.	127.53
622	-5.4995	1.4982	0.	128.9
623	-5.4952	-8.1949e-003	0.	129.86
624	2.5033	6.4951	0.	127.51
625	6.5013	6.998	0.	125.84
626	6.5175	5.4901	0.	125.18
627	3.5232	3.9809	0.	128.83
628	3.519	2.4831	0.	127.89
629	3.0138	4.4874	0.	128.25
630	2.5079	4.9921	0.	127.49
631	-0.50008	1.4994	0.	122.79
632	3.5056	1.4871	0.	127.97
633	3.4991	-5.3715e-003	0.	128.78
634	-3.5004	5.9946	0.	130.35
635	-3.5	2.9997	0.	131.22
636	-3.4998	4.499	0.	130.22
637	-1.5	2.4997	0.	121.34
638	-3.	2.4995	0.	130.04
639	-0.99912	-0.50335	0.	127.54
640	-1.497	-1.0076	0.	127.86
641	-1.4778	-2.5207	0.	124.68
642	3.4993	-1.0021	0.	128.01
643	3.9998	-2.0011	0.	124.02
644	1.4999	-0.50009	0.	116.35
645	2.9994	-0.50166	0.	128.36
646	0.54283	-4.4838	0.	123.95
647	-1.6354	-7.5192	0.	121.42
648	0.51376	-5.9744	0.	123.36
649	0.43816	-7.4681	0.	127.71
650	-3.044	-6.9821	0.	129.54
651	-2.914	-4.0729	0.	129.44
652	-1.4306	-4.0427	0.	122.29
653	-3.512	-6.4494	0.	127.38
654	-3.4563	-5.4621	0.	126.89
655	7.4634	1.3555	0.	114.13
656	-3.488	-5.951	0.	126.55
657	-2.4119	-4.0735	0.	128.33
658	-2.1024	-7.0574	0.	128.87
659	0.45486	-6.9697	0.	127.51
660	0.48399	-6.4717	0.	125.63
661	-0.59715	-7.9316	0.	123.97
662	0.53601	-5.4766	0.	122.85
663	0.54494	-4.9795	0.	124.26
664	3.4999	-2.0005	0.	126.27
665	3.4996	-1.5013	0.	127.3
666	-1.4642	-3.0271	0.	124.51
667	-1.4487	-3.5347	0.	124.32
668	-1.4873	-2.0156	0.	125.79
669	-0.49939	-0.50192	0.	126.37
670	-2.	2.4997	0.	125.03
671	-3.5	3.4997	0.	131.42
672	-3.5	5.4966	0.	130.86
673	-3.4999	4.998	0.	130.46
674	3.5019	0.98957	0.	128.4
675	1.9998	-0.50026	0.	120.6
676	2.4997	-0.50067	0.	125.7
677	0.50016	-0.50028	0.	119.44
678	1.	-0.5001	0.	116.2
679	-0.50003	0.99907	0.	124.09
680	-0.49992	0.49874	0.	125.23
681	2.5103	4.4916	0.	126.76
682	2.0066	4.4954	0.	123.85
683	3.5287	3.4806	0.	128.82
684	6.5225	4.5115	0.	129.19
685	6.5089	5.993	0.	125.17
686	2.5062	5.4928	0.	128.14
687	2.5046	5.9936	0.	127.97
688	-5.4977	0.49505	0.	130.12
689	-5.499	0.997	0.	129.57
690	2.5002	-6.002	0.	128.51
691	2.5056	-5.501	0.	129.22
692	6.	-2.5018	0.	123.51
693	7.5	-3.5001	0.	126.91
694	7.5	-5.5	0.	131.04
695	7.5	-5.	0.	129.71
696	6.5001	-2.5016	0.	125.37
697	7.0001	-2.5007	0.	124.8
698	5.4994	-1.5065	0.	123.93
699	5.4957	-3.2191e-002	0.	126.74
700	-6.4989	-7.4938	0.	127.44
701	-6.4988	-6.9936	0.	126.6
702	-6.5004	-5.9946	0.	126.57
703	-6.5008	-5.4956	0.	127.44
704	-4.5061	5.9878	0.	129.39
705	-4.5114	6.4824	0.	129.49
706	-4.5001	4.4978	0.	130.45
707	-4.5007	4.9956	0.	129.65
708	-6.4895	-3.5037	0.	128.17
709	-6.4876	-3.006	0.	127.6
710	6.9701	1.3777	0.	121.45
711	5.58	2.8544	0.	126.29
712	5.5192	2.3793	0.	127.26
713	2.0011	7.4978	0.	129.35
714	2.9913	-7.5008	0.	127.91
715	-0.49999	2.9999	0.	118.64
716	-2.0006	6.9992	0.	128.6
717	-1.6419	-7.0704	0.	119.59
718	1.5175	-3.9948	0.	121.76
719	0.50029	-1.0003	0.	118.17
720	-6.3385e-005	1.4997	0.	124.15
721	3.0118	2.4907	0.	128.78
722	-5.9999	2.4994	0.	128.13
723	4.5001	-3.0003	0.	117.84
724	7.	-6.5	0.	130.66
725	-6.9935	-1.5048	0.	126.8
726	-5.9689	7.3968	0.	127.68
727	6.226	3.1864	0.	127.26
728	-6.492	-1.0079	0.	126.84
729	-6.494	-0.50672	0.	127.45
730	-5.5	2.9996	0.	128.41
731	-5.5	3.4994	0.	128.85
732	7.5002	7.5002	0.	123.99
733	-1.397e-005	2.4999	0.	123.39
734	8.0002	7.5002	0.	122.01
735	2.5007	7.9981	0.	127.5
736	3.0007	7.998	0.	126.17
737	3.5005	7.9982	0.	125.46
738	4.0004	7.9983	0.	125.18
739	4.5003	7.9984	0.	125.14
740	5.0002	7.9985	0.	125.22
741	5.5001	7.9986	0.	125.33
742	6.0001	7.9988	0.	125.39
743	6.5001	7.9995	0.	125.3
744	7.0001	7.9999	0.	124.87
745	7.5001	8.0001	0.	124.01
746	8.0001	8.0002	0.	123.03
747	2.4834	-7.9994	0.	127.89
748	1.9729	-7.9973	0.	127.61
749	1.4594	-7.9926	0.	127.5
750	0.94798	-7.9827	0.	127.5
751	0.43125	-7.9696	0.	127.33
752	-8.2328e-002	-7.9523	0.	126.25
753	-1.5806	-7.9855	0.	122.47
754	-2.0644	-8.007	0.	124.87
755	-2.5478	-8.0027	0.	126.99
756	-3.033	-7.9908	0.	128.06
757	-3.523	-7.9852	0.	128.31
758	-4.0142	-7.9803	0.	128.19
759	-4.5075	-7.9772	0.	127.98
760	-5.0026	-7.9786	0.	127.77
761	-5.5003	-7.9842	0.	127.63
762	-5.9996	-7.9895	0.	127.59
763	-6.4993	-7.994	0.	127.66
764	-7.4985	-4.4993	0.	123.88
765	-7.999	-4.4995	0.	119.06
766	7.	-7.5	0.	129.15
767	8.	-2.5002	0.	125.03
768	8.	-3.0001	0.	126.17
769	8.	-4.	0.	127.26
770	8.	-4.5	0.	127.88
771	8.	-5.	0.	128.83
772	8.	-5.5	0.	129.51
773	8.	-6.	0.	129.49
774	8.	-6.5	0.	128.98
775	8.	-7.	0.	128.59
776	8.	-7.5	0.	128.63
777	7.5	-8.	0.	129.18
778	7.4677	0.90434	0.	113.77
779	-2.0018	7.4991	0.	128.14
780	-5.3154	7.6602	0.	125.42
781	-4.6078	7.9394	0.	125.38
782	-4.0452	7.9752	0.	125.68
783	-3.5224	7.9875	0.	125.92
784	-2.5061	7.9973	0.	127.18
785	-2.9044	-4.5572	0.	130.76
786	-3.0273	-6.4831	0.	128.47
787	2.3471e-002	-5.9541	0.	122.73
788	-8.2983e-002	-7.4455	0.	128.06
789	-1.4125	-4.5522	0.	116.82
790	5.4973e-002	-4.479	0.	128.52
791	3.0004	-2.4998	0.	127.55
792	2.9995	-1.0011	0.	128.94
793	0.53265	-3.989	0.	121.98
794	-0.99793	-1.0046	0.	128.57
795	-1.5	2.9999	0.	120.28
796	-2.9998	4.4994	0.	130.39
797	-2.9997	5.997	0.	131.78
798	3.0169	3.9867	0.	129.15
799	7.001	6.9989	0.	126.13
800	2.0024	6.4966	0.	129.53
801	2.0058	4.995	0.	126.94
802	-5.9995	1.4982	0.	129.34
803	-5.9953	-6.8934e-003	0.	130.12
804	7.0001	-3.0004	0.	126.83
805	6.	-2.004	0.	124.89
806	-8.0139	5.478	0.	122.26
807	-5.0297	6.9937	0.	129.57
808	-5.0001	3.9986	0.	131.06
809	-6.9955	-4.	0.	127.73
810	6.8107	3.9141	0.	131.28
811	5.9921	1.8785	0.	130.16
812	6.0657	2.7587	0.	125.16
813	6.4782	1.8852	0.	132.33
814	6.9637	1.8419	0.	124.57
815	8.3368	4.3645	0.	117.13
816	7.0752	4.3934	0.	126.62
817	-5.7723	7.8014	0.	125.88
818	-5.6072	8.205	0.	124.23
819	-7.9985	-3.9997	0.	118.58
820	-7.4973	-3.9996	0.	124.97
821	-6.9926	-3.0024	0.	128.24
822	-6.9944	-1.0049	0.	126.5
823	-6.9955	-0.50422	0.	125.61
824	-6.0001	3.9993	0.	124.74
825	-5.5002	3.9986	0.	129.77
826	-5.0013	4.9942	0.	130.22
827	-5.0096	5.9841	0.	130.27
828	-5.0223	6.4791	0.	131.11
829	-5.5857	6.8839	0.	130.58
830	-6.1622	6.9373	0.	125.91
831	-8.0592	6.4784	0.	129.32
832	-8.0289	5.9642	0.	124.45
833	-8.0062	4.986	0.	122.99
834	-8.0025	4.492	0.	123.09
835	-7.5004	3.9969	0.	117.34
836	-7.0003	-5.9976	0.	127.11
837	-7.0006	-5.4978	0.	127.98
838	-7.4999	-4.9991	0.	125.12
839	-7.9998	-4.9995	0.	119.3
840	-7.4994	-7.9989	0.	126.33
841	-6.9991	-7.4971	0.	128.29
842	-6.9993	-6.9971	0.	127.26
843	6.9741	0.91476	0.	120.09
844	6.4816	0.92125	0.	127.61
845	5.9947	-3.4836e-002	0.	127.26
846	5.9998	-1.5076	0.	125.99
847	7.0002	-2.0012	0.	123.
848	7.	-5.	0.	131.3
849	7.	-5.5	0.	133.84
850	7.	-4.0001	0.	127.65
851	7.	-3.5002	0.	128.02
852	6.5001	-3.0009	0.	126.87
853	6.	-3.0009	0.	122.96
854	4.0004	-3.0001	0.	123.28
855	3.5008	-2.9998	0.	128.32
856	3.0049	-3.9993	0.	131.3
857	3.0051	-5.0006	0.	131.66
858	3.0031	-5.5013	0.	133.15
859	2.9999	-6.0017	0.	131.48
860	-6.9968	-3.3983e-003	0.	123.31
861	-6.4959	-5.2311e-003	0.	128.59
862	-5.9973	0.49535	0.	130.96
863	-5.9988	0.99709	0.	130.36
864	-6.	2.9996	0.	127.81
865	-6.	3.4995	0.	126.95
866	-6.5001	3.9993	0.	119.57
867	-7.0002	3.9986	0.	117.06
868	2.0046	5.4953	0.	129.5
869	2.0034	5.9958	0.	130.02
870	7.5007	6.9997	0.	125.06
871	7.0066	5.9932	0.	125.44
872	3.016	2.9889	0.	129.42
873	3.0183	3.4875	0.	129.82
874	2.0063	3.9962	0.	121.57
875	-2.6947e-005	0.99942	0.	124.97
876	6.2472e-005	0.49917	0.	125.32
877	1.9999	-3.1577e-004	0.	119.37
878	2.4997	-1.0101e-003	0.	126.28
879	3.	0.49639	0.	129.38
880	3.0014	0.99492	0.	129.06
881	-2.9998	4.9988	0.	132.23
882	-3.	3.4998	0.	132.74
883	-2.	2.9998	0.	125.93
884	6.821e-004	-1.0009	0.	123.42
885	-0.49867	-1.0023	0.	127.8
886	-0.99123	-2.0084	0.	126.9
887	-0.97276	-3.0133	0.	125.79
888	-0.95824	-3.5154	0.	126.23
889	-0.44932	-3.9939	0.	127.76
890	4.1411e-002	-3.9883	0.	126.13
891	3.	-2.0002	0.	128.48
892	2.9997	-1.5007	0.	129.44
893	1.9999	-1.0002	0.	122.07
894	2.0121	-3.9971	0.	126.45
895	2.5081	-3.9985	0.	130.45
896	3.0013	-2.9995	0.	130.52
897	5.3541e-002	-5.4603	0.	125.11
898	6.1421e-002	-4.9688	0.	128.28
899	-0.92441	-4.5015	0.	120.48
900	-1.1801	-7.3477	0.	118.09
901	-0.61575	-7.4094	0.	123.62
902	-5.7984e-002	-6.9448	0.	129.84
903	-1.7317e-002	-6.4485	0.	127.86
904	-2.1012	-6.6196	0.	131.4
905	-1.8993	-4.5975	0.	125.72
906	-2.3968	-4.5824	0.	131.72
907	-2.9873	-5.993	0.	126.01
908	-2.9364	-5.5142	0.	127.59
909	7.9583	1.3414	0.	115.65
910	8.493	3.9675	0.	123.63
911	1.0017	4.4993	0.	119.73
912	7.9583	0.89991	0.	117.21
913	-8.4998	-4.9997	0.	115.7
914	8.5	8.0001	0.	122.79
915	5.6816e-005	2.9999	0.	123.82
916	1.0015	3.9995	0.	120.08
917	1.5035	4.9976	0.	125.74
918	-2.4996	5.9986	0.	132.22
919	7.	-8.5	0.	130.06
920	2.9898	-8.4992	0.	129.25
921	0.9523	-8.4841	0.	127.68
922	0.44254	-8.4746	0.	127.05
923	-6.344e-002	-8.4643	0.	125.96
924	-0.564	-8.4561	0.	124.5
925	-3.0225	-8.4945	0.	127.38
926	-4.0093	-8.4852	0.	128.09
927	-4.5052	-8.484	0.	128.07
928	-5.5006	-8.4883	0.	127.81
929	-5.9997	-8.4919	0.	127.64
930	-8.4997	-8.4998	0.	120.69
931	8.	-2.0003	0.	123.5
932	8.4798	1.7667	0.	126.78
933	8.4603	1.3353	0.	123.83
934	8.5	-2.5002	0.	127.24
935	8.5	-4.	0.	127.54
936	8.5	-4.5	0.	127.89
937	2.0007	7.9984	0.	129.96
938	-5.9765	8.6894	0.	132.23
939	-5.5227	8.6321	0.	126.99
940	-4.5473	8.4886	0.	125.16
941	-4.037	8.4825	0.	125.44
942	-3.5234	8.4887	0.	125.83
943	-2.5075	8.497	0.	127.52
944	2.0004	8.499	0.	130.13
945	2.5004	8.4988	0.	127.85
946	3.5002	8.499	0.	125.78
947	4.0002	8.499	0.	125.48
948	5.	8.4992	0.	125.41
949	-8.0009	3.9956	0.	121.45
950	-8.4991	-3.7664e-004	0.	118.3
951	-8.5015	3.995	0.	126.49
952	-8.5032	4.4917	0.	124.98
953	-8.5067	4.9867	0.	124.21
954	-8.5206	5.9678	0.	126.27
955	-8.5321	6.4458	0.	129.03
956	-8.4113	6.9396	0.	131.88
957	-8.507	7.4844	0.	129.74
958	-8.5637	7.9886	0.	125.19
959	-8.581	8.4853	0.	129.48
960	-2.3891	-5.0954	0.	135.87
961	-2.4931	-6.0706	0.	126.95
962	-9.0418	8.4903	0.	125.58
963	-9.0313	7.9855	0.	124.89
964	-8.9994	7.4782	0.	126.73
965	-8.9742	6.9753	0.	128.55
966	-9.0046	6.4776	0.	128.11
967	-9.0124	5.9807	0.	126.81
968	-9.0092	5.4861	0.	125.89
969	-9.0053	4.9906	0.	125.88
970	-9.0027	4.494	0.	126.69
971	-9.0013	3.9964	0.	128.08
972	-9.0007	3.4976	0.	129.15
973	-9.0003	2.9986	0.	128.98
974	-9.0001	2.4992	0.	128.39
975	-9.	1.9995	0.	128.57
976	-9.	1.4997	0.	127.55
977	-8.9998	0.99977	0.	127.09
978	-8.9996	0.49978	0.	125.81
979	-7.5112	9.1977	0.	117.27
980	-7.0179	9.0593	0.	116.68
981	-6.4895	9.0727	0.	128.96
982	-5.9935	9.0977	0.	130.9
983	-5.5026	9.0803	0.	128.03
984	-5.012	9.0375	0.	126.35
985	-4.5177	9.003	0.	125.89
986	-4.0179	8.9918	0.	125.97
987	-3.5144	8.9923	0.	126.21
988	-3.0103	8.995	0.	126.61
989	-2.5067	8.9972	0.	127.3
990	-2.004	8.9986	0.	128.34
991	-1.5023	8.9994	0.	128.28
992	-1.001	8.9998	0.	124.55
993	-0.50048	8.9999	0.	119.84
994	-2.0361e-004	9.	0.	117.89
995	0.49994	9.	0.	120.17
996	1.	8.9999	0.	125.06
997	1.5001	8.9996	0.	128.79
998	2.0002	8.9994	0.	128.71
999	2.5002	8.9994	0.	127.48
1000	3.0001	8.9995	0.	126.64
1001	3.5001	8.9995	0.	126.16
1002	4.0001	8.9995	0.	125.93
1003	4.5	8.9995	0.	125.82
1004	5.	8.9995	0.	125.75
1005	6.5	8.9998	0.	125.35
1006	7.	9.	0.	125.07
1007	8.	9.0001	0.	124.48
1008	8.9843	3.5283	0.	126.81
1009	9.0398	3.0481	0.	124.05
1010	9.0861	2.5641	0.	128.54
1011	9.0794	2.0749	0.	132.06
1012	8.9926	1.5782	0.	131.
1013	8.905	1.0673	0.	129.03
1014	8.972	0.51715	0.	129.35
1015	8.9923	3.8967e-003	0.	128.7
1016	8.9981	-0.49928	0.	127.66
1017	8.9996	-0.99999	0.	129.35
1018	9.	-1.5001	0.	130.35
1019	9.	-2.0001	0.	129.73
1020	9.	-3.5	0.	127.96
1021	9.	-4.	0.	127.88
1022	9.	-4.5	0.	127.92
1023	9.	-5.	0.	128.05
1024	9.	-5.5	0.	128.17
1025	9.	-6.	0.	128.23
1026	9.	-6.5	0.	128.26
1027	9.	-7.	0.	128.39
1028	9.	-7.5	0.	128.69
1029	8.5	-9.	0.	129.99
1030	8.	-9.	0.	129.96
1031	7.5	-9.	0.	129.76
1032	7.	-9.	0.	129.07
1033	6.5	-9.	0.	126.29
1034	5.9999	-9.	0.	119.68
1035	5.4997	-9.	0.	112.92
1036	4.9995	-9.	0.	110.19
1037	4.4988	-8.9999	0.	112.85
1038	3.9971	-8.9997	0.	119.51
1039	2.9912	-8.9989	0.	128.47
1040	2.4864	-8.9978	0.	128.91
1041	1.9805	-8.9959	0.	128.82
1042	1.4735	-8.9926	0.	128.44
1043	0.96671	-8.9878	0.	127.86
1044	0.46155	-8.9822	0.	127.06
1045	-4.0545e-002	-8.9773	0.	126.04
1046	-0.53893	-8.9745	0.	125.
1047	-1.0348	-8.9803	0.	124.33
1048	-1.5289	-8.9921	0.	124.37
1049	-2.0233	-8.9998	0.	125.08
1050	-2.5183	-9.0002	0.	126.08
1051	-3.0136	-8.9969	0.	126.99
1052	-3.5093	-8.9928	0.	127.61
1053	-4.0058	-8.9908	0.	127.95
1054	-4.5032	-8.99	0.	128.05
1055	-5.0014	-8.9906	0.	128.01
1056	-5.5002	-8.9924	0.	127.84
1057	-5.9998	-8.9945	0.	127.52
1058	-6.4995	-8.9964	0.	126.97
1059	-6.9995	-8.9981	0.	126.01
1060	-7.4996	-8.999	0.	124.55
1061	-7.9997	-8.9996	0.	122.93
1062	-8.4998	-8.9998	0.	122.07
1063	-0.57735	-6.9053	0.	131.76
1064	-0.41849	-4.9576	0.	139.72
1065	2.5048	-3.4987	0.	134.47
1066	2.4998	-1.5003	0.	131.58
1067	-0.46693	-3.5013	0.	130.83
1068	-0.49743	-1.5028	0.	131.09
1069	-2.5	3.4999	0.	134.98
1070	-2.4997	5.499	0.	136.97
1071	-1.9997	5.9994	0.	129.88
1072	1.0018	4.9991	0.	122.87
1073	2.5	0.49853	0.	129.64
1074	0.50001	0.49976	0.	125.64
1075	0.50047	3.4999	0.	132.46
1076	2.5113	3.4927	0.	130.78
1077	8.9604	4.0187	0.	126.66
1078	7.5933	4.5575	0.	123.23
1079	7.5015	6.4987	0.	128.3
1080	9.	8.5	0.	124.39
1081	9.	8.	0.	123.8
1082	9.0001	7.5001	0.	122.92
1083	9.0001	7.0001	0.	121.95
1084	3.4946	-8.4996	0.	129.9
1085	6.5	-8.5	0.	130.43
1086	1.5003	8.4993	0.	133.33
1087	1.5028	5.4977	0.	132.07
1088	-1.5019	8.4995	0.	132.38
1089	-8.5007	3.4971	0.	130.06
1090	-6.5	3.4995	0.	126.22
1091	-6.4976	0.49644	0.	131.7
1092	-8.4994	0.49965	0.	125.34
1093	3.5015	-5.5009	0.	137.4
1094	3.5016	-3.4996	0.	132.8
1095	6.5	-3.5005	0.	130.33
1096	6.5	-5.5	0.	137.47
1097	6.5002	-1.5053	0.	129.19
1098	6.4876	0.44821	0.	130.09
1099	8.4753	0.46704	0.	129.49
1100	-7.4994	-7.4988	0.	129.9
1101	-8.9999	-8.4999	0.	121.69
1102	-8.9999	-7.9999	0.	120.7
1103	-7.5003	-5.499	0.	128.96
1104	-7.5014	4.4944	0.	123.42
1105	-7.57	6.3654	0.	123.22
1106	-5.5375	6.4538	0.	134.29
1107	-5.5006	4.4972	0.	132.63
1108	-7.4971	-0.50221	0.	125.33
1109	-7.4966	-3.5001	0.	128.76
1110	-8.9998	-4.9998	0.	119.33
1111	-8.9996	-3.9999	0.	118.97
1112	-8.9996	-1.5637e-004	0.	123.09
1113	-6.0427	8.3253	0.	128.27
1114	-7.7121	6.7369	0.	125.1
1115	-9.0283	8.9937	0.	127.15
1116	9.	9.	0.	124.73
1117	9.	-9.	0.	130.06
1118	-8.9999	-8.9999	0.	122.5
1119	-1.1018	-6.8106	0.	105.37
1120	-2.025	-6.2023	0.	133.23
1121	-1.6205	-6.569	0.	127.79
1122	-1.8823	-5.1688	0.	132.58
1123	-0.90441	-4.9674	0.	114.91
1124	-0.5173	-6.4174	0.	133.77
1125	-0.46091	-5.9256	0.	129.82
1126	2.5016	-2.9993	0.	132.5
1127	2.5004	-2.4998	0.	131.2
1128	2.5	-2.0001	0.	131.43
1129	2.0069	-3.498	0.	128.32
1130	1.5097	-3.4969	0.	118.61
1131	1.0134	-3.4954	0.	119.17
1132	0.51802	-3.4944	0.	118.38
1133	1.9999	-1.5001	0.	124.37
1134	1.5	-1.5001	0.	115.73
1135	1.0002	-1.5001	0.	116.36
1136	0.50048	-1.5003	0.	115.93
1137	1.2827e-003	-1.5009	0.	124.63
1138	-0.48361	-3.0042	0.	129.18
1139	-0.49535	-2.0033	0.	129.67
1140	-0.49141	-2.504	0.	128.94
1141	-2.5	3.9998	0.	134.03
1142	-2.4998	4.9994	0.	135.67
1143	-2.4999	4.4997	0.	134.29
1144	-1.9998	5.4996	0.	132.
1145	-1.4999	5.4999	0.	124.57
1146	0.50098	4.9996	0.	121.61
1147	0.50063	3.9999	0.	125.77
1148	0.50077	4.4997	0.	122.79
1149	-2.	3.4999	0.	128.26
1150	-1.5	3.4999	0.	117.93
1151	-0.99999	3.4999	0.	117.25
1152	-0.49994	3.4999	0.	115.73
1153	2.0244e-004	3.5	0.	125.05
1154	2.	0.49963	0.	120.2
1155	0.99999	0.49993	0.	117.1
1156	1.5	0.49991	0.	107.26
1157	0.49999	0.9997	0.	125.97
1158	0.49996	1.4998	0.	128.12
1159	0.49998	1.9999	0.	130.43
1160	0.50012	3.	0.	128.55
1161	0.5	2.4999	0.	129.86
1162	1.0011	3.4997	0.	122.49
1163	2.0054	3.4974	0.	121.8
1164	1.5024	3.4992	0.	109.89
1165	2.5007	0.99804	0.	129.08
1166	2.5019	1.4975	0.	131.77
1167	2.5036	1.9968	0.	133.5
1168	2.5057	2.4959	0.	132.02
1169	2.5087	2.9939	0.	130.12
1170	8.8697	4.545	0.	119.61
1171	8.1048	4.6975	0.	114.75
1172	7.524	5.0102	0.	124.57
1173	7.5034	5.9975	0.	127.07
1174	7.5082	5.4983	0.	126.58
1175	8.0006	6.4998	0.	121.36
1176	9.0001	6.5	0.	123.06
1177	8.5003	6.5	0.	111.75
1178	3.4954	-8.	0.	129.17
1179	3.4959	-7.5005	0.	131.45
1180	3.4967	-7.0008	0.	133.28
1181	3.4999	-6.0011	0.	132.81
1182	3.4982	-6.501	0.	132.43
1183	6.5	-6.	0.	133.45
1184	6.5	-6.5	0.	133.32
1185	6.5	-7.	0.	134.24
1186	6.5	-8.	0.	129.96
1187	6.5	-7.5	0.	132.3
1188	5.9999	-8.5	0.	121.7
1189	3.9974	-8.4998	0.	121.58
1190	4.4987	-8.5	0.	109.76
1191	4.9995	-8.5	0.	109.32
1192	5.4998	-8.5	0.	109.88
1193	1.5004	7.9991	0.	132.35
1194	1.5007	7.4987	0.	135.12
1195	1.5009	6.9984	0.	136.44
1196	1.502	5.9977	0.	132.56
1197	1.5013	6.4981	0.	134.71
1198	1.0016	5.4992	0.	126.88
1199	0.50076	5.4997	0.	118.97
1200	2.9661e-004	5.4999	0.	114.89
1201	-0.99992	5.5	0.	119.
1202	-0.4999	5.5	0.	108.63
1203	-1.4999	5.9998	0.	127.05
1204	-1.4999	6.4997	0.	130.41
1205	-1.5003	6.9997	0.	133.27
1206	-1.5016	7.9995	0.	130.88
1207	-1.5009	7.4996	0.	132.85
1208	1.0001	8.4998	0.	127.49
1209	0.49998	8.5	0.	116.22
1210	-1.567e-004	8.5	0.	115.95
1211	-0.50041	8.5	0.	115.69
1212	-1.001	8.4998	0.	126.53
1213	-8.0004	3.4978	0.	120.89
1214	-7.	3.4992	0.	118.96
1215	-7.5002	3.4985	0.	108.75
1216	-6.5	2.9996	0.	127.43
1217	-6.4999	2.4995	0.	131.09
1218	-6.4998	1.9992	0.	133.35
1219	-6.4991	0.99787	0.	130.75
1220	-6.4996	1.4987	0.	132.19
1221	-6.9981	0.49799	0.	122.21
1222	-7.999	0.49943	0.	118.83
1223	-7.4986	0.49894	0.	109.36
1224	-8.5003	2.9985	0.	129.66
1225	-8.5001	2.4993	0.	131.49
1226	-8.5	1.9996	0.	132.95
1227	-8.5	1.4997	0.	130.77
1228	-8.4998	0.99974	0.	126.92
1229	3.5024	-5.0005	0.	133.84
1230	3.5023	-3.9997	0.	131.31
1231	3.5026	-4.5	0.	131.12
1232	4.0007	-3.5	0.	125.08
1233	4.5002	-3.5002	0.	114.18
1234	5.0001	-3.5002	0.	114.08
1235	6.	-3.5004	0.	124.24
1236	5.5	-3.5003	0.	113.89
1237	6.5	-4.0002	0.	128.72
1238	6.5	-5.	0.	133.07
1239	6.5	-4.5001	0.	129.48
1240	6.	-5.5	0.	122.42
1241	5.5	-5.5	0.	106.29
1242	4.0006	-5.5002	0.	122.54
1243	4.5002	-5.5	0.	106.4
1244	5.0001	-5.5	0.	107.49
1245	8.	-1.5003	0.	123.41
1246	7.0002	-1.5016	0.	123.43
1247	7.5001	-1.5004	0.	112.92
1248	6.5001	-1.0088	0.	127.95
1249	6.4993	-0.51535	0.	128.33
1250	6.9843	0.45366	0.	121.1
1251	7.9792	0.45177	0.	120.06
1252	7.4826	0.45244	0.	109.11
1253	8.4997	-1.0011	0.	130.68
1254	8.4983	-0.50323	0.	129.86
1255	-7.9997	-7.4996	0.	122.49
1256	-8.9999	-7.5	0.	121.65
1257	-8.9999	-5.4999	0.	120.86
1258	-8.	-5.4996	0.	121.01
1259	-8.4999	-5.4998	0.	110.54
1260	-7.4996	-6.9989	0.	128.98
1261	-7.4999	-6.499	0.	128.89
1262	-7.5001	-5.999	0.	128.68
1263	-7.5035	4.9887	0.	123.78
1264	-7.5256	5.9483	0.	123.03
1265	-7.5084	5.4781	0.	124.01
1266	-7.1003	6.4293	0.	119.14
1267	-6.0402	6.454	0.	124.12
1268	-6.5793	6.5509	0.	113.4
1269	-5.5102	5.9791	0.	131.96
1270	-5.5012	4.995	0.	131.45
1271	-5.5031	5.4903	0.	131.32
1272	-7.0005	4.4982	0.	118.52
1273	-6.5002	4.4994	0.	111.21
1274	-6.0004	4.4991	0.	123.83
1275	-7.4971	-1.0023	0.	126.49
1276	-7.4967	-1.5023	0.	130.41
1277	-7.4966	-2.0018	0.	132.43
1278	-7.4965	-3.0007	0.	128.62
1279	-7.4964	-2.5014	0.	130.95
1280	-7.9984	-3.4999	0.	119.74
1281	-8.9997	-3.5	0.	120.24
1282	-8.4993	-3.4999	0.	108.27
1283	-7.9985	-0.50082	0.	119.08
1284	-8.9997	-0.50008	0.	121.89
1285	-6.8953	8.6278	0.	115.7
1286	-7.2809	8.7026	0.	108.5
1287	-7.6685	8.8257	0.	115.53
1288	-7.9094	7.1207	0.	137.75
1289	-8.1505	8.4701	0.	131.8
1290	-8.1128	8.0089	0.	136.25
1291	-8.0293	7.5585	0.	131.14
1292	-7.303	6.8209	0.	111.13
1293	-6.9457	6.9684	0.	116.59
1294	-6.4323	7.6054	0.	141.29
1295	-6.2118	7.967	0.	117.67
1296	7.1739	3.6439	0.	128.05
1297	6.9239	3.2652	0.	139.56
1298	6.6622	2.8886	0.	118.75
1299	8.2996	2.196	0.	127.36
1300	7.8913	2.2021	0.	104.06
1301	6.9742	2.2956	0.	137.86
1302	7.4453	2.2351	0.	106.71
1303	-9.0076	9.4962	0.	126.27
1304	-8.5002	9.4866	0.	127.98
1305	-7.9576	9.452	0.	124.93
1306	-7.4678	9.5762	0.	120.59
1307	-6.9898	9.5425	0.	121.43
1308	-6.4964	9.5378	0.	125.37
1309	-5.998	9.5441	0.	127.35
1310	-5.4991	9.5367	0.	127.49
1311	-5.0018	9.5194	0.	127.19
1312	-4.5048	9.5042	0.	127.07
1313	-4.0064	9.4974	0.	127.07
1314	-3.5062	9.4964	0.	127.07
1315	-3.005	9.4973	0.	127.04
1316	-2.5037	9.4983	0.	126.92
1317	-2.0025	9.4991	0.	126.58
1318	-1.5015	9.4995	0.	125.5
1319	-1.0009	9.4998	0.	123.49
1320	-0.50044	9.4999	0.	121.26
1321	-2.08e-004	9.5	0.	120.36
1322	0.49993	9.5	0.	121.43
1323	1.	9.4999	0.	123.76
1324	1.5001	9.4998	0.	125.77
1325	2.0001	9.4997	0.	126.75
1326	2.5001	9.4997	0.	126.94
1327	3.	9.4998	0.	126.88
1328	3.5	9.4998	0.	126.75
1329	4.	9.4997	0.	126.59
1330	4.5	9.4998	0.	126.41
1331	5.	9.4998	0.	126.22
1332	5.5	9.4998	0.	126.02
1333	6.	9.4998	0.	125.79
1334	6.5	9.4999	0.	125.54
1335	7.	9.5	0.	125.27
1336	7.5	9.5	0.	125.03
1337	8.	9.5	0.	124.86
1338	8.5	9.5	0.	124.81
1339	9.	9.5	0.	124.89
1340	9.5	9.	0.	125.13
1341	9.5	8.5	0.	125.27
1342	9.5	8.	0.	125.53
1343	9.5	7.5	0.	126.
1344	9.5	7.	0.	127.28
1345	9.5	6.5001	0.	131.08
1346	9.4999	6.0002	0.	131.64
1347	9.4987	5.5009	0.	132.82
1348	9.4886	5.0031	0.	132.89
1349	9.4556	4.5125	0.	133.73
1350	9.4751	4.0184	0.	129.17
1351	9.4957	3.5219	0.	127.42
1352	9.5193	3.0278	0.	126.17
1353	9.5362	2.5309	0.	127.12
1354	9.5295	2.0303	0.	129.8
1355	9.4958	1.5288	0.	130.68
1356	9.4668	1.026	0.	130.49
1357	9.481	0.51687	0.	129.91
1358	9.4936	7.3895e-003	0.	129.04
1359	9.4982	-0.49729	0.	128.64
1360	9.4996	-0.99916	0.	128.98
1361	9.4999	-1.4998	0.	129.63
1362	9.5	-2.	0.	129.74
1363	9.5	-2.5	0.	129.42
1364	9.5	-3.	0.	128.95
1365	9.5	-3.5	0.	128.51
1366	9.5	-4.	0.	128.14
1367	9.5	-4.5	0.	127.88
1368	9.5	-5.	0.	127.73
1369	9.5	-5.5	0.	127.68
1370	9.5	-6.	0.	127.71
1371	9.5	-6.5	0.	127.84
1372	9.5	-7.	0.	128.13
1373	9.5	-7.5	0.	128.58
1374	9.5	-8.	0.	129.17
1375	9.5	-8.5	0.	129.78
1376	9.5	-9.	0.	130.32
1377	9.5	-9.5	0.	130.69
1378	9.	-9.5	0.	130.33
1379	8.5	-9.5	0.	130.2
1380	8.	-9.5	0.	130.02
1381	7.5	-9.5	0.	129.4
1382	7.	-9.5	0.	127.75
1383	6.5	-9.5	0.	124.22
1384	5.9999	-9.5	0.	119.03
1385	5.4998	-9.5	0.	114.1
1386	4.9995	-9.4999	0.	112.07
1387	4.499	-9.4999	0.	114.02
1388	3.998	-9.4997	0.	118.86
1389	3.4968	-9.4995	0.	123.91
1390	2.9949	-9.4992	0.	127.25
1391	2.4924	-9.4985	0.	128.66
1392	1.9895	-9.4974	0.	128.95
1393	1.4863	-9.4957	0.	128.65
1394	0.98327	-9.4934	0.	128.01
1395	0.48121	-9.491	0.	127.16
1396	-1.9056e-002	-9.4891	0.	126.2
1397	-0.51817	-9.4888	0.	125.33
1398	-1.0159	-9.4916	0.	124.79
1399	-1.5132	-9.4963	0.	124.77
1400	-2.0108	-9.4996	0.	125.24
1401	-2.5087	-9.5	0.	126.01
1402	-3.0066	-9.4986	0.	126.8
1403	-3.5047	-9.4969	0.	127.43
1404	-4.003	-9.4957	0.	127.84
1405	-4.5017	-9.4953	0.	128.02
1406	-5.0007	-9.4955	0.	128.
1407	-5.5001	-9.4963	0.	127.8
1408	-5.9998	-9.4973	0.	127.4
1409	-6.4997	-9.4982	0.	126.72
1410	-6.9997	-9.4989	0.	125.73
1411	-7.4997	-9.4994	0.	124.5
1412	-7.9998	-9.4997	0.	123.36
1413	-8.4999	-9.4999	0.	122.78
1414	-8.9999	-9.4999	0.	122.96
1415	-9.5	-9.5	0.	123.56
1416	-9.4999	-9.	0.	123.74
1417	-9.4999	-8.5	0.	124.09
1418	-9.5	-8.	0.	125.18
1419	-9.5	-7.5	0.	128.71
1420	-9.5	-7.	0.	129.08
1421	-9.5	-6.5	0.	129.56
1422	-9.5	-6.	0.	129.19
1423	-9.5	-5.4999	0.	128.9
1424	-9.4999	-4.9999	0.	125.65
1425	-9.4998	-4.4999	0.	125.11
1426	-9.4999	-4.	0.	126.19
1427	-9.4999	-3.5	0.	130.
1428	-9.5	-3.	0.	130.77
1429	-9.5	-2.5	0.	133.86
1430	-9.5	-2.	0.	135.73
1431	-9.5	-1.5	0.	134.43
1432	-9.5	-1.	0.	132.57
1433	-9.4999	-0.50002	0.	132.35
1434	-9.4998	-5.944e-005	0.	129.16
1435	-9.4998	0.49989	0.	128.22
1436	-9.4999	0.99988	0.	127.54
1437	-9.5	1.4999	0.	127.11
1438	-9.5	1.9998	0.	127.03
1439	-9.5001	2.4996	0.	127.33
1440	-9.5002	2.9993	0.	127.87
1441	-9.5004	3.4989	0.	128.36
1442	-9.5008	3.9981	0.	128.23
1443	-9.5016	4.4969	0.	127.69
1444	-9.503	4.9951	0.	127.12
1445	-9.5047	5.4933	0.	126.81
1446	-9.5052	5.9918	0.	126.73
1447	-9.5007	6.491	0.	126.57
1448	-9.4932	6.9896	0.	125.8
1449	-9.5001	7.4884	0.	124.44
1450	-9.5125	7.9909	0.	123.38
1451	-9.5176	8.4946	0.	123.61
1452	-9.5129	8.9975	0.	124.43
1453	-9.5049	9.4991	0.	124.99
1454	8.0958	3.8536	0.	126.08
1455	8.4361	3.511	0.	127.03
1456	8.6588	2.5902	0.	123.89
1457	8.5639	3.0373	0.	134.91
1458	8.0004	7.	0.	120.86
1459	8.5	9.	0.	124.46
1460	-3.0122	7.9938	0.	126.36
1461	6.5864	3.5047	0.	131.25
1462	-0.41658	-5.4357	0.	126.21
1463	2.4997	-1.0005	0.	127.42
1464	-3.9489	-3.0761	0.	127.85
1465	-8.9996	-4.4998	0.	119.35
1466	8.5	8.5001	0.	123.83
1467	-8.5123	5.4776	0.	124.43
1468	2.5096	-4.4989	0.	128.7
1469	-0.43406	-4.4805	0.	128.8
1470	-4.0117	-6.9543	0.	127.69
1471	6.4952	-2.8888e-002	0.	128.89
1472	8.6951	2.1436	0.	138.02
1473	3.0039	1.4933	0.	128.55
1474	-6.9993	-8.4975	0.	126.65
1475	4.5016	6.9948	0.	125.22
1476	5.9846	2.3287	0.	128.63
1477	6.4799	1.3971	0.	128.03
1478	8.5002	7.0001	0.	118.32
1479	8.	-8.5	0.	129.65
1480	-7.9996	-7.9995	0.	121.52
1481	-2.5	2.9998	0.	130.74
1482	8.5	-5.	0.	128.34
1483	8.5	-6.5	0.	128.58
1484	5.9978	-0.52198	0.	125.1
1485	5.5	-3.0009	0.	117.89
1486	6.4617	2.4238	0.	132.06
1487	-8.4991	-3.9998	0.	114.8
1488	3.5091	5.4871	0.	127.22
1489	4.9986	-1.0091	0.	124.5
1490	0.50007	-3.2402e-004	0.	121.46
1491	-8.5496	8.984	0.	131.91
1492	3.5265	2.9815	0.	128.29
1493	7.5	-8.5	0.	129.77
1494	5.4987	-1.0137	0.	124.51
1495	7.5	-4.	0.	127.15
1496	3.9447e-004	-0.50096	0.	123.5
1497	8.5001	7.5001	0.	121.16
1498	4.4987	-1.0062	0.	125.24
1499	-1.9999	6.4992	0.	128.47
1500	-2.9999	3.9996	0.	131.78
1501	8.5	-8.5	0.	129.6
1502	2.4827	-8.4979	0.	128.72
1503	-0.94158	-4.0127	0.	124.03
1504	-2.0042	8.4986	0.	129.46
1505	5.9992	-1.0138	0.	125.73
1506	-3.4993	0.49607	0.	128.3
1507	-1.4933	-1.5114	0.	127.26
1508	-4.9977	0.49426	0.	129.53
1509	-3.4604	-2.5641	0.	127.28
1510	-2.5707	-7.0223	0.	130.35
1511	-8.4993	-0.50023	0.	109.33
1512	5.5	8.9995	0.	125.67
1513	-8.4999	-7.4999	0.	111.74
1514	6.5327	4.9927	0.	126.45
1515	7.5	8.5001	0.	124.34
1516	-6.9999	-4.9983	0.	127.53
1517	-5.4953	7.2611	0.	128.35
1518	-4.9955	-9.2015e-003	0.	129.41
1519	-6.9992	-7.997	0.	127.74
1520	7.5001	-2.0005	0.	120.38
1521	2.9995	-2.7578e-003	0.	128.81
1522	3.4999	0.49191	0.	128.86
1523	-5.0032	-8.4858	0.	127.95
1524	-1.9233	-4.0687	0.	125.29
1525	4.5001	8.499	0.	125.4
1526	8.4938	-1.0979e-002	0.	129.09
1527	7.4476	3.9946	0.	119.34
1528	9.5	9.5	0.	125.02
1529	-2.0412	-8.5002	0.	124.88
1530	-1.5513	-8.4833	0.	123.63
1531	-8.4998	-7.9998	0.	118.08
1532	9.	-8.	0.	129.14
1533	8.5	-2.0003	0.	128.29
1534	8.5	-3.5	0.	127.33
1535	5.0036	6.4919	0.	125.58
1536	6.0045	6.4945	0.	125.57
1537	-3.4835	-1.5332	0.	127.39
1538	7.	8.4999	0.	124.88
1539	6.	8.4992	0.	125.41
1540	-5.4762	-3.5195	0.	127.89
1541	5.5	8.4991	0.	125.44
1542	2.5089	-4.9998	0.	128.86
1543	-1.9981	-0.50744	0.	127.48
1544	1.	-1.1601e-004	0.	116.14
1545	-3.4999	3.9994	0.	130.71
1546	8.5	-8.	0.	129.1
1547	1.5034	3.9984	0.	117.28
1548	1.5	-1.0001	0.	116.9
1549	-1.0599	-8.4603	0.	123.46
1550	-4.4538	-3.5573	0.	128.05
1551	1.5154	-5.4956	0.	124.1
1552	5.0226	4.9739	0.	127.48
1553	8.5	-7.5	0.	128.67
1554	-4.0028	5.9911	0.	129.53
1555	-0.99528	-1.5065	0.	128.71
1556	1.4999	-1.266e-004	0.	114.07
1557	-7.4976	-1.8376e-003	0.	118.5
1558	4.9962	0.46452	0.	128.01
1559	8.5	-6.	0.	128.72
1560	7.5	-6.	0.	130.75
1561	8.5	-5.5	0.	128.68
1562	5.5255	4.9751	0.	127.53
1563	2.4328e-002	-3.4954	0.	126.13
1564	-6.9935	-3.5014	0.	128.48
1565	6.5	8.4996	0.	125.24
1566	3.0031	-3.4992	0.	132.69
1567	-5.0005	4.4965	0.	131.36
1568	-4.9654	-3.5322	0.	127.92
1569	-5.9837	-3.5094	0.	127.98
1570	7.	-6.	0.	132.78
1571	9.	-2.5001	0.	128.72
1572	4.4992	-1.5036	0.	123.83
1573	1.4645	-8.4915	0.	128.06
1574	-2.4886	-1.5235	0.	126.8
1575	-1.3929	-5.0584	0.	109.84
1576	2.0148	-4.4971	0.	125.94
1577	-7.9996	-8.4995	0.	122.28
1578	-2.9998	5.4979	0.	133.2
1579	1.8935e-004	-9.1715e-004	0.	124.45
1580	4.0402	2.973	0.	127.62
1581	4.0001	-2.5005	0.	123.16
1582	-3.9988	0.4953	0.	128.72
1583	1.0001	-1.0001	0.	115.6
1584	-5.1334	8.0916	0.	124.84
1585	-2.9108	-5.0392	0.	129.87
1586	-2.5	1.9993	0.	127.2
1587	4.9978	-0.51607	0.	125.61
1588	3.0003	8.4988	0.	126.49
1589	-3.	2.9997	0.	131.78
1590	8.4999	-1.5004	0.	131.62
1591	8.5	-3.0001	0.	127.19
1592	-2.4999	6.498	0.	129.29
1593	-2.5	1.4989	0.	126.8
1594	8.	8.5001	0.	123.87
1595	6.5002	-2.0035	0.	126.05
1596	7.	-4.5001	0.	127.63
1597	-4.4982	0.49462	0.	129.1
1598	5.9906	0.44831	0.	129.11
1599	7.4522	1.7985	0.	111.88
1600	8.5	-7.	0.	128.49
1601	7.0149	5.4854	0.	123.75
1602	7.8386	4.2115	0.	112.59
1603	-2.5323	-8.5004	0.	126.33
1604	-6.9997	-6.4971	0.	125.78
1605	-2.5537	-6.5462	0.	132.05
1606	-8.0903	8.9444	0.	139.32
1607	5.987	0.92906	0.	129.74
1608	-0.98387	-2.5112	0.	124.66
1609	-6.4994	-8.495	0.	127.36
1610	3.0078	5.49	0.	127.54
1611	-0.49971	-1.6549e-003	0.	125.83
1612	7.0029	6.4968	0.	126.55
1613	9.	-3.0001	0.	128.19
1614	-7.9985	-8.6312e-004	0.	117.02
1615	-4.9957	-5.9687	0.	126.75
1616	-3.5158	-8.4891	0.	127.92
1617	-6.4372	8.5844	0.	141.48
1618	3.9995	0.48541	0.	128.35
1619	-2.4073	-5.5991	0.	127.03
1620	-2.0034	7.9988	0.	128.99
1621	-6.6571	7.246	0.	126.61
1622	2.5117	3.9915	0.	127.45
1623	4.0106	5.4843	0.	127.
1624	-4.0012	5.4945	0.	129.69
1625	7.	-8.	0.	129.72
1626	-6.9922	-2.5037	0.	127.62
1627	-4.9738	-2.0337	0.	127.41
1628	7.0337	4.9649	0.	125.23
1629	7.5	9.0001	0.	124.73
1630	-5.0036	5.4898	0.	128.75
1631	5.4932	0.45466	0.	128.37
1632	6.	8.9995	0.	125.55
1633	2.9899	-7.9999	0.	128.69
1634	3.4943	-8.9994	0.	125.95
1635	9.	-8.5	0.	129.64
1636	3.0058	-4.4997	0.	129.45
1637	3.5003	-2.5001	0.	126.19
1638	-5.0448	8.558	0.	125.28
1639	2.9962	-6.5017	0.	129.19
1640	8.4305	0.90765	0.	124.76
1641	-8.4993	-4.4997	0.	116.53
1642	1.5038	4.4978	0.	121.12
1643	-2.5	2.4996	0.	128.34
1644	-7.4994	-8.4988	0.	124.89
1645	1.9747	-8.4958	0.	128.37
1646	-3.0142	8.4936	0.	126.43
1647	-4.8935	7.495	0.	126.82
1648	6.5041	6.4957	0.	125.75
1649	8.	-8.	0.	129.1
1650	-1.0001	1.499	0.	122.57
1651	8.	-3.5001	0.	126.84
1652	6.0266	5.0081	0.	127.35
1653	4.4983	0.47613	0.	128.02
1654	-3.9814	-1.535	0.	127.63
1655	7.9486	1.7742	0.	112.06
1656	-1.0976	-7.9259	0.	121.88
1657	-3.9579	-4.9938	0.	127.69
1658	-3.9487	-4.5248	0.	128.33
1659	-3.4349	-5.0063	0.	128.44
1660	-3.4266	-4.542	0.	129.2
1661	7.645	3.525	0.	97.724
1662	7.845	3.5083	0.	108.2
1663	7.9279	3.7718	0.	118.71
1664	7.6038	3.8423	0.	114.74
1665	7.185	2.865	0.	133.48
1666	7.27	2.6833	0.	133.61
1667	6.8661	2.7943	0.	145.53
1668	7.0221	2.4978	0.	154.85
1669	8.185	2.7817	0.	145.28
1670	8.07	2.6167	0.	136.9
1671	8.2848	2.398	0.	148.75
1672	8.4644	2.5951	0.	146.41
1673	-1.635	-5.9075	0.	106.8
1674	-1.5925	-5.645	0.	118.77
1675	-1.9325	-5.9712	0.	144.18
1676	-1.8612	-5.4544	0.	143.48
1677	-2.1237	-5.6696	0.	141.4
1678	-1.225	-6.2425	0.	92.543
1679	-0.9775	-6.1475	0.	134.53
1680	-1.0609	-6.6103	0.	117.19
1681	-0.76865	-6.4137	0.	131.04
1682	-1.0975	-5.455	0.	121.61
1683	-0.8925	-5.6225	0.	146.71
1684	-0.8772	-5.1637	0.	136.36
1685	-0.63329	-5.3978	0.	140.89
1686	-7.7317	8.2267	0.	150.57
1687	-7.5933	8.3733	0.	138.88
1688	-7.7293	8.6228	0.	141.07
1689	-7.9703	8.445	0.	148.23
1690	-7.4983	7.4533	0.	120.04
1691	-7.3017	7.4067	0.	99.432
1692	-7.6747	7.1904	0.	127.41
1693	-7.3715	7.0405	0.	113.93
1694	-7.1928	7.1142	0.	116.02
1695	-6.8067	8.1867	0.	132.42
1696	-6.7483	7.9933	0.	130.12
1697	-6.4109	8.0535	0.	148.71
1698	-6.5236	8.3622	0.	160.34
1699	7.	-0.25	0.	135.56
1700	7.25	0.	0.	119.56
1701	6.9921	0.22683	0.	125.75
1702	6.7476	-1.4444e-002	0.	129.34
1703	7.	-0.75	0.	136.82
1704	7.25	-1.	0.	121.43
1705	7.0001	-1.2508	0.	128.31
1706	6.75	-1.0044	0.	130.25
1707	7.75	0.	0.	119.97
1708	8.	-0.25	0.	136.31
1709	7.9896	0.22588	0.	125.72
1710	8.2469	-5.4893e-003	0.	129.85
1711	7.75	-1.	0.	121.25
1712	8.	-0.75	0.	136.99
1713	8.	-1.2501	0.	128.03
1714	8.2498	-1.0005	0.	131.38
1715	8.	5.75	0.	134.65
1716	8.25	6.	0.	120.17
1717	7.7517	5.9987	0.	128.7
1718	8.0003	6.2499	0.	126.13
1719	8.	5.25	0.	134.62
1720	8.25	5.	0.	120.1
1721	8.0524	4.8488	0.	122.86
1722	7.762	5.0051	0.	127.29
1723	8.75	6.	0.	121.8
1724	9.	5.75	0.	138.97
1725	9.	6.25	0.	128.57
1726	9.2499	6.0001	0.	132.5
1727	8.75	5.	0.	122.59
1728	9.	5.25	0.	139.82
1729	8.9348	4.7725	0.	127.69
1730	9.2443	5.0015	0.	133.99
1731	4.	-6.25	0.	135.42
1732	4.25	-6.	0.	118.82
1733	3.75	-6.0005	0.	131.6
1734	4.0003	-5.7501	0.	126.66
1735	4.	-7.75	0.	135.38
1736	4.25	-8.	0.	119.73
1737	3.7477	-8.	0.	129.85
1738	3.9987	-8.2499	0.	126.41
1739	5.75	-6.	0.	118.96
1740	6.	-6.25	0.	135.84
1741	6.25	-6.	0.	132.04
1742	6.	-5.75	0.	126.74
1743	5.75	-8.	0.	119.98
1744	6.	-7.75	0.	135.78
1745	6.25	-8.	0.	130.36
1746	6.	-8.25	0.	126.59
1747	4.	-4.25	0.	137.98
1748	4.25	-4.	0.	123.52
1749	3.7511	-3.9999	0.	132.68
1750	4.0004	-3.75	0.	129.84
1751	4.	-4.75	0.	136.08
1752	4.25	-5.	0.	119.82
1753	3.7512	-5.0002	0.	131.95
1754	4.0003	-5.2501	0.	126.49
1755	5.75	-4.	0.	122.59
1756	6.	-4.25	0.	136.67
1757	6.	-3.7502	0.	128.83
1758	6.25	-4.0001	0.	130.77
1759	5.75	-5.	0.	119.34
1760	6.	-4.75	0.	135.03
1761	6.25	-5.	0.	131.25
1762	6.	-5.25	0.	126.08
1763	-2.	4.75	0.	143.98
1764	-1.75	5.	0.	130.76
1765	-2.2499	4.9997	0.	137.85
1766	-1.9999	5.2498	0.	136.29
1767	-2.	4.25	0.	143.
1768	-1.75	4.	0.	128.12
1769	-2.25	3.9999	0.	135.98
1770	-2.	3.75	0.	133.46
1771	-0.25	5.	0.	117.33
1772	0.	4.75	0.	130.13
1773	0.25049	4.9998	0.	122.35
1774	1.4831e-004	5.25	0.	119.52
1775	-0.25	4.	0.	123.33
1776	0.	4.25	0.	134.2
1777	0.25031	3.9999	0.	128.94
1778	1.0122e-004	3.75	0.	128.71
1779	1.	2.75	0.	135.84
1780	1.25	3.	0.	119.49
1781	0.75006	3.	0.	130.42
1782	1.0006	3.2499	0.	127.61
1783	1.	1.25	0.	131.76
1784	1.25	1.	0.	115.49
1785	1.	0.74997	0.	121.97
1786	0.74999	0.99985	0.	126.07
1787	1.75	3.	0.	118.74
1788	2.	2.75	0.	135.32
1789	2.0027	3.2487	0.	126.45
1790	2.2544	2.9969	0.	130.31
1791	1.75	1.	0.	117.18
1792	2.	1.25	0.	134.55
1793	2.	0.74982	0.	125.27
1794	2.2504	0.99902	0.	129.37
1795	0.	-2.25	0.	138.09
1796	0.25	-2.	0.	124.71
1797	6.4137e-004	-1.7504	0.	129.21
1798	-0.24768	-2.0017	0.	131.42
1799	0.	-2.75	0.	138.72
1800	0.25	-3.	0.	126.05
1801	-0.24181	-3.0021	0.	131.86
1802	1.2164e-002	-3.2477	0.	130.65
1803	1.75	-2.	0.	125.26
1804	2.	-2.25	0.	139.5
1805	2.25	-2.	0.	132.55
1806	2.	-1.7501	0.	129.38
1807	1.75	-3.	0.	127.5
1808	2.	-2.75	0.	141.02
1809	2.2508	-2.9996	0.	134.75
1810	2.0035	-3.249	0.	132.93
1811	-1.	7.75	0.	138.97
1812	-0.75	8.	0.	124.53
1813	-1.2508	7.9997	0.	133.07
1814	-1.0005	8.2499	0.	131.22
1815	-1.	6.25	0.	133.37
1816	-0.75	6.	0.	118.48
1817	-0.99996	5.75	0.	123.5
1818	-1.2499	5.9999	0.	127.
1819	0.75	8.	0.	125.76
1820	1.	7.75	0.	141.14
1821	1.2502	7.9996	0.	134.62
1822	1.0001	8.2499	0.	132.56
1823	0.75	6.	0.	125.89
1824	1.	6.25	0.	140.57
1825	1.251	5.9989	0.	134.25
1826	1.0008	5.7496	0.	131.78
1827	-8.	2.75	0.	134.58
1828	-7.75	3.	0.	117.54
1829	-8.0002	3.2489	0.	125.45
1830	-8.2501	2.9993	0.	129.54
1831	-8.	1.25	0.	133.89
1832	-7.75	1.	0.	117.4
1833	-7.9995	0.74972	0.	124.22
1834	-8.2499	0.99987	0.	127.84
1835	-7.25	3.	0.	117.29
1836	-7.	2.75	0.	133.95
1837	-7.	3.2496	0.	124.3
1838	-6.75	2.9998	0.	128.13
1839	-7.25	1.	0.	118.17
1840	-7.	1.25	0.	135.29
1841	-6.7495	0.99894	0.	130.59
1842	-6.9991	0.749	0.	126.6
1843	-7.	5.75	0.	132.35
1844	-6.75	6.	0.	118.21
1845	-7.2628	5.9742	0.	125.29
1846	-7.0501	6.2147	0.	123.77
1847	-7.	5.25	0.	132.33
1848	-6.75	5.	0.	118.24
1849	-7.2517	4.9943	0.	125.74
1850	-7.0002	4.7491	0.	123.47
1851	-6.25	6.	0.	120.7
1852	-6.	5.75	0.	137.76
1853	-6.0201	6.227	0.	128.74
1854	-5.7551	5.9895	0.	132.4
1855	-6.25	5.	0.	120.63
1856	-6.	5.25	0.	137.62
1857	-5.7506	4.9975	0.	131.97
1858	-6.0002	4.7495	0.	128.45
1859	-9.	-6.25	0.	137.07
1860	-8.75	-6.	0.	120.5
1861	-9.	-5.75	0.	126.38
1862	-9.25	-6.	0.	130.2
1863	-9.	-6.75	0.	137.26
1864	-8.75	-7.	0.	120.99
1865	-9.	-7.25	0.	126.97
1866	-9.25	-7.	0.	130.35
1867	-8.25	-6.	0.	120.32
1868	-8.	-6.25	0.	136.26
1869	-8.	-5.7498	0.	126.32
1870	-7.7501	-5.9995	0.	129.81
1871	-8.25	-7.	0.	121.06
1872	-8.	-6.75	0.	136.69
1873	-7.9998	-7.2498	0.	127.51
1874	-7.7498	-6.9994	0.	130.43
1875	-9.	-1.25	0.	136.53
1876	-8.75	-1.	0.	118.46
1877	-8.9998	-0.75004	0.	126.59
1878	-9.25	-1.	0.	131.63
1879	-9.	-2.75	0.	136.28
1880	-8.75	-3.	0.	118.24
1881	-8.9998	-3.25	0.	125.69
1882	-9.25	-3.	0.	130.59
1883	-8.25	-1.	0.	117.7
1884	-8.	-1.25	0.	134.04
1885	-7.7485	-1.0011	0.	127.82
1886	-7.9992	-0.75041	0.	124.54
1887	-8.25	-3.	0.	117.61
1888	-8.	-2.75	0.	134.34
1889	-7.7482	-3.0004	0.	128.93
1890	-7.9992	-3.2499	0.	124.83
1891	9.75	10.	0.	124.98
1892	10.	9.75	0.	125.01
1893	-9.75	10.	0.	125.21
1894	-10.	9.75	0.	124.7
1895	10.	-9.75	0.	131.71
1896	9.75	-10.	0.	131.31
1897	-10.	-9.75	0.	123.61
1898	-9.75	-10.	0.	123.5
1899	7.415	3.195	0.	94.933
1900	7.352	3.5019	0.	107.73
1901	7.1119	3.1476	0.	117.73
1902	8.015	3.145	0.	118.92
1903	8.183	3.4188	0.	116.88
1904	8.3319	3.0003	0.	128.69
1905	7.67	2.65	0.	100.95
1906	7.4576	2.4509	0.	100.85
1907	7.8806	2.4177	0.	103.89
1908	-1.5252	-6.322	0.	91.009
1909	-1.3689	-5.3042	0.	94.977
1910	-0.69795	-5.9053	0.	134.41
1911	-7.615	7.84	0.	133.39
1912	-7.8931	8.0211	0.	136.94
1913	-7.793	7.6026	0.	127.5
1914	-7.2	8.28	0.	100.
1915	-7.3388	8.5146	0.	109.18
1916	-6.9493	8.4306	0.	100.05
1917	-7.025	7.7	0.	85.118
1918	-6.9102	7.3997	0.	105.16
1919	-6.6595	7.726	0.	111.24
1920	6.7496	-0.50767	0.	134.64
1921	7.4913	0.22622	0.	108.96
1922	7.5	-1.2502	0.	111.5
1923	8.2491	-0.50161	0.	135.76
1924	7.7541	5.4992	0.	132.7
1925	8.5001	6.25	0.	110.73
1926	8.6848	4.7725	0.	114.57
1927	8.3024	4.8488	0.	111.98
1928	9.2493	5.5004	0.	138.51
1929	4.	-6.75	0.	140.63
1930	3.7491	-6.5005	0.	136.32
1931	4.	-7.25	0.	140.47
1932	3.7484	-7.0004	0.	137.17
1933	3.748	-7.5002	0.	135.66
1934	4.75	-6.	0.	108.71
1935	4.5001	-5.75	0.	106.8
1936	5.25	-6.	0.	108.7
1937	5.	-5.75	0.	108.76
1938	5.5	-5.75	0.	106.73
1939	4.75	-8.	0.	111.1
1940	4.4993	-8.25	0.	109.28
1941	5.25	-8.	0.	111.22
1942	4.9997	-8.25	0.	111.16
1943	5.4999	-8.25	0.	109.47
1944	6.	-6.75	0.	141.22
1945	6.25	-6.5	0.	137.04
1946	6.	-7.25	0.	141.06
1947	6.25	-7.	0.	137.96
1948	6.25	-7.5	0.	136.36
1949	3.7513	-4.5	0.	136.41
1950	4.75	-4.	0.	115.42
1951	4.5001	-3.7501	0.	113.62
1952	5.25	-4.	0.	115.09
1953	5.	-3.7501	0.	115.74
1954	5.5	-3.7501	0.	113.14
1955	4.75	-5.	0.	110.43
1956	4.5001	-5.25	0.	107.86
1957	5.25	-5.	0.	110.32
1958	5.	-5.25	0.	109.55
1959	5.5	-5.25	0.	107.69
1960	6.25	-4.5	0.	134.9
1961	-2.2499	4.4998	0.	141.01
1962	-1.25	5.	0.	121.84
1963	-1.4999	5.2499	0.	123.11
1964	-0.75	5.	0.	116.25
1965	-0.99996	5.25	0.	120.33
1966	-0.49995	5.25	0.	109.63
1967	-1.25	4.	0.	120.1
1968	-1.5	3.75	0.	117.98
1969	-0.75	4.	0.	118.6
1970	-0.99999	3.75	0.	119.54
1971	-0.49997	3.75	0.	115.36
1972	0.25039	4.4999	0.	129.54
1973	1.	2.25	0.	138.89
1974	0.75	2.5	0.	134.6
1975	1.	1.75	0.	137.72
1976	0.74999	1.9999	0.	134.42
1977	0.74998	1.4999	0.	132.58
1978	1.5012	3.2496	0.	108.29
1979	1.5	0.74996	0.	105.82
1980	2.	2.25	0.	139.93
1981	2.2528	2.4979	0.	135.97
1982	2.	1.75	0.	139.55
1983	2.2518	1.9984	0.	136.72
1984	2.2509	1.4988	0.	135.47
1985	-0.24571	-2.502	0.	135.81
1986	0.75	-2.	0.	118.82
1987	0.50024	-1.7501	0.	116.
1988	1.25	-2.	0.	119.01
1989	1.0001	-1.75	0.	118.85
1990	1.5	-1.75	0.	116.1
1991	0.75	-3.	0.	120.55
1992	0.50901	-3.2472	0.	117.97
1993	1.25	-3.	0.	120.8
1994	1.0067	-3.2477	0.	121.2
1995	1.5049	-3.2484	0.	118.31
1996	2.2502	-2.4999	0.	138.02
1997	-1.	7.25	0.	142.35
1998	-1.2504	7.4998	0.	137.68
1999	-1.	6.75	0.	140.62
2000	-1.2501	6.9999	0.	137.7
2001	-1.25	6.4999	0.	134.74
2002	-0.25	8.	0.	116.9
2003	-0.5002	8.25	0.	114.81
2004	0.25	8.	0.	117.24
2005	-7.8348e-005	8.25	0.	117.64
2006	0.49999	8.25	0.	115.42
2007	-0.25	6.	0.	113.48
2008	-0.49995	5.75	0.	108.96
2009	0.25	6.	0.	116.87
2010	1.4831e-004	5.75	0.	116.15
2011	0.50038	5.7498	0.	117.41
2012	1.	7.25	0.	145.66
2013	1.2503	7.4994	0.	140.14
2014	1.	6.75	0.	145.54
2015	1.2504	6.9992	0.	141.29
2016	1.2506	6.499	0.	139.82
2017	-8.	2.25	0.	139.56
2018	-8.25	2.4996	0.	135.48
2019	-8.	1.75	0.	139.19
2020	-8.25	1.9998	0.	136.3
2021	-8.25	1.4999	0.	134.74
2022	-7.5001	3.2493	0.	107.06
2023	-7.4993	0.74947	0.	107.51
2024	-7.	2.25	0.	139.28
2025	-6.75	2.4998	0.	134.92
2026	-7.	1.75	0.	139.86
2027	-6.7499	1.9996	0.	136.57
2028	-6.7498	1.4994	0.	136.05
2029	-7.2542	5.489	0.	130.37
2030	-6.5397	6.2754	0.	110.88
2031	-6.5001	4.7497	0.	109.82
2032	-5.7515	5.4952	0.	136.91
2033	-9.25	-6.5	0.	136.05
2034	-8.5	-5.7499	0.	109.88
2035	-8.4999	-7.2499	0.	110.8
2036	-7.7499	-6.4995	0.	135.09
2037	-9.	-1.75	0.	142.39
2038	-9.25	-1.5	0.	138.25
2039	-9.	-2.25	0.	142.24
2040	-9.25	-2.	0.	139.22
2041	-9.25	-2.5	0.	137.81
2042	-8.4996	-0.75012	0.	107.59
2043	-8.4996	-3.25	0.	106.94
2044	-8.	-1.75	0.	139.1
2045	-7.7483	-1.5011	0.	134.53
2046	-8.	-2.25	0.	139.37
2047	-7.7483	-2.0009	0.	135.99
2048	-7.7482	-2.5007	0.	135.07
2049	9.25	10.	0.	124.94
2050	9.5	9.75	0.	125.
2051	8.75	10.	0.	124.87
2052	9.	9.75	0.	124.89
2053	8.25	10.	0.	124.86
2054	8.5	9.75	0.	124.82
2055	7.75	10.	0.	124.98
2056	8.	9.75	0.	124.87
2057	7.25	10.	0.	125.22
2058	7.5	9.75	0.	125.05
2059	6.75	10.	0.	125.53
2060	7.	9.75	0.	125.32
2061	6.25	10.	0.	125.89
2062	6.5	9.7499	0.	125.62
2063	5.75	10.	0.	126.25
2064	6.	9.7499	0.	125.93
2065	5.25	10.	0.	126.61
2066	5.5	9.7499	0.	126.22
2067	4.75	10.	0.	126.97
2068	5.	9.7499	0.	126.5
2069	4.25	10.	0.	127.32
2070	4.5	9.7499	0.	126.78
2071	3.75	10.	0.	127.64
2072	4.	9.7499	0.	127.04
2073	3.25	10.	0.	127.86
2074	3.5	9.7499	0.	127.27
2075	2.75	10.	0.	127.82
2076	3.	9.7499	0.	127.4
2077	2.25	10.	0.	127.2
2078	2.5	9.7499	0.	127.31
2079	1.75	10.	0.	125.7
2080	2.	9.7499	0.	126.71
2081	1.25	10.	0.	123.39
2082	1.5	9.7499	0.	125.2
2083	0.75	10.	0.	120.99
2084	1.	9.75	0.	122.87
2085	0.25	10.	0.	119.46
2086	0.49997	9.75	0.	120.62
2087	-0.25	10.	0.	119.37
2088	-1.04e-004	9.75	0.	119.64
2089	-0.75	10.	0.	120.75
2090	-0.50022	9.75	0.	120.45
2091	-1.25	10.	0.	123.06
2092	-1.0004	9.7499	0.	122.59
2093	-1.75	10.	0.	125.4
2094	-1.5008	9.7498	0.	124.9
2095	-2.25	10.	0.	127.08
2096	-2.0012	9.7495	0.	126.5
2097	-2.75	10.	0.	127.97
2098	-2.5019	9.7492	0.	127.3
2099	-3.25	10.	0.	128.37
2100	-3.0025	9.7486	0.	127.64
2101	-3.75	10.	0.	128.53
2102	-3.5031	9.7482	0.	127.77
2103	-4.25	10.	0.	128.62
2104	-4.0032	9.7487	0.	127.82
2105	-4.75	10.	0.	128.66
2106	-4.5024	9.7521	0.	127.86
2107	-5.25	10.	0.	128.43
2108	-5.0009	9.7597	0.	127.92
2109	-5.75	10.	0.	127.28
2110	-5.4996	9.7684	0.	127.83
2111	-6.25	10.	0.	124.68
2112	-5.999	9.772	0.	126.85
2113	-6.75	10.	0.	121.51
2114	-6.4982	9.7689	0.	124.12
2115	-7.25	10.	0.	119.98
2116	-6.9949	9.7712	0.	120.67
2117	-7.75	10.	0.	121.16
2118	-7.4839	9.7881	0.	120.2
2119	-8.25	10.	0.	123.69
2120	-7.9788	9.726	0.	123.6
2121	-8.75	10.	0.	125.46
2122	-8.5001	9.7433	0.	126.45
2123	-9.25	10.	0.	125.65
2124	-9.0038	9.7481	0.	126.12
2125	-9.5024	9.7495	0.	125.16
2126	10.	9.25	0.	125.15
2127	9.75	9.5	0.	125.03
2128	10.	8.75	0.	125.51
2129	9.75	9.	0.	125.2
2130	10.	8.25	0.	126.22
2131	9.75	8.5	0.	125.51
2132	10.	7.75	0.	127.58
2133	9.75	8.	0.	126.11
2134	10.	7.25	0.	129.77
2135	9.75	7.5	0.	127.22
2136	10.	6.75	0.	131.55
2137	9.75	7.	0.	129.16
2138	10.	6.25	0.	130.61
2139	9.75	6.5	0.	131.54
2140	10.	5.75	0.	127.78
2141	9.7499	6.0001	0.	130.4
2142	10.	5.25	0.	128.78
2143	9.7493	5.5004	0.	129.59
2144	10.	4.75	0.	132.6
2145	9.7443	5.0015	0.	132.01
2146	10.	4.25	0.	132.99
2147	9.7278	4.5062	0.	133.86
2148	10.	3.75	0.	129.23
2149	9.7376	4.0092	0.	130.53
2150	10.	3.25	0.	124.97
2151	9.7478	3.511	0.	126.93
2152	10.	2.75	0.	124.29
2153	9.7596	3.0139	0.	124.8
2154	10.	2.25	0.	127.24
2155	9.7681	2.5154	0.	126.12
2156	10.	1.75	0.	130.8
2157	9.7648	2.0152	0.	129.55
2158	10.	1.25	0.	132.39
2159	9.7479	1.5144	0.	131.47
2160	10.	0.75	0.	131.76
2161	9.7334	1.013	0.	131.5
2162	10.	0.25	0.	129.98
2163	9.7405	0.50843	0.	130.45
2164	10.	-0.25	0.	128.4
2165	9.7468	3.6947e-003	0.	128.99
2166	10.	-0.75	0.	128.12
2167	9.7491	-0.49864	0.	128.24
2168	10.	-1.25	0.	129.05
2169	9.7498	-0.99958	0.	128.69
2170	10.	-1.75	0.	130.12
2171	9.75	-1.4999	0.	129.67
2172	10.	-2.25	0.	130.5
2173	9.75	-2.	0.	130.14
2174	10.	-2.75	0.	130.13
2175	9.75	-2.5	0.	129.94
2176	10.	-3.25	0.	129.38
2177	9.75	-3.	0.	129.38
2178	10.	-3.75	0.	128.56
2179	9.75	-3.5	0.	128.73
2180	10.	-4.25	0.	127.87
2181	9.75	-4.	0.	128.16
2182	10.	-4.75	0.	127.37
2183	9.75	-4.5	0.	127.73
2184	10.	-5.25	0.	127.05
2185	9.75	-5.	0.	127.45
2186	10.	-5.75	0.	126.92
2187	9.75	-5.5	0.	127.31
2188	10.	-6.25	0.	126.98
2189	9.75	-6.	0.	127.3
2190	10.	-6.75	0.	127.27
2191	9.75	-6.5	0.	127.45
2192	10.	-7.25	0.	127.84
2193	9.75	-7.	0.	127.81
2194	10.	-7.75	0.	128.66
2195	9.75	-7.5	0.	128.39
2196	10.	-8.25	0.	129.62
2197	9.75	-8.	0.	129.14
2198	10.	-8.75	0.	130.56
2199	9.75	-8.5	0.	129.95
2200	10.	-9.25	0.	131.31
2201	9.75	-9.	0.	130.66
2202	9.75	-9.5	0.	131.15
2203	-10.	9.25	0.	123.3
2204	-9.7524	9.4995	0.	124.65
2205	-10.	8.75	0.	121.34
2206	-9.7565	8.9987	0.	123.36
2207	-10.	8.25	0.	120.15
2208	-9.7588	8.4973	0.	121.99
2209	-10.	7.75	0.	120.69
2210	-9.7562	7.9955	0.	121.65
2211	-10.	7.25	0.	122.69
2212	-9.7501	7.4942	0.	122.94
2213	-10.	6.75	0.	124.92
2214	-9.7466	6.9948	0.	124.86
2215	-10.	6.25	0.	126.41
2216	-9.7504	6.4955	0.	126.23
2217	-10.	5.75	0.	127.18
2218	-9.7526	5.9959	0.	126.82
2219	-10.	5.25	0.	127.75
2220	-9.7524	5.4966	0.	127.12
2221	-10.	4.75	0.	128.43
2222	-9.7515	4.9976	0.	127.59
2223	-10.	4.25	0.	129.01
2224	-9.7508	4.4984	0.	128.25
2225	-10.	3.75	0.	128.92
2226	-9.7504	3.999	0.	128.72
2227	-10.	3.25	0.	127.88
2228	-9.7502	3.4994	0.	128.49
2229	-10.	2.75	0.	126.31
2230	-9.7501	2.9997	0.	127.49
2231	-10.	2.25	0.	125.15
2232	-9.75	2.4998	0.	126.42
2233	-10.	1.75	0.	125.14
2234	-9.75	1.9999	0.	125.92
2235	-10.	1.25	0.	126.55
2236	-9.75	1.4999	0.	126.3
2237	-10.	0.75	0.	129.18
2238	-9.75	0.99994	0.	127.57
2239	-10.	0.25	0.	132.5
2240	-9.7499	0.49995	0.	129.47
2241	-10.	-0.25	0.	135.02
2242	-9.7499	-2.972e-005	0.	131.7
2243	-10.	-0.75	0.	134.52
2244	-9.7499	-0.50001	0.	134.05
2245	-10.	-1.25	0.	131.57
2246	-9.75	-1.	0.	132.91
2247	-10.	-1.75	0.	129.56
2248	-9.75	-1.5	0.	132.15
2249	-10.	-2.25	0.	128.81
2250	-9.75	-2.	0.	132.49
2251	-10.	-2.75	0.	129.43
2252	-9.75	-2.5	0.	131.1
2253	-10.	-3.25	0.	131.38
2254	-9.75	-3.	0.	130.62
2255	-10.	-3.75	0.	131.74
2256	-9.7499	-3.5	0.	131.12
2257	-10.	-4.25	0.	130.47
2258	-9.7499	-4.	0.	128.69
2259	-10.	-4.75	0.	129.88
2260	-9.7499	-4.5	0.	127.41
2261	-10.	-5.25	0.	129.82
2262	-9.75	-5.	0.	127.84
2263	-10.	-5.75	0.	127.61
2264	-9.75	-5.5	0.	129.25
2265	-10.	-6.25	0.	123.69
2266	-9.75	-6.	0.	127.38
2267	-10.	-6.75	0.	123.58
2268	-9.75	-6.5	0.	125.66
2269	-10.	-7.25	0.	127.16
2270	-9.75	-7.	0.	127.22
2271	-10.	-7.75	0.	128.65
2272	-9.75	-7.5	0.	128.81
2273	-10.	-8.25	0.	127.21
2274	-9.75	-8.	0.	126.76
2275	-10.	-8.75	0.	125.27
2276	-9.75	-8.5	0.	125.07
2277	-10.	-9.25	0.	124.1
2278	-9.75	-9.	0.	124.11
2279	-9.75	-9.5	0.	123.64
2280	-9.25	-10.	0.	123.3
2281	-9.5	-9.75	0.	123.53
2282	-8.75	-10.	0.	123.05
2283	-9.	-9.75	0.	123.03
2284	-8.25	-10.	0.	123.24
2285	-8.4999	-9.7499	0.	122.89
2286	-7.75	-10.	0.	124.
2287	-7.9999	-9.7499	0.	123.43
2288	-7.25	-10.	0.	125.07
2289	-7.4999	-9.7497	0.	124.5
2290	-6.75	-10.	0.	126.14
2291	-6.9999	-9.7495	0.	125.69
2292	-6.25	-10.	0.	126.99
2293	-6.4999	-9.7491	0.	126.68
2294	-5.75	-10.	0.	127.57
2295	-5.9999	-9.7486	0.	127.37
2296	-5.25	-10.	0.	127.89
2297	-5.5001	-9.7481	0.	127.8
2298	-4.75	-10.	0.	128.
2299	-5.0003	-9.7478	0.	128.
2300	-4.25	-10.	0.	127.9
2301	-4.5008	-9.7477	0.	128.01
2302	-3.75	-10.	0.	127.59
2303	-4.0015	-9.7479	0.	127.82
2304	-3.25	-10.	0.	127.06
2305	-3.5023	-9.7484	0.	127.4
2306	-2.75	-10.	0.	126.36
2307	-3.0033	-9.7493	0.	126.77
2308	-2.25	-10.	0.	125.64
2309	-2.5043	-9.75	0.	126.
2310	-1.75	-10.	0.	125.09
2311	-2.0054	-9.7498	0.	125.27
2312	-1.25	-10.	0.	124.92
2313	-1.5066	-9.7482	0.	124.83
2314	-0.75	-10.	0.	125.2
2315	-1.0079	-9.7458	0.	124.87
2316	-0.25	-10.	0.	125.87
2317	-0.50908	-9.7444	0.	125.4
2318	0.25	-10.	0.	126.76
2319	-9.5278e-003	-9.7446	0.	126.25
2320	0.75	-10.	0.	127.66
2321	0.49061	-9.7455	0.	127.19
2322	1.25	-10.	0.	128.4
2323	0.99164	-9.7467	0.	128.05
2324	1.75	-10.	0.	128.85
2325	1.4931	-9.7478	0.	128.69
2326	2.25	-10.	0.	128.73
2327	1.9948	-9.7487	0.	128.96
2328	2.75	-10.	0.	127.63
2329	2.4962	-9.7493	0.	128.58
2330	3.25	-10.	0.	125.05
2331	2.9974	-9.7496	0.	127.01
2332	3.75	-10.	0.	120.97
2333	3.4984	-9.7498	0.	123.62
2334	4.25	-10.	0.	116.5
2335	3.999	-9.7499	0.	118.72
2336	4.75	-10.	0.	113.55
2337	4.4995	-9.7499	0.	114.2
2338	5.25	-10.	0.	113.59
2339	4.9997	-9.75	0.	112.39
2340	5.75	-10.	0.	116.64
2341	5.4999	-9.75	0.	114.28
2342	6.25	-10.	0.	121.23
2343	6.	-9.75	0.	118.91
2344	6.75	-10.	0.	125.47
2345	6.5	-9.75	0.	123.94
2346	7.25	-10.	0.	128.24
2347	7.	-9.75	0.	127.51
2348	7.75	-10.	0.	129.62
2349	7.5	-9.75	0.	129.31
2350	8.25	-10.	0.	130.14
2351	8.	-9.75	0.	130.02
2352	8.75	-10.	0.	130.34
2353	8.5	-9.75	0.	130.24
2354	9.25	-10.	0.	130.62
2355	9.	-9.75	0.	130.38
2356	9.5	-9.75	0.	130.75
2357	-3.4937	-0.76584	0.	127.84
2358	-3.4972	-0.259	0.	128.09
2359	-3.2465	-0.51078	0.	127.84
2360	-3.7453	-0.51248	0.	128.15
2361	-4.4745	-4.7496	0.	127.72
2362	-4.4635	-4.2786	0.	128.04
2363	-4.7274	-4.5113	0.	127.9
2364	-4.2092	-4.5203	0.	128.14
2365	-4.4756	-1.7895	0.	127.64
2366	-4.2211	-2.0478	0.	127.5
2367	-4.4657	-2.3016	0.	127.55
2368	-4.7223	-2.0397	0.	127.47
2369	-3.9649	-2.3083	0.	127.5
2370	-4.2095	-2.5621	0.	127.56
2371	-3.9537	-2.8215	0.	127.69
2372	-3.7095	-2.5654	0.	127.41
2373	-2.9993	0.24576	0.	127.78
2374	-3.2486	-6.0616e-003	0.	127.98
2375	-2.9979	-0.25785	0.	127.74
2376	-2.749	-5.2861e-003	0.	127.6
2377	-2.9998	0.7476	0.	127.79
2378	-2.7496	0.4969	0.	127.46
2379	-3.2494	0.4965	0.	128.04
2380	-3.7406	-1.0212	0.	127.83
2381	-3.9921	-0.76788	0.	128.13
2382	-4.2385	-1.0226	0.	128.06
2383	-3.9855	-1.2786	0.	127.8
2384	-4.4831	-5.2204	0.	127.24
2385	-4.7357	-4.9855	0.	127.49
2386	-4.2186	-4.9886	0.	127.59
2387	-4.4838	-1.2781	0.	127.95
2388	-4.7306	-1.5299	0.	127.71
2389	-4.2308	-1.5341	0.	127.69
2390	-3.7223	-2.049	0.	127.33
2391	-3.9763	-1.7924	0.	127.55
2392	-4.7139	-4.0321	0.	128.08
2393	-4.199	-4.0532	0.	128.32
2394	-4.4556	-3.7994	0.	128.1
2395	-3.2423	-1.0191	0.	127.57
2396	-3.4874	-1.2768	0.	127.54
2397	-3.7478	-7.36e-003	0.	128.38
2398	-3.4988	0.24468	0.	128.24
2399	-4.4565	-2.8111	0.	127.69
2400	-4.7135	-2.5483	0.	127.51
2401	4.5148	5.2292	0.	127.18
2402	4.5091	5.7344	0.	126.5
2403	4.7627	5.4814	0.	126.8
2404	4.2611	5.4829	0.	126.92
2405	-2.995	-0.76405	0.	127.57
2406	-2.7473	-0.50958	0.	127.6
2407	-3.2499	0.99821	0.	128.13
2408	-2.7499	0.99825	0.	127.33
2409	-2.9999	1.2485	0.	127.94
2410	-2.4994	0.24586	0.	127.28
2411	-2.4998	0.74755	0.	127.
2412	-2.2497	0.49695	0.	126.81
2413	-3.996	-0.26084	0.	128.44
2414	-4.2438	-0.51409	0.	128.47
2415	-4.9886	-4.7472	0.	127.67
2416	-4.9777	-4.2647	0.	127.94
2417	-5.2388	-4.5043	0.	127.9
2418	-4.4898	-5.7015	0.	126.86
2419	-4.7397	-5.4666	0.	127.01
2420	-4.2301	-5.4516	0.	126.99
2421	-2.4984	-0.25702	0.	127.45
2422	-2.2492	-4.9272e-003	0.	127.26
2423	-4.4902	-0.76876	0.	128.39
2424	-4.7372	-1.0215	0.	128.19
2425	-4.9841	-1.2733	0.	127.95
2426	-5.2323	-1.5232	0.	127.54
2427	-4.9774	-1.7802	0.	127.54
2428	-3.225	-2.0453	0.	126.98
2429	-3.4669	-2.3062	0.	127.24
2430	-3.4784	-1.7907	0.	127.29
2431	4.5197	4.7254	0.	127.71
2432	4.2666	4.9787	0.	127.59
2433	4.7703	4.9754	0.	127.49
2434	-3.4999	1.2485	0.	128.61
2435	-3.7497	0.99794	0.	128.64
2436	-3.4995	0.74711	0.	128.38
2437	-4.7079	-3.053	0.	127.74
2438	-4.2008	-3.0705	0.	127.83
2439	-4.4532	-3.3111	0.	127.93
2440	-3.1968	-3.0775	0.	127.42
2441	-3.4397	-3.3345	0.	128.04
2442	-3.6975	-3.0788	0.	127.77
2443	-3.4533	-2.8228	0.	127.48
2444	4.5048	6.2395	0.	125.87
2445	4.7568	5.9874	0.	126.11
2446	4.2564	5.9877	0.	126.21
2447	-2.9553	-2.8155	0.	126.94
2448	-2.9699	-2.3	0.	126.74
2449	-2.7153	-2.5518	0.	126.33
2450	-3.2118	-2.5609	0.	127.
2451	-2.9898	-1.2733	0.	127.25
2452	-2.7438	-1.0163	0.	127.36
2453	-2.2499	0.99819	0.	126.31
2454	-2.5	1.2485	0.	126.83
2455	5.2039	3.9566	0.	127.98
2456	5.0094	4.2292	0.	127.89
2457	4.7631	3.9781	0.	127.87
2458	5.0671	3.7349	0.	127.53
2459	5.0104	5.7343	0.	126.4
2460	5.2643	5.483	0.	126.65
2461	5.0181	5.2275	0.	127.11
2462	-3.7499	1.4989	0.	128.9
2463	-3.9999	1.7491	0.	129.23
2464	-3.9997	1.2483	0.	128.92
2465	-4.2498	1.4987	0.	129.
2466	-4.2469	-8.4339e-003	0.	128.78
2467	-3.9981	0.24364	0.	128.65
2468	-4.9923	-5.2318	0.	127.26
2469	-5.245	-4.99	0.	127.54
2470	-4.9649	-2.7902	0.	127.56
2471	-5.2202	-2.5317	0.	127.33
2472	-4.9701	-2.2865	0.	127.43
2473	-5.2265	-4.0172	0.	128.04
2474	-4.9679	-3.7775	0.	127.97
2475	-4.4952	-6.1941	0.	126.81
2476	-4.2413	-5.9382	0.	126.69
2477	-4.7442	-5.9572	0.	126.75
2478	-2.4961	-0.76187	0.	127.39
2479	-2.2479	-0.50816	0.	127.49
2480	-3.2499	1.4989	0.	128.42
2481	-3.4999	1.7491	0.	129.1
2482	4.772	4.4729	0.	127.92
2483	4.5257	4.2218	0.	127.89
2484	4.2707	4.4754	0.	128.02
2485	5.612	3.8435	0.	128.39
2486	5.4826	4.1804	0.	128.26
2487	5.2748	3.705	0.	127.65
2488	-4.2499	1.9993	0.	129.28
2489	-4.4999	2.2494	0.	129.31
2490	-4.4998	1.749	0.	129.05
2491	-4.7499	1.9993	0.	128.89
2492	-4.4948	-0.26168	0.	128.8
2493	-4.7425	-0.51425	0.	128.76
2494	-5.4809	-1.7709	0.	127.26
2495	-5.4761	-2.2731	0.	127.16
2496	-5.7308	-2.0182	0.	126.94
2497	-5.226	-2.0279	0.	127.26
2498	-5.4952	-4.7471	0.	127.78
2499	-5.4875	-4.2567	0.	128.01
2500	-5.7442	-4.5007	0.	128.03
2501	-4.9895	-0.767	0.	128.56
2502	-5.2376	-1.0179	0.	128.15
2503	4.0176	4.7287	0.	127.9
2504	3.764	4.9825	0.	127.76
2505	4.0129	5.2324	0.	127.33
2506	-4.	2.2495	0.	129.74
2507	-3.7499	1.9993	0.	129.43
2508	-1.9995	0.24617	0.	126.79
2509	-1.7493	-4.1912e-003	0.	126.99
2510	-1.9987	-0.25607	0.	127.29
2511	-2.6994	-3.0651	0.	126.66
2512	-2.9388	-3.3265	0.	127.62
2513	-3.6866	-3.5863	0.	128.32
2514	-3.9403	-3.8251	0.	128.37
2515	-3.9445	-3.3306	0.	128.05
2516	-4.197	-3.5712	0.	128.16
2517	-4.7476	-6.4527	0.	126.82
2518	-5.2477	-6.4699	0.	126.67
2519	-4.9979	-6.7136	0.	126.9
2520	-4.9966	-6.2157	0.	126.75
2521	-5.4858	-1.2678	0.	127.75
2522	-5.735	-1.5166	0.	127.18
2523	-4.25	2.4996	0.	129.78
2524	-4.5	2.7496	0.	129.79
2525	-4.7499	2.4995	0.	129.17
2526	4.2532	6.4919	0.	125.61
2527	4.0048	6.2402	0.	125.95
2528	3.7534	6.4925	0.	125.74
2529	4.0027	6.7433	0.	125.43
2530	4.5024	6.7432	0.	125.4
2531	4.7534	6.4918	0.	125.58
2532	-2.9816	-1.7855	0.	126.91
2533	-3.235	-1.531	0.	127.23
2534	-2.7376	-1.5261	0.	126.93
2535	-2.7283	-2.0379	0.	126.49
2536	-1.9999	0.74759	0.	126.12
2537	-2.	1.2486	0.	125.44
2538	-1.75	0.99817	0.	125.24
2539	-1.7498	0.49724	0.	126.18
2540	5.2881	4.453	0.	128.18
2541	5.0226	4.7229	0.	127.7
2542	5.2576	5.9886	0.	125.98
2543	5.0054	6.2397	0.	125.83
2544	3.7562	5.9891	0.	126.39
2545	4.0084	5.7363	0.	126.63
2546	-4.2495	0.99758	0.	128.93
2547	-3.9992	0.74652	0.	128.77
2548	-5.2455	-5.4802	0.	127.08
2549	-4.9941	-5.7223	0.	126.9
2550	-5.2182	-3.0323	0.	127.61
2551	-4.9643	-3.2867	0.	127.8
2552	-4.2502	-6.4398	0.	126.96
2553	-4.5003	-6.6974	0.	127.1
2554	-3.9816	-5.6884	0.	126.82
2555	-3.7148	-5.454	0.	126.94
2556	-3.9656	-5.2199	0.	127.34
2557	-2.4594	-2.8014	0.	126.04
2558	-2.4737	-2.2898	0.	126.08
2559	-2.2199	-2.5393	0.	125.51
2560	-2.2453	-1.0129	0.	127.34
2561	-2.4916	-1.2692	0.	127.04
2562	-3.	1.7491	0.	128.41
2563	-2.75	1.4988	0.	127.43
2564	4.5107	1.7093	0.	127.77
2565	4.7546	1.4516	0.	128.3
2566	4.5039	1.2154	0.	128.11
2567	4.2566	1.4693	0.	127.89
2568	-1.75	1.499	0.	124.33
2569	-1.5	1.2486	0.	124.13
2570	-1.5001	1.7493	0.	122.95
2571	-1.2501	1.499	0.	123.05
2572	4.5506	3.7179	0.	127.67
2573	4.2796	3.9717	0.	128.08
2574	5.5114	5.7373	0.	126.23
2575	5.7655	5.4896	0.	126.31
2576	5.5202	5.2299	0.	127.05
2577	3.5028	6.7439	0.	125.62
2578	3.5048	6.2414	0.	126.17
2579	3.2537	6.4932	0.	126.09
2580	-4.4996	1.2481	0.	129.01
2581	-4.7497	1.4986	0.	128.9
2582	-4.746	-9.0277e-003	0.	129.19
2583	-4.4973	0.24288	0.	129.04
2584	4.2485	-0.50778	0.	126.93
2585	4.4981	-0.26285	0.	126.88
2586	4.4985	-0.75799	0.	125.82
2587	4.748	-0.51291	0.	126.
2588	-5.4982	-5.2385	0.	127.36
2589	-5.7488	-4.9938	0.	127.69
2590	-5.4735	-2.7738	0.	127.38
2591	-5.7275	-2.519	0.	127.09
2592	-5.7358	-4.0081	0.	128.13
2593	-5.4794	-3.7656	0.	127.97
2594	4.2644	1.9652	0.	127.49
2595	4.5241	2.2067	0.	127.35
2596	4.7631	1.9445	0.	127.75
2597	-5.9925	-4.2521	0.	128.16
2598	-5.9978	-4.7475	0.	127.95
2599	-6.2466	-4.4993	0.	128.09
2600	5.0069	1.6868	0.	128.27
2601	5.0007	1.1975	0.	128.61
2602	5.2492	1.4314	0.	129.01
2603	-5.242	-0.51291	0.	128.95
2604	-4.9937	-0.2616	0.	129.15
2605	5.8871	3.9654	0.	129.07
2606	6.0199	3.7069	0.	129.08
2607	5.7472	3.5377	0.	127.7
2608	4.0246	4.2252	0.	128.21
2609	3.7686	4.4796	0.	128.28
2610	4.0203	2.2231	0.	127.4
2611	4.0103	1.7252	0.	127.61
2612	3.7626	1.9793	0.	127.6
2613	-4.	2.7496	0.	130.34
2614	-3.75	2.4996	0.	130.19
2615	-3.25	1.9993	0.	129.09
2616	-3.5	2.2494	0.	129.88
2617	1.4959	-6.2483	0.	124.82
2618	1.481	-6.7483	0.	125.58
2619	1.7398	-6.5003	0.	125.6
2620	1.2371	-6.4936	0.	125.01
2621	-2.2042	-3.0496	0.	125.59
2622	-2.4418	-3.3119	0.	126.56
2623	-3.1817	-3.5835	0.	128.23
2624	-3.429	-3.8299	0.	128.71
2625	3.9986	-0.25778	0.	127.78
2626	3.9988	-0.75469	0.	127.01
2627	3.7489	-0.50455	0.	127.95
2628	-5.4983	-6.2281	0.	126.64
2629	-5.4979	-6.7276	0.	126.7
2630	-5.7483	-6.4826	0.	126.46
2631	-4.7506	-6.9584	0.	127.17
2632	-5.2481	-6.9712	0.	126.93
2633	-4.9997	-7.2178	0.	127.24
2634	-3.6826	-4.0687	0.	128.76
2635	-3.9446	-4.2949	0.	128.41
2636	-1.4996	0.24688	0.	126.38
2637	-1.4991	-0.2544	0.	127.24
2638	-1.2495	-3.0906e-003	0.	126.71
2639	3.2615	4.9866	0.	127.86
2640	3.515	4.7334	0.	128.14
2641	3.5109	5.2358	0.	127.54
2642	-5.49	-0.76384	0.	128.55
2643	-5.7389	-1.0137	0.	127.86
2644	-5.9822	-2.2641	0.	126.87
2645	-5.9849	-1.7638	0.	126.85
2646	-6.2358	-2.0113	0.	126.72
2647	-4.25	2.9997	0.	130.34
2648	-4.5	3.2497	0.	130.31
2649	-4.75	2.9996	0.	129.71
2650	-4.9997	1.7488	0.	128.75
2651	-4.9999	2.2494	0.	128.75
2652	-5.2498	1.9992	0.	128.55
2653	5.2514	6.9955	0.	125.36
2654	5.5025	6.7445	0.	125.5
2655	5.7515	6.9963	0.	125.5
2656	5.501	7.2466	0.	125.38
2657	-1.2501	1.9995	0.	121.69
2658	-0.75007	1.9996	0.	121.23
2659	-1.0001	2.2496	0.	120.15
2660	-1.0001	1.7493	0.	121.79
2661	-3.9963	-6.184	0.	126.84
2662	-3.7389	-5.9409	0.	126.6
2663	-3.7573	-6.4432	0.	127.2
2664	-4.0072	-6.6957	0.	127.36
2665	-4.5042	-7.2083	0.	127.51
2666	-4.2573	-6.9533	0.	127.5
2667	5.0009	7.2464	0.	125.24
2668	4.7515	6.9951	0.	125.26
2669	5.0024	6.7437	0.	125.44
2670	3.752	6.9947	0.	125.31
2671	3.252	6.9953	0.	125.66
2672	3.5016	7.2458	0.	125.34
2673	4.0015	7.2457	0.	125.14
2674	4.2519	6.9946	0.	125.22
2675	1.2556	-5.9933	0.	123.96
2676	1.7524	-5.9993	0.	125.33
2677	1.5095	-5.7466	0.	124.29
2678	-2.2318	-2.029	0.	126.01
2679	-2.4843	-1.7786	0.	126.51
2680	-2.	1.7492	0.	124.97
2681	-2.25	1.4989	0.	125.97
2682	4.7499	0.96128	0.	128.43
2683	4.2515	0.97509	0.	128.2
2684	4.4997	0.72258	0.	128.12
2685	-1.4999	0.74782	0.	125.31
2686	-1.25	0.99841	0.	124.41
2687	-1.2498	0.49765	0.	125.67
2688	4.565	3.2134	0.	127.29
2689	4.8546	3.4747	0.	127.33
2690	4.3072	3.4696	0.	127.74
2691	5.7577	4.3023	0.	128.95
2692	5.7972	4.5003	0.	128.58
2693	5.5396	4.7046	0.	127.99
2694	5.5058	6.2416	0.	125.74
2695	5.2535	6.4926	0.	125.58
2696	5.754	6.4939	0.	125.57
2697	5.7587	5.9912	0.	125.74
2698	3.2556	5.9909	0.	126.75
2699	3.5076	5.7386	0.	126.86
2700	-4.7493	0.99729	0.	129.14
2701	-4.4988	0.74602	0.	129.07
2702	4.2483	-1.2854e-002	0.	127.73
2703	4.7476	-1.9927e-002	0.	127.12
2704	4.4982	0.23009	0.	127.69
2705	-5.4987	-5.7318	0.	126.91
2706	-5.7494	-5.984	0.	126.66
2707	-5.2472	-5.9739	0.	126.73
2708	-5.7495	-5.488	0.	127.17
2709	-5.7271	-3.0179	0.	127.52
2710	-5.4746	-3.2715	0.	127.72
2711	4.546	2.7087	0.	127.14
2712	4.817	2.9494	0.	126.89
2713	4.2995	2.9669	0.	127.37
2714	4.28	2.4646	0.	127.26
2715	4.7831	2.4432	0.	127.13
2716	-3.7509	6.9844	0.	127.78
2717	-3.5006	6.7408	0.	128.4
2718	-3.251	6.9924	0.	127.67
2719	-3.5044	7.2389	0.	127.13
2720	3.0029	6.7447	0.	126.13
2721	2.752	6.996	0.	126.55
2722	3.0016	7.2464	0.	125.9
2723	1.7279	-6.9997	0.	126.13
2724	1.9867	-6.7517	0.	126.15
2725	2.2354	-7.0018	0.	126.62
2726	1.9792	-7.2505	0.	126.52
2727	5.1066	3.2106	0.	126.93
2728	5.41	3.3992	0.	126.97
2729	5.0221	2.181	0.	127.52
2730	5.257	1.9161	0.	128.38
2731	-6.241	-4.0029	0.	128.22
2732	-5.9864	-3.757	0.	128.09
2733	-5.9811	-2.7631	0.	127.23
2734	-6.2342	-2.5107	0.	127.01
2735	-4.0021	6.7327	0.	128.41
2736	-4.0031	7.2276	0.	127.23
2737	-4.2526	6.9756	0.	128.17
2738	-6.0001	-5.2434	0.	127.5
2739	-6.2499	-4.9963	0.	127.83
2740	5.2461	0.94665	0.	128.97
2741	4.9974	0.70902	0.	128.32
2742	4.7497	-2.0018	0.	121.73
2743	4.9998	-2.2515	0.	120.12
2744	4.9994	-1.7533	0.	122.32
2745	5.2497	-2.0026	0.	121.95
2746	-4.9994	1.2478	0.	129.03
2747	-5.2496	1.4983	0.	128.87
2748	3.0045	6.2426	0.	126.67
2749	2.7535	6.4944	0.	126.93
2750	6.1764	4.1205	0.	130.16
2751	6.0014	4.3684	0.	129.1
2752	6.3091	3.8621	0.	130.16
2753	6.2267	3.42	0.	128.36
2754	6.4069	3.5791	0.	130.36
2755	6.0128	5.7435	0.	125.83
2756	6.2668	5.4923	0.	125.62
2757	6.0214	5.2512	0.	126.71
2758	3.7728	2.4778	0.	127.62
2759	4.0334	2.7228	0.	127.49
2760	4.0361	3.7234	0.	128.16
2761	3.7762	3.9773	0.	128.56
2762	3.7489	-7.5613e-003	0.	128.44
2763	3.9991	0.23783	0.	128.22
2764	4.0043	1.229	0.	127.98
2765	3.7562	1.482	0.	127.87
2766	-4.	3.2496	0.	130.73
2767	-3.75	2.9997	0.	130.92
2768	-3.	2.2494	0.	129.4
2769	-2.75	1.9993	0.	127.98
2770	-1.75	1.9994	0.	123.6
2771	-1.5	2.2496	0.	121.86
2772	-1.9937	-1.2639	0.	127.08
2773	-1.7465	-1.0093	0.	127.63
2774	-1.997	-0.7592	0.	127.44
2775	-1.9646	-2.7876	0.	125.05
2776	-1.978	-2.2785	0.	125.45
2777	-1.725	-2.5267	0.	124.88
2778	1.219	-6.9929	0.	126.18
2779	1.4689	-7.2465	0.	126.41
2780	1.016	-5.7387	0.	123.21
2781	0.99679	-6.2387	0.	124.16
2782	0.76072	-5.9818	0.	123.4
2783	-1.9478	-3.2979	0.	125.09
2784	-1.7106	-3.0348	0.	124.76
2785	-2.6812	-3.5733	0.	127.52
2786	-2.9221	-3.8262	0.	128.76
2787	3.9992	-1.2528	0.	125.95
2788	3.7492	-1.0028	0.	127.28
2789	4.2489	-1.0049	0.	125.9
2790	1.9963	-6.2514	0.	126.11
2791	2.2426	-6.502	0.	126.79
2792	-5.748	-6.9828	0.	126.73
2793	-5.4988	-7.2292	0.	127.03
2794	-5.9994	-6.2386	0.	126.48
2795	-5.9985	-6.7379	0.	126.49
2796	-6.249	-6.4912	0.	126.24
2797	-3.1694	-4.0726	0.	129.23
2798	-3.4257	-4.3071	0.	129.12
2799	-3.5253	-7.2205	0.	128.47
2800	-3.2846	-6.9735	0.	128.95
2801	-3.5185	-6.7072	0.	127.86
2802	-3.7684	-6.9596	0.	128.02
2803	-1.249	-0.50424	0.	127.57
2804	-1.4979	-0.75639	0.	127.73
2805	-1.7485	-0.50628	0.	127.54
2806	-3.5	2.7497	0.	130.78
2807	-3.25	2.4996	0.	130.19
2808	3.4991	-0.25432	0.	128.6
2809	3.4992	-0.75269	0.	128.22
2810	3.2492	-0.50247	0.	128.39
2811	-0.9997	0.24768	0.	126.01
2812	-0.99935	-0.25292	0.	127.04
2813	-0.74965	-2.0765e-003	0.	126.19
2814	3.012	4.7381	0.	128.06
2815	2.7591	4.9904	0.	127.68
2816	3.009	5.2394	0.	127.7
2817	3.5202	4.2316	0.	128.62
2818	3.2655	4.4849	0.	128.34
2819	5.4993	1.6607	0.	129.12
2820	5.7425	1.4134	0.	129.81
2821	5.4947	1.1806	0.	129.37
2822	1.277	-4.9914	0.	123.34
2823	1.522	-4.7442	0.	123.41
2824	1.7681	-4.9963	0.	124.91
2825	1.5186	-5.245	0.	123.93
2826	4.4998	-2.2511	0.	121.06
2827	4.2497	-2.0013	0.	123.04
2828	4.4995	-1.7526	0.	122.95
2829	-5.7424	-0.5106	0.	128.87
2830	-5.4936	-0.26001	0.	129.44
2831	-5.9881	-1.2625	0.	127.29
2832	-6.2382	-1.511	0.	126.78
2833	-4.25	3.4996	0.	130.69
2834	-4.75	3.4995	0.	130.34
2835	-4.5	3.7493	0.	130.66
2836	-5.	2.7496	0.	129.1
2837	-5.2499	2.4995	0.	128.55
2838	6.0009	7.2476	0.	125.53
2839	6.2514	6.9975	0.	125.71
2840	6.003	6.7457	0.	125.58
2841	-0.25006	1.9998	0.	122.82
2842	-0.50005	2.2497	0.	120.8
2843	-0.50007	1.7495	0.	122.13
2844	-6.7476	-4.499	0.	127.58
2845	-6.4951	-4.2501	0.	128.15
2846	-6.4987	-4.7481	0.	127.97
2847	-3.7519	6.4891	0.	129.03
2848	-3.25	6.494	0.	129.26
2849	-3.5003	6.2433	0.	129.73
2850	-3.0004	6.7456	0.	128.55
2851	-3.0033	7.2448	0.	127.16
2852	-2.751	6.9965	0.	127.68
2853	1.0319	-4.7388	0.	122.5
2854	1.0282	-4.2405	0.	121.03
2855	1.277	-4.4916	0.	122.56
2856	0.78732	-4.4865	0.	123.
2857	-1.	2.7498	0.	118.36
2858	-0.75004	2.4998	0.	119.71
2859	-1.25	2.4997	0.	120.31
2860	3.2593	1.9887	0.	128.43
2861	3.5151	2.2341	0.	127.82
2862	3.5084	1.7361	0.	127.87
2863	2.2519	6.9967	0.	128.54
2864	2.5017	7.2467	0.	127.18
2865	2.5026	6.7456	0.	127.34
2866	-5.7498	1.9991	0.	128.83
2867	-5.4999	2.2493	0.	128.35
2868	-5.4996	1.7486	0.	128.66
2869	2.7409	-7.0017	0.	127.81
2870	2.4868	-7.2514	0.	127.09
2871	2.4913	-6.7521	0.	127.26
2872	4.9999	-2.7508	0.	117.25
2873	4.7499	-2.5009	0.	119.42
2874	5.2499	-2.5015	0.	119.59
2875	-6.7405	-2.0064	0.	127.24
2876	-6.4891	-1.7585	0.	126.65
2877	-6.4878	-2.258	0.	126.86
2878	5.0541	2.6839	0.	126.88
2879	5.3276	2.8962	0.	126.47
2880	5.2761	2.4045	0.	127.18
2881	-6.2343	-3.0092	0.	127.54
2882	-5.9824	-3.2609	0.	127.73
2883	-4.	4.7479	0.	129.95
2884	-3.9999	4.249	0.	130.32
2885	-3.7499	4.4989	0.	130.15
2886	-4.25	4.4983	0.	130.27
2887	-4.2574	6.4843	0.	129.22
2888	-4.0031	6.2387	0.	129.24
2889	-6.0003	-5.7402	0.	126.92
2890	-6.2502	-5.9918	0.	126.59
2891	-6.2507	-5.4935	0.	127.33
2892	5.2465	-2.8044e-002	0.	126.81
2893	4.9967	0.22031	0.	127.45
2894	4.9975	-0.26998	0.	126.24
2895	5.2493	-1.5056	0.	123.57
2896	4.9989	-1.2569	0.	123.86
2897	4.7492	-1.5041	0.	123.52
2898	-5.2491	0.99708	0.	129.4
2899	-4.9984	0.74572	0.	129.38
2900	2.755	5.9926	0.	127.48
2901	3.0066	5.7409	0.	127.27
2902	6.2592	5.9928	0.	125.38
2903	6.007	6.2436	0.	125.58
2904	6.4567	4.2911	0.	130.01
2905	6.6008	3.9924	0.	131.06
2906	6.2817	4.539	0.	128.95
2907	6.0337	4.7873	0.	128.04
2908	3.7859	3.4768	0.	128.43
2909	4.0416	3.223	0.	127.83
2910	-0.99992	0.74825	0.	124.78
2911	-0.75002	0.99885	0.	124.09
2912	-1.	1.2488	0.	123.34
2913	-0.74987	0.4983	0.	125.35
2914	3.7519	0.98536	0.	128.29
2915	4.0007	0.73328	0.	128.26
2916	-3.75	4.9976	0.	130.14
2917	-4.2504	4.9964	0.	129.73
2918	-4.0006	5.2458	0.	129.75
2919	-3.9999	3.7495	0.	130.69
2920	-4.2499	3.9992	0.	130.66
2921	-3.7499	3.9994	0.	130.64
2922	-3.75	3.4997	0.	131.12
2923	-2.	2.2496	0.	124.92
2924	-2.25	1.9994	0.	126.01
2925	-1.9875	-1.7706	0.	126.28
2926	-1.7424	-1.5141	0.	127.01
2927	-2.24	-1.5202	0.	126.78
2928	-1.7355	-2.02	0.	125.8
2929	1.0282	-5.2383	0.	122.95
2930	0.78013	-5.4825	0.	122.92
2931	1.2698	-5.492	0.	123.54
2932	0.78852	-4.9839	0.	123.59
2933	0.97508	-6.7382	0.	125.61
2934	0.95653	-7.2369	0.	126.77
2935	0.70955	-6.9789	0.	126.93
2936	0.73495	-6.48	0.	125.25
2937	-2.1854	-3.5602	0.	126.06
2938	-1.6937	-3.544	0.	124.73
2939	-1.931	-3.811	0.	125.22
2940	-2.4221	-3.8203	0.	127.65
2941	3.9996	-1.7515	0.	124.69
2942	3.7495	-1.5016	0.	126.33
2943	4.2493	-1.5028	0.	124.59
2944	2.0054	-5.7504	0.	126.21
2945	2.2507	-6.0015	0.	127.34
2946	2.0119	-5.2489	0.	126.15
2947	2.2575	-5.5003	0.	127.74
2948	1.7624	-5.4976	0.	125.17
2949	-5.9987	-7.2378	0.	126.92
2950	-6.2485	-6.9906	0.	126.62
2951	1.2064	-7.4904	0.	127.
2952	0.69349	-7.4769	0.	127.45
2953	0.9484	-7.7342	0.	127.34
2954	1.7201	-7.4973	0.	126.81
2955	1.4617	-7.7439	0.	127.16
2956	2.2306	-7.5001	0.	126.99
2957	1.9746	-7.7484	0.	127.2
2958	-6.9931	-1.7545	0.	127.3
2959	-7.2447	-2.003	0.	130.11
2960	-6.9925	-2.254	0.	127.71
2961	4.7501	-3.0004	0.	116.71
2962	5.	-3.2504	0.	114.86
2963	5.25	-3.0007	0.	116.73
2964	2.9923	-7.2511	0.	128.27
2965	3.245	-7.0011	0.	130.95
2966	2.9947	-6.7516	0.	128.91
2967	-5.9999	2.2493	0.	128.68
2968	-5.9996	1.7487	0.	129.29
2969	-6.2498	1.9992	0.	131.29
2970	2.0014	7.2475	0.	129.63
2971	2.002	6.7469	0.	129.72
2972	1.7513	6.9978	0.	133.18
2973	3.0096	2.2415	0.	128.94
2974	2.7555	1.9946	0.	131.3
2975	3.0056	1.7428	0.	128.82
2976	-0.75	2.9999	0.	118.
2977	-1.25	2.9999	0.	118.83
2978	-1.	3.2499	0.	117.32
2979	1.2711	-3.9932	0.	120.85
2980	0.77862	-3.9903	0.	120.95
2981	1.019	-3.7436	0.	119.57
2982	-2.9998	6.2465	0.	130.6
2983	-2.7499	6.497	0.	129.35
2984	-4.2378	7.4612	0.	126.72
2985	-4.4873	7.2092	0.	127.66
2986	-4.539	7.6929	0.	126.11
2987	-4.6819	7.4708	0.	126.83
2988	-3.7566	7.4821	0.	126.58
2989	-4.0253	7.7256	0.	126.14
2990	-3.2567	7.4913	0.	126.61
2991	-3.5152	7.7379	0.	126.24
2992	-2.7544	7.4961	0.	126.89
2993	-3.0089	7.7441	0.	126.51
2994	-2.5021	7.2478	0.	127.41
2995	-2.2525	7.4984	0.	127.62
2996	-2.5047	7.7475	0.	127.14
2997	7.25	-7.	0.	129.47
2998	7.	-6.75	0.	130.35
2999	7.	-7.25	0.	129.59
3000	6.75	-7.	0.	132.14
3001	7.5	-7.25	0.	128.83
3002	7.5	-6.75	0.	129.32
3003	7.75	-7.	0.	128.75
3004	7.25	-7.5	0.	128.95
3005	7.75	-7.5	0.	128.69
3006	7.5	-7.75	0.	128.97
3007	-7.2482	-4.4992	0.	125.48
3008	-6.9967	-4.2496	0.	127.41
3009	-6.9989	-4.7487	0.	127.31
3010	-5.4979e-005	1.7498	0.	124.16
3011	-3.0272e-005	2.2499	0.	123.78
3012	0.24997	1.9999	0.	127.3
3013	3.2512	7.4968	0.	125.58
3014	2.7513	7.4971	0.	126.53
3015	3.001	7.7475	0.	126.02
3016	3.751	7.4968	0.	125.18
3017	3.5009	7.7474	0.	125.37
3018	4.2507	7.4971	0.	125.07
3019	4.0006	7.7476	0.	125.13
3020	4.7505	7.4973	0.	125.13
3021	4.5004	7.7478	0.	125.11
3022	4.5011	7.246	0.	125.15
3023	5.2505	7.4974	0.	125.26
3024	5.0003	7.7479	0.	125.2
3025	5.7504	7.4979	0.	125.41
3026	5.5003	7.7481	0.	125.33
3027	6.2503	7.4988	0.	125.52
3028	6.0003	7.7486	0.	125.44
3029	6.7503	7.4994	0.	125.4
3030	6.5008	7.2486	0.	125.69
3031	6.5002	7.7493	0.	125.42
3032	7.2503	7.4999	0.	124.62
3033	7.0002	7.7497	0.	125.06
3034	7.0007	7.2492	0.	125.69
3035	-5.	3.2495	0.	129.75
3036	-5.25	2.9996	0.	128.89
3037	-5.25	3.4994	0.	129.49
3038	-5.	3.749	0.	130.59
3039	-5.9912	-0.7605	0.	128.18
3040	-6.2409	-1.0098	0.	127.24
3041	-6.2433	-0.50805	0.	128.08
3042	-5.994	-0.25814	0.	129.42
3043	-6.7417	-1.5067	0.	126.71
3044	-6.491	-1.2582	0.	126.73
3045	4.5	-2.7506	0.	118.94
3046	4.25	-2.5006	0.	121.6
3047	-5.7499	2.4995	0.	128.2
3048	-5.5	2.7495	0.	128.34
3049	1.5198	-4.2444	0.	122.41
3050	1.7685	-4.4955	0.	124.5
3051	-2.2507	6.9985	0.	128.15
3052	-2.5004	6.7479	0.	128.49
3053	-0.50001	2.7498	0.	119.39
3054	-0.25002	2.4998	0.	121.76
3055	2.7382	-7.5008	0.	127.54
3056	2.4842	-7.7501	0.	127.53
3057	2.2512	7.4975	0.	128.27
3058	2.501	7.7476	0.	127.34
3059	5.511	2.1397	0.	128.03
3060	5.7475	1.8893	0.	129.48
3061	5.631	3.0848	0.	126.51
3062	5.954	3.2508	0.	126.99
3063	-6.4874	-2.7568	0.	127.32
3064	-6.7397	-2.5056	0.	127.33
3065	-6.4912	-3.7525	0.	128.21
3066	-6.7442	-4.0006	0.	127.99
3067	-4.5	4.2484	0.	130.6
3068	-4.75	3.9989	0.	130.91
3069	-4.5079	6.7271	0.	128.98
3070	-4.7671	6.9828	0.	129.01
3071	-4.5042	5.7402	0.	129.32
3072	-4.5015	5.2441	0.	129.45
3073	-4.2517	5.4936	0.	129.47
3074	-4.753	5.4912	0.	128.99
3075	-6.5004	-5.2464	0.	127.65
3076	-6.75	-4.9978	0.	127.7
3077	-6.4991	-6.7439	0.	126.37
3078	-6.4999	-6.2444	0.	126.36
3079	-6.7495	-6.4957	0.	125.97
3080	-2.3282	-7.515	0.	126.99
3081	-1.8635	-7.5207	0.	123.48
3082	-2.097	-7.2898	0.	127.2
3083	-2.078	-7.7647	0.	125.2
3084	-2.8035	-7.497	0.	128.71
3085	-2.5563	-7.7552	0.	127.72
3086	-2.5678	-7.265	0.	129.4
3087	-3.2839	-7.4812	0.	128.78
3088	-3.0431	-7.2342	0.	129.25
3089	-3.0376	-7.7385	0.	128.51
3090	-3.7702	-7.4726	0.	128.35
3091	-3.5243	-7.7307	0.	128.45
3092	-4.2602	-7.4667	0.	127.91
3093	-4.0145	-7.7247	0.	128.15
3094	-4.0132	-7.2117	0.	127.9
3095	-4.7533	-7.4678	0.	127.58
3096	-4.5066	-7.7207	0.	127.85
3097	-5.2504	-7.4758	0.	127.34
3098	-5.0018	-7.725	0.	127.6
3099	-5.7495	-7.4842	0.	127.23
3100	-5.5	-7.7323	0.	127.44
3101	-6.249	-7.4909	0.	127.32
3102	-5.9994	-7.7388	0.	127.39
3103	5.9906	1.642	0.	130.16
3104	6.2345	1.4013	0.	129.1
3105	5.988	1.1672	0.	129.95
3106	5.7402	0.93442	0.	129.52
3107	5.4933	0.69722	0.	128.84
3108	5.4967	-0.27654	0.	126.02
3109	5.7477	-0.52143	0.	125.2
3110	5.4982	-0.7673	0.	124.91
3111	5.2477	-0.51848	0.	125.46
3112	7.5	-2.7502	0.	124.9
3113	7.2501	-2.5005	0.	124.32
3114	7.75	-2.5002	0.	124.44
3115	7.5001	-2.2504	0.	122.12
3116	7.25	-6.5	0.	130.19
3117	7.75	-6.5	0.	129.35
3118	7.5	-6.25	0.	130.24
3119	7.5	-3.2501	0.	126.42
3120	7.75	-3.0001	0.	126.04
3121	7.2501	-3.0003	0.	126.37
3122	7.5	-4.75	0.	128.86
3123	7.75	-4.5	0.	127.94
3124	7.5	-4.25	0.	127.58
3125	7.25	-4.5	0.	127.81
3126	5.4998	-2.2525	0.	121.45
3127	5.4995	-1.7548	0.	123.22
3128	5.7498	-2.0036	0.	123.7
3129	5.7499	-2.5018	0.	121.94
3130	5.4999	-2.7514	0.	119.13
3131	2.2615	-4.999	0.	127.45
3132	2.0145	-4.7476	0.	125.99
3133	2.4971	-6.2521	0.	128.02
3134	2.7451	-6.502	0.	128.36
3135	-5.4992	1.2476	0.	129.23
3136	-5.7495	1.4982	0.	129.12
3137	-5.4964	0.24343	0.	129.99
3138	-5.7453	-7.5442e-003	0.	129.99
3139	-5.2453	-8.6982e-003	0.	129.64
3140	2.5039	6.2444	0.	127.74
3141	2.2528	6.4959	0.	128.52
3142	6.7512	6.9984	0.	125.98
3143	6.5027	6.7468	0.	125.79
3144	6.5132	5.7416	0.	125.18
3145	6.5251	5.2414	0.	125.81
3146	6.7662	5.4878	0.	124.46
3147	3.5259	3.7307	0.	128.82
3148	3.2701	3.9838	0.	128.99
3149	3.2654	2.4869	0.	128.33
3150	3.5227	2.7323	0.	128.09
3151	2.762	4.4895	0.	127.51
3152	3.0154	4.2371	0.	128.7
3153	2.5091	4.7418	0.	127.13
3154	2.5071	5.2424	0.	127.82
3155	2.2569	4.9936	0.	127.21
3156	-0.50005	1.2492	0.	123.44
3157	-0.25007	1.4996	0.	123.47
3158	-0.75007	1.4992	0.	122.68
3159	3.5038	1.2383	0.	128.18
3160	3.2548	1.4902	0.	128.26
3161	3.2493	-4.0646e-003	0.	128.79
3162	3.4995	0.24327	0.	128.82
3163	-3.5002	5.7456	0.	130.61
3164	-3.25	5.9958	0.	131.06
3165	-3.7516	5.9929	0.	129.94
3166	-3.5	3.2497	0.	131.32
3167	-3.25	2.9997	0.	131.5
3168	-3.4999	4.7485	0.	130.34
3169	-3.2498	4.4992	0.	130.31
3170	-3.4999	4.2492	0.	130.47
3171	-1.75	2.4997	0.	123.18
3172	-1.5	2.7498	0.	120.8
3173	-3.	2.7496	0.	130.91
3174	-2.75	2.4996	0.	129.19
3175	-0.74926	-0.50264	0.	126.95
3176	-0.99853	-0.75399	0.	128.05
3177	-1.2475	-1.0061	0.	128.21
3178	-1.4952	-1.2595	0.	127.56
3179	-1.471	-2.7739	0.	124.59
3180	-1.4825	-2.2682	0.	125.24
3181	-1.2308	-2.516	0.	124.67
3182	3.4994	-1.2517	0.	127.65
3183	3.2494	-1.0016	0.	128.48
3184	3.7498	-2.0008	0.	125.15
3185	3.9999	-2.2508	0.	123.59
3186	1.7499	-0.50017	0.	118.47
3187	1.25	-0.50009	0.	116.27
3188	1.5	-0.7501	0.	116.62
3189	1.4999	-0.25011	0.	115.21
3190	2.7495	-0.50117	0.	127.03
3191	2.9995	-0.75138	0.	128.65
3192	2.9994	-0.25221	0.	128.58
3193	0.54389	-4.7317	0.	124.1
3194	0.2989	-4.4814	0.	126.21
3195	0.53774	-4.2364	0.	122.96
3196	-1.6387	-7.2948	0.	120.48
3197	-1.608	-7.7523	0.	121.94
3198	-1.4078	-7.4334	0.	119.72
3199	0.49887	-6.2231	0.	124.49
3200	0.52488	-5.7255	0.	123.1
3201	0.26862	-5.9643	0.	123.03
3202	0.44651	-7.2189	0.	127.6
3203	0.43471	-7.7189	0.	127.52
3204	0.17759	-7.4568	0.	127.88
3205	-3.0357	-6.7326	0.	129.
3206	-2.8074	-7.0022	0.	129.94
3207	-2.663	-4.0732	0.	128.88
3208	-2.9092	-4.315	0.	130.1
3209	-1.4397	-3.7887	0.	123.3
3210	-1.4216	-4.2974	0.	119.55
3211	-1.1861	-4.0277	0.	123.12
3212	-1.677	-4.0557	0.	123.77
3213	-3.5	-6.2002	0.	126.96
3214	-3.2697	-6.4663	0.	127.92
3215	-3.4721	-5.7065	0.	126.72
3216	-3.1964	-5.4881	0.	127.23
3217	-3.4456	-5.2342	0.	127.66
3218	7.2168	1.3666	0.	117.78
3219	7.4655	1.1299	0.	113.95
3220	7.7109	1.3484	0.	114.87
3221	7.4578	1.577	0.	112.98
3222	-3.2376	-5.972	0.	126.28
3223	-2.4044	-4.328	0.	130.02
3224	-2.1676	-4.0711	0.	126.81
3225	-1.8722	-7.0639	0.	124.21
3226	-2.1018	-6.8385	0.	130.12
3227	-2.3366	-7.0398	0.	129.58
3228	0.46942	-6.7207	0.	126.56
3229	0.19844	-6.9572	0.	128.67
3230	0.23333	-6.4601	0.	126.74
3231	-0.33974	-7.9419	0.	125.11
3232	-0.60645	-7.6705	0.	123.79
3233	-0.58058	-8.1938	0.	124.24
3234	-0.8474	-7.9288	0.	122.92
3235	0.54047	-5.228	0.	123.55
3236	0.29478	-5.4684	0.	123.98
3237	0.30318	-4.9742	0.	126.27
3238	3.4997	-1.7509	0.	126.78
3239	3.2499	-2.0003	0.	127.38
3240	3.5001	-2.2503	0.	126.23
3241	3.2497	-1.501	0.	128.37
3242	-1.4565	-3.2809	0.	124.41
3243	-1.2185	-3.0202	0.	125.15
3244	-1.2035	-3.525	0.	125.27
3245	-1.2393	-2.012	0.	126.35
3246	-1.4903	-1.7635	0.	126.53
3247	-0.49903	-0.75212	0.	127.08
3248	-0.2495	-0.50144	0.	124.94
3249	-0.49955	-0.25179	0.	126.1
3250	-2.	2.7498	0.	125.47
3251	-2.25	2.4996	0.	126.69
3252	-3.25	3.4998	0.	132.08
3253	-3.4999	3.7496	0.	131.06
3254	-3.4999	5.2473	0.	130.66
3255	-3.2499	5.4973	0.	132.03
3256	-3.7506	5.4955	0.	130.28
3257	-3.2498	4.9984	0.	131.35
3258	3.2517	0.99224	0.	128.73
3259	3.5009	0.74074	0.	128.62
3260	2.2497	-0.50046	0.	123.14
3261	1.9998	-0.25029	0.	119.97
3262	1.9998	-0.75022	0.	121.32
3263	2.4997	-0.25084	0.	125.98
3264	2.4997	-0.7506	0.	126.56
3265	0.7501	-0.50019	0.	117.82
3266	0.50023	-0.75029	0.	118.8
3267	0.50011	-0.2503	0.	120.45
3268	0.25028	-0.50062	0.	121.47
3269	1.	-0.25011	0.	116.16
3270	1.0001	-0.75011	0.	115.9
3271	-0.49997	0.7489	0.	124.66
3272	-0.25003	0.99925	0.	124.53
3273	-0.24993	0.49895	0.	125.28
3274	-0.49981	0.24854	0.	125.53
3275	2.2584	4.4935	0.	125.3
3276	2.511	4.2416	0.	127.1
3277	2.0062	4.7452	0.	125.4
3278	2.0064	4.2458	0.	122.7
3279	1.7552	4.4966	0.	122.45
3280	3.2735	3.484	0.	129.32
3281	3.5276	3.2311	0.	128.55
3282	6.7989	4.4525	0.	127.9
3283	6.5276	4.7521	0.	127.82
3284	6.7577	5.9931	0.	125.31
3285	6.5065	6.2443	0.	125.46
3286	2.5054	5.7432	0.	128.05
3287	2.2554	5.494	0.	128.81
3288	2.757	5.4914	0.	127.84
3289	2.254	5.9947	0.	129.
3290	-5.4983	0.74602	0.	129.84
3291	-5.7475	0.4952	0.	130.54
3292	-5.2477	0.49466	0.	129.82
3293	-5.7489	0.99704	0.	129.96
3294	2.5029	-5.7515	0.	128.86
3295	2.75	-6.0019	0.	129.99
3296	2.7543	-5.5012	0.	131.18
3297	2.5072	-5.2504	0.	129.03
3298	6.2501	-2.5017	0.	124.44
3299	6.	-2.2529	0.	124.2
3300	6.	-2.7513	0.	123.23
3301	7.25	-3.5001	0.	127.46
3302	7.5	-3.7501	0.	127.03
3303	7.75	-3.5001	0.	126.88
3304	7.5	-5.25	0.	130.37
3305	7.75	-5.5	0.	130.28
3306	7.25	-5.5	0.	132.44
3307	7.5	-5.75	0.	130.89
3308	7.75	-5.	0.	129.27
3309	7.25	-5.	0.	130.5
3310	6.7501	-2.5012	0.	125.08
3311	6.5001	-2.7513	0.	126.12
3312	6.5002	-2.2525	0.	125.71
3313	7.0001	-2.7506	0.	125.81
3314	7.0002	-2.251	0.	123.89
3315	5.7496	-1.5071	0.	124.96
3316	5.499	-1.2601	0.	124.22
3317	5.7452	-3.3513e-002	0.	127.
3318	5.4945	0.21123	0.	127.55
3319	-6.4989	-7.2437	0.	127.02
3320	-6.4991	-7.7439	0.	127.55
3321	-6.749	-7.4955	0.	127.86
3322	-6.7491	-6.9953	0.	126.93
3323	-6.5006	-5.7451	0.	127.
3324	-6.7503	-5.9961	0.	126.84
3325	-6.7507	-5.4967	0.	127.71
3326	-4.5087	6.2351	0.	129.44
3327	-4.7579	5.986	0.	129.83
3328	-4.2544	5.9895	0.	129.46
3329	-4.7668	6.4807	0.	130.29
3330	-4.5004	4.7467	0.	130.05
3331	-4.7503	4.4972	0.	130.91
3332	-4.751	4.9949	0.	129.93
3333	-6.4885	-3.2549	0.	127.88
3334	-6.7415	-3.5025	0.	128.33
3335	-6.2366	-3.5066	0.	128.08
3336	-6.7401	-3.0042	0.	127.92
3337	6.9669	1.6098	0.	122.98
3338	6.9721	1.1462	0.	120.74
3339	6.725	1.3874	0.	124.73
3340	5.5496	2.6169	0.	126.77
3341	5.8229	2.8066	0.	125.72
3342	5.7519	2.354	0.	127.94
3343	2.0009	7.7481	0.	129.65
3344	1.7509	7.4983	0.	132.22
3345	3.2436	-7.5006	0.	129.66
3346	2.9906	-7.7504	0.	128.29
3347	-0.24997	2.9999	0.	121.22
3348	-0.49996	3.2499	0.	117.18
3349	-2.0012	7.2491	0.	128.37
3350	-1.7504	6.9995	0.	130.93
3351	-2.0002	6.7492	0.	128.53
3352	-1.411	-7.209	0.	118.71
3353	-1.6312	-6.8197	0.	123.6
3354	1.7648	-3.9959	0.	124.1
3355	1.5136	-3.7458	0.	120.18
3356	0.25049	-1.0006	0.	120.79
3357	0.50039	-1.2503	0.	117.05
3358	0.75021	-1.0002	0.	116.88
3359	-4.5166e-005	1.2496	0.	124.56
3360	0.24995	1.4998	0.	126.12
3361	3.0139	2.7398	0.	129.1
3362	2.7587	2.4933	0.	130.39
3363	-5.9999	2.7495	0.	127.97
3364	-6.2499	2.4995	0.	129.58
3365	4.2503	-3.0002	0.	120.55
3366	4.5002	-3.2503	0.	116.01
3367	6.75	-6.5	0.	131.99
3368	7.	-6.25	0.	131.72
3369	-6.9939	-1.2548	0.	126.65
3370	-7.2451	-1.5035	0.	128.58
3371	-5.8706	7.5991	0.	126.75
3372	-6.0656	7.1671	0.	126.74
3373	-6.2006	7.5011	0.	134.4
3374	-5.7321	7.329	0.	128.01
3375	6.1459	2.9726	0.	126.2
3376	6.4441	3.0375	0.	122.93
3377	6.4062	3.3455	0.	129.23
3378	-6.493	-0.75731	0.	127.14
3379	-6.7432	-1.0064	0.	126.67
3380	-6.7447	-0.50547	0.	126.52
3381	-6.4949	-0.25597	0.	128.01
3382	-5.5	3.2495	0.	128.63
3383	-5.75	2.9996	0.	128.11
3384	-5.5001	3.749	0.	129.31
3385	-5.75	3.4994	0.	127.9
3386	7.7502	7.5002	0.	123.
3387	7.5002	7.7502	0.	124.
3388	7.5004	7.2499	0.	124.52
3389	2.1423e-005	2.7499	0.	123.6
3390	0.25	2.4999	0.	126.62
3391	8.0001	7.7502	0.	122.52
3392	8.0003	7.2501	0.	121.43
3393	8.2501	7.5001	0.	121.58
3394	2.7507	7.998	0.	126.84
3395	2.2507	7.9982	0.	128.73
3396	2.5005	8.2484	0.	127.67
3397	3.2506	7.9981	0.	125.81
3398	3.0005	8.2484	0.	126.33
3399	3.7505	7.9982	0.	125.32
3400	3.5004	8.2486	0.	125.62
3401	4.2503	7.9983	0.	125.16
3402	4.0003	8.2487	0.	125.33
3403	4.7502	7.9984	0.	125.18
3404	4.5002	8.2487	0.	125.27
3405	5.2501	7.9985	0.	125.27
3406	5.0001	8.2488	0.	125.32
3407	5.7501	7.9987	0.	125.36
3408	5.5001	8.2489	0.	125.38
3409	6.2501	7.9991	0.	125.34
3410	6.0001	8.249	0.	125.4
3411	6.7501	7.9997	0.	125.08
3412	6.5	8.2495	0.	125.27
3413	7.2501	8.	0.	124.44
3414	7.	8.2499	0.	124.88
3415	7.7501	8.0001	0.	123.52
3416	7.5	8.2501	0.	124.18
3417	8.2501	8.0001	0.	122.91
3418	8.	8.2501	0.	123.45
3419	2.2281	-7.9984	0.	127.75
3420	2.483	-8.2487	0.	128.3
3421	2.7366	-7.9997	0.	128.29
3422	1.7162	-7.995	0.	127.56
3423	1.9738	-8.2465	0.	127.99
3424	1.2037	-7.9876	0.	127.5
3425	1.4619	-8.2421	0.	127.78
3426	0.68962	-7.9761	0.	127.41
3427	0.95014	-8.2334	0.	127.59
3428	0.17446	-7.9609	0.	126.79
3429	0.43689	-8.2221	0.	127.19
3430	-8.2655e-002	-7.6989	0.	127.15
3431	-7.2884e-002	-8.2083	0.	126.1
3432	-1.8225	-7.9963	0.	123.67
3433	-1.566	-8.2344	0.	123.05
3434	-1.3391	-7.9557	0.	122.17
3435	-2.3061	-8.0049	0.	125.93
3436	-2.0528	-8.2536	0.	124.87
3437	-2.7904	-7.9967	0.	127.53
3438	-2.54	-8.2516	0.	126.66
3439	-3.278	-7.988	0.	128.19
3440	-3.0277	-8.2426	0.	127.72
3441	-3.7686	-7.9828	0.	128.25
3442	-3.5194	-8.2372	0.	128.12
3443	-4.2609	-7.9787	0.	128.08
3444	-4.0117	-8.2327	0.	128.14
3445	-4.755	-7.9779	0.	127.87
3446	-4.5064	-8.2306	0.	128.02
3447	-5.2514	-7.9814	0.	127.7
3448	-5.0029	-8.2322	0.	127.86
3449	-5.7499	-7.9869	0.	127.61
3450	-5.5005	-8.2362	0.	127.72
3451	-6.2494	-7.9918	0.	127.62
3452	-5.9996	-8.2407	0.	127.61
3453	-6.7493	-7.9955	0.	127.7
3454	-6.4993	-8.2445	0.	127.51
3455	-7.7487	-4.4994	0.	121.47
3456	-7.4979	-4.2495	0.	124.42
3457	-7.4992	-4.7492	0.	124.5
3458	-7.9987	-4.2496	0.	118.8
3459	-7.9994	-4.7495	0.	119.17
3460	-8.2491	-4.4996	0.	117.8
3461	6.75	-7.5	0.	130.7
3462	7.	-7.75	0.	129.43
3463	8.	-2.7501	0.	125.6
3464	8.	-2.2502	0.	124.26
3465	8.25	-2.5002	0.	126.13
3466	8.25	-3.0001	0.	126.68
3467	8.	-3.2501	0.	126.51
3468	8.	-4.25	0.	127.57
3469	8.25	-4.	0.	127.4
3470	7.75	-4.	0.	127.21
3471	8.	-3.75	0.	127.05
3472	8.	-4.75	0.	128.35
3473	8.25	-4.5	0.	127.88
3474	8.	-5.25	0.	129.17
3475	8.25	-5.	0.	128.58
3476	8.	-5.75	0.	129.5
3477	8.25	-5.5	0.	129.1
3478	8.	-6.25	0.	129.24
3479	8.25	-6.	0.	129.11
3480	7.75	-6.	0.	130.12
3481	8.	-6.75	0.	128.79
3482	8.25	-6.5	0.	128.78
3483	8.	-7.25	0.	128.61
3484	8.25	-7.	0.	128.54
3485	8.25	-7.5	0.	128.65
3486	8.	-7.75	0.	128.86
3487	7.5	-8.25	0.	129.47
3488	7.25	-8.	0.	129.45
3489	7.75	-8.	0.	129.14
3490	7.2209	0.90955	0.	116.92
3491	7.713	0.90213	0.	115.49
3492	7.4751	0.67839	0.	111.44
3493	-1.7513	7.4993	0.	130.49
3494	-2.0026	7.7489	0.	128.56
3495	-5.5438	7.7308	0.	125.64
3496	-5.4053	7.4606	0.	126.88
3497	-5.2244	7.8759	0.	125.12
3498	-5.1045	7.5776	0.	126.12
3499	-4.3265	7.9573	0.	125.52
3500	-4.5776	8.214	0.	125.26
3501	-4.8706	8.0155	0.	125.1
3502	-4.7507	7.7172	0.	126.1
3503	-3.7838	7.9813	0.	125.8
3504	-4.0411	8.2288	0.	125.56
3505	-3.5229	8.2381	0.	125.87
3506	-3.2673	7.9906	0.	126.14
3507	-2.5068	8.2472	0.	127.34
3508	-2.7592	7.9955	0.	126.77
3509	-2.2548	7.998	0.	128.08
3510	-2.6506	-4.5698	0.	131.22
3511	-2.9076	-4.7982	0.	130.3
3512	-3.1655	-4.5496	0.	129.98
3513	-3.0073	-6.238	0.	127.23
3514	-2.7905	-6.5146	0.	130.25
3515	3.8506e-002	-5.7072	0.	123.87
3516	3.0769e-003	-6.2013	0.	125.27
3517	-0.21872	-5.9399	0.	126.26
3518	-0.34936	-7.4274	0.	125.83
3519	-7.0484e-002	-7.1951	0.	128.94
3520	-1.1685	-4.5269	0.	118.44
3521	-1.6559	-4.5748	0.	121.24
3522	-1.4027	-4.8053	0.	113.21
3523	4.8192e-002	-4.2337	0.	127.31
3524	5.8197e-002	-4.7239	0.	128.35
3525	-0.18954	-4.4798	0.	128.62
3526	3.0002	-2.25	0.	128.01
3527	3.0009	-2.7496	0.	129.02
3528	2.7504	-2.4998	0.	129.37
3529	3.2503	-2.5	0.	126.87
3530	2.9996	-1.2509	0.	129.19
3531	2.7496	-1.0008	0.	128.17
3532	0.28703	-3.9887	0.	124.04
3533	0.52534	-3.7417	0.	120.18
3534	-0.7483	-1.0035	0.	128.17
3535	-0.9966	-1.2556	0.	128.63
3536	-1.75	2.9998	0.	123.1
3537	-1.5	3.2499	0.	119.1
3538	-2.9998	4.7491	0.	131.31
3539	-2.7499	4.4995	0.	132.33
3540	-2.9999	4.2495	0.	131.08
3541	-2.7497	5.9978	0.	131.99
3542	-2.9997	5.7474	0.	132.49
3543	3.0176	3.7371	0.	129.48
3544	2.7643	3.9891	0.	128.29
3545	7.2508	6.9993	0.	125.59
3546	7.002	6.7478	0.	126.34
3547	2.0029	6.2462	0.	129.77
3548	1.7518	6.4973	0.	132.1
3549	2.0052	5.2452	0.	128.22
3550	1.7547	4.9963	0.	126.3
3551	-5.9991	1.2477	0.	129.85
3552	-6.2495	1.4985	0.	130.76
3553	-6.2456	-6.0623e-003	0.	129.35
3554	-5.9963	0.24423	0.	130.54
3555	7.0001	-3.2503	0.	127.42
3556	6.7501	-3.0007	0.	126.83
3557	5.9999	-1.7558	0.	125.44
3558	6.2501	-2.0037	0.	125.46
3559	-8.0214	5.7211	0.	123.34
3560	-8.01	5.232	0.	122.62
3561	-7.7611	5.4781	0.	123.13
3562	-8.2631	5.4778	0.	123.34
3563	-5.026	6.7364	0.	130.33
3564	-5.3077	6.9388	0.	130.06
3565	-5.2625	7.1274	0.	128.95
3566	-4.9616	7.2444	0.	128.19
3567	-5.2501	3.9986	0.	130.41
3568	-5.0003	4.2476	0.	131.21
3569	-7.2464	-3.9998	0.	126.35
3570	-6.9945	-3.7507	0.	128.11
3571	6.9429	4.1538	0.	128.94
3572	6.9923	3.779	0.	129.65
3573	6.6985	3.7094	0.	131.18
3574	6.2352	1.8819	0.	131.22
3575	5.9884	2.1036	0.	129.38
3576	6.0252	2.5437	0.	126.87
3577	6.2637	2.5913	0.	128.53
3578	6.7209	1.8636	0.	128.36
3579	6.4791	1.6412	0.	130.17
3580	6.4699	2.1545	0.	132.03
3581	6.969	2.0688	0.	131.17
3582	7.208	1.8202	0.	118.21
3583	8.4149	4.166	0.	120.32
3584	8.6033	4.4548	0.	118.04
3585	8.2208	4.531	0.	115.89
3586	8.0877	4.288	0.	114.85
3587	7.3342	4.4755	0.	124.87
3588	7.2614	4.194	0.	122.93
3589	7.0544	4.6792	0.	125.91
3590	-5.6898	8.0032	0.	125.04
3591	-5.9921	7.8842	0.	121.68
3592	-5.565	8.4186	0.	125.59
3593	-5.8249	8.2651	0.	126.18
3594	-5.3703	8.1483	0.	124.53
3595	-7.7479	-3.9996	0.	121.77
3596	-7.9984	-3.7498	0.	119.12
3597	-8.2488	-3.9997	0.	116.67
3598	-7.4969	-3.7499	0.	126.86
3599	-7.2445	-3.0016	0.	128.43
3600	-6.9931	-3.2519	0.	128.36
3601	-6.9924	-2.7531	0.	127.92
3602	-6.995	-0.75454	0.	126.05
3603	-7.2457	-1.0036	0.	126.49
3604	-6.9961	-0.25381	0.	124.46
3605	-7.2463	-0.50321	0.	125.43
3606	-5.7502	3.999	0.	127.25
3607	-6.0001	3.7494	0.	125.84
3608	-6.2501	3.9993	0.	122.09
3609	-6.0003	4.2492	0.	124.26
3610	-5.5004	4.2479	0.	131.2
3611	-5.2512	4.9946	0.	130.83
3612	-5.0009	4.7454	0.	130.78
3613	-5.0025	5.242	0.	129.48
3614	-5.0159	6.2316	0.	130.68
3615	-5.2599	5.9816	0.	131.11
3616	-5.0066	5.7369	0.	129.51
3617	-5.2799	6.4664	0.	132.68
3618	-5.874	6.9106	0.	128.23
3619	-5.5616	6.6689	0.	132.42
3620	-5.5405	7.0725	0.	129.46
3621	-6.1012	6.6957	0.	124.97
3622	-6.3708	6.7441	0.	119.55
3623	-6.4097	7.0917	0.	126.17
3624	-8.0441	6.2213	0.	126.87
3625	-8.2957	6.4621	0.	129.16
3626	-8.2353	6.709	0.	130.54
3627	-7.8146	6.4219	0.	126.27
3628	-7.8857	6.6076	0.	127.18
3629	-8.2748	5.966	0.	125.35
3630	-7.7773	5.9563	0.	123.74
3631	-8.0043	4.739	0.	123.04
3632	-8.2565	4.9863	0.	123.6
3633	-7.7548	4.9874	0.	123.39
3634	-8.0017	4.2438	0.	122.27
3635	-8.2528	4.4918	0.	124.03
3636	-7.7519	4.4932	0.	123.22
3637	-7.2503	3.9977	0.	117.16
3638	-7.7507	3.9963	0.	119.33
3639	-7.5009	4.2457	0.	120.37
3640	-7.5003	3.7477	0.	113.04
3641	-7.0005	-5.7477	0.	127.54
3642	-7.2502	-5.9983	0.	127.89
3643	-7.	-6.2473	0.	126.44
3644	-7.2505	-5.4984	0.	128.46
3645	-7.0002	-5.248	0.	127.75
3646	-7.7499	-4.9993	0.	122.21
3647	-7.5001	-5.2491	0.	127.04
3648	-7.2499	-4.9987	0.	126.32
3649	-8.2498	-4.9996	0.	117.49
3650	-7.9999	-5.2495	0.	120.12
3651	-7.4994	-7.7488	0.	128.11
3652	-7.7495	-7.9992	0.	123.92
3653	-7.2493	-7.9979	0.	127.02
3654	-7.4994	-8.2488	0.	125.61
3655	-6.9992	-7.2471	0.	127.77
3656	-7.2493	-7.498	0.	129.08
3657	-6.9992	-7.7471	0.	128.01
3658	-7.2495	-6.998	0.	128.12
3659	-6.9995	-6.7471	0.	126.52
3660	6.7279	0.91801	0.	123.85
3661	6.9792	0.68421	0.	120.55
3662	6.4846	0.68473	0.	128.85
3663	6.4808	1.1592	0.	127.82
3664	6.2343	0.92515	0.	128.67
3665	6.245	-3.1862e-002	0.	128.07
3666	5.9963	-0.27841	0.	126.17
3667	5.9927	0.20674	0.	128.18
3668	6.25	-1.5064	0.	127.58
3669	5.9995	-1.2607	0.	125.86
3670	7.0002	-1.7514	0.	123.19
3671	7.2501	-2.0008	0.	121.66
3672	6.7502	-2.0023	0.	124.53
3673	7.	-5.25	0.	132.56
3674	6.75	-5.	0.	132.15
3675	7.	-4.75	0.	129.46
3676	6.75	-5.5	0.	135.64
3677	7.	-5.75	0.	133.3
3678	7.	-3.7502	0.	127.83
3679	6.75	-4.0002	0.	128.18
3680	7.25	-4.0001	0.	127.4
3681	7.	-4.2501	0.	127.63
3682	6.75	-3.5004	0.	129.16
3683	6.2501	-3.0009	0.	124.91
3684	6.5001	-3.2507	0.	128.59
3685	6.	-3.2506	0.	123.58
3686	5.75	-3.0009	0.	120.41
3687	3.7506	-2.9999	0.	125.79
3688	4.0005	-3.25	0.	124.17
3689	4.0002	-2.7503	0.	123.22
3690	3.2511	-2.9996	0.	129.4
3691	3.5012	-3.2497	0.	130.55
3692	3.5005	-2.75	0.	127.25
3693	2.7565	-3.9989	0.	130.87
3694	3.2536	-3.9995	0.	131.29
3695	3.004	-3.7492	0.	131.99
3696	3.0053	-4.2495	0.	130.36
3697	3.0041	-5.2509	0.	132.39
3698	3.2537	-5.0005	0.	132.73
3699	2.757	-5.0002	0.	130.25
3700	3.0054	-4.7501	0.	130.55
3701	3.0015	-5.7515	0.	132.29
3702	3.2523	-5.5011	0.	135.26
3703	3.2499	-6.0014	0.	132.13
3704	2.9981	-6.2517	0.	130.33
3705	-6.7463	-4.3147e-003	0.	125.95
3706	-6.9974	0.2473	0.	122.73
3707	-7.2472	-2.618e-003	0.	120.82
3708	-6.4968	0.2456	0.	130.14
3709	-5.9981	0.74622	0.	130.66
3710	-6.2475	0.49589	0.	131.32
3711	-6.249	0.99748	0.	130.55
3712	-6.	3.2495	0.	127.38
3713	-6.25	2.9996	0.	127.62
3714	-6.25	3.4995	0.	126.54
3715	-6.7501	3.999	0.	118.27
3716	-6.5	3.7494	0.	122.89
3717	-6.5002	4.2494	0.	115.39
3718	-7.0001	3.7489	0.	118.
3719	-7.0003	4.2484	0.	117.79
3720	2.004	5.7456	0.	129.75
3721	1.7537	5.4965	0.	130.75
3722	1.7527	5.9968	0.	131.29
3723	7.5011	6.7492	0.	126.68
3724	7.7505	6.9998	0.	122.96
3725	7.255	5.9953	0.	126.25
3726	7.0107	5.7393	0.	124.59
3727	7.0047	6.245	0.	125.99
3728	3.0172	3.2382	0.	129.62
3729	2.7624	2.9914	0.	129.77
3730	3.2712	2.9852	0.	128.86
3731	2.7648	3.4901	0.	130.28
3732	2.0058	3.7468	0.	121.64
3733	1.7548	3.9973	0.	119.38
3734	2.259	3.9939	0.	124.51
3735	1.7763e-005	0.74929	0.	125.14
3736	0.24998	0.99956	0.	125.47
3737	0.25003	0.49946	0.	125.46
3738	1.2591e-004	0.24913	0.	124.88
3739	2.2498	-6.6295e-004	0.	122.82
3740	1.9999	0.24966	0.	119.74
3741	1.7499	-2.2118e-004	0.	116.7
3742	2.4999	0.24876	0.	127.96
3743	2.7496	-1.884e-003	0.	127.54
3744	3.0007	0.74565	0.	129.22
3745	2.75	0.49746	0.	129.5
3746	2.9997	0.24682	0.	129.09
3747	3.25	0.49415	0.	129.12
3748	2.7511	0.99648	0.	129.07
3749	3.0027	1.2441	0.	128.8
3750	-2.7498	4.9991	0.	133.94
3751	-2.9998	5.2484	0.	132.71
3752	-2.75	3.4998	0.	133.85
3753	-2.9999	3.7497	0.	132.26
3754	-3.	3.2498	0.	132.26
3755	-2.	3.2499	0.	127.08
3756	-2.25	2.9998	0.	128.32
3757	-0.249	-1.0016	0.	125.6
3758	9.8242e-004	-1.2509	0.	124.01
3759	5.3828e-004	-0.75093	0.	123.46
3760	-0.49805	-1.2525	0.	129.44
3761	-0.74329	-2.0058	0.	128.28
3762	-0.99325	-1.7575	0.	127.8
3763	-0.98755	-2.2598	0.	125.77
3764	-0.9655	-3.2643	0.	126.
3765	-0.72819	-3.0088	0.	127.48
3766	-0.97832	-2.7623	0.	125.22
3767	-0.71259	-3.5083	0.	128.5
3768	-0.94991	-3.764	0.	125.11
3769	-0.20396	-3.9911	0.	126.94
3770	-0.45813	-3.7476	0.	129.28
3771	-0.44169	-4.2372	0.	128.27
3772	-0.69545	-4.0033	0.	125.87
3773	3.287e-002	-3.7419	0.	126.12
3774	2.9999	-1.7504	0.	128.96
3775	2.75	-2.0001	0.	129.95
3776	2.7498	-1.5005	0.	130.49
3777	1.9999	-1.2501	0.	123.2
3778	2.2498	-1.0004	0.	124.74
3779	1.7499	-1.0002	0.	119.48
3780	2.2601	-3.9978	0.	128.45
3781	2.0095	-3.7476	0.	127.37
3782	2.0134	-4.2471	0.	126.19
3783	2.5064	-3.7486	0.	132.45
3784	2.5088	-4.2487	0.	129.57
3785	2.7515	-2.9994	0.	131.49
3786	3.0022	-3.2493	0.	131.6
3787	5.7481e-002	-5.2146	0.	126.67
3788	-0.18152	-5.448	0.	125.61
3789	-0.17853	-4.9632	0.	133.91
3790	-0.91441	-4.7345	0.	117.54
3791	-0.67923	-4.491	0.	124.64
3792	-0.93299	-4.2571	0.	122.21
3793	-0.89793	-7.3785	0.	120.84
3794	-1.141	-7.0792	0.	111.72
3795	-1.1389	-7.6368	0.	119.99
3796	-0.59655	-7.1573	0.	127.67
3797	-3.7651e-002	-6.6966	0.	128.82
3798	-0.31767	-6.9251	0.	130.7
3799	-0.26731	-6.433	0.	130.81
3800	-2.0631	-6.4109	0.	132.26
3801	-1.8608	-6.5943	0.	129.38
3802	-2.3275	-6.5829	0.	131.7
3803	-2.148	-4.5899	0.	128.7
3804	-1.8908	-4.8831	0.	129.11
3805	-1.9113	-4.3331	0.	125.49
3806	-2.3929	-4.8389	0.	133.72
3807	-2.9619	-5.7536	0.	126.78
3808	-2.7402	-6.0318	0.	126.44
3809	-2.9236	-5.2767	0.	128.72
3810	-2.6719	-5.5567	0.	127.27
3811	7.9583	1.1206	0.	116.42
3812	8.2093	1.3384	0.	119.72
3813	7.9535	1.5578	0.	113.82
3814	8.7267	3.9931	0.	125.07
3815	8.2944	3.9106	0.	124.73
3816	8.4645	3.7393	0.	125.3
3817	1.0016	4.2494	0.	119.9
3818	1.0017	4.7492	0.	121.29
3819	0.75121	4.4995	0.	121.26
3820	1.2527	4.4985	0.	120.41
3821	7.9687	0.67584	0.	118.6
3822	8.1944	0.90378	0.	120.97
3823	-8.7498	-4.9998	0.	117.5
3824	-8.4999	-5.2498	0.	113.12
3825	-8.4995	-4.7497	0.	116.11
3826	8.75	8.0001	0.	123.29
3827	8.5	8.2501	0.	123.31
3828	8.5001	7.7501	0.	121.98
3829	1.2963e-004	3.25	0.	124.4
3830	0.25009	2.9999	0.	126.18
3831	0.75104	3.9997	0.	122.9
3832	1.0013	3.7496	0.	121.24
3833	1.2524	3.999	0.	118.65
3834	1.2527	4.9983	0.	124.28
3835	1.5032	5.2476	0.	128.89
3836	1.5037	4.7477	0.	123.42
3837	-2.4996	5.7488	0.	134.58
3838	-2.2497	5.999	0.	131.05
3839	-2.4998	6.2483	0.	130.75
3840	7.	-8.75	0.	129.56
3841	6.75	-8.5	0.	130.23
3842	7.25	-8.5	0.	129.92
3843	7.	-8.25	0.	129.88
3844	2.9905	-8.7491	0.	128.85
3845	3.2422	-8.4994	0.	129.55
3846	2.7363	-8.4986	0.	128.98
3847	2.9899	-8.2496	0.	128.96
3848	0.69742	-8.4794	0.	127.37
3849	0.9595	-8.736	0.	127.77
3850	1.2084	-8.4878	0.	127.87
3851	0.18955	-8.4694	0.	126.5
3852	0.45204	-8.7284	0.	127.05
3853	-0.31372	-8.4602	0.	125.23
3854	-5.1993e-002	-8.7208	0.	126.
3855	-0.55146	-8.7153	0.	124.75
3856	-0.81197	-8.4582	0.	123.98
3857	-3.018	-8.7457	0.	127.19
3858	-2.7774	-8.4974	0.	126.85
3859	-3.2691	-8.4918	0.	127.65
3860	-4.2572	-8.4846	0.	128.08
3861	-4.0076	-8.738	0.	128.02
3862	-3.7625	-8.4871	0.	128.01
3863	-4.5042	-8.737	0.	128.06
3864	-4.7542	-8.4849	0.	128.01
3865	-5.7502	-8.4901	0.	127.73
3866	-5.5004	-8.7403	0.	127.82
3867	-5.2519	-8.487	0.	127.88
3868	-5.9998	-8.7432	0.	127.58
3869	-6.2495	-8.4934	0.	127.5
3870	-8.4998	-8.7498	0.	121.38
3871	-8.7498	-8.4998	0.	121.18
3872	-8.4997	-8.2498	0.	119.39
3873	-8.2497	-8.4996	0.	121.48
3874	8.	-1.7503	0.	123.43
3875	7.7501	-2.0004	0.	121.9
3876	8.25	-2.0003	0.	125.89
3877	8.4701	1.551	0.	125.28
3878	8.7362	1.6724	0.	128.85
3879	8.3897	1.9813	0.	126.96
3880	8.5874	1.9552	0.	132.32
3881	8.2142	1.7705	0.	119.4
3882	8.6827	1.2013	0.	126.43
3883	8.4454	1.1215	0.	124.29
3884	8.5	-2.2502	0.	127.76
3885	8.75	-2.5001	0.	127.98
3886	8.5	-2.7502	0.	127.21
3887	8.5	-4.25	0.	127.71
3888	8.75	-4.	0.	127.71
3889	8.5	-3.75	0.	127.44
3890	8.75	-4.5	0.	127.91
3891	8.5	-4.75	0.	128.11
3892	2.0005	8.2487	0.	130.04
3893	1.7505	7.9988	0.	131.16
3894	-5.7496	8.6607	0.	129.61
3895	-5.985	8.8935	0.	131.52
3896	-6.0096	8.5073	0.	130.18
3897	-6.2068	8.6369	0.	136.77
3898	-5.5127	8.8562	0.	127.5
3899	-5.2838	8.5951	0.	126.13
3900	-4.2922	8.4856	0.	125.3
3901	-4.5325	8.7458	0.	125.52
3902	-4.7961	8.5233	0.	125.22
3903	-3.7802	8.4856	0.	125.63
3904	-4.0275	8.7372	0.	125.7
3905	-3.5189	8.7405	0.	126.02
3906	-3.2688	8.4912	0.	126.13
3907	-2.5071	8.7471	0.	127.41
3908	-2.2558	8.4978	0.	128.48
3909	-2.7608	8.4953	0.	126.97
3910	2.2504	8.4989	0.	128.99
3911	2.0003	8.7492	0.	129.42
3912	1.7503	8.4992	0.	131.71
3913	2.5003	8.7491	0.	127.66
3914	2.7504	8.4988	0.	127.17
3915	3.7502	8.499	0.	125.63
3916	3.5002	8.7493	0.	125.97
3917	3.2503	8.4989	0.	126.13
3918	4.0001	8.7493	0.	125.7
3919	4.2501	8.499	0.	125.44
3920	5.	8.7493	0.	125.58
3921	4.7501	8.4991	0.	125.4
3922	5.25	8.4991	0.	125.42
3923	-8.2512	3.9953	0.	123.97
3924	-8.0007	3.7467	0.	121.14
3925	-8.4992	0.24963	0.	121.81
3926	-8.7493	-2.665e-004	0.	120.61
3927	-8.4992	-0.2503	0.	113.81
3928	-8.2488	-6.1988e-004	0.	117.61
3929	-8.5023	4.2433	0.	125.73
3930	-8.7514	3.9957	0.	127.28
3931	-8.5011	3.746	0.	128.27
3932	-8.505	4.7392	0.	124.59
3933	-8.7529	4.4928	0.	125.83
3934	-8.756	4.9887	0.	125.05
3935	-8.5095	5.2321	0.	124.32
3936	-8.5264	6.2068	0.	127.65
3937	-8.7665	5.9743	0.	126.54
3938	-8.5165	5.7227	0.	125.35
3939	-8.4717	6.6927	0.	130.45
3940	-8.7683	6.4617	0.	128.57
3941	-8.4592	7.212	0.	130.78
3942	-8.6928	6.9574	0.	130.21
3943	-8.1603	7.0302	0.	134.8
3944	-8.5354	7.7365	0.	127.43
3945	-8.7532	7.4813	0.	128.23
3946	-8.2682	7.5215	0.	130.44
3947	-8.5723	8.2369	0.	127.28
3948	-8.7975	7.987	0.	125.03
3949	-8.3383	7.9988	0.	130.69
3950	-8.8114	8.4878	0.	127.53
3951	-8.3657	8.4777	0.	130.59
3952	-8.5653	8.7346	0.	130.66
3953	-2.1357	-5.1321	0.	133.97
3954	-2.65	-5.0673	0.	132.87
3955	-2.3982	-5.3473	0.	131.38
3956	-2.2591	-6.1365	0.	129.98
3957	-2.5234	-6.3084	0.	129.4
3958	-2.4502	-5.8349	0.	126.77
3959	-9.0365	8.2379	0.	125.22
3960	-9.0351	8.742	0.	126.36
3961	-9.2797	8.4925	0.	124.6
3962	-9.0154	7.7318	0.	125.79
3963	-9.2719	7.9882	0.	124.13
3964	-8.9868	7.2267	0.	127.64
3965	-9.2498	7.4833	0.	125.58
3966	-8.9894	6.7265	0.	128.33
3967	-9.2337	6.9824	0.	127.18
3968	-9.0085	6.2292	0.	127.46
3969	-9.2527	6.4843	0.	127.34
3970	-9.0108	5.7334	0.	126.35
3971	-9.2588	5.9863	0.	126.77
3972	-9.0073	5.2384	0.	125.88
3973	-9.257	5.4897	0.	126.35
3974	-8.7608	5.4818	0.	125.16
3975	-9.004	4.7423	0.	126.28
3976	-9.2541	4.9929	0.	126.5
3977	-9.002	4.2452	0.	127.38
3978	-9.2521	4.4954	0.	127.19
3979	-9.001	3.747	0.	128.61
3980	-9.251	3.9972	0.	128.15
3981	-9.0005	3.2481	0.	129.06
3982	-8.7507	3.4974	0.	129.6
3983	-9.2505	3.4982	0.	128.75
3984	-9.0002	2.7489	0.	128.68
3985	-8.7503	2.9985	0.	129.32
3986	-9.2502	2.999	0.	128.42
3987	-9.0001	2.2494	0.	128.48
3988	-8.7501	2.4992	0.	129.93
3989	-9.2501	2.4994	0.	127.86
3990	-9.	1.7496	0.	128.06
3991	-8.75	1.9996	0.	130.76
3992	-9.25	1.9997	0.	127.8
3993	-8.9999	1.2498	0.	127.32
3994	-8.75	1.4997	0.	129.14
3995	-9.25	1.4998	0.	127.33
3996	-8.9997	0.74978	0.	126.45
3997	-8.7498	0.99975	0.	127.
3998	-9.2499	0.99983	0.	127.31
3999	-8.7495	0.49972	0.	125.53
4000	-8.9996	0.24981	0.	124.45
4001	-9.2497	0.49984	0.	127.01
4002	-7.2645	9.1285	0.	116.66
4003	-7.5899	9.0117	0.	116.18
4004	-7.7344	9.3249	0.	121.09
4005	-7.4895	9.387	0.	118.9
4006	-6.7537	9.066	0.	122.8
4007	-6.9566	8.8436	0.	116.1
4008	-7.1494	8.8809	0.	112.53
4009	-7.0038	9.3009	0.	119.03
4010	-6.2415	9.0852	0.	129.88
4011	-6.493	9.3052	0.	127.14
4012	-6.4634	8.8285	0.	135.15
4013	-5.748	9.089	0.	129.44
4014	-5.9957	9.3209	0.	129.12
4015	-5.2573	9.0589	0.	127.19
4016	-5.5009	9.3085	0.	127.76
4017	-4.7649	9.0203	0.	126.12
4018	-5.0069	9.2784	0.	126.76
4019	-5.0284	8.7978	0.	125.81
4020	-4.2678	8.9974	0.	125.93
4021	-4.5112	9.2536	0.	126.47
4022	-3.7661	8.9921	0.	126.09
4023	-4.0122	9.2446	0.	126.51
4024	-3.2623	8.9936	0.	126.41
4025	-3.5103	9.2443	0.	126.64
4026	-2.7585	8.9961	0.	126.95
4027	-3.0076	9.2462	0.	126.82
4028	-3.0122	8.7443	0.	126.52
4029	-2.2553	8.9979	0.	127.81
4030	-2.5052	9.2478	0.	127.11
4031	-1.7531	8.999	0.	128.3
4032	-2.0032	9.2489	0.	127.46
4033	-2.0041	8.7486	0.	128.9
4034	-1.2517	8.9996	0.	126.41
4035	-1.5021	8.7494	0.	130.33
4036	-1.5019	9.2495	0.	126.88
4037	-0.75076	8.9999	0.	122.18
4038	-1.001	8.7498	0.	125.51
4039	-1.001	9.2498	0.	124.
4040	-0.25034	9.	0.	118.79
4041	-0.50044	8.75	0.	117.76
4042	-0.50046	9.2499	0.	120.53
4043	0.24987	9.	0.	118.96
4044	-1.8015e-004	8.75	0.	116.9
4045	-2.058e-004	9.25	0.	119.11
4046	0.74999	8.9999	0.	122.6
4047	0.49996	8.75	0.	118.19
4048	0.49994	9.25	0.	120.78
4049	1.2501	8.9998	0.	126.92
4050	1.0001	8.7499	0.	126.25
4051	1.	9.2499	0.	124.39
4052	1.7502	8.9995	0.	128.73
4053	1.5002	8.7495	0.	131.06
4054	1.5001	9.2497	0.	127.27
4055	2.2502	8.9994	0.	128.09
4056	2.0001	9.2496	0.	127.73
4057	2.7501	8.9994	0.	127.05
4058	2.5001	9.2496	0.	127.21
4059	3.2501	8.9995	0.	126.4
4060	3.0001	9.2496	0.	126.75
4061	3.0002	8.7491	0.	126.56
4062	3.7501	8.9995	0.	126.05
4063	3.5001	9.2496	0.	126.45
4064	4.2501	8.9995	0.	125.88
4065	4.	9.2496	0.	126.26
4066	4.75	8.9995	0.	125.78
4067	4.5	9.2496	0.	126.11
4068	4.5001	8.7492	0.	125.61
4069	5.	9.2496	0.	125.99
4070	5.25	8.9995	0.	125.71
4071	6.75	8.9999	0.	125.21
4072	6.5	9.2498	0.	125.44
4073	6.5	8.7497	0.	125.3
4074	6.25	8.9996	0.	125.45
4075	7.	9.25	0.	125.17
4076	7.	8.75	0.	124.97
4077	7.25	9.	0.	124.9
4078	8.	9.25	0.	124.67
4079	8.25	9.	0.	124.47
4080	8.	8.7501	0.	124.17
4081	7.75	9.0001	0.	124.61
4082	9.012	3.2882	0.	125.41
4083	8.9723	3.7735	0.	126.73
4084	9.24	3.5251	0.	127.11
4085	8.7102	3.5197	0.	126.9
4086	9.063	2.8061	0.	126.2
4087	9.2795	3.038	0.	125.1
4088	8.8018	3.0427	0.	129.47
4089	9.0828	2.3195	0.	130.28
4090	9.3112	2.5475	0.	127.82
4091	8.8724	2.5772	0.	126.14
4092	9.036	1.8265	0.	131.5
4093	9.3045	2.0526	0.	130.93
4094	8.8873	2.1093	0.	135.01
4095	8.9488	1.3228	0.	130.01
4096	9.2442	1.5535	0.	130.84
4097	8.9385	0.79224	0.	129.19
4098	9.1859	1.0466	0.	129.76
4099	8.6678	0.98749	0.	126.89
4100	8.9822	0.26052	0.	129.02
4101	8.7237	0.4921	0.	129.41
4102	9.2265	0.51701	0.	129.63
4103	8.9952	-0.24769	0.	128.17
4104	9.243	5.6431e-003	0.	128.87
4105	8.743	-3.5409e-003	0.	128.89
4106	8.9989	-0.74963	0.	128.49
4107	8.7482	-0.50125	0.	128.75
4108	9.2482	-0.49828	0.	128.14
4109	8.9998	-1.2501	0.	129.85
4110	8.7496	-1.0005	0.	130.01
4111	9.2496	-0.99958	0.	129.16
4112	9.	-1.7501	0.	130.04
4113	9.2499	-1.5	0.	129.99
4114	8.7499	-1.5003	0.	130.98
4115	9.25	-2.0001	0.	129.73
4116	8.75	-2.0002	0.	129.
4117	9.	-2.2501	0.	129.22
4118	9.	-3.75	0.	127.92
4119	9.25	-3.5	0.	128.24
4120	8.75	-3.5	0.	127.65
4121	9.	-3.2501	0.	128.08
4122	9.	-4.25	0.	127.9
4123	9.25	-4.	0.	128.01
4124	9.	-4.75	0.	127.99
4125	9.25	-4.5	0.	127.9
4126	9.	-5.25	0.	128.11
4127	9.25	-5.	0.	127.89
4128	8.75	-5.	0.	128.19
4129	9.	-5.75	0.	128.2
4130	9.25	-5.5	0.	127.92
4131	8.75	-5.5	0.	128.42
4132	9.	-6.25	0.	128.24
4133	9.25	-6.	0.	127.97
4134	8.75	-6.	0.	128.47
4135	9.	-6.75	0.	128.32
4136	9.25	-6.5	0.	128.05
4137	8.75	-6.5	0.	128.42
4138	9.	-7.25	0.	128.54
4139	9.25	-7.	0.	128.26
4140	8.75	-7.	0.	128.44
4141	9.25	-7.5	0.	128.64
4142	9.	-7.75	0.	128.91
4143	8.75	-7.5	0.	128.68
4144	8.25	-9.	0.	129.98
4145	8.75	-9.	0.	130.03
4146	8.5	-9.25	0.	130.1
4147	8.5	-8.75	0.	129.8
4148	7.75	-9.	0.	129.86
4149	8.	-9.25	0.	129.99
4150	8.	-8.75	0.	129.8
4151	7.25	-9.	0.	129.41
4152	7.5	-9.25	0.	129.58
4153	7.5	-8.75	0.	129.76
4154	6.75	-9.	0.	127.67
4155	7.	-9.25	0.	128.41
4156	6.2499	-9.	0.	122.98
4157	6.5	-8.75	0.	128.36
4158	6.5	-9.25	0.	125.26
4159	5.7498	-9.	0.	116.3
4160	5.9999	-8.75	0.	120.67
4161	5.9999	-9.25	0.	119.34
4162	5.2496	-9.	0.	111.53
4163	5.4998	-8.75	0.	111.4
4164	5.4998	-9.25	0.	113.5
4165	4.7492	-8.9999	0.	111.49
4166	4.9995	-8.75	0.	109.74
4167	4.9995	-9.25	0.	111.13
4168	4.248	-8.9998	0.	116.18
4169	4.4988	-8.75	0.	111.31
4170	4.4989	-9.2499	0.	113.43
4171	3.9972	-8.7498	0.	120.52
4172	3.9975	-9.2497	0.	119.17
4173	3.7457	-8.9995	0.	122.72
4174	2.7388	-8.9984	0.	128.68
4175	2.993	-9.249	0.	127.86
4176	3.2428	-8.9991	0.	127.2
4177	2.2334	-8.9969	0.	128.86
4178	2.4894	-9.2482	0.	128.78
4179	2.4846	-8.7479	0.	128.81
4180	1.727	-8.9943	0.	128.63
4181	1.985	-9.2466	0.	128.88
4182	1.9776	-8.7458	0.	128.59
4183	1.2201	-8.9902	0.	128.15
4184	1.4799	-9.2442	0.	128.55
4185	1.469	-8.7421	0.	128.25
4186	0.71413	-8.985	0.	127.46
4187	0.97499	-9.2406	0.	127.94
4188	0.2105	-8.9797	0.	126.55
4189	0.47138	-9.2366	0.	127.11
4190	-0.28974	-8.9759	0.	125.52
4191	-2.9801e-002	-9.2332	0.	126.12
4192	-0.78687	-8.9774	0.	124.67
4193	-0.52855	-9.2316	0.	125.17
4194	-1.2818	-8.9862	0.	124.35
4195	-1.0253	-9.236	0.	124.56
4196	-1.0474	-8.7203	0.	123.89
4197	-1.7761	-8.996	0.	124.72
4198	-1.521	-9.2442	0.	124.57
4199	-1.5401	-8.7377	0.	124.
4200	-2.2708	-9.	0.	125.58
4201	-2.017	-9.2497	0.	125.16
4202	-2.0322	-8.75	0.	124.97
4203	-2.7659	-8.9986	0.	126.53
4204	-2.5135	-9.2501	0.	126.04
4205	-2.5253	-8.7503	0.	126.2
4206	-3.2615	-8.9949	0.	127.3
4207	-3.0101	-9.2478	0.	126.89
4208	-3.7576	-8.9918	0.	127.78
4209	-3.507	-9.2449	0.	127.52
4210	-3.5126	-8.741	0.	127.77
4211	-4.2545	-8.9904	0.	128.
4212	-4.0044	-9.2433	0.	127.89
4213	-4.7523	-8.9903	0.	128.03
4214	-4.5025	-9.2427	0.	128.04
4215	-5.2508	-8.9915	0.	127.92
4216	-5.001	-9.243	0.	128.
4217	-5.0023	-8.7382	0.	127.98
4218	-5.75	-8.9935	0.	127.68
4219	-5.5002	-9.2443	0.	127.82
4220	-6.2497	-8.9955	0.	127.25
4221	-5.9998	-9.2459	0.	127.46
4222	-6.7495	-8.9972	0.	126.49
4223	-6.4996	-9.2473	0.	126.84
4224	-6.4995	-8.7457	0.	127.17
4225	-7.2495	-8.9985	0.	125.28
4226	-6.9996	-9.2485	0.	125.87
4227	-6.9994	-8.7478	0.	126.33
4228	-7.7496	-8.9993	0.	123.74
4229	-7.4997	-9.2492	0.	124.52
4230	-7.4995	-8.7489	0.	124.72
4231	-8.2497	-8.9997	0.	122.5
4232	-7.9997	-9.2496	0.	123.15
4233	-7.9996	-8.7495	0.	122.61
4234	-8.7498	-8.9999	0.	122.28
4235	-8.4998	-9.2498	0.	122.42
4236	-0.83958	-6.858	0.	118.46
4237	-0.54732	-6.6614	0.	132.5
4238	-0.66145	-4.9625	0.	126.9
4239	-0.41753	-5.1966	0.	132.5
4240	-0.42627	-4.719	0.	134.2
4241	2.5032	-3.249	0.	133.44
4242	2.2559	-3.4983	0.	131.34
4243	2.754	-3.4989	0.	133.57
4244	2.4999	-1.7502	0.	131.44
4245	2.2499	-1.5002	0.	127.89
4246	2.4998	-1.2504	0.	129.49
4247	-0.47527	-3.2528	0.	129.92
4248	-0.2213	-3.4984	0.	128.43
4249	-0.24808	-1.5018	0.	127.8
4250	-0.49639	-1.753	0.	130.31
4251	-0.74635	-1.5047	0.	129.89
4252	-2.5	3.7498	0.	134.45
4253	-2.25	3.4999	0.	131.54
4254	-2.5	3.2498	0.	132.86
4255	-2.4997	5.2492	0.	136.24
4256	-2.2497	5.4993	0.	134.43
4257	-2.7497	5.4985	0.	135.07
4258	-1.9997	5.7495	0.	130.93
4259	-1.7498	5.9996	0.	128.47
4260	-1.9998	6.2493	0.	129.17
4261	0.75141	4.9993	0.	122.24
4262	1.0017	5.2491	0.	124.86
4263	2.25	0.49908	0.	124.86
4264	2.5004	0.74828	0.	129.33
4265	0.75	0.49985	0.	121.31
4266	0.5	0.74973	0.	125.77
4267	0.50004	0.24972	0.	123.55
4268	0.50055	3.7499	0.	129.06
4269	0.25034	3.4999	0.	128.74
4270	0.50029	3.2499	0.	130.48
4271	0.75079	3.4998	0.	127.44
4272	2.2583	3.495	0.	126.24
4273	2.51	3.2433	0.	130.41
4274	2.5115	3.7421	0.	129.11
4275	8.915	4.2819	0.	123.13
4276	9.2177	4.0186	0.	127.91
4277	7.849	4.6275	0.	118.71
4278	7.5586	4.7838	0.	123.84
4279	7.7159	4.3845	0.	117.73
4280	7.5024	6.2481	0.	127.64
4281	7.7511	6.4992	0.	124.78
4282	7.2522	6.4977	0.	127.42
4283	9.	8.25	0.	124.09
4284	9.	8.75	0.	124.56
4285	9.25	8.5	0.	124.83
4286	8.75	8.5	0.	124.11
4287	9.	7.75	0.	123.36
4288	9.25	8.	0.	124.66
4289	9.0001	7.2501	0.	122.43
4290	9.25	7.5	0.	124.46
4291	8.7501	7.5001	0.	122.03
4292	9.0001	6.75	0.	122.48
4293	9.2501	7.	0.	124.61
4294	8.7501	7.0001	0.	120.11
4295	3.495	-8.2498	0.	129.49
4296	3.746	-8.4997	0.	125.66
4297	3.4945	-8.7495	0.	127.92
4298	6.5	-8.25	0.	130.15
4299	6.2499	-8.5	0.	125.99
4300	1.5003	8.2492	0.	132.79
4301	1.2502	8.4996	0.	130.33
4302	1.5024	5.7477	0.	132.25
4303	1.2522	5.4984	0.	129.38
4304	-1.5018	8.2495	0.	131.58
4305	-1.2515	8.4997	0.	129.39
4306	-1.7531	8.4991	0.	130.9
4307	-8.2506	3.4975	0.	125.43
4308	-8.5005	3.2478	0.	129.83
4309	-6.75	3.4993	0.	122.48
4310	-6.5	3.2495	0.	126.8
4311	-6.4984	0.74715	0.	131.19
4312	-6.7479	0.49721	0.	126.92
4313	-8.2492	0.49954	0.	121.97
4314	-8.4996	0.74969	0.	126.1
4315	3.5007	-5.751	0.	135.02
4316	3.5019	-5.2507	0.	135.53
4317	3.751	-5.5006	0.	129.97
4318	3.502	-3.7497	0.	132.02
4319	3.7512	-3.4998	0.	128.88
4320	3.2524	-3.4994	0.	132.73
4321	6.25	-3.5004	0.	127.22
4322	6.5	-3.7504	0.	129.47
4323	6.5	-5.75	0.	135.38
4324	6.5	-5.25	0.	135.18
4325	6.25	-5.5	0.	129.94
4326	6.7502	-1.5034	0.	126.25
4327	6.5001	-1.257	0.	128.52
4328	6.5002	-1.7544	0.	127.61
4329	6.7359	0.45094	0.	125.52
4330	6.4914	0.20966	0.	129.45
4331	6.2391	0.44826	0.	129.59
4332	8.2272	0.45941	0.	124.67
4333	8.4845	0.22803	0.	129.25
4334	8.4529	0.68735	0.	127.12
4335	-7.7496	-7.4992	0.	126.14
4336	-7.4995	-7.2488	0.	129.4
4337	-8.9999	-8.2499	0.	121.19
4338	-8.9999	-8.7499	0.	122.09
4339	-9.2499	-8.4999	0.	122.89
4340	-8.9999	-7.75	0.	121.15
4341	-9.2499	-8.	0.	122.94
4342	-8.7498	-7.9999	0.	119.37
4343	-7.7502	-5.4993	0.	124.92
4344	-7.5002	-5.749	0.	128.78
4345	-7.5024	4.7416	0.	123.56
4346	-7.2509	4.4963	0.	120.88
4347	-7.6411	6.5511	0.	124.13
4348	-7.5478	6.1569	0.	123.11
4349	-7.3352	6.3973	0.	120.9
4350	-5.7888	6.4539	0.	129.17
4351	-5.5238	6.2164	0.	133.06
4352	-5.5009	4.7461	0.	131.99
4353	-5.7505	4.4981	0.	128.19
4354	-5.2506	4.4968	0.	131.99
4355	-7.4971	-0.75224	0.	125.88
4356	-7.7478	-0.50151	0.	122.09
4357	-7.4974	-0.25202	0.	121.91
4358	-7.4965	-3.2504	0.	128.66
4359	-7.7475	-3.5	0.	124.19
4360	-7.2451	-3.5007	0.	128.61
4361	-8.9999	-5.2499	0.	120.07
4362	-9.2499	-4.9999	0.	122.49
4363	-8.9997	-4.7498	0.	119.33
4364	-8.9997	-3.7499	0.	119.57
4365	-9.2497	-3.9999	0.	122.57
4366	-8.9996	-4.2499	0.	119.15
4367	-8.7494	-3.9998	0.	116.87
4368	-8.9996	-0.25012	0.	122.47
4369	-9.2497	-1.079e-004	0.	126.12
4370	-6.1273	8.1461	0.	122.59
4371	-6.2399	8.4549	0.	134.56
4372	-7.8108	6.9288	0.	131.34
4373	-7.5076	6.7789	0.	117.95
4374	-9.018	9.2449	0.	126.71
4375	-9.2706	8.9956	0.	125.79
4376	-8.789	8.9889	0.	129.53
4377	9.	9.25	0.	124.81
4378	9.25	9.	0.	124.93
4379	8.75	9.	0.	124.6
4380	9.25	-9.	0.	130.19
4381	9.	-9.25	0.	130.2
4382	9.	-8.75	0.	129.85
4383	-8.9999	-9.2499	0.	122.73
4384	-9.2499	-8.9999	0.	123.12
4385	-1.3611	-6.6898	0.	116.11
4386	-1.8227	-6.3857	0.	130.06
4387	-1.6376	-5.1136	0.	121.17
4388	-1.1486	-5.0129	0.	111.04
4389	-0.4891	-6.1715	0.	131.69
4390	-0.43874	-5.6807	0.	127.78
4391	2.501	-2.7495	0.	131.8
4392	2.5002	-2.2499	0.	131.27
4393	1.7583	-3.4975	0.	123.43
4394	1.2616	-3.4962	0.	118.86
4395	0.76572	-3.4949	0.	118.75
4396	0.27118	-3.4949	0.	122.2
4397	1.75	-1.5001	0.	120.03
4398	1.2501	-1.5001	0.	116.04
4399	1.5	-1.2501	0.	116.31
4400	0.75032	-1.5002	0.	116.14
4401	1.0001	-1.2501	0.	115.97
4402	0.25088	-1.5006	0.	120.25
4403	-0.48751	-2.7541	0.	129.03
4404	-0.49338	-2.2537	0.	129.28
4405	-0.73764	-2.5076	0.	126.8
4406	-2.4999	4.2497	0.	134.13
4407	-2.7499	3.9997	0.	132.9
4408	-2.4999	4.7495	0.	134.95
4409	-1.7498	5.4997	0.	128.18
4410	-1.2499	5.4999	0.	121.64
4411	-1.4999	5.7498	0.	125.74
4412	0.50088	4.7497	0.	122.16
4413	0.50087	5.2496	0.	120.21
4414	0.5007	4.2498	0.	124.24
4415	-1.75	3.4999	0.	123.07
4416	-1.25	3.4999	0.	117.57
4417	-0.74996	3.4999	0.	116.46
4418	-0.24987	3.5	0.	120.32
4419	1.75	0.49977	0.	113.62
4420	1.25	0.49992	0.	112.06
4421	1.	0.24991	0.	116.59
4422	1.5	0.24989	0.	110.66
4423	0.49998	1.2497	0.	127.03
4424	0.49997	1.7498	0.	129.26
4425	0.49999	2.2499	0.	130.13
4426	0.50006	2.7499	0.	129.18
4427	1.2518	3.4995	0.	116.05
4428	1.7539	3.4983	0.	115.68
4429	1.5029	3.7488	0.	113.58
4430	2.5013	1.2478	0.	130.4
4431	2.5027	1.7472	0.	132.62
4432	2.7529	1.4954	0.	130.14
4433	2.5046	2.2463	0.	132.75
4434	2.5072	2.7449	0.	131.05
4435	9.1626	4.5288	0.	126.65
4436	7.5161	5.2543	0.	125.55
4437	7.2788	4.9876	0.	124.9
4438	7.5058	5.7479	0.	126.8
4439	7.2615	5.4919	0.	125.16
4440	8.2505	6.4999	0.	116.44
4441	8.0005	6.7499	0.	121.08
4442	8.7502	6.5	0.	117.3
4443	9.25	6.5001	0.	127.
4444	8.5002	6.75	0.	115.03
4445	3.4957	-7.7503	0.	130.27
4446	3.2427	-8.	0.	128.93
4447	3.4963	-7.2507	0.	132.36
4448	3.4975	-6.7509	0.	132.85
4449	3.4991	-6.251	0.	132.59
4450	3.2472	-6.5013	0.	130.81
4451	6.5	-6.25	0.	133.35
4452	6.75	-6.	0.	133.11
4453	6.5	-6.75	0.	133.78
4454	6.5	-7.25	0.	133.26
4455	6.5	-7.75	0.	131.09
4456	6.75	-8.	0.	129.84
4457	5.7498	-8.5	0.	115.76
4458	4.248	-8.4999	0.	115.64
4459	4.7491	-8.5	0.	109.5
4460	5.2496	-8.5	0.	109.56
4461	1.5005	7.7489	0.	133.71
4462	1.5008	7.2486	0.	135.77
4463	1.5011	6.7482	0.	135.56
4464	1.5016	6.2479	0.	133.62
4465	0.75115	5.4994	0.	122.86
4466	0.25053	5.4998	0.	116.75
4467	-0.2498	5.5	0.	111.75
4468	-0.74991	5.5	0.	113.8
4469	-1.4999	6.2498	0.	128.69
4470	-1.5001	6.7497	0.	131.83
4471	-1.7499	6.4995	0.	129.41
4472	-1.5006	7.2497	0.	133.05
4473	-1.5012	7.7496	0.	131.84
4474	-1.7525	7.9991	0.	129.93
4475	0.75005	8.4999	0.	121.8
4476	0.24991	8.5	0.	116.01
4477	-0.25028	8.5	0.	115.74
4478	-0.75068	8.4999	0.	121.05
4479	-7.7503	3.4982	0.	114.65
4480	-7.2501	3.4989	0.	113.75
4481	-6.4999	2.7496	0.	129.24
4482	-6.4999	2.2494	0.	132.21
4483	-6.4997	1.749	0.	132.76
4484	-6.4993	1.2483	0.	131.45
4485	-7.2484	0.49847	0.	115.59
4486	-7.7488	0.49918	0.	113.99
4487	-7.9987	0.24928	0.	117.92
4488	-7.4981	0.24855	0.	113.93
4489	-8.5002	2.7489	0.	130.55
4490	-8.5	2.2494	0.	132.21
4491	-8.5	1.7497	0.	131.85
4492	-8.4999	1.2497	0.	128.82
4493	3.5025	-4.7502	0.	132.43
4494	3.5024	-4.2498	0.	131.16
4495	3.2542	-4.4998	0.	130.28
4496	4.2505	-3.5001	0.	119.59
4497	4.7502	-3.5002	0.	114.08
4498	5.25	-3.5003	0.	113.94
4499	5.75	-3.5003	0.	119.02
4500	5.5	-3.2506	0.	115.89
4501	6.5	-4.2502	0.	129.06
4502	6.5	-4.7501	0.	131.23
4503	6.75	-4.5001	0.	128.54
4504	5.75	-5.5	0.	114.35
4505	5.25	-5.5	0.	106.87
4506	4.2504	-5.5001	0.	114.46
4507	4.7501	-5.5	0.	106.93
4508	7.75	-1.5003	0.	118.03
4509	8.2499	-1.5004	0.	127.47
4510	7.2502	-1.501	0.	118.07
4511	7.5001	-1.7504	0.	116.65
4512	6.4997	-0.76206	0.	128.12
4513	6.2496	-1.0113	0.	126.84
4514	6.4973	-0.27212	0.	128.59
4515	6.2485	-0.51866	0.	126.71
4516	7.2334	0.45305	0.	115.01
4517	7.7309	0.45211	0.	114.52
4518	8.499	-0.75216	0.	130.24
4519	8.4998	-1.2508	0.	131.1
4520	8.496	-0.2571	0.	129.45
4521	-7.9996	-7.7496	0.	121.98
4522	-8.2498	-7.4998	0.	117.02
4523	-9.25	-7.5	0.	125.12
4524	-8.7499	-7.4999	0.	116.59
4525	-8.7499	-5.4999	0.	115.62
4526	-9.2499	-5.4999	0.	124.83
4527	-8.25	-5.4997	0.	115.7
4528	-7.4998	-6.7489	0.	128.91
4529	-7.5	-6.249	0.	128.76
4530	-7.2498	-6.498	0.	127.33
4531	-7.5059	5.2334	0.	123.87
4532	-7.517	5.7132	0.	123.49
4533	-6.8398	6.4901	0.	116.23
4534	-7.2017	6.6251	0.	115.06
4535	-6.3097	6.5024	0.	118.48
4536	-6.7625	6.7596	0.	114.86
4537	-5.5066	5.7347	0.	131.63
4538	-5.5021	5.2427	0.	131.37
4539	-5.2534	5.4901	0.	130.03
4540	-6.7504	4.4988	0.	114.78
4541	-6.2503	4.4992	0.	117.38
4542	-7.4969	-1.2523	0.	128.43
4543	-7.4966	-1.752	0.	131.4
4544	-7.4965	-2.2516	0.	131.67
4545	-7.4964	-2.751	0.	129.76
4546	-7.2443	-2.5025	0.	129.27
4547	-8.2488	-3.4999	0.	113.89
4548	-8.7495	-3.4999	0.	114.14
4549	-9.2498	-3.5	0.	125.06
4550	-8.4992	-3.7499	0.	111.54
4551	-8.2489	-0.50053	0.	114.11
4552	-7.9985	-0.25084	0.	118.04
4553	-9.2498	-0.50005	0.	127.09
4554	-8.7495	-0.50016	0.	115.42
4555	-7.0881	8.6652	0.	111.86
4556	-6.6663	8.6061	0.	128.37
4557	-7.4747	8.7641	0.	111.31
4558	-7.8794	8.8851	0.	127.22
4559	-7.9694	7.3396	0.	134.36
4560	-8.1316	8.2395	0.	133.67
4561	-8.1204	8.7073	0.	134.95
4562	-8.0711	7.7837	0.	133.64
4563	-7.1243	6.8947	0.	113.64
4564	-6.8014	7.1072	0.	121.4
4565	-6.322	7.7862	0.	129.21
4566	-6.5447	7.4257	0.	133.86
4567	7.0489	3.4546	0.	133.74
4568	7.3107	3.8192	0.	123.53
4569	6.793	3.0769	0.	129.
4570	6.7551	3.385	0.	135.37
4571	6.5619	2.6562	0.	125.06
4572	8.0955	2.199	0.	115.54
4573	8.4974	2.1698	0.	132.32
4574	7.6683	2.2186	0.	105.12
4575	7.9199	1.9882	0.	108.05
4576	7.2097	2.2653	0.	122.22
4577	6.7179	2.3597	0.	134.34
4578	7.4488	2.0168	0.	109.28
4579	-8.7539	9.4914	0.	127.1
4580	-9.2562	9.4976	0.	125.63
4581	-8.2289	9.4693	0.	126.41
4582	-8.5249	9.2353	0.	129.92
4583	-7.7127	9.5141	0.	122.7
4584	-8.0239	9.1982	0.	132.07
4585	-7.2288	9.5594	0.	120.93
4586	-6.7431	9.5402	0.	123.38
4587	-6.2472	9.5409	0.	126.35
4588	-5.7486	9.5404	0.	127.41
4589	-5.2505	9.5281	0.	127.33
4590	-4.7533	9.5118	0.	127.13
4591	-4.2556	9.5008	0.	127.07
4592	-3.7563	9.4969	0.	127.07
4593	-3.2556	9.4968	0.	127.05
4594	-2.7544	9.4978	0.	126.98
4595	-2.2531	9.4987	0.	126.75
4596	-1.752	9.4993	0.	126.03
4597	-1.2512	9.4997	0.	124.49
4598	-0.75066	9.4999	0.	122.36
4599	-0.25033	9.4999	0.	120.78
4600	0.24986	9.5	0.	120.87
4601	0.74997	9.5	0.	122.59
4602	1.25	9.4999	0.	124.76
4603	1.7501	9.4998	0.	126.25
4604	2.2501	9.4997	0.	126.84
4605	2.7501	9.4997	0.	126.91
4606	3.25	9.4998	0.	126.81
4607	3.75	9.4997	0.	126.67
4608	4.25	9.4997	0.	126.5
4609	4.75	9.4998	0.	126.32
4610	5.25	9.4998	0.	126.12
4611	5.75	9.4998	0.	125.9
4612	5.5	9.2497	0.	125.84
4613	6.25	9.4999	0.	125.66
4614	6.	9.2497	0.	125.67
4615	6.75	9.4999	0.	125.4
4616	7.25	9.5	0.	125.15
4617	7.75	9.5	0.	124.94
4618	7.5	9.25	0.	124.88
4619	8.25	9.5	0.	124.83
4620	8.75	9.5	0.	124.85
4621	8.5	9.25	0.	124.64
4622	9.25	9.5	0.	124.96
4623	9.5	8.75	0.	125.2
4624	9.5	9.25	0.	125.07
4625	9.5	8.25	0.	125.4
4626	9.5	7.75	0.	125.76
4627	9.5	7.25	0.	126.64
4628	9.5	6.7501	0.	129.17
4629	9.4999	6.2502	0.	131.32
4630	9.4993	5.7506	0.	132.19
4631	9.4936	5.252	0.	132.82
4632	9.4721	4.7578	0.	133.23
4633	9.4654	4.2654	0.	131.43
4634	9.4854	3.7702	0.	128.29
4635	9.5075	3.2749	0.	126.77
4636	9.5277	2.7794	0.	126.62
4637	9.5329	2.2806	0.	128.46
4638	9.5127	1.7796	0.	130.24
4639	9.4813	1.2774	0.	130.58
4640	9.4739	0.77141	0.	130.2
4641	9.4873	0.26213	0.	129.47
4642	9.4959	-0.24495	0.	128.83
4643	9.4989	-0.74822	0.	128.81
4644	9.4998	-1.2495	0.	129.31
4645	9.5	-1.7499	0.	129.69
4646	9.5	-2.25	0.	129.58
4647	9.5	-2.75	0.	129.19
4648	9.25	-2.5001	0.	129.07
4649	9.5	-3.25	0.	128.73
4650	9.25	-3.	0.	128.57
4651	9.5	-3.75	0.	128.33
4652	9.5	-4.25	0.	128.01
4653	9.5	-4.75	0.	127.81
4654	9.5	-5.25	0.	127.71
4655	9.5	-5.75	0.	127.69
4656	9.5	-6.25	0.	127.77
4657	9.5	-6.75	0.	127.99
4658	9.5	-7.25	0.	128.36
4659	9.5	-7.75	0.	128.88
4660	9.5	-8.25	0.	129.47
4661	9.25	-8.	0.	129.15
4662	9.5	-8.75	0.	130.05
4663	9.25	-8.5	0.	129.71
4664	9.5	-9.25	0.	130.5
4665	9.25	-9.5	0.	130.51
4666	8.75	-9.5	0.	130.27
4667	8.25	-9.5	0.	130.11
4668	7.75	-9.5	0.	129.71
4669	7.25	-9.5	0.	128.57
4670	6.75	-9.5	0.	125.98
4671	6.2499	-9.5	0.	121.62
4672	5.7499	-9.5	0.	116.56
4673	5.2496	-9.5	0.	113.08
4674	4.7493	-9.4999	0.	113.04
4675	4.2485	-9.4998	0.	116.44
4676	3.7474	-9.4996	0.	121.38
4677	3.2458	-9.4994	0.	125.57
4678	3.4956	-9.2495	0.	124.93
4679	2.7437	-9.4988	0.	127.95
4680	2.241	-9.4979	0.	128.8
4681	1.7379	-9.4965	0.	128.8
4682	1.2348	-9.4945	0.	128.33
4683	0.73224	-9.4922	0.	127.58
4684	0.23108	-9.49	0.	126.68
4685	-0.26861	-9.489	0.	125.77
4686	-0.76702	-9.4902	0.	125.06
4687	-1.2645	-9.494	0.	124.78
4688	-1.762	-9.498	0.	125.01
4689	-2.2597	-9.4998	0.	125.63
4690	-2.7577	-9.4993	0.	126.4
4691	-3.2557	-9.4978	0.	127.12
4692	-3.7538	-9.4963	0.	127.63
4693	-4.2523	-9.4955	0.	127.93
4694	-4.7512	-9.4954	0.	128.01
4695	-5.2504	-9.4959	0.	127.9
4696	-5.75	-9.4968	0.	127.6
4697	-6.2498	-9.4977	0.	127.06
4698	-6.7497	-9.4985	0.	126.22
4699	-7.2497	-9.4992	0.	125.11
4700	-7.7498	-9.4995	0.	123.93
4701	-8.2498	-9.4998	0.	123.07
4702	-8.7499	-9.4999	0.	122.87
4703	-9.2499	-9.5	0.	123.26
4704	-9.5	-9.25	0.	123.65
4705	-9.4999	-8.75	0.	123.92
4706	-9.4999	-8.25	0.	124.63
4707	-9.5	-7.75	0.	126.93
4708	-9.5	-7.25	0.	128.85
4709	-9.5	-6.75	0.	129.29
4710	-9.5	-6.25	0.	129.34
4711	-9.5	-5.75	0.	129.01
4712	-9.4999	-5.2499	0.	127.27
4713	-9.4999	-4.7499	0.	125.37
4714	-9.4998	-4.2499	0.	125.64
4715	-9.2497	-4.4999	0.	122.23
4716	-9.4999	-3.75	0.	128.09
4717	-9.4999	-3.25	0.	130.36
4718	-9.5	-2.75	0.	132.28
4719	-9.5	-2.25	0.	134.79
4720	-9.5	-1.75	0.	135.08
4721	-9.5	-1.25	0.	133.48
4722	-9.4999	-0.75001	0.	132.42
4723	-9.4998	-0.25004	0.	130.75
4724	-9.4998	0.24992	0.	128.69
4725	-9.4999	0.74989	0.	127.88
4726	-9.4999	1.2499	0.	127.32
4727	-9.5	1.7498	0.	127.07
4728	-9.5001	2.2497	0.	127.18
4729	-9.5001	2.7495	0.	127.6
4730	-9.5003	3.2491	0.	128.11
4731	-9.5006	3.7485	0.	128.29
4732	-9.5012	4.2475	0.	127.96
4733	-9.5023	4.746	0.	127.4
4734	-9.5039	5.2442	0.	126.96
4735	-9.5049	5.7426	0.	126.77
4736	-9.503	6.2414	0.	126.65
4737	-9.497	6.7403	0.	126.18
4738	-9.4967	7.239	0.	125.12
4739	-9.5063	7.7397	0.	123.9
4740	-9.515	8.2428	0.	123.49
4741	-9.5152	8.746	0.	124.02
4742	-9.5089	9.2483	0.	124.71
4743	8.266	3.6823	0.	126.28
4744	7.9672	4.0326	0.	119.33
4745	8.5	3.2742	0.	130.89
4746	8.6113	2.8138	0.	129.07
4747	8.6769	2.3669	0.	130.63
4748	8.2503	7.	0.	119.56
4749	8.5	8.75	0.	124.15
4750	-3.0132	8.2437	0.	126.39
4751	-8.7495	-4.4998	0.	117.94
4752	8.25	8.5001	0.	123.85
4753	2.5092	-4.7494	0.	128.78
4754	2.2622	-4.498	0.	127.32
4755	2.7577	-4.4993	0.	129.07
4756	-6.9993	-8.2472	0.	127.2
4757	-6.7494	-8.4962	0.	127.01
4758	-7.2494	-8.4981	0.	125.77
4759	6.2231	2.3763	0.	130.31
4760	8.5002	7.2501	0.	119.74
4761	7.75	-8.5	0.	129.71
4762	8.25	-8.5	0.	129.62
4763	8.	-8.25	0.	129.37
4764	-8.2497	-7.9996	0.	119.78
4765	-7.9996	-8.2495	0.	121.89
4766	-2.75	2.9997	0.	131.25
4767	-2.5	2.7497	0.	129.54
4768	8.5	-5.25	0.	128.51
4769	8.5	-6.25	0.	128.65
4770	8.5	-6.75	0.	128.53
4771	5.9985	-0.76789	0.	125.41
4772	-8.4992	-4.2497	0.	115.67
4773	3.2585	5.4886	0.	127.38
4774	3.7599	5.4857	0.	127.11
4775	5.2486	-1.0114	0.	124.5
4776	4.7487	-1.0077	0.	124.87
4777	4.9982	-0.7626	0.	125.05
4778	0.75004	-2.2002e-004	0.	118.79
4779	0.25013	-6.2059e-004	0.	122.94
4780	-8.3199	8.9642	0.	135.47
4781	3.7833	2.9772	0.	127.96
4782	5.7489	-1.0138	0.	125.12
4783	2.9191e-004	-0.25094	0.	123.97
4784	4.499	-1.2549	0.	124.53
4785	-2.2499	6.4986	0.	128.88
4786	-3.2499	3.9995	0.	131.25
4787	8.5	-8.25	0.	129.35
4788	8.75	-8.5	0.	129.62
4789	2.2287	-8.4969	0.	128.54
4790	-2.0038	8.2487	0.	129.22
4791	-3.749	0.49568	0.	128.51
4792	-1.2443	-1.509	0.	127.99
4793	-4.9966	0.24253	0.	129.47
4794	-4.7479	0.49444	0.	129.31
4795	-2.5622	-6.7843	0.	131.18
4796	5.5	8.7493	0.	125.55
4797	5.75	8.9995	0.	125.61
4798	-8.4998	-7.7498	0.	114.91
4799	6.7832	4.9788	0.	125.84
4800	6.2796	5.0004	0.	126.89
4801	7.25	8.5	0.	124.61
4802	7.75	8.5001	0.	124.11
4803	7.5	8.7501	0.	124.54
4804	3.7497	0.48866	0.	128.6
4805	7.6431	4.1031	0.	115.23
4806	-1.7962	-8.4917	0.	124.25
4807	-2.2867	-8.5003	0.	125.6
4808	-1.3056	-8.4718	0.	123.54
4809	8.75	-8.	0.	129.12
4810	9.	-8.25	0.	129.39
4811	8.5	-1.7504	0.	129.95
4812	8.5	-3.2501	0.	127.26
4813	8.25	-3.5	0.	127.09
4814	6.2543	6.4951	0.	125.66
4815	-3.7324	-1.5341	0.	127.51
4816	6.75	8.4997	0.	125.06
4817	5.75	8.4992	0.	125.42
4818	6.25	8.4994	0.	125.32
4819	6.	8.7494	0.	125.48
4820	-5.2208	-3.5258	0.	127.91
4821	-5.7299	-3.5145	0.	127.93
4822	1.25	-1.2131e-004	0.	115.09
4823	8.5	-7.75	0.	128.89
4824	8.25	-8.	0.	129.1
4825	1.5036	4.2481	0.	119.19
4826	1.25	-1.0001	0.	116.24
4827	-1.0788	-8.1931	0.	122.67
4828	-4.7096	-3.5448	0.	127.99
4829	5.274	4.9745	0.	127.51
4830	8.5	-7.25	0.	128.58
4831	-4.002	5.7428	0.	129.61
4832	-7.748	-1.3504e-003	0.	117.71
4833	5.2447	0.45959	0.	128.19
4834	4.7473	0.47032	0.	128.01
4835	8.5	-5.75	0.	128.7
4836	7.25	-6.	0.	131.76
4837	5.776	4.9916	0.	127.44
4838	9.	-2.7501	0.	128.46
4839	1.7196	-8.4936	0.	128.21
4840	-7.7495	-8.4991	0.	123.59
4841	-0.24976	-1.286e-003	0.	125.14
4842	3.7502	-2.5003	0.	124.67
4843	-4.2485	0.49496	0.	128.91
4844	-5.0891	8.3248	0.	125.05
4845	-3.1729	-5.0227	0.	129.15
4846	-2.5	1.7491	0.	127.
4847	-2.5	2.2495	0.	127.77
4848	8.75	-3.0001	0.	127.69
4849	5.9888	0.68868	0.	129.42
4850	5.7419	0.45148	0.	128.74
4851	7.7004	1.7864	0.	111.75
4852	7.0243	5.2252	0.	124.48
4853	6.7535	6.4962	0.	126.15
4854	4.2489	0.48077	0.	128.18
4855	-3.9533	-4.7593	0.	128.01
4856	-3.6964	-5.	0.	128.06
4857	-3.6876	-4.5334	0.	128.77
4858	-3.4307	-4.7741	0.	128.82
4859	-8.	-6.	0.	96.856
4860	-9.	-6.	0.	97.361
4861	-8.	-7.	0.	97.217
4862	-9.	-7.	0.	97.588
4863	-8.5	-6.	0.	112.2
4864	-8.	-6.5	0.	102.38
4865	-9.	-6.5	0.	102.67
4866	-8.5	-7.	0.	112.68
4867	-8.5	-6.5	0.	110.1
4868	-8.25	-6.	0.	104.51
4869	-8.	-6.25	0.	99.604
4870	-8.75	-6.	0.	104.76
4871	-9.	-6.25	0.	100.01
4872	-8.	-6.75	0.	99.784
4873	-8.25	-7.	0.	104.93
4874	-9.	-6.75	0.	100.13
4875	-8.75	-7.	0.	105.12
4876	-8.5	-6.25	0.	111.1
4877	-8.25	-6.5	0.	106.21
4878	-8.75	-6.5	0.	106.37
4879	-8.5	-6.75	0.	111.34
4880	-6.	6.	0.	98.729
4881	-7.	6.	0.	93.784
4882	-6.	5.	0.	97.899
4883	-7.	5.	0.	94.191
4884	-6.5	6.	0.	111.52
4885	-6.	5.5	0.	103.01
4886	-7.	5.5	0.	99.258
4887	-6.5	5.	0.	111.3
4888	-6.5	5.5	0.	108.64
4889	-6.25	6.	0.	105.09
4890	-6.	5.75	0.	100.86
4891	-6.75	6.	0.	102.64
4892	-7.	5.75	0.	96.503
4893	-6.	5.25	0.	100.45
4894	-6.25	5.	0.	104.57
4895	-7.	5.25	0.	96.711
4896	-6.75	5.	0.	102.73
4897	-6.5	5.75	0.	110.03
4898	-6.25	5.5	0.	105.81
4899	-6.75	5.5	0.	103.92
4900	-6.5	5.25	0.	109.92
4901	-7.	3.	0.	93.65
4902	-8.	3.	0.	95.105
4903	-7.	1.	0.	95.614
4904	-8.	1.	0.	93.578
4905	-7.5	3.	0.	108.13
4906	-7.	2.5	0.	98.421
4907	-7.	2.	0.	97.753
4908	-7.	1.5	0.	99.037
4909	-8.	2.5	0.	98.67
4910	-8.	2.	0.	97.61
4911	-8.	1.5	0.	98.365
4912	-7.5	1.	0.	108.46
4913	-7.5	2.5	0.	102.91
4914	-7.5	2.	0.	100.92
4915	-7.5	1.5	0.	103.05
4916	-7.25	3.	0.	100.84
4917	-7.	2.75	0.	96.032
4918	-7.75	3.	0.	101.57
4919	-8.	2.75	0.	96.886
4920	-7.	1.25	0.	97.323
4921	-7.25	1.	0.	101.98
4922	-8.	1.25	0.	95.968
4923	-7.75	1.	0.	100.97
4924	-7.5	2.75	0.	105.47
4925	-7.	2.25	0.	98.048
4926	-7.25	2.5	0.	100.62
4927	-7.	1.75	0.	98.358
4928	-7.25	2.	0.	99.335
4929	-7.25	1.5	0.	100.99
4930	-8.	2.25	0.	98.105
4931	-7.75	2.5	0.	100.74
4932	-8.	1.75	0.	97.95
4933	-7.75	2.	0.	99.263
4934	-7.75	1.5	0.	100.66
4935	-7.5	1.25	0.	105.71
4936	-7.5	2.25	0.	101.91
4937	-7.5	1.75	0.	101.98
4938	1.	8.	0.	98.528
4939	-1.	8.	0.	97.459
4940	1.	6.	0.	99.389
4941	-1.	6.	0.	93.446
4942	0.5	8.	0.	113.21
4943	0.	8.	0.	110.4
4944	-0.5	8.	0.	112.38
4945	1.	7.5	0.	103.16
4946	1.	7.	0.	101.77
4947	1.	6.5	0.	103.16
4948	-1.	7.5	0.	101.27
4949	-1.	7.	0.	98.898
4950	-1.	6.5	0.	98.692
4951	-0.5	6.	0.	108.02
4952	0.	6.	0.	108.78
4953	0.5	6.	0.	113.45
4954	1.1244e-017	7.5	0.	112.32
4955	0.5	7.5	0.	110.32
4956	0.5	6.5	0.	110.29
4957	1.418e-017	6.5	0.	111.27
4958	-0.5	6.5	0.	106.9
4959	-0.5	7.5	0.	109.
4960	-0.5	7.	0.	107.27
4961	0.5	7.	0.	109.36
4962	-2.8183e-017	7.	0.	111.48
4963	0.75	8.	0.	105.77
4964	1.	7.75	0.	100.83
4965	-0.75	8.	0.	104.82
4966	-1.	7.75	0.	99.35
4967	1.	6.25	0.	101.26
4968	0.75	6.	0.	106.33
4969	-1.	6.25	0.	96.055
4970	-0.75	6.	0.	100.7
4971	0.25	8.	0.	111.8
4972	0.5	7.75	0.	111.73
4973	-0.25	8.	0.	111.39
4974	5.6221e-018	7.75	0.	111.34
4975	-0.5	7.75	0.	110.66
4976	1.	7.25	0.	102.43
4977	0.75	7.5	0.	106.72
4978	1.	6.75	0.	102.43
4979	0.75	7.	0.	105.56
4980	0.75	6.5	0.	106.7
4981	-1.	7.25	0.	100.05
4982	-0.75	7.5	0.	105.11
4983	-1.	6.75	0.	98.76
4984	-0.75	7.	0.	103.07
4985	-0.75	6.5	0.	102.79
4986	-0.25	6.	0.	108.4
4987	-0.5	6.25	0.	107.44
4988	0.25	6.	0.	111.11
4989	7.0901e-018	6.25	0.	110.01
4990	0.5	6.25	0.	111.84
4991	0.25	7.5	0.	111.3
4992	-0.25	7.5	0.	110.64
4993	-8.4695e-018	7.25	0.	111.9
4994	0.5	7.25	0.	109.83
4995	0.25	6.5	0.	110.77
4996	0.5	6.75	0.	109.81
4997	-0.25	6.5	0.	109.08
4998	-7.0015e-018	6.75	0.	111.37
4999	-0.5	6.75	0.	107.07
5000	-0.5	7.25	0.	108.12
5001	-0.25	7.	0.	109.37
5002	0.25	7.	0.	110.42
5003	2.	-2.	0.	99.272
5004	0.	-2.	0.	98.374
5005	2.	-3.	0.	99.945
5006	0.	-3.	0.	98.489
5007	1.5	-2.	0.	115.04
5008	1.	-2.	0.	113.53
5009	0.5	-2.	0.	114.72
5010	2.	-2.5	0.	104.54
5011	0.	-2.5	0.	103.31
5012	0.5	-3.	0.	115.81
5013	1.	-3.	0.	114.71
5014	1.5	-3.	0.	116.47
5015	0.5	-2.5	0.	113.9
5016	1.	-2.5	0.	117.32
5017	1.5	-2.5	0.	114.56
5018	1.75	-2.	0.	107.13
5019	2.	-2.25	0.	101.89
5020	0.25	-2.	0.	106.52
5021	0.	-2.25	0.	100.82
5022	2.	-2.75	0.	102.22
5023	1.75	-3.	0.	108.15
5024	0.	-2.75	0.	100.87
5025	0.25	-3.	0.	107.1
5026	1.25	-2.	0.	114.27
5027	1.5	-2.25	0.	114.78
5028	0.75	-2.	0.	114.12
5029	1.	-2.25	0.	115.41
5030	0.5	-2.25	0.	114.29
5031	1.75	-2.5	0.	109.54
5032	0.25	-2.5	0.	108.59
5033	0.75	-3.	0.	115.26
5034	0.5	-2.75	0.	114.84
5035	1.25	-3.	0.	115.59
5036	1.	-2.75	0.	116.
5037	1.5	-2.75	0.	115.49
5038	0.75	-2.5	0.	115.61
5039	1.25	-2.5	0.	115.94
5040	2.	3.	0.	95.695
5041	1.	3.	0.	94.944
5042	2.	1.	0.	94.027
5043	1.	1.	0.	93.21
5044	1.5	3.	0.	109.39
5045	2.	2.5	0.	99.213
5046	2.	2.	0.	97.896
5047	2.	1.5	0.	98.632
5048	1.	2.5	0.	98.871
5049	1.	2.	0.	96.919
5050	1.	1.5	0.	97.131
5051	1.5	1.	0.	107.16
5052	1.5	2.5	0.	103.5
5053	1.5	2.	0.	100.78
5054	1.5	1.5	0.	102.33
5055	1.75	3.	0.	102.49
5056	2.	2.75	0.	97.453
5057	1.25	3.	0.	102.09
5058	1.	2.75	0.	96.898
5059	2.	1.25	0.	96.325
5060	1.75	1.	0.	100.54
5061	1.	1.25	0.	95.17
5062	1.25	1.	0.	100.15
5063	1.5	2.75	0.	106.39
5064	2.	2.25	0.	98.512
5065	1.75	2.5	0.	101.29
5066	2.	1.75	0.	98.228
5067	1.75	2.	0.	99.339
5068	1.75	1.5	0.	100.44
5069	1.	2.25	0.	97.858
5070	1.25	2.5	0.	101.12
5071	1.	1.75	0.	96.981
5072	1.25	2.	0.	98.85
5073	1.25	1.5	0.	99.692
5074	1.5	1.25	0.	104.7
5075	1.5	2.25	0.	102.14
5076	1.5	1.75	0.	101.56
5077	0.	5.	0.	91.901
5078	-2.	5.	0.	103.17
5079	0.	4.	0.	95.814
5080	-2.	4.	0.	100.94
5081	-0.5	5.	0.	109.72
5082	-1.	5.	0.	113.42
5083	-1.5	5.	0.	118.88
5084	0.	4.5	0.	98.619
5085	-2.	4.5	0.	107.15
5086	-1.5	4.	0.	116.77
5087	-1.	4.	0.	113.45
5088	-0.5	4.	0.	113.16
5089	-1.5	4.5	0.	116.24
5090	-1.	4.5	0.	116.51
5091	-0.5	4.5	0.	110.28
5092	-0.25	5.	0.	100.81
5093	0.	4.75	0.	95.236
5094	-1.75	5.	0.	110.95
5095	-2.	4.75	0.	105.13
5096	0.	4.25	0.	97.195
5097	-0.25	4.	0.	104.4
5098	-2.	4.25	0.	104.02
5099	-1.75	4.	0.	108.81
5100	-0.75	5.	0.	111.56
5101	-0.5	4.75	0.	109.99
5102	-1.25	5.	0.	116.15
5103	-1.	4.75	0.	114.96
5104	-1.5	4.75	0.	117.55
5105	-0.25	4.5	0.	104.42
5106	-1.75	4.5	0.	111.68
5107	-1.25	4.	0.	115.1
5108	-1.5	4.25	0.	116.48
5109	-0.75	4.	0.	113.3
5110	-1.	4.25	0.	114.97
5111	-0.5	4.25	0.	111.7
5112	-1.25	4.5	0.	116.37
5113	-0.75	4.5	0.	113.39
5114	6.	-4.	0.	95.975
5115	4.	-4.	0.	97.099
5116	6.	-5.	0.	96.891
5117	4.	-5.	0.	97.352
5118	5.5	-4.	0.	111.26
5119	5.	-4.	0.	109.27
5120	4.5	-4.	0.	111.75
5121	6.	-4.5	0.	100.95
5122	4.	-4.5	0.	101.77
5123	4.5	-5.	0.	108.37
5124	5.	-5.	0.	105.63
5125	5.5	-5.	0.	108.08
5126	4.5	-4.5	0.	109.09
5127	5.	-4.5	0.	110.61
5128	5.5	-4.5	0.	108.63
5129	5.75	-4.	0.	103.53
5130	6.	-4.25	0.	98.444
5131	4.25	-4.	0.	104.34
5132	4.	-4.25	0.	99.421
5133	6.	-4.75	0.	98.91
5134	5.75	-5.	0.	102.47
5135	4.	-4.75	0.	99.55
5136	4.25	-5.	0.	102.85
5137	5.25	-4.	0.	110.26
5138	5.5	-4.25	0.	109.91
5139	4.75	-4.	0.	110.51
5140	5.	-4.25	0.	109.93
5141	4.5	-4.25	0.	110.39
5142	5.75	-4.5	0.	104.78
5143	4.25	-4.5	0.	105.42
5144	4.75	-5.	0.	106.96
5145	4.5	-4.75	0.	108.71
5146	5.25	-5.	0.	106.82
5147	5.	-4.75	0.	108.11
5148	5.5	-4.75	0.	108.34
5149	4.75	-4.5	0.	109.83
5150	5.25	-4.5	0.	109.6
5151	6.	-6.	0.	95.743
5152	4.	-6.	0.	95.581
5153	6.	-8.	0.	95.166
5154	4.	-8.	0.	94.769
5155	5.5	-6.	0.	105.97
5156	5.	-6.	0.	102.82
5157	4.5	-6.	0.	105.91
5158	6.	-6.5	0.	99.292
5159	6.	-7.	0.	98.116
5160	6.	-7.5	0.	99.289
5161	4.	-6.5	0.	98.959
5162	4.	-7.	0.	97.738
5163	4.	-7.5	0.	98.953
5164	4.5	-8.	0.	107.62
5165	5.	-8.	0.	105.
5166	5.5	-8.	0.	107.78
5167	5.	-7.	0.	106.68
5168	5.	-6.5	0.	106.04
5169	5.5	-6.5	0.	104.56
5170	5.5	-7.	0.	104.37
5171	5.5	-7.5	0.	105.35
5172	5.	-7.5	0.	107.29
5173	4.5	-7.5	0.	105.16
5174	4.5	-7.	0.	104.19
5175	4.5	-6.5	0.	104.41
5176	5.75	-6.	0.	100.81
5177	6.	-6.25	0.	97.514
5178	4.25	-6.	0.	100.7
5179	4.	-6.25	0.	97.266
5180	6.	-7.75	0.	97.22
5181	5.75	-8.	0.	101.4
5182	4.	-7.75	0.	96.852
5183	4.25	-8.	0.	101.12
5184	5.25	-6.	0.	104.39
5185	5.5	-6.25	0.	105.24
5186	4.75	-6.	0.	104.36
5187	5.	-6.25	0.	104.42
5188	4.5	-6.25	0.	105.14
5189	6.	-6.75	0.	98.686
5190	5.75	-6.5	0.	101.92
5191	6.	-7.25	0.	98.681
5192	5.75	-7.	0.	101.24
5193	5.75	-7.5	0.	102.3
5194	4.	-6.75	0.	98.328
5195	4.25	-6.5	0.	101.68
5196	4.	-7.25	0.	98.323
5197	4.25	-7.	0.	100.96
5198	4.25	-7.5	0.	102.04
5199	4.75	-8.	0.	106.31
5200	4.5	-7.75	0.	106.36
5201	5.25	-8.	0.	106.39
5202	5.	-7.75	0.	106.13
5203	5.5	-7.75	0.	106.53
5204	5.	-6.75	0.	106.36
5205	5.25	-7.	0.	105.52
5206	5.	-7.25	0.	106.98
5207	4.75	-7.	0.	105.43
5208	5.25	-6.5	0.	105.3
5209	4.75	-6.5	0.	105.23
5210	5.5	-6.75	0.	104.46
5211	5.5	-7.25	0.	104.85
5212	5.25	-7.5	0.	106.3
5213	4.75	-7.5	0.	106.21
5214	4.5	-7.25	0.	104.67
5215	4.5	-6.75	0.	104.3
5216	9.	6.	0.	98.355
5217	8.	6.	0.	96.318
5218	9.	5.	0.	99.008
5219	8.	5.	0.	94.404
5220	8.5	6.	0.	112.61
5221	9.	5.5	0.	104.04
5222	8.	5.5	0.	101.04
5223	8.5	5.	0.	112.83
5224	8.5	5.5	0.	110.07
5225	8.75	6.	0.	105.45
5226	9.	5.75	0.	101.19
5227	8.25	6.	0.	104.45
5228	8.	5.75	0.	98.666
5229	9.	5.25	0.	101.52
5230	8.75	5.	0.	105.9
5231	8.	5.25	0.	97.701
5232	8.25	5.	0.	103.6
5233	8.5	5.75	0.	111.28
5234	8.75	5.5	0.	107.04
5235	8.25	5.5	0.	105.52
5236	8.5	5.25	0.	111.4
5237	8.	0.	0.	96.533
5238	7.	0.	0.	97.134
5239	8.	-1.	0.	98.14
5240	7.	-1.	0.	96.736
5241	7.5	0.	0.	111.4
5242	8.	-0.5	0.	102.38
5243	7.	-0.5	0.	101.93
5244	7.5	-1.	0.	112.9
5245	7.5	-0.5	0.	109.62
5246	7.75	0.	0.	103.95
5247	8.	-0.25	0.	99.446
5248	7.25	0.	0.	104.26
5249	7.	-0.25	0.	99.527
5250	8.	-0.75	0.	100.26
5251	7.75	-1.	0.	105.5
5252	7.	-0.75	0.	99.322
5253	7.25	-1.	0.	104.79
5254	7.5	-0.25	0.	110.46
5255	7.75	-0.5	0.	105.98
5256	7.25	-0.5	0.	105.76
5257	7.5	-0.75	0.	111.22
5258	-6.61	8.14	0.	60.399
5259	-7.79	8.42	0.	55.743
5260	-7.44	7.26	0.	104.79
5261	-7.0033	8.2333	0.	110.51
5262	-7.3967	8.3267	0.	110.25
5263	-6.8867	7.8467	0.	92.819
5264	-7.1633	7.5533	0.	88.086
5265	-7.6733	8.0333	0.	99.697
5266	-7.5567	7.6467	0.	97.518
5267	-7.1236	7.9849	0.	102.03
5268	-7.3971	8.0499	0.	99.243
5269	-7.3161	7.7821	0.	100.26
5270	-6.8067	8.1867	0.	80.647
5271	-6.7483	7.9933	0.	71.747
5272	-7.5933	8.3733	0.	82.63
5273	-7.7317	8.2267	0.	77.512
5274	-7.3017	7.4067	0.	94.73
5275	-7.4983	7.4533	0.	98.454
5276	-7.2	8.28	0.	110.28
5277	-7.0635	8.1091	0.	105.81
5278	-7.3969	8.1883	0.	104.73
5279	-7.025	7.7	0.	90.298
5280	-7.0052	7.9158	0.	97.059
5281	-7.2397	7.6677	0.	94.169
5282	-7.615	7.84	0.	98.446
5283	-7.5352	8.0416	0.	99.442
5284	-7.4364	7.7144	0.	98.737
5285	-7.2603	8.0174	0.	100.49
5286	-7.2199	7.8835	0.	100.99
5287	-7.3566	7.916	0.	99.71
5288	-0.85	-5.36	0.	67.981
5289	-1.84	-5.74	0.	62.003
5290	-1.02	-6.41	0.	95.088
5291	-1.345	-5.55	0.	109.04
5292	-0.935	-5.885	0.	100.85
5293	-1.43	-6.075	0.	87.401
5294	-1.2368	-5.8367	0.	102.65
5295	-1.0975	-5.455	0.	87.208
5296	-0.8925	-5.6225	0.	83.749
5297	-1.5925	-5.645	0.	80.747
5298	-1.635	-5.9075	0.	69.302
5299	-0.9775	-6.1475	0.	95.817
5300	-1.225	-6.2425	0.	89.898
5301	-1.2909	-5.6933	0.	105.15
5302	-1.0859	-5.8608	0.	101.64
5303	-1.3334	-5.9558	0.	94.128
5304	8.27	2.6	0.	50.37
5305	7.76	3.69	0.	107.89
5306	7.07	2.7	0.	55.765
5307	8.1	2.9633	0.	94.532
5308	7.93	3.3267	0.	91.346
5309	7.87	2.6333	0.	110.61
5310	7.47	2.6667	0.	111.11
5311	7.53	3.36	0.	88.515
5312	7.3	3.03	0.	91.934
5313	7.7157	3.1578	0.	99.005
5314	7.5557	2.9285	0.	99.126
5315	7.8328	2.9055	0.	97.537
5316	8.185	2.7817	0.	72.062
5317	8.07	2.6167	0.	80.226
5318	7.845	3.5083	0.	97.514
5319	7.645	3.525	0.	96.652
5320	7.27	2.6833	0.	80.899
5321	7.185	2.865	0.	71.151
5322	8.015	3.145	0.	92.778
5323	7.9664	2.9344	0.	95.938
5324	7.8228	3.2422	0.	95.034
5325	7.67	2.65	0.	110.74
5326	7.8514	2.7694	0.	104.03
5327	7.5128	2.7976	0.	104.87
5328	7.415	3.195	0.	90.128
5329	7.6228	3.2589	0.	93.724
5330	7.4278	2.9792	0.	95.318
5331	7.6357	3.0431	0.	98.958
5332	7.7742	3.0317	0.	98.194
5333	7.6942	2.917	0.	98.211
5334	-8.	-1.	0.	93.446
5335	-9.	-1.	0.	96.584
5336	-8.	-3.	0.	94.504
5337	-9.	-3.	0.	95.431
5338	-8.5	-1.	0.	108.84
5339	-8.	-1.5	0.	98.563
5340	-8.	-2.	0.	97.802
5341	-8.	-2.5	0.	98.766
5342	-9.	-1.5	0.	100.2
5343	-9.	-2.	0.	99.356
5344	-9.	-2.5	0.	100.01
5345	-8.5	-3.	0.	108.64
5346	-8.5	-1.5	0.	103.78
5347	-8.5	-2.	0.	101.87
5348	-8.5	-2.5	0.	103.77
5349	-8.25	-1.	0.	101.09
5350	-8.	-1.25	0.	96.
5351	-8.75	-1.	0.	102.67
5352	-9.	-1.25	0.	98.39
5353	-8.	-2.75	0.	96.634
5354	-8.25	-3.	0.	101.53
5355	-9.	-2.75	0.	97.719
5356	-8.75	-3.	0.	101.99
5357	-8.5	-1.25	0.	106.26
5358	-8.	-1.75	0.	98.136
5359	-8.25	-1.5	0.	101.13
5360	-8.	-2.25	0.	98.237
5361	-8.25	-2.	0.	99.832
5362	-8.25	-2.5	0.	101.22
5363	-9.	-1.75	0.	99.754
5364	-8.75	-1.5	0.	101.95
5365	-9.	-2.25	0.	99.66
5366	-8.75	-2.	0.	100.61
5367	-8.75	-2.5	0.	101.85
5368	-8.5	-2.75	0.	106.15
5369	-8.5	-1.75	0.	102.82
5370	-8.5	-2.25	0.	102.81
