Node Number	X Location (mm)	Y Location (mm)	Z Location (mm)	Equivalent (von-Mises) Stress (MPa)
1	8.27	7.06	0.	132.55
2	8.26	8.26	0.	142.4
3	7.22	7.65	0.	164.44
4	8.47	-1.4	0.	166.9
5	6.97	-0.44	0.	131.59
6	6.88	-2.22	0.	138.45
7	4.9	-1.1	0.	106.63
8	5.4	-9.e-002	0.	174.23
9	4.27	-0.17	0.	174.25
10	-0.44	6.61	0.	154.42
11	0.83	5.74	0.	137.22
12	0.95	7.27	0.	150.77
13	-0.79	-3.78	0.	159.75
14	-2.35	-4.12	0.	177.88
15	-1.28	-5.3	0.	115.66
16	5.e-002	3.06	0.	135.9
17	-1.63	2.12	0.	150.73
18	3.e-002	1.13	0.	126.91
19	-7.84	-6.63	0.	156.83
20	-8.84	-7.07	0.	157.78
21	-7.96	-7.71	0.	135.04
22	-5.93	-7.49	0.	111.56
23	-6.67	-8.55	0.	173.01
24	-5.38	-8.66	0.	172.17
25	-6.9	3.88	0.	122.46
26	-5.78	4.89	0.	157.62
27	-7.22	5.35	0.	156.73
28	7.	6.	0.	137.96
29	7.	5.	0.	136.08
30	9.	6.	0.	139.91
31	9.	5.	0.	137.93
32	4.	8.	0.	136.9
33	4.	7.	0.	135.49
34	6.	8.	0.	137.85
35	6.	7.	0.	143.29
36	6.	-4.	0.	136.44
37	6.	-6.	0.	136.39
38	8.	-4.	0.	132.85
39	8.	-6.	0.	135.59
40	-3.	-7.	0.	132.86
41	-3.	-9.	0.	132.66
42	-2.	-7.	0.	130.93
43	-2.	-9.	0.	131.76
44	0.	-7.	0.	135.69
45	0.	-9.	0.	132.31
46	2.	-7.	0.	135.54
47	2.	-9.	0.	133.23
48	-1.	0.	0.	127.11
49	-1.	-2.	0.	128.13
50	1.	0.	0.	135.81
51	1.	-2.	0.	137.19
52	-9.	-2.	0.	138.17
53	-9.	-4.	0.	137.04
54	-7.	-2.	0.	135.16
55	-7.	-4.	0.	134.91
56	-8.	9.	0.	137.92
57	-8.	8.	0.	135.86
58	-6.	9.	0.	137.27
59	-6.	8.	0.	133.7
60	-7.	2.	0.	130.52
61	-7.	1.	0.	132.51
62	-5.	2.	0.	136.6
63	-5.	1.	0.	137.95
64	10.	10.	0.	125.02
65	-10.	10.	0.	125.12
66	10.	-10.	0.	127.24
67	-10.	-10.	0.	129.54
68	8.2667	7.46	0.	141.92
69	8.2633	7.86	0.	143.44
70	7.92	7.2567	0.	88.739
71	7.57	7.4533	0.	73.478
72	7.9133	8.0567	0.	93.154
73	7.5667	7.8533	0.	72.442
74	8.0945	-1.1597	0.	93.449
75	7.7196	-0.91973	0.	108.29
76	7.3448	-0.67987	0.	96.945
77	8.0725	-1.605	0.	91.17
78	7.675	-1.81	0.	107.32
79	7.2775	-2.015	0.	100.07
80	6.9475	-0.885	0.	137.4
81	6.925	-1.33	0.	141.02
82	6.9025	-1.775	0.	140.68
83	5.15	-0.595	0.	111.2
84	4.585	-0.635	0.	89.233
85	4.835	-0.13	0.	110.07
86	-1.6667e-002	6.32	0.	76.719
87	0.40667	6.03	0.	89.851
88	2.3333e-002	6.83	0.	85.294
89	0.48667	7.05	0.	98.42
90	0.87	6.25	0.	141.93
91	0.91	6.76	0.	143.85
92	-1.31	-3.8933	0.	109.83
93	-1.83	-4.0067	0.	101.47
94	-0.95333	-4.2867	0.	128.33
95	-1.1167	-4.7933	0.	127.81
96	-1.9933	-4.5133	0.	84.097
97	-1.6367	-4.9067	0.	90.493
98	-0.37	2.825	0.	95.714
99	-0.79	2.59	0.	108.65
100	-1.21	2.355	0.	94.921
101	4.5e-002	2.5775	0.	136.74
102	4.e-002	2.095	0.	136.52
103	3.5e-002	1.6125	0.	133.4
104	-1.215	1.8725	0.	95.21
105	-0.8	1.625	0.	105.25
106	-0.385	1.3775	0.	92.29
107	-8.34	-6.85	0.	88.429
108	-7.9	-7.17	0.	146.92
109	-8.4	-7.39	0.	62.449
110	-6.1767	-7.8433	0.	97.706
111	-6.4233	-8.1967	0.	99.25
112	-5.7467	-7.88	0.	116.01
113	-5.5633	-8.27	0.	128.49
114	-6.24	-8.5867	0.	103.22
115	-5.81	-8.6233	0.	112.05
116	-6.5267	4.2167	0.	84.633
117	-6.1533	4.5533	0.	75.729
118	-7.0067	4.37	0.	132.76
119	-7.1133	4.86	0.	138.96
120	-6.26	5.0433	0.	93.037
121	-6.74	5.1967	0.	104.9
122	7.	5.5	0.	145.82
123	7.5	6.	0.	116.6
124	8.	6.	0.	118.3
125	8.5	6.	0.	116.51
126	7.5	5.	0.	116.65
127	8.	5.	0.	121.83
128	8.5	5.	0.	117.94
129	9.	5.5	0.	148.09
130	4.	7.5	0.	144.62
131	4.5	8.	0.	118.41
132	5.	8.	0.	124.19
133	5.5	8.	0.	119.48
134	4.5	7.	0.	118.2
135	5.	7.	0.	124.28
136	5.5	7.	0.	120.35
137	6.	7.5	0.	145.85
138	6.	-4.5	0.	145.17
139	6.	-5.	0.	146.32
140	6.	-5.5	0.	145.11
141	6.5	-4.	0.	113.98
142	7.	-4.	0.	116.09
143	7.5	-4.	0.	111.24
144	6.5	-6.	0.	113.8
145	7.	-6.	0.	117.94
146	7.5	-6.	0.	113.63
147	8.	-4.5	0.	143.44
148	8.	-5.	0.	145.34
149	8.	-5.5	0.	144.49
150	-3.	-7.5	0.	141.89
151	-3.	-8.	0.	141.2
152	-3.	-8.5	0.	141.02
153	-2.5	-7.	0.	107.04
154	-2.5	-9.	0.	106.77
155	-2.	-7.5	0.	137.84
156	-2.	-8.	0.	138.61
157	-2.	-8.5	0.	139.36
158	0.	-7.5	0.	141.53
159	0.	-8.	0.	142.2
160	0.	-8.5	0.	141.15
161	0.5	-7.	0.	112.7
162	1.	-7.	0.	117.53
163	1.5	-7.	0.	113.62
164	0.5	-9.	0.	110.23
165	1.	-9.	0.	113.7
166	1.5	-9.	0.	110.6
167	2.	-7.5	0.	144.07
168	2.	-8.	0.	144.89
169	2.	-8.5	0.	143.37
170	-1.	-0.5	0.	136.9
171	-1.	-1.	0.	138.26
172	-1.	-1.5	0.	136.66
173	-0.5	0.	0.	104.68
174	0.	0.	0.	112.05
175	0.5	0.	0.	113.91
176	-0.5	-2.	0.	109.93
177	0.	-2.	0.	116.58
178	0.5	-2.	0.	113.49
179	1.	-0.5	0.	144.11
180	1.	-1.	0.	144.99
181	1.	-1.5	0.	144.13
182	-9.	-2.5	0.	149.33
183	-9.	-3.	0.	151.
184	-9.	-3.5	0.	149.
185	-8.5	-2.	0.	115.92
186	-8.	-2.	0.	119.04
187	-7.5	-2.	0.	113.48
188	-8.5	-4.	0.	114.21
189	-8.	-4.	0.	117.34
190	-7.5	-4.	0.	112.93
191	-7.	-2.5	0.	143.55
192	-7.	-3.	0.	144.87
193	-7.	-3.5	0.	143.67
194	-8.	8.5	0.	145.69
195	-7.5	9.	0.	120.45
196	-7.	9.	0.	126.94
197	-6.5	9.	0.	120.03
198	-7.5	8.	0.	118.51
199	-7.	8.	0.	122.91
200	-6.5	8.	0.	116.61
201	-6.	8.5	0.	143.94
202	-7.	1.5	0.	140.07
203	-6.5	2.	0.	112.98
204	-6.	2.	0.	120.09
205	-5.5	2.	0.	117.55
206	-6.5	1.	0.	115.06
207	-6.	1.	0.	121.57
208	-5.5	1.	0.	117.8
209	-5.	1.5	0.	145.67
210	9.5	10.	0.	124.8
211	9.	10.	0.	123.79
212	8.5	10.	0.	122.16
213	8.	10.	0.	121.39
214	7.5	10.	0.	122.29
215	7.	10.	0.	124.32
216	6.5	10.	0.	125.53
217	6.	10.	0.	125.2
218	5.5	10.	0.	124.15
219	5.	10.	0.	123.67
220	4.5	10.	0.	124.41
221	4.	10.	0.	126.07
222	3.5	10.	0.	127.82
223	3.	10.	0.	128.71
224	2.5	10.	0.	128.45
225	2.	10.	0.	127.27
226	1.5	10.	0.	125.62
227	1.	10.	0.	124.09
228	0.5	10.	0.	123.18
229	-5.2042e-015	10.	0.	123.11
230	-0.5	10.	0.	123.76
231	-1.	10.	0.	124.74
232	-1.5	10.	0.	125.67
233	-2.	10.	0.	126.32
234	-2.5	10.	0.	126.69
235	-3.	10.	0.	126.89
236	-3.5	10.	0.	127.05
237	-4.	10.	0.	127.35
238	-4.5	10.	0.	127.86
239	-5.	10.	0.	128.66
240	-5.5	10.	0.	127.59
241	-6.	10.	0.	123.1
242	-6.5	10.	0.	119.03
243	-7.	10.	0.	117.01
244	-7.5	10.	0.	118.99
245	-8.	10.	0.	122.91
246	-8.5	10.	0.	126.98
247	-9.	10.	0.	127.31
248	-9.5	10.	0.	125.65
249	10.	9.5	0.	125.17
250	10.	9.	0.	125.22
251	10.	8.5	0.	123.51
252	10.	8.	0.	121.47
253	10.	7.5	0.	123.44
254	10.	7.	0.	130.02
255	10.	6.5	0.	134.71
256	10.	6.	0.	131.81
257	10.	5.5	0.	127.38
258	10.	5.	0.	131.5
259	10.	4.5	0.	136.13
260	10.	4.	0.	135.99
261	10.	3.5	0.	133.33
262	10.	3.	0.	131.12
263	10.	2.5	0.	129.79
264	10.	2.	0.	129.23
265	10.	1.5	0.	129.25
266	10.	1.	0.	129.6
267	10.	0.5	0.	129.82
268	10.	-5.2042e-015	0.	129.17
269	10.	-0.5	0.	126.98
270	10.	-1.	0.	124.4
271	10.	-1.5	0.	124.93
272	10.	-2.	0.	129.69
273	10.	-2.5	0.	134.27
274	10.	-3.	0.	136.19
275	10.	-3.5	0.	134.95
276	10.	-4.	0.	131.84
277	10.	-4.5	0.	128.61
278	10.	-5.	0.	126.8
279	10.	-5.5	0.	126.86
280	10.	-6.	0.	128.45
281	10.	-6.5	0.	130.3
282	10.	-7.	0.	131.25
283	10.	-7.5	0.	131.01
284	10.	-8.	0.	130.05
285	10.	-8.5	0.	128.94
286	10.	-9.	0.	128.01
287	10.	-9.5	0.	127.43
288	-10.	9.5	0.	123.71
289	-10.	9.	0.	121.28
290	-10.	8.5	0.	120.89
291	-10.	8.	0.	123.19
292	-10.	7.5	0.	126.54
293	-10.	7.	0.	128.95
294	-10.	6.5	0.	129.49
295	-10.	6.	0.	128.41
296	-10.	5.5	0.	126.62
297	-10.	5.	0.	125.21
298	-10.	4.5	0.	124.93
299	-10.	4.	0.	125.71
300	-10.	3.5	0.	126.79
301	-10.	3.	0.	127.4
302	-10.	2.5	0.	127.3
303	-10.	2.	0.	126.83
304	-10.	1.5	0.	126.65
305	-10.	1.	0.	127.26
306	-10.	0.5	0.	128.82
307	-10.	-5.2042e-015	0.	131.29
308	-10.	-0.5	0.	134.62
309	-10.	-1.	0.	138.35
310	-10.	-1.5	0.	139.64
311	-10.	-2.	0.	136.18
312	-10.	-2.5	0.	131.9
313	-10.	-3.	0.	131.59
314	-10.	-3.5	0.	132.27
315	-10.	-4.	0.	137.08
316	-10.	-4.5	0.	141.6
317	-10.	-5.	0.	142.21
318	-10.	-5.5	0.	140.91
319	-10.	-6.	0.	138.2
320	-10.	-6.5	0.	130.85
321	-10.	-7.	0.	121.58
322	-10.	-7.5	0.	123.28
323	-10.	-8.	0.	129.65
324	-10.	-8.5	0.	131.6
325	-10.	-9.	0.	130.79
326	-10.	-9.5	0.	129.87
327	-9.5	-10.	0.	127.87
328	-9.	-10.	0.	126.15
329	-8.5	-10.	0.	125.61
330	-8.	-10.	0.	127.36
331	-7.5	-10.	0.	129.32
332	-7.	-10.	0.	127.7
333	-6.5	-10.	0.	119.56
334	-6.	-10.	0.	115.13
335	-5.5	-10.	0.	122.04
336	-5.	-10.	0.	133.67
337	-4.5	-10.	0.	139.35
338	-4.	-10.	0.	139.07
339	-3.5	-10.	0.	133.75
340	-3.	-10.	0.	121.8
341	-2.5	-10.	0.	114.65
342	-2.	-10.	0.	121.12
343	-1.5	-10.	0.	132.33
344	-1.	-10.	0.	136.5
345	-0.5	-10.	0.	133.41
346	5.2042e-015	-10.	0.	122.63
347	0.5	-10.	0.	111.63
348	1.	-10.	0.	107.48
349	1.5	-10.	0.	111.58
350	2.	-10.	0.	122.4
351	2.5	-10.	0.	132.75
352	3.	-10.	0.	135.47
353	3.5	-10.	0.	134.08
354	4.	-10.	0.	132.07
355	4.5	-10.	0.	129.95
356	5.	-10.	0.	127.9
357	5.5	-10.	0.	125.99
358	6.	-10.	0.	124.34
359	6.5	-10.	0.	123.16
360	7.	-10.	0.	122.61
361	7.5	-10.	0.	122.76
362	8.	-10.	0.	123.5
363	8.5	-10.	0.	124.63
364	9.	-10.	0.	125.84
365	9.5	-10.	0.	126.83
366	3.3614	2.8896	0.	128.43
367	3.9184	3.1807	0.	127.31
368	3.9737	3.6485	0.	127.19
369	2.891	2.4702	0.	129.15
370	3.3478	2.4908	0.	128.71
371	4.9289	3.1303	0.	125.68
372	4.4666	3.6141	0.	126.32
373	2.9006	2.0214	0.	130.03
374	-4.9594	-3.1039	0.	127.99
375	3.0442	4.1988	0.	129.52
376	3.8157	2.6757	0.	127.55
377	5.4047	2.6608	0.	124.84
378	-4.5045	-2.5337	0.	128.93
379	-3.9829	-1.5271	0.	129.87
380	3.9803	-5.0195	0.	129.97
381	5.4374	3.115	0.	125.46
382	4.9658	3.5961	0.	125.93
383	3.4679	-5.0167	0.	129.49
384	2.9087	1.5557	0.	131.54
385	2.9496	-3.5288	0.	130.03
386	-4.4446	-3.0241	0.	128.83
387	-4.0633	-2.5333	0.	130.
388	-4.0432	6.0422	0.	129.13
389	-4.0058	6.5543	0.	128.72
390	3.5263	4.1516	0.	128.21
391	4.0104	4.1128	0.	126.9
392	-2.9907	-1.0211	0.	128.83
393	-2.5555	5.1331	0.	128.46
394	-2.5889	4.634	0.	129.75
395	3.3814	2.0688	0.	129.35
396	-3.9553	-2.0651	0.	129.94
397	-4.7125	-3.5612	0.	128.24
398	2.9563	-4.516	0.	128.21
399	2.4393	-4.0026	0.	127.39
400	3.4649	-4.5245	0.	129.34
401	3.4583	-3.0601	0.	131.01
402	2.4265	2.4699	0.	128.73
403	-4.48	-4.9844	0.	130.25
404	-3.6385	3.8085	0.	131.59
405	3.5584	4.6084	0.	127.99
406	2.4428	2.9244	0.	128.7
407	3.46	-3.5448	0.	130.43
408	3.4605	-4.0333	0.	129.76
409	1.9356	-4.4936	0.	123.54
410	-3.4951	-1.9487	0.	130.05
411	-4.5491	-4.4957	0.	128.96
412	4.3718	2.1947	0.	125.56
413	3.8674	2.157	0.	127.59
414	-3.5692	4.2266	0.	130.35
415	-3.5167	4.6832	0.	129.17
416	-3.4784	5.1462	0.	128.45
417	-2.0879	4.6077	0.	128.9
418	4.5189	4.561	0.	125.14
419	6.5086	1.8951	0.	124.35
420	7.0248	1.9515	0.	122.85
421	-3.0125	6.107	0.	126.86
422	-3.0113	6.589	0.	126.26
423	1.4272	-4.4695	0.	120.72
424	0.9234	-4.4269	0.	118.6
425	-2.0943	5.137	0.	128.09
426	2.0816	4.3051	0.	130.88
427	-3.4943	-0.50235	0.	131.07
428	-3.6501	3.4158	0.	132.5
429	2.432	-3.5046	0.	129.23
430	2.4275	1.5276	0.	131.22
431	3.4755	-5.5114	0.	130.27
432	5.4686	3.5807	0.	126.05
433	-4.4907	6.5715	0.	129.96
434	-0.94978	4.0111	0.	119.12
435	0.88227	-4.9373	0.	118.43
436	-5.4985	-3.0357	0.	128.02
437	-2.4933	-1.0265	0.	127.39
438	-2.6704	4.1356	0.	131.16
439	-1.4699	4.3423	0.	125.65
440	-3.9002	5.5965	0.	128.49
441	-4.0022	7.0423	0.	127.85
442	-3.5051	7.0561	0.	126.75
443	-3.0106	7.0715	0.	125.93
444	-2.5383	5.6295	0.	127.2
445	-1.6171	4.7534	0.	127.11
446	2.9141	1.0742	0.	133.15
447	3.3934	1.6033	0.	130.76
448	4.8804	1.738	0.	122.8
449	-4.3001	-3.4916	0.	128.73
450	-3.6776	-2.477	0.	130.8
451	2.6111	4.6946	0.	130.99
452	-3.99	-1.014	0.	130.36
453	-4.0719	3.8379	0.	131.02
454	-5.1087	-3.5711	0.	128.15
455	-4.9897	-4.985	0.	130.24
456	-4.9891	-2.5529	0.	128.08
457	-4.4855	-2.0334	0.	129.12
458	-4.4853	-1.527	0.	129.33
459	2.4824	-1.0157	0.	130.18
460	2.9524	-3.041	0.	131.22
461	-2.9978	-0.51277	0.	130.04
462	2.9537	-5.0131	0.	128.31
463	-3.9369	-4.9694	0.	129.85
464	3.9574	-3.0711	0.	130.54
465	5.9467	3.0784	0.	125.19
466	6.3834	2.4409	0.	124.07
467	6.96	2.4689	0.	122.74
468	4.9925	4.0688	0.	125.72
469	5.0161	5.5231	0.	121.7
470	-0.26609	4.5957	0.	116.99
471	2.0345	3.8581	0.	129.84
472	1.9555	2.4867	0.	127.52
473	4.5294	5.0493	0.	123.89
474	3.1192	5.0902	0.	129.49
475	-4.4639	-5.4814	0.	131.88
476	-4.9653	-5.4712	0.	130.85
477	6.639	1.3926	0.	124.97
478	4.0487	5.0605	0.	125.61
479	1.9701	2.952	0.	127.95
480	1.9966	3.4077	0.	128.87
481	0.21605	5.0157	0.	112.8
482	5.0085	4.5492	0.	124.86
483	6.4509	3.0024	0.	124.2
484	6.9636	2.9843	0.	122.6
485	3.9647	-3.5541	0.	130.69
486	3.969	-4.0399	0.	130.36
487	-3.459	-5.1491	0.	130.58
488	-3.0071	-5.1833	0.	130.86
489	3.9968	-7.0024	0.	131.18
490	2.4421	-5.0095	0.	125.98
491	-2.9946	1.7747e-003	0.	131.59
492	0.91241	-3.921	0.	119.65
493	2.9557	-2.5527	0.	132.05
494	-4.9908	-2.0325	0.	128.35
495	-4.9901	-1.5228	0.	128.5
496	-5.0332	-4.5051	0.	129.48
497	-4.9925	-1.0157	0.	128.3
498	-4.4902	-1.0168	0.	129.71
499	2.6627	5.1416	0.	130.83
500	2.7349	5.5865	0.	129.91
501	-2.9283	-2.0958	0.	129.27
502	-3.2995	-2.3555	0.	130.78
503	-4.1776	-3.9639	0.	128.22
504	-4.0705	-4.4476	0.	128.38
505	5.9636	1.7268	0.	125.26
506	5.398	1.7351	0.	123.7
507	4.3744	1.7134	0.	124.74
508	3.8796	1.6681	0.	128.18
509	2.9657	-1.0545	0.	130.12
510	2.9545	-1.5662	0.	131.8
511	-1.0689	4.4974	0.	122.8
512	-0.66111	4.5996	0.	119.77
513	-2.5261	6.1188	0.	125.99
514	-2.5134	7.0855	0.	125.41
515	-3.9752	4.7153	0.	128.29
516	-1.8702	4.187	0.	128.58
517	-2.2553	4.1255	0.	130.43
518	-2.5129	7.5689	0.	125.86
519	-3.0088	7.5565	0.	125.73
520	-3.5064	7.544	0.	125.99
521	7.6903	0.86674	0.	119.81
522	7.5967	1.4421	0.	121.45
523	7.5319	1.9723	0.	121.94
524	7.4912	2.4842	0.	121.69
525	7.4813	2.9885	0.	121.08
526	-0.45497	4.1357	0.	115.11
527	5.0112	6.0151	0.	119.97
528	-0.90748	3.5217	0.	116.7
529	7.	-7.	0.	115.14
530	1.0819	-6.0265	0.	115.63
531	-1.9954	-1.0198	0.	126.96
532	1.9886	-1.0031	0.	131.89
533	-6.0051	-3.0118	0.	129.77
534	-2.573	-5.1433	0.	130.41
535	-4.9525	-5.9606	0.	131.25
536	7.	-7.5	0.	117.8
537	4.4991	-7.5005	0.	130.23
538	-4.0032	7.5297	0.	126.59
539	-5.9548	-5.4441	0.	129.15
540	3.1379	5.5446	0.	129.42
541	5.4908	4.0568	0.	126.32
542	5.9742	3.554	0.	126.18
543	4.498	-7.0015	0.	131.3
544	4.4918	-5.5108	0.	130.85
545	4.9995	-7.5003	0.	129.47
546	3.4985	-7.5009	0.	130.71
547	2.9636	-5.51	0.	129.41
548	-2.5247	0.76731	0.	133.53
549	2.432	1.0398	0.	132.78
550	2.4948	-0.49633	0.	129.83
551	1.9465	1.5219	0.	130.09
552	2.4395	-3.0136	0.	131.13
553	-5.4936	-1.0138	0.	126.95
554	-5.9965	-0.50702	0.	122.96
555	-5.5446	-3.5264	0.	128.55
556	-3.6136	2.9927	0.	132.74
557	-4.0895	3.399	0.	132.53
558	-3.9941	-0.50382	0.	131.46
559	-5.4956	-0.50934	0.	124.88
560	-3.5653	1.5508	0.	130.23
561	-3.4927	1.3211e-002	0.	132.22
562	-5.0008	6.4291	0.	130.56
563	2.4525	6.6037	0.	126.58
564	1.598	4.3554	0.	129.51
565	2.4153	6.1253	0.	128.13
566	2.1348	4.7552	0.	131.82
567	-3.5327	-2.9011	0.	131.83
568	-3.5025	-4.7393	0.	128.84
569	-3.849	-3.4258	0.	129.96
570	0.42619	-4.3878	0.	117.88
571	6.2128	1.3037	0.	127.13
572	3.3983	1.1245	0.	132.99
573	4.8586	1.2637	0.	120.19
574	2.9276	0.57565	0.	133.2
575	3.4453	-2.096	0.	132.2
576	3.458	-0.71518	0.	128.97
577	3.9499	-2.5909	0.	130.02
578	0.37407	-4.8709	0.	119.47
579	-0.24307	5.0479	0.	118.92
580	-1.648	5.1769	0.	127.66
581	-2.0691	5.6368	0.	126.92
582	-2.0179	7.5784	0.	126.63
583	-6.1324	6.5797	0.	118.1
584	-4.5482	6.165	0.	130.51
585	-4.5183	3.8596	0.	130.38
586	-4.2934	5.6339	0.	129.24
587	-2.7134	3.6324	0.	132.49
588	-1.3936	3.8538	0.	124.5
589	-3.0547	1.0954	0.	131.88
590	-3.1551	3.0851	0.	132.41
591	-4.4069	-7.5187	0.	132.79
592	-3.1278	2.5853	0.	131.1
593	-3.0941	1.6008	0.	130.38
594	-2.2551	3.6578	0.	131.76
595	-4.4332	4.7605	0.	126.84
596	-5.3902	3.4504	0.	126.44
597	-4.968	3.8927	0.	130.1
598	-2.0174	7.0939	0.	125.41
599	-2.0219	6.6123	0.	124.36
600	-2.0419	6.1258	0.	125.41
601	-0.70317	5.0678	0.	123.69
602	0.16688	-5.7924	0.	123.53
603	4.4491	-2.5968	0.	128.09
604	3.4358	-1.6177	0.	132.82
605	2.9573	5.7781e-002	0.	130.59
606	3.0287	-0.49933	0.	128.48
607	3.8813	1.1845	0.	129.93
608	5.7935	1.251	0.	126.74
609	5.344	1.2699	0.	122.81
610	0.41067	-3.9052	0.	118.22
611	-3.7217	-3.8876	0.	128.68
612	-3.5997	-4.3416	0.	127.19
613	-2.6417	-2.6018	0.	129.83
614	-3.0941	-2.7719	0.	132.42
615	2.2004	5.2088	0.	132.
616	2.2916	5.6679	0.	130.38
617	1.1126	4.4062	0.	125.12
618	2.4671	7.0901	0.	126.18
619	2.4761	7.5753	0.	127.5
620	-3.5296	1.0425	0.	131.23
621	-4.4946	-0.50769	0.	130.47
622	-4.9804	3.4202	0.	129.63
623	-3.5814	2.0435	0.	130.66
624	-3.596	2.5255	0.	131.98
625	-5.5449	-4.0143	0.	129.33
626	-6.9984	-0.50264	0.	121.63
627	-5.4917	-2.027	0.	128.12
628	-5.4923	-1.5197	0.	128.07
629	2.4582	-2.5236	0.	132.32
630	2.4677	-2.0292	0.	132.18
631	1.3782	-3.4291	0.	125.03
632	1.4674	1.5341	0.	128.06
633	0.98868	1.5624	0.	125.02
634	2.4699	2.4246e-002	0.	131.2
635	2.4449	0.53806	0.	132.94
636	-2.4543	-2.0121	0.	126.96
637	-2.4888	0.36484	0.	132.54
638	-2.5043	-6.6074e-002	0.	130.73
639	2.45	-5.5098	0.	126.89
640	3.4912	-6.5044	0.	131.8
641	-4.4516	-6.4727	0.	134.4
642	-4.4385	-6.9742	0.	134.3
643	-2.9602	-5.5952	0.	129.61
644	5.4997	-7.5001	0.	127.26
645	4.4941	-6.0061	0.	131.45
646	4.4956	-6.5037	0.	131.85
647	4.4662	-3.559	0.	131.34
648	6.4773	3.5177	0.	125.19
649	6.9792	3.4974	0.	122.81
650	5.5095	5.0273	0.	124.5
651	5.5035	4.5414	0.	125.82
652	0.16111	4.5214	0.	115.95
653	1.4916	2.9801	0.	126.99
654	3.5697	5.558	0.	127.71
655	4.0418	5.5482	0.	125.01
656	7.1815	0.90933	0.	120.72
657	6.7078	0.90327	0.	125.18
658	8.2256	-0.58189	0.	126.35
659	8.1333	1.0179	0.	122.09
660	8.0723	1.4935	0.	122.19
661	8.0299	1.9939	0.	122.21
662	8.0033	2.4959	0.	121.75
663	7.9918	2.9947	0.	120.78
664	7.9912	3.4959	0.	119.28
665	5.511	6.0128	0.	123.06
666	-8.0986	3.9117	0.	130.17
667	-7.9997	-0.50097	0.	120.15
668	-1.3384	3.361	0.	124.18
669	-5.82	3.8148	0.	122.87
670	-6.213e-002	-4.3769	0.	118.93
671	-1.9773	-2.9948	0.	120.94
672	-6.6221	6.2514	0.	110.51
673	-6.4504	-5.4251	0.	128.59
674	1.9882	-0.49356	0.	131.49
675	0.63581	-5.9269	0.	117.91
676	1.003	2.5315	0.	124.79
677	7.6194	0.28289	0.	115.99
678	5.4464	-2.6026	0.	129.11
679	-0.1239	7.911	0.	119.98
680	-0.58567	8.069	0.	126.28
681	-1.5275	8.0676	0.	128.32
682	-2.0181	8.0615	0.	127.07
683	-2.5138	8.053	0.	126.11
684	-3.5064	8.0333	0.	125.26
685	-4.0032	8.0209	0.	125.22
686	-4.5036	7.516	0.	127.59
687	-4.5016	8.0112	0.	125.53
688	6.0102	5.5174	0.	126.51
689	-4.1548	-8.0272	0.	130.56
690	-4.6423	-8.1486	0.	128.87
691	-7.4765	-4.945	0.	116.62
692	-7.9835	-4.9585	0.	112.34
693	7.5	-8.	0.	120.53
694	7.	-8.	0.	119.76
695	6.4999	-8.	0.	120.9
696	5.9999	-8.	0.	123.41
697	5.4998	-8.0001	0.	126.16
698	4.9997	-8.0002	0.	128.21
699	4.4996	-8.0003	0.	129.38
700	3.9994	-8.0004	0.	129.96
701	3.4994	-8.0004	0.	130.46
702	2.9995	-8.0005	0.	131.79
703	8.	-7.5	0.	122.77
704	8.	-8.	0.	122.72
705	-1.0004	-8.0074	0.	129.71
706	-7.54	6.9288	0.	120.77
707	-8.0601	6.4352	0.	129.41
708	8.0075	-2.5761	0.	119.75
709	2.9848	7.547	0.	126.59
710	1.9736	8.0806	0.	130.38
711	-4.9418	-6.4487	0.	131.95
712	-6.1509	6.0981	0.	116.8
713	-0.23693	5.4882	0.	120.47
714	-0.12607	-4.8247	0.	122.92
715	6.0543	-0.73257	0.	128.53
716	3.9398	-2.115	0.	130.15
717	-5.447	-5.9458	0.	128.46
718	-6.4315	-5.8985	0.	127.25
719	3.4063	0.63735	0.	135.75
720	4.8437	0.78905	0.	113.73
721	6.2531	0.81859	0.	130.98
722	0.20581	-2.9538	0.	118.63
723	-2.9354	-4.7613	0.	130.29
724	-3.3959	-3.3435	0.	133.1
725	0.4214	7.9984	0.	111.93
726	-8.0679	4.8939	0.	124.78
727	-5.0083	6.9841	0.	129.83
728	-5.5409	2.9955	0.	121.15
729	-4.0802	2.9488	0.	133.69
730	-8.	-2.1722e-003	0.	123.49
731	-8.0938	3.4301	0.	131.8
732	-8.0642	2.9509	0.	131.38
733	-6.0208	-3.5061	0.	129.66
734	-5.979	-4.9638	0.	130.75
735	-7.4991	-1.0013	0.	118.07
736	-5.9951	-1.0098	0.	126.47
737	1.9848	-1.5048	0.	131.81
738	1.9101	-2.9715	0.	131.08
739	1.9448	1.0271	0.	132.78
740	-2.0018	-0.54816	0.	127.85
741	-2.0868	0.7925	0.	133.71
742	1.513	-6.05	0.	117.7
743	2.9783	-6.0068	0.	131.32
744	-0.9993	-7.5112	0.	127.82
745	-2.4266	-6.0104	0.	121.19
746	-3.9611	-7.4589	0.	132.26
747	-3.9662	-6.0002	0.	134.4
748	6.4999	-7.	0.	117.82
749	4.9989	-7.0009	0.	131.39
750	4.9889	-4.5251	0.	131.87
751	4.9594	-3.0775	0.	131.29
752	7.4926	3.9985	0.	119.03
753	5.9909	4.0392	0.	127.54
754	-0.47666	3.6345	0.	111.2
755	1.0574	3.9434	0.	126.74
756	4.5147	6.0225	0.	120.86
757	2.9656	6.0162	0.	129.34
758	7.4892	-3.0221	0.	110.23
759	7.1724	0.41402	0.	117.49
760	6.7557	0.47232	0.	124.19
761	5.9307	-2.1468	0.	129.48
762	5.9446	-2.6127	0.	129.85
763	6.4692	-3.0736	0.	120.61
764	6.9808	-3.0528	0.	111.47
765	4.0188	6.0331	0.	124.98
766	1.0209	3.4776	0.	128.
767	0.56149	3.9839	0.	122.25
768	6.3097e-002	4.0326	0.	116.23
769	6.0061	5.0213	0.	127.14
770	6.0008	4.529	0.	128.12
771	6.9917	4.0043	0.	123.56
772	5.4603	-3.0772	0.	132.2
773	4.9979	-6.5022	0.	132.76
774	5.4995	-7.0005	0.	129.71
775	5.9998	-7.0002	0.	124.06
776	-2.9503	-6.0389	0.	126.08
777	-3.4641	-6.0307	0.	132.93
778	-3.9617	-6.4881	0.	135.49
779	-3.9583	-6.9757	0.	134.62
780	3.9311e-002	-6.2038	0.	125.67
781	-0.96802	-6.5191	0.	127.69
782	2.9963	-7.0021	0.	132.27
783	2.4745	-6.0079	0.	129.37
784	-1.6424	0.79724	0.	130.7
785	-2.0328	0.35361	0.	132.2
786	-2.0106	-8.85e-002	0.	129.9
787	-2.1104	-2.4437	0.	124.75
788	1.9723	1.6619e-002	0.	133.09
789	1.9517	0.525	0.	134.19
790	0.96713	1.0677	0.	127.64
791	0.75522	-2.9368	0.	121.76
792	1.3341	-2.8834	0.	128.95
793	1.9646	-2.4865	0.	133.
794	1.9817	-1.9974	0.	132.83
795	-8.6305	-8.4315	0.	119.07
796	-5.9942	-2.0158	0.	129.17
797	-6.9979	-1.003	0.	122.3
798	-6.9724	-4.9435	0.	124.56
799	-6.4738	-4.9513	0.	130.02
800	-6.0035	-4.4824	0.	131.41
801	-6.0204	-3.9977	0.	130.7
802	-7.5792	2.9549	0.	129.89
803	-8.0347	2.4683	0.	129.76
804	-8.0162	1.9808	0.	126.98
805	-8.0028	0.99326	0.	125.18
806	-8.0009	0.49593	0.	125.44
807	-6.9989	-2.4593e-003	0.	121.78
808	-4.055	2.0079	0.	131.89
809	-4.0682	2.4858	0.	133.7
810	-5.0263	2.9523	0.	128.1
811	-4.9979	-4.6331e-003	0.	127.72
812	-4.4969	-1.4593e-003	0.	132.19
813	-4.0195	1.0174	0.	131.77
814	-5.9986	7.0453	0.	122.09
815	-5.0005	7.5004	0.	129.13
816	-4.9994	8.0043	0.	126.82
817	-7.6712	3.864	0.	130.89
818	-7.0921	2.9921	0.	119.07
819	-6.6155	3.0954	0.	111.77
820	-7.0974	6.348	0.	115.66
821	-7.5775	6.4026	0.	123.98
822	-8.0791	5.9193	0.	131.64
823	1.9547	7.131	0.	127.52
824	1.4619	8.0882	0.	129.52
825	0.68689	4.936	0.	115.88
826	1.1722	4.8657	0.	125.59
827	1.7238	5.2662	0.	133.34
828	-2.4745	-3.0993	0.	130.94
829	-2.9408	-3.2285	0.	135.43
830	-3.265	-3.8073	0.	129.9
831	-3.1208	-4.2785	0.	128.34
832	-4.3929e-002	-3.9274	0.	119.82
833	0.30282	-3.4323	0.	119.46
834	-0.3418	-2.9657	0.	120.86
835	6.1608	-0.23967	0.	130.24
836	6.2949	0.2888	0.	132.52
837	5.7932	0.79137	0.	131.9
838	5.3229	0.79866	0.	122.23
839	3.8837	0.69846	0.	134.58
840	3.4296	0.14821	0.	132.35
841	3.4792	-0.30223	0.	128.31
842	-6.9132	-6.3318	0.	129.12
843	-7.1659	-8.1276	0.	135.29
844	-7.0703	-7.6856	0.	135.66
845	8.5455	8.7402	0.	132.49
846	3.8949	-1.1956	0.	133.37
847	3.924	-1.646	0.	132.43
848	5.9364	-1.6783	0.	129.79
849	5.9728	-1.2083	0.	130.59
850	4.4379	-2.1166	0.	124.92
851	5.4357	-2.1242	0.	125.86
852	-1.8445	-5.4418	0.	119.34
853	-1.1334	5.5897	0.	128.84
854	-0.67473	5.5452	0.	126.65
855	-0.5549	7.6194	0.	127.92
856	-1.5168	7.1016	0.	125.89
857	-1.5217	6.6124	0.	124.46
858	-5.164	5.8987	0.	132.55
859	-5.6524	5.9907	0.	126.93
860	-5.4077	3.9062	0.	129.14
861	-1.7721	3.2347	0.	130.09
862	-2.224	3.1677	0.	133.61
863	-2.6275	1.6613	0.	130.57
864	-2.6354	2.1378	0.	129.48
865	-4.9114	-7.3574	0.	133.38
866	-4.9284	-6.9242	0.	133.85
867	-6.9739	-7.2456	0.	127.1
868	-5.4386	-6.4333	0.	126.74
869	-6.4227	-6.3763	0.	124.38
870	2.9892	8.0387	0.	128.94
871	7.0766	8.5914	0.	133.85
872	2.9931	8.5295	0.	130.18
873	2.4873	8.5447	0.	129.07
874	1.9793	8.5563	0.	128.62
875	-1.0322	8.5474	0.	126.89
876	-1.5224	8.5489	0.	127.32
877	-3.0087	8.5312	0.	125.44
878	-4.0027	8.5142	0.	124.35
879	-4.5014	8.5079	0.	124.07
880	-5.0002	8.5038	0.	124.09
881	7.9943	-3.0316	0.	120.24
882	-8.1743	-8.5023	0.	116.32
883	-8.0329	6.9534	0.	127.01
884	8.	-8.5	0.	122.95
885	4.9999	-8.5001	0.	127.68
886	4.4998	-8.5001	0.	129.13
887	3.4998	-8.5002	0.	130.95
888	2.9998	-8.5002	0.	131.73
889	-8.4898	-4.982	0.	114.74
890	-8.4999	-1.0003	0.	119.37
891	-8.5	-0.50075	0.	121.94
892	-8.5003	-1.7398e-003	0.	124.03
893	-8.5036	0.99277	0.	125.13
894	-8.5527	4.4342	0.	126.49
895	-8.5518	4.9321	0.	125.9
896	-8.5415	6.4575	0.	130.28
897	-8.5251	6.9698	0.	130.83
898	-4.0456	-8.5255	0.	130.55
899	-4.5348	-8.5927	0.	131.95
900	-7.7008	-8.5573	0.	123.48
901	-8.68	-8.9298	0.	122.64
902	8.5	-7.5	0.	126.31
903	8.5	-8.	0.	125.23
904	8.5	-8.5	0.	124.78
905	6.0146	6.0151	0.	130.03
906	-4.8136	5.2963	0.	128.6
907	8.4901	-2.5185	0.	129.21
908	8.4955	3.4994	0.	121.08
909	8.4981	3.0007	0.	122.26
910	8.5065	2.5026	0.	123.11
911	8.5807	1.0156	0.	124.35
912	-5.4308	-6.919	0.	127.22
913	-2.1828	2.6619	0.	134.23
914	-2.1626	1.686	0.	133.99
915	-4.8883	4.8274	0.	126.29
916	-5.3247	4.9084	0.	125.58
917	-5.2649	5.3931	0.	135.44
918	-1.0031	6.6129	0.	122.12
919	-0.7975	-5.592	0.	133.86
920	5.4354	-1.6396	0.	126.54
921	4.9265	-1.6192	0.	114.5
922	9.107	7.9517	0.	125.89
923	9.0684	8.4448	0.	130.64
924	9.	-8.5	0.	126.5
925	9.	-8.	0.	127.22
926	9.	-7.5	0.	128.45
927	9.	-6.5	0.	131.67
928	9.	-6.	0.	131.62
929	9.	-5.5	0.	131.11
930	8.9999	-5.0003	0.	131.72
931	8.9998	-4.5012	0.	131.49
932	8.9995	-4.0031	0.	132.46
933	8.9984	-3.5066	0.	133.32
934	8.9958	-3.0117	0.	133.46
935	8.9892	-2.5187	0.	134.26
936	8.9872	-2.0446	0.	135.58
937	8.8822	-1.565	0.	129.64
938	9.0165	-1.0055	0.	130.83
939	9.0593	-0.48625	0.	131.57
940	9.0608	1.2993e-002	0.	129.31
941	9.047	1.0126	0.	126.54
942	9.0315	1.5103	0.	125.99
943	9.0163	2.0072	0.	125.69
944	9.0061	2.5044	0.	125.44
945	9.0006	3.0023	0.	125.16
946	8.9985	3.5009	0.	124.97
947	-8.2618	-8.9937	0.	121.51
948	-7.7906	-9.0295	0.	125.65
949	-4.4917	-9.0605	0.	136.41
950	-9.0034	7.9937	0.	128.4
951	-9.0168	6.9819	0.	130.5
952	-9.0256	6.4742	0.	129.81
953	-9.0327	5.9674	0.	128.83
954	-9.0346	4.9599	0.	126.3
955	-9.0364	4.4608	0.	126.5
956	-9.0001	-0.50052	0.	125.86
957	8.4858	9.118	0.	124.11
958	8.0163	9.0799	0.	118.01
959	7.5	9.	0.	121.55
960	6.9885	9.0485	0.	130.11
961	6.5033	9.0017	0.	131.54
962	6.0034	8.9973	0.	127.85
963	3.9997	9.0042	0.	126.48
964	2.4923	9.0288	0.	128.35
965	1.9857	9.0335	0.	127.43
966	-1.5135	9.0312	0.	126.37
967	-2.0109	9.0294	0.	126.32
968	-2.5086	9.025	0.	126.
969	-3.0068	9.0206	0.	125.59
970	-7.6258	-8.1047	0.	134.33
971	-7.4033	-6.3011	0.	140.81
972	3.8948	0.2055	0.	146.37
973	5.7979	0.31412	0.	145.86
974	-2.8178	-3.7046	0.	140.85
975	1.238	5.3157	0.	136.08
976	1.46	7.6292	0.	138.
977	-7.1824	3.4463	0.	126.6
978	-8.511	7.4814	0.	133.49
979	-4.5021	0.50243	0.	135.53
980	-4.5435	2.472	0.	136.05
981	-7.5002	0.4972	0.	128.
982	-7.5328	2.4772	0.	130.09
983	-6.4939	-4.4737	0.	133.15
984	-6.4964	-1.5062	0.	130.85
985	-9.	-1.0002	0.	125.77
986	-9.0868	-8.4499	0.	127.73
987	-9.1038	-7.9815	0.	132.52
988	-9.1899	-7.0042	0.	128.76
989	-9.164	-6.5452	0.	142.54
990	-8.9853	-5.5171	0.	123.47
991	-8.9935	-5.0028	0.	123.48
992	1.5049	-2.4307	0.	134.5
993	1.4442	0.52756	0.	136.31
994	-1.5288	-2.4716	0.	122.18
995	-1.5615	0.36978	0.	130.9
996	8.	-9.	0.	123.23
997	6.5	-9.	0.	122.6
998	4.9999	-9.	0.	127.66
999	3.4999	-9.0001	0.	132.12
1000	2.9999	-9.0001	0.	133.27
1001	2.4913	-6.5055	0.	133.89
1002	-0.48495	-6.5712	0.	132.95
1003	-4.0052	-9.0229	0.	134.67
1004	-1.0001	-9.0024	0.	132.58
1005	-1.4521	-6.4609	0.	125.34
1006	-3.4665	-6.5026	0.	135.82
1007	8.4979	-3.5113	0.	132.98
1008	8.5	-6.5	0.	133.23
1009	5.4992	-6.5011	0.	134.1
1010	5.4743	-3.5519	0.	135.91
1011	9.0801	6.9775	0.	130.84
1012	0.43988	0.75259	0.	123.88
1013	0.51628	3.5066	0.	129.93
1014	3.4969	8.5152	0.	132.89
1015	6.5252	8.4714	0.	138.03
1016	6.5328	6.5221	0.	144.48
1017	3.491	6.5327	0.	132.1
1018	6.4451	-2.6208	0.	132.15
1019	6.6844	5.7277e-002	0.	128.19
1020	-7.3015	-9.0425	0.	134.15
1021	9.	-9.	0.	126.1
1022	-9.0936	-8.9261	0.	125.47
1023	-9.0003	8.9986	0.	125.53
1024	8.9601	8.9662	0.	130.21
1025	6.8214	7.5547	0.	126.64
1026	-8.1152	-8.0436	0.	101.15
1027	-9.0695	-7.4934	0.	137.83
1028	-8.6329	-7.8731	0.	129.02
1029	-7.895	-6.3036	0.	111.83
1030	-8.3747	-6.4096	0.	109.72
1031	-7.4011	-6.7447	0.	128.82
1032	-7.5259	-7.6653	0.	136.94
1033	4.3722	-1.1751	0.	129.44
1034	3.9428	-0.32175	0.	125.1
1035	4.2273	-0.74048	0.	140.52
1036	4.3531	0.28007	0.	128.15
1037	5.3255	0.33811	0.	124.29
1038	4.8378	0.32031	0.	102.19
1039	5.74	-0.17843	0.	125.37
1040	-0.52256	-4.3483	0.	133.75
1041	-0.70739	-5.2104	0.	126.78
1042	-0.62462	-4.7962	0.	124.86
1043	-2.3685	-3.6029	0.	135.18
1044	-1.8851	-3.5074	0.	112.42
1045	-0.8323	-3.4009	0.	121.14
1046	-1.3699	-3.4336	0.	105.97
1047	-2.1203	-5.03	0.	120.37
1048	-2.6822	-4.187	0.	123.51
1049	-2.4356	-4.629	0.	143.48
1050	0.73699	5.3877	0.	106.52
1051	-0.59209	6.0527	0.	130.36
1052	-0.16249	5.9001	0.	117.59
1053	0.22566	5.5525	0.	113.45
1054	0.94951	7.6224	0.	118.99
1055	0.44686	7.5127	0.	108.38
1056	-3.8319e-002	7.3541	0.	116.3
1057	-0.51024	7.1667	0.	132.
1058	1.4468	7.1732	0.	128.21
1059	1.3139	5.7618	0.	133.8
1060	1.3713	6.2275	0.	129.9
1061	1.4145	6.704	0.	132.05
1062	-6.6766	5.7146	0.	105.6
1063	-5.7317	5.4609	0.	132.12
1064	-6.2042	5.5762	0.	112.62
1065	-5.4751	4.4219	0.	130.59
1066	-5.9249	4.192	0.	123.5
1067	-6.7267	3.5538	0.	101.79
1068	-6.2697	3.7957	0.	115.75
1069	-7.5873	4.8534	0.	133.51
1070	-7.5298	4.3129	0.	128.13
1071	-7.2873	3.873	0.	134.36
1072	-5.4969	8.0041	0.	129.95
1073	-5.4998	8.5023	0.	128.73
1074	-8.5033	7.9914	0.	132.28
1075	-8.5004	8.9985	0.	128.97
1076	-8.501	8.4961	0.	130.22
1077	-4.5098	1.0037	0.	133.56
1078	-4.52	1.5014	0.	133.31
1079	-4.5299	1.9925	0.	134.26
1080	-7.5015	0.99584	0.	127.11
1081	-7.5112	1.9881	0.	128.
1082	-7.5041	1.4932	0.	127.06
1083	-6.5067	-3.9901	0.	131.95
1084	-6.5086	-3.4987	0.	134.18
1085	-6.5035	-3.0025	0.	135.49
1086	-6.4996	-2.5047	0.	133.76
1087	-6.4974	-2.0061	0.	130.63
1088	1.4961	-1.9728	0.	133.43
1089	1.4928	-1.4915	0.	135.8
1090	1.4939	-0.99666	0.	137.03
1091	1.4916	-0.49358	0.	135.76
1092	1.4751	1.7346e-002	0.	135.
1093	1.0702	-2.4329	0.	129.82
1094	0.60496	-2.4672	0.	115.74
1095	9.6661e-002	-2.4781	0.	115.38
1096	-0.96385	-2.4785	0.	117.4
1097	-0.42708	-2.4824	0.	112.4
1098	0.90208	0.54346	0.	126.4
1099	0.43464	0.39203	0.	114.6
1100	-2.934e-002	0.38932	0.	107.2
1101	-0.53621	0.48322	0.	103.21
1102	-1.4994	-1.9865	0.	123.73
1103	-1.4936	-1.4986	0.	128.19
1104	-1.4961	-1.0133	0.	130.35
1105	-1.5135	-7.0241e-002	0.	128.33
1106	-1.5003	-0.5345	0.	129.66
1107	1.5051	-6.5198	0.	114.13
1108	1.0066	-6.503	0.	113.99
1109	0.47359	-6.4505	0.	115.69
1110	-1.2989e-002	-6.5906	0.	127.54
1111	-1.9497	-6.4739	0.	121.16
1112	-2.4578	-6.4992	0.	111.66
1113	-2.9648	-6.5106	0.	123.87
1114	-5.0001	0.4981	0.	128.73
1115	-5.4992	0.49759	0.	118.46
1116	-5.999	0.49788	0.	117.8
1117	-6.9997	0.49817	0.	123.37
1118	-6.4991	0.49827	0.	115.85
1119	-5.0246	2.4778	0.	127.54
1120	-5.5075	2.4819	0.	117.58
1121	-5.9798	2.4481	0.	115.52
1122	-6.4696	2.5722	0.	112.15
1123	-7.0176	2.5071	0.	120.99
1124	-5.9681	7.5224	0.	124.52
1125	-6.4528	7.4057	0.	116.15
1126	-8.0125	7.4744	0.	127.11
1127	-7.5103	7.4628	0.	118.16
1128	-6.9971	7.4419	0.	116.91
1129	-8.9982	-4.4998	0.	125.77
1130	-8.4966	-4.4912	0.	113.17
1131	-7.9936	-4.481	0.	112.7
1132	-7.4907	-4.4744	0.	113.09
1133	-9.	-1.5001	0.	127.49
1134	-8.4999	-1.5001	0.	115.81
1135	-6.9979	-1.5026	0.	124.8
1136	-7.4992	-1.5008	0.	114.37
1137	-7.9997	-1.5003	0.	115.03
1138	2.4974	-7.0028	0.	133.14
1139	2.5	-9.0001	0.	133.51
1140	2.4998	-8.5002	0.	134.79
1141	2.4996	-8.0006	0.	136.53
1142	2.499	-7.5013	0.	135.16
1143	-0.49994	-9.002	0.	132.35
1144	-0.49999	-8.5036	0.	132.74
1145	-0.49723	-7.0327	0.	129.78
1146	-0.49874	-7.5133	0.	132.63
1147	-0.49982	-8.0065	0.	133.83
1148	-1.4888	-6.992	0.	126.4
1149	-1.5001	-9.0013	0.	131.4
1150	-1.5003	-8.5023	0.	132.11
1151	-1.5	-8.0026	0.	132.5
1152	-1.4985	-7.5011	0.	130.17
1153	-3.5078	-8.9972	0.	132.99
1154	-3.5336	-8.4756	0.	133.68
1155	-3.4748	-6.9796	0.	134.21
1156	-3.4709	-7.4452	0.	134.65
1157	-3.5801	-7.9127	0.	134.2
1158	8.4995	-4.0052	0.	132.49
1159	8.5	-6.	0.	132.86
1160	8.5	-5.5002	0.	135.18
1161	8.4999	-5.0008	0.	136.66
1162	8.4998	-4.5021	0.	134.68
1163	8.	-6.5	0.	125.46
1164	7.5	-6.5	0.	114.08
1165	5.9997	-6.5003	0.	126.21
1166	6.4999	-6.5001	0.	114.38
1167	7.	-6.5	0.	113.95
1168	5.9799	-3.5413	0.	128.76
1169	7.9964	-3.5141	0.	122.3
1170	7.4944	-3.5148	0.	110.29
1171	6.991	-3.525	0.	111.77
1172	6.4858	-3.5347	0.	114.71
1173	5.4991	-6.0024	0.	133.49
1174	5.4987	-5.5047	0.	135.85
1175	5.4875	-4.0297	0.	134.25
1176	5.4947	-4.5159	0.	135.93
1177	5.4976	-5.0088	0.	137.42
1178	8.9991	4.5	0.	127.25
1179	8.4983	4.4997	0.	117.3
1180	6.9976	4.5043	0.	125.78
1181	7.4975	4.5003	0.	116.5
1182	7.9973	4.4993	0.	117.25
1183	7.1057	6.5677	0.	129.06
1184	9.0326	6.4896	0.	133.8
1185	8.5333	6.5036	0.	122.78
1186	7.9839	6.5662	0.	103.35
1187	7.5334	6.3801	0.	112.98
1188	6.5171	6.0186	0.	137.28
1189	6.5064	5.5122	0.	132.09
1190	6.503	5.0126	0.	130.79
1191	-1.7169	1.6528	0.	135.74
1192	-1.3136	1.5346	0.	117.2
1193	-0.94091	1.2786	0.	110.73
1194	-0.52326	1.0697	0.	107.18
1195	-0.11216	0.79073	0.	100.5
1196	0.49003	1.1428	0.	124.6
1197	0.51058	1.5999	0.	124.78
1198	0.51885	2.0758	0.	128.44
1199	0.52342	2.5549	0.	127.39
1200	0.52349	3.0323	0.	127.73
1201	-1.7161	2.7009	0.	132.8
1202	-1.2843	2.8579	0.	120.91
1203	-0.86332	3.0436	0.	112.96
1204	-2.4061e-002	3.5062	0.	110.68
1205	-0.4492	3.2174	0.	111.19
1206	3.9989	8.5045	0.	127.8
1207	4.4996	8.501	0.	119.4
1208	5.0002	8.5	0.	120.48
1209	6.0038	8.4969	0.	129.68
1210	5.5014	8.4993	0.	119.99
1211	6.3911	7.9805	0.	134.27
1212	6.4716	7.0159	0.	137.72
1213	6.4182	7.5051	0.	135.9
1214	6.0131	6.5091	0.	134.24
1215	5.5077	6.5067	0.	120.81
1216	4.0019	6.5189	0.	126.34
1217	4.5055	6.5116	0.	118.21
1218	3.495	8.0191	0.	131.24
1219	3.4928	7.523	0.	130.38
1220	3.4901	7.0281	0.	130.46
1221	8.4681	-1.9678	0.	136.32
1222	6.9578	-2.5995	0.	109.06
1223	7.4976	-2.4928	0.	111.93
1224	7.9326	-2.1736	0.	115.49
1225	6.4162	-2.1741	0.	129.44
1226	6.5723	-0.35953	0.	131.37
1227	6.5026	-0.81269	0.	128.84
1228	6.4535	-1.2686	0.	133.77
1229	6.4236	-1.723	0.	131.79
1230	8.5943	-0.91231	0.	132.29
1231	7.8434	-0.44718	0.	115.88
1232	7.4821	-0.21596	0.	114.14
1233	7.0867	-4.2832e-002	0.	109.44
1234	-5.4254	-9.1002	0.	126.85
1235	-6.8139	-9.0428	0.	137.54
1236	-6.3443	-9.0621	0.	112.25
1237	-5.8836	-9.0845	0.	108.55
1238	-4.9907	-8.6426	0.	127.12
1239	-5.3998	-7.3838	0.	133.48
1240	-7.2087	-8.5785	0.	129.21
1241	-6.4742	-7.3224	0.	126.23
1242	-6.6155	-7.7375	0.	126.81
1243	-6.75	-8.1329	0.	138.54
1244	8.1261	8.6525	0.	107.21
1245	7.7242	8.5069	0.	117.09
1246	7.398	8.2721	0.	128.71
1247	6.9161	7.0732	0.	141.96
1248	7.2657	7.2025	0.	122.92
1249	7.5718	6.895	0.	114.04
1250	9.	-9.5	0.	125.9
1251	8.5	-9.5	0.	124.63
1252	8.	-9.5	0.	123.43
1253	7.5	-9.5	0.	122.63
1254	7.	-9.5	0.	122.46
1255	6.5	-9.5	0.	123.03
1256	6.	-9.5	0.	124.25
1257	5.5	-9.5	0.	125.92
1258	5.	-9.5	0.	127.82
1259	4.5	-9.5	0.	129.77
1260	4.	-9.5	0.	131.7
1261	3.5	-9.5	0.	133.5
1262	3.	-9.5	0.	134.89
1263	2.5	-9.5	0.	134.79
1264	2.	-9.5	0.	123.59
1265	1.5	-9.5	0.	110.14
1266	1.	-9.5	0.	108.84
1267	0.50001	-9.5	0.	110.06
1268	7.308e-005	-9.5002	0.	123.52
1269	-0.49992	-9.5009	0.	134.91
1270	-1.	-9.501	0.	135.43
1271	-1.5	-9.5006	0.	133.95
1272	-2.	-9.5001	0.	122.32
1273	-2.5	-9.5	0.	109.6
1274	-3.0002	-9.5	0.	123.03
1275	-3.4994	-9.502	0.	135.45
1276	-3.9959	-9.5132	0.	137.85
1277	-4.4881	-9.5305	0.	139.68
1278	-4.9766	-9.5446	0.	136.17
1279	-5.4629	-9.5488	0.	123.07
1280	-5.9455	-9.543	0.	112.45
1281	-6.4282	-9.5329	0.	119.09
1282	-6.9139	-9.524	0.	128.33
1283	-7.4048	-9.5199	0.	131.34
1284	-7.9005	-9.5113	0.	127.14
1285	-8.4039	-9.4862	0.	124.7
1286	-8.9363	-9.4126	0.	125.29
1287	-9.4885	-9.4807	0.	127.9
1288	-9.5321	-8.9774	0.	128.5
1289	-9.5442	-8.4804	0.	129.68
1290	-9.55	-7.9889	0.	131.26
1291	-9.5498	-7.4984	0.	129.99
1292	-9.5765	-7.0066	0.	129.31
1293	-9.5619	-6.5094	0.	133.85
1294	-9.5057	-6.0147	0.	134.45
1295	-9.4932	-5.5118	0.	132.72
1296	-9.4962	-5.0055	0.	133.41
1297	-9.4987	-4.5021	0.	137.07
1298	-9.4998	-4.0007	0.	137.44
1299	-9.5	-3.5002	0.	139.46
1300	-9.5	-3.0001	0.	141.
1301	-9.5	-2.5	0.	139.4
1302	-9.5	-2.	0.	137.13
1303	-9.5	-1.5	0.	136.61
1304	-9.5	-1.0001	0.	132.41
1305	-9.5001	-0.50025	0.	130.43
1306	-9.5002	-5.6906e-004	0.	129.1
1307	-9.5007	0.49877	0.	128.03
1308	-9.5016	0.99757	0.	127.29
1309	-9.5034	1.4956	0.	127.01
1310	-9.5065	1.9927	0.	127.19
1311	-9.5105	2.4894	0.	127.56
1312	-9.5152	2.9865	0.	127.72
1313	-9.5189	3.4842	0.	127.43
1314	-9.5196	3.9827	0.	126.81
1315	-9.5183	4.4816	0.	126.3
1316	-9.5173	4.9814	0.	126.4
1317	-9.5172	5.4824	0.	127.19
1318	-9.5155	5.9848	0.	128.21
1319	-9.5122	6.4881	0.	128.87
1320	-9.5081	6.9916	0.	128.82
1321	-9.5045	7.4947	0.	127.83
1322	-9.5019	7.9968	0.	125.98
1323	-9.5006	8.4982	0.	124.4
1324	-9.5002	8.9989	0.	123.93
1325	-9.5	9.4995	0.	124.71
1326	-9.0001	9.4994	0.	125.86
1327	-8.5001	9.4994	0.	128.84
1328	-8.0001	9.4998	0.	126.49
1329	-7.5	9.5	0.	120.25
1330	-7.	9.5	0.	121.75
1331	-6.5	9.5	0.	120.17
1332	-6.	9.5001	0.	126.48
1333	-5.5001	9.5004	0.	128.84
1334	-5.0004	9.501	0.	126.1
1335	-4.5008	9.5022	0.	125.68
1336	-4.0014	9.504	0.	125.81
1337	-3.0037	9.5105	0.	126.1
1338	-2.5047	9.5126	0.	126.13
1339	-2.0058	9.5143	0.	126.03
1340	-1.5062	9.515	0.	125.72
1341	-1.0074	9.5133	0.	125.13
1342	-0.50935	9.5084	0.	124.3
1343	-1.2125e-002	9.5033	0.	123.58
1344	0.48569	9.5046	0.	123.5
1345	0.98674	9.5113	0.	124.3
1346	1.4898	9.5163	0.	125.61
1347	1.993	9.5154	0.	126.8
1348	2.4963	9.5136	0.	127.61
1349	2.9985	9.5096	0.	127.97
1350	3.4997	9.5055	0.	127.54
1351	4.0001	9.5024	0.	126.19
1352	4.5002	9.5007	0.	124.53
1353	5.0002	9.5	0.	123.78
1354	5.5003	9.4995	0.	124.43
1355	6.0001	9.4998	0.	125.96
1356	6.4985	9.5048	0.	126.93
1357	6.9981	9.5155	0.	125.84
1358	7.4984	9.5115	0.	123.38
1359	7.9975	9.534	0.	121.75
1360	8.4974	9.5386	0.	123.59
1361	8.9937	9.4984	0.	125.46
1362	9.4947	9.4942	0.	125.63
1363	9.5261	8.485	0.	126.63
1364	9.5478	7.9822	0.	125.43
1365	9.5502	7.4829	0.	126.42
1366	9.5379	6.9863	0.	130.44
1367	9.5184	6.4912	0.	135.48
1368	9.504	5.9961	0.	135.68
1369	9.5005	5.4988	0.	135.22
1370	9.4996	4.5	0.	134.83
1371	9.4995	4.0003	0.	130.99
1372	9.4996	3.5008	0.	129.39
1373	9.5008	3.0018	0.	128.53
1374	9.5036	2.5031	0.	128.01
1375	9.5085	2.0048	0.	127.8
1376	9.5154	1.5064	0.	127.86
1377	9.5222	1.0074	0.	128.16
1378	9.5262	0.5073	0.	128.62
1379	9.5277	4.8374e-003	0.	129.11
1380	9.5233	-0.50155	0.	129.17
1381	9.4978	-1.0128	0.	127.85
1382	9.4642	-1.5193	0.	129.02
1383	9.4853	-2.0152	0.	131.53
1384	9.4947	-2.5104	0.	133.58
1385	9.4977	-3.006	0.	133.8
1386	9.4992	-3.5033	0.	133.26
1387	9.4998	-4.0017	0.	131.95
1388	9.4999	-4.5007	0.	130.66
1389	9.5	-5.0003	0.	129.82
1390	9.5	-5.5001	0.	129.66
1391	9.5	-6.	0.	130.
1392	9.5	-6.5	0.	130.45
1393	9.5	-7.	0.	130.24
1394	9.5	-7.5	0.	129.53
1395	9.5	-8.	0.	128.67
1396	9.5	-8.5	0.	127.9
1397	9.5	-9.	0.	127.32
1398	9.5	-9.5	0.	126.95
1399	8.6474	8.3415	0.	136.1
1400	8.6375	6.9829	0.	134.73
1401	8.6823	7.4515	0.	128.7
1402	8.682	7.9018	0.	129.11
1403	-1.9872	-1.4984	0.	125.31
1404	9.	-7.	0.	130.26
1405	-7.499	-0.50201	0.	120.51
1406	2.4721	-1.5273	0.	131.31
1407	-4.027	4.2765	0.	129.36
1408	-6.4294	-6.8583	0.	121.1
1409	4.3623	0.75334	0.	123.13
1410	4.9703	-3.5577	0.	133.01
1411	1.5124	3.4425	0.	128.2
1412	-8.5297	2.4711	0.	128.95
1413	0.94482	8.0653	0.	120.2
1414	-0.21127	-5.2649	0.	125.89
1415	-4.371	5.2074	0.	127.97
1416	-5.7746	3.4207	0.	121.87
1417	4.8858	2.2028	0.	124.27
1418	-2.5177	6.6022	0.	125.36
1419	8.4959	3.999	0.	119.68
1420	-9.0121	1.9861	0.	127.16
1421	5.0166	5.0363	0.	123.41
1422	5.4999	-8.5	0.	125.78
1423	-2.5012	-0.53919	0.	128.85
1424	-1.018	9.0281	0.	125.78
1425	-8.084	5.4051	0.	129.23
1426	-5.6799e-002	8.481	0.	120.4
1427	1.9676	7.6045	0.	129.62
1428	-8.7963	-6.5402	0.	127.92
1429	2.9899	-6.5042	0.	132.63
1430	-0.79637	0.87112	0.	111.79
1431	-4.5057	7.0281	0.	129.1
1432	3.4308	-1.1476	0.	132.5
1433	-3.058	4.6504	0.	129.72
1434	2.9087	2.9038	0.	128.87
1435	-1.0478	8.0707	0.	128.52
1436	5.5984	-0.66872	0.	139.96
1437	-7.6349	3.4174	0.	132.36
1438	-4.6261	-4.0198	0.	128.38
1439	4.9932	-5.0152	0.	132.15
1440	-0.99138	-7.0145	0.	128.06
1441	-9.0029	0.99502	0.	126.23
1442	-7.6282	5.3718	0.	130.26
1443	7.5	-8.5	0.	121.53
1444	-1.013	7.1089	0.	131.83
1445	-8.5013	0.49614	0.	125.09
1446	4.9969	-6.0046	0.	132.51
1447	1.3965	-5.0007	0.	119.67
1448	-7.9996	-1.0007	0.	116.56
1449	-2.1497	2.1616	0.	126.84
1450	-5.2747	-7.8065	0.	131.39
1451	-6.1799	3.2855	0.	114.11
1452	-9.0312	2.9733	0.	128.83
1453	1.928	-3.9785	0.	125.19
1454	-1.7121	1.2175	0.	130.98
1455	5.8921	2.636	0.	124.65
1456	4.4584	-3.0767	0.	130.31
1457	2.9985	-7.5012	0.	131.39
1458	3.9984	-7.5014	0.	130.42
1459	7.1146	1.4256	0.	122.55
1460	-1.0377	7.5932	0.	131.38
1461	0.97227	9.0232	0.	123.29
1462	6.4999	-7.5	0.	119.56
1463	6.5	-8.5	0.	121.89
1464	-4.0022	9.0089	0.	124.57
1465	1.9292	6.6558	0.	125.61
1466	-2.0162	8.545	0.	126.8
1467	-1.3804	-5.8755	0.	115.81
1468	3.9999	-9.0001	0.	130.87
1469	2.996	9.0195	0.	129.3
1470	-3.1213	4.1532	0.	131.07
1471	-5.5002	9.0012	0.	128.
1472	4.4805	-4.5291	0.	130.68
1473	-5.4625	-5.4598	0.	129.73
1474	8.0893	-2.5124e-002	0.	121.25
1475	2.4821	8.0598	0.	128.64
1476	-0.54486	8.5281	0.	124.62
1477	1.5486	3.9	0.	128.79
1478	-3.9281	5.1612	0.	128.12
1479	-8.9776	-6.0678	0.	127.95
1480	-7.4495	-7.2065	0.	134.28
1481	4.9804	-4.0398	0.	132.72
1482	-5.4916	7.5055	0.	130.87
1483	6.4909	4.0187	0.	127.39
1484	-3.9771	-2.9758	0.	130.24
1485	-2.4197	-5.5478	0.	125.35
1486	-4.9596	4.3627	0.	127.28
1487	4.4999	-9.0001	0.	129.37
1488	-9.0352	5.462	0.	127.42
1489	9.4999	4.9996	0.	135.
1490	5.0006	9.	0.	121.53
1491	9.4928	8.9885	0.	126.91
1492	4.4851	-5.0189	0.	130.5
1493	8.5	-9.	0.	124.65
1494	9.1086	7.4645	0.	125.81
1495	-9.0404	3.9637	0.	127.63
1496	-2.5957	1.1903	0.	133.05
1497	4.0362	4.5845	0.	126.35
1498	-1.4453	-2.9565	0.	112.6
1499	0.83466	-3.4265	0.	121.39
1500	3.4825	-6.0074	0.	131.29
1501	-8.007	1.4886	0.	124.41
1502	-3.4914	0.52808	0.	132.4
1503	-3.9952	4.9698e-003	0.	132.95
1504	-6.5541	6.8341	0.	115.23
1505	-8.5476	2.9602	0.	130.26
1506	-4.4871	4.3143	0.	128.31
1507	4.9478	-2.5971	0.	127.53
1508	-6.9899	-4.4725	0.	125.58
1509	4.4986	4.0878	0.	125.96
1510	-1.5984	5.6359	0.	127.36
1511	-4.0401	1.5169	0.	129.91
1512	8.4962	-3.0195	0.	129.7
1513	-6.03	2.8599	0.	115.18
1514	1.4538	1.0343	0.	131.23
1515	2.4419	-4.505	0.	126.22
1516	8.6316	-0.45403	0.	130.41
1517	7.	-9.	0.	121.96
1518	3.0839	4.6457	0.	129.62
1519	5.4679	-1.1525	0.	132.51
1520	-3.1093	2.0913	0.	129.74
1521	-4.9649	-9.0907	0.	145.61
1522	-5.9329	-6.4179	0.	122.9
1523	-3.5041	9.0142	0.	125.12
1524	4.9373	-2.1126	0.	122.91
1525	7.5	-7.5	0.	119.19
1526	3.9725	-4.5291	0.	129.96
1527	-5.996	-2.517	0.	128.96
1528	-3.4882	-1.0125	0.	130.01
1529	-1.0688	0.41122	0.	120.86
1530	1.9198	-5.5196	0.	122.49
1531	3.496	-7.0023	0.	131.34
1532	0.46845	9.006	0.	121.71
1533	2.9794	7.0534	0.	127.36
1534	-3.4682	-5.5711	0.	131.75
1535	1.4804	2.5062	0.	126.05
1536	-3.5113	6.0896	0.	127.83
1537	1.4789	9.034	0.	125.71
1538	-5.998	-4.6136e-003	0.	119.34
1539	6.4987	4.5158	0.	131.5
1540	-5.994	-1.5139	0.	128.75
1541	-4.8087	-7.7544	0.	132.93
1542	0.79529	-5.4386	0.	118.29
1543	1.8834	6.1853	0.	127.58
1544	-5.4972	-5.8065e-003	0.	122.32
1545	-9.0004	-1.317e-003	0.	126.24
1546	4.4216	-1.6382	0.	123.76
1547	5.9631	-3.0771	0.	129.28
1548	3.9822	-5.5128	0.	130.48
1549	-1.066	6.1033	0.	128.5
1550	-6.4982	-3.418e-003	0.	119.49
1551	-0.44006	-3.9062	0.	119.74
1552	8.	-7.	0.	123.34
1553	2.425	2.0042	0.	129.59
1554	-1.5254	7.5844	0.	128.5
1555	-0.31577	-5.6946	0.	129.04
1556	8.5875	0.51547	0.	125.28
1557	-1.3124	1.1854	0.	121.89
1558	3.9997	-8.5002	0.	130.13
1559	5.0063	6.508	0.	119.95
1560	5.894	2.2092	0.	124.49
1561	-8.5646	3.9411	0.	128.62
1562	-8.5563	5.4368	0.	127.57
1563	-5.4867	-4.9771	0.	130.32
1564	1.9964	-6.5113	0.	125.71
1565	4.4743	-4.0427	0.	131.12
1566	8.1379	0.54139	0.	121.57
1567	1.3462	-5.565	0.	118.23
1568	-8.0602	4.3948	0.	127.3
1569	-5.4906	-2.5351	0.	127.99
1570	0.28625	-5.3408	0.	121.72
1571	4.8954	2.6668	0.	125.14
1572	-9.0209	2.4796	0.	128.19
1573	-7.1435	5.8301	0.	113.86
1574	0.9968	2.0486	0.	125.16
1575	-6.9243	-6.7944	0.	128.43
1576	-0.2642	-3.4788	0.	130.61
1577	4.3689	1.2311	0.	123.74
1578	-4.5357	3.4022	0.	131.75
1579	1.4734	2.0239	0.	126.2
1580	3.4511	-2.5751	0.	131.52
1581	-1.9779	-1.9634	0.	124.57
1582	-2.6899	3.1309	0.	132.91
1583	7.	-8.5	0.	121.09
1584	5.9999	-8.5	0.	123.66
1585	5.9998	-7.5001	0.	123.48
1586	2.9688	6.5457	0.	128.58
1587	1.8049	5.7232	0.	131.34
1588	-5.5176	-4.4959	0.	130.17
1589	0.95594	8.5379	0.	121.56
1590	8.5247	2.0052	0.	123.63
1591	-2.9733	-1.5378	0.	128.43
1592	-3.2158	3.6188	0.	132.29
1593	-3.0105	8.0441	0.	125.55
1594	-0.52336	9.0163	0.	124.3
1595	-5.9328	-6.9267	0.	116.05
1596	7.9941	3.9972	0.	117.39
1597	5.3963	2.1988	0.	124.22
1598	4.5001	9.0013	0.	122.87
1599	-7.6105	5.8859	0.	135.36
1600	3.5786	5.0784	0.	127.71
1601	-5.9433	-5.9276	0.	126.66
1602	-4.459	-5.9776	0.	133.37
1603	-8.508	1.4875	0.	125.5
1604	-2.5126	8.5391	0.	126.08
1605	4.9953	-5.5089	0.	131.72
1606	9.0559	0.51095	0.	127.6
1607	-4.548	2.9406	0.	132.97
1608	-5.5706	6.4988	0.	126.68
1609	-3.9642	-5.5031	0.	132.37
1610	-3.5025	9.5071	0.	125.99
1611	-5.0803	-4.0327	0.	128.74
1612	-0.90457	-6.0275	0.	126.92
1613	-1.2009	0.80837	0.	121.37
1614	-1.8184	3.7279	0.	129.27
1615	-3.0091	5.6234	0.	127.64
1616	-9.0389	3.4676	0.	128.63
1617	2.9547	-2.06	0.	132.32
1618	-9.0013	0.49711	0.	126.35
1619	-6.4962	-1.0062	0.	125.82
1620	-5.1128	-8.2163	0.	141.44
1621	-1.5547	6.1223	0.	124.87
1622	8.5	-7.	0.	128.73
1623	6.	-9.	0.	123.99
1624	1.4143	-3.9487	0.	122.43
1625	-5.0006	9.0026	0.	124.81
1626	-4.7097	5.7562	0.	131.34
1627	-2.9348e-002	9.0004	0.	122.39
1628	3.9873	-6.0079	0.	131.22
1629	-9.0064	1.4909	0.	126.37
1630	1.9169	-5.009	0.	122.63
1631	4.3709	2.67	0.	126.09
1632	-3.5055	8.5231	0.	124.88
1633	-3.5123	6.5702	0.	127.4
1634	-4.9945	-0.51005	0.	127.92
1635	-5.5129	7.0018	0.	127.49
1636	-1.0002	-8.5042	0.	129.87
1637	-9.0011	8.4966	0.	125.42
1638	5.5017	8.9991	0.	123.28
1639	3.4983	9.0108	0.	129.4
1640	1.9758	-6.0172	0.	123.52
1641	-3.9996	0.51169	0.	133.42
1642	1.9493	2.008	0.	128.21
1643	3.5003	6.0402	0.	129.07
1644	2.563	4.254	0.	130.54
1645	-7.4994	-2.6087e-003	0.	123.62
1646	-0.423	-6.1243	0.	131.27
1647	5.4999	-9.	0.	125.79
1648	7.5	-7.	0.	117.44
1649	7.5	-9.	0.	122.22
1650	8.9977	3.9999	0.	125.27
1651	-4.5013	9.0052	0.	124.09
1652	-9.008	7.4875	0.	130.51
1653	2.9464	-4.0203	0.	128.87
1654	-2.1411	1.224	0.	135.3
1655	-1.8956	-5.9476	0.	119.48
1656	1.0085	3.0061	0.	126.74
1657	-2.6582	2.6284	0.	130.63
1658	5.5124	5.5205	0.	123.5
1659	-3.4739	5.619	0.	128.08
1660	-7.0421	6.8912	0.	115.56
1661	0.44337	8.5007	0.	118.37
1662	8.5525	1.5095	0.	123.96
1663	7.4846	3.4932	0.	120.19
1664	-2.48	-1.5196	0.	126.7
1665	1.6557	4.8109	0.	131.89
1666	-8.5162	1.9802	0.	126.93
1667	-8.5529	5.946	0.	129.79
1668	-1.1987	5.0284	0.	126.14
1669	1.4684	8.5557	0.	126.5
1670	8.5879	1.6014e-002	0.	127.25
1671	-8.5627	3.4496	0.	130.17
1672	-6.497	-0.50534	0.	122.23
1673	1.9045	-3.4674	0.	127.76
1674	4.527	5.5374	0.	122.43
1675	3.9925	-6.5047	0.	131.55
1676	-2.9533	0.54934	0.	132.58
1677	-3.4778	-1.509	0.	129.66
1678	3.486	3.711	0.	128.27
1679	3.4357	3.2772	0.	128.3
1680	3.001	3.7653	0.	129.26
1681	2.9543	3.3331	0.	128.99
1682	2.5179	3.8127	0.	129.88
1683	2.4763	3.3705	0.	129.19
1684	6.7389	8.0186	0.	135.81
1685	4.4189	3.1442	0.	126.32
1686	-3.022	5.1381	0.	128.58
1687	0.63024	4.4597	0.	118.92
1688	3.8578	-0.7662	0.	134.76
1689	-0.89443	-2.9509	0.	115.01
1690	7.0797	8.1054	0.	136.13
1691	-6.9512	-5.41	0.	125.98
1692	-6.9297	-5.873	0.	129.23
1693	-7.4566	-5.4081	0.	119.69
1694	-7.4311	-5.8618	0.	125.74
1695	-7.9655	-5.4278	0.	113.2
1696	-7.9368	-5.8822	0.	113.17
1697	-8.4763	-5.4714	0.	114.65
1698	-8.4462	-5.9511	0.	111.68
1699	8.2683	7.26	0.	136.07
1700	8.095	7.1583	0.	110.3
1701	8.127	6.8131	0.	117.32
1702	8.4538	7.0214	0.	132.47
1703	8.2617	8.06	0.	141.55
1704	8.0867	8.1583	0.	117.29
1705	8.1931	8.4562	0.	124.17
1706	8.4537	8.3007	0.	138.16
1707	7.395	7.5517	0.	117.84
1708	7.3933	7.7517	0.	118.2
1709	7.0207	7.6023	0.	145.43
1710	7.2429	7.4262	0.	142.94
1711	7.1498	7.8777	0.	149.8
1712	8.2823	-1.2799	0.	130.05
1713	8.2712	-1.5025	0.	128.95
1714	8.6761	-1.4825	0.	148.13
1715	8.5321	-1.1562	0.	149.3
1716	7.1574	-0.55993	0.	113.93
1717	6.9587	-0.6625	0.	133.78
1718	6.7712	-0.39976	0.	130.78
1719	7.0283	-0.24142	0.	120.14
1720	7.0788	-2.1175	0.	119.15
1721	6.8913	-1.9975	0.	138.88
1722	6.9189	-2.4098	0.	123.6
1723	6.6481	-2.197	0.	132.9
1724	5.025	-0.8475	0.	104.44
1725	4.7425	-0.8675	0.	90.283
1726	4.9132	-1.3596	0.	110.23
1727	4.6361	-1.1375	0.	117.58
1728	5.1839	-1.1263	0.	119.28
1729	5.275	-0.3425	0.	136.9
1730	5.1175	-0.11	0.	141.01
1731	5.3627	0.12405	0.	148.72
1732	5.57	-0.13421	0.	149.29
1733	4.4275	-0.4025	0.	125.91
1734	4.5525	-0.15	0.	140.46
1735	4.1064	-0.24588	0.	149.46
1736	4.3115	5.5034e-002	0.	150.16
1737	-0.22833	6.465	0.	115.4
1738	-0.20833	6.72	0.	119.03
1739	-0.72153	6.6115	0.	138.24
1740	-0.51605	6.3314	0.	142.06
1741	-0.47512	6.8883	0.	142.66
1742	0.61833	5.885	0.	112.43
1743	0.85	5.995	0.	138.45
1744	0.7835	5.5639	0.	121.35
1745	1.072	5.7509	0.	134.15
1746	0.71833	7.16	0.	124.33
1747	0.93	7.015	0.	146.07
1748	0.94975	7.4462	0.	134.65
1749	1.1984	7.2216	0.	138.17
1750	-1.05	-3.8367	0.	134.52
1751	-0.87167	-4.0333	0.	141.71
1752	-0.81115	-3.5905	0.	139.99
1753	-0.61503	-3.8431	0.	138.83
1754	-2.09	-4.0633	0.	138.1
1755	-2.1717	-4.3167	0.	128.69
1756	-2.3593	-3.8614	0.	155.88
1757	-2.5161	-4.1535	0.	150.63
1758	-1.1983	-5.0467	0.	120.5
1759	-1.4583	-5.1033	0.	100.6
1760	-1.5622	-5.3709	0.	116.6
1761	-1.0388	-5.446	0.	124.6
1762	-0.9937	-5.2552	0.	120.67
1763	-1.3302	-5.5878	0.	115.29
1764	-0.16	2.9425	0.	115.6
1765	4.75e-002	2.8187	0.	135.6
1766	0.28675	3.0462	0.	130.89
1767	1.2969e-002	3.2831	0.	123.03
1768	-1.42	2.2375	0.	122.64
1769	-1.4225	1.9963	0.	122.59
1770	-1.6734	1.8864	0.	142.93
1771	-1.673	2.4104	0.	141.43
1772	-1.8899	2.1408	0.	138.75
1773	3.25e-002	1.3713	0.	129.37
1774	-0.1775	1.2537	0.	109.24
1775	-4.1081e-002	0.96036	0.	113.46
1776	0.26002	1.1364	0.	124.45
1777	-8.09	-6.74	0.	120.84
1778	-7.87	-6.9	0.	149.76
1779	-7.8675	-6.4668	0.	134.09
1780	-7.6205	-6.6874	0.	141.16
1781	-8.59	-6.96	0.	119.77
1782	-8.62	-7.23	0.	108.77
1783	-9.015	-7.0371	0.	143.21
1784	-8.9548	-7.2817	0.	147.32
1785	-8.8182	-6.8051	0.	141.99
1786	-7.93	-7.44	0.	139.93
1787	-8.18	-7.55	0.	96.324
1788	-8.0376	-7.8768	0.	117.22
1789	-7.7429	-7.6877	0.	134.35
1790	-6.0533	-7.6667	0.	101.89
1791	-5.8383	-7.685	0.	111.63
1792	-5.6649	-7.4369	0.	122.28
1793	-6.2021	-7.4062	0.	118.32
1794	-5.9314	-7.2083	0.	113.41
1795	-6.5467	-8.3733	0.	135.
1796	-6.455	-8.5683	0.	137.13
1797	-6.742	-8.7964	0.	154.71
1798	-6.9393	-8.5642	0.	151.05
1799	-6.71	-8.3415	0.	155.76
1800	-5.4717	-8.465	0.	146.82
1801	-5.595	-8.6417	0.	141.46
1802	-5.4027	-8.8801	0.	149.32
1803	-5.1854	-8.6513	0.	149.02
1804	-6.7133	4.0483	0.	101.21
1805	-6.9533	4.125	0.	126.11
1806	-6.8134	3.7169	0.	110.95
1807	-7.0936	3.8765	0.	127.24
1808	-5.9667	4.7217	0.	116.21
1809	-6.02	4.9667	0.	124.02
1810	-5.5524	4.8992	0.	141.59
1811	-5.7559	5.1754	0.	144.24
1812	-5.6276	4.656	0.	143.87
1813	-7.1667	5.105	0.	145.75
1814	-6.98	5.2733	0.	130.76
1815	-7.4241	5.3609	0.	142.35
1816	-7.1818	5.5901	0.	135.16
1817	7.	5.75	0.	141.75
1818	7.25	6.	0.	126.94
1819	7.0529	6.2839	0.	133.4
1820	6.7586	6.0093	0.	137.46
1821	7.	5.25	0.	140.74
1822	7.25	5.	0.	125.97
1823	6.9988	4.7522	0.	130.91
1824	6.7515	5.0063	0.	133.04
1825	8.75	6.	0.	127.84
1826	9.	5.75	0.	143.85
1827	9.0163	6.2448	0.	136.85
1828	9.252	5.998	0.	137.5
1829	8.75	5.	0.	127.56
1830	9.	5.25	0.	142.85
1831	8.9995	4.75	0.	132.57
1832	9.25	4.9998	0.	136.1
1833	4.	7.75	0.	140.52
1834	4.25	8.	0.	127.22
1835	3.9994	8.2523	0.	132.31
1836	3.7475	8.0096	0.	133.71
1837	4.	7.25	0.	139.86
1838	4.25	7.	0.	126.46
1839	4.0009	6.7595	0.	130.9
1840	3.745	7.0141	0.	132.64
1841	5.75	8.	0.	128.24
1842	6.	7.75	0.	141.57
1843	6.0019	8.2484	0.	133.73
1844	6.1956	7.9903	0.	135.76
1845	5.75	7.	0.	131.31
1846	6.	7.25	0.	144.3
1847	6.2358	7.008	0.	140.29
1848	6.0066	6.7546	0.	138.68
1849	6.	-4.25	0.	140.62
1850	6.25	-4.	0.	124.76
1851	5.9899	-3.7706	0.	132.57
1852	5.7437	-4.0149	0.	135.
1853	6.	-5.75	0.	140.5
1854	6.25	-6.	0.	124.58
1855	5.9999	-6.2501	0.	131.27
1856	5.7495	-6.0012	0.	134.54
1857	7.75	-4.	0.	121.67
1858	8.	-4.25	0.	137.95
1859	8.2497	-4.0026	0.	132.25
1860	7.9982	-3.7571	0.	127.54
1861	7.75	-6.	0.	124.11
1862	8.	-5.75	0.	139.81
1863	8.25	-6.	0.	133.83
1864	8.	-6.25	0.	130.49
1865	-3.	-7.25	0.	137.16
1866	-2.75	-7.	0.	119.51
1867	-2.9824	-6.7553	0.	128.31
1868	-3.2374	-6.9898	0.	133.23
1869	-3.	-8.75	0.	136.59
1870	-2.75	-9.	0.	119.27
1871	-3.2539	-8.9986	0.	132.48
1872	-3.0001	-9.25	0.	127.77
1873	-2.25	-7.	0.	118.46
1874	-2.	-7.25	0.	134.03
1875	-1.9749	-6.7369	0.	125.99
1876	-1.7444	-6.996	0.	128.18
1877	-2.25	-9.	0.	118.81
1878	-2.	-8.75	0.	135.3
1879	-1.7501	-9.0007	0.	131.24
1880	-2.	-9.2501	0.	126.96
1881	0.	-7.25	0.	138.32
1882	0.25	-7.	0.	123.6
1883	-6.4945e-003	-6.7953	0.	131.56
1884	-0.24862	-7.0163	0.	132.38
1885	0.	-8.75	0.	136.54
1886	0.25	-9.	0.	120.87
1887	-0.24997	-9.001	0.	131.99
1888	3.654e-005	-9.2501	0.	127.85
1889	1.75	-7.	0.	124.05
1890	2.	-7.25	0.	139.58
1891	2.2487	-7.0014	0.	133.96
1892	1.9982	-6.7556	0.	130.6
1893	1.75	-9.	0.	121.54
1894	2.	-8.75	0.	138.13
1895	2.25	-9.	0.	132.99
1896	2.	-9.25	0.	128.35
1897	-1.	-0.25	0.	131.86
1898	-0.75	0.	0.	115.63
1899	-1.2567	-3.5121e-002	0.	127.38
1900	-1.0344	0.20561	0.	123.93
1901	-1.	-1.75	0.	132.09
1902	-0.75	-2.	0.	118.49
1903	-0.98193	-2.2393	0.	122.74
1904	-1.2497	-1.9932	0.	125.41
1905	0.75	0.	0.	124.28
1906	1.	-0.25	0.	139.71
1907	1.2375	8.673e-003	0.	135.09
1908	0.95104	0.27173	0.	131.08
1909	0.75	-2.	0.	124.76
1910	1.	-1.75	0.	140.41
1911	1.248	-1.9864	0.	134.94
1912	1.0351	-2.2164	0.	133.47
1913	-9.	-2.25	0.	143.57
1914	-8.75	-2.	0.	126.6
1915	-9.	-1.7501	0.	132.81
1916	-9.25	-2.	0.	137.26
1917	-9.	-3.75	0.	142.86
1918	-8.75	-4.	0.	125.24
1919	-8.9991	-4.2499	0.	131.38
1920	-9.2499	-4.0003	0.	136.84
1921	-7.25	-2.	0.	123.8
1922	-7.	-2.25	0.	139.06
1923	-6.7487	-2.0031	0.	132.45
1924	-6.999	-1.7513	0.	129.94
1925	-7.25	-4.	0.	123.45
1926	-7.	-3.75	0.	139.04
1927	-6.7533	-3.995	0.	133.04
1928	-6.995	-4.2362	0.	130.21
1929	-8.	8.75	0.	141.52
1930	-7.75	9.	0.	128.66
1931	-8.2502	8.9992	0.	133.04
1932	-8.0001	9.2499	0.	132.18
1933	-8.	8.25	0.	140.64
1934	-7.75	8.	0.	126.91
1935	-8.2516	7.9957	0.	133.75
1936	-8.0062	7.7372	0.	131.46
1937	-6.25	9.	0.	128.09
1938	-6.	8.75	0.	140.3
1939	-6.	9.25	0.	131.84
1940	-5.7501	9.0006	0.	132.26
1941	-6.25	8.	0.	124.91
1942	-6.	8.25	0.	138.68
1943	-5.7484	8.002	0.	131.47
1944	-5.984	7.7612	0.	129.09
1945	-7.	1.75	0.	135.14
1946	-6.75	2.	0.	121.47
1947	-7.2556	1.9941	0.	128.91
1948	-7.0088	2.2535	0.	125.72
1949	-7.	1.25	0.	136.06
1950	-6.75	1.	0.	123.33
1951	-7.2507	0.99792	0.	129.46
1952	-6.9998	0.74909	0.	127.92
1953	-5.25	2.	0.	126.71
1954	-5.	1.75	0.	140.97
1955	-4.7649	1.9962	0.	135.12
1956	-5.0123	2.2389	0.	132.05
1957	-5.25	1.	0.	127.43
1958	-5.	1.25	0.	141.59
1959	-4.7549	1.0018	0.	135.43
1960	-5.	0.74905	0.	133.31
1961	9.75	10.	0.	124.91
1962	10.	9.75	0.	125.1
1963	-9.75	10.	0.	125.38
1964	-10.	9.75	0.	124.42
1965	10.	-9.75	0.	127.33
1966	9.75	-10.	0.	127.03
1967	-10.	-9.75	0.	129.71
1968	-9.75	-10.	0.	128.71
1969	8.265	7.66	0.	142.66
1970	8.4745	7.4558	0.	135.29
1971	8.4727	7.8809	0.	136.27
1972	7.745	7.355	0.	80.859
1973	7.7459	7.0758	0.	100.53
1974	7.4179	7.3279	0.	95.682
1975	7.74	7.955	0.	82.513
1976	7.8188	8.2818	0.	103.72
1977	7.4823	8.0627	0.	99.335
1978	7.9071	-1.0397	0.	100.85
1979	8.1601	-0.87079	0.	109.63
1980	7.5322	-0.7998	0.	102.53
1981	7.7815	-0.68345	0.	112.02
1982	7.4134	-0.44791	0.	105.3
1983	7.8738	-1.7075	0.	99.188
1984	8.2703	-1.7864	0.	113.64
1985	7.4763	-1.9125	0.	103.66
1986	7.8038	-1.9918	0.	111.33
1987	7.3875	-2.2539	0.	105.82
1988	6.9363	-1.1075	0.	139.14
1989	6.7251	-0.84884	0.	133.07
1990	6.9138	-1.5525	0.	140.84
1991	6.6892	-1.2993	0.	137.39
1992	6.6631	-1.749	0.	136.23
1993	5.3742	-0.63186	0.	121.01
1994	4.4061	-0.68774	0.	110.08
1995	4.8364	9.5157e-002	0.	104.98
1996	0.195	6.175	0.	83.185
1997	-8.9577e-002	6.11	0.	96.456
1998	0.31617	5.7913	0.	100.54
1999	0.255	6.94	0.	91.837
2000	-7.493e-003	7.092	0.	99.517
2001	0.46676	7.2814	0.	102.51
2002	0.89	6.505	0.	142.87
2003	1.1207	6.2388	0.	135.83
2004	1.1622	6.732	0.	137.86
2005	-1.57	-3.95	0.	105.51
2006	-1.3399	-3.6635	0.	107.56
2007	-1.8575	-3.7571	0.	105.47
2008	-1.035	-4.54	0.	128.03
2009	-0.73795	-4.3175	0.	130.06
2010	-0.87064	-4.7948	0.	125.74
2011	-1.815	-4.71	0.	86.626
2012	-2.2145	-4.5711	0.	112.1
2013	-1.8785	-4.9683	0.	104.76
2014	-0.58	2.7075	0.	102.04
2015	-0.4096	3.0212	0.	103.16
2016	-1.	2.4725	0.	101.75
2017	-0.82666	2.8168	0.	110.76
2018	-1.2472	2.6065	0.	107.5
2019	4.25e-002	2.3363	0.	136.61
2020	0.28421	2.5662	0.	132.07
2021	3.75e-002	1.8537	0.	134.93
2022	0.27942	2.0854	0.	132.47
2023	0.27279	1.6062	0.	129.05
2024	-1.0075	1.7487	0.	100.14
2025	-1.2643	1.7036	0.	105.57
2026	-0.5925	1.5013	0.	98.698
2027	-0.87045	1.4518	0.	107.95
2028	-0.45413	1.2236	0.	99.489
2029	-8.3573	-6.6298	0.	95.183
2030	-7.6748	-7.1883	0.	140.24
2031	-8.5165	-7.6316	0.	92.871
2032	-6.3	-8.02	0.	98.29
2033	-6.3961	-7.7904	0.	111.09
2034	-6.5867	-8.1648	0.	117.67
2035	-5.655	-8.075	0.	122.01
2036	-5.5107	-7.8432	0.	122.36
2037	-5.3381	-8.2432	0.	132.69
2038	-6.025	-8.605	0.	107.34
2039	-6.2921	-8.8244	0.	106.68
2040	-5.8468	-8.8539	0.	109.84
2041	-6.34	4.385	0.	79.722
2042	-6.3982	4.0062	0.	99.096
2043	-6.0391	4.3727	0.	99.005
2044	-7.06	4.615	0.	135.83
2045	-7.2682	4.3415	0.	129.85
2046	-7.3503	4.8567	0.	135.57
2047	-6.5	5.12	0.	98.843
2048	-6.2321	5.3098	0.	101.24
2049	-6.7083	5.4556	0.	104.71
2050	6.7532	5.5061	0.	138.95
2051	7.75	6.	0.	117.37
2052	7.5167	6.19	0.	114.74
2053	8.25	6.	0.	117.33
2054	7.992	6.2831	0.	110.77
2055	8.5167	6.2518	0.	119.63
2056	7.75	5.	0.	119.22
2057	7.4987	4.7502	0.	116.43
2058	8.25	5.	0.	119.87
2059	7.9986	4.7497	0.	119.5
2060	8.4991	4.7499	0.	117.49
2061	9.2502	5.4994	0.	141.65
2062	3.7464	7.5115	0.	137.48
2063	4.75	8.	0.	121.29
2064	4.4998	8.2505	0.	118.78
2065	5.25	8.	0.	121.82
2066	5.0001	8.25	0.	122.31
2067	5.5007	8.2496	0.	119.62
2068	4.75	7.	0.	121.23
2069	4.5027	6.7558	0.	118.07
2070	5.25	7.	0.	122.3
2071	5.0032	6.754	0.	122.08
2072	5.5038	6.7533	0.	120.46
2073	6.2091	7.5025	0.	140.82
2074	6.	-4.75	0.	145.74
2075	5.7474	-4.5079	0.	140.55
2076	6.	-5.25	0.	145.71
2077	5.7488	-5.0044	0.	141.87
2078	5.7493	-5.5023	0.	140.47
2079	6.75	-4.	0.	115.02
2080	6.4929	-3.7674	0.	114.24
2081	7.25	-4.	0.	113.65
2082	6.9955	-3.7625	0.	113.89
2083	7.4972	-3.7574	0.	110.63
2084	6.75	-6.	0.	115.87
2085	6.4999	-6.25	0.	113.92
2086	7.25	-6.	0.	115.78
2087	7.	-6.25	0.	115.89
2088	7.5	-6.25	0.	113.69
2089	8.	-4.75	0.	144.38
2090	8.2499	-4.501	0.	139.05
2091	8.	-5.25	0.	144.91
2092	8.25	-5.0004	0.	141.
2093	8.25	-5.5001	0.	139.83
2094	-3.	-7.75	0.	141.54
2095	-3.2355	-7.4726	0.	138.26
2096	-3.	-8.25	0.	141.1
2097	-3.2901	-7.9563	0.	137.7
2098	-3.2668	-8.4878	0.	137.34
2099	-2.4789	-6.7496	0.	109.15
2100	-2.5	-9.25	0.	107.98
2101	-2.	-7.75	0.	138.22
2102	-1.7492	-7.5005	0.	133.99
2103	-2.	-8.25	0.	138.97
2104	-1.75	-8.0013	0.	135.55
2105	-1.7501	-8.5012	0.	135.72
2106	0.	-7.75	0.	141.85
2107	-0.24937	-7.5067	0.	137.07
2108	0.	-8.25	0.	141.66
2109	-0.24991	-8.0033	0.	138.01
2110	-0.25	-8.5018	0.	136.94
2111	0.75	-7.	0.	115.11
2112	0.4868	-6.7253	0.	114.
2113	1.25	-7.	0.	115.57
2114	1.0033	-6.7515	0.	115.71
2115	1.5025	-6.7599	0.	113.71
2116	0.75	-9.	0.	111.95
2117	0.50001	-9.25	0.	110.04
2118	1.25	-9.	0.	112.13
2119	1.	-9.25	0.	111.24
2120	1.5	-9.25	0.	110.26
2121	2.	-7.75	0.	144.47
2122	2.2495	-7.5007	0.	139.61
2123	2.	-8.25	0.	144.12
2124	2.2498	-8.0003	0.	140.71
2125	2.2499	-8.5001	0.	139.07
2126	-1.	-0.75	0.	137.57
2127	-1.2502	-0.51725	0.	133.28
2128	-1.	-1.25	0.	137.46
2129	-1.2481	-1.0067	0.	134.31
2130	-1.2468	-1.4993	0.	132.42
2131	-0.25	0.	0.	108.34
2132	-0.5181	0.24161	0.	103.87
2133	0.25	0.	0.	112.96
2134	-1.467e-002	0.19466	0.	109.59
2135	0.46732	0.19601	0.	114.19
2136	-0.25	-2.	0.	113.26
2137	-0.46354	-2.2412	0.	111.
2138	0.25	-2.	0.	115.03
2139	4.8331e-002	-2.239	0.	115.94
2140	0.55248	-2.2336	0.	114.37
2141	1.	-0.75	0.	144.54
2142	1.2458	-0.49679	0.	139.93
2143	1.	-1.25	0.	144.55
2144	1.247	-0.99833	0.	141.01
2145	1.2464	-1.4957	0.	139.95
2146	-9.	-2.75	0.	150.17
2147	-9.25	-2.5	0.	144.36
2148	-9.	-3.25	0.	150.
2149	-9.25	-3.	0.	146.
2150	-9.25	-3.5001	0.	144.23
2151	-8.25	-2.	0.	117.47
2152	-8.5	-1.7501	0.	115.71
2153	-7.75	-2.	0.	116.25
2154	-7.9999	-1.7501	0.	116.98
2155	-7.4996	-1.7504	0.	113.74
2156	-8.25	-4.	0.	115.77
2157	-8.4983	-4.2456	0.	113.55
2158	-7.75	-4.	0.	115.12
2159	-7.9968	-4.2405	0.	114.97
2160	-7.4953	-4.2372	0.	112.87
2161	-7.	-2.75	0.	144.2
2162	-6.7498	-2.5024	0.	138.64
2163	-7.	-3.25	0.	144.26
2164	-6.7518	-3.0012	0.	140.18
2165	-6.7543	-3.4994	0.	138.92
2166	-8.2505	8.498	0.	137.93
2167	-7.25	9.	0.	123.69
2168	-7.5	9.25	0.	120.12
2169	-6.75	9.	0.	123.48
2170	-7.	9.25	0.	124.23
2171	-6.5	9.25	0.	119.87
2172	-7.25	8.	0.	120.68
2173	-7.5051	7.7314	0.	118.26
2174	-6.75	8.	0.	119.72
2175	-6.9986	7.7209	0.	119.89
2176	-6.4764	7.7028	0.	116.26
2177	-5.7499	8.5011	0.	136.31
2178	-7.252	1.4966	0.	133.55
2179	-6.25	2.	0.	116.51
2180	-6.4848	2.2861	0.	112.45
2181	-5.75	2.	0.	118.8
2182	-5.9899	2.224	0.	117.78
2183	-5.5038	2.241	0.	117.48
2184	-6.25	1.	0.	118.31
2185	-6.4996	0.74913	0.	115.3
2186	-5.75	1.	0.	119.68
2187	-5.9995	0.74894	0.	119.65
2188	-5.4996	0.74879	0.	118.
2189	-4.76	1.5007	0.	139.48
2190	9.25	10.	0.	124.29
2191	9.4974	9.7471	0.	125.21
2192	8.75	10.	0.	122.96
2193	8.9969	9.7492	0.	124.61
2194	8.25	10.	0.	121.78
2195	8.4987	9.7693	0.	122.85
2196	7.75	10.	0.	121.84
2197	7.9988	9.767	0.	121.55
2198	7.25	10.	0.	123.29
2199	7.4992	9.7558	0.	122.8
2200	6.75	10.	0.	124.92
2201	6.999	9.7578	0.	125.06
2202	6.25	10.	0.	125.36
2203	6.4993	9.7524	0.	126.23
2204	5.75	10.	0.	124.67
2205	6.0001	9.7499	0.	125.57
2206	5.25	10.	0.	123.91
2207	5.5001	9.7498	0.	124.28
2208	4.75	10.	0.	124.04
2209	5.0001	9.75	0.	123.72
2210	4.25	10.	0.	125.23
2211	4.5001	9.7504	0.	124.45
2212	3.75	10.	0.	126.94
2213	4.0001	9.7512	0.	126.11
2214	3.25	10.	0.	128.26
2215	3.4999	9.7527	0.	127.66
2216	2.75	10.	0.	128.58
2217	2.9993	9.7548	0.	128.33
2218	2.25	10.	0.	127.86
2219	2.4982	9.7568	0.	128.02
2220	1.75	10.	0.	126.44
2221	1.9965	9.7577	0.	127.02
2222	1.25	10.	0.	124.85
2223	1.4949	9.7581	0.	125.6
2224	0.75	10.	0.	123.63
2225	0.99337	9.7557	0.	124.18
2226	0.25	10.	0.	123.14
2227	0.49284	9.7523	0.	123.33
2228	-0.25	10.	0.	123.43
2229	-6.0624e-003	9.7517	0.	123.34
2230	-0.75	10.	0.	124.25
2231	-0.50468	9.7542	0.	124.02
2232	-1.25	10.	0.	125.2
2233	-1.0037	9.7566	0.	124.93
2234	-1.75	10.	0.	126.
2235	-1.5031	9.7575	0.	125.69
2236	-2.25	10.	0.	126.51
2237	-2.0029	9.7572	0.	126.17
2238	-2.75	10.	0.	126.79
2239	-2.5024	9.7563	0.	126.41
2240	-3.25	10.	0.	126.97
2241	-3.0019	9.7553	0.	126.49
2242	-3.75	10.	0.	127.2
2243	-3.5012	9.7536	0.	126.51
2244	-4.25	10.	0.	127.6
2245	-4.0007	9.752	0.	126.58
2246	-4.75	10.	0.	128.26
2247	-4.5004	9.7511	0.	126.76
2248	-5.25	10.	0.	128.12
2249	-5.0002	9.7505	0.	127.35
2250	-5.75	10.	0.	125.28
2251	-5.5001	9.7502	0.	128.19
2252	-6.25	10.	0.	120.97
2253	-6.	9.75	0.	124.62
2254	-6.75	10.	0.	118.
2255	-6.5	9.75	0.	119.47
2256	-7.25	10.	0.	117.99
2257	-7.	9.75	0.	119.18
2258	-7.75	10.	0.	120.86
2259	-7.5	9.75	0.	119.5
2260	-8.25	10.	0.	124.89
2261	-8.0001	9.7499	0.	124.54
2262	-8.75	10.	0.	127.14
2263	-8.5001	9.7497	0.	127.89
2264	-9.25	10.	0.	126.47
2265	-9.	9.7497	0.	126.57
2266	-9.5	9.7498	0.	125.17
2267	10.	9.25	0.	125.2
2268	9.7474	9.4971	0.	125.4
2269	10.	8.75	0.	124.36
2270	9.7464	8.9942	0.	126.06
2271	10.	8.25	0.	122.49
2272	9.763	8.4925	0.	125.06
2273	10.	7.75	0.	122.45
2274	9.7739	7.9911	0.	123.45
2275	10.	7.25	0.	126.73
2276	9.7751	7.4915	0.	124.9
2277	10.	6.75	0.	132.36
2278	9.7689	6.9931	0.	130.16
2279	10.	6.25	0.	133.26
2280	9.7592	6.4956	0.	135.07
2281	10.	5.75	0.	129.6
2282	9.752	5.998	0.	133.72
2283	10.	5.25	0.	129.44
2284	9.7502	5.4994	0.	131.29
2285	10.	4.75	0.	133.81
2286	9.75	4.9998	0.	133.22
2287	10.	4.25	0.	136.06
2288	9.7498	4.5	0.	135.47
2289	10.	3.75	0.	134.66
2290	9.7497	4.0001	0.	133.48
2291	10.	3.25	0.	132.23
2292	9.7498	3.5004	0.	131.35
2293	10.	2.75	0.	130.46
2294	9.7504	3.0009	0.	129.82
2295	10.	2.25	0.	129.51
2296	9.7518	2.5015	0.	128.9
2297	10.	1.75	0.	129.24
2298	9.7543	2.0024	0.	128.51
2299	10.	1.25	0.	129.42
2300	9.7577	1.5032	0.	128.56
2301	10.	0.75	0.	129.71
2302	9.7611	1.0037	0.	128.88
2303	10.	0.25	0.	129.49
2304	9.7631	0.50365	0.	129.22
2305	10.	-0.25	0.	128.07
2306	9.7639	2.4187e-003	0.	129.14
2307	10.	-0.75	0.	125.69
2308	9.7617	-0.50077	0.	128.07
2309	10.	-1.25	0.	124.67
2310	9.7489	-1.0064	0.	126.12
2311	10.	-1.75	0.	127.31
2312	9.7321	-1.5096	0.	126.95
2313	10.	-2.25	0.	131.98
2314	9.7426	-2.0076	0.	130.57
2315	10.	-2.75	0.	135.23
2316	9.7473	-2.5052	0.	133.91
2317	10.	-3.25	0.	135.57
2318	9.7489	-3.003	0.	134.99
2319	10.	-3.75	0.	133.39
2320	9.7496	-3.5017	0.	134.1
2321	10.	-4.25	0.	130.23
2322	9.7499	-4.0008	0.	131.88
2323	10.	-4.75	0.	127.71
2324	9.75	-4.5004	0.	129.63
2325	10.	-5.25	0.	126.83
2326	9.75	-5.0001	0.	128.31
2327	10.	-5.75	0.	127.66
2328	9.75	-5.5	0.	128.26
2329	10.	-6.25	0.	129.37
2330	9.75	-6.	0.	129.22
2331	10.	-6.75	0.	130.77
2332	9.75	-6.5	0.	130.37
2333	10.	-7.25	0.	131.13
2334	9.75	-7.	0.	130.75
2335	10.	-7.75	0.	130.53
2336	9.75	-7.5	0.	130.27
2337	10.	-8.25	0.	129.49
2338	9.75	-8.	0.	129.36
2339	10.	-8.75	0.	128.47
2340	9.75	-8.5	0.	128.42
2341	10.	-9.25	0.	127.72
2342	9.75	-9.	0.	127.66
2343	9.75	-9.5	0.	127.19
2344	-10.	9.25	0.	122.49
2345	-9.75	9.4998	0.	124.2
2346	-10.	8.75	0.	121.08
2347	-9.7501	8.9995	0.	122.6
2348	-10.	8.25	0.	122.04
2349	-9.7503	8.4991	0.	122.64
2350	-10.	7.75	0.	124.87
2351	-9.7509	7.9984	0.	124.57
2352	-10.	7.25	0.	127.75
2353	-9.7522	7.4973	0.	127.17
2354	-10.	6.75	0.	129.22
2355	-9.7541	6.9958	0.	128.88
2356	-10.	6.25	0.	128.95
2357	-9.7561	6.4941	0.	129.18
2358	-10.	5.75	0.	127.51
2359	-9.7578	5.9924	0.	128.31
2360	-10.	5.25	0.	125.91
2361	-9.7586	5.4912	0.	126.9
2362	-10.	4.75	0.	125.07
2363	-9.7587	4.9907	0.	125.8
2364	-10.	4.25	0.	125.32
2365	-9.7591	4.4908	0.	125.62
2366	-10.	3.75	0.	126.25
2367	-9.7598	3.9914	0.	126.26
2368	-10.	3.25	0.	127.1
2369	-9.7594	3.4921	0.	127.11
2370	-10.	2.75	0.	127.35
2371	-9.7576	2.9933	0.	127.56
2372	-10.	2.25	0.	127.06
2373	-9.7553	2.4947	0.	127.43
2374	-10.	1.75	0.	126.74
2375	-9.7533	1.9964	0.	127.01
2376	-10.	1.25	0.	126.95
2377	-9.7517	1.4978	0.	126.83
2378	-10.	0.75	0.	128.04
2379	-9.7508	0.99879	0.	127.27
2380	-10.	0.25	0.	130.06
2381	-9.7503	0.49939	0.	128.42
2382	-10.	-0.25	0.	132.95
2383	-9.7501	-2.8453e-004	0.	130.19
2384	-10.	-0.75	0.	136.48
2385	-9.75	-0.50013	0.	132.5
2386	-10.	-1.25	0.	138.99
2387	-9.75	-1.0001	0.	135.36
2388	-10.	-1.75	0.	137.91
2389	-9.75	-1.5	0.	138.11
2390	-10.	-2.25	0.	134.04
2391	-9.75	-2.	0.	136.64
2392	-10.	-2.75	0.	131.74
2393	-9.75	-2.5	0.	135.65
2394	-10.	-3.25	0.	131.93
2395	-9.75	-3.	0.	136.3
2396	-10.	-3.75	0.	134.68
2397	-9.75	-3.5001	0.	135.86
2398	-10.	-4.25	0.	139.34
2399	-9.7499	-4.0003	0.	137.24
2400	-10.	-4.75	0.	141.91
2401	-9.7494	-4.501	0.	139.33
2402	-10.	-5.25	0.	141.56
2403	-9.7481	-5.0027	0.	137.8
2404	-10.	-5.75	0.	139.56
2405	-9.7466	-5.5059	0.	136.81
2406	-10.	-6.25	0.	134.53
2407	-9.7528	-6.0073	0.	136.32
2408	-10.	-6.75	0.	126.22
2409	-9.781	-6.5047	0.	132.27
2410	-10.	-7.25	0.	122.43
2411	-9.7883	-7.0033	0.	125.41
2412	-10.	-7.75	0.	126.47
2413	-9.7749	-7.4992	0.	126.59
2414	-10.	-8.25	0.	130.63
2415	-9.775	-7.9944	0.	130.45
2416	-10.	-8.75	0.	131.19
2417	-9.7721	-8.4902	0.	130.64
2418	-10.	-9.25	0.	130.33
2419	-9.766	-8.9887	0.	129.65
2420	-9.7442	-9.4904	0.	128.89
2421	-9.25	-10.	0.	127.01
2422	-9.4942	-9.7404	0.	127.89
2423	-8.75	-10.	0.	125.88
2424	-8.9682	-9.7063	0.	125.72
2425	-8.25	-10.	0.	126.48
2426	-8.4519	-9.7431	0.	125.15
2427	-7.75	-10.	0.	128.34
2428	-7.9503	-9.7557	0.	127.24
2429	-7.25	-10.	0.	128.51
2430	-7.4524	-9.76	0.	130.32
2431	-6.75	-10.	0.	123.62
2432	-6.957	-9.762	0.	128.
2433	-6.25	-10.	0.	117.35
2434	-6.4641	-9.7664	0.	119.28
2435	-5.75	-10.	0.	118.58
2436	-5.9728	-9.7715	0.	113.79
2437	-5.25	-10.	0.	127.84
2438	-5.4814	-9.7744	0.	122.49
2439	-4.75	-10.	0.	136.51
2440	-4.9883	-9.7723	0.	134.91
2441	-4.25	-10.	0.	139.21
2442	-4.494	-9.7653	0.	139.51
2443	-3.75	-10.	0.	136.41
2444	-3.9979	-9.7566	0.	138.46
2445	-3.25	-10.	0.	127.76
2446	-3.4997	-9.751	0.	134.6
2447	-2.75	-10.	0.	118.21
2448	-3.0001	-9.75	0.	122.33
2449	-2.25	-10.	0.	117.88
2450	-2.5	-9.75	0.	112.13
2451	-1.75	-10.	0.	126.71
2452	-2.	-9.7501	0.	121.63
2453	-1.25	-10.	0.	134.41
2454	-1.5	-9.7503	0.	133.13
2455	-0.75	-10.	0.	134.96
2456	-1.	-9.7505	0.	135.96
2457	-0.25	-10.	0.	128.01
2458	-0.49996	-9.7504	0.	134.16
2459	0.25	-10.	0.	117.12
2460	3.654e-005	-9.7501	0.	123.02
2461	0.75	-10.	0.	109.56
2462	0.50001	-9.75	0.	110.84
2463	1.25	-10.	0.	109.53
2464	1.	-9.75	0.	108.16
2465	1.75	-10.	0.	116.98
2466	1.5	-9.75	0.	110.86
2467	2.25	-10.	0.	127.57
2468	2.	-9.75	0.	122.94
2469	2.75	-10.	0.	134.11
2470	2.5	-9.75	0.	133.77
2471	3.25	-10.	0.	134.77
2472	3.	-9.75	0.	135.17
2473	3.75	-10.	0.	133.07
2474	3.5	-9.75	0.	133.78
2475	4.25	-10.	0.	131.01
2476	4.	-9.75	0.	131.88
2477	4.75	-10.	0.	128.93
2478	4.5	-9.75	0.	129.86
2479	5.25	-10.	0.	126.94
2480	5.	-9.75	0.	127.86
2481	5.75	-10.	0.	125.16
2482	5.5	-9.75	0.	125.95
2483	6.25	-10.	0.	123.75
2484	6.	-9.75	0.	124.29
2485	6.75	-10.	0.	122.89
2486	6.5	-9.75	0.	123.09
2487	7.25	-10.	0.	122.69
2488	7.	-9.75	0.	122.54
2489	7.75	-10.	0.	123.13
2490	7.5	-9.75	0.	122.69
2491	8.25	-10.	0.	124.06
2492	8.	-9.75	0.	123.46
2493	8.75	-10.	0.	125.24
2494	8.5	-9.75	0.	124.62
2495	9.25	-10.	0.	126.34
2496	9.	-9.75	0.	125.87
2497	9.5	-9.75	0.	126.89
2498	3.3546	2.6902	0.	128.57
2499	3.5886	2.7826	0.	127.99
2500	3.1351	2.8967	0.	128.65
2501	3.3986	3.0834	0.	128.36
2502	3.9461	3.4146	0.	127.25
2503	3.8671	2.9282	0.	127.43
2504	3.677	3.2289	0.	127.8
2505	4.1687	3.1624	0.	126.81
2506	4.2202	3.6313	0.	126.76
2507	3.9921	3.8807	0.	127.05
2508	3.7299	3.6797	0.	127.73
2509	3.1194	2.4805	0.	128.92
2510	2.8958	2.2458	0.	129.59
2511	2.6588	2.47	0.	128.94
2512	2.8998	2.687	0.	129.01
2513	3.5818	2.5833	0.	128.13
2514	3.3646	2.2798	0.	129.03
2515	5.1832	3.1227	0.	125.57
2516	4.9474	3.3632	0.	125.81
2517	4.9122	2.8986	0.	125.41
2518	4.6739	3.1373	0.	126.
2519	4.7162	3.6051	0.	126.12
2520	4.4826	3.851	0.	126.14
2521	4.4428	3.3791	0.	126.32
2522	2.9046	1.7885	0.	130.79
2523	3.141	2.0451	0.	129.69
2524	2.6628	2.0128	0.	129.81
2525	-4.702	-3.064	0.	128.41
2526	-4.836	-3.3326	0.	128.11
2527	-5.2289	-3.0698	0.	128.
2528	-5.0341	-3.3375	0.	128.07
2529	-4.9743	-2.8284	0.	128.03
2530	3.2853	4.1752	0.	128.86
2531	3.0641	4.4223	0.	129.57
2532	2.8036	4.2264	0.	130.03
2533	3.0226	3.9821	0.	129.39
2534	3.8416	2.4164	0.	127.57
2535	4.0933	2.6728	0.	126.82
2536	5.4211	2.8879	0.	125.15
2537	5.6484	2.6484	0.	124.74
2538	5.1501	2.6638	0.	124.99
2539	5.4005	2.4298	0.	124.53
2540	-4.4746	-2.7789	0.	128.87
2541	-4.2839	-2.5335	0.	129.46
2542	-4.7468	-2.5433	0.	128.5
2543	-4.495	-2.2836	0.	129.02
2544	-3.9691	-1.7961	0.	129.9
2545	-3.9864	-1.2706	0.	130.11
2546	-4.2341	-1.527	0.	129.6
2547	-3.7304	-1.5181	0.	129.76
2548	3.7241	-5.0181	0.	129.73
2549	4.2327	-5.0192	0.	130.24
2550	3.9764	-4.7743	0.	129.97
2551	3.9813	-5.2661	0.	130.22
2552	5.453	3.3479	0.	125.76
2553	5.692	3.0967	0.	125.33
2554	5.2172	3.5884	0.	125.99
2555	4.9792	3.8325	0.	125.82
2556	3.4664	-4.7706	0.	129.41
2557	3.4717	-5.2641	0.	129.88
2558	3.2108	-5.0149	0.	128.9
2559	2.6681	1.5416	0.	131.37
2560	2.9114	1.3149	0.	132.34
2561	3.151	1.5795	0.	131.14
2562	3.2048	-3.5368	0.	130.23
2563	2.6908	-3.5167	0.	129.62
2564	2.951	-3.2849	0.	130.63
2565	2.948	-3.7745	0.	129.45
2566	-4.3724	-3.2579	0.	128.78
2567	-4.2108	-3.	0.	129.54
2568	-4.0093	-2.2992	0.	129.97
2569	-3.8704	-2.5052	0.	130.4
2570	-4.0202	-2.7546	0.	130.12
2571	-4.0245	6.2982	0.	128.92
2572	-3.9717	5.8193	0.	128.81
2573	-4.2957	6.1036	0.	129.82
2574	-4.1683	5.838	0.	129.18
2575	-3.7772	6.0659	0.	128.48
2576	-4.2482	6.5629	0.	129.34
2577	-4.004	6.7983	0.	128.28
2578	-3.759	6.5623	0.	128.06
2579	3.7684	4.1322	0.	127.55
2580	3.5424	4.38	0.	128.1
2581	3.5061	3.9313	0.	128.24
2582	4.0233	4.3487	0.	126.62
2583	4.2545	4.1003	0.	126.43
2584	-2.742	-1.0238	0.	128.11
2585	-2.9943	-0.76693	0.	129.43
2586	-3.2395	-1.0168	0.	129.42
2587	-2.982	-1.2795	0.	128.63
2588	-2.5722	4.8835	0.	129.1
2589	-2.3249	5.1351	0.	128.27
2590	-2.5469	5.3813	0.	127.83
2591	-2.7888	5.1356	0.	128.52
2592	-2.3384	4.6208	0.	129.33
2593	-2.6296	4.3848	0.	130.45
2594	-2.8234	4.6422	0.	129.73
2595	3.6244	2.1129	0.	128.47
2596	3.3874	1.836	0.	130.05
2597	-3.7252	-2.0069	0.	129.99
2598	-3.8165	-2.2711	0.	130.37
2599	-4.2204	-2.0493	0.	129.53
2600	-4.5063	-3.5264	0.	128.48
2601	-4.9106	-3.5662	0.	128.2
2602	-4.6693	-3.7905	0.	128.31
2603	3.2106	-4.5203	0.	128.77
2604	2.955	-4.7645	0.	128.26
2605	2.6991	-4.5105	0.	127.21
2606	2.9513	-4.2682	0.	128.54
2607	2.4356	-3.7536	0.	128.31
2608	2.1837	-3.9906	0.	126.28
2609	2.4406	-4.2538	0.	126.8
2610	2.6928	-4.0115	0.	128.13
2611	3.4627	-4.2789	0.	129.55
2612	3.7187	-4.5268	0.	129.65
2613	3.4592	-3.3024	0.	130.72
2614	3.2054	-3.0505	0.	131.12
2615	3.7078	-3.0656	0.	130.78
2616	3.4547	-2.8176	0.	131.27
2617	2.4347	2.6971	0.	128.71
2618	2.191	2.4783	0.	128.12
2619	2.4258	2.2371	0.	129.15
2620	-4.5145	-4.7401	0.	129.6
2621	-4.7349	-4.9847	0.	130.24
2622	-4.2085	-4.9769	0.	130.04
2623	-4.4719	-5.2329	0.	131.06
2624	-3.6039	4.0175	0.	130.97
2625	-3.6443	3.6122	0.	132.05
2626	-3.8552	3.8232	0.	131.3
2627	-3.4272	3.7136	0.	131.94
2628	3.7973	4.5965	0.	127.17
2629	3.3212	4.6271	0.	128.8
2630	3.5685	4.8434	0.	127.85
2631	2.2065	2.9382	0.	128.32
2632	2.6757	2.9141	0.	128.78
2633	2.4596	3.1475	0.	128.94
2634	3.4603	-3.789	0.	130.09
2635	3.7123	-3.5495	0.	130.56
2636	3.7147	-4.0366	0.	130.06
2637	3.2034	-4.0268	0.	129.32
2638	1.6814	-4.4816	0.	122.12
2639	1.9318	-4.2361	0.	124.36
2640	2.1888	-4.4993	0.	124.87
2641	1.9263	-4.7513	0.	123.08
2642	-3.2117	-2.0223	0.	129.66
2643	-3.3973	-2.1521	0.	130.41
2644	-3.4864	-1.7289	0.	129.85
2645	-4.7912	-4.5004	0.	129.22
2646	-4.3098	-4.4717	0.	128.67
2647	-4.5876	-4.2577	0.	128.67
2648	4.1196	2.1759	0.	126.58
2649	4.3731	1.9541	0.	125.15
2650	4.6288	2.1987	0.	124.92
2651	4.3714	2.4323	0.	125.83
2652	3.8735	1.9126	0.	127.88
2653	-3.5429	4.4549	0.	129.75
2654	-3.7981	4.2515	0.	129.85
2655	-3.3453	4.1899	0.	130.71
2656	-3.4975	4.9147	0.	128.81
2657	-3.7459	4.6993	0.	128.73
2658	-3.2874	4.6668	0.	129.44
2659	-3.7032	5.1537	0.	128.28
2660	-3.4761	5.3826	0.	128.26
2661	-3.2502	5.1421	0.	128.52
2662	-2.0911	4.8723	0.	128.5
2663	-1.8525	4.6805	0.	128.
2664	-1.979	4.3973	0.	128.74
2665	-2.1716	4.3666	0.	129.66
2666	4.5242	4.8051	0.	124.52
2667	4.7637	4.5551	0.	125.
2668	4.2776	4.5727	0.	125.74
2669	4.5088	4.3244	0.	125.55
2670	6.7667	1.9233	0.	123.6
2671	6.446	2.168	0.	124.21
2672	6.5738	1.6438	0.	124.66
2673	6.2361	1.8109	0.	124.81
2674	6.9924	2.2102	0.	122.8
2675	7.2784	1.9619	0.	122.4
2676	7.0697	1.6885	0.	122.7
2677	-3.0119	6.348	0.	126.56
2678	-2.7693	6.1129	0.	126.43
2679	-3.2619	6.0983	0.	127.35
2680	-3.0108	5.8652	0.	127.25
2681	-3.011	6.8303	0.	126.09
2682	-2.7645	6.5956	0.	125.81
2683	-3.2618	6.5796	0.	126.83
2684	1.1753	-4.4482	0.	119.65
2685	1.4119	-4.7351	0.	120.19
2686	1.4207	-4.2091	0.	121.56
2687	0.90283	-4.6821	0.	118.51
2688	0.91791	-4.174	0.	119.11
2689	0.67479	-4.4073	0.	118.24
2690	-1.8712	5.1569	0.	127.88
2691	-2.0817	5.3869	0.	127.5
2692	2.0581	4.0816	0.	130.36
2693	1.8398	4.3302	0.	130.19
2694	2.1082	4.5301	0.	131.35
2695	2.3223	4.2796	0.	130.71
2696	-3.246	-0.50756	0.	130.56
2697	-3.7442	-0.50309	0.	131.26
2698	-3.4935	-0.24457	0.	131.65
2699	-3.4913	-0.75742	0.	130.54
2700	-3.6319	3.2043	0.	132.62
2701	-3.8698	3.4074	0.	132.52
2702	-3.433	3.5173	0.	132.39
2703	2.4357	-3.2591	0.	130.18
2704	2.1682	-3.486	0.	128.48
2705	2.4297	1.2837	0.	132.
2706	2.187	1.5247	0.	130.65
2707	2.4263	1.7659	0.	130.4
2708	3.2196	-5.5107	0.	129.84
2709	3.479	-5.7594	0.	130.78
2710	3.7289	-5.5121	0.	130.37
2711	5.4797	3.8187	0.	126.19
2712	5.7214	3.5673	0.	126.12
2713	-4.7457	6.5003	0.	130.26
2714	-4.5194	6.3682	0.	130.23
2715	-4.4982	6.7998	0.	129.52
2716	-1.0093	4.2542	0.	120.96
2717	-0.70238	4.0734	0.	117.07
2718	-0.92863	3.7664	0.	117.91
2719	-1.1717	3.9325	0.	121.8
2720	0.62817	-4.9041	0.	118.95
2721	1.1394	-4.969	0.	119.04
2722	0.83878	-5.1879	0.	118.35
2723	-5.7518	-3.0237	0.	128.9
2724	-5.5215	-3.281	0.	128.29
2725	-5.4945	-2.7854	0.	128.
2726	-2.2444	-1.0231	0.	127.17
2727	-2.4973	-0.78282	0.	128.11
2728	-2.4867	-1.273	0.	127.04
2729	-2.4628	4.1305	0.	130.79
2730	-2.6919	3.884	0.	131.82
2731	-2.8959	4.1444	0.	131.11
2732	-1.5435	4.5478	0.	126.38
2733	-1.2694	4.4198	0.	124.22
2734	-1.67	4.2646	0.	127.11
2735	-1.4317	4.0981	0.	125.07
2736	-4.0968	5.6152	0.	128.86
2737	-3.9141	5.3789	0.	128.3
2738	-3.687	5.6078	0.	128.28
2739	-3.7537	7.0492	0.	127.3
2740	-4.0027	7.286	0.	127.22
2741	-4.254	7.0352	0.	128.47
2742	-3.2579	7.0638	0.	126.34
2743	-3.5058	7.3001	0.	126.37
2744	-3.5087	6.8132	0.	127.07
2745	-2.762	7.0785	0.	125.67
2746	-3.0097	7.314	0.	125.83
2747	-2.5322	5.8741	0.	126.59
2748	-2.3037	5.6332	0.	127.06
2749	-2.7737	5.6264	0.	127.42
2750	-1.6326	4.9651	0.	127.38
2751	-1.4079	4.8909	0.	126.62
2752	2.6731	1.057	0.	132.96
2753	3.1562	1.0994	0.	133.06
2754	2.9209	0.82494	0.	133.17
2755	3.6365	1.6357	0.	129.47
2756	3.3958	1.3639	0.	131.87
2757	5.1392	1.7366	0.	123.24
2758	4.6274	1.7257	0.	123.76
2759	4.8695	1.5009	0.	121.5
2760	4.8831	1.9704	0.	123.54
2761	-4.2388	-3.7278	0.	128.48
2762	-4.0746	-3.4587	0.	129.34
2763	-3.4885	-2.4163	0.	130.79
2764	-3.6052	-2.6891	0.	131.32
2765	2.6369	4.9181	0.	130.9
2766	2.373	4.7249	0.	131.4
2767	2.8475	4.6702	0.	130.3
2768	2.587	4.4743	0.	130.76
2769	-4.2401	-1.0154	0.	130.03
2770	-3.992	-0.75891	0.	130.91
2771	-3.7391	-1.0132	0.	130.18
2772	-4.0807	3.6184	0.	131.78
2773	-4.2951	3.8488	0.	130.7
2774	-4.0494	4.0572	0.	130.19
2775	-5.3266	-3.5487	0.	128.35
2776	-5.0945	-3.8019	0.	128.44
2777	-4.9775	-5.2281	0.	130.54
2778	-5.0115	-4.745	0.	129.85
2779	-5.2382	-4.981	0.	130.28
2780	-4.99	-2.2927	0.	128.21
2781	-5.2399	-2.544	0.	128.03
2782	-4.4854	-1.7802	0.	129.22
2783	-4.7381	-2.033	0.	128.74
2784	-4.7377	-1.5249	0.	128.91
2785	-4.4877	-1.2719	0.	129.52
2786	2.7241	-1.0351	0.	130.15
2787	2.2355	-1.0094	0.	131.03
2788	2.4886	-0.75603	0.	130.
2789	2.4772	-1.2715	0.	130.74
2790	2.9541	-2.7969	0.	131.64
2791	2.696	-3.0273	0.	131.17
2792	-2.9962	-0.2555	0.	130.81
2793	-2.7495	-0.52598	0.	129.44
2794	2.6979	-5.0113	0.	127.15
2795	2.9586	-5.2615	0.	128.86
2796	-3.698	-5.0593	0.	130.21
2797	-4.0037	-4.7085	0.	129.11
2798	-3.7197	-4.8544	0.	129.34
2799	-3.9506	-5.2362	0.	131.1
2800	3.961	-3.3126	0.	130.61
2801	3.9536	-2.831	0.	130.28
2802	4.2079	-3.0739	0.	130.42
2803	6.1988	3.0404	0.	124.69
2804	5.9604	3.3162	0.	125.69
2805	5.9194	2.8572	0.	124.92
2806	6.6717	2.4549	0.	123.41
2807	6.4171	2.7216	0.	124.13
2808	6.1378	2.5384	0.	124.36
2809	6.1387	2.3251	0.	124.28
2810	6.9618	2.7266	0.	122.67
2811	7.2256	2.4765	0.	122.22
2812	5.0005	4.309	0.	125.29
2813	5.2416	4.0628	0.	126.02
2814	4.7455	4.0783	0.	125.84
2815	5.0136	5.7691	0.	120.84
2816	5.0163	5.2797	0.	122.56
2817	5.2642	5.5218	0.	122.6
2818	4.7715	5.5302	0.	122.06
2819	-0.4636	4.5976	0.	118.37
2820	-0.36053	4.3657	0.	116.04
2821	-0.25458	4.8218	0.	117.95
2822	-5.2488e-002	4.5585	0.	116.47
2823	2.0155	3.6329	0.	129.35
2824	1.7916	3.8791	0.	129.31
2825	2.2762	3.8354	0.	129.86
2826	1.9628	2.7194	0.	127.73
2827	1.718	2.4965	0.	126.78
2828	1.9524	2.2474	0.	127.86
2829	4.289	5.0549	0.	124.75
2830	4.773	5.0428	0.	123.65
2831	4.5282	5.2934	0.	123.16
2832	2.8909	5.1159	0.	130.16
2833	3.1286	5.3174	0.	129.45
2834	3.1015	4.868	0.	129.55
2835	3.3489	5.0843	0.	128.6
2836	-4.7146	-5.4763	0.	131.36
2837	-4.4615	-5.7295	0.	132.62
2838	-4.214	-5.4922	0.	132.12
2839	-4.9589	-5.7159	0.	131.05
2840	-5.2139	-5.4655	0.	130.29
2841	6.4259	1.3482	0.	126.05
2842	6.6734	1.1479	0.	125.06
2843	6.8768	1.4091	0.	123.76
2844	4.0452	5.3043	0.	125.31
2845	4.0425	4.8225	0.	125.97
2846	3.8136	5.0694	0.	126.66
2847	1.9833	3.1798	0.	128.41
2848	1.7309	2.9661	0.	127.47
2849	1.7545	3.4251	0.	128.54
2850	2.2365	3.3891	0.	129.03
2851	-1.3514e-002	5.0318	0.	115.85
2852	0.18858	4.7685	0.	114.37
2853	0.45147	4.9758	0.	114.23
2854	0.22086	5.2841	0.	113.07
2855	5.256	4.5453	0.	125.34
2856	5.0126	4.7927	0.	124.14
2857	6.7072	2.9933	0.	123.4
2858	6.4641	3.26	0.	124.69
2859	7.2224	2.9864	0.	121.84
2860	6.9714	3.2408	0.	122.7
2861	3.9668	-3.797	0.	130.52
2862	4.2154	-3.5566	0.	131.01
2863	3.9707	-4.2845	0.	130.16
2864	4.2216	-4.0413	0.	130.74
2865	-3.233	-5.1662	0.	130.72
2866	-3.4807	-4.9442	0.	129.7
2867	-3.4636	-5.3601	0.	131.16
2868	-2.7901	-5.1633	0.	130.59
2869	-2.9837	-5.3893	0.	130.23
2870	-2.9713	-4.9723	0.	130.55
2871	4.2474	-7.0019	0.	131.24
2872	3.9976	-7.2519	0.	130.8
2873	3.7464	-7.0023	0.	131.26
2874	3.9946	-6.7535	0.	131.37
2875	2.446	-5.2596	0.	126.43
2876	2.442	-4.7572	0.	126.1
2877	2.1795	-5.0092	0.	124.31
2878	-3.2437	7.4928e-003	0.	131.9
2879	-2.7495	-3.215e-002	0.	131.15
2880	-2.974	0.27556	0.	132.09
2881	0.66154	-3.9131	0.	118.93
2882	0.87354	-3.6738	0.	120.51
2883	1.1633	-3.9349	0.	121.03
2884	2.707	-2.5382	0.	132.18
2885	3.2034	-2.5639	0.	131.78
2886	2.9552	-2.3063	0.	132.19
2887	-4.9904	-1.7776	0.	128.42
2888	-5.2412	-2.0298	0.	128.24
2889	-4.9913	-1.2692	0.	128.4
2890	-5.2412	-1.5213	0.	128.28
2891	-5.2754	-4.5005	0.	129.82
2892	-5.0567	-4.2689	0.	129.1
2893	-4.7413	-1.0163	0.	129.
2894	-5.2431	-1.0147	0.	127.62
2895	-4.9935	-0.76287	0.	128.11
2896	-4.4924	-0.76226	0.	130.09
2897	2.6988	5.3641	0.	130.37
2898	2.4315	5.1752	0.	131.41
2899	2.9364	5.5656	0.	129.67
2900	2.5132	5.6272	0.	130.14
2901	2.8503	5.8014	0.	129.63
2902	-3.1139	-2.2257	0.	130.02
2903	-2.785	-2.3488	0.	129.55
2904	-2.6913	-2.054	0.	128.11
2905	-2.9508	-1.8168	0.	128.85
2906	-3.1968	-2.5637	0.	131.59
2907	-4.1241	-4.2057	0.	128.3
2908	-3.9497	-3.9258	0.	128.45
2909	-4.4019	-3.9918	0.	128.3
2910	-3.8351	-4.3946	0.	127.79
2911	5.6808	1.7309	0.	124.48
2912	6.0882	1.5152	0.	126.19
2913	5.8785	1.4889	0.	126.
2914	5.9288	1.968	0.	124.88
2915	5.371	1.5025	0.	123.25
2916	5.3972	1.9669	0.	123.96
2917	4.127	1.6908	0.	126.46
2918	4.3717	1.4723	0.	124.24
2919	3.8804	1.4263	0.	129.05
2920	2.9601	-1.3103	0.	130.95
2921	2.9972	-0.77691	0.	129.3
2922	3.1983	-1.101	0.	131.31
2923	3.1952	-1.592	0.	132.31
2924	2.7133	-1.5467	0.	131.56
2925	2.9546	-1.8131	0.	132.06
2926	-0.86499	4.5485	0.	121.27
2927	-1.1338	4.7629	0.	124.47
2928	-0.55804	4.3677	0.	117.44
2929	-0.68214	4.8337	0.	121.73
2930	-2.284	6.1223	0.	125.7
2931	-2.5219	6.3605	0.	125.67
2932	-2.5131	7.3272	0.	125.63
2933	-2.2654	7.0897	0.	125.41
2934	-2.5155	6.8438	0.	125.38
2935	-4.2042	4.7379	0.	127.56
2936	-4.0011	4.4959	0.	128.82
2937	-3.9516	4.9383	0.	128.2
2938	-2.0627	4.1562	0.	129.5
2939	-1.8443	3.9574	0.	128.92
2940	-2.2552	3.8917	0.	131.09
2941	-2.7609	7.5627	0.	125.79
2942	-2.2654	7.5737	0.	126.24
2943	-2.5133	7.811	0.	125.98
2944	-3.2576	7.5502	0.	125.86
2945	-3.0097	7.8003	0.	125.64
2946	-3.7548	7.5368	0.	126.29
2947	-3.5064	7.7886	0.	125.63
2948	7.6435	1.1544	0.	120.63
2949	7.4359	0.88804	0.	120.25
2950	7.9118	0.94232	0.	120.94
2951	7.6548	0.57482	0.	117.89
2952	7.9141	0.70407	0.	120.67
2953	7.5643	1.7072	0.	121.69
2954	7.8345	1.4678	0.	121.82
2955	7.3557	1.4338	0.	122.
2956	7.5116	2.2282	0.	121.82
2957	7.7809	1.9831	0.	122.07
2958	7.4862	2.7363	0.	121.38
2959	7.7472	2.49	0.	121.72
2960	7.7365	2.9916	0.	120.92
2961	7.483	3.2408	0.	120.63
2962	-0.46582	3.8851	0.	113.15
2963	-0.19594	4.0842	0.	115.65
2964	5.2611	6.0139	0.	121.5
2965	4.763	6.0188	0.	120.4
2966	5.0087	6.2615	0.	119.95
2967	-1.1229	3.4414	0.	120.43
2968	-0.69207	3.5781	0.	113.92
2969	-0.8854	3.2826	0.	114.83
2970	7.	-7.25	0.	116.47
2971	6.7499	-7.	0.	116.45
2972	7.	-6.75	0.	114.53
2973	7.25	-7.	0.	116.25
2974	0.85884	-5.9767	0.	116.75
2975	1.2974	-6.0382	0.	116.64
2976	1.0442	-6.2647	0.	114.8
2977	1.2141	-5.7957	0.	116.92
2978	-1.9986	-0.78396	0.	127.4
2979	-1.7458	-1.0165	0.	128.66
2980	-1.9913	-1.2591	0.	126.13
2981	1.9884	-0.74833	0.	131.69
2982	1.9867	-1.254	0.	131.85
2983	1.7413	-0.99988	0.	134.46
2984	-6.0129	-3.2589	0.	129.72
2985	-6.2543	-3.0071	0.	132.63
2986	-6.0005	-2.7644	0.	129.37
2987	-2.7542	-4.9523	0.	130.23
2988	-2.3467	-5.0866	0.	125.38
2989	-2.4963	-5.3455	0.	127.87
2990	-4.9472	-6.2046	0.	131.59
2991	-5.1998	-5.9532	0.	129.85
2992	-4.7058	-5.9691	0.	132.31
2993	7.	-7.75	0.	118.78
2994	6.75	-7.5	0.	118.67
2995	7.25	-7.5	0.	118.48
2996	4.4986	-7.251	0.	130.76
2997	4.7493	-7.5004	0.	129.84
2998	4.4994	-7.7504	0.	129.8
2999	4.2488	-7.5009	0.	130.32
3000	-4.0032	7.7753	0.	125.91
3001	-4.2534	7.5229	0.	127.09
3002	-6.2026	-5.4346	0.	128.87
3003	-5.9669	-5.204	0.	129.95
3004	-5.7087	-5.452	0.	129.44
3005	-5.9491	-5.6858	0.	127.91
3006	3.3538	5.5513	0.	128.57
3007	3.0518	5.7804	0.	129.38
3008	5.4971	4.2991	0.	126.07
3009	5.7408	4.048	0.	126.93
3010	6.2257	3.5358	0.	125.68
3011	5.9826	3.7966	0.	126.86
3012	4.4968	-6.7526	0.	131.57
3013	4.7484	-7.0012	0.	131.34
3014	4.493	-5.7584	0.	131.15
3015	4.4884	-5.2648	0.	130.67
3016	4.237	-5.5118	0.	130.66
3017	4.7436	-5.5098	0.	131.29
3018	5.2496	-7.5002	0.	128.36
3019	4.9996	-7.7502	0.	128.84
3020	4.9992	-7.2506	0.	130.43
3021	3.499	-7.7506	0.	130.58
3022	3.2485	-7.501	0.	131.05
3023	3.7485	-7.5011	0.	130.56
3024	3.4972	-7.2516	0.	131.02
3025	2.7068	-5.5099	0.	128.14
3026	2.971	-5.7584	0.	130.36
3027	-2.5067	0.56607	0.	133.03
3028	-2.3057	0.77991	0.	133.62
3029	-2.5602	0.9788	0.	133.28
3030	-2.739	0.65832	0.	133.06
3031	2.4385	0.78891	0.	132.86
3032	2.1884	1.0334	0.	132.78
3033	2.7617	-0.49783	0.	129.15
3034	2.4823	-0.23604	0.	130.5
3035	2.2415	-0.49494	0.	130.66
3036	1.7069	1.528	0.	129.07
3037	1.9457	1.2745	0.	131.43
3038	1.9479	1.7649	0.	129.14
3039	2.4489	-2.7686	0.	131.72
3040	2.1748	-2.9925	0.	131.09
3041	-5.4946	-0.76158	0.	125.92
3042	-5.493	-1.2668	0.	127.51
3043	-5.7443	-1.0118	0.	126.69
3044	-5.746	-0.50818	0.	123.9
3045	-5.9958	-0.75839	0.	124.72
3046	-5.9973	-0.25582	0.	121.15
3047	-6.2467	-0.50618	0.	122.56
3048	-5.5447	-3.7703	0.	128.94
3049	-5.7827	-3.5162	0.	129.11
3050	-3.3844	3.0389	0.	132.58
3051	-3.6048	2.7591	0.	132.35
3052	-3.8469	2.9708	0.	133.22
3053	-4.0849	3.1739	0.	133.11
3054	-4.3126	3.4006	0.	132.14
3055	-4.2443	-0.50576	0.	130.96
3056	-3.9946	-0.24943	0.	132.2
3057	-5.4964	-0.25757	0.	123.6
3058	-5.245	-0.5097	0.	126.4
3059	-3.3297	1.5758	0.	130.31
3060	-3.5474	1.2967	0.	130.73
3061	-3.5734	1.7972	0.	130.45
3062	-3.8027	1.5339	0.	130.07
3063	-3.4921	0.27065	0.	132.31
3064	-3.7439	9.0904e-003	0.	132.58
3065	-4.7745	6.2971	0.	130.53
3066	-5.0046	6.7066	0.	130.19
3067	-5.0824	6.1639	0.	131.55
3068	-5.2857	6.4639	0.	128.62
3069	2.4339	6.3645	0.	127.34
3070	2.4598	6.8469	0.	126.37
3071	2.1909	6.6297	0.	126.09
3072	2.7107	6.5747	0.	127.58
3073	1.3553	4.3808	0.	127.31
3074	1.5733	4.1277	0.	129.15
3075	1.6268	4.5831	0.	130.7
3076	2.3534	5.8966	0.	129.24
3077	2.6905	6.0708	0.	128.73
3078	2.1493	6.1553	0.	127.85
3079	2.1676	4.982	0.	131.9
3080	1.8953	4.783	0.	131.85
3081	-3.3134	-2.8365	0.	132.11
3082	-3.4643	-3.1223	0.	132.45
3083	-3.7549	-2.9385	0.	131.04
3084	-3.5511	-4.5405	0.	128.01
3085	-3.2189	-4.7503	0.	129.56
3086	-3.7854	-3.6567	0.	129.32
3087	-3.6225	-3.3846	0.	131.52
3088	-3.9131	-3.2008	0.	130.09
3089	0.40013	-4.6294	0.	118.67
3090	0.41843	-4.1465	0.	118.03
3091	0.18203	-4.3823	0.	118.4
3092	6.0031	1.2773	0.	126.92
3093	6.2329	1.0612	0.	129.04
3094	3.6398	1.1545	0.	131.44
3095	3.4023	0.88092	0.	134.36
3096	5.1013	1.2668	0.	121.48
3097	4.8511	1.0264	0.	116.96
3098	4.6137	1.2474	0.	121.94
3099	2.9425	0.31672	0.	131.88
3100	2.6863	0.55685	0.	133.07
3101	3.1669	0.6065	0.	134.46
3102	3.4406	-1.8569	0.	132.51
3103	3.6925	-2.1055	0.	131.17
3104	3.4482	-2.3355	0.	131.86
3105	3.2	-2.078	0.	132.26
3106	3.2434	-0.60725	0.	128.72
3107	3.4686	-0.50871	0.	128.61
3108	3.4444	-0.93138	0.	130.71
3109	3.6579	-0.74069	0.	131.86
3110	4.1995	-2.5939	0.	129.05
3111	3.9448	-2.353	0.	130.09
3112	3.7005	-2.583	0.	130.77
3113	0.124	-4.8478	0.	121.2
3114	0.33016	-5.1059	0.	120.58
3115	-0.47312	5.0579	0.	121.28
3116	-0.24	5.2681	0.	119.69
3117	-1.6232	5.4064	0.	127.51
3118	-1.4234	5.1027	0.	126.89
3119	-2.0555	5.8813	0.	126.16
3120	-1.8337	5.6364	0.	127.14
3121	-2.0176	7.3361	0.	126.02
3122	-2.018	7.8199	0.	126.85
3123	-1.7717	7.5814	0.	127.56
3124	-6.1416	6.3389	0.	117.43
3125	-6.0655	6.8125	0.	120.09
3126	-6.3433	6.7069	0.	116.65
3127	-5.8515	6.5392	0.	122.38
3128	-4.6289	5.9606	0.	130.92
3129	-4.7431	3.8762	0.	130.24
3130	-4.5027	4.087	0.	129.34
3131	-4.527	3.6309	0.	131.06
3132	-4.3322	5.4207	0.	128.6
3133	-4.5016	5.695	0.	130.29
3134	-2.4843	3.6451	0.	132.12
3135	-2.7016	3.3817	0.	132.7
3136	-2.9646	3.6256	0.	132.39
3137	-1.366	3.6074	0.	124.34
3138	-1.606	3.7908	0.	126.88
3139	-3.0744	1.3481	0.	131.13
3140	-3.2921	1.0689	0.	131.55
3141	-2.8252	1.1428	0.	132.46
3142	-3.004	0.82235	0.	132.23
3143	-3.1415	2.8352	0.	131.75
3144	-2.9225	3.108	0.	132.66
3145	-3.1855	3.352	0.	132.35
3146	-4.4227	-7.2465	0.	133.52
3147	-4.2808	-7.773	0.	131.67
3148	-4.184	-7.4888	0.	132.52
3149	-4.6591	-7.4381	0.	133.07
3150	-4.6078	-7.6365	0.	132.85
3151	-3.3619	2.5554	0.	131.54
3152	-3.1186	2.3383	0.	130.41
3153	-2.893	2.6068	0.	130.87
3154	-2.8608	1.631	0.	130.47
3155	-3.1017	1.8461	0.	130.06
3156	-2.2395	3.4128	0.	132.68
3157	-2.0368	3.6929	0.	130.51
3158	-4.6608	4.794	0.	126.56
3159	-4.4021	4.984	0.	127.4
3160	-4.4602	4.5374	0.	127.56
3161	-5.1853	3.4353	0.	128.02
3162	-5.4655	3.223	0.	123.79
3163	-5.3989	3.6783	0.	127.78
3164	-5.5824	3.4356	0.	124.13
3165	-4.9742	3.6564	0.	129.86
3166	-5.1878	3.8994	0.	129.6
3167	-4.9638	4.1277	0.	128.67
3168	-2.0196	6.8531	0.	124.88
3169	-1.7671	7.0977	0.	125.65
3170	-2.0319	6.3691	0.	124.88
3171	-1.7718	6.6123	0.	124.4
3172	-2.2698	6.6072	0.	124.86
3173	-1.7983	6.124	0.	125.14
3174	-0.68895	5.3065	0.	125.17
3175	-0.95094	5.0481	0.	124.89
3176	0.40134	-5.8597	0.	120.71
3177	0.1031	-5.9981	0.	124.58
3178	-7.4443e-002	-5.7435	0.	126.28
3179	0.22657	-5.5666	0.	122.59
3180	4.4435	-2.3567	0.	126.5
3181	4.4537	-2.8367	0.	129.2
3182	4.6985	-2.5969	0.	127.79
3183	3.6799	-1.6319	0.	132.61
3184	3.4333	-1.3826	0.	132.65
3185	2.993	-0.22077	0.	129.51
3186	2.7136	4.1014e-002	0.	130.89
3187	3.1935	0.103	0.	131.46
3188	3.2539	-0.40078	0.	128.38
3189	3.8825	0.94146	0.	132.25
3190	4.1251	1.2078	0.	126.83
3191	5.5687	1.2604	0.	124.77
3192	5.7933	1.0212	0.	129.31
3193	5.3335	1.0343	0.	122.48
3194	0.18337	-3.9163	0.	119.01
3195	0.35675	-3.6687	0.	118.83
3196	-3.6607	-4.1146	0.	127.93
3197	-3.4934	-3.8475	0.	129.28
3198	-3.3603	-4.3101	0.	127.75
3199	-2.8679	-2.6869	0.	131.12
3200	-2.3761	-2.5228	0.	127.29
3201	-2.5581	-2.8506	0.	130.38
3202	-3.0175	-3.0002	0.	133.92
3203	2.246	5.4383	0.	131.18
3204	1.9621	5.2375	0.	132.67
3205	2.0483	5.6955	0.	130.85
3206	1.085	4.1748	0.	125.92
3207	1.1424	4.6359	0.	125.34
3208	0.87141	4.4329	0.	122.
3209	2.4716	7.3327	0.	126.83
3210	2.2109	7.1105	0.	126.85
3211	2.7233	7.0718	0.	126.77
3212	2.7305	7.5611	0.	127.04
3213	2.2219	7.5899	0.	128.56
3214	2.4791	7.8175	0.	128.05
3215	-3.7745	1.03	0.	131.5
3216	-3.5105	0.78531	0.	131.81
3217	-4.4957	-0.25458	0.	131.33
3218	-4.7445	-0.50887	0.	129.2
3219	-5.0033	3.1862	0.	128.87
3220	-4.758	3.4112	0.	130.69
3221	-3.5887	2.2845	0.	131.31
3222	-3.8182	2.0257	0.	131.27
3223	-3.3453	2.0674	0.	130.2
3224	-3.8321	2.5056	0.	132.84
3225	-5.7827	-4.006	0.	130.02
3226	-5.5312	-4.2551	0.	129.75
3227	-5.3126	-4.0235	0.	129.04
3228	-6.9981	-0.75283	0.	121.96
3229	-6.9986	-0.25255	0.	121.7
3230	-7.2487	-0.50233	0.	121.07
3231	-6.7477	-0.50399	0.	121.92
3232	-5.492	-1.7734	0.	128.09
3233	-5.743	-2.0214	0.	128.64
3234	-5.4911	-2.281	0.	128.05
3235	-5.7432	-1.5168	0.	128.4
3236	2.463	-2.2764	0.	132.25
3237	2.2114	-2.5051	0.	132.65
3238	2.2247	-2.0133	0.	132.51
3239	2.4699	-1.7782	0.	131.74
3240	2.7112	-2.0446	0.	132.25
3241	1.3562	-3.1562	0.	126.99
3242	1.1064	-3.4278	0.	123.2
3243	1.3962	-3.6889	0.	123.72
3244	1.6414	-3.4482	0.	126.38
3245	1.228	1.5483	0.	126.54
3246	1.4606	1.2842	0.	129.64
3247	1.4704	1.779	0.	127.11
3248	0.9779	1.3151	0.	126.3
3249	0.74963	1.5812	0.	124.86
3250	0.99274	1.8055	0.	125.07
3251	2.4574	0.28115	0.	132.06
3252	2.2211	2.0433e-002	0.	132.14
3253	2.1983	0.53153	0.	133.57
3254	-2.2824	-2.2279	0.	125.85
3255	-2.2161	-1.9878	0.	125.76
3256	-2.4672	-1.7659	0.	126.82
3257	-2.4965	0.14938	0.	131.63
3258	-2.2608	0.35923	0.	132.36
3259	-2.721	0.45709	0.	132.56
3260	-2.2574	-7.7287e-002	0.	130.31
3261	-2.5027	-0.30263	0.	129.78
3262	2.4623	-5.7588	0.	128.13
3263	2.1849	-5.5147	0.	124.69
3264	3.2405	-6.5043	0.	132.21
3265	3.4868	-6.2559	0.	131.55
3266	3.4936	-6.7533	0.	131.57
3267	3.7418	-6.5045	0.	131.68
3268	-4.445	-6.7234	0.	134.34
3269	-4.6967	-6.4607	0.	133.17
3270	-4.2066	-6.4804	0.	134.94
3271	-4.4553	-6.2251	0.	133.88
3272	-4.1984	-6.975	0.	134.45
3273	-4.6834	-6.9492	0.	134.07
3274	-2.9553	-5.8171	0.	127.84
3275	-2.6899	-5.5715	0.	127.42
3276	-3.2142	-5.5832	0.	130.67
3277	5.4998	-7.7501	0.	126.71
3278	5.4996	-7.2503	0.	128.48
3279	5.7498	-7.5001	0.	125.37
3280	4.4949	-6.2549	0.	131.65
3281	4.7455	-6.0054	0.	131.98
3282	4.2407	-6.007	0.	131.33
3283	4.7468	-6.5029	0.	132.3
3284	4.244	-6.5042	0.	131.7
3285	4.7182	-3.5584	0.	132.17
3286	4.4623	-3.3178	0.	130.82
3287	4.4702	-3.8009	0.	131.23
3288	6.7283	3.5075	0.	124.
3289	6.4841	3.7682	0.	126.29
3290	6.9855	3.7509	0.	123.18
3291	7.2319	3.4953	0.	121.5
3292	5.5065	4.7844	0.	125.16
3293	5.7578	5.0243	0.	125.82
3294	5.263	5.0318	0.	123.95
3295	5.5109	5.2739	0.	124.
3296	5.7521	4.5352	0.	126.97
3297	0.11211	4.277	0.	116.08
3298	0.39567	4.4905	0.	117.42
3299	1.502	3.2113	0.	127.6
3300	1.486	2.7432	0.	126.51
3301	1.25	2.9931	0.	126.87
3302	3.8057	5.5531	0.	126.36
3303	3.5742	5.3182	0.	127.71
3304	3.535	5.7991	0.	128.39
3305	4.0303	5.7907	0.	124.99
3306	4.2844	5.5428	0.	123.72
3307	6.9447	0.9063	0.	122.94
3308	7.177	0.66168	0.	119.1
3309	7.1481	1.1675	0.	121.63
3310	6.4805	0.86093	0.	128.07
3311	6.7318	0.68779	0.	124.66
3312	8.41	-0.7471	0.	129.2
3313	8.0345	-0.51453	0.	121.06
3314	8.1575	-0.30351	0.	123.76
3315	8.4286	-0.51796	0.	128.28
3316	8.1028	1.2557	0.	122.14
3317	8.357	1.0168	0.	123.22
3318	8.1356	0.77964	0.	121.83
3319	8.0511	1.7437	0.	122.2
3320	8.3124	1.5015	0.	123.08
3321	8.0166	2.2449	0.	121.98
3322	8.2773	1.9995	0.	122.92
3323	7.9975	2.7453	0.	121.26
3324	8.2549	2.4993	0.	122.43
3325	7.9915	3.2453	0.	120.03
3326	8.245	2.9977	0.	121.51
3327	8.2434	3.4977	0.	120.17
3328	7.9926	3.7465	0.	118.34
3329	7.7379	3.4945	0.	119.73
3330	5.7628	6.0139	0.	126.55
3331	5.5093	6.2597	0.	121.94
3332	5.5117	5.7666	0.	123.28
3333	-8.0962	3.6709	0.	130.97
3334	-7.8849	3.8878	0.	130.52
3335	-8.3316	3.9264	0.	129.39
3336	-8.0794	4.1533	0.	128.72
3337	-7.9999	-0.25157	0.	121.82
3338	-8.2499	-0.50086	0.	121.02
3339	-7.7494	-0.50149	0.	120.3
3340	-7.9997	-0.75082	0.	118.36
3341	-1.5552	3.2978	0.	127.13
3342	-1.3114	3.1095	0.	122.51
3343	-5.6139	3.8605	0.	125.95
3344	-5.8725	4.0034	0.	123.12
3345	-6.0448	3.8053	0.	119.29
3346	-5.7973	3.6178	0.	122.37
3347	-9.4098e-002	-4.6008	0.	120.91
3348	-5.303e-002	-4.1522	0.	119.34
3349	-0.29235	-4.3626	0.	126.34
3350	-2.0439	-2.7192	0.	122.84
3351	-2.2259	-3.0471	0.	125.94
3352	-1.9312	-3.2511	0.	116.68
3353	-1.7113	-2.9756	0.	116.53
3354	-6.3865	6.1747	0.	113.57
3355	-6.8598	6.2997	0.	113.04
3356	-6.6493	5.983	0.	108.01
3357	-6.5881	6.5428	0.	112.87
3358	-6.4409	-5.6618	0.	127.92
3359	-6.4621	-5.1882	0.	129.31
3360	-6.7008	-5.4175	0.	127.29
3361	1.9803	-0.23847	0.	132.28
3362	1.7399	-0.49357	0.	133.62
3363	0.5547	-6.1887	0.	116.77
3364	0.71555	-5.6828	0.	118.08
3365	0.76321	2.5432	0.	126.08
3366	1.2417	2.5189	0.	125.42
3367	0.9999	2.2901	0.	124.96
3368	1.0057	2.7688	0.	125.75
3369	7.3959	0.34845	0.	116.66
3370	7.5507	3.3464e-002	0.	115.03
3371	7.8543	0.12888	0.	118.6
3372	5.6955	-2.6077	0.	129.48
3373	5.4534	-2.8399	0.	130.65
3374	5.441	-2.3634	0.	127.48
3375	5.1971	-2.5999	0.	128.3
3376	-0.35479	7.99	0.	123.13
3377	0.14875	7.9547	0.	115.86
3378	-0.3394	7.7652	0.	123.95
3379	-8.1111e-002	7.6325	0.	118.13
3380	-9.0351e-002	8.196	0.	120.17
3381	-0.57028	7.8442	0.	127.1
3382	-0.81672	8.0698	0.	127.39
3383	-0.56527	8.2986	0.	125.45
3384	-1.7728	8.0645	0.	127.7
3385	-1.525	8.3082	0.	127.82
3386	-1.2877	8.0691	0.	128.41
3387	-1.5265	7.826	0.	128.41
3388	-2.266	8.0573	0.	126.59
3389	-2.0172	8.3033	0.	126.93
3390	-2.7621	8.0486	0.	125.82
3391	-2.5132	8.296	0.	126.09
3392	-3.7548	8.0271	0.	125.24
3393	-3.2585	8.0387	0.	125.4
3394	-3.506	8.2782	0.	125.07
3395	-4.2524	8.016	0.	125.37
3396	-4.0029	8.2675	0.	124.78
3397	-4.5026	7.7636	0.	126.56
3398	-4.752	7.5082	0.	128.36
3399	-4.5046	7.2721	0.	128.34
3400	-4.7505	8.0077	0.	126.17
3401	-4.5015	8.2596	0.	124.8
3402	6.0082	5.2694	0.	126.83
3403	6.0124	5.7662	0.	128.26
3404	6.2583	5.5148	0.	129.29
3405	5.7613	5.519	0.	125.01
3406	-4.3985	-8.0879	0.	129.71
3407	-4.1002	-8.2764	0.	130.55
3408	-3.8675	-7.9699	0.	132.38
3409	-4.5886	-8.3707	0.	130.36
3410	-4.7255	-7.9515	0.	130.88
3411	-4.8775	-8.1825	0.	135.15
3412	-7.73	-4.9517	0.	114.46
3413	-7.2244	-4.9443	0.	120.58
3414	-7.4836	-4.7097	0.	114.86
3415	-7.4665	-5.1766	0.	118.14
3416	-8.2367	-4.9702	0.	113.53
3417	-7.9886	-4.7197	0.	112.51
3418	-7.9745	-5.1931	0.	112.76
3419	7.25	-8.	0.	120.14
3420	7.75	-8.	0.	121.62
3421	7.5	-8.25	0.	121.03
3422	7.5	-7.75	0.	119.86
3423	6.75	-8.	0.	120.32
3424	7.	-8.25	0.	120.43
3425	6.2499	-8.	0.	122.15
3426	6.4999	-7.75	0.	120.23
3427	6.5	-8.25	0.	121.39
3428	5.7499	-8.	0.	124.78
3429	5.9999	-8.25	0.	123.53
3430	5.9999	-7.7501	0.	123.44
3431	5.2498	-8.0001	0.	127.18
3432	5.4999	-8.2501	0.	125.97
3433	4.7496	-8.0002	0.	128.79
3434	4.9998	-8.2501	0.	127.95
3435	4.2495	-8.0003	0.	129.67
3436	4.4997	-8.2502	0.	129.26
3437	3.7494	-8.0004	0.	130.21
3438	3.9989	-7.7509	0.	130.19
3439	3.9996	-8.2503	0.	130.04
3440	3.2494	-8.0004	0.	131.12
3441	3.4996	-8.2503	0.	130.7
3442	2.9996	-8.2503	0.	131.76
3443	2.7495	-8.0005	0.	134.16
3444	2.999	-7.7508	0.	131.59
3445	8.	-7.75	0.	122.74
3446	8.25	-7.5	0.	124.54
3447	7.75	-7.5	0.	120.97
3448	8.	-7.25	0.	123.05
3449	8.	-8.25	0.	122.84
3450	8.25	-8.	0.	123.98
3451	-0.99983	-7.7593	0.	128.76
3452	-0.75009	-8.0069	0.	131.77
3453	-1.2502	-8.005	0.	131.1
3454	-1.0003	-8.2558	0.	129.79
3455	-7.5587	6.6657	0.	122.36
3456	-7.7865	6.9411	0.	123.89
3457	-7.5251	7.1958	0.	119.47
3458	-7.291	6.91	0.	118.16
3459	-7.8188	6.4189	0.	126.66
3460	-8.0696	6.1772	0.	130.51
3461	-8.0465	6.6943	0.	128.21
3462	-8.3008	6.4463	0.	129.84
3463	8.0009	-2.8038	0.	119.99
3464	8.2488	-2.5473	0.	124.48
3465	7.7525	-2.5344	0.	115.83
3466	7.97	-2.3748	0.	117.62
3467	2.987	7.7929	0.	127.75
3468	3.2388	7.535	0.	128.48
3469	2.9821	7.3002	0.	126.97
3470	1.7177	8.0844	0.	129.91
3471	1.9764	8.3184	0.	129.5
3472	1.9706	7.8426	0.	129.97
3473	2.2278	8.0702	0.	129.5
3474	-4.9351	-6.6865	0.	132.9
3475	-5.1902	-6.441	0.	129.34
3476	-5.9016	6.0444	0.	121.86
3477	-6.1775	5.8371	0.	114.69
3478	-0.45583	5.5167	0.	123.53
3479	-0.19971	5.6941	0.	119.
3480	-5.631e-003	5.5204	0.	116.93
3481	-0.37534	-4.8105	0.	123.88
3482	-0.16867	-5.0448	0.	124.39
3483	6.1076	-0.48612	0.	129.26
3484	6.0136	-0.97043	0.	129.48
3485	6.2785	-0.77263	0.	128.63
3486	5.8264	-0.70065	0.	134.21
3487	3.9319	-1.8805	0.	131.29
3488	4.1888	-2.1158	0.	127.53
3489	-5.4428	-6.1896	0.	127.59
3490	-5.4547	-5.7028	0.	129.09
3491	-5.6952	-5.9367	0.	127.55
3492	-6.4271	-6.1374	0.	125.81
3493	-6.1874	-5.913	0.	126.95
3494	-6.6806	-5.8857	0.	128.24
3495	3.645	0.66791	0.	135.09
3496	3.4179	0.39278	0.	133.99
3497	5.0833	0.79385	0.	117.84
3498	4.8407	0.55468	0.	107.95
3499	4.603	0.77119	0.	118.3
3500	6.274	0.55369	0.	131.7
3501	6.0231	0.80498	0.	131.36
3502	0.48052	-2.9453	0.	120.14
3503	0.25432	-3.193	0.	119.01
3504	-6.7995e-002	-2.9597	0.	119.51
3505	0.15124	-2.7159	0.	116.97
3506	-3.0281	-4.5199	0.	129.25
3507	-2.6855	-4.6951	0.	136.61
3508	-3.1683	-3.286	0.	134.24
3509	-3.3304	-3.5754	0.	131.47
3510	0.43413	7.7556	0.	110.06
3511	0.68311	8.0319	0.	115.93
3512	0.43239	8.2496	0.	115.15
3513	-8.3098	4.913	0.	125.33
3514	-7.8276	4.8736	0.	129.12
3515	-8.0759	5.1495	0.	126.96
3516	-8.064	4.6443	0.	126.01
3517	-5.0044	7.2423	0.	129.47
3518	-4.757	7.0061	0.	129.46
3519	-5.2606	6.993	0.	128.66
3520	-5.2836	2.9739	0.	124.6
3521	-5.5242	2.7387	0.	119.36
3522	-5.6578	3.2081	0.	121.5
3523	-5.7855	2.9277	0.	118.15
3524	-4.0742	2.7173	0.	133.69
3525	-4.3141	2.9447	0.	133.33
3526	-8.0005	0.24688	0.	124.46
3527	-8.2502	-1.956e-003	0.	123.74
3528	-7.7497	-2.3904e-003	0.	123.52
3529	-8.079	3.1905	0.	131.58
3530	-7.8643	3.4238	0.	132.07
3531	-8.3283	3.4399	0.	130.98
3532	-7.8217	2.9529	0.	130.63
3533	-8.0495	2.7096	0.	130.56
3534	-8.3059	2.9556	0.	130.82
3535	-6.0206	-3.7519	0.	130.18
3536	-6.2647	-3.5024	0.	131.91
3537	-6.2264	-4.9576	0.	130.38
3538	-5.9913	-4.7231	0.	131.07
3539	-5.7328	-4.9705	0.	130.53
3540	-7.2485	-1.0022	0.	120.18
3541	-7.4992	-1.251	0.	116.22
3542	-7.499	-0.75165	0.	119.29
3543	-7.7494	-1.001	0.	117.27
3544	-5.9945	-1.2618	0.	127.61
3545	-6.2456	-1.008	0.	126.11
3546	1.9832	-1.7511	0.	132.31
3547	1.7388	-1.4981	0.	133.79
3548	2.2284	-1.5161	0.	131.56
3549	1.6221	-2.9274	0.	129.97
3550	1.9373	-2.729	0.	132.03
3551	1.9073	-3.2194	0.	129.42
3552	1.9482	0.77606	0.	133.48
3553	1.6993	1.0307	0.	131.99
3554	-2.0062	-0.31833	0.	128.87
3555	-1.7511	-0.54133	0.	128.75
3556	-2.2515	-0.54367	0.	128.35
3557	-1.8646	0.79487	0.	132.2
3558	-2.0598	0.57306	0.	132.95
3559	-2.1139	1.0083	0.	134.49
3560	1.509	-6.2849	0.	115.92
3561	1.4296	-5.8075	0.	117.96
3562	1.7444	-6.0336	0.	120.6
3563	2.7264	-6.0073	0.	130.33
3564	2.9841	-6.2555	0.	131.97
3565	3.2304	-6.0071	0.	131.3
3566	-0.74902	-7.5123	0.	130.2
3567	-1.2489	-7.5061	0.	128.96
3568	-0.99534	-7.2628	0.	127.93
3569	-2.6885	-6.0246	0.	123.53
3570	-2.4422	-6.2548	0.	116.42
3571	-2.4231	-5.7791	0.	123.26
3572	-2.1611	-5.979	0.	120.29
3573	-3.9597	-7.2173	0.	133.43
3574	-3.716	-7.452	0.	133.45
3575	-3.7706	-7.6858	0.	133.23
3576	-3.7151	-6.0154	0.	133.66
3577	-3.9639	-6.2441	0.	134.94
3578	-4.2126	-5.9889	0.	133.88
3579	-3.9652	-5.7516	0.	133.38
3580	6.2498	-7.0001	0.	120.94
3581	6.4999	-6.75	0.	116.1
3582	6.4999	-7.25	0.	118.69
3583	4.9984	-6.7515	0.	132.07
3584	5.2492	-7.0007	0.	130.53
3585	5.2418	-4.5205	0.	133.89
3586	4.9911	-4.7702	0.	132.01
3587	4.7347	-4.5271	0.	131.27
3588	4.9846	-4.2825	0.	132.29
3589	5.2099	-3.0773	0.	131.72
3590	4.9648	-3.3176	0.	132.14
3591	4.7089	-3.0771	0.	130.79
3592	4.9536	-2.8373	0.	129.41
3593	7.2422	4.0014	0.	121.29
3594	7.495	4.2494	0.	117.77
3595	7.7433	3.9978	0.	118.19
3596	7.4886	3.7458	0.	119.61
3597	5.9959	4.2841	0.	127.82
3598	6.2409	4.0289	0.	127.45
3599	-0.25036	3.5704	0.	110.8
3600	-0.46293	3.426	0.	111.15
3601	1.0391	3.7105	0.	127.37
3602	0.80943	3.9636	0.	124.45
3603	1.303	3.9217	0.	127.76
3604	4.2668	6.0278	0.	122.92
3605	4.5101	6.267	0.	119.54
3606	4.5209	5.78	0.	121.64
3607	2.9672	6.281	0.	128.95
3608	3.233	6.0282	0.	129.2
3609	7.235	-3.0375	0.	110.85
3610	7.7417	-3.0268	0.	115.23
3611	7.4918	-3.2684	0.	110.26
3612	7.4934	-2.7575	0.	111.05
3613	6.964	0.44317	0.	120.82
3614	7.1295	0.18559	0.	113.44
3615	6.5253	0.38056	0.	128.36
3616	6.7201	0.2648	0.	126.18
3617	5.9377	-2.3798	0.	129.66
3618	5.9336	-1.9125	0.	129.61
3619	5.6832	-2.1355	0.	127.67
3620	6.1735	-2.1604	0.	129.46
3621	6.1948	-2.6167	0.	130.9
3622	5.9538	-2.8449	0.	129.56
3623	6.725	-3.0632	0.	115.99
3624	6.4572	-2.8472	0.	126.37
3625	6.4775	-3.3042	0.	117.65
3626	6.2162	-3.0753	0.	124.88
3627	6.9859	-3.2889	0.	111.6
3628	6.9693	-2.8262	0.	110.21
3629	4.0103	6.276	0.	125.65
3630	3.7595	6.0366	0.	127.02
3631	0.76857	3.4921	0.	128.89
3632	1.2666	3.4601	0.	128.1
3633	1.0147	3.2418	0.	127.36
3634	0.31229	4.0082	0.	119.23
3635	0.53889	3.7452	0.	126.08
3636	0.59586	4.2218	0.	120.57
3637	1.9518e-002	3.7694	0.	113.43
3638	6.0035	4.7751	0.	127.63
3639	6.2546	5.0169	0.	128.96
3640	6.2497	4.5224	0.	129.79
3641	6.9947	4.2543	0.	124.65
3642	6.7413	4.0115	0.	125.47
3643	5.4673	-3.3145	0.	134.04
3644	5.7117	-3.0772	0.	130.74
3645	5.2485	-6.5017	0.	133.4
3646	4.9974	-6.2534	0.	132.63
3647	5.7496	-7.0003	0.	126.88
3648	5.4993	-6.7508	0.	131.9
3649	5.9997	-6.7502	0.	125.11
3650	5.9998	-7.2501	0.	123.76
3651	-3.2072	-6.0348	0.	129.5
3652	-2.9576	-6.2747	0.	124.94
3653	-3.4653	-6.2666	0.	134.37
3654	-3.4661	-5.8009	0.	132.34
3655	-3.96	-6.7319	0.	135.05
3656	-3.7141	-6.4953	0.	135.64
3657	-3.7166	-6.9777	0.	134.41
3658	0.25645	-6.3272	0.	120.68
3659	1.3161e-002	-6.3972	0.	126.58
3660	-0.19185	-6.164	0.	128.47
3661	-0.72648	-6.5451	0.	130.3
3662	-1.2101	-6.49	0.	126.44
3663	-0.9797	-6.7668	0.	127.86
3664	-0.93629	-6.2733	0.	127.26
3665	2.7468	-7.0025	0.	132.7
3666	2.9931	-6.7531	0.	132.45
3667	2.9974	-7.2516	0.	131.83
3668	3.2461	-7.0022	0.	131.8
3669	2.4829	-6.2567	0.	131.62
3670	2.2251	-6.0126	0.	126.44
3671	-1.6019	0.58351	0.	130.8
3672	-1.6772	1.0074	0.	130.83
3673	-1.4216	0.80281	0.	126.02
3674	-2.0217	0.13256	0.	131.04
3675	-1.7971	0.3617	0.	131.55
3676	-1.762	-7.937e-002	0.	129.11
3677	-1.8196	-2.4576	0.	123.38
3678	-2.0442	-2.2035	0.	124.65
3679	1.962	0.27081	0.	133.62
3680	1.7237	1.6982e-002	0.	134.04
3681	1.6979	0.52628	0.	135.23
3682	0.9346	0.8056	0.	127.01
3683	0.72858	1.1053	0.	126.11
3684	1.2104	1.051	0.	129.43
3685	1.0447	-2.9101	0.	125.35
3686	0.68009	-2.702	0.	118.75
3687	0.79494	-3.1817	0.	121.57
3688	1.4195	-2.657	0.	131.7
3689	1.2022	-2.6581	0.	129.36
3690	1.9731	-2.242	0.	132.91
3691	1.7347	-2.4586	0.	133.73
3692	1.7389	-1.9851	0.	133.13
3693	-8.4024	-8.4669	0.	117.56
3694	-8.6552	-8.6806	0.	120.83
3695	-8.8586	-8.4407	0.	123.38
3696	-8.6317	-8.1523	0.	123.89
3697	-6.2458	-2.0109	0.	129.9
3698	-5.9951	-2.2664	0.	129.06
3699	-5.9941	-1.7648	0.	128.96
3700	-6.9979	-1.2528	0.	123.54
3701	-6.7471	-1.0046	0.	124.04
3702	-6.7231	-4.9474	0.	127.28
3703	-6.9812	-4.708	0.	125.05
3704	-6.9618	-5.1768	0.	125.27
3705	-6.4838	-4.7125	0.	131.58
3706	-6.012	-4.24	0.	131.05
3707	-6.2487	-4.4781	0.	132.26
3708	-5.7606	-4.4892	0.	130.79
3709	-6.2636	-3.9939	0.	131.33
3710	-7.3357	2.9735	0.	124.47
3711	-7.556	2.7161	0.	129.98
3712	-7.607	3.1862	0.	131.11
3713	-8.0255	2.2245	0.	128.36
3714	-7.7838	2.4728	0.	129.92
3715	-8.2822	2.4697	0.	129.35
3716	-7.7637	1.9844	0.	127.48
3717	-8.0116	1.7347	0.	125.68
3718	-8.2662	1.9805	0.	126.95
3719	-8.0019	0.7446	0.	125.3
3720	-8.2532	0.99302	0.	125.15
3721	-7.7521	0.99455	0.	126.14
3722	-8.0049	1.2409	0.	124.78
3723	-7.7506	0.49657	0.	126.69
3724	-8.2511	0.49604	0.	125.26
3725	-6.9993	0.24786	0.	122.57
3726	-6.7486	-2.9386e-003	0.	120.63
3727	-7.2491	-2.534e-003	0.	122.69
3728	-4.0616	2.2468	0.	132.78
3729	-4.2924	2.0002	0.	133.07
3730	-4.0475	1.7624	0.	130.89
3731	-4.3059	2.4789	0.	134.86
3732	-5.0254	2.715	0.	127.81
3733	-4.7872	2.9464	0.	130.54
3734	-4.7474	-3.0462e-003	0.	129.95
3735	-4.999	0.24673	0.	128.21
3736	-5.2476	-5.2198e-003	0.	125.01
3737	-4.9962	-0.25734	0.	127.82
3738	-4.4995	0.25048	0.	133.86
3739	-4.2461	1.7552e-003	0.	132.56
3740	-4.2646	1.0106	0.	132.66
3741	-4.0298	1.2672	0.	130.83
3742	-4.0095	0.76457	0.	132.59
3743	-5.9833	7.2839	0.	123.29
3744	-6.2257	7.2255	0.	119.12
3745	-5.7557	7.0236	0.	124.78
3746	-4.9999	7.7524	0.	127.96
3747	-5.246	7.503	0.	129.99
3748	-4.9998	8.2541	0.	125.44
3749	-5.2481	8.0042	0.	128.38
3750	-7.6005	4.0885	0.	129.46
3751	-7.4792	3.8685	0.	132.62
3752	-7.653	3.6407	0.	131.6
3753	-6.8538	3.0438	0.	115.38
3754	-7.1373	3.2192	0.	122.72
3755	-7.0549	2.7496	0.	119.98
3756	-6.6711	3.3246	0.	106.77
3757	-6.5425	2.8338	0.	111.96
3758	-6.3977	3.1905	0.	112.91
3759	-7.3374	6.3753	0.	119.81
3760	-7.1204	6.0891	0.	114.64
3761	-7.0697	6.6196	0.	115.59
3762	-7.594	6.1443	0.	129.65
3763	-8.0816	5.6622	0.	130.4
3764	-7.8448	5.9026	0.	133.39
3765	-8.316	5.9326	0.	130.71
3766	1.7007	7.1521	0.	127.84
3767	1.9612	7.3677	0.	128.55
3768	1.942	6.8934	0.	126.54
3769	1.461	7.8587	0.	133.7
3770	1.2034	8.0767	0.	124.85
3771	1.4652	8.3219	0.	128.01
3772	0.92952	4.9008	0.	120.72
3773	0.71194	5.1619	0.	111.14
3774	0.65856	4.6979	0.	117.38
3775	1.2051	5.0907	0.	130.82
3776	1.4139	4.8383	0.	128.72
3777	1.4809	5.2909	0.	134.62
3778	1.7644	5.4947	0.	132.31
3779	1.6898	5.0385	0.	132.6
3780	-2.7076	-3.1639	0.	133.14
3781	-2.4215	-3.3511	0.	133.02
3782	-2.8793	-3.4665	0.	138.
3783	-3.1929	-4.0429	0.	129.1
3784	-3.0414	-3.756	0.	135.33
3785	-2.9015	-4.2328	0.	125.85
3786	-0.24199	-3.9168	0.	119.75
3787	-0.15407	-3.7031	0.	125.1
3788	0.56874	-3.4294	0.	120.42
3789	1.9309e-002	-3.4555	0.	125.
3790	-0.38444	-2.724	0.	116.63
3791	-0.303	-3.2222	0.	125.42
3792	-0.61811	-2.9583	0.	117.84
3793	6.2279	2.4563e-002	0.	131.29
3794	5.9504	-0.20905	0.	127.71
3795	6.3666	-0.2996	0.	130.77
3796	6.0464	0.30146	0.	139.12
3797	6.4897	0.17304	0.	130.33
3798	5.5581	0.79502	0.	127.03
3799	5.7955	0.55275	0.	138.78
3800	5.3242	0.56839	0.	123.04
3801	3.8893	0.45198	0.	140.26
3802	4.123	0.7259	0.	128.82
3803	3.4544	-7.7012e-002	0.	130.29
3804	3.6622	0.17686	0.	139.3
3805	3.711	-0.31199	0.	126.6
3806	-6.6679	-6.3541	0.	126.75
3807	-7.1582	-6.3165	0.	134.85
3808	-6.9188	-6.5631	0.	128.76
3809	-6.9214	-6.1024	0.	129.14
3810	-7.1181	-7.9066	0.	135.46
3811	-7.3958	-8.1161	0.	134.42
3812	-7.1873	-8.353	0.	131.78
3813	-6.958	-8.1303	0.	136.73
3814	-7.0221	-7.4656	0.	131.33
3815	-7.2981	-7.6755	0.	136.27
3816	-6.8429	-7.7116	0.	131.19
3817	8.5156	8.9291	0.	128.26
3818	8.7528	8.8532	0.	131.26
3819	8.3358	8.6964	0.	119.76
3820	8.5964	8.5409	0.	133.92
3821	3.9094	-1.4208	0.	132.89
3822	4.1336	-1.1853	0.	131.36
3823	3.6629	-1.1716	0.	132.91
3824	3.8763	-0.9809	0.	133.98
3825	4.1728	-1.6421	0.	128.06
3826	5.9546	-1.4433	0.	130.15
3827	5.6859	-1.6589	0.	128.09
3828	6.18	-1.7007	0.	130.74
3829	6.2131	-1.2384	0.	132.18
3830	5.7203	-1.1804	0.	131.52
3831	4.6876	-2.1146	0.	123.85
3832	4.4297	-1.8774	0.	124.3
3833	5.4355	-1.8819	0.	126.19
3834	5.1865	-2.1184	0.	124.35
3835	-1.9824	-5.2359	0.	119.82
3836	-2.1321	-5.4948	0.	122.3
3837	-1.8701	-5.6947	0.	119.41
3838	-0.90406	5.5674	0.	127.7
3839	-1.3659	5.6128	0.	128.09
3840	-1.0997	5.8465	0.	128.6
3841	-1.1661	5.309	0.	127.49
3842	-0.63341	5.7989	0.	128.49
3843	-0.53257	7.393	0.	129.95
3844	-0.79628	7.6063	0.	129.61
3845	-1.5192	6.857	0.	125.15
3846	-1.2649	7.1052	0.	128.84
3847	-1.5211	7.343	0.	127.18
3848	-1.2624	6.6127	0.	123.26
3849	-1.5382	6.3673	0.	124.65
3850	-5.4082	5.9447	0.	129.7
3851	-5.2144	5.6459	0.	133.91
3852	-4.9369	5.8274	0.	131.93
3853	-5.6921	5.7258	0.	129.49
3854	-5.6115	6.2448	0.	126.79
3855	-5.4414	4.1641	0.	129.79
3856	-1.998	3.2012	0.	131.83
3857	-1.7441	2.9678	0.	131.44
3858	-1.7952	3.4813	0.	129.68
3859	-2.2034	2.9148	0.	133.88
3860	-2.4569	3.1493	0.	133.25
3861	-2.6315	1.8996	0.	130.01
3862	-2.3951	1.6736	0.	132.26
3863	-2.6116	1.4258	0.	131.8
3864	-2.3926	2.1497	0.	128.15
3865	-2.8724	2.1146	0.	129.61
3866	-2.6468	2.3831	0.	130.04
3867	-4.9199	-7.1408	0.	133.61
3868	-5.1556	-7.3706	0.	133.41
3869	-4.86	-7.5559	0.	133.14
3870	-5.1796	-6.9216	0.	130.5
3871	-6.7241	-7.284	0.	126.59
3872	-7.2117	-7.226	0.	130.65
3873	-6.9491	-7.02	0.	127.68
3874	-5.4347	-6.6762	0.	126.94
3875	-5.6858	-6.4256	0.	124.79
3876	-6.426	-6.6173	0.	122.73
3877	-6.1778	-6.3971	0.	123.61
3878	2.9912	8.2841	0.	129.55
3879	3.2421	8.0289	0.	130.08
3880	2.7356	8.0493	0.	128.79
3881	7.2883	8.7957	0.	127.69
3882	7.0325	8.82	0.	131.97
3883	6.8009	8.5314	0.	135.85
3884	7.2373	8.4318	0.	131.16
3885	7.0781	8.3484	0.	134.97
3886	2.7402	8.5371	0.	129.62
3887	3.245	8.5224	0.	131.52
3888	2.9946	8.7745	0.	129.74
3889	2.2333	8.5505	0.	128.84
3890	2.4898	8.7867	0.	128.71
3891	2.4847	8.3022	0.	128.85
3892	1.9825	8.7949	0.	128.02
3893	1.7239	8.556	0.	127.55
3894	-1.2773	8.5481	0.	127.1
3895	-1.0251	8.7877	0.	126.34
3896	-1.04	8.309	0.	127.7
3897	-0.78855	8.5377	0.	125.75
3898	-1.5179	8.79	0.	126.84
3899	-1.7693	8.5469	0.	127.06
3900	-3.0077	8.7759	0.	125.51
3901	-3.0096	8.2877	0.	125.49
3902	-2.7607	8.5351	0.	125.76
3903	-3.2571	8.5272	0.	125.16
3904	-4.252	8.5111	0.	124.21
3905	-4.0024	8.7615	0.	124.45
3906	-3.7541	8.5187	0.	124.61
3907	-4.7508	8.5059	0.	124.07
3908	-4.5014	8.7566	0.	124.07
3909	-5.25	8.5031	0.	126.4
3910	-5.0004	8.7532	0.	124.43
3911	7.9953	-3.2728	0.	121.24
3912	8.2453	-3.0255	0.	124.96
3913	-7.9376	-8.5298	0.	119.85
3914	-8.2181	-8.748	0.	118.91
3915	-8.1448	-8.2729	0.	108.72
3916	-8.279	6.9616	0.	128.92
3917	-8.0227	7.2139	0.	127.05
3918	8.25	-8.5	0.	123.87
3919	8.	-8.75	0.	123.09
3920	7.75	-8.5	0.	122.24
3921	4.7498	-8.5001	0.	128.41
3922	4.9999	-8.7501	0.	127.67
3923	5.2499	-8.5001	0.	126.73
3924	4.4999	-8.7501	0.	129.25
3925	4.2498	-8.5002	0.	129.63
3926	3.2498	-8.5002	0.	131.34
3927	3.4998	-8.7502	0.	131.53
3928	3.7498	-8.5002	0.	130.54
3929	2.9999	-8.7502	0.	132.49
3930	2.7498	-8.5002	0.	133.25
3931	-8.7417	-4.9924	0.	119.1
3932	-8.4932	-4.7366	0.	113.95
3933	-8.483	-5.2267	0.	114.69
3934	-8.4999	-0.75052	0.	120.65
3935	-8.7499	-1.0003	0.	122.56
3936	-8.4999	-1.2502	0.	117.59
3937	-8.2497	-1.0005	0.	117.92
3938	-8.5002	-0.25124	0.	122.98
3939	-8.75	-0.50063	0.	123.89
3940	-8.5008	0.2472	0.	124.56
3941	-8.7504	-1.5284e-003	0.	125.13
3942	-8.7532	0.99389	0.	125.68
3943	-8.5024	0.74446	0.	125.11
3944	-8.5058	1.2401	0.	125.31
3945	-8.5523	4.6831	0.	126.18
3946	-8.7945	4.4475	0.	126.49
3947	-8.5586	4.1876	0.	127.55
3948	-8.3065	4.4145	0.	126.89
3949	-8.7932	4.946	0.	126.1
3950	-8.554	5.1844	0.	126.73
3951	-8.5333	6.7136	0.	130.55
3952	-8.7836	6.4658	0.	130.04
3953	-8.5472	6.2017	0.	130.03
3954	-8.7709	6.9758	0.	130.66
3955	-8.518	7.2256	0.	132.15
3956	-4.2902	-8.5591	0.	131.24
3957	-4.0254	-8.7742	0.	132.59
3958	-3.7896	-8.5006	0.	132.11
3959	-4.5133	-8.8266	0.	134.15
3960	-4.7628	-8.6176	0.	129.47
3961	-7.7457	-8.7934	0.	124.54
3962	-7.6633	-8.331	0.	128.86
3963	-7.4548	-8.5679	0.	126.34
3964	-8.4709	-8.9618	0.	122.06
3965	-8.8868	-8.928	0.	124.05
3966	-8.8082	-9.1712	0.	123.97
3967	8.5	-7.75	0.	125.77
3968	8.75	-7.5	0.	127.38
3969	8.5	-7.25	0.	127.52
3970	8.5	-8.25	0.	125.01
3971	8.75	-8.	0.	126.23
3972	8.75	-8.5	0.	125.64
3973	8.5	-8.75	0.	124.71
3974	6.2658	6.0168	0.	133.61
3975	6.0139	6.2621	0.	132.08
3976	-4.8509	5.0619	0.	127.42
3977	-5.0392	5.3447	0.	132.
3978	-4.5923	5.2519	0.	128.28
3979	-4.7617	5.5262	0.	129.95
3980	8.7397	-2.5186	0.	131.73
3981	8.4791	-2.2431	0.	132.72
3982	8.4932	-2.769	0.	129.46
3983	8.4968	3.2501	0.	121.67
3984	8.747	3.5002	0.	123.02
3985	8.4957	3.7492	0.	120.38
3986	8.5023	2.7516	0.	122.68
3987	8.7493	3.0015	0.	123.71
3988	8.7563	2.5035	0.	124.27
3989	8.5156	2.2539	0.	123.37
3990	8.8138	1.0141	0.	125.44
3991	8.5841	0.76555	0.	124.81
3992	8.5666	1.2626	0.	124.15
3993	-5.4153	-7.1514	0.	130.34
3994	-5.6818	-6.9229	0.	121.55
3995	-1.9495	2.6814	0.	133.41
3996	-2.1663	2.4118	0.	130.47
3997	-2.4205	2.6451	0.	132.42
3998	-1.9397	1.6694	0.	134.73
3999	-2.1562	1.9238	0.	130.32
4000	-2.1519	1.455	0.	134.55
4001	-5.1065	4.8679	0.	125.9
4002	-4.924	4.5951	0.	126.74
4003	-5.2948	5.1508	0.	130.39
4004	-5.3999	4.6652	0.	127.86
4005	-5.4983	5.427	0.	133.43
4006	-1.008	6.8609	0.	126.87
4007	-1.0346	6.3581	0.	125.19
4008	-0.75245	-5.4012	0.	130.19
4009	-0.55664	-5.6433	0.	131.44
4010	-0.85103	-5.8098	0.	130.38
4011	5.1809	-1.6294	0.	120.45
4012	5.4516	-1.396	0.	129.44
4013	4.9319	-1.8659	0.	118.69
4014	4.6741	-1.6287	0.	118.88
4015	9.0877	8.1983	0.	128.23
4016	9.3274	7.967	0.	125.65
4017	8.8945	7.9268	0.	127.46
4018	9.1078	7.7081	0.	125.77
4019	9.0142	8.7055	0.	130.38
4020	9.2972	8.4649	0.	128.63
4021	8.8579	8.3931	0.	133.36
4022	9.	-8.25	0.	126.86
4023	9.	-8.75	0.	126.3
4024	9.25	-8.5	0.	127.2
4025	9.	-7.75	0.	127.84
4026	9.25	-8.	0.	127.94
4027	9.25	-7.5	0.	128.99
4028	9.	-7.25	0.	129.36
4029	9.	-6.25	0.	131.64
4030	8.75	-6.5	0.	132.43
4031	9.25	-6.5	0.	131.06
4032	9.	-6.75	0.	130.96
4033	9.	-5.75	0.	131.36
4034	8.75	-6.	0.	132.24
4035	9.25	-6.	0.	130.81
4036	8.9999	-5.2502	0.	131.41
4037	8.75	-5.5001	0.	133.13
4038	9.25	-5.5	0.	130.39
4039	8.9999	-4.7507	0.	131.6
4040	8.7499	-5.0006	0.	134.19
4041	9.25	-5.0003	0.	130.77
4042	8.9997	-4.2521	0.	131.97
4043	8.7498	-4.5016	0.	133.07
4044	9.2499	-4.501	0.	131.08
4045	8.999	-3.7549	0.	132.88
4046	8.7495	-4.0042	0.	132.48
4047	9.2496	-4.0024	0.	132.21
4048	8.9971	-3.2591	0.	133.38
4049	8.7481	-3.5089	0.	133.13
4050	9.2488	-3.505	0.	133.29
4051	8.9925	-2.7652	0.	133.85
4052	9.2468	-3.0088	0.	133.62
4053	8.746	-3.0156	0.	131.58
4054	8.9882	-2.2816	0.	134.88
4055	9.242	-2.5146	0.	133.92
4056	8.9347	-1.8048	0.	132.52
4057	8.7276	-2.0062	0.	135.72
4058	9.2362	-2.0299	0.	133.54
4059	8.9494	-1.2852	0.	129.78
4060	8.6751	-1.7664	0.	132.46
4061	9.1732	-1.5421	0.	129.19
4062	9.0379	-0.74586	0.	131.15
4063	8.8054	-0.95889	0.	131.46
4064	9.2572	-1.0091	0.	129.32
4065	9.0601	-0.23663	0.	130.44
4066	9.2913	-0.4939	0.	130.36
4067	8.8455	-0.47014	0.	130.98
4068	9.2943	8.915e-003	0.	129.2
4069	9.0584	0.26197	0.	128.45
4070	8.8244	1.4503e-002	0.	128.27
4071	9.0392	1.2614	0.	126.26
4072	9.2846	1.01	0.	127.35
4073	9.0514	0.76175	0.	127.07
4074	9.0239	1.7588	0.	125.84
4075	9.2734	1.5084	0.	126.93
4076	8.792	1.5099	0.	124.98
4077	9.0112	2.2558	0.	125.57
4078	9.2624	2.006	0.	126.74
4079	8.7705	2.0062	0.	124.66
4080	9.0034	2.7534	0.	125.3
4081	9.2549	2.5037	0.	126.72
4082	8.9995	3.2516	0.	125.06
4083	9.2507	3.002	0.	126.84
4084	9.2491	3.5009	0.	127.18
4085	8.9981	3.7504	0.	125.12
4086	-8.0262	-9.0116	0.	123.55
4087	-8.3328	-9.24	0.	123.09
4088	-7.546	-9.036	0.	129.89
4089	-7.8455	-9.2704	0.	126.36
4090	-4.2485	-9.0417	0.	135.53
4091	-4.4899	-9.2955	0.	138.01
4092	-4.7283	-9.0756	0.	140.97
4093	-8.7533	7.9926	0.	130.33
4094	-9.2526	7.9953	0.	127.19
4095	-9.0022	8.2451	0.	126.9
4096	-9.0057	7.7406	0.	129.45
4097	-9.0212	6.728	0.	130.15
4098	-9.2625	6.9868	0.	129.66
4099	-9.0124	7.2347	0.	130.49
4100	-9.0291	6.2208	0.	129.32
4101	-9.2689	6.4811	0.	129.34
4102	-9.2741	5.9761	0.	128.52
4103	-9.034	5.7147	0.	128.13
4104	-8.7928	5.9567	0.	129.31
4105	-9.0355	4.7103	0.	126.39
4106	-9.276	4.9706	0.	126.35
4107	-9.0349	5.2109	0.	126.86
4108	-9.2773	4.4712	0.	126.4
4109	-9.0384	4.2123	0.	127.06
4110	-9.	-0.75038	0.	125.81
4111	-9.2501	-0.50038	0.	128.14
4112	-9.0003	-0.25092	0.	126.05
4113	8.2511	9.099	0.	121.01
4114	8.7229	9.0421	0.	127.13
4115	8.4916	9.3283	0.	123.83
4116	7.7581	9.04	0.	119.63
4117	8.0712	8.8662	0.	112.56
4118	8.0069	9.3069	0.	119.87
4119	7.2442	9.0243	0.	125.82
4120	7.6121	8.7535	0.	119.28
4121	7.4992	9.2558	0.	122.43
4122	6.7459	9.0251	0.	130.77
4123	6.9933	9.282	0.	127.96
4124	6.2534	8.9995	0.	129.66
4125	6.5143	8.7365	0.	134.78
4126	6.5009	9.2532	0.	129.23
4127	6.0036	8.7471	0.	128.75
4128	6.0018	9.2486	0.	126.9
4129	5.7526	8.9982	0.	125.56
4130	3.9993	8.7544	0.	127.13
4131	3.9999	9.2533	0.	126.32
4132	4.2499	9.0028	0.	124.67
4133	3.749	9.0075	0.	127.93
4134	2.239	9.0312	0.	127.88
4135	2.4943	9.2712	0.	127.97
4136	2.7441	9.0242	0.	128.81
4137	1.9893	9.2744	0.	127.11
4138	1.7323	9.0337	0.	126.57
4139	-1.7622	9.0303	0.	126.34
4140	-1.5098	9.2731	0.	126.04
4141	-1.2657	9.0296	0.	126.07
4142	-2.2598	9.0272	0.	126.16
4143	-2.0083	9.2719	0.	126.17
4144	-2.0136	8.7872	0.	126.56
4145	-2.7577	9.0228	0.	125.8
4146	-2.5067	9.2688	0.	126.06
4147	-2.5106	8.782	0.	126.04
4148	-3.0052	9.2655	0.	125.84
4149	-3.2554	9.0174	0.	125.35
4150	-7.8705	-8.0741	0.	117.61
4151	-7.5758	-7.885	0.	135.1
4152	-7.6492	-6.3024	0.	125.58
4153	-7.4022	-6.5229	0.	134.47
4154	-7.4172	-6.0815	0.	133.21
4155	3.9188	-5.8125e-002	0.	135.18
4156	4.1239	0.24279	0.	136.2
4157	5.5617	0.32612	0.	134.16
4158	5.769	6.7849e-002	0.	135.08
4159	-2.5932	-3.6537	0.	137.43
4160	-2.75	-3.9458	0.	131.79
4161	0.9875	5.3517	0.	121.22
4162	1.276	5.5387	0.	134.6
4163	1.2048	7.6258	0.	128.01
4164	1.4534	7.4012	0.	132.83
4165	1.7138	7.6169	0.	133.76
4166	-6.9546	3.5	0.	113.86
4167	-7.2348	3.6596	0.	130.15
4168	-7.4086	3.4319	0.	129.34
4169	-8.5071	7.7364	0.	132.82
4170	-8.2617	7.4779	0.	130.25
4171	-8.7595	7.4845	0.	131.99
4172	-4.506	0.75305	0.	134.48
4173	-4.7511	0.50027	0.	132.07
4174	-4.2508	0.50706	0.	134.46
4175	-4.5367	2.2322	0.	135.07
4176	-4.784	2.4749	0.	131.75
4177	-4.5458	2.7063	0.	134.5
4178	-7.5009	0.74652	0.	127.49
4179	-7.25	0.49769	0.	125.61
4180	-7.4998	0.2473	0.	125.8
4181	-7.522	2.2327	0.	129.
4182	-7.2752	2.4922	0.	125.46
4183	-6.5003	-4.2319	0.	132.5
4184	-6.7419	-4.4731	0.	129.29
4185	-6.4969	-1.7562	0.	130.69
4186	-6.7471	-1.5044	0.	127.72
4187	-6.2452	-1.51	0.	129.76
4188	-6.4963	-1.2562	0.	128.32
4189	-9.	-1.2502	0.	126.61
4190	-9.25	-1.0002	0.	129.08
4191	-9.0953	-8.2157	0.	130.11
4192	-9.0902	-8.688	0.	126.59
4193	-9.3155	-8.4652	0.	128.69
4194	-9.0867	-7.7375	0.	135.11
4195	-8.8684	-7.9273	0.	130.51
4196	-9.3269	-7.9852	0.	131.88
4197	-9.177	-6.7747	0.	135.44
4198	-9.1297	-7.2488	0.	132.82
4199	-9.3832	-7.0054	0.	128.96
4200	-9.363	-6.5273	0.	138.18
4201	-8.9802	-6.5427	0.	134.85
4202	-9.0708	-6.3065	0.	135.1
4203	-8.9894	-5.26	0.	123.46
4204	-9.2393	-5.5145	0.	128.09
4205	-8.9815	-5.7924	0.	125.69
4206	-8.7308	-5.4943	0.	119.05
4207	-8.9958	-4.7513	0.	124.6
4208	-9.2449	-5.0042	0.	128.44
4209	1.5005	-2.2017	0.	133.91
4210	1.2875	-2.4318	0.	132.07
4211	1.4597	0.27245	0.	135.56
4212	1.1731	0.53551	0.	131.33
4213	1.449	0.78092	0.	133.76
4214	-1.2463	-2.4751	0.	119.5
4215	-1.5141	-2.229	0.	122.92
4216	-1.4871	-2.714	0.	117.36
4217	-1.5375	0.14977	0.	129.59
4218	-1.3151	0.3905	0.	125.79
4219	8.	-9.25	0.	123.33
4220	8.25	-9.	0.	123.94
4221	7.75	-9.	0.	122.72
4222	6.5	-9.25	0.	122.81
4223	6.5	-8.75	0.	122.25
4224	6.75	-9.	0.	122.28
4225	6.25	-9.	0.	123.29
4226	5.	-9.25	0.	127.73
4227	4.7499	-9.0001	0.	128.51
4228	5.2499	-9.	0.	126.72
4229	3.2499	-9.0001	0.	132.69
4230	3.4999	-9.2501	0.	132.81
4231	3.7499	-9.0001	0.	131.49
4232	2.7499	-9.0001	0.	133.38
4233	3.	-9.2501	0.	134.07
4234	2.4943	-6.7542	0.	133.46
4235	2.7406	-6.5049	0.	133.24
4236	2.2438	-6.5084	0.	129.73
4237	-0.24897	-6.5809	0.	130.15
4238	-0.49109	-6.8019	0.	131.3
4239	-0.45398	-6.3478	0.	132.1
4240	-3.7565	-9.01	0.	133.82
4241	-4.0006	-9.268	0.	136.24
4242	-0.75001	-9.0022	0.	132.46
4243	-1.2501	-9.0019	0.	131.98
4244	-1.	-9.2517	0.	133.98
4245	-1.0001	-8.7533	0.	131.21
4246	-1.7009	-6.4674	0.	123.11
4247	-1.4705	-6.7264	0.	125.83
4248	-1.4162	-6.1682	0.	120.56
4249	-3.2156	-6.5066	0.	129.82
4250	-3.4707	-6.7411	0.	134.98
4251	8.4987	-3.7582	0.	132.69
4252	8.2471	-3.5127	0.	127.55
4253	8.497	-3.2654	0.	131.34
4254	8.5	-6.25	0.	133.
4255	8.25	-6.5	0.	129.27
4256	8.5	-6.75	0.	130.97
4257	5.7494	-6.5007	0.	130.07
4258	5.4991	-6.2518	0.	133.74
4259	5.7271	-3.5466	0.	132.26
4260	5.4809	-3.7908	0.	135.03
4261	5.2223	-3.5548	0.	134.44
4262	9.0563	6.7336	0.	132.28
4263	9.309	6.9819	0.	130.62
4264	8.8588	6.9802	0.	132.78
4265	9.0943	7.221	0.	128.28
4266	0.67098	0.64803	0.	124.98
4267	0.43726	0.57231	0.	119.23
4268	0.16386	0.77166	0.	112.05
4269	0.46496	0.9477	0.	124.04
4270	0.51988	3.2695	0.	128.65
4271	0.24611	3.5064	0.	120.21
4272	3.7479	8.5099	0.	130.28
4273	3.496	8.2672	0.	132.
4274	3.4976	8.763	0.	131.15
4275	6.2645	8.4841	0.	133.75
4276	6.4582	8.226	0.	136.05
4277	6.6321	8.245	0.	136.83
4278	6.8193	6.5449	0.	136.75
4279	6.525	6.2703	0.	140.81
4280	6.5022	6.769	0.	141.02
4281	6.273	6.5156	0.	139.28
4282	3.7464	6.5258	0.	129.15
4283	3.4905	6.7804	0.	131.21
4284	3.2299	6.5392	0.	130.33
4285	3.4956	6.2864	0.	130.58
4286	6.7014	-2.6102	0.	120.32
4287	6.4306	-2.3974	0.	130.62
4288	6.6284	-0.15113	0.	129.51
4289	6.8856	7.2224e-003	0.	118.77
4290	-7.0577	-9.0427	0.	135.5
4291	-7.2551	-8.8105	0.	131.61
4292	-7.3531	-9.2812	0.	132.68
4293	9.	-9.25	0.	126.
4294	9.25	-9.	0.	126.71
4295	8.75	-9.	0.	125.38
4296	-9.015	-9.1694	0.	125.37
4297	-9.3129	-8.9518	0.	126.98
4298	-8.7503	8.9985	0.	127.25
4299	-9.2503	8.9988	0.	124.73
4300	-9.0002	9.249	0.	125.68
4301	-9.0007	8.7476	0.	125.45
4302	8.9769	9.2323	0.	127.83
4303	9.2264	8.9773	0.	128.55
4304	6.6198	7.5299	0.	131.22
4305	6.8688	7.3139	0.	134.01
4306	6.7802	7.7866	0.	130.97
4307	-8.3741	-7.9583	0.	114.57
4308	-8.8512	-7.6833	0.	132.82
4309	-9.3097	-7.4959	0.	133.9
4310	-8.1349	-6.3566	0.	109.76
4311	-7.9159	-6.0929	0.	112.33
4312	-8.5855	-6.4749	0.	118.81
4313	-8.4104	-6.1803	0.	110.6
4314	-7.4253	-6.9756	0.	131.29
4315	-7.1627	-6.7695	0.	128.59
4316	-7.4877	-7.4359	0.	135.51
4317	4.2997	-0.95777	0.	134.96
4318	4.3969	-1.4066	0.	126.6
4319	4.085	-0.53112	0.	132.53
4320	3.9003	-0.54397	0.	129.78
4321	4.0425	-0.75334	0.	137.41
4322	4.5954	0.30019	0.	114.72
4323	4.3577	0.5167	0.	125.46
4324	5.0816	0.32921	0.	112.52
4325	5.6692	-0.42358	0.	132.51
4326	-0.57359	-4.5723	0.	129.28
4327	-0.48131	-4.1273	0.	126.64
4328	-0.66601	-5.0033	0.	125.78
4329	-0.45933	-5.2377	0.	126.33
4330	-2.1268	-3.5551	0.	123.73
4331	-1.6275	-3.4705	0.	109.06
4332	-1.1011	-3.4173	0.	112.88
4333	-0.54825	-3.4399	0.	124.46
4334	-0.86336	-3.1759	0.	117.98
4335	-1.4076	-3.195	0.	109.23
4336	-2.278	-4.8295	0.	131.9
4337	-2.5589	-4.408	0.	133.23
4338	0.48133	5.4701	0.	109.66
4339	-0.37729	5.9764	0.	123.81
4340	-0.82907	6.078	0.	129.3
4341	3.1588e-002	5.7263	0.	115.42
4342	0.69818	7.5675	0.	113.01
4343	0.94716	7.8438	0.	119.49
4344	0.20427	7.4334	0.	112.22
4345	-0.27428	7.2604	0.	124.11
4346	-0.76162	7.1378	0.	131.63
4347	1.4306	6.9386	0.	129.99
4348	1.3426	5.9946	0.	131.71
4349	1.5594	5.7425	0.	132.55
4350	1.3929	6.4657	0.	130.96
4351	1.6273	6.2064	0.	128.72
4352	1.6718	6.6799	0.	128.81
4353	-6.4404	5.6454	0.	109.02
4354	-6.91	5.7724	0.	109.3
4355	-5.968	5.5186	0.	122.33
4356	-5.7	4.307	0.	126.59
4357	-5.2174	4.3923	0.	128.93
4358	-6.0973	3.9939	0.	119.5
4359	-6.4982	3.6748	0.	108.71
4360	-6.2248	3.5406	0.	114.88
4361	-7.5586	4.5832	0.	130.8
4362	-7.6078	5.1126	0.	131.6
4363	-7.4085	4.093	0.	131.17
4364	-7.795	4.3539	0.	127.71
4365	-5.4983	8.2532	0.	129.3
4366	-5.4942	7.7548	0.	130.34
4367	-5.5	8.7517	0.	128.32
4368	-8.5022	8.2437	0.	131.2
4369	-8.5007	8.7473	0.	129.55
4370	-8.5003	9.2489	0.	128.87
4371	-8.7511	8.4963	0.	127.81
4372	-4.5149	1.2526	0.	133.4
4373	-4.5249	1.747	0.	133.75
4374	-4.28	1.5092	0.	131.61
4375	-7.5028	1.2445	0.	127.04
4376	-7.5076	1.7406	0.	127.48
4377	-7.7556	1.4909	0.	125.72
4378	-6.5076	-3.7444	0.	133.04
4379	-6.5061	-3.2506	0.	134.83
4380	-6.5016	-2.7536	0.	134.61
4381	-6.4985	-2.2554	0.	132.17
4382	-6.2478	-2.5109	0.	131.34
4383	1.4944	-1.7321	0.	134.58
4384	1.4934	-1.2441	0.	136.4
4385	1.4927	-0.74512	0.	136.38
4386	1.4833	-0.23812	0.	135.36
4387	0.83759	-2.45	0.	122.76
4388	0.35081	-2.4726	0.	115.45
4389	-0.16521	-2.4802	0.	113.78
4390	-0.69547	-2.4804	0.	114.85
4391	-0.92914	-2.7147	0.	116.2
4392	0.66836	0.46774	0.	120.26
4393	0.20265	0.39067	0.	110.87
4394	-0.28277	0.43627	0.	105.19
4395	-7.0751e-002	0.59002	0.	103.83
4396	-0.32419	0.63697	0.	101.81
4397	-0.66629	0.67717	0.	107.5
4398	-0.8025	0.44722	0.	112.03
4399	-1.4965	-1.7425	0.	125.93
4400	-1.7387	-1.9749	0.	124.14
4401	-1.4949	-1.256	0.	129.27
4402	-1.7404	-1.4985	0.	126.71
4403	-1.4982	-0.77391	0.	130.01
4404	-1.5069	-0.30237	0.	128.96
4405	1.2558	-6.5114	0.	114.02
4406	1.7507	-6.5155	0.	119.87
4407	0.7401	-6.4768	0.	114.76
4408	0.2303	-6.5206	0.	121.56
4409	-2.2038	-6.4865	0.	116.34
4410	-1.9227	-6.2108	0.	120.31
4411	-2.7113	-6.5049	0.	117.5
4412	-5.2496	0.49785	0.	123.55
4413	-5.7491	0.49773	0.	118.1
4414	-5.4982	0.24589	0.	120.39
4415	-6.2491	0.49807	0.	116.79
4416	-5.9985	0.24663	0.	118.56
4417	-6.7494	0.49822	0.	119.58
4418	-6.4987	0.24743	0.	117.67
4419	-5.2661	2.4798	0.	122.5
4420	-5.7436	2.465	0.	116.54
4421	-6.2247	2.5101	0.	113.83
4422	-6.0049	2.654	0.	115.34
4423	-6.7436	2.5396	0.	116.57
4424	-6.2498	2.7161	0.	113.66
4425	-6.2105	7.464	0.	120.33
4426	-5.7299	7.514	0.	127.62
4427	-6.725	7.4238	0.	116.53
4428	-6.5035	7.1199	0.	115.69
4429	-7.7614	7.4686	0.	122.61
4430	-7.2537	7.4524	0.	117.54
4431	-7.0196	7.1666	0.	116.23
4432	-8.7474	-4.4955	0.	119.44
4433	-9.2485	-4.5009	0.	131.35
4434	-8.2451	-4.4861	0.	112.92
4435	-7.7422	-4.4777	0.	112.87
4436	-7.2403	-4.4734	0.	119.29
4437	-8.7499	-1.5001	0.	121.6
4438	-9.25	-1.5001	0.	131.98
4439	-8.2498	-1.5002	0.	115.38
4440	-7.2486	-1.5017	0.	119.56
4441	-7.7495	-1.5005	0.	114.66
4442	-7.9997	-1.2505	0.	115.79
4443	2.4982	-7.2521	0.	134.11
4444	2.4999	-8.7501	0.	134.11
4445	2.5	-9.25	0.	134.1
4446	2.4997	-8.2504	0.	135.66
4447	2.4993	-7.7509	0.	135.84
4448	2.7487	-7.5013	0.	133.26
4449	-0.49997	-8.7528	0.	132.5
4450	-0.49993	-9.2514	0.	133.57
4451	-0.4999	-8.2551	0.	133.27
4452	-0.75009	-8.5039	0.	131.29
4453	-0.49799	-7.273	0.	131.18
4454	-0.7443	-7.0236	0.	128.92
4455	-0.49928	-7.7599	0.	133.21
4456	-1.4937	-7.2465	0.	128.26
4457	-1.2401	-7.0033	0.	127.22
4458	-1.5002	-8.7518	0.	131.72
4459	-1.5001	-9.251	0.	132.64
4460	-1.5001	-8.2525	0.	132.29
4461	-1.2502	-8.5032	0.	130.98
4462	-1.4992	-7.7518	0.	131.31
4463	-3.5207	-8.7364	0.	133.31
4464	-3.5036	-9.2496	0.	134.19
4465	-3.5569	-8.1941	0.	133.92
4466	-3.4729	-7.2124	0.	134.39
4467	-3.5255	-7.6789	0.	134.41
4468	8.4996	-4.2536	0.	133.55
4469	8.5	-5.7501	0.	133.98
4470	8.4999	-5.2505	0.	135.91
4471	8.4999	-4.7514	0.	135.67
4472	7.75	-6.5	0.	119.73
4473	8.	-6.75	0.	124.38
4474	7.25	-6.5	0.	113.97
4475	7.5	-6.75	0.	115.76
4476	6.2498	-6.5002	0.	120.26
4477	6.7499	-6.5	0.	114.12
4478	6.2328	-3.538	0.	121.65
4479	5.9715	-3.3092	0.	129.01
4480	7.7454	-3.5144	0.	116.28
4481	7.2427	-3.5199	0.	111.02
4482	6.7384	-3.5299	0.	113.21
4483	5.4989	-5.7535	0.	134.64
4484	5.248	-6.0035	0.	133.
4485	5.4981	-5.2567	0.	136.63
4486	5.247	-5.5068	0.	133.77
4487	5.4911	-4.2728	0.	135.06
4488	5.2339	-4.0348	0.	133.48
4489	5.4962	-4.7623	0.	136.67
4490	5.2454	-5.012	0.	134.78
4491	8.7487	4.4998	0.	122.24
4492	9.2493	4.5	0.	130.97
4493	8.9984	4.25	0.	126.24
4494	8.2478	4.4995	0.	117.26
4495	8.4971	4.2494	0.	118.49
4496	7.2476	4.5023	0.	121.11
4497	6.7482	4.5101	0.	128.56
4498	7.7474	4.4998	0.	116.85
4499	7.9957	4.2483	0.	117.31
4500	7.3196	6.4739	0.	120.98
4501	7.0109	6.8205	0.	135.46
4502	7.3387	6.7313	0.	121.51
4503	8.7829	6.4966	0.	127.95
4504	9.2755	6.4904	0.	134.59
4505	8.2586	6.5349	0.	112.92
4506	8.5854	6.7432	0.	128.27
4507	7.7587	6.4731	0.	108.12
4508	7.7778	6.7306	0.	108.64
4509	6.5117	5.7654	0.	134.64
4510	6.5047	5.2624	0.	131.41
4511	6.5008	4.7642	0.	131.08
4512	-1.5152	1.5937	0.	126.38
4513	-1.7145	1.4352	0.	133.36
4514	-1.1273	1.4066	0.	113.83
4515	-1.313	1.36	0.	119.49
4516	-0.73208	1.1741	0.	108.92
4517	-0.86864	1.0749	0.	111.26
4518	-1.1267	1.232	0.	116.29
4519	-0.31771	0.9302	0.	103.78
4520	-0.65982	0.97039	0.	109.46
4521	0.50031	1.3713	0.	124.58
4522	0.51472	1.8378	0.	126.61
4523	0.52113	2.3153	0.	127.92
4524	0.75783	2.0622	0.	126.8
4525	0.52345	2.7936	0.	127.46
4526	0.76597	3.0192	0.	127.22
4527	-1.5002	2.7794	0.	126.78
4528	-1.0738	2.9507	0.	116.83
4529	-0.65626	3.1305	0.	112.04
4530	-0.23663	3.3618	0.	110.73
4531	4.2492	8.5028	0.	123.57
4532	4.7499	8.5005	0.	119.91
4533	4.4998	8.7512	0.	121.14
4534	5.2508	8.4997	0.	120.21
4535	5.0004	8.75	0.	121.
4536	5.7526	8.4981	0.	124.8
4537	5.5016	8.7492	0.	121.64
4538	6.4047	7.7428	0.	135.06
4539	6.565	7.9996	0.	135.01
4540	6.4449	7.2605	0.	136.74
4541	6.6938	7.0446	0.	139.83
4542	5.7604	6.5079	0.	127.49
4543	5.257	6.5073	0.	120.36
4544	4.2537	6.5152	0.	122.23
4545	4.7559	6.5098	0.	119.07
4546	3.4939	7.7711	0.	130.76
4547	3.4915	7.2755	0.	130.39
4548	3.2347	7.0408	0.	128.9
4549	8.2004	-2.0707	0.	125.85
4550	7.2277	-2.5462	0.	110.32
4551	7.7151	-2.3332	0.	113.7
4552	6.4199	-1.9486	0.	130.47
4553	6.5375	-0.58611	0.	130.06
4554	6.478	-1.0406	0.	131.29
4555	6.4385	-1.4958	0.	132.78
4556	8.613	-0.68317	0.	131.34
4557	7.6628	-0.33157	0.	114.99
4558	7.9664	-0.23615	0.	118.56
4559	7.2844	-0.1294	0.	111.56
4560	-5.6545	-9.0923	0.	117.39
4561	-5.4441	-9.3245	0.	124.8
4562	-5.1951	-9.0954	0.	135.68
4563	-6.5791	-9.0524	0.	124.82
4564	-6.8639	-9.2834	0.	132.9
4565	-6.1139	-9.0733	0.	110.23
4566	-6.3862	-9.2975	0.	115.65
4567	-5.9146	-9.3137	0.	110.48
4568	-4.9778	-8.8666	0.	135.99
4569	-5.0518	-8.4294	0.	134.09
4570	-5.3373	-7.5951	0.	132.41
4571	-6.5449	-7.5299	0.	126.45
4572	-6.4518	-7.0903	0.	123.66
4573	-6.6828	-7.9352	0.	132.63
4574	7.9252	8.5797	0.	111.65
4575	7.5611	8.3895	0.	122.82
4576	7.2388	8.1888	0.	132.19
4577	7.0909	7.1378	0.	131.92
4578	7.4187	7.0487	0.	118.37
4579	8.75	-9.5	0.	125.26
4580	9.25	-9.5	0.	126.43
4581	8.25	-9.5	0.	124.03
4582	8.5	-9.25	0.	124.64
4583	7.75	-9.5	0.	123.03
4584	7.25	-9.5	0.	122.54
4585	7.5	-9.25	0.	122.42
4586	6.75	-9.5	0.	122.74
4587	7.	-9.25	0.	122.21
4588	6.25	-9.5	0.	123.64
4589	5.75	-9.5	0.	125.09
4590	6.	-9.25	0.	124.12
4591	5.25	-9.5	0.	126.87
4592	5.5	-9.25	0.	125.85
4593	4.75	-9.5	0.	128.79
4594	4.25	-9.5	0.	130.73
4595	4.4999	-9.25	0.	129.57
4596	3.75	-9.5	0.	132.6
4597	3.9999	-9.2501	0.	131.28
4598	3.25	-9.5	0.	134.2
4599	2.75	-9.5	0.	134.83
4600	2.25	-9.5	0.	129.13
4601	1.75	-9.5	0.	116.83
4602	1.25	-9.5	0.	109.49
4603	0.75001	-9.5	0.	109.44
4604	0.25004	-9.5001	0.	116.75
4605	-0.24992	-9.5005	0.	129.16
4606	-0.74996	-9.501	0.	135.16
4607	-1.25	-9.5008	0.	134.69
4608	-1.75	-9.5004	0.	128.08
4609	-2.25	-9.5001	0.	115.85
4610	-2.7501	-9.5	0.	116.21
4611	-3.2498	-9.501	0.	129.19
4612	-3.7476	-9.5076	0.	136.65
4613	-4.242	-9.5218	0.	138.76
4614	-4.7323	-9.5376	0.	137.9
4615	-5.2197	-9.5467	0.	129.59
4616	-4.9707	-9.3177	0.	140.84
4617	-5.7042	-9.5459	0.	117.71
4618	-6.1869	-9.538	0.	115.69
4619	-6.6711	-9.5284	0.	123.69
4620	-7.1593	-9.5219	0.	129.8
4621	-7.6526	-9.5156	0.	129.23
4622	-8.1522	-9.4988	0.	125.91
4623	-8.6701	-9.4494	0.	124.99
4624	-9.2124	-9.4467	0.	126.6
4625	-9.5103	-9.2291	0.	128.2
4626	-9.5381	-8.7289	0.	129.09
4627	-9.5471	-8.2347	0.	130.46
4628	-9.5499	-7.7436	0.	130.6
4629	-9.5632	-7.2525	0.	129.49
4630	-9.5692	-6.758	0.	131.55
4631	-9.5338	-6.2621	0.	134.11
4632	-9.4994	-5.7632	0.	133.58
4633	-9.2416	-6.0412	0.	131.15
4634	-9.4947	-5.2586	0.	133.06
4635	-9.4975	-4.7538	0.	135.23
4636	-9.4992	-4.2514	0.	137.21
4637	-9.4999	-3.7505	0.	138.4
4638	-9.5	-3.2501	0.	140.23
4639	-9.5	-2.75	0.	140.2
4640	-9.5	-2.25	0.	138.23
4641	-9.5	-1.75	0.	136.82
4642	-9.5	-1.2501	0.	134.5
4643	-9.5	-0.75018	0.	131.42
4644	-9.5002	-0.25041	0.	129.77
4645	-9.5005	0.2491	0.	128.57
4646	-9.2503	-9.4301e-004	0.	127.67
4647	-9.5011	0.74817	0.	127.66
4648	-9.251	0.49794	0.	127.19
4649	-9.5025	1.2466	0.	127.15
4650	-9.2523	0.99629	0.	126.76
4651	-9.505	1.7442	0.	127.1
4652	-9.2549	1.4933	0.	126.69
4653	-9.5085	2.2411	0.	127.38
4654	-9.2593	1.9894	0.	127.18
4655	-9.5129	2.738	0.	127.64
4656	-9.2657	2.4845	0.	127.88
4657	-9.517	3.2354	0.	127.57
4658	-9.2732	2.9799	0.	128.27
4659	-9.5192	3.7335	0.	127.12
4660	-9.2789	3.4759	0.	128.03
4661	-9.5189	4.2322	0.	126.55
4662	-9.28	3.9732	0.	127.22
4663	-9.5178	4.7315	0.	126.35
4664	-9.5173	5.2319	0.	126.8
4665	-9.5164	5.7336	0.	127.7
4666	-9.2762	5.4722	0.	127.3
4667	-9.5139	6.2364	0.	128.54
4668	-9.5102	6.7399	0.	128.84
4669	-9.5063	7.2432	0.	128.32
4670	-9.5032	7.7458	0.	126.9
4671	-9.2562	7.4911	0.	129.17
4672	-9.5013	8.2475	0.	125.19
4673	-9.5004	8.7486	0.	124.16
4674	-9.2509	8.4974	0.	124.9
4675	-9.5001	9.2492	0.	124.32
4676	-9.2501	9.4995	0.	125.28
4677	-8.7501	9.4994	0.	127.32
4678	-8.2501	9.4996	0.	127.55
4679	-7.7501	9.4999	0.	123.33
4680	-7.25	9.5	0.	120.94
4681	-6.75	9.5	0.	120.9
4682	-6.25	9.5	0.	123.27
4683	-5.7501	9.5002	0.	127.56
4684	-5.2503	9.5007	0.	127.45
4685	-5.5002	9.2508	0.	128.38
4686	-4.7506	9.5016	0.	125.89
4687	-5.0005	9.2518	0.	125.44
4688	-4.2511	9.5031	0.	125.75
4689	-4.501	9.2537	0.	124.87
4690	-4.0018	9.2564	0.	125.18
4691	-3.7519	9.5056	0.	125.9
4692	-2.7542	9.5116	0.	126.11
4693	-3.2531	9.5088	0.	126.04
4694	-2.2552	9.5135	0.	126.08
4695	-1.756	9.5147	0.	125.87
4696	-1.2568	9.5142	0.	125.42
4697	-0.75836	9.5108	0.	124.72
4698	-1.0127	9.2707	0.	125.45
4699	-0.26074	9.5059	0.	123.94
4700	-0.51635	9.2623	0.	124.3
4701	0.23678	9.504	0.	123.53
4702	-2.0736e-002	9.2519	0.	122.98
4703	0.73622	9.508	0.	123.89
4704	0.47707	9.2553	0.	122.6
4705	1.2383	9.5138	0.	124.96
4706	0.97951	9.2673	0.	123.79
4707	1.7414	9.5158	0.	126.2
4708	1.4843	9.2751	0.	125.66
4709	2.2446	9.5145	0.	127.2
4710	2.7474	9.5116	0.	127.78
4711	3.2491	9.5075	0.	127.75
4712	2.9973	9.2646	0.	128.64
4713	3.7499	9.504	0.	126.86
4714	3.499	9.2582	0.	128.47
4715	4.2501	9.5016	0.	125.35
4716	4.7502	9.5004	0.	124.14
4717	4.5001	9.251	0.	123.7
4718	5.2502	9.4998	0.	124.1
4719	5.0004	9.25	0.	122.65
4720	5.7502	9.4997	0.	125.2
4721	5.501	9.2493	0.	123.85
4722	6.2493	9.5023	0.	126.43
4723	6.7483	9.5101	0.	126.37
4724	7.2483	9.5135	0.	124.61
4725	7.748	9.5227	0.	122.53
4726	8.2475	9.5363	0.	122.65
4727	8.7456	9.5185	0.	124.52
4728	9.2442	9.4963	0.	125.54
4729	9.4938	9.2414	0.	126.27
4730	9.5369	8.2336	0.	126.02
4731	9.5094	8.7367	0.	126.76
4732	9.549	7.7326	0.	125.89
4733	9.5441	7.2346	0.	128.42
4734	9.3294	7.4737	0.	126.1
4735	9.5282	6.7387	0.	132.93
4736	9.5112	6.2436	0.	135.48
4737	9.5023	5.7474	0.	135.4
4738	9.5002	5.2492	0.	135.05
4739	9.4995	4.2501	0.	132.89
4740	9.4998	4.7498	0.	134.86
4741	9.4996	3.7506	0.	130.19
4742	9.2486	4.0001	0.	128.12
4743	9.5002	3.2513	0.	128.96
4744	9.5022	2.7524	0.	128.27
4745	9.5061	2.2539	0.	127.9
4746	9.512	1.7556	0.	127.83
4747	9.5188	1.2569	0.	128.01
4748	9.5242	0.75733	0.	128.39
4749	9.527	0.25607	0.	128.87
4750	9.2911	0.50913	0.	128.11
4751	9.5255	-0.24836	0.	129.14
4752	9.5106	-0.75719	0.	128.51
4753	9.481	-1.2661	0.	128.39
4754	9.4747	-1.7672	0.	130.26
4755	9.49	-2.2628	0.	132.55
4756	9.4962	-2.7582	0.	133.68
4757	9.4984	-3.2547	0.	133.52
4758	9.4995	-3.7525	0.	132.6
4759	9.4998	-4.2512	0.	131.31
4760	9.5	-4.7505	0.	130.24
4761	9.5	-5.2502	0.	129.74
4762	9.5	-5.75	0.	129.83
4763	9.5	-6.25	0.	130.22
4764	9.5	-6.75	0.	130.34
4765	9.5	-7.25	0.	129.88
4766	9.25	-7.	0.	130.25
4767	9.5	-7.75	0.	129.1
4768	9.5	-8.25	0.	128.28
4769	9.5	-8.75	0.	127.61
4770	9.5	-9.25	0.	127.14
4771	8.6647	8.1216	0.	132.38
4772	8.6599	7.2172	0.	131.48
4773	8.6821	7.6766	0.	128.9
4774	8.8954	7.458	0.	127.22
4775	-1.9826	-1.7309	0.	124.93
4776	-2.2336	-1.509	0.	125.99
4777	8.75	-7.	0.	129.48
4778	-7.4992	-0.25231	0.	122.07
4779	-4.257	4.2954	0.	128.83
4780	-6.6769	-6.8264	0.	124.76
4781	-6.1811	-6.8925	0.	118.43
4782	4.3656	0.99221	0.	123.4
4783	4.9753	-3.7988	0.	132.86
4784	1.5305	3.6713	0.	128.5
4785	-8.5386	2.7157	0.	129.6
4786	-8.7753	2.4753	0.	128.57
4787	-8.523	2.2257	0.	127.93
4788	0.95038	8.3016	0.	120.86
4789	-0.26352	-5.4798	0.	127.44
4790	3.7488e-002	-5.3029	0.	123.8
4791	-4.1495	5.1843	0.	128.04
4792	-5.9773	3.3531	0.	117.96
4793	4.8906	2.4348	0.	124.71
4794	5.1411	2.2008	0.	124.24
4795	8.245	3.9981	0.	118.51
4796	8.7468	3.9995	0.	122.47
4797	-9.0165	2.2328	0.	127.68
4798	-9.0093	1.7385	0.	126.76
4799	-8.7642	1.9832	0.	127.04
4800	5.7499	-8.5	0.	124.72
4801	5.4999	-8.75	0.	125.78
4802	-0.77069	9.0222	0.	125.04
4803	-7.8561	5.3885	0.	129.71
4804	-8.3201	5.4209	0.	128.4
4805	-0.30083	8.5045	0.	122.51
4806	-4.3073e-002	8.7407	0.	121.39
4807	0.19329	8.4908	0.	119.34
4808	-8.887	-6.304	0.	127.85
4809	-0.99864	0.83974	0.	116.57
4810	-3.0897	4.4018	0.	130.39
4811	-3.04	4.8942	0.	129.15
4812	2.9315	3.1184	0.	128.93
4813	-1.0427	7.8319	0.	129.94
4814	5.5331	-0.91062	0.	136.15
4815	-4.8532	-4.0262	0.	128.56
4816	4.7392	-5.017	0.	131.33
4817	4.9943	-5.262	0.	131.93
4818	-9.0021	0.74606	0.	126.29
4819	-9.0047	1.243	0.	126.29
4820	-7.6193	5.6289	0.	132.35
4821	7.25	-8.5	0.	121.31
4822	7.5	-8.75	0.	121.87
4823	-1.0253	7.3511	0.	131.5
4824	-8.7513	0.49663	0.	125.72
4825	4.9961	-5.7567	0.	132.11
4826	1.3714	-5.2828	0.	118.95
4827	1.6567	-5.0048	0.	121.15
4828	-5.0417	-7.7804	0.	132.14
4829	-5.1938	-8.0114	0.	136.37
4830	-6.105	3.0727	0.	114.63
4831	-8.7894	2.9668	0.	129.54
4832	-9.0261	2.7264	0.	128.51
4833	-9.0351	3.2205	0.	128.73
4834	1.6712	-3.9636	0.	123.8
4835	1.9163	-3.723	0.	126.47
4836	-1.5123	1.2015	0.	126.43
4837	-1.9266	1.2208	0.	133.12
4838	5.893	2.4226	0.	124.57
4839	-1.2815	7.5888	0.	129.93
4840	0.72036	9.0146	0.	122.49
4841	1.2256	9.0286	0.	124.5
4842	0.9641	8.7806	0.	122.42
4843	6.2499	-7.5001	0.	121.52
4844	6.75	-8.5	0.	121.49
4845	6.2499	-8.5	0.	122.78
4846	-3.7531	9.0115	0.	124.84
4847	-4.2518	9.007	0.	124.32
4848	1.9063	6.4205	0.	126.57
4849	-2.2644	8.542	0.	126.44
4850	-1.1425	-5.9515	0.	121.23
4851	-1.638	-5.9116	0.	117.45
4852	4.2499	-9.0001	0.	130.12
4853	3.9998	-8.7502	0.	130.5
4854	3.2472	9.0152	0.	129.33
4855	-3.1686	3.886	0.	131.68
4856	-5.2504	9.0019	0.	126.4
4857	4.4828	-4.774	0.	130.59
4858	4.2265	-4.5291	0.	130.32
4859	4.4774	-4.2859	0.	130.9
4860	-5.4746	-5.2185	0.	130.03
4861	8.1136	0.25814	0.	121.4
4862	8.3386	-4.555e-003	0.	124.25
4863	-0.53411	8.7722	0.	124.46
4864	-8.7119	-6.0094	0.	119.8
4865	4.7273	-4.0413	0.	131.92
4866	-5.5022	7.2537	0.	129.18
4867	6.4948	4.2672	0.	129.44
4868	-4.7233	4.3385	0.	127.79
4869	-8.7957	5.4494	0.	127.49
4870	4.7503	9.0007	0.	122.18
4871	5.2512	8.9996	0.	122.38
4872	-8.8025	3.9524	0.	128.12
4873	-9.0396	3.7157	0.	128.13
4874	-2.3684	1.2071	0.	134.17
4875	-1.1699	-2.9537	0.	113.63
4876	3.7349	-6.0076	0.	131.25
4877	-8.2575	1.488	0.	124.95
4878	-3.7455	0.51989	0.	132.91
4879	-3.2223	0.53871	0.	132.49
4880	-3.9974	0.25833	0.	133.18
4881	-6.7981	6.8627	0.	115.4
4882	-8.5551	3.2049	0.	130.21
4883	4.9425	-2.3549	0.	125.22
4884	-1.5765	5.8791	0.	126.1
4885	8.6098	-0.21901	0.	128.83
4886	7.	-8.75	0.	121.53
4887	7.25	-9.	0.	122.09
4888	-5.9329	-6.6723	0.	119.46
4889	-5.9381	-6.1727	0.	124.78
4890	-3.5033	9.2606	0.	125.55
4891	-3.5048	8.7686	0.	125.
4892	7.5	-7.25	0.	118.31
4893	-5.7433	-2.526	0.	128.47
4894	-3.483	-1.2608	0.	129.83
4895	-1.1349	0.6098	0.	121.09
4896	1.633	-5.5423	0.	120.36
4897	1.9183	-5.2643	0.	122.56
4898	1.9478	-5.7684	0.	123.
4899	0.21955	9.0032	0.	122.03
4900	0.45591	8.7534	0.	120.04
4901	2.9741	6.7996	0.	127.96
4902	-3.7162	-5.5371	0.	132.06
4903	1.4769	2.2651	0.	126.11
4904	-3.5118	6.3299	0.	127.61
4905	-3.4926	5.8543	0.	127.95
4906	1.4736	8.7948	0.	126.1
4907	-5.7476	-5.2101e-003	0.	120.79
4908	-6.2481	-4.0158e-003	0.	119.38
4909	1.0708	-5.5018	0.	118.24
4910	0.54077	-5.3897	0.	120.
4911	1.8442	5.9542	0.	129.43
4912	-9.0008	0.2479	0.	126.29
4913	3.9848	-5.7603	0.	130.85
4914	-1.3104	6.1128	0.	126.67
4915	-6.4976	-0.25438	0.	120.86
4916	-0.35213	-3.6925	0.	124.92
4917	8.25	-7.	0.	126.03
4918	7.75	-7.	0.	120.38
4919	2.1872	2.0061	0.	128.89
4920	-0.36938	-5.9095	0.	130.13
4921	8.3627	0.52843	0.	123.42
4922	8.8217	0.51321	0.	126.44
4923	8.5877	0.26574	0.	126.26
4924	-1.2567	0.9969	0.	121.62
4925	5.6451	2.204	0.	124.35
4926	-8.5636	3.6953	0.	129.39
4927	-8.5546	5.6914	0.	128.67
4928	-5.5022	-4.7365	0.	130.25
4929	1.9861	-6.2643	0.	124.59
4930	4.6332	2.6684	0.	125.61
4931	-7.377	5.858	0.	124.37
4932	1.2351	2.0363	0.	125.67
4933	-4.5418	3.1714	0.	132.36
4934	1.7114	2.016	0.	127.2
4935	-2.6741	2.8797	0.	131.76
4936	5.9999	-8.75	0.	123.82
4937	0.69966	8.5193	0.	119.93
4938	1.2122	8.5468	0.	124.03
4939	8.5386	1.7573	0.	123.8
4940	-2.7267	-1.5287	0.	127.56
4941	-3.2256	-1.5234	0.	129.04
4942	-0.27635	9.0084	0.	123.34
4943	-8.7572	1.4892	0.	125.93
4944	-8.5121	1.7339	0.	126.21
4945	-5.5417	6.7503	0.	127.08
4946	-0.66378	-6.0759	0.	129.09
4947	-3.2415	5.6212	0.	127.86
4948	-3.0156	5.3807	0.	128.11
4949	-8.8008	3.4586	0.	129.4
4950	-6.4966	-0.75576	0.	124.02
4951	5.75	-9.	0.	124.89
4952	-4.7509	9.0039	0.	124.45
4953	3.9899	-6.2563	0.	131.39
4954	4.3949	2.9071	0.	126.2
4955	2.5404	4.0334	0.	130.21
4956	3.4608	3.4941	0.	128.28
4957	3.2435	3.7382	0.	128.77
4958	3.195	3.3051	0.	128.64
4959	2.9776	3.5492	0.	129.12
4960	2.7595	3.789	0.	129.57
4961	2.7153	3.3518	0.	129.09
4962	2.4971	3.5916	0.	129.53
4963	6.9093	8.062	0.	135.82
4964	-6.9405	-5.6415	0.	127.61
4965	-7.2039	-5.4091	0.	122.81
4966	-7.1804	-5.8674	0.	127.38
4967	-7.4438	-5.6349	0.	122.69
4968	-7.7111	-5.4179	0.	116.42
4969	-7.6839	-5.872	0.	119.4
4970	-7.9512	-5.655	0.	113.13
4971	-8.2209	-5.4496	0.	113.92
4972	-8.1915	-5.9167	0.	112.26
4973	-8.4612	-5.7113	0.	113.14
4974	-6.	9.	0.	98.866
4975	-8.	9.	0.	99.559
4976	-6.	8.	0.	99.061
4977	-8.	8.	0.	100.78
4978	-6.5	9.	0.	118.44
4979	-7.	9.	0.	118.03
4980	-7.5	9.	0.	118.84
4981	-6.	8.5	0.	104.15
4982	-8.	8.5	0.	105.3
4983	-7.5	8.	0.	117.13
4984	-7.	8.	0.	115.47
4985	-6.5	8.	0.	115.91
4986	-7.5	8.5	0.	116.74
4987	-7.	8.5	0.	120.06
4988	-6.5	8.5	0.	115.94
4989	-6.25	9.	0.	108.58
4990	-6.	8.75	0.	101.48
4991	-7.75	9.	0.	109.13
4992	-8.	8.75	0.	102.41
4993	-6.	8.25	0.	101.58
4994	-6.25	8.	0.	107.47
4995	-8.	8.25	0.	103.02
4996	-7.75	8.	0.	108.94
4997	-6.75	9.	0.	118.24
4998	-6.5	8.75	0.	117.16
4999	-7.25	9.	0.	118.43
5000	-7.	8.75	0.	119.03
5001	-7.5	8.75	0.	117.76
5002	-6.25	8.5	0.	110.02
5003	-7.75	8.5	0.	111.01
5004	-7.25	8.	0.	116.29
5005	-7.5	8.25	0.	116.92
5006	-6.75	8.	0.	115.67
5007	-7.	8.25	0.	117.76
5008	-6.5	8.25	0.	115.91
5009	-7.25	8.5	0.	118.39
5010	-6.75	8.5	0.	117.99
5011	-7.	-2.	0.	97.208
5012	-9.	-2.	0.	100.9
5013	-7.	-4.	0.	97.712
5014	-9.	-4.	0.	100.3
5015	-7.5	-2.	0.	112.12
5016	-8.	-2.	0.	110.5
5017	-8.5	-2.	0.	113.82
5018	-7.	-2.5	0.	101.98
5019	-7.	-3.	0.	100.79
5020	-7.	-3.5	0.	101.93
5021	-9.	-2.5	0.	105.31
5022	-9.	-3.	0.	104.32
5023	-9.	-3.5	0.	104.96
5024	-8.5	-4.	0.	112.55
5025	-8.	-4.	0.	109.33
5026	-7.5	-4.	0.	111.49
5027	-8.	-2.5	0.	113.24
5028	-7.5	-2.5	0.	109.82
5029	-7.5	-3.5	0.	109.52
5030	-8.	-3.5	0.	112.64
5031	-8.5	-3.5	0.	111.28
5032	-8.5	-2.5	0.	111.87
5033	-8.5	-3.	0.	111.17
5034	-7.5	-3.	0.	109.05
5035	-8.	-3.	0.	112.99
5036	-7.25	-2.	0.	104.6
5037	-7.	-2.25	0.	99.577
5038	-8.75	-2.	0.	107.29
5039	-9.	-2.25	0.	103.11
5040	-7.	-3.75	0.	99.811
5041	-7.25	-4.	0.	104.53
5042	-9.	-3.75	0.	102.63
5043	-8.75	-4.	0.	106.36
5044	-7.75	-2.	0.	111.31
5045	-7.5	-2.25	0.	110.94
5046	-8.25	-2.	0.	112.16
5047	-8.	-2.25	0.	111.85
5048	-8.5	-2.25	0.	112.81
5049	-7.	-2.75	0.	101.35
5050	-7.25	-2.5	0.	105.88
5051	-7.	-3.25	0.	101.33
5052	-7.25	-3.	0.	104.92
5053	-7.25	-3.5	0.	105.71
5054	-9.	-2.75	0.	104.8
5055	-8.75	-2.5	0.	108.58
5056	-9.	-3.25	0.	104.63
5057	-8.75	-3.	0.	107.74
5058	-8.75	-3.5	0.	108.12
5059	-8.25	-4.	0.	110.94
5060	-8.5	-3.75	0.	111.88
5061	-7.75	-4.	0.	110.41
5062	-8.	-3.75	0.	110.97
5063	-7.5	-3.75	0.	110.47
5064	-7.75	-2.5	0.	111.52
5065	-8.25	-2.5	0.	112.54
5066	-8.	-2.75	0.	113.11
5067	-7.5	-2.75	0.	109.42
5068	-7.75	-3.5	0.	111.07
5069	-7.5	-3.25	0.	109.27
5070	-8.25	-3.5	0.	111.96
5071	-8.	-3.25	0.	112.81
5072	-8.5	-3.25	0.	111.22
5073	-8.5	-2.75	0.	111.52
5074	-8.25	-3.	0.	112.08
5075	-7.75	-3.	0.	111.02
5076	1.	0.	0.	99.256
5077	-1.	0.	0.	92.974
5078	1.	-2.	0.	98.439
5079	-1.	-2.	0.	92.295
5080	0.5	0.	0.	110.72
5081	0.	0.	0.	104.02
5082	-0.5	0.	0.	104.1
5083	1.	-0.5	0.	102.31
5084	1.	-1.	0.	100.74
5085	1.	-1.5	0.	102.23
5086	-1.	-0.5	0.	96.65
5087	-1.	-1.	0.	95.95
5088	-1.	-1.5	0.	97.139
5089	-0.5	-2.	0.	108.05
5090	0.	-2.	0.	107.75
5091	0.5	-2.	0.	111.49
5092	0.	-1.	0.	108.
5093	0.	-0.5	0.	107.3
5094	0.5	-0.5	0.	107.57
5095	0.5	-1.	0.	106.91
5096	0.5	-1.5	0.	108.23
5097	0.	-1.5	0.	109.11
5098	-0.5	-1.5	0.	105.01
5099	-0.5	-1.	0.	103.68
5100	-0.5	-0.5	0.	103.44
5101	0.75	0.	0.	104.89
5102	1.	-0.25	0.	100.77
5103	-0.75	0.	0.	98.506
5104	-1.	-0.25	0.	94.805
5105	1.	-1.75	0.	100.32
5106	0.75	-2.	0.	104.87
5107	-1.	-1.75	0.	94.694
5108	-0.75	-2.	0.	100.1
5109	0.25	0.	0.	107.37
5110	0.5	-0.25	0.	109.11
5111	-0.25	0.	0.	104.05
5112	0.	-0.25	0.	105.65
5113	-0.5	-0.25	0.	103.75
5114	1.	-0.75	0.	101.49
5115	0.75	-0.5	0.	104.92
5116	1.	-1.25	0.	101.45
5117	0.75	-1.	0.	103.82
5118	0.75	-1.5	0.	105.21
5119	-1.	-0.75	0.	96.276
5120	-0.75	-0.5	0.	100.04
5121	-1.	-1.25	0.	96.515
5122	-0.75	-1.	0.	99.809
5123	-0.75	-1.5	0.	101.06
5124	-0.25	-2.	0.	107.9
5125	-0.5	-1.75	0.	106.51
5126	0.25	-2.	0.	109.61
5127	0.	-1.75	0.	108.42
5128	0.5	-1.75	0.	109.83
5129	0.	-0.75	0.	107.65
5130	0.25	-1.	0.	107.46
5131	0.	-1.25	0.	108.56
5132	-0.25	-1.	0.	105.84
5133	0.25	-0.5	0.	107.43
5134	-0.25	-0.5	0.	105.37
5135	0.5	-0.75	0.	107.24
5136	0.5	-1.25	0.	107.57
5137	0.25	-1.5	0.	108.65
5138	-0.25	-1.5	0.	107.04
5139	-0.5	-1.25	0.	104.33
5140	-0.5	-0.75	0.	103.55
5141	2.	-7.	0.	98.1
5142	0.	-7.	0.	96.778
5143	2.	-9.	0.	97.217
5144	0.	-9.	0.	96.533
5145	1.5	-7.	0.	111.45
5146	1.	-7.	0.	108.78
5147	0.5	-7.	0.	111.27
5148	2.	-7.5	0.	101.97
5149	2.	-8.	0.	100.44
5150	2.	-8.5	0.	101.26
5151	0.	-7.5	0.	100.76
5152	0.	-8.	0.	99.003
5153	0.	-8.5	0.	100.06
5154	0.5	-9.	0.	108.66
5155	1.	-9.	0.	105.9
5156	1.5	-9.	0.	109.02
5157	1.5	-8.	0.	107.33
5158	1.5	-8.5	0.	107.46
5159	0.5	-8.5	0.	106.78
5160	0.5	-8.	0.	106.51
5161	0.5	-7.5	0.	107.96
5162	1.5	-7.5	0.	108.6
5163	1.	-7.5	0.	110.64
5164	1.	-8.5	0.	109.15
5165	1.	-8.	0.	109.73
5166	1.75	-7.	0.	104.69
5167	2.	-7.25	0.	100.03
5168	0.25	-7.	0.	103.92
5169	0.	-7.25	0.	98.744
5170	2.	-8.75	0.	99.232
5171	1.75	-9.	0.	103.06
5172	0.	-8.75	0.	98.288
5173	0.25	-9.	0.	102.54
5174	1.25	-7.	0.	110.11
5175	1.5	-7.25	0.	109.99
5176	0.75	-7.	0.	110.02
5177	1.	-7.25	0.	109.69
5178	0.5	-7.25	0.	109.58
5179	2.	-7.75	0.	101.19
5180	1.75	-7.5	0.	105.27
5181	2.	-8.25	0.	100.83
5182	1.75	-8.	0.	103.89
5183	1.75	-8.5	0.	104.35
5184	0.	-7.75	0.	99.847
5185	0.25	-7.5	0.	104.34
5186	0.	-8.25	0.	99.498
5187	0.25	-8.	0.	102.75
5188	0.25	-8.5	0.	103.41
5189	0.75	-9.	0.	107.27
5190	0.5	-8.75	0.	107.7
5191	1.25	-9.	0.	107.45
5192	1.	-8.75	0.	107.51
5193	1.5	-8.75	0.	108.21
5194	1.5	-8.25	0.	107.39
5195	1.5	-7.75	0.	107.96
5196	1.25	-8.	0.	108.53
5197	1.25	-8.5	0.	108.3
5198	0.5	-8.25	0.	106.63
5199	0.75	-8.5	0.	107.96
5200	0.5	-7.75	0.	107.22
5201	0.75	-8.	0.	108.12
5202	0.75	-7.5	0.	109.28
5203	1.25	-7.5	0.	109.6
5204	1.	-7.75	0.	110.18
5205	1.	-8.25	0.	109.44
5206	-2.	-7.	0.	93.578
5207	-3.	-7.	0.	97.411
5208	-2.	-9.	0.	95.441
5209	-3.	-9.	0.	96.135
5210	-2.5	-7.	0.	109.56
5211	-2.	-7.5	0.	98.041
5212	-2.	-8.	0.	97.13
5213	-2.	-8.5	0.	98.775
5214	-3.	-7.5	0.	100.07
5215	-3.	-8.	0.	98.472
5216	-3.	-8.5	0.	99.679
5217	-2.5	-9.	0.	109.36
5218	-2.5	-7.5	0.	103.31
5219	-2.5	-8.	0.	100.92
5220	-2.5	-8.5	0.	103.34
5221	-2.25	-7.	0.	101.52
5222	-2.	-7.25	0.	95.797
5223	-2.75	-7.	0.	103.43
5224	-3.	-7.25	0.	98.735
5225	-2.	-8.75	0.	97.101
5226	-2.25	-9.	0.	102.35
5227	-3.	-8.75	0.	97.9
5228	-2.75	-9.	0.	102.69
5229	-2.5	-7.25	0.	106.4
5230	-2.	-7.75	0.	97.531
5231	-2.25	-7.5	0.	100.63
5232	-2.	-8.25	0.	97.904
5233	-2.25	-8.	0.	99.022
5234	-2.25	-8.5	0.	101.
5235	-3.	-7.75	0.	99.237
5236	-2.75	-7.5	0.	101.64
5237	-3.	-8.25	0.	99.041
5238	-2.75	-8.	0.	99.695
5239	-2.75	-8.5	0.	101.46
5240	-2.5	-8.75	0.	106.32
5241	-2.5	-7.75	0.	102.11
5242	-2.5	-8.25	0.	102.13
5243	8.	-4.	0.	96.897
5244	6.	-4.	0.	99.381
5245	8.	-6.	0.	98.068
5246	6.	-6.	0.	98.366
5247	7.5	-4.	0.	109.63
5248	7.	-4.	0.	107.9
5249	6.5	-4.	0.	111.72
5250	8.	-4.5	0.	101.45
5251	8.	-5.	0.	100.84
5252	8.	-5.5	0.	102.29
5253	6.	-4.5	0.	102.88
5254	6.	-5.	0.	101.6
5255	6.	-5.5	0.	102.83
5256	6.5	-6.	0.	112.03
5257	7.	-6.	0.	109.29
5258	7.5	-6.	0.	111.74
5259	7.	-5.	0.	111.35
5260	7.5	-5.	0.	108.25
5261	7.5	-5.5	0.	109.29
5262	7.	-5.5	0.	111.78
5263	6.5	-5.5	0.	109.63
5264	6.5	-5.	0.	108.83
5265	6.5	-4.5	0.	109.46
5266	7.	-4.5	0.	111.03
5267	7.5	-4.5	0.	108.33
5268	7.75	-4.	0.	103.22
5269	8.	-4.25	0.	99.164
5270	6.25	-4.	0.	105.47
5271	6.	-4.25	0.	101.12
5272	8.	-5.75	0.	100.17
5273	7.75	-6.	0.	104.83
5274	6.	-5.75	0.	100.59
5275	6.25	-6.	0.	105.12
5276	7.25	-4.	0.	108.76
5277	7.5	-4.25	0.	108.96
5278	6.75	-4.	0.	109.81
5279	7.	-4.25	0.	109.45
5280	6.5	-4.25	0.	110.56
5281	8.	-4.75	0.	101.12
5282	7.75	-4.5	0.	104.88
5283	8.	-5.25	0.	101.54
5284	7.75	-5.	0.	104.54
5285	7.75	-5.5	0.	105.77
5286	6.	-4.75	0.	102.22
5287	6.25	-4.5	0.	106.16
5288	6.	-5.25	0.	102.19
5289	6.25	-5.	0.	105.21
5290	6.25	-5.5	0.	106.22
5291	6.75	-6.	0.	110.66
5292	6.5	-5.75	0.	110.8
5293	7.25	-6.	0.	110.52
5294	7.	-5.75	0.	110.52
5295	7.5	-5.75	0.	110.48
5296	7.25	-5.	0.	109.8
5297	7.	-5.25	0.	111.57
5298	6.75	-5.	0.	110.09
5299	7.	-4.75	0.	111.19
5300	7.5	-5.25	0.	108.76
5301	7.5	-4.75	0.	108.28
5302	7.25	-5.5	0.	110.52
5303	6.75	-5.5	0.	110.69
5304	6.5	-5.25	0.	109.22
5305	6.5	-4.75	0.	109.13
5306	6.75	-4.5	0.	110.24
5307	7.25	-4.5	0.	109.68
5308	6.	8.	0.	101.38
5309	4.	8.	0.	99.637
5310	6.	7.	0.	102.87
5311	4.	7.	0.	99.615
5312	5.5	8.	0.	117.75
5313	5.	8.	0.	116.22
5314	4.5	8.	0.	117.21
5315	6.	7.5	0.	106.34
5316	4.	7.5	0.	104.56
5317	4.5	7.	0.	116.8
5318	5.	7.	0.	116.27
5319	5.5	7.	0.	119.02
5320	4.5	7.5	0.	115.44
5321	5.	7.5	0.	119.3
5322	5.5	7.5	0.	116.57
5323	5.75	8.	0.	109.53
5324	6.	7.75	0.	103.82
5325	4.25	8.	0.	108.38
5326	4.	7.75	0.	102.07
5327	6.	7.25	0.	104.56
5328	5.75	7.	0.	110.86
5329	4.	7.25	0.	102.06
5330	4.25	7.	0.	108.17
5331	5.25	8.	0.	116.98
5332	5.5	7.75	0.	117.15
5333	4.75	8.	0.	116.71
5334	5.	7.75	0.	117.75
5335	4.5	7.75	0.	116.31
5336	5.75	7.5	0.	111.43
5337	4.25	7.5	0.	109.99
5338	4.75	7.	0.	116.53
5339	4.5	7.25	0.	116.1
5340	5.25	7.	0.	117.64
5341	5.	7.25	0.	117.78
5342	5.5	7.25	0.	117.78
5343	4.75	7.5	0.	117.37
5344	5.25	7.5	0.	117.94
5345	9.	6.	0.	102.95
5346	7.	6.	0.	102.
5347	9.	5.	0.	101.02
5348	7.	5.	0.	98.985
5349	8.5	6.	0.	115.5
5350	8.	6.	0.	110.95
5351	7.5	6.	0.	114.24
5352	9.	5.5	0.	106.5
5353	7.	5.5	0.	105.02
5354	7.5	5.	0.	115.06
5355	8.	5.	0.	113.61
5356	8.5	5.	0.	116.06
5357	7.5	5.5	0.	113.7
5358	8.	5.5	0.	116.
5359	8.5	5.5	0.	114.79
5360	8.75	6.	0.	109.17
5361	9.	5.75	0.	104.71
5362	7.25	6.	0.	108.08
5363	7.	5.75	0.	103.5
5364	9.	5.25	0.	103.75
5365	8.75	5.	0.	108.49
5366	7.	5.25	0.	101.98
5367	7.25	5.	0.	106.97
5368	8.25	6.	0.	113.2
5369	8.5	5.75	0.	115.12
5370	7.75	6.	0.	112.56
5371	8.	5.75	0.	113.47
5372	7.5	5.75	0.	113.95
5373	8.75	5.5	0.	110.64
5374	7.25	5.5	0.	109.35
5375	7.75	5.	0.	114.34
5376	7.5	5.25	0.	114.35
5377	8.25	5.	0.	114.84
5378	8.	5.25	0.	114.8
5379	8.5	5.25	0.	115.4
5380	7.75	5.5	0.	114.85
5381	8.25	5.5	0.	115.39
5382	-7.22	5.35	0.	63.613
5383	-6.9	3.88	0.	97.59
5384	-5.78	4.89	0.	69.434
5385	-7.1133	4.86	0.	99.774
5386	-7.0067	4.37	0.	96.633
5387	-6.74	5.1967	0.	106.18
5388	-6.26	5.0433	0.	107.99
5389	-6.5267	4.2167	0.	91.008
5390	-6.1533	4.5533	0.	95.724
5391	-6.436	4.7491	0.	101.46
5392	-6.695	4.5155	0.	99.117
5393	-6.769	4.8555	0.	97.155
5394	-7.1667	5.105	0.	81.258
5395	-6.98	5.2733	0.	84.246
5396	-6.9533	4.125	0.	94.933
5397	-6.7133	4.0483	0.	92.7
5398	-6.02	4.9667	0.	84.463
5399	-5.9667	4.7217	0.	78.638
5400	-7.06	4.615	0.	98.047
5401	-6.9412	4.8577	0.	98.463
5402	-6.8508	4.4428	0.	97.755
5403	-6.5	5.12	0.	106.96
5404	-6.7545	5.0261	0.	101.64
5405	-6.348	4.8962	0.	104.31
5406	-6.34	4.385	0.	93.254
5407	-6.6108	4.3661	0.	95.044
5408	-6.2947	4.6512	0.	98.246
5409	-6.5655	4.6323	0.	100.19
5410	-6.6025	4.8023	0.	99.214
5411	-6.732	4.6855	0.	98.122
5412	-5.38	-8.66	0.	55.342
5413	-5.93	-7.49	0.	110.65
5414	-6.67	-8.55	0.	62.258
5415	-5.5633	-8.27	0.	99.618
5416	-5.7467	-7.88	0.	94.822
5417	-5.81	-8.6233	0.	115.3
5418	-6.24	-8.5867	0.	115.1
5419	-6.1767	-7.8433	0.	91.986
5420	-6.4233	-8.1967	0.	96.264
5421	-5.9783	-8.0609	0.	102.84
5422	-6.1501	-8.3059	0.	102.63
5423	-5.8513	-8.3314	0.	101.43
5424	-5.4717	-8.465	0.	77.031
5425	-5.595	-8.6417	0.	84.948
5426	-5.8383	-7.685	0.	100.86
5427	-6.0533	-7.6667	0.	99.837
5428	-6.455	-8.5683	0.	86.672
5429	-6.5467	-8.3733	0.	76.924
5430	-5.655	-8.075	0.	97.095
5431	-5.7073	-8.3007	0.	100.44
5432	-5.8625	-7.9705	0.	98.728
5433	-6.025	-8.605	0.	115.08
5434	-5.8307	-8.4774	0.	108.3
5435	-6.1951	-8.4463	0.	108.65
5436	-6.3	-8.02	0.	94.001
5437	-6.0775	-7.9521	0.	97.381
5438	-6.2867	-8.2513	0.	99.245
5439	-6.0642	-8.1834	0.	102.64
5440	-5.9148	-8.1962	0.	102.07
5441	-6.0007	-8.3187	0.	101.91
5442	-7.96	-7.71	0.	93.536
5443	-7.84	-6.63	0.	73.494
5444	-8.84	-7.07	0.	65.498
5445	-7.9	-7.17	0.	103.77
5446	-8.4	-7.39	0.	91.659
5447	-8.34	-6.85	0.	107.48
5448	-8.2132	-7.1368	0.	104.11
5449	-7.93	-7.44	0.	96.622
5450	-8.18	-7.55	0.	91.086
5451	-7.87	-6.9	0.	87.71
5452	-8.09	-6.74	0.	88.812
5453	-8.62	-7.23	0.	73.133
5454	-8.59	-6.96	0.	81.376
5455	-8.0566	-7.1534	0.	103.88
5456	-8.3066	-7.2634	0.	96.975
5457	-8.2766	-6.9934	0.	105.
5458	3.e-002	1.13	0.	79.585
5459	5.e-002	3.06	0.	82.039
5460	-1.63	2.12	0.	92.839
5461	3.5e-002	1.6125	0.	95.901
5462	4.e-002	2.095	0.	94.379
5463	4.5e-002	2.5775	0.	97.732
5464	-0.385	1.3775	0.	98.75
5465	-0.8	1.625	0.	103.81
5466	-1.215	1.8725	0.	110.07
5467	-0.37	2.825	0.	101.06
5468	-0.79	2.59	0.	106.04
5469	-1.21	2.355	0.	112.89
5470	-0.4453	2.3531	0.	99.358
5471	-0.2983	1.7825	0.	96.246
5472	-0.71996	2.0485	0.	104.72
5473	3.25e-002	1.3713	0.	86.874
5474	-0.1775	1.2537	0.	88.201
5475	4.75e-002	2.8187	0.	89.268
5476	-0.16	2.9425	0.	90.825
5477	-1.4225	1.9963	0.	99.525
5478	-1.42	2.2375	0.	101.25
5479	3.75e-002	1.8537	0.	95.067
5480	-0.13165	1.6975	0.	96.044
5481	4.25e-002	2.3363	0.	96.049
5482	-0.20265	2.224	0.	96.865
5483	-0.12915	1.9387	0.	95.295
5484	-0.1625	2.7013	0.	99.377
5485	-0.5925	1.5013	0.	101.24
5486	-0.34165	1.58	0.	97.427
5487	-1.0075	1.7487	0.	106.85
5488	-0.75998	1.8367	0.	104.26
5489	-1.2125	2.1137	0.	111.24
5490	-0.58	2.7075	0.	103.53
5491	-0.40765	2.589	0.	100.17
5492	-1.	2.4725	0.	109.47
5493	-0.61765	2.4715	0.	102.69
5494	-0.96498	2.2017	0.	108.75
5495	-0.58263	2.2008	0.	102.
5496	-0.50913	1.9155	0.	100.46
5497	-1.28	-5.3	0.	104.14
5498	-0.79	-3.78	0.	59.187
5499	-2.35	-4.12	0.	66.289
5500	-1.1167	-4.7933	0.	95.067
5501	-0.95333	-4.2867	0.	98.039
5502	-1.6367	-4.9067	0.	90.978
5503	-1.9933	-4.5133	0.	97.207
5504	-1.31	-3.8933	0.	108.92
5505	-1.83	-4.0067	0.	112.26
5506	-1.3153	-4.2566	0.	97.823
5507	-1.4286	-4.6081	0.	100.52
5508	-1.676	-4.3353	0.	102.44
5509	-1.1983	-5.0467	0.	97.617
5510	-1.4583	-5.1033	0.	96.177
5511	-0.87167	-4.0333	0.	78.454
5512	-1.05	-3.8367	0.	83.777
5513	-2.1717	-4.3167	0.	78.69
5514	-2.09	-4.0633	0.	85.951
5515	-1.035	-4.54	0.	96.381
5516	-1.2727	-4.7007	0.	97.656
5517	-1.1343	-4.2717	0.	97.912
5518	-1.815	-4.71	0.	93.986
5519	-1.5327	-4.7574	0.	95.746
5520	-1.8347	-4.4243	0.	99.589
5521	-1.57	-3.95	0.	110.47
5522	-1.3127	-4.075	0.	103.35
5523	-1.753	-4.171	0.	107.
5524	-1.372	-4.4324	0.	99.145
5525	-1.4957	-4.296	0.	100.03
5526	-1.5523	-4.4717	0.	101.39
5527	0.95	7.27	0.	75.469
5528	-0.44	6.61	0.	73.116
5529	0.83	5.74	0.	88.662
5530	0.48667	7.05	0.	102.66
5531	2.3333e-002	6.83	0.	105.12
5532	0.91	6.76	0.	101.66
5533	0.87	6.25	0.	100.24
5534	-1.6667e-002	6.32	0.	100.3
5535	0.40667	6.03	0.	96.301
5536	0.5353	6.355	0.	99.419
5537	0.24163	6.5562	0.	102.79
5538	0.56304	6.7088	0.	98.56
5539	0.71833	7.16	0.	87.705
5540	0.93	7.015	0.	87.335
5541	-0.20833	6.72	0.	84.589
5542	-0.22833	6.465	0.	82.408
5543	0.85	5.995	0.	92.493
5544	0.61833	5.885	0.	90.732
5545	0.255	6.94	0.	103.77
5546	0.52485	6.8794	0.	100.55
5547	0.13248	6.6931	0.	103.49
5548	0.89	6.505	0.	100.78
5549	0.73652	6.7344	0.	100.09
5550	0.70265	6.3025	0.	99.752
5551	0.195	6.175	0.	98.189
5552	0.11248	6.4381	0.	101.11
5553	0.47099	6.1925	0.	97.798
5554	0.38847	6.4556	0.	101.02
5555	0.54917	6.5319	0.	98.987
5556	0.40234	6.6325	0.	100.59
5557	4.27	-0.17	0.	56.624
5558	4.9	-1.1	0.	109.62
5559	5.4	-9.e-002	0.	55.956
5560	4.585	-0.635	0.	85.923
5561	4.835	-0.13	0.	122.85
5562	5.15	-0.595	0.	90.656
5563	4.8566	-0.45358	0.	103.7
5564	4.4275	-0.4025	0.	69.175
5565	4.5525	-0.15	0.	88.728
5566	4.7425	-0.8675	0.	97.226
5567	5.025	-0.8475	0.	99.092
5568	5.1175	-0.11	0.	89.337
5569	5.275	-0.3425	0.	72.555
5570	4.7208	-0.54429	0.	94.316
5571	4.8458	-0.29179	0.	113.24
5572	5.0033	-0.52429	0.	96.76
5573	6.88	-2.22	0.	79.286
5574	8.47	-1.4	0.	86.528
5575	6.97	-0.44	0.	85.577
5576	7.2775	-2.015	0.	105.02
5577	7.675	-1.81	0.	107.15
5578	8.0725	-1.605	0.	115.37
5579	6.9025	-1.775	0.	102.07
5580	6.925	-1.33	0.	98.218
5581	6.9475	-0.885	0.	99.352
5582	8.095	-1.16	0.	113.55
5583	7.72	-0.92	0.	106.78
5584	7.345	-0.68	0.	104.51
5585	7.3759	-1.082	0.	102.07
5586	7.708	-1.4323	0.	108.48
5587	7.2365	-1.5458	0.	100.58
5588	7.0788	-2.1175	0.	91.322
5589	6.8913	-1.9975	0.	89.921
5590	8.2712	-1.5025	0.	98.724
5591	8.2825	-1.28	0.	97.87
5592	6.9587	-0.6625	0.	91.574
5593	7.1575	-0.56	0.	93.9
5594	7.4763	-1.9125	0.	106.08
5595	7.257	-1.7804	0.	102.74
5596	7.8738	-1.7075	0.	111.22
5597	7.6915	-1.6212	0.	107.79
5598	7.8903	-1.5187	0.	111.8
5599	6.9138	-1.5525	0.	100.1
5600	7.0695	-1.6604	0.	101.29
5601	6.9363	-1.1075	0.	98.747
5602	7.0808	-1.4379	0.	99.401
5603	7.1617	-0.98349	0.	100.68
5604	7.9075	-1.04	0.	110.14
5605	7.9015	-1.2962	0.	110.91
5606	7.5325	-0.8	0.	105.61
5607	7.5479	-1.001	0.	104.41
5608	7.3604	-0.88099	0.	103.2
5609	7.5419	-1.2572	0.	105.24
5610	7.3062	-1.3139	0.	101.32
5611	7.4723	-1.4891	0.	104.5
5612	7.22	7.65	0.	70.204
5613	8.27	7.06	0.	78.17
5614	8.26	8.26	0.	81.436
5615	7.57	7.4533	0.	100.93
5616	7.92	7.2567	0.	95.303
5617	7.5667	7.8533	0.	99.738
5618	7.9133	8.0567	0.	96.716
5619	8.2667	7.46	0.	98.847
5620	8.2633	7.86	0.	100.09
5621	7.9983	7.5181	0.	96.689
5622	7.9966	7.7958	0.	97.242
5623	7.7557	7.6546	0.	101.13
5624	7.395	7.5517	0.	79.795
5625	7.3933	7.7517	0.	79.24
5626	8.095	7.1583	0.	84.731
5627	8.2683	7.26	0.	86.5
5628	8.0867	8.1583	0.	87.16
5629	8.2617	8.06	0.	88.641
5630	7.745	7.355	0.	97.948
5631	7.6629	7.5539	0.	100.39
5632	7.9592	7.3874	0.	95.923
5633	7.74	7.955	0.	98.131
5634	7.6612	7.7539	0.	99.905
5635	7.955	7.9263	0.	96.922
5636	8.265	7.66	0.	99.322
5637	8.1325	7.489	0.	97.744
5638	8.13	7.8279	0.	98.61
5639	7.9975	7.657	0.	96.96
5640	7.877	7.5863	0.	98.805
5641	7.8762	7.7252	0.	99.07
5642	-5.	2.	0.	100.72
5643	-7.	2.	0.	96.078
5644	-5.	1.	0.	100.32
5645	-7.	1.	0.	96.425
5646	-5.5	2.	0.	115.53
5647	-6.	2.	0.	112.22
5648	-6.5	2.	0.	112.11
5649	-5.	1.5	0.	105.25
5650	-7.	1.5	0.	101.13
5651	-6.5	1.	0.	113.58
5652	-6.	1.	0.	113.33
5653	-5.5	1.	0.	116.1
5654	-6.5	1.5	0.	111.6
5655	-6.	1.5	0.	115.88
5656	-5.5	1.5	0.	114.38
5657	-5.25	2.	0.	108.08
5658	-5.	1.75	0.	102.96
5659	-6.75	2.	0.	104.07
5660	-7.	1.75	0.	98.582
5661	-5.	1.25	0.	102.76
5662	-5.25	1.	0.	108.15
5663	-7.	1.25	0.	98.753
5664	-6.75	1.	0.	104.95
5665	-5.75	2.	0.	113.87
5666	-5.5	1.75	0.	114.93
5667	-6.25	2.	0.	112.15
5668	-6.	1.75	0.	114.04
5669	-6.5	1.75	0.	111.84
5670	-5.25	1.5	0.	109.81
5671	-6.75	1.5	0.	106.35
5672	-6.25	1.	0.	113.45
5673	-6.5	1.25	0.	112.58
5674	-5.75	1.	0.	114.71
5675	-6.	1.25	0.	114.6
5676	-5.5	1.25	0.	115.22
5677	-6.25	1.5	0.	113.74
5678	-5.75	1.5	0.	115.13
