Node Number	X Location (mm)	Y Location (mm)	Z Location (mm)	Equivalent (von-Mises) Stress (MPa)
1	3.	0.	0.	130.07
2	3.	-1.	0.	135.92
3	5.	0.	0.	140.84
4	5.	-1.	0.	139.29
5	2.	2.	0.	138.21
6	2.	1.	0.	140.2
7	4.	2.	0.	133.27
8	4.	1.	0.	129.65
9	0.	-2.	0.	140.87
10	0.	-3.	0.	142.22
11	2.	-2.	0.	138.82
12	2.	-3.	0.	135.8
13	-6.	6.	0.	134.46
14	-6.	5.	0.	134.31
15	-4.	6.	0.	134.34
16	-4.	5.	0.	136.1
17	8.	2.	0.	134.54
18	8.	1.	0.	132.34
19	9.	2.	0.	133.86
20	9.	1.	0.	132.82
21	8.	-1.	0.	131.86
22	8.	-2.	0.	133.69
23	9.	-1.	0.	132.46
24	9.	-2.	0.	133.36
25	2.	-7.	0.	134.3
26	2.	-8.	0.	134.47
27	4.	-7.	0.	135.65
28	4.	-8.	0.	136.43
29	6.	9.	0.	135.69
30	6.	7.	0.	132.38
31	7.	9.	0.	135.44
32	7.	7.	0.	132.19
33	-5.	0.	0.	133.46
34	-5.	-1.	0.	131.29
35	-3.	0.	0.	136.49
36	-3.	-1.	0.	134.72
37	-5.	-2.	0.	130.04
38	-5.	-3.	0.	133.47
39	-3.	-2.	0.	134.37
40	-3.	-3.	0.	136.57
41	-6.	9.	0.	137.33
42	-6.	8.	0.	133.9
43	-4.	9.	0.	136.87
44	-4.	8.	0.	133.17
45	-2.	-1.	0.	136.12
46	-2.	-3.	0.	133.9
47	-1.	-1.	0.	136.75
48	-1.	-3.	0.	136.48
49	-2.	4.	0.	137.02
50	-2.	3.	0.	137.07
51	0.	4.	0.	136.87
52	0.	3.	0.	136.42
53	-7.	-5.	0.	137.46
54	-7.	-7.	0.	135.64
55	-5.	-5.	0.	135.39
56	-5.	-7.	0.	133.52
57	7.	-6.	0.	137.7
58	7.	-8.	0.	136.49
59	9.	-6.	0.	137.29
60	9.	-8.	0.	137.08
61	-3.	-5.	0.	131.13
62	-3.	-7.	0.	130.82
63	-2.	-5.	0.	131.04
64	-2.	-7.	0.	129.33
65	0.	9.	0.	138.51
66	0.	7.	0.	135.05
67	2.	9.	0.	139.33
68	2.	7.	0.	135.5
69	10.	10.	0.	125.05
70	-10.	10.	0.	125.02
71	10.	-10.	0.	134.1
72	-10.	-10.	0.	133.65
73	3.	-0.5	0.	141.69
74	3.5	0.	0.	114.62
75	4.	0.	0.	124.21
76	4.5	0.	0.	122.94
77	3.5	-1.	0.	117.91
78	4.	-1.	0.	123.55
79	4.5	-1.	0.	119.
80	5.	-0.5	0.	148.32
81	2.	1.5	0.	147.75
82	2.5	2.	0.	118.81
83	3.	2.	0.	122.56
84	3.5	2.	0.	116.08
85	2.5	1.	0.	122.22
86	3.	1.	0.	123.7
87	3.5	1.	0.	114.19
88	4.	1.5	0.	139.78
89	0.	-2.5	0.	149.59
90	0.5	-2.	0.	120.29
91	1.	-2.	0.	125.07
92	1.5	-2.	0.	119.65
93	0.5	-3.	0.	121.47
94	1.	-3.	0.	125.63
95	1.5	-3.	0.	119.43
96	2.	-2.5	0.	145.88
97	-6.	5.5	0.	143.13
98	-5.5	6.	0.	115.16
99	-5.	6.	0.	119.84
100	-4.5	6.	0.	115.68
101	-5.5	5.	0.	116.03
102	-5.	5.	0.	120.93
103	-4.5	5.	0.	116.17
104	-4.	5.5	0.	144.38
105	8.	1.5	0.	142.99
106	8.5	2.	0.	111.47
107	8.5	1.	0.	109.8
108	9.	1.5	0.	144.09
109	8.	-1.5	0.	142.22
110	8.5	-1.	0.	109.38
111	8.5	-2.	0.	110.75
112	9.	-1.5	0.	143.77
113	2.	-7.5	0.	142.92
114	2.5	-7.	0.	116.07
115	3.	-7.	0.	121.59
116	3.5	-7.	0.	116.84
117	2.5	-8.	0.	116.43
118	3.	-8.	0.	121.76
119	3.5	-8.	0.	117.
120	4.	-7.5	0.	144.39
121	6.	8.5	0.	142.33
122	6.	8.	0.	141.8
123	6.	7.5	0.	140.95
124	6.5	9.	0.	111.34
125	6.5	7.	0.	108.03
126	7.	8.5	0.	143.06
127	7.	8.	0.	142.75
128	7.	7.5	0.	141.85
129	-5.	-0.5	0.	141.06
130	-4.5	0.	0.	114.54
131	-4.	0.	0.	119.85
132	-3.5	0.	0.	115.92
133	-4.5	-1.	0.	110.85
134	-4.	-1.	0.	115.06
135	-3.5	-1.	0.	112.86
136	-3.	-0.5	0.	145.99
137	-5.	-2.5	0.	139.91
138	-4.5	-2.	0.	110.92
139	-4.	-2.	0.	114.41
140	-3.5	-2.	0.	111.46
141	-4.5	-3.	0.	114.95
142	-4.	-3.	0.	120.84
143	-3.5	-3.	0.	116.19
144	-3.	-2.5	0.	143.25
145	-6.	8.5	0.	144.29
146	-5.5	9.	0.	119.46
147	-5.	9.	0.	126.04
148	-4.5	9.	0.	119.27
149	-5.5	8.	0.	116.77
150	-5.	8.	0.	121.27
151	-4.5	8.	0.	116.2
152	-4.	8.5	0.	143.3
153	-2.	-1.5	0.	149.57
154	-2.	-2.	0.	146.67
155	-2.	-2.5	0.	141.47
156	-1.5	-1.	0.	110.5
157	-1.5	-3.	0.	109.45
158	-1.	-1.5	0.	147.53
159	-1.	-2.	0.	145.81
160	-1.	-2.5	0.	142.61
161	-2.	3.5	0.	145.67
162	-1.5	4.	0.	119.66
163	-1.	4.	0.	124.27
164	-0.5	4.	0.	118.32
165	-1.5	3.	0.	118.39
166	-1.	3.	0.	123.91
167	-0.5	3.	0.	119.13
168	0.	3.5	0.	145.38
169	-7.	-5.5	0.	145.98
170	-7.	-6.	0.	146.69
171	-7.	-6.5	0.	145.1
172	-6.5	-5.	0.	115.91
173	-6.	-5.	0.	119.62
174	-5.5	-5.	0.	113.86
175	-6.5	-7.	0.	113.37
176	-6.	-7.	0.	117.11
177	-5.5	-7.	0.	112.39
178	-5.	-5.5	0.	141.98
179	-5.	-6.	0.	142.83
180	-5.	-6.5	0.	141.77
181	7.	-6.5	0.	145.97
182	7.	-7.	0.	146.77
183	7.	-7.5	0.	145.29
184	7.5	-6.	0.	115.09
185	8.	-6.	0.	119.65
186	8.5	-6.	0.	115.68
187	7.5	-8.	0.	114.18
188	8.	-8.	0.	118.87
189	8.5	-8.	0.	115.23
190	9.	-6.5	0.	148.53
191	9.	-7.	0.	150.34
192	9.	-7.5	0.	148.5
193	-3.	-5.5	0.	137.88
194	-3.	-6.	0.	137.93
195	-3.	-6.5	0.	137.98
196	-2.5	-5.	0.	106.86
197	-2.5	-7.	0.	105.31
198	-2.	-5.5	0.	139.4
199	-2.	-6.	0.	139.2
200	-2.	-6.5	0.	138.57
201	0.	8.5	0.	145.35
202	0.	8.	0.	145.86
203	0.	7.5	0.	144.12
204	0.5	9.	0.	118.27
205	1.	9.	0.	124.76
206	1.5	9.	0.	118.34
207	0.5	7.	0.	114.71
208	1.	7.	0.	119.77
209	1.5	7.	0.	115.5
210	2.	8.5	0.	145.92
211	2.	8.	0.	146.5
212	2.	7.5	0.	144.91
213	9.5	10.	0.	125.22
214	9.	10.	0.	125.96
215	8.5	10.	0.	126.82
216	8.	10.	0.	127.41
217	7.5	10.	0.	125.63
218	7.	10.	0.	120.54
219	6.5	10.	0.	118.54
220	6.	10.	0.	120.95
221	5.5	10.	0.	126.6
222	5.	10.	0.	129.06
223	4.5	10.	0.	129.35
224	4.	10.	0.	129.65
225	3.5	10.	0.	130.1
226	3.	10.	0.	130.63
227	2.5	10.	0.	128.78
228	2.	10.	0.	122.85
229	1.5	10.	0.	117.75
230	1.	10.	0.	115.26
231	0.5	10.	0.	117.52
232	-5.2042e-015	10.	0.	122.3
233	-0.5	10.	0.	127.92
234	-1.	10.	0.	129.62
235	-1.5	10.	0.	129.
236	-2.	10.	0.	128.55
237	-2.5	10.	0.	128.47
238	-3.	10.	0.	128.87
239	-3.5	10.	0.	127.53
240	-4.	10.	0.	122.85
241	-4.5	10.	0.	118.69
242	-5.	10.	0.	116.64
243	-5.5	10.	0.	118.67
244	-6.	10.	0.	122.76
245	-6.5	10.	0.	127.26
246	-7.	10.	0.	128.24
247	-7.5	10.	0.	127.25
248	-8.	10.	0.	126.46
249	-8.5	10.	0.	125.83
250	-9.	10.	0.	125.37
251	-9.5	10.	0.	125.08
252	10.	9.5	0.	124.6
253	10.	9.	0.	123.36
254	10.	8.5	0.	122.33
255	10.	8.	0.	122.03
256	10.	7.5	0.	122.53
257	10.	7.	0.	123.57
258	10.	6.5	0.	124.77
259	10.	6.	0.	125.78
260	10.	5.5	0.	126.44
261	10.	5.	0.	126.82
262	10.	4.5	0.	127.14
263	10.	4.	0.	127.74
264	10.	3.5	0.	129.03
265	10.	3.	0.	131.06
266	10.	2.5	0.	131.36
267	10.	2.	0.	127.57
268	10.	1.5	0.	123.79
269	10.	1.	0.	127.86
270	10.	0.5	0.	132.66
271	10.	-5.2042e-015	0.	134.24
272	10.	-0.5	0.	132.47
273	10.	-1.	0.	127.52
274	10.	-1.5	0.	123.4
275	10.	-2.	0.	127.23
276	10.	-2.5	0.	131.28
277	10.	-3.	0.	131.54
278	10.	-3.5	0.	130.54
279	10.	-4.	0.	131.02
280	10.	-4.5	0.	133.17
281	10.	-5.	0.	136.33
282	10.	-5.5	0.	137.4
283	10.	-6.	0.	133.94
284	10.	-6.5	0.	129.71
285	10.	-7.	0.	129.36
286	10.	-7.5	0.	129.82
287	10.	-8.	0.	134.22
288	10.	-8.5	0.	137.96
289	10.	-9.	0.	137.38
290	10.	-9.5	0.	135.05
291	-10.	9.5	0.	124.87
292	-10.	9.	0.	124.35
293	-10.	8.5	0.	123.84
294	-10.	8.	0.	123.57
295	-10.	7.5	0.	123.56
296	-10.	7.	0.	123.71
297	-10.	6.5	0.	123.95
298	-10.	6.	0.	124.27
299	-10.	5.5	0.	124.72
300	-10.	5.	0.	125.33
301	-10.	4.5	0.	126.05
302	-10.	4.	0.	126.8
303	-10.	3.5	0.	127.45
304	-10.	3.	0.	127.92
305	-10.	2.5	0.	128.18
306	-10.	2.	0.	128.24
307	-10.	1.5	0.	128.13
308	-10.	1.	0.	127.92
309	-10.	0.5	0.	127.67
310	-10.	-5.2042e-015	0.	127.47
311	-10.	-0.5	0.	127.39
312	-10.	-1.	0.	127.48
313	-10.	-1.5	0.	127.77
314	-10.	-2.	0.	128.23
315	-10.	-2.5	0.	128.76
316	-10.	-3.	0.	129.23
317	-10.	-3.5	0.	129.42
318	-10.	-4.	0.	129.15
319	-10.	-4.5	0.	128.41
320	-10.	-5.	0.	127.42
321	-10.	-5.5	0.	126.62
322	-10.	-6.	0.	126.46
323	-10.	-6.5	0.	127.13
324	-10.	-7.	0.	128.47
325	-10.	-7.5	0.	130.1
326	-10.	-8.	0.	131.57
327	-10.	-8.5	0.	132.64
328	-10.	-9.	0.	133.27
329	-10.	-9.5	0.	133.57
330	-9.5	-10.	0.	131.96
331	-9.	-10.	0.	130.47
332	-8.5	-10.	0.	128.9
333	-8.	-10.	0.	126.99
334	-7.5	-10.	0.	124.7
335	-7.	-10.	0.	122.3
336	-6.5	-10.	0.	120.34
337	-6.	-10.	0.	119.34
338	-5.5	-10.	0.	119.49
339	-5.	-10.	0.	120.49
340	-4.5	-10.	0.	121.68
341	-4.	-10.	0.	122.47
342	-3.5	-10.	0.	122.67
343	-3.	-10.	0.	122.55
344	-2.5	-10.	0.	122.66
345	-2.	-10.	0.	123.35
346	-1.5	-10.	0.	124.58
347	-1.	-10.	0.	126.04
348	-0.5	-10.	0.	127.41
349	5.2042e-015	-10.	0.	128.46
350	0.5	-10.	0.	128.96
351	1.	-10.	0.	128.48
352	1.5	-10.	0.	126.57
353	2.	-10.	0.	123.5
354	2.5	-10.	0.	120.73
355	3.	-10.	0.	119.94
356	3.5	-10.	0.	121.87
357	4.	-10.	0.	125.75
358	4.5	-10.	0.	129.81
359	5.	-10.	0.	132.45
360	5.5	-10.	0.	133.09
361	6.	-10.	0.	131.66
362	6.5	-10.	0.	128.15
363	7.	-10.	0.	123.2
364	7.5	-10.	0.	118.73
365	8.	-10.	0.	116.87
366	8.5	-10.	0.	118.69
367	9.	-10.	0.	123.55
368	9.5	-10.	0.	129.59
369	5.	-4.	0.	128.04
370	4.	5.	0.	127.2
371	6.	3.5002	0.	128.26
372	6.	4.0002	0.	127.32
373	4.5	-4.	0.	126.61
374	5.	4.5	0.	127.31
375	3.5	4.5	0.	124.99
376	5.5	-4.	0.	129.22
377	3.5	5.	0.	126.65
378	4.5	-3.5	0.	125.29
379	4.5	5.	0.	127.56
380	4.	5.5	0.	128.21
381	5.5	4.0001	0.	127.69
382	-7.	1.5	0.	127.62
383	-6.5	2.	0.	126.57
384	6.	3.0001	0.	128.82
385	5.	-4.5	0.	129.17
386	6.	-3.5	0.	129.04
387	-5.	3.	0.	119.76
388	-4.5	2.5	0.	120.43
389	3.	4.	0.	122.31
390	1.687e-004	-6.0006	0.	126.22
391	6.5	4.0002	0.	126.83
392	6.5	4.5002	0.	125.58
393	-6.	2.5	0.	124.25
394	5.5	-3.5	0.	128.42
395	4.	-4.5	0.	126.08
396	5.5	4.5001	0.	126.97
397	6.	4.5001	0.	126.23
398	4.5	4.5	0.	126.97
399	4.	4.5	0.	126.05
400	-5.5	2.5	0.	122.3
401	-7.	2.5	0.	127.23
402	6.	-4.	0.	129.46
403	-5.5	3.	0.	121.17
404	4.	-4.	0.	125.63
405	3.	-5.	0.	122.92
406	2.5	4.5	0.	123.9
407	3.	5.	0.	126.05
408	4.5	-3.	0.	123.75
409	1.	-5.0003	0.	124.56
410	3.5	-5.	0.	123.99
411	5.	5.	0.	127.4
412	4.	6.	0.	128.67
413	5.	4.0001	0.	127.61
414	3.5	4.	0.	123.27
415	-7.	1.	0.	127.72
416	-6.	2.	0.	125.27
417	-7.	-0.5	0.	126.71
418	-7.	-2.	0.	126.21
419	2.1889e-004	-6.5006	0.	125.95
420	-4.	2.	0.	120.83
421	6.	2.5001	0.	128.82
422	5.	-5.	0.	130.18
423	5.5	-4.5	0.	130.4
424	-7.	3.	0.	127.43
425	-7.	-2.5	0.	125.57
426	6.	-3.	0.	129.24
427	3.5	-4.5	0.	125.16
428	-2.	7.	0.	127.
429	0.5001	-5.5004	0.	126.19
430	6.5	5.0001	0.	124.12
431	4.5	5.5	0.	128.28
432	-6.5	1.5	0.	127.32
433	-4.5	3.	0.	119.95
434	2.5	4.	0.	122.53
435	1.1244e-004	-5.5004	0.	126.65
436	0.50004	-5.0003	0.	125.88
437	6.5	3.5002	0.	127.99
438	7.	4.0002	0.	126.25
439	5.5	3.5001	0.	128.47
440	4.	-2.5	0.	120.22
441	-0.49984	-6.0005	0.	126.52
442	-5.	3.5	0.	118.33
443	6.5	-3.5	0.	128.47
444	1.	-4.5002	0.	123.3
445	3.	-5.5	0.	120.69
446	-1.	1.5	0.	120.71
447	3.	3.5	0.	120.26
448	-4.	1.5	0.	119.33
449	7.	-4.	0.	125.55
450	6.5	-4.	0.	128.24
451	-6.5	3.	0.	125.91
452	-6.	3.	0.	123.57
453	4.	-3.5	0.	124.36
454	4.	-3.	0.	122.4
455	2.5	-5.0001	0.	122.8
456	2.	5.	0.	124.43
457	2.5	5.	0.	125.29
458	5.5	-3.	0.	128.17
459	1.5	-5.0002	0.	123.74
460	4.	-5.	0.	125.96
461	5.5	5.0001	0.	126.47
462	6.	5.0001	0.	125.06
463	4.	7.	0.	126.7
464	4.	6.5	0.	128.14
465	4.	4.	0.	125.04
466	-7.	0.5	0.	127.47
467	-7.	-9.5542e-012	0.	127.
468	-5.5	2.	0.	123.49
469	-7.	-1.5	0.	126.74
470	-2.	6.5	0.	127.66
471	-4.	2.5	0.	121.45
472	2.	4.5	0.	124.1
473	6.	2.0001	0.	128.69
474	-4.	1.	0.	117.01
475	3.	3.	0.	118.08
476	-1.	2.	0.	119.07
477	3.	-6.	0.	118.16
478	1.	6.	0.	117.77
479	1.	-4.0001	0.	121.63
480	7.	-3.5	0.	126.74
481	-5.	4.	0.	116.56
482	-5.	7.	0.	113.48
483	-4.	-6.	0.	129.54
484	-0.99988	-6.0003	0.	127.88
485	7.6244e-010	0.5	0.	126.21
486	4.	-2.	0.	118.29
487	6.	1.5001	0.	129.45
488	5.5	3.0001	0.	128.97
489	7.	3.5002	0.	127.47
490	7.5	4.5002	0.	125.09
491	7.5	4.0002	0.	125.4
492	0.50002	-4.5002	0.	125.56
493	2.5	3.5	0.	121.28
494	-1.5	5.5	0.	124.48
495	-0.5	1.5	0.	121.88
496	-4.5	3.5	0.	119.24
497	-0.49989	-5.5004	0.	127.25
498	1.	-0.5	0.	124.29
499	-3.5	1.5	0.	121.46
500	-6.	1.5	0.	126.62
501	-4.5	1.5	0.	119.76
502	-6.5	-0.5	0.	126.88
503	-6.5	1.	0.	127.91
504	3.5	3.5	0.	121.51
505	5.	3.5001	0.	128.31
506	0.5	-2.8017e-010	0.	127.31
507	2.8669e-009	1.	0.	125.15
508	4.5	6.	0.	128.71
509	4.	7.5	0.	124.95
510	4.5	7.5	0.	125.58
511	5.	5.5	0.	127.94
512	6.5	5.5001	0.	122.12
513	7.	5.0002	0.	124.26
514	7.5	5.0001	0.	125.01
515	1.5	5.	0.	124.05
516	2.	4.	0.	123.67
517	1.	5.5	0.	121.44
518	-3.5	2.	0.	123.01
519	-4.	3.	0.	121.59
520	-1.5	1.5	0.	122.06
521	5.5	-7.5	0.	129.45
522	3.5	-5.5	0.	122.38
523	1.0001	-5.5004	0.	125.76
524	2.5	-5.5001	0.	121.14
525	0.50014	-6.0005	0.	126.47
526	4.5	-2.5	0.	122.27
527	1.5	5.5	0.	122.22
528	3.5	7.5	0.	125.81
529	3.5	6.	0.	129.07
530	-1.5	6.	0.	126.32
531	-2.	7.5	0.	125.34
532	-1.5	7.5	0.	125.46
533	-1.	5.5	0.	123.47
534	3.	-4.5	0.	124.88
535	1.5	-4.5001	0.	122.85
536	3.5	-2.5	0.	120.86
537	3.5	-4.	0.	125.59
538	6.5	3.0001	0.	128.88
539	6.5	1.5001	0.	129.31
540	6.5	-3.	0.	129.23
541	6.	-2.5	0.	129.9
542	-7.5	-3.	0.	127.34
543	-7.5	-2.5	0.	126.73
544	-7.5	-2.	0.	126.62
545	-7.5	-1.5	0.	126.69
546	-7.5	-1.	0.	126.72
547	-7.5	-0.5	0.	126.8
548	-7.5	-8.584e-012	0.	127.03
549	-7.5	0.5	0.	127.38
550	-7.5	1.	0.	127.64
551	-7.5	2.	0.	127.76
552	-7.5	2.5	0.	127.83
553	-7.5	3.	0.	128.06
554	-7.5	3.5	0.	128.44
555	-7.5	7.	0.	129.82
556	-7.5	4.	0.	128.72
557	-7.5	5.5	0.	127.15
558	-5.5	3.5	0.	119.97
559	-7.	3.5	0.	128.12
560	-2.5	7.	0.	128.67
561	-2.	6.	0.	127.28
562	-0.49982	-6.5005	0.	126.24
563	0.5002	-7.5006	0.	125.86
564	1.7198e-004	-7.5006	0.	126.13
565	6.	-4.5	0.	130.64
566	7.5	-4.	0.	122.32
567	7.5	-4.5	0.	120.77
568	6.	-7.	0.	131.61
569	5.	-5.5	0.	130.97
570	5.5	-5.	0.	131.62
571	-6.5	-2.5	0.	124.8
572	-7.	-3.	0.	125.42
573	-6.5	-3.	0.	123.74
574	-6.5	-3.5	0.	122.95
575	5.5	-5.5	0.	132.28
576	5.5	-6.	0.	131.9
577	6.5	-4.5	0.	128.94
578	-0.49988	-7.5004	0.	126.76
579	-0.49984	-7.0005	0.	126.33
580	-2.5	6.5	0.	129.27
581	-7.5	4.5	0.	128.43
582	6.5	-2.	0.	129.82
583	6.5	-2.5	0.	129.85
584	6.5	-0.49999	0.	130.59
585	6.5	2.0001	0.	128.86
586	3.5	-3.5	0.	124.84
587	3.5	-3.	0.	122.86
588	2.5	-4.5001	0.	124.57
589	-1.5	6.5	0.	127.23
590	3.5	6.5	0.	128.9
591	2.	5.5	0.	124.56
592	6.5	-1.5	0.	129.65
593	6.5	-1.	0.	129.69
594	5.5	-2.5	0.	128.7
595	6.5	0.50002	0.	132.06
596	0.50022	-7.0006	0.	125.84
597	1.5	-5.5003	0.	124.81
598	4.5	-5.5	0.	128.85
599	4.	-5.5	0.	125.65
600	5.5	-6.5	0.	130.92
601	-2.	1.5	0.	124.91
602	-3.5	3.	0.	124.01
603	-3.5	2.5	0.	123.81
604	1.5	4.5	0.	124.96
605	7.	5.5001	0.	123.15
606	7.5	5.5001	0.	125.28
607	6.	5.5001	0.	123.76
608	4.5	6.5	0.	128.33
609	0.5	0.5	0.	127.76
610	4.	3.5	0.	124.35
611	-6.5	0.5	0.	127.85
612	-6.5	-9.1412e-012	0.	127.11
613	-5.5	1.5	0.	124.93
614	-6.5	-2.	0.	126.5
615	-6.5	-1.5	0.	127.75
616	-3.	1.5	0.	124.8
617	-7.	-3.5	0.	125.77
618	-7.5	-3.5	0.	128.69
619	6.	-7.5	0.	130.88
620	1.	-1.	0.	121.16
621	7.5	-5.	0.	119.05
622	-0.99991	-5.5003	0.	128.01
623	-4.5	4.	0.	118.37
624	1.5	-4.0001	0.	121.72
625	-1.	7.5	0.	127.25
626	1.5	6.	0.	119.8
627	4.5	-2.	0.	121.01
628	2.5	-6.0001	0.	119.39
629	-0.5	2.	0.	120.68
630	-1.5	5.	0.	122.34
631	5.	7.5	0.	127.34
632	2.5	3.	0.	120.14
633	-4.5	1.	0.	118.36
634	-6.5	-4.	0.	121.06
635	-7.5	7.5	0.	128.74
636	2.9582e-005	-4.5002	0.	128.68
637	7.5	3.5001	0.	126.03
638	5.5	2.5001	0.	128.78
639	5.5	2.0001	0.	128.11
640	5.5	1.5	0.	128.6
641	8.	-4.	0.	120.1
642	8.	-4.5	0.	118.43
643	8.	-5.	0.	116.05
644	1.5	-0.5	0.	124.3
645	1.5	-1.	0.	122.1
646	-2.	8.	0.	123.51
647	-1.5	8.	0.	124.13
648	-1.	8.	0.	127.05
649	3.	8.	0.	127.57
650	3.5	8.	0.	124.48
651	4.	8.	0.	123.69
652	4.5	8.	0.	124.54
653	5.	8.	0.	127.29
654	5.	-7.5	0.	128.4
655	0.5	-0.5	0.	125.82
656	-0.5	0.5	0.	124.28
657	-1.	0.5	0.	122.16
658	-1.5	0.5	0.	121.89
659	4.0019e-010	-7.7817e-010	0.	127.69
660	6.	-6.5	0.	131.8
661	6.	-5.	0.	132.45
662	-0.99988	-6.5003	0.	127.08
663	-4.	-5.5	0.	128.06
664	-4.5	7.	0.	116.08
665	-2.	5.5	0.	126.65
666	-2.5	5.5	0.	128.69
667	-3.	5.5	0.	129.08
668	-5.5	4.	0.	118.56
669	-7.	4.	0.	129.27
670	7.5	-3.5	0.	123.93
671	8.	-3.5	0.	121.02
672	7.	-3.	0.	128.56
673	7.	-1.5	0.	128.12
674	7.	1.2634e-005	0.	131.65
675	7.	3.0001	0.	129.02
676	8.	5.5001	0.	126.52
677	8.	4.0001	0.	124.39
678	8.	3.5001	0.	123.77
679	3.	-2.5	0.	123.38
680	3.	-4.	0.	126.61
681	-0.49993	-5.0003	0.	128.51
682	-0.49996	-4.5002	0.	130.43
683	0.5	-4.0001	0.	124.83
684	0.5	6.	0.	119.42
685	-1.	6.	0.	126.49
686	3.	7.5	0.	128.05
687	3.	6.	0.	129.8
688	6.	-0.49999	0.	130.49
689	6.	-2.	0.	130.97
690	6.	1.	0.	131.72
691	1.0002	-7.5005	0.	125.64
692	1.0001	-6.0004	0.	127.14
693	3.5	-6.	0.	120.43
694	5.	-6.	0.	131.6
695	-3.	2.	0.	126.24
696	2.	3.5	0.	123.8
697	1.5	3.5	0.	126.27
698	1.	3.5	0.	127.4
699	-0.5	5.	0.	121.48
700	1.	5.	0.	124.88
701	-3.5	3.5	0.	125.08
702	-3.	3.5	0.	126.9
703	6.5	6.0001	0.	118.74
704	5.	6.	0.	128.89
705	7.7524e-009	1.5	0.	124.78
706	0.5	1.5	0.	127.76
707	1.	1.5	0.	129.36
708	1.	-1.3109e-009	0.	127.8
709	3.5	3.	0.	119.6
710	5.	3.0001	0.	129.28
711	-6.	-0.5	0.	126.73
712	-6.	1.	0.	128.2
713	-6.	-2.5	0.	124.37
714	-3.5	1.	0.	119.53
715	-2.	1.	0.	125.37
716	-4.	-4.	0.	123.33
717	-4.	-6.5	0.	128.85
718	-2.5	7.5	0.	126.79
719	-2.5	8.	0.	124.26
720	-3.	7.	0.	131.13
721	-5.5	7.	0.	116.33
722	-7.	7.	0.	132.12
723	0.50013	-8.0005	0.	126.9
724	1.1052e-004	-8.0005	0.	126.87
725	-0.49992	-8.0003	0.	127.02
726	-0.99995	-8.0002	0.	126.99
727	-2.5	-8.	0.	117.01
728	-4.	-8.	0.	128.71
729	-5.5	-8.	0.	116.48
730	-6.	-8.	0.	114.35
731	-6.5	-8.	0.	117.06
732	-8.	-8.	0.	131.13
733	-8.	-6.5	0.	131.48
734	-8.	-6.	0.	132.01
735	-8.	-5.5	0.	131.83
736	-8.	-3.5	0.	130.14
737	-8.	-3.	0.	128.63
738	-8.	-2.5	0.	127.69
739	-8.	-2.	0.	127.22
740	-8.	-1.5	0.	127.02
741	-8.	-1.	0.	126.96
742	-8.	-0.5	0.	127.01
743	-8.	-7.0903e-012	0.	127.18
744	-8.	0.5	0.	127.42
745	-8.	1.	0.	127.64
746	-8.	1.5	0.	127.79
747	-8.	2.	0.	127.89
748	-8.	2.5	0.	127.99
749	-8.	3.	0.	128.12
750	-8.	3.5	0.	128.21
751	-8.	4.	0.	128.12
752	-8.	4.5	0.	127.7
753	-8.	5.	0.	127.11
754	-8.	5.5	0.	126.86
755	-8.	6.	0.	127.26
756	-8.	6.5	0.	127.86
757	-8.	7.	0.	127.92
758	-8.	7.5	0.	127.09
759	-8.	8.	0.	125.69
760	-7.5	8.	0.	126.5
761	-7.	8.	0.	128.18
762	-7.	7.5	0.	131.12
763	-3.	7.5	0.	129.37
764	-3.	8.	0.	126.29
765	-4.5	-8.	0.	127.39
766	-8.	-7.	0.	132.19
767	-8.	-7.5	0.	132.44
768	-7.5	-8.	0.	129.19
769	-7.	-8.	0.	123.36
770	-7.5	-4.	0.	131.21
771	-8.	-5.	0.	132.88
772	-2.5	1.	0.	127.2
773	-3.	1.	0.	124.34
774	-6.	-1.	0.	129.21
775	-6.	-1.5	0.	130.63
776	-6.	-2.	0.	128.19
777	-5.5	1.	0.	127.16
778	-6.	-6.7183e-012	0.	127.82
779	5.	2.5001	0.	129.4
780	4.	3.	0.	124.11
781	1.	0.5	0.	130.16
782	2.	3.	0.	124.99
783	1.5	3.	0.	129.45
784	1.	2.	0.	132.25
785	5.	6.5	0.	129.33
786	5.5	6.	0.	127.45
787	6.	6.0001	0.	122.3
788	7.	6.0001	0.	121.83
789	7.5	6.0001	0.	126.76
790	-2.	5.	0.	126.7
791	-2.5	5.	0.	130.53
792	-3.	4.	0.	130.65
793	1.	4.	0.	127.24
794	1.	4.5	0.	127.04
795	1.0881e-008	5.	0.	124.15
796	2.5057e-008	2.	0.	125.4
797	0.5	2.	0.	130.06
798	1.	3.	0.	131.32
799	-3.	3.	0.	127.01
800	-2.	2.	0.	125.17
801	5.	-6.5	0.	131.4
802	4.5	-6.	0.	130.17
803	4.	-6.	0.	125.52
804	2.0001	-6.0002	0.	123.32
805	1.5001	-6.0003	0.	126.78
806	1.0002	-7.0005	0.	126.85
807	6.	1.3574e-005	0.	132.8
808	6.	0.50002	0.	133.61
809	5.	-2.	0.	126.32
810	5.5	-2.	0.	130.59
811	6.	-1.	0.	131.12
812	2.5	6.	0.	129.1
813	3.	6.5	0.	130.68
814	3.	7.	0.	129.67
815	-1.	7.	0.	128.29
816	-1.	6.5	0.	128.4
817	-4.6852e-010	6.	0.	123.4
818	1.2705e-005	-4.0001	0.	130.51
819	-0.99997	-4.0001	0.	129.45
820	-0.49998	-4.0001	0.	133.69
821	2.	-4.0001	0.	124.53
822	2.5	-4.	0.	126.99
823	8.	3.0001	0.	123.08
824	7.5	3.0001	0.	127.76
825	7.	2.5001	0.	129.97
826	7.	2.0001	0.	129.38
827	7.	1.	0.	130.41
828	7.	0.50002	0.	131.76
829	8.	4.0842e-006	0.	119.58
830	7.5	9.2633e-006	0.	128.82
831	7.	-0.49999	0.	130.85
832	7.	-1.	0.	129.51
833	7.	-2.	0.	129.39
834	7.	-2.5	0.	129.86
835	7.5	-3.	0.	126.41
836	8.	-3.	0.	121.37
837	-6.5	7.	0.	131.54
838	-7.	6.	0.	129.19
839	-7.	5.	0.	128.46
840	-7.	4.5	0.	129.76
841	-6.	4.	0.	123.59
842	-4.	4.	0.	123.31
843	-3.5	4.	0.	128.17
844	-3.	6.	0.	130.39
845	-3.	6.5	0.	131.6
846	-4.	7.	0.	123.81
847	-0.99994	-5.0002	0.	129.24
848	-0.99996	-4.5002	0.	130.16
849	-1.5	-4.0001	0.	124.11
850	-3.5	-4.	0.	123.97
851	-4.	-5.	0.	128.44
852	-4.	-7.	0.	130.15
853	-4.	-7.5	0.	130.75
854	-3.	-8.	0.	120.9
855	-1.5	-8.0001	0.	125.21
856	-0.99992	-7.5003	0.	127.65
857	6.5	-5.	0.	131.13
858	6.	-5.5	0.	133.64
859	6.	-6.	0.	133.08
860	-0.5	-2.3197e-010	0.	126.71
861	-1.	-1.9904e-010	0.	122.08
862	-2.	-4.	0.	122.28
863	-3.	-4.	0.	123.76
864	-2.5	-4.	0.	122.82
865	-6.	-3.	0.	123.8
866	-6.	-3.5	0.	122.84
867	5.	-8.	0.	130.8
868	-8.	8.5	0.	124.54
869	-7.5	8.5	0.	124.58
870	-7.	8.5	0.	124.8
871	-8.5	-8.	0.	131.19
872	-8.5	-7.5	0.	131.43
873	-8.5	-7.	0.	130.88
874	-8.5	-6.5	0.	130.29
875	-8.5	-5.5	0.	130.38
876	-8.5	-5.	0.	131.02
877	-8.5	-4.5	0.	131.56
878	-8.5	-4.	0.	131.2
879	-8.5	-3.5	0.	130.2
880	-8.5	-3.	0.	129.11
881	-8.5	-2.5	0.	128.27
882	-8.5	-2.	0.	127.73
883	-8.5	-1.5	0.	127.42
884	-8.5	-1.	0.	127.28
885	-8.5	-0.5	0.	127.26
886	-8.5	-5.7744e-012	0.	127.36
887	-8.5	0.5	0.	127.51
888	-8.5	1.	0.	127.67
889	-8.5	1.5	0.	127.8
890	-8.5	2.	0.	127.88
891	-8.5	2.5	0.	127.93
892	-8.5	3.	0.	127.94
893	-8.5	3.5	0.	127.85
894	-8.5	4.	0.	127.61
895	-8.5	4.5	0.	127.2
896	-8.5	5.	0.	126.76
897	-8.5	6.	0.	126.57
898	-8.5	6.5	0.	126.7
899	-8.5	7.	0.	126.57
900	-8.5	7.5	0.	126.02
901	-8.5	8.	0.	125.23
902	-8.5	8.5	0.	124.65
903	1.0001	-8.0004	0.	127.81
904	5.5	-8.5	0.	132.76
905	5.	-8.5	0.	133.12
906	1.0001	-8.5003	0.	129.64
907	0.50008	-8.5003	0.	128.33
908	6.2812e-005	-8.5003	0.	127.68
909	-0.49996	-8.5002	0.	127.16
910	-0.99997	-8.5002	0.	126.23
911	-1.5	-8.5001	0.	124.23
912	-2.	-8.5	0.	121.53
913	-2.5	-8.5	0.	120.23
914	-3.	-8.5	0.	121.84
915	-4.	-8.5	0.	125.74
916	-4.5	-8.5	0.	124.5
917	-5.	-8.5	0.	121.33
918	-5.5	-8.5	0.	117.97
919	-6.	-8.5	0.	116.74
920	-6.5	-8.5	0.	118.61
921	-7.	-8.5	0.	122.67
922	-7.5	-8.5	0.	126.72
923	-8.	-8.5	0.	129.27
924	-8.5	-8.5	0.	130.4
925	-2.	0.5	0.	125.27
926	3.	8.5	0.	126.23
927	3.5	8.5	0.	123.92
928	4.	8.5	0.	123.29
929	4.5	8.5	0.	124.18
930	5.	8.5	0.	126.4
931	-3.	8.5	0.	123.27
932	-2.5	8.5	0.	122.65
933	-2.	8.5	0.	122.47
934	-1.5	8.5	0.	123.39
935	-1.	8.5	0.	125.77
936	3.	-2.	0.	124.95
937	2.	-1.	0.	126.15
938	8.5	8.	0.	126.11
939	8.5	7.5	0.	126.66
940	8.5	7.	0.	127.24
941	8.5	6.5	0.	127.67
942	8.5	6.	0.	127.38
943	8.5	5.5	0.	126.64
944	8.5	5.	0.	125.83
945	8.5	4.5001	0.	125.02
946	8.5	4.0001	0.	124.
947	8.5	3.5001	0.	122.47
948	8.5	3.	0.	119.74
949	8.	8.5	0.	127.63
950	8.5	8.5	0.	125.66
951	8.5	1.395e-006	0.	113.49
952	8.5	-3.	0.	118.31
953	8.5	-3.5	0.	120.17
954	8.5	-4.	0.	120.38
955	8.5	-4.5	0.	119.56
956	8.5	-5.	0.	118.07
957	6.	-8.	0.	132.08
958	6.	-8.5	0.	133.33
959	-1.3882e-009	-0.5	0.	128.87
960	5.	1.5	0.	126.22
961	5.5	1.	0.	131.46
962	2.	-0.5	0.	124.47
963	1.5	-7.2024e-009	0.	128.31
964	2.	-1.3158e-008	0.	126.99
965	5.	1.	0.	128.58
966	-5.5	-3.5	0.	126.85
967	-2.5	-3.5	0.	133.18
968	-0.5	-0.5	0.	131.94
969	-1.0272e-008	-1.	0.	129.2
970	6.5	-8.5	0.	134.37
971	6.5	-5.5	0.	135.27
972	9.	-3.5	0.	122.78
973	9.	-4.	0.	123.38
974	9.	-4.5	0.	123.68
975	9.	-5.	0.	124.18
976	-1.5	-7.5001	0.	128.57
977	-3.5	-7.5	0.	130.41
978	-3.5	-4.5	0.	128.81
979	-1.5	-4.5001	0.	129.94
980	-3.5	6.5	0.	133.52
981	-3.5	4.5	0.	133.34
982	-6.5	4.5	0.	131.82
983	-6.5	6.5	0.	133.4
984	9.	-3.	0.	121.86
985	7.5	-2.5	0.	130.74
986	7.5	-0.49999	0.	130.92
987	9.	4.0066e-007	0.	118.96
988	7.5	0.50002	0.	131.48
989	7.5	2.5001	0.	131.58
990	9.	8.5	0.	124.6
991	9.	5.	0.	126.03
992	9.	4.5	0.	125.52
993	9.	4.	0.	124.8
994	9.	3.5	0.	123.78
995	9.	3.	0.	122.58
996	2.5	-3.5	0.	131.01
997	-0.49999	-3.5001	0.	140.6
998	8.5	9.	0.	125.37
999	9.	9.	0.	124.72
1000	-2.5	9.	0.	122.97
1001	-2.	9.	0.	123.14
1002	-1.5	9.	0.	123.76
1003	-1.	9.	0.	125.85
1004	-0.5	6.5	0.	131.02
1005	2.5	6.5	0.	133.07
1006	5.5	0.50002	0.	136.76
1007	2.5	-1.5	0.	137.04
1008	1.5001	-6.5003	0.	130.48
1009	1.5001	-8.5002	0.	131.82
1010	4.5	-8.5	0.	134.52
1011	4.5	-6.5	0.	133.22
1012	-2.5	2.5	0.	131.75
1013	0.5	4.5	0.	130.81
1014	-2.5	4.5	0.	134.82
1015	7.5	6.5	0.	130.67
1016	8.	9.	0.	127.18
1017	3.	9.	0.	126.35
1018	3.5	9.	0.	124.43
1019	4.	9.	0.	124.18
1020	4.5	9.	0.	124.7
1021	5.	9.	0.	126.64
1022	5.5	6.5	0.	130.74
1023	1.5	2.5	0.	134.89
1024	1.5	0.5	0.	134.31
1025	4.5	2.5	0.	131.2
1026	-5.5	0.5	0.	130.88
1027	-5.5	-1.5	0.	135.38
1028	-2.5	0.5	0.	130.68
1029	-2.	-1.8552e-009	0.	123.42
1030	-4.5	-4.5	0.	129.95
1031	-7.5	-4.5	0.	135.51
1032	-7.5	-7.5	0.	133.65
1033	-4.5	-7.5	0.	131.75
1034	-3.5	7.5	0.	131.92
1035	-3.	9.	0.	124.07
1036	8.5	-9.	0.	117.15
1037	8.	-9.	0.	114.6
1038	7.5	-9.	0.	117.41
1039	7.	-9.	0.	124.14
1040	6.5	-9.	0.	130.58
1041	4.5	-9.	0.	131.56
1042	4.	-9.	0.	126.13
1043	3.5	-9.	0.	120.36
1044	3.	-9.	0.	117.82
1045	2.5	-9.	0.	119.31
1046	2.	-9.0001	0.	124.04
1047	1.5	-9.0001	0.	128.52
1048	1.0001	-9.0002	0.	129.58
1049	3.2252e-005	-9.0002	0.	128.22
1050	-0.49998	-9.0002	0.	127.28
1051	-0.99999	-9.0001	0.	126.
1052	-1.5	-9.0001	0.	124.29
1053	-2.	-9.	0.	122.57
1054	-3.	-9.	0.	122.3
1055	-3.5	-9.	0.	123.4
1056	-4.	-9.	0.	123.78
1057	-4.5	-9.	0.	122.82
1058	-8.	-9.	0.	127.95
1059	-8.5	-9.	0.	129.6
1060	-9.	-9.	0.	130.74
1061	-9.	-8.	0.	131.05
1062	-9.	-7.5	0.	130.77
1063	-9.	-7.	0.	130.15
1064	-9.	-6.5	0.	129.49
1065	-9.	-6.	0.	129.19
1066	-9.	-5.5	0.	129.33
1067	-9.	-5.	0.	129.8
1068	-9.	-4.5	0.	130.19
1069	-9.	-4.	0.	130.17
1070	-9.	-3.5	0.	129.73
1071	-9.	-3.	0.	129.11
1072	-9.	-2.5	0.	128.52
1073	-9.	-2.	0.	128.05
1074	-9.	-1.5	0.	127.73
1075	-9.	-1.	0.	127.55
1076	-9.	-0.5	0.	127.48
1077	-9.	-4.034e-012	0.	127.51
1078	-9.	0.5	0.	127.61
1079	-9.	1.	0.	127.72
1080	-9.	1.5	0.	127.81
1081	-9.	2.	0.	127.85
1082	-9.	2.5	0.	127.84
1083	-9.	3.	0.	127.74
1084	-9.	3.5	0.	127.53
1085	-9.	4.5	0.	126.8
1086	-9.	5.	0.	126.38
1087	-9.	5.5	0.	126.07
1088	-9.	6.	0.	125.9
1089	-9.	7.	0.	125.59
1090	-9.	7.5	0.	125.24
1091	-9.	8.	0.	124.85
1092	-9.	8.5	0.	124.62
1093	-9.	9.	0.	124.72
1094	-8.5	9.	0.	124.64
1095	-7.5	9.	0.	124.12
1096	-6.5	7.5	0.	133.26
1097	-6.5	8.	0.	131.52
1098	-6.5	9.	0.	128.07
1099	-6.5	8.5	0.	129.34
1100	-3.5	9.	0.	127.42
1101	-3.5	8.	0.	129.97
1102	-3.5	8.5	0.	128.34
1103	-4.	7.5	0.	124.31
1104	-6.	7.5	0.	124.96
1105	-5.5	7.5	0.	115.66
1106	-5.	7.5	0.	115.56
1107	-4.5	7.5	0.	115.25
1108	-5.	-7.5	0.	124.07
1109	-5.5	-7.5	0.	113.15
1110	-6.	-7.5	0.	113.24
1111	-7.	-7.5	0.	125.45
1112	-6.5	-7.5	0.	113.82
1113	-7.5	-7.	0.	133.32
1114	-7.5	-6.5	0.	135.67
1115	-7.5	-6.	0.	137.57
1116	-7.5	-5.	0.	134.6
1117	-7.5	-5.5	0.	136.26
1118	-7.	-4.5	0.	128.04
1119	-6.5	-4.5	0.	116.92
1120	-6.	-4.5	0.	116.74
1121	-5.	-4.5	0.	125.84
1122	-5.5	-4.5	0.	116.15
1123	-4.5	-5.	0.	129.33
1124	-4.5	-7.	0.	130.71
1125	-4.5	-6.5	0.	132.58
1126	-4.5	-6.	0.	133.96
1127	-4.5	-5.5	0.	132.53
1128	-2.5	-2.0315e-009	0.	130.55
1129	-2.5	-0.5	0.	134.29
1130	-5.5	-1.	0.	131.36
1131	-5.5	-3.4872e-012	0.	129.43
1132	-5.5	-0.5	0.	129.25
1133	-5.	0.5	0.	124.46
1134	-3.	0.5	0.	126.
1135	-3.5	0.5	0.	116.33
1136	-4.	0.5	0.	116.11
1137	-4.5	0.5	0.	115.2
1138	4.5	2.	0.	128.83
1139	4.5	1.	0.	126.75
1140	4.5	1.5	0.	127.39
1141	2.	0.5	0.	130.61
1142	2.5	0.5	0.	124.63
1143	1.5	1.	0.	134.03
1144	1.5	2.	0.	134.37
1145	1.5	1.5	0.	133.62
1146	4.	2.5	0.	124.97
1147	3.5	2.5	0.	116.41
1148	3.	2.5	0.	117.82
1149	2.5	2.5	0.	118.03
1150	2.	2.5	0.	127.66
1151	5.5	7.	0.	129.82
1152	5.5	7.5	0.	132.08
1153	5.5	8.	0.	133.69
1154	5.5	9.	0.	129.48
1155	5.5	8.5	0.	132.39
1156	7.5	9.	0.	129.98
1157	7.5	8.5	0.	133.14
1158	7.5	8.	0.	134.71
1159	7.5	7.	0.	130.52
1160	7.5	7.5	0.	132.82
1161	7.	6.5	0.	122.24
1162	6.	6.5	0.	122.65
1163	6.5	6.5	0.	110.91
1164	-2.	4.5	0.	127.99
1165	-1.5	4.5	0.	119.38
1166	-1.	4.5	0.	119.81
1167	1.5047e-008	4.5	0.	126.59
1168	-0.5	4.5	0.	118.51
1169	0.5	4.	0.	130.4
1170	0.5	3.	0.	133.49
1171	0.5	3.5	0.	131.3
1172	2.6979e-008	2.5	0.	127.13
1173	-0.5	2.5	0.	118.49
1174	-1.	2.5	0.	119.12
1175	-2.	2.5	0.	127.08
1176	-1.5	2.5	0.	118.36
1177	-2.5	3.	0.	130.77
1178	-2.5	4.	0.	133.39
1179	-2.5	3.5	0.	131.33
1180	4.5	-7.	0.	131.79
1181	4.5	-8.	0.	132.36
1182	4.5	-7.5	0.	131.5
1183	4.	-8.5	0.	127.35
1184	3.5	-8.5	0.	117.49
1185	3.	-8.5	0.	117.53
1186	2.	-8.5001	0.	125.38
1187	2.5	-8.5	0.	116.67
1188	1.5001	-8.0002	0.	130.23
1189	1.5001	-7.0003	0.	129.41
1190	1.5001	-7.5002	0.	129.27
1191	2.0001	-6.5001	0.	124.84
1192	2.5	-6.5	0.	116.42
1193	4.	-6.5	0.	126.52
1194	3.5	-6.5	0.	117.24
1195	3.	-6.5	0.	117.42
1196	2.5	-1.	0.	131.17
1197	2.5	-8.5412e-009	0.	126.62
1198	2.5	-0.5	0.	127.78
1199	3.	0.5	0.	120.8
1200	3.5	0.5	0.	112.83
1201	4.	0.5	0.	121.08
1202	5.	0.50001	0.	131.72
1203	4.5	0.50001	0.	125.22
1204	5.5	1.0786e-005	0.	135.94
1205	5.5	-1.	0.	133.74
1206	5.5	-0.49999	0.	134.48
1207	5.	-1.5	0.	128.61
1208	4.5	-1.5	0.	118.66
1209	4.	-1.5	0.	118.47
1210	3.	-1.5	0.	127.42
1211	3.5	-1.5	0.	117.46
1212	2.	6.5	0.	126.17
1213	1.5	6.5	0.	116.06
1214	1.	6.5	0.	116.04
1215	-2.2014e-009	6.5	0.	125.22
1216	0.5	6.5	0.	115.54
1217	-0.5	7.	0.	130.68
1218	-0.5	7.5	0.	133.
1219	-0.5	8.	0.	134.6
1220	-0.5	9.	0.	129.28
1221	-0.5	8.5	0.	133.08
1222	2.5	7.	0.	132.27
1223	2.5	7.5	0.	133.71
1224	2.5	8.	0.	135.21
1225	2.5	8.5	0.	133.68
1226	2.5	9.	0.	129.65
1227	-5.	-1.5	0.	122.54
1228	-4.5	-1.5	0.	108.85
1229	-4.	-1.5	0.	111.14
1230	-3.	-1.5	0.	125.62
1231	-3.5	-1.5	0.	109.96
1232	-3.	-3.5	0.	127.17
1233	-3.5	-3.5	0.	118.45
1234	-4.	-3.5	0.	119.16
1235	-5.	-3.5	0.	124.83
1236	-4.5	-3.5	0.	117.61
1237	-5.5	-3.	0.	126.09
1238	-5.5	-2.	0.	130.92
1239	-5.5	-2.5	0.	127.45
1240	-2.5	-3.	0.	132.36
1241	-2.5	-2.5	0.	136.46
1242	-2.5	-2.	0.	140.44
1243	-2.5	-1.	0.	138.1
1244	-2.5	-1.5	0.	143.19
1245	-2.	-0.5	0.	123.11
1246	-1.	-0.5	0.	124.16
1247	-1.5	-0.5	0.	112.44
1248	-0.5	-1.	0.	133.96
1249	-0.5	-1.5	0.	140.44
1250	-0.99999	-3.5001	0.	128.86
1251	-2.	-3.5	0.	124.54
1252	-1.5	-3.5	0.	114.41
1253	6.5	-8.	0.	133.31
1254	6.5	-7.5	0.	135.65
1255	6.5	-7.	0.	137.46
1256	6.5	-6.	0.	134.22
1257	6.5	-6.5	0.	136.36
1258	7.	-5.5	0.	127.55
1259	7.5	-5.5	0.	115.69
1260	8.	-5.5	0.	115.24
1261	8.5	-5.5	0.	115.26
1262	9.	-8.5	0.	126.13
1263	8.5	-8.5	0.	114.62
1264	7.	-8.5	0.	126.28
1265	7.5	-8.5	0.	114.54
1266	8.	-8.5	0.	114.24
1267	-2.	-7.5	0.	119.96
1268	-3.	-7.5	0.	121.38
1269	-3.5	-7.	0.	129.07
1270	-3.5	-6.5	0.	131.19
1271	-3.5	-6.	0.	132.2
1272	-3.5	-5.	0.	128.01
1273	-3.5	-5.5	0.	130.63
1274	-3.	-4.5	0.	122.72
1275	-2.	-4.5	0.	122.14
1276	-2.5	-4.5	0.	111.45
1277	-1.5	-5.0001	0.	129.56
1278	-1.4999	-5.5002	0.	131.26
1279	-1.5	-7.0002	0.	128.21
1280	-1.4999	-6.5002	0.	130.45
1281	-1.4999	-6.0002	0.	132.42
1282	-3.5	6.	0.	132.61
1283	-3.5	5.	0.	132.36
1284	-3.5	5.5	0.	131.67
1285	-4.	4.5	0.	125.9
1286	-4.5	4.5	0.	116.08
1287	-5.	4.5	0.	116.44
1288	-5.5	4.5	0.	115.98
1289	-6.5	5.	0.	130.66
1290	-6.5	6.	0.	131.17
1291	-6.5	5.5	0.	130.05
1292	-4.	6.5	0.	124.94
1293	-4.5	6.5	0.	114.83
1294	-5.	6.5	0.	114.66
1295	-5.5	6.5	0.	114.74
1296	-6.	6.5	0.	125.3
1297	9.	-2.5	0.	122.69
1298	8.	-2.5	0.	123.11
1299	8.5	-2.5	0.	112.31
1300	7.5	-2.	0.	130.17
1301	7.5	-1.	0.	130.31
1302	7.5	-1.5	0.	130.36
1303	8.	-0.5	0.	121.07
1304	9.	-0.5	0.	120.77
1305	8.5	-0.5	0.	109.85
1306	9.	0.5	0.	120.99
1307	8.	0.5	0.	121.33
1308	8.5	0.5	0.	110.07
1309	7.5	1.	0.	131.1
1310	7.5	2.	0.	130.73
1311	7.5	1.5	0.	130.92
1312	8.	2.5	0.	124.22
1313	9.	2.5	0.	123.28
1314	8.5	2.5	0.	113.17
1315	-2.5097e-008	-1.5	0.	130.34
1316	0.5	-1.5	0.	120.4
1317	1.	-1.5	0.	120.46
1318	2.	-1.5	0.	129.21
1319	1.5	-1.5	0.	119.57
1320	2.5	-2.	0.	131.83
1321	2.5	-3.	0.	130.29
1322	2.5	-2.5	0.	129.9
1323	2.	-3.5	0.	126.25
1324	1.5	-3.5	0.	119.31
1325	1.	-3.5001	0.	121.38
1326	5.5824e-006	-3.5001	0.	132.92
1327	0.5	-3.5001	0.	122.11
1328	-0.5	-2.	0.	141.52
1329	-0.5	-2.5	0.	139.85
1330	-0.5	-3.	0.	137.67
1331	9.5	9.	0.	124.17
1332	9.5	8.5	0.	123.83
1333	9.5	8.	0.	123.84
1334	9.5	7.5	0.	124.22
1335	9.5	7.	0.	124.83
1336	9.5	6.5	0.	125.47
1337	9.5	6.	0.	125.97
1338	9.5	5.5	0.	126.25
1339	9.5	5.	0.	126.36
1340	9.5	4.5	0.	126.39
1341	9.5	4.	0.	126.43
1342	9.5	3.5	0.	126.59
1343	9.5	3.	0.	127.46
1344	9.5	2.5	0.	130.85
1345	9.5	2.	0.	131.1
1346	9.5	1.5	0.	131.36
1347	9.5	1.	0.	130.89
1348	9.5	0.5	0.	130.58
1349	9.5	1.4346e-007	0.	127.96
1350	9.5	-0.5	0.	130.44
1351	9.5	-1.	0.	130.66
1352	9.5	-1.5	0.	131.04
1353	9.5	-2.	0.	130.87
1354	9.5	-2.5	0.	130.72
1355	9.5	-3.	0.	127.6
1356	9.5	-3.5	0.	127.19
1357	9.5	-4.	0.	127.77
1358	9.5	-4.5	0.	128.84
1359	9.5	-5.	0.	130.76
1360	9.5	-5.5	0.	134.97
1361	9.5	-6.	0.	135.54
1362	9.5	-6.5	0.	137.89
1363	9.5	-7.	0.	139.49
1364	9.5	-7.5	0.	137.94
1365	9.5	-8.	0.	135.76
1366	9.5	-8.5	0.	135.32
1367	9.5	-9.	0.	131.41
1368	9.5	-9.5	0.	129.96
1369	9.	-9.5	0.	123.62
1370	8.5	-9.5	0.	118.3
1371	8.	-9.5	0.	116.28
1372	7.5	-9.5	0.	118.41
1373	7.	-9.5	0.	123.45
1374	6.5	-9.5	0.	128.66
1375	6.	-9.5	0.	132.06
1376	5.5	-9.5	0.	133.29
1377	5.	-9.5	0.	132.75
1378	4.5	-9.5	0.	130.17
1379	4.	-9.5	0.	125.85
1380	3.5	-9.5	0.	121.51
1381	3.	-9.5	0.	119.39
1382	2.5	-9.5	0.	120.39
1383	2.	-9.5	0.	123.64
1384	1.5	-9.5001	0.	126.97
1385	1.	-9.5001	0.	128.79
1386	0.50002	-9.5001	0.	129.02
1387	1.249e-005	-9.5001	0.	128.42
1388	-0.49999	-9.5001	0.	127.37
1389	-1.	-9.5001	0.	126.01
1390	-1.5	-9.5	0.	124.49
1391	-2.	-9.5	0.	123.17
1392	-2.5	-9.5	0.	122.47
1393	-3.	-9.5	0.	122.51
1394	-3.5	-9.5	0.	122.83
1395	-4.	-9.5	0.	122.78
1396	-4.5	-9.5	0.	121.94
1397	-5.	-9.5	0.	120.57
1398	-5.5	-9.5	0.	119.36
1399	-6.	-9.5	0.	119.1
1400	-6.5	-9.5	0.	120.17
1401	-7.	-9.5	0.	122.32
1402	-7.5	-9.5	0.	124.88
1403	-8.	-9.5	0.	127.22
1404	-8.5	-9.5	0.	129.07
1405	-9.	-9.5	0.	130.54
1406	-9.5	-9.5	0.	131.92
1407	-9.5	-9.	0.	131.81
1408	-9.5	-8.5	0.	131.54
1409	-9.5	-8.	0.	131.05
1410	-9.5	-7.5	0.	130.32
1411	-9.5	-7.	0.	129.45
1412	-9.5	-6.5	0.	128.7
1413	-9.5	-6.	0.	128.3
1414	-9.5	-5.5	0.	128.34
1415	-9.5	-5.	0.	128.7
1416	-9.5	-4.5	0.	129.12
1417	-9.5	-4.	0.	129.36
1418	-9.5	-3.5	0.	129.31
1419	-9.5	-3.	0.	129.02
1420	-9.5	-2.5	0.	128.62
1421	-9.5	-2.	0.	128.21
1422	-9.5	-1.5	0.	127.88
1423	-9.5	-1.	0.	127.66
1424	-9.5	-0.5	0.	127.57
1425	-9.5	-2.0814e-012	0.	127.58
1426	-9.5	0.5	0.	127.67
1427	-9.5	1.	0.	127.79
1428	-9.5	1.5	0.	127.89
1429	-9.5	2.	0.	127.92
1430	-9.5	2.5	0.	127.86
1431	-9.5	3.	0.	127.67
1432	-9.5	3.5	0.	127.36
1433	-9.5	4.	0.	126.93
1434	-9.5	4.5	0.	126.43
1435	-9.5	5.	0.	125.93
1436	-9.5	5.5	0.	125.5
1437	-9.5	6.	0.	125.18
1438	-9.5	6.5	0.	124.92
1439	-9.5	7.	0.	124.7
1440	-9.5	7.5	0.	124.5
1441	-9.5	8.	0.	124.38
1442	-9.5	8.5	0.	124.4
1443	-9.5	9.	0.	124.6
1444	-9.5	9.5	0.	124.91
1445	-9.	9.5	0.	125.09
1446	-8.5	9.5	0.	125.2
1447	-8.	9.5	0.	125.25
1448	-7.5	9.5	0.	125.3
1449	-7.	9.5	0.	125.83
1450	-6.5	9.5	0.	128.59
1451	-6.	9.5	0.	126.24
1452	-5.5	9.5	0.	119.76
1453	-5.	9.5	0.	121.2
1454	-4.5	9.5	0.	119.72
1455	-4.	9.5	0.	126.17
1456	-3.5	9.5	0.	128.51
1457	-3.	9.5	0.	125.79
1458	-2.5	9.5	0.	125.38
1459	-2.	9.5	0.	125.53
1460	-1.5	9.5	0.	125.82
1461	-1.	9.5	0.	126.53
1462	-0.5	9.5	0.	129.28
1463	-3.6382e-013	9.5	0.	126.72
1464	0.5	9.5	0.	118.95
1465	1.	9.5	0.	120.04
1466	1.5	9.5	0.	119.15
1467	2.	9.5	0.	127.29
1468	2.5	9.5	0.	129.86
1469	3.	9.5	0.	127.18
1470	3.5	9.5	0.	126.61
1471	4.	9.5	0.	126.48
1472	4.5	9.5	0.	126.5
1473	5.	9.5	0.	126.97
1474	5.5	9.5	0.	129.41
1475	6.	9.5	0.	125.4
1476	6.5	9.5	0.	115.3
1477	7.	9.5	0.	124.99
1478	7.5	9.5	0.	129.01
1479	8.	9.5	0.	126.41
1480	8.5	9.5	0.	125.65
1481	9.	9.5	0.	125.26
1482	9.5	9.5	0.	124.81
1483	3.	-3.5	0.	127.16
1484	8.	6.	0.	127.99
1485	-8.	-4.5	0.	133.38
1486	-2.5	-7.5	0.	108.98
1487	-9.	4.	0.	127.21
1488	-1.5	-8.2766e-010	0.	119.11
1489	-4.	-4.5	0.	127.59
1490	-6.5	-1.	0.	127.46
1491	9.	6.5	0.	126.46
1492	2.5	5.5	0.	126.82
1493	6.	-1.5	0.	131.63
1494	9.	5.5	0.	126.41
1495	-7.	-9.	0.	122.39
1496	-6.	-4.	0.	119.52
1497	1.5	4.	0.	125.17
1498	3.5	-2.	0.	119.51
1499	3.5	5.5	0.	128.14
1500	-7.5	6.	0.	128.01
1501	-3.	5.	0.	131.57
1502	1.9603e-004	-7.0006	0.	125.86
1503	4.5	3.	0.	128.31
1504	-2.	-8.0001	0.	120.01
1505	5.5	-7.	0.	129.67
1506	1.	1.	0.	130.07
1507	0.5	1.	0.	127.4
1508	-9.	-8.5	0.	130.97
1509	-5.	1.5	0.	122.23
1510	-7.5	5.	0.	127.5
1511	-8.	9.	0.	124.39
1512	2.	6.	0.	124.78
1513	-6.	0.5	0.	128.9
1514	-5.	-4.	0.	123.97
1515	-1.	1.	0.	121.8
1516	-5.5	-9.	0.	118.89
1517	5.5	-9.	0.	133.52
1518	-2.5	6.	0.	128.76
1519	-5.	-8.	0.	122.15
1520	-6.5	3.5	0.	126.46
1521	8.	4.5001	0.	124.96
1522	5.	7.	0.	128.48
1523	5.	-3.	0.	126.07
1524	8.	7.	0.	129.05
1525	-7.5	6.5	0.	129.42
1526	2.	-4.5001	0.	123.7
1527	2.	-5.0001	0.	123.18
1528	-7.	-4.	0.	126.37
1529	5.1947e-009	5.5	0.	123.33
1530	-3.5	-8.	0.	126.65
1531	-2.5	-9.	0.	121.77
1532	9.	7.	0.	125.97
1533	-7.5	-9.	0.	125.48
1534	0.5	-1.	0.	123.6
1535	8.	7.5	0.	128.47
1536	9.	7.5	0.	125.34
1537	-7.5	1.5	0.	127.75
1538	9.	-5.5	0.	126.36
1539	6.5	1.	0.	130.75
1540	1.	2.5	0.	133.91
1541	1.0002	-6.5005	0.	127.84
1542	-1.5	7.	0.	126.7
1543	-3.	2.5	0.	127.34
1544	-4.5	2.	0.	120.43
1545	5.	-3.5	0.	126.93
1546	3.5	7.	0.	127.48
1547	-8.5	5.5	0.	126.52
1548	-0.5	6.	0.	126.44
1549	4.5	3.5	0.	127.01
1550	0.5	5.	0.	125.83
1551	8.	8.	0.	128.66
1552	9.	8.	0.	124.85
1553	-4.	3.5	0.	122.03
1554	-1.	5.	0.	120.54
1555	4.5	7.	0.	126.99
1556	-5.	1.	0.	122.89
1557	-9.	6.5	0.	125.79
1558	4.5	-5.	0.	128.22
1559	-3.5	7.	0.	130.77
1560	-7.	-1.	0.	126.8
1561	6.5	1.3618e-005	0.	131.71
1562	-6.5	-9.	0.	119.62
1563	9.	6.	0.	126.6
1564	-6.	4.5	0.	125.03
1565	0.5	2.5	0.	134.67
1566	3.	4.5	0.	124.2
1567	5.	2.	0.	127.76
1568	5.5	-1.5	0.	134.57
1569	-6.5	2.5	0.	126.02
1570	-6.	3.5	0.	123.31
1571	4.5	4.	0.	126.71
1572	3.	-3.	0.	125.5
1573	2.	-5.5001	0.	123.02
1574	5.	-9.	0.	133.44
1575	5.	-2.5	0.	125.77
1576	-1.5	2.	0.	120.94
1577	7.	-5.	0.	125.5
1578	8.	5.0001	0.	125.58
1579	-5.	-9.	0.	120.82
1580	-1.5	1.	0.	122.6
1581	-6.	-9.	0.	118.3
1582	-2.5	2.	0.	127.92
1583	5.	-7.	0.	129.82
1584	8.	6.5	0.	129.17
1585	-5.	2.	0.	121.59
1586	3.	5.5	0.	127.92
1587	-8.	-4.	0.	132.12
1588	6.4343e-005	-5.0003	0.	127.42
1589	9.	-9.	0.	124.03
1590	-7.	5.5	0.	126.99
1591	7.	1.5	0.	128.46
1592	-6.	7.	0.	124.32
1593	-6.5	4.	0.	128.18
1594	-7.	2.	0.	127.37
1595	-5.5	-4.	0.	121.87
1596	-4.5	-4.	0.	124.16
1597	-3.	4.5	0.	133.13
1598	-0.9999	-7.0003	0.	127.41
1599	6.	-9.	0.	133.08
1600	-0.5	5.5	0.	123.49
1601	-7.	9.	0.	124.94
1602	-7.	6.5	0.	131.47
1603	5.5	5.5001	0.	126.37
1604	0.50005	-9.0002	0.	128.99
1605	6.5	2.5001	0.	129.14
1606	0.50019	-6.5006	0.	126.39
1607	7.	-4.5	0.	125.14
1608	5.5	-8.	0.	130.74
1609	-8.5	-6.	0.	130.07
1610	-3.5	-8.5	0.	124.48
1611	-2.5	1.5	0.	126.4
1612	0.5	5.5	0.	122.25
1613	-0.5	1.	0.	122.99
1614	-5.	2.5	0.	120.82
1615	7.	4.5002	0.	125.25
1616	4.5	-4.5	0.	127.57
1617	3.	-0.25	0.	135.69
1618	3.25	0.	0.	122.11
1619	2.75	-4.2706e-009	0.	127.79
1620	3.	0.25	0.	125.38
1621	3.	-0.75	0.	138.64
1622	3.25	-1.	0.	126.45
1623	2.75	-1.	0.	133.37
1624	3.	-1.25	0.	131.64
1625	4.75	0.	0.	131.39
1626	5.	-0.25	0.	144.39
1627	5.	0.25001	0.	136.28
1628	5.25	5.3929e-006	0.	138.1
1629	4.75	-1.	0.	128.73
1630	5.	-0.75	0.	143.54
1631	5.25	-1.	0.	136.11
1632	5.	-1.25	0.	133.92
1633	2.	1.75	0.	142.79
1634	2.25	2.	0.	128.15
1635	1.75	2.	0.	135.93
1636	2.	2.25	0.	132.91
1637	2.	1.25	0.	143.77
1638	2.25	1.	0.	130.69
1639	2.	0.75	0.	135.4
1640	1.75	1.	0.	136.79
1641	3.75	2.	0.	124.22
1642	4.	1.75	0.	136.32
1643	4.25	2.	0.	130.78
1644	4.	2.25	0.	129.1
1645	3.75	1.	0.	121.64
1646	4.	1.25	0.	134.51
1647	4.25	1.	0.	127.7
1648	4.	0.75	0.	125.31
1649	0.	-2.25	0.	145.02
1650	0.25	-2.	0.	130.17
1651	-1.2549e-008	-1.75	0.	135.59
1652	-0.25	-2.	0.	140.83
1653	0.	-2.75	0.	145.66
1654	0.25	-3.	0.	131.42
1655	2.7912e-006	-3.25	0.	137.52
1656	-0.25	-3.	0.	139.61
1657	1.75	-2.	0.	128.8
1658	2.	-2.25	0.	142.14
1659	2.	-1.75	0.	133.97
1660	2.25	-2.	0.	135.07
1661	1.75	-3.	0.	127.27
1662	2.	-2.75	0.	140.67
1663	2.25	-3.	0.	132.68
1664	2.	-3.25	0.	131.01
1665	-6.	5.75	0.	138.62
1666	-5.75	6.	0.	124.46
1667	-6.25	6.	0.	132.49
1668	-6.	6.25	0.	129.84
1669	-6.	5.25	0.	138.55
1670	-5.75	5.	0.	124.8
1671	-6.25	5.	0.	132.15
1672	-6.	4.75	0.	129.65
1673	-4.25	6.	0.	124.71
1674	-4.	5.75	0.	139.23
1675	-3.75	6.	0.	133.14
1676	-4.	6.25	0.	129.62
1677	-4.25	5.	0.	125.72
1678	-4.	5.25	0.	140.04
1679	-3.75	5.	0.	133.88
1680	-4.	4.75	0.	130.97
1681	8.	1.75	0.	138.49
1682	8.25	2.	0.	122.62
1683	7.75	2.	0.	132.27
1684	8.	2.25	0.	129.35
1685	8.	1.25	0.	137.45
1686	8.25	1.	0.	120.8
1687	8.	0.75	0.	126.8
1688	7.75	1.	0.	131.35
1689	8.75	2.	0.	122.36
1690	9.	1.75	0.	138.79
1691	9.	2.25	0.	128.54
1692	9.25	2.	0.	132.12
1693	8.75	1.	0.	121.05
1694	9.	1.25	0.	138.27
1695	9.	0.75	0.	126.87
1696	9.25	1.	0.	131.46
1697	8.	-1.25	0.	136.81
1698	8.25	-1.	0.	120.34
1699	7.75	-1.	0.	130.72
1700	8.	-0.75	0.	126.43
1701	8.	-1.75	0.	137.67
1702	8.25	-2.	0.	121.85
1703	8.	-2.25	0.	128.37
1704	7.75	-2.	0.	131.56
1705	8.75	-1.	0.	120.67
1706	9.	-1.25	0.	137.93
1707	9.	-0.75	0.	126.57
1708	9.25	-1.	0.	131.17
1709	8.75	-2.	0.	121.76
1710	9.	-1.75	0.	138.39
1711	9.	-2.25	0.	127.99
1712	9.25	-2.	0.	131.76
1713	2.	-7.25	0.	138.4
1714	2.25	-7.	0.	124.79
1715	1.75	-7.0001	0.	131.5
1716	2.	-6.7501	0.	129.54
1717	2.	-7.75	0.	138.5
1718	2.25	-8.	0.	125.07
1719	2.	-8.25	0.	129.9
1720	1.75	-8.0001	0.	132.02
1721	3.75	-7.	0.	125.85
1722	4.	-7.25	0.	139.81
1723	4.25	-7.	0.	133.38
1724	4.	-6.75	0.	131.06
1725	3.75	-8.	0.	126.3
1726	4.	-7.75	0.	140.19
1727	4.25	-8.	0.	134.06
1728	4.	-8.25	0.	131.86
1729	6.	8.75	0.	138.67
1730	6.25	9.	0.	122.87
1731	5.75	9.	0.	132.23
1732	6.	9.25	0.	130.51
1733	6.	7.25	0.	136.37
1734	6.25	7.	0.	119.73
1735	5.75	7.	0.	130.73
1736	6.	6.75	0.	127.48
1737	6.75	9.	0.	122.78
1738	7.	8.75	0.	138.94
1739	7.25	9.	0.	132.35
1740	7.	9.25	0.	130.18
1741	6.75	7.	0.	119.69
1742	7.	7.25	0.	136.78
1743	7.25	7.	0.	130.98
1744	7.	6.75	0.	127.17
1745	-5.	-0.25	0.	137.05
1746	-4.75	0.	0.	123.55
1747	-5.25	-1.7436e-012	0.	131.11
1748	-5.	0.25	0.	128.94
1749	-5.	-0.75	0.	136.05
1750	-4.75	-1.	0.	120.82
1751	-5.25	-1.	0.	131.04
1752	-5.	-1.25	0.	126.85
1753	-3.25	0.	0.	125.8
1754	-3.	-0.25	0.	141.06
1755	-2.75	-1.0158e-009	0.	133.05
1756	-3.	0.25	0.	131.21
1757	-3.25	-1.	0.	123.56
1758	-3.	-0.75	0.	140.29
1759	-3.	-1.25	0.	130.13
1760	-2.75	-1.	0.	136.15
1761	-5.	-2.25	0.	134.88
1762	-4.75	-2.	0.	120.26
1763	-5.	-1.75	0.	126.24
1764	-5.25	-2.	0.	130.26
1765	-5.	-2.75	0.	136.41
1766	-4.75	-3.	0.	123.66
1767	-5.	-3.25	0.	129.12
1768	-5.25	-3.	0.	129.4
1769	-3.25	-2.	0.	122.65
1770	-3.	-2.25	0.	138.68
1771	-3.	-1.75	0.	129.94
1772	-2.75	-2.	0.	137.15
1773	-3.25	-3.	0.	125.88
1774	-3.	-2.75	0.	139.64
1775	-3.	-3.25	0.	131.83
1776	-2.75	-3.	0.	134.09
1777	-6.	8.75	0.	140.5
1778	-5.75	9.	0.	127.83
1779	-6.25	9.	0.	132.31
1780	-6.	9.25	0.	131.75
1781	-6.	8.25	0.	138.97
1782	-5.75	8.	0.	125.1
1783	-6.25	8.	0.	132.39
1784	-6.	7.75	0.	129.41
1785	-4.25	9.	0.	127.49
1786	-4.	8.75	0.	139.77
1787	-3.75	9.	0.	131.76
1788	-4.	9.25	0.	131.48
1789	-4.25	8.	0.	124.42
1790	-4.	8.25	0.	138.08
1791	-3.75	8.	0.	131.24
1792	-4.	7.75	0.	128.72
1793	-2.	-1.25	0.	142.69
1794	-1.75	-1.	0.	122.98
1795	-2.25	-1.	0.	136.5
1796	-2.	-0.75	0.	129.59
1797	-2.	-2.75	0.	137.34
1798	-1.75	-3.	0.	121.17
1799	-2.25	-3.	0.	132.77
1800	-2.	-3.25	0.	129.15
1801	-1.25	-1.	0.	123.24
1802	-1.	-1.25	0.	141.91
1803	-1.	-0.75	0.	130.39
1804	-0.75	-1.	0.	134.78
1805	-1.25	-3.	0.	122.46
1806	-1.	-2.75	0.	139.23
1807	-0.99999	-3.25	0.	132.58
1808	-0.75	-3.	0.	136.8
1809	-2.	3.75	0.	141.19
1810	-1.75	4.	0.	127.96
1811	-2.	4.25	0.	132.49
1812	-2.25	4.	0.	134.92
1813	-2.	3.25	0.	141.14
1814	-1.75	3.	0.	127.33
1815	-2.	2.75	0.	132.05
1816	-2.25	3.	0.	133.53
1817	-0.25	4.	0.	127.18
1818	0.	3.75	0.	140.88
1819	7.5233e-009	4.25	0.	131.7
1820	0.25	4.	0.	133.23
1821	-0.25	3.	0.	127.42
1822	0.	3.25	0.	140.76
1823	0.25	3.	0.	134.67
1824	1.349e-008	2.75	0.	131.76
1825	-7.	-5.25	0.	141.49
1826	-6.75	-5.	0.	126.16
1827	-7.25	-5.	0.	135.66
1828	-7.	-4.75	0.	132.72
1829	-7.	-6.75	0.	140.14
1830	-6.75	-7.	0.	124.03
1831	-7.	-7.25	0.	130.51
1832	-7.25	-7.	0.	134.07
1833	-5.25	-5.	0.	124.02
1834	-5.	-5.25	0.	138.34
1835	-5.	-4.75	0.	130.57
1836	-4.75	-5.	0.	131.92
1837	-5.25	-7.	0.	122.46
1838	-5.	-6.75	0.	137.39
1839	-5.	-7.25	0.	128.76
1840	-4.75	-7.	0.	131.73
1841	7.	-6.25	0.	141.57
1842	7.25	-6.	0.	125.88
1843	6.75	-6.	0.	135.56
1844	7.	-5.75	0.	132.59
1845	7.	-7.75	0.	140.62
1846	7.25	-8.	0.	124.84
1847	6.75	-8.	0.	134.49
1848	7.	-8.25	0.	131.35
1849	8.75	-6.	0.	126.05
1850	9.	-6.25	0.	142.73
1851	9.25	-6.	0.	136.01
1852	9.	-5.75	0.	131.81
1853	8.75	-8.	0.	125.73
1854	9.	-7.75	0.	142.61
1855	9.	-8.25	0.	131.58
1856	9.25	-8.	0.	136.02
1857	-3.	-5.25	0.	134.18
1858	-2.75	-5.	0.	118.45
1859	-3.25	-5.	0.	129.19
1860	-3.	-4.75	0.	126.88
1861	-3.	-6.75	0.	134.09
1862	-2.75	-7.	0.	117.56
1863	-3.	-7.25	0.	126.04
1864	-3.25	-7.	0.	129.58
1865	-2.25	-5.	0.	118.48
1866	-2.	-5.25	0.	134.99
1867	-2.	-4.75	0.	126.55
1868	-1.75	-5.0001	0.	129.94
1869	-2.25	-7.	0.	116.89
1870	-2.	-6.75	0.	133.72
1871	-2.	-7.25	0.	124.6
1872	-1.75	-7.0001	0.	128.41
1873	0.	8.75	0.	141.56
1874	0.25	9.	0.	127.69
1875	-0.25	9.	0.	133.45
1876	-1.8191e-013	9.25	0.	132.57
1877	0.	7.25	0.	139.31
1878	0.25	7.	0.	124.41
1879	-1.1007e-009	6.75	0.	130.11
1880	-0.25	7.	0.	132.44
1881	1.75	9.	0.	128.12
1882	2.	8.75	0.	142.24
1883	2.25	9.	0.	134.02
1884	2.	9.25	0.	133.25
1885	1.75	7.	0.	125.05
1886	2.	7.25	0.	139.97
1887	2.	6.75	0.	130.81
1888	2.25	7.	0.	133.51
1889	9.75	10.	0.	125.14
1890	10.	9.75	0.	124.82
1891	-9.75	10.	0.	125.05
1892	-10.	9.75	0.	124.94
1893	10.	-9.75	0.	134.58
1894	9.75	-10.	0.	131.84
1895	-10.	-9.75	0.	133.61
1896	-9.75	-10.	0.	132.8
1897	2.75	-0.5	0.	134.7
1898	3.75	0.	0.	119.39
1899	3.5	0.25	0.	113.64
1900	4.25	0.	0.	123.56
1901	4.	0.25	0.	122.61
1902	4.5	0.25	0.	123.91
1903	3.75	-1.	0.	120.72
1904	3.5	-1.25	0.	117.54
1905	4.25	-1.	0.	121.25
1906	4.	-1.25	0.	120.96
1907	4.5	-1.25	0.	118.67
1908	5.25	-0.5	0.	141.39
1909	1.75	1.5	0.	140.67
1910	2.75	2.	0.	120.66
1911	2.5	2.25	0.	118.29
1912	3.25	2.	0.	119.31
1913	3.	2.25	0.	120.15
1914	3.5	2.25	0.	116.1
1915	2.75	1.	0.	122.95
1916	2.5	0.75	0.	123.25
1917	3.25	1.	0.	118.92
1918	3.	0.75	0.	122.21
1919	3.5	0.75	0.	113.41
1920	4.25	1.5	0.	133.57
1921	-0.25	-2.5	0.	144.69
1922	0.75	-2.	0.	122.66
1923	0.5	-1.75	0.	120.19
1924	1.25	-2.	0.	122.34
1925	1.	-1.75	0.	122.73
1926	1.5	-1.75	0.	119.48
1927	0.75	-3.	0.	123.53
1928	0.5	-3.25	0.	121.68
1929	1.25	-3.	0.	122.51
1930	1.	-3.25	0.	123.48
1931	1.5	-3.25	0.	119.26
1932	2.25	-2.5	0.	137.87
1933	-6.25	5.5	0.	136.58
1934	-5.25	6.	0.	117.47
1935	-5.5	6.25	0.	114.84
1936	-4.75	6.	0.	117.74
1937	-5.	6.25	0.	117.22
1938	-4.5	6.25	0.	115.17
1939	-5.25	5.	0.	118.47
1940	-5.5	4.75	0.	115.89
1941	-4.75	5.	0.	118.54
1942	-5.	4.75	0.	118.65
1943	-4.5	4.75	0.	115.99
1944	-3.75	5.5	0.	138.02
1945	7.75	1.5	0.	136.94
1946	8.5	2.25	0.	112.12
1947	8.5	0.75	0.	109.75
1948	9.25	1.5	0.	137.72
1949	7.75	-1.5	0.	136.27
1950	8.5	-0.75	0.	109.43
1951	8.5	-2.25	0.	111.33
1952	9.25	-1.5	0.	137.4
1953	1.75	-7.5001	0.	136.08
1954	2.75	-7.	0.	118.82
1955	2.5	-6.75	0.	116.12
1956	3.25	-7.	0.	119.2
1957	3.	-6.75	0.	119.47
1958	3.5	-6.75	0.	116.92
1959	2.75	-8.	0.	119.08
1960	2.5	-8.25	0.	116.44
1961	3.25	-8.	0.	119.37
1962	3.	-8.25	0.	119.62
1963	3.5	-8.25	0.	117.12
1964	4.25	-7.5	0.	137.93
1965	6.	8.25	0.	142.06
1966	5.75	8.5	0.	137.34
1967	6.	7.75	0.	141.36
1968	5.75	8.	0.	137.74
1969	5.75	7.5	0.	136.5
1970	6.5	9.25	0.	112.99
1971	6.5	6.75	0.	109.25
1972	7.	8.25	0.	142.9
1973	7.25	8.5	0.	138.09
1974	7.	7.75	0.	142.29
1975	7.25	8.	0.	138.73
1976	7.25	7.5	0.	137.33
1977	-5.25	-0.5	0.	135.14
1978	-4.25	0.	0.	117.19
1979	-4.5	0.25	0.	114.72
1980	-3.75	0.	0.	117.87
1981	-4.	0.25	0.	117.94
1982	-3.5	0.25	0.	116.
1983	-4.25	-1.	0.	112.9
1984	-4.5	-1.25	0.	109.76
1985	-3.75	-1.	0.	113.91
1986	-4.	-1.25	0.	113.09
1987	-3.5	-1.25	0.	111.32
1988	-2.75	-0.5	0.	140.14
1989	-5.25	-2.5	0.	133.66
1990	-4.25	-2.	0.	112.61
1991	-4.5	-1.75	0.	109.82
1992	-3.75	-2.	0.	112.88
1993	-4.	-1.75	0.	112.77
1994	-3.5	-1.75	0.	110.61
1995	-4.25	-3.	0.	117.89
1996	-4.5	-3.25	0.	116.12
1997	-3.75	-3.	0.	118.51
1998	-4.	-3.25	0.	119.97
1999	-3.5	-3.25	0.	117.17
2000	-2.75	-2.5	0.	139.83
2001	-6.25	8.5	0.	136.79
2002	-5.25	9.	0.	122.75
2003	-5.5	9.25	0.	119.38
2004	-4.75	9.	0.	122.65
2005	-5.	9.25	0.	123.5
2006	-4.5	9.25	0.	119.26
2007	-5.25	8.	0.	118.98
2008	-5.5	7.75	0.	116.15
2009	-4.75	8.	0.	118.69
2010	-5.	7.75	0.	118.4
2011	-4.5	7.75	0.	115.65
2012	-3.75	8.5	0.	135.79
2013	-2.	-1.75	0.	148.11
2014	-2.25	-1.5	0.	146.37
2015	-2.	-2.25	0.	144.05
2016	-2.25	-2.	0.	143.52
2017	-2.25	-2.5	0.	138.93
2018	-1.5	-0.75	0.	111.25
2019	-1.5	-3.25	0.	111.77
2020	-1.	-1.75	0.	146.66
2021	-0.75	-1.5	0.	143.98
2022	-1.	-2.25	0.	144.19
2023	-0.75	-2.	0.	143.65
2024	-0.75	-2.5	0.	141.2
2025	-2.25	3.5	0.	138.49
2026	-1.25	4.	0.	121.95
2027	-1.5	4.25	0.	119.4
2028	-0.75	4.	0.	121.28
2029	-1.	4.25	0.	122.01
2030	-0.5	4.25	0.	118.26
2031	-1.25	3.	0.	121.13
2032	-1.5	2.75	0.	118.24
2033	-0.75	3.	0.	121.5
2034	-1.	2.75	0.	121.48
2035	-0.5	2.75	0.	118.69
2036	0.25	3.5	0.	138.33
2037	-7.	-5.75	0.	146.33
2038	-7.25	-5.5	0.	141.11
2039	-7.	-6.25	0.	145.89
2040	-7.25	-6.	0.	142.13
2041	-7.25	-6.5	0.	140.38
2042	-6.25	-5.	0.	117.77
2043	-6.5	-4.75	0.	116.25
2044	-5.75	-5.	0.	116.74
2045	-6.	-4.75	0.	118.14
2046	-5.5	-4.75	0.	114.81
2047	-6.25	-7.	0.	115.23
2048	-6.5	-7.25	0.	113.44
2049	-5.75	-7.	0.	114.74
2050	-6.	-7.25	0.	115.13
2051	-5.5	-7.25	0.	112.61
2052	-5.	-5.75	0.	142.39
2053	-4.75	-5.5	0.	137.24
2054	-5.	-6.25	0.	142.29
2055	-4.75	-6.	0.	138.39
2056	-4.75	-6.5	0.	137.16
2057	7.	-6.75	0.	146.36
2058	6.75	-6.5	0.	141.15
2059	7.	-7.25	0.	146.02
2060	6.75	-7.	0.	142.11
2061	6.75	-7.5	0.	140.46
2062	7.75	-6.	0.	117.36
2063	7.5	-5.75	0.	115.22
2064	8.25	-6.	0.	117.66
2065	8.	-5.75	0.	117.39
2066	8.5	-5.75	0.	115.31
2067	7.75	-8.	0.	116.52
2068	7.5	-8.25	0.	114.19
2069	8.25	-8.	0.	117.04
2070	8.	-8.25	0.	116.5
2071	8.5	-8.25	0.	114.77
2072	9.	-6.75	0.	149.43
2073	9.25	-6.5	0.	143.21
2074	9.	-7.25	0.	149.42
2075	9.25	-7.	0.	144.92
2076	9.25	-7.5	0.	143.22
2077	-3.	-5.75	0.	137.89
2078	-3.25	-5.5	0.	134.24
2079	-3.	-6.25	0.	137.94
2080	-3.25	-6.	0.	135.06
2081	-3.25	-6.5	0.	134.56
2082	-2.5	-4.75	0.	108.97
2083	-2.5	-7.25	0.	106.94
2084	-2.	-5.75	0.	139.29
2085	-1.75	-5.5001	0.	135.33
2086	-2.	-6.25	0.	138.88
2087	-1.75	-6.0001	0.	135.81
2088	-1.75	-6.5001	0.	134.5
2089	0.	8.25	0.	145.59
2090	-0.25	8.5	0.	139.19
2091	0.	7.75	0.	144.98
2092	-0.25	8.	0.	140.22
2093	-0.25	7.5	0.	138.55
2094	0.75	9.	0.	121.51
2095	0.5	9.25	0.	118.3
2096	1.25	9.	0.	121.54
2097	1.	9.25	0.	122.24
2098	1.5	9.25	0.	118.45
2099	0.75	7.	0.	117.23
2100	0.5	6.75	0.	114.96
2101	1.25	7.	0.	117.63
2102	1.	6.75	0.	117.87
2103	1.5	6.75	0.	115.64
2104	2.	8.25	0.	146.2
2105	2.25	8.5	0.	139.78
2106	2.	7.75	0.	145.69
2107	2.25	8.	0.	140.85
2108	2.25	7.5	0.	139.3
2109	9.25	10.	0.	125.59
2110	9.5	9.75	0.	125.01
2111	8.75	10.	0.	126.39
2112	9.	9.75	0.	125.61
2113	8.25	10.	0.	127.11
2114	8.5	9.75	0.	126.22
2115	7.75	10.	0.	126.51
2116	8.	9.75	0.	126.9
2117	7.25	10.	0.	122.98
2118	7.5	9.75	0.	127.3
2119	6.75	10.	0.	119.49
2120	7.	9.75	0.	122.54
2121	6.25	10.	0.	119.68
2122	6.5	9.75	0.	116.82
2123	5.75	10.	0.	123.66
2124	6.	9.75	0.	122.93
2125	5.25	10.	0.	127.82
2126	5.5	9.75	0.	127.96
2127	4.75	10.	0.	129.21
2128	5.	9.75	0.	127.99
2129	4.25	10.	0.	129.5
2130	4.5	9.75	0.	127.91
2131	3.75	10.	0.	129.87
2132	4.	9.75	0.	128.04
2133	3.25	10.	0.	130.36
2134	3.5	9.75	0.	128.32
2135	2.75	10.	0.	129.7
2136	3.	9.75	0.	128.86
2137	2.25	10.	0.	125.7
2138	2.5	9.75	0.	129.26
2139	1.75	10.	0.	120.14
2140	2.	9.75	0.	124.79
2141	1.25	10.	0.	116.47
2142	1.5	9.75	0.	118.24
2143	0.75	10.	0.	116.36
2144	1.	9.75	0.	117.35
2145	0.25	10.	0.	119.76
2146	0.5	9.75	0.	118.03
2147	-0.25	10.	0.	125.01
2148	-1.8451e-013	9.75	0.	124.25
2149	-0.75	10.	0.	128.77
2150	-0.5	9.75	0.	128.55
2151	-1.25	10.	0.	129.31
2152	-1.	9.75	0.	128.04
2153	-1.75	10.	0.	128.78
2154	-1.5	9.75	0.	127.39
2155	-2.25	10.	0.	128.51
2156	-2.	9.75	0.	127.02
2157	-2.75	10.	0.	128.67
2158	-2.5	9.75	0.	126.9
2159	-3.25	10.	0.	128.2
2160	-3.	9.75	0.	127.3
2161	-3.75	10.	0.	125.11
2162	-3.5	9.75	0.	127.98
2163	-4.25	10.	0.	120.67
2164	-4.	9.75	0.	124.33
2165	-4.75	10.	0.	117.65
2166	-4.5	9.75	0.	119.08
2167	-5.25	10.	0.	117.64
2168	-5.	9.75	0.	118.71
2169	-5.75	10.	0.	120.62
2170	-5.5	9.75	0.	119.09
2171	-6.25	10.	0.	124.94
2172	-6.	9.75	0.	124.32
2173	-6.75	10.	0.	127.75
2174	-6.5	9.75	0.	127.9
2175	-7.25	10.	0.	127.74
2176	-7.	9.75	0.	127.01
2177	-7.75	10.	0.	126.85
2178	-7.5	9.75	0.	126.27
2179	-8.25	10.	0.	126.14
2180	-8.	9.75	0.	125.85
2181	-8.75	10.	0.	125.6
2182	-8.5	9.75	0.	125.51
2183	-9.25	10.	0.	125.23
2184	-9.	9.75	0.	125.23
2185	-9.5	9.75	0.	124.99
2186	10.	9.25	0.	123.98
2187	9.75	9.5	0.	124.7
2188	10.	8.75	0.	122.84
2189	9.75	9.	0.	123.76
2190	10.	8.25	0.	122.18
2191	9.75	8.5	0.	123.08
2192	10.	7.75	0.	122.28
2193	9.75	8.	0.	122.94
2194	10.	7.25	0.	123.05
2195	9.75	7.5	0.	123.37
2196	10.	6.75	0.	124.17
2197	9.75	7.	0.	124.2
2198	10.	6.25	0.	125.27
2199	9.75	6.5	0.	125.12
2200	10.	5.75	0.	126.11
2201	9.75	6.	0.	125.87
2202	10.	5.25	0.	126.63
2203	9.75	5.5	0.	126.34
2204	10.	4.75	0.	126.98
2205	9.75	5.	0.	126.59
2206	10.	4.25	0.	127.44
2207	9.75	4.5	0.	126.76
2208	10.	3.75	0.	128.38
2209	9.75	4.	0.	127.08
2210	10.	3.25	0.	130.04
2211	9.75	3.5	0.	127.8
2212	10.	2.75	0.	131.21
2213	9.75	3.	0.	129.25
2214	10.	2.25	0.	129.47
2215	9.75	2.5	0.	131.1
2216	10.	1.75	0.	125.68
2217	9.75	2.	0.	129.31
2218	10.	1.25	0.	125.83
2219	9.75	1.5	0.	127.57
2220	10.	0.75	0.	130.26
2221	9.75	1.	0.	129.35
2222	10.	0.25	0.	133.45
2223	9.75	0.5	0.	131.62
2224	10.	-0.25	0.	133.36
2225	9.75	7.1728e-008	0.	131.1
2226	10.	-0.75	0.	130.
2227	9.75	-0.5	0.	131.45
2228	10.	-1.25	0.	125.46
2229	9.75	-1.	0.	129.06
2230	10.	-1.75	0.	125.31
2231	9.75	-1.5	0.	127.21
2232	10.	-2.25	0.	129.26
2233	9.75	-2.	0.	129.02
2234	10.	-2.75	0.	131.41
2235	9.75	-2.5	0.	131.
2236	10.	-3.25	0.	131.04
2237	9.75	-3.	0.	129.57
2238	10.	-3.75	0.	130.78
2239	9.75	-3.5	0.	128.87
2240	10.	-4.25	0.	132.1
2241	9.75	-4.	0.	129.39
2242	10.	-4.75	0.	134.75
2243	9.75	-4.5	0.	131.
2244	10.	-5.25	0.	136.87
2245	9.75	-5.	0.	133.53
2246	10.	-5.75	0.	135.67
2247	9.75	-5.5	0.	136.18
2248	10.	-6.25	0.	131.82
2249	9.75	-6.	0.	134.72
2250	10.	-6.75	0.	129.53
2251	9.75	-6.5	0.	133.8
2252	10.	-7.25	0.	129.59
2253	9.75	-7.	0.	134.43
2254	10.	-7.75	0.	132.02
2255	9.75	-7.5	0.	133.88
2256	10.	-8.25	0.	136.09
2257	9.75	-8.	0.	134.97
2258	10.	-8.75	0.	137.67
2259	9.75	-8.5	0.	136.63
2260	10.	-9.25	0.	136.22
2261	9.75	-9.	0.	134.38
2262	9.75	-9.5	0.	132.5
2263	-10.	9.25	0.	124.61
2264	-9.75	9.5	0.	124.89
2265	-10.	8.75	0.	124.1
2266	-9.75	9.	0.	124.47
2267	-10.	8.25	0.	123.71
2268	-9.75	8.5	0.	124.12
2269	-10.	7.75	0.	123.57
2270	-9.75	8.	0.	123.98
2271	-10.	7.25	0.	123.64
2272	-9.75	7.5	0.	124.03
2273	-10.	6.75	0.	123.83
2274	-9.75	7.	0.	124.21
2275	-10.	6.25	0.	124.11
2276	-9.75	6.5	0.	124.44
2277	-10.	5.75	0.	124.49
2278	-9.75	6.	0.	124.72
2279	-10.	5.25	0.	125.02
2280	-9.75	5.5	0.	125.11
2281	-10.	4.75	0.	125.69
2282	-9.75	5.	0.	125.63
2283	-10.	4.25	0.	126.43
2284	-9.75	4.5	0.	126.24
2285	-10.	3.75	0.	127.13
2286	-9.75	4.	0.	126.86
2287	-10.	3.25	0.	127.69
2288	-9.75	3.5	0.	127.4
2289	-10.	2.75	0.	128.05
2290	-9.75	3.	0.	127.8
2291	-10.	2.25	0.	128.21
2292	-9.75	2.5	0.	128.02
2293	-10.	1.75	0.	128.18
2294	-9.75	2.	0.	128.08
2295	-10.	1.25	0.	128.02
2296	-9.75	1.5	0.	128.01
2297	-10.	0.75	0.	127.79
2298	-9.75	1.	0.	127.85
2299	-10.	0.25	0.	127.57
2300	-9.75	0.5	0.	127.67
2301	-10.	-0.25	0.	127.43
2302	-9.75	-1.0433e-012	0.	127.53
2303	-10.	-0.75	0.	127.43
2304	-9.75	-0.5	0.	127.48
2305	-10.	-1.25	0.	127.62
2306	-9.75	-1.	0.	127.57
2307	-10.	-1.75	0.	128.
2308	-9.75	-1.5	0.	127.82
2309	-10.	-2.25	0.	128.5
2310	-9.75	-2.	0.	128.22
2311	-10.	-2.75	0.	129.
2312	-9.75	-2.5	0.	128.69
2313	-10.	-3.25	0.	129.33
2314	-9.75	-3.	0.	129.13
2315	-10.	-3.75	0.	129.29
2316	-9.75	-3.5	0.	129.36
2317	-10.	-4.25	0.	128.78
2318	-9.75	-4.	0.	129.25
2319	-10.	-4.75	0.	127.91
2320	-9.75	-4.5	0.	128.76
2321	-10.	-5.25	0.	127.02
2322	-9.75	-5.	0.	128.06
2323	-10.	-5.75	0.	126.54
2324	-9.75	-5.5	0.	127.48
2325	-10.	-6.25	0.	126.79
2326	-9.75	-6.	0.	127.38
2327	-10.	-6.75	0.	127.8
2328	-9.75	-6.5	0.	127.91
2329	-10.	-7.25	0.	129.28
2330	-9.75	-7.	0.	128.96
2331	-10.	-7.75	0.	130.83
2332	-9.75	-7.5	0.	130.21
2333	-10.	-8.25	0.	132.1
2334	-9.75	-8.	0.	131.31
2335	-10.	-8.75	0.	132.95
2336	-9.75	-8.5	0.	132.09
2337	-10.	-9.25	0.	133.42
2338	-9.75	-9.	0.	132.54
2339	-9.75	-9.5	0.	132.75
2340	-9.25	-10.	0.	131.21
2341	-9.5	-9.75	0.	131.94
2342	-8.75	-10.	0.	129.68
2343	-9.	-9.75	0.	130.5
2344	-8.25	-10.	0.	127.95
2345	-8.5	-9.75	0.	128.99
2346	-7.75	-10.	0.	125.85
2347	-8.	-9.75	0.	127.11
2348	-7.25	-10.	0.	123.5
2349	-7.5	-9.75	0.	124.79
2350	-6.75	-10.	0.	121.32
2351	-7.	-9.75	0.	122.31
2352	-6.25	-10.	0.	119.84
2353	-6.5	-9.75	0.	120.26
2354	-5.75	-10.	0.	119.42
2355	-6.	-9.75	0.	119.22
2356	-5.25	-10.	0.	119.99
2357	-5.5	-9.75	0.	119.43
2358	-4.75	-10.	0.	121.09
2359	-5.	-9.75	0.	120.53
2360	-4.25	-10.	0.	122.08
2361	-4.5	-9.75	0.	121.81
2362	-3.75	-10.	0.	122.57
2363	-4.	-9.75	0.	122.62
2364	-3.25	-10.	0.	122.61
2365	-3.5	-9.75	0.	122.75
2366	-2.75	-10.	0.	122.61
2367	-3.	-9.75	0.	122.53
2368	-2.25	-10.	0.	123.01
2369	-2.5	-9.75	0.	122.57
2370	-1.75	-10.	0.	123.97
2371	-2.	-9.75	0.	123.26
2372	-1.25	-10.	0.	125.31
2373	-1.5	-9.75	0.	124.54
2374	-0.75	-10.	0.	126.73
2375	-1.	-9.75	0.	126.03
2376	-0.25	-10.	0.	127.94
2377	-0.5	-9.75	0.	127.39
2378	0.25	-10.	0.	128.71
2379	6.2451e-006	-9.7501	0.	128.44
2380	0.75	-10.	0.	128.72
2381	0.50001	-9.7501	0.	128.99
2382	1.25	-10.	0.	127.52
2383	1.	-9.75	0.	128.63
2384	1.75	-10.	0.	125.04
2385	1.5	-9.75	0.	126.77
2386	2.25	-10.	0.	122.12
2387	2.	-9.75	0.	123.57
2388	2.75	-10.	0.	120.34
2389	2.5	-9.75	0.	120.56
2390	3.25	-10.	0.	120.91
2391	3.	-9.75	0.	119.67
2392	3.75	-10.	0.	123.81
2393	3.5	-9.75	0.	121.68
2394	4.25	-10.	0.	127.78
2395	4.	-9.75	0.	125.79
2396	4.75	-10.	0.	131.13
2397	4.5	-9.75	0.	129.99
2398	5.25	-10.	0.	132.77
2399	5.	-9.75	0.	132.6
2400	5.75	-10.	0.	132.37
2401	5.5	-9.75	0.	133.19
2402	6.25	-10.	0.	129.9
2403	6.	-9.75	0.	131.86
2404	6.75	-10.	0.	125.67
2405	6.5	-9.75	0.	128.4
2406	7.25	-10.	0.	120.96
2407	7.	-9.75	0.	123.31
2408	7.75	-10.	0.	117.8
2409	7.5	-9.75	0.	118.56
2410	8.25	-10.	0.	117.78
2411	8.	-9.75	0.	116.58
2412	8.75	-10.	0.	121.12
2413	8.5	-9.75	0.	118.49
2414	9.25	-10.	0.	126.57
2415	9.	-9.75	0.	123.58
2416	9.5	-9.75	0.	129.77
2417	4.75	-4.	0.	127.32
2418	5.25	-4.	0.	128.63
2419	5.	-4.25	0.	128.6
2420	5.	-3.75	0.	127.48
2421	3.75	5.	0.	126.92
2422	4.25	5.	0.	127.38
2423	4.	5.25	0.	127.7
2424	4.	4.75	0.	126.63
2425	6.	3.7502	0.	127.79
2426	6.	3.2502	0.	128.54
2427	6.25	3.5002	0.	128.12
2428	5.75	3.5001	0.	128.36
2429	5.75	4.0001	0.	127.5
2430	6.25	4.0002	0.	127.08
2431	6.	4.2501	0.	126.78
2432	4.5	-3.75	0.	125.95
2433	4.25	-4.	0.	126.12
2434	4.5	-4.25	0.	127.09
2435	5.25	4.5001	0.	127.14
2436	4.75	4.5	0.	127.14
2437	5.	4.75	0.	127.36
2438	5.	4.2501	0.	127.46
2439	3.5	4.75	0.	125.82
2440	3.75	4.5	0.	125.52
2441	3.5	4.25	0.	124.13
2442	3.25	4.5	0.	124.59
2443	5.5	-3.75	0.	128.82
2444	5.75	-4.	0.	129.34
2445	5.5	-4.25	0.	129.81
2446	3.25	5.	0.	126.34
2447	3.5	5.25	0.	127.39
2448	4.5	-3.25	0.	124.52
2449	4.25	-3.5	0.	124.82
2450	4.75	-3.5	0.	126.11
2451	4.5	4.75	0.	127.26
2452	4.75	5.	0.	127.48
2453	4.5	5.25	0.	127.92
2454	4.	5.75	0.	128.44
2455	4.25	5.5	0.	128.24
2456	3.75	5.5	0.	128.17
2457	5.5	4.2501	0.	127.33
2458	5.25	4.0001	0.	127.65
2459	5.5	3.7501	0.	128.08
2460	-7.	1.25	0.	127.67
2461	-6.75	1.5	0.	127.47
2462	-7.25	1.5	0.	127.68
2463	-7.	1.75	0.	127.49
2464	-6.25	2.	0.	125.92
2465	-6.5	1.75	0.	126.95
2466	-6.5	2.25	0.	126.3
2467	-6.75	2.	0.	126.97
2468	6.	2.7501	0.	128.82
2469	5.75	3.0001	0.	128.9
2470	6.25	3.0001	0.	128.85
2471	5.	-4.75	0.	129.67
2472	5.25	-4.5	0.	129.78
2473	4.75	-4.5	0.	128.37
2474	5.75	-3.5	0.	128.73
2475	6.	-3.75	0.	129.25
2476	6.	-3.25	0.	129.14
2477	6.25	-3.5	0.	128.75
2478	-5.25	3.	0.	120.46
2479	-4.75	3.	0.	119.86
2480	-5.	3.25	0.	119.05
2481	-5.	2.75	0.	120.29
2482	-4.5	2.75	0.	120.19
2483	-4.25	2.5	0.	120.94
2484	-4.5	2.25	0.	120.43
2485	-4.75	2.5	0.	120.63
2486	3.25	4.	0.	122.78
2487	2.75	4.	0.	122.41
2488	3.	3.75	0.	121.28
2489	3.	4.25	0.	123.25
2490	1.9379e-004	-6.2506	0.	126.09
2491	1.4057e-004	-5.7505	0.	126.43
2492	-0.24983	-6.0005	0.	126.37
2493	0.25015	-6.0005	0.	126.35
2494	6.5	4.2502	0.	126.21
2495	6.5	3.7502	0.	127.41
2496	6.75	4.0002	0.	126.54
2497	6.25	4.5002	0.	125.9
2498	6.5	4.7502	0.	124.85
2499	6.75	4.5002	0.	125.41
2500	-5.75	2.5	0.	123.28
2501	-6.	2.25	0.	124.76
2502	-6.	2.75	0.	123.91
2503	-6.25	2.5	0.	125.14
2504	5.5	-3.25	0.	128.29
2505	5.25	-3.5	0.	127.67
2506	4.	-4.25	0.	125.86
2507	3.75	-4.5	0.	125.62
2508	4.	-4.75	0.	126.02
2509	4.25	-4.5	0.	126.82
2510	5.75	4.5001	0.	126.6
2511	5.5	4.7501	0.	126.72
2512	6.	4.7501	0.	125.65
2513	4.25	4.5	0.	126.51
2514	4.5	4.25	0.	126.84
2515	4.	4.25	0.	125.54
2516	-5.5	2.75	0.	121.74
2517	-5.5	2.25	0.	122.9
2518	-5.25	2.5	0.	121.56
2519	-7.	2.75	0.	127.33
2520	-7.25	2.5	0.	127.53
2521	-6.75	2.5	0.	126.63
2522	-7.	2.25	0.	127.3
2523	6.25	-4.	0.	128.85
2524	6.	-4.25	0.	130.05
2525	-5.75	3.	0.	122.37
2526	-5.5	3.25	0.	120.57
2527	4.	-3.75	0.	124.99
2528	3.75	-4.	0.	125.61
2529	3.25	-5.	0.	123.45
2530	3.	-5.25	0.	121.8
2531	2.75	-5.	0.	122.85
2532	3.	-4.75	0.	123.9
2533	2.5	4.25	0.	123.22
2534	2.5	4.75	0.	124.6
2535	2.25	4.5	0.	124.
2536	2.75	4.5	0.	124.05
2537	2.75	5.	0.	125.66
2538	3.	4.75	0.	125.12
2539	3.	5.25	0.	126.98
2540	4.25	-3.	0.	123.07
2541	4.5	-2.75	0.	123.
2542	4.75	-3.	0.	124.9
2543	0.75003	-5.0003	0.	125.22
2544	1.	-4.7502	0.	123.93
2545	1.25	-5.0002	0.	124.15
2546	1.	-5.2503	0.	125.16
2547	3.5	-4.75	0.	124.58
2548	3.75	-5.	0.	124.97
2549	3.5	-5.25	0.	123.19
2550	5.25	5.0001	0.	126.94
2551	5.	5.25	0.	127.67
2552	4.	6.25	0.	128.4
2553	4.25	6.	0.	128.69
2554	3.75	6.	0.	128.87
2555	5.	3.7501	0.	127.96
2556	4.75	4.	0.	127.16
2557	3.75	4.	0.	124.15
2558	3.5	3.75	0.	122.39
2559	-7.	0.75	0.	127.59
2560	-6.75	1.	0.	127.82
2561	-7.25	1.	0.	127.68
2562	-5.75	2.	0.	124.38
2563	-6.	1.75	0.	125.95
2564	-7.	-0.25	0.	126.85
2565	-6.75	-0.5	0.	126.8
2566	-7.25	-0.5	0.	126.76
2567	-7.	-0.75	0.	126.76
2568	-7.	-2.25	0.	125.89
2569	-7.	-1.75	0.	126.48
2570	-7.25	-2.	0.	126.41
2571	-6.75	-2.	0.	126.35
2572	-0.2498	-6.5006	0.	126.09
2573	2.0746e-004	-6.7506	0.	125.91
2574	0.2502	-6.5006	0.	126.17
2575	-4.	1.75	0.	120.08
2576	-4.	2.25	0.	121.14
2577	-3.75	2.	0.	121.91
2578	-4.25	2.	0.	120.63
2579	6.	2.2501	0.	128.75
2580	5.75	2.5001	0.	128.8
2581	6.25	2.5001	0.	128.98
2582	5.	-5.25	0.	130.57
2583	5.25	-5.	0.	130.89
2584	4.75	-5.	0.	129.2
2585	5.75	-4.5	0.	130.51
2586	5.5	-4.75	0.	131.01
2587	-6.75	3.	0.	126.67
2588	-7.25	3.	0.	127.74
2589	-7.	3.25	0.	127.78
2590	-7.25	-2.5	0.	126.15
2591	-6.75	-2.5	0.	125.18
2592	-7.	-2.75	0.	125.49
2593	5.75	-3.	0.	128.7
2594	6.25	-3.	0.	129.23
2595	6.	-2.75	0.	129.57
2596	3.25	-4.5	0.	125.01
2597	3.5	-4.25	0.	125.38
2598	-2.	6.75	0.	127.33
2599	-2.	7.25	0.	126.17
2600	-2.25	7.	0.	127.83
2601	-1.75	7.	0.	126.85
2602	0.2501	-5.5004	0.	126.42
2603	0.50007	-5.2503	0.	126.04
2604	0.75008	-5.5004	0.	125.97
2605	0.50012	-5.7504	0.	126.33
2606	6.25	5.0001	0.	124.59
2607	6.5	5.2501	0.	123.12
2608	6.75	5.0001	0.	124.19
2609	4.5	5.75	0.	128.49
2610	4.75	5.5	0.	128.11
2611	-6.25	1.5	0.	126.97
2612	-6.5	1.25	0.	127.62
2613	-4.5	3.25	0.	119.6
2614	-4.25	3.	0.	120.77
2615	2.5	3.75	0.	121.9
2616	2.25	4.	0.	123.1
2617	-0.24989	-5.5004	0.	126.95
2618	8.8391e-005	-5.2504	0.	127.03
2619	0.50003	-4.7502	0.	125.72
2620	0.25005	-5.0003	0.	126.65
2621	6.75	3.5002	0.	127.73
2622	6.5	3.2502	0.	128.44
2623	7.	3.7502	0.	126.86
2624	7.25	4.0002	0.	125.82
2625	7.	4.2502	0.	125.75
2626	5.5	3.2501	0.	128.72
2627	5.25	3.5001	0.	128.39
2628	4.	-2.75	0.	121.31
2629	4.	-2.25	0.	119.25
2630	4.25	-2.5	0.	121.23
2631	3.75	-2.5	0.	120.53
2632	-0.74986	-6.0004	0.	127.2
2633	-0.49986	-5.7504	0.	126.88
2634	-0.49983	-6.2505	0.	126.38
2635	-5.	3.75	0.	117.44
2636	-4.75	3.5	0.	118.78
2637	-5.25	3.5	0.	119.14
2638	6.5	-3.75	0.	128.35
2639	6.75	-3.5	0.	127.6
2640	6.5	-3.25	0.	128.85
2641	1.	-4.2501	0.	122.46
2642	0.75001	-4.5002	0.	124.42
2643	1.25	-4.5002	0.	123.07
2644	3.	-5.75	0.	119.43
2645	3.25	-5.5	0.	121.52
2646	2.75	-5.5	0.	120.9
2647	-1.	1.75	0.	119.89
2648	-0.75	1.5	0.	121.29
2649	-1.25	1.5	0.	121.38
2650	-1.	1.25	0.	121.25
2651	3.	3.25	0.	119.17
2652	2.75	3.5	0.	120.76
2653	3.25	3.5	0.	120.87
2654	-4.	1.25	0.	118.17
2655	-3.75	1.5	0.	120.38
2656	-4.25	1.5	0.	119.53
2657	6.75	-4.	0.	126.89
2658	7.	-3.75	0.	126.14
2659	7.25	-4.	0.	123.93
2660	7.	-4.25	0.	125.34
2661	6.5	-4.25	0.	128.59
2662	-6.25	3.	0.	124.74
2663	-6.5	3.25	0.	126.19
2664	-6.5	2.75	0.	125.97
2665	-6.	3.25	0.	123.44
2666	4.	-3.25	0.	123.38
2667	3.75	-3.5	0.	124.6
2668	3.75	-3.	0.	122.62
2669	2.5	-5.2501	0.	121.97
2670	2.5	-4.7501	0.	123.69
2671	2.25	-5.0001	0.	122.99
2672	2.25	5.	0.	124.86
2673	2.	4.75	0.	124.27
2674	1.75	5.	0.	124.24
2675	2.	5.25	0.	124.5
2676	2.5	5.25	0.	126.05
2677	5.5	-2.75	0.	128.43
2678	5.25	-3.	0.	127.12
2679	1.5	-4.7502	0.	123.29
2680	1.5	-5.2502	0.	124.27
2681	1.75	-5.0002	0.	123.46
2682	4.	-5.25	0.	125.8
2683	4.25	-5.	0.	127.09
2684	5.75	5.0001	0.	125.76
2685	5.5	5.2501	0.	126.42
2686	6.	5.2501	0.	124.41
2687	4.	6.75	0.	127.42
2688	4.	7.25	0.	125.82
2689	3.75	7.	0.	127.09
2690	4.25	7.	0.	126.84
2691	3.75	6.5	0.	128.52
2692	4.25	6.5	0.	128.24
2693	4.	3.75	0.	124.69
2694	4.25	4.	0.	125.87
2695	-7.	0.25	0.	127.23
2696	-7.25	0.5	0.	127.42
2697	-6.75	0.5	0.	127.66
2698	-7.25	-9.0691e-012	0.	127.01
2699	-6.75	-9.3477e-012	0.	127.05
2700	-5.5	1.75	0.	124.21
2701	-5.25	2.	0.	122.54
2702	-7.25	-1.5	0.	126.71
2703	-6.75	-1.5	0.	127.25
2704	-7.	-1.25	0.	126.77
2705	-2.	6.25	0.	127.47
2706	-2.25	6.5	0.	128.47
2707	-1.75	6.5	0.	127.45
2708	-4.	2.75	0.	121.52
2709	-3.75	2.5	0.	122.63
2710	2.	4.25	0.	123.89
2711	1.75	4.5	0.	124.53
2712	6.	1.7501	0.	129.07
2713	6.25	2.0001	0.	128.78
2714	5.75	2.0001	0.	128.4
2715	-4.25	1.	0.	117.66
2716	-3.75	1.	0.	118.24
2717	-4.	0.75	0.	116.55
2718	2.75	3.	0.	119.09
2719	3.25	3.	0.	118.81
2720	3.	2.75	0.	117.94
2721	-0.75	2.	0.	119.86
2722	-1.	2.25	0.	119.09
2723	-1.25	2.	0.	119.99
2724	2.75	-6.	0.	118.75
2725	3.25	-6.	0.	119.27
2726	3.	-6.25	0.	117.78
2727	1.	5.75	0.	119.6
2728	1.25	6.	0.	118.74
2729	0.75	6.	0.	118.55
2730	1.	6.25	0.	116.9
2731	1.25	-4.0001	0.	121.66
2732	0.75	-4.0001	0.	123.22
2733	1.	-3.7501	0.	121.5
2734	7.25	-3.5	0.	125.33
2735	7.	-3.25	0.	127.65
2736	-4.75	4.	0.	117.45
2737	-5.25	4.	0.	117.54
2738	-5.	4.25	0.	116.49
2739	-4.75	7.	0.	114.78
2740	-5.25	7.	0.	114.91
2741	-5.	7.25	0.	114.52
2742	-5.	6.75	0.	114.06
2743	-4.	-5.75	0.	128.8
2744	-4.	-6.25	0.	129.19
2745	-4.25	-6.	0.	131.75
2746	-3.75	-6.	0.	130.87
2747	-0.99989	-5.7503	0.	127.94
2748	-0.99988	-6.2503	0.	127.48
2749	-1.2499	-6.0003	0.	130.15
2750	1.8147e-009	0.75	0.	125.68
2751	0.25	0.5	0.	126.98
2752	-0.25	0.5	0.	125.24
2753	5.8131e-010	0.25	0.	126.95
2754	4.25	-2.	0.	119.63
2755	4.	-1.75	0.	118.36
2756	3.75	-2.	0.	118.88
2757	6.25	1.5001	0.	129.38
2758	5.75	1.5001	0.	129.02
2759	6.	1.25	0.	130.58
2760	5.5	2.7501	0.	128.87
2761	5.25	3.0001	0.	129.12
2762	7.25	3.5002	0.	126.75
2763	7.	3.2502	0.	128.25
2764	7.5	4.2502	0.	125.24
2765	7.5	4.7501	0.	125.05
2766	7.75	4.5001	0.	125.03
2767	7.25	4.5002	0.	125.17
2768	7.5	3.7502	0.	125.71
2769	7.75	4.0001	0.	124.89
2770	0.25002	-4.5002	0.	127.12
2771	0.50001	-4.2502	0.	125.19
2772	2.5	3.25	0.	120.71
2773	2.25	3.5	0.	122.54
2774	-1.5	5.75	0.	125.4
2775	-1.25	5.5	0.	123.95
2776	-1.5	5.25	0.	123.41
2777	-1.75	5.5	0.	125.56
2778	-0.5	1.75	0.	121.28
2779	-0.25	1.5	0.	123.33
2780	-0.5	1.25	0.	122.44
2781	-4.5	3.75	0.	118.81
2782	-4.25	3.5	0.	120.64
2783	-0.7499	-5.5003	0.	127.63
2784	-0.49991	-5.2503	0.	127.87
2785	1.	-0.75	0.	122.73
2786	1.25	-0.5	0.	124.27
2787	0.75	-0.5	0.	125.04
2788	1.	-0.25	0.	126.04
2789	-3.5	1.75	0.	122.23
2790	-3.25	1.5	0.	123.12
2791	-3.5	1.25	0.	120.49
2792	-5.75	1.5	0.	125.77
2793	-6.	1.25	0.	127.41
2794	-4.5	1.25	0.	119.06
2795	-4.75	1.5	0.	120.99
2796	-4.5	1.75	0.	120.09
2797	-6.5	-0.25	0.	126.99
2798	-6.25	-0.5	0.	126.8
2799	-6.5	-0.75	0.	127.17
2800	-6.5	0.75	0.	127.88
2801	-6.25	1.	0.	128.05
2802	3.75	3.5	0.	122.92
2803	3.5	3.25	0.	120.55
2804	5.	3.2501	0.	128.79
2805	4.75	3.5	0.	127.66
2806	0.5	0.25	0.	127.53
2807	0.5	-0.25	0.	126.56
2808	0.25	-5.2917e-010	0.	127.5
2809	0.75	-7.9555e-010	0.	127.54
2810	5.3096e-009	1.25	0.	124.96
2811	0.25	1.	0.	126.27
2812	-0.25	1.	0.	124.07
2813	4.5	6.25	0.	128.52
2814	4.75	6.	0.	128.8
2815	4.25	7.5	0.	125.26
2816	3.75	7.5	0.	125.38
2817	4.	7.75	0.	124.32
2818	4.75	7.5	0.	126.46
2819	4.5	7.75	0.	125.06
2820	4.5	7.25	0.	126.28
2821	5.	5.75	0.	128.41
2822	5.25	5.5	0.	127.15
2823	6.75	5.5001	0.	122.62
2824	6.25	5.5001	0.	122.93
2825	6.5	5.7501	0.	120.43
2826	7.25	5.0001	0.	124.63
2827	7.	5.2501	0.	123.7
2828	7.	4.7502	0.	124.76
2829	7.5	5.2501	0.	125.14
2830	7.75	5.0001	0.	125.29
2831	1.5	5.25	0.	123.14
2832	1.5	4.75	0.	124.51
2833	1.25	5.	0.	124.45
2834	2.	3.75	0.	123.73
2835	1.75	4.	0.	124.42
2836	1.25	5.5	0.	121.81
2837	1.	5.25	0.	123.16
2838	0.75	5.5	0.	121.82
2839	-3.5	2.25	0.	123.41
2840	-3.25	2.	0.	124.61
2841	-3.75	3.	0.	122.8
2842	-4.	3.25	0.	121.81
2843	-1.75	1.5	0.	123.48
2844	-1.5	1.75	0.	121.49
2845	-1.5	1.25	0.	122.32
2846	5.75	-7.5	0.	130.17
2847	5.25	-7.5	0.	128.92
2848	5.5	-7.25	0.	129.56
2849	5.5	-7.75	0.	130.09
2850	3.75	-5.5	0.	124.01
2851	3.5	-5.75	0.	121.4
2852	1.2501	-5.5003	0.	125.28
2853	1.0001	-5.7504	0.	126.45
2854	2.5	-5.7501	0.	120.26
2855	2.25	-5.5001	0.	122.08
2856	0.75013	-6.0005	0.	126.81
2857	0.50016	-6.2505	0.	126.43
2858	4.5	-2.25	0.	121.63
2859	4.75	-2.5	0.	124.02
2860	1.75	5.5	0.	123.39
2861	1.5	5.75	0.	121.01
2862	3.5	7.75	0.	125.14
2863	3.25	7.5	0.	126.93
2864	3.5	7.25	0.	126.64
2865	3.5	6.25	0.	128.98
2866	3.25	6.	0.	129.43
2867	3.5	5.75	0.	128.6
2868	-1.75	6.	0.	126.8
2869	-1.5	6.25	0.	126.78
2870	-1.25	6.	0.	126.39
2871	-1.75	7.5	0.	125.4
2872	-2.	7.75	0.	124.42
2873	-2.25	7.5	0.	126.06
2874	-1.25	7.5	0.	126.36
2875	-1.5	7.75	0.	124.79
2876	-1.5	7.25	0.	126.08
2877	-1.	5.75	0.	124.98
2878	-1.	5.25	0.	122.
2879	-0.75	5.5	0.	123.46
2880	2.75	-4.5	0.	124.71
2881	3.	-4.25	0.	125.74
2882	1.5	-4.2501	0.	122.29
2883	1.75	-4.5001	0.	123.27
2884	3.5	-2.75	0.	121.86
2885	3.25	-2.5	0.	122.11
2886	3.5	-2.25	0.	120.18
2887	3.5	-3.75	0.	125.22
2888	3.25	-4.	0.	126.1
2889	6.75	3.0001	0.	128.95
2890	6.5	2.7501	0.	129.01
2891	6.5	1.7501	0.	129.08
2892	6.5	1.2501	0.	130.03
2893	6.75	1.5001	0.	128.88
2894	6.5	-2.75	0.	129.54
2895	6.75	-3.	0.	128.89
2896	6.25	-2.5	0.	129.87
2897	5.75	-2.5	0.	129.29
2898	6.	-2.25	0.	130.43
2899	-7.5	-2.75	0.	127.03
2900	-7.25	-3.	0.	126.38
2901	-7.5	-3.25	0.	128.02
2902	-7.75	-3.	0.	127.98
2903	-7.5	-2.25	0.	126.67
2904	-7.75	-2.5	0.	127.21
2905	-7.5	-1.75	0.	126.65
2906	-7.75	-2.	0.	126.92
2907	-7.5	-1.25	0.	126.7
2908	-7.75	-1.5	0.	126.85
2909	-7.5	-0.75	0.	126.76
2910	-7.75	-1.	0.	126.84
2911	-7.25	-1.	0.	126.76
2912	-7.5	-0.25	0.	126.92
2913	-7.75	-0.5	0.	126.9
2914	-7.5	0.25	0.	127.2
2915	-7.75	-7.8371e-012	0.	127.1
2916	-7.5	0.75	0.	127.51
2917	-7.75	0.5	0.	127.4
2918	-7.75	1.	0.	127.64
2919	-7.5	1.25	0.	127.69
2920	-7.5	2.25	0.	127.8
2921	-7.75	2.	0.	127.83
2922	-7.5	1.75	0.	127.76
2923	-7.25	2.	0.	127.57
2924	-7.5	2.75	0.	127.94
2925	-7.75	2.5	0.	127.91
2926	-7.5	3.25	0.	128.25
2927	-7.75	3.	0.	128.09
2928	-7.5	3.75	0.	128.58
2929	-7.25	3.5	0.	128.28
2930	-7.75	3.5	0.	128.32
2931	-7.5	7.25	0.	129.28
2932	-7.25	7.	0.	130.97
2933	-7.75	7.	0.	128.87
2934	-7.5	6.75	0.	129.62
2935	-7.5	4.25	0.	128.57
2936	-7.25	4.	0.	128.99
2937	-7.75	4.	0.	128.42
2938	-7.75	5.5	0.	127.
2939	-7.5	5.75	0.	127.58
2940	-7.5	5.25	0.	127.32
2941	-7.25	5.5	0.	127.07
2942	-5.5	3.75	0.	119.26
2943	-5.75	3.5	0.	121.64
2944	-7.	3.75	0.	128.7
2945	-6.75	3.5	0.	127.29
2946	-2.5	6.75	0.	128.96
2947	-2.5	7.25	0.	127.72
2948	-2.75	7.	0.	129.9
2949	-2.	5.75	0.	126.97
2950	-2.25	6.	0.	128.02
2951	-0.49983	-6.7505	0.	126.28
2952	-0.74985	-6.5004	0.	126.66
2953	0.25018	-7.5006	0.	125.99
2954	0.50021	-7.2506	0.	125.84
2955	0.75018	-7.5006	0.	125.74
2956	0.50016	-7.7506	0.	126.38
2957	-0.24985	-7.5005	0.	126.45
2958	1.4125e-004	-7.7505	0.	126.5
2959	1.84e-004	-7.2506	0.	126.
2960	6.25	-4.5	0.	129.78
2961	6.	-4.75	0.	131.54
2962	7.5	-4.25	0.	121.54
2963	7.75	-4.	0.	121.2
2964	7.5	-3.75	0.	123.12
2965	7.5	-4.75	0.	119.9
2966	7.75	-4.5	0.	119.59
2967	7.25	-4.5	0.	122.95
2968	6.	-7.25	0.	131.25
2969	6.	-6.75	0.	131.7
2970	6.25	-7.	0.	134.53
2971	5.75	-7.	0.	130.64
2972	5.25	-5.5	0.	131.62
2973	4.75	-5.5	0.	129.91
2974	5.	-5.75	0.	131.28
2975	5.5	-5.25	0.	131.95
2976	5.75	-5.	0.	132.03
2977	-6.5	-2.75	0.	124.26
2978	-6.5	-2.25	0.	125.64
2979	-6.25	-2.5	0.	124.57
2980	-6.75	-3.	0.	124.58
2981	-7.	-3.25	0.	125.59
2982	-6.5	-3.25	0.	123.34
2983	-6.25	-3.	0.	123.76
2984	-6.75	-3.5	0.	124.35
2985	-6.5	-3.75	0.	122.
2986	-6.25	-3.5	0.	122.87
2987	5.5	-5.75	0.	132.09
2988	5.75	-5.5	0.	132.95
2989	5.5	-6.25	0.	131.41
2990	5.25	-6.	0.	131.75
2991	5.75	-6.	0.	132.49
2992	6.5	-4.75	0.	130.03
2993	6.75	-4.5	0.	127.04
2994	-0.49986	-7.2504	0.	126.55
2995	-0.4999	-7.7504	0.	126.89
2996	-0.7499	-7.5003	0.	127.21
2997	-0.24982	-7.0005	0.	126.1
2998	-0.74987	-7.0004	0.	126.87
2999	-2.75	6.5	0.	130.43
3000	-2.5	6.25	0.	129.01
3001	-7.75	4.5	0.	128.06
3002	-7.25	4.5	0.	129.09
3003	-7.5	4.75	0.	127.96
3004	6.5	-2.25	0.	129.83
3005	6.5	-1.75	0.	129.73
3006	6.25	-2.	0.	130.39
3007	6.75	-2.	0.	129.6
3008	6.75	-2.5	0.	129.86
3009	6.5	-0.75	0.	130.13
3010	6.25	-0.49999	0.	130.53
3011	6.75	-0.49999	0.	130.72
3012	6.5	-0.24999	0.	131.14
3013	6.75	2.0001	0.	129.12
3014	6.5	2.2501	0.	129.
3015	3.5	-3.25	0.	123.85
3016	3.25	-3.5	0.	126.
3017	3.25	-3.	0.	124.17
3018	2.5	-4.2501	0.	125.78
3019	2.25	-4.5001	0.	124.13
3020	-1.25	6.5	0.	127.81
3021	-1.5	6.75	0.	126.97
3022	3.25	6.5	0.	129.79
3023	3.5	6.75	0.	128.19
3024	2.25	5.5	0.	125.69
3025	2.	5.75	0.	124.66
3026	6.5	-1.25	0.	129.67
3027	6.75	-1.5	0.	128.88
3028	6.25	-1.5	0.	130.64
3029	6.25	-1.	0.	130.4
3030	6.75	-1.	0.	129.6
3031	5.5	-2.25	0.	129.64
3032	5.25	-2.5	0.	127.23
3033	6.25	0.50002	0.	132.83
3034	6.75	0.50002	0.	131.91
3035	6.5	0.75003	0.	131.41
3036	6.5	0.25002	0.	131.88
3037	0.75019	-7.0006	0.	126.34
3038	0.25021	-7.0006	0.	125.85
3039	0.5002	-6.7506	0.	126.11
3040	1.5001	-5.7503	0.	125.8
3041	1.75	-5.5002	0.	123.92
3042	4.25	-5.5	0.	127.25
3043	4.5	-5.75	0.	129.51
3044	4.5	-5.25	0.	128.54
3045	4.	-5.75	0.	125.58
3046	5.75	-6.5	0.	131.36
3047	5.25	-6.5	0.	131.16
3048	5.5	-6.75	0.	130.29
3049	-2.	1.25	0.	125.13
3050	-2.	1.75	0.	125.03
3051	-2.25	1.5	0.	125.66
3052	-3.5	2.75	0.	123.91
3053	-3.5	3.25	0.	124.54
3054	-3.25	3.	0.	125.51
3055	-3.25	2.5	0.	125.57
3056	1.25	4.5	0.	126.
3057	1.5	4.25	0.	125.07
3058	7.25	5.5001	0.	124.21
3059	7.	5.7501	0.	122.48
3060	7.75	5.5001	0.	125.9
3061	7.5	5.7501	0.	126.02
3062	6.	5.7501	0.	123.03
3063	5.75	5.5001	0.	125.07
3064	4.75	6.5	0.	128.83
3065	4.5	6.75	0.	127.66
3066	0.75	0.5	0.	128.96
3067	0.5	0.75	0.	127.58
3068	4.	3.25	0.	124.22
3069	4.25	3.5	0.	125.68
3070	-6.5	0.25	0.	127.48
3071	-6.25	0.5	0.	128.38
3072	-6.25	-7.9298e-012	0.	127.46
3073	-5.5	1.25	0.	126.05
3074	-5.25	1.5	0.	123.58
3075	-6.5	-1.75	0.	127.12
3076	-6.25	-2.	0.	127.33
3077	-6.25	-1.5	0.	129.19
3078	-6.5	-1.25	0.	127.6
3079	-3.	1.75	0.	125.51
3080	-3.	1.25	0.	124.56
3081	-2.75	1.5	0.	125.6
3082	-7.25	-3.5	0.	127.23
3083	-7.	-3.75	0.	126.06
3084	-7.75	-3.5	0.	129.41
3085	-7.5	-3.75	0.	129.95
3086	6.	-7.75	0.	131.48
3087	6.25	-7.5	0.	133.25
3088	1.25	-1.	0.	121.61
3089	1.	-1.25	0.	120.81
3090	0.75	-1.	0.	122.36
3091	7.75	-5.	0.	117.51
3092	7.5	-5.25	0.	117.37
3093	7.25	-5.	0.	122.27
3094	-0.99992	-5.2503	0.	128.62
3095	-1.2499	-5.5002	0.	129.63
3096	-4.25	4.	0.	120.84
3097	-4.5	4.25	0.	117.22
3098	1.75	-4.0001	0.	123.13
3099	1.5	-3.7501	0.	120.52
3100	-1.	7.75	0.	127.15
3101	-1.	7.25	0.	127.76
3102	-0.75	7.5	0.	130.11
3103	1.5	6.25	0.	117.93
3104	1.75	6.	0.	122.28
3105	4.75	-2.	0.	123.66
3106	4.5	-1.75	0.	119.83
3107	2.25	-6.0001	0.	121.35
3108	2.5	-6.2501	0.	117.9
3109	-0.25	2.	0.	123.04
3110	-0.5	2.25	0.	119.58
3111	-1.75	5.	0.	124.51
3112	-1.5	4.75	0.	120.85
3113	-1.25	5.	0.	121.41
3114	5.	7.75	0.	127.31
3115	5.25	7.5	0.	129.7
3116	5.	7.25	0.	127.9
3117	2.25	3.	0.	122.57
3118	2.5	2.75	0.	119.08
3119	-4.5	0.75	0.	116.78
3120	-4.75	1.	0.	120.62
3121	-6.5	-4.25	0.	118.98
3122	-6.25	-4.	0.	120.23
3123	-6.75	-4.	0.	123.7
3124	-7.75	7.5	0.	127.91
3125	-7.5	7.75	0.	127.62
3126	-7.25	7.5	0.	129.93
3127	-0.24996	-4.5002	0.	129.55
3128	2.1143e-005	-4.2502	0.	129.58
3129	4.6962e-005	-4.7503	0.	128.05
3130	7.75	3.5001	0.	124.9
3131	7.5	3.2501	0.	126.89
3132	5.5	2.2501	0.	128.44
3133	5.25	2.5001	0.	129.09
3134	5.5	1.7501	0.	128.35
3135	5.25	2.0001	0.	127.94
3136	5.25	1.5	0.	127.41
3137	5.5	1.25	0.	130.03
3138	8.	-4.25	0.	119.27
3139	8.	-3.75	0.	120.56
3140	8.25	-4.	0.	120.24
3141	8.	-4.75	0.	117.24
3142	8.25	-4.5	0.	118.99
3143	8.25	-5.	0.	117.03
3144	8.	-5.25	0.	115.63
3145	1.5	-0.75	0.	123.2
3146	1.75	-0.5	0.	124.38
3147	1.5	-0.25	0.	126.3
3148	1.75	-1.	0.	124.12
3149	1.5	-1.25	0.	120.83
3150	-1.75	8.	0.	123.82
3151	-2.25	8.	0.	123.88
3152	-2.	8.25	0.	122.99
3153	-1.25	8.	0.	125.59
3154	-1.5	8.25	0.	123.76
3155	-1.	8.25	0.	126.41
3156	-0.75	8.	0.	130.82
3157	3.25	8.	0.	126.02
3158	3.	7.75	0.	127.81
3159	3.	8.25	0.	126.9
3160	2.75	8.	0.	131.39
3161	3.75	8.	0.	124.08
3162	3.5	8.25	0.	124.2
3163	4.25	8.	0.	124.11
3164	4.	8.25	0.	123.49
3165	4.75	8.	0.	125.91
3166	4.5	8.25	0.	124.36
3167	5.	8.25	0.	126.84
3168	5.25	8.	0.	130.49
3169	5.	-7.75	0.	129.59
3170	4.75	-7.5	0.	129.94
3171	5.	-7.25	0.	129.1
3172	0.25	-0.5	0.	127.35
3173	0.5	-0.75	0.	124.71
3174	-0.75	0.5	0.	123.22
3175	-0.5	0.25	0.	125.49
3176	-0.5	0.75	0.	123.64
3177	-1.25	0.5	0.	122.02
3178	-1.	0.25	0.	122.11
3179	-1.	0.75	0.	121.98
3180	-1.75	0.5	0.	123.58
3181	-1.5	0.25	0.	120.5
3182	-1.5	0.75	0.	122.24
3183	-0.25	-5.0507e-010	0.	127.19
3184	-4.9401e-010	-0.25	0.	128.28
3185	6.	-6.25	0.	132.43
3186	6.25	-6.5	0.	134.07
3187	6.25	-5.	0.	131.77
3188	6.	-5.25	0.	133.04
3189	-1.2499	-6.5002	0.	128.75
3190	-0.99989	-6.7503	0.	127.24
3191	-4.	-5.25	0.	128.24
3192	-4.25	-5.5	0.	130.27
3193	-3.75	-5.5	0.	129.31
3194	-4.25	7.	0.	119.94
3195	-4.5	7.25	0.	115.67
3196	-4.5	6.75	0.	115.46
3197	-2.25	5.5	0.	127.67
3198	-2.	5.25	0.	126.68
3199	-2.75	5.5	0.	128.88
3200	-2.5	5.25	0.	129.61
3201	-2.5	5.75	0.	128.72
3202	-3.	5.75	0.	129.72
3203	-3.25	5.5	0.	130.37
3204	-3.	5.25	0.	130.31
3205	-5.75	4.	0.	121.07
3206	-5.5	4.25	0.	117.27
3207	-7.	4.25	0.	129.51
3208	-6.75	4.	0.	128.72
3209	7.75	-3.5	0.	122.47
3210	7.5	-3.25	0.	125.16
3211	8.	-3.25	0.	121.19
3212	8.25	-3.5	0.	120.6
3213	7.	-2.75	0.	129.21
3214	7.25	-3.	0.	127.47
3215	7.	-1.25	0.	128.81
3216	7.	-1.75	0.	128.74
3217	7.25	-1.5	0.	129.24
3218	7.	0.25002	0.	131.7
3219	7.25	1.0948e-005	0.	130.24
3220	7.	-0.24999	0.	131.24
3221	6.75	1.3126e-005	0.	131.68
3222	7.25	3.0001	0.	128.38
3223	7.	2.7501	0.	129.49
3224	8.25	5.5	0.	126.58
3225	8.	5.7501	0.	127.25
3226	8.	5.2501	0.	126.05
3227	8.	3.7501	0.	124.08
3228	8.25	4.0001	0.	124.2
3229	8.	4.2501	0.	124.68
3230	8.	3.2501	0.	123.42
3231	8.25	3.5001	0.	123.11
3232	3.	-2.25	0.	124.16
3233	2.75	-2.5	0.	126.64
3234	3.	-2.75	0.	124.43
3235	2.75	-4.	0.	126.79
3236	3.	-3.75	0.	126.88
3237	-0.49994	-4.7502	0.	129.46
3238	-0.74993	-5.0003	0.	128.87
3239	-0.24993	-5.0003	0.	127.97
3240	-0.49997	-4.2502	0.	132.06
3241	-0.74996	-4.5002	0.	130.29
3242	0.25001	-4.0001	0.	127.67
3243	0.5	-3.7501	0.	123.47
3244	0.25	6.	0.	121.41
3245	0.5	6.25	0.	117.48
3246	0.5	5.75	0.	120.83
3247	-1.	6.25	0.	127.44
3248	-0.75	6.	0.	126.43
3249	3.	7.25	0.	128.85
3250	2.75	7.5	0.	130.87
3251	2.75	6.	0.	129.43
3252	3.	6.25	0.	130.23
3253	3.	5.75	0.	128.86
3254	6.	-0.24999	0.	131.64
3255	6.	-0.75	0.	130.8
3256	5.75	-0.49999	0.	132.48
3257	5.75	-2.	0.	130.77
3258	6.	-1.75	0.	131.29
3259	6.	0.75003	0.	132.66
3260	5.75	1.	0.	131.57
3261	6.25	1.	0.	131.23
3262	1.0002	-7.2505	0.	126.23
3263	1.0001	-7.7504	0.	126.71
3264	1.2501	-7.5004	0.	127.45
3265	1.2501	-6.0004	0.	126.95
3266	1.0001	-6.2505	0.	127.48
3267	3.75	-6.	0.	122.97
3268	3.5	-6.25	0.	118.84
3269	5.	-6.25	0.	131.49
3270	4.75	-6.	0.	130.88
3271	-3.	2.25	0.	126.78
3272	-2.75	2.	0.	127.06
3273	1.75	3.5	0.	125.03
3274	2.	3.25	0.	124.39
3275	1.25	3.5	0.	126.82
3276	1.5	3.25	0.	127.85
3277	1.5	3.75	0.	125.72
3278	1.	3.75	0.	127.31
3279	1.	3.25	0.	129.35
3280	0.75	3.5	0.	129.34
3281	-0.25	5.	0.	122.82
3282	-0.5	4.75	0.	120.
3283	-0.75	5.	0.	120.98
3284	-0.5	5.25	0.	122.49
3285	1.	4.75	0.	125.96
3286	0.75	5.	0.	125.32
3287	-3.25	3.5	0.	125.98
3288	-3.5	3.75	0.	126.62
3289	-3.75	3.5	0.	123.55
3290	-3.	3.75	0.	128.76
3291	-3.	3.25	0.	126.95
3292	-2.75	3.5	0.	129.1
3293	6.25	6.0001	0.	120.48
3294	6.75	6.0001	0.	120.25
3295	6.5	6.25	0.	114.82
3296	5.	6.25	0.	129.1
3297	5.25	6.	0.	128.16
3298	0.25	1.5	0.	126.27
3299	1.6405e-008	1.75	0.	125.09
3300	0.75	1.5	0.	128.56
3301	0.5	1.75	0.	128.91
3302	0.5	1.25	0.	127.58
3303	1.	1.75	0.	130.79
3304	1.25	1.5	0.	131.48
3305	1.	1.25	0.	129.71
3306	1.	0.25	0.	128.98
3307	1.25	-4.2567e-009	0.	128.02
3308	3.75	3.	0.	121.84
3309	3.5	2.75	0.	118.
3310	5.	2.7501	0.	129.33
3311	4.75	3.	0.	128.79
3312	-6.	-0.75	0.	127.97
3313	-6.	-0.25	0.	127.26
3314	-5.75	-0.5	0.	127.98
3315	-5.75	1.	0.	127.67
3316	-6.	0.75	0.	128.54
3317	-6.	-2.25	0.	126.27
3318	-6.	-2.75	0.	124.08
3319	-5.75	-2.5	0.	125.89
3320	-3.25	1.	0.	121.93
3321	-3.5	0.75	0.	117.93
3322	-2.25	1.	0.	126.28
3323	-2.	0.75	0.	125.3
3324	-1.75	1.	0.	123.98
3325	-3.75	-4.	0.	123.56
3326	-4.	-3.75	0.	121.24
3327	-4.	-4.25	0.	125.46
3328	-4.25	-4.	0.	123.64
3329	-4.	-6.75	0.	129.49
3330	-4.25	-6.5	0.	130.7
3331	-3.75	-6.5	0.	130.
3332	-2.5	7.75	0.	125.51
3333	-2.75	7.5	0.	128.07
3334	-2.75	8.	0.	125.27
3335	-2.5	8.25	0.	123.45
3336	-3.	7.25	0.	130.23
3337	-3.	6.75	0.	131.35
3338	-3.25	7.	0.	130.95
3339	-5.5	7.25	0.	116.
3340	-5.5	6.75	0.	115.53
3341	-5.75	7.	0.	120.32
3342	-7.	7.25	0.	131.61
3343	-6.75	7.	0.	131.83
3344	-7.	6.75	0.	131.79
3345	0.25012	-8.0005	0.	126.88
3346	0.75012	-8.0004	0.	127.36
3347	0.50011	-8.2504	0.	127.62
3348	-0.24991	-8.0004	0.	126.94
3349	8.6667e-005	-8.2504	0.	127.27
3350	-0.74994	-8.0003	0.	127.
3351	-0.49994	-8.2503	0.	127.09
3352	-1.25	-8.0002	0.	126.09
3353	-0.99994	-7.7502	0.	127.32
3354	-0.99996	-8.2502	0.	126.61
3355	-2.75	-8.	0.	118.92
3356	-2.5	-8.25	0.	118.62
3357	-2.5	-7.75	0.	112.99
3358	-2.25	-8.	0.	118.47
3359	-4.25	-8.	0.	128.02
3360	-4.	-7.75	0.	129.73
3361	-4.	-8.25	0.	127.22
3362	-3.75	-8.	0.	127.66
3363	-5.75	-8.	0.	115.38
3364	-5.5	-8.25	0.	117.22
3365	-5.5	-7.75	0.	114.81
3366	-5.25	-8.	0.	119.31
3367	-6.25	-8.	0.	115.67
3368	-6.	-8.25	0.	115.54
3369	-6.	-7.75	0.	113.79
3370	-6.75	-8.	0.	120.2
3371	-6.5	-8.25	0.	117.83
3372	-6.5	-7.75	0.	115.44
3373	-8.	-7.75	0.	131.78
3374	-7.75	-8.	0.	130.14
3375	-8.25	-8.	0.	131.15
3376	-8.	-8.25	0.	130.2
3377	-8.	-6.25	0.	131.74
3378	-8.	-6.75	0.	131.83
3379	-8.25	-6.5	0.	130.89
3380	-7.75	-6.5	0.	133.56
3381	-8.	-5.75	0.	131.92
3382	-7.75	-6.	0.	134.79
3383	-8.25	-6.	0.	131.04
3384	-8.	-5.25	0.	132.35
3385	-8.25	-5.5	0.	131.11
3386	-7.75	-5.5	0.	134.04
3387	-8.	-3.25	0.	129.38
3388	-8.25	-3.5	0.	130.16
3389	-8.	-3.75	0.	131.13
3390	-8.	-2.75	0.	128.16
3391	-8.25	-3.	0.	128.87
3392	-8.	-2.25	0.	127.46
3393	-8.25	-2.5	0.	127.98
3394	-8.	-1.75	0.	127.12
3395	-8.25	-2.	0.	127.47
3396	-8.	-1.25	0.	126.98
3397	-8.25	-1.5	0.	127.22
3398	-8.	-0.75	0.	126.98
3399	-8.25	-1.	0.	127.12
3400	-8.	-0.25	0.	127.09
3401	-8.25	-0.5	0.	127.14
3402	-8.	0.25	0.	127.3
3403	-8.25	-6.4323e-012	0.	127.27
3404	-8.	0.75	0.	127.53
3405	-8.25	0.5	0.	127.46
3406	-8.	1.25	0.	127.72
3407	-8.25	1.	0.	127.65
3408	-8.	1.75	0.	127.84
3409	-8.25	1.5	0.	127.8
3410	-7.75	1.5	0.	127.77
3411	-8.	2.25	0.	127.94
3412	-8.25	2.	0.	127.89
3413	-8.	2.75	0.	128.05
3414	-8.25	2.5	0.	127.96
3415	-8.	3.25	0.	128.16
3416	-8.25	3.	0.	128.03
3417	-8.	3.75	0.	128.17
3418	-8.25	3.5	0.	128.03
3419	-8.	4.25	0.	127.91
3420	-8.25	4.	0.	127.87
3421	-8.	4.75	0.	127.4
3422	-8.25	4.5	0.	127.45
3423	-8.	5.25	0.	126.98
3424	-8.25	5.	0.	126.94
3425	-7.75	5.	0.	127.31
3426	-8.	5.75	0.	127.06
3427	-8.25	5.5	0.	126.69
3428	-8.	6.25	0.	127.56
3429	-8.25	6.	0.	126.92
3430	-7.75	6.	0.	127.64
3431	-8.	6.75	0.	127.89
3432	-8.25	6.5	0.	127.28
3433	-7.75	6.5	0.	128.64
3434	-8.	7.25	0.	127.51
3435	-8.25	7.	0.	127.25
3436	-8.	7.75	0.	126.39
3437	-8.25	7.5	0.	126.55
3438	-7.75	8.	0.	126.09
3439	-8.	8.25	0.	125.11
3440	-8.25	8.	0.	125.46
3441	-7.25	8.	0.	127.33
3442	-7.5	8.25	0.	125.53
3443	-7.	7.75	0.	129.64
3444	-7.	8.25	0.	126.48
3445	-6.75	8.	0.	129.84
3446	-6.75	7.5	0.	132.18
3447	-3.	7.75	0.	127.81
3448	-3.25	7.5	0.	130.64
3449	-3.	8.25	0.	124.78
3450	-3.25	8.	0.	128.12
3451	-4.5	-8.25	0.	125.94
3452	-4.5	-7.75	0.	129.56
3453	-4.75	-8.	0.	124.75
3454	-8.	-7.25	0.	132.31
3455	-8.25	-7.	0.	131.53
3456	-7.75	-7.	0.	132.75
3457	-8.25	-7.5	0.	131.94
3458	-7.75	-7.5	0.	133.03
3459	-7.25	-8.	0.	126.26
3460	-7.5	-8.25	0.	127.95
3461	-7.5	-7.75	0.	131.42
3462	-7.	-8.25	0.	123.01
3463	-7.	-7.75	0.	124.38
3464	-7.5	-4.25	0.	133.35
3465	-7.25	-4.	0.	128.78
3466	-7.75	-4.	0.	131.65
3467	-8.25	-5.	0.	131.95
3468	-7.75	-5.	0.	133.74
3469	-8.	-4.75	0.	133.12
3470	-2.75	1.	0.	125.77
3471	-2.5	0.75	0.	128.93
3472	-2.5	1.25	0.	126.8
3473	-3.	0.75	0.	125.15
3474	-6.	-1.25	0.	129.91
3475	-5.75	-1.	0.	130.27
3476	-6.25	-1.	0.	128.33
3477	-6.	-1.75	0.	129.4
3478	-5.75	-1.5	0.	132.99
3479	-5.75	-2.	0.	129.52
3480	-5.5	0.75	0.	129.01
3481	-5.25	1.	0.	125.02
3482	-5.75	-5.1027e-012	0.	128.62
3483	-6.	0.25	0.	128.35
3484	4.75	2.5	0.	130.29
3485	5.	2.25	0.	128.57
3486	4.	2.75	0.	124.53
3487	4.25	3.	0.	126.21
3488	1.25	0.5	0.	132.21
3489	1.	0.75	0.	130.11
3490	1.75	3.	0.	127.21
3491	2.	2.75	0.	126.31
3492	1.25	3.	0.	130.36
3493	1.5	2.75	0.	132.16
3494	0.75	2.	0.	131.14
3495	1.25	2.	0.	133.3
3496	1.	2.25	0.	133.08
3497	5.25	6.5	0.	130.02
3498	5.	6.75	0.	128.9
3499	5.75	6.	0.	124.87
3500	5.5	6.25	0.	129.09
3501	5.5	5.75	0.	126.91
3502	6.	6.25	0.	122.45
3503	7.25	6.0001	0.	124.29
3504	7.	6.2501	0.	122.
3505	7.5	6.25	0.	128.71
3506	7.75	6.0001	0.	127.36
3507	-2.25	5.	0.	128.62
3508	-2.	4.75	0.	127.34
3509	-2.5	4.75	0.	132.66
3510	-2.75	5.	0.	131.04
3511	-3.25	4.	0.	129.38
3512	-2.75	4.	0.	132.
3513	-3.	4.25	0.	131.89
3514	1.	4.25	0.	127.14
3515	0.75	4.	0.	128.82
3516	1.25	4.	0.	126.21
3517	0.75	4.5	0.	128.9
3518	1.2964e-008	4.75	0.	125.36
3519	8.0378e-009	5.25	0.	123.74
3520	0.25	5.	0.	124.97
3521	0.25	2.	0.	127.73
3522	2.6018e-008	2.25	0.	126.25
3523	0.5	2.25	0.	132.36
3524	0.75	3.	0.	132.39
3525	1.	2.75	0.	132.61
3526	-2.75	3.	0.	128.89
3527	-3.	2.75	0.	127.17
3528	-2.	2.25	0.	126.11
3529	-1.75	2.	0.	123.05
3530	-2.25	2.	0.	126.54
3531	4.75	-6.5	0.	132.3
3532	5.	-6.75	0.	130.6
3533	4.25	-6.	0.	127.84
3534	4.5	-6.25	0.	131.69
3535	4.	-6.25	0.	126.01
3536	1.7501	-6.0002	0.	125.04
3537	2.0001	-6.2501	0.	124.07
3538	2.	-5.7502	0.	123.17
3539	1.5001	-6.2503	0.	128.63
3540	1.2501	-7.0004	0.	128.12
3541	1.0002	-6.7505	0.	127.33
3542	6.	0.25002	0.	133.2
3543	5.75	1.218e-005	0.	134.36
3544	6.25	1.3596e-005	0.	132.25
3545	5.75	0.50002	0.	135.16
3546	5.25	-2.	0.	128.45
3547	5.	-1.75	0.	127.45
3548	5.	-2.25	0.	126.04
3549	5.5	-1.75	0.	132.57
3550	5.75	-1.	0.	132.43
3551	6.	-1.25	0.	131.37
3552	2.5	6.25	0.	131.08
3553	2.5	5.75	0.	127.96
3554	2.25	6.	0.	126.93
3555	3.	6.75	0.	130.16
3556	2.75	6.5	0.	131.85
3557	2.75	7.	0.	130.97
3558	3.25	7.	0.	128.57
3559	-1.	6.75	0.	128.33
3560	-0.75	7.	0.	129.48
3561	-1.25	7.	0.	127.49
3562	-0.75	6.5	0.	129.67
3563	-1.335e-009	6.25	0.	124.31
3564	2.3631e-009	5.75	0.	123.36
3565	-0.25	6.	0.	124.91
3566	-0.24998	-4.0001	0.	132.08
3567	9.1438e-006	-3.7501	0.	131.69
3568	-0.74997	-4.0001	0.	131.57
3569	-0.99997	-4.2501	0.	129.8
3570	-1.25	-4.0001	0.	126.73
3571	-0.99998	-3.7501	0.	129.11
3572	-0.49998	-3.7501	0.	137.15
3573	2.25	-4.0001	0.	125.75
3574	2.	-3.7501	0.	125.39
3575	2.	-4.2501	0.	124.12
3576	2.5	-3.75	0.	128.99
3577	7.75	3.0001	0.	125.42
3578	8.25	3.0001	0.	121.39
3579	8.	2.7501	0.	123.62
3580	7.5	2.7501	0.	129.67
3581	7.	2.2501	0.	129.67
3582	7.25	2.5001	0.	130.76
3583	6.75	2.5001	0.	129.55
3584	7.25	2.0001	0.	130.05
3585	7.	1.7501	0.	128.91
3586	7.	0.75003	0.	131.08
3587	7.25	1.	0.	130.75
3588	6.75	1.	0.	130.58
3589	7.	1.25	0.	129.43
3590	7.25	0.50002	0.	131.61
3591	7.75	6.6737e-006	0.	124.2
3592	8.25	2.7396e-006	0.	116.53
3593	8.	-0.25	0.	120.28
3594	8.	0.25	0.	120.4
3595	7.5	-0.24999	0.	129.87
3596	7.5	0.25001	0.	130.15
3597	7.	-0.74999	0.	130.18
3598	7.25	-0.49999	0.	130.88
3599	7.25	-1.	0.	129.91
3600	7.	-2.25	0.	129.62
3601	7.25	-2.	0.	129.78
3602	7.25	-2.5	0.	130.29
3603	7.75	-3.	0.	123.88
3604	7.5	-2.75	0.	128.58
3605	8.25	-3.	0.	119.83
3606	8.	-2.75	0.	122.21
3607	-6.5	6.75	0.	132.47
3608	-6.5	7.25	0.	132.4
3609	-6.25	7.	0.	127.93
3610	-6.75	6.	0.	130.17
3611	-7.25	6.	0.	128.6
3612	-7.	5.75	0.	128.08
3613	-7.	6.25	0.	130.33
3614	-7.	4.75	0.	129.1
3615	-6.75	5.	0.	129.55
3616	-7.25	5.	0.	127.98
3617	-7.	5.25	0.	127.72
3618	-6.75	4.5	0.	130.77
3619	-6.	4.25	0.	124.29
3620	-6.	3.75	0.	123.44
3621	-6.25	4.	0.	125.88
3622	-3.75	4.	0.	125.72
3623	-4.	4.25	0.	124.59
3624	-4.	3.75	0.	122.67
3625	-3.5	4.25	0.	130.75
3626	-3.	6.25	0.	130.99
3627	-3.25	6.	0.	131.49
3628	-2.75	6.	0.	129.57
3629	-3.25	6.5	0.	132.54
3630	-4.	7.25	0.	124.04
3631	-4.	6.75	0.	124.35
3632	-3.75	7.	0.	127.29
3633	-0.99995	-4.7502	0.	129.69
3634	-1.2499	-5.0002	0.	129.4
3635	-1.25	-4.5001	0.	130.03
3636	-1.75	-4.0001	0.	123.17
3637	-1.5	-4.2501	0.	127.02
3638	-1.5	-3.7501	0.	119.25
3639	-3.25	-4.	0.	123.86
3640	-3.5	-4.25	0.	126.38
3641	-3.5	-3.75	0.	121.21
3642	-4.25	-5.	0.	128.88
3643	-3.75	-5.	0.	128.23
3644	-4.	-4.75	0.	128.01
3645	-4.	-7.25	0.	130.44
3646	-4.25	-7.	0.	130.43
3647	-3.75	-7.	0.	129.61
3648	-3.75	-7.5	0.	130.56
3649	-4.25	-7.5	0.	131.22
3650	-3.	-8.25	0.	121.36
3651	-3.	-7.75	0.	121.1
3652	-3.25	-8.	0.	123.77
3653	-1.5	-8.2501	0.	124.72
3654	-1.5	-7.7501	0.	126.89
3655	-1.75	-8.0001	0.	122.61
3656	-1.2499	-7.5002	0.	128.1
3657	-0.99991	-7.2503	0.	127.53
3658	6.5	-5.25	0.	133.19
3659	6.75	-5.	0.	128.31
3660	6.	-5.75	0.	133.35
3661	6.25	-5.5	0.	134.43
3662	6.25	-6.	0.	133.65
3663	-0.75	-2.1551e-010	0.	124.38
3664	-0.5	-0.25	0.	129.32
3665	-1.	-0.25	0.	123.08
3666	-1.25	-5.1335e-010	0.	120.58
3667	-2.25	-4.	0.	122.45
3668	-2.	-3.75	0.	123.39
3669	-2.	-4.25	0.	122.2
3670	-2.75	-4.	0.	123.18
3671	-3.	-3.75	0.	125.46
3672	-3.	-4.25	0.	123.23
3673	-2.5	-3.75	0.	127.99
3674	-2.5	-4.25	0.	117.12
3675	-6.	-3.25	0.	123.32
3676	-5.75	-3.	0.	124.95
3677	-5.75	-3.5	0.	124.8
3678	-6.	-3.75	0.	121.17
3679	5.	-8.25	0.	131.95
3680	4.75	-8.	0.	131.57
3681	5.25	-8.	0.	130.77
3682	-7.75	8.5	0.	124.56
3683	-8.25	8.5	0.	124.59
3684	-8.	8.75	0.	124.46
3685	-7.25	8.5	0.	124.68
3686	-7.5	8.75	0.	124.34
3687	-6.75	8.5	0.	127.06
3688	-7.	8.75	0.	124.85
3689	-8.5	-7.75	0.	131.31
3690	-8.5	-8.25	0.	130.79
3691	-8.75	-8.	0.	131.12
3692	-8.5	-7.25	0.	131.15
3693	-8.75	-7.5	0.	131.1
3694	-8.5	-6.75	0.	130.59
3695	-8.75	-7.	0.	130.51
3696	-8.75	-6.5	0.	129.89
3697	-8.5	-6.25	0.	130.18
3698	-8.5	-5.25	0.	130.7
3699	-8.75	-5.5	0.	129.85
3700	-8.5	-5.75	0.	130.22
3701	-8.5	-4.75	0.	131.29
3702	-8.75	-5.	0.	130.41
3703	-8.5	-4.25	0.	131.38
3704	-8.75	-4.5	0.	130.88
3705	-8.25	-4.5	0.	132.47
3706	-8.5	-3.75	0.	130.7
3707	-8.75	-4.	0.	130.68
3708	-8.25	-4.	0.	131.65
3709	-8.5	-3.25	0.	129.65
3710	-8.75	-3.5	0.	129.96
3711	-8.5	-2.75	0.	128.69
3712	-8.75	-3.	0.	129.11
3713	-8.5	-2.25	0.	128.
3714	-8.75	-2.5	0.	128.4
3715	-8.5	-1.75	0.	127.57
3716	-8.75	-2.	0.	127.89
3717	-8.5	-1.25	0.	127.35
3718	-8.75	-1.5	0.	127.57
3719	-8.5	-0.75	0.	127.27
3720	-8.75	-1.	0.	127.41
3721	-8.5	-0.25	0.	127.31
3722	-8.75	-0.5	0.	127.37
3723	-8.5	0.25	0.	127.43
3724	-8.75	-4.9042e-012	0.	127.43
3725	-8.5	0.75	0.	127.59
3726	-8.75	0.5	0.	127.56
3727	-8.5	1.25	0.	127.73
3728	-8.75	1.	0.	127.69
3729	-8.5	1.75	0.	127.84
3730	-8.75	1.5	0.	127.8
3731	-8.5	2.25	0.	127.91
3732	-8.75	2.	0.	127.87
3733	-8.5	2.75	0.	127.93
3734	-8.75	2.5	0.	127.88
3735	-8.5	3.25	0.	127.89
3736	-8.75	3.	0.	127.84
3737	-8.5	3.75	0.	127.73
3738	-8.75	3.5	0.	127.69
3739	-8.5	4.25	0.	127.41
3740	-8.75	4.	0.	127.41
3741	-8.5	4.75	0.	126.98
3742	-8.75	4.5	0.	127.
3743	-8.75	5.	0.	126.57
3744	-8.5	5.25	0.	126.64
3745	-8.5	6.25	0.	126.64
3746	-8.75	6.	0.	126.24
3747	-8.5	5.75	0.	126.55
3748	-8.5	6.75	0.	126.64
3749	-8.75	6.5	0.	126.25
3750	-8.5	7.25	0.	126.29
3751	-8.75	7.	0.	126.08
3752	-8.5	7.75	0.	125.62
3753	-8.75	7.5	0.	125.63
3754	-8.5	8.25	0.	124.94
3755	-8.75	8.	0.	125.04
3756	-8.75	8.5	0.	124.63
3757	-8.5	8.75	0.	124.64
3758	1.0001	-8.2503	0.	128.72
3759	1.2501	-8.0003	0.	129.01
3760	5.25	-8.5	0.	132.94
3761	5.75	-8.5	0.	133.05
3762	5.5	-8.75	0.	133.14
3763	5.5	-8.25	0.	131.74
3764	4.75	-8.5	0.	133.81
3765	5.	-8.75	0.	133.27
3766	0.75008	-8.5003	0.	128.99
3767	1.2501	-8.5002	0.	130.72
3768	1.0001	-8.7502	0.	129.61
3769	0.25007	-8.5003	0.	128.01
3770	0.50006	-8.7503	0.	128.66
3771	-0.24995	-8.5003	0.	127.42
3772	4.7532e-005	-8.7503	0.	127.95
3773	-0.74997	-8.5002	0.	126.69
3774	-0.49997	-8.7502	0.	127.22
3775	-1.25	-8.5001	0.	125.23
3776	-0.99998	-8.7501	0.	126.11
3777	-1.75	-8.5001	0.	122.88
3778	-1.5	-8.7501	0.	124.26
3779	-2.25	-8.5	0.	120.87
3780	-2.	-8.75	0.	122.05
3781	-2.	-8.25	0.	120.77
3782	-2.75	-8.5	0.	121.03
3783	-2.5	-8.75	0.	121.
3784	-3.	-8.75	0.	122.07
3785	-3.25	-8.5	0.	123.16
3786	-4.25	-8.5	0.	125.11
3787	-4.	-8.75	0.	124.76
3788	-3.75	-8.5	0.	125.1
3789	-4.75	-8.5	0.	122.91
3790	-4.5	-8.75	0.	123.66
3791	-5.25	-8.5	0.	119.65
3792	-5.	-8.25	0.	121.73
3793	-5.	-8.75	0.	121.07
3794	-5.75	-8.5	0.	117.35
3795	-5.5	-8.75	0.	118.43
3796	-6.25	-8.5	0.	117.66
3797	-6.	-8.75	0.	117.52
3798	-6.75	-8.5	0.	120.64
3799	-6.5	-8.75	0.	119.11
3800	-7.25	-8.5	0.	124.69
3801	-7.	-8.75	0.	122.53
3802	-7.75	-8.5	0.	127.99
3803	-7.5	-8.75	0.	126.1
3804	-8.25	-8.5	0.	129.83
3805	-8.	-8.75	0.	128.61
3806	-8.5	-8.75	0.	130.
3807	-8.75	-8.5	0.	130.68
3808	-2.25	0.5	0.	127.96
3809	-2.	0.25	0.	124.33
3810	3.25	8.5	0.	125.07
3811	3.	8.75	0.	126.28
3812	2.75	8.5	0.	129.93
3813	3.75	8.5	0.	123.6
3814	3.5	8.75	0.	124.17
3815	4.25	8.5	0.	123.74
3816	4.	8.75	0.	123.73
3817	4.75	8.5	0.	125.29
3818	4.5	8.75	0.	124.43
3819	5.	8.75	0.	126.52
3820	5.25	8.5	0.	129.38
3821	-2.75	8.5	0.	122.95
3822	-3.	8.75	0.	123.66
3823	-3.25	8.5	0.	125.8
3824	-2.25	8.5	0.	122.56
3825	-2.5	8.75	0.	122.8
3826	-1.75	8.5	0.	122.93
3827	-2.	8.75	0.	122.8
3828	-1.25	8.5	0.	124.57
3829	-1.5	8.75	0.	123.57
3830	-1.	8.75	0.	125.8
3831	-0.75	8.5	0.	129.4
3832	3.	-1.75	0.	126.15
3833	2.75	-2.	0.	128.37
3834	3.25	-2.	0.	122.23
3835	2.	-0.75	0.	125.31
3836	2.25	-1.	0.	128.63
3837	2.	-1.25	0.	127.66
3838	8.5	7.75	0.	126.38
3839	8.5	8.25	0.	125.88
3840	8.25	8.	0.	127.38
3841	8.75	8.	0.	125.48
3842	8.5	7.25	0.	126.95
3843	8.25	7.5	0.	127.56
3844	8.75	7.5	0.	126.
3845	8.5	6.75	0.	127.46
3846	8.25	7.	0.	128.15
3847	8.75	7.	0.	126.61
3848	8.5	6.25	0.	127.53
3849	8.75	6.5	0.	127.07
3850	8.25	6.5	0.	128.42
3851	8.5	5.75	0.	127.01
3852	8.25	6.	0.	127.68
3853	8.75	6.	0.	126.99
3854	8.5	5.25	0.	126.24
3855	8.75	5.5	0.	126.53
3856	8.5	4.75	0.	125.43
3857	8.75	5.	0.	125.93
3858	8.25	5.0001	0.	125.7
3859	8.5	4.2501	0.	124.51
3860	8.75	4.5	0.	125.27
3861	8.25	4.5001	0.	124.99
3862	8.5	3.7501	0.	123.24
3863	8.75	4.	0.	124.4
3864	8.5	3.2501	0.	121.11
3865	8.75	3.5	0.	123.12
3866	8.75	3.	0.	121.13
3867	8.5	2.75	0.	116.46
3868	8.25	8.5	0.	126.64
3869	8.	8.75	0.	127.4
3870	7.75	8.5	0.	130.37
3871	8.	8.25	0.	128.14
3872	8.75	8.5	0.	125.13
3873	8.5	8.75	0.	125.51
3874	8.75	8.9782e-007	0.	116.22
3875	8.5	-0.25	0.	111.67
3876	8.5	0.25	0.	111.78
3877	8.5	-3.25	0.	119.24
3878	8.75	-3.	0.	120.07
3879	8.5	-2.75	0.	115.31
3880	8.5	-3.75	0.	120.27
3881	8.75	-3.5	0.	121.47
3882	8.5	-4.25	0.	119.97
3883	8.75	-4.	0.	121.88
3884	8.5	-4.75	0.	118.82
3885	8.75	-4.5	0.	121.62
3886	8.75	-5.	0.	121.12
3887	8.5	-5.25	0.	116.66
3888	6.	-8.25	0.	132.7
3889	6.25	-8.	0.	132.7
3890	5.75	-8.	0.	131.41
3891	6.25	-8.5	0.	133.84
3892	6.	-8.75	0.	133.2
3893	-0.25	-0.5	0.	130.38
3894	-5.8301e-009	-0.75	0.	129.03
3895	5.	1.25	0.	127.38
3896	4.75	1.5	0.	126.8
3897	5.	1.75	0.	126.98
3898	5.25	1.	0.	130.
3899	5.5	0.75003	0.	134.1
3900	2.	-0.25	0.	125.71
3901	2.25	-0.5	0.	126.11
3902	1.75	-1.018e-008	0.	127.63
3903	1.5	0.25	0.	131.3
3904	2.	0.25	0.	128.78
3905	2.25	-1.0849e-008	0.	126.8
3906	4.75	1.	0.	127.66
3907	5.	0.75002	0.	130.13
3908	-5.25	-3.5	0.	125.75
3909	-5.5	-3.25	0.	126.4
3910	-5.5	-3.75	0.	124.34
3911	-2.75	-3.5	0.	129.99
3912	-2.5	-3.25	0.	132.71
3913	-2.25	-3.5	0.	128.68
3914	-0.75	-0.5	0.	127.95
3915	-0.5	-0.75	0.	132.92
3916	-0.25	-1.	0.	131.57
3917	-1.7685e-008	-1.25	0.	129.76
3918	0.25	-1.	0.	126.4
3919	6.5	-8.75	0.	132.48
3920	6.5	-8.25	0.	133.79
3921	6.75	-8.5	0.	130.25
3922	6.5	-5.75	0.	134.69
3923	6.75	-5.5	0.	131.33
3924	9.	-3.75	0.	123.07
3925	9.	-3.25	0.	122.31
3926	9.25	-3.5	0.	124.98
3927	9.	-4.25	0.	123.52
3928	9.25	-4.	0.	125.57
3929	9.	-4.75	0.	123.93
3930	9.25	-4.5	0.	126.26
3931	9.25	-5.	0.	127.47
3932	9.	-5.25	0.	125.26
3933	-1.75	-7.5001	0.	124.22
3934	-1.5	-7.2501	0.	128.36
3935	-3.25	-7.5	0.	125.83
3936	-3.5	-7.25	0.	129.7
3937	-3.5	-7.75	0.	128.53
3938	-3.5	-4.75	0.	128.35
3939	-3.25	-4.5	0.	125.69
3940	-3.75	-4.5	0.	128.15
3941	-1.75	-4.5001	0.	125.98
3942	-1.5	-4.7501	0.	129.72
3943	-3.5	6.25	0.	133.01
3944	-3.75	6.5	0.	129.18
3945	-3.5	6.75	0.	132.14
3946	-3.5	4.75	0.	132.81
3947	-3.75	4.5	0.	129.54
3948	-3.25	4.5	0.	133.22
3949	-6.5	4.75	0.	131.18
3950	-6.25	4.5	0.	128.36
3951	-6.5	4.25	0.	129.99
3952	-6.5	6.25	0.	132.23
3953	-6.25	6.5	0.	129.3
3954	-6.75	6.5	0.	132.43
3955	9.	-2.75	0.	122.25
3956	9.25	-3.	0.	124.73
3957	7.75	-2.5	0.	126.85
3958	7.5	-2.25	0.	130.42
3959	7.5	-0.75	0.	130.57
3960	7.75	-0.5	0.	125.94
3961	9.	-0.25	0.	119.82
3962	9.	0.25	0.	119.93
3963	9.25	2.7206e-007	0.	123.46
3964	7.75	0.50001	0.	126.34
3965	7.5	0.75002	0.	131.25
3966	7.5	2.2501	0.	131.11
3967	7.75	2.5001	0.	127.83
3968	9.	8.75	0.	124.66
3969	9.25	8.5	0.	124.21
3970	9.	8.25	0.	124.72
3971	9.	4.75	0.	125.78
3972	9.25	5.	0.	126.19
3973	9.	5.25	0.	126.22
3974	9.	4.25	0.	125.16
3975	9.25	4.5	0.	125.95
3976	9.	3.75	0.	124.29
3977	9.25	4.	0.	125.62
3978	9.	3.25	0.	123.18
3979	9.25	3.5	0.	125.18
3980	9.	2.75	0.	122.91
3981	9.25	3.	0.	125.02
3982	2.5	-3.25	0.	130.57
3983	2.25	-3.5	0.	128.56
3984	2.75	-3.5	0.	129.07
3985	-0.74999	-3.5001	0.	134.64
3986	-0.24999	-3.5001	0.	136.65
3987	-0.49999	-3.25	0.	139.07
3988	8.75	9.	0.	125.04
3989	8.25	9.	0.	126.27
3990	8.5	9.25	0.	125.51
3991	9.25	9.	0.	124.44
3992	9.	9.25	0.	124.99
3993	-2.25	9.	0.	123.05
3994	-2.75	9.	0.	123.52
3995	-2.5	9.25	0.	124.16
3996	-1.75	9.	0.	123.45
3997	-2.	9.25	0.	124.32
3998	-1.25	9.	0.	124.8
3999	-1.5	9.25	0.	124.77
4000	-0.75	9.	0.	127.56
4001	-1.	9.25	0.	126.17
4002	-0.25	6.5	0.	128.03
4003	-0.5	6.75	0.	130.78
4004	-0.5	6.25	0.	128.71
4005	2.25	6.5	0.	129.55
4006	2.5	6.75	0.	132.6
4007	5.25	0.50002	0.	134.17
4008	5.5	0.25002	0.	136.27
4009	2.5	-1.25	0.	134.06
4010	2.75	-1.5	0.	132.21
4011	2.25	-1.5	0.	133.09
4012	2.5	-1.75	0.	134.39
4013	1.5001	-6.7503	0.	129.88
4014	1.7501	-6.5002	0.	127.59
4015	1.2501	-6.5004	0.	129.14
4016	1.5001	-8.7501	0.	130.17
4017	1.75	-8.5001	0.	128.54
4018	1.5001	-8.2502	0.	130.97
4019	4.5	-8.75	0.	133.04
4020	4.5	-8.25	0.	133.37
4021	4.25	-8.5	0.	130.88
4022	4.5	-6.75	0.	132.43
4023	4.25	-6.5	0.	129.81
4024	-2.25	2.5	0.	129.34
4025	-2.5	2.75	0.	131.19
4026	-2.75	2.5	0.	129.53
4027	-2.5	2.25	0.	129.83
4028	0.25	4.5	0.	128.6
4029	0.5	4.25	0.	130.54
4030	0.5	4.75	0.	128.31
4031	-2.25	4.5	0.	131.35
4032	-2.5	4.25	0.	134.05
4033	-2.75	4.5	0.	133.97
4034	7.5	6.75	0.	130.56
4035	7.25	6.5	0.	126.4
4036	7.75	6.5	0.	129.9
4037	7.75	9.	0.	128.58
4038	8.	9.25	0.	126.79
4039	3.25	9.	0.	125.39
4040	2.75	9.	0.	128.
4041	3.	9.25	0.	126.75
4042	3.75	9.	0.	124.3
4043	3.5	9.25	0.	125.5
4044	4.25	9.	0.	124.44
4045	4.	9.25	0.	125.31
4046	4.75	9.	0.	125.67
4047	4.5	9.25	0.	125.59
4048	5.25	9.	0.	128.06
4049	5.	9.25	0.	126.8
4050	5.5	6.75	0.	130.24
4051	5.75	6.5	0.	126.64
4052	1.5	2.25	0.	134.58
4053	1.75	2.5	0.	131.19
4054	1.25	2.5	0.	134.38
4055	1.75	0.5	0.	132.38
4056	1.5	0.75	0.	134.1
4057	4.5	2.25	0.	129.95
4058	4.25	2.5	0.	128.04
4059	4.5	2.75	0.	129.75
4060	-5.5	0.25	0.	130.09
4061	-5.25	0.5	0.	127.61
4062	-5.75	0.5	0.	129.87
4063	-5.5	-1.25	0.	133.28
4064	-5.25	-1.5	0.	128.96
4065	-5.5	-1.75	0.	133.05
4066	-2.5	0.25	0.	130.54
4067	-2.75	0.5	0.	128.26
4068	-2.25	-1.9434e-009	0.	126.98
4069	-2.	-0.25	0.	123.25
4070	-1.75	-1.3414e-009	0.	121.24
4071	-4.75	-4.5	0.	127.78
4072	-4.5	-4.75	0.	129.57
4073	-4.25	-4.5	0.	128.71
4074	-4.5	-4.25	0.	127.04
4075	-7.5	-4.75	0.	135.
4076	-7.25	-4.5	0.	131.71
4077	-7.75	-4.5	0.	134.43
4078	-7.25	-7.5	0.	129.47
4079	-7.5	-7.25	0.	133.44
4080	-4.75	-7.5	0.	127.83
4081	-4.5	-7.25	0.	131.17
4082	-3.5	7.75	0.	130.86
4083	-3.75	7.5	0.	128.07
4084	-3.5	7.25	0.	131.34
4085	-3.25	9.	0.	125.74
4086	-3.	9.25	0.	124.91
4087	8.25	-9.	0.	115.86
4088	8.5	-8.75	0.	115.88
4089	8.5	-9.25	0.	117.72
4090	8.75	-9.	0.	120.59
4091	7.75	-9.	0.	115.98
4092	8.	-8.75	0.	114.41
4093	8.	-9.25	0.	115.44
4094	7.25	-9.	0.	120.77
4095	7.5	-8.75	0.	115.97
4096	7.5	-9.25	0.	117.9
4097	6.75	-9.	0.	127.35
4098	7.	-8.75	0.	125.19
4099	7.	-9.25	0.	123.78
4100	6.5	-9.25	0.	129.62
4101	6.25	-9.	0.	131.82
4102	4.25	-9.	0.	128.84
4103	4.5	-9.25	0.	130.86
4104	4.75	-9.	0.	132.49
4105	3.75	-9.	0.	123.24
4106	4.	-8.75	0.	126.72
4107	4.	-9.25	0.	125.98
4108	3.25	-9.	0.	119.08
4109	3.5	-8.75	0.	118.92
4110	3.5	-9.25	0.	120.93
4111	2.75	-9.	0.	118.55
4112	3.	-8.75	0.	117.67
4113	3.	-9.25	0.	118.6
4114	2.25	-9.	0.	121.67
4115	2.5	-8.75	0.	117.99
4116	2.5	-9.25	0.	119.85
4117	1.75	-9.0001	0.	126.27
4118	2.	-8.7501	0.	124.69
4119	2.	-9.25	0.	123.83
4120	1.25	-9.0002	0.	129.04
4121	1.5	-9.2501	0.	127.75
4122	1.	-9.2501	0.	129.18
4123	0.75005	-9.0002	0.	129.28
4124	-0.24997	-9.0002	0.	127.75
4125	2.2371e-005	-9.2502	0.	128.32
4126	0.25004	-9.0002	0.	128.6
4127	-0.74999	-9.0001	0.	126.64
4128	-0.49999	-9.2501	0.	127.32
4129	-1.25	-9.0001	0.	125.14
4130	-0.99999	-9.2501	0.	126.
4131	-1.75	-9.	0.	123.43
4132	-1.5	-9.25	0.	124.39
4133	-2.	-9.25	0.	122.87
4134	-2.25	-9.	0.	122.17
4135	-3.25	-9.	0.	122.85
4136	-3.	-9.25	0.	122.4
4137	-2.75	-9.	0.	122.03
4138	-3.75	-9.	0.	123.59
4139	-3.5	-9.25	0.	123.12
4140	-3.5	-8.75	0.	123.94
4141	-4.25	-9.	0.	123.3
4142	-4.	-9.25	0.	123.28
4143	-4.5	-9.25	0.	122.38
4144	-4.75	-9.	0.	121.82
4145	-8.25	-9.	0.	128.77
4146	-8.	-9.25	0.	127.58
4147	-7.75	-9.	0.	126.71
4148	-8.75	-9.	0.	130.17
4149	-8.5	-9.25	0.	129.34
4150	-9.	-9.25	0.	130.64
4151	-9.25	-9.	0.	131.27
4152	-9.	-8.75	0.	130.85
4153	-9.	-7.75	0.	130.91
4154	-9.25	-8.	0.	131.05
4155	-9.	-8.25	0.	131.01
4156	-9.	-7.25	0.	130.46
4157	-9.25	-7.5	0.	130.55
4158	-9.	-6.75	0.	129.82
4159	-9.25	-7.	0.	129.8
4160	-9.	-6.25	0.	129.33
4161	-9.25	-6.5	0.	129.09
4162	-9.	-5.75	0.	129.25
4163	-9.25	-6.	0.	128.74
4164	-8.75	-6.	0.	129.63
4165	-9.	-5.25	0.	129.56
4166	-9.25	-5.5	0.	128.83
4167	-9.	-4.75	0.	130.
4168	-9.25	-5.	0.	129.25
4169	-9.	-4.25	0.	130.18
4170	-9.25	-4.5	0.	129.66
4171	-9.	-3.75	0.	129.95
4172	-9.25	-4.	0.	129.76
4173	-9.	-3.25	0.	129.42
4174	-9.25	-3.5	0.	129.52
4175	-9.	-2.75	0.	128.82
4176	-9.25	-3.	0.	129.07
4177	-9.	-2.25	0.	128.28
4178	-9.25	-2.5	0.	128.57
4179	-9.	-1.75	0.	127.89
4180	-9.25	-2.	0.	128.13
4181	-9.	-1.25	0.	127.64
4182	-9.25	-1.5	0.	127.8
4183	-9.	-0.75	0.	127.51
4184	-9.25	-1.	0.	127.6
4185	-9.	-0.25	0.	127.5
4186	-9.25	-0.5	0.	127.52
4187	-9.	0.25	0.	127.56
4188	-9.25	-3.0577e-012	0.	127.55
4189	-9.	0.75	0.	127.66
4190	-9.25	0.5	0.	127.64
4191	-9.	1.25	0.	127.76
4192	-9.25	1.	0.	127.75
4193	-9.	1.75	0.	127.83
4194	-9.25	1.5	0.	127.85
4195	-9.	2.25	0.	127.84
4196	-9.25	2.	0.	127.89
4197	-9.	2.75	0.	127.79
4198	-9.25	2.5	0.	127.85
4199	-9.	3.25	0.	127.64
4200	-9.25	3.	0.	127.7
4201	-9.25	3.5	0.	127.45
4202	-9.	3.75	0.	127.37
4203	-9.	4.75	0.	126.59
4204	-9.25	4.5	0.	126.61
4205	-9.	4.25	0.	127.01
4206	-9.	5.25	0.	126.23
4207	-9.25	5.	0.	126.15
4208	-9.	5.75	0.	125.99
4209	-9.25	5.5	0.	125.79
4210	-8.75	5.5	0.	126.3
4211	-9.25	6.	0.	125.54
4212	-9.	6.25	0.	125.85
4213	-9.	7.25	0.	125.41
4214	-9.25	7.	0.	125.14
4215	-9.	6.75	0.	125.69
4216	-9.	7.75	0.	125.04
4217	-9.25	7.5	0.	124.87
4218	-9.	8.25	0.	124.73
4219	-9.25	8.	0.	124.61
4220	-9.	8.75	0.	124.67
4221	-9.25	8.5	0.	124.51
4222	-8.75	9.	0.	124.68
4223	-9.25	9.	0.	124.66
4224	-9.	9.25	0.	124.91
4225	-8.5	9.25	0.	124.92
4226	-8.25	9.	0.	124.52
4227	-7.5	9.25	0.	124.7
4228	-7.75	9.	0.	124.25
4229	-7.25	9.	0.	124.53
4230	-6.5	7.75	0.	132.32
4231	-6.25	7.5	0.	129.07
4232	-6.5	8.25	0.	130.39
4233	-6.5	8.75	0.	128.66
4234	-6.5	9.25	0.	128.29
4235	-6.75	9.	0.	126.5
4236	-3.5	8.75	0.	127.84
4237	-3.5	9.25	0.	127.92
4238	-3.5	8.25	0.	129.12
4239	-4.25	7.5	0.	119.76
4240	-5.75	7.5	0.	120.29
4241	-6.	7.25	0.	124.61
4242	-5.25	7.5	0.	115.61
4243	-4.75	7.5	0.	115.4
4244	-5.25	-7.5	0.	118.58
4245	-5.	-7.75	0.	123.09
4246	-5.75	-7.5	0.	113.16
4247	-6.25	-7.5	0.	113.5
4248	-6.75	-7.5	0.	119.6
4249	-7.5	-6.75	0.	134.46
4250	-7.5	-6.25	0.	136.61
4251	-7.5	-5.75	0.	136.91
4252	-7.5	-5.25	0.	135.4
4253	-6.75	-4.5	0.	122.42
4254	-7.	-4.25	0.	127.19
4255	-6.25	-4.5	0.	116.76
4256	-5.75	-4.5	0.	116.37
4257	-6.	-4.25	0.	118.12
4258	-5.25	-4.5	0.	120.96
4259	-5.	-4.25	0.	124.9
4260	-5.5	-4.25	0.	119.01
4261	-4.5	-5.25	0.	130.9
4262	-4.5	-6.75	0.	131.62
4263	-4.5	-6.25	0.	133.25
4264	-4.5	-5.75	0.	133.22
4265	-2.5	-0.25	0.	132.37
4266	-2.5	-0.75	0.	136.09
4267	-2.25	-0.5	0.	128.61
4268	-5.5	-0.75	0.	130.26
4269	-5.5	-0.25	0.	129.3
4270	-4.75	0.5	0.	119.79
4271	-5.	0.75	0.	123.66
4272	-3.25	0.5	0.	121.13
4273	-3.75	0.5	0.	116.19
4274	-4.25	0.5	0.	115.62
4275	4.5	1.75	0.	128.07
4276	4.75	2.	0.	128.28
4277	4.5	1.25	0.	127.02
4278	4.5	0.75001	0.	125.9
4279	2.25	0.5	0.	127.55
4280	2.5	0.25	0.	125.54
4281	2.75	0.5	0.	122.57
4282	1.5	1.25	0.	133.79
4283	1.25	1.	0.	132.05
4284	1.5	1.75	0.	133.95
4285	3.75	2.5	0.	120.64
4286	3.25	2.5	0.	117.09
4287	2.75	2.5	0.	117.91
4288	2.25	2.5	0.	122.82
4289	5.5	7.25	0.	130.94
4290	5.25	7.	0.	129.15
4291	5.5	7.75	0.	132.86
4292	5.5	8.25	0.	133.01
4293	5.5	8.75	0.	130.92
4294	5.5	9.25	0.	129.42
4295	7.5	8.75	0.	131.55
4296	7.5	9.25	0.	129.47
4297	7.5	8.25	0.	133.91
4298	7.5	7.75	0.	133.75
4299	7.75	8.	0.	131.68
4300	7.5	7.25	0.	131.65
4301	7.75	7.	0.	129.79
4302	7.75	7.5	0.	130.63
4303	6.75	6.5	0.	116.43
4304	6.25	6.5	0.	116.65
4305	-1.75	4.5	0.	123.64
4306	-1.25	4.5	0.	119.58
4307	-0.75	4.5	0.	119.14
4308	-1.	4.75	0.	120.17
4309	-0.25	4.5	0.	122.53
4310	0.5	3.75	0.	130.81
4311	0.5	3.25	0.	132.35
4312	0.5	2.75	0.	134.03
4313	-0.25	2.5	0.	122.77
4314	0.25	2.5	0.	130.85
4315	-0.75	2.5	0.	118.79
4316	-1.25	2.5	0.	118.72
4317	-1.75	2.5	0.	122.7
4318	-1.5	2.25	0.	119.65
4319	-2.5	3.25	0.	131.01
4320	-2.5	3.75	0.	132.32
4321	4.5	-7.25	0.	131.62
4322	4.75	-7.	0.	130.8
4323	4.5	-7.75	0.	131.89
4324	3.75	-8.5	0.	122.39
4325	3.25	-8.5	0.	117.49
4326	2.75	-8.5	0.	117.08
4327	2.25	-8.5	0.	120.99
4328	1.5001	-7.7502	0.	129.71
4329	1.5001	-7.2503	0.	129.31
4330	2.25	-6.5001	0.	120.6
4331	2.75	-6.5	0.	116.9
4332	3.75	-6.5	0.	121.85
4333	3.25	-6.5	0.	117.31
4334	2.5	-0.75	0.	129.42
4335	2.5	-0.25	0.	127.15
4336	3.25	0.5	0.	116.81
4337	3.75	0.5	0.	116.95
4338	4.25	0.5	0.	123.02
4339	4.75	0.50001	0.	128.39
4340	5.5	-0.24999	0.	135.18
4341	5.5	-0.75	0.	134.08
4342	5.5	-1.25	0.	134.09
4343	4.75	-1.5	0.	123.61
4344	5.25	-1.5	0.	131.51
4345	4.25	-1.5	0.	118.55
4346	3.75	-1.5	0.	117.94
4347	3.25	-1.5	0.	122.38
4348	3.5	-1.75	0.	118.48
4349	1.75	6.5	0.	121.07
4350	2.	6.25	0.	125.46
4351	1.25	6.5	0.	116.01
4352	0.75	6.5	0.	115.75
4353	0.25	6.5	0.	120.35
4354	-0.5	7.25	0.	131.82
4355	-0.5	7.75	0.	133.78
4356	-0.5	8.25	0.	133.82
4357	-0.5	8.75	0.	131.16
4358	-0.5	9.25	0.	129.25
4359	2.5	7.25	0.	132.96
4360	2.5	7.75	0.	134.44
4361	2.5	8.25	0.	134.43
4362	2.5	8.75	0.	131.64
4363	2.5	9.25	0.	129.72
4364	-4.75	-1.5	0.	115.69
4365	-4.25	-1.5	0.	109.99
4366	-3.75	-1.5	0.	110.54
4367	-3.25	-1.5	0.	117.79
4368	-2.75	-1.5	0.	134.4
4369	-3.25	-3.5	0.	122.78
4370	-3.75	-3.5	0.	118.73
4371	-4.25	-3.5	0.	118.3
4372	-4.75	-3.5	0.	121.17
4373	-5.	-3.75	0.	124.4
4374	-4.5	-3.75	0.	120.88
4375	-5.5	-2.75	0.	126.73
4376	-5.5	-2.25	0.	129.14
4377	-2.5	-2.75	0.	134.39
4378	-2.5	-2.25	0.	138.36
4379	-2.5	-1.75	0.	141.77
4380	-2.5	-1.25	0.	140.47
4381	-1.75	-0.5	0.	117.68
4382	-1.25	-0.5	0.	118.21
4383	-1.5	-0.25	0.	115.77
4384	-0.5	-1.25	0.	137.15
4385	-0.25	-1.5	0.	135.25
4386	-0.5	-1.75	0.	140.96
4387	-1.25	-3.5	0.	121.46
4388	-1.75	-3.5	0.	119.36
4389	6.5	-7.75	0.	134.46
4390	6.5	-7.25	0.	136.54
4391	6.5	-6.75	0.	136.89
4392	6.5	-6.25	0.	135.26
4393	7.25	-5.5	0.	121.58
4394	7.	-5.25	0.	126.5
4395	7.75	-5.5	0.	115.43
4396	8.25	-5.5	0.	115.22
4397	8.75	-5.5	0.	120.77
4398	8.75	-8.5	0.	120.34
4399	9.25	-8.5	0.	130.66
4400	9.	-8.75	0.	125.06
4401	8.25	-8.5	0.	114.41
4402	7.25	-8.5	0.	120.38
4403	7.75	-8.5	0.	114.36
4404	-2.25	-7.5	0.	114.32
4405	-2.	-7.75	0.	119.96
4406	-2.75	-7.5	0.	115.05
4407	-3.5	-6.75	0.	130.11
4408	-3.5	-6.25	0.	131.67
4409	-3.5	-5.75	0.	131.38
4410	-3.5	-5.25	0.	129.3
4411	-2.75	-4.5	0.	116.92
4412	-2.25	-4.5	0.	116.61
4413	-1.5	-5.2501	0.	130.38
4414	-1.4999	-5.7502	0.	131.83
4415	-1.4999	-6.7502	0.	129.31
4416	-1.2499	-7.0002	0.	127.81
4417	-1.4999	-6.2502	0.	131.42
4418	-3.5	5.75	0.	132.1
4419	-3.5	5.25	0.	131.96
4420	-3.25	5.	0.	131.95
4421	-4.25	4.5	0.	120.97
4422	-4.75	4.5	0.	116.24
4423	-5.25	4.5	0.	116.19
4424	-5.75	4.5	0.	120.47
4425	-6.5	5.25	0.	130.31
4426	-6.5	5.75	0.	130.56
4427	-6.75	5.5	0.	128.51
4428	-4.25	6.5	0.	119.86
4429	-4.75	6.5	0.	114.74
4430	-5.25	6.5	0.	114.69
4431	-5.75	6.5	0.	119.99
4432	-6.	6.75	0.	124.78
4433	8.75	-2.5	0.	117.39
4434	9.25	-2.5	0.	126.65
4435	8.25	-2.5	0.	117.63
4436	7.5	-1.75	0.	130.24
4437	7.5	-1.25	0.	130.32
4438	8.25	-0.5	0.	115.4
4439	8.75	-0.5	0.	115.25
4440	9.25	-0.5	0.	125.54
4441	8.75	0.5	0.	115.47
4442	9.25	0.5	0.	125.72
4443	8.25	0.5	0.	115.64
4444	7.5	1.25	0.	130.99
4445	7.5	1.75	0.	130.8
4446	7.25	1.5	0.	129.69
4447	8.25	2.5	0.	118.6
4448	8.75	2.5	0.	118.11
4449	9.25	2.5	0.	127.01
4450	0.25	-1.5	0.	125.35
4451	0.75	-1.5	0.	120.41
4452	0.5	-1.25	0.	122.
4453	1.25	-1.5	0.	120.
4454	1.75	-1.5	0.	124.35
4455	2.5	-2.25	0.	130.82
4456	2.5	-2.75	0.	130.07
4457	2.75	-3.	0.	127.89
4458	1.75	-3.5	0.	122.76
4459	1.25	-3.5001	0.	120.33
4460	0.75	-3.5001	0.	121.73
4461	0.25	-3.5001	0.	127.49
4462	-0.5	-2.25	0.	140.6
4463	-0.5	-2.75	0.	138.73
4464	9.5	8.75	0.	124.
4465	9.5	9.25	0.	124.49
4466	9.5	8.25	0.	123.83
4467	9.5	7.75	0.	124.03
4468	9.25	8.	0.	124.34
4469	9.5	7.25	0.	124.52
4470	9.25	7.5	0.	124.78
4471	9.5	6.75	0.	125.15
4472	9.25	7.	0.	125.4
4473	9.5	6.25	0.	125.72
4474	9.25	6.5	0.	125.97
4475	9.5	5.75	0.	126.11
4476	9.25	6.	0.	126.29
4477	9.5	5.25	0.	126.3
4478	9.25	5.5	0.	126.33
4479	9.5	4.75	0.	126.37
4480	9.5	4.25	0.	126.41
4481	9.5	3.75	0.	126.51
4482	9.5	3.25	0.	127.03
4483	9.5	2.75	0.	129.15
4484	9.5	2.25	0.	130.93
4485	9.5	1.75	0.	131.19
4486	9.5	1.25	0.	131.08
4487	9.5	0.75	0.	130.7
4488	9.5	0.25	0.	129.27
4489	9.5	-0.25	0.	129.2
4490	9.5	-0.75	0.	130.52
4491	9.5	-1.25	0.	130.81
4492	9.5	-1.75	0.	130.91
4493	9.5	-2.25	0.	130.75
4494	9.5	-2.75	0.	129.15
4495	9.5	-3.25	0.	127.39
4496	9.5	-3.75	0.	127.48
4497	9.5	-4.25	0.	128.31
4498	9.5	-4.75	0.	129.8
4499	9.5	-5.25	0.	132.86
4500	9.5	-5.75	0.	135.2
4501	9.25	-5.5	0.	130.59
4502	9.5	-6.25	0.	136.67
4503	9.5	-6.75	0.	138.69
4504	9.5	-7.25	0.	138.71
4505	9.5	-7.75	0.	136.81
4506	9.5	-8.25	0.	135.49
4507	9.5	-8.75	0.	133.36
4508	9.5	-9.25	0.	130.68
4509	9.25	-9.	0.	127.71
4510	9.25	-9.5	0.	126.79
4511	8.75	-9.5	0.	120.96
4512	9.	-9.25	0.	123.82
4513	8.25	-9.5	0.	117.29
4514	7.75	-9.5	0.	117.34
4515	7.25	-9.5	0.	120.92
4516	6.75	-9.5	0.	126.05
4517	6.25	-9.5	0.	130.36
4518	5.75	-9.5	0.	132.68
4519	6.	-9.25	0.	132.57
4520	5.25	-9.5	0.	133.02
4521	5.5	-9.25	0.	133.41
4522	4.75	-9.5	0.	131.45
4523	5.	-9.25	0.	133.09
4524	4.25	-9.5	0.	128.01
4525	3.75	-9.5	0.	123.68
4526	3.25	-9.5	0.	120.44
4527	2.75	-9.5	0.	119.88
4528	2.25	-9.5	0.	122.01
4529	1.75	-9.5	0.	125.31
4530	1.25	-9.5001	0.	127.88
4531	0.75002	-9.5001	0.	128.9
4532	0.25002	-9.5001	0.	128.72
4533	0.50003	-9.2502	0.	129.
4534	-0.24999	-9.5001	0.	127.89
4535	-0.75	-9.5001	0.	126.69
4536	-1.25	-9.5	0.	125.25
4537	-1.75	-9.5	0.	123.83
4538	-2.25	-9.5	0.	122.82
4539	-2.75	-9.5	0.	122.49
4540	-2.5	-9.25	0.	122.12
4541	-3.25	-9.5	0.	122.67
4542	-3.75	-9.5	0.	122.8
4543	-4.25	-9.5	0.	122.36
4544	-4.75	-9.5	0.	121.26
4545	-5.25	-9.5	0.	119.96
4546	-5.	-9.25	0.	120.69
4547	-5.75	-9.5	0.	119.23
4548	-5.5	-9.25	0.	119.12
4549	-6.25	-9.5	0.	119.64
4550	-6.	-9.25	0.	118.7
4551	-6.75	-9.5	0.	121.25
4552	-6.5	-9.25	0.	119.9
4553	-7.25	-9.5	0.	123.6
4554	-7.	-9.25	0.	122.35
4555	-7.75	-9.5	0.	126.05
4556	-7.5	-9.25	0.	125.18
4557	-8.25	-9.5	0.	128.15
4558	-8.75	-9.5	0.	129.81
4559	-9.25	-9.5	0.	131.23
4560	-9.5	-9.25	0.	131.87
4561	-9.5	-8.75	0.	131.67
4562	-9.5	-8.25	0.	131.3
4563	-9.25	-8.5	0.	131.26
4564	-9.5	-7.75	0.	130.69
4565	-9.5	-7.25	0.	129.89
4566	-9.5	-6.75	0.	129.08
4567	-9.5	-6.25	0.	128.5
4568	-9.5	-5.75	0.	128.32
4569	-9.5	-5.25	0.	128.52
4570	-9.5	-4.75	0.	128.91
4571	-9.5	-4.25	0.	129.24
4572	-9.5	-3.75	0.	129.33
4573	-9.5	-3.25	0.	129.16
4574	-9.5	-2.75	0.	128.82
4575	-9.5	-2.25	0.	128.42
4576	-9.5	-1.75	0.	128.05
4577	-9.5	-1.25	0.	127.77
4578	-9.5	-0.75	0.	127.61
4579	-9.5	-0.25	0.	127.57
4580	-9.5	0.25	0.	127.63
4581	-9.5	0.75	0.	127.73
4582	-9.5	1.25	0.	127.84
4583	-9.5	1.75	0.	127.91
4584	-9.5	2.25	0.	127.89
4585	-9.5	2.75	0.	127.76
4586	-9.5	3.25	0.	127.51
4587	-9.5	3.75	0.	127.14
4588	-9.5	4.25	0.	126.68
4589	-9.25	4.	0.	127.07
4590	-9.5	4.75	0.	126.18
4591	-9.5	5.25	0.	125.72
4592	-9.5	5.75	0.	125.34
4593	-9.5	6.25	0.	125.05
4594	-9.5	6.75	0.	124.81
4595	-9.25	6.5	0.	125.36
4596	-9.5	7.25	0.	124.6
4597	-9.5	7.75	0.	124.44
4598	-9.5	8.25	0.	124.39
4599	-9.5	8.75	0.	124.5
4600	-9.5	9.25	0.	124.75
4601	-9.25	9.5	0.	125.
4602	-8.75	9.5	0.	125.15
4603	-8.25	9.5	0.	125.23
4604	-7.75	9.5	0.	125.28
4605	-8.	9.25	0.	124.82
4606	-7.25	9.5	0.	125.56
4607	-6.75	9.5	0.	127.18
4608	-7.	9.25	0.	125.37
4609	-6.25	9.5	0.	127.31
4610	-5.75	9.5	0.	122.95
4611	-5.25	9.5	0.	120.41
4612	-4.75	9.5	0.	120.39
4613	-4.25	9.5	0.	122.89
4614	-3.75	9.5	0.	127.24
4615	-3.25	9.5	0.	127.13
4616	-2.75	9.5	0.	125.58
4617	-2.25	9.5	0.	125.45
4618	-1.75	9.5	0.	125.67
4619	-1.25	9.5	0.	126.18
4620	-0.75	9.5	0.	127.87
4621	-0.25	9.5	0.	127.87
4622	0.25	9.5	0.	122.77
4623	0.75	9.5	0.	119.38
4624	1.25	9.5	0.	119.48
4625	1.75	9.5	0.	123.15
4626	2.25	9.5	0.	128.43
4627	2.75	9.5	0.	128.48
4628	3.25	9.5	0.	126.9
4629	3.75	9.5	0.	126.55
4630	4.25	9.5	0.	126.49
4631	4.75	9.5	0.	126.74
4632	5.25	9.5	0.	128.16
4633	5.75	9.5	0.	127.32
4634	6.25	9.5	0.	120.1
4635	6.75	9.5	0.	119.89
4636	7.25	9.5	0.	126.92
4637	7.75	9.5	0.	127.68
4638	8.25	9.5	0.	126.03
4639	8.75	9.5	0.	125.45
4640	9.25	9.5	0.	125.03
4641	3.	-3.25	0.	126.32
4642	8.	6.25	0.	128.58
4643	-8.	-4.25	0.	132.75
4644	-6.75	-1.	0.	127.13
4645	9.	6.75	0.	126.22
4646	9.	6.25	0.	126.53
4647	2.75	5.5	0.	127.36
4648	5.75	-1.5	0.	133.08
4649	9.	5.75	0.	126.51
4650	-7.25	-9.	0.	123.93
4651	-6.75	-9.	0.	121.
4652	-5.75	-4.	0.	120.61
4653	3.25	5.5	0.	128.02
4654	-7.5	6.25	0.	128.71
4655	-3.	4.75	0.	132.35
4656	4.5	3.25	0.	127.66
4657	5.25	-7.	0.	129.74
4658	0.75	1.	0.	128.74
4659	-5.	1.25	0.	122.55
4660	-5.	1.75	0.	121.91
4661	-5.25	-4.	0.	122.9
4662	-4.75	-4.	0.	124.04
4663	-1.25	1.	0.	122.2
4664	-0.75	1.	0.	122.39
4665	-5.25	-9.	0.	119.85
4666	-5.75	-9.	0.	118.59
4667	5.25	-9.	0.	133.48
4668	5.75	-9.	0.	133.3
4669	-6.25	3.5	0.	124.89
4670	-6.5	3.75	0.	127.32
4671	8.	4.7501	0.	125.27
4672	4.75	7.	0.	127.73
4673	5.	-3.25	0.	126.5
4674	5.	-2.75	0.	125.92
4675	8.	7.25	0.	128.76
4676	8.	6.75	0.	129.11
4677	-7.25	6.5	0.	130.44
4678	2.	-4.7501	0.	123.44
4679	2.	-5.2501	0.	123.1
4680	-0.25	5.5	0.	123.41
4681	0.25	5.5	0.	122.78
4682	-3.5	-8.25	0.	125.56
4683	9.	7.25	0.	125.66
4684	8.	7.75	0.	128.56
4685	9.	7.75	0.	125.09
4686	0.75	2.5	0.	134.28
4687	0.75017	-6.5005	0.	127.11
4688	-4.75	2.	0.	121.01
4689	-0.5	5.75	0.	124.96
4690	4.5	3.75	0.	126.86
4691	0.5	5.25	0.	124.04
4692	4.5	-4.75	0.	127.89
4693	-6.25	-9.	0.	118.96
4694	7.	-4.75	0.	125.31
4695	-2.5	1.75	0.	127.16
4696	-5.	2.25	0.	121.21
4697	-2.	-5.	0.	95.279
4698	-3.	-5.	0.	94.507
4699	-2.	-7.	0.	94.282
4700	-3.	-7.	0.	94.136
4701	-2.5	-5.	0.	109.11
4702	-2.	-5.5	0.	98.518
4703	-2.	-6.	0.	97.052
4704	-2.	-6.5	0.	97.866
4705	-3.	-5.5	0.	98.15
4706	-3.	-6.	0.	96.744
4707	-3.	-6.5	0.	98.025
4708	-2.5	-7.	0.	108.09
4709	-2.5	-5.5	0.	102.68
4710	-2.5	-6.	0.	100.07
4711	-2.5	-6.5	0.	102.17
4712	-2.25	-5.	0.	102.14
4713	-2.	-5.25	0.	96.892
4714	-2.75	-5.	0.	101.75
4715	-3.	-5.25	0.	96.318
4716	-2.	-6.75	0.	96.071
4717	-2.25	-7.	0.	101.14
4718	-3.	-6.75	0.	96.073
4719	-2.75	-7.	0.	101.05
4720	-2.5	-5.25	0.	105.86
4721	-2.	-5.75	0.	97.755
4722	-2.25	-5.5	0.	100.55
4723	-2.	-6.25	0.	97.426
4724	-2.25	-6.	0.	98.561
4725	-2.25	-6.5	0.	99.97
4726	-3.	-5.75	0.	97.391
4727	-2.75	-5.5	0.	100.36
4728	-3.	-6.25	0.	97.332
4729	-2.75	-6.	0.	98.405
4730	-2.75	-6.5	0.	100.05
4731	-2.5	-6.75	0.	105.09
4732	-2.5	-5.75	0.	101.37
4733	-2.5	-6.25	0.	101.12
4734	9.	-6.	0.	100.2
4735	7.	-6.	0.	99.219
4736	9.	-8.	0.	100.15
4737	7.	-8.	0.	98.578
4738	8.5	-6.	0.	113.65
4739	8.	-6.	0.	111.04
4740	7.5	-6.	0.	113.5
4741	9.	-6.5	0.	104.8
4742	9.	-7.	0.	103.95
4743	9.	-7.5	0.	104.73
4744	7.	-6.5	0.	103.67
4745	7.	-7.	0.	102.18
4746	7.	-7.5	0.	103.2
4747	7.5	-8.	0.	112.79
4748	8.	-8.	0.	110.5
4749	8.5	-8.	0.	113.31
4750	8.	-6.5	0.	113.95
4751	8.5	-6.5	0.	111.94
4752	8.5	-7.5	0.	111.77
4753	8.	-7.5	0.	113.64
4754	7.5	-7.5	0.	110.73
4755	7.5	-6.5	0.	111.13
4756	7.5	-7.	0.	110.27
4757	8.5	-7.	0.	111.44
4758	8.	-7.	0.	113.83
4759	8.75	-6.	0.	106.86
4760	9.	-6.25	0.	102.5
4761	7.25	-6.	0.	106.29
4762	7.	-6.25	0.	101.43
4763	9.	-7.75	0.	102.44
4764	8.75	-8.	0.	106.67
4765	7.	-7.75	0.	100.87
4766	7.25	-8.	0.	105.62
4767	8.25	-6.	0.	112.35
4768	8.5	-6.25	0.	112.76
4769	7.75	-6.	0.	112.27
4770	8.	-6.25	0.	112.48
4771	7.5	-6.25	0.	112.29
4772	9.	-6.75	0.	104.36
4773	8.75	-6.5	0.	108.36
4774	9.	-7.25	0.	104.33
4775	8.75	-7.	0.	107.69
4776	8.75	-7.5	0.	108.24
4777	7.	-6.75	0.	102.89
4778	7.25	-6.5	0.	107.39
4779	7.	-7.25	0.	102.65
4780	7.25	-7.	0.	106.22
4781	7.25	-7.5	0.	106.95
4782	7.75	-8.	0.	111.64
4783	7.5	-7.75	0.	111.73
4784	8.25	-8.	0.	111.91
4785	8.	-7.75	0.	112.05
4786	8.5	-7.75	0.	112.5
4787	8.25	-6.5	0.	112.94
4788	7.75	-6.5	0.	112.53
4789	8.	-6.75	0.	113.89
4790	8.5	-6.75	0.	111.69
4791	8.25	-7.5	0.	112.7
4792	8.5	-7.25	0.	111.6
4793	7.75	-7.5	0.	112.18
4794	8.	-7.25	0.	113.73
4795	7.5	-7.25	0.	110.49
4796	7.5	-6.75	0.	110.69
4797	7.75	-7.	0.	112.05
4798	8.25	-7.	0.	112.63
4799	-5.	-5.	0.	96.673
4800	-7.	-5.	0.	99.724
4801	-5.	-7.	0.	96.777
4802	-7.	-7.	0.	98.296
4803	-5.5	-5.	0.	112.22
4804	-6.	-5.	0.	110.52
4805	-6.5	-5.	0.	113.46
4806	-5.	-5.5	0.	101.18
4807	-5.	-6.	0.	99.597
4808	-5.	-6.5	0.	100.76
4809	-7.	-5.5	0.	103.43
4810	-7.	-6.	0.	101.83
4811	-7.	-6.5	0.	102.72
4812	-6.5	-7.	0.	111.69
4813	-6.	-7.	0.	108.77
4814	-5.5	-7.	0.	110.81
4815	-6.	-6.	0.	111.59
4816	-6.	-5.5	0.	112.36
4817	-5.5	-5.5	0.	109.04
4818	-5.5	-6.	0.	107.82
4819	-5.5	-6.5	0.	108.38
4820	-6.	-6.5	0.	111.43
4821	-6.5	-6.5	0.	109.55
4822	-6.5	-6.	0.	109.19
4823	-6.5	-5.5	0.	110.45
4824	-5.25	-5.	0.	104.36
4825	-5.	-5.25	0.	98.895
4826	-6.75	-5.	0.	106.51
4827	-7.	-5.25	0.	101.57
4828	-5.	-6.75	0.	98.752
4829	-5.25	-7.	0.	103.73
4830	-7.	-6.75	0.	100.5
4831	-6.75	-7.	0.	104.93
4832	-5.75	-5.	0.	111.37
4833	-5.5	-5.25	0.	110.61
4834	-6.25	-5.	0.	111.99
4835	-6.	-5.25	0.	111.43
4836	-6.5	-5.25	0.	111.93
4837	-5.	-5.75	0.	100.34
4838	-5.25	-5.5	0.	105.09
4839	-5.	-6.25	0.	100.13
4840	-5.25	-6.	0.	103.7
4841	-5.25	-6.5	0.	104.55
4842	-7.	-5.75	0.	102.6
4843	-6.75	-5.5	0.	106.92
4844	-7.	-6.25	0.	102.25
4845	-6.75	-6.	0.	105.51
4846	-6.75	-6.5	0.	106.13
4847	-6.25	-7.	0.	110.23
4848	-6.5	-6.75	0.	110.59
4849	-5.75	-7.	0.	109.79
4850	-6.	-6.75	0.	110.08
4851	-5.5	-6.75	0.	109.57
4852	-6.	-5.75	0.	111.97
4853	-5.75	-6.	0.	109.7
4854	-6.	-6.25	0.	111.51
4855	-6.25	-6.	0.	110.39
4856	-5.75	-5.5	0.	110.68
4857	-6.25	-5.5	0.	111.39
4858	-5.5	-5.75	0.	108.41
4859	-5.5	-6.25	0.	108.08
4860	-5.75	-6.5	0.	109.9
4861	-6.25	-6.5	0.	110.49
4862	-6.5	-6.25	0.	109.37
4863	-6.5	-5.75	0.	109.81
4864	0.	4.	0.	99.303
4865	-2.	4.	0.	101.03
4866	0.	3.	0.	100.79
4867	-2.	3.	0.	99.612
4868	-0.5	4.	0.	116.76
4869	-1.	4.	0.	115.71
4870	-1.5	4.	0.	117.27
4871	0.	3.5	0.	105.07
4872	-2.	3.5	0.	105.31
4873	-1.5	3.	0.	116.8
4874	-1.	3.	0.	115.47
4875	-0.5	3.	0.	116.85
4876	-1.5	3.5	0.	115.81
4877	-1.	3.5	0.	118.85
4878	-0.5	3.5	0.	115.62
4879	-0.25	4.	0.	107.99
4880	0.	3.75	0.	102.16
4881	-1.75	4.	0.	109.11
4882	-2.	3.75	0.	103.15
4883	0.	3.25	0.	102.92
4884	-0.25	3.	0.	108.78
4885	-2.	3.25	0.	102.43
4886	-1.75	3.	0.	108.16
4887	-0.75	4.	0.	116.23
4888	-0.5	3.75	0.	116.17
4889	-1.25	4.	0.	116.49
4890	-1.	3.75	0.	117.28
4891	-1.5	3.75	0.	116.53
4892	-0.25	3.5	0.	110.33
4893	-1.75	3.5	0.	110.55
4894	-1.25	3.	0.	116.13
4895	-1.5	3.25	0.	116.29
4896	-0.75	3.	0.	116.16
4897	-1.	3.25	0.	117.16
4898	-0.5	3.25	0.	116.22
4899	-1.25	3.5	0.	117.33
4900	-0.75	3.5	0.	117.24
4901	-1.	-1.	0.	98.937
4902	-2.	-1.	0.	100.21
4903	-1.	-3.	0.	99.179
4904	-2.	-3.	0.	96.971
4905	-1.5	-1.	0.	113.48
4906	-1.	-1.5	0.	103.94
4907	-1.	-2.	0.	101.9
4908	-1.	-2.5	0.	101.92
4909	-2.	-1.5	0.	104.63
4910	-2.	-2.	0.	101.94
4911	-2.	-2.5	0.	100.89
4912	-1.5	-3.	0.	112.
4913	-1.5	-1.5	0.	108.44
4914	-1.5	-2.	0.	104.74
4915	-1.5	-2.5	0.	105.56
4916	-1.25	-1.	0.	106.17
4917	-1.	-1.25	0.	101.43
4918	-1.75	-1.	0.	106.82
4919	-2.	-1.25	0.	102.41
4920	-1.	-2.75	0.	100.54
4921	-1.25	-3.	0.	105.53
4922	-2.	-2.75	0.	98.918
4923	-1.75	-3.	0.	104.43
4924	-1.5	-1.25	0.	110.92
4925	-1.	-1.75	0.	102.89
4926	-1.25	-1.5	0.	106.15
4927	-1.	-2.25	0.	101.84
4928	-1.25	-2.	0.	103.32
4929	-1.25	-2.5	0.	103.69
4930	-2.	-1.75	0.	103.28
4931	-1.75	-1.5	0.	106.49
4932	-2.	-2.25	0.	101.36
4933	-1.75	-2.	0.	103.34
4934	-1.75	-2.5	0.	103.18
4935	-1.5	-2.75	0.	108.75
4936	-1.5	-1.75	0.	106.58
4937	-1.5	-2.25	0.	105.15
4938	-4.	9.	0.	98.398
4939	-6.	9.	0.	98.742
4940	-4.	8.	0.	98.966
4941	-6.	8.	0.	99.78
4942	-4.5	9.	0.	117.9
4943	-5.	9.	0.	117.29
4944	-5.5	9.	0.	118.07
4945	-4.	8.5	0.	103.76
4946	-6.	8.5	0.	104.28
4947	-5.5	8.	0.	115.56
4948	-5.	8.	0.	114.18
4949	-4.5	8.	0.	115.21
4950	-5.5	8.5	0.	115.52
4951	-5.	8.5	0.	118.99
4952	-4.5	8.5	0.	115.18
4953	-4.25	9.	0.	108.07
4954	-4.	8.75	0.	101.05
4955	-5.75	9.	0.	108.33
4956	-6.	8.75	0.	101.49
4957	-4.	8.25	0.	101.33
4958	-4.25	8.	0.	107.07
4959	-6.	8.25	0.	102.01
4960	-5.75	8.	0.	107.65
4961	-4.75	9.	0.	117.59
4962	-4.5	8.75	0.	116.51
4963	-5.25	9.	0.	117.68
4964	-5.	8.75	0.	118.13
4965	-5.5	8.75	0.	116.77
4966	-4.25	8.5	0.	109.45
4967	-5.75	8.5	0.	109.89
4968	-5.25	8.	0.	114.85
4969	-5.5	8.25	0.	115.53
4970	-4.75	8.	0.	114.68
4971	-5.	8.25	0.	116.58
4972	-4.5	8.25	0.	115.18
4973	-5.25	8.5	0.	117.24
4974	-4.75	8.5	0.	117.07
4975	-3.	-2.	0.	99.316
4976	-5.	-2.	0.	96.824
4977	-3.	-3.	0.	98.891
4978	-5.	-3.	0.	95.967
4979	-3.5	-2.	0.	110.95
4980	-4.	-2.	0.	108.14
4981	-4.5	-2.	0.	109.75
4982	-3.	-2.5	0.	103.72
4983	-5.	-2.5	0.	100.9
4984	-4.5	-3.	0.	113.15
4985	-4.	-3.	0.	112.1
4986	-3.5	-3.	0.	114.34
4987	-4.5	-2.5	0.	110.05
4988	-4.	-2.5	0.	112.96
4989	-3.5	-2.5	0.	111.17
4990	-3.25	-2.	0.	105.11
4991	-3.	-2.25	0.	101.5
4992	-4.75	-2.	0.	103.27
4993	-5.	-2.25	0.	98.848
4994	-3.	-2.75	0.	101.27
4995	-3.25	-3.	0.	106.56
4996	-5.	-2.75	0.	98.403
4997	-4.75	-3.	0.	104.48
4998	-3.75	-2.	0.	109.52
4999	-3.5	-2.25	0.	111.05
5000	-4.25	-2.	0.	108.92
5001	-4.	-2.25	0.	110.54
5002	-4.5	-2.25	0.	109.89
5003	-3.25	-2.5	0.	107.43
5004	-4.75	-2.5	0.	105.46
5005	-4.25	-3.	0.	112.63
5006	-4.5	-2.75	0.	111.58
5007	-3.75	-3.	0.	113.22
5008	-4.	-2.75	0.	112.53
5009	-3.5	-2.75	0.	112.75
5010	-4.25	-2.5	0.	111.49
5011	-3.75	-2.5	0.	112.05
5012	-3.	0.	0.	98.972
5013	-5.	0.	0.	97.048
5014	-3.	-1.	0.	100.17
5015	-5.	-1.	0.	96.716
5016	-3.5	0.	0.	114.15
5017	-4.	0.	0.	111.5
5018	-4.5	0.	0.	112.75
5019	-3.	-0.5	0.	104.45
5020	-5.	-0.5	0.	101.59
5021	-4.5	-1.	0.	110.06
5022	-4.	-1.	0.	108.59
5023	-3.5	-1.	0.	111.68
5024	-4.5	-0.5	0.	110.31
5025	-4.	-0.5	0.	113.26
5026	-3.5	-0.5	0.	112.11
5027	-3.25	0.	0.	106.5
5028	-3.	-0.25	0.	101.7
5029	-4.75	0.	0.	104.84
5030	-5.	-0.25	0.	99.302
5031	-3.	-0.75	0.	102.3
5032	-3.25	-1.	0.	105.9
5033	-5.	-0.75	0.	99.139
5034	-4.75	-1.	0.	103.37
5035	-3.75	0.	0.	112.82
5036	-3.5	-0.25	0.	113.1
5037	-4.25	0.	0.	112.12
5038	-4.	-0.25	0.	112.37
5039	-4.5	-0.25	0.	111.51
5040	-3.25	-0.5	0.	108.28
5041	-4.75	-0.5	0.	105.94
5042	-4.25	-1.	0.	109.3
5043	-4.5	-0.75	0.	110.17
5044	-3.75	-1.	0.	110.11
5045	-4.	-0.75	0.	110.91
5046	-3.5	-0.75	0.	111.87
5047	-4.25	-0.5	0.	111.78
5048	-3.75	-0.5	0.	112.68
5049	7.	9.	0.	97.735
5050	6.	9.	0.	97.402
5051	7.	7.	0.	96.336
5052	6.	7.	0.	95.896
5053	6.5	9.	0.	113.24
5054	7.	8.5	0.	101.59
5055	7.	8.	0.	99.929
5056	7.	7.5	0.	100.47
5057	6.	8.5	0.	101.35
5058	6.	8.	0.	99.54
5059	6.	7.5	0.	100.2
5060	6.5	7.	0.	110.31
5061	6.5	8.5	0.	106.47
5062	6.5	8.	0.	103.45
5063	6.5	7.5	0.	105.1
5064	6.75	9.	0.	105.41
5065	7.	8.75	0.	99.662
5066	6.25	9.	0.	105.24
5067	6.	8.75	0.	99.37
5068	7.	7.25	0.	98.4
5069	6.75	7.	0.	103.28
5070	6.	7.25	0.	98.045
5071	6.25	7.	0.	103.05
5072	6.5	8.75	0.	109.8
5073	7.	8.25	0.	100.72
5074	6.75	8.5	0.	103.96
5075	7.	7.75	0.	100.16
5076	6.75	8.	0.	101.69
5077	6.75	7.5	0.	102.74
5078	6.	8.25	0.	100.39
5079	6.25	8.5	0.	103.83
5080	6.	7.75	0.	99.817
5081	6.25	8.	0.	101.49
5082	6.25	7.5	0.	102.61
5083	6.5	7.25	0.	107.66
5084	6.5	8.25	0.	104.96
5085	6.5	7.75	0.	104.27
5086	4.	-7.	0.	99.394
5087	2.	-7.	0.	98.129
5088	4.	-8.	0.	99.547
5089	2.	-8.	0.	98.562
5090	3.5	-7.	0.	115.61
5091	3.	-7.	0.	113.83
5092	2.5	-7.	0.	114.91
5093	4.	-7.5	0.	104.39
5094	2.	-7.5	0.	103.19
5095	2.5	-8.	0.	115.06
5096	3.	-8.	0.	113.92
5097	3.5	-8.	0.	115.8
5098	2.5	-7.5	0.	113.56
5099	3.	-7.5	0.	116.98
5100	3.5	-7.5	0.	114.21
5101	3.75	-7.	0.	107.46
5102	4.	-7.25	0.	101.87
5103	2.25	-7.	0.	106.48
5104	2.	-7.25	0.	100.64
5105	4.	-7.75	0.	101.94
5106	3.75	-8.	0.	107.63
5107	2.	-7.75	0.	100.86
5108	2.25	-8.	0.	106.77
5109	3.25	-7.	0.	114.72
5110	3.5	-7.25	0.	114.89
5111	2.75	-7.	0.	114.37
5112	3.	-7.25	0.	115.4
5113	2.5	-7.25	0.	114.22
5114	3.75	-7.5	0.	109.28
5115	2.25	-7.5	0.	108.36
5116	2.75	-8.	0.	114.49
5117	2.5	-7.75	0.	114.29
5118	3.25	-8.	0.	114.86
5119	3.	-7.75	0.	115.44
5120	3.5	-7.75	0.	114.99
5121	2.75	-7.5	0.	115.27
5122	3.25	-7.5	0.	115.59
5123	9.	-1.	0.	97.696
5124	8.	-1.	0.	97.377
5125	9.	-2.	0.	98.538
5126	8.	-2.	0.	97.662
5127	8.5	-1.	0.	112.32
5128	9.	-1.5	0.	103.31
5129	8.	-1.5	0.	102.93
5130	8.5	-2.	0.	113.4
5131	8.5	-1.5	0.	110.54
5132	8.75	-1.	0.	105.
5133	9.	-1.25	0.	100.5
5134	8.25	-1.	0.	104.84
5135	8.	-1.25	0.	100.14
5136	9.	-1.75	0.	100.92
5137	8.75	-2.	0.	105.95
5138	8.	-1.75	0.	100.28
5139	8.25	-2.	0.	105.51
5140	8.5	-1.25	0.	111.38
5141	8.75	-1.5	0.	106.91
5142	8.25	-1.5	0.	106.71
5143	8.5	-1.75	0.	111.93
5144	9.	2.	0.	98.876
5145	8.	2.	0.	98.242
5146	9.	1.	0.	97.904
5147	8.	1.	0.	97.87
5148	8.5	2.	0.	113.98
5149	9.	1.5	0.	103.65
5150	8.	1.5	0.	103.44
5151	8.5	1.	0.	112.68
5152	8.5	1.5	0.	111.04
5153	8.75	2.	0.	106.41
5154	9.	1.75	0.	101.26
5155	8.25	2.	0.	106.09
5156	8.	1.75	0.	100.83
5157	9.	1.25	0.	100.77
5158	8.75	1.	0.	105.28
5159	8.	1.25	0.	100.65
5160	8.25	1.	0.	105.27
5161	8.5	1.75	0.	112.46
5162	8.75	1.5	0.	107.33
5163	8.25	1.5	0.	107.21
5164	8.5	1.25	0.	111.81
5165	-4.	6.	0.	99.301
5166	-6.	6.	0.	98.372
5167	-4.	5.	0.	98.964
5168	-6.	5.	0.	98.489
5169	-4.5	6.	0.	114.13
5170	-5.	6.	0.	112.24
5171	-5.5	6.	0.	113.89
5172	-4.	5.5	0.	103.99
5173	-6.	5.5	0.	103.22
5174	-5.5	5.	0.	114.4
5175	-5.	5.	0.	112.96
5176	-4.5	5.	0.	114.82
5177	-5.5	5.5	0.	112.92
5178	-5.	5.5	0.	115.86
5179	-4.5	5.5	0.	113.35
5180	-4.25	6.	0.	106.69
5181	-4.	5.75	0.	101.63
5182	-5.75	6.	0.	106.09
5183	-6.	5.75	0.	100.78
5184	-4.	5.25	0.	101.46
5185	-4.25	5.	0.	106.84
5186	-6.	5.25	0.	100.84
5187	-5.75	5.	0.	106.4
5188	-4.75	6.	0.	113.17
5189	-4.5	5.75	0.	113.72
5190	-5.25	6.	0.	113.05
5191	-5.	5.75	0.	114.04
5192	-5.5	5.75	0.	113.39
5193	-4.25	5.5	0.	108.66
5194	-5.75	5.5	0.	108.06
5195	-5.25	5.	0.	113.68
5196	-5.5	5.25	0.	113.64
5197	-4.75	5.	0.	113.89
5198	-5.	5.25	0.	114.4
5199	-4.5	5.25	0.	114.06
5200	-5.25	5.5	0.	114.39
5201	-4.75	5.5	0.	114.6
5202	2.	-2.	0.	100.75
5203	0.	-2.	0.	103.42
5204	2.	-3.	0.	100.14
5205	0.	-3.	0.	103.72
5206	1.5	-2.	0.	118.15
5207	1.	-2.	0.	116.99
5208	0.5	-2.	0.	119.08
5209	2.	-2.5	0.	105.28
5210	0.	-2.5	0.	108.51
5211	0.5	-3.	0.	119.83
5212	1.	-3.	0.	117.32
5213	1.5	-3.	0.	117.64
5214	0.5	-2.5	0.	117.94
5215	1.	-2.5	0.	120.37
5216	1.5	-2.5	0.	116.53
5217	1.75	-2.	0.	109.39
5218	2.	-2.25	0.	102.99
5219	0.25	-2.	0.	111.21
5220	0.	-2.25	0.	105.94
5221	2.	-2.75	0.	102.69
5222	1.75	-3.	0.	108.86
5223	0.	-2.75	0.	106.08
5224	0.25	-3.	0.	111.73
5225	1.25	-2.	0.	117.57
5226	1.5	-2.25	0.	117.32
5227	0.75	-2.	0.	118.03
5228	1.	-2.25	0.	118.67
5229	0.5	-2.25	0.	118.49
5230	1.75	-2.5	0.	110.9
5231	0.25	-2.5	0.	113.21
5232	0.75	-3.	0.	118.57
5233	0.5	-2.75	0.	118.87
5234	1.25	-3.	0.	117.48
5235	1.	-2.75	0.	118.84
5236	1.5	-2.75	0.	117.07
5237	0.75	-2.5	0.	119.15
5238	1.25	-2.5	0.	118.45
5239	4.	2.	0.	97.179
5240	2.	2.	0.	101.19
5241	4.	1.	0.	95.24
5242	2.	1.	0.	102.5
5243	3.5	2.	0.	114.22
5244	3.	2.	0.	114.21
5245	2.5	2.	0.	117.02
5246	4.	1.5	0.	101.15
5247	2.	1.5	0.	106.96
5248	2.5	1.	0.	119.21
5249	3.	1.	0.	114.98
5250	3.5	1.	0.	112.74
5251	2.5	1.5	0.	116.65
5252	3.	1.5	0.	117.69
5253	3.5	1.5	0.	112.27
5254	3.75	2.	0.	105.64
5255	4.	1.75	0.	99.14
5256	2.25	2.	0.	109.07
5257	2.	1.75	0.	104.06
5258	4.	1.25	0.	98.168
5259	3.75	1.	0.	103.98
5260	2.	1.25	0.	104.71
5261	2.25	1.	0.	110.79
5262	3.25	2.	0.	114.21
5263	3.5	1.75	0.	113.23
5264	2.75	2.	0.	115.61
5265	3.	1.75	0.	115.94
5266	2.5	1.75	0.	116.81
5267	3.75	1.5	0.	106.69
5268	2.25	1.5	0.	111.8
5269	2.75	1.	0.	117.1
5270	2.5	1.25	0.	117.91
5271	3.25	1.	0.	113.85
5272	3.	1.25	0.	116.33
5273	3.5	1.25	0.	112.49
5274	2.75	1.5	0.	117.17
5275	3.25	1.5	0.	114.98
5276	5.	0.	0.	103.54
5277	3.	0.	0.	95.659
5278	5.	-1.	0.	101.12
5279	3.	-1.	0.	99.133
5280	4.5	0.	0.	119.98
5281	4.	0.	0.	115.69
5282	3.5	0.	0.	113.37
5283	5.	-0.5	0.	107.56
5284	3.	-0.5	0.	102.22
5285	3.5	-1.	0.	115.76
5286	4.	-1.	0.	115.23
5287	4.5	-1.	0.	117.8
5288	3.5	-0.5	0.	113.47
5289	4.	-0.5	0.	118.65
5290	4.5	-0.5	0.	117.35
5291	4.75	0.	0.	111.7
5292	5.	-0.25	0.	105.52
5293	3.25	0.	0.	104.5
5294	3.	-0.25	0.	98.919
5295	5.	-0.75	0.	104.31
5296	4.75	-1.	0.	109.42
5297	3.	-0.75	0.	100.66
5298	3.25	-1.	0.	107.37
5299	4.25	0.	0.	117.84
5300	4.5	-0.25	0.	118.65
5301	3.75	0.	0.	114.52
5302	4.	-0.25	0.	117.17
5303	3.5	-0.25	0.	113.41
5304	4.75	-0.5	0.	112.44
5305	3.25	-0.5	0.	107.83
5306	3.75	-1.	0.	115.5
5307	3.5	-0.75	0.	114.6
5308	4.25	-1.	0.	116.51
5309	4.	-0.75	0.	116.93
5310	4.5	-0.75	0.	117.55
5311	3.75	-0.5	0.	116.06
5312	4.25	-0.5	0.	118.
5313	2.	9.	0.	98.764
5314	0.	9.	0.	98.632
5315	2.	7.	0.	99.047
5316	0.	7.	0.	98.026
5317	1.5	9.	0.	116.73
5318	1.	9.	0.	115.21
5319	0.5	9.	0.	116.55
5320	2.	8.5	0.	103.96
5321	2.	8.	0.	102.2
5322	2.	7.5	0.	103.01
5323	0.	8.5	0.	103.55
5324	0.	8.	0.	101.79
5325	0.	7.5	0.	102.54
5326	0.5	7.	0.	113.12
5327	1.	7.	0.	111.26
5328	1.5	7.	0.	113.52
5329	1.5	8.	0.	111.39
5330	1.5	7.5	0.	111.47
5331	0.5	7.5	0.	111.13
5332	0.5	8.	0.	111.13
5333	0.5	8.5	0.	112.92
5334	1.5	8.5	0.	113.14
5335	1.	8.5	0.	116.58
5336	1.	7.5	0.	114.24
5337	1.	8.	0.	114.98
5338	1.75	9.	0.	107.62
5339	2.	8.75	0.	101.34
5340	0.25	9.	0.	107.48
5341	0.	8.75	0.	101.07
5342	2.	7.25	0.	101.01
5343	1.75	7.	0.	106.23
5344	0.	7.25	0.	100.27
5345	0.25	7.	0.	105.52
5346	1.25	9.	0.	115.95
5347	1.5	8.75	0.	114.89
5348	0.75	9.	0.	115.86
5349	1.	8.75	0.	115.87
5350	0.5	8.75	0.	114.69
5351	2.	8.25	0.	103.03
5352	1.75	8.5	0.	108.51
5353	2.	7.75	0.	102.56
5354	1.75	8.	0.	106.78
5355	1.75	7.5	0.	107.23
5356	0.	8.25	0.	102.62
5357	0.25	8.5	0.	108.2
5358	0.	7.75	0.	102.12
5359	0.25	8.	0.	106.45
5360	0.25	7.5	0.	106.82
5361	0.75	7.	0.	112.19
5362	0.5	7.25	0.	112.1
5363	1.25	7.	0.	112.39
5364	1.	7.25	0.	112.74
5365	1.5	7.25	0.	112.48
5366	1.5	7.75	0.	111.42
5367	1.5	8.25	0.	112.25
5368	1.25	8.	0.	113.18
5369	1.25	7.5	0.	112.85
5370	0.5	7.75	0.	111.11
5371	0.75	7.5	0.	112.69
5372	0.5	8.25	0.	112.01
5373	0.75	8.	0.	113.05
5374	0.75	8.5	0.	114.71
5375	1.25	8.5	0.	114.82
5376	1.	8.25	0.	115.78
5377	1.	7.75	0.	114.61
