Node Number	X Location (mm)	Y Location (mm)	Z Location (mm)	Equivalent (von-Mises) Stress (MPa)
1	1.	-4.	0.	133.72
2	1.	-6.	0.	133.88
3	3.	-4.	0.	133.81
4	3.	-6.	0.	133.43
5	-3.	-4.	0.	132.55
6	-3.	-5.	0.	132.29
7	-2.	-4.	0.	132.96
8	-2.	-5.	0.	132.38
9	-8.	8.	0.	134.12
10	-8.	7.	0.	133.45
11	-7.	8.	0.	133.86
12	-7.	7.	0.	133.45
13	10.	10.	0.	125.
14	-10.	10.	0.	125.01
15	10.	-10.	0.	127.14
16	-10.	-10.	0.	125.92
17	1.	-4.5	0.	142.01
18	1.	-5.	0.	143.18
19	1.	-5.5	0.	142.23
20	1.5	-4.	0.	112.11
21	2.	-4.	0.	116.4
22	2.5	-4.	0.	112.16
23	1.5	-6.	0.	112.1
24	2.	-6.	0.	116.33
25	2.5	-6.	0.	112.1
26	3.	-4.5	0.	142.27
27	3.	-5.	0.	143.34
28	3.	-5.5	0.	142.17
29	-3.	-4.5	0.	141.77
30	-2.5	-4.	0.	110.29
31	-2.5	-5.	0.	109.91
32	-2.	-4.5	0.	141.58
33	-8.	7.5	0.	143.22
34	-7.5	8.	0.	111.74
35	-7.5	7.	0.	111.32
36	-7.	7.5	0.	142.81
37	9.5	10.	0.	125.
38	9.	10.	0.	125.
39	8.5	10.	0.	125.
40	8.	10.	0.	124.99
41	7.5	10.	0.	124.97
42	7.	10.	0.	124.94
43	6.5	10.	0.	124.92
44	6.	10.	0.	124.89
45	5.5	10.	0.	124.86
46	5.	10.	0.	124.83
47	4.5	10.	0.	124.8
48	4.	10.	0.	124.77
49	3.5	10.	0.	124.74
50	3.	10.	0.	124.73
51	2.5	10.	0.	124.71
52	2.	10.	0.	124.7
53	1.5	10.	0.	124.7
54	1.	10.	0.	124.71
55	0.5	10.	0.	124.72
56	-5.2042e-015	10.	0.	124.74
57	-0.5	10.	0.	124.78
58	-1.	10.	0.	124.82
59	-1.5	10.	0.	124.88
60	-2.	10.	0.	124.96
61	-2.5	10.	0.	125.05
62	-3.	10.	0.	125.18
63	-3.5	10.	0.	125.33
64	-4.	10.	0.	125.51
65	-4.5	10.	0.	125.7
66	-5.	10.	0.	125.84
67	-5.5	10.	0.	125.77
68	-6.	10.	0.	125.26
69	-6.5	10.	0.	124.2
70	-7.	10.	0.	122.99
71	-7.5	10.	0.	122.41
72	-8.	10.	0.	122.8
73	-8.5	10.	0.	123.81
74	-9.	10.	0.	124.65
75	-9.5	10.	0.	124.99
76	10.	9.5	0.	124.99
77	10.	9.	0.	124.99
78	10.	8.5	0.	125.
79	10.	8.	0.	125.02
80	10.	7.5	0.	125.06
81	10.	7.	0.	125.11
82	10.	6.5	0.	125.17
83	10.	6.	0.	125.24
84	10.	5.5	0.	125.32
85	10.	5.	0.	125.4
86	10.	4.5	0.	125.49
87	10.	4.	0.	125.58
88	10.	3.5	0.	125.68
89	10.	3.	0.	125.77
90	10.	2.5	0.	125.86
91	10.	2.	0.	125.94
92	10.	1.5	0.	126.01
93	10.	1.	0.	126.07
94	10.	0.5	0.	126.1
95	10.	-5.2042e-015	0.	126.1
96	10.	-0.5	0.	126.07
97	10.	-1.	0.	126.
98	10.	-1.5	0.	125.9
99	10.	-2.	0.	125.77
100	10.	-2.5	0.	125.62
101	10.	-3.	0.	125.47
102	10.	-3.5	0.	125.34
103	10.	-4.	0.	125.25
104	10.	-4.5	0.	125.22
105	10.	-5.	0.	125.26
106	10.	-5.5	0.	125.37
107	10.	-6.	0.	125.56
108	10.	-6.5	0.	125.79
109	10.	-7.	0.	126.06
110	10.	-7.5	0.	126.34
111	10.	-8.	0.	126.6
112	10.	-8.5	0.	126.83
113	10.	-9.	0.	127.
114	10.	-9.5	0.	127.11
115	-10.	9.5	0.	124.97
116	-10.	9.	0.	124.95
117	-10.	8.5	0.	124.44
118	-10.	8.	0.	123.56
119	-10.	7.5	0.	123.31
120	-10.	7.	0.	124.44
121	-10.	6.5	0.	126.15
122	-10.	6.	0.	127.32
123	-10.	5.5	0.	127.59
124	-10.	5.	0.	127.3
125	-10.	4.5	0.	126.84
126	-10.	4.	0.	126.43
127	-10.	3.5	0.	126.12
128	-10.	3.	0.	125.91
129	-10.	2.5	0.	125.78
130	-10.	2.	0.	125.69
131	-10.	1.5	0.	125.64
132	-10.	1.	0.	125.6
133	-10.	0.5	0.	125.56
134	-10.	-5.2042e-015	0.	125.51
135	-10.	-0.5	0.	125.46
136	-10.	-1.	0.	125.39
137	-10.	-1.5	0.	125.31
138	-10.	-2.	0.	125.23
139	-10.	-2.5	0.	125.14
140	-10.	-3.	0.	125.06
141	-10.	-3.5	0.	125.
142	-10.	-4.	0.	124.97
143	-10.	-4.5	0.	124.98
144	-10.	-5.	0.	125.02
145	-10.	-5.5	0.	125.09
146	-10.	-6.	0.	125.2
147	-10.	-6.5	0.	125.32
148	-10.	-7.	0.	125.45
149	-10.	-7.5	0.	125.58
150	-10.	-8.	0.	125.69
151	-10.	-8.5	0.	125.79
152	-10.	-9.	0.	125.86
153	-10.	-9.5	0.	125.91
154	-9.5	-10.	0.	125.85
155	-9.	-10.	0.	125.83
156	-8.5	-10.	0.	125.85
157	-8.	-10.	0.	125.9
158	-7.5	-10.	0.	125.96
159	-7.	-10.	0.	126.01
160	-6.5	-10.	0.	126.05
161	-6.	-10.	0.	126.07
162	-5.5	-10.	0.	126.05
163	-5.	-10.	0.	126.
164	-4.5	-10.	0.	125.91
165	-4.	-10.	0.	125.8
166	-3.5	-10.	0.	125.69
167	-3.	-10.	0.	125.6
168	-2.5	-10.	0.	125.54
169	-2.	-10.	0.	125.46
170	-1.5	-10.	0.	125.3
171	-1.	-10.	0.	125.
172	-0.5	-10.	0.	124.47
173	5.2042e-015	-10.	0.	123.7
174	0.5	-10.	0.	122.78
175	1.	-10.	0.	121.87
176	1.5	-10.	0.	121.21
177	2.	-10.	0.	120.98
178	2.5	-10.	0.	121.29
179	3.	-10.	0.	122.05
180	3.5	-10.	0.	123.09
181	4.	-10.	0.	124.18
182	4.5	-10.	0.	125.15
183	5.	-10.	0.	125.9
184	5.5	-10.	0.	126.41
185	6.	-10.	0.	126.71
186	6.5	-10.	0.	126.85
187	7.	-10.	0.	126.88
188	7.5	-10.	0.	126.85
189	8.	-10.	0.	126.8
190	8.5	-10.	0.	126.78
191	9.	-10.	0.	126.8
192	9.5	-10.	0.	126.91
193	-0.49981	2.4998	0.	124.45
194	2.5002	2.4998	0.	124.13
195	1.5003	2.4994	0.	124.08
196	2.183e-004	2.4996	0.	124.33
197	-0.99976	2.4998	0.	124.58
198	-2.4995	2.4994	0.	124.95
199	-2.4993	2.9992	0.	124.95
200	2.0002	1.9997	0.	123.95
201	-0.49989	1.9998	0.	124.44
202	3.0001	2.4999	0.	124.23
203	2.5001	1.9998	0.	124.01
204	1.0003	2.4994	0.	124.13
205	0.50026	2.4994	0.	124.21
206	-1.4997	2.4997	0.	124.71
207	-1.9996	2.4996	0.	124.84
208	-1.4995	2.9996	0.	124.71
209	-0.9996	2.9997	0.	124.59
210	-0.49965	2.9996	0.	124.48
211	0.5004	2.9992	0.	124.28
212	1.5004	2.9993	0.	124.18
213	2.5003	2.9997	0.	124.23
214	3.0002	2.9998	0.	124.31
215	-2.9993	2.9991	0.	125.07
216	1.5002	1.9996	0.	123.96
217	1.2479e-004	1.9997	0.	124.28
218	-0.99986	1.9999	0.	124.58
219	3.0001	1.9999	0.	124.13
220	2.0001	1.4998	0.	123.79
221	-2.9997	1.9996	0.	125.06
222	-0.49994	1.4999	0.	124.43
223	3.0002	3.4998	0.	124.39
224	-3.4993	3.499	0.	125.2
225	1.0002	1.9996	0.	124.03
226	0.50016	1.9996	0.	124.14
227	-1.9998	1.9997	0.	124.84
228	-2.4991	3.499	0.	124.96
229	-1.4993	3.4995	0.	124.71
230	-0.99945	3.4996	0.	124.6
231	-0.4995	3.4995	0.	124.5
232	0.50054	3.499	0.	124.34
233	1.0006	3.499	0.	124.29
234	1.5005	3.4991	0.	124.27
235	2.0004	3.4994	0.	124.28
236	2.5003	3.4996	0.	124.32
237	3.5001	2.9999	0.	124.43
238	3.5001	2.4999	0.	124.37
239	-3.4994	2.9992	0.	125.17
240	1.5001	1.4997	0.	123.81
241	6.5841e-005	1.4998	0.	124.25
242	3.5001	2.	0.	124.31
243	2.5001	1.4999	0.	123.86
244	-3.4998	1.9997	0.	125.15
245	-0.99993	1.4999	0.	124.6
246	-2.4999	1.4998	0.	124.97
247	3.5002	3.4999	0.	124.48
248	2.0001	0.99989	0.	123.58
249	-0.49997	0.99993	0.	124.46
250	-3.9995	3.4992	0.	125.29
251	-3.4991	3.9987	0.	125.22
252	1.0001	1.4997	0.	123.91
253	0.50009	1.4998	0.	124.07
254	3.0001	1.4999	0.	124.01
255	-2.9999	1.4997	0.	125.07
256	-3.4999	1.4998	0.	125.16
257	-1.9999	1.4998	0.	124.86
258	-2.499	3.9989	0.	124.95
259	-1.4992	3.9994	0.	124.71
260	-0.99937	3.9995	0.	124.61
261	-0.49942	3.9994	0.	124.52
262	0.50061	3.9989	0.	124.39
263	1.0006	3.9989	0.	124.35
264	1.5005	3.999	0.	124.34
265	2.5003	3.9996	0.	124.39
266	3.5002	3.9999	0.	124.53
267	4.0001	3.4999	0.	124.59
268	4.0001	3.	0.	124.56
269	4.0001	2.5	0.	124.53
270	4.	1.5	0.	124.49
271	-3.9999	1.4999	0.	125.24
272	-3.9998	1.9998	0.	125.22
273	-3.9996	2.9994	0.	125.25
274	1.5001	0.99983	0.	123.62
275	3.1776e-005	0.99989	0.	124.24
276	2.5	0.99993	0.	123.67
277	-0.99997	0.99994	0.	124.64
278	-2.4999	0.99984	0.	124.98
279	4.	0.99999	0.	124.48
280	-4.	0.99992	0.	125.27
281	2.	0.49993	0.	123.31
282	-0.49999	0.49996	0.	124.54
283	4.0001	4.5	0.	124.65
284	-4.4996	3.4995	0.	125.34
285	-3.9994	3.9991	0.	125.35
286	-3.4991	4.4986	0.	125.24
287	1.0001	0.99982	0.	123.77
288	0.50005	0.99985	0.	123.99
289	3.	0.99996	0.	123.87
290	-3.4999	0.99987	0.	125.17
291	-1.5	0.99993	0.	124.78
292	-1.9999	0.99989	0.	124.88
293	-2.9991	4.4986	0.	125.08
294	-2.4991	4.4988	0.	124.93
295	-1.4993	4.4994	0.	124.7
296	-0.49942	4.4993	0.	124.54
297	0.50057	4.4989	0.	124.44
298	2.5003	4.4996	0.	124.45
299	3.5001	4.4999	0.	124.57
300	4.5001	3.5	0.	124.71
301	4.5	3.	0.	124.71
302	4.5	2.5	0.	124.71
303	4.5	1.5	0.	124.75
304	4.5	1.	0.	124.8
305	4.5	0.5	0.	124.9
306	-4.5	0.49998	0.	125.4
307	-4.5	0.99996	0.	125.34
308	-4.4999	1.4999	0.	125.3
309	-4.4999	1.9999	0.	125.27
310	-4.4997	2.9997	0.	125.29
311	1.5	0.49989	0.	123.39
312	1.3605e-005	0.49994	0.	124.26
313	4.	0.49999	0.	124.5
314	2.5	0.49996	0.	123.42
315	-4.	0.49995	0.	125.3
316	-0.99998	0.49996	0.	124.73
317	-2.5	0.4999	0.	124.99
318	4.5	4.5	0.	124.74
319	4.5	-1.3892e-006	0.	125.04
320	2.	-4.3e-005	0.	122.95
321	-4.5	-1.1715e-005	0.	125.48
322	-0.5	-2.4037e-005	0.	124.69
323	-4.4996	3.9994	0.	125.44
324	-3.9993	4.4989	0.	125.41
325	-3.4993	4.9987	0.	125.22
326	-4.9998	3.4998	0.	125.33
327	0.50002	0.49991	0.	123.93
328	3.	0.49997	0.	123.69
329	-3.5	0.49993	0.	125.18
330	-2.	0.49993	0.	124.92
331	-2.4993	4.9989	0.	124.89
332	-1.4994	4.9994	0.	124.68
333	-0.49949	4.9993	0.	124.55
334	4.9447e-004	4.9991	0.	124.51
335	0.50047	4.999	0.	124.47
336	1.5004	4.9991	0.	124.46
337	2.5002	4.9996	0.	124.5
338	3.0001	4.9998	0.	124.55
339	3.5001	4.9999	0.	124.61
340	4.5	5.	0.	124.75
341	5.	5.	0.	124.83
342	5.	4.5	0.	124.83
343	5.	3.	0.	124.85
344	5.	2.5	0.	124.88
345	5.	1.5	0.	124.99
346	5.	1.	0.	125.09
347	5.	0.5	0.	125.23
348	5.	-0.5	0.	125.7
349	-5.	0.49999	0.	125.48
350	-5.	0.99998	0.	125.39
351	-5.	1.5	0.	125.33
352	-4.9999	1.9999	0.	125.28
353	-4.9998	2.9998	0.	125.27
354	1.5	-6.4892e-005	0.	123.08
355	5.0458e-006	-3.683e-005	0.	124.35
356	2.5	-2.7027e-005	0.	123.09
357	-4.	-2.5127e-005	0.	125.35
358	-0.99999	-2.1237e-005	0.	124.88
359	-2.5	-6.0983e-005	0.	124.98
360	5.5	-1.	0.	126.26
361	4.5	-0.5	0.	125.27
362	2.	-0.50003	0.	122.46
363	-4.5	-0.50001	0.	125.59
364	-0.5	-0.50001	0.	124.96
365	-4.4995	4.4993	0.	125.55
366	-3.9994	4.9989	0.	125.43
367	-3.4994	5.4988	0.	125.15
368	5.	5.5	0.	124.83
369	5.	-1.	0.	126.06
370	-5.	-1.	0.	125.86
371	-5.4999	3.4999	0.	125.23
372	-4.9997	3.9997	0.	125.45
373	3.	-1.5464e-005	0.	123.47
374	-3.5	-4.0902e-005	0.	125.19
375	-2.	-4.1193e-005	0.	124.96
376	-2.4995	5.4991	0.	124.83
377	-1.4996	5.4994	0.	124.66
378	-0.99961	5.4995	0.	124.6
379	-0.49961	5.4994	0.	124.56
380	0.50034	5.4992	0.	124.51
381	1.5002	5.4993	0.	124.51
382	2.5001	5.4997	0.	124.55
383	3.5	5.4999	0.	124.64
384	4.	5.5	0.	124.7
385	4.5	5.5	0.	124.77
386	5.5	5.	0.	124.91
387	5.5	4.5	0.	124.92
388	5.5	3.5	0.	124.96
389	5.5	3.	0.	124.99
390	5.5	1.5	0.	125.2
391	5.5	1.	0.	125.32
392	5.5	0.5	0.	125.48
393	5.5	-0.5	0.	125.95
394	5.5	-1.5	0.	126.6
395	-5.5	-1.	0.	125.88
396	-5.5	-1.6209e-006	0.	125.62
397	-5.5	0.5	0.	125.51
398	-5.5	0.99999	0.	125.41
399	-5.5	1.5	0.	125.33
400	-5.5	2.	0.	125.26
401	-5.4999	2.9999	0.	125.2
402	1.5	-0.50004	0.	122.67
403	1.4494e-006	-0.50002	0.	124.54
404	4.	-0.5	0.	124.67
405	2.5	-0.50002	0.	122.66
406	-4.	-0.50001	0.	125.4
407	-1.	-0.50001	0.	125.12
408	-2.5	-0.50004	0.	124.92
409	-4.4995	4.9993	0.	125.67
410	-3.9995	5.499	0.	125.39
411	5.5	5.5	0.	124.9
412	4.5	-1.	0.	125.62
413	2.	-1.	0.	121.76
414	-5.9999	3.5	0.	125.04
415	-5.4998	3.9998	0.	125.33
416	-4.9997	4.4996	0.	125.63
417	5.	-1.5	0.	126.5
418	5.5	-2.	0.	126.92
419	-5.5	-2.	0.	126.14
420	-5.	-1.5	0.	126.06
421	0.5	-0.50003	0.	123.91
422	3.5	-0.5	0.	123.94
423	3.	-0.50001	0.	123.21
424	-3.5	-0.50002	0.	125.17
425	-2.	-0.50002	0.	124.98
426	-4.4996	5.4993	0.	125.71
427	-3.4996	5.999	0.	125.02
428	-2.4997	5.9992	0.	124.75
429	-1.9997	5.9994	0.	124.68
430	-1.4997	5.9995	0.	124.63
431	-0.49972	5.9995	0.	124.57
432	0.50022	5.9993	0.	124.54
433	2.5	5.9997	0.	124.6
434	3.	5.9998	0.	124.63
435	3.5	5.9999	0.	124.68
436	4.	6.	0.	124.73
437	4.5	6.	0.	124.78
438	5.	6.	0.	124.84
439	5.5	6.	0.	124.9
440	6.	5.5	0.	124.97
441	6.	5.	0.	124.99
442	6.	4.5	0.	125.01
443	6.	3.5	0.	125.07
444	6.	3.	0.	125.12
445	6.	2.5	0.	125.18
446	6.	2.	0.	125.26
447	6.	1.5	0.	125.36
448	6.	0.5	0.	125.65
449	6.	-1.3531e-007	0.	125.85
450	6.	-0.5	0.	126.07
451	6.	-1.5	0.	126.55
452	6.	-2.	0.	126.73
453	6.	-2.5	0.	126.79
454	6.	-5.	0.	125.6
455	6.	-5.5	0.	125.76
456	-6.	-2.5	0.	125.95
457	-6.	-2.	0.	125.98
458	-6.	-1.	0.	125.84
459	-6.	-0.5	0.	125.74
460	-6.	-5.7429e-007	0.	125.63
461	-6.	0.5	0.	125.52
462	-6.	1.	0.	125.41
463	-6.	1.5	0.	125.31
464	-6.	2.	0.	125.22
465	-5.9999	3.	0.	125.07
466	1.5	-1.	0.	122.12
467	2.7533e-007	-1.	0.	124.9
468	4.	-1.	0.	124.91
469	2.5	-1.	0.	122.06
470	6.	-4.5	0.	125.71
471	6.	-3.	0.	126.68
472	-4.	-1.	0.	125.47
473	-1.	-1.	0.	125.5
474	-2.5	-1.	0.	124.76
475	-6.	-4.5	0.	125.36
476	-5.9999	3.9999	0.	125.07
477	-5.4998	4.4998	0.	125.55
478	4.5	-1.5	0.	126.13
479	2.	-1.5	0.	120.76
480	5.5	-2.5	0.	127.12
481	6.	-6.	0.	126.11
482	5.5	-5.	0.	125.66
483	-5.5	-2.5	0.	126.18
484	-4.5	-1.5	0.	125.94
485	-0.5	-1.5	0.	126.13
486	6.5	-6.	0.	126.
487	6.	6.5	0.	124.95
488	-6.5	-6.	0.	125.74
489	5.	-2.	0.	127.01
490	-5.	-2.	0.	126.27
491	-4.4997	5.9994	0.	125.61
492	-4.9997	4.9995	0.	125.86
493	0.5	-1.	0.	124.02
494	3.	-1.	0.	122.89
495	6.	-3.5	0.	126.4
496	-6.	-4.	0.	125.44
497	-3.5	-1.	0.	125.13
498	-1.5	-1.	0.	125.28
499	-2.	-1.	0.	124.95
500	-6.	-5.5	0.	125.65
501	-3.4998	6.4993	0.	124.84
502	-2.4998	6.4994	0.	124.67
503	-1.9999	6.4995	0.	124.63
504	-1.4998	6.4996	0.	124.61
505	-0.49983	6.4996	0.	124.58
506	1.5669e-004	6.4995	0.	124.58
507	0.50013	6.4995	0.	124.58
508	1.5001	6.4996	0.	124.6
509	2.	6.4997	0.	124.61
510	2.5	6.4998	0.	124.64
511	3.5	6.4999	0.	124.71
512	4.5	6.5	0.	124.8
513	5.	6.5	0.	124.84
514	5.5	6.5	0.	124.89
515	6.5	5.5	0.	125.04
516	6.5	4.5	0.	125.09
517	6.5	4.	0.	125.13
518	6.5	3.5	0.	125.17
519	6.5	2.5	0.	125.3
520	6.5	1.5	0.	125.49
521	6.5	0.5	0.	125.76
522	6.5	-6.3614e-008	0.	125.93
523	6.5	-0.5	0.	126.11
524	6.5	-1.	0.	126.29
525	6.5	-1.5	0.	126.44
526	6.5	-2.5	0.	126.51
527	6.5	-3.	0.	126.39
528	6.5	-3.5	0.	126.16
529	6.5	-4.5	0.	125.68
530	6.5	-5.	0.	125.62
531	6.5	-5.5	0.	125.74
532	-5.5	-6.5	0.	126.22
533	-6.5	-5.5	0.	125.57
534	-6.5	-5.	0.	125.43
535	-6.5	-4.5	0.	125.37
536	-6.5	-4.	0.	125.41
537	-6.5	-3.5	0.	125.54
538	-6.5	-3.	0.	125.68
539	-6.5	-2.5	0.	125.78
540	-6.5	-2.	0.	125.83
541	-6.5	-1.5	0.	125.82
542	-6.5	-1.	0.	125.77
543	-6.5	-0.5	0.	125.69
544	-6.5	-8.8281e-008	0.	125.6
545	-6.5	0.5	0.	125.5
546	-6.5	1.	0.	125.4
547	-6.5	1.5	0.	125.29
548	-6.5	2.	0.	125.18
549	-6.5	3.	0.	124.93
550	-5.9999	4.4999	0.	125.22
551	-6.4999	3.5	0.	124.81
552	-6.4999	4.	0.	124.7
553	1.5	-1.5	0.	121.34
554	-4.3036e-008	-1.5	0.	125.53
555	4.	-1.5	0.	125.34
556	2.5	-1.5	0.	121.25
557	5.5	-4.5	0.	125.83
558	5.5	-3.	0.	127.1
559	6.	-6.5	0.	126.53
560	5.5	-5.5	0.	125.86
561	-5.5	-3.	0.	126.07
562	-4.	-1.5	0.	125.62
563	-1.	-1.5	0.	126.07
564	-2.5	-1.5	0.	124.42
565	-5.5	-4.5	0.	125.34
566	-5.5	-6.	0.	126.08
567	6.5	-6.5	0.	126.33
568	6.5	6.5	0.	125.
569	-6.5	-6.5	0.	125.88
570	4.5	-2.	0.	126.83
571	2.	-2.	0.	119.29
572	5.	-2.5	0.	127.46
573	5.	-5.	0.	125.89
574	-5.	-2.5	0.	126.45
575	-4.5	-2.	0.	126.26
576	-0.5	-2.	0.	127.17
577	-4.5	-7.	0.	126.26
578	-5.	-6.5	0.	126.44
579	-4.4998	6.4995	0.	125.33
580	-4.9997	5.4995	0.	126.08
581	-6.4999	4.5	0.	124.64
582	-5.4998	4.9997	0.	125.91
583	0.5	-1.5	0.	124.3
584	3.	-1.5	0.	122.54
585	5.5	-3.5	0.	126.79
586	5.5	-6.5	0.	126.87
587	5.5	-6.	0.	126.35
588	-5.5	-3.5	0.	125.81
589	-5.5	-4.	0.	125.49
590	-3.5	-1.5	0.	125.08
591	-2.	-1.5	0.	124.81
592	-5.5	-5.5	0.	125.79
593	-3.4999	6.9995	0.	124.68
594	-2.4999	6.9996	0.	124.61
595	-1.4999	6.9997	0.	124.6
596	-0.49989	6.9997	0.	124.6
597	8.9819e-005	6.9997	0.	124.61
598	0.50007	6.9997	0.	124.61
599	1.5	6.9997	0.	124.64
600	2.5	6.9998	0.	124.67
601	3.5	6.9999	0.	124.73
602	4.	7.	0.	124.77
603	4.5	7.	0.	124.81
604	5.	7.	0.	124.85
605	5.5	7.	0.	124.89
606	6.5	-7.	0.	126.61
607	7.	6.5	0.	125.04
608	6.5	7.	0.	124.98
609	7.	5.5	0.	125.1
610	7.	5.	0.	125.13
611	7.	4.5	0.	125.17
612	7.	3.5	0.	125.26
613	7.	2.5	0.	125.39
614	7.	1.5	0.	125.58
615	7.	0.5	0.	125.82
616	7.	-2.8331e-008	0.	125.96
617	7.	-0.5	0.	126.09
618	7.	-1.	0.	126.22
619	7.	-1.5	0.	126.31
620	7.	-2.	0.	126.34
621	7.	-2.5	0.	126.3
622	7.	-3.	0.	126.18
623	7.	-4.	0.	125.82
624	7.	-4.5	0.	125.69
625	7.	-5.	0.	125.66
626	7.	-5.5	0.	125.76
627	7.	-6.	0.	125.96
628	7.	-6.5	0.	126.21
629	5.5	-7.	0.	127.2
630	-5.	-7.	0.	126.33
631	-5.5	-7.	0.	126.24
632	-6.5	-7.	0.	125.98
633	-7.	-6.5	0.	125.77
634	-7.	-5.5	0.	125.52
635	-7.	-5.	0.	125.42
636	-7.	-4.5	0.	125.37
637	-7.	-4.	0.	125.4
638	-7.	-3.5	0.	125.48
639	-7.	-3.	0.	125.57
640	-7.	-2.5	0.	125.66
641	-7.	-2.	0.	125.71
642	-7.	-1.5	0.	125.71
643	-7.	-1.	0.	125.69
644	-7.	-0.5	0.	125.64
645	-7.	1.2681e-007	0.	125.57
646	-7.	0.5	0.	125.48
647	-7.	1.	0.	125.39
648	-7.	1.5	0.	125.28
649	-7.	2.	0.	125.15
650	-7.	2.5	0.	125.01
651	-7.	3.	0.	124.83
652	-7.	3.5	0.	124.62
653	-7.	4.	0.	124.37
654	1.5	-2.	0.	120.25
655	-5.3752e-008	-2.	0.	126.52
656	4.	-2.	0.	126.08
657	2.5	-2.	0.	120.12
658	5.	-4.5	0.	126.13
659	5.	-3.	0.	127.66
660	5.	-5.5	0.	126.15
661	-5.	-3.	0.	126.45
662	-4.	-2.	0.	125.91
663	-1.	-2.	0.	126.89
664	-2.5	-2.	0.	123.71
665	-4.	-7.	0.	125.85
666	-2.5	-7.	0.	123.54
667	-5.	-4.5	0.	125.34
668	-5.	-6.	0.	126.41
669	-4.4998	6.9996	0.	124.97
670	-4.9997	5.9996	0.	126.12
671	-7.	4.5	0.	124.04
672	-5.9998	4.9999	0.	125.58
673	4.5	-2.5	0.	127.65
674	-4.5	-2.5	0.	126.67
675	-4.5	-6.5	0.	126.6
676	-7.	-7.	0.	125.87
677	-1.	-7.	0.	127.38
678	5.	-7.	0.	127.68
679	7.	-7.	0.	126.46
680	7.	7.	0.	125.02
681	-5.4998	5.4997	0.	126.4
682	2.	-2.5	0.	117.15
683	4.5	-5.	0.	126.59
684	0.5	-2.	0.	124.87
685	3.5	-2.	0.	124.5
686	3.	-2.	0.	122.22
687	5.	-4.	0.	126.78
688	5.	-3.5	0.	127.42
689	5.	-6.5	0.	127.44
690	5.	-6.	0.	126.81
691	-3.5	-2.	0.	125.08
692	-1.5	-2.	0.	125.84
693	-2.	-2.	0.	124.47
694	-1.5	-7.	0.	125.91
695	-3.	-7.	0.	123.91
696	-5.	-5.5	0.	126.08
697	-4.9999	6.9997	0.	125.3
698	-7.	5.	0.	123.6
699	-6.4999	4.9999	0.	124.72
700	4.	-5.	0.	128.57
701	2.	-3.	0.	114.25
702	-1.9186e-009	-5.	0.	128.65
703	2.	-7.	0.	113.91
704	-4.9999	7.4998	0.	124.93
705	-4.4999	7.4997	0.	124.73
706	-3.9999	7.4997	0.	124.62
707	-3.4999	7.4997	0.	124.58
708	-2.9999	7.4997	0.	124.57
709	-2.5	7.4997	0.	124.58
710	-2.	7.4997	0.	124.6
711	-1.4999	7.4997	0.	124.61
712	-0.99995	7.4998	0.	124.63
713	-0.49995	7.4998	0.	124.64
714	4.9747e-005	7.4998	0.	124.64
715	0.50004	7.4998	0.	124.65
716	1.5	7.4998	0.	124.67
717	2.	7.4998	0.	124.69
718	2.5	7.4999	0.	124.71
719	3.	7.4999	0.	124.73
720	3.5	7.4999	0.	124.75
721	4.	7.5	0.	124.78
722	4.5	7.5	0.	124.82
723	5.	7.5	0.	124.85
724	5.5	7.5	0.	124.89
725	6.5	7.5	0.	124.96
726	7.	7.5	0.	125.
727	7.5	7.5	0.	125.03
728	7.5	7.	0.	125.06
729	7.5	6.5	0.	125.09
730	7.5	6.	0.	125.12
731	7.5	5.5	0.	125.15
732	7.5	5.	0.	125.19
733	7.5	4.5	0.	125.24
734	7.5	4.	0.	125.29
735	7.5	2.5	0.	125.48
736	7.5	2.	0.	125.56
737	7.5	1.5	0.	125.65
738	7.5	1.	0.	125.75
739	7.5	0.5	0.	125.85
740	7.5	-1.407e-008	0.	125.96
741	7.5	-0.5	0.	126.05
742	7.5	-1.	0.	126.13
743	7.5	-1.5	0.	126.18
744	7.5	-2.	0.	126.19
745	7.5	-2.5	0.	126.14
746	7.5	-3.	0.	126.04
747	7.5	-3.5	0.	125.91
748	7.5	-4.	0.	125.79
749	7.5	-4.5	0.	125.71
750	7.5	-5.	0.	125.7
751	7.5	-5.5	0.	125.79
752	7.5	-6.	0.	125.94
753	7.5	-6.5	0.	126.15
754	7.5	-7.	0.	126.35
755	7.5	-7.5	0.	126.53
756	7.	-7.5	0.	126.65
757	6.5	-7.5	0.	126.81
758	6.	-7.5	0.	127.01
759	5.5	-7.5	0.	127.25
760	4.5	-7.5	0.	127.53
761	2.	-7.5	0.	116.58
762	-0.5	-7.5	0.	127.34
763	-1.	-7.5	0.	126.82
764	-2.	-7.5	0.	124.99
765	-2.5	-7.5	0.	124.48
766	-3.	-7.5	0.	124.59
767	-3.5	-7.5	0.	125.11
768	-4.	-7.5	0.	125.67
769	-4.5	-7.5	0.	126.04
770	-5.	-7.5	0.	126.19
771	-6.	-7.5	0.	126.12
772	-6.5	-7.5	0.	126.03
773	-7.	-7.5	0.	125.93
774	-7.5	-7.5	0.	125.84
775	-7.5	-7.	0.	125.77
776	-7.5	-6.5	0.	125.68
777	-7.5	-6.	0.	125.58
778	-7.5	-5.5	0.	125.48
779	-7.5	-5.	0.	125.41
780	-7.5	-4.5	0.	125.37
781	-7.5	-4.	0.	125.38
782	-7.5	-3.5	0.	125.43
783	-7.5	-3.	0.	125.5
784	-7.5	-2.5	0.	125.56
785	-7.5	-2.	0.	125.6
786	-7.5	-1.5	0.	125.62
787	-7.5	-1.	0.	125.61
788	-7.5	-0.5	0.	125.58
789	-7.5	2.1495e-007	0.	125.53
790	-7.5	0.5	0.	125.47
791	-7.5	1.5	0.	125.29
792	-7.5	3.5	0.	124.58
793	-7.5	4.	0.	124.25
794	-7.5	4.5	0.	123.78
795	-7.5	5.	0.	123.06
796	-7.5	5.5	0.	121.83
797	-5.4999	7.4998	0.	125.39
798	-5.4998	5.9997	0.	126.8
799	-4.	-6.5	0.	126.36
800	-1.	-6.5	0.	127.84
801	-2.5	-6.5	0.	121.94
802	-1.	-2.5	0.	128.02
803	-4.	-2.5	0.	126.51
804	-2.5	-2.5	0.	122.33
805	-4.5	-4.5	0.	125.47
806	-4.5	-3.	0.	126.98
807	4.	-7.5	0.	126.98
808	2.5	-7.5	0.	118.04
809	4.5	-5.5	0.	126.89
810	4.5	-7.	0.	128.24
811	4.5	-3.	0.	128.33
812	4.5	-4.5	0.	126.89
813	2.5	-2.5	0.	118.59
814	4.	-2.5	0.	127.26
815	-5.9139e-008	-2.5	0.	127.94
816	1.5	-2.5	0.	118.73
817	-0.5	-3.	0.	129.53
818	-0.5	-7.	0.	128.42
819	1.5	-7.5	0.	118.14
820	5.157e-011	-7.5	0.	127.04
821	1.	-7.5	0.	121.75
822	-0.5	-6.	0.	128.68
823	-0.5	-6.5	0.	129.
824	0.5	-2.5	0.	125.93
825	3.5	-2.5	0.	125.46
826	3.	-2.5	0.	122.11
827	4.5	-3.5	0.	128.37
828	4.5	-6.5	0.	128.33
829	4.5	-6.	0.	127.61
830	3.	-7.5	0.	121.59
831	3.5	-7.5	0.	125.04
832	-4.5	-4.	0.	125.93
833	-3.5	-2.5	0.	125.32
834	-1.5	-2.5	0.	126.36
835	-2.	-2.5	0.	123.84
836	-0.5	-3.5	0.	129.45
837	-0.5	-5.5	0.	127.9
838	-0.5	-5.	0.	126.93
839	-1.5	-6.5	0.	125.95
840	-3.	-6.5	0.	122.99
841	-4.5	-5.	0.	125.87
842	-4.5	-5.5	0.	126.67
843	-5.4999	6.9998	0.	125.87
844	-6.9999	5.5	0.	123.04
845	-6.4999	5.4999	0.	125.14
846	-6.7505e-010	-5.5	0.	128.67
847	1.5	-3.	0.	116.71
848	4.	-4.5	0.	128.25
849	2.5	-7.	0.	116.22
850	5.1068e-011	-7.	0.	128.97
851	1.5	-7.	0.	116.37
852	-8.	-7.5	0.	125.76
853	-8.	-7.	0.	125.69
854	-8.	-6.5	0.	125.61
855	-8.	-6.	0.	125.53
856	-8.	-5.5	0.	125.45
857	-8.	-5.	0.	125.39
858	-8.	-4.5	0.	125.35
859	-8.	-4.	0.	125.36
860	-8.	-3.5	0.	125.39
861	-8.	-3.	0.	125.43
862	-8.	-2.5	0.	125.48
863	-8.	-2.	0.	125.52
864	-8.	-1.5	0.	125.54
865	-8.	-1.	0.	125.55
866	-8.	-0.5	0.	125.53
867	-8.	2.5552e-007	0.	125.51
868	-8.	0.5	0.	125.46
869	-8.	1.	0.	125.41
870	-8.	1.5	0.	125.33
871	-8.	2.	0.	125.23
872	-8.	2.5	0.	125.11
873	-8.	3.	0.	124.95
874	-8.	3.5	0.	124.73
875	-8.	4.	0.	124.44
876	-8.	4.5	0.	124.07
877	-8.	5.	0.	123.59
878	-8.	5.5	0.	122.99
879	-7.5	6.	0.	119.34
880	8.	7.5	0.	125.06
881	8.	7.	0.	125.09
882	8.	6.5	0.	125.12
883	8.	6.	0.	125.16
884	8.	5.5	0.	125.2
885	8.	5.	0.	125.25
886	8.	4.5	0.	125.3
887	8.	4.	0.	125.36
888	8.	3.5	0.	125.41
889	8.	3.	0.	125.48
890	8.	2.5	0.	125.55
891	8.	2.	0.	125.62
892	8.	1.5	0.	125.7
893	8.	1.	0.	125.78
894	8.	0.5	0.	125.87
895	8.	-7.7817e-009	0.	125.94
896	8.	-1.	0.	126.05
897	8.	-1.5	0.	126.07
898	8.	-2.	0.	126.06
899	8.	-2.5	0.	126.01
900	8.	-3.	0.	125.93
901	8.	-3.5	0.	125.84
902	8.	-4.	0.	125.76
903	8.	-4.5	0.	125.72
904	8.	-5.	0.	125.73
905	8.	-5.5	0.	125.8
906	8.	-6.	0.	125.94
907	8.	-6.5	0.	126.1
908	8.	-7.	0.	126.28
909	8.	-7.5	0.	126.45
910	8.	-8.	0.	126.58
911	7.5	-8.	0.	126.67
912	7.	-8.	0.	126.78
913	6.5	-8.	0.	126.9
914	6.	-8.	0.	127.02
915	5.5	-8.	0.	127.09
916	5.	-8.	0.	127.04
917	4.5	-8.	0.	126.68
918	4.	-8.	0.	125.74
919	3.5	-8.	0.	123.98
920	3.	-8.	0.	121.56
921	2.5	-8.	0.	119.37
922	2.	-8.	0.	118.49
923	1.5	-8.	0.	119.41
924	1.	-8.	0.	121.61
925	0.5	-8.	0.	123.97
926	3.8951e-011	-8.	0.	125.59
927	-0.5	-8.	0.	126.26
928	-1.	-8.	0.	126.22
929	-1.5	-8.	0.	125.81
930	-2.5	-8.	0.	125.02
931	-3.	-8.	0.	125.04
932	-3.5	-8.	0.	125.31
933	-4.	-8.	0.	125.66
934	-4.5	-8.	0.	125.94
935	-5.	-8.	0.	126.09
936	-5.5	-8.	0.	126.14
937	-6.	-8.	0.	126.11
938	-6.5	-8.	0.	126.05
939	-7.	-8.	0.	125.97
940	-7.5	-8.	0.	125.89
941	-8.	-8.	0.	125.82
942	-5.199e-009	-4.5	0.	128.1
943	-5.0142e-008	-3.	0.	129.6
944	2.5	-3.	0.	116.6
945	4.	-3.	0.	128.85
946	4.	-5.5	0.	128.22
947	4.	-7.	0.	128.64
948	-4.	-4.5	0.	125.46
949	-4.	-3.	0.	127.52
950	-2.5	-3.	0.	119.52
951	-1.	-3.	0.	129.34
952	-1.	-4.5	0.	126.07
953	-1.	-6.	0.	128.34
954	-2.5	-6.	0.	118.98
955	-4.	-6.	0.	127.34
956	-5.9999	7.4999	0.	125.77
957	-5.9999	5.9998	0.	127.49
958	-5.4999	7.9999	0.	125.65
959	-4.9999	7.9998	0.	125.04
960	-3.9999	7.9998	0.	124.62
961	-3.5	7.9998	0.	124.59
962	-3.	7.9998	0.	124.6
963	-2.5	7.9998	0.	124.62
964	-2.	7.9998	0.	124.64
965	-1.5	7.9998	0.	124.66
966	-0.99997	7.9998	0.	124.67
967	-0.49997	7.9998	0.	124.68
968	2.2767e-005	7.9998	0.	124.68
969	0.50002	7.9998	0.	124.69
970	1.	7.9999	0.	124.7
971	1.5	7.9999	0.	124.7
972	2.	7.9999	0.	124.72
973	2.5	7.9999	0.	124.73
974	3.	7.9999	0.	124.75
975	3.5	7.9999	0.	124.77
976	4.	8.	0.	124.8
977	4.5	8.	0.	124.82
978	5.	8.	0.	124.85
979	5.5	8.	0.	124.88
980	6.	8.	0.	124.91
981	6.5	8.	0.	124.95
982	7.	8.	0.	124.98
983	7.5	8.	0.	125.
984	-6.	7.9999	0.	127.13
985	8.	8.	0.	125.03
986	-6.9999	6.	0.	122.35
987	-6.4999	5.9999	0.	126.65
988	-5.9999	6.9999	0.	127.22
989	-4.	-5.	0.	126.86
990	-4.	-5.5	0.	127.86
991	-3.5	-6.	0.	126.28
992	-3.	-6.	0.	121.86
993	-2.	-6.	0.	122.17
994	-1.5	-6.	0.	126.85
995	-1.	-5.	0.	127.19
996	-1.	-3.5	0.	129.68
997	-2.	-3.	0.	122.86
998	-3.	-3.	0.	122.28
999	-3.5	-3.	0.	126.58
1000	-4.	-3.5	0.	128.02
1001	-4.	-4.	0.	126.95
1002	3.	-7.	0.	122.
1003	3.5	-7.	0.	127.25
1004	4.	-6.5	0.	129.67
1005	4.	-6.	0.	129.14
1006	4.	-4.	0.	129.2
1007	4.	-3.5	0.	129.79
1008	3.5	-3.	0.	127.58
1009	3.	-3.	0.	122.4
1010	1.	-3.	0.	122.63
1011	0.5	-3.	0.	128.01
1012	-1.2711e-008	-4.	0.	129.27
1013	-2.4239e-010	-6.	0.	129.78
1014	-2.2451e-011	-6.5	0.	130.23
1015	1.	-7.	0.	122.27
1016	-8.	6.	0.	122.29
1017	8.	-8.5	0.	126.69
1018	8.5	-7.5	0.	126.38
1019	8.5	-8.	0.	126.52
1020	8.5	-6.5	0.	126.06
1021	8.5	-7.	0.	126.23
1022	8.5	-5.5	0.	125.79
1023	8.5	-6.	0.	125.91
1024	8.5	-5.	0.	125.72
1025	8.5	-3.5	0.	125.77
1026	8.5	-4.	0.	125.72
1027	8.5	-2.5	0.	125.9
1028	8.5	-3.	0.	125.84
1029	8.5	-1.5	0.	125.98
1030	8.5	-2.	0.	125.96
1031	8.5	-0.5	0.	125.97
1032	8.5	-1.	0.	125.99
1033	8.5	-3.4163e-009	0.	125.93
1034	8.5	1.	0.	125.82
1035	8.5	2.	0.	125.69
1036	8.5	3.5	0.	125.48
1037	8.5	3.	0.	125.55
1038	8.5	4.	0.	125.42
1039	8.5	5.	0.	125.3
1040	8.5	6.	0.	125.2
1041	8.5	7.5	0.	125.08
1042	8.5	7.	0.	125.11
1043	-8.5	-8.	0.	125.75
1044	-6.	8.4999	0.	127.94
1045	8.5	8.	0.	125.05
1046	7.5	8.5	0.	124.98
1047	8.	8.5	0.	125.
1048	6.5	8.5	0.	124.93
1049	7.	8.5	0.	124.96
1050	5.5	8.5	0.	124.88
1051	6.	8.5	0.	124.91
1052	5.	8.5	0.	124.85
1053	3.5	8.5	0.	124.78
1054	4.	8.5	0.	124.8
1055	2.5	8.4999	0.	124.75
1056	3.	8.4999	0.	124.76
1057	2.	8.4999	0.	124.74
1058	0.50001	8.4999	0.	124.72
1059	1.	8.4999	0.	124.72
1060	8.6171e-006	8.4999	0.	124.72
1061	-0.99999	8.4999	0.	124.72
1062	-2.	8.4999	0.	124.72
1063	-3.	8.4999	0.	124.7
1064	-4.5	8.4999	0.	124.92
1065	-5.5	8.4999	0.	126.21
1066	-5.	8.4999	0.	125.33
1067	-8.5	5.5	0.	125.11
1068	-8.5	6.	0.	126.64
1069	-8.5	4.5	0.	124.77
1070	-8.5	5.	0.	124.75
1071	-8.5	3.5	0.	125.05
1072	-8.5	4.	0.	124.9
1073	-8.5	2.5	0.	125.27
1074	-8.5	3.	0.	125.17
1075	-8.5	1.5	0.	125.4
1076	-8.5	2.	0.	125.35
1077	-8.5	1.	0.	125.44
1078	-8.5	-0.5	0.	125.5
1079	-8.5	2.7577e-007	0.	125.49
1080	-8.5	-1.5	0.	125.47
1081	-8.5	-1.	0.	125.49
1082	-8.5	-2.5	0.	125.41
1083	-8.5	-2.	0.	125.44
1084	-8.5	-3.	0.	125.37
1085	-8.5	-4.5	0.	125.32
1086	-8.5	-4.	0.	125.31
1087	-8.5	-5.	0.	125.35
1088	-8.5	-7.5	0.	125.69
1089	-8.	-8.5	0.	125.85
1090	-6.5	-8.5	0.	126.06
1091	-7.	-8.5	0.	125.99
1092	-6.	-8.5	0.	126.1
1093	-5.	-8.5	0.	126.04
1094	-4.	-8.5	0.	125.7
1095	-2.5	-8.5	0.	125.31
1096	-3.	-8.5	0.	125.33
1097	-2.	-8.5	0.	125.45
1098	-0.5	-8.5	0.	125.43
1099	-1.	-8.5	0.	125.7
1100	0.5	-8.5	0.	123.31
1101	2.8642e-011	-8.5	0.	124.64
1102	1.	-8.5	0.	121.67
1103	2.	-8.5	0.	119.72
1104	3.	-8.5	0.	121.72
1105	4.	-8.5	0.	124.96
1106	5.	-8.5	0.	126.58
1107	6.5	-8.5	0.	126.92
1108	6.	-8.5	0.	126.94
1109	7.5	-8.5	0.	126.76
1110	7.	-8.5	0.	126.85
1111	8.5	-8.5	0.	126.63
1112	-8.5	-8.5	0.	125.8
1113	8.5	8.5	0.	125.02
1114	7.5	-9.	0.	126.82
1115	7.	-9.	0.	126.87
1116	6.5	-9.	0.	126.89
1117	6.	-9.	0.	126.82
1118	5.5	-9.	0.	126.62
1119	5.	-9.	0.	126.21
1120	4.5	-9.	0.	125.51
1121	3.5	-9.	0.	123.22
1122	2.5	-9.	0.	120.87
1123	1.5	-9.	0.	120.82
1124	0.5	-9.	0.	122.98
1125	1.7446e-011	-9.	0.	124.08
1126	-0.5	-9.	0.	124.87
1127	-1.	-9.	0.	125.31
1128	-1.5	-9.	0.	125.46
1129	-2.5	-9.	0.	125.46
1130	-3.	-9.	0.	125.5
1131	-3.5	-9.	0.	125.6
1132	-4.	-9.	0.	125.75
1133	-4.5	-9.	0.	125.9
1134	-5.	-9.	0.	126.01
1135	-5.5	-9.	0.	126.07
1136	-6.5	-9.	0.	126.05
1137	-7.5	-9.	0.	125.94
1138	-9.	-8.5	0.	125.76
1139	-8.5	-9.	0.	125.83
1140	-9.	-7.5	0.	125.64
1141	-9.	-6.5	0.	125.48
1142	-9.	-5.5	0.	125.33
1143	-9.	-4.5	0.	125.25
1144	-9.	-3.5	0.	125.26
1145	-9.	-3.	0.	125.29
1146	-9.	-2.5	0.	125.33
1147	-9.	-1.5	0.	125.41
1148	-9.	-0.5	0.	125.47
1149	-9.	0.5	0.	125.49
1150	-9.	1.	0.	125.49
1151	-9.	1.5	0.	125.49
1152	-9.	2.	0.	125.48
1153	-9.	2.5	0.	125.47
1154	-9.	3.	0.	125.46
1155	-9.	3.5	0.	125.45
1156	-9.	4.	0.	125.46
1157	-9.	4.5	0.	125.54
1158	-9.	5.	0.	125.78
1159	-9.	5.5	0.	126.4
1160	-9.	6.5	0.	128.39
1161	-9.	7.5	0.	126.2
1162	-8.5	9.	0.	126.78
1163	-9.	8.5	0.	128.04
1164	-7.5	9.	0.	120.35
1165	-7.	9.	0.	123.08
1166	-6.5	9.	0.	126.79
1167	-5.5	8.9999	0.	126.1
1168	-4.5	8.9999	0.	125.11
1169	-3.5	8.9999	0.	124.89
1170	-2.5	8.9999	0.	124.84
1171	-1.5	8.9999	0.	124.8
1172	0.5	8.9999	0.	124.74
1173	1.5	8.9999	0.	124.74
1174	2.	9.	0.	124.74
1175	2.5	9.	0.	124.75
1176	3.	9.	0.	124.76
1177	3.5	9.	0.	124.78
1178	4.5	9.	0.	124.82
1179	5.	9.	0.	124.85
1180	5.5	9.	0.	124.87
1181	6.	9.	0.	124.9
1182	6.5	9.	0.	124.92
1183	7.5	9.	0.	124.97
1184	9.	8.5	0.	125.03
1185	8.	9.	0.	124.99
1186	8.5	9.	0.	125.
1187	9.	8.	0.	125.06
1188	9.	7.5	0.	125.09
1189	9.	6.5	0.	125.18
1190	9.	6.	0.	125.23
1191	9.	5.5	0.	125.28
1192	9.	4.5	0.	125.41
1193	9.	3.5	0.	125.55
1194	9.	1.5	0.	125.82
1195	9.	0.5	0.	125.91
1196	9.	-0.5	0.	125.96
1197	9.	-1.5	0.	125.92
1198	9.	-2.	0.	125.87
1199	9.	-2.5	0.	125.81
1200	9.	-3.	0.	125.74
1201	9.	-3.5	0.	125.68
1202	9.	-4.5	0.	125.63
1203	9.	-5.5	0.	125.74
1204	9.	-6.5	0.	126.01
1205	9.	-7.5	0.	126.34
1206	9.	-8.5	0.	126.62
1207	0.5	-6.5	0.	131.74
1208	0.5	-3.5	0.	131.75
1209	3.5	-3.5	0.	131.55
1210	3.5	-6.5	0.	131.32
1211	-3.5	-3.5	0.	129.99
1212	-1.5	-3.5	0.	130.95
1213	-1.5	-5.5	0.	129.88
1214	-3.5	-5.5	0.	129.71
1215	-8.5	8.5	0.	130.78
1216	-6.5	8.5	0.	130.56
1217	-6.4999	6.4999	0.	130.35
1218	-8.5	6.5	0.	130.52
1219	9.	-9.	0.	126.72
1220	-9.	-9.	0.	125.8
1221	-9.	9.	0.	126.94
1222	9.	9.	0.	125.01
1223	0.5	-6.	0.	130.89
1224	0.5	-5.5	0.	132.91
1225	0.5	-5.	0.	134.19
1226	0.5	-4.	0.	130.6
1227	0.5	-4.5	0.	132.63
1228	1.	-3.5	0.	124.25
1229	1.5	-3.5	0.	113.
1230	2.	-3.5	0.	112.76
1231	3.	-3.5	0.	124.15
1232	2.5	-3.5	0.	112.96
1233	3.5	-4.	0.	130.66
1234	3.5	-4.5	0.	132.76
1235	3.5	-5.	0.	134.21
1236	3.5	-6.	0.	130.6
1237	3.5	-5.5	0.	132.64
1238	3.	-6.5	0.	123.79
1239	1.	-6.5	0.	124.17
1240	1.5	-6.5	0.	112.88
1241	2.	-6.5	0.	112.6
1242	2.5	-6.5	0.	112.76
1243	-3.	-3.5	0.	122.77
1244	-2.	-3.5	0.	123.34
1245	-2.5	-3.5	0.	112.59
1246	-1.5	-4.	0.	129.58
1247	-1.5	-5.	0.	128.95
1248	-1.5	-4.5	0.	129.23
1249	-2.	-5.5	0.	122.59
1250	-3.	-5.5	0.	122.36
1251	-2.5	-5.5	0.	112.1
1252	-3.5	-5.	0.	128.94
1253	-3.5	-4.	0.	129.07
1254	-3.5	-4.5	0.	128.85
1255	-8.	8.5	0.	124.
1256	-7.	8.5	0.	123.9
1257	-7.5	8.5	0.	113.59
1258	-6.5	7.9999	0.	129.73
1259	-6.4999	6.9999	0.	129.63
1260	-6.5	7.4999	0.	129.62
1261	-7.	6.5	0.	123.3
1262	-8.	6.5	0.	123.21
1263	-7.5	6.5	0.	112.93
1264	-8.5	8.	0.	130.09
1265	-8.5	7.5	0.	129.94
1266	-8.5	7.	0.	130.07
1267	9.	-9.5	0.	126.78
1268	8.5	-9.5	0.	126.76
1269	8.	-9.5	0.	126.79
1270	7.5	-9.5	0.	126.84
1271	7.	-9.5	0.	126.88
1272	6.5	-9.5	0.	126.86
1273	6.	-9.5	0.	126.74
1274	5.5	-9.5	0.	126.47
1275	5.	-9.5	0.	125.98
1276	4.5	-9.5	0.	125.24
1277	4.	-9.5	0.	124.26
1278	3.5	-9.5	0.	123.12
1279	3.	-9.5	0.	122.01
1280	2.5	-9.5	0.	121.19
1281	2.	-9.5	0.	120.87
1282	1.5	-9.5	0.	121.12
1283	1.	-9.5	0.	121.85
1284	0.5	-9.5	0.	122.82
1285	8.6123e-012	-9.5	0.	123.79
1286	-0.5	-9.5	0.	124.56
1287	-1.	-9.5	0.	125.07
1288	-1.5	-9.5	0.	125.34
1289	-2.	-9.5	0.	125.46
1290	-2.5	-9.5	0.	125.52
1291	-3.	-9.5	0.	125.58
1292	-3.5	-9.5	0.	125.67
1293	-4.	-9.5	0.	125.79
1294	-4.5	-9.5	0.	125.91
1295	-5.	-9.5	0.	126.
1296	-5.5	-9.5	0.	126.05
1297	-6.	-9.5	0.	126.07
1298	-6.5	-9.5	0.	126.05
1299	-7.	-9.5	0.	126.01
1300	-7.5	-9.5	0.	125.95
1301	-8.	-9.5	0.	125.89
1302	-8.5	-9.5	0.	125.85
1303	-9.	-9.5	0.	125.83
1304	-9.5	-9.5	0.	125.84
1305	-9.5	-9.	0.	125.81
1306	-9.5	-8.5	0.	125.75
1307	-9.5	-8.	0.	125.68
1308	-9.5	-7.5	0.	125.6
1309	-9.5	-7.	0.	125.5
1310	-9.5	-6.5	0.	125.41
1311	-9.5	-6.	0.	125.32
1312	-9.5	-5.5	0.	125.24
1313	-9.5	-5.	0.	125.18
1314	-9.5	-4.5	0.	125.15
1315	-9.5	-4.	0.	125.14
1316	-9.5	-3.5	0.	125.16
1317	-9.5	-3.	0.	125.19
1318	-9.5	-2.5	0.	125.24
1319	-9.5	-2.	0.	125.3
1320	-9.5	-1.5	0.	125.36
1321	-9.5	-1.	0.	125.41
1322	-9.5	-0.5	0.	125.45
1323	-9.5	1.5157e-007	0.	125.49
1324	-9.5	0.5	0.	125.52
1325	-9.5	1.	0.	125.55
1326	-9.5	1.5	0.	125.57
1327	-9.5	2.	0.	125.61
1328	-9.5	2.5	0.	125.66
1329	-9.5	3.	0.	125.73
1330	-9.5	3.5	0.	125.85
1331	-9.5	4.	0.	126.01
1332	-9.5	4.5	0.	126.23
1333	-9.5	5.	0.	126.51
1334	-9.5	5.5	0.	126.84
1335	-9.5	6.	0.	127.05
1336	-9.5	6.5	0.	126.84
1337	-9.5	7.	0.	126.04
1338	-9.5	7.5	0.	125.5
1339	-9.5	8.	0.	125.56
1340	-9.5	8.5	0.	125.91
1341	-9.5	9.	0.	125.73
1342	-9.5	9.5	0.	125.2
1343	-9.	9.5	0.	125.3
1344	-8.5	9.5	0.	124.76
1345	-8.	9.5	0.	123.53
1346	-7.5	9.5	0.	122.78
1347	-7.	9.5	0.	123.62
1348	-6.5	9.5	0.	124.96
1349	-6.	9.5	0.	125.62
1350	-5.5	9.5	0.	125.62
1351	-5.	9.5	0.	125.48
1352	-4.5	9.5	0.	125.34
1353	-4.	9.5	0.	125.22
1354	-3.5	9.5	0.	125.12
1355	-3.	9.5	0.	125.04
1356	-2.5	9.5	0.	124.97
1357	-2.	9.5	0.	124.91
1358	-1.5	9.5	0.	124.86
1359	-1.	9.5	0.	124.82
1360	-0.5	9.5	0.	124.79
1361	6.8881e-007	9.5	0.	124.76
1362	0.5	9.5	0.	124.75
1363	1.	9.5	0.	124.74
1364	1.5	9.5	0.	124.73
1365	2.	9.5	0.	124.73
1366	2.5	9.5	0.	124.74
1367	3.	9.5	0.	124.75
1368	3.5	9.5	0.	124.77
1369	4.5	9.5	0.	124.81
1370	5.	9.5	0.	124.84
1371	5.5	9.5	0.	124.86
1372	6.	9.5	0.	124.89
1373	6.5	9.5	0.	124.92
1374	7.	9.5	0.	124.94
1375	7.5	9.5	0.	124.96
1376	8.	9.5	0.	124.98
1377	8.5	9.5	0.	124.99
1378	9.	9.5	0.	125.
1379	9.5	9.5	0.	125.
1380	9.5	9.	0.	125.01
1381	9.5	8.5	0.	125.03
1382	9.5	8.	0.	125.05
1383	9.5	7.5	0.	125.09
1384	9.5	7.	0.	125.13
1385	9.5	6.5	0.	125.18
1386	9.5	6.	0.	125.24
1387	9.5	5.5	0.	125.31
1388	9.5	5.	0.	125.38
1389	9.5	4.5	0.	125.45
1390	9.5	4.	0.	125.53
1391	9.5	3.5	0.	125.61
1392	9.5	3.	0.	125.69
1393	9.5	2.5	0.	125.77
1394	9.5	2.	0.	125.84
1395	9.5	1.5	0.	125.9
1396	9.5	1.	0.	125.95
1397	9.5	0.5	0.	125.98
1398	9.5	-0.5	0.	125.98
1399	9.5	-1.	0.	125.94
1400	9.5	-1.5	0.	125.88
1401	9.5	-2.5	0.	125.71
1402	9.5	-3.	0.	125.62
1403	9.5	-3.5	0.	125.54
1404	9.5	-4.	0.	125.49
1405	9.5	-4.5	0.	125.48
1406	9.5	-5.	0.	125.52
1407	9.5	-5.5	0.	125.61
1408	9.5	-6.	0.	125.75
1409	9.5	-6.5	0.	125.93
1410	9.5	-7.	0.	126.13
1411	9.5	-7.5	0.	126.33
1412	9.5	-8.	0.	126.52
1413	9.5	-8.5	0.	126.68
1414	9.5	-9.	0.	126.8
1415	9.5	-9.5	0.	126.88
1416	-5.4999	2.4999	0.	125.21
1417	7.	-3.5	0.	126.01
1418	3.5	-8.5	0.	123.46
1419	-9.	-8.	0.	125.7
1420	5.5	-3.363e-007	0.	125.69
1421	6.	6.	0.	124.96
1422	9.5	-2.	0.	125.8
1423	6.5	-2.	0.	126.52
1424	5.5	-8.5	0.	126.85
1425	1.	-6.3784e-005	0.	123.43
1426	8.5	-9.	0.	126.71
1427	-9.	-4.	0.	125.25
1428	1.5	8.4999	0.	124.73
1429	-4.5	-6.	0.	126.87
1430	-0.99982	6.4996	0.	124.59
1431	-2.9992	3.4989	0.	125.08
1432	-0.5	8.9999	0.	124.76
1433	-1.	-5.5	0.	128.31
1434	-6.	2.5	0.	125.14
1435	-3.9998	6.9995	0.	124.78
1436	-1.5	8.4999	0.	124.72
1437	7.5	3.5	0.	125.34
1438	3.0002	3.9997	0.	124.45
1439	2.5764e-004	5.9994	0.	124.55
1440	1.0003	5.4992	0.	124.5
1441	-1.9999	6.9996	0.	124.6
1442	-2.9997	5.9991	0.	124.86
1443	6.5	-4.	0.	125.89
1444	-1.4999	1.4999	0.	124.74
1445	-8.	9.	0.	123.08
1446	-1.5	0.49995	0.	124.85
1447	-0.99972	5.9995	0.	124.59
1448	-2.	8.9999	0.	124.82
1449	1.	6.9997	0.	124.62
1450	5.5	2.	0.	125.11
1451	-0.99989	6.9997	0.	124.6
1452	1.5	-8.5	0.	120.27
1453	-1.5	-3.	0.	127.73
1454	-3.	-5.5822e-005	0.	125.06
1455	-7.5	-8.5	0.	125.92
1456	4.5	-4.	0.	127.61
1457	7.	9.	0.	124.95
1458	1.	8.9999	0.	124.74
1459	-6.	-6.5	0.	126.03
1460	-4.5	-3.5	0.	126.77
1461	-6.	-3.5	0.	125.63
1462	5.	-7.5706e-007	0.	125.43
1463	-3.9997	2.4996	0.	125.23
1464	4.5	-8.5	0.	125.99
1465	3.0001	5.4998	0.	124.59
1466	6.5	3.	0.	125.23
1467	-3.	-2.5	0.	123.31
1468	-4.4998	2.4998	0.	125.26
1469	5.	3.5	0.	124.84
1470	-7.5	2.5	0.	125.02
1471	9.	-6.	0.	125.86
1472	2.	-9.	0.	120.47
1473	-0.5	-2.5	0.	128.47
1474	-2.9993	4.9988	0.	125.04
1475	2.5	-8.5	0.	120.29
1476	1.	0.49988	0.	123.62
1477	-3.	-1.5	0.	124.56
1478	4.	2.	0.	124.51
1479	7.	6.	0.	125.07
1480	9.	-5.	0.	125.66
1481	-4.5	-1.	0.	125.73
1482	6.	1.	0.	125.49
1483	3.	6.9999	0.	124.7
1484	-1.5	-2.9998e-005	0.	124.95
1485	9.	-1.	0.	125.95
1486	9.	-8.	0.	126.5
1487	2.0003	2.4996	0.	124.08
1488	1.5005	4.4991	0.	124.4
1489	-1.9994	2.9994	0.	124.83
1490	-1.9991	3.9992	0.	124.83
1491	-3.	-1.	0.	124.84
1492	8.	-9.	0.	126.75
1493	0.5	-7.	0.	127.58
1494	9.	1.	0.	125.87
1495	8.5	0.5	0.	125.88
1496	-3.9997	6.4993	0.	125.03
1497	3.5	1.5	0.	124.23
1498	-5.	-5.	0.	125.59
1499	-4.	8.9999	0.	124.96
1500	5.5	2.5	0.	125.04
1501	-8.	-9.	0.	125.88
1502	6.5	1.	0.	125.61
1503	-3.5	8.4999	0.	124.7
1504	9.	2.	0.	125.75
1505	-3.0488e-008	-3.5	0.	130.28
1506	-4.9999	2.4999	0.	125.26
1507	-5.9999	6.4999	0.	128.16
1508	1.	-2.5	0.	122.39
1509	-8.5	-7.	0.	125.62
1510	-9.	-6.	0.	125.4
1511	7.	2.	0.	125.48
1512	4.5001	4.	0.	124.72
1513	-9.	-2.	0.	125.37
1514	3.5	-1.5	0.	124.08
1515	5.5	4.	0.	124.94
1516	8.	-0.5	0.	126.01
1517	-2.9999	0.99983	0.	125.07
1518	-2.4997	1.9996	0.	124.96
1519	6.5	5.	0.	125.06
1520	1.	-1.5	0.	122.72
1521	-8.5	-6.	0.	125.47
1522	6.	-1.	0.	126.32
1523	2.0001	5.9996	0.	124.57
1524	2.0002	5.4995	0.	124.52
1525	1.	7.4998	0.	124.66
1526	1.0004	4.9991	0.	124.46
1527	8.5	1.5	0.	125.75
1528	8.5	2.5	0.	125.62
1529	-5.9998	5.4998	0.	126.31
1530	3.1278e-006	8.9999	0.	124.75
1531	4.9968e-004	3.4993	0.	124.41
1532	2.	6.9998	0.	124.65
1533	2.0004	3.9993	0.	124.35
1534	1.	-1.	0.	122.98
1535	-5.5	-1.5	0.	126.03
1536	-1.	8.9999	0.	124.78
1537	0.50001	-5.4724e-005	0.	123.9
1538	9.	2.5	0.	125.69
1539	1.0004	2.9992	0.	124.21
1540	9.	5.	0.	125.34
1541	4.	9.	0.	124.8
1542	-9.	-7.	0.	125.56
1543	-8.5	0.5	0.	125.47
1544	9.	4.	0.	125.48
1545	-3.5	-7.	0.	124.96
1546	-3.	8.9999	0.	124.86
1547	-1.5	-8.5	0.	125.63
1548	-1.5	-1.5	0.	125.51
1549	-4.5	-8.5	0.	125.9
1550	-6.	-3.	0.	125.83
1551	9.	-1.8664e-009	0.	125.94
1552	9.	3.	0.	125.62
1553	-9.	6.	0.	127.57
1554	9.	-4.	0.	125.64
1555	-2.	-8.	0.	125.32
1556	5.5	-4.	0.	126.29
1557	-1.5	-0.50002	0.	125.09
1558	-1.9994	4.9992	0.	124.78
1559	5.6429e-004	4.4991	0.	124.48
1560	-5.5	-5.	0.	125.48
1561	-2.9996	2.4994	0.	125.06
1562	-0.49999	8.4999	0.	124.72
1563	-7.	-6.	0.	125.65
1564	-9.	-5.	0.	125.28
1565	-4.	8.4999	0.	124.75
1566	-2.	-7.	0.	124.37
1567	9.5	-6.5782e-010	0.	125.99
1568	4.	9.5	0.	124.79
1569	6.5	2.	0.	125.38
1570	-5.	-5.8591e-006	0.	125.58
1571	3.5	0.49999	0.	124.08
1572	-3.5	-6.5	0.	125.09
1573	0.5	-7.5	0.	125.2
1574	-0.99938	4.4994	0.	124.61
1575	5.6543e-004	3.9992	0.	124.45
1576	-0.99947	4.9994	0.	124.61
1577	-6.5	2.5	0.	125.06
1578	-6.	-7.	0.	126.1
1579	-9.	-1.	0.	125.44
1580	-3.	-0.50003	0.	124.99
1581	-1.	-4.	0.	128.1
1582	-0.5	-4.5	0.	126.86
1583	3.	-9.	0.	121.89
1584	1.	-2.	0.	122.47
1585	7.5	3.	0.	125.41
1586	-5.5	-0.5	0.	125.75
1587	6.	7.5	0.	124.92
1588	5.	2.	0.	124.92
1589	1.0005	4.499	0.	124.41
1590	2.0004	2.9995	0.	124.19
1591	6.	4.	0.	125.04
1592	-6.	-9.	0.	126.08
1593	8.5	6.5	0.	125.15
1594	-2.	-9.	0.	125.47
1595	-4.9998	6.4996	0.	125.82
1596	3.5	-8.4222e-006	0.	124.
1597	4.	6.5	0.	124.75
1598	4.0001	3.9999	0.	124.62
1599	2.0003	4.9994	0.	124.47
1600	2.0004	4.4993	0.	124.42
1601	-7.	-9.	0.	126.
1602	-5.	-4.	0.	125.62
1603	6.	-7.	0.	126.85
1604	-1.9995	5.4993	0.	124.73
1605	1.0002	5.9994	0.	124.54
1606	-2.9998	6.4993	0.	124.73
1607	8.5	-4.5	0.	125.7
1608	4.5	8.5	0.	124.83
1609	3.0002	4.4997	0.	124.5
1610	1.5001	5.9995	0.	124.55
1611	5.	-7.5	0.	127.47
1612	6.	-4.	0.	126.03
1613	-6.	-1.5	0.	125.93
1614	-2.5	8.4999	0.	124.71
1615	-6.	-5.	0.	125.44
1616	7.	4.	0.	125.21
1617	-6.	-6.	0.	125.87
1618	-0.5	-1.	0.	125.41
1619	-7.5	2.	0.	125.17
1620	-1.4998	1.9998	0.	124.72
1621	-2.9991	3.9988	0.	125.09
1622	-3.	-2.	0.	124.07
1623	-1.9992	3.4993	0.	124.83
1624	-9.	7.	0.	127.61
1625	-9.	8.	0.	127.44
1626	9.	-7.	0.	126.18
1627	-5.	8.9999	0.	125.46
1628	7.	3.	0.	125.32
1629	4.	-9.	0.	124.49
1630	1.	-9.	0.	121.77
1631	-6.	9.	0.	127.05
1632	3.5	-1.	0.	123.94
1633	6.5	6.	0.	125.01
1634	-8.5	-6.5	0.	125.55
1635	9.	7.	0.	125.13
1636	8.5	4.5	0.	125.36
1637	-9.	2.5752e-007	0.	125.48
1638	-5.5	-8.5	0.	126.1
1639	-2.9995	5.4989	0.	124.97
1640	3.7363e-004	5.4993	0.	124.53
1641	-3.4996	2.4995	0.	125.16
1642	-2.	-6.5	0.	123.4
1643	3.5	0.99998	0.	124.16
1644	8.5	5.5	0.	125.25
1645	-2.9999	6.9995	0.	124.63
1646	-0.5	-4.	0.	127.95
1647	-5.4998	6.4998	0.	126.67
1648	-3.5	-8.5	0.	125.49
1649	4.0001	4.9999	0.	124.68
1650	3.	6.4999	0.	124.67
1651	-5.5	-7.5	0.	126.19
1652	-8.5	-3.5	0.	125.33
1653	-5.	-3.5	0.	126.13
1654	-8.5	-5.5	0.	125.4
1655	4.5	2.	0.	124.72
1656	-4.4999	7.9998	0.	124.74
1657	-3.	0.49989	0.	125.07
1658	-5.	-0.5	0.	125.7
1659	1.	-0.50004	0.	123.22
1660	-1.5	-7.5	0.	125.91
1661	-1.9992	4.4991	0.	124.81
1662	-7.5	1.	0.	125.39
1663	-7.5	3.	0.	124.83
1664	7.	1.	0.	125.69
1665	6.	7.	0.	124.93
1666	1.0001	6.4995	0.	124.58
1667	-3.9996	5.9992	0.	125.26
1668	4.	-3.8986e-006	0.	124.55
1669	5.	4.	0.	124.83
1670	3.6688e-004	2.9994	0.	124.37
1671	1.	-4.25	0.	137.61
1672	1.25	-4.	0.	122.41
1673	0.75	-4.	0.	131.78
1674	1.	-3.75	0.	128.95
1675	1.	-5.75	0.	137.81
1676	1.25	-6.	0.	122.5
1677	0.75	-6.	0.	131.99
1678	1.	-6.25	0.	128.99
1679	2.75	-4.	0.	122.48
1680	3.	-4.25	0.	137.8
1681	3.	-3.75	0.	128.94
1682	3.25	-4.	0.	131.85
1683	2.75	-6.	0.	122.28
1684	3.	-5.75	0.	137.57
1685	3.25	-6.	0.	131.63
1686	3.	-6.25	0.	128.58
1687	-3.	-4.25	0.	136.93
1688	-2.75	-4.	0.	121.08
1689	-3.	-3.75	0.	127.63
1690	-3.25	-4.	0.	130.47
1691	-3.	-4.75	0.	136.8
1692	-2.75	-5.	0.	120.77
1693	-3.	-5.25	0.	127.29
1694	-3.25	-5.	0.	130.27
1695	-2.25	-4.	0.	121.26
1696	-2.	-4.25	0.	137.01
1697	-2.	-3.75	0.	128.12
1698	-1.75	-4.	0.	130.93
1699	-2.25	-5.	0.	120.79
1700	-2.	-4.75	0.	136.71
1701	-1.75	-5.	0.	130.31
1702	-2.	-5.25	0.	127.46
1703	-8.	7.75	0.	138.43
1704	-7.75	8.	0.	122.57
1705	-8.	8.25	0.	129.03
1706	-8.25	8.	0.	131.76
1707	-8.	7.25	0.	138.11
1708	-7.75	7.	0.	122.06
1709	-8.	6.75	0.	128.3
1710	-8.25	7.	0.	131.4
1711	-7.25	8.	0.	122.44
1712	-7.	7.75	0.	138.08
1713	-7.	8.25	0.	128.86
1714	-6.75	8.	0.	131.46
1715	-7.25	7.	0.	122.05
1716	-7.	7.25	0.	137.89
1717	-6.75	7.	0.	131.19
1718	-7.	6.75	0.	128.35
1719	9.75	10.	0.	125.
1720	10.	9.75	0.	125.
1721	-9.75	10.	0.	125.
1722	-10.	9.75	0.	124.99
1723	10.	-9.75	0.	127.12
1724	9.75	-10.	0.	127.02
1725	-10.	-9.75	0.	125.91
1726	-9.75	-10.	0.	125.88
1727	1.	-4.75	0.	142.59
1728	0.75	-4.5	0.	137.31
1729	1.	-5.25	0.	142.7
1730	0.75	-5.	0.	138.68
1731	0.75	-5.5	0.	137.56
1732	1.75	-4.	0.	114.25
1733	1.5	-3.75	0.	112.39
1734	2.25	-4.	0.	114.27
1735	2.	-3.75	0.	114.53
1736	2.5	-3.75	0.	112.4
1737	1.75	-6.	0.	114.21
1738	1.5	-6.25	0.	112.33
1739	2.25	-6.	0.	114.21
1740	2.	-6.25	0.	114.42
1741	2.5	-6.25	0.	112.28
1742	3.	-4.75	0.	142.8
1743	3.25	-4.5	0.	137.51
1744	3.	-5.25	0.	142.75
1745	3.25	-5.	0.	138.77
1746	3.25	-5.5	0.	137.4
1747	-3.25	-4.5	0.	135.29
1748	-2.5	-3.75	0.	111.26
1749	-2.5	-5.25	0.	110.83
1750	-1.75	-4.5	0.	135.38
1751	-8.25	7.5	0.	136.57
1752	-7.5	8.25	0.	112.46
1753	-7.5	6.75	0.	111.94
1754	-6.75	7.5	0.	136.2
1755	9.25	10.	0.	125.
1756	9.5	9.75	0.	125.
1757	8.75	10.	0.	125.
1758	9.	9.75	0.	125.
1759	8.25	10.	0.	124.99
1760	8.5	9.75	0.	125.
1761	7.75	10.	0.	124.98
1762	8.	9.75	0.	124.98
1763	7.25	10.	0.	124.96
1764	7.5	9.75	0.	124.96
1765	6.75	10.	0.	124.93
1766	7.	9.75	0.	124.94
1767	6.25	10.	0.	124.9
1768	6.5	9.75	0.	124.92
1769	5.75	10.	0.	124.87
1770	6.	9.75	0.	124.89
1771	5.25	10.	0.	124.84
1772	5.5	9.75	0.	124.86
1773	4.75	10.	0.	124.81
1774	5.	9.75	0.	124.83
1775	4.25	10.	0.	124.78
1776	4.5	9.75	0.	124.8
1777	3.75	10.	0.	124.76
1778	4.	9.75	0.	124.78
1779	3.25	10.	0.	124.73
1780	3.5	9.75	0.	124.76
1781	2.75	10.	0.	124.72
1782	3.	9.75	0.	124.74
1783	2.25	10.	0.	124.71
1784	2.5	9.75	0.	124.73
1785	1.75	10.	0.	124.7
1786	2.	9.75	0.	124.72
1787	1.25	10.	0.	124.7
1788	1.5	9.75	0.	124.72
1789	0.75	10.	0.	124.71
1790	1.	9.75	0.	124.72
1791	0.25	10.	0.	124.73
1792	0.5	9.75	0.	124.73
1793	-0.25	10.	0.	124.76
1794	3.444e-007	9.75	0.	124.75
1795	-0.75	10.	0.	124.8
1796	-0.5	9.75	0.	124.78
1797	-1.25	10.	0.	124.85
1798	-1.	9.75	0.	124.82
1799	-1.75	10.	0.	124.92
1800	-1.5	9.75	0.	124.87
1801	-2.25	10.	0.	125.
1802	-2.	9.75	0.	124.93
1803	-2.75	10.	0.	125.12
1804	-2.5	9.75	0.	125.01
1805	-3.25	10.	0.	125.25
1806	-3.	9.75	0.	125.11
1807	-3.75	10.	0.	125.42
1808	-3.5	9.75	0.	125.23
1809	-4.25	10.	0.	125.61
1810	-4.	9.75	0.	125.37
1811	-4.75	10.	0.	125.77
1812	-4.5	9.75	0.	125.52
1813	-5.25	10.	0.	125.81
1814	-5.	9.75	0.	125.66
1815	-5.75	10.	0.	125.52
1816	-5.5	9.75	0.	125.7
1817	-6.25	10.	0.	124.73
1818	-6.	9.75	0.	125.44
1819	-6.75	10.	0.	123.59
1820	-6.5	9.75	0.	124.57
1821	-7.25	10.	0.	122.69
1822	-7.	9.75	0.	123.29
1823	-7.75	10.	0.	122.6
1824	-7.5	9.75	0.	122.59
1825	-8.25	10.	0.	123.3
1826	-8.	9.75	0.	123.15
1827	-8.75	10.	0.	124.23
1828	-8.5	9.75	0.	124.28
1829	-9.25	10.	0.	124.82
1830	-9.	9.75	0.	124.97
1831	-9.5	9.75	0.	125.09
1832	10.	9.25	0.	124.99
1833	9.75	9.5	0.	125.
1834	10.	8.75	0.	125.
1835	9.75	9.	0.	125.
1836	10.	8.25	0.	125.01
1837	9.75	8.5	0.	125.01
1838	10.	7.75	0.	125.04
1839	9.75	8.	0.	125.04
1840	10.	7.25	0.	125.09
1841	9.75	7.5	0.	125.07
1842	10.	6.75	0.	125.14
1843	9.75	7.	0.	125.12
1844	10.	6.25	0.	125.2
1845	9.75	6.5	0.	125.18
1846	10.	5.75	0.	125.28
1847	9.75	6.	0.	125.24
1848	10.	5.25	0.	125.36
1849	9.75	5.5	0.	125.31
1850	10.	4.75	0.	125.44
1851	9.75	5.	0.	125.39
1852	10.	4.25	0.	125.53
1853	9.75	4.5	0.	125.47
1854	10.	3.75	0.	125.63
1855	9.75	4.	0.	125.56
1856	10.	3.25	0.	125.72
1857	9.75	3.5	0.	125.64
1858	10.	2.75	0.	125.82
1859	9.75	3.	0.	125.73
1860	10.	2.25	0.	125.9
1861	9.75	2.5	0.	125.81
1862	10.	1.75	0.	125.98
1863	9.75	2.	0.	125.89
1864	10.	1.25	0.	126.04
1865	9.75	1.5	0.	125.96
1866	10.	0.75	0.	126.08
1867	9.75	1.	0.	126.01
1868	10.	0.25	0.	126.1
1869	9.75	0.5	0.	126.04
1870	10.	-0.25	0.	126.08
1871	9.75	-3.2891e-010	0.	126.04
1872	10.	-0.75	0.	126.03
1873	9.75	-0.5	0.	126.02
1874	10.	-1.25	0.	125.95
1875	9.75	-1.	0.	125.97
1876	10.	-1.75	0.	125.83
1877	9.75	-1.5	0.	125.89
1878	10.	-2.25	0.	125.69
1879	9.75	-2.	0.	125.78
1880	10.	-2.75	0.	125.54
1881	9.75	-2.5	0.	125.67
1882	10.	-3.25	0.	125.4
1883	9.75	-3.	0.	125.54
1884	10.	-3.75	0.	125.29
1885	9.75	-3.5	0.	125.44
1886	10.	-4.25	0.	125.23
1887	9.75	-4.	0.	125.37
1888	10.	-4.75	0.	125.24
1889	9.75	-4.5	0.	125.35
1890	10.	-5.25	0.	125.31
1891	9.75	-5.	0.	125.39
1892	10.	-5.75	0.	125.46
1893	9.75	-5.5	0.	125.49
1894	10.	-6.25	0.	125.67
1895	9.75	-6.	0.	125.65
1896	10.	-6.75	0.	125.93
1897	9.75	-6.5	0.	125.86
1898	10.	-7.25	0.	126.2
1899	9.75	-7.	0.	126.09
1900	10.	-7.75	0.	126.47
1901	9.75	-7.5	0.	126.33
1902	10.	-8.25	0.	126.72
1903	9.75	-8.	0.	126.56
1904	10.	-8.75	0.	126.92
1905	9.75	-8.5	0.	126.75
1906	10.	-9.25	0.	127.05
1907	9.75	-9.	0.	126.9
1908	9.75	-9.5	0.	126.99
1909	-10.	9.25	0.	124.96
1910	-9.75	9.5	0.	125.08
1911	-10.	8.75	0.	124.69
1912	-9.75	9.	0.	125.34
1913	-10.	8.25	0.	124.
1914	-9.75	8.5	0.	125.17
1915	-10.	7.75	0.	123.43
1916	-9.75	8.	0.	124.56
1917	-10.	7.25	0.	123.87
1918	-9.75	7.5	0.	124.4
1919	-10.	6.75	0.	125.29
1920	-9.75	7.	0.	125.24
1921	-10.	6.25	0.	126.73
1922	-9.75	6.5	0.	126.49
1923	-10.	5.75	0.	127.46
1924	-9.75	6.	0.	127.19
1925	-10.	5.25	0.	127.44
1926	-9.75	5.5	0.	127.22
1927	-10.	4.75	0.	127.07
1928	-9.75	5.	0.	126.9
1929	-10.	4.25	0.	126.63
1930	-9.75	4.5	0.	126.53
1931	-10.	3.75	0.	126.27
1932	-9.75	4.	0.	126.22
1933	-10.	3.25	0.	126.02
1934	-9.75	3.5	0.	125.98
1935	-10.	2.75	0.	125.85
1936	-9.75	3.	0.	125.82
1937	-10.	2.25	0.	125.74
1938	-9.75	2.5	0.	125.72
1939	-10.	1.75	0.	125.67
1940	-9.75	2.	0.	125.65
1941	-10.	1.25	0.	125.62
1942	-9.75	1.5	0.	125.61
1943	-10.	0.75	0.	125.58
1944	-9.75	1.	0.	125.57
1945	-10.	0.25	0.	125.53
1946	-9.75	0.5	0.	125.54
1947	-10.	-0.25	0.	125.48
1948	-9.75	7.5786e-008	0.	125.5
1949	-10.	-0.75	0.	125.42
1950	-9.75	-0.5	0.	125.45
1951	-10.	-1.25	0.	125.35
1952	-9.75	-1.	0.	125.4
1953	-10.	-1.75	0.	125.27
1954	-9.75	-1.5	0.	125.33
1955	-10.	-2.25	0.	125.18
1956	-9.75	-2.	0.	125.26
1957	-10.	-2.75	0.	125.1
1958	-9.75	-2.5	0.	125.19
1959	-10.	-3.25	0.	125.03
1960	-9.75	-3.	0.	125.13
1961	-10.	-3.75	0.	124.99
1962	-9.75	-3.5	0.	125.08
1963	-10.	-4.25	0.	124.97
1964	-9.75	-4.	0.	125.06
1965	-10.	-4.75	0.	125.
1966	-9.75	-4.5	0.	125.06
1967	-10.	-5.25	0.	125.05
1968	-9.75	-5.	0.	125.1
1969	-10.	-5.75	0.	125.14
1970	-9.75	-5.5	0.	125.17
1971	-10.	-6.25	0.	125.26
1972	-9.75	-6.	0.	125.26
1973	-10.	-6.75	0.	125.38
1974	-9.75	-6.5	0.	125.36
1975	-10.	-7.25	0.	125.51
1976	-9.75	-7.	0.	125.48
1977	-10.	-7.75	0.	125.64
1978	-9.75	-7.5	0.	125.59
1979	-10.	-8.25	0.	125.74
1980	-9.75	-8.	0.	125.69
1981	-10.	-8.75	0.	125.83
1982	-9.75	-8.5	0.	125.77
1983	-10.	-9.25	0.	125.88
1984	-9.75	-9.	0.	125.83
1985	-9.75	-9.5	0.	125.87
1986	-9.25	-10.	0.	125.84
1987	-9.5	-9.75	0.	125.84
1988	-8.75	-10.	0.	125.84
1989	-9.	-9.75	0.	125.83
1990	-8.25	-10.	0.	125.88
1991	-8.5	-9.75	0.	125.85
1992	-7.75	-10.	0.	125.93
1993	-8.	-9.75	0.	125.9
1994	-7.25	-10.	0.	125.98
1995	-7.5	-9.75	0.	125.95
1996	-6.75	-10.	0.	126.03
1997	-7.	-9.75	0.	126.01
1998	-6.25	-10.	0.	126.06
1999	-6.5	-9.75	0.	126.05
2000	-5.75	-10.	0.	126.06
2001	-6.	-9.75	0.	126.07
2002	-5.25	-10.	0.	126.02
2003	-5.5	-9.75	0.	126.05
2004	-4.75	-10.	0.	125.95
2005	-5.	-9.75	0.	126.
2006	-4.25	-10.	0.	125.85
2007	-4.5	-9.75	0.	125.91
2008	-3.75	-10.	0.	125.75
2009	-4.	-9.75	0.	125.79
2010	-3.25	-10.	0.	125.65
2011	-3.5	-9.75	0.	125.68
2012	-2.75	-10.	0.	125.57
2013	-3.	-9.75	0.	125.59
2014	-2.25	-10.	0.	125.5
2015	-2.5	-9.75	0.	125.53
2016	-1.75	-10.	0.	125.38
2017	-2.	-9.75	0.	125.46
2018	-1.25	-10.	0.	125.15
2019	-1.5	-9.75	0.	125.32
2020	-0.75	-10.	0.	124.73
2021	-1.	-9.75	0.	125.04
2022	-0.25	-10.	0.	124.08
2023	-0.5	-9.75	0.	124.52
2024	0.25	-10.	0.	123.24
2025	4.3088e-012	-9.75	0.	123.75
2026	0.75	-10.	0.	122.32
2027	0.5	-9.75	0.	122.8
2028	1.25	-10.	0.	121.54
2029	1.	-9.75	0.	121.86
2030	1.75	-10.	0.	121.1
2031	1.5	-9.75	0.	121.16
2032	2.25	-10.	0.	121.14
2033	2.	-9.75	0.	120.92
2034	2.75	-10.	0.	121.67
2035	2.5	-9.75	0.	121.24
2036	3.25	-10.	0.	122.57
2037	3.	-9.75	0.	122.03
2038	3.75	-10.	0.	123.64
2039	3.5	-9.75	0.	123.1
2040	4.25	-10.	0.	124.67
2041	4.	-9.75	0.	124.22
2042	4.75	-10.	0.	125.53
2043	4.5	-9.75	0.	125.2
2044	5.25	-10.	0.	126.16
2045	5.	-9.75	0.	125.94
2046	5.75	-10.	0.	126.56
2047	5.5	-9.75	0.	126.44
2048	6.25	-10.	0.	126.78
2049	6.	-9.75	0.	126.72
2050	6.75	-10.	0.	126.86
2051	6.5	-9.75	0.	126.85
2052	7.25	-10.	0.	126.86
2053	7.	-9.75	0.	126.88
2054	7.75	-10.	0.	126.83
2055	7.5	-9.75	0.	126.84
2056	8.25	-10.	0.	126.79
2057	8.	-9.75	0.	126.8
2058	8.75	-10.	0.	126.79
2059	8.5	-9.75	0.	126.77
2060	9.25	-10.	0.	126.85
2061	9.	-9.75	0.	126.79
2062	9.5	-9.75	0.	126.89
2063	-0.2498	2.4997	0.	124.39
2064	-0.74979	2.4998	0.	124.52
2065	-0.49985	2.2498	0.	124.44
2066	-0.49973	2.7497	0.	124.46
2067	2.7502	2.4998	0.	124.18
2068	2.5002	2.2498	0.	124.07
2069	2.5002	2.7497	0.	124.18
2070	2.2502	2.4997	0.	124.1
2071	1.2503	2.4994	0.	124.1
2072	1.5004	2.7493	0.	124.13
2073	1.5002	2.2495	0.	124.02
2074	1.7503	2.4995	0.	124.08
2075	0.25024	2.4995	0.	124.27
2076	1.7154e-004	2.2497	0.	124.3
2077	2.9259e-004	2.7495	0.	124.35
2078	-1.2497	2.4998	0.	124.65
2079	-0.99968	2.7497	0.	124.59
2080	-0.99981	2.2498	0.	124.58
2081	-2.4994	2.7493	0.	124.95
2082	-2.2496	2.4995	0.	124.89
2083	-2.4996	2.2495	0.	124.96
2084	-2.7495	2.4994	0.	125.01
2085	-2.7493	2.9992	0.	125.01
2086	-2.4992	3.2491	0.	124.96
2087	-2.2493	2.9993	0.	124.89
2088	2.2501	1.9998	0.	123.98
2089	1.7502	1.9997	0.	123.95
2090	2.0001	1.7498	0.	123.87
2091	2.0002	2.2497	0.	124.01
2092	-0.24988	1.9998	0.	124.36
2093	-0.74988	1.9998	0.	124.51
2094	-0.49992	1.7499	0.	124.43
2095	3.0002	2.7499	0.	124.27
2096	3.0001	2.2499	0.	124.18
2097	3.2501	2.4999	0.	124.3
2098	2.7501	1.9999	0.	124.07
2099	2.5001	1.7499	0.	123.93
2100	0.75028	2.4994	0.	124.17
2101	1.0002	2.2495	0.	124.08
2102	1.0004	2.7493	0.	124.17
2103	0.50033	2.7493	0.	124.25
2104	0.50021	2.2495	0.	124.18
2105	-1.7496	2.4997	0.	124.77
2106	-1.4996	2.7497	0.	124.71
2107	-1.4997	2.2498	0.	124.71
2108	-1.9997	2.2497	0.	124.84
2109	-1.9995	2.7495	0.	124.83
2110	-1.2495	2.9996	0.	124.65
2111	-1.4994	3.2495	0.	124.71
2112	-1.7494	2.9995	0.	124.77
2113	-0.74962	2.9997	0.	124.53
2114	-0.99953	3.2496	0.	124.6
2115	-0.49958	3.2496	0.	124.49
2116	-0.24964	2.9995	0.	124.42
2117	0.50047	3.2491	0.	124.31
2118	0.75042	2.9992	0.	124.25
2119	0.25038	2.9993	0.	124.32
2120	1.5005	3.2492	0.	124.22
2121	1.2504	2.9992	0.	124.2
2122	1.7504	2.9994	0.	124.18
2123	2.7502	2.9998	0.	124.27
2124	2.5003	3.2496	0.	124.27
2125	2.2503	2.9996	0.	124.21
2126	3.0002	3.2498	0.	124.35
2127	3.2502	2.9999	0.	124.37
2128	-3.2494	2.9992	0.	125.12
2129	-2.9992	3.249	0.	125.08
2130	-2.9994	2.7493	0.	125.07
2131	1.2502	1.9996	0.	123.99
2132	1.5001	1.7497	0.	123.88
2133	0.25014	1.9997	0.	124.21
2134	9.5315e-005	1.7498	0.	124.27
2135	-0.99989	1.7499	0.	124.59
2136	-1.2498	1.9998	0.	124.65
2137	3.2501	1.9999	0.	124.22
2138	3.0001	1.7499	0.	124.07
2139	1.7501	1.4998	0.	123.8
2140	2.2501	1.4999	0.	123.82
2141	2.0001	1.2499	0.	123.68
2142	-3.2498	1.9996	0.	125.11
2143	-2.9998	1.7497	0.	125.06
2144	-2.7497	1.9996	0.	125.01
2145	-2.9996	2.2495	0.	125.06
2146	-0.24994	1.4999	0.	124.34
2147	-0.74994	1.4999	0.	124.52
2148	-0.49996	1.2499	0.	124.45
2149	2.7503	3.4997	0.	124.35
2150	3.2502	3.4998	0.	124.43
2151	3.0002	3.7498	0.	124.42
2152	-3.4994	3.2491	0.	125.18
2153	-3.7494	3.4991	0.	125.24
2154	-3.4992	3.7489	0.	125.21
2155	-3.2492	3.499	0.	125.14
2156	0.75017	1.9996	0.	124.08
2157	1.0001	1.7497	0.	123.97
2158	0.50012	1.7497	0.	124.1
2159	-1.9998	1.7498	0.	124.85
2160	-2.2497	1.9997	0.	124.9
2161	-1.7498	1.9998	0.	124.78
2162	-2.499	3.7489	0.	124.95
2163	-2.7491	3.499	0.	125.02
2164	-2.2491	3.4991	0.	124.89
2165	-1.2494	3.4995	0.	124.66
2166	-1.4993	3.7494	0.	124.71
2167	-1.7493	3.4994	0.	124.77
2168	-0.74948	3.4995	0.	124.55
2169	-0.99941	3.7495	0.	124.61
2170	-0.49946	3.7494	0.	124.51
2171	-0.2495	3.4994	0.	124.45
2172	0.75055	3.499	0.	124.31
2173	0.50057	3.749	0.	124.36
2174	0.25052	3.4992	0.	124.37
2175	1.2506	3.499	0.	124.28
2176	1.0006	3.7489	0.	124.32
2177	1.0005	3.2491	0.	124.25
2178	1.7505	3.4992	0.	124.27
2179	1.5005	3.7491	0.	124.3
2180	2.2504	3.4995	0.	124.3
2181	2.0004	3.7493	0.	124.31
2182	2.0004	3.2494	0.	124.23
2183	2.5003	3.7496	0.	124.35
2184	3.5001	2.7499	0.	124.4
2185	3.5002	3.2499	0.	124.45
2186	3.7501	2.9999	0.	124.5
2187	3.5001	2.2499	0.	124.34
2188	3.7501	2.5	0.	124.45
2189	-3.7495	2.9993	0.	125.21
2190	-3.4995	2.7494	0.	125.16
2191	1.2501	1.4997	0.	123.86
2192	1.5001	1.2498	0.	123.71
2193	0.25008	1.4998	0.	124.16
2194	4.8808e-005	1.2499	0.	124.24
2195	3.75	2.	0.	124.41
2196	3.5	1.75	0.	124.27
2197	2.7501	1.4999	0.	123.94
2198	2.5001	1.2499	0.	123.76
2199	-3.4998	1.7497	0.	125.16
2200	-3.7498	1.9997	0.	125.19
2201	-3.4997	2.2496	0.	125.15
2202	-0.99995	1.2499	0.	124.62
2203	-1.2499	1.4999	0.	124.67
2204	-2.7499	1.4997	0.	125.02
2205	-2.2499	1.4998	0.	124.91
2206	-2.4999	1.2498	0.	124.97
2207	-2.4998	1.7497	0.	124.96
2208	3.5002	3.7499	0.	124.5
2209	3.7501	3.4999	0.	124.54
2210	1.7501	0.99986	0.	123.6
2211	2.25	0.99991	0.	123.62
2212	2.	0.74991	0.	123.45
2213	-0.24997	0.99991	0.	124.35
2214	-0.74997	0.99994	0.	124.55
2215	-0.49998	0.74995	0.	124.5
2216	-3.9995	3.2493	0.	125.27
2217	-4.2495	3.4994	0.	125.32
2218	-3.9994	3.7492	0.	125.32
2219	-3.7492	3.9989	0.	125.29
2220	-3.4991	4.2487	0.	125.23
2221	-3.2491	3.9987	0.	125.16
2222	0.7501	1.4997	0.	123.99
2223	1.0001	1.2498	0.	123.84
2224	0.50007	1.2498	0.	124.03
2225	3.	1.25	0.	123.94
2226	3.25	1.5	0.	124.12
2227	-3.2499	1.4998	0.	125.11
2228	-2.9999	1.2498	0.	125.07
2229	-3.7499	1.4998	0.	125.2
2230	-3.4999	1.2498	0.	125.16
2231	-1.9999	1.2499	0.	124.87
2232	-1.7499	1.4999	0.	124.8
2233	-2.499	4.2488	0.	124.94
2234	-2.2491	3.999	0.	124.89
2235	-2.749	3.9988	0.	125.02
2236	-1.2493	3.9994	0.	124.66
2237	-1.4993	4.2494	0.	124.71
2238	-1.7492	3.9993	0.	124.77
2239	-0.7494	3.9994	0.	124.57
2240	-0.99937	4.2494	0.	124.61
2241	-0.49942	4.2494	0.	124.53
2242	-0.24943	3.9993	0.	124.48
2243	0.7506	3.9989	0.	124.37
2244	0.50059	4.2489	0.	124.41
2245	0.25059	3.9991	0.	124.42
2246	1.2506	3.999	0.	124.35
2247	1.0006	4.2489	0.	124.38
2248	1.5005	4.2491	0.	124.37
2249	1.7505	3.9992	0.	124.35
2250	2.5003	4.2496	0.	124.42
2251	2.7503	3.9996	0.	124.42
2252	2.2504	3.9994	0.	124.37
2253	3.5002	4.2499	0.	124.55
2254	3.2502	3.9998	0.	124.49
2255	3.7501	3.9999	0.	124.57
2256	4.0001	3.2499	0.	124.58
2257	4.2501	3.5	0.	124.65
2258	4.0001	3.7499	0.	124.61
2259	4.0001	2.75	0.	124.55
2260	4.2501	3.	0.	124.64
2261	4.25	2.5	0.	124.62
2262	4.	2.25	0.	124.52
2263	4.	1.25	0.	124.49
2264	4.25	1.5	0.	124.62
2265	4.	1.75	0.	124.5
2266	3.75	1.5	0.	124.36
2267	-3.9999	1.7498	0.	125.23
2268	-3.9999	1.2499	0.	125.25
2269	-4.2499	1.4999	0.	125.27
2270	-4.2499	1.9998	0.	125.25
2271	-3.9998	2.2497	0.	125.22
2272	-4.2497	2.9996	0.	125.27
2273	-3.9997	2.7495	0.	125.24
2274	1.2501	0.99982	0.	123.7
2275	1.5	0.74986	0.	123.5
2276	0.25004	0.99987	0.	124.12
2277	2.2691e-005	0.74992	0.	124.25
2278	2.75	0.99995	0.	123.77
2279	2.5	0.74994	0.	123.54
2280	-1.25	0.99994	0.	124.71
2281	-0.99998	0.74995	0.	124.68
2282	-2.2499	0.99987	0.	124.93
2283	-2.4999	0.74987	0.	124.98
2284	-2.7499	0.99984	0.	125.03
2285	4.25	0.99999	0.	124.64
2286	4.	0.74999	0.	124.49
2287	3.75	0.99998	0.	124.32
2288	-3.75	0.99989	0.	125.22
2289	-4.25	0.99994	0.	125.3
2290	-4.	0.74994	0.	125.28
2291	1.75	0.49991	0.	123.35
2292	2.25	0.49994	0.	123.36
2293	2.	0.24994	0.	123.13
2294	-0.24999	0.49995	0.	124.4
2295	-0.74999	0.49996	0.	124.63
2296	-0.49999	0.24997	0.	124.61
2297	3.7501	4.4999	0.	124.61
2298	4.2501	4.5	0.	124.69
2299	4.0001	4.2499	0.	124.63
2300	4.0001	4.7499	0.	124.66
2301	-4.4997	3.2496	0.	125.31
2302	-4.4996	3.7495	0.	125.39
2303	-4.7497	3.4996	0.	125.34
2304	-4.2495	3.9992	0.	125.39
2305	-3.9993	4.249	0.	125.38
2306	-3.2491	4.4986	0.	125.16
2307	-3.7492	4.4988	0.	125.32
2308	-3.4992	4.7486	0.	125.23
2309	0.75005	0.99983	0.	123.88
2310	1.	0.74985	0.	123.69
2311	0.50003	0.74988	0.	123.96
2312	3.	0.74997	0.	123.78
2313	3.25	0.99997	0.	124.01
2314	-3.5	0.7499	0.	125.18
2315	-3.2499	0.99985	0.	125.12
2316	-1.7499	0.99991	0.	124.83
2317	-1.4999	1.2499	0.	124.76
2318	-1.5	0.74994	0.	124.81
2319	-2.	0.74991	0.	124.9
2320	-2.7491	4.4987	0.	125.01
2321	-2.9992	4.7487	0.	125.06
2322	-2.9991	4.2487	0.	125.08
2323	-2.4992	4.7489	0.	124.91
2324	-2.2492	4.499	0.	124.87
2325	-1.4994	4.7494	0.	124.69
2326	-1.2493	4.4994	0.	124.66
2327	-1.7492	4.4993	0.	124.76
2328	-0.49946	4.7493	0.	124.54
2329	-0.24943	4.4992	0.	124.51
2330	-0.7494	4.4994	0.	124.57
2331	0.50052	4.749	0.	124.45
2332	0.25057	4.499	0.	124.46
2333	0.75055	4.499	0.	124.42
2334	2.5003	4.7496	0.	124.48
2335	2.2503	4.4994	0.	124.43
2336	2.7503	4.4996	0.	124.48
2337	3.5001	4.7499	0.	124.59
2338	3.2502	4.4998	0.	124.54
2339	4.5001	3.25	0.	124.71
2340	4.75	3.5	0.	124.78
2341	4.5001	3.75	0.	124.72
2342	4.5	2.75	0.	124.71
2343	4.75	3.	0.	124.78
2344	4.75	2.5	0.	124.8
2345	4.5	2.25	0.	124.72
2346	4.5	1.25	0.	124.78
2347	4.75	1.5	0.	124.87
2348	4.5	1.75	0.	124.74
2349	4.5	0.75	0.	124.85
2350	4.75	1.	0.	124.95
2351	4.25	0.5	0.	124.7
2352	4.5	0.25	0.	124.97
2353	4.75	0.5	0.	125.06
2354	-4.5	0.74997	0.	125.37
2355	-4.25	0.49997	0.	125.35
2356	-4.5	0.24998	0.	125.44
2357	-4.75	0.49999	0.	125.44
2358	-4.5	1.2499	0.	125.32
2359	-4.75	0.99997	0.	125.37
2360	-4.4999	1.7499	0.	125.28
2361	-4.75	1.4999	0.	125.31
2362	-4.7499	1.9999	0.	125.27
2363	-4.4998	2.2498	0.	125.27
2364	-4.7498	2.9997	0.	125.28
2365	-4.4998	2.7497	0.	125.27
2366	1.5	0.24991	0.	123.23
2367	1.25	0.49989	0.	123.5
2368	0.25002	0.49992	0.	124.1
2369	9.3255e-006	0.24995	0.	124.3
2370	3.75	0.49999	0.	124.29
2371	4.	0.25	0.	124.52
2372	2.75	0.49997	0.	123.56
2373	2.5	0.24996	0.	123.26
2374	-3.75	0.49994	0.	125.24
2375	-4.	0.24996	0.	125.32
2376	-0.99999	0.24997	0.	124.8
2377	-1.25	0.49996	0.	124.79
2378	-2.25	0.49992	0.	124.95
2379	-2.5	0.24992	0.	124.98
2380	-2.75	0.4999	0.	125.03
2381	4.5	4.75	0.	124.74
2382	4.75	4.5	0.	124.78
2383	4.5	4.25	0.	124.73
2384	4.5	-0.25	0.	125.16
2385	4.75	-1.0731e-006	0.	125.23
2386	4.25	-2.6439e-006	0.	124.8
2387	1.75	-5.3946e-005	0.	123.02
2388	2.25	-3.5014e-005	0.	123.02
2389	2.	-0.25003	0.	122.71
2390	-4.25	-1.8421e-005	0.	125.41
2391	-4.5	-0.25001	0.	125.54
2392	-4.75	-8.7871e-006	0.	125.53
2393	-0.25	-3.0433e-005	0.	124.52
2394	-0.74999	-2.2637e-005	0.	124.78
2395	-0.5	-0.25002	0.	124.82
2396	-4.4995	4.2493	0.	125.49
2397	-4.7496	3.9995	0.	125.44
2398	-4.2494	4.4991	0.	125.48
2399	-3.9993	4.7489	0.	125.42
2400	-3.7493	4.9988	0.	125.33
2401	-3.4994	5.2488	0.	125.18
2402	-3.2493	4.9987	0.	125.13
2403	-4.9998	3.2498	0.	125.3
2404	-5.2498	3.4998	0.	125.28
2405	-4.9997	3.7497	0.	125.39
2406	0.75003	0.4999	0.	123.77
2407	0.50002	0.24993	0.	123.92
2408	3.	0.24998	0.	123.58
2409	3.25	0.49998	0.	123.88
2410	-3.5	0.24994	0.	125.19
2411	-3.25	0.49991	0.	125.13
2412	-2.	0.24994	0.	124.94
2413	-1.75	0.49994	0.	124.88
2414	-2.4994	5.249	0.	124.86
2415	-2.7493	4.9988	0.	124.97
2416	-2.2493	4.999	0.	124.84
2417	-1.4995	5.2494	0.	124.67
2418	-1.7494	4.9993	0.	124.73
2419	-1.2494	4.9994	0.	124.65
2420	-0.2495	4.9992	0.	124.53
2421	-0.49955	5.2494	0.	124.55
2422	-0.74948	4.9994	0.	124.58
2423	0.25048	4.9991	0.	124.49
2424	5.2938e-004	4.7491	0.	124.49
2425	4.3405e-004	5.2492	0.	124.52
2426	0.50041	5.2491	0.	124.49
2427	0.75044	4.9991	0.	124.47
2428	1.5003	5.2492	0.	124.48
2429	1.5004	4.7491	0.	124.43
2430	1.2504	4.9991	0.	124.46
2431	1.7503	4.9992	0.	124.47
2432	2.7502	4.9997	0.	124.53
2433	2.5002	5.2496	0.	124.53
2434	2.2502	4.9995	0.	124.49
2435	3.2501	4.9998	0.	124.58
2436	3.0001	5.2498	0.	124.57
2437	3.0002	4.7498	0.	124.53
2438	3.5001	5.2499	0.	124.63
2439	3.7501	4.9999	0.	124.64
2440	4.75	5.	0.	124.79
2441	4.5	5.25	0.	124.76
2442	4.25	5.	0.	124.71
2443	5.	4.75	0.	124.83
2444	5.	5.25	0.	124.83
2445	5.25	5.	0.	124.87
2446	5.25	4.5	0.	124.87
2447	5.	4.25	0.	124.83
2448	5.	2.75	0.	124.87
2449	5.25	3.	0.	124.92
2450	5.	3.25	0.	124.85
2451	5.25	2.5	0.	124.96
2452	5.	2.25	0.	124.9
2453	5.	1.25	0.	125.04
2454	5.25	1.5	0.	125.09
2455	5.	1.75	0.	124.96
2456	5.	0.75	0.	125.16
2457	5.25	1.	0.	125.2
2458	5.25	0.5	0.	125.35
2459	5.	0.25	0.	125.33
2460	4.75	-0.5	0.	125.48
2461	5.	-0.75	0.	125.88
2462	5.25	-0.5	0.	125.82
2463	5.	-0.25	0.	125.56
2464	-5.	0.74999	0.	125.43
2465	-5.25	0.49999	0.	125.49
2466	-5.	0.24999	0.	125.53
2467	-5.	1.25	0.	125.36
2468	-5.25	0.99999	0.	125.4
2469	-4.9999	1.7499	0.	125.3
2470	-5.25	1.5	0.	125.33
2471	-5.2499	1.9999	0.	125.27
2472	-4.9999	2.2499	0.	125.27
2473	-5.2499	2.9999	0.	125.23
2474	-4.9998	2.7498	0.	125.26
2475	1.5	-0.25005	0.	122.88
2476	1.25	-6.4338e-005	0.	123.26
2477	3.2476e-006	-0.25003	0.	124.44
2478	0.25001	-4.5777e-005	0.	124.12
2479	2.75	-2.1246e-005	0.	123.28
2480	2.5	-0.25002	0.	122.88
2481	-3.75	-3.3014e-005	0.	125.27
2482	-4.	-0.25002	0.	125.37
2483	-1.	-0.25002	0.	125.
2484	-1.25	-2.5618e-005	0.	124.91
2485	-2.25	-5.1088e-005	0.	124.97
2486	-2.5	-0.25005	0.	124.95
2487	-2.75	-5.8402e-005	0.	125.02
2488	5.25	-1.	0.	126.16
2489	5.5	-0.75	0.	126.11
2490	5.5	-1.25	0.	126.43
2491	5.75	-1.	0.	126.29
2492	4.25	-0.5	0.	124.97
2493	4.5	-0.75	0.	125.45
2494	1.75	-0.50003	0.	122.57
2495	2.25	-0.50002	0.	122.56
2496	2.	-0.75002	0.	122.11
2497	-4.25	-0.50001	0.	125.49
2498	-4.5	-0.75001	0.	125.66
2499	-4.75	-0.50001	0.	125.65
2500	-0.25	-0.50002	0.	124.75
2501	-0.75	-0.50001	0.	125.04
2502	-0.5	-0.75001	0.	125.19
2503	-4.4995	4.7493	0.	125.61
2504	-4.7496	4.4994	0.	125.59
2505	-4.2494	4.9991	0.	125.55
2506	-3.9994	5.249	0.	125.41
2507	-3.7495	5.4989	0.	125.27
2508	-3.4995	5.7489	0.	125.08
2509	-3.2495	5.4989	0.	125.06
2510	4.75	5.5	0.	124.8
2511	5.25	5.5	0.	124.87
2512	5.	5.75	0.	124.84
2513	4.75	-1.	0.	125.84
2514	5.	-1.25	0.	126.28
2515	-5.25	-1.	0.	125.87
2516	-5.	-1.25	0.	125.96
2517	-4.75	-1.	0.	125.8
2518	-5.	-0.75	0.	125.78
2519	-5.4999	3.2499	0.	125.21
2520	-5.7499	3.4999	0.	125.13
2521	-5.4998	3.7499	0.	125.28
2522	-5.2498	3.9997	0.	125.39
2523	-4.9997	4.2496	0.	125.54
2524	3.	-0.25001	0.	123.34
2525	3.25	-1.1943e-005	0.	123.74
2526	-3.5	-0.25003	0.	125.18
2527	-3.25	-4.8362e-005	0.	125.12
2528	-2.	-0.25003	0.	124.97
2529	-1.75	-3.5595e-005	0.	124.95
2530	-2.4996	5.7492	0.	124.79
2531	-2.2495	5.4992	0.	124.78
2532	-2.7495	5.499	0.	124.9
2533	-1.2496	5.4995	0.	124.63
2534	-1.4997	5.7495	0.	124.64
2535	-1.7496	5.4994	0.	124.69
2536	-0.74961	5.4994	0.	124.58
2537	-0.99966	5.7495	0.	124.6
2538	-0.99954	5.2494	0.	124.6
2539	-0.49966	5.7494	0.	124.56
2540	-0.24962	5.4993	0.	124.54
2541	0.50028	5.7492	0.	124.53
2542	0.75031	5.4992	0.	124.51
2543	0.25036	5.4992	0.	124.52
2544	1.2503	5.4993	0.	124.51
2545	1.7502	5.4994	0.	124.52
2546	1.5002	5.7494	0.	124.53
2547	2.5001	5.7497	0.	124.58
2548	2.7501	5.4997	0.	124.57
2549	2.2501	5.4996	0.	124.54
2550	3.75	5.4999	0.	124.67
2551	3.5	5.7499	0.	124.66
2552	3.2501	5.4999	0.	124.62
2553	4.25	5.5	0.	124.73
2554	4.	5.75	0.	124.71
2555	4.	5.25	0.	124.69
2556	4.5	5.75	0.	124.77
2557	5.5	4.75	0.	124.91
2558	5.5	5.25	0.	124.91
2559	5.75	5.	0.	124.95
2560	5.75	4.5	0.	124.96
2561	5.5	4.25	0.	124.93
2562	5.5	3.25	0.	124.98
2563	5.75	3.5	0.	125.01
2564	5.25	3.5	0.	124.9
2565	5.5	3.75	0.	124.95
2566	5.75	3.	0.	125.05
2567	5.5	2.75	0.	125.02
2568	5.5	1.25	0.	125.26
2569	5.75	1.5	0.	125.28
2570	5.5	1.75	0.	125.15
2571	5.5	0.75	0.	125.4
2572	5.75	1.	0.	125.41
2573	5.75	0.5	0.	125.57
2574	5.5	0.25	0.	125.58
2575	5.75	-0.5	0.	126.01
2576	5.5	-0.25	0.	125.82
2577	5.25	-1.5	0.	126.55
2578	5.5	-1.75	0.	126.76
2579	5.75	-1.5	0.	126.57
2580	-5.75	-1.	0.	125.86
2581	-5.5	-1.25	0.	125.96
2582	-5.5	-0.75	0.	125.82
2583	-5.5	0.25	0.	125.57
2584	-5.75	-1.0976e-006	0.	125.62
2585	-5.25	-3.74e-006	0.	125.6
2586	-5.5	-0.25	0.	125.69
2587	-5.5	0.74999	0.	125.46
2588	-5.75	0.5	0.	125.51
2589	-5.5	1.25	0.	125.37
2590	-5.75	0.99999	0.	125.41
2591	-5.5	1.75	0.	125.3
2592	-5.75	1.5	0.	125.32
2593	-5.75	2.	0.	125.24
2594	-5.4999	2.25	0.	125.24
2595	-5.7499	2.9999	0.	125.13
2596	-5.4999	2.7499	0.	125.2
2597	1.5	-0.75003	0.	122.4
2598	1.25	-0.50004	0.	122.95
2599	0.25	-0.50002	0.	124.23
2600	8.6235e-007	-0.75002	0.	124.72
2601	3.75	-0.5	0.	124.31
2602	4.	-0.75	0.	124.79
2603	4.	-0.25	0.	124.61
2604	2.75	-0.50001	0.	122.93
2605	2.5	-0.75001	0.	122.36
2606	-3.75	-0.50002	0.	125.29
2607	-4.	-0.75001	0.	125.44
2608	-1.	-0.75001	0.	125.31
2609	-1.25	-0.50002	0.	125.11
2610	-2.25	-0.50003	0.	124.95
2611	-2.5	-0.75003	0.	124.84
2612	-2.75	-0.50003	0.	124.96
2613	-4.4995	5.2493	0.	125.69
2614	-4.7496	4.9994	0.	125.76
2615	-4.2495	5.4992	0.	125.55
2616	-3.9996	5.7491	0.	125.32
2617	5.5	5.75	0.	124.9
2618	5.75	5.5	0.	124.94
2619	4.25	-1.	0.	125.27
2620	4.5	-1.25	0.	125.88
2621	1.75	-1.	0.	121.94
2622	2.25	-1.	0.	121.91
2623	2.	-1.25	0.	121.26
2624	-5.9999	3.25	0.	125.06
2625	-5.9999	3.7499	0.	125.05
2626	-6.2499	3.5	0.	124.92
2627	-5.7499	3.9999	0.	125.2
2628	-5.4998	4.2498	0.	125.44
2629	-5.2497	4.4997	0.	125.59
2630	-4.9997	4.7496	0.	125.75
2631	4.75	-1.5	0.	126.32
2632	5.	-1.75	0.	126.76
2633	5.75	-2.	0.	126.82
2634	5.5	-2.25	0.	127.02
2635	5.25	-2.	0.	126.96
2636	-5.75	-2.	0.	126.06
2637	-5.5	-2.25	0.	126.16
2638	-5.25	-2.	0.	126.21
2639	-5.5	-1.75	0.	126.08
2640	-4.75	-1.5	0.	126.
2641	-5.	-1.75	0.	126.16
2642	-5.25	-1.5	0.	126.04
2643	0.5	-0.75002	0.	123.97
2644	0.50001	-0.25004	0.	123.9
2645	0.75	-0.50003	0.	123.57
2646	3.25	-0.50001	0.	123.57
2647	3.5	-0.25001	0.	123.97
2648	3.5	-0.75	0.	123.94
2649	3.	-0.75001	0.	123.05
2650	-3.5	-0.75002	0.	125.15
2651	-3.25	-0.50003	0.	125.08
2652	-2.	-0.75002	0.	124.96
2653	-1.75	-0.50002	0.	125.03
2654	-4.4996	5.7493	0.	125.66
2655	-4.7496	5.4994	0.	125.89
2656	-3.4997	6.2492	0.	124.93
2657	-3.2496	5.9991	0.	124.94
2658	-3.7496	5.9991	0.	125.14
2659	-2.2497	5.9993	0.	124.72
2660	-2.4998	6.2493	0.	124.71
2661	-2.7497	5.9992	0.	124.81
2662	-1.7497	5.9994	0.	124.65
2663	-1.9998	6.2494	0.	124.65
2664	-1.9996	5.7493	0.	124.71
2665	-1.4998	6.2495	0.	124.62
2666	-1.2497	5.9995	0.	124.61
2667	-0.49977	6.2495	0.	124.58
2668	-0.24973	5.9994	0.	124.56
2669	-0.74972	5.9995	0.	124.58
2670	0.50017	6.2494	0.	124.56
2671	0.25024	5.9994	0.	124.55
2672	0.7502	5.9994	0.	124.54
2673	2.75	5.9998	0.	124.62
2674	2.5	6.2497	0.	124.62
2675	2.2501	5.9996	0.	124.58
2676	3.25	5.9999	0.	124.66
2677	3.0001	5.7498	0.	124.61
2678	3.	6.2498	0.	124.65
2679	3.75	5.9999	0.	124.7
2680	3.5	6.2499	0.	124.69
2681	4.25	6.	0.	124.75
2682	4.	6.25	0.	124.74
2683	4.75	6.	0.	124.81
2684	4.5	6.25	0.	124.79
2685	5.25	6.	0.	124.87
2686	5.	6.25	0.	124.84
2687	5.5	6.25	0.	124.9
2688	5.75	6.	0.	124.93
2689	6.	5.25	0.	124.98
2690	6.25	5.5	0.	125.
2691	6.	5.75	0.	124.96
2692	6.	4.75	0.	125.
2693	6.25	5.	0.	125.02
2694	6.25	4.5	0.	125.05
2695	6.	4.25	0.	125.02
2696	6.	3.25	0.	125.09
2697	6.25	3.5	0.	125.12
2698	6.	3.75	0.	125.05
2699	6.	2.75	0.	125.15
2700	6.25	3.	0.	125.17
2701	6.	2.25	0.	125.22
2702	6.25	2.5	0.	125.24
2703	5.75	2.5	0.	125.11
2704	6.	1.75	0.	125.31
2705	5.75	2.	0.	125.18
2706	6.25	2.	0.	125.32
2707	6.25	1.5	0.	125.42
2708	6.	1.25	0.	125.43
2709	6.	0.25	0.	125.75
2710	6.25	0.5	0.	125.71
2711	6.	0.75	0.	125.57
2712	6.	-0.25	0.	125.96
2713	6.25	-9.9462e-008	0.	125.89
2714	5.75	-2.3581e-007	0.	125.77
2715	6.25	-0.5	0.	126.09
2716	6.	-0.75	0.	126.2
2717	6.	-1.75	0.	126.64
2718	6.25	-1.5	0.	126.49
2719	6.	-1.25	0.	126.43
2720	6.	-2.25	0.	126.76
2721	6.25	-2.	0.	126.63
2722	6.	-2.75	0.	126.73
2723	5.75	-2.5	0.	126.95
2724	6.25	-2.5	0.	126.65
2725	6.	-5.25	0.	125.68
2726	6.	-4.75	0.	125.66
2727	5.75	-5.	0.	125.63
2728	6.25	-5.	0.	125.61
2729	6.	-5.75	0.	125.93
2730	6.25	-5.5	0.	125.75
2731	5.75	-5.5	0.	125.81
2732	-6.	-2.25	0.	125.97
2733	-5.75	-2.5	0.	126.07
2734	-6.25	-2.5	0.	125.87
2735	-6.	-2.75	0.	125.89
2736	-6.25	-2.	0.	125.9
2737	-6.	-1.75	0.	125.96
2738	-6.	-0.75	0.	125.79
2739	-6.25	-1.	0.	125.81
2740	-6.	-1.25	0.	125.89
2741	-6.	-0.25	0.	125.68
2742	-6.25	-0.5	0.	125.71
2743	-5.75	-0.5	0.	125.74
2744	-6.	0.25	0.	125.57
2745	-6.25	-3.3129e-007	0.	125.61
2746	-6.	0.75	0.	125.46
2747	-6.25	0.5	0.	125.51
2748	-6.	1.25	0.	125.36
2749	-6.25	1.	0.	125.41
2750	-6.	1.75	0.	125.27
2751	-6.25	1.5	0.	125.3
2752	-6.25	2.	0.	125.2
2753	-6.	2.25	0.	125.18
2754	-6.2499	3.	0.	125.
2755	-5.9999	2.75	0.	125.1
2756	1.5	-1.25	0.	121.73
2757	1.25	-1.	0.	122.55
2758	0.25	-1.	0.	124.46
2759	1.1615e-007	-1.25	0.	125.22
2760	-0.25	-1.	0.	125.16
2761	4.	-1.25	0.	125.13
2762	3.75	-1.	0.	124.43
2763	2.75	-1.	0.	122.48
2764	2.5	-1.25	0.	121.65
2765	6.25	-4.5	0.	125.7
2766	5.75	-4.5	0.	125.77
2767	6.	-4.25	0.	125.87
2768	6.	-3.25	0.	126.54
2769	6.25	-3.	0.	126.53
2770	5.75	-3.	0.	126.89
2771	-3.75	-1.	0.	125.3
2772	-4.	-1.25	0.	125.54
2773	-4.25	-1.	0.	125.6
2774	-1.25	-1.	0.	125.39
2775	-1.	-1.25	0.	125.79
2776	-0.75	-1.	0.	125.46
2777	-2.25	-1.	0.	124.86
2778	-2.5	-1.25	0.	124.59
2779	-2.75	-1.	0.	124.8
2780	-6.	-4.25	0.	125.4
2781	-6.25	-4.5	0.	125.36
2782	-5.75	-4.5	0.	125.35
2783	-6.	-4.75	0.	125.4
2784	-5.9999	4.2499	0.	125.14
2785	-6.2499	4.	0.	124.88
2786	-5.7498	4.4998	0.	125.38
2787	-5.4998	4.7498	0.	125.73
2788	4.25	-1.5	0.	125.74
2789	4.5	-1.75	0.	126.48
2790	1.75	-1.5	0.	121.05
2791	2.25	-1.5	0.	121.
2792	2.	-1.75	0.	120.03
2793	5.5	-2.75	0.	127.11
2794	5.25	-2.5	0.	127.29
2795	6.25	-6.	0.	126.06
2796	6.	-6.25	0.	126.32
2797	5.75	-6.	0.	126.23
2798	5.5	-4.75	0.	125.74
2799	5.5	-5.25	0.	125.76
2800	5.25	-5.	0.	125.77
2801	-5.5	-2.75	0.	126.13
2802	-5.25	-2.5	0.	126.32
2803	-4.25	-1.5	0.	125.78
2804	-4.5	-1.75	0.	126.1
2805	-4.5	-1.25	0.	125.84
2806	-0.25	-1.5	0.	125.83
2807	-0.75	-1.5	0.	126.1
2808	-0.5	-1.75	0.	126.65
2809	-0.5	-1.25	0.	125.77
2810	6.5	-5.75	0.	125.87
2811	6.5	-6.25	0.	126.16
2812	6.75	-6.	0.	125.98
2813	5.75	6.5	0.	124.92
2814	6.25	6.5	0.	124.97
2815	6.	6.25	0.	124.95
2816	6.	6.75	0.	124.94
2817	-6.5	-5.75	0.	125.65
2818	-6.5	-6.25	0.	125.81
2819	-6.75	-6.	0.	125.69
2820	-6.25	-6.	0.	125.8
2821	4.75	-2.	0.	126.92
2822	5.	-2.25	0.	127.24
2823	-5.	-2.25	0.	126.36
2824	-4.75	-2.	0.	126.27
2825	-4.4997	6.2494	0.	125.47
2826	-4.7497	5.9995	0.	125.86
2827	-4.2496	5.9993	0.	125.43
2828	-4.9997	5.2495	0.	125.97
2829	-5.2497	4.9996	0.	125.88
2830	0.5	-1.25	0.	124.16
2831	0.75	-1.	0.	123.5
2832	3.	-1.25	0.	122.72
2833	3.25	-1.	0.	123.42
2834	6.25	-3.5	0.	126.28
2835	5.75	-3.5	0.	126.59
2836	6.	-3.75	0.	126.21
2837	-6.25	-4.	0.	125.43
2838	-5.75	-4.	0.	125.46
2839	-6.	-3.75	0.	125.53
2840	-3.5	-1.25	0.	125.11
2841	-3.25	-1.	0.	124.99
2842	-1.75	-1.	0.	125.11
2843	-1.5	-1.25	0.	125.4
2844	-1.5	-0.75001	0.	125.18
2845	-2.	-1.25	0.	124.88
2846	-6.25	-5.5	0.	125.61
2847	-5.75	-5.5	0.	125.72
2848	-6.	-5.25	0.	125.54
2849	-6.	-5.75	0.	125.76
2850	-3.4998	6.7494	0.	124.76
2851	-3.7498	6.4993	0.	124.94
2852	-3.2498	6.4993	0.	124.79
2853	-2.2498	6.4994	0.	124.65
2854	-2.4999	6.7495	0.	124.64
2855	-2.7498	6.4993	0.	124.7
2856	-1.7498	6.4995	0.	124.62
2857	-1.9999	6.7496	0.	124.61
2858	-1.4999	6.7496	0.	124.6
2859	-1.2498	6.4996	0.	124.6
2860	-0.24984	6.4995	0.	124.58
2861	-0.49986	6.7496	0.	124.59
2862	-0.74982	6.4996	0.	124.59
2863	0.25014	6.4995	0.	124.58
2864	1.2326e-004	6.7496	0.	124.59
2865	2.0717e-004	6.2495	0.	124.56
2866	0.5001	6.7496	0.	124.6
2867	0.75011	6.4995	0.	124.58
2868	1.75	6.4996	0.	124.6
2869	1.5	6.7496	0.	124.62
2870	1.5001	6.2495	0.	124.57
2871	1.2501	6.4996	0.	124.59
2872	2.25	6.4997	0.	124.63
2873	2.0001	6.2496	0.	124.59
2874	2.	6.7497	0.	124.63
2875	2.5	6.7498	0.	124.66
2876	2.75	6.4998	0.	124.65
2877	3.5	6.7499	0.	124.72
2878	3.75	6.4999	0.	124.73
2879	3.25	6.4999	0.	124.69
2880	4.75	6.5	0.	124.82
2881	4.5	6.75	0.	124.8
2882	4.25	6.5	0.	124.77
2883	5.25	6.5	0.	124.87
2884	5.	6.75	0.	124.85
2885	5.5	6.75	0.	124.89
2886	6.75	5.5	0.	125.07
2887	6.5	5.25	0.	125.05
2888	6.5	5.75	0.	125.03
2889	6.5	4.25	0.	125.11
2890	6.75	4.5	0.	125.13
2891	6.5	4.75	0.	125.08
2892	6.5	3.75	0.	125.15
2893	6.25	4.	0.	125.08
2894	6.75	4.	0.	125.17
2895	6.75	3.5	0.	125.22
2896	6.5	3.25	0.	125.2
2897	6.75	2.5	0.	125.35
2898	6.5	2.75	0.	125.26
2899	6.5	2.25	0.	125.34
2900	6.75	1.5	0.	125.53
2901	6.5	1.25	0.	125.55
2902	6.5	1.75	0.	125.43
2903	6.5	0.25	0.	125.85
2904	6.75	0.5	0.	125.79
2905	6.5	0.75	0.	125.69
2906	6.5	-0.25	0.	126.02
2907	6.75	-4.5973e-008	0.	125.94
2908	6.5	-0.75	0.	126.2
2909	6.75	-0.5	0.	126.1
2910	6.5	-1.25	0.	126.36
2911	6.75	-1.	0.	126.25
2912	6.25	-1.	0.	126.3
2913	6.75	-1.5	0.	126.37
2914	6.5	-1.75	0.	126.48
2915	6.5	-2.75	0.	126.45
2916	6.75	-2.5	0.	126.41
2917	6.5	-2.25	0.	126.52
2918	6.5	-3.25	0.	126.27
2919	6.75	-3.	0.	126.29
2920	6.75	-3.5	0.	126.08
2921	6.5	-3.75	0.	126.02
2922	6.5	-4.75	0.	125.65
2923	6.75	-4.5	0.	125.69
2924	6.5	-4.25	0.	125.79
2925	6.5	-5.25	0.	125.68
2926	6.75	-5.	0.	125.64
2927	6.75	-5.5	0.	125.75
2928	-5.5	-6.25	0.	126.15
2929	-5.25	-6.5	0.	126.33
2930	-5.5	-6.75	0.	126.23
2931	-5.75	-6.5	0.	126.12
2932	-6.5	-5.25	0.	125.5
2933	-6.75	-5.5	0.	125.54
2934	-6.5	-4.75	0.	125.4
2935	-6.75	-5.	0.	125.42
2936	-6.25	-5.	0.	125.43
2937	-6.5	-4.25	0.	125.39
2938	-6.75	-4.5	0.	125.37
2939	-6.5	-3.75	0.	125.47
2940	-6.75	-4.	0.	125.41
2941	-6.5	-3.25	0.	125.61
2942	-6.75	-3.5	0.	125.51
2943	-6.25	-3.5	0.	125.58
2944	-6.5	-2.75	0.	125.73
2945	-6.75	-3.	0.	125.62
2946	-6.25	-3.	0.	125.75
2947	-6.5	-2.25	0.	125.81
2948	-6.75	-2.5	0.	125.72
2949	-6.5	-1.75	0.	125.83
2950	-6.75	-2.	0.	125.77
2951	-6.5	-1.25	0.	125.8
2952	-6.75	-1.5	0.	125.77
2953	-6.25	-1.5	0.	125.88
2954	-6.5	-0.75	0.	125.73
2955	-6.75	-1.	0.	125.73
2956	-6.5	-0.25	0.	125.65
2957	-6.75	-0.5	0.	125.67
2958	-6.5	0.25	0.	125.55
2959	-6.75	1.9263e-008	0.	125.58
2960	-6.5	0.75	0.	125.45
2961	-6.75	0.5	0.	125.49
2962	-6.5	1.25	0.	125.34
2963	-6.75	1.	0.	125.39
2964	-6.5	1.75	0.	125.23
2965	-6.75	1.5	0.	125.28
2966	-6.75	2.	0.	125.16
2967	-6.5	2.25	0.	125.12
2968	-6.5	3.25	0.	124.87
2969	-6.75	3.	0.	124.88
2970	-6.5	2.75	0.	125.
2971	-6.2499	4.4999	0.	124.93
2972	-5.9999	4.7499	0.	125.4
2973	-6.4999	3.75	0.	124.76
2974	-6.75	3.5	0.	124.72
2975	-6.4999	4.25	0.	124.67
2976	-6.7499	4.	0.	124.53
2977	1.5	-1.75	0.	120.79
2978	1.25	-1.5	0.	122.03
2979	0.25	-1.5	0.	124.91
2980	-4.8394e-008	-1.75	0.	126.02
2981	4.	-1.75	0.	125.71
2982	3.75	-1.5	0.	124.71
2983	2.75	-1.5	0.	121.89
2984	2.5	-1.75	0.	120.68
2985	5.25	-4.5	0.	125.98
2986	5.5	-4.25	0.	126.06
2987	5.5	-3.25	0.	126.94
2988	5.25	-3.	0.	127.38
2989	6.25	-6.5	0.	126.43
2990	5.75	-6.5	0.	126.7
2991	6.	-6.75	0.	126.69
2992	5.5	-5.75	0.	126.1
2993	5.25	-5.5	0.	126.01
2994	-5.5	-3.25	0.	125.94
2995	-5.25	-3.	0.	126.26
2996	-5.75	-3.	0.	125.95
2997	-3.75	-1.5	0.	125.35
2998	-4.	-1.75	0.	125.76
2999	-1.	-1.75	0.	126.48
3000	-1.25	-1.5	0.	125.79
3001	-2.25	-1.5	0.	124.62
3002	-2.5	-1.75	0.	124.06
3003	-2.75	-1.5	0.	124.49
3004	-5.5	-4.25	0.	125.42
3005	-5.25	-4.5	0.	125.34
3006	-5.5	-4.75	0.	125.41
3007	-5.5	-5.75	0.	125.93
3008	-5.25	-6.	0.	126.24
3009	-5.75	-6.	0.	125.97
3010	6.5	-6.75	0.	126.47
3011	6.75	-6.5	0.	126.27
3012	6.75	6.5	0.	125.02
3013	6.5	6.75	0.	124.99
3014	6.5	6.25	0.	125.
3015	-6.5	-6.75	0.	125.93
3016	-6.75	-6.5	0.	125.82
3017	-6.25	-6.5	0.	125.95
3018	4.25	-2.	0.	126.46
3019	4.5	-2.25	0.	127.24
3020	1.75	-2.	0.	119.76
3021	2.25	-2.	0.	119.7
3022	2.	-2.25	0.	118.22
3023	5.	-2.75	0.	127.56
3024	4.75	-2.5	0.	127.56
3025	5.	-4.75	0.	126.01
3026	5.	-5.25	0.	126.02
3027	4.75	-5.	0.	126.24
3028	-5.	-2.75	0.	126.45
3029	-4.75	-2.5	0.	126.56
3030	-4.25	-2.	0.	126.08
3031	-4.5	-2.25	0.	126.47
3032	-0.25	-2.	0.	126.84
3033	-0.75	-2.	0.	127.03
3034	-0.5	-2.25	0.	127.82
3035	-4.75	-7.	0.	126.29
3036	-4.25	-7.	0.	126.05
3037	-4.5	-6.75	0.	126.43
3038	-4.5	-7.25	0.	126.15
3039	-5.	-6.75	0.	126.38
3040	-5.	-6.25	0.	126.43
3041	-4.75	-6.5	0.	126.52
3042	-4.4998	6.7495	0.	125.15
3043	-4.2497	6.4994	0.	125.18
3044	-4.7498	6.4995	0.	125.58
3045	-4.9997	5.7496	0.	126.1
3046	-5.2497	5.4996	0.	126.24
3047	-6.7499	4.5	0.	124.34
3048	-6.4999	4.75	0.	124.68
3049	-5.7498	4.9998	0.	125.74
3050	-5.4998	5.2497	0.	126.15
3051	0.5	-1.75	0.	124.58
3052	0.75	-1.5	0.	123.51
3053	3.	-1.75	0.	122.38
3054	3.25	-1.5	0.	123.31
3055	5.25	-3.5	0.	127.1
3056	5.5	-3.75	0.	126.54
3057	5.5	-6.25	0.	126.61
3058	5.5	-6.75	0.	127.03
3059	5.25	-6.5	0.	127.15
3060	5.25	-6.	0.	126.58
3061	-5.5	-3.75	0.	125.65
3062	-5.75	-3.5	0.	125.72
3063	-5.25	-3.5	0.	125.97
3064	-5.25	-4.	0.	125.55
3065	-3.5	-1.75	0.	125.08
3066	-3.25	-1.5	0.	124.82
3067	-2.	-1.75	0.	124.64
3068	-1.75	-1.5	0.	125.16
3069	-5.25	-5.5	0.	125.94
3070	-5.5	-5.25	0.	125.64
3071	-3.4999	7.2496	0.	124.63
3072	-3.7498	6.9995	0.	124.73
3073	-3.2499	6.9995	0.	124.65
3074	-2.4999	7.2496	0.	124.6
3075	-2.2499	6.9996	0.	124.6
3076	-2.7499	6.9995	0.	124.62
3077	-1.4999	7.2497	0.	124.61
3078	-1.7499	6.9996	0.	124.6
3079	-1.2499	6.9997	0.	124.6
3080	-0.2499	6.9997	0.	124.61
3081	-0.49992	7.2497	0.	124.62
3082	-0.74989	6.9997	0.	124.6
3083	0.25008	6.9997	0.	124.61
3084	6.9783e-005	7.2497	0.	124.63
3085	0.50005	7.2497	0.	124.63
3086	0.75006	6.9997	0.	124.62
3087	1.5	7.2498	0.	124.65
3088	1.25	6.9997	0.	124.63
3089	1.75	6.9997	0.	124.64
3090	2.5	7.2498	0.	124.69
3091	2.75	6.9999	0.	124.69
3092	2.25	6.9998	0.	124.66
3093	3.75	7.	0.	124.75
3094	3.5	7.2499	0.	124.74
3095	3.25	6.9999	0.	124.72
3096	4.25	7.	0.	124.79
3097	4.	7.25	0.	124.78
3098	4.	6.75	0.	124.76
3099	4.75	7.	0.	124.83
3100	4.5	7.25	0.	124.81
3101	5.25	7.	0.	124.87
3102	5.	7.25	0.	124.85
3103	5.5	7.25	0.	124.89
3104	5.75	7.	0.	124.91
3105	6.75	-7.	0.	126.54
3106	6.5	-7.25	0.	126.71
3107	6.25	-7.	0.	126.73
3108	7.	6.75	0.	125.03
3109	7.25	6.5	0.	125.06
3110	7.	6.25	0.	125.06
3111	6.75	7.	0.	125.
3112	6.5	7.25	0.	124.97
3113	6.25	7.	0.	124.96
3114	7.	5.25	0.	125.11
3115	7.25	5.5	0.	125.13
3116	7.	5.75	0.	125.08
3117	7.	4.75	0.	125.15
3118	7.25	5.	0.	125.16
3119	6.75	5.	0.	125.1
3120	7.25	4.5	0.	125.2
3121	7.	4.25	0.	125.19
3122	7.25	3.5	0.	125.3
3123	7.	3.75	0.	125.24
3124	7.	3.25	0.	125.29
3125	7.25	2.5	0.	125.44
3126	7.	2.25	0.	125.44
3127	7.	2.75	0.	125.36
3128	7.25	1.5	0.	125.61
3129	7.	1.75	0.	125.53
3130	7.	1.25	0.	125.64
3131	7.	0.25	0.	125.89
3132	7.25	0.5	0.	125.84
3133	7.	0.75	0.	125.76
3134	7.	-0.25	0.	126.03
3135	7.25	-2.1201e-008	0.	125.96
3136	7.	-0.75	0.	126.16
3137	7.25	-0.5	0.	126.07
3138	7.	-1.25	0.	126.26
3139	7.25	-1.	0.	126.18
3140	7.	-1.75	0.	126.32
3141	7.25	-1.5	0.	126.24
3142	7.	-2.25	0.	126.32
3143	7.25	-2.	0.	126.26
3144	6.75	-2.	0.	126.43
3145	7.	-2.75	0.	126.24
3146	7.25	-2.5	0.	126.22
3147	7.25	-3.	0.	126.11
3148	7.	-3.25	0.	126.1
3149	7.	-4.25	0.	125.76
3150	7.25	-4.	0.	125.81
3151	7.	-3.75	0.	125.92
3152	6.75	-4.	0.	125.86
3153	7.	-4.75	0.	125.68
3154	7.25	-4.5	0.	125.7
3155	7.	-5.25	0.	125.71
3156	7.25	-5.	0.	125.68
3157	7.	-5.75	0.	125.86
3158	7.25	-5.5	0.	125.77
3159	7.	-6.25	0.	126.09
3160	7.25	-6.	0.	125.95
3161	7.	-6.75	0.	126.34
3162	7.25	-6.5	0.	126.18
3163	5.25	-7.	0.	127.44
3164	5.5	-7.25	0.	127.22
3165	5.75	-7.	0.	127.02
3166	-5.25	-7.	0.	126.28
3167	-5.	-7.25	0.	126.26
3168	-5.75	-7.	0.	126.17
3169	-5.5	-7.25	0.	126.21
3170	-6.75	-7.	0.	125.92
3171	-6.5	-7.25	0.	126.
3172	-6.25	-7.	0.	126.04
3173	-7.	-6.75	0.	125.82
3174	-7.25	-6.5	0.	125.73
3175	-7.	-6.25	0.	125.71
3176	-7.	-5.25	0.	125.47
3177	-7.25	-5.5	0.	125.5
3178	-7.	-5.75	0.	125.58
3179	-7.	-4.75	0.	125.4
3180	-7.25	-5.	0.	125.41
3181	-7.	-4.25	0.	125.39
3182	-7.25	-4.5	0.	125.37
3183	-7.	-3.75	0.	125.44
3184	-7.25	-4.	0.	125.39
3185	-7.	-3.25	0.	125.52
3186	-7.25	-3.5	0.	125.45
3187	-7.	-2.75	0.	125.61
3188	-7.25	-3.	0.	125.53
3189	-7.	-2.25	0.	125.68
3190	-7.25	-2.5	0.	125.61
3191	-7.	-1.75	0.	125.71
3192	-7.25	-2.	0.	125.65
3193	-7.	-1.25	0.	125.7
3194	-7.25	-1.5	0.	125.67
3195	-7.	-0.75	0.	125.66
3196	-7.25	-1.	0.	125.65
3197	-7.	-0.25	0.	125.6
3198	-7.25	-0.5	0.	125.61
3199	-7.	0.25	0.	125.53
3200	-7.25	1.7088e-007	0.	125.55
3201	-7.	0.75	0.	125.43
3202	-7.25	0.5	0.	125.48
3203	-7.	1.25	0.	125.33
3204	-7.25	1.	0.	125.39
3205	-7.	1.75	0.	125.22
3206	-7.25	1.5	0.	125.28
3207	-7.	2.25	0.	125.08
3208	-7.25	2.	0.	125.16
3209	-7.	2.75	0.	124.92
3210	-7.25	2.5	0.	125.01
3211	-6.75	2.5	0.	125.03
3212	-7.	3.25	0.	124.73
3213	-7.25	3.	0.	124.83
3214	-7.	3.75	0.	124.49
3215	-7.25	3.5	0.	124.6
3216	-7.	4.25	0.	124.2
3217	-7.25	4.	0.	124.31
3218	1.5	-2.25	0.	119.48
3219	1.25	-2.	0.	121.36
3220	0.25	-2.	0.	125.69
3221	-5.6445e-008	-2.25	0.	127.23
3222	3.75	-2.	0.	125.29
3223	4.	-2.25	0.	126.67
3224	2.75	-2.	0.	121.17
3225	2.5	-2.25	0.	119.36
3226	5.	-4.25	0.	126.46
3227	4.75	-4.5	0.	126.51
3228	5.	-3.25	0.	127.54
3229	4.75	-3.	0.	128.
3230	5.	-5.75	0.	126.48
3231	4.75	-5.5	0.	126.52
3232	-4.75	-3.	0.	126.71
3233	-5.	-3.25	0.	126.29
3234	-3.75	-2.	0.	125.49
3235	-4.	-2.25	0.	126.21
3236	-1.25	-2.	0.	126.36
3237	-1.	-2.25	0.	127.45
3238	-2.25	-2.	0.	124.09
3239	-2.5	-2.25	0.	123.02
3240	-2.75	-2.	0.	123.89
3241	-4.	-7.25	0.	125.76
3242	-4.	-6.75	0.	126.11
3243	-3.75	-7.	0.	125.4
3244	-2.75	-7.	0.	123.72
3245	-2.5	-7.25	0.	124.01
3246	-2.5	-6.75	0.	122.74
3247	-2.25	-7.	0.	123.95
3248	-4.75	-4.5	0.	125.4
3249	-5.	-4.75	0.	125.46
3250	-5.	-4.25	0.	125.48
3251	-5.	-5.75	0.	126.25
3252	-4.75	-6.	0.	126.64
3253	-4.7498	6.9996	0.	125.13
3254	-4.4999	7.2496	0.	124.85
3255	-4.2498	6.9995	0.	124.87
3256	-5.2498	5.9997	0.	126.46
3257	-4.9998	6.2496	0.	125.97
3258	-7.	4.75	0.	123.82
3259	-7.25	4.5	0.	123.91
3260	-6.2499	4.9999	0.	125.15
3261	-5.9998	5.2499	0.	125.94
3262	4.5	-2.75	0.	127.99
3263	4.25	-2.5	0.	127.46
3264	-4.25	-2.5	0.	126.59
3265	-4.5	-2.75	0.	126.82
3266	-4.25	-6.5	0.	126.48
3267	-4.5	-6.25	0.	126.74
3268	-7.	-7.25	0.	125.9
3269	-7.25	-7.	0.	125.82
3270	-1.25	-7.	0.	126.64
3271	-1.	-7.25	0.	127.1
3272	-1.	-6.75	0.	127.61
3273	-0.75	-7.	0.	127.9
3274	5.	-6.75	0.	127.56
3275	4.75	-7.	0.	127.96
3276	5.	-7.25	0.	127.58
3277	7.25	-7.	0.	126.41
3278	7.	-7.25	0.	126.56
3279	7.	7.25	0.	125.01
3280	7.25	7.	0.	125.04
3281	-5.4998	5.7497	0.	126.6
3282	-5.7498	5.4998	0.	126.35
3283	2.	-2.75	0.	115.7
3284	2.25	-2.5	0.	117.85
3285	1.75	-2.5	0.	117.92
3286	4.25	-5.	0.	127.58
3287	4.5	-5.25	0.	126.74
3288	4.5	-4.75	0.	126.74
3289	0.5	-2.25	0.	125.4
3290	0.75	-2.	0.	123.67
3291	3.25	-2.	0.	123.36
3292	3.5	-2.25	0.	124.98
3293	3.5	-1.75	0.	124.29
3294	3.	-2.25	0.	122.16
3295	5.	-3.75	0.	127.1
3296	4.75	-4.	0.	127.2
3297	5.25	-4.	0.	126.53
3298	4.75	-3.5	0.	127.89
3299	5.	-6.25	0.	127.12
3300	4.75	-6.5	0.	127.88
3301	4.75	-6.	0.	127.21
3302	-3.5	-2.25	0.	125.2
3303	-3.25	-2.	0.	124.57
3304	-1.75	-2.	0.	125.16
3305	-1.5	-2.25	0.	126.1
3306	-1.5	-1.75	0.	125.68
3307	-2.	-2.25	0.	124.16
3308	-1.5	-6.75	0.	125.93
3309	-1.75	-7.	0.	125.14
3310	-1.5	-7.25	0.	125.91
3311	-3.	-7.25	0.	124.25
3312	-3.	-6.75	0.	123.45
3313	-3.25	-7.	0.	124.43
3314	-4.75	-5.5	0.	126.38
3315	-5.	-5.25	0.	125.84
3316	-4.9999	7.2497	0.	125.12
3317	-5.2499	6.9997	0.	125.59
3318	-4.9998	6.7497	0.	125.56
3319	-6.7499	5.	0.	124.16
3320	-7.25	5.	0.	123.33
3321	-7.	5.25	0.	123.32
3322	-6.4999	5.2499	0.	124.93
3323	4.	-4.75	0.	128.41
3324	4.	-5.25	0.	128.4
3325	3.75	-5.	0.	131.39
3326	1.75	-3.	0.	115.44
3327	2.25	-3.	0.	115.39
3328	2.	-3.25	0.	113.49
3329	-0.25	-5.	0.	127.79
3330	-1.2968e-009	-5.25	0.	128.66
3331	-3.5588e-009	-4.75	0.	128.37
3332	0.25	-5.	0.	131.42
3333	2.	-7.25	0.	115.24
3334	2.25	-7.	0.	115.03
3335	1.75	-7.	0.	115.1
3336	2.	-6.75	0.	113.25
3337	-4.7499	7.4997	0.	124.83
3338	-5.2499	7.4998	0.	125.16
3339	-4.9999	7.7498	0.	124.99
3340	-4.2499	7.4997	0.	124.68
3341	-4.4999	7.7497	0.	124.74
3342	-3.7499	7.4997	0.	124.6
3343	-3.9999	7.7497	0.	124.62
3344	-3.9999	7.2496	0.	124.7
3345	-3.2499	7.4997	0.	124.58
3346	-3.4999	7.7497	0.	124.59
3347	-2.75	7.4997	0.	124.58
3348	-3.	7.7497	0.	124.59
3349	-2.9999	7.2496	0.	124.6
3350	-2.25	7.4997	0.	124.59
3351	-2.5	7.7497	0.	124.6
3352	-1.75	7.4997	0.	124.61
3353	-2.	7.7498	0.	124.62
3354	-1.9999	7.2497	0.	124.6
3355	-1.2499	7.4997	0.	124.62
3356	-1.5	7.7498	0.	124.64
3357	-0.74995	7.4998	0.	124.63
3358	-0.99996	7.7498	0.	124.65
3359	-0.99992	7.2497	0.	124.61
3360	-0.24995	7.4998	0.	124.64
3361	-0.49996	7.7498	0.	124.66
3362	0.25004	7.4998	0.	124.65
3363	3.6257e-005	7.7498	0.	124.66
3364	0.50003	7.7498	0.	124.67
3365	0.75003	7.4998	0.	124.66
3366	1.75	7.4998	0.	124.68
3367	1.5	7.7498	0.	124.69
3368	1.25	7.4998	0.	124.67
3369	2.25	7.4998	0.	124.7
3370	2.	7.7499	0.	124.7
3371	2.	7.2498	0.	124.67
3372	2.75	7.4999	0.	124.72
3373	2.5	7.7499	0.	124.72
3374	3.25	7.4999	0.	124.74
3375	3.	7.7499	0.	124.74
3376	3.	7.2499	0.	124.71
3377	3.75	7.5	0.	124.77
3378	3.5	7.7499	0.	124.76
3379	4.25	7.5	0.	124.8
3380	4.	7.75	0.	124.79
3381	4.75	7.5	0.	124.83
3382	4.5	7.75	0.	124.82
3383	5.25	7.5	0.	124.87
3384	5.	7.75	0.	124.85
3385	5.5	7.75	0.	124.89
3386	5.75	7.5	0.	124.91
3387	6.75	7.5	0.	124.98
3388	6.5	7.75	0.	124.95
3389	6.25	7.5	0.	124.94
3390	7.25	7.5	0.	125.01
3391	7.	7.75	0.	124.99
3392	7.5	7.25	0.	125.04
3393	7.75	7.5	0.	125.04
3394	7.5	7.75	0.	125.02
3395	7.5	6.75	0.	125.07
3396	7.75	7.	0.	125.07
3397	7.5	6.25	0.	125.1
3398	7.75	6.5	0.	125.11
3399	7.5	5.75	0.	125.14
3400	7.75	6.	0.	125.14
3401	7.25	6.	0.	125.09
3402	7.5	5.25	0.	125.17
3403	7.75	5.5	0.	125.18
3404	7.5	4.75	0.	125.22
3405	7.75	5.	0.	125.22
3406	7.5	4.25	0.	125.26
3407	7.75	4.5	0.	125.27
3408	7.75	4.	0.	125.32
3409	7.5	3.75	0.	125.31
3410	7.25	4.	0.	125.25
3411	7.5	2.25	0.	125.52
3412	7.75	2.5	0.	125.51
3413	7.5	2.75	0.	125.44
3414	7.5	1.75	0.	125.6
3415	7.75	2.	0.	125.59
3416	7.25	2.	0.	125.52
3417	7.5	1.25	0.	125.7
3418	7.75	1.5	0.	125.67
3419	7.5	0.75	0.	125.8
3420	7.75	1.	0.	125.76
3421	7.25	1.	0.	125.72
3422	7.5	0.25	0.	125.9
3423	7.75	0.5	0.	125.86
3424	7.5	-0.25	0.	126.
3425	7.75	-1.0926e-008	0.	125.95
3426	7.5	-0.75	0.	126.09
3427	7.75	-0.5	0.	126.03
3428	7.5	-1.25	0.	126.16
3429	7.75	-1.	0.	126.09
3430	7.5	-1.75	0.	126.19
3431	7.75	-1.5	0.	126.13
3432	7.5	-2.25	0.	126.16
3433	7.75	-2.	0.	126.12
3434	7.5	-2.75	0.	126.09
3435	7.75	-2.5	0.	126.08
3436	7.5	-3.25	0.	125.98
3437	7.75	-3.	0.	125.99
3438	7.5	-3.75	0.	125.85
3439	7.75	-3.5	0.	125.88
3440	7.25	-3.5	0.	125.96
3441	7.5	-4.25	0.	125.75
3442	7.75	-4.	0.	125.78
3443	7.5	-4.75	0.	125.71
3444	7.75	-4.5	0.	125.71
3445	7.5	-5.25	0.	125.74
3446	7.75	-5.	0.	125.71
3447	7.5	-5.75	0.	125.86
3448	7.75	-5.5	0.	125.79
3449	7.5	-6.25	0.	126.05
3450	7.75	-6.	0.	125.94
3451	7.5	-6.75	0.	126.25
3452	7.75	-6.5	0.	126.12
3453	7.5	-7.25	0.	126.44
3454	7.75	-7.	0.	126.32
3455	7.25	-7.5	0.	126.59
3456	7.75	-7.5	0.	126.49
3457	7.5	-7.75	0.	126.6
3458	6.75	-7.5	0.	126.73
3459	7.	-7.75	0.	126.72
3460	6.25	-7.5	0.	126.91
3461	6.5	-7.75	0.	126.86
3462	5.75	-7.5	0.	127.13
3463	6.	-7.75	0.	127.02
3464	6.	-7.25	0.	126.93
3465	5.5	-7.75	0.	127.17
3466	5.25	-7.5	0.	127.36
3467	4.25	-7.5	0.	127.25
3468	4.5	-7.25	0.	127.88
3469	4.5	-7.75	0.	127.1
3470	4.75	-7.5	0.	127.5
3471	2.25	-7.5	0.	117.29
3472	1.75	-7.5	0.	117.34
3473	2.	-7.75	0.	117.54
3474	-0.75	-7.5	0.	127.08
3475	-0.5	-7.25	0.	127.88
3476	-0.25	-7.5	0.	127.19
3477	-0.5	-7.75	0.	126.8
3478	-1.	-7.75	0.	126.52
3479	-1.25	-7.5	0.	126.36
3480	-2.25	-7.5	0.	124.74
3481	-2.	-7.75	0.	125.15
3482	-2.	-7.25	0.	124.68
3483	-1.75	-7.5	0.	125.45
3484	-2.75	-7.5	0.	124.54
3485	-2.5	-7.75	0.	124.75
3486	-3.25	-7.5	0.	124.85
3487	-3.	-7.75	0.	124.82
3488	-3.75	-7.5	0.	125.39
3489	-3.5	-7.75	0.	125.21
3490	-3.5	-7.25	0.	125.03
3491	-4.25	-7.5	0.	125.86
3492	-4.	-7.75	0.	125.67
3493	-4.75	-7.5	0.	126.12
3494	-4.5	-7.75	0.	125.99
3495	-5.	-7.75	0.	126.14
3496	-5.25	-7.5	0.	126.19
3497	-6.25	-7.5	0.	126.08
3498	-6.	-7.75	0.	126.12
3499	-6.	-7.25	0.	126.11
3500	-5.75	-7.5	0.	126.16
3501	-6.75	-7.5	0.	125.98
3502	-6.5	-7.75	0.	126.04
3503	-7.25	-7.5	0.	125.89
3504	-7.	-7.75	0.	125.95
3505	-7.5	-7.25	0.	125.81
3506	-7.75	-7.5	0.	125.8
3507	-7.5	-7.75	0.	125.87
3508	-7.5	-6.75	0.	125.73
3509	-7.75	-7.	0.	125.73
3510	-7.5	-6.25	0.	125.63
3511	-7.75	-6.5	0.	125.65
3512	-7.5	-5.75	0.	125.53
3513	-7.75	-6.	0.	125.55
3514	-7.25	-6.	0.	125.62
3515	-7.5	-5.25	0.	125.45
3516	-7.75	-5.5	0.	125.47
3517	-7.5	-4.75	0.	125.39
3518	-7.75	-5.	0.	125.4
3519	-7.5	-4.25	0.	125.38
3520	-7.75	-4.5	0.	125.36
3521	-7.5	-3.75	0.	125.41
3522	-7.75	-4.	0.	125.37
3523	-7.5	-3.25	0.	125.46
3524	-7.75	-3.5	0.	125.41
3525	-7.5	-2.75	0.	125.53
3526	-7.75	-3.	0.	125.46
3527	-7.5	-2.25	0.	125.58
3528	-7.75	-2.5	0.	125.52
3529	-7.5	-1.75	0.	125.61
3530	-7.75	-2.	0.	125.56
3531	-7.5	-1.25	0.	125.62
3532	-7.75	-1.5	0.	125.58
3533	-7.5	-0.75	0.	125.6
3534	-7.75	-1.	0.	125.58
3535	-7.5	-0.25	0.	125.56
3536	-7.75	-0.5	0.	125.56
3537	-7.5	0.25	0.	125.5
3538	-7.75	2.3523e-007	0.	125.52
3539	-7.75	0.5	0.	125.47
3540	-7.5	0.75	0.	125.43
3541	-7.75	1.5	0.	125.31
3542	-7.5	1.75	0.	125.23
3543	-7.5	1.25	0.	125.34
3544	-7.5	3.75	0.	124.41
3545	-7.75	3.5	0.	124.65
3546	-7.5	3.25	0.	124.7
3547	-7.5	4.25	0.	124.01
3548	-7.75	4.	0.	124.35
3549	-7.5	4.75	0.	123.42
3550	-7.75	4.5	0.	123.93
3551	-7.5	5.25	0.	122.44
3552	-7.75	5.	0.	123.32
3553	-7.25	5.5	0.	122.43
3554	-7.75	5.5	0.	122.4
3555	-7.5	5.75	0.	120.58
3556	-5.4999	7.2498	0.	125.63
3557	-5.7499	7.4999	0.	125.58
3558	-5.4999	7.7499	0.	125.52
3559	-5.7498	5.9998	0.	127.14
3560	-5.4998	6.2497	0.	126.73
3561	-4.	-6.25	0.	126.85
3562	-3.75	-6.5	0.	125.72
3563	-0.75	-6.5	0.	128.42
3564	-1.25	-6.5	0.	126.89
3565	-1.	-6.25	0.	128.09
3566	-2.75	-6.5	0.	122.45
3567	-2.5	-6.25	0.	120.46
3568	-2.25	-6.5	0.	122.66
3569	-1.25	-2.5	0.	127.19
3570	-1.	-2.75	0.	128.68
3571	-0.75	-2.5	0.	128.24
3572	-3.75	-2.5	0.	125.92
3573	-4.	-2.75	0.	127.02
3574	-2.25	-2.5	0.	123.08
3575	-2.5	-2.75	0.	120.92
3576	-2.75	-2.5	0.	122.82
3577	-4.5	-4.25	0.	125.7
3578	-4.5	-4.75	0.	125.67
3579	-4.25	-4.5	0.	125.47
3580	-4.25	-3.	0.	127.25
3581	-4.5	-3.25	0.	126.87
3582	3.75	-7.5	0.	126.01
3583	4.	-7.75	0.	126.36
3584	4.	-7.25	0.	127.81
3585	2.75	-7.5	0.	119.81
3586	2.5	-7.25	0.	117.12
3587	2.5	-7.75	0.	118.7
3588	4.5	-5.75	0.	127.24
3589	4.25	-5.5	0.	127.56
3590	4.5	-6.75	0.	128.28
3591	4.25	-7.	0.	128.44
3592	4.5	-3.25	0.	128.35
3593	4.25	-3.	0.	128.59
3594	4.25	-4.5	0.	127.57
3595	4.5	-4.25	0.	127.25
3596	2.75	-2.5	0.	120.35
3597	2.5	-2.75	0.	117.59
3598	3.75	-2.5	0.	126.36
3599	4.	-2.75	0.	128.06
3600	0.25	-2.5	0.	126.93
3601	-5.4641e-008	-2.75	0.	128.77
3602	-0.25	-2.5	0.	128.2
3603	1.5	-2.75	0.	117.71
3604	1.25	-2.5	0.	120.55
3605	-0.5	-3.25	0.	129.49
3606	-0.25	-3.	0.	129.56
3607	-0.75	-3.	0.	129.43
3608	-0.5	-2.75	0.	129.
3609	-0.5	-6.75	0.	128.71
3610	-0.25	-7.	0.	128.69
3611	1.25	-7.5	0.	119.94
3612	1.5	-7.25	0.	117.25
3613	1.5	-7.75	0.	118.77
3614	5.1319e-011	-7.25	0.	128.01
3615	4.526e-011	-7.75	0.	126.32
3616	0.25	-7.5	0.	126.12
3617	1.	-7.75	0.	121.67
3618	1.	-7.25	0.	122.
3619	0.75	-7.5	0.	123.47
3620	-0.5	-6.25	0.	128.84
3621	-0.5	-5.75	0.	128.28
3622	-0.75	-6.	0.	128.51
3623	-0.25	-6.	0.	129.23
3624	-0.25	-6.5	0.	129.61
3625	0.5	-2.75	0.	126.97
3626	0.75	-2.5	0.	124.16
3627	3.25	-2.5	0.	123.79
3628	3.5	-2.75	0.	126.52
3629	3.	-2.75	0.	122.25
3630	4.25	-3.5	0.	129.08
3631	4.5	-3.75	0.	127.99
3632	4.5	-6.25	0.	127.96
3633	4.25	-6.5	0.	129.
3634	4.25	-6.	0.	128.37
3635	3.25	-7.5	0.	123.31
3636	3.	-7.75	0.	121.57
3637	3.	-7.25	0.	121.79
3638	3.5	-7.75	0.	124.51
3639	3.5	-7.25	0.	126.14
3640	-4.25	-4.	0.	126.44
3641	-4.5	-3.75	0.	126.35
3642	-4.75	-4.	0.	125.77
3643	-3.5	-2.75	0.	125.95
3644	-3.25	-2.5	0.	124.32
3645	-1.75	-2.5	0.	125.1
3646	-1.5	-2.75	0.	127.04
3647	-2.	-2.75	0.	123.34
3648	-0.75	-3.5	0.	129.56
3649	-0.25	-3.5	0.	129.87
3650	-0.5	-3.75	0.	128.69
3651	-0.5	-5.25	0.	127.41
3652	-0.25	-5.5	0.	128.28
3653	-0.75	-5.5	0.	128.1
3654	-0.75	-5.	0.	127.06
3655	-0.5	-4.75	0.	126.89
3656	-1.5	-6.25	0.	126.4
3657	-1.75	-6.5	0.	124.68
3658	-3.	-6.25	0.	122.42
3659	-3.25	-6.5	0.	124.04
3660	-4.5	-5.25	0.	126.27
3661	-4.25	-5.	0.	126.37
3662	-4.75	-5.	0.	125.73
3663	-4.25	-5.5	0.	127.27
3664	-4.5	-5.75	0.	126.77
3665	-5.7499	6.9998	0.	126.55
3666	-5.4999	6.7498	0.	126.27
3667	-6.7499	5.5	0.	124.09
3668	-6.9999	5.75	0.	122.68
3669	-6.4999	5.7499	0.	125.89
3670	-6.2499	5.4999	0.	125.72
3671	-4.5872e-010	-5.75	0.	129.22
3672	0.25	-5.5	0.	130.78
3673	1.25	-3.	0.	119.67
3674	1.5	-3.25	0.	114.85
3675	4.	-4.25	0.	128.72
3676	3.75	-4.5	0.	130.49
3677	2.75	-7.	0.	119.1
3678	2.5	-6.75	0.	114.49
3679	1.4309e-011	-6.75	0.	129.59
3680	0.25	-7.	0.	128.26
3681	1.25	-7.	0.	119.31
3682	1.5	-6.75	0.	114.62
3683	-8.	-7.25	0.	125.73
3684	-8.	-7.75	0.	125.79
3685	-8.25	-7.5	0.	125.73
3686	-8.	-6.75	0.	125.65
3687	-8.25	-7.	0.	125.66
3688	-8.	-6.25	0.	125.57
3689	-8.25	-6.5	0.	125.58
3690	-8.	-5.75	0.	125.49
3691	-8.25	-6.	0.	125.5
3692	-8.	-5.25	0.	125.42
3693	-8.25	-5.5	0.	125.42
3694	-8.	-4.75	0.	125.37
3695	-8.25	-5.	0.	125.37
3696	-8.	-4.25	0.	125.36
3697	-8.25	-4.5	0.	125.34
3698	-8.	-3.75	0.	125.37
3699	-8.25	-4.	0.	125.33
3700	-8.	-3.25	0.	125.41
3701	-8.25	-3.5	0.	125.36
3702	-8.	-2.75	0.	125.45
3703	-8.25	-3.	0.	125.4
3704	-8.	-2.25	0.	125.5
3705	-8.25	-2.5	0.	125.44
3706	-8.	-1.75	0.	125.53
3707	-8.25	-2.	0.	125.48
3708	-8.	-1.25	0.	125.54
3709	-8.25	-1.5	0.	125.51
3710	-8.	-0.75	0.	125.54
3711	-8.25	-1.	0.	125.52
3712	-8.	-0.25	0.	125.52
3713	-8.25	-0.5	0.	125.52
3714	-8.	0.25	0.	125.48
3715	-8.25	2.6564e-007	0.	125.5
3716	-8.	0.75	0.	125.43
3717	-8.25	0.5	0.	125.47
3718	-8.	1.25	0.	125.37
3719	-8.25	1.	0.	125.42
3720	-7.75	1.	0.	125.4
3721	-8.	1.75	0.	125.28
3722	-8.25	1.5	0.	125.37
3723	-8.	2.25	0.	125.17
3724	-8.25	2.	0.	125.29
3725	-7.75	2.	0.	125.2
3726	-8.	2.75	0.	125.03
3727	-8.25	2.5	0.	125.19
3728	-7.75	2.5	0.	125.06
3729	-8.	3.25	0.	124.84
3730	-8.25	3.	0.	125.06
3731	-7.75	3.	0.	124.89
3732	-8.	3.75	0.	124.59
3733	-8.25	3.5	0.	124.89
3734	-8.	4.25	0.	124.26
3735	-8.25	4.	0.	124.67
3736	-8.	4.75	0.	123.83
3737	-8.25	4.5	0.	124.42
3738	-8.	5.25	0.	123.29
3739	-8.25	5.	0.	124.17
3740	-8.	5.75	0.	122.63
3741	-8.25	5.5	0.	124.05
3742	-7.25	6.	0.	120.82
3743	-7.75	6.	0.	120.79
3744	-7.5	6.25	0.	116.13
3745	8.	7.25	0.	125.07
3746	8.	7.75	0.	125.04
3747	8.25	7.5	0.	125.07
3748	8.	6.75	0.	125.11
3749	8.25	7.	0.	125.1
3750	8.	6.25	0.	125.14
3751	8.25	6.5	0.	125.14
3752	8.	5.75	0.	125.18
3753	8.25	6.	0.	125.18
3754	8.	5.25	0.	125.23
3755	8.25	5.5	0.	125.23
3756	8.	4.75	0.	125.28
3757	8.25	5.	0.	125.28
3758	8.	4.25	0.	125.33
3759	8.25	4.5	0.	125.33
3760	8.	3.75	0.	125.39
3761	8.25	4.	0.	125.39
3762	8.	3.25	0.	125.45
3763	8.25	3.5	0.	125.45
3764	7.75	3.5	0.	125.38
3765	8.	2.75	0.	125.51
3766	8.25	3.	0.	125.51
3767	7.75	3.	0.	125.44
3768	8.	2.25	0.	125.59
3769	8.25	2.5	0.	125.58
3770	8.	1.75	0.	125.66
3771	8.25	2.	0.	125.65
3772	8.	1.25	0.	125.74
3773	8.25	1.5	0.	125.73
3774	8.	0.75	0.	125.82
3775	8.25	1.	0.	125.8
3776	8.	0.25	0.	125.9
3777	8.25	0.5	0.	125.87
3778	8.25	-5.599e-009	0.	125.94
3779	8.	-0.25	0.	125.97
3780	8.	-1.25	0.	126.06
3781	8.25	-1.	0.	126.02
3782	8.	-0.75	0.	126.03
3783	8.	-1.75	0.	126.07
3784	8.25	-1.5	0.	126.03
3785	8.	-2.25	0.	126.04
3786	8.25	-2.	0.	126.01
3787	8.	-2.75	0.	125.97
3788	8.25	-2.5	0.	125.96
3789	8.	-3.25	0.	125.89
3790	8.25	-3.	0.	125.89
3791	8.	-3.75	0.	125.8
3792	8.25	-3.5	0.	125.81
3793	8.	-4.25	0.	125.74
3794	8.25	-4.	0.	125.74
3795	8.	-4.75	0.	125.72
3796	8.25	-4.5	0.	125.71
3797	8.	-5.25	0.	125.76
3798	8.25	-5.	0.	125.72
3799	8.	-5.75	0.	125.87
3800	8.25	-5.5	0.	125.8
3801	8.	-6.25	0.	126.02
3802	8.25	-6.	0.	125.92
3803	8.	-6.75	0.	126.19
3804	8.25	-6.5	0.	126.08
3805	8.	-7.25	0.	126.36
3806	8.25	-7.	0.	126.25
3807	8.	-7.75	0.	126.51
3808	8.25	-7.5	0.	126.42
3809	7.75	-8.	0.	126.63
3810	8.	-8.25	0.	126.63
3811	8.25	-8.	0.	126.55
3812	7.25	-8.	0.	126.73
3813	7.5	-8.25	0.	126.72
3814	6.75	-8.	0.	126.84
3815	7.	-8.25	0.	126.81
3816	6.25	-8.	0.	126.96
3817	6.5	-8.25	0.	126.91
3818	5.75	-8.	0.	127.06
3819	6.	-8.25	0.	126.98
3820	5.25	-8.	0.	127.06
3821	5.5	-8.25	0.	126.97
3822	4.75	-8.	0.	126.86
3823	5.	-8.25	0.	126.81
3824	5.	-7.75	0.	127.26
3825	4.25	-8.	0.	126.21
3826	4.5	-8.25	0.	126.33
3827	3.75	-8.	0.	124.86
3828	4.	-8.25	0.	125.35
3829	3.25	-8.	0.	122.77
3830	3.5	-8.25	0.	123.72
3831	2.75	-8.	0.	120.47
3832	3.	-8.25	0.	121.64
3833	2.25	-8.	0.	118.93
3834	2.5	-8.25	0.	119.83
3835	1.75	-8.	0.	118.95
3836	2.	-8.25	0.	119.11
3837	1.25	-8.	0.	120.51
3838	1.5	-8.25	0.	119.84
3839	0.75	-8.	0.	122.79
3840	1.	-8.25	0.	121.64
3841	0.25	-8.	0.	124.78
3842	0.5	-8.25	0.	123.64
3843	0.5	-7.75	0.	124.58
3844	-0.25	-8.	0.	125.92
3845	3.3796e-011	-8.25	0.	125.11
3846	-0.75	-8.	0.	126.24
3847	-0.5	-8.25	0.	125.84
3848	-1.25	-8.	0.	126.01
3849	-1.	-8.25	0.	125.96
3850	-1.5	-8.25	0.	125.72
3851	-1.75	-8.	0.	125.56
3852	-1.5	-7.75	0.	125.86
3853	-2.75	-8.	0.	125.03
3854	-2.5	-8.25	0.	125.17
3855	-2.25	-8.	0.	125.17
3856	-3.25	-8.	0.	125.18
3857	-3.	-8.25	0.	125.19
3858	-3.75	-8.	0.	125.49
3859	-3.5	-8.25	0.	125.4
3860	-4.25	-8.	0.	125.8
3861	-4.	-8.25	0.	125.68
3862	-4.75	-8.	0.	126.02
3863	-4.5	-8.25	0.	125.92
3864	-5.25	-8.	0.	126.12
3865	-5.	-8.25	0.	126.06
3866	-5.75	-8.	0.	126.13
3867	-5.5	-8.25	0.	126.12
3868	-5.5	-7.75	0.	126.17
3869	-6.25	-8.	0.	126.08
3870	-6.	-8.25	0.	126.11
3871	-6.75	-8.	0.	126.01
3872	-6.5	-8.25	0.	126.05
3873	-7.25	-8.	0.	125.93
3874	-7.	-8.25	0.	125.98
3875	-7.75	-8.	0.	125.85
3876	-7.5	-8.25	0.	125.91
3877	-8.25	-8.	0.	125.78
3878	-8.	-8.25	0.	125.83
3879	-8.9549e-009	-4.25	0.	128.68
3880	0.25	-4.5	0.	130.35
3881	-0.25	-4.5	0.	127.48
3882	0.25	-3.	0.	128.79
3883	-4.0315e-008	-3.25	0.	129.94
3884	2.75	-3.	0.	119.5
3885	2.5	-3.25	0.	114.78
3886	4.	-3.25	0.	129.32
3887	3.75	-3.	0.	128.2
3888	4.	-5.75	0.	128.68
3889	3.75	-5.5	0.	130.42
3890	3.75	-7.	0.	127.93
3891	4.	-6.75	0.	129.15
3892	-4.	-4.75	0.	126.16
3893	-4.	-4.25	0.	126.2
3894	-3.75	-4.5	0.	127.15
3895	-3.75	-3.	0.	127.05
3896	-4.	-3.25	0.	127.77
3897	-2.25	-3.	0.	121.16
3898	-2.75	-3.	0.	120.87
3899	-2.5	-3.25	0.	116.05
3900	-1.	-3.25	0.	129.5
3901	-1.25	-3.	0.	128.53
3902	-1.	-4.75	0.	126.63
3903	-1.25	-4.5	0.	127.65
3904	-1.	-4.25	0.	127.08
3905	-0.75	-4.5	0.	126.47
3906	-1.25	-6.	0.	127.59
3907	-1.	-5.75	0.	128.32
3908	-2.75	-6.	0.	120.4
3909	-2.25	-6.	0.	120.55
3910	-2.5	-5.75	0.	115.54
3911	-4.	-5.75	0.	127.6
3912	-3.75	-6.	0.	126.8
3913	-4.25	-6.	0.	127.1
3914	-5.9999	7.7499	0.	126.45
3915	-5.9999	7.2499	0.	126.49
3916	-6.2499	7.4999	0.	127.69
3917	-6.2499	5.9999	0.	127.07
3918	-5.9999	6.2499	0.	127.82
3919	-5.9998	5.7498	0.	126.9
3920	-5.2499	7.9998	0.	125.35
3921	-5.7499	7.9999	0.	126.39
3922	-5.4999	8.2499	0.	125.93
3923	-4.9999	8.2498	0.	125.18
3924	-4.7499	7.9998	0.	124.89
3925	-3.75	7.9998	0.	124.61
3926	-4.	8.2498	0.	124.69
3927	-4.2499	7.9998	0.	124.68
3928	-3.25	7.9998	0.	124.59
3929	-3.5	8.2498	0.	124.65
3930	-2.75	7.9998	0.	124.61
3931	-3.	8.2498	0.	124.65
3932	-2.25	7.9998	0.	124.63
3933	-2.5	8.2498	0.	124.66
3934	-1.75	7.9998	0.	124.65
3935	-2.	8.2498	0.	124.68
3936	-1.25	7.9998	0.	124.66
3937	-1.5	8.2498	0.	124.69
3938	-0.74997	7.9998	0.	124.67
3939	-0.99998	8.2498	0.	124.7
3940	-0.24997	7.9998	0.	124.68
3941	-0.49998	8.2499	0.	124.7
3942	0.25002	7.9998	0.	124.69
3943	1.5692e-005	8.2499	0.	124.7
3944	0.75001	7.9999	0.	124.69
3945	0.50001	8.2499	0.	124.7
3946	1.25	7.9999	0.	124.7
3947	1.	8.2499	0.	124.71
3948	1.	7.7498	0.	124.68
3949	1.75	7.9999	0.	124.71
3950	1.5	8.2499	0.	124.72
3951	2.25	7.9999	0.	124.72
3952	2.	8.2499	0.	124.73
3953	2.75	7.9999	0.	124.74
3954	2.5	8.2499	0.	124.74
3955	3.25	7.9999	0.	124.76
3956	3.	8.2499	0.	124.76
3957	3.75	8.	0.	124.78
3958	3.5	8.25	0.	124.78
3959	4.25	8.	0.	124.81
3960	4.	8.25	0.	124.8
3961	4.75	8.	0.	124.84
3962	4.5	8.25	0.	124.82
3963	5.25	8.	0.	124.87
3964	5.	8.25	0.	124.85
3965	5.75	8.	0.	124.9
3966	5.5	8.25	0.	124.88
3967	6.25	8.	0.	124.93
3968	6.	8.25	0.	124.91
3969	6.	7.75	0.	124.92
3970	6.75	8.	0.	124.96
3971	6.5	8.25	0.	124.94
3972	7.25	8.	0.	124.99
3973	7.	8.25	0.	124.97
3974	7.75	8.	0.	125.02
3975	7.5	8.25	0.	124.99
3976	-6.	8.2499	0.	127.53
3977	-6.25	7.9999	0.	128.43
3978	8.25	8.	0.	125.04
3979	8.	8.25	0.	125.02
3980	-6.7499	5.9999	0.	124.5
3981	-6.9999	6.25	0.	122.79
3982	-6.4999	6.2499	0.	128.5
3983	-6.2499	6.9999	0.	128.42
3984	-5.9999	6.7499	0.	127.68
3985	-4.	-5.25	0.	127.36
3986	-3.75	-5.	0.	127.9
3987	-3.75	-5.5	0.	128.78
3988	-3.25	-6.	0.	124.07
3989	-3.5	-5.75	0.	127.99
3990	-3.5	-6.25	0.	125.68
3991	-3.	-5.75	0.	122.08
3992	-1.75	-6.	0.	124.51
3993	-2.	-5.75	0.	122.36
3994	-2.	-6.25	0.	122.78
3995	-1.5	-5.75	0.	128.36
3996	-1.25	-5.	0.	128.07
3997	-1.	-5.25	0.	127.74
3998	-1.25	-3.5	0.	130.3
3999	-1.	-3.75	0.	128.88
4000	-2.	-3.25	0.	123.07
4001	-1.75	-3.	0.	125.29
4002	-3.25	-3.	0.	124.43
4003	-3.	-3.25	0.	122.5
4004	-3.	-2.75	0.	122.79
4005	-3.5	-3.25	0.	128.28
4006	-4.	-3.75	0.	127.48
4007	-3.75	-3.5	0.	128.99
4008	-4.25	-3.5	0.	127.39
4009	-3.75	-4.	0.	128.01
4010	3.25	-7.	0.	124.61
4011	3.	-6.75	0.	122.88
4012	3.5	-6.75	0.	129.28
4013	4.	-6.25	0.	129.4
4014	3.75	-6.5	0.	130.47
4015	3.75	-6.	0.	129.87
4016	4.	-3.75	0.	129.49
4017	3.75	-4.	0.	129.93
4018	4.25	-4.	0.	128.41
4019	3.75	-3.5	0.	130.65
4020	3.25	-3.	0.	124.99
4021	3.5	-3.25	0.	129.56
4022	3.	-3.25	0.	123.25
4023	0.75	-3.	0.	125.32
4024	1.	-3.25	0.	123.42
4025	1.	-2.75	0.	122.51
4026	0.5	-3.25	0.	129.88
4027	0.25	-4.	0.	129.93
4028	-2.16e-008	-3.75	0.	129.77
4029	-0.25	-4.	0.	128.61
4030	-1.3242e-010	-6.25	0.	130.
4031	0.25	-6.	0.	130.34
4032	0.25	-6.5	0.	130.96
4033	1.	-6.75	0.	123.2
4034	0.75	-7.	0.	124.92
4035	-8.25	6.	0.	124.46
4036	-8.	6.25	0.	122.72
4037	7.75	-8.5	0.	126.72
4038	8.25	-8.5	0.	126.66
4039	8.	-8.75	0.	126.72
4040	8.5	-7.75	0.	126.45
4041	8.5	-7.25	0.	126.3
4042	8.75	-7.5	0.	126.36
4043	8.5	-8.25	0.	126.58
4044	8.75	-8.	0.	126.51
4045	8.5	-6.75	0.	126.14
4046	8.5	-6.25	0.	125.99
4047	8.75	-6.5	0.	126.04
4048	8.75	-7.	0.	126.2
4049	8.5	-5.75	0.	125.85
4050	8.5	-5.25	0.	125.76
4051	8.75	-5.5	0.	125.77
4052	8.75	-6.	0.	125.89
4053	8.75	-5.	0.	125.69
4054	8.5	-4.75	0.	125.71
4055	8.5	-3.75	0.	125.74
4056	8.5	-3.25	0.	125.8
4057	8.75	-3.5	0.	125.72
4058	8.75	-4.	0.	125.68
4059	8.5	-4.25	0.	125.71
4060	8.5	-2.75	0.	125.87
4061	8.5	-2.25	0.	125.93
4062	8.75	-2.5	0.	125.86
4063	8.75	-3.	0.	125.79
4064	8.5	-1.75	0.	125.97
4065	8.5	-1.25	0.	125.99
4066	8.75	-1.5	0.	125.95
4067	8.75	-2.	0.	125.91
4068	8.5	-0.75	0.	125.98
4069	8.5	-0.25	0.	125.95
4070	8.75	-0.5	0.	125.96
4071	8.25	-0.5	0.	125.99
4072	8.75	-1.	0.	125.97
4073	8.5	0.25	0.	125.91
4074	8.75	-2.6414e-009	0.	125.94
4075	8.75	1.	0.	125.85
4076	8.5	0.75	0.	125.85
4077	8.5	1.25	0.	125.79
4078	8.75	2.	0.	125.72
4079	8.5	1.75	0.	125.72
4080	8.5	2.25	0.	125.65
4081	8.5	3.25	0.	125.51
4082	8.5	3.75	0.	125.45
4083	8.75	3.5	0.	125.51
4084	8.5	2.75	0.	125.58
4085	8.75	3.	0.	125.58
4086	8.75	4.	0.	125.45
4087	8.5	4.25	0.	125.39
4088	8.75	5.	0.	125.32
4089	8.5	4.75	0.	125.33
4090	8.5	5.25	0.	125.27
4091	8.75	6.	0.	125.21
4092	8.5	6.25	0.	125.18
4093	8.5	5.75	0.	125.22
4094	8.5	7.25	0.	125.1
4095	8.5	7.75	0.	125.06
4096	8.75	7.5	0.	125.08
4097	8.5	6.75	0.	125.13
4098	8.75	7.	0.	125.12
4099	-8.5	-7.75	0.	125.72
4100	-8.5	-8.25	0.	125.77
4101	-8.75	-8.	0.	125.73
4102	-5.75	8.4999	0.	127.08
4103	-6.25	8.4999	0.	129.24
4104	-6.	8.7499	0.	127.49
4105	8.5	8.25	0.	125.03
4106	8.75	8.	0.	125.05
4107	7.75	8.5	0.	124.99
4108	7.25	8.5	0.	124.97
4109	7.5	8.75	0.	124.97
4110	8.25	8.5	0.	125.01
4111	8.	8.75	0.	125.
4112	6.75	8.5	0.	124.95
4113	6.25	8.5	0.	124.92
4114	6.5	8.75	0.	124.93
4115	7.	8.75	0.	124.95
4116	5.75	8.5	0.	124.89
4117	5.25	8.5	0.	124.86
4118	5.5	8.75	0.	124.87
4119	6.	8.75	0.	124.9
4120	5.	8.75	0.	124.85
4121	4.75	8.5	0.	124.84
4122	3.75	8.5	0.	124.79
4123	3.25	8.4999	0.	124.77
4124	3.5	8.75	0.	124.78
4125	4.	8.75	0.	124.8
4126	4.25	8.5	0.	124.81
4127	2.75	8.4999	0.	124.75
4128	2.25	8.4999	0.	124.74
4129	2.5	8.7499	0.	124.75
4130	3.	8.7499	0.	124.76
4131	2.	8.7499	0.	124.74
4132	1.75	8.4999	0.	124.73
4133	0.75	8.4999	0.	124.72
4134	0.25001	8.4999	0.	124.72
4135	0.5	8.7499	0.	124.73
4136	1.25	8.4999	0.	124.72
4137	1.	8.7499	0.	124.73
4138	5.8725e-006	8.7499	0.	124.74
4139	-0.24999	8.4999	0.	124.72
4140	-1.25	8.4999	0.	124.72
4141	-0.99999	8.7499	0.	124.75
4142	-0.74999	8.4999	0.	124.72
4143	-1.75	8.4999	0.	124.72
4144	-2.	8.7499	0.	124.77
4145	-2.25	8.4999	0.	124.71
4146	-3.25	8.4999	0.	124.7
4147	-3.	8.7499	0.	124.78
4148	-2.75	8.4999	0.	124.7
4149	-4.75	8.4999	0.	125.12
4150	-4.5	8.7499	0.	125.02
4151	-4.25	8.4999	0.	124.83
4152	-4.4999	8.2498	0.	124.83
4153	-5.25	8.4999	0.	125.77
4154	-5.5	8.7499	0.	126.16
4155	-5.	8.7499	0.	125.39
4156	-8.5	5.75	0.	125.88
4157	-8.5	5.25	0.	124.93
4158	-8.75	5.5	0.	125.75
4159	-8.5	6.25	0.	128.58
4160	-8.75	6.	0.	127.1
4161	-8.5	4.75	0.	124.76
4162	-8.5	4.25	0.	124.83
4163	-8.75	4.5	0.	125.15
4164	-8.75	5.	0.	125.27
4165	-8.5	3.75	0.	124.97
4166	-8.5	3.25	0.	125.11
4167	-8.75	3.5	0.	125.25
4168	-8.75	4.	0.	125.18
4169	-8.5	2.75	0.	125.22
4170	-8.5	2.25	0.	125.31
4171	-8.75	2.5	0.	125.37
4172	-8.75	3.	0.	125.31
4173	-8.5	1.75	0.	125.37
4174	-8.5	1.25	0.	125.42
4175	-8.75	1.5	0.	125.44
4176	-8.75	2.	0.	125.41
4177	-8.75	1.	0.	125.47
4178	-8.5	0.75	0.	125.46
4179	-8.5	-0.25	0.	125.49
4180	-8.5	-0.75	0.	125.49
4181	-8.75	-0.5	0.	125.48
4182	-8.5	0.25	0.	125.48
4183	-8.75	2.6665e-007	0.	125.49
4184	-8.5	-1.25	0.	125.48
4185	-8.5	-1.75	0.	125.46
4186	-8.75	-1.5	0.	125.44
4187	-8.75	-1.	0.	125.47
4188	-8.5	-2.25	0.	125.42
4189	-8.5	-2.75	0.	125.39
4190	-8.75	-2.5	0.	125.37
4191	-8.75	-2.	0.	125.41
4192	-8.75	-3.	0.	125.33
4193	-8.5	-3.25	0.	125.35
4194	-8.5	-4.25	0.	125.32
4195	-8.5	-4.75	0.	125.33
4196	-8.75	-4.5	0.	125.29
4197	-8.75	-4.	0.	125.28
4198	-8.5	-3.75	0.	125.32
4199	-8.75	-5.	0.	125.32
4200	-8.5	-5.25	0.	125.37
4201	-8.75	-7.5	0.	125.66
4202	-8.5	-7.25	0.	125.66
4203	-8.25	-8.5	0.	125.83
4204	-7.75	-8.5	0.	125.89
4205	-8.	-8.75	0.	125.87
4206	-6.75	-8.5	0.	126.02
4207	-6.25	-8.5	0.	126.08
4208	-6.5	-8.75	0.	126.06
4209	-7.25	-8.5	0.	125.96
4210	-7.	-8.75	0.	126.
4211	-6.	-8.75	0.	126.09
4212	-5.75	-8.5	0.	126.1
4213	-5.	-8.75	0.	126.02
4214	-4.75	-8.5	0.	125.97
4215	-5.25	-8.5	0.	126.07
4216	-4.	-8.75	0.	125.73
4217	-4.25	-8.5	0.	125.8
4218	-3.75	-8.5	0.	125.59
4219	-2.75	-8.5	0.	125.32
4220	-2.25	-8.5	0.	125.38
4221	-2.5	-8.75	0.	125.39
4222	-3.	-8.75	0.	125.41
4223	-3.25	-8.5	0.	125.41
4224	-1.75	-8.5	0.	125.54
4225	-2.	-8.25	0.	125.38
4226	-2.	-8.75	0.	125.46
4227	-0.75	-8.5	0.	125.56
4228	-0.25	-8.5	0.	125.03
4229	-0.5	-8.75	0.	125.15
4230	-1.	-8.75	0.	125.5
4231	-1.25	-8.5	0.	125.67
4232	0.25	-8.5	0.	123.98
4233	0.75	-8.5	0.	122.49
4234	0.5	-8.75	0.	123.14
4235	2.3044e-011	-8.75	0.	124.36
4236	1.25	-8.5	0.	120.97
4237	1.	-8.75	0.	121.72
4238	1.75	-8.5	0.	120.
4239	2.	-8.75	0.	120.09
4240	2.25	-8.5	0.	120.
4241	3.25	-8.5	0.	122.59
4242	2.75	-8.5	0.	121.
4243	3.	-8.75	0.	121.81
4244	3.75	-8.5	0.	124.21
4245	4.25	-8.5	0.	125.47
4246	4.	-8.75	0.	124.72
4247	5.	-8.75	0.	126.39
4248	5.25	-8.5	0.	126.71
4249	4.75	-8.5	0.	126.28
4250	6.25	-8.5	0.	126.93
4251	6.75	-8.5	0.	126.88
4252	6.5	-8.75	0.	126.9
4253	6.	-8.75	0.	126.88
4254	5.75	-8.5	0.	126.89
4255	7.25	-8.5	0.	126.8
4256	7.5	-8.75	0.	126.79
4257	7.	-8.75	0.	126.86
4258	8.75	-8.5	0.	126.63
4259	8.5	-8.75	0.	126.67
4260	-8.75	-8.5	0.	125.78
4261	-8.5	-8.75	0.	125.81
4262	8.75	8.5	0.	125.03
4263	8.5	8.75	0.	125.01
4264	7.25	-9.	0.	126.84
4265	7.5	-9.25	0.	126.83
4266	7.75	-9.	0.	126.78
4267	6.75	-9.	0.	126.88
4268	7.	-9.25	0.	126.87
4269	6.25	-9.	0.	126.86
4270	6.5	-9.25	0.	126.87
4271	5.75	-9.	0.	126.72
4272	6.	-9.25	0.	126.78
4273	5.25	-9.	0.	126.41
4274	5.5	-9.25	0.	126.54
4275	5.5	-8.75	0.	126.74
4276	4.75	-9.	0.	125.86
4277	5.	-9.25	0.	126.09
4278	4.5	-9.25	0.	125.38
4279	4.5	-8.75	0.	125.75
4280	4.25	-9.	0.	125.
4281	3.5	-9.25	0.	123.17
4282	3.5	-8.75	0.	123.34
4283	3.25	-9.	0.	122.56
4284	3.75	-9.	0.	123.85
4285	2.5	-9.25	0.	121.03
4286	2.25	-9.	0.	120.67
4287	2.5	-8.75	0.	120.58
4288	2.75	-9.	0.	121.38
4289	1.5	-9.25	0.	120.97
4290	1.5	-8.75	0.	120.55
4291	1.75	-9.	0.	120.64
4292	1.25	-9.	0.	121.29
4293	0.25	-9.	0.	123.53
4294	0.5	-9.25	0.	122.9
4295	0.75	-9.	0.	122.37
4296	-0.25	-9.	0.	124.48
4297	1.3029e-011	-9.25	0.	123.94
4298	-0.75	-9.	0.	125.09
4299	-0.5	-9.25	0.	124.72
4300	-1.25	-9.	0.	125.39
4301	-1.	-9.25	0.	125.19
4302	-1.5	-9.25	0.	125.4
4303	-1.5	-8.75	0.	125.55
4304	-1.75	-9.	0.	125.47
4305	-2.75	-9.	0.	125.48
4306	-2.5	-9.25	0.	125.49
4307	-2.25	-9.	0.	125.46
4308	-3.25	-9.	0.	125.55
4309	-3.	-9.25	0.	125.54
4310	-3.75	-9.	0.	125.68
4311	-3.5	-9.25	0.	125.64
4312	-3.5	-8.75	0.	125.55
4313	-4.25	-9.	0.	125.83
4314	-4.	-9.25	0.	125.77
4315	-4.75	-9.	0.	125.95
4316	-4.5	-9.25	0.	125.9
4317	-4.5	-8.75	0.	125.9
4318	-5.25	-9.	0.	126.04
4319	-5.	-9.25	0.	126.
4320	-5.5	-9.25	0.	126.06
4321	-5.75	-9.	0.	126.07
4322	-5.5	-8.75	0.	126.08
4323	-6.5	-9.25	0.	126.05
4324	-6.25	-9.	0.	126.07
4325	-6.75	-9.	0.	126.03
4326	-7.5	-9.25	0.	125.95
4327	-7.5	-8.75	0.	125.93
4328	-7.75	-9.	0.	125.91
4329	-7.25	-9.	0.	125.97
4330	-9.	-8.75	0.	125.78
4331	-9.25	-8.5	0.	125.76
4332	-9.	-8.25	0.	125.73
4333	-8.75	-9.	0.	125.81
4334	-8.5	-9.25	0.	125.84
4335	-8.25	-9.	0.	125.85
4336	-9.25	-7.5	0.	125.62
4337	-9.	-7.75	0.	125.67
4338	-9.	-7.25	0.	125.6
4339	-9.25	-6.5	0.	125.44
4340	-9.	-6.25	0.	125.44
4341	-9.	-6.75	0.	125.52
4342	-8.75	-6.5	0.	125.51
4343	-9.25	-5.5	0.	125.29
4344	-9.	-5.75	0.	125.37
4345	-9.	-5.25	0.	125.31
4346	-8.75	-5.5	0.	125.37
4347	-9.25	-4.5	0.	125.2
4348	-9.	-4.25	0.	125.25
4349	-9.	-4.75	0.	125.27
4350	-9.	-3.25	0.	125.27
4351	-9.25	-3.5	0.	125.21
4352	-9.	-3.75	0.	125.25
4353	-8.75	-3.5	0.	125.3
4354	-9.	-2.75	0.	125.31
4355	-9.25	-3.	0.	125.24
4356	-9.25	-2.5	0.	125.29
4357	-9.	-2.25	0.	125.35
4358	-9.25	-1.5	0.	125.38
4359	-9.	-1.75	0.	125.39
4360	-9.	-1.25	0.	125.43
4361	-9.25	-0.5	0.	125.46
4362	-9.	-0.75	0.	125.46
4363	-9.	-0.25	0.	125.48
4364	-9.	0.75	0.	125.49
4365	-9.25	0.5	0.	125.51
4366	-8.75	0.5	0.	125.48
4367	-9.	0.25	0.	125.49
4368	-9.	1.25	0.	125.49
4369	-9.25	1.	0.	125.52
4370	-9.	1.75	0.	125.48
4371	-9.25	1.5	0.	125.53
4372	-9.	2.25	0.	125.47
4373	-9.25	2.	0.	125.54
4374	-9.	2.75	0.	125.46
4375	-9.25	2.5	0.	125.56
4376	-9.	3.25	0.	125.45
4377	-9.25	3.	0.	125.6
4378	-9.	3.75	0.	125.46
4379	-9.25	3.5	0.	125.65
4380	-9.	4.25	0.	125.5
4381	-9.25	4.	0.	125.73
4382	-9.	4.75	0.	125.66
4383	-9.25	4.5	0.	125.88
4384	-9.	5.25	0.	126.09
4385	-9.25	5.	0.	126.15
4386	-9.25	5.5	0.	126.62
4387	-9.	5.75	0.	126.98
4388	-8.75	6.5	0.	129.44
4389	-9.25	6.5	0.	127.61
4390	-9.	6.25	0.	127.98
4391	-9.	6.75	0.	128.
4392	-8.75	7.5	0.	128.06
4393	-9.25	7.5	0.	125.85
4394	-9.	7.25	0.	126.9
4395	-9.	7.75	0.	126.81
4396	-8.5	8.75	0.	128.77
4397	-8.75	9.	0.	126.85
4398	-8.5	9.25	0.	125.77
4399	-8.25	9.	0.	124.93
4400	-8.75	8.5	0.	129.4
4401	-9.	8.75	0.	127.49
4402	-9.25	8.5	0.	126.97
4403	-9.	8.25	0.	127.74
4404	-7.25	9.	0.	121.68
4405	-7.5	8.75	0.	116.97
4406	-7.5	9.25	0.	121.57
4407	-7.75	9.	0.	121.69
4408	-6.75	9.	0.	124.93
4409	-7.	8.75	0.	123.46
4410	-7.	9.25	0.	123.34
4411	-6.5	8.75	0.	128.67
4412	-6.5	9.25	0.	125.87
4413	-6.25	9.	0.	126.91
4414	-5.5	9.25	0.	125.86
4415	-5.25	8.9999	0.	125.78
4416	-5.75	8.9999	0.	126.58
4417	-4.5	9.2499	0.	125.23
4418	-4.25	8.9999	0.	125.04
4419	-4.75	8.9999	0.	125.28
4420	-3.5	9.2499	0.	125.01
4421	-3.75	8.9999	0.	124.93
4422	-3.5	8.7499	0.	124.8
4423	-3.25	8.9999	0.	124.88
4424	-2.5	9.2499	0.	124.9
4425	-2.25	8.9999	0.	124.83
4426	-2.75	8.9999	0.	124.85
4427	-2.5	8.7499	0.	124.77
4428	-1.5	9.2499	0.	124.83
4429	-1.5	8.7499	0.	124.76
4430	-1.75	8.9999	0.	124.81
4431	-1.25	8.9999	0.	124.79
4432	0.5	9.25	0.	124.74
4433	0.75	8.9999	0.	124.74
4434	0.25	8.9999	0.	124.75
4435	1.75	8.9999	0.	124.74
4436	1.5	9.25	0.	124.73
4437	1.5	8.7499	0.	124.73
4438	1.25	8.9999	0.	124.74
4439	2.25	9.	0.	124.75
4440	2.	9.25	0.	124.74
4441	2.75	9.	0.	124.76
4442	2.5	9.25	0.	124.75
4443	3.25	9.	0.	124.77
4444	3.	9.25	0.	124.76
4445	3.5	9.25	0.	124.78
4446	3.75	9.	0.	124.79
4447	4.75	9.	0.	124.83
4448	4.5	9.25	0.	124.82
4449	4.25	9.	0.	124.81
4450	4.5	8.75	0.	124.82
4451	5.25	9.	0.	124.86
4452	5.	9.25	0.	124.84
4453	5.75	9.	0.	124.88
4454	5.5	9.25	0.	124.87
4455	6.25	9.	0.	124.91
4456	6.	9.25	0.	124.89
4457	6.5	9.25	0.	124.92
4458	6.75	9.	0.	124.93
4459	7.75	9.	0.	124.98
4460	7.5	9.25	0.	124.96
4461	7.25	9.	0.	124.96
4462	9.	8.25	0.	125.04
4463	9.	8.75	0.	125.02
4464	9.25	8.5	0.	125.03
4465	8.25	9.	0.	124.99
4466	8.	9.25	0.	124.98
4467	8.75	9.	0.	125.01
4468	8.5	9.25	0.	125.
4469	9.	7.75	0.	125.07
4470	9.25	8.	0.	125.05
4471	9.25	7.5	0.	125.09
4472	9.	7.25	0.	125.11
4473	9.	6.25	0.	125.2
4474	9.25	6.5	0.	125.18
4475	8.75	6.5	0.	125.17
4476	9.	6.75	0.	125.15
4477	9.	5.75	0.	125.25
4478	9.25	6.	0.	125.23
4479	9.25	5.5	0.	125.29
4480	9.	5.25	0.	125.31
4481	8.75	5.5	0.	125.27
4482	9.25	4.5	0.	125.43
4483	9.	4.75	0.	125.38
4484	9.	4.25	0.	125.44
4485	8.75	4.5	0.	125.38
4486	9.25	3.5	0.	125.58
4487	9.	3.75	0.	125.51
4488	9.	3.25	0.	125.58
4489	9.25	1.5	0.	125.86
4490	9.	1.25	0.	125.84
4491	9.	1.75	0.	125.79
4492	8.75	1.5	0.	125.79
4493	9.25	0.5	0.	125.95
4494	9.	0.75	0.	125.89
4495	8.75	0.5	0.	125.9
4496	9.	0.25	0.	125.93
4497	9.25	-0.5	0.	125.97
4498	9.	-0.75	0.	125.95
4499	9.	-0.25	0.	125.95
4500	9.	-1.75	0.	125.89
4501	9.25	-1.5	0.	125.9
4502	9.	-1.25	0.	125.93
4503	9.	-2.25	0.	125.84
4504	9.25	-2.	0.	125.84
4505	9.	-2.75	0.	125.77
4506	9.25	-2.5	0.	125.76
4507	9.	-3.25	0.	125.71
4508	9.25	-3.	0.	125.68
4509	9.25	-3.5	0.	125.61
4510	9.	-3.75	0.	125.66
4511	9.25	-4.5	0.	125.56
4512	9.	-4.75	0.	125.64
4513	9.	-4.25	0.	125.63
4514	8.75	-4.5	0.	125.66
4515	9.25	-5.5	0.	125.68
4516	9.	-5.75	0.	125.8
4517	9.	-5.25	0.	125.7
4518	9.25	-6.5	0.	125.97
4519	9.	-6.25	0.	125.94
4520	9.	-6.75	0.	126.09
4521	9.25	-7.5	0.	126.34
4522	9.	-7.75	0.	126.42
4523	9.	-7.25	0.	126.26
4524	9.	-8.75	0.	126.67
4525	9.25	-8.5	0.	126.65
4526	9.	-8.25	0.	126.56
4527	0.5	-6.25	0.	131.26
4528	0.75	-6.5	0.	127.88
4529	0.5	-6.75	0.	129.66
4530	0.5	-3.75	0.	131.12
4531	0.75	-3.5	0.	127.93
4532	0.25	-3.5	0.	131.
4533	3.25	-3.5	0.	127.77
4534	3.5	-3.75	0.	131.05
4535	3.5	-6.25	0.	130.9
4536	3.25	-6.5	0.	127.48
4537	-3.25	-3.5	0.	126.32
4538	-3.5	-3.75	0.	129.48
4539	-1.75	-3.5	0.	127.09
4540	-1.5	-3.75	0.	130.21
4541	-1.5	-3.25	0.	129.34
4542	-1.5	-5.25	0.	129.36
4543	-1.75	-5.5	0.	126.18
4544	-1.25	-5.5	0.	129.08
4545	-3.25	-5.5	0.	125.98
4546	-3.5	-5.25	0.	129.28
4547	-8.25	8.5	0.	127.33
4548	-8.5	8.25	0.	130.39
4549	-6.75	8.5	0.	127.18
4550	-6.5	8.25	0.	130.1
4551	-6.4999	6.7499	0.	129.94
4552	-6.7499	6.5	0.	126.76
4553	-6.2499	6.4999	0.	129.24
4554	-8.25	6.5	0.	126.81
4555	-8.5	6.75	0.	130.25
4556	9.	-9.25	0.	126.75
4557	9.25	-9.	0.	126.76
4558	8.75	-9.	0.	126.72
4559	-9.	-9.25	0.	125.81
4560	-9.25	-9.	0.	125.8
4561	-9.25	9.	0.	126.33
4562	-9.	9.25	0.	126.12
4563	9.	9.25	0.	125.
4564	9.25	9.	0.	125.01
4565	0.5	-5.75	0.	131.87
4566	0.5	-5.25	0.	133.54
4567	0.5	-4.75	0.	133.4
4568	0.5	-4.25	0.	131.59
4569	1.25	-3.5	0.	118.58
4570	1.75	-3.5	0.	112.83
4571	2.25	-3.5	0.	112.82
4572	2.75	-3.5	0.	118.51
4573	3.5	-4.25	0.	131.68
4574	3.5	-4.75	0.	133.48
4575	3.5	-5.25	0.	133.42
4576	3.5	-5.75	0.	131.59
4577	2.75	-6.5	0.	118.23
4578	1.25	-6.5	0.	118.49
4579	1.75	-6.5	0.	112.7
4580	2.25	-6.5	0.	112.64
4581	-2.75	-3.5	0.	117.57
4582	-2.25	-3.5	0.	117.86
4583	-1.5	-4.25	0.	129.38
4584	-1.25	-4.	0.	128.83
4585	-1.5	-4.75	0.	129.08
4586	-2.25	-5.5	0.	117.24
4587	-2.75	-5.5	0.	117.12
4588	-3.5	-4.75	0.	128.87
4589	-3.5	-4.25	0.	128.93
4590	-7.75	8.5	0.	118.68
4591	-8.	8.75	0.	123.51
4592	-7.25	8.5	0.	118.63
4593	-6.5	7.7499	0.	129.66
4594	-6.5	7.2499	0.	129.61
4595	-7.25	6.5	0.	118.02
4596	-7.75	6.5	0.	117.97
4597	-8.5	7.75	0.	129.99
4598	-8.75	8.	0.	128.76
4599	-8.5	7.25	0.	129.98
4600	-8.75	7.	0.	128.84
4601	8.75	-9.5	0.	126.77
4602	9.25	-9.5	0.	126.83
4603	8.25	-9.5	0.	126.78
4604	8.5	-9.25	0.	126.74
4605	7.75	-9.5	0.	126.82
4606	8.	-9.25	0.	126.77
4607	7.25	-9.5	0.	126.86
4608	6.75	-9.5	0.	126.87
4609	6.25	-9.5	0.	126.8
4610	5.75	-9.5	0.	126.6
4611	5.25	-9.5	0.	126.22
4612	4.75	-9.5	0.	125.61
4613	4.25	-9.5	0.	124.75
4614	3.75	-9.5	0.	123.69
4615	4.	-9.25	0.	124.37
4616	3.25	-9.5	0.	122.56
4617	2.75	-9.5	0.	121.6
4618	3.	-9.25	0.	121.95
4619	2.25	-9.5	0.	121.03
4620	1.75	-9.5	0.	120.99
4621	2.	-9.25	0.	120.67
4622	1.25	-9.5	0.	121.48
4623	0.75	-9.5	0.	122.34
4624	1.	-9.25	0.	121.81
4625	0.25	-9.5	0.	123.31
4626	-0.25	-9.5	0.	124.18
4627	-0.75	-9.5	0.	124.82
4628	-1.25	-9.5	0.	125.21
4629	-1.75	-9.5	0.	125.4
4630	-2.25	-9.5	0.	125.49
4631	-2.	-9.25	0.	125.47
4632	-2.75	-9.5	0.	125.55
4633	-3.25	-9.5	0.	125.63
4634	-3.75	-9.5	0.	125.73
4635	-4.25	-9.5	0.	125.85
4636	-4.75	-9.5	0.	125.95
4637	-5.25	-9.5	0.	126.03
4638	-5.75	-9.5	0.	126.06
4639	-6.25	-9.5	0.	126.06
4640	-6.	-9.25	0.	126.08
4641	-6.75	-9.5	0.	126.03
4642	-7.25	-9.5	0.	125.98
4643	-7.	-9.25	0.	126.01
4644	-7.75	-9.5	0.	125.92
4645	-8.25	-9.5	0.	125.87
4646	-8.	-9.25	0.	125.89
4647	-8.75	-9.5	0.	125.84
4648	-9.25	-9.5	0.	125.83
4649	-9.5	-9.25	0.	125.82
4650	-9.5	-8.75	0.	125.78
4651	-9.5	-8.25	0.	125.72
4652	-9.5	-7.75	0.	125.64
4653	-9.25	-8.	0.	125.69
4654	-9.5	-7.25	0.	125.55
4655	-9.5	-6.75	0.	125.45
4656	-9.25	-7.	0.	125.53
4657	-9.5	-6.25	0.	125.36
4658	-9.5	-5.75	0.	125.28
4659	-9.25	-6.	0.	125.36
4660	-9.5	-5.25	0.	125.21
4661	-9.5	-4.75	0.	125.16
4662	-9.25	-5.	0.	125.23
4663	-9.5	-4.25	0.	125.14
4664	-9.5	-3.75	0.	125.15
4665	-9.25	-4.	0.	125.19
4666	-9.5	-3.25	0.	125.17
4667	-9.5	-2.75	0.	125.22
4668	-9.5	-2.25	0.	125.27
4669	-9.5	-1.75	0.	125.33
4670	-9.25	-2.	0.	125.34
4671	-9.5	-1.25	0.	125.38
4672	-9.5	-0.75	0.	125.43
4673	-9.25	-1.	0.	125.43
4674	-9.5	-0.25	0.	125.47
4675	-9.5	0.25	0.	125.5
4676	-9.25	2.0455e-007	0.	125.49
4677	-9.5	0.75	0.	125.53
4678	-9.5	1.25	0.	125.56
4679	-9.5	1.75	0.	125.59
4680	-9.5	2.25	0.	125.63
4681	-9.5	2.75	0.	125.7
4682	-9.5	3.25	0.	125.79
4683	-9.5	3.75	0.	125.93
4684	-9.5	4.25	0.	126.12
4685	-9.5	4.75	0.	126.37
4686	-9.5	5.25	0.	126.68
4687	-9.5	5.75	0.	126.95
4688	-9.5	6.25	0.	126.94
4689	-9.25	6.	0.	127.31
4690	-9.5	6.75	0.	126.44
4691	-9.5	7.25	0.	125.77
4692	-9.25	7.	0.	126.83
4693	-9.5	7.75	0.	125.53
4694	-9.5	8.25	0.	125.73
4695	-9.25	8.	0.	126.5
4696	-9.5	8.75	0.	125.82
4697	-9.5	9.25	0.	125.46
4698	-9.25	9.5	0.	125.25
4699	-8.75	9.5	0.	125.03
4700	-8.25	9.5	0.	124.14
4701	-7.75	9.5	0.	123.15
4702	-8.	9.25	0.	123.3
4703	-7.25	9.5	0.	123.19
4704	-6.75	9.5	0.	124.29
4705	-6.25	9.5	0.	125.29
4706	-5.75	9.5	0.	125.62
4707	-6.	9.25	0.	126.34
4708	-5.25	9.5	0.	125.55
4709	-4.75	9.5	0.	125.41
4710	-5.	9.2499	0.	125.47
4711	-4.25	9.5	0.	125.28
4712	-3.75	9.5	0.	125.17
4713	-4.	9.2499	0.	125.09
4714	-3.25	9.5	0.	125.08
4715	-2.75	9.5	0.	125.
4716	-3.	9.2499	0.	124.95
4717	-2.25	9.5	0.	124.94
4718	-1.75	9.5	0.	124.88
4719	-2.	9.2499	0.	124.86
4720	-1.25	9.5	0.	124.84
4721	-0.75	9.5	0.	124.8
4722	-1.	9.2499	0.	124.8
4723	-0.25	9.5	0.	124.77
4724	-0.5	9.2499	0.	124.77
4725	0.25	9.5	0.	124.75
4726	1.9083e-006	9.25	0.	124.76
4727	0.75	9.5	0.	124.74
4728	1.25	9.5	0.	124.73
4729	1.	9.25	0.	124.74
4730	1.75	9.5	0.	124.73
4731	2.25	9.5	0.	124.74
4732	2.75	9.5	0.	124.75
4733	3.25	9.5	0.	124.76
4734	3.75	9.5	0.	124.78
4735	4.75	9.5	0.	124.83
4736	4.25	9.5	0.	124.8
4737	5.25	9.5	0.	124.85
4738	5.75	9.5	0.	124.88
4739	6.25	9.5	0.	124.9
4740	6.75	9.5	0.	124.93
4741	7.25	9.5	0.	124.95
4742	7.	9.25	0.	124.94
4743	7.75	9.5	0.	124.97
4744	8.25	9.5	0.	124.98
4745	8.75	9.5	0.	125.
4746	9.25	9.5	0.	125.
4747	9.5	9.25	0.	125.01
4748	9.5	8.75	0.	125.02
4749	9.5	8.25	0.	125.04
4750	9.5	7.75	0.	125.07
4751	9.5	7.25	0.	125.11
4752	9.5	6.75	0.	125.16
4753	9.25	7.	0.	125.13
4754	9.5	6.25	0.	125.21
4755	9.5	5.75	0.	125.27
4756	9.5	5.25	0.	125.34
4757	9.5	4.75	0.	125.41
4758	9.25	5.	0.	125.36
4759	9.5	4.25	0.	125.49
4760	9.5	3.75	0.	125.57
4761	9.25	4.	0.	125.5
4762	9.5	3.25	0.	125.65
4763	9.5	2.75	0.	125.73
4764	9.25	3.	0.	125.65
4765	9.5	2.25	0.	125.8
4766	9.25	2.5	0.	125.73
4767	9.5	1.75	0.	125.87
4768	9.25	2.	0.	125.8
4769	9.5	1.25	0.	125.92
4770	9.5	0.75	0.	125.96
4771	9.25	1.	0.	125.91
4772	9.5	0.25	0.	125.99
4773	9.5	-0.75	0.	125.96
4774	9.5	-0.25	0.	125.99
4775	9.5	-1.25	0.	125.91
4776	9.25	-1.	0.	125.95
4777	9.5	-1.75	0.	125.84
4778	9.5	-2.75	0.	125.67
4779	9.5	-2.25	0.	125.76
4780	9.5	-3.25	0.	125.58
4781	9.5	-3.75	0.	125.52
4782	9.5	-4.25	0.	125.49
4783	9.25	-4.	0.	125.56
4784	9.5	-4.75	0.	125.5
4785	9.5	-5.25	0.	125.57
4786	9.25	-5.	0.	125.59
4787	9.5	-5.75	0.	125.68
4788	9.5	-6.25	0.	125.84
4789	9.25	-6.	0.	125.81
4790	9.5	-6.75	0.	126.03
4791	9.5	-7.25	0.	126.23
4792	9.25	-7.	0.	126.15
4793	9.5	-7.75	0.	126.42
4794	9.5	-8.25	0.	126.6
4795	9.25	-8.	0.	126.51
4796	9.5	-8.75	0.	126.74
4797	9.5	-9.25	0.	126.84
4798	-5.7499	2.5	0.	125.18
4799	-5.2499	2.4999	0.	125.24
4800	5.25	-5.4668e-007	0.	125.56
4801	6.25	6.	0.	124.99
4802	1.	0.24991	0.	123.52
4803	0.75001	-5.9254e-005	0.	123.67
4804	1.	-0.25005	0.	123.33
4805	8.25	-9.	0.	126.73
4806	-0.99977	6.2495	0.	124.59
4807	-0.99985	6.7496	0.	124.6
4808	-2.9991	3.7488	0.	125.08
4809	-0.25	8.9999	0.	124.76
4810	-0.75	8.9999	0.	124.77
4811	-0.49999	8.7499	0.	124.74
4812	-6.25	2.5	0.	125.1
4813	-3.9998	6.7494	0.	124.9
4814	7.5	3.25	0.	125.37
4815	3.0002	4.2497	0.	124.47
4816	3.1563e-004	5.7493	0.	124.54
4817	1.0003	5.2492	0.	124.48
4818	1.0002	5.7493	0.	124.52
4819	-2.9997	6.2492	0.	124.8
4820	-2.9996	5.749	0.	124.91
4821	6.25	-4.	0.	125.96
4822	-1.4998	1.7498	0.	124.73
4823	-1.5	0.24996	0.	124.9
4824	1.	7.2497	0.	124.64
4825	1.0001	6.7496	0.	124.6
4826	5.5	2.25	0.	125.07
4827	5.25	2.	0.	125.02
4828	-3.	-0.25004	0.	125.02
4829	-3.	0.24992	0.	125.06
4830	-6.	-6.75	0.	126.07
4831	-6.	-6.25	0.	125.95
4832	-4.75	-3.5	0.	126.45
4833	-6.	-3.25	0.	125.73
4834	-4.2498	2.4997	0.	125.24
4835	-3.7497	2.4995	0.	125.19
4836	6.75	3.	0.	125.28
4837	-3.	-2.25	0.	123.69
4838	-4.7498	2.4998	0.	125.26
4839	5.	3.75	0.	124.83
4840	-7.5	2.25	0.	125.09
4841	-7.5	2.75	0.	124.92
4842	-2.9994	5.2489	0.	125.
4843	-3.	-1.25	0.	124.7
4844	-3.	-1.75	0.	124.31
4845	4.25	2.	0.	124.62
4846	6.75	6.	0.	125.04
4847	6.25	1.	0.	125.55
4848	3.	6.7499	0.	124.69
4849	-1.5	-0.25002	0.	125.02
4850	2.0003	2.7495	0.	124.13
4851	1.2505	4.499	0.	124.41
4852	1.7504	4.4992	0.	124.41
4853	-1.9993	3.2493	0.	124.83
4854	-1.9992	3.7492	0.	124.83
4855	-1.9992	4.2492	0.	124.82
4856	-3.	-0.75002	0.	124.92
4857	0.5	-7.25	0.	126.39
4858	-3.9997	6.2493	0.	125.14
4859	3.5	1.25	0.	124.2
4860	-5.25	-5.	0.	125.54
4861	-4.	8.7499	0.	124.86
4862	6.75	1.	0.	125.65
4863	-3.75	8.4999	0.	124.73
4864	9.	2.25	0.	125.72
4865	-5.7499	6.4998	0.	127.42
4866	1.	-2.25	0.	122.43
4867	-8.75	-7.	0.	125.59
4868	-8.5	-6.75	0.	125.59
4869	-8.75	-6.	0.	125.44
4870	6.75	2.	0.	125.43
4871	4.2501	4.	0.	124.67
4872	4.75	4.	0.	124.78
4873	3.5	-1.25	0.	124.01
4874	5.75	4.	0.	124.99
4875	5.25	4.	0.	124.88
4876	-2.9999	0.74986	0.	125.07
4877	1.	-1.25	0.	122.85
4878	1.	-1.75	0.	122.59
4879	-8.5	-6.25	0.	125.51
4880	-8.5	-5.75	0.	125.44
4881	2.0001	5.7495	0.	124.55
4882	1.7501	5.9995	0.	124.56
4883	2.0002	5.2494	0.	124.5
4884	1.0005	4.749	0.	124.43
4885	8.75	2.5	0.	125.65
4886	5.3255e-004	3.7493	0.	124.43
4887	4.3328e-004	3.2494	0.	124.39
4888	2.0004	4.2493	0.	124.38
4889	1.	-0.75003	0.	123.1
4890	-5.75	-1.5	0.	125.98
4891	9.	2.75	0.	125.65
4892	4.	9.25	0.	124.8
4893	-3.5	-6.75	0.	125.02
4894	9.25	-1.2621e-009	0.	125.97
4895	5.75	-4.	0.	126.16
4896	-1.9995	5.2492	0.	124.75
4897	-1.9993	4.7492	0.	124.79
4898	5.6486e-004	4.2492	0.	124.46
4899	-5.75	-5.	0.	125.46
4900	-3.2496	2.4994	0.	125.11
4901	-2.	-6.75	0.	123.88
4902	-5.	-0.25	0.	125.64
4903	3.5	0.24999	0.	124.04
4904	3.5	0.74998	0.	124.12
4905	-0.99942	4.7494	0.	124.61
4906	-0.75	-4.	0.	128.02
4907	-0.5	-4.25	0.	127.4
4908	7.25	3.	0.	125.36
4909	-5.25	-0.5	0.	125.73
4910	6.	7.25	0.	124.93
4911	4.75	2.	0.	124.82
4912	-5.2498	6.4997	0.	126.25
4913	3.75	-6.1604e-006	0.	124.27
4914	2.0003	4.7493	0.	124.45
4915	-5.	-3.75	0.	125.87
4916	1.2502	5.9994	0.	124.55
4917	1.0001	6.2494	0.	124.56
4918	-2.9998	6.7494	0.	124.68
4919	-2.	-4.	0.	97.538
4920	-3.	-4.	0.	97.467
4921	-2.	-5.	0.	97.237
4922	-3.	-5.	0.	97.311
4923	-2.5	-4.	0.	112.97
4924	-2.	-4.5	0.	102.53
4925	-3.	-4.5	0.	102.41
4926	-2.5	-5.	0.	112.71
4927	-2.5	-4.5	0.	110.01
4928	-2.25	-4.	0.	105.24
4929	-2.	-4.25	0.	100.02
4930	-2.75	-4.	0.	105.2
4931	-3.	-4.25	0.	99.932
4932	-2.	-4.75	0.	99.871
4933	-2.25	-5.	0.	104.95
4934	-3.	-4.75	0.	99.855
4935	-2.75	-5.	0.	104.99
4936	-2.5	-4.25	0.	111.45
4937	-2.25	-4.5	0.	106.25
4938	-2.75	-4.5	0.	106.19
4939	-2.5	-4.75	0.	111.31
4940	3.	-4.	0.	96.708
4941	1.	-4.	0.	96.655
4942	3.	-6.	0.	96.682
4943	1.	-6.	0.	96.73
4944	2.5	-4.	0.	110.44
4945	2.	-4.	0.	107.96
4946	1.5	-4.	0.	110.43
4947	3.	-4.5	0.	100.86
4948	3.	-5.	0.	99.597
4949	3.	-5.5	0.	100.77
4950	1.	-4.5	0.	100.77
4951	1.	-5.	0.	99.553
4952	1.	-5.5	0.	100.88
4953	1.5	-6.	0.	110.42
4954	2.	-6.	0.	107.9
4955	2.5	-6.	0.	110.32
4956	2.	-5.	0.	110.15
4957	2.5	-5.	0.	107.2
4958	2.5	-5.5	0.	107.93
4959	2.	-5.5	0.	110.36
4960	1.5	-5.5	0.	107.95
4961	1.5	-5.	0.	107.16
4962	1.5	-4.5	0.	107.91
4963	2.	-4.5	0.	110.37
4964	2.5	-4.5	0.	107.97
4965	2.75	-4.	0.	103.5
4966	3.	-4.25	0.	98.772
4967	1.25	-4.	0.	103.47
4968	1.	-4.25	0.	98.697
4969	3.	-5.75	0.	98.717
4970	2.75	-6.	0.	103.43
4971	1.	-5.75	0.	98.791
4972	1.25	-6.	0.	103.5
4973	2.25	-4.	0.	109.2
4974	2.5	-4.25	0.	109.18
4975	1.75	-4.	0.	109.19
4976	2.	-4.25	0.	109.15
4977	1.5	-4.25	0.	109.14
4978	3.	-4.75	0.	100.2
4979	2.75	-4.5	0.	104.4
4980	3.	-5.25	0.	100.15
4981	2.75	-5.	0.	103.39
4982	2.75	-5.5	0.	104.34
4983	1.	-4.75	0.	100.13
4984	1.25	-4.5	0.	104.32
4985	1.	-5.25	0.	100.18
4986	1.25	-5.	0.	103.35
4987	1.25	-5.5	0.	104.4
4988	1.75	-6.	0.	109.16
4989	1.5	-5.75	0.	109.16
4990	2.25	-6.	0.	109.11
4991	2.	-5.75	0.	109.12
4992	2.5	-5.75	0.	109.1
4993	2.25	-5.	0.	108.68
4994	2.	-5.25	0.	110.26
4995	1.75	-5.	0.	108.66
4996	2.	-4.75	0.	110.26
4997	2.5	-5.25	0.	107.55
4998	2.5	-4.75	0.	107.57
4999	2.25	-5.5	0.	109.13
5000	1.75	-5.5	0.	109.15
5001	1.5	-5.25	0.	107.55
5002	1.5	-4.75	0.	107.52
5003	1.75	-4.5	0.	109.13
5004	2.25	-4.5	0.	109.16
5005	-7.	8.	0.	98.299
5006	-8.	8.	0.	98.458
5007	-7.	7.	0.	98.082
5008	-8.	7.	0.	98.327
5009	-7.5	8.	0.	114.05
5010	-7.	7.5	0.	103.44
5011	-8.	7.5	0.	103.58
5012	-7.5	7.	0.	113.7
5013	-7.5	7.5	0.	111.28
5014	-7.25	8.	0.	106.16
5015	-7.	7.75	0.	100.86
5016	-7.75	8.	0.	106.23
5017	-8.	7.75	0.	101.01
5018	-7.	7.25	0.	100.75
5019	-7.25	7.	0.	105.87
5020	-8.	7.25	0.	100.95
5021	-7.75	7.	0.	106.
5022	-7.5	7.75	0.	112.62
5023	-7.25	7.5	0.	107.33
5024	-7.75	7.5	0.	107.41
5025	-7.5	7.25	0.	112.44
