Node Number	X Location (mm)	Y Location (mm)	Z Location (mm)	Equivalent (von-Mises) Stress (MPa)
1	-3.	4.	0.	127.22
2	-3.	2.	0.	124.77
3	-2.	4.	0.	128.49
4	-2.	2.	0.	125.27
5	-1.	-6.	0.	134.34
6	-1.	-8.	0.	132.52
7	0.	-6.	0.	136.02
8	0.	-8.	0.	133.41
9	-6.	-7.	0.	130.45
10	-6.	-9.	0.	129.35
11	-5.	-7.	0.	129.85
12	-5.	-9.	0.	128.4
13	3.	-2.	0.	138.68
14	3.	-4.	0.	138.9
15	5.	-2.	0.	140.89
16	5.	-4.	0.	140.5
17	7.	1.	0.	134.6
18	7.	-1.	0.	136.55
19	9.	1.	0.	137.88
20	9.	-1.	0.	138.64
21	-8.	8.	0.	137.06
22	-8.	7.	0.	136.02
23	-6.	8.	0.	135.19
24	-6.	7.	0.	136.31
25	-2.	-4.	0.	134.88
26	-2.	-5.	0.	134.56
27	-1.	-4.	0.	133.24
28	-1.	-5.	0.	135.35
29	7.	5.	0.	131.84
30	7.	4.	0.	130.58
31	8.	5.	0.	131.87
32	8.	4.	0.	130.36
33	-3.	1.	0.	122.77
34	-3.	0.	0.	129.45
35	-2.	1.	0.	127.79
36	-2.	0.	0.	132.24
37	8.	-7.	0.	134.75
38	8.	-8.	0.	132.96
39	9.	-7.	0.	135.44
40	9.	-8.	0.	135.13
41	-4.	-6.	0.	133.81
42	-4.	-7.	0.	135.35
43	-2.	-6.	0.	134.41
44	-2.	-7.	0.	135.87
45	-5.	-1.	0.	138.01
46	-5.	-3.	0.	137.19
47	-3.	-1.	0.	129.17
48	-3.	-3.	0.	132.91
49	-8.	-1.	0.	137.93
50	-8.	-2.	0.	137.65
51	-6.	-1.	0.	140.8
52	-6.	-2.	0.	140.12
53	-3.	9.	0.	139.07
54	-3.	7.	0.	133.75
55	-1.	9.	0.	139.48
56	-1.	7.	0.	134.52
57	6.	-3.	0.	136.68
58	6.	-5.	0.	137.11
59	7.	-3.	0.	131.77
60	7.	-5.	0.	133.54
61	10.	10.	0.	125.
62	-10.	10.	0.	125.03
63	10.	-10.	0.	129.17
64	-10.	-10.	0.	129.78
65	-3.	3.5	0.	136.24
66	-3.	3.	0.	136.02
67	-3.	2.5	0.	134.9
68	-2.5	4.	0.	103.62
69	-2.5	2.	0.	99.497
70	-2.	3.5	0.	136.63
71	-2.	3.	0.	136.93
72	-2.	2.5	0.	136.33
73	-1.	-6.5	0.	137.46
74	-1.	-7.	0.	140.8
75	-1.	-7.5	0.	142.62
76	-0.5	-6.	0.	111.28
77	-0.5	-8.	0.	108.56
78	0.	-6.5	0.	144.17
79	0.	-7.	0.	143.64
80	0.	-7.5	0.	142.84
81	-6.	-7.5	0.	139.43
82	-6.	-8.	0.	139.95
83	-6.	-8.5	0.	139.29
84	-5.5	-7.	0.	104.73
85	-5.5	-9.	0.	104.98
86	-5.	-7.5	0.	141.58
87	-5.	-8.	0.	141.44
88	-5.	-8.5	0.	139.29
89	3.	-2.5	0.	147.73
90	3.	-3.	0.	148.96
91	3.	-3.5	0.	147.76
92	3.5	-2.	0.	116.95
93	4.	-2.	0.	122.02
94	4.5	-2.	0.	118.42
95	3.5	-4.	0.	116.25
96	4.	-4.	0.	120.83
97	4.5	-4.	0.	116.87
98	5.	-2.5	0.	152.41
99	5.	-3.	0.	152.77
100	5.	-3.5	0.	149.99
101	7.	0.5	0.	144.46
102	7.	0.	0.	146.28
103	7.	-0.5	0.	145.39
104	7.5	1.	0.	113.57
105	8.	1.	0.	118.61
106	8.5	1.	0.	115.42
107	7.5	-1.	0.	115.03
108	8.	-1.	0.	120.45
109	8.5	-1.	0.	116.76
110	9.	0.5	0.	149.29
111	9.	0.	0.	151.22
112	9.	-0.5	0.	149.49
113	-8.	7.5	0.	145.4
114	-7.5	8.	0.	118.65
115	-7.	8.	0.	123.71
116	-6.5	8.	0.	117.82
117	-7.5	7.	0.	118.48
118	-7.	7.	0.	123.37
119	-6.5	7.	0.	117.76
120	-6.	7.5	0.	143.62
121	-2.	-4.5	0.	142.87
122	-1.5	-4.	0.	112.3
123	-1.5	-5.	0.	116.78
124	-1.	-4.5	0.	142.07
125	7.	4.5	0.	140.52
126	7.5	5.	0.	109.47
127	7.5	4.	0.	108.27
128	8.	4.5	0.	140.64
129	-3.	0.5	0.	134.6
130	-2.5	1.	0.	102.08
131	-2.5	0.	0.	109.74
132	-2.	0.5	0.	139.61
133	8.	-7.5	0.	142.86
134	8.5	-7.	0.	112.76
135	8.5	-8.	0.	111.74
136	9.	-7.5	0.	145.67
137	-4.	-6.5	0.	144.47
138	-3.5	-6.	0.	116.91
139	-3.	-6.	0.	123.76
140	-2.5	-6.	0.	119.06
141	-3.5	-7.	0.	116.3
142	-3.	-7.	0.	121.19
143	-2.5	-7.	0.	115.92
144	-2.	-6.5	0.	142.44
145	-5.	-1.5	0.	143.2
146	-5.	-2.	0.	146.83
147	-5.	-2.5	0.	147.6
148	-4.5	-1.	0.	114.34
149	-4.	-1.	0.	118.38
150	-3.5	-1.	0.	112.33
151	-4.5	-3.	0.	113.92
152	-4.	-3.	0.	117.02
153	-3.5	-3.	0.	111.97
154	-3.	-1.5	0.	136.76
155	-3.	-2.	0.	139.17
156	-3.	-2.5	0.	139.55
157	-8.	-1.5	0.	146.92
158	-7.5	-1.	0.	119.62
159	-7.	-1.	0.	125.05
160	-6.5	-1.	0.	120.38
161	-7.5	-2.	0.	119.08
162	-7.	-2.	0.	124.15
163	-6.5	-2.	0.	119.12
164	-6.	-1.5	0.	148.27
165	-3.	8.5	0.	145.3
166	-3.	8.	0.	145.41
167	-3.	7.5	0.	143.34
168	-2.5	9.	0.	118.36
169	-2.	9.	0.	124.89
170	-1.5	9.	0.	118.55
171	-2.5	7.	0.	113.1
172	-2.	7.	0.	118.03
173	-1.5	7.	0.	114.38
174	-1.	8.5	0.	146.3
175	-1.	8.	0.	146.8
176	-1.	7.5	0.	144.93
177	6.	-3.5	0.	145.69
178	6.	-4.	0.	147.58
179	6.	-4.5	0.	148.19
180	6.5	-3.	0.	108.41
181	6.5	-5.	0.	110.91
182	7.	-3.5	0.	140.06
183	7.	-4.	0.	141.33
184	7.	-4.5	0.	141.75
185	9.5	10.	0.	124.99
186	9.	10.	0.	124.93
187	8.5	10.	0.	124.84
188	8.	10.	0.	124.77
189	7.5	10.	0.	124.76
190	7.	10.	0.	124.82
191	6.5	10.	0.	124.95
192	6.	10.	0.	125.13
193	5.5	10.	0.	125.33
194	5.	10.	0.	125.54
195	4.5	10.	0.	125.75
196	4.	10.	0.	125.95
197	3.5	10.	0.	126.15
198	3.	10.	0.	126.39
199	2.5	10.	0.	126.68
200	2.	10.	0.	127.08
201	1.5	10.	0.	127.64
202	1.	10.	0.	128.42
203	0.5	10.	0.	129.34
204	-5.2042e-015	10.	0.	130.22
205	-0.5	10.	0.	128.59
206	-1.	10.	0.	122.8
207	-1.5	10.	0.	117.8
208	-2.	10.	0.	115.41
209	-2.5	10.	0.	117.87
210	-3.	10.	0.	122.98
211	-3.5	10.	0.	128.99
212	-4.	10.	0.	130.85
213	-4.5	10.	0.	130.02
214	-5.	10.	0.	128.62
215	-5.5	10.	0.	126.56
216	-6.	10.	0.	124.16
217	-6.5	10.	0.	122.15
218	-7.	10.	0.	121.2
219	-7.5	10.	0.	121.57
220	-8.	10.	0.	122.84
221	-8.5	10.	0.	124.23
222	-9.	10.	0.	125.
223	-9.5	10.	0.	125.09
224	10.	9.5	0.	125.01
225	10.	9.	0.	125.15
226	10.	8.5	0.	125.4
227	10.	8.	0.	125.75
228	10.	7.5	0.	126.22
229	10.	7.	0.	126.76
230	10.	6.5	0.	127.18
231	10.	6.	0.	127.14
232	10.	5.5	0.	126.34
233	10.	5.	0.	125.24
234	10.	4.5	0.	125.03
235	10.	4.	0.	126.59
236	10.	3.5	0.	129.34
237	10.	3.	0.	132.42
238	10.	2.5	0.	135.65
239	10.	2.	0.	139.03
240	10.	1.5	0.	140.02
241	10.	1.	0.	136.45
242	10.	0.5	0.	132.09
243	10.	-5.2042e-015	0.	131.54
244	10.	-0.5	0.	131.56
245	10.	-1.	0.	135.31
246	10.	-1.5	0.	138.03
247	10.	-2.	0.	135.91
248	10.	-2.5	0.	131.3
249	10.	-3.	0.	127.39
250	10.	-3.5	0.	124.89
251	10.	-4.	0.	123.9
252	10.	-4.5	0.	124.33
253	10.	-5.	0.	126.
254	10.	-5.5	0.	128.73
255	10.	-6.	0.	132.09
256	10.	-6.5	0.	133.29
257	10.	-7.	0.	129.87
258	10.	-7.5	0.	125.92
259	10.	-8.	0.	129.37
260	10.	-8.5	0.	132.73
261	10.	-9.	0.	132.11
262	10.	-9.5	0.	129.99
263	-10.	9.5	0.	124.78
264	-10.	9.	0.	124.13
265	-10.	8.5	0.	122.92
266	-10.	8.	0.	121.55
267	-10.	7.5	0.	121.32
268	-10.	7.	0.	123.06
269	-10.	6.5	0.	125.76
270	-10.	6.	0.	127.91
271	-10.	5.5	0.	128.91
272	-10.	5.	0.	129.09
273	-10.	4.5	0.	128.92
274	-10.	4.	0.	128.73
275	-10.	3.5	0.	128.68
276	-10.	3.	0.	128.81
277	-10.	2.5	0.	129.13
278	-10.	2.	0.	129.61
279	-10.	1.5	0.	130.18
280	-10.	1.	0.	130.68
281	-10.	0.5	0.	130.78
282	-10.	-5.2042e-015	0.	130.03
283	-10.	-0.5	0.	128.16
284	-10.	-1.	0.	125.88
285	-10.	-1.5	0.	124.77
286	-10.	-2.	0.	125.83
287	-10.	-2.5	0.	128.12
288	-10.	-3.	0.	130.1
289	-10.	-3.5	0.	131.08
290	-10.	-4.	0.	131.25
291	-10.	-4.5	0.	131.
292	-10.	-5.	0.	130.57
293	-10.	-5.5	0.	130.07
294	-10.	-6.	0.	129.54
295	-10.	-6.5	0.	129.04
296	-10.	-7.	0.	128.66
297	-10.	-7.5	0.	128.48
298	-10.	-8.	0.	128.57
299	-10.	-8.5	0.	128.88
300	-10.	-9.	0.	129.3
301	-10.	-9.5	0.	129.65
302	-9.5	-10.	0.	129.61
303	-9.	-10.	0.	129.83
304	-8.5	-10.	0.	130.29
305	-8.	-10.	0.	130.94
306	-7.5	-10.	0.	131.58
307	-7.	-10.	0.	131.68
308	-6.5	-10.	0.	127.98
309	-6.	-10.	0.	117.39
310	-5.5	-10.	0.	110.55
311	-5.	-10.	0.	116.01
312	-4.5	-10.	0.	125.02
313	-4.	-10.	0.	127.09
314	-3.5	-10.	0.	125.72
315	-3.	-10.	0.	124.48
316	-2.5	-10.	0.	123.8
317	-2.	-10.	0.	123.23
318	-1.5	-10.	0.	122.08
319	-1.	-10.	0.	120.66
320	-0.5	-10.	0.	120.52
321	5.2042e-015	-10.	0.	122.57
322	0.5	-10.	0.	125.79
323	1.	-10.	0.	128.35
324	1.5	-10.	0.	129.53
325	2.	-10.	0.	129.62
326	2.5	-10.	0.	129.11
327	3.	-10.	0.	128.37
328	3.5	-10.	0.	127.61
329	4.	-10.	0.	126.94
330	4.5	-10.	0.	126.44
331	5.	-10.	0.	126.13
332	5.5	-10.	0.	126.01
333	6.	-10.	0.	126.
334	6.5	-10.	0.	125.86
335	7.	-10.	0.	125.16
336	7.5	-10.	0.	123.63
337	8.	-10.	0.	121.83
338	8.5	-10.	0.	121.42
339	9.	-10.	0.	123.38
340	9.5	-10.	0.	126.79
341	2.5	2.9999	0.	126.88
342	2.5	3.5	0.	126.94
343	2.5	2.4999	0.	126.78
344	2.	3.	0.	127.15
345	2.5	4.	0.	126.99
346	2.5	4.5	0.	126.99
347	2.	2.4999	0.	127.13
348	3.	2.4998	0.	126.52
349	2.5	5.	0.	126.91
350	3.	4.5	0.	126.63
351	3.	2.9999	0.	126.67
352	2.	3.5	0.	127.21
353	2.	1.9999	0.	127.16
354	3.	5.	0.	126.52
355	3.5	2.4998	0.	126.43
356	1.5	3.	0.	127.41
357	2.	5.	0.	127.41
358	2.5	1.9998	0.	126.66
359	3.	3.4999	0.	126.72
360	2.	4.	0.	127.31
361	2.	4.5	0.	127.4
362	2.5	5.5	0.	126.72
363	3.5	1.9997	0.	126.04
364	2.	1.4999	0.	127.26
365	3.	5.5	0.	126.33
366	3.5	4.5	0.	126.35
367	3.5	2.9999	0.	126.6
368	1.5	2.5	0.	127.47
369	1.5	3.5	0.	127.46
370	1.5	5.	0.	127.99
371	2.	5.5	0.	127.26
372	3.5001	1.4995	0.	125.43
373	1.5	0.99996	0.	128.2
374	4.	2.4997	0.	126.62
375	1.	3.	0.	127.59
376	2.5001	1.4998	0.	126.56
377	3.5	5.	0.	126.22
378	1.5	2.	0.	127.63
379	1.5	4.	0.	127.62
380	1.5	4.5	0.	127.83
381	-6.	3.5	0.	124.43
382	1.	0.49999	0.	129.03
383	1.5	5.5	0.	127.96
384	-6.	3.	0.	124.21
385	2.5	6.	0.	126.37
386	3.	6.	0.	126.06
387	3.5	6.	0.	125.9
388	3.5001	0.99938	0.	124.64
389	2.	0.9999	0.	127.5
390	4.	4.5	0.	126.14
391	4.	2.9999	0.	126.74
392	4.	1.9996	0.	126.18
393	1.	0.99998	0.	128.67
394	1.	2.5	0.	127.76
395	1.	3.5	0.	127.61
396	4.	6.	0.	125.87
397	-6.5	2.	0.	124.11
398	1.5	0.49996	0.	128.72
399	4.5	2.4998	0.	127.12
400	4.0001	0.49914	0.	123.11
401	-6.	4.	0.	124.77
402	-5.5	3.	0.	124.5
403	0.50001	3.	0.	127.66
404	1.	-1.1533e-005	0.	129.48
405	1.5	6.	0.	127.62
406	1.	5.	0.	128.55
407	-5.5	2.5	0.	124.4
408	-6.	2.	0.	124.3
409	3.0001	0.99958	0.	125.48
410	2.5001	0.99977	0.	126.54
411	4.	5.	0.	126.01
412	4.	3.4999	0.	126.61
413	4.	0.9993	0.	124.35
414	1.	2.	0.	128.05
415	1.	4.	0.	127.83
416	1.	4.5	0.	128.19
417	-6.5	3.	0.	124.05
418	-6.5	4.	0.	124.07
419	2.5	6.5	0.	125.88
420	3.5	6.5	0.	125.66
421	4.5	6.5	0.	125.85
422	-6.5	1.5	0.	124.17
423	0.5	0.5	0.	129.09
424	0.5	-1.	0.	129.12
425	3.5001	0.49929	0.	123.76
426	2.	0.49989	0.	127.98
427	3.5	-6.5	0.	124.94
428	4.5	6.	0.	125.95
429	4.5	4.5	0.	125.95
430	4.5	2.9999	0.	127.1
431	4.5	1.9996	0.	126.72
432	4.5	0.49924	0.	123.52
433	0.50001	0.99999	0.	129.
434	0.50001	2.5	0.	128.02
435	-5.5	3.5	0.	124.92
436	0.50001	3.5	0.	127.6
437	-6.5	4.5	0.	123.92
438	-2.9675e-007	-1.5	0.	127.42
439	1.	-0.50001	0.	129.94
440	4.0001	-9.0019e-004	0.	121.73
441	1.5	-4.2213e-005	0.	129.47
442	5.	6.5	0.	126.02
443	5.	2.4998	0.	127.84
444	3.8242e-006	3.	0.	127.64
445	1.5	6.5	0.	126.9
446	1.	5.5	0.	128.77
447	-5.5	2.	0.	124.56
448	-6.	1.5	0.	124.61
449	-6.5	1.	0.	124.22
450	4.5	-9.0353e-004	0.	122.35
451	0.5	5.	0.	128.91
452	-5.	3.	0.	124.81
453	4.	-6.5	0.	124.38
454	0.5	-3.7107e-006	0.	129.21
455	0.5	-2.	0.	128.34
456	3.0001	0.49953	0.	125.16
457	2.5001	0.49974	0.	126.73
458	3.	-6.5	0.	126.28
459	4.5	5.	0.	125.86
460	4.5	3.9999	0.	126.29
461	4.5	3.4999	0.	126.76
462	4.5	0.99934	0.	124.77
463	0.50001	2.	0.	128.48
464	-5.5	4.	0.	125.65
465	0.5	4.	0.	127.85
466	0.5	4.5	0.	128.33
467	4.	-7.	0.	124.91
468	3.	-7.	0.	126.43
469	2.5	-7.	0.	127.59
470	2.	-7.	0.	128.73
471	-7.	1.5	0.	124.05
472	-7.	2.	0.	124.17
473	-7.	3.	0.	124.13
474	-7.	4.	0.	123.79
475	-7.	5.	0.	122.54
476	2.5	7.	0.	125.34
477	3.5	7.	0.	125.4
478	4.	7.	0.	125.52
479	4.5	7.	0.	125.65
480	5.	7.	0.	125.73
481	5.5	7.	0.	125.65
482	-7.	-4.5	0.	125.67
483	-7.	1.	0.	123.69
484	6.3598e-008	-1.	0.	128.17
485	2.1951e-006	0.5	0.	129.01
486	-2.9259e-007	-2.	0.	126.89
487	1.	-1.	0.	130.19
488	1.	-2.5	0.	129.25
489	3.5001	-7.2787e-004	0.	122.8
490	2.	-1.1687e-004	0.	128.86
491	3.5	-6.	0.	124.11
492	5.	6.	0.	126.18
493	6.	7.	0.	125.2
494	5.	4.5	0.	125.75
495	5.	2.9998	0.	127.63
496	5.	1.9997	0.	127.64
497	5.	0.49931	0.	124.82
498	-6.5	5.	0.	123.5
499	3.1047e-006	1.	0.	129.33
500	3.9304e-006	2.5	0.	128.28
501	-5.	5.	0.	129.04
502	-5.	3.5	0.	125.38
503	3.5619e-006	3.5	0.	127.4
504	1.5	7.	0.	125.91
505	1.	6.	0.	128.62
506	-6.5	-5.	0.	124.99
507	-5.5	1.5	0.	124.89
508	-6.	1.	0.	125.23
509	1.	-3.	0.	129.24
510	5.	-7.2287e-004	0.	124.27
511	1.5	-0.50004	0.	130.42
512	5.5	6.5	0.	126.12
513	5.5	2.4998	0.	128.47
514	2.	-6.5	0.	129.4
515	0.5	5.5	0.	129.47
516	1.7284e-006	5.	0.	128.73
517	4.0001	-0.50085	0.	120.05
518	-5.	2.5	0.	124.71
519	0.5	-2.5	0.	128.28
520	-7.	-5.	0.	126.05
521	-7.	5.5	0.	121.18
522	5.	-7.	0.	124.64
523	1.5	-7.	0.	129.95
524	-0.5	-1.5	0.	126.03
525	4.5	-6.5	0.	124.72
526	4.	-6.	0.	123.38
527	-6.5	-4.5	0.	125.58
528	-7.	-4.	0.	124.89
529	1.5	-3.	0.	130.41
530	-0.5	3.	0.	127.68
531	-4.5	3.	0.	125.25
532	-7.	0.5	0.	122.83
533	6.1197e-007	-0.5	0.	128.69
534	1.5581e-006	-1.0624e-006	0.	128.87
535	-1.	-2.	0.	122.87
536	1.	-2.	0.	129.62
537	3.0001	-4.6998e-004	0.	125.03
538	2.5	-2.5947e-004	0.	127.33
539	3.	-6.	0.	126.23
540	5.	5.	0.	125.79
541	7.	7.	0.	123.06
542	6.5	7.	0.	124.24
543	5.	3.4999	0.	127.03
544	5.	0.99948	0.	125.88
545	-5.5	5.	0.	127.56
546	4.0393e-006	1.5	0.	129.45
547	3.8374e-006	2.	0.	129.04
548	-5.	4.5	0.	127.73
549	-5.	4.	0.	126.44
550	2.996e-006	4.	0.	127.64
551	2.0845e-006	4.5	0.	128.14
552	1.	7.	0.	126.72
553	-6.	-5.	0.	123.74
554	-5.5	1.	0.	125.59
555	1.	-3.5	0.	129.57
556	5.5	-4.6939e-004	0.	126.77
557	-2.	6.	0.	113.94
558	-7.	3.9093e-012	0.	121.29
559	-4.	3.	0.	126.32
560	-1.	3.	0.	128.3
561	6.	-2.5174e-004	0.	129.97
562	2.	-3.	0.	132.88
563	-6.5	-4.	0.	125.81
564	4.5	-6.	0.	124.48
565	-1.	-1.5	0.	124.53
566	1.	-7.	0.	131.88
567	6.	-7.5	0.	123.73
568	5.5	-7.5	0.	124.1
569	5.	-7.5	0.	124.53
570	4.5	-7.5	0.	124.89
571	3.5	-7.5	0.	125.91
572	3.	-7.5	0.	126.73
573	2.5	-7.5	0.	127.68
574	2.	-7.5	0.	128.64
575	1.5	-7.5	0.	129.73
576	-7.	6.	0.	119.28
577	-7.5	1.	0.	124.29
578	-7.5	1.5	0.	124.57
579	-7.5	2.	0.	124.65
580	-7.5	2.5	0.	124.63
581	-7.5	4.	0.	124.07
582	-7.5	4.5	0.	123.64
583	-7.5	5.	0.	122.98
584	-7.5	5.5	0.	122.03
585	1.	-4.	0.	130.29
586	1.	-4.5	0.	131.48
587	-7.	-5.5	0.	126.56
588	0.5	-3.	0.	128.58
589	-5.	2.	0.	124.89
590	-5.	1.5	0.	124.93
591	-5.	1.	0.	124.79
592	-6.5	0.5	0.	124.16
593	6.5	-7.5	0.	123.88
594	-4.5	2.5	0.	125.24
595	4.5001	-0.50083	0.	121.3
596	-7.5	-5.5	0.	127.47
597	-7.5	-5.	0.	126.87
598	-7.5	-4.5	0.	126.23
599	-7.5	-4.	0.	125.33
600	-7.5	-3.5	0.	124.
601	-7.	-3.5	0.	123.25
602	4.	-5.5	0.	121.45
603	-1.5	-2.	0.	121.57
604	-7.5	0.5	0.	123.69
605	1.3505e-006	5.5	0.	129.53
606	0.5	6.	0.	129.78
607	2.	-6.	0.	130.63
608	1.5	-6.5	0.	130.78
609	-7.5	-7.5	0.	128.03
610	-7.5	-6.	0.	128.03
611	-4.	-4.	0.	113.51
612	-5.5	-5.	0.	122.83
613	-6.	-4.5	0.	125.57
614	-0.5	5.	0.	127.67
615	-0.5	3.5	0.	127.21
616	-4.	5.5	0.	129.29
617	-2.5	5.5	0.	115.34
618	-4.5	3.5	0.	125.85
619	-4.5	5.	0.	129.6
620	-0.5	2.5	0.	128.67
621	-5.	5.5	0.	130.3
622	-6.5	5.5	0.	122.67
623	-4.5	7.5	0.	126.07
624	-4.5	6.	0.	130.95
625	5.5	0.49955	0.	126.76
626	5.5	1.9997	0.	128.64
627	5.5	-7.	0.	124.19
628	6.	-7.	0.	123.54
629	5.5	2.9999	0.	128.12
630	7.5	2.5	0.	115.94
631	6.	2.4999	0.	128.16
632	6.	6.5	0.	125.83
633	0.5	7.5	0.	126.63
634	1.	7.5	0.	125.39
635	1.5	7.5	0.	124.92
636	2.	7.5	0.	124.81
637	2.5	7.5	0.	124.88
638	3.	7.5	0.	125.03
639	3.5	7.5	0.	125.2
640	4.	7.5	0.	125.35
641	4.5	7.5	0.	125.46
642	5.	7.5	0.	125.48
643	5.5	7.5	0.	125.33
644	6.	7.5	0.	124.93
645	7.	7.5	0.	123.65
646	7.5	7.5	0.	123.38
647	7.5	7.	0.	122.51
648	7.5	6.5	0.	121.09
649	5.5	4.5	0.	125.62
650	5.5	6.	0.	126.54
651	1.5	-3.5	0.	130.84
652	3.5	-5.5	0.	122.76
653	2.	-5.5	0.	132.22
654	2.	-0.50011	0.	130.27
655	3.5001	-0.50064	0.	121.71
656	1.5	-2.5	0.	130.54
657	1.5	-1.	0.	131.29
658	-1.5	-2.5	0.	120.47
659	-2.4105e-007	-2.5	0.	127.06
660	-0.5	0.5	0.	128.91
661	-0.5	-1.	0.	127.43
662	4.	-1.0006	0.	117.97
663	-0.5	-0.5	0.	128.43
664	-0.5	-2.9334e-007	0.	128.62
665	-1.	-2.5	0.	121.97
666	1.5	-2.	0.	131.05
667	3.	-0.50039	0.	125.3
668	2.5	-0.50023	0.	128.61
669	3.	-5.5	0.	126.36
670	1.5	-4.	0.	131.78
671	1.5	-4.5	0.	133.06
672	5.5	5.	0.	125.84
673	7.	6.5	0.	122.31
674	6.5	6.5	0.	124.5
675	6.	-6.5	0.	123.55
676	5.5	0.9996	0.	127.47
677	7.	2.5	0.	120.21
678	6.5	2.4999	0.	125.36
679	-5.5	5.5	0.	128.71
680	-0.5	1.	0.	129.75
681	-0.5	1.5	0.	130.44
682	-0.5	2.	0.	129.84
683	-4.5	4.	0.	127.01
684	-2.	5.5	0.	115.47
685	-0.5	4.	0.	127.22
686	-0.5	4.5	0.	127.57
687	-5.	-4.5	0.	122.4
688	-7.5	-6.5	0.	128.28
689	-7.5	-7.	0.	128.06
690	1.5	-6.	0.	132.06
691	1.5	-5.5	0.	133.35
692	-3.5	5.5	0.	125.57
693	-3.	5.5	0.	119.79
694	-4.5	6.5	0.	130.14
695	0.5	7.	0.	128.09
696	-1.	5.5	0.	124.25
697	-0.5	5.5	0.	127.94
698	-7.5	3.9483e-012	0.	122.56
699	-2.	-2.	0.	122.68
700	4.	-5.	0.	118.48
701	-7.	-3.	0.	120.77
702	3.5	-1.0004	0.	120.35
703	2.	-3.5	0.	132.63
704	5.	-0.50063	0.	124.55
705	5.5	-0.5004	0.	127.94
706	6.	-0.50023	0.	130.47
707	7.5	2.	0.	115.59
708	-6.5	6.	0.	121.33
709	-4.	2.5	0.	125.88
710	-1.	3.5	0.	127.13
711	1.	-6.5	0.	132.2
712	-4.	7.5	0.	127.6
713	-1.5	6.	0.	117.28
714	6.5	-7.	0.	123.6
715	6.5	-6.5	0.	123.18
716	-6.	0.5	0.	126.52
717	-5.5	0.5	0.	127.28
718	-5.	0.5	0.	125.12
719	0.5	-3.5	0.	128.87
720	0.5	-4.	0.	128.83
721	-6.5	-5.5	0.	124.59
722	-6.	-5.5	0.	121.79
723	-5.5	-5.5	0.	120.31
724	0.5	-4.5	0.	129.28
725	-2.	-2.5	0.	122.16
726	8.	2.	0.	114.07
727	8.	2.5	0.	115.93
728	-4.5	8.	0.	125.45
729	-7.5	-3.	0.	122.2
730	-7.	-8.	0.	129.33
731	-7.5	-8.	0.	128.33
732	-8.	-8.	0.	128.29
733	-8.	-7.5	0.	128.04
734	-8.	-7.	0.	128.14
735	-8.	-6.	0.	128.28
736	-8.	-5.5	0.	128.01
737	-8.	-5.	0.	127.62
738	-8.	-4.5	0.	127.2
739	-8.	-4.	0.	126.78
740	-8.	-3.5	0.	126.54
741	-7.5	6.	0.	120.72
742	-8.	0.5	0.	126.16
743	-8.	1.	0.	125.81
744	-8.	1.5	0.	125.63
745	-8.	2.	0.	125.51
746	-8.	2.5	0.	125.38
747	-8.	3.	0.	125.24
748	-8.	3.5	0.	125.05
749	-8.	4.	0.	124.84
750	-8.	4.5	0.	124.62
751	-8.	5.5	0.	124.52
752	1.	-7.5	0.	130.97
753	6.5	-8.	0.	124.72
754	6.	-8.	0.	124.37
755	5.5	-8.	0.	124.48
756	5.	-8.	0.	124.8
757	4.5	-8.	0.	125.21
758	4.	-8.	0.	125.72
759	3.5	-8.	0.	126.37
760	3.	-8.	0.	127.16
761	2.5	-8.	0.	128.04
762	2.	-8.	0.	128.99
763	1.5	-8.	0.	129.96
764	7.5	6.	0.	118.36
765	1.1905e-009	8.	0.	128.37
766	0.5	8.	0.	125.46
767	1.	8.	0.	124.44
768	1.5	8.	0.	124.27
769	2.	8.	0.	124.42
770	2.5	8.	0.	124.67
771	3.	8.	0.	124.91
772	3.5	8.	0.	125.12
773	4.	8.	0.	125.27
774	4.5	8.	0.	125.35
775	5.	8.	0.	125.33
776	5.5	8.	0.	125.18
777	6.	8.	0.	124.88
778	6.5	8.	0.	124.48
779	7.	8.	0.	124.11
780	7.5	8.	0.	123.96
781	8.	7.5	0.	123.67
782	8.	7.	0.	123.07
783	8.	6.5	0.	122.32
784	-1.5	-1.5	0.	123.
785	-4.5	2.	0.	125.49
786	-4.5	1.5	0.	125.28
787	-4.5	1.	0.	123.69
788	-4.5	0.5	0.	121.56
789	-3.5	-4.	0.	114.69
790	-3.5	-4.5	0.	115.58
791	4.5	-5.5	0.	123.46
792	-3.	-8.	0.	117.3
793	-1.	0.5	0.	128.19
794	-1.	-1.	0.	126.98
795	-1.5	-3.	0.	118.66
796	-1.5504e-007	-3.	0.	128.12
797	2.	-2.5	0.	132.39
798	2.	-1.0001	0.	132.18
799	4.5001	-1.0006	0.	120.22
800	3.5	-5.	0.	120.78
801	2.	-5.	0.	133.88
802	6.	4.5	0.	125.24
803	6.	6.	0.	126.92
804	7.5	3.	0.	114.77
805	6.	2.9999	0.	128.1
806	-5.	-5.	0.	122.64
807	6.5	-6.	0.	120.81
808	5.	-6.	0.	126.66
809	6.	0.49974	0.	129.08
810	6.	1.9998	0.	129.19
811	-5.	7.5	0.	125.56
812	-5.	6.	0.	131.37
813	-4.	3.5	0.	126.33
814	-4.	5.	0.	128.98
815	-2.5	5.	0.	113.29
816	-1.	5.	0.	125.64
817	7.	-7.5	0.	124.48
818	8.	-2.	0.	118.44
819	-4.5	-4.	0.	116.95
820	-6.	-4.	0.	127.53
821	-6.5	3.7176e-012	0.	123.64
822	-7.	-7.5	0.	128.43
823	-7.	-6.	0.	127.6
824	1.	-5.	0.	133.27
825	-2.5	6.	0.	115.43
826	-4.	6.	0.	130.25
827	9.9966e-009	7.5	0.	128.81
828	9.0082e-007	6.	0.	130.68
829	-0.5	6.	0.	129.4
830	2.8202e-008	7.	0.	130.32
831	-4.	6.5	0.	130.51
832	-3.5	6.	0.	127.57
833	-3.	6.	0.	121.3
834	1.	-6.	0.	133.63
835	1.	-5.5	0.	134.39
836	-6.	-6.	0.	119.71
837	-6.5	-6.	0.	125.44
838	-7.	-6.5	0.	128.52
839	-5.	-9.4845e-013	0.	126.61
840	-5.5	3.7305e-012	0.	131.34
841	-6.	3.8667e-012	0.	128.66
842	-5.	-4.	0.	123.03
843	7.	-7.	0.	125.51
844	-1.	4.	0.	127.12
845	-1.	4.5	0.	126.9
846	-1.5	5.	0.	122.06
847	-2.	5.	0.	116.14
848	-3.5	5.	0.	125.58
849	-4.	4.	0.	127.56
850	-4.	2.	0.	126.78
851	-4.	1.5	0.	126.91
852	-4.	1.	0.	123.89
853	-1.	2.	0.	131.01
854	-1.	1.	0.	130.5
855	-1.	1.5	0.	132.16
856	-6.	6.	0.	126.14
857	-5.5	6.	0.	130.43
858	-5.	6.5	0.	131.01
859	-5.	7.	0.	128.44
860	6.5	1.9999	0.	127.36
861	6.	0.99976	0.	129.67
862	6.	-1.0002	0.	132.53
863	8.	-2.5	0.	121.87
864	7.	-2.	0.	121.63
865	6.	-6.	0.	123.44
866	7.	-6.	0.	124.64
867	8.	-5.	0.	127.45
868	-4.	-5.	0.	118.77
869	-4.5	-5.	0.	121.81
870	6.	4.	0.	126.82
871	6.	3.4999	0.	128.08
872	6.5	2.9999	0.	125.7
873	7.	3.	0.	119.36
874	7.	6.	0.	121.38
875	6.5	6.	0.	125.84
876	6.	5.	0.	126.56
877	2.	-4.	0.	133.75
878	2.	-4.5	0.	134.61
879	3.	-5.	0.	126.79
880	5.5001	-1.0003	0.	130.88
881	5.0001	-1.0004	0.	125.89
882	3.	-1.0003	0.	126.11
883	2.	-2.	0.	133.15
884	-3.702e-008	-4.	0.	128.28
885	-8.8591e-008	-3.5	0.	129.
886	-0.5	-3.	0.	126.37
887	-1.	-3.	0.	121.59
888	-1.	-6.7829e-008	0.	128.9
889	-2.5	-8.	0.	119.53
890	-6.5	-3.	0.	123.19
891	4.5	-5.	0.	121.3
892	6.5	-2.	0.	123.95
893	-4.	0.5	0.	119.12
894	-2.	-1.5	0.	122.05
895	8.	6.	0.	121.4
896	1.	-8.	0.	131.25
897	-8.	6.	0.	125.02
898	-8.	-3.	0.	126.69
899	-5.	8.	0.	126.28
900	-5.	8.5	0.	127.06
901	-4.5	8.5	0.	125.64
902	-4.	8.5	0.	126.75
903	-8.	3.6837e-012	0.	126.81
904	-8.5	-8.	0.	128.51
905	-8.5	-7.5	0.	128.32
906	-8.5	-7.	0.	128.36
907	-8.5	-6.5	0.	128.49
908	-8.5	-6.	0.	128.56
909	-8.5	-5.5	0.	128.5
910	-8.5	-5.	0.	128.37
911	-8.5	-4.5	0.	128.26
912	-8.5	-4.	0.	128.37
913	-8.5	-3.5	0.	128.98
914	-8.5	-3.	0.	130.72
915	-8.5	3.0153e-012	0.	130.62
916	-8.5	1.	0.	127.47
917	-8.5	2.	0.	126.58
918	-8.5	2.5	0.	126.35
919	-8.5	3.	0.	126.16
920	-8.5	3.5	0.	126.
921	-8.5	4.5	0.	125.85
922	-8.5	5.	0.	126.1
923	-8.5	5.5	0.	126.89
924	-8.5	6.	0.	128.81
925	-7.	-8.5	0.	129.33
926	-7.5	-8.5	0.	129.02
927	-8.	-8.5	0.	128.9
928	-8.5	-8.5	0.	128.96
929	6.5	-8.5	0.	125.76
930	6.	-8.5	0.	125.17
931	5.5	-8.5	0.	125.06
932	5.	-8.5	0.	125.25
933	4.5	-8.5	0.	125.63
934	4.	-8.5	0.	126.16
935	3.5	-8.5	0.	126.84
936	3.	-8.5	0.	127.63
937	2.5	-8.5	0.	128.5
938	2.	-8.5	0.	129.41
939	1.5	-8.5	0.	130.32
940	1.	-8.5	0.	131.27
941	-2.	-8.5	0.	125.16
942	-2.5	-8.5	0.	121.62
943	-3.	-8.5	0.	120.06
944	-3.5	-8.5	0.	121.28
945	-4.	-8.5	0.	124.5
946	7.	-8.	0.	126.15
947	7.	-8.5	0.	127.16
948	8.5	-2.	0.	120.17
949	8.5	-2.5	0.	122.15
950	8.5	-3.	0.	123.32
951	8.5	-3.5	0.	124.22
952	8.5	-4.	0.	124.91
953	8.5	-4.5	0.	125.39
954	8.5	-5.	0.	125.42
955	8.5	-5.5	0.	124.58
956	8.5	-6.	0.	121.74
957	-6.	-3.5	0.	128.96
958	8.	3.	0.	117.19
959	8.5	8.	0.	124.53
960	8.5	7.5	0.	124.35
961	8.5	7.	0.	124.28
962	8.5	6.5	0.	124.56
963	8.5	6.	0.	125.97
964	8.5	3.	0.	122.78
965	8.5	2.5	0.	119.83
966	8.5	2.	0.	117.72
967	0.5	8.5	0.	124.88
968	1.	8.5	0.	124.18
969	1.5	8.5	0.	124.25
970	2.	8.5	0.	124.52
971	2.5	8.5	0.	124.81
972	3.	8.5	0.	125.04
973	3.5	8.5	0.	125.21
974	4.	8.5	0.	125.31
975	4.5	8.5	0.	125.34
976	5.	8.5	0.	125.29
977	5.5	8.5	0.	125.16
978	6.	8.5	0.	124.94
979	6.5	8.5	0.	124.68
980	7.	8.5	0.	124.46
981	7.5	8.5	0.	124.37
982	8.	8.5	0.	124.46
983	8.5	8.5	0.	124.69
984	5.	-5.5	0.	127.92
985	6.	-1.5001	0.	133.31
986	-3.5	-5.	0.	116.53
987	-2.	-3.	0.	122.63
988	-3.	-4.	0.	120.59
989	-4.5	-8.6571e-012	0.	119.64
990	-1.5	-1.	0.	125.64
991	-1.8222e-008	-4.5	0.	126.47
992	0.5	-5.	0.	131.27
993	-5.5	-6.	0.	115.96
994	-5.	-5.5	0.	122.28
995	-3.5	-8.	0.	119.1
996	-4.	-8.	0.	124.83
997	-5.	-6.	0.	119.89
998	-8.3769e-009	-5.	0.	126.73
999	-1.5	-0.5	0.	130.49
1000	-2.	-1.	0.	122.24
1001	-4.	-4.8933e-011	0.	116.56
1002	-0.5	-3.5	0.	130.28
1003	-3.	-5.	0.	118.37
1004	2.5	-1.5001	0.	135.65
1005	5.5001	-1.5002	0.	136.37
1006	6.	-2.0001	0.	130.29
1007	5.	-5.	0.	128.26
1008	2.5	-4.5	0.	136.38
1009	6.5	5.5	0.	129.28
1010	8.5	5.5	0.	129.6
1011	8.5	3.5	0.	127.66
1012	6.5	3.5	0.	128.89
1013	-4.5	-5.5	0.	126.6
1014	7.5	-5.5	0.	131.08
1015	5.5	-5.5	0.	132.4
1016	7.5	-2.5	0.	125.13
1017	6.5	-1.5001	0.	132.14
1018	6.5	1.4999	0.	131.73
1019	9.	8.5	0.	125.
1020	9.	8.	0.	125.02
1021	9.	7.5	0.	125.1
1022	9.	6.5	0.	125.98
1023	9.	5.	0.	127.25
1024	9.	4.5	0.	125.95
1025	9.	4.	0.	127.22
1026	9.	3.5	0.	127.78
1027	9.	3.	0.	126.7
1028	-5.5	8.5	0.	130.6
1029	-5.5	6.5	0.	133.31
1030	-8.5	6.5	0.	132.72
1031	-8.5	8.5	0.	132.33
1032	-1.5	1.5	0.	134.18
1033	-3.5	1.5	0.	129.73
1034	-3.5	4.5	0.	128.37
1035	-1.5	4.5	0.	126.61
1036	-6.	-3.	0.	129.08
1037	-8.5	-2.5	0.	134.47
1038	-8.5	-0.5	0.	134.55
1039	9.	-2.	0.	125.56
1040	9.	-2.5	0.	125.06
1041	9.	-3.	0.	124.87
1042	9.	-3.5	0.	124.8
1043	9.	-5.	0.	125.3
1044	9.	-5.5	0.	124.97
1045	9.	-6.	0.	124.11
1046	7.5	-8.5	0.	129.39
1047	7.5	-6.5	0.	130.64
1048	-2.5	-3.5	0.	133.24
1049	-5.5	-3.5	0.	132.83
1050	-5.5	-0.5	0.	139.32
1051	0.5	9.	0.	125.1
1052	1.	9.	0.	124.85
1053	1.5	9.	0.	124.95
1054	2.5	9.	0.	125.31
1055	3.5	9.	0.	125.46
1056	4.	9.	0.	125.46
1057	4.5	9.	0.	125.42
1058	5.	9.	0.	125.34
1059	5.5	9.	0.	125.2
1060	6.	9.	0.	125.03
1061	7.	9.	0.	124.72
1062	7.5	9.	0.	124.65
1063	8.	9.	0.	124.69
1064	8.5	9.	0.	124.81
1065	9.	9.	0.	124.98
1066	-6.5	-6.5	0.	128.91
1067	8.	-9.	0.	121.32
1068	7.5	-9.	0.	125.54
1069	7.	-9.	0.	126.55
1070	6.5	-9.	0.	126.1
1071	6.	-9.	0.	125.72
1072	5.5	-9.	0.	125.59
1073	5.	-9.	0.	125.71
1074	4.5	-9.	0.	126.04
1075	4.	-9.	0.	126.56
1076	3.5	-9.	0.	127.24
1077	3.	-9.	0.	128.03
1078	2.5	-9.	0.	128.86
1079	2.	-9.	0.	129.63
1080	1.5	-9.	0.	130.15
1081	1.	-9.	0.	130.11
1082	0.5	-9.	0.	127.93
1083	4.7232e-012	-9.	0.	121.95
1084	-0.5	-9.	0.	117.71
1085	-1.	-9.	0.	120.13
1086	-1.5	-9.	0.	124.17
1087	-2.	-9.	0.	124.36
1088	-2.5	-9.	0.	122.96
1089	-3.	-9.	0.	122.43
1090	-3.5	-9.	0.	123.37
1091	-4.	-9.	0.	125.58
1092	0.5	-5.5	0.	135.72
1093	-2.	-8.	0.	125.15
1094	-1.5	-8.5	0.	128.74
1095	0.5	-8.5	0.	132.1
1096	7.0153e-010	9.	0.	126.89
1097	-7.	-9.	0.	130.36
1098	-7.5	-9.	0.	130.03
1099	-8.	-9.	0.	129.8
1100	-8.5	-9.	0.	129.55
1101	-9.	-9.	0.	129.38
1102	-9.	-8.5	0.	129.
1103	-9.	-8.	0.	128.71
1104	-9.	-7.5	0.	128.59
1105	-9.	-7.	0.	128.63
1106	-9.	-6.5	0.	128.76
1107	-9.	-6.	0.	128.9
1108	-9.	-5.5	0.	129.
1109	-9.	-5.	0.	129.07
1110	-9.	-4.5	0.	129.18
1111	-9.	-4.	0.	129.46
1112	-9.	-3.5	0.	130.11
1113	-9.	-3.	0.	131.21
1114	-9.	-1.	0.	130.39
1115	-9.	-0.5	0.	131.66
1116	-9.	1.9139e-012	0.	130.99
1117	-9.	0.5	0.	129.63
1118	-9.	1.	0.	128.67
1119	-9.	1.5	0.	128.07
1120	-9.	2.	0.	127.67
1121	-9.	2.5	0.	127.38
1122	-9.	3.	0.	127.17
1123	-9.	3.5	0.	127.02
1124	-9.	4.	0.	126.94
1125	-9.	4.5	0.	126.99
1126	-9.	5.	0.	127.28
1127	-9.	5.5	0.	127.97
1128	-9.	6.	0.	129.12
1129	-9.	6.5	0.	129.67
1130	-9.	7.	0.	128.27
1131	-9.	7.5	0.	126.31
1132	-9.	8.	0.	127.6
1133	-9.	8.5	0.	128.47
1134	-9.	9.	0.	127.36
1135	-8.5	9.	0.	128.01
1136	-8.	9.	0.	125.28
1137	-7.5	9.	0.	121.67
1138	-7.	9.	0.	120.19
1139	-6.5	9.	0.	121.5
1140	-6.	9.	0.	124.87
1141	-5.5	9.	0.	127.39
1142	-5.	9.	0.	126.88
1143	-4.5	9.	0.	125.85
1144	-4.	9.	0.	126.88
1145	-3.5	6.5	0.	131.47
1146	-0.5	6.5	0.	133.16
1147	-1.	6.5	0.	125.03
1148	-1.5	6.5	0.	114.32
1149	-2.	6.5	0.	113.66
1150	-2.5	6.5	0.	113.21
1151	-3.5	7.5	0.	132.8
1152	-3.5	9.	0.	129.7
1153	-3.5	8.5	0.	133.48
1154	-0.5	7.	0.	132.66
1155	-0.5	7.5	0.	133.94
1156	-0.5	8.	0.	135.69
1157	-0.5	8.5	0.	134.17
1158	-0.5	9.	0.	130.07
1159	4.8237e-012	-8.5	0.	123.07
1160	-1.	-8.5	0.	121.5
1161	-0.5	-8.5	0.	110.9
1162	-1.5	-8.	0.	130.22
1163	-1.5	-7.5	0.	135.46
1164	-3.6612e-009	-5.5	0.	127.45
1165	-0.5	-5.5	0.	118.39
1166	0.5	-6.	0.	134.9
1167	0.5	-8.	0.	132.
1168	0.5	-7.5	0.	134.61
1169	0.5	-7.	0.	136.74
1170	0.5	-6.5	0.	135.74
1171	-6.5	-9.	0.	129.88
1172	-6.5	-8.5	0.	131.85
1173	-6.5	-8.	0.	133.5
1174	-6.5	-7.	0.	128.63
1175	-6.5	-7.5	0.	131.71
1176	-6.	-6.5	0.	119.91
1177	-5.5	-6.5	0.	107.76
1178	-4.5	-7.5	0.	135.24
1179	-4.5	-8.5	0.	129.94
1180	-4.5	-8.	0.	133.36
1181	-1.5	1.	0.	130.41
1182	-1.5	-1.6785e-008	0.	130.11
1183	-1.5	0.5	0.	129.52
1184	-2.	-0.5	0.	123.42
1185	-2.5	-0.5	0.	114.85
1186	-3.5	1.	0.	125.6
1187	-3.5	0.5	0.	121.92
1188	-3.5	-1.0875e-010	0.	118.77
1189	-2.	-3.5	0.	124.61
1190	-1.	-3.5	0.	122.99
1191	-1.5	-3.5	0.	113.09
1192	-0.5	-4.	0.	129.69
1193	-0.5	-4.5	0.	128.95
1194	-1.	-5.5	0.	127.38
1195	-1.5	-5.5	0.	123.97
1196	-2.5	-5.	0.	124.82
1197	-2.5	-4.	0.	128.08
1198	-2.5	-4.5	0.	125.87
1199	3.	-1.5001	0.	128.39
1200	3.5	-1.5002	0.	117.31
1201	4.	-1.5003	0.	117.49
1202	5.	-1.5002	0.	129.04
1203	4.5	-1.5003	0.	117.89
1204	5.5	-2.0001	0.	137.26
1205	5.5	-2.5	0.	141.98
1206	5.	-4.5	0.	129.6
1207	4.5	-4.5	0.	117.48
1208	4.	-4.5	0.	116.92
1209	3.	-4.5	0.	128.68
1210	3.5	-4.5	0.	117.05
1211	2.5	-4.	0.	135.4
1212	2.5	-3.5	0.	137.65
1213	2.5	-3.	0.	139.13
1214	2.5	-2.0001	0.	135.1
1215	2.5	-2.5	0.	137.45
1216	7.	5.5	0.	122.05
1217	8.	5.5	0.	122.06
1218	7.5	5.5	0.	111.59
1219	8.5	5.	0.	128.79
1220	8.5	4.	0.	128.08
1221	8.5	4.5	0.	128.45
1222	8.	3.5	0.	119.43
1223	7.	3.5	0.	120.33
1224	7.5	3.5	0.	109.54
1225	6.5	4.	0.	128.28
1226	6.5	5.	0.	128.29
1227	6.5	4.5	0.	128.16
1228	-1.5	-6.	0.	128.08
1229	-1.5	-7.	0.	135.8
1230	-1.5	-6.5	0.	133.95
1231	-2.	-7.5	0.	125.99
1232	-2.5	-7.5	0.	116.25
1233	-3.	-7.5	0.	116.56
1234	-3.5	-7.5	0.	116.14
1235	-4.5	-7.	0.	131.95
1236	-4.5	-6.	0.	127.54
1237	-4.5	-6.5	0.	130.65
1238	-4.	-5.5	0.	122.51
1239	-2.	-5.5	0.	126.9
1240	-2.5	-5.5	0.	122.91
1241	-3.	-5.5	0.	119.54
1242	7.	-5.5	0.	124.4
1243	6.	-5.5	0.	125.23
1244	6.5	-5.5	0.	113.45
1245	5.5	-5.	0.	134.4
1246	5.5	-4.5	0.	140.84
1247	5.5	-4.	0.	142.57
1248	5.5	-3.	0.	143.23
1249	5.5	-3.5	0.	143.54
1250	6.	-2.5	0.	127.61
1251	7.	-2.5	0.	121.55
1252	6.5	-2.5	0.	113.02
1253	7.5	-3.	0.	125.77
1254	7.5	-3.5	0.	130.14
1255	7.5	-4.	0.	132.67
1256	7.5	-5.	0.	130.07
1257	7.5	-4.5	0.	131.77
1258	6.5	-1.0001	0.	132.88
1259	6.5	-0.5001	0.	135.36
1260	6.5	-1.0919e-004	0.	136.38
1261	6.5	0.99989	0.	131.61
1262	6.5	0.49989	0.	134.16
1263	7.	1.5	0.	124.05
1264	7.5	1.5	0.	113.35
1265	8.	1.5	0.	113.82
1266	9.	1.5	0.	126.93
1267	8.5	1.5	0.	114.84
1268	7.	-1.5	0.	125.37
1269	7.5	-1.5	0.	115.68
1270	8.	-1.5	0.	116.46
1271	8.5	-1.5	0.	116.69
1272	9.	-1.5	0.	127.74
1273	-5.5	8.	0.	129.51
1274	-5.5	7.	0.	130.81
1275	-5.5	7.5	0.	129.83
1276	-6.	6.5	0.	127.41
1277	-6.5	6.5	0.	118.31
1278	-7.	6.5	0.	118.95
1279	-8.	6.5	0.	126.56
1280	-7.5	6.5	0.	118.24
1281	-8.5	7.	0.	131.76
1282	-8.5	8.	0.	131.19
1283	-8.5	7.5	0.	130.76
1284	-6.	8.5	0.	126.08
1285	-6.5	8.5	0.	118.3
1286	-7.	8.5	0.	119.46
1287	-7.5	8.5	0.	118.82
1288	-8.	8.5	0.	127.31
1289	-2.	1.5	0.	117.17
1290	-3.	1.5	0.	114.7
1291	-2.5	1.5	0.	97.799
1292	-3.5	2.	0.	126.62
1293	-3.5	2.5	0.	128.31
1294	-3.5	3.	0.	130.1
1295	-3.5	4.	0.	127.5
1296	-3.5	3.5	0.	128.81
1297	-3.	4.5	0.	118.09
1298	-2.	4.5	0.	118.
1299	-2.5	4.5	0.	106.35
1300	-1.5	4.	0.	126.6
1301	-1.5	3.5	0.	129.78
1302	-1.5	3.	0.	131.58
1303	-1.5	2.	0.	130.6
1304	-1.5	2.5	0.	130.29
1305	-6.	-2.5	0.	129.84
1306	-6.5	-2.5	0.	119.72
1307	-7.	-2.5	0.	119.9
1308	-8.	-2.5	0.	128.03
1309	-7.5	-2.5	0.	119.2
1310	-8.5	-2.	0.	133.3
1311	-8.5	-1.	0.	133.36
1312	-8.5	-1.5	0.	132.53
1313	-8.	-0.5	0.	128.42
1314	-7.5	-0.5	0.	119.85
1315	-7.	-0.5	0.	120.98
1316	-6.	-0.5	0.	131.41
1317	-6.5	-0.5	0.	121.1
1318	9.	-8.5	0.	123.88
1319	8.	-8.5	0.	122.53
1320	8.5	-8.5	0.	112.86
1321	7.5	-8.	0.	128.99
1322	7.5	-7.	0.	129.03
1323	7.5	-7.5	0.	129.
1324	8.5	-6.5	0.	114.63
1325	8.	-6.5	0.	125.22
1326	-2.5	-1.	0.	120.92
1327	-2.5	-1.5	0.	126.14
1328	-2.5	-2.	0.	128.81
1329	-2.5	-3.	0.	128.23
1330	-2.5	-2.5	0.	128.48
1331	-3.	-3.5	0.	123.73
1332	-3.5	-3.5	0.	112.33
1333	-4.	-3.5	0.	112.91
1334	-5.	-3.5	0.	125.74
1335	-4.5	-3.5	0.	114.09
1336	-5.5	-3.	0.	134.33
1337	-5.5	-2.5	0.	139.93
1338	-5.5	-2.	0.	140.85
1339	-5.5	-1.	0.	136.9
1340	-5.5	-1.5	0.	139.66
1341	-5.	-0.5	0.	129.29
1342	-4.5	-0.5	0.	116.02
1343	-4.	-0.5	0.	115.29
1344	-3.	-0.5	0.	121.6
1345	-3.5	-0.5	0.	116.6
1346	9.5	9.	0.	125.13
1347	9.5	8.	0.	125.46
1348	9.5	7.5	0.	125.73
1349	9.5	7.	0.	126.08
1350	9.5	6.5	0.	126.5
1351	9.5	6.	0.	126.87
1352	9.5	5.5	0.	126.89
1353	9.5	5.	0.	126.48
1354	9.5	4.5	0.	126.48
1355	9.5	4.	0.	127.29
1356	9.5	3.5	0.	128.6
1357	9.5	3.	0.	129.67
1358	9.5	2.5	0.	130.72
1359	9.5	2.	0.	132.47
1360	9.5	1.5	0.	136.58
1361	9.5	1.	0.	137.1
1362	9.5	0.5	0.	139.4
1363	9.5	-1.5202e-009	0.	140.93
1364	9.5	-0.5	0.	139.25
1365	9.5	-1.	0.	136.55
1366	9.5	-1.5	0.	135.78
1367	9.5	-2.	0.	131.1
1368	9.5	-2.5	0.	128.56
1369	9.5	-3.	0.	126.82
1370	9.5	-3.5	0.	125.68
1371	9.5	-4.	0.	125.21
1372	9.5	-4.5	0.	125.39
1373	9.5	-5.	0.	126.05
1374	9.5	-5.5	0.	126.98
1375	9.5	-6.	0.	128.51
1376	9.5	-6.5	0.	132.32
1377	9.5	-7.	0.	132.73
1378	9.5	-7.5	0.	133.07
1379	9.5	-8.	0.	132.33
1380	9.5	-8.5	0.	131.85
1381	9.5	-9.	0.	128.14
1382	9.5	-9.5	0.	127.01
1383	9.	-9.5	0.	123.12
1384	8.5	-9.5	0.	120.87
1385	8.	-9.5	0.	121.7
1386	7.5	-9.5	0.	123.97
1387	6.5	-9.5	0.	125.97
1388	6.	-9.5	0.	125.95
1389	5.5	-9.5	0.	125.91
1390	5.	-9.5	0.	126.02
1391	4.5	-9.5	0.	126.33
1392	4.	-9.5	0.	126.84
1393	3.5	-9.5	0.	127.51
1394	3.	-9.5	0.	128.28
1395	2.5	-9.5	0.	129.05
1396	2.	-9.5	0.	129.64
1397	1.5	-9.5	0.	129.73
1398	1.	-9.5	0.	128.8
1399	0.5	-9.5	0.	126.18
1400	2.1355e-012	-9.5	0.	122.43
1401	-0.5	-9.5	0.	119.96
1402	-1.	-9.5	0.	120.53
1403	-1.5	-9.5	0.	122.43
1404	-2.	-9.5	0.	123.49
1405	-2.5	-9.5	0.	123.61
1406	-3.	-9.5	0.	123.95
1407	-3.5	-9.5	0.	125.09
1408	-4.	-9.5	0.	126.71
1409	-4.5	-9.5	0.	127.43
1410	-5.	-9.5	0.	117.69
1411	-5.5	-9.5	0.	106.38
1412	-6.	-9.5	0.	118.95
1413	-6.5	-9.5	0.	130.33
1414	-7.	-9.5	0.	131.35
1415	-7.5	-9.5	0.	131.14
1416	-8.	-9.5	0.	130.6
1417	-8.5	-9.5	0.	130.08
1418	-9.	-9.5	0.	129.71
1419	-9.5	-9.5	0.	129.52
1420	-9.5	-8.5	0.	129.01
1421	-9.5	-8.	0.	128.79
1422	-9.5	-7.5	0.	128.71
1423	-9.5	-7.	0.	128.79
1424	-9.5	-6.5	0.	128.99
1425	-9.5	-6.	0.	129.24
1426	-9.5	-5.5	0.	129.52
1427	-9.5	-5.	0.	129.77
1428	-9.5	-4.5	0.	130.
1429	-9.5	-4.	0.	130.19
1430	-9.5	-3.5	0.	130.32
1431	-9.5	-3.	0.	130.22
1432	-9.5	-2.5	0.	129.62
1433	-9.5	-2.	0.	128.5
1434	-9.5	-1.5	0.	127.95
1435	-9.5	-1.	0.	128.47
1436	-9.5	-0.5	0.	129.52
1437	-9.5	8.8599e-013	0.	129.99
1438	-9.5	0.5	0.	129.89
1439	-9.5	1.	0.	129.53
1440	-9.5	1.5	0.	129.1
1441	-9.5	2.	0.	128.7
1442	-9.5	2.5	0.	128.36
1443	-9.5	3.	0.	128.11
1444	-9.5	3.5	0.	127.97
1445	-9.5	4.	0.	127.93
1446	-9.5	4.5	0.	127.97
1447	-9.5	5.	0.	128.07
1448	-9.5	5.5	0.	128.15
1449	-9.5	6.	0.	127.99
1450	-9.5	6.5	0.	127.26
1451	-9.5	7.	0.	125.89
1452	-9.5	7.5	0.	124.92
1453	-9.5	8.	0.	124.9
1454	-9.5	8.5	0.	125.44
1455	-9.5	9.	0.	125.47
1456	-9.5	9.5	0.	125.15
1457	-9.	9.5	0.	125.56
1458	-8.5	9.5	0.	125.28
1459	-8.	9.5	0.	124.09
1460	-7.5	9.5	0.	122.61
1461	-7.	9.5	0.	122.04
1462	-6.5	9.5	0.	122.88
1463	-6.	9.5	0.	124.65
1464	-5.5	9.5	0.	126.17
1465	-5.	9.5	0.	126.84
1466	-4.5	9.5	0.	126.97
1467	-4.	9.5	0.	127.39
1468	-3.5	9.5	0.	129.96
1469	-3.	9.5	0.	127.34
1470	-2.5	9.5	0.	119.26
1471	-2.	9.5	0.	120.23
1472	-1.5	9.5	0.	119.26
1473	-1.	9.5	0.	127.35
1474	-0.5	9.5	0.	129.96
1475	6.2417e-010	9.5	0.	127.26
1476	0.5	9.5	0.	126.63
1477	1.	9.5	0.	126.42
1478	1.5	9.5	0.	126.27
1479	2.	9.5	0.	126.14
1480	2.5	9.5	0.	126.02
1481	3.	9.5	0.	125.92
1482	3.5	9.5	0.	125.81
1483	4.	9.5	0.	125.69
1484	4.5	9.5	0.	125.57
1485	6.	9.5	0.	125.11
1486	6.5	9.5	0.	124.97
1487	7.	9.5	0.	124.86
1488	7.5	9.5	0.	124.8
1489	8.	9.5	0.	124.81
1490	8.5	9.5	0.	124.86
1491	9.	9.5	0.	124.94
1492	9.5	9.5	0.	125.02
1493	6.5	9.	0.	124.86
1494	2.	9.	0.	125.15
1495	9.	2.	0.	125.07
1496	9.5	8.5	0.	125.27
1497	-7.	3.5	0.	124.01
1498	-4.	-7.5	0.	125.56
1499	-7.5	3.	0.	124.53
1500	9.	-6.5	0.	124.87
1501	-8.5	0.5	0.	128.53
1502	-3.	-4.5	0.	118.11
1503	-9.	-1.5	0.	128.7
1504	-1.	6.	0.	123.83
1505	-4.5	4.5	0.	128.46
1506	4.	3.9999	0.	126.36
1507	-4.	7.	0.	129.14
1508	1.1336e-009	8.5	0.	127.
1509	4.5	1.4995	0.	125.91
1510	-4.5	-9.	0.	127.3
1511	-0.5	-2.	0.	125.
1512	-9.5	-9.	0.	129.29
1513	1.	-1.5	0.	130.06
1514	9.	7.	0.	125.35
1515	4.7054e-007	6.5	0.	131.31
1516	-3.5	8.	0.	134.63
1517	8.	-3.5	0.	125.01
1518	9.	2.5	0.	125.37
1519	-7.	4.5	0.	123.34
1520	-1.	2.5	0.	129.02
1521	8.	-5.5	0.	127.18
1522	7.	2.	0.	121.45
1523	9.	-4.5	0.	125.16
1524	5.5	5.5	0.	126.49
1525	-8.5	1.5	0.	126.9
1526	2.5	-5.	0.	132.29
1527	5.	5.5	0.	126.06
1528	-6.	4.5	0.	125.15
1529	5.	9.5	0.	125.43
1530	5.	1.4996	0.	126.94
1531	-7.	2.5	0.	124.18
1532	3.	9.	0.	125.41
1533	8.	8.	0.	124.12
1534	2.	7.	0.	125.5
1535	5.5	-6.5	0.	124.95
1536	-6.5	2.5	0.	124.06
1537	-7.5	3.5	0.	124.35
1538	3.	6.5	0.	125.71
1539	9.	6.	0.	127.16
1540	4.	-7.5	0.	125.3
1541	3.5	5.5	0.	126.08
1542	8.	-3.	0.	123.83
1543	9.	-4.	0.	124.93
1544	8.	-4.5	0.	126.88
1545	8.	-4.	0.	126.72
1546	0.5	6.5	0.	129.39
1547	-5.	-6.5	0.	118.53
1548	3.	4.	0.	126.7
1549	4.5	5.5	0.	125.93
1550	4.5	-7.	0.	124.74
1551	0.50001	1.5	0.	128.84
1552	1.5	-5.	0.	133.71
1553	-5.5	-4.	0.	127.55
1554	8.5	-9.	0.	118.78
1555	0.5	-1.5	0.	128.73
1556	8.	-6.	0.	125.44
1557	3.	7.	0.	125.33
1558	-0.5	-2.5	0.	124.88
1559	-4.	-4.5	0.	115.98
1560	5.5	3.4999	0.	127.44
1561	-3.5	-5.5	0.	116.11
1562	5.	3.9999	0.	126.27
1563	-8.5	4.	0.	125.87
1564	1.5	-1.5	0.	131.57
1565	-6.5	-3.5	0.	125.1
1566	3.0001	1.4997	0.	125.88
1567	7.	-6.5	0.	125.94
1568	5.5	9.5	0.	125.27
1569	2.	-1.5001	0.	133.46
1570	-8.	5.	0.	124.45
1571	-5.5	-4.5	0.	124.72
1572	-3.	5.	0.	118.16
1573	-3.	6.5	0.	123.7
1574	-3.5	7.	0.	130.77
1575	-6.	2.5	0.	124.17
1576	7.	-9.5	0.	125.53
1577	-0.5	-5.	0.	125.62
1578	1.	1.5	0.	128.36
1579	2.5	-5.5	0.	129.96
1580	-1.	-0.5	0.	128.92
1581	2.5	-6.5	0.	127.91
1582	2.	6.5	0.	126.25
1583	-4.	8.	0.	127.63
1584	5.5	-6.	0.	127.21
1585	-9.	-2.	0.	130.4
1586	4.	6.5	0.	125.72
1587	-4.	4.5	0.	128.74
1588	-6.	5.	0.	125.47
1589	5.5	1.4997	0.	128.37
1590	3.5	4.	0.	126.49
1591	1.	6.5	0.	127.93
1592	9.	-9.	0.	122.55
1593	6.	5.5	0.	127.51
1594	7.5	-2.	0.	120.15
1595	3.5	3.4999	0.	126.6
1596	7.5	-6.	0.	128.72
1597	-9.	-2.5	0.	131.73
1598	9.	5.5	0.	127.98
1599	-7.	-7.	0.	128.55
1600	2.5	-1.0002	0.	131.17
1601	6.	1.4998	0.	130.07
1602	4.	5.5	0.	125.95
1603	4.	1.4995	0.	125.4
1604	5.5	4.	0.	126.3
1605	5.	-6.5	0.	125.31
1606	-6.	5.5	0.	125.77
1607	3.	1.9997	0.	126.25
1608	-4.5	7.	0.	127.87
1609	2.	6.	0.	126.87
1610	-5.5	4.5	0.	126.56
1611	-4.5	-4.5	0.	118.91
1612	-1.5	5.5	0.	119.31
1613	2.5	-6.	0.	128.67
1614	-8.	-6.5	0.	128.3
1615	1.5	1.5	0.	127.86
1616	-4.5	5.5	0.	130.5
1617	6.5	7.5	0.	124.3
1618	0.5	-0.5	0.	129.28
1619	3.5	-7.	0.	125.47
1620	-6.5	3.5	0.	124.07
1621	-3.	3.75	0.	131.53
1622	-2.75	4.	0.	115.02
1623	-3.25	4.	0.	127.04
1624	-3.	4.25	0.	122.61
1625	-3.	2.25	0.	129.63
1626	-2.75	2.	0.	111.86
1627	-3.	1.75	0.	119.6
1628	-3.25	2.	0.	125.32
1629	-2.25	4.	0.	115.57
1630	-2.	3.75	0.	132.27
1631	-2.	4.25	0.	123.2
1632	-1.75	4.	0.	127.14
1633	-2.25	2.	0.	112.17
1634	-2.	2.25	0.	130.68
1635	-2.	1.75	0.	121.08
1636	-1.75	2.	0.	127.66
1637	-1.	-6.25	0.	135.33
1638	-0.75	-6.	0.	122.01
1639	-1.	-5.75	0.	130.79
1640	-1.25	-6.	0.	130.75
1641	-1.	-7.75	0.	137.38
1642	-0.75	-8.	0.	120.16
1643	-1.	-8.25	0.	126.97
1644	-1.25	-8.	0.	130.89
1645	-0.25	-6.	0.	123.1
1646	0.	-6.25	0.	139.89
1647	-1.8306e-009	-5.75	0.	131.71
1648	0.25	-6.	0.	135.17
1649	-0.25	-8.	0.	120.55
1650	0.	-7.75	0.	137.88
1651	2.4119e-012	-8.25	0.	128.2
1652	0.25	-8.	0.	132.3
1653	-6.	-7.25	0.	134.65
1654	-5.75	-7.	0.	117.14
1655	-6.25	-7.	0.	129.14
1656	-6.	-6.75	0.	125.11
1657	-6.	-8.75	0.	134.1
1658	-5.75	-9.	0.	116.8
1659	-6.25	-9.	0.	129.23
1660	-6.	-9.25	0.	124.09
1661	-5.25	-7.	0.	116.88
1662	-5.	-7.25	0.	135.48
1663	-4.75	-7.	0.	130.41
1664	-5.	-6.75	0.	124.17
1665	-5.25	-9.	0.	116.34
1666	-5.	-8.75	0.	133.63
1667	-5.	-9.25	0.	122.99
1668	-4.75	-9.	0.	127.44
1669	3.	-2.25	0.	142.95
1670	3.25	-2.	0.	127.31
1671	3.	-1.7501	0.	133.5
1672	2.75	-2.	0.	136.48
1673	3.	-3.75	0.	143.07
1674	3.25	-4.	0.	127.06
1675	3.	-4.25	0.	133.75
1676	2.75	-4.	0.	136.74
1677	4.75	-2.	0.	129.25
1678	5.	-2.25	0.	146.49
1679	5.	-1.7501	0.	134.93
1680	5.25	-2.0001	0.	138.59
1681	4.75	-4.	0.	128.2
1682	5.	-3.75	0.	145.
1683	5.	-4.25	0.	135.02
1684	5.25	-4.	0.	141.11
1685	7.	0.75	0.	139.29
1686	7.25	1.	0.	123.64
1687	6.75	0.99994	0.	132.68
1688	7.	1.25	0.	129.29
1689	7.	-0.75	0.	140.71
1690	7.25	-1.	0.	125.28
1691	6.75	-1.	0.	134.27
1692	7.	-1.25	0.	130.93
1693	8.75	1.	0.	126.23
1694	9.	0.75	0.	143.4
1695	9.	1.25	0.	132.39
1696	9.25	1.	0.	137.09
1697	8.75	-1.	0.	127.24
1698	9.	-0.75	0.	143.87
1699	9.	-1.25	0.	133.18
1700	9.25	-1.	0.	137.18
1701	-8.	7.75	0.	141.03
1702	-7.75	8.	0.	127.44
1703	-8.25	8.	0.	133.78
1704	-8.	8.25	0.	132.16
1705	-8.	7.25	0.	140.55
1706	-7.75	7.	0.	126.9
1707	-8.	6.75	0.	131.27
1708	-8.25	7.	0.	133.55
1709	-6.25	8.	0.	126.08
1710	-6.	7.75	0.	139.17
1711	-5.75	8.	0.	131.99
1712	-6.	8.25	0.	130.62
1713	-6.25	7.	0.	126.6
1714	-6.	7.25	0.	139.72
1715	-5.75	7.	0.	133.23
1716	-6.	6.75	0.	131.83
1717	-2.	-4.25	0.	138.63
1718	-1.75	-4.	0.	123.22
1719	-2.	-3.75	0.	129.71
1720	-2.25	-4.	0.	131.26
1721	-2.	-4.75	0.	138.45
1722	-1.75	-5.	0.	125.19
1723	-2.25	-5.	0.	129.32
1724	-2.	-5.25	0.	130.73
1725	-1.25	-4.	0.	122.41
1726	-1.	-4.25	0.	137.39
1727	-1.	-3.75	0.	128.1
1728	-0.75	-4.	0.	131.15
1729	-1.25	-5.	0.	125.41
1730	-1.	-4.75	0.	138.25
1731	-1.	-5.25	0.	131.34
1732	-0.75	-5.	0.	129.93
1733	7.	4.75	0.	135.93
1734	7.25	5.	0.	120.3
1735	7.	5.25	0.	126.92
1736	6.75	5.	0.	129.73
1737	7.	4.25	0.	135.33
1738	7.25	4.	0.	119.13
1739	7.	3.75	0.	125.42
1740	6.75	4.	0.	129.07
1741	7.75	5.	0.	120.32
1742	8.	4.75	0.	136.03
1743	8.	5.25	0.	126.94
1744	8.25	5.	0.	129.99
1745	7.75	4.	0.	119.02
1746	8.	4.25	0.	135.28
1747	8.25	4.	0.	128.84
1748	8.	3.75	0.	124.87
1749	-3.	0.75	0.	128.6
1750	-2.75	1.	0.	112.34
1751	-3.25	1.	0.	123.96
1752	-3.	1.25	0.	118.64
1753	-3.	0.25	0.	131.6
1754	-2.75	0.	0.	118.96
1755	-3.25	-5.4375e-011	0.	123.69
1756	-3.	-0.25	0.	125.49
1757	-2.25	1.	0.	114.79
1758	-2.	0.75	0.	133.53
1759	-1.75	1.	0.	128.73
1760	-2.	1.25	0.	122.34
1761	-2.25	0.	0.	120.51
1762	-2.	0.25	0.	135.72
1763	-1.75	-8.3927e-009	0.	130.92
1764	-2.	-0.25	0.	127.82
1765	8.	-7.25	0.	138.52
1766	8.25	-7.	0.	123.36
1767	7.75	-7.	0.	131.55
1768	8.	-6.75	0.	129.96
1769	8.	-7.75	0.	137.67
1770	8.25	-8.	0.	122.03
1771	8.	-8.25	0.	127.73
1772	7.75	-8.	0.	130.62
1773	8.75	-7.	0.	123.78
1774	9.	-7.25	0.	140.36
1775	9.25	-7.	0.	133.73
1776	9.	-6.75	0.	130.14
1777	8.75	-8.	0.	123.13
1778	9.	-7.75	0.	140.19
1779	9.	-8.25	0.	129.48
1780	9.25	-8.	0.	133.34
1781	-4.	-6.25	0.	138.98
1782	-3.75	-6.	0.	125.04
1783	-4.25	-6.	0.	130.19
1784	-4.	-5.75	0.	128.15
1785	-4.	-6.75	0.	139.75
1786	-3.75	-7.	0.	125.44
1787	-4.25	-7.	0.	133.31
1788	-4.	-7.25	0.	130.44
1789	-2.25	-6.	0.	126.27
1790	-2.	-6.25	0.	138.14
1791	-1.75	-6.	0.	130.72
1792	-2.	-5.75	0.	130.61
1793	-2.25	-7.	0.	125.47
1794	-2.	-6.75	0.	138.93
1795	-1.75	-7.	0.	135.51
1796	-2.	-7.25	0.	130.91
1797	-5.	-1.25	0.	140.26
1798	-4.75	-1.	0.	125.57
1799	-5.25	-1.	0.	137.15
1800	-5.	-0.75	0.	133.58
1801	-5.	-2.75	0.	142.22
1802	-4.75	-3.	0.	125.14
1803	-5.	-3.25	0.	131.42
1804	-5.25	-3.	0.	135.22
1805	-3.25	-1.	0.	120.1
1806	-3.	-1.25	0.	132.57
1807	-2.75	-1.	0.	124.44
1808	-3.	-0.75	0.	125.34
1809	-3.25	-3.	0.	121.92
1810	-3.	-2.75	0.	135.99
1811	-2.75	-3.	0.	130.3
1812	-3.	-3.25	0.	128.28
1813	-8.	-1.25	0.	142.25
1814	-7.75	-1.	0.	128.4
1815	-8.25	-1.	0.	135.3
1816	-8.	-0.75	0.	133.15
1817	-8.	-1.75	0.	142.11
1818	-7.75	-2.	0.	127.99
1819	-8.	-2.25	0.	132.81
1820	-8.25	-2.	0.	135.13
1821	-6.25	-1.	0.	130.18
1822	-6.	-1.25	0.	144.3
1823	-6.	-0.75	0.	136.05
1824	-5.75	-1.	0.	138.51
1825	-6.25	-2.	0.	129.19
1826	-6.	-1.75	0.	143.96
1827	-6.	-2.25	0.	134.96
1828	-5.75	-2.	0.	140.11
1829	-3.	8.75	0.	141.8
1830	-2.75	9.	0.	127.99
1831	-3.25	9.	0.	133.92
1832	-3.	9.25	0.	133.15
1833	-3.	7.25	0.	138.29
1834	-2.75	7.	0.	123.
1835	-3.	6.75	0.	128.7
1836	-3.25	7.	0.	131.85
1837	-1.25	9.	0.	128.3
1838	-1.	8.75	0.	142.52
1839	-0.75	9.	0.	134.3
1840	-1.	9.25	0.	133.36
1841	-1.25	7.	0.	124.07
1842	-1.	7.25	0.	139.54
1843	-1.	6.75	0.	129.75
1844	-0.75	7.	0.	133.21
1845	6.	-3.25	0.	140.94
1846	6.25	-3.	0.	122.09
1847	5.75	-3.	0.	139.62
1848	6.	-2.75	0.	132.11
1849	6.	-4.75	0.	142.46
1850	6.25	-5.	0.	123.6
1851	6.	-5.25	0.	131.12
1852	5.75	-5.	0.	135.22
1853	6.75	-3.	0.	119.56
1854	7.	-3.25	0.	135.57
1855	7.	-2.75	0.	126.61
1856	7.25	-3.	0.	128.31
1857	6.75	-5.	0.	121.76
1858	7.	-4.75	0.	137.37
1859	7.	-5.25	0.	128.94
1860	7.25	-5.	0.	131.46
1861	9.75	10.	0.	124.99
1862	10.	9.75	0.	125.
1863	-9.75	10.	0.	125.06
1864	-10.	9.75	0.	124.91
1865	10.	-9.75	0.	129.58
1866	9.75	-10.	0.	127.98
1867	-10.	-9.75	0.	129.72
1868	-9.75	-10.	0.	129.7
1869	-3.	3.25	0.	136.13
1870	-3.25	3.5	0.	132.52
1871	-3.	2.75	0.	135.45
1872	-3.25	3.	0.	133.06
1873	-3.25	2.5	0.	131.6
1874	-2.5	4.25	0.	104.76
1875	-2.5	1.75	0.	98.48
1876	-2.	3.25	0.	136.77
1877	-1.75	3.5	0.	133.2
1878	-2.	2.75	0.	136.62
1879	-1.75	3.	0.	134.25
1880	-1.75	2.5	0.	133.31
1881	-1.	-6.75	0.	139.1
1882	-1.25	-6.5	0.	135.66
1883	-1.	-7.25	0.	141.7
1884	-1.25	-7.	0.	138.28
1885	-1.25	-7.5	0.	139.04
1886	-0.5	-5.75	0.	114.63
1887	-0.5	-8.25	0.	109.53
1888	0.	-6.75	0.	143.9
1889	0.25	-6.5	0.	139.95
1890	0.	-7.25	0.	143.24
1891	0.25	-7.	0.	140.19
1892	0.25	-7.5	0.	138.72
1893	-6.	-7.75	0.	139.68
1894	-6.25	-7.5	0.	135.56
1895	-6.	-8.25	0.	139.61
1896	-6.25	-8.	0.	136.72
1897	-6.25	-8.5	0.	135.57
1898	-5.5	-6.75	0.	106.
1899	-5.5	-9.25	0.	105.48
1900	-5.	-7.75	0.	141.51
1901	-4.75	-7.5	0.	138.39
1902	-5.	-8.25	0.	140.36
1903	-4.75	-8.	0.	137.39
1904	-4.75	-8.5	0.	134.61
1905	3.	-2.75	0.	148.34
1906	2.75	-2.5	0.	142.58
1907	3.	-3.25	0.	148.35
1908	2.75	-3.	0.	144.04
1909	2.75	-3.5	0.	142.7
1910	3.75	-2.	0.	119.48
1911	3.5	-1.7501	0.	116.95
1912	4.25	-2.	0.	120.21
1913	4.	-1.7502	0.	119.71
1914	4.5	-1.7501	0.	118.01
1915	3.75	-4.	0.	118.53
1916	3.5	-4.25	0.	116.49
1917	4.25	-4.	0.	118.85
1918	4.	-4.25	0.	118.83
1919	4.5	-4.25	0.	117.01
1920	5.	-2.75	0.	152.59
1921	5.25	-2.5	0.	147.18
1922	5.	-3.25	0.	151.37
1923	5.25	-3.	0.	148.
1924	5.25	-3.5	0.	146.75
1925	7.	0.25	0.	145.36
1926	6.75	0.49994	0.	139.3
1927	7.	-0.25	0.	145.83
1928	6.75	-5.4593e-005	0.	141.33
1929	6.75	-0.50005	0.	140.37
1930	7.75	1.	0.	116.08
1931	7.5	1.25	0.	113.3
1932	8.25	1.	0.	117.01
1933	8.	1.25	0.	116.16
1934	8.5	1.25	0.	114.98
1935	7.75	-1.	0.	117.74
1936	7.5	-1.25	0.	115.16
1937	8.25	-1.	0.	118.6
1938	8.	-1.25	0.	118.4
1939	8.5	-1.25	0.	116.55
1940	9.	0.25	0.	150.25
1941	9.25	0.5	0.	144.34
1942	9.	-0.25	0.	150.35
1943	9.25	-7.6009e-010	0.	146.08
1944	9.25	-0.5	0.	144.37
1945	-8.25	7.5	0.	138.07
1946	-7.25	8.	0.	121.17
1947	-7.5	8.25	0.	118.6
1948	-6.75	8.	0.	120.75
1949	-7.	8.25	0.	121.55
1950	-6.5	8.25	0.	117.9
1951	-7.25	7.	0.	120.91
1952	-7.5	6.75	0.	118.25
1953	-6.75	7.	0.	120.55
1954	-7.	6.75	0.	121.13
1955	-6.5	6.75	0.	117.9
1956	-5.75	7.5	0.	136.7
1957	-2.25	-4.5	0.	134.34
1958	-1.5	-3.75	0.	112.45
1959	-1.5	-5.25	0.	120.17
1960	-0.75	-4.5	0.	135.48
1961	6.75	4.5	0.	134.32
1962	7.5	5.25	0.	110.34
1963	7.5	3.75	0.	108.73
1964	8.25	4.5	0.	134.53
1965	-3.25	0.5	0.	128.23
1966	-2.5	1.25	0.	99.806
1967	-2.5	-0.25	0.	112.07
1968	-1.75	0.5	0.	134.55
1969	7.75	-7.5	0.	135.91
1970	8.5	-6.75	0.	113.5
1971	8.5	-8.25	0.	112.1
1972	9.25	-7.5	0.	139.36
1973	-4.25	-6.5	0.	137.54
1974	-3.25	-6.	0.	120.32
1975	-3.5	-5.75	0.	116.36
1976	-2.75	-6.	0.	121.41
1977	-3.	-5.75	0.	121.61
1978	-2.5	-5.75	0.	120.91
1979	-3.25	-7.	0.	118.73
1980	-3.5	-7.25	0.	116.09
1981	-2.75	-7.	0.	118.54
1982	-3.	-7.25	0.	118.84
1983	-2.5	-7.25	0.	115.94
1984	-1.75	-6.5	0.	138.14
1985	-5.	-1.75	0.	145.
1986	-5.25	-1.5	0.	141.4
1987	-5.	-2.25	0.	147.21
1988	-5.25	-2.	0.	143.83
1989	-5.25	-2.5	0.	143.76
1990	-4.25	-1.	0.	116.36
1991	-4.5	-0.75	0.	115.01
1992	-3.75	-1.	0.	115.35
1993	-4.	-0.75	0.	116.78
1994	-3.5	-0.75	0.	114.32
1995	-4.25	-3.	0.	115.46
1996	-4.5	-3.25	0.	113.88
1997	-3.75	-3.	0.	114.49
1998	-4.	-3.25	0.	114.92
1999	-3.5	-3.25	0.	111.99
2000	-3.	-1.75	0.	137.95
2001	-2.75	-1.5	0.	131.44
2002	-3.	-2.25	0.	139.35
2003	-2.75	-2.	0.	133.98
2004	-2.75	-2.5	0.	134.
2005	-8.25	-1.5	0.	139.71
2006	-7.25	-1.	0.	122.32
2007	-7.5	-0.75	0.	119.62
2008	-6.75	-1.	0.	122.7
2009	-7.	-0.75	0.	122.99
2010	-6.5	-0.75	0.	120.63
2011	-7.25	-2.	0.	121.6
2012	-7.5	-2.25	0.	119.03
2013	-6.75	-2.	0.	121.62
2014	-7.	-2.25	0.	121.99
2015	-6.5	-2.25	0.	119.26
2016	-5.75	-1.5	0.	143.93
2017	-3.	8.25	0.	145.34
2018	-3.25	8.5	0.	139.36
2019	-3.	7.75	0.	144.36
2020	-3.25	8.	0.	140.01
2021	-3.25	7.5	0.	138.06
2022	-2.25	9.	0.	121.62
2023	-2.5	9.25	0.	118.51
2024	-1.75	9.	0.	121.72
2025	-2.	9.25	0.	122.4
2026	-1.5	9.25	0.	118.6
2027	-2.25	7.	0.	115.55
2028	-2.5	6.75	0.	113.01
2029	-1.75	7.	0.	116.19
2030	-2.	6.75	0.	115.8
2031	-1.5	6.75	0.	114.24
2032	-1.	8.25	0.	146.55
2033	-0.75	8.5	0.	140.22
2034	-1.	7.75	0.	145.85
2035	-0.75	8.	0.	141.24
2036	-0.75	7.5	0.	139.42
2037	6.	-3.75	0.	146.62
2038	5.75	-3.5	0.	144.59
2039	6.	-4.25	0.	147.88
2040	5.75	-4.	0.	145.07
2041	5.75	-4.5	0.	144.5
2042	6.5	-2.75	0.	110.51
2043	6.5	-5.25	0.	111.96
2044	7.	-3.75	0.	140.69
2045	7.25	-3.5	0.	135.09
2046	7.	-4.25	0.	141.53
2047	7.25	-4.	0.	137.
2048	7.25	-4.5	0.	136.75
2049	9.25	10.	0.	124.96
2050	9.5	9.75	0.	125.01
2051	8.75	10.	0.	124.88
2052	9.	9.75	0.	124.94
2053	8.25	10.	0.	124.81
2054	8.5	9.75	0.	124.85
2055	7.75	10.	0.	124.77
2056	8.	9.75	0.	124.79
2057	7.25	10.	0.	124.79
2058	7.5	9.75	0.	124.78
2059	6.75	10.	0.	124.89
2060	7.	9.75	0.	124.84
2061	6.25	10.	0.	125.04
2062	6.5	9.75	0.	124.96
2063	5.75	10.	0.	125.23
2064	6.	9.75	0.	125.12
2065	5.25	10.	0.	125.43
2066	5.5	9.75	0.	125.3
2067	4.75	10.	0.	125.64
2068	5.	9.75	0.	125.48
2069	4.25	10.	0.	125.85
2070	4.5	9.75	0.	125.66
2071	3.75	10.	0.	126.05
2072	4.	9.75	0.	125.82
2073	3.25	10.	0.	126.27
2074	3.5	9.75	0.	125.98
2075	2.75	10.	0.	126.53
2076	3.	9.75	0.	126.15
2077	2.25	10.	0.	126.88
2078	2.5	9.75	0.	126.35
2079	1.75	10.	0.	127.36
2080	2.	9.75	0.	126.61
2081	1.25	10.	0.	128.03
2082	1.5	9.75	0.	126.95
2083	0.75	10.	0.	128.88
2084	1.	9.75	0.	127.41
2085	0.25	10.	0.	129.78
2086	0.5	9.75	0.	127.97
2087	-0.25	10.	0.	129.4
2088	3.1208e-010	9.75	0.	128.7
2089	-0.75	10.	0.	125.59
2090	-0.5	9.75	0.	129.22
2091	-1.25	10.	0.	120.15
2092	-1.	9.75	0.	124.81
2093	-1.75	10.	0.	116.58
2094	-1.5	9.75	0.	118.32
2095	-2.25	10.	0.	116.61
2096	-2.	9.75	0.	117.52
2097	-2.75	10.	0.	120.27
2098	-2.5	9.75	0.	118.35
2099	-3.25	10.	0.	125.87
2100	-3.	9.75	0.	124.89
2101	-3.75	10.	0.	129.91
2102	-3.5	9.75	0.	129.41
2103	-4.25	10.	0.	130.43
2104	-4.	9.75	0.	129.06
2105	-4.75	10.	0.	129.31
2106	-4.5	9.75	0.	128.46
2107	-5.25	10.	0.	127.58
2108	-5.	9.75	0.	127.7
2109	-5.75	10.	0.	125.34
2110	-5.5	9.75	0.	126.33
2111	-6.25	10.	0.	123.14
2112	-6.	9.75	0.	124.37
2113	-6.75	10.	0.	121.67
2114	-6.5	9.75	0.	122.49
2115	-7.25	10.	0.	121.38
2116	-7.	9.75	0.	121.6
2117	-7.75	10.	0.	122.2
2118	-7.5	9.75	0.	122.07
2119	-8.25	10.	0.	123.53
2120	-8.	9.75	0.	123.45
2121	-8.75	10.	0.	124.61
2122	-8.5	9.75	0.	124.75
2123	-9.25	10.	0.	125.04
2124	-9.	9.75	0.	125.28
2125	-9.5	9.75	0.	125.12
2126	10.	9.25	0.	125.08
2127	9.75	9.5	0.	125.02
2128	10.	8.75	0.	125.27
2129	9.75	9.	0.	125.14
2130	10.	8.25	0.	125.58
2131	9.75	8.5	0.	125.33
2132	10.	7.75	0.	125.99
2133	9.75	8.	0.	125.61
2134	10.	7.25	0.	126.49
2135	9.75	7.5	0.	125.97
2136	10.	6.75	0.	126.97
2137	9.75	7.	0.	126.42
2138	10.	6.25	0.	127.16
2139	9.75	6.5	0.	126.84
2140	10.	5.75	0.	126.74
2141	9.75	6.	0.	127.
2142	10.	5.25	0.	125.79
2143	9.75	5.5	0.	126.62
2144	10.	4.75	0.	125.14
2145	9.75	5.	0.	125.86
2146	10.	4.25	0.	125.81
2147	9.75	4.5	0.	125.76
2148	10.	3.75	0.	127.96
2149	9.75	4.	0.	126.93
2150	10.	3.25	0.	130.88
2151	9.75	3.5	0.	128.95
2152	10.	2.75	0.	134.04
2153	9.75	3.	0.	131.03
2154	10.	2.25	0.	137.34
2155	9.75	2.5	0.	133.17
2156	10.	1.75	0.	139.53
2157	9.75	2.	0.	135.73
2158	10.	1.25	0.	138.23
2159	9.75	1.5	0.	138.29
2160	10.	0.75	0.	134.27
2161	9.75	1.	0.	136.76
2162	10.	0.25	0.	131.82
2163	9.75	0.5	0.	135.74
2164	10.	-0.25	0.	131.55
2165	9.75	-7.6009e-010	0.	136.24
2166	10.	-0.75	0.	133.43
2167	9.75	-0.5	0.	135.4
2168	10.	-1.25	0.	136.67
2169	9.75	-1.	0.	135.92
2170	10.	-1.75	0.	136.97
2171	9.75	-1.5	0.	136.89
2172	10.	-2.25	0.	133.61
2173	9.75	-2.	0.	133.47
2174	10.	-2.75	0.	129.35
2175	9.75	-2.5	0.	129.9
2176	10.	-3.25	0.	126.14
2177	9.75	-3.	0.	127.09
2178	10.	-3.75	0.	124.39
2179	9.75	-3.5	0.	125.28
2180	10.	-4.25	0.	124.11
2181	9.75	-4.	0.	124.55
2182	10.	-4.75	0.	125.16
2183	9.75	-4.5	0.	124.85
2184	10.	-5.25	0.	127.36
2185	9.75	-5.	0.	126.01
2186	10.	-5.75	0.	130.41
2187	9.75	-5.5	0.	127.84
2188	10.	-6.25	0.	132.69
2189	9.75	-6.	0.	130.28
2190	10.	-6.75	0.	131.58
2191	9.75	-6.5	0.	132.79
2192	10.	-7.25	0.	127.89
2193	9.75	-7.	0.	131.28
2194	10.	-7.75	0.	127.64
2195	9.75	-7.5	0.	129.49
2196	10.	-8.25	0.	131.05
2197	9.75	-8.	0.	130.83
2198	10.	-8.75	0.	132.42
2199	9.75	-8.5	0.	132.28
2200	10.	-9.25	0.	131.05
2201	9.75	-9.	0.	130.12
2202	9.75	-9.5	0.	128.5
2203	-10.	9.25	0.	124.46
2204	-9.75	9.5	0.	124.97
2205	-10.	8.75	0.	123.53
2206	-9.75	9.	0.	124.8
2207	-10.	8.25	0.	122.24
2208	-9.75	8.5	0.	124.18
2209	-10.	7.75	0.	121.43
2210	-9.75	8.	0.	123.23
2211	-10.	7.25	0.	122.19
2212	-9.75	7.5	0.	123.12
2213	-10.	6.75	0.	124.41
2214	-9.75	7.	0.	124.47
2215	-10.	6.25	0.	126.83
2216	-9.75	6.5	0.	126.5
2217	-10.	5.75	0.	128.41
2218	-9.75	6.	0.	127.95
2219	-10.	5.25	0.	129.
2220	-9.75	5.5	0.	128.53
2221	-10.	4.75	0.	129.
2222	-9.75	5.	0.	128.58
2223	-10.	4.25	0.	128.83
2224	-9.75	4.5	0.	128.45
2225	-10.	3.75	0.	128.71
2226	-9.75	4.	0.	128.33
2227	-10.	3.25	0.	128.74
2228	-9.75	3.5	0.	128.32
2229	-10.	2.75	0.	128.97
2230	-9.75	3.	0.	128.46
2231	-10.	2.25	0.	129.37
2232	-9.75	2.5	0.	128.74
2233	-10.	1.75	0.	129.89
2234	-9.75	2.	0.	129.15
2235	-10.	1.25	0.	130.43
2236	-9.75	1.5	0.	129.64
2237	-10.	0.75	0.	130.73
2238	-9.75	1.	0.	130.1
2239	-10.	0.25	0.	130.4
2240	-9.75	0.5	0.	130.33
2241	-10.	-0.25	0.	129.09
2242	-9.75	4.4039e-013	0.	130.01
2243	-10.	-0.75	0.	127.02
2244	-9.75	-0.5	0.	128.83
2245	-10.	-1.25	0.	125.33
2246	-9.75	-1.	0.	127.17
2247	-10.	-1.75	0.	125.3
2248	-9.75	-1.5	0.	126.36
2249	-10.	-2.25	0.	126.98
2250	-9.75	-2.	0.	127.16
2251	-10.	-2.75	0.	129.11
2252	-9.75	-2.5	0.	128.86
2253	-10.	-3.25	0.	130.59
2254	-9.75	-3.	0.	130.16
2255	-10.	-3.75	0.	131.16
2256	-9.75	-3.5	0.	130.7
2257	-10.	-4.25	0.	131.12
2258	-9.75	-4.	0.	130.72
2259	-10.	-4.75	0.	130.78
2260	-9.75	-4.5	0.	130.5
2261	-10.	-5.25	0.	130.32
2262	-9.75	-5.	0.	130.17
2263	-10.	-5.75	0.	129.8
2264	-9.75	-5.5	0.	129.79
2265	-10.	-6.25	0.	129.29
2266	-9.75	-6.	0.	129.39
2267	-10.	-6.75	0.	128.85
2268	-9.75	-6.5	0.	129.01
2269	-10.	-7.25	0.	128.57
2270	-9.75	-7.	0.	128.72
2271	-10.	-7.75	0.	128.53
2272	-9.75	-7.5	0.	128.6
2273	-10.	-8.25	0.	128.73
2274	-9.75	-8.	0.	128.68
2275	-10.	-8.75	0.	129.09
2276	-9.75	-8.5	0.	128.95
2277	-10.	-9.25	0.	129.47
2278	-9.75	-9.	0.	129.29
2279	-9.75	-9.5	0.	129.59
2280	-9.25	-10.	0.	129.72
2281	-9.5	-9.75	0.	129.57
2282	-8.75	-10.	0.	130.06
2283	-9.	-9.75	0.	129.77
2284	-8.25	-10.	0.	130.61
2285	-8.5	-9.75	0.	130.19
2286	-7.75	-10.	0.	131.26
2287	-8.	-9.75	0.	130.77
2288	-7.25	-10.	0.	131.63
2289	-7.5	-9.75	0.	131.36
2290	-6.75	-10.	0.	129.83
2291	-7.	-9.75	0.	131.51
2292	-6.25	-10.	0.	122.67
2293	-6.5	-9.75	0.	129.16
2294	-5.75	-10.	0.	113.96
2295	-6.	-9.75	0.	118.1
2296	-5.25	-10.	0.	113.28
2297	-5.5	-9.75	0.	108.47
2298	-4.75	-10.	0.	120.51
2299	-5.	-9.75	0.	116.79
2300	-4.25	-10.	0.	126.05
2301	-4.5	-9.75	0.	126.23
2302	-3.75	-10.	0.	126.4
2303	-4.	-9.75	0.	126.89
2304	-3.25	-10.	0.	125.1
2305	-3.5	-9.75	0.	125.4
2306	-2.75	-10.	0.	124.14
2307	-3.	-9.75	0.	124.21
2308	-2.25	-10.	0.	123.51
2309	-2.5	-9.75	0.	123.71
2310	-1.75	-10.	0.	122.65
2311	-2.	-9.75	0.	123.36
2312	-1.25	-10.	0.	121.37
2313	-1.5	-9.75	0.	122.26
2314	-0.75	-10.	0.	120.59
2315	-1.	-9.75	0.	120.59
2316	-0.25	-10.	0.	121.54
2317	-0.5	-9.75	0.	120.24
2318	0.25	-10.	0.	124.18
2319	1.0704e-012	-9.75	0.	122.5
2320	0.75	-10.	0.	127.07
2321	0.5	-9.75	0.	125.98
2322	1.25	-10.	0.	128.94
2323	1.	-9.75	0.	128.58
2324	1.75	-10.	0.	129.58
2325	1.5	-9.75	0.	129.63
2326	2.25	-10.	0.	129.37
2327	2.	-9.75	0.	129.63
2328	2.75	-10.	0.	128.74
2329	2.5	-9.75	0.	129.08
2330	3.25	-10.	0.	127.99
2331	3.	-9.75	0.	128.33
2332	3.75	-10.	0.	127.27
2333	3.5	-9.75	0.	127.56
2334	4.25	-10.	0.	126.69
2335	4.	-9.75	0.	126.89
2336	4.75	-10.	0.	126.28
2337	4.5	-9.75	0.	126.39
2338	5.25	-10.	0.	126.07
2339	5.	-9.75	0.	126.08
2340	5.75	-10.	0.	126.01
2341	5.5	-9.75	0.	125.96
2342	6.25	-10.	0.	125.93
2343	6.	-9.75	0.	125.98
2344	6.75	-10.	0.	125.51
2345	6.5	-9.75	0.	125.91
2346	7.25	-10.	0.	124.4
2347	7.	-9.75	0.	125.34
2348	7.75	-10.	0.	122.73
2349	7.5	-9.75	0.	123.8
2350	8.25	-10.	0.	121.63
2351	8.	-9.75	0.	121.76
2352	8.75	-10.	0.	122.4
2353	8.5	-9.75	0.	121.14
2354	9.25	-10.	0.	125.08
2355	9.	-9.75	0.	123.25
2356	9.5	-9.75	0.	126.9
2357	2.5	3.2499	0.	126.91
2358	2.5	2.7499	0.	126.83
2359	2.25	2.9999	0.	127.01
2360	2.75	2.9999	0.	126.77
2361	2.5	3.75	0.	126.96
2362	2.25	3.5	0.	127.08
2363	2.75	3.4999	0.	126.83
2364	2.25	2.4999	0.	126.95
2365	2.75	2.4999	0.	126.65
2366	2.5	2.2499	0.	126.72
2367	2.	2.75	0.	127.14
2368	2.	3.25	0.	127.18
2369	1.75	3.	0.	127.28
2370	2.5	4.25	0.	126.99
2371	2.25	4.	0.	127.15
2372	2.75	4.	0.	126.84
2373	2.5	4.75	0.	126.95
2374	2.75	4.5	0.	126.81
2375	2.25	4.5	0.	127.19
2376	2.	2.2499	0.	127.14
2377	1.75	2.5	0.	127.3
2378	3.	2.7499	0.	126.59
2379	3.25	2.4998	0.	126.47
2380	3.	2.2498	0.	126.38
2381	2.75	5.	0.	126.71
2382	2.25	5.	0.	127.16
2383	2.5	5.25	0.	126.81
2384	3.	4.75	0.	126.57
2385	3.25	4.5	0.	126.49
2386	3.	4.25	0.	126.67
2387	3.	3.2499	0.	126.69
2388	3.25	2.9999	0.	126.64
2389	2.	3.75	0.	127.26
2390	1.75	3.5	0.	127.34
2391	2.25	1.9999	0.	126.91
2392	2.	1.7499	0.	127.21
2393	1.75	2.	0.	127.39
2394	3.	5.25	0.	126.43
2395	3.25	5.	0.	126.37
2396	3.5	2.2497	0.	126.24
2397	3.5	2.7498	0.	126.52
2398	3.75	2.4998	0.	126.53
2399	1.5	2.75	0.	127.44
2400	1.5	3.25	0.	127.43
2401	1.25	3.	0.	127.5
2402	2.	4.75	0.	127.41
2403	1.75	5.	0.	127.7
2404	2.	5.25	0.	127.34
2405	2.5	1.7498	0.	126.61
2406	2.75	1.9998	0.	126.45
2407	3.	3.7499	0.	126.71
2408	3.25	3.4999	0.	126.66
2409	2.	4.25	0.	127.36
2410	1.75	4.	0.	127.47
2411	1.75	4.5	0.	127.62
2412	2.75	5.5	0.	126.53
2413	2.25	5.5	0.	126.99
2414	2.5	5.75	0.	126.54
2415	3.5	1.7496	0.	125.73
2416	3.75	1.9996	0.	126.11
2417	3.25	1.9997	0.	126.14
2418	2.25	1.4999	0.	126.91
2419	2.	1.2499	0.	127.38
2420	1.75	1.4999	0.	127.56
2421	3.	5.75	0.	126.2
2422	3.25	5.5	0.	126.21
2423	3.5	4.75	0.	126.29
2424	3.75	4.5	0.	126.24
2425	3.5	4.25	0.	126.42
2426	3.75	2.9999	0.	126.67
2427	3.5	3.2499	0.	126.6
2428	1.5	2.25	0.	127.55
2429	1.25	2.5	0.	127.62
2430	1.5	3.75	0.	127.54
2431	1.25	3.5	0.	127.53
2432	1.5	4.75	0.	127.91
2433	1.5	5.25	0.	127.97
2434	1.25	5.	0.	128.27
2435	1.75	5.5	0.	127.61
2436	2.	5.75	0.	127.07
2437	3.5001	1.2494	0.	125.04
2438	3.2501	1.4996	0.	125.65
2439	3.75	1.4995	0.	125.41
2440	1.75	0.99993	0.	127.85
2441	1.25	0.99997	0.	128.44
2442	1.5	0.74996	0.	128.46
2443	1.5	1.25	0.	128.03
2444	4.	2.7498	0.	126.68
2445	4.	2.2497	0.	126.4
2446	4.25	2.4998	0.	126.87
2447	1.	2.75	0.	127.68
2448	1.	3.25	0.	127.6
2449	0.75001	3.	0.	127.63
2450	2.5001	1.2498	0.	126.55
2451	2.7501	1.4997	0.	126.22
2452	3.75	5.	0.	126.12
2453	3.5	5.25	0.	126.15
2454	1.25	2.	0.	127.84
2455	1.5	1.75	0.	127.75
2456	1.5	4.25	0.	127.73
2457	1.25	4.	0.	127.73
2458	1.25	4.5	0.	128.01
2459	-6.	3.25	0.	124.32
2460	-6.	3.75	0.	124.6
2461	-5.75	3.5	0.	124.67
2462	-6.25	3.5	0.	124.25
2463	1.	0.74998	0.	128.85
2464	1.25	0.49997	0.	128.87
2465	1.	0.24999	0.	129.25
2466	0.75001	0.49999	0.	129.06
2467	1.5	5.75	0.	127.79
2468	1.25	5.5	0.	128.36
2469	-5.75	3.	0.	124.35
2470	-6.25	3.	0.	124.13
2471	-6.	2.75	0.	124.19
2472	2.75	6.	0.	126.21
2473	2.5	6.25	0.	126.13
2474	2.25	6.	0.	126.62
2475	3.25	6.	0.	125.98
2476	3.	6.25	0.	125.88
2477	3.75	6.	0.	125.89
2478	3.5	6.25	0.	125.78
2479	3.5	5.75	0.	125.99
2480	3.2501	0.99948	0.	125.06
2481	3.7501	0.99934	0.	124.49
2482	3.5001	0.74934	0.	124.2
2483	2.25	0.99983	0.	127.02
2484	2.	0.74989	0.	127.74
2485	4.	4.75	0.	126.07
2486	4.25	4.5	0.	126.05
2487	4.	4.25	0.	126.25
2488	4.	3.2499	0.	126.67
2489	4.25	2.9999	0.	126.92
2490	4.25	1.9996	0.	126.45
2491	4.	1.7496	0.	125.79
2492	0.75001	0.99999	0.	128.83
2493	1.	1.25	0.	128.52
2494	1.	2.25	0.	127.91
2495	0.75001	2.5	0.	127.89
2496	1.	3.75	0.	127.72
2497	0.75001	3.5	0.	127.6
2498	4.25	6.	0.	125.91
2499	4.	6.25	0.	125.79
2500	4.	5.75	0.	125.91
2501	-6.25	2.	0.	124.2
2502	-6.5	1.75	0.	124.14
2503	-6.75	2.	0.	124.14
2504	-6.5	2.25	0.	124.08
2505	1.75	0.49992	0.	128.35
2506	1.5	0.24996	0.	129.09
2507	4.5	2.7498	0.	127.11
2508	4.5	2.2497	0.	126.92
2509	4.75	2.4998	0.	127.48
2510	4.0001	0.74922	0.	123.73
2511	3.7501	0.49922	0.	123.43
2512	4.25	0.49919	0.	123.31
2513	4.0001	0.24912	0.	122.42
2514	-6.25	4.	0.	124.42
2515	-5.75	4.	0.	125.21
2516	-6.	4.25	0.	124.96
2517	-5.5	2.75	0.	124.45
2518	-5.5	3.25	0.	124.71
2519	-5.25	3.	0.	124.65
2520	0.50001	2.75	0.	127.84
2521	0.50001	3.25	0.	127.63
2522	0.25	3.	0.	127.65
2523	1.	-0.25001	0.	129.71
2524	1.25	-2.6873e-005	0.	129.47
2525	0.75	-7.6219e-006	0.	129.34
2526	1.5	6.25	0.	127.26
2527	1.25	6.	0.	128.12
2528	1.75	6.	0.	127.25
2529	1.	4.75	0.	128.37
2530	1.	5.25	0.	128.66
2531	0.75	5.	0.	128.73
2532	-5.5	2.25	0.	124.48
2533	-5.25	2.5	0.	124.56
2534	-5.75	2.5	0.	124.29
2535	-5.75	2.	0.	124.43
2536	-6.	1.75	0.	124.45
2537	-6.	2.25	0.	124.23
2538	2.7501	0.99968	0.	126.01
2539	3.0001	0.74956	0.	125.32
2540	3.0001	1.2496	0.	125.68
2541	2.5001	0.74975	0.	126.63
2542	4.25	5.	0.	125.94
2543	4.	5.25	0.	125.98
2544	4.25	3.4999	0.	126.68
2545	4.	3.7499	0.	126.48
2546	3.75	3.4999	0.	126.6
2547	4.25	0.99932	0.	124.55
2548	4.	1.2494	0.	124.87
2549	0.75001	2.	0.	128.27
2550	1.	1.75	0.	128.21
2551	1.	4.25	0.	128.01
2552	0.75	4.	0.	127.84
2553	0.75	4.5	0.	128.26
2554	-6.75	3.	0.	124.09
2555	-6.5	2.75	0.	124.05
2556	-6.5	3.25	0.	124.06
2557	-6.5	4.25	0.	123.99
2558	-6.75	4.	0.	123.93
2559	-6.5	3.75	0.	124.07
2560	2.5	6.75	0.	125.61
2561	2.75	6.5	0.	125.79
2562	2.25	6.5	0.	126.07
2563	3.5	6.75	0.	125.53
2564	3.25	6.5	0.	125.68
2565	3.75	6.5	0.	125.69
2566	4.5	6.25	0.	125.9
2567	4.75	6.5	0.	125.93
2568	4.5	6.75	0.	125.75
2569	4.25	6.5	0.	125.78
2570	-6.25	1.5	0.	124.39
2571	-6.5	1.25	0.	124.2
2572	-6.75	1.5	0.	124.11
2573	0.50001	0.75	0.	129.04
2574	0.5	0.25	0.	129.15
2575	0.25	0.5	0.	129.05
2576	0.25	-1.	0.	128.65
2577	0.75	-1.	0.	129.66
2578	0.5	-1.25	0.	128.92
2579	0.5	-0.75	0.	129.2
2580	3.2501	0.49941	0.	124.46
2581	3.5001	0.24928	0.	123.27
2582	2.25	0.49981	0.	127.35
2583	2.	0.24989	0.	128.42
2584	3.75	-6.5	0.	124.66
2585	3.25	-6.5	0.	125.61
2586	3.5	-6.25	0.	124.53
2587	3.5	-6.75	0.	125.2
2588	4.75	6.	0.	126.07
2589	4.5	5.75	0.	125.94
2590	4.5	4.75	0.	125.91
2591	4.5	4.25	0.	126.12
2592	4.75	4.5	0.	125.85
2593	4.5	3.2499	0.	126.93
2594	4.75	2.9998	0.	127.36
2595	4.75	1.9996	0.	127.18
2596	4.5	1.7496	0.	126.31
2597	4.5	0.24917	0.	122.94
2598	4.5	0.74929	0.	124.14
2599	4.75	0.49927	0.	124.17
2600	0.25	1.	0.	129.17
2601	0.50001	1.25	0.	128.92
2602	0.50001	2.25	0.	128.25
2603	0.25001	2.5	0.	128.15
2604	-5.5	3.75	0.	125.28
2605	-5.25	3.5	0.	125.15
2606	0.5	3.75	0.	127.72
2607	0.25	3.5	0.	127.5
2608	-6.5	4.75	0.	123.71
2609	-6.75	4.5	0.	123.63
2610	-6.25	4.5	0.	124.53
2611	-1.1658e-007	-1.25	0.	127.8
2612	-2.9467e-007	-1.75	0.	127.16
2613	-0.25	-1.5	0.	126.72
2614	0.25	-1.5	0.	128.08
2615	1.	-0.75001	0.	130.06
2616	1.25	-0.50002	0.	130.18
2617	0.75	-0.50001	0.	129.61
2618	4.2501	-9.0186e-004	0.	122.03
2619	3.7501	-8.1403e-004	0.	122.25
2620	4.0001	-0.25087	0.	120.89
2621	1.75	-7.9541e-005	0.	129.16
2622	1.5	-0.25004	0.	129.95
2623	5.	6.75	0.	125.87
2624	5.	6.25	0.	126.1
2625	5.25	6.5	0.	126.07
2626	5.	2.7498	0.	127.73
2627	5.	2.2497	0.	127.74
2628	5.25	2.4998	0.	128.16
2629	3.8773e-006	2.75	0.	127.96
2630	3.6931e-006	3.25	0.	127.52
2631	-0.25	3.	0.	127.66
2632	1.5	6.75	0.	126.4
2633	1.75	6.5	0.	126.58
2634	1.25	6.5	0.	127.41
2635	1.	5.75	0.	128.69
2636	0.75	5.5	0.	129.12
2637	-5.5	1.75	0.	124.72
2638	-5.25	2.	0.	124.72
2639	-5.75	1.5	0.	124.75
2640	-6.	1.25	0.	124.92
2641	-6.75	1.	0.	123.95
2642	-6.25	1.	0.	124.73
2643	-6.5	0.75	0.	124.19
2644	4.75	-8.132e-004	0.	123.31
2645	4.5	-0.25086	0.	121.82
2646	0.5	4.75	0.	128.62
2647	0.5	5.25	0.	129.19
2648	0.25	5.	0.	128.82
2649	-5.	3.25	0.	125.1
2650	-5.	2.75	0.	124.76
2651	-4.75	3.	0.	125.03
2652	4.	-6.75	0.	124.64
2653	4.25	-6.5	0.	124.55
2654	4.	-6.25	0.	123.88
2655	0.25	-2.3865e-006	0.	129.04
2656	0.5	-0.25	0.	129.24
2657	0.25	-2.	0.	127.62
2658	0.5	-2.25	0.	128.31
2659	0.75	-2.	0.	128.98
2660	0.5	-1.75	0.	128.54
2661	2.7501	0.49964	0.	125.94
2662	3.0001	0.24953	0.	125.09
2663	2.5	0.24974	0.	127.03
2664	3.	-6.75	0.	126.35
2665	3.	-6.25	0.	126.26
2666	2.75	-6.5	0.	127.09
2667	4.75	5.	0.	125.83
2668	4.5	5.25	0.	125.9
2669	4.5	3.7499	0.	126.53
2670	4.25	3.9999	0.	126.33
2671	4.75	3.9999	0.	126.28
2672	4.75	3.4999	0.	126.9
2673	4.75	0.99941	0.	125.32
2674	4.5	1.2494	0.	125.34
2675	0.25001	2.	0.	128.76
2676	0.50001	1.75	0.	128.66
2677	-5.25	4.	0.	126.04
2678	-5.5	4.25	0.	126.1
2679	0.5	4.25	0.	128.09
2680	0.25	4.	0.	127.75
2681	0.25	4.5	0.	128.24
2682	4.	-7.25	0.	125.1
2683	4.25	-7.	0.	124.82
2684	3.75	-7.	0.	125.19
2685	2.75	-7.	0.	127.01
2686	3.	-7.25	0.	126.58
2687	3.25	-7.	0.	125.95
2688	2.25	-7.	0.	128.16
2689	2.5	-7.25	0.	127.63
2690	2.5	-6.75	0.	127.75
2691	2.	-6.75	0.	129.07
2692	1.75	-7.	0.	129.34
2693	2.	-7.25	0.	128.69
2694	-7.	1.75	0.	124.11
2695	-7.	1.25	0.	123.87
2696	-7.25	1.5	0.	124.31
2697	-7.25	2.	0.	124.41
2698	-7.	2.25	0.	124.18
2699	-7.	3.25	0.	124.07
2700	-7.25	3.	0.	124.33
2701	-7.	2.75	0.	124.15
2702	-7.25	4.	0.	123.93
2703	-7.	3.75	0.	123.9
2704	-7.	4.25	0.	123.57
2705	-6.75	5.	0.	123.01
2706	-7.	5.25	0.	121.86
2707	-7.25	5.	0.	122.75
2708	-7.	4.75	0.	122.94
2709	2.5	7.25	0.	125.11
2710	2.25	7.	0.	125.42
2711	2.75	7.	0.	125.33
2712	3.75	7.	0.	125.46
2713	3.5	7.25	0.	125.3
2714	3.25	7.	0.	125.37
2715	4.25	7.	0.	125.59
2716	4.	7.25	0.	125.44
2717	4.	6.75	0.	125.62
2718	4.75	7.	0.	125.69
2719	4.5	7.25	0.	125.56
2720	5.25	7.	0.	125.69
2721	5.	7.25	0.	125.6
2722	5.75	7.	0.	125.42
2723	5.5	6.75	0.	125.88
2724	5.5	7.25	0.	125.49
2725	-7.	-4.75	0.	125.86
2726	-6.75	-4.5	0.	125.62
2727	-7.	-4.25	0.	125.28
2728	-7.25	-4.5	0.	125.95
2729	-7.	0.75	0.	123.26
2730	-7.25	1.	0.	123.99
2731	3.3778e-007	-0.75	0.	128.43
2732	-0.25	-1.	0.	127.8
2733	2.6499e-006	0.75	0.	129.17
2734	1.8766e-006	0.25	0.	128.94
2735	-0.25	0.5	0.	128.96
2736	-2.6682e-007	-2.25	0.	126.97
2737	-0.25	-2.	0.	125.94
2738	1.25	-1.	0.	130.74
2739	1.	-1.25	0.	130.12
2740	1.	-2.75	0.	129.24
2741	0.75	-2.5	0.	128.76
2742	1.	-2.25	0.	129.43
2743	1.25	-2.5	0.	129.89
2744	3.2501	-5.9892e-004	0.	123.91
2745	3.5001	-0.25068	0.	122.25
2746	2.25	-1.8817e-004	0.	128.09
2747	2.	-0.25011	0.	129.56
2748	3.75	-6.	0.	123.74
2749	3.25	-6.	0.	125.17
2750	3.5	-5.75	0.	123.44
2751	5.25	6.	0.	126.36
2752	5.	5.75	0.	126.12
2753	6.25	7.	0.	124.72
2754	6.	6.75	0.	125.51
2755	6.	7.25	0.	125.06
2756	5.	4.75	0.	125.77
2757	5.25	4.5	0.	125.69
2758	5.	4.25	0.	126.01
2759	5.	3.2499	0.	127.33
2760	5.25	2.9999	0.	127.87
2761	5.25	1.9997	0.	128.14
2762	5.	1.7496	0.	127.29
2763	5.	0.24929	0.	124.55
2764	5.	0.74939	0.	125.35
2765	5.25	0.49943	0.	125.79
2766	-6.5	5.25	0.	123.08
2767	-6.25	5.	0.	124.48
2768	3.572e-006	1.25	0.	129.39
2769	-0.25	1.	0.	129.54
2770	3.8839e-006	2.25	0.	128.66
2771	-0.25	2.5	0.	128.47
2772	-5.25	5.	0.	128.3
2773	-5.	4.75	0.	128.38
2774	-4.75	5.	0.	129.32
2775	-5.	5.25	0.	129.67
2776	-5.	3.75	0.	125.91
2777	-4.75	3.5	0.	125.62
2778	3.279e-006	3.75	0.	127.52
2779	-0.25	3.5	0.	127.3
2780	1.25	7.	0.	126.31
2781	1.5	7.25	0.	125.41
2782	1.75	7.	0.	125.7
2783	0.75	6.	0.	129.2
2784	1.	6.25	0.	128.27
2785	-6.75	-5.	0.	125.52
2786	-6.5	-4.75	0.	125.28
2787	-6.25	-5.	0.	124.36
2788	-6.5	-5.25	0.	124.79
2789	-5.5	1.25	0.	125.24
2790	-5.25	1.5	0.	124.91
2791	-5.75	1.	0.	125.41
2792	-6.	0.75	0.	125.87
2793	1.25	-3.	0.	129.82
2794	1.	-3.25	0.	129.4
2795	0.75	-3.	0.	128.91
2796	5.25	-5.9613e-004	0.	125.52
2797	5.	-0.25068	0.	124.41
2798	1.75	-0.50007	0.	130.34
2799	1.5	-0.75004	0.	130.86
2800	5.75	6.5	0.	125.98
2801	5.5	6.25	0.	126.33
2802	5.5	2.2498	0.	128.56
2803	5.5	2.7498	0.	128.3
2804	5.75	2.4998	0.	128.31
2805	2.	-6.25	0.	130.01
2806	1.75	-6.5	0.	130.09
2807	2.25	-6.5	0.	128.65
2808	0.25	5.5	0.	129.5
2809	0.5	5.75	0.	129.62
2810	1.9065e-006	4.75	0.	128.44
2811	1.5395e-006	5.25	0.	129.13
2812	-0.25	5.	0.	128.2
2813	4.2501	-0.50084	0.	120.66
2814	3.7501	-0.50074	0.	120.87
2815	4.0001	-0.75073	0.	119.01
2816	-5.	2.25	0.	124.8
2817	-4.75	2.5	0.	124.97
2818	0.5	-2.75	0.	128.43
2819	0.25	-2.5	0.	127.67
2820	-7.	-5.25	0.	126.3
2821	-7.25	-5.	0.	126.46
2822	-7.	5.75	0.	120.23
2823	-7.25	5.5	0.	121.6
2824	-6.75	5.5	0.	121.92
2825	5.	-7.25	0.	124.58
2826	5.25	-7.	0.	124.41
2827	4.75	-7.	0.	124.69
2828	5.	-6.75	0.	124.97
2829	1.25	-7.	0.	130.91
2830	1.5	-7.25	0.	129.84
2831	1.5	-6.75	0.	130.37
2832	-0.75	-1.5	0.	125.27
2833	-0.5	-1.25	0.	126.73
2834	-0.5	-1.75	0.	125.51
2835	4.5	-6.25	0.	124.6
2836	4.5	-6.75	0.	124.73
2837	4.75	-6.5	0.	125.01
2838	4.25	-6.	0.	123.93
2839	4.	-5.75	0.	122.42
2840	-6.5	-4.25	0.	125.69
2841	-6.25	-4.5	0.	125.57
2842	-6.75	-4.	0.	125.35
2843	-7.25	-4.	0.	125.11
2844	-7.	-3.75	0.	124.07
2845	1.75	-3.	0.	131.65
2846	1.5	-3.25	0.	130.62
2847	1.5	-2.75	0.	130.47
2848	-0.75	3.	0.	127.99
2849	-0.5	3.25	0.	127.44
2850	-0.5	2.75	0.	128.18
2851	-4.25	3.	0.	125.79
2852	-4.5	2.75	0.	125.24
2853	-4.5	3.25	0.	125.55
2854	-7.	0.25	0.	122.06
2855	-6.75	0.5	0.	123.49
2856	-7.25	0.5	0.	123.25
2857	1.0851e-006	-0.25	0.	128.78
2858	-0.25	-0.5	0.	128.56
2859	0.25	-0.5	0.	128.98
2860	-0.25	-6.7786e-007	0.	128.74
2861	-1.	-1.75	0.	123.7
2862	-1.25	-2.	0.	122.21
2863	-1.	-2.25	0.	122.41
2864	-0.75	-2.	0.	123.93
2865	1.25	-2.	0.	130.34
2866	1.	-1.75	0.	129.84
2867	2.75	-3.6473e-004	0.	126.18
2868	3.	-0.25043	0.	125.16
2869	2.5	-0.25024	0.	127.97
2870	3.	-5.75	0.	126.29
2871	2.75	-6.	0.	127.45
2872	5.25	5.	0.	125.81
2873	5.	5.25	0.	125.93
2874	6.75	7.	0.	123.65
2875	7.	7.25	0.	123.36
2876	7.25	7.	0.	122.78
2877	7.	6.75	0.	122.69
2878	6.5	6.75	0.	124.37
2879	6.5	7.25	0.	124.27
2880	5.25	3.4999	0.	127.23
2881	5.	3.7499	0.	126.65
2882	5.25	0.99954	0.	126.67
2883	5.	1.2495	0.	126.41
2884	-5.5	5.25	0.	128.13
2885	-5.75	5.	0.	126.51
2886	-5.5	4.75	0.	127.06
2887	3.9383e-006	1.75	0.	129.25
2888	-0.25	1.5	0.	129.94
2889	0.25001	1.5	0.	129.15
2890	-0.25	2.	0.	129.44
2891	-5.	4.25	0.	127.08
2892	-4.75	4.5	0.	128.09
2893	-5.25	4.5	0.	127.14
2894	-4.75	4.	0.	126.72
2895	2.5403e-006	4.25	0.	127.89
2896	-0.25	4.	0.	127.43
2897	-0.25	4.5	0.	127.85
2898	1.	7.25	0.	126.06
2899	0.75	7.	0.	127.41
2900	1.	6.75	0.	127.32
2901	-5.75	-5.	0.	123.28
2902	-6.	-4.75	0.	124.65
2903	-6.	-5.25	0.	122.76
2904	-5.25	1.	0.	125.19
2905	-5.5	0.75	0.	126.44
2906	1.	-3.75	0.	129.93
2907	1.25	-3.5	0.	130.2
2908	0.75	-3.5	0.	129.22
2909	5.75	-3.6056e-004	0.	128.37
2910	5.5	0.24954	0.	126.77
2911	5.5	-0.25044	0.	127.36
2912	-2.	5.75	0.	114.7
2913	-1.75	6.	0.	115.59
2914	-2.25	6.	0.	114.67
2915	-2.	6.25	0.	113.79
2916	-7.25	3.9288e-012	0.	121.91
2917	-6.75	3.8134e-012	0.	122.45
2918	-7.	-0.25	0.	121.13
2919	-4.	2.75	0.	126.1
2920	-4.	3.25	0.	126.32
2921	-3.75	3.	0.	128.21
2922	-1.	3.25	0.	127.72
2923	-1.25	3.	0.	129.94
2924	-1.	2.75	0.	128.66
2925	6.	-0.25024	0.	130.21
2926	6.	0.24975	0.	129.52
2927	6.25	-1.8046e-004	0.	133.17
2928	2.	-3.25	0.	132.76
2929	2.	-2.75	0.	132.64
2930	2.25	-3.	0.	136.01
2931	-6.25	-4.	0.	126.66
2932	-6.5	-3.75	0.	125.45
2933	4.5	-5.75	0.	123.96
2934	4.75	-6.	0.	125.57
2935	-1.25	-1.5	0.	123.76
2936	-1.	-1.25	0.	125.75
2937	1.	-6.75	0.	132.04
2938	1.	-7.25	0.	131.42
2939	0.75	-7.	0.	134.31
2940	5.75	-7.5	0.	123.91
2941	6.25	-7.5	0.	123.8
2942	6.	-7.25	0.	123.63
2943	6.	-7.75	0.	124.05
2944	5.25	-7.5	0.	124.31
2945	5.5	-7.25	0.	124.14
2946	5.5	-7.75	0.	124.29
2947	4.75	-7.5	0.	124.71
2948	5.	-7.75	0.	124.66
2949	4.5	-7.75	0.	125.05
2950	4.25	-7.5	0.	125.1
2951	4.5	-7.25	0.	124.82
2952	3.25	-7.5	0.	126.32
2953	3.5	-7.75	0.	126.14
2954	3.75	-7.5	0.	125.61
2955	3.5	-7.25	0.	125.69
2956	2.75	-7.5	0.	127.2
2957	3.	-7.75	0.	126.95
2958	2.25	-7.5	0.	128.16
2959	2.5	-7.75	0.	127.86
2960	1.75	-7.5	0.	129.18
2961	2.	-7.75	0.	128.81
2962	1.25	-7.5	0.	130.35
2963	1.5	-7.75	0.	129.84
2964	-6.75	6.	0.	120.28
2965	-7.25	6.	0.	119.98
2966	-7.	6.25	0.	119.11
2967	-7.5	1.25	0.	124.43
2968	-7.5	0.75	0.	123.99
2969	-7.75	1.	0.	125.05
2970	-7.5	1.75	0.	124.61
2971	-7.75	1.5	0.	125.1
2972	-7.5	2.25	0.	124.64
2973	-7.75	2.	0.	125.08
2974	-7.75	2.5	0.	125.
2975	-7.5	2.75	0.	124.58
2976	-7.25	2.5	0.	124.4
2977	-7.5	4.25	0.	123.85
2978	-7.75	4.	0.	124.46
2979	-7.5	3.75	0.	124.21
2980	-7.5	4.75	0.	123.31
2981	-7.75	4.5	0.	124.13
2982	-7.25	4.5	0.	123.49
2983	-7.5	5.25	0.	122.5
2984	-7.75	5.	0.	123.71
2985	-7.5	5.75	0.	121.38
2986	-7.75	5.5	0.	123.28
2987	1.	-4.25	0.	130.88
2988	1.25	-4.	0.	131.03
2989	0.75	-4.	0.	129.56
2990	1.25	-4.5	0.	132.27
2991	0.75	-4.5	0.	130.38
2992	1.	-4.75	0.	132.37
2993	-7.25	-5.5	0.	127.01
2994	-6.75	-5.5	0.	125.57
2995	-7.	-5.75	0.	127.08
2996	0.5	-3.25	0.	128.73
2997	0.25	-3.	0.	128.35
2998	-5.	1.75	0.	124.91
2999	-4.75	2.	0.	125.19
3000	-5.	1.25	0.	124.86
3001	-4.75	1.5	0.	125.1
3002	-5.	0.75	0.	124.95
3003	-4.75	1.	0.	124.24
3004	-6.25	0.5	0.	125.34
3005	-6.5	0.25	0.	123.89
3006	6.5	-7.25	0.	123.74
3007	6.5	-7.75	0.	124.3
3008	6.75	-7.5	0.	124.18
3009	-4.25	2.5	0.	125.56
3010	-4.5	2.25	0.	125.36
3011	4.7501	-0.50073	0.	122.92
3012	4.5001	-0.75071	0.	120.76
3013	-7.5	-5.25	0.	127.17
3014	-7.5	-5.75	0.	127.75
3015	-7.75	-5.5	0.	127.74
3016	-7.5	-4.75	0.	126.55
3017	-7.75	-5.	0.	127.25
3018	-7.5	-4.25	0.	125.78
3019	-7.75	-4.5	0.	126.71
3020	-7.5	-3.75	0.	124.67
3021	-7.75	-4.	0.	126.06
3022	-7.25	-3.5	0.	123.62
3023	-7.5	-3.25	0.	123.1
3024	-7.75	-3.5	0.	125.27
3025	-7.	-3.25	0.	122.01
3026	-6.75	-3.5	0.	124.17
3027	3.75	-5.5	0.	122.09
3028	4.	-5.25	0.	119.97
3029	4.25	-5.5	0.	122.44
3030	-1.5	-2.25	0.	121.01
3031	-1.75	-2.	0.	122.12
3032	-1.5	-1.75	0.	122.28
3033	-7.5	0.25	0.	123.12
3034	-7.75	0.5	0.	124.92
3035	-0.25	5.5	0.	128.73
3036	1.1257e-006	5.75	0.	130.1
3037	0.25	6.	0.	130.23
3038	0.5	6.25	0.	129.58
3039	2.	-5.75	0.	131.42
3040	1.75	-6.	0.	131.34
3041	2.25	-6.	0.	129.65
3042	1.5	-6.25	0.	131.42
3043	1.25	-6.5	0.	131.49
3044	-7.5	-7.25	0.	128.05
3045	-7.5	-7.75	0.	128.18
3046	-7.75	-7.5	0.	128.04
3047	-7.25	-7.5	0.	128.23
3048	-7.5	-6.25	0.	128.15
3049	-7.75	-6.	0.	128.15
3050	-7.25	-6.	0.	127.81
3051	-3.75	-4.	0.	114.08
3052	-4.25	-4.	0.	115.2
3053	-4.	-3.75	0.	113.2
3054	-4.	-4.25	0.	114.74
3055	-5.5	-5.25	0.	121.57
3056	-5.25	-5.	0.	122.73
3057	-5.5	-4.75	0.	123.77
3058	-6.	-4.25	0.	126.54
3059	-5.75	-4.5	0.	125.14
3060	-0.5	4.75	0.	127.62
3061	-0.5	5.25	0.	127.8
3062	-0.75	5.	0.	126.65
3063	-0.5	3.75	0.	127.21
3064	-0.75	3.5	0.	127.17
3065	-3.75	5.5	0.	127.43
3066	-4.	5.25	0.	129.13
3067	-4.	5.75	0.	129.77
3068	-4.25	5.5	0.	129.89
3069	-2.25	5.5	0.	115.41
3070	-2.75	5.5	0.	117.56
3071	-2.5	5.25	0.	114.32
3072	-2.5	5.75	0.	115.39
3073	-4.5	3.75	0.	126.43
3074	-4.25	3.5	0.	126.09
3075	-4.25	5.	0.	129.29
3076	-4.5	4.75	0.	129.03
3077	-4.5	5.25	0.	130.05
3078	-0.5	2.25	0.	129.26
3079	-0.75	2.5	0.	128.85
3080	-5.25	5.5	0.	129.5
3081	-5.	5.75	0.	130.83
3082	-4.75	5.5	0.	130.4
3083	-6.5	5.75	0.	121.99
3084	-6.25	5.5	0.	124.22
3085	-4.25	7.5	0.	126.83
3086	-4.5	7.75	0.	125.76
3087	-4.75	7.5	0.	125.81
3088	-4.5	7.25	0.	126.96
3089	-4.5	6.25	0.	130.54
3090	-4.75	6.	0.	131.16
3091	-4.25	6.	0.	130.6
3092	-4.5	5.75	0.	130.72
3093	5.5	0.74958	0.	127.12
3094	5.75	0.49965	0.	127.92
3095	5.75	1.9998	0.	128.92
3096	5.5	1.7497	0.	128.5
3097	5.75	-7.	0.	123.86
3098	5.5	-6.75	0.	124.57
3099	6.	-6.75	0.	123.54
3100	6.25	-7.	0.	123.57
3101	5.75	2.9999	0.	128.11
3102	5.5	3.2499	0.	127.78
3103	7.25	2.5	0.	118.07
3104	7.5	2.25	0.	115.76
3105	7.75	2.5	0.	115.93
3106	7.5	2.75	0.	115.35
3107	6.25	2.4999	0.	126.76
3108	6.	2.7499	0.	128.13
3109	6.	2.2498	0.	128.67
3110	6.25	6.5	0.	125.17
3111	6.	6.25	0.	126.38
3112	0.75	7.5	0.	126.01
3113	0.5	7.25	0.	127.36
3114	0.5	7.75	0.	126.04
3115	0.25	7.5	0.	127.72
3116	1.25	7.5	0.	125.15
3117	1.	7.75	0.	124.92
3118	1.75	7.5	0.	124.86
3119	1.5	7.75	0.	124.59
3120	2.25	7.5	0.	124.84
3121	2.	7.75	0.	124.61
3122	2.	7.25	0.	125.15
3123	2.75	7.5	0.	124.95
3124	2.5	7.75	0.	124.77
3125	3.25	7.5	0.	125.11
3126	3.	7.75	0.	124.97
3127	3.	7.25	0.	125.18
3128	3.75	7.5	0.	125.27
3129	3.5	7.75	0.	125.16
3130	4.25	7.5	0.	125.41
3131	4.	7.75	0.	125.31
3132	4.75	7.5	0.	125.47
3133	4.5	7.75	0.	125.4
3134	5.25	7.5	0.	125.4
3135	5.	7.75	0.	125.4
3136	5.75	7.5	0.	125.13
3137	5.5	7.75	0.	125.25
3138	6.	7.75	0.	124.91
3139	6.25	7.5	0.	124.61
3140	7.25	7.5	0.	123.51
3141	7.	7.75	0.	123.88
3142	6.75	7.5	0.	123.98
3143	7.5	7.25	0.	122.94
3144	7.5	7.75	0.	123.67
3145	7.75	7.5	0.	123.52
3146	7.5	6.75	0.	121.8
3147	7.75	7.	0.	122.79
3148	7.25	6.5	0.	121.69
3149	7.5	6.25	0.	119.72
3150	7.75	6.5	0.	121.7
3151	5.5	4.75	0.	125.73
3152	5.75	4.5	0.	125.43
3153	5.5	4.25	0.	125.96
3154	5.75	6.	0.	126.73
3155	5.5	5.75	0.	126.51
3156	1.5	-3.75	0.	131.31
3157	1.75	-3.5	0.	131.73
3158	3.25	-5.5	0.	124.55
3159	3.5	-5.25	0.	121.77
3160	1.75	-5.5	0.	132.78
3161	2.	-5.25	0.	133.05
3162	2.25	-5.5	0.	131.09
3163	2.25	-0.50017	0.	129.44
3164	2.	-0.7501	0.	131.22
3165	3.25	-0.50051	0.	123.5
3166	3.5	-0.75052	0.	121.02
3167	1.5	-2.25	0.	130.79
3168	1.75	-2.5	0.	131.46
3169	1.75	-1.0001	0.	131.73
3170	1.5	-1.25	0.	131.43
3171	-1.25	-2.5	0.	121.21
3172	-1.75	-2.5	0.	121.31
3173	-1.5	-2.75	0.	119.56
3174	-1.9805e-007	-2.75	0.	127.59
3175	-0.25	-2.5	0.	125.97
3176	-0.5	0.25	0.	128.76
3177	-0.5	0.75	0.	129.33
3178	-0.75	0.5	0.	128.55
3179	-0.5	-0.75	0.	127.93
3180	-0.75	-1.	0.	127.2
3181	3.75	-1.0005	0.	119.13
3182	4.2501	-1.0006	0.	119.07
3183	4.	-1.2505	0.	117.72
3184	-0.5	-0.25	0.	128.52
3185	-0.75	-0.5	0.	128.67
3186	-0.75	-1.8058e-007	0.	128.76
3187	-1.	-2.75	0.	121.77
3188	-0.75	-2.5	0.	123.42
3189	1.75	-2.	0.	132.1
3190	1.5	-1.75	0.	131.3
3191	2.75	-0.50031	0.	126.95
3192	3.	-0.75033	0.	125.69
3193	2.5	-0.7502	0.	129.89
3194	3.	-5.25	0.	126.57
3195	2.75	-5.5	0.	128.16
3196	1.5	-4.25	0.	132.42
3197	1.75	-4.	0.	132.77
3198	1.75	-4.5	0.	133.83
3199	1.5	-4.75	0.	133.38
3200	5.75	5.	0.	126.2
3201	5.5	5.25	0.	126.16
3202	6.75	6.5	0.	123.41
3203	7.	6.25	0.	121.84
3204	6.5	6.25	0.	125.17
3205	6.25	-6.5	0.	123.36
3206	6.	-6.25	0.	123.49
3207	5.75	-6.5	0.	124.25
3208	5.75	0.99968	0.	128.57
3209	5.5	1.2496	0.	127.92
3210	6.75	2.4999	0.	122.78
3211	7.	2.75	0.	119.76
3212	7.	2.25	0.	120.81
3213	6.5	2.2499	0.	126.36
3214	6.5	2.7499	0.	125.53
3215	-5.5	5.75	0.	129.57
3216	-5.75	5.5	0.	127.24
3217	-0.5	1.25	0.	130.09
3218	-0.75	1.	0.	130.12
3219	-0.5	1.75	0.	130.14
3220	-0.75	1.5	0.	131.29
3221	-0.75	2.	0.	130.43
3222	-4.25	4.	0.	127.28
3223	-4.5	4.25	0.	127.73
3224	-2.	5.25	0.	115.8
3225	-1.75	5.5	0.	117.38
3226	-0.5	4.25	0.	127.4
3227	-0.75	4.	0.	127.17
3228	-0.75	4.5	0.	127.23
3229	-5.	-4.75	0.	122.52
3230	-5.	-4.25	0.	122.71
3231	-5.25	-4.5	0.	123.56
3232	-4.75	-4.5	0.	120.64
3233	-7.5	-6.75	0.	128.17
3234	-7.25	-6.5	0.	128.4
3235	-7.75	-6.5	0.	128.29
3236	-7.75	-7.	0.	128.1
3237	-7.25	-7.	0.	128.31
3238	1.5	-5.75	0.	132.7
3239	1.25	-6.	0.	132.84
3240	1.25	-5.5	0.	133.87
3241	1.5	-5.25	0.	133.53
3242	-3.25	5.5	0.	122.67
3243	-3.5	5.75	0.	126.57
3244	-3.5	5.25	0.	125.57
3245	-3.	5.75	0.	120.53
3246	-3.	5.25	0.	118.95
3247	-4.25	6.5	0.	130.32
3248	-4.75	6.5	0.	130.58
3249	-4.5	6.75	0.	129.
3250	0.25	7.	0.	129.21
3251	0.5	6.75	0.	128.74
3252	-0.75	5.5	0.	126.1
3253	-1.	5.25	0.	124.94
3254	-1.	5.75	0.	124.03
3255	-1.25	5.5	0.	121.77
3256	-0.5	5.75	0.	128.67
3257	-7.75	3.816e-012	0.	124.68
3258	-7.5	-0.25	0.	121.2
3259	-2.	-2.25	0.	122.42
3260	-2.	-1.75	0.	122.36
3261	-2.25	-2.	0.	125.74
3262	3.75	-5.	0.	119.59
3263	4.25	-5.	0.	119.85
3264	4.	-4.75	0.	117.69
3265	-7.25	-3.	0.	121.46
3266	-6.75	-3.	0.	121.96
3267	-7.	-2.75	0.	120.33
3268	3.25	-1.0003	0.	123.22
3269	3.5	-1.2503	0.	118.83
3270	2.	-3.75	0.	133.18
3271	2.25	-3.5	0.	135.13
3272	5.25	-0.50052	0.	126.25
3273	5.0001	-0.75053	0.	125.21
3274	5.75	-0.50032	0.	129.2
3275	5.5	-0.75035	0.	129.4
3276	6.	-0.75021	0.	131.49
3277	6.25	-0.50017	0.	132.91
3278	7.75	2.	0.	114.82
3279	7.5	1.75	0.	114.47
3280	7.25	2.	0.	118.52
3281	-6.25	6.	0.	123.73
3282	-6.5	6.25	0.	119.82
3283	-4.	2.25	0.	126.33
3284	-3.75	2.5	0.	127.08
3285	-1.	3.75	0.	127.12
3286	-1.25	3.5	0.	128.44
3287	1.	-6.25	0.	132.91
3288	0.75	-6.5	0.	133.97
3289	-3.75	7.5	0.	130.19
3290	-4.	7.25	0.	128.36
3291	-4.	7.75	0.	127.61
3292	-1.5	6.25	0.	115.8
3293	-1.25	6.	0.	120.55
3294	-1.5	5.75	0.	118.29
3295	6.5	-6.75	0.	123.39
3296	6.75	-7.	0.	124.55
3297	6.5	-6.25	0.	121.99
3298	6.75	-6.5	0.	124.56
3299	-5.75	0.5	0.	126.89
3300	-6.	0.25	0.	127.58
3301	-5.25	0.5	0.	126.2
3302	-5.5	0.25	0.	129.31
3303	-4.75	0.5	0.	123.34
3304	-5.	0.25	0.	125.84
3305	0.5	-3.75	0.	128.85
3306	0.25	-3.5	0.	128.94
3307	0.5	-4.25	0.	129.05
3308	0.25	-4.	0.	128.56
3309	-6.25	-5.5	0.	123.19
3310	-6.5	-5.75	0.	125.01
3311	-5.75	-5.5	0.	121.04
3312	-6.	-5.75	0.	120.74
3313	-5.5	-5.75	0.	118.13
3314	-5.25	-5.5	0.	121.29
3315	0.25	-4.5	0.	127.87
3316	0.5	-4.75	0.	130.27
3317	-2.	-2.75	0.	122.39
3318	-2.25	-2.5	0.	125.31
3319	8.	2.25	0.	115.
3320	8.25	2.	0.	115.87
3321	8.	1.75	0.	113.94
3322	8.	2.75	0.	116.56
3323	8.25	2.5	0.	117.87
3324	-4.75	8.	0.	125.86
3325	-4.5	8.25	0.	125.54
3326	-4.25	8.	0.	126.54
3327	-7.75	-3.	0.	124.44
3328	-7.5	-2.75	0.	120.7
3329	-7.25	-8.	0.	128.83
3330	-7.	-7.75	0.	128.88
3331	-7.	-8.25	0.	129.33
3332	-6.75	-8.	0.	131.41
3333	-7.75	-8.	0.	128.31
3334	-7.5	-8.25	0.	128.67
3335	-8.	-7.75	0.	128.17
3336	-8.25	-8.	0.	128.4
3337	-8.	-8.25	0.	128.6
3338	-8.	-7.25	0.	128.09
3339	-8.25	-7.5	0.	128.18
3340	-8.25	-7.	0.	128.25
3341	-8.	-6.75	0.	128.22
3342	-8.	-5.75	0.	128.14
3343	-8.25	-6.	0.	128.42
3344	-8.	-6.25	0.	128.29
3345	-8.	-5.25	0.	127.82
3346	-8.25	-5.5	0.	128.26
3347	-8.	-4.75	0.	127.41
3348	-8.25	-5.	0.	128.
3349	-8.	-4.25	0.	126.99
3350	-8.25	-4.5	0.	127.73
3351	-8.	-3.75	0.	126.66
3352	-8.25	-4.	0.	127.58
3353	-8.	-3.25	0.	126.61
3354	-8.25	-3.5	0.	127.76
3355	-7.75	6.	0.	122.87
3356	-7.5	6.25	0.	119.48
3357	-8.	0.75	0.	125.99
3358	-8.	0.25	0.	126.48
3359	-8.25	0.5	0.	127.34
3360	-8.	1.25	0.	125.72
3361	-8.25	1.	0.	126.64
3362	-8.	1.75	0.	125.57
3363	-8.25	1.5	0.	126.27
3364	-8.	2.25	0.	125.45
3365	-8.25	2.	0.	126.04
3366	-8.	2.75	0.	125.31
3367	-8.25	2.5	0.	125.87
3368	-8.	3.25	0.	125.14
3369	-8.25	3.	0.	125.7
3370	-7.75	3.	0.	124.88
3371	-8.	3.75	0.	124.95
3372	-8.25	3.5	0.	125.52
3373	-7.75	3.5	0.	124.7
3374	-8.	4.25	0.	124.73
3375	-8.25	4.	0.	125.35
3376	-8.25	4.5	0.	125.23
3377	-8.	4.75	0.	124.53
3378	-8.	5.75	0.	124.77
3379	-8.25	5.5	0.	125.71
3380	-8.	5.25	0.	124.49
3381	1.	-7.75	0.	131.11
3382	0.75	-7.5	0.	132.77
3383	6.25	-8.	0.	124.55
3384	6.5	-8.25	0.	125.24
3385	6.75	-8.	0.	125.44
3386	5.75	-8.	0.	124.42
3387	6.	-8.25	0.	124.77
3388	5.25	-8.	0.	124.64
3389	5.5	-8.25	0.	124.77
3390	4.75	-8.	0.	125.
3391	5.	-8.25	0.	125.02
3392	4.25	-8.	0.	125.46
3393	4.5	-8.25	0.	125.42
3394	3.75	-8.	0.	126.04
3395	4.	-8.25	0.	125.94
3396	4.	-7.75	0.	125.51
3397	3.25	-8.	0.	126.76
3398	3.5	-8.25	0.	126.6
3399	2.75	-8.	0.	127.6
3400	3.	-8.25	0.	127.39
3401	2.25	-8.	0.	128.52
3402	2.5	-8.25	0.	128.27
3403	1.75	-8.	0.	129.47
3404	2.	-8.25	0.	129.2
3405	1.25	-8.	0.	130.6
3406	1.5	-8.25	0.	130.14
3407	7.25	6.	0.	119.84
3408	7.75	6.	0.	119.86
3409	7.5	5.75	0.	114.97
3410	0.25	8.	0.	126.92
3411	5.5935e-009	7.75	0.	128.59
3412	-0.25	8.	0.	132.03
3413	1.162e-009	8.25	0.	127.69
3414	0.75	8.	0.	124.95
3415	0.5	8.25	0.	125.17
3416	1.25	8.	0.	124.36
3417	1.	8.25	0.	124.31
3418	1.75	8.	0.	124.35
3419	1.5	8.25	0.	124.26
3420	2.25	8.	0.	124.55
3421	2.	8.25	0.	124.47
3422	2.75	8.	0.	124.79
3423	2.5	8.25	0.	124.74
3424	3.25	8.	0.	125.01
3425	3.	8.25	0.	124.98
3426	3.75	8.	0.	125.19
3427	3.5	8.25	0.	125.16
3428	4.25	8.	0.	125.31
3429	4.	8.25	0.	125.29
3430	4.75	8.	0.	125.34
3431	4.5	8.25	0.	125.34
3432	5.25	8.	0.	125.26
3433	5.	8.25	0.	125.31
3434	5.75	8.	0.	125.03
3435	5.5	8.25	0.	125.17
3436	6.25	8.	0.	124.68
3437	6.	8.25	0.	124.91
3438	6.75	8.	0.	124.29
3439	6.5	8.25	0.	124.58
3440	6.5	7.75	0.	124.39
3441	7.25	8.	0.	124.03
3442	7.	8.25	0.	124.28
3443	7.5	8.25	0.	124.16
3444	7.75	8.	0.	124.04
3445	8.	7.25	0.	123.37
3446	8.25	7.5	0.	124.01
3447	8.	7.75	0.	123.89
3448	8.	6.75	0.	122.69
3449	8.25	7.	0.	123.68
3450	8.	6.25	0.	121.85
3451	8.25	6.5	0.	123.44
3452	-1.75	-1.5	0.	122.52
3453	-1.5	-1.25	0.	124.31
3454	-4.5	1.75	0.	125.38
3455	-4.25	2.	0.	126.13
3456	-4.5	1.25	0.	124.48
3457	-4.25	1.5	0.	126.09
3458	-4.5	0.75	0.	122.62
3459	-4.25	1.	0.	123.77
3460	-4.25	0.5	0.	120.32
3461	-4.5	0.25	0.	120.58
3462	-3.5	-4.25	0.	115.13
3463	-3.25	-4.	0.	117.64
3464	-3.5	-3.75	0.	113.51
3465	-3.5	-4.75	0.	116.06
3466	-3.25	-4.5	0.	116.85
3467	-3.75	-4.5	0.	115.77
3468	4.5	-5.25	0.	122.37
3469	4.75	-5.5	0.	125.68
3470	-2.75	-8.	0.	118.39
3471	-3.	-8.25	0.	118.68
3472	-3.25	-8.	0.	118.18
3473	-3.	-7.75	0.	116.93
3474	-1.	0.75	0.	129.34
3475	-1.	0.25	0.	128.54
3476	-1.25	0.5	0.	128.85
3477	-1.25	-1.	0.	126.3
3478	-1.	-0.75	0.	127.95
3479	-1.25	-3.	0.	120.1
3480	-1.75	-3.	0.	120.62
3481	-1.5	-3.25	0.	115.87
3482	-1.2182e-007	-3.25	0.	128.55
3483	-0.25	-3.	0.	127.24
3484	2.	-2.25	0.	132.76
3485	2.25	-2.5	0.	134.9
3486	2.	-1.2501	0.	132.81
3487	2.25	-1.0001	0.	131.65
3488	4.7501	-1.0005	0.	123.05
3489	4.5	-1.2504	0.	119.05
3490	3.25	-5.	0.	123.78
3491	3.5	-4.75	0.	118.91
3492	2.	-4.75	0.	134.24
3493	2.25	-5.	0.	133.07
3494	1.75	-5.	0.	133.79
3495	6.	4.25	0.	126.03
3496	6.	4.75	0.	125.9
3497	6.25	4.5	0.	126.7
3498	6.25	6.	0.	126.37
3499	6.	5.75	0.	127.21
3500	7.25	3.	0.	117.05
3501	7.75	3.	0.	115.98
3502	7.5	3.25	0.	112.15
3503	6.	3.2499	0.	128.09
3504	6.25	2.9999	0.	126.9
3505	-4.75	-5.	0.	122.21
3506	-5.	-5.25	0.	122.45
3507	6.25	-6.	0.	122.1
3508	6.75	-6.	0.	122.68
3509	6.5	-5.75	0.	117.13
3510	5.	-5.75	0.	127.28
3511	5.25	-6.	0.	126.92
3512	5.	-6.25	0.	125.98
3513	6.	0.74975	0.	129.37
3514	6.25	0.49981	0.	131.6
3515	6.25	1.9999	0.	128.26
3516	6.	1.7498	0.	129.62
3517	-5.	7.25	0.	126.99
3518	-5.	7.75	0.	125.92
3519	-5.25	7.5	0.	127.69
3520	-5.25	6.	0.	130.89
3521	-5.	6.25	0.	131.18
3522	-4.	3.75	0.	126.94
3523	-3.75	3.5	0.	127.56
3524	-3.75	5.	0.	127.28
3525	-4.	4.75	0.	128.86
3526	-2.25	5.	0.	114.7
3527	-2.5	4.75	0.	109.82
3528	-2.75	5.	0.	115.69
3529	-1.	4.75	0.	126.27
3530	-1.25	5.	0.	123.83
3531	7.	-7.25	0.	124.99
3532	7.	-7.75	0.	125.31
3533	7.25	-7.5	0.	126.74
3534	8.	-2.25	0.	120.15
3535	8.25	-2.	0.	119.25
3536	8.	-1.75	0.	117.44
3537	7.75	-2.	0.	119.22
3538	-4.75	-4.	0.	119.99
3539	-4.5	-3.75	0.	115.52
3540	-4.5	-4.25	0.	117.92
3541	-6.	-3.75	0.	128.23
3542	-5.75	-4.	0.	127.52
3543	-6.25	3.7922e-012	0.	126.15
3544	-6.5	-0.25	0.	122.37
3545	-6.75	-7.5	0.	130.06
3546	-7.	-7.25	0.	128.49
3547	-6.75	-6.	0.	126.52
3548	-7.	-6.25	0.	128.06
3549	1.	-5.25	0.	133.83
3550	0.75	-5.	0.	132.26
3551	1.25	-5.	0.	133.49
3552	-2.75	6.	0.	118.37
3553	-2.5	6.25	0.	114.32
3554	-4.	6.25	0.	130.37
3555	-3.75	6.	0.	128.9
3556	1.9099e-008	7.25	0.	129.56
3557	-0.25	7.5	0.	131.36
3558	-0.25	6.	0.	130.03
3559	6.8568e-007	6.25	0.	130.99
3560	-0.5	6.25	0.	131.27
3561	-0.75	6.	0.	126.61
3562	-0.25	7.	0.	131.49
3563	2.4937e-007	6.75	0.	130.81
3564	-3.75	6.5	0.	130.97
3565	-4.	6.75	0.	129.81
3566	-3.25	6.	0.	124.42
3567	-3.5	6.25	0.	129.52
3568	-3.	6.25	0.	122.48
3569	1.	-5.75	0.	134.
3570	0.75	-6.	0.	134.26
3571	0.75	-5.5	0.	135.04
3572	-6.25	-6.	0.	122.57
3573	-5.75	-6.	0.	117.79
3574	-6.	-6.25	0.	119.76
3575	-6.5	-6.25	0.	127.18
3576	-6.75	-6.5	0.	128.7
3577	-7.	-6.75	0.	128.53
3578	-5.25	1.391e-012	0.	128.94
3579	-4.75	-4.8028e-012	0.	123.12
3580	-5.	-0.25	0.	127.91
3581	-5.75	3.7986e-012	0.	129.96
3582	-5.5	-0.25	0.	135.33
3583	-6.	-0.25	0.	130.
3584	-5.	-3.75	0.	124.36
3585	-5.25	-4.	0.	125.28
3586	7.25	-7.	0.	127.26
3587	7.	-6.75	0.	125.72
3588	-1.	4.25	0.	127.01
3589	-1.25	4.	0.	126.86
3590	-1.25	4.5	0.	126.73
3591	-1.75	5.	0.	119.09
3592	-1.5	4.75	0.	124.33
3593	-1.5	5.25	0.	120.68
3594	-2.	4.75	0.	117.03
3595	-3.5	4.75	0.	126.97
3596	-3.25	5.	0.	121.86
3597	-3.75	4.	0.	127.53
3598	-4.	4.25	0.	128.15
3599	-4.	1.75	0.	126.84
3600	-3.75	2.	0.	126.7
3601	-4.	1.25	0.	125.39
3602	-3.75	1.5	0.	128.31
3603	-4.	0.75	0.	121.5
3604	-3.75	1.	0.	124.7
3605	-1.	1.75	0.	131.58
3606	-1.25	2.	0.	130.8
3607	-1.	2.25	0.	130.02
3608	-1.	1.25	0.	131.32
3609	-1.25	1.	0.	130.44
3610	-1.25	1.5	0.	133.16
3611	-5.75	6.	0.	128.28
3612	-6.	6.25	0.	126.76
3613	-6.	5.75	0.	125.95
3614	-5.5	6.25	0.	131.87
3615	-5.	6.75	0.	129.71
3616	-5.25	6.5	0.	132.15
3617	-5.25	7.	0.	129.61
3618	-4.75	7.	0.	128.15
3619	6.5	1.7499	0.	129.54
3620	6.75	1.9999	0.	124.39
3621	6.25	0.99982	0.	130.64
3622	6.	1.2498	0.	129.86
3623	5.75	-1.0002	0.	131.7
3624	6.	-1.2502	0.	132.91
3625	6.25	-1.0001	0.	132.7
3626	8.25	-2.5	0.	121.99
3627	7.75	-2.5	0.	123.44
3628	8.	-2.75	0.	122.85
3629	6.75	-2.	0.	122.71
3630	7.	-2.25	0.	121.58
3631	7.	-1.75	0.	123.49
3632	7.25	-2.	0.	120.88
3633	6.	-5.75	0.	124.3
3634	5.75	-6.	0.	125.32
3635	7.	-5.75	0.	124.49
3636	7.	-6.25	0.	125.27
3637	7.25	-6.	0.	126.68
3638	8.25	-5.	0.	126.43
3639	7.75	-5.	0.	128.76
3640	8.	-5.25	0.	127.3
3641	8.	-4.75	0.	127.16
3642	-4.25	-5.	0.	120.27
3643	-3.75	-5.	0.	117.65
3644	-4.	-5.25	0.	120.63
3645	-4.	-4.75	0.	117.37
3646	-4.5	-5.25	0.	124.2
3647	-4.5	-4.75	0.	120.36
3648	6.	3.7499	0.	127.45
3649	6.25	4.	0.	127.55
3650	5.75	4.	0.	126.56
3651	6.25	3.4999	0.	128.48
3652	5.75	3.4999	0.	127.76
3653	6.75	3.	0.	122.53
3654	6.5	3.2499	0.	127.29
3655	7.	3.25	0.	119.8
3656	6.75	6.	0.	123.6
3657	7.	5.75	0.	121.69
3658	6.5	5.75	0.	127.55
3659	6.25	5.	0.	127.42
3660	6.	5.25	0.	127.03
3661	2.	-4.25	0.	134.17
3662	2.25	-4.	0.	134.57
3663	2.25	-4.5	0.	135.48
3664	3.	-4.75	0.	127.72
3665	2.75	-5.	0.	129.53
3666	5.2501	-1.0004	0.	128.37
3667	5.5001	-1.2503	0.	133.61
3668	5.0001	-1.2503	0.	127.44
3669	3.	-1.2502	0.	127.23
3670	2.75	-1.0002	0.	128.63
3671	2.25	-2.	0.	134.13
3672	2.	-1.75	0.	133.3
3673	-6.2806e-008	-3.75	0.	128.64
3674	-2.7621e-008	-4.25	0.	127.37
3675	-0.25	-4.	0.	128.97
3676	-0.25	-3.5	0.	129.63
3677	-0.75	-3.	0.	123.98
3678	-0.5	-3.25	0.	128.32
3679	-0.5	-2.75	0.	125.62
3680	-1.	-3.25	0.	122.26
3681	-1.25	-4.2307e-008	0.	129.5
3682	-1.	-0.25	0.	128.91
3683	-2.5	-8.25	0.	120.57
3684	-2.25	-8.	0.	122.33
3685	-2.5	-7.75	0.	117.89
3686	-6.25	-3.	0.	126.14
3687	-6.5	-2.75	0.	121.46
3688	-6.5	-3.25	0.	124.14
3689	4.75	-5.	0.	124.77
3690	4.5	-4.75	0.	119.39
3691	6.25	-2.0001	0.	127.02
3692	6.5	-1.7501	0.	128.03
3693	6.5	-2.25	0.	118.47
3694	-4.	0.25	0.	117.83
3695	-3.75	0.5	0.	120.49
3696	-2.	-1.25	0.	122.13
3697	-2.25	-1.5	0.	124.05
3698	8.25	6.	0.	123.68
3699	8.	5.75	0.	121.7
3700	1.	-8.25	0.	131.25
3701	0.75	-8.	0.	131.63
3702	-8.25	6.	0.	126.91
3703	-8.	6.25	0.	125.78
3704	-8.25	-3.	0.	128.7
3705	-8.	-2.75	0.	127.34
3706	-5.	8.25	0.	126.65
3707	-5.25	8.	0.	127.89
3708	-4.75	8.5	0.	126.35
3709	-5.25	8.5	0.	128.81
3710	-5.	8.75	0.	126.95
3711	-4.25	8.5	0.	126.19
3712	-4.5	8.75	0.	125.73
3713	-4.	8.75	0.	126.8
3714	-3.75	8.5	0.	130.09
3715	-4.	8.25	0.	127.19
3716	-8.25	3.3495e-012	0.	128.71
3717	-8.	-0.25	0.	127.6
3718	-8.5	-7.75	0.	128.41
3719	-8.5	-8.25	0.	128.73
3720	-8.75	-8.	0.	128.61
3721	-8.5	-7.25	0.	128.34
3722	-8.75	-7.5	0.	128.45
3723	-8.5	-6.75	0.	128.43
3724	-8.75	-7.	0.	128.49
3725	-8.5	-6.25	0.	128.53
3726	-8.75	-6.5	0.	128.63
3727	-8.25	-6.5	0.	128.4
3728	-8.5	-5.75	0.	128.53
3729	-8.75	-6.	0.	128.73
3730	-8.5	-5.25	0.	128.43
3731	-8.75	-5.5	0.	128.75
3732	-8.5	-4.75	0.	128.31
3733	-8.75	-5.	0.	128.72
3734	-8.5	-4.25	0.	128.32
3735	-8.75	-4.5	0.	128.72
3736	-8.5	-3.75	0.	128.67
3737	-8.75	-4.	0.	128.92
3738	-8.5	-3.25	0.	129.84
3739	-8.75	-3.5	0.	129.54
3740	-8.5	-2.75	0.	132.59
3741	-8.75	-3.	0.	130.96
3742	-8.5	-0.25	0.	132.58
3743	-8.75	2.4646e-012	0.	130.8
3744	-8.5	0.25	0.	129.57
3745	-8.75	1.	0.	128.07
3746	-8.5	0.75	0.	128.
3747	-8.5	1.25	0.	127.19
3748	-8.5	2.25	0.	126.46
3749	-8.75	2.	0.	127.12
3750	-8.5	1.75	0.	126.74
3751	-8.5	2.75	0.	126.25
3752	-8.75	2.5	0.	126.87
3753	-8.5	3.25	0.	126.08
3754	-8.75	3.	0.	126.66
3755	-8.75	3.5	0.	126.51
3756	-8.5	3.75	0.	125.93
3757	-8.5	4.75	0.	125.98
3758	-8.75	4.5	0.	126.42
3759	-8.5	4.25	0.	125.86
3760	-8.5	5.25	0.	126.5
3761	-8.75	5.	0.	126.69
3762	-8.25	5.	0.	125.28
3763	-8.5	5.75	0.	127.85
3764	-8.75	5.5	0.	127.43
3765	-8.5	6.25	0.	130.76
3766	-8.75	6.	0.	128.96
3767	-7.25	-8.5	0.	129.17
3768	-7.	-8.75	0.	129.84
3769	-6.75	-8.5	0.	130.58
3770	-7.75	-8.5	0.	128.96
3771	-7.5	-8.75	0.	129.52
3772	-8.25	-8.5	0.	128.93
3773	-8.	-8.75	0.	129.35
3774	-8.5	-8.75	0.	129.25
3775	-8.75	-8.5	0.	128.98
3776	6.25	-8.5	0.	125.46
3777	6.75	-8.5	0.	126.46
3778	6.5	-8.75	0.	125.93
3779	5.75	-8.5	0.	125.12
3780	6.	-8.75	0.	125.44
3781	5.25	-8.5	0.	125.16
3782	5.5	-8.75	0.	125.33
3783	4.75	-8.5	0.	125.44
3784	5.	-8.75	0.	125.48
3785	4.25	-8.5	0.	125.9
3786	4.5	-8.75	0.	125.84
3787	3.75	-8.5	0.	126.5
3788	4.	-8.75	0.	126.36
3789	3.25	-8.5	0.	127.23
3790	3.5	-8.75	0.	127.04
3791	2.75	-8.5	0.	128.06
3792	3.	-8.75	0.	127.83
3793	2.25	-8.5	0.	128.95
3794	2.5	-8.75	0.	128.68
3795	1.75	-8.5	0.	129.86
3796	2.	-8.75	0.	129.52
3797	1.25	-8.5	0.	130.79
3798	1.5	-8.75	0.	130.23
3799	1.	-8.75	0.	130.69
3800	0.75	-8.5	0.	131.66
3801	-2.25	-8.5	0.	123.39
3802	-2.	-8.75	0.	124.75
3803	-2.	-8.25	0.	125.14
3804	-1.75	-8.5	0.	126.93
3805	-2.75	-8.5	0.	120.83
3806	-2.5	-8.75	0.	122.29
3807	-3.25	-8.5	0.	120.66
3808	-3.	-8.75	0.	121.24
3809	-3.75	-8.5	0.	122.89
3810	-3.5	-8.25	0.	120.19
3811	-3.5	-8.75	0.	122.32
3812	-4.	-8.25	0.	124.67
3813	-4.	-8.75	0.	125.04
3814	-4.25	-8.5	0.	127.21
3815	7.	-8.25	0.	126.65
3816	7.25	-8.	0.	127.57
3817	7.25	-8.5	0.	128.26
3818	7.	-8.75	0.	126.85
3819	8.5	-2.25	0.	121.16
3820	8.75	-2.	0.	122.86
3821	8.5	-1.75	0.	118.43
3822	8.5	-2.75	0.	122.74
3823	8.75	-2.5	0.	123.6
3824	8.5	-3.25	0.	123.77
3825	8.75	-3.	0.	124.09
3826	8.25	-3.	0.	123.57
3827	8.5	-3.75	0.	124.56
3828	8.75	-3.5	0.	124.51
3829	8.25	-3.5	0.	124.61
3830	8.5	-4.25	0.	125.15
3831	8.75	-4.	0.	124.92
3832	8.25	-4.	0.	125.81
3833	8.5	-4.75	0.	125.4
3834	8.75	-4.5	0.	125.27
3835	8.25	-4.5	0.	126.13
3836	8.5	-5.25	0.	125.
3837	8.75	-5.	0.	125.36
3838	8.5	-5.75	0.	123.16
3839	8.75	-5.5	0.	124.77
3840	8.25	-5.5	0.	125.87
3841	8.75	-6.	0.	122.9
3842	8.5	-6.25	0.	118.18
3843	8.25	-6.	0.	123.55
3844	-6.	-3.25	0.	129.01
3845	-5.75	-3.5	0.	130.86
3846	-6.25	-3.5	0.	127.03
3847	8.25	3.	0.	119.97
3848	8.	3.25	0.	118.28
3849	8.5	7.75	0.	124.44
3850	8.5	8.25	0.	124.61
3851	8.75	8.	0.	124.77
3852	8.25	8.	0.	124.32
3853	8.5	7.25	0.	124.32
3854	8.75	7.5	0.	124.73
3855	8.5	6.75	0.	124.42
3856	8.75	7.	0.	124.82
3857	8.5	6.25	0.	125.26
3858	8.75	6.5	0.	125.27
3859	8.5	5.75	0.	127.78
3860	8.75	6.	0.	126.56
3861	8.5	2.75	0.	121.3
3862	8.5	3.25	0.	125.22
3863	8.75	3.	0.	124.73
3864	8.5	2.25	0.	118.77
3865	8.75	2.5	0.	122.59
3866	8.5	1.75	0.	116.28
3867	8.75	2.	0.	121.39
3868	0.75	8.5	0.	124.53
3869	0.5	8.75	0.	124.98
3870	0.25	8.5	0.	125.94
3871	1.25	8.5	0.	124.21
3872	1.	8.75	0.	124.51
3873	1.75	8.5	0.	124.39
3874	1.5	8.75	0.	124.6
3875	2.25	8.5	0.	124.67
3876	2.	8.75	0.	124.83
3877	2.75	8.5	0.	124.93
3878	2.5	8.75	0.	125.06
3879	3.25	8.5	0.	125.12
3880	3.	8.75	0.	125.23
3881	3.75	8.5	0.	125.26
3882	3.5	8.75	0.	125.33
3883	4.25	8.5	0.	125.32
3884	4.	8.75	0.	125.39
3885	4.75	8.5	0.	125.32
3886	4.5	8.75	0.	125.38
3887	5.25	8.5	0.	125.22
3888	5.	8.75	0.	125.31
3889	5.75	8.5	0.	125.05
3890	5.5	8.75	0.	125.18
3891	6.25	8.5	0.	124.81
3892	6.	8.75	0.	124.99
3893	6.75	8.5	0.	124.57
3894	6.5	8.75	0.	124.77
3895	7.25	8.5	0.	124.42
3896	7.	8.75	0.	124.59
3897	7.75	8.5	0.	124.41
3898	7.5	8.75	0.	124.51
3899	8.25	8.5	0.	124.57
3900	8.	8.75	0.	124.57
3901	8.	8.25	0.	124.29
3902	8.75	8.5	0.	124.84
3903	8.5	8.75	0.	124.75
3904	5.	-5.25	0.	128.07
3905	5.25	-5.5	0.	130.13
3906	5.75	-1.5002	0.	134.83
3907	6.	-1.7501	0.	131.79
3908	6.25	-1.5001	0.	132.69
3909	-3.25	-5.	0.	117.45
3910	-3.5	-5.25	0.	116.32
3911	-2.	-3.25	0.	123.56
3912	-2.25	-3.	0.	125.43
3913	-2.75	-4.	0.	124.31
3914	-3.	-3.75	0.	122.13
3915	-3.	-4.25	0.	119.35
3916	-4.25	-2.8795e-011	0.	118.06
3917	-4.5	-0.25	0.	117.83
3918	-1.5	-0.75	0.	128.05
3919	-1.75	-1.	0.	123.94
3920	-1.33e-008	-4.75	0.	126.58
3921	-0.25	-4.5	0.	127.7
3922	0.25	-5.	0.	129.
3923	0.5	-5.25	0.	133.49
3924	-5.25	-6.	0.	117.88
3925	-5.5	-6.25	0.	111.85
3926	-5.	-5.75	0.	121.07
3927	-4.75	-5.5	0.	124.42
3928	-3.75	-8.	0.	121.96
3929	-3.5	-7.75	0.	117.62
3930	-4.25	-8.	0.	129.09
3931	-4.	-7.75	0.	125.18
3932	-4.75	-6.	0.	123.71
3933	-5.	-6.25	0.	119.2
3934	-6.019e-009	-5.25	0.	127.05
3935	-0.25	-5.	0.	126.15
3936	-1.5	-0.25	0.	130.25
3937	-1.75	-0.5	0.	126.91
3938	-1.25	-0.5	0.	129.69
3939	-2.	-0.75	0.	122.8
3940	-2.25	-1.	0.	121.56
3941	-3.75	-7.8841e-011	0.	117.65
3942	-4.	-0.25	0.	115.91
3943	-0.75	-3.5	0.	126.58
3944	-0.5	-3.75	0.	129.93
3945	-2.75	-5.	0.	121.59
3946	-3.	-5.25	0.	118.93
3947	-3.	-4.75	0.	118.24
3948	2.75	-1.5001	0.	131.94
3949	2.5	-1.7501	0.	135.32
3950	2.25	-1.5001	0.	134.53
3951	2.5	-1.2501	0.	133.4
3952	5.25	-1.5002	0.	132.61
3953	5.5	-1.7502	0.	136.76
3954	5.75	-2.0001	0.	133.77
3955	6.	-2.2501	0.	128.94
3956	5.	-4.75	0.	128.92
3957	5.25	-5.	0.	131.33
3958	2.75	-4.5	0.	132.46
3959	2.5	-4.25	0.	135.84
3960	2.5	-4.75	0.	134.33
3961	6.75	5.5	0.	125.61
3962	6.5	5.25	0.	128.74
3963	6.25	5.5	0.	128.38
3964	8.25	5.5	0.	125.78
3965	8.5	5.25	0.	129.15
3966	8.75	5.5	0.	128.77
3967	8.75	3.5	0.	127.71
3968	8.5	3.75	0.	127.84
3969	8.25	3.5	0.	123.46
3970	6.75	3.5	0.	124.55
3971	6.5	3.75	0.	128.54
3972	-4.5	-5.75	0.	127.
3973	-4.25	-5.5	0.	124.45
3974	7.25	-5.5	0.	127.69
3975	7.5	-5.25	0.	130.51
3976	7.75	-5.5	0.	129.11
3977	7.5	-5.75	0.	129.89
3978	5.75	-5.5	0.	128.72
3979	5.5	-5.25	0.	133.35
3980	5.5	-5.75	0.	129.79
3981	7.25	-2.5	0.	123.25
3982	7.5	-2.75	0.	125.41
3983	7.5	-2.25	0.	122.63
3984	6.5	-1.2501	0.	132.47
3985	6.75	-1.5	0.	128.62
3986	6.5	1.2499	0.	131.62
3987	6.75	1.4999	0.	127.8
3988	6.25	1.4998	0.	130.88
3989	9.	8.25	0.	125.01
3990	9.	8.75	0.	124.99
3991	9.25	8.5	0.	125.13
3992	9.	7.75	0.	125.06
3993	9.25	8.	0.	125.24
3994	9.25	7.5	0.	125.41
3995	9.	7.25	0.	125.23
3996	9.25	6.5	0.	126.24
3997	9.	6.75	0.	125.67
3998	9.	6.25	0.	126.57
3999	9.	4.75	0.	126.6
4000	8.75	5.	0.	128.02
4001	9.25	5.	0.	126.86
4002	9.	5.25	0.	127.61
4003	9.	4.25	0.	126.58
4004	8.75	4.5	0.	127.2
4005	9.25	4.5	0.	126.22
4006	9.	3.75	0.	127.5
4007	8.75	4.	0.	127.65
4008	9.25	4.	0.	127.25
4009	9.	3.25	0.	127.24
4010	9.25	3.5	0.	128.19
4011	9.25	3.	0.	128.18
4012	9.	2.75	0.	126.04
4013	-5.5	8.75	0.	128.99
4014	-5.5	8.25	0.	129.97
4015	-5.75	8.5	0.	128.28
4016	-5.5	6.75	0.	131.99
4017	-5.75	6.5	0.	130.3
4018	-8.75	6.5	0.	131.18
4019	-8.25	6.5	0.	129.58
4020	-8.5	6.75	0.	132.18
4021	-8.75	8.5	0.	130.38
4022	-8.5	8.75	0.	130.16
4023	-8.5	8.25	0.	131.7
4024	-8.25	8.5	0.	129.75
4025	-1.5	1.25	0.	132.24
4026	-1.75	1.5	0.	125.67
4027	-1.5	1.75	0.	132.34
4028	-3.5	1.25	0.	127.59
4029	-3.25	1.5	0.	122.21
4030	-3.5	1.75	0.	128.12
4031	-3.5	4.25	0.	127.91
4032	-3.25	4.5	0.	123.19
4033	-3.75	4.5	0.	128.55
4034	-1.75	4.5	0.	122.22
4035	-1.5	4.25	0.	126.58
4036	-6.	-2.75	0.	129.45
4037	-5.75	-3.	0.	131.7
4038	-8.25	-2.5	0.	131.19
4039	-8.5	-2.25	0.	133.83
4040	-8.75	-2.5	0.	133.09
4041	-8.75	-0.5	0.	133.09
4042	-8.5	-0.75	0.	133.9
4043	-8.25	-0.5	0.	131.42
4044	9.	-2.25	0.	125.31
4045	9.	-1.75	0.	126.64
4046	9.25	-2.	0.	128.32
4047	9.	-2.75	0.	124.96
4048	9.25	-2.5	0.	126.81
4049	9.	-3.25	0.	124.83
4050	9.25	-3.	0.	125.85
4051	9.25	-3.5	0.	125.24
4052	9.	-3.75	0.	124.86
4053	9.	-5.25	0.	125.13
4054	9.25	-5.	0.	125.67
4055	9.	-4.75	0.	125.23
4056	9.	-5.75	0.	124.54
4057	9.25	-5.5	0.	125.97
4058	9.25	-6.	0.	126.31
4059	9.	-6.25	0.	124.48
4060	7.5	-8.75	0.	127.46
4061	7.75	-8.5	0.	125.9
4062	7.5	-8.25	0.	129.14
4063	7.5	-6.75	0.	129.77
4064	7.75	-6.5	0.	127.89
4065	7.25	-6.5	0.	128.28
4066	7.5	-6.25	0.	129.67
4067	-2.25	-3.5	0.	128.91
4068	-2.5	-3.75	0.	130.63
4069	-2.5	-3.25	0.	130.69
4070	-2.75	-3.5	0.	128.45
4071	-5.25	-3.5	0.	129.17
4072	-5.5	-3.25	0.	133.52
4073	-5.5	-3.75	0.	130.18
4074	-5.75	-0.5	0.	135.22
4075	-5.5	-0.75	0.	138.04
4076	-5.25	-0.5	0.	134.16
4077	0.75	9.	0.	124.97
4078	0.25	9.	0.	125.99
4079	0.5	9.25	0.	125.85
4080	1.25	9.	0.	124.9
4081	1.	9.25	0.	125.62
4082	1.5	9.25	0.	125.61
4083	1.75	9.	0.	125.05
4084	2.5	9.25	0.	125.66
4085	2.25	9.	0.	125.23
4086	2.75	9.	0.	125.36
4087	3.75	9.	0.	125.46
4088	3.5	9.25	0.	125.63
4089	3.25	9.	0.	125.43
4090	4.25	9.	0.	125.44
4091	4.	9.25	0.	125.58
4092	4.75	9.	0.	125.38
4093	4.5	9.25	0.	125.49
4094	5.25	9.	0.	125.27
4095	5.	9.25	0.	125.38
4096	5.75	9.	0.	125.12
4097	5.5	9.25	0.	125.24
4098	6.	9.25	0.	125.07
4099	6.25	9.	0.	124.95
4100	7.25	9.	0.	124.69
4101	7.	9.25	0.	124.79
4102	6.75	9.	0.	124.79
4103	7.75	9.	0.	124.67
4104	7.5	9.25	0.	124.73
4105	8.25	9.	0.	124.75
4106	8.	9.25	0.	124.75
4107	8.75	9.	0.	124.89
4108	8.5	9.25	0.	124.84
4109	9.25	9.	0.	125.05
4110	9.	9.25	0.	124.96
4111	-6.5	-6.75	0.	128.75
4112	-6.25	-6.5	0.	124.35
4113	7.75	-9.	0.	123.42
4114	8.	-8.75	0.	121.9
4115	8.	-9.25	0.	121.5
4116	8.25	-9.	0.	120.03
4117	7.25	-9.	0.	126.04
4118	7.5	-9.25	0.	124.75
4119	6.75	-9.	0.	126.32
4120	7.	-9.25	0.	126.04
4121	6.25	-9.	0.	125.91
4122	6.5	-9.25	0.	126.03
4123	5.75	-9.	0.	125.66
4124	6.	-9.25	0.	125.84
4125	5.25	-9.	0.	125.65
4126	5.5	-9.25	0.	125.75
4127	4.75	-9.	0.	125.88
4128	5.	-9.25	0.	125.87
4129	4.25	-9.	0.	126.3
4130	4.5	-9.25	0.	126.19
4131	3.75	-9.	0.	126.9
4132	4.	-9.25	0.	126.7
4133	3.25	-9.	0.	127.63
4134	3.5	-9.25	0.	127.38
4135	2.75	-9.	0.	128.44
4136	3.	-9.25	0.	128.15
4137	2.25	-9.	0.	129.24
4138	2.5	-9.25	0.	128.95
4139	1.75	-9.	0.	129.89
4140	2.	-9.25	0.	129.63
4141	1.25	-9.	0.	130.13
4142	1.5	-9.25	0.	129.94
4143	0.75	-9.	0.	129.01
4144	1.	-9.25	0.	129.46
4145	0.25	-9.	0.	124.94
4146	0.5	-8.75	0.	130.01
4147	0.5	-9.25	0.	127.05
4148	-0.25	-9.	0.	119.81
4149	4.7735e-012	-8.75	0.	122.48
4150	3.4293e-012	-9.25	0.	122.18
4151	-0.75	-9.	0.	118.9
4152	-0.5	-8.75	0.	114.3
4153	-0.5	-9.25	0.	118.83
4154	-1.25	-9.	0.	122.14
4155	-1.	-8.75	0.	120.78
4156	-1.	-9.25	0.	120.32
4157	-1.75	-9.	0.	124.25
4158	-1.5	-8.75	0.	126.45
4159	-1.5	-9.25	0.	123.3
4160	-2.25	-9.	0.	123.66
4161	-2.	-9.25	0.	123.92
4162	-2.75	-9.	0.	122.69
4163	-2.5	-9.25	0.	123.29
4164	-3.25	-9.	0.	122.89
4165	-3.	-9.25	0.	123.19
4166	-3.75	-9.	0.	124.47
4167	-3.5	-9.25	0.	124.23
4168	-4.	-9.25	0.	126.14
4169	-4.25	-9.	0.	126.44
4170	0.25	-5.5	0.	131.54
4171	0.5	-5.75	0.	135.27
4172	-1.75	-8.	0.	127.68
4173	-2.	-7.75	0.	125.56
4174	-1.25	-8.5	0.	125.04
4175	-1.5	-8.25	0.	129.43
4176	0.25	-8.5	0.	127.52
4177	0.5	-8.25	0.	132.01
4178	-0.25	9.	0.	128.48
4179	6.6285e-010	9.25	0.	127.05
4180	9.1758e-010	8.75	0.	126.93
4181	-7.25	-9.	0.	130.19
4182	-6.75	-9.	0.	130.12
4183	-7.	-9.25	0.	130.85
4184	-7.75	-9.	0.	129.91
4185	-7.5	-9.25	0.	130.58
4186	-8.25	-9.	0.	129.67
4187	-8.	-9.25	0.	130.2
4188	-8.75	-9.	0.	129.47
4189	-8.5	-9.25	0.	129.82
4190	-9.	-8.75	0.	129.19
4191	-9.	-9.25	0.	129.54
4192	-9.25	-9.	0.	129.34
4193	-9.	-8.25	0.	128.86
4194	-9.25	-8.5	0.	129.01
4195	-9.	-7.75	0.	128.65
4196	-9.25	-8.	0.	128.75
4197	-9.	-7.25	0.	128.61
4198	-9.25	-7.5	0.	128.65
4199	-9.	-6.75	0.	128.69
4200	-9.25	-7.	0.	128.71
4201	-9.	-6.25	0.	128.83
4202	-9.25	-6.5	0.	128.87
4203	-9.	-5.75	0.	128.95
4204	-9.25	-6.	0.	129.07
4205	-9.	-5.25	0.	129.04
4206	-9.25	-5.5	0.	129.26
4207	-9.	-4.75	0.	129.13
4208	-9.25	-5.	0.	129.42
4209	-9.	-4.25	0.	129.32
4210	-9.25	-4.5	0.	129.59
4211	-9.	-3.75	0.	129.78
4212	-9.25	-4.	0.	129.83
4213	-9.	-3.25	0.	130.66
4214	-9.25	-3.5	0.	130.21
4215	-9.25	-3.	0.	130.72
4216	-9.	-2.75	0.	131.47
4217	-9.	-0.75	0.	131.02
4218	-8.75	-1.	0.	131.87
4219	-9.25	-1.	0.	129.43
4220	-9.	-1.25	0.	129.53
4221	-9.	-0.25	0.	131.32
4222	-9.25	-0.5	0.	130.59
4223	-9.	0.25	0.	130.31
4224	-9.25	1.3999e-012	0.	130.49
4225	-9.	0.75	0.	129.15
4226	-9.25	0.5	0.	129.76
4227	-8.75	0.5	0.	129.08
4228	-9.	1.25	0.	128.37
4229	-9.25	1.	0.	129.1
4230	-9.	1.75	0.	127.87
4231	-9.25	1.5	0.	128.58
4232	-8.75	1.5	0.	127.49
4233	-9.	2.25	0.	127.53
4234	-9.25	2.	0.	128.18
4235	-9.	2.75	0.	127.28
4236	-9.25	2.5	0.	127.87
4237	-9.	3.25	0.	127.09
4238	-9.25	3.	0.	127.64
4239	-9.	3.75	0.	126.98
4240	-9.25	3.5	0.	127.49
4241	-9.	4.25	0.	126.97
4242	-9.25	4.	0.	127.43
4243	-8.75	4.	0.	126.4
4244	-9.	4.75	0.	127.14
4245	-9.25	4.5	0.	127.48
4246	-9.	5.25	0.	127.62
4247	-9.25	5.	0.	127.68
4248	-9.	5.75	0.	128.54
4249	-9.25	5.5	0.	128.06
4250	-9.	6.25	0.	129.39
4251	-9.25	6.	0.	128.55
4252	-9.	6.75	0.	128.97
4253	-9.25	6.5	0.	128.46
4254	-9.	7.25	0.	127.28
4255	-8.75	7.	0.	130.01
4256	-9.25	7.	0.	127.08
4257	-9.	7.75	0.	126.94
4258	-8.75	7.5	0.	128.53
4259	-9.25	7.5	0.	125.61
4260	-9.	8.25	0.	128.03
4261	-8.75	8.	0.	129.39
4262	-9.25	8.	0.	126.25
4263	-9.	8.75	0.	127.91
4264	-9.25	8.5	0.	126.95
4265	-8.75	9.	0.	127.67
4266	-9.25	9.	0.	126.41
4267	-9.	9.25	0.	126.46
4268	-8.25	9.	0.	126.64
4269	-8.5	9.25	0.	126.64
4270	-7.75	9.	0.	123.47
4271	-8.	8.75	0.	126.28
4272	-8.	9.25	0.	124.67
4273	-7.25	9.	0.	120.9
4274	-7.5	8.75	0.	120.24
4275	-7.5	9.25	0.	122.13
4276	-6.75	9.	0.	120.81
4277	-7.	8.75	0.	119.82
4278	-7.	9.25	0.	121.11
4279	-6.25	9.	0.	123.18
4280	-6.5	8.75	0.	119.9
4281	-6.5	9.25	0.	122.18
4282	-5.75	9.	0.	126.13
4283	-6.	8.75	0.	125.47
4284	-6.	9.25	0.	124.75
4285	-5.25	9.	0.	127.12
4286	-5.5	9.25	0.	126.78
4287	-4.75	9.	0.	126.35
4288	-5.	9.25	0.	126.85
4289	-4.25	9.	0.	126.36
4290	-4.5	9.25	0.	126.39
4291	-3.75	9.	0.	128.29
4292	-4.	9.25	0.	127.11
4293	-3.25	6.5	0.	127.5
4294	-3.5	6.75	0.	131.06
4295	-0.75	6.5	0.	129.03
4296	-0.5	6.75	0.	132.85
4297	-0.25	6.5	0.	132.22
4298	-1.25	6.5	0.	119.64
4299	-1.	6.25	0.	124.41
4300	-1.75	6.5	0.	113.97
4301	-2.25	6.5	0.	113.42
4302	-2.75	6.5	0.	118.44
4303	-3.5	7.75	0.	133.7
4304	-3.5	7.25	0.	131.77
4305	-3.5	8.75	0.	131.55
4306	-3.5	9.25	0.	129.79
4307	-3.5	8.25	0.	134.03
4308	-0.5	7.25	0.	133.27
4309	-0.5	7.75	0.	134.81
4310	-0.5	8.25	0.	134.92
4311	-0.5	8.75	0.	132.09
4312	-0.25	8.5	0.	130.56
4313	-0.5	9.25	0.	129.98
4314	-0.25	-8.5	0.	116.88
4315	-0.75	-8.5	0.	116.09
4316	-1.5	-7.75	0.	132.8
4317	-1.5	-7.25	0.	135.61
4318	-1.75	-7.5	0.	130.6
4319	-0.25	-5.5	0.	122.65
4320	-0.75	-5.5	0.	122.54
4321	-0.5	-5.25	0.	121.94
4322	0.5	-6.25	0.	135.29
4323	0.5	-7.75	0.	133.28
4324	0.5	-7.25	0.	135.67
4325	0.5	-6.75	0.	136.23
4326	-6.5	-8.75	0.	130.84
4327	-6.5	-9.25	0.	130.08
4328	-6.5	-8.25	0.	132.67
4329	-6.5	-7.75	0.	132.59
4330	-6.5	-7.25	0.	130.15
4331	-6.75	-7.	0.	128.59
4332	-5.75	-6.5	0.	113.68
4333	-5.25	-6.5	0.	113.
4334	-4.5	-7.75	0.	134.3
4335	-4.5	-7.25	0.	133.47
4336	-4.25	-7.5	0.	130.38
4337	-4.5	-8.25	0.	131.64
4338	-4.5	-8.75	0.	128.6
4339	-1.5	0.75	0.	129.93
4340	-1.5	0.25	0.	129.79
4341	-2.25	-0.5	0.	118.91
4342	-2.5	-0.75	0.	117.83
4343	-2.75	-0.5	0.	117.9
4344	-3.5	0.75	0.	123.73
4345	-3.5	0.25	0.	120.32
4346	-3.5	-0.25	0.	117.65
4347	-1.75	-3.5	0.	118.73
4348	-1.25	-3.5	0.	117.93
4349	-0.5	-4.25	0.	129.31
4350	-0.5	-4.75	0.	127.27
4351	-1.25	-5.5	0.	125.32
4352	-1.5	-5.75	0.	125.97
4353	-1.75	-5.5	0.	125.
4354	-2.5	-4.75	0.	125.33
4355	-2.5	-5.25	0.	123.8
4356	-2.5	-4.25	0.	126.96
4357	-2.75	-4.5	0.	121.98
4358	3.25	-1.5002	0.	122.82
4359	3.75	-1.5003	0.	117.37
4360	4.25	-1.5003	0.	117.66
4361	4.75	-1.5003	0.	123.43
4362	5.5	-2.2501	0.	139.57
4363	5.5	-2.75	0.	142.59
4364	5.75	-2.5	0.	134.71
4365	4.75	-4.5	0.	123.51
4366	5.25	-4.5	0.	135.06
4367	4.25	-4.5	0.	117.16
4368	3.75	-4.5	0.	116.94
4369	3.25	-4.5	0.	122.82
4370	2.5	-3.75	0.	136.49
4371	2.5	-3.25	0.	138.38
4372	2.5	-2.75	0.	138.28
4373	2.5	-2.25	0.	136.25
4374	7.25	5.5	0.	116.71
4375	7.75	5.5	0.	116.72
4376	8.5	4.75	0.	128.59
4377	8.5	4.25	0.	128.24
4378	7.75	3.5	0.	114.41
4379	7.25	3.5	0.	114.85
4380	6.5	4.25	0.	128.2
4381	6.5	4.75	0.	128.21
4382	-1.5	-6.25	0.	131.
4383	-1.5	-6.75	0.	134.76
4384	-2.25	-7.5	0.	121.1
4385	-2.75	-7.5	0.	116.39
4386	-3.25	-7.5	0.	116.34
4387	-3.75	-7.5	0.	120.81
4388	-4.5	-6.75	0.	131.2
4389	-4.5	-6.25	0.	129.06
4390	-4.75	-6.5	0.	124.53
4391	-3.75	-5.5	0.	119.3
4392	-2.25	-5.5	0.	124.75
4393	-2.75	-5.5	0.	121.18
4394	-3.25	-5.5	0.	117.81
4395	6.75	-5.5	0.	118.78
4396	6.25	-5.5	0.	119.22
4397	5.5	-4.75	0.	137.58
4398	5.5	-4.25	0.	141.69
4399	5.5	-3.75	0.	142.98
4400	5.5	-3.25	0.	143.33
4401	6.25	-2.5	0.	120.11
4402	6.75	-2.5	0.	117.14
4403	7.5	-3.25	0.	127.94
4404	7.75	-3.	0.	124.79
4405	7.5	-3.75	0.	131.39
4406	7.75	-3.5	0.	127.55
4407	7.5	-4.25	0.	132.21
4408	7.75	-4.	0.	129.69
4409	7.5	-4.75	0.	130.91
4410	7.75	-4.5	0.	129.32
4411	6.5	-0.75009	0.	134.08
4412	6.5	-0.2501	0.	135.86
4413	6.5	0.24989	0.	135.26
4414	6.5	0.74989	0.	132.86
4415	7.25	1.5	0.	118.68
4416	7.	1.75	0.	122.73
4417	7.75	1.5	0.	113.56
4418	8.25	1.5	0.	114.31
4419	8.75	1.5	0.	120.85
4420	9.25	1.5	0.	131.68
4421	9.	1.75	0.	125.99
4422	7.25	-1.5	0.	120.5
4423	7.75	-1.5	0.	116.02
4424	7.5	-1.75	0.	117.91
4425	8.25	-1.5	0.	116.53
4426	8.75	-1.5	0.	122.17
4427	9.25	-1.5	0.	131.68
4428	-5.5	7.75	0.	129.65
4429	-5.5	7.25	0.	130.28
4430	-6.25	6.5	0.	122.83
4431	-6.75	6.5	0.	118.61
4432	-7.25	6.5	0.	118.58
4433	-7.75	6.5	0.	122.37
4434	-8.5	7.25	0.	131.22
4435	-8.5	7.75	0.	130.93
4436	-6.25	8.5	0.	122.16
4437	-6.75	8.5	0.	118.85
4438	-7.25	8.5	0.	119.11
4439	-7.75	8.5	0.	123.03
4440	-2.25	1.5	0.	107.42
4441	-2.75	1.5	0.	106.21
4442	-3.5	2.25	0.	127.43
4443	-3.5	2.75	0.	129.2
4444	-3.5	3.25	0.	129.44
4445	-3.5	3.75	0.	128.12
4446	-2.75	4.5	0.	112.07
4447	-3.	4.75	0.	118.08
4448	-2.25	4.5	0.	112.07
4449	-1.5	3.75	0.	128.17
4450	-1.5	3.25	0.	130.67
4451	-1.5	2.75	0.	130.93
4452	-1.5	2.25	0.	130.41
4453	-1.25	2.5	0.	129.65
4454	-6.25	-2.5	0.	124.76
4455	-5.75	-2.5	0.	134.74
4456	-6.75	-2.5	0.	119.79
4457	-7.25	-2.5	0.	119.53
4458	-7.75	-2.5	0.	123.58
4459	-8.5	-1.75	0.	132.87
4460	-8.75	-2.	0.	131.85
4461	-8.5	-1.25	0.	132.89
4462	-8.75	-1.5	0.	130.6
4463	-7.75	-0.5	0.	124.1
4464	-7.25	-0.5	0.	120.4
4465	-6.75	-0.5	0.	121.02
4466	-6.25	-0.5	0.	126.23
4467	8.75	-8.5	0.	118.28
4468	9.25	-8.5	0.	127.8
4469	9.	-8.75	0.	123.19
4470	8.25	-8.5	0.	117.6
4471	8.5	-8.75	0.	115.82
4472	7.5	-7.75	0.	128.98
4473	7.5	-7.25	0.	128.99
4474	8.25	-6.5	0.	119.81
4475	8.75	-6.5	0.	119.64
4476	8.	-6.25	0.	125.3
4477	-2.5	-1.25	0.	123.5
4478	-2.5	-1.75	0.	127.45
4479	-2.5	-2.25	0.	128.63
4480	-2.5	-2.75	0.	128.33
4481	-3.25	-3.5	0.	117.99
4482	-3.75	-3.5	0.	112.59
4483	-4.25	-3.5	0.	113.48
4484	-4.75	-3.5	0.	119.89
4485	-5.5	-2.75	0.	137.07
4486	-5.5	-2.25	0.	140.37
4487	-5.5	-1.75	0.	140.18
4488	-5.5	-1.25	0.	138.25
4489	-4.75	-0.5	0.	122.61
4490	-4.25	-0.5	0.	115.6
4491	-3.75	-0.5	0.	115.86
4492	-3.25	-0.5	0.	118.92
4493	9.5	9.25	0.	125.08
4494	9.5	8.75	0.	125.2
4495	9.5	7.75	0.	125.6
4496	9.5	8.25	0.	125.37
4497	9.5	7.25	0.	125.9
4498	9.5	6.75	0.	126.29
4499	9.25	7.	0.	125.72
4500	9.5	6.25	0.	126.69
4501	9.5	5.75	0.	126.88
4502	9.25	6.	0.	127.01
4503	9.5	5.25	0.	126.68
4504	9.25	5.5	0.	127.43
4505	9.5	4.75	0.	126.48
4506	9.5	4.25	0.	126.88
4507	9.5	3.75	0.	127.94
4508	9.5	3.25	0.	129.13
4509	9.5	2.75	0.	130.19
4510	9.5	2.25	0.	131.59
4511	9.25	2.5	0.	128.04
4512	9.5	1.75	0.	134.51
4513	9.25	2.	0.	128.77
4514	9.5	1.25	0.	136.79
4515	9.5	0.75	0.	138.21
4516	9.5	0.25	0.	140.16
4517	9.5	-0.25	0.	140.09
4518	9.5	-0.75	0.	137.87
4519	9.5	-1.25	0.	136.11
4520	9.5	-1.75	0.	133.42
4521	9.5	-2.25	0.	129.83
4522	9.5	-2.75	0.	127.69
4523	9.5	-3.25	0.	126.25
4524	9.5	-3.75	0.	125.44
4525	9.5	-4.25	0.	125.3
4526	9.25	-4.	0.	125.07
4527	9.5	-4.75	0.	125.71
4528	9.25	-4.5	0.	125.27
4529	9.5	-5.25	0.	126.51
4530	9.5	-5.75	0.	127.75
4531	9.5	-6.25	0.	130.4
4532	9.5	-6.75	0.	132.47
4533	9.25	-6.5	0.	128.54
4534	9.5	-7.25	0.	132.87
4535	9.5	-7.75	0.	132.66
4536	9.5	-8.25	0.	132.05
4537	9.5	-8.75	0.	129.99
4538	9.5	-9.25	0.	127.57
4539	9.25	-9.	0.	125.34
4540	9.25	-9.5	0.	125.07
4541	8.75	-9.5	0.	121.99
4542	9.	-9.25	0.	122.83
4543	8.25	-9.5	0.	121.28
4544	8.5	-9.25	0.	119.83
4545	7.75	-9.5	0.	122.83
4546	7.25	-9.5	0.	124.75
4547	6.25	-9.5	0.	125.96
4548	6.75	-9.5	0.	125.74
4549	5.75	-9.5	0.	125.93
4550	5.25	-9.5	0.	125.97
4551	4.75	-9.5	0.	126.18
4552	4.25	-9.5	0.	126.59
4553	3.75	-9.5	0.	127.18
4554	3.25	-9.5	0.	127.9
4555	2.75	-9.5	0.	128.67
4556	2.25	-9.5	0.	129.34
4557	1.75	-9.5	0.	129.68
4558	1.25	-9.5	0.	129.26
4559	0.75	-9.5	0.	127.49
4560	0.25	-9.5	0.	124.3
4561	-0.25	-9.5	0.	121.19
4562	-0.75	-9.5	0.	120.24
4563	-1.25	-9.5	0.	121.48
4564	-1.75	-9.5	0.	122.96
4565	-2.25	-9.5	0.	123.55
4566	-2.75	-9.5	0.	123.78
4567	-3.25	-9.5	0.	124.52
4568	-3.75	-9.5	0.	125.9
4569	-4.25	-9.5	0.	127.06
4570	-4.75	-9.5	0.	122.49
4571	-4.5	-9.25	0.	127.33
4572	-5.25	-9.5	0.	111.95
4573	-5.75	-9.5	0.	112.58
4574	-6.25	-9.5	0.	124.58
4575	-6.75	-9.5	0.	130.83
4576	-7.25	-9.5	0.	131.25
4577	-7.75	-9.5	0.	130.87
4578	-8.25	-9.5	0.	130.34
4579	-8.75	-9.5	0.	129.89
4580	-9.25	-9.5	0.	129.61
4581	-9.5	-9.25	0.	129.4
4582	-9.5	-8.25	0.	128.9
4583	-9.5	-8.75	0.	129.15
4584	-9.5	-7.75	0.	128.75
4585	-9.5	-7.25	0.	128.75
4586	-9.5	-6.75	0.	128.89
4587	-9.5	-6.25	0.	129.11
4588	-9.5	-5.75	0.	129.38
4589	-9.5	-5.25	0.	129.64
4590	-9.5	-4.75	0.	129.89
4591	-9.5	-4.25	0.	130.1
4592	-9.5	-3.75	0.	130.26
4593	-9.5	-3.25	0.	130.27
4594	-9.5	-2.75	0.	129.92
4595	-9.5	-2.25	0.	129.06
4596	-9.25	-2.5	0.	130.68
4597	-9.5	-1.75	0.	128.22
4598	-9.25	-2.	0.	129.45
4599	-9.5	-1.25	0.	128.2
4600	-9.25	-1.5	0.	128.32
4601	-9.5	-0.75	0.	129.
4602	-9.5	-0.25	0.	129.76
4603	-9.5	0.25	0.	129.94
4604	-9.5	0.75	0.	129.71
4605	-9.5	1.25	0.	129.31
4606	-9.5	1.75	0.	128.9
4607	-9.5	2.25	0.	128.53
4608	-9.5	2.75	0.	128.24
4609	-9.5	3.25	0.	128.04
4610	-9.5	3.75	0.	127.95
4611	-9.5	4.25	0.	127.95
4612	-9.5	4.75	0.	128.02
4613	-9.5	5.25	0.	128.11
4614	-9.5	5.75	0.	128.07
4615	-9.5	6.25	0.	127.62
4616	-9.5	6.75	0.	126.57
4617	-9.5	7.25	0.	125.4
4618	-9.5	7.75	0.	124.9
4619	-9.5	8.25	0.	125.17
4620	-9.5	8.75	0.	125.45
4621	-9.5	9.25	0.	125.31
4622	-9.25	9.5	0.	125.35
4623	-8.75	9.5	0.	125.41
4624	-8.25	9.5	0.	124.68
4625	-7.75	9.5	0.	123.35
4626	-7.25	9.5	0.	122.31
4627	-6.75	9.5	0.	122.45
4628	-6.25	9.5	0.	123.76
4629	-5.75	9.5	0.	125.4
4630	-5.25	9.5	0.	126.5
4631	-4.75	9.5	0.	126.9
4632	-4.25	9.5	0.	127.17
4633	-3.75	9.5	0.	128.63
4634	-3.25	9.5	0.	128.51
4635	-2.75	9.5	0.	123.23
4636	-2.25	9.5	0.	119.63
4637	-1.75	9.5	0.	119.63
4638	-1.25	9.5	0.	123.24
4639	-0.75	9.5	0.	128.52
4640	-0.25	9.5	0.	128.57
4641	0.25	9.5	0.	126.94
4642	0.75	9.5	0.	126.52
4643	1.25	9.5	0.	126.34
4644	1.75	9.5	0.	126.2
4645	2.25	9.5	0.	126.08
4646	2.	9.25	0.	125.64
4647	2.75	9.5	0.	125.97
4648	3.25	9.5	0.	125.86
4649	3.	9.25	0.	125.66
4650	3.75	9.5	0.	125.75
4651	4.25	9.5	0.	125.63
4652	4.75	9.5	0.	125.5
4653	6.25	9.5	0.	125.04
4654	5.75	9.5	0.	125.19
4655	6.75	9.5	0.	124.91
4656	6.5	9.25	0.	124.91
4657	7.25	9.5	0.	124.83
4658	7.75	9.5	0.	124.81
4659	8.25	9.5	0.	124.83
4660	8.75	9.5	0.	124.9
4661	9.25	9.5	0.	124.98
4662	9.	2.25	0.	125.22
4663	-7.25	3.5	0.	124.18
4664	-6.75	3.5	0.	124.04
4665	-7.5	3.25	0.	124.44
4666	-9.	-1.75	0.	129.54
4667	-4.25	4.5	0.	128.6
4668	3.75	4.	0.	126.42
4669	-3.75	7.	0.	129.96
4670	-4.25	7.	0.	128.5
4671	4.75	1.4995	0.	126.42
4672	4.25	1.4995	0.	125.65
4673	-0.5	-2.25	0.	124.94
4674	0.75	-1.5	0.	129.39
4675	1.25	-1.5	0.	130.81
4676	0.25	6.5	0.	130.35
4677	-3.75	8.	0.	131.13
4678	8.	-3.25	0.	124.42
4679	8.	-3.75	0.	125.86
4680	8.	-5.75	0.	126.29
4681	9.	-4.25	0.	125.04
4682	5.25	5.5	0.	126.28
4683	5.75	5.5	0.	127.
4684	2.5	-5.25	0.	131.13
4685	4.75	5.5	0.	126.
4686	-6.	4.75	0.	125.31
4687	-5.75	4.5	0.	125.85
4688	5.25	9.5	0.	125.35
4689	5.25	1.4996	0.	127.65
4690	-6.75	2.5	0.	124.12
4691	2.	6.75	0.	125.88
4692	5.5	-6.25	0.	126.07
4693	5.25	-6.5	0.	125.13
4694	-6.25	2.5	0.	124.11
4695	3.	6.75	0.	125.52
4696	9.	5.75	0.	127.56
4697	3.75	5.5	0.	126.02
4698	8.	-4.25	0.	126.8
4699	0.75	6.5	0.	128.66
4700	3.25	4.	0.	126.59
4701	4.25	5.5	0.	125.94
4702	0.75001	1.5	0.	128.6
4703	-5.5	-4.25	0.	126.13
4704	8.75	-9.	0.	120.65
4705	7.75	-6.	0.	127.08
4706	-4.25	-4.5	0.	117.42
4707	5.5	3.7499	0.	126.87
4708	5.25	3.9999	0.	126.28
4709	1.75	-1.5	0.	132.51
4710	3.	1.7497	0.	126.06
4711	1.25	1.5	0.	128.11
4712	2.5	-5.75	0.	129.32
4713	2.5	-6.25	0.	128.29
4714	2.	6.25	0.	126.56
4715	-9.	-2.25	0.	131.06
4716	-6.	5.25	0.	125.62
4717	5.75	1.4997	0.	129.22
4718	3.5	3.7499	0.	126.54
4719	-1.	9.	0.	98.975
4720	-3.	9.	0.	98.689
4721	-1.	7.	0.	98.851
4722	-3.	7.	0.	97.376
4723	-1.5	9.	0.	116.75
4724	-2.	9.	0.	115.2
4725	-2.5	9.	0.	116.6
4726	-1.	8.5	0.	104.1
4727	-1.	8.	0.	102.25
4728	-1.	7.5	0.	102.79
4729	-3.	8.5	0.	103.58
4730	-3.	8.	0.	101.5
4731	-3.	7.5	0.	101.96
4732	-2.5	7.	0.	111.81
4733	-2.	7.	0.	109.93
4734	-1.5	7.	0.	112.49
4735	-1.5	8.	0.	111.15
4736	-1.5	7.5	0.	110.91
4737	-2.5	7.5	0.	110.28
4738	-2.5	8.	0.	110.65
4739	-2.5	8.5	0.	112.75
4740	-1.5	8.5	0.	113.09
4741	-2.	8.5	0.	116.4
4742	-2.	7.5	0.	113.37
4743	-2.	8.	0.	114.51
4744	-1.25	9.	0.	107.74
4745	-1.	8.75	0.	101.52
4746	-2.75	9.	0.	107.53
4747	-3.	8.75	0.	101.11
4748	-1.	7.25	0.	100.81
4749	-1.25	7.	0.	105.62
4750	-3.	7.25	0.	99.649
4751	-2.75	7.	0.	104.55
4752	-1.75	9.	0.	115.96
4753	-1.5	8.75	0.	114.87
4754	-2.25	9.	0.	115.89
4755	-2.	8.75	0.	115.78
4756	-2.5	8.75	0.	114.64
4757	-1.	8.25	0.	103.14
4758	-1.25	8.5	0.	108.56
4759	-1.	7.75	0.	102.49
4760	-1.25	8.	0.	106.7
4761	-1.25	7.5	0.	106.85
4762	-3.	8.25	0.	102.49
4763	-2.75	8.5	0.	108.13
4764	-3.	7.75	0.	101.68
4765	-2.75	8.	0.	106.06
4766	-2.75	7.5	0.	106.11
4767	-2.25	7.	0.	110.87
4768	-2.5	7.25	0.	111.02
4769	-1.75	7.	0.	111.21
4770	-2.	7.25	0.	111.63
4771	-1.5	7.25	0.	111.68
4772	-1.5	7.75	0.	111.02
4773	-1.5	8.25	0.	112.11
4774	-1.75	8.	0.	112.82
4775	-1.75	7.5	0.	112.14
4776	-2.5	7.75	0.	110.44
4777	-2.25	7.5	0.	111.82
4778	-2.5	8.25	0.	111.68
4779	-2.25	8.	0.	112.57
4780	-2.25	8.5	0.	114.53
4781	-1.75	8.5	0.	114.7
4782	-2.	8.25	0.	115.46
4783	-2.	7.75	0.	113.94
4784	-6.	-1.	0.	102.9
4785	-8.	-1.	0.	101.09
4786	-6.	-2.	0.	102.54
4787	-8.	-2.	0.	100.93
4788	-6.5	-1.	0.	118.92
4789	-7.	-1.	0.	116.86
4790	-7.5	-1.	0.	117.97
4791	-6.	-1.5	0.	107.65
4792	-8.	-1.5	0.	105.83
4793	-7.5	-2.	0.	117.63
4794	-7.	-2.	0.	116.32
4795	-6.5	-2.	0.	118.26
4796	-7.5	-1.5	0.	116.4
4797	-7.	-1.5	0.	119.72
4798	-6.5	-1.5	0.	116.98
4799	-6.25	-1.	0.	110.87
4800	-6.	-1.25	0.	105.24
4801	-7.75	-1.	0.	109.49
4802	-8.	-1.25	0.	103.44
4803	-6.	-1.75	0.	105.07
4804	-6.25	-2.	0.	110.36
4805	-8.	-1.75	0.	103.36
4806	-7.75	-2.	0.	109.24
4807	-6.75	-1.	0.	117.89
4808	-6.5	-1.25	0.	117.94
4809	-7.25	-1.	0.	117.41
4810	-7.	-1.25	0.	118.29
4811	-7.5	-1.25	0.	117.17
4812	-6.25	-1.5	0.	112.3
4813	-7.75	-1.5	0.	111.11
4814	-7.25	-2.	0.	116.97
4815	-7.5	-1.75	0.	116.99
4816	-6.75	-2.	0.	117.29
4817	-7.	-1.75	0.	118.02
4818	-6.5	-1.75	0.	117.6
4819	-7.25	-1.5	0.	118.06
4820	-6.75	-1.5	0.	118.35
4821	-3.	-1.	0.	92.834
4822	-5.	-1.	0.	99.431
4823	-3.	-3.	0.	95.848
4824	-5.	-3.	0.	99.435
4825	-3.5	-1.	0.	110.31
4826	-4.	-1.	0.	109.32
4827	-4.5	-1.	0.	112.54
4828	-3.	-1.5	0.	97.636
4829	-3.	-2.	0.	96.978
4830	-3.	-2.5	0.	99.095
4831	-5.	-1.5	0.	102.76
4832	-5.	-2.	0.	102.12
4833	-5.	-2.5	0.	104.
4834	-4.5	-3.	0.	112.24
4835	-4.	-3.	0.	108.59
4836	-3.5	-3.	0.	110.19
4837	-4.	-2.	0.	110.41
4838	-4.	-1.5	0.	110.85
4839	-3.5	-1.5	0.	106.78
4840	-3.5	-2.	0.	106.04
4841	-3.5	-2.5	0.	107.3
4842	-4.	-2.5	0.	110.92
4843	-4.5	-2.5	0.	109.87
4844	-4.5	-2.	0.	108.46
4845	-4.5	-1.5	0.	109.05
4846	-3.25	-1.	0.	101.49
4847	-3.	-1.25	0.	95.203
4848	-4.75	-1.	0.	105.89
4849	-5.	-1.25	0.	101.06
4850	-3.	-2.75	0.	97.457
4851	-3.25	-3.	0.	102.94
4852	-5.	-2.75	0.	101.71
4853	-4.75	-3.	0.	105.77
4854	-3.75	-1.	0.	109.81
4855	-3.5	-1.25	0.	108.53
4856	-4.25	-1.	0.	110.92
4857	-4.	-1.25	0.	110.07
4858	-4.5	-1.25	0.	110.78
4859	-3.	-1.75	0.	97.261
4860	-3.25	-1.5	0.	102.19
4861	-3.	-2.25	0.	97.999
4862	-3.25	-2.	0.	101.5
4863	-3.25	-2.5	0.	103.18
4864	-5.	-1.75	0.	102.38
4865	-4.75	-1.5	0.	105.88
4866	-5.	-2.25	0.	103.04
4867	-4.75	-2.	0.	105.29
4868	-4.75	-2.5	0.	106.93
4869	-4.25	-3.	0.	110.42
4870	-4.5	-2.75	0.	111.02
4871	-3.75	-3.	0.	109.39
4872	-4.	-2.75	0.	109.74
4873	-3.5	-2.75	0.	108.72
4874	-4.	-1.75	0.	110.63
4875	-3.75	-2.	0.	108.22
4876	-4.	-2.25	0.	110.66
4877	-4.25	-2.	0.	109.43
4878	-3.75	-1.5	0.	108.8
4879	-4.25	-1.5	0.	109.93
4880	-3.5	-1.75	0.	106.39
4881	-3.5	-2.25	0.	106.66
4882	-3.75	-2.5	0.	109.1
4883	-4.25	-2.5	0.	110.39
4884	-4.5	-2.25	0.	109.16
4885	-4.5	-1.75	0.	108.74
4886	-2.	-6.	0.	98.771
4887	-4.	-6.	0.	98.194
4888	-2.	-7.	0.	99.136
4889	-4.	-7.	0.	99.164
4890	-2.5	-6.	0.	116.73
4891	-3.	-6.	0.	115.09
4892	-3.5	-6.	0.	115.35
4893	-2.	-6.5	0.	103.8
4894	-4.	-6.5	0.	103.82
4895	-3.5	-7.	0.	115.16
4896	-3.	-7.	0.	113.58
4897	-2.5	-7.	0.	115.04
4898	-3.5	-6.5	0.	114.16
4899	-3.	-6.5	0.	117.39
4900	-2.5	-6.5	0.	114.08
4901	-2.25	-6.	0.	107.71
4902	-2.	-6.25	0.	101.24
4903	-3.75	-6.	0.	106.75
4904	-4.	-6.25	0.	100.99
4905	-2.	-6.75	0.	101.44
4906	-2.25	-7.	0.	107.05
4907	-4.	-6.75	0.	101.48
4908	-3.75	-7.	0.	107.12
4909	-2.75	-6.	0.	115.91
4910	-2.5	-6.25	0.	115.39
4911	-3.25	-6.	0.	115.22
4912	-3.	-6.25	0.	116.24
4913	-3.5	-6.25	0.	114.74
4914	-2.25	-6.5	0.	108.92
4915	-3.75	-6.5	0.	108.98
4916	-3.25	-7.	0.	114.37
4917	-3.5	-6.75	0.	114.63
4918	-2.75	-7.	0.	114.31
4919	-3.	-6.75	0.	115.47
4920	-2.5	-6.75	0.	114.54
4921	-3.25	-6.5	0.	115.77
4922	-2.75	-6.5	0.	115.73
4923	9.	-7.	0.	100.04
4924	8.	-7.	0.	98.444
4925	9.	-8.	0.	99.429
4926	8.	-8.	0.	98.091
4927	8.5	-7.	0.	114.99
4928	9.	-7.5	0.	105.06
4929	8.	-7.5	0.	103.61
4930	8.5	-8.	0.	114.23
4931	8.5	-7.5	0.	112.16
4932	8.75	-7.	0.	107.49
4933	9.	-7.25	0.	102.54
4934	8.25	-7.	0.	106.69
4935	8.	-7.25	0.	101.01
4936	9.	-7.75	0.	102.24
4937	8.75	-8.	0.	106.81
4938	8.	-7.75	0.	100.84
4939	8.25	-8.	0.	106.15
4940	8.5	-7.25	0.	113.53
4941	8.75	-7.5	0.	108.59
4942	8.25	-7.5	0.	107.86
4943	8.5	-7.75	0.	113.14
4944	-2.	1.	0.	93.695
4945	-3.	1.	0.	92.618
4946	-2.	0.	0.	97.515
4947	-3.	0.	0.	92.625
4948	-2.5	1.	0.	105.35
4949	-2.	0.5	0.	100.6
4950	-3.	0.5	0.	97.57
4951	-2.5	0.	0.	111.25
4952	-2.5	0.5	0.	105.99
4953	-2.25	1.	0.	99.508
4954	-2.	0.75	0.	97.143
4955	-2.75	1.	0.	98.979
4956	-3.	0.75	0.	95.087
4957	-2.	0.25	0.	99.057
4958	-2.25	0.	0.	104.34
4959	-3.	0.25	0.	95.071
4960	-2.75	0.	0.	101.86
4961	-2.5	0.75	0.	105.62
4962	-2.25	0.5	0.	103.25
4963	-2.75	0.5	0.	101.75
4964	-2.5	0.25	0.	108.57
4965	8.	5.	0.	96.85
4966	7.	5.	0.	96.642
4967	8.	4.	0.	96.055
4968	7.	4.	0.	96.292
4969	7.5	5.	0.	112.03
4970	8.	4.5	0.	101.59
4971	7.	4.5	0.	101.56
4972	7.5	4.	0.	111.08
4973	7.5	4.5	0.	108.97
4974	7.75	5.	0.	104.42
4975	8.	4.75	0.	99.211
4976	7.25	5.	0.	104.31
4977	7.	4.75	0.	99.091
4978	8.	4.25	0.	98.813
4979	7.75	4.	0.	103.55
4980	7.	4.25	0.	98.917
4981	7.25	4.	0.	103.67
4982	7.5	4.75	0.	110.45
4983	7.75	4.5	0.	105.26
4984	7.25	4.5	0.	105.24
4985	7.5	4.25	0.	109.98
4986	-1.	-4.	0.	98.386
4987	-2.	-4.	0.	98.356
4988	-1.	-5.	0.	98.433
4989	-2.	-5.	0.	99.485
4990	-1.5	-4.	0.	114.38
4991	-1.	-4.5	0.	104.06
4992	-2.	-4.5	0.	103.89
4993	-1.5	-5.	0.	117.24
4994	-1.5	-4.5	0.	112.65
4995	-1.25	-4.	0.	106.37
4996	-1.	-4.25	0.	101.2
4997	-1.75	-4.	0.	106.33
4998	-2.	-4.25	0.	101.11
4999	-1.	-4.75	0.	101.2
5000	-1.25	-5.	0.	107.8
5001	-2.	-4.75	0.	101.67
5002	-1.75	-5.	0.	108.33
5003	-1.5	-4.25	0.	113.45
5004	-1.25	-4.5	0.	108.32
5005	-1.75	-4.5	0.	108.25
5006	-1.5	-4.75	0.	114.91
5007	-6.	8.	0.	98.938
5008	-8.	8.	0.	99.9
5009	-6.	7.	0.	99.243
5010	-8.	7.	0.	100.16
5011	-6.5	8.	0.	116.38
5012	-7.	8.	0.	115.47
5013	-7.5	8.	0.	117.
5014	-6.	7.5	0.	104.16
5015	-8.	7.5	0.	104.92
5016	-7.5	7.	0.	116.65
5017	-7.	7.	0.	115.24
5018	-6.5	7.	0.	116.46
5019	-7.5	7.5	0.	115.51
5020	-7.	7.5	0.	118.51
5021	-6.5	7.5	0.	114.9
5022	-6.25	8.	0.	107.62
5023	-6.	7.75	0.	101.52
5024	-7.75	8.	0.	108.4
5025	-8.	7.75	0.	102.39
5026	-6.	7.25	0.	101.67
5027	-6.25	7.	0.	107.81
5028	-8.	7.25	0.	102.52
5029	-7.75	7.	0.	108.37
5030	-6.75	8.	0.	115.92
5031	-6.5	7.75	0.	115.62
5032	-7.25	8.	0.	116.23
5033	-7.	7.75	0.	116.98
5034	-7.5	7.75	0.	116.23
5035	-6.25	7.5	0.	109.51
5036	-7.75	7.5	0.	110.2
5037	-7.25	7.	0.	115.94
5038	-7.5	7.25	0.	116.06
5039	-6.75	7.	0.	115.85
5040	-7.	7.25	0.	116.87
5041	-6.5	7.25	0.	115.66
5042	-7.25	7.5	0.	117.01
5043	-6.75	7.5	0.	116.7
5044	9.	1.	0.	100.69
5045	7.	1.	0.	97.743
5046	9.	-1.	0.	100.95
5047	7.	-1.	0.	98.403
5048	8.5	1.	0.	113.53
5049	8.	1.	0.	110.25
5050	7.5	1.	0.	111.97
5051	9.	0.5	0.	105.41
5052	9.	0.	0.	104.67
5053	9.	-0.5	0.	105.64
5054	7.	0.5	0.	102.44
5055	7.	0.	0.	101.73
5056	7.	-0.5	0.	103.17
5057	7.5	-1.	0.	113.3
5058	8.	-1.	0.	111.57
5059	8.5	-1.	0.	114.53
5060	8.	0.5	0.	113.6
5061	8.5	0.5	0.	112.1
5062	8.5	-0.5	0.	112.59
5063	8.	-0.5	0.	114.3
5064	7.5	-0.5	0.	111.03
5065	7.5	0.5	0.	110.35
5066	7.5	0.	0.	110.13
5067	8.5	0.	0.	111.91
5068	8.	-3.4466e-017	0.	114.01
5069	8.75	1.	0.	107.05
5070	9.	0.75	0.	103.05
5071	7.25	1.	0.	104.8
5072	7.	0.75	0.	100.08
5073	9.	-0.75	0.	103.29
5074	8.75	-1.	0.	107.67
5075	7.	-0.75	0.	100.77
5076	7.25	-1.	0.	105.78
5077	8.25	1.	0.	111.89
5078	8.5	0.75	0.	112.78
5079	7.75	1.	0.	111.11
5080	8.	0.75	0.	111.9
5081	7.5	0.75	0.	111.13
5082	9.	0.25	0.	105.02
5083	8.75	0.5	0.	108.75
5084	9.	-0.25	0.	105.14
5085	8.75	0.	0.	108.29
5086	8.75	-0.5	0.	109.11
5087	7.	0.25	0.	102.06
5088	7.25	0.5	0.	106.39
5089	7.	-0.25	0.	102.42
5090	7.25	0.	0.	105.93
5091	7.25	-0.5	0.	107.08
5092	7.75	-1.	0.	112.43
5093	7.5	-0.75	0.	112.14
5094	8.25	-1.	0.	113.05
5095	8.	-0.75	0.	112.92
5096	8.5	-0.75	0.	113.53
5097	8.25	0.5	0.	112.85
5098	7.75	0.5	0.	111.97
5099	8.	0.25	0.	113.8
5100	8.5	0.25	0.	112.01
5101	8.25	-0.5	0.	113.44
5102	8.5	-0.25	0.	112.25
5103	7.75	-0.5	0.	112.66
5104	8.	-0.25	0.	114.15
5105	7.5	-0.25	0.	110.57
5106	7.5	0.25	0.	110.23
5107	7.75	-1.7233e-017	0.	112.07
5108	8.25	-1.7233e-017	0.	112.96
5109	5.	-2.	0.	102.56
5110	3.	-2.	0.	100.41
5111	5.	-4.	0.	102.27
5112	3.	-4.	0.	100.25
5113	4.5	-2.	0.	116.23
5114	4.	-2.	0.	113.14
5115	3.5	-2.	0.	115.11
5116	5.	-2.5	0.	107.29
5117	5.	-3.	0.	105.83
5118	5.	-3.5	0.	106.52
5119	3.	-2.5	0.	104.85
5120	3.	-3.	0.	103.57
5121	3.	-3.5	0.	104.76
5122	3.5	-4.	0.	114.69
5123	4.	-4.	0.	112.31
5124	4.5	-4.	0.	115.27
5125	4.	-3.	0.	115.45
5126	4.5	-3.	0.	113.02
5127	4.5	-3.5	0.	113.13
5128	4.	-3.5	0.	115.19
5129	3.5	-3.5	0.	112.37
5130	3.5	-3.	0.	111.85
5131	3.5	-2.5	0.	112.75
5132	4.	-2.5	0.	115.89
5133	4.5	-2.5	0.	114.23
5134	4.75	-2.	0.	109.33
5135	5.	-2.25	0.	104.92
5136	3.25	-2.	0.	107.69
5137	3.	-2.25	0.	102.62
5138	5.	-3.75	0.	104.39
5139	4.75	-4.	0.	108.7
5140	3.	-3.75	0.	102.49
5141	3.25	-4.	0.	107.39
5142	4.25	-2.	0.	114.68
5143	4.5	-2.25	0.	115.2
5144	3.75	-2.	0.	114.12
5145	4.	-2.25	0.	114.5
5146	3.5	-2.25	0.	113.9
5147	5.	-2.75	0.	106.55
5148	4.75	-2.5	0.	110.76
5149	5.	-3.25	0.	106.14
5150	4.75	-3.	0.	109.43
5151	4.75	-3.5	0.	109.81
5152	3.	-2.75	0.	104.17
5153	3.25	-2.5	0.	108.78
5154	3.	-3.25	0.	104.13
5155	3.25	-3.	0.	107.7
5156	3.25	-3.5	0.	108.55
5157	3.75	-4.	0.	113.5
5158	3.5	-3.75	0.	113.5
5159	4.25	-4.	0.	113.79
5160	4.	-3.75	0.	113.73
5161	4.5	-3.75	0.	114.17
5162	4.25	-3.	0.	114.24
5163	4.	-3.25	0.	115.32
5164	3.75	-3.	0.	113.65
5165	4.	-2.75	0.	115.67
5166	4.5	-3.25	0.	113.07
5167	4.5	-2.75	0.	113.63
5168	4.25	-3.5	0.	114.15
5169	3.75	-3.5	0.	113.77
5170	3.5	-3.25	0.	112.1
5171	3.5	-2.75	0.	112.29
5172	3.75	-2.5	0.	114.31
5173	4.25	-2.5	0.	115.05
5174	-5.	-7.	0.	94.994
5175	-6.	-7.	0.	93.963
5176	-5.	-9.	0.	93.702
5177	-6.	-9.	0.	94.456
5178	-5.5	-7.	0.	107.99
5179	-5.	-7.5	0.	99.568
5180	-5.	-8.	0.	98.367
5181	-5.	-8.5	0.	98.369
5182	-6.	-7.5	0.	98.717
5183	-6.	-8.	0.	97.892
5184	-6.	-8.5	0.	98.678
5185	-5.5	-9.	0.	107.28
5186	-5.5	-7.5	0.	103.21
5187	-5.5	-8.	0.	101.34
5188	-5.5	-8.5	0.	102.95
5189	-5.25	-7.	0.	101.46
5190	-5.	-7.25	0.	97.277
5191	-5.75	-7.	0.	100.92
5192	-6.	-7.25	0.	96.337
5193	-5.	-8.75	0.	96.034
5194	-5.25	-9.	0.	100.46
5195	-6.	-8.75	0.	96.566
5196	-5.75	-9.	0.	100.84
5197	-5.5	-7.25	0.	105.54
5198	-5.	-7.75	0.	98.944
5199	-5.25	-7.5	0.	101.34
5200	-5.	-8.25	0.	98.341
5201	-5.25	-8.	0.	99.851
5202	-5.25	-8.5	0.	100.63
5203	-6.	-7.75	0.	98.264
5204	-5.75	-7.5	0.	100.92
5205	-6.	-8.25	0.	98.246
5206	-5.75	-8.	0.	99.613
5207	-5.75	-8.5	0.	100.78
5208	-5.5	-8.75	0.	105.07
5209	-5.5	-7.75	0.	102.27
5210	-5.5	-8.25	0.	102.14
5211	0.	-6.	0.	99.542
5212	-1.	-6.	0.	95.391
5213	0.	-8.	0.	96.86
5214	-1.	-8.	0.	96.699
5215	-0.5	-6.	0.	112.8
5216	0.	-6.5	0.	101.76
5217	0.	-7.	0.	100.1
5218	0.	-7.5	0.	101.05
5219	-1.	-6.5	0.	99.508
5220	-1.	-7.	0.	98.949
5221	-1.	-7.5	0.	100.78
5222	-0.5	-8.	0.	110.72
5223	-0.5	-6.5	0.	105.14
5224	-0.5	-7.	0.	102.7
5225	-0.5	-7.5	0.	105.36
5226	-0.25	-6.	0.	106.09
5227	0.	-6.25	0.	100.65
5228	-0.75	-6.	0.	104.
5229	-1.	-6.25	0.	97.41
5230	0.	-7.75	0.	98.953
5231	-0.25	-8.	0.	103.74
5232	-1.	-7.75	0.	98.734
5233	-0.75	-8.	0.	103.67
5234	-0.5	-6.25	0.	108.93
5235	0.	-6.75	0.	100.9
5236	-0.25	-6.5	0.	103.37
5237	0.	-7.25	0.	100.55
5238	-0.25	-7.	0.	101.4
5239	-0.25	-7.5	0.	103.17
5240	-1.	-6.75	0.	99.133
5241	-0.75	-6.5	0.	102.25
5242	-1.	-7.25	0.	99.821
5243	-0.75	-7.	0.	100.82
5244	-0.75	-7.5	0.	103.03
5245	-0.5	-7.75	0.	108.
5246	-0.5	-6.75	0.	103.91
5247	-0.5	-7.25	0.	104.03
5248	-2.	4.	0.	92.248
5249	-3.	4.	0.	93.098
5250	-2.	2.	0.	92.471
5251	-3.	2.	0.	90.185
5252	-2.5	4.	0.	105.93
5253	-2.	3.5	0.	96.735
5254	-2.	3.	0.	95.468
5255	-2.	2.5	0.	95.951
5256	-3.	3.5	0.	96.289
5257	-3.	3.	0.	94.88
5258	-3.	2.5	0.	95.163
5259	-2.5	2.	0.	102.51
5260	-2.5	3.5	0.	100.49
5261	-2.5	3.	0.	98.012
5262	-2.5	2.5	0.	99.135
5263	-2.25	4.	0.	99.032
5264	-2.	3.75	0.	94.485
5265	-2.75	4.	0.	99.472
5266	-3.	3.75	0.	94.691
5267	-2.	2.25	0.	94.207
5268	-2.25	2.	0.	97.475
5269	-3.	2.25	0.	92.669
5270	-2.75	2.	0.	96.322
5271	-2.5	3.75	0.	103.17
5272	-2.	3.25	0.	96.071
5273	-2.25	3.5	0.	98.565
5274	-2.	2.75	0.	95.683
5275	-2.25	3.	0.	96.738
5276	-2.25	2.5	0.	97.518
5277	-3.	3.25	0.	95.552
5278	-2.75	3.5	0.	98.336
5279	-3.	2.75	0.	94.994
5280	-2.75	3.	0.	96.444
5281	-2.75	2.5	0.	97.128
5282	-2.5	2.25	0.	100.79
5283	-2.5	3.25	0.	99.252
5284	-2.5	2.75	0.	98.573
5285	7.	-3.	0.	94.248
5286	6.	-3.	0.	100.4
5287	7.	-5.	0.	97.344
5288	6.	-5.	0.	99.499
5289	6.5	-3.	0.	111.42
5290	7.	-3.5	0.	99.373
5291	7.	-4.	0.	99.046
5292	7.	-4.5	0.	100.84
5293	6.	-3.5	0.	103.43
5294	6.	-4.	0.	102.82
5295	6.	-4.5	0.	104.25
5296	6.5	-5.	0.	112.83
5297	6.5	-3.5	0.	105.6
5298	6.5	-4.	0.	104.17
5299	6.5	-4.5	0.	107.23
5300	6.75	-3.	0.	102.77
5301	7.	-3.25	0.	96.802
5302	6.25	-3.	0.	105.86
5303	6.	-3.25	0.	101.91
5304	7.	-4.75	0.	99.09
5305	6.75	-5.	0.	105.05
5306	6.	-4.75	0.	101.87
5307	6.25	-5.	0.	106.11
5308	6.5	-3.25	0.	108.46
5309	7.	-3.75	0.	99.16
5310	6.75	-3.5	0.	102.44
5311	7.	-4.25	0.	99.892
5312	6.75	-4.	0.	101.61
5313	6.75	-4.5	0.	103.98
5314	6.	-3.75	0.	103.08
5315	6.25	-3.5	0.	104.45
5316	6.	-4.25	0.	103.52
5317	6.25	-4.	0.	103.5
5318	6.25	-4.5	0.	105.71
5319	6.5	-4.75	0.	109.99
5320	6.5	-3.75	0.	104.89
5321	6.5	-4.25	0.	105.69
