Node Number	X Location (mm)	Y Location (mm)	Z Location (mm)	Equivalent (von-Mises) Stress (MPa)
1	-1.86	7.42	0.	164.35
2	-1.49	5.99	0.	124.12
3	-0.44	7.02	0.	206.98
4	-0.18	7.43	0.	195.62
5	1.34	7.66	0.	167.98
6	0.39	8.86	0.	119.14
7	8.33	5.6	0.	173.58
8	7.39	7.13	0.	109.94
9	6.9875	5.5625	0.	108.96
10	6.54	5.55	0.	153.37
11	-2.62	-1.2	0.	179.74
12	-1.8	-2.25	0.	113.44
13	-1.31	-1.02	0.	174.26
14	3.99	-2.24	0.	161.47
15	5.76	-1.96	0.	164.38
16	4.63	-0.57	0.	119.51
17	4.3	0.73	0.	157.55
18	3.14	1.7	0.	138.92
19	2.88	0.21	0.	164.94
20	5.59	-8.26	0.	122.24
21	6.53	-7.15	0.	170.24
22	5.1	-6.89	0.	164.98
23	-6.38	-8.72	0.	116.73
24	-5.7	-7.64	0.	175.56
25	-6.97	-7.6	0.	168.29
26	-5.55	-6.61	0.	157.37
27	-5.04	-8.31	0.	117.12
28	-3.82	-7.02	0.	164.5
29	-6.	7.	0.	130.86
30	-6.	5.	0.	129.56
31	-5.	7.	0.	129.05
32	-5.	5.	0.	131.34
33	6.	5.	0.	142.4
34	6.	4.	0.	140.04
35	7.	5.	0.	125.71
36	7.	4.	0.	127.53
37	1.	6.	0.	131.22
38	1.	5.	0.	133.42
39	3.	6.	0.	136.95
40	3.	5.	0.	135.26
41	-6.	2.	0.	134.96
42	-6.	1.	0.	135.24
43	-4.	2.	0.	135.81
44	-4.	1.	0.	137.14
45	0.	-1.	0.	128.36
46	0.	-3.	0.	134.33
47	1.	-1.	0.	126.66
48	1.	-3.	0.	131.98
49	0.	1.	0.	132.76
50	0.	0.	0.	132.11
51	2.	1.	0.	137.48
52	2.	0.	0.	146.36
53	8.	-5.	0.	136.51
54	8.	-7.	0.	133.25
55	9.	-5.	0.	135.65
56	9.	-7.	0.	134.69
57	-2.	-5.	0.	136.02
58	-2.	-7.	0.	133.68
59	0.	-5.	0.	133.52
60	0.	-7.	0.	132.29
61	-8.	-5.	0.	135.14
62	-8.	-7.	0.	137.25
63	-7.	-5.	0.	131.92
64	-7.	-7.	0.	136.33
65	10.	10.	0.	124.96
66	-10.	10.	0.	125.01
67	10.	-10.	0.	129.08
68	-10.	-10.	0.	134.61
69	6.5	5.	0.	119.35
70	-5.2929	-7.4669	0.	141.35
71	-1.7367	6.9433	0.	141.1
72	-1.6133	6.4667	0.	134.61
73	-1.3867	7.2867	0.	113.17
74	-0.91333	7.1533	0.	111.42
75	-1.1398	6.3335	0.	92.254
76	-0.78985	6.6768	0.	79.84
77	0.32667	7.5067	0.	115.63
78	0.83333	7.5833	0.	107.9
79	1.e-002	7.9067	0.	132.6
80	0.2	8.3833	0.	126.94
81	1.0233	8.06	0.	95.649
82	0.70667	8.46	0.	96.898
83	8.095	5.9825	0.	120.48
84	7.86	6.365	0.	122.07
85	7.625	6.7475	0.	109.73
86	7.8825	5.5875	0.	113.31
87	7.435	5.575	0.	126.79
88	7.1775	6.735	0.	111.15
89	6.965	6.34	0.	121.17
90	6.7525	5.945	0.	118.5
91	-2.3467	-1.55	0.	97.44
92	-2.0733	-1.9	0.	91.718
93	-2.1833	-1.14	0.	104.77
94	-1.7467	-1.08	0.	111.73
95	-1.6367	-1.84	0.	119.12
96	-1.4733	-1.43	0.	134.03
97	4.4325	-2.17	0.	110.07
98	4.875	-2.1	0.	118.24
99	5.3175	-2.03	0.	108.32
100	4.15	-1.8225	0.	134.07
101	4.31	-1.405	0.	132.51
102	4.47	-0.9875	0.	125.12
103	5.4775	-1.6125	0.	102.26
104	5.195	-1.265	0.	113.27
105	4.9125	-0.9175	0.	101.7
106	3.9133	1.0533	0.	78.104
107	3.5267	1.3767	0.	88.048
108	3.8267	0.55667	0.	94.663
109	3.3533	0.38333	0.	109.48
110	3.0533	1.2033	0.	145.6
111	2.9667	0.70667	0.	148.16
112	5.9033	-7.89	0.	90.273
113	6.2167	-7.52	0.	90.538
114	5.4267	-7.8033	0.	123.74
115	5.2633	-7.3467	0.	132.82
116	6.0533	-7.0633	0.	104.41
117	5.5767	-6.9767	0.	108.44
118	-6.1533	-8.36	0.	106.79
119	-5.9267	-8.	0.	108.65
120	-6.5767	-8.3467	0.	102.85
121	-6.7733	-7.9733	0.	118.74
122	-6.1233	-7.6267	0.	119.75
123	-6.5467	-7.6133	0.	116.11
124	-5.421	-7.0401	0.	156.49
125	-5.1659	-7.8902	0.	128.39
126	-5.1175	-6.7125	0.	111.68
127	-4.685	-6.815	0.	119.77
128	-4.2525	-6.9175	0.	107.29
129	-4.735	-7.9875	0.	101.58
130	-4.4301	-7.6651	0.	111.99
131	-4.1252	-7.3427	0.	105.04
132	-6.	6.5	0.	139.29
133	-6.	6.	0.	139.64
134	-6.	5.5	0.	139.32
135	-5.5	7.	0.	105.47
136	-5.5	5.	0.	106.03
137	-5.	6.5	0.	137.94
138	-5.	6.	0.	138.92
139	-5.	5.5	0.	139.02
140	6.	4.5	0.	148.77
141	6.5	4.	0.	112.38
142	7.	4.5	0.	135.15
143	1.	5.5	0.	141.34
144	1.5	6.	0.	116.9
145	2.	6.	0.	124.23
146	2.5	6.	0.	119.27
147	1.5	5.	0.	116.78
148	2.	5.	0.	122.28
149	2.5	5.	0.	117.33
150	3.	5.5	0.	144.33
151	-6.	1.5	0.	143.61
152	-5.5	2.	0.	116.84
153	-5.	2.	0.	122.45
154	-4.5	2.	0.	118.03
155	-5.5	1.	0.	117.4
156	-5.	1.	0.	123.02
157	-4.5	1.	0.	118.63
158	-4.	1.5	0.	144.82
159	0.	-1.5	0.	136.78
160	0.	-2.	0.	139.2
161	0.	-2.5	0.	141.13
162	0.5	-1.	0.	102.62
163	0.5	-3.	0.	108.93
164	1.	-1.5	0.	136.63
165	1.	-2.	0.	138.46
166	1.	-2.5	0.	139.96
167	0.	0.5	0.	142.45
168	0.5	1.	0.	114.89
169	1.	1.	0.	120.39
170	1.5	1.	0.	115.96
171	0.5	0.	0.	111.32
172	1.	0.	0.	119.77
173	1.5	0.	0.	121.87
174	2.	0.5	0.	145.87
175	8.	-5.5	0.	146.53
176	8.	-6.	0.	147.27
177	8.	-6.5	0.	145.05
178	8.5	-5.	0.	111.2
179	8.5	-7.	0.	108.5
180	9.	-5.5	0.	146.21
181	9.	-6.	0.	146.9
182	9.	-6.5	0.	145.7
183	-2.	-5.5	0.	144.74
184	-2.	-6.	0.	145.5
185	-2.	-6.5	0.	142.82
186	-1.5	-5.	0.	113.48
187	-1.	-5.	0.	117.81
188	-0.5	-5.	0.	112.55
189	-1.5	-7.	0.	110.92
190	-1.	-7.	0.	115.12
191	-0.5	-7.	0.	110.84
192	0.	-5.5	0.	141.41
193	0.	-6.	0.	142.43
194	0.	-6.5	0.	141.16
195	-8.	-5.5	0.	144.93
196	-8.	-6.	0.	146.26
197	-8.	-6.5	0.	146.7
198	-7.5	-5.	0.	109.27
199	-7.5	-7.	0.	119.84
200	-7.	-5.5	0.	141.62
201	-7.	-6.	0.	141.28
202	-7.	-6.5	0.	138.07
203	9.5	10.	0.	124.88
204	9.	10.	0.	124.34
205	8.5	10.	0.	123.58
206	8.	10.	0.	122.91
207	7.5	10.	0.	122.59
208	7.	10.	0.	122.77
209	6.5	10.	0.	123.38
210	6.	10.	0.	124.22
211	5.5	10.	0.	125.06
212	5.	10.	0.	125.75
213	4.5	10.	0.	126.26
214	4.	10.	0.	126.64
215	3.5	10.	0.	127.01
216	3.	10.	0.	127.4
217	2.5	10.	0.	127.61
218	2.	10.	0.	126.95
219	1.5	10.	0.	124.39
220	1.	10.	0.	120.8
221	0.5	10.	0.	119.01
222	-5.2042e-015	10.	0.	120.32
223	-0.5	10.	0.	123.44
224	-1.	10.	0.	125.07
225	-1.5	10.	0.	125.42
226	-2.	10.	0.	126.01
227	-2.5	10.	0.	126.78
228	-3.	10.	0.	127.19
229	-3.5	10.	0.	126.98
230	-4.	10.	0.	126.23
231	-4.5	10.	0.	125.22
232	-5.	10.	0.	124.3
233	-5.5	10.	0.	123.77
234	-6.	10.	0.	123.71
235	-6.5	10.	0.	124.02
236	-7.	10.	0.	124.47
237	-7.5	10.	0.	124.86
238	-8.	10.	0.	125.09
239	-8.5	10.	0.	125.15
240	-9.	10.	0.	125.1
241	-9.5	10.	0.	125.03
242	10.	9.5	0.	125.18
243	10.	9.	0.	126.25
244	10.	8.5	0.	127.64
245	10.	8.	0.	128.54
246	10.	7.5	0.	128.2
247	10.	7.	0.	126.12
248	10.	6.5	0.	123.08
249	10.	6.	0.	121.31
250	10.	5.5	0.	123.47
251	10.	5.	0.	127.73
252	10.	4.5	0.	130.86
253	10.	4.	0.	131.81
254	10.	3.5	0.	131.6
255	10.	3.	0.	130.87
256	10.	2.5	0.	129.95
257	10.	2.	0.	128.93
258	10.	1.5	0.	127.9
259	10.	1.	0.	126.91
260	10.	0.5	0.	126.01
261	10.	-5.2042e-015	0.	125.24
262	10.	-0.5	0.	124.66
263	10.	-1.	0.	124.36
264	10.	-1.5	0.	124.46
265	10.	-2.	0.	125.06
266	10.	-2.5	0.	126.25
267	10.	-3.	0.	128.18
268	10.	-3.5	0.	131.09
269	10.	-4.	0.	134.93
270	10.	-4.5	0.	137.21
271	10.	-5.	0.	135.55
272	10.	-5.5	0.	132.66
273	10.	-6.	0.	132.14
274	10.	-6.5	0.	130.82
275	10.	-7.	0.	132.52
276	10.	-7.5	0.	134.03
277	10.	-8.	0.	132.75
278	10.	-8.5	0.	130.52
279	10.	-9.	0.	129.43
280	10.	-9.5	0.	129.12
281	-10.	9.5	0.	124.95
282	-10.	9.	0.	124.77
283	-10.	8.5	0.	124.53
284	-10.	8.	0.	124.27
285	-10.	7.5	0.	124.01
286	-10.	7.	0.	123.83
287	-10.	6.5	0.	123.83
288	-10.	6.	0.	124.08
289	-10.	5.5	0.	124.59
290	-10.	5.	0.	125.26
291	-10.	4.5	0.	125.93
292	-10.	4.	0.	126.42
293	-10.	3.5	0.	126.64
294	-10.	3.	0.	126.57
295	-10.	2.5	0.	126.32
296	-10.	2.	0.	126.04
297	-10.	1.5	0.	125.9
298	-10.	1.	0.	126.01
299	-10.	0.5	0.	126.37
300	-10.	-5.2042e-015	0.	126.89
301	-10.	-0.5	0.	127.5
302	-10.	-1.	0.	128.16
303	-10.	-1.5	0.	128.88
304	-10.	-2.	0.	129.7
305	-10.	-2.5	0.	130.69
306	-10.	-3.	0.	131.8
307	-10.	-3.5	0.	132.84
308	-10.	-4.	0.	133.34
309	-10.	-4.5	0.	132.8
310	-10.	-5.	0.	131.27
311	-10.	-5.5	0.	129.48
312	-10.	-6.	0.	128.3
313	-10.	-6.5	0.	128.04
314	-10.	-7.	0.	128.7
315	-10.	-7.5	0.	129.83
316	-10.	-8.	0.	131.02
317	-10.	-8.5	0.	132.19
318	-10.	-9.	0.	133.35
319	-10.	-9.5	0.	134.27
320	-9.5	-10.	0.	132.8
321	-9.	-10.	0.	131.87
322	-8.5	-10.	0.	131.22
323	-8.	-10.	0.	130.22
324	-7.5	-10.	0.	127.68
325	-7.	-10.	0.	122.61
326	-6.5	-10.	0.	117.72
327	-6.	-10.	0.	118.18
328	-5.5	-10.	0.	121.57
329	-5.	-10.	0.	123.39
330	-4.5	-10.	0.	124.96
331	-4.	-10.	0.	127.19
332	-3.5	-10.	0.	128.79
333	-3.	-10.	0.	128.67
334	-2.5	-10.	0.	126.94
335	-2.	-10.	0.	124.34
336	-1.5	-10.	0.	121.92
337	-1.	-10.	0.	120.53
338	-0.5	-10.	0.	120.53
339	5.2042e-015	-10.	0.	121.74
340	0.5	-10.	0.	123.59
341	1.	-10.	0.	125.51
342	1.5	-10.	0.	127.13
343	2.	-10.	0.	128.37
344	2.5	-10.	0.	129.29
345	3.	-10.	0.	129.92
346	3.5	-10.	0.	130.12
347	4.	-10.	0.	129.4
348	4.5	-10.	0.	127.15
349	5.	-10.	0.	123.26
350	5.5	-10.	0.	119.89
351	6.	-10.	0.	119.44
352	6.5	-10.	0.	122.08
353	7.	-10.	0.	125.09
354	7.5	-10.	0.	126.71
355	8.	-10.	0.	127.03
356	8.5	-10.	0.	127.06
357	9.	-10.	0.	127.46
358	9.5	-10.	0.	128.26
359	-4.5546	-3.5472	0.	126.8
360	-4.6022	-2.5679	0.	125.42
361	-4.584	-3.0509	0.	126.5
362	-5.9714	-2.0147	0.	122.95
363	-5.9948	-2.5178	0.	123.4
364	5.0422	-4.0229	0.	120.16
365	-0.95597	3.4303	0.	125.85
366	-4.0881	-2.5239	0.	127.17
367	-5.5227	-3.0471	0.	124.61
368	-5.0354	-3.5621	0.	125.75
369	2.5572	-6.0175	0.	126.32
370	2.0436	-6.0126	0.	126.08
371	2.5362	-5.5249	0.	127.32
372	-1.9768	3.493	0.	127.93
373	-1.4819	2.9626	0.	126.97
374	3.0475	-5.5264	0.	127.52
375	-2.188	4.1101	0.	128.27
376	-4.8539	-2.1034	0.	123.49
377	-5.4437	-1.5294	0.	121.94
378	-6.4855	-2.0066	0.	123.35
379	-4.5238	-4.0633	0.	126.22
380	3.0059	-4.5631	0.	129.22
381	-4.0695	-3.5199	0.	128.36
382	-1.4523	3.4341	0.	126.54
383	-1.9234	4.411	0.	126.58
384	-4.1435	-3.0393	0.	127.95
385	3.515	-4.5627	0.	127.41
386	5.0553	-4.5141	0.	120.9
387	-4.491	-4.6022	0.	124.68
388	-6.4819	-1.5069	0.	123.67
389	-5.9666	-1.5154	0.	122.66
390	6.5256	0.42896	0.	127.11
391	6.5257	0.93709	0.	125.52
392	6.496	-0.5652	0.	130.89
393	-4.4292	-5.1888	0.	122.56
394	-4.9149	-1.5381	0.	121.9
395	-4.9661	-1.007	0.	120.9
396	2.5195	-5.038	0.	128.62
397	2.0292	-5.5218	0.	127.03
398	-5.5196	-3.5556	0.	125.27
399	-3.5774	-2.3174	0.	129.01
400	-5.0146	-4.0774	0.	125.28
401	-4.282	-1.9934	0.	124.36
402	2.0604	-6.5079	0.	125.72
403	2.5808	-6.5138	0.	125.68
404	-0.92788	3.8941	0.	125.04
405	4.9857	-3.5378	0.	118.35
406	-3.5948	5.9962	0.	128.01
407	1.5319	-6.0108	0.	126.25
408	-4.995	-0.49401	0.	119.9
409	-3.5576	-3.4402	0.	129.78
410	5.11	6.8467	0.	127.52
411	4.5197	-4.0599	0.	121.
412	2.9935	-4.0879	0.	130.39
413	7.0133	1.4663	0.	124.91
414	7.0155	0.9583	0.	125.81
415	7.0109	0.45079	0.	127.02
416	6.9907	-0.54763	0.	128.82
417	-3.1432	4.0778	0.	130.56
418	-3.1294	6.44	0.	126.98
419	-6.0077	-3.0307	0.	124.
420	-3.9701	-5.4668	0.	125.8
421	-4.035	-4.0246	0.	127.99
422	-0.4698	3.4518	0.	125.57
423	6.0766	-4.1126	0.	125.49
424	-5.4666	-1.0169	0.	121.25
425	-6.4948	-2.5101	0.	123.23
426	-6.9963	-2.5051	0.	123.27
427	-6.9922	-2.0035	0.	123.88
428	-6.9902	-1.5033	0.	124.6
429	-6.9911	-1.0035	0.	125.58
430	6.0031	-0.59428	0.	131.73
431	6.0005	1.4186	0.	125.11
432	6.0343	0.89956	0.	124.8
433	6.0493	0.38933	0.	126.65
434	-6.4839	-1.0078	0.	124.36
435	-5.9749	-1.0129	0.	122.68
436	-2.0041	1.9996	0.	125.87
437	6.0569	-4.5494	0.	123.74
438	0.50476	2.9913	0.	122.87
439	1.0017	3.0003	0.	122.06
440	-3.9539	-5.0169	0.	126.55
441	1.0522e-002	2.9803	0.	124.23
442	-6.5013	-3.0184	0.	123.28
443	-6.9992	-3.0091	0.	122.62
444	5.0665	-5.0069	0.	120.94
445	3.1003	-6.5182	0.	125.86
446	-3.1929	5.1399	0.	130.72
447	-3.0004	4.627	0.	130.88
448	6.0412	-3.719	0.	126.62
449	6.5039	-3.637	0.	129.55
450	3.4991	-4.0929	0.	127.89
451	4.008	-4.0826	0.	124.25
452	2.0001	3.5174	0.	120.8
453	4.4876	7.5334	0.	127.14
454	-3.7469	-2.9447	0.	129.26
455	3.2244	-1.3908	0.	125.41
456	4.1358	2.1662	0.	127.88
457	-1.3826	4.2682	0.	124.23
458	-0.94464	4.3562	0.	123.59
459	2.0726	-7.0032	0.	125.96
460	-2.0761	0.57245	0.	120.95
461	-4.3984	-1.4806	0.	122.59
462	-4.4675	-0.97052	0.	121.94
463	1.9999	4.0115	0.	118.32
464	1.0211	-6.0076	0.	127.71
465	-4.0568	5.9937	0.	128.81
466	-2.6684	6.4697	0.	129.04
467	4.9316	-3.0558	0.	115.12
468	-4.5488	-5.7626	0.	118.68
469	-3.0706	-2.1784	0.	132.1
470	1.0009	2.5021	0.	120.85
471	6.9869	-3.5663	0.	130.18
472	7.5091	1.4775	0.	125.33
473	7.5081	0.97143	0.	126.
474	7.5037	0.46683	0.	126.74
475	7.4951	-3.5349e-002	0.	127.32
476	7.4969	-0.53095	0.	127.35
477	7.4963	-1.0268	0.	126.73
478	7.5188	-1.5132	0.	125.98
479	7.5459	-1.9905	0.	126.09
480	7.564	-2.4531	0.	126.74
481	7.4261	-2.9426	0.	128.15
482	-5.5081	-4.0674	0.	125.43
483	2.0137	-5.0292	0.	128.55
484	2.0016	-4.5383	0.	130.38
485	1.5222	-5.5175	0.	126.97
486	-4.9816	-5.139	0.	120.9
487	-2.0359	1.0358	0.	122.56
488	5.5419	6.6248	0.	127.12
489	2.6232	-2.1946	0.	127.07
490	-4.5035	-0.46797	0.	121.79
491	-2.1563	0.157	0.	119.33
492	-5.4875	-0.50654	0.	120.63
493	-2.4964	2.9604	0.	129.44
494	-2.5182	1.5297	0.	124.94
495	7.01	1.9731	0.	124.11
496	7.5084	1.9846	0.	124.79
497	4.5401	3.0448	0.	131.13
498	6.5137	2.4733	0.	123.38
499	5.0483	2.525	0.	132.47
500	6.5739	-5.4879	0.	125.5
501	-0.46021	3.9332	0.	125.53
502	1.5011	3.5071	0.	121.1
503	1.9957e-002	3.4691	0.	125.28
504	4.015	7.52	0.	126.57
505	2.5033	3.5333	0.	121.81
506	4.0223	3.5413	0.	128.6
507	4.9216	6.3875	0.	127.4
508	-3.5493	-3.9947	0.	129.66
509	1.5422	-6.5057	0.	126.18
510	3.7312	-7.5918	0.	125.33
511	3.1716	-7.524	0.	125.41
512	2.6102	-7.5064	0.	125.97
513	2.0747	-7.4988	0.	126.57
514	2.4937	-4.0691	0.	131.7
515	-0.99218	2.471	0.	126.64
516	0.50198	2.4942	0.	121.24
517	-1.5026	1.9852	0.	126.11
518	-6.0091	-3.5393	0.	124.87
519	-7.5	-3.5047	0.	121.35
520	-7.4958	-2.0016	0.	124.59
521	-7.4947	-1.5015	0.	125.39
522	-7.494	-1.0023	0.	126.27
523	-7.4956	-0.50222	0.	127.2
524	-7.5001	3.5	0.	129.53
525	-7.5001	6.	0.	126.74
526	-3.5956	6.4689	0.	126.58
527	-5.0027	3.0021	0.	117.54
528	-3.5246	5.5121	0.	129.51
529	-3.5565	4.0409	0.	130.11
530	-7.5002	4.	0.	129.49
531	-5.5033	3.5007	0.	118.13
532	-7.0002	3.5	0.	129.2
533	4.0665	-5.5006	0.	127.34
534	5.5923	-5.5142	0.	117.23
535	3.5811	-6.0039	0.	127.65
536	-3.1458	6.9419	0.	125.84
537	-2.2454	4.6809	0.	128.86
538	6.9016	-3.0782	0.	130.65
539	5.4741	-3.4548	0.	122.09
540	7.0013	-1.0381	0.	128.03
541	7.139	-2.4817	0.	128.38
542	2.6665	-1.7872	0.	126.27
543	4.488	-3.5855	0.	119.16
544	2.991	-3.6133	0.	131.64
545	-3.4761	-5.5676	0.	130.48
546	4.0373	3.07	0.	127.28
547	5.5179	1.9503	0.	128.92
548	1.5016	3.0101	0.	122.44
549	8.451	6.7799	0.	131.06
550	-3.0869	-3.5639	0.	129.45
551	-0.78742	8.107	0.	121.33
552	-3.351	-2.7127	0.	130.73
553	-3.1689	-3.1483	0.	129.68
554	4.5035	8.0046	0.	126.33
555	5.0009	7.9596	0.	127.01
556	5.516	7.8685	0.	127.53
557	6.0277	8.164	0.	126.46
558	5.9034	7.7659	0.	127.42
559	5.8807	7.3821	0.	128.19
560	2.5081	3.0459	0.	124.11
561	2.0063	3.0225	0.	123.71
562	5.0428	2.0358	0.	131.71
563	4.5797	2.1124	0.	132.1
564	3.5292	3.0795	0.	123.95
565	3.0176	3.0964	0.	123.36
566	-3.9791	-0.9141	0.	124.59
567	-3.8968	-1.398	0.	123.28
568	-3.1058	-5.8614	0.	133.49
569	3.4905	-3.6233	0.	129.05
570	7.0585	-2.0138	0.	126.67
571	5.9426	-3.3115	0.	127.81
572	-1.5241	4.6927	0.	122.86
573	-1.0065	4.814	0.	120.98
574	-2.814	5.4238	0.	131.83
575	-2.5604	5.004	0.	131.15
576	-3.1535	7.4329	0.	126.82
577	3.6134	-6.5094	0.	126.7
578	3.6623	-7.0323	0.	124.77
579	4.5759	-5.4924	0.	125.25
580	-7.5001	5.	0.	128.18
581	-7.5003	4.5	0.	129.1
582	-3.6002	5.0203	0.	130.05
583	-3.6126	7.4623	0.	126.81
584	-7.5007	7.4999	0.	127.13
585	-7.5004	6.9999	0.	126.82
586	-7.001	-3.5119	0.	121.83
587	-0.49362	2.4763	0.	125.65
588	-1.7162	-3.9002	0.	120.28
589	2.5079	-3.1039	0.	131.87
590	1.5501	-7.4967	0.	127.4
591	1.5492	-7.0012	0.	126.65
592	-3.519	-4.5081	0.	129.65
593	-3.4896	-5.02	0.	129.44
594	3.0102	3.5525	0.	123.72
595	3.5182	3.5546	0.	126.1
596	3.5301	7.5285	0.	125.18
597	3.0797	7.5603	0.	123.17
598	4.5032	6.5148	0.	127.91
599	1.0051	3.4974	0.	122.62
600	6.5536	-5.0184	0.	125.91
601	4.4686	5.0146	0.	128.63
602	5.529	2.4863	0.	130.21
603	6.0194	2.4705	0.	126.43
604	4.512	4.0295	0.	130.64
605	4.5241	3.5341	0.	131.14
606	7.009	2.4821	0.	122.98
607	7.5063	2.4917	0.	124.4
608	-4.018	3.5144	0.	126.88
609	-2.5073	2.01	0.	126.61
610	-2.5015	2.4907	0.	128.5
611	-7.5	2.5	0.	128.63
612	-7.5	1.9999	0.	127.32
613	-6.5007	3.5	0.	126.52
614	-6.4897	-0.5063	0.	125.6
615	-5.9876	-0.50811	0.	123.1
616	-7.4989	0.49898	0.	127.82
617	-2.5375	1.0565	0.	124.26
618	-2.6116	0.14788	0.	125.85
619	-4.0185	-0.42834	0.	126.04
620	2.6632	7.5525	0.	121.28
621	2.5876	8.0229	0.	121.02
622	2.1442	-1.9855	0.	127.6
623	6.001	6.4831	0.	126.36
624	4.0674	2.6106	0.	126.44
625	-1.5653	0.50271	0.	121.28
626	-2.2013	-0.25156	0.	117.67
627	-5.038	-5.6732	0.	117.35
628	3.1644	-1.7928	0.	124.54
629	5.3954	-2.9754	0.	121.
630	-2.5918	6.0575	0.	131.55
631	-1.2326	8.1772	0.	112.56
632	6.622	-5.9287	0.	127.51
633	7.0718	-5.9565	0.	134.43
634	5.6185	-6.0117	0.	111.85
635	-7.0001	5.5	0.	128.17
636	-4.0654	6.4862	0.	127.24
637	0.49945	1.9962	0.	119.07
638	1.0162	-5.5119	0.	127.51
639	2.502	4.0209	0.	120.01
640	-4.516	2.7171e-002	0.	120.9
641	7.0944	-8.0143	0.	132.21
642	1.5128	-5.022	0.	128.16
643	1.5045	-4.5251	0.	129.59
644	-5.4968	-4.5804	0.	124.62
645	-3.1429	-7.9097	0.	131.93
646	-0.49588	-7.9999	0.	115.4
647	1.544	-7.9947	0.	127.71
648	2.0615	-7.9961	0.	127.28
649	2.5793	-8.0036	0.	126.94
650	3.0885	-8.0234	0.	126.82
651	3.5595	-8.0686	0.	127.17
652	-2.6827	7.8684	0.	131.96
653	-7.5011	8.	0.	126.86
654	7.4791	-3.4974	0.	128.37
655	0.99885	2.0026	0.	118.47
656	8.0046	2.5005	0.	125.87
657	8.0059	1.9932	0.	125.77
658	8.0013	0.47938	0.	126.56
659	7.9984	-2.1661e-002	0.	126.73
660	7.9961	-0.51999	0.	126.59
661	8.0282	-1.9965	0.	125.62
662	8.0231	-2.4917	0.	125.8
663	7.9805	-2.9872	0.	125.86
664	7.9846	-3.4909	0.	125.36
665	3.5548	-0.48893	0.	119.2
666	-7.9977	-2.0007	0.	125.54
667	-7.9971	-1.5007	0.	126.13
668	-7.9969	-1.0009	0.	126.72
669	-7.9972	-0.5011	0.	127.22
670	-7.9989	0.49919	0.	127.22
671	-8.	3.5	0.	128.89
672	-8.0004	7.5	0.	126.37
673	2.6798	-1.3126	0.	127.45
674	-2.6438	-3.5133	0.	126.6
675	6.0357	-0.11123	0.	129.82
676	5.5797	0.30975	0.	125.72
677	6.1996	6.9012	0.	128.
678	6.4719	8.1595	0.	124.76
679	1.501	2.5125	0.	123.04
680	5.4428	1.3701	0.	125.88
681	-1.7577	-4.5074e-002	0.	116.43
682	-3.5436	-0.38165	0.	132.06
683	-5.4986	-5.0937	0.	122.89
684	-4.0886	-5.9289	0.	125.
685	-2.8316	-6.4438	0.	133.95
686	4.4586	-3.1117	0.	116.13
687	3.0029	-3.142	0.	132.77
688	6.7317	-2.5999	0.	131.72
689	-0.56602	5.4141	0.	123.44
690	-1.8948	4.9524	0.	126.54
691	-2.6746	6.9209	0.	125.85
692	-2.6577	8.3193	0.	131.27
693	6.1646	-6.0691	0.	117.03
694	4.2754	-7.4866	0.	124.81
695	-5.5053	4.0008	0.	115.92
696	-7.0005	4.	0.	129.46
697	-4.0388	5.5042	0.	128.97
698	-4.0329	4.0187	0.	128.53
699	-4.0692	7.9847	0.	127.
700	-7.0037	7.9999	0.	127.18
701	-7.5002	-4.0046	0.	118.52
702	-6.0043	-4.046	0.	126.16
703	-1.0605	0.38813	0.	125.24
704	-1.0011	1.9765	0.	127.11
705	1.9966	-4.0464	0.	132.27
706	1.0269	-6.5044	0.	127.24
707	1.0304	-7.996	0.	127.98
708	-0.91213	-3.9624	0.	118.59
709	-3.0027	-5.4503	0.	132.1
710	-3.0696	-4.0177	0.	130.46
711	-1.5109	-8.004	0.	116.28
712	4.0151	5.5122	0.	127.05
713	4.0121	4.0301	0.	129.82
714	4.0346	7.0233	0.	128.34
715	-4.8928e-002	5.4513	0.	125.97
716	1.5011	4.0042	0.	119.47
717	2.1138e-002	3.9627	0.	126.61
718	7.0544	-5.483	0.	131.24
719	7.0208	-4.0473	0.	130.47
720	4.9928	4.5679	0.	130.59
721	5.3272	6.1714	0.	127.1
722	6.512	2.9863	0.	120.67
723	7.963	4.5482	0.	120.41
724	8.0023	3.0102	0.	126.32
725	-4.5052	3.0053	0.	120.58
726	-3.0066	3.0006	0.	131.08
727	-7.	1.4998	0.	126.42
728	-7.0001	3.	0.	129.77
729	-5.5003	-3.838e-004	0.	119.72
730	-6.9963	-3.0683e-003	0.	128.54
731	-3.0171	1.5322	0.	126.09
732	-3.0764	0.12341	0.	131.84
733	2.1201	7.9741	0.	122.99
734	2.3924	6.9842	0.	122.91
735	9.1307	5.1139	0.	133.54
736	1.9005	6.9194	0.	126.05
737	2.2483	7.4729	0.	120.99
738	-3.5488	9.0185e-002	0.	132.47
739	-3.0543	0.58659	0.	129.74
740	-3.0321	1.0551	0.	127.42
741	-6.9997	0.99925	0.	128.03
742	-6.9986	0.49815	0.	129.27
743	-6.4947	-4.5029e-003	0.	127.85
744	-5.9963	-3.9639e-003	0.	123.94
745	-6.0006	3.0001	0.	123.18
746	-6.5003	3.	0.	128.23
747	-7.0001	2.5	0.	129.87
748	-7.	1.9999	0.	128.26
749	-3.0089	2.0161	0.	128.6
750	-3.0056	2.5051	0.	130.75
751	-4.0081	3.0101	0.	126.15
752	7.0079	2.9915	0.	121.22
753	7.5048	3.0004	0.	124.71
754	7.9879	4.0344	0.	123.81
755	5.0086	4.0367	0.	132.41
756	5.0213	3.5249	0.	133.65
757	5.5251	3.0028	0.	132.14
758	6.0173	2.9882	0.	126.13
759	4.9484	5.1503	0.	130.16
760	7.5401	-8.045	0.	128.61
761	8.0024	-8.0128	0.	122.92
762	7.9996	-3.9979	0.	124.33
763	7.506	-4.0091	0.	129.52
764	7.0334	-4.5277	0.	130.83
765	7.0419	-5.0069	0.	130.64
766	9.9932e-003	4.4565	0.	127.4
767	1.0049	3.9953	0.	123.16
768	0.94696	6.7799	0.	117.19
769	0.48466	6.7034	0.	114.79
770	-8.5392e-002	5.9442	0.	129.17
771	4.0205	6.5169	0.	129.33
772	3.4949	7.0287	0.	127.88
773	2.9282	7.0626	0.	124.12
774	3.0062	4.0313	0.	124.36
775	3.5101	4.0352	0.	128.47
776	3.9947	5.0166	0.	128.82
777	-3.012	-7.4197	0.	131.29
778	-2.0269	-8.0048	0.	122.99
779	-2.1341	-3.9609	0.	124.22
780	-2.5953	-4.0022	0.	128.9
781	-3.0082	-4.9948	0.	132.08
782	0.51759	-4.0061	0.	122.58
783	1.068e-002	-7.9985	0.	121.21
784	0.52032	-7.9973	0.	126.55
785	1.0323	-7.4974	0.	128.63
786	1.0308	-7.0005	0.	128.05
787	1.0084	-4.0137	0.	126.49
788	1.5018	-4.0271	0.	131.07
789	2.0122	-3.0526	0.	131.99
790	-0.88005	-3.4561	0.	123.69
791	3.2043e-002	-3.9999	0.	121.66
792	-4.4358e-004	1.9884	0.	123.05
793	-0.50056	1.9785	0.	126.82
794	-1.0259	0.95151	0.	125.24
795	-6.0036	-5.0471	0.	126.66
796	-5.9994	-4.5488	0.	126.91
797	-7.0007	-4.0118	0.	120.87
798	-4.0756	7.4809	0.	127.37
799	-5.0119	4.0029	0.	119.07
800	-4.5202	4.0076	0.	125.08
801	-7.0003	5.0001	0.	129.12
802	-6.0031	4.0003	0.	120.22
803	4.5937	-5.9751	0.	129.26
804	7.0594	-6.429	0.	138.64
805	-1.6948	8.2305	0.	118.26
806	-2.1682	8.2686	0.	128.75
807	-2.6937	7.3975	0.	129.31
808	-2.3741	5.6707	0.	133.6
809	-2.1345	5.2905	0.	131.21
810	-1.5048	5.1433	0.	119.08
811	-1.0544	5.2807	0.	118.53
812	6.2981	-2.7514	0.	134.35
813	6.5603	-2.0831	0.	129.04
814	6.5484	-1.5464	0.	127.23
815	3.0372	-2.6771	0.	131.5
816	3.9785	-3.1475	0.	124.47
817	-2.9114	-6.9208	0.	129.81
818	-3.2349	-6.2899	0.	135.35
819	-3.6407	-6.0848	0.	131.67
820	-5.538	-5.6105	0.	121.89
821	-6.03	-5.5302	0.	127.4
822	-2.632	-0.29581	0.	127.68
823	-3.0798	-0.33507	0.	134.86
824	-3.5062	-0.85078	0.	128.25
825	-3.4195	-1.3134	0.	126.44
826	-0.89367	-8.1649e-002	0.	133.41
827	-1.31	-8.6625e-002	0.	125.54
828	3.5462	2.6016	0.	120.66
829	2.5357	2.5327	0.	129.62
830	4.5603	1.657	0.	131.73
831	2.0052	2.5251	0.	127.12
832	6.4167	7.7307	0.	126.86
833	6.3442	7.3127	0.	126.85
834	7.9578	8.1033	0.	122.22
835	7.4599	8.1161	0.	119.23
836	5.5523	0.81798	0.	123.1
837	5.125	0.64401	0.	122.17
838	5.1204	0.15828	0.	124.26
839	-2.8686	-2.5955	0.	129.61
840	-2.2004	-3.4469	0.	121.62
841	-1.7606	-3.3868	0.	119.05
842	-1.3224	-3.4039	0.	120.4
843	5.7956	6.0419	0.	124.67
844	2.1065	-1.4329	0.	128.07
845	-4.0732	-8.5117	0.	127.66
846	-3.6049	-8.3517	0.	131.14
847	-1.5097	-8.5001	0.	118.7
848	-1.0005	-8.5008	0.	116.45
849	-0.49483	-8.4996	0.	117.57
850	1.0833e-002	-8.4983	0.	121.08
851	0.51712	-8.4972	0.	124.65
852	1.0248	-8.496	0.	126.8
853	1.5333	-8.4948	0.	127.6
854	2.0424	-8.4962	0.	127.84
855	2.5489	-8.5036	0.	127.98
856	3.0501	-8.5196	0.	128.27
857	3.5486	-8.5369	0.	128.8
858	4.0553	-8.5275	0.	129.86
859	4.5967	-8.4899	0.	130.92
860	-1.1474	8.6302	0.	120.53
861	-1.6219	8.6672	0.	120.44
862	-2.0914	8.6968	0.	125.09
863	-2.5432	8.7386	0.	128.04
864	-4.0463	8.4881	0.	126.34
865	-4.533	8.4961	0.	124.32
866	-5.0223	8.4992	0.	121.78
867	-5.5146	8.5	0.	120.55
868	-6.0093	8.5002	0.	122.01
869	-6.5059	8.5002	0.	124.45
870	-7.0037	8.5002	0.	125.92
871	-7.502	8.5001	0.	126.18
872	-8.001	8.5	0.	125.95
873	-7.9086	-8.0502	0.	119.92
874	3.0574	-0.64661	0.	125.56
875	8.4499	4.5741	0.	128.43
876	8.4848	4.0544	0.	126.82
877	8.4949	3.5349	0.	127.
878	8.5	3.0185	0.	127.13
879	8.5024	2.5074	0.	126.9
880	8.5035	1.9994	0.	126.65
881	8.5035	1.4941	0.	126.52
882	8.5024	0.99061	0.	126.5
883	8.5001	0.48882	0.	126.5
884	8.4984	-1.1613e-002	0.	126.42
885	8.4981	-0.51085	0.	126.21
886	8.5084	-1.5051	0.	125.64
887	8.5151	-2.0011	0.	125.53
888	8.5117	-2.5001	0.	125.41
889	8.4964	-2.998	0.	124.93
890	8.4932	-3.496	0.	123.6
891	8.4982	-3.9975	0.	120.67
892	2.0191	8.476	0.	126.31
893	2.5329	8.5076	0.	123.87
894	3.0288	8.5206	0.	123.17
895	3.5204	8.5179	0.	123.93
896	4.0144	8.5099	0.	124.91
897	4.5097	8.4959	0.	125.74
898	5.0069	8.4702	0.	126.28
899	5.5007	8.452	0.	126.41
900	5.9876	8.5597	0.	125.68
901	6.4812	8.6017	0.	124.08
902	6.9741	8.6006	0.	122.11
903	7.4751	8.5864	0.	121.25
904	7.9829	8.5688	0.	122.84
905	8.4922	8.5457	0.	125.03
906	2.5636	-0.83933	0.	133.28
907	-8.0001	-4.0017	0.	122.99
908	-7.4878	-8.5912	0.	126.49
909	-7.9697	-8.5406	0.	127.12
910	-8.4765	-8.5178	0.	128.23
911	-8.4558	-8.022	0.	128.1
912	-8.5001	-4.0006	0.	128.96
913	-8.4995	-3.0005	0.	126.54
914	-8.4991	-2.5004	0.	126.5
915	-8.4987	-2.0003	0.	126.66
916	-8.4984	-1.5003	0.	126.9
917	-8.4983	-1.0004	0.	127.13
918	-8.4982	-0.50062	0.	127.28
919	-8.4985	-6.7487e-004	0.	127.24
920	-8.499	0.49941	0.	127.01
921	-8.4995	0.99958	0.	126.73
922	-8.4998	1.4998	0.	126.65
923	-8.5	1.9999	0.	126.92
924	-8.5	2.4999	0.	127.42
925	-8.5	3.	0.	127.86
926	-8.5	3.5	0.	128.05
927	-8.5	4.	0.	127.93
928	-8.5	5.	0.	126.88
929	-8.5	5.5	0.	126.25
930	-8.5	6.	0.	125.81
931	-8.5	6.5	0.	125.63
932	-8.5001	7.	0.	125.67
933	-8.5002	7.5	0.	125.77
934	-8.5003	8.	0.	125.76
935	-8.5005	8.5	0.	125.58
936	-0.67584	8.5797	0.	127.2
937	8.4975	-8.0035	0.	119.44
938	8.5052	-8.5043	0.	123.44
939	8.0154	-8.5114	0.	125.21
940	7.5307	-8.5172	0.	128.54
941	7.0615	-8.4989	0.	131.02
942	6.6022	-8.4633	0.	127.88
943	-1.3206	-2.896	0.	122.91
944	-2.2585	-2.9372	0.	118.8
945	6.9177	7.6837	0.	121.4
946	7.4232	7.6417	0.	113.84
947	5.6042	-8.5526	0.	106.84
948	2.4054	2.0167	0.	135.54
949	4.6787	-9.6495e-003	0.	128.26
950	4.7244	0.5742	0.	124.93
951	4.9312	1.0747	0.	125.
952	2.964	2.3402	0.	124.26
953	-5.0374	-8.7112	0.	117.98
954	-2.5088e-002	9.0012	0.	137.91
955	-0.56709	9.0487	0.	128.62
956	-1.0719	9.0836	0.	124.51
957	-1.561	9.1089	0.	123.06
958	-2.0374	9.126	0.	124.73
959	-2.4995	9.1263	0.	126.55
960	-2.9745	8.9567	0.	127.7
961	-3.5118	8.9778	0.	127.02
962	-4.0196	8.991	0.	125.96
963	-5.5089	9.0004	0.	122.67
964	-6.0058	9.0004	0.	123.18
965	-6.5036	9.0003	0.	124.3
966	-7.0022	9.0002	0.	125.15
967	-7.5012	9.0001	0.	125.49
968	-8.0007	9.0001	0.	125.48
969	-8.5003	9.	0.	125.33
970	-8.9856	-8.5075	0.	130.44
971	-8.9776	-8.0101	0.	130.8
972	-8.9806	-7.5109	0.	132.07
973	-8.9898	-7.0085	0.	132.72
974	-8.9958	-6.5053	0.	132.9
975	-8.9985	-6.0029	0.	133.64
976	-8.9995	-5.5015	0.	132.95
977	-8.9999	-5.0008	0.	133.01
978	-9.	-4.5005	0.	132.64
979	-9.	-4.0003	0.	131.16
980	-9.	-3.5002	0.	129.52
981	-8.9998	-3.0002	0.	128.56
982	-8.9995	-2.5001	0.	128.07
983	-8.9993	-2.0001	0.	127.81
984	-8.9992	-1.5001	0.	127.66
985	-8.9991	-1.0002	0.	127.54
986	-8.9991	-0.50023	0.	127.4
987	-8.999	-3.4716e-004	0.	127.19
988	-8.9993	0.4996	0.	126.92
989	-8.9998	1.4998	0.	126.62
990	-8.9999	1.9999	0.	126.75
991	-9.	2.5	0.	127.
992	-9.	3.	0.	127.23
993	-9.	3.5	0.	127.3
994	-9.	4.	0.	127.16
995	-9.	4.5	0.	126.8
996	-9.	5.	0.	126.32
997	-9.	5.5	0.	125.82
998	-9.	7.	0.	125.21
999	-9.0001	7.5	0.	125.25
1000	-9.0001	8.	0.	125.26
1001	-9.0003	8.5	0.	125.21
1002	-9.0002	9.	0.	125.13
1003	9.0012	-8.5011	0.	124.94
1004	9.0016	-9.0011	0.	126.39
1005	8.5043	-9.0032	0.	125.69
1006	8.0099	-9.0064	0.	126.48
1007	7.518	-9.0061	0.	127.96
1008	7.031	-8.9932	0.	127.93
1009	6.5493	-8.9615	0.	125.55
1010	6.0759	-8.8963	0.	117.11
1011	5.5744	-8.9987	0.	116.53
1012	5.0603	-9.0443	0.	124.37
1013	4.0439	-9.016	0.	130.03
1014	3.5361	-9.0192	0.	129.8
1015	3.0319	-9.0121	0.	129.27
1016	2.5291	-9.0029	0.	128.75
1017	2.0257	-8.9976	0.	128.18
1018	1.5213	-8.9962	0.	127.36
1019	1.0169	-8.9969	0.	126.02
1020	0.51261	-8.9977	0.	123.92
1021	9.6005e-003	-8.9987	0.	121.33
1022	-0.49398	-8.9995	0.	119.21
1023	-0.9973	-8.9999	0.	118.76
1024	-1.5037	-8.9986	0.	120.5
1025	-2.0154	-8.9901	0.	123.87
1026	-2.532	-8.9609	0.	127.62
1027	-3.0392	-8.937	0.	130.07
1028	-3.5394	-8.9353	0.	130.25
1029	-4.0282	-9.0045	0.	127.52
1030	-4.5207	-9.0799	0.	122.7
1031	-5.0176	-9.1287	0.	122.6
1032	-5.5171	-9.1495	0.	126.91
1033	-6.0245	-9.1339	0.	120.11
1034	-6.5631	-9.0274	0.	115.71
1035	-7.0438	-9.0812	0.	127.69
1036	-7.5119	-9.054	0.	129.48
1037	-7.9986	-9.0297	0.	129.37
1038	-8.4938	-9.0137	0.	130.04
1039	-8.9944	-9.0057	0.	131.01
1040	-0.88511	-0.54474	0.	146.25
1041	-3.0531	-0.79025	0.	141.11
1042	-6.083	-5.9689	0.	130.79
1043	-3.339	-6.7581	0.	136.11
1044	3.5138	-2.6946	0.	138.02
1045	6.1809	-2.3412	0.	139.72
1046	8.7579	5.1279	0.	140.51
1047	-1.6786	5.5171	0.	124.29
1048	-2.2216	7.8329	0.	142.29
1049	4.6132	-6.4573	0.	138.17
1050	-6.5013	4.5002	0.	130.03
1051	-4.525	4.507	0.	129.66
1052	-4.5468	7.493	0.	128.16
1053	-6.5036	7.4997	0.	129.21
1054	-8.4667	-7.5201	0.	132.49
1055	-6.5004	-4.524	0.	129.46
1056	-8.5001	-4.5006	0.	133.4
1057	-0.50786	1.4759	0.	130.13
1058	-0.42882	-3.4904	0.	127.67
1059	1.5024	-3.5256	0.	133.89
1060	-0.44135	-0.52399	0.	140.58
1061	0.51893	-7.4982	0.	130.21
1062	0.51145	-4.507	0.	129.07
1063	-2.5428	-4.4986	0.	133.32
1064	-2.5157	-7.4902	0.	130.95
1065	3.5038	4.5205	0.	132.19
1066	3.4984	6.5223	0.	132.36
1067	0.5153	6.3328	0.	123.67
1068	0.50395	4.4799	0.	130.33
1069	0.51448	9.0751	0.	108.76
1070	1.0469	8.8721	0.	128.89
1071	1.5314	8.9763	0.	128.88
1072	2.014	8.9831	0.	128.56
1073	2.5139	9.0009	0.	125.6
1074	3.5127	9.01	0.	124.65
1075	4.0105	9.005	0.	125.09
1076	4.507	8.9961	0.	125.49
1077	5.0029	8.9858	0.	125.7
1078	5.4956	8.9896	0.	125.59
1079	5.9883	9.0301	0.	124.99
1080	6.4859	9.0575	0.	123.99
1081	6.986	9.0624	0.	122.95
1082	7.4892	9.0549	0.	122.62
1083	7.9931	9.0429	0.	123.29
1084	8.4981	9.0274	0.	124.44
1085	9.0015	9.0155	0.	125.38
1086	8.9998	8.5277	0.	126.34
1087	8.9946	8.044	0.	127.68
1088	8.9889	7.5634	0.	129.14
1089	8.9761	7.0758	0.	130.53
1090	8.9261	6.5471	0.	131.6
1091	9.0709	6.052	0.	127.5
1092	9.1125	5.586	0.	130.84
1093	8.9688	4.6397	0.	132.61
1094	8.9859	4.071	0.	129.35
1095	9.0017	1.498	0.	127.05
1096	9.0011	0.99567	0.	126.74
1097	8.9999	0.49457	0.	126.47
1098	8.9991	-5.5524e-003	0.	126.21
1099	8.9996	-0.50496	0.	125.95
1100	9.0018	-1.004	0.	125.74
1101	9.0056	-1.5028	0.	125.64
1102	9.0085	-2.0019	0.	125.68
1103	9.0065	-2.5014	0.	125.77
1104	8.998	-3.4995	0.	125.06
1105	8.9989	-3.999	0.	124.08
1106	7.5185	-4.5076	0.	133.53
1107	7.3917	-7.5618	0.	131.22
1108	8.9982	-8.0009	0.	123.07
1109	5.6098	5.5701	0.	132.15
1110	5.5151	3.5139	0.	136.27
1111	7.5009	3.5088	0.	126.94
1112	-3.5063	2.5105	0.	133.51
1113	-6.5001	2.5	0.	131.86
1114	-6.4985	0.49752	0.	131.77
1115	-3.5372	0.56192	0.	134.83
1116	1.8018	7.3915	0.	131.57
1117	-0.22119	8.5047	0.	128.83
1118	1.6651	7.9017	0.	122.01
1119	1.4417	8.4475	0.	136.33
1120	1.3542	7.2695	0.	136.37
1121	0.87897	7.1795	0.	108.66
1122	-0.10498	6.9211	0.	119.83
1123	0.38822	7.0768	0.	111.62
1124	-4.0225	0.53281	0.	127.8
1125	-4.5132	0.51603	0.	118.35
1126	-5.0071	0.50652	0.	118.42
1127	-6.0001	0.49867	0.	125.82
1128	-5.5027	0.50111	0.	117.3
1129	-6.4997	0.99907	0.	130.58
1130	-6.5	1.9999	0.	130.54
1131	-6.5	1.4997	0.	129.98
1132	-6.0001	2.5001	0.	125.34
1133	-5.5004	2.5004	0.	116.59
1134	-5.001	2.5012	0.	117.74
1135	-4.0042	2.5061	0.	126.79
1136	-4.5023	2.5029	0.	117.85
1137	-3.5066	2.0138	0.	131.94
1138	-3.5199	1.0385	0.	131.43
1139	-3.511	1.5223	0.	130.9
1140	7.0039	3.4983	0.	120.13
1141	6.0098	3.4989	0.	128.06
1142	6.5065	3.495	0.	113.82
1143	5.5038	4.0272	0.	134.63
1144	5.5039	5.0662	0.	135.51
1145	5.4943	4.5466	0.	135.79
1146	4.4732	1.2023	0.	133.84
1147	4.2762	0.1417	0.	125.68
1148	3.875	8.8724e-002	0.	119.02
1149	2.9719	-0.21575	0.	122.37
1150	3.4396	-5.91e-002	0.	116.16
1151	2.5761	1.6212	0.	138.89
1152	8.9958	-7.5008	0.	123.38
1153	7.9649	-7.5136	0.	123.37
1154	8.4883	-7.5033	0.	111.23
1155	7.4829	-7.0024	0.	131.26
1156	7.5222	-6.484	0.	139.12
1157	7.5327	-5.9839	0.	140.74
1158	7.5236	-5.0001	0.	133.61
1159	7.5285	-5.4912	0.	137.45
1160	8.0073	-4.5002	0.	125.11
1161	9.0003	-4.4994	0.	124.93
1162	8.5016	-4.4989	0.	113.31
1163	0.49203	4.9749	0.	129.62
1164	0.46937	5.9272	0.	125.78
1165	0.47714	5.4641	0.	127.93
1166	0.98544	6.381	0.	121.33
1167	1.4724	6.4227	0.	117.45
1168	1.9644	6.4589	0.	121.66
1169	2.9762	6.5233	0.	127.08
1170	2.4647	6.4939	0.	120.04
1171	3.5124	6.014	0.	131.
1172	3.5012	5.014	0.	131.03
1173	3.5078	5.5119	0.	130.69
1174	1.0017	4.4951	0.	124.52
1175	1.5003	4.5017	0.	116.8
1176	2.	4.5057	0.	117.93
1177	3.0027	4.5154	0.	126.01
1178	-2.4618	-6.9884	0.	130.75
1179	-2.4187	-6.4986	0.	136.04
1180	-2.3902	-6.0263	0.	139.51
1181	-2.5127	-5.009	0.	133.39
1182	-2.5197	-5.5505	0.	136.07
1183	-2.044	-4.4755	0.	126.6
1184	-1.5129	-4.4195	0.	115.52
1185	-0.97921	-4.4747	0.	114.89
1186	1.653e-002	-4.5007	0.	124.13
1187	-0.47816	-4.4935	0.	114.6
1188	0.50747	-5.0071	0.	129.11
1189	0.50783	-5.5055	0.	131.72
1190	0.51099	-6.0042	0.	133.09
1191	0.51551	-6.9999	0.	129.43
1192	0.51306	-6.5022	0.	131.42
1193	9.1527e-003	-7.4992	0.	122.92
1194	-0.49714	-7.5003	0.	111.69
1195	-1.0017	-7.5016	0.	111.59
1196	-2.0117	-7.5033	0.	123.98
1197	-1.5066	-7.5029	0.	112.06
1198	1.5288	-0.97968	0.	126.98
1199	1.5522	-1.482	0.	129.18
1200	1.5618	-1.9923	0.	131.45
1201	1.5101	-3.0197	0.	132.38
1202	1.5323	-2.5067	0.	131.49
1203	1.0083	-3.5094	0.	124.73
1204	3.5559e-002	-3.4995	0.	122.19
1205	0.51648	-3.5029	0.	112.74
1206	-0.42684	-3.0018	0.	129.26
1207	-0.41882	-2.5308	0.	134.98
1208	-0.56698	-2.0577	0.	134.53
1209	-0.46008	-1.0194	0.	133.64
1210	-0.50301	-1.5236	0.	130.68
1211	-0.46127	-3.0182e-002	0.	135.59
1212	-0.51535	0.96868	0.	128.88
1213	-0.51265	0.46402	0.	129.62
1214	-3.6377e-003	1.4906	0.	123.94
1215	0.49922	1.4976	0.	115.58
1216	1.0009	1.5018	0.	117.05
1217	2.0165	1.5293	0.	130.5
1218	1.5039	1.5082	0.	118.18
1219	2.5284	1.1148	0.	139.
1220	2.4623	0.12524	0.	142.52
1221	2.4868	0.61586	0.	142.62
1222	2.013	-0.44759	0.	137.72
1223	1.5105	-0.48566	0.	124.97
1224	2.224e-002	-0.50517	0.	121.18
1225	0.50788	-0.50036	0.	104.88
1226	1.0062	-0.49792	0.	117.46
1227	-8.0002	-4.5011	0.	124.26
1228	-7.0005	-4.5088	0.	121.71
1229	-7.5004	-4.5031	0.	111.34
1230	-6.5054	-5.0154	0.	129.43
1231	-6.5189	-5.5006	0.	132.35
1232	-6.537	-5.9755	0.	134.11
1233	-6.4703	-6.9142	0.	114.36
1234	-6.5281	-6.4441	0.	128.07
1235	-7.9515	-7.5347	0.	122.78
1236	-8.4882	-7.0116	0.	134.22
1237	-8.4968	-6.5049	0.	137.54
1238	-8.5	-5.0007	0.	133.66
1239	-8.4997	-5.5011	0.	136.85
1240	-8.499	-6.0023	0.	139.1
1241	-6.0071	7.4995	0.	121.
1242	-5.0248	7.4982	0.	119.06
1243	-5.5133	7.4991	0.	108.82
1244	-4.5385	6.9927	0.	127.82
1245	-4.5328	6.4938	0.	130.84
1246	-4.5283	5.9966	0.	132.96
1247	-4.5247	5.0044	0.	129.25
1248	-4.5231	5.5009	0.	132.14
1249	-5.0127	4.5024	0.	120.47
1250	-6.0025	4.5004	0.	120.25
1251	-5.5061	4.501	0.	108.83
1252	-6.5004	5.0001	0.	129.63
1253	-6.5001	5.5	0.	131.16
1254	-6.501	6.9997	0.	128.66
1255	-6.5002	6.4999	0.	131.27
1256	-6.5001	6.	0.	132.85
1257	5.601	-6.4993	0.	105.83
1258	6.5489	-6.7401	0.	139.75
1259	6.0862	-6.5852	0.	109.76
1260	6.8615	-7.4256	0.	126.37
1261	6.1504	-8.3279	0.	123.38
1262	4.6609	-6.9405	0.	124.11
1263	4.7779	-7.4109	0.	136.27
1264	-1.3111	7.7259	0.	107.84
1265	-0.46736	7.5259	0.	136.35
1266	-0.87011	7.6263	0.	114.32
1267	-1.1674	5.7251	0.	110.1
1268	-0.66841	5.976	0.	127.
1269	-2.2488	7.3759	0.	129.4
1270	-2.2042	6.8926	0.	138.43
1271	-2.1637	6.364	0.	130.94
1272	7.9467	7.2049	0.	127.73
1273	8.027	6.8244	0.	123.34
1274	8.6918	5.6131	0.	127.53
1275	8.5799	6.1263	0.	141.59
1276	8.2447	6.483	0.	130.82
1277	5.7741	-2.4234	0.	134.77
1278	5.3434	-2.5028	0.	115.93
1279	3.9811	-2.6849	0.	127.12
1280	4.4425	-2.6391	0.	111.59
1281	4.8974	-2.5765	0.	114.42
1282	5.139	-0.29644	0.	127.22
1283	5.4361	-0.65334	0.	129.48
1284	6.1444	-1.9471	0.	127.41
1285	6.1277	-1.5163	0.	136.64
1286	6.043	-1.0621	0.	133.63
1287	6.8429	7.2369	0.	127.08
1288	6.6799	6.8163	0.	122.78
1289	6.4795	6.4008	0.	127.13
1290	6.276	5.9733	0.	133.33
1291	6.1023	5.5126	0.	118.64
1292	8.3606	5.0857	0.	132.56
1293	7.9157	5.0658	0.	117.28
1294	7.4935	4.0169	0.	124.34
1295	7.48	4.527	0.	120.26
1296	7.4565	5.0458	0.	116.97
1297	3.5625	-2.2375	0.	126.69
1298	3.662	-1.7878	0.	134.87
1299	4.0831	-0.37298	0.	131.88
1300	3.6122	-0.90464	0.	123.79
1301	3.7694	-1.311	0.	128.71
1302	-4.1841	-6.4215	0.	120.69
1303	-4.6317	-6.294	0.	117.9
1304	-5.1059	-6.1966	0.	113.88
1305	-5.6298	-6.1421	0.	127.21
1306	-2.7944	-1.6544	0.	144.77
1307	-2.5684	-2.0492	0.	128.22
1308	-2.347	-2.4544	0.	123.75
1309	-3.4706	-7.2584	0.	126.87
1310	-3.7174	-7.77	0.	137.79
1311	-4.1849	-8.049	0.	122.37
1312	-4.5521	-8.6445	0.	121.39
1313	-4.5974	-8.2608	0.	117.88
1314	-0.90794	-1.0181	0.	131.03
1315	-0.99333	-1.4864	0.	140.45
1316	-1.2709	-2.3981	0.	132.37
1317	-1.1151	-1.9443	0.	131.6
1318	-2.6189	-0.74176	0.	134.03
1319	-1.3206	-0.55624	0.	129.16
1320	-1.753	-0.58491	0.	108.68
1321	-2.1841	-0.67802	0.	111.56
1322	-5.9826	-8.7531	0.	130.66
1323	-7.0013	-7.3316	0.	145.4
1324	-6.589	-7.2904	0.	109.27
1325	-6.2107	-7.2581	0.	111.23
1326	-7.4507	-7.5583	0.	109.34
1327	-7.3251	-8.1315	0.	130.09
1328	-6.984	-8.6126	0.	129.02
1329	-9.0001	9.5	0.	125.07
1330	-8.5002	9.5	0.	125.12
1331	-8.0003	9.5001	0.	125.11
1332	-7.5005	9.5001	0.	124.99
1333	-7.001	9.5002	0.	124.71
1334	-6.5016	9.5002	0.	124.29
1335	-6.0026	9.5003	0.	123.9
1336	-5.504	9.5004	0.	123.83
1337	-5.0056	9.5	0.	124.24
1338	-4.5069	9.4986	0.	124.99
1339	-4.0065	9.4948	0.	125.79
1340	-3.5031	9.4887	0.	126.39
1341	-3.0037	9.4954	0.	126.56
1342	-2.5105	9.5451	0.	126.21
1343	-2.016	9.5598	0.	125.35
1344	-1.5234	9.5537	0.	124.73
1345	-1.0261	9.5405	0.	124.98
1346	-0.52131	9.5228	0.	127.02
1347	-1.0896e-002	9.5079	0.	124.26
1348	0.50649	9.5076	0.	119.25
1349	1.0145	9.4625	0.	124.14
1350	1.51	9.4811	0.	127.52
1351	2.0073	9.4923	0.	126.77
1352	2.5056	9.4997	0.	126.31
1353	3.0055	9.5041	0.	125.85
1354	3.5058	9.5043	0.	125.74
1355	4.0053	9.5021	0.	125.71
1356	4.5034	9.4982	0.	125.65
1357	5.0005	9.4952	0.	125.47
1358	5.4964	9.4992	0.	125.11
1359	5.9932	9.514	0.	124.56
1360	6.4926	9.526	0.	123.89
1361	6.9937	9.5293	0.	123.33
1362	7.496	9.5266	0.	123.16
1363	7.998	9.5204	0.	123.47
1364	8.4998	9.5132	0.	124.06
1365	9.001	9.5076	0.	124.66
1366	9.501	9.5036	0.	125.19
1367	9.5017	9.0079	0.	125.99
1368	9.5016	8.5132	0.	126.88
1369	9.4998	8.0196	0.	127.71
1370	9.4956	7.526	0.	128.24
1371	9.4868	7.0294	0.	128.25
1372	9.482	6.5327	0.	127.47
1373	9.5256	6.0383	0.	126.54
1374	9.551	5.5428	0.	127.17
1375	9.5455	5.0455	0.	129.76
1376	9.4991	4.5477	0.	130.66
1377	9.4914	4.0387	0.	130.37
1378	9.4954	3.5243	0.	129.84
1379	9.4982	3.0138	0.	129.37
1380	9.4997	2.5068	0.	128.8
1381	9.5004	2.0025	0.	128.16
1382	9.5006	1.4998	0.	127.51
1383	9.5005	0.9985	0.	126.9
1384	9.4999	0.49789	0.	126.35
1385	9.4997	-2.1617e-003	0.	125.88
1386	9.5001	-0.50188	0.	125.53
1387	9.5012	-1.0015	0.	125.35
1388	9.5028	-1.5012	0.	125.41
1389	9.5038	-2.0011	0.	125.75
1390	9.503	-2.5011	0.	126.37
1391	9.5004	-3.0007	0.	127.24
1392	9.4996	-3.5003	0.	128.32
1393	9.4994	-3.9995	0.	130.13
1394	9.5	-4.4997	0.	134.36
1395	9.5	-4.9999	0.	135.14
1396	9.5	-5.5	0.	137.74
1397	9.5	-6.	0.	139.06
1398	9.5	-6.5	0.	137.
1399	9.4996	-7.0002	0.	133.55
1400	9.4985	-7.5002	0.	132.81
1401	9.4991	-8.0002	0.	129.04
1402	9.5002	-8.5003	0.	128.13
1403	9.5007	-9.0004	0.	128.12
1404	9.5004	-9.5002	0.	128.21
1405	9.001	-9.5007	0.	127.21
1406	8.5022	-9.5018	0.	126.76
1407	8.0042	-9.5028	0.	126.95
1408	7.5073	-9.5017	0.	127.07
1409	7.0121	-9.4948	0.	125.89
1410	6.5197	-9.4797	0.	122.53
1411	6.0304	-9.465	0.	119.12
1412	5.5351	-9.4929	0.	118.94
1413	5.0303	-9.5128	0.	123.38
1414	4.5246	-9.5107	0.	127.57
1415	4.0219	-9.5086	0.	129.63
1416	3.5185	-9.5084	0.	130.07
1417	3.0157	-9.5055	0.	129.78
1418	2.5137	-9.5015	0.	129.17
1419	2.0121	-9.4989	0.	128.33
1420	1.5103	-9.4981	0.	127.2
1421	1.0085	-9.4983	0.	125.64
1422	0.50704	-9.4988	0.	123.66
1423	5.2188e-003	-9.4992	0.	121.63
1424	-0.49629	-9.4996	0.	120.21
1425	-0.99853	-9.4995	0.	120.1
1426	-1.505	-9.4972	0.	121.59
1427	-2.0085	-9.4912	0.	124.25
1428	-2.5119	-9.479	0.	127.11
1429	-3.0132	-9.4698	0.	129.05
1430	-3.5112	-9.4748	0.	129.12
1431	-4.007	-9.5029	0.	127.22
1432	-4.505	-9.5363	0.	124.54
1433	-5.0064	-9.5602	0.	123.35
1434	-5.5122	-9.5668	0.	122.64
1435	-6.0201	-9.5545	0.	118.28
1436	-6.5225	-9.5284	0.	117.09
1437	-7.0175	-9.5344	0.	123.54
1438	-7.5106	-9.527	0.	128.51
1439	-8.004	-9.5159	0.	130.18
1440	-8.5003	-9.5078	0.	130.96
1441	-8.999	-9.5032	0.	131.65
1442	-9.4992	-9.501	0.	132.6
1443	-9.4969	-9.0018	0.	132.09
1444	-9.4933	-8.5028	0.	131.53
1445	-9.4903	-8.004	0.	131.19
1446	-9.491	-7.5049	0.	131.04
1447	-9.4944	-7.0045	0.	130.82
1448	-9.4973	-6.5033	0.	130.84
1449	-9.4989	-6.0021	0.	131.04
1450	-9.4996	-5.5012	0.	131.41
1451	-9.4999	-5.0006	0.	131.82
1452	-9.5	-4.5003	0.	132.13
1453	-9.5	-4.0002	0.	131.8
1454	-9.5	-3.5001	0.	131.05
1455	-9.4999	-3.0001	0.	130.22
1456	-9.4997	-2.5001	0.	129.48
1457	-9.4997	-2.	0.	128.87
1458	-9.4996	-1.5	0.	128.35
1459	-9.4996	-1.0001	0.	127.91
1460	-9.4996	-0.50008	0.	127.5
1461	-9.4996	-1.2056e-004	0.	127.11
1462	-9.4996	0.49983	0.	126.77
1463	-9.4997	0.99984	0.	126.53
1464	-9.4998	1.4999	0.	126.43
1465	-9.4999	1.9999	0.	126.49
1466	-9.5	2.4999	0.	126.64
1467	-9.5	3.	0.	126.76
1468	-9.5	3.5	0.	126.77
1469	-9.5	4.	0.	126.59
1470	-9.5	4.5	0.	126.24
1471	-9.5	5.	0.	125.78
1472	-9.5	5.5	0.	125.31
1473	-9.5	6.	0.	124.94
1474	-9.5	6.5	0.	124.72
1475	-9.5	7.	0.	124.65
1476	-9.5	7.5	0.	124.69
1477	-9.5001	8.	0.	124.77
1478	-9.5001	8.5	0.	124.86
1479	-9.5001	9.	0.	124.92
1480	-9.5	9.5	0.	124.98
1481	-5.9826	-6.7615	0.	119.26
1482	-5.8269	-7.175	0.	130.2
1483	-5.5658	-7.9886	0.	140.02
1484	-5.5741	-8.3541	0.	136.63
1485	-2.7432	-5.9872	0.	135.18
1486	5.0647	-8.6537	0.	130.26
1487	6.5479	-4.549	0.	127.24
1488	-7.9998	-3.5019	0.	123.68
1489	-4.0505	5.0132	0.	129.8
1490	-6.9921	-0.50424	0.	126.91
1491	-3.0135	3.5219	0.	130.63
1492	0.51079	3.9819	0.	126.43
1493	-3.6069	6.963	0.	125.9
1494	-0.97903	2.9553	0.	126.29
1495	3.4942	-3.1551	0.	131.76
1496	4.5176	5.5088	0.	127.87
1497	4.4977	4.5337	0.	129.8
1498	4.6064	5.9816	0.	127.5
1499	-1.3697	3.8628	0.	125.53
1500	-1.011	1.472	0.	126.9
1501	4.118	-6.4849	0.	128.95
1502	7.027	-1.5294	0.	126.71
1503	-5.5016	3.0007	0.	118.43
1504	4.0012	4.5229	0.	130.13
1505	4.0276	-4.5511	0.	124.86
1506	-4.5177	8.9971	0.	124.64
1507	-4.0289	5.4886e-002	0.	126.83
1508	4.9632	7.4769	0.	127.51
1509	5.5841	-0.15875	0.	129.09
1510	-7.5001	3.	0.	129.34
1511	5.0784	5.6721	0.	128.68
1512	-8.0007	8.	0.	126.31
1513	2.4954	-3.5851	0.	132.55
1514	3.1359	-7.0245	0.	125.21
1515	4.1735	-6.9924	0.	126.42
1516	-1.5136	1.4902	0.	124.77
1517	-8.0001	4.	0.	128.79
1518	-5.0488	-3.0611	0.	125.35
1519	7.0015	-5.0621e-002	0.	128.25
1520	-0.82096	-2.502	0.	130.79
1521	6.5106	1.4456	0.	124.84
1522	2.6024	-7.0122	0.	125.5
1523	-4.0723	6.9815	0.	127.03
1524	-7.4998	1.4996	0.	126.58
1525	4.0402	6.0104	0.	128.35
1526	6.9585	8.1403	0.	120.84
1527	3.535	-5.0344	0.	127.39
1528	5.1022	-5.9803	0.	121.26
1529	-1.0024	-8.0015	0.	113.27
1530	5.5966	-3.9703	0.	122.63
1531	4.5577	-5.0134	0.	123.47
1532	2.4992	-0.3518	0.	148.65
1533	9.0002	-3.0004	0.	125.63
1534	1.9998	-3.5519	0.	133.27
1535	-5.4995	-2.5394	0.	123.77
1536	8.0042	0.98225	0.	126.23
1537	5.0345	3.0242	0.	133.35
1538	3.5319	8.0257	0.	123.95
1539	-8.	2.5	0.	127.92
1540	-7.9998	1.4998	0.	126.58
1541	-2.0267	-8.4933	0.	123.43
1542	-5.5175	7.9995	0.	116.91
1543	-5.006	9.0174e-003	0.	118.46
1544	1.9808	2.0264	0.	128.74
1545	5.0655	-8.272	0.	130.57
1546	-2.5657	-7.9735	0.	129.63
1547	9.0016	2.0025	0.	127.42
1548	-4.5451	7.994	0.	124.86
1549	4.3637e-003	2.4848	0.	123.45
1550	-1.9857	2.9741	0.	127.99
1551	-8.4999	-3.5007	0.	127.06
1552	-9.	6.	0.	125.45
1553	-7.0003	6.4999	0.	127.58
1554	6.5112	1.9588	0.	124.45
1555	2.8385	1.9984	0.	142.09
1556	-3.5094	3.0133	0.	130.63
1557	4.5501	-9.0169	0.	129.55
1558	4.9845	1.5692	0.	131.32
1559	-7.5001	5.5	0.	127.29
1560	7.9463	7.6409	0.	123.79
1561	-8.0002	7.	0.	126.18
1562	-8.	5.5	0.	126.68
1563	-2.5702	0.59579	0.	124.68
1564	6.5757	-7.9374	0.	136.01
1565	8.994	3.5389	0.	128.52
1566	9.0005	2.5102	0.	127.81
1567	5.5694	-5.0155	0.	119.88
1568	-6.0106	7.9998	0.	120.58
1569	-6.5062	7.9999	0.	125.72
1570	-5.0284	7.9983	0.	119.75
1571	2.0534	-0.92969	0.	132.41
1572	-4.9922	-4.6058	0.	123.65
1573	8.5005	-1.0086	0.	125.91
1574	-7.4994	0.99927	0.	126.97
1575	8.9983	3.0212	0.	128.16
1576	6.0642	-5.028	0.	121.72
1577	-3.2671	-1.757	0.	127.37
1578	-8.5	4.5	0.	127.51
1579	-7.5002	6.4999	0.	126.61
1580	-1.7732	3.9999	0.	126.44
1581	-3.7484	-6.568	0.	138.76
1582	-1.4331e-002	4.951	0.	126.58
1583	4.0152	-8.0509	0.	127.86
1584	3.0706	-6.0202	0.	126.78
1585	-6.5018	4.0001	0.	126.85
1586	-1.93	5.8966	0.	139.81
1587	-3.547	4.5488	0.	130.49
1588	-7.9993	-3.0019	0.	124.33
1589	-0.51294	4.9044	0.	123.64
1590	4.5607	2.5753	0.	131.31
1591	-2.7285	-3.0428	0.	127.48
1592	-5.4371	-2.0399	0.	122.82
1593	-8.9996	0.99965	0.	126.7
1594	-5.0071	3.5027	0.	118.7
1595	3.9907	-3.6124	0.	123.98
1596	3.0965	-2.228	0.	128.6
1597	8.0053	1.4868	0.	125.93
1598	-3.763	-1.8713	0.	125.8
1599	-5.0135	8.9996	0.	123.29
1600	-0.4829	2.9653	0.	125.47
1601	8.0055	-1.0138	0.	126.14
1602	5.7556	7.017	0.	127.81
1603	1.0114	-5.0151	0.	128.35
1604	6.6123	-6.3301	0.	130.21
1605	5.5639	-4.5108	0.	121.49
1606	5.8054e-002	6.4406	0.	127.7
1607	-2.4824	3.3632	0.	129.61
1608	1.4959	2.0119	0.	122.18
1609	-6.5035	-3.5246	0.	123.67
1610	-1.7887	-2.8275	0.	115.07
1611	-1.4931	2.4742	0.	126.82
1612	4.9281	-7.8646	0.	128.87
1613	-7.4973	-2.5028	0.	123.8
1614	-1.765	7.8036	0.	118.2
1615	3.5568	-5.516	0.	127.66
1616	2.5038	-4.5526	0.	130.19
1617	3.0143	9.01	0.	124.59
1618	6.0915	-5.5281	0.	119.11
1619	-0.47427	4.4154	0.	124.85
1620	-7.4987	-3.0046	0.	122.83
1621	-1.5317	0.99284	0.	122.96
1622	-7.4967	-2.1477e-003	0.	127.88
1623	3.0077	2.7118	0.	123.01
1624	-0.37034	8.0177	0.	146.47
1625	6.4164	-3.1916	0.	131.24
1626	-3.034	-4.5051	0.	131.7
1627	-7.0001	6.	0.	128.24
1628	-9.	6.5	0.	125.25
1629	0.51173	3.4845	0.	124.32
1630	-6.0761	-6.3642	0.	132.2
1631	3.0583	8.0363	0.	122.4
1632	7.0016	-6.9115	0.	139.85
1633	2.0509	-2.5388	0.	129.28
1634	5.1077	-6.4537	0.	125.29
1635	-8.0001	5.	0.	127.51
1636	-8.0001	6.5	0.	126.
1637	2.5009	4.5102	0.	117.28
1638	7.9973	3.5222	0.	126.11
1639	-7.002	7.4998	0.	128.14
1640	4.6111	7.0475	0.	127.75
1641	-3.5244	3.5231	0.	129.85
1642	-2.5555	4.3507	0.	129.85
1643	8.0141	-1.5063	0.	125.73
1644	-2.9783	-1.239	0.	119.97
1645	6.5145	-7.2684e-002	0.	129.29
1646	-4.0041	-4.5378	0.	127.13
1647	-7.9995	0.99949	0.	126.76
1648	-8.	3.	0.	128.6
1649	-0.44638	-3.9898	0.	120.74
1650	-6.502	-4.026	0.	125.3
1651	-7.0007	4.5001	0.	129.82
1652	4.0467	-5.0248	0.	125.83
1653	6.5214	-1.0513	0.	130.73
1654	5.85	-2.8711	0.	129.67
1655	-5.0402	-2.5836	0.	124.49
1656	-7.0009	6.9998	0.	127.97
1657	1.0095	-4.516	0.	128.5
1658	-1.9961	2.4848	0.	127.27
1659	-6.0019	3.5002	0.	121.74
1660	-4.0404	4.5184	0.	129.89
1661	4.0884	-5.9906	0.	129.54
1662	2.5475	-2.6279	0.	129.81
1663	-2.5611	-8.4579	0.	128.44
1664	-4.5124	3.507	0.	122.47
1665	-8.0001	6.	0.	126.15
1666	5.3947	7.3238	0.	127.84
1667	-7.9982	-2.5014	0.	124.95
1668	6.5428	-4.0892	0.	128.42
1669	-7.9999	1.9998	0.	127.08
1670	-2.0166	1.5144	0.	124.16
1671	-7.9976	-1.1965e-003	0.	127.44
1672	-8.0002	4.5	0.	128.3
1673	4.0165	8.0167	0.	125.37
1674	5.0851	-5.4977	0.	120.73
1675	3.0265	-5.0412	0.	128.27
1676	4.1544	1.7564	0.	126.87
1677	4.0774	1.3953	0.	121.3
1678	3.7355	2.169	0.	119.58
1679	3.7308	1.7284	0.	120.58
1680	3.3577	2.2416	0.	116.58
1681	3.2691	1.8996	0.	106.91
1682	3.1953	-1.0287	0.	125.03
1683	-2.7422	3.9441	0.	130.17
1684	-2.3634	3.7569	0.	129.08
1685	-3.0967	5.89	0.	129.61
1686	6.0092	1.9447	0.	126.09
1687	1.4214	6.8484	0.	123.8
1688	4.5422	-4.5347	0.	122.29
1689	-0.86803	-2.9693	0.	128.32
1690	-1.335	-3.9058	0.	118.13
1691	-0.41636	6.4707	0.	147.95
1692	-3.1382	7.9241	0.	129.12
1693	-3.5983	7.9631	0.	127.71
1694	-3.0909	8.4251	0.	129.08
1695	-3.5606	8.4689	0.	127.73
1696	4.4481	-7.9711	0.	128.93
1697	-5.5266	-8.7401	0.	131.04
1698	8.4807	8.0812	0.	126.36
1699	8.4715	7.6164	0.	128.86
1700	8.4685	7.1709	0.	129.61
1701	5.6002	-1.111	0.	126.45
1702	5.7523	-1.5218	0.	133.69
1703	4.0288	-0.87474	0.	123.14
1704	-3.0911	-8.412	0.	131.81
1705	-1.7983	7.1817	0.	150.36
1706	-1.6233	7.3533	0.	138.63
1707	-2.0544	7.3979	0.	145.71
1708	-1.8125	7.6118	0.	141.06
1709	-1.5517	6.2283	0.	127.68
1710	-1.3149	6.1618	0.	105.9
1711	-1.3287	5.8575	0.	115.88
1712	-1.71	5.9433	0.	131.14
1713	-0.67667	7.0867	0.	156.63
1714	-0.61492	6.8484	0.	141.68
1715	-0.27249	6.9706	0.	162.31
1716	-0.45368	7.273	0.	171.63
1717	7.3333e-002	7.4683	0.	155.44
1718	-8.5e-002	7.6683	0.	162.12
1719	-0.14249	7.1756	0.	156.12
1720	-0.32368	7.478	0.	165.68
1721	1.0867	7.6217	0.	136.73
1722	1.1817	7.86	0.	130.35
1723	1.5026	7.7809	0.	144.92
1724	1.3471	7.4648	0.	151.34
1725	0.295	8.6217	0.	120.45
1726	0.54833	8.66	0.	103.81
1727	0.18246	8.9306	0.	127.87
1728	0.45224	8.9675	0.	112.95
1729	8.2125	5.7913	0.	145.03
1730	8.1062	5.5938	0.	142.72
1731	8.5109	5.6066	0.	150.26
1732	8.3453	5.3428	0.	152.95
1733	7.5075	6.9387	0.	108.14
1734	7.2838	6.9325	0.	109.11
1735	7.4066	7.3858	0.	111.63
1736	7.6683	7.1675	0.	118.61
1737	7.1164	7.1834	0.	118.3
1738	6.7638	5.5563	0.	130.43
1739	6.9938	5.2812	0.	116.39
1740	7.2112	5.5687	0.	117.86
1741	6.52	5.275	0.	135.76
1742	6.6462	5.7475	0.	134.02
1743	6.3211	5.5313	0.	135.13
1744	-2.4833	-1.375	0.	134.64
1745	-2.4017	-1.17	0.	140.29
1746	-2.6194	-0.97088	0.	156.44
1747	-2.7992	-1.2195	0.	149.74
1748	-1.9367	-2.075	0.	99.761
1749	-1.7183	-2.045	0.	114.25
1750	-2.0735	-2.3522	0.	117.91
1751	-1.5354	-2.324	0.	122.53
1752	-1.7943	-2.5387	0.	113.87
1753	-1.5283	-1.05	0.	142.43
1754	-1.3917	-1.225	0.	150.68
1755	-1.109	-1.019	0.	151.9
1756	-1.3153	-0.78812	0.	151.64
1757	4.2112	-2.205	0.	135.53
1758	4.07	-2.0312	0.	145.95
1759	3.9855	-2.4624	0.	144.23
1760	3.7762	-2.2388	0.	143.52
1761	5.5388	-1.995	0.	135.64
1762	5.6188	-1.7862	0.	133.21
1763	5.767	-2.1917	0.	148.71
1764	5.9522	-1.9535	0.	145.89
1765	5.7561	-1.7409	0.	148.93
1766	4.55	-0.77875	0.	120.96
1767	4.7712	-0.74375	0.	108.91
1768	4.6544	-0.28982	0.	123.43
1769	4.8845	-0.43322	0.	122.3
1770	4.3565	-0.47149	0.	125.5
1771	4.1067	0.89167	0.	117.72
1772	4.0633	0.64333	0.	124.99
1773	4.5122	0.6521	0.	141.1
1774	4.3866	0.96616	0.	145.43
1775	4.2881	0.43585	0.	140.73
1776	3.3333	1.5383	0.	111.04
1777	3.0967	1.4517	0.	140.9
1778	2.8581	1.6606	0.	137.03
1779	3.2045	1.7998	0.	122.41
1780	3.1167	0.29667	0.	137.19
1781	2.9233	0.45833	0.	154.29
1782	2.926	-2.8762e-003	0.	143.46
1783	2.6712	0.16762	0.	152.8
1784	5.7467	-8.075	0.	102.31
1785	5.5083	-8.0317	0.	120.38
1786	5.5971	-8.4063	0.	113.62
1787	5.3278	-8.266	0.	125.29
1788	6.3733	-7.335	0.	129.1
1789	6.2917	-7.1067	0.	135.86
1790	6.5394	-6.945	0.	154.22
1791	6.6958	-7.2878	0.	148.12
1792	5.1817	-7.1183	0.	146.2
1793	5.3383	-6.9333	0.	136.4
1794	4.8805	-6.9153	0.	143.76
1795	5.1039	-6.6719	0.	144.97
1796	-6.2667	-8.54	0.	107.96
1797	-6.4783	-8.5333	0.	105.27
1798	-6.4716	-8.8737	0.	114.99
1799	-6.1813	-8.7366	0.	122.88
1800	-5.4965	-7.5535	0.	158.44
1801	-5.8133	-7.82	0.	139.74
1802	-5.9117	-7.6333	0.	146.36
1803	-5.7635	-7.4075	0.	152.34
1804	-5.6329	-7.8143	0.	157.78
1805	-6.8717	-7.7867	0.	140.44
1806	-6.7583	-7.6067	0.	140.3
1807	-6.9857	-7.4658	0.	156.42
1808	-7.2103	-7.5792	0.	137.9
1809	-5.4855	-6.8251	0.	156.09
1810	-5.3337	-6.6613	0.	134.46
1811	-5.5899	-6.376	0.	142.19
1812	-5.7663	-6.6858	0.	137.56
1813	-5.103	-8.1001	0.	121.72
1814	-4.8875	-8.1488	0.	107.48
1815	-5.0387	-8.5106	0.	117.3
1816	-4.8187	-8.2854	0.	116.94
1817	-5.307	-8.3321	0.	126.08
1818	-4.0363	-6.9688	0.	135.33
1819	-3.9726	-7.1814	0.	134.25
1820	-3.6453	-7.1392	0.	145.62
1821	-3.7842	-6.794	0.	151.3
1822	-6.	6.75	0.	134.81
1823	-5.75	7.	0.	117.69
1824	-6.0036	7.2498	0.	125.87
1825	-6.2505	6.9999	0.	129.38
1826	-6.	5.25	0.	134.24
1827	-5.75	5.	0.	117.42
1828	-6.0013	4.7502	0.	124.86
1829	-6.2502	5.0001	0.	129.25
1830	-5.25	7.	0.	116.8
1831	-5.	6.75	0.	133.2
1832	-5.0124	7.2491	0.	124.02
1833	-4.7693	6.9963	0.	128.08
1834	-5.25	5.	0.	118.19
1835	-5.	5.25	0.	134.87
1836	-4.7623	5.0022	0.	129.89
1837	-5.0064	4.7512	0.	125.85
1838	6.25	5.	0.	129.87
1839	6.	4.75	0.	145.26
1840	5.7519	5.0331	0.	138.64
1841	6.0511	5.2563	0.	130.33
1842	6.	4.25	0.	144.04
1843	6.25	4.	0.	125.78
1844	6.0049	3.7495	0.	134.
1845	5.7519	4.0136	0.	136.9
1846	6.75	5.	0.	121.97
1847	7.	4.75	0.	130.02
1848	7.2282	5.0229	0.	120.59
1849	6.75	4.	0.	119.68
1850	7.	4.25	0.	131.13
1851	7.0019	3.7491	0.	123.82
1852	7.2468	4.0084	0.	125.77
1853	1.	5.75	0.	136.05
1854	1.25	6.	0.	123.63
1855	0.73468	5.9636	0.	127.99
1856	0.99272	6.1905	0.	126.26
1857	1.	5.25	0.	137.22
1858	1.25	5.	0.	124.74
1859	0.74602	4.9874	0.	131.19
1860	1.0009	4.7475	0.	128.95
1861	2.75	6.	0.	127.59
1862	3.	5.75	0.	140.37
1863	2.9881	6.2617	0.	132.01
1864	3.2562	6.007	0.	133.65
1865	2.75	5.	0.	125.95
1866	3.	5.25	0.	139.59
1867	3.2506	5.007	0.	132.78
1868	3.0013	4.7577	0.	130.62
1869	-6.	1.75	0.	139.09
1870	-5.75	2.	0.	125.53
1871	-6.25	2.	0.	132.4
1872	-6.0001	2.25	0.	130.13
1873	-6.	1.25	0.	139.22
1874	-5.75	1.	0.	125.92
1875	-6.	0.74934	0.	130.51
1876	-6.2499	0.99954	0.	132.57
1877	-4.25	2.	0.	126.56
1878	-4.	1.75	0.	140.14
1879	-4.0021	2.2531	0.	131.28
1880	-3.7533	2.0069	0.	133.55
1881	-4.25	1.	0.	127.45
1882	-4.	1.25	0.	140.77
1883	-4.0112	0.76641	0.	132.45
1884	-3.7599	1.0192	0.	133.99
1885	0.	-1.25	0.	132.31
1886	0.25	-1.	0.	115.1
1887	-0.23004	-1.0097	0.	130.82
1888	1.112e-002	-0.75258	0.	124.66
1889	0.	-2.75	0.	137.38
1890	0.25	-3.	0.	121.03
1891	1.778e-002	-3.2498	0.	128.21
1892	-0.21342	-3.0009	0.	131.3
1893	0.75	-1.	0.	114.27
1894	1.	-1.25	0.	131.39
1895	1.2644	-0.98984	0.	126.27
1896	1.0031	-0.74896	0.	121.95
1897	0.75	-3.	0.	120.03
1898	1.	-2.75	0.	135.78
1899	1.255	-3.0098	0.	131.93
1900	1.0042	-3.2547	0.	128.32
1901	0.	0.75	0.	137.47
1902	0.25	1.	0.	123.47
1903	-0.25768	0.98434	0.	130.48
1904	-1.8189e-003	1.2453	0.	128.33
1905	0.	0.25	0.	137.18
1906	0.25	0.	0.	121.53
1907	-0.23064	-1.5091e-002	0.	133.6
1908	1.112e-002	-0.25258	0.	126.47
1909	1.75	1.	0.	126.28
1910	2.	0.75	0.	141.31
1911	2.0082	1.2646	0.	133.93
1912	2.2642	1.0574	0.	137.65
1913	1.75	0.	0.	133.57
1914	2.	0.25	0.	145.88
1915	2.2312	6.2621e-002	0.	144.33
1916	2.0065	-0.22379	0.	141.97
1917	8.	-5.25	0.	141.26
1918	8.25	-5.	0.	123.4
1919	7.7618	-5.0001	0.	134.64
1920	8.0037	-4.7501	0.	130.75
1921	8.	-6.75	0.	138.85
1922	8.25	-7.	0.	120.46
1923	7.9825	-7.2568	0.	128.3
1924	7.7414	-7.0012	0.	131.73
1925	8.75	-5.	0.	123.
1926	9.	-5.25	0.	140.69
1927	9.0001	-4.7497	0.	130.27
1928	9.25	-4.9999	0.	135.01
1929	8.75	-7.	0.	121.18
1930	9.	-6.75	0.	139.96
1931	8.9979	-7.2504	0.	128.97
1932	9.2498	-7.0001	0.	133.69
1933	-2.	-5.25	0.	140.18
1934	-1.75	-5.	0.	124.31
1935	-2.2563	-5.0045	0.	134.28
1936	-2.022	-4.7377	0.	131.27
1937	-2.	-6.75	0.	137.94
1938	-1.75	-7.	0.	121.79
1939	-2.2309	-6.9942	0.	131.79
1940	-2.0058	-7.2516	0.	128.81
1941	-0.25	-5.	0.	122.52
1942	0.	-5.25	0.	137.2
1943	8.2652e-003	-4.7503	0.	128.79
1944	0.25374	-5.0036	0.	130.88
1945	-0.25	-7.	0.	121.09
1946	0.	-6.75	0.	136.49
1947	0.25776	-7.	0.	130.47
1948	4.5764e-003	-7.2496	0.	127.57
1949	-8.	-5.25	0.	139.77
1950	-7.75	-5.	0.	121.75
1951	-8.0001	-4.7506	0.	129.66
1952	-8.25	-5.0004	0.	133.98
1953	-8.	-6.75	0.	141.63
1954	-7.75	-7.	0.	127.74
1955	-7.9758	-7.2674	0.	129.96
1956	-8.2441	-7.0058	0.	135.31
1957	-7.25	-5.	0.	120.19
1958	-7.	-5.25	0.	136.54
1959	-7.0002	-4.7544	0.	126.78
1960	-6.7527	-5.0077	0.	130.3
1961	-7.25	-7.	0.	126.61
1962	-7.	-6.75	0.	136.46
1963	-6.7352	-6.9571	0.	124.48
1964	-7.0007	-7.1658	0.	140.69
1965	9.75	10.	0.	124.92
1966	10.	9.75	0.	125.07
1967	-9.75	10.	0.	125.02
1968	-10.	9.75	0.	124.98
1969	10.	-9.75	0.	129.1
1970	9.75	-10.	0.	128.67
1971	-10.	-9.75	0.	134.44
1972	-9.75	-10.	0.	133.71
1973	-5.3569	-7.2535	0.	148.42
1974	-5.2294	-7.6786	0.	133.96
1975	-1.675	6.705	0.	137.81
1976	-1.9704	6.918	0.	138.81
1977	-1.8885	6.4153	0.	132.
1978	-1.15	7.22	0.	111.92
1979	-1.3489	7.5063	0.	109.93
1980	-0.89172	7.3898	0.	110.38
1981	-0.96482	6.5052	0.	85.248
1982	-0.9041	6.1548	0.	108.93
1983	-0.60311	6.5738	0.	112.41
1984	0.58	7.545	0.	111.65
1985	0.35745	7.2918	0.	113.07
1986	0.85615	7.3814	0.	107.19
1987	0.105	8.145	0.	129.64
1988	-0.18017	7.9622	0.	137.78
1989	-1.0593e-002	8.444	0.	126.73
1990	0.865	8.26	0.	95.736
1991	1.2325	8.2537	0.	114.75
1992	0.87677	8.6661	0.	111.34
1993	7.9775	6.1737	0.	121.02
1994	8.3375	6.0544	0.	129.67
1995	7.7425	6.5563	0.	115.76
1996	8.0524	6.424	0.	126.34
1997	7.826	6.786	0.	115.8
1998	7.6588	5.5813	0.	120.
1999	7.8991	5.3267	0.	114.51
2000	7.4457	5.3104	0.	121.59
2001	7.0712	6.5375	0.	116.03
2002	6.9287	6.7757	0.	116.29
2003	6.8587	6.1425	0.	119.65
2004	6.7222	6.3704	0.	124.04
2005	6.5143	5.9591	0.	125.08
2006	-2.21	-1.725	0.	93.473
2007	-2.5705	-1.6022	0.	117.93
2008	-2.3209	-1.9746	0.	108.81
2009	-1.965	-1.11	0.	107.79
2010	-2.1837	-0.90901	0.	106.47
2011	-1.7498	-0.83245	0.	109.66
2012	-1.555	-1.635	0.	126.36
2013	-1.3759	-1.8922	0.	123.85
2014	-1.2333	-1.4582	0.	135.01
2015	4.6537	-2.135	0.	114.11
2016	4.4375	-2.4046	0.	110.61
2017	5.0963	-2.065	0.	113.18
2018	4.8862	-2.3383	0.	116.23
2019	5.3304	-2.2664	0.	111.33
2020	4.23	-1.6137	0.	133.23
2021	3.906	-1.8051	0.	133.61
2022	4.39	-1.1962	0.	128.66
2023	4.0397	-1.358	0.	130.37
2024	4.2494	-0.93112	0.	123.5
2025	5.3362	-1.4388	0.	107.69
2026	5.6149	-1.5671	0.	117.79
2027	5.0538	-1.0912	0.	107.36
2028	5.3976	-1.188	0.	119.78
2029	5.1743	-0.78542	0.	115.12
2030	3.72	1.215	0.	82.953
2031	3.9954	1.2243	0.	99.147
2032	3.6287	1.5525	0.	102.94
2033	3.59	0.47	0.	102.04
2034	3.8508	0.3227	0.	105.33
2035	3.3965	0.16212	0.	112.21
2036	3.01	0.955	0.	146.88
2037	2.7909	1.159	0.	142.06
2038	2.7268	0.66127	0.	144.9
2039	6.06	-7.705	0.	89.472
2040	6.0269	-8.109	0.	105.06
2041	6.3962	-7.7287	0.	111.79
2042	5.345	-7.575	0.	128.18
2043	5.1774	-7.834	0.	125.19
2044	5.0206	-7.3788	0.	133.05
2045	5.815	-7.02	0.	106.17
2046	6.0698	-6.8243	0.	105.67
2047	5.5888	-6.738	0.	106.74
2048	-6.04	-8.18	0.	107.45
2049	-6.068	-8.5566	0.	116.87
2050	-5.8637	-8.3571	0.	120.46
2051	-5.7463	-7.9943	0.	122.32
2052	-6.675	-8.16	0.	110.25
2053	-6.7803	-8.4796	0.	114.27
2054	-7.0492	-8.0524	0.	122.55
2055	-6.335	-7.62	0.	117.65
2056	-6.167	-7.4424	0.	114.71
2057	-6.5678	-7.4519	0.	111.72
2058	-5.6239	-7.1075	0.	143.34
2059	-5.3659	-7.9394	0.	133.17
2060	-4.9012	-6.7638	0.	115.68
2061	-5.1117	-6.4546	0.	112.61
2062	-4.4688	-6.8663	0.	113.44
2063	-4.6583	-6.5545	0.	118.68
2064	-4.2183	-6.6695	0.	113.17
2065	-4.5826	-7.8263	0.	106.72
2066	-4.6662	-8.1241	0.	109.26
2067	-4.2777	-7.5039	0.	108.35
2068	-4.3075	-7.8571	0.	117.07
2069	-3.9213	-7.5564	0.	120.84
2070	-6.	6.25	0.	139.46
2071	-6.2501	6.5	0.	135.27
2072	-6.	5.75	0.	139.47
2073	-6.25	6.	0.	136.24
2074	-6.2501	5.5	0.	135.23
2075	-5.5066	7.2495	0.	106.92
2076	-5.503	4.7505	0.	107.22
2077	-5.	6.25	0.	138.42
2078	-4.7664	6.4969	0.	134.38
2079	-5.	5.75	0.	138.96
2080	-4.7641	5.9983	0.	135.94
2081	-4.7615	5.5004	0.	135.56
2082	5.7472	4.5233	0.	142.26
2083	6.5033	3.7475	0.	112.9
2084	7.24	4.5135	0.	127.67
2085	0.73857	5.4821	0.	134.63
2086	1.75	6.	0.	120.56
2087	1.4862	6.2113	0.	116.98
2088	2.25	6.	0.	121.75
2089	1.9822	6.2294	0.	122.91
2090	2.4823	6.247	0.	119.47
2091	1.75	5.	0.	119.51
2092	1.5002	4.7508	0.	116.69
2093	2.25	5.	0.	119.79
2094	2.	4.7529	0.	120.08
2095	2.5004	4.7551	0.	117.19
2096	3.2539	5.5059	0.	137.49
2097	-6.25	1.4998	0.	136.78
2098	-5.25	2.	0.	119.63
2099	-5.5002	2.2502	0.	116.58
2100	-4.75	2.	0.	120.22
2101	-5.0005	2.2506	0.	120.06
2102	-4.5012	2.2514	0.	117.84
2103	-5.25	1.	0.	120.2
2104	-5.5013	0.75056	0.	117.21
2105	-4.75	1.	0.	120.81
2106	-5.0035	0.75326	0.	120.69
2107	-4.5066	0.75802	0.	118.37
2108	-3.7555	1.5111	0.	137.85
2109	0.	-1.75	0.	137.96
2110	-0.25151	-1.5118	0.	133.7
2111	0.	-2.25	0.	140.16
2112	-0.28349	-2.0288	0.	136.86
2113	-0.20941	-2.5154	0.	138.04
2114	0.50394	-0.75018	0.	103.61
2115	0.50824	-3.2514	0.	110.63
2116	1.	-1.75	0.	137.54
2117	1.2761	-1.491	0.	132.9
2118	1.	-2.25	0.	139.2
2119	1.2809	-1.9961	0.	134.95
2120	1.2662	-2.5034	0.	135.72
2121	-0.25633	0.48201	0.	136.03
2122	0.75	1.	0.	117.63
2123	0.49961	1.2488	0.	115.14
2124	1.25	1.	0.	118.16
2125	1.0005	1.2509	0.	118.69
2126	1.5019	1.2541	0.	116.92
2127	0.75	0.	0.	115.49
2128	0.50394	-0.25018	0.	108.
2129	1.25	0.	0.	120.8
2130	1.0031	-0.24896	0.	118.55
2131	1.5052	-0.24283	0.	123.34
2132	2.2434	0.55793	0.	144.18
2133	8.	-5.75	0.	146.9
2134	7.7642	-5.4956	0.	141.98
2135	8.	-6.25	0.	146.16
2136	7.7663	-5.9919	0.	144.01
2137	7.7611	-6.492	0.	142.08
2138	8.5008	-4.7495	0.	112.01
2139	8.4941	-7.2516	0.	109.62
2140	9.	-5.75	0.	146.55
2141	9.25	-5.5	0.	141.97
2142	9.	-6.25	0.	146.3
2143	9.25	-6.	0.	142.98
2144	9.25	-6.5	0.	141.35
2145	-2.	-5.75	0.	145.11
2146	-2.2598	-5.5253	0.	140.4
2147	-2.	-6.25	0.	144.15
2148	-2.1951	-6.0132	0.	142.5
2149	-2.2094	-6.4993	0.	139.42
2150	-1.25	-5.	0.	115.64
2151	-1.5064	-4.7098	0.	114.34
2152	-0.75	-5.	0.	115.18
2153	-0.9896	-4.7374	0.	116.31
2154	-0.48908	-4.7467	0.	113.4
2155	-1.25	-7.	0.	113.01
2156	-1.5033	-7.2514	0.	111.31
2157	-0.75	-7.	0.	112.97
2158	-1.0009	-7.2508	0.	113.31
2159	-0.49857	-7.2502	0.	111.11
2160	0.	-5.75	0.	141.91
2161	0.25392	-5.5028	0.	136.56
2162	0.	-6.25	0.	141.79
2163	0.25549	-6.0021	0.	137.75
2164	0.25653	-6.5011	0.	136.28
2165	-8.	-5.75	0.	145.59
2166	-8.2499	-5.5006	0.	140.89
2167	-8.	-6.25	0.	146.47
2168	-8.2495	-6.0011	0.	142.68
2169	-8.2484	-6.5024	0.	142.11
2170	-7.5002	-4.7516	0.	110.07
2171	-7.4753	-7.2792	0.	113.44
2172	-7.	-5.75	0.	141.44
2173	-6.7594	-5.5003	0.	136.98
2174	-7.	-6.25	0.	139.66
2175	-6.7685	-5.9877	0.	137.69
2176	-6.7641	-6.4721	0.	133.04
2177	9.25	10.	0.	124.61
2178	9.5005	9.7518	0.	125.03
2179	8.75	10.	0.	123.96
2180	9.0005	9.7538	0.	124.5
2181	8.25	10.	0.	123.24
2182	8.4999	9.7566	0.	123.81
2183	7.75	10.	0.	122.75
2184	7.999	9.7602	0.	123.19
2185	7.25	10.	0.	122.68
2186	7.498	9.7633	0.	122.87
2187	6.75	10.	0.	123.07
2188	6.9969	9.7647	0.	123.04
2189	6.25	10.	0.	123.8
2190	6.4963	9.763	0.	123.63
2191	5.75	10.	0.	124.64
2192	5.9966	9.757	0.	124.38
2193	5.25	10.	0.	125.4
2194	5.4982	9.7496	0.	125.08
2195	4.75	10.	0.	126.
2196	5.0003	9.7476	0.	125.61
2197	4.25	10.	0.	126.45
2198	4.5017	9.7491	0.	125.95
2199	3.75	10.	0.	126.83
2200	4.0026	9.751	0.	126.17
2201	3.25	10.	0.	127.2
2202	3.5029	9.7521	0.	126.37
2203	2.75	10.	0.	127.5
2204	3.0028	9.7521	0.	126.61
2205	2.25	10.	0.	127.28
2206	2.5028	9.7498	0.	126.95
2207	1.75	10.	0.	125.65
2208	2.0037	9.7461	0.	126.85
2209	1.25	10.	0.	122.54
2210	1.505	9.7405	0.	125.91
2211	0.75	10.	0.	119.87
2212	1.0072	9.7313	0.	122.3
2213	0.25	10.	0.	119.64
2214	0.50324	9.7538	0.	119.01
2215	-0.25	10.	0.	121.83
2216	-5.448e-003	9.7539	0.	122.13
2217	-0.75	10.	0.	124.25
2218	-0.51066	9.7614	0.	125.21
2219	-1.25	10.	0.	125.24
2220	-1.0131	9.7703	0.	125.03
2221	-1.75	10.	0.	125.71
2222	-1.5117	9.7768	0.	125.07
2223	-2.25	10.	0.	126.4
2224	-2.008	9.7799	0.	125.67
2225	-2.75	10.	0.	126.99
2226	-2.5053	9.7726	0.	126.49
2227	-3.25	10.	0.	127.08
2228	-3.0018	9.7477	0.	126.87
2229	-3.75	10.	0.	126.6
2230	-3.5016	9.7444	0.	126.68
2231	-4.25	10.	0.	125.72
2232	-4.0032	9.7474	0.	126.
2233	-4.75	10.	0.	124.76
2234	-4.5034	9.7493	0.	125.1
2235	-5.25	10.	0.	124.04
2236	-5.0028	9.75	0.	124.27
2237	-5.75	10.	0.	123.74
2238	-5.502	9.7502	0.	123.8
2239	-6.25	10.	0.	123.86
2240	-6.0013	9.7502	0.	123.8
2241	-6.75	10.	0.	124.25
2242	-6.5008	9.7501	0.	124.15
2243	-7.25	10.	0.	124.67
2244	-7.0005	9.7501	0.	124.59
2245	-7.75	10.	0.	124.98
2246	-7.5003	9.7501	0.	124.93
2247	-8.25	10.	0.	125.12
2248	-8.0001	9.75	0.	125.1
2249	-8.75	10.	0.	125.13
2250	-8.5001	9.75	0.	125.14
2251	-9.25	10.	0.	125.07
2252	-9.	9.75	0.	125.09
2253	-9.5	9.75	0.	125.01
2254	10.	9.25	0.	125.72
2255	9.7505	9.5018	0.	125.18
2256	10.	8.75	0.	126.94
2257	9.7508	9.0039	0.	126.12
2258	10.	8.25	0.	128.09
2259	9.7508	8.5066	0.	127.26
2260	10.	7.75	0.	128.37
2261	9.7499	8.0098	0.	128.13
2262	10.	7.25	0.	127.16
2263	9.7478	7.513	0.	128.22
2264	10.	6.75	0.	124.6
2265	9.7434	7.0147	0.	127.18
2266	10.	6.25	0.	122.19
2267	9.741	6.5163	0.	125.26
2268	10.	5.75	0.	122.39
2269	9.7628	6.0192	0.	123.93
2270	10.	5.25	0.	125.6
2271	9.7755	5.5214	0.	125.3
2272	10.	4.75	0.	129.29
2273	9.7728	5.0228	0.	128.73
2274	10.	4.25	0.	131.33
2275	9.7495	4.5238	0.	130.75
2276	10.	3.75	0.	131.71
2277	9.7457	4.0194	0.	131.09
2278	10.	3.25	0.	131.23
2279	9.7477	3.5122	0.	130.72
2280	10.	2.75	0.	130.41
2281	9.7491	3.0069	0.	130.12
2282	10.	2.25	0.	129.44
2283	9.7499	2.5034	0.	129.37
2284	10.	1.75	0.	128.42
2285	9.7502	2.0012	0.	128.54
2286	10.	1.25	0.	127.41
2287	9.7503	1.4999	0.	127.71
2288	10.	0.75	0.	126.46
2289	9.7502	0.99925	0.	126.91
2290	10.	0.25	0.	125.63
2291	9.75	0.49894	0.	126.18
2292	10.	-0.25	0.	124.95
2293	9.7499	-1.0809e-003	0.	125.56
2294	10.	-0.75	0.	124.51
2295	9.75	-0.50094	0.	125.1
2296	10.	-1.25	0.	124.41
2297	9.7506	-1.0007	0.	124.86
2298	10.	-1.75	0.	124.76
2299	9.7514	-1.5006	0.	124.94
2300	10.	-2.25	0.	125.66
2301	9.7519	-2.0005	0.	125.4
2302	10.	-2.75	0.	127.22
2303	9.7515	-2.5005	0.	126.31
2304	10.	-3.25	0.	129.64
2305	9.7502	-3.0003	0.	127.7
2306	10.	-3.75	0.	133.01
2307	9.7498	-3.5001	0.	129.69
2308	10.	-4.25	0.	136.07
2309	9.7497	-3.9998	0.	132.51
2310	10.	-4.75	0.	136.38
2311	9.75	-4.4999	0.	135.77
2312	10.	-5.25	0.	134.11
2313	9.75	-4.9999	0.	135.34
2314	10.	-5.75	0.	132.4
2315	9.75	-5.5	0.	135.2
2316	10.	-6.25	0.	131.48
2317	9.75	-6.	0.	135.6
2318	10.	-6.75	0.	131.67
2319	9.75	-6.5	0.	133.9
2320	10.	-7.25	0.	133.28
2321	9.7498	-7.0001	0.	133.03
2322	10.	-7.75	0.	133.39
2323	9.7493	-7.5001	0.	133.41
2324	10.	-8.25	0.	131.63
2325	9.7496	-8.0001	0.	130.88
2326	10.	-8.75	0.	129.98
2327	9.7501	-8.5001	0.	129.32
2328	10.	-9.25	0.	129.28
2329	9.7504	-9.0002	0.	128.78
2330	9.7502	-9.5001	0.	128.67
2331	-10.	9.25	0.	124.86
2332	-9.75	9.5	0.	124.97
2333	-10.	8.75	0.	124.65
2334	-9.75	9.	0.	124.84
2335	-10.	8.25	0.	124.4
2336	-9.7501	8.5	0.	124.69
2337	-10.	7.75	0.	124.14
2338	-9.75	8.	0.	124.52
2339	-10.	7.25	0.	123.92
2340	-9.75	7.5	0.	124.35
2341	-10.	6.75	0.	123.83
2342	-9.75	7.	0.	124.24
2343	-10.	6.25	0.	123.96
2344	-9.75	6.5	0.	124.27
2345	-10.	5.75	0.	124.34
2346	-9.75	6.	0.	124.51
2347	-10.	5.25	0.	124.93
2348	-9.75	5.5	0.	124.95
2349	-10.	4.75	0.	125.59
2350	-9.75	5.	0.	125.52
2351	-10.	4.25	0.	126.17
2352	-9.75	4.5	0.	126.08
2353	-10.	3.75	0.	126.53
2354	-9.75	4.	0.	126.51
2355	-10.	3.25	0.	126.61
2356	-9.75	3.5	0.	126.7
2357	-10.	2.75	0.	126.45
2358	-9.75	3.	0.	126.67
2359	-10.	2.25	0.	126.18
2360	-9.75	2.5	0.	126.48
2361	-10.	1.75	0.	125.97
2362	-9.75	2.	0.	126.26
2363	-10.	1.25	0.	125.96
2364	-9.7499	1.4999	0.	126.17
2365	-10.	0.75	0.	126.19
2366	-9.7499	0.99992	0.	126.27
2367	-10.	0.25	0.	126.63
2368	-9.7498	0.49991	0.	126.57
2369	-10.	-0.25	0.	127.2
2370	-9.7498	-6.0279e-005	0.	127.
2371	-10.	-0.75	0.	127.83
2372	-9.7498	-0.50004	0.	127.5
2373	-10.	-1.25	0.	128.52
2374	-9.7498	-1.	0.	128.03
2375	-10.	-1.75	0.	129.29
2376	-9.7498	-1.5	0.	128.61
2377	-10.	-2.25	0.	130.2
2378	-9.7498	-2.	0.	129.28
2379	-10.	-2.75	0.	131.25
2380	-9.7499	-2.5	0.	130.08
2381	-10.	-3.25	0.	132.32
2382	-9.7499	-3.	0.	131.01
2383	-10.	-3.75	0.	133.09
2384	-9.75	-3.5001	0.	131.94
2385	-10.	-4.25	0.	133.07
2386	-9.75	-4.0001	0.	132.57
2387	-10.	-4.75	0.	132.03
2388	-9.75	-4.5002	0.	132.46
2389	-10.	-5.25	0.	130.37
2390	-9.7499	-5.0003	0.	131.54
2391	-10.	-5.75	0.	128.89
2392	-9.7498	-5.5006	0.	130.44
2393	-10.	-6.25	0.	128.17
2394	-9.7494	-6.001	0.	129.67
2395	-10.	-6.75	0.	128.37
2396	-9.7487	-6.5016	0.	129.44
2397	-10.	-7.25	0.	129.27
2398	-9.7472	-7.0022	0.	129.76
2399	-10.	-7.75	0.	130.42
2400	-9.7455	-7.5024	0.	130.43
2401	-10.	-8.25	0.	131.61
2402	-9.7451	-8.002	0.	131.11
2403	-10.	-8.75	0.	132.77
2404	-9.7466	-8.5014	0.	131.86
2405	-10.	-9.25	0.	133.81
2406	-9.7485	-9.0009	0.	132.72
2407	-9.7496	-9.5005	0.	133.43
2408	-9.25	-10.	0.	132.34
2409	-9.4996	-9.7505	0.	132.7
2410	-8.75	-10.	0.	131.55
2411	-8.9995	-9.7516	0.	131.76
2412	-8.25	-10.	0.	130.72
2413	-8.5002	-9.7539	0.	131.09
2414	-7.75	-10.	0.	128.95
2415	-8.002	-9.7579	0.	130.19
2416	-7.25	-10.	0.	125.15
2417	-7.5053	-9.7635	0.	128.1
2418	-6.75	-10.	0.	120.16
2419	-7.0088	-9.7672	0.	123.07
2420	-6.25	-10.	0.	117.95
2421	-6.5113	-9.7642	0.	117.4
2422	-5.75	-10.	0.	119.87
2423	-6.0101	-9.7773	0.	118.22
2424	-5.25	-10.	0.	122.48
2425	-5.5061	-9.7834	0.	122.11
2426	-4.75	-10.	0.	124.18
2427	-5.0032	-9.7801	0.	123.37
2428	-4.25	-10.	0.	126.07
2429	-4.5025	-9.7682	0.	124.75
2430	-3.75	-10.	0.	127.99
2431	-4.0035	-9.7515	0.	127.2
2432	-3.25	-10.	0.	128.73
2433	-3.5056	-9.7374	0.	128.96
2434	-2.75	-10.	0.	127.81
2435	-3.0066	-9.7349	0.	128.86
2436	-2.25	-10.	0.	125.64
2437	-2.5059	-9.7395	0.	127.02
2438	-1.75	-10.	0.	123.13
2439	-2.0043	-9.7456	0.	124.29
2440	-1.25	-10.	0.	121.23
2441	-1.5025	-9.7486	0.	121.75
2442	-0.75	-10.	0.	120.53
2443	-0.99926	-9.7498	0.	120.31
2444	-0.25	-10.	0.	121.13
2445	-0.49814	-9.7498	0.	120.37
2446	0.25	-10.	0.	122.66
2447	2.6094e-003	-9.7496	0.	121.68
2448	0.75	-10.	0.	124.55
2449	0.50352	-9.7494	0.	123.63
2450	1.25	-10.	0.	126.32
2451	1.0043	-9.7492	0.	125.57
2452	1.75	-10.	0.	127.75
2453	1.5052	-9.749	0.	127.16
2454	2.25	-10.	0.	128.83
2455	2.0061	-9.7495	0.	128.35
2456	2.75	-10.	0.	129.61
2457	2.5069	-9.7507	0.	129.23
2458	3.25	-10.	0.	130.02
2459	3.0078	-9.7527	0.	129.85
2460	3.75	-10.	0.	129.76
2461	3.5093	-9.7542	0.	130.09
2462	4.25	-10.	0.	128.27
2463	4.011	-9.7543	0.	129.51
2464	4.75	-10.	0.	125.2
2465	4.5123	-9.7553	0.	127.36
2466	5.25	-10.	0.	121.57
2467	5.0152	-9.7564	0.	123.31
2468	5.75	-10.	0.	119.67
2469	5.5176	-9.7465	0.	119.41
2470	6.25	-10.	0.	120.76
2471	6.0152	-9.7325	0.	119.28
2472	6.75	-10.	0.	123.58
2473	6.5098	-9.7399	0.	122.3
2474	7.25	-10.	0.	125.9
2475	7.006	-9.7474	0.	125.49
2476	7.75	-10.	0.	126.87
2477	7.5036	-9.7508	0.	126.89
2478	8.25	-10.	0.	127.04
2479	8.0021	-9.7514	0.	126.99
2480	8.75	-10.	0.	127.26
2481	8.5011	-9.7509	0.	126.91
2482	9.25	-10.	0.	127.86
2483	9.0005	-9.7504	0.	127.34
2484	9.5002	-9.7501	0.	128.24
2485	-4.5693	-3.299	0.	126.65
2486	-4.795	-3.5546	0.	126.27
2487	-4.5392	-3.8053	0.	126.51
2488	-4.3121	-3.5335	0.	127.58
2489	-4.5931	-2.8094	0.	125.96
2490	-4.3452	-2.5459	0.	126.29
2491	-4.728	-2.3356	0.	124.45
2492	-4.8212	-2.5758	0.	124.95
2493	-4.3638	-3.0451	0.	127.23
2494	-4.8164	-3.056	0.	125.93
2495	-5.9831	-2.2663	0.	123.17
2496	-6.2284	-2.0107	0.	123.15
2497	-5.969	-1.7651	0.	122.8
2498	-5.7043	-2.0273	0.	122.88
2499	-6.0012	-2.7743	0.	123.7
2500	-6.2448	-2.514	0.	123.31
2501	-5.7471	-2.5286	0.	123.58
2502	5.0487	-4.2685	0.	120.53
2503	5.0139	-3.7803	0.	119.26
2504	4.7809	-4.0414	0.	120.57
2505	5.3194	-3.9966	0.	121.39
2506	-1.2041	3.4322	0.	126.19
2507	-0.94193	3.6622	0.	125.44
2508	-0.71288	3.441	0.	125.71
2509	-0.9675	3.1928	0.	126.07
2510	-4.1158	-2.7816	0.	127.56
2511	-3.8328	-2.4206	0.	128.09
2512	-4.1851	-2.2586	0.	125.76
2513	-3.9175	-2.7343	0.	128.21
2514	-5.5212	-3.3014	0.	124.94
2515	-5.7652	-3.0389	0.	124.3
2516	-5.2858	-3.0541	0.	124.98
2517	-5.5111	-2.7933	0.	124.19
2518	-5.2775	-3.5589	0.	125.51
2519	-5.025	-3.8197	0.	125.51
2520	-5.0421	-3.3116	0.	125.55
2521	2.3004	-6.015	0.	126.2
2522	2.5467	-5.7712	0.	126.81
2523	2.569	-6.2657	0.	126.
2524	2.8139	-6.0188	0.	126.55
2525	2.0364	-5.7672	0.	126.56
2526	2.052	-6.2603	0.	125.9
2527	1.7877	-6.0117	0.	126.17
2528	2.7918	-5.5257	0.	127.42
2529	2.5278	-5.2815	0.	127.97
2530	2.2827	-5.5233	0.	127.17
2531	-1.7145	3.4636	0.	127.23
2532	-1.9813	3.2336	0.	127.96
2533	-1.875	3.7465	0.	127.18
2534	-2.2296	3.4281	0.	128.77
2535	-2.1701	3.625	0.	128.5
2536	-1.4671	3.1984	0.	126.75
2537	-1.2305	2.959	0.	126.63
2538	-1.7338	2.9684	0.	127.48
2539	-1.4875	2.7184	0.	126.89
2540	3.059	-5.7733	0.	127.15
2541	3.3022	-5.5212	0.	127.59
2542	3.037	-5.2838	0.	127.89
2543	-2.0557	4.2605	0.	127.43
2544	-1.9806	4.055	0.	127.35
2545	-2.3717	4.2304	0.	129.06
2546	-2.2757	3.9335	0.	128.68
2547	-4.8844	-1.8207	0.	122.69
2548	-4.5679	-2.0484	0.	123.92
2549	-5.1455	-2.0716	0.	123.15
2550	-4.947	-2.3435	0.	123.99
2551	-5.7051	-1.5224	0.	122.3
2552	-5.1793	-1.5337	0.	121.91
2553	-5.4551	-1.2731	0.	121.59
2554	-5.4404	-1.7846	0.	122.38
2555	-6.4837	-1.7568	0.	123.51
2556	-6.4902	-2.2584	0.	123.29
2557	-6.7389	-2.0051	0.	123.61
2558	-4.5074	-4.3328	0.	125.45
2559	-4.7692	-4.0704	0.	125.74
2560	-4.2794	-4.044	0.	127.1
2561	3.2605	-4.5629	0.	128.31
2562	2.9997	-4.3255	0.	129.8
2563	2.7549	-4.5579	0.	129.7
2564	3.0162	-4.8022	0.	128.74
2565	-4.1065	-3.2796	0.	128.15
2566	-3.8136	-3.4801	0.	129.07
2567	-4.0523	-3.7723	0.	128.17
2568	-1.411	3.6485	0.	126.03
2569	-2.0844	4.5459	0.	127.72
2570	-1.7237	4.5518	0.	124.72
2571	-1.8483	4.2055	0.	126.51
2572	-3.9452	-2.992	0.	128.6
2573	3.5071	-4.3278	0.	127.65
2574	3.7713	-4.5569	0.	126.13
2575	3.525	-4.7985	0.	127.4
2576	5.0609	-4.7605	0.	120.92
2577	5.3096	-4.5124	0.	121.19
2578	4.7987	-4.5244	0.	121.59
2579	-4.4601	-4.8955	0.	123.61
2580	-4.7416	-4.604	0.	124.16
2581	-4.2476	-4.57	0.	125.91
2582	-6.2243	-1.5111	0.	123.17
2583	-6.7361	-1.5051	0.	124.14
2584	-6.4829	-1.2573	0.	124.01
2585	-5.9707	-1.2642	0.	122.67
2586	6.5256	0.68303	0.	126.32
2587	6.7683	0.43987	0.	127.06
2588	6.2874	0.40915	0.	126.87
2589	6.52	0.17814	0.	128.2
2590	6.7706	0.9477	0.	125.66
2591	6.28	0.91833	0.	125.16
2592	6.5182	1.1913	0.	125.18
2593	6.7433	-0.55642	0.	129.85
2594	6.2496	-0.57974	0.	131.3
2595	6.5053	-0.31894	0.	130.08
2596	6.5087	-0.80824	0.	130.8
2597	-4.1996	-5.3278	0.	124.17
2598	-4.1915	-5.1029	0.	124.55
2599	-4.489	-5.4757	0.	120.62
2600	-4.7054	-5.1639	0.	121.71
2601	-4.9405	-1.2725	0.	121.39
2602	-4.6567	-1.5093	0.	122.24
2603	-4.9805	-0.75049	0.	120.4
2604	-5.2164	-1.012	0.	121.07
2605	-4.7168	-0.98875	0.	121.42
2606	2.2666	-5.0336	0.	128.58
2607	2.5117	-4.7953	0.	129.4
2608	2.773	-5.0396	0.	128.45
2609	2.0215	-5.2755	0.	127.79
2610	1.7757	-5.5196	0.	127.
2611	-5.5139	-3.8115	0.	125.35
2612	-5.7644	-3.5475	0.	125.07
2613	-3.324	-2.2479	0.	130.55
2614	-3.4642	-2.5151	0.	129.85
2615	-3.6702	-2.0944	0.	127.4
2616	-5.2614	-4.0724	0.	125.35
2617	-5.0034	-4.3416	0.	124.46
2618	-4.3402	-1.737	0.	123.47
2619	-4.0225	-1.9324	0.	125.08
2620	2.3206	-6.5109	0.	125.7
2621	2.0665	-6.7556	0.	125.84
2622	1.8013	-6.5068	0.	125.95
2623	2.8405	-6.516	0.	125.77
2624	2.5916	-6.763	0.	125.59
2625	-0.93626	4.1251	0.	124.31
2626	-0.69405	3.9136	0.	125.28
2627	-1.1488	3.8784	0.	125.28
2628	4.9587	-3.2968	0.	116.73
2629	5.2299	-3.4963	0.	120.21
2630	4.7369	-3.5616	0.	118.72
2631	-3.8258	5.995	0.	128.41
2632	-3.5952	6.2325	0.	127.3
2633	-3.5597	5.7542	0.	128.75
2634	-3.3457	5.9431	0.	128.81
2635	1.2765	-6.0092	0.	126.98
2636	1.5271	-5.7642	0.	126.6
2637	1.537	-6.2582	0.	126.21
2638	-4.7492	-0.48099	0.	120.84
2639	-5.2412	-0.50027	0.	120.26
2640	-5.0005	-0.24249	0.	119.18
2641	-3.6523	-3.1925	0.	129.51
2642	-3.5535	-3.7175	0.	129.72
2643	-3.3223	-3.5021	0.	129.61
2644	-3.3633	-3.2943	0.	129.73
2645	5.3259	6.7357	0.	127.32
2646	5.0158	6.6171	0.	127.46
2647	4.8605	6.9471	0.	127.64
2648	5.2523	7.0853	0.	127.68
2649	4.2639	-4.0713	0.	122.62
2650	4.5039	-3.8227	0.	120.07
2651	4.5309	-4.2973	0.	121.64
2652	3.2463	-4.0904	0.	129.14
2653	2.7436	-4.0785	0.	131.04
2654	2.9922	-3.8506	0.	131.02
2655	7.0144	1.2123	0.	125.36
2656	7.2612	1.4719	0.	125.12
2657	7.0116	1.7197	0.	124.51
2658	6.762	1.4559	0.	124.87
2659	7.0132	0.70455	0.	126.42
2660	7.2618	0.96487	0.	125.9
2661	7.2573	0.45881	0.	126.88
2662	7.0062	0.20008	0.	127.64
2663	7.2438	-0.53929	0.	128.08
2664	6.996	-0.79284	0.	128.42
2665	6.9961	-0.29912	0.	128.53
2666	-3.0718	4.3524	0.	130.72
2667	-3.3499	4.0594	0.	130.33
2668	-3.0783	3.7999	0.	130.6
2669	-2.9427	4.011	0.	130.37
2670	-2.8989	6.4549	0.	128.01
2671	-3.3625	6.4545	0.	126.78
2672	-3.1376	6.691	0.	126.4
2673	-3.1131	6.165	0.	128.29
2674	-6.2545	-3.0246	0.	123.64
2675	-6.0084	-3.285	0.	124.44
2676	-3.962	-5.2419	0.	126.17
2677	-3.7231	-5.5172	0.	128.13
2678	-4.0293	-5.6979	0.	125.4
2679	-3.7922	-4.0097	0.	128.82
2680	-4.0196	-4.2812	0.	127.56
2681	-0.46501	3.6925	0.	125.55
2682	-0.22492	3.4604	0.	125.42
2683	-0.47635	3.2085	0.	125.52
2684	6.0667	-4.331	0.	124.61
2685	6.0589	-3.9158	0.	126.05
2686	5.8366	-4.0415	0.	124.06
2687	6.3097	-4.1009	0.	126.95
2688	-5.7207	-1.0149	0.	121.96
2689	-5.4771	-0.76173	0.	120.93
2690	-6.7456	-2.5076	0.	123.25
2691	-6.498	-2.7643	0.	123.25
2692	-6.9943	-2.2543	0.	123.58
2693	-6.9978	-2.7571	0.	122.95
2694	-7.2468	-2.504	0.	123.53
2695	-6.9912	-1.7534	0.	124.24
2696	-7.244	-2.0025	0.	124.24
2697	-6.9907	-1.2534	0.	125.09
2698	-7.2425	-1.5024	0.	124.99
2699	-6.7375	-1.0057	0.	124.97
2700	-7.2426	-1.0029	0.	125.92
2701	-6.9916	-0.75389	0.	126.25
2702	6.0194	-0.35275	0.	130.77
2703	5.7196	-0.62381	0.	130.59
2704	6.023	-0.8282	0.	132.68
2705	6.0174	1.1591	0.	124.95
2706	5.7217	1.3943	0.	125.49
2707	6.2556	1.4321	0.	124.97
2708	6.0048	1.6816	0.	125.6
2709	6.0418	0.64445	0.	125.72
2710	5.7933	0.85877	0.	123.95
2711	6.0425	0.13905	0.	128.23
2712	5.8145	0.34954	0.	126.18
2713	-6.2294	-1.0104	0.	123.52
2714	-6.4868	-0.75704	0.	124.98
2715	-5.9812	-0.76053	0.	122.88
2716	-1.7533	1.9924	0.	125.99
2717	-2.2557	2.0048	0.	126.24
2718	-2.0001	2.2422	0.	126.57
2719	-2.0103	1.757	0.	125.01
2720	6.3024	-4.5492	0.	125.49
2721	6.0605	-4.7887	0.	122.72
2722	5.8104	-4.5301	0.	122.61
2723	0.75323	2.9958	0.	122.46
2724	0.25764	2.9858	0.	123.55
2725	0.50337	2.7427	0.	122.05
2726	0.50824	3.2379	0.	123.59
2727	1.0013	2.7512	0.	121.45
2728	1.2516	3.0052	0.	122.25
2729	1.0034	3.2488	0.	122.34
2730	-3.7218	-5.0185	0.	127.99
2731	-3.979	-4.7773	0.	126.84
2732	1.524e-002	3.2247	0.	124.76
2733	7.4427e-003	2.7325	0.	123.84
2734	-0.23619	2.9728	0.	124.85
2735	-6.7502	-3.0137	0.	122.95
2736	-6.5024	-3.2715	0.	123.47
2737	-7.0001	-3.2605	0.	122.22
2738	-7.249	-3.0068	0.	122.72
2739	4.8121	-5.0102	0.	122.2
2740	5.3179	-5.0112	0.	120.41
2741	5.0758	-5.2523	0.	120.83
2742	3.3568	-6.5138	0.	126.28
2743	3.1181	-6.7713	0.	125.53
2744	3.0854	-6.2692	0.	126.32
2745	-3.0966	4.8834	0.	130.79
2746	-3.3587	5.326	0.	130.11
2747	-3.0034	5.2819	0.	131.28
2748	-3.3965	5.0801	0.	130.39
2749	-2.7804	4.8155	0.	131.01
2750	-3.2737	4.5879	0.	130.68
2751	-2.7779	4.4889	0.	130.36
2752	6.2726	-3.678	0.	128.08
2753	5.9919	-3.5152	0.	127.21
2754	5.8189	-3.8446	0.	124.62
2755	6.7454	-3.6016	0.	129.86
2756	6.4601	-3.4143	0.	130.4
2757	6.5234	-3.8631	0.	128.98
2758	3.7536	-4.0878	0.	126.06
2759	3.4948	-3.8581	0.	128.46
2760	4.0178	-4.3169	0.	124.55
2761	3.9994	-3.8475	0.	124.11
2762	2.	3.7645	0.	119.56
2763	1.7506	3.5123	0.	120.94
2764	2.2517	3.5253	0.	121.29
2765	2.0032	3.2699	0.	122.25
2766	4.2513	7.5267	0.	126.85
2767	4.4956	7.769	0.	126.73
2768	4.7254	7.5052	0.	127.32
2769	4.5493	7.2905	0.	127.44
2770	-3.549	-2.8287	0.	129.99
2771	3.1944	-1.5918	0.	124.96
2772	2.9521	-1.3517	0.	126.42
2773	3.4969	-1.3509	0.	126.99
2774	3.2098	-1.2097	0.	125.21
2775	4.3577	2.1393	0.	129.99
2776	4.1016	2.3884	0.	127.16
2777	4.1451	1.9613	0.	127.37
2778	3.9357	2.1676	0.	123.73
2779	-1.1636	4.3122	0.	123.9
2780	-1.4533	4.4805	0.	123.54
2781	-1.3761	4.0655	0.	124.88
2782	-1.5779	4.1341	0.	125.33
2783	-0.97558	4.5851	0.	122.28
2784	-0.70945	4.3858	0.	124.21
2785	2.0736	-7.251	0.	126.26
2786	1.8109	-7.0022	0.	126.31
2787	2.3375	-7.0077	0.	125.73
2788	-2.056	0.80412	0.	121.75
2789	-2.1162	0.36473	0.	120.12
2790	-1.8207	0.53758	0.	121.1
2791	-2.3232	0.58412	0.	122.8
2792	-4.4329	-1.2255	0.	122.26
2793	-4.1476	-1.4393	0.	122.93
2794	-4.4855	-0.71924	0.	121.87
2795	-4.2233	-0.94231	0.	123.27
2796	2.2509	4.0162	0.	119.15
2797	1.7505	4.0079	0.	118.88
2798	1.9999	4.2586	0.	118.12
2799	1.0186	-5.7598	0.	127.61
2800	1.024	-6.256	0.	127.48
2801	0.76606	-6.0059	0.	130.4
2802	-4.0611	6.24	0.	128.02
2803	-4.0478	5.749	0.	128.89
2804	-4.2925	5.9952	0.	130.88
2805	-2.6301	6.2636	0.	130.28
2806	-2.6715	6.6953	0.	127.43
2807	-2.4161	6.4169	0.	129.99
2808	5.1635	-3.0156	0.	118.02
2809	4.6951	-3.0838	0.	115.55
2810	4.9145	-2.8162	0.	114.74
2811	-4.7934	-5.7179	0.	117.98
2812	-4.3187	-5.8458	0.	121.83
2813	-4.5903	-6.0283	0.	118.27
2814	-2.9696	-2.387	0.	130.84
2815	-2.8195	-2.1138	0.	130.14
2816	-3.1689	-1.9677	0.	129.66
2817	0.75146	2.4982	0.	121.03
2818	0.99989	2.2524	0.	119.66
2819	1.251	2.5073	0.	121.94
2820	6.9443	-3.3222	0.	130.41
2821	7.233	-3.5318	0.	129.27
2822	7.0039	-3.8068	0.	130.32
2823	7.5086	1.2245	0.	125.67
2824	7.5088	1.7311	0.	125.06
2825	7.7572	1.4822	0.	125.63
2826	7.5059	0.71913	0.	126.37
2827	7.7562	0.97684	0.	126.11
2828	7.4994	0.21574	0.	127.03
2829	7.7525	0.47311	0.	126.65
2830	7.496	-0.28315	0.	127.33
2831	7.7468	-2.8505e-002	0.	127.02
2832	7.2483	-4.2985e-002	0.	127.79
2833	7.4966	-0.77887	0.	127.04
2834	7.7465	-0.52547	0.	126.97
2835	7.5075	-1.27	0.	126.35
2836	7.2488	-1.0324	0.	127.38
2837	7.7509	-1.0203	0.	126.43
2838	7.5323	-1.7518	0.	126.03
2839	7.2729	-1.5213	0.	126.34
2840	7.7665	-1.5098	0.	125.85
2841	7.5549	-2.2218	0.	126.41
2842	7.3022	-2.0021	0.	126.38
2843	7.787	-1.9935	0.	125.85
2844	7.4951	-2.6979	0.	127.44
2845	7.3515	-2.4674	0.	127.56
2846	7.7936	-2.4724	0.	126.27
2847	7.1639	-3.0104	0.	129.4
2848	7.2826	-2.7121	0.	128.26
2849	7.4526	-3.22	0.	128.25
2850	7.7033	-2.9649	0.	127.
2851	-5.5025	-4.3239	0.	125.02
2852	-5.7562	-4.0567	0.	125.8
2853	2.0076	-4.7837	0.	129.46
2854	1.7633	-5.0256	0.	128.35
2855	1.753	-4.5317	0.	129.98
2856	1.9991	-4.2923	0.	131.32
2857	2.2527	-4.5454	0.	130.28
2858	1.2692	-5.5147	0.	127.24
2859	1.5175	-5.2697	0.	127.56
2860	-5.0098	-5.4061	0.	119.12
2861	-5.2401	-5.1163	0.	121.88
2862	-4.9869	-4.8724	0.	122.27
2863	-2.2867	1.0461	0.	123.41
2864	-1.7838	1.0143	0.	122.75
2865	-2.0262	1.2751	0.	123.36
2866	5.7715	6.5539	0.	126.74
2867	5.4345	6.3981	0.	127.11
2868	5.6487	6.8209	0.	127.46
2869	2.6449	-1.9909	0.	126.67
2870	2.3837	-2.09	0.	127.33
2871	2.8598	-2.2113	0.	127.82
2872	2.5854	-2.4112	0.	128.43
2873	-4.261	-0.44816	0.	123.91
2874	-4.5097	-0.2204	0.	121.34
2875	-2.3839	0.15244	0.	122.57
2876	-2.1788	-4.7283e-002	0.	118.47
2877	-1.957	5.5963e-002	0.	117.82
2878	-5.7376	-0.50732	0.	121.86
2879	-5.4939	-0.25346	0.	120.17
2880	-2.4989	2.7256	0.	128.97
2881	-2.7515	2.9805	0.	130.26
2882	-2.241	2.9673	0.	128.72
2883	-2.4894	3.1618	0.	129.53
2884	-2.5128	1.7699	0.	125.77
2885	-2.5279	1.2931	0.	124.6
2886	-2.7677	1.531	0.	125.51
2887	-2.2674	1.5221	0.	124.54
2888	7.2592	1.9788	0.	124.45
2889	7.0095	2.2276	0.	123.54
2890	6.7606	1.9659	0.	124.27
2891	7.5074	2.2381	0.	124.6
2892	7.7571	1.9889	0.	125.28
2893	4.2887	3.0574	0.	129.2
2894	4.5321	3.2894	0.	131.13
2895	4.7873	3.0345	0.	132.24
2896	4.5504	2.81	0.	131.22
2897	6.2665	2.4719	0.	124.9
2898	6.7614	2.4777	0.	123.17
2899	6.5128	2.7298	0.	122.02
2900	6.5124	2.216	0.	123.91
2901	5.0456	2.2804	0.	132.08
2902	5.2887	2.5056	0.	131.34
2903	5.0414	2.7746	0.	132.91
2904	4.8045	2.5501	0.	131.89
2905	6.5638	-5.2532	0.	125.7
2906	6.598	-5.7083	0.	126.49
2907	6.8141	-5.4854	0.	128.36
2908	6.3327	-5.508	0.	122.3
2909	-0.21954	3.948	0.	126.07
2910	-0.46724	4.1743	0.	125.19
2911	1.5013	3.2586	0.	121.77
2912	1.2531	3.5023	0.	121.86
2913	1.5011	3.7557	0.	120.29
2914	2.0548e-002	3.7159	0.	125.94
2915	0.26584	3.4768	0.	124.79
2916	3.7726	7.5242	0.	125.87
2917	4.0248	7.2717	0.	127.46
2918	4.0157	7.7684	0.	125.97
2919	2.5057	3.2896	0.	122.96
2920	2.7568	3.5429	0.	122.76
2921	2.5026	3.7771	0.	120.91
2922	4.0298	3.3056	0.	127.94
2923	3.7702	3.548	0.	127.33
2924	4.2732	3.5377	0.	129.87
2925	4.0172	3.7857	0.	129.21
2926	4.7124	6.4512	0.	127.65
2927	5.1244	6.2794	0.	127.25
2928	4.764	6.1846	0.	127.45
2929	-3.5342	-4.2514	0.	129.65
2930	-3.3094	-4.0062	0.	130.06
2931	1.5457	-6.7534	0.	126.41
2932	1.2845	-6.505	0.	126.71
2933	3.4514	-7.5579	0.	125.37
2934	3.6968	-7.312	0.	125.04
2935	3.6454	-7.8302	0.	126.25
2936	4.0033	-7.5392	0.	125.06
2937	3.8732	-7.8213	0.	126.59
2938	2.8909	-7.5152	0.	125.69
2939	3.13	-7.7737	0.	126.11
2940	3.1538	-7.2742	0.	125.31
2941	2.3424	-7.5026	0.	126.27
2942	2.5948	-7.755	0.	126.45
2943	2.6063	-7.2593	0.	125.73
2944	1.8124	-7.4977	0.	126.98
2945	2.0681	-7.7474	0.	126.92
2946	2.2452	-4.0578	0.	131.99
2947	2.4945	-3.8271	0.	132.13
2948	2.4988	-4.3109	0.	130.94
2949	-0.7429	2.4737	0.	126.14
2950	-0.99663	2.2238	0.	126.87
2951	-0.98561	2.7132	0.	126.46
2952	-1.2426	2.4726	0.	126.73
2953	0.50072	2.2452	0.	120.15
2954	0.25317	2.4895	0.	122.34
2955	-1.2519	1.9809	0.	126.61
2956	-1.5081	1.7377	0.	125.44
2957	-1.4979	2.2297	0.	126.46
2958	-6.0067	-3.7927	0.	125.52
2959	-6.2563	-3.532	0.	124.27
2960	-7.2505	-3.5083	0.	121.58
2961	-7.5001	-3.7547	0.	119.94
2962	-7.7499	-3.5033	0.	122.51
2963	-7.4994	-3.2547	0.	122.09
2964	-7.4953	-1.7515	0.	124.99
2965	-7.7467	-2.0011	0.	125.06
2966	-7.4966	-2.2522	0.	124.2
2967	-7.4944	-1.2519	0.	125.83
2968	-7.7459	-1.5011	0.	125.76
2969	-7.4948	-0.75228	0.	126.74
2970	-7.7455	-1.0016	0.	126.5
2971	-7.7464	-0.50166	0.	127.21
2972	-7.2439	-0.50323	0.	127.06
2973	-7.4961	-0.25219	0.	127.54
2974	-7.5001	3.75	0.	129.51
2975	-7.2502	3.5	0.	129.36
2976	-7.7501	3.5	0.	129.21
2977	-7.5001	3.25	0.	129.43
2978	-7.5001	5.75	0.	127.01
2979	-7.5001	6.25	0.	126.67
2980	-7.2501	6.	0.	127.49
2981	-7.7501	6.	0.	126.44
2982	-3.8305	6.4775	0.	126.91
2983	-3.6013	6.7159	0.	126.24
2984	-4.7539	3.0037	0.	119.04
2985	-5.0018	2.7516	0.	117.63
2986	-5.2522	3.0014	0.	117.97
2987	-5.0049	3.2524	0.	118.12
2988	-3.5624	5.2662	0.	129.77
2989	-3.7817	5.5082	0.	129.24
2990	-3.3107	5.7011	0.	129.56
2991	-3.7947	4.0298	0.	129.32
2992	-3.5518	4.2949	0.	130.3
2993	-3.5405	3.782	0.	129.98
2994	-7.5002	4.25	0.	129.3
2995	-7.2503	4.	0.	129.48
2996	-7.7501	4.	0.	129.14
2997	-5.5043	3.7508	0.	117.02
2998	-5.5024	3.2507	0.	118.28
2999	-5.2552	3.5017	0.	118.42
3000	-5.7526	3.5005	0.	119.93
3001	-6.7505	3.5	0.	127.86
3002	-7.0004	3.75	0.	129.33
3003	-7.0002	3.25	0.	129.49
3004	4.3212	-5.4965	0.	126.28
3005	3.8117	-5.5083	0.	127.5
3006	4.0566	-5.2627	0.	126.58
3007	4.0775	-5.7456	0.	128.43
3008	5.6054	-5.763	0.	114.54
3009	5.5808	-5.2648	0.	118.56
3010	5.8419	-5.5212	0.	118.14
3011	5.3387	-5.5059	0.	118.97
3012	3.5972	-6.2566	0.	127.17
3013	3.3259	-6.012	0.	127.21
3014	3.569	-5.7599	0.	127.65
3015	3.8348	-5.9972	0.	128.59
3016	-3.1497	7.1874	0.	126.31
3017	-2.9102	6.9314	0.	125.84
3018	-3.3763	6.9524	0.	125.87
3019	-2.4029	4.8425	0.	130.
3020	-2.0701	4.8166	0.	127.7
3021	-2.4005	4.5158	0.	129.35
3022	6.8167	-2.839	0.	131.18
3023	6.659	-3.1349	0.	130.94
3024	5.7084	-3.3831	0.	124.94
3025	5.4348	-3.2151	0.	121.54
3026	5.5353	-3.7126	0.	122.35
3027	7.0141	-1.2837	0.	127.37
3028	6.7613	-1.0447	0.	129.38
3029	7.0987	-2.2477	0.	127.52
3030	6.9354	-2.5408	0.	130.05
3031	2.4054	-1.8863	0.	126.94
3032	2.9155	-1.79	0.	125.4
3033	2.6732	-1.5499	0.	126.84
3034	4.4733	-3.3486	0.	117.63
3035	4.2394	-3.599	0.	121.56
3036	3.2407	-3.6183	0.	130.34
3037	2.9969	-3.3777	0.	132.2
3038	2.7432	-3.5992	0.	132.09
3039	-3.291	-5.7145	0.	131.97
3040	-3.4829	-5.2938	0.	129.96
3041	-3.2394	-5.5089	0.	131.28
3042	-3.5584	-5.8262	0.	131.08
3043	3.7833	3.0747	0.	125.59
3044	4.0524	2.8403	0.	126.85
3045	5.2804	1.993	0.	130.31
3046	5.5235	2.2183	0.	129.55
3047	5.4804	1.6602	0.	127.39
3048	5.7635	1.9475	0.	127.51
3049	1.7539	3.0163	0.	123.07
3050	1.5013	2.7613	0.	122.73
3051	8.6885	6.6635	0.	131.31
3052	8.239	6.8021	0.	127.2
3053	8.3478	6.6315	0.	130.85
3054	8.4597	6.9754	0.	130.33
3055	-3.1279	-3.3561	0.	129.56
3056	-2.8654	-3.5386	0.	128.02
3057	-3.0782	-3.7908	0.	129.95
3058	-1.01	8.1421	0.	116.83
3059	-0.73163	8.3434	0.	124.23
3060	-0.82877	7.8667	0.	117.78
3061	-0.57888	8.0624	0.	133.87
3062	-3.2599	-2.9305	0.	130.2
3063	-3.1098	-2.6541	0.	130.16
3064	-2.9487	-3.0955	0.	128.58
3065	4.7522	7.9821	0.	126.67
3066	4.5066	8.2503	0.	126.03
3067	4.26	8.0107	0.	125.85
3068	5.2584	7.914	0.	127.26
3069	5.0039	8.2149	0.	126.64
3070	4.982	7.7182	0.	127.26
3071	5.7719	8.0162	0.	126.98
3072	5.7097	7.8172	0.	127.47
3073	5.5083	8.1602	0.	126.97
3074	5.4553	7.5962	0.	127.68
3075	5.9656	7.965	0.	126.94
3076	6.2498	8.1618	0.	125.61
3077	6.0077	8.3619	0.	126.07
3078	5.892	7.574	0.	127.8
3079	6.16	7.7483	0.	127.14
3080	6.1124	7.3474	0.	127.52
3081	5.8181	7.1995	0.	128.
3082	5.6377	7.353	0.	128.01
3083	2.2572	3.0342	0.	123.89
3084	2.7628	3.0712	0.	123.73
3085	2.5219	2.7893	0.	126.86
3086	2.0058	2.7738	0.	125.4
3087	4.8113	2.0741	0.	131.9
3088	5.0136	1.8025	0.	131.5
3089	4.57	1.8847	0.	131.9
3090	4.5702	2.3438	0.	131.7
3091	3.2734	3.0879	0.	123.64
3092	3.5237	3.317	0.	125.03
3093	3.5377	2.8405	0.	122.3
3094	3.0139	3.3244	0.	123.54
3095	3.0127	2.9041	0.	123.18
3096	-3.938	-1.156	0.	123.93
3097	-3.9988	-0.67122	0.	125.31
3098	-3.7427	-0.88244	0.	126.42
3099	-3.6581	-1.3557	0.	124.85
3100	-3.8299	-1.6347	0.	124.53
3101	-3.0543	-5.6558	0.	132.8
3102	-3.1703	-6.0756	0.	134.41
3103	-2.9245	-5.9243	0.	134.33
3104	3.4924	-3.3892	0.	130.4
3105	3.7406	-3.6179	0.	126.52
3106	6.8094	-2.0484	0.	127.85
3107	7.0427	-1.7716	0.	126.68
3108	6.1795	-3.2516	0.	129.51
3109	5.8963	-3.0913	0.	128.73
3110	-1.2653	4.7534	0.	121.9
3111	-1.7094	4.8225	0.	124.69
3112	-1.5144	4.918	0.	120.96
3113	-1.0304	5.0473	0.	119.75
3114	-0.75973	4.8592	0.	122.3
3115	-2.6872	5.2139	0.	131.48
3116	-2.594	5.5473	0.	132.72
3117	-2.9554	5.6569	0.	130.7
3118	-2.3474	5.1472	0.	131.17
3119	-3.3831	7.4476	0.	126.81
3120	-2.9236	7.4152	0.	128.06
3121	-3.1459	7.6785	0.	127.96
3122	3.6378	-6.7708	0.	125.73
3123	3.8657	-6.4971	0.	127.82
3124	3.3991	-7.0284	0.	124.99
3125	3.9179	-7.0123	0.	125.59
3126	4.5848	-5.7337	0.	127.25
3127	4.5668	-5.2529	0.	124.36
3128	4.8305	-5.495	0.	122.99
3129	-7.5002	4.75	0.	128.64
3130	-7.2502	5.	0.	128.65
3131	-7.5001	5.25	0.	127.74
3132	-7.7501	5.	0.	127.84
3133	-7.2505	4.5001	0.	129.46
3134	-7.7502	4.5	0.	128.7
3135	-3.8253	5.0168	0.	129.93
3136	-3.5736	4.7846	0.	130.27
3137	-3.8441	7.4716	0.	127.09
3138	-3.6097	7.2126	0.	126.35
3139	-3.6054	7.7127	0.	127.26
3140	-7.5005	7.2499	0.	126.98
3141	-7.5009	7.75	0.	126.99
3142	-7.7505	7.4999	0.	126.75
3143	-7.2514	7.4999	0.	127.63
3144	-7.7503	6.9999	0.	126.5
3145	-7.5003	6.7499	0.	126.72
3146	-7.2506	6.9999	0.	127.4
3147	-7.0008	-3.7619	0.	121.34
3148	-6.7522	-3.5183	0.	122.75
3149	-0.49709	2.2274	0.	126.23
3150	-0.24463	2.4805	0.	124.55
3151	-0.48826	2.7208	0.	125.56
3152	-1.9251	-3.9306	0.	122.25
3153	-1.7384	-3.6435	0.	119.66
3154	-1.6145	-4.1599	0.	117.9
3155	-1.5256	-3.903	0.	119.2
3156	2.7554	-3.1229	0.	132.32
3157	2.2601	-3.0782	0.	131.93
3158	2.5017	-3.3445	0.	132.21
3159	2.5277	-2.8659	0.	130.83
3160	1.5496	-7.249	0.	127.02
3161	1.547	-7.7457	0.	127.55
3162	1.2912	-7.4971	0.	128.01
3163	1.29	-7.0009	0.	127.35
3164	-3.5043	-4.7641	0.	129.54
3165	-3.2765	-4.5066	0.	130.67
3166	-3.7616	-4.523	0.	128.39
3167	-3.2489	-5.0074	0.	130.76
3168	3.2642	3.5536	0.	124.9
3169	3.0082	3.7919	0.	124.04
3170	3.5142	3.7949	0.	127.29
3171	3.3049	7.5444	0.	124.17
3172	3.5125	7.2786	0.	126.52
3173	3.531	7.7771	0.	124.56
3174	2.8714	7.5564	0.	122.22
3175	3.0039	7.3114	0.	123.63
3176	3.069	7.7983	0.	122.77
3177	4.2619	6.5159	0.	128.62
3178	4.5548	6.2482	0.	127.71
3179	4.5572	6.7812	0.	127.83
3180	1.005	3.7463	0.	122.89
3181	0.75844	3.4909	0.	123.47
3182	6.7978	-5.0127	0.	128.27
3183	6.5508	-4.7837	0.	126.57
3184	6.3089	-5.0232	0.	123.81
3185	4.7085	5.0824	0.	129.39
3186	4.2316	5.0156	0.	128.73
3187	4.4931	5.2617	0.	128.25
3188	4.4831	4.7742	0.	129.22
3189	5.7742	2.4784	0.	128.32
3190	5.5271	2.7445	0.	131.17
3191	6.0184	2.7294	0.	126.26
3192	6.0143	2.2076	0.	126.25
3193	4.5181	3.7818	0.	130.89
3194	4.262	4.0298	0.	130.23
3195	4.7603	4.0331	0.	131.52
3196	4.5049	4.2816	0.	130.21
3197	4.7727	3.5295	0.	132.39
3198	7.2577	2.4869	0.	123.68
3199	7.0085	2.7368	0.	122.09
3200	7.7554	2.4961	0.	125.13
3201	7.5056	2.7461	0.	124.55
3202	-4.0254	3.7666	0.	127.7
3203	-4.0131	3.2623	0.	126.51
3204	-3.7712	3.5187	0.	128.36
3205	-4.2652	3.5107	0.	124.66
3206	-2.5044	2.2503	0.	127.55
3207	-2.7581	2.013	0.	127.6
3208	-2.7535	2.4979	0.	129.63
3209	-2.2488	2.4877	0.	127.88
3210	-7.5	2.25	0.	127.97
3211	-7.25	2.5	0.	129.25
3212	-7.5	2.75	0.	128.98
3213	-7.75	2.5	0.	128.28
3214	-7.25	1.9999	0.	127.79
3215	-7.4999	1.7498	0.	126.95
3216	-7.75	1.9999	0.	127.2
3217	-6.5005	3.25	0.	127.37
3218	-6.5012	3.7501	0.	126.68
3219	-6.2513	3.5001	0.	124.13
3220	-6.2386	-0.5072	0.	124.35
3221	-6.4922	-0.2554	0.	126.73
3222	-6.7409	-0.50527	0.	126.25
3223	-5.9919	-0.25603	0.	123.52
3224	-7.7489	0.49909	0.	127.52
3225	-7.2488	0.49856	0.	128.54
3226	-7.4992	0.74913	0.	127.39
3227	-7.4978	0.24841	0.	127.85
3228	-2.7848	1.0558	0.	125.84
3229	-2.5539	0.82612	0.	124.46
3230	-2.844	0.13564	0.	128.84
3231	-2.6218	-7.3967e-002	0.	126.73
3232	-2.5909	0.37183	0.	125.24
3233	-3.7811	-0.405	0.	129.04
3234	-4.0237	-0.18673	0.	126.42
3235	2.6254	7.7877	0.	121.13
3236	2.4557	7.5127	0.	121.13
3237	2.7957	7.3075	0.	122.68
3238	2.3538	7.9985	0.	122.
3239	2.5603	8.2653	0.	122.43
3240	2.8229	8.0296	0.	121.7
3241	2.1253	-1.7092	0.	127.83
3242	1.853	-1.9889	0.	129.52
3243	2.0976	-2.2621	0.	128.44
3244	6.1003	6.6921	0.	127.17
3245	5.8983	6.2625	0.	125.51
3246	6.2403	6.4419	0.	126.72
3247	3.8068	2.6061	0.	123.51
3248	4.314	2.5929	0.	128.87
3249	-1.6615	0.22882	0.	118.86
3250	-1.3129	0.44542	0.	123.26
3251	-1.5485	0.74778	0.	122.12
3252	-1.9795	-0.14832	0.	116.9
3253	-2.4167	-0.27369	0.	122.66
3254	-2.1927	-0.46479	0.	114.6
3255	-5.288	-5.6419	0.	119.59
3256	-5.0719	-5.9349	0.	115.6
3257	3.4132	-1.7903	0.	129.7
3258	3.1305	-2.0104	0.	126.54
3259	5.3694	-2.7391	0.	118.47
3260	5.6227	-2.9232	0.	125.33
3261	-2.483	5.8641	0.	132.54
3262	-2.3778	6.2107	0.	131.23
3263	-2.8443	5.9738	0.	130.58
3264	-1.4637	8.2038	0.	115.28
3265	-1.19	8.4037	0.	116.52
3266	-1.2719	7.9516	0.	110.15
3267	6.8469	-5.9426	0.	130.95
3268	6.3933	-5.9989	0.	122.27
3269	6.6172	-6.1294	0.	128.85
3270	7.0631	-5.7197	0.	132.83
3271	7.0656	-6.1928	0.	136.53
3272	7.3022	-5.9702	0.	137.57
3273	5.8915	-6.0404	0.	114.28
3274	5.6097	-6.2555	0.	108.82
3275	5.3603	-5.996	0.	116.51
3276	-7.0002	5.25	0.	128.64
3277	-6.7501	5.5	0.	129.65
3278	-7.2501	5.5	0.	127.73
3279	-7.0001	5.75	0.	128.2
3280	-4.2991	6.49	0.	129.02
3281	-4.0689	6.7339	0.	127.13
3282	0.74915	1.9994	0.	118.75
3283	0.24951	1.9923	0.	121.05
3284	0.49934	1.7469	0.	117.32
3285	0.76199	-5.5087	0.	129.6
3286	1.0138	-5.2635	0.	127.92
3287	2.7541	4.0261	0.	122.18
3288	2.5014	4.2655	0.	118.64
3289	-4.5146	0.2716	0.	119.62
3290	-4.2725	4.1029e-002	0.	123.86
3291	-4.761	1.8094e-002	0.	119.66
3292	7.3173	-8.0296	0.	130.41
3293	7.078	-8.2566	0.	131.57
3294	7.243	-7.7881	0.	131.7
3295	6.8351	-7.9758	0.	133.92
3296	1.5087	-4.7735	0.	128.87
3297	1.2621	-5.0185	0.	128.25
3298	1.5032	-4.2761	0.	130.33
3299	1.257	-4.5205	0.	129.04
3300	-5.4977	-4.837	0.	123.75
3301	-5.7481	-4.5646	0.	125.76
3302	-5.2445	-4.5931	0.	124.13
3303	-3.0774	-7.6647	0.	131.58
3304	-3.4302	-7.8398	0.	134.74
3305	-2.8543	-7.9416	0.	130.77
3306	-3.117	-8.1608	0.	131.86
3307	-0.2426	-7.9992	0.	118.3
3308	-0.49536	-8.2498	0.	116.48
3309	-0.49651	-7.7501	0.	113.54
3310	-0.74913	-8.0007	0.	114.29
3311	1.8027	-7.9954	0.	127.49
3312	1.2872	-7.9954	0.	127.84
3313	1.5387	-8.2448	0.	127.65
3314	2.3204	-7.9999	0.	127.11
3315	2.0519	-8.2462	0.	127.56
3316	2.8339	-8.0135	0.	126.88
3317	2.5641	-8.2536	0.	127.46
3318	3.324	-8.046	0.	126.99
3319	3.0693	-8.2715	0.	127.54
3320	3.554	-8.3027	0.	127.98
3321	3.7873	-8.0597	0.	127.52
3322	-2.6702	8.0938	0.	131.59
3323	-2.6882	7.633	0.	130.61
3324	-2.4522	7.8506	0.	137.02
3325	-2.9105	7.8962	0.	130.54
3326	-7.2524	8.	0.	127.01
3327	-7.5016	8.25	0.	126.52
3328	-7.7509	8.	0.	126.58
3329	7.7319	-3.4941	0.	126.86
3330	7.4925	-3.7532	0.	128.94
3331	0.99988	1.7522	0.	117.75
3332	1.2474	2.0073	0.	120.31
3333	8.0052	2.2469	0.	125.82
3334	8.0035	2.7553	0.	126.1
3335	8.2535	2.504	0.	126.38
3336	8.2547	1.9963	0.	126.21
3337	8.0056	1.74	0.	125.85
3338	7.9999	0.22886	0.	126.64
3339	8.2507	0.4841	0.	126.53
3340	8.0027	0.73081	0.	126.39
3341	7.9973	-0.27083	0.	126.66
3342	8.2484	-1.6637e-002	0.	126.57
3343	8.2471	-0.51542	0.	126.4
3344	8.0008	-0.76692	0.	126.36
3345	8.0257	-2.2441	0.	125.71
3346	8.2716	-1.9988	0.	125.57
3347	8.0212	-1.7514	0.	125.67
3348	8.0018	-2.7394	0.	125.83
3349	8.2674	-2.4959	0.	125.61
3350	7.9826	-3.239	0.	125.61
3351	8.2385	-2.9926	0.	125.39
3352	7.9921	-3.7444	0.	124.83
3353	8.2389	-3.4935	0.	124.47
3354	3.3061	-0.56777	0.	122.22
3355	3.4972	-0.27402	0.	117.61
3356	3.819	-0.43096	0.	125.37
3357	3.5835	-0.69679	0.	121.49
3358	-7.9974	-1.7507	0.	125.84
3359	-8.2482	-2.0005	0.	126.1
3360	-7.998	-2.251	0.	125.24
3361	-7.997	-1.2508	0.	126.43
3362	-8.2478	-1.5005	0.	126.51
3363	-7.9971	-0.751	0.	126.97
3364	-8.2476	-1.0006	0.	126.93
3365	-8.2477	-0.50086	0.	127.25
3366	-7.9974	-0.25115	0.	127.33
3367	-8.2489	0.4993	0.	127.12
3368	-7.9992	0.74934	0.	126.99
3369	-7.9982	0.249	0.	127.33
3370	-8.25	3.5	0.	128.47
3371	-8.0001	3.75	0.	128.84
3372	-8.	3.25	0.	128.74
3373	-8.2503	7.5	0.	126.07
3374	-8.0005	7.75	0.	126.34
3375	-8.0003	7.25	0.	126.28
3376	2.3932	-1.3727	0.	127.75
3377	2.6217	-1.0759	0.	130.34
3378	2.9376	-1.1706	0.	126.24
3379	-2.6195	-3.7578	0.	127.75
3380	-2.4221	-3.4801	0.	124.1
3381	-2.6862	-3.278	0.	127.04
3382	5.8099	-0.13499	0.	129.44
3383	6.2751	-9.1958e-002	0.	129.54
3384	5.566	0.56387	0.	124.38
3385	5.3501	0.23402	0.	124.98
3386	5.5819	7.5499e-002	0.	127.39
3387	6.2719	7.107	0.	127.42
3388	6.4398	6.8588	0.	125.39
3389	5.9776	6.9591	0.	127.91
3390	6.4443	7.9451	0.	125.81
3391	6.4766	8.3806	0.	124.42
3392	6.7152	8.1499	0.	122.8
3393	1.7531	2.5188	0.	125.07
3394	1.4985	2.2622	0.	122.6
3395	5.4975	1.094	0.	124.47
3396	5.187	1.2224	0.	125.37
3397	5.2137	1.4696	0.	128.59
3398	-1.5339	-6.585e-002	0.	120.96
3399	-1.7553	-0.31499	0.	112.55
3400	-3.5462	-0.14573	0.	132.25
3401	-3.3117	-0.35836	0.	133.44
3402	-3.5249	-0.61622	0.	130.11
3403	-5.7511	-5.0704	0.	124.77
3404	-5.5183	-5.3521	0.	122.39
3405	-3.8646	-6.0069	0.	128.33
3406	-4.1363	-6.1752	0.	122.84
3407	-2.8715	-6.6823	0.	131.87
3408	-3.0332	-6.3668	0.	134.64
3409	-2.6252	-6.4712	0.	134.98
3410	-2.7874	-6.2155	0.	134.56
3411	4.2185	-3.1296	0.	120.27
3412	4.4505	-2.8754	0.	113.84
3413	3.0201	-2.9096	0.	132.12
3414	3.2486	-3.1486	0.	132.25
3415	6.5149	-2.6756	0.	133.
3416	6.646	-2.3415	0.	130.35
3417	-0.30748	5.4327	0.	124.69
3418	-0.8102	5.3474	0.	120.97
3419	-0.61722	5.695	0.	125.16
3420	-0.53948	5.1592	0.	123.54
3421	-2.0146	5.1214	0.	128.88
3422	-1.6998	5.0478	0.	122.8
3423	-2.6841	7.1592	0.	127.53
3424	-2.4394	6.9068	0.	132.13
3425	-2.4129	8.2939	0.	129.94
3426	-2.6005	8.5289	0.	129.65
3427	-2.8743	8.3722	0.	130.16
3428	6.1254	-6.3271	0.	113.39
3429	6.3884	-6.1996	0.	123.61
3430	6.128	-5.7986	0.	118.05
3431	4.5266	-7.4487	0.	130.54
3432	4.2244	-7.2395	0.	125.57
3433	4.3617	-7.7289	0.	126.85
3434	-5.2586	4.0018	0.	117.48
3435	-5.7542	4.0006	0.	118.04
3436	-5.5057	4.2509	0.	112.37
3437	-6.7511	4.0001	0.	128.15
3438	-7.0006	4.2501	0.	129.64
3439	-4.2809	5.5026	0.	130.54
3440	-4.0446	5.2587	0.	129.38
3441	-4.2765	4.0132	0.	126.78
3442	-4.0366	4.2686	0.	129.21
3443	-4.0724	7.7328	0.	127.18
3444	-4.0578	8.2364	0.	126.67
3445	-4.3072	7.9893	0.	125.92
3446	-3.8337	7.9739	0.	127.35
3447	-7.0037	8.25	0.	126.55
3448	-6.755	7.9999	0.	126.44
3449	-7.0029	7.7499	0.	127.65
3450	-7.2504	-4.0082	0.	119.66
3451	-7.7502	-4.0031	0.	120.73
3452	-7.5003	-4.2539	0.	114.93
3453	-6.0019	-4.2974	0.	126.53
3454	-6.2532	-4.036	0.	125.73
3455	-1.0432	0.66982	0.	125.24
3456	-0.97707	0.15324	0.	129.3
3457	-1.1852	0.15075	0.	125.36
3458	-0.78656	0.42607	0.	127.41
3459	-0.75082	1.9775	0.	126.96
3460	-1.006	1.7243	0.	127.
3461	1.7492	-4.0367	0.	131.67
3462	1.9982	-3.7991	0.	132.77
3463	1.0289	-6.7525	0.	127.64
3464	0.76998	-6.5033	0.	129.32
3465	0.77536	-7.9967	0.	127.25
3466	1.0314	-7.7467	0.	128.3
3467	1.0276	-8.246	0.	127.39
3468	-0.89609	-3.7093	0.	121.14
3469	-0.94567	-4.2186	0.	116.74
3470	-0.67926	-3.9761	0.	119.58
3471	-1.1236	-3.9341	0.	118.32
3472	-3.0055	-5.2226	0.	132.09
3473	-2.7612	-5.5004	0.	134.06
3474	-2.8324	-4.01	0.	129.67
3475	-3.0518	-4.2614	0.	131.08
3476	-1.7689	-8.0044	0.	119.62
3477	-1.5103	-8.2521	0.	117.48
3478	-1.5087	-7.7534	0.	114.17
3479	-1.2566	-8.0028	0.	114.73
3480	4.0049	5.2644	0.	127.93
3481	3.7614	5.512	0.	128.86
3482	4.2664	5.5105	0.	127.46
3483	4.0277	5.7613	0.	127.7
3484	3.7611	4.0327	0.	129.13
3485	4.0066	4.2765	0.	129.97
3486	4.0276	6.7701	0.	128.83
3487	3.7647	7.026	0.	128.09
3488	4.3228	7.0354	0.	128.04
3489	-6.716e-002	5.6978	0.	127.53
3490	0.21411	5.4577	0.	126.93
3491	-3.163e-002	5.2012	0.	126.26
3492	1.253	3.9998	0.	121.31
3493	1.5007	4.253	0.	118.14
3494	1.5566e-002	4.2096	0.	127.
3495	0.26597	3.9723	0.	126.51
3496	7.0481	-5.2449	0.	130.94
3497	7.2914	-5.4871	0.	134.31
3498	7.2634	-4.0282	0.	129.99
3499	7.0271	-4.2875	0.	130.64
3500	6.7818	-4.0683	0.	129.44
3501	5.0007	4.3023	0.	131.49
3502	4.9706	4.8591	0.	130.37
3503	5.2435	4.5572	0.	133.19
3504	4.7452	4.5508	0.	130.2
3505	5.5614	6.1066	0.	125.88
3506	5.2028	5.9217	0.	127.89
3507	6.76	2.9889	0.	120.9
3508	6.2646	2.9872	0.	123.38
3509	6.5093	3.2406	0.	117.24
3510	7.9755	4.2913	0.	122.09
3511	8.2064	4.5611	0.	124.41
3512	7.9393	4.807	0.	118.82
3513	7.7215	4.5376	0.	120.26
3514	7.7536	3.0053	0.	125.51
3515	8.2512	3.0143	0.	126.72
3516	7.9998	3.2662	0.	126.21
3517	-4.2567	3.0077	0.	123.36
3518	-4.5038	2.7541	0.	119.22
3519	-4.5088	3.2561	0.	121.52
3520	-3.0061	2.7528	0.	130.91
3521	-3.01	3.2612	0.	130.85
3522	-3.258	3.0069	0.	130.85
3523	-6.9998	1.2495	0.	127.21
3524	-7.	1.7498	0.	127.33
3525	-6.75	1.4997	0.	128.19
3526	-7.2499	1.4997	0.	126.5
3527	-6.7502	3.	0.	128.99
3528	-7.0001	2.75	0.	129.81
3529	-7.2501	3.	0.	129.55
3530	-5.7483	-2.1738e-003	0.	121.83
3531	-5.5015	0.25036	0.	118.51
3532	-5.2532	4.3168e-003	0.	119.07
3533	-6.9975	0.24754	0.	128.9
3534	-6.7455	-3.7856e-003	0.	128.18
3535	-6.9942	-0.25365	0.	127.72
3536	-7.2465	-2.608e-003	0.	128.2
3537	-3.0246	1.2937	0.	126.75
3538	-3.013	1.7742	0.	127.34
3539	-3.2641	1.5272	0.	128.49
3540	-3.3126	0.1068	0.	132.16
3541	-3.0653	0.355	0.	130.77
3542	-3.0781	-0.10583	0.	133.35
3543	2.1842	7.7235	0.	121.93
3544	2.0696	8.2251	0.	124.61
3545	1.8926	7.9379	0.	122.39
3546	2.1464	6.9518	0.	124.38
3547	2.3203	7.2285	0.	121.92
3548	2.6603	7.0234	0.	123.51
3549	2.4286	6.7391	0.	121.46
3550	8.9443	5.1209	0.	137.
3551	9.1216	5.3499	0.	132.17
3552	9.0497	4.8768	0.	133.03
3553	9.3381	5.0797	0.	131.64
3554	1.8511	7.1555	0.	128.59
3555	1.9324	6.6891	0.	123.84
3556	1.6609	6.8839	0.	124.65
3557	2.025	7.4322	0.	126.26
3558	-3.543	0.32605	0.	133.65
3559	-3.7888	7.2536e-002	0.	129.65
3560	-3.0432	0.82084	0.	128.57
3561	-3.2957	0.57426	0.	132.28
3562	-2.8123	0.59119	0.	127.21
3563	-3.276	1.0468	0.	129.42
3564	-6.9991	0.7487	0.	128.64
3565	-6.7497	0.99916	0.	129.3
3566	-7.2496	0.99926	0.	127.5
3567	-6.7486	0.49783	0.	130.51
3568	-6.2455	-4.2334e-003	0.	125.89
3569	-6.4966	0.24651	0.	129.81
3570	-5.9982	0.24735	0.	124.87
3571	-6.2505	3.0001	0.	125.69
3572	-6.0004	2.7501	0.	124.25
3573	-5.7511	3.0004	0.	120.8
3574	-6.0013	3.2502	0.	122.46
3575	-6.5002	2.75	0.	130.04
3576	-7.	2.2499	0.	129.06
3577	-6.7501	2.5	0.	130.85
3578	-6.75	1.9999	0.	129.39
3579	-3.0073	2.2606	0.	129.67
3580	-3.2577	2.0149	0.	130.26
3581	-3.256	2.5078	0.	132.12
3582	-4.0062	2.7581	0.	126.45
3583	-3.7588	3.0117	0.	128.39
3584	7.2563	2.996	0.	122.96
3585	7.0059	3.2449	0.	120.66
3586	7.5028	3.2546	0.	125.82
3587	8.2364	4.0444	0.	125.31
3588	7.7407	4.0256	0.	124.04
3589	7.9926	3.7783	0.	124.96
3590	5.015	3.7808	0.	133.02
3591	5.2562	4.0319	0.	133.52
3592	5.2682	3.5194	0.	134.94
3593	5.0279	3.2746	0.	133.5
3594	5.7712	2.9955	0.	129.13
3595	5.5201	3.2583	0.	134.2
3596	5.2798	3.0135	0.	132.74
3597	6.0136	3.2436	0.	127.05
3598	5.2261	5.1083	0.	132.83
3599	4.733	5.3295	0.	129.01
3600	5.0134	5.4112	0.	129.41
3601	7.7712	-8.0289	0.	125.76
3602	7.5354	-8.2811	0.	128.57
3603	7.4659	-7.8034	0.	129.89
3604	8.2499	-8.0081	0.	121.14
3605	8.0089	-8.2621	0.	124.05
3606	7.9837	-7.7632	0.	123.13
3607	7.7528	-4.0035	0.	126.92
3608	8.2489	-3.9977	0.	122.46
3609	8.0035	-4.2491	0.	124.67
3610	7.5122	-4.2583	0.	131.52
3611	7.0376	-4.7673	0.	130.73
3612	7.2759	-4.5177	0.	132.16
3613	6.7907	-4.5384	0.	129.03
3614	7.2827	-5.0035	0.	132.13
3615	0.25697	4.4682	0.	128.85
3616	-2.1691e-003	4.7038	0.	126.99
3617	-0.23214	4.4359	0.	126.12
3618	1.0033	4.2452	0.	123.83
3619	0.75786	3.9886	0.	124.79
3620	0.71581	6.7417	0.	115.7
3621	0.91296	6.9797	0.	112.91
3622	0.9662	6.5805	0.	119.25
3623	1.1842	6.8142	0.	120.48
3624	0.49998	6.5181	0.	119.21
3625	0.43644	6.8901	0.	113.08
3626	0.27136	6.572	0.	120.94
3627	0.19199	5.9357	0.	127.44
3628	-0.3769	5.9601	0.	128.05
3629	-1.3669e-002	6.1924	0.	128.27
3630	3.7594	6.5196	0.	130.82
3631	4.0304	6.2636	0.	128.84
3632	3.2116	7.0457	0.	125.98
3633	3.4966	6.7755	0.	130.11
3634	2.9522	6.793	0.	125.58
3635	3.2582	4.0332	0.	126.4
3636	3.0045	4.2733	0.	125.18
3637	3.507	4.2779	0.	130.32
3638	3.7479	5.0153	0.	129.93
3639	3.998	4.7698	0.	129.47
3640	-2.9617	-7.1703	0.	130.51
3641	-2.7638	-7.4549	0.	131.09
3642	-3.2413	-7.339	0.	129.02
3643	-2.0193	-7.754	0.	123.48
3644	-2.0268	-8.249	0.	123.2
3645	-2.2963	-7.9892	0.	126.3
3646	-2.3647	-3.9816	0.	126.54
3647	-2.1673	-3.7039	0.	122.91
3648	-2.089	-4.2182	0.	125.39
3649	-2.569	-4.2504	0.	131.11
3650	-2.7604	-5.0019	0.	132.73
3651	-3.0211	-4.75	0.	131.88
3652	0.763	-4.0099	0.	124.45
3653	0.27482	-4.003	0.	122.06
3654	0.51452	-4.2566	0.	125.82
3655	0.51704	-3.7545	0.	117.66
3656	0.2655	-7.9979	0.	123.87
3657	1.0757e-002	-8.2484	0.	121.14
3658	9.9163e-003	-7.7489	0.	122.05
3659	0.51872	-8.2472	0.	125.6
3660	0.51963	-7.7477	0.	128.38
3661	1.0316	-7.249	0.	128.34
3662	0.77562	-7.4978	0.	129.4
3663	0.77318	-7.0002	0.	128.74
3664	1.2551	-4.0204	0.	128.78
3665	1.0084	-3.7616	0.	125.59
3666	1.009	-4.2648	0.	127.49
3667	1.5021	-3.7763	0.	132.47
3668	1.7612	-3.0362	0.	132.18
3669	2.006	-3.3022	0.	132.63
3670	2.0316	-2.7957	0.	130.63
3671	-1.1012	-3.43	0.	122.01
3672	-0.65443	-3.4732	0.	125.6
3673	-0.87404	-3.2127	0.	126.01
3674	2.4287e-002	-4.2503	0.	122.89
3675	3.3801e-002	-3.7497	0.	121.91
3676	-0.20717	-3.9948	0.	121.19
3677	-0.2505	1.9835	0.	124.93
3678	-2.0406e-003	1.7395	0.	123.48
3679	1.96e-003	2.2366	0.	123.25
3680	-0.50421	1.7272	0.	128.47
3681	-0.77062	0.9601	0.	127.06
3682	-1.0184	1.2118	0.	126.06
3683	-1.2788	0.97218	0.	124.1
3684	-6.0015	-4.798	0.	126.78
3685	-6.0168	-5.2886	0.	127.03
3686	-6.2545	-5.0313	0.	128.05
3687	-6.2499	-4.5364	0.	128.17
3688	-7.0006	-4.2603	0.	121.25
3689	-6.7513	-4.0189	0.	123.08
3690	-4.3112	7.487	0.	127.75
3691	-4.074	7.2312	0.	127.19
3692	-4.7661	4.0052	0.	122.06
3693	-5.0123	4.2527	0.	119.73
3694	-5.0095	3.7528	0.	118.88
3695	-4.5226	4.2573	0.	127.37
3696	-4.5163	3.7573	0.	123.76
3697	-6.7503	5.0001	0.	129.37
3698	-7.0005	4.7501	0.	129.47
3699	-6.0028	4.2504	0.	120.19
3700	-6.2525	4.0002	0.	123.53
3701	-6.0025	3.7503	0.	120.97
3702	4.6035	-6.2162	0.	133.65
3703	4.8479	-5.9777	0.	125.22
3704	4.3411	-5.9828	0.	129.35
3705	7.2908	-6.4565	0.	138.87
3706	6.8359	-6.3796	0.	134.34
3707	7.0305	-6.6703	0.	138.98
3708	-1.9315	8.2495	0.	123.48
3709	-1.6584	8.4488	0.	119.3
3710	-1.7299	8.0171	0.	117.99
3711	-2.1298	8.4827	0.	126.91
3712	-2.1949	8.0507	0.	135.48
3713	-2.4712	7.3867	0.	129.3
3714	-2.2543	5.4806	0.	132.36
3715	-2.152	5.7837	0.	136.7
3716	-1.9065	5.4038	0.	127.62
3717	-1.2796	5.212	0.	118.74
3718	-1.5917	5.3302	0.	121.56
3719	-1.1109	5.5029	0.	114.28
3720	6.2395	-2.5463	0.	136.97
3721	6.3572	-2.9715	0.	132.79
3722	6.074	-2.8112	0.	131.95
3723	6.5543	-1.8147	0.	128.09
3724	6.3706	-2.2121	0.	134.34
3725	6.3523	-2.0151	0.	128.18
3726	6.338	-1.5313	0.	131.92
3727	6.7877	-1.5379	0.	126.96
3728	6.5349	-1.2988	0.	128.96
3729	3.2755	-2.6859	0.	134.74
3730	3.0668	-2.4526	0.	130.03
3731	2.7924	-2.6525	0.	130.65
3732	3.9798	-2.9162	0.	125.73
3733	3.7363	-3.1513	0.	128.1
3734	3.9846	-3.3799	0.	124.21
3735	-3.1252	-6.8395	0.	132.91
3736	-2.6866	-6.9546	0.	130.27
3737	-3.4378	-6.1873	0.	133.45
3738	-3.2869	-6.524	0.	135.6
3739	-3.6946	-6.3264	0.	135.2
3740	-5.784	-5.5704	0.	124.64
3741	-5.5839	-5.8763	0.	124.53
3742	-6.0565	-5.7495	0.	129.08
3743	-6.2745	-5.5154	0.	129.85
3744	-2.8559	-0.31544	0.	131.24
3745	-2.6255	-0.51879	0.	130.78
3746	-3.0664	-0.56266	0.	137.86
3747	-3.4628	-1.0821	0.	127.33
3748	-3.2796	-0.82051	0.	134.64
3749	-3.3433	-1.5352	0.	126.84
3750	-3.1989	-1.2762	0.	123.14
3751	-1.1018	-8.4137e-002	0.	129.44
3752	-0.88939	-0.31319	0.	139.79
3753	-0.67747	-5.5915e-002	0.	134.4
3754	-1.3153	-0.32143	0.	127.21
3755	3.277	2.6567	0.	121.79
3756	3.6409	2.3853	0.	120.07
3757	3.4519	2.4216	0.	118.6
3758	2.2705	2.5289	0.	128.31
3759	2.4705	2.2747	0.	132.51
3760	2.7498	2.4365	0.	126.88
3761	2.7717	2.6223	0.	126.3
3762	4.5167	1.4297	0.	132.75
3763	4.7724	1.6131	0.	131.51
3764	4.3574	1.7067	0.	129.29
3765	1.993	2.2757	0.	127.9
3766	6.3804	7.5217	0.	126.85
3767	6.6672	7.7072	0.	124.11
3768	6.5935	7.2748	0.	126.96
3769	7.7089	8.1097	0.	120.7
3770	7.9704	8.336	0.	122.52
3771	7.9521	7.8721	0.	122.98
3772	8.2192	8.0923	0.	124.29
3773	7.4675	8.3513	0.	120.24
3774	7.4416	7.8789	0.	116.53
3775	7.2092	8.1282	0.	120.
3776	5.3386	0.73099	0.	122.62
3777	5.1227	0.40114	0.	123.16
3778	4.9247	0.6091	0.	123.54
3779	5.0281	0.85936	0.	123.42
3780	4.8996	7.4316e-002	0.	126.04
3781	5.1297	-6.908e-002	0.	125.72
3782	-2.6078	-2.525	0.	126.62
3783	-2.7985	-2.8191	0.	128.54
3784	-1.9805	-3.4168	0.	120.32
3785	-2.2294	-3.192	0.	120.17
3786	-1.5415	-3.3953	0.	119.72
3787	-1.7746	-3.1071	0.	117.05
3788	-1.3215	-3.1499	0.	121.64
3789	-1.3287	-3.6548	0.	119.26
3790	5.7027	5.806	0.	128.37
3791	6.0358	6.0076	0.	128.99
3792	1.8293	-1.4574	0.	128.61
3793	2.0799	-1.1813	0.	130.22
3794	-3.8391	-8.4317	0.	129.4
3795	-4.0507	-8.7581	0.	127.59
3796	-4.1291	-8.2804	0.	124.96
3797	-4.3127	-8.5781	0.	124.52
3798	-3.5722	-8.6435	0.	130.69
3799	-3.6612	-8.0609	0.	134.43
3800	-3.348	-8.3819	0.	131.46
3801	-1.2551	-8.5004	0.	117.56
3802	-1.5067	-8.7493	0.	119.59
3803	-1.7682	-8.4967	0.	121.06
3804	-0.74765	-8.5002	0.	116.99
3805	-0.99889	-8.7503	0.	117.6
3806	-1.0014	-8.2511	0.	114.86
3807	-0.242	-8.499	0.	119.32
3808	-0.49441	-8.7496	0.	118.39
3809	0.26397	-8.4977	0.	122.87
3810	1.0217e-002	-8.7485	0.	121.2
3811	0.77094	-8.4966	0.	125.73
3812	0.51486	-8.7475	0.	124.29
3813	1.279	-8.4954	0.	127.2
3814	1.0208	-8.7465	0.	126.41
3815	1.7879	-8.4955	0.	127.72
3816	1.5273	-8.7455	0.	127.48
3817	2.2956	-8.4999	0.	127.91
3818	2.0341	-8.7469	0.	128.01
3819	2.7995	-8.5116	0.	128.12
3820	2.539	-8.7533	0.	128.36
3821	3.2993	-8.5282	0.	128.53
3822	3.041	-8.7658	0.	128.76
3823	3.8019	-8.5322	0.	129.33
3824	3.5424	-8.778	0.	129.3
3825	4.326	-8.5087	0.	130.39
3826	4.0496	-8.7718	0.	129.94
3827	4.0352	-8.2892	0.	128.85
3828	4.8307	-8.5718	0.	130.48
3829	4.8311	-8.381	0.	130.74
3830	4.5734	-8.7534	0.	130.22
3831	4.5224	-8.2305	0.	129.9
3832	-1.3846	8.6487	0.	120.44
3833	-0.91163	8.605	0.	123.85
3834	-1.1096	8.8569	0.	122.51
3835	-1.8566	8.682	0.	122.76
3836	-1.5914	8.8881	0.	121.74
3837	-2.3173	8.7177	0.	126.55
3838	-2.0644	8.9114	0.	124.9
3839	-2.5214	8.9325	0.	127.29
3840	-2.7589	8.8477	0.	127.86
3841	-4.2896	8.4921	0.	125.33
3842	-4.0329	8.7396	0.	126.15
3843	-3.8035	8.4785	0.	127.03
3844	-4.7776	8.4976	0.	123.05
3845	-4.5253	8.7466	0.	124.48
3846	-4.539	8.245	0.	124.59
3847	-5.2685	8.4996	0.	121.15
3848	-5.0254	8.2487	0.	120.76
3849	-5.0179	8.7494	0.	122.53
3850	-5.762	8.5001	0.	121.27
3851	-5.5117	8.7502	0.	121.61
3852	-5.516	8.2498	0.	118.73
3853	-6.2576	8.5002	0.	123.23
3854	-6.0076	8.7503	0.	122.59
3855	-6.01	8.25	0.	121.28
3856	-6.7548	8.5002	0.	125.18
3857	-6.5048	8.7502	0.	124.37
3858	-6.5061	8.25	0.	125.08
3859	-7.2529	8.5001	0.	126.05
3860	-7.0029	8.7502	0.	125.53
3861	-7.7515	8.5001	0.	126.06
3862	-7.5016	8.7501	0.	125.84
3863	-8.2508	8.5	0.	125.77
3864	-8.0009	8.7501	0.	125.72
3865	-8.0009	8.25	0.	126.13
3866	-7.9392	-8.2954	0.	123.48
3867	-8.1822	-8.0361	0.	123.98
3868	-7.93	-7.7925	0.	121.14
3869	-7.6168	-8.0909	0.	124.9
3870	2.8105	-0.74297	0.	129.4
3871	3.0146	-0.43118	0.	123.84
3872	3.1263	-0.83766	0.	125.25
3873	8.4674	4.3142	0.	127.61
3874	8.7093	4.6069	0.	130.49
3875	8.4052	4.8299	0.	130.43
3876	8.4899	3.7946	0.	126.91
3877	8.7354	4.0627	0.	128.09
3878	8.4974	3.2767	0.	127.06
3879	8.7444	3.5369	0.	127.76
3880	8.2461	3.5285	0.	126.55
3881	8.5012	2.763	0.	127.01
3882	8.7491	3.0199	0.	127.65
3883	8.5029	2.2534	0.	126.77
3884	8.7514	2.5088	0.	127.36
3885	8.5035	1.7467	0.	126.59
3886	8.7525	2.0009	0.	127.03
3887	8.5029	1.2423	0.	126.51
3888	8.7526	1.496	0.	126.79
3889	8.2544	1.4904	0.	126.23
3890	8.5012	0.73971	0.	126.5
3891	8.7518	0.99314	0.	126.62
3892	8.2533	0.98643	0.	126.36
3893	8.4992	0.23861	0.	126.46
3894	8.75	0.4917	0.	126.48
3895	8.4982	-0.26123	0.	126.32
3896	8.7487	-8.5825e-003	0.	126.31
3897	8.7488	-0.50791	0.	126.08
3898	8.4993	-0.75975	0.	126.06
3899	8.5117	-1.7531	0.	125.59
3900	8.757	-1.5039	0.	125.64
3901	8.5044	-1.2569	0.	125.77
3902	8.2613	-1.5057	0.	125.68
3903	8.5134	-2.2506	0.	125.47
3904	8.7618	-2.0015	0.	125.61
3905	8.5041	-2.749	0.	125.17
3906	8.7591	-2.5008	0.	125.59
3907	8.4948	-3.247	0.	124.26
3908	8.7483	-2.9992	0.	125.28
3909	8.4957	-3.7468	0.	122.13
3910	8.7456	-3.4978	0.	124.32
3911	8.7486	-3.9982	0.	122.34
3912	8.4999	-4.2482	0.	116.99
3913	2.276	8.4918	0.	125.08
3914	2.0166	8.7295	0.	127.39
3915	1.7304	8.4618	0.	131.23
3916	2.7809	8.5141	0.	123.52
3917	2.5234	8.7543	0.	124.72
3918	3.2746	8.5192	0.	123.55
3919	3.0216	8.7653	0.	123.87
3920	3.0435	8.2784	0.	122.77
3921	3.7674	8.5139	0.	124.42
3922	3.5165	8.764	0.	124.29
3923	3.5262	8.2718	0.	123.93
3924	4.262	8.5029	0.	125.32
3925	4.0125	8.7575	0.	125.
3926	4.0154	8.2633	0.	125.14
3927	4.7583	8.483	0.	126.01
3928	4.5083	8.746	0.	125.61
3929	5.2538	8.4611	0.	126.34
3930	5.0049	8.728	0.	125.99
3931	5.7442	8.5058	0.	126.04
3932	5.4982	8.7208	0.	126.
3933	6.2344	8.5807	0.	124.88
3934	5.9879	8.7949	0.	125.33
3935	6.7277	8.6011	0.	123.1
3936	6.4836	8.8296	0.	124.03
3937	7.2246	8.5935	0.	121.67
3938	6.98	8.8315	0.	122.53
3939	6.9663	8.3705	0.	121.47
3940	7.729	8.5776	0.	122.04
3941	7.4822	8.8206	0.	121.94
3942	8.2375	8.5572	0.	123.94
3943	7.988	8.8058	0.	123.06
3944	8.4951	8.7865	0.	124.73
3945	8.746	8.5367	0.	125.69
3946	8.4864	8.3134	0.	125.7
3947	2.5314	-0.59556	0.	140.93
3948	2.3085	-0.88451	0.	132.78
3949	-8.2501	-4.0011	0.	125.97
3950	-8.0002	-4.2514	0.	123.59
3951	-8.	-3.7518	0.	123.32
3952	-7.7288	-8.5659	0.	126.8
3953	-7.4998	-8.8226	0.	127.96
3954	-7.4064	-8.3613	0.	128.23
3955	-7.2359	-8.6019	0.	127.73
3956	-8.2231	-8.5292	0.	127.67
3957	-7.9842	-8.7851	0.	128.23
3958	-8.4662	-8.2699	0.	128.15
3959	-8.7311	-8.5127	0.	129.33
3960	-8.4852	-8.7658	0.	129.13
3961	-8.7167	-8.016	0.	129.44
3962	-8.4612	-7.7711	0.	130.28
3963	-8.7501	-4.0005	0.	130.05
3964	-8.5001	-4.2506	0.	131.18
3965	-8.5	-3.7507	0.	128.01
3966	-8.4993	-2.7505	0.	126.52
3967	-8.7496	-3.0003	0.	127.55
3968	-8.4997	-3.2506	0.	126.8
3969	-8.2494	-3.0012	0.	125.44
3970	-8.4989	-2.2504	0.	126.58
3971	-8.7493	-2.5003	0.	127.28
3972	-8.2487	-2.5009	0.	125.72
3973	-8.4986	-1.7503	0.	126.78
3974	-8.749	-2.0002	0.	127.24
3975	-8.4984	-1.2503	0.	127.01
3976	-8.7488	-1.5002	0.	127.28
3977	-8.4983	-0.75049	0.	127.2
3978	-8.7487	-1.0003	0.	127.34
3979	-8.4983	-0.25065	0.	127.26
3980	-8.7486	-0.50043	0.	127.34
3981	-8.4988	0.24937	0.	127.13
3982	-8.7488	-5.1101e-004	0.	127.21
3983	-8.2481	-9.3566e-004	0.	127.34
3984	-8.4993	0.74949	0.	126.87
3985	-8.7492	0.49951	0.	126.97
3986	-8.4997	1.2497	0.	126.69
3987	-8.7495	0.99962	0.	126.71
3988	-8.2495	0.99954	0.	126.74
3989	-8.4999	1.7498	0.	126.79
3990	-8.7498	1.4998	0.	126.64
3991	-8.2498	1.4998	0.	126.61
3992	-8.5	2.2499	0.	127.17
3993	-8.7499	1.9999	0.	126.84
3994	-8.25	1.9999	0.	127.
3995	-8.5	2.75	0.	127.64
3996	-8.75	2.5	0.	127.21
3997	-8.25	2.5	0.	127.67
3998	-8.5	3.25	0.	127.96
3999	-8.75	3.	0.	127.55
4000	-8.25	3.	0.	128.23
4001	-8.5	3.75	0.	127.99
4002	-8.75	3.5	0.	127.68
4003	-8.75	4.	0.	127.54
4004	-8.2501	4.	0.	128.36
4005	-8.5	4.25	0.	127.72
4006	-8.5	5.25	0.	126.57
4007	-8.75	5.	0.	126.6
4008	-8.5	4.75	0.	127.2
4009	-8.25	5.	0.	127.19
4010	-8.5	5.75	0.	126.03
4011	-8.75	5.5	0.	126.04
4012	-8.25	5.5	0.	126.47
4013	-8.5	6.25	0.	125.72
4014	-8.75	6.	0.	125.63
4015	-8.25	6.	0.	125.98
4016	-8.5001	6.75	0.	125.65
4017	-8.75	6.5	0.	125.44
4018	-8.2501	6.5	0.	125.82
4019	-8.5001	7.25	0.	125.72
4020	-8.7501	7.	0.	125.44
4021	-8.2501	7.	0.	125.93
4022	-8.5002	7.75	0.	125.76
4023	-8.7501	7.5	0.	125.51
4024	-8.5004	8.25	0.	125.67
4025	-8.7502	8.	0.	125.51
4026	-8.2505	8.	0.	126.03
4027	-8.5004	8.75	0.	125.46
4028	-8.7504	8.5	0.	125.4
4029	-0.62146	8.8142	0.	127.88
4030	-0.44851	8.5422	0.	127.99
4031	8.5013	-8.2539	0.	121.44
4032	8.7478	-8.0022	0.	121.22
4033	8.4929	-7.7534	0.	115.33
4034	8.2603	-8.5078	0.	124.31
4035	8.7532	-8.5027	0.	124.18
4036	8.5048	-8.7538	0.	124.56
4037	7.773	-8.5143	0.	126.87
4038	8.0126	-8.7589	0.	125.84
4039	7.2961	-8.5081	0.	129.76
4040	7.5243	-8.7617	0.	128.24
4041	6.8319	-8.4811	0.	129.43
4042	7.0462	-8.7461	0.	129.47
4043	6.5758	-8.7124	0.	126.71
4044	6.3763	-8.3956	0.	125.6
4045	6.589	-8.2004	0.	131.93
4046	-1.2958	-2.647	0.	127.6
4047	-1.5547	-2.8617	0.	118.98
4048	-1.0943	-2.9327	0.	125.54
4049	-2.3027	-2.6958	0.	121.25
4050	-2.4935	-2.99	0.	123.14
4051	-2.0236	-2.8823	0.	116.82
4052	7.1705	7.6627	0.	117.51
4053	6.8803	7.4603	0.	124.22
4054	6.9381	7.912	0.	121.1
4055	7.6848	7.6413	0.	118.74
4056	5.5893	-8.7757	0.	111.68
4057	5.8773	-8.4403	0.	115.
4058	5.3344	-8.6032	0.	118.5
4059	2.4908	1.819	0.	137.16
4060	2.1931	2.0216	0.	132.1
4061	2.622	2.0075	0.	138.54
4062	4.7016	0.28227	0.	126.34
4063	4.4775	6.6027e-002	0.	126.65
4064	4.8278	0.82446	0.	124.75
4065	4.7022	1.1385	0.	129.32
4066	4.9578	1.322	0.	128.05
4067	2.9013	2.1693	0.	133.14
4068	2.9859	2.526	0.	123.61
4069	3.1608	2.2909	0.	120.37
4070	-5.0275	-8.9199	0.	120.24
4071	-4.7948	-8.6778	0.	119.48
4072	-5.282	-8.7256	0.	124.45
4073	-0.29609	9.0249	0.	133.18
4074	0.2447	9.0382	0.	123.16
4075	-0.12314	8.7529	0.	133.22
4076	-1.7992e-002	9.2545	0.	131.03
4077	-0.81948	9.0661	0.	126.56
4078	-0.5442	9.2857	0.	127.8
4079	-1.3164	9.0963	0.	123.78
4080	-1.049	9.3121	0.	124.75
4081	-1.7992	9.1174	0.	123.89
4082	-1.5422	9.3313	0.	123.89
4083	-2.2685	9.1261	0.	125.63
4084	-2.0267	9.3429	0.	125.03
4085	-2.737	9.0415	0.	127.12
4086	-2.505	9.3357	0.	126.38
4087	-3.2431	8.9672	0.	127.35
4088	-2.9891	9.2261	0.	127.13
4089	-3.0327	8.6909	0.	128.38
4090	-3.7657	8.9844	0.	126.48
4091	-3.5074	9.2332	0.	126.7
4092	-3.5362	8.7233	0.	127.37
4093	-4.013	9.2429	0.	125.87
4094	-4.2686	8.9941	0.	125.3
4095	-5.7573	9.0004	0.	122.92
4096	-5.5064	9.2504	0.	123.25
4097	-5.2612	9.	0.	122.97
4098	-6.2547	9.0004	0.	123.74
4099	-6.0042	9.2504	0.	123.54
4100	-6.7529	9.0003	0.	124.72
4101	-6.5026	9.2503	0.	124.29
4102	-7.2517	9.0002	0.	125.32
4103	-7.0016	9.2502	0.	124.93
4104	-7.751	9.0001	0.	125.49
4105	-7.5009	9.2501	0.	125.24
4106	-8.2505	9.0001	0.	125.41
4107	-8.0005	9.2501	0.	125.3
4108	-8.7503	9.	0.	125.23
4109	-8.5003	9.25	0.	125.23
4110	-8.9816	-8.2588	0.	130.62
4111	-8.99	-8.7566	0.	130.72
4112	-9.2395	-8.5052	0.	130.98
4113	-8.9791	-7.7605	0.	131.44
4114	-9.2339	-8.007	0.	131.
4115	-8.9852	-7.2597	0.	132.4
4116	-8.7237	-7.5155	0.	132.26
4117	-9.2358	-7.5079	0.	131.55
4118	-8.9928	-6.7569	0.	132.81
4119	-8.739	-7.01	0.	133.47
4120	-9.2421	-7.0065	0.	131.77
4121	-8.9971	-6.2541	0.	133.27
4122	-8.7463	-6.5051	0.	135.21
4123	-9.2466	-6.5043	0.	131.87
4124	-8.999	-5.7522	0.	133.29
4125	-8.7487	-6.0026	0.	136.37
4126	-9.2487	-6.0025	0.	132.34
4127	-8.9997	-5.2512	0.	132.98
4128	-8.7496	-5.5013	0.	134.88
4129	-9.2495	-5.5013	0.	132.18
4130	-8.9999	-4.7506	0.	132.82
4131	-8.7499	-5.0008	0.	133.33
4132	-9.2499	-5.0007	0.	132.41
4133	-9.	-4.2504	0.	131.9
4134	-8.7501	-4.5005	0.	133.
4135	-9.25	-4.5004	0.	132.39
4136	-9.	-3.7503	0.	130.34
4137	-9.25	-4.0002	0.	131.48
4138	-8.9999	-3.2502	0.	129.04
4139	-9.25	-3.5002	0.	130.28
4140	-8.7499	-3.5005	0.	128.29
4141	-8.9996	-2.7502	0.	128.32
4142	-9.2498	-3.0001	0.	129.39
4143	-8.9994	-2.2501	0.	127.94
4144	-9.2496	-2.5001	0.	128.78
4145	-8.9992	-1.7501	0.	127.74
4146	-9.2495	-2.0001	0.	128.34
4147	-8.9991	-1.2501	0.	127.6
4148	-9.2494	-1.5001	0.	128.01
4149	-8.9991	-0.75019	0.	127.47
4150	-9.2494	-1.0001	0.	127.72
4151	-8.9991	-0.25029	0.	127.29
4152	-9.2493	-0.50016	0.	127.45
4153	-8.9992	0.24963	0.	127.06
4154	-9.2493	-2.3386e-004	0.	127.15
4155	-9.2495	0.49972	0.	126.85
4156	-8.9994	0.74963	0.	126.81
4157	-8.9999	1.7499	0.	126.69
4158	-9.2498	1.4998	0.	126.53
4159	-8.9997	1.2497	0.	126.66
4160	-9.	2.2499	0.	126.88
4161	-9.2499	1.9999	0.	126.62
4162	-9.	2.75	0.	127.12
4163	-9.25	2.4999	0.	126.82
4164	-9.	3.25	0.	127.27
4165	-9.25	3.	0.	127.
4166	-9.	3.75	0.	127.23
4167	-9.25	3.5	0.	127.03
4168	-9.	4.25	0.	126.98
4169	-9.25	4.	0.	126.87
4170	-9.	4.75	0.	126.56
4171	-9.25	4.5	0.	126.52
4172	-8.75	4.5	0.	127.15
4173	-9.	5.25	0.	126.07
4174	-9.25	5.	0.	126.05
4175	-9.25	5.5	0.	125.57
4176	-9.	5.75	0.	125.63
4177	-9.0001	7.25	0.	125.23
4178	-9.25	7.	0.	124.93
4179	-9.	6.75	0.	125.23
4180	-9.0001	7.75	0.	125.25
4181	-9.2501	7.5	0.	124.97
4182	-9.0002	8.25	0.	125.24
4183	-9.2501	8.	0.	125.02
4184	-9.0002	8.75	0.	125.17
4185	-9.2502	8.5	0.	125.03
4186	-9.0001	9.25	0.	125.1
4187	-9.2501	9.	0.	125.02
4188	9.0014	-8.7511	0.	125.66
4189	8.9997	-8.251	0.	124.
4190	9.2507	-8.5007	0.	126.53
4191	8.7529	-9.0022	0.	126.03
4192	9.2511	-9.0007	0.	127.25
4193	9.0013	-9.2509	0.	126.8
4194	8.2571	-9.0048	0.	126.08
4195	8.5033	-9.2525	0.	126.22
4196	7.7639	-9.0063	0.	127.22
4197	8.0071	-9.2546	0.	126.72
4198	7.2745	-8.9996	0.	127.94
4199	7.5126	-9.2539	0.	127.51
4200	6.7901	-8.9774	0.	126.73
4201	7.0215	-9.244	0.	126.91
4202	6.3126	-8.9289	0.	121.32
4203	6.5345	-9.2206	0.	124.04
4204	5.8252	-8.9475	0.	116.71
4205	6.1132	-8.6121	0.	120.19
4206	6.0532	-9.1806	0.	118.09
4207	5.3174	-9.0215	0.	120.44
4208	5.5548	-9.2458	0.	117.73
4209	5.0453	-9.2786	0.	123.86
4210	5.0625	-8.849	0.	127.3
4211	4.8052	-9.0306	0.	126.93
4212	3.79	-9.0176	0.	129.92
4213	4.0329	-9.2623	0.	129.83
4214	4.297	-9.0165	0.	129.79
4215	3.284	-9.0156	0.	129.54
4216	3.5273	-9.2638	0.	129.93
4217	2.7805	-9.0075	0.	129.01
4218	3.0238	-9.2588	0.	129.52
4219	2.2774	-9.0003	0.	128.46
4220	2.5214	-9.2522	0.	128.96
4221	1.7735	-8.9969	0.	127.77
4222	2.0189	-9.2483	0.	128.26
4223	1.2691	-8.9966	0.	126.69
4224	1.5158	-9.2472	0.	127.28
4225	0.76473	-8.9973	0.	124.97
4226	1.0127	-9.2476	0.	125.83
4227	0.2611	-8.9982	0.	122.62
4228	0.50982	-9.2483	0.	123.79
4229	-0.24219	-8.9991	0.	120.27
4230	7.4097e-003	-9.249	0.	121.48
4231	-0.74564	-8.9997	0.	118.98
4232	-0.49514	-9.2496	0.	119.71
4233	-1.2505	-8.9992	0.	119.62
4234	-0.99792	-9.2497	0.	119.43
4235	-1.7595	-8.9943	0.	122.18
4236	-1.5043	-9.2479	0.	121.04
4237	-2.2737	-8.9755	0.	125.75
4238	-2.012	-9.2406	0.	124.05
4239	-2.0211	-8.7417	0.	123.64
4240	-2.7856	-8.949	0.	128.84
4241	-2.5219	-9.2199	0.	127.36
4242	-2.5465	-8.7094	0.	128.02
4243	-3.2893	-8.9362	0.	130.15
4244	-3.0262	-9.2034	0.	129.56
4245	-3.0652	-8.6745	0.	130.94
4246	-3.7838	-8.9699	0.	128.88
4247	-3.5253	-9.2051	0.	129.69
4248	-4.2745	-9.0422	0.	125.11
4249	-4.0176	-9.2537	0.	127.37
4250	-4.7691	-9.1043	0.	122.63
4251	-4.5364	-8.8622	0.	122.04
4252	-4.5128	-9.3081	0.	123.62
4253	-5.2673	-9.1391	0.	124.74
4254	-5.012	-9.3444	0.	122.97
4255	-5.7708	-9.1417	0.	123.35
4256	-5.5147	-9.3582	0.	124.77
4257	-5.5218	-8.9448	0.	128.97
4258	-6.2938	-9.0807	0.	117.42
4259	-6.0035	-8.9435	0.	125.24
4260	-6.0223	-9.3442	0.	119.12
4261	-6.8034	-9.0543	0.	121.61
4262	-6.7736	-8.82	0.	122.05
4263	-6.5428	-9.2779	0.	116.31
4264	-7.2778	-9.0676	0.	128.54
4265	-7.0139	-8.8469	0.	128.27
4266	-7.0306	-9.3078	0.	125.61
4267	-7.7552	-9.0418	0.	129.42
4268	-7.5113	-9.2905	0.	128.98
4269	-8.2462	-9.0217	0.	129.7
4270	-8.0013	-9.2728	0.	129.77
4271	-8.7441	-9.0097	0.	130.53
4272	-8.4971	-9.2608	0.	130.5
4273	-8.9967	-9.2544	0.	131.33
4274	-9.2457	-9.0037	0.	131.55
4275	-0.66323	-0.53437	0.	143.38
4276	-0.89653	-0.78141	0.	138.3
4277	-1.1028	-0.55049	0.	137.29
4278	-2.836	-0.766	0.	136.99
4279	-3.0157	-1.0146	0.	130.19
4280	-6.31	-5.9722	0.	132.45
4281	-5.8564	-6.0555	0.	128.93
4282	-6.0796	-6.1665	0.	131.41
4283	-3.4048	-7.0083	0.	131.19
4284	-3.5437	-6.6631	0.	137.03
4285	3.7474	-2.6897	0.	132.28
4286	3.5381	-2.466	0.	132.13
4287	3.504	-2.9249	0.	134.86
4288	5.9775	-2.3823	0.	136.79
4289	6.1626	-2.1441	0.	133.42
4290	8.8633	4.8838	0.	136.54
4291	8.7248	5.3705	0.	133.8
4292	8.5592	5.1068	0.	136.27
4293	-1.423	5.6211	0.	116.62
4294	-1.8043	5.7068	0.	131.77
4295	-2.2352	7.6044	0.	135.36
4296	-1.9933	7.8183	0.	129.66
4297	4.6371	-6.6989	0.	130.84
4298	4.3656	-6.4711	0.	133.51
4299	4.8605	-6.4555	0.	131.1
4300	-6.2519	4.5003	0.	125.09
4301	-6.5009	4.7501	0.	129.8
4302	-6.5016	4.2502	0.	128.44
4303	-6.751	4.5001	0.	129.92
4304	-4.5249	4.7557	0.	129.42
4305	-4.7689	4.5047	0.	124.99
4306	-4.2827	4.5127	0.	129.76
4307	-4.7858	7.4956	0.	123.57
4308	-4.5426	7.2428	0.	127.93
4309	-4.546	7.7435	0.	126.51
4310	-6.2554	7.4996	0.	125.05
4311	-6.5023	7.2497	0.	128.91
4312	-6.5049	7.7498	0.	127.47
4313	-6.7528	7.4998	0.	128.66
4314	-8.2091	-7.5274	0.	127.55
4315	-8.4774	-7.2659	0.	133.33
4316	-6.7504	-4.5164	0.	125.52
4317	-6.5029	-4.7697	0.	129.41
4318	-6.5012	-4.275	0.	127.37
4319	-8.2502	-4.5009	0.	128.76
4320	-8.5	-4.7507	0.	133.5
4321	-0.51161	1.2223	0.	129.44
4322	-0.25575	1.4832	0.	126.97
4323	-0.75942	1.4739	0.	128.5
4324	-0.19663	-3.4949	0.	124.83
4325	-0.42783	-3.2461	0.	128.42
4326	-0.4376	-3.7401	0.	124.19
4327	1.5062	-3.2727	0.	133.09
4328	1.2554	-3.5175	0.	129.28
4329	1.7511	-3.5387	0.	133.57
4330	-0.45071	-0.77172	0.	137.02
4331	-0.45131	-0.27709	0.	138.06
4332	-0.20955	-0.51458	0.	130.87
4333	0.51722	-7.2491	0.	129.77
4334	0.26404	-7.4987	0.	126.49
4335	0.26399	-4.5038	0.	126.48
4336	0.50946	-4.7571	0.	129.04
4337	0.76049	-4.5115	0.	128.74
4338	-2.5277	-4.7538	0.	133.31
4339	-2.2934	-4.4871	0.	129.86
4340	-2.7884	-4.5019	0.	132.48
4341	-2.4888	-7.2393	0.	130.77
4342	-2.2637	-7.4967	0.	127.39
4343	-2.5407	-7.7319	0.	130.28
4344	3.5025	4.7673	0.	131.54
4345	3.2533	4.518	0.	129.01
4346	3.7525	4.5217	0.	131.14
4347	3.2373	6.5228	0.	129.65
4348	3.5054	6.2681	0.	131.61
4349	0.49233	6.13	0.	124.7
4350	0.75037	6.3569	0.	122.13
4351	0.28668	6.3867	0.	125.51
4352	0.49799	4.7274	0.	129.92
4353	0.75285	4.4875	0.	127.37
4354	0.50737	4.2309	0.	128.38
4355	0.78067	8.9736	0.	118.82
4356	0.51049	9.2913	0.	113.95
4357	1.2892	8.9242	0.	128.86
4358	1.2443	8.6598	0.	132.55
4359	1.0307	9.1673	0.	126.43
4360	1.7727	8.9797	0.	128.71
4361	1.4866	8.7119	0.	132.6
4362	1.5207	9.2287	0.	128.2
4363	2.2639	8.992	0.	127.07
4364	2.0107	9.2377	0.	127.67
4365	2.5097	9.2503	0.	125.95
4366	2.7641	9.0055	0.	125.09
4367	3.7616	9.0075	0.	124.87
4368	3.5093	9.2571	0.	125.19
4369	3.2635	9.01	0.	124.62
4370	4.2588	9.0005	0.	125.29
4371	4.0079	9.2535	0.	125.4
4372	4.755	8.9909	0.	125.6
4373	4.5052	9.2472	0.	125.57
4374	5.2492	8.9877	0.	125.64
4375	5.0017	9.2405	0.	125.59
4376	5.7419	9.0099	0.	125.29
4377	5.496	9.2444	0.	125.35
4378	6.2371	9.0438	0.	124.49
4379	5.9907	9.2721	0.	124.77
4380	6.736	9.0599	0.	123.47
4381	6.4893	9.2917	0.	123.93
4382	7.2376	9.0586	0.	122.78
4383	6.9899	9.2958	0.	123.14
4384	7.7412	9.0489	0.	122.95
4385	7.4926	9.2907	0.	122.89
4386	8.2456	9.0351	0.	123.86
4387	7.9956	9.2817	0.	123.38
4388	8.7498	9.0214	0.	124.91
4389	8.499	9.2703	0.	124.25
4390	9.0006	8.7716	0.	125.86
4391	9.0012	9.2616	0.	125.02
4392	9.2516	9.0117	0.	125.68
4393	8.9972	8.2859	0.	127.01
4394	9.2507	8.5204	0.	126.61
4395	8.9917	7.8037	0.	128.41
4396	9.2472	8.0318	0.	127.69
4397	8.7376	8.0626	0.	127.02
4398	8.9825	7.3196	0.	129.83
4399	9.2422	7.5447	0.	128.69
4400	8.7302	7.5899	0.	128.99
4401	8.9511	6.8114	0.	131.06
4402	9.2315	7.0526	0.	129.39
4403	8.7223	7.1233	0.	130.05
4404	8.9985	6.2996	0.	129.53
4405	8.753	6.3367	0.	136.58
4406	9.2041	6.5399	0.	129.53
4407	9.0917	5.819	0.	129.1
4408	8.8254	6.0891	0.	134.54
4409	9.2983	6.0451	0.	127.01
4410	8.9021	5.5995	0.	129.15
4411	9.3317	5.5644	0.	129.
4412	8.9773	4.3554	0.	130.98
4413	9.2339	4.5937	0.	131.63
4414	9.2386	4.0549	0.	129.86
4415	8.9899	3.8049	0.	128.94
4416	9.0014	1.2468	0.	126.9
4417	9.2511	1.4989	0.	127.28
4418	9.0016	1.7502	0.	127.24
4419	9.0005	0.74512	0.	126.61
4420	9.2508	0.99709	0.	126.82
4421	8.9995	0.24451	0.	126.34
4422	9.2499	0.49623	0.	126.41
4423	8.9994	-0.25526	0.	126.08
4424	9.2494	-3.8571e-003	0.	126.05
4425	9.0007	-0.75447	0.	125.85
4426	9.2498	-0.50342	0.	125.74
4427	9.0037	-1.2534	0.	125.69
4428	9.2515	-1.0027	0.	125.55
4429	8.7511	-1.0063	0.	125.82
4430	9.0071	-1.7524	0.	125.66
4431	9.2542	-1.502	0.	125.52
4432	9.0075	-2.2517	0.	125.72
4433	9.2562	-2.0015	0.	125.72
4434	9.2548	-2.5012	0.	126.07
4435	9.0034	-2.7509	0.	125.7
4436	8.9984	-3.7493	0.	124.57
4437	9.2488	-3.4999	0.	126.69
4438	8.9991	-3.2499	0.	125.34
4439	8.9996	-4.2492	0.	124.48
4440	9.2491	-3.9993	0.	127.1
4441	7.521	-4.7539	0.	133.53
4442	7.7629	-4.5039	0.	129.26
4443	7.6783	-7.5377	0.	127.24
4444	7.4373	-7.2821	0.	131.12
4445	7.1266	-7.4937	0.	128.7
4446	8.997	-7.7508	0.	123.18
4447	9.2487	-8.0005	0.	126.05
4448	5.5568	5.3182	0.	133.73
4449	5.856	5.5413	0.	125.29
4450	5.3441	5.6211	0.	130.36
4451	5.7624	3.5064	0.	132.08
4452	5.5094	3.7705	0.	135.4
4453	7.2524	3.5036	0.	123.52
4454	7.4972	3.7628	0.	125.59
4455	7.7491	3.5155	0.	126.52
4456	-3.7553	2.5083	0.	130.1
4457	-3.5064	2.2621	0.	132.66
4458	-3.5079	2.7619	0.	132.07
4459	-6.5001	2.25	0.	131.14
4460	-6.2501	2.5	0.	128.53
4461	-6.2493	0.4981	0.	128.73
4462	-6.4991	0.7483	0.	131.11
4463	-3.7798	0.54737	0.	131.26
4464	-3.5285	0.8002	0.	133.06
4465	1.7335	7.6466	0.	126.26
4466	1.578	7.3305	0.	132.6
4467	-0.29576	8.2612	0.	137.64
4468	1.5534	8.1746	0.	128.79
4469	1.1166	7.2245	0.	122.43
4470	1.3878	7.059	0.	130.03
4471	0.6336	7.1282	0.	110.12
4472	0.14162	6.999	0.	114.15
4473	-2.3464e-002	6.6808	0.	123.56
4474	-0.26067	6.6959	0.	132.71
4475	-4.2679	0.52442	0.	123.02
4476	-4.0257	0.29385	0.	127.29
4477	-4.7602	0.51127	0.	118.37
4478	-5.2549	0.50382	0.	117.84
4479	-5.0065	0.25777	0.	118.43
4480	-5.7514	0.49989	0.	121.52
4481	-6.4998	1.2494	0.	130.24
4482	-6.5	1.7498	0.	130.22
4483	-5.7503	2.5002	0.	120.94
4484	-5.2507	2.5008	0.	117.15
4485	-5.501	2.7505	0.	117.5
4486	-4.7517	2.502	0.	117.78
4487	-4.2533	2.5045	0.	122.28
4488	-3.5088	1.768	0.	131.38
4489	-3.5154	1.2804	0.	131.14
4490	6.7552	3.4966	0.	116.81
4491	6.2582	3.4969	0.	120.86
4492	5.4991	4.2869	0.	135.2
4493	5.4991	4.8064	0.	135.65
4494	4.2753	1.2988	0.	127.36
4495	4.0756	0.11521	0.	122.32
4496	4.1796	-0.11564	0.	128.73
4497	3.6573	1.4812e-002	0.	117.41
4498	3.979	-0.14213	0.	125.43
4499	3.2057	-0.13743	0.	118.57
4500	2.7355	-0.28377	0.	135.26
4501	2.2963	1.5752	0.	134.66
4502	2.5523	1.368	0.	138.69
4503	2.7073	1.8098	0.	139.95
4504	8.742	-7.502	0.	117.15
4505	9.2471	-7.5005	0.	128.03
4506	8.2266	-7.5084	0.	117.18
4507	7.5026	-6.7432	0.	135.15
4508	7.2422	-6.9569	0.	135.48
4509	7.5275	-6.234	0.	139.93
4510	7.5306	-5.7375	0.	139.09
4511	7.5261	-5.2457	0.	135.51
4512	8.2545	-4.4996	0.	119.07
4513	8.7509	-4.4992	0.	118.99
4514	9.2501	-4.4996	0.	129.58
4515	0.48459	5.2195	0.	128.71
4516	0.23885	4.963	0.	128.1
4517	0.47325	5.6957	0.	126.8
4518	1.2289	6.4018	0.	119.35
4519	1.7184	6.4408	0.	119.47
4520	1.4469	6.6355	0.	120.58
4521	2.2145	6.4764	0.	120.77
4522	2.7205	6.5086	0.	123.51
4523	3.5101	5.7629	0.	130.82
4524	3.7763	6.0122	0.	129.67
4525	3.5045	5.263	0.	130.83
4526	1.251	4.4984	0.	120.63
4527	1.7502	4.5037	0.	117.36
4528	2.2505	4.508	0.	117.6
4529	2.7518	4.5128	0.	121.62
4530	-2.4403	-6.7435	0.	133.38
4531	-2.4045	-6.2625	0.	137.76
4532	-2.455	-5.7884	0.	137.79
4533	-2.5667	-6.0068	0.	137.34
4534	-2.5162	-5.2798	0.	134.69
4535	-2.6314	-5.7689	0.	135.62
4536	-1.7784	-4.4475	0.	121.04
4537	-1.246	-4.4471	0.	115.14
4538	-1.424	-4.1627	0.	116.82
4539	-0.72869	-4.4841	0.	114.68
4540	-0.23082	-4.4971	0.	119.34
4541	-0.46227	-4.2416	0.	117.67
4542	0.50765	-5.2563	0.	130.38
4543	0.75942	-5.0111	0.	128.73
4544	0.50941	-5.7549	0.	132.4
4545	0.51202	-6.2532	0.	132.25
4546	0.51428	-6.751	0.	130.4
4547	-0.24399	-7.4998	0.	117.26
4548	-0.74943	-7.501	0.	111.6
4549	-1.2541	-7.5022	0.	111.78
4550	-1.0021	-7.7515	0.	112.42
4551	-1.7591	-7.5031	0.	117.99
4552	1.5405	-1.2308	0.	128.03
4553	1.5196	-0.73267	0.	125.95
4554	1.7911	-0.95468	0.	129.68
4555	1.557	-1.7371	0.	130.31
4556	1.5471	-2.2495	0.	131.47
4557	1.5212	-2.7632	0.	131.91
4558	1.7916	-2.5228	0.	130.38
4559	0.7624	-3.5062	0.	118.52
4560	0.27602	-3.5012	0.	117.34
4561	-0.42283	-2.7663	0.	132.06
4562	-0.64744	-2.9856	0.	128.77
4563	-0.4929	-2.2942	0.	134.74
4564	-0.61989	-2.5164	0.	132.84
4565	-0.535	-1.7906	0.	132.56
4566	-0.84104	-2.001	0.	133.05
4567	-0.69397	-2.2799	0.	132.64
4568	-0.48155	-1.2715	0.	132.13
4569	-0.68401	-1.0188	0.	132.23
4570	-0.74817	-1.505	0.	135.55
4571	-0.48696	0.21692	0.	132.5
4572	-0.514	0.71635	0.	129.21
4573	0.24779	1.4941	0.	119.71
4574	0.75006	1.4997	0.	116.29
4575	1.2524	1.505	0.	117.59
4576	1.7602	1.5187	0.	124.32
4577	1.9986	1.7778	0.	129.59
4578	1.4999	1.76	0.	120.18
4579	2.5076	0.86531	0.	140.67
4580	2.4746	0.37055	0.	142.4
4581	2.4807	-0.11328	0.	145.25
4582	1.7617	-0.46662	0.	131.27
4583	2.2561	-0.39969	0.	142.86
4584	2.0332	-0.68864	0.	135.
4585	1.2583	-0.49179	0.	121.1
4586	0.26506	-0.50277	0.	112.96
4587	0.75705	-0.49914	0.	111.08
4588	-7.7503	-4.5021	0.	117.68
4589	-7.2505	-4.5059	0.	116.38
4590	-6.5121	-5.258	0.	130.87
4591	-6.5279	-5.738	0.	133.23
4592	-6.5326	-6.2098	0.	131.06
4593	-6.4992	-6.6791	0.	121.2
4594	-6.5297	-7.1023	0.	111.67
4595	-6.3405	-7.0861	0.	112.75
4596	-6.2265	-6.8379	0.	116.42
4597	-6.3021	-6.4041	0.	129.97
4598	-7.7011	-7.5465	0.	115.9
4599	-8.4925	-6.7582	0.	135.86
4600	-8.4979	-6.2536	0.	138.31
4601	-8.4998	-5.2509	0.	135.24
4602	-8.4994	-5.7517	0.	137.96
4603	-5.7602	7.4993	0.	114.77
4604	-6.0089	7.7497	0.	120.75
4605	-5.269	7.4986	0.	113.77
4606	-5.0266	7.7482	0.	119.38
4607	-5.5154	7.7493	0.	112.86
4608	-4.5357	6.7432	0.	129.33
4609	-4.3054	6.9871	0.	127.42
4610	-4.5306	6.2452	0.	131.88
4611	-4.5257	5.7488	0.	132.53
4612	-4.5239	5.2527	0.	130.67
4613	-4.2876	5.0088	0.	129.53
4614	-5.2594	4.5017	0.	114.55
4615	-5.7543	4.5007	0.	114.4
4616	-6.5003	5.2501	0.	130.37
4617	-6.5001	5.75	0.	131.99
4618	-6.5006	6.7498	0.	129.94
4619	-6.7509	6.9998	0.	128.32
4620	-6.5002	6.2499	0.	132.05
4621	-6.7502	6.4999	0.	129.42
4622	-6.7501	6.	0.	130.54
4623	5.8436	-6.5423	0.	107.68
4624	5.3544	-6.4765	0.	115.2
4625	6.3176	-6.6626	0.	124.65
4626	6.5806	-6.5351	0.	134.91
4627	6.7752	-6.8258	0.	138.81
4628	6.7186	-7.6815	0.	130.84
4629	6.9316	-7.1685	0.	132.52
4630	6.3631	-8.1327	0.	129.63
4631	4.7194	-7.1757	0.	130.
4632	4.4172	-6.9665	0.	125.22
4633	4.853	-7.6377	0.	132.53
4634	-1.0906	7.6761	0.	110.99
4635	-1.538	7.7648	0.	112.45
4636	-0.66874	7.5761	0.	125.32
4637	-0.41885	7.7718	0.	141.41
4638	-0.91792	5.8505	0.	118.45
4639	-0.54238	6.2234	0.	137.44
4640	-2.2265	7.1342	0.	133.68
4641	-2.1839	6.6283	0.	134.66
4642	-2.0468	6.1303	0.	135.26
4643	7.9868	7.0147	0.	125.51
4644	7.9465	7.4229	0.	125.75
4645	8.2076	7.1879	0.	128.65
4646	8.1358	6.6537	0.	127.03
4647	8.6358	5.8697	0.	134.47
4648	8.4123	6.3046	0.	136.09
4649	5.5587	-2.4631	0.	125.32
4650	5.812	-2.6472	0.	132.18
4651	5.1204	-2.5397	0.	115.09
4652	4.2118	-2.662	0.	119.19
4653	4.67	-2.6078	0.	112.97
4654	5.2876	-0.47489	0.	128.26
4655	5.3616	-0.2276	0.	128.15
4656	5.5101	-0.40604	0.	129.22
4657	5.5181	-0.88218	0.	127.87
4658	6.136	-1.7317	0.	131.83
4659	6.0853	-1.2892	0.	135.05
4660	5.94	-1.519	0.	134.74
4661	6.2822	-1.0567	0.	132.16
4662	5.8216	-1.0866	0.	130.01
4663	6.7614	7.0266	0.	124.89
4664	6.5797	6.6086	0.	124.92
4665	6.3777	6.187	0.	130.19
4666	6.1891	5.7429	0.	125.74
4667	8.1381	5.0758	0.	124.89
4668	7.6861	5.0558	0.	117.05
4669	7.4868	4.2719	0.	122.29
4670	7.4682	4.7864	0.	118.55
4671	3.6123	-2.0126	0.	130.66
4672	3.3295	-2.2327	0.	127.6
4673	3.7157	-1.5494	0.	131.74
4674	4.0559	-0.62386	0.	127.38
4675	3.6908	-1.1078	0.	126.22
4676	3.4037	-0.96668	0.	124.37
4677	3.8205	-0.88969	0.	123.43
4678	3.8991	-1.0929	0.	125.92
4679	-4.4079	-6.3578	0.	119.23
4680	-3.9662	-6.4948	0.	129.67
4681	-4.8688	-6.2453	0.	115.88
4682	-5.3678	-6.1693	0.	120.45
4683	-5.853	-6.2531	0.	129.4
4684	-2.6814	-1.8518	0.	136.45
4685	-3.0308	-1.7057	0.	136.
4686	-2.8864	-1.4467	0.	132.26
4687	-2.4577	-2.2518	0.	125.94
4688	-3.594	-7.5142	0.	132.13
4689	-3.9511	-7.9095	0.	130.07
4690	-4.3911	-8.1549	0.	120.05
4691	-4.5748	-8.4526	0.	119.58
4692	-0.95064	-1.2522	0.	135.46
4693	-1.0542	-1.7154	0.	135.98
4694	-1.193	-2.1712	0.	131.92
4695	-1.0459	-2.4501	0.	131.53
4696	-2.4015	-0.70989	0.	122.71
4697	-1.5368	-0.57057	0.	118.67
4698	-1.9685	-0.63146	0.	109.9
4699	-5.7546	-8.7466	0.	130.83
4700	-6.7952	-7.311	0.	126.9
4701	-7.226	-7.445	0.	125.28
4702	-6.3999	-7.2743	0.	110.16
4703	-6.0188	-7.2165	0.	120.28
4704	-7.3879	-7.8449	0.	119.34
4705	-7.1545	-8.372	0.	129.41
4706	-8.7501	9.5	0.	125.1
4707	-9.2501	9.5	0.	125.03
4708	-8.2502	9.5	0.	125.12
4709	-7.7504	9.5001	0.	125.05
4710	-7.2508	9.5001	0.	124.85
4711	-6.7513	9.5002	0.	124.5
4712	-6.2521	9.5003	0.	124.09
4713	-5.7533	9.5003	0.	123.86
4714	-5.2548	9.5002	0.	124.03
4715	-4.7563	9.4993	0.	124.61
4716	-5.0096	9.2498	0.	123.76
4717	-4.2567	9.4967	0.	125.39
4718	-4.5123	9.2479	0.	124.81
4719	-3.7548	9.4918	0.	126.09
4720	-3.2534	9.4921	0.	126.47
4721	-2.7571	9.5203	0.	126.39
4722	-2.2633	9.5525	0.	125.78
4723	-1.7697	9.5567	0.	125.04
4724	-1.2748	9.5471	0.	124.86
4725	-0.77372	9.5317	0.	125.99
4726	-0.26611	9.5153	0.	125.59
4727	0.2478	9.5077	0.	121.62
4728	0.76048	9.4851	0.	121.57
4729	1.2622	9.4718	0.	125.81
4730	1.7587	9.4867	0.	127.13
4731	2.2565	9.496	0.	126.53
4732	2.7556	9.5019	0.	126.08
4733	3.2557	9.5042	0.	125.79
4734	3.0099	9.2571	0.	125.21
4735	3.7556	9.5032	0.	125.73
4736	4.2543	9.5002	0.	125.68
4737	4.752	9.4967	0.	125.56
4738	5.2485	9.4972	0.	125.29
4739	5.7448	9.5066	0.	124.83
4740	6.2429	9.52	0.	124.22
4741	6.7431	9.5276	0.	123.61
4742	7.2448	9.5279	0.	123.24
4743	7.747	9.5235	0.	123.31
4744	8.2489	9.5168	0.	123.76
4745	8.7504	9.5104	0.	124.36
4746	9.251	9.5056	0.	124.93
4747	9.5014	9.2557	0.	125.59
4748	9.5017	8.7605	0.	126.44
4749	9.5007	8.2664	0.	127.29
4750	9.4977	7.7728	0.	127.97
4751	9.4912	7.2777	0.	128.24
4752	9.4844	6.7811	0.	127.86
4753	9.5038	6.2855	0.	126.99
4754	9.5383	5.7906	0.	126.84
4755	9.5483	5.2942	0.	128.46
4756	9.5223	4.7966	0.	130.2
4757	9.4952	4.2932	0.	130.51
4758	9.4934	3.7815	0.	130.1
4759	9.4968	3.2691	0.	129.6
4760	9.2447	3.5316	0.	129.18
4761	9.499	2.7603	0.	129.08
4762	9.2482	3.0175	0.	128.77
4763	9.5001	2.2546	0.	128.48
4764	9.2501	2.5085	0.	128.3
4765	9.5005	1.7511	0.	127.84
4766	9.251	2.0025	0.	127.79
4767	9.5005	1.2492	0.	127.21
4768	9.5002	0.74819	0.	126.63
4769	9.4998	0.24786	0.	126.12
4770	9.4999	-0.25202	0.	125.71
4771	9.5006	-0.75168	0.	125.44
4772	9.502	-1.2513	0.	125.38
4773	9.5033	-1.7511	0.	125.58
4774	9.5034	-2.2511	0.	126.06
4775	9.5017	-2.7509	0.	126.8
4776	9.5	-3.2505	0.	127.78
4777	9.2503	-3.0005	0.	126.43
4778	9.4995	-3.7499	0.	129.22
4779	9.4997	-4.2496	0.	132.24
4780	9.5	-4.7498	0.	134.7
4781	9.5	-5.2499	0.	136.41
4782	9.5	-5.75	0.	138.39
4783	9.5	-6.25	0.	138.03
4784	9.4998	-6.7501	0.	135.24
4785	9.4991	-7.2502	0.	133.15
4786	9.4988	-7.7502	0.	130.92
4787	9.4997	-8.2502	0.	128.58
4788	9.5005	-8.7503	0.	128.12
4789	9.5005	-9.2503	0.	128.17
4790	9.2507	-9.5005	0.	127.71
4791	8.7516	-9.5012	0.	126.98
4792	8.2532	-9.5023	0.	126.85
4793	7.7558	-9.5022	0.	127.01
4794	7.2597	-9.4982	0.	126.48
4795	6.7659	-9.4873	0.	124.21
4796	6.275	-9.4723	0.	120.83
4797	5.7828	-9.4789	0.	119.02
4798	5.2827	-9.5029	0.	121.16
4799	4.7775	-9.5118	0.	125.47
4800	4.2733	-9.5096	0.	128.6
4801	4.5374	-9.2638	0.	128.56
4802	3.7702	-9.5085	0.	129.85
4803	3.2671	-9.5069	0.	129.92
4804	2.7647	-9.5035	0.	129.48
4805	2.2629	-9.5002	0.	128.75
4806	1.7612	-9.4985	0.	127.77
4807	1.2594	-9.4982	0.	126.42
4808	0.75779	-9.4985	0.	124.65
4809	0.25613	-9.499	0.	122.65
4810	-0.24554	-9.4994	0.	120.92
4811	-0.74741	-9.4996	0.	120.15
4812	-1.2518	-9.4983	0.	120.84
4813	-1.7568	-9.4942	0.	122.92
4814	-2.2602	-9.4851	0.	125.68
4815	-2.7625	-9.4744	0.	128.08
4816	-3.2622	-9.4723	0.	129.09
4817	-3.7591	-9.4889	0.	128.17
4818	-4.256	-9.5196	0.	125.88
4819	-4.7557	-9.5482	0.	123.94
4820	-5.2593	-9.5635	0.	123.
4821	-5.7662	-9.5607	0.	120.45
4822	-6.2713	-9.5415	0.	117.67
4823	-6.77	-9.5314	0.	120.31
4824	-7.2641	-9.5307	0.	126.02
4825	-7.7573	-9.5214	0.	129.34
4826	-8.2522	-9.5118	0.	130.57
4827	-8.7497	-9.5055	0.	131.3
4828	-9.2491	-9.5021	0.	132.12
4829	-9.4981	-9.2514	0.	132.34
4830	-9.4951	-8.7523	0.	131.81
4831	-9.4918	-8.2534	0.	131.36
4832	-9.4907	-7.7544	0.	131.12
4833	-9.4927	-7.2547	0.	130.93
4834	-9.4959	-6.7539	0.	130.83
4835	-9.4981	-6.2527	0.	130.94
4836	-9.4992	-5.7516	0.	131.22
4837	-9.4997	-5.2509	0.	131.61
4838	-9.4999	-4.7505	0.	131.97
4839	-9.5	-4.2503	0.	131.96
4840	-9.5	-3.7501	0.	131.42
4841	-9.4999	-3.2501	0.	130.63
4842	-9.4998	-2.7501	0.	129.85
4843	-9.4997	-2.25	0.	129.18
4844	-9.4996	-1.75	0.	128.61
4845	-9.4996	-1.2501	0.	128.13
4846	-9.4996	-0.75007	0.	127.7
4847	-9.4996	-0.2501	0.	127.3
4848	-9.4996	0.24985	0.	126.94
4849	-9.4997	0.74983	0.	126.65
4850	-9.4998	1.2499	0.	126.48
4851	-9.2497	0.99974	0.	126.61
4852	-9.4999	1.7499	0.	126.46
4853	-9.5	2.2499	0.	126.56
4854	-9.5	2.75	0.	126.7
4855	-9.5	3.25	0.	126.76
4856	-9.5	3.75	0.	126.68
4857	-9.5	4.25	0.	126.41
4858	-9.5	4.75	0.	126.01
4859	-9.5	5.25	0.	125.54
4860	-9.5	5.75	0.	125.12
4861	-9.5	6.25	0.	124.83
4862	-9.25	6.	0.	125.19
4863	-9.5	6.75	0.	124.68
4864	-9.25	6.5	0.	124.98
4865	-9.5	7.25	0.	124.67
4866	-9.5001	7.75	0.	124.73
4867	-9.5001	8.25	0.	124.82
4868	-9.5001	8.75	0.	124.89
4869	-9.5001	9.25	0.	124.95
4870	-5.9048	-6.9682	0.	124.66
4871	-6.0294	-6.5628	0.	125.52
4872	-5.57	-8.1714	0.	138.26
4873	-5.5503	-8.5471	0.	133.72
4874	5.0651	-8.4629	0.	130.3
4875	6.5454	-4.3191	0.	127.82
4876	-8.2498	-3.5013	0.	125.37
4877	-7.9996	-3.2519	0.	124.
4878	-4.0454	4.7658	0.	129.84
4879	-2.7479	3.4425	0.	130.12
4880	-3.2689	3.5225	0.	130.24
4881	-2.8778	3.733	0.	130.4
4882	0.51126	3.7332	0.	125.37
4883	-3.8396	6.9723	0.	126.46
4884	-0.73096	2.9603	0.	125.88
4885	4.562	5.7452	0.	127.69
4886	4.2495	4.5283	0.	129.97
4887	4.8424	5.8268	0.	128.09
4888	4.3233	5.996	0.	127.93
4889	-1.5714	3.9314	0.	125.98
4890	-1.2623	1.4811	0.	125.83
4891	4.1457	-6.7386	0.	127.67
4892	4.1032	-6.2377	0.	129.22
4893	4.0371	-4.788	0.	125.34
4894	4.2849	-4.5429	0.	123.57
4895	-4.7656	8.9984	0.	123.96
4896	4.7871	7.2622	0.	127.63
4897	5.179	7.4004	0.	127.68
4898	-7.75	3.	0.	128.97
4899	2.2476	-3.5685	0.	132.91
4900	2.8691	-7.0183	0.	125.36
4901	-1.5227	1.2415	0.	123.86
4902	-1.7651	1.5023	0.	124.46
4903	-8.0001	4.25	0.	128.55
4904	-5.0445	-2.8224	0.	124.92
4905	6.758	-6.1653e-002	0.	128.76
4906	-0.8445	-2.7357	0.	129.53
4907	6.5109	1.7022	0.	124.64
4908	-7.7498	1.4997	0.	126.58
4909	-7.4996	1.2495	0.	126.77
4910	3.5459	-5.2752	0.	127.53
4911	3.7908	-5.0296	0.	126.61
4912	3.2808	-5.0378	0.	127.83
4913	5.1049	-6.217	0.	123.16
4914	5.0936	-5.739	0.	120.97
4915	5.5802	-4.2405	0.	122.06
4916	4.3022	-5.0191	0.	124.64
4917	4.55	-4.7741	0.	122.87
4918	-5.4683	-2.2897	0.	123.3
4919	-5.2699	-2.5615	0.	124.13
4920	8.0048	1.2345	0.	126.08
4921	3.2951	8.031	0.	123.17
4922	3.7742	8.0212	0.	124.65
4923	-8.	2.75	0.	128.26
4924	-8.	2.2499	0.	127.5
4925	-7.9997	1.2496	0.	126.66
4926	-7.9999	1.7498	0.	126.83
4927	-2.2939	-8.4756	0.	125.93
4928	-5.764	7.9997	0.	118.71
4929	-5.2729	7.9989	0.	118.29
4930	1.7384	2.0192	0.	125.46
4931	4.9968	-8.0683	0.	129.7
4932	-2.5634	-8.2157	0.	129.03
4933	9.001	2.2563	0.	127.62
4934	-4.7868	7.9961	0.	122.3
4935	-1.9909	2.7295	0.	127.63
4936	-9.	6.25	0.	125.35
4937	-7.2502	6.4999	0.	127.1
4938	-7.0002	6.2499	0.	127.91
4939	-7.0006	6.7499	0.	127.77
4940	6.2602	1.9517	0.	125.27
4941	3.0538	1.949	0.	124.49
4942	-3.5169	3.2682	0.	130.24
4943	-7.7501	5.5	0.	126.99
4944	8.2089	7.6286	0.	126.29
4945	-8.0002	6.75	0.	126.09
4946	-8.0001	5.25	0.	127.09
4947	-8.	5.75	0.	126.41
4948	8.9961	3.28	0.	128.34
4949	8.9994	2.7657	0.	127.99
4950	5.8168	-5.0217	0.	120.79
4951	5.5666	-4.7631	0.	120.68
4952	-6.2584	7.9999	0.	123.15
4953	8.253	-1.0112	0.	126.02
4954	-7.7495	0.99938	0.	126.86
4955	6.0778	-5.278	0.	120.41
4956	-3.5151	-1.8142	0.	126.57
4957	-8.2501	4.5	0.	127.91
4958	-7.7501	6.5	0.	126.31
4959	-0.26364	4.9277	0.	125.11
4960	4.2316	-8.011	0.	128.39
4961	-3.7937	4.5336	0.	130.19
4962	-7.749	-3.0032	0.	123.58
4963	-7.9988	-2.7516	0.	124.64
4964	-0.4936	4.6599	0.	124.24
4965	-4.7597	3.5049	0.	120.58
4966	8.0098	-1.2601	0.	125.93
4967	5.5752	7.1704	0.	127.83
4968	1.0104	-4.7656	0.	128.41
4969	-0.17915	6.4556	0.	137.39
4970	-2.4229	3.5601	0.	129.35
4971	-6.5028	-3.7753	0.	124.48
4972	-1.7446	2.4795	0.	127.04
4973	4.6881	-7.9179	0.	128.88
4974	-7.498	-2.7537	0.	123.31
4975	-7.7478	-2.5021	0.	124.37
4976	-7.7472	-1.6721e-003	0.	127.66
4977	2.2992	-2.5833	0.	129.54
4978	-8.0001	4.75	0.	127.9
4979	-8.0001	6.25	0.	126.07
4980	-7.0015	7.2498	0.	128.05
4981	-2.6489	4.1474	0.	130.01
4982	-2.8261	-8.4349	0.	130.11
4983	4.1159	1.5759	0.	124.01
4984	3.9426	1.7424	0.	123.64
4985	3.9041	1.5618	0.	120.63
4986	3.7332	1.9487	0.	120.
4987	3.5466	2.2053	0.	117.97
4988	3.4999	1.814	0.	113.65
4989	3.3134	2.0706	0.	111.7
4990	-2.5528	3.8505	0.	129.63
4991	-3.3682	7.9436	0.	128.42
4992	-3.1145	8.1746	0.	129.09
4993	-3.5795	8.216	0.	127.72
4994	-3.3257	8.447	0.	128.4
4995	8.4761	7.8488	0.	127.61
4996	8.47	7.3936	0.	129.23
4997	5.6762	-1.3164	0.	130.
4998	0.	-5.	0.	96.148
4999	-2.	-5.	0.	98.542
5000	0.	-7.	0.	95.851
5001	-2.	-7.	0.	96.462
5002	-0.5	-5.	0.	110.84
5003	-1.	-5.	0.	109.08
5004	-1.5	-5.	0.	111.87
5005	0.	-5.5	0.	100.42
5006	0.	-6.	0.	98.994
5007	0.	-6.5	0.	100.01
5008	-2.	-5.5	0.	102.52
5009	-2.	-6.	0.	100.96
5010	-2.	-6.5	0.	101.26
5011	-1.5	-7.	0.	109.91
5012	-1.	-7.	0.	107.29
5013	-0.5	-7.	0.	109.56
5014	-1.	-5.5	0.	111.06
5015	-0.5	-5.5	0.	108.02
5016	-0.5	-6.5	0.	107.29
5017	-1.	-6.5	0.	109.99
5018	-1.5	-6.5	0.	107.88
5019	-1.5	-5.5	0.	109.22
5020	-1.5	-6.	0.	107.87
5021	-0.5	-6.	0.	106.89
5022	-1.	-6.	0.	110.31
5023	-0.25	-5.	0.	103.42
5024	0.	-5.25	0.	98.264
5025	-1.75	-5.	0.	105.14
5026	-2.	-5.25	0.	100.52
5027	0.	-6.75	0.	97.92
5028	-0.25	-7.	0.	102.63
5029	-2.	-6.75	0.	98.849
5030	-1.75	-7.	0.	103.12
5031	-0.75	-5.	0.	109.96
5032	-0.5	-5.25	0.	109.41
5033	-1.25	-5.	0.	110.47
5034	-1.	-5.25	0.	110.06
5035	-1.5	-5.25	0.	110.52
5036	0.	-5.75	0.	99.674
5037	-0.25	-5.5	0.	104.2
5038	0.	-6.25	0.	99.469
5039	-0.25	-6.	0.	102.94
5040	-0.25	-6.5	0.	103.63
5041	-2.	-5.75	0.	101.72
5042	-1.75	-5.5	0.	105.86
5043	-2.	-6.25	0.	101.08
5044	-1.75	-6.	0.	104.41
5045	-1.75	-6.5	0.	104.56
5046	-1.25	-7.	0.	108.6
5047	-1.5	-6.75	0.	108.87
5048	-0.75	-7.	0.	108.42
5049	-1.	-6.75	0.	108.62
5050	-0.5	-6.75	0.	108.39
5051	-0.75	-5.5	0.	109.53
5052	-1.25	-5.5	0.	110.13
5053	-1.	-5.75	0.	110.68
5054	-0.5	-5.75	0.	107.44
5055	-0.75	-6.5	0.	108.63
5056	-0.5	-6.25	0.	107.08
5057	-1.25	-6.5	0.	108.93
5058	-1.	-6.25	0.	110.15
5059	-1.5	-6.25	0.	107.86
5060	-1.5	-5.75	0.	108.54
5061	-1.25	-6.	0.	109.09
5062	-0.75	-6.	0.	108.6
5063	9.	-5.	0.	99.219
5064	8.	-5.	0.	98.71
5065	9.	-7.	0.	97.784
5066	8.	-7.	0.	97.345
5067	8.5	-5.	0.	113.28
5068	9.	-5.5	0.	103.59
5069	9.	-6.	0.	102.57
5070	9.	-6.5	0.	102.89
5071	8.	-5.5	0.	103.68
5072	8.	-6.	0.	102.77
5073	8.	-6.5	0.	102.73
5074	8.5	-7.	0.	111.54
5075	8.5	-5.5	0.	108.34
5076	8.5	-6.	0.	106.08
5077	8.5	-6.5	0.	107.27
5078	8.75	-5.	0.	106.21
5079	9.	-5.25	0.	101.4
5080	8.25	-5.	0.	105.94
5081	8.	-5.25	0.	101.19
5082	9.	-6.75	0.	100.33
5083	8.75	-7.	0.	104.61
5084	8.	-6.75	0.	100.04
5085	8.25	-7.	0.	104.41
5086	8.5	-5.25	0.	110.76
5087	9.	-5.75	0.	103.04
5088	8.75	-5.5	0.	105.92
5089	9.	-6.25	0.	102.7
5090	8.75	-6.	0.	104.32
5091	8.75	-6.5	0.	105.05
5092	8.	-5.75	0.	103.2
5093	8.25	-5.5	0.	105.97
5094	8.	-6.25	0.	102.71
5095	8.25	-6.	0.	104.42
5096	8.25	-6.5	0.	104.96
5097	8.5	-6.75	0.	109.34
5098	8.5	-5.75	0.	107.21
5099	8.5	-6.25	0.	106.67
5100	2.	1.	0.	100.24
5101	0.	1.	0.	97.59
5102	2.	0.	0.	106.15
5103	0.	0.	0.	97.227
5104	1.5	1.	0.	115.79
5105	1.	1.	0.	112.77
5106	0.5	1.	0.	113.37
5107	2.	0.5	0.	107.36
5108	0.	0.5	0.	101.79
5109	0.5	0.	0.	110.79
5110	1.	0.	0.	112.59
5111	1.5	0.	0.	119.2
5112	0.5	0.5	0.	111.25
5113	1.	0.5	0.	115.68
5114	1.5	0.5	0.	115.05
5115	1.75	1.	0.	107.99
5116	2.	0.75	0.	103.74
5117	0.25	1.	0.	105.42
5118	0.	0.75	0.	99.679
5119	2.	0.25	0.	106.68
5120	1.75	0.	0.	112.56
5121	0.	0.25	0.	99.505
5122	0.25	0.	0.	103.99
5123	1.25	1.	0.	114.28
5124	1.5	0.75	0.	115.4
5125	0.75	1.	0.	113.07
5126	1.	0.75	0.	114.22
5127	0.5	0.75	0.	112.29
5128	1.75	0.5	0.	111.17
5129	0.25	0.5	0.	106.51
5130	0.75	0.	0.	111.66
5131	0.5	0.25	0.	111.
5132	1.25	0.	0.	115.9
5133	1.	0.25	0.	114.13
5134	1.5	0.25	0.	117.12
5135	0.75	0.5	0.	113.46
5136	1.25	0.5	0.	115.37
5137	1.	-1.	0.	91.097
5138	0.	-1.	0.	94.613
5139	1.	-3.	0.	97.277
5140	0.	-3.	0.	95.322
5141	0.5	-1.	0.	105.49
5142	1.	-1.5	0.	96.413
5143	1.	-2.	0.	96.592
5144	1.	-2.5	0.	99.085
5145	0.	-1.5	0.	97.211
5146	0.	-2.	0.	97.425
5147	0.	-2.5	0.	99.929
5148	0.5	-3.	0.	110.44
5149	0.5	-1.5	0.	100.59
5150	0.5	-2.	0.	99.926
5151	0.5	-2.5	0.	103.79
5152	0.75	-1.	0.	98.244
5153	1.	-1.25	0.	93.741
5154	0.25	-1.	0.	100.02
5155	0.	-1.25	0.	95.91
5156	1.	-2.75	0.	98.179
5157	0.75	-3.	0.	103.81
5158	0.	-2.75	0.	97.6
5159	0.25	-3.	0.	102.79
5160	0.5	-1.25	0.	103.
5161	1.	-1.75	0.	96.473
5162	0.75	-1.5	0.	98.478
5163	1.	-2.25	0.	97.8
5164	0.75	-2.	0.	98.255
5165	0.75	-2.5	0.	101.36
5166	0.	-1.75	0.	97.253
5167	0.25	-1.5	0.	98.857
5168	0.	-2.25	0.	98.649
5169	0.25	-2.	0.	98.672
5170	0.25	-2.5	0.	101.81
5171	0.5	-2.75	0.	107.08
5172	0.5	-1.75	0.	100.26
5173	0.5	-2.25	0.	101.85
5174	-4.	2.	0.	99.951
5175	-6.	2.	0.	98.72
5176	-4.	1.	0.	99.97
5177	-6.	1.	0.	98.952
5178	-4.5	2.	0.	116.06
5179	-5.	2.	0.	114.29
5180	-5.5	2.	0.	115.32
5181	-4.	1.5	0.	104.72
5182	-6.	1.5	0.	103.82
5183	-5.5	1.	0.	115.67
5184	-5.	1.	0.	114.64
5185	-4.5	1.	0.	116.51
5186	-5.5	1.5	0.	114.24
5187	-5.	1.5	0.	117.68
5188	-4.5	1.5	0.	114.97
5189	-4.25	2.	0.	107.97
5190	-4.	1.75	0.	102.32
5191	-5.75	2.	0.	106.99
5192	-6.	1.75	0.	101.25
5193	-4.	1.25	0.	102.32
5194	-4.25	1.	0.	108.18
5195	-6.	1.25	0.	101.37
5196	-5.75	1.	0.	107.27
5197	-4.75	2.	0.	115.17
5198	-4.5	1.75	0.	115.5
5199	-5.25	2.	0.	114.8
5200	-5.	1.75	0.	115.98
5201	-5.5	1.75	0.	114.76
5202	-4.25	1.5	0.	109.83
5203	-5.75	1.5	0.	109.02
5204	-5.25	1.	0.	115.15
5205	-5.5	1.25	0.	114.94
5206	-4.75	1.	0.	115.57
5207	-5.	1.25	0.	116.15
5208	-4.5	1.25	0.	115.72
5209	-5.25	1.5	0.	115.96
5210	-4.75	1.5	0.	116.32
5211	3.	6.	0.	99.63
5212	1.	6.	0.	96.063
5213	3.	5.	0.	99.405
5214	1.	5.	0.	98.248
5215	2.5	6.	0.	117.28
5216	2.	6.	0.	115.6
5217	1.5	6.	0.	114.99
5218	3.	5.5	0.	104.67
5219	1.	5.5	0.	102.24
5220	1.5	5.	0.	114.95
5221	2.	5.	0.	114.24
5222	2.5	5.	0.	115.87
5223	1.5	5.5	0.	113.56
5224	2.	5.5	0.	117.85
5225	2.5	5.5	0.	115.05
5226	2.75	6.	0.	108.4
5227	3.	5.75	0.	102.12
5228	1.25	6.	0.	105.49
5229	1.	5.75	0.	99.12
5230	3.	5.25	0.	102.
5231	2.75	5.	0.	107.61
5232	1.	5.25	0.	100.23
5233	1.25	5.	0.	106.57
5234	2.25	6.	0.	116.44
5235	2.5	5.75	0.	116.14
5236	1.75	6.	0.	115.29
5237	2.	5.75	0.	116.72
5238	1.5	5.75	0.	114.25
5239	2.75	5.5	0.	109.84
5240	1.25	5.5	0.	107.88
5241	1.75	5.	0.	114.59
5242	1.5	5.25	0.	114.24
5243	2.25	5.	0.	115.04
5244	2.	5.25	0.	116.04
5245	2.5	5.25	0.	115.44
5246	1.75	5.5	0.	115.7
5247	2.25	5.5	0.	116.45
5248	7.	5.	0.	91.433
5249	6.	5.	0.	108.05
5250	7.	4.	0.	96.444
5251	6.	4.	0.	100.57
5252	6.5	5.	0.	117.61
5253	7.	4.5	0.	98.671
5254	6.	4.5	0.	108.58
5255	6.5	4.	0.	114.09
5256	6.5	4.5	0.	112.94
5257	6.75	5.	0.	104.42
5258	7.	4.75	0.	94.919
5259	6.25	5.	0.	112.78
5260	6.	4.75	0.	108.3
5261	7.	4.25	0.	97.545
5262	6.75	4.	0.	105.27
5263	6.	4.25	0.	104.55
5264	6.25	4.	0.	107.27
5265	6.5	4.75	0.	115.24
5266	6.75	4.5	0.	105.76
5267	6.25	4.5	0.	110.72
5268	6.5	4.25	0.	113.43
5269	-5.	7.	0.	94.102
5270	-6.	7.	0.	94.238
5271	-5.	5.	0.	94.283
5272	-6.	5.	0.	95.111
5273	-5.5	7.	0.	108.11
5274	-5.	6.5	0.	97.899
5275	-5.	6.	0.	97.252
5276	-5.	5.5	0.	98.659
5277	-6.	6.5	0.	98.452
5278	-6.	6.	0.	97.432
5279	-6.	5.5	0.	98.426
5280	-5.5	5.	0.	108.38
5281	-5.5	6.5	0.	102.49
5282	-5.5	6.	0.	100.53
5283	-5.5	5.5	0.	102.86
5284	-5.25	7.	0.	101.06
5285	-5.	6.75	0.	95.999
5286	-5.75	7.	0.	101.11
5287	-6.	6.75	0.	96.339
5288	-5.	5.25	0.	96.462
5289	-5.25	5.	0.	101.28
5290	-6.	5.25	0.	96.767
5291	-5.75	5.	0.	101.71
5292	-5.5	6.75	0.	105.25
5293	-5.	6.25	0.	97.525
5294	-5.25	6.5	0.	100.14
5295	-5.	5.75	0.	97.916
5296	-5.25	6.	0.	98.892
5297	-5.25	5.5	0.	100.72
5298	-6.	6.25	0.	97.91
5299	-5.75	6.5	0.	100.42
5300	-6.	5.75	0.	97.896
5301	-5.75	6.	0.	98.982
5302	-5.75	5.5	0.	100.6
5303	-5.5	5.25	0.	105.58
5304	-5.5	6.25	0.	101.51
5305	-5.5	5.75	0.	101.7
5306	-3.82	-7.02	0.	84.903
5307	-5.55	-6.61	0.	73.388
5308	-5.04	-8.31	0.	100.51
5309	-4.2525	-6.9175	0.	118.86
5310	-4.685	-6.815	0.	113.72
5311	-5.1175	-6.7125	0.	120.12
5312	-4.125	-7.3425	0.	113.49
5313	-4.43	-7.665	0.	107.49
5314	-4.735	-7.9875	0.	100.37
5315	-5.4225	-7.035	0.	113.87
5316	-5.295	-7.46	0.	108.78
5317	-5.1675	-7.885	0.	101.15
5318	-4.9306	-7.5606	0.	106.65
5319	-4.9543	-7.0798	0.	109.99
5320	-4.5253	-7.2996	0.	110.44
5321	-4.0363	-6.9688	0.	100.39
5322	-3.9725	-7.1813	0.	97.681
5323	-5.3337	-6.6613	0.	96.437
5324	-5.4862	-6.8225	0.	93.341
5325	-4.8875	-8.1488	0.	99.58
5326	-5.1038	-8.0975	0.	100.18
5327	-4.4688	-6.8663	0.	116.27
5328	-4.3889	-7.1086	0.	114.61
5329	-4.9012	-6.7638	0.	116.9
5330	-4.8197	-6.9474	0.	111.83
5331	-5.0359	-6.8962	0.	115.
5332	-4.2775	-7.5037	0.	110.46
5333	-4.3251	-7.3211	0.	111.88
5334	-4.5825	-7.8263	0.	103.93
5335	-4.4776	-7.4823	0.	108.95
5336	-4.8328	-7.774	0.	103.36
5337	-5.3587	-7.2475	0.	111.2
5338	-5.1884	-7.0574	0.	111.89
5339	-5.2312	-7.6725	0.	104.82
5340	-5.1128	-7.5103	0.	107.7
5341	-5.049	-7.7228	0.	103.83
5342	-4.9425	-7.3202	0.	108.3
5343	-4.7279	-7.4301	0.	108.44
5344	-4.7398	-7.1897	0.	110.15
5345	-6.97	-7.6	0.	56.656
5346	-6.38	-8.72	0.	111.6
5347	-5.7	-7.64	0.	62.357
5348	-6.7733	-7.9733	0.	97.704
5349	-6.5767	-8.3467	0.	93.617
5350	-6.5467	-7.6133	0.	116.75
5351	-6.1233	-7.6267	0.	119.74
5352	-6.1533	-8.36	0.	95.238
5353	-5.9267	-8.	0.	100.85
5354	-6.3587	-8.1572	0.	104.93
5355	-6.2011	-7.907	0.	105.02
5356	-6.4943	-7.8979	0.	103.81
5357	-6.8717	-7.7867	0.	75.886
5358	-6.7583	-7.6067	0.	85.23
5359	-6.4783	-8.5333	0.	101.09
5360	-6.2667	-8.54	0.	101.67
5361	-5.9117	-7.6333	0.	89.56
5362	-5.8133	-7.82	0.	80.254
5363	-6.675	-8.16	0.	95.492
5364	-6.6338	-7.9356	0.	100.65
5365	-6.4677	-8.2519	0.	99.221
5366	-6.335	-7.62	0.	118.18
5367	-6.5205	-7.7556	0.	110.11
5368	-6.1622	-7.7668	0.	112.3
5369	-6.04	-8.18	0.	97.798
5370	-6.256	-8.2586	0.	100.05
5371	-6.0639	-7.9535	0.	102.79
5372	-6.2799	-8.0321	0.	104.9
5373	-6.4265	-8.0276	0.	104.29
5374	-6.3477	-7.9024	0.	104.23
5375	5.1	-6.89	0.	57.703
5376	5.59	-8.26	0.	106.23
5377	6.53	-7.15	0.	65.509
5378	5.2633	-7.3467	0.	99.505
5379	5.4267	-7.8033	0.	95.55
5380	5.5767	-6.9767	0.	111.51
5381	6.0533	-7.0633	0.	113.12
5382	5.9033	-7.89	0.	91.909
5383	6.2167	-7.52	0.	97.136
5384	5.592	-7.3077	0.	99.455
5385	5.9227	-7.3678	0.	102.47
5386	5.7053	-7.6245	0.	102.
5387	5.1817	-7.1183	0.	78.472
5388	5.3383	-6.9333	0.	84.392
5389	5.5083	-8.0317	0.	98.826
5390	5.7467	-8.075	0.	97.56
5391	6.2917	-7.1067	0.	86.388
5392	6.3733	-7.335	0.	78.583
5393	5.345	-7.575	0.	97.365
5394	5.4277	-7.3272	0.	99.447
5395	5.566	-7.7139	0.	98.644
5396	5.815	-7.02	0.	112.19
5397	5.5843	-7.1422	0.	105.46
5398	5.988	-7.2156	0.	107.49
5399	6.06	-7.705	0.	94.434
5400	5.8043	-7.7572	0.	96.951
5401	6.0697	-7.4439	0.	99.591
5402	5.7573	-7.3378	0.	100.86
5403	5.6487	-7.4661	0.	100.69
5404	5.814	-7.4962	0.	102.15
5405	2.88	0.21	0.	72.965
5406	4.3	0.73	0.	73.583
5407	3.14	1.7	0.	98.42
5408	3.3533	0.38333	0.	110.64
5409	3.8267	0.55667	0.	110.01
5410	2.9667	0.70667	0.	107.23
5411	3.0533	1.2033	0.	104.42
5412	3.9133	1.0533	0.	100.94
5413	3.5267	1.3767	0.	97.513
5414	3.3706	1.0696	0.	104.34
5415	3.6388	0.84532	0.	106.57
5416	3.3105	0.72508	0.	102.34
5417	3.1167	0.29667	0.	90.808
5418	2.9233	0.45833	0.	89.341
5419	4.0633	0.64333	0.	87.266
5420	4.1067	0.89167	0.	83.008
5421	3.0967	1.4517	0.	99.25
5422	3.3333	1.5383	0.	96.243
5423	3.59	0.47	0.	110.25
5424	3.3319	0.55421	0.	106.43
5425	3.7328	0.70099	0.	107.83
5426	3.01	0.955	0.	105.61
5427	3.1386	0.71587	0.	104.78
5428	3.212	1.1365	0.	104.28
5429	3.72	1.215	0.	99.099
5430	3.7761	0.94933	0.	103.36
5431	3.4486	1.2231	0.	100.89
5432	3.5047	0.95746	0.	105.37
5433	3.3406	0.89734	0.	103.33
5434	3.4747	0.7852	0.	104.35
5435	4.63	-0.57	0.	106.58
5436	3.99	-2.24	0.	67.09
5437	5.76	-1.96	0.	79.335
5438	4.47	-0.9875	0.	102.04
5439	4.31	-1.405	0.	100.38
5440	4.15	-1.8225	0.	105.39
5441	4.9125	-0.9175	0.	98.954
5442	5.195	-1.265	0.	105.94
5443	5.4775	-1.6125	0.	108.07
5444	4.4325	-2.17	0.	114.78
5445	4.875	-2.1	0.	107.65
5446	5.3175	-2.03	0.	118.6
5447	4.4471	-1.797	0.	101.59
5448	4.7344	-1.3559	0.	103.94
5449	4.8115	-1.7277	0.	107.94
5450	5.1822	-1.6794	0.	107.56
5451	4.55	-0.77875	0.	103.1
5452	4.7712	-0.74375	0.	101.73
5453	4.07	-2.0312	0.	86.088
5454	4.2112	-2.205	0.	90.778
5455	5.6188	-1.7862	0.	91.986
5456	5.5388	-1.995	0.	97.264
5457	4.39	-1.1962	0.	101.18
5458	4.6912	-0.9525	0.	100.49
5459	4.6022	-1.1717	0.	102.97
5460	4.23	-1.6137	0.	102.88
5461	4.3785	-1.601	0.	100.96
5462	4.5222	-1.3805	0.	102.16
5463	4.2985	-1.8097	0.	103.48
5464	5.0538	-1.0912	0.	102.44
5465	5.3362	-1.4388	0.	106.94
5466	4.9647	-1.3105	0.	104.91
5467	5.1886	-1.4722	0.	106.74
5468	5.3299	-1.6459	0.	107.7
5469	4.6537	-2.135	0.	111.2
5470	4.4398	-1.9835	0.	108.17
5471	5.0963	-2.065	0.	113.11
5472	4.8433	-1.9138	0.	107.8
5473	5.2499	-1.8547	0.	112.92
5474	4.6293	-1.7623	0.	104.72
5475	4.773	-1.5418	0.	105.94
5476	4.9969	-1.7035	0.	107.68
5477	-1.31	-1.02	0.	55.494
5478	-2.62	-1.2	0.	58.997
5479	-1.8	-2.25	0.	108.33
5480	-1.7467	-1.08	0.	114.27
5481	-2.1833	-1.14	0.	114.39
5482	-1.4733	-1.43	0.	99.891
5483	-1.6367	-1.84	0.	95.7
5484	-2.3467	-1.55	0.	95.559
5485	-2.0733	-1.9	0.	90.092
5486	-1.7706	-1.3813	0.	100.71
5487	-2.0739	-1.4222	0.	102.95
5488	-1.884	-1.6655	0.	101.63
5489	-1.5283	-1.05	0.	84.714
5490	-1.3917	-1.225	0.	77.507
5491	-2.4017	-1.17	0.	83.413
5492	-2.4833	-1.375	0.	74.087
5493	-1.7183	-2.045	0.	99.902
5494	-1.9367	-2.075	0.	97.714
5495	-1.965	-1.11	0.	114.22
5496	-1.7586	-1.2306	0.	107.46
5497	-2.1286	-1.2811	0.	108.36
5498	-1.555	-1.635	0.	97.636
5499	-1.622	-1.4056	0.	100.24
5500	-1.7603	-1.7527	0.	98.536
5501	-2.21	-1.725	0.	92.71
5502	-2.2103	-1.4861	0.	99.024
5503	-1.9787	-1.7827	0.	95.851
5504	-1.9223	-1.4018	0.	101.68
5505	-1.8273	-1.5234	0.	101.1
5506	-1.979	-1.5439	0.	102.16
5507	6.54	5.55	0.	65.915
5508	8.33	5.6	0.	69.486
5509	7.39	7.13	0.	105.7
5510	6.9875	5.5625	0.	113.26
5511	7.435	5.575	0.	113.01
5512	7.8825	5.5875	0.	123.
5513	6.7525	5.945	0.	97.252
5514	6.965	6.34	0.	102.03
5515	7.1775	6.735	0.	95.908
5516	8.095	5.9825	0.	108.42
5517	7.86	6.365	0.	105.49
5518	7.625	6.7475	0.	98.02
5519	7.7446	5.8526	0.	108.12
5520	7.2263	5.9488	0.	104.19
5521	7.5403	6.1631	0.	106.48
5522	7.353	6.4875	0.	104.42
5523	6.7638	5.5563	0.	88.981
5524	6.6462	5.7475	0.	80.714
5525	8.1062	5.5938	0.	95.226
5526	8.2125	5.7913	0.	88.11
5527	7.2838	6.9325	0.	99.489
5528	7.5075	6.9387	0.	100.54
5529	7.2112	5.5687	0.	113.07
5530	6.87	5.7537	0.	105.17
5531	7.1069	5.7556	0.	108.71
5532	7.6588	5.5813	0.	118.
5533	7.5898	5.7138	0.	110.51
5534	7.3306	5.7619	0.	108.56
5535	7.8135	5.72	0.	115.51
5536	6.8587	6.1425	0.	99.62
5537	7.0712	6.5375	0.	98.907
5538	7.0956	6.1444	0.	103.11
5539	7.159	6.4138	0.	103.2
5540	7.2652	6.6113	0.	100.15
5541	7.9775	6.1737	0.	106.94
5542	7.9198	5.9175	0.	108.22
5543	7.7425	6.5563	0.	101.7
5544	7.7001	6.2641	0.	105.95
5545	7.489	6.6175	0.	101.21
5546	7.6424	6.0078	0.	107.27
5547	7.3833	6.0559	0.	105.28
5548	7.4466	6.3253	0.	105.45
5549	0.39	8.86	0.	112.29
5550	-0.18	7.43	0.	68.105
5551	1.34	7.66	0.	66.972
5552	0.2	8.3833	0.	101.2
5553	1.e-002	7.9067	0.	108.26
5554	0.70667	8.46	0.	95.496
5555	1.0233	8.06	0.	99.801
5556	0.32667	7.5067	0.	121.31
5557	0.83333	7.5833	0.	115.24
5558	0.48736	8.186	0.	108.07
5559	0.707	7.9086	0.	107.13
5560	0.35554	7.8554	0.	107.12
5561	0.295	8.6217	0.	104.8
5562	0.54833	8.66	0.	102.51
5563	-8.5e-002	7.6683	0.	87.949
5564	7.3333e-002	7.4683	0.	94.268
5565	1.1817	7.86	0.	80.945
5566	1.0867	7.6217	0.	88.563
5567	0.105	8.145	0.	104.62
5568	0.34368	8.2847	0.	104.56
5569	0.18277	7.881	0.	107.68
5570	0.865	8.26	0.	97.502
5571	0.59701	8.323	0.	101.78
5572	0.86517	7.9843	0.	103.26
5573	0.58	7.545	0.	118.12
5574	0.3411	7.681	0.	114.18
5575	0.77017	7.746	0.	110.92
5576	0.59718	8.0473	0.	107.51
5577	0.42145	8.0207	0.	107.57
5578	0.53127	7.882	0.	107.03
5579	-0.44	7.02	0.	77.579
5580	-1.86	7.42	0.	63.37
5581	-1.49	5.99	0.	105.4
5582	-0.91333	7.1533	0.	121.15
5583	-1.3867	7.2867	0.	113.53
5584	-0.79	6.6767	0.	105.85
5585	-1.14	6.3333	0.	97.689
5586	-1.7367	6.9433	0.	103.9
5587	-1.6133	6.4667	0.	101.38
5588	-1.3157	6.6204	0.	106.64
5589	-1.4013	6.9511	0.	103.92
5590	-1.073	6.8586	0.	111.08
5591	-0.67667	7.0867	0.	93.987
5592	-0.615	6.8483	0.	87.504
5593	-1.6233	7.3533	0.	87.979
5594	-1.7983	7.1817	0.	83.352
5595	-1.315	6.1617	0.	99.935
5596	-1.5517	6.2283	0.	101.39
5597	-1.15	7.22	0.	117.19
5598	-0.99315	7.0059	0.	115.55
5599	-1.394	7.1189	0.	108.71
5600	-0.965	6.505	0.	101.68
5601	-0.93149	6.7676	0.	108.11
5602	-1.2279	6.4769	0.	102.13
5603	-1.675	6.705	0.	102.4
5604	-1.569	6.9472	0.	103.9
5605	-1.4645	6.5435	0.	103.88
5606	-1.3585	6.7857	0.	105.24
5607	-1.1944	6.7395	0.	108.75
5608	-1.2371	6.9048	0.	107.35
5609	-7.	-5.	0.	96.434
5610	-8.	-5.	0.	97.821
5611	-7.	-7.	0.	96.596
5612	-8.	-7.	0.	99.41
5613	-7.5	-5.	0.	111.33
5614	-7.	-5.5	0.	100.6
5615	-7.	-6.	0.	99.543
5616	-7.	-6.5	0.	100.81
5617	-8.	-5.5	0.	102.79
5618	-8.	-6.	0.	102.56
5619	-8.	-6.5	0.	104.57
5620	-7.5	-7.	0.	118.25
5621	-7.5	-5.5	0.	106.56
5622	-7.5	-6.	0.	105.
5623	-7.5	-6.5	0.	108.67
5624	-7.25	-5.	0.	103.85
5625	-7.	-5.25	0.	98.516
5626	-7.75	-5.	0.	104.53
5627	-8.	-5.25	0.	100.3
5628	-7.	-6.75	0.	98.67
5629	-7.25	-7.	0.	107.19
5630	-8.	-6.75	0.	101.99
5631	-7.75	-7.	0.	108.75
5632	-7.5	-5.25	0.	108.89
5633	-7.	-5.75	0.	100.02
5634	-7.25	-5.5	0.	103.54
5635	-7.	-6.25	0.	100.09
5636	-7.25	-6.	0.	102.27
5637	-7.25	-6.5	0.	104.64
5638	-8.	-5.75	0.	102.64
5639	-7.75	-5.5	0.	104.64
5640	-8.	-6.25	0.	103.51
5641	-7.75	-6.	0.	103.78
5642	-7.75	-6.5	0.	106.51
5643	-7.5	-6.75	0.	113.39
5644	-7.5	-5.75	0.	105.78
5645	-7.5	-6.25	0.	106.83
