Node Number	X Location (mm)	Y Location (mm)	Z Location (mm)	Equivalent (von-Mises) Stress (MPa)
1	-5.36	7.25	0.	146.11
2	-4.23	8.12	0.	168.07
3	-5.54	8.67	0.	158.1
4	8.11	5.6	0.	161.82
5	6.88	5.23	0.	179.11
6	7.82	4.34	0.	122.18
7	-1.52	4.88	0.	112.9
8	-0.87	5.96	0.	177.67
9	-2.14	5.98	0.	181.63
10	-1.55	0.25	0.	121.17
11	-2.78	-0.97	0.	170.09
12	-1.11	-1.43	0.	183.17
13	3.86	0.43	0.	111.54
14	2.91	-1.14	0.	170.73
15	4.74	-1.18	0.	172.46
16	-5.44	-1.85	0.	149.75
17	-5.58	-0.32	0.	136.48
18	-6.83	-1.21	0.	156.42
19	-3.68	-6.36	0.	178.04
20	-5.36	-6.98	0.	144.59
21	-3.98	-8.13	0.	125.37
22	2.09	-5.94	0.	163.16
23	0.78	-6.34	0.	175.42
24	1.78	-7.28	0.	127.31
25	-2.52	-6.64	0.	129.56
26	-2.32	-5.49	0.	159.66
27	-3.42	-5.9	0.	178.76
28	-7.	7.	0.	138.09
29	-7.	6.	0.	136.2
30	-6.	7.	0.	152.68
31	-6.	6.	0.	137.4
32	-5.	7.	0.	120.81
33	-5.	5.	0.	134.37
34	-3.	7.	0.	144.83
35	-3.	5.	0.	140.11
36	6.	1.	0.	137.77
37	6.	-1.	0.	134.79
38	8.	1.	0.	135.41
39	8.	-1.	0.	135.91
40	-1.	-1.	0.	151.63
41	-1.	-3.	0.	131.13
42	0.	-1.	0.	132.24
43	0.	-3.	0.	138.87
44	-6.	-5.	0.	136.71
45	-6.	-6.	0.	138.54
46	-4.	-5.	0.	136.2
47	-4.	-6.	0.	115.02
48	4.	-6.	0.	133.47
49	4.	-8.	0.	135.34
50	6.	-6.	0.	133.76
51	6.	-8.	0.	133.17
52	10.	10.	0.	124.98
53	-10.	10.	0.	125.03
54	10.	-10.	0.	130.95
55	-10.	-10.	0.	131.52
56	-1.	-1.497	0.	165.08
57	-1.2199	-1.0102	0.	129.17
58	-4.6043	7.8318	0.	71.988
59	-4.9816	7.5413	0.	87.816
60	-5.42	7.7233	0.	155.98
61	-5.48	8.1967	0.	149.31
62	-4.6667	8.3033	0.	83.986
63	-5.1033	8.4867	0.	103.38
64	7.7	5.4767	0.	105.33
65	7.29	5.3533	0.	86.805
66	8.0133	5.18	0.	142.76
67	7.9167	4.76	0.	128.26
68	7.1933	4.9334	0.	81.037
69	7.5066	4.6367	0.	81.359
70	-1.3033	5.24	0.	101.97
71	-1.0867	5.6	0.	113.56
72	-1.7267	5.2467	0.	103.39
73	-1.9333	5.6133	0.	124.52
74	-1.2933	5.9667	0.	101.81
75	-1.7167	5.9733	0.	109.28
76	-1.8575	-5.5e-002	0.	92.828
77	-2.1651	-0.3601	0.	107.63
78	-2.4726	-0.66514	0.	97.471
79	-1.4399	-0.17023	0.	127.02
80	-1.3299	-0.59023	0.	138.8
81	-2.3627	-1.0849	0.	92.457
82	-1.9452	-1.1999	0.	114.9
83	-1.5276	-1.315	0.	114.89
84	3.6224	3.7398e-002	0.	107.69
85	3.3849	-0.3551	0.	120.84
86	3.1475	-0.74755	0.	120.34
87	4.08	2.75e-002	0.	111.58
88	4.3	-0.375	0.	122.91
89	4.52	-0.7775	0.	121.15
90	3.3675	-1.15	0.	109.27
91	3.825	-1.16	0.	120.43
92	4.2825	-1.17	0.	111.13
93	-5.4867	-1.34	0.	141.08
94	-5.5333	-0.83	0.	138.82
95	-5.9033	-1.6367	0.	99.352
96	-6.3667	-1.4233	0.	85.796
97	-5.9967	-0.61667	0.	89.011
98	-6.4133	-0.91333	0.	77.883
99	-4.9387	-6.8245	0.	90.127
100	-4.5187	-6.6695	0.	106.36
101	-3.755	-6.8025	0.	151.99
102	-3.83	-7.245	0.	140.14
103	-3.905	-7.6875	0.	130.18
104	-5.0153	-7.2673	0.	88.326
105	-4.6712	-7.554	0.	98.117
106	-4.3296	-7.8387	0.	96.371
107	1.6533	-6.0733	0.	106.31
108	1.2167	-6.2067	0.	88.078
109	1.9867	-6.3867	0.	142.72
110	1.8833	-6.8333	0.	134.66
111	1.1134	-6.6534	0.	77.735
112	1.4467	-6.9667	0.	86.35
113	-2.4533	-6.2567	0.	137.97
114	-2.3867	-5.8733	0.	147.59
115	-2.6867	-5.6267	0.	104.73
116	-3.0533	-5.7633	0.	87.256
117	-7.	6.5	0.	147.11
118	-6.5	7.	0.	117.66
119	-6.5	6.	0.	114.45
120	-6.	6.5	0.	150.26
121	-5.	6.5	0.	133.29
122	-5.	6.	0.	141.7
123	-5.	5.5	0.	143.82
124	-4.5	7.	0.	117.45
125	-4.	7.	0.	128.59
126	-3.5	7.	0.	122.51
127	-4.5	5.	0.	113.78
128	-4.	5.	0.	118.6
129	-3.5	5.	0.	114.76
130	-3.	6.5	0.	153.68
131	-3.	5.9999	0.	148.92
132	-3.	5.5	0.	141.37
133	6.	0.5	0.	146.74
134	6.	0.	0.	146.3
135	6.	-0.5	0.	142.87
136	6.5	1.	0.	114.75
137	7.	1.	0.	118.44
138	7.5	1.	0.	113.92
139	6.5	-1.	0.	112.98
140	7.	-1.	0.	117.71
141	7.5	-1.	0.	113.92
142	8.	0.5	0.	145.42
143	8.	0.	0.	146.85
144	8.	-0.5	0.	145.64
145	-1.	-2.496	0.	138.47
146	-1.	-1.9953	0.	141.65
147	-0.5	-1.	0.	107.84
148	-0.5	-3.	0.	112.37
149	0.	-1.5	0.	143.62
150	0.	-2.	0.	146.43
151	0.	-2.5	0.	146.71
152	-6.	-5.5	0.	145.21
153	-5.5	-5.	0.	115.96
154	-5.	-5.	0.	119.79
155	-4.5	-5.	0.	114.87
156	-5.5	-6.	0.	119.11
157	-5.	-6.	0.	116.39
158	-4.5	-6.	0.	105.62
159	4.	-6.5	0.	140.81
160	4.	-7.	0.	142.74
161	4.	-7.5	0.	143.17
162	4.5	-6.	0.	111.57
163	5.	-6.	0.	115.77
164	5.5	-6.	0.	111.57
165	4.5	-8.	0.	112.24
166	5.	-8.	0.	116.25
167	5.5	-8.	0.	112.08
168	6.	-6.5	0.	142.31
169	6.	-7.	0.	143.45
170	6.	-7.5	0.	142.36
171	9.5	10.	0.	124.96
172	9.	10.	0.	124.72
173	8.5	10.	0.	124.37
174	8.	10.	0.	124.07
175	7.5	10.	0.	123.93
176	7.	10.	0.	123.98
177	6.5	10.	0.	124.2
178	6.	10.	0.	124.52
179	5.5	10.	0.	124.89
180	5.	10.	0.	125.25
181	4.5	10.	0.	125.56
182	4.	10.	0.	125.83
183	3.5	10.	0.	126.05
184	3.	10.	0.	126.25
185	2.5	10.	0.	126.41
186	2.	10.	0.	126.52
187	1.5	10.	0.	126.58
188	1.	10.	0.	126.53
189	0.5	10.	0.	126.38
190	-5.2042e-015	10.	0.	126.12
191	-0.5	10.	0.	125.81
192	-1.	10.	0.	125.52
193	-1.5	10.	0.	125.31
194	-2.	10.	0.	125.19
195	-2.5	10.	0.	125.09
196	-3.	10.	0.	124.77
197	-3.5	10.	0.	123.6
198	-4.	10.	0.	121.01
199	-4.5	10.	0.	117.8
200	-5.	10.	0.	117.08
201	-5.5	10.	0.	119.33
202	-6.	10.	0.	124.07
203	-6.5	10.	0.	127.38
204	-7.	10.	0.	127.94
205	-7.5	10.	0.	127.37
206	-8.	10.	0.	126.74
207	-8.5	10.	0.	126.11
208	-9.	10.	0.	125.52
209	-9.5	10.	0.	125.1
210	10.	9.5	0.	125.05
211	10.	9.	0.	125.59
212	10.	8.5	0.	126.56
213	10.	8.	0.	127.82
214	10.	7.5	0.	129.18
215	10.	7.	0.	130.09
216	10.	6.5	0.	129.58
217	10.	6.	0.	126.96
218	10.	5.5	0.	123.89
219	10.	5.	0.	123.33
220	10.	4.5	0.	126.36
221	10.	4.	0.	130.68
222	10.	3.5	0.	133.95
223	10.	3.	0.	135.43
224	10.	2.5	0.	135.57
225	10.	2.	0.	134.55
226	10.	1.5	0.	132.26
227	10.	1.	0.	129.12
228	10.	0.5	0.	126.3
229	10.	-5.2042e-015	0.	125.11
230	10.	-0.5	0.	125.92
231	10.	-1.	0.	128.34
232	10.	-1.5	0.	131.06
233	10.	-2.	0.	132.86
234	10.	-2.5	0.	133.39
235	10.	-3.	0.	133.06
236	10.	-3.5	0.	132.33
237	10.	-4.	0.	131.44
238	10.	-4.5	0.	130.48
239	10.	-5.	0.	129.46
240	10.	-5.5	0.	128.48
241	10.	-6.	0.	127.65
242	10.	-6.5	0.	127.14
243	10.	-7.	0.	127.07
244	10.	-7.5	0.	127.47
245	10.	-8.	0.	128.25
246	10.	-8.5	0.	129.21
247	10.	-9.	0.	130.11
248	10.	-9.5	0.	130.73
249	-10.	9.5	0.	124.84
250	-10.	9.	0.	123.99
251	-10.	8.5	0.	122.84
252	-10.	8.	0.	121.74
253	-10.	7.5	0.	120.9
254	-10.	7.	0.	120.59
255	-10.	6.5	0.	121.02
256	-10.	6.	0.	122.2
257	-10.	5.5	0.	123.88
258	-10.	5.	0.	125.65
259	-10.	4.5	0.	127.22
260	-10.	4.	0.	128.46
261	-10.	3.5	0.	129.39
262	-10.	3.	0.	130.05
263	-10.	2.5	0.	130.47
264	-10.	2.	0.	130.65
265	-10.	1.5	0.	130.52
266	-10.	1.	0.	130.03
267	-10.	0.5	0.	129.17
268	-10.	-5.2042e-015	0.	128.07
269	-10.	-0.5	0.	127.07
270	-10.	-1.	0.	126.59
271	-10.	-1.5	0.	126.88
272	-10.	-2.	0.	127.81
273	-10.	-2.5	0.	128.92
274	-10.	-3.	0.	129.75
275	-10.	-3.5	0.	130.03
276	-10.	-4.	0.	129.77
277	-10.	-4.5	0.	129.12
278	-10.	-5.	0.	128.37
279	-10.	-5.5	0.	127.75
280	-10.	-6.	0.	127.46
281	-10.	-6.5	0.	127.56
282	-10.	-7.	0.	128.01
283	-10.	-7.5	0.	128.7
284	-10.	-8.	0.	129.51
285	-10.	-8.5	0.	130.3
286	-10.	-9.	0.	130.95
287	-10.	-9.5	0.	131.38
288	-9.5	-10.	0.	130.67
289	-9.	-10.	0.	130.26
290	-8.5	-10.	0.	130.06
291	-8.	-10.	0.	129.88
292	-7.5	-10.	0.	129.53
293	-7.	-10.	0.	128.78
294	-6.5	-10.	0.	127.31
295	-6.	-10.	0.	124.84
296	-5.5	-10.	0.	121.34
297	-5.	-10.	0.	117.61
298	-4.5	-10.	0.	115.17
299	-4.	-10.	0.	115.87
300	-3.5	-10.	0.	119.09
301	-3.	-10.	0.	123.06
302	-2.5	-10.	0.	126.07
303	-2.	-10.	0.	128.09
304	-1.5	-10.	0.	129.32
305	-1.	-10.	0.	129.88
306	-0.5	-10.	0.	129.72
307	5.2042e-015	-10.	0.	128.88
308	0.5	-10.	0.	127.63
309	1.	-10.	0.	126.52
310	1.5	-10.	0.	126.19
311	2.	-10.	0.	126.83
312	2.5	-10.	0.	127.77
313	3.	-10.	0.	127.76
314	3.5	-10.	0.	125.69
315	4.	-10.	0.	121.74
316	4.5	-10.	0.	117.77
317	5.	-10.	0.	115.97
318	5.5	-10.	0.	117.4
319	6.	-10.	0.	121.28
320	6.5	-10.	0.	125.64
321	7.	-10.	0.	128.75
322	7.5	-10.	0.	130.23
323	8.	-10.	0.	130.58
324	8.5	-10.	0.	130.44
325	9.	-10.	0.	130.23
326	9.5	-10.	0.	130.28
327	-3.12	-6.1467	0.	85.637
328	-2.82	-6.3933	0.	86.859
329	-4.	-5.5	0.	139.17
330	-4.0993	-6.5148	0.	100.96
331	3.0397	4.9054	0.	124.79
332	1.4836	2.9603	0.	129.38
333	2.5174	4.4199	0.	125.82
334	1.9944	3.9295	0.	127.28
335	2.4802	3.4571	0.	127.43
336	1.4816	3.4343	0.	128.78
337	2.0352	5.398	0.	124.56
338	2.5438	5.9074	0.	124.21
339	0.99676	2.9423	0.	129.5
340	3.5444	5.3872	0.	124.25
341	3.5511	4.8909	0.	124.57
342	3.0393	5.9056	0.	124.21
343	4.0304	3.9046	0.	125.72
344	3.518	3.9239	0.	125.82
345	2.0078	4.4146	0.	126.3
346	2.0212	4.9045	0.	125.32
347	-6.1798	2.1556	0.	123.09
348	4.0513	4.3864	0.	124.96
349	4.0254	5.8771	0.	124.31
350	2.9837	3.4545	0.	126.8
351	1.4885	3.9144	0.	128.
352	-4.1205	2.5261	0.	122.73
353	-4.0936	2.08	0.	124.12
354	-6.6523	1.6777	0.	123.33
355	2.0497	5.8997	0.	124.23
356	1.4237	2.0107	0.	130.47
357	-3.2747	1.3022	0.	126.38
358	0.51763	2.8777	0.	129.07
359	-3.7116	1.7266	0.	125.44
360	1.9486	2.4872	0.	129.58
361	2.4623	2.9727	0.	128.1
362	-2.7964	1.8364	0.	123.3
363	0.96612	1.5365	0.	130.16
364	4.0434	5.3685	0.	124.14
365	4.0596	4.8729	0.	124.36
366	4.0235	6.3968	0.	124.68
367	4.4968	6.3991	0.	125.11
368	3.5293	6.4097	0.	124.44
369	3.9985	3.427	0.	126.38
370	3.4907	3.4426	0.	126.41
371	-6.6328	2.1379	0.	124.05
372	1.5105	4.8889	0.	125.71
373	4.5085	3.4192	0.	126.66
374	-3.6468	2.2414	0.	123.77
375	-4.6261	2.5331	0.	122.65
376	-4.6496	2.0598	0.	123.59
377	-6.1996	1.7459	0.	122.09
378	4.4333	-3.5395	0.	121.26
379	0.87886	1.0408	0.	129.85
380	0.19308	2.2878	0.	128.11
381	-0.89372	2.3649	0.	123.75
382	4.5086	5.8728	0.	124.48
383	4.5709	4.3727	0.	124.88
384	2.0564	6.4067	0.	124.33
385	1.5307	5.3843	0.	124.68
386	1.4276	1.5278	0.	130.92
387	0.9808	3.8819	0.	128.8
388	-6.6456	1.2079	0.	122.47
389	-2.8752	1.4113	0.	124.46
390	-3.1838	0.80589	0.	128.12
391	5.5701	3.9404	0.	126.59
392	-6.557	3.0687	0.	125.41
393	5.2473e-002	2.7482	0.	127.89
394	-3.7231	1.2278	0.	127.33
395	1.9351	2.	0.	130.34
396	2.4465	2.4829	0.	128.7
397	2.9629	2.9683	0.	127.26
398	4.9744	6.3994	0.	125.83
399	5.4695	-3.4608	0.	122.61
400	-3.1578	2.281	0.	123.5
401	-2.6197	2.2487	0.	122.64
402	-5.6059	2.5582	0.	123.24
403	-5.1275	2.5324	0.	122.84
404	-5.1821	2.0332	0.	122.84
405	-5.7315	1.9934	0.	122.32
406	3.9409	-3.5485	0.	122.13
407	3.4483	-3.5508	0.	124.12
408	6.5208	-3.5047	0.	123.42
409	6.014	-3.4942	0.	123.13
410	0.55248	1.4337	0.	129.1
411	0.37875	1.8561	0.	128.66
412	4.5375	5.3623	0.	124.03
413	4.5663	4.8655	0.	124.13
414	1.5553	5.8843	0.	124.24
415	1.571	6.3875	0.	124.5
416	1.4662	0.56784	0.	130.82
417	5.5438	6.9119	0.	126.9
418	4.021	6.919	0.	125.03
419	4.5173	6.9145	0.	125.5
420	3.0302	6.9326	0.	124.57
421	3.5257	6.9256	0.	124.72
422	2.0532	6.9176	0.	124.7
423	2.5388	6.9309	0.	124.56
424	1.5778	6.8932	0.	125.04
425	5.5294	3.4594	0.	126.89
426	6.0248	3.4923	0.	126.15
427	3.4678	2.9573	0.	126.7
428	3.9759	2.9448	0.	126.72
429	4.4837	2.9395	0.	127.29
430	2.9582	-3.5479	0.	126.45
431	0.71494	7.3486	0.	126.92
432	-6.5374	3.5491	0.	126.
433	-7.0993	2.1112	0.	125.38
434	-7.0492	3.0617	0.	126.08
435	-7.0314	3.5444	0.	126.38
436	-3.0931	0.26316	0.	129.03
437	-2.6634	0.9676	0.	124.61
438	2.9478	2.476	0.	127.48
439	-3.6649	0.72724	0.	128.89
440	3.8677	-2.5878	0.	118.3
441	-4.0631	3.463	0.	119.65
442	6.9925	2.5031	0.	116.75
443	0.47022	3.8247	0.	129.48
444	1.9259	1.5147	0.	131.13
445	1.1147	6.8642	0.	125.7
446	0.9847	4.3666	0.	127.87
447	0.99802	4.8619	0.	126.37
448	5.0868	4.3859	0.	124.87
449	4.9843	5.8975	0.	124.98
450	-2.4156	1.7463	0.	121.68
451	-0.25467	2.1104	0.	126.41
452	-3.4269	-2.6301	0.	127.22
453	7.0179	-3.5059	0.	123.89
454	2.9794	-4.0339	0.	128.04
455	-6.1702	1.304	0.	120.43
456	-4.6809	1.5832	0.	124.58
457	-4.6003	3.0146	0.	121.63
458	-6.0657	3.0654	0.	124.78
459	-0.41568	2.576	0.	126.01
460	-3.6474	2.817	0.	122.33
461	4.9979	2.9501	0.	127.7
462	6.5016	2.9981	0.	121.5
463	5.5031	2.9697	0.	127.04
464	5.2632	-2.9833	0.	124.69
465	5.6521	-2.9711	0.	125.
466	-3.1145	2.8027	0.	123.08
467	-2.5986	2.7753	0.	123.17
468	-2.1064	2.7461	0.	122.64
469	-1.6141	2.5857	0.	122.15
470	-1.0754	2.8344	0.	123.59
471	-5.5745	3.0481	0.	123.91
472	-5.0865	3.0297	0.	122.72
473	-6.5794	-3.2541	0.	123.76
474	-5.1915	1.534	0.	122.76
475	-5.692	1.4509	0.	120.98
476	3.9686	-4.0332	0.	123.05
477	3.4735	-4.0348	0.	125.94
478	6.5054	-4.0018	0.	124.08
479	2.4799	-4.0394	0.	128.52
480	1.9737	-4.0554	0.	127.88
481	1.9609	-3.053	0.	130.49
482	-2.9084	-2.6065	0.	125.38
483	-2.9673	-3.1096	0.	125.57
484	2.45	-3.0582	0.	128.58
485	2.937	-3.0638	0.	125.56
486	0.15575	1.2309	0.	127.73
487	-5.6398e-002	1.6635	0.	127.16
488	-1.3716	2.1069	0.	121.48
489	-2.0724	2.217	0.	121.45
490	5.7895	6.4843	0.	127.93
491	5.4053	6.4042	0.	126.98
492	5.0696	4.8809	0.	123.92
493	1.0592	5.8658	0.	124.33
494	1.0881	6.3659	0.	124.87
495	-0.44159	-5.0294	0.	128.58
496	1.9483	0.55148	0.	131.85
497	0.47164	4.3216	0.	129.3
498	0.48189	4.8295	0.	127.65
499	-0.62635	-7.167	0.	127.78
500	0.49743	-7.5455	0.	130.35
501	6.5172	3.5078	0.	124.07
502	5.439	5.928	0.	125.99
503	0.39666	0.84512	0.	128.15
504	-7.0536	-3.2685	0.	128.28
505	-3.5932	0.22152	0.	129.45
506	3.962	2.4566	0.	126.51
507	4.4737	2.4524	0.	127.68
508	7.0386	-2.0018	0.	116.64
509	-4.0282	3.9681	0.	117.12
510	-6.673	0.14232	0.	123.69
511	4.9988	-5.0041	0.	114.35
512	1.0383	-5.2011	0.	122.86
513	3.8436	-2.1094	0.	114.86
514	6.5703	4.0228	0.	126.94
515	-7.0192	4.0305	0.	126.36
516	-6.5226	4.0348	0.	126.11
517	7.	-7.0002	0.	129.4
518	7.5215	-3.0044	0.	123.27
519	7.5133	-3.5045	0.	124.84
520	7.5069	-4.0037	0.	126.25
521	7.5034	-4.5026	0.	127.58
522	7.5	-7.0002	0.	127.91
523	1.1161	7.349	0.	126.14
524	1.5551	7.4032	0.	125.51
525	2.0352	7.4313	0.	125.1
526	2.5263	7.4439	0.	124.9
527	3.0227	7.4448	0.	124.87
528	3.5213	7.4402	0.	124.99
529	4.0181	7.4371	0.	125.24
530	4.5181	7.4335	0.	125.6
531	5.0164	7.4388	0.	125.98
532	5.5045	7.4607	0.	126.08
533	5.9769	7.5236	0.	125.57
534	7.5192	7.4803	0.	120.64
535	7.551	6.972	0.	118.14
536	7.5263	-2.503	0.	121.36
537	-7.5895	1.1272	0.	127.77
538	-7.5854	1.6054	0.	127.01
539	-7.5734	2.0835	0.	126.7
540	-7.5347	3.0432	0.	126.82
541	-7.5224	3.5308	0.	127.03
542	-7.5136	4.0214	0.	127.23
543	4.982	2.4597	0.	128.8
544	6.4931	2.4993	0.	119.9
545	4.3314	-2.5783	0.	120.38
546	6.5659	-2.5048	0.	121.43
547	-3.5704	3.3848	0.	121.36
548	-0.52814	3.0607	0.	126.06
549	-4.5591	3.5025	0.	120.26
550	-7.0568	-3.7486	0.	129.19
551	-7.4899	-5.7404	0.	128.08
552	-4.5518	-3.5378	0.	121.77
553	-6.1144	-3.282	0.	119.59
554	4.4884	-4.5149	0.	119.36
555	7.5016	-5.0017	0.	128.63
556	7.5001	-6.5004	0.	127.98
557	5.4941	-4.497	0.	118.76
558	7.003	-4.5027	0.	126.92
559	0.48064	-4.9139	0.	129.19
560	1.4727	-4.5918	0.	123.68
561	2.9982	-4.5213	0.	130.71
562	2.2535	-3.0889e-002	0.	131.07
563	0.92325	-4.6476	0.	126.55
564	1.4709	-2.5407	0.	132.32
565	-2.5061	-3.6553	0.	125.62
566	-0.47795	-4.4998	0.	127.11
567	0.99252	-2.0197	0.	132.99
568	1.4801	-2.0353	0.	131.89
569	3.3965	-2.5866	0.	120.49
570	1.9569	-2.5545	0.	131.69
571	-3.985	-1.7341	0.	125.42
572	-0.68854	1.9119	0.	124.26
573	-2.2375	1.3429	0.	120.07
574	5.6062	4.4302	0.	125.44
575	-2.7058	-4.1331	0.	124.13
576	-7.5303	-4.2713	0.	130.15
577	-7.535	-3.3005	0.	130.81
578	-7.5921	0.65459	0.	129.06
579	-4.1054e-002	3.7304	0.	129.21
580	-4.1261e-002	4.2549	0.	130.39
581	4.461	1.956	0.	127.68
582	3.9535	1.9601	0.	125.26
583	2.4156	1.0098	0.	131.38
584	2.5333	0.47819	0.	132.35
585	-7.1363	0.2388	0.	128.85
586	-7.5869	0.18186	0.	130.48
587	-7.5189	-2.809	0.	131.52
588	-1.2921	-7.4428	0.	129.14
589	-1.9486	-4.1068	0.	128.23
590	-2.3238	-4.1626	0.	125.58
591	-0.89442	-5.5433	0.	125.87
592	-0.91581	-5.0174	0.	128.51
593	-0.17945	7.4377	0.	127.36
594	0.55983	5.8525	0.	124.11
595	0.60816	6.3583	0.	125.78
596	5.4998	5.4327	0.	124.23
597	5.5665	4.9317	0.	123.26
598	7.4898	2.9861	0.	116.49
599	-1.8355	1.7555	0.	119.66
600	-0.25615	1.0074	0.	126.28
601	-3.3932	-2.146	0.	128.27
602	2.9202	-2.5798	0.	125.52
603	1.5042	-1.5269	0.	130.14
604	-2.4061	-2.6629	0.	122.57
605	-2.465	-3.1595	0.	124.76
606	1.4711	-3.5579	0.	130.61
607	1.4711	-3.0471	0.	131.79
608	-6.4787e-003	-4.4914	0.	128.34
609	0.45263	-4.479	0.	129.21
610	0.51271	0.44095	0.	127.76
611	1.5486	-1.0111	0.	127.75
612	1.9898	-4.5528	0.	125.76
613	0.37306	-7.0821	0.	134.48
614	-0.57408	-6.6438	0.	124.62
615	9.032e-002	-5.5052	0.	132.25
616	-0.40001	-5.5834	0.	127.58
617	5.9972	-4.497	0.	122.05
618	7.5007	-5.5011	0.	128.98
619	3.9891	-4.5204	0.	123.69
620	3.4919	-4.5222	0.	128.2
621	-5.6786	0.94761	0.	118.81
622	-4.0614	-0.29856	0.	125.73
623	-4.0967	0.18508	0.	128.35
624	-5.6452	-3.5021	0.	118.52
625	-4.0358	-3.5591	0.	124.51
626	-7.5036	-5.2457	0.	128.22
627	-6.1186	-3.6836	0.	122.06
628	-6.5807	-3.7115	0.	126.16
629	-7.4631	-6.2693	0.	128.52
630	-7.4436	-6.7944	0.	128.72
631	-5.5453	3.5363	0.	124.88
632	-5.053	3.5218	0.	122.69
633	-1.0548	3.3857	0.	123.91
634	-1.5535	3.1664	0.	122.79
635	-3.066	3.3451	0.	123.69
636	-2.558	3.327	0.	124.67
637	-2.0506	3.2781	0.	123.78
638	6.1053	-2.5014	0.	124.86
639	4.7837	-2.5548	0.	124.88
640	5.2239	-2.5189	0.	128.18
641	5.6602	-2.4996	0.	127.91
642	5.49	2.4753	0.	127.92
643	-7.0118	4.5207	0.	125.8
644	7.5242	-2.0012	0.	118.92
645	-1.4237	-5.9749	0.	123.78
646	-2.2995e-002	5.3251	0.	125.7
647	7.1527	6.3951	0.	118.22
648	7.0102	3.4882	0.	118.85
649	-4.0423	-0.78039	0.	122.3
650	-3.999	-1.2599	0.	122.86
651	2.1348	-0.54149	0.	128.04
652	1.0105	-1.5119	0.	130.39
653	0.57025	-5.3714	0.	130.55
654	4.4985	-5.0087	0.	117.22
655	-4.5385	-0.81116	0.	123.33
656	-5.5607	-4.0147	0.	118.62
657	-3.53	3.9261	0.	120.45
658	-6.4676	8.0255	0.	121.87
659	-7.4935	-7.8644	0.	128.85
660	-7.9848	-7.8909	0.	129.09
661	-7.471	-7.3247	0.	128.62
662	-7.9628	-6.8434	0.	128.47
663	-7.9727	-6.3235	0.	128.18
664	-7.9878	-5.813	0.	127.96
665	-8.0007	-5.3119	0.	128.24
666	-8.0137	-4.8177	0.	129.01
667	-8.0205	-4.3244	0.	129.92
668	-8.0233	-3.8302	0.	130.66
669	-8.0193	-3.337	0.	131.28
670	-8.0065	-2.8417	0.	131.92
671	-8.0362	2.542	0.	127.53
672	-8.0243	3.0299	0.	127.51
673	-8.0048	4.5087	0.	128.49
674	-0.60057	7.9714	0.	124.64
675	0.93898	7.8335	0.	126.34
676	2.0061	7.9411	0.	125.39
677	2.5109	7.953	0.	125.19
678	3.0129	7.9544	0.	125.13
679	3.5133	7.9537	0.	125.19
680	7.0005	7.9716	0.	122.77
681	7.506	7.9841	0.	122.17
682	8.0077	7.9957	0.	122.7
683	8.0378	6.9986	0.	120.49
684	7.4941	1.9996	0.	116.48
685	7.9855	2.9747	0.	119.75
686	7.9923	2.4918	0.	120.94
687	1.0317	-8.0113	0.	121.75
688	0.51966	-8.0396	0.	128.65
689	-1.9682	-8.1582	0.	126.75
690	-2.4488	-8.0856	0.	124.12
691	-2.9419	-7.9996	0.	123.74
692	7.	-7.5001	0.	129.28
693	8.0161	-2.5017	0.	124.84
694	8.0134	-3.0025	0.	125.41
695	8.0091	-3.5028	0.	126.26
696	8.0053	-4.0024	0.	127.17
697	8.0028	-4.5019	0.	127.99
698	8.0014	-5.0013	0.	128.51
699	8.0003	-6.0005	0.	128.15
700	8.0001	-6.5003	0.	127.71
701	8.	-7.5001	0.	128.14
702	8.	-8.	0.	129.01
703	7.5	-8.	0.	129.4
704	-2.071	8.0042	0.	125.39
705	-1.6087	7.494	0.	121.15
706	-6.5134	4.5235	0.	125.08
707	-0.55008	3.59	0.	126.75
708	3.0702	0.235	0.	127.7
709	2.9277	1.465	0.	127.98
710	-8.0246	-0.35865	0.	129.51
711	-1.5082	-6.4335	0.	126.19
712	-2.7445	-4.606	0.	119.48
713	-1.1771	6.9761	0.	118.2
714	6.1515	4.5016	0.	126.19
715	-0.49827	-3.9873	0.	122.98
716	0.98356	-2.527	0.	133.34
717	0.96909	-4.0745	0.	129.8
718	1.0903	1.8298e-002	0.	129.38
719	2.5213	-8.1109	0.	131.09
720	-6.1527	0.31542	0.	113.04
721	-6.979	8.012	0.	123.21
722	-7.9923	7.5038	0.	128.05
723	-7.9955	7.0034	0.	127.9
724	-7.9998	6.0027	0.	129.
725	-8.001	5.5036	0.	130.1
726	-7.5041	5.0087	0.	128.92
727	-7.0064	5.0131	0.	124.84
728	5.9871	1.993	0.	125.11
729	4.9667	1.4652	0.	132.31
730	5.6434	-2.0186	0.	132.56
731	-3.0272	3.8927	0.	125.58
732	-5.5251	4.0254	0.	126.9
733	-6.9587	-6.1946	0.	130.28
734	-6.885	-6.7462	0.	129.64
735	-6.0579	-4.0973	0.	123.88
736	-6.5532	-4.1679	0.	129.25
737	-7.024	-4.6994	0.	130.25
738	-7.0054	-5.1827	0.	129.02
739	-3.203	-4.9789	0.	122.65
740	-3.5803	-4.0387	0.	126.29
741	-4.4686	-2.2292	0.	128.41
742	-4.4809	-1.7665	0.	126.05
743	-4.5672	-0.32971	0.	126.51
744	-5.1468	0.56042	0.	124.51
745	-5.652	0.46615	0.	116.1
746	4.002	-5.0114	0.	124.06
747	3.5073	-5.0115	0.	130.97
748	7.0002	-6.0007	0.	129.63
749	6.5002	-5.0004	0.	127.42
750	5.999	-4.9989	0.	122.25
751	0.1835	-6.0271	0.	130.28
752	3.0109	-5.9943	0.	131.84
753	2.5217	-5.013	0.	133.16
754	2.024	-5.0394	0.	123.87
755	1.5344	-8.0746	0.	117.99
756	2.0321	-8.1215	0.	123.05
757	2.5244	-7.672	0.	133.35
758	2.9779	-7.5665	0.	132.25
759	1.0414	-1.0015	0.	128.93
760	1.078	-0.48903	0.	128.84
761	-8.5717e-003	-3.9951	0.	127.08
762	0.47987	-4.0167	0.	130.95
763	0.97879	-3.5476	0.	132.73
764	0.9807	-3.0361	0.	133.65
765	-1.9202	-2.762	0.	122.67
766	-1.969	-3.244	0.	126.01
767	-1.5342	-3.9224	0.	129.11
768	-1.0006	-3.9659	0.	125.15
769	2.0413	-1.0487	0.	129.23
770	2.4392	-2.0786	0.	133.06
771	2.9119	-2.0966	0.	126.49
772	5.1982	-2.0463	0.	134.38
773	-3.568	-0.73625	0.	124.23
774	-3.532	-1.6962	0.	128.96
775	-3.1506	-1.7511	0.	129.79
776	-0.54985	0.40298	0.	123.87
777	-1.545	1.424	0.	118.44
778	-1.8564	1.0125	0.	115.66
779	7.4925	3.4567	0.	114.68
780	7.9567	3.4152	0.	118.04
781	6.0503	5.0151	0.	124.81
782	5.7824e-002	5.8507	0.	125.69
783	0.13318	6.3709	0.	127.73
784	-0.25205	6.9227	0.	130.63
785	-0.71444	6.9545	0.	126.31
786	-1.3845	-5.4999	0.	127.73
787	-1.3889	-5.0033	0.	131.46
788	-2.3161	-4.6036	0.	124.56
789	-2.8522	-7.5231	0.	119.18
790	-2.3649	-7.6296	0.	121.5
791	-1.7612	-7.31	0.	129.67
792	-1.6213	-6.8777	0.	129.48
793	-5.4764	-7.973	0.	124.92
794	-7.4878	-2.3091	0.	133.75
795	-7.0936	-0.18574	0.	130.48
796	-7.5488	-0.29212	0.	132.21
797	-7.9827	-0.8492	0.	126.87
798	-7.9542	-1.3427	0.	127.81
799	2.9115	0.91923	0.	129.72
800	5.0095	0.45652	0.	133.29
801	4.9729	0.95685	0.	133.18
802	3.4322	1.4809	0.	123.72
803	4.4561	1.4474	0.	126.75
804	3.947	1.4598	0.	122.87
805	-0.54876	4.1785	0.	129.19
806	-0.55854	4.7524	0.	131.74
807	-1.5107	3.7564	0.	122.44
808	-6.5074	5.0141	0.	122.06
809	-1.6394	6.9889	0.	115.78
810	-3.0681	8.0163	0.	123.63
811	-6.4689	-7.3953	0.	126.2
812	7.	-8.0001	0.	130.42
813	-3.0077	-8.4879	0.	125.8
814	-2.4953	-8.5525	0.	126.11
815	-1.9956	-8.6006	0.	127.49
816	-1.4984	-8.6169	0.	129.04
817	1.5126	-8.5559	0.	121.91
818	2.0134	-8.5764	0.	124.71
819	2.5134	-8.5707	0.	129.07
820	3.0076	-8.0622	0.	132.98
821	3.0093	-8.547	0.	132.03
822	7.5	-8.5	0.	130.36
823	8.	-8.5	0.	129.86
824	7.9951	1.9974	0.	122.34
825	8.0643	6.508	0.	119.67
826	-2.0867	7.5019	0.	126.38
827	-7.492	8.5066	0.	124.79
828	-6.491	8.5307	0.	126.09
829	-8.4815	-7.9233	0.	129.21
830	-8.4736	-7.4056	0.	128.84
831	-8.4781	-6.3787	0.	128.23
832	-8.4989	-5.3694	0.	128.36
833	-8.5124	-0.40866	0.	128.48
834	-8.5342	8.4334e-002	0.	129.34
835	-8.5438	0.575	0.	129.52
836	-8.5418	1.5493	0.	128.8
837	-8.5338	2.0379	0.	128.43
838	-8.5246	2.5278	0.	128.19
839	-8.5164	3.0195	0.	128.06
840	-8.5097	3.513	0.	128.04
841	-8.5055	4.0085	0.	128.13
842	-8.4983	6.5024	0.	126.02
843	-8.4952	7.5025	0.	125.99
844	-8.4951	8.0023	0.	125.72
845	-4.4597	-8.3998	0.	112.31
846	-5.4823	-8.4547	0.	124.55
847	-6.5126	-8.4235	0.	128.6
848	-7.0073	-8.4069	0.	128.98
849	-8.4892	-8.4415	0.	129.56
850	8.0154	-2.0008	0.	124.79
851	8.5075	8.0022	0.	124.03
852	8.4456	4.5411	0.	130.52
853	8.5734	3.9997	0.	131.84
854	8.4827	3.0057	0.	125.34
855	8.4926	2.5007	0.	126.02
856	8.4962	2.0004	0.	128.51
857	8.509	-2.0002	0.	130.17
858	8.5099	-2.5009	0.	128.31
859	8.5081	-3.0013	0.	127.78
860	8.5058	-3.5015	0.	127.85
861	8.5036	-4.0014	0.	128.17
862	8.502	-4.5011	0.	128.48
863	8.5011	-5.0008	0.	128.61
864	8.5005	-5.5005	0.	128.47
865	8.5002	-6.0003	0.	128.13
866	8.5001	-6.5002	0.	127.85
867	8.5	-7.5	0.	128.2
868	8.5	-8.	0.	128.84
869	8.5	-8.5	0.	129.54
870	-3.507	8.5408	0.	126.56
871	-3.0367	8.5173	0.	123.81
872	-2.5449	8.5094	0.	124.52
873	-2.0484	8.5041	0.	124.45
874	-1.5527	8.4983	0.	123.93
875	-1.0567	8.4902	0.	124.02
876	-0.55962	8.4785	0.	124.79
877	-5.9447e-002	8.4609	0.	125.62
878	0.44753	8.4332	0.	126.05
879	0.96095	8.4089	0.	126.04
880	1.477	8.4278	0.	125.81
881	1.9916	8.4484	0.	125.58
882	2.5001	8.4592	0.	125.42
883	3.0047	8.4618	0.	125.35
884	3.5065	8.4644	0.	125.35
885	4.5044	8.4688	0.	125.45
886	5.0021	8.4748	0.	125.42
887	5.5001	8.4854	0.	125.22
888	5.9997	8.4941	0.	124.78
889	6.5002	8.4837	0.	124.12
890	7.0005	8.4812	0.	123.46
891	7.5017	8.488	0.	123.17
892	8.0029	8.496	0.	123.46
893	8.5033	8.5006	0.	124.23
894	-6.3924	-6.9517	0.	127.81
895	-1.0181	4.4974	0.	127.13
896	-1.4687	4.3469	0.	114.54
897	4.4493	0.92154	0.	128.38
898	3.9288	0.95197	0.	116.17
899	3.4338	1.016	0.	121.97
900	-7.4762	-0.77917	0.	129.52
901	-7.4171	-1.2823	0.	125.69
902	-3.6042	8.0308	0.	117.08
903	-5.9578	-7.4555	0.	126.98
904	9.0029	8.5024	0.	125.19
905	9.0061	8.0043	0.	125.5
906	9.019	7.0117	0.	127.79
907	9.0281	6.5173	0.	130.84
908	9.0353	6.0234	0.	131.6
909	9.0283	5.5279	0.	128.81
910	9.0045	5.0285	0.	126.18
911	8.9879	4.5248	0.	129.77
912	9.0102	4.0163	0.	131.75
913	8.9849	3.5117	0.	130.76
914	8.9862	3.0095	0.	129.6
915	8.9936	2.5048	0.	129.8
916	8.997	2.0026	0.	131.2
917	8.9987	1.5015	0.	132.43
918	8.9995	1.0009	0.	132.22
919	8.9999	0.50056	0.	131.5
920	9.	3.5033e-004	0.	131.89
921	9.0002	-0.49971	0.	131.53
922	9.0024	-1.4997	0.	132.79
923	9.0046	-1.9999	0.	131.76
924	9.0056	-2.5004	0.	130.43
925	9.0047	-3.0007	0.	129.67
926	9.0034	-3.5008	0.	129.34
927	9.0022	-4.0008	0.	129.2
928	9.0013	-4.5006	0.	129.08
929	9.0007	-5.0005	0.	128.88
930	9.0004	-5.5003	0.	128.57
931	9.0002	-6.0002	0.	128.23
932	9.0001	-6.5001	0.	127.99
933	9.	-7.0001	0.	127.99
934	9.	-7.5	0.	128.27
935	9.	-8.	0.	128.77
936	9.	-8.5	0.	129.33
937	9.	-9.	0.	129.82
938	8.5	-9.	0.	130.06
939	8.	-9.	0.	130.38
940	7.5	-9.	0.	130.6
941	7.	-9.	0.	130.38
942	6.5	-9.	0.	128.08
943	6.0001	-9.	0.	121.97
944	5.5002	-9.0001	0.	115.71
945	5.0004	-9.0005	0.	113.44
946	4.5008	-9.0019	0.	116.36
947	4.0019	-9.0064	0.	122.93
948	3.5041	-9.0165	0.	128.77
949	3.0067	-9.0306	0.	130.03
950	2.5073	-9.0426	0.	128.39
951	2.006	-9.0458	0.	125.9
952	1.5054	-9.0377	0.	124.54
953	1.0063	-9.0286	0.	125.28
954	5.6876e-003	-9.0414	0.	129.13
955	-0.49676	-9.0512	0.	130.01
956	-0.99862	-9.0596	0.	129.98
957	-1.5007	-9.0677	0.	129.23
958	-2.0042	-9.0574	0.	127.99
959	-2.509	-9.0288	0.	126.48
960	-3.0153	-8.9907	0.	125.28
961	-3.5161	-8.963	0.	120.55
962	-4.0089	-8.9783	0.	114.18
963	-4.496	-8.9536	0.	111.8
964	-4.9902	-8.9567	0.	118.09
965	-5.4965	-8.9616	0.	122.79
966	-6.0046	-8.9571	0.	126.33
967	-6.5073	-8.9487	0.	128.14
968	-7.0057	-8.9423	0.	129.04
969	-7.5017	-8.9427	0.	129.48
970	-7.9961	-8.9491	0.	129.7
971	-8.4932	-8.9609	0.	129.83
972	-8.9936	-8.9743	0.	129.99
973	-8.9897	-8.464	0.	129.68
974	-8.983	-7.9536	0.	129.31
975	-8.9787	-7.4434	0.	128.92
976	-8.9789	-6.934	0.	128.57
977	-8.984	-6.4264	0.	128.32
978	-8.9911	-5.9212	0.	128.26
979	-8.9974	-5.4184	0.	128.44
980	-9.0016	-4.9174	0.	128.84
981	-9.0068	-4.4168	0.	129.35
982	-9.0074	-3.9186	0.	129.83
983	-9.0015	-3.4204	0.	130.14
984	-8.9948	-2.9227	0.	130.16
985	-8.9877	-2.4257	0.	129.73
986	-8.9827	-1.9297	0.	128.88
987	-8.9836	-1.4351	0.	128.06
988	-8.9927	-0.94084	0.	127.77
989	-9.0065	-0.44577	0.	128.23
990	-9.0203	5.1453e-002	0.	128.85
991	-9.0273	0.54544	0.	129.22
992	-9.0281	1.0374	0.	129.29
993	-9.0262	1.53	0.	129.17
994	-9.0212	2.0231	0.	128.97
995	-9.0155	2.517	0.	128.75
996	-9.0104	3.012	0.	128.52
997	-9.0064	3.5081	0.	128.3
998	-9.0036	4.0053	0.	128.07
999	-9.0019	4.5033	0.	127.8
1000	-9.0009	5.0022	0.	127.36
1001	-9.0003	5.5019	0.	126.6
1002	-8.9996	6.0017	0.	125.62
1003	-8.9988	6.5018	0.	124.8
1004	-8.9972	7.5016	0.	124.55
1005	-8.9972	8.0013	0.	124.62
1006	-8.9978	8.501	0.	124.68
1007	-8.9985	9.0007	0.	124.89
1008	-8.4977	9.0014	0.	125.24
1009	-7.997	9.0027	0.	125.25
1010	-7.4966	9.0056	0.	124.98
1011	-6.9969	9.012	0.	125.44
1012	-6.4986	9.0254	0.	128.31
1013	-4.4526	9.0715	0.	122.07
1014	-3.9866	9.0222	0.	129.32
1015	-3.5063	9.0213	0.	128.
1016	-3.0132	9.0137	0.	125.21
1017	-2.5219	9.0068	0.	124.45
1018	-2.0276	9.0031	0.	124.38
1019	-1.5304	8.9989	0.	124.38
1020	-1.0318	8.9933	0.	124.6
1021	-0.53216	8.9853	0.	125.05
1022	-3.0803e-002	8.9737	0.	125.53
1023	0.47246	8.9588	0.	125.84
1024	0.97705	8.9487	0.	125.92
1025	1.483	8.9519	0.	125.87
1026	1.9902	8.9622	0.	125.76
1027	2.4962	8.9698	0.	125.65
1028	3.	8.9728	0.	125.57
1029	3.5017	8.975	0.	125.51
1030	4.0017	8.9785	0.	125.46
1031	4.501	8.981	0.	125.39
1032	5.4994	8.9902	0.	125.05
1033	5.9998	8.994	0.	124.72
1034	6.5005	8.9903	0.	124.31
1035	7.0004	8.991	0.	123.96
1036	7.5005	8.9922	0.	123.81
1037	8.0008	8.9964	0.	123.97
1038	8.5012	8.9998	0.	124.41
1039	9.0012	9.0011	0.	124.98
1040	-2.2469	-7.1896	0.	125.87
1041	-1.8554	-5.0209	0.	138.93
1042	-0.32843	6.4044	0.	136.57
1043	6.3799	5.6549	0.	135.04
1044	8.0085	3.8011	0.	119.15
1045	-1.188	0.70718	0.	123.47
1046	-3.4611	-1.2043	0.	125.08
1047	5.1692	-1.5697	0.	145.02
1048	2.4554	-1.59	0.	140.54
1049	-1.4873	-3.3819	0.	130.41
1050	0.48681	-3.5209	0.	135.39
1051	0.54959	-0.50376	0.	129.86
1052	2.088	-7.6922	0.	131.23
1053	2.5396	-5.493	0.	143.41
1054	6.5	-8.5	0.	132.06
1055	6.5002	-5.5003	0.	131.48
1056	3.5112	-5.5057	0.	134.17
1057	3.5049	-8.5227	0.	133.38
1058	-3.6055	-4.5151	0.	130.53
1059	-6.5271	-4.6303	0.	133.08
1060	-6.4044	-6.5325	0.	132.38
1061	-5.5121	4.516	0.	130.95
1062	-2.4913	4.41	0.	136.05
1063	-2.0987	6.996	0.	126.38
1064	-2.5635	7.5071	0.	133.39
1065	5.6096	-1.5259	0.	136.42
1066	8.5048	-1.4997	0.	134.25
1067	8.498	1.5005	0.	133.31
1068	5.4799	1.4844	0.	135.29
1069	-7.502	5.5053	0.	132.65
1070	-6.0065	5.0127	0.	125.91
1071	-7.4873	7.5056	0.	131.4
1072	-6.	9.0479	0.	140.89
1073	-5.878	7.5168	0.	133.33
1074	-6.0019	8.571	0.	129.18
1075	-5.9631	8.069	0.	136.21
1076	-5.4864	9.0555	0.	120.22
1077	-3.9791	8.4776	0.	138.03
1078	-4.4924	8.6756	0.	117.66
1079	-4.9412	8.9739	0.	114.54
1080	-6.9768	7.508	0.	125.6
1081	-6.4503	7.5142	0.	118.13
1082	-5.5035	6.9127	0.	134.09
1083	-5.5004	6.475	0.	134.84
1084	-6.0026	5.5055	0.	125.86
1085	-7.0028	5.5064	0.	125.53
1086	-6.503	5.5067	0.	115.58
1087	-7.5003	6.0032	0.	132.36
1088	-7.4952	7.0038	0.	131.34
1089	-7.4987	6.5025	0.	132.23
1090	5.9895	1.4953	0.	127.64
1091	6.4941	1.5002	0.	115.29
1092	6.9958	1.5004	0.	114.36
1093	7.4965	1.5001	0.	114.01
1094	8.4995	1.0005	0.	133.42
1095	8.4999	0.50033	0.	135.7
1096	8.5	2.2563e-004	0.	137.51
1097	8.5013	-0.9997	0.	133.91
1098	8.5003	-0.4998	0.	135.79
1099	8.0089	-1.4999	0.	126.28
1100	7.5148	-1.5	0.	114.8
1101	7.0236	-1.5	0.	114.41
1102	6.0647	-1.5046	0.	125.37
1103	6.5384	-1.5001	0.	114.88
1104	5.5483	-1.011	0.	133.51
1105	5.4905	0.98898	0.	135.23
1106	5.5153	0.50039	0.	137.78
1107	5.1356	-1.8448e-002	0.	134.49
1108	5.4391	-0.45648	0.	135.73
1109	-4.3843	7.3186	0.	117.24
1110	-3.9719	7.4068	0.	124.06
1111	-3.0439	7.5087	0.	128.05
1112	-3.5218	7.4926	0.	122.56
1113	-2.5547	6.4916	0.	151.58
1114	-2.5382	4.9231	0.	136.87
1115	-3.0075	4.4394	0.	129.33
1116	-3.509	4.4628	0.	117.26
1117	-4.0093	4.4825	0.	115.45
1118	-4.5099	4.4973	0.	114.65
1119	-5.9345	-6.4966	0.	128.68
1120	-6.4719	-6.0754	0.	134.07
1121	-6.5065	-5.1071	0.	131.13
1122	-6.494	-5.5886	0.	132.42
1123	-6.0261	-4.5558	0.	127.23
1124	-5.5256	-4.5121	0.	115.93
1125	-4.0584	-4.5043	0.	123.39
1126	-4.5369	-4.5097	0.	115.82
1127	-5.031	-4.5035	0.	116.26
1128	-5.9777	-2.0458	0.	108.55
1129	-6.982	-0.65186	0.	132.67
1130	-6.5379	-0.39903	0.	121.45
1131	-5.61	2.2569e-002	0.	109.26
1132	-6.0839	-0.1649	0.	112.35
1133	-4.9713	-1.7746	0.	126.2
1134	-4.9998	-1.3038	0.	129.99
1135	-5.0372	-0.82553	0.	127.1
1136	-5.0704	-0.3525	0.	129.34
1137	3.5002	-8.0248	0.	133.15
1138	3.4813	-7.5218	0.	134.5
1139	3.4542	-7.0173	0.	134.08
1140	3.5014	-6.0051	0.	130.82
1141	3.4782	-6.5114	0.	132.16
1142	4.0037	-5.5059	0.	125.01
1143	4.5014	-5.5042	0.	113.04
1144	5.0005	-5.5022	0.	112.53
1145	6.0001	-5.4999	0.	123.98
1146	5.5001	-5.5005	0.	112.68
1147	6.5001	-6.0002	0.	130.74
1148	6.5	-6.5002	0.	133.07
1149	6.5	-7.0001	0.	134.6
1150	6.5	-8.	0.	131.41
1151	6.5	-7.5001	0.	133.06
1152	4.5008	-8.5018	0.	113.22
1153	5.0004	-8.5005	0.	112.52
1154	5.5001	-8.5001	0.	112.61
1155	6.0001	-8.5	0.	123.68
1156	-4.0182	-8.5097	0.	106.64
1157	-4.8995	-7.9641	0.	115.32
1158	-5.4609	-7.4991	0.	127.57
1159	-4.9974	-7.5972	0.	113.92
1160	0.66227	-5.8633	0.	139.08
1161	1.1255	-5.7115	0.	117.33
1162	2.0589	-5.5109	0.	123.15
1163	1.5876	-5.5935	0.	108.73
1164	2.5341	-5.9678	0.	130.63
1165	2.4728	-6.4343	0.	135.79
1166	2.361	-7.2778	0.	134.29
1167	2.3765	-6.8664	0.	130.26
1168	1.6093	-7.6143	0.	104.19
1169	0.3723	-6.5648	0.	123.5
1170	0.7743	-6.9474	0.	137.8
1171	1.0706	-7.4231	0.	124.67
1172	0.52535	-1.0024	0.	129.63
1173	0.50776	-1.5047	0.	134.18
1174	0.49775	-2.0089	0.	138.39
1175	0.49044	-3.0179	0.	135.07
1176	0.49292	-2.5134	0.	137.97
1177	-6.5769e-003	-3.5018	0.	128.
1178	-0.99819	-3.467	0.	123.54
1179	-0.5013	-3.4915	0.	114.39
1180	2.5084	-1.103	0.	124.52
1181	2.649	-0.63696	0.	141.82
1182	2.8201	-0.1847	0.	131.53
1183	3.329	0.61052	0.	127.91
1184	4.442	0.35677	0.	127.19
1185	4.7107	-0.15507	0.	130.19
1186	5.1111	-1.0853	0.	128.41
1187	4.9539	-0.61425	0.	144.02
1188	4.7323	-1.6194	0.	133.44
1189	4.2848	-1.633	0.	112.99
1190	2.9143	-1.616	0.	131.06
1191	3.3724	-1.6276	0.	112.92
1192	3.8306	-1.633	0.	114.11
1193	-3.1438	-0.78217	0.	121.38
1194	-2.9319	-0.29457	0.	137.07
1195	-1.6668	0.57815	0.	106.29
1196	-2.0768	0.31586	0.	120.46
1197	7.5322	3.9547	0.	107.6
1198	7.0369	3.9342	0.	121.96
1199	6.5015	5.1245	0.	117.04
1200	6.7175	4.5888	0.	138.79
1201	-5.5044	5.0081	0.	131.28
1202	-5.5013	5.5017	0.	135.72
1203	-5.5002	5.9938	0.	136.39
1204	-4.7384	7.3484	0.	110.73
1205	-4.4215	7.6054	0.	115.52
1206	-4.0411	7.801	0.	131.43
1207	-1.7081	-1.7992	0.	116.09
1208	-2.9845	-1.3769	0.	136.02
1209	-2.5686	-1.5672	0.	123.36
1210	8.1785	4.163	0.	136.05
1211	8.5071	5.0683	0.	133.62
1212	8.5564	5.5557	0.	128.01
1213	6.7969	5.7641	0.	132.89
1214	7.2161	5.8717	0.	115.87
1215	8.095	6.0335	0.	120.95
1216	7.6512	5.966	0.	104.72
1217	-2.1156	6.4889	0.	129.23
1218	-0.78255	6.4493	0.	134.07
1219	-1.2315	6.471	0.	109.6
1220	-1.6753	6.4819	0.	108.19
1221	-2.5373	5.9742	0.	135.16
1222	-2.4416	5.4342	0.	146.42
1223	-2.1176	4.9853	0.	134.38
1224	-0.43072	5.877	0.	119.12
1225	-1.0627	4.9675	0.	124.38
1226	-3.1699	-5.3738	0.	118.53
1227	-2.3194	-5.057	0.	122.62
1228	-2.7917	-5.1198	0.	111.58
1229	-1.8617	-5.4788	0.	129.87
1230	-2.0912	-6.7704	0.	136.03
1231	-1.9833	-6.3461	0.	128.94
1232	-1.9082	-5.9175	0.	131.25
1233	-3.5494	-8.4047	0.	129.39
1234	-3.4337	-7.8838	0.	123.94
1235	-3.346	-7.416	0.	127.96
1236	-3.2628	-7.0052	0.	129.37
1237	-2.7543	-7.0361	0.	108.
1238	-3.3428	-6.4162	0.	132.64
1239	-3.0633	-6.6946	0.	121.73
1240	-1.4565	-2.8916	0.	126.16
1241	-1.412	-2.4007	0.	126.95
1242	-1.3205	-1.9065	0.	122.13
1243	-1.0558	0.30737	0.	128.04
1244	-0.96671	-0.11488	0.	120.71
1245	3.3839e-002	-0.51204	0.	122.64
1246	-0.46102	-0.53172	0.	111.17
1247	-0.91901	-0.55375	0.	122.81
1248	-5.457	-6.4755	0.	124.17
1249	-4.9935	-6.4152	0.	109.4
1250	-3.602	-4.9991	0.	131.05
1251	-3.5801	-5.5071	0.	145.74
1252	9.5008	9.0009	0.	125.51
1253	9.5017	8.5018	0.	126.06
1254	9.5034	8.0031	0.	126.76
1255	9.5061	7.5049	0.	127.62
1256	9.5098	7.007	0.	128.6
1257	9.5138	6.5092	0.	129.19
1258	9.5163	6.0108	0.	128.67
1259	9.5125	5.5116	0.	126.9
1260	9.5032	5.0116	0.	126.85
1261	9.4975	4.511	0.	128.54
1262	9.5004	4.0086	0.	130.59
1263	9.4949	3.5061	0.	131.65
1264	9.4935	3.0047	0.	132.08
1265	9.496	2.5032	0.	132.29
1266	9.4982	2.002	0.	132.31
1267	9.4992	1.5012	0.	131.83
1268	9.4997	1.0007	0.	130.69
1269	9.4999	0.50042	0.	129.66
1270	9.5	2.6089e-004	0.	129.19
1271	9.5001	-0.4998	0.	129.5
1272	9.5005	-0.99978	0.	130.39
1273	9.5011	-1.4998	0.	131.4
1274	9.5021	-1.9999	0.	131.77
1275	9.5025	-2.5001	0.	131.6
1276	9.5022	-3.0003	0.	131.2
1277	9.5016	-3.5004	0.	130.75
1278	9.5011	-4.0004	0.	130.26
1279	9.5007	-4.5003	0.	129.74
1280	9.5004	-5.0002	0.	129.19
1281	9.5002	-5.5002	0.	128.64
1282	9.5001	-6.0001	0.	128.17
1283	9.5	-6.5001	0.	127.88
1284	9.5	-7.	0.	127.86
1285	9.5	-7.5	0.	128.13
1286	9.5	-8.	0.	128.63
1287	9.5	-8.5	0.	129.22
1288	9.5	-9.	0.	129.76
1289	9.5	-9.5	0.	130.14
1290	9.	-9.5	0.	130.13
1291	8.5	-9.5	0.	130.35
1292	8.	-9.5	0.	130.55
1293	7.5	-9.5	0.	130.37
1294	7.	-9.5	0.	129.18
1295	6.5001	-9.5	0.	126.16
1296	6.0001	-9.5	0.	121.45
1297	5.5002	-9.5001	0.	116.99
1298	5.0004	-9.5004	0.	115.33
1299	4.5008	-9.5013	0.	117.43
1300	4.0016	-9.5039	0.	122.05
1301	3.5032	-9.509	0.	126.35
1302	3.0042	-9.5154	0.	128.33
1303	2.5037	-9.5202	0.	127.94
1304	2.0028	-9.5212	0.	126.62
1305	1.502	-9.5188	0.	125.8
1306	1.0024	-9.5157	0.	126.22
1307	0.50302	-9.5165	0.	127.53
1308	3.1568e-003	-9.5208	0.	128.92
1309	-0.99923	-9.5297	0.	129.9
1310	-1.5014	-9.5311	0.	129.3
1311	-2.0044	-9.5259	0.	128.08
1312	-2.5074	-9.5127	0.	126.26
1313	-3.0089	-9.4965	0.	123.45
1314	-3.5073	-9.4859	0.	119.42
1315	-4.005	-9.486	0.	115.2
1316	-4.5014	-9.4796	0.	114.73
1317	-4.9989	-9.4784	0.	117.46
1318	-5.5	-9.479	0.	121.77
1319	-6.0024	-9.4774	0.	125.23
1320	-6.5035	-9.4745	0.	127.55
1321	-7.0028	-9.4724	0.	128.87
1322	-7.5008	-9.4727	0.	129.53
1323	-7.9979	-9.4748	0.	129.84
1324	-8.4966	-9.4806	0.	130.
1325	-8.9964	-9.487	0.	130.19
1326	-9.4979	-9.4936	0.	130.57
1327	-9.4958	-8.9878	0.	130.29
1328	-9.4934	-8.4827	0.	129.88
1329	-9.4904	-7.978	0.	129.39
1330	-9.4885	-7.4736	0.	128.9
1331	-9.4889	-6.9694	0.	128.47
1332	-9.4915	-6.4658	0.	128.2
1333	-9.495	-5.9631	0.	128.14
1334	-9.4981	-5.4613	0.	128.32
1335	-9.5004	-4.9604	0.	128.7
1336	-9.5035	-4.4594	0.	129.16
1337	-9.5041	-3.9593	0.	129.54
1338	-9.5003	-3.4607	0.	129.72
1339	-9.497	-2.962	0.	129.57
1340	-9.4939	-2.4638	0.	129.11
1341	-9.492	-1.9663	0.	128.46
1342	-9.4928	-1.4694	0.	127.88
1343	-9.4968	-0.97246	0.	127.69
1344	-9.5031	-0.47499	0.	127.96
1345	-9.51	2.4583e-002	0.	128.51
1346	-9.5131	0.52118	0.	129.06
1347	-9.5138	1.0178	0.	129.44
1348	-9.5128	1.5144	0.	129.62
1349	-9.5105	2.0112	0.	129.6
1350	-9.5078	2.5084	0.	129.42
1351	-9.5053	3.006	0.	129.1
1352	-9.5033	3.5041	0.	128.65
1353	-9.5019	4.0027	0.	128.05
1354	-9.501	4.5018	0.	127.3
1355	-9.5005	5.0012	0.	126.36
1356	-9.5001	5.501	0.	125.28
1357	-9.4998	6.0009	0.	124.21
1358	-9.4994	6.5009	0.	123.4
1359	-9.499	7.0009	0.	123.03
1360	-9.4987	7.5007	0.	123.07
1361	-9.4987	8.0006	0.	123.38
1362	-9.499	8.5004	0.	123.83
1363	-9.4993	9.0003	0.	124.35
1364	-9.4996	9.5001	0.	124.87
1365	-8.4991	9.5007	0.	125.59
1366	-7.999	9.5016	0.	125.79
1367	-7.4991	9.5033	0.	125.93
1368	-6.9996	9.5069	0.	126.23
1369	-6.4997	9.5135	0.	128.01
1370	-5.9969	9.521	0.	127.93
1371	-5.4884	9.5178	0.	122.18
1372	-4.9838	9.5032	0.	117.13
1373	-4.4869	9.5232	0.	121.24
1374	-3.9927	9.5164	0.	124.39
1375	-3.5004	9.511	0.	125.03
1376	-3.0053	9.5074	0.	124.74
1377	-2.5087	9.504	0.	124.62
1378	-2.0118	9.5018	0.	124.71
1379	-1.5134	9.4994	0.	124.88
1380	-1.0139	9.4965	0.	125.12
1381	-0.51375	9.4924	0.	125.42
1382	-1.2981e-002	9.4868	0.	125.71
1383	0.48816	9.4803	0.	125.94
1384	0.98955	9.4762	0.	126.06
1385	1.4914	9.4755	0.	126.08
1386	1.9941	9.4796	0.	126.04
1387	2.4969	9.484	0.	125.96
1388	2.9989	9.4858	0.	125.85
1389	4.0004	9.4885	0.	125.58
1390	4.5	9.4908	0.	125.41
1391	4.9998	9.4924	0.	125.2
1392	5.4996	9.4948	0.	124.95
1393	5.9999	9.4964	0.	124.67
1394	6.5001	9.496	0.	124.39
1395	7.0002	9.4952	0.	124.19
1396	7.5001	9.4956	0.	124.12
1397	8.0001	9.4977	0.	124.22
1398	8.5003	9.4996	0.	124.47
1399	9.0004	9.5004	0.	124.78
1400	9.5003	9.5004	0.	125.09
1401	-3.6957	-5.964	0.	124.36
1402	-4.5433	-6.3704	0.	105.49
1403	-7.9919	8.0038	0.	126.81
1404	6.5622	-2.0019	0.	119.18
1405	-4.5287	3.9967	0.	118.34
1406	1.0145	-8.5316	0.	123.89
1407	2.5279	4.9094	0.	125.03
1408	2.5006	3.937	0.	126.65
1409	2.9369	1.9764	0.	127.53
1410	2.5369	5.4053	0.	124.46
1411	3.4541	2.4666	0.	126.47
1412	1.9812	3.4492	0.	128.14
1413	-7.0372	-2.7944	0.	128.68
1414	-2.8338	-2.0689	0.	126.45
1415	-3.0289	-3.5956	0.	125.54
1416	-7.5084	4.5147	0.	127.59
1417	-3.9459	-2.2011	0.	127.75
1418	-3.4781	-3.103	0.	126.47
1419	2.5447	6.4154	0.	124.28
1420	7.0124	7.453	0.	121.87
1421	-8.473	-1.3927	0.	127.64
1422	4.9339	-3.5153	0.	121.6
1423	8.0189	7.4957	0.	121.7
1424	3.022	-5.4997	0.	135.79
1425	-5.4875	-2.1794	0.	114.77
1426	-0.36374	-6.148	0.	123.84
1427	-0.47828	1.4614	0.	125.34
1428	-1.1293	1.6842	0.	121.51
1429	6.4671	7.3975	0.	124.3
1430	0.28687	7.4024	0.	127.67
1431	-5.1008	9.9293e-002	0.	133.08
1432	3.5001	9.4872	0.	125.73
1433	-6.0245	4.0324	0.	126.96
1434	-6.1621	0.81206	0.	117.83
1435	-7.1184	0.68916	0.	126.63
1436	-8.4997	6.0026	0.	126.96
1437	4.9745	-4.0071	0.	119.8
1438	-7.9982	6.5031	0.	127.11
1439	8.5	-7.0001	0.	127.84
1440	6.9932	2.0013	0.	114.93
1441	-0.71232	0.84067	0.	125.2
1442	3.3803	-2.1063	0.	118.12
1443	5.0007	8.9835	0.	125.27
1444	-2.5545	7.0006	0.	136.88
1445	6.0968	-2.005	0.	125.35
1446	9.0011	-0.99966	0.	132.36
1447	6.4957	7.9608	0.	123.96
1448	-7.5535	2.5628	0.	126.68
1449	2.432	1.4922	0.	130.36
1450	-3.5181	-0.2687	0.	125.99
1451	3.0256	4.4177	0.	125.43
1452	1.987	-1.5541	0.	131.73
1453	-2.6648	0.44172	0.	125.92
1454	1.0218	5.3623	0.	124.8
1455	5.4803	1.9796	0.	130.5
1456	7.0417	-2.5044	0.	119.95
1457	-0.65487	7.4626	0.	124.94
1458	1.5259	-5.0996	0.	116.25
1459	4.5111	7.9525	0.	125.54
1460	-7.0008	-2.3062	0.	129.74
1461	-1.4304	-4.4846	0.	130.67
1462	1.6756	8.6696e-002	0.	130.25
1463	7.5003	-6.0007	0.	128.48
1464	-5.082	-3.5381	0.	119.09
1465	-6.9398	-1.7897	0.	134.14
1466	-6.042	3.5466	0.	125.81
1467	1.97	2.968	0.	128.87
1468	5.9511	5.5302	0.	125.02
1469	-6.9898	8.5139	0.	123.75
1470	-7.9613	-1.8411	0.	130.12
1471	0.9949	0.51452	0.	129.77
1472	2.8735	-7.0414	0.	130.9
1473	-1.9329	4.4513	0.	129.03
1474	3.0367	6.4161	0.	124.32
1475	-3.1685	-4.5406	0.	123.79
1476	-6.6432	0.70709	0.	121.82
1477	7.	-8.5	0.	131.16
1478	2.5381e-002	-1.2479e-002	0.	122.92
1479	-8.0672	1.0956	0.	128.87
1480	6.0042	2.9895	0.	124.92
1481	-0.13147	-6.6374	0.	125.44
1482	2.4394	1.9856	0.	129.38
1483	0.48291	3.3398	0.	129.23
1484	-2.3021	0.68954	0.	121.77
1485	-5.9032	-6.9753	0.	121.1
1486	-6.9631	-7.3103	0.	128.13
1487	5.4845	-3.9873	0.	120.65
1488	-8.0029	5.006	0.	129.51
1489	-8.5102	-3.3786	0.	130.82
1490	-8.9993	9.5003	0.	125.27
1491	7.5	-7.5001	0.	128.44
1492	-1.1318	7.4811	0.	121.24
1493	4.7527	-2.082	0.	127.54
1494	-6.5244	-2.354	0.	121.04
1495	-8.0542	2.0621	0.	127.73
1496	-8.4967	7.0026	0.	125.78
1497	8.2387e-003	-8.5614	0.	129.68
1498	5.0065	7.9606	0.	125.66
1499	-1.8422	-2.283	0.	118.6
1500	7.0769	6.9244	0.	120.35
1501	-8.0546	0.12773	0.	130.18
1502	0.50748	-9.0302	0.	127.35
1503	-1.0015	-8.5861	0.	130.04
1504	-3.5306	-3.5711	0.	125.93
1505	3.0136	-5.0102	0.	134.83
1506	-8.5088	-4.8706	0.	128.91
1507	7.0005	-5.501	0.	129.99
1508	-8.5018	5.0038	0.	128.47
1509	-0.1088	7.9478	0.	126.14
1510	1.9347	1.0254	0.	131.71
1511	4.4684	-4.0246	0.	120.65
1512	3.5344	5.8958	0.	124.24
1513	8.5159	7.5049	0.	124.1
1514	0.60556	2.4388	0.	129.18
1515	-5.0114	4.5073	0.	124.74
1516	0.65858	6.86	0.	126.88
1517	-4.1263	2.9917	0.	121.38
1518	-8.4727	-6.8902	0.	128.51
1519	-6.0024	-8.445	0.	127.46
1520	-6.105	2.5927	0.	123.88
1521	-7.5395	-3.7904	0.	130.47
1522	-6.5932	2.5997	0.	124.73
1523	3.9019	-3.0673	0.	120.7
1524	-4.9803	-2.2169	0.	136.98
1525	2.4967	-4.5297	0.	129.72
1526	-4.1558	0.67349	0.	128.63
1527	1.4909	7.9089	0.	125.76
1528	8.5455	6.5206	0.	128.69
1529	-2.4709	2.248e-002	0.	121.67
1530	4.0126	7.9518	0.	125.34
1531	-7.4869	8.0065	0.	126.45
1532	-8.4984	-2.8812	0.	131.04
1533	2.4631	-3.55	0.	128.24
1534	-7.4465	-1.7979	0.	134.57
1535	8.5626	6.0365	0.	139.98
1536	5.0557	3.9097	0.	126.05
1537	-8.5138	-4.3727	0.	129.63
1538	-7.5185	-4.7586	0.	129.3
1539	6.4914	1.9991	0.	118.37
1540	1.4735	2.4838	0.	129.92
1541	-0.60671	5.3146	0.	137.82
1542	5.4984	-4.9999	0.	116.55
1543	-2.5633	8.0094	0.	126.56
1544	4.9738	1.9626	0.	130.5
1545	-7.9933	-8.4212	0.	129.44
1546	-7.117	1.1637	0.	125.52
1547	-7.1151	1.6386	0.	125.26
1548	7.0078	-4.004	0.	125.32
1549	-1.589e-002	3.2256	0.	128.21
1550	5.4995	7.9755	0.	125.55
1551	6.5502	-3.0054	0.	122.72
1552	4.0027	-8.5071	0.	125.18
1553	-6.9876	-5.6818	0.	128.32
1554	6.6153	6.8507	0.	124.64
1555	7.6007	6.4644	0.	112.74
1556	3.008	3.9344	0.	126.15
1557	-4.1924	1.1605	0.	127.22
1558	-8.016	3.5213	0.	127.64
1559	-8.4887	-5.8723	0.	128.14
1560	1.4682	-4.0745	0.	128.01
1561	7.9973	1.4994	0.	124.91
1562	-1.1423	-6.9988	0.	127.66
1563	2.5142e-002	-4.9909	0.	129.74
1564	4.377	-3.0576	0.	121.22
1565	5.022	5.3887	0.	123.94
1566	-1.0299	3.9501	0.	123.29
1567	-1.8898	-7.7294	0.	127.41
1568	-4.6811	1.1031	0.	125.98
1569	-0.95837	-4.4884	0.	127.97
1570	-4.6001	0.14556	0.	129.14
1571	-8.0097	4.0148	0.	127.92
1572	-8.5142	-3.8752	0.	130.3
1573	5.9927	2.4897	0.	124.47
1574	8.529	7.0104	0.	125.11
1575	6.08	-2.9987	0.	123.97
1576	-1.0699e-002	0.52497	0.	125.72
1577	-7.9942	8.5035	0.	125.49
1578	1.4975	4.398	0.	126.96
1579	6.0809	3.997	0.	127.88
1580	-4.0607	-4.025	0.	123.41
1581	7.0001	-6.5004	0.	128.88
1582	-4.5037	-1.2871	0.	122.4
1583	-6.0137	4.5216	0.	127.27
1584	-6.4552	-1.8956	0.	115.69
1585	-6.5538	-2.8146	0.	121.66
1586	-7.9856	-2.3424	0.	132.06
1587	-3.1198	-4.0703	0.	125.19
1588	7.0012	-5.0016	0.	128.81
1589	-8.4893	-0.89959	0.	127.58
1590	-8.0675	0.6148	0.	129.68
1591	-1.5802	7.9965	0.	123.17
1592	6.9964	2.9952	0.	117.96
1593	2.4402	-2.5682	0.	129.85
1594	5.9963	7.9906	0.	125.01
1595	0.50588	5.3413	0.	125.4
1596	-1.8789	-4.5536	0.	130.62
1597	5.0284	3.4381	0.	126.9
1598	-0.49778	-9.5256	0.	129.79
1599	-2.0019	3.8686	0.	125.07
1600	-8.9979	7.0017	0.	124.51
1601	3.4196	-3.0684	0.	122.4
1602	8.441	3.5327	0.	127.63
1603	5.0145	6.919	0.	126.17
1604	5.9969	-3.9936	0.	122.36
1605	-2.5163	3.8779	0.	128.61
1606	1.6103	-0.48076	0.	128.34
1607	-8.4855	-2.3837	0.	130.67
1608	0.8834	2.0352	0.	129.83
1609	-4.6392	0.62053	0.	128.44
1610	1.9632	-2.0555	0.	133.24
1611	-4.1711	1.6409	0.	125.52
1612	7.0332	-3.0057	0.	122.27
1613	4.0064	8.4653	0.	125.4
1614	-2.0078	-3.6898	0.	127.68
1615	1.4261	1.0394	0.	131.12
1616	-8.5479	1.0662	0.	129.22
1617	-5.0282	4.0137	0.	123.01
1618	8.0001	-7.0002	0.	127.67
1619	2.9656	-6.5006	0.	127.5
1620	0.39552	7.9109	0.	126.65
1621	-0.4785	-5.8524e-002	0.	119.21
1622	-7.4994	-8.4073	0.	129.26
1623	-8.5035	4.5061	0.	128.34
1624	9.0117	7.5071	0.	126.22
1625	4.3015	-2.1022	0.	118.42
1626	-3.9775e-002	4.7914	0.	130.58
1627	-0.49851	-8.5771	0.	130.35
1628	-7.0439	-4.2295	0.	130.38
1629	0.98409	3.4036	0.	129.24
1630	-8.4961	8.5019	0.	125.31
1631	-9.8557e-002	-7.1205	0.	128.29
1632	1.9658	-3.5555	0.	129.36
1633	-4.9527	-8.4428	0.	117.9
1634	3.0407	5.4016	0.	124.36
1635	6.5008	-4.5005	0.	125.18
1636	3.5339	4.4059	0.	125.14
1637	0.54535	-1.4039e-002	0.	127.91
1638	0.20242	6.886	0.	129.19
1639	-5.1777	1.0394	0.	122.95
1640	3.4438	1.9714	0.	125.58
1641	4.9902	-4.5053	0.	117.48
1642	-7.0767	2.5879	0.	125.7
1643	-8.5007	5.503	0.	128.08
1644	4.5421	3.8995	0.	125.82
1645	-1.0285	-6.529	0.	124.82
1646	0.51376	-8.5373	0.	127.35
1647	-8.4742	-1.8868	0.	129.41
1648	7.4919	2.4912	0.	117.04
1649	-8.0625	1.578	0.	128.18
1650	4.841	-3.0342	0.	123.07
1651	-1.0914	7.9857	0.	123.12
1652	8.0007	-5.5009	0.	128.54
1653	1.031	2.4947	0.	129.77
1654	-5.0588	-4.0098	0.	116.97
1655	-4.5546	-4.0174	0.	118.93
1656	-1.5055	-8.2048	0.	128.86
1657	-1.4456	-7.8272	0.	128.98
1658	-1.0289	-8.0781	0.	129.93
1659	-0.89298	-7.5924	0.	129.38
1660	-0.49928	-8.1038	0.	130.52
1661	-0.47777	-7.6419	0.	129.92
1662	8.1539e-003	-8.079	0.	130.54
1663	-1.6827e-002	-7.5932	0.	131.15
1664	6.2052	6.6953	0.	127.37
1665	6.0307	7.0936	0.	126.36
1666	-3.2412	1.7917	0.	124.67
1667	-0.92156	-6.0444	0.	123.95
1668	-5.9922	-7.9445	0.	128.6
1669	-6.498	-7.9053	0.	128.16
1670	-6.9945	-7.8684	0.	128.46
1671	-7.9725	-7.3649	0.	128.74
1672	-2.1423	-1.6841	0.	115.15
1673	6.7148	6.2999	0.	126.48
1674	6.2937	6.1718	0.	130.53
1675	5.8735	6.0254	0.	128.99
1676	-1.3421	1.0848	0.	117.48
1677	-0.90981	1.2677	0.	123.3
1678	-2.3127	-2.1739	0.	119.15
1679	5.5553	2.8117e-002	0.	139.91
1680	7.1807	4.3178	0.	121.13
1681	-6.0638	-2.893	0.	115.94
1682	-6.0276	-2.4697	0.	110.08
1683	-5.5691	-3.0186	0.	117.22
1684	-5.5247	-2.5812	0.	116.29
1685	-5.0496	-3.0786	0.	121.82
1686	-5.0077	-2.6409	0.	126.62
1687	-4.52	-3.1035	0.	124.9
1688	-4.4844	-2.6623	0.	128.38
1689	-3.9963	-3.1076	0.	126.24
1690	-3.9578	-2.6528	0.	127.57
1691	-5.18	7.125	0.	131.41
1692	-5.1708	7.3957	0.	114.66
1693	-5.39	7.4867	0.	150.14
1694	-5.619	7.3834	0.	138.88
1695	-5.4318	7.0813	0.	139.56
1696	-4.4172	7.9759	0.	119.96
1697	-4.4483	8.2117	0.	125.11
1698	-4.1045	8.2988	0.	152.63
1699	-4.1356	7.9605	0.	149.27
1700	-5.51	8.4333	0.	152.37
1701	-5.3217	8.5783	0.	130.66
1702	-5.771	8.6205	0.	142.36
1703	-5.5132	8.8627	0.	138.92
1704	7.905	5.5383	0.	133.41
1705	8.0617	5.39	0.	150.15
1706	8.3332	5.5779	0.	143.72
1707	8.1025	5.8167	0.	141.26
1708	7.085	5.2917	0.	131.03
1709	7.0366	5.0817	0.	127.42
1710	6.6908	5.1773	0.	148.03
1711	6.8385	5.4971	0.	155.59
1712	7.8683	4.55	0.	122.86
1713	7.6633	4.4883	0.	99.016
1714	7.6761	4.1473	0.	113.4
1715	7.9992	4.2515	0.	128.44
1716	-1.4117	5.06	0.	102.91
1717	-1.6233	5.0633	0.	104.78
1718	-1.4944	4.6135	0.	113.06
1719	-1.2913	4.9238	0.	117.89
1720	-1.7265	4.6657	0.	120.6
1721	-0.97833	5.78	0.	141.82
1722	-1.0817	5.9633	0.	138.44
1723	-0.82628	6.2046	0.	155.74
1724	-0.65036	5.9185	0.	148.04
1725	-2.0367	5.7967	0.	148.69
1726	-1.9283	5.9767	0.	144.22
1727	-2.1278	6.2344	0.	155.31
1728	-2.3386	5.9771	0.	157.81
1729	-1.7038	9.75e-002	0.	105.21
1730	-1.495	3.9884e-002	0.	122.81
1731	-1.6084	0.41407	0.	112.94
1732	-1.3029	0.27868	0.	123.94
1733	-2.6263	-0.81757	0.	132.74
1734	-2.5714	-1.0275	0.	130.84
1735	-2.9619	-0.87609	0.	145.71
1736	-2.8823	-1.1735	0.	152.87
1737	-1.055	-1.4635	0.	173.9
1738	-1.165	-1.2201	0.	154.1
1739	-1.3188	-1.3725	0.	148.97
1740	-1.2152	-1.6682	0.	152.51
1741	3.7412	0.2337	0.	107.83
1742	3.97	0.22875	0.	109.77
1743	3.8944	0.69099	0.	113.58
1744	3.5945	0.52026	0.	119.47
1745	4.151	0.39339	0.	119.07
1746	3.0287	-0.94378	0.	143.12
1747	3.1388	-1.145	0.	139.24
1748	2.7092	-1.1215	0.	147.29
1749	2.9121	-1.378	0.	150.71
1750	4.63	-0.97875	0.	144.77
1751	4.5113	-1.175	0.	141.23
1752	4.9256	-1.1327	0.	150.1
1753	4.7361	-1.3997	0.	152.72
1754	-5.4633	-1.595	0.	143.98
1755	-5.6717	-1.7433	0.	124.31
1756	-5.2056	-1.8123	0.	136.6
1757	-5.4638	-2.0147	0.	132.04
1758	-5.5567	-0.575	0.	136.47
1759	-5.7883	-0.46833	0.	111.51
1760	-5.595	-0.14872	0.	122.38
1761	-5.3252	-0.33625	0.	131.51
1762	-6.5983	-1.3167	0.	120.26
1763	-6.6217	-1.0617	0.	116.98
1764	-7.1235	-1.2461	0.	141.
1765	-6.906	-0.93093	0.	144.22
1766	-6.8849	-1.4998	0.	144.77
1767	-3.7175	-6.5813	0.	164.31
1768	-3.8897	-6.4374	0.	139.45
1769	-3.5114	-6.3881	0.	155.
1770	-3.6879	-6.162	0.	149.52
1771	-5.1493	-6.9023	0.	117.04
1772	-5.1876	-7.1236	0.	116.3
1773	-5.4105	-7.2395	0.	135.85
1774	-5.4085	-6.7278	0.	133.91
1775	-5.6316	-6.9776	0.	132.8
1776	-3.9425	-7.9088	0.	126.5
1777	-4.1548	-7.9843	0.	110.14
1778	-3.9991	-8.3198	0.	115.4
1779	-3.7647	-8.2673	0.	126.92
1780	1.8717	-6.0067	0.	134.64
1781	2.0383	-6.1633	0.	150.7
1782	2.0744	-5.7254	0.	143.03
1783	2.312	-5.9539	0.	145.78
1784	0.99833	-6.2733	0.	130.15
1785	0.94668	-6.4967	0.	124.66
1786	0.72113	-6.1017	0.	156.74
1787	0.57615	-6.4524	0.	149.36
1788	1.8317	-7.0567	0.	129.45
1789	1.6133	-7.1233	0.	104.58
1790	2.0705	-7.2789	0.	129.77
1791	1.6946	-7.4472	0.	114.82
1792	-2.4867	-6.4483	0.	132.23
1793	-2.67	-6.5167	0.	106.61
1794	-2.3056	-6.7052	0.	131.89
1795	-2.6372	-6.838	0.	117.48
1796	-2.3533	-5.6817	0.	151.73
1797	-2.5033	-5.5583	0.	132.1
1798	-2.3197	-5.2735	0.	141.
1799	-2.0909	-5.4844	0.	143.59
1800	-3.2367	-5.8317	0.	132.24
1801	-3.27	-6.0233	0.	131.34
1802	-3.3814	-6.1581	0.	155.31
1803	-3.5	-5.7036	0.	161.75
1804	-3.5579	-5.932	0.	151.47
1805	-7.	6.75	0.	142.24
1806	-6.75	7.	0.	127.45
1807	-6.9884	7.254	0.	131.82
1808	-7.2476	7.0019	0.	134.31
1809	-7.	6.25	0.	141.44
1810	-6.75	6.	0.	125.07
1811	-7.0014	5.7532	0.	130.83
1812	-7.2501	6.0016	0.	133.89
1813	-6.25	7.	0.	134.83
1814	-6.	6.75	0.	151.28
1815	-5.939	7.2584	0.	142.72
1816	-5.7518	6.9563	0.	143.34
1817	-6.25	6.	0.	125.64
1818	-6.	6.25	0.	143.55
1819	-6.0013	5.7528	0.	131.62
1820	-5.7501	5.9969	0.	136.51
1821	-5.	6.75	0.	126.42
1822	-4.75	7.	0.	118.27
1823	-5.2518	6.9563	0.	125.71
1824	-4.8692	7.1742	0.	115.45
1825	-5.	5.25	0.	138.95
1826	-4.75	5.	0.	123.65
1827	-5.2522	5.0041	0.	132.39
1828	-5.0057	4.7536	0.	129.52
1829	-3.25	7.	0.	133.1
1830	-3.	6.75	0.	149.05
1831	-3.0219	7.2544	0.	136.42
1832	-2.7772	7.0003	0.	140.19
1833	-3.25	5.	0.	126.88
1834	-3.	5.25	0.	140.45
1835	-2.7691	4.9615	0.	137.96
1836	-3.0037	4.7197	0.	134.6
1837	6.	0.75	0.	142.05
1838	6.25	1.	0.	125.82
1839	5.9948	1.2477	0.	132.65
1840	5.7452	0.99449	0.	136.06
1841	6.	-0.75	0.	138.39
1842	6.25	-1.	0.	123.24
1843	6.0324	-1.2523	0.	130.03
1844	5.7742	-1.0055	0.	133.78
1845	7.75	1.	0.	124.22
1846	8.	0.75	0.	140.21
1847	8.2497	1.0003	0.	134.
1848	7.9987	1.2497	0.	130.13
1849	7.75	-1.	0.	124.46
1850	8.	-0.75	0.	140.59
1851	8.2506	-0.99985	0.	134.53
1852	8.0045	-1.25	0.	131.06
1853	-1.	-1.2485	0.	158.03
1854	-1.11	-1.0051	0.	138.61
1855	-0.75	-1.	0.	129.39
1856	-0.95951	-0.77687	0.	137.12
1857	-1.	-2.748	0.	134.53
1858	-0.75	-3.	0.	121.36
1859	-0.99909	-3.2335	0.	127.33
1860	-1.2283	-2.9458	0.	128.44
1861	-0.25	-1.	0.	119.57
1862	0.	-1.25	0.	137.66
1863	0.26267	-1.0012	0.	130.48
1864	1.692e-002	-0.75602	0.	127.34
1865	-0.25	-3.	0.	125.06
1866	0.	-2.75	0.	142.44
1867	0.24522	-3.009	0.	136.54
1868	-3.2885e-003	-3.2509	0.	133.39
1869	-6.	-5.25	0.	140.74
1870	-5.75	-5.	0.	125.97
1871	-6.2533	-5.0535	0.	133.52
1872	-6.013	-4.7779	0.	131.94
1873	-6.	-5.75	0.	141.67
1874	-5.75	-6.	0.	128.25
1875	-5.9673	-6.2483	0.	133.6
1876	-6.2359	-6.0377	0.	136.06
1877	-4.25	-5.	0.	125.09
1878	-4.	-5.25	0.	137.59
1879	-4.0292	-4.7521	0.	129.75
1880	-3.801	-4.9996	0.	133.16
1881	-4.25	-6.	0.	110.02
1882	-4.	-5.75	0.	126.63
1883	-4.0497	-6.2574	0.	107.68
1884	-3.8479	-5.982	0.	118.22
1885	4.	-6.25	0.	136.84
1886	4.25	-6.	0.	121.98
1887	3.7507	-6.0026	0.	131.8
1888	4.0019	-5.753	0.	129.2
1889	4.	-7.75	0.	139.01
1890	4.25	-8.	0.	123.29
1891	3.7501	-8.0124	0.	133.81
1892	4.0014	-8.2536	0.	130.2
1893	5.75	-6.	0.	122.16
1894	6.	-6.25	0.	137.79
1895	6.	-5.7499	0.	128.83
1896	6.2501	-6.0001	0.	131.85
1897	5.75	-8.	0.	122.17
1898	6.	-7.75	0.	137.56
1899	6.25	-8.	0.	131.91
1900	6.	-8.25	0.	128.39
1901	9.75	10.	0.	124.97
1902	10.	9.75	0.	125.02
1903	-9.75	10.	0.	125.07
1904	-10.	9.75	0.	124.93
1905	10.	-9.75	0.	130.84
1906	9.75	-10.	0.	130.61
1907	-10.	-9.75	0.	131.45
1908	-9.75	-10.	0.	131.09
1909	-1.	-1.7461	0.	153.32
1910	-1.2749	-0.80023	0.	133.64
1911	-4.793	7.6866	0.	79.901
1912	-4.5129	7.7186	0.	93.291
1913	-4.86	7.4449	0.	98.452
1914	-5.45	7.96	0.	152.53
1915	-5.649	7.6201	0.	144.39
1916	-5.7216	8.1328	0.	142.66
1917	-4.885	8.395	0.	93.636
1918	-4.5795	8.4895	0.	99.171
1919	-5.0223	8.7303	0.	108.09
1920	7.495	5.415	0.	95.772
1921	7.6756	5.7213	0.	104.3
1922	7.2531	5.6125	0.	98.941
1923	7.965	4.97	0.	135.34
1924	8.2602	5.1242	0.	137.34
1925	8.1811	4.6505	0.	128.06
1926	7.3499	4.785	0.	78.808
1927	6.9554	4.7611	0.	107.61
1928	7.3437	4.4773	0.	99.72
1929	-1.195	5.42	0.	107.29
1930	-1.183	5.1038	0.	111.31
1931	-0.84669	5.4573	0.	122.82
1932	-1.83	5.43	0.	113.09
1933	-1.9221	5.116	0.	117.01
1934	-2.1875	5.5238	0.	131.89
1935	-1.505	5.97	0.	104.93
1936	-1.2624	6.2189	0.	104.32
1937	-1.696	6.2276	0.	107.72
1938	-2.0113	-0.20755	0.	100.1
1939	-1.9672	0.13043	0.	105.93
1940	-2.3189	-0.51262	0.	102.15
1941	-2.318	-0.16881	0.	114.56
1942	-2.7023	-0.47985	0.	116.42
1943	-1.3849	-0.38023	0.	132.71
1944	-1.2033	-0.14255	0.	123.31
1945	-1.1245	-0.57199	0.	130.57
1946	-2.154	-1.1424	0.	103.66
1947	-2.4657	-1.3261	0.	106.97
1948	-1.7364	-1.2574	0.	114.84
1949	-2.0438	-1.442	0.	114.75
1950	-1.6179	-1.5571	0.	115.18
1951	3.5037	-0.15885	0.	114.13
1952	3.3463	0.1362	0.	116.78
1953	3.2662	-0.55133	0.	120.27
1954	3.1025	-0.2699	0.	125.89
1955	2.8982	-0.69226	0.	129.51
1956	4.19	-0.17375	0.	117.11
1957	4.261	0.19214	0.	118.48
1958	4.41	-0.57625	0.	121.79
1959	4.5054	-0.26503	0.	126.4
1960	4.7369	-0.69588	0.	131.41
1961	3.5963	-1.155	0.	114.71
1962	3.37	-1.3888	0.	110.47
1963	4.0538	-1.165	0.	115.69
1964	3.8278	-1.3965	0.	117.21
1965	4.2837	-1.4015	0.	111.61
1966	-5.51	-1.085	0.	139.93
1967	-5.2432	-1.3219	0.	135.39
1968	-5.2853	-0.82776	0.	132.88
1969	-6.135	-1.53	0.	92.563
1970	-5.9405	-1.8412	0.	103.09
1971	-6.4109	-1.6595	0.	99.509
1972	-6.205	-0.765	0.	83.26
1973	-6.0403	-0.39079	0.	99.404
1974	-6.4756	-0.65618	0.	99.039
1975	-4.7287	-6.747	0.	98.158
1976	-4.9661	-6.6199	0.	99.125
1977	-4.309	-6.5921	0.	103.63
1978	-4.531	-6.5199	0.	105.86
1979	-3.7925	-7.0237	0.	146.06
1980	-3.5089	-6.9039	0.	140.32
1981	-3.5489	-6.6093	0.	142.11
1982	-3.8675	-7.4662	0.	135.03
1983	-3.588	-7.3305	0.	133.89
1984	-3.6693	-7.7857	0.	126.62
1985	-4.8432	-7.4106	0.	93.171
1986	-5.0063	-7.4322	0.	100.7
1987	-4.5004	-7.6963	0.	97.133
1988	-4.8343	-7.5756	0.	105.83
1989	-4.3946	-8.1193	0.	103.97
1990	-4.6145	-7.9014	0.	105.61
1991	1.435	-6.14	0.	96.999
1992	1.6205	-5.8334	0.	106.86
1993	1.1711	-5.9591	0.	100.57
1994	1.935	-6.61	0.	138.65
1995	2.2297	-6.4105	0.	138.44
1996	2.1299	-6.8499	0.	131.8
1997	1.28	-6.81	0.	80.466
1998	0.94383	-6.8004	0.	106.23
1999	1.2586	-7.1949	0.	104.31
2000	-2.42	-6.065	0.	142.68
2001	-2.2183	-6.3014	0.	132.83
2002	-2.1474	-5.8954	0.	138.99
2003	-2.87	-5.695	0.	95.717
2004	-2.7392	-5.3732	0.	107.43
2005	-3.1116	-5.5686	0.	100.7
2006	-7.2494	6.5012	0.	139.64
2007	-6.4751	7.2571	0.	117.61
2008	-6.5015	5.7534	0.	114.84
2009	-5.7502	6.4875	0.	142.52
2010	-5.	6.25	0.	137.48
2011	-5.2502	6.4875	0.	134.
2012	-5.	5.75	0.	142.76
2013	-5.2501	5.9969	0.	139.01
2014	-5.2507	5.5008	0.	139.77
2015	-4.25	7.	0.	123.02
2016	-4.4421	7.1593	0.	117.13
2017	-3.75	7.	0.	125.54
2018	-3.986	7.2034	0.	126.22
2019	-3.5109	7.2463	0.	122.23
2020	-4.25	5.	0.	116.18
2021	-4.5049	4.7486	0.	114.09
2022	-3.75	5.	0.	116.68
2023	-4.0046	4.7413	0.	116.99
2024	-3.5045	4.7314	0.	115.87
2025	-3.	6.25	0.	151.28
2026	-2.7774	6.4958	0.	152.62
2027	-3.	5.75	0.	145.01
2028	-2.7686	5.9871	0.	141.91
2029	-2.7208	5.4671	0.	143.88
2030	6.	0.25	0.	146.51
2031	5.7577	0.5002	0.	142.25
2032	6.	-0.25	0.	144.57
2033	5.7776	1.4059e-002	0.	143.11
2034	5.7196	-0.47824	0.	139.28
2035	6.75	1.	0.	116.59
2036	6.497	1.2501	0.	114.89
2037	7.25	1.	0.	116.17
2038	6.9979	1.2502	0.	116.36
2039	7.4983	1.25	0.	113.82
2040	6.75	-1.	0.	115.34
2041	6.5192	-1.25	0.	113.75
2042	7.25	-1.	0.	115.81
2043	7.0118	-1.25	0.	116.01
2044	7.5074	-1.25	0.	114.23
2045	8.	0.25	0.	146.13
2046	8.2499	0.50017	0.	140.55
2047	8.	-0.25	0.	146.24
2048	8.25	1.1282e-004	0.	142.18
2049	8.2501	-0.4999	0.	140.71
2050	-1.	-2.2456	0.	140.03
2051	-1.206	-2.4483	0.	132.7
2052	-1.1602	-1.9509	0.	131.8
2053	-0.48051	-0.76586	0.	109.35
2054	-0.50065	-3.2457	0.	113.14
2055	0.	-1.75	0.	145.
2056	0.25388	-1.5023	0.	138.89
2057	0.	-2.25	0.	146.55
2058	0.24887	-2.0044	0.	142.4
2059	0.24646	-2.5067	0.	142.33
2060	-6.247	-5.5443	0.	138.8
2061	-5.25	-5.	0.	117.86
2062	-5.5128	-4.7561	0.	115.8
2063	-4.75	-5.	0.	117.32
2064	-5.0155	-4.7518	0.	118.
2065	-4.5184	-4.7548	0.	115.25
2066	-5.25	-6.	0.	117.73
2067	-5.4785	-6.2378	0.	121.58
2068	-4.75	-6.	0.	110.87
2069	-4.9968	-6.2076	0.	112.82
2070	-4.5216	-6.1852	0.	105.47
2071	4.	-6.75	0.	141.76
2072	3.7391	-6.5057	0.	136.47
2073	4.	-7.25	0.	142.95
2074	3.7271	-7.0087	0.	138.4
2075	3.7406	-7.5109	0.	138.83
2076	4.75	-6.	0.	113.66
2077	4.5007	-5.7521	0.	112.15
2078	5.25	-6.	0.	113.66
2079	5.0002	-5.7511	0.	114.11
2080	5.5001	-5.7503	0.	111.97
2081	4.75	-8.	0.	114.24
2082	4.5004	-8.2509	0.	112.59
2083	5.25	-8.	0.	114.16
2084	5.0002	-8.2503	0.	114.34
2085	5.5001	-8.2501	0.	112.21
2086	6.	-6.75	0.	142.88
2087	6.25	-6.5001	0.	137.68
2088	6.	-7.25	0.	142.9
2089	6.25	-7.0001	0.	139.02
2090	6.25	-7.5	0.	137.7
2091	9.25	10.	0.	124.84
2092	9.5001	9.7502	0.	125.02
2093	8.75	10.	0.	124.54
2094	9.0002	9.7502	0.	124.75
2095	8.25	10.	0.	124.22
2096	8.5001	9.7498	0.	124.42
2097	7.75	10.	0.	124.
2098	8.	9.7488	0.	124.15
2099	7.25	10.	0.	123.96
2100	7.5001	9.7478	0.	124.03
2101	6.75	10.	0.	124.09
2102	7.0001	9.7476	0.	124.08
2103	6.25	10.	0.	124.36
2104	6.5001	9.748	0.	124.29
2105	5.75	10.	0.	124.71
2106	5.9999	9.7482	0.	124.59
2107	5.25	10.	0.	125.07
2108	5.4998	9.7474	0.	124.92
2109	4.75	10.	0.	125.41
2110	4.9999	9.7462	0.	125.22
2111	4.25	10.	0.	125.7
2112	4.5	9.7454	0.	125.49
2113	3.75	10.	0.	125.94
2114	4.0002	9.7443	0.	125.71
2115	3.25	10.	0.	126.15
2116	3.5	9.7436	0.	125.89
2117	2.75	10.	0.	126.33
2118	2.9995	9.7429	0.	126.05
2119	2.25	10.	0.	126.47
2120	2.4984	9.742	0.	126.18
2121	1.75	10.	0.	126.55
2122	1.997	9.7398	0.	126.28
2123	1.25	10.	0.	126.55
2124	1.4957	9.7377	0.	126.33
2125	0.75	10.	0.	126.46
2126	0.99477	9.7381	0.	126.29
2127	0.25	10.	0.	126.25
2128	0.49408	9.7402	0.	126.16
2129	-0.25	10.	0.	125.97
2130	-6.4906e-003	9.7434	0.	125.92
2131	-0.75	10.	0.	125.67
2132	-0.50687	9.7462	0.	125.61
2133	-1.25	10.	0.	125.42
2134	-1.007	9.7483	0.	125.32
2135	-1.75	10.	0.	125.25
2136	-1.5067	9.7497	0.	125.1
2137	-2.25	10.	0.	125.14
2138	-2.0059	9.7509	0.	124.95
2139	-2.75	10.	0.	124.93
2140	-2.5043	9.752	0.	124.85
2141	-3.25	10.	0.	124.18
2142	-3.0026	9.7537	0.	124.76
2143	-3.75	10.	0.	122.28
2144	-3.5002	9.7555	0.	124.3
2145	-4.25	10.	0.	119.35
2146	-3.9964	9.7582	0.	122.62
2147	-4.75	10.	0.	117.43
2148	-4.4935	9.7616	0.	119.37
2149	-5.25	10.	0.	118.17
2150	-4.9919	9.7516	0.	116.99
2151	-5.75	10.	0.	121.58
2152	-5.4942	9.7589	0.	120.51
2153	-6.25	10.	0.	125.7
2154	-5.9984	9.7605	0.	125.88
2155	-6.75	10.	0.	127.66
2156	-6.4998	9.7568	0.	127.68
2157	-7.25	10.	0.	127.66
2158	-6.9998	9.7535	0.	127.07
2159	-7.75	10.	0.	127.05
2160	-7.4996	9.7516	0.	126.65
2161	-8.25	10.	0.	126.42
2162	-7.9995	9.7508	0.	126.26
2163	-8.75	10.	0.	125.81
2164	-8.4995	9.7504	0.	125.85
2165	-9.25	10.	0.	125.31
2166	-8.9997	9.7502	0.	125.39
2167	-9.4998	9.7501	0.	124.99
2168	10.	9.25	0.	125.32
2169	9.7501	9.5002	0.	125.07
2170	10.	8.75	0.	126.07
2171	9.7504	9.0005	0.	125.55
2172	10.	8.25	0.	127.19
2173	9.7509	8.5009	0.	126.3
2174	10.	7.75	0.	128.5
2175	9.7517	8.0016	0.	127.29
2176	10.	7.25	0.	129.64
2177	9.7531	7.5024	0.	128.4
2178	10.	6.75	0.	129.83
2179	9.7549	7.0035	0.	129.34
2180	10.	6.25	0.	128.27
2181	9.7569	6.5046	0.	129.38
2182	10.	5.75	0.	125.42
2183	9.7582	6.0054	0.	127.8
2184	10.	5.25	0.	123.61
2185	9.7563	5.5058	0.	125.39
2186	10.	4.75	0.	124.84
2187	9.7516	5.0058	0.	125.09
2188	10.	4.25	0.	128.52
2189	9.7487	4.5055	0.	127.42
2190	10.	3.75	0.	132.32
2191	9.7502	4.0043	0.	130.62
2192	10.	3.25	0.	134.69
2193	9.7475	3.503	0.	132.79
2194	10.	2.75	0.	135.5
2195	9.7467	3.0024	0.	133.75
2196	10.	2.25	0.	135.06
2197	9.748	2.5016	0.	133.93
2198	10.	1.75	0.	133.4
2199	9.7491	2.001	0.	133.43
2200	10.	1.25	0.	130.69
2201	9.7496	1.5006	0.	132.03
2202	10.	0.75	0.	127.71
2203	9.7498	1.0004	0.	129.89
2204	10.	0.25	0.	125.71
2205	9.7499	0.50021	0.	127.98
2206	10.	-0.25	0.	125.52
2207	9.75	1.3044e-004	0.	127.15
2208	10.	-0.75	0.	127.13
2209	9.7501	-0.4999	0.	127.71
2210	10.	-1.25	0.	129.7
2211	9.7502	-0.99989	0.	129.36
2212	10.	-1.75	0.	131.96
2213	9.7506	-1.4999	0.	131.22
2214	10.	-2.25	0.	133.13
2215	9.751	-1.9999	0.	132.31
2216	10.	-2.75	0.	133.23
2217	9.7513	-2.5001	0.	132.49
2218	10.	-3.25	0.	132.7
2219	9.7511	-3.0001	0.	132.13
2220	10.	-3.75	0.	131.89
2221	9.7508	-3.5002	0.	131.54
2222	10.	-4.25	0.	130.96
2223	9.7505	-4.0002	0.	130.85
2224	10.	-4.75	0.	129.97
2225	9.7503	-4.5002	0.	130.11
2226	10.	-5.25	0.	128.97
2227	9.7502	-5.0001	0.	129.33
2228	10.	-5.75	0.	128.06
2229	9.7501	-5.5001	0.	128.56
2230	10.	-6.25	0.	127.39
2231	9.75	-6.0001	0.	127.91
2232	10.	-6.75	0.	127.1
2233	9.75	-6.5	0.	127.51
2234	10.	-7.25	0.	127.27
2235	9.75	-7.	0.	127.47
2236	10.	-7.75	0.	127.86
2237	9.75	-7.5	0.	127.8
2238	10.	-8.25	0.	128.73
2239	9.75	-8.	0.	128.44
2240	10.	-8.75	0.	129.66
2241	9.75	-8.5	0.	129.21
2242	10.	-9.25	0.	130.42
2243	9.75	-9.	0.	129.94
2244	9.75	-9.5	0.	130.44
2245	-10.	9.25	0.	124.41
2246	-9.7498	9.5001	0.	124.85
2247	-10.	8.75	0.	123.42
2248	-9.7497	9.0001	0.	124.17
2249	-10.	8.25	0.	122.29
2250	-9.7495	8.5002	0.	123.33
2251	-10.	7.75	0.	121.32
2252	-9.7494	8.0003	0.	122.55
2253	-10.	7.25	0.	120.75
2254	-9.7494	7.5004	0.	121.99
2255	-10.	6.75	0.	120.81
2256	-9.7495	7.0004	0.	121.81
2257	-10.	6.25	0.	121.61
2258	-9.7497	6.5004	0.	122.21
2259	-10.	5.75	0.	123.04
2260	-9.7499	6.0005	0.	123.2
2261	-10.	5.25	0.	124.76
2262	-9.7501	5.5005	0.	124.57
2263	-10.	4.75	0.	126.43
2264	-9.7502	5.0006	0.	126.
2265	-10.	4.25	0.	127.84
2266	-9.7505	4.5009	0.	127.25
2267	-10.	3.75	0.	128.93
2268	-9.751	4.0014	0.	128.26
2269	-10.	3.25	0.	129.72
2270	-9.7517	3.502	0.	129.02
2271	-10.	2.75	0.	130.26
2272	-9.7526	3.003	0.	129.58
2273	-10.	2.25	0.	130.56
2274	-9.7539	2.5042	0.	129.95
2275	-10.	1.75	0.	130.58
2276	-9.7552	2.0056	0.	130.12
2277	-10.	1.25	0.	130.27
2278	-9.7564	1.5072	0.	130.07
2279	-10.	0.75	0.	129.6
2280	-9.7569	1.0089	0.	129.73
2281	-10.	0.25	0.	128.62
2282	-9.7565	0.51059	0.	129.11
2283	-10.	-0.25	0.	127.57
2284	-9.755	1.2292e-002	0.	128.29
2285	-10.	-0.75	0.	126.83
2286	-9.7515	-0.4875	0.	127.52
2287	-10.	-1.25	0.	126.74
2288	-9.7484	-0.98623	0.	127.14
2289	-10.	-1.75	0.	127.34
2290	-9.7464	-1.4847	0.	127.38
2291	-10.	-2.25	0.	128.36
2292	-9.746	-1.9832	0.	128.13
2293	-10.	-2.75	0.	129.33
2294	-9.7469	-2.4819	0.	129.01
2295	-10.	-3.25	0.	129.89
2296	-9.7485	-2.981	0.	129.66
2297	-10.	-3.75	0.	129.9
2298	-9.7501	-3.4803	0.	129.87
2299	-10.	-4.25	0.	129.44
2300	-9.752	-3.9796	0.	129.66
2301	-10.	-4.75	0.	128.74
2302	-9.7517	-4.4797	0.	129.14
2303	-10.	-5.25	0.	128.06
2304	-9.7502	-4.9802	0.	128.53
2305	-10.	-5.75	0.	127.61
2306	-9.7491	-5.4806	0.	128.04
2307	-10.	-6.25	0.	127.51
2308	-9.7475	-5.9815	0.	127.8
2309	-10.	-6.75	0.	127.79
2310	-9.7457	-6.4829	0.	127.88
2311	-10.	-7.25	0.	128.35
2312	-9.7444	-6.9847	0.	128.24
2313	-10.	-7.75	0.	129.1
2314	-9.7442	-7.4868	0.	128.8
2315	-10.	-8.25	0.	129.9
2316	-9.7452	-7.989	0.	129.45
2317	-10.	-8.75	0.	130.62
2318	-9.7467	-8.4914	0.	130.09
2319	-10.	-9.25	0.	131.16
2320	-9.7479	-8.9939	0.	130.62
2321	-9.7489	-9.4968	0.	130.97
2322	-9.25	-10.	0.	130.46
2323	-9.4989	-9.7468	0.	130.62
2324	-8.75	-10.	0.	130.16
2325	-8.9982	-9.7435	0.	130.22
2326	-8.25	-10.	0.	129.97
2327	-8.4983	-9.7403	0.	130.03
2328	-7.75	-10.	0.	129.71
2329	-7.999	-9.7374	0.	129.86
2330	-7.25	-10.	0.	129.15
2331	-7.5004	-9.7364	0.	129.53
2332	-6.75	-10.	0.	128.04
2333	-7.0014	-9.7362	0.	128.82
2334	-6.25	-10.	0.	126.08
2335	-6.5018	-9.7372	0.	127.43
2336	-5.75	-10.	0.	123.09
2337	-6.0012	-9.7387	0.	125.04
2338	-5.25	-10.	0.	119.47
2339	-5.5	-9.7395	0.	121.55
2340	-4.75	-10.	0.	116.39
2341	-4.9995	-9.7392	0.	117.53
2342	-4.25	-10.	0.	115.52
2343	-4.5007	-9.7398	0.	114.95
2344	-3.75	-10.	0.	117.48
2345	-4.0025	-9.743	0.	115.53
2346	-3.25	-10.	0.	121.08
2347	-3.5037	-9.7429	0.	119.25
2348	-2.75	-10.	0.	124.57
2349	-3.0045	-9.7483	0.	123.25
2350	-2.25	-10.	0.	127.08
2351	-2.5037	-9.7564	0.	126.16
2352	-1.75	-10.	0.	128.7
2353	-2.0022	-9.7629	0.	128.08
2354	-1.25	-10.	0.	129.6
2355	-1.5007	-9.7655	0.	129.31
2356	-0.75	-10.	0.	129.8
2357	-0.99961	-9.7648	0.	129.89
2358	-0.25	-10.	0.	129.3
2359	-0.49889	-9.7628	0.	129.75
2360	0.25	-10.	0.	128.25
2361	1.5784e-003	-9.7604	0.	128.9
2362	0.75	-10.	0.	127.07
2363	0.50151	-9.7582	0.	127.58
2364	1.25	-10.	0.	126.36
2365	1.0012	-9.7579	0.	126.37
2366	1.75	-10.	0.	126.51
2367	1.501	-9.7594	0.	126.
2368	2.25	-10.	0.	127.3
2369	2.0014	-9.7606	0.	126.72
2370	2.75	-10.	0.	127.76
2371	2.5018	-9.7601	0.	127.85
2372	3.25	-10.	0.	126.72
2373	3.0021	-9.7577	0.	128.04
2374	3.75	-10.	0.	123.72
2375	3.5016	-9.7545	0.	126.02
2376	4.25	-10.	0.	119.75
2377	4.0008	-9.7519	0.	121.89
2378	4.75	-10.	0.	116.87
2379	4.5004	-9.7507	0.	117.59
2380	5.25	-10.	0.	116.68
2381	5.0002	-9.7502	0.	115.65
2382	5.75	-10.	0.	119.34
2383	5.5001	-9.7501	0.	117.19
2384	6.25	-10.	0.	123.46
2385	6.0001	-9.75	0.	121.36
2386	6.75	-10.	0.	127.19
2387	6.5	-9.75	0.	125.9
2388	7.25	-10.	0.	129.49
2389	7.	-9.75	0.	128.97
2390	7.75	-10.	0.	130.4
2391	7.5	-9.75	0.	130.3
2392	8.25	-10.	0.	130.51
2393	8.	-9.75	0.	130.57
2394	8.75	-10.	0.	130.34
2395	8.5	-9.75	0.	130.4
2396	9.25	-10.	0.	130.25
2397	9.	-9.75	0.	130.18
2398	9.5	-9.75	0.	130.21
2399	-2.97	-6.27	0.	86.019
2400	-3.2314	-6.2814	0.	108.67
2401	-2.9416	-6.544	0.	103.04
2402	-3.79	-5.5036	0.	142.35
2403	-4.3213	-6.4426	0.	103.15
2404	3.2954	4.8982	0.	124.68
2405	2.7838	4.9074	0.	124.91
2406	3.0327	4.6616	0.	125.11
2407	3.0402	5.1535	0.	124.57
2408	1.4826	3.1973	0.	129.08
2409	1.2402	2.9513	0.	129.44
2410	1.7268	2.9641	0.	129.12
2411	1.4786	2.722	0.	129.65
2412	2.2626	4.4172	0.	126.06
2413	2.5227	4.6647	0.	125.42
2414	2.509	4.1784	0.	126.23
2415	2.7715	4.4188	0.	125.62
2416	2.0011	4.172	0.	126.79
2417	1.7414	3.9219	0.	127.64
2418	2.2475	3.9332	0.	126.97
2419	1.9878	3.6893	0.	127.71
2420	2.732	3.4558	0.	127.12
2421	2.4712	3.2149	0.	127.77
2422	2.4904	3.697	0.	127.04
2423	2.2307	3.4531	0.	127.78
2424	1.485	3.6743	0.	128.39
2425	1.7314	3.4417	0.	128.46
2426	1.2328	3.419	0.	129.01
2427	2.0282	5.1513	0.	124.94
2428	2.0424	5.6489	0.	124.39
2429	1.7829	5.3912	0.	124.62
2430	2.286	5.4017	0.	124.51
2431	2.7916	5.9065	0.	124.21
2432	2.2967	5.9035	0.	124.22
2433	2.5403	5.6564	0.	124.33
2434	2.5442	6.1614	0.	124.24
2435	0.7572	2.91	0.	129.28
2436	0.99043	3.173	0.	129.37
2437	1.0139	2.7185	0.	129.64
2438	3.5478	5.139	0.	124.41
2439	3.7939	5.3778	0.	124.2
2440	3.5394	5.6415	0.	124.25
2441	3.2926	5.3944	0.	124.31
2442	3.8053	4.8819	0.	124.47
2443	3.5425	4.6484	0.	124.86
2444	3.038	6.1609	0.	124.26
2445	3.2869	5.9007	0.	124.22
2446	3.04	5.6536	0.	124.28
2447	3.7742	3.9142	0.	125.77
2448	4.0409	4.1455	0.	125.34
2449	4.0144	3.6658	0.	126.05
2450	4.2862	3.9021	0.	125.77
2451	3.5043	3.6833	0.	126.11
2452	3.263	3.9291	0.	125.98
2453	3.5259	4.1649	0.	125.48
2454	2.0145	4.6595	0.	125.81
2455	1.7526	4.4063	0.	126.63
2456	1.7659	4.8967	0.	125.52
2457	2.2746	4.907	0.	125.18
2458	-6.4063	2.1468	0.	123.57
2459	-6.1897	1.9508	0.	122.59
2460	-5.9557	2.0745	0.	122.7
2461	-6.1424	2.3742	0.	123.49
2462	4.0555	4.6296	0.	124.66
2463	4.3111	4.3795	0.	124.92
2464	3.7926	4.3961	0.	125.05
2465	4.0344	5.6228	0.	124.23
2466	4.0245	6.137	0.	124.5
2467	4.267	5.875	0.	124.4
2468	3.7799	5.8864	0.	124.27
2469	3.2372	3.4485	0.	126.6
2470	2.9733	3.2114	0.	127.03
2471	2.9959	3.6944	0.	126.47
2472	1.2346	3.8981	0.	128.4
2473	1.493	4.1562	0.	127.48
2474	-4.1071	2.303	0.	123.43
2475	-4.3733	2.5296	0.	122.69
2476	-3.884	2.6715	0.	122.52
2477	-4.1234	2.7589	0.	122.05
2478	-3.8702	2.1607	0.	123.94
2479	-4.3716	2.0699	0.	123.85
2480	-4.1324	1.8605	0.	124.82
2481	-6.6426	1.9078	0.	123.69
2482	-6.4259	1.7118	0.	122.7
2483	-6.649	1.4428	0.	122.9
2484	-6.8837	1.6582	0.	124.29
2485	2.053	6.1532	0.	124.28
2486	1.8025	5.892	0.	124.23
2487	1.4257	1.7692	0.	130.69
2488	1.6794	2.0053	0.	130.4
2489	1.4486	2.2472	0.	130.2
2490	1.1536	2.0229	0.	130.15
2491	-3.075	1.3568	0.	125.42
2492	-3.2293	1.0541	0.	127.25
2493	-3.4989	1.265	0.	126.85
2494	-3.2579	1.5469	0.	125.53
2495	0.28505	2.813	0.	128.48
2496	0.50027	3.1087	0.	129.15
2497	0.5616	2.6582	0.	129.12
2498	-3.6792	1.984	0.	124.61
2499	-3.7174	1.4772	0.	126.39
2500	-3.9413	1.6838	0.	125.47
2501	-3.4764	1.7591	0.	125.05
2502	1.9418	2.2436	0.	129.96
2503	2.1976	2.4851	0.	129.14
2504	1.9593	2.7276	0.	129.23
2505	1.7111	2.4855	0.	129.75
2506	2.4544	2.7278	0.	128.4
2507	2.7126	2.9705	0.	127.68
2508	2.2161	2.9703	0.	128.49
2509	-2.8358	1.6238	0.	123.88
2510	-2.7081	2.0425	0.	122.97
2511	-2.606	1.7913	0.	122.49
2512	-3.0188	1.814	0.	123.98
2513	0.92249	1.2886	0.	130.
2514	1.1968	1.5321	0.	130.54
2515	0.7593	1.4851	0.	129.63
2516	0.92476	1.7858	0.	130.
2517	4.0515	5.1207	0.	124.25
2518	4.2905	5.3654	0.	124.09
2519	4.313	4.8692	0.	124.24
2520	4.2601	6.3979	0.	124.89
2521	3.7764	6.4033	0.	124.56
2522	4.0223	6.6579	0.	124.85
2523	4.5027	6.136	0.	124.79
2524	4.7356	6.3992	0.	125.47
2525	4.5071	6.6568	0.	125.3
2526	3.5275	6.6677	0.	124.58
2527	3.283	6.4129	0.	124.38
2528	3.5318	6.1527	0.	124.34
2529	3.7446	3.4348	0.	126.39
2530	4.2535	3.4231	0.	126.52
2531	3.9872	3.1859	0.	126.55
2532	3.4792	3.1999	0.	126.55
2533	-6.8661	2.1245	0.	124.72
2534	-6.613	2.3688	0.	124.39
2535	1.5206	5.1366	0.	125.19
2536	1.2543	4.8754	0.	126.04
2537	1.504	4.6434	0.	126.33
2538	4.4961	3.1794	0.	126.97
2539	4.7685	3.4287	0.	126.78
2540	4.5253	3.6594	0.	126.24
2541	-3.4023	2.2612	0.	123.63
2542	-3.6471	2.5292	0.	123.05
2543	-4.6379	2.2964	0.	123.12
2544	-4.8768	2.5327	0.	122.75
2545	-4.6132	2.7739	0.	122.14
2546	-4.9158	2.0465	0.	123.21
2547	-4.6652	1.8215	0.	124.08
2548	-5.9655	1.8696	0.	122.2
2549	-6.1849	1.5249	0.	121.26
2550	4.1871	-3.544	0.	121.69
2551	4.6836	-3.5274	0.	121.43
2552	4.4508	-3.782	0.	120.95
2553	4.4051	-3.2986	0.	121.24
2554	0.71567	1.2372	0.	129.48
2555	0.63776	0.94296	0.	129.
2556	0.93688	0.77766	0.	129.81
2557	1.1525	1.0401	0.	130.49
2558	0.12278	2.518	0.	128.
2559	0.28591	2.0719	0.	128.39
2560	-3.0795e-002	2.1991	0.	127.26
2561	0.39932	2.3633	0.	128.64
2562	-0.6547	2.4705	0.	124.88
2563	-0.98455	2.5996	0.	123.67
2564	-1.1326	2.2359	0.	122.61
2565	-0.79113	2.1384	0.	124.
2566	4.523	5.6176	0.	124.26
2567	4.7465	5.8852	0.	124.73
2568	4.5686	4.6191	0.	124.5
2569	4.8289	4.3793	0.	124.87
2570	4.5565	4.1361	0.	125.35
2571	1.8137	6.3971	0.	124.42
2572	2.0548	6.6622	0.	124.52
2573	2.3005	6.4111	0.	124.31
2574	1.543	5.6343	0.	124.46
2575	1.2762	5.3733	0.	124.74
2576	1.6768	1.5212	0.	131.02
2577	1.4268	1.2836	0.	131.02
2578	0.72551	3.8533	0.	129.14
2579	0.98275	4.1243	0.	128.33
2580	0.98245	3.6428	0.	129.02
2581	-6.4079	1.2559	0.	121.44
2582	-6.6444	0.95748	0.	122.14
2583	-6.8813	1.1858	0.	124.
2584	-2.7693	1.1895	0.	124.53
2585	-2.6454	1.5788	0.	123.07
2586	-3.1384	0.53453	0.	128.57
2587	-2.9236	0.88674	0.	126.35
2588	-3.4244	0.76656	0.	128.49
2589	5.5497	3.6999	0.	126.74
2590	5.5882	4.1853	0.	126.01
2591	5.3129	3.925	0.	126.32
2592	5.8255	3.9687	0.	127.23
2593	-6.5472	3.3089	0.	125.7
2594	-6.8031	3.0652	0.	125.74
2595	-6.3114	3.067	0.	125.09
2596	-6.5751	2.8342	0.	125.07
2597	-0.18161	2.6621	0.	126.95
2598	1.8292e-002	2.9869	0.	128.05
2599	-3.694	0.97754	0.	128.11
2600	-3.9578	1.1942	0.	127.27
2601	1.9305	1.7573	0.	130.73
2602	2.1872	1.9928	0.	129.86
2603	2.6972	2.4795	0.	128.09
2604	2.443	2.2343	0.	129.04
2605	3.2154	2.9628	0.	126.98
2606	2.9554	2.7221	0.	127.37
2607	4.9794	6.1484	0.	125.4
2608	5.1899	6.4018	0.	126.4
2609	4.9945	6.6592	0.	126.
2610	5.7417	-3.4775	0.	122.86
2611	5.3663	-3.2221	0.	123.65
2612	5.5608	-3.216	0.	123.8
2613	5.2017	-3.4881	0.	122.1
2614	5.477	-3.724	0.	121.63
2615	-2.8888	2.2649	0.	123.07
2616	-3.1361	2.5419	0.	123.29
2617	-3.1995	2.0363	0.	124.09
2618	-2.6092	2.512	0.	122.9
2619	-2.3461	2.2328	0.	122.04
2620	-5.3667	2.5453	0.	123.04
2621	-5.6687	2.2758	0.	122.78
2622	-5.5902	2.8032	0.	123.57
2623	-5.8555	2.5755	0.	123.56
2624	-5.1548	2.2828	0.	122.84
2625	-5.107	2.781	0.	122.78
2626	-5.4568	2.0133	0.	122.58
2627	-5.1868	1.7836	0.	122.8
2628	-5.7118	1.7221	0.	121.65
2629	3.6946	-3.5497	0.	123.12
2630	3.9548	-3.7909	0.	122.58
2631	3.9214	-3.3079	0.	121.41
2632	3.2033	-3.5494	0.	125.28
2633	3.4609	-3.7928	0.	125.03
2634	3.4339	-3.3096	0.	123.26
2635	6.2674	-3.4994	0.	123.28
2636	6.7694	-3.5053	0.	123.66
2637	6.5131	-3.7533	0.	123.75
2638	6.5355	-3.2551	0.	123.07
2639	6.047	-3.2464	0.	123.55
2640	6.0055	-3.7439	0.	122.74
2641	0.46561	1.6449	0.	128.88
2642	0.35411	1.3323	0.	128.41
2643	0.16117	1.7598	0.	127.91
2644	0.63107	1.9457	0.	129.25
2645	4.5519	5.1139	0.	124.08
2646	4.7797	5.3755	0.	123.98
2647	4.8179	4.8732	0.	124.02
2648	1.5631	6.1359	0.	124.37
2649	1.3073	5.8751	0.	124.29
2650	1.5744	6.6403	0.	124.77
2651	1.3295	6.3767	0.	124.68
2652	1.7073	0.55966	0.	131.33
2653	1.5709	0.32727	0.	130.53
2654	1.2306	0.54118	0.	130.3
2655	1.4461	0.8036	0.	130.97
2656	5.6667	6.6981	0.	127.42
2657	5.4746	6.6581	0.	126.94
2658	5.5242	7.1863	0.	126.49
2659	5.2792	6.9155	0.	126.53
2660	5.7873	7.0028	0.	126.63
2661	4.2692	6.9167	0.	125.26
2662	3.7734	6.9223	0.	124.88
2663	4.0196	7.178	0.	125.13
2664	4.5177	7.174	0.	125.55
2665	4.7659	6.9167	0.	125.84
2666	3.2779	6.9291	0.	124.65
2667	2.7845	6.9317	0.	124.57
2668	3.0265	7.1887	0.	124.72
2669	3.0335	6.6743	0.	124.44
2670	3.5235	7.1829	0.	124.86
2671	2.296	6.9242	0.	124.63
2672	1.8155	6.9054	0.	124.87
2673	2.0442	7.1745	0.	124.9
2674	2.5325	7.1874	0.	124.73
2675	2.5417	6.6732	0.	124.42
2676	1.3462	6.8787	0.	125.37
2677	1.5664	7.1482	0.	125.27
2678	5.7771	3.4759	0.	126.51
2679	5.5162	3.2146	0.	126.96
2680	5.2789	3.4488	0.	126.89
2681	6.271	3.5001	0.	125.09
2682	6.0145	3.2409	0.	125.53
2683	6.0529	3.7446	0.	127.01
2684	3.7218	2.951	0.	126.71
2685	3.4609	2.7119	0.	126.58
2686	4.2298	2.9421	0.	127.
2687	3.9689	2.7007	0.	126.62
2688	4.7408	2.9448	0.	127.49
2689	4.4787	2.6959	0.	127.48
2690	2.9688	-3.7909	0.	127.24
2691	2.9476	-3.3058	0.	126.
2692	2.7106	-3.549	0.	127.34
2693	0.91551	7.3488	0.	126.53
2694	0.82696	7.5911	0.	126.63
2695	0.50091	7.3755	0.	127.29
2696	0.68676	7.1043	0.	126.9
2697	-6.7844	3.5467	0.	126.19
2698	-6.53	3.7919	0.	126.05
2699	-6.2897	3.5478	0.	125.9
2700	-7.3364	2.0973	0.	126.04
2701	-7.1072	1.8749	0.	125.32
2702	-7.088	2.3495	0.	125.54
2703	-7.0403	3.303	0.	126.23
2704	-7.2919	3.0524	0.	126.45
2705	-7.0629	2.8248	0.	125.89
2706	-7.0253	3.7874	0.	126.37
2707	-7.2769	3.5376	0.	126.7
2708	-3.3432	0.24234	0.	129.23
2709	-3.0125	-1.5704e-002	0.	133.04
2710	-2.8789	0.35244	0.	127.46
2711	-2.4505	1.1553	0.	122.34
2712	-2.6641	0.70466	0.	125.26
2713	-2.4828	0.82857	0.	123.18
2714	2.9423	2.2262	0.	127.5
2715	3.2009	2.4713	0.	126.97
2716	-3.6291	0.47438	0.	129.17
2717	-3.9104	0.70036	0.	128.75
2718	3.8557	-2.3486	0.	116.58
2719	4.0996	-2.5831	0.	119.33
2720	3.6321	-2.5872	0.	119.37
2721	3.8848	-2.8276	0.	119.5
2722	-4.0457	3.7155	0.	118.39
2723	-3.8168	3.4239	0.	120.5
2724	-4.3111	3.4828	0.	119.95
2725	-4.0947	3.2273	0.	120.51
2726	6.7428	2.5012	0.	118.32
2727	6.9929	2.2522	0.	115.84
2728	6.9945	2.7491	0.	117.35
2729	7.2422	2.4971	0.	116.89
2730	0.47093	4.0731	0.	129.38
2731	0.21458	3.7775	0.	129.34
2732	0.47656	3.5823	0.	129.35
2733	2.1789	1.5035	0.	130.74
2734	1.9303	1.27	0.	131.42
2735	1.1014	6.6151	0.	125.28
2736	1.1154	7.1066	0.	125.92
2737	0.88662	6.8621	0.	126.29
2738	0.99136	4.6143	0.	127.12
2739	0.72817	4.3441	0.	128.58
2740	1.2411	4.3823	0.	127.41
2741	0.73996	4.8457	0.	127.01
2742	1.0099	5.1121	0.	125.58
2743	5.0782	4.6334	0.	124.39
2744	5.3465	4.4081	0.	125.16
2745	5.0713	4.1478	0.	125.46
2746	5.2117	5.9128	0.	125.48
2747	5.0032	5.6431	0.	124.46
2748	-2.244	1.9817	0.	121.56
2749	-2.3266	1.5446	0.	120.87
2750	-0.33518	2.3432	0.	126.21
2751	-0.15554	1.887	0.	126.78
2752	-0.47161	2.0112	0.	125.33
2753	-3.1677	-2.6183	0.	126.3
2754	-3.4101	-2.388	0.	127.74
2755	-3.4525	-2.8666	0.	126.85
2756	-3.6924	-2.6415	0.	127.38
2757	7.2656	-3.5052	0.	124.36
2758	7.0129	-3.755	0.	124.61
2759	7.0256	-3.2558	0.	123.08
2760	3.2265	-4.0344	0.	126.98
2761	2.7297	-4.0367	0.	128.28
2762	2.9888	-4.2776	0.	129.37
2763	-5.9311	1.3775	0.	120.7
2764	-6.1661	1.058	0.	119.13
2765	-4.9362	1.5586	0.	123.67
2766	-4.681	1.3432	0.	125.28
2767	-4.426	1.6121	0.	125.05
2768	-4.8434	3.0222	0.	122.17
2769	-4.5797	3.2586	0.	120.95
2770	-4.3633	3.0032	0.	121.5
2771	-5.8201	3.0567	0.	124.34
2772	-6.0538	3.306	0.	125.29
2773	-6.0854	2.8291	0.	124.33
2774	-0.47191	2.8184	0.	126.04
2775	-3.381	2.8098	0.	122.7
2776	-3.6089	3.1009	0.	121.84
2777	-3.8869	2.9043	0.	121.85
2778	5.2505	2.9599	0.	127.37
2779	4.99	2.7049	0.	128.25
2780	5.0132	3.1941	0.	127.3
2781	6.5094	3.253	0.	122.78
2782	6.4973	2.7487	0.	120.7
2783	6.2529	2.9938	0.	123.2
2784	6.749	2.9966	0.	119.72
2785	5.4965	2.7225	0.	127.48
2786	5.7536	2.9796	0.	125.98
2787	5.4576	-2.9772	0.	124.84
2788	5.2435	-2.7511	0.	126.44
2789	5.0521	-3.0088	0.	123.87
2790	5.6561	-2.7354	0.	126.45
2791	5.866	-2.9849	0.	124.48
2792	-2.8565	2.789	0.	123.12
2793	-3.0902	3.0739	0.	123.38
2794	-2.3525	2.7607	0.	122.9
2795	-2.5783	3.0511	0.	123.92
2796	-1.8603	2.6659	0.	122.4
2797	-2.0894	2.4816	0.	122.05
2798	-2.0785	3.0121	0.	123.21
2799	-1.3448	2.7101	0.	122.87
2800	-1.4929	2.3463	0.	121.81
2801	-1.8433	2.4014	0.	121.8
2802	-1.5838	2.8761	0.	122.47
2803	-0.80176	2.9475	0.	124.83
2804	-1.0651	3.11	0.	123.75
2805	-5.3305	3.0389	0.	123.31
2806	-5.5599	3.2922	0.	124.39
2807	-5.0697	3.2757	0.	122.7
2808	-6.8165	-3.2613	0.	126.02
2809	-6.3469	-3.2681	0.	121.65
2810	-6.58	-3.4828	0.	124.95
2811	-6.5666	-3.0343	0.	122.7
2812	-5.4418	1.4925	0.	121.87
2813	-5.1846	1.2867	0.	122.85
2814	-5.6853	1.1993	0.	119.89
2815	3.7211	-4.034	0.	124.49
2816	3.9788	-4.2768	0.	123.36
2817	4.2185	-4.0289	0.	121.85
2818	3.4827	-4.2785	0.	127.07
2819	6.7566	-4.0029	0.	124.7
2820	6.2512	-3.9977	0.	123.22
2821	6.5031	-4.2511	0.	124.63
2822	2.2268	-4.0474	0.	128.2
2823	2.4883	-4.2845	0.	129.12
2824	2.4715	-3.7947	0.	128.38
2825	1.9818	-4.3041	0.	126.82
2826	1.7209	-4.065	0.	127.92
2827	1.9697	-3.8054	0.	128.62
2828	2.2055	-3.0556	0.	129.53
2829	1.9589	-2.8038	0.	131.09
2830	1.716	-3.05	0.	131.13
2831	1.9634	-3.3043	0.	129.93
2832	-2.9378	-2.8581	0.	125.47
2833	-2.6572	-2.6347	0.	123.97
2834	-2.8711	-2.3377	0.	125.91
2835	-2.7161	-3.1346	0.	125.17
2836	-2.9981	-3.3526	0.	125.55
2837	-3.2227	-3.1063	0.	126.02
2838	2.6935	-3.061	0.	127.07
2839	2.4565	-3.3041	0.	128.41
2840	2.4451	-2.8132	0.	129.21
2841	2.9286	-2.8218	0.	125.54
2842	3.1783	-3.0661	0.	123.98
2843	4.9674e-002	1.4472	0.	127.44
2844	0.2762	1.038	0.	127.94
2845	-5.0202e-002	1.1191	0.	127.
2846	-0.26734	1.5625	0.	126.25
2847	-1.6035	1.9312	0.	120.56
2848	-1.2504	1.8955	0.	121.49
2849	-1.954	1.9863	0.	120.55
2850	5.5974	6.4443	0.	127.45
2851	5.9974	6.5898	0.	127.64
2852	5.8315	6.2549	0.	128.45
2853	5.4222	6.1661	0.	126.48
2854	5.318	4.9063	0.	123.59
2855	5.0458	5.1348	0.	123.93
2856	1.0737	6.1159	0.	124.6
2857	0.80952	5.8592	0.	124.22
2858	1.0405	5.614	0.	124.56
2859	0.84814	6.3621	0.	125.32
2860	-0.45977	-4.7646	0.	127.84
2861	-0.6787	-5.0234	0.	128.54
2862	-0.4208	-5.3064	0.	128.06
2863	-0.20822	-5.0102	0.	129.14
2864	2.2408	0.51484	0.	132.09
2865	1.812	0.31909	0.	131.04
2866	1.9415	0.78844	0.	131.77
2867	0.47676	4.5755	0.	128.46
2868	0.21519	4.2882	0.	129.84
2869	0.49388	5.0854	0.	126.51
2870	0.22106	4.8105	0.	129.11
2871	-0.60022	-6.9054	0.	126.19
2872	-0.88433	-7.0829	0.	127.72
2873	-0.36245	-7.1437	0.	128.03
2874	-0.75967	-7.3797	0.	128.57
2875	-0.55206	-7.4044	0.	128.84
2876	0.43525	-7.3138	0.	132.35
2877	0.50855	-7.7925	0.	129.5
2878	0.784	-7.4843	0.	127.49
2879	0.2403	-7.5693	0.	130.73
2880	6.5437	3.7653	0.	125.5
2881	6.7637	3.498	0.	121.45
2882	5.4694	5.6803	0.	125.1
2883	5.6562	5.9767	0.	127.48
2884	0.45469	0.64304	0.	127.96
2885	0.19298	0.68505	0.	126.93
2886	-7.0552	-3.5085	0.	128.74
2887	-7.2943	-3.2845	0.	129.55
2888	-7.0454	-3.0315	0.	128.48
2889	-3.845	0.2033	0.	128.9
2890	-3.5557	-2.3591e-002	0.	127.68
2891	4.2178	2.4545	0.	127.09
2892	3.9577	2.2084	0.	125.88
2893	3.708	2.4616	0.	126.49
2894	4.7278	2.456	0.	128.24
2895	4.4673	2.2042	0.	127.67
2896	7.2814	-2.0015	0.	117.74
2897	7.0311	-1.7509	0.	115.52
2898	6.8004	-2.0018	0.	117.87
2899	7.0401	-2.2531	0.	118.3
2900	-3.7791	3.9471	0.	118.76
2901	-4.0188	4.2253	0.	116.28
2902	-4.2785	3.9824	0.	117.7
2903	-6.9046	0.19056	0.	126.26
2904	-6.4128	0.22887	0.	118.35
2905	-6.8833	-2.1712e-002	0.	127.08
2906	-6.6054	-0.12835	0.	122.53
2907	-6.6581	0.4247	0.	122.75
2908	4.7487	-5.0064	0.	115.75
2909	4.9996	-5.2532	0.	113.43
2910	5.2486	-5.002	0.	115.41
2911	4.9945	-4.7547	0.	115.91
2912	0.98076	-4.9244	0.	124.7
2913	0.80427	-5.2863	0.	126.71
2914	1.0819	-5.4563	0.	120.07
2915	1.2821	-5.1504	0.	119.43
2916	3.8371	-1.8712	0.	114.47
2917	3.612	-2.1079	0.	116.43
2918	4.0725	-2.1058	0.	116.59
2919	6.8036	3.9785	0.	124.4
2920	6.6439	4.3058	0.	132.86
2921	6.3256	4.0099	0.	127.39
2922	-6.7709	4.0327	0.	126.23
2923	-7.2664	4.026	0.	126.79
2924	-7.0155	4.2756	0.	126.08
2925	-6.518	4.2792	0.	125.59
2926	-6.2735	4.0336	0.	126.53
2927	7.25	-7.0002	0.	128.65
2928	7.	-7.2502	0.	129.34
2929	6.75	-7.0002	0.	132.
2930	7.0001	-6.7503	0.	129.14
2931	7.5174	-3.2544	0.	124.06
2932	7.5239	-2.7537	0.	122.31
2933	7.7674	-3.0035	0.	124.34
2934	7.2774	-3.005	0.	122.76
2935	7.5101	-3.7541	0.	125.54
2936	7.7612	-3.5036	0.	125.55
2937	7.5051	-4.2532	0.	126.91
2938	7.7561	-4.0031	0.	126.71
2939	7.2574	-4.0039	0.	125.78
2940	7.5025	-4.7522	0.	128.1
2941	7.2532	-4.5027	0.	127.24
2942	7.7531	-4.5023	0.	127.78
2943	7.5001	-6.7503	0.	127.94
2944	7.5	-7.2501	0.	128.17
2945	7.75	-7.0002	0.	127.79
2946	1.3356	7.3761	0.	125.82
2947	1.0275	7.5913	0.	126.24
2948	1.7951	7.4173	0.	125.3
2949	1.523	7.6561	0.	125.63
2950	2.2807	7.4376	0.	125.
2951	2.0206	7.6862	0.	125.24
2952	2.7745	7.4444	0.	124.88
2953	2.5186	7.6984	0.	125.04
2954	3.272	7.4425	0.	124.93
2955	3.0178	7.6996	0.	125.
2956	3.7697	7.4387	0.	125.11
2957	3.5173	7.697	0.	125.09
2958	4.2681	7.4353	0.	125.42
2959	4.0154	7.6945	0.	125.29
2960	4.7673	7.4361	0.	125.79
2961	4.5146	7.693	0.	125.57
2962	5.2604	7.4498	0.	126.03
2963	5.0114	7.6997	0.	125.82
2964	5.0155	7.1789	0.	126.07
2965	5.7407	7.4922	0.	125.82
2966	5.502	7.7181	0.	125.81
2967	6.222	7.4606	0.	124.93
2968	5.9866	7.7571	0.	125.29
2969	6.0038	7.3086	0.	125.96
2970	7.5351	7.2262	0.	119.39
2971	7.5126	7.7322	0.	121.4
2972	7.2658	7.4666	0.	121.24
2973	7.769	7.488	0.	121.16
2974	7.7944	6.9853	0.	119.29
2975	7.3139	6.9482	0.	119.22
2976	7.5758	6.7182	0.	115.44
2977	7.5253	-2.2521	0.	120.14
2978	7.7712	-2.5024	0.	123.09
2979	7.284	-2.5037	0.	120.64
2980	-7.5875	1.3663	0.	127.39
2981	-7.5908	0.89087	0.	128.42
2982	-7.8284	1.1114	0.	128.32
2983	-7.3533	1.1454	0.	126.65
2984	-7.5794	1.8444	0.	126.86
2985	-7.3503	1.622	0.	126.14
2986	-7.824	1.5917	0.	127.59
2987	-7.5635	2.3232	0.	126.69
2988	-7.8138	2.0728	0.	127.22
2989	-7.5286	3.287	0.	126.92
2990	-7.7795	3.0366	0.	127.17
2991	-7.5441	2.803	0.	126.75
2992	-7.518	3.7761	0.	127.13
2993	-7.7692	3.5261	0.	127.33
2994	-7.511	4.2681	0.	127.41
2995	-7.7617	4.0181	0.	127.58
2996	5.236	2.4675	0.	128.36
2997	4.9779	2.2111	0.	129.65
2998	6.4922	2.2492	0.	119.13
2999	6.2429	2.4945	0.	122.18
3000	4.5576	-2.5665	0.	122.63
3001	4.3542	-2.818	0.	120.8
3002	4.3164	-2.3402	0.	119.39
3003	6.3356	-2.5031	0.	123.14
3004	6.5641	-2.2534	0.	120.3
3005	6.8038	-2.5046	0.	120.68
3006	6.558	-2.7551	0.	122.07
3007	-3.3182	3.365	0.	122.52
3008	-3.5502	3.6555	0.	120.9
3009	-0.53911	3.3253	0.	126.41
3010	-0.27202	3.1431	0.	127.14
3011	-4.8061	3.5121	0.	121.47
3012	-4.5439	3.7496	0.	119.3
3013	-6.8187	-3.7301	0.	127.67
3014	-7.2981	-3.7695	0.	129.83
3015	-7.0503	-3.989	0.	129.79
3016	-7.4967	-5.4931	0.	128.15
3017	-7.4765	-6.0049	0.	128.3
3018	-7.7389	-5.7767	0.	128.02
3019	-7.2388	-5.7111	0.	128.2
3020	-4.2938	-3.5484	0.	123.12
3021	-4.8169	-3.538	0.	120.4
3022	-4.5532	-3.7776	0.	120.35
3023	-4.5359	-3.3207	0.	123.34
3024	-5.8798	-3.392	0.	119.04
3025	-6.1165	-3.4828	0.	120.82
3026	-6.0891	-3.0875	0.	117.76
3027	4.2387	-4.5177	0.	121.52
3028	4.4934	-4.7618	0.	118.28
3029	4.4784	-4.2698	0.	120.
3030	4.7393	-4.5101	0.	118.4
3031	7.5011	-5.2514	0.	128.8
3032	7.7515	-5.0015	0.	128.57
3033	7.2514	-5.0016	0.	128.71
3034	7.7501	-6.5003	0.	127.85
3035	7.5002	-6.2505	0.	128.23
3036	7.2501	-6.5004	0.	128.43
3037	5.7456	-4.497	0.	120.4
3038	5.4893	-4.2422	0.	119.7
3039	5.4962	-4.7485	0.	117.65
3040	5.2421	-4.5012	0.	118.1
3041	7.0054	-4.2534	0.	126.12
3042	7.0021	-4.7521	0.	127.87
3043	6.7519	-4.5016	0.	126.05
3044	0.70194	-4.7808	0.	127.87
3045	0.46664	-4.6965	0.	129.2
3046	0.52545	-5.1427	0.	129.87
3047	0.25289	-4.9524	0.	129.45
3048	1.198	-4.6197	0.	125.06
3049	1.7312	-4.5723	0.	124.67
3050	1.4993	-4.8457	0.	119.96
3051	1.4704	-4.3332	0.	125.84
3052	3.2451	-4.5217	0.	129.44
3053	3.0059	-4.7658	0.	132.77
3054	2.7474	-4.5255	0.	130.2
3055	2.3934	0.22365	0.	131.7
3056	2.1942	-0.28619	0.	129.54
3057	2.5368	-0.1078	0.	131.26
3058	1.9646	2.7904e-002	0.	130.66
3059	0.68794	-4.5633	0.	127.88
3060	0.94617	-4.3611	0.	128.16
3061	1.4755	-2.288	0.	132.1
3062	1.7139	-2.5476	0.	132.
3063	1.471	-2.7939	0.	132.05
3064	1.2272	-2.5338	0.	132.83
3065	-2.6059	-3.8942	0.	124.88
3066	-2.4149	-3.909	0.	125.6
3067	-2.4855	-3.4074	0.	125.19
3068	-2.7675	-3.6255	0.	125.58
3069	-2.2569	-3.6726	0.	126.65
3070	-0.24221	-4.4956	0.	127.71
3071	-0.48811	-4.2436	0.	125.05
3072	-0.71816	-4.4941	0.	127.51
3073	1.2363	-2.0275	0.	132.44
3074	1.0015	-1.7658	0.	131.68
3075	0.98804	-2.2734	0.	133.16
3076	0.74513	-2.0143	0.	135.68
3077	1.4921	-1.7811	0.	131.
3078	1.7217	-2.0454	0.	132.56
3079	3.1583	-2.5832	0.	123.
3080	3.3884	-2.3465	0.	119.3
3081	3.408	-2.8275	0.	121.45
3082	2.1985	-2.5614	0.	130.76
3083	1.9601	-2.305	0.	132.46
3084	-3.992	-1.497	0.	124.12
3085	-4.2329	-1.7503	0.	125.73
3086	-3.7585	-1.7152	0.	127.18
3087	-3.9654	-1.9676	0.	126.56
3088	-0.58341	1.6867	0.	124.8
3089	-0.90893	1.7981	0.	122.88
3090	-2.0365	1.5492	0.	119.85
3091	-2.0469	1.1777	0.	117.86
3092	5.5863	4.681	0.	124.35
3093	5.8789	4.4659	0.	125.81
3094	-2.5148	-4.1479	0.	124.85
3095	-2.7251	-4.3695	0.	121.8
3096	-2.9128	-4.1017	0.	124.65
3097	-7.7754	-4.2978	0.	130.03
3098	-7.5349	-4.0308	0.	130.31
3099	-7.5244	-4.5149	0.	129.72
3100	-7.2871	-4.2504	0.	130.26
3101	-7.5269	-3.0547	0.	131.16
3102	-7.7771	-3.3188	0.	131.04
3103	-7.5373	-3.5454	0.	130.64
3104	-7.5895	0.41823	0.	129.77
3105	-7.3553	0.67188	0.	127.84
3106	-7.8298	0.6347	0.	129.37
3107	-4.1158e-002	3.9926	0.	129.8
3108	-0.29557	3.6602	0.	127.98
3109	-2.8472e-002	3.478	0.	128.71
3110	-0.29501	4.2167	0.	129.77
3111	-4.0518e-002	4.5231	0.	130.47
3112	4.2072	1.958	0.	126.46
3113	4.4585	1.7017	0.	127.21
3114	4.7174	1.9593	0.	129.09
3115	3.9502	1.7099	0.	124.06
3116	3.6986	1.9657	0.	125.41
3117	2.4744	0.74401	0.	131.86
3118	2.6635	0.96453	0.	130.54
3119	2.4238	1.251	0.	130.87
3120	2.1752	1.0176	0.	131.54
3121	2.8018	0.3566	0.	130.03
3122	2.7224	0.69871	0.	131.03
3123	-7.3616	0.21033	0.	129.65
3124	-7.115	2.653e-002	0.	129.66
3125	-7.1274	0.46398	0.	127.74
3126	-7.5679	-5.513e-002	0.	131.34
3127	-7.8208	0.1548	0.	130.33
3128	-7.7627	-2.8253	0.	131.72
3129	-7.5034	-2.559	0.	132.63
3130	-7.2781	-2.8017	0.	130.1
3131	-1.5266	-7.3764	0.	129.4
3132	-1.2172	-7.2208	0.	128.39
3133	-1.3688	-7.635	0.	129.06
3134	-1.0925	-7.5176	0.	129.26
3135	-2.1362	-4.1347	0.	126.9
3136	-1.7414	-4.0146	0.	128.67
3137	-1.9138	-4.3302	0.	129.42
3138	-1.9782	-3.8983	0.	127.95
3139	-2.32	-4.3831	0.	125.06
3140	-0.90512	-5.2804	0.	127.17
3141	-0.64722	-5.5633	0.	126.72
3142	-1.1395	-5.5216	0.	126.79
3143	-0.90799	-5.7939	0.	124.9
3144	-1.1524	-5.0103	0.	129.98
3145	-0.93709	-4.7529	0.	128.23
3146	-0.21575	7.1802	0.	129.
3147	5.3708e-002	7.42	0.	127.51
3148	-0.41716	7.4502	0.	126.15
3149	-0.14413	7.6927	0.	126.75
3150	0.584	6.1054	0.	124.94
3151	0.30883	5.8516	0.	124.9
3152	0.53286	5.5969	0.	124.74
3153	0.37067	6.3646	0.	126.75
3154	0.63337	6.6092	0.	126.33
3155	5.5331	5.1822	0.	123.74
3156	5.7255	5.4814	0.	124.61
3157	5.2609	5.4107	0.	124.08
3158	5.8084	4.9734	0.	124.03
3159	7.7376	2.9804	0.	118.11
3160	7.4912	3.2214	0.	115.58
3161	7.2431	2.9907	0.	117.22
3162	7.4908	2.7387	0.	116.76
3163	-1.6902	1.5898	0.	119.04
3164	-0.36722	1.2344	0.	125.81
3165	-0.48423	0.92404	0.	125.74
3166	-0.13342	0.76619	0.	125.99
3167	-3.4626	-1.9211	0.	128.59
3168	-3.2719	-1.9486	0.	129.03
3169	-3.1135	-2.1075	0.	127.34
3170	-3.6696	-2.1735	0.	128.
3171	2.9161	-2.3382	0.	126.
3172	2.6802	-2.574	0.	127.68
3173	1.5264	-1.269	0.	128.94
3174	1.2573	-1.5194	0.	130.26
3175	1.7456	-1.5405	0.	130.93
3176	-2.4355	-2.9112	0.	123.66
3177	-2.1632	-2.7124	0.	122.6
3178	-2.3594	-2.4184	0.	120.85
3179	-2.217	-3.2018	0.	125.38
3180	1.4711	-3.3025	0.	131.2
3181	1.225	-3.5528	0.	131.66
3182	1.4696	-3.8162	0.	129.31
3183	1.7185	-3.5567	0.	129.98
3184	1.2259	-3.0416	0.	132.72
3185	0.22308	-4.4852	0.	128.77
3186	-7.5252e-003	-4.2433	0.	127.71
3187	9.3317e-003	-4.7412	0.	129.03
3188	0.46625	-4.2478	0.	130.08
3189	0.75381	0.47774	0.	128.77
3190	0.25101	0.48296	0.	126.74
3191	0.52903	0.21346	0.	127.84
3192	1.295	-1.0063	0.	128.34
3193	1.7949	-1.0299	0.	128.48
3194	1.5795	-0.74594	0.	128.03
3195	2.0069	-4.7961	0.	124.78
3196	2.2433	-4.5412	0.	127.74
3197	0.37268	-6.8234	0.	128.8
3198	0.57368	-7.0147	0.	135.92
3199	0.13725	-7.1013	0.	131.38
3200	-0.46891	-6.3959	0.	124.23
3201	-0.35278	-6.6406	0.	125.02
3202	-0.80131	-6.5864	0.	124.71
3203	-0.15485	-5.5443	0.	129.89
3204	0.33029	-5.4383	0.	131.32
3205	0.13691	-5.7662	0.	131.05
3206	5.7731e-002	-5.2481	0.	130.97
3207	-0.38188	-5.8657	0.	125.68
3208	5.9981	-4.7479	0.	122.14
3209	5.997	-4.2453	0.	122.2
3210	6.249	-4.4987	0.	123.61
3211	7.5005	-5.7509	0.	128.72
3212	7.2506	-5.5011	0.	129.48
3213	7.7507	-5.501	0.	128.76
3214	3.7405	-4.5213	0.	125.94
3215	3.9955	-4.7659	0.	123.86
3216	3.4996	-4.7668	0.	129.58
3217	-5.6653	0.70688	0.	117.44
3218	-5.9204	0.87983	0.	118.29
3219	-5.4282	0.99348	0.	120.88
3220	-4.079	-5.6737e-002	0.	127.02
3221	-4.0518	-0.53947	0.	124.
3222	-4.3143	-0.31413	0.	126.11
3223	-3.7897	-0.28363	0.	125.85
3224	-4.1263	0.42929	0.	128.48
3225	-4.3484	0.16532	0.	128.74
3226	-5.8819	-3.5928	0.	120.28
3227	-5.603	-3.7584	0.	118.57
3228	-5.3636	-3.5201	0.	118.8
3229	-5.6072	-3.2603	0.	117.87
3230	-3.7832	-3.5651	0.	125.22
3231	-4.0482	-3.792	0.	123.96
3232	-4.016	-3.3333	0.	125.37
3233	-7.7521	-5.2788	0.	128.23
3234	-7.2545	-5.2142	0.	128.62
3235	-7.5111	-5.0022	0.	128.76
3236	-6.3497	-3.6976	0.	124.09
3237	-6.0883	-3.8904	0.	122.97
3238	-6.5669	-3.9397	0.	127.7
3239	-7.4533	-6.5318	0.	128.62
3240	-7.7179	-6.2964	0.	128.35
3241	-7.2109	-6.232	0.	129.4
3242	-7.4573	-7.0595	0.	128.67
3243	-7.7032	-6.8189	0.	128.6
3244	-7.1643	-6.7703	0.	129.18
3245	-5.2992	3.529	0.	123.78
3246	-5.5352	3.7809	0.	125.89
3247	-5.7936	3.5414	0.	125.34
3248	-5.0406	3.7677	0.	122.84
3249	-1.3042	3.276	0.	123.35
3250	-0.80245	3.4878	0.	125.33
3251	-1.0424	3.6679	0.	123.59
3252	-1.802	3.2222	0.	123.28
3253	-1.5321	3.4614	0.	122.61
3254	-2.812	3.3361	0.	124.17
3255	-3.0466	3.6189	0.	124.62
3256	-2.3043	3.3025	0.	124.22
3257	-2.5371	3.6025	0.	126.63
3258	-2.0263	3.5733	0.	124.41
3259	5.8827	-2.5005	0.	126.37
3260	6.1011	-2.2532	0.	125.08
3261	6.0926	-2.75	0.	124.41
3262	5.0038	-2.5368	0.	126.51
3263	4.7682	-2.3184	0.	126.18
3264	4.8124	-2.7945	0.	123.97
3265	5.442	-2.5093	0.	128.02
3266	5.211	-2.2826	0.	131.28
3267	5.6518	-2.2591	0.	130.22
3268	5.4852	2.2274	0.	129.21
3269	5.7414	2.4825	0.	126.2
3270	-6.7626	4.5221	0.	125.44
3271	-7.0091	4.7669	0.	125.31
3272	-7.2601	4.5177	0.	126.69
3273	7.7698	-2.001	0.	121.85
3274	7.5195	-1.7506	0.	116.86
3275	-1.466	-6.2042	0.	124.97
3276	-1.4041	-5.7374	0.	125.71
3277	-1.666	-5.9462	0.	127.5
3278	-1.1726	-6.0097	0.	123.86
3279	1.7415e-002	5.5879	0.	125.63
3280	-0.31485	5.3199	0.	131.75
3281	0.24144	5.3332	0.	125.53
3282	-3.1385e-002	5.0582	0.	128.1
3283	7.1844	6.1334	0.	116.99
3284	7.1148	6.6598	0.	119.27
3285	7.3767	6.4297	0.	115.38
3286	6.9337	6.3475	0.	122.35
3287	7.2513	3.4724	0.	116.76
3288	7.0235	3.7112	0.	120.39
3289	7.0033	3.2417	0.	118.4
3290	-4.0206	-1.0201	0.	122.58
3291	-4.2904	-0.79577	0.	122.81
3292	-3.8051	-0.75832	0.	123.26
3293	-3.73	-1.2321	0.	123.95
3294	-4.2513	-1.2735	0.	122.63
3295	2.088	-0.79511	0.	128.58
3296	2.3919	-0.58923	0.	134.92
3297	1.8726	-0.51112	0.	128.18
3298	1.0259	-1.2567	0.	129.66
3299	0.75912	-1.5083	0.	132.26
3300	0.61626	-5.6173	0.	134.77
3301	4.2503	-5.01	0.	120.64
3302	4.5	-5.2564	0.	115.13
3303	-4.5529	-0.57043	0.	124.9
3304	-4.7879	-0.81834	0.	125.2
3305	-4.5211	-1.0491	0.	122.86
3306	-5.8093	-4.056	0.	121.25
3307	-5.5432	-4.2634	0.	117.27
3308	-5.3097	-4.0122	0.	117.78
3309	-3.2786	3.9094	0.	123.01
3310	-3.5195	4.1944	0.	118.85
3311	-6.7233	8.0187	0.	122.52
3312	-6.4793	8.2781	0.	123.95
3313	-6.2154	8.0472	0.	129.03
3314	-6.4589	7.7698	0.	119.99
3315	-7.7391	-7.8777	0.	128.97
3316	-7.4822	-7.5946	0.	128.74
3317	-7.4964	-8.1359	0.	129.06
3318	-7.244	-7.8664	0.	128.66
3319	-8.2331	-7.9071	0.	129.15
3320	-7.9891	-8.156	0.	129.26
3321	-7.9787	-7.6279	0.	128.91
3322	-7.2171	-7.3175	0.	128.38
3323	-7.7218	-7.3448	0.	128.68
3324	-7.9677	-6.5835	0.	128.33
3325	-8.2177	-6.8668	0.	128.49
3326	-7.9677	-7.1042	0.	128.61
3327	-7.9802	-6.0683	0.	128.07
3328	-8.2254	-6.3511	0.	128.21
3329	-7.9942	-5.5625	0.	128.1
3330	-8.2382	-5.8426	0.	128.05
3331	-8.0072	-5.0648	0.	128.62
3332	-8.2498	-5.3407	0.	128.3
3333	-8.0171	-4.5711	0.	129.46
3334	-8.2612	-4.8442	0.	128.96
3335	-7.7661	-4.7882	0.	129.15
3336	-8.0219	-4.0773	0.	130.29
3337	-8.2671	-4.3485	0.	129.77
3338	-8.0213	-3.5836	0.	130.97
3339	-7.7814	-3.8103	0.	130.57
3340	-8.2687	-3.8527	0.	130.48
3341	-8.0129	-3.0894	0.	131.6
3342	-8.2647	-3.3578	0.	131.05
3343	-8.2525	-2.8614	0.	131.48
3344	-7.996	-2.592	0.	131.99
3345	-8.0303	2.786	0.	127.52
3346	-8.2804	2.5349	0.	127.86
3347	-7.7949	2.5524	0.	127.1
3348	-8.0452	2.3021	0.	127.63
3349	-8.2704	3.0247	0.	127.78
3350	-8.0202	3.2756	0.	127.57
3351	-7.7566	4.5117	0.	128.04
3352	-8.0039	4.7574	0.	129.
3353	-8.0073	4.2617	0.	128.21
3354	-8.2542	4.5074	0.	128.41
3355	-0.5801	8.2249	0.	124.71
3356	-0.62772	7.717	0.	124.79
3357	-0.35469	7.9596	0.	125.39
3358	-0.84597	7.9785	0.	123.88
3359	0.94996	8.1212	0.	126.19
3360	1.2149	7.8712	0.	126.05
3361	0.66725	7.8722	0.	126.49
3362	2.2585	7.947	0.	125.29
3363	1.9988	8.1948	0.	125.48
3364	1.7485	7.925	0.	125.57
3365	2.7619	7.9537	0.	125.16
3366	2.5055	8.2061	0.	125.3
3367	3.2631	7.9541	0.	125.16
3368	3.0088	8.2081	0.	125.24
3369	3.5099	8.209	0.	125.27
3370	3.763	7.9528	0.	125.27
3371	7.2532	7.9778	0.	122.47
3372	7.0005	8.2264	0.	123.11
3373	7.0064	7.7123	0.	122.32
3374	6.7481	7.9662	0.	123.36
3375	7.7569	7.9899	0.	122.43
3376	7.5038	8.2361	0.	122.67
3377	8.2576	7.9989	0.	123.36
3378	8.0053	8.2458	0.	123.08
3379	8.0133	7.7457	0.	122.2
3380	8.051	6.7533	0.	120.05
3381	8.0283	7.2471	0.	121.09
3382	8.2834	7.0045	0.	122.8
3383	7.7446	1.9985	0.	119.41
3384	7.4953	1.7499	0.	115.25
3385	7.2437	2.0005	0.	115.69
3386	7.493	2.2454	0.	116.76
3387	7.9889	2.7333	0.	120.34
3388	7.9711	3.195	0.	118.89
3389	8.2341	2.9902	0.	122.55
3390	7.9937	2.2446	0.	121.63
3391	8.2425	2.4963	0.	123.47
3392	7.7421	2.4915	0.	118.99
3393	0.7757	-8.0254	0.	125.19
3394	1.2831	-8.0429	0.	119.8
3395	1.0511	-7.7172	0.	123.18
3396	1.0231	-8.2714	0.	122.8
3397	0.51671	-8.2885	0.	128.
3398	0.26391	-8.0593	0.	129.58
3399	-2.2085	-8.1219	0.	125.43
3400	-1.9819	-8.3794	0.	127.11
3401	-1.929	-7.9438	0.	127.08
3402	-1.7368	-8.1815	0.	127.8
3403	-2.6953	-8.0426	0.	123.92
3404	-2.4068	-7.8576	0.	122.8
3405	-2.4721	-8.319	0.	125.11
3406	-2.8971	-7.7614	0.	121.45
3407	-2.9748	-8.2437	0.	124.76
3408	-3.1878	-7.9417	0.	123.84
3409	7.	-7.7501	0.	129.84
3410	6.75	-7.5001	0.	131.15
3411	7.25	-7.5001	0.	128.86
3412	8.0147	-2.7521	0.	125.13
3413	8.0157	-2.2513	0.	124.81
3414	8.263	-2.5013	0.	126.57
3415	8.0112	-3.2526	0.	125.84
3416	8.2608	-3.0019	0.	126.6
3417	8.0072	-3.7526	0.	126.72
3418	8.2574	-3.5021	0.	127.06
3419	8.004	-4.2521	0.	127.58
3420	8.2544	-4.0019	0.	127.67
3421	8.0021	-4.7516	0.	128.25
3422	8.2524	-4.5015	0.	128.24
3423	8.2512	-5.0011	0.	128.56
3424	8.001	-5.2511	0.	128.52
3425	8.0002	-6.2504	0.	127.93
3426	8.2503	-6.0004	0.	128.14
3427	7.7503	-6.0006	0.	128.31
3428	8.0005	-5.7507	0.	128.34
3429	8.2501	-6.5002	0.	127.78
3430	8.0001	-6.7502	0.	127.69
3431	8.	-7.75	0.	128.57
3432	8.25	-7.5	0.	128.17
3433	7.75	-7.5001	0.	128.29
3434	8.	-7.2501	0.	127.91
3435	7.75	-8.	0.	129.2
3436	8.	-8.25	0.	129.43
3437	8.25	-8.	0.	128.93
3438	7.25	-8.0001	0.	129.91
3439	7.5	-8.25	0.	129.88
3440	7.5	-7.7501	0.	128.91
3441	-2.0788	7.753	0.	125.88
3442	-2.0597	8.2541	0.	124.92
3443	-2.3171	8.0068	0.	125.96
3444	-1.8256	8.0003	0.	124.28
3445	-1.624	7.2415	0.	118.45
3446	-1.8477	7.498	0.	123.76
3447	-1.3703	7.4876	0.	121.18
3448	-1.5945	7.7453	0.	122.16
3449	-6.5104	4.7688	0.	123.57
3450	-6.2635	4.5225	0.	126.17
3451	-0.54942	3.8842	0.	127.97
3452	2.9452	2.515e-002	0.	129.57
3453	3.1996	0.42276	0.	127.76
3454	2.9196	1.1921	0.	128.85
3455	3.18	1.473	0.	125.85
3456	2.9323	1.7207	0.	127.75
3457	2.6798	1.4786	0.	129.17
3458	-7.7867	-0.32539	0.	130.85
3459	-8.0036	-0.60393	0.	128.18
3460	-8.2685	-0.38366	0.	128.99
3461	-8.0396	-0.11546	0.	129.84
3462	-1.5648	-6.6556	0.	127.81
3463	-1.7458	-6.3898	0.	127.56
3464	-1.2684	-6.4812	0.	125.5
3465	-2.5303	-4.6048	0.	121.97
3466	-2.7681	-4.8629	0.	115.5
3467	-2.9565	-4.5733	0.	121.59
3468	-0.94577	6.9653	0.	122.25
3469	-1.4082	6.9825	0.	116.85
3470	-1.2043	6.7236	0.	113.86
3471	-1.1545	7.2286	0.	119.7
3472	6.1009	4.7584	0.	125.45
3473	6.4345	4.5452	0.	132.38
3474	6.1162	4.2493	0.	126.99
3475	-0.25342	-3.9912	0.	124.99
3476	-0.74946	-3.9766	0.	123.98
3477	-0.49979	-3.7394	0.	118.69
3478	0.98213	-2.7816	0.	133.49
3479	0.73824	-2.5202	0.	135.64
3480	0.72448	-4.0456	0.	130.35
3481	0.97394	-3.811	0.	131.26
3482	1.2186	-4.0745	0.	128.88
3483	1.0841	-0.23536	0.	129.1
3484	1.383	5.2497e-002	0.	129.82
3485	1.0426	0.26641	0.	129.58
3486	0.81783	2.1295e-003	0.	128.64
3487	2.2767	-8.1162	0.	127.06
3488	2.5228	-7.8915	0.	132.21
3489	2.5173	-8.3408	0.	130.08
3490	2.7644	-8.0866	0.	132.02
3491	-5.9023	0.39079	0.	114.41
3492	-6.1183	7.526e-002	0.	112.6
3493	-6.1574	0.56374	0.	115.42
3494	-6.9779	7.76	0.	124.35
3495	-6.9844	8.2629	0.	123.45
3496	-7.233	8.0093	0.	124.82
3497	-7.9939	7.2536	0.	127.97
3498	-8.2437	7.5032	0.	127.01
3499	-7.7398	7.5047	0.	129.7
3500	-7.9921	7.7538	0.	127.43
3501	-7.7453	7.0036	0.	129.61
3502	-7.9968	6.7532	0.	127.5
3503	-8.2461	7.003	0.	126.84
3504	-8.0004	5.7531	0.	129.55
3505	-7.75	6.003	0.	130.68
3506	-8.2497	6.0026	0.	127.98
3507	-7.999	6.2529	0.	128.05
3508	-7.7515	5.5045	0.	131.36
3509	-8.0019	5.2548	0.	129.8
3510	-8.2509	5.5033	0.	129.09
3511	-7.2553	5.0109	0.	126.87
3512	-7.5031	5.257	0.	130.78
3513	-7.5062	4.7617	0.	128.25
3514	-7.7535	5.0073	0.	129.21
3515	-6.7569	5.0136	0.	123.43
3516	-7.0046	5.2597	0.	125.15
3517	5.9883	1.7442	0.	126.34
3518	5.7337	1.9863	0.	127.79
3519	6.2392	1.9961	0.	121.73
3520	5.9899	2.2414	0.	124.78
3521	4.9698	1.211	0.	132.74
3522	4.7114	1.4563	0.	129.53
3523	5.2233	1.4748	0.	133.77
3524	4.9703	1.7139	0.	131.4
3525	5.4208	-2.0324	0.	133.38
3526	5.6265	-1.7722	0.	134.47
3527	5.8701	-2.0118	0.	128.93
3528	-3.0173	4.166	0.	127.42
3529	-2.7717	3.8853	0.	127.07
3530	-5.5186	4.2707	0.	128.92
3531	-5.7748	4.0289	0.	126.92
3532	-5.2766	4.0196	0.	124.95
3533	-6.9218	-6.4704	0.	129.96
3534	-6.7153	-6.135	0.	132.17
3535	-6.9732	-5.9382	0.	129.3
3536	-6.6387	-6.8489	0.	128.71
3537	-6.6447	-6.6393	0.	130.98
3538	-6.9241	-7.0283	0.	128.88
3539	-6.3055	-4.1326	0.	126.53
3540	-6.042	-4.3265	0.	125.54
3541	-6.5402	-4.3991	0.	131.15
3542	-6.7986	-4.1987	0.	129.79
3543	-7.0147	-4.941	0.	129.63
3544	-6.7756	-4.6649	0.	131.65
3545	-7.2713	-4.729	0.	129.78
3546	-7.034	-4.4644	0.	130.31
3547	-6.7559	-5.1449	0.	130.07
3548	-6.9965	-5.4322	0.	128.66
3549	-3.1865	-5.1764	0.	120.58
3550	-2.9973	-5.0494	0.	117.09
3551	-3.4025	-4.989	0.	126.85
3552	-3.1857	-4.7598	0.	123.2
3553	-3.5929	-4.2769	0.	128.4
3554	-3.5555	-3.8049	0.	126.11
3555	-3.8205	-4.0319	0.	124.85
3556	-3.35	-4.0545	0.	125.74
3557	-4.4748	-1.9979	0.	127.2
3558	-4.2073	-2.2152	0.	128.08
3559	-4.7245	-2.2231	0.	132.63
3560	-4.4765	-2.4458	0.	128.38
3561	-4.7261	-1.7705	0.	126.09
3562	-4.4923	-1.5268	0.	124.19
3563	-4.8188	-0.3411	0.	127.91
3564	-4.5837	-9.2076e-002	0.	127.79
3565	-5.3994	0.51329	0.	120.3
3566	-5.1238	0.32986	0.	128.78
3567	-4.893	0.59048	0.	126.45
3568	-5.1622	0.79989	0.	123.72
3569	-5.631	0.24436	0.	112.63
3570	3.7547	-5.0114	0.	127.5
3571	4.0028	-5.2587	0.	124.51
3572	3.5093	-5.2586	0.	132.57
3573	3.2605	-5.0109	0.	132.86
3574	6.7502	-6.0005	0.	130.18
3575	7.2503	-6.0007	0.	129.05
3576	7.0004	-5.7509	0.	129.8
3577	7.0002	-6.2505	0.	129.25
3578	6.2496	-4.9996	0.	124.82
3579	6.5002	-5.2503	0.	129.45
3580	6.7507	-5.001	0.	128.1
3581	6.5005	-4.7504	0.	126.3
3582	5.9995	-5.2494	0.	123.09
3583	5.7487	-4.9994	0.	119.39
3584	0.42288	-5.9452	0.	134.19
3585	0.2779	-6.2959	0.	126.42
3586	-9.0122e-002	-6.0876	0.	127.
3587	3.2561	-5.9997	0.	131.32
3588	2.7725	-5.9811	0.	131.18
3589	3.0164	-5.747	0.	133.77
3590	2.9883	-6.2475	0.	129.62
3591	2.2729	-5.0262	0.	128.5
3592	2.5307	-5.253	0.	138.26
3593	2.7677	-5.0116	0.	133.94
3594	2.5092	-4.7714	0.	131.44
3595	2.0415	-5.2752	0.	123.35
3596	1.775	-5.0695	0.	119.94
3597	1.7833	-8.0981	0.	120.46
3598	1.5235	-8.3152	0.	119.95
3599	1.5718	-7.8444	0.	111.07
3600	2.0228	-8.349	0.	123.86
3601	2.0601	-7.9069	0.	127.1
3602	2.7511	-7.6193	0.	132.76
3603	2.3062	-7.6821	0.	132.16
3604	2.4427	-7.4749	0.	133.77
3605	2.9928	-7.8144	0.	132.59
3606	3.2296	-7.5442	0.	133.36
3607	2.9257	-7.304	0.	131.56
3608	1.0597	-0.74526	0.	128.88
3609	0.78338	-1.0019	0.	129.28
3610	0.81378	-0.49639	0.	129.34
3611	1.3442	-0.48489	0.	128.59
3612	0.23565	-4.0059	0.	129.01
3613	-7.5743e-003	-3.7485	0.	127.51
3614	0.48334	-3.7688	0.	133.16
3615	0.97975	-3.2919	0.	133.19
3616	0.7328	-3.5343	0.	134.03
3617	0.73557	-3.027	0.	134.36
3618	-1.9446	-3.003	0.	124.33
3619	-1.6884	-2.8268	0.	124.39
3620	-1.8812	-2.5225	0.	120.63
3621	-1.7281	-3.313	0.	128.2
3622	-1.9884	-3.4669	0.	126.83
3623	-1.2674	-3.9441	0.	127.12
3624	-1.5107	-3.6522	0.	129.75
3625	-1.4823	-4.2035	0.	129.88
3626	-1.771	-3.8061	0.	128.39
3627	-0.99942	-3.7164	0.	124.31
3628	-0.97951	-4.2271	0.	126.54
3629	2.2748	-1.0759	0.	126.84
3630	2.0142	-1.3014	0.	130.46
3631	2.6756	-2.0876	0.	129.75
3632	2.4473	-1.8343	0.	136.72
3633	2.4397	-2.3234	0.	131.45
3634	2.2012	-2.067	0.	133.12
3635	2.9131	-1.8563	0.	128.73
3636	3.1461	-2.1015	0.	122.3
3637	5.1837	-1.808	0.	139.65
3638	4.9755	-2.0641	0.	130.89
3639	-3.5145	-0.9703	0.	124.61
3640	-3.3559	-0.75921	0.	122.76
3641	-3.543	-0.50248	0.	125.08
3642	-3.3413	-1.7237	0.	129.34
3643	-3.4965	-1.4503	0.	126.92
3644	-3.0676	-1.564	0.	132.88
3645	-2.9922	-1.91	0.	128.1
3646	-0.80284	0.35517	0.	125.95
3647	-0.63109	0.62182	0.	124.52
3648	-0.28028	0.46398	0.	124.78
3649	-0.51418	0.17223	0.	121.52
3650	-1.7007	1.2183	0.	117.03
3651	-1.3371	1.5541	0.	119.97
3652	-1.4435	1.2544	0.	117.95
3653	-1.7616	0.79534	0.	110.97
3654	-2.0792	0.85103	0.	118.67
3655	-1.5992	1.0486	0.	116.51
3656	7.7246	3.4359	0.	116.32
3657	7.5123	3.7057	0.	111.09
3658	7.9826	3.6082	0.	118.53
3659	8.1988	3.474	0.	122.83
3660	6.2759	5.0698	0.	120.82
3661	6.0007	5.2727	0.	124.88
3662	9.5504e-002	6.1108	0.	126.69
3663	-0.18645	5.8639	0.	122.32
3664	-9.7624e-002	6.3876	0.	132.12
3665	0.1678	6.6285	0.	128.44
3666	-0.48325	6.9386	0.	128.43
3667	-0.29024	6.6636	0.	133.53
3668	-2.4814e-002	6.9044	0.	129.89
3669	-0.7485	6.7019	0.	130.14
3670	-0.68465	7.2086	0.	125.61
3671	-1.3867	-5.2516	0.	129.55
3672	-1.6231	-5.4893	0.	128.75
3673	-1.6222	-5.0121	0.	135.14
3674	-1.4097	-4.7439	0.	131.03
3675	-2.3178	-4.8303	0.	123.47
3676	-2.0975	-4.5786	0.	127.58
3677	-2.6085	-7.5764	0.	120.3
3678	-3.0991	-7.4696	0.	123.57
3679	-2.8033	-7.2796	0.	113.57
3680	-2.3059	-7.4096	0.	123.61
3681	-2.1273	-7.6795	0.	124.45
3682	-1.6913	-7.0939	0.	129.54
3683	-2.0041	-7.2498	0.	127.67
3684	-1.8255	-7.5197	0.	128.54
3685	-1.8562	-6.8241	0.	132.74
3686	-1.3818	-6.9383	0.	128.57
3687	-5.4793	-8.2138	0.	124.73
3688	-5.188	-7.9685	0.	120.12
3689	-5.4687	-7.736	0.	126.24
3690	-5.7343	-7.9587	0.	126.74
3691	-7.2443	-2.3077	0.	131.72
3692	-7.4671	-2.0535	0.	134.09
3693	-7.7367	-2.3257	0.	132.9
3694	-7.3212	-0.23893	0.	131.31
3695	-7.0378	-0.4188	0.	131.56
3696	-7.5125	-0.53565	0.	130.79
3697	-7.9684	-1.096	0.	127.32
3698	-7.7295	-0.81419	0.	128.16
3699	-8.236	-0.8744	0.	127.22
3700	-7.6856	-1.3125	0.	126.72
3701	-8.2136	-1.3677	0.	127.72
3702	-7.9577	-1.5919	0.	128.95
3703	3.1726	0.96763	0.	125.83
3704	3.1202	0.76488	0.	128.8
3705	4.9912	0.70668	0.	133.22
3706	5.2624	0.47845	0.	135.5
3707	5.0726	0.21903	0.	133.88
3708	4.7258	0.40664	0.	130.24
3709	4.7111	0.9392	0.	130.75
3710	5.2317	0.97292	0.	134.2
3711	3.6896	1.4703	0.	123.27
3712	3.433	1.2485	0.	122.82
3713	3.438	1.7262	0.	124.65
3714	4.2015	1.4536	0.	124.8
3715	4.4527	1.1845	0.	127.55
3716	3.9379	1.2059	0.	119.51
3717	-0.55365	4.4654	0.	130.45
3718	-0.78935	4.0643	0.	126.23
3719	-0.78833	4.6249	0.	129.32
3720	-0.58263	5.0335	0.	134.73
3721	-0.29916	4.7719	0.	131.15
3722	-1.4897	4.0517	0.	118.47
3723	-1.2703	3.8533	0.	122.85
3724	-1.7563	3.8125	0.	123.75
3725	-6.257	5.0134	0.	123.97
3726	-6.5052	5.2604	0.	118.82
3727	-1.8691	6.9924	0.	121.04
3728	-1.6573	6.7354	0.	111.98
3729	-3.0524	8.2668	0.	123.69
3730	-3.3361	8.0236	0.	120.26
3731	-3.056	7.7625	0.	125.78
3732	-2.8157	8.0128	0.	125.08
3733	-6.4306	-7.1735	0.	126.98
3734	-6.2134	-7.4254	0.	126.57
3735	-6.716	-7.3528	0.	127.16
3736	-6.4834	-7.6503	0.	127.17
3737	6.75	-8.0001	0.	130.91
3738	7.	-8.25	0.	130.78
3739	-2.7515	-8.5202	0.	125.96
3740	-3.0115	-8.7393	0.	125.54
3741	-3.2786	-8.4463	0.	127.56
3742	-2.2454	-8.5766	0.	126.8
3743	-2.5021	-8.7906	0.	126.29
3744	-1.747	-8.6088	0.	128.26
3745	-1.9999	-8.829	0.	127.74
3746	-1.4996	-8.8423	0.	129.14
3747	-1.25	-8.6015	0.	129.54
3748	-1.502	-8.4109	0.	128.95
3749	1.763	-8.5661	0.	123.3
3750	1.509	-8.7968	0.	123.22
3751	1.2636	-8.5437	0.	122.88
3752	2.2634	-8.5736	0.	126.89
3753	2.0097	-8.8111	0.	125.3
3754	2.7613	-8.5588	0.	130.54
3755	2.5103	-8.8067	0.	128.72
3756	3.0085	-8.3046	0.	132.5
3757	3.2539	-8.0435	0.	133.06
3758	3.008	-8.7888	0.	131.03
3759	3.2571	-8.5348	0.	132.67
3760	7.75	-8.5	0.	130.11
3761	7.5	-8.75	0.	130.48
3762	7.25	-8.5	0.	130.76
3763	8.25	-8.5	0.	129.7
3764	8.	-8.75	0.	130.12
3765	8.2456	1.9989	0.	125.41
3766	7.9962	1.7484	0.	123.61
3767	8.0797	6.2707	0.	120.14
3768	8.3049	6.5143	0.	124.17
3769	7.8325	6.4862	0.	116.12
3770	-2.0927	7.2489	0.	126.34
3771	-2.3251	7.5045	0.	129.85
3772	-7.4943	8.7561	0.	124.88
3773	-7.2409	8.5102	0.	124.26
3774	-7.4894	8.2566	0.	125.61
3775	-7.7431	8.505	0.	125.13
3776	-6.4948	8.7781	0.	127.18
3777	-6.2465	8.5509	0.	127.59
3778	-6.7404	8.5223	0.	124.91
3779	-8.4776	-7.6644	0.	129.03
3780	-8.4853	-8.1824	0.	129.39
3781	-8.7322	-7.9384	0.	129.26
3782	-8.7262	-7.4245	0.	128.88
3783	-8.4732	-7.1479	0.	128.68
3784	-8.2231	-7.3853	0.	128.79
3785	-8.7311	-6.4026	0.	128.28
3786	-8.4754	-6.6344	0.	128.37
3787	-8.4834	-6.1255	0.	128.18
3788	-8.7481	-5.3939	0.	128.4
3789	-8.5038	-5.12	0.	128.63
3790	-8.4938	-5.6208	0.	128.24
3791	-8.5233	-0.16216	0.	128.91
3792	-8.7595	-0.42722	0.	128.35
3793	-8.5009	-0.65413	0.	128.03
3794	-8.539	0.32967	0.	129.43
3795	-8.7773	6.7893e-002	0.	129.09
3796	-8.2944	0.10603	0.	129.76
3797	-8.7856	0.56022	0.	129.37
3798	-8.3057	0.5949	0.	129.6
3799	-8.5459	0.82062	0.	129.37
3800	-8.5378	1.7936	0.	128.62
3801	-8.784	1.5397	0.	128.99
3802	-8.5448	1.3078	0.	129.01
3803	-8.3021	1.5637	0.	128.49
3804	-8.5292	2.2828	0.	128.31
3805	-8.7775	2.0305	0.	128.7
3806	-8.294	2.05	0.	128.08
3807	-8.5205	2.7736	0.	128.12
3808	-8.7701	2.5224	0.	128.47
3809	-8.513	3.2662	0.	128.05
3810	-8.7634	3.0157	0.	128.29
3811	-8.5076	3.7608	0.	128.08
3812	-8.758	3.5105	0.	128.17
3813	-8.2628	3.5171	0.	127.84
3814	-8.7546	4.0069	0.	128.1
3815	-8.2576	4.0117	0.	128.03
3816	-8.5045	4.2573	0.	128.23
3817	-8.7486	6.5021	0.	125.41
3818	-8.499	6.2525	0.	126.48
3819	-8.2483	6.5027	0.	126.56
3820	-8.4975	6.7525	0.	125.9
3821	-8.4952	7.7524	0.	125.85
3822	-8.7462	7.502	0.	125.27
3823	-8.4959	7.2525	0.	125.88
3824	-8.7462	8.0018	0.	125.17
3825	-8.2435	8.003	0.	126.26
3826	-8.4956	8.2521	0.	125.51
3827	-4.4778	-8.6767	0.	111.99
3828	-4.2389	-8.4548	0.	109.14
3829	-4.7062	-8.4213	0.	115.08
3830	-5.4894	-8.7082	0.	123.67
3831	-5.7424	-8.4499	0.	126.
3832	-5.2175	-8.4488	0.	121.22
3833	-6.76	-8.4152	0.	128.79
3834	-6.5099	-8.6861	0.	128.37
3835	-6.2575	-8.4343	0.	128.03
3836	-6.5053	-8.1644	0.	128.38
3837	-7.0065	-8.6746	0.	129.01
3838	-7.2534	-8.4071	0.	129.12
3839	-7.0009	-8.1377	0.	128.72
3840	-8.4912	-8.7012	0.	129.7
3841	-8.7394	-8.4527	0.	129.62
3842	-8.2412	-8.4313	0.	129.5
3843	8.2622	-2.0005	0.	127.48
3844	8.0122	-1.7504	0.	125.51
3845	8.5054	8.2514	0.	124.13
3846	8.7568	8.0032	0.	124.77
3847	8.5117	7.7536	0.	124.07
3848	8.5095	4.2704	0.	131.12
3849	8.7167	4.5329	0.	130.14
3850	8.312	4.352	0.	133.14
3851	8.4763	4.8047	0.	132.02
3852	8.7918	4.008	0.	131.78
3853	8.3759	4.0813	0.	133.92
3854	8.5072	3.7662	0.	129.72
3855	8.4877	2.7532	0.	125.68
3856	8.7345	3.0076	0.	127.47
3857	8.4619	3.2692	0.	126.48
3858	8.4944	2.2506	0.	127.26
3859	8.7431	2.5028	0.	127.9
3860	8.7466	2.0015	0.	129.84
3861	8.4971	1.7505	0.	130.91
3862	8.5094	-2.2506	0.	129.24
3863	8.7568	-2.0001	0.	130.95
3864	8.5069	-1.75	0.	132.2
3865	8.509	-2.7511	0.	128.04
3866	8.7577	-2.5007	0.	129.36
3867	8.507	-3.2514	0.	127.82
3868	8.7564	-3.001	0.	128.72
3869	8.5047	-3.7515	0.	128.01
3870	8.7546	-3.5012	0.	128.6
3871	8.5028	-4.2513	0.	128.33
3872	8.7529	-4.0011	0.	128.69
3873	8.5016	-4.751	0.	128.55
3874	8.7517	-4.5009	0.	128.78
3875	8.5008	-5.2507	0.	128.54
3876	8.7509	-5.0006	0.	128.74
3877	8.5004	-5.7504	0.	128.3
3878	8.7504	-5.5004	0.	128.52
3879	8.2506	-5.5007	0.	128.5
3880	8.5002	-6.2503	0.	127.99
3881	8.7502	-6.0003	0.	128.18
3882	8.7501	-6.5002	0.	127.92
3883	8.5001	-6.7501	0.	127.84
3884	8.5	-7.75	0.	128.52
3885	8.75	-7.5	0.	128.24
3886	8.5	-7.2501	0.	128.02
3887	8.5	-8.25	0.	129.19
3888	8.75	-8.	0.	128.81
3889	8.75	-8.5	0.	129.44
3890	8.5	-8.75	0.	129.8
3891	-3.2719	8.5291	0.	125.17
3892	-3.5556	8.2858	0.	121.69
3893	-3.5067	8.7811	0.	127.24
3894	-3.743	8.5092	0.	132.25
3895	-2.7908	8.5133	0.	124.17
3896	-3.025	8.7655	0.	124.51
3897	-2.2967	8.5067	0.	124.49
3898	-2.5334	8.7581	0.	124.49
3899	-2.5541	8.2594	0.	125.54
3900	-1.8005	8.5012	0.	124.19
3901	-2.038	8.7536	0.	124.41
3902	-1.3047	8.4942	0.	123.97
3903	-1.5415	8.7486	0.	124.16
3904	-1.5664	8.2474	0.	123.55
3905	-0.80814	8.4843	0.	124.4
3906	-1.0443	8.7418	0.	124.31
3907	-1.074	8.2379	0.	123.57
3908	-0.30953	8.4697	0.	125.2
3909	-0.54589	8.7319	0.	124.92
3910	0.19404	8.447	0.	125.83
3911	-4.5125e-002	8.7173	0.	125.57
3912	-8.4124e-002	8.2043	0.	125.88
3913	0.70424	8.421	0.	126.04
3914	0.45999	8.696	0.	125.94
3915	0.42153	8.1721	0.	126.35
3916	1.219	8.4183	0.	125.93
3917	0.969	8.6788	0.	125.98
3918	1.7343	8.4381	0.	125.69
3919	1.48	8.6898	0.	125.84
3920	1.484	8.1684	0.	125.78
3921	2.2458	8.4538	0.	125.5
3922	1.9909	8.7053	0.	125.67
3923	2.7524	8.4605	0.	125.38
3924	2.4981	8.7145	0.	125.54
3925	3.2556	8.4631	0.	125.35
3926	3.0023	8.7173	0.	125.46
3927	3.5041	8.7197	0.	125.43
3928	3.7565	8.4648	0.	125.37
3929	4.7533	8.4718	0.	125.43
3930	4.5027	8.7249	0.	125.42
3931	4.5077	8.2107	0.	125.49
3932	4.2554	8.4671	0.	125.42
3933	5.2511	8.4801	0.	125.32
3934	5.0014	8.7292	0.	125.35
3935	5.0043	8.2177	0.	125.54
3936	5.7499	8.4897	0.	125.
3937	5.4997	8.7378	0.	125.14
3938	5.4998	8.2305	0.	125.39
3939	6.25	8.4889	0.	124.45
3940	5.9998	8.744	0.	124.75
3941	5.998	8.2423	0.	124.89
3942	6.7504	8.4825	0.	123.79
3943	6.5004	8.737	0.	124.22
3944	6.4979	8.2223	0.	124.04
3945	7.2511	8.4846	0.	123.31
3946	7.0005	8.7361	0.	123.71
3947	7.7523	8.492	0.	123.31
3948	7.5011	8.7401	0.	123.49
3949	8.2531	8.4983	0.	123.84
3950	8.0019	8.7462	0.	123.72
3951	8.7531	8.5015	0.	124.71
3952	8.5023	8.7502	0.	124.32
3953	-6.3984	-6.7421	0.	130.09
3954	-6.1478	-6.9635	0.	124.42
3955	-1.2434	4.4222	0.	120.68
3956	-1.0404	4.7325	0.	125.61
3957	-1.024	4.2238	0.	125.17
3958	-1.7008	4.3991	0.	121.64
3959	4.1891	0.93676	0.	122.22
3960	4.4456	0.63916	0.	127.68
3961	3.6813	0.984	0.	118.91
3962	3.3814	0.81327	0.	124.94
3963	-7.4466	-1.0307	0.	127.42
3964	-7.2291	-0.71552	0.	130.96
3965	-7.4318	-1.5401	0.	130.06
3966	-3.7916	8.2542	0.	127.2
3967	-3.563	7.7617	0.	119.63
3968	-3.8226	7.9159	0.	124.13
3969	-5.7094	-7.4773	0.	127.19
3970	-5.9305	-7.2154	0.	123.88
3971	-5.975	-7.7	0.	127.74
3972	9.0045	8.2533	0.	125.34
3973	9.002	8.7518	0.	125.08
3974	9.2523	8.5021	0.	125.62
3975	9.2547	8.0037	0.	126.13
3976	9.0089	7.7557	0.	125.86
3977	9.0235	6.7645	0.	129.31
3978	9.2644	7.0093	0.	128.19
3979	8.774	7.011	0.	126.44
3980	9.0153	7.2594	0.	127.
3981	9.0317	6.2704	0.	131.19
3982	9.2709	6.5132	0.	130.
3983	8.7868	6.5189	0.	129.72
3984	9.0318	5.7756	0.	130.19
3985	9.2758	6.0171	0.	130.13
3986	8.7989	6.03	0.	135.72
3987	9.0164	5.2782	0.	127.43
3988	8.7924	5.5418	0.	128.34
3989	9.2704	5.5197	0.	127.85
3990	8.9962	4.7766	0.	127.95
3991	8.7558	5.0484	0.	129.88
3992	9.2539	5.0201	0.	126.51
3993	8.999	4.2706	0.	130.75
3994	9.2427	4.5179	0.	129.15
3995	8.9975	3.764	0.	131.24
3996	9.2553	4.0125	0.	131.17
3997	8.9855	3.2606	0.	130.18
3998	9.2399	3.5089	0.	131.21
3999	8.7129	3.5222	0.	129.18
4000	8.9899	2.7572	0.	129.7
4001	9.2398	3.0071	0.	130.84
4002	8.9953	2.2537	0.	130.5
4003	9.2448	2.504	0.	131.04
4004	8.9979	1.752	0.	131.81
4005	9.2476	2.0023	0.	131.75
4006	8.9991	1.2512	0.	132.32
4007	8.7484	1.501	0.	132.85
4008	9.2489	1.5014	0.	132.13
4009	8.9997	0.75074	0.	131.85
4010	8.7495	1.0007	0.	132.82
4011	9.2496	1.0008	0.	131.46
4012	8.9999	0.25045	0.	131.69
4013	8.7499	0.50045	0.	133.58
4014	9.2499	0.50049	0.	130.58
4015	9.0001	-0.24968	0.	131.7
4016	8.75	2.8798e-004	0.	134.7
4017	9.25	3.0561e-004	0.	130.54
4018	8.7502	-0.49976	0.	133.65
4019	9.2502	-0.49975	0.	130.51
4020	9.0007	-0.74969	0.	131.94
4021	9.0035	-1.7498	0.	132.27
4022	8.7536	-1.4997	0.	133.5
4023	9.2518	-1.4997	0.	132.09
4024	9.0017	-1.2497	0.	132.57
4025	9.0051	-2.2502	0.	131.09
4026	9.2533	-1.9999	0.	131.76
4027	9.0051	-2.7505	0.	130.05
4028	9.2541	-2.5003	0.	131.01
4029	9.004	-3.2507	0.	129.5
4030	9.2534	-3.0005	0.	130.43
4031	9.0028	-3.7508	0.	129.27
4032	9.2525	-3.5006	0.	130.04
4033	9.0018	-4.2507	0.	129.14
4034	9.2517	-4.0006	0.	129.73
4035	9.001	-4.7506	0.	128.98
4036	9.251	-4.5005	0.	129.41
4037	9.0005	-5.2504	0.	128.72
4038	9.2506	-5.0004	0.	129.03
4039	9.0003	-5.7503	0.	128.4
4040	9.2503	-5.5002	0.	128.61
4041	9.0001	-6.2502	0.	128.11
4042	9.2501	-6.0002	0.	128.2
4043	9.0001	-6.7501	0.	127.99
4044	9.2501	-6.5001	0.	127.94
4045	9.	-7.2501	0.	128.13
4046	9.25	-7.	0.	127.93
4047	8.75	-7.0001	0.	127.91
4048	9.	-7.75	0.	128.52
4049	9.25	-7.5	0.	128.2
4050	9.	-8.25	0.	129.05
4051	9.25	-8.	0.	128.7
4052	9.	-8.75	0.	129.58
4053	9.25	-8.5	0.	129.28
4054	8.75	-9.	0.	129.94
4055	9.25	-9.	0.	129.79
4056	9.	-9.25	0.	129.97
4057	8.25	-9.	0.	130.22
4058	8.5	-9.25	0.	130.21
4059	7.75	-9.	0.	130.49
4060	8.	-9.25	0.	130.47
4061	7.25	-9.	0.	130.49
4062	7.5	-9.25	0.	130.48
4063	6.75	-9.	0.	129.22
4064	7.	-9.25	0.	129.78
4065	7.	-8.75	0.	130.77
4066	6.2501	-9.	0.	125.02
4067	6.5	-8.75	0.	130.07
4068	6.5	-9.25	0.	127.12
4069	5.7501	-9.0001	0.	118.84
4070	6.0001	-8.75	0.	122.8
4071	6.0001	-9.25	0.	121.7
4072	5.2503	-9.0003	0.	114.55
4073	5.5002	-8.7501	0.	114.16
4074	5.5002	-9.2501	0.	116.35
4075	4.7506	-9.0012	0.	114.87
4076	5.0004	-8.7505	0.	112.97
4077	5.0004	-9.2504	0.	114.38
4078	4.2513	-9.0042	0.	119.64
4079	4.5008	-8.7519	0.	114.79
4080	4.5008	-9.2516	0.	116.88
4081	3.753	-9.0115	0.	125.84
4082	4.0017	-9.2552	0.	122.48
4083	4.0023	-8.7568	0.	124.03
4084	3.2554	-9.0236	0.	129.38
4085	3.5045	-8.7696	0.	131.08
4086	3.5036	-9.2627	0.	127.56
4087	2.757	-9.0366	0.	129.2
4088	3.0055	-9.273	0.	129.18
4089	2.2566	-9.0442	0.	127.14
4090	2.5055	-9.2814	0.	128.16
4091	1.7557	-9.0417	0.	125.22
4092	2.0044	-9.2835	0.	126.26
4093	1.2558	-9.0332	0.	124.9
4094	1.5037	-9.2782	0.	125.17
4095	1.0043	-9.2722	0.	125.75
4096	1.0104	-8.7801	0.	124.58
4097	0.75687	-9.0294	0.	126.32
4098	-0.24554	-9.0463	0.	129.57
4099	4.4222e-003	-9.2811	0.	129.03
4100	6.9631e-003	-8.8014	0.	129.4
4101	0.25658	-9.0358	0.	128.24
4102	-0.74769	-9.0554	0.	129.99
4103	-0.49727	-9.2884	0.	129.9
4104	-0.49763	-8.8142	0.	130.18
4105	-1.2496	-9.0636	0.	129.6
4106	-0.99893	-9.2946	0.	129.94
4107	-1.0001	-8.8228	0.	130.01
4108	-1.7525	-9.0626	0.	128.61
4109	-1.5011	-9.2994	0.	129.27
4110	-2.2566	-9.0431	0.	127.24
4111	-2.0043	-9.2916	0.	128.03
4112	-2.7622	-9.0097	0.	125.88
4113	-2.5082	-9.2708	0.	126.37
4114	-3.2657	-8.9768	0.	122.89
4115	-3.0121	-9.2436	0.	124.37
4116	-3.7625	-8.9706	0.	117.36
4117	-3.5328	-8.6838	0.	124.96
4118	-3.5117	-9.2244	0.	119.97
4119	-4.2524	-8.9659	0.	112.93
4120	-4.0136	-8.744	0.	110.35
4121	-4.0069	-9.2321	0.	114.68
4122	-4.7431	-8.9551	0.	114.94
4123	-4.4987	-9.2166	0.	113.26
4124	-5.2433	-8.9591	0.	120.44
4125	-4.9945	-9.2175	0.	117.77
4126	-4.9714	-8.6998	0.	117.99
4127	-5.7505	-8.9593	0.	124.55
4128	-5.4983	-9.2203	0.	122.28
4129	-6.2559	-8.9529	0.	127.23
4130	-6.0035	-9.2172	0.	125.78
4131	-6.0035	-8.701	0.	126.89
4132	-6.7565	-8.9455	0.	128.59
4133	-6.5054	-9.2116	0.	127.85
4134	-7.2537	-8.9425	0.	129.26
4135	-7.0043	-9.2073	0.	128.95
4136	-7.7489	-8.9459	0.	129.59
4137	-7.5012	-9.2077	0.	129.51
4138	-7.5005	-8.675	0.	129.37
4139	-8.2446	-8.955	0.	129.77
4140	-7.997	-9.212	0.	129.77
4141	-7.9947	-8.6852	0.	129.57
4142	-8.7434	-8.9676	0.	129.91
4143	-8.4949	-9.2207	0.	129.92
4144	-8.9916	-8.7191	0.	129.83
4145	-8.995	-9.2306	0.	130.09
4146	-9.2447	-8.981	0.	130.14
4147	-8.9863	-8.2088	0.	129.49
4148	-9.2415	-8.4733	0.	129.78
4149	-8.9808	-7.6985	0.	129.11
4150	-9.2367	-7.9658	0.	129.35
4151	-8.9788	-7.1887	0.	128.74
4152	-9.2336	-7.4585	0.	128.91
4153	-8.9814	-6.6802	0.	128.45
4154	-9.2339	-6.9517	0.	128.52
4155	-8.7258	-6.9121	0.	128.54
4156	-8.9876	-6.1738	0.	128.29
4157	-9.2377	-6.4461	0.	128.26
4158	-8.9943	-5.6698	0.	128.35
4159	-9.2431	-5.9422	0.	128.2
4160	-8.7399	-5.8967	0.	128.2
4161	-8.9995	-5.1679	0.	128.64
4162	-9.2478	-5.4398	0.	128.38
4163	-9.0042	-4.6671	0.	129.1
4164	-9.251	-4.9389	0.	128.77
4165	-8.7552	-4.894	0.	128.88
4166	-9.0071	-4.1677	0.	129.59
4167	-9.2551	-4.4381	0.	129.26
4168	-8.7603	-4.3947	0.	129.49
4169	-9.0045	-3.6695	0.	129.99
4170	-9.2557	-3.9389	0.	129.69
4171	-8.7608	-3.8969	0.	130.07
4172	-8.9982	-3.1716	0.	130.15
4173	-9.2509	-3.4405	0.	129.93
4174	-8.7559	-3.3995	0.	130.48
4175	-8.9912	-2.6742	0.	129.94
4176	-9.2459	-2.9424	0.	129.86
4177	-8.7466	-2.902	0.	130.6
4178	-8.9852	-2.1777	0.	129.3
4179	-9.2408	-2.4447	0.	129.42
4180	-8.7366	-2.4047	0.	130.2
4181	-8.9832	-1.6824	0.	128.47
4182	-9.2374	-1.948	0.	128.67
4183	-8.7284	-1.9083	0.	129.14
4184	-8.9881	-1.188	0.	127.92
4185	-9.2382	-1.4522	0.	127.97
4186	-8.7283	-1.4139	0.	127.85
4187	-8.9996	-0.6933	0.	128.
4188	-9.2448	-0.95665	0.	127.73
4189	-8.741	-0.92022	0.	127.68
4190	-9.0134	-0.19716	0.	128.54
4191	-9.2548	-0.46038	0.	128.09
4192	-9.0238	0.29845	0.	129.03
4193	-9.2651	3.8018e-002	0.	128.68
4194	-9.0277	0.79145	0.	129.26
4195	-9.2702	0.53331	0.	129.14
4196	-9.0271	1.2837	0.	129.23
4197	-9.2709	1.0276	0.	129.37
4198	-8.788	1.0518	0.	129.26
4199	-9.0237	1.7765	0.	129.07
4200	-9.2695	1.5222	0.	129.4
4201	-9.0184	2.2701	0.	128.86
4202	-9.2658	2.0172	0.	129.29
4203	-9.013	2.7645	0.	128.63
4204	-9.2616	2.5127	0.	129.08
4205	-9.0084	3.2601	0.	128.41
4206	-9.2578	3.009	0.	128.81
4207	-9.005	3.7567	0.	128.18
4208	-9.2548	3.5061	0.	128.47
4209	-9.0028	4.2543	0.	127.93
4210	-9.2528	4.004	0.	128.06
4211	-9.0014	4.7528	0.	127.58
4212	-9.2515	4.5025	0.	127.55
4213	-8.7527	4.5047	0.	128.07
4214	-9.0006	5.2521	0.	126.98
4215	-9.2507	5.0017	0.	126.86
4216	-8.7513	5.003	0.	127.91
4217	-9.	5.7518	0.	126.11
4218	-9.2502	5.5015	0.	125.94
4219	-8.7505	5.5024	0.	127.34
4220	-8.9992	6.2518	0.	125.21
4221	-9.2497	6.0013	0.	124.91
4222	-8.7497	6.0022	0.	126.29
4223	-9.2491	6.5013	0.	124.1
4224	-8.9983	6.7518	0.	124.65
4225	-8.9972	7.7514	0.	124.58
4226	-9.248	7.5011	0.	123.81
4227	-8.9975	7.2516	0.	124.53
4228	-8.9975	8.2512	0.	124.65
4229	-9.248	8.0009	0.	124.
4230	-8.9981	8.7508	0.	124.78
4231	-9.2484	8.5007	0.	124.25
4232	-8.7469	8.5015	0.	124.99
4233	-8.7481	9.001	0.	125.06
4234	-9.2489	9.0005	0.	124.62
4235	-8.9989	9.2505	0.	125.08
4236	-8.2474	9.0021	0.	125.24
4237	-8.4984	9.2511	0.	125.41
4238	-8.4969	8.7517	0.	125.27
4239	-7.7468	9.0042	0.	125.11
4240	-7.998	9.2521	0.	125.51
4241	-7.9956	8.7531	0.	125.36
4242	-7.2468	9.0088	0.	125.21
4243	-7.4979	9.2544	0.	125.45
4244	-6.7478	9.0187	0.	126.87
4245	-6.9982	9.2595	0.	125.83
4246	-6.9934	8.7629	0.	124.58
4247	-6.2493	9.0367	0.	134.52
4248	-6.4991	9.2695	0.	128.15
4249	-4.2196	9.0468	0.	125.69
4250	-4.4725	8.8736	0.	119.84
4251	-4.6969	9.0227	0.	118.22
4252	-4.4698	9.2974	0.	121.63
4253	-3.7464	9.0217	0.	128.63
4254	-3.9828	8.7499	0.	133.44
4255	-3.9896	9.2693	0.	126.84
4256	-3.2598	9.0175	0.	126.6
4257	-3.5034	9.2662	0.	126.51
4258	-2.7676	9.0102	0.	124.83
4259	-3.0092	9.2606	0.	124.98
4260	-2.2748	9.0049	0.	124.42
4261	-2.5153	9.2554	0.	124.53
4262	-1.779	9.001	0.	124.38
4263	-2.0197	9.2524	0.	124.54
4264	-1.2811	8.9961	0.	124.49
4265	-1.5219	9.2492	0.	124.63
4266	-0.782	8.9893	0.	124.83
4267	-1.0229	9.2449	0.	124.86
4268	-0.28148	8.9795	0.	125.29
4269	-0.52295	9.2389	0.	125.23
4270	0.22083	8.9663	0.	125.68
4271	-2.1892e-002	9.2302	0.	125.62
4272	0.72475	8.9538	0.	125.88
4273	0.48031	9.2196	0.	125.89
4274	1.23	8.9503	0.	125.9
4275	0.9833	9.2125	0.	125.99
4276	1.7366	8.957	0.	125.81
4277	1.4872	9.2137	0.	125.97
4278	2.2432	8.966	0.	125.7
4279	1.9921	9.2209	0.	125.9
4280	2.7481	8.9713	0.	125.61
4281	2.4965	9.2269	0.	125.8
4282	3.2508	8.9739	0.	125.54
4283	2.9994	9.2293	0.	125.71
4284	3.7517	8.9768	0.	125.48
4285	3.5009	9.2311	0.	125.62
4286	4.2514	8.9798	0.	125.43
4287	4.001	9.2335	0.	125.52
4288	4.0041	8.7219	0.	125.43
4289	4.5005	9.2359	0.	125.4
4290	4.7509	8.9822	0.	125.33
4291	5.7496	8.9921	0.	124.89
4292	5.4995	9.2425	0.	125.
4293	5.2501	8.9869	0.	125.16
4294	6.2502	8.9922	0.	124.52
4295	5.9998	9.2452	0.	124.69
4296	6.7505	8.9906	0.	124.14
4297	6.5003	9.2431	0.	124.35
4298	7.2505	8.9916	0.	123.89
4299	7.0003	9.2431	0.	124.07
4300	7.7506	8.9943	0.	123.89
4301	7.5003	9.2439	0.	123.97
4302	8.251	8.9981	0.	124.19
4303	8.0004	9.247	0.	124.1
4304	8.7512	9.0004	0.	124.69
4305	8.5008	9.2497	0.	124.44
4306	9.251	9.001	0.	125.25
4307	9.0008	9.2507	0.	124.88
4308	-2.169	-6.98	0.	130.77
4309	-2.5006	-7.1128	0.	116.63
4310	-2.0874	-5.0389	0.	130.44
4311	-1.8586	-5.2498	0.	134.02
4312	-1.8672	-4.7872	0.	134.75
4313	-0.55549	6.4268	0.	134.89
4314	-0.37957	6.1407	0.	127.54
4315	6.4407	5.3897	0.	125.58
4316	6.5884	5.7095	0.	133.57
4317	6.1655	5.5925	0.	129.99
4318	6.3368	5.9133	0.	132.64
4319	7.7703	3.8779	0.	112.91
4320	8.0935	3.982	0.	127.52
4321	8.2247	3.6669	0.	123.31
4322	-1.4274	0.64267	0.	114.68
4323	-1.1219	0.50728	0.	125.6
4324	-0.95015	0.77392	0.	124.29
4325	-1.265	0.89598	0.	120.44
4326	-3.3024	-0.99326	0.	123.05
4327	-3.2228	-1.2906	0.	130.37
4328	5.3894	-1.5478	0.	140.66
4329	5.1401	-1.3275	0.	136.36
4330	4.9507	-1.5945	0.	138.59
4331	2.4819	-1.3465	0.	132.27
4332	2.6848	-1.603	0.	135.37
4333	2.2212	-1.572	0.	136.1
4334	-1.2427	-3.4245	0.	126.95
4335	-1.4719	-3.1367	0.	128.22
4336	0.48862	-3.2694	0.	135.18
4337	0.24011	-3.5114	0.	131.62
4338	0.53747	-0.75307	0.	129.72
4339	0.29171	-0.5079	0.	126.19
4340	0.54747	-0.2589	0.	128.88
4341	2.2245	-7.485	0.	132.4
4342	1.8487	-7.6532	0.	117.44
4343	2.2992	-5.5019	0.	132.84
4344	2.5368	-5.7304	0.	136.61
4345	2.7808	-5.4963	0.	139.53
4346	6.5	-8.25	0.	131.68
4347	6.25	-8.5	0.	127.8
4348	6.75	-8.5	0.	131.59
4349	6.2501	-5.5001	0.	127.65
4350	6.5002	-5.7502	0.	131.06
4351	6.7504	-5.5006	0.	130.72
4352	3.5063	-5.7554	0.	132.42
4353	3.7575	-5.5058	0.	129.53
4354	3.2666	-5.5027	0.	134.97
4355	3.5026	-8.2738	0.	133.23
4356	3.7538	-8.5149	0.	129.19
4357	-3.8319	-4.5097	0.	126.91
4358	-3.6037	-4.7571	0.	130.71
4359	-3.387	-4.5279	0.	127.14
4360	-6.5168	-4.8687	0.	132.05
4361	-6.2766	-4.5931	0.	130.
4362	-6.1695	-6.5146	0.	130.46
4363	-6.4381	-6.304	0.	133.15
4364	-5.5083	4.762	0.	131.06
4365	-5.2618	4.5116	0.	127.76
4366	-5.7629	4.5188	0.	129.09
4367	-2.5148	4.6666	0.	136.42
4368	-2.7494	4.4247	0.	132.55
4369	-2.2121	4.4307	0.	132.3
4370	-2.5038	4.144	0.	132.32
4371	-2.1072	6.7424	0.	127.72
4372	-2.3266	6.9983	0.	131.62
4373	-2.8037	7.5079	0.	130.59
4374	-2.559	7.2539	0.	135.06
4375	-2.5634	7.7582	0.	129.97
4376	5.8371	-1.5152	0.	130.86
4377	5.579	-1.2684	0.	134.8
4378	8.503	-1.2497	0.	134.04
4379	8.2569	-1.4998	0.	130.2
4380	8.4987	1.2505	0.	133.32
4381	8.2477	1.5	0.	129.02
4382	5.7347	1.4899	0.	131.36
4383	5.4852	1.2367	0.	135.22
4384	5.4801	1.732	0.	132.89
4385	-7.2524	5.5058	0.	129.02
4386	-7.5012	5.7543	0.	132.46
4387	-6.0046	5.2591	0.	125.88
4388	-5.7555	5.0104	0.	128.6
4389	-6.0101	4.7671	0.	126.57
4390	-7.2321	7.5068	0.	128.41
4391	-7.4912	7.2547	0.	131.33
4392	-7.4871	7.7561	0.	128.92
4393	-6.001	8.8094	0.	134.7
4394	-5.7432	9.0517	0.	130.03
4395	-5.9984	9.2844	0.	134.35
4396	-5.9206	7.7929	0.	134.76
4397	-6.1641	7.5155	0.	125.68
4398	-5.9825	8.32	0.	132.62
4399	-5.2138	9.0147	0.	116.51
4400	-5.4874	9.2866	0.	121.
4401	-4.2358	8.5766	0.	127.41
4402	-4.7168	8.8247	0.	115.94
4403	-4.9625	9.2385	0.	115.7
4404	-6.7135	7.5111	0.	121.77
4405	-5.502	6.6939	0.	134.33
4406	-5.5003	6.2344	0.	135.61
4407	-6.2528	5.5061	0.	120.65
4408	-5.7519	5.5036	0.	130.68
4409	-6.7529	5.5065	0.	120.47
4410	-7.4995	6.2529	0.	132.27
4411	-7.497	6.7531	0.	131.76
4412	-7.7484	6.5028	0.	129.67
4413	6.2418	1.4978	0.	121.43
4414	6.7449	1.5003	0.	114.8
4415	6.4927	1.7496	0.	116.83
4416	7.2462	1.5002	0.	114.16
4417	6.9945	1.7508	0.	114.64
4418	7.7469	1.4998	0.	119.43
4419	8.4997	0.75042	0.	134.52
4420	8.5	0.25028	0.	136.6
4421	8.5001	-0.24979	0.	136.65
4422	8.5008	-0.74975	0.	134.81
4423	8.7512	-0.99968	0.	133.14
4424	7.7619	-1.5	0.	120.49
4425	7.2692	-1.5	0.	114.56
4426	6.781	-1.5	0.	114.59
4427	6.3016	-1.5023	0.	120.07
4428	6.0808	-1.7548	0.	125.33
4429	6.5503	-1.751	0.	117.03
4430	5.4937	-0.73373	0.	134.61
4431	5.3297	-1.0482	0.	130.92
4432	5.5029	0.74469	0.	136.44
4433	5.5353	0.26425	0.	138.84
4434	5.2873	-0.23747	0.	135.1
4435	4.9232	-8.6757e-002	0.	132.29
4436	5.3454	4.8344e-003	0.	137.19
4437	5.1965	-0.53537	0.	139.87
4438	5.4972	-0.21418	0.	137.8
4439	-4.1781	7.3627	0.	120.55
4440	-4.5613	7.3335	0.	113.98
4441	-4.4029	7.462	0.	116.09
4442	-3.7469	7.4497	0.	123.12
4443	-4.0065	7.6039	0.	127.63
4444	-3.2829	7.5007	0.	125.29
4445	-2.3352	6.4902	0.	139.87
4446	-2.546	6.2329	0.	143.1
4447	-2.5546	6.7461	0.	144.11
4448	-2.4899	5.1786	0.	141.53
4449	-2.3279	4.9542	0.	135.61
4450	-3.2582	4.4511	0.	123.28
4451	-3.7591	4.4727	0.	116.31
4452	-4.2596	4.4899	0.	115.01
4453	-4.5193	4.247	0.	116.49
4454	-4.7606	4.5023	0.	119.65
4455	-5.6958	-6.4861	0.	126.01
4456	-5.9188	-6.736	0.	124.79
4457	-6.4829	-5.832	0.	133.22
4458	-6.5002	-5.3478	0.	131.75
4459	-6.7408	-5.6352	0.	130.37
4460	-5.7758	-4.534	0.	121.57
4461	-5.2783	-4.5078	0.	116.08
4462	-4.2976	-4.507	0.	119.55
4463	-4.0595	-4.2646	0.	123.38
4464	-4.784	-4.5066	0.	116.02
4465	-4.5458	-4.2635	0.	117.37
4466	-5.0449	-4.2567	0.	116.61
4467	-5.7326	-2.1126	0.	110.96
4468	-6.2165	-1.9707	0.	111.98
4469	-6.0027	-2.2577	0.	109.23
4470	-6.76	-0.52544	0.	126.92
4471	-6.3109	-0.28196	0.	116.75
4472	-5.847	-7.1167e-002	0.	110.33
4473	-5.3554	6.0931e-002	0.	121.06
4474	-4.9856	-1.5392	0.	127.94
4475	-4.9758	-1.9957	0.	131.26
4476	-5.0185	-1.0646	0.	128.51
4477	-4.7518	-1.2954	0.	126.18
4478	-5.0538	-0.58901	0.	128.12
4479	-5.0856	-0.1266	0.	130.92
4480	3.4908	-7.7733	0.	133.76
4481	3.4678	-7.2696	0.	134.29
4482	3.4662	-6.7644	0.	133.09
4483	3.1639	-7.0294	0.	132.49
4484	3.4898	-6.2583	0.	131.48
4485	3.2219	-6.506	0.	129.81
4486	4.2526	-5.5051	0.	118.98
4487	4.7509	-5.5032	0.	112.74
4488	5.2503	-5.5014	0.	112.56
4489	5.7501	-5.5002	0.	118.29
4490	5.4993	-5.2502	0.	114.61
4491	6.5001	-6.2502	0.	131.87
4492	6.5	-6.7501	0.	133.83
4493	6.7501	-6.5003	0.	130.96
4494	6.5	-7.2501	0.	133.82
4495	6.5	-7.7501	0.	132.2
4496	4.7506	-8.5012	0.	112.84
4497	4.2518	-8.5045	0.	119.17
4498	5.2503	-8.5003	0.	112.54
4499	5.7501	-8.5001	0.	118.11
4500	-3.7838	-8.4572	0.	117.91
4501	-4.9485	-7.7806	0.	114.5
4502	-4.9261	-8.2035	0.	116.6
4503	-5.2292	-7.5481	0.	120.61
4504	0.89386	-5.7874	0.	128.06
4505	1.3565	-5.6525	0.	112.85
4506	1.8233	-5.5522	0.	115.3
4507	1.5568	-5.3465	0.	112.46
4508	2.5034	-6.2011	0.	132.97
4509	2.4247	-6.6503	0.	133.
4510	2.7192	-6.4675	0.	131.64
4511	2.3688	-7.0721	0.	132.22
4512	2.6173	-7.1596	0.	132.58
4513	2.625	-6.9539	0.	130.56
4514	1.3399	-7.5187	0.	114.29
4515	0.5733	-6.7561	0.	130.04
4516	0.12042	-6.6011	0.	124.35
4517	0.92243	-7.1852	0.	131.16
4518	0.51655	-1.2535	0.	131.88
4519	0.50276	-1.7568	0.	136.25
4520	0.49534	-2.2611	0.	138.15
4521	0.49168	-2.7656	0.	136.5
4522	-0.25394	-3.4967	0.	121.08
4523	-0.74975	-3.4792	0.	118.73
4524	2.5787	-0.87	0.	133.08
4525	2.7345	-0.41083	0.	136.64
4526	4.5764	0.10085	0.	128.63
4527	4.8323	-0.38466	0.	137.06
4528	5.0325	-0.8498	0.	136.16
4529	4.5086	-1.6262	0.	123.1
4530	4.7425	-1.8507	0.	130.39
4531	4.0577	-1.633	0.	113.5
4532	4.2932	-1.8676	0.	115.71
4533	3.1433	-1.6218	0.	121.91
4534	3.6015	-1.6303	0.	113.44
4535	3.3764	-1.867	0.	115.52
4536	-3.0378	-0.53837	0.	128.98
4537	-3.225	-0.28164	0.	131.46
4538	-2.7014	-0.13605	0.	129.34
4539	-1.8718	0.447	0.	113.3
4540	-2.1895	0.5027	0.	121.06
4541	-2.2739	0.16917	0.	120.97
4542	7.2845	3.9444	0.	114.76
4543	7.3564	4.1363	0.	114.29
4544	7.1088	4.126	0.	121.53
4545	6.6095	4.8567	0.	127.58
4546	6.9491	4.4533	0.	129.89
4547	-5.5029	5.2549	0.	133.44
4548	-5.5008	5.7477	0.	136.02
4549	-4.5799	7.4769	0.	112.75
4550	-4.2313	7.7032	0.	122.3
4551	-1.5143	-1.8528	0.	118.91
4552	-1.7752	-2.0411	0.	117.33
4553	-1.9252	-1.7417	0.	115.59
4554	-2.7766	-1.4721	0.	129.36
4555	-2.7012	-1.8181	0.	124.82
4556	-2.3555	-1.6256	0.	119.11
4557	8.5317	5.312	0.	130.49
4558	8.5595	5.7961	0.	133.61
4559	7.0065	5.8179	0.	124.28
4560	6.7558	6.032	0.	129.65
4561	7.4337	5.9189	0.	110.1
4562	7.8731	5.9998	0.	112.3
4563	8.3288	6.035	0.	129.98
4564	7.626	6.2152	0.	108.7
4565	-1.8954	6.4854	0.	118.55
4566	-1.007	6.4601	0.	121.77
4567	-1.4534	6.4765	0.	108.5
4568	-2.4894	5.7042	0.	140.43
4569	-2.2796	5.2097	0.	140.19
4570	-2.0253	4.7183	0.	131.61
4571	-0.51872	5.5958	0.	128.28
4572	-0.83469	5.1411	0.	131.08
4573	-2.9808	-5.2468	0.	114.97
4574	-3.375	-5.4404	0.	131.7
4575	-2.5555	-5.0884	0.	116.61
4576	-1.885	-5.6981	0.	130.31
4577	-2.0373	-6.5583	0.	132.39
4578	-1.9458	-6.1318	0.	130.09
4579	-3.4915	-8.1443	0.	126.53
4580	-3.3898	-7.6499	0.	125.95
4581	-3.3044	-7.2106	0.	128.6
4582	-3.0086	-7.0206	0.	118.61
4583	-3.163	-6.8499	0.	125.5
4584	-2.9088	-6.8653	0.	114.78
4585	-3.203	-6.5554	0.	127.16
4586	-1.4343	-2.6461	0.	126.55
4587	-1.3663	-2.1536	0.	124.41
4588	-1.6271	-2.3419	0.	122.75
4589	-1.0113	9.6245e-002	0.	124.33
4590	-0.94286	-0.33431	0.	121.76
4591	-0.72261	-8.67e-002	0.	119.94
4592	-0.21359	-0.52188	0.	116.79
4593	2.961e-002	-0.26226	0.	122.75
4594	-0.69002	-0.54273	0.	116.92
4595	-0.46976	-0.29512	0.	115.17
4596	-5.2253	-6.4454	0.	116.68
4597	-4.7684	-6.3928	0.	107.37
4598	-3.591	-5.2531	0.	138.08
4599	-3.6379	-5.7355	0.	134.19
4600	9.5013	8.7514	0.	125.78
4601	9.5005	9.2507	0.	125.3
4602	9.5026	8.2525	0.	126.41
4603	9.5048	7.754	0.	127.19
4604	9.508	7.2559	0.	128.11
4605	9.2589	7.506	0.	126.92
4606	9.5118	6.7581	0.	128.89
4607	9.515	6.26	0.	128.92
4608	9.5144	5.7612	0.	127.78
4609	9.5078	5.2616	0.	126.86
4610	9.5003	4.7613	0.	127.68
4611	9.4989	4.2598	0.	129.56
4612	9.4976	3.7573	0.	131.12
4613	9.4942	3.2554	0.	131.86
4614	9.4947	2.754	0.	132.18
4615	9.4971	2.2526	0.	132.3
4616	9.4987	1.7516	0.	132.07
4617	9.4994	1.251	0.	131.26
4618	9.4998	0.75056	0.	130.18
4619	9.4999	0.25034	0.	129.42
4620	9.5001	-0.24977	0.	129.34
4621	9.5003	-0.74979	0.	129.94
4622	9.5008	-1.2498	0.	130.89
4623	9.2508	-0.99972	0.	131.37
4624	9.5016	-1.7498	0.	131.58
4625	9.5023	-2.25	0.	131.68
4626	9.5023	-2.7502	0.	131.4
4627	9.5019	-3.2503	0.	130.97
4628	9.5013	-3.7504	0.	130.51
4629	9.5009	-4.2503	0.	130.
4630	9.5005	-4.7503	0.	129.47
4631	9.5003	-5.2502	0.	128.92
4632	9.5001	-5.7501	0.	128.4
4633	9.5001	-6.2501	0.	128.03
4634	9.5	-6.75	0.	127.87
4635	9.5	-7.25	0.	128.
4636	9.5	-7.75	0.	128.38
4637	9.5	-8.25	0.	128.92
4638	9.5	-8.75	0.	129.49
4639	9.5	-9.25	0.	129.95
4640	9.25	-9.5	0.	130.13
4641	8.75	-9.5	0.	130.24
4642	8.25	-9.5	0.	130.45
4643	7.75	-9.5	0.	130.46
4644	7.25	-9.5	0.	129.77
4645	6.75	-9.5	0.	127.67
4646	6.2501	-9.5	0.	123.8
4647	5.7501	-9.5001	0.	119.22
4648	5.2503	-9.5003	0.	116.16
4649	4.7506	-9.5009	0.	116.38
4650	4.2512	-9.5026	0.	119.74
4651	3.7524	-9.5064	0.	124.19
4652	3.2537	-9.5122	0.	127.33
4653	2.7539	-9.5178	0.	128.13
4654	2.2532	-9.5207	0.	127.28
4655	1.7524	-9.52	0.	126.21
4656	1.2522	-9.5173	0.	126.01
4657	0.75271	-9.5161	0.	126.87
4658	0.25309	-9.5186	0.	128.23
4659	0.50525	-9.2733	0.	127.44
4660	-0.24731	-9.5232	0.	129.35
4661	-1.2503	-9.5304	0.	129.6
4662	-0.7485	-9.5277	0.	129.84
4663	-1.7529	-9.5285	0.	128.69
4664	-2.2559	-9.5193	0.	127.17
4665	-2.7582	-9.5046	0.	124.85
4666	-3.2581	-9.4912	0.	121.43
4667	-3.7561	-9.4859	0.	117.31
4668	-4.2532	-9.4828	0.	114.96
4669	-4.7502	-9.479	0.	116.09
4670	-5.2495	-9.4787	0.	119.61
4671	-5.7512	-9.4782	0.	123.5
4672	-6.253	-9.4759	0.	126.39
4673	-6.7532	-9.4734	0.	128.21
4674	-7.2518	-9.4726	0.	129.2
4675	-7.7493	-9.4738	0.	129.68
4676	-8.2473	-9.4777	0.	129.92
4677	-8.7465	-9.4838	0.	130.1
4678	-9.2471	-9.4903	0.	130.38
4679	-9.4969	-9.2407	0.	130.43
4680	-9.4946	-8.7353	0.	130.09
4681	-9.4919	-8.2304	0.	129.64
4682	-9.4894	-7.7258	0.	129.14
4683	-9.4887	-7.2215	0.	128.69
4684	-9.4902	-6.7176	0.	128.34
4685	-9.4932	-6.2145	0.	128.17
4686	-9.4966	-5.7122	0.	128.23
4687	-9.4992	-5.2108	0.	128.51
4688	-9.5019	-4.7099	0.	128.93
4689	-9.5038	-4.2093	0.	129.35
4690	-9.5022	-3.71	0.	129.63
4691	-9.4987	-3.2113	0.	129.64
4692	-9.4955	-2.7129	0.	129.34
4693	-9.4929	-2.2151	0.	128.78
4694	-9.4924	-1.7179	0.	128.17
4695	-9.4948	-1.2209	0.	127.78
4696	-9.4999	-0.72372	0.	127.83
4697	-9.5065	-0.2252	0.	128.24
4698	-9.5115	0.27288	0.	128.78
4699	-9.5134	0.7695	0.	129.25
4700	-9.5133	1.2661	0.	129.53
4701	-9.5116	1.7628	0.	129.61
4702	-9.5091	2.2598	0.	129.51
4703	-9.5065	2.7572	0.	129.26
4704	-9.5043	3.255	0.	128.87
4705	-9.5026	3.7534	0.	128.35
4706	-9.5015	4.2522	0.	127.68
4707	-9.5008	4.7515	0.	126.83
4708	-9.5003	5.2511	0.	125.82
4709	-9.5	5.751	0.	124.75
4710	-9.4996	6.2509	0.	123.81
4711	-9.4992	6.7509	0.	123.21
4712	-9.4988	7.2508	0.	123.05
4713	-9.2484	7.0013	0.	123.77
4714	-9.4987	7.7507	0.	123.22
4715	-9.4989	8.2505	0.	123.6
4716	-9.4991	8.7503	0.	124.09
4717	-9.4995	9.2502	0.	124.61
4718	-9.2495	9.5002	0.	125.07
4719	-8.249	9.5012	0.	125.69
4720	-8.7492	9.5005	0.	125.43
4721	-7.7491	9.5024	0.	125.86
4722	-7.2493	9.5051	0.	126.08
4723	-6.7496	9.5102	0.	127.11
4724	-6.2483	9.5172	0.	127.89
4725	-5.7426	9.5194	0.	125.03
4726	-5.2361	9.5105	0.	119.48
4727	-4.7354	9.5132	0.	119.08
4728	-4.2398	9.5198	0.	122.82
4729	-3.7466	9.5137	0.	124.69
4730	-3.2528	9.5092	0.	124.88
4731	-2.757	9.5057	0.	124.68
4732	-2.2602	9.5029	0.	124.67
4733	-1.7626	9.5006	0.	124.8
4734	-1.2636	9.498	0.	125.
4735	-0.76383	9.4945	0.	125.27
4736	-0.26336	9.4896	0.	125.57
4737	0.23759	9.4836	0.	125.83
4738	0.73885	9.4783	0.	126.
4739	1.2405	9.4758	0.	126.07
4740	1.7427	9.4775	0.	126.06
4741	2.2455	9.4818	0.	126.
4742	2.7479	9.4849	0.	125.9
4743	3.2495	9.4865	0.	125.79
4744	4.2502	9.4897	0.	125.5
4745	3.7502	9.4879	0.	125.65
4746	4.7499	9.4916	0.	125.31
4747	5.2497	9.4936	0.	125.08
4748	5.0003	9.238	0.	125.24
4749	5.7497	9.4956	0.	124.81
4750	6.25	9.4962	0.	124.53
4751	6.7501	9.4956	0.	124.29
4752	7.2501	9.4954	0.	124.16
4753	7.7501	9.4966	0.	124.17
4754	8.2502	9.4987	0.	124.34
4755	8.7503	9.5	0.	124.63
4756	9.2503	9.5004	0.	124.94
4757	-7.7394	8.0052	0.	126.62
4758	-7.9931	8.2536	0.	126.15
4759	6.3295	-2.0034	0.	122.26
4760	-4.7785	4.0052	0.	120.67
4761	0.76412	-8.5345	0.	125.62
4762	2.5324	5.1574	0.	124.75
4763	2.7543	3.9357	0.	126.4
4764	2.6881	1.981	0.	128.45
4765	3.1903	1.9739	0.	126.55
4766	2.7888	5.4035	0.	124.41
4767	3.4489	2.219	0.	126.02
4768	1.9756	3.2086	0.	128.5
4769	-7.019	-2.5503	0.	129.2
4770	-6.7955	-2.8045	0.	125.16
4771	-2.5733	-2.1214	0.	122.8
4772	-3.2797	-3.5834	0.	125.73
4773	-3.0743	-3.833	0.	125.36
4774	-3.9519	-2.427	0.	127.65
4775	-3.5044	-3.3371	0.	126.2
4776	-3.7372	-3.1053	0.	126.35
4777	2.7907	6.4158	0.	124.3
4778	6.7397	7.4252	0.	123.08
4779	7.0446	7.1887	0.	121.1
4780	-8.4811	-1.1462	0.	127.6
4781	-8.4736	-1.6398	0.	128.52
4782	4.9542	-3.7612	0.	120.7
4783	4.8874	-3.2748	0.	122.33
4784	8.2674	7.5003	0.	122.9
4785	3.0178	-5.255	0.	135.29
4786	-5.2339	-2.1981	0.	125.33
4787	-5.5061	-2.3803	0.	115.42
4788	-0.24761	-6.3927	0.	124.63
4789	-0.64265	-6.0962	0.	123.89
4790	-0.69405	1.3645	0.	124.32
4791	-1.0196	1.4759	0.	122.4
4792	6.4814	7.6792	0.	124.13
4793	6.5412	7.1241	0.	124.47
4794	6.2489	7.2456	0.	125.33
4795	0.3412	7.6567	0.	127.16
4796	0.24465	7.1442	0.	128.43
4797	-4.8505	0.12242	0.	131.04
4798	-6.0332	3.7895	0.	126.38
4799	-6.0191	4.277	0.	127.1
4800	-6.4026	0.75958	0.	119.8
4801	-6.8808	0.69813	0.	124.23
4802	-7.1177	0.92644	0.	126.08
4803	-8.5002	5.7528	0.	127.52
4804	5.2295	-3.9972	0.	120.22
4805	4.7214	-4.0159	0.	120.22
4806	4.9824	-4.2562	0.	118.64
4807	8.25	-7.0001	0.	127.76
4808	6.7423	2.0002	0.	116.62
4809	-0.81106	1.0542	0.	124.25
4810	6.246	7.9757	0.	124.48
4811	-7.3151	2.5754	0.	126.19
4812	2.4357	1.7389	0.	129.87
4813	3.0168	4.176	0.	125.79
4814	3.2797	4.4118	0.	125.29
4815	1.9751	-1.8048	0.	132.44
4816	-2.4835	0.56563	0.	123.82
4817	-2.5679	0.2321	0.	123.77
4818	0.76382	5.3518	0.	125.1
4819	5.2271	1.9711	0.	130.48
4820	7.0375	-2.755	0.	121.11
4821	-0.89334	7.4719	0.	123.09
4822	4.7588	7.9565	0.	125.6
4823	4.2618	7.9522	0.	125.44
4824	-6.9703	-2.0479	0.	131.93
4825	-6.7626	-2.3301	0.	125.38
4826	-1.1944	-4.4865	0.	129.29
4827	-1.6547	-4.5191	0.	130.62
4828	1.643	-0.19703	0.	129.28
4829	-5.0704	-3.774	0.	118.03
4830	-5.0658	-3.3084	0.	120.45
4831	-7.1931	-1.7938	0.	134.18
4832	-6.6975	-1.8426	0.	124.85
4833	5.9123	5.7778	0.	126.97
4834	-7.7039	-1.8195	0.	132.33
4835	-7.9734	-2.0917	0.	131.08
4836	-8.2177	-1.864	0.	129.76
4837	2.9196	-6.771	0.	129.18
4838	-1.9674	4.16	0.	126.94
4839	-3.1441	-4.3055	0.	124.46
4840	7.3411e-003	0.25625	0.	124.31
4841	-0.22656	-3.5501e-002	0.	121.03
4842	0.28537	-1.3259e-002	0.	125.41
4843	-8.0673	0.85522	0.	129.28
4844	-8.3075	1.0809	0.	129.05
4845	-8.0648	1.3368	0.	128.52
4846	5.9985	2.7396	0.	124.69
4847	-0.11501	-6.8789	0.	126.85
4848	0.23351	3.2827	0.	128.72
4849	0.7335	3.3717	0.	129.23
4850	-6.9788	-7.5894	0.	128.29
4851	5.7407	-3.9905	0.	121.5
4852	-8.2523	5.0049	0.	128.99
4853	-8.5043	-3.1299	0.	130.93
4854	-8.5122	-3.6269	0.	130.56
4855	-1.1116	7.7334	0.	122.17
4856	4.5271	-2.0921	0.	122.98
4857	-6.4898	-2.1248	0.	118.35
4858	-6.5391	-2.5843	0.	121.33
4859	-6.276	-2.4119	0.	115.47
4860	-8.0583	1.8201	0.	127.96
4861	-8.7473	7.0021	0.	125.15
4862	-0.24513	-8.5692	0.	130.01
4863	0.261	-8.5493	0.	128.52
4864	8.1963e-003	-8.3202	0.	130.11
4865	5.253	7.9681	0.	125.61
4866	-2.0775	-2.2284	0.	118.84
4867	6.8461	6.8876	0.	122.49
4868	-8.0611	0.37126	0.	129.93
4869	0.51062	-8.7838	0.	127.35
4870	-0.74999	-8.5816	0.	130.19
4871	-1.0152	-8.3321	0.	129.99
4872	-8.5113	-4.6217	0.	129.27
4873	7.0009	-5.2513	0.	129.4
4874	-8.5027	4.7549	0.	128.4
4875	-8.5013	5.2534	0.	128.27
4876	0.14336	7.9293	0.	126.39
4877	1.6804	1.0324	0.	131.42
4878	8.5224	7.2576	0.	124.6
4879	8.7638	7.506	0.	125.16
4880	0.74448	2.237	0.	129.51
4881	0.81828	2.4667	0.	129.48
4882	-5.0198	4.2605	0.	123.85
4883	0.4305	6.873	0.	128.04
4884	-5.9973	-8.1948	0.	128.03
4885	-6.3491	2.5962	0.	124.31
4886	-6.835	2.5938	0.	125.22
4887	4.1395	-3.0625	0.	120.96
4888	3.6608	-3.0679	0.	121.54
4889	-4.994	-2.4289	0.	131.74
4890	-4.1741	0.91701	0.	127.93
4891	-4.3975	0.64701	0.	128.53
4892	8.554	6.2785	0.	134.28
4893	8.5373	6.7655	0.	126.89
4894	4.0095	8.2086	0.	125.37
4895	-8.492	-2.6325	0.	130.85
4896	2.2144	-3.5527	0.	128.8
4897	5.042	3.6739	0.	126.47
4898	4.7989	3.9046	0.	125.93
4899	-8.514	-4.124	0.	129.96
4900	1.2522	2.4892	0.	129.85
4901	-7.7464	-8.4142	0.	129.35
4902	-7.116	1.4012	0.	125.39
4903	5.7479	7.9831	0.	125.28
4904	6.3151	-3.0021	0.	123.35
4905	6.7917	-3.0056	0.	122.49
4906	6.4103	6.773	0.	126.
4907	6.665	6.5753	0.	125.54
4908	-4.4367	1.1318	0.	126.59
4909	-4.1817	1.4007	0.	126.37
4910	-8.0129	3.7681	0.	127.78
4911	-1.0854	-6.7639	0.	126.23
4912	4.609	-3.0459	0.	122.14
4913	-1.6677	-7.7783	0.	128.19
4914	-4.6601	0.86183	0.	127.21
4915	-4.9294	1.0712	0.	124.46
4916	-4.6196	0.38304	0.	128.78
4917	-8.2451	8.5027	0.	125.4
4918	-4.3077	-4.0212	0.	121.15
4919	-6.3088	-2.8538	0.	118.75
4920	-8.2355	-2.363	0.	131.37
4921	-1.3358	7.9911	0.	123.14
4922	-2.2591	3.8733	0.	126.81
4923	-8.4798	-2.1353	0.	130.04
4924	0.9572	2.265	0.	129.8
4925	-0.4989	-8.3404	0.	130.43
4926	-5.7692e-002	-7.3568	0.	129.7
4927	-0.97505	-6.2867	0.	124.38
4928	-4.8067	-4.0136	0.	117.92
4929	-1.4756	-8.016	0.	128.91
4930	-1.2672	-8.1414	0.	129.39
4931	-1.2372	-7.9527	0.	129.45
4932	-0.96092	-7.8352	0.	129.65
4933	-0.76407	-8.0909	0.	130.23
4934	-0.68538	-7.6171	0.	129.65
4935	-0.48853	-7.8728	0.	130.22
4936	-0.24556	-8.0914	0.	130.53
4937	-0.2473	-7.6175	0.	130.53
4938	-4.3366e-003	-7.8361	0.	130.84
4939	6.118	6.8945	0.	126.87
4940	6.2495	6.4336	0.	128.95
4941	-6.2451	-7.9249	0.	128.38
4942	-6.7462	-7.8869	0.	128.31
4943	-2.2275	-1.929	0.	117.14
4944	6.5042	6.2359	0.	128.46
4945	6.0836	6.0986	0.	129.73
4946	-1.1259	1.1762	0.	120.39
4947	-6.0457	-2.6814	0.	113.01
4948	-5.8165	-2.9558	0.	116.54
4949	-5.7761	-2.5255	0.	113.04
4950	-5.5469	-2.7999	0.	116.73
4951	-5.3093	-3.0486	0.	119.52
4952	-5.2662	-2.611	0.	121.43
4953	-5.0286	-2.8597	0.	124.22
4954	-4.7848	-3.0911	0.	123.31
4955	-4.7461	-2.6516	0.	127.41
4956	-4.5022	-2.8829	0.	126.64
4957	-4.2581	-3.1056	0.	125.54
4958	-4.2211	-2.6576	0.	127.95
4959	-3.9771	-2.8802	0.	126.9
4960	-4.	-5.	0.	98.567
4961	-6.	-5.	0.	99.276
4962	-4.	-6.	0.	87.786
4963	-6.	-6.	0.	101.78
4964	-4.5	-5.	0.	112.29
4965	-5.	-5.	0.	111.23
4966	-5.5	-5.	0.	114.52
4967	-4.	-5.5	0.	98.62
4968	-6.	-5.5	0.	105.48
4969	-5.5	-6.	0.	116.72
4970	-5.	-6.	0.	109.03
4971	-4.5	-6.	0.	103.54
4972	-5.5	-5.5	0.	113.9
4973	-5.	-5.5	0.	112.96
4974	-4.5	-5.5	0.	106.66
4975	-4.25	-5.	0.	105.34
4976	-4.	-5.25	0.	98.521
4977	-5.75	-5.	0.	106.86
4978	-6.	-5.25	0.	102.35
4979	-4.	-5.75	0.	93.102
4980	-4.25	-6.	0.	95.649
4981	-6.	-5.75	0.	103.61
4982	-5.75	-6.	0.	109.15
4983	-4.75	-5.	0.	111.76
4984	-4.5	-5.25	0.	109.47
4985	-5.25	-5.	0.	112.87
4986	-5.	-5.25	0.	112.09
4987	-5.5	-5.25	0.	114.18
4988	-4.25	-5.5	0.	102.54
4989	-5.75	-5.5	0.	109.67
4990	-5.25	-6.	0.	112.87
4991	-5.5	-5.75	0.	115.28
4992	-4.75	-6.	0.	106.25
4993	-5.	-5.75	0.	110.98
4994	-4.5	-5.75	0.	105.08
4995	-5.25	-5.5	0.	113.42
4996	-4.75	-5.5	0.	109.78
4997	0.	-1.	0.	94.965
4998	-1.	-1.	0.	108.62
4999	0.	-3.	0.	99.527
5000	-1.	-3.	0.	97.316
5001	-0.5	-1.	0.	109.81
5002	0.	-1.5	0.	101.61
5003	0.	-2.	0.	103.4
5004	0.	-2.5	0.	105.08
5005	-1.	-1.5	0.	113.16
5006	-1.	-2.	0.	104.37
5007	-1.	-2.5	0.	99.814
5008	-0.5	-3.	0.	113.13
5009	-0.5	-1.5	0.	108.74
5010	-0.5	-2.	0.	109.96
5011	-0.5	-2.5	0.	109.22
5012	-0.25	-1.	0.	102.32
5013	0.	-1.25	0.	98.287
5014	-0.75	-1.	0.	109.14
5015	-1.	-1.25	0.	110.71
5016	0.	-2.75	0.	102.29
5017	-0.25	-3.	0.	106.27
5018	-1.	-2.75	0.	98.56
5019	-0.75	-3.	0.	105.19
5020	-0.5	-1.25	0.	109.13
5021	0.	-1.75	0.	102.42
5022	-0.25	-1.5	0.	105.16
5023	0.	-2.25	0.	104.16
5024	-0.25	-2.	0.	106.66
5025	-0.25	-2.5	0.	107.12
5026	-1.	-1.75	0.	108.58
5027	-0.75	-1.5	0.	110.89
5028	-1.	-2.25	0.	101.91
5029	-0.75	-2.	0.	107.02
5030	-0.75	-2.5	0.	104.49
5031	-0.5	-2.75	0.	111.12
5032	-0.5	-1.75	0.	109.27
5033	-0.5	-2.25	0.	109.58
5034	8.	1.	0.	98.491
5035	6.	1.	0.	99.694
5036	8.	-1.	0.	98.864
5037	6.	-1.	0.	97.196
5038	7.5	1.	0.	112.14
5039	7.	1.	0.	109.98
5040	6.5	1.	0.	113.07
5041	8.	0.5	0.	102.78
5042	8.	0.	0.	101.69
5043	8.	-0.5	0.	102.78
5044	6.	0.5	0.	103.74
5045	6.	0.	0.	101.75
5046	6.	-0.5	0.	102.06
5047	6.5	-1.	0.	111.77
5048	7.	-1.	0.	109.36
5049	7.5	-1.	0.	112.18
5050	7.5	-3.4466e-017	0.	109.15
5051	7.5	-0.5	0.	109.75
5052	6.5	-0.5	0.	108.99
5053	6.5	3.4312e-017	0.	108.98
5054	6.5	0.5	0.	110.45
5055	7.5	0.5	0.	109.94
5056	7.	0.5	0.	112.47
5057	7.	-0.5	0.	111.82
5058	7.	-4.139e-017	0.	111.95
5059	7.75	1.	0.	105.25
5060	8.	0.75	0.	100.63
5061	6.25	1.	0.	106.32
5062	6.	0.75	0.	101.71
5063	8.	-0.75	0.	100.82
5064	7.75	-1.	0.	105.45
5065	6.	-0.75	0.	99.593
5066	6.25	-1.	0.	104.41
5067	7.25	1.	0.	111.06
5068	7.5	0.75	0.	111.01
5069	6.75	1.	0.	111.52
5070	7.	0.75	0.	111.21
5071	6.5	0.75	0.	111.74
5072	8.	0.25	0.	102.21
5073	7.75	0.5	0.	106.35
5074	8.	-0.25	0.	102.21
5075	7.75	-1.7233e-017	0.	105.42
5076	7.75	-0.5	0.	106.25
5077	6.	0.25	0.	102.72
5078	6.25	0.5	0.	107.09
5079	6.	-0.25	0.	101.85
5080	6.25	1.7156e-017	0.	105.36
5081	6.25	-0.5	0.	105.5
5082	6.75	-1.	0.	110.56
5083	6.5	-0.75	0.	110.35
5084	7.25	-1.	0.	110.77
5085	7.	-0.75	0.	110.57
5086	7.5	-0.75	0.	110.93
5087	7.5	-0.25	0.	109.45
5088	7.5	0.25	0.	109.54
5089	7.25	-3.7928e-017	0.	110.55
5090	7.25	-0.5	0.	110.77
5091	6.5	-0.25	0.	108.96
5092	6.75	-0.5	0.	110.39
5093	6.5	0.25	0.	109.71
5094	6.75	-3.5388e-018	0.	110.46
5095	6.75	0.5	0.	111.45
5096	7.25	0.5	0.	111.2
5097	7.	0.25	0.	112.21
5098	7.	-0.25	0.	111.88
5099	-3.	7.	0.	103.97
5100	-5.	7.	0.	89.873
5101	-3.	5.	0.	100.19
5102	-5.	5.	0.	97.971
5103	-3.5	7.	0.	119.53
5104	-4.	7.	0.	116.09
5105	-4.5	7.	0.	112.94
5106	-3.	6.5	0.	108.52
5107	-3.	6.	0.	104.18
5108	-3.	5.5	0.	103.09
5109	-5.	6.5	0.	96.568
5110	-5.	6.	0.	98.26
5111	-5.	5.5	0.	101.21
5112	-4.5	5.	0.	111.68
5113	-4.	5.	0.	109.98
5114	-3.5	5.	0.	113.52
5115	-4.	6.	0.	112.66
5116	-4.	6.5	0.	115.51
5117	-3.5	6.5	0.	115.
5118	-3.5	6.	0.	110.64
5119	-3.5	5.5	0.	110.13
5120	-4.	5.5	0.	112.07
5121	-4.5	5.5	0.	108.73
5122	-4.5	6.	0.	107.18
5123	-4.5	6.5	0.	108.4
5124	-3.25	7.	0.	111.65
5125	-3.	6.75	0.	106.23
5126	-4.75	7.	0.	101.34
5127	-5.	6.75	0.	93.137
5128	-3.	5.25	0.	101.56
5129	-3.25	5.	0.	106.78
5130	-5.	5.25	0.	99.588
5131	-4.75	5.	0.	104.76
5132	-3.75	7.	0.	117.79
5133	-3.5	6.75	0.	117.24
5134	-4.25	7.	0.	114.49
5135	-4.	6.75	0.	115.79
5136	-4.5	6.75	0.	110.66
5137	-3.	6.25	0.	106.3
5138	-3.25	6.5	0.	111.73
5139	-3.	5.75	0.	103.5
5140	-3.25	6.	0.	107.39
5141	-3.25	5.5	0.	106.57
5142	-5.	6.25	0.	97.35
5143	-4.75	6.5	0.	102.46
5144	-5.	5.75	0.	99.717
5145	-4.75	6.	0.	102.71
5146	-4.75	5.5	0.	104.96
5147	-4.25	5.	0.	110.83
5148	-4.5	5.25	0.	110.18
5149	-3.75	5.	0.	111.74
5150	-4.	5.25	0.	111.01
5151	-3.5	5.25	0.	111.81
5152	-4.	6.25	0.	114.08
5153	-3.75	6.	0.	111.64
5154	-4.	5.75	0.	112.36
5155	-4.25	6.	0.	109.92
5156	-3.75	6.5	0.	115.19
5157	-4.25	6.5	0.	111.91
5158	-3.5	6.25	0.	112.8
5159	-3.5	5.75	0.	110.34
5160	-3.75	5.5	0.	111.09
5161	-4.25	5.5	0.	110.39
5162	-4.5	5.75	0.	107.94
5163	-4.5	6.25	0.	107.75
5164	-6.	7.	0.	108.83
5165	-7.	7.	0.	101.01
5166	-6.	6.	0.	101.97
5167	-7.	6.	0.	101.02
5168	-6.5	7.	0.	120.01
5169	-6.	6.5	0.	109.91
5170	-7.	6.5	0.	106.66
5171	-6.5	6.	0.	117.4
5172	-6.5	6.5	0.	116.74
5173	-6.25	7.	0.	114.38
5174	-6.	6.75	0.	109.36
5175	-6.75	7.	0.	110.48
5176	-7.	6.75	0.	103.82
5177	-6.	6.25	0.	105.9
5178	-6.25	6.	0.	109.68
5179	-7.	6.25	0.	103.83
5180	-6.75	6.	0.	109.2
5181	-6.5	6.75	0.	118.32
5182	-6.25	6.5	0.	113.29
5183	-6.75	6.5	0.	111.67
5184	-6.5	6.25	0.	117.02
5185	-3.42	-5.9	0.	74.893
5186	-2.52	-6.64	0.	97.978
5187	-2.32	-5.49	0.	65.727
5188	-3.12	-6.1467	0.	101.87
5189	-2.82	-6.3933	0.	95.578
5190	-3.0533	-5.7633	0.	113.73
5191	-2.6867	-5.6267	0.	108.64
5192	-2.4533	-6.2567	0.	101.55
5193	-2.3867	-5.8733	0.	103.18
5194	-2.6995	-6.1562	0.	103.18
5195	-2.6526	-5.8901	0.	101.9
5196	-2.9074	-5.9851	0.	107.71
5197	-3.27	-6.0233	0.	82.022
5198	-3.2367	-5.8317	0.	88.495
5199	-2.67	-6.5167	0.	94.843
5200	-2.4867	-6.4483	0.	97.068
5201	-2.5033	-5.5583	0.	85.946
5202	-2.3533	-5.6817	0.	83.611
5203	-2.97	-6.27	0.	98.655
5204	-3.0137	-6.0659	0.	104.27
5205	-2.7598	-6.2748	0.	99.33
5206	-2.87	-5.695	0.	111.02
5207	-2.9804	-5.8742	0.	109.98
5208	-2.6696	-5.7584	0.	105.2
5209	-2.42	-6.065	0.	102.19
5210	-2.5764	-6.2064	0.	102.25
5211	-2.5196	-5.8817	0.	102.54
5212	-2.676	-6.0232	0.	102.5
5213	-2.8035	-6.0707	0.	105.27
5214	-2.78	-5.9376	0.	104.68
5215	1.78	-7.28	0.	99.771
5216	2.09	-5.94	0.	62.611
5217	0.78	-6.34	0.	65.002
5218	1.8833	-6.8333	0.	98.914
5219	1.9867	-6.3867	0.	101.48
5220	1.4467	-6.9667	0.	91.31
5221	1.1133	-6.6533	0.	94.872
5222	1.6533	-6.0733	0.	108.24
5223	1.2167	-6.2067	0.	109.21
5224	1.6032	-6.6958	0.	100.48
5225	1.372	-6.4784	0.	102.65
5226	1.6749	-6.3859	0.	98.946
5227	1.8317	-7.0567	0.	96.892
5228	1.6133	-7.1233	0.	93.827
5229	2.0383	-6.1633	0.	81.599
5230	1.8717	-6.0067	0.	84.719
5231	0.94667	-6.4967	0.	75.301
5232	0.99833	-6.2733	0.	82.219
5233	1.935	-6.61	0.	100.04
5234	1.7433	-6.7645	0.	99.578
5235	1.8308	-6.3863	0.	100.2
5236	1.28	-6.81	0.	93.005
5237	1.5249	-6.8312	0.	95.876
5238	1.2427	-6.5659	0.	98.375
5239	1.435	-6.14	0.	108.61
5240	1.6641	-6.2296	0.	103.56
5241	1.2943	-6.3425	0.	105.44
5242	1.4876	-6.5871	0.	101.44
5243	1.639	-6.5408	0.	99.685
5244	1.5234	-6.4321	0.	100.69
5245	-3.98	-8.13	0.	90.69
5246	-3.68	-6.36	0.	80.702
5247	-5.36	-6.98	0.	79.91
5248	-3.905	-7.6875	0.	98.185
5249	-3.83	-7.245	0.	101.22
5250	-3.755	-6.8025	0.	103.85
5251	-4.325	-7.8425	0.	96.859
5252	-4.67	-7.555	0.	103.43
5253	-5.015	-7.2675	0.	102.89
5254	-4.1	-6.515	0.	105.99
5255	-4.52	-6.67	0.	102.78
5256	-4.94	-6.825	0.	108.68
5257	-4.7205	-7.0347	0.	103.6
5258	-4.1701	-6.985	0.	101.63
5259	-4.4257	-7.2663	0.	102.42
5260	-4.1474	-7.513	0.	99.526
5261	-3.9425	-7.9088	0.	92.653
5262	-4.1525	-7.9862	0.	92.208
5263	-3.7175	-6.5813	0.	91.793
5264	-3.89	-6.4375	0.	92.866
5265	-5.1875	-7.1238	0.	89.021
5266	-5.15	-6.9025	0.	91.716
5267	-3.8675	-7.4662	0.	99.648
5268	-4.0262	-7.6002	0.	98.801
5269	-3.7925	-7.0237	0.	102.53
5270	-4.	-7.115	0.	101.4
5271	-3.9887	-7.379	0.	100.36
5272	-3.9275	-6.6588	0.	104.9
5273	-3.9625	-6.8937	0.	102.73
5274	-4.4975	-7.6988	0.	100.14
5275	-4.2362	-7.6777	0.	98.15
5276	-4.8425	-7.4113	0.	103.05
5277	-4.5479	-7.4107	0.	102.92
5278	-4.8677	-7.1511	0.	103.06
5279	-4.31	-6.5925	0.	104.31
5280	-4.73	-6.7475	0.	105.57
5281	-4.6202	-6.8524	0.	103.18
5282	-4.345	-6.8275	0.	102.2
5283	-4.8302	-6.9299	0.	105.93
5284	-4.5731	-7.1505	0.	102.99
5285	-4.2979	-7.1256	0.	102.02
5286	-4.2865	-7.3897	0.	100.95
5287	-6.83	-1.21	0.	73.111
5288	-5.44	-1.85	0.	73.234
5289	-5.58	-0.32	0.	88.789
5290	-6.3667	-1.4233	0.	106.19
5291	-5.9033	-1.6367	0.	102.64
5292	-6.4133	-0.91333	0.	100.15
5293	-5.9967	-0.61667	0.	95.822
5294	-5.4867	-1.34	0.	100.43
5295	-5.5333	-0.83	0.	99.081
5296	-5.8645	-0.94014	0.	98.916
5297	-5.8321	-1.2939	0.	97.854
5298	-6.1535	-1.1459	0.	102.69
5299	-6.5983	-1.3167	0.	85.171
5300	-6.6217	-1.0617	0.	82.198
5301	-5.6717	-1.7433	0.	86.705
5302	-5.4633	-1.595	0.	85.798
5303	-5.7883	-0.46833	0.	90.552
5304	-5.5567	-0.575	0.	91.983
5305	-6.135	-1.53	0.	104.31
5306	-6.2601	-1.2846	0.	103.96
5307	-5.8677	-1.4653	0.	100.19
5308	-6.205	-0.765	0.	97.884
5309	-6.2834	-1.0296	0.	100.99
5310	-5.9306	-0.7784	0.	97.305
5311	-5.51	-1.085	0.	99.56
5312	-5.6594	-1.317	0.	99.131
5313	-5.6989	-0.88507	0.	98.911
5314	-5.8483	-1.117	0.	98.378
5315	-6.009	-1.043	0.	100.71
5316	-5.9928	-1.2199	0.	100.18
5317	4.74	-1.18	0.	68.067
5318	3.86	0.43	0.	107.35
5319	2.91	-1.14	0.	66.203
5320	4.52	-0.7775	0.	106.67
5321	4.3	-0.375	0.	102.97
5322	4.08	2.75e-002	0.	97.513
5323	4.2825	-1.17	0.	119.47
5324	3.825	-1.16	0.	109.91
5325	3.3675	-1.15	0.	115.35
5326	3.6225	3.75e-002	0.	96.461
5327	3.385	-0.355	0.	102.75
5328	3.1475	-0.7475	0.	105.58
5329	4.0417	-0.87335	0.	106.15
5330	3.5572	-0.82531	0.	105.98
5331	3.8453	-0.20097	0.	104.52
5332	3.9929	-0.50533	0.	103.16
5333	3.6728	-0.49132	0.	103.02
5334	4.63	-0.97875	0.	86.482
5335	4.5113	-1.175	0.	92.706
5336	3.97	0.22875	0.	101.04
5337	3.7413	0.23375	0.	100.54
5338	3.1388	-1.145	0.	89.813
5339	3.0287	-0.94375	0.	85.005
5340	4.41	-0.57625	0.	104.81
5341	4.2808	-0.82543	0.	106.38
5342	4.19	-0.17375	0.	100.17
5343	4.1465	-0.44016	0.	103.06
5344	3.9627	-8.6737e-002	0.	101.
5345	4.0538	-1.165	0.	114.69
5346	4.1621	-1.0217	0.	112.76
5347	3.5963	-1.155	0.	112.63
5348	3.9333	-1.0167	0.	108.
5349	3.4623	-0.98766	0.	110.62
5350	3.5038	-0.15875	0.	99.573
5351	3.7339	-8.1737e-002	0.	100.49
5352	3.2662	-0.55125	0.	104.15
5353	3.5289	-0.42316	0.	102.88
5354	3.3523	-0.78641	0.	105.73
5355	3.7994	-0.84933	0.	105.93
5356	4.0173	-0.68934	0.	104.63
5357	3.615	-0.65832	0.	104.47
5358	3.9191	-0.35315	0.	103.84
5359	3.7591	-0.34615	0.	103.77
5360	3.8329	-0.49832	0.	103.08
5361	-1.11	-1.43	0.	78.451
5362	-1.55	0.25	0.	99.009
5363	-2.78	-0.97	0.	77.352
5364	-1.22	-1.01	0.	109.76
5365	-1.33	-0.59	0.	103.37
5366	-1.44	-0.17	0.	99.54
5367	-1.5246	-1.3158	0.	118.2
5368	-1.9427	-1.2006	0.	110.02
5369	-2.3613	-1.0853	0.	114.11
5370	-1.8575	-5.5e-002	0.	98.058
5371	-2.165	-0.36	0.	104.57
5372	-2.4725	-0.665	0.	106.93
5373	-1.8686	-0.82203	0.	107.85
5374	-1.6836	-1.0664	0.	104.51
5375	-1.834	-0.4321	0.	105.3
5376	-2.1934	-0.65652	0.	105.65
5377	-1.165	-1.22	0.	93.916
5378	-1.3173	-1.3729	0.	98.041
5379	-1.495	4.e-002	0.	97.677
5380	-1.7038	9.75e-002	0.	97.
5381	-2.5707	-1.0277	0.	93.538
5382	-2.6263	-0.8175	0.	89.346
5383	-1.275	-0.8	0.	106.56
5384	-1.4518	-1.0382	0.	107.1
5385	-1.385	-0.38	0.	101.38
5386	-1.5993	-0.70601	0.	105.49
5387	-1.637	-0.30105	0.	102.4
5388	-1.7336	-1.2582	0.	114.09
5389	-1.6041	-1.1911	0.	111.33
5390	-2.152	-1.143	0.	112.06
5391	-1.8131	-1.1335	0.	107.27
5392	-2.1149	-0.95367	0.	110.97
5393	-2.2774	-0.87092	0.	109.79
5394	-2.0113	-0.2075	0.	101.29
5395	-1.8458	-0.24355	0.	101.66
5396	-2.3187	-0.5125	0.	105.64
5397	-2.1792	-0.50826	0.	105.09
5398	-2.3329	-0.66076	0.	106.13
5399	-1.7761	-0.94421	0.	106.14
5400	-1.8513	-0.62707	0.	106.55
5401	-2.0137	-0.54431	0.	105.35
5402	-2.14	5.98	0.	51.432
5403	-1.52	4.88	0.	113.35
5404	-0.87	5.96	0.	51.088
5405	-1.9333	5.6133	0.	96.831
5406	-1.7267	5.2467	0.	93.872
5407	-1.7167	5.9733	0.	116.
5408	-1.2933	5.9667	0.	113.8
5409	-1.3033	5.24	0.	91.234
5410	-1.0867	5.6	0.	92.682
5411	-1.3603	5.6873	0.	101.26
5412	-1.6546	5.692	0.	101.77
5413	-1.5112	5.4382	0.	102.39
5414	-2.0367	5.7967	0.	73.028
5415	-1.9283	5.9767	0.	82.842
5416	-1.6233	5.0633	0.	101.74
5417	-1.4117	5.06	0.	100.48
5418	-1.0817	5.9633	0.	80.839
5419	-0.97833	5.78	0.	69.987
5420	-1.83	5.43	0.	95.197
5421	-1.794	5.6527	0.	99.143
5422	-1.619	5.3424	0.	98.018
5423	-1.505	5.97	0.	114.78
5424	-1.6856	5.8327	0.	108.79
5425	-1.3268	5.827	0.	107.36
5426	-1.195	5.42	0.	91.801
5427	-1.4073	5.3391	0.	96.722
5428	-1.2235	5.6437	0.	96.77
5429	-1.5074	5.6897	0.	101.38
5430	-1.4358	5.5627	0.	101.72
5431	-1.5829	5.5651	0.	101.98
5432	7.82	4.34	0.	100.44
5433	8.11	5.6	0.	59.189
5434	6.88	5.23	0.	61.255
5435	7.9167	4.76	0.	97.346
5436	8.0133	5.18	0.	99.328
5437	7.5067	4.6367	0.	87.959
5438	7.1933	4.9333	0.	91.582
5439	7.7	5.4767	0.	105.62
5440	7.29	5.3533	0.	107.66
5441	7.7212	5.1824	0.	97.139
5442	7.4363	5.0974	0.	100.88
5443	7.654	4.8913	0.	98.672
5444	7.8683	4.55	0.	96.097
5445	7.6633	4.4883	0.	92.425
5446	8.0617	5.39	0.	78.765
5447	7.905	5.5383	0.	81.679
5448	7.0367	5.0817	0.	70.98
5449	7.085	5.2917	0.	78.813
5450	7.965	4.97	0.	98.211
5451	7.7853	4.8256	0.	97.872
5452	7.8673	5.1812	0.	98.214
5453	7.35	4.785	0.	89.635
5454	7.5803	4.764	0.	93.302
5455	7.3148	5.0154	0.	95.798
5456	7.495	5.415	0.	106.52
5457	7.7106	5.3296	0.	101.35
5458	7.3631	5.2254	0.	103.75
5459	7.5787	5.1399	0.	98.89
5460	7.6876	5.0368	0.	97.875
5461	7.5451	4.9943	0.	99.631
5462	-5.54	8.67	0.	72.148
5463	-5.36	7.25	0.	104.43
5464	-4.23	8.12	0.	74.118
5465	-5.48	8.1967	0.	107.28
5466	-5.42	7.7233	0.	108.57
5467	-5.1033	8.4867	0.	109.57
5468	-4.6667	8.3033	0.	107.3
5469	-4.9833	7.54	0.	97.777
5470	-4.6067	7.83	0.	97.779
5471	-5.1582	8.1652	0.	103.83
5472	-4.8553	8.038	0.	105.89
5473	-5.1166	7.8368	0.	106.43
5474	-5.51	8.4333	0.	88.687
5475	-5.3217	8.5783	0.	89.738
5476	-5.39	7.4867	0.	103.84
5477	-5.1717	7.395	0.	99.231
5478	-4.4483	8.2117	0.	86.548
5479	-4.4183	7.975	0.	82.171
5480	-5.45	7.96	0.	107.75
5481	-5.3191	8.1809	0.	105.55
5482	-5.2683	7.7801	0.	107.32
5483	-4.885	8.395	0.	108.35
5484	-5.1308	8.3259	0.	106.67
5485	-4.761	8.1707	0.	106.21
5486	-4.795	7.685	0.	97.596
5487	-5.05	7.6884	0.	102.08
5488	-4.731	7.934	0.	101.47
5489	-5.0068	8.1016	0.	104.8
5490	-5.1374	8.001	0.	105.13
5491	-4.986	7.9374	0.	106.09
5492	6.	-6.	0.	96.512
5493	4.	-6.	0.	96.509
5494	6.	-8.	0.	96.991
5495	4.	-8.	0.	97.396
5496	5.5	-6.	0.	110.16
5497	5.	-6.	0.	107.6
5498	4.5	-6.	0.	110.14
5499	6.	-6.5	0.	100.73
5500	6.	-7.	0.	99.529
5501	6.	-7.5	0.	100.74
5502	4.	-6.5	0.	100.24
5503	4.	-7.	0.	99.387
5504	4.	-7.5	0.	101.45
5505	4.5	-8.	0.	110.82
5506	5.	-8.	0.	107.92
5507	5.5	-8.	0.	110.27
5508	5.	-7.	0.	109.75
5509	5.	-6.5	0.	109.86
5510	5.5	-6.5	0.	107.6
5511	5.5	-7.	0.	106.91
5512	5.5	-7.5	0.	107.78
5513	5.	-7.5	0.	110.2
5514	4.5	-7.5	0.	108.03
5515	4.5	-7.	0.	106.76
5516	4.5	-6.5	0.	107.29
5517	5.75	-6.	0.	103.26
5518	6.	-6.25	0.	98.611
5519	4.25	-6.	0.	103.25
5520	4.	-6.25	0.	98.353
5521	6.	-7.75	0.	98.858
5522	5.75	-8.	0.	103.57
5523	4.	-7.75	0.	99.404
5524	4.25	-8.	0.	104.03
5525	5.25	-6.	0.	108.88
5526	5.5	-6.25	0.	108.85
5527	4.75	-6.	0.	108.87
5528	5.	-6.25	0.	108.72
5529	4.5	-6.25	0.	108.69
5530	6.	-6.75	0.	100.11
5531	5.75	-6.5	0.	104.15
5532	6.	-7.25	0.	100.11
5533	5.75	-7.	0.	103.22
5534	5.75	-7.5	0.	104.25
5535	4.	-6.75	0.	99.768
5536	4.25	-6.5	0.	103.75
5537	4.	-7.25	0.	100.39
5538	4.25	-7.	0.	103.07
5539	4.25	-7.5	0.	104.72
5540	4.75	-8.	0.	109.37
5541	4.5	-7.75	0.	109.4
5542	5.25	-8.	0.	109.09
5543	5.	-7.75	0.	109.05
5544	5.5	-7.75	0.	109.
5545	5.	-6.75	0.	109.8
5546	5.25	-7.	0.	108.33
5547	5.	-7.25	0.	109.97
5548	4.75	-7.	0.	108.25
5549	5.25	-6.5	0.	108.72
5550	4.75	-6.5	0.	108.57
5551	5.5	-6.75	0.	107.25
5552	5.5	-7.25	0.	107.34
5553	5.25	-7.5	0.	108.98
5554	4.75	-7.5	0.	109.1
5555	4.5	-7.25	0.	107.38
5556	4.5	-6.75	0.	107.01
