Node Number	X Location (mm)	Y Location (mm)	Z Location (mm)	Equivalent (von-Mises) Stress (MPa)
1	-8.	4.	0.	134.31
2	-8.	3.	0.	133.3
3	-7.	4.	0.	134.87
4	-7.	3.	0.	132.32
5	-7.	-2.	0.	134.86
6	-7.	-3.	0.	134.17
7	-5.	-2.	0.	132.63
8	-5.	-3.	0.	131.62
9	2.	8.	0.	138.21
10	2.	6.	0.	135.56
11	4.	8.	0.	135.38
12	4.	6.	0.	137.73
13	1.	2.	0.	134.25
14	1.	0.	0.	134.95
15	3.	2.	0.	133.24
16	3.	0.	0.	133.16
17	-6.	-6.	0.	132.09
18	-6.	-8.	0.	131.85
19	-4.	-6.	0.	133.66
20	-4.	-8.	0.	132.65
21	6.	9.	0.	140.79
22	6.	7.	0.	137.52
23	8.	9.	0.	139.32
24	8.	7.	0.	136.5
25	6.	1.	0.	132.35
26	6.	0.	0.	133.42
27	7.	1.	0.	133.13
28	7.	0.	0.	133.24
29	3.	-4.	0.	133.28
30	3.	-5.	0.	133.22
31	5.	-4.	0.	134.19
32	5.	-5.	0.	134.26
33	0.	8.	0.	134.39
34	0.	7.	0.	132.38
35	1.	8.	0.	136.86
36	1.	7.	0.	137.23
37	-6.	6.	0.	132.35
38	-6.	5.	0.	135.07
39	-5.	6.	0.	133.36
40	-5.	5.	0.	133.79
41	10.	10.	0.	125.16
42	-10.	10.	0.	125.
43	10.	-10.	0.	126.73
44	-10.	-10.	0.	130.74
45	-8.	3.5	0.	143.26
46	-7.5	4.	0.	112.04
47	-7.5	3.	0.	110.89
48	-7.	3.5	0.	142.58
49	-7.	-2.5	0.	143.09
50	-6.5	-2.	0.	115.49
51	-6.	-2.	0.	120.25
52	-5.5	-2.	0.	115.02
53	-6.5	-3.	0.	115.95
54	-6.	-3.	0.	119.69
55	-5.5	-3.	0.	113.68
56	-5.	-2.5	0.	140.61
57	2.	7.5	0.	143.69
58	2.	7.	0.	146.57
59	2.	6.5	0.	146.45
60	2.5	8.	0.	114.25
61	3.	8.	0.	118.23
62	3.5	8.	0.	113.17
63	2.5	6.	0.	114.28
64	3.	6.	0.	118.82
65	3.5	6.	0.	115.07
66	4.	7.5	0.	144.2
67	4.	7.	0.	146.54
68	4.	6.5	0.	146.53
69	1.	1.5	0.	143.23
70	1.	1.	0.	144.45
71	1.	0.5	0.	143.44
72	1.5	2.	0.	112.65
73	2.	2.	0.	116.38
74	2.5	2.	0.	111.76
75	1.5	0.	0.	112.96
76	2.	0.	0.	116.74
77	2.5	0.	0.	111.93
78	3.	1.5	0.	141.59
79	3.	1.	0.	142.54
80	3.	0.5	0.	141.32
81	-6.	-6.5	0.	140.74
82	-6.	-7.	0.	141.99
83	-6.	-7.5	0.	140.88
84	-5.5	-6.	0.	110.45
85	-5.	-6.	0.	115.34
86	-4.5	-6.	0.	111.96
87	-5.5	-8.	0.	110.6
88	-5.	-8.	0.	114.69
89	-4.5	-8.	0.	110.74
90	-4.	-6.5	0.	142.21
91	-4.	-7.	0.	143.05
92	-4.	-7.5	0.	141.67
93	6.	8.5	0.	147.94
94	6.	8.	0.	148.34
95	6.	7.5	0.	146.29
96	6.5	9.	0.	119.63
97	7.	9.	0.	126.1
98	7.5	9.	0.	119.84
99	6.5	7.	0.	115.77
100	7.	7.	0.	120.57
101	7.5	7.	0.	116.32
102	8.	8.5	0.	148.05
103	8.	8.	0.	149.07
104	8.	7.5	0.	147.23
105	6.	0.5	0.	141.68
106	6.5	1.	0.	110.34
107	6.5	0.	0.	110.88
108	7.	0.5	0.	142.63
109	3.	-4.5	0.	141.53
110	3.5	-4.	0.	115.43
111	4.	-4.	0.	120.98
112	4.5	-4.	0.	116.29
113	3.5	-5.	0.	115.56
114	4.	-5.	0.	120.77
115	4.5	-5.	0.	115.82
116	5.	-4.5	0.	142.62
117	0.	7.5	0.	143.08
118	0.5	8.	0.	112.14
119	0.5	7.	0.	110.76
120	1.	7.5	0.	145.38
121	-6.	5.5	0.	142.85
122	-5.5	6.	0.	110.89
123	-5.5	5.	0.	111.83
124	-5.	5.5	0.	142.73
125	9.5	10.	0.	125.74
126	9.	10.	0.	127.63
127	8.5	10.	0.	127.22
128	8.	10.	0.	122.57
129	7.5	10.	0.	118.28
130	7.	10.	0.	116.39
131	6.5	10.	0.	119.29
132	6.	10.	0.	124.86
133	5.5	10.	0.	130.75
134	5.	10.	0.	131.42
135	4.5	10.	0.	128.52
136	4.	10.	0.	125.01
137	3.5	10.	0.	122.13
138	3.	10.	0.	120.8
139	2.5	10.	0.	121.15
140	2.	10.	0.	122.49
141	1.5	10.	0.	123.71
142	1.	10.	0.	124.21
143	0.5	10.	0.	124.53
144	-5.2042e-015	10.	0.	125.3
145	-0.5	10.	0.	126.45
146	-1.	10.	0.	127.31
147	-1.5	10.	0.	127.58
148	-2.	10.	0.	127.39
149	-2.5	10.	0.	127.
150	-3.	10.	0.	126.54
151	-3.5	10.	0.	126.05
152	-4.	10.	0.	125.55
153	-4.5	10.	0.	125.09
154	-5.	10.	0.	124.7
155	-5.5	10.	0.	124.45
156	-6.	10.	0.	124.34
157	-6.5	10.	0.	124.38
158	-7.	10.	0.	124.49
159	-7.5	10.	0.	124.65
160	-8.	10.	0.	124.79
161	-8.5	10.	0.	124.9
162	-9.	10.	0.	124.97
163	-9.5	10.	0.	125.
164	10.	9.5	0.	123.54
165	10.	9.	0.	120.07
166	10.	8.5	0.	117.72
167	10.	8.	0.	117.63
168	10.	7.5	0.	119.67
169	10.	7.	0.	123.14
170	10.	6.5	0.	126.64
171	10.	6.	0.	128.98
172	10.	5.5	0.	129.89
173	10.	5.	0.	129.9
174	10.	4.5	0.	129.55
175	10.	4.	0.	129.15
176	10.	3.5	0.	128.77
177	10.	3.	0.	128.4
178	10.	2.5	0.	127.93
179	10.	2.	0.	127.3
180	10.	1.5	0.	126.58
181	10.	1.	0.	125.96
182	10.	0.5	0.	125.73
183	10.	-5.2042e-015	0.	125.99
184	10.	-0.5	0.	126.58
185	10.	-1.	0.	127.17
186	10.	-1.5	0.	127.52
187	10.	-2.	0.	127.56
188	10.	-2.5	0.	127.33
189	10.	-3.	0.	126.95
190	10.	-3.5	0.	126.53
191	10.	-4.	0.	126.17
192	10.	-4.5	0.	125.93
193	10.	-5.	0.	125.83
194	10.	-5.5	0.	125.87
195	10.	-6.	0.	126.
196	10.	-6.5	0.	126.18
197	10.	-7.	0.	126.36
198	10.	-7.5	0.	126.5
199	10.	-8.	0.	126.61
200	10.	-8.5	0.	126.67
201	10.	-9.	0.	126.71
202	10.	-9.5	0.	126.73
203	-10.	9.5	0.	124.99
204	-10.	9.	0.	125.04
205	-10.	8.5	0.	125.14
206	-10.	8.	0.	125.25
207	-10.	7.5	0.	125.38
208	-10.	7.	0.	125.54
209	-10.	6.5	0.	125.79
210	-10.	6.	0.	126.18
211	-10.	5.5	0.	126.57
212	-10.	5.	0.	126.64
213	-10.	4.5	0.	126.03
214	-10.	4.	0.	125.08
215	-10.	3.5	0.	124.86
216	-10.	3.	0.	126.08
217	-10.	2.5	0.	127.92
218	-10.	2.	0.	129.28
219	-10.	1.5	0.	129.76
220	-10.	1.	0.	129.71
221	-10.	0.5	0.	129.46
222	-10.	-5.2042e-015	0.	129.13
223	-10.	-0.5	0.	128.68
224	-10.	-1.	0.	128.05
225	-10.	-1.5	0.	127.33
226	-10.	-2.	0.	126.8
227	-10.	-2.5	0.	126.78
228	-10.	-3.	0.	127.36
229	-10.	-3.5	0.	128.31
230	-10.	-4.	0.	129.16
231	-10.	-4.5	0.	129.58
232	-10.	-5.	0.	129.47
233	-10.	-5.5	0.	128.95
234	-10.	-6.	0.	128.3
235	-10.	-6.5	0.	127.77
236	-10.	-7.	0.	127.59
237	-10.	-7.5	0.	127.83
238	-10.	-8.	0.	128.44
239	-10.	-8.5	0.	129.24
240	-10.	-9.	0.	130.01
241	-10.	-9.5	0.	130.55
242	-9.5	-10.	0.	129.98
243	-9.	-10.	0.	129.76
244	-8.5	-10.	0.	129.75
245	-8.	-10.	0.	129.63
246	-7.5	-10.	0.	129.02
247	-7.	-10.	0.	127.29
248	-6.5	-10.	0.	123.97
249	-6.	-10.	0.	119.41
250	-5.5	-10.	0.	115.35
251	-5.	-10.	0.	113.77
252	-4.5	-10.	0.	115.52
253	-4.	-10.	0.	119.7
254	-3.5	-10.	0.	124.29
255	-3.	-10.	0.	127.55
256	-2.5	-10.	0.	129.1
257	-2.	-10.	0.	129.46
258	-1.5	-10.	0.	129.2
259	-1.	-10.	0.	128.68
260	-0.5	-10.	0.	128.06
261	5.2042e-015	-10.	0.	127.42
262	0.5	-10.	0.	126.76
263	1.	-10.	0.	126.09
264	1.5	-10.	0.	125.4
265	2.	-10.	0.	124.71
266	2.5	-10.	0.	124.07
267	3.	-10.	0.	123.53
268	3.5	-10.	0.	123.16
269	4.	-10.	0.	123.01
270	4.5	-10.	0.	123.08
271	5.	-10.	0.	123.35
272	5.5	-10.	0.	123.77
273	6.	-10.	0.	124.26
274	6.5	-10.	0.	124.74
275	7.	-10.	0.	125.18
276	7.5	-10.	0.	125.55
277	8.	-10.	0.	125.85
278	8.5	-10.	0.	126.1
279	9.	-10.	0.	126.31
280	9.5	-10.	0.	126.51
281	-3.	1.5	0.	126.7
282	-2.5	1.	0.	127.04
283	-3.	2.	0.	126.86
284	-1.	-4.	0.	127.51
285	-3.5	1.5	0.	126.16
286	-3.	1.	0.	126.72
287	-1.	-3.	0.	127.81
288	-2.5	0.5	0.	127.2
289	-3.5	2.	0.	126.26
290	-2.5	1.5	0.	127.1
291	-0.5	-4.5	0.	126.71
292	-1.5	-2.5	0.	128.
293	-3.	2.5	0.	127.16
294	-2.	1.	0.	127.25
295	-1.	-4.5	0.	127.44
296	-2.5	3.	0.	128.
297	-4.	1.5	0.	125.46
298	-3.5	1.	0.	126.21
299	-1.	-2.5	0.	128.15
300	-0.5	-3.	0.	127.46
301	-1.5	-2.	0.	128.27
302	-1.5	4.	0.	128.77
303	-1.5	-4.	0.	128.08
304	-3.	0.5	0.	126.92
305	-2.5	-8.3418e-011	0.	127.47
306	-4.	2.	0.	125.52
307	-0.5	-5.5	0.	126.59
308	-0.5	-4.	0.	126.86
309	-1.5	-3.	0.	127.89
310	-2.	0.5	0.	127.39
311	-2.	3.	0.	128.48
312	-2.	1.5	0.	127.38
313	3.2803e-011	-4.5	0.	126.
314	-1.5	4.5	0.	128.36
315	-2.	4.	0.	128.45
316	-0.5	-6.	0.	126.53
317	-1.	-5.	0.	127.33
318	-3.	3.	0.	127.52
319	-4.5	1.5	0.	124.72
320	-4.	1.	0.	125.49
321	-2.	-2.5	0.	127.59
322	-2.	-1.	0.	128.11
323	4.6704e-011	-6.	0.	126.33
324	-0.5	-2.5	0.	127.96
325	1.2035e-010	-3.	0.	126.84
326	-1.5	-1.5	0.	128.55
327	-1.5	3.5	0.	129.03
328	-1.5	1.	0.	127.41
329	-2.5	3.5	0.	128.19
330	-1.5	-4.5	0.	128.18
331	-3.5	0.5	0.	126.45
332	-2.5	-0.5	0.	127.71
333	-1.	4.5	0.	128.37
334	-1.	-2.	0.	128.62
335	-1.	4.	0.	128.94
336	6.	4.	0.	126.37
337	-2.	-4.	0.	128.49
338	-3.	-4.8574e-011	0.	127.25
339	-4.5	2.	0.	124.77
340	-4.	2.5	0.	125.66
341	-2.	-1.1551e-010	0.	127.7
342	-2.	-0.5	0.	128.
343	-2.	2.	0.	127.73
344	3.8888e-011	-5.	0.	126.04
345	4.6738e-011	-5.5	0.	126.18
346	4.3903e-011	-4.	0.	126.14
347	-2.	5.	0.	127.69
348	-1.	-6.	0.	126.85
349	-1.	-5.5	0.	127.12
350	-2.	-3.	0.	127.69
351	-3.5	3.	0.	126.92
352	-4.5	1.	0.	124.59
353	-5.	1.	0.	123.66
354	-2.	-1.5	0.	127.98
355	0.5	-6.5	0.	126.43
356	3.6961e-011	-6.5	0.	126.43
357	-1.	-6.5	0.	126.65
358	6.5	4.	0.	124.89
359	-6.	0.5	0.	121.25
360	1.7551e-010	-2.5	0.	127.34
361	-1.5	0.5	0.	127.58
362	-1.5	-1.	0.	128.66
363	-1.5	3.	0.	129.01
364	-1.5	1.5	0.	127.62
365	0.5	-6.	0.	126.27
366	0.5	-3.	0.	126.05
367	0.5	-4.5	0.	125.33
368	-2.5	4.	0.	128.13
369	-2.5	5.5	0.	126.84
370	-1.5	-5.	0.	128.11
371	-4.	0.5	0.	125.68
372	-5.5	0.5	0.	121.96
373	-1.5	-6.5	0.	126.85
374	-0.5	4.5	0.	127.99
375	6.5	4.5	0.	124.7
376	-0.5	-2.	0.	128.65
377	-1.	-1.5	0.	129.1
378	-1.	3.5	0.	129.42
379	-1.	1.	0.	127.65
380	-0.5	4.	0.	128.78
381	1.	-6.5	0.	126.53
382	-3.	3.5	0.	127.84
383	5.5	4.	0.	127.96
384	-2.	5.5	0.	127.28
385	-2.	-4.5	0.	128.89
386	-3.5	-2.693e-011	0.	126.88
387	-3.	-0.5	0.	127.55
388	-4.5	2.5	0.	124.71
389	-4.	3.	0.	126.
390	-5.	1.5	0.	124.09
391	-5.5	1.	0.	122.87
392	6.5	3.5	0.	124.58
393	5.	3.5	0.	128.23
394	-2.5	-4.	0.	128.66
395	-6.	2.5525e-013	0.	120.07
396	-6.5	0.5	0.	121.24
397	7.	-6.5	0.	126.78
398	6.5	-7.	0.	126.36
399	-1.5	5.	0.	127.97
400	0.5	-2.5	0.	126.28
401	1.	-2.5	0.	124.99
402	-1.5	-0.5	0.	128.46
403	-1.5	2.	0.	128.13
404	0.5	-5.5	0.	125.94
405	0.5	-4.	0.	125.44
406	-2.5	6.5	0.	126.07
407	-2.5	5.	0.	127.32
408	-1.5	-6.	0.	127.29
409	-1.5	-5.5	0.	127.79
410	-2.5	-3.	0.	127.22
411	-4.5	0.5	0.	124.54
412	-5.	0.5	0.	123.18
413	-2.5	-1.5	0.	127.49
414	6.	3.5	0.	125.74
415	5.5	3.5	0.	127.21
416	4.	-7.	0.	120.28
417	1.5	-7.	0.	126.17
418	1.	-7.	0.	126.39
419	0.5	-7.	0.	126.46
420	2.6012e-011	-7.	0.	126.51
421	-1.	-7.	0.	126.63
422	-2.	-7.	0.	126.87
423	7.	4.5	0.	123.52
424	7.	4.	0.	124.12
425	4.3049e-012	4.5	0.	127.25
426	6.	4.5	0.	126.78
427	7.	5.	0.	122.29
428	2.0369e-010	-2.	0.	128.07
429	1.5	-2.	0.	122.2
430	-1.	0.5	0.	127.89
431	-1.	-1.	0.	129.35
432	-1.	3.	0.	129.62
433	-1.	1.5	0.	127.94
434	3.8038e-011	4.	0.	128.02
435	4.5	-2.	0.	124.04
436	7.	-3.	0.	126.74
437	7.	-6.	0.	126.81
438	7.	-4.5	0.	125.53
439	4.5	-7.	0.	121.04
440	6.	-7.	0.	125.81
441	2.	-7.	0.	125.58
442	3.5	-7.	0.	120.92
443	1.	-6.	0.	126.44
444	1.	-3.	0.	125.35
445	1.	-4.5	0.	124.77
446	2.	-2.	0.	120.91
447	-3.	4.	0.	127.95
448	-3.	5.5	0.	126.5
449	5.	4.	0.	128.8
450	2.5	4.	0.	117.63
451	-2.5	7.	0.	125.62
452	-2.	6.	0.	126.84
453	-2.	-6.5	0.	127.17
454	-4.	-1.3933e-011	0.	126.13
455	-5.5	1.2842e-013	0.	120.93
456	-3.	-2.5	0.	126.15
457	-4.5	3.	0.	124.68
458	-5.	2.	0.	124.26
459	-6.	1.	0.	122.28
460	7.	3.5	0.	124.21
461	6.5	3.	0.	123.74
462	6.5	5.	0.	123.94
463	-0.5	-1.5	0.	129.46
464	-0.5	3.5	0.	129.6
465	4.5	3.5	0.	128.23
466	6.5	-2.5	0.	126.68
467	6.5	-6.5	0.	126.98
468	1.5	-6.5	0.	126.64
469	1.5	-2.5	0.	123.92
470	-3.5	3.5	0.	127.47
471	-3.	7.	0.	126.04
472	-2.5	-4.5	0.	129.44
473	-6.5	4.7019e-015	0.	120.58
474	-3.5	-0.5	0.	127.41
475	-7.	0.5	0.	121.87
476	-5.5	1.5	0.	123.71
477	6.5	-2.	0.	125.41
478	4.5	-1.5	0.	126.14
479	5.	3.	0.	128.06
480	7.	-7.	0.	126.49
481	7.	-2.5	0.	126.48
482	-2.5	-7.	0.	127.41
483	-1.5	5.5	0.	127.69
484	0.5	4.5	0.	126.25
485	-1.	5.	0.	127.89
486	2.	-1.5	0.	118.15
487	-0.5	1.	0.	128.27
488	2.	3.5	0.	116.35
489	4.	-2.5	0.	120.26
490	4.	-6.5	0.	118.76
491	5.5	4.5	0.	128.94
492	3.	4.5	0.	117.78
493	7.	5.5	0.	120.29
494	-6.	-0.5	0.	118.49
495	3.5	-2.	0.	121.95
496	0.5	-2.	0.	126.62
497	-1.	-0.5	0.	129.15
498	-1.	2.	0.	128.65
499	0.5	4.	0.	126.37
500	3.	4.	0.	119.16
501	5.	-2.	0.	125.4
502	7.	-3.5	0.	126.46
503	7.	-5.5	0.	126.43
504	7.	-5.	0.	125.83
505	5.5	-7.	0.	124.59
506	3.	-7.	0.	122.56
507	1.	-5.	0.	125.24
508	1.	-5.5	0.	125.96
509	1.	-4.	0.	124.9
510	2.5	-2.	0.	120.79
511	-3.	6.	0.	126.33
512	-3.	6.5	0.	126.27
513	-3.	5.	0.	127.05
514	4.5	4.	0.	128.14
515	2.	4.	0.	118.27
516	-2.	6.5	0.	126.23
517	-2.	-5.5	0.	128.65
518	-3.	-3.5	0.	127.4
519	-3.	-3.	0.	126.53
520	-4.5	-4.6751e-012	0.	124.73
521	-5.	-1.1903e-012	0.	122.76
522	-3.	-2.	0.	126.52
523	-3.	-1.5	0.	127.19
524	-5.	3.	0.	123.31
525	-6.5	1.	0.	121.82
526	5.5	-2.	0.	126.08
527	6.	-2.	0.	125.8
528	6.	3.	0.	124.86
529	5.5	3.	0.	126.63
530	7.	3.	0.	123.89
531	6.	5.	0.	126.93
532	-6.	-1.	0.	116.44
533	-7.	-7.	0.	128.37
534	7.	6.	0.	117.57
535	3.	5.	0.	115.75
536	5.5	5.	0.	130.1
537	4.	-6.	0.	116.77
538	4.	-3.	0.	117.62
539	2.	3.	0.	113.76
540	2.2397e-011	1.	0.	130.08
541	2.	-1.	0.	114.87
542	4.	1.	0.	127.95
543	-0.5	5.	0.	127.26
544	-1.8724e-011	5.	0.	126.37
545	0.5	5.	0.	125.98
546	-1.	5.5	0.	127.72
547	7.5	-2.5	0.	126.64
548	7.5	-3.	0.	126.55
549	7.5	-3.5	0.	126.26
550	7.5	-4.	0.	125.88
551	7.5	-4.5	0.	125.69
552	7.5	-5.	0.	125.83
553	7.5	-5.5	0.	126.18
554	7.5	-7.	0.	126.47
555	7.5	-7.5	0.	126.26
556	7.	-7.5	0.	126.12
557	6.5	-7.5	0.	125.79
558	6.	-7.5	0.	125.15
559	5.5	-7.5	0.	124.12
560	5.	-7.5	0.	122.87
561	4.5	-7.5	0.	121.78
562	4.	-7.5	0.	121.32
563	3.	-7.5	0.	122.77
564	2.5	-7.5	0.	124.02
565	2.	-7.5	0.	125.08
566	1.5	-7.5	0.	125.79
567	1.	-7.5	0.	126.21
568	0.5	-7.5	0.	126.46
569	1.6997e-011	-7.5	0.	126.63
570	-0.5	-7.5	0.	126.75
571	-1.	-7.5	0.	126.86
572	-1.5	-7.5	0.	126.97
573	-2.	-7.5	0.	127.14
574	-2.5	-7.5	0.	127.64
575	6.5	5.5	0.	122.52
576	5.	2.5	0.	128.08
577	5.	-1.5	0.	126.72
578	6.5	-1.5	0.	123.56
579	7.	-2.	0.	125.76
580	7.5	-2.	0.	126.6
581	6.5	2.5	0.	122.19
582	7.5	5.5	0.	121.06
583	7.5	5.	0.	122.5
584	7.5	4.5	0.	123.53
585	7.5	4.	0.	124.21
586	7.5	3.5	0.	124.61
587	7.5	3.	0.	124.9
588	-6.	1.5	0.	123.43
589	-7.5	0.5	0.	123.01
590	-7.5	1.	0.	122.09
591	-7.5	1.5	0.	120.83
592	-5.5	2.	0.	124.27
593	-3.5	-1.	0.	127.72
594	-5.5	-0.5	0.	119.68
595	-4.	-0.5	0.	126.94
596	-6.5	-0.5	0.	119.69
597	-7.	-1.9111e-013	0.	122.14
598	-7.5	-4.0035e-013	0.	123.99
599	-3.5	-2.5	0.	125.39
600	-2.5	-5.	0.	129.94
601	-2.5	-6.5	0.	127.85
602	-5.	-5.	0.	113.03
603	-3.5	-4.	0.	127.41
604	-3.	-4.5	0.	129.41
605	-6.	-4.	0.	115.35
606	-7.5	-7.	0.	127.13
607	-5.5	-4.5	0.	114.96
608	-7.5	-6.5	0.	127.31
609	-7.5	-5.	0.	128.98
610	-1.5	6.	0.	127.44
611	-7.5	7.5	0.	125.5
612	-3.5	7.5	0.	126.07
613	-3.	7.5	0.	125.68
614	-2.5	7.5	0.	125.28
615	-2.	7.5	0.	125.01
616	-1.5	7.5	0.	125.09
617	2.5	4.5	0.	117.59
618	1.	4.5	0.	124.9
619	5.	4.5	0.	130.09
620	3.5	4.5	0.	120.81
621	-4.	3.5	0.	126.76
622	-5.5	3.5	0.	121.37
623	-3.5	4.	0.	127.95
624	-3.5	7.	0.	126.67
625	-3.5	5.5	0.	126.45
626	-4.	7.5	0.	126.06
627	-7.	7.5	0.	125.4
628	-5.5	7.5	0.	121.5
629	-7.5	5.5	0.	121.7
630	-7.5	7.	0.	125.58
631	2.	-2.5	0.	123.33
632	3.5	-2.5	0.	120.34
633	1.5	-3.	0.	125.1
634	1.5	-6.	0.	126.89
635	1.5	-4.5	0.	124.51
636	3.5	-6.5	0.	119.83
637	2.	-6.5	0.	126.42
638	6.	-6.5	0.	126.81
639	4.5	-6.5	0.	120.02
640	6.5	-6.	0.	127.37
641	6.5	-3.	0.	127.36
642	6.5	-4.5	0.	125.58
643	4.5	-2.5	0.	121.91
644	6.	-2.5	0.	127.04
645	4.5	3.	0.	128.73
646	2.5	3.5	0.	116.98
647	4.	3.5	0.	126.9
648	6.3078e-011	3.5	0.	129.09
649	-0.5	1.5	0.	128.61
650	-0.5	3.	0.	130.23
651	-0.5	-1.	0.	130.11
652	-0.5	0.5	0.	128.58
653	1.5	-1.5	0.	120.13
654	2.0036e-010	-1.5	0.	129.18
655	2.5	-1.5	0.	118.86
656	4.5	0.5	0.	126.09
657	4.5	-1.	0.	127.78
658	3.5	-1.5	0.	123.77
659	0.5	-1.5	0.	127.4
660	1.	-1.5	0.	123.93
661	-0.5	-0.5	0.	130.13
662	-0.5	2.	0.	129.41
663	0.5	3.5	0.	127.01
664	3.5	3.5	0.	124.03
665	3.	3.5	0.	120.19
666	4.5	2.5	0.	128.96
667	5.5	-2.5	0.	126.57
668	5.	-2.5	0.	124.57
669	6.5	-4.	0.	126.17
670	6.5	-3.5	0.	127.19
671	6.5	-5.5	0.	127.08
672	6.5	-5.	0.	126.07
673	5.5	-6.5	0.	125.51
674	2.5	-6.5	0.	125.12
675	3.	-6.5	0.	122.54
676	1.5	-5.	0.	125.27
677	1.5	-5.5	0.	126.46
678	1.5	-3.5	0.	125.37
679	1.5	-4.	0.	124.75
680	2.5	-2.5	0.	122.73
681	-7.5	6.	0.	123.45
682	-6.5	7.5	0.	124.35
683	-5.	7.5	0.	122.82
684	-3.5	6.5	0.	126.9
685	-3.5	4.5	0.	127.88
686	-3.5	5.	0.	127.05
687	-4.5	3.5	0.	125.07
688	4.5	4.5	0.	128.98
689	1.5	4.5	0.	122.71
690	2.	4.5	0.	119.82
691	-1.5	6.5	0.	126.85
692	-7.5	-6.	0.	127.94
693	-6.5	-4.5	0.	121.5
694	-4.	-4.5	0.	124.41
695	-2.5	-5.5	0.	129.77
696	-3.5	-3.	0.	125.79
697	-5.	-4.5	0.	115.99
698	-7.	-4.5	0.	126.
699	-7.5	-0.5	0.	125.33
700	-4.5	-0.5	0.	125.38
701	-5.	-0.5	0.	122.57
702	-3.5	-1.5	0.	127.31
703	-5.5	3.	0.	122.87
704	-6.5	1.5	0.	122.59
705	7.5	2.5	0.	125.36
706	7.	2.5	0.	123.22
707	7.	-1.5	0.	124.7
708	7.5	-1.5	0.	126.73
709	4.5	-0.5	0.	128.11
710	4.5	1.	0.	126.36
711	6.	2.5	0.	123.71
712	5.5	2.5	0.	126.29
713	7.5	6.	0.	119.24
714	-7.	-7.5	0.	128.18
715	2.5	-1.	0.	116.69
716	1.5	3.	0.	116.72
717	4.	1.5	0.	128.09
718	4.5	-6.	0.	118.66
719	3.5	5.	0.	119.15
720	-5.5	-5.	0.	114.02
721	-3.	-6.5	0.	128.99
722	-5.5	-4.	0.	115.12
723	-6.5	-1.	0.	118.46
724	6.	5.5	0.	126.85
725	5.	7.5	0.	132.78
726	-5.5	4.	0.	119.27
727	-7.5	5.	0.	119.47
728	-7.5	2.	0.	118.44
729	-8.	-8.	0.	128.25
730	-8.	-7.5	0.	127.49
731	-8.	-7.	0.	127.15
732	-8.	-6.5	0.	127.35
733	-8.	-6.	0.	128.03
734	-8.	-5.	0.	129.57
735	-8.	-4.5	0.	130.25
736	-8.	-0.5	0.	126.93
737	-8.	-5.17e-013	0.	125.54
738	-8.	0.5	0.	124.47
739	-8.	1.	0.	123.59
740	-8.	1.5	0.	122.8
741	-1.	7.5	0.	125.27
742	-8.	5.5	0.	122.78
743	-8.	6.	0.	123.65
744	-8.	6.5	0.	124.59
745	-8.	7.	0.	125.19
746	-8.	7.5	0.	125.36
747	-8.	8.	0.	125.3
748	-7.5	8.	0.	125.25
749	-7.	8.	0.	124.94
750	-6.5	8.	0.	124.2
751	-6.	8.	0.	123.25
752	-5.5	8.	0.	122.87
753	-5.	8.	0.	123.49
754	-4.	8.	0.	125.36
755	-3.5	8.	0.	125.57
756	-3.	8.	0.	125.43
757	-2.5	8.	0.	125.2
758	-2.	8.	0.	125.12
759	-1.5	8.	0.	125.39
760	-3.	-7.5	0.	128.61
761	8.	5.5	0.	123.93
762	8.	5.	0.	124.07
763	8.	4.5	0.	124.49
764	8.	4.	0.	124.95
765	8.	3.5	0.	125.42
766	8.	3.	0.	125.97
767	8.	2.5	0.	126.79
768	8.	-1.5	0.	127.85
769	8.	-2.	0.	127.25
770	8.	-2.5	0.	126.9
771	8.	-3.	0.	126.61
772	8.	-3.5	0.	126.29
773	8.	-4.	0.	126.01
774	8.	-4.5	0.	125.86
775	8.	-5.	0.	125.92
776	8.	-5.5	0.	126.11
777	8.	-6.	0.	126.32
778	8.	-6.5	0.	126.42
779	8.	-7.	0.	126.41
780	8.	-7.5	0.	126.32
781	8.	-8.	0.	126.18
782	7.5	-8.	0.	126.03
783	7.	-8.	0.	125.78
784	6.5	-8.	0.	125.37
785	6.	-8.	0.	124.74
786	5.5	-8.	0.	123.91
787	4.5	-8.	0.	122.3
788	4.	-8.	0.	122.03
789	3.5	-8.	0.	122.29
790	3.	-8.	0.	123.01
791	2.5	-8.	0.	123.93
792	2.	-8.	0.	124.83
793	1.5	-8.	0.	125.55
794	1.	-8.	0.	126.09
795	0.5	-8.	0.	126.49
796	1.1239e-011	-8.	0.	126.8
797	-1.5	-8.	0.	127.55
798	-2.	-8.	0.	127.88
799	-2.5	-8.	0.	128.39
800	-0.5	5.5	0.	126.71
801	-3.4255e-011	5.5	0.	125.01
802	0.5	5.5	0.	124.65
803	4.	0.5	0.	127.21
804	4.	-1.	0.	127.63
805	1.5	-1.	0.	117.72
806	1.69e-010	-1.	0.	130.68
807	2.3457e-011	1.5	0.	129.78
808	6.8261e-011	3.	0.	130.57
809	2.5	3.	0.	115.65
810	4.	3.	0.	128.65
811	4.5	-3.	0.	119.73
812	6.	-3.	0.	128.39
813	6.	-4.5	0.	125.52
814	6.	-6.	0.	128.09
815	3.5	-6.	0.	118.39
816	2.	-6.	0.	127.55
817	2.	-4.5	0.	124.32
818	2.	-3.	0.	125.54
819	-7.	5.5	0.	122.9
820	-7.	7.	0.	126.25
821	-5.5	7.	0.	118.9
822	-4.	7.	0.	127.34
823	-4.	5.5	0.	126.37
824	-4.	4.	0.	128.05
825	5.	5.	0.	132.25
826	2.5	5.	0.	116.88
827	1.	5.	0.	126.39
828	6.5	6.	0.	120.46
829	5.5	5.5	0.	131.19
830	-1.	6.	0.	128.07
831	-7.	-6.5	0.	127.85
832	-7.	-5.	0.	127.65
833	-4.5	-5.	0.	116.79
834	-3.	-5.	0.	130.65
835	-4.	-2.5	0.	124.53
836	-4.	-4.	0.	125.87
837	-6.5	-4.	0.	119.04
838	-8.	-4.	0.	131.06
839	-8.	-2.5	0.	127.01
840	-8.	-1.	0.	128.56
841	-5.5	-1.	0.	118.1
842	-4.	-1.	0.	128.03
843	-6.	3.5	0.	122.54
844	-6.	2.	0.	124.82
845	6.5	2.	0.	119.27
846	8.	2.	0.	128.03
847	8.	-1.	0.	128.85
848	6.5	-1.	0.	120.4
849	5.	-1.	0.	128.26
850	5.	0.5	0.	125.54
851	5.	2.	0.	128.3
852	6.	2.	0.	122.35
853	5.5	2.	0.	126.95
854	5.	1.5	0.	128.11
855	5.	1.	0.	126.84
856	5.	-0.5	0.	128.78
857	6.	-1.	0.	123.37
858	7.	-1.	0.	123.38
859	7.5	-1.	0.	127.85
860	8.	-0.5	0.	129.36
861	8.	1.5	0.	128.76
862	7.	2.	0.	122.29
863	-7.	2.	0.	120.71
864	-6.5	2.	0.	124.33
865	-6.	3.	0.	124.4
866	-4.	-1.5	0.	128.28
867	-4.5	-1.	0.	127.
868	-5.	-1.	0.	122.72
869	-7.	-1.	0.	123.28
870	-7.5	-1.	0.	127.59
871	-8.	-2.	0.	128.25
872	-8.	-3.	0.	129.24
873	-8.	-3.5	0.	131.11
874	-7.	-4.	0.	125.09
875	-5.	-4.	0.	118.55
876	-4.5	-4.	0.	123.15
877	-4.	-3.	0.	125.78
878	-3.	-5.5	0.	131.22
879	-4.	-5.	0.	123.62
880	-6.	-5.	0.	119.04
881	-6.5	-5.	0.	124.72
882	-7.	-5.5	0.	128.82
883	-7.	-6.	0.	128.53
884	-1.	7.	0.	126.89
885	-1.	6.5	0.	128.17
886	-0.5	6.	0.	127.16
887	-3.2128e-011	6.	0.	123.11
888	5.	7.	0.	134.47
889	6.	6.	0.	126.76
890	1.5	5.	0.	125.68
891	2.	5.	0.	121.46
892	4.5	5.	0.	131.43
893	5.	5.5	0.	134.3
894	-5.	4.	0.	122.15
895	-4.5	4.	0.	126.73
896	-4.	4.5	0.	128.82
897	-4.	5.	0.	127.91
898	-4.	6.	0.	127.56
899	-4.	6.5	0.	128.21
900	-5.	7.	0.	122.1
901	-6.	7.	0.	121.53
902	-6.5	7.	0.	125.56
903	-7.	6.5	0.	126.54
904	-7.	6.	0.	125.07
905	2.5	-3.	0.	125.31
906	2.	-3.5	0.	126.61
907	2.	-4.	0.	125.67
908	2.	-5.	0.	126.27
909	2.	-5.5	0.	127.85
910	2.5	-6.	0.	126.85
911	5.5	-6.	0.	127.41
912	6.	-5.	0.	127.14
913	6.	-4.	0.	127.34
914	6.	-3.5	0.	128.83
915	5.5	-3.	0.	128.12
916	5.	-3.	0.	124.33
917	4.	2.	0.	129.28
918	4.	2.5	0.	129.8
919	3.5	3.	0.	126.7
920	3.	3.	0.	121.24
921	1.	3.	0.	123.15
922	0.5	3.	0.	128.9
923	3.6729e-011	2.	0.	130.8
924	7.15e-011	-1.0352e-010	0.	130.84
925	1.2083e-010	-0.5	0.	131.53
926	0.5	-1.	0.	129.34
927	1.	-1.	0.	123.91
928	3.	-1.	0.	121.79
929	3.5	-1.	0.	126.39
930	4.	-0.5	0.	128.79
931	4.	-1.6438e-012	0.	128.13
932	0.5	6.	0.	121.23
933	-3.	-8.	0.	129.48
934	-1.	8.	0.	126.67
935	-8.	2.	0.	122.05
936	1.	5.5	0.	127.12
937	-7.	5.	0.	123.39
938	5.	8.	0.	133.07
939	-8.	5.	0.	122.31
940	-8.5	-8.	0.	128.33
941	-8.5	-7.5	0.	127.79
942	-8.5	-7.	0.	127.54
943	-8.5	-6.5	0.	127.71
944	-8.5	-6.	0.	128.21
945	-8.5	-5.5	0.	128.89
946	-8.5	-5.	0.	129.55
947	-8.5	-4.5	0.	130.08
948	-8.5	-4.	0.	130.27
949	-8.5	-3.5	0.	129.73
950	-8.5	-3.	0.	128.39
951	-8.5	-2.5	0.	127.44
952	-8.5	-2.	0.	127.57
953	-8.5	-1.5	0.	128.25
954	-8.5	-1.	0.	128.23
955	-8.5	-0.5	0.	127.54
956	-8.5	-5.3919e-013	0.	126.68
957	-8.5	0.5	0.	125.95
958	-8.5	1.	0.	125.53
959	-8.5	1.5	0.	125.64
960	-8.5	2.	0.	127.05
961	-8.5	5.	0.	126.64
962	-8.5	5.5	0.	124.92
963	-8.5	7.5	0.	125.3
964	-8.5	8.	0.	125.28
965	-8.5	8.5	0.	125.18
966	-8.	8.5	0.	125.15
967	-7.5	8.5	0.	125.04
968	-7.	8.5	0.	124.77
969	-6.5	8.5	0.	124.32
970	-6.	8.5	0.	123.87
971	-5.5	8.5	0.	123.73
972	-5.	8.5	0.	124.06
973	-4.5	8.5	0.	124.64
974	-4.	8.5	0.	125.14
975	-3.5	8.5	0.	125.38
976	-3.	8.5	0.	125.41
977	-2.5	8.5	0.	125.39
978	-2.	8.5	0.	125.56
979	-1.5	8.5	0.	126.23
980	-1.	8.5	0.	127.84
981	5.	8.5	0.	131.6
982	-7.	-8.	0.	129.19
983	8.	-8.5	0.	126.05
984	7.5	-8.5	0.	125.83
985	7.	-8.5	0.	125.51
986	6.5	-8.5	0.	125.07
987	6.	-8.5	0.	124.49
988	5.5	-8.5	0.	123.82
989	5.	-8.5	0.	123.16
990	4.5	-8.5	0.	122.67
991	4.	-8.5	0.	122.49
992	3.5	-8.5	0.	122.7
993	3.	-8.5	0.	123.23
994	2.5	-8.5	0.	123.95
995	2.	-8.5	0.	124.73
996	1.5	-8.5	0.	125.44
997	1.	-8.5	0.	126.05
998	0.5	-8.5	0.	126.57
999	6.8568e-012	-8.5	0.	127.02
1000	-0.5	-8.5	0.	127.42
1001	-1.	-8.5	0.	127.82
1002	-1.5	-8.5	0.	128.23
1003	-2.	-8.5	0.	128.69
1004	-2.5	-8.5	0.	129.26
1005	-3.	-8.5	0.	130.05
1006	-7.	-8.5	0.	129.82
1007	-7.5	-8.5	0.	129.26
1008	-8.	-8.5	0.	129.02
1009	-8.5	-8.5	0.	128.94
1010	8.	6.	0.	124.35
1011	8.5	6.	0.	128.92
1012	8.5	5.5	0.	126.76
1013	8.5	5.	0.	125.97
1014	8.5	4.5	0.	125.83
1015	8.5	4.	0.	125.99
1016	8.5	3.5	0.	126.31
1017	8.5	3.	0.	126.74
1018	8.5	2.5	0.	127.29
1019	8.5	2.	0.	127.76
1020	8.5	1.5	0.	127.74
1021	8.5	1.	0.	127.08
1022	8.5	0.5	0.	126.78
1023	8.5	-2.7873e-012	0.	127.29
1024	8.5	-0.5	0.	128.12
1025	8.5	-1.	0.	128.27
1026	8.5	-1.5	0.	127.91
1027	8.5	-2.	0.	127.44
1028	8.5	-2.5	0.	127.04
1029	8.5	-3.	0.	126.71
1030	8.5	-3.5	0.	126.41
1031	8.5	-4.	0.	126.17
1032	8.5	-4.5	0.	126.03
1033	8.5	-5.	0.	126.03
1034	8.5	-5.5	0.	126.12
1035	8.5	-6.	0.	126.25
1036	8.5	-6.5	0.	126.34
1037	8.5	-7.	0.	126.37
1038	8.5	-7.5	0.	126.34
1039	8.5	-8.	0.	126.28
1040	8.5	-8.5	0.	126.21
1041	4.5	9.	0.	128.19
1042	2.5	9.	0.	120.64
1043	2.	9.	0.	126.09
1044	1.5	9.	0.	129.29
1045	1.	9.	0.	125.64
1046	0.5	9.	0.	122.02
1047	9.4305e-012	9.	0.	124.11
1048	-0.5	9.	0.	127.43
1049	-1.	9.	0.	127.53
1050	-1.5	9.	0.	126.58
1051	-2.	9.	0.	126.01
1052	-2.5	9.	0.	125.74
1053	-3.	9.	0.	125.6
1054	-3.5	9.	0.	125.45
1055	-4.	9.	0.	125.21
1056	-4.5	9.	0.	124.85
1057	-5.	9.	0.	124.5
1058	-6.	9.	0.	124.3
1059	-6.5	9.	0.	124.48
1060	-7.	9.	0.	124.71
1061	-7.5	9.	0.	124.89
1062	-8.	9.	0.	124.99
1063	-8.5	9.	0.	125.05
1064	3.5	-0.5	0.	130.47
1065	0.5	-0.5	0.	133.19
1066	0.5	2.5	0.	132.82
1067	3.5	2.5	0.	131.01
1068	5.5	-3.5	0.	131.47
1069	5.5	-5.5	0.	130.99
1070	2.5	-5.5	0.	130.27
1071	2.5	-3.5	0.	129.29
1072	-6.5	6.5	0.	129.05
1073	-4.5	6.5	0.	130.24
1074	-4.5	4.5	0.	130.64
1075	4.5	8.5	0.	132.21
1076	4.5	5.5	0.	136.16
1077	1.5	5.5	0.	130.74
1078	1.	6.	0.	126.07
1079	5.	9.	0.	129.96
1080	8.5	6.5	0.	133.44
1081	5.5	6.5	0.	135.67
1082	-0.5	6.5	0.	130.1
1083	-0.5	8.5	0.	130.63
1084	1.5	8.5	0.	137.28
1085	-6.5	-5.5	0.	129.44
1086	-3.5	-5.5	0.	132.74
1087	-3.5	-8.5	0.	130.96
1088	-6.5	-8.5	0.	130.53
1089	-4.5	-3.5	0.	127.8
1090	-7.5	-3.5	0.	133.03
1091	-7.5	-1.5	0.	131.45
1092	-4.5	-1.5	0.	130.3
1093	-6.5	2.5	0.	128.17
1094	-8.5	2.5	0.	130.89
1095	-8.5	4.5	0.	130.75
1096	7.5	1.5	0.	130.47
1097	7.5	-0.5	0.	131.2
1098	5.5	-0.5	0.	130.69
1099	5.5	1.5	0.	129.86
1100	9.	8.5	0.	127.52
1101	9.	8.	0.	128.88
1102	9.	7.5	0.	129.05
1103	9.	7.	0.	130.15
1104	9.	6.5	0.	130.65
1105	9.	6.	0.	129.59
1106	9.	5.5	0.	128.21
1107	9.	5.	0.	127.43
1108	9.	4.	0.	127.07
1109	9.	3.5	0.	127.15
1110	9.	3.	0.	127.3
1111	9.	-1.	0.	127.68
1112	9.	-1.5	0.	127.61
1113	9.	-2.	0.	127.37
1114	9.	-2.5	0.	127.07
1115	9.	-3.	0.	126.78
1116	9.	-3.5	0.	126.51
1117	9.	-4.	0.	126.29
1118	9.	-4.5	0.	126.15
1119	9.	-5.	0.	126.1
1120	9.	-5.5	0.	126.13
1121	9.	-6.	0.	126.21
1122	9.	-6.5	0.	126.29
1123	9.	-7.	0.	126.34
1124	9.	-7.5	0.	126.36
1125	9.	-8.	0.	126.36
1126	9.	-8.5	0.	126.35
1127	9.	-9.	0.	126.33
1128	8.5	-9.	0.	126.15
1129	8.	-9.	0.	125.94
1130	7.5	-9.	0.	125.68
1131	7.	-9.	0.	125.33
1132	6.5	-9.	0.	124.88
1133	6.	-9.	0.	124.35
1134	5.5	-9.	0.	123.78
1135	5.	-9.	0.	123.27
1136	4.5	-9.	0.	122.91
1137	4.	-9.	0.	122.79
1138	3.5	-9.	0.	122.96
1139	3.	-9.	0.	123.4
1140	2.5	-9.	0.	124.01
1141	2.	-9.	0.	124.7
1142	1.5	-9.	0.	125.4
1143	1.	-9.	0.	126.06
1144	-1.	-9.	0.	128.28
1145	-1.5	-9.	0.	128.77
1146	-2.	-9.	0.	129.22
1147	-2.5	-9.	0.	129.46
1148	-3.	-9.	0.	129.23
1149	-3.5	-9.	0.	126.88
1150	-4.	-9.	0.	120.62
1151	-4.5	-9.	0.	114.08
1152	-5.	-9.	0.	111.39
1153	-5.5	-9.	0.	113.86
1154	-6.	-9.	0.	120.26
1155	-7.5	-9.	0.	129.43
1156	-8.	-9.	0.	129.47
1157	-8.5	-9.	0.	129.41
1158	-9.	-9.	0.	129.4
1159	-9.	-8.5	0.	128.98
1160	-9.	-8.	0.	128.5
1161	-9.	-7.5	0.	128.1
1162	-9.	-7.	0.	127.92
1163	-9.	-6.5	0.	128.02
1164	-9.	-6.	0.	128.38
1165	-9.	-4.5	0.	129.57
1166	-9.	-4.	0.	129.5
1167	-9.	-3.	0.	128.16
1168	-9.	-2.5	0.	127.56
1169	-9.	-2.	0.	127.57
1170	-9.	-1.5	0.	127.89
1171	-9.	-1.	0.	128.04
1172	-9.	-4.647e-013	0.	127.52
1173	-9.	0.5	0.	127.23
1174	-9.	1.	0.	127.16
1175	-9.	1.5	0.	127.55
1176	-9.	2.5	0.	129.3
1177	-9.	3.	0.	128.46
1178	-9.	3.5	0.	126.94
1179	-9.	4.	0.	128.05
1180	-9.	4.5	0.	128.54
1181	-9.	5.	0.	127.49
1182	-9.	5.5	0.	126.15
1183	-9.	6.	0.	125.5
1184	-9.	6.5	0.	125.32
1185	-9.	7.	0.	125.32
1186	-9.	7.5	0.	125.33
1187	-9.	8.	0.	125.28
1188	-9.	9.	0.	125.08
1189	9.	9.	0.	127.03
1190	3.	-0.5	0.	123.61
1191	2.5	-0.5	0.	112.9
1192	2.	-0.5	0.	113.16
1193	1.	-0.5	0.	125.41
1194	1.5	-0.5	0.	113.79
1195	0.5	-6.198e-011	0.	132.15
1196	0.5	0.5	0.	134.09
1197	0.5	1.	0.	135.51
1198	0.5	2.	0.	132.02
1199	0.5	1.5	0.	133.88
1200	1.	2.5	0.	124.7
1201	1.5	2.5	0.	113.19
1202	2.	2.5	0.	112.57
1203	3.	2.5	0.	123.44
1204	2.5	2.5	0.	112.43
1205	3.5	-3.0627e-012	0.	129.54
1206	3.5	0.5	0.	131.83
1207	3.5	1.	0.	133.47
1208	3.5	1.5	0.	132.24
1209	3.5	2.	0.	130.22
1210	5.5	-4.	0.	129.98
1211	5.5	-5.	0.	129.58
1212	5.5	-4.5	0.	129.12
1213	4.5	-5.5	0.	115.93
1214	4.	-5.5	0.	116.39
1215	3.	-5.5	0.	124.2
1216	3.5	-5.5	0.	115.65
1217	2.5	-5.	0.	128.82
1218	2.5	-4.	0.	128.19
1219	2.5	-4.5	0.	128.01
1220	3.	-3.5	0.	123.95
1221	3.5	-3.5	0.	115.75
1222	4.	-3.5	0.	116.85
1223	5.	-3.5	0.	125.32
1224	4.5	-3.5	0.	116.55
1225	-6.	6.5	0.	122.22
1226	-5.	6.5	0.	123.1
1227	-5.5	6.5	0.	112.5
1228	-4.5	6.	0.	129.68
1229	-4.5	5.	0.	129.97
1230	-4.5	5.5	0.	129.88
1231	-5.	4.5	0.	123.5
1232	-6.	4.5	0.	125.15
1233	-5.5	4.5	0.	113.37
1234	-6.5	5.	0.	129.85
1235	-6.5	6.	0.	128.48
1236	-6.5	5.5	0.	128.45
1237	2.	8.5	0.	128.87
1238	2.5	8.5	0.	116.32
1239	3.	8.5	0.	115.47
1240	4.	8.5	0.	125.55
1241	3.5	8.5	0.	115.05
1242	4.5	8.	0.	132.19
1243	4.5	7.5	0.	135.76
1244	4.5	7.	0.	138.27
1245	4.5	6.	0.	135.84
1246	4.5	6.5	0.	137.6
1247	4.	5.5	0.	127.77
1248	3.5	5.5	0.	115.84
1249	3.	5.5	0.	114.99
1250	2.	5.5	0.	124.39
1251	2.5	5.5	0.	114.47
1252	1.5	6.5	0.	137.55
1253	1.5	6.	0.	132.18
1254	8.5	9.	0.	131.04
1255	8.5	8.5	0.	135.09
1256	8.5	8.	0.	137.11
1257	8.5	7.	0.	133.48
1258	8.5	7.5	0.	135.29
1259	8.	6.5	0.	126.27
1260	7.5	6.5	0.	116.2
1261	7.	6.5	0.	116.43
1262	6.	6.5	0.	127.98
1263	6.5	6.5	0.	116.67
1264	5.5	9.	0.	132.06
1265	5.5	8.5	0.	136.79
1266	5.5	8.	0.	138.43
1267	5.5	7.5	0.	136.8
1268	5.5	7.	0.	134.44
1269	1.	6.5	0.	126.23
1270	-2.0504e-011	6.5	0.	122.67
1271	0.5	6.5	0.	113.75
1272	-0.5	7.	0.	129.46
1273	-0.5	8.	0.	129.26
1274	-0.5	7.5	0.	129.13
1275	6.5447e-012	8.5	0.	124.65
1276	1.	8.5	0.	127.21
1277	0.5	8.5	0.	115.17
1278	1.5	7.	0.	138.95
1279	1.5	7.5	0.	138.8
1280	1.5	8.	0.	135.64
1281	-6.	-5.5	0.	121.83
1282	-5.5	-5.5	0.	111.09
1283	-5.	-5.5	0.	111.66
1284	-4.	-5.5	0.	124.55
1285	-4.5	-5.5	0.	112.75
1286	-3.5	-6.	0.	131.51
1287	-3.5	-6.5	0.	133.03
1288	-3.5	-7.	0.	134.32
1289	-3.5	-8.	0.	130.37
1290	-3.5	-7.5	0.	132.59
1291	-4.	-8.5	0.	122.7
1292	-4.5	-8.5	0.	111.15
1293	-5.	-8.5	0.	110.7
1294	-6.	-8.5	0.	122.18
1295	-5.5	-8.5	0.	110.96
1296	-6.5	-8.	0.	129.96
1297	-6.5	-7.5	0.	131.84
1298	-6.5	-6.	0.	129.14
1299	-6.5	-6.5	0.	131.74
1300	-6.5	-7.	0.	133.35
1301	-5.	-3.5	0.	121.5
1302	-5.5	-3.5	0.	113.48
1303	-6.	-3.5	0.	115.26
1304	-7.	-3.5	0.	125.55
1305	-6.5	-3.5	0.	115.98
1306	-7.5	-3.	0.	131.46
1307	-7.5	-2.	0.	130.14
1308	-7.5	-2.5	0.	130.05
1309	-7.	-1.5	0.	125.17
1310	-6.5	-1.5	0.	115.71
1311	-6.	-1.5	0.	115.99
1312	-5.5	-1.5	0.	115.23
1313	-4.5	-2.	0.	128.66
1314	-4.5	-3.	0.	127.35
1315	-4.5	-2.5	0.	127.52
1316	-7.	2.5	0.	121.89
1317	-8.	2.5	0.	122.99
1318	-7.5	2.5	0.	112.29
1319	-8.5	3.	0.	130.5
1320	-8.5	4.	0.	130.24
1321	-8.5	3.5	0.	130.32
1322	-8.	4.5	0.	123.8
1323	-7.	4.5	0.	125.15
1324	-7.5	4.5	0.	113.53
1325	-6.5	3.	0.	127.8
1326	-6.5	3.5	0.	128.19
1327	-6.5	4.	0.	129.8
1328	7.5	1.	0.	129.77
1329	7.5	-2.5509e-012	0.	130.26
1330	7.5	0.5	0.	129.79
1331	7.	-0.5	0.	123.6
1332	6.	-0.5	0.	123.81
1333	6.5	-0.5	0.	113.22
1334	5.5	-4.6313e-012	0.	129.21
1335	5.5	1.	0.	128.9
1336	5.5	0.5	0.	129.04
1337	7.	1.5	0.	122.99
1338	6.5	1.5	0.	112.43
1339	6.	1.5	0.	122.65
1340	9.	-9.5	0.	126.32
1341	8.5	-9.5	0.	126.11
1342	8.	-9.5	0.	125.88
1343	7.5	-9.5	0.	125.58
1344	7.	-9.5	0.	125.22
1345	6.5	-9.5	0.	124.78
1346	6.	-9.5	0.	124.28
1347	5.5	-9.5	0.	123.77
1348	5.	-9.5	0.	123.33
1349	4.5	-9.5	0.	123.04
1350	4.	-9.5	0.	122.96
1351	3.5	-9.5	0.	123.12
1352	3.	-9.5	0.	123.5
1353	2.5	-9.5	0.	124.06
1354	2.	-9.5	0.	124.71
1355	1.5	-9.5	0.	125.4
1356	1.	-9.5	0.	126.08
1357	0.5	-9.5	0.	126.73
1358	1.5083e-012	-9.5	0.	127.37
1359	-0.5	-9.5	0.	127.98
1360	-1.	-9.5	0.	128.57
1361	-1.5	-9.5	0.	129.09
1362	-2.	-9.5	0.	129.41
1363	-2.5	-9.5	0.	129.24
1364	-3.	-9.5	0.	128.
1365	-3.5	-9.5	0.	124.84
1366	-4.	-9.5	0.	119.94
1367	-4.5	-9.5	0.	115.17
1368	-5.	-9.5	0.	113.17
1369	-5.5	-9.5	0.	114.99
1370	-6.	-9.5	0.	119.62
1371	-6.5	-9.5	0.	124.51
1372	-7.	-9.5	0.	127.74
1373	-7.5	-9.5	0.	129.17
1374	-8.	-9.5	0.	129.61
1375	-8.5	-9.5	0.	129.67
1376	-9.	-9.5	0.	129.67
1377	-9.5	-9.5	0.	129.87
1378	-9.5	-9.	0.	129.54
1379	-9.5	-8.5	0.	129.08
1380	-9.5	-8.	0.	128.59
1381	-9.5	-7.5	0.	128.21
1382	-9.5	-7.	0.	128.05
1383	-9.5	-6.5	0.	128.13
1384	-9.5	-6.	0.	128.43
1385	-9.5	-5.5	0.	128.82
1386	-9.5	-4.5	0.	129.23
1387	-9.5	-4.	0.	129.03
1388	-9.5	-3.5	0.	128.54
1389	-9.5	-3.	0.	127.95
1390	-9.5	-2.5	0.	127.54
1391	-9.5	-2.	0.	127.48
1392	-9.5	-1.5	0.	127.71
1393	-9.5	-1.	0.	127.99
1394	-9.5	-0.5	0.	128.18
1395	-9.5	-2.7905e-013	0.	128.27
1396	-9.5	0.5	0.	128.33
1397	-9.5	1.	0.	128.41
1398	-9.5	1.5	0.	128.53
1399	-9.5	2.	0.	128.57
1400	-9.5	2.5	0.	128.22
1401	-9.5	3.	0.	127.32
1402	-9.5	3.5	0.	126.68
1403	-9.5	4.	0.	126.66
1404	-9.5	4.5	0.	126.98
1405	-9.5	5.	0.	126.83
1406	-9.5	5.5	0.	126.37
1407	-9.5	6.	0.	125.94
1408	-9.5	6.5	0.	125.66
1409	-9.5	7.	0.	125.49
1410	-9.5	7.5	0.	125.38
1411	-9.5	8.	0.	125.28
1412	-9.5	8.5	0.	125.18
1413	-9.5	9.	0.	125.09
1414	-9.5	9.5	0.	125.02
1415	-9.	9.5	0.	124.99
1416	-8.5	9.5	0.	124.93
1417	-8.	9.5	0.	124.86
1418	-7.5	9.5	0.	124.76
1419	-7.	9.5	0.	124.65
1420	-6.5	9.5	0.	124.54
1421	-6.	9.5	0.	124.5
1422	-5.5	9.5	0.	124.56
1423	-5.	9.5	0.	124.76
1424	-4.5	9.5	0.	125.05
1425	-4.	9.5	0.	125.38
1426	-3.5	9.5	0.	125.7
1427	-3.	9.5	0.	125.99
1428	-2.5	9.5	0.	126.24
1429	-2.	9.5	0.	126.49
1430	-1.5	9.5	0.	126.72
1431	-1.	9.5	0.	126.81
1432	-0.5	9.5	0.	126.25
1433	5.7881e-012	9.5	0.	125.02
1434	0.5	9.5	0.	124.23
1435	1.	9.5	0.	124.8
1436	1.5	9.5	0.	125.17
1437	2.	9.5	0.	124.06
1438	2.5	9.5	0.	122.1
1439	3.	9.5	0.	121.26
1440	3.5	9.5	0.	122.35
1441	4.	9.5	0.	124.75
1442	4.5	9.5	0.	126.91
1443	5.	9.5	0.	128.44
1444	5.5	9.5	0.	131.28
1445	6.	9.5	0.	128.65
1446	6.5	9.5	0.	120.49
1447	7.	9.5	0.	121.26
1448	7.5	9.5	0.	119.84
1449	8.	9.5	0.	127.07
1450	8.5	9.5	0.	129.66
1451	9.	9.5	0.	126.46
1452	9.5	9.5	0.	124.73
1453	9.5	9.	0.	123.72
1454	9.5	8.5	0.	123.5
1455	9.5	8.	0.	123.9
1456	9.5	7.5	0.	125.01
1457	9.5	7.	0.	126.52
1458	9.5	6.5	0.	127.97
1459	9.5	6.	0.	128.64
1460	9.5	5.5	0.	128.7
1461	9.5	5.	0.	128.52
1462	9.5	4.5	0.	128.31
1463	9.5	4.	0.	128.11
1464	9.5	3.5	0.	127.96
1465	9.5	3.	0.	127.81
1466	9.5	2.5	0.	127.62
1467	9.5	2.	0.	127.34
1468	9.5	1.5	0.	126.98
1469	9.5	1.	0.	126.64
1470	9.5	0.5	0.	126.51
1471	9.5	-7.9452e-013	0.	126.66
1472	9.5	-0.5	0.	126.98
1473	9.5	-1.	0.	127.26
1474	9.5	-1.5	0.	127.37
1475	9.5	-2.	0.	127.3
1476	9.5	-2.5	0.	127.11
1477	9.5	-3.	0.	126.84
1478	9.5	-3.5	0.	126.56
1479	9.5	-4.	0.	126.32
1480	9.5	-4.5	0.	126.15
1481	9.5	-5.	0.	126.07
1482	9.5	-5.5	0.	126.08
1483	9.5	-6.	0.	126.14
1484	9.5	-6.5	0.	126.24
1485	9.5	-7.	0.	126.33
1486	9.5	-7.5	0.	126.41
1487	9.5	-8.	0.	126.46
1488	9.5	-8.5	0.	126.49
1489	9.5	-9.	0.	126.51
1490	9.5	-9.5	0.	126.51
1491	3.	-3.	0.	122.23
1492	5.	-5.5	0.	124.9
1493	-2.5	2.	0.	127.34
1494	-3.	-6.	0.	130.26
1495	-0.5	-1.2546e-010	0.	129.34
1496	3.	-6.	0.	122.85
1497	-3.5	-2.	0.	126.12
1498	-1.5	-3.5	0.	127.94
1499	-2.5	4.5	0.	127.81
1500	-2.	4.5	0.	128.11
1501	-8.5	6.	0.	124.64
1502	9.	4.5	0.	127.12
1503	-6.	7.5	0.	122.46
1504	-0.5	-6.5	0.	126.51
1505	-7.5	-8.	0.	128.39
1506	1.	4.	0.	123.74
1507	-2.5	-6.	0.	128.78
1508	-5.	2.5	0.	123.99
1509	-3.	-1.	0.	127.59
1510	4.	9.	0.	124.32
1511	-7.	-9.	0.	128.98
1512	-5.	3.5	0.	122.6
1513	3.7686e-012	-9.	0.	127.22
1514	-9.5	-5.	0.	129.13
1515	9.	-0.5	0.	127.43
1516	8.	-3.248e-012	0.	128.23
1517	9.	1.	0.	126.88
1518	9.	2.5	0.	127.47
1519	7.5	-6.5	0.	126.57
1520	5.5	-1.5	0.	126.25
1521	4.5	1.5	0.	127.48
1522	5.	-8.	0.	123.02
1523	-7.5	-7.5	0.	127.55
1524	4.	-2.	0.	122.79
1525	4.	4.	0.	125.73
1526	-7.5	-5.5	0.	128.73
1527	-4.5	7.5	0.	124.94
1528	-9.	2.	0.	128.57
1529	7.	-4.	0.	125.88
1530	1.5	4.	0.	120.68
1531	-9.	8.5	0.	125.19
1532	-3.5	-5.	0.	129.31
1533	5.5	6.	0.	132.57
1534	-9.	-5.5	0.	128.85
1535	6.	-5.5	0.	128.53
1536	5.	-6.	0.	123.32
1537	5.	-6.5	0.	122.87
1538	-8.5	6.5	0.	124.87
1539	5.	-7.	0.	122.77
1540	-3.5	-3.5	0.	126.81
1541	3.5	4.	0.	122.3
1542	-2.	-2.	0.	127.74
1543	-5.5	2.5	0.	124.08
1544	3.	-2.5	0.	121.58
1545	3.845e-011	0.5	0.	129.79
1546	9.	0.5	0.	126.69
1547	8.	0.5	0.	126.63
1548	9.	1.5	0.	127.28
1549	9.	-1.8471e-012	0.	126.97
1550	5.	6.	0.	135.12
1551	-3.	-7.	0.	129.08
1552	-7.5	6.5	0.	124.98
1553	9.	2.	0.	127.51
1554	1.	-3.5	0.	125.27
1555	-2.5	-2.	0.	127.12
1556	-2.5	6.	0.	126.45
1557	-7.5	-4.5	0.	129.08
1558	7.629e-011	-3.5	0.	126.44
1559	-1.	-1.3584e-010	0.	128.53
1560	-2.5	2.5	0.	127.68
1561	3.5	-7.5	0.	121.72
1562	3.	9.	0.	118.05
1563	-7.	1.	0.	121.58
1564	-0.5	-8.	0.	127.06
1565	-3.	-4.	0.	128.37
1566	-0.5	-5.	0.	126.64
1567	-2.	-3.5	0.	128.03
1568	-1.5	-7.	0.	126.71
1569	2.5	-7.	0.	124.35
1570	-2.	7.	0.	125.5
1571	0.5	-5.	0.	125.54
1572	-2.5	-2.5	0.	126.96
1573	1.5	3.5	0.	118.8
1574	-1.	2.5	0.	129.33
1575	-8.5	7.	0.	125.16
1576	4.5	2.	0.	128.42
1577	-5.5	9.	0.	124.28
1578	-1.5	-1.2921e-010	0.	128.02
1579	-6.5	4.5	0.	134.62
1580	-2.5	-1.	0.	127.74
1581	3.5	-3.	0.	118.67
1582	-6.	4.	0.	123.23
1583	-9.	-3.5	0.	128.98
1584	1.	-2.	0.	124.4
1585	4.	-1.5	0.	125.26
1586	-3.	4.5	0.	127.66
1587	3.	-2.	0.	121.29
1588	0.5	-9.	0.	126.66
1589	-3.5	-4.5	0.	127.89
1590	4.	5.	0.	125.81
1591	-9.	-0.5	0.	127.86
1592	-2.5	-3.5	0.	127.86
1593	-0.5	-7.	0.	126.56
1594	5.4695e-011	2.5	0.	131.46
1595	8.	1.	0.	127.9
1596	5.	-5.3713e-012	0.	127.38
1597	-2.	-5.	0.	129.
1598	-6.5	-9.	0.	126.5
1599	-5.	-1.5	0.	123.87
1600	-8.	-1.5	0.	129.32
1601	0.5	-3.5	0.	125.75
1602	-1.	-3.5	0.	127.61
1603	-2.	2.5	0.	128.15
1604	3.	-1.5	0.	121.36
1605	6.	-1.5	0.	124.62
1606	3.5	9.	0.	119.79
1607	-4.	-2.	0.	126.6
1608	7.5	2.	0.	126.82
1609	-4.5	7.	0.	126.47
1610	5.5	-1.	0.	127.53
1611	5.	6.5	0.	134.86
1612	-9.	-5.	0.	129.3
1613	4.5	-3.7023e-012	0.	126.92
1614	-0.5	-9.	0.	127.76
1615	-6.	2.5	0.	125.51
1616	-4.	-3.5	0.	126.72
1617	-7.5	-4.	0.	130.04
1618	-7.	1.5	0.	121.2
1619	-1.5	7.	0.	125.75
1620	-7.	-0.5	0.	122.56
1621	-3.5	6.	0.	126.53
1622	4.	4.5	0.	125.38
1623	-1.5	2.5	0.	128.67
1624	-6.	-4.5	0.	117.22
1625	-4.5	-4.5	0.	119.74
1626	1.	3.5	0.	123.12
1627	-0.5	2.5	0.	130.22
1628	-2.	-6.	0.	127.91
1629	-3.5	2.5	0.	126.51
1630	-0.5	-3.5	0.	127.1
1631	-8.	-5.5	0.	128.85
1632	-4.5	8.	0.	124.59
1633	-1.	-8.	0.	127.3
1634	7.5	-6.	0.	126.47
1635	-2.	3.5	0.	128.59
1636	-8.	3.75	0.	138.53
1637	-7.75	4.	0.	122.8
1638	-8.25	4.	0.	131.92
1639	-8.	4.25	0.	129.03
1640	-8.	3.25	0.	138.07
1641	-7.75	3.	0.	121.79
1642	-8.	2.75	0.	128.12
1643	-8.25	3.	0.	131.55
1644	-7.25	4.	0.	123.09
1645	-7.	3.75	0.	138.49
1646	-7.	4.25	0.	129.97
1647	-6.75	4.	0.	132.09
1648	-7.25	3.	0.	121.28
1649	-7.	3.25	0.	137.2
1650	-7.	2.75	0.	127.09
1651	-6.75	3.	0.	129.69
1652	-7.	-2.25	0.	138.75
1653	-6.75	-2.	0.	124.76
1654	-7.25	-2.	0.	132.15
1655	-7.	-1.75	0.	129.98
1656	-7.	-2.75	0.	138.48
1657	-6.75	-3.	0.	124.72
1658	-7.	-3.25	0.	129.84
1659	-7.25	-3.	0.	132.51
1660	-5.25	-2.	0.	123.43
1661	-5.	-2.25	0.	136.44
1662	-4.75	-2.	0.	130.34
1663	-5.	-1.75	0.	128.23
1664	-5.25	-3.	0.	122.29
1665	-5.	-2.75	0.	135.9
1666	-5.	-3.25	0.	126.53
1667	-4.75	-3.	0.	129.09
1668	2.	7.75	0.	140.62
1669	2.25	8.	0.	125.62
1670	2.	8.25	0.	133.47
1671	1.75	8.	0.	136.6
1672	2.	6.25	0.	140.83
1673	2.25	6.	0.	124.53
1674	2.	5.75	0.	129.94
1675	1.75	6.	0.	133.33
1676	3.75	8.	0.	123.72
1677	4.	7.75	0.	139.47
1678	4.	8.25	0.	130.43
1679	4.25	8.	0.	133.34
1680	3.75	6.	0.	125.94
1681	4.	6.25	0.	141.92
1682	4.25	6.	0.	136.36
1683	4.	5.75	0.	132.7
1684	1.	1.75	0.	138.52
1685	1.25	2.	0.	122.98
1686	0.75	2.	0.	132.75
1687	1.	2.25	0.	129.44
1688	1.	0.25	0.	138.96
1689	1.25	0.	0.	123.45
1690	1.	-0.25	0.	130.15
1691	0.75	-3.099e-011	0.	133.17
1692	2.75	2.	0.	122.01
1693	3.	1.75	0.	137.17
1694	3.	2.25	0.	128.3
1695	3.25	2.	0.	131.33
1696	2.75	0.	0.	122.03
1697	3.	0.25	0.	136.97
1698	3.	-0.25	0.	128.35
1699	3.25	-1.5314e-012	0.	130.96
1700	-6.	-6.25	0.	136.16
1701	-5.75	-6.	0.	120.79
1702	-6.	-5.75	0.	126.92
1703	-6.25	-6.	0.	130.19
1704	-6.	-7.75	0.	136.15
1705	-5.75	-8.	0.	120.77
1706	-6.	-8.25	0.	126.98
1707	-6.25	-8.	0.	130.52
1708	-4.25	-6.	0.	122.33
1709	-4.	-6.25	0.	137.72
1710	-4.	-5.75	0.	129.07
1711	-3.75	-6.	0.	132.23
1712	-4.25	-8.	0.	121.23
1713	-4.	-7.75	0.	136.93
1714	-3.75	-8.	0.	131.1
1715	-4.	-8.25	0.	127.63
1716	6.	8.75	0.	143.99
1717	6.25	9.	0.	129.55
1718	5.75	9.	0.	135.88
1719	6.	9.25	0.	134.66
1720	6.	7.25	0.	141.59
1721	6.25	7.	0.	126.13
1722	6.	6.75	0.	132.72
1723	5.75	7.	0.	135.58
1724	7.75	9.	0.	128.95
1725	8.	8.75	0.	143.38
1726	8.25	9.	0.	134.7
1727	8.	9.25	0.	133.17
1728	7.75	7.	0.	126.
1729	8.	7.25	0.	141.68
1730	8.25	7.	0.	134.59
1731	8.	6.75	0.	131.36
1732	6.	0.75	0.	136.76
1733	6.25	1.	0.	121.
1734	5.75	1.	0.	130.28
1735	6.	1.25	0.	127.48
1736	6.	0.25	0.	137.27
1737	6.25	0.	0.	121.76
1738	6.	-0.25	0.	128.58
1739	5.75	-2.3156e-012	0.	130.97
1740	6.75	1.	0.	121.4
1741	7.	0.75	0.	137.64
1742	7.25	1.	0.	131.09
1743	7.	1.25	0.	128.02
1744	6.75	0.	0.	121.73
1745	7.	0.25	0.	137.72
1746	7.25	-1.2755e-012	0.	131.41
1747	7.	-0.25	0.	128.39
1748	3.	-4.25	0.	137.19
1749	3.25	-4.	0.	123.96
1750	2.75	-4.	0.	130.38
1751	3.	-3.75	0.	128.6
1752	3.	-4.75	0.	137.19
1753	3.25	-5.	0.	124.
1754	3.	-5.25	0.	128.69
1755	2.75	-5.	0.	130.7
1756	4.75	-4.	0.	124.86
1757	5.	-4.25	0.	138.22
1758	5.25	-4.	0.	131.76
1759	5.	-3.75	0.	129.74
1760	4.75	-5.	0.	124.64
1761	5.	-4.75	0.	138.23
1762	5.25	-5.	0.	131.58
1763	5.	-5.25	0.	129.55
1764	0.	7.75	0.	138.47
1765	0.25	8.	0.	122.9
1766	-0.25	8.	0.	131.46
1767	3.2723e-012	8.25	0.	129.48
1768	0.	7.25	0.	137.54
1769	0.25	7.	0.	121.3
1770	-1.0252e-011	6.75	0.	127.48
1771	-0.25	7.	0.	130.57
1772	0.75	8.	0.	124.16
1773	1.	7.75	0.	140.86
1774	1.	8.25	0.	131.98
1775	1.25	8.	0.	135.92
1776	0.75	7.	0.	123.6
1777	1.	7.25	0.	140.97
1778	1.	6.75	0.	131.7
1779	1.25	7.	0.	137.68
1780	-6.	5.75	0.	137.38
1781	-5.75	6.	0.	121.32
1782	-6.	6.25	0.	127.26
1783	-6.25	6.	0.	130.06
1784	-6.	5.25	0.	138.72
1785	-5.75	5.	0.	123.07
1786	-6.	4.75	0.	130.06
1787	-6.25	5.	0.	132.2
1788	-5.25	6.	0.	121.78
1789	-5.	5.75	0.	137.79
1790	-5.	6.25	0.	128.2
1791	-4.75	6.	0.	131.15
1792	-5.25	5.	0.	122.44
1793	-5.	5.25	0.	138.
1794	-4.75	5.	0.	131.54
1795	-5.	4.75	0.	128.62
1796	9.75	10.	0.	125.45
1797	10.	9.75	0.	124.35
1798	-9.75	10.	0.	125.
1799	-10.	9.75	0.	125.
1800	10.	-9.75	0.	126.73
1801	9.75	-10.	0.	126.62
1802	-10.	-9.75	0.	130.65
1803	-9.75	-10.	0.	130.36
1804	-8.25	3.5	0.	136.78
1805	-7.5	4.25	0.	112.58
1806	-7.5	2.75	0.	111.4
1807	-6.75	3.5	0.	135.36
1808	-7.25	-2.5	0.	136.56
1809	-6.25	-2.	0.	117.85
1810	-6.5	-1.75	0.	115.46
1811	-5.75	-2.	0.	117.62
1812	-6.	-1.75	0.	118.09
1813	-5.5	-1.75	0.	115.
1814	-6.25	-3.	0.	117.8
1815	-6.5	-3.25	0.	115.87
1816	-5.75	-3.	0.	116.66
1817	-6.	-3.25	0.	117.45
1818	-5.5	-3.25	0.	113.44
1819	-4.75	-2.5	0.	134.05
1820	2.	7.25	0.	145.11
1821	1.75	7.5	0.	141.22
1822	2.	6.75	0.	146.5
1823	1.75	7.	0.	142.75
1824	1.75	6.5	0.	141.98
1825	2.75	8.	0.	116.24
1826	2.5	8.25	0.	115.13
1827	3.25	8.	0.	115.7
1828	3.	8.25	0.	116.8
1829	3.5	8.25	0.	113.92
1830	2.75	6.	0.	116.54
1831	2.5	5.75	0.	114.24
1832	3.25	6.	0.	116.94
1833	3.	5.75	0.	116.87
1834	3.5	5.75	0.	115.33
1835	4.	7.25	0.	145.36
1836	4.25	7.5	0.	139.97
1837	4.	6.75	0.	146.53
1838	4.25	7.	0.	142.4
1839	4.25	6.5	0.	142.06
1840	1.	1.25	0.	143.83
1841	0.75	1.5	0.	138.55
1842	1.	0.75	0.	143.94
1843	0.75	1.	0.	139.98
1844	0.75	0.5	0.	138.76
1845	1.75	2.	0.	114.51
1846	1.5	2.25	0.	112.78
1847	2.25	2.	0.	114.06
1848	2.	2.25	0.	114.43
1849	2.5	2.25	0.	111.94
1850	1.75	0.	0.	114.84
1851	1.5	-0.25	0.	113.22
1852	2.25	0.	0.	114.33
1853	2.	-0.25	0.	114.91
1854	2.5	-0.25	0.	112.24
1855	3.	1.25	0.	142.06
1856	3.25	1.5	0.	136.91
1857	3.	0.75	0.	141.92
1858	3.25	1.	0.	138.
1859	3.25	0.5	0.	136.56
1860	-6.	-6.75	0.	141.36
1861	-6.25	-6.5	0.	136.23
1862	-6.	-7.25	0.	141.43
1863	-6.25	-7.	0.	137.67
1864	-6.25	-7.5	0.	136.35
1865	-5.25	-6.	0.	112.89
1866	-5.5	-5.75	0.	110.6
1867	-4.75	-6.	0.	113.65
1868	-5.	-5.75	0.	113.45
1869	-4.5	-5.75	0.	112.22
1870	-5.25	-8.	0.	112.64
1871	-5.5	-8.25	0.	110.63
1872	-4.75	-8.	0.	112.7
1873	-5.	-8.25	0.	112.65
1874	-4.5	-8.25	0.	110.8
1875	-4.	-6.75	0.	142.62
1876	-3.75	-6.5	0.	137.61
1877	-4.	-7.25	0.	142.35
1878	-3.75	-7.	0.	138.68
1879	-3.75	-7.5	0.	137.12
1880	6.	8.25	0.	148.12
1881	5.75	8.5	0.	142.35
1882	6.	7.75	0.	147.3
1883	5.75	8.	0.	143.38
1884	5.75	7.5	0.	141.53
1885	6.75	9.	0.	122.87
1886	6.5	9.25	0.	119.79
1887	7.25	9.	0.	122.97
1888	7.	9.25	0.	123.54
1889	7.5	9.25	0.	119.55
1890	6.75	7.	0.	118.16
1891	6.5	6.75	0.	116.03
1892	7.25	7.	0.	118.43
1893	7.	6.75	0.	118.45
1894	7.5	6.75	0.	116.13
1895	8.	8.25	0.	148.55
1896	8.25	8.5	0.	141.56
1897	8.	7.75	0.	148.15
1898	8.25	8.	0.	143.09
1899	8.25	7.5	0.	141.25
1900	5.75	0.5	0.	135.34
1901	6.5	1.25	0.	111.2
1902	6.5	-0.25	0.	111.87
1903	7.25	0.5	0.	136.19
1904	2.75	-4.5	0.	134.76
1905	3.75	-4.	0.	118.19
1906	3.5	-3.75	0.	115.45
1907	4.25	-4.	0.	118.62
1908	4.	-3.75	0.	118.89
1909	4.5	-3.75	0.	116.31
1910	3.75	-5.	0.	118.15
1911	3.5	-5.25	0.	115.48
1912	4.25	-5.	0.	118.28
1913	4.	-5.25	0.	118.55
1914	4.5	-5.25	0.	115.74
1915	5.25	-4.5	0.	135.86
1916	-0.25	7.5	0.	136.09
1917	0.5	8.25	0.	113.51
1918	0.5	6.75	0.	112.08
1919	1.25	7.5	0.	142.04
1920	-6.25	5.5	0.	135.63
1921	-5.5	6.25	0.	111.51
1922	-5.5	4.75	0.	112.39
1923	-4.75	5.5	0.	136.29
1924	9.25	10.	0.	126.68
1925	9.5	9.75	0.	125.22
1926	8.75	10.	0.	127.42
1927	9.	9.75	0.	127.03
1928	8.25	10.	0.	124.82
1929	8.5	9.75	0.	128.42
1930	7.75	10.	0.	120.31
1931	8.	9.75	0.	124.62
1932	7.25	10.	0.	117.32
1933	7.5	9.75	0.	118.89
1934	6.75	10.	0.	117.8
1935	7.	9.75	0.	118.56
1936	6.25	10.	0.	121.92
1937	6.5	9.75	0.	119.7
1938	5.75	10.	0.	127.71
1939	6.	9.75	0.	126.5
1940	5.25	10.	0.	131.08
1941	5.5	9.75	0.	130.95
1942	4.75	10.	0.	129.95
1943	5.	9.75	0.	129.86
1944	4.25	10.	0.	126.72
1945	4.5	9.75	0.	127.64
1946	3.75	10.	0.	123.54
1947	4.	9.75	0.	124.8
1948	3.25	10.	0.	121.46
1949	3.5	9.75	0.	122.2
1950	2.75	10.	0.	120.97
1951	3.	9.75	0.	121.01
1952	2.25	10.	0.	121.81
1953	2.5	9.75	0.	121.6
1954	1.75	10.	0.	123.09
1955	2.	9.75	0.	123.25
1956	1.25	10.	0.	123.96
1957	1.5	9.75	0.	124.44
1958	0.75	10.	0.	124.37
1959	1.	9.75	0.	124.5
1960	0.25	10.	0.	124.91
1961	0.5	9.75	0.	124.38
1962	-0.25	10.	0.	125.87
1963	2.8914e-012	9.75	0.	125.15
1964	-0.75	10.	0.	126.88
1965	-0.5	9.75	0.	126.34
1966	-1.25	10.	0.	127.44
1967	-1.	9.75	0.	127.06
1968	-1.75	10.	0.	127.48
1969	-1.5	9.75	0.	127.15
1970	-2.25	10.	0.	127.2
1971	-2.	9.75	0.	126.94
1972	-2.75	10.	0.	126.77
1973	-2.5	9.75	0.	126.62
1974	-3.25	10.	0.	126.29
1975	-3.	9.75	0.	126.26
1976	-3.75	10.	0.	125.8
1977	-3.5	9.75	0.	125.87
1978	-4.25	10.	0.	125.32
1979	-4.	9.75	0.	125.47
1980	-4.75	10.	0.	124.89
1981	-4.5	9.75	0.	125.07
1982	-5.25	10.	0.	124.57
1983	-5.	9.75	0.	124.73
1984	-5.75	10.	0.	124.4
1985	-5.5	9.75	0.	124.5
1986	-6.25	10.	0.	124.36
1987	-6.	9.75	0.	124.42
1988	-6.75	10.	0.	124.43
1989	-6.5	9.75	0.	124.46
1990	-7.25	10.	0.	124.57
1991	-7.	9.75	0.	124.57
1992	-7.75	10.	0.	124.72
1993	-7.5	9.75	0.	124.7
1994	-8.25	10.	0.	124.84
1995	-8.	9.75	0.	124.82
1996	-8.75	10.	0.	124.94
1997	-8.5	9.75	0.	124.92
1998	-9.25	10.	0.	124.99
1999	-9.	9.75	0.	124.98
2000	-9.5	9.75	0.	125.01
2001	10.	9.25	0.	121.81
2002	9.75	9.5	0.	124.12
2003	10.	8.75	0.	118.9
2004	9.75	9.	0.	121.89
2005	10.	8.25	0.	117.68
2006	9.75	8.5	0.	120.61
2007	10.	7.75	0.	118.65
2008	9.75	8.	0.	120.76
2009	10.	7.25	0.	121.4
2010	9.75	7.5	0.	122.33
2011	10.	6.75	0.	124.89
2012	9.75	7.	0.	124.81
2013	10.	6.25	0.	127.81
2014	9.75	6.5	0.	127.29
2015	10.	5.75	0.	129.43
2016	9.75	6.	0.	128.8
2017	10.	5.25	0.	129.9
2018	9.75	5.5	0.	129.3
2019	10.	4.75	0.	129.73
2020	9.75	5.	0.	129.21
2021	10.	4.25	0.	129.35
2022	9.75	4.5	0.	128.93
2023	10.	3.75	0.	128.96
2024	9.75	4.	0.	128.63
2025	10.	3.25	0.	128.58
2026	9.75	3.5	0.	128.36
2027	10.	2.75	0.	128.16
2028	9.75	3.	0.	128.1
2029	10.	2.25	0.	127.62
2030	9.75	2.5	0.	127.77
2031	10.	1.75	0.	126.94
2032	9.75	2.	0.	127.32
2033	10.	1.25	0.	126.27
2034	9.75	1.5	0.	126.78
2035	10.	0.75	0.	125.85
2036	9.75	1.	0.	126.3
2037	10.	0.25	0.	125.86
2038	9.75	0.5	0.	126.12
2039	10.	-0.25	0.	126.29
2040	9.75	-3.9986e-013	0.	126.33
2041	10.	-0.75	0.	126.88
2042	9.75	-0.5	0.	126.78
2043	10.	-1.25	0.	127.35
2044	9.75	-1.	0.	127.22
2045	10.	-1.75	0.	127.54
2046	9.75	-1.5	0.	127.45
2047	10.	-2.25	0.	127.44
2048	9.75	-2.	0.	127.43
2049	10.	-2.75	0.	127.14
2050	9.75	-2.5	0.	127.22
2051	10.	-3.25	0.	126.74
2052	9.75	-3.	0.	126.89
2053	10.	-3.75	0.	126.35
2054	9.75	-3.5	0.	126.55
2055	10.	-4.25	0.	126.05
2056	9.75	-4.	0.	126.24
2057	10.	-4.75	0.	125.88
2058	9.75	-4.5	0.	126.04
2059	10.	-5.25	0.	125.85
2060	9.75	-5.	0.	125.95
2061	10.	-5.75	0.	125.94
2062	9.75	-5.5	0.	125.97
2063	10.	-6.25	0.	126.09
2064	9.75	-6.	0.	126.07
2065	10.	-6.75	0.	126.27
2066	9.75	-6.5	0.	126.21
2067	10.	-7.25	0.	126.43
2068	9.75	-7.	0.	126.34
2069	10.	-7.75	0.	126.55
2070	9.75	-7.5	0.	126.45
2071	10.	-8.25	0.	126.64
2072	9.75	-8.	0.	126.53
2073	10.	-8.75	0.	126.69
2074	9.75	-8.5	0.	126.58
2075	10.	-9.25	0.	126.72
2076	9.75	-9.	0.	126.61
2077	9.75	-9.5	0.	126.62
2078	-10.	9.25	0.	125.02
2079	-9.75	9.5	0.	125.
2080	-10.	8.75	0.	125.09
2081	-9.75	9.	0.	125.06
2082	-10.	8.25	0.	125.19
2083	-9.75	8.5	0.	125.16
2084	-10.	7.75	0.	125.32
2085	-9.75	8.	0.	125.27
2086	-10.	7.25	0.	125.46
2087	-9.75	7.5	0.	125.38
2088	-10.	6.75	0.	125.67
2089	-9.75	7.	0.	125.52
2090	-10.	6.25	0.	125.98
2091	-9.75	6.5	0.	125.73
2092	-10.	5.75	0.	126.37
2093	-9.75	6.	0.	126.06
2094	-10.	5.25	0.	126.6
2095	-9.75	5.5	0.	126.47
2096	-10.	4.75	0.	126.33
2097	-9.75	5.	0.	126.73
2098	-10.	4.25	0.	125.56
2099	-9.75	4.5	0.	126.5
2100	-10.	3.75	0.	124.97
2101	-9.75	4.	0.	125.87
2102	-10.	3.25	0.	125.47
2103	-9.75	3.5	0.	125.77
2104	-10.	2.75	0.	127.
2105	-9.75	3.	0.	126.69
2106	-10.	2.25	0.	128.6
2107	-9.75	2.5	0.	128.07
2108	-10.	1.75	0.	129.52
2109	-9.75	2.	0.	128.92
2110	-10.	1.25	0.	129.74
2111	-9.75	1.5	0.	129.15
2112	-10.	0.75	0.	129.59
2113	-9.75	1.	0.	129.06
2114	-10.	0.25	0.	129.3
2115	-9.75	0.5	0.	128.89
2116	-10.	-0.25	0.	128.9
2117	-9.75	-1.4213e-013	0.	128.7
2118	-10.	-0.75	0.	128.36
2119	-9.75	-0.5	0.	128.43
2120	-10.	-1.25	0.	127.69
2121	-9.75	-1.	0.	128.02
2122	-10.	-1.75	0.	127.06
2123	-9.75	-1.5	0.	127.52
2124	-10.	-2.25	0.	126.79
2125	-9.75	-2.	0.	127.14
2126	-10.	-2.75	0.	127.07
2127	-9.75	-2.5	0.	127.16
2128	-10.	-3.25	0.	127.84
2129	-9.75	-3.	0.	127.65
2130	-10.	-3.75	0.	128.73
2131	-9.75	-3.5	0.	128.42
2132	-10.	-4.25	0.	129.37
2133	-9.75	-4.	0.	129.09
2134	-10.	-4.75	0.	129.52
2135	-9.75	-4.5	0.	129.41
2136	-10.	-5.25	0.	129.21
2137	-9.75	-5.	0.	129.3
2138	-10.	-5.75	0.	128.63
2139	-9.75	-5.5	0.	128.89
2140	-10.	-6.25	0.	128.03
2141	-9.75	-6.	0.	128.36
2142	-10.	-6.75	0.	127.68
2143	-9.75	-6.5	0.	127.95
2144	-10.	-7.25	0.	127.71
2145	-9.75	-7.	0.	127.82
2146	-10.	-7.75	0.	128.13
2147	-9.75	-7.5	0.	128.02
2148	-10.	-8.25	0.	128.84
2149	-9.75	-8.	0.	128.52
2150	-10.	-8.75	0.	129.62
2151	-9.75	-8.5	0.	129.16
2152	-10.	-9.25	0.	130.28
2153	-9.75	-9.	0.	129.77
2154	-9.75	-9.5	0.	130.21
2155	-9.25	-10.	0.	129.87
2156	-9.5	-9.75	0.	129.93
2157	-8.75	-10.	0.	129.75
2158	-9.	-9.75	0.	129.72
2159	-8.25	-10.	0.	129.69
2160	-8.5	-9.75	0.	129.71
2161	-7.75	-10.	0.	129.32
2162	-8.	-9.75	0.	129.62
2163	-7.25	-10.	0.	128.15
2164	-7.5	-9.75	0.	129.09
2165	-6.75	-10.	0.	125.63
2166	-7.	-9.75	0.	127.52
2167	-6.25	-10.	0.	121.69
2168	-6.5	-9.75	0.	124.23
2169	-5.75	-10.	0.	117.38
2170	-6.	-9.75	0.	119.51
2171	-5.25	-10.	0.	114.56
2172	-5.5	-9.75	0.	115.17
2173	-4.75	-10.	0.	114.64
2174	-5.	-9.75	0.	113.47
2175	-4.25	-10.	0.	117.61
2176	-4.5	-9.75	0.	115.34
2177	-3.75	-10.	0.	121.99
2178	-4.	-9.75	0.	119.81
2179	-3.25	-10.	0.	125.92
2180	-3.5	-9.75	0.	124.56
2181	-2.75	-10.	0.	128.33
2182	-3.	-9.75	0.	127.77
2183	-2.25	-10.	0.	129.28
2184	-2.5	-9.75	0.	129.17
2185	-1.75	-10.	0.	129.33
2186	-2.	-9.75	0.	129.43
2187	-1.25	-10.	0.	128.94
2188	-1.5	-9.75	0.	129.14
2189	-0.75	-10.	0.	128.37
2190	-1.	-9.75	0.	128.63
2191	-0.25	-10.	0.	127.74
2192	-0.5	-9.75	0.	128.02
2193	0.25	-10.	0.	127.09
2194	7.5677e-013	-9.75	0.	127.39
2195	0.75	-10.	0.	126.43
2196	0.5	-9.75	0.	126.75
2197	1.25	-10.	0.	125.74
2198	1.	-9.75	0.	126.08
2199	1.75	-10.	0.	125.06
2200	1.5	-9.75	0.	125.4
2201	2.25	-10.	0.	124.39
2202	2.	-9.75	0.	124.71
2203	2.75	-10.	0.	123.8
2204	2.5	-9.75	0.	124.06
2205	3.25	-10.	0.	123.35
2206	3.	-9.75	0.	123.52
2207	3.75	-10.	0.	123.08
2208	3.5	-9.75	0.	123.14
2209	4.25	-10.	0.	123.04
2210	4.	-9.75	0.	122.98
2211	4.75	-10.	0.	123.22
2212	4.5	-9.75	0.	123.06
2213	5.25	-10.	0.	123.56
2214	5.	-9.75	0.	123.34
2215	5.75	-10.	0.	124.01
2216	5.5	-9.75	0.	123.77
2217	6.25	-10.	0.	124.5
2218	6.	-9.75	0.	124.27
2219	6.75	-10.	0.	124.96
2220	6.5	-9.75	0.	124.76
2221	7.25	-10.	0.	125.37
2222	7.	-9.75	0.	125.2
2223	7.75	-10.	0.	125.7
2224	7.5	-9.75	0.	125.57
2225	8.25	-10.	0.	125.98
2226	8.	-9.75	0.	125.86
2227	8.75	-10.	0.	126.2
2228	8.5	-9.75	0.	126.1
2229	9.25	-10.	0.	126.41
2230	9.	-9.75	0.	126.31
2231	9.5	-9.75	0.	126.51
2232	-3.	1.75	0.	126.78
2233	-3.25	1.5	0.	126.43
2234	-3.	1.25	0.	126.71
2235	-2.75	1.5	0.	126.9
2236	-2.75	1.	0.	126.88
2237	-2.5	0.75	0.	127.12
2238	-2.5	1.25	0.	127.07
2239	-2.25	1.	0.	127.15
2240	-3.25	2.	0.	126.56
2241	-3.	2.25	0.	127.01
2242	-2.75	2.	0.	127.1
2243	-1.	-4.25	0.	127.48
2244	-1.25	-4.	0.	127.8
2245	-0.75	-4.	0.	127.18
2246	-1.	-3.75	0.	127.56
2247	-3.5	1.75	0.	126.21
2248	-3.75	1.5	0.	125.81
2249	-3.5	1.25	0.	126.18
2250	-3.25	1.	0.	126.47
2251	-3.	0.75	0.	126.82
2252	-1.	-2.75	0.	127.98
2253	-0.75	-3.	0.	127.63
2254	-1.25	-3.	0.	127.85
2255	-1.	-3.25	0.	127.71
2256	-2.75	0.5	0.	127.06
2257	-2.5	0.25	0.	127.33
2258	-2.25	0.5	0.	127.29
2259	-3.75	2.	0.	125.89
2260	-3.5	2.25	0.	126.38
2261	-2.25	1.5	0.	127.24
2262	-2.5	1.75	0.	127.22
2263	-0.75	-4.5	0.	127.08
2264	-0.5	-4.25	0.	126.78
2265	-0.25	-4.5	0.	126.36
2266	-0.5	-4.75	0.	126.68
2267	-1.25	-2.5	0.	128.08
2268	-1.5	-2.25	0.	128.13
2269	-1.5	-2.75	0.	127.94
2270	-1.75	-2.5	0.	127.8
2271	-3.	2.75	0.	127.34
2272	-2.75	2.5	0.	127.42
2273	-3.25	2.5	0.	126.83
2274	-2.	0.75	0.	127.32
2275	-2.	1.25	0.	127.31
2276	-1.75	1.	0.	127.33
2277	-1.	-4.75	0.	127.38
2278	-1.25	-4.5	0.	127.81
2279	-2.25	3.	0.	128.24
2280	-2.75	3.	0.	127.76
2281	-2.5	3.25	0.	128.09
2282	-2.5	2.75	0.	127.84
2283	-4.	1.75	0.	125.49
2284	-4.25	1.5	0.	125.09
2285	-4.	1.25	0.	125.48
2286	-3.75	1.	0.	125.85
2287	-3.5	0.75	0.	126.33
2288	-0.75	-2.5	0.	128.06
2289	-1.	-2.25	0.	128.39
2290	-0.5	-2.75	0.	127.71
2291	-0.25	-3.	0.	127.15
2292	-0.5	-3.25	0.	127.28
2293	-1.5	-1.75	0.	128.41
2294	-1.25	-2.	0.	128.44
2295	-1.75	-2.	0.	128.
2296	-1.5	4.25	0.	128.57
2297	-1.75	4.	0.	128.61
2298	-1.5	3.75	0.	128.9
2299	-1.25	4.	0.	128.85
2300	-1.5	-4.25	0.	128.13
2301	-1.75	-4.	0.	128.29
2302	-1.5	-3.75	0.	128.01
2303	-3.25	0.5	0.	126.69
2304	-3.	0.25	0.	127.09
2305	-2.5	-0.25	0.	127.59
2306	-2.75	-6.5996e-011	0.	127.36
2307	-2.25	-9.9463e-011	0.	127.59
2308	-4.25	2.	0.	125.15
2309	-4.	2.25	0.	125.59
2310	-0.5	-5.75	0.	126.56
2311	-0.25	-5.5	0.	126.38
2312	-0.75	-5.5	0.	126.85
2313	-0.5	-5.25	0.	126.61
2314	-0.25	-4.	0.	126.5
2315	-0.5	-3.75	0.	126.98
2316	-1.75	-3.	0.	127.79
2317	-1.5	-3.25	0.	127.91
2318	-2.	0.25	0.	127.54
2319	-1.75	0.5	0.	127.48
2320	-1.75	3.	0.	128.74
2321	-2.	2.75	0.	128.32
2322	-2.	3.25	0.	128.53
2323	-2.	1.75	0.	127.55
2324	-1.75	1.5	0.	127.5
2325	3.5845e-011	-4.75	0.	126.02
2326	3.8353e-011	-4.25	0.	126.07
2327	0.25	-4.5	0.	125.67
2328	-1.25	4.5	0.	128.37
2329	-1.5	4.75	0.	128.17
2330	-1.75	4.5	0.	128.24
2331	-2.25	4.	0.	128.29
2332	-2.	4.25	0.	128.28
2333	-2.	3.75	0.	128.52
2334	-0.25	-6.	0.	126.43
2335	-0.75	-6.	0.	126.69
2336	-0.5	-6.25	0.	126.52
2337	-1.	-5.25	0.	127.22
2338	-1.25	-5.	0.	127.72
2339	-0.75	-5.	0.	126.98
2340	-3.25	3.	0.	127.22
2341	-3.	3.25	0.	127.68
2342	-4.5	1.75	0.	124.74
2343	-4.5	1.25	0.	124.65
2344	-4.75	1.5	0.	124.4
2345	-4.25	1.	0.	125.04
2346	-4.	0.75	0.	125.58
2347	-2.	-2.75	0.	127.64
2348	-2.	-2.25	0.	127.66
2349	-2.25	-2.5	0.	127.28
2350	-2.	-0.75	0.	128.06
2351	-2.	-1.25	0.	128.04
2352	-1.75	-1.	0.	128.38
2353	-2.25	-1.	0.	127.92
2354	4.6721e-011	-5.75	0.	126.25
2355	4.1832e-011	-6.25	0.	126.38
2356	0.25	-6.	0.	126.3
2357	-0.25	-2.5	0.	127.65
2358	-0.5	-2.25	0.	128.31
2359	1.4793e-010	-2.75	0.	127.09
2360	0.25	-3.	0.	126.44
2361	9.832e-011	-3.25	0.	126.64
2362	-1.75	-1.5	0.	128.26
2363	-1.5	-1.25	0.	128.6
2364	-1.25	-1.5	0.	128.82
2365	-1.5	3.25	0.	129.02
2366	-1.25	3.5	0.	129.22
2367	-1.75	3.5	0.	128.81
2368	-1.5	0.75	0.	127.5
2369	-1.5	1.25	0.	127.52
2370	-1.25	1.	0.	127.53
2371	-2.5	3.75	0.	128.16
2372	-2.75	3.5	0.	128.02
2373	-2.25	3.5	0.	128.39
2374	-1.5	-4.75	0.	128.14
2375	-1.75	-4.5	0.	128.53
2376	-3.75	0.5	0.	126.07
2377	-3.5	0.25	0.	126.67
2378	-2.25	-0.5	0.	127.86
2379	-2.75	-0.5	0.	127.63
2380	-2.5	-0.75	0.	127.73
2381	-1.	4.25	0.	128.66
2382	-0.75	4.5	0.	128.18
2383	-1.	4.75	0.	128.13
2384	-0.75	-2.	0.	128.63
2385	-1.	-1.75	0.	128.86
2386	-1.	3.75	0.	129.18
2387	-0.75	4.	0.	128.86
2388	6.25	4.	0.	125.63
2389	5.75	4.	0.	127.16
2390	6.	3.75	0.	126.05
2391	6.	4.25	0.	126.57
2392	-2.	-4.25	0.	128.69
2393	-2.25	-4.	0.	128.58
2394	-2.	-3.75	0.	128.26
2395	-3.25	-3.7752e-011	0.	127.07
2396	-3.	-0.25	0.	127.4
2397	-4.5	2.25	0.	124.74
2398	-4.75	2.	0.	124.52
2399	-4.25	2.5	0.	125.19
2400	-4.	2.75	0.	125.83
2401	-3.75	2.5	0.	126.08
2402	-2.	-0.25	0.	127.85
2403	-1.75	-1.2236e-010	0.	127.86
2404	-1.75	-0.5	0.	128.23
2405	-1.75	2.	0.	127.93
2406	-2.25	2.	0.	127.53
2407	-2.	2.25	0.	127.94
2408	4.2813e-011	-5.25	0.	126.11
2409	-0.25	-5.	0.	126.34
2410	0.25	-5.	0.	125.79
2411	0.25	-5.5	0.	126.06
2412	0.25	-4.	0.	125.79
2413	6.0096e-011	-3.75	0.	126.29
2414	-2.	5.25	0.	127.48
2415	-1.75	5.	0.	127.83
2416	-2.25	5.	0.	127.5
2417	-2.	4.75	0.	127.9
2418	-1.	-5.75	0.	126.99
2419	-1.	-6.25	0.	126.75
2420	-1.25	-6.	0.	127.07
2421	-1.25	-5.5	0.	127.45
2422	-2.25	-3.	0.	127.46
2423	-2.	-3.25	0.	127.86
2424	-3.75	3.	0.	126.46
2425	-3.5	3.25	0.	127.19
2426	-3.5	2.75	0.	126.71
2427	-4.75	1.	0.	124.13
2428	-4.5	0.75	0.	124.56
2429	-5.	1.25	0.	123.87
2430	-5.25	1.	0.	123.27
2431	-5.	0.75	0.	123.42
2432	-2.25	-1.5	0.	127.73
2433	-2.	-1.75	0.	127.86
2434	0.25	-6.5	0.	126.43
2435	0.5	-6.25	0.	126.35
2436	0.75	-6.5	0.	126.48
2437	0.5	-6.75	0.	126.45
2438	3.1486e-011	-6.75	0.	126.47
2439	-0.25	-6.5	0.	126.47
2440	-1.25	-6.5	0.	126.75
2441	-1.	-6.75	0.	126.64
2442	-0.75	-6.5	0.	126.58
2443	6.5	4.25	0.	124.79
2444	6.5	3.75	0.	124.73
2445	6.75	4.	0.	124.5
2446	-5.75	0.5	0.	121.6
2447	-6.	0.25	0.	120.66
2448	-6.25	0.5	0.	121.25
2449	-6.	0.75	0.	121.77
2450	0.25	-2.5	0.	126.81
2451	1.896e-010	-2.25	0.	127.71
2452	-1.25	0.5	0.	127.73
2453	-1.5	0.25	0.	127.8
2454	-1.5	-0.75	0.	128.56
2455	-1.25	-1.	0.	129.
2456	-1.25	3.	0.	129.31
2457	-1.5	2.75	0.	128.84
2458	-1.5	1.75	0.	127.87
2459	-1.25	1.5	0.	127.78
2460	0.5	-5.75	0.	126.1
2461	0.75	-6.	0.	126.36
2462	0.5	-2.75	0.	126.16
2463	0.75	-3.	0.	125.7
2464	0.5	-3.25	0.	125.9
2465	0.5	-4.25	0.	125.39
2466	0.75	-4.5	0.	125.05
2467	0.5	-4.75	0.	125.44
2468	-2.75	4.	0.	128.04
2469	-2.5	4.25	0.	127.97
2470	-2.25	5.5	0.	127.06
2471	-2.5	5.25	0.	127.08
2472	-2.75	5.5	0.	126.67
2473	-2.5	5.75	0.	126.64
2474	-1.5	-5.25	0.	127.95
2475	-1.75	-5.	0.	128.55
2476	-4.25	0.5	0.	125.11
2477	-4.	0.25	0.	125.9
2478	-5.5	0.75	0.	122.41
2479	-5.25	0.5	0.	122.57
2480	-5.5	0.25	0.	121.44
2481	-1.5	-6.25	0.	127.07
2482	-1.75	-6.5	0.	127.01
2483	-1.5	-6.75	0.	126.78
2484	-0.5	4.25	0.	128.38
2485	-0.25	4.5	0.	127.62
2486	-0.5	4.75	0.	127.63
2487	6.75	4.5	0.	124.11
2488	6.25	4.5	0.	125.74
2489	6.5	4.75	0.	124.32
2490	-0.25	-2.	0.	128.36
2491	-0.5	-1.75	0.	129.05
2492	-1.	-1.25	0.	129.23
2493	-0.75	-1.5	0.	129.28
2494	-1.	3.25	0.	129.52
2495	-0.75	3.5	0.	129.51
2496	-1.	0.75	0.	127.77
2497	-1.	1.25	0.	127.79
2498	-0.75	1.	0.	127.96
2499	-0.25	4.	0.	128.4
2500	-0.5	3.75	0.	129.19
2501	1.	-6.75	0.	126.46
2502	1.	-6.25	0.	126.48
2503	1.25	-6.5	0.	126.58
2504	-3.	3.75	0.	127.9
2505	-3.25	3.5	0.	127.66
2506	5.5	3.75	0.	127.58
2507	5.25	4.	0.	128.38
2508	5.5	4.25	0.	128.45
2509	-2.	5.75	0.	127.06
2510	-1.75	5.5	0.	127.49
2511	-2.25	-4.5	0.	129.16
2512	-2.	-4.75	0.	128.94
2513	-3.75	-2.0431e-011	0.	126.51
2514	-3.5	-0.25	0.	127.15
2515	-3.25	-0.5	0.	127.48
2516	-3.	-0.75	0.	127.57
2517	-4.5	2.75	0.	124.69
2518	-4.75	2.5	0.	124.35
2519	-4.25	3.	0.	125.34
2520	-4.	3.25	0.	126.38
2521	-5.	1.75	0.	124.18
2522	-5.25	1.5	0.	123.9
2523	-5.75	1.	0.	122.58
2524	-5.5	1.25	0.	123.29
2525	6.25	3.5	0.	125.16
2526	6.75	3.5	0.	124.4
2527	6.5	3.25	0.	124.16
2528	5.25	3.5	0.	127.72
2529	5.	3.75	0.	128.52
2530	4.75	3.5	0.	128.23
2531	5.	3.25	0.	128.15
2532	-2.5	-4.25	0.	129.05
2533	-2.75	-4.	0.	128.51
2534	-2.5	-3.75	0.	128.26
2535	-5.75	1.9184e-013	0.	120.49
2536	-6.25	1.2997e-013	0.	120.32
2537	-6.	-0.25	0.	119.28
2538	-6.5	0.25	0.	120.91
2539	-6.75	0.5	0.	121.56
2540	-6.5	0.75	0.	121.53
2541	7.	-6.25	0.	126.8
2542	6.75	-6.5	0.	126.88
2543	7.	-6.75	0.	126.64
2544	7.25	-6.5	0.	126.68
2545	6.25	-7.	0.	126.08
2546	6.5	-6.75	0.	126.67
2547	6.75	-7.	0.	126.42
2548	6.5	-7.25	0.	126.07
2549	-1.5	5.25	0.	127.83
2550	-1.25	5.	0.	127.93
2551	0.75	-2.5	0.	125.64
2552	0.5	-2.25	0.	126.45
2553	1.	-2.75	0.	125.17
2554	1.25	-2.5	0.	124.46
2555	1.	-2.25	0.	124.7
2556	-1.25	-0.5	0.	128.8
2557	-1.5	-0.25	0.	128.24
2558	-1.25	2.	0.	128.39
2559	-1.5	2.25	0.	128.4
2560	0.75	-5.5	0.	125.95
2561	0.5	-5.25	0.	125.74
2562	0.75	-4.	0.	125.17
2563	0.5	-3.75	0.	125.59
2564	-2.5	6.75	0.	125.84
2565	-2.75	6.5	0.	126.17
2566	-2.25	6.5	0.	126.15
2567	-2.5	6.25	0.	126.26
2568	-2.75	5.	0.	127.18
2569	-2.5	4.75	0.	127.56
2570	-1.5	-5.75	0.	127.54
2571	-1.75	-6.	0.	127.6
2572	-1.75	-5.5	0.	128.22
2573	-2.75	-3.	0.	126.88
2574	-2.5	-2.75	0.	127.09
2575	-2.5	-3.25	0.	127.54
2576	-4.75	0.5	0.	123.86
2577	-4.5	0.25	0.	124.63
2578	-5.	0.25	0.	122.97
2579	-2.75	-1.5	0.	127.34
2580	-2.5	-1.75	0.	127.3
2581	-2.5	-1.25	0.	127.61
2582	5.75	3.5	0.	126.47
2583	6.	3.25	0.	125.3
2584	5.5	3.25	0.	126.91
2585	4.25	-7.	0.	120.66
2586	3.75	-7.	0.	120.6
2587	4.	-6.75	0.	119.52
2588	4.	-7.25	0.	120.8
2589	1.25	-7.	0.	126.28
2590	1.75	-7.	0.	125.88
2591	1.5	-6.75	0.	126.41
2592	1.5	-7.25	0.	125.98
2593	0.75	-7.	0.	126.43
2594	1.	-7.25	0.	126.3
2595	0.25	-7.	0.	126.49
2596	0.5	-7.25	0.	126.46
2597	2.1504e-011	-7.25	0.	126.57
2598	-0.25	-7.	0.	126.54
2599	-1.	-7.25	0.	126.74
2600	-1.25	-7.	0.	126.67
2601	-0.75	-7.	0.	126.59
2602	-2.	-6.75	0.	127.02
2603	-2.25	-7.	0.	127.14
2604	-2.	-7.25	0.	127.01
2605	-1.75	-7.	0.	126.79
2606	7.	4.25	0.	123.82
2607	7.	4.75	0.	122.9
2608	7.25	4.5	0.	123.52
2609	7.	3.75	0.	124.17
2610	7.25	4.	0.	124.16
2611	2.1172e-011	4.25	0.	127.63
2612	0.25	4.5	0.	126.75
2613	-7.2095e-012	4.75	0.	126.81
2614	5.75	4.5	0.	127.86
2615	6.	4.75	0.	126.85
2616	6.75	5.	0.	123.11
2617	7.	5.25	0.	121.29
2618	7.25	5.	0.	122.39
2619	0.25	-2.	0.	127.34
2620	2.0202e-010	-1.75	0.	128.62
2621	1.75	-2.	0.	121.54
2622	1.5	-2.25	0.	123.06
2623	1.5	-1.75	0.	121.16
2624	1.25	-2.	0.	123.29
2625	-0.75	0.5	0.	128.23
2626	-1.	0.25	0.	128.21
2627	-1.	-0.75	0.	129.25
2628	-0.75	-1.	0.	129.73
2629	-0.75	3.	0.	129.92
2630	-1.	2.75	0.	129.48
2631	-1.	1.75	0.	128.29
2632	-0.75	1.5	0.	128.27
2633	0.25	4.	0.	127.19
2634	5.0558e-011	3.75	0.	128.55
2635	4.5	-1.75	0.	125.09
2636	4.75	-2.	0.	124.71
2637	4.5	-2.25	0.	122.97
2638	4.25	-2.	0.	123.4
2639	7.	-2.75	0.	126.61
2640	7.	-3.25	0.	126.6
2641	7.25	-3.	0.	126.65
2642	6.75	-3.	0.	127.05
2643	7.	-5.75	0.	126.62
2644	6.75	-6.	0.	127.09
2645	7.25	-6.	0.	126.64
2646	7.	-4.75	0.	125.68
2647	7.25	-4.5	0.	125.61
2648	6.75	-4.5	0.	125.56
2649	7.	-4.25	0.	125.71
2650	4.5	-7.25	0.	121.41
2651	4.5	-6.75	0.	120.53
2652	4.75	-7.	0.	121.9
2653	5.75	-7.	0.	125.2
2654	6.	-7.25	0.	125.48
2655	6.	-6.75	0.	126.31
2656	2.	-7.25	0.	125.33
2657	2.	-6.75	0.	126.
2658	2.25	-7.	0.	124.96
2659	3.25	-7.	0.	121.74
2660	3.5	-6.75	0.	120.37
2661	3.5	-7.25	0.	121.32
2662	1.	-5.75	0.	126.2
2663	1.25	-6.	0.	126.67
2664	1.25	-3.	0.	125.23
2665	1.	-3.25	0.	125.31
2666	1.	-4.75	0.	125.
2667	1.	-4.25	0.	124.83
2668	1.25	-4.5	0.	124.64
2669	2.	-1.75	0.	119.53
2670	2.25	-2.	0.	120.84
2671	2.	-2.25	0.	122.12
2672	-3.25	4.	0.	127.95
2673	-3.	4.25	0.	127.8
2674	-3.	5.75	0.	126.42
2675	-3.	5.25	0.	126.78
2676	-3.25	5.5	0.	126.48
2677	4.75	4.	0.	128.47
2678	5.	4.25	0.	129.45
2679	2.75	4.	0.	118.4
2680	2.25	4.	0.	117.95
2681	2.5	4.25	0.	117.61
2682	2.5	3.75	0.	117.31
2683	-2.75	7.	0.	125.83
2684	-2.5	7.25	0.	125.45
2685	-2.25	7.	0.	125.56
2686	-2.	6.25	0.	126.53
2687	-1.75	6.	0.	127.14
2688	-2.25	6.	0.	126.64
2689	-2.25	-6.5	0.	127.51
2690	-2.	-6.25	0.	127.54
2691	-4.25	-9.3038e-012	0.	125.43
2692	-4.	-0.25	0.	126.53
2693	-5.25	-5.3093e-013	0.	121.84
2694	-5.5	-0.25	0.	120.3
2695	-3.	-2.75	0.	126.34
2696	-3.	-2.25	0.	126.33
2697	-3.25	-2.5	0.	125.77
2698	-2.75	-2.5	0.	126.56
2699	-4.75	3.	0.	123.99
2700	-4.5	3.25	0.	124.87
2701	-5.25	2.	0.	124.27
2702	-5.	2.25	0.	124.13
2703	-6.25	1.	0.	122.05
2704	-6.	1.25	0.	122.86
2705	7.	3.25	0.	124.05
2706	7.25	3.5	0.	124.41
2707	6.25	3.	0.	124.29
2708	6.75	3.	0.	123.81
2709	6.5	2.75	0.	122.96
2710	6.25	5.	0.	125.43
2711	6.5	5.25	0.	123.22
2712	-0.5	-1.25	0.	129.78
2713	-0.25	-1.5	0.	129.31
2714	-0.25	3.5	0.	129.34
2715	-0.5	3.25	0.	129.91
2716	4.5	3.75	0.	128.18
2717	4.5	3.25	0.	128.48
2718	4.25	3.5	0.	127.56
2719	6.5	-2.25	0.	126.04
2720	6.75	-2.5	0.	126.57
2721	6.5	-2.75	0.	127.02
2722	6.25	-2.5	0.	126.86
2723	6.25	-6.5	0.	126.9
2724	6.5	-6.25	0.	127.18
2725	1.5	-6.25	0.	126.76
2726	1.75	-6.5	0.	126.53
2727	1.75	-2.5	0.	123.62
2728	1.5	-2.75	0.	124.51
2729	-3.75	3.5	0.	127.12
2730	-3.5	3.75	0.	127.71
2731	-3.	6.75	0.	126.15
2732	-3.	7.25	0.	125.86
2733	-3.25	7.	0.	126.35
2734	-2.5	-4.75	0.	129.69
2735	-2.75	-4.5	0.	129.42
2736	-6.5	-0.25	0.	120.14
2737	-6.75	-9.3204e-014	0.	121.36
2738	-3.5	-0.75	0.	127.56
2739	-3.75	-0.5	0.	127.17
2740	-7.25	0.5	0.	122.44
2741	-7.	0.25	0.	122.
2742	-7.	0.75	0.	121.73
2743	-5.75	1.5	0.	123.57
2744	-5.5	1.75	0.	123.99
2745	6.25	-2.	0.	125.6
2746	6.5	-1.75	0.	124.49
2747	6.75	-2.	0.	125.58
2748	4.75	-1.5	0.	126.42
2749	4.5	-1.25	0.	126.96
2750	4.25	-1.5	0.	125.69
2751	5.25	3.	0.	127.34
2752	5.	2.75	0.	128.07
2753	4.75	3.	0.	128.39
2754	7.25	-7.	0.	126.48
2755	7.	-7.25	0.	126.31
2756	7.25	-2.5	0.	126.56
2757	7.	-2.25	0.	126.12
2758	-2.5	-7.25	0.	127.52
2759	-2.5	-6.75	0.	127.62
2760	-2.75	-7.	0.	128.24
2761	-1.25	5.5	0.	127.71
2762	-1.5	5.75	0.	127.57
2763	0.5	4.25	0.	126.31
2764	0.5	4.75	0.	126.11
2765	0.75	4.5	0.	125.57
2766	-0.75	5.	0.	127.58
2767	-1.	5.25	0.	127.8
2768	2.	-1.25	0.	116.51
2769	1.75	-1.5	0.	119.12
2770	2.25	-1.5	0.	118.48
2771	-0.25	1.	0.	129.18
2772	-0.5	1.25	0.	128.44
2773	-0.5	0.75	0.	128.42
2774	2.	3.75	0.	117.31
2775	2.	3.25	0.	115.05
2776	2.25	3.5	0.	116.65
2777	1.75	3.5	0.	117.56
2778	4.	-2.75	0.	118.94
2779	3.75	-2.5	0.	120.28
2780	4.25	-2.5	0.	121.07
2781	4.	-2.25	0.	121.52
2782	4.	-6.25	0.	117.76
2783	3.75	-6.5	0.	119.28
2784	4.25	-6.5	0.	119.38
2785	5.5	4.75	0.	129.51
2786	5.25	4.5	0.	129.51
2787	3.	4.25	0.	118.47
2788	3.	4.75	0.	116.76
2789	2.75	4.5	0.	117.68
2790	3.25	4.5	0.	119.29
2791	7.	5.75	0.	118.93
2792	6.75	5.5	0.	121.39
2793	7.25	5.5	0.	120.66
2794	-6.	-0.75	0.	117.46
2795	-5.75	-0.5	0.	119.07
2796	-6.25	-0.5	0.	119.08
2797	3.5	-2.25	0.	121.15
2798	3.5	-1.75	0.	122.86
2799	3.75	-2.	0.	122.36
2800	3.25	-2.	0.	121.62
2801	0.5	-1.75	0.	127.01
2802	0.75	-2.	0.	125.51
2803	-0.75	-0.5	0.	129.64
2804	-1.	-0.25	0.	128.84
2805	-0.75	2.	0.	129.03
2806	-1.	2.25	0.	128.99
2807	0.5	3.75	0.	126.69
2808	0.75	4.	0.	125.05
2809	3.	3.75	0.	119.67
2810	3.25	4.	0.	120.73
2811	5.25	-2.	0.	125.74
2812	5.	-1.75	0.	126.06
2813	5.	-2.25	0.	124.98
2814	7.25	-3.5	0.	126.36
2815	6.75	-3.5	0.	126.83
2816	7.	-3.75	0.	126.17
2817	7.	-5.25	0.	126.13
2818	7.25	-5.5	0.	126.3
2819	6.75	-5.5	0.	126.76
2820	7.25	-5.	0.	125.83
2821	6.75	-5.	0.	125.95
2822	5.5	-7.25	0.	124.36
2823	5.5	-6.75	0.	125.05
2824	5.25	-7.	0.	123.68
2825	3.	-7.25	0.	122.66
2826	3.	-6.75	0.	122.55
2827	2.75	-7.	0.	123.45
2828	1.	-5.25	0.	125.6
2829	1.25	-5.	0.	125.26
2830	0.75	-5.	0.	125.39
2831	1.25	-5.5	0.	126.21
2832	1.25	-4.	0.	124.82
2833	1.	-3.75	0.	125.08
2834	2.5	-1.75	0.	119.82
2835	2.5	-2.25	0.	121.76
2836	2.75	-2.	0.	121.03
2837	-3.	6.25	0.	126.3
2838	-2.75	6.	0.	126.39
2839	-3.25	6.	0.	126.43
2840	-3.25	6.5	0.	126.59
2841	-3.25	5.	0.	127.05
2842	-3.	4.75	0.	127.35
2843	4.5	4.25	0.	128.56
2844	4.25	4.	0.	126.93
2845	2.	4.25	0.	119.04
2846	1.75	4.	0.	119.47
2847	-1.75	6.5	0.	126.54
2848	-2.	6.75	0.	125.86
2849	-2.25	-5.5	0.	129.21
2850	-2.	-5.25	0.	128.82
2851	-2.	-5.75	0.	128.28
2852	-3.	-3.25	0.	126.96
2853	-3.25	-3.5	0.	127.1
2854	-3.	-3.75	0.	127.88
2855	-2.75	-3.5	0.	127.63
2856	-3.25	-3.	0.	126.16
2857	-4.75	-2.9327e-012	0.	123.75
2858	-4.5	-0.25	0.	125.06
2859	-5.	-0.25	0.	122.67
2860	-3.	-1.75	0.	126.85
2861	-3.25	-2.	0.	126.32
2862	-2.75	-2.	0.	126.82
2863	-3.25	-1.5	0.	127.25
2864	-3.	-1.25	0.	127.39
2865	-5.25	3.	0.	123.09
2866	-5.	2.75	0.	123.65
2867	-5.	3.25	0.	122.95
2868	-6.5	1.25	0.	122.21
2869	-6.75	1.	0.	121.7
2870	5.75	-2.	0.	125.94
2871	5.5	-2.25	0.	126.32
2872	5.5	-1.75	0.	126.17
2873	6.	-2.25	0.	126.42
2874	6.	-1.75	0.	125.21
2875	5.75	3.	0.	125.74
2876	6.	2.75	0.	124.28
2877	5.5	2.75	0.	126.46
2878	7.25	3.	0.	124.4
2879	7.	2.75	0.	123.55
2880	5.75	5.	0.	128.51
2881	6.	5.25	0.	126.89
2882	-6.25	-1.	0.	117.43
2883	-5.75	-1.	0.	117.25
2884	-6.	-1.25	0.	116.21
2885	-7.25	-7.	0.	127.75
2886	-7.	-7.25	0.	128.27
2887	-7.	-6.75	0.	128.11
2888	-6.75	-7.	0.	130.86
2889	7.25	6.	0.	118.37
2890	6.75	6.	0.	118.99
2891	7.	6.25	0.	116.99
2892	3.25	5.	0.	117.42
2893	2.75	5.	0.	116.3
2894	3.	5.25	0.	115.36
2895	5.25	5.	0.	131.16
2896	5.5	5.25	0.	130.64
2897	4.25	-6.	0.	117.69
2898	3.75	-6.	0.	117.56
2899	4.	-5.75	0.	116.57
2900	4.25	-3.	0.	118.65
2901	4.	-3.25	0.	117.23
2902	3.75	-3.	0.	118.12
2903	1.75	3.	0.	115.21
2904	2.25	3.	0.	114.67
2905	2.	2.75	0.	113.16
2906	2.2927e-011	1.25	0.	129.93
2907	0.25	1.	0.	132.8
2908	3.0423e-011	0.75	0.	129.94
2909	2.25	-1.	0.	115.74
2910	1.75	-1.	0.	116.25
2911	2.	-0.75	0.	114.01
2912	4.25	1.	0.	127.15
2913	4.	1.25	0.	128.02
2914	4.	0.75	0.	127.58
2915	3.75	1.	0.	130.71
2916	-0.25	5.	0.	126.82
2917	-0.5	5.25	0.	126.99
2918	0.25	5.	0.	126.17
2919	-2.6489e-011	5.25	0.	125.69
2920	0.5	5.25	0.	125.31
2921	0.75	5.	0.	126.18
2922	-0.75	5.5	0.	127.22
2923	-1.	5.75	0.	127.89
2924	7.5	-2.75	0.	126.6
2925	7.5	-2.25	0.	126.62
2926	7.75	-2.5	0.	126.77
2927	7.5	-3.25	0.	126.4
2928	7.75	-3.	0.	126.58
2929	7.5	-3.75	0.	126.07
2930	7.75	-3.5	0.	126.27
2931	7.5	-4.25	0.	125.78
2932	7.75	-4.	0.	125.94
2933	7.25	-4.	0.	125.88
2934	7.5	-4.75	0.	125.76
2935	7.75	-4.5	0.	125.78
2936	7.5	-5.25	0.	126.
2937	7.75	-5.	0.	125.87
2938	7.75	-5.5	0.	126.15
2939	7.5	-5.75	0.	126.33
2940	7.5	-7.25	0.	126.37
2941	7.75	-7.	0.	126.44
2942	7.5	-6.75	0.	126.52
2943	7.25	-7.5	0.	126.19
2944	7.75	-7.5	0.	126.29
2945	7.5	-7.75	0.	126.15
2946	6.75	-7.5	0.	125.96
2947	7.	-7.75	0.	125.95
2948	6.25	-7.5	0.	125.47
2949	6.5	-7.75	0.	125.58
2950	5.75	-7.5	0.	124.64
2951	6.	-7.75	0.	124.94
2952	5.25	-7.5	0.	123.49
2953	5.5	-7.75	0.	124.02
2954	4.75	-7.5	0.	122.32
2955	5.	-7.75	0.	122.94
2956	5.	-7.25	0.	122.81
2957	4.25	-7.5	0.	121.55
2958	4.5	-7.75	0.	122.04
2959	4.	-7.75	0.	121.67
2960	3.75	-7.5	0.	121.52
2961	2.75	-7.5	0.	123.39
2962	3.	-7.75	0.	122.89
2963	3.25	-7.5	0.	122.24
2964	2.25	-7.5	0.	124.55
2965	2.5	-7.75	0.	123.98
2966	2.5	-7.25	0.	124.18
2967	1.75	-7.5	0.	125.44
2968	2.	-7.75	0.	124.95
2969	1.25	-7.5	0.	126.
2970	1.5	-7.75	0.	125.67
2971	0.75	-7.5	0.	126.34
2972	1.	-7.75	0.	126.15
2973	0.25	-7.5	0.	126.54
2974	0.5	-7.75	0.	126.48
2975	-0.25	-7.5	0.	126.69
2976	1.4118e-011	-7.75	0.	126.71
2977	-0.75	-7.5	0.	126.8
2978	-0.5	-7.75	0.	126.91
2979	-0.5	-7.25	0.	126.66
2980	-1.25	-7.5	0.	126.91
2981	-1.	-7.75	0.	127.08
2982	-1.75	-7.5	0.	127.05
2983	-1.5	-7.75	0.	127.26
2984	-1.5	-7.25	0.	126.84
2985	-2.25	-7.5	0.	127.39
2986	-2.	-7.75	0.	127.51
2987	-2.75	-7.5	0.	128.12
2988	-2.5	-7.75	0.	128.01
2989	6.25	5.5	0.	124.68
2990	6.5	5.75	0.	121.49
2991	4.75	2.5	0.	128.52
2992	5.25	2.5	0.	127.18
2993	5.	2.25	0.	128.19
2994	5.	-1.25	0.	127.49
2995	5.25	-1.5	0.	126.48
2996	6.75	-1.5	0.	124.12
2997	6.5	-1.25	0.	121.98
2998	6.25	-1.5	0.	124.08
2999	7.25	-2.	0.	126.18
3000	7.	-1.75	0.	125.23
3001	7.5	-1.75	0.	126.66
3002	7.75	-2.	0.	126.93
3003	6.75	2.5	0.	122.69
3004	6.25	2.5	0.	122.94
3005	6.5	2.25	0.	120.73
3006	7.5	5.25	0.	121.78
3007	7.5	5.75	0.	120.15
3008	7.75	5.5	0.	122.49
3009	7.5	4.75	0.	123.01
3010	7.75	5.	0.	123.28
3011	7.5	4.25	0.	123.87
3012	7.75	4.5	0.	124.01
3013	7.5	3.75	0.	124.41
3014	7.75	4.	0.	124.58
3015	7.5	3.25	0.	124.76
3016	7.75	3.5	0.	125.02
3017	7.5	2.75	0.	125.13
3018	7.75	3.	0.	125.44
3019	-6.25	1.5	0.	123.01
3020	-6.	1.75	0.	124.12
3021	-7.5	0.75	0.	122.55
3022	-7.5	0.25	0.	123.5
3023	-7.75	0.5	0.	123.74
3024	-7.5	1.25	0.	121.46
3025	-7.75	1.	0.	122.84
3026	-7.25	1.	0.	121.83
3027	-7.5	1.75	0.	119.63
3028	-7.75	1.5	0.	121.81
3029	-7.25	1.5	0.	121.01
3030	-5.75	2.	0.	124.54
3031	-5.5	2.25	0.	124.18
3032	-3.5	-1.25	0.	127.51
3033	-3.75	-1.	0.	127.87
3034	-3.25	-1.	0.	127.66
3035	-5.25	-0.5	0.	121.12
3036	-5.5	-0.75	0.	118.89
3037	-4.25	-0.5	0.	126.16
3038	-4.	-0.75	0.	127.48
3039	-6.5	-0.75	0.	119.07
3040	-6.75	-0.5	0.	121.12
3041	-7.25	-2.9573e-013	0.	123.06
3042	-7.	-0.25	0.	122.34
3043	-7.5	-0.25	0.	124.66
3044	-7.75	-4.5868e-013	0.	124.76
3045	-3.5	-2.75	0.	125.58
3046	-3.75	-2.5	0.	124.96
3047	-3.5	-2.25	0.	125.75
3048	-2.5	-5.25	0.	129.85
3049	-2.75	-5.	0.	130.3
3050	-2.25	-5.	0.	129.47
3051	-2.75	-6.5	0.	128.42
3052	-2.5	-6.25	0.	128.31
3053	-5.	-4.75	0.	114.51
3054	-5.25	-5.	0.	113.5
3055	-4.75	-5.	0.	114.87
3056	-5.	-5.25	0.	112.33
3057	-3.75	-4.	0.	126.64
3058	-3.5	-3.75	0.	127.11
3059	-3.25	-4.	0.	127.89
3060	-3.5	-4.25	0.	127.65
3061	-3.	-4.75	0.	130.03
3062	-3.	-4.25	0.	128.89
3063	-3.25	-4.5	0.	128.65
3064	-5.75	-4.	0.	115.23
3065	-6.25	-4.	0.	117.17
3066	-6.	-3.75	0.	115.3
3067	-6.	-4.25	0.	116.28
3068	-7.5	-6.75	0.	127.22
3069	-7.75	-7.	0.	127.14
3070	-7.5	-7.25	0.	127.34
3071	-5.25	-4.5	0.	115.47
3072	-5.5	-4.75	0.	114.49
3073	-5.5	-4.25	0.	115.04
3074	-5.75	-4.5	0.	116.09
3075	-7.5	-6.25	0.	127.62
3076	-7.75	-6.5	0.	127.33
3077	-7.25	-6.5	0.	127.58
3078	-7.75	-5.	0.	129.27
3079	-7.25	-5.	0.	128.31
3080	-7.5	-5.25	0.	128.85
3081	-7.5	-4.75	0.	129.03
3082	-1.5	6.25	0.	127.14
3083	-1.25	6.	0.	127.76
3084	-7.25	7.5	0.	125.45
3085	-7.5	7.25	0.	125.54
3086	-7.75	7.5	0.	125.43
3087	-7.5	7.75	0.	125.37
3088	-3.25	7.5	0.	125.87
3089	-3.5	7.25	0.	126.37
3090	-3.75	7.5	0.	126.06
3091	-3.5	7.75	0.	125.82
3092	-2.75	7.5	0.	125.48
3093	-3.	7.75	0.	125.55
3094	-2.25	7.5	0.	125.14
3095	-2.5	7.75	0.	125.24
3096	-1.75	7.5	0.	125.05
3097	-2.	7.75	0.	125.06
3098	-2.	7.25	0.	125.25
3099	-1.25	7.5	0.	125.18
3100	-1.5	7.75	0.	125.24
3101	-1.5	7.25	0.	125.42
3102	2.25	4.5	0.	118.7
3103	2.5	4.75	0.	117.23
3104	1.25	4.5	0.	123.8
3105	1.	4.75	0.	125.65
3106	1.	4.25	0.	124.32
3107	4.75	4.5	0.	129.53
3108	5.	4.75	0.	131.17
3109	3.5	4.75	0.	119.97
3110	3.5	4.25	0.	121.55
3111	3.75	4.5	0.	123.09
3112	-4.25	3.5	0.	125.91
3113	-4.	3.75	0.	127.4
3114	-5.5	3.25	0.	122.12
3115	-5.5	3.75	0.	120.32
3116	-5.75	3.5	0.	121.95
3117	-5.25	3.5	0.	121.98
3118	-3.5	4.25	0.	127.92
3119	-3.75	4.	0.	128.
3120	-3.5	6.75	0.	126.78
3121	-3.75	7.	0.	127.
3122	-3.5	5.25	0.	126.75
3123	-3.75	5.5	0.	126.41
3124	-3.5	5.75	0.	126.49
3125	-4.	7.75	0.	125.71
3126	-4.	7.25	0.	126.7
3127	-4.25	7.5	0.	125.5
3128	-6.75	7.5	0.	124.87
3129	-7.	7.75	0.	125.17
3130	-7.	7.25	0.	125.82
3131	-5.25	7.5	0.	122.15
3132	-5.5	7.75	0.	122.18
3133	-5.5	7.25	0.	120.2
3134	-5.75	7.5	0.	121.97
3135	-7.5	5.75	0.	122.58
3136	-7.5	5.25	0.	120.59
3137	-7.75	5.5	0.	122.23
3138	-7.25	5.5	0.	122.3
3139	-7.75	7.	0.	125.38
3140	-7.25	7.	0.	125.91
3141	-7.5	6.75	0.	125.28
3142	2.25	-2.5	0.	123.02
3143	2.	-2.75	0.	124.44
3144	3.25	-2.5	0.	120.96
3145	3.5	-2.75	0.	119.51
3146	1.5	-3.25	0.	125.23
3147	1.75	-3.	0.	125.31
3148	1.5	-5.75	0.	126.68
3149	1.75	-6.	0.	127.22
3150	1.5	-4.75	0.	124.89
3151	1.5	-4.25	0.	124.62
3152	1.75	-4.5	0.	124.41
3153	3.25	-6.5	0.	121.18
3154	3.5	-6.25	0.	119.11
3155	2.25	-6.5	0.	125.77
3156	2.	-6.25	0.	126.98
3157	5.75	-6.5	0.	126.16
3158	6.	-6.25	0.	127.45
3159	4.5	-6.25	0.	119.34
3160	4.75	-6.5	0.	121.44
3161	6.5	-5.75	0.	127.23
3162	6.25	-6.	0.	127.73
3163	6.5	-3.25	0.	127.27
3164	6.25	-3.	0.	127.87
3165	6.5	-4.25	0.	125.87
3166	6.5	-4.75	0.	125.82
3167	6.25	-4.5	0.	125.55
3168	4.75	-2.5	0.	123.23
3169	4.5	-2.75	0.	120.82
3170	5.75	-2.5	0.	126.8
3171	6.	-2.75	0.	127.71
3172	4.5	2.75	0.	128.84
3173	4.25	3.	0.	128.69
3174	2.75	3.5	0.	118.59
3175	2.5	3.25	0.	116.31
3176	3.75	3.5	0.	125.46
3177	4.	3.25	0.	127.78
3178	4.	3.75	0.	126.31
3179	0.25	3.5	0.	128.04
3180	6.5669e-011	3.25	0.	129.83
3181	-0.5	1.75	0.	129.01
3182	-0.25	1.5	0.	129.19
3183	-0.25	3.	0.	130.39
3184	-0.5	2.75	0.	130.22
3185	-0.5	-0.75	0.	130.12
3186	-0.25	-1.	0.	130.39
3187	-0.5	0.25	0.	128.95
3188	-0.25	0.5	0.	129.18
3189	1.25	-1.5	0.	122.02
3190	1.5	-1.25	0.	118.92
3191	0.25	-1.5	0.	128.29
3192	1.8468e-010	-1.25	0.	129.93
3193	2.5	-1.25	0.	117.77
3194	2.75	-1.5	0.	120.1
3195	4.5	0.75	0.	126.22
3196	4.25	0.5	0.	126.65
3197	4.75	0.5	0.	125.81
3198	4.5	0.25	0.	126.5
3199	4.5	-0.75	0.	127.95
3200	4.25	-1.	0.	127.69
3201	4.75	-1.	0.	128.01
3202	3.5	-1.25	0.	125.08
3203	3.75	-1.5	0.	124.5
3204	3.25	-1.5	0.	122.56
3205	0.75	-1.5	0.	125.67
3206	0.5	-1.25	0.	128.37
3207	1.	-1.25	0.	123.91
3208	1.	-1.75	0.	124.16
3209	-0.25	-0.5	0.	130.83
3210	-0.5	-0.25	0.	129.73
3211	-0.25	2.	0.	130.1
3212	-0.5	2.25	0.	129.81
3213	0.5	3.25	0.	127.95
3214	0.75	3.5	0.	125.07
3215	3.25	3.5	0.	122.11
3216	3.5	3.25	0.	125.37
3217	3.5	3.75	0.	123.17
3218	3.	3.25	0.	120.71
3219	4.25	2.5	0.	129.38
3220	4.5	2.25	0.	128.68
3221	5.25	-2.5	0.	125.57
3222	5.5	-2.75	0.	127.34
3223	5.	-2.75	0.	124.45
3224	6.5	-3.75	0.	126.68
3225	6.25	-4.	0.	126.76
3226	6.75	-4.	0.	126.02
3227	6.25	-3.5	0.	128.01
3228	6.5	-5.25	0.	126.57
3229	6.25	-5.5	0.	127.81
3230	6.25	-5.	0.	126.61
3231	5.5	-6.25	0.	126.46
3232	5.25	-6.5	0.	124.19
3233	2.75	-6.5	0.	123.83
3234	2.5	-6.25	0.	125.99
3235	2.5	-6.75	0.	124.73
3236	3.	-6.25	0.	122.69
3237	1.5	-5.25	0.	125.87
3238	1.75	-5.	0.	125.77
3239	1.75	-5.5	0.	127.16
3240	1.5	-3.75	0.	125.05
3241	1.75	-3.5	0.	125.99
3242	1.25	-3.5	0.	125.32
3243	1.75	-4.	0.	125.21
3244	2.5	-2.75	0.	124.02
3245	2.75	-2.5	0.	122.15
3246	-7.75	6.	0.	123.55
3247	-7.25	6.	0.	124.26
3248	-7.5	6.25	0.	124.22
3249	-6.5	7.75	0.	124.27
3250	-6.5	7.25	0.	124.95
3251	-6.25	7.5	0.	123.4
3252	-5.	7.75	0.	123.16
3253	-5.	7.25	0.	122.46
3254	-4.75	7.5	0.	123.88
3255	-3.75	6.5	0.	127.56
3256	-3.5	6.25	0.	126.72
3257	-3.5	4.75	0.	127.46
3258	-3.75	4.5	0.	128.35
3259	-3.25	4.5	0.	127.77
3260	-3.75	5.	0.	127.48
3261	-4.5	3.75	0.	125.89
3262	-4.75	3.5	0.	123.83
3263	4.5	4.75	0.	130.21
3264	4.25	4.5	0.	127.18
3265	1.75	4.5	0.	121.26
3266	1.5	4.75	0.	124.19
3267	1.5	4.25	0.	121.69
3268	2.	4.75	0.	120.64
3269	-1.25	6.5	0.	127.51
3270	-1.5	6.75	0.	126.3
3271	-7.75	-6.	0.	127.98
3272	-7.25	-6.	0.	128.24
3273	-7.5	-5.75	0.	128.33
3274	-6.75	-4.5	0.	123.74
3275	-6.5	-4.25	0.	120.26
3276	-6.5	-4.75	0.	123.11
3277	-6.25	-4.5	0.	119.35
3278	-4.	-4.25	0.	125.14
3279	-4.	-4.75	0.	124.
3280	-3.75	-4.5	0.	126.14
3281	-4.25	-4.5	0.	122.05
3282	-2.75	-5.5	0.	130.49
3283	-2.5	-5.75	0.	129.27
3284	-3.75	-3.	0.	125.78
3285	-3.5	-3.25	0.	126.3
3286	-5.	-4.25	0.	117.26
3287	-4.75	-4.5	0.	117.83
3288	-7.	-4.75	0.	126.82
3289	-7.	-4.25	0.	125.54
3290	-7.25	-4.5	0.	127.54
3291	-7.75	-0.5	0.	126.12
3292	-7.5	-0.75	0.	126.46
3293	-7.25	-0.5	0.	123.94
3294	-4.75	-0.5	0.	123.98
3295	-4.5	-0.75	0.	126.19
3296	-5.	-0.75	0.	122.64
3297	-3.75	-1.5	0.	127.79
3298	-3.5	-1.75	0.	126.71
3299	-5.75	3.	0.	123.64
3300	-5.5	2.75	0.	123.48
3301	-6.5	1.75	0.	123.46
3302	-6.75	1.5	0.	121.89
3303	7.25	2.5	0.	124.29
3304	7.75	2.5	0.	126.08
3305	7.5	2.25	0.	126.09
3306	7.	2.25	0.	122.75
3307	7.25	-1.5	0.	125.71
3308	7.	-1.25	0.	124.03
3309	7.75	-1.5	0.	127.29
3310	7.5	-1.25	0.	127.29
3311	4.75	-0.5	0.	128.44
3312	4.25	-0.5	0.	128.45
3313	4.5	-0.25	0.	127.51
3314	4.75	1.	0.	126.6
3315	4.5	1.25	0.	126.91
3316	5.75	2.5	0.	125.
3317	6.	2.25	0.	123.03
3318	5.5	2.25	0.	126.62
3319	7.75	6.	0.	121.79
3320	7.5	6.25	0.	117.72
3321	-7.	-7.75	0.	128.68
3322	-6.75	-7.5	0.	130.
3323	-7.25	-7.5	0.	127.86
3324	2.75	-1.	0.	119.23
3325	2.5	-0.75	0.	114.79
3326	1.25	3.	0.	119.93
3327	1.5	2.75	0.	114.96
3328	1.5	3.25	0.	117.75
3329	4.	1.75	0.	128.67
3330	3.75	1.5	0.	130.15
3331	4.25	1.5	0.	127.78
3332	4.5	-5.75	0.	117.29
3333	4.75	-6.	0.	120.99
3334	3.5	5.25	0.	117.49
3335	3.75	5.	0.	122.48
3336	-5.75	-5.	0.	116.53
3337	-5.5	-5.25	0.	112.56
3338	-3.25	-6.5	0.	131.
3339	-3.	-6.25	0.	129.62
3340	-3.	-6.75	0.	129.04
3341	-5.25	-4.	0.	116.83
3342	-5.5	-3.75	0.	114.3
3343	-6.75	-1.	0.	120.87
3344	-6.5	-1.25	0.	117.08
3345	5.75	5.5	0.	129.02
3346	6.	5.75	0.	126.8
3347	5.	7.25	0.	133.62
3348	5.	7.75	0.	132.92
3349	4.75	7.5	0.	134.25
3350	5.25	7.5	0.	134.78
3351	-5.25	4.	0.	120.69
3352	-5.5	4.25	0.	116.32
3353	-5.75	4.	0.	121.23
3354	-7.25	5.	0.	121.41
3355	-7.75	5.	0.	120.87
3356	-7.5	4.75	0.	116.5
3357	-7.25	2.	0.	119.56
3358	-7.75	2.	0.	120.22
3359	-7.5	2.25	0.	115.36
3360	-8.	-7.75	0.	127.87
3361	-8.25	-8.	0.	128.29
3362	-8.	-8.25	0.	128.63
3363	-7.75	-8.	0.	128.32
3364	-8.	-7.25	0.	127.32
3365	-8.25	-7.5	0.	127.64
3366	-7.75	-7.5	0.	127.52
3367	-8.	-6.75	0.	127.25
3368	-8.25	-7.	0.	127.35
3369	-8.	-6.25	0.	127.69
3370	-8.25	-6.5	0.	127.53
3371	-8.25	-6.	0.	128.12
3372	-8.	-5.75	0.	128.44
3373	-8.	-4.75	0.	129.91
3374	-8.25	-5.	0.	129.56
3375	-8.	-5.25	0.	129.21
3376	-8.	-4.25	0.	130.65
3377	-8.25	-4.5	0.	130.16
3378	-7.75	-4.5	0.	129.66
3379	-8.	-0.25	0.	126.24
3380	-8.	-0.75	0.	127.74
3381	-8.25	-0.5	0.	127.23
3382	-8.	0.25	0.	125.01
3383	-8.25	-5.281e-013	0.	126.11
3384	-8.	0.75	0.	124.03
3385	-8.25	0.5	0.	125.21
3386	-8.	1.25	0.	123.19
3387	-8.25	1.	0.	124.56
3388	-8.	1.75	0.	122.42
3389	-8.25	1.5	0.	124.22
3390	-1.	7.25	0.	126.07
3391	-1.	7.75	0.	125.96
3392	-0.75	7.5	0.	127.2
3393	-8.	5.75	0.	123.21
3394	-8.	5.25	0.	122.53
3395	-8.25	5.5	0.	123.85
3396	-8.	6.25	0.	124.12
3397	-8.25	6.	0.	124.15
3398	-8.	6.75	0.	124.89
3399	-8.25	6.5	0.	124.73
3400	-7.75	6.5	0.	124.79
3401	-8.	7.25	0.	125.27
3402	-8.25	7.	0.	125.17
3403	-8.	7.75	0.	125.33
3404	-8.25	7.5	0.	125.33
3405	-7.75	8.	0.	125.27
3406	-8.25	8.	0.	125.29
3407	-8.	8.25	0.	125.22
3408	-7.25	8.	0.	125.09
3409	-7.5	8.25	0.	125.14
3410	-6.75	8.	0.	124.57
3411	-7.	8.25	0.	124.86
3412	-6.25	8.	0.	123.72
3413	-6.5	8.25	0.	124.26
3414	-5.75	8.	0.	123.06
3415	-6.	8.25	0.	123.56
3416	-6.	7.75	0.	122.85
3417	-5.25	8.	0.	123.18
3418	-5.5	8.25	0.	123.3
3419	-5.	8.25	0.	123.77
3420	-4.75	8.	0.	124.04
3421	-3.75	8.	0.	125.47
3422	-4.	8.25	0.	125.25
3423	-4.25	8.	0.	124.97
3424	-3.25	8.	0.	125.5
3425	-3.5	8.25	0.	125.48
3426	-2.75	8.	0.	125.31
3427	-3.	8.25	0.	125.42
3428	-2.25	8.	0.	125.16
3429	-2.5	8.25	0.	125.29
3430	-1.75	8.	0.	125.26
3431	-2.	8.25	0.	125.34
3432	-1.25	8.	0.	126.03
3433	-1.5	8.25	0.	125.81
3434	-3.	-7.75	0.	129.04
3435	-3.25	-7.5	0.	130.58
3436	-3.	-7.25	0.	128.84
3437	8.	5.25	0.	124.
3438	8.	5.75	0.	124.13
3439	8.25	5.5	0.	125.34
3440	8.	4.75	0.	124.28
3441	8.25	5.	0.	125.02
3442	8.	4.25	0.	124.72
3443	8.25	4.5	0.	125.16
3444	8.	3.75	0.	125.19
3445	8.25	4.	0.	125.47
3446	8.	3.25	0.	125.69
3447	8.25	3.5	0.	125.86
3448	8.	2.75	0.	126.38
3449	8.25	3.	0.	126.36
3450	8.	2.25	0.	127.41
3451	8.25	2.5	0.	127.04
3452	8.	-1.75	0.	127.55
3453	8.	-1.25	0.	128.35
3454	8.25	-1.5	0.	127.88
3455	8.	-2.25	0.	127.07
3456	8.25	-2.	0.	127.34
3457	8.	-2.75	0.	126.75
3458	8.25	-2.5	0.	126.97
3459	8.	-3.25	0.	126.45
3460	8.25	-3.	0.	126.66
3461	8.	-3.75	0.	126.15
3462	8.25	-3.5	0.	126.35
3463	8.	-4.25	0.	125.94
3464	8.25	-4.	0.	126.09
3465	8.	-4.75	0.	125.89
3466	8.25	-4.5	0.	125.95
3467	8.	-5.25	0.	126.02
3468	8.25	-5.	0.	125.98
3469	8.	-5.75	0.	126.21
3470	8.25	-5.5	0.	126.12
3471	8.	-6.25	0.	126.37
3472	8.25	-6.	0.	126.28
3473	7.75	-6.	0.	126.4
3474	8.	-6.75	0.	126.42
3475	8.25	-6.5	0.	126.38
3476	7.75	-6.5	0.	126.5
3477	8.	-7.25	0.	126.37
3478	8.25	-7.	0.	126.39
3479	8.	-7.75	0.	126.25
3480	8.25	-7.5	0.	126.33
3481	7.75	-8.	0.	126.11
3482	8.	-8.25	0.	126.12
3483	8.25	-8.	0.	126.23
3484	7.25	-8.	0.	125.91
3485	7.5	-8.25	0.	125.93
3486	6.75	-8.	0.	125.57
3487	7.	-8.25	0.	125.65
3488	6.25	-8.	0.	125.05
3489	6.5	-8.25	0.	125.22
3490	5.75	-8.	0.	124.32
3491	6.	-8.25	0.	124.61
3492	5.5	-8.25	0.	123.86
3493	5.25	-8.	0.	123.46
3494	4.25	-8.	0.	122.16
3495	4.5	-8.25	0.	122.49
3496	4.75	-8.	0.	122.66
3497	3.75	-8.	0.	122.16
3498	4.	-8.25	0.	122.26
3499	3.25	-8.	0.	122.65
3500	3.5	-8.25	0.	122.49
3501	3.5	-7.75	0.	122.01
3502	2.75	-8.	0.	123.47
3503	3.	-8.25	0.	123.12
3504	2.25	-8.	0.	124.38
3505	2.5	-8.25	0.	123.94
3506	1.75	-8.	0.	125.19
3507	2.	-8.25	0.	124.78
3508	1.25	-8.	0.	125.82
3509	1.5	-8.25	0.	125.5
3510	0.75	-8.	0.	126.29
3511	1.	-8.25	0.	126.07
3512	0.25	-8.	0.	126.65
3513	0.5	-8.25	0.	126.53
3514	9.0477e-012	-8.25	0.	126.91
3515	-0.25	-8.	0.	126.93
3516	-1.75	-8.	0.	127.72
3517	-1.5	-8.25	0.	127.89
3518	-1.25	-8.	0.	127.42
3519	-2.25	-8.	0.	128.14
3520	-2.	-8.25	0.	128.28
3521	-2.75	-8.	0.	128.93
3522	-2.5	-8.25	0.	128.82
3523	-0.25	5.5	0.	125.86
3524	-0.5	5.75	0.	126.93
3525	0.25	5.5	0.	124.83
3526	-3.3192e-011	5.75	0.	124.06
3527	0.5	5.75	0.	122.93
3528	0.75	5.5	0.	125.88
3529	4.	0.25	0.	127.66
3530	3.75	0.5	0.	129.51
3531	3.75	-1.	0.	126.99
3532	4.	-0.75	0.	128.2
3533	4.	-1.25	0.	126.44
3534	1.25	-1.	0.	120.8
3535	1.5	-0.75	0.	115.75
3536	1.4492e-010	-0.75	0.	131.1
3537	0.25	-1.	0.	130.
3538	3.0093e-011	1.75	0.	130.28
3539	0.25	1.5	0.	131.81
3540	0.25	3.	0.	129.72
3541	6.1478e-011	2.75	0.	131.01
3542	2.75	3.	0.	118.44
3543	2.5	2.75	0.	114.04
3544	4.	2.75	0.	129.23
3545	3.75	3.	0.	127.66
3546	4.75	-3.	0.	122.03
3547	4.5	-3.25	0.	118.14
3548	6.	-3.25	0.	128.6
3549	5.75	-3.	0.	128.24
3550	6.	-4.75	0.	126.32
3551	6.	-4.25	0.	126.43
3552	5.75	-4.5	0.	127.32
3553	5.75	-6.	0.	127.74
3554	6.	-5.75	0.	128.31
3555	3.5	-5.75	0.	117.02
3556	3.25	-6.	0.	120.62
3557	2.	-5.75	0.	127.69
3558	2.25	-6.	0.	127.19
3559	2.	-4.25	0.	124.99
3560	2.	-4.75	0.	125.29
3561	2.25	-4.5	0.	126.16
3562	2.25	-3.	0.	125.41
3563	2.	-3.25	0.	126.07
3564	-7.	5.75	0.	123.98
3565	-7.	5.25	0.	123.14
3566	-6.75	5.5	0.	125.67
3567	-6.75	7.	0.	125.9
3568	-7.	6.75	0.	126.39
3569	-5.25	7.	0.	120.48
3570	-5.75	7.	0.	120.19
3571	-5.5	6.75	0.	115.7
3572	-4.	6.75	0.	127.77
3573	-4.25	7.	0.	126.9
3574	-4.	5.25	0.	127.14
3575	-4.	5.75	0.	126.96
3576	-4.25	5.5	0.	128.12
3577	-4.25	4.	0.	127.38
3578	-4.	4.25	0.	128.43
3579	4.75	5.	0.	131.82
3580	5.	5.25	0.	133.27
3581	2.25	5.	0.	119.17
3582	2.5	5.25	0.	115.67
3583	1.25	5.	0.	126.02
3584	1.	5.25	0.	126.75
3585	6.25	6.	0.	123.6
3586	6.5	6.25	0.	118.57
3587	5.25	5.5	0.	132.73
3588	5.5	5.75	0.	131.88
3589	-1.	6.25	0.	128.12
3590	-0.75	6.	0.	127.61
3591	-7.	-6.25	0.	128.18
3592	-6.75	-6.5	0.	129.78
3593	-6.75	-5.	0.	126.16
3594	-7.	-5.25	0.	128.23
3595	-4.25	-5.	0.	120.19
3596	-4.5	-5.25	0.	114.77
3597	-4.5	-4.75	0.	118.26
3598	-3.	-5.25	0.	130.93
3599	-3.25	-5.	0.	129.97
3600	-4.	-2.75	0.	125.14
3601	-4.25	-2.5	0.	126.02
3602	-4.	-2.25	0.	125.55
3603	-4.25	-4.	0.	124.49
3604	-4.	-3.75	0.	126.29
3605	-6.75	-4.	0.	122.06
3606	-6.5	-3.75	0.	117.51
3607	-8.	-3.75	0.	131.08
3608	-8.25	-4.	0.	130.67
3609	-7.75	-4.	0.	130.55
3610	-8.	-2.25	0.	127.62
3611	-8.	-2.75	0.	128.12
3612	-8.25	-2.5	0.	127.22
3613	-7.75	-2.5	0.	128.53
3614	-7.75	-1.	0.	128.06
3615	-8.25	-1.	0.	128.39
3616	-8.	-1.25	0.	128.94
3617	-5.25	-1.	0.	120.4
3618	-5.5	-1.25	0.	116.66
3619	-4.	-1.25	0.	128.15
3620	-4.25	-1.	0.	127.51
3621	-6.	3.25	0.	123.47
3622	-6.25	3.5	0.	125.36
3623	-6.	3.75	0.	122.88
3624	-6.25	2.	0.	124.56
3625	-6.	2.25	0.	125.16
3626	6.25	2.	0.	120.79
3627	6.75	2.	0.	120.76
3628	6.5	1.75	0.	115.85
3629	8.	1.75	0.	128.39
3630	8.25	2.	0.	127.9
3631	7.75	2.	0.	127.42
3632	7.75	-1.	0.	128.35
3633	8.	-0.75	0.	129.1
3634	8.25	-1.	0.	128.56
3635	6.25	-1.	0.	121.86
3636	6.75	-1.	0.	121.86
3637	6.5	-0.75	0.	116.81
3638	5.	-0.75	0.	128.51
3639	5.25	-1.	0.	127.88
3640	5.	0.75	0.	126.19
3641	5.25	0.5	0.	127.29
3642	5.	0.25	0.	126.45
3643	5.25	2.	0.	127.62
3644	5.	1.75	0.	128.2
3645	4.75	2.	0.	128.36
3646	5.75	2.	0.	124.65
3647	6.	1.75	0.	122.48
3648	5.5	1.75	0.	128.4
3649	5.	1.25	0.	127.46
3650	5.25	1.5	0.	128.97
3651	4.75	1.5	0.	127.79
3652	5.25	1.	0.	127.87
3653	5.25	-0.5	0.	129.72
3654	5.	-0.25	0.	128.07
3655	6.	-0.75	0.	123.56
3656	6.	-1.25	0.	123.99
3657	5.75	-1.	0.	125.44
3658	7.25	-1.	0.	125.61
3659	7.	-0.75	0.	123.46
3660	7.5	-0.75	0.	129.52
3661	8.25	-0.5	0.	128.74
3662	7.75	-0.5	0.	130.27
3663	8.	-0.25	0.	128.79
3664	8.25	1.5	0.	128.25
3665	7.75	1.5	0.	129.6
3666	8.	1.25	0.	128.33
3667	7.	1.75	0.	122.61
3668	7.25	2.	0.	124.55
3669	-6.75	2.	0.	122.52
3670	-7.	2.25	0.	121.28
3671	-7.	1.75	0.	120.95
3672	-6.5	2.25	0.	126.25
3673	-6.25	3.	0.	126.1
3674	-6.	2.75	0.	124.95
3675	-4.25	-1.5	0.	129.28
3676	-4.	-1.75	0.	127.43
3677	-4.75	-1.	0.	124.86
3678	-4.5	-1.25	0.	128.64
3679	-5.	-1.25	0.	123.28
3680	-7.25	-1.	0.	125.43
3681	-7.	-1.25	0.	124.21
3682	-7.	-0.75	0.	122.92
3683	-7.5	-1.25	0.	129.51
3684	-8.25	-2.	0.	127.91
3685	-7.75	-2.	0.	129.19
3686	-8.	-1.75	0.	128.78
3687	-8.	-3.25	0.	130.17
3688	-8.25	-3.	0.	128.82
3689	-7.75	-3.	0.	130.34
3690	-8.25	-3.5	0.	130.42
3691	-7.75	-3.5	0.	132.06
3692	-7.	-3.75	0.	125.3
3693	-7.25	-4.	0.	127.57
3694	-4.75	-4.	0.	120.82
3695	-5.	-3.75	0.	120.01
3696	-4.5	-3.75	0.	125.47
3697	-4.5	-4.25	0.	121.44
3698	-4.25	-3.	0.	126.56
3699	-4.	-3.25	0.	126.24
3700	-3.25	-5.5	0.	131.97
3701	-3.	-5.75	0.	130.73
3702	-4.	-5.25	0.	124.06
3703	-3.75	-5.	0.	126.46
3704	-6.25	-5.	0.	121.86
3705	-6.	-5.25	0.	120.42
3706	-6.	-4.75	0.	118.13
3707	-6.5	-5.25	0.	127.08
3708	-7.	-5.75	0.	128.67
3709	-6.75	-5.5	0.	129.1
3710	-7.25	-5.5	0.	128.77
3711	-6.75	-6.	0.	128.84
3712	-1.	6.75	0.	127.52
3713	-0.75	7.	0.	128.17
3714	-1.25	7.	0.	126.32
3715	-0.75	6.5	0.	129.12
3716	-0.25	6.	0.	125.13
3717	-0.5	6.25	0.	128.63
3718	0.25	6.	0.	122.14
3719	-2.6316e-011	6.25	0.	122.86
3720	4.75	7.	0.	136.37
3721	5.25	7.	0.	134.46
3722	5.	6.75	0.	134.65
3723	6.	6.25	0.	127.36
3724	5.75	6.	0.	129.66
3725	1.75	5.	0.	123.55
3726	1.5	5.25	0.	128.2
3727	2.	5.25	0.	122.91
3728	4.5	5.25	0.	133.8
3729	4.25	5.	0.	128.61
3730	4.75	5.5	0.	135.2
3731	5.	5.75	0.	134.7
3732	-4.75	4.	0.	124.44
3733	-5.	4.25	0.	122.8
3734	-5.	3.75	0.	122.37
3735	-4.5	4.25	0.	128.68
3736	-4.	4.75	0.	128.36
3737	-4.25	4.5	0.	129.72
3738	-4.25	5.	0.	128.94
3739	-4.	6.25	0.	127.88
3740	-4.25	6.	0.	128.62
3741	-3.75	6.	0.	127.05
3742	-4.25	6.5	0.	129.21
3743	-5.	6.75	0.	122.58
3744	-4.75	7.	0.	124.29
3745	-6.25	7.	0.	123.55
3746	-6.	6.75	0.	121.85
3747	-6.	7.25	0.	121.99
3748	-6.5	6.75	0.	127.3
3749	-7.	6.25	0.	125.8
3750	-6.75	6.5	0.	127.78
3751	-7.25	6.5	0.	125.76
3752	-6.75	6.	0.	126.77
3753	2.5	-3.25	0.	127.29
3754	2.75	-3.	0.	123.76
3755	2.	-3.75	0.	126.13
3756	2.25	-3.5	0.	127.93
3757	2.25	-4.	0.	126.93
3758	2.	-5.25	0.	127.06
3759	2.25	-5.	0.	127.54
3760	2.25	-5.5	0.	129.05
3761	2.5	-5.75	0.	128.55
3762	2.75	-6.	0.	124.85
3763	5.5	-5.75	0.	129.19
3764	5.25	-6.	0.	125.36
3765	5.75	-5.	0.	128.35
3766	6.	-5.25	0.	127.83
3767	6.	-3.75	0.	128.08
3768	5.75	-4.	0.	128.66
3769	5.75	-3.5	0.	130.14
3770	5.25	-3.	0.	126.22
3771	5.5	-3.25	0.	129.79
3772	5.	-3.25	0.	124.81
3773	4.	2.25	0.	129.53
3774	3.75	2.	0.	129.75
3775	4.25	2.	0.	128.85
3776	3.75	2.5	0.	130.38
3777	3.25	3.	0.	123.96
3778	3.5	2.75	0.	128.85
3779	3.	2.75	0.	122.32
3780	0.75	3.	0.	126.02
3781	1.	2.75	0.	123.9
3782	1.	3.25	0.	123.13
3783	0.5	2.75	0.	130.86
3784	0.25	2.	0.	131.41
3785	4.5712e-011	2.25	0.	131.12
3786	9.6168e-011	-0.25	0.	131.18
3787	0.25	-8.2748e-011	0.	131.49
3788	-0.25	-1.1449e-010	0.	130.09
3789	5.4975e-011	0.25	0.	130.31
3790	0.25	-0.5	0.	132.34
3791	0.75	-1.	0.	126.62
3792	0.5	-0.75	0.	131.26
3793	1.	-0.75	0.	124.64
3794	3.25	-1.	0.	124.08
3795	3.	-0.75	0.	122.69
3796	3.	-1.25	0.	121.57
3797	3.5	-0.75	0.	128.43
3798	4.	-0.25	0.	128.45
3799	3.75	-0.5	0.	129.61
3800	3.75	-2.3533e-012	0.	128.83
3801	4.25	-2.673e-012	0.	127.52
3802	0.75	6.	0.	123.63
3803	0.5	6.25	0.	117.48
3804	-3.	-8.25	0.	129.76
3805	-3.25	-8.	0.	129.92
3806	-1.	8.25	0.	127.25
3807	-0.75	8.	0.	127.96
3808	-8.25	2.	0.	124.55
3809	-8.	2.25	0.	122.49
3810	1.25	5.5	0.	128.9
3811	1.	5.75	0.	126.58
3812	-6.75	5.	0.	126.61
3813	-7.	4.75	0.	124.22
3814	5.	8.25	0.	132.33
3815	4.75	8.	0.	132.63
3816	5.25	8.	0.	135.75
3817	-8.25	5.	0.	124.47
3818	-8.	4.75	0.	123.02
3819	-8.5	-7.75	0.	128.06
3820	-8.5	-8.25	0.	128.64
3821	-8.75	-8.	0.	128.42
3822	-8.5	-7.25	0.	127.67
3823	-8.75	-7.5	0.	127.94
3824	-8.5	-6.75	0.	127.62
3825	-8.75	-7.	0.	127.73
3826	-8.5	-6.25	0.	127.96
3827	-8.75	-6.5	0.	127.87
3828	-8.5	-5.75	0.	128.55
3829	-8.75	-6.	0.	128.3
3830	-8.5	-5.25	0.	129.22
3831	-8.75	-5.5	0.	128.87
3832	-8.25	-5.5	0.	128.87
3833	-8.5	-4.75	0.	129.82
3834	-8.75	-5.	0.	129.42
3835	-8.5	-4.25	0.	130.18
3836	-8.75	-4.5	0.	129.82
3837	-8.5	-3.75	0.	130.
3838	-8.75	-4.	0.	129.89
3839	-8.5	-3.25	0.	129.06
3840	-8.75	-3.5	0.	129.35
3841	-8.5	-2.75	0.	127.91
3842	-8.75	-3.	0.	128.27
3843	-8.5	-2.25	0.	127.5
3844	-8.75	-2.5	0.	127.5
3845	-8.5	-1.75	0.	127.91
3846	-8.75	-2.	0.	127.57
3847	-8.5	-1.25	0.	128.24
3848	-8.75	-1.5	0.	128.07
3849	-8.25	-1.5	0.	128.79
3850	-8.5	-0.75	0.	127.89
3851	-8.75	-1.	0.	128.13
3852	-8.5	-0.25	0.	127.11
3853	-8.75	-0.5	0.	127.7
3854	-8.5	0.25	0.	126.31
3855	-8.75	-5.0195e-013	0.	127.1
3856	-8.5	0.75	0.	125.74
3857	-8.75	0.5	0.	126.59
3858	-8.5	1.25	0.	125.59
3859	-8.75	1.	0.	126.35
3860	-8.5	1.75	0.	126.34
3861	-8.75	1.5	0.	126.6
3862	-8.5	2.25	0.	128.96
3863	-8.75	2.	0.	127.8
3864	-8.5	5.25	0.	125.78
3865	-8.5	4.75	0.	128.69
3866	-8.75	5.	0.	127.06
3867	-8.75	5.5	0.	125.53
3868	-8.5	5.75	0.	124.78
3869	-8.5	7.75	0.	125.29
3870	-8.75	7.5	0.	125.31
3871	-8.5	7.25	0.	125.23
3872	-8.5	8.25	0.	125.23
3873	-8.75	8.	0.	125.28
3874	-8.25	8.5	0.	125.16
3875	-8.5	8.75	0.	125.11
3876	-8.75	8.5	0.	125.18
3877	-7.75	8.5	0.	125.09
3878	-8.	8.75	0.	125.07
3879	-7.25	8.5	0.	124.91
3880	-7.5	8.75	0.	124.97
3881	-6.75	8.5	0.	124.55
3882	-7.	8.75	0.	124.74
3883	-6.25	8.5	0.	124.09
3884	-6.5	8.75	0.	124.4
3885	-5.75	8.5	0.	123.8
3886	-6.	8.75	0.	124.08
3887	-5.25	8.5	0.	123.89
3888	-5.5	8.75	0.	124.01
3889	-4.75	8.5	0.	124.35
3890	-5.	8.75	0.	124.28
3891	-4.25	8.5	0.	124.89
3892	-4.5	8.75	0.	124.75
3893	-4.5	8.25	0.	124.62
3894	-3.75	8.5	0.	125.26
3895	-4.	8.75	0.	125.18
3896	-3.25	8.5	0.	125.39
3897	-3.5	8.75	0.	125.42
3898	-2.75	8.5	0.	125.4
3899	-3.	8.75	0.	125.5
3900	-2.25	8.5	0.	125.48
3901	-2.5	8.75	0.	125.56
3902	-1.75	8.5	0.	125.9
3903	-2.	8.75	0.	125.78
3904	-1.25	8.5	0.	127.04
3905	-1.5	8.75	0.	126.41
3906	-1.	8.75	0.	127.69
3907	-0.75	8.5	0.	129.22
3908	4.75	8.5	0.	131.85
3909	5.	8.75	0.	130.76
3910	5.25	8.5	0.	134.15
3911	-7.	-8.25	0.	129.5
3912	-6.75	-8.	0.	129.57
3913	-7.25	-8.	0.	128.79
3914	7.75	-8.5	0.	125.94
3915	8.25	-8.5	0.	126.13
3916	8.	-8.75	0.	126.
3917	7.25	-8.5	0.	125.67
3918	7.5	-8.75	0.	125.75
3919	6.75	-8.5	0.	125.29
3920	7.	-8.75	0.	125.42
3921	6.25	-8.5	0.	124.78
3922	6.5	-8.75	0.	124.97
3923	5.75	-8.5	0.	124.15
3924	6.	-8.75	0.	124.42
3925	5.25	-8.5	0.	123.49
3926	5.5	-8.75	0.	123.8
3927	4.75	-8.5	0.	122.91
3928	5.	-8.75	0.	123.21
3929	5.	-8.25	0.	123.09
3930	4.25	-8.5	0.	122.58
3931	4.5	-8.75	0.	122.79
3932	3.75	-8.5	0.	122.59
3933	4.	-8.75	0.	122.64
3934	3.25	-8.5	0.	122.96
3935	3.5	-8.75	0.	122.83
3936	2.75	-8.5	0.	123.59
3937	3.	-8.75	0.	123.31
3938	2.25	-8.5	0.	124.34
3939	2.5	-8.75	0.	123.98
3940	1.75	-8.5	0.	125.08
3941	2.	-8.75	0.	124.71
3942	1.25	-8.5	0.	125.74
3943	1.5	-8.75	0.	125.42
3944	0.75	-8.5	0.	126.31
3945	1.	-8.75	0.	126.05
3946	0.25	-8.5	0.	126.79
3947	0.5	-8.75	0.	126.61
3948	-0.25	-8.5	0.	127.22
3949	5.3127e-012	-8.75	0.	127.12
3950	-0.75	-8.5	0.	127.62
3951	-0.5	-8.25	0.	127.24
3952	-0.5	-8.75	0.	127.59
3953	-1.25	-8.5	0.	128.02
3954	-1.	-8.75	0.	128.05
3955	-1.	-8.25	0.	127.56
3956	-1.75	-8.5	0.	128.46
3957	-1.5	-8.75	0.	128.5
3958	-2.25	-8.5	0.	128.97
3959	-2.	-8.75	0.	128.95
3960	-2.75	-8.5	0.	129.65
3961	-2.5	-8.75	0.	129.36
3962	-3.25	-8.5	0.	130.48
3963	-3.	-8.75	0.	129.64
3964	-7.25	-8.5	0.	129.54
3965	-6.75	-8.5	0.	130.15
3966	-7.	-8.75	0.	129.39
3967	-7.75	-8.5	0.	129.14
3968	-7.5	-8.75	0.	129.35
3969	-7.5	-8.25	0.	128.83
3970	-8.25	-8.5	0.	128.98
3971	-8.	-8.75	0.	129.24
3972	-8.5	-8.75	0.	129.18
3973	-8.75	-8.5	0.	128.96
3974	8.25	6.	0.	126.63
3975	8.	6.25	0.	125.29
3976	8.5	5.75	0.	127.84
3977	8.5	6.25	0.	131.17
3978	8.75	6.	0.	129.24
3979	8.5	5.25	0.	126.37
3980	8.75	5.5	0.	127.48
3981	8.5	4.75	0.	125.9
3982	8.75	5.	0.	126.7
3983	8.5	4.25	0.	125.91
3984	8.75	4.5	0.	126.47
3985	8.5	3.75	0.	126.15
3986	8.75	4.	0.	126.53
3987	8.5	3.25	0.	126.53
3988	8.75	3.5	0.	126.73
3989	8.5	2.75	0.	127.02
3990	8.75	3.	0.	127.02
3991	8.5	2.25	0.	127.53
3992	8.75	2.5	0.	127.38
3993	8.5	1.75	0.	127.75
3994	8.75	2.	0.	127.64
3995	8.5	1.25	0.	127.41
3996	8.75	1.5	0.	127.51
3997	8.5	0.75	0.	126.93
3998	8.75	1.	0.	126.98
3999	8.25	1.	0.	127.49
4000	8.5	0.25	0.	127.03
4001	8.75	0.5	0.	126.73
4002	8.25	0.5	0.	126.7
4003	8.5	-0.25	0.	127.7
4004	8.25	-3.0176e-012	0.	127.76
4005	8.75	-2.3172e-012	0.	127.13
4006	8.5	-0.75	0.	128.19
4007	8.75	-0.5	0.	127.78
4008	8.5	-1.25	0.	128.09
4009	8.75	-1.	0.	127.97
4010	8.5	-1.75	0.	127.67
4011	8.75	-1.5	0.	127.76
4012	8.5	-2.25	0.	127.24
4013	8.75	-2.	0.	127.4
4014	8.5	-2.75	0.	126.87
4015	8.75	-2.5	0.	127.06
4016	8.5	-3.25	0.	126.56
4017	8.75	-3.	0.	126.74
4018	8.5	-3.75	0.	126.28
4019	8.75	-3.5	0.	126.46
4020	8.5	-4.25	0.	126.1
4021	8.75	-4.	0.	126.22
4022	8.5	-4.75	0.	126.03
4023	8.75	-4.5	0.	126.09
4024	8.5	-5.25	0.	126.08
4025	8.75	-5.	0.	126.07
4026	8.5	-5.75	0.	126.19
4027	8.75	-5.5	0.	126.13
4028	8.5	-6.25	0.	126.29
4029	8.75	-6.	0.	126.23
4030	8.5	-6.75	0.	126.35
4031	8.75	-6.5	0.	126.31
4032	8.5	-7.25	0.	126.35
4033	8.75	-7.	0.	126.35
4034	8.5	-7.75	0.	126.31
4035	8.75	-7.5	0.	126.35
4036	8.5	-8.25	0.	126.25
4037	8.75	-8.	0.	126.32
4038	8.75	-8.5	0.	126.28
4039	8.5	-8.75	0.	126.18
4040	4.5	8.75	0.	130.19
4041	4.75	9.	0.	129.04
4042	4.5	9.25	0.	127.54
4043	4.25	9.	0.	126.24
4044	2.25	9.	0.	123.36
4045	2.5	8.75	0.	118.48
4046	2.5	9.25	0.	121.36
4047	2.75	9.	0.	119.29
4048	1.75	9.	0.	127.66
4049	2.	8.75	0.	127.44
4050	2.	9.25	0.	125.06
4051	1.25	9.	0.	127.45
4052	1.5	8.75	0.	133.28
4053	1.5	9.25	0.	127.23
4054	0.75	9.	0.	123.82
4055	1.	8.75	0.	126.39
4056	1.	9.25	0.	125.22
4057	0.25	9.	0.	123.05
4058	0.5	8.75	0.	118.59
4059	0.5	9.25	0.	123.13
4060	-0.25	9.	0.	125.77
4061	7.9876e-012	8.75	0.	124.36
4062	7.6093e-012	9.25	0.	124.56
4063	-0.75	9.	0.	127.47
4064	-0.5	8.75	0.	129.03
4065	-0.5	9.25	0.	126.84
4066	-1.25	9.	0.	127.06
4067	-1.	9.25	0.	127.17
4068	-1.75	9.	0.	126.3
4069	-1.5	9.25	0.	126.65
4070	-2.25	9.	0.	125.87
4071	-2.	9.25	0.	126.25
4072	-2.75	9.	0.	125.67
4073	-2.5	9.25	0.	125.99
4074	-3.25	9.	0.	125.53
4075	-3.	9.25	0.	125.79
4076	-3.75	9.	0.	125.33
4077	-3.5	9.25	0.	125.58
4078	-4.25	9.	0.	125.03
4079	-4.	9.25	0.	125.29
4080	-4.75	9.	0.	124.67
4081	-4.5	9.25	0.	124.95
4082	-5.	9.25	0.	124.63
4083	-5.25	9.	0.	124.39
4084	-6.25	9.	0.	124.39
4085	-6.	9.25	0.	124.4
4086	-5.75	9.	0.	124.29
4087	-6.75	9.	0.	124.6
4088	-6.5	9.25	0.	124.51
4089	-7.25	9.	0.	124.8
4090	-7.	9.25	0.	124.68
4091	-7.75	9.	0.	124.94
4092	-7.5	9.25	0.	124.83
4093	-8.25	9.	0.	125.02
4094	-8.	9.25	0.	124.93
4095	-8.75	9.	0.	125.06
4096	-8.5	9.25	0.	124.99
4097	3.25	-0.5	0.	126.96
4098	3.5	-0.25	0.	129.95
4099	0.75	-0.5	0.	129.23
4100	0.5	-0.25	0.	132.61
4101	0.5	2.25	0.	132.37
4102	0.75	2.5	0.	128.69
4103	0.25	2.5	0.	132.12
4104	3.25	2.5	0.	127.14
4105	3.5	2.25	0.	130.56
4106	5.5	-3.75	0.	130.66
4107	5.25	-3.5	0.	128.34
4108	5.5	-5.25	0.	130.22
4109	5.25	-5.5	0.	127.88
4110	5.75	-5.5	0.	129.75
4111	2.75	-5.5	0.	127.18
4112	2.5	-5.25	0.	129.48
4113	2.5	-3.75	0.	128.68
4114	2.75	-3.5	0.	126.55
4115	-6.25	6.5	0.	125.58
4116	-6.5	6.25	0.	128.71
4117	-4.75	6.5	0.	126.61
4118	-4.5	6.25	0.	129.91
4119	-4.5	6.75	0.	128.35
4120	-4.5	4.75	0.	130.26
4121	-4.75	4.5	0.	127.01
4122	4.25	8.5	0.	128.79
4123	4.5	8.25	0.	132.13
4124	4.5	5.75	0.	135.95
4125	4.25	5.5	0.	131.87
4126	1.75	5.5	0.	127.45
4127	1.5	5.75	0.	131.39
4128	1.25	6.	0.	129.12
4129	1.	6.25	0.	126.14
4130	5.25	9.	0.	130.99
4131	5.	9.25	0.	129.19
4132	8.75	6.5	0.	132.02
4133	8.5	6.75	0.	133.41
4134	8.25	6.5	0.	129.78
4135	5.75	6.5	0.	131.75
4136	5.5	6.75	0.	134.97
4137	5.5	6.25	0.	134.11
4138	5.25	6.5	0.	135.23
4139	-0.25	6.5	0.	126.34
4140	-0.5	6.75	0.	129.74
4141	-0.5	8.25	0.	129.9
4142	-0.25	8.5	0.	127.58
4143	1.75	8.5	0.	132.94
4144	1.25	8.5	0.	132.12
4145	1.5	8.25	0.	136.4
4146	-6.25	-5.5	0.	125.54
4147	-6.5	-5.75	0.	129.24
4148	-3.75	-5.5	0.	128.59
4149	-3.5	-5.75	0.	132.07
4150	-3.5	-5.25	0.	131.02
4151	-3.5	-8.75	0.	128.92
4152	-3.5	-8.25	0.	130.61
4153	-3.75	-8.5	0.	126.75
4154	-6.25	-8.5	0.	126.28
4155	-6.5	-8.25	0.	130.2
4156	-6.5	-8.75	0.	128.51
4157	-4.75	-3.5	0.	124.55
4158	-4.5	-3.25	0.	127.52
4159	-4.25	-3.5	0.	127.24
4160	-7.25	-3.5	0.	129.24
4161	-7.5	-3.25	0.	132.18
4162	-7.5	-3.75	0.	131.53
4163	-7.5	-1.75	0.	130.74
4164	-7.25	-1.5	0.	128.24
4165	-7.75	-1.5	0.	130.37
4166	-4.5	-1.75	0.	129.42
4167	-4.75	-1.5	0.	127.03
4168	-6.75	2.5	0.	124.97
4169	-6.5	2.75	0.	127.93
4170	-6.25	2.5	0.	126.83
4171	-8.75	2.5	0.	130.08
4172	-8.25	2.5	0.	126.88
4173	-8.5	2.75	0.	130.65
4174	-8.75	4.5	0.	129.63
4175	-8.5	4.25	0.	130.45
4176	-8.25	4.5	0.	127.21
4177	7.5	1.25	0.	130.07
4178	7.25	1.5	0.	126.67
4179	7.5	1.75	0.	128.64
4180	7.5	-0.25	0.	130.68
4181	7.25	-0.5	0.	127.35
4182	5.75	-0.5	0.	127.19
4183	5.5	-0.25	0.	129.9
4184	5.5	-0.75	0.	129.11
4185	5.5	1.25	0.	129.32
4186	5.75	1.5	0.	126.2
4187	9.	8.25	0.	128.2
4188	9.	8.75	0.	127.27
4189	8.75	8.5	0.	131.28
4190	9.25	8.5	0.	125.51
4191	9.	7.75	0.	128.96
4192	8.75	8.	0.	132.99
4193	9.25	8.	0.	126.39
4194	9.	7.25	0.	129.59
4195	8.75	7.5	0.	132.15
4196	9.25	7.5	0.	127.03
4197	9.	6.75	0.	130.39
4198	8.75	7.	0.	131.81
4199	9.25	7.	0.	128.33
4200	9.	6.25	0.	130.11
4201	9.25	6.5	0.	129.31
4202	9.	5.75	0.	128.9
4203	9.25	6.	0.	129.11
4204	9.	5.25	0.	127.82
4205	9.25	5.5	0.	128.45
4206	9.25	5.	0.	127.97
4207	9.	4.75	0.	127.27
4208	9.	3.75	0.	127.11
4209	9.25	4.	0.	127.59
4210	9.	4.25	0.	127.09
4211	9.	3.25	0.	127.23
4212	9.25	3.5	0.	127.55
4213	9.25	3.	0.	127.55
4214	9.	2.75	0.	127.39
4215	9.	-1.25	0.	127.64
4216	9.25	-1.	0.	127.47
4217	9.	-0.75	0.	127.56
4218	9.	-1.75	0.	127.49
4219	9.25	-1.5	0.	127.49
4220	9.	-2.25	0.	127.22
4221	9.25	-2.	0.	127.33
4222	9.	-2.75	0.	126.92
4223	9.25	-2.5	0.	127.09
4224	9.	-3.25	0.	126.64
4225	9.25	-3.	0.	126.81
4226	9.	-3.75	0.	126.4
4227	9.25	-3.5	0.	126.53
4228	9.	-4.25	0.	126.22
4229	9.25	-4.	0.	126.3
4230	9.	-4.75	0.	126.12
4231	9.25	-4.5	0.	126.15
4232	9.	-5.25	0.	126.12
4233	9.25	-5.	0.	126.08
4234	9.	-5.75	0.	126.17
4235	9.25	-5.5	0.	126.11
4236	9.	-6.25	0.	126.25
4237	9.25	-6.	0.	126.18
4238	9.	-6.75	0.	126.31
4239	9.25	-6.5	0.	126.26
4240	9.	-7.25	0.	126.35
4241	9.25	-7.	0.	126.33
4242	9.	-7.75	0.	126.36
4243	9.25	-7.5	0.	126.38
4244	9.	-8.25	0.	126.36
4245	9.25	-8.	0.	126.41
4246	9.	-8.75	0.	126.34
4247	9.25	-8.5	0.	126.42
4248	8.75	-9.	0.	126.24
4249	9.	-9.25	0.	126.32
4250	9.25	-9.	0.	126.42
4251	8.25	-9.	0.	126.05
4252	8.5	-9.25	0.	126.13
4253	7.75	-9.	0.	125.81
4254	8.	-9.25	0.	125.91
4255	7.25	-9.	0.	125.5
4256	7.5	-9.25	0.	125.63
4257	6.75	-9.	0.	125.1
4258	7.	-9.25	0.	125.27
4259	6.25	-9.	0.	124.62
4260	6.5	-9.25	0.	124.83
4261	5.75	-9.	0.	124.07
4262	6.	-9.25	0.	124.31
4263	5.25	-9.	0.	123.53
4264	5.5	-9.25	0.	123.78
4265	4.75	-9.	0.	123.09
4266	5.	-9.25	0.	123.3
4267	4.25	-9.	0.	122.85
4268	4.5	-9.25	0.	122.97
4269	3.75	-9.	0.	122.88
4270	4.	-9.25	0.	122.87
4271	3.25	-9.	0.	123.18
4272	3.5	-9.25	0.	123.04
4273	2.75	-9.	0.	123.7
4274	3.	-9.25	0.	123.45
4275	2.25	-9.	0.	124.36
4276	2.5	-9.25	0.	124.03
4277	1.75	-9.	0.	125.05
4278	2.	-9.25	0.	124.71
4279	1.25	-9.	0.	125.73
4280	1.5	-9.25	0.	125.4
4281	1.	-9.25	0.	126.07
4282	0.75	-9.	0.	126.36
4283	-1.25	-9.	0.	128.52
4284	-1.	-9.25	0.	128.42
4285	-0.75	-9.	0.	128.02
4286	-1.75	-9.	0.	129.
4287	-1.5	-9.25	0.	128.93
4288	-2.25	-9.	0.	129.34
4289	-2.	-9.25	0.	129.31
4290	-2.75	-9.	0.	129.34
4291	-2.5	-9.25	0.	129.35
4292	-3.25	-9.	0.	128.04
4293	-3.	-9.25	0.	128.61
4294	-3.75	-9.	0.	123.74
4295	-3.5	-9.25	0.	125.86
4296	-4.25	-9.	0.	117.35
4297	-4.	-8.75	0.	121.64
4298	-4.	-9.25	0.	120.27
4299	-4.75	-9.	0.	112.71
4300	-4.5	-8.75	0.	112.62
4301	-4.5	-9.25	0.	114.62
4302	-5.25	-9.	0.	112.6
4303	-5.	-8.75	0.	111.03
4304	-5.	-9.25	0.	112.28
4305	-5.75	-9.	0.	117.05
4306	-5.5	-8.75	0.	112.41
4307	-5.5	-9.25	0.	114.42
4308	-6.	-8.75	0.	121.19
4309	-6.	-9.25	0.	119.93
4310	-6.25	-9.	0.	123.37
4311	-7.75	-9.	0.	129.45
4312	-7.5	-9.25	0.	129.3
4313	-7.25	-9.	0.	129.2
4314	-8.25	-9.	0.	129.44
4315	-8.	-9.25	0.	129.54
4316	-8.75	-9.	0.	129.41
4317	-8.5	-9.25	0.	129.54
4318	-9.	-8.75	0.	129.19
4319	-9.	-9.25	0.	129.54
4320	-9.25	-9.	0.	129.47
4321	-9.	-8.25	0.	128.74
4322	-9.25	-8.5	0.	129.03
4323	-9.	-7.75	0.	128.3
4324	-9.25	-8.	0.	128.55
4325	-9.	-7.25	0.	128.01
4326	-9.25	-7.5	0.	128.15
4327	-9.	-6.75	0.	127.97
4328	-9.25	-7.	0.	127.98
4329	-9.	-6.25	0.	128.2
4330	-9.25	-6.5	0.	128.08
4331	-9.25	-6.	0.	128.41
4332	-9.	-5.75	0.	128.61
4333	-9.	-4.25	0.	129.53
4334	-9.25	-4.5	0.	129.4
4335	-9.	-4.75	0.	129.43
4336	-9.25	-4.	0.	129.27
4337	-9.	-3.75	0.	129.24
4338	-9.	-2.75	0.	127.86
4339	-9.25	-3.	0.	128.05
4340	-9.	-3.25	0.	128.57
4341	-9.	-2.25	0.	127.56
4342	-9.25	-2.5	0.	127.55
4343	-9.	-1.75	0.	127.73
4344	-9.25	-2.	0.	127.53
4345	-9.	-1.25	0.	127.96
4346	-9.25	-1.5	0.	127.8
4347	-9.25	-1.	0.	128.01
4348	-9.	-0.75	0.	127.95
4349	-9.	0.25	0.	127.38
4350	-9.25	-3.7187e-013	0.	127.9
4351	-9.	-0.25	0.	127.69
4352	-9.	0.75	0.	127.19
4353	-9.25	0.5	0.	127.78
4354	-9.	1.25	0.	127.36
4355	-9.25	1.	0.	127.78
4356	-9.25	1.5	0.	128.04
4357	-9.	1.75	0.	128.06
4358	-9.	2.75	0.	128.88
4359	-9.25	2.5	0.	128.76
4360	-9.	2.25	0.	128.94
4361	-9.	3.25	0.	127.7
4362	-8.75	3.	0.	129.48
4363	-9.25	3.	0.	127.89
4364	-9.	3.75	0.	127.49
4365	-8.75	3.5	0.	128.63
4366	-9.25	3.5	0.	126.81
4367	-9.	4.25	0.	128.29
4368	-8.75	4.	0.	129.14
4369	-9.25	4.	0.	127.35
4370	-9.	4.75	0.	128.02
4371	-9.25	4.5	0.	127.76
4372	-9.	5.25	0.	126.82
4373	-9.25	5.	0.	127.16
4374	-9.	5.75	0.	125.82
4375	-9.25	5.5	0.	126.26
4376	-9.	6.25	0.	125.41
4377	-9.25	6.	0.	125.72
4378	-8.75	6.	0.	125.07
4379	-9.	6.75	0.	125.32
4380	-9.25	6.5	0.	125.49
4381	-8.75	6.5	0.	125.1
4382	-9.	7.25	0.	125.33
4383	-9.25	7.	0.	125.41
4384	-8.75	7.	0.	125.24
4385	-9.	7.75	0.	125.3
4386	-9.25	7.5	0.	125.35
4387	-9.25	8.	0.	125.28
4388	-9.	8.25	0.	125.23
4389	-9.25	9.	0.	125.08
4390	-9.	9.25	0.	125.03
4391	-9.	8.75	0.	125.13
4392	8.75	9.	0.	129.03
4393	9.	9.25	0.	126.75
4394	9.25	9.	0.	125.38
4395	2.75	-0.5	0.	118.22
4396	2.25	-0.5	0.	112.99
4397	1.75	-0.5	0.	113.43
4398	1.25	-0.5	0.	119.55
4399	0.5	0.25	0.	133.09
4400	0.5	0.75	0.	134.79
4401	0.25	0.5	0.	131.93
4402	0.5	1.25	0.	134.69
4403	0.5	1.75	0.	132.92
4404	1.25	2.5	0.	118.9
4405	1.75	2.5	0.	112.85
4406	2.25	2.5	0.	112.47
4407	2.75	2.5	0.	117.9
4408	3.5	0.25	0.	130.66
4409	3.5	0.75	0.	132.64
4410	3.5	1.25	0.	132.85
4411	3.5	1.75	0.	131.2
4412	5.5	-4.25	0.	129.52
4413	5.5	-4.75	0.	129.31
4414	4.25	-5.5	0.	116.14
4415	4.75	-5.5	0.	120.38
4416	3.75	-5.5	0.	116.
4417	3.25	-5.5	0.	119.89
4418	3.	-5.75	0.	123.51
4419	2.5	-4.75	0.	128.38
4420	2.5	-4.25	0.	128.07
4421	3.25	-3.5	0.	119.83
4422	3.	-3.25	0.	123.08
4423	3.75	-3.5	0.	116.28
4424	3.5	-3.25	0.	117.21
4425	4.25	-3.5	0.	116.68
4426	4.75	-3.5	0.	120.9
4427	-5.75	6.5	0.	117.26
4428	-5.25	6.5	0.	117.71
4429	-4.5	5.75	0.	129.76
4430	-4.5	5.25	0.	129.91
4431	-5.25	4.5	0.	118.34
4432	-5.75	4.5	0.	119.14
4433	-6.25	4.5	0.	129.86
4434	-6.	4.25	0.	124.14
4435	-6.5	5.25	0.	129.13
4436	-6.5	4.75	0.	132.2
4437	-6.5	5.75	0.	128.45
4438	2.25	8.5	0.	122.55
4439	2.75	8.5	0.	115.83
4440	3.25	8.5	0.	115.19
4441	3.	8.75	0.	116.75
4442	3.75	8.5	0.	120.26
4443	4.	8.75	0.	124.92
4444	3.5	8.75	0.	117.42
4445	4.5	7.75	0.	133.96
4446	4.5	7.25	0.	137.
4447	4.5	6.75	0.	137.93
4448	4.5	6.25	0.	136.66
4449	4.75	6.	0.	135.47
4450	4.75	6.5	0.	136.21
4451	3.75	5.5	0.	121.77
4452	4.	5.25	0.	126.77
4453	3.25	5.5	0.	115.39
4454	2.75	5.5	0.	114.71
4455	2.25	5.5	0.	119.41
4456	1.5	6.25	0.	134.82
4457	1.25	6.5	0.	131.75
4458	1.5	6.75	0.	138.23
4459	8.5	8.75	0.	133.03
4460	8.5	9.25	0.	130.32
4461	8.5	8.25	0.	136.09
4462	8.5	7.75	0.	136.2
4463	8.5	7.25	0.	134.35
4464	7.75	6.5	0.	121.2
4465	7.25	6.5	0.	116.29
4466	6.75	6.5	0.	116.51
4467	6.25	6.5	0.	122.29
4468	5.5	8.75	0.	134.39
4469	5.5	9.25	0.	131.62
4470	5.5	8.25	0.	137.6
4471	5.5	7.75	0.	137.59
4472	5.5	7.25	0.	135.61
4473	0.75	6.5	0.	119.92
4474	0.25	6.5	0.	118.08
4475	-0.5	7.25	0.	129.27
4476	-0.5	7.75	0.	129.17
4477	0.25	8.5	0.	119.81
4478	0.75	8.5	0.	121.09
4479	1.5	7.25	0.	138.82
4480	1.5	7.75	0.	137.19
4481	-5.75	-5.5	0.	116.44
4482	-5.25	-5.5	0.	111.34
4483	-4.75	-5.5	0.	112.16
4484	-4.25	-5.5	0.	118.6
4485	-3.5	-6.25	0.	132.24
4486	-3.25	-6.	0.	130.88
4487	-3.5	-6.75	0.	133.67
4488	-3.5	-7.25	0.	133.45
4489	-3.25	-7.	0.	131.7
4490	-3.5	-7.75	0.	131.44
4491	-4.25	-8.5	0.	116.89
4492	-4.75	-8.5	0.	110.9
4493	-5.25	-8.5	0.	110.8
4494	-5.75	-8.5	0.	116.53
4495	-6.5	-7.75	0.	130.87
4496	-6.5	-7.25	0.	132.59
4497	-6.5	-6.25	0.	130.41
4498	-6.5	-6.75	0.	132.54
4499	-5.25	-3.5	0.	117.48
4500	-5.75	-3.5	0.	114.36
4501	-6.25	-3.5	0.	115.61
4502	-6.75	-3.5	0.	120.72
4503	-7.5	-2.75	0.	130.71
4504	-7.5	-2.25	0.	130.06
4505	-6.75	-1.5	0.	120.41
4506	-6.25	-1.5	0.	115.83
4507	-5.75	-1.5	0.	115.59
4508	-5.25	-1.5	0.	119.51
4509	-4.5	-2.25	0.	128.05
4510	-4.25	-2.	0.	127.62
4511	-4.5	-2.75	0.	127.4
4512	-7.25	2.5	0.	117.
4513	-7.75	2.5	0.	117.54
4514	-8.5	3.25	0.	130.39
4515	-8.5	3.75	0.	130.26
4516	-7.75	4.5	0.	118.57
4517	-7.25	4.5	0.	119.22
4518	-6.75	4.5	0.	129.86
4519	-6.5	3.25	0.	127.98
4520	-6.5	3.75	0.	128.97
4521	-6.5	4.25	0.	132.17
4522	-6.25	4.	0.	126.5
4523	7.5	0.75	0.	129.75
4524	7.75	1.	0.	128.83
4525	7.5	0.25	0.	130.
4526	7.75	-2.8994e-012	0.	129.24
4527	7.75	0.5	0.	128.21
4528	6.75	-0.5	0.	118.29
4529	6.25	-0.5	0.	118.41
4530	5.5	0.25	0.	129.1
4531	5.25	-5.0013e-012	0.	128.29
4532	5.5	0.75	0.	128.95
4533	6.75	1.5	0.	117.6
4534	6.25	1.5	0.	117.43
4535	8.75	-9.5	0.	126.21
4536	9.25	-9.5	0.	126.41
4537	8.25	-9.5	0.	125.99
4538	7.75	-9.5	0.	125.73
4539	7.25	-9.5	0.	125.4
4540	6.75	-9.5	0.	125.
4541	6.25	-9.5	0.	124.53
4542	5.75	-9.5	0.	124.03
4543	5.25	-9.5	0.	123.55
4544	4.75	-9.5	0.	123.19
4545	4.25	-9.5	0.	123.
4546	3.75	-9.5	0.	123.04
4547	3.25	-9.5	0.	123.31
4548	2.75	-9.5	0.	123.78
4549	2.25	-9.5	0.	124.38
4550	1.75	-9.5	0.	125.05
4551	1.25	-9.5	0.	125.74
4552	0.75	-9.5	0.	126.41
4553	0.25	-9.5	0.	127.05
4554	0.5	-9.25	0.	126.7
4555	-0.25	-9.5	0.	127.68
4556	2.6385e-012	-9.25	0.	127.29
4557	-0.75	-9.5	0.	128.28
4558	-0.5	-9.25	0.	127.87
4559	-1.25	-9.5	0.	128.83
4560	-1.75	-9.5	0.	129.25
4561	-2.25	-9.5	0.	129.33
4562	-2.75	-9.5	0.	128.62
4563	-3.25	-9.5	0.	126.42
4564	-3.75	-9.5	0.	122.39
4565	-4.25	-9.5	0.	117.55
4566	-4.75	-9.5	0.	114.17
4567	-5.25	-9.5	0.	114.07
4568	-5.75	-9.5	0.	117.31
4569	-6.25	-9.5	0.	122.06
4570	-6.75	-9.5	0.	126.12
4571	-6.5	-9.25	0.	125.5
4572	-7.25	-9.5	0.	128.46
4573	-7.	-9.25	0.	128.36
4574	-7.75	-9.5	0.	129.39
4575	-8.25	-9.5	0.	129.64
4576	-8.75	-9.5	0.	129.67
4577	-9.25	-9.5	0.	129.77
4578	-9.5	-9.25	0.	129.71
4579	-9.5	-8.75	0.	129.31
4580	-9.5	-8.25	0.	128.84
4581	-9.5	-7.75	0.	128.4
4582	-9.5	-7.25	0.	128.13
4583	-9.5	-6.75	0.	128.09
4584	-9.5	-6.25	0.	128.28
4585	-9.5	-5.75	0.	128.62
4586	-9.5	-5.25	0.	128.97
4587	-9.25	-5.5	0.	128.83
4588	-9.5	-4.25	0.	129.13
4589	-9.5	-4.75	0.	129.18
4590	-9.5	-3.75	0.	128.79
4591	-9.5	-3.25	0.	128.24
4592	-9.25	-3.5	0.	128.76
4593	-9.5	-2.75	0.	127.74
4594	-9.5	-2.25	0.	127.51
4595	-9.5	-1.75	0.	127.59
4596	-9.5	-1.25	0.	127.85
4597	-9.5	-0.75	0.	128.08
4598	-9.5	-0.25	0.	128.22
4599	-9.25	-0.5	0.	128.02
4600	-9.5	0.25	0.	128.3
4601	-9.5	0.75	0.	128.37
4602	-9.5	1.25	0.	128.47
4603	-9.5	1.75	0.	128.55
4604	-9.5	2.25	0.	128.39
4605	-9.25	2.	0.	128.57
4606	-9.5	2.75	0.	127.77
4607	-9.5	3.25	0.	127.
4608	-9.5	3.75	0.	126.67
4609	-9.5	4.25	0.	126.82
4610	-9.5	4.75	0.	126.9
4611	-9.5	5.25	0.	126.6
4612	-9.5	5.75	0.	126.16
4613	-9.5	6.25	0.	125.8
4614	-9.5	6.75	0.	125.58
4615	-9.5	7.25	0.	125.44
4616	-9.5	7.75	0.	125.33
4617	-9.5	8.25	0.	125.23
4618	-9.5	8.75	0.	125.13
4619	-9.25	8.5	0.	125.18
4620	-9.5	9.25	0.	125.05
4621	-9.25	9.5	0.	125.
4622	-8.75	9.5	0.	124.96
4623	-8.25	9.5	0.	124.9
4624	-7.75	9.5	0.	124.81
4625	-7.25	9.5	0.	124.7
4626	-6.75	9.5	0.	124.59
4627	-6.25	9.5	0.	124.52
4628	-5.75	9.5	0.	124.53
4629	-5.25	9.5	0.	124.66
4630	-5.5	9.25	0.	124.42
4631	-4.75	9.5	0.	124.9
4632	-4.25	9.5	0.	125.22
4633	-3.75	9.5	0.	125.54
4634	-3.25	9.5	0.	125.84
4635	-2.75	9.5	0.	126.11
4636	-2.25	9.5	0.	126.36
4637	-1.75	9.5	0.	126.6
4638	-1.25	9.5	0.	126.76
4639	-0.75	9.5	0.	126.52
4640	-0.25	9.5	0.	125.63
4641	0.25	9.5	0.	124.62
4642	0.75	9.5	0.	124.51
4643	1.25	9.5	0.	124.98
4644	1.75	9.5	0.	124.61
4645	2.25	9.5	0.	123.08
4646	2.75	9.5	0.	121.66
4647	3.25	9.5	0.	121.78
4648	3.	9.25	0.	119.65
4649	3.75	9.5	0.	123.54
4650	3.5	9.25	0.	121.06
4651	4.25	9.5	0.	125.82
4652	4.	9.25	0.	124.52
4653	4.75	9.5	0.	127.66
4654	5.25	9.5	0.	129.79
4655	5.75	9.5	0.	129.8
4656	6.25	9.5	0.	124.52
4657	6.75	9.5	0.	120.78
4658	7.25	9.5	0.	120.45
4659	7.75	9.5	0.	123.4
4660	8.25	9.5	0.	128.23
4661	8.75	9.5	0.	128.02
4662	9.25	9.5	0.	125.59
4663	9.5	9.25	0.	124.22
4664	9.5	8.75	0.	123.6
4665	9.5	8.25	0.	123.69
4666	9.5	7.75	0.	124.45
4667	9.5	7.25	0.	125.76
4668	9.5	6.75	0.	127.24
4669	9.5	6.25	0.	128.3
4670	9.5	5.75	0.	128.67
4671	9.5	5.25	0.	128.61
4672	9.5	4.75	0.	128.41
4673	9.5	4.25	0.	128.21
4674	9.25	4.5	0.	127.71
4675	9.5	3.75	0.	128.04
4676	9.5	3.25	0.	127.88
4677	9.5	2.75	0.	127.71
4678	9.5	2.25	0.	127.48
4679	9.25	2.5	0.	127.54
4680	9.5	1.75	0.	127.16
4681	9.25	2.	0.	127.42
4682	9.5	1.25	0.	126.81
4683	9.25	1.5	0.	127.13
4684	9.5	0.75	0.	126.58
4685	9.25	1.	0.	126.76
4686	9.5	0.25	0.	126.58
4687	9.25	0.5	0.	126.6
4688	9.5	-0.25	0.	126.82
4689	9.25	-1.3208e-012	0.	126.82
4690	9.5	-0.75	0.	127.12
4691	9.25	-0.5	0.	127.21
4692	9.5	-1.25	0.	127.31
4693	9.5	-1.75	0.	127.33
4694	9.5	-2.25	0.	127.2
4695	9.5	-2.75	0.	126.97
4696	9.5	-3.25	0.	126.7
4697	9.5	-3.75	0.	126.44
4698	9.5	-4.25	0.	126.23
4699	9.5	-4.75	0.	126.11
4700	9.5	-5.25	0.	126.07
4701	9.5	-5.75	0.	126.11
4702	9.5	-6.25	0.	126.19
4703	9.5	-6.75	0.	126.28
4704	9.5	-7.25	0.	126.37
4705	9.5	-7.75	0.	126.43
4706	9.5	-8.25	0.	126.47
4707	9.5	-8.75	0.	126.5
4708	9.5	-9.25	0.	126.51
4709	3.	-2.75	0.	121.91
4710	3.25	-3.	0.	120.45
4711	5.	-5.75	0.	124.1
4712	-2.5	2.25	0.	127.51
4713	-2.75	-6.	0.	129.52
4714	-0.75	-1.3065e-010	0.	128.94
4715	-3.75	-2.	0.	126.36
4716	-1.75	-3.5	0.	127.98
4717	-1.25	-3.5	0.	127.77
4718	-2.25	4.5	0.	127.96
4719	-2.75	4.5	0.	127.73
4720	-8.5	6.25	0.	124.76
4721	-0.5	-6.75	0.	126.53
4722	-7.5	-7.75	0.	127.97
4723	1.25	4.	0.	122.2
4724	1.	3.75	0.	123.43
4725	-2.25	-6.	0.	128.35
4726	-5.25	2.5	0.	124.04
4727	-2.75	-1.	0.	127.67
4728	3.75	9.	0.	122.04
4729	-6.75	-9.	0.	127.73
4730	0.25	-9.	0.	126.94
4731	-0.25	-9.	0.	127.49
4732	-9.25	-5.	0.	129.21
4733	9.	-0.25	0.	127.2
4734	8.	0.25	0.	127.42
4735	9.	0.75	0.	126.78
4736	9.	1.25	0.	127.08
4737	9.	2.25	0.	127.49
4738	7.5	-6.25	0.	126.52
4739	5.75	-1.5	0.	125.44
4740	5.5	-1.25	0.	126.89
4741	4.5	1.75	0.	127.94
4742	4.	-1.75	0.	124.02
4743	3.75	4.	0.	124.01
4744	4.	4.25	0.	125.55
4745	-7.75	-5.5	0.	128.79
4746	-4.5	7.25	0.	125.71
4747	-4.5	7.75	0.	124.76
4748	1.5	3.75	0.	119.74
4749	-3.5	-4.75	0.	128.6
4750	5.25	6.	0.	133.83
4751	-9.	-5.25	0.	129.07
4752	5.	-6.25	0.	123.09
4753	5.	-6.75	0.	122.82
4754	-8.5	6.75	0.	125.02
4755	-3.75	-3.5	0.	126.77
4756	-2.25	-2.	0.	127.43
4757	-5.75	2.5	0.	124.8
4758	3.	-2.25	0.	121.44
4759	9.	0.25	0.	126.83
4760	8.	0.75	0.	127.26
4761	9.	1.75	0.	127.39
4762	5.	6.25	0.	134.97
4763	0.75	-3.5	0.	125.51
4764	-2.5	-2.25	0.	127.04
4765	-7.5	-4.25	0.	129.56
4766	0.25	-3.5	0.	126.09
4767	-0.25	-3.5	0.	126.77
4768	-1.25	-1.3252e-010	0.	128.28
4769	-2.25	2.5	0.	127.91
4770	3.25	9.	0.	118.86
4771	-7.	1.25	0.	121.39
4772	-0.75	-8.	0.	127.18
4773	-2.25	-3.5	0.	127.95
4774	-1.75	7.	0.	125.62
4775	1.25	3.5	0.	120.95
4776	-1.25	2.5	0.	129.
4777	-0.75	2.5	0.	129.78
4778	3.	-1.75	0.	121.32
4779	4.	4.75	0.	125.59
4780	-0.25	2.5	0.	130.84
4781	4.75	-4.5368e-012	0.	127.15
4782	-0.75	-3.5	0.	127.35
4783	-1.75	2.5	0.	128.41
4784	1.	8.	0.	101.08
4785	0.	8.	0.	98.211
4786	1.	7.	0.	100.09
4787	0.	7.	0.	98.206
4788	0.5	8.	0.	115.19
4789	1.	7.5	0.	105.63
4790	0.	7.5	0.	103.04
4791	0.5	7.	0.	114.44
4792	0.5	7.5	0.	111.61
4793	0.75	8.	0.	108.12
4794	1.	7.75	0.	103.33
4795	0.25	8.	0.	106.67
4796	0.	7.75	0.	100.61
4797	1.	7.25	0.	102.84
4798	0.75	7.	0.	107.24
4799	0.	7.25	0.	100.62
4800	0.25	7.	0.	106.31
4801	0.5	7.75	0.	113.36
4802	0.75	7.5	0.	108.58
4803	0.25	7.5	0.	107.3
4804	0.5	7.25	0.	112.98
4805	5.	-4.	0.	98.421
4806	3.	-4.	0.	97.297
4807	5.	-5.	0.	98.027
4808	3.	-5.	0.	97.629
4809	4.5	-4.	0.	114.56
4810	4.	-4.	0.	112.94
4811	3.5	-4.	0.	114.01
4812	5.	-4.5	0.	103.06
4813	3.	-4.5	0.	102.34
4814	3.5	-5.	0.	114.01
4815	4.	-5.	0.	112.81
4816	4.5	-5.	0.	114.37
4817	3.5	-4.5	0.	112.65
4818	4.	-4.5	0.	115.98
4819	4.5	-4.5	0.	113.11
4820	4.75	-4.	0.	106.45
4821	5.	-4.25	0.	100.72
4822	3.25	-4.	0.	105.61
4823	3.	-4.25	0.	99.795
4824	5.	-4.75	0.	100.52
4825	4.75	-5.	0.	106.16
4826	3.	-4.75	0.	99.965
4827	3.25	-5.	0.	105.78
4828	4.25	-4.	0.	113.75
4829	4.5	-4.25	0.	113.82
4830	3.75	-4.	0.	113.47
4831	4.	-4.25	0.	114.45
4832	3.5	-4.25	0.	113.31
4833	4.75	-4.5	0.	108.07
4834	3.25	-4.5	0.	107.48
4835	3.75	-5.	0.	113.41
4836	3.5	-4.75	0.	113.31
4837	4.25	-5.	0.	113.59
4838	4.	-4.75	0.	114.39
4839	4.5	-4.75	0.	113.72
4840	3.75	-4.5	0.	114.31
4841	4.25	-4.5	0.	114.54
4842	7.	1.	0.	97.744
4843	6.	1.	0.	97.446
4844	7.	0.	0.	98.22
4845	6.	0.	0.	97.576
4846	6.5	1.	0.	113.05
4847	7.	0.5	0.	103.01
4848	6.	0.5	0.	102.69
4849	6.5	0.	0.	113.44
4850	6.5	0.5	0.	110.45
4851	6.75	1.	0.	105.38
4852	7.	0.75	0.	100.37
4853	6.25	1.	0.	105.23
4854	6.	0.75	0.	100.05
4855	7.	0.25	0.	100.61
4856	6.75	0.	0.	105.81
4857	6.	0.25	0.	100.12
4858	6.25	0.	0.	105.49
4859	6.5	0.75	0.	111.7
4860	6.75	0.5	0.	106.71
4861	6.25	0.5	0.	106.54
4862	6.5	0.25	0.	111.9
4863	8.	9.	0.	100.04
4864	6.	9.	0.	100.1
4865	8.	7.	0.	99.914
4866	6.	7.	0.	99.718
4867	7.5	9.	0.	117.57
4868	7.	9.	0.	116.29
4869	6.5	9.	0.	117.88
4870	8.	8.5	0.	105.07
4871	8.	8.	0.	103.61
4872	8.	7.5	0.	104.22
4873	6.	8.5	0.	105.44
4874	6.	8.	0.	103.61
4875	6.	7.5	0.	104.32
4876	6.5	7.	0.	114.42
4877	7.	7.	0.	112.1
4878	7.5	7.	0.	114.26
4879	7.5	8.	0.	112.79
4880	7.5	7.5	0.	112.66
4881	6.5	7.5	0.	112.41
4882	6.5	8.	0.	112.55
4883	6.5	8.5	0.	114.43
4884	7.5	8.5	0.	114.42
4885	7.	8.5	0.	117.86
4886	7.	7.5	0.	115.37
4887	7.	8.	0.	116.29
4888	7.75	9.	0.	108.71
4889	8.	8.75	0.	102.54
4890	6.25	9.	0.	108.88
4891	6.	8.75	0.	102.75
4892	8.	7.25	0.	102.06
4893	7.75	7.	0.	107.03
4894	6.	7.25	0.	101.99
4895	6.25	7.	0.	107.01
4896	7.25	9.	0.	116.92
4897	7.5	8.75	0.	115.95
4898	6.75	9.	0.	117.08
4899	7.	8.75	0.	117.05
4900	6.5	8.75	0.	116.12
4901	8.	8.25	0.	104.31
4902	7.75	8.5	0.	109.72
4903	8.	7.75	0.	103.89
4904	7.75	8.	0.	108.2
4905	7.75	7.5	0.	108.44
4906	6.	8.25	0.	104.48
4907	6.25	8.5	0.	109.91
4908	6.	7.75	0.	103.91
4909	6.25	8.	0.	108.07
4910	6.25	7.5	0.	108.35
4911	6.75	7.	0.	113.26
4912	6.5	7.25	0.	113.39
4913	7.25	7.	0.	113.18
4914	7.	7.25	0.	113.72
4915	7.5	7.25	0.	113.43
4916	7.5	7.75	0.	112.72
4917	7.5	8.25	0.	113.6
4918	7.25	8.	0.	114.54
4919	7.25	7.5	0.	114.02
4920	6.5	7.75	0.	112.46
4921	6.75	7.5	0.	113.89
4922	6.5	8.25	0.	113.47
4923	6.75	8.	0.	114.41
4924	6.75	8.5	0.	116.11
4925	7.25	8.5	0.	116.11
4926	7.	8.25	0.	117.07
4927	7.	7.75	0.	115.83
4928	-4.	-6.	0.	96.997
4929	-6.	-6.	0.	95.266
4930	-4.	-8.	0.	96.009
4931	-6.	-8.	0.	95.787
4932	-4.5	-6.	0.	110.02
4933	-5.	-6.	0.	107.02
4934	-5.5	-6.	0.	109.04
4935	-4.	-6.5	0.	100.72
4936	-4.	-7.	0.	99.312
4937	-4.	-7.5	0.	100.32
4938	-6.	-6.5	0.	99.763
4939	-6.	-7.	0.	98.635
4940	-6.	-7.5	0.	99.789
4941	-5.5	-8.	0.	108.97
4942	-5.	-8.	0.	106.55
4943	-4.5	-8.	0.	109.2
4944	-5.	-6.5	0.	109.44
4945	-4.5	-6.5	0.	107.45
4946	-4.5	-7.5	0.	107.06
4947	-5.	-7.5	0.	109.2
4948	-5.5	-7.5	0.	106.75
4949	-5.5	-6.5	0.	106.78
4950	-5.5	-7.	0.	106.09
4951	-4.5	-7.	0.	106.53
4952	-5.	-7.	0.	109.17
4953	-4.25	-6.	0.	103.43
4954	-4.	-6.25	0.	98.849
4955	-5.75	-6.	0.	102.09
4956	-6.	-6.25	0.	97.502
4957	-4.	-7.75	0.	98.155
4958	-4.25	-8.	0.	102.54
4959	-6.	-7.75	0.	97.779
4960	-5.75	-8.	0.	102.31
4961	-4.75	-6.	0.	108.52
4962	-4.5	-6.25	0.	108.71
4963	-5.25	-6.	0.	108.03
4964	-5.	-6.25	0.	108.22
4965	-5.5	-6.25	0.	107.88
4966	-4.	-6.75	0.	99.988
4967	-4.25	-6.5	0.	104.07
4968	-4.	-7.25	0.	99.79
4969	-4.25	-7.	0.	102.92
4970	-4.25	-7.5	0.	103.68
4971	-6.	-6.75	0.	99.17
4972	-5.75	-6.5	0.	103.26
4973	-6.	-7.25	0.	99.183
4974	-5.75	-7.	0.	102.36
4975	-5.75	-7.5	0.	103.26
4976	-5.25	-8.	0.	107.76
4977	-5.5	-7.75	0.	107.83
4978	-4.75	-8.	0.	107.88
4979	-5.	-7.75	0.	107.86
4980	-4.5	-7.75	0.	108.1
4981	-4.75	-6.5	0.	108.44
4982	-5.25	-6.5	0.	108.1
4983	-5.	-6.75	0.	109.31
4984	-4.5	-6.75	0.	106.99
4985	-4.75	-7.5	0.	108.13
4986	-4.5	-7.25	0.	106.79
4987	-5.25	-7.5	0.	107.97
4988	-5.	-7.25	0.	109.19
4989	-5.5	-7.25	0.	106.41
4990	-5.5	-6.75	0.	106.42
4991	-5.25	-7.	0.	107.63
4992	-4.75	-7.	0.	107.85
4993	3.	2.	0.	96.26
4994	1.	2.	0.	97.451
4995	3.	0.	0.	96.122
4996	1.	0.	0.	97.587
4997	2.5	2.	0.	110.09
4998	2.	2.	0.	107.91
4999	1.5	2.	0.	110.7
5000	3.	1.5	0.	100.46
5001	3.	1.	0.	99.16
5002	3.	0.5	0.	100.35
5003	1.	1.5	0.	101.47
5004	1.	1.	0.	100.32
5005	1.	0.5	0.	101.65
5006	1.5	0.	0.	111.05
5007	2.	0.	0.	108.18
5008	2.5	0.	0.	110.25
5009	2.	1.5	0.	110.43
5010	2.5	1.5	0.	107.73
5011	2.5	0.5	0.	107.73
5012	2.	0.5	0.	110.55
5013	1.5	0.5	0.	108.5
5014	1.5	1.5	0.	108.36
5015	1.5	1.	0.	107.67
5016	2.5	1.	0.	106.97
5017	2.	1.	0.	110.29
5018	2.75	2.	0.	103.11
5019	3.	1.75	0.	98.349
5020	1.25	2.	0.	104.01
5021	1.	1.75	0.	99.451
5022	3.	0.25	0.	98.221
5023	2.75	0.	0.	103.11
5024	1.	0.25	0.	99.608
5025	1.25	0.	0.	104.24
5026	2.25	2.	0.	109.
5027	2.5	1.75	0.	108.88
5028	1.75	2.	0.	109.3
5029	2.	1.75	0.	109.15
5030	1.5	1.75	0.	109.5
5031	3.	1.25	0.	99.78
5032	2.75	1.5	0.	104.08
5033	3.	0.75	0.	99.719
5034	2.75	1.	0.	103.06
5035	2.75	0.5	0.	104.03
5036	1.	1.25	0.	100.87
5037	1.25	1.5	0.	104.9
5038	1.	0.75	0.	100.96
5039	1.25	1.	0.	104.
5040	1.25	0.5	0.	105.06
5041	1.75	0.	0.	109.61
5042	1.5	0.25	0.	109.75
5043	2.25	0.	0.	109.21
5044	2.	0.25	0.	109.35
5045	2.5	0.25	0.	108.96
5046	2.25	1.5	0.	109.07
5047	1.75	1.5	0.	109.39
5048	2.	1.25	0.	110.36
5049	2.5	1.25	0.	107.34
5050	2.25	0.5	0.	109.13
5051	2.5	0.75	0.	107.34
5052	1.75	0.5	0.	109.52
5053	2.	0.75	0.	110.42
5054	1.5	0.75	0.	108.08
5055	1.5	1.25	0.	108.01
5056	1.75	1.	0.	108.98
5057	2.25	1.	0.	108.63
5058	4.	8.	0.	97.691
5059	2.	8.	0.	99.199
5060	4.	6.	0.	99.867
5061	2.	6.	0.	98.818
5062	3.5	8.	0.	112.23
5063	3.	8.	0.	110.08
5064	2.5	8.	0.	113.01
5065	4.	7.5	0.	102.34
5066	4.	7.	0.	101.74
5067	4.	6.5	0.	103.67
5068	2.	7.5	0.	102.76
5069	2.	7.	0.	101.79
5070	2.	6.5	0.	103.24
5071	2.5	6.	0.	112.59
5072	3.	6.	0.	110.38
5073	3.5	6.	0.	113.31
5074	3.	7.5	0.	112.12
5075	3.5	7.5	0.	109.46
5076	3.5	6.5	0.	110.51
5077	3.	6.5	0.	112.67
5078	2.5	6.5	0.	110.29
5079	2.5	7.5	0.	109.6
5080	2.5	7.	0.	109.
5081	3.5	7.	0.	109.13
5082	3.	7.	0.	112.04
5083	3.75	8.	0.	104.88
5084	4.	7.75	0.	99.996
5085	2.25	8.	0.	106.01
5086	2.	7.75	0.	100.95
5087	4.	6.25	0.	101.75
5088	3.75	6.	0.	106.52
5089	2.	6.25	0.	101.02
5090	2.25	6.	0.	105.65
5091	3.25	8.	0.	111.15
5092	3.5	7.75	0.	110.82
5093	2.75	8.	0.	111.54
5094	3.	7.75	0.	111.08
5095	2.5	7.75	0.	111.28
5096	4.	7.25	0.	102.
5097	3.75	7.5	0.	105.88
5098	4.	6.75	0.	102.68
5099	3.75	7.	0.	105.43
5100	3.75	6.5	0.	107.08
5101	2.	7.25	0.	102.22
5102	2.25	7.5	0.	106.15
5103	2.	6.75	0.	102.49
5104	2.25	7.	0.	105.39
5105	2.25	6.5	0.	106.76
5106	2.75	6.	0.	111.48
5107	2.5	6.25	0.	111.42
5108	3.25	6.	0.	111.84
5109	3.	6.25	0.	111.51
5110	3.5	6.25	0.	111.89
5111	3.25	7.5	0.	110.77
5112	2.75	7.5	0.	110.84
5113	3.	7.25	0.	112.07
5114	3.5	7.25	0.	109.29
5115	3.25	6.5	0.	111.58
5116	3.5	6.75	0.	109.81
5117	2.75	6.5	0.	111.47
5118	3.	6.75	0.	112.35
5119	2.5	6.75	0.	109.63
5120	2.5	7.25	0.	109.29
5121	2.75	7.	0.	110.52
5122	3.25	7.	0.	110.59
5123	-5.	-2.	0.	97.241
5124	-7.	-2.	0.	98.044
5125	-5.	-3.	0.	96.144
5126	-7.	-3.	0.	98.952
5127	-5.5	-2.	0.	113.42
5128	-6.	-2.	0.	112.33
5129	-6.5	-2.	0.	114.2
5130	-5.	-2.5	0.	101.55
5131	-7.	-2.5	0.	103.29
5132	-6.5	-3.	0.	114.18
5133	-6.	-3.	0.	111.97
5134	-5.5	-3.	0.	112.64
5135	-6.5	-2.5	0.	112.87
5136	-6.	-2.5	0.	115.27
5137	-5.5	-2.5	0.	111.73
5138	-5.25	-2.	0.	105.29
5139	-5.	-2.25	0.	99.378
5140	-6.75	-2.	0.	106.08
5141	-7.	-2.25	0.	100.64
5142	-5.	-2.75	0.	98.826
5143	-5.25	-3.	0.	104.36
5144	-7.	-2.75	0.	101.1
5145	-6.75	-3.	0.	106.53
5146	-5.75	-2.	0.	112.87
5147	-5.5	-2.25	0.	112.56
5148	-6.25	-2.	0.	113.26
5149	-6.	-2.25	0.	113.79
5150	-6.5	-2.25	0.	113.51
5151	-5.25	-2.5	0.	106.63
5152	-6.75	-2.5	0.	108.07
5153	-6.25	-3.	0.	113.07
5154	-6.5	-2.75	0.	113.51
5155	-5.75	-3.	0.	112.3
5156	-6.	-2.75	0.	113.61
5157	-5.5	-2.75	0.	112.17
5158	-6.25	-2.5	0.	114.07
5159	-5.75	-2.5	0.	113.5
5160	-7.	4.	0.	98.735
5161	-8.	4.	0.	98.415
5162	-7.	3.	0.	97.401
5163	-8.	3.	0.	98.355
5164	-7.5	4.	0.	114.29
5165	-7.	3.5	0.	103.22
5166	-8.	3.5	0.	103.66
5167	-7.5	3.	0.	113.33
5168	-7.5	3.5	0.	111.26
5169	-7.25	4.	0.	106.49
5170	-7.	3.75	0.	100.97
5171	-7.75	4.	0.	106.33
5172	-8.	3.75	0.	101.03
5173	-7.	3.25	0.	100.3
5174	-7.25	3.	0.	105.35
5175	-8.	3.25	0.	101.
5176	-7.75	3.	0.	105.83
5177	-7.5	3.75	0.	112.73
5178	-7.25	3.5	0.	107.21
5179	-7.75	3.5	0.	107.44
5180	-7.5	3.25	0.	112.25
5181	-5.	6.	0.	97.936
5182	-6.	6.	0.	97.8
5183	-5.	5.	0.	98.265
5184	-6.	5.	0.	98.656
5185	-5.5	6.	0.	113.37
5186	-5.	5.5	0.	103.42
5187	-6.	5.5	0.	103.29
5188	-5.5	5.	0.	114.17
5189	-5.5	5.5	0.	111.16
5190	-5.25	6.	0.	105.64
5191	-5.	5.75	0.	100.66
5192	-5.75	6.	0.	105.57
5193	-6.	5.75	0.	100.53
5194	-5.	5.25	0.	100.83
5195	-5.25	5.	0.	106.2
5196	-6.	5.25	0.	100.96
5197	-5.75	5.	0.	106.38
5198	-5.5	5.75	0.	112.22
5199	-5.25	5.5	0.	107.26
5200	-5.75	5.5	0.	107.2
5201	-5.5	5.25	0.	112.61
