Node Number	X Location (mm)	Y Location (mm)	Z Location (mm)	Equivalent (von-Mises) Stress (MPa)
1	-6.	-7.	0.	135.18
2	-6.	-9.	0.	130.47
3	-4.	-7.	0.	132.86
4	-4.	-9.	0.	130.1
5	-6.	4.	0.	137.03
6	-6.	3.	0.	136.69
7	-4.	4.	0.	133.46
8	-4.	3.	0.	136.28
9	6.	3.	0.	134.06
10	6.	2.	0.	135.52
11	8.	3.	0.	130.47
12	8.	2.	0.	130.38
13	-4.	-5.	0.	127.99
14	-4.	-6.	0.	133.12
15	-3.	-5.	0.	135.01
16	-3.	-6.	0.	136.45
17	-8.	6.	0.	134.39
18	-8.	4.	0.	134.
19	-7.	6.	0.	134.68
20	-7.	4.	0.	134.5
21	1.	-4.	0.	135.38
22	1.	-5.	0.	133.76
23	2.	-4.	0.	134.18
24	2.	-5.	0.	134.37
25	4.	9.	0.	137.02
26	4.	8.	0.	134.31
27	5.	9.	0.	135.41
28	5.	8.	0.	135.06
29	1.	-8.	0.	135.14
30	1.	-9.	0.	134.5
31	2.	-8.	0.	135.12
32	2.	-9.	0.	135.39
33	4.	-8.	0.	136.16
34	4.	-9.	0.	134.55
35	6.	-8.	0.	128.14
36	6.	-9.	0.	128.26
37	-6.	7.	0.	137.34
38	-6.	6.	0.	137.38
39	-4.	7.	0.	136.01
40	-4.	6.	0.	133.45
41	7.	-1.	0.	132.25
42	7.	-3.	0.	136.88
43	9.	-1.	0.	135.04
44	9.	-3.	0.	140.6
45	-8.	-3.	0.	132.24
46	-8.	-5.	0.	132.98
47	-7.	-3.	0.	130.49
48	-7.	-5.	0.	133.06
49	-3.	1.	0.	136.77
50	-3.	0.	0.	134.64
51	-1.	1.	0.	137.28
52	-1.	0.	0.	137.27
53	8.	1.	0.	128.06
54	8.	0.	0.	120.7
55	9.	1.	0.	138.34
56	9.	0.	0.	133.84
57	6.	5.	0.	135.05
58	6.	4.	0.	132.86
59	8.	5.	0.	134.4
60	8.	4.	0.	132.45
61	5.	-4.	0.	136.59
62	5.	-6.	0.	132.51
63	7.	-4.	0.	136.62
64	7.	-6.	0.	132.74
65	2.	1.	0.	137.12
66	2.	0.	0.	137.22
67	4.	1.	0.	138.38
68	4.	0.	0.	137.58
69	10.	10.	0.	124.99
70	-10.	10.	0.	124.99
71	10.	-10.	0.	128.24
72	-10.	-10.	0.	127.
73	-6.	-7.5	0.	141.98
74	-6.	-8.	0.	142.39
75	-6.	-8.5	0.	140.63
76	-5.5	-7.	0.	113.72
77	-5.	-7.	0.	119.13
78	-4.5	-7.	0.	114.17
79	-5.5	-9.	0.	108.71
80	-5.	-9.	0.	111.92
81	-4.5	-9.	0.	108.57
82	-4.	-7.5	0.	139.6
83	-4.	-8.	0.	141.04
84	-4.	-8.5	0.	139.89
85	-6.	3.5	0.	147.22
86	-5.5	4.	0.	116.44
87	-5.	4.	0.	120.09
88	-4.5	4.	0.	115.1
89	-5.5	3.	0.	118.05
90	-5.	3.	0.	122.88
91	-4.5	3.	0.	117.71
92	-4.	3.5	0.	143.33
93	6.	2.5	0.	144.06
94	6.5	3.	0.	112.41
95	7.	3.	0.	115.33
96	7.5	3.	0.	111.56
97	6.5	2.	0.	115.38
98	7.	2.	0.	119.73
99	7.5	2.	0.	113.67
100	8.	2.5	0.	138.49
101	-4.	-5.5	0.	138.29
102	-3.5	-5.	0.	109.85
103	-3.5	-6.	0.	114.16
104	-3.	-5.5	0.	144.64
105	-8.	5.5	0.	144.08
106	-8.	5.	0.	144.89
107	-8.	4.5	0.	143.99
108	-7.5	6.	0.	109.37
109	-7.5	4.	0.	109.13
110	-7.	5.5	0.	148.41
111	-7.	5.	0.	149.96
112	-7.	4.5	0.	148.28
113	1.	-4.5	0.	144.14
114	1.5	-4.	0.	111.97
115	1.5	-5.	0.	111.28
116	2.	-4.5	0.	143.26
117	4.	8.5	0.	144.8
118	4.5	9.	0.	114.56
119	4.5	8.	0.	112.97
120	5.	8.5	0.	143.96
121	1.	-8.5	0.	144.53
122	1.5	-8.	0.	112.08
123	1.5	-9.	0.	111.81
124	2.	-8.5	0.	144.47
125	4.	-8.5	0.	143.51
126	4.5	-8.	0.	116.23
127	5.	-8.	0.	118.23
128	5.5	-8.	0.	110.64
129	4.5	-9.	0.	113.55
130	5.	-9.	0.	116.45
131	5.5	-9.	0.	111.
132	6.	-8.5	0.	136.71
133	-6.	6.5	0.	147.8
134	-5.5	7.	0.	118.55
135	-5.	7.	0.	122.91
136	-4.5	7.	0.	117.23
137	-5.5	6.	0.	116.55
138	-5.	6.	0.	120.14
139	-4.5	6.	0.	115.14
140	-4.	6.5	0.	143.36
141	7.	-1.5	0.	141.29
142	7.	-2.	0.	142.56
143	7.	-2.5	0.	141.53
144	7.5	-1.	0.	113.07
145	8.	-1.	0.	114.64
146	8.5	-1.	0.	109.5
147	7.5	-3.	0.	117.65
148	8.	-3.	0.	123.53
149	8.5	-3.	0.	118.71
150	9.	-1.5	0.	148.77
151	9.	-2.	0.	151.71
152	9.	-2.5	0.	150.85
153	-8.	-3.5	0.	141.53
154	-8.	-4.	0.	142.27
155	-8.	-4.5	0.	142.11
156	-7.5	-3.	0.	107.05
157	-7.5	-5.	0.	108.65
158	-7.	-3.5	0.	139.73
159	-7.	-4.	0.	140.36
160	-7.	-4.5	0.	140.29
161	-3.	0.5	0.	143.96
162	-2.5	1.	0.	118.69
163	-2.	1.	0.	124.06
164	-1.5	1.	0.	118.77
165	-2.5	0.	0.	117.73
166	-2.	0.	0.	123.32
167	-1.5	0.	0.	118.4
168	-1.	0.5	0.	145.46
169	8.	0.5	0.	132.12
170	8.5	1.	0.	111.36
171	8.5	0.	0.	104.95
172	9.	0.5	0.	146.49
173	6.	4.5	0.	142.54
174	6.5	5.	0.	114.69
175	7.	5.	0.	119.42
176	7.5	5.	0.	114.82
177	6.5	4.	0.	112.69
178	7.	4.	0.	115.47
179	7.5	4.	0.	111.76
180	8.	4.5	0.	142.37
181	5.	-4.5	0.	143.97
182	5.	-5.	0.	144.22
183	5.	-5.5	0.	142.1
184	5.5	-4.	0.	116.07
185	6.	-4.	0.	121.93
186	6.5	-4.	0.	116.87
187	5.5	-6.	0.	110.57
188	6.	-6.	0.	116.18
189	6.5	-6.	0.	113.3
190	7.	-4.5	0.	141.13
191	7.	-5.	0.	142.31
192	7.	-5.5	0.	141.53
193	2.	0.5	0.	145.54
194	2.5	1.	0.	118.5
195	3.	1.	0.	124.05
196	3.5	1.	0.	119.22
197	2.5	0.	0.	118.65
198	3.	0.	0.	124.12
199	3.5	0.	0.	119.1
200	4.	0.5	0.	147.04
201	9.5	10.	0.	124.99
202	9.	10.	0.	124.9
203	8.5	10.	0.	124.75
204	8.	10.	0.	124.66
205	7.5	10.	0.	124.75
206	7.	10.	0.	125.13
207	6.5	10.	0.	125.82
208	6.	10.	0.	126.69
209	5.5	10.	0.	125.67
210	5.	10.	0.	121.56
211	4.5	10.	0.	119.91
212	4.	10.	0.	122.38
213	3.5	10.	0.	127.25
214	3.	10.	0.	128.72
215	2.5	10.	0.	128.15
216	2.	10.	0.	127.64
217	1.5	10.	0.	127.29
218	1.	10.	0.	127.11
219	0.5	10.	0.	127.03
220	-5.2042e-015	10.	0.	127.01
221	-0.5	10.	0.	127.01
222	-1.	10.	0.	126.99
223	-1.5	10.	0.	126.9
224	-2.	10.	0.	126.68
225	-2.5	10.	0.	126.23
226	-3.	10.	0.	125.5
227	-3.5	10.	0.	124.51
228	-4.	10.	0.	123.42
229	-4.5	10.	0.	122.49
230	-5.	10.	0.	121.95
231	-5.5	10.	0.	121.89
232	-6.	10.	0.	122.24
233	-6.5	10.	0.	122.79
234	-7.	10.	0.	123.36
235	-7.5	10.	0.	123.85
236	-8.	10.	0.	124.26
237	-8.5	10.	0.	124.6
238	-9.	10.	0.	124.86
239	-9.5	10.	0.	124.99
240	10.	9.5	0.	124.99
241	10.	9.	0.	125.21
242	10.	8.5	0.	125.72
243	10.	8.	0.	126.51
244	10.	7.5	0.	127.54
245	10.	7.	0.	128.69
246	10.	6.5	0.	129.62
247	10.	6.	0.	129.86
248	10.	5.5	0.	129.08
249	10.	5.	0.	127.85
250	10.	4.5	0.	127.36
251	10.	4.	0.	128.17
252	10.	3.5	0.	129.15
253	10.	3.	0.	129.67
254	10.	2.5	0.	130.97
255	10.	2.	0.	134.49
256	10.	1.5	0.	137.51
257	10.	1.	0.	136.9
258	10.	0.5	0.	136.47
259	10.	-5.2042e-015	0.	143.53
260	10.	-0.5	0.	147.97
261	10.	-1.	0.	143.8
262	10.	-1.5	0.	137.39
263	10.	-2.	0.	135.31
264	10.	-2.5	0.	134.41
265	10.	-3.	0.	137.53
266	10.	-3.5	0.	139.68
267	10.	-4.	0.	137.15
268	10.	-4.5	0.	132.62
269	10.	-5.	0.	129.42
270	10.	-5.5	0.	128.01
271	10.	-6.	0.	127.89
272	10.	-6.5	0.	128.36
273	10.	-7.	0.	128.81
274	10.	-7.5	0.	128.96
275	10.	-8.	0.	128.82
276	10.	-8.5	0.	128.58
277	10.	-9.	0.	128.37
278	10.	-9.5	0.	128.27
279	-10.	9.5	0.	124.99
280	-10.	9.	0.	125.27
281	-10.	8.5	0.	125.86
282	-10.	8.	0.	126.62
283	-10.	7.5	0.	127.34
284	-10.	7.	0.	127.64
285	-10.	6.5	0.	127.11
286	-10.	6.	0.	125.89
287	-10.	5.5	0.	124.7
288	-10.	5.	0.	124.33
289	-10.	4.5	0.	124.96
290	-10.	4.	0.	126.41
291	-10.	3.5	0.	127.88
292	-10.	3.	0.	128.69
293	-10.	2.5	0.	128.7
294	-10.	2.	0.	128.34
295	-10.	1.5	0.	127.95
296	-10.	1.	0.	127.71
297	-10.	0.5	0.	127.7
298	-10.	-5.2042e-015	0.	127.93
299	-10.	-0.5	0.	128.45
300	-10.	-1.	0.	129.2
301	-10.	-1.5	0.	129.97
302	-10.	-2.	0.	130.35
303	-10.	-2.5	0.	129.85
304	-10.	-3.	0.	128.58
305	-10.	-3.5	0.	127.3
306	-10.	-4.	0.	126.88
307	-10.	-4.5	0.	127.53
308	-10.	-5.	0.	128.92
309	-10.	-5.5	0.	130.1
310	-10.	-6.	0.	130.31
311	-10.	-6.5	0.	129.51
312	-10.	-7.	0.	128.31
313	-10.	-7.5	0.	127.26
314	-10.	-8.	0.	126.65
315	-10.	-8.5	0.	126.5
316	-10.	-9.	0.	126.66
317	-10.	-9.5	0.	126.89
318	-9.5	-10.	0.	127.37
319	-9.	-10.	0.	128.03
320	-8.5	-10.	0.	128.92
321	-8.	-10.	0.	130.11
322	-7.5	-10.	0.	131.5
323	-7.	-10.	0.	132.57
324	-6.5	-10.	0.	129.84
325	-6.	-10.	0.	119.81
326	-5.5	-10.	0.	109.38
327	-5.	-10.	0.	105.41
328	-4.5	-10.	0.	109.29
329	-4.	-10.	0.	119.77
330	-3.5	-10.	0.	130.1
331	-3.	-10.	0.	133.43
332	-2.5	-10.	0.	133.15
333	-2.	-10.	0.	132.63
334	-1.5	-10.	0.	132.39
335	-1.	-10.	0.	132.59
336	-0.5	-10.	0.	133.19
337	5.2042e-015	-10.	0.	133.9
338	0.5	-10.	0.	131.52
339	1.	-10.	0.	122.65
340	1.5	-10.	0.	117.32
341	2.	-10.	0.	123.98
342	2.5	-10.	0.	134.12
343	3.	-10.	0.	137.58
344	3.5	-10.	0.	134.63
345	4.	-10.	0.	124.78
346	4.5	-10.	0.	114.46
347	5.	-10.	0.	109.81
348	5.5	-10.	0.	111.63
349	6.	-10.	0.	119.19
350	6.5	-10.	0.	126.83
351	7.	-10.	0.	128.71
352	7.5	-10.	0.	127.99
353	8.	-10.	0.	127.62
354	8.5	-10.	0.	127.62
355	9.	-10.	0.	127.84
356	9.5	-10.	0.	128.08
357	0.5	5.	0.	126.13
358	4.9714e-011	5.	0.	126.11
359	1.	5.	0.	126.08
360	0.5	4.5	0.	126.51
361	-1.5973e-011	5.5	0.	125.85
362	1.0926e-010	4.5	0.	126.46
363	-0.5	5.	0.	126.09
364	1.5	5.5	0.	125.98
365	2.	5.	0.	125.78
366	1.5	5.	0.	125.95
367	1.	5.5	0.	125.93
368	1.	4.5	0.	126.36
369	2.5	4.5	0.	125.26
370	-0.5	5.5	0.	125.88
371	0.5	4.	0.	127.1
372	1.4665e-010	4.	0.	126.96
373	-0.5	4.5	0.	126.28
374	2.	5.5	0.	126.03
375	3.	4.5	0.	125.16
376	1.5	6.	0.	126.04
377	-6.1205e-011	6.	0.	125.62
378	1.	6.	0.	125.82
379	2.5	4.	0.	124.91
380	1.	4.	0.	126.85
381	-0.5	4.	0.	126.51
382	-1.	5.	0.	126.21
383	3.	4.	0.	124.75
384	0.5	3.5	0.	127.97
385	-6.	-0.5	0.	122.42
386	2.5	5.5	0.	126.05
387	3.	5.	0.	125.56
388	2.	6.	0.	126.31
389	-1.5	-2.5	0.	125.96
390	-1.	6.5	0.	125.59
391	1.5	4.	0.	126.26
392	-1.	5.5	0.	126.08
393	-1.	6.	0.	125.82
394	-6.	-1.1078e-011	0.	121.81
395	-1.	4.	0.	125.95
396	-1.	4.5	0.	126.15
397	-7.9416e-011	6.5	0.	125.44
398	1.	6.5	0.	125.71
399	3.	3.5	0.	124.15
400	1.5	6.5	0.	126.04
401	-2.	-2.5	0.	124.33
402	1.	3.5	0.	127.61
403	1.5825e-010	3.5	0.	127.72
404	-1.5	5.	0.	126.67
405	3.5	4.5	0.	125.42
406	-4.	-2.5	0.	123.14
407	-6.5	-0.5	0.	122.02
408	-7.	-2.9491e-012	0.	122.18
409	-5.5	-1.	0.	123.95
410	3.	5.5	0.	126.03
411	3.5	5.	0.	125.66
412	2.5	6.	0.	126.56
413	0.5	3.	0.	129.17
414	-1.5	3.5	0.	124.82
415	-4.5	-2.	0.	124.79
416	-2.	-2.	0.	123.07
417	-1.5	-3.	0.	126.89
418	-1.	-2.5	0.	127.89
419	-5.5	0.5	0.	121.09
420	-1.5	6.5	0.	125.81
421	3.	3.	0.	123.19
422	-1.	7.	0.	125.52
423	2.	6.5	0.	126.53
424	-2.5	-2.5	0.	123.24
425	1.5	3.5	0.	126.7
426	-1.	3.5	0.	125.8
427	-3.5	-2.5	0.	122.67
428	-3.	-2.5	0.	122.69
429	-5.5	-0.5	0.	122.9
430	-1.5	5.5	0.	126.56
431	-1.5	6.	0.	126.15
432	-6.5	0.5	0.	122.08
433	-6.	0.5	0.	121.49
434	-1.5	4.5	0.	126.3
435	1.	7.	0.	125.55
436	3.5	3.5	0.	124.88
437	1.5	7.	0.	125.9
438	-7.	0.5	0.	122.64
439	-4.5	-2.5	0.	123.92
440	-2.	-3.	0.	125.43
441	-3.5	-3.	0.	121.55
442	-7.	-0.5	0.	121.81
443	-6.	-1.	0.	123.26
444	-5.	-2.	0.	125.23
445	3.	6.	0.	126.6
446	3.5	-2.	0.	125.74
447	2.5	3.	0.	123.82
448	1.	3.	0.	128.71
449	1.5156e-010	3.	0.	128.82
450	-1.5	3.	0.	124.11
451	-1.5	-2.	0.	124.85
452	-4.	-2.	0.	124.34
453	-1.	-3.	0.	128.36
454	1.8938e-012	-2.	0.	130.64
455	3.	-2.	0.	125.04
456	-2.	3.5	0.	124.4
457	-2.	5.	0.	127.67
458	-5.5	1.	0.	120.58
459	-5.	0.5	0.	121.24
460	-2.	3.	0.	123.42
461	-1.5	-3.5	0.	127.71
462	0.5	2.5	0.	130.54
463	0.5	-1.5	0.	131.3
464	-4.5	-1.5	0.	125.43
465	-0.5	-2.5	0.	129.62
466	-2.	6.5	0.	126.1
467	4.	4.5	0.	126.06
468	3.5	3.	0.	124.14
469	-1.5	7.	0.	125.77
470	2.5	6.5	0.	127.1
471	2.	7.	0.	126.53
472	7.	6.5	0.	119.47
473	-7.	1.	0.	123.28
474	7.	7.	0.	121.3
475	3.	2.5	0.	121.72
476	3.	-1.5	0.	122.78
477	-2.	-1.5	0.	121.38
478	-0.5	-6.5	0.	131.09
479	-4.	-3.	0.	121.87
480	-4.5	-3.	0.	122.99
481	-3.	-3.	0.	122.38
482	-1.	-4.5	0.	128.39
483	-1.	-6.	0.	130.48
484	-7.	-1.	0.	121.36
485	-5.	-2.5	0.	124.88
486	3.5	6.	0.	126.3
487	4.	6.	0.	125.94
488	4.	-2.	0.	126.53
489	4.5	-2.	0.	126.45
490	-0.5	3.	0.	127.65
491	-1.	3.	0.	125.83
492	-1.	-2.	0.	127.35
493	-0.5	-2.	0.	129.59
494	-3.	-2.	0.	122.92
495	-5.	-0.5	0.	123.63
496	-1.	-3.5	0.	128.56
497	-1.	-4.	0.	128.48
498	0.5	-2.	0.	130.21
499	2.	-2.	0.	125.6
500	-1.	-5.5	0.	129.48
501	-2.	6.	0.	126.71
502	4.	5.	0.	126.01
503	-6.5	1.	0.	122.61
504	-6.	1.	0.	121.54
505	-2.	4.	0.	125.7
506	-2.	4.5	0.	126.99
507	-5.	1.	0.	120.6
508	5.	-2.	0.	125.15
509	-2.	2.5	0.	122.26
510	-5.	2.	0.	118.58
511	4.	-5.	0.	129.81
512	-2.	-1.	0.	119.28
513	3.	2.	0.	119.8
514	6.5	7.	0.	122.86
515	-6.	-4.	0.	126.85
516	-5.5	-4.	0.	124.63
517	-7.5	-1.	0.	121.26
518	-7.5	-0.5	0.	122.1
519	-7.5	-1.1768e-012	0.	122.7
520	-7.5	0.5	0.	123.22
521	-7.5	1.	0.	123.72
522	-7.5	1.5	0.	124.09
523	-7.5	2.	0.	123.9
524	7.	6.	0.	116.84
525	7.5	7.5	0.	122.25
526	7.5	7.	0.	121.55
527	7.5	6.5	0.	120.35
528	-1.5	-7.5	0.	130.58
529	-2.	-7.5	0.	130.04
530	-1.	-7.5	0.	130.77
531	-7.5	-7.5	0.	125.58
532	4.	-2.5	0.	128.12
533	2.5	7.	0.	127.47
534	-1.5	7.5	0.	125.95
535	-1.	7.5	0.	125.6
536	-0.5	7.5	0.	125.39
537	-5.7563e-011	7.5	0.	125.29
538	0.5	7.5	0.	125.27
539	1.	7.5	0.	125.35
540	1.5	7.5	0.	125.59
541	2.	7.5	0.	126.13
542	3.5	2.5	0.	123.08
543	5.5	-2.	0.	123.94
544	-5.5	1.5	0.	120.18
545	-7.	1.5	0.	124.19
546	4.	4.	0.	126.44
547	4.	3.5	0.	126.64
548	4.	3.	0.	126.39
549	6.5	6.5	0.	121.28
550	4.5	4.5	0.	127.04
551	-2.	7.5	0.	126.54
552	-2.5	6.5	0.	126.5
553	-2.5	5.	0.	129.34
554	-0.5	-6.	0.	130.66
555	3.5	-3.	0.	129.58
556	3.5	-4.5	0.	128.09
557	3.	-2.5	0.	127.19
558	-2.5298e-011	-2.5	0.	130.45
559	1.5	-2.5	0.	124.88
560	-0.5	-4.5	0.	128.36
561	-0.5	-3.	0.	129.8
562	3.	-6.5	0.	132.46
563	2.8924e-011	-6.5	0.	130.38
564	1.5	-6.5	0.	121.31
565	-4.5	-1.	0.	125.61
566	-4.5	0.5	0.	122.29
567	-2.5	-1.5	0.	121.5
568	-4.	-1.5	0.	125.58
569	2.671e-011	-1.5	0.	131.45
570	-1.5	-1.5	0.	123.49
571	-1.5	2.5	0.	123.28
572	1.2895e-010	2.5	0.	130.25
573	1.	2.5	0.	130.11
574	2.5	2.5	0.	122.87
575	0.5	2.	0.	131.46
576	0.5	-1.	0.	132.01
577	0.5	0.5	0.	128.06
578	2.5	-1.5	0.	123.67
579	1.	-1.5	0.	130.35
580	3.5	-1.5	0.	123.81
581	5.	-1.5	0.	126.74
582	5.5	-1.5	0.	126.
583	3.	6.5	0.	127.41
584	4.5	6.5	0.	124.6
585	-5.5	-2.	0.	125.71
586	-5.5	-3.5	0.	125.08
587	-7.5	-1.5	0.	119.82
588	-6.	-1.5	0.	124.43
589	-1.5	-7.	0.	131.38
590	-1.5	-4.	0.	128.37
591	-1.5	-5.5	0.	129.38
592	-2.	-3.5	0.	126.69
593	-5.	-3.5	0.	123.84
594	-3.5	-3.5	0.	120.02
595	-4.	-3.5	0.	120.48
596	-4.5	-3.5	0.	122.31
597	-3.	-3.5	0.	122.01
598	-1.5	-4.5	0.	128.72
599	-1.5	-6.5	0.	131.54
600	-1.5	-6.	0.	130.56
601	-6.5	-1.5	0.	122.93
602	-7.	-1.5	0.	120.72
603	-5.5	-2.5	0.	125.95
604	4.	6.5	0.	125.24
605	5.5	-1.	0.	127.79
606	5.5	1.1581e-011	0.	127.73
607	4.	-1.5	0.	125.83
608	4.5	-1.5	0.	127.07
609	1.5	-1.5	0.	128.58
610	2.	-1.5	0.	126.06
611	2.	2.5	0.	125.75
612	1.5	2.5	0.	128.56
613	-0.5	2.5	0.	128.81
614	-1.	2.5	0.	126.1
615	0.5	1.5	0.	130.98
616	0.5	-5.6728e-012	0.	129.18
617	-1.	-1.5	0.	127.01
618	-0.5	-1.5	0.	130.08
619	-3.5	-1.5	0.	124.92
620	-3.	-1.5	0.	123.22
621	-4.5	-0.5	0.	124.94
622	-0.5	-3.5	0.	129.59
623	-0.5	-4.	0.	128.77
624	0.5	-2.5	0.	129.51
625	2.	-2.5	0.	124.99
626	3.5	-5.5	0.	129.61
627	3.5	-5.	0.	128.33
628	2.5	-6.5	0.	129.29
629	0.5	-6.5	0.	127.66
630	1.	-6.5	0.	123.39
631	-0.5	-5.5	0.	129.92
632	-2.5	5.5	0.	128.91
633	-2.5	6.	0.	127.49
634	-2.5	7.5	0.	127.55
635	4.5	5.	0.	126.66
636	5.5	6.5	0.	126.47
637	4.5	4.	0.	128.31
638	4.5	3.5	0.	129.37
639	4.5	3.	0.	129.2
640	3.5	-3.5	0.	130.08
641	3.5	-4.	0.	128.97
642	-6.5	1.5	0.	123.72
643	-6.	1.5	0.	122.07
644	-2.5	4.5	0.	128.39
645	6.	-2.	0.	125.11
646	-6.	-3.5	0.	126.68
647	3.5	-1.	0.	121.97
648	2.5	2.	0.	121.55
649	-1.5	-1.	0.	121.81
650	-2.5	3.	0.	124.22
651	-2.5	2.5	0.	123.94
652	-2.5	2.	0.	122.68
653	6.5	6.	0.	119.19
654	4.	-5.5	0.	129.6
655	-4.5	1.	0.	122.1
656	-4.5	1.5	0.	122.25
657	-4.5	2.	0.	121.38
658	3.5	-6.	0.	131.03
659	3.5	-6.5	0.	132.59
660	4.	2.5	0.	126.18
661	4.5	2.5	0.	129.24
662	2.5	7.5	0.	127.2
663	7.5	-7.5	0.	126.96
664	4.5	-2.5	0.	127.17
665	5.	-2.5	0.	124.57
666	-7.5	-7.	0.	124.96
667	-7.5	-6.5	0.	123.8
668	-1.	-8.	0.	130.23
669	-1.5	-8.	0.	130.02
670	-2.	-8.	0.	129.39
671	-2.5	-8.	0.	128.51
672	-3.	-8.	0.	128.51
673	-5.	5.	0.	112.42
674	-7.5	-6.	0.	120.45
675	-7.	-8.	0.	128.06
676	-7.5	-8.	0.	126.33
677	-8.	-8.	0.	126.04
678	-8.	-7.5	0.	125.37
679	-8.	-7.	0.	124.97
680	-8.	-6.5	0.	124.38
681	7.5	6.	0.	118.61
682	7.	8.	0.	122.52
683	7.5	8.	0.	122.65
684	8.	8.	0.	123.38
685	8.	7.5	0.	123.23
686	8.	7.	0.	123.14
687	8.	6.5	0.	123.2
688	5.5	0.5	0.	127.36
689	6.	0.5	0.	123.76
690	6.5	0.5	0.	119.31
691	-2.5	-7.5	0.	128.75
692	5.5	-2.5	0.	121.98
693	-8.	-1.5	0.	121.79
694	-8.	-1.	0.	122.51
695	-8.	-0.5	0.	123.1
696	-8.	-3.6037e-013	0.	123.59
697	-8.	0.5	0.	124.
698	-8.	1.	0.	124.31
699	-8.	1.5	0.	124.41
700	-7.5	2.5	0.	122.37
701	-5.	-4.	0.	123.96
702	-3.5	-4.	0.	117.41
703	-2.	-4.	0.	128.33
704	-2.	-5.5	0.	129.2
705	-2.	-7.	0.	131.65
706	-7.	-7.5	0.	126.98
707	-7.5	-2.	0.	116.97
708	-6.	-2.	0.	126.03
709	-6.	-4.5	0.	125.69
710	-5.5	-4.5	0.	123.79
711	-5.5	-5.	0.	122.18
712	6.	-1.5	0.	126.46
713	6.	8.7592e-012	0.	125.86
714	8.	-5.	0.	125.57
715	8.	-7.5	0.	128.32
716	8.	-8.	0.	126.86
717	7.5	-8.	0.	125.31
718	6.5	7.5	0.	123.56
719	6.5	8.	0.	123.3
720	6.	7.	0.	125.66
721	3.	7.	0.	128.55
722	-8.	7.5	0.	123.54
723	-8.	8.	0.	124.47
724	-7.5	8.	0.	124.74
725	-5.5	8.	0.	120.61
726	-5.	8.	0.	119.03
727	-2.5	8.	0.	127.73
728	-2.	8.	0.	126.79
729	-1.5	8.	0.	126.15
730	-1.	8.	0.	125.75
731	-0.5	8.	0.	125.52
732	-4.2732e-011	8.	0.	125.37
733	0.5	8.	0.	125.27
734	1.	8.	0.	125.22
735	1.5	8.	0.	125.24
736	2.	8.	0.	125.46
737	2.5	8.	0.	126.11
738	3.5	2.	0.	121.75
739	5.	0.5	0.	128.99
740	5.	-1.	0.	129.02
741	2.5	-1.	0.	122.07
742	1.	-1.	0.	131.87
743	1.	0.5	0.	127.9
744	1.	2.	0.	131.56
745	-1.5	2.	0.	122.
746	9.8703e-011	2.	0.	131.7
747	2.905e-011	0.5	0.	127.99
748	-2.5	-1.	0.	120.14
749	-4.	-1.	0.	126.9
750	-4.	0.5	0.	123.73
751	-0.5	-7.5	0.	130.98
752	-0.5	-8.	0.	130.22
753	1.5	-7.	0.	120.13
754	3.	-7.	0.	134.41
755	-1.7262e-012	-4.5	0.	128.16
756	-3.7841e-011	-3.	0.	130.94
757	3.	-3.	0.	129.29
758	3.	-4.5	0.	127.35
759	3.	-6.	0.	131.37
760	1.5	-6.	0.	119.6
761	-3.	6.5	0.	126.58
762	-4.5	8.	0.	120.81
763	-3.	8.	0.	128.93
764	-7.	8.	0.	126.44
765	5.	4.5	0.	127.63
766	5.	2.5	0.	130.37
767	8.	-5.5	0.	127.17
768	8.	-7.	0.	130.07
769	4.	-4.5	0.	129.38
770	4.	-3.	0.	130.22
771	-5.5	2.	0.	119.56
772	-7.	2.	0.	125.23
773	-3.	3.5	0.	125.47
774	-4.5	5.	0.	115.04
775	-3.	5.	0.	131.43
776	-3.	4.	0.	127.99
777	-3.	4.5	0.	130.48
778	-4.	2.	0.	127.29
779	-3.	3.	0.	126.66
780	-6.	2.	0.	123.21
781	5.	-3.	0.	125.03
782	4.5	-3.	0.	129.49
783	4.	-3.5	0.	131.33
784	4.	-4.	0.	130.54
785	7.5	-7.	0.	129.11
786	8.	-6.	0.	129.45
787	4.	-6.	0.	130.52
788	4.	-6.5	0.	130.92
789	4.5	-7.	0.	123.29
790	5.5	1.	0.	129.29
791	6.	1.	0.	123.61
792	5.	3.	0.	132.25
793	5.	3.5	0.	133.46
794	5.5	6.	0.	127.97
795	5.	5.	0.	127.97
796	-6.5	8.	0.	127.37
797	-3.	7.	0.	128.
798	-3.	7.5	0.	129.37
799	-4.	8.	0.	125.2
800	-3.5	5.	0.	130.59
801	-3.	6.	0.	128.79
802	1.6768e-011	-5.	0.	129.61
803	2.5	-6.	0.	129.36
804	3.	-5.	0.	128.77
805	3.	-4.	0.	129.12
806	3.	-3.5	0.	130.25
807	2.	-3.	0.	124.04
808	0.5	-3.	0.	130.13
809	-3.3711e-011	-3.5	0.	131.07
810	-1.8867e-011	-4.	0.	129.74
811	2.	-7.	0.	124.29
812	1.	-7.	0.	123.41
813	0.5	-7.	0.	128.97
814	1.9724e-012	-8.	0.	130.62
815	-3.	2.	0.	127.98
816	-4.	1.5	0.	127.02
817	-4.	1.	0.	125.33
818	-4.	-0.5	0.	127.28
819	-3.	-1.	0.	123.76
820	-1.	-1.	0.	127.02
821	-0.5	-1.	0.	131.52
822	2.7113e-011	-4.5433e-012	0.	130.11
823	6.7994e-011	1.5	0.	131.86
824	-1.	2.	0.	126.61
825	2.	2.	0.	126.23
826	1.5	2.	0.	130.51
827	1.	1.5	0.	131.74
828	1.	1.	0.	129.84
829	1.	-0.5	0.	131.99
830	1.5	-1.	0.	130.72
831	2.	-1.	0.	126.56
832	4.5	-1.	0.	129.29
833	5.	1.3596e-011	0.	129.92
834	5.	1.5	0.	134.06
835	4.	2.	0.	126.71
836	3.	7.5	0.	129.11
837	4.	7.	0.	124.14
838	5.5	7.	0.	127.15
839	7.	-8.	0.	123.89
840	7.	-7.5	0.	124.96
841	3.5	-7.	0.	134.2
842	3.	-7.5	0.	135.01
843	3.	-8.	0.	132.13
844	6.	-1.	0.	128.02
845	-6.	-5.	0.	125.32
846	-6.	-3.	0.	127.21
847	-6.	-2.5	0.	127.27
848	-6.	-6.	0.	124.72
849	-7.	-6.5	0.	126.62
850	-7.	-7.	0.	127.06
851	-2.	-6.5	0.	132.75
852	-2.	-6.	0.	131.58
853	-2.	-4.5	0.	129.55
854	-2.5	-4.	0.	126.84
855	-3.	-4.	0.	121.74
856	-4.5	-4.	0.	122.71
857	-5.	-4.5	0.	123.76
858	-5.	-5.	0.	121.75
859	-7.5	3.	0.	118.67
860	6.	-2.5	0.	122.02
861	8.	-4.5	0.	122.51
862	-3.	-7.5	0.	127.16
863	-5.	-5.5	0.	118.23
864	6.5	1.	0.	117.32
865	8.	6.	0.	123.57
866	-8.	3.	0.	121.89
867	-8.	-6.	0.	123.24
868	-7.	2.5	0.	125.24
869	-5.5	5.	0.	116.13
870	5.5	-3.	0.	120.08
871	3.	-8.5	0.	128.84
872	-8.	8.5	0.	124.8
873	-7.	8.5	0.	125.56
874	-6.5	8.5	0.	125.39
875	-6.	8.5	0.	123.84
876	-5.5	8.5	0.	121.79
877	-5.	8.5	0.	120.96
878	-4.5	8.5	0.	122.16
879	-4.	8.5	0.	124.69
880	-3.5	8.5	0.	126.81
881	-3.	8.5	0.	127.55
882	-2.5	8.5	0.	127.23
883	-2.	8.5	0.	126.68
884	-1.5	8.5	0.	126.23
885	-1.	8.5	0.	125.92
886	-0.5	8.5	0.	125.73
887	-2.9123e-011	8.5	0.	125.59
888	0.5	8.5	0.	125.46
889	1.	8.5	0.	125.31
890	1.5	8.5	0.	125.14
891	2.	8.5	0.	125.
892	2.5	8.5	0.	125.2
893	3.	8.5	0.	125.73
894	-8.	7.	0.	122.23
895	-8.	-2.	0.	120.91
896	-7.	-8.5	0.	128.46
897	-7.5	-8.5	0.	127.56
898	-8.	-8.5	0.	127.11
899	-8.5	-8.5	0.	127.04
900	-8.5	-8.	0.	126.35
901	-8.5	-7.	0.	126.06
902	-8.5	-6.5	0.	126.55
903	-8.5	-6.	0.	128.18
904	-8.5	-2.	0.	126.63
905	-8.5	-1.5	0.	124.94
906	-8.5	-1.	0.	124.56
907	-8.5	-0.5	0.	124.59
908	-8.5	-8.7385e-014	0.	124.78
909	-8.5	0.5	0.	124.99
910	-8.5	1.	0.	125.17
911	-8.5	1.5	0.	125.26
912	-8.5	2.	0.	125.3
913	-8.5	2.5	0.	125.53
914	-8.5	3.	0.	127.02
915	-8.5	7.	0.	127.03
916	-8.5	7.5	0.	125.49
917	-8.5	8.	0.	125.18
918	-8.5	8.5	0.	125.05
919	8.	-8.5	0.	126.21
920	7.5	-8.5	0.	124.82
921	7.	-8.5	0.	122.94
922	8.5	-4.	0.	121.18
923	8.5	-4.5	0.	122.88
924	8.5	-5.	0.	124.67
925	8.5	-5.5	0.	126.52
926	8.5	-6.	0.	128.26
927	8.5	-6.5	0.	129.48
928	8.5	-7.	0.	129.51
929	8.5	-7.5	0.	128.7
930	8.5	-8.	0.	127.78
931	8.5	-8.5	0.	127.25
932	8.5	8.	0.	124.38
933	8.5	7.5	0.	124.57
934	8.5	7.	0.	125.05
935	8.5	6.5	0.	126.05
936	8.5	6.	0.	128.14
937	6.	8.5	0.	124.09
938	6.5	8.5	0.	123.13
939	7.	8.5	0.	122.76
940	7.5	8.5	0.	123.05
941	8.	8.5	0.	123.65
942	8.5	8.5	0.	124.38
943	6.5	5.7852e-012	0.	123.06
944	-7.7142e-013	-8.5	0.	129.47
945	-0.5	-8.5	0.	130.1
946	-1.	-8.5	0.	130.25
947	-1.5	-8.5	0.	130.18
948	-2.	-8.5	0.	129.79
949	-2.5	-8.5	0.	129.32
950	-3.	-8.5	0.	129.08
951	-2.5	-7.	0.	130.58
952	-5.5	-6.	0.	118.47
953	7.	0.5	0.	115.57
954	-7.5	7.	0.	119.21
955	-7.	7.5	0.	126.21
956	-7.	7.	0.	123.78
957	7.	1.	0.	114.73
958	-5.	-6.	0.	116.39
959	-4.5	-4.5	0.	125.54
960	-2.5	-4.5	0.	131.1
961	-2.5	-6.5	0.	134.92
962	-3.	-7.	0.	126.91
963	-0.5	-9.	0.	131.1
964	-1.	-9.	0.	131.07
965	-1.5	-9.	0.	131.01
966	-2.	-9.	0.	130.93
967	-2.5	-9.	0.	130.84
968	-3.	-9.	0.	130.98
969	-6.5	-6.5	0.	131.19
970	-8.5	6.5	0.	131.22
971	-8.5	3.5	0.	131.2
972	-8.5	-2.5	0.	130.79
973	-6.5	-2.5	0.	128.68
974	-6.5	-5.5	0.	130.05
975	-8.5	-5.5	0.	132.15
976	7.	2.8261e-012	0.	118.97
977	9.	8.5	0.	125.09
978	9.	8.	0.	125.35
979	9.	7.5	0.	125.81
980	9.	7.	0.	126.54
981	9.	6.5	0.	127.69
982	9.	6.	0.	129.27
983	9.	5.	0.	129.51
984	9.	4.5	0.	128.73
985	9.	4.	0.	131.46
986	9.	3.5	0.	133.04
987	9.	3.	0.	130.62
988	9.	2.5	0.	126.74
989	9.	2.	0.	126.23
990	6.5	-0.5	0.	128.98
991	3.5	-7.5	0.	136.63
992	6.5	-7.5	0.	124.03
993	8.5	-9.	0.	127.23
994	8.	-9.	0.	126.54
995	7.5	-9.	0.	125.78
996	7.	-9.	0.	125.48
997	5.5	7.5	0.	130.37
998	3.5	7.5	0.	131.69
999	-8.5	9.	0.	124.87
1000	-8.	9.	0.	124.69
1001	-7.5	9.	0.	124.68
1002	-7.	9.	0.	124.7
1003	-6.	9.	0.	123.49
1004	-5.5	9.	0.	122.56
1005	-5.	9.	0.	122.26
1006	-4.	9.	0.	124.36
1007	-3.5	9.	0.	125.67
1008	-3.	9.	0.	126.37
1009	-2.5	9.	0.	126.52
1010	-1.5	9.	0.	126.26
1011	-1.	9.	0.	126.13
1012	-0.5	9.	0.	126.04
1013	-1.9776e-011	9.	0.	125.96
1014	1.	9.	0.	125.73
1015	1.5	9.	0.	125.53
1016	2.	9.	0.	125.3
1017	2.5	9.	0.	125.23
1018	3.	9.	0.	126.36
1019	4.5	1.5	0.	135.56
1020	4.5	-0.5	0.	133.62
1021	1.5	-0.5	0.	134.15
1022	1.5	1.5	0.	133.94
1023	-0.5	1.5	0.	134.2
1024	-0.5	-0.5	0.	134.54
1025	-3.5	-0.5	0.	130.65
1026	-3.5	1.5	0.	132.74
1027	0.5	-7.5	0.	132.68
1028	2.5	-7.5	0.	134.48
1029	-8.3066e-013	-9.	0.	131.47
1030	0.5	-3.5	0.	133.1
1031	2.5	-3.5	0.	131.77
1032	2.5	-5.5	0.	131.91
1033	0.5	-5.5	0.	131.91
1034	-7.	-9.	0.	130.24
1035	-7.5	-9.	0.	129.21
1036	-8.	-9.	0.	128.46
1037	-8.5	-9.	0.	127.9
1038	-9.	-9.	0.	127.5
1039	-9.	-8.5	0.	127.07
1040	-9.	-8.	0.	126.79
1041	-9.	-7.5	0.	126.8
1042	-9.	-7.	0.	127.2
1043	-9.	-6.5	0.	128.1
1044	-9.	-6.	0.	129.62
1045	-9.	-5.5	0.	130.91
1046	-9.	-5.	0.	130.95
1047	-9.	-4.5	0.	130.52
1048	-9.	-4.	0.	130.89
1049	-9.	-3.5	0.	130.19
1050	-9.	-3.	0.	130.32
1051	-9.	-2.5	0.	130.07
1052	-9.	-1.5	0.	127.27
1053	-9.	-1.	0.	126.47
1054	-9.	-0.5	0.	126.15
1055	-9.	3.4109e-014	0.	126.06
1056	-9.	1.	0.	126.18
1057	-9.	3.5	0.	129.76
1058	-9.	4.	0.	130.05
1059	-9.	4.5	0.	129.97
1060	-9.	5.	0.	130.62
1061	-9.	5.5	0.	129.87
1062	-9.	6.	0.	129.85
1063	-9.	6.5	0.	129.47
1064	-9.	7.5	0.	126.7
1065	-9.	8.	0.	125.91
1066	-9.	8.5	0.	125.47
1067	-9.	9.	0.	125.14
1068	6.	9.	0.	125.15
1069	6.5	9.	0.	123.6
1070	7.	9.	0.	123.42
1071	7.5	9.	0.	123.66
1072	8.	9.	0.	124.06
1073	8.5	9.	0.	124.52
1074	9.	9.	0.	124.95
1075	9.	-4.	0.	126.84
1076	9.	-4.5	0.	126.18
1077	9.	-5.	0.	126.44
1078	9.	-5.5	0.	127.2
1079	9.	-6.	0.	128.15
1080	9.	-6.5	0.	128.85
1081	9.	-7.	0.	129.02
1082	9.	-7.5	0.	128.7
1083	9.	-8.	0.	128.23
1084	9.	-8.5	0.	127.88
1085	9.	-9.	0.	127.77
1086	-3.5	5.5	0.	132.62
1087	-3.5	7.5	0.	132.33
1088	-6.5	7.5	0.	131.44
1089	5.5	5.5	0.	131.45
1090	8.5	5.5	0.	132.03
1091	8.5	3.5	0.	137.1
1092	5.5	3.5	0.	138.72
1093	5.5	1.5	0.	134.01
1094	4.5	-6.5	0.	129.31
1095	7.5	-6.5	0.	132.61
1096	8.	-4.	0.	120.17
1097	6.	-3.	0.	119.45
1098	4.5	-3.5	0.	133.61
1099	-6.	5.	0.	126.58
1100	-7.	3.	0.	123.09
1101	-6.5	2.5	0.	130.32
1102	-3.5	2.5	0.	132.96
1103	-3.5	4.5	0.	132.38
1104	-3.5	4.	0.	130.62
1105	-3.5	3.	0.	130.31
1106	-3.5	3.5	0.	129.56
1107	-4.	2.5	0.	127.83
1108	-4.5	2.5	0.	118.3
1109	-5.	2.5	0.	118.51
1110	-6.	2.5	0.	125.78
1111	-5.5	2.5	0.	117.6
1112	-6.5	3.	0.	130.87
1113	-6.5	3.5	0.	134.04
1114	-4.	4.5	0.	124.08
1115	-4.5	4.5	0.	114.02
1116	-5.	4.5	0.	114.19
1117	-5.5	4.5	0.	115.12
1118	-6.	4.5	0.	127.03
1119	5.	-3.5	0.	127.12
1120	5.5	-3.5	0.	116.76
1121	6.	-3.5	0.	118.17
1122	6.5	-3.5	0.	121.38
1123	7.5	-4.	0.	123.92
1124	7.5	-4.5	0.	129.31
1125	7.5	-5.	0.	131.84
1126	7.5	-6.	0.	131.22
1127	7.5	-5.5	0.	131.29
1128	7.	-6.5	0.	124.73
1129	6.5	-6.5	0.	113.94
1130	6.	-6.5	0.	112.39
1131	5.	-6.5	0.	120.86
1132	5.5	-6.5	0.	110.71
1133	4.5	-6.	0.	129.9
1134	4.5	-4.	0.	132.39
1135	4.5	-4.5	0.	134.19
1136	4.5	-5.	0.	135.2
1137	4.5	-5.5	0.	133.18
1138	5.5	2.	0.	133.19
1139	5.5	3.	0.	134.69
1140	5.5	2.5	0.	132.6
1141	8.5	3.	0.	131.77
1142	8.5	2.	0.	123.1
1143	8.5	2.5	0.	127.12
1144	7.5	1.5	0.	116.79
1145	7.	1.5	0.	115.32
1146	6.	1.5	0.	125.6
1147	6.5	1.5	0.	115.08
1148	8.5	5.	0.	130.85
1149	8.5	4.	0.	133.24
1150	8.5	4.5	0.	130.79
1151	8.	3.5	0.	123.59
1152	7.5	3.5	0.	109.67
1153	7.	3.5	0.	111.98
1154	6.	3.5	0.	125.25
1155	6.5	3.5	0.	110.48
1156	5.5	4.	0.	134.01
1157	5.5	5.	0.	129.91
1158	5.5	4.5	0.	130.58
1159	8.	5.5	0.	125.12
1160	7.5	5.5	0.	115.32
1161	7.	5.5	0.	115.69
1162	6.5	5.5	0.	115.54
1163	6.	5.5	0.	125.61
1164	-6.	7.5	0.	126.7
1165	-5.5	7.5	0.	118.23
1166	-5.	7.5	0.	118.63
1167	-4.	7.5	0.	126.8
1168	-4.5	7.5	0.	117.77
1169	-3.5	7.	0.	130.45
1170	-3.5	6.	0.	131.11
1171	-3.5	6.5	0.	130.02
1172	-4.	5.5	0.	124.1
1173	-4.5	5.5	0.	114.07
1174	-5.	5.5	0.	114.24
1175	-6.	5.5	0.	127.18
1176	-5.5	5.5	0.	115.19
1177	-6.5	7.	0.	131.72
1178	-6.5	6.5	0.	134.55
1179	-4.5	-6.	0.	120.22
1180	-4.5	-5.	0.	124.72
1181	-4.5	-5.5	0.	123.05
1182	-4.	-4.5	0.	118.86
1183	-3.	-4.5	0.	123.57
1184	-3.5	-4.5	0.	111.24
1185	-2.5	-5.	0.	130.89
1186	-2.5	-6.	0.	134.07
1187	-2.5	-5.5	0.	132.39
1188	-3.	-6.5	0.	127.67
1189	-3.5	-6.5	0.	119.22
1190	-3.5	-7.	0.	124.92
1191	-3.5	-7.5	0.	130.26
1192	-3.5	-8.	0.	132.59
1193	-3.5	-8.5	0.	131.51
1194	-6.5	-9.	0.	130.64
1195	-6.5	-8.5	0.	131.82
1196	-6.5	-8.	0.	133.5
1197	-6.5	-7.5	0.	132.23
1198	-4.	-6.5	0.	125.25
1199	-4.5	-6.5	0.	118.25
1200	-5.	-6.5	0.	115.51
1201	-5.5	-6.5	0.	114.86
1202	-6.	-6.5	0.	125.92
1203	-8.	6.5	0.	123.16
1204	-7.	6.5	0.	122.57
1205	-7.5	6.5	0.	111.43
1206	-6.5	6.	0.	136.62
1207	-6.5	5.5	0.	140.11
1208	-6.5	5.	0.	139.91
1209	-6.5	4.	0.	136.29
1210	-6.5	4.5	0.	139.99
1211	-7.	3.5	0.	122.17
1212	-8.	3.5	0.	122.8
1213	-7.5	3.5	0.	111.09
1214	-8.5	6.	0.	131.41
1215	-8.5	5.5	0.	134.73
1216	-8.5	5.	0.	136.67
1217	-8.5	4.5	0.	134.68
1218	-8.5	4.	0.	131.47
1219	-8.	-2.5	0.	121.84
1220	-7.	-2.5	0.	120.54
1221	-7.5	-2.5	0.	109.62
1222	-6.5	-3.	0.	128.57
1223	-6.5	-3.5	0.	130.87
1224	-6.5	-4.	0.	132.6
1225	-6.5	-5.	0.	128.37
1226	-6.5	-4.5	0.	131.08
1227	-7.	-5.5	0.	123.91
1228	-8.	-5.5	0.	123.44
1229	-7.5	-5.5	0.	111.94
1230	-8.5	-3.	0.	130.82
1231	-8.5	-3.5	0.	133.65
1232	-8.5	-4.	0.	135.56
1233	-8.5	-4.5	0.	133.95
1234	-8.5	-5.	0.	131.89
1235	7.5	8.9603e-013	0.	117.38
1236	7.5	1.	0.	117.36
1237	7.5	0.5	0.	118.21
1238	8.	1.5	0.	121.57
1239	9.	1.5	0.	127.96
1240	8.5	1.5	0.	116.74
1241	9.	-3.5	0.	129.52
1242	8.5	-3.5	0.	118.45
1243	8.	-3.5	0.	119.32
1244	7.	-3.5	0.	129.25
1245	7.5	-3.5	0.	121.98
1246	6.5	-3.	0.	123.64
1247	6.5	-2.5	0.	129.19
1248	6.5	-2.	0.	131.67
1249	6.5	-1.	0.	129.51
1250	6.5	-1.5	0.	130.8
1251	7.	-0.5	0.	122.56
1252	7.5	-0.5	0.	115.23
1253	8.	-0.5	0.	111.36
1254	9.	-0.5	0.	124.59
1255	8.5	-0.5	0.	104.51
1256	3.5	-9.	0.	132.81
1257	3.5	-8.	0.	133.38
1258	3.5	-8.5	0.	131.65
1259	4.	-7.5	0.	128.87
1260	4.5	-7.5	0.	117.58
1261	5.	-7.5	0.	114.83
1262	6.	-7.5	0.	117.62
1263	5.5	-7.5	0.	110.85
1264	6.5	-8.	0.	123.92
1265	6.5	-9.	0.	126.48
1266	6.5	-8.5	0.	124.69
1267	5.5	9.	0.	129.1
1268	5.5	8.	0.	129.22
1269	5.5	8.5	0.	129.38
1270	5.	7.5	0.	124.94
1271	4.	7.5	0.	124.47
1272	4.5	7.5	0.	114.68
1273	3.5	8.	0.	131.13
1274	3.5	9.	0.	129.64
1275	3.5	8.5	0.	130.36
1276	4.5	1.	0.	134.21
1277	4.5	9.7147e-012	0.	133.11
1278	4.5	0.5	0.	133.
1279	4.	-0.5	0.	127.74
1280	3.5	-0.5	0.	119.14
1281	3.	-0.5	0.	119.78
1282	2.	-0.5	0.	127.96
1283	2.5	-0.5	0.	119.06
1284	1.5	-3.9774e-012	0.	132.41
1285	1.5	1.	0.	132.3
1286	1.5	0.5	0.	131.82
1287	4.	1.5	0.	128.56
1288	3.5	1.5	0.	119.16
1289	3.	1.5	0.	119.52
1290	2.5	1.5	0.	118.76
1291	2.	1.5	0.	127.72
1292	-0.5	1.	0.	132.45
1293	-0.5	-2.9344e-012	0.	132.55
1294	-0.5	0.5	0.	131.93
1295	-1.	-0.5	0.	128.16
1296	-1.5	-0.5	0.	118.74
1297	-2.	-0.5	0.	118.86
1298	-3.	-0.5	0.	125.29
1299	-2.5	-0.5	0.	117.58
1300	-3.5	-1.3031e-011	0.	129.59
1301	-3.5	1.	0.	129.9
1302	-3.5	0.5	0.	129.
1303	-1.	1.5	0.	128.07
1304	-1.5	1.5	0.	119.09
1305	-2.	1.5	0.	119.83
1306	-2.5	1.5	0.	119.34
1307	-3.	1.5	0.	128.33
1308	1.	-7.5	0.	124.7
1309	2.	-7.5	0.	125.22
1310	1.5	-7.5	0.	113.98
1311	2.5	-8.	0.	132.74
1312	2.5	-9.	0.	133.
1313	2.5	-8.5	0.	132.17
1314	0.5	-9.	0.	132.61
1315	0.5	-8.	0.	131.94
1316	0.5	-8.5	0.	132.05
1317	1.	-3.5	0.	125.55
1318	2.	-3.5	0.	124.5
1319	1.5	-3.5	0.	114.39
1320	2.5	-4.	0.	130.86
1321	2.5	-5.	0.	130.47
1322	2.5	-4.5	0.	130.66
1323	2.	-5.5	0.	124.28
1324	1.	-5.5	0.	123.57
1325	1.5	-5.5	0.	113.26
1326	0.5	-4.	0.	131.61
1327	0.5	-4.5	0.	131.28
1328	0.5	-5.	0.	131.45
1329	-9.5	-9.	0.	127.13
1330	-9.5	-8.5	0.	126.99
1331	-9.5	-8.	0.	127.03
1332	-9.5	-7.5	0.	127.34
1333	-9.5	-7.	0.	127.94
1334	-9.5	-6.5	0.	128.75
1335	-9.5	-6.	0.	129.54
1336	-9.5	-5.5	0.	129.92
1337	-9.5	-5.	0.	129.65
1338	-9.5	-4.5	0.	129.28
1339	-9.5	-4.	0.	129.04
1340	-9.5	-3.5	0.	129.07
1341	-9.5	-3.	0.	129.28
1342	-9.5	-2.5	0.	129.52
1343	-9.5	-2.	0.	129.22
1344	-9.5	-1.5	0.	128.59
1345	-9.5	-1.	0.	127.96
1346	-9.5	-0.5	0.	127.49
1347	-9.5	3.4082e-014	0.	127.2
1348	-9.5	0.5	0.	127.08
1349	-9.5	1.	0.	127.1
1350	-9.5	1.5	0.	127.26
1351	-9.5	2.	0.	127.53
1352	-9.5	2.5	0.	127.93
1353	-9.5	3.	0.	128.33
1354	-9.5	3.5	0.	128.44
1355	-9.5	4.	0.	128.08
1356	-9.5	4.5	0.	127.76
1357	-9.5	5.	0.	127.57
1358	-9.5	5.5	0.	127.57
1359	-9.5	6.	0.	127.71
1360	-9.5	6.5	0.	127.89
1361	-9.5	7.	0.	127.58
1362	-9.5	7.5	0.	126.96
1363	-9.5	8.	0.	126.33
1364	-9.5	8.5	0.	125.79
1365	-9.5	9.	0.	125.37
1366	-9.5	9.5	0.	125.06
1367	-9.	9.5	0.	124.88
1368	-8.5	9.5	0.	124.66
1369	-8.	9.5	0.	124.43
1370	-7.5	9.5	0.	124.2
1371	-7.	9.5	0.	123.94
1372	-6.5	9.5	0.	123.56
1373	-6.	9.5	0.	123.1
1374	-5.5	9.5	0.	122.73
1375	-5.	9.5	0.	122.73
1376	-4.5	9.5	0.	123.2
1377	-4.	9.5	0.	124.03
1378	-3.5	9.5	0.	124.9
1379	-3.	9.5	0.	125.6
1380	-2.5	9.5	0.	126.05
1381	-2.	9.5	0.	126.29
1382	-1.5	9.5	0.	126.41
1383	-1.	9.5	0.	126.46
1384	-0.5	9.5	0.	126.47
1385	-9.4431e-012	9.5	0.	126.46
1386	0.5	9.5	0.	126.45
1387	1.	9.5	0.	126.43
1388	1.5	9.5	0.	126.4
1389	2.	9.5	0.	126.36
1390	2.5	9.5	0.	126.39
1391	3.	9.5	0.	126.95
1392	3.5	9.5	0.	129.73
1393	4.	9.5	0.	126.33
1394	4.5	9.5	0.	117.16
1395	5.	9.5	0.	125.27
1396	5.5	9.5	0.	128.65
1397	6.	9.5	0.	125.6
1398	6.5	9.5	0.	124.67
1399	7.	9.5	0.	124.42
1400	7.5	9.5	0.	124.4
1401	8.	9.5	0.	124.51
1402	8.5	9.5	0.	124.69
1403	9.	9.5	0.	124.89
1404	9.5	9.5	0.	125.05
1405	9.5	9.	0.	125.26
1406	9.5	8.5	0.	125.61
1407	9.5	8.	0.	126.11
1408	9.5	7.5	0.	126.79
1409	9.5	7.	0.	127.59
1410	9.5	6.5	0.	128.43
1411	9.5	6.	0.	129.09
1412	9.5	5.5	0.	129.23
1413	9.5	5.	0.	128.84
1414	9.5	4.5	0.	128.9
1415	9.5	4.	0.	129.71
1416	9.5	3.5	0.	130.46
1417	9.5	3.	0.	130.23
1418	9.5	2.5	0.	130.08
1419	9.5	2.	0.	131.58
1420	9.5	1.5	0.	136.32
1421	9.5	1.	0.	137.24
1422	9.5	0.5	0.	138.82
1423	9.5	-3.1932e-015	0.	140.28
1424	9.5	-0.5	0.	143.15
1425	9.5	-1.	0.	140.55
1426	9.5	-1.5	0.	141.73
1427	9.5	-2.	0.	143.18
1428	9.5	-2.5	0.	141.43
1429	9.5	-3.	0.	138.5
1430	9.5	-3.5	0.	137.59
1431	9.5	-4.	0.	132.66
1432	9.5	-4.5	0.	130.13
1433	9.5	-5.	0.	128.8
1434	9.5	-5.5	0.	128.28
1435	9.5	-6.	0.	128.32
1436	9.5	-6.5	0.	128.58
1437	9.5	-7.	0.	128.73
1438	9.5	-7.5	0.	128.68
1439	9.5	-8.	0.	128.49
1440	9.5	-8.5	0.	128.29
1441	9.5	-9.	0.	128.15
1442	9.5	-9.5	0.	128.09
1443	9.	-9.5	0.	127.8
1444	8.5	-9.5	0.	127.48
1445	8.	-9.5	0.	127.26
1446	7.5	-9.5	0.	127.33
1447	7.	-9.5	0.	127.9
1448	6.5	-9.5	0.	128.5
1449	6.	-9.5	0.	119.9
1450	5.5	-9.5	0.	110.47
1451	5.	-9.5	0.	111.35
1452	4.5	-9.5	0.	113.07
1453	4.	-9.5	0.	125.57
1454	3.5	-9.5	0.	135.93
1455	3.	-9.5	0.	136.19
1456	2.5	-9.5	0.	135.69
1457	2.	-9.5	0.	125.3
1458	1.5	-9.5	0.	113.15
1459	1.	-9.5	0.	124.08
1460	0.5	-9.5	0.	133.72
1461	-4.3177e-013	-9.5	0.	133.31
1462	-0.5	-9.5	0.	132.57
1463	-1.	-9.5	0.	132.11
1464	-1.5	-9.5	0.	131.97
1465	-2.	-9.5	0.	132.12
1466	-2.5	-9.5	0.	132.48
1467	-3.	-9.5	0.	132.8
1468	-3.5	-9.5	0.	132.05
1469	-4.	-9.5	0.	120.85
1470	-4.5	-9.5	0.	107.97
1471	-5.	-9.5	0.	106.87
1472	-5.5	-9.5	0.	108.07
1473	-6.	-9.5	0.	120.97
1474	-6.5	-9.5	0.	131.83
1475	-7.	-9.5	0.	131.96
1476	-7.5	-9.5	0.	130.85
1477	-8.	-9.5	0.	129.64
1478	-8.5	-9.5	0.	128.63
1479	-9.	-9.5	0.	127.88
1480	-9.5	-9.5	0.	127.3
1481	-9.	7.	0.	128.13
1482	4.	-1.	0.	126.07
1483	-2.	2.	0.	120.4
1484	-0.5	6.5	0.	125.46
1485	0.5	6.	0.	125.68
1486	4.5	2.	0.	131.19
1487	-0.5	7.	0.	125.37
1488	5.	-0.5	0.	130.53
1489	-3.5	-9.	0.	130.7
1490	-5.	-1.	0.	124.64
1491	7.	7.5	0.	122.22
1492	5.	5.5	0.	128.61
1493	6.	6.5	0.	124.55
1494	2.9769e-011	-5.5	0.	130.75
1495	5.	2.	0.	132.56
1496	5.	1.	0.	131.93
1497	8.	-6.5	0.	130.83
1498	1.	-6.0003e-012	0.	129.97
1499	1.	-6.	0.	122.84
1500	-2.5	7.	0.	126.7
1501	-1.	-6.5	0.	131.18
1502	-2.5	3.5	0.	124.83
1503	-1.5	4.	0.	125.59
1504	0.5	5.5	0.	125.88
1505	-0.5	-5.	0.	128.86
1506	-4.	-1.8753e-011	0.	125.69
1507	-7.5	8.5	0.	125.02
1508	-5.5	-5.5	0.	120.42
1509	-1.	-5.	0.	128.72
1510	3.	-5.5	0.	130.41
1511	5.	4.	0.	131.06
1512	-9.	0.5	0.	126.09
1513	2.	4.5	0.	125.61
1514	0.5	7.	0.	125.37
1515	5.	-7.	0.	116.41
1516	6.	-7.	0.	113.76
1517	1.5	-2.	0.	126.88
1518	-9.	3.	0.	128.51
1519	1.7467e-011	-7.	0.	131.08
1520	0.5	-6.	0.	128.45
1521	-9.	2.	0.	126.58
1522	-8.	2.	0.	124.08
1523	-7.	-6.	0.	124.56
1524	1.	-3.	0.	125.34
1525	7.	-7.	0.	124.7
1526	-6.5	-7.	0.	129.7
1527	-6.	-5.5	0.	125.06
1528	8.5969e-012	-7.5	0.	131.55
1529	0.5	-0.5	0.	131.32
1530	-5.5	-1.5744e-011	0.	121.88
1531	-2.	5.5	0.	127.46
1532	0.5	6.5	0.	125.52
1533	-2.5	-3.	0.	123.88
1534	-8.5	-7.5	0.	126.01
1535	-7.5	7.5	0.	123.08
1536	-3.	5.5	0.	130.91
1537	1.5	3.	0.	127.43
1538	-5.5	-1.5	0.	124.94
1539	-3.5	-1.	0.	126.94
1540	2.5	-2.	0.	124.99
1541	2.	3.5	0.	125.49
1542	1.	-2.5	0.	126.98
1543	-7.	-2.	0.	119.82
1544	3.	8.	0.	127.82
1545	4.	5.5	0.	126.12
1546	5.	7.	0.	124.27
1547	4.5	6.	0.	126.27
1548	4.5	7.	0.	121.51
1549	-4.5	9.	0.	122.98
1550	4.	-7.	0.	129.84
1551	3.5	5.5	0.	125.97
1552	2.5	5.	0.	125.63
1553	3.5	7.	0.	128.08
1554	-7.063e-011	7.	0.	125.32
1555	-0.5	3.5	0.	126.92
1556	-5.	-3.	0.	124.27
1557	5.	6.	0.	127.63
1558	-1.5	-5.	0.	128.77
1559	2.	-6.5	0.	124.25
1560	-0.5	6.	0.	125.65
1561	-5.	-1.9306e-011	0.	122.34
1562	5.	6.5	0.	125.82
1563	2.5	-2.5	0.	126.22
1564	3.5	-2.5	0.	127.82
1565	3.	-1.	0.	120.36
1566	-6.5	9.	0.	124.36
1567	-9.	-2.	0.	128.73
1568	-3.5	8.	0.	128.83
1569	2.5	3.5	0.	124.46
1570	3.5	6.5	0.	126.74
1571	-4.5	-2.0298e-011	0.	123.44
1572	-6.5	2.	0.	125.97
1573	2.	-6.	0.	123.52
1574	3.5322e-011	-1.	0.	132.44
1575	-0.5	-7.	0.	131.27
1576	0.5	9.	0.	125.87
1577	-2.	7.	0.	126.15
1578	-6.5	-1.	0.	122.31
1579	4.1752e-011	1.	0.	129.94
1580	2.	4.	0.	125.52
1581	-2.5	-2.	0.	122.5
1582	6.	-0.5	0.	128.03
1583	-6.	8.	0.	124.57
1584	6.	7.5	0.	126.39
1585	-3.	2.5	0.	128.01
1586	3.	-9.	0.	132.36
1587	2.5	-7.	0.	131.03
1588	6.	6.	0.	124.22
1589	-5.	1.5	0.	119.9
1590	4.5	5.5	0.	126.86
1591	-6.5	-2.	0.	124.66
1592	-9.	2.5	0.	127.21
1593	1.	-2.	0.	128.65
1594	5.5	-7.	0.	112.48
1595	-4.	-4.	0.	118.98
1596	-4.	5.	0.	123.13
1597	-9.	1.5	0.	126.32
1598	3.5	4.	0.	125.24
1599	-0.5	2.	0.	130.79
1600	6.5	-7.	0.	118.86
1601	-6.5	-6.	0.	128.65
1602	-3.5	2.	0.	131.26
1603	9.	5.5	0.	130.24
1604	1.5	-3.	0.	121.66
1605	3.2866e-011	-0.5	0.	132.27
1606	-2.	9.	0.	126.41
1607	-2.	-5.	0.	129.49
1608	-5.5	-3.	0.	125.53
1609	-2.5	-3.5	0.	124.79
1610	-2.5	4.	0.	126.43
1611	6.	8.	0.	125.56
1612	2.5	-3.	0.	128.11
1613	3.1724e-011	-6.	0.	130.58
1614	-3.5	-2.	0.	123.7
1615	0.5	1.	0.	129.03
1616	5.5	-0.5	0.	128.54
1617	2.	3.	0.	125.54
1618	-8.	2.5	0.	123.17
1619	-1.	-7.	0.	131.26
1620	-5.	-1.5	0.	125.16
1621	-6.5	-6.4232e-012	0.	121.93
1622	1.5	4.5	0.	126.03
1623	-6.	-7.25	0.	138.29
1624	-5.75	-7.	0.	123.84
1625	-6.	-6.75	0.	130.52
1626	-6.25	-7.	0.	132.07
1627	-6.	-8.75	0.	135.37
1628	-5.75	-9.	0.	119.23
1629	-6.25	-9.	0.	130.18
1630	-6.	-9.25	0.	125.67
1631	-4.25	-7.	0.	122.79
1632	-4.	-7.25	0.	135.83
1633	-3.75	-7.	0.	128.31
1634	-4.	-6.75	0.	129.01
1635	-4.25	-9.	0.	118.98
1636	-4.	-8.75	0.	134.82
1637	-4.	-9.25	0.	125.43
1638	-3.75	-9.	0.	130.05
1639	-6.	3.75	0.	142.
1640	-5.75	4.	0.	126.42
1641	-6.	4.25	0.	132.01
1642	-6.25	4.	0.	136.33
1643	-6.	3.25	0.	141.8
1644	-5.75	3.	0.	127.03
1645	-6.	2.75	0.	131.22
1646	-6.25	3.	0.	133.32
1647	-4.25	4.	0.	123.98
1648	-4.	3.75	0.	138.24
1649	-3.75	4.	0.	131.71
1650	-4.	4.25	0.	128.74
1651	-4.25	3.	0.	126.53
1652	-4.	3.25	0.	139.58
1653	-3.75	3.	0.	132.99
1654	-4.	2.75	0.	132.03
1655	6.	2.75	0.	138.94
1656	6.25	3.	0.	122.99
1657	5.75	3.	0.	134.08
1658	6.	3.25	0.	129.58
1659	6.	2.25	0.	139.62
1660	6.25	2.	0.	125.02
1661	5.75	2.	0.	134.04
1662	6.	1.75	0.	130.54
1663	7.75	3.	0.	120.76
1664	8.	2.75	0.	134.38
1665	8.25	3.	0.	130.94
1666	8.	3.25	0.	126.98
1667	7.75	2.	0.	121.47
1668	8.	2.25	0.	134.08
1669	8.25	2.	0.	126.13
1670	8.	1.75	0.	125.94
1671	-4.	-5.25	0.	132.96
1672	-3.75	-5.	0.	118.67
1673	-4.25	-5.	0.	126.08
1674	-4.	-4.75	0.	123.41
1675	-4.	-5.75	0.	135.23
1676	-3.75	-6.	0.	123.01
1677	-4.25	-6.	0.	126.21
1678	-4.	-6.25	0.	129.15
1679	-3.25	-5.	0.	122.06
1680	-3.	-5.25	0.	139.51
1681	-3.	-4.75	0.	129.25
1682	-2.75	-5.	0.	132.52
1683	-3.25	-6.	0.	124.89
1684	-3.	-5.75	0.	140.35
1685	-2.75	-6.	0.	135.
1686	-3.	-6.25	0.	132.05
1687	-8.	5.75	0.	138.95
1688	-7.75	6.	0.	121.44
1689	-8.	6.25	0.	128.72
1690	-8.25	6.	0.	132.48
1691	-8.	4.25	0.	138.72
1692	-7.75	4.	0.	121.14
1693	-8.	3.75	0.	128.35
1694	-8.25	4.	0.	132.32
1695	-7.25	6.	0.	121.65
1696	-7.	5.75	0.	141.34
1697	-7.	6.25	0.	128.61
1698	-6.75	6.	0.	135.14
1699	-7.25	4.	0.	121.44
1700	-7.	4.25	0.	141.19
1701	-6.75	4.	0.	134.87
1702	-7.	3.75	0.	128.32
1703	1.	-4.25	0.	139.5
1704	1.25	-4.	0.	123.3
1705	1.	-3.75	0.	130.43
1706	0.75	-4.	0.	133.15
1707	1.	-4.75	0.	138.75
1708	1.25	-5.	0.	122.22
1709	1.	-5.25	0.	128.63
1710	0.75	-5.	0.	132.25
1711	1.75	-4.	0.	122.72
1712	2.	-4.25	0.	138.47
1713	2.	-3.75	0.	129.32
1714	2.25	-4.	0.	132.17
1715	1.75	-5.	0.	122.45
1716	2.	-4.75	0.	138.53
1717	2.25	-5.	0.	132.06
1718	2.	-5.25	0.	129.29
1719	4.	8.75	0.	140.6
1720	4.25	9.	0.	125.32
1721	3.75	9.	0.	132.97
1722	4.	9.25	0.	131.65
1723	4.	8.25	0.	139.36
1724	4.25	8.	0.	123.36
1725	4.	7.75	0.	129.37
1726	3.75	8.	0.	132.38
1727	4.75	9.	0.	124.55
1728	5.	8.75	0.	139.41
1729	5.25	9.	0.	131.92
1730	5.	9.25	0.	130.33
1731	4.75	8.	0.	123.65
1732	5.	8.25	0.	139.22
1733	5.25	8.	0.	131.77
1734	5.	7.75	0.	129.98
1735	1.	-8.25	0.	139.58
1736	1.25	-8.	0.	123.25
1737	1.	-7.75	0.	129.89
1738	0.75	-8.	0.	133.18
1739	1.	-8.75	0.	139.3
1740	1.25	-9.	0.	122.85
1741	0.75	-9.	0.	133.2
1742	1.	-9.25	0.	129.25
1743	1.75	-8.	0.	123.26
1744	2.	-8.25	0.	139.56
1745	2.	-7.75	0.	130.14
1746	2.25	-8.	0.	133.6
1747	1.75	-9.	0.	123.27
1748	2.	-8.75	0.	139.68
1749	2.25	-9.	0.	133.86
1750	2.	-9.25	0.	130.3
1751	4.	-8.25	0.	139.65
1752	4.25	-8.	0.	125.75
1753	3.75	-8.	0.	134.51
1754	4.	-7.75	0.	132.49
1755	4.	-8.75	0.	138.85
1756	4.25	-9.	0.	123.71
1757	3.75	-9.	0.	133.36
1758	4.	-9.25	0.	130.01
1759	5.75	-8.	0.	119.02
1760	6.	-8.25	0.	132.19
1761	6.	-7.75	0.	122.85
1762	6.25	-8.	0.	125.61
1763	5.75	-9.	0.	119.31
1764	6.	-8.75	0.	132.35
1765	6.25	-9.	0.	127.09
1766	6.	-9.25	0.	124.06
1767	-6.	6.75	0.	142.42
1768	-5.75	7.	0.	127.6
1769	-6.	7.25	0.	132.
1770	-6.25	7.	0.	134.09
1771	-6.	6.25	0.	142.47
1772	-5.75	6.	0.	126.66
1773	-6.	5.75	0.	132.26
1774	-6.25	6.	0.	136.66
1775	-4.25	7.	0.	126.16
1776	-4.	6.75	0.	139.45
1777	-4.	7.25	0.	131.38
1778	-3.75	7.	0.	132.9
1779	-4.25	6.	0.	124.01
1780	-4.	6.25	0.	138.26
1781	-3.75	6.	0.	131.95
1782	-4.	5.75	0.	128.75
1783	7.	-1.25	0.	136.56
1784	7.25	-1.	0.	122.17
1785	6.75	-1.	0.	130.54
1786	7.	-0.75	0.	127.4
1787	7.	-2.75	0.	138.75
1788	7.25	-3.	0.	126.44
1789	7.	-3.25	0.	133.
1790	6.75	-3.	0.	129.75
1791	8.75	-1.	0.	122.05
1792	9.	-1.25	0.	141.77
1793	9.	-0.75	0.	129.71
1794	9.25	-1.	0.	137.41
1795	8.75	-3.	0.	129.14
1796	9.	-2.75	0.	145.52
1797	9.	-3.25	0.	135.05
1798	9.25	-3.	0.	139.14
1799	-8.	-3.25	0.	136.63
1800	-7.75	-3.	0.	119.19
1801	-8.	-2.75	0.	126.99
1802	-8.25	-3.	0.	131.14
1803	-8.	-4.75	0.	137.32
1804	-7.75	-5.	0.	120.36
1805	-8.	-5.25	0.	128.18
1806	-8.25	-5.	0.	132.09
1807	-7.25	-3.	0.	118.34
1808	-7.	-3.25	0.	134.86
1809	-7.	-2.75	0.	125.48
1810	-6.75	-3.	0.	129.16
1811	-7.25	-5.	0.	120.3
1812	-7.	-4.75	0.	136.36
1813	-6.75	-5.	0.	130.37
1814	-7.	-5.25	0.	128.44
1815	-3.	0.75	0.	140.14
1816	-2.75	1.	0.	127.28
1817	-3.25	1.	0.	133.03
1818	-3.	1.25	0.	132.52
1819	-3.	0.25	0.	139.12
1820	-2.75	0.	0.	125.82
1821	-3.	-0.25	0.	129.95
1822	-3.25	-6.5157e-012	0.	131.77
1823	-1.25	1.	0.	127.59
1824	-1.	0.75	0.	141.15
1825	-0.75	1.	0.	134.53
1826	-1.	1.25	0.	132.66
1827	-1.25	0.	0.	127.42
1828	-1.	0.25	0.	141.14
1829	-0.75	-1.4672e-012	0.	134.57
1830	-1.	-0.25	0.	132.69
1831	8.	0.75	0.	129.69
1832	8.25	1.	0.	119.1
1833	7.75	1.	0.	122.39
1834	8.	1.25	0.	124.79
1835	8.	0.25	0.	126.16
1836	8.25	0.	0.	112.63
1837	7.75	4.4802e-013	0.	118.52
1838	8.	-0.25	0.	115.99
1839	8.75	1.	0.	124.35
1840	9.	0.75	0.	142.18
1841	9.	1.25	0.	133.13
1842	9.25	1.	0.	137.42
1843	8.75	0.	0.	119.23
1844	9.	0.25	0.	140.05
1845	9.	-0.25	0.	129.14
1846	9.25	-1.5966e-015	0.	136.77
1847	6.	4.75	0.	138.55
1848	6.25	5.	0.	124.39
1849	5.75	5.	0.	132.13
1850	6.	5.25	0.	130.3
1851	6.	4.25	0.	137.61
1852	6.25	4.	0.	122.54
1853	6.	3.75	0.	129.
1854	5.75	4.	0.	133.21
1855	7.75	5.	0.	124.16
1856	8.	4.75	0.	138.19
1857	8.25	5.	0.	132.29
1858	8.	5.25	0.	129.73
1859	7.75	4.	0.	121.87
1860	8.	4.25	0.	137.3
1861	8.25	4.	0.	132.57
1862	8.	3.75	0.	127.96
1863	5.	-4.25	0.	140.
1864	5.25	-4.	0.	125.73
1865	5.	-3.75	0.	131.83
1866	4.75	-4.	0.	134.14
1867	5.	-5.75	0.	137.03
1868	5.25	-6.	0.	121.11
1869	5.	-6.25	0.	126.64
1870	4.75	-6.	0.	130.69
1871	6.75	-4.	0.	125.9
1872	7.	-4.25	0.	138.41
1873	7.25	-4.	0.	129.77
1874	7.	-3.75	0.	132.87
1875	6.75	-6.	0.	122.58
1876	7.	-5.75	0.	136.95
1877	7.25	-6.	0.	131.69
1878	7.	-6.25	0.	128.72
1879	2.	0.75	0.	141.11
1880	2.25	1.	0.	127.4
1881	1.75	1.	0.	134.36
1882	2.	1.25	0.	132.4
1883	2.	0.25	0.	141.16
1884	2.25	0.	0.	127.52
1885	2.	-0.25	0.	132.57
1886	1.75	-1.9887e-012	0.	134.47
1887	3.75	1.	0.	128.4
1888	4.	0.75	0.	142.52
1889	4.25	1.	0.	135.96
1890	4.	1.25	0.	133.45
1891	3.75	0.	0.	127.97
1892	4.	0.25	0.	142.12
1893	4.25	4.8574e-012	0.	134.97
1894	4.	-0.25	0.	132.64
1895	9.75	10.	0.	124.99
1896	10.	9.75	0.	124.99
1897	-9.75	10.	0.	124.99
1898	-10.	9.75	0.	124.99
1899	10.	-9.75	0.	128.25
1900	9.75	-10.	0.	128.16
1901	-10.	-9.75	0.	126.94
1902	-9.75	-10.	0.	127.18
1903	-6.	-7.75	0.	142.18
1904	-6.25	-7.5	0.	137.09
1905	-6.	-8.25	0.	141.5
1906	-6.25	-8.	0.	137.94
1907	-6.25	-8.5	0.	136.22
1908	-5.25	-7.	0.	116.43
1909	-5.5	-6.75	0.	114.08
1910	-4.75	-7.	0.	116.65
1911	-5.	-6.75	0.	117.25
1912	-4.5	-6.75	0.	116.04
1913	-5.25	-9.	0.	110.3
1914	-5.5	-9.25	0.	108.29
1915	-4.75	-9.	0.	110.23
1916	-5.	-9.25	0.	109.36
1917	-4.5	-9.25	0.	108.17
1918	-4.	-7.75	0.	140.31
1919	-3.75	-7.5	0.	134.92
1920	-4.	-8.25	0.	140.46
1921	-3.75	-8.	0.	136.81
1922	-3.75	-8.5	0.	135.69
1923	-6.25	3.5	0.	140.62
1924	-5.25	4.	0.	118.24
1925	-5.5	4.25	0.	115.67
1926	-4.75	4.	0.	117.57
1927	-5.	4.25	0.	117.11
1928	-4.5	4.25	0.	114.47
1929	-5.25	3.	0.	120.45
1930	-5.5	2.75	0.	117.7
1931	-4.75	3.	0.	120.28
1932	-5.	2.75	0.	120.66
1933	-4.5	2.75	0.	117.87
1934	-3.75	3.5	0.	136.43
1935	5.75	2.5	0.	138.32
1936	6.75	3.	0.	113.82
1937	6.5	3.25	0.	111.37
1938	7.25	3.	0.	113.4
1939	7.	3.25	0.	113.65
1940	7.5	3.25	0.	110.54
1941	6.75	2.	0.	117.55
1942	6.5	1.75	0.	115.08
1943	7.25	2.	0.	116.7
1944	7.	1.75	0.	117.47
1945	7.5	1.75	0.	115.1
1946	8.25	2.5	0.	132.8
1947	-4.25	-5.5	0.	130.63
1948	-3.5	-4.75	0.	110.35
1949	-3.5	-6.25	0.	116.49
1950	-2.75	-5.5	0.	138.5
1951	-8.	5.25	0.	144.48
1952	-8.25	5.5	0.	139.4
1953	-8.	4.75	0.	144.43
1954	-8.25	5.	0.	140.78
1955	-8.25	4.5	0.	139.32
1956	-7.5	6.25	0.	110.15
1957	-7.5	3.75	0.	109.86
1958	-7.	5.25	0.	149.18
1959	-6.75	5.5	0.	144.26
1960	-7.	4.75	0.	149.12
1961	-6.75	5.	0.	144.93
1962	-6.75	4.5	0.	144.13
1963	0.75	-4.5	0.	137.69
1964	1.5	-3.75	0.	113.
1965	1.5	-5.25	0.	112.09
1966	2.25	-4.5	0.	136.94
1967	3.75	8.5	0.	137.56
1968	4.5	9.25	0.	115.6
1969	4.5	7.75	0.	113.65
1970	5.25	8.5	0.	136.65
1971	0.75	-8.5	0.	138.27
1972	1.5	-7.75	0.	112.84
1973	1.5	-9.25	0.	112.31
1974	2.25	-8.5	0.	138.3
1975	3.75	-8.5	0.	137.57
1976	4.75	-8.	0.	117.22
1977	4.5	-7.75	0.	116.81
1978	5.25	-8.	0.	114.42
1979	5.	-7.75	0.	116.5
1980	5.5	-7.75	0.	110.58
1981	4.75	-9.	0.	114.98
1982	4.5	-9.25	0.	113.23
1983	5.25	-9.	0.	113.7
1984	5.	-9.25	0.	113.87
1985	5.5	-9.25	0.	110.64
1986	6.25	-8.5	0.	130.69
1987	-6.25	6.5	0.	141.16
1988	-5.25	7.	0.	120.72
1989	-5.5	7.25	0.	118.27
1990	-4.75	7.	0.	120.06
1991	-5.	7.25	0.	120.74
1992	-4.5	7.25	0.	117.35
1993	-5.25	6.	0.	118.31
1994	-5.5	5.75	0.	115.77
1995	-4.75	6.	0.	117.61
1996	-5.	5.75	0.	117.16
1997	-4.5	5.75	0.	114.51
1998	-3.75	6.5	0.	136.67
1999	7.	-1.75	0.	141.91
2000	6.75	-1.5	0.	136.04
2001	7.	-2.25	0.	142.04
2002	6.75	-2.	0.	137.11
2003	6.75	-2.5	0.	135.34
2004	7.75	-1.	0.	113.84
2005	7.5	-0.75	0.	113.99
2006	8.25	-1.	0.	112.03
2007	8.	-0.75	0.	112.95
2008	8.5	-0.75	0.	106.88
2009	7.75	-3.	0.	120.59
2010	7.5	-3.25	0.	119.63
2011	8.25	-3.	0.	121.12
2012	8.	-3.25	0.	121.35
2013	8.5	-3.25	0.	118.36
2014	9.	-1.75	0.	150.23
2015	9.25	-1.5	0.	145.25
2016	9.	-2.25	0.	151.28
2017	9.25	-2.	0.	147.44
2018	9.25	-2.5	0.	146.14
2019	-8.	-3.75	0.	141.89
2020	-8.25	-3.5	0.	137.58
2021	-8.	-4.25	0.	142.18
2022	-8.25	-4.	0.	138.91
2023	-8.25	-4.5	0.	138.02
2024	-7.5	-2.75	0.	108.11
2025	-7.5	-5.25	0.	110.05
2026	-7.	-3.75	0.	140.04
2027	-6.75	-3.5	0.	135.29
2028	-7.	-4.25	0.	140.32
2029	-6.75	-4.	0.	136.48
2030	-6.75	-4.5	0.	135.67
2031	-3.25	0.5	0.	136.46
2032	-2.25	1.	0.	121.36
2033	-2.5	1.25	0.	118.89
2034	-1.75	1.	0.	121.4
2035	-2.	1.25	0.	121.91
2036	-1.5	1.25	0.	118.78
2037	-2.25	0.	0.	120.51
2038	-2.5	-0.25	0.	117.53
2039	-1.75	0.	0.	120.84
2040	-2.	-0.25	0.	121.06
2041	-1.5	-0.25	0.	118.44
2042	-0.75	0.5	0.	138.68
2043	7.75	0.5	0.	125.12
2044	8.5	1.25	0.	113.84
2045	8.5	-0.25	0.	104.62
2046	9.25	0.5	0.	142.64
2047	5.75	4.5	0.	136.55
2048	6.75	5.	0.	117.05
2049	6.5	5.25	0.	114.96
2050	7.25	5.	0.	117.11
2051	7.	5.25	0.	117.52
2052	7.5	5.25	0.	114.93
2053	6.75	4.	0.	114.03
2054	6.5	3.75	0.	111.51
2055	7.25	4.	0.	113.56
2056	7.	3.75	0.	113.72
2057	7.5	3.75	0.	110.62
2058	8.25	4.5	0.	136.57
2059	5.	-4.75	0.	144.08
2060	4.75	-4.5	0.	139.07
2061	5.	-5.25	0.	143.15
2062	4.75	-5.	0.	139.7
2063	4.75	-5.5	0.	137.64
2064	5.75	-4.	0.	119.
2065	5.5	-3.75	0.	116.19
2066	6.25	-4.	0.	119.39
2067	6.	-3.75	0.	119.97
2068	6.5	-3.75	0.	118.94
2069	5.75	-6.	0.	113.36
2070	5.5	-6.25	0.	110.46
2071	6.25	-6.	0.	114.73
2072	6.	-6.25	0.	114.24
2073	6.5	-6.25	0.	113.5
2074	7.	-4.75	0.	141.71
2075	7.25	-4.5	0.	135.2
2076	7.	-5.25	0.	141.9
2077	7.25	-5.	0.	137.07
2078	7.25	-5.5	0.	136.4
2079	1.75	0.5	0.	138.66
2080	2.75	1.	0.	121.26
2081	2.5	1.25	0.	118.49
2082	3.25	1.	0.	121.62
2083	3.	1.25	0.	121.75
2084	3.5	1.25	0.	119.07
2085	2.75	0.	0.	121.37
2086	2.5	-0.25	0.	118.72
2087	3.25	0.	0.	121.6
2088	3.	-0.25	0.	121.92
2089	3.5	-0.25	0.	119.
2090	4.25	0.5	0.	140.01
2091	9.25	10.	0.	124.95
2092	9.5	9.75	0.	125.02
2093	8.75	10.	0.	124.82
2094	9.	9.75	0.	124.89
2095	8.25	10.	0.	124.7
2096	8.5	9.75	0.	124.72
2097	7.75	10.	0.	124.7
2098	8.	9.75	0.	124.58
2099	7.25	10.	0.	124.94
2100	7.5	9.75	0.	124.57
2101	6.75	10.	0.	125.47
2102	7.	9.75	0.	124.77
2103	6.25	10.	0.	126.25
2104	6.5	9.75	0.	125.24
2105	5.75	10.	0.	126.17
2106	6.	9.75	0.	126.13
2107	5.25	10.	0.	123.55
2108	5.5	9.75	0.	127.15
2109	4.75	10.	0.	120.7
2110	5.	9.75	0.	123.27
2111	4.25	10.	0.	121.09
2112	4.5	9.75	0.	118.46
2113	3.75	10.	0.	124.73
2114	4.	9.75	0.	124.17
2115	3.25	10.	0.	127.98
2116	3.5	9.75	0.	128.47
2117	2.75	10.	0.	128.43
2118	3.	9.75	0.	127.82
2119	2.25	10.	0.	127.89
2120	2.5	9.75	0.	127.26
2121	1.75	10.	0.	127.47
2122	2.	9.75	0.	126.99
2123	1.25	10.	0.	127.2
2124	1.5	9.75	0.	126.84
2125	0.75	10.	0.	127.07
2126	1.	9.75	0.	126.77
2127	0.25	10.	0.	127.02
2128	0.5	9.75	0.	126.74
2129	-0.25	10.	0.	127.01
2130	-4.7241e-012	9.75	0.	126.74
2131	-0.75	10.	0.	127.
2132	-0.5	9.75	0.	126.74
2133	-1.25	10.	0.	126.95
2134	-1.	9.75	0.	126.72
2135	-1.75	10.	0.	126.79
2136	-1.5	9.75	0.	126.65
2137	-2.25	10.	0.	126.46
2138	-2.	9.75	0.	126.48
2139	-2.75	10.	0.	125.87
2140	-2.5	9.75	0.	126.14
2141	-3.25	10.	0.	125.
2142	-3.	9.75	0.	125.55
2143	-3.75	10.	0.	123.96
2144	-3.5	9.75	0.	124.7
2145	-4.25	10.	0.	122.95
2146	-4.	9.75	0.	123.71
2147	-4.75	10.	0.	122.22
2148	-4.5	9.75	0.	122.84
2149	-5.25	10.	0.	121.92
2150	-5.	9.75	0.	122.33
2151	-5.75	10.	0.	122.06
2152	-5.5	9.75	0.	122.31
2153	-6.25	10.	0.	122.51
2154	-6.	9.75	0.	122.66
2155	-6.75	10.	0.	123.07
2156	-6.5	9.75	0.	123.17
2157	-7.25	10.	0.	123.6
2158	-7.	9.75	0.	123.65
2159	-7.75	10.	0.	124.05
2160	-7.5	9.75	0.	124.02
2161	-8.25	10.	0.	124.43
2162	-8.	9.75	0.	124.34
2163	-8.75	10.	0.	124.73
2164	-8.5	9.75	0.	124.63
2165	-9.25	10.	0.	124.93
2166	-9.	9.75	0.	124.87
2167	-9.5	9.75	0.	125.03
2168	10.	9.25	0.	125.1
2169	9.75	9.5	0.	125.02
2170	10.	8.75	0.	125.47
2171	9.75	9.	0.	125.24
2172	10.	8.25	0.	126.12
2173	9.75	8.5	0.	125.66
2174	10.	7.75	0.	127.03
2175	9.75	8.	0.	126.31
2176	10.	7.25	0.	128.12
2177	9.75	7.5	0.	127.16
2178	10.	6.75	0.	129.15
2179	9.75	7.	0.	128.14
2180	10.	6.25	0.	129.74
2181	9.75	6.5	0.	129.02
2182	10.	5.75	0.	129.47
2183	9.75	6.	0.	129.47
2184	10.	5.25	0.	128.47
2185	9.75	5.5	0.	129.16
2186	10.	4.75	0.	127.6
2187	9.75	5.	0.	128.34
2188	10.	4.25	0.	127.77
2189	9.75	4.5	0.	128.13
2190	10.	3.75	0.	128.66
2191	9.75	4.	0.	128.94
2192	10.	3.25	0.	129.41
2193	9.75	3.5	0.	129.81
2194	10.	2.75	0.	130.32
2195	9.75	3.	0.	129.95
2196	10.	2.25	0.	132.73
2197	9.75	2.5	0.	130.52
2198	10.	1.75	0.	136.
2199	9.75	2.	0.	133.01
2200	10.	1.25	0.	137.21
2201	9.75	1.5	0.	136.89
2202	10.	0.75	0.	136.68
2203	9.75	1.	0.	137.07
2204	10.	0.25	0.	140.
2205	9.75	0.5	0.	137.62
2206	10.	-0.25	0.	145.74
2207	9.75	-4.1987e-015	0.	141.84
2208	10.	-0.75	0.	145.88
2209	9.75	-0.5	0.	145.54
2210	10.	-1.25	0.	140.59
2211	9.75	-1.	0.	142.13
2212	10.	-1.75	0.	136.35
2213	9.75	-1.5	0.	139.56
2214	10.	-2.25	0.	134.86
2215	9.75	-2.	0.	139.24
2216	10.	-2.75	0.	135.97
2217	9.75	-2.5	0.	137.91
2218	10.	-3.25	0.	138.6
2219	9.75	-3.	0.	138.01
2220	10.	-3.75	0.	138.41
2221	9.75	-3.5	0.	138.62
2222	10.	-4.25	0.	134.88
2223	9.75	-4.	0.	134.87
2224	10.	-4.75	0.	131.02
2225	9.75	-4.5	0.	131.35
2226	10.	-5.25	0.	128.72
2227	9.75	-5.	0.	129.1
2228	10.	-5.75	0.	127.95
2229	9.75	-5.5	0.	128.14
2230	10.	-6.25	0.	128.13
2231	9.75	-6.	0.	128.11
2232	10.	-6.75	0.	128.59
2233	9.75	-6.5	0.	128.47
2234	10.	-7.25	0.	128.89
2235	9.75	-7.	0.	128.77
2236	10.	-7.75	0.	128.89
2237	9.75	-7.5	0.	128.82
2238	10.	-8.25	0.	128.7
2239	9.75	-8.	0.	128.66
2240	10.	-8.75	0.	128.47
2241	9.75	-8.5	0.	128.43
2242	10.	-9.25	0.	128.32
2243	9.75	-9.	0.	128.26
2244	9.75	-9.5	0.	128.18
2245	-10.	9.25	0.	125.13
2246	-9.75	9.5	0.	125.03
2247	-10.	8.75	0.	125.56
2248	-9.75	9.	0.	125.32
2249	-10.	8.25	0.	126.24
2250	-9.75	8.5	0.	125.82
2251	-10.	7.75	0.	126.98
2252	-9.75	8.	0.	126.47
2253	-10.	7.25	0.	127.49
2254	-9.75	7.5	0.	127.15
2255	-10.	6.75	0.	127.37
2256	-9.75	7.	0.	127.61
2257	-10.	6.25	0.	126.5
2258	-9.75	6.5	0.	127.5
2259	-10.	5.75	0.	125.3
2260	-9.75	6.	0.	126.8
2261	-10.	5.25	0.	124.51
2262	-9.75	5.5	0.	126.14
2263	-10.	4.75	0.	124.64
2264	-9.75	5.	0.	125.95
2265	-10.	4.25	0.	125.68
2266	-9.75	4.5	0.	126.36
2267	-10.	3.75	0.	127.15
2268	-9.75	4.	0.	127.24
2269	-10.	3.25	0.	128.28
2270	-9.75	3.5	0.	128.16
2271	-10.	2.75	0.	128.69
2272	-9.75	3.	0.	128.51
2273	-10.	2.25	0.	128.52
2274	-9.75	2.5	0.	128.32
2275	-10.	1.75	0.	128.14
2276	-9.75	2.	0.	127.94
2277	-10.	1.25	0.	127.83
2278	-9.75	1.5	0.	127.6
2279	-10.	0.75	0.	127.7
2280	-9.75	1.	0.	127.41
2281	-10.	0.25	0.	127.81
2282	-9.75	0.5	0.	127.39
2283	-10.	-0.25	0.	128.19
2284	-9.75	1.4439e-014	0.	127.57
2285	-10.	-0.75	0.	128.83
2286	-9.75	-0.5	0.	127.97
2287	-10.	-1.25	0.	129.59
2288	-9.75	-1.	0.	128.58
2289	-10.	-1.75	0.	130.16
2290	-9.75	-1.5	0.	129.28
2291	-10.	-2.25	0.	130.1
2292	-9.75	-2.	0.	129.78
2293	-10.	-2.75	0.	129.21
2294	-9.75	-2.5	0.	129.68
2295	-10.	-3.25	0.	127.94
2296	-9.75	-3.	0.	128.93
2297	-10.	-3.75	0.	127.09
2298	-9.75	-3.5	0.	128.18
2299	-10.	-4.25	0.	127.21
2300	-9.75	-4.	0.	127.96
2301	-10.	-4.75	0.	128.22
2302	-9.75	-4.5	0.	128.4
2303	-10.	-5.25	0.	129.51
2304	-9.75	-5.	0.	129.28
2305	-10.	-5.75	0.	130.21
2306	-9.75	-5.5	0.	130.01
2307	-10.	-6.25	0.	129.91
2308	-9.75	-6.	0.	129.93
2309	-10.	-6.75	0.	128.91
2310	-9.75	-6.5	0.	129.13
2311	-10.	-7.25	0.	127.78
2312	-9.75	-7.	0.	128.12
2313	-10.	-7.75	0.	126.95
2314	-9.75	-7.5	0.	127.3
2315	-10.	-8.25	0.	126.57
2316	-9.75	-8.	0.	126.84
2317	-10.	-8.75	0.	126.58
2318	-9.75	-8.5	0.	126.74
2319	-10.	-9.25	0.	126.78
2320	-9.75	-9.	0.	126.89
2321	-9.75	-9.5	0.	127.1
2322	-9.25	-10.	0.	127.7
2323	-9.5	-9.75	0.	127.33
2324	-8.75	-10.	0.	128.47
2325	-9.	-9.75	0.	127.95
2326	-8.25	-10.	0.	129.52
2327	-8.5	-9.75	0.	128.78
2328	-7.75	-10.	0.	130.8
2329	-8.	-9.75	0.	129.87
2330	-7.25	-10.	0.	132.03
2331	-7.5	-9.75	0.	131.17
2332	-6.75	-10.	0.	131.2
2333	-7.	-9.75	0.	132.26
2334	-6.25	-10.	0.	124.82
2335	-6.5	-9.75	0.	130.83
2336	-5.75	-10.	0.	114.59
2337	-6.	-9.75	0.	120.35
2338	-5.25	-10.	0.	107.39
2339	-5.5	-9.75	0.	108.72
2340	-4.75	-10.	0.	107.35
2341	-5.	-9.75	0.	106.13
2342	-4.25	-10.	0.	114.52
2343	-4.5	-9.75	0.	108.63
2344	-3.75	-10.	0.	124.93
2345	-4.	-9.75	0.	120.26
2346	-3.25	-10.	0.	131.77
2347	-3.5	-9.75	0.	131.07
2348	-2.75	-10.	0.	133.29
2349	-3.	-9.75	0.	133.11
2350	-2.25	-10.	0.	132.89
2351	-2.5	-9.75	0.	132.81
2352	-1.75	-10.	0.	132.51
2353	-2.	-9.75	0.	132.37
2354	-1.25	-10.	0.	132.49
2355	-1.5	-9.75	0.	132.18
2356	-0.75	-10.	0.	132.89
2357	-1.	-9.75	0.	132.35
2358	-0.25	-10.	0.	133.55
2359	-0.5	-9.75	0.	132.88
2360	0.25	-10.	0.	132.71
2361	-2.1328e-013	-9.75	0.	133.6
2362	0.75	-10.	0.	127.08
2363	0.5	-9.75	0.	132.62
2364	1.25	-10.	0.	119.98
2365	1.	-9.75	0.	123.31
2366	1.75	-10.	0.	120.64
2367	1.5	-9.75	0.	115.23
2368	2.25	-10.	0.	129.04
2369	2.	-9.75	0.	124.57
2370	2.75	-10.	0.	135.85
2371	2.5	-9.75	0.	134.9
2372	3.25	-10.	0.	136.1
2373	3.	-9.75	0.	136.88
2374	3.75	-10.	0.	129.7
2375	3.5	-9.75	0.	135.28
2376	4.25	-10.	0.	119.61
2377	4.	-9.75	0.	125.13
2378	4.75	-10.	0.	112.13
2379	4.5	-9.75	0.	113.76
2380	5.25	-10.	0.	110.72
2381	5.	-9.75	0.	110.57
2382	5.75	-10.	0.	115.4
2383	5.5	-9.75	0.	111.05
2384	6.25	-10.	0.	123.01
2385	6.	-9.75	0.	119.52
2386	6.75	-10.	0.	127.77
2387	6.5	-9.75	0.	127.66
2388	7.25	-10.	0.	128.35
2389	7.	-9.75	0.	128.3
2390	7.75	-10.	0.	127.81
2391	7.5	-9.75	0.	127.66
2392	8.25	-10.	0.	127.62
2393	8.	-9.75	0.	127.44
2394	8.75	-10.	0.	127.73
2395	8.5	-9.75	0.	127.55
2396	9.25	-10.	0.	127.96
2397	9.	-9.75	0.	127.82
2398	9.5	-9.75	0.	128.08
2399	0.25	5.	0.	126.12
2400	0.75	5.	0.	126.11
2401	0.5	4.75	0.	126.32
2402	0.5	5.25	0.	126.01
2403	1.6871e-011	5.25	0.	125.98
2404	7.9485e-011	4.75	0.	126.29
2405	-0.25	5.	0.	126.1
2406	1.25	5.	0.	126.02
2407	1.	5.25	0.	126.01
2408	1.	4.75	0.	126.22
2409	0.25	4.5	0.	126.49
2410	0.75	4.5	0.	126.44
2411	0.5	4.25	0.	126.81
2412	-0.25	5.5	0.	125.87
2413	-3.8589e-011	5.75	0.	125.73
2414	0.25	5.5	0.	125.86
2415	1.2795e-010	4.25	0.	126.71
2416	-0.25	4.5	0.	126.37
2417	-0.5	5.25	0.	125.99
2418	-0.5	4.75	0.	126.19
2419	-0.75	5.	0.	126.15
2420	1.5	5.25	0.	125.97
2421	1.25	5.5	0.	125.95
2422	1.75	5.5	0.	126.
2423	1.5	5.75	0.	126.01
2424	1.75	5.	0.	125.87
2425	2.	5.25	0.	125.9
2426	2.	4.75	0.	125.69
2427	2.25	5.	0.	125.7
2428	1.5	4.75	0.	125.99
2429	1.	5.75	0.	125.88
2430	0.75	5.5	0.	125.9
2431	1.	4.25	0.	126.61
2432	1.25	4.5	0.	126.2
2433	2.75	4.5	0.	125.21
2434	2.5	4.25	0.	125.09
2435	2.25	4.5	0.	125.44
2436	2.5	4.75	0.	125.45
2437	-0.75	5.5	0.	125.98
2438	-0.5	5.75	0.	125.77
2439	0.25	4.	0.	127.03
2440	0.75	4.	0.	126.97
2441	0.5	3.75	0.	127.53
2442	-0.25	4.	0.	126.73
2443	1.5245e-010	3.75	0.	127.34
2444	-0.5	4.25	0.	126.39
2445	-0.75	4.5	0.	126.21
2446	2.25	5.5	0.	126.04
2447	2.	5.75	0.	126.17
2448	3.	4.25	0.	124.96
2449	3.	4.75	0.	125.36
2450	3.25	4.5	0.	125.29
2451	1.25	6.	0.	125.93
2452	1.75	6.	0.	126.17
2453	1.5	6.25	0.	126.04
2454	-7.031e-011	6.25	0.	125.53
2455	0.25	6.	0.	125.65
2456	-0.25	6.	0.	125.64
2457	1.	6.25	0.	125.77
2458	0.75	6.	0.	125.75
2459	2.75	4.	0.	124.83
2460	2.5	3.75	0.	124.68
2461	2.25	4.	0.	125.21
2462	1.25	4.	0.	126.55
2463	1.	3.75	0.	127.23
2464	-0.75	4.	0.	126.23
2465	-0.5	3.75	0.	126.71
2466	-1.	5.25	0.	126.15
2467	-1.	4.75	0.	126.18
2468	-1.25	5.	0.	126.44
2469	3.	3.75	0.	124.45
2470	3.25	4.	0.	124.99
2471	0.75	3.5	0.	127.79
2472	0.25	3.5	0.	127.84
2473	0.5	3.25	0.	128.57
2474	-6.	-0.25	0.	122.12
2475	-6.25	-0.5	0.	122.22
2476	-5.75	-0.5	0.	122.66
2477	-6.	-0.75	0.	122.84
2478	2.75	5.5	0.	126.04
2479	2.5	5.75	0.	126.31
2480	2.5	5.25	0.	125.84
2481	3.	5.25	0.	125.79
2482	3.25	5.	0.	125.61
2483	2.75	5.	0.	125.59
2484	2.25	6.	0.	126.43
2485	2.	6.25	0.	126.42
2486	-1.75	-2.5	0.	125.14
2487	-1.5	-2.75	0.	126.43
2488	-1.25	-2.5	0.	126.92
2489	-1.5	-2.25	0.	125.4
2490	-1.	6.25	0.	125.7
2491	-1.25	6.5	0.	125.7
2492	-1.	6.75	0.	125.55
2493	-0.75	6.5	0.	125.53
2494	1.5	3.75	0.	126.48
2495	1.75	4.	0.	125.89
2496	1.5	4.25	0.	126.14
2497	-1.	5.75	0.	125.95
2498	-1.25	5.5	0.	126.32
2499	-1.25	6.	0.	125.99
2500	-0.75	6.	0.	125.74
2501	-6.	0.25	0.	121.65
2502	-5.75	-1.3411e-011	0.	121.84
2503	-6.25	-8.7507e-012	0.	121.87
2504	-1.	4.25	0.	126.05
2505	-1.	3.75	0.	125.88
2506	-1.25	4.	0.	125.77
2507	-1.25	4.5	0.	126.22
2508	-0.25	6.5	0.	125.45
2509	0.25	6.5	0.	125.48
2510	-7.5023e-011	6.75	0.	125.38
2511	1.25	6.5	0.	125.88
2512	1.	6.75	0.	125.63
2513	0.75	6.5	0.	125.61
2514	3.	3.25	0.	123.67
2515	3.25	3.5	0.	124.51
2516	2.75	3.5	0.	124.31
2517	1.75	6.5	0.	126.29
2518	1.5	6.75	0.	125.97
2519	-2.	-2.25	0.	123.7
2520	-2.25	-2.5	0.	123.78
2521	-2.	-2.75	0.	124.88
2522	1.25	3.5	0.	127.15
2523	1.	3.25	0.	128.16
2524	1.549e-010	3.25	0.	128.27
2525	-0.25	3.5	0.	127.32
2526	-1.5	5.25	0.	126.61
2527	-1.5	4.75	0.	126.48
2528	-1.75	5.	0.	127.17
2529	3.5	4.75	0.	125.54
2530	3.75	4.5	0.	125.74
2531	3.5	4.25	0.	125.33
2532	-3.75	-2.5	0.	122.9
2533	-4.25	-2.5	0.	123.53
2534	-4.	-2.25	0.	123.74
2535	-4.	-2.75	0.	122.5
2536	-6.75	-0.5	0.	121.91
2537	-6.5	-0.75	0.	122.17
2538	-6.5	-0.25	0.	121.97
2539	-7.	0.25	0.	122.41
2540	-7.	-0.25	0.	121.99
2541	-7.25	-2.063e-012	0.	122.44
2542	-6.75	-4.6862e-012	0.	122.06
2543	-5.5	-0.75	0.	123.42
2544	-5.75	-1.	0.	123.61
2545	-5.25	-1.	0.	124.29
2546	-5.5	-1.25	0.	124.45
2547	3.	5.75	0.	126.31
2548	3.25	5.5	0.	126.
2549	3.75	5.	0.	125.83
2550	3.5	5.25	0.	125.81
2551	2.75	6.	0.	126.58
2552	2.5	6.25	0.	126.83
2553	0.75	3.	0.	128.93
2554	0.25	3.	0.	128.99
2555	0.5	2.75	0.	129.85
2556	-1.25	3.5	0.	125.31
2557	-1.5	3.25	0.	124.46
2558	-1.75	3.5	0.	124.61
2559	-1.5	3.75	0.	125.2
2560	-4.5	-2.25	0.	124.36
2561	-4.75	-2.	0.	125.01
2562	-4.25	-2.	0.	124.56
2563	-4.5	-1.75	0.	125.11
2564	-1.75	-2.	0.	123.95
2565	-2.	-1.75	0.	122.22
2566	-2.25	-2.	0.	122.78
2567	-1.75	-3.	0.	126.16
2568	-1.25	-3.	0.	127.63
2569	-1.5	-3.25	0.	127.3
2570	-1.	-2.75	0.	128.12
2571	-0.75	-2.5	0.	128.75
2572	-1.	-2.25	0.	127.62
2573	-5.75	0.5	0.	121.29
2574	-5.5	0.75	0.	120.83
2575	-5.25	0.5	0.	121.16
2576	-5.5	0.25	0.	121.48
2577	-1.5	6.25	0.	125.98
2578	-1.75	6.5	0.	125.96
2579	-1.5	6.75	0.	125.79
2580	2.75	3.	0.	123.5
2581	3.25	3.	0.	123.66
2582	3.	2.75	0.	122.46
2583	-1.25	7.	0.	125.64
2584	-1.	7.25	0.	125.56
2585	-0.75	7.	0.	125.45
2586	2.25	6.5	0.	126.82
2587	2.	6.75	0.	126.53
2588	-2.75	-2.5	0.	122.96
2589	-2.5	-2.75	0.	123.56
2590	-2.5	-2.25	0.	122.87
2591	1.5	3.25	0.	127.06
2592	1.75	3.5	0.	126.09
2593	-1.	3.25	0.	125.81
2594	-0.75	3.5	0.	126.36
2595	-3.25	-2.5	0.	122.68
2596	-3.5	-2.75	0.	122.11
2597	-3.5	-2.25	0.	123.19
2598	-3.	-2.75	0.	122.53
2599	-3.	-2.25	0.	122.81
2600	-5.25	-0.5	0.	123.26
2601	-5.5	-0.25	0.	122.39
2602	-1.5	5.75	0.	126.36
2603	-1.75	5.5	0.	127.01
2604	-1.75	6.	0.	126.43
2605	-6.25	0.5	0.	121.78
2606	-6.75	0.5	0.	122.36
2607	-6.5	0.75	0.	122.34
2608	-6.5	0.25	0.	122.
2609	-6.	0.75	0.	121.51
2610	-1.75	4.5	0.	126.65
2611	-1.5	4.25	0.	125.95
2612	1.25	7.	0.	125.72
2613	1.	7.25	0.	125.45
2614	0.75	7.	0.	125.46
2615	3.5	3.25	0.	124.51
2616	3.75	3.5	0.	125.76
2617	3.5	3.75	0.	125.06
2618	1.75	7.	0.	126.22
2619	1.5	7.25	0.	125.75
2620	-7.	0.75	0.	122.96
2621	-7.25	0.5	0.	122.93
2622	-4.5	-2.75	0.	123.46
2623	-4.75	-2.5	0.	124.4
2624	-2.	-3.25	0.	126.06
2625	-2.25	-3.	0.	124.66
2626	-3.75	-3.	0.	121.7
2627	-3.25	-3.	0.	121.96
2628	-3.5	-3.25	0.	120.79
2629	-7.	-0.75	0.	121.58
2630	-7.25	-0.5	0.	121.95
2631	-6.	-1.25	0.	123.84
2632	-6.25	-1.	0.	122.79
2633	-5.	-2.25	0.	125.05
2634	-5.25	-2.	0.	125.47
2635	-5.	-1.75	0.	125.2
2636	3.25	6.	0.	126.45
2637	3.	6.25	0.	127.
2638	3.25	-2.	0.	125.38
2639	3.75	-2.	0.	126.13
2640	3.5	-1.75	0.	124.77
2641	3.5	-2.25	0.	126.78
2642	2.5	2.75	0.	123.34
2643	2.5	3.25	0.	124.14
2644	2.25	3.	0.	124.68
2645	1.	2.75	0.	129.41
2646	1.25	3.	0.	128.06
2647	-0.25	3.	0.	128.23
2648	1.4026e-010	2.75	0.	129.53
2649	-1.75	3.	0.	123.76
2650	-1.25	3.	0.	124.97
2651	-1.5	2.75	0.	123.7
2652	-1.25	-2.	0.	126.1
2653	-1.5	-1.75	0.	124.17
2654	-4.	-1.75	0.	124.96
2655	-3.75	-2.	0.	124.01
2656	-1.	-3.25	0.	128.46
2657	-0.75	-3.	0.	129.08
2658	-0.25	-2.	0.	130.12
2659	0.25	-2.	0.	130.42
2660	-1.1702e-011	-2.25	0.	130.55
2661	1.4302e-011	-1.75	0.	131.05
2662	3.	-1.75	0.	123.91
2663	3.	-2.25	0.	126.12
2664	2.75	-2.	0.	125.01
2665	-2.	3.25	0.	123.91
2666	-2.	3.75	0.	125.05
2667	-2.25	3.5	0.	124.61
2668	-2.	4.75	0.	127.33
2669	-2.25	5.	0.	128.51
2670	-2.	5.25	0.	127.57
2671	-5.75	1.	0.	121.06
2672	-5.25	1.	0.	120.59
2673	-5.5	1.25	0.	120.38
2674	-5.	0.75	0.	120.92
2675	-4.75	0.5	0.	121.76
2676	-5.	0.25	0.	121.79
2677	-2.	2.75	0.	122.84
2678	-2.25	3.	0.	123.82
2679	-1.25	-3.5	0.	128.14
2680	-1.5	-3.75	0.	128.04
2681	-1.75	-3.5	0.	127.2
2682	0.25	2.5	0.	130.39
2683	0.75	2.5	0.	130.32
2684	0.5	2.25	0.	131.
2685	0.5	-1.75	0.	130.75
2686	0.25	-1.5	0.	131.37
2687	0.5	-1.25	0.	131.66
2688	0.75	-1.5	0.	130.82
2689	-4.5	-1.25	0.	125.52
2690	-4.25	-1.5	0.	125.51
2691	-4.75	-1.5	0.	125.3
2692	-0.5	-2.25	0.	129.61
2693	-0.25	-2.5	0.	130.03
2694	-0.5	-2.75	0.	129.71
2695	-2.	6.25	0.	126.4
2696	-2.25	6.5	0.	126.3
2697	-2.	6.75	0.	126.12
2698	4.	4.75	0.	126.03
2699	4.	4.25	0.	126.25
2700	4.25	4.5	0.	126.55
2701	3.5	2.75	0.	123.61
2702	3.75	3.	0.	125.27
2703	-1.5	7.25	0.	125.86
2704	-1.75	7.	0.	125.96
2705	2.5	6.75	0.	127.29
2706	2.75	6.5	0.	127.25
2707	2.25	7.	0.	127.
2708	2.	7.25	0.	126.33
2709	7.	6.75	0.	120.39
2710	7.	6.25	0.	118.16
2711	7.25	6.5	0.	119.9
2712	6.75	6.5	0.	120.36
2713	-6.75	1.	0.	122.94
2714	-7.25	1.	0.	123.5
2715	-7.	1.25	0.	123.73
2716	6.75	7.	0.	122.07
2717	7.25	7.	0.	121.42
2718	7.	7.25	0.	121.76
2719	3.	2.25	0.	120.76
2720	3.25	2.5	0.	122.39
2721	2.75	2.5	0.	122.29
2722	2.75	-1.5	0.	123.22
2723	3.25	-1.5	0.	123.28
2724	3.	-1.25	0.	121.57
2725	-2.	-1.25	0.	120.33
2726	-2.25	-1.5	0.	121.43
2727	-1.75	-1.5	0.	122.43
2728	-0.5	-6.25	0.	130.87
2729	-0.25	-6.5	0.	130.74
2730	-0.75	-6.5	0.	131.13
2731	-0.5	-6.75	0.	131.18
2732	-4.25	-3.	0.	122.43
2733	-4.	-3.25	0.	121.17
2734	-4.5	-3.25	0.	122.65
2735	-4.75	-3.	0.	123.63
2736	-3.	-3.25	0.	122.19
2737	-2.75	-3.	0.	123.13
2738	-1.	-4.25	0.	128.43
2739	-0.75	-4.5	0.	128.38
2740	-1.25	-4.5	0.	128.56
2741	-1.	-4.75	0.	128.56
2742	-1.	-5.75	0.	129.98
2743	-0.75	-6.	0.	130.57
2744	-1.25	-6.	0.	130.52
2745	-1.	-6.25	0.	130.83
2746	-7.25	-1.	0.	121.3
2747	-7.	-1.25	0.	121.04
2748	-6.75	-1.	0.	121.83
2749	-5.25	-2.5	0.	125.41
2750	-5.	-2.75	0.	124.57
2751	3.75	6.	0.	126.12
2752	3.5	5.75	0.	126.14
2753	3.5	6.25	0.	126.52
2754	4.	6.25	0.	125.59
2755	4.	5.75	0.	126.03
2756	4.25	6.	0.	126.1
2757	4.25	-2.	0.	126.49
2758	4.	-2.25	0.	127.33
2759	4.	-1.75	0.	126.18
2760	4.75	-2.	0.	125.8
2761	4.5	-1.75	0.	126.76
2762	4.5	-2.25	0.	126.81
2763	-0.75	3.	0.	126.74
2764	-0.5	2.75	0.	128.23
2765	-0.5	3.25	0.	127.28
2766	-1.	2.75	0.	125.96
2767	-0.75	-2.	0.	128.47
2768	-1.	-1.75	0.	127.18
2769	-0.5	-1.75	0.	129.83
2770	-3.	-1.75	0.	123.07
2771	-2.75	-2.	0.	122.71
2772	-3.25	-2.	0.	123.31
2773	-4.75	-0.5	0.	124.28
2774	-5.	-0.75	0.	124.13
2775	-5.	-0.25	0.	122.98
2776	-1.	-3.75	0.	128.52
2777	-0.75	-3.5	0.	129.08
2778	-1.25	-4.	0.	128.42
2779	-0.75	-4.	0.	128.63
2780	0.5	-2.25	0.	129.86
2781	0.75	-2.	0.	129.43
2782	2.	-1.75	0.	125.83
2783	2.	-2.25	0.	125.29
2784	1.75	-2.	0.	126.24
2785	2.25	-2.	0.	125.29
2786	-1.25	-5.5	0.	129.43
2787	-0.75	-5.5	0.	129.7
2788	-1.	-5.25	0.	129.1
2789	-2.25	6.	0.	127.1
2790	-2.	5.75	0.	127.09
2791	4.25	5.	0.	126.33
2792	4.	5.25	0.	126.07
2793	-6.25	1.	0.	122.07
2794	-6.5	1.25	0.	123.16
2795	-6.	1.25	0.	121.8
2796	-2.	4.25	0.	126.35
2797	-1.75	4.	0.	125.64
2798	-2.25	4.	0.	126.06
2799	-2.25	4.5	0.	127.69
2800	-4.75	1.	0.	121.35
2801	-5.	1.25	0.	120.25
2802	5.25	-2.	0.	124.53
2803	5.	-1.75	0.	125.94
2804	5.	-2.25	0.	124.85
2805	-1.75	2.5	0.	122.76
2806	-2.25	2.5	0.	123.09
2807	-2.	2.25	0.	121.32
2808	-4.75	2.	0.	119.96
2809	-5.25	2.	0.	119.06
2810	-5.	2.25	0.	118.53
2811	-5.	1.75	0.	119.24
2812	3.75	-5.	0.	129.07
2813	4.	-5.25	0.	129.71
2814	4.	-4.75	0.	129.6
2815	4.25	-5.	0.	132.51
2816	-1.75	-1.	0.	120.52
2817	-2.25	-1.	0.	119.69
2818	-2.	-0.75	0.	119.06
2819	2.75	2.	0.	120.65
2820	3.25	2.	0.	120.76
2821	3.	1.75	0.	119.65
2822	6.5	6.75	0.	122.06
2823	6.5	7.25	0.	123.21
2824	6.25	7.	0.	124.25
2825	-5.75	-4.	0.	125.74
2826	-6.	-3.75	0.	126.77
2827	-6.	-4.25	0.	126.27
2828	-6.25	-4.	0.	129.72
2829	-5.5	-3.75	0.	124.86
2830	-5.25	-4.	0.	124.3
2831	-5.5	-4.25	0.	124.21
2832	-7.5	-0.75	0.	121.68
2833	-7.5	-1.25	0.	120.54
2834	-7.75	-1.	0.	121.88
2835	-7.5	-0.25	0.	122.4
2836	-7.75	-0.5	0.	122.6
2837	-7.5	0.25	0.	122.96
2838	-7.75	-7.686e-013	0.	123.14
2839	-7.5	0.75	0.	123.47
2840	-7.75	0.5	0.	123.61
2841	-7.5	1.25	0.	123.91
2842	-7.75	1.	0.	124.02
2843	-7.5	1.75	0.	123.99
2844	-7.25	1.5	0.	124.14
2845	-7.75	1.5	0.	124.25
2846	-7.5	2.25	0.	123.13
2847	-7.25	2.	0.	124.56
2848	-7.75	2.	0.	123.99
2849	6.75	6.	0.	117.98
2850	7.25	6.	0.	117.69
2851	7.	5.75	0.	116.26
2852	7.5	7.25	0.	121.9
2853	7.5	7.75	0.	122.45
2854	7.75	7.5	0.	122.74
2855	7.25	7.5	0.	122.23
2856	7.5	6.75	0.	120.95
2857	7.75	7.	0.	122.34
2858	7.5	6.25	0.	119.48
2859	7.75	6.5	0.	121.77
2860	-1.75	-7.5	0.	130.31
2861	-1.25	-7.5	0.	130.68
2862	-1.5	-7.25	0.	130.98
2863	-1.5	-7.75	0.	130.3
2864	-2.	-7.75	0.	129.71
2865	-2.25	-7.5	0.	129.39
2866	-2.	-7.25	0.	130.84
2867	-1.	-7.75	0.	130.5
2868	-0.75	-7.5	0.	130.88
2869	-1.	-7.25	0.	131.02
2870	-7.5	-7.25	0.	125.27
2871	-7.5	-7.75	0.	125.95
2872	-7.75	-7.5	0.	125.47
2873	-7.25	-7.5	0.	126.28
2874	4.25	-2.5	0.	127.64
2875	4.	-2.75	0.	129.17
2876	3.75	-2.5	0.	127.96
2877	2.5	7.25	0.	127.33
2878	2.75	7.	0.	128.01
2879	-1.25	7.5	0.	125.78
2880	-1.75	7.5	0.	126.25
2881	-1.5	7.75	0.	126.05
2882	-0.75	7.5	0.	125.5
2883	-1.	7.75	0.	125.68
2884	-0.25	7.5	0.	125.34
2885	-0.5	7.75	0.	125.45
2886	-0.5	7.25	0.	125.38
2887	0.25	7.5	0.	125.28
2888	-5.0147e-011	7.75	0.	125.33
2889	-6.4096e-011	7.25	0.	125.31
2890	0.75	7.5	0.	125.31
2891	0.5	7.75	0.	125.27
2892	0.5	7.25	0.	125.32
2893	1.25	7.5	0.	125.47
2894	1.	7.75	0.	125.28
2895	1.75	7.5	0.	125.86
2896	1.5	7.75	0.	125.42
2897	2.25	7.5	0.	126.67
2898	2.	7.75	0.	125.8
2899	3.75	2.5	0.	124.63
2900	3.5	2.25	0.	122.41
2901	5.5	-1.75	0.	124.96
2902	5.75	-2.	0.	124.51
2903	5.5	-2.25	0.	122.95
2904	-5.75	1.5	0.	121.13
2905	-5.5	1.75	0.	119.87
2906	-5.25	1.5	0.	120.03
2907	-6.75	1.5	0.	123.95
2908	-7.	1.75	0.	124.71
2909	4.	3.75	0.	126.54
2910	4.25	4.	0.	127.37
2911	3.75	4.	0.	125.84
2912	4.	3.25	0.	126.52
2913	4.25	3.5	0.	128.01
2914	4.25	3.	0.	127.8
2915	4.	2.75	0.	126.29
2916	6.5	6.25	0.	120.23
2917	6.25	6.5	0.	122.91
2918	4.5	4.75	0.	126.85
2919	4.5	4.25	0.	127.68
2920	4.75	4.5	0.	127.33
2921	-2.25	7.5	0.	127.05
2922	-2.	7.75	0.	126.66
2923	-2.	7.25	0.	126.34
2924	-2.5	6.25	0.	126.99
2925	-2.75	6.5	0.	126.54
2926	-2.5	6.75	0.	126.6
2927	-2.5	5.25	0.	129.12
2928	-2.5	4.75	0.	128.86
2929	-2.75	5.	0.	130.38
2930	-0.5	-5.75	0.	130.29
2931	-0.25	-6.	0.	130.62
2932	3.5	-3.25	0.	129.83
2933	3.25	-3.	0.	129.43
2934	3.75	-3.	0.	129.89
2935	3.5	-2.75	0.	128.7
2936	3.5	-4.75	0.	128.21
2937	3.5	-4.25	0.	128.53
2938	3.25	-4.5	0.	127.72
2939	3.75	-4.5	0.	128.74
2940	3.	-2.75	0.	128.24
2941	2.75	-2.5	0.	126.7
2942	3.25	-2.5	0.	127.49
2943	0.25	-2.5	0.	129.98
2944	-3.157e-011	-2.75	0.	130.7
2945	1.75	-2.5	0.	124.93
2946	1.5	-2.25	0.	125.88
2947	1.25	-2.5	0.	125.92
2948	1.5	-2.75	0.	123.27
2949	-0.5	-4.25	0.	128.57
2950	-0.25	-4.5	0.	128.26
2951	-0.5	-4.75	0.	128.61
2952	-0.5	-3.25	0.	129.69
2953	-0.25	-3.	0.	130.37
2954	2.75	-6.5	0.	130.88
2955	3.25	-6.5	0.	132.52
2956	3.	-6.75	0.	133.43
2957	3.	-6.25	0.	131.91
2958	0.25	-6.5	0.	129.02
2959	2.3195e-011	-6.75	0.	130.73
2960	3.0324e-011	-6.25	0.	130.48
2961	1.25	-6.5	0.	122.35
2962	1.5	-6.75	0.	120.72
2963	1.5	-6.25	0.	120.46
2964	1.75	-6.5	0.	122.78
2965	-4.5	-0.75	0.	125.27
2966	-4.25	-1.	0.	126.25
2967	-4.75	-1.	0.	125.12
2968	-4.5	0.75	0.	122.19
2969	-4.25	0.5	0.	123.01
2970	-4.5	0.25	0.	122.86
2971	-2.75	-1.5	0.	122.36
2972	-2.5	-1.25	0.	120.82
2973	-2.5	-1.75	0.	122.
2974	-3.75	-1.5	0.	125.25
2975	-4.	-1.25	0.	126.24
2976	-0.25	-1.5	0.	130.76
2977	3.1016e-011	-1.25	0.	131.94
2978	-1.25	-1.5	0.	125.25
2979	-1.5	-1.25	0.	122.65
2980	-1.25	2.5	0.	124.69
2981	-1.5	2.25	0.	122.64
2982	-0.25	2.5	0.	129.52
2983	1.1383e-010	2.25	0.	130.97
2984	1.25	2.5	0.	129.33
2985	1.	2.25	0.	130.84
2986	2.25	2.5	0.	124.31
2987	2.5	2.25	0.	122.21
2988	0.5	1.75	0.	131.22
2989	0.75	2.	0.	131.51
2990	0.25	2.	0.	131.58
2991	0.75	-1.	0.	131.94
2992	0.5	-0.75	0.	131.66
2993	0.25	-1.	0.	132.22
2994	0.5	0.25	0.	128.62
2995	0.75	0.5	0.	127.98
2996	0.25	0.5	0.	128.03
2997	0.5	0.75	0.	128.54
2998	2.25	-1.5	0.	124.86
2999	2.5	-1.25	0.	122.87
3000	2.5	-1.75	0.	124.33
3001	1.25	-1.5	0.	129.46
3002	1.	-1.25	0.	131.11
3003	1.	-1.75	0.	129.5
3004	3.75	-1.5	0.	124.82
3005	3.5	-1.25	0.	122.89
3006	5.25	-1.5	0.	126.36
3007	4.75	-1.5	0.	126.9
3008	5.	-1.25	0.	127.87
3009	5.5	-1.25	0.	126.89
3010	5.75	-1.5	0.	126.23
3011	3.	6.75	0.	127.97
3012	3.25	6.5	0.	127.07
3013	4.25	6.5	0.	124.91
3014	4.5	6.25	0.	125.44
3015	4.5	6.75	0.	123.06
3016	4.75	6.5	0.	125.2
3017	-5.5	-2.25	0.	125.83
3018	-5.75	-2.	0.	125.87
3019	-5.5	-1.75	0.	125.32
3020	-5.25	-3.5	0.	124.46
3021	-5.75	-3.5	0.	125.88
3022	-5.5	-3.25	0.	125.31
3023	-7.25	-1.5	0.	120.26
3024	-7.75	-1.5	0.	120.8
3025	-7.5	-1.75	0.	118.39
3026	-6.25	-1.5	0.	123.67
3027	-6.	-1.75	0.	125.23
3028	-5.75	-1.5	0.	124.68
3029	-1.5	-6.75	0.	131.46
3030	-1.75	-7.	0.	131.52
3031	-1.25	-7.	0.	131.32
3032	-1.5	-4.25	0.	128.55
3033	-1.75	-4.	0.	128.35
3034	-1.5	-5.75	0.	129.97
3035	-1.75	-5.5	0.	129.29
3036	-1.5	-5.25	0.	129.07
3037	-2.	-3.75	0.	127.51
3038	-2.25	-3.5	0.	125.73
3039	-4.75	-3.5	0.	123.07
3040	-5.	-3.75	0.	123.9
3041	-5.	-3.25	0.	124.06
3042	-3.75	-3.5	0.	120.24
3043	-3.25	-3.5	0.	121.01
3044	-3.5	-3.75	0.	118.72
3045	-4.25	-3.5	0.	121.39
3046	-4.	-3.75	0.	119.72
3047	-4.5	-3.75	0.	122.51
3048	-3.	-3.75	0.	121.87
3049	-2.75	-3.5	0.	123.4
3050	-1.75	-4.5	0.	129.14
3051	-1.5	-4.75	0.	128.75
3052	-1.5	-6.25	0.	131.05
3053	-1.75	-6.5	0.	132.15
3054	-1.25	-6.5	0.	131.36
3055	-1.75	-6.	0.	131.07
3056	-6.75	-1.5	0.	121.83
3057	-6.5	-1.25	0.	122.62
3058	-6.5	-1.75	0.	123.79
3059	-7.	-1.75	0.	120.26
3060	-5.75	-2.5	0.	126.61
3061	-5.5	-2.75	0.	125.74
3062	4.	6.75	0.	124.68
3063	3.75	6.5	0.	125.99
3064	5.25	-1.	0.	128.4
3065	5.75	-1.	0.	127.9
3066	5.5	-0.75	0.	128.16
3067	5.5	0.25	0.	127.54
3068	5.75	1.017e-011	0.	126.79
3069	5.25	1.2588e-011	0.	128.83
3070	5.5	-0.25	0.	128.13
3071	4.25	-1.5	0.	126.45
3072	4.	-1.25	0.	125.95
3073	4.5	-1.25	0.	128.18
3074	1.75	-1.5	0.	127.32
3075	1.5	-1.25	0.	129.65
3076	1.5	-1.75	0.	127.73
3077	2.	-1.25	0.	126.3
3078	1.75	2.5	0.	127.15
3079	2.	2.25	0.	125.99
3080	2.	2.75	0.	125.64
3081	1.5	2.25	0.	129.53
3082	1.5	2.75	0.	127.99
3083	-0.75	2.5	0.	127.45
3084	-0.5	2.25	0.	129.8
3085	-1.	2.25	0.	126.35
3086	0.25	1.5	0.	131.42
3087	0.75	1.5	0.	131.36
3088	0.5	1.25	0.	130.
3089	0.25	-5.1081e-012	0.	129.64
3090	0.75	-5.8365e-012	0.	129.57
3091	0.5	-0.25	0.	130.24
3092	-0.75	-1.5	0.	128.55
3093	-1.	-1.25	0.	127.01
3094	-0.5	-1.25	0.	130.8
3095	-3.25	-1.5	0.	124.07
3096	-3.5	-1.25	0.	125.93
3097	-3.5	-1.75	0.	124.31
3098	-3.	-1.25	0.	123.49
3099	-4.25	-0.5	0.	126.11
3100	-4.5	-0.25	0.	124.19
3101	-0.5	-3.75	0.	129.18
3102	-0.25	-3.5	0.	130.33
3103	-0.25	-4.	0.	129.26
3104	0.5	-2.75	0.	129.82
3105	0.75	-2.5	0.	128.24
3106	2.	-2.75	0.	124.51
3107	2.25	-2.5	0.	125.6
3108	3.5	-5.25	0.	128.96
3109	3.75	-5.5	0.	129.6
3110	3.5	-5.75	0.	130.31
3111	3.25	-5.5	0.	130.01
3112	3.25	-5.	0.	128.55
3113	2.5	-6.25	0.	129.32
3114	2.25	-6.5	0.	126.77
3115	2.5	-6.75	0.	130.15
3116	0.75	-6.5	0.	125.53
3117	0.5	-6.75	0.	128.31
3118	0.5	-6.25	0.	128.06
3119	1.	-6.75	0.	123.39
3120	1.	-6.25	0.	123.11
3121	-0.25	-5.5	0.	130.34
3122	-0.5	-5.25	0.	129.39
3123	-2.5	5.75	0.	128.2
3124	-2.25	5.5	0.	128.19
3125	-2.75	5.5	0.	129.91
3126	-2.75	6.	0.	128.14
3127	-2.5	7.75	0.	127.64
3128	-2.75	7.5	0.	128.46
3129	-2.5	7.25	0.	127.12
3130	4.75	5.	0.	127.32
3131	4.5	5.25	0.	126.76
3132	5.5	6.25	0.	127.22
3133	5.5	6.75	0.	126.81
3134	5.75	6.5	0.	125.51
3135	5.25	6.5	0.	126.14
3136	4.5	3.75	0.	128.84
3137	4.75	4.	0.	129.68
3138	4.5	3.25	0.	129.28
3139	4.75	3.5	0.	131.41
3140	4.5	2.75	0.	129.22
3141	4.75	3.	0.	130.72
3142	3.5	-3.75	0.	129.52
3143	3.75	-3.5	0.	130.7
3144	3.25	-3.5	0.	130.17
3145	3.75	-4.	0.	129.75
3146	3.25	-4.	0.	129.04
3147	-6.25	1.5	0.	122.89
3148	-6.5	1.75	0.	124.84
3149	-6.	1.75	0.	122.64
3150	-2.75	4.5	0.	129.44
3151	-2.5	4.25	0.	127.41
3152	6.	-1.75	0.	125.78
3153	6.	-2.25	0.	123.56
3154	6.25	-2.	0.	128.38
3155	-6.	-3.25	0.	126.95
3156	-6.25	-3.5	0.	128.76
3157	3.5	-0.75	0.	120.56
3158	3.75	-1.	0.	124.02
3159	3.25	-1.	0.	121.15
3160	2.25	2.	0.	123.88
3161	2.5	1.75	0.	120.15
3162	-1.25	-1.	0.	124.41
3163	-1.5	-0.75	0.	120.27
3164	-2.5	2.75	0.	124.08
3165	-2.75	3.	0.	125.44
3166	-2.5	3.25	0.	124.52
3167	-2.5	2.25	0.	123.3
3168	-2.75	2.5	0.	125.97
3169	-2.75	2.	0.	125.32
3170	-2.5	1.75	0.	121.01
3171	-2.25	2.	0.	121.51
3172	6.5	5.75	0.	117.36
3173	6.25	6.	0.	121.7
3174	4.	-5.75	0.	130.05
3175	4.25	-5.5	0.	131.37
3176	-4.5	1.25	0.	122.17
3177	-4.25	1.	0.	123.71
3178	-4.5	1.75	0.	121.81
3179	-4.25	1.5	0.	124.63
3180	-4.75	1.5	0.	121.07
3181	-4.25	2.	0.	124.32
3182	-4.5	2.25	0.	119.84
3183	3.5	-6.25	0.	131.8
3184	3.25	-6.	0.	131.2
3185	3.75	-6.	0.	130.77
3186	3.75	-6.5	0.	131.75
3187	3.5	-6.75	0.	133.39
3188	4.25	2.5	0.	127.71
3189	4.	2.25	0.	126.44
3190	4.75	2.5	0.	129.81
3191	4.5	2.25	0.	130.22
3192	2.5	7.75	0.	126.65
3193	2.75	7.5	0.	128.15
3194	7.75	-7.5	0.	127.64
3195	7.5	-7.75	0.	126.13
3196	7.5	-7.25	0.	128.03
3197	7.25	-7.5	0.	125.96
3198	4.75	-2.5	0.	125.87
3199	4.5	-2.75	0.	128.33
3200	5.25	-2.5	0.	123.27
3201	5.	-2.75	0.	124.79
3202	-7.5	-6.75	0.	124.38
3203	-7.75	-7.	0.	124.96
3204	-7.25	-7.	0.	126.01
3205	-7.5	-6.25	0.	122.12
3206	-7.75	-6.5	0.	124.08
3207	-7.25	-6.5	0.	125.19
3208	-1.25	-8.	0.	130.12
3209	-0.75	-8.	0.	130.22
3210	-1.	-8.25	0.	130.24
3211	-1.75	-8.	0.	129.7
3212	-1.5	-8.25	0.	130.1
3213	-2.25	-8.	0.	128.95
3214	-2.	-8.25	0.	129.59
3215	-2.75	-8.	0.	128.51
3216	-2.5	-7.75	0.	128.63
3217	-2.5	-8.25	0.	128.91
3218	-3.	-7.75	0.	127.83
3219	-3.	-8.25	0.	128.79
3220	-3.25	-8.	0.	130.55
3221	-4.75	5.	0.	113.73
3222	-5.25	5.	0.	114.28
3223	-5.	4.75	0.	113.3
3224	-5.	5.25	0.	113.32
3225	-7.75	-6.	0.	121.8
3226	-7.5	-5.75	0.	116.19
3227	-7.25	-6.	0.	122.44
3228	-7.25	-8.	0.	127.19
3229	-7.	-7.75	0.	127.52
3230	-7.	-8.25	0.	128.26
3231	-6.75	-8.	0.	130.78
3232	-7.75	-8.	0.	126.18
3233	-7.5	-8.25	0.	126.95
3234	-8.	-7.75	0.	125.71
3235	-8.	-8.25	0.	126.57
3236	-8.25	-8.	0.	126.2
3237	-8.	-7.25	0.	125.17
3238	-8.25	-7.5	0.	125.69
3239	-8.	-6.75	0.	124.67
3240	-8.25	-7.	0.	125.51
3241	-8.	-6.25	0.	123.81
3242	-8.25	-6.5	0.	125.47
3243	7.75	6.	0.	121.08
3244	7.5	5.75	0.	116.96
3245	7.25	8.	0.	122.58
3246	6.75	8.	0.	122.91
3247	7.	8.25	0.	122.64
3248	7.	7.75	0.	122.37
3249	7.75	8.	0.	123.01
3250	7.5	8.25	0.	122.85
3251	8.	7.75	0.	123.31
3252	8.25	8.	0.	123.88
3253	8.	8.25	0.	123.52
3254	8.	7.25	0.	123.18
3255	8.25	7.5	0.	123.9
3256	8.	6.75	0.	123.16
3257	8.25	7.	0.	124.09
3258	8.	6.25	0.	123.38
3259	8.25	6.5	0.	124.62
3260	5.75	0.5	0.	125.56
3261	5.25	0.5	0.	128.17
3262	5.5	0.75	0.	128.32
3263	6.25	0.5	0.	121.52
3264	6.	0.25	0.	124.81
3265	6.	0.75	0.	123.68
3266	6.5	0.75	0.	118.3
3267	6.5	0.25	0.	121.17
3268	6.75	0.5	0.	117.42
3269	-2.75	-7.5	0.	127.95
3270	-2.5	-7.25	0.	129.66
3271	5.75	-2.5	0.	121.97
3272	5.5	-2.75	0.	121.02
3273	-8.	-1.25	0.	122.15
3274	-8.	-1.75	0.	121.34
3275	-8.25	-1.5	0.	123.37
3276	-8.	-0.75	0.	122.81
3277	-8.25	-1.	0.	123.54
3278	-8.	-0.25	0.	123.35
3279	-8.25	-0.5	0.	123.85
3280	-8.	0.25	0.	123.79
3281	-8.25	-2.2388e-013	0.	124.18
3282	-8.	0.75	0.	124.15
3283	-8.25	0.5	0.	124.5
3284	-8.	1.25	0.	124.36
3285	-8.25	1.	0.	124.74
3286	-8.25	1.5	0.	124.84
3287	-8.	1.75	0.	124.24
3288	-7.5	2.75	0.	120.52
3289	-7.25	2.5	0.	123.8
3290	-7.75	2.5	0.	122.76
3291	-4.75	-4.	0.	123.34
3292	-5.	-4.25	0.	123.85
3293	-3.25	-4.	0.	119.56
3294	-3.5	-4.25	0.	114.32
3295	-3.75	-4.	0.	118.16
3296	-2.	-4.25	0.	128.94
3297	-2.25	-4.	0.	127.57
3298	-2.	-5.75	0.	130.39
3299	-2.25	-5.5	0.	130.79
3300	-2.	-5.25	0.	129.34
3301	-2.	-6.75	0.	132.2
3302	-2.25	-7.	0.	131.11
3303	-7.	-7.25	0.	127.02
3304	-6.75	-7.5	0.	129.59
3305	-7.75	-2.	0.	118.91
3306	-7.5	-2.25	0.	113.29
3307	-7.25	-2.	0.	118.36
3308	-6.	-2.25	0.	126.65
3309	-6.25	-2.	0.	125.33
3310	-5.75	-4.5	0.	124.74
3311	-6.	-4.75	0.	125.5
3312	-6.25	-4.5	0.	128.37
3313	-5.5	-4.75	0.	122.99
3314	-5.25	-4.5	0.	123.77
3315	-5.75	-5.	0.	123.74
3316	-5.25	-5.	0.	121.95
3317	-5.5	-5.25	0.	121.29
3318	6.	-1.25	0.	127.24
3319	6.25	-1.5	0.	128.63
3320	6.25	7.2722e-012	0.	124.43
3321	6.	-0.25	0.	126.95
3322	8.	-5.25	0.	126.37
3323	8.	-4.75	0.	124.04
3324	8.25	-5.	0.	125.11
3325	7.75	-5.	0.	128.69
3326	8.	-7.75	0.	127.59
3327	8.	-7.25	0.	129.19
3328	8.25	-7.5	0.	128.51
3329	7.75	-8.	0.	126.08
3330	8.	-8.25	0.	126.54
3331	8.25	-8.	0.	127.32
3332	7.25	-8.	0.	124.6
3333	7.5	-8.25	0.	125.06
3334	6.5	7.75	0.	123.43
3335	6.75	7.5	0.	122.89
3336	6.25	7.5	0.	124.97
3337	6.5	8.25	0.	123.22
3338	6.25	8.	0.	124.43
3339	5.75	7.	0.	126.4
3340	6.	6.75	0.	125.1
3341	6.	7.25	0.	126.02
3342	3.	7.25	0.	128.82
3343	3.25	7.	0.	128.31
3344	-8.	7.75	0.	124.01
3345	-8.	7.25	0.	122.88
3346	-8.25	7.5	0.	124.51
3347	-7.75	7.5	0.	123.3
3348	-7.75	8.	0.	124.61
3349	-8.	8.25	0.	124.64
3350	-8.25	8.	0.	124.83
3351	-7.25	8.	0.	125.59
3352	-7.5	8.25	0.	124.88
3353	-7.5	7.75	0.	123.91
3354	-5.25	8.	0.	119.8
3355	-5.5	8.25	0.	121.2
3356	-5.5	7.75	0.	119.42
3357	-5.75	8.	0.	122.59
3358	-4.75	8.	0.	119.9
3359	-5.	8.25	0.	120.
3360	-5.	7.75	0.	118.82
3361	-2.25	8.	0.	127.26
3362	-2.75	8.	0.	128.33
3363	-2.5	8.25	0.	127.48
3364	-1.75	8.	0.	126.47
3365	-2.	8.25	0.	126.73
3366	-1.25	8.	0.	125.95
3367	-1.5	8.25	0.	126.19
3368	-0.75	8.	0.	125.64
3369	-1.	8.25	0.	125.84
3370	-0.25	8.	0.	125.44
3371	-0.5	8.25	0.	125.62
3372	0.25	8.	0.	125.32
3373	-3.5928e-011	8.25	0.	125.48
3374	0.75	8.	0.	125.24
3375	0.5	8.25	0.	125.36
3376	1.25	8.	0.	125.23
3377	1.	8.25	0.	125.26
3378	1.75	8.	0.	125.35
3379	1.5	8.25	0.	125.19
3380	2.25	8.	0.	125.78
3381	2.	8.25	0.	125.23
3382	2.5	8.25	0.	125.65
3383	2.75	8.	0.	126.96
3384	3.75	2.	0.	124.23
3385	3.5	1.75	0.	120.46
3386	5.	0.25	0.	129.45
3387	4.75	0.5	0.	130.99
3388	5.	0.75	0.	130.44
3389	4.75	-1.	0.	129.14
3390	5.	-0.75	0.	129.77
3391	2.25	-1.	0.	124.31
3392	2.5	-0.75	0.	120.56
3393	2.75	-1.	0.	121.19
3394	1.	-0.75	0.	131.92
3395	1.25	-1.	0.	131.28
3396	1.	0.75	0.	128.86
3397	1.25	0.5	0.	129.86
3398	1.	0.25	0.	128.93
3399	1.25	2.	0.	131.02
3400	1.	1.75	0.	131.64
3401	-1.25	2.	0.	124.3
3402	-1.5	1.75	0.	120.54
3403	-1.75	2.	0.	121.18
3404	8.3348e-011	1.75	0.	131.78
3405	-0.25	2.	0.	131.23
3406	2.8081e-011	0.25	0.	129.04
3407	-0.25	0.5	0.	129.96
3408	3.5401e-011	0.75	0.	128.96
3409	-2.75	-1.	0.	121.95
3410	-2.5	-0.75	0.	118.86
3411	-4.	-0.75	0.	127.08
3412	-3.75	-1.	0.	126.91
3413	-4.	0.75	0.	124.52
3414	-3.75	0.5	0.	126.36
3415	-4.	0.25	0.	124.71
3416	-0.5	-7.75	0.	130.6
3417	-0.25	-7.5	0.	131.26
3418	-0.5	-7.25	0.	131.13
3419	-0.25	-8.	0.	130.42
3420	-0.5	-8.25	0.	130.16
3421	1.75	-7.	0.	122.19
3422	1.25	-7.	0.	121.75
3423	1.5	-7.25	0.	117.05
3424	3.25	-7.	0.	134.3
3425	3.	-7.25	0.	134.71
3426	2.75	-7.	0.	132.71
3427	7.5209e-012	-4.75	0.	128.88
3428	-1.0297e-011	-4.25	0.	128.94
3429	0.25	-4.5	0.	129.72
3430	0.25	-3.	0.	130.53
3431	-3.5776e-011	-3.25	0.	131.
3432	3.	-3.25	0.	129.77
3433	2.75	-3.	0.	128.69
3434	3.	-4.75	0.	128.05
3435	3.	-4.25	0.	128.23
3436	2.75	-4.5	0.	129.
3437	2.75	-6.	0.	130.36
3438	3.	-5.75	0.	130.88
3439	1.5	-5.75	0.	116.43
3440	1.25	-6.	0.	121.2
3441	1.75	-6.	0.	121.55
3442	-3.	6.75	0.	127.28
3443	-3.	6.25	0.	127.68
3444	-3.25	6.5	0.	128.29
3445	-4.25	8.	0.	123.
3446	-4.5	8.25	0.	121.48
3447	-4.5	7.75	0.	119.29
3448	-3.	7.75	0.	129.15
3449	-3.	8.25	0.	128.24
3450	-3.25	8.	0.	128.87
3451	-6.75	8.	0.	126.9
3452	-7.	8.25	0.	126.
3453	-7.	7.75	0.	126.31
3454	5.	4.75	0.	127.8
3455	5.25	4.5	0.	129.09
3456	5.	4.25	0.	129.34
3457	5.	2.75	0.	131.3
3458	5.25	2.5	0.	131.48
3459	5.	2.25	0.	131.45
3460	8.	-5.75	0.	128.3
3461	8.25	-5.5	0.	126.84
3462	7.75	-5.5	0.	129.23
3463	7.75	-7.	0.	129.58
3464	8.25	-7.	0.	129.79
3465	8.	-6.75	0.	130.44
3466	4.	-4.25	0.	129.96
3467	4.25	-4.5	0.	131.78
3468	4.25	-3.	0.	129.84
3469	4.	-3.25	0.	130.77
3470	-5.75	2.	0.	121.39
3471	-5.5	2.25	0.	118.58
3472	-7.	2.25	0.	125.23
3473	-6.75	2.	0.	125.59
3474	-3.	3.75	0.	126.72
3475	-3.	3.25	0.	126.06
3476	-3.25	3.5	0.	127.51
3477	-2.75	3.5	0.	125.14
3478	-4.5	4.75	0.	114.53
3479	-4.5	5.25	0.	114.55
3480	-4.25	5.	0.	119.08
3481	-3.	4.75	0.	130.94
3482	-3.25	5.	0.	131.01
3483	-3.	5.25	0.	131.16
3484	-3.	4.25	0.	129.23
3485	-3.25	4.	0.	129.29
3486	-2.75	4.	0.	127.2
3487	-3.25	4.5	0.	131.43
3488	-4.	1.75	0.	127.13
3489	-4.	2.25	0.	127.54
3490	-3.75	2.	0.	129.27
3491	-3.25	3.	0.	128.48
3492	-3.	2.75	0.	127.32
3493	-6.	2.25	0.	124.48
3494	-6.25	2.	0.	124.58
3495	4.75	-3.	0.	127.25
3496	5.25	-3.	0.	122.54
3497	5.	-3.25	0.	126.05
3498	4.5	-3.25	0.	131.55
3499	4.	-3.75	0.	130.93
3500	4.25	-3.5	0.	132.45
3501	4.25	-4.	0.	131.46
3502	7.5	-6.75	0.	130.85
3503	7.25	-7.	0.	126.9
3504	8.25	-6.	0.	128.85
3505	7.75	-6.	0.	130.33
3506	8.	-6.25	0.	130.13
3507	4.	-6.25	0.	130.71
3508	4.25	-6.	0.	130.21
3509	4.25	-6.5	0.	130.08
3510	4.	-6.75	0.	130.38
3511	4.5	-6.75	0.	126.3
3512	4.5	-7.25	0.	120.43
3513	4.75	-7.	0.	119.78
3514	4.25	-7.	0.	126.52
3515	5.75	1.	0.	126.44
3516	5.5	1.25	0.	131.64
3517	5.25	1.	0.	130.6
3518	6.25	1.	0.	120.45
3519	6.	1.25	0.	124.58
3520	5.	3.25	0.	132.84
3521	5.25	3.	0.	133.45
3522	5.25	3.5	0.	136.07
3523	5.	3.75	0.	132.25
3524	5.5	5.75	0.	129.7
3525	5.25	6.	0.	127.78
3526	5.75	6.	0.	126.09
3527	5.25	5.	0.	128.94
3528	5.	5.25	0.	128.29
3529	-6.5	8.25	0.	126.38
3530	-6.5	7.75	0.	129.4
3531	-6.25	8.	0.	125.97
3532	-3.	7.25	0.	128.68
3533	-3.25	7.	0.	129.22
3534	-2.75	7.	0.	127.35
3535	-3.25	7.5	0.	130.84
3536	-4.	8.25	0.	124.94
3537	-4.	7.75	0.	125.99
3538	-3.75	8.	0.	127.01
3539	-3.5	5.25	0.	131.6
3540	-3.5	4.75	0.	131.49
3541	-3.75	5.	0.	126.86
3542	-3.25	6.	0.	129.94
3543	-3.	5.75	0.	129.84
3544	0.25	-5.	0.	130.53
3545	2.3268e-011	-5.25	0.	130.18
3546	-0.25	-5.	0.	129.24
3547	2.5	-5.75	0.	130.63
3548	2.25	-6.	0.	126.44
3549	2.75	-5.	0.	129.61
3550	3.	-5.25	0.	129.58
3551	3.	-3.75	0.	129.68
3552	2.75	-4.	0.	129.99
3553	2.75	-3.5	0.	131.
3554	2.	-3.25	0.	124.25
3555	1.75	-3.	0.	122.83
3556	2.25	-3.	0.	126.07
3557	0.5	-3.25	0.	131.61
3558	0.75	-3.	0.	127.73
3559	-2.6289e-011	-3.75	0.	130.4
3560	0.25	-3.5	0.	132.08
3561	0.25	-4.	0.	130.67
3562	2.	-7.25	0.	124.71
3563	2.	-6.75	0.	124.25
3564	2.25	-7.	0.	127.65
3565	0.75	-7.	0.	126.18
3566	1.	-7.25	0.	124.02
3567	0.5	-7.25	0.	130.82
3568	0.25	-7.	0.	130.02
3569	6.005e-013	-8.25	0.	130.04
3570	0.25	-8.	0.	131.28
3571	5.2846e-012	-7.75	0.	131.08
3572	-3.	1.75	0.	128.13
3573	-3.	2.25	0.	127.98
3574	-3.25	2.	0.	129.62
3575	-4.	1.25	0.	126.16
3576	-3.75	1.5	0.	129.87
3577	-3.75	1.	0.	127.61
3578	-3.75	-0.5	0.	128.95
3579	-4.	-0.25	0.	126.48
3580	-3.	-0.75	0.	124.52
3581	-3.25	-1.	0.	125.35
3582	-0.75	-1.	0.	129.26
3583	-1.	-0.75	0.	127.58
3584	-0.5	-0.75	0.	133.02
3585	-0.25	-1.	0.	131.97
3586	-0.25	-3.7389e-012	0.	131.32
3587	2.9989e-011	-0.25	0.	131.17
3588	-0.25	1.5	0.	133.02
3589	5.4873e-011	1.25	0.	130.89
3590	-1.	1.75	0.	127.33
3591	-0.75	2.	0.	128.69
3592	1.75	2.	0.	128.36
3593	2.	1.75	0.	126.96
3594	1.5	1.75	0.	132.22
3595	1.	1.25	0.	130.78
3596	1.25	1.5	0.	132.83
3597	1.25	1.	0.	131.06
3598	0.75	1.	0.	129.43
3599	1.25	-0.5	0.	133.05
3600	1.	-0.25	0.	130.97
3601	0.75	-0.5	0.	131.65
3602	1.75	-1.	0.	128.63
3603	1.5	-0.75	0.	132.43
3604	2.	-0.75	0.	127.25
3605	4.5	-0.75	0.	131.45
3606	4.25	-1.	0.	127.67
3607	4.75	1.1656e-011	0.	131.52
3608	5.	-0.25	0.	130.23
3609	4.75	1.5	0.	134.8
3610	5.25	1.5	0.	134.03
3611	5.	1.75	0.	133.31
3612	5.	1.25	0.	132.99
3613	4.	1.75	0.	127.62
3614	4.25	2.	0.	128.94
3615	3.25	7.5	0.	130.39
3616	3.	7.75	0.	128.46
3617	4.	7.25	0.	124.28
3618	4.25	7.	0.	122.79
3619	3.75	7.	0.	126.11
3620	5.5	7.25	0.	128.75
3621	5.25	7.	0.	125.71
3622	7.	-7.75	0.	124.42
3623	7.	-8.25	0.	123.4
3624	6.75	-8.	0.	123.9
3625	6.75	-7.5	0.	124.47
3626	7.	-7.25	0.	124.83
3627	3.5	-7.25	0.	135.41
3628	3.75	-7.	0.	132.02
3629	3.	-7.75	0.	133.55
3630	3.25	-7.5	0.	135.81
3631	2.75	-7.5	0.	134.74
3632	3.	-8.25	0.	130.47
3633	3.25	-8.	0.	132.74
3634	2.75	-8.	0.	132.43
3635	6.25	-1.	0.	128.76
3636	6.	-0.75	0.	128.02
3637	-6.25	-5.	0.	126.84
3638	-6.	-5.25	0.	125.17
3639	-6.	-2.75	0.	127.24
3640	-6.25	-3.	0.	127.89
3641	-5.75	-3.	0.	126.37
3642	-6.25	-2.5	0.	127.96
3643	-5.75	-6.	0.	121.58
3644	-6.	-6.25	0.	125.3
3645	-6.	-5.75	0.	124.86
3646	-6.25	-6.	0.	126.68
3647	-7.	-6.75	0.	126.83
3648	-6.75	-6.5	0.	128.88
3649	-7.	-6.25	0.	125.56
3650	-6.75	-7.	0.	128.38
3651	-2.	-6.25	0.	132.16
3652	-2.25	-6.5	0.	133.83
3653	-2.25	-6.	0.	132.82
3654	-2.25	-4.5	0.	130.31
3655	-2.	-4.75	0.	129.52
3656	-2.75	-4.	0.	124.28
3657	-2.5	-4.25	0.	128.97
3658	-2.5	-3.75	0.	125.81
3659	-3.	-4.25	0.	122.62
3660	-4.5	-4.25	0.	124.12
3661	-4.25	-4.	0.	120.85
3662	-5.	-4.75	0.	122.75
3663	-4.75	-4.5	0.	124.64
3664	-5.	-5.25	0.	119.98
3665	-4.75	-5.	0.	123.22
3666	-7.75	3.	0.	120.25
3667	-7.25	3.	0.	120.85
3668	-7.5	3.25	0.	114.88
3669	6.	-2.75	0.	120.73
3670	6.25	-2.5	0.	125.54
3671	8.25	-4.5	0.	122.67
3672	8.	-4.25	0.	121.33
3673	7.75	-4.5	0.	125.85
3674	-3.	-7.25	0.	127.02
3675	-3.25	-7.5	0.	128.67
3676	-5.	-5.75	0.	117.3
3677	-4.75	-5.5	0.	120.61
3678	-5.25	-5.5	0.	119.29
3679	6.75	1.	0.	116.
3680	6.5	1.25	0.	116.2
3681	8.25	6.	0.	125.85
3682	8.	5.75	0.	124.33
3683	-8.25	3.	0.	124.45
3684	-8.	3.25	0.	122.3
3685	-8.	2.75	0.	122.52
3686	-8.25	-6.	0.	125.71
3687	-8.	-5.75	0.	123.31
3688	-7.	2.75	0.	124.15
3689	-6.75	2.5	0.	127.77
3690	-5.75	5.	0.	121.35
3691	-5.5	4.75	0.	115.62
3692	-5.5	5.25	0.	115.66
3693	5.75	-3.	0.	119.71
3694	5.5	-3.25	0.	118.41
3695	3.25	-8.5	0.	130.24
3696	2.75	-8.5	0.	130.5
3697	3.	-8.75	0.	130.59
3698	-8.25	8.5	0.	124.93
3699	-8.	8.75	0.	124.75
3700	-7.75	8.5	0.	124.91
3701	-6.75	8.5	0.	125.47
3702	-7.	8.75	0.	125.13
3703	-7.25	8.5	0.	125.29
3704	-6.25	8.5	0.	124.62
3705	-6.5	8.75	0.	124.87
3706	-5.75	8.5	0.	122.81
3707	-6.	8.75	0.	123.67
3708	-6.	8.25	0.	124.2
3709	-5.25	8.5	0.	121.36
3710	-5.5	8.75	0.	122.17
3711	-4.75	8.5	0.	121.55
3712	-5.	8.75	0.	121.61
3713	-4.25	8.5	0.	123.42
3714	-4.5	8.75	0.	122.56
3715	-3.75	8.5	0.	125.75
3716	-4.	8.75	0.	124.52
3717	-3.25	8.5	0.	127.18
3718	-3.5	8.75	0.	126.24
3719	-3.5	8.25	0.	127.82
3720	-2.75	8.5	0.	127.39
3721	-3.	8.75	0.	126.96
3722	-2.25	8.5	0.	126.95
3723	-2.5	8.75	0.	126.88
3724	-1.75	8.5	0.	126.45
3725	-2.	8.75	0.	126.55
3726	-1.25	8.5	0.	126.08
3727	-1.5	8.75	0.	126.24
3728	-0.75	8.5	0.	125.83
3729	-1.	8.75	0.	126.03
3730	-0.25	8.5	0.	125.66
3731	-0.5	8.75	0.	125.88
3732	0.25	8.5	0.	125.52
3733	-2.4449e-011	8.75	0.	125.77
3734	0.75	8.5	0.	125.38
3735	0.5	8.75	0.	125.66
3736	1.25	8.5	0.	125.22
3737	1.	8.75	0.	125.52
3738	1.75	8.5	0.	125.07
3739	1.5	8.75	0.	125.34
3740	2.25	8.5	0.	125.1
3741	2.	8.75	0.	125.15
3742	2.75	8.5	0.	125.46
3743	2.5	8.75	0.	125.21
3744	3.	8.75	0.	126.04
3745	3.25	8.5	0.	128.04
3746	3.	8.25	0.	126.77
3747	-8.25	7.	0.	124.63
3748	-7.75	7.	0.	120.68
3749	-8.	6.75	0.	122.65
3750	-8.25	-2.	0.	123.77
3751	-8.	-2.25	0.	121.34
3752	-7.25	-8.5	0.	128.01
3753	-7.	-8.75	0.	129.34
3754	-6.75	-8.5	0.	130.13
3755	-7.75	-8.5	0.	127.33
3756	-7.5	-8.75	0.	128.38
3757	-8.25	-8.5	0.	127.07
3758	-8.	-8.75	0.	127.78
3759	-8.5	-8.25	0.	126.7
3760	-8.5	-8.75	0.	127.47
3761	-8.75	-8.5	0.	127.05
3762	-8.75	-8.	0.	126.57
3763	-8.5	-7.75	0.	126.18
3764	-8.5	-6.75	0.	126.3
3765	-8.75	-7.	0.	126.63
3766	-8.5	-7.25	0.	126.04
3767	-8.5	-6.25	0.	127.36
3768	-8.75	-6.5	0.	127.32
3769	-8.5	-5.75	0.	130.15
3770	-8.75	-6.	0.	128.89
3771	-8.5	-1.75	0.	125.78
3772	-8.5	-2.25	0.	128.71
3773	-8.75	-2.	0.	127.67
3774	-8.5	-1.25	0.	124.75
3775	-8.75	-1.5	0.	126.1
3776	-8.5	-0.75	0.	124.57
3777	-8.75	-1.	0.	125.52
3778	-8.5	-0.25	0.	124.68
3779	-8.75	-0.5	0.	125.37
3780	-8.5	0.25	0.	124.89
3781	-8.75	-2.6638e-014	0.	125.42
3782	-8.5	0.75	0.	125.08
3783	-8.75	0.5	0.	125.54
3784	-8.5	1.25	0.	125.22
3785	-8.75	1.	0.	125.68
3786	-8.5	1.75	0.	125.28
3787	-8.75	1.5	0.	125.79
3788	-8.5	2.25	0.	125.42
3789	-8.75	2.	0.	125.94
3790	-8.25	2.	0.	124.69
3791	-8.5	2.75	0.	126.27
3792	-8.75	2.5	0.	126.37
3793	-8.25	2.5	0.	124.35
3794	-8.5	3.25	0.	129.1
3795	-8.75	3.	0.	127.75
3796	-8.5	7.25	0.	126.26
3797	-8.5	6.75	0.	129.12
3798	-8.75	7.	0.	127.57
3799	-8.5	7.75	0.	125.33
3800	-8.75	7.5	0.	126.09
3801	-8.5	8.25	0.	125.12
3802	-8.75	8.	0.	125.55
3803	-8.5	8.75	0.	124.96
3804	-8.75	8.5	0.	125.26
3805	7.75	-8.5	0.	125.51
3806	8.25	-8.5	0.	126.73
3807	8.	-8.75	0.	126.38
3808	7.25	-8.5	0.	123.87
3809	7.5	-8.75	0.	125.29
3810	7.	-8.75	0.	124.19
3811	6.75	-8.5	0.	123.8
3812	8.5	-4.25	0.	122.02
3813	8.75	-4.	0.	124.
3814	8.25	-4.	0.	120.63
3815	8.5	-3.75	0.	119.81
3816	8.5	-4.75	0.	123.77
3817	8.75	-4.5	0.	124.53
3818	8.5	-5.25	0.	125.59
3819	8.75	-5.	0.	125.55
3820	8.5	-5.75	0.	127.39
3821	8.75	-5.5	0.	126.86
3822	8.5	-6.25	0.	128.87
3823	8.75	-6.	0.	128.2
3824	8.5	-6.75	0.	129.49
3825	8.75	-6.5	0.	129.17
3826	8.25	-6.5	0.	130.15
3827	8.5	-7.25	0.	129.1
3828	8.75	-7.	0.	129.26
3829	8.5	-7.75	0.	128.24
3830	8.75	-7.5	0.	128.7
3831	8.5	-8.25	0.	127.51
3832	8.75	-8.	0.	128.
3833	8.5	-8.75	0.	127.24
3834	8.75	-8.5	0.	127.57
3835	8.5	7.75	0.	124.47
3836	8.5	8.25	0.	124.38
3837	8.75	8.	0.	124.86
3838	8.5	7.25	0.	124.81
3839	8.75	7.5	0.	125.19
3840	8.5	6.75	0.	125.55
3841	8.75	7.	0.	125.8
3842	8.5	6.25	0.	127.09
3843	8.75	6.5	0.	126.87
3844	8.75	6.	0.	128.69
3845	8.5	5.75	0.	130.08
3846	6.25	8.5	0.	123.61
3847	6.	8.75	0.	124.62
3848	5.75	8.5	0.	126.73
3849	6.	8.25	0.	124.82
3850	6.75	8.5	0.	122.94
3851	6.5	8.75	0.	123.36
3852	7.25	8.5	0.	122.9
3853	7.	8.75	0.	123.09
3854	7.75	8.5	0.	123.35
3855	7.5	8.75	0.	123.35
3856	8.25	8.5	0.	124.02
3857	8.	8.75	0.	123.85
3858	8.75	8.5	0.	124.74
3859	8.5	8.75	0.	124.45
3860	6.75	4.3057e-012	0.	120.99
3861	6.5	-0.25	0.	126.01
3862	-0.25	-8.5	0.	129.79
3863	-8.0104e-013	-8.75	0.	130.46
3864	0.25	-8.5	0.	130.75
3865	-0.75	-8.5	0.	130.18
3866	-0.5	-8.75	0.	130.6
3867	-1.25	-8.5	0.	130.21
3868	-1.	-8.75	0.	130.66
3869	-1.75	-8.5	0.	129.98
3870	-1.5	-8.75	0.	130.59
3871	-2.25	-8.5	0.	129.55
3872	-2.	-8.75	0.	130.36
3873	-2.75	-8.5	0.	129.2
3874	-2.5	-8.75	0.	130.08
3875	-3.	-8.75	0.	130.03
3876	-3.25	-8.5	0.	130.29
3877	-2.5	-6.75	0.	132.74
3878	-2.75	-7.	0.	128.74
3879	-5.25	-6.	0.	117.38
3880	-5.5	-6.25	0.	116.66
3881	-5.5	-5.75	0.	119.42
3882	7.	0.75	0.	115.14
3883	7.	0.25	0.	117.25
3884	7.25	0.5	0.	116.88
3885	-7.25	7.	0.	121.45
3886	-7.5	6.75	0.	115.32
3887	-7.5	7.25	0.	121.14
3888	-7.	7.25	0.	124.98
3889	-6.75	7.5	0.	128.81
3890	-7.25	7.5	0.	124.64
3891	-6.75	7.	0.	127.74
3892	-7.	6.75	0.	123.16
3893	7.	1.25	0.	115.
3894	7.25	1.	0.	116.04
3895	-4.75	-6.	0.	118.28
3896	-5.	-6.25	0.	115.92
3897	-4.5	-4.75	0.	125.07
3898	-4.25	-4.5	0.	122.17
3899	-2.75	-4.5	0.	127.25
3900	-2.5	-4.75	0.	130.95
3901	-2.5	-6.25	0.	134.44
3902	-2.75	-6.5	0.	131.26
3903	-3.	-6.75	0.	127.26
3904	-3.25	-7.	0.	125.89
3905	-0.75	-9.	0.	131.08
3906	-0.25	-9.	0.	131.28
3907	-0.5	-9.25	0.	131.83
3908	-1.25	-9.	0.	131.04
3909	-1.	-9.25	0.	131.59
3910	-1.75	-9.	0.	130.97
3911	-1.5	-9.25	0.	131.49
3912	-2.25	-9.	0.	130.88
3913	-2.	-9.25	0.	131.52
3914	-2.75	-9.	0.	130.91
3915	-2.5	-9.25	0.	131.66
3916	-3.	-9.25	0.	131.88
3917	-3.25	-9.	0.	130.84
3918	-6.25	-6.5	0.	128.5
3919	-6.5	-6.75	0.	130.38
3920	-6.5	-6.25	0.	129.91
3921	-8.75	6.5	0.	130.33
3922	-8.25	6.5	0.	127.12
3923	-8.5	6.25	0.	131.28
3924	-8.75	3.5	0.	130.46
3925	-8.25	3.5	0.	126.93
3926	-8.5	3.75	0.	131.3
3927	-8.75	-2.5	0.	130.41
3928	-8.25	-2.5	0.	126.25
3929	-8.5	-2.75	0.	130.77
3930	-6.75	-2.5	0.	124.55
3931	-6.5	-2.75	0.	128.58
3932	-6.5	-2.25	0.	126.66
3933	-6.5	-5.25	0.	129.15
3934	-6.75	-5.5	0.	126.94
3935	-6.25	-5.5	0.	127.54
3936	-6.5	-5.75	0.	129.34
3937	-8.75	-5.5	0.	131.51
3938	-8.25	-5.5	0.	127.74
3939	-8.5	-5.25	0.	131.98
3940	7.25	1.8611e-012	0.	118.17
3941	7.	-0.25	0.	120.74
3942	9.	8.25	0.	125.22
3943	9.	8.75	0.	125.02
3944	9.25	8.5	0.	125.35
3945	9.	7.75	0.	125.58
3946	9.25	8.	0.	125.73
3947	9.	7.25	0.	126.17
3948	9.25	7.5	0.	126.3
3949	9.	6.75	0.	127.11
3950	9.25	7.	0.	127.06
3951	9.	6.25	0.	128.48
3952	9.25	6.5	0.	128.06
3953	9.25	6.	0.	129.18
3954	9.	5.75	0.	129.75
3955	9.	4.75	0.	129.11
3956	8.75	5.	0.	130.17
3957	9.25	5.	0.	129.17
3958	9.	5.25	0.	129.87
3959	9.	4.25	0.	130.09
3960	8.75	4.5	0.	129.75
3961	9.25	4.5	0.	128.81
3962	9.	3.75	0.	132.24
3963	8.75	4.	0.	132.33
3964	9.25	4.	0.	130.58
3965	9.	3.25	0.	131.82
3966	8.75	3.5	0.	135.05
3967	9.25	3.5	0.	131.75
3968	9.	2.75	0.	128.67
3969	8.75	3.	0.	131.16
3970	9.25	3.	0.	130.42
3971	9.	2.25	0.	126.45
3972	8.75	2.5	0.	126.9
3973	9.25	2.5	0.	128.4
3974	8.75	2.	0.	124.65
3975	9.	1.75	0.	127.05
3976	9.25	2.	0.	128.9
3977	6.5	-0.75	0.	129.19
3978	6.75	-0.5	0.	125.68
3979	6.25	-0.5	0.	128.48
3980	3.5	-7.75	0.	134.93
3981	3.75	-7.5	0.	132.72
3982	6.25	-7.5	0.	120.7
3983	6.5	-7.75	0.	123.93
3984	6.5	-7.25	0.	121.45
3985	8.25	-9.	0.	126.89
3986	8.75	-9.	0.	127.5
3987	8.5	-9.25	0.	127.36
3988	7.75	-9.	0.	126.16
3989	8.	-9.25	0.	126.9
3990	7.25	-9.	0.	125.62
3991	7.5	-9.25	0.	126.55
3992	6.75	-9.	0.	125.97
3993	7.	-9.25	0.	126.68
3994	5.5	7.75	0.	129.73
3995	5.25	7.5	0.	127.59
3996	5.75	7.5	0.	128.36
3997	3.75	7.5	0.	128.03
3998	3.5	7.75	0.	131.35
3999	3.5	7.25	0.	129.88
4000	-8.25	9.	0.	124.78
4001	-8.75	9.	0.	125.
4002	-8.5	9.25	0.	124.76
4003	-7.75	9.	0.	124.69
4004	-8.	9.25	0.	124.56
4005	-7.25	9.	0.	124.69
4006	-7.5	9.25	0.	124.44
4007	-7.5	8.75	0.	124.85
4008	-7.	9.25	0.	124.32
4009	-6.75	9.	0.	124.53
4010	-5.75	9.	0.	123.02
4011	-6.	9.25	0.	123.29
4012	-6.25	9.	0.	123.93
4013	-5.25	9.	0.	122.4
4014	-5.5	9.25	0.	122.64
4015	-5.	9.25	0.	122.49
4016	-4.75	9.	0.	122.61
4017	-3.75	9.	0.	125.01
4018	-4.	9.25	0.	124.19
4019	-4.25	9.	0.	123.67
4020	-3.25	9.	0.	126.02
4021	-3.5	9.25	0.	125.28
4022	-2.75	9.	0.	126.45
4023	-3.	9.25	0.	125.99
4024	-2.5	9.25	0.	126.28
4025	-2.25	9.	0.	126.47
4026	-1.25	9.	0.	126.19
4027	-1.5	9.25	0.	126.33
4028	-1.75	9.	0.	126.33
4029	-0.75	9.	0.	126.08
4030	-1.	9.25	0.	126.29
4031	-0.25	9.	0.	126.
4032	-0.5	9.25	0.	126.25
4033	-1.4609e-011	9.25	0.	126.21
4034	0.25	9.	0.	125.91
4035	1.25	9.	0.	125.63
4036	1.	9.25	0.	126.08
4037	0.75	9.	0.	125.8
4038	1.75	9.	0.	125.42
4039	1.5	9.25	0.	125.96
4040	2.25	9.	0.	125.27
4041	2.	9.25	0.	125.83
4042	2.75	9.	0.	125.8
4043	2.5	9.25	0.	125.8
4044	3.25	9.	0.	128.
4045	3.	9.25	0.	126.65
4046	4.5	1.25	0.	134.84
4047	4.25	1.5	0.	132.
4048	4.5	1.75	0.	133.37
4049	4.5	-0.25	0.	133.31
4050	4.25	-0.5	0.	130.61
4051	4.75	-0.5	0.	132.06
4052	1.75	-0.5	0.	130.99
4053	1.5	-0.25	0.	133.21
4054	1.5	1.25	0.	133.05
4055	1.75	1.5	0.	130.77
4056	-0.5	1.25	0.	133.25
4057	-0.75	1.5	0.	131.07
4058	-0.5	1.75	0.	132.49
4059	-0.5	-0.25	0.	133.47
4060	-0.75	-0.5	0.	131.29
4061	-0.25	-0.5	0.	133.39
4062	-3.25	-0.5	0.	127.91
4063	-3.5	-0.25	0.	130.05
4064	-3.5	-0.75	0.	128.79
4065	-3.5	1.25	0.	131.24
4066	-3.25	1.5	0.	130.49
4067	-3.5	1.75	0.	131.99
4068	0.75	-7.5	0.	128.62
4069	0.5	-7.75	0.	132.27
4070	0.25	-7.5	0.	132.1
4071	2.25	-7.5	0.	129.8
4072	2.5	-7.75	0.	133.57
4073	2.5	-7.25	0.	132.76
4074	0.25	-9.	0.	132.04
4075	-6.3121e-013	-9.25	0.	132.38
4076	0.75	-3.5	0.	129.27
4077	0.5	-3.75	0.	132.31
4078	2.25	-3.5	0.	128.08
4079	2.5	-3.75	0.	131.26
4080	2.5	-3.25	0.	129.94
4081	2.5	-5.25	0.	131.13
4082	2.25	-5.5	0.	128.04
4083	2.75	-5.5	0.	131.15
4084	0.75	-5.5	0.	127.68
4085	0.5	-5.25	0.	131.63
4086	0.25	-5.5	0.	131.32
4087	0.5	-5.75	0.	130.18
4088	-7.25	-9.	0.	129.72
4089	-6.75	-9.	0.	130.44
4090	-7.	-9.25	0.	131.09
4091	-7.75	-9.	0.	128.84
4092	-7.5	-9.25	0.	130.03
4093	-8.25	-9.	0.	128.18
4094	-8.	-9.25	0.	129.05
4095	-8.75	-9.	0.	127.7
4096	-8.5	-9.25	0.	128.27
4097	-9.	-8.75	0.	127.28
4098	-9.25	-9.	0.	127.31
4099	-9.	-9.25	0.	127.69
4100	-9.	-8.25	0.	126.93
4101	-9.25	-8.5	0.	127.03
4102	-9.	-7.75	0.	126.8
4103	-9.25	-8.	0.	126.91
4104	-9.	-7.25	0.	127.
4105	-9.25	-7.5	0.	127.07
4106	-8.75	-7.5	0.	126.41
4107	-9.	-6.75	0.	127.65
4108	-9.25	-7.	0.	127.57
4109	-9.	-6.25	0.	128.86
4110	-9.25	-6.5	0.	128.43
4111	-9.	-5.75	0.	130.26
4112	-9.25	-6.	0.	129.58
4113	-9.	-5.25	0.	130.93
4114	-9.25	-5.5	0.	130.42
4115	-9.	-4.75	0.	130.74
4116	-8.75	-5.	0.	131.42
4117	-9.25	-5.	0.	130.3
4118	-9.	-4.25	0.	130.71
4119	-8.75	-4.5	0.	132.22
4120	-9.25	-4.5	0.	129.9
4121	-9.	-3.75	0.	130.54
4122	-8.75	-4.	0.	133.23
4123	-9.25	-4.	0.	129.97
4124	-9.	-3.25	0.	130.25
4125	-8.75	-3.5	0.	131.9
4126	-9.25	-3.5	0.	129.63
4127	-9.	-2.75	0.	130.19
4128	-8.75	-3.	0.	130.57
4129	-9.25	-3.	0.	129.8
4130	-9.25	-2.5	0.	129.79
4131	-9.	-2.25	0.	129.4
4132	-9.	-1.25	0.	126.87
4133	-9.25	-1.5	0.	127.93
4134	-9.	-1.75	0.	128.
4135	-9.	-0.75	0.	126.31
4136	-9.25	-1.	0.	127.21
4137	-9.	-0.25	0.	126.1
4138	-9.25	-0.5	0.	126.82
4139	-9.25	3.4095e-014	0.	126.63
4140	-9.	0.25	0.	126.07
4141	-9.25	1.	0.	126.64
4142	-9.	0.75	0.	126.13
4143	-9.	1.25	0.	126.25
4144	-9.	3.75	0.	129.9
4145	-9.25	3.5	0.	129.1
4146	-9.	3.25	0.	129.13
4147	-9.	4.25	0.	130.01
4148	-8.75	4.	0.	130.76
4149	-9.25	4.	0.	129.06
4150	-9.	4.75	0.	130.3
4151	-8.75	4.5	0.	132.31
4152	-9.25	4.5	0.	128.87
4153	-9.	5.25	0.	130.24
4154	-8.75	5.	0.	133.64
4155	-9.25	5.	0.	129.09
4156	-9.	5.75	0.	129.86
4157	-8.75	5.5	0.	132.28
4158	-9.25	5.5	0.	128.72
4159	-9.	6.25	0.	129.66
4160	-8.75	6.	0.	130.63
4161	-9.25	6.	0.	128.78
4162	-9.25	6.5	0.	128.68
4163	-9.	6.75	0.	128.8
4164	-9.	7.75	0.	126.3
4165	-9.25	7.5	0.	126.83
4166	-9.	7.25	0.	127.41
4167	-9.	8.25	0.	125.69
4168	-9.25	8.	0.	126.12
4169	-9.	8.75	0.	125.3
4170	-9.25	8.5	0.	125.63
4171	-9.25	9.	0.	125.25
4172	-9.	9.25	0.	125.01
4173	6.25	9.	0.	124.37
4174	5.75	9.	0.	127.12
4175	6.	9.25	0.	125.37
4176	6.75	9.	0.	123.51
4177	6.5	9.25	0.	124.13
4178	7.25	9.	0.	123.54
4179	7.	9.25	0.	123.92
4180	7.75	9.	0.	123.86
4181	7.5	9.25	0.	124.03
4182	8.25	9.	0.	124.29
4183	8.	9.25	0.	124.28
4184	8.75	9.	0.	124.74
4185	8.5	9.25	0.	124.6
4186	9.	9.25	0.	124.92
4187	9.25	9.	0.	125.11
4188	9.	-4.25	0.	126.5
4189	9.	-3.75	0.	128.16
4190	9.25	-4.	0.	129.74
4191	9.	-4.75	0.	126.3
4192	9.25	-4.5	0.	128.15
4193	9.	-5.25	0.	126.81
4194	9.25	-5.	0.	127.62
4195	9.	-5.75	0.	127.67
4196	9.25	-5.5	0.	127.74
4197	9.	-6.25	0.	128.5
4198	9.25	-6.	0.	128.24
4199	9.	-6.75	0.	128.94
4200	9.25	-6.5	0.	128.71
4201	9.	-7.25	0.	128.86
4202	9.25	-7.	0.	128.87
4203	9.	-7.75	0.	128.47
4204	9.25	-7.5	0.	128.69
4205	9.	-8.25	0.	128.06
4206	9.25	-8.	0.	128.36
4207	9.	-8.75	0.	127.82
4208	9.25	-8.5	0.	128.08
4209	9.25	-9.	0.	127.96
4210	9.	-9.25	0.	127.78
4211	-3.5	5.75	0.	131.8
4212	-3.75	5.5	0.	128.31
4213	-3.25	5.5	0.	131.76
4214	-3.75	7.5	0.	129.5
4215	-3.5	7.25	0.	131.33
4216	-3.5	7.75	0.	130.57
4217	-6.25	7.5	0.	129.
4218	-6.5	7.25	0.	131.5
4219	5.5	5.25	0.	130.62
4220	5.75	5.5	0.	128.46
4221	5.25	5.5	0.	130.01
4222	8.5	5.25	0.	131.39
4223	8.25	5.5	0.	128.51
4224	8.75	5.5	0.	131.12
4225	8.5	3.25	0.	134.35
4226	8.5	3.75	0.	135.09
4227	8.25	3.5	0.	130.34
4228	5.5	3.25	0.	136.61
4229	5.75	3.5	0.	131.98
4230	5.5	3.75	0.	136.26
4231	5.5	1.75	0.	133.56
4232	5.75	1.5	0.	129.74
4233	4.75	-6.5	0.	124.93
4234	4.5	-6.25	0.	129.57
4235	7.5	-6.25	0.	131.85
4236	7.25	-6.5	0.	128.63
4237	7.75	-6.5	0.	131.7
4238	7.75	-4.	0.	122.01
4239	8.	-3.75	0.	119.71
4240	6.	-3.25	0.	118.78
4241	6.25	-3.	0.	121.51
4242	4.75	-3.5	0.	130.3
4243	4.5	-3.75	0.	132.94
4244	-6.	4.75	0.	126.78
4245	-6.	5.25	0.	126.85
4246	-6.25	5.	0.	133.24
4247	-6.75	3.	0.	126.98
4248	-7.	3.25	0.	122.62
4249	-6.25	2.5	0.	127.96
4250	-6.5	2.75	0.	130.52
4251	-6.5	2.25	0.	128.13
4252	-3.5	2.75	0.	131.56
4253	-3.75	2.5	0.	130.35
4254	-3.25	2.5	0.	130.47
4255	-3.5	2.25	0.	132.1
4256	-3.5	4.25	0.	131.44
4257	-3.75	4.5	0.	128.19
4258	-3.5	3.75	0.	130.06
4259	-3.5	3.25	0.	129.89
4260	-4.25	2.5	0.	123.02
4261	-4.75	2.5	0.	118.38
4262	-5.25	2.5	0.	118.04
4263	-5.75	2.5	0.	121.66
4264	-6.5	3.25	0.	132.41
4265	-6.5	3.75	0.	135.05
4266	-6.75	3.5	0.	128.03
4267	-4.25	4.5	0.	119.03
4268	-4.	4.75	0.	123.58
4269	-4.75	4.5	0.	114.11
4270	-5.25	4.5	0.	114.65
4271	-5.75	4.5	0.	121.04
4272	-6.25	4.5	0.	133.5
4273	5.25	-3.5	0.	121.89
4274	5.75	-3.5	0.	117.4
4275	6.25	-3.5	0.	119.65
4276	6.75	-3.5	0.	125.1
4277	6.5	-3.25	0.	122.44
4278	7.5	-4.25	0.	126.6
4279	7.5	-3.75	0.	122.88
4280	7.5	-4.75	0.	130.55
4281	7.5	-5.25	0.	131.55
4282	7.5	-5.75	0.	131.23
4283	6.75	-6.5	0.	119.25
4284	7.	-6.75	0.	124.7
4285	6.25	-6.5	0.	113.12
4286	6.5	-6.75	0.	116.4
4287	5.75	-6.5	0.	111.52
4288	6.	-6.75	0.	113.07
4289	5.25	-6.5	0.	115.78
4290	5.	-6.75	0.	118.62
4291	5.5	-6.75	0.	111.59
4292	4.5	-5.75	0.	131.51
4293	4.5	-4.25	0.	133.27
4294	4.5	-4.75	0.	134.68
4295	4.5	-5.25	0.	134.18
4296	5.5	2.25	0.	132.84
4297	5.25	2.	0.	132.86
4298	5.5	2.75	0.	133.59
4299	8.5	2.75	0.	129.39
4300	8.5	2.25	0.	125.06
4301	8.5	1.75	0.	119.89
4302	7.25	1.5	0.	116.01
4303	7.5	1.25	0.	117.03
4304	7.75	1.5	0.	119.05
4305	6.75	1.5	0.	115.18
4306	6.25	1.5	0.	120.3
4307	8.5	4.75	0.	130.78
4308	8.5	4.25	0.	131.97
4309	7.75	3.5	0.	116.62
4310	7.25	3.5	0.	110.81
4311	6.75	3.5	0.	111.22
4312	6.25	3.5	0.	117.86
4313	5.5	4.25	0.	132.25
4314	5.25	4.	0.	132.5
4315	5.5	4.75	0.	130.2
4316	7.75	5.5	0.	120.18
4317	7.25	5.5	0.	115.47
4318	6.75	5.5	0.	115.58
4319	6.25	5.5	0.	120.54
4320	6.	5.75	0.	124.9
4321	-5.75	7.5	0.	122.43
4322	-6.	7.75	0.	125.62
4323	-5.25	7.5	0.	118.41
4324	-4.75	7.5	0.	118.17
4325	-4.25	7.5	0.	122.25
4326	-3.5	6.75	0.	130.19
4327	-3.5	6.25	0.	130.52
4328	-4.25	5.5	0.	119.06
4329	-4.	5.25	0.	123.59
4330	-4.75	5.5	0.	114.15
4331	-5.25	5.5	0.	114.71
4332	-5.75	5.5	0.	121.16
4333	-6.25	5.5	0.	133.63
4334	-6.5	6.75	0.	133.09
4335	-6.75	6.5	0.	128.49
4336	-6.5	6.25	0.	135.46
4337	-4.5	-5.75	0.	121.61
4338	-4.5	-6.25	0.	119.17
4339	-4.5	-5.25	0.	123.87
4340	-3.75	-4.5	0.	114.93
4341	-4.	-4.25	0.	118.9
4342	-3.25	-4.5	0.	117.33
4343	-2.5	-5.25	0.	131.62
4344	-2.25	-5.	0.	130.19
4345	-2.5	-5.75	0.	133.21
4346	-3.25	-6.5	0.	123.22
4347	-3.5	-6.75	0.	122.02
4348	-3.75	-6.5	0.	121.94
4349	-3.5	-7.25	0.	127.56
4350	-3.5	-7.75	0.	131.41
4351	-3.5	-8.25	0.	132.05
4352	-3.5	-8.75	0.	131.07
4353	-6.5	-8.75	0.	131.19
4354	-6.5	-9.25	0.	131.19
4355	-6.5	-8.25	0.	132.66
4356	-6.5	-7.75	0.	132.85
4357	-6.5	-7.25	0.	130.94
4358	-4.25	-6.5	0.	121.56
4359	-4.75	-6.5	0.	116.78
4360	-5.25	-6.5	0.	115.12
4361	-5.75	-6.5	0.	120.34
4362	-7.75	6.5	0.	117.17
4363	-7.25	6.5	0.	116.86
4364	-6.5	5.75	0.	138.26
4365	-6.5	5.25	0.	140.
4366	-6.5	4.75	0.	139.94
4367	-6.5	4.25	0.	138.03
4368	-7.25	3.5	0.	116.5
4369	-7.75	3.5	0.	116.82
4370	-8.5	5.75	0.	133.05
4371	-8.5	5.25	0.	135.68
4372	-8.5	4.75	0.	135.66
4373	-8.5	4.25	0.	133.05
4374	-7.75	-2.5	0.	115.6
4375	-7.25	-2.5	0.	114.94
4376	-7.	-2.25	0.	120.15
4377	-6.5	-3.25	0.	129.7
4378	-6.5	-3.75	0.	131.72
4379	-6.5	-4.25	0.	131.82
4380	-6.5	-4.75	0.	129.71
4381	-7.25	-5.5	0.	117.76
4382	-7.	-5.75	0.	124.19
4383	-7.75	-5.5	0.	117.51
4384	-8.5	-3.25	0.	132.21
4385	-8.5	-3.75	0.	134.59
4386	-8.5	-4.25	0.	134.74
4387	-8.5	-4.75	0.	132.9
4388	7.5	0.25	0.	117.77
4389	7.5	-0.25	0.	116.24
4390	7.5	0.75	0.	117.77
4391	8.25	1.5	0.	118.8
4392	8.75	1.5	0.	122.16
4393	9.25	1.5	0.	132.07
4394	8.75	-3.5	0.	123.94
4395	9.25	-3.5	0.	133.47
4396	8.25	-3.5	0.	118.83
4397	7.75	-3.5	0.	120.54
4398	7.25	-3.5	0.	125.41
4399	6.5	-2.75	0.	126.4
4400	6.5	-2.25	0.	130.41
4401	6.5	-1.75	0.	131.23
4402	6.5	-1.25	0.	130.14
4403	7.25	-0.5	0.	118.83
4404	7.75	-0.5	0.	113.16
4405	8.25	-0.5	0.	107.9
4406	8.75	-0.5	0.	114.52
4407	9.25	-0.5	0.	133.87
4408	3.5	-8.75	0.	132.19
4409	3.5	-9.25	0.	134.31
4410	3.25	-9.	0.	132.57
4411	3.5	-8.25	0.	132.48
4412	4.25	-7.5	0.	123.14
4413	4.	-7.25	0.	129.34
4414	4.75	-7.5	0.	116.17
4415	5.25	-7.5	0.	112.82
4416	5.	-7.25	0.	115.61
4417	5.75	-7.5	0.	114.23
4418	6.	-7.25	0.	115.68
4419	5.5	-7.25	0.	111.66
4420	6.5	-8.25	0.	124.26
4421	6.5	-8.75	0.	125.54
4422	6.5	-9.25	0.	127.44
4423	5.5	8.75	0.	129.23
4424	5.5	9.25	0.	128.83
4425	5.5	8.25	0.	129.28
4426	5.75	8.	0.	127.39
4427	4.75	7.5	0.	119.72
4428	5.	7.25	0.	124.59
4429	4.25	7.5	0.	119.46
4430	4.5	7.25	0.	118.09
4431	3.5	8.25	0.	130.72
4432	3.25	8.	0.	129.47
4433	3.5	8.75	0.	129.98
4434	3.5	9.25	0.	129.65
4435	4.5	0.75	0.	133.56
4436	4.75	1.	0.	133.05
4437	4.5	0.25	0.	133.02
4438	3.75	-0.5	0.	123.41
4439	4.	-0.75	0.	126.9
4440	3.25	-0.5	0.	119.44
4441	2.75	-0.5	0.	119.4
4442	3.	-0.75	0.	120.06
4443	2.25	-0.5	0.	123.48
4444	1.5	0.25	0.	132.08
4445	1.25	-4.9888e-012	0.	131.18
4446	1.5	0.75	0.	132.03
4447	3.75	1.5	0.	123.83
4448	3.25	1.5	0.	119.32
4449	2.75	1.5	0.	119.12
4450	2.25	1.5	0.	123.21
4451	-0.5	0.75	0.	132.16
4452	-0.25	1.	0.	131.19
4453	-0.5	0.25	0.	132.21
4454	-1.25	-0.5	0.	123.41
4455	-1.75	-0.5	0.	118.78
4456	-2.25	-0.5	0.	118.21
4457	-2.75	-0.5	0.	121.4
4458	-3.5	0.25	0.	129.26
4459	-3.75	-1.5892e-011	0.	127.64
4460	-3.5	0.75	0.	129.41
4461	-1.25	1.5	0.	123.55
4462	-1.75	1.5	0.	119.43
4463	-2.25	1.5	0.	119.56
4464	-2.	1.75	0.	120.1
4465	-2.75	1.5	0.	123.78
4466	1.25	-7.5	0.	119.25
4467	1.75	-7.5	0.	119.5
4468	2.5	-8.25	0.	132.43
4469	2.5	-8.75	0.	132.56
4470	2.5	-9.25	0.	134.3
4471	2.75	-9.	0.	132.67
4472	0.5	-8.75	0.	132.3
4473	0.5	-9.25	0.	133.13
4474	0.5	-8.25	0.	131.97
4475	1.25	-3.5	0.	119.86
4476	1.	-3.25	0.	125.41
4477	1.75	-3.5	0.	119.34
4478	1.5	-3.25	0.	118.03
4479	2.5	-4.25	0.	130.74
4480	2.5	-4.75	0.	130.54
4481	1.75	-5.5	0.	118.68
4482	2.	-5.75	0.	123.87
4483	1.25	-5.5	0.	118.31
4484	1.	-5.75	0.	123.17
4485	0.5	-4.25	0.	131.42
4486	0.5	-4.75	0.	131.34
4487	-9.5	-8.75	0.	127.06
4488	-9.5	-9.25	0.	127.21
4489	-9.5	-8.25	0.	127.01
4490	-9.5	-7.75	0.	127.18
4491	-9.5	-7.25	0.	127.64
4492	-9.5	-6.75	0.	128.35
4493	-9.5	-6.25	0.	129.15
4494	-9.5	-5.75	0.	129.73
4495	-9.5	-5.25	0.	129.79
4496	-9.5	-4.75	0.	129.47
4497	-9.5	-4.25	0.	129.16
4498	-9.5	-3.75	0.	129.05
4499	-9.5	-3.25	0.	129.17
4500	-9.5	-2.75	0.	129.4
4501	-9.5	-2.25	0.	129.36
4502	-9.5	-1.75	0.	128.9
4503	-9.25	-2.	0.	128.97
4504	-9.5	-1.25	0.	128.27
4505	-9.5	-0.75	0.	127.72
4506	-9.5	-0.25	0.	127.34
4507	-9.5	0.25	0.	127.14
4508	-9.5	0.75	0.	127.09
4509	-9.25	0.5	0.	126.58
4510	-9.5	1.25	0.	127.18
4511	-9.5	1.75	0.	127.4
4512	-9.25	1.5	0.	126.79
4513	-9.5	2.25	0.	127.73
4514	-9.25	2.	0.	127.06
4515	-9.5	2.75	0.	128.13
4516	-9.25	2.5	0.	127.57
4517	-9.5	3.25	0.	128.38
4518	-9.25	3.	0.	128.42
4519	-9.5	3.75	0.	128.26
4520	-9.5	4.25	0.	127.92
4521	-9.5	4.75	0.	127.66
4522	-9.5	5.25	0.	127.57
4523	-9.5	5.75	0.	127.64
4524	-9.5	6.25	0.	127.8
4525	-9.5	6.75	0.	127.73
4526	-9.5	7.25	0.	127.27
4527	-9.25	7.	0.	127.85
4528	-9.5	7.75	0.	126.65
4529	-9.5	8.25	0.	126.06
4530	-9.5	8.75	0.	125.58
4531	-9.5	9.25	0.	125.22
4532	-9.25	9.5	0.	124.97
4533	-8.75	9.5	0.	124.77
4534	-8.25	9.5	0.	124.54
4535	-7.75	9.5	0.	124.31
4536	-7.25	9.5	0.	124.07
4537	-6.75	9.5	0.	123.75
4538	-6.25	9.5	0.	123.33
4539	-6.5	9.25	0.	123.96
4540	-5.75	9.5	0.	122.92
4541	-5.25	9.5	0.	122.73
4542	-4.75	9.5	0.	122.96
4543	-4.25	9.5	0.	123.61
4544	-4.5	9.25	0.	123.09
4545	-3.75	9.5	0.	124.46
4546	-3.25	9.5	0.	125.25
4547	-2.75	9.5	0.	125.82
4548	-2.25	9.5	0.	126.17
4549	-1.75	9.5	0.	126.35
4550	-2.	9.25	0.	126.35
4551	-1.25	9.5	0.	126.43
4552	-0.75	9.5	0.	126.46
4553	-0.25	9.5	0.	126.47
4554	0.25	9.5	0.	126.46
4555	0.75	9.5	0.	126.44
4556	0.5	9.25	0.	126.16
4557	1.25	9.5	0.	126.41
4558	1.75	9.5	0.	126.38
4559	2.25	9.5	0.	126.37
4560	2.75	9.5	0.	126.67
4561	3.25	9.5	0.	128.31
4562	3.75	9.5	0.	127.94
4563	4.25	9.5	0.	121.58
4564	4.75	9.5	0.	121.03
4565	5.25	9.5	0.	126.89
4566	5.75	9.5	0.	127.1
4567	6.25	9.5	0.	125.13
4568	6.75	9.5	0.	124.54
4569	7.25	9.5	0.	124.41
4570	7.75	9.5	0.	124.45
4571	8.25	9.5	0.	124.6
4572	8.75	9.5	0.	124.79
4573	9.25	9.5	0.	124.97
4574	9.5	9.25	0.	125.16
4575	9.5	8.75	0.	125.44
4576	9.5	8.25	0.	125.86
4577	9.5	7.75	0.	126.45
4578	9.5	7.25	0.	127.19
4579	9.5	6.75	0.	128.01
4580	9.5	6.25	0.	128.76
4581	9.5	5.75	0.	129.16
4582	9.5	5.25	0.	129.03
4583	9.25	5.5	0.	129.73
4584	9.5	4.75	0.	128.87
4585	9.5	4.25	0.	129.3
4586	9.5	3.75	0.	130.09
4587	9.5	3.25	0.	130.35
4588	9.5	2.75	0.	130.15
4589	9.5	2.25	0.	130.82
4590	9.5	1.75	0.	133.95
4591	9.5	1.25	0.	136.74
4592	9.5	0.75	0.	137.99
4593	9.5	0.25	0.	139.52
4594	9.5	-0.25	0.	141.63
4595	9.5	-0.75	0.	141.77
4596	9.5	-1.25	0.	141.1
4597	9.5	-1.75	0.	142.46
4598	9.5	-2.25	0.	142.3
4599	9.5	-2.75	0.	139.93
4600	9.5	-3.25	0.	137.99
4601	9.5	-3.75	0.	135.11
4602	9.5	-4.25	0.	131.39
4603	9.5	-4.75	0.	129.46
4604	9.5	-5.25	0.	128.53
4605	9.5	-5.75	0.	128.3
4606	9.5	-6.25	0.	128.45
4607	9.5	-6.75	0.	128.65
4608	9.5	-7.25	0.	128.71
4609	9.5	-7.75	0.	128.59
4610	9.5	-8.25	0.	128.39
4611	9.5	-8.75	0.	128.22
4612	9.5	-9.25	0.	128.12
4613	9.25	-9.5	0.	127.95
4614	8.75	-9.5	0.	127.64
4615	8.25	-9.5	0.	127.37
4616	7.75	-9.5	0.	127.3
4617	7.25	-9.5	0.	127.62
4618	6.75	-9.5	0.	128.19
4619	6.25	-9.5	0.	124.16
4620	5.75	-9.5	0.	115.16
4621	5.25	-9.5	0.	110.9
4622	4.75	-9.5	0.	112.21
4623	4.25	-9.5	0.	119.29
4624	3.75	-9.5	0.	130.7
4625	3.25	-9.5	0.	136.06
4626	2.75	-9.5	0.	135.94
4627	3.	-9.25	0.	134.26
4628	2.25	-9.5	0.	130.45
4629	1.75	-9.5	0.	119.15
4630	1.25	-9.5	0.	118.54
4631	0.75	-9.5	0.	128.84
4632	0.25	-9.5	0.	133.51
4633	-0.25	-9.5	0.	132.94
4634	-0.75	-9.5	0.	132.34
4635	-1.25	-9.5	0.	132.04
4636	-1.75	-9.5	0.	132.04
4637	-2.25	-9.5	0.	132.3
4638	-2.75	-9.5	0.	132.64
4639	-3.25	-9.5	0.	132.42
4640	-3.75	-9.5	0.	126.39
4641	-3.5	-9.25	0.	131.33
4642	-4.25	-9.5	0.	114.38
4643	-4.75	-9.5	0.	107.41
4644	-5.25	-9.5	0.	107.47
4645	-5.75	-9.5	0.	114.49
4646	-6.25	-9.5	0.	126.35
4647	-6.75	-9.5	0.	131.89
4648	-7.25	-9.5	0.	131.41
4649	-7.75	-9.5	0.	130.24
4650	-8.25	-9.5	0.	129.13
4651	-8.75	-9.5	0.	128.26
4652	-9.25	-9.5	0.	127.59
4653	-0.5	6.75	0.	125.42
4654	-0.5	6.25	0.	125.56
4655	0.5	5.75	0.	125.78
4656	0.5	6.25	0.	125.6
4657	4.75	2.	0.	131.86
4658	-0.25	7.	0.	125.35
4659	5.25	-0.5	0.	129.53
4660	-5.	-1.25	0.	124.9
4661	5.	5.75	0.	128.11
4662	4.75	5.5	0.	127.73
4663	6.	6.25	0.	124.38
4664	3.0746e-011	-5.75	0.	130.66
4665	0.75	-6.	0.	125.64
4666	-2.25	7.	0.	126.42
4667	-1.	-6.75	0.	131.22
4668	-2.5	3.75	0.	125.63
4669	-0.75	-5.	0.	128.79
4670	-4.25	-1.9526e-011	0.	124.56
4671	-5.75	-5.5	0.	122.72
4672	-1.25	-5.	0.	128.75
4673	2.	4.25	0.	125.56
4674	1.75	4.5	0.	125.82
4675	0.5	6.75	0.	125.45
4676	0.25	7.	0.	125.35
4677	5.25	-7.	0.	114.43
4678	5.75	-7.	0.	113.11
4679	6.25	-7.	0.	116.25
4680	1.25	-2.	0.	127.76
4681	-9.	2.75	0.	127.86
4682	1.3032e-011	-7.25	0.	131.31
4683	-0.25	-7.	0.	131.17
4684	0.25	-6.	0.	129.51
4685	-9.	2.25	0.	126.89
4686	-9.	1.75	0.	126.45
4687	-8.	2.25	0.	123.62
4688	-6.75	-6.	0.	126.59
4689	1.	-2.75	0.	126.15
4690	1.25	-3.	0.	123.47
4691	6.75	-7.	0.	121.75
4692	0.25	-0.5	0.	131.79
4693	-5.25	-1.7525e-011	0.	122.11
4694	-2.5	-3.25	0.	124.33
4695	1.75	3.	0.	126.48
4696	-5.25	-1.5	0.	125.05
4697	2.5	-2.25	0.	125.6
4698	2.25	3.5	0.	124.98
4699	2.	3.75	0.	125.5
4700	2.	3.25	0.	125.51
4701	1.	-2.25	0.	127.81
4702	-6.75	-2.	0.	122.24
4703	3.75	5.5	0.	126.05
4704	4.25	5.5	0.	126.49
4705	4.75	7.	0.	122.86
4706	5.	6.75	0.	125.04
4707	4.75	6.	0.	126.95
4708	4.5	5.75	0.	126.56
4709	3.5	6.75	0.	127.41
4710	-5.25	-3.	0.	124.9
4711	5.	6.25	0.	126.72
4712	-1.75	-5.	0.	129.13
4713	2.	-6.25	0.	123.87
4714	-4.75	-1.9802e-011	0.	122.89
4715	2.5	-2.75	0.	127.16
4716	3.4094e-011	-0.75	0.	132.35
4717	-0.75	-7.	0.	131.27
4718	0.25	1.	0.	129.48
4719	5.75	-0.5	0.	128.28
4720	6.	7.75	0.	125.97
4721	7.	-4.	0.	96.271
4722	5.	-4.	0.	98.699
4723	7.	-6.	0.	97.653
4724	5.	-6.	0.	95.406
4725	6.5	-4.	0.	114.31
4726	6.	-4.	0.	111.88
4727	5.5	-4.	0.	113.58
4728	7.	-4.5	0.	101.13
4729	7.	-5.	0.	99.386
4730	7.	-5.5	0.	100.59
4731	5.	-4.5	0.	102.39
4732	5.	-5.	0.	100.45
4733	5.	-5.5	0.	100.88
4734	5.5	-6.	0.	109.54
4735	6.	-6.	0.	107.88
4736	6.5	-6.	0.	110.78
4737	6.	-5.	0.	111.6
4738	6.5	-5.	0.	108.15
4739	6.5	-5.5	0.	108.47
4740	6.	-5.5	0.	110.88
4741	5.5	-5.5	0.	108.16
4742	5.5	-5.	0.	108.4
4743	5.5	-4.5	0.	110.17
4744	6.	-4.5	0.	113.11
4745	6.5	-4.5	0.	109.96
4746	6.75	-4.	0.	105.15
4747	7.	-4.25	0.	98.651
4748	5.25	-4.	0.	106.05
4749	5.	-4.25	0.	100.53
4750	7.	-5.75	0.	99.113
4751	6.75	-6.	0.	104.15
4752	5.	-5.75	0.	98.125
4753	5.25	-6.	0.	102.42
4754	6.25	-4.	0.	113.08
4755	6.5	-4.25	0.	112.1
4756	5.75	-4.	0.	112.72
4757	6.	-4.25	0.	112.48
4758	5.5	-4.25	0.	111.85
4759	7.	-4.75	0.	100.21
4760	6.75	-4.5	0.	105.52
4761	7.	-5.25	0.	99.946
4762	6.75	-5.	0.	103.76
4763	6.75	-5.5	0.	104.52
4764	5.	-4.75	0.	101.38
4765	5.25	-4.5	0.	106.25
4766	5.	-5.25	0.	100.63
4767	5.25	-5.	0.	104.42
4768	5.25	-5.5	0.	104.51
4769	5.75	-6.	0.	108.71
4770	5.5	-5.75	0.	108.82
4771	6.25	-6.	0.	109.33
4772	6.	-5.75	0.	109.36
4773	6.5	-5.75	0.	109.6
4774	6.25	-5.	0.	109.87
4775	6.	-5.25	0.	111.24
4776	5.75	-5.	0.	110.
4777	6.	-4.75	0.	112.36
4778	6.5	-5.25	0.	108.3
4779	6.5	-4.75	0.	109.04
4780	6.25	-5.5	0.	109.67
4781	5.75	-5.5	0.	109.52
4782	5.5	-5.25	0.	108.26
4783	5.5	-4.75	0.	109.27
4784	5.75	-4.5	0.	111.62
4785	6.25	-4.5	0.	111.5
4786	8.	5.	0.	97.745
4787	6.	5.	0.	97.434
4788	8.	4.	0.	97.731
4789	6.	4.	0.	98.67
4790	7.5	5.	0.	113.
4791	7.	5.	0.	111.11
4792	6.5	5.	0.	113.15
4793	8.	4.5	0.	102.42
4794	6.	4.5	0.	102.68
4795	6.5	4.	0.	111.14
4796	7.	4.	0.	108.72
4797	7.5	4.	0.	110.65
4798	6.5	4.5	0.	111.02
4799	7.	4.5	0.	113.05
4800	7.5	4.5	0.	110.76
4801	7.75	5.	0.	105.31
4802	8.	4.75	0.	100.07
4803	6.25	5.	0.	105.22
4804	6.	4.75	0.	100.04
4805	8.	4.25	0.	100.07
4806	7.75	4.	0.	104.17
4807	6.	4.25	0.	100.66
4808	6.25	4.	0.	104.88
4809	7.25	5.	0.	112.06
4810	7.5	4.75	0.	111.85
4811	6.75	5.	0.	112.13
4812	7.	4.75	0.	112.08
4813	6.5	4.75	0.	112.06
4814	7.75	4.5	0.	106.58
4815	6.25	4.5	0.	106.84
4816	6.75	4.	0.	109.91
4817	6.5	4.25	0.	111.06
4818	7.25	4.	0.	109.66
4819	7.	4.25	0.	110.88
4820	7.5	4.25	0.	110.69
4821	6.75	4.5	0.	112.03
4822	7.25	4.5	0.	111.9
4823	9.	1.	0.	100.91
4824	8.	1.	0.	92.642
4825	9.	0.	0.	99.804
4826	8.	0.	0.	89.624
4827	8.5	1.	0.	113.24
4828	9.	0.5	0.	105.23
4829	8.	0.5	0.	96.375
4830	8.5	0.	0.	108.15
4831	8.5	0.5	0.	107.86
4832	8.75	1.	0.	107.01
4833	9.	0.75	0.	103.07
4834	8.25	1.	0.	102.89
4835	8.	0.75	0.	94.48
4836	9.	0.25	0.	102.51
4837	8.75	0.	0.	103.97
4838	8.	0.25	0.	92.975
4839	8.25	0.	0.	98.88
4840	8.5	0.75	0.	110.5
4841	8.75	0.5	0.	106.52
4842	8.25	0.5	0.	102.06
4843	8.5	0.25	0.	107.95
4844	-1.	1.	0.	100.33
4845	-3.	1.	0.	99.483
4846	-1.	0.	0.	100.28
4847	-3.	0.	0.	99.038
4848	-1.5	1.	0.	117.18
4849	-2.	1.	0.	115.67
4850	-2.5	1.	0.	116.91
4851	-1.	0.5	0.	105.34
4852	-3.	0.5	0.	104.1
4853	-2.5	0.	0.	116.05
4854	-2.	0.	0.	115.21
4855	-1.5	0.	0.	116.97
4856	-2.5	0.5	0.	115.06
4857	-2.	0.5	0.	118.6
4858	-1.5	0.5	0.	115.6
4859	-1.25	1.	0.	108.71
4860	-1.	0.75	0.	102.8
4861	-2.75	1.	0.	108.14
4862	-3.	0.75	0.	101.77
4863	-1.	0.25	0.	102.78
4864	-1.25	0.	0.	108.58
4865	-3.	0.25	0.	101.55
4866	-2.75	0.	0.	107.51
4867	-1.75	1.	0.	116.42
4868	-1.5	0.75	0.	116.37
4869	-2.25	1.	0.	116.29
4870	-2.	0.75	0.	117.13
4871	-2.5	0.75	0.	115.96
4872	-1.25	0.5	0.	110.45
4873	-2.75	0.5	0.	109.57
4874	-2.25	0.	0.	115.63
4875	-2.5	0.25	0.	115.54
4876	-1.75	0.	0.	116.09
4877	-2.	0.25	0.	116.9
4878	-1.5	0.25	0.	116.27
4879	-2.25	0.5	0.	116.83
4880	-1.75	0.5	0.	117.1
4881	-7.	-3.	0.	95.03
4882	-8.	-3.	0.	95.768
4883	-7.	-5.	0.	95.555
4884	-8.	-5.	0.	97.007
4885	-7.5	-3.	0.	109.32
4886	-7.	-3.5	0.	99.13
4887	-7.	-4.	0.	98.376
4888	-7.	-4.5	0.	99.756
4889	-8.	-3.5	0.	100.22
4890	-8.	-4.	0.	99.443
4891	-8.	-4.5	0.	100.64
4892	-7.5	-5.	0.	110.6
4893	-7.5	-3.5	0.	104.2
4894	-7.5	-4.	0.	102.34
4895	-7.5	-4.5	0.	104.79
4896	-7.25	-3.	0.	102.13
4897	-7.	-3.25	0.	97.079
4898	-7.75	-3.	0.	102.49
4899	-8.	-3.25	0.	97.991
4900	-7.	-4.75	0.	97.649
4901	-7.25	-5.	0.	103.01
4902	-8.	-4.75	0.	98.823
4903	-7.75	-5.	0.	103.75
4904	-7.5	-3.25	0.	106.71
4905	-7.	-3.75	0.	98.707
4906	-7.25	-3.5	0.	101.62
4907	-7.	-4.25	0.	99.021
4908	-7.25	-4.	0.	100.36
4909	-7.25	-4.5	0.	102.22
4910	-8.	-3.75	0.	99.797
4911	-7.75	-3.5	0.	102.17
4912	-8.	-4.25	0.	100.01
4913	-7.75	-4.	0.	100.89
4914	-7.75	-4.5	0.	102.66
4915	-7.5	-4.75	0.	107.64
4916	-7.5	-3.75	0.	103.27
4917	-7.5	-4.25	0.	103.56
4918	9.	-1.	0.	99.07
4919	7.	-1.	0.	96.952
4920	9.	-3.	0.	102.24
4921	7.	-3.	0.	96.481
4922	8.5	-1.	0.	109.04
4923	8.	-1.	0.	107.34
4924	7.5	-1.	0.	110.94
4925	9.	-1.5	0.	104.52
4926	9.	-2.	0.	104.82
4927	9.	-2.5	0.	106.55
4928	7.	-1.5	0.	100.58
4929	7.	-2.	0.	99.591
4930	7.	-2.5	0.	101.44
4931	7.5	-3.	0.	115.14
4932	8.	-3.	0.	113.44
4933	8.5	-3.	0.	116.05
4934	8.	-1.5	0.	111.38
4935	8.5	-1.5	0.	109.75
4936	8.5	-2.5	0.	113.18
4937	8.	-2.5	0.	114.87
4938	7.5	-2.5	0.	110.87
4939	7.5	-1.5	0.	108.74
4940	7.5	-2.	0.	108.84
4941	8.5	-2.	0.	111.2
4942	8.	-2.	0.	113.04
4943	8.75	-1.	0.	104.03
4944	9.	-1.25	0.	101.79
4945	7.25	-1.	0.	103.88
4946	7.	-1.25	0.	98.75
4947	9.	-2.75	0.	104.39
4948	8.75	-3.	0.	109.07
4949	7.	-2.75	0.	98.913
4950	7.25	-3.	0.	105.67
4951	8.25	-1.	0.	108.17
4952	8.5	-1.25	0.	109.36
4953	7.75	-1.	0.	109.14
4954	8.	-1.25	0.	109.34
4955	7.5	-1.25	0.	109.82
4956	9.	-1.75	0.	104.66
4957	8.75	-1.5	0.	107.13
4958	9.	-2.25	0.	105.67
4959	8.75	-2.	0.	108.
4960	8.75	-2.5	0.	109.84
4961	7.	-1.75	0.	100.04
4962	7.25	-1.5	0.	104.65
4963	7.	-2.25	0.	100.47
4964	7.25	-2.	0.	104.21
4965	7.25	-2.5	0.	106.13
4966	7.75	-3.	0.	114.28
4967	7.5	-2.75	0.	112.97
4968	8.25	-3.	0.	114.74
4969	8.	-2.75	0.	114.14
4970	8.5	-2.75	0.	114.58
4971	8.25	-1.5	0.	110.57
4972	7.75	-1.5	0.	110.06
4973	8.	-1.75	0.	112.21
4974	8.5	-1.75	0.	110.47
4975	8.25	-2.5	0.	114.
4976	8.5	-2.25	0.	112.18
4977	7.75	-2.5	0.	112.83
4978	8.	-2.25	0.	113.95
4979	7.5	-2.25	0.	109.84
4980	7.5	-1.75	0.	108.78
4981	7.75	-2.	0.	110.93
4982	8.25	-2.	0.	112.11
4983	-4.	7.	0.	98.721
4984	-6.	7.	0.	100.67
4985	-4.	6.	0.	98.51
4986	-6.	6.	0.	101.08
4987	-4.5	7.	0.	115.62
4988	-5.	7.	0.	114.54
4989	-5.5	7.	0.	116.6
4990	-4.	6.5	0.	103.51
4991	-6.	6.5	0.	105.94
4992	-5.5	6.	0.	115.37
4993	-5.	6.	0.	112.75
4994	-4.5	6.	0.	113.92
4995	-5.5	6.5	0.	115.09
4996	-5.	6.5	0.	117.
4997	-4.5	6.5	0.	113.58
4998	-4.25	7.	0.	107.11
4999	-4.	6.75	0.	101.09
5000	-5.75	7.	0.	108.6
5001	-6.	6.75	0.	103.3
5002	-4.	6.25	0.	100.99
5003	-4.25	6.	0.	106.19
5004	-6.	6.25	0.	103.5
5005	-5.75	6.	0.	108.19
5006	-4.75	7.	0.	115.08
5007	-4.5	6.75	0.	114.58
5008	-5.25	7.	0.	115.57
5009	-5.	6.75	0.	115.76
5010	-5.5	6.75	0.	115.82
5011	-4.25	6.5	0.	108.53
5012	-5.75	6.5	0.	110.51
5013	-5.25	6.	0.	114.04
5014	-5.5	6.25	0.	115.2
5015	-4.75	6.	0.	113.32
5016	-5.	6.25	0.	114.87
5017	-4.5	6.25	0.	113.73
5018	-5.25	6.5	0.	116.04
5019	-4.75	6.5	0.	115.29
5020	6.	-8.	0.	93.07
5021	4.	-8.	0.	99.72
5022	6.	-9.	0.	94.68
5023	4.	-9.	0.	98.419
5024	5.5	-8.	0.	109.8
5025	5.	-8.	0.	110.36
5026	4.5	-8.	0.	114.14
5027	6.	-8.5	0.	98.594
5028	4.	-8.5	0.	103.59
5029	4.5	-9.	0.	112.44
5030	5.	-9.	0.	109.19
5031	5.5	-9.	0.	109.71
5032	4.5	-8.5	0.	111.84
5033	5.	-8.5	0.	112.84
5034	5.5	-8.5	0.	108.56
5035	5.75	-8.	0.	101.41
5036	6.	-8.25	0.	95.807
5037	4.25	-8.	0.	106.87
5038	4.	-8.25	0.	101.63
5039	6.	-8.75	0.	96.621
5040	5.75	-9.	0.	102.16
5041	4.	-8.75	0.	100.98
5042	4.25	-9.	0.	105.39
5043	5.25	-8.	0.	110.08
5044	5.5	-8.25	0.	109.17
5045	4.75	-8.	0.	112.25
5046	5.	-8.25	0.	111.6
5047	4.5	-8.25	0.	112.97
5048	5.75	-8.5	0.	103.57
5049	4.25	-8.5	0.	107.7
5050	4.75	-9.	0.	110.81
5051	4.5	-8.75	0.	112.12
5052	5.25	-9.	0.	109.44
5053	5.	-8.75	0.	111.01
5054	5.5	-8.75	0.	109.12
5055	4.75	-8.5	0.	112.34
5056	5.25	-8.5	0.	110.7
5057	2.	-8.	0.	99.451
5058	1.	-8.	0.	99.077
5059	2.	-9.	0.	99.282
5060	1.	-9.	0.	99.262
5061	1.5	-8.	0.	114.76
5062	2.	-8.5	0.	104.47
5063	1.	-8.5	0.	104.36
5064	1.5	-9.	0.	114.49
5065	1.5	-8.5	0.	111.94
5066	1.75	-8.	0.	107.09
5067	2.	-8.25	0.	101.95
5068	1.25	-8.	0.	106.9
5069	1.	-8.25	0.	101.71
5070	2.	-8.75	0.	101.87
5071	1.75	-9.	0.	106.87
5072	1.	-8.75	0.	101.8
5073	1.25	-9.	0.	106.86
5074	1.5	-8.25	0.	113.3
5075	1.75	-8.5	0.	108.18
5076	1.25	-8.5	0.	108.13
5077	1.5	-8.75	0.	113.17
5078	5.	9.	0.	99.684
5079	4.	9.	0.	99.588
5080	5.	8.	0.	98.766
5081	4.	8.	0.	99.85
5082	4.5	9.	0.	116.5
5083	5.	8.5	0.	104.6
5084	4.	8.5	0.	104.97
5085	4.5	8.	0.	115.21
5086	4.5	8.5	0.	113.1
5087	4.75	9.	0.	108.07
5088	5.	8.75	0.	102.13
5089	4.25	9.	0.	108.
5090	4.	8.75	0.	102.27
5091	5.	8.25	0.	101.66
5092	4.75	8.	0.	106.97
5093	4.	8.25	0.	102.4
5094	4.25	8.	0.	107.52
5095	4.5	8.75	0.	114.74
5096	4.75	8.5	0.	108.82
5097	4.25	8.5	0.	109.01
5098	4.5	8.25	0.	114.11
5099	2.	-4.	0.	98.824
5100	1.	-4.	0.	99.063
5101	2.	-5.	0.	98.267
5102	1.	-5.	0.	98.941
5103	1.5	-4.	0.	114.65
5104	2.	-4.5	0.	103.78
5105	1.	-4.5	0.	104.07
5106	1.5	-5.	0.	114.13
5107	1.5	-4.5	0.	111.55
5108	1.75	-4.	0.	106.72
5109	2.	-4.25	0.	101.29
5110	1.25	-4.	0.	106.83
5111	1.	-4.25	0.	101.56
5112	2.	-4.75	0.	101.01
5113	1.75	-5.	0.	106.18
5114	1.	-4.75	0.	101.5
5115	1.25	-5.	0.	106.52
5116	1.5	-4.25	0.	113.05
5117	1.75	-4.5	0.	107.64
5118	1.25	-4.5	0.	107.79
5119	1.5	-4.75	0.	112.79
5120	-7.	6.	0.	99.039
5121	-8.	6.	0.	97.058
5122	-7.	4.	0.	98.765
5123	-8.	4.	0.	97.029
5124	-7.5	6.	0.	112.04
5125	-7.	5.5	0.	104.35
5126	-7.	5.	0.	104.01
5127	-7.	4.5	0.	104.26
5128	-8.	5.5	0.	102.37
5129	-8.	5.	0.	101.7
5130	-8.	4.5	0.	102.27
5131	-7.5	4.	0.	111.84
5132	-7.5	5.5	0.	108.
5133	-7.5	5.	0.	106.44
5134	-7.5	4.5	0.	107.9
5135	-7.25	6.	0.	105.51
5136	-7.	5.75	0.	101.69
5137	-7.75	6.	0.	104.5
5138	-8.	5.75	0.	99.712
5139	-7.	4.25	0.	101.5
5140	-7.25	4.	0.	105.27
5141	-8.	4.25	0.	99.65
5142	-7.75	4.	0.	104.39
5143	-7.5	5.75	0.	109.96
5144	-7.	5.25	0.	104.16
5145	-7.25	5.5	0.	106.14
5146	-7.	4.75	0.	104.11
5147	-7.25	5.	0.	105.23
5148	-7.25	4.5	0.	106.05
5149	-8.	5.25	0.	101.98
5150	-7.75	5.5	0.	105.15
5151	-8.	4.75	0.	101.93
5152	-7.75	5.	0.	104.07
5153	-7.75	4.5	0.	105.05
5154	-7.5	4.25	0.	109.81
5155	-7.5	5.25	0.	107.22
5156	-7.5	4.75	0.	107.17
5157	-3.	-5.	0.	97.914
5158	-4.	-5.	0.	96.12
5159	-3.	-6.	0.	101.52
5160	-4.	-6.	0.	95.389
5161	-3.5	-5.	0.	112.44
5162	-3.	-5.5	0.	104.84
5163	-4.	-5.5	0.	100.92
5164	-3.5	-6.	0.	115.55
5165	-3.5	-5.5	0.	111.05
5166	-3.25	-5.	0.	105.14
5167	-3.	-5.25	0.	101.36
5168	-3.75	-5.	0.	104.28
5169	-4.	-5.25	0.	98.506
5170	-3.	-5.75	0.	103.17
5171	-3.25	-6.	0.	108.51
5172	-4.	-5.75	0.	98.112
5173	-3.75	-6.	0.	105.41
5174	-3.5	-5.25	0.	111.68
5175	-3.25	-5.5	0.	107.91
5176	-3.75	-5.5	0.	105.95
5177	-3.5	-5.75	0.	113.26
5178	8.	3.	0.	96.976
5179	6.	3.	0.	98.744
5180	8.	2.	0.	93.951
5181	6.	2.	0.	98.852
5182	7.5	3.	0.	110.06
5183	7.	3.	0.	108.64
5184	6.5	3.	0.	111.38
5185	8.	2.5	0.	100.22
5186	6.	2.5	0.	103.52
5187	6.5	2.	0.	113.6
5188	7.	2.	0.	111.26
5189	7.5	2.	0.	112.22
5190	6.5	2.5	0.	111.45
5191	7.	2.5	0.	113.03
5192	7.5	2.5	0.	109.73
5193	7.75	3.	0.	103.5
5194	8.	2.75	0.	98.585
5195	6.25	3.	0.	105.04
5196	6.	2.75	0.	101.12
5197	8.	2.25	0.	97.055
5198	7.75	2.	0.	103.02
5199	6.	2.25	0.	101.18
5200	6.25	2.	0.	106.16
5201	7.25	3.	0.	109.33
5202	7.5	2.75	0.	109.89
5203	6.75	3.	0.	109.98
5204	7.	2.75	0.	110.83
5205	6.5	2.75	0.	111.4
5206	7.75	2.5	0.	104.97
5207	6.25	2.5	0.	107.48
5208	6.75	2.	0.	112.43
5209	6.5	2.25	0.	112.5
5210	7.25	2.	0.	111.74
5211	7.	2.25	0.	112.13
5212	7.5	2.25	0.	110.96
5213	6.75	2.5	0.	112.23
5214	7.25	2.5	0.	111.37
5215	-4.	4.	0.	98.344
5216	-6.	4.	0.	100.88
5217	-4.	3.	0.	99.047
5218	-6.	3.	0.	100.08
5219	-4.5	4.	0.	113.88
5220	-5.	4.	0.	112.66
5221	-5.5	4.	0.	115.18
5222	-4.	3.5	0.	103.52
5223	-6.	3.5	0.	105.58
5224	-5.5	3.	0.	116.21
5225	-5.	3.	0.	114.45
5226	-4.5	3.	0.	115.82
5227	-5.5	3.5	0.	114.81
5228	-5.	3.5	0.	116.92
5229	-4.5	3.5	0.	113.64
5230	-4.25	4.	0.	106.09
5231	-4.	3.75	0.	100.91
5232	-5.75	4.	0.	108.
5233	-6.	3.75	0.	103.22
5234	-4.	3.25	0.	101.26
5235	-4.25	3.	0.	107.37
5236	-6.	3.25	0.	102.82
5237	-5.75	3.	0.	108.11
5238	-4.75	4.	0.	113.26
5239	-4.5	3.75	0.	113.74
5240	-5.25	4.	0.	113.91
5241	-5.	3.75	0.	114.78
5242	-5.5	3.75	0.	114.97
5243	-4.25	3.5	0.	108.57
5244	-5.75	3.5	0.	110.19
5245	-5.25	3.	0.	115.32
5246	-5.5	3.25	0.	115.49
5247	-4.75	3.	0.	115.13
5248	-5.	3.25	0.	115.68
5249	-4.5	3.25	0.	114.71
5250	-5.25	3.5	0.	115.86
5251	-4.75	3.5	0.	115.27
5252	-4.	-7.	0.	94.965
5253	-6.	-7.	0.	96.848
5254	-4.	-9.	0.	95.268
5255	-6.	-9.	0.	95.426
5256	-4.5	-7.	0.	111.65
5257	-5.	-7.	0.	109.45
5258	-5.5	-7.	0.	111.51
5259	-4.	-7.5	0.	99.65
5260	-4.	-8.	0.	98.146
5261	-4.	-8.5	0.	99.043
5262	-6.	-7.5	0.	100.87
5263	-6.	-8.	0.	98.963
5264	-6.	-8.5	0.	99.496
5265	-5.5	-9.	0.	107.27
5266	-5.	-9.	0.	104.38
5267	-4.5	-9.	0.	107.1
5268	-5.	-8.	0.	109.08
5269	-5.5	-8.	0.	106.34
5270	-5.5	-7.5	0.	108.11
5271	-5.	-7.5	0.	110.66
5272	-4.5	-7.5	0.	107.63
5273	-4.5	-8.	0.	105.86
5274	-4.5	-8.5	0.	105.73
5275	-5.	-8.5	0.	107.98
5276	-5.5	-8.5	0.	106.05
5277	-4.25	-7.	0.	103.2
5278	-4.	-7.25	0.	97.278
5279	-5.75	-7.	0.	104.08
5280	-6.	-7.25	0.	98.843
5281	-4.	-8.75	0.	97.15
5282	-4.25	-9.	0.	101.14
5283	-6.	-8.75	0.	97.455
5284	-5.75	-9.	0.	101.3
5285	-4.75	-7.	0.	110.54
5286	-4.5	-7.25	0.	109.61
5287	-5.25	-7.	0.	110.47
5288	-5.	-7.25	0.	110.04
5289	-5.5	-7.25	0.	109.78
5290	-4.	-7.75	0.	98.861
5291	-4.25	-7.5	0.	103.61
5292	-4.	-8.25	0.	98.565
5293	-4.25	-8.	0.	102.
5294	-4.25	-8.5	0.	102.38
5295	-6.	-7.75	0.	99.886
5296	-5.75	-7.5	0.	104.47
5297	-6.	-8.25	0.	99.202
5298	-5.75	-8.	0.	102.65
5299	-5.75	-8.5	0.	102.77
5300	-5.25	-9.	0.	105.82
5301	-5.5	-8.75	0.	106.63
5302	-4.75	-9.	0.	105.74
5303	-5.	-8.75	0.	106.16
5304	-4.5	-8.75	0.	106.39
5305	-5.25	-8.	0.	107.7
5306	-5.	-7.75	0.	109.87
5307	-4.75	-8.	0.	107.46
5308	-5.	-8.25	0.	108.53
5309	-5.5	-7.75	0.	107.21
5310	-5.5	-8.25	0.	106.19
5311	-5.25	-7.5	0.	109.36
5312	-4.75	-7.5	0.	109.11
5313	-4.5	-7.75	0.	106.73
5314	-4.5	-8.25	0.	105.79
5315	-4.75	-8.5	0.	106.85
5316	-5.25	-8.5	0.	107.01
5317	4.	1.	0.	101.22
5318	2.	1.	0.	100.21
5319	4.	0.	0.	100.93
5320	2.	0.	0.	100.31
5321	3.5	1.	0.	117.75
5322	3.	1.	0.	116.02
5323	2.5	1.	0.	117.24
5324	4.	0.5	0.	106.05
5325	2.	0.5	0.	105.29
5326	2.5	0.	0.	117.32
5327	3.	0.	0.	116.06
5328	3.5	0.	0.	117.6
5329	2.5	0.5	0.	115.81
5330	3.	0.5	0.	119.25
5331	3.5	0.5	0.	116.34
5332	3.75	1.	0.	109.44
5333	4.	0.75	0.	103.61
5334	2.25	1.	0.	108.68
5335	2.	0.75	0.	102.72
5336	4.	0.25	0.	103.47
5337	3.75	0.	0.	109.23
5338	2.	0.25	0.	102.77
5339	2.25	0.	0.	108.77
5340	3.25	1.	0.	116.88
5341	3.5	0.75	0.	117.03
5342	2.75	1.	0.	116.63
5343	3.	0.75	0.	117.62
5344	2.5	0.75	0.	116.51
5345	3.75	0.5	0.	111.18
5346	2.25	0.5	0.	110.53
5347	2.75	0.	0.	116.69
5348	2.5	0.25	0.	116.55
5349	3.25	0.	0.	116.83
5350	3.	0.25	0.	117.65
5351	3.5	0.25	0.	116.95
5352	2.75	0.5	0.	117.53
5353	3.25	0.5	0.	117.79
