Node Number	X Location (mm)	Y Location (mm)	Z Location (mm)	Equivalent (von-Mises) Stress (MPa)
1	3.	-5.	0.	130.2
2	3.	-7.	0.	130.72
3	4.	-5.	0.	130.29
4	4.	-7.	0.	129.39
5	-5.	-1.	0.	128.52
6	-5.	-3.	0.	124.91
7	-4.	-1.	0.	129.6
8	-4.	-3.	0.	126.86
9	4.	5.	0.	135.18
10	4.	3.	0.	134.99
11	6.	5.	0.	133.03
12	6.	3.	0.	129.11
13	5.	1.	0.	128.71
14	5.	-1.	0.	132.35
15	7.	1.	0.	135.59
16	7.	-1.	0.	135.17
17	-6.	-5.	0.	133.88
18	-6.	-7.	0.	133.3
19	-4.	-5.	0.	130.93
20	-4.	-7.	0.	132.85
21	-4.	9.	0.	137.71
22	-4.	8.	0.	135.87
23	-2.	9.	0.	138.07
24	-2.	8.	0.	135.91
25	10.	10.	0.	125.
26	-10.	10.	0.	125.
27	10.	-10.	0.	126.2
28	-10.	-10.	0.	130.46
29	3.	-5.5	0.	139.3
30	3.	-6.	0.	139.6
31	3.	-6.5	0.	139.22
32	3.5	-5.	0.	105.99
33	3.5	-7.	0.	105.76
34	4.	-5.5	0.	138.34
35	4.	-6.	0.	138.69
36	4.	-6.5	0.	138.32
37	-5.	-1.5	0.	136.62
38	-5.	-2.	0.	136.24
39	-5.	-2.5	0.	134.83
40	-4.5	-1.	0.	104.68
41	-4.5	-3.	0.	102.05
42	-4.	-1.5	0.	137.8
43	-4.	-2.	0.	137.82
44	-4.	-2.5	0.	137.07
45	4.	4.5	0.	143.44
46	4.	4.	0.	144.69
47	4.	3.5	0.	143.8
48	4.5	5.	0.	112.45
49	5.	5.	0.	116.43
50	5.5	5.	0.	111.89
51	4.5	3.	0.	113.36
52	5.	3.	0.	115.14
53	5.5	3.	0.	108.75
54	6.	4.5	0.	140.9
55	6.	4.	0.	141.22
56	6.	3.5	0.	139.04
57	5.	0.5	0.	138.48
58	5.	0.	0.	140.52
59	5.	-0.5	0.	140.07
60	5.5	1.	0.	108.66
61	6.	1.	0.	115.2
62	6.5	1.	0.	113.56
63	5.5	-1.	0.	111.33
64	6.	-1.	0.	116.23
65	6.5	-1.	0.	112.62
66	7.	0.5	0.	144.34
67	7.	0.	0.	145.19
68	7.	-0.5	0.	143.86
69	-6.	-5.5	0.	142.56
70	-6.	-6.	0.	143.48
71	-6.	-6.5	0.	142.17
72	-5.5	-5.	0.	111.66
73	-5.	-5.	0.	114.29
74	-4.5	-5.	0.	109.41
75	-5.5	-7.	0.	111.46
76	-5.	-7.	0.	115.43
77	-4.5	-7.	0.	111.11
78	-4.	-5.5	0.	140.56
79	-4.	-6.	0.	142.04
80	-4.	-6.5	0.	141.17
81	-4.	8.5	0.	145.14
82	-3.5	9.	0.	121.32
83	-3.	9.	0.	128.1
84	-2.5	9.	0.	121.36
85	-3.5	8.	0.	119.44
86	-3.	8.	0.	125.11
87	-2.5	8.	0.	119.64
88	-2.	8.5	0.	145.38
89	9.5	10.	0.	125.01
90	9.	10.	0.	124.94
91	8.5	10.	0.	124.76
92	8.	10.	0.	124.49
93	7.5	10.	0.	124.14
94	7.	10.	0.	123.76
95	6.5	10.	0.	123.4
96	6.	10.	0.	123.09
97	5.5	10.	0.	122.91
98	5.	10.	0.	122.87
99	4.5	10.	0.	123.01
100	4.	10.	0.	123.3
101	3.5	10.	0.	123.7
102	3.	10.	0.	124.16
103	2.5	10.	0.	124.64
104	2.	10.	0.	125.1
105	1.5	10.	0.	125.55
106	1.	10.	0.	126.01
107	0.5	10.	0.	126.55
108	-5.2042e-015	10.	0.	127.3
109	-0.5	10.	0.	128.3
110	-1.	10.	0.	129.59
111	-1.5	10.	0.	128.93
112	-2.	10.	0.	124.6
113	-2.5	10.	0.	120.45
114	-3.	10.	0.	118.38
115	-3.5	10.	0.	120.32
116	-4.	10.	0.	124.3
117	-4.5	10.	0.	128.48
118	-5.	10.	0.	129.08
119	-5.5	10.	0.	127.75
120	-6.	10.	0.	126.75
121	-6.5	10.	0.	126.05
122	-7.	10.	0.	125.64
123	-7.5	10.	0.	125.38
124	-8.	10.	0.	125.22
125	-8.5	10.	0.	125.11
126	-9.	10.	0.	125.04
127	-9.5	10.	0.	125.01
128	10.	9.5	0.	124.97
129	10.	9.	0.	125.1
130	10.	8.5	0.	125.41
131	10.	8.	0.	125.81
132	10.	7.5	0.	126.2
133	10.	7.	0.	126.49
134	10.	6.5	0.	126.62
135	10.	6.	0.	126.59
136	10.	5.5	0.	126.47
137	10.	5.	0.	126.4
138	10.	4.5	0.	126.53
139	10.	4.	0.	126.98
140	10.	3.5	0.	127.73
141	10.	3.	0.	128.6
142	10.	2.5	0.	129.29
143	10.	2.	0.	129.47
144	10.	1.5	0.	129.04
145	10.	1.	0.	128.17
146	10.	0.5	0.	127.28
147	10.	-5.2042e-015	0.	126.86
148	10.	-0.5	0.	127.12
149	10.	-1.	0.	127.96
150	10.	-1.5	0.	128.99
151	10.	-2.	0.	129.8
152	10.	-2.5	0.	130.14
153	10.	-3.	0.	129.98
154	10.	-3.5	0.	129.45
155	10.	-4.	0.	128.73
156	10.	-4.5	0.	127.98
157	10.	-5.	0.	127.28
158	10.	-5.5	0.	126.7
159	10.	-6.	0.	126.28
160	10.	-6.5	0.	126.02
161	10.	-7.	0.	125.9
162	10.	-7.5	0.	125.88
163	10.	-8.	0.	125.94
164	10.	-8.5	0.	126.03
165	10.	-9.	0.	126.11
166	10.	-9.5	0.	126.18
167	-10.	9.5	0.	124.99
168	-10.	9.	0.	124.92
169	-10.	8.5	0.	124.82
170	-10.	8.	0.	124.74
171	-10.	7.5	0.	124.71
172	-10.	7.	0.	124.74
173	-10.	6.5	0.	124.83
174	-10.	6.	0.	124.96
175	-10.	5.5	0.	125.12
176	-10.	5.	0.	125.29
177	-10.	4.5	0.	125.46
178	-10.	4.	0.	125.64
179	-10.	3.5	0.	125.81
180	-10.	3.	0.	125.98
181	-10.	2.5	0.	126.14
182	-10.	2.	0.	126.28
183	-10.	1.5	0.	126.4
184	-10.	1.	0.	126.48
185	-10.	0.5	0.	126.53
186	-10.	-5.2042e-015	0.	126.55
187	-10.	-0.5	0.	126.56
188	-10.	-1.	0.	126.6
189	-10.	-1.5	0.	126.69
190	-10.	-2.	0.	126.83
191	-10.	-2.5	0.	126.99
192	-10.	-3.	0.	127.08
193	-10.	-3.5	0.	127.04
194	-10.	-4.	0.	126.83
195	-10.	-4.5	0.	126.45
196	-10.	-5.	0.	126.04
197	-10.	-5.5	0.	125.76
198	-10.	-6.	0.	125.77
199	-10.	-6.5	0.	126.14
200	-10.	-7.	0.	126.84
201	-10.	-7.5	0.	127.73
202	-10.	-8.	0.	128.64
203	-10.	-8.5	0.	129.42
204	-10.	-9.	0.	130.
205	-10.	-9.5	0.	130.35
206	-9.5	-10.	0.	129.48
207	-9.	-10.	0.	128.83
208	-8.5	-10.	0.	128.27
209	-8.	-10.	0.	127.57
210	-7.5	-10.	0.	126.49
211	-7.	-10.	0.	124.9
212	-6.5	-10.	0.	122.84
213	-6.	-10.	0.	120.66
214	-5.5	-10.	0.	118.96
215	-5.	-10.	0.	118.32
216	-4.5	-10.	0.	118.98
217	-4.	-10.	0.	120.71
218	-3.5	-10.	0.	122.93
219	-3.	-10.	0.	125.03
220	-2.5	-10.	0.	126.65
221	-2.	-10.	0.	127.71
222	-1.5	-10.	0.	128.3
223	-1.	-10.	0.	128.55
224	-0.5	-10.	0.	128.57
225	5.2042e-015	-10.	0.	128.4
226	0.5	-10.	0.	128.02
227	1.	-10.	0.	127.4
228	1.5	-10.	0.	126.46
229	2.	-10.	0.	125.19
230	2.5	-10.	0.	123.76
231	3.	-10.	0.	122.51
232	3.5	-10.	0.	121.86
233	4.	-10.	0.	122.02
234	4.5	-10.	0.	122.81
235	5.	-10.	0.	123.83
236	5.5	-10.	0.	124.74
237	6.	-10.	0.	125.38
238	6.5	-10.	0.	125.77
239	7.	-10.	0.	125.96
240	7.5	-10.	0.	126.05
241	8.	-10.	0.	126.08
242	8.5	-10.	0.	126.08
243	9.	-10.	0.	126.09
244	9.5	-10.	0.	126.11
245	5.2987e-011	1.	0.	127.24
246	-1.5	2.5	0.	125.52
247	-0.5	1.5	0.	126.86
248	0.5	0.5	0.	127.34
249	-1.	2.	0.	126.26
250	-1.	2.5	0.	125.99
251	-1.5	3.	0.	125.27
252	-3.	3.5	0.	123.71
253	0.5	2.0292e-009	0.	127.19
254	-0.5	3.5	0.	126.05
255	-0.5	2.	0.	126.65
256	-2.5	3.5	0.	124.1
257	-1.	3.5	0.	125.59
258	1.	2.0118e-009	0.	127.13
259	-2.5	3.	0.	124.26
260	2.8853e-007	-2.	0.	127.6
261	1.8623e-010	0.5	0.	127.23
262	3.2461e-011	1.5	0.	127.19
263	-0.5	4.	0.	125.99
264	-3.	4.	0.	123.6
265	-5.	3.5	0.	123.66
266	-7.3537e-011	4.	0.	126.38
267	-2.	2.5	0.	125.01
268	-0.5	1.	0.	127.01
269	0.5	1.	0.	127.48
270	1.9684e-006	-2.5	0.	127.88
271	-1.5	2.	0.	125.83
272	-1.	1.5	0.	126.54
273	1.	0.5	0.	127.42
274	0.5	-2.	0.	127.52
275	0.5	-0.5	0.	127.12
276	-0.5	2.5	0.	126.42
277	-4.	3.5	0.	123.37
278	1.	-0.5	0.	126.97
279	-3.	3.	0.	123.79
280	-4.5	3.	0.	123.19
281	5.4157e-008	-1.5	0.	127.37
282	4.5551e-010	7.7181e-009	0.	127.2
283	-5.1116e-011	3.5	0.	126.45
284	1.5095e-011	2.	0.	127.06
285	-2.5	4.	0.	123.95
286	-1.	4.	0.	125.52
287	-3.5	4.	0.	123.45
288	-5.	3.	0.	123.37
289	-5.	4.	0.	123.93
290	-9.2627e-011	4.5	0.	126.45
291	1.5	2.4508e-009	0.	126.97
292	-2.5	2.5	0.	124.45
293	-0.5	-2.	0.	127.6
294	-0.5	0.5	0.	127.12
295	0.5	1.5	0.	127.56
296	0.5	4.	0.	126.7
297	-0.5	4.5	0.	126.07
298	-3.	4.5	0.	123.44
299	7.8194e-006	-3.	0.	128.13
300	-2.	2.	0.	125.33
301	-1.	1.	0.	126.8
302	1.	1.	0.	127.75
303	0.5	-2.5	0.	127.81
304	1.	-2.	0.	127.34
305	-1.5	1.5	0.	126.18
306	1.5	0.5	0.	127.44
307	1.	-1.5	0.	127.1
308	-4.	3.	0.	123.21
309	6.9852e-009	-1.	0.	127.24
310	1.1816e-009	-0.5	0.	127.19
311	-5.7157e-012	2.5	0.	126.86
312	-4.	4.	0.	123.48
313	-5.5	3.	0.	123.7
314	-5.5	3.5	0.	123.95
315	-5.5	4.5	0.	124.54
316	-1.0161e-010	5.	0.	126.65
317	1.5	-0.5	0.	126.72
318	-0.49988	-4.	0.	128.25
319	-0.5	-2.5	0.	127.91
320	-3.	2.5	0.	123.88
321	-4.5	2.5	0.	122.86
322	-0.5	-1.5	0.	127.37
323	-0.5	1.6795e-008	0.	127.17
324	0.5	3.5	0.	126.83
325	0.5	2.	0.	127.52
326	0.5	4.5	0.	126.74
327	-2.5	4.5	0.	123.78
328	-1.	4.5	0.	125.57
329	-5.	4.5	0.	124.24
330	-3.5	4.5	0.	123.38
331	-0.49873	-5.5001	0.	126.89
332	3.5617e-005	-3.5	0.	128.25
333	2.	1.5314e-009	0.	126.69
334	-6.	2.5	0.	123.96
335	-2.5	2.	0.	124.72
336	-1.	-2.	0.	127.55
337	-1.	0.5	0.	127.
338	1.	4.	0.	127.
339	-0.5	5.	0.	126.29
340	-5.5	5.	0.	124.92
341	-3.	5.	0.	123.18
342	0.50001	-3.	0.	128.09
343	1.5	-2.	0.	127.03
344	1.	-2.5	0.	127.65
345	-2.	1.5	0.	125.72
346	-1.5	1.	0.	126.55
347	1.5	1.	0.	128.04
348	-1.0862e-010	5.5	0.	126.94
349	2.	0.5	0.	127.37
350	0.5	6.	0.	127.26
351	1.6999e-003	-6.	0.	126.6
352	-0.49928	-5.	0.	127.37
353	1.5	-1.5	0.	126.82
354	-0.49999	-3.	0.	128.21
355	-5.5	2.5	0.	123.45
356	-4.	2.5	0.	122.98
357	-0.5	-1.	0.	127.24
358	-0.5	-0.5	0.	127.19
359	0.5	2.5	0.	127.34
360	0.5	5.5	0.	127.14
361	0.5	5.	0.	126.92
362	-1.5	4.5	0.	124.97
363	-4.	4.5	0.	123.56
364	-6.	3.5	0.	124.29
365	-6.	4.5	0.	124.78
366	-6.	5.	0.	125.08
367	-6.	5.5	0.	125.41
368	-0.49807	-6.0001	0.	126.62
369	-0.99797	-6.0001	0.	126.63
370	-0.99871	-5.5001	0.	126.96
371	1.2216e-004	-4.	0.	128.14
372	1.116e-003	-5.5	0.	126.85
373	2.	-0.5	0.	126.37
374	-0.99986	-4.	0.	128.57
375	-1.	-2.5	0.	127.94
376	-6.	2.	0.	123.88
377	-3.	2.	0.	124.
378	-4.5	2.	0.	122.41
379	-1.	-1.5	0.	127.3
380	-1.	-2.7315e-009	0.	127.13
381	1.	3.5	0.	127.22
382	1.	2.	0.	128.09
383	1.	4.5	0.	127.01
384	-2.5	5.	0.	123.55
385	-1.	5.	0.	125.77
386	-5.	5.	0.	124.61
387	-3.5	5.	0.	123.23
388	1.	6.	0.	127.46
389	0.50003	-3.5	0.	128.25
390	2.	-2.	0.	126.61
391	1.5	-2.5	0.	127.32
392	2.5	8.6061e-010	0.	126.28
393	-2.5	1.5	0.	125.09
394	-1.5	0.5	0.	126.88
395	1.5	1.5	0.	128.57
396	1.5	4.	0.	127.32
397	-0.5	5.5	0.	126.66
398	-5.5	5.5	0.	125.38
399	-3.	5.5	0.	122.76
400	1.	-3.	0.	127.99
401	-6.5	1.5	0.	124.7
402	-2.	1.	0.	126.21
403	2.	1.	0.	128.29
404	-1.0815e-010	6.	0.	127.2
405	-6.	6.	0.	125.71
406	-1.4981	-6.0002	0.	126.61
407	6.5	-6.	0.	124.09
408	0.50138	-6.	0.	126.58
409	2.4438e-003	-6.5	0.	126.65
410	2.5	0.5	0.	127.12
411	0.5	6.5	0.	127.13
412	-0.99965	-4.5001	0.	128.17
413	6.5363e-004	-5.	0.	127.3
414	2.	-1.	0.	126.34
415	2.	-1.5	0.	126.47
416	-0.99999	-3.	0.	128.36
417	-5.	2.	0.	122.63
418	-5.5	2.	0.	123.19
419	-3.5	2.	0.	123.25
420	-4.	2.	0.	122.66
421	-1.	-1.	0.	127.2
422	-1.	-0.5	0.	127.18
423	1.	2.5	0.	127.93
424	1.	5.	0.	127.2
425	-1.5	5.	0.	125.06
426	-4.5	5.	0.	124.15
427	-4.	5.	0.	123.62
428	1.5	6.5	0.	127.54
429	-6.5	2.	0.	124.52
430	-6.5	2.5	0.	124.47
431	-6.5	3.	0.	124.51
432	-6.5	3.5	0.	124.61
433	-6.5	4.5	0.	124.94
434	-6.5	5.5	0.	125.33
435	-6.5	6.	0.	125.45
436	-6.5	6.5	0.	125.41
437	-0.49732	-6.5001	0.	126.66
438	-0.9973	-6.5001	0.	126.65
439	-1.4988	-5.5002	0.	127.06
440	0.50011	-4.	0.	128.2
441	0.50092	-5.5	0.	126.85
442	2.	-2.5	0.	126.74
443	6.5	-5.5	0.	123.86
444	6.5	-4.	0.	123.01
445	2.5	-0.5	0.	125.96
446	2.5	-2.	0.	126.19
447	-1.5	-2.5	0.	127.98
448	-6.	1.5	0.	123.92
449	-3.	1.5	0.	124.22
450	-4.5	1.5	0.	121.76
451	-1.5	-1.5	0.	127.19
452	-1.5	-3.3547e-008	0.	127.11
453	1.5	3.5	0.	127.67
454	1.5	2.	0.	128.83
455	1.5	6.	0.	127.86
456	1.5	4.5	0.	127.31
457	-2.5	5.5	0.	123.23
458	-1.	5.5	0.	126.15
459	-5.	5.5	0.	125.12
460	-3.5	5.5	0.	122.97
461	1.	-3.5	0.	128.29
462	1.5	-3.	0.	127.69
463	6.	-3.5	0.	121.61
464	-6.5	1.	0.	125.07
465	-2.5	1.	0.	125.64
466	-2.	-2.	0.	127.34
467	-2.	0.5	0.	126.72
468	2.	1.5	0.	129.22
469	2.	6.5	0.	127.94
470	2.	4.	0.	127.76
471	-0.5	6.	0.	127.12
472	-5.5	6.	0.	125.93
473	-3.	6.	0.	122.08
474	-1.4975	-6.5002	0.	126.65
475	-1.9983	-6.0002	0.	126.65
476	6.5	-6.5	0.	124.5
477	6.	-6.	0.	124.13
478	3.	6.051e-010	0.	125.82
479	0.50197	-6.5	0.	126.66
480	2.9562e-003	-7.	0.	126.97
481	1.0011	-5.9999	0.	126.66
482	6.	-3.	0.	119.77
483	-6.	6.5	0.	125.88
484	-6.5	7.	0.	125.14
485	-7.	-2.	0.	125.69
486	2.5	1.	0.	128.4
487	-1.0269e-010	6.5	0.	127.27
488	0.5	7.	0.	126.66
489	-1.4996	-4.5001	0.	128.65
490	0.50055	-5.	0.	127.35
491	3.	-2.5	0.	125.26
492	2.5	-2.5	0.	125.97
493	6.5	-4.5	0.	123.51
494	2.5	-1.	0.	126.02
495	2.5	-1.5	0.	126.18
496	-1.5	-3.	0.	128.61
497	-5.5	1.5	0.	122.95
498	-4.	1.5	0.	122.19
499	-1.5	-1.	0.	127.15
500	-1.5	-0.5	0.	127.18
501	1.5	2.5	0.	128.7
502	1.5	5.5	0.	127.83
503	-1.5	5.5	0.	125.3
504	-4.	5.5	0.	123.69
505	1.5	7.	0.	126.94
506	2.5	7.	0.	127.14
507	5.	7.	0.	119.53
508	-7.	0.5	0.	125.9
509	-7.	1.5	0.	125.23
510	-7.	2.5	0.	124.9
511	-7.	4.5	0.	125.07
512	-7.	5.5	0.	125.25
513	-7.	6.	0.	125.25
514	-7.	6.5	0.	125.14
515	7.	-4.5	0.	123.95
516	7.	-5.5	0.	124.15
517	7.	-6.	0.	124.33
518	7.	-6.5	0.	124.64
519	-0.4968	-7.0001	0.	126.97
520	-0.99673	-7.0001	0.	127.
521	-1.9989	-5.5002	0.	127.21
522	1.0001	-4.	0.	128.4
523	1.0007	-5.4999	0.	126.96
524	2.	-3.	0.	126.95
525	3.5	-3.	0.	123.12
526	6.	-5.5	0.	123.9
527	6.	-4.	0.	122.91
528	5.5	-3.	0.	120.31
529	3.	-0.5	0.	125.62
530	3.	-2.	0.	125.99
531	-1.9998	-4.0001	0.	129.93
532	-2.	-2.5	0.	128.01
533	-7.	-2.1718e-009	0.	126.14
534	-7.	-1.5	0.	125.57
535	-6.	1.	0.	124.18
536	-3.	1.	0.	124.66
537	-4.5	1.	0.	120.72
538	-2.	-1.5	0.	127.07
539	-2.	-8.3143e-008	0.	127.13
540	5.5	7.	0.	120.27
541	2.	3.5	0.	128.27
542	2.	2.	0.	129.8
543	2.	6.	0.	128.46
544	2.	4.5	0.	127.73
545	4.5	7.	0.	120.54
546	3.	7.	0.	126.54
547	-2.5	6.	0.	122.76
548	-1.	6.	0.	126.76
549	-5.	6.	0.	125.83
550	-3.5	6.	0.	122.56
551	-1.4968	-7.0002	0.	127.07
552	-1.9977	-6.5002	0.	126.71
553	6.5	-7.	0.	125.02
554	6.	-6.5	0.	124.6
555	3.	0.5	0.	126.67
556	0.50238	-7.	0.	127.02
557	7.	-7.	0.	125.04
558	7.	-3.5	0.	123.44
559	1.0015	-6.5	0.	126.75
560	5.5	-3.5	0.	122.07
561	3.5	-2.5	0.	124.92
562	6.5	-3.	0.	120.83
563	-6.5	0.5	0.	125.61
564	-2.5	0.5	0.	126.38
565	2.5	6.5	0.	128.23
566	-7.	7.	0.	124.89
567	-5.5	6.5	0.	126.47
568	-6.	7.	0.	125.71
569	7.	7.	0.	126.03
570	-7.	-2.5	0.	126.32
571	-2.4986	-6.0002	0.	126.99
572	5.5	-6.	0.	124.73
573	1.5008	-5.9999	0.	127.07
574	6.	-2.5	0.	117.3
575	3.5	5.7915e-010	0.	125.65
576	-2.5	-2.	0.	127.4
577	-6.5	-2.	0.	125.34
578	5.	6.5	0.	117.3
579	2.5	1.5	0.	129.86
580	2.5	4.	0.	128.58
581	-9.2552e-011	7.	0.	126.95
582	-0.5	6.5	0.	127.58
583	-3.	6.5	0.	121.02
584	-1.9993	-5.0002	0.	128.27
585	-1.9996	-4.5001	0.	129.35
586	1.0004	-4.9999	0.	127.58
587	3.	-3.	0.	124.09
588	2.5	-3.	0.	125.64
589	4.	-3.	0.	122.99
590	6.	-4.5	0.	123.61
591	4.5	-3.	0.	122.82
592	5.	-3.	0.	121.74
593	3.	-1.	0.	125.89
594	3.	-1.5	0.	126.16
595	-2.	-3.	0.	128.95
596	-7.	-0.5	0.	126.11
597	-7.	-1.	0.	125.83
598	-5.5	1.	0.	122.8
599	-3.5	1.	0.	123.16
600	-4.	1.	0.	121.52
601	-2.	-1.	0.	127.15
602	-2.	-0.5	0.	127.26
603	6.	7.	0.	122.3
604	2.	2.5	0.	129.75
605	2.	5.5	0.	128.49
606	2.	5.	0.	128.12
607	4.	7.	0.	122.75
608	3.5	7.	0.	125.04
609	-1.5	6.	0.	125.8
610	-4.	6.	0.	123.83
611	-1.9972	-7.0002	0.	127.29
612	6.	-7.	0.	125.25
613	3.	1.	0.	128.2
614	-3.	7.	0.	119.65
615	-0.5	7.	0.	127.69
616	3.	4.	0.	130.52
617	3.	1.5	0.	130.13
618	7.	4.	0.	127.64
619	5.	6.	0.	114.32
620	-6.	-2.	0.	125.94
621	-3.	-2.	0.	128.22
622	4.	5.0813e-010	0.	126.74
623	6.	-2.	0.	114.18
624	2.0005	-6.	0.	128.49
625	5.	-6.	0.	126.54
626	-7.	-6.	0.	129.58
627	-7.	-3.	0.	127.53
628	-7.	-3.5	0.	129.14
629	-7.7553e-011	7.5	0.	126.1
630	0.5	7.5	0.	125.89
631	1.	7.5	0.	126.01
632	1.5	7.5	0.	126.22
633	2.	7.5	0.	126.36
634	2.5	7.5	0.	126.22
635	3.5	7.5	0.	124.5
636	4.	7.5	0.	123.01
637	4.5	7.5	0.	121.67
638	5.	7.5	0.	121.07
639	5.5	7.5	0.	121.5
640	6.	7.5	0.	122.7
641	6.5	7.5	0.	124.13
642	7.	7.5	0.	125.29
643	7.5	7.5	0.	125.99
644	7.5	7.	0.	126.73
645	7.5	6.5	0.	127.61
646	7.5	4.	0.	126.61
647	7.5	3.5	0.	127.04
648	3.5	0.5	0.	126.26
649	-5.5	7.	0.	126.7
650	-7.5	-3.5	0.	129.1
651	-7.5	-3.	0.	127.89
652	-7.5	-2.5	0.	126.85
653	-7.5	-2.	0.	126.18
654	-7.5	-1.5	0.	125.92
655	-7.5	-1.	0.	125.96
656	-7.5	-0.5	0.	126.09
657	-7.5	-6.9414e-009	0.	126.13
658	-7.5	0.5	0.	126.02
659	-7.5	1.	0.	125.8
660	-7.5	1.5	0.	125.57
661	-7.5	2.	0.	125.37
662	-7.5	2.5	0.	125.23
663	-7.5	3.	0.	125.15
664	-7.5	3.5	0.	125.13
665	-7.5	4.	0.	125.14
666	-7.5	4.5	0.	125.17
667	-7.5	5.	0.	125.19
668	-7.5	5.5	0.	125.19
669	-7.5	6.	0.	125.14
670	-7.5	6.5	0.	125.01
671	-7.5	7.	0.	124.81
672	-7.5	7.5	0.	124.6
673	-7.	7.5	0.	124.55
674	-6.5	7.5	0.	124.65
675	-6.	7.5	0.	125.07
676	-6.5	-2.5	0.	125.68
677	-3.5	6.5	0.	121.93
678	-5.	6.5	0.	126.83
679	-1.	6.5	0.	127.67
680	-2.5	6.5	0.	122.09
681	3.	6.5	0.	127.93
682	4.5	6.5	0.	119.01
683	2.5	4.5	0.	128.53
684	2.5	6.	0.	129.16
685	2.5	2.	0.	130.98
686	2.5	3.5	0.	129.25
687	7.5	4.5	0.	126.88
688	5.5	6.5	0.	118.63
689	7.	6.5	0.	127.19
690	-2.5	-1.3331e-007	0.	127.12
691	-2.5	-1.5	0.	127.14
692	-6.	0.5	0.	124.83
693	-4.5	0.5	0.	118.98
694	-6.5	-1.5	0.	125.45
695	-6.5	-2.9101e-009	0.	126.17
696	-2.5	-2.5	0.	128.13
697	6.5	-2.5	0.	119.14
698	3.5	-2.	0.	126.19
699	3.5	-0.5	0.	125.7
700	5.5	-2.5	0.	118.35
701	4.	-2.5	0.	124.76
702	5.5	-4.	0.	123.53
703	5.5	-5.5	0.	124.54
704	5.	-3.5	0.	122.87
705	2.	-3.5	0.	127.47
706	3.5	-3.5	0.	120.78
707	1.5005	-5.4999	0.	127.39
708	1.5001	-4.	0.	128.61
709	1.501	-6.5	0.	127.15
710	5.5	-6.5	0.	125.18
711	7.	-3.	0.	123.11
712	7.5	-3.	0.	125.53
713	7.5	-3.5	0.	125.03
714	7.5	-4.5	0.	124.69
715	7.5	-5.	0.	124.63
716	7.5	-5.5	0.	124.64
717	7.5	-6.	0.	124.74
718	7.5	-6.5	0.	124.94
719	7.5	-7.	0.	125.21
720	7.5	-7.5	0.	125.5
721	7.	-7.5	0.	125.44
722	6.5	-7.5	0.	125.51
723	6.	-7.5	0.	125.79
724	-2.4998	-4.0001	0.	130.83
725	-2.4991	-5.5002	0.	127.6
726	-7.5	-5.5	0.	128.41
727	-7.5	-4.	0.	130.03
728	-7.5	-6.5	0.	128.02
729	-2.4982	-6.5002	0.	127.11
730	1.0018	-7.	0.	127.19
731	1.0019	-7.5	0.	127.66
732	3.1834e-003	-7.5001	0.	127.42
733	-0.49642	-7.5001	0.	127.43
734	-0.99624	-7.5001	0.	127.49
735	-1.4963	-7.5002	0.	127.64
736	-1.9967	-7.5002	0.	127.94
737	-2.4977	-7.0002	0.	127.75
738	-7.5	-7.5	0.	129.11
739	-7.5	-4.5	0.	130.16
740	-7.5	-5.	0.	129.32
741	-2.4997	-4.5001	0.	130.21
742	5.5	-7.5	0.	126.34
743	5.5	-7.	0.	125.79
744	1.5014	-7.5	0.	128.02
745	1.5002	-4.5	0.	128.62
746	1.5003	-4.9999	0.	128.
747	3.	-3.5	0.	122.62
748	2.5	-3.5	0.	125.52
749	5.5	-5.	0.	124.49
750	5.5	-4.5	0.	124.39
751	4.5	-2.5	0.	123.74
752	5.	-2.5	0.	121.24
753	3.5	-1.5	0.	126.64
754	7.	-2.5	0.	122.99
755	7.5	-2.5	0.	126.6
756	-2.5	-3.	0.	129.27
757	-6.5	-0.5	0.	126.32
758	-6.5	-1.	0.	125.86
759	-5.5	0.5	0.	122.93
760	-3.5	0.5	0.	123.46
761	-4.	0.5	0.	120.6
762	-2.5	-1.	0.	127.26
763	-2.5	-0.5	0.	127.48
764	6.	6.5	0.	122.07
765	7.5	5.5	0.	128.38
766	2.5	2.5	0.	131.18
767	2.5	5.	0.	128.96
768	4.	6.5	0.	122.73
769	3.5	6.5	0.	126.16
770	-1.5	6.5	0.	126.74
771	-4.	6.5	0.	124.18
772	-7.	-6.5	0.	129.02
773	-2.9994	-5.5002	0.	128.31
774	2.0007	-6.5	0.	127.95
775	5.	-5.5	0.	125.81
776	4.	-0.5	0.	126.49
777	6.5	-2.	0.	117.05
778	-6.	-2.5	0.	125.2
779	-3.	-1.5	0.	127.5
780	5.5	2.	0.	110.46
781	3.	3.5	0.	130.65
782	4.5	6.	0.	117.05
783	-2.5	7.	0.	121.12
784	-5.5	7.5	0.	126.13
785	3.5	1.	0.	127.52
786	-6.5	-3.	0.	126.55
787	-6.5	-3.5	0.	127.94
788	-2.9987	-6.5002	0.	128.01
789	-7.	-5.5	0.	129.55
790	-7.	-4.	0.	130.89
791	2.0003	-5.4999	0.	128.2
792	2.	-4.	0.	128.53
793	3.5	-4.	0.	117.15
794	5.	-4.	0.	124.55
795	5.5	-2.	0.	116.1
796	4.	-2.	0.	126.72
797	4.	0.5	0.	126.23
798	-3.	-2.5	0.	128.29
799	-2.9998	-4.0001	0.	131.31
800	-4.5	-4.	0.	109.35
801	-6.	-1.5	0.	125.77
802	-6.	-4.2923e-009	0.	126.01
803	-4.5	-1.1653e-008	0.	115.73
804	-3.	-1.557e-007	0.	126.88
805	5.5	6.	0.	116.5
806	7.	6.	0.	128.73
807	7.	3.5	0.	126.95
808	7.5	2.5	0.	129.86
809	3.5	1.5	0.	129.31
810	3.	2.	0.	132.12
811	3.	4.5	0.	129.82
812	3.	6.	0.	129.73
813	-1.	7.	0.	128.79
814	-3.5	7.	0.	121.03
815	-5.	7.	0.	128.04
816	-0.5	7.5	0.	126.97
817	-0.5	8.	0.	125.35
818	-5.6478e-011	8.	0.	124.96
819	0.5	8.	0.	125.07
820	1.	8.	0.	125.35
821	1.5	8.	0.	125.59
822	2.	8.	0.	125.69
823	2.5	8.	0.	125.54
824	3.5	8.	0.	124.27
825	4.	8.	0.	123.32
826	4.5	8.	0.	122.5
827	5.	8.	0.	122.14
828	5.5	8.	0.	122.38
829	6.	8.	0.	123.1
830	6.5	8.	0.	124.01
831	7.	8.	0.	124.83
832	7.5	8.	0.	125.41
833	8.	8.	0.	125.72
834	8.	7.5	0.	126.27
835	8.	7.	0.	126.88
836	8.	6.5	0.	127.45
837	8.	6.	0.	127.78
838	8.	5.	0.	127.2
839	8.	4.5	0.	126.73
840	8.	4.	0.	126.75
841	8.	3.5	0.	127.43
842	8.	3.	0.	128.82
843	8.	2.5	0.	130.66
844	8.	2.	0.	132.64
845	8.	0.5	0.	131.42
846	8.	-1.294e-012	0.	131.37
847	8.	-0.5	0.	130.72
848	8.	-2.	0.	130.43
849	8.	-2.5	0.	128.6
850	8.	-3.	0.	127.25
851	8.	-3.5	0.	126.4
852	8.	-4.	0.	125.86
853	8.	-4.5	0.	125.53
854	8.	-5.5	0.	125.22
855	8.	-6.	0.	125.21
856	8.	-6.5	0.	125.3
857	8.	-7.	0.	125.45
858	8.	-7.5	0.	125.63
859	8.	-8.	0.	125.8
860	7.5	-8.	0.	125.74
861	7.	-8.	0.	125.73
862	6.5	-8.	0.	125.82
863	6.	-8.	0.	126.
864	5.5	-8.	0.	126.23
865	5.	-8.	0.	126.26
866	3.5002	-8.	0.	116.37
867	2.0009	-8.0001	0.	127.67
868	1.5013	-8.0001	0.	127.9
869	1.0019	-8.0001	0.	127.88
870	0.5025	-8.0001	0.	127.84
871	3.1074e-003	-8.0001	0.	127.84
872	-0.49643	-8.0001	0.	127.88
873	-0.99619	-8.0001	0.	127.96
874	-1.4963	-8.0001	0.	128.09
875	-1.9967	-8.0001	0.	128.29
876	-2.4973	-8.0001	0.	128.5
877	-2.998	-8.	0.	128.54
878	-4.4994	-8.	0.	115.31
879	-4.9996	-8.	0.	112.88
880	-5.4998	-8.	0.	115.38
881	-7.	-8.	0.	128.89
882	-7.5	-8.	0.	128.88
883	-8.	-8.	0.	128.66
884	-8.	-7.5	0.	128.53
885	-8.	-7.	0.	128.03
886	-8.	-6.5	0.	127.51
887	-8.	-6.	0.	127.38
888	-8.	-5.5	0.	127.72
889	-8.	-5.	0.	128.42
890	-8.	-4.5	0.	129.
891	-8.	-4.	0.	129.08
892	-8.	-3.5	0.	128.61
893	-8.	-3.	0.	127.84
894	-8.	-2.	0.	126.52
895	-8.	-1.5	0.	126.23
896	-8.	-1.	0.	126.15
897	-8.	-0.5	0.	126.17
898	-8.	-1.393e-008	0.	126.18
899	-8.	0.5	0.	126.1
900	-8.	1.	0.	125.96
901	-8.	1.5	0.	125.78
902	-8.	2.	0.	125.62
903	-8.	2.5	0.	125.48
904	-8.	3.	0.	125.38
905	-8.	3.5	0.	125.31
906	-8.	4.	0.	125.27
907	-8.	4.5	0.	125.25
908	-8.	5.	0.	125.22
909	-8.	5.5	0.	125.17
910	-8.	6.	0.	125.09
911	-8.	6.5	0.	124.97
912	-8.	7.	0.	124.82
913	-8.	7.5	0.	124.7
914	-8.	8.	0.	124.64
915	-7.5	8.	0.	124.48
916	-7.	8.	0.	124.29
917	-6.5	8.	0.	124.13
918	-6.	8.	0.	124.16
919	-5.5	8.	0.	124.69
920	-5.	8.	0.	126.53
921	-5.	7.5	0.	128.34
922	-4.	7.	0.	124.87
923	-2.	7.	0.	125.12
924	-1.5	7.	0.	128.59
925	-1.	7.5	0.	129.
926	-1.	8.	0.	127.06
927	4.	6.	0.	123.16
928	3.5	6.	0.	128.48
929	3.	5.5	0.	130.86
930	3.	5.	0.	130.5
931	3.	3.	0.	132.11
932	3.	2.5	0.	133.07
933	4.	2.	0.	126.68
934	6.5	2.	0.	120.12
935	7.	3.	0.	127.52
936	7.	5.	0.	128.8
937	7.	5.5	0.	129.56
938	6.5	6.	0.	127.4
939	6.	6.	0.	122.22
940	-3.	-0.5	0.	127.95
941	-3.5	-1.1328e-007	0.	124.91
942	-4.	-3.7052e-008	0.	119.38
943	-5.	-2.8044e-009	0.	118.93
944	-5.5	-2.883e-009	0.	124.18
945	-6.	-0.5	0.	126.86
946	-6.	-1.	0.	126.49
947	-6.	-3.5	0.	125.44
948	-5.5	-4.	0.	117.33
949	-5.	-4.	0.	110.37
950	-3.	-3.	0.	129.55
951	7.5	-2.	0.	128.9
952	8.	-1.	0.	131.37
953	8.	1.5	0.	133.65
954	7.5	2.	0.	131.98
955	7.	2.	0.	127.15
956	4.5	2.	0.	119.8
957	4.	1.	0.	126.92
958	4.	-1.5	0.	127.87
959	4.5	-2.	0.	125.9
960	5.	-2.	0.	121.34
961	5.	-5.	0.	126.01
962	5.	-4.5	0.	125.86
963	4.	-4.	0.	119.96
964	3.	-4.	0.	120.89
965	2.5	-4.	0.	126.55
966	2.0001	-4.5	0.	129.33
967	2.0002	-5.	0.	128.92
968	2.0009	-7.5	0.	128.63
969	3.0003	-8.	0.	120.12
970	4.0001	-8.	0.	119.44
971	5.	-7.5	0.	127.22
972	5.	-7.	0.	126.95
973	-2.9996	-5.0002	0.	129.63
974	-2.9997	-4.5001	0.	130.95
975	-3.4999	-4.0001	0.	128.07
976	-3.9999	-4.	0.	117.76
977	-6.	-4.	0.	124.7
978	-6.5	-4.	0.	129.88
979	-7.	-5.	0.	130.84
980	-7.	-7.	0.	129.75
981	-7.	-7.5	0.	130.08
982	-5.9999	-8.	0.	121.45
983	-3.4986	-8.	0.	126.82
984	-2.9984	-7.0002	0.	128.91
985	-8.	8.5	0.	124.71
986	-7.5	8.5	0.	124.54
987	-7.	8.5	0.	124.29
988	-6.5	8.5	0.	123.97
989	-6.	8.5	0.	123.63
990	-5.5	8.5	0.	123.64
991	-5.	8.5	0.	124.09
992	-8.5	-8.	0.	128.48
993	-8.5	-7.5	0.	128.2
994	-8.5	-6.5	0.	127.34
995	-8.5	-5.5	0.	127.37
996	-8.5	-5.	0.	127.77
997	-8.5	-4.5	0.	128.14
998	-8.5	-4.	0.	128.25
999	-8.5	-3.5	0.	128.04
1000	-8.5	-3.	0.	127.6
1001	-8.5	-2.5	0.	127.12
1002	-8.5	-2.	0.	126.71
1003	-8.5	-1.5	0.	126.46
1004	-8.5	-1.	0.	126.34
1005	-8.5	-0.5	0.	126.29
1006	-8.5	-1.293e-008	0.	126.25
1007	-8.5	0.5	0.	126.18
1008	-8.5	1.	0.	126.07
1009	-8.5	1.5	0.	125.94
1010	-8.5	2.	0.	125.8
1011	-8.5	2.5	0.	125.66
1012	-8.5	3.	0.	125.55
1013	-8.5	3.5	0.	125.46
1014	-8.5	4.	0.	125.38
1015	-8.5	4.5	0.	125.32
1016	-8.5	5.	0.	125.25
1017	-8.5	5.5	0.	125.17
1018	-8.5	6.	0.	125.07
1019	-8.5	6.5	0.	124.97
1020	-8.5	7.	0.	124.86
1021	-8.5	7.5	0.	124.78
1022	-8.5	8.	0.	124.76
1023	-8.5	8.5	0.	124.81
1024	8.	-8.5	0.	125.93
1025	7.5	-8.5	0.	125.91
1026	7.	-8.5	0.	125.9
1027	6.5	-8.5	0.	125.91
1028	6.	-8.5	0.	125.89
1029	5.5	-8.5	0.	125.7
1030	5.	-8.5	0.	124.99
1031	4.5	-8.5	0.	123.16
1032	4.0001	-8.5	0.	120.61
1033	3.5001	-8.5	0.	119.42
1034	3.0002	-8.5	0.	121.19
1035	2.5004	-8.5001	0.	124.2
1036	2.0007	-8.5001	0.	126.38
1037	1.5011	-8.5001	0.	127.38
1038	1.0015	-8.5001	0.	127.81
1039	0.50206	-8.5001	0.	128.01
1040	2.6049e-003	-8.5001	0.	128.14
1041	-0.49695	-8.5001	0.	128.22
1042	-0.99671	-8.5001	0.	128.29
1043	-1.4967	-8.5001	0.	128.31
1044	-1.997	-8.5	0.	128.25
1045	-2.4975	-8.5	0.	127.93
1046	-2.9981	-8.5	0.	126.98
1047	-3.4986	-8.5	0.	124.62
1048	-3.999	-8.5	0.	120.81
1049	-4.4994	-8.5	0.	116.99
1050	-5.4997	-8.5	0.	117.02
1051	-5.9999	-8.5	0.	120.87
1052	-6.4999	-8.5	0.	124.73
1053	-7.	-8.5	0.	127.12
1054	-7.5	-8.5	0.	128.08
1055	-8.	-8.5	0.	128.41
1056	-8.5	-8.5	0.	128.53
1057	8.5	8.	0.	125.85
1058	8.5	7.5	0.	126.31
1059	8.5	7.	0.	126.77
1060	8.5	6.5	0.	127.15
1061	8.5	6.	0.	127.33
1062	8.5	5.5	0.	127.27
1063	8.5	5.	0.	127.04
1064	8.5	4.5	0.	126.9
1065	8.5	3.5	0.	127.81
1066	8.5	3.	0.	128.96
1067	8.5	2.5	0.	130.33
1068	8.5	2.	0.	131.45
1069	8.5	1.5	0.	131.76
1070	8.5	1.	0.	131.04
1071	8.5	0.5	0.	130.16
1072	8.5	-6.6501e-013	0.	129.62
1073	8.5	-0.5	0.	129.63
1074	8.5	-1.	0.	130.04
1075	8.5	-4.5	0.	126.3
1076	8.5	-5.	0.	125.99
1077	8.5	-5.5	0.	125.79
1078	8.5	-6.	0.	125.68
1079	8.5	-6.5	0.	125.65
1080	8.5	-7.	0.	125.7
1081	8.5	-7.5	0.	125.79
1082	8.5	-8.	0.	125.88
1083	8.5	-8.5	0.	125.97
1084	-1.	8.5	0.	124.47
1085	-0.5	8.5	0.	124.12
1086	-3.6546e-011	8.5	0.	124.21
1087	0.5	8.5	0.	124.61
1088	1.	8.5	0.	124.98
1089	1.5	8.5	0.	125.2
1090	2.	8.5	0.	125.25
1091	2.5	8.5	0.	125.1
1092	3.	8.5	0.	124.73
1093	3.5	8.5	0.	124.18
1094	4.	8.5	0.	123.57
1095	4.5	8.5	0.	123.08
1096	5.	8.5	0.	122.86
1097	5.5	8.5	0.	122.98
1098	6.	8.5	0.	123.41
1099	6.5	8.5	0.	123.97
1100	7.	8.5	0.	124.53
1101	7.5	8.5	0.	124.96
1102	8.	8.5	0.	125.25
1103	8.5	8.5	0.	125.42
1104	9.	8.5	0.	125.5
1105	9.	8.	0.	125.87
1106	9.	7.5	0.	126.24
1107	9.	7.	0.	126.58
1108	9.	6.5	0.	126.85
1109	9.	6.	0.	126.99
1110	9.	5.5	0.	127.01
1111	9.	5.	0.	126.98
1112	9.	4.5	0.	127.05
1113	9.	4.	0.	127.35
1114	9.	3.5	0.	127.96
1115	9.	3.	0.	128.8
1116	9.	2.5	0.	129.67
1117	9.	2.	0.	130.27
1118	9.	1.5	0.	130.33
1119	9.	1.	0.	129.87
1120	9.	0.5	0.	129.24
1121	9.	1.4769e-013	0.	128.88
1122	9.	-0.5	0.	128.93
1123	9.	-1.	0.	129.31
1124	9.	-1.5	0.	129.66
1125	9.	-2.	0.	129.64
1126	9.	-2.5	0.	129.24
1127	9.	-3.	0.	128.64
1128	9.	-3.5	0.	128.01
1129	9.	-4.	0.	127.45
1130	9.	-4.5	0.	126.97
1131	9.	-5.5	0.	126.27
1132	9.	-6.	0.	126.07
1133	9.	-6.5	0.	125.95
1134	9.	-7.	0.	125.9
1135	9.	-7.5	0.	125.91
1136	9.	-8.	0.	125.95
1137	9.	-8.5	0.	126.
1138	8.5	-9.	0.	126.03
1139	8.	-9.	0.	126.02
1140	7.5	-9.	0.	126.
1141	7.	-9.	0.	125.96
1142	6.5	-9.	0.	125.87
1143	6.	-9.	0.	125.65
1144	4.5	-9.	0.	122.86
1145	4.	-9.	0.	121.41
1146	3.5001	-9.	0.	120.93
1147	3.0001	-9.	0.	121.93
1148	2.5003	-9.	0.	123.84
1149	2.0004	-9.0001	0.	125.63
1150	1.5007	-9.0001	0.	126.87
1151	1.001	-9.0001	0.	127.62
1152	0.50141	-9.0001	0.	128.05
1153	1.807e-003	-9.0001	0.	128.3
1154	-0.49787	-9.0001	0.	128.43
1155	-0.99768	-9.0001	0.	128.46
1156	-1.4977	-9.	0.	128.35
1157	-1.9978	-9.	0.	128.01
1158	-2.4981	-9.	0.	127.27
1159	-4.4995	-9.	0.	118.14
1160	-4.9997	-9.	0.	117.12
1161	-5.4998	-9.	0.	118.14
1162	-5.9999	-9.	0.	120.67
1163	-6.4999	-9.	0.	123.56
1164	-7.	-9.	0.	125.84
1165	-7.5	-9.	0.	127.25
1166	-8.	-9.	0.	128.01
1167	-8.5	-9.	0.	128.44
1168	-9.	-8.5	0.	128.64
1169	-9.	-8.	0.	128.39
1170	-9.	-7.5	0.	128.02
1171	-9.	-7.	0.	127.58
1172	-9.	-6.5	0.	127.2
1173	-9.	-6.	0.	127.01
1174	-9.	-5.	0.	127.26
1175	-9.	-4.5	0.	127.49
1176	-9.	-4.	0.	127.6
1177	-9.	-3.5	0.	127.53
1178	-9.	-3.	0.	127.32
1179	-9.	-2.5	0.	127.05
1180	-9.	-2.	0.	126.79
1181	-9.	-1.5	0.	126.6
1182	-9.	-1.	0.	126.48
1183	-9.	-0.5	0.	126.41
1184	-9.	-9.0515e-009	0.	126.35
1185	-9.	0.5	0.	126.28
1186	-9.	1.	0.	126.18
1187	-9.	1.5	0.	126.07
1188	-9.	2.	0.	125.95
1189	-9.	2.5	0.	125.82
1190	-9.	3.	0.	125.7
1191	-9.	3.5	0.	125.58
1192	-9.	4.	0.	125.48
1193	-9.	4.5	0.	125.37
1194	-9.	5.	0.	125.27
1195	-9.	5.5	0.	125.17
1196	-9.	6.	0.	125.07
1197	-9.	6.5	0.	124.97
1198	-9.	7.	0.	124.88
1199	-9.	7.5	0.	124.83
1200	-9.	8.	0.	124.82
1201	-9.	8.5	0.	124.86
1202	-8.5	9.	0.	124.93
1203	-8.	9.	0.	124.88
1204	-7.5	9.	0.	124.8
1205	-7.	9.	0.	124.64
1206	-6.5	9.	0.	124.4
1207	-5.5	9.	0.	123.93
1208	8.	9.	0.	124.86
1209	7.5	9.	0.	124.61
1210	7.	9.	0.	124.28
1211	6.5	9.	0.	123.91
1212	6.	9.	0.	123.56
1213	5.5	9.	0.	123.31
1214	4.5	9.	0.	123.4
1215	4.	9.	0.	123.71
1216	3.5	9.	0.	124.12
1217	3.	9.	0.	124.52
1218	2.5	9.	0.	124.84
1219	2.	9.	0.	125.04
1220	1.5	9.	0.	125.12
1221	0.5	9.	0.	124.83
1222	-2.0509e-011	9.	0.	124.51
1223	-0.5	9.	0.	124.29
1224	-3.4988	-7.5	0.	130.81
1225	-6.4999	-7.5	0.	131.33
1226	-6.5	-4.5	0.	133.37
1227	-3.4998	-4.5001	0.	130.72
1228	4.5	-7.5	0.	128.24
1229	2.5006	-7.5	0.	129.42
1230	2.5001	-4.5	0.	129.98
1231	4.5	-1.5	0.	129.8
1232	4.5	1.5	0.	125.64
1233	7.5	1.5	0.	135.58
1234	7.5	-1.5	0.	133.13
1235	-3.4999	-3.5	0.	129.75
1236	-5.5	-3.5	0.	122.87
1237	-5.5	-0.5	0.	127.63
1238	-3.5	-0.5	0.	128.58
1239	6.5	5.5	0.	131.18
1240	6.5	2.5	0.	126.04
1241	3.5	2.5	0.	135.01
1242	3.5	5.5	0.	132.62
1243	-1.	9.	0.	125.33
1244	-1.5	7.5	0.	132.2
1245	-4.5	7.5	0.	131.75
1246	-5.	9.	0.	125.05
1247	9.	-9.	0.	126.05
1248	-9.	-9.	0.	128.77
1249	-9.	9.	0.	124.94
1250	-3.9993	-7.5	0.	123.18
1251	-4.4996	-7.5	0.	111.87
1252	-4.9998	-7.5	0.	111.67
1253	-5.9999	-7.5	0.	123.43
1254	-5.4999	-7.5	0.	112.05
1255	-6.5	-7.	0.	130.8
1256	-6.5	-6.5	0.	133.07
1257	-6.5	-6.	0.	134.8
1258	-6.5	-5.	0.	132.09
1259	-6.5	-5.5	0.	133.49
1260	-6.	-4.5	0.	125.01
1261	-5.5	-4.5	0.	112.46
1262	-5.	-4.5	0.	110.1
1263	-3.9999	-4.5	0.	120.61
1264	-4.5	-4.5	0.	108.94
1265	-3.4998	-5.0001	0.	129.88
1266	-3.4991	-7.0001	0.	129.95
1267	-3.4993	-6.5001	0.	132.07
1268	-3.4995	-6.0001	0.	133.44
1269	-3.4997	-5.5001	0.	131.77
1270	4.0001	-7.5	0.	119.81
1271	3.0003	-7.5	0.	120.76
1272	3.5002	-7.5	0.	108.74
1273	2.5004	-7.	0.	128.91
1274	2.5003	-6.5	0.	131.45
1275	2.5002	-6.	0.	133.02
1276	2.5001	-5.	0.	129.47
1277	2.5002	-5.5	0.	131.39
1278	3.	-4.5	0.	120.82
1279	4.	-4.5	0.	120.48
1280	3.5	-4.5	0.	109.14
1281	4.5	-5.	0.	127.25
1282	4.5	-7.	0.	127.87
1283	4.5	-6.5	0.	129.99
1284	4.5	-6.	0.	131.59
1285	4.5	-1.	0.	128.75
1286	4.5	-0.5	0.	130.72
1287	4.5	2.0291e-009	0.	131.7
1288	4.5	1.	0.	126.43
1289	4.5	0.5	0.	129.51
1290	5.	1.5	0.	117.56
1291	5.5	1.5	0.	108.74
1292	6.	1.5	0.	111.67
1293	7.	1.5	0.	127.14
1294	6.5	1.5	0.	114.57
1295	7.5	1.	0.	134.24
1296	7.5	0.5	0.	135.26
1297	7.5	3.0416e-014	0.	136.59
1298	7.5	-1.	0.	132.45
1299	7.5	-0.5	0.	134.85
1300	5.	-1.5	0.	122.99
1301	5.5	-1.5	0.	112.28
1302	6.	-1.5	0.	112.58
1303	6.5	-1.5	0.	113.33
1304	7.	-1.5	0.	125.22
1305	-4.	-3.5	0.	117.47
1306	-5.	-3.5	0.	113.6
1307	-4.5	-3.5	0.	103.97
1308	-5.5	-3.	0.	124.09
1309	-5.5	-2.5	0.	127.48
1310	-5.5	-2.	0.	129.84
1311	-5.5	-1.	0.	126.9
1312	-5.5	-1.5	0.	128.84
1313	-5.	-0.5	0.	119.16
1314	-4.	-0.5	0.	119.87
1315	-4.5	-0.5	0.	107.86
1316	-3.5	-1.	0.	128.03
1317	-3.5	-1.5	0.	130.49
1318	-3.5	-2.	0.	131.95
1319	-3.5	-3.	0.	128.86
1320	-3.5	-2.5	0.	130.21
1321	6.5	5.	0.	129.99
1322	6.5	4.5	0.	131.63
1323	6.5	4.	0.	132.49
1324	6.5	3.	0.	126.93
1325	6.5	3.5	0.	130.16
1326	6.	2.5	0.	117.8
1327	5.5	2.5	0.	108.8
1328	5.	2.5	0.	111.58
1329	4.	2.5	0.	126.64
1330	4.5	2.5	0.	114.33
1331	3.5	3.	0.	133.68
1332	3.5	3.5	0.	134.59
1333	3.5	4.	0.	135.94
1334	3.5	5.	0.	131.75
1335	3.5	4.5	0.	134.31
1336	4.	5.5	0.	125.16
1337	4.5	5.5	0.	113.33
1338	6.	5.5	0.	123.76
1339	5.5	5.5	0.	112.73
1340	5.	5.5	0.	112.77
1341	-1.5	9.	0.	128.92
1342	-1.5	8.	0.	130.98
1343	-1.5	8.5	0.	129.6
1344	-2.	7.5	0.	126.62
1345	-2.5	7.5	0.	119.07
1346	-3.	7.5	0.	120.04
1347	-4.	7.5	0.	126.49
1348	-3.5	7.5	0.	118.95
1349	-4.5	8.	0.	130.5
1350	-4.5	9.	0.	128.76
1351	-4.5	8.5	0.	129.34
1352	9.5	9.	0.	125.24
1353	9.5	8.5	0.	125.52
1354	9.5	8.	0.	125.84
1355	9.5	7.5	0.	126.16
1356	9.5	7.	0.	126.44
1357	9.5	6.5	0.	126.63
1358	9.5	6.	0.	126.73
1359	9.5	5.5	0.	126.77
1360	9.5	5.	0.	126.83
1361	9.5	4.5	0.	127.
1362	9.5	4.	0.	127.37
1363	9.5	3.5	0.	127.93
1364	9.5	3.	0.	128.59
1365	9.5	2.5	0.	129.16
1366	9.5	2.	0.	129.45
1367	9.5	1.5	0.	129.35
1368	9.5	1.	0.	128.95
1369	9.5	0.5	0.	128.49
1370	9.5	5.5105e-013	0.	128.23
1371	9.5	-0.5	0.	128.33
1372	9.5	-1.	0.	128.71
1373	9.5	-1.5	0.	129.15
1374	9.5	-2.5	0.	129.38
1375	9.5	-3.	0.	129.08
1376	9.5	-3.5	0.	128.62
1377	9.5	-4.	0.	128.07
1378	9.5	-4.5	0.	127.52
1379	9.5	-5.	0.	127.03
1380	9.5	-5.5	0.	126.61
1381	9.5	-6.	0.	126.3
1382	9.5	-6.5	0.	126.1
1383	9.5	-7.	0.	125.99
1384	9.5	-7.5	0.	125.96
1385	9.5	-8.	0.	125.98
1386	9.5	-8.5	0.	126.02
1387	9.5	-9.	0.	126.07
1388	9.5	-9.5	0.	126.1
1389	9.	-9.5	0.	126.08
1390	8.5	-9.5	0.	126.07
1391	8.	-9.5	0.	126.06
1392	7.5	-9.5	0.	126.04
1393	7.	-9.5	0.	125.97
1394	6.5	-9.5	0.	125.79
1395	6.	-9.5	0.	125.45
1396	5.5	-9.5	0.	124.85
1397	5.	-9.5	0.	123.93
1398	4.5	-9.5	0.	122.81
1399	4.	-9.5	0.	121.88
1400	3.5	-9.5	0.	121.65
1401	3.0001	-9.5	0.	122.37
1402	2.5001	-9.5	0.	123.76
1403	2.0002	-9.5	0.	125.29
1404	1.5003	-9.5001	0.	126.56
1405	1.0005	-9.5001	0.	127.45
1406	0.50071	-9.5001	0.	128.03
1407	8.9662e-004	-9.5001	0.	128.37
1408	-0.49897	-9.5001	0.	128.54
1409	-0.99885	-9.5	0.	128.53
1410	-1.4988	-9.5	0.	128.32
1411	-1.9989	-9.5	0.	127.79
1412	-2.499	-9.5	0.	126.8
1413	-2.9992	-9.4999	0.	125.23
1414	-3.4994	-9.4999	0.	123.07
1415	-3.9996	-9.5	0.	120.7
1416	-4.4997	-9.5	0.	118.79
1417	-4.9998	-9.5	0.	118.04
1418	-5.4999	-9.5	0.	118.77
1419	-5.9999	-9.5	0.	120.66
1420	-7.	-9.5	0.	125.12
1421	-7.5	-9.5	0.	126.68
1422	-8.	-9.5	0.	127.68
1423	-8.5	-9.5	0.	128.32
1424	-9.	-9.5	0.	128.82
1425	-9.5	-9.5	0.	129.42
1426	-9.5	-9.	0.	129.22
1427	-9.5	-8.5	0.	128.88
1428	-9.5	-8.	0.	128.42
1429	-9.5	-7.5	0.	127.88
1430	-9.5	-7.	0.	127.33
1431	-9.5	-6.5	0.	126.89
1432	-9.5	-6.	0.	126.64
1433	-9.5	-5.5	0.	126.6
1434	-9.5	-5.	0.	126.74
1435	-9.5	-4.5	0.	126.94
1436	-9.5	-4.	0.	127.1
1437	-9.5	-3.5	0.	127.16
1438	-9.5	-3.	0.	127.11
1439	-9.5	-2.5	0.	126.98
1440	-9.5	-2.	0.	126.83
1441	-9.5	-1.5	0.	126.68
1442	-9.5	-1.	0.	126.58
1443	-9.5	-0.5	0.	126.5
1444	-9.5	-5.4225e-009	0.	126.45
1445	-9.5	0.5	0.	126.38
1446	-9.5	1.	0.	126.31
1447	-9.5	1.5	0.	126.21
1448	-9.5	2.	0.	126.1
1449	-9.5	2.5	0.	125.97
1450	-9.5	3.	0.	125.84
1451	-9.5	3.5	0.	125.7
1452	-9.5	4.	0.	125.56
1453	-9.5	4.5	0.	125.42
1454	-9.5	5.	0.	125.29
1455	-9.5	5.5	0.	125.16
1456	-9.5	6.	0.	125.04
1457	-9.5	6.5	0.	124.93
1458	-9.5	7.	0.	124.86
1459	-9.5	7.5	0.	124.82
1460	-9.5	8.	0.	124.82
1461	-9.5	8.5	0.	124.86
1462	-9.5	9.	0.	124.93
1463	-9.5	9.5	0.	124.99
1464	-9.	9.5	0.	125.02
1465	-8.5	9.5	0.	125.05
1466	-8.	9.5	0.	125.1
1467	-7.5	9.5	0.	125.15
1468	-7.	9.5	0.	125.22
1469	-6.5	9.5	0.	125.3
1470	-6.	9.5	0.	125.41
1471	-5.5	9.5	0.	125.63
1472	-5.	9.5	0.	126.44
1473	-4.5	9.5	0.	129.51
1474	-4.	9.5	0.	127.22
1475	-3.5	9.5	0.	121.32
1476	-3.	9.5	0.	123.01
1477	-2.5	9.5	0.	121.41
1478	-2.	9.5	0.	127.49
1479	-1.5	9.5	0.	129.79
1480	-1.	9.5	0.	126.76
1481	-0.5	9.5	0.	126.01
1482	-9.4016e-012	9.5	0.	125.8
1483	0.5	9.5	0.	125.66
1484	1.	9.5	0.	125.49
1485	1.5	9.5	0.	125.28
1486	2.	9.5	0.	125.01
1487	2.5	9.5	0.	124.7
1488	3.	9.5	0.	124.35
1489	3.5	9.5	0.	123.99
1490	4.	9.5	0.	123.66
1491	4.5	9.5	0.	123.42
1492	5.	9.5	0.	123.3
1493	5.5	9.5	0.	123.33
1494	6.	9.5	0.	123.49
1495	6.5	9.5	0.	123.74
1496	7.	9.5	0.	124.03
1497	7.5	9.5	0.	124.32
1498	8.	9.5	0.	124.58
1499	8.5	9.5	0.	124.79
1500	9.	9.5	0.	124.95
1501	9.5	9.5	0.	125.04
1502	5.	-6.5	0.	126.3
1503	-1.4993	-5.0001	0.	127.84
1504	-9.	-5.5	0.	127.05
1505	-7.5	-6.	0.	127.91
1506	-8.5	-6.	0.	127.19
1507	7.	-5.	0.	124.05
1508	5.	9.	0.	123.25
1509	1.	6.5	0.	127.23
1510	4.5	-4.	0.	124.12
1511	-6.	4.	0.	124.51
1512	-5.5	4.	0.	124.23
1513	-7.	2.	0.	125.02
1514	-5.	1.	0.	121.32
1515	4.5001	-8.	0.	124.56
1516	6.5	-3.5	0.	122.12
1517	8.	-5.	0.	125.32
1518	-2.	3.5	0.	124.58
1519	7.	-2.	0.	123.33
1520	-4.5	5.5	0.	124.52
1521	1.	1.5	0.	128.01
1522	7.5	3.	0.	128.16
1523	8.5	4.	0.	127.11
1524	1.5	-3.5	0.	128.17
1525	4.	-1.	0.	127.41
1526	-6.4999	-8.	0.	127.08
1527	-0.49964	-4.5	0.	127.89
1528	7.5	5.	0.	127.62
1529	6.5	-5.	0.	123.73
1530	3.	8.	0.	125.06
1531	2.	3.	0.	129.1
1532	-2.9991	-6.0002	0.	128.43
1533	-3.5	3.	0.	123.42
1534	-7.	4.	0.	124.97
1535	-4.5	3.5	0.	123.44
1536	-0.5	3.	0.	126.21
1537	2.5	5.5	0.	129.46
1538	1.5013	-7.	0.	127.54
1539	-6.	9.	0.	124.09
1540	8.5	-3.5	0.	127.35
1541	8.5	-2.5	0.	129.17
1542	4.5	-5.5	0.	130.01
1543	-4.5	6.5	0.	126.16
1544	0.5	-1.	0.	127.15
1545	8.	1.	0.	132.78
1546	-2.	6.5	0.	124.52
1547	-8.	-2.5	0.	127.08
1548	-2.9985	-8.9999	0.	125.85
1549	1.	9.	0.	125.05
1550	-6.5	4.	0.	124.76
1551	-1.5	3.5	0.	125.09
1552	-3.5	1.5	0.	123.16
1553	2.	7.	0.	127.16
1554	2.0008	-7.	0.	128.43
1555	-7.5	-7.	0.	128.55
1556	4.	-3.5	0.	121.44
1557	8.5	9.	0.	125.05
1558	-2.4976	-7.5001	0.	128.5
1559	1.5	-1.	0.	126.69
1560	-7.	3.5	0.	124.89
1561	1.	5.5	0.	127.41
1562	1.	-1.	0.	126.97
1563	0.50028	-4.5	0.	127.88
1564	1.0002	-4.5	0.	128.15
1565	0.5	3.	0.	127.08
1566	-2.4994	-5.0002	0.	128.81
1567	-7.	3.	0.	124.86
1568	6.	-5.	0.	123.84
1569	-2.	6.	0.	124.26
1570	-0.99995	-3.5	0.	128.62
1571	-2.4999	-3.5001	0.	130.45
1572	-4.5	6.	0.	125.13
1573	9.	-5.	0.	126.58
1574	-3.	0.5	0.	125.5
1575	3.3783e-004	-4.5	0.	127.8
1576	-7.	-4.5	0.	131.73
1577	-3.	-1.	0.	127.86
1578	7.	2.5	0.	127.88
1579	-4.5	7.	0.	128.1
1580	-6.5	5.	0.	125.15
1581	-2.	5.	0.	124.25
1582	3.5	2.	0.	131.44
1583	5.	2.	0.	113.22
1584	4.5	-3.5	0.	122.75
1585	-1.5	4.	0.	124.99
1586	-3.5	3.5	0.	123.46
1587	6.5	7.	0.	124.51
1588	-1.4999	-3.5	0.	129.08
1589	-3.5	2.5	0.	123.35
1590	9.5	-2.	0.	129.41
1591	-2.	3.	0.	124.77
1592	-4.5	4.	0.	123.67
1593	-1.4998	-4.0001	0.	129.12
1594	-0.49995	-3.5	0.	128.35
1595	-1.9999	-3.5	0.	129.73
1596	-8.5	-7.	0.	127.75
1597	7.	4.5	0.	127.62
1598	3.	7.5	0.	125.63
1599	-6.4999	-9.5	0.	123.
1600	7.5	-4.	0.	124.81
1601	-0.99924	-5.0001	0.	127.55
1602	7.5	6.	0.	128.31
1603	-7.	5.	0.	125.17
1604	-5.	1.5	0.	122.08
1605	8.5	-1.5	0.	130.46
1606	5.5	-9.	0.	125.17
1607	-3.4989	-8.9999	0.	123.57
1608	3.5	-1.	0.	126.18
1609	-6.	-3.	0.	125.4
1610	-2.	5.5	0.	124.21
1611	1.	3.	0.	127.59
1612	5.	-9.	0.	124.26
1613	-3.9991	-8.	0.	121.29
1614	-3.9992	-8.9999	0.	120.67
1615	2.5006	-8.	0.	125.69
1616	-5.	2.5	0.	123.04
1617	-2.	4.	0.	124.43
1618	7.	-4.	0.	123.75
1619	8.	-1.5	0.	131.66
1620	0.5	-1.5	0.	127.29
1621	4.5	-4.5	0.	127.79
1622	8.5	-3.	0.	128.17
1623	1.5	3.	0.	128.22
1624	0.50253	-7.5001	0.	127.48
1625	6.	2.	0.	113.37
1626	-7.	1.	0.	125.55
1627	9.	9.	0.	125.18
1628	-2.9999	-3.5001	0.	130.86
1629	1.5	5.	0.	127.56
1630	-1.5	-2.	0.	127.45
1631	-2.8609e-011	3.	0.	126.64
1632	-6.	3.	0.	124.1
1633	4.	1.5	0.	127.37
1634	2.5	3.	0.	130.3
1635	-4.5	4.5	0.	123.89
1636	-2.9982	-7.5001	0.	129.47
1637	-4.9996	-8.5	0.	115.42
1638	-2.	4.5	0.	124.33
1639	6.5	6.5	0.	125.39
1640	-5.	0.5	0.	120.29
1641	8.5	-4.	0.	126.75
1642	-1.	3.	0.	125.76
1643	8.5	-2.	0.	130.1
1644	8.	5.5	0.	127.68
1645	1.	7.	0.	126.71
1646	3.	-5.25	0.	134.52
1647	3.25	-5.	0.	117.67
1648	2.7501	-5.	0.	129.49
1649	3.	-4.75	0.	125.47
1650	3.	-6.75	0.	134.7
1651	3.25	-7.	0.	117.77
1652	3.0002	-7.25	0.	125.69
1653	2.7502	-7.	0.	129.44
1654	3.75	-5.	0.	117.64
1655	4.	-5.25	0.	134.02
1656	4.	-4.75	0.	125.34
1657	4.25	-5.	0.	128.39
1658	3.75	-7.	0.	117.14
1659	4.	-6.75	0.	133.61
1660	4.	-7.25	0.	124.56
1661	4.25	-7.	0.	128.28
1662	-5.	-1.25	0.	132.31
1663	-4.75	-1.	0.	116.13
1664	-5.25	-1.	0.	127.37
1665	-5.	-0.75	0.	123.8
1666	-5.	-2.75	0.	129.61
1667	-4.75	-3.	0.	113.11
1668	-5.	-3.25	0.	119.21
1669	-5.25	-3.	0.	124.03
1670	-4.25	-1.	0.	116.66
1671	-4.	-1.25	0.	133.44
1672	-4.	-0.75	0.	124.69
1673	-3.75	-1.	0.	128.45
1674	-4.25	-3.	0.	114.13
1675	-4.	-2.75	0.	131.79
1676	-4.	-3.25	0.	122.1
1677	-3.75	-3.	0.	127.51
1678	4.	4.75	0.	139.05
1679	4.25	5.	0.	123.29
1680	3.75	5.	0.	133.06
1681	4.	5.25	0.	130.13
1682	4.	3.25	0.	139.21
1683	4.25	3.	0.	123.71
1684	4.	2.75	0.	130.79
1685	3.75	3.	0.	134.01
1686	5.75	5.	0.	121.94
1687	6.	4.75	0.	136.73
1688	6.25	5.	0.	131.16
1689	6.	5.25	0.	128.37
1690	5.75	3.	0.	118.53
1691	6.	3.25	0.	133.82
1692	6.25	3.	0.	127.52
1693	6.	2.75	0.	123.41
1694	5.	0.75	0.	133.35
1695	5.25	1.	0.	118.28
1696	4.75	1.	0.	127.08
1697	5.	1.25	0.	123.1
1698	5.	-0.75	0.	135.95
1699	5.25	-1.	0.	121.31
1700	4.75	-1.	0.	130.18
1701	5.	-1.25	0.	127.64
1702	6.75	1.	0.	124.1
1703	7.	0.75	0.	139.78
1704	7.	1.25	0.	131.34
1705	7.25	1.	0.	134.59
1706	6.75	-1.	0.	123.39
1707	7.	-0.75	0.	139.27
1708	7.25	-1.	0.	133.41
1709	7.	-1.25	0.	130.16
1710	-6.	-5.25	0.	138.01
1711	-5.75	-5.	0.	122.3
1712	-6.25	-5.	0.	132.63
1713	-6.	-4.75	0.	129.41
1714	-6.	-6.75	0.	137.51
1715	-5.75	-7.	0.	121.9
1716	-6.	-7.25	0.	128.33
1717	-6.25	-7.	0.	131.66
1718	-4.25	-5.	0.	119.76
1719	-4.	-5.25	0.	135.53
1720	-4.	-4.75	0.	125.73
1721	-3.7499	-5.0001	0.	130.
1722	-4.25	-7.	0.	121.48
1723	-4.	-6.75	0.	136.76
1724	-3.9997	-7.25	0.	127.98
1725	-3.7496	-7.	0.	131.01
1726	-4.	8.75	0.	141.15
1727	-3.75	9.	0.	129.01
1728	-4.25	9.	0.	132.85
1729	-4.	9.25	0.	132.44
1730	-4.	8.25	0.	140.33
1731	-3.75	8.	0.	127.32
1732	-4.	7.75	0.	131.17
1733	-4.25	8.	0.	132.85
1734	-2.25	9.	0.	129.2
1735	-2.	8.75	0.	141.44
1736	-1.75	9.	0.	133.1
1737	-2.	9.25	0.	132.75
1738	-2.25	8.	0.	127.45
1739	-2.	8.25	0.	140.48
1740	-1.75	8.	0.	133.12
1741	-2.	7.75	0.	131.26
1742	9.75	10.	0.	125.
1743	10.	9.75	0.	124.98
1744	-9.75	10.	0.	125.
1745	-10.	9.75	0.	125.
1746	10.	-9.75	0.	126.19
1747	9.75	-10.	0.	126.16
1748	-10.	-9.75	0.	130.4
1749	-9.75	-10.	0.	129.97
1750	3.	-5.75	0.	139.44
1751	2.7501	-5.5	0.	135.34
1752	3.	-6.25	0.	139.41
1753	2.7501	-6.	0.	136.31
1754	2.7502	-6.5	0.	135.33
1755	3.5	-4.75	0.	107.34
1756	3.5001	-7.25	0.	107.03
1757	4.	-5.75	0.	138.51
1758	4.25	-5.5	0.	134.17
1759	4.	-6.25	0.	138.5
1760	4.25	-6.	0.	135.14
1761	4.25	-6.5	0.	134.15
1762	-5.	-1.75	0.	136.42
1763	-5.25	-1.5	0.	132.72
1764	-5.	-2.25	0.	135.53
1765	-5.25	-2.	0.	133.04
1766	-5.25	-2.5	0.	131.15
1767	-4.5	-0.75	0.	106.04
1768	-4.5	-3.25	0.	102.82
1769	-4.	-1.75	0.	137.81
1770	-3.75	-1.5	0.	134.14
1771	-4.	-2.25	0.	137.44
1772	-3.75	-2.	0.	134.88
1773	-3.75	-2.5	0.	133.64
1774	4.	4.25	0.	144.06
1775	3.75	4.5	0.	138.87
1776	4.	3.75	0.	144.23
1777	3.75	4.	0.	140.31
1778	3.75	3.5	0.	139.18
1779	4.75	5.	0.	114.43
1780	4.5	5.25	0.	112.72
1781	5.25	5.	0.	114.16
1782	5.	5.25	0.	114.55
1783	5.5	5.25	0.	112.15
1784	4.75	3.	0.	114.24
1785	4.5	2.75	0.	113.73
1786	5.25	3.	0.	111.94
1787	5.	2.75	0.	113.32
1788	5.5	2.75	0.	108.6
1789	6.	4.25	0.	141.05
1790	6.25	4.5	0.	136.26
1791	6.	3.75	0.	140.12
1792	6.25	4.	0.	136.85
1793	6.25	3.5	0.	134.59
1794	5.	0.25	0.	139.49
1795	4.75	0.5	0.	133.99
1796	5.	-0.25	0.	140.29
1797	4.75	1.0145e-009	0.	136.11
1798	4.75	-0.5	0.	135.38
1799	5.75	1.	0.	111.92
1800	5.5	1.25	0.	108.53
1801	6.25	1.	0.	114.37
1802	6.	1.25	0.	113.39
1803	6.5	1.25	0.	113.95
1804	5.75	-1.	0.	113.77
1805	5.5	-1.25	0.	111.63
1806	6.25	-1.	0.	114.42
1807	6.	-1.25	0.	114.35
1808	6.5	-1.25	0.	112.82
1809	7.	0.25	0.	144.76
1810	7.25	0.5	0.	139.79
1811	7.	-0.25	0.	144.52
1812	7.25	1.5208e-014	0.	140.89
1813	7.25	-0.5	0.	139.35
1814	-6.	-5.75	0.	143.01
1815	-6.25	-5.5	0.	138.02
1816	-6.	-6.25	0.	142.82
1817	-6.25	-6.	0.	139.14
1818	-6.25	-6.5	0.	137.61
1819	-5.25	-5.	0.	112.96
1820	-5.5	-4.75	0.	111.94
1821	-4.75	-5.	0.	111.84
1822	-5.	-4.75	0.	112.15
1823	-4.5	-4.75	0.	109.03
1824	-5.25	-7.	0.	113.44
1825	-5.4999	-7.25	0.	111.6
1826	-4.75	-7.	0.	113.27
1827	-4.9999	-7.25	0.	113.5
1828	-4.4998	-7.25	0.	111.33
1829	-4.	-5.75	0.	141.29
1830	-3.7498	-5.5001	0.	136.16
1831	-4.	-6.25	0.	141.6
1832	-3.7498	-6.0001	0.	137.74
1833	-3.7497	-6.5001	0.	136.61
1834	-4.25	8.5	0.	137.22
1835	-3.25	9.	0.	124.71
1836	-3.5	9.25	0.	121.11
1837	-2.75	9.	0.	124.72
1838	-3.	9.25	0.	125.46
1839	-2.5	9.25	0.	121.18
1840	-3.25	8.	0.	122.25
1841	-3.5	7.75	0.	119.08
1842	-2.75	8.	0.	122.35
1843	-3.	7.75	0.	122.54
1844	-2.5	7.75	0.	119.25
1845	-1.75	8.5	0.	137.47
1846	9.25	10.	0.	124.97
1847	9.5	9.75	0.	125.02
1848	8.75	10.	0.	124.85
1849	9.	9.75	0.	124.94
1850	8.25	10.	0.	124.62
1851	8.5	9.75	0.	124.78
1852	7.75	10.	0.	124.31
1853	8.	9.75	0.	124.53
1854	7.25	10.	0.	123.95
1855	7.5	9.75	0.	124.23
1856	6.75	10.	0.	123.58
1857	7.	9.75	0.	123.9
1858	6.25	10.	0.	123.24
1859	6.5	9.75	0.	123.57
1860	5.75	10.	0.	123.
1861	6.	9.75	0.	123.29
1862	5.25	10.	0.	122.89
1863	5.5	9.75	0.	123.12
1864	4.75	10.	0.	122.94
1865	5.	9.75	0.	123.09
1866	4.25	10.	0.	123.15
1867	4.5	9.75	0.	123.21
1868	3.75	10.	0.	123.5
1869	4.	9.75	0.	123.48
1870	3.25	10.	0.	123.93
1871	3.5	9.75	0.	123.84
1872	2.75	10.	0.	124.4
1873	3.	9.75	0.	124.25
1874	2.25	10.	0.	124.87
1875	2.5	9.75	0.	124.67
1876	1.75	10.	0.	125.33
1877	2.	9.75	0.	125.06
1878	1.25	10.	0.	125.78
1879	1.5	9.75	0.	125.41
1880	0.75	10.	0.	126.28
1881	1.	9.75	0.	125.75
1882	0.25	10.	0.	126.92
1883	0.5	9.75	0.	126.1
1884	-0.25	10.	0.	127.8
1885	-4.7034e-012	9.75	0.	126.54
1886	-0.75	10.	0.	128.94
1887	-0.5	9.75	0.	127.14
1888	-1.25	10.	0.	129.26
1889	-1.	9.75	0.	128.15
1890	-1.75	10.	0.	126.7
1891	-1.5	9.75	0.	129.33
1892	-2.25	10.	0.	122.44
1893	-2.	9.75	0.	125.89
1894	-2.75	10.	0.	119.41
1895	-2.5	9.75	0.	120.83
1896	-3.25	10.	0.	119.34
1897	-3.	9.75	0.	120.53
1898	-3.75	10.	0.	122.23
1899	-3.5	9.75	0.	120.72
1900	-4.25	10.	0.	126.34
1901	-4.	9.75	0.	125.62
1902	-4.75	10.	0.	128.78
1903	-4.5	9.75	0.	128.97
1904	-5.25	10.	0.	128.41
1905	-5.	9.75	0.	127.73
1906	-5.75	10.	0.	127.25
1907	-5.5	9.75	0.	126.68
1908	-6.25	10.	0.	126.4
1909	-6.	9.75	0.	126.07
1910	-6.75	10.	0.	125.85
1911	-6.5	9.75	0.	125.68
1912	-7.25	10.	0.	125.51
1913	-7.	9.75	0.	125.43
1914	-7.75	10.	0.	125.3
1915	-7.5	9.75	0.	125.26
1916	-8.25	10.	0.	125.16
1917	-8.	9.75	0.	125.16
1918	-8.75	10.	0.	125.08
1919	-8.5	9.75	0.	125.08
1920	-9.25	10.	0.	125.02
1921	-9.	9.75	0.	125.03
1922	-9.5	9.75	0.	125.
1923	10.	9.25	0.	125.03
1924	9.75	9.5	0.	125.01
1925	10.	8.75	0.	125.25
1926	9.75	9.	0.	125.17
1927	10.	8.25	0.	125.61
1928	9.75	8.5	0.	125.46
1929	10.	7.75	0.	126.
1930	9.75	8.	0.	125.83
1931	10.	7.25	0.	126.34
1932	9.75	7.5	0.	126.18
1933	10.	6.75	0.	126.55
1934	9.75	7.	0.	126.46
1935	10.	6.25	0.	126.6
1936	9.75	6.5	0.	126.62
1937	10.	5.75	0.	126.53
1938	9.75	6.	0.	126.66
1939	10.	5.25	0.	126.43
1940	9.75	5.5	0.	126.62
1941	10.	4.75	0.	126.46
1942	9.75	5.	0.	126.61
1943	10.	4.25	0.	126.76
1944	9.75	4.5	0.	126.77
1945	10.	3.75	0.	127.36
1946	9.75	4.	0.	127.18
1947	10.	3.25	0.	128.17
1948	9.75	3.5	0.	127.83
1949	10.	2.75	0.	128.94
1950	9.75	3.	0.	128.59
1951	10.	2.25	0.	129.38
1952	9.75	2.5	0.	129.22
1953	10.	1.75	0.	129.26
1954	9.75	2.	0.	129.46
1955	10.	1.25	0.	128.6
1956	9.75	1.5	0.	129.2
1957	10.	0.75	0.	127.72
1958	9.75	1.	0.	128.56
1959	10.	0.25	0.	127.07
1960	9.75	0.5	0.	127.88
1961	10.	-0.25	0.	126.99
1962	9.75	2.7292e-013	0.	127.54
1963	10.	-0.75	0.	127.54
1964	9.75	-0.5	0.	127.72
1965	10.	-1.25	0.	128.47
1966	9.75	-1.	0.	128.33
1967	10.	-1.75	0.	129.4
1968	9.75	-1.5	0.	129.07
1969	10.	-2.25	0.	129.97
1970	9.75	-2.	0.	129.6
1971	10.	-2.75	0.	130.06
1972	9.75	-2.5	0.	129.76
1973	10.	-3.25	0.	129.71
1974	9.75	-3.	0.	129.53
1975	10.	-3.75	0.	129.09
1976	9.75	-3.5	0.	129.03
1977	10.	-4.25	0.	128.36
1978	9.75	-4.	0.	128.4
1979	10.	-4.75	0.	127.63
1980	9.75	-4.5	0.	127.75
1981	10.	-5.25	0.	126.99
1982	9.75	-5.	0.	127.15
1983	10.	-5.75	0.	126.49
1984	9.75	-5.5	0.	126.66
1985	10.	-6.25	0.	126.15
1986	9.75	-6.	0.	126.29
1987	10.	-6.75	0.	125.96
1988	9.75	-6.5	0.	126.06
1989	10.	-7.25	0.	125.89
1990	9.75	-7.	0.	125.94
1991	10.	-7.75	0.	125.91
1992	9.75	-7.5	0.	125.92
1993	10.	-8.25	0.	125.98
1994	9.75	-8.	0.	125.96
1995	10.	-8.75	0.	126.07
1996	9.75	-8.5	0.	126.02
1997	10.	-9.25	0.	126.14
1998	9.75	-9.	0.	126.09
1999	9.75	-9.5	0.	126.14
2000	-10.	9.25	0.	124.96
2001	-9.75	9.5	0.	124.99
2002	-10.	8.75	0.	124.87
2003	-9.75	9.	0.	124.92
2004	-10.	8.25	0.	124.78
2005	-9.75	8.5	0.	124.84
2006	-10.	7.75	0.	124.73
2007	-9.75	8.	0.	124.78
2008	-10.	7.25	0.	124.73
2009	-9.75	7.5	0.	124.77
2010	-10.	6.75	0.	124.79
2011	-9.75	7.	0.	124.8
2012	-10.	6.25	0.	124.9
2013	-9.75	6.5	0.	124.88
2014	-10.	5.75	0.	125.04
2015	-9.75	6.	0.	125.
2016	-10.	5.25	0.	125.2
2017	-9.75	5.5	0.	125.14
2018	-10.	4.75	0.	125.38
2019	-9.75	5.	0.	125.29
2020	-10.	4.25	0.	125.55
2021	-9.75	4.5	0.	125.44
2022	-10.	3.75	0.	125.73
2023	-9.75	4.	0.	125.6
2024	-10.	3.25	0.	125.9
2025	-9.75	3.5	0.	125.75
2026	-10.	2.75	0.	126.06
2027	-9.75	3.	0.	125.91
2028	-10.	2.25	0.	126.21
2029	-9.75	2.5	0.	126.06
2030	-10.	1.75	0.	126.34
2031	-9.75	2.	0.	126.19
2032	-10.	1.25	0.	126.44
2033	-9.75	1.5	0.	126.31
2034	-10.	0.75	0.	126.5
2035	-9.75	1.	0.	126.4
2036	-10.	0.25	0.	126.54
2037	-9.75	0.5	0.	126.46
2038	-10.	-0.25	0.	126.55
2039	-9.75	-2.7113e-009	0.	126.5
2040	-10.	-0.75	0.	126.58
2041	-9.75	-0.5	0.	126.53
2042	-10.	-1.25	0.	126.65
2043	-9.75	-1.	0.	126.59
2044	-10.	-1.75	0.	126.76
2045	-9.75	-1.5	0.	126.69
2046	-10.	-2.25	0.	126.91
2047	-9.75	-2.	0.	126.83
2048	-10.	-2.75	0.	127.04
2049	-9.75	-2.5	0.	126.98
2050	-10.	-3.25	0.	127.06
2051	-9.75	-3.	0.	127.1
2052	-10.	-3.75	0.	126.94
2053	-9.75	-3.5	0.	127.1
2054	-10.	-4.25	0.	126.64
2055	-9.75	-4.	0.	126.96
2056	-10.	-4.75	0.	126.25
2057	-9.75	-4.5	0.	126.7
2058	-10.	-5.25	0.	125.9
2059	-9.75	-5.	0.	126.39
2060	-10.	-5.75	0.	125.77
2061	-9.75	-5.5	0.	126.18
2062	-10.	-6.25	0.	125.96
2063	-9.75	-6.	0.	126.2
2064	-10.	-6.75	0.	126.49
2065	-9.75	-6.5	0.	126.52
2066	-10.	-7.25	0.	127.28
2067	-9.75	-7.	0.	127.09
2068	-10.	-7.75	0.	128.18
2069	-9.75	-7.5	0.	127.8
2070	-10.	-8.25	0.	129.03
2071	-9.75	-8.	0.	128.53
2072	-10.	-8.75	0.	129.71
2073	-9.75	-8.5	0.	129.15
2074	-10.	-9.25	0.	130.18
2075	-9.75	-9.	0.	129.61
2076	-9.75	-9.5	0.	129.88
2077	-9.25	-10.	0.	129.16
2078	-9.5	-9.75	0.	129.45
2079	-8.75	-10.	0.	128.55
2080	-9.	-9.75	0.	128.83
2081	-8.25	-10.	0.	127.92
2082	-8.5	-9.75	0.	128.3
2083	-7.75	-10.	0.	127.03
2084	-8.	-9.75	0.	127.63
2085	-7.25	-10.	0.	125.7
2086	-7.5	-9.75	0.	126.59
2087	-6.75	-10.	0.	123.87
2088	-7.	-9.75	0.	125.01
2089	-6.25	-10.	0.	121.75
2090	-6.5	-9.75	0.	122.92
2091	-5.75	-10.	0.	119.81
2092	-6.	-9.75	0.	120.66
2093	-5.25	-10.	0.	118.64
2094	-5.4999	-9.75	0.	118.86
2095	-4.75	-10.	0.	118.65
2096	-4.9999	-9.75	0.	118.18
2097	-4.25	-10.	0.	119.85
2098	-4.4998	-9.75	0.	118.88
2099	-3.75	-10.	0.	121.82
2100	-3.9998	-9.75	0.	120.7
2101	-3.25	-10.	0.	123.98
2102	-3.4997	-9.75	0.	123.
2103	-2.75	-10.	0.	125.84
2104	-2.9996	-9.75	0.	125.13
2105	-2.25	-10.	0.	127.18
2106	-2.4995	-9.75	0.	126.73
2107	-1.75	-10.	0.	128.
2108	-1.9994	-9.75	0.	127.75
2109	-1.25	-10.	0.	128.43
2110	-1.4994	-9.75	0.	128.31
2111	-0.75	-10.	0.	128.56
2112	-0.99942	-9.75	0.	128.54
2113	-0.25	-10.	0.	128.48
2114	-0.49949	-9.75	0.	128.55
2115	0.25	-10.	0.	128.21
2116	4.4831e-004	-9.75	0.	128.38
2117	0.75	-10.	0.	127.71
2118	0.50035	-9.75	0.	128.03
2119	1.25	-10.	0.	126.93
2120	1.0003	-9.75	0.	127.43
2121	1.75	-10.	0.	125.82
2122	1.5002	-9.75	0.	126.51
2123	2.25	-10.	0.	124.47
2124	2.0001	-9.75	0.	125.24
2125	2.75	-10.	0.	123.13
2126	2.5001	-9.75	0.	123.76
2127	3.25	-10.	0.	122.18
2128	3.	-9.75	0.	122.44
2129	3.75	-10.	0.	121.94
2130	3.5	-9.75	0.	121.76
2131	4.25	-10.	0.	122.41
2132	4.	-9.75	0.	121.95
2133	4.75	-10.	0.	123.32
2134	4.5	-9.75	0.	122.81
2135	5.25	-10.	0.	124.29
2136	5.	-9.75	0.	123.88
2137	5.75	-10.	0.	125.06
2138	5.5	-9.75	0.	124.79
2139	6.25	-10.	0.	125.57
2140	6.	-9.75	0.	125.42
2141	6.75	-10.	0.	125.86
2142	6.5	-9.75	0.	125.78
2143	7.25	-10.	0.	126.01
2144	7.	-9.75	0.	125.96
2145	7.75	-10.	0.	126.06
2146	7.5	-9.75	0.	126.04
2147	8.25	-10.	0.	126.08
2148	8.	-9.75	0.	126.07
2149	8.75	-10.	0.	126.09
2150	8.5	-9.75	0.	126.08
2151	9.25	-10.	0.	126.1
2152	9.	-9.75	0.	126.08
2153	9.5	-9.75	0.	126.11
2154	1.1961e-010	0.75	0.	127.23
2155	4.2724e-011	1.25	0.	127.21
2156	-0.25	1.	0.	127.13
2157	0.25	1.	0.	127.36
2158	-1.25	2.5	0.	125.75
2159	-1.5	2.75	0.	125.4
2160	-1.75	2.5	0.	125.27
2161	-1.5	2.25	0.	125.67
2162	-0.5	1.75	0.	126.75
2163	-0.25	1.5	0.	127.02
2164	-0.5	1.25	0.	126.94
2165	-0.75	1.5	0.	126.7
2166	0.5	0.25	0.	127.26
2167	0.25	0.5	0.	127.28
2168	0.5	0.75	0.	127.41
2169	0.75	0.5	0.	127.38
2170	-1.	2.25	0.	126.12
2171	-0.75	2.	0.	126.45
2172	-1.25	2.	0.	126.04
2173	-1.	1.75	0.	126.4
2174	-0.75	2.5	0.	126.2
2175	-1.	2.75	0.	125.87
2176	-1.5	3.25	0.	125.18
2177	-1.75	3.	0.	125.02
2178	-1.25	3.	0.	125.51
2179	-2.75	3.5	0.	123.91
2180	-3.	3.75	0.	123.66
2181	-3.	3.25	0.	123.75
2182	-3.25	3.5	0.	123.58
2183	0.75	2.0205e-009	0.	127.16
2184	0.5	-0.25	0.	127.16
2185	0.25	4.8737e-009	0.	127.2
2186	-0.75	3.5	0.	125.82
2187	-0.5	3.75	0.	126.02
2188	-0.25	3.5	0.	126.25
2189	-0.5	3.25	0.	126.13
2190	-0.5	2.25	0.	126.54
2191	-0.25	2.	0.	126.86
2192	-2.5	3.25	0.	124.18
2193	-2.5	3.75	0.	124.02
2194	-2.25	3.5	0.	124.34
2195	-1.	3.75	0.	125.56
2196	-1.25	3.5	0.	125.34
2197	-1.	3.25	0.	125.67
2198	1.	0.25	0.	127.27
2199	1.	-0.25	0.	127.05
2200	1.25	2.2313e-009	0.	127.05
2201	-2.75	3.	0.	124.03
2202	-2.5	2.75	0.	124.36
2203	-2.25	3.	0.	124.51
2204	1.1284e-006	-2.25	0.	127.74
2205	0.25	-2.	0.	127.56
2206	1.7134e-007	-1.75	0.	127.49
2207	-0.25	-2.	0.	127.6
2208	3.2087e-010	0.25	0.	127.21
2209	-0.25	0.5	0.	127.17
2210	2.3778e-011	1.75	0.	127.12
2211	0.25	1.5	0.	127.37
2212	-0.25	4.	0.	126.18
2213	-0.75	4.	0.	125.76
2214	-0.5	4.25	0.	126.03
2215	-2.75	4.	0.	123.77
2216	-3.25	4.	0.	123.52
2217	-3.	4.25	0.	123.52
2218	-5.	3.25	0.	123.51
2219	-5.	3.75	0.	123.79
2220	-5.25	3.5	0.	123.8
2221	-4.75	3.5	0.	123.55
2222	-6.2326e-011	3.75	0.	126.42
2223	-8.3082e-011	4.25	0.	126.41
2224	0.25	4.	0.	126.54
2225	-2.25	2.5	0.	124.73
2226	-2.	2.25	0.	125.17
2227	-2.	2.75	0.	124.89
2228	-0.5	0.75	0.	127.06
2229	-0.75	1.	0.	126.9
2230	0.5	1.25	0.	127.52
2231	0.75	1.	0.	127.62
2232	4.8939e-006	-2.75	0.	128.01
2233	0.25	-2.5	0.	127.85
2234	-0.25	-2.5	0.	127.9
2235	-1.75	2.	0.	125.58
2236	-1.5	1.75	0.	126.
2237	-1.	1.25	0.	126.67
2238	-1.25	1.5	0.	126.36
2239	1.	0.75	0.	127.58
2240	1.25	0.5	0.	127.43
2241	0.5	-2.25	0.	127.67
2242	0.75	-2.	0.	127.43
2243	0.5	-1.75	0.	127.41
2244	0.75	-0.5	0.	127.05
2245	0.25	-0.5	0.	127.15
2246	0.5	-0.75	0.	127.14
2247	-0.25	2.5	0.	126.64
2248	-0.5	2.75	0.	126.31
2249	-4.	3.25	0.	123.29
2250	-4.	3.75	0.	123.43
2251	-4.25	3.5	0.	123.41
2252	-3.75	3.5	0.	123.41
2253	1.25	-0.5	0.	126.85
2254	1.	-0.75	0.	126.97
2255	-3.	2.75	0.	123.84
2256	-3.25	3.	0.	123.61
2257	-4.75	3.	0.	123.28
2258	-4.25	3.	0.	123.2
2259	-4.5	2.75	0.	123.03
2260	-4.5	3.25	0.	123.32
2261	3.0571e-008	-1.25	0.	127.3
2262	-0.25	-1.5	0.	127.37
2263	0.25	-1.5	0.	127.33
2264	8.1853e-010	-0.25	0.	127.19
2265	-0.25	1.2257e-008	0.	127.18
2266	0.25	3.5	0.	126.64
2267	-3.9862e-011	3.25	0.	126.55
2268	4.6897e-012	2.25	0.	126.96
2269	0.25	2.	0.	127.29
2270	-2.5	4.25	0.	123.86
2271	-2.25	4.	0.	124.19
2272	-1.	4.25	0.	125.55
2273	-1.25	4.	0.	125.25
2274	-3.75	4.	0.	123.46
2275	-3.5	4.25	0.	123.41
2276	-3.5	3.75	0.	123.45
2277	-5.25	3.	0.	123.53
2278	-5.	2.75	0.	123.2
2279	-5.	4.25	0.	124.09
2280	-5.25	4.	0.	124.08
2281	-4.75	4.	0.	123.8
2282	-0.25	4.5	0.	126.26
2283	-9.7117e-011	4.75	0.	126.55
2284	0.25	4.5	0.	126.6
2285	1.5	0.25	0.	127.21
2286	1.5	-0.25	0.	126.85
2287	1.75	1.9911e-009	0.	126.83
2288	-2.75	2.5	0.	124.17
2289	-2.5	2.25	0.	124.59
2290	-0.5	-2.25	0.	127.76
2291	-0.5	-1.75	0.	127.49
2292	-0.75	-2.	0.	127.58
2293	-0.5	0.25	0.	127.14
2294	-0.75	0.5	0.	127.06
2295	0.5	1.75	0.	127.54
2296	0.75	1.5	0.	127.79
2297	0.5	3.75	0.	126.77
2298	0.5	4.25	0.	126.72
2299	0.75	4.	0.	126.85
2300	-0.75	4.5	0.	125.82
2301	-0.5	4.75	0.	126.18
2302	-2.75	4.5	0.	123.61
2303	-3.25	4.5	0.	123.41
2304	-3.	4.75	0.	123.31
2305	2.1718e-005	-3.25	0.	128.19
2306	0.25001	-3.	0.	128.11
2307	-0.24999	-3.	0.	128.17
2308	-2.25	2.	0.	125.02
2309	-2.	1.75	0.	125.53
2310	-1.	0.75	0.	126.9
2311	-1.25	1.	0.	126.67
2312	1.25	1.	0.	127.89
2313	1.	1.25	0.	127.88
2314	0.50001	-2.75	0.	127.95
2315	0.75	-2.5	0.	127.73
2316	1.	-1.75	0.	127.22
2317	1.25	-2.	0.	127.19
2318	1.	-2.25	0.	127.5
2319	-1.75	1.5	0.	125.95
2320	-1.5	1.25	0.	126.36
2321	1.5	0.75	0.	127.74
2322	1.75	0.5	0.	127.4
2323	1.25	-1.5	0.	126.96
2324	1.	-1.25	0.	127.04
2325	0.75	-1.5	0.	127.2
2326	-4.	2.75	0.	123.09
2327	-3.75	3.	0.	123.32
2328	4.0834e-009	-0.75	0.	127.21
2329	-0.25	-1.	0.	127.24
2330	0.25	-1.	0.	127.19
2331	-0.25	-0.5	0.	127.19
2332	0.25	2.5	0.	127.1
2333	-1.7162e-011	2.75	0.	126.75
2334	-4.	4.25	0.	123.52
2335	-4.25	4.	0.	123.57
2336	-5.5	3.25	0.	123.83
2337	-5.5	2.75	0.	123.57
2338	-5.75	3.	0.	123.9
2339	-5.75	3.5	0.	124.12
2340	-5.5	3.75	0.	124.09
2341	-5.25	4.5	0.	124.39
2342	-5.5	4.75	0.	124.73
2343	-5.75	4.5	0.	124.66
2344	-5.5	4.25	0.	124.39
2345	-0.25	5.	0.	126.47
2346	-1.0511e-010	5.25	0.	126.79
2347	0.25	5.	0.	126.79
2348	1.75	-0.5	0.	126.54
2349	1.5	-0.75	0.	126.71
2350	-0.24988	-4.	0.	128.2
2351	-0.74987	-4.	0.	128.41
2352	-0.49976	-4.25	0.	128.07
2353	-0.49991	-3.75	0.	128.3
2354	-0.49999	-2.75	0.	128.06
2355	-0.75	-2.5	0.	127.93
2356	-3.	2.25	0.	123.94
2357	-3.25	2.5	0.	123.61
2358	-4.25	2.5	0.	122.92
2359	-4.5	2.25	0.	122.64
2360	-4.75	2.5	0.	122.95
2361	-0.5	-1.25	0.	127.31
2362	-0.75	-1.5	0.	127.34
2363	-0.5	-0.25	0.	127.18
2364	-0.75	7.0317e-009	0.	127.15
2365	0.75	3.5	0.	127.03
2366	0.5	3.25	0.	126.96
2367	0.5	2.25	0.	127.43
2368	0.75	2.	0.	127.8
2369	0.5	4.75	0.	126.83
2370	0.75	4.5	0.	126.88
2371	-2.5	4.75	0.	123.66
2372	-2.25	4.5	0.	124.05
2373	-1.25	4.5	0.	125.27
2374	-1.	4.75	0.	125.67
2375	-5.	4.75	0.	124.43
2376	-4.75	4.5	0.	124.06
2377	-3.75	4.5	0.	123.47
2378	-3.5	4.75	0.	123.31
2379	-0.49901	-5.25	0.	127.13
2380	-0.4984	-5.7501	0.	126.76
2381	-0.74872	-5.5001	0.	126.93
2382	-0.24881	-5.5	0.	126.87
2383	7.8889e-005	-3.75	0.	128.19
2384	0.25004	-3.5	0.	128.25
2385	-0.24996	-3.5	0.	128.3
2386	2.	0.25	0.	127.03
2387	2.	-0.25	0.	126.53
2388	2.25	1.196e-009	0.	126.49
2389	-5.75	2.5	0.	123.7
2390	-6.	2.25	0.	123.92
2391	-6.25	2.5	0.	124.21
2392	-6.	2.75	0.	124.03
2393	-2.75	2.	0.	124.36
2394	-2.5	1.75	0.	124.91
2395	-1.	-2.25	0.	127.75
2396	-1.	-1.75	0.	127.43
2397	-1.25	-2.	0.	127.5
2398	-1.	0.25	0.	127.07
2399	-1.25	0.5	0.	126.94
2400	1.	3.75	0.	127.11
2401	1.	4.25	0.	127.
2402	1.25	4.	0.	127.16
2403	-0.75	5.	0.	126.03
2404	-0.5	5.25	0.	126.48
2405	-5.75	5.	0.	125.
2406	-5.25	5.	0.	124.77
2407	-5.5	5.25	0.	125.15
2408	-2.75	5.	0.	123.37
2409	-3.25	5.	0.	123.21
2410	-3.	5.25	0.	122.97
2411	0.50002	-3.25	0.	128.17
2412	0.75001	-3.	0.	128.04
2413	1.5	-1.75	0.	126.93
2414	1.75	-2.	0.	126.82
2415	1.5	-2.25	0.	127.18
2416	1.25	-2.5	0.	127.48
2417	1.	-2.75	0.	127.82
2418	-2.25	1.5	0.	125.41
2419	-2.	1.25	0.	125.97
2420	-1.5	0.75	0.	126.72
2421	-1.75	1.	0.	126.38
2422	1.5	1.25	0.	128.3
2423	1.75	1.	0.	128.16
2424	0.25	5.5	0.	127.04
2425	-0.25	5.5	0.	126.8
2426	-1.0838e-010	5.75	0.	127.07
2427	2.	0.75	0.	127.83
2428	2.25	0.5	0.	127.24
2429	0.5	5.75	0.	127.2
2430	0.75	6.	0.	127.36
2431	0.25	6.	0.	127.23
2432	0.5	6.25	0.	127.19
2433	-0.24818	-6.	0.	126.61
2434	1.408e-003	-5.75	0.	126.72
2435	0.25154	-6.	0.	126.59
2436	2.0719e-003	-6.25	0.	126.63
2437	-0.24931	-5.	0.	127.34
2438	-0.49946	-4.75	0.	127.63
2439	-0.74926	-5.0001	0.	127.46
2440	1.75	-1.5	0.	126.64
2441	1.5	-1.25	0.	126.75
2442	-0.74999	-3.	0.	128.28
2443	-0.49997	-3.25	0.	128.28
2444	-5.5	2.25	0.	123.32
2445	-5.25	2.5	0.	123.24
2446	-4.	2.25	0.	122.82
2447	-3.75	2.5	0.	123.17
2448	-0.5	-0.75	0.	127.22
2449	-0.75	-1.	0.	127.22
2450	-0.75	-0.5	0.	127.19
2451	0.75	2.5	0.	127.63
2452	0.5	2.75	0.	127.21
2453	0.5	5.25	0.	127.03
2454	0.75	5.5	0.	127.28
2455	0.75	5.	0.	127.06
2456	-1.5	4.75	0.	125.01
2457	-1.5	4.25	0.	124.98
2458	-1.75	4.5	0.	124.65
2459	-4.	4.75	0.	123.59
2460	-4.25	4.5	0.	123.72
2461	-6.25	3.5	0.	124.45
2462	-6.	3.75	0.	124.4
2463	-6.	3.25	0.	124.19
2464	-6.	4.75	0.	124.93
2465	-6.25	4.5	0.	124.86
2466	-6.	4.25	0.	124.64
2467	-6.	5.25	0.	125.24
2468	-6.25	5.	0.	125.11
2469	-5.75	5.5	0.	125.4
2470	-6.	5.75	0.	125.56
2471	-6.25	5.5	0.	125.37
2472	-0.74802	-6.0001	0.	126.62
2473	-0.49769	-6.2501	0.	126.64
2474	-0.99834	-5.7501	0.	126.79
2475	-1.248	-6.0002	0.	126.62
2476	-0.99764	-6.2501	0.	126.64
2477	-1.2487	-5.5001	0.	127.01
2478	-0.99897	-5.2501	0.	127.26
2479	0.25012	-4.	0.	128.17
2480	2.3e-004	-4.25	0.	127.97
2481	8.848e-004	-5.25	0.	127.07
2482	0.25102	-5.5	0.	126.85
2483	2.	-0.75	0.	126.35
2484	2.25	-0.5	0.	126.16
2485	-0.99975	-4.25	0.	128.37
2486	-0.9999	-3.75	0.	128.59
2487	-1.2498	-4.	0.	128.84
2488	-0.99999	-2.75	0.	128.15
2489	-1.25	-2.5	0.	127.96
2490	-5.75	2.	0.	123.54
2491	-6.25	2.	0.	124.2
2492	-6.	1.75	0.	123.9
2493	-3.25	2.	0.	123.63
2494	-3.	1.75	0.	124.11
2495	-4.75	2.	0.	122.52
2496	-4.25	2.	0.	122.53
2497	-4.5	1.75	0.	122.09
2498	-1.	-1.25	0.	127.25
2499	-1.25	-1.5	0.	127.25
2500	-1.	-0.25	0.	127.15
2501	-1.25	-1.8139e-008	0.	127.12
2502	1.25	3.5	0.	127.45
2503	1.	3.25	0.	127.4
2504	1.	2.25	0.	128.01
2505	1.25	2.	0.	128.46
2506	1.	1.75	0.	128.05
2507	1.	4.75	0.	127.1
2508	1.25	4.5	0.	127.16
2509	-2.5	5.25	0.	123.39
2510	-2.25	5.	0.	123.9
2511	-1.25	5.	0.	125.41
2512	-1.	5.25	0.	125.96
2513	-4.75	5.	0.	124.38
2514	-5.	5.25	0.	124.87
2515	-3.75	5.	0.	123.43
2516	-3.5	5.25	0.	123.1
2517	1.25	6.	0.	127.66
2518	1.	6.25	0.	127.35
2519	1.	5.75	0.	127.44
2520	0.50007	-3.75	0.	128.23
2521	0.75003	-3.5	0.	128.27
2522	2.	-1.75	0.	126.54
2523	2.	-2.25	0.	126.68
2524	2.25	-2.	0.	126.4
2525	1.75	-2.5	0.	127.03
2526	1.5	-2.75	0.	127.5
2527	2.5	0.25	0.	126.7
2528	2.5	-0.25	0.	126.12
2529	2.75	7.3285e-010	0.	126.05
2530	-2.75	1.5	0.	124.66
2531	-2.5	1.25	0.	125.37
2532	-1.5	0.25	0.	127.
2533	-1.75	0.5	0.	126.8
2534	1.5	1.75	0.	128.7
2535	1.75	1.5	0.	128.89
2536	1.25	1.5	0.	128.29
2537	1.5	3.75	0.	127.5
2538	1.5	4.25	0.	127.32
2539	1.75	4.	0.	127.54
2540	-0.75	5.5	0.	126.4
2541	-0.5	5.75	0.	126.89
2542	-5.25	5.5	0.	125.25
2543	-5.5	5.75	0.	125.65
2544	-2.75	5.5	0.	123.
2545	-3.25	5.5	0.	122.87
2546	-3.	5.75	0.	122.42
2547	1.	-3.25	0.	128.14
2548	1.25	-3.	0.	127.84
2549	-6.5	1.75	0.	124.61
2550	-6.25	1.5	0.	124.31
2551	-6.5	1.25	0.	124.88
2552	-6.75	1.5	0.	124.97
2553	-2.25	1.	0.	125.92
2554	-2.	0.75	0.	126.46
2555	2.	1.25	0.	128.75
2556	2.25	1.	0.	128.35
2557	-0.25	6.	0.	127.16
2558	-1.0542e-010	6.25	0.	127.23
2559	-6.25	6.	0.	125.58
2560	-5.75	6.	0.	125.82
2561	-6.	6.25	0.	125.8
2562	-1.4984	-5.7502	0.	126.84
2563	-1.4978	-6.2502	0.	126.63
2564	-1.7482	-6.0002	0.	126.63
2565	6.5	-5.75	0.	123.97
2566	6.5	-6.25	0.	124.29
2567	6.25	-6.	0.	124.11
2568	6.75	-6.	0.	124.21
2569	0.50115	-5.75	0.	126.72
2570	0.50167	-6.25	0.	126.62
2571	0.75122	-5.9999	0.	126.62
2572	-0.24744	-6.5001	0.	126.66
2573	0.25221	-6.5	0.	126.66
2574	2.7e-003	-6.75	0.	126.81
2575	2.5	0.75	0.	127.76
2576	2.75	0.5	0.	126.89
2577	0.25	6.5	0.	127.2
2578	0.5	6.75	0.	126.9
2579	0.75	6.5	0.	127.18
2580	-1.2496	-4.5001	0.	128.41
2581	-0.74964	-4.5	0.	128.03
2582	-0.99944	-4.7501	0.	127.86
2583	0.2506	-5.	0.	127.33
2584	4.9573e-004	-4.75	0.	127.55
2585	2.	-1.25	0.	126.4
2586	2.25	-1.	0.	126.18
2587	1.75	-1.	0.	126.52
2588	2.25	-1.5	0.	126.32
2589	-1.25	-3.	0.	128.48
2590	-0.99997	-3.25	0.	128.49
2591	-5.25	2.	0.	122.91
2592	-5.	1.75	0.	122.35
2593	-5.	2.25	0.	122.83
2594	-5.5	1.75	0.	123.07
2595	-3.75	2.	0.	122.95
2596	-3.5	1.75	0.	123.21
2597	-3.5	2.25	0.	123.3
2598	-4.	1.75	0.	122.42
2599	-1.	-0.75	0.	127.19
2600	-1.25	-1.	0.	127.18
2601	-1.25	-0.5	0.	127.18
2602	1.25	2.5	0.	128.31
2603	1.	2.75	0.	127.76
2604	1.	5.25	0.	127.3
2605	1.25	5.	0.	127.38
2606	-1.5	5.25	0.	125.18
2607	-1.75	5.	0.	124.65
2608	-4.25	5.	0.	123.89
2609	-4.5	5.25	0.	124.33
2610	-4.5	4.75	0.	124.02
2611	-4.	5.25	0.	123.66
2612	1.5	6.25	0.	127.7
2613	1.75	6.5	0.	127.74
2614	1.5	6.75	0.	127.24
2615	1.25	6.5	0.	127.38
2616	-6.5	2.25	0.	124.49
2617	-6.75	2.	0.	124.77
2618	-6.5	2.75	0.	124.49
2619	-6.75	2.5	0.	124.68
2620	-6.5	3.25	0.	124.56
2621	-6.75	3.	0.	124.69
2622	-6.25	3.	0.	124.3
2623	-6.5	3.75	0.	124.68
2624	-6.75	3.5	0.	124.75
2625	-6.75	4.5	0.	125.01
2626	-6.5	4.25	0.	124.85
2627	-6.5	4.75	0.	125.05
2628	-6.5	5.75	0.	125.39
2629	-6.75	5.5	0.	125.29
2630	-6.5	5.25	0.	125.24
2631	-6.5	6.25	0.	125.43
2632	-6.75	6.	0.	125.35
2633	-6.25	6.5	0.	125.65
2634	-6.5	6.75	0.	125.28
2635	-6.75	6.5	0.	125.27
2636	-0.74731	-6.5001	0.	126.66
2637	-0.49706	-6.7501	0.	126.82
2638	-1.2474	-6.5002	0.	126.65
2639	-0.99702	-6.7501	0.	126.83
2640	-1.7488	-5.5002	0.	127.13
2641	-1.499	-5.2502	0.	127.45
2642	0.7501	-4.	0.	128.3
2643	0.50019	-4.25	0.	128.04
2644	0.50073	-5.25	0.	127.1
2645	0.75082	-5.4999	0.	126.91
2646	2.25	-2.5	0.	126.35
2647	2.	-2.75	0.	126.84
2648	6.75	-5.5	0.	124.
2649	6.25	-5.5	0.	123.88
2650	6.5	-5.25	0.	123.79
2651	6.5	-4.25	0.	123.26
2652	6.25	-4.	0.	122.95
2653	6.5	-3.75	0.	122.56
2654	6.75	-4.	0.	123.37
2655	2.5	-0.75	0.	125.99
2656	2.75	-0.5	0.	125.79
2657	2.5	-2.25	0.	126.08
2658	2.5	-1.75	0.	126.18
2659	2.75	-2.	0.	126.09
2660	-1.5	-2.75	0.	128.29
2661	-1.75	-2.5	0.	127.99
2662	-1.5	-2.25	0.	127.71
2663	-5.75	1.5	0.	123.43
2664	-6.	1.25	0.	124.05
2665	-3.	1.25	0.	124.44
2666	-3.25	1.5	0.	123.69
2667	-4.25	1.5	0.	121.97
2668	-4.5	1.25	0.	121.24
2669	-4.75	1.5	0.	121.92
2670	-1.5	-1.25	0.	127.17
2671	-1.75	-1.5	0.	127.13
2672	-1.5	-1.75	0.	127.32
2673	-1.5	-0.25	0.	127.14
2674	-1.75	-5.8345e-008	0.	127.12
2675	1.75	3.5	0.	127.97
2676	1.5	3.25	0.	127.95
2677	1.5	2.25	0.	128.76
2678	1.75	2.	0.	129.32
2679	1.5	5.75	0.	127.84
2680	1.75	6.	0.	128.16
2681	1.75	4.5	0.	127.52
2682	1.5	4.75	0.	127.44
2683	-2.5	5.75	0.	123.
2684	-2.25	5.5	0.	123.72
2685	-1.25	5.5	0.	125.72
2686	-1.	5.75	0.	126.46
2687	-5.	5.75	0.	125.47
2688	-4.75	5.5	0.	124.82
2689	-3.75	5.5	0.	123.33
2690	-3.5	5.75	0.	122.77
2691	1.0001	-3.75	0.	128.34
2692	1.25	-3.5	0.	128.23
2693	1.75	-3.	0.	127.32
2694	1.5	-3.25	0.	127.93
2695	6.	-3.25	0.	120.69
2696	6.	-3.75	0.	122.26
2697	5.75	-3.5	0.	121.83
2698	6.25	-3.5	0.	121.86
2699	-6.25	1.	0.	124.62
2700	-6.5	0.75	0.	125.34
2701	-6.75	1.	0.	125.3
2702	-2.75	1.	0.	125.15
2703	-2.5	0.75	0.	126.01
2704	-2.	-2.25	0.	127.68
2705	-2.	-1.75	0.	127.21
2706	-2.25	-2.	0.	127.37
2707	-1.75	-2.	0.	127.4
2708	-2.	0.25	0.	126.92
2709	-2.25	0.5	0.	126.55
2710	2.	1.75	0.	129.51
2711	2.25	1.5	0.	129.54
2712	2.	6.25	0.	128.2
2713	2.25	6.5	0.	128.08
2714	2.	6.75	0.	127.55
2715	2.	3.75	0.	128.01
2716	2.	4.25	0.	127.75
2717	2.25	4.	0.	128.17
2718	-0.75	6.	0.	126.94
2719	-0.5	6.25	0.	127.35
2720	-5.25	6.	0.	125.88
2721	-5.5	6.25	0.	126.2
2722	-2.75	6.	0.	122.42
2723	-3.25	6.	0.	122.32
2724	-3.	6.25	0.	121.55
2725	-1.4972	-6.7502	0.	126.86
2726	-1.7476	-6.5002	0.	126.68
2727	-1.9986	-5.7502	0.	126.93
2728	-1.998	-6.2502	0.	126.68
2729	-2.2485	-6.0002	0.	126.82
2730	6.75	-6.5	0.	124.57
2731	6.5	-6.75	0.	124.76
2732	6.25	-6.5	0.	124.55
2733	6.	-5.75	0.	124.02
2734	6.	-6.25	0.	124.36
2735	5.75	-6.	0.	124.43
2736	3.	-0.25	0.	125.72
2737	3.	0.25	0.	126.24
2738	3.25	5.9212e-010	0.	125.73
2739	0.50217	-6.75	0.	126.84
2740	0.75172	-6.5	0.	126.71
2741	-0.24692	-7.0001	0.	126.97
2742	0.25267	-7.	0.	127.
2743	3.0698e-003	-7.2501	0.	127.2
2744	1.0009	-5.7499	0.	126.81
2745	1.0013	-6.25	0.	126.7
2746	1.2509	-5.9999	0.	126.87
2747	5.75	-3.	0.	120.02
2748	6.25	-3.	0.	120.29
2749	6.	-2.75	0.	118.53
2750	-5.75	6.5	0.	126.17
2751	-6.	6.75	0.	125.8
2752	-6.75	7.	0.	125.01
2753	-6.25	7.	0.	125.43
2754	-6.5	7.25	0.	124.9
2755	-7.	-1.75	0.	125.63
2756	-7.	-2.25	0.	126.
2757	-6.75	-2.	0.	125.51
2758	-7.25	-2.	0.	125.93
2759	2.5	1.25	0.	129.13
2760	2.75	1.	0.	128.3
2761	-9.7622e-011	6.75	0.	127.11
2762	-0.25	6.5	0.	127.42
2763	0.25	7.	0.	126.81
2764	0.5	7.25	0.	126.28
2765	0.75	7.	0.	126.69
2766	-1.7496	-4.5001	0.	129.
2767	-1.4995	-4.7501	0.	128.25
2768	-1.4997	-4.2501	0.	128.88
2769	0.75049	-4.9999	0.	127.47
2770	0.50041	-4.75	0.	127.62
2771	2.75	-2.5	0.	125.61
2772	3.	-2.25	0.	125.62
2773	3.25	-2.5	0.	125.08
2774	3.	-2.75	0.	124.67
2775	2.5	-2.75	0.	125.8
2776	6.75	-4.5	0.	123.73
2777	6.25	-4.5	0.	123.56
2778	6.5	-4.75	0.	123.62
2779	2.5	-1.25	0.	126.1
2780	2.75	-1.	0.	125.95
2781	2.75	-1.5	0.	126.17
2782	-1.75	-3.	0.	128.78
2783	-1.5	-3.25	0.	128.84
2784	-5.5	1.25	0.	122.87
2785	-5.25	1.5	0.	122.51
2786	-4.	1.25	0.	121.85
2787	-3.75	1.5	0.	122.67
2788	-1.5	-0.75	0.	127.16
2789	-1.75	-1.	0.	127.15
2790	-1.75	-0.5	0.	127.22
2791	1.75	2.5	0.	129.22
2792	1.5	2.75	0.	128.46
2793	1.75	5.5	0.	128.16
2794	1.25	5.5	0.	127.62
2795	1.5	5.25	0.	127.7
2796	-1.5	5.75	0.	125.55
2797	-1.75	5.5	0.	124.76
2798	-4.	5.75	0.	123.76
2799	-4.25	5.5	0.	124.11
2800	1.5	7.25	0.	126.58
2801	1.75	7.	0.	127.05
2802	1.25	7.	0.	126.82
2803	2.75	7.	0.	126.84
2804	2.5	6.75	0.	127.69
2805	2.5	7.25	0.	126.68
2806	2.25	7.	0.	127.15
2807	5.25	7.	0.	119.89
2808	4.75	7.	0.	120.02
2809	5.	6.75	0.	118.41
2810	5.	7.25	0.	120.3
2811	-7.	0.25	0.	126.02
2812	-6.75	0.5	0.	125.75
2813	-7.25	0.5	0.	125.96
2814	-7.	0.75	0.	125.72
2815	-7.25	1.5	0.	125.4
2816	-7.	1.75	0.	125.12
2817	-7.	1.25	0.	125.39
2818	-7.25	2.5	0.	125.06
2819	-7.	2.25	0.	124.96
2820	-7.	2.75	0.	124.88
2821	-7.25	4.5	0.	125.12
2822	-7.	4.25	0.	125.02
2823	-7.	4.75	0.	125.12
2824	-7.	5.75	0.	125.25
2825	-7.25	5.5	0.	125.22
2826	-7.	5.25	0.	125.21
2827	-7.	6.25	0.	125.19
2828	-7.25	6.	0.	125.19
2829	-7.	6.75	0.	125.01
2830	-7.25	6.5	0.	125.07
2831	7.25	-4.5	0.	124.32
2832	7.	-4.75	0.	124.
2833	7.	-4.25	0.	123.85
2834	7.	-5.75	0.	124.24
2835	7.25	-5.5	0.	124.39
2836	7.	-5.25	0.	124.1
2837	7.	-6.25	0.	124.49
2838	7.25	-6.	0.	124.53
2839	7.	-6.75	0.	124.84
2840	7.25	-6.5	0.	124.79
2841	-0.74677	-7.0001	0.	126.99
2842	-0.49661	-7.2501	0.	127.2
2843	-1.2468	-7.0002	0.	127.04
2844	-0.99649	-7.2501	0.	127.25
2845	-1.9991	-5.2502	0.	127.74
2846	-2.249	-5.5002	0.	127.4
2847	1.2501	-4.	0.	128.5
2848	1.0002	-4.25	0.	128.27
2849	1.0006	-5.2499	0.	127.27
2850	1.2506	-5.4999	0.	127.18
2851	2.25	-3.	0.	126.29
2852	2.	-3.25	0.	127.21
2853	3.5	-2.75	0.	124.02
2854	3.25	-3.	0.	123.6
2855	3.75	-3.	0.	123.05
2856	3.5	-3.25	0.	121.95
2857	5.75	-5.5	0.	124.22
2858	6.	-5.25	0.	123.87
2859	6.	-4.25	0.	123.26
2860	5.75	-4.	0.	123.21
2861	5.5	-3.25	0.	121.19
2862	5.25	-3.	0.	121.02
2863	5.5	-2.75	0.	119.33
2864	3.	-0.75	0.	125.76
2865	3.25	-0.5	0.	125.66
2866	3.	-1.75	0.	126.07
2867	3.25	-2.	0.	126.09
2868	-1.9997	-4.2501	0.	129.64
2869	-2.2498	-4.0001	0.	130.38
2870	-1.7498	-4.0001	0.	129.52
2871	-1.9999	-3.7501	0.	129.83
2872	-2.	-2.75	0.	128.48
2873	-2.25	-2.5	0.	128.07
2874	-7.	-0.25	0.	126.13
2875	-7.25	-4.5566e-009	0.	126.14
2876	-6.75	-2.5409e-009	0.	126.15
2877	-7.	-1.25	0.	125.7
2878	-7.25	-1.5	0.	125.74
2879	-6.75	-1.5	0.	125.51
2880	-5.75	1.	0.	123.49
2881	-6.	0.75	0.	124.5
2882	-3.25	1.	0.	123.91
2883	-3.	0.75	0.	125.08
2884	-4.25	1.	0.	121.12
2885	-4.5	0.75	0.	119.85
2886	-4.75	1.	0.	121.02
2887	-2.	-1.25	0.	127.11
2888	-2.25	-1.5	0.	127.11
2889	-2.	-0.25	0.	127.19
2890	-2.25	-1.0822e-007	0.	127.12
2891	5.75	7.	0.	121.28
2892	5.5	7.25	0.	120.88
2893	5.5	6.75	0.	119.45
2894	2.25	3.5	0.	128.76
2895	2.	3.25	0.	128.68
2896	2.	2.25	0.	129.77
2897	2.25	2.	0.	130.39
2898	2.	5.75	0.	128.47
2899	2.25	6.	0.	128.81
2900	2.	4.75	0.	127.93
2901	2.25	4.5	0.	128.13
2902	4.25	7.	0.	121.64
2903	4.5	7.25	0.	121.1
2904	4.5	6.75	0.	119.77
2905	3.25	7.	0.	125.79
2906	3.	6.75	0.	127.24
2907	3.	7.25	0.	126.08
2908	-2.5	6.25	0.	122.42
2909	-2.25	6.	0.	123.51
2910	-1.25	6.	0.	126.28
2911	-1.	6.25	0.	127.22
2912	-5.	6.25	0.	126.33
2913	-4.75	6.	0.	125.48
2914	-3.75	6.	0.	123.19
2915	-3.5	6.25	0.	122.25
2916	-1.747	-7.0002	0.	127.18
2917	-1.4966	-7.2502	0.	127.36
2918	-1.9974	-6.7502	0.	127.
2919	-2.248	-6.5002	0.	126.91
2920	6.75	-7.	0.	125.03
2921	6.25	-7.	0.	125.13
2922	6.5	-7.25	0.	125.27
2923	6.	-6.75	0.	124.92
2924	5.75	-6.5	0.	124.89
2925	3.	0.75	0.	127.43
2926	3.25	0.5	0.	126.46
2927	0.75209	-7.	0.	127.11
2928	0.50245	-7.25	0.	127.25
2929	7.25	-7.	0.	125.13
2930	7.	-7.25	0.	125.24
2931	7.	-3.25	0.	123.27
2932	7.25	-3.5	0.	124.23
2933	6.75	-3.5	0.	122.78
2934	7.	-3.75	0.	123.59
2935	1.2513	-6.5	0.	126.95
2936	1.0016	-6.75	0.	126.97
2937	5.5	-3.75	0.	122.8
2938	5.25	-3.5	0.	122.46
2939	3.5	-2.25	0.	125.55
2940	3.75	-2.5	0.	124.83
2941	6.5	-2.75	0.	119.99
2942	6.75	-3.	0.	121.97
2943	6.5	-3.25	0.	121.47
2944	-6.25	0.5	0.	125.22
2945	-6.5	0.25	0.	125.89
2946	-2.5	0.25	0.	126.75
2947	-2.75	0.5	0.	125.94
2948	2.75	6.5	0.	128.08
2949	2.5	6.25	0.	128.7
2950	-7.25	7.	0.	124.85
2951	-7.	7.25	0.	124.72
2952	-5.5	6.75	0.	126.58
2953	-5.25	6.5	0.	126.65
2954	-5.75	7.	0.	126.21
2955	-6.	7.25	0.	125.39
2956	7.	7.25	0.	125.66
2957	7.25	7.	0.	126.38
2958	7.	6.75	0.	126.61
2959	6.75	7.	0.	125.27
2960	-7.	-2.75	0.	126.93
2961	-7.25	-2.5	0.	126.58
2962	-6.75	-2.5	0.	126.
2963	-2.4989	-5.7502	0.	127.29
2964	-2.4984	-6.2502	0.	127.05
2965	-2.7489	-6.0002	0.	127.71
2966	5.25	-6.	0.	125.64
2967	5.5	-5.75	0.	124.63
2968	5.5	-6.25	0.	124.95
2969	1.7506	-5.9999	0.	127.78
2970	1.5006	-5.7499	0.	127.23
2971	1.5009	-6.25	0.	127.11
2972	6.	-2.25	0.	115.74
2973	6.25	-2.5	0.	118.2
2974	5.75	-2.5	0.	117.8
2975	3.75	5.4364e-010	0.	126.2
2976	3.5	0.25	0.	125.95
2977	3.5	-0.25	0.	125.67
2978	-2.75	-2.	0.	127.81
2979	-2.5	-1.75	0.	127.27
2980	-2.5	-2.25	0.	127.76
2981	-6.25	-2.	0.	125.64
2982	-6.5	-2.25	0.	125.51
2983	-6.5	-1.75	0.	125.39
2984	5.	6.25	0.	115.81
2985	4.75	6.5	0.	118.14
2986	5.25	6.5	0.	117.94
2987	2.75	1.5	0.	129.99
2988	2.5	1.75	0.	130.42
2989	2.75	4.	0.	129.55
2990	2.5	4.25	0.	128.55
2991	2.5	3.75	0.	128.91
2992	-0.25	7.	0.	127.32
2993	-8.5053e-011	7.25	0.	126.53
2994	-0.5	6.75	0.	127.63
2995	-0.75	6.5	0.	127.62
2996	-3.	6.75	0.	120.33
2997	-3.25	6.5	0.	121.47
2998	-2.75	6.5	0.	121.55
2999	-1.9995	-4.7501	0.	128.81
3000	-1.7493	-5.0001	0.	128.06
3001	-2.2494	-5.0002	0.	128.54
3002	-2.2497	-4.5001	0.	129.78
3003	1.2504	-4.9999	0.	127.79
3004	1.0003	-4.7499	0.	127.86
3005	2.75	-3.	0.	124.86
3006	3.	-3.25	0.	123.36
3007	2.5	-3.25	0.	125.58
3008	4.25	-3.	0.	122.9
3009	4.	-2.75	0.	123.87
3010	4.	-3.25	0.	122.22
3011	5.75	-4.5	0.	124.
3012	6.	-4.75	0.	123.73
3013	4.75	-3.	0.	122.28
3014	4.5	-2.75	0.	123.28
3015	4.5	-3.25	0.	122.78
3016	5.	-3.25	0.	122.3
3017	5.	-2.75	0.	121.49
3018	3.	-1.25	0.	126.02
3019	3.25	-1.	0.	126.04
3020	3.25	-1.5	0.	126.4
3021	-2.25	-3.	0.	129.11
3022	-1.9999	-3.25	0.	129.34
3023	-7.	-0.75	0.	125.97
3024	-7.25	-0.5	0.	126.1
3025	-6.75	-0.5	0.	126.22
3026	-7.25	-1.	0.	125.89
3027	-6.75	-1.	0.	125.84
3028	-5.5	0.75	0.	122.86
3029	-5.25	1.	0.	122.06
3030	-3.75	1.	0.	122.34
3031	-3.5	0.75	0.	123.31
3032	-3.5	1.25	0.	123.16
3033	-4.	0.75	0.	121.06
3034	-2.	-0.75	0.	127.2
3035	-2.25	-1.	0.	127.2
3036	-2.25	-0.5	0.	127.37
3037	6.	7.25	0.	122.5
3038	6.	6.75	0.	122.18
3039	6.25	7.	0.	123.4
3040	2.25	2.5	0.	130.46
3041	2.	2.75	0.	129.42
3042	2.	5.25	0.	128.3
3043	2.25	5.5	0.	128.97
3044	2.25	5.	0.	128.54
3045	1.75	5.	0.	127.84
3046	3.75	7.	0.	123.9
3047	4.	7.25	0.	122.88
3048	4.	6.75	0.	122.74
3049	3.5	7.25	0.	124.77
3050	3.5	6.75	0.	125.6
3051	-1.5	6.25	0.	126.27
3052	-1.75	6.	0.	125.03
3053	-4.	6.25	0.	124.
3054	-4.25	6.	0.	124.48
3055	-1.9969	-7.2502	0.	127.61
3056	-2.2474	-7.0002	0.	127.52
3057	6.	-7.25	0.	125.52
3058	5.75	-7.	0.	125.52
3059	3.	1.25	0.	129.16
3060	3.25	1.	0.	127.86
3061	-2.75	7.	0.	120.37
3062	-3.25	7.	0.	120.33
3063	-3.	7.25	0.	119.83
3064	-0.75	7.	0.	128.24
3065	-0.5	7.25	0.	127.33
3066	3.	3.75	0.	130.58
3067	3.	4.25	0.	130.17
3068	3.25	4.	0.	133.23
3069	3.25	1.5	0.	129.71
3070	3.	1.75	0.	131.12
3071	7.25	4.	0.	127.13
3072	7.	3.75	0.	127.3
3073	6.75	4.	0.	130.07
3074	7.	4.25	0.	127.63
3075	4.75	6.	0.	115.64
3076	5.25	6.	0.	115.37
3077	5.	5.75	0.	113.53
3078	-6.	-2.25	0.	125.57
3079	-6.	-1.75	0.	125.86
3080	-5.75	-2.	0.	127.89
3081	-3.	-1.75	0.	127.86
3082	-3.	-2.25	0.	128.25
3083	-3.25	-2.	0.	130.08
3084	4.	-0.25	0.	126.62
3085	4.	0.25	0.	126.48
3086	4.25	1.2686e-009	0.	129.22
3087	6.25	-2.	0.	115.57
3088	5.75	-2.	0.	115.1
3089	6.	-1.75	0.	113.37
3090	2.0006	-6.25	0.	128.22
3091	2.0004	-5.75	0.	128.35
3092	2.2504	-6.	0.	130.75
3093	5.	-5.75	0.	126.18
3094	4.75	-6.	0.	129.06
3095	5.	-6.25	0.	126.42
3096	-7.	-6.25	0.	129.3
3097	-7.	-5.75	0.	129.57
3098	-6.75	-6.	0.	132.19
3099	-7.25	-6.	0.	128.75
3100	-7.	-3.25	0.	128.33
3101	-7.25	-3.	0.	127.71
3102	-6.75	-3.	0.	127.04
3103	-7.25	-3.5	0.	129.11
3104	-6.75	-3.5	0.	128.54
3105	-7.	-3.75	0.	130.01
3106	0.25	7.5	0.	125.99
3107	-0.25	7.5	0.	126.53
3108	-6.7016e-011	7.75	0.	125.53
3109	0.75	7.5	0.	125.95
3110	0.5	7.75	0.	125.48
3111	1.25	7.5	0.	126.12
3112	1.	7.75	0.	125.68
3113	1.	7.25	0.	126.36
3114	1.75	7.5	0.	126.29
3115	1.5	7.75	0.	125.91
3116	2.25	7.5	0.	126.29
3117	2.	7.75	0.	126.02
3118	2.	7.25	0.	126.76
3119	2.5	7.75	0.	125.88
3120	2.75	7.5	0.	125.92
3121	3.75	7.5	0.	123.75
3122	3.5	7.75	0.	124.38
3123	3.25	7.5	0.	125.06
3124	4.25	7.5	0.	122.34
3125	4.	7.75	0.	123.16
3126	4.75	7.5	0.	121.37
3127	4.5	7.75	0.	122.09
3128	5.25	7.5	0.	121.28
3129	5.	7.75	0.	121.61
3130	5.75	7.5	0.	122.1
3131	5.5	7.75	0.	121.94
3132	6.25	7.5	0.	123.42
3133	6.	7.75	0.	122.9
3134	6.75	7.5	0.	124.71
3135	6.5	7.75	0.	124.07
3136	6.5	7.25	0.	124.32
3137	7.25	7.5	0.	125.64
3138	7.	7.75	0.	125.06
3139	7.5	7.25	0.	126.36
3140	7.5	7.75	0.	125.69
3141	7.75	7.5	0.	126.13
3142	7.5	6.75	0.	127.17
3143	7.75	7.	0.	126.81
3144	7.25	6.5	0.	127.4
3145	7.75	6.5	0.	127.53
3146	7.5	6.25	0.	127.96
3147	7.5	3.75	0.	126.82
3148	7.5	4.25	0.	126.74
3149	7.75	4.	0.	126.68
3150	7.25	3.5	0.	126.99
3151	7.75	3.5	0.	127.23
3152	7.5	3.25	0.	127.59
3153	3.5	0.75	0.	126.88
3154	3.75	0.5	0.	126.24
3155	-5.5	7.25	0.	126.42
3156	-5.25	7.	0.	127.37
3157	-7.5	-3.25	0.	128.49
3158	-7.5	-3.75	0.	129.57
3159	-7.75	-3.5	0.	128.85
3160	-7.5	-2.75	0.	127.37
3161	-7.75	-3.	0.	127.87
3162	-7.5	-2.25	0.	126.51
3163	-7.75	-2.5	0.	126.96
3164	-7.5	-1.75	0.	126.05
3165	-7.75	-2.	0.	126.35
3166	-7.5	-1.25	0.	125.94
3167	-7.75	-1.5	0.	126.07
3168	-7.5	-0.75	0.	126.02
3169	-7.75	-1.	0.	126.05
3170	-7.5	-0.25	0.	126.11
3171	-7.75	-0.5	0.	126.13
3172	-7.5	0.25	0.	126.07
3173	-7.75	-1.0435e-008	0.	126.15
3174	-7.5	0.75	0.	125.91
3175	-7.75	0.5	0.	126.06
3176	-7.5	1.25	0.	125.68
3177	-7.75	1.	0.	125.88
3178	-7.25	1.	0.	125.67
3179	-7.5	1.75	0.	125.47
3180	-7.75	1.5	0.	125.67
3181	-7.5	2.25	0.	125.3
3182	-7.75	2.	0.	125.49
3183	-7.25	2.	0.	125.19
3184	-7.5	2.75	0.	125.19
3185	-7.75	2.5	0.	125.35
3186	-7.5	3.25	0.	125.14
3187	-7.75	3.	0.	125.27
3188	-7.25	3.	0.	125.01
3189	-7.5	3.75	0.	125.13
3190	-7.75	3.5	0.	125.22
3191	-7.25	3.5	0.	125.01
3192	-7.5	4.25	0.	125.15
3193	-7.75	4.	0.	125.21
3194	-7.25	4.	0.	125.05
3195	-7.5	4.75	0.	125.18
3196	-7.75	4.5	0.	125.21
3197	-7.5	5.25	0.	125.19
3198	-7.75	5.	0.	125.21
3199	-7.25	5.	0.	125.18
3200	-7.5	5.75	0.	125.16
3201	-7.75	5.5	0.	125.18
3202	-7.5	6.25	0.	125.07
3203	-7.75	6.	0.	125.11
3204	-7.5	6.75	0.	124.91
3205	-7.75	6.5	0.	124.99
3206	-7.5	7.25	0.	124.71
3207	-7.75	7.	0.	124.82
3208	-7.25	7.5	0.	124.58
3209	-7.75	7.5	0.	124.65
3210	-7.5	7.75	0.	124.54
3211	-6.75	7.5	0.	124.6
3212	-7.	7.75	0.	124.42
3213	-6.25	7.5	0.	124.86
3214	-6.5	7.75	0.	124.39
3215	-5.75	7.5	0.	125.6
3216	-6.	7.75	0.	124.61
3217	-6.25	-2.5	0.	125.44
3218	-6.5	-2.75	0.	126.11
3219	-3.75	6.5	0.	123.05
3220	-3.5	6.75	0.	121.48
3221	-5.	6.75	0.	127.43
3222	-4.75	6.5	0.	126.49
3223	-1.25	6.5	0.	127.2
3224	-1.	6.75	0.	128.23
3225	-2.5	6.75	0.	121.6
3226	-2.25	6.5	0.	123.3
3227	3.25	6.5	0.	127.04
3228	3.	6.25	0.	128.83
3229	4.25	6.5	0.	120.87
3230	4.5	6.25	0.	118.02
3231	2.5	4.75	0.	128.74
3232	2.75	4.5	0.	129.18
3233	2.75	6.	0.	129.44
3234	2.5	5.75	0.	129.31
3235	2.5	2.25	0.	131.07
3236	2.75	2.	0.	131.55
3237	2.75	3.5	0.	129.95
3238	2.5	3.25	0.	129.77
3239	7.75	4.5	0.	126.81
3240	7.5	4.75	0.	127.25
3241	7.25	4.5	0.	127.25
3242	5.75	6.5	0.	120.34
3243	5.5	6.25	0.	117.56
3244	7.	6.25	0.	127.96
3245	6.75	6.5	0.	126.29
3246	-2.5	-0.25	0.	127.3
3247	-2.75	-1.445e-007	0.	127.
3248	-2.5	-1.25	0.	127.2
3249	-2.75	-1.5	0.	127.32
3250	-5.75	0.5	0.	123.88
3251	-6.	0.25	0.	125.42
3252	-4.25	0.5	0.	119.78
3253	-4.5	0.25	0.	117.35
3254	-4.75	0.5	0.	119.62
3255	-6.5	-1.25	0.	125.66
3256	-6.25	-1.5	0.	125.61
3257	-6.5	-0.25	0.	126.24
3258	-6.25	-3.6012e-009	0.	126.09
3259	-2.5	-2.75	0.	128.7
3260	-2.75	-2.5	0.	128.21
3261	6.75	-2.5	0.	121.06
3262	6.5	-2.25	0.	118.09
3263	3.5	-1.75	0.	126.41
3264	3.75	-2.	0.	126.45
3265	3.75	-0.5	0.	126.1
3266	3.5	-0.75	0.	125.94
3267	5.25	-2.5	0.	119.79
3268	5.5	-2.25	0.	117.22
3269	4.25	-2.5	0.	124.24
3270	4.	-2.25	0.	125.74
3271	5.5	-4.25	0.	123.96
3272	5.25	-4.	0.	124.03
3273	5.5	-5.25	0.	124.51
3274	5.25	-5.5	0.	125.17
3275	5.	-3.75	0.	123.7
3276	4.75	-3.5	0.	122.81
3277	2.25	-3.5	0.	126.5
3278	2.	-3.75	0.	128.
3279	1.75	-3.5	0.	127.82
3280	3.25	-3.5	0.	121.69
3281	3.5	-3.75	0.	118.97
3282	3.75	-3.5	0.	121.1
3283	1.5004	-5.2499	0.	127.7
3284	1.7504	-5.4999	0.	127.8
3285	1.5001	-4.25	0.	128.61
3286	1.7501	-4.	0.	128.57
3287	1.5	-3.75	0.	128.39
3288	1.7508	-6.5	0.	127.55
3289	1.5012	-6.75	0.	127.34
3290	5.5	-6.75	0.	125.48
3291	5.25	-6.5	0.	125.74
3292	7.25	-3.	0.	124.32
3293	7.	-2.75	0.	123.05
3294	7.5	-3.25	0.	125.28
3295	7.5	-2.75	0.	126.07
3296	7.75	-3.	0.	126.39
3297	7.75	-3.5	0.	125.71
3298	7.5	-3.75	0.	124.92
3299	7.5	-4.75	0.	124.66
3300	7.75	-4.5	0.	125.11
3301	7.5	-4.25	0.	124.75
3302	7.5	-5.25	0.	124.64
3303	7.25	-5.	0.	124.34
3304	7.75	-5.	0.	124.98
3305	7.5	-5.75	0.	124.69
3306	7.75	-5.5	0.	124.93
3307	7.5	-6.25	0.	124.84
3308	7.75	-6.	0.	124.97
3309	7.5	-6.75	0.	125.07
3310	7.75	-6.5	0.	125.12
3311	7.5	-7.25	0.	125.35
3312	7.75	-7.	0.	125.33
3313	7.25	-7.5	0.	125.47
3314	7.75	-7.5	0.	125.56
3315	7.5	-7.75	0.	125.62
3316	6.75	-7.5	0.	125.47
3317	7.	-7.75	0.	125.59
3318	6.25	-7.5	0.	125.65
3319	6.5	-7.75	0.	125.66
3320	5.75	-7.5	0.	126.07
3321	6.	-7.75	0.	125.9
3322	-2.4997	-4.2501	0.	130.52
3323	-2.7498	-4.0001	0.	131.07
3324	-2.4999	-3.7501	0.	130.64
3325	-2.7492	-5.5002	0.	127.96
3326	-2.4993	-5.2502	0.	128.2
3327	-7.5	-5.25	0.	128.87
3328	-7.25	-5.5	0.	128.98
3329	-7.75	-5.5	0.	128.07
3330	-7.5	-5.75	0.	128.16
3331	-7.5	-4.25	0.	130.09
3332	-7.25	-4.	0.	130.46
3333	-7.75	-4.	0.	129.56
3334	-7.25	-6.5	0.	128.52
3335	-7.75	-6.5	0.	127.76
3336	-7.5	-6.25	0.	127.96
3337	-7.5	-6.75	0.	128.28
3338	-2.4979	-6.7502	0.	127.42
3339	-2.7484	-6.5002	0.	127.56
3340	1.0019	-7.25	0.	127.42
3341	1.2515	-7.	0.	127.36
3342	1.2517	-7.5	0.	127.84
3343	1.0019	-7.7501	0.	127.77
3344	0.75224	-7.5001	0.	127.57
3345	-0.24662	-7.5001	0.	127.42
3346	3.1454e-003	-7.7501	0.	127.63
3347	0.25286	-7.5001	0.	127.45
3348	-0.74633	-7.5001	0.	127.46
3349	-0.49642	-7.7501	0.	127.65
3350	-1.2463	-7.5001	0.	127.57
3351	-0.99622	-7.7501	0.	127.73
3352	-1.7465	-7.5002	0.	127.79
3353	-1.4963	-7.7501	0.	127.87
3354	-1.9967	-7.7501	0.	128.11
3355	-2.2472	-7.5002	0.	128.22
3356	-2.748	-7.0002	0.	128.33
3357	-2.4976	-7.2502	0.	128.12
3358	-7.5	-7.75	0.	128.99
3359	-7.75	-7.5	0.	128.82
3360	-7.25	-7.5	0.	129.59
3361	-7.5	-7.25	0.	128.83
3362	-7.5	-4.75	0.	129.74
3363	-7.75	-4.5	0.	129.58
3364	-7.25	-4.5	0.	130.94
3365	-7.75	-5.	0.	128.87
3366	-7.25	-5.	0.	130.08
3367	-2.7497	-4.5001	0.	130.58
3368	-2.4995	-4.7502	0.	129.5
3369	5.5	-7.25	0.	126.06
3370	5.5	-7.75	0.	126.28
3371	5.25	-7.5	0.	126.78
3372	5.25	-7.	0.	126.37
3373	1.5013	-7.7501	0.	127.96
3374	1.7511	-7.5	0.	128.32
3375	1.5013	-7.25	0.	127.78
3376	1.5002	-4.75	0.	128.31
3377	1.7501	-4.5	0.	128.97
3378	1.2502	-4.5	0.	128.39
3379	1.7503	-4.9999	0.	128.46
3380	2.75	-3.5	0.	124.07
3381	3.	-3.75	0.	121.75
3382	2.5	-3.75	0.	126.03
3383	5.5	-4.75	0.	124.44
3384	5.25	-5.	0.	125.25
3385	5.75	-5.	0.	124.17
3386	5.25	-4.5	0.	125.12
3387	4.75	-2.5	0.	122.49
3388	4.5	-2.25	0.	124.82
3389	5.	-2.25	0.	121.29
3390	3.75	-1.5	0.	127.25
3391	3.5	-1.25	0.	126.41
3392	7.25	-2.5	0.	124.8
3393	7.	-2.25	0.	123.15
3394	7.75	-2.5	0.	127.6
3395	7.5	-2.25	0.	127.75
3396	-2.75	-3.	0.	129.41
3397	-2.4999	-3.25	0.	129.86
3398	-6.5	-0.75	0.	126.09
3399	-6.25	-0.5	0.	126.59
3400	-6.25	-1.	0.	126.18
3401	-5.5	0.25	0.	123.55
3402	-5.25	0.5	0.	121.61
3403	-3.75	0.5	0.	122.03
3404	-3.5	0.25	0.	124.18
3405	-3.25	0.5	0.	124.48
3406	-4.	0.25	0.	119.98
3407	-2.5	-0.75	0.	127.37
3408	-2.75	-1.	0.	127.56
3409	-2.75	-0.5	0.	127.71
3410	6.	6.25	0.	122.14
3411	6.25	6.5	0.	123.73
3412	7.25	5.5	0.	128.97
3413	7.5	5.25	0.	127.99
3414	7.5	5.75	0.	128.34
3415	7.75	5.5	0.	128.03
3416	2.75	2.5	0.	132.12
3417	2.5	2.75	0.	130.74
3418	2.75	5.	0.	129.73
3419	2.5	5.25	0.	129.21
3420	3.75	6.5	0.	124.45
3421	4.	6.25	0.	122.94
3422	3.5	6.25	0.	127.32
3423	-1.5	6.75	0.	127.66
3424	-1.75	6.5	0.	125.63
3425	-4.	6.75	0.	124.52
3426	-4.25	6.5	0.	125.16
3427	-7.	-6.75	0.	129.38
3428	-6.75	-6.5	0.	131.03
3429	-2.9995	-5.2502	0.	128.96
3430	-3.2495	-5.5002	0.	130.03
3431	-2.9992	-5.7502	0.	128.37
3432	2.2505	-6.5	0.	129.68
3433	2.0007	-6.75	0.	128.19
3434	5.	-5.25	0.	125.91
3435	4.75	-5.5	0.	127.9
3436	4.25	-0.5	0.	128.59
3437	4.	-0.75	0.	126.95
3438	6.5	-1.75	0.	115.19
3439	6.75	-2.	0.	120.18
3440	-5.75	-2.5	0.	126.32
3441	-6.	-2.75	0.	125.3
3442	-3.25	-1.5	0.	128.99
3443	-3.	-1.25	0.	127.68
3444	5.5	1.75	0.	109.6
3445	5.5	2.25	0.	109.63
3446	5.25	2.	0.	111.82
3447	5.75	2.	0.	111.9
3448	3.	3.25	0.	131.37
3449	3.25	3.5	0.	132.61
3450	4.25	6.	0.	120.1
3451	4.5	5.75	0.	115.19
3452	-2.25	7.	0.	123.12
3453	-2.5	7.25	0.	120.1
3454	-5.5	7.75	0.	125.41
3455	-5.25	7.5	0.	127.23
3456	3.5	1.25	0.	128.41
3457	3.75	1.	0.	127.22
3458	-6.5	-3.25	0.	127.24
3459	-6.25	-3.	0.	125.97
3460	-6.25	-3.5	0.	126.69
3461	-6.5	-3.75	0.	128.91
3462	-2.9985	-6.7502	0.	128.45
3463	-3.249	-6.5002	0.	130.03
3464	-2.9989	-6.2502	0.	128.22
3465	-7.	-5.25	0.	130.19
3466	-6.75	-5.5	0.	131.51
3467	-6.75	-4.	0.	130.37
3468	-7.	-4.25	0.	131.3
3469	2.0003	-5.25	0.	128.56
3470	2.2503	-5.5	0.	129.79
3471	2.25	-4.	0.	127.53
3472	2.0001	-4.25	0.	128.93
3473	3.75	-4.	0.	118.52
3474	3.25	-4.	0.	118.98
3475	3.5	-4.25	0.	113.14
3476	5.	-4.25	0.	125.2
3477	4.75	-4.	0.	124.32
3478	5.25	-2.	0.	118.72
3479	5.5	-1.75	0.	114.19
3480	4.	-1.75	0.	127.29
3481	4.25	-2.	0.	126.29
3482	4.	0.75	0.	126.56
3483	4.25	0.5	0.	127.84
3484	-3.	-2.75	0.	128.92
3485	-3.25	-2.5	0.	129.24
3486	-2.9998	-4.2501	0.	131.13
3487	-3.2499	-4.0001	0.	129.69
3488	-2.9999	-3.7501	0.	131.08
3489	-4.75	-4.	0.	109.86
3490	-4.2499	-4.	0.	113.53
3491	-4.5	-4.25	0.	109.14
3492	-4.5	-3.75	0.	106.66
3493	-6.	-1.25	0.	126.13
3494	-5.75	-1.5	0.	127.3
3495	-5.75	-3.5877e-009	0.	125.09
3496	-6.	-0.25	0.	126.43
3497	-4.25	-2.4353e-008	0.	117.51
3498	-4.75	-7.2286e-009	0.	117.29
3499	-4.5	-0.25	0.	111.79
3500	-3.	-0.25	0.	127.41
3501	-3.25	-1.3449e-007	0.	125.89
3502	-3.	0.25	0.	126.19
3503	5.75	6.	0.	119.35
3504	5.5	5.75	0.	114.62
3505	7.	5.75	0.	129.14
3506	6.75	6.	0.	128.05
3507	7.25	6.	0.	128.52
3508	7.	3.25	0.	127.23
3509	6.75	3.5	0.	128.53
3510	7.75	2.5	0.	130.26
3511	7.5	2.25	0.	130.92
3512	7.5	2.75	0.	129.01
3513	7.25	2.5	0.	128.87
3514	3.5	1.75	0.	130.37
3515	3.75	1.5	0.	128.34
3516	3.	2.25	0.	132.59
3517	3.25	2.	0.	131.77
3518	3.	4.75	0.	130.16
3519	3.25	4.5	0.	132.05
3520	3.25	6.	0.	129.09
3521	3.	5.75	0.	130.29
3522	-1.25	7.	0.	128.68
3523	-1.	7.25	0.	128.89
3524	-3.75	7.	0.	122.95
3525	-3.5	7.25	0.	119.99
3526	-5.	7.25	0.	128.18
3527	-4.75	7.	0.	128.06
3528	-0.5	7.75	0.	126.16
3529	-0.75	7.5	0.	127.99
3530	-0.25	8.	0.	125.15
3531	-0.75	8.	0.	126.2
3532	-0.5	8.25	0.	124.73
3533	0.25	8.	0.	125.01
3534	-4.6512e-011	8.25	0.	124.58
3535	0.75	8.	0.	125.21
3536	0.5	8.25	0.	124.84
3537	1.25	8.	0.	125.47
3538	1.	8.25	0.	125.16
3539	1.75	8.	0.	125.64
3540	1.5	8.25	0.	125.4
3541	2.25	8.	0.	125.61
3542	2.	8.25	0.	125.47
3543	2.5	8.25	0.	125.32
3544	2.75	8.	0.	125.3
3545	3.75	8.	0.	123.79
3546	3.5	8.25	0.	124.22
3547	3.25	8.	0.	124.66
3548	4.25	8.	0.	122.91
3549	4.	8.25	0.	123.44
3550	4.75	8.	0.	122.32
3551	4.5	8.25	0.	122.79
3552	5.25	8.	0.	122.26
3553	5.	8.25	0.	122.5
3554	5.75	8.	0.	122.74
3555	5.5	8.25	0.	122.68
3556	6.25	8.	0.	123.56
3557	6.	8.25	0.	123.25
3558	6.75	8.	0.	124.42
3559	6.5	8.25	0.	123.99
3560	7.25	8.	0.	125.12
3561	7.	8.25	0.	124.68
3562	7.75	8.	0.	125.56
3563	7.5	8.25	0.	125.18
3564	8.	7.75	0.	126.
3565	8.25	8.	0.	125.78
3566	8.	8.25	0.	125.49
3567	8.	7.25	0.	126.58
3568	8.25	7.5	0.	126.29
3569	8.	6.75	0.	127.17
3570	8.25	7.	0.	126.83
3571	8.	6.25	0.	127.62
3572	8.25	6.5	0.	127.3
3573	8.25	6.	0.	127.56
3574	7.75	6.	0.	128.05
3575	8.	5.75	0.	127.73
3576	8.	4.75	0.	126.97
3577	8.25	5.	0.	127.12
3578	7.75	5.	0.	127.41
3579	8.	5.25	0.	127.44
3580	8.	4.25	0.	126.74
3581	8.25	4.5	0.	126.82
3582	8.	3.75	0.	127.09
3583	8.25	4.	0.	126.93
3584	8.	3.25	0.	128.12
3585	8.25	3.5	0.	127.62
3586	8.	2.75	0.	129.74
3587	8.25	3.	0.	128.89
3588	7.75	3.	0.	128.49
3589	8.	2.25	0.	131.65
3590	8.25	2.5	0.	130.5
3591	8.	1.75	0.	133.14
3592	7.75	2.	0.	132.3
3593	8.25	2.	0.	132.04
3594	8.	0.25	0.	131.4
3595	8.25	0.5	0.	130.79
3596	7.75	0.5	0.	133.33
3597	8.	0.75	0.	132.1
3598	8.	-0.25	0.	131.04
3599	8.25	-9.7949e-013	0.	130.49
3600	7.75	-6.3177e-013	0.	133.98
3601	8.	-0.75	0.	131.04
3602	8.25	-0.5	0.	130.17
3603	7.75	-0.5	0.	132.76
3604	8.	-2.25	0.	129.51
3605	7.75	-2.	0.	129.65
3606	8.	-1.75	0.	131.04
3607	8.25	-2.	0.	130.26
3608	8.	-2.75	0.	127.93
3609	8.25	-2.5	0.	128.88
3610	8.	-3.25	0.	126.82
3611	8.25	-3.	0.	127.71
3612	8.	-3.75	0.	126.13
3613	8.25	-3.5	0.	126.87
3614	8.	-4.25	0.	125.7
3615	7.75	-4.	0.	125.33
3616	8.25	-4.	0.	126.3
3617	8.25	-4.5	0.	125.92
3618	8.	-4.75	0.	125.42
3619	8.	-5.75	0.	125.21
3620	8.25	-5.5	0.	125.5
3621	8.	-5.25	0.	125.27
3622	8.	-6.25	0.	125.25
3623	8.25	-6.	0.	125.44
3624	8.	-6.75	0.	125.37
3625	8.25	-6.5	0.	125.48
3626	8.	-7.25	0.	125.54
3627	8.25	-7.	0.	125.58
3628	8.	-7.75	0.	125.72
3629	8.25	-7.5	0.	125.71
3630	7.75	-8.	0.	125.77
3631	8.	-8.25	0.	125.87
3632	8.25	-8.	0.	125.84
3633	7.25	-8.	0.	125.74
3634	7.5	-8.25	0.	125.82
3635	6.75	-8.	0.	125.77
3636	7.	-8.25	0.	125.82
3637	6.25	-8.	0.	125.91
3638	6.5	-8.25	0.	125.86
3639	5.75	-8.	0.	126.11
3640	6.	-8.25	0.	125.94
3641	5.25	-8.	0.	126.24
3642	5.5	-8.25	0.	125.96
3643	5.	-7.75	0.	126.74
3644	5.	-8.25	0.	125.62
3645	4.75	-8.	0.	125.4
3646	3.2502	-8.	0.	118.21
3647	3.7501	-8.	0.	117.87
3648	3.5001	-8.25	0.	117.9
3649	3.5002	-7.75	0.	112.55
3650	1.7511	-8.0001	0.	127.78
3651	2.0009	-7.75	0.	128.15
3652	2.0008	-8.2501	0.	127.03
3653	2.2507	-8.	0.	126.67
3654	1.2516	-8.0001	0.	127.89
3655	1.5012	-8.2501	0.	127.64
3656	0.75218	-8.0001	0.	127.86
3657	1.0017	-8.2501	0.	127.84
3658	0.2528	-8.0001	0.	127.84
3659	0.50228	-8.2501	0.	127.93
3660	0.50252	-7.7501	0.	127.66
3661	-0.24666	-8.0001	0.	127.86
3662	2.8562e-003	-8.2501	0.	127.99
3663	-0.74631	-8.0001	0.	127.92
3664	-0.49669	-8.2501	0.	128.05
3665	-1.2462	-8.0001	0.	128.03
3666	-0.99645	-8.2501	0.	128.12
3667	-1.7465	-8.0001	0.	128.19
3668	-1.4965	-8.2501	0.	128.2
3669	-2.247	-8.0001	0.	128.4
3670	-1.9968	-8.2501	0.	128.27
3671	-2.7477	-8.	0.	128.52
3672	-2.4974	-8.25	0.	128.22
3673	-2.4975	-7.7501	0.	128.5
3674	-3.2483	-8.	0.	127.66
3675	-2.9981	-8.25	0.	127.76
3676	-2.9981	-7.7501	0.	129.
3677	-4.7495	-8.	0.	114.06
3678	-4.4994	-8.25	0.	116.14
3679	-4.4995	-7.75	0.	113.59
3680	-4.2492	-8.	0.	118.29
3681	-5.2497	-8.	0.	114.1
3682	-4.9997	-7.75	0.	112.27
3683	-4.9996	-8.25	0.	114.15
3684	-5.7498	-8.	0.	118.41
3685	-5.4998	-8.25	0.	116.19
3686	-5.4998	-7.75	0.	113.71
3687	-7.25	-8.	0.	128.88
3688	-7.	-7.75	0.	129.48
3689	-7.	-8.25	0.	128.
3690	-6.7499	-8.	0.	127.97
3691	-7.75	-8.	0.	128.77
3692	-7.5	-8.25	0.	128.48
3693	-8.	-7.75	0.	128.6
3694	-8.25	-8.	0.	128.57
3695	-8.	-8.25	0.	128.54
3696	-8.	-7.25	0.	128.28
3697	-8.25	-7.5	0.	128.37
3698	-8.	-6.75	0.	127.77
3699	-7.75	-7.	0.	128.29
3700	-8.25	-7.	0.	127.89
3701	-8.	-6.25	0.	127.44
3702	-8.25	-6.5	0.	127.43
3703	-8.	-5.75	0.	127.55
3704	-7.75	-6.	0.	127.64
3705	-8.25	-6.	0.	127.28
3706	-8.	-5.25	0.	128.07
3707	-8.25	-5.5	0.	127.55
3708	-8.	-4.75	0.	128.71
3709	-8.25	-5.	0.	128.09
3710	-8.	-4.25	0.	129.04
3711	-8.25	-4.5	0.	128.57
3712	-8.	-3.75	0.	128.84
3713	-8.25	-4.	0.	128.67
3714	-8.	-3.25	0.	128.22
3715	-8.25	-3.5	0.	128.32
3716	-8.25	-3.	0.	127.72
3717	-8.	-2.75	0.	127.46
3718	-8.	-1.75	0.	126.38
3719	-8.25	-2.	0.	126.62
3720	-8.	-2.25	0.	126.8
3721	-8.	-1.25	0.	126.19
3722	-8.25	-1.5	0.	126.34
3723	-8.	-0.75	0.	126.16
3724	-8.25	-1.	0.	126.25
3725	-8.	-0.25	0.	126.17
3726	-8.25	-0.5	0.	126.23
3727	-8.	0.25	0.	126.14
3728	-8.25	-1.343e-008	0.	126.21
3729	-8.	0.75	0.	126.03
3730	-8.25	0.5	0.	126.14
3731	-8.	1.25	0.	125.87
3732	-8.25	1.	0.	126.02
3733	-8.	1.75	0.	125.7
3734	-8.25	1.5	0.	125.86
3735	-8.	2.25	0.	125.55
3736	-8.25	2.	0.	125.71
3737	-8.	2.75	0.	125.43
3738	-8.25	2.5	0.	125.57
3739	-8.	3.25	0.	125.34
3740	-8.25	3.	0.	125.46
3741	-8.	3.75	0.	125.29
3742	-8.25	3.5	0.	125.39
3743	-8.	4.25	0.	125.26
3744	-8.25	4.	0.	125.33
3745	-8.	4.75	0.	125.23
3746	-8.25	4.5	0.	125.28
3747	-8.	5.25	0.	125.19
3748	-8.25	5.	0.	125.23
3749	-8.	5.75	0.	125.13
3750	-8.25	5.5	0.	125.17
3751	-8.	6.25	0.	125.03
3752	-8.25	6.	0.	125.08
3753	-8.	6.75	0.	124.89
3754	-8.25	6.5	0.	124.97
3755	-8.	7.25	0.	124.76
3756	-8.25	7.	0.	124.84
3757	-8.	7.75	0.	124.67
3758	-8.25	7.5	0.	124.74
3759	-7.75	8.	0.	124.56
3760	-8.	8.25	0.	124.67
3761	-8.25	8.	0.	124.7
3762	-7.25	8.	0.	124.39
3763	-7.5	8.25	0.	124.51
3764	-6.75	8.	0.	124.21
3765	-7.	8.25	0.	124.29
3766	-6.25	8.	0.	124.15
3767	-6.5	8.25	0.	124.05
3768	-5.75	8.	0.	124.42
3769	-6.	8.25	0.	123.9
3770	-5.25	8.	0.	125.61
3771	-5.5	8.25	0.	124.16
3772	-5.	7.75	0.	127.43
3773	-5.	8.25	0.	125.3
3774	-4.75	8.	0.	128.51
3775	-4.75	7.5	0.	130.03
3776	-4.	7.25	0.	125.67
3777	-4.25	7.	0.	126.48
3778	-1.75	7.	0.	126.85
3779	-2.	7.25	0.	125.86
3780	-2.	6.75	0.	124.82
3781	-1.5	7.25	0.	130.39
3782	-1.	7.75	0.	128.02
3783	-1.25	7.5	0.	130.59
3784	-1.	8.25	0.	125.76
3785	-1.25	8.	0.	129.01
3786	3.75	6.	0.	125.81
3787	4.	5.75	0.	124.14
3788	3.5	5.75	0.	130.55
3789	3.	5.25	0.	130.68
3790	3.25	5.5	0.	131.72
3791	2.75	5.5	0.	130.16
3792	3.25	5.	0.	131.12
3793	3.	2.75	0.	132.58
3794	3.25	3.	0.	132.89
3795	2.75	3.	0.	131.2
3796	3.25	2.5	0.	134.03
3797	4.25	2.	0.	123.2
3798	4.	2.25	0.	126.65
3799	3.75	2.	0.	129.06
3800	4.	1.75	0.	127.02
3801	6.75	2.	0.	123.6
3802	6.5	2.25	0.	123.08
3803	6.5	1.75	0.	117.35
3804	6.25	2.	0.	116.67
3805	6.75	3.	0.	127.22
3806	7.25	3.	0.	127.84
3807	7.	2.75	0.	127.69
3808	7.	5.25	0.	129.18
3809	6.75	5.	0.	129.39
3810	7.25	5.	0.	128.21
3811	7.	4.75	0.	128.2
3812	6.75	5.5	0.	130.35
3813	6.25	6.	0.	124.8
3814	6.5	5.75	0.	129.28
3815	6.5	6.25	0.	126.39
3816	6.	5.75	0.	122.97
3817	-3.25	-0.5	0.	128.25
3818	-3.	-0.75	0.	127.9
3819	-3.75	-7.5165e-008	0.	122.14
3820	-3.5	-0.25	0.	126.75
3821	-4.	-0.25	0.	119.59
3822	-5.25	-2.8437e-009	0.	121.55
3823	-5.	-0.25	0.	119.01
3824	-5.	0.25	0.	119.6
3825	-5.5	-0.25	0.	125.9
3826	-6.	-0.75	0.	126.67
3827	-5.75	-0.5	0.	127.23
3828	-5.75	-1.	0.	126.7
3829	-6.	-3.75	0.	125.07
3830	-5.75	-3.5	0.	124.12
3831	-6.	-3.25	0.	125.42
3832	-5.25	-4.	0.	113.8
3833	-5.75	-4.	0.	120.98
3834	-5.5	-3.75	0.	120.1
3835	-5.5	-4.25	0.	114.89
3836	-5.	-4.25	0.	110.22
3837	-5.	-3.75	0.	111.96
3838	-3.25	-3.	0.	129.2
3839	-2.9999	-3.25	0.	130.2
3840	7.5	-1.75	0.	131.01
3841	7.25	-2.	0.	126.11
3842	8.25	-1.	0.	130.71
3843	7.75	-1.	0.	131.91
3844	8.	-1.25	0.	131.51
3845	8.25	1.5	0.	132.7
3846	7.75	1.5	0.	134.6
3847	8.	1.25	0.	133.21
3848	7.25	2.	0.	129.57
3849	7.5	1.75	0.	133.77
3850	7.	1.75	0.	127.13
3851	7.	2.25	0.	127.51
3852	4.5	1.75	0.	122.72
3853	4.5	2.25	0.	117.07
3854	4.75	2.	0.	116.43
3855	4.25	1.	0.	126.67
3856	4.	1.25	0.	127.14
3857	4.25	-1.5	0.	128.82
3858	4.	-1.25	0.	127.64
3859	4.75	-2.	0.	123.61
3860	4.5	-1.75	0.	127.84
3861	5.	-1.75	0.	122.15
3862	5.	-4.75	0.	125.93
3863	4.75	-5.	0.	126.63
3864	4.75	-4.5	0.	126.81
3865	4.	-4.25	0.	120.19
3866	4.25	-4.	0.	122.04
3867	4.	-3.75	0.	120.7
3868	2.75	-4.	0.	123.72
3869	3.	-4.25	0.	120.82
3870	2.5	-4.25	0.	128.26
3871	2.0002	-4.75	0.	129.12
3872	2.2501	-4.5	0.	129.64
3873	2.2502	-5.	0.	129.2
3874	2.2507	-7.5	0.	129.01
3875	2.0009	-7.25	0.	128.53
3876	3.0003	-8.25	0.	120.64
3877	3.0003	-7.75	0.	120.41
3878	2.7504	-8.	0.	122.9
3879	4.0001	-8.25	0.	120.02
3880	4.0001	-7.75	0.	119.59
3881	4.2501	-8.	0.	122.
3882	5.	-7.25	0.	127.08
3883	4.75	-7.5	0.	127.72
3884	4.75	-7.	0.	127.41
3885	5.	-6.75	0.	126.63
3886	-2.9996	-4.7501	0.	130.28
3887	-3.2497	-5.0001	0.	129.75
3888	-2.7495	-5.0002	0.	129.22
3889	-3.2498	-4.5001	0.	130.82
3890	-3.7499	-4.0001	0.	122.9
3891	-3.4999	-4.2501	0.	129.39
3892	-3.4999	-3.7501	0.	128.91
3893	-3.9999	-4.25	0.	119.14
3894	-3.9999	-3.75	0.	117.55
3895	-6.25	-4.	0.	127.29
3896	-6.	-4.25	0.	124.84
3897	-6.5	-4.25	0.	131.62
3898	-6.75	-5.	0.	131.46
3899	-7.	-4.75	0.	131.28
3900	-7.	-7.25	0.	129.91
3901	-6.75	-7.	0.	130.28
3902	-7.25	-7.	0.	129.15
3903	-6.75	-7.5	0.	130.69
3904	-5.9999	-8.25	0.	121.15
3905	-5.9999	-7.75	0.	122.42
3906	-6.2499	-8.	0.	124.26
3907	-3.4986	-8.25	0.	125.72
3908	-3.4987	-7.75	0.	128.81
3909	-3.7489	-8.	0.	124.05
3910	-3.2487	-7.0001	0.	129.43
3911	-2.9983	-7.2501	0.	129.18
3912	-7.75	8.5	0.	124.62
3913	-8.25	8.5	0.	124.76
3914	-8.	8.75	0.	124.8
3915	-7.25	8.5	0.	124.41
3916	-7.5	8.75	0.	124.67
3917	-6.75	8.5	0.	124.13
3918	-7.	8.75	0.	124.46
3919	-6.25	8.5	0.	123.8
3920	-6.5	8.75	0.	124.18
3921	-5.75	8.5	0.	123.64
3922	-6.	8.75	0.	123.86
3923	-5.25	8.5	0.	123.86
3924	-5.5	8.75	0.	123.78
3925	-5.	8.75	0.	124.56
3926	-4.75	8.5	0.	126.71
3927	-8.5	-7.75	0.	128.34
3928	-8.5	-8.25	0.	128.5
3929	-8.75	-8.	0.	128.44
3930	-8.75	-7.5	0.	128.11
3931	-8.5	-7.25	0.	127.98
3932	-8.75	-6.5	0.	127.27
3933	-8.5	-6.25	0.	127.27
3934	-8.5	-6.75	0.	127.55
3935	-8.5	-5.25	0.	127.57
3936	-8.75	-5.5	0.	127.21
3937	-8.5	-5.75	0.	127.28
3938	-8.5	-4.75	0.	127.96
3939	-8.75	-5.	0.	127.52
3940	-8.5	-4.25	0.	128.2
3941	-8.75	-4.5	0.	127.82
3942	-8.5	-3.75	0.	128.15
3943	-8.75	-4.	0.	127.93
3944	-8.5	-3.25	0.	127.82
3945	-8.75	-3.5	0.	127.79
3946	-8.5	-2.75	0.	127.36
3947	-8.75	-3.	0.	127.46
3948	-8.5	-2.25	0.	126.92
3949	-8.75	-2.5	0.	127.08
3950	-8.25	-2.5	0.	127.1
3951	-8.5	-1.75	0.	126.59
3952	-8.75	-2.	0.	126.75
3953	-8.5	-1.25	0.	126.4
3954	-8.75	-1.5	0.	126.53
3955	-8.5	-0.75	0.	126.31
3956	-8.75	-1.	0.	126.41
3957	-8.5	-0.25	0.	126.27
3958	-8.75	-0.5	0.	126.35
3959	-8.5	0.25	0.	126.22
3960	-8.75	-1.0991e-008	0.	126.3
3961	-8.5	0.75	0.	126.13
3962	-8.75	0.5	0.	126.23
3963	-8.5	1.25	0.	126.01
3964	-8.75	1.	0.	126.13
3965	-8.5	1.75	0.	125.87
3966	-8.75	1.5	0.	126.
3967	-8.5	2.25	0.	125.73
3968	-8.75	2.	0.	125.87
3969	-8.5	2.75	0.	125.61
3970	-8.75	2.5	0.	125.74
3971	-8.5	3.25	0.	125.51
3972	-8.75	3.	0.	125.63
3973	-8.5	3.75	0.	125.42
3974	-8.75	3.5	0.	125.52
3975	-8.5	4.25	0.	125.35
3976	-8.75	4.	0.	125.43
3977	-8.5	4.75	0.	125.28
3978	-8.75	4.5	0.	125.34
3979	-8.5	5.25	0.	125.21
3980	-8.75	5.	0.	125.26
3981	-8.5	5.75	0.	125.12
3982	-8.75	5.5	0.	125.17
3983	-8.5	6.25	0.	125.02
3984	-8.75	6.	0.	125.07
3985	-8.5	6.75	0.	124.91
3986	-8.75	6.5	0.	124.97
3987	-8.5	7.25	0.	124.82
3988	-8.75	7.	0.	124.87
3989	-8.5	7.75	0.	124.77
3990	-8.75	7.5	0.	124.8
3991	-8.5	8.25	0.	124.78
3992	-8.75	8.	0.	124.79
3993	-8.75	8.5	0.	124.84
3994	-8.5	8.75	0.	124.87
3995	7.75	-8.5	0.	125.92
3996	8.25	-8.5	0.	125.95
3997	8.	-8.75	0.	125.98
3998	7.25	-8.5	0.	125.9
3999	7.5	-8.75	0.	125.95
4000	6.75	-8.5	0.	125.9
4001	7.	-8.75	0.	125.93
4002	6.25	-8.5	0.	125.9
4003	6.5	-8.75	0.	125.89
4004	5.75	-8.5	0.	125.79
4005	6.	-8.75	0.	125.77
4006	5.25	-8.5	0.	125.34
4007	5.5	-8.75	0.	125.43
4008	4.75	-8.5	0.	124.08
4009	5.	-8.75	0.	124.62
4010	4.25	-8.5	0.	121.89
4011	4.5	-8.75	0.	123.01
4012	4.5	-8.25	0.	123.86
4013	3.7501	-8.5	0.	120.01
4014	4.	-8.75	0.	121.01
4015	3.2502	-8.5	0.	120.3
4016	3.5001	-8.75	0.	120.18
4017	2.7503	-8.5	0.	122.69
4018	3.0002	-8.75	0.	121.56
4019	2.2505	-8.5001	0.	125.29
4020	2.5003	-8.75	0.	124.02
4021	2.5005	-8.25	0.	124.94
4022	1.7509	-8.5001	0.	126.88
4023	2.0005	-8.7501	0.	126.01
4024	1.2513	-8.5001	0.	127.59
4025	1.5009	-8.7501	0.	127.13
4026	0.75179	-8.5001	0.	127.91
4027	1.0013	-8.7501	0.	127.71
4028	0.25233	-8.5001	0.	128.07
4029	0.50173	-8.7501	0.	128.03
4030	-0.24717	-8.5001	0.	128.18
4031	2.2059e-003	-8.7501	0.	128.22
4032	-0.74683	-8.5001	0.	128.25
4033	-0.49741	-8.7501	0.	128.33
4034	-1.2467	-8.5001	0.	128.3
4035	-0.99719	-8.7501	0.	128.37
4036	-1.7469	-8.5	0.	128.28
4037	-1.4972	-8.75	0.	128.33
4038	-2.2473	-8.5	0.	128.09
4039	-1.9974	-8.75	0.	128.13
4040	-2.7478	-8.5	0.	127.45
4041	-2.4978	-8.75	0.	127.6
4042	-3.2484	-8.5	0.	125.8
4043	-2.9983	-8.75	0.	126.41
4044	-3.7488	-8.5	0.	122.71
4045	-3.4988	-8.7499	0.	124.09
4046	-4.2492	-8.5	0.	118.9
4047	-3.9991	-8.25	0.	121.04
4048	-3.9991	-8.75	0.	120.73
4049	-4.4994	-8.75	0.	117.56
4050	-4.7495	-8.5	0.	116.19
4051	-5.7498	-8.5	0.	118.94
4052	-5.4997	-8.75	0.	117.58
4053	-5.2497	-8.5	0.	116.2
4054	-6.2499	-8.5	0.	122.8
4055	-5.9999	-8.75	0.	120.77
4056	-6.7499	-8.5	0.	125.92
4057	-6.4999	-8.75	0.	124.14
4058	-6.4999	-8.25	0.	125.9
4059	-7.25	-8.5	0.	127.6
4060	-7.	-8.75	0.	126.48
4061	-7.75	-8.5	0.	128.25
4062	-7.5	-8.75	0.	127.66
4063	-8.25	-8.5	0.	128.47
4064	-8.	-8.75	0.	128.21
4065	-8.5	-8.75	0.	128.48
4066	-8.75	-8.5	0.	128.59
4067	8.5	7.75	0.	126.08
4068	8.5	8.25	0.	125.63
4069	8.75	8.	0.	125.86
4070	8.5	7.25	0.	126.54
4071	8.75	7.5	0.	126.28
4072	8.5	6.75	0.	126.96
4073	8.75	7.	0.	126.68
4074	8.5	6.25	0.	127.24
4075	8.75	6.5	0.	127.
4076	8.5	5.75	0.	127.3
4077	8.75	6.	0.	127.16
4078	8.5	5.25	0.	127.16
4079	8.75	5.5	0.	127.14
4080	8.25	5.5	0.	127.47
4081	8.5	4.75	0.	126.97
4082	8.75	5.	0.	127.01
4083	8.75	4.5	0.	126.97
4084	8.5	4.25	0.	127.01
4085	8.5	3.25	0.	128.39
4086	8.75	3.5	0.	127.89
4087	8.5	3.75	0.	127.46
4088	8.5	2.75	0.	129.65
4089	8.75	3.	0.	128.88
4090	8.5	2.25	0.	130.89
4091	8.75	2.5	0.	130.
4092	8.5	1.75	0.	131.6
4093	8.75	2.	0.	130.86
4094	8.5	1.25	0.	131.4
4095	8.75	1.5	0.	131.04
4096	8.5	0.75	0.	130.6
4097	8.75	1.	0.	130.46
4098	8.25	1.	0.	131.91
4099	8.5	0.25	0.	129.89
4100	8.75	0.5	0.	129.7
4101	8.5	-0.25	0.	129.62
4102	8.75	-2.5866e-013	0.	129.25
4103	8.5	-0.75	0.	129.83
4104	8.75	-0.5	0.	129.28
4105	8.75	-1.	0.	129.67
4106	8.5	-1.25	0.	130.25
4107	8.5	-4.75	0.	126.15
4108	8.75	-4.5	0.	126.64
4109	8.5	-4.25	0.	126.52
4110	8.5	-5.25	0.	125.89
4111	8.25	-5.	0.	125.66
4112	8.75	-5.	0.	126.28
4113	8.5	-5.75	0.	125.73
4114	8.75	-5.5	0.	126.03
4115	8.5	-6.25	0.	125.67
4116	8.75	-6.	0.	125.87
4117	8.5	-6.75	0.	125.68
4118	8.75	-6.5	0.	125.8
4119	8.5	-7.25	0.	125.74
4120	8.75	-7.	0.	125.8
4121	8.5	-7.75	0.	125.83
4122	8.75	-7.5	0.	125.85
4123	8.5	-8.25	0.	125.93
4124	8.75	-8.	0.	125.92
4125	8.75	-8.5	0.	125.99
4126	8.5	-8.75	0.	126.
4127	-0.75	8.5	0.	124.29
4128	-1.	8.75	0.	124.88
4129	-1.25	8.5	0.	127.02
4130	-0.25	8.5	0.	124.16
4131	-0.5	8.75	0.	124.2
4132	0.25	8.5	0.	124.41
4133	-2.8527e-011	8.75	0.	124.36
4134	0.75	8.5	0.	124.8
4135	0.5	8.75	0.	124.72
4136	1.25	8.5	0.	125.09
4137	1.	8.75	0.	125.01
4138	1.75	8.5	0.	125.23
4139	1.5	8.75	0.	125.16
4140	2.25	8.5	0.	125.17
4141	2.	8.75	0.	125.15
4142	2.75	8.5	0.	124.91
4143	2.5	8.75	0.	124.97
4144	3.25	8.5	0.	124.45
4145	3.	8.75	0.	124.62
4146	3.	8.25	0.	124.89
4147	3.75	8.5	0.	123.88
4148	3.5	8.75	0.	124.15
4149	4.25	8.5	0.	123.33
4150	4.	8.75	0.	123.64
4151	4.75	8.5	0.	122.97
4152	4.5	8.75	0.	123.24
4153	5.25	8.5	0.	122.92
4154	5.	8.75	0.	123.05
4155	5.75	8.5	0.	123.19
4156	5.5	8.75	0.	123.15
4157	6.25	8.5	0.	123.69
4158	6.	8.75	0.	123.48
4159	6.75	8.5	0.	124.25
4160	6.5	8.75	0.	123.94
4161	7.25	8.5	0.	124.74
4162	7.	8.75	0.	124.4
4163	7.75	8.5	0.	125.11
4164	7.5	8.75	0.	124.78
4165	8.25	8.5	0.	125.33
4166	8.	8.75	0.	125.06
4167	8.75	8.5	0.	125.46
4168	8.5	8.75	0.	125.24
4169	9.	8.25	0.	125.69
4170	9.25	8.5	0.	125.51
4171	9.	8.75	0.	125.34
4172	9.	7.75	0.	126.05
4173	9.25	8.	0.	125.85
4174	9.	7.25	0.	126.41
4175	9.25	7.5	0.	126.2
4176	9.	6.75	0.	126.71
4177	9.25	7.	0.	126.51
4178	9.	6.25	0.	126.92
4179	9.25	6.5	0.	126.74
4180	9.	5.75	0.	127.
4181	9.25	6.	0.	126.86
4182	9.	5.25	0.	126.99
4183	9.25	5.5	0.	126.89
4184	9.	4.75	0.	127.01
4185	9.25	5.	0.	126.9
4186	9.	4.25	0.	127.2
4187	9.25	4.5	0.	127.02
4188	9.	3.75	0.	127.66
4189	9.25	4.	0.	127.36
4190	8.75	4.	0.	127.23
4191	9.	3.25	0.	128.38
4192	9.25	3.5	0.	127.95
4193	9.	2.75	0.	129.23
4194	9.25	3.	0.	128.69
4195	9.	2.25	0.	129.96
4196	9.25	2.5	0.	129.41
4197	9.	1.75	0.	130.3
4198	9.25	2.	0.	129.86
4199	9.	1.25	0.	130.1
4200	9.25	1.5	0.	129.84
4201	9.	0.75	0.	129.56
4202	9.25	1.	0.	129.41
4203	9.	0.25	0.	129.06
4204	9.25	0.5	0.	128.86
4205	9.	-0.25	0.	128.9
4206	9.25	3.4937e-013	0.	128.56
4207	9.	-0.75	0.	129.12
4208	9.25	-0.5	0.	128.63
4209	9.	-1.25	0.	129.48
4210	9.25	-1.	0.	129.01
4211	9.	-1.75	0.	129.65
4212	9.25	-1.5	0.	129.4
4213	8.75	-1.5	0.	130.06
4214	9.	-2.25	0.	129.44
4215	9.25	-2.	0.	129.52
4216	8.75	-2.	0.	129.87
4217	9.	-2.75	0.	128.94
4218	9.25	-2.5	0.	129.31
4219	8.75	-2.5	0.	129.2
4220	9.	-3.25	0.	128.33
4221	9.25	-3.	0.	128.86
4222	8.75	-3.	0.	128.4
4223	9.	-3.75	0.	127.73
4224	9.25	-3.5	0.	128.32
4225	8.75	-3.5	0.	127.68
4226	9.	-4.25	0.	127.21
4227	9.25	-4.	0.	127.76
4228	8.75	-4.	0.	127.1
4229	9.25	-4.5	0.	127.25
4230	9.	-4.75	0.	126.77
4231	9.	-5.75	0.	126.17
4232	9.25	-5.5	0.	126.44
4233	9.	-5.25	0.	126.42
4234	9.	-6.25	0.	126.01
4235	9.25	-6.	0.	126.19
4236	9.	-6.75	0.	125.92
4237	9.25	-6.5	0.	126.02
4238	9.	-7.25	0.	125.91
4239	9.25	-7.	0.	125.95
4240	9.	-7.75	0.	125.93
4241	9.25	-7.5	0.	125.94
4242	9.	-8.25	0.	125.98
4243	9.25	-8.	0.	125.96
4244	9.	-8.75	0.	126.02
4245	9.25	-8.5	0.	126.01
4246	8.25	-9.	0.	126.03
4247	8.75	-9.	0.	126.04
4248	8.5	-9.25	0.	126.05
4249	7.75	-9.	0.	126.01
4250	8.	-9.25	0.	126.04
4251	7.25	-9.	0.	125.98
4252	7.5	-9.25	0.	126.02
4253	6.75	-9.	0.	125.91
4254	7.	-9.25	0.	125.96
4255	6.25	-9.	0.	125.76
4256	6.5	-9.25	0.	125.83
4257	6.	-9.25	0.	125.55
4258	5.75	-9.	0.	125.41
4259	4.25	-9.	0.	122.13
4260	4.5	-9.25	0.	122.83
4261	4.75	-9.	0.	123.56
4262	3.7501	-9.	0.	121.17
4263	4.	-9.25	0.	121.65
4264	3.2501	-9.	0.	121.43
4265	3.5001	-9.25	0.	121.29
4266	2.7502	-9.	0.	122.88
4267	3.0001	-9.25	0.	122.15
4268	2.2503	-9.0001	0.	124.73
4269	2.5002	-9.25	0.	123.8
4270	1.7506	-9.0001	0.	126.25
4271	2.0003	-9.2501	0.	125.46
4272	1.2509	-9.0001	0.	127.24
4273	1.5005	-9.2501	0.	126.71
4274	0.75121	-9.0001	0.	127.83
4275	1.0008	-9.2501	0.	127.53
4276	0.25161	-9.0001	0.	128.18
4277	0.50106	-9.2501	0.	128.04
4278	-0.24803	-9.0001	0.	128.37
4279	1.3518e-003	-9.2501	0.	128.34
4280	-0.74777	-9.0001	0.	128.45
4281	-0.49842	-9.2501	0.	128.49
4282	-1.2477	-9.0001	0.	128.41
4283	-0.99826	-9.2501	0.	128.5
4284	-1.7477	-9.	0.	128.18
4285	-1.4982	-9.25	0.	128.33
4286	-2.248	-9.	0.	127.64
4287	-1.9984	-9.25	0.	127.9
4288	-2.4986	-9.25	0.	127.03
4289	-2.7483	-8.9999	0.	126.56
4290	-4.7496	-9.	0.	117.62
4291	-4.4996	-9.25	0.	118.46
4292	-4.2493	-9.	0.	119.4
4293	-5.2497	-9.	0.	117.62
4294	-4.9997	-9.25	0.	117.58
4295	-4.9996	-8.75	0.	116.27
4296	-5.7498	-9.	0.	119.4
4297	-5.4998	-9.25	0.	118.45
4298	-6.2499	-9.	0.	122.12
4299	-5.9999	-9.25	0.	120.66
4300	-6.7499	-9.	0.	124.7
4301	-6.4999	-9.25	0.	123.28
4302	-7.25	-9.	0.	126.54
4303	-7.	-9.25	0.	125.48
4304	-7.75	-9.	0.	127.63
4305	-7.5	-9.25	0.	126.96
4306	-8.25	-9.	0.	128.22
4307	-8.	-9.25	0.	127.85
4308	-8.75	-9.	0.	128.6
4309	-8.5	-9.25	0.	128.38
4310	-9.	-8.25	0.	128.52
4311	-9.	-8.75	0.	128.71
4312	-9.25	-8.5	0.	128.76
4313	-9.	-7.75	0.	128.21
4314	-9.25	-8.	0.	128.41
4315	-9.	-7.25	0.	127.8
4316	-9.25	-7.5	0.	127.95
4317	-9.	-6.75	0.	127.39
4318	-9.25	-7.	0.	127.45
4319	-8.75	-7.	0.	127.66
4320	-9.	-6.25	0.	127.1
4321	-9.25	-6.5	0.	127.05
4322	-9.25	-6.	0.	126.83
4323	-9.	-5.75	0.	127.03
4324	-8.75	-6.	0.	127.1
4325	-9.	-4.75	0.	127.38
4326	-9.25	-5.	0.	127.
4327	-9.	-5.25	0.	127.16
4328	-9.	-4.25	0.	127.54
4329	-9.25	-4.5	0.	127.21
4330	-9.	-3.75	0.	127.57
4331	-9.25	-4.	0.	127.35
4332	-9.	-3.25	0.	127.43
4333	-9.25	-3.5	0.	127.35
4334	-9.	-2.75	0.	127.19
4335	-9.25	-3.	0.	127.22
4336	-9.	-2.25	0.	126.92
4337	-9.25	-2.5	0.	127.02
4338	-9.	-1.75	0.	126.7
4339	-9.25	-2.	0.	126.81
4340	-9.	-1.25	0.	126.54
4341	-9.25	-1.5	0.	126.64
4342	-9.	-0.75	0.	126.44
4343	-9.25	-1.	0.	126.53
4344	-9.	-0.25	0.	126.38
4345	-9.25	-0.5	0.	126.45
4346	-9.	0.25	0.	126.31
4347	-9.25	-7.237e-009	0.	126.4
4348	-9.	0.75	0.	126.23
4349	-9.25	0.5	0.	126.33
4350	-9.	1.25	0.	126.13
4351	-9.25	1.	0.	126.25
4352	-9.	1.75	0.	126.01
4353	-9.25	1.5	0.	126.14
4354	-9.	2.25	0.	125.88
4355	-9.25	2.	0.	126.02
4356	-9.	2.75	0.	125.76
4357	-9.25	2.5	0.	125.9
4358	-9.	3.25	0.	125.64
4359	-9.25	3.	0.	125.77
4360	-9.	3.75	0.	125.53
4361	-9.25	3.5	0.	125.64
4362	-9.	4.25	0.	125.42
4363	-9.25	4.	0.	125.52
4364	-9.	4.75	0.	125.32
4365	-9.25	4.5	0.	125.4
4366	-9.	5.25	0.	125.22
4367	-9.25	5.	0.	125.28
4368	-9.	5.75	0.	125.12
4369	-9.25	5.5	0.	125.16
4370	-9.	6.25	0.	125.02
4371	-9.25	6.	0.	125.05
4372	-9.	6.75	0.	124.92
4373	-9.25	6.5	0.	124.95
4374	-9.	7.25	0.	124.86
4375	-9.25	7.	0.	124.87
4376	-9.	7.75	0.	124.83
4377	-9.25	7.5	0.	124.82
4378	-9.	8.25	0.	124.84
4379	-9.25	8.	0.	124.82
4380	-9.	8.75	0.	124.9
4381	-9.25	8.5	0.	124.86
4382	-8.25	9.	0.	124.91
4383	-8.75	9.	0.	124.93
4384	-8.5	9.25	0.	124.99
4385	-7.75	9.	0.	124.84
4386	-8.	9.25	0.	124.99
4387	-7.25	9.	0.	124.72
4388	-7.5	9.25	0.	124.97
4389	-6.75	9.	0.	124.52
4390	-7.	9.25	0.	124.93
4391	-6.5	9.25	0.	124.85
4392	-6.25	9.	0.	124.25
4393	-5.25	9.	0.	124.49
4394	-5.5	9.25	0.	124.77
4395	-5.75	9.	0.	124.01
4396	7.75	9.	0.	124.74
4397	8.	9.25	0.	124.72
4398	8.25	9.	0.	124.96
4399	7.25	9.	0.	124.44
4400	7.5	9.25	0.	124.47
4401	6.75	9.	0.	124.09
4402	7.	9.25	0.	124.15
4403	6.25	9.	0.	123.73
4404	6.5	9.25	0.	123.82
4405	5.75	9.	0.	123.43
4406	6.	9.25	0.	123.52
4407	5.5	9.25	0.	123.32
4408	5.25	9.	0.	123.28
4409	4.25	9.	0.	123.56
4410	4.5	9.25	0.	123.41
4411	4.75	9.	0.	123.32
4412	3.75	9.	0.	123.92
4413	4.	9.25	0.	123.69
4414	3.25	9.	0.	124.32
4415	3.5	9.25	0.	124.05
4416	2.75	9.	0.	124.68
4417	3.	9.25	0.	124.43
4418	2.25	9.	0.	124.94
4419	2.5	9.25	0.	124.77
4420	1.75	9.	0.	125.08
4421	2.	9.25	0.	125.03
4422	1.5	9.25	0.	125.2
4423	1.25	9.	0.	125.08
4424	0.25	9.	0.	124.67
4425	0.5	9.25	0.	125.25
4426	0.75	9.	0.	124.94
4427	-0.25	9.	0.	124.4
4428	-1.4955e-011	9.25	0.	125.15
4429	-0.75	9.	0.	124.81
4430	-0.5	9.25	0.	125.14
4431	-3.749	-7.5	0.	126.92
4432	-3.4989	-7.2501	0.	130.33
4433	-3.2485	-7.5001	0.	130.12
4434	-6.2499	-7.5	0.	127.3
4435	-6.5	-7.25	0.	131.02
4436	-6.4999	-7.75	0.	129.2
4437	-6.5	-4.75	0.	132.67
4438	-6.25	-4.5	0.	129.14
4439	-6.75	-4.5	0.	132.53
4440	-3.7499	-4.5001	0.	125.58
4441	-3.4998	-4.7501	0.	130.25
4442	4.25	-7.5	0.	123.97
4443	4.5	-7.25	0.	128.02
4444	4.5	-7.75	0.	126.4
4445	2.7504	-7.5	0.	125.03
4446	2.5005	-7.25	0.	129.13
4447	2.5006	-7.75	0.	127.55
4448	2.5001	-4.75	0.	129.69
4449	2.75	-4.5	0.	125.36
4450	4.5	-1.25	0.	129.22
4451	4.75	-1.5	0.	126.32
4452	4.5	1.25	0.	125.99
4453	4.75	1.5	0.	121.45
4454	4.25	1.5	0.	126.47
4455	7.25	1.5	0.	131.31
4456	7.5	1.25	0.	134.85
4457	7.5	-1.25	0.	132.74
4458	7.25	-1.5	0.	129.1
4459	7.75	-1.5	0.	132.38
4460	-3.7499	-3.5	0.	123.57
4461	-3.5	-3.25	0.	129.27
4462	-3.2499	-3.5001	0.	130.3
4463	-5.25	-3.5	0.	118.11
4464	-5.5	-3.25	0.	123.45
4465	-5.5	-0.75	0.	127.23
4466	-5.25	-0.5	0.	123.35
4467	-3.75	-0.5	0.	124.17
4468	-3.5	-0.75	0.	128.28
4469	6.5	5.25	0.	130.53
4470	6.25	5.5	0.	127.4
4471	6.5	2.75	0.	126.44
4472	6.25	2.5	0.	121.76
4473	6.75	2.5	0.	126.92
4474	3.75	2.5	0.	130.78
4475	3.5	2.75	0.	134.28
4476	3.5	2.25	0.	133.22
4477	3.5	5.25	0.	132.13
4478	3.75	5.5	0.	128.81
4479	-1.25	9.	0.	127.12
4480	-1.	9.25	0.	126.03
4481	-1.5	7.75	0.	131.52
4482	-1.75	7.5	0.	129.35
4483	-4.25	7.5	0.	129.05
4484	-4.5	7.75	0.	131.05
4485	-4.5	7.25	0.	129.92
4486	-4.75	9.	0.	126.91
4487	-5.	9.25	0.	125.73
4488	9.25	-9.	0.	126.06
4489	9.	-9.25	0.	126.06
4490	-9.	-9.25	0.	128.8
4491	-9.25	-9.	0.	128.99
4492	-9.25	9.	0.	124.93
4493	-9.	9.25	0.	124.98
4494	-4.2494	-7.5	0.	117.49
4495	-3.9992	-7.75	0.	122.22
4496	-4.7497	-7.5	0.	111.73
4497	-5.2498	-7.5	0.	111.82
4498	-5.7499	-7.5	0.	117.7
4499	-6.5	-6.75	0.	131.9
4500	-6.5	-6.25	0.	133.93
4501	-6.5	-5.75	0.	134.14
4502	-6.5	-5.25	0.	132.76
4503	-5.75	-4.5	0.	118.68
4504	-5.25	-4.5	0.	111.25
4505	-4.75	-4.5	0.	109.51
4506	-4.2499	-4.5	0.	114.76
4507	-3.4997	-5.2501	0.	130.79
4508	-3.4992	-6.7501	0.	130.98
4509	-3.4994	-6.2501	0.	132.75
4510	-3.4996	-5.7501	0.	132.6
4511	-3.2493	-6.0002	0.	130.94
4512	3.7501	-7.5	0.	114.13
4513	3.2502	-7.5	0.	114.61
4514	2.5004	-6.75	0.	130.15
4515	2.2506	-7.	0.	128.67
4516	2.5003	-6.25	0.	132.22
4517	2.5002	-5.75	0.	132.2
4518	2.5001	-5.25	0.	130.41
4519	3.25	-4.5	0.	114.82
4520	3.75	-4.5	0.	114.67
4521	4.25	-4.5	0.	124.08
4522	4.5	-5.25	0.	128.62
4523	4.5	-4.75	0.	127.48
4524	4.5	-6.75	0.	128.91
4525	4.5	-6.25	0.	130.78
4526	4.75	-6.5	0.	128.14
4527	4.5	-5.75	0.	130.79
4528	4.5	-0.75	0.	129.7
4529	4.25	-1.	0.	128.08
4530	4.5	-0.25	0.	131.2
4531	4.5	0.25	0.	130.59
4532	4.5	0.75	0.	127.94
4533	5.25	1.5	0.	113.15
4534	5.	1.75	0.	115.37
4535	5.75	1.5	0.	110.18
4536	6.25	1.5	0.	113.07
4537	6.	1.75	0.	112.51
4538	6.75	1.5	0.	120.78
4539	7.5	0.75	0.	134.72
4540	7.75	1.	0.	133.51
4541	7.5	0.25	0.	135.92
4542	7.5	-0.25	0.	135.71
4543	7.5	-0.75	0.	133.61
4544	5.25	-1.5	0.	117.59
4545	5.75	-1.5	0.	112.38
4546	6.25	-1.5	0.	112.91
4547	6.75	-1.5	0.	119.24
4548	7.	-1.75	0.	124.26
4549	-4.25	-3.5	0.	110.6
4550	-4.75	-3.5	0.	108.73
4551	-5.5	-2.75	0.	125.75
4552	-5.75	-3.	0.	124.74
4553	-5.5	-2.25	0.	128.65
4554	-5.5	-1.75	0.	129.33
4555	-5.5	-1.25	0.	127.85
4556	-4.75	-0.5	0.	113.36
4557	-4.25	-0.5	0.	113.72
4558	-3.5	-1.25	0.	129.24
4559	-3.25	-1.	0.	127.95
4560	-3.5	-1.75	0.	131.21
4561	-3.5	-2.25	0.	131.07
4562	-3.5	-2.75	0.	129.5
4563	6.5	4.75	0.	130.78
4564	6.5	4.25	0.	132.05
4565	6.75	4.5	0.	129.62
4566	6.5	3.75	0.	131.32
4567	6.5	3.25	0.	128.51
4568	5.75	2.5	0.	113.3
4569	6.	2.25	0.	115.57
4570	5.25	2.5	0.	110.17
4571	4.75	2.5	0.	112.91
4572	5.	2.25	0.	112.39
4573	4.25	2.5	0.	120.41
4574	3.5	3.25	0.	134.1
4575	3.5	3.75	0.	135.26
4576	3.5	4.25	0.	135.12
4577	3.5	4.75	0.	133.
4578	4.25	5.5	0.	119.2
4579	4.75	5.5	0.	113.
4580	5.75	5.5	0.	118.2
4581	5.25	5.5	0.	112.7
4582	-1.5	8.75	0.	129.22
4583	-1.5	9.25	0.	129.3
4584	-1.5	8.25	0.	130.26
4585	-2.25	7.5	0.	122.82
4586	-2.75	7.5	0.	119.55
4587	-3.25	7.5	0.	119.49
4588	-3.75	7.5	0.	122.7
4589	-4.5	8.25	0.	129.89
4590	-4.5	8.75	0.	129.01
4591	-4.5	9.25	0.	129.08
4592	9.5	8.75	0.	125.38
4593	9.5	9.25	0.	125.14
4594	9.25	9.	0.	125.21
4595	9.5	8.25	0.	125.68
4596	9.5	7.75	0.	126.
4597	9.5	7.25	0.	126.3
4598	9.5	6.75	0.	126.53
4599	9.5	6.25	0.	126.68
4600	9.5	5.75	0.	126.75
4601	9.5	5.25	0.	126.8
4602	9.5	4.75	0.	126.91
4603	9.5	4.25	0.	127.19
4604	9.5	3.75	0.	127.65
4605	9.5	3.25	0.	128.26
4606	9.5	2.75	0.	128.87
4607	9.5	2.25	0.	129.3
4608	9.5	1.75	0.	129.4
4609	9.5	1.25	0.	129.15
4610	9.5	0.75	0.	128.72
4611	9.5	0.25	0.	128.36
4612	9.5	-0.25	0.	128.28
4613	9.5	-0.75	0.	128.52
4614	9.5	-1.25	0.	128.93
4615	9.5	-1.75	0.	129.28
4616	9.5	-2.75	0.	129.23
4617	9.5	-2.25	0.	129.39
4618	9.5	-3.25	0.	128.85
4619	9.5	-3.75	0.	128.35
4620	9.5	-4.25	0.	127.8
4621	9.5	-4.75	0.	127.28
4622	9.5	-5.25	0.	126.82
4623	9.25	-5.	0.	126.8
4624	9.5	-5.75	0.	126.46
4625	9.5	-6.25	0.	126.2
4626	9.5	-6.75	0.	126.05
4627	9.5	-7.25	0.	125.98
4628	9.5	-7.75	0.	125.97
4629	9.5	-8.25	0.	126.
4630	9.5	-8.75	0.	126.04
4631	9.5	-9.25	0.	126.08
4632	9.25	-9.5	0.	126.09
4633	8.75	-9.5	0.	126.07
4634	8.25	-9.5	0.	126.07
4635	7.75	-9.5	0.	126.05
4636	7.25	-9.5	0.	126.
4637	6.75	-9.5	0.	125.88
4638	6.25	-9.5	0.	125.62
4639	5.75	-9.5	0.	125.15
4640	5.25	-9.5	0.	124.39
4641	5.5	-9.25	0.	125.01
4642	4.75	-9.5	0.	123.37
4643	5.	-9.25	0.	124.09
4644	4.25	-9.5	0.	122.34
4645	3.75	-9.5	0.	121.76
4646	3.2501	-9.5	0.	122.01
4647	2.7501	-9.5	0.	123.07
4648	2.2502	-9.5	0.	124.52
4649	1.7503	-9.5001	0.	125.92
4650	1.2504	-9.5001	0.	127.
4651	0.75061	-9.5001	0.	127.74
4652	0.2508	-9.5001	0.	128.2
4653	-0.24904	-9.5001	0.	128.46
4654	-0.74891	-9.5001	0.	128.54
4655	-1.2488	-9.5	0.	128.43
4656	-1.7488	-9.5	0.	128.05
4657	-2.2489	-9.5	0.	127.3
4658	-2.7491	-9.5	0.	126.01
4659	-3.2493	-9.4999	0.	124.15
4660	-2.9989	-9.2499	0.	125.54
4661	-3.7495	-9.4999	0.	121.89
4662	-3.4991	-9.2499	0.	123.32
4663	-4.2496	-9.5	0.	119.74
4664	-3.9994	-9.25	0.	120.68
4665	-4.7497	-9.5	0.	118.41
4666	-5.2498	-9.5	0.	118.4
4667	-5.7499	-9.5	0.	119.71
4668	-6.2499	-9.5	0.	121.83
4669	-7.25	-9.5	0.	125.9
4670	-6.75	-9.5	0.	124.06
4671	-7.75	-9.5	0.	127.18
4672	-8.25	-9.5	0.	128.
4673	-8.75	-9.5	0.	128.57
4674	-9.25	-9.5	0.	129.12
4675	-9.5	-9.25	0.	129.32
4676	-9.5	-8.75	0.	129.05
4677	-9.5	-8.25	0.	128.65
4678	-9.5	-7.75	0.	128.15
4679	-9.5	-7.25	0.	127.61
4680	-9.5	-6.75	0.	127.11
4681	-9.5	-6.25	0.	126.77
4682	-9.5	-5.75	0.	126.62
4683	-9.5	-5.25	0.	126.67
4684	-9.25	-5.5	0.	126.83
4685	-9.5	-4.75	0.	126.84
4686	-9.5	-4.25	0.	127.02
4687	-9.5	-3.75	0.	127.13
4688	-9.5	-3.25	0.	127.14
4689	-9.5	-2.75	0.	127.05
4690	-9.5	-2.25	0.	126.9
4691	-9.5	-1.75	0.	126.75
4692	-9.5	-1.25	0.	126.63
4693	-9.5	-0.75	0.	126.54
4694	-9.5	-0.25	0.	126.47
4695	-9.5	0.25	0.	126.42
4696	-9.5	0.75	0.	126.35
4697	-9.5	1.25	0.	126.26
4698	-9.5	1.75	0.	126.16
4699	-9.5	2.25	0.	126.03
4700	-9.5	2.75	0.	125.9
4701	-9.5	3.25	0.	125.77
4702	-9.5	3.75	0.	125.63
4703	-9.5	4.25	0.	125.49
4704	-9.5	4.75	0.	125.35
4705	-9.5	5.25	0.	125.22
4706	-9.5	5.75	0.	125.1
4707	-9.5	6.25	0.	124.98
4708	-9.5	6.75	0.	124.9
4709	-9.5	7.25	0.	124.84
4710	-9.5	7.75	0.	124.82
4711	-9.5	8.25	0.	124.84
4712	-9.5	8.75	0.	124.89
4713	-9.5	9.25	0.	124.96
4714	-9.25	9.5	0.	125.
4715	-8.75	9.5	0.	125.04
4716	-8.25	9.5	0.	125.08
4717	-7.75	9.5	0.	125.13
4718	-7.25	9.5	0.	125.19
4719	-6.75	9.5	0.	125.26
4720	-6.25	9.5	0.	125.36
4721	-5.75	9.5	0.	125.52
4722	-6.	9.25	0.	124.75
4723	-5.25	9.5	0.	126.03
4724	-4.75	9.5	0.	127.95
4725	-4.25	9.5	0.	128.26
4726	-3.75	9.5	0.	124.22
4727	-3.25	9.5	0.	122.11
4728	-2.75	9.5	0.	122.16
4729	-2.25	9.5	0.	124.41
4730	-1.75	9.5	0.	128.53
4731	-1.25	9.5	0.	128.25
4732	-0.75	9.5	0.	126.38
4733	-0.25	9.5	0.	125.9
4734	0.25	9.5	0.	125.73
4735	0.75	9.5	0.	125.58
4736	1.25	9.5	0.	125.39
4737	1.	9.25	0.	125.27
4738	1.75	9.5	0.	125.15
4739	2.25	9.5	0.	124.85
4740	2.75	9.5	0.	124.52
4741	3.25	9.5	0.	124.17
4742	3.75	9.5	0.	123.82
4743	4.25	9.5	0.	123.54
4744	4.75	9.5	0.	123.36
4745	5.25	9.5	0.	123.32
4746	5.	9.25	0.	123.28
4747	5.75	9.5	0.	123.41
4748	6.25	9.5	0.	123.61
4749	6.75	9.5	0.	123.89
4750	7.25	9.5	0.	124.18
4751	7.75	9.5	0.	124.45
4752	8.25	9.5	0.	124.69
4753	8.75	9.5	0.	124.87
4754	8.5	9.25	0.	124.92
4755	9.25	9.5	0.	124.99
4756	9.	9.25	0.	125.06
4757	-1.2493	-5.0001	0.	127.7
4758	6.75	-5.	0.	123.89
4759	1.	6.75	0.	126.97
4760	4.5	-3.75	0.	123.44
4761	4.5	-4.25	0.	125.95
4762	-5.75	4.	0.	124.37
4763	-6.25	4.	0.	124.64
4764	-5.	1.25	0.	121.7
4765	-5.	0.75	0.	120.81
4766	-1.75	3.5	0.	124.84
4767	-2.	3.25	0.	124.67
4768	-2.	3.75	0.	124.51
4769	-4.5	5.75	0.	124.82
4770	3.75	-1.	0.	126.79
4771	-0.24965	-4.5	0.	127.84
4772	6.25	-5.	0.	123.79
4773	3.	7.75	0.	125.34
4774	1.75	3.	0.	128.66
4775	2.25	3.	0.	129.7
4776	-3.5	3.25	0.	123.44
4777	-3.5	2.75	0.	123.39
4778	-6.75	4.	0.	124.86
4779	-7.	3.75	0.	124.93
4780	-4.5	3.75	0.	123.55
4781	-0.25	3.	0.	126.42
4782	-0.75	3.	0.	125.98
4783	1.7511	-7.	0.	127.99
4784	8.5	-3.25	0.	127.76
4785	8.5	-3.75	0.	127.05
4786	8.5	-2.75	0.	128.67
4787	8.5	-2.25	0.	129.64
4788	-4.5	6.25	0.	125.64
4789	-4.5	6.75	0.	127.13
4790	0.75	-1.	0.	127.06
4791	0.5	-1.25	0.	127.22
4792	-2.	6.25	0.	124.39
4793	-3.2487	-8.9999	0.	124.71
4794	-1.5	3.75	0.	125.04
4795	4.25	-3.5	0.	122.09
4796	8.75	9.	0.	125.12
4797	-2.7479	-7.5001	0.	128.98
4798	1.25	-1.	0.	126.83
4799	-7.	3.25	0.	124.88
4800	0.75025	-4.5	0.	128.01
4801	0.25031	-4.5	0.	127.84
4802	0.75	3.	0.	127.33
4803	0.25	3.	0.	126.86
4804	-2.	5.75	0.	124.24
4805	-1.2499	-3.5	0.	128.85
4806	-0.74995	-3.5	0.	128.49
4807	-2.2499	-3.5001	0.	130.09
4808	-2.7499	-3.5001	0.	130.65
4809	-6.75	5.	0.	125.16
4810	-2.	5.25	0.	124.23
4811	-2.	4.75	0.	124.29
4812	-1.75	4.	0.	124.71
4813	6.5	6.75	0.	124.95
4814	-1.4999	-3.75	0.	129.1
4815	-1.7499	-3.5	0.	129.41
4816	-4.5	4.25	0.	123.78
4817	7.25	-4.	0.	124.28
4818	8.25	-1.5	0.	131.06
4819	8.5	-1.75	0.	130.28
4820	5.25	-9.	0.	124.71
4821	-3.7491	-8.9999	0.	122.12
4822	1.25	3.	0.	127.9
4823	-2.	4.25	0.	124.38
4824	-4.	-5.	0.	95.102
4825	-6.	-5.	0.	97.23
4826	-4.	-7.	0.	95.938
4827	-6.	-7.	0.	96.466
4828	-4.5	-5.	0.	108.06
4829	-5.	-5.	0.	106.26
4830	-5.5	-5.	0.	109.8
4831	-4.	-5.5	0.	99.471
4832	-4.	-6.	0.	98.626
4833	-4.	-6.5	0.	100.04
4834	-6.	-5.5	0.	100.94
4835	-6.	-6.	0.	99.586
4836	-6.	-6.5	0.	100.69
4837	-5.5	-7.	0.	109.77
4838	-5.	-7.	0.	107.11
4839	-4.5	-7.	0.	109.5
4840	-5.	-5.5	0.	109.08
4841	-4.5	-5.5	0.	106.37
4842	-4.5	-6.5	0.	106.99
4843	-5.	-6.5	0.	109.52
4844	-5.5	-6.5	0.	107.41
4845	-5.5	-5.5	0.	107.41
4846	-5.5	-6.	0.	106.69
4847	-4.5	-6.	0.	106.04
4848	-5.	-6.	0.	109.18
4849	-4.25	-5.	0.	101.53
4850	-4.	-5.25	0.	97.278
4851	-5.75	-5.	0.	103.44
4852	-6.	-5.25	0.	99.075
4853	-4.	-6.75	0.	97.978
4854	-4.25	-7.	0.	102.64
4855	-6.	-6.75	0.	98.567
4856	-5.75	-7.	0.	103.05
4857	-4.75	-5.	0.	107.16
4858	-4.5	-5.25	0.	107.19
4859	-5.25	-5.	0.	108.03
4860	-5.	-5.25	0.	107.65
4861	-5.5	-5.25	0.	108.58
4862	-4.	-5.75	0.	99.021
4863	-4.25	-5.5	0.	102.91
4864	-4.	-6.25	0.	99.305
4865	-4.25	-6.	0.	102.33
4866	-4.25	-6.5	0.	103.5
4867	-6.	-5.75	0.	100.24
4868	-5.75	-5.5	0.	104.16
4869	-6.	-6.25	0.	100.11
4870	-5.75	-6.	0.	103.13
4871	-5.75	-6.5	0.	104.04
4872	-5.25	-7.	0.	108.44
4873	-5.5	-6.75	0.	108.56
4874	-4.75	-7.	0.	108.3
4875	-5.	-6.75	0.	108.3
4876	-4.5	-6.75	0.	108.22
4877	-4.75	-5.5	0.	107.72
4878	-5.25	-5.5	0.	108.24
4879	-5.	-5.75	0.	109.13
4880	-4.5	-5.75	0.	106.19
4881	-4.75	-6.5	0.	108.24
4882	-4.5	-6.25	0.	106.5
4883	-5.25	-6.5	0.	108.46
4884	-5.	-6.25	0.	109.35
4885	-5.5	-6.25	0.	107.04
4886	-5.5	-5.75	0.	107.04
4887	-5.25	-6.	0.	107.93
4888	-4.75	-6.	0.	107.61
4889	7.	1.	0.	98.864
4890	5.	1.	0.	93.193
4891	7.	-1.	0.	97.537
4892	5.	-1.	0.	95.477
4893	6.5	1.	0.	111.09
4894	6.	1.	0.	106.84
4895	5.5	1.	0.	107.42
4896	7.	0.5	0.	102.23
4897	7.	0.	0.	100.79
4898	7.	-0.5	0.	101.91
4899	5.	0.5	0.	98.206
4900	5.	0.	0.	97.725
4901	5.	-0.5	0.	99.407
4902	5.5	-1.	0.	109.54
4903	6.	-1.	0.	107.65
4904	6.5	-1.	0.	110.77
4905	6.5	0.	0.	107.63
4906	6.5	-0.5	0.	108.34
4907	5.5	-0.5	0.	106.84
4908	5.5	1.4117e-026	0.	105.7
4909	5.5	0.5	0.	105.85
4910	6.5	0.5	0.	108.49
4911	6.	0.5	0.	109.49
4912	6.	-0.5	0.	109.96
4913	6.	2.8234e-027	0.	109.56
4914	6.75	1.	0.	104.9
4915	7.	0.75	0.	100.54
4916	5.25	1.	0.	100.26
4917	5.	0.75	0.	95.686
4918	7.	-0.75	0.	99.713
4919	6.75	-1.	0.	104.07
4920	5.	-0.75	0.	97.429
4921	5.25	-1.	0.	102.43
4922	6.25	1.	0.	108.97
4923	6.5	0.75	0.	109.76
4924	5.75	1.	0.	107.13
4925	6.	0.75	0.	108.15
4926	5.5	0.75	0.	106.61
4927	7.	0.25	0.	101.48
4928	6.75	0.5	0.	105.35
4929	7.	-0.25	0.	101.32
4930	6.75	0.	0.	104.21
4931	6.75	-0.5	0.	105.11
4932	5.	0.25	0.	97.934
4933	5.25	0.5	0.	102.02
4934	5.	-0.25	0.	98.534
4935	5.25	7.0586e-027	0.	101.71
4936	5.25	-0.5	0.	103.1
4937	5.75	-1.	0.	108.59
4938	5.5	-0.75	0.	108.17
4939	6.25	-1.	0.	109.21
4940	6.	-0.75	0.	108.79
4941	6.5	-0.75	0.	109.52
4942	6.5	-0.25	0.	107.98
4943	6.5	0.25	0.	108.05
4944	6.25	1.4117e-027	0.	108.59
4945	6.25	-0.5	0.	109.14
4946	5.5	-0.25	0.	106.26
4947	5.75	-0.5	0.	108.39
4948	5.5	0.25	0.	105.76
4949	5.75	8.4703e-027	0.	107.63
4950	5.75	0.5	0.	107.66
4951	6.25	0.5	0.	108.98
4952	6.	0.25	0.	109.52
4953	6.	-0.25	0.	109.76
4954	6.	5.	0.	96.187
4955	4.	5.	0.	97.175
4956	6.	3.	0.	93.434
4957	4.	3.	0.	98.601
4958	5.5	5.	0.	109.98
4959	5.	5.	0.	107.83
4960	4.5	5.	0.	110.75
4961	6.	4.5	0.	99.924
4962	6.	4.	0.	98.163
4963	6.	3.5	0.	98.562
4964	4.	4.5	0.	101.69
4965	4.	4.	0.	100.49
4966	4.	3.5	0.	101.88
4967	4.5	3.	0.	110.9
4968	5.	3.	0.	106.83
4969	5.5	3.	0.	107.56
4970	5.	4.	0.	109.64
4971	5.	4.5	0.	110.11
4972	5.5	4.5	0.	107.21
4973	5.5	4.	0.	105.99
4974	5.5	3.5	0.	106.06
4975	5.	3.5	0.	109.52
4976	4.5	3.5	0.	108.32
4977	4.5	4.	0.	107.5
4978	4.5	4.5	0.	108.26
4979	5.75	5.	0.	103.
4980	6.	4.75	0.	98.045
4981	4.25	5.	0.	103.88
4982	4.	4.75	0.	99.42
4983	6.	3.25	0.	95.985
4984	5.75	3.	0.	100.45
4985	4.	3.25	0.	100.23
4986	4.25	3.	0.	104.67
4987	5.25	5.	0.	108.9
4988	5.5	4.75	0.	108.56
4989	4.75	5.	0.	109.29
4990	5.	4.75	0.	108.95
4991	4.5	4.75	0.	109.47
4992	6.	4.25	0.	99.013
4993	5.75	4.5	0.	103.55
4994	6.	3.75	0.	98.332
4995	5.75	4.	0.	102.07
4996	5.75	3.5	0.	102.3
4997	4.	4.25	0.	101.06
4998	4.25	4.5	0.	104.96
4999	4.	3.75	0.	101.16
5000	4.25	4.	0.	103.99
5001	4.25	3.5	0.	105.09
5002	4.75	3.	0.	108.86
5003	4.5	3.25	0.	109.58
5004	5.25	3.	0.	107.19
5005	5.	3.25	0.	108.16
5006	5.5	3.25	0.	106.78
5007	5.	4.25	0.	109.87
5008	5.25	4.	0.	107.81
5009	5.	3.75	0.	109.58
5010	4.75	4.	0.	108.57
5011	5.25	4.5	0.	108.64
5012	4.75	4.5	0.	109.17
5013	5.5	4.25	0.	106.59
5014	5.5	3.75	0.	106.01
5015	5.25	3.5	0.	107.78
5016	4.75	3.5	0.	108.91
5017	4.5	3.75	0.	107.91
5018	4.5	4.25	0.	107.87
5019	-4.	-1.	0.	93.574
5020	-5.	-1.	0.	93.199
5021	-4.	-3.	0.	93.109
5022	-5.	-3.	0.	90.571
5023	-4.5	-1.	0.	107.06
5024	-4.	-1.5	0.	97.511
5025	-4.	-2.	0.	96.156
5026	-4.	-2.5	0.	96.739
5027	-5.	-1.5	0.	96.785
5028	-5.	-2.	0.	95.25
5029	-5.	-2.5	0.	95.492
5030	-4.5	-3.	0.	104.65
5031	-4.5	-1.5	0.	101.29
5032	-4.5	-2.	0.	98.762
5033	-4.5	-2.5	0.	100.22
5034	-4.25	-1.	0.	100.25
5035	-4.	-1.25	0.	95.537
5036	-4.75	-1.	0.	100.08
5037	-5.	-1.25	0.	94.989
5038	-4.	-2.75	0.	94.922
5039	-4.25	-3.	0.	98.848
5040	-5.	-2.75	0.	93.029
5041	-4.75	-3.	0.	97.581
5042	-4.5	-1.25	0.	104.13
5043	-4.	-1.75	0.	96.801
5044	-4.25	-1.5	0.	99.346
5045	-4.	-2.25	0.	96.418
5046	-4.25	-2.	0.	97.458
5047	-4.25	-2.5	0.	98.447
5048	-5.	-1.75	0.	95.978
5049	-4.75	-1.5	0.	98.979
5050	-5.	-2.25	0.	95.333
5051	-4.75	-2.	0.	97.004
5052	-4.75	-2.5	0.	97.826
5053	-4.5	-2.75	0.	102.4
5054	-4.5	-1.75	0.	100.02
5055	-4.5	-2.25	0.	99.489
5056	4.	-5.	0.	93.879
5057	3.	-5.	0.	94.987
5058	4.	-7.	0.	94.216
5059	3.	-7.	0.	94.434
5060	3.5	-5.	0.	108.32
5061	4.	-5.5	0.	98.151
5062	4.	-6.	0.	97.044
5063	4.	-6.5	0.	98.016
5064	3.	-5.5	0.	98.598
5065	3.	-6.	0.	97.572
5066	3.	-6.5	0.	98.622
5067	3.5	-7.	0.	108.15
5068	3.5	-5.5	0.	102.77
5069	3.5	-6.	0.	100.6
5070	3.5	-6.5	0.	102.7
5071	3.75	-5.	0.	101.04
5072	4.	-5.25	0.	96.01
5073	3.25	-5.	0.	101.6
5074	3.	-5.25	0.	96.79
5075	4.	-6.75	0.	96.114
5076	3.75	-7.	0.	101.14
5077	3.	-6.75	0.	96.524
5078	3.25	-7.	0.	101.24
5079	3.5	-5.25	0.	105.5
5080	4.	-5.75	0.	97.557
5081	3.75	-5.5	0.	100.41
5082	4.	-6.25	0.	97.488
5083	3.75	-6.	0.	98.82
5084	3.75	-6.5	0.	100.31
5085	3.	-5.75	0.	98.047
5086	3.25	-5.5	0.	100.64
5087	3.	-6.25	0.	98.06
5088	3.25	-6.	0.	99.084
5089	3.25	-6.5	0.	100.61
5090	3.5	-6.75	0.	105.38
5091	3.5	-5.75	0.	101.68
5092	3.5	-6.25	0.	101.65
5093	-2.	9.	0.	99.866
5094	-4.	9.	0.	99.814
5095	-2.	8.	0.	100.49
5096	-4.	8.	0.	100.21
5097	-2.5	9.	0.	119.47
5098	-3.	9.	0.	118.95
5099	-3.5	9.	0.	119.39
5100	-2.	8.5	0.	105.34
5101	-4.	8.5	0.	105.2
5102	-3.5	8.	0.	117.83
5103	-3.	8.	0.	117.04
5104	-2.5	8.	0.	117.91
5105	-3.5	8.5	0.	117.26
5106	-3.	8.5	0.	121.25
5107	-2.5	8.5	0.	117.35
5108	-2.25	9.	0.	109.6
5109	-2.	8.75	0.	102.58
5110	-3.75	9.	0.	109.54
5111	-4.	8.75	0.	102.48
5112	-2.	8.25	0.	102.89
5113	-2.25	8.	0.	109.17
5114	-4.	8.25	0.	102.68
5115	-3.75	8.	0.	108.99
5116	-2.75	9.	0.	119.21
5117	-2.5	8.75	0.	118.39
5118	-3.25	9.	0.	119.17
5119	-3.	8.75	0.	120.09
5120	-3.5	8.75	0.	118.3
5121	-2.25	8.5	0.	111.33
5122	-3.75	8.5	0.	111.21
5123	-3.25	8.	0.	117.42
5124	-3.5	8.25	0.	117.53
5125	-2.75	8.	0.	117.46
5126	-3.	8.25	0.	119.14
5127	-2.5	8.25	0.	117.61
5128	-3.25	8.5	0.	119.25
5129	-2.75	8.5	0.	119.29
