Node Number	X Location (mm)	Y Location (mm)	Z Location (mm)	Equivalent (von-Mises) Stress (MPa)
1	4.51	-1.22	0.	158.33
2	5.3	-1.96	0.	130.23
3	5.54	-0.91	0.	161.88
4	5.62	2.72	0.	157.61
5	4.84	3.78	0.	112.17
6	4.31	2.57	0.	158.58
7	7.97	-0.2	0.	167.82
8	6.67	0.11	0.	161.68
9	7.05	-1.17	0.	106.77
10	-1.92	-1.55	0.	143.48
11	-2.97	-2.03	0.	165.77
12	-2.03	-2.7	0.	118.96
13	0.92	-3.66	0.	114.63
14	0.61	-4.69	0.	165.18
15	1.66	-4.44	0.	174.99
16	-2.75	-3.77	0.	169.3
17	-2.11	-4.97	0.	105.21
18	-1.39	-3.82	0.	164.97
19	-5.76	-6.77	0.	160.39
20	-6.87	-6.65	0.	160.17
21	-6.42	-7.67	0.	103.87
22	-7.58	-0.16	0.	144.4
23	-6.46	0.5	0.	158.52
24	-7.59	1.15	0.	147.44
25	-6.46	-3.56	0.	113.6
26	-7.1	-5.36	0.	164.04
27	-5.22	-5.01	0.	171.66
28	6.	-3.	0.	134.95
29	6.	-5.	0.	126.95
30	8.	-3.	0.	135.73
31	8.	-5.	0.	139.09
32	7.	8.	0.	133.64
33	7.	7.	0.	133.43
34	8.	8.	0.	134.15
35	8.	7.	0.	133.34
36	5.	-6.	0.	138.25
37	5.	-7.	0.	137.85
38	7.	-6.	0.	124.57
39	7.	-7.	0.	128.77
40	-1.	6.	0.	128.71
41	-1.	4.	0.	125.94
42	0.	6.	0.	130.36
43	0.	4.	0.	126.94
44	-2.	2.	0.	133.42
45	-2.	0.	0.	130.57
46	0.	2.	0.	132.72
47	0.	0.	0.	134.9
48	-2.	-6.	0.	128.45
49	-2.	-8.	0.	132.37
50	0.	-6.	0.	139.12
51	0.	-8.	0.	133.06
52	-9.	9.	0.	140.81
53	-9.	7.	0.	138.51
54	-7.	9.	0.	139.02
55	-7.	7.	0.	138.3
56	-9.	4.	0.	136.77
57	-9.	3.	0.	137.41
58	-8.	4.	0.	134.28
59	-8.	3.	0.	132.5
60	-7.	6.	0.	136.63
61	-7.	5.	0.	134.59
62	-5.	6.	0.	138.87
63	-5.	5.	0.	138.37
64	10.	10.	0.	125.01
65	-10.	10.	0.	125.43
66	10.	-10.	0.	130.88
67	-10.	-10.	0.	132.94
68	4.905	-1.59	0.	69.608
69	5.025	-1.065	0.	95.426
70	5.42	-1.435	0.	143.64
71	5.36	3.0733	0.	107.11
72	5.1	3.4267	0.	105.05
73	5.1833	2.67	0.	108.2
74	4.7467	2.62	0.	111.1
75	4.6633	3.3767	0.	122.45
76	4.4867	2.9733	0.	128.91
77	7.5367	-9.6667e-002	0.	98.156
78	7.1033	6.6667e-003	0.	106.85
79	7.6633	-0.52333	0.	82.124
80	7.3567	-0.84667	0.	88.465
81	6.7967	-0.31667	0.	135.73
82	6.9233	-0.74333	0.	124.24
83	-2.27	-1.71	0.	97.888
84	-2.62	-1.87	0.	76.786
85	-1.9567	-1.9333	0.	136.78
86	-1.9933	-2.3167	0.	129.2
87	-2.6567	-2.2533	0.	63.485
88	-2.3433	-2.4767	0.	82.595
89	0.765	-4.175	0.	134.7
90	1.29	-4.05	0.	69.278
91	1.135	-4.565	0.	99.966
92	-2.5367	-4.17	0.	113.07
93	-2.3233	-4.57	0.	103.37
94	-2.2967	-3.7867	0.	110.22
95	-1.8433	-3.8033	0.	96.71
96	-1.87	-4.5867	0.	101.53
97	-1.63	-4.2033	0.	108.7
98	-6.315	-6.71	0.	97.683
99	-6.09	-7.22	0.	83.866
100	-6.6452	-7.1597	0.	117.38
101	-7.2067	6.e-002	0.	92.958
102	-6.8333	0.28	0.	73.13
103	-7.5833	0.27667	0.	143.49
104	-7.5867	0.71333	0.	144.88
105	-6.8367	0.71667	0.	76.284
106	-7.2133	0.93333	0.	93.879
107	-6.6201	-4.0102	0.	123.12
108	-6.78	-4.4601	0.	131.27
109	-6.94	-4.9101	0.	133.84
110	-6.15	-3.9225	0.	93.746
111	-5.84	-4.285	0.	108.6
112	-5.53	-4.6475	0.	99.284
113	-6.63	-5.2725	0.	107.05
114	-6.16	-5.185	0.	114.18
115	-5.69	-5.0975	0.	107.04
116	6.	-3.5	0.	140.03
117	6.	-4.	0.	139.48
118	6.	-4.5	0.	136.69
119	6.5	-3.	0.	115.05
120	7.	-3.	0.	117.12
121	7.5	-3.	0.	112.33
122	6.5	-5.	0.	108.27
123	7.	-5.	0.	117.37
124	7.5	-5.	0.	117.33
125	8.	-3.5	0.	145.61
126	8.	-4.	0.	147.61
127	8.	-4.5	0.	147.14
128	7.	7.5	0.	142.61
129	7.5	8.	0.	111.66
130	7.5	7.	0.	111.12
131	8.	7.5	0.	143.23
132	5.	-6.5	0.	146.19
133	5.5	-6.	0.	120.36
134	6.	-6.	0.	119.94
135	6.5	-6.	0.	109.06
136	5.5	-7.	0.	116.26
137	6.	-7.	0.	119.58
138	6.5	-7.	0.	112.91
139	7.	-6.5	0.	135.12
140	-1.	5.5	0.	136.78
141	-1.	5.	0.	136.46
142	-1.	4.5	0.	135.2
143	-0.5	6.	0.	104.91
144	-0.5	4.	0.	102.38
145	0.	5.5	0.	138.45
146	0.	5.	0.	138.42
147	0.	4.5	0.	137.64
148	-2.	1.5	0.	141.5
149	-2.	1.	0.	141.65
150	-2.	0.5	0.	139.36
151	-1.5	2.	0.	111.92
152	-1.	2.	0.	114.77
153	-0.5	2.	0.	110.04
154	-1.5	0.	0.	110.77
155	-1.	0.	0.	117.53
156	-0.5	0.	0.	114.31
157	0.	1.5	0.	142.29
158	0.	1.	0.	144.03
159	0.	0.5	0.	143.25
160	-2.	-6.5	0.	138.02
161	-2.	-7.	0.	140.77
162	-2.	-7.5	0.	140.5
163	-1.5	-6.	0.	109.71
164	-1.	-6.	0.	119.22
165	-0.5	-6.	0.	117.46
166	-1.5	-8.	0.	111.16
167	-1.	-8.	0.	115.52
168	-0.5	-8.	0.	111.68
169	0.	-6.5	0.	143.43
170	0.	-7.	0.	143.73
171	0.	-7.5	0.	142.11
172	-9.	8.5	0.	150.98
173	-9.	8.	0.	152.49
174	-9.	7.5	0.	150.28
175	-8.5	9.	0.	120.92
176	-8.	9.	0.	126.8
177	-7.5	9.	0.	119.79
178	-8.5	7.	0.	119.29
179	-8.	7.	0.	124.99
180	-7.5	7.	0.	120.09
181	-7.	8.5	0.	146.44
182	-7.	8.	0.	147.18
183	-7.	7.5	0.	145.48
184	-9.	3.5	0.	147.44
185	-8.5	4.	0.	112.57
186	-8.5	3.	0.	113.36
187	-8.	3.5	0.	142.57
188	-7.	5.5	0.	142.45
189	-6.5	6.	0.	122.4
190	-6.	6.	0.	128.4
191	-5.5	6.	0.	121.57
192	-6.5	5.	0.	119.1
193	-6.	5.	0.	124.94
194	-5.5	5.	0.	119.79
195	-5.	5.5	0.	146.98
196	9.5	10.	0.	124.99
197	9.	10.	0.	124.64
198	8.5	10.	0.	123.78
199	8.	10.	0.	122.75
200	7.5	10.	0.	122.33
201	7.	10.	0.	122.88
202	6.5	10.	0.	124.08
203	6.	10.	0.	125.16
204	5.5	10.	0.	125.71
205	5.	10.	0.	125.85
206	4.5	10.	0.	125.8
207	4.	10.	0.	125.7
208	3.5	10.	0.	125.6
209	3.	10.	0.	125.49
210	2.5	10.	0.	125.34
211	2.	10.	0.	125.13
212	1.5	10.	0.	124.86
213	1.	10.	0.	124.56
214	0.5	10.	0.	124.27
215	-5.2042e-015	10.	0.	124.08
216	-0.5	10.	0.	124.06
217	-1.	10.	0.	124.24
218	-1.5	10.	0.	124.6
219	-2.	10.	0.	125.06
220	-2.5	10.	0.	125.53
221	-3.	10.	0.	125.96
222	-3.5	10.	0.	126.31
223	-4.	10.	0.	126.61
224	-4.5	10.	0.	126.96
225	-5.	10.	0.	127.49
226	-5.5	10.	0.	128.22
227	-6.	10.	0.	129.02
228	-6.5	10.	0.	127.52
229	-7.	10.	0.	122.12
230	-7.5	10.	0.	117.4
231	-8.	10.	0.	115.02
232	-8.5	10.	0.	116.9
233	-9.	10.	0.	120.71
234	-9.5	10.	0.	124.46
235	10.	9.5	0.	124.97
236	10.	9.	0.	124.96
237	10.	8.5	0.	124.49
238	10.	8.	0.	123.66
239	10.	7.5	0.	123.47
240	10.	7.	0.	124.64
241	10.	6.5	0.	126.37
242	10.	6.	0.	127.54
243	10.	5.5	0.	127.77
244	10.	5.	0.	127.44
245	10.	4.5	0.	127.
246	10.	4.	0.	126.75
247	10.	3.5	0.	126.86
248	10.	3.	0.	127.39
249	10.	2.5	0.	128.32
250	10.	2.	0.	129.4
251	10.	1.5	0.	130.13
252	10.	1.	0.	129.82
253	10.	0.5	0.	128.2
254	10.	-5.2042e-015	0.	126.48
255	10.	-0.5	0.	126.61
256	10.	-1.	0.	129.15
257	10.	-1.5	0.	132.42
258	10.	-2.	0.	134.32
259	10.	-2.5	0.	133.97
260	10.	-3.	0.	131.91
261	10.	-3.5	0.	129.6
262	10.	-4.	0.	128.4
263	10.	-4.5	0.	128.71
264	10.	-5.	0.	130.12
265	10.	-5.5	0.	131.48
266	10.	-6.	0.	131.96
267	10.	-6.5	0.	131.65
268	10.	-7.	0.	131.21
269	10.	-7.5	0.	131.
270	10.	-8.	0.	130.99
271	10.	-8.5	0.	131.
272	10.	-9.	0.	130.96
273	10.	-9.5	0.	130.9
274	-10.	9.5	0.	124.1
275	-10.	9.	0.	122.86
276	-10.	8.5	0.	122.43
277	-10.	8.	0.	125.51
278	-10.	7.5	0.	128.12
279	-10.	7.	0.	133.58
280	-10.	6.5	0.	137.61
281	-10.	6.	0.	137.11
282	-10.	5.5	0.	135.44
283	-10.	5.	0.	135.78
284	-10.	4.5	0.	135.75
285	-10.	4.	0.	132.46
286	-10.	3.5	0.	129.35
287	-10.	3.	0.	133.62
288	-10.	2.5	0.	137.03
289	-10.	2.	0.	135.1
290	-10.	1.5	0.	130.45
291	-10.	1.	0.	126.47
292	-10.	0.5	0.	124.69
293	-10.	-5.2042e-015	0.	125.47
294	-10.	-0.5	0.	127.82
295	-10.	-1.	0.	130.09
296	-10.	-1.5	0.	131.33
297	-10.	-2.	0.	131.44
298	-10.	-2.5	0.	130.73
299	-10.	-3.	0.	129.45
300	-10.	-3.5	0.	127.86
301	-10.	-4.	0.	126.35
302	-10.	-4.5	0.	125.34
303	-10.	-5.	0.	125.13
304	-10.	-5.5	0.	125.65
305	-10.	-6.	0.	126.5
306	-10.	-6.5	0.	127.37
307	-10.	-7.	0.	128.26
308	-10.	-7.5	0.	129.3
309	-10.	-8.	0.	130.47
310	-10.	-8.5	0.	131.55
311	-10.	-9.	0.	132.35
312	-10.	-9.5	0.	132.8
313	-9.5	-10.	0.	131.28
314	-9.	-10.	0.	129.97
315	-8.5	-10.	0.	128.62
316	-8.	-10.	0.	126.87
317	-7.5	-10.	0.	124.6
318	-7.	-10.	0.	122.28
319	-6.5	-10.	0.	120.94
320	-6.	-10.	0.	121.45
321	-5.5	-10.	0.	123.56
322	-5.	-10.	0.	126.22
323	-4.5	-10.	0.	128.42
324	-4.	-10.	0.	129.7
325	-3.5	-10.	0.	129.8
326	-3.	-10.	0.	128.37
327	-2.5	-10.	0.	125.11
328	-2.	-10.	0.	120.51
329	-1.5	-10.	0.	116.38
330	-1.	-10.	0.	114.75
331	-0.5	-10.	0.	116.51
332	5.2042e-015	-10.	0.	120.76
333	0.5	-10.	0.	125.51
334	1.	-10.	0.	129.
335	1.5	-10.	0.	130.86
336	2.	-10.	0.	131.54
337	2.5	-10.	0.	131.52
338	3.	-10.	0.	131.
339	3.5	-10.	0.	129.99
340	4.	-10.	0.	128.4
341	4.5	-10.	0.	126.26
342	5.	-10.	0.	123.86
343	5.5	-10.	0.	121.74
344	6.	-10.	0.	120.49
345	6.5	-10.	0.	120.41
346	7.	-10.	0.	121.42
347	7.5	-10.	0.	123.12
348	8.	-10.	0.	125.01
349	8.5	-10.	0.	126.79
350	9.	-10.	0.	128.34
351	9.5	-10.	0.	129.69
352	3.4651	6.4769	0.	125.68
353	2.7961	0.61504	0.	130.98
354	1.9361	5.0063	0.	128.02
355	3.7112	-3.5621	0.	130.54
356	2.7808	0.13046	0.	130.99
357	3.2566	0.64943	0.	130.82
358	2.9343	5.4863	0.	127.42
359	3.9635	6.4664	0.	125.05
360	2.4211	5.0023	0.	128.2
361	2.4431	5.4967	0.	127.55
362	2.9688	6.4854	0.	126.28
363	2.3381	0.58885	0.	130.5
364	3.1205	-3.1653	0.	133.73
365	1.89	1.0629	0.	129.99
366	2.3557	1.0847	0.	130.53
367	1.8571	-1.4699	0.	128.81
368	2.325	9.8142e-002	0.	130.48
369	-4.4374	2.4866	0.	129.26
370	2.3558	3.5743	0.	129.64
371	2.459	5.9936	0.	127.1
372	2.4735	6.492	0.	126.78
373	2.448	-1.792	0.	130.33
374	2.3185	-0.88099	0.	129.77
375	2.3446	-1.3515	0.	129.61
376	2.3948	4.5164	0.	128.9
377	2.3692	4.0401	0.	129.42
378	4.461	6.4546	0.	124.59
379	-3.9401	0.98957	0.	126.83
380	2.4466	-6.5252	0.	129.1
381	-5.9898	2.9889	0.	122.43
382	-5.3159	2.4386	0.	127.28
383	-4.8731	1.9777	0.	128.45
384	3.4286	5.4723	0.	126.88
385	3.2401	0.16766	0.	131.42
386	2.8184	1.1031	0.	131.05
387	1.4629	-1.7847	0.	126.91
388	1.3931	-1.3762	0.	128.12
389	1.9461	-6.5503	0.	127.31
390	-3.9492	0.49134	0.	127.16
391	3.8721	-4.027	0.	129.04
392	2.7646	-6.0037	0.	131.49
393	1.4531	5.0052	0.	128.06
394	1.4187	1.0487	0.	129.91
395	2.4817	-7.009	0.	128.53
396	1.9745	-7.0291	0.	127.33
397	-4.4108	1.487	0.	127.59
398	2.9081	4.9953	0.	128.31
399	2.0596	-1.9557	0.	129.25
400	2.6672	-3.2499	0.	134.36
401	3.7229	0.68537	0.	129.01
402	2.7728	-0.35203	0.	130.69
403	2.7259	-2.1721	0.	132.26
404	3.0142	-2.6392	0.	134.32
405	3.5715	-3.1139	0.	132.89
406	4.132	-3.4252	0.	128.91
407	2.9775	-6.4403	0.	130.1
408	1.9538	5.5025	0.	127.54
409	1.9203	4.5167	0.	128.76
410	-3.0002	6.9997	0.	127.46
411	-3.0011	5.4991	0.	126.17
412	-5.4886	2.9073	0.	124.98
413	1.9874	6.9964	0.	126.93
414	2.4837	6.9931	0.	126.46
415	2.9806	6.9885	0.	125.94
416	3.4781	6.9829	0.	125.38
417	3.9762	6.9765	0.	124.86
418	4.4748	6.97	0.	124.52
419	2.3821	1.5804	0.	130.61
420	2.7564	3.5694	0.	129.18
421	2.5116	3.116	0.	129.33
422	6.9967	4.4948	0.	124.54
423	7.0173	4.0266	0.	124.3
424	-3.937	1.4902	0.	127.62
425	-3.9813	2.9949	0.	131.05
426	1.9678	3.0464	0.	130.6
427	1.9097	1.5629	0.	130.2
428	1.8749	0.57092	0.	130.02
429	1.8613	-0.92718	0.	129.61
430	3.2462	-3.639	0.	131.52
431	-3.4635	-7.0306	0.	128.11
432	-4.9744	-0.97451	0.	130.38
433	-6.7892	-1.4436	0.	118.57
434	-5.0117	-1.4583	0.	129.65
435	-4.6281	-2.9096	0.	133.13
436	-3.9517	-7.039	0.	128.35
437	-3.9219	-6.5795	0.	130.25
438	3.4779	-4.5683	0.	130.22
439	1.8614	-0.42011	0.	130.15
440	1.8666	7.4732e-002	0.	130.2
441	1.9348	2.0591	0.	130.53
442	1.9605	2.5548	0.	130.68
443	-3.9599	2.4935	0.	130.25
444	2.4593	2.5877	0.	129.83
445	2.416	2.0776	0.	130.4
446	4.9743	6.9646	0.	124.53
447	4.9609	6.4441	0.	124.62
448	6.9751	4.9757	0.	124.18
449	-4.9674	2.9663	0.	127.45
450	-4.4714	2.9861	0.	129.6
451	-3.0017	4.499	0.	127.92
452	-3.0004	6.4995	0.	127.27
453	-3.0007	5.9993	0.	126.6
454	1.9199	3.5347	0.	130.33
455	1.9088	4.0261	0.	129.64
456	1.9673	5.998	0.	127.36
457	1.9787	6.4965	0.	127.23
458	3.1397	-5.5323	0.	132.49
459	3.1506	-5.9811	0.	131.48
460	4.0066	-2.8924	0.	132.61
461	3.5324	-2.6884	0.	134.77
462	2.8247	-1.7217	0.	130.75
463	2.7758	-0.82786	0.	129.96
464	2.7949	-1.2859	0.	129.79
465	4.67	0.77061	0.	120.54
466	4.1948	0.72347	0.	124.94
467	2.5271	-2.7988	0.	134.04
468	-3.8996	-6.1233	0.	132.99
469	2.8735	4.5096	0.	129.16
470	6.5639	3.9785	0.	125.67
471	6.4769	4.4478	0.	125.95
472	-5.9413	-1.4632	0.	124.71
473	-4.4189	0.99057	0.	126.77
474	-4.4463	5.276e-004	0.	128.44
475	-4.4315	0.49552	0.	126.96
476	7.5584	2.0106	0.	121.8
477	7.4744	3.0093	0.	122.11
478	7.449	3.5118	0.	122.74
479	7.4986	4.5019	0.	123.84
480	7.4897	4.9942	0.	123.37
481	-3.9771	-7.5116	0.	127.88
482	2.3532	-6.0686	0.	130.55
483	2.2234	-3.3428	0.	136.41
484	-2.9751	0.99413	0.	128.2
485	-2.0006	4.9998	0.	126.37
486	-2.9757	-7.021	0.	128.58
487	3.9641	-4.5122	0.	129.52
488	1.4885	-7.5221	0.	127.8
489	-6.0077	3.9677	0.	118.87
490	-4.3455	-6.1288	0.	135.05
491	-4.7758	-6.1115	0.	137.73
492	-3.9617	-5.5071e-003	0.	128.91
493	1.8976	-6.087	0.	127.99
494	2.7101	-5.5665	0.	133.36
495	1.4584	-6.5476	0.	125.8
496	-3.4798	-7.5117	0.	128.08
497	-4.4936	-0.98061	0.	131.73
498	0.54046	-2.0015	0.	124.03
499	1.4086	0.55152	0.	130.04
500	-3.4879	2.9983	0.	131.89
501	7.0746	1.97	0.	121.92
502	3.2812	1.1289	0.	130.93
503	5.1605	1.2958	0.	119.72
504	5.1494	0.82795	0.	119.94
505	-3.5001	7.4999	0.	127.35
506	-3.0001	7.4999	0.	127.01
507	-2.5002	7.4999	0.	126.56
508	1.4941	7.4988	0.	126.52
509	1.992	7.4973	0.	126.44
510	2.4901	7.495	0.	126.1
511	2.9884	7.4919	0.	125.65
512	3.487	7.4884	0.	125.18
513	3.986	7.4847	0.	124.76
514	4.4851	7.4808	0.	124.48
515	4.9846	7.4775	0.	124.44
516	5.4855	7.4751	0.	124.8
517	7.4819	5.4869	0.	122.15
518	-3.9956	3.4948	0.	131.57
519	-3.5015	3.9981	0.	130.93
520	-3.5002	6.9997	0.	128.2
521	-3.5013	5.4986	0.	127.01
522	-4.0001	7.4999	0.	127.4
523	-2.0003	7.4999	0.	125.7
524	-2.5009	5.4994	0.	125.86
525	-2.5003	6.9998	0.	127.06
526	1.4434	4.5112	0.	128.83
527	1.4635	3.0233	0.	131.68
528	1.4903	6.9985	0.	127.28
529	1.4648	5.5037	0.	127.67
530	-0.50116	7.5001	0.	119.89
531	0.99555	7.4997	0.	125.98
532	3.5469	-5.0424	0.	131.59
533	3.5147	-6.4915	0.	130.18
534	2.9891	-6.9809	0.	129.42
535	2.995	-7.4941	0.	129.72
536	-4.0305	-4.2967	0.	130.54
537	-3.898	-5.6676	0.	134.17
538	4.5468	-3.4011	0.	126.55
539	3.1827	-2.1822	0.	133.46
540	3.231	-0.31523	0.	131.57
541	3.7126	0.20135	0.	130.57
542	1.6398	-2.1761	0.	126.86
543	-3.4471	-6.566	0.	129.29
544	-3.9225	-4.7509	0.	130.24
545	3.1887	3.5187	0.	129.
546	3.3988	4.9743	0.	128.06
547	3.9246	5.4463	0.	125.73
548	-5.3175	1.9741	0.	128.55
549	-5.6907	2.4647	0.	125.96
550	-6.076	2.5686	0.	123.81
551	-5.4374	-0.97142	0.	129.51
552	-6.7495	-0.9949	0.	118.5
553	-4.8795	1.4859	0.	127.93
554	-4.9431	-0.48338	0.	129.77
555	-4.9272	9.2539e-003	0.	127.81
556	-4.9147	0.50215	0.	126.15
557	-4.8983	0.99505	0.	126.84
558	-6.3267	-0.98975	0.	124.43
559	-5.89	-0.97802	0.	127.81
560	-5.751	2.0121	0.	127.99
561	-6.1799	2.1185	0.	125.66
562	5.4255	5.3593	0.	123.81
563	5.8888	4.3173	0.	126.29
564	3.3551	4.484	0.	129.33
565	3.292	3.9983	0.	130.1
566	-3.4774	-5.2082	0.	133.05
567	-3.4537	-5.6554	0.	132.75
568	-3.4405	-6.1071	0.	131.05
569	2.095	-2.9513	0.	132.32
570	1.8658	-2.5777	0.	128.97
571	4.6535	0.29203	0.	119.84
572	4.1817	0.24287	0.	126.38
573	3.2301	-0.79622	0.	130.46
574	3.2375	-1.2675	0.	129.32
575	4.5518	-2.3873	0.	130.95
576	4.5279	-2.9089	0.	127.42
577	-3.9111	-5.2097	0.	132.95
578	3.4974	-6.9891	0.	129.96
579	3.4968	-7.4935	0.	130.59
580	3.5743	-6.0057	0.	131.38
581	-1.9555e-003	7.5001	0.	121.46
582	1.4757	6.0003	0.	127.64
583	1.4841	6.499	0.	127.73
584	1.4383	4.0166	0.	129.94
585	-2.5004	6.4996	0.	127.02
586	-2.5007	5.9995	0.	126.33
587	-1.5005	7.5	0.	123.81
588	-5.	7.4999	0.	124.61
589	-3.5004	6.4994	0.	128.25
590	-3.5021	4.9982	0.	127.89
591	-4.4945	3.4867	0.	130.07
592	6.9668	5.4645	0.	123.45
593	5.4762	6.9592	0.	125.06
594	5.4631	6.4393	0.	125.43
595	6.6306	1.4312	0.	123.8
596	3.7473	1.1596	0.	129.01
597	2.9504	2.572	0.	129.02
598	7.0254	2.4746	0.	121.95
599	5.6438	1.3453	0.	124.34
600	-3.4751	2.497	0.	131.25
601	1.4507	2.0384	0.	130.79
602	1.4634	2.5321	0.	131.54
603	1.3992	-0.4376	0.	130.51
604	1.404	5.4713e-002	0.	130.37
605	2.9708e-003	-1.493	0.	122.72
606	3.005	-4.6162	0.	130.66
607	-4.4413	-7.0373	0.	127.29
608	-4.3916	-6.5773	0.	130.99
609	-5.1108	-2.9044	0.	129.47
610	-6.9812	-1.9074	0.	119.47
611	-6.3826	-1.466	0.	121.42
612	-5.5302	-1.9381	0.	125.47
613	-4.5645	-1.9431	0.	130.85
614	0.97701	5.5019	0.	128.09
615	-0.70918	-4.2269	0.	117.74
616	2.2894	-5.6226	0.	133.29
617	1.8702	-5.6631	0.	130.44
618	-6.4783	2.8443	0.	121.31
619	-6.6075	2.284	0.	121.71
620	-3.4742	-9.7223e-003	0.	128.41
621	-3.4864	-0.51108	0.	131.24
622	8.0463	2.0264	0.	123.63
623	8.0153	2.5161	0.	123.16
624	7.99	3.0107	0.	123.05
625	7.9984	4.5007	0.	123.96
626	7.9955	4.9985	0.	123.76
627	-6.5056	3.9576	0.	119.34
628	6.6099	-2.0935	0.	116.23
629	6.5	-8.	0.	116.49
630	2.998	-7.9986	0.	130.28
631	2.4973	-8.0042	0.	129.71
632	1.4948	-8.0138	0.	129.2
633	8.0068	-0.92845	0.	132.95
634	8.0286	-1.497	0.	124.99
635	5.9883	7.476	0.	125.25
636	-6.	8.	0.	126.
637	-5.5	8.	0.	123.39
638	-4.	7.9999	0.	125.95
639	-3.5001	7.9999	0.	126.37
640	-3.0001	7.9999	0.	126.33
641	-2.5002	7.9999	0.	125.95
642	-2.0003	8.	0.	125.15
643	-1.5005	8.	0.	123.86
644	1.9947	7.9982	0.	125.92
645	3.992	7.9906	0.	124.78
646	5.4915	7.9832	0.	125.25
647	4.4645	-4.4655	0.	127.96
648	-4.004	-0.99103	0.	133.62
649	-6.6844	1.7544	0.	121.23
650	-2.968	-6.5446	0.	128.18
651	-7.4665	-2.4548	0.	124.23
652	6.9862e-002	-2.4866	0.	125.45
653	3.6936	-0.28353	0.	133.44
654	4.606	-1.8009	0.	126.08
655	-3.4897	-8.0028	0.	128.93
656	-4.9908	-7.9874	0.	129.88
657	-4.3305	-5.6856	0.	137.53
658	0.99316	6.9997	0.	127.32
659	0.96328	4.5077	0.	128.99
660	-2.0006	5.4997	0.	126.09
661	-4.0023	3.9951	0.	132.12
662	7.4817	5.9861	0.	119.61
663	-0.42545	-2.9458	0.	129.74
664	7.6858	0.70097	0.	120.25
665	7.6653	1.0977	0.	120.43
666	5.6413	0.87604	0.	125.09
667	4.7048	1.7032	0.	117.26
668	3.3134	1.6068	0.	131.88
669	6.3165	3.3911	0.	124.46
670	-7.1696	-1.0015	0.	114.24
671	-7.9479	-4.8962	0.	128.04
672	-7.9393	-4.3981	0.	129.
673	-7.9905	-3.9029	0.	128.81
674	-8.0033	-3.3959	0.	129.05
675	-7.9939	-2.871	0.	127.88
676	-0.50281	-0.99086	0.	118.67
677	-2.9745	1.4958	0.	128.83
678	-2.9928	2.9996	0.	132.25
679	-7.0016	3.4375	0.	121.21
680	1.4337	-6.0569	0.	124.74
681	-0.84387	-4.6532	0.	119.2
682	-0.95472	-5.0846	0.	117.85
683	-0.99225	-1.9591	0.	118.06
684	-7.1271	1.8857	0.	114.41
685	-4.1468	-3.3689	0.	135.43
686	-0.50675	-2.5123	0.	125.4
687	-1.0567	-2.4285	0.	122.38
688	-7.8768	-6.4172	0.	133.59
689	-4.9316	-7.0109	0.	127.11
690	-5.7489	-5.9225	0.	115.62
691	6.1506	-2.068	0.	127.31
692	5.6172	-7.5757e-002	0.	120.23
693	1.8019	-5.2766	0.	133.12
694	2.2145	-5.1871	0.	137.81
695	2.4204	-4.2123	0.	131.17
696	-0.33068	-4.6608	0.	121.72
697	-0.41382	-5.1033	0.	122.42
698	-7.0699	2.3916	0.	120.66
699	-7.011	2.9101	0.	121.8
700	0.96661	-6.0626	0.	125.05
701	-1.419e-002	-0.98973	0.	123.46
702	0.46471	-0.97688	0.	128.18
703	0.93726	3.4427e-002	0.	131.44
704	0.96504	2.0243	0.	131.35
705	0.97152	2.5175	0.	132.15
706	-2.9917	-0.51449	0.	127.91
707	-2.5002	-0.93394	0.	114.86
708	-1.9989	3.0002	0.	125.17
709	-2.4963	3.0001	0.	130.68
710	-2.9856	2.4989	0.	132.48
711	-2.9787	1.9975	0.	130.84
712	-0.99757	-0.98897	0.	118.41
713	-7.6051	-1.1102	0.	119.89
714	-7.5883	1.9785	0.	119.97
715	-8.0635	2.0196	0.	124.2
716	6.5449	2.4147	0.	123.51
717	6.4639	2.9092	0.	123.05
718	3.3597	2.0837	0.	131.8
719	3.7771	1.6297	0.	131.08
720	4.2441	1.6599	0.	125.18
721	6.66	0.94928	0.	122.92
722	6.1438	0.91612	0.	129.98
723	5.6334	0.39837	0.	122.34
724	7.0758	-2.0797	0.	109.39
725	7.5484	-2.0487	0.	112.15
726	8.1108	0.62216	0.	130.21
727	-0.59067	-3.7983	0.	124.35
728	-0.50443	-3.3713	0.	129.14
729	-2.9028	-2.5931	0.	134.29
730	-3.6069	-3.325	0.	137.89
731	5.9799	6.9612	0.	126.54
732	6.4619	5.9437	0.	126.19
733	6.9726	5.9704	0.	122.66
734	-5.0059	3.9811	0.	127.04
735	-4.5033	3.9894	0.	131.48
736	-4.0036	4.496	0.	131.85
737	-4.0023	4.997	0.	129.89
738	-4.0006	5.9989	0.	129.29
739	-4.5001	6.9998	0.	129.32
740	-1.0008	7.	0.	119.59
741	-1.5005	6.9999	0.	124.83
742	-2.0005	6.4997	0.	127.35
743	-2.0005	5.9997	0.	126.84
744	-2.0004	4.	0.	126.07
745	-1.9999	3.5002	0.	126.08
746	-1.0035	3.0003	0.	111.01
747	0.96373	3.5103	0.	131.54
748	0.96118	4.0086	0.	130.2
749	0.98919	6.5	0.	128.39
750	0.49554	7.0002	0.	125.52
751	-2.6849e-003	7.0002	0.	120.06
752	4.0449	-5.5106	0.	133.46
753	4.0406	-6.0066	0.	132.34
754	4.0032	-6.9982	0.	130.92
755	4.4997	-7.9994	0.	130.11
756	7.	-8.	0.	120.68
757	7.5	-8.	0.	125.27
758	8.	-7.5	0.	127.39
759	8.	-7.	0.	125.69
760	-7.926	-5.9042	0.	138.25
761	-4.7352	-5.7123	0.	140.46
762	-4.3644	-5.2445	0.	133.32
763	-4.4287	-4.7976	0.	131.77
764	5.012	-2.5032	0.	118.5
765	-7.4337	-7.6178	0.	129.07
766	-5.4669	-7.9918	0.	127.49
767	4.6293	-0.19481	0.	119.68
768	4.1641	-0.24682	0.	131.38
769	1.7481	-3.2395	0.	130.17
770	1.4471	-2.7965	0.	123.44
771	-0.1305	-3.7954	0.	124.85
772	-7.5087	-3.4018	0.	128.24
773	-5.5943	-3.3195	0.	124.94
774	-5.5806	-2.8796	0.	124.25
775	-6.9923	-2.4431	0.	120.79
776	-6.0416	-2.4282	0.	119.2
777	-6.5146	-2.449	0.	117.98
778	-2.9715	-6.0761	0.	129.22
779	-2.9993	-5.6206	0.	131.75
780	3.845	4.4415	0.	129.4
781	5.3825	4.7587	0.	122.
782	-5.8031	1.5292	0.	131.06
783	-6.2511	1.6134	0.	128.29
784	-6.3039	-0.51348	0.	127.96
785	-5.378	1.0033	0.	127.01
786	-5.4064	1.4022e-002	0.	127.35
787	-5.403	0.50968	0.	126.14
788	-2.9852	-1.0463	0.	130.51
789	-3.5045	-1.007	0.	135.46
790	-3.2282	-2.8246	0.	140.5
791	-4.0361	-1.4737	0.	133.07
792	-4.1159	-2.4213	0.	133.45
793	-0.81596	-2.9287	0.	130.25
794	-1.2295	-2.8763	0.	127.77
795	4.974	-4.4692	0.	126.23
796	8.	-6.5	0.	123.88
797	-5.5	7.	0.	123.
798	5.9928	7.984	0.	126.7
799	8.0263	-2.0127	0.	123.66
800	-8.4592	-7.9948	0.	129.57
801	-8.4185	-7.4849	0.	128.88
802	-8.3711	-6.9721	0.	129.16
803	-8.4028	-6.457	0.	131.4
804	-8.4609	-5.4362	0.	130.76
805	-8.4628	-4.9305	0.	128.7
806	-8.4689	-4.4296	0.	127.87
807	-8.4875	-3.9245	0.	128.37
808	-8.4951	-3.4104	0.	128.68
809	-8.4913	-2.8882	0.	128.54
810	-8.4896	-2.363	0.	128.03
811	-8.5151	-1.842	0.	128.02
812	-8.5364	-1.3324	0.	129.33
813	-8.5455	-0.83557	0.	131.54
814	-8.55	-0.34884	0.	130.65
815	-8.5541	0.13017	0.	127.08
816	-8.5599	1.0756	0.	127.03
817	-8.5575	1.5496	0.	128.04
818	-8.5445	2.0281	0.	124.38
819	-2.9926	-8.0009	0.	129.55
820	8.	-8.5	0.	126.24
821	7.	-8.5	0.	120.85
822	6.5	-8.5	0.	118.28
823	6.	-8.5	0.	117.93
824	5.5	-8.5	0.	120.28
825	4.9999	-8.4998	0.	124.3
826	3.9994	-8.4989	0.	129.99
827	3.4994	-8.4988	0.	130.64
828	2.9993	-8.5001	0.	130.69
829	2.4991	-8.5029	0.	130.54
830	1.9986	-8.5059	0.	130.43
831	1.4979	-8.5081	0.	130.51
832	0.99757	-8.5081	0.	131.
833	-2.9966	-8.499	0.	130.51
834	-3.4958	-8.4965	0.	129.99
835	-3.9948	-8.4933	0.	129.67
836	-4.4923	-8.4922	0.	129.37
837	-4.9876	-8.4919	0.	128.33
838	-5.4813	-8.4865	0.	125.47
839	-5.972	-8.4763	0.	117.95
840	-6.4708	-8.5301	0.	116.19
841	-6.9769	-8.5517	0.	122.12
842	-7.4794	-8.5418	0.	127.6
843	-7.9797	-8.518	0.	129.07
844	-8.4807	-8.5001	0.	129.65
845	7.99	5.995	0.	122.36
846	8.4956	5.9986	0.	126.82
847	8.4966	5.499	0.	125.32
848	8.498	4.9993	0.	124.9
849	8.4987	4.5	0.	124.73
850	8.4955	4.001	0.	124.56
851	8.493	3.5031	0.	124.4
852	8.4983	3.0072	0.	124.44
853	8.513	2.5129	0.	124.85
854	8.5336	2.0218	0.	125.8
855	8.5567	1.5332	0.	127.57
856	8.5704	1.0414	0.	130.27
857	8.5609	0.53866	0.	135.04
858	8.512	-1.365e-003	0.	131.36
859	8.5994	-0.50869	0.	128.69
860	8.5322	-0.98988	0.	131.25
861	8.5156	-1.4928	0.	131.8
862	8.5128	-2.0004	0.	131.75
863	8.5	-6.5	0.	127.68
864	8.5	-7.	0.	127.27
865	8.5	-7.5	0.	127.89
866	8.5	-8.	0.	128.07
867	8.5	-8.5	0.	127.71
868	-6.	8.5	0.	125.7
869	-5.5	8.5	0.	123.65
870	-5.	8.5	0.	123.57
871	-4.5	8.5	0.	124.42
872	-4.	8.5	0.	125.25
873	-3.5	8.5	0.	125.72
874	-3.0001	8.5	0.	125.8
875	-2.5001	8.5	0.	125.53
876	-2.0002	8.5	0.	124.96
877	-1.5004	8.5	0.	124.15
878	-1.0006	8.5	0.	123.39
879	-1.2972e-003	8.5001	0.	123.41
880	0.4982	8.5001	0.	124.16
881	1.4969	8.4996	0.	125.36
882	1.9963	8.499	0.	125.51
883	2.4959	8.4981	0.	125.46
884	2.9957	8.4971	0.	125.28
885	3.4956	8.4959	0.	125.07
886	3.9955	8.4945	0.	124.9
887	4.4952	8.4928	0.	124.88
888	4.9955	8.4923	0.	125.16
889	5.4956	8.4908	0.	125.98
890	5.9957	8.4902	0.	127.7
891	-7.9995	4.9968	0.	120.08
892	-7.0021	3.9631	0.	123.33
893	4.5009	-4.9859	0.	130.69
894	8.5	-6.	0.	130.49
895	-8.4997	4.9986	0.	117.2
896	-8.4998	5.9991	0.	117.95
897	-6.	7.5	0.	124.49
898	-7.9997	5.4979	0.	117.32
899	3.6843	-0.77398	0.	131.61
900	0.64954	-2.5597	0.	122.85
901	-3.6408	-2.4177	0.	134.44
902	-3.5546	-1.97	0.	130.75
903	-5.9066	0.51474	0.	123.26
904	4.8235	4.3334	0.	117.07
905	-2.035	-5.5054	0.	113.92
906	-6.0477	-2.9062	0.	115.59
907	-6.9996	-2.9536	0.	123.78
908	1.036	-2.997	0.	114.91
909	0.71084	-3.255	0.	123.35
910	4.14	-0.74742	0.	143.
911	3.6784	-1.2697	0.	130.19
912	-5.9403	-7.9042	0.	121.22
913	-6.4712	-8.0837	0.	108.74
914	-7.9999	5.9989	0.	117.4
915	-6.	7.	0.	123.54
916	-8.9998	5.9995	0.	124.06
917	8.5078	-2.5027	0.	134.84
918	8.5	-5.5	0.	136.05
919	8.	-6.	0.	125.86
920	4.9941	-4.9817	0.	127.68
921	5.5112	-2.453	0.	132.68
922	-4.8091	-5.3231	0.	145.36
923	-7.4076	-5.8435	0.	147.87
924	7.5	-7.5	0.	128.11
925	4.5004	-7.4998	0.	133.98
926	4.5199	-5.4972	0.	135.77
927	0.4936	6.5004	0.	129.15
928	0.47833	3.5037	0.	130.24
929	-1.5008	3.5003	0.	123.4
930	-1.5005	6.4998	0.	128.04
931	-4.5001	6.4997	0.	133.79
932	-4.5046	4.4931	0.	134.79
933	8.4999	8.5	0.	130.8
934	8.4964	6.4984	0.	130.7
935	6.4756	6.4613	0.	129.48
936	6.4965	8.4929	0.	130.42
937	-3.0259	-3.2431	0.	142.25
938	-0.93108	-3.357	0.	136.14
939	6.1434	0.43327	0.	137.26
940	-8.0814	1.5549	0.	134.21
941	-8.0678	-0.74371	0.	132.26
942	-1.5004	-0.99981	0.	124.86
943	-2.4926	2.4999	0.	133.73
944	-2.4973	-0.49033	0.	124.2
945	0.48147	2.5076	0.	131.71
946	0.46132	-0.47884	0.	133.17
947	-2.5285	-5.5575	0.	125.16
948	0.50837	-5.6177	0.	133.12
949	-2.498	-8.4991	0.	131.23
950	0.49841	-8.504	0.	131.72
951	-8.9999	4.9995	0.	122.61
952	-7.4994	4.4882	0.	133.51
953	-6.	9.	0.	126.1
954	-5.5	9.	0.	124.3
955	-5.	9.	0.	124.29
956	-4.5	9.	0.	124.78
957	-4.	9.	0.	125.27
958	-3.5	9.	0.	125.55
959	-3.	9.	0.	125.56
960	-2.5001	9.	0.	125.35
961	-2.0001	9.	0.	124.95
962	-1.5002	9.	0.	124.46
963	-1.0004	9.	0.	124.03
964	-0.5006	9.0001	0.	123.85
965	0.49876	9.0001	0.	124.36
966	0.99834	9.	0.	124.77
967	1.4979	8.9998	0.	125.08
968	1.9976	8.9994	0.	125.24
969	2.4974	8.999	0.	125.28
970	2.9974	8.9984	0.	125.23
971	3.4974	8.9977	0.	125.16
972	3.9975	8.9969	0.	125.1
973	4.4975	8.996	0.	125.14
974	4.9974	8.995	0.	125.4
975	5.4977	8.9949	0.	126.
976	5.9977	8.9949	0.	126.94
977	6.4978	8.9955	0.	126.69
978	6.9984	8.9978	0.	122.99
979	7.4991	8.9992	0.	120.28
980	7.9996	8.9998	0.	123.06
981	8.9999	9.	0.	126.95
982	8.9999	8.5	0.	128.08
983	8.9999	7.9999	0.	127.5
984	8.9996	7.4997	0.	126.3
985	8.999	6.9994	0.	127.77
986	8.998	5.9995	0.	127.79
987	8.9983	5.4996	0.	126.62
988	8.9987	4.9997	0.	125.98
989	8.9982	4.5002	0.	125.68
990	8.9979	3.5019	0.	125.56
991	9.0013	3.0046	0.	125.79
992	9.0097	2.5086	0.	126.35
993	9.022	2.0138	0.	127.34
994	9.0349	1.5185	0.	128.8
995	9.0407	1.0188	0.	130.65
996	9.0333	0.51335	0.	131.04
997	9.0241	6.933e-003	0.	128.58
998	9.0244	-0.99929	0.	130.71
999	9.0114	-1.4985	0.	132.63
1000	9.0067	-1.9995	0.	133.73
1001	9.0039	-2.5005	0.	134.25
1002	9.0014	-3.0006	0.	133.73
1003	9.0003	-3.5003	0.	133.09
1004	9.0001	-4.0001	0.	133.67
1005	9.	-4.5	0.	133.34
1006	9.	-5.	0.	133.96
1007	9.	-5.5	0.	133.77
1008	9.	-6.	0.	131.89
1009	9.	-7.	0.	129.08
1010	9.	-7.5	0.	129.02
1011	9.	-8.	0.	129.04
1012	9.	-8.5	0.	128.88
1013	9.	-9.	0.	128.62
1014	8.5	-9.	0.	127.23
1015	8.	-9.	0.	125.52
1016	7.5	-9.	0.	123.39
1017	7.	-9.	0.	121.11
1018	6.5	-9.	0.	119.5
1019	6.	-9.	0.	119.41
1020	5.5	-8.9999	0.	121.11
1021	4.9999	-8.9998	0.	123.96
1022	4.4998	-8.9996	0.	126.89
1023	3.9997	-8.9994	0.	129.05
1024	3.4998	-8.9996	0.	130.3
1025	2.9998	-9.0004	0.	130.9
1026	2.4998	-9.0018	0.	131.13
1027	1.9995	-9.0034	0.	131.17
1028	1.4991	-9.0046	0.	131.01
1029	0.99902	-9.004	0.	130.45
1030	-1.5001	-8.9998	0.	114.76
1031	-1.9998	-8.9995	0.	121.21
1032	-2.4992	-8.9991	0.	127.48
1033	-2.9983	-8.9989	0.	129.92
1034	-3.498	-8.9964	0.	130.25
1035	-3.9964	-8.9967	0.	129.93
1036	-4.495	-8.995	0.	129.
1037	-4.9925	-8.9943	0.	127.14
1038	-5.4889	-8.993	0.	123.79
1039	-5.9843	-8.9954	0.	120.08
1040	-6.4822	-9.014	0.	119.01
1041	-6.9851	-9.0262	0.	122.04
1042	-7.4887	-9.023	0.	125.62
1043	-7.9904	-9.0117	0.	127.96
1044	-8.4914	-9.0014	0.	129.22
1045	-8.9931	-8.9964	0.	130.08
1046	-8.9845	-8.4935	0.	130.03
1047	-8.9691	-7.9892	0.	129.72
1048	-8.9465	-7.4839	0.	129.29
1049	-8.9285	-6.9794	0.	129.26
1050	-8.938	-6.4747	0.	129.78
1051	-8.9557	-5.9682	0.	129.9
1052	-8.9693	-5.4623	0.	129.09
1053	-8.9768	-4.9588	0.	127.98
1054	-8.9824	-4.4552	0.	127.66
1055	-8.9897	-3.9485	0.	127.99
1056	-8.9929	-3.4376	0.	128.5
1057	-8.9933	-2.9247	0.	128.79
1058	-8.9961	-2.4135	0.	128.92
1059	-9.0081	-1.9055	0.	129.19
1060	-9.0206	-1.401	0.	129.75
1061	-9.0283	-0.9032	0.	130.09
1062	-9.0331	-0.41035	0.	129.29
1063	-9.0367	7.8313e-002	0.	127.15
1064	-9.0393	0.56429	0.	125.99
1065	-9.04	1.0494	0.	126.65
1066	-9.0372	1.5353	0.	127.66
1067	-9.0287	2.0227	0.	127.16
1068	-7.5497	2.4621	0.	124.79
1069	0.11979	-5.1269	0.	140.09
1070	2.1114	-4.7481	0.	141.35
1071	6.0531	-0.60756	0.	137.97
1072	-7.3627	-6.314	0.	142.84
1073	-6.9669	-7.6554	0.	131.24
1074	-7.2943	-6.7624	0.	119.78
1075	-7.2361	-7.2024	0.	132.89
1076	-6.8417	-6.2479	0.	118.71
1077	-5.7955	-6.3513	0.	123.32
1078	-6.3139	-6.2908	0.	90.932
1079	-5.4017	-6.9434	0.	116.75
1080	-5.5758	-7.4762	0.	135.82
1081	5.0752	-2.1327	0.	107.75
1082	4.1178	-1.2644	0.	124.21
1083	4.5942	-0.69399	0.	127.3
1084	5.5649	-0.53741	0.	119.91
1085	5.0694	-0.60185	0.	102.78
1086	5.7078	-1.994	0.	141.53
1087	5.8284	-1.5337	0.	133.79
1088	5.9228	-1.0673	0.	127.25
1089	1.3249	-3.4172	0.	119.22
1090	1.9747	-4.2784	0.	125.61
1091	1.7375	-3.7813	0.	143.68
1092	1.6823	-4.8785	0.	140.56
1093	0.16807	-4.6683	0.	122.64
1094	0.35906	-3.7669	0.	131.79
1095	0.27263	-4.2079	0.	132.21
1096	-8.0349	2.5015	0.	122.19
1097	-9.0158	2.5115	0.	127.56
1098	-8.5239	2.5123	0.	115.48
1099	-7.9993	4.4962	0.	123.59
1100	-8.4998	4.499	0.	112.91
1101	-8.9999	4.4997	0.	124.82
1102	-7.5132	2.9616	0.	126.
1103	-7.5016	3.4697	0.	127.18
1104	-7.5	3.9795	0.	129.09
1105	-8.9325e-004	-8.5012	0.	123.35
1106	-0.5003	-8.5002	0.	111.95
1107	-1.0001	-8.5	0.	111.5
1108	-1.9991	-8.4997	0.	122.95
1109	-1.4998	-8.4999	0.	111.66
1110	3.842e-002	-5.5687	0.	133.87
1111	-0.46794	-5.5506	0.	119.05
1112	-0.98947	-5.5365	0.	117.33
1113	-1.5174	-5.5169	0.	113.16
1114	0.46792	1.6522e-002	0.	132.64
1115	0.4714	0.51466	0.	134.85
1116	0.47389	1.0146	0.	136.
1117	0.47859	1.5122	0.	134.
1118	0.48147	2.0107	0.	131.3
1119	-1.8031e-002	-0.49124	0.	125.08
1120	-0.50675	-0.49439	0.	115.03
1121	-1.0031	-0.49621	0.	115.53
1122	-1.5037	-0.50287	0.	113.42
1123	-1.0528e-002	2.5025	0.	121.39
1124	-0.50493	2.5004	0.	109.61
1125	-1.0022	2.5	0.	110.57
1126	-1.5001	2.5	0.	112.75
1127	-1.997	2.5001	0.	125.
1128	-2.4932	-1.1092e-003	0.	126.09
1129	-2.49	0.49705	0.	130.49
1130	-2.4882	0.9973	0.	133.09
1131	-2.4899	1.9992	0.	131.88
1132	-2.4876	1.4981	0.	132.58
1133	-6.5	9.	0.	129.68
1134	-6.5	8.5	0.	133.27
1135	-6.5	7.	0.	127.81
1136	-6.5	7.5	0.	131.98
1137	-6.5	8.	0.	134.39
1138	-8.9999	6.4997	0.	127.14
1139	-8.4999	6.4995	0.	117.31
1140	-8.	6.4995	0.	119.12
1141	-7.5	6.4996	0.	122.61
1142	0.48926	-6.0604	0.	129.57
1143	0.49717	-8.0073	0.	130.89
1144	0.49443	-7.5128	0.	132.57
1145	0.49078	-7.0198	0.	134.11
1146	0.48653	-6.5328	0.	133.
1147	-2.496	-8.0007	0.	130.09
1148	-2.4924	-7.5046	0.	131.68
1149	-2.4924	-6.0382	0.	125.6
1150	-2.485	-6.5229	0.	130.48
1151	-2.4875	-7.0125	0.	132.63
1152	8.5023	-3.0016	0.	134.25
1153	8.5004	-3.5005	0.	136.85
1154	8.5001	-4.0002	0.	139.
1155	8.5	-5.	0.	135.97
1156	8.5	-4.5	0.	137.74
1157	8.	-5.5	0.	129.27
1158	7.5	-5.5	0.	119.78
1159	6.046	-2.5213	0.	129.85
1160	8.0168	-2.5101	0.	125.38
1161	7.527	-2.5252	0.	111.52
1162	7.0377	-2.5389	0.	111.76
1163	6.5467	-2.542	0.	114.66
1164	5.5106	-2.9769	0.	127.35
1165	5.5012	-3.4828	0.	129.3
1166	5.488	-3.9844	0.	130.22
1167	5.488	-4.4854	0.	128.13
1168	5.4949	-4.9892	0.	124.54
1169	-5.2483	-5.448	0.	136.47
1170	-5.7174	-5.5067	0.	110.81
1171	-6.1973	-5.5481	0.	105.45
1172	-6.8479	-5.7584	0.	105.11
1173	-6.2879	-5.8752	0.	100.09
1174	-7.4804	-5.3669	0.	133.18
1175	-7.4361	-4.8691	0.	137.75
1176	-7.0022	-3.447	0.	129.91
1177	-7.0808	-3.9042	0.	124.27
1178	-7.3575	-4.3395	0.	130.96
1179	-6.0139	-3.3454	0.	117.42
1180	-4.8807	-4.8836	0.	125.27
1181	-5.0748	-4.4497	0.	144.27
1182	-5.3277	-3.9777	0.	126.78
1183	-5.7658	-3.6871	0.	119.76
1184	7.	-7.5	0.	121.2
1185	6.5	-7.5	0.	113.34
1186	6.0001	-7.5	0.	115.3
1187	5.0003	-7.5	0.	127.32
1188	5.5001	-7.5	0.	116.4
1189	4.5031	-7.0008	0.	132.67
1190	4.5187	-6.0015	0.	135.26
1191	5.5001	-5.4947	0.	122.76
1192	5.9994	-5.4986	0.	117.71
1193	7.	-5.5	0.	114.94
1194	6.4999	-5.4998	0.	107.46
1195	7.5	-6.	0.	122.09
1196	7.5	-7.	0.	125.89
1197	7.5	-6.5	0.	123.71
1198	0.49185	6.0007	0.	128.56
1199	0.4885	5.5013	0.	131.25
1200	0.48497	5.0025	0.	132.69
1201	0.48023	4.0034	0.	129.56
1202	0.48196	4.5036	0.	130.92
1203	-1.1118e-002	3.5011	0.	117.36
1204	-1.0029	3.5004	0.	114.47
1205	-0.50535	3.5006	0.	104.52
1206	-1.5004	4.0002	0.	124.46
1207	-1.5003	4.5	0.	128.06
1208	-1.5003	4.9999	0.	130.19
1209	-1.5003	5.9998	0.	127.21
1210	-1.5003	5.4999	0.	129.1
1211	-1.0008	6.4999	0.	119.58
1212	-3.3656e-003	6.5003	0.	120.39
1213	-0.50158	6.5	0.	108.35
1214	-7.4994	4.9945	0.	127.93
1215	-7.5	5.999	0.	123.08
1216	-7.4999	5.4977	0.	124.72
1217	-7.	6.4999	0.	130.04
1218	-6.5	6.5	0.	126.02
1219	-6.	6.5	0.	123.84
1220	-5.0001	6.4999	0.	128.95
1221	-5.5	6.5	0.	121.26
1222	-4.5003	5.9993	0.	132.76
1223	-4.5019	4.9963	0.	133.14
1224	-4.5007	5.4984	0.	132.54
1225	-5.0053	4.4902	0.	128.54
1226	-5.5055	4.4869	0.	119.48
1227	-6.5037	4.4809	0.	118.05
1228	-6.0048	4.4838	0.	119.35
1229	8.4999	7.9999	0.	130.11
1230	8.4988	6.9991	0.	130.22
1231	8.4997	7.4997	0.	130.02
1232	7.993	6.4959	0.	123.05
1233	6.9831	6.4808	0.	123.56
1234	7.488	6.4902	0.	113.11
1235	6.4874	6.9749	0.	129.13
1236	6.4956	7.989	0.	129.41
1237	6.493	7.4839	0.	129.09
1238	7.9997	8.4999	0.	124.
1239	7.4993	8.4994	0.	113.5
1240	6.9981	8.4976	0.	123.82
1241	-2.4653	-3.4228	0.	93.718
1242	-1.3742	-3.3349	0.	127.94
1243	-1.8888	-3.2945	0.	102.6
1244	-2.626	-5.0879	0.	129.46
1245	-3.0997	-3.75	0.	123.8
1246	-3.0013	-4.2157	0.	138.9
1247	-2.826	-4.6535	0.	127.95
1248	-1.0222	-3.7971	0.	118.71
1249	-1.1792	-4.2187	0.	132.76
1250	-1.542	-5.0463	0.	117.69
1251	-1.3604	-4.631	0.	118.41
1252	8.2338	-0.43436	0.	126.87
1253	7.5629	-1.5767	0.	113.72
1254	7.5346	-1.1476	0.	111.45
1255	6.6455	0.49072	0.	129.55
1256	7.1354	0.44989	0.	108.1
1257	8.0499	0.18768	0.	141.81
1258	7.5948	0.31878	0.	111.87
1259	6.2998	-1.2032	0.	126.37
1260	6.164	-7.9271e-002	0.	125.02
1261	6.4428	-0.42673	0.	139.24
1262	4.0165	3.0013	0.	135.57
1263	4.1615	3.4408	0.	130.14
1264	4.273	2.1197	0.	128.09
1265	4.7243	2.1628	0.	111.28
1266	5.1756	2.213	0.	113.13
1267	5.6274	2.2668	0.	129.31
1268	5.3017	4.1624	0.	121.62
1269	5.5789	3.6823	0.	127.39
1270	6.0037	2.8076	0.	118.37
1271	5.8202	3.2476	0.	135.48
1272	-8.0737	0.65312	0.	129.97
1273	-8.0701	0.19656	0.	128.39
1274	-8.0671	-0.26682	0.	134.26
1275	-7.6136	1.526	0.	116.74
1276	-6.3299	1.0718	0.	132.01
1277	-6.7533	1.2335	0.	121.47
1278	-7.5962	-0.6213	0.	114.67
1279	-7.1203	-0.46357	0.	110.24
1280	-6.7398	-0.1471	0.	119.31
1281	-6.3356	-2.4337e-002	0.	132.82
1282	-1.4799	-1.9354	0.	121.17
1283	-1.6654	-2.823	0.	127.35
1284	-1.5379	-2.3752	0.	120.26
1285	-3.1064	-1.5335	0.	137.23
1286	-2.0229	-1.0459	0.	109.99
1287	-2.3972	-1.3156	0.	108.71
1288	-2.7473	-1.4561	0.	122.46
1289	9.5	9.	0.	125.75
1290	9.4999	8.5	0.	125.96
1291	9.4999	7.9999	0.	125.65
1292	9.4997	7.4998	0.	125.63
1293	9.4995	6.9997	0.	126.21
1294	9.4992	6.4997	0.	127.03
1295	9.4992	5.9998	0.	127.26
1296	9.4993	5.4999	0.	127.05
1297	9.4994	4.9999	0.	126.73
1298	9.4994	4.5	0.	126.49
1299	9.4993	4.0003	0.	126.39
1300	9.4996	3.501	0.	126.5
1301	9.5014	3.0025	0.	126.87
1302	9.5053	2.5045	0.	127.49
1303	9.511	2.0068	0.	128.3
1304	9.5163	1.5085	0.	129.13
1305	9.5184	1.0076	0.	129.58
1306	9.5159	0.50549	0.	129.28
1307	9.5139	3.5981e-003	0.	128.38
1308	9.5164	-0.49827	0.	128.44
1309	9.5117	-0.99991	0.	130.13
1310	9.5062	-1.5001	0.	131.96
1311	9.5033	-2.0001	0.	133.06
1312	9.5018	-2.5002	0.	133.23
1313	9.5008	-3.0002	0.	132.54
1314	9.5002	-3.5001	0.	131.8
1315	9.5001	-4.0001	0.	131.38
1316	9.5	-4.5	0.	131.46
1317	9.5	-5.	0.	131.8
1318	9.5	-5.5	0.	132.06
1319	9.5	-6.	0.	131.64
1320	9.5	-6.5	0.	130.92
1321	9.5	-7.	0.	130.38
1322	9.5	-7.5	0.	130.15
1323	9.5	-8.	0.	130.04
1324	9.5	-8.5	0.	129.94
1325	9.5	-9.	0.	129.82
1326	9.5	-9.5	0.	129.72
1327	9.	-9.5	0.	128.42
1328	8.5	-9.5	0.	126.9
1329	8.	-9.5	0.	125.13
1330	7.5	-9.5	0.	123.17
1331	7.	-9.5	0.	121.35
1332	6.5	-9.5	0.	120.2
1333	6.	-9.5	0.	120.24
1334	5.5	-9.5	0.	121.59
1335	4.9999	-9.4999	0.	123.88
1336	4.4999	-9.4998	0.	126.4
1337	3.9999	-9.4998	0.	128.55
1338	3.5	-9.4999	0.	130.06
1339	3.	-9.5003	0.	130.98
1340	2.5	-9.5009	0.	131.43
1341	1.9998	-9.5016	0.	131.47
1342	1.4997	-9.5021	0.	130.95
1343	0.9996	-9.5017	0.	129.39
1344	0.49963	-9.501	0.	126.
1345	-2.6609e-004	-9.5004	0.	120.95
1346	-0.50019	-9.5001	0.	116.12
1347	-1.0002	-9.5	0.	114.12
1348	-1.5001	-9.4999	0.	115.99
1349	-2.	-9.4997	0.	120.69
1350	-2.4999	-9.4994	0.	125.61
1351	-2.9997	-9.4989	0.	128.79
1352	-3.4991	-9.4982	0.	129.97
1353	-3.9982	-9.4986	0.	129.79
1354	-4.4974	-9.4978	0.	128.58
1355	-4.9963	-9.4974	0.	126.42
1356	-5.4945	-9.4974	0.	123.59
1357	-5.9923	-9.4993	0.	121.12
1358	-6.4917	-9.5063	0.	120.55
1359	-6.9927	-9.5111	0.	122.16
1360	-7.4949	-9.5101	0.	124.81
1361	-7.9962	-9.5056	0.	127.13
1362	-8.9975	-9.4986	0.	130.01
1363	-9.4985	-9.4985	0.	131.21
1364	-9.4959	-8.9968	0.	130.99
1365	-9.4913	-8.4948	0.	130.59
1366	-9.4836	-7.9926	0.	130.01
1367	-9.4734	-7.4907	0.	129.39
1368	-9.4672	-6.9894	0.	128.9
1369	-9.4702	-6.4881	0.	128.53
1370	-9.4776	-5.986	0.	128.11
1371	-9.4841	-5.4834	0.	127.53
1372	-9.4883	-4.9809	0.	127.07
1373	-9.4913	-4.4779	0.	127.04
1374	-9.4937	-3.9735	0.	127.51
1375	-9.4955	-3.468	0.	128.25
1376	-9.4963	-2.9634	0.	128.98
1377	-9.4985	-2.4593	0.	129.55
1378	-9.5036	-1.9562	0.	129.9
1379	-9.5094	-1.4548	0.	129.95
1380	-9.5136	-0.95555	0.	129.52
1381	-9.5166	-0.45854	0.	128.42
1382	-9.5187	3.6664e-002	0.	127.11
1383	-9.52	0.53074	0.	126.59
1384	-9.5202	1.0244	0.	127.5
1385	-9.5185	1.5183	0.	129.23
1386	-9.5144	2.0127	0.	131.33
1387	-9.5082	2.5075	0.	135.07
1388	-9.502	3.0033	0.	135.4
1389	-9.5002	3.501	0.	135.64
1390	-9.5	4.0003	0.	134.72
1391	-9.5	4.5	0.	134.15
1392	-9.5	4.9999	0.	130.49
1393	-9.4999	5.4998	0.	129.96
1394	-9.4999	5.9998	0.	131.36
1395	-9.4999	6.4999	0.	135.44
1396	-9.5	6.9999	0.	135.9
1397	-9.5	7.5	0.	137.46
1398	-9.5	8.	0.	138.37
1399	-9.5	8.5	0.	135.9
1400	-9.5	9.	0.	131.14
1401	-9.5	9.5	0.	128.83
1402	-9.	9.5	0.	126.6
1403	-8.5	9.5	0.	119.37
1404	-8.	9.5	0.	120.57
1405	-7.5	9.5	0.	119.37
1406	-7.	9.5	0.	126.84
1407	-6.5	9.5	0.	129.35
1408	-6.	9.5	0.	126.53
1409	-5.5	9.5	0.	125.88
1410	-5.	9.5	0.	125.77
1411	-4.5	9.5	0.	125.81
1412	-4.	9.5	0.	125.84
1413	-3.5	9.5	0.	125.79
1414	-3.	9.5	0.	125.62
1415	-2.5	9.5	0.	125.35
1416	-2.0001	9.5	0.	125.01
1417	-1.5001	9.5	0.	124.65
1418	-1.0002	9.5	0.	124.36
1419	-0.5003	9.5	0.	124.22
1420	-4.3993e-004	9.5001	0.	124.26
1421	0.49937	9.5001	0.	124.44
1422	0.99917	9.5	0.	124.68
1423	1.499	9.4999	0.	124.92
1424	1.9988	9.4997	0.	125.1
1425	2.4988	9.4995	0.	125.23
1426	3.4988	9.4989	0.	125.34
1427	3.9989	9.4986	0.	125.37
1428	4.4989	9.4982	0.	125.41
1429	4.9989	9.4978	0.	125.48
1430	5.4988	9.4973	0.	125.58
1431	5.9989	9.4977	0.	125.54
1432	6.4989	9.4977	0.	124.88
1433	6.999	9.4986	0.	123.54
1434	7.4993	9.4994	0.	122.72
1435	7.9996	9.4998	0.	123.49
1436	8.9999	9.5	0.	125.29
1437	9.5	9.5	0.	125.2
1438	-3.2149	-2.4266	0.	136.7
1439	-2.6411	-2.8549	0.	115.45
1440	-2.2745	-3.0426	0.	92.039
1441	0.33412	-3.3718	0.	132.61
1442	-8.9395e-004	9.0001	0.	123.99
1443	-0.50092	8.5001	0.	123.08
1444	2.9547	5.987	0.	126.74
1445	4.2191	1.1934	0.	124.64
1446	3.0428	3.0523	0.	128.34
1447	3.2298	-1.735	0.	131.42
1448	1.9896	-7.5171	0.	128.08
1449	-2.501	4.4996	0.	126.61
1450	-3.0644	-5.1782	0.	131.91
1451	0.95119	-1.4416	0.	127.07
1452	-3.5008	5.999	0.	127.39
1453	-3.9785	-0.50006	0.	131.58
1454	2.9929	7.9947	0.	125.43
1455	5.6401	1.8063	0.	124.51
1456	1.4336	1.5475	0.	130.15
1457	-4.4902	-7.9946	0.	128.9
1458	7.1005	-1.625	0.	103.46
1459	7.1235	1.4668	0.	120.16
1460	3.8207	2.0948	0.	136.06
1461	5.5001	-8.	0.	119.13
1462	-2.0006	4.4999	0.	125.77
1463	-8.0337	-1.7497	0.	125.28
1464	0.94119	0.53334	0.	130.81
1465	4.404	-3.8996	0.	126.95
1466	-0.50159	7.0001	0.	116.42
1467	-7.4843	-2.0323	0.	122.26
1468	-5.2041	-5.9304	0.	135.23
1469	2.4936	7.9966	0.	125.74
1470	-8.9998	5.4995	0.	122.81
1471	8.1129	1.0801	0.	126.85
1472	-8.5577	0.60454	0.	124.79
1473	1.9957	-8.0104	0.	129.28
1474	6.5931	1.9209	0.	125.24
1475	3.7762	3.9547	0.	130.24
1476	2.2806	-3.7629	0.	133.7
1477	-4.4134	1.9862	0.	128.58
1478	8.9974	4.001	0.	125.54
1479	-1.4689	-1.4796	0.	122.83
1480	6.2373	-1.6224	0.	124.82
1481	4.12	-1.7959	0.	142.83
1482	-3.459	0.99155	0.	127.
1483	3.9989	-7.9978	0.	131.3
1484	2.7739	-3.7072	0.	132.58
1485	4.3406	4.3899	0.	125.01
1486	-5.5	7.5	0.	123.26
1487	0.68826	-5.1786	0.	123.66
1488	-4.0685	-1.9503	0.	131.95
1489	-4.0001	6.9997	0.	129.32
1490	1.4462	3.5193	0.	131.13
1491	1.399	-0.9193	0.	129.66
1492	-2.9852	-7.5098	0.	128.32
1493	8.0807	1.5478	0.	124.58
1494	0.99757	8.4999	0.	124.9
1495	3.0876	-5.0752	0.	132.11
1496	0.9323	-0.45844	0.	131.58
1497	-3.5472	-1.4964	0.	137.14
1498	7.9892	4.0033	0.	123.77
1499	0.9676	-5.5864	0.	119.84
1500	6.	-8.	0.	115.84
1501	9.0416	-0.49715	0.	127.74
1502	4.5098	-6.5019	0.	133.49
1503	-5.5611	-2.4142	0.	124.13
1504	-6.9662	-8.0937	0.	126.78
1505	-6.5128	-2.9739	0.	115.13
1506	1.4768	-7.0337	0.	126.68
1507	-4.5	7.4999	0.	126.5
1508	3.4922	7.9924	0.	125.08
1509	-7.4965	-2.9182	0.	127.59
1510	-3.5004	-4.2627	0.	127.84
1511	-5.5058	3.9721	0.	121.79
1512	-7.9569	-5.4006	0.	134.37
1513	-4.8574	-6.5382	0.	130.07
1514	-4.9956	3.4704	0.	126.93
1515	8.4998	9.4999	0.	124.74
1516	-5.5715e-004	-9.001	0.	121.51
1517	-1.6335e-003	8.0001	0.	122.57
1518	6.9587	2.9909	0.	121.54
1519	-2.0004	6.9998	0.	126.71
1520	8.	-8.	0.	127.22
1521	0.49762	8.	0.	124.02
1522	-3.0015	4.999	0.	126.68
1523	-5.86	1.0241	0.	132.04
1524	3.4983	-7.9969	0.	130.85
1525	0.48635	-1.4815	0.	125.4
1526	2.3181	-0.39026	0.	130.23
1527	5.9684	6.4434	0.	127.15
1528	-6.0004	-1.9458	0.	121.95
1529	4.9235	5.3833	0.	123.09
1530	4.3879	4.9005	0.	123.67
1531	3.5827	-5.5215	0.	132.28
1532	-4.5672	-4.3503	0.	131.76
1533	3.9991	-7.4972	0.	131.88
1534	-1.3219e-002	3.0027	0.	118.18
1535	-1.5009	3.0003	0.	117.79
1536	3.3757	-4.1001	0.	130.06
1537	5.1367	0.35127	0.	117.27
1538	-7.7176e-002	-3.3714	0.	130.
1539	1.4195	-5.5289	0.	122.52
1540	5.9085	4.8445	0.	124.98
1541	0.98263	-7.0313	0.	128.13
1542	0.49675	7.5001	0.	124.18
1543	-3.5024	4.4979	0.	129.61
1544	-4.6726	-3.4052	0.	133.41
1545	4.9648	-3.959	0.	126.
1546	-8.4968	-9.5012	0.	128.78
1547	-0.22349	-4.2267	0.	119.56
1548	-7.5222	-3.8686	0.	128.65
1549	-1.0008	7.5	0.	121.2
1550	9.	-6.5	0.	129.88
1551	0.94708	1.0315	0.	131.16
1552	-2.9847	-8.5738e-003	0.	127.2
1553	-2.0015	-0.50964	0.	118.95
1554	-5.4805	-1.4575	0.	127.49
1555	-7.166	-1.4707	0.	118.4
1556	-4.1553	-3.8421	0.	132.34
1557	7.6027	1.5325	0.	120.96
1558	3.4502	5.9746	0.	126.13
1559	2.5474	-4.6692	0.	130.84
1560	3.4321	2.5595	0.	129.79
1561	3.8911	2.5554	0.	126.76
1562	-0.98457	-1.4775	0.	119.11
1563	-5.8689	-0.48739	0.	131.47
1564	-0.48622	-1.9933	0.	121.08
1565	6.086	3.8458	0.	127.88
1566	6.1143	1.8649	0.	128.47
1567	-3.4648	0.49106	0.	127.04
1568	-3.0007	3.9993	0.	129.46
1569	-6.0015	3.4565	0.	120.48
1570	4.4915	7.9878	0.	124.62
1571	7.9911	5.4958	0.	123.2
1572	-7.9019	-7.5153	0.	128.91
1573	-7.7809	-6.9734	0.	126.8
1574	3.2619e-002	-1.9995	0.	123.15
1575	5.	-7.9999	0.	125.08
1576	5.9512	5.9162	0.	126.16
1577	6.4945	-0.83854	0.	125.48
1578	-8.0624	-1.2364	0.	126.19
1579	4.4224	5.4164	0.	124.11
1580	2.827	4.0349	0.	129.43
1581	-7.9563	-8.0235	0.	129.63
1582	1.1784	-2.3762	0.	122.68
1583	0.96936	5.0062	0.	128.93
1584	-5.3443	1.4939	0.	129.15
1585	6.4455	4.9253	0.	125.27
1586	-5.3135	-6.4392	0.	139.38
1587	1.4957	7.9992	0.	125.82
1588	-1.0001	-9.	0.	112.26
1589	3.6199	-2.2486	0.	136.03
1590	-6.7099	-0.55998	0.	120.14
1591	-7.1724	1.3997	0.	108.9
1592	7.4884	4.0069	0.	123.62
1593	-5.	8.	0.	123.69
1594	7.2121	0.94007	0.	113.91
1595	-4.5965	-2.4234	0.	131.76
1596	7.5175	2.5057	0.	121.89
1597	-7.9671	-2.2986	0.	126.05
1598	2.8922	2.0851	0.	130.68
1599	-2.9978	3.4995	0.	130.95
1600	-2.4987	3.5	0.	129.05
1601	0.98353	6.001	0.	128.35
1602	-8.0787	1.1043	0.	129.26
1603	3.6672	3.4841	0.	129.99
1604	-3.4626	1.9951	0.	129.63
1605	-1.0007	8.	0.	122.45
1606	-3.5952	-3.7917	0.	132.3
1607	-0.49119	-1.4897	0.	119.6
1608	4.0167	-6.5013	0.	129.97
1609	2.8499	1.5936	0.	131.17
1610	2.9988	9.4992	0.	125.3
1611	-3.9888	-8.	0.	128.83
1612	-5.8818	1.1383e-002	0.	131.56
1613	5.1704	1.7541	0.	117.14
1614	5.007	-3.4569	0.	124.92
1615	-3.4577	1.4932	0.	128.
1616	-2.501	4.9994	0.	125.95
1617	-4.4645	-0.49106	0.	130.51
1618	0.97335	-6.5454	0.	126.47
1619	2.492	-7.5057	0.	128.88
1620	5.0049	-5.4915	0.	129.51
1621	-4.0003	6.4994	0.	130.33
1622	1.2229	-5.0372	0.	109.63
1623	-4.7448	-3.9019	0.	133.9
1624	7.9791	3.5064	0.	123.37
1625	6.4465	5.4262	0.	125.09
1626	4.2862	3.8975	0.	131.75
1627	-3.6611	-2.8726	0.	139.84
1628	-4.1409	-2.8954	0.	135.99
1629	-5.0796	-2.4192	0.	128.71
1630	-3.3487	-4.7387	0.	131.9
1631	1.0068	-1.9476	0.	124.79
1632	3.891	4.9416	0.	126.88
1633	-7.0002	4.4823	0.	125.88
1634	0.99491	-8.013	0.	129.99
1635	4.9911	7.9855	0.	124.73
1636	0.47947	3.0059	0.	128.59
1637	6.0797	2.3379	0.	132.6
1638	2.6426	-5.1211	0.	134.73
1639	-0.50038	-9.0004	0.	114.93
1640	-4.0012	5.4981	0.	127.81
1641	5.0183	-2.9615	0.	123.99
1642	0.93398	-0.94852	0.	129.73
1643	-0.5078	3.001	0.	109.99
1644	-5.	6.9999	0.	126.24
1645	4.0182	-5.0113	0.	131.67
1646	-4.5263	-1.4636	0.	131.44
1647	-5.0006	-7.4949	0.	126.44
1648	2.8942	-4.1591	0.	129.65
1649	0.49908	-9.0025	0.	127.88
1650	8.9978	6.4991	0.	128.58
1651	8.4998	8.9999	0.	126.78
1652	3.6669	-1.7631	0.	131.71
1653	-5.4115	-0.47968	0.	130.05
1654	-2.9784	0.49313	0.	126.91
1655	0.95551	1.5307	0.	130.51
1656	3.5383	3.0269	0.	127.05
1657	-5.1686	-3.4128	0.	129.93
1658	-7.5801	-1.5959	0.	121.06
1659	-7.462	-8.071	0.	129.96
1660	0.99023	-7.5209	0.	128.48
1661	-2.5003	3.9998	0.	127.67
1662	6.135	1.3893	0.	126.94
1663	-0.50119	8.0001	0.	121.85
1664	4.0816	-2.3289	0.	136.35
1665	0.96992	3.0136	0.	132.12
1666	4.8855	4.847	0.	121.16
1667	-8.4997	5.4988	0.	117.76
1668	-6.474	-1.9478	0.	119.53
1669	-8.4357	-5.9434	0.	132.69
1670	-5.4969	3.4519	0.	123.21
1671	4.4996	-8.4993	0.	127.94
1672	7.5	-8.5	0.	123.93
1673	-3.9418	1.9916	0.	128.99
1674	4.691	1.2377	0.	120.03
1675	2.2991	-2.3802	0.	131.49
1676	-4.5	7.9999	0.	124.96
1677	-3.496	3.4981	0.	131.69
1678	0.99665	7.9998	0.	125.23
1679	-5.0469	-1.9392	0.	128.78
1680	6.8657	3.541	0.	123.49
1681	5.1132	-0.12797	0.	110.61
1682	5.931	5.3813	0.	125.02
1683	-6.5008	3.4212	0.	119.98
1684	-4.4788	-7.516	0.	127.95
1685	-2.3032e-003	-2.9352	0.	129.14
1686	0.41506	-2.9862	0.	126.
1687	-4.8961	2.4712	0.	128.23
1688	5.4465	5.9067	0.	124.93
1689	4.9447	5.9163	0.	124.25
1690	4.4458	5.9352	0.	124.46
1691	3.947	5.9556	0.	125.29
1692	6.6617	-1.2373	0.	125.57
1693	6.6484	-1.6506	0.	118.63
1694	4.7075	-1.405	0.	112.63
1695	4.7675	-1.1425	0.	124.35
1696	4.558	-1.5104	0.	141.68
1697	4.3139	-1.2422	0.	141.24
1698	4.5521	-0.957	0.	141.42
1699	5.1025	-1.775	0.	94.557
1700	5.36	-1.6975	0.	135.29
1701	5.1876	-2.0464	0.	117.46
1702	5.5039	-1.977	0.	134.37
1703	5.2825	-0.9875	0.	127.24
1704	5.48	-1.1725	0.	150.05
1705	5.5525	-0.72371	0.	140.6
1706	5.7314	-0.98865	0.	143.34
1707	5.49	2.8967	0.	131.23
1708	5.4017	2.695	0.	132.29
1709	5.6237	2.4934	0.	143.22
1710	5.8118	2.7638	0.	137.94
1711	4.97	3.6033	0.	107.41
1712	4.7517	3.5783	0.	116.37
1713	4.8317	4.0567	0.	114.44
1714	5.0709	3.9712	0.	116.52
1715	4.5631	3.8388	0.	121.85
1716	4.5283	2.595	0.	134.61
1717	4.3983	2.7717	0.	142.13
1718	4.2915	2.3449	0.	143.31
1719	4.1005	2.5627	0.	142.29
1720	7.7533	-0.14833	0.	131.55
1721	7.8167	-0.36167	0.	124.24
1722	8.1019	-0.31718	0.	147.15
1723	8.01	-6.1583e-003	0.	154.15
1724	6.8867	5.8333e-002	0.	134.03
1725	6.7333	-0.10333	0.	146.7
1726	6.6577	0.30036	0.	145.47
1727	6.417	1.5364e-002	0.	142.82
1728	7.2033	-1.0083	0.	95.533
1729	6.9867	-0.95667	0.	114.35
1730	7.2923	-1.1588	0.	108.36
1731	7.0753	-1.3975	0.	104.56
1732	6.8558	-1.2037	0.	115.3
1733	-2.095	-1.63	0.	120.55
1734	-1.9383	-1.7417	0.	138.44
1735	-1.9714	-1.298	0.	126.51
1736	-1.6945	-1.5148	0.	131.97
1737	-2.795	-1.95	0.	120.
1738	-2.8133	-2.1417	0.	114.4
1739	-3.2623	-2.	0.	148.17
1740	-3.0382	-1.7817	0.	151.04
1741	-3.0925	-2.2283	0.	150.86
1742	-2.0117	-2.5083	0.	122.6
1743	-2.1867	-2.5883	0.	99.715
1744	-1.8477	-2.7615	0.	121.96
1745	-2.1523	-2.8713	0.	104.75
1746	0.8425	-3.9175	0.	122.88
1747	1.105	-3.855	0.	85.623
1748	0.81542	-3.4575	0.	118.78
1749	1.1224	-3.5386	0.	115.7
1750	0.63953	-3.7134	0.	122.35
1751	0.6875	-4.4325	0.	145.12
1752	0.8725	-4.6275	0.	131.73
1753	0.38903	-4.6792	0.	143.
1754	0.64913	-4.9343	0.	144.34
1755	1.475	-4.245	0.	119.05
1756	1.3975	-4.5025	0.	134.91
1757	1.8173	-4.3592	0.	150.03
1758	1.6712	-4.6593	0.	156.82
1759	-2.6433	-3.97	0.	136.92
1760	-2.5233	-3.7783	0.	138.73
1761	-2.6077	-3.5964	0.	131.48
1762	-2.9248	-3.76	0.	145.58
1763	-2.2167	-4.77	0.	101.66
1764	-1.99	-4.7783	0.	100.95
1765	-2.0725	-5.2377	0.	109.31
1766	-2.368	-5.029	0.	116.97
1767	-1.826	-5.0082	0.	111.13
1768	-1.6167	-3.8117	0.	129.68
1769	-1.51	-4.0117	0.	132.61
1770	-1.3821	-3.5775	0.	146.19
1771	-1.2061	-3.8085	0.	141.58
1772	-6.0375	-6.74	0.	127.55
1773	-5.925	-6.995	0.	118.18
1774	-5.7778	-6.5606	0.	141.16
1775	-5.5808	-6.8567	0.	138.42
1776	-6.5925	-6.68	0.	127.99
1777	-6.7576	-6.9048	0.	134.39
1778	-7.0821	-6.7062	0.	139.42
1779	-6.8559	-6.449	0.	139.25
1780	-6.255	-7.445	0.	87.671
1781	-6.5326	-7.4148	0.	107.22
1782	-6.1801	-7.7871	0.	111.8
1783	-6.4456	-7.8768	0.	106.02
1784	-6.6934	-7.6627	0.	117.24
1785	-7.3933	-5.e-002	0.	118.11
1786	-7.5817	5.8333e-002	0.	142.64
1787	-7.8236	-0.21341	0.	138.3
1788	-7.5881	-0.39065	0.	129.04
1789	-6.6467	0.39	0.	115.35
1790	-6.6483	0.60833	0.	116.91
1791	-6.1833	0.50737	0.	140.86
1792	-6.3949	0.78589	0.	144.8
1793	-6.3978	0.23783	0.	145.25
1794	-7.5883	0.93167	0.	145.
1795	-7.4017	1.0417	0.	120.13
1796	-7.6018	1.338	0.	131.75
1797	-7.8343	1.1271	0.	136.89
1798	-6.54	-3.7851	0.	117.16
1799	-6.305	-3.7413	0.	101.83
1800	-6.7311	-3.5035	0.	121.42
1801	-6.237	-3.4527	0.	114.77
1802	-6.4864	-3.2669	0.	114.05
1803	-7.02	-5.135	0.	146.55
1804	-6.865	-5.3162	0.	135.38
1805	-6.974	-5.5592	0.	134.43
1806	-7.2902	-5.3635	0.	147.52
1807	-5.375	-4.8288	0.	134.06
1808	-5.455	-5.0538	0.	138.3
1809	-5.2342	-5.229	0.	153.52
1810	-5.0503	-4.9468	0.	148.4
1811	6.	-3.25	0.	137.23
1812	6.25	-3.	0.	124.36
1813	6.023	-2.7606	0.	132.33
1814	5.7553	-2.9884	0.	130.87
1815	6.	-4.75	0.	131.53
1816	6.25	-5.	0.	117.23
1817	5.7475	-4.9946	0.	125.18
1818	5.9997	-5.2493	0.	122.26
1819	7.75	-3.	0.	123.6
1820	8.	-3.25	0.	140.45
1821	8.2512	-3.0008	0.	134.56
1822	8.0084	-2.755	0.	130.51
1823	7.75	-5.	0.	127.59
1824	8.	-4.75	0.	142.89
1825	8.25	-5.	0.	137.19
1826	8.	-5.25	0.	134.17
1827	7.	7.75	0.	137.88
1828	7.25	8.	0.	122.29
1829	6.7478	7.9945	0.	131.19
1830	6.9991	8.2488	0.	128.71
1831	7.	7.25	0.	137.77
1832	7.25	7.	0.	121.93
1833	6.9915	6.7404	0.	128.47
1834	6.7437	6.9875	0.	130.92
1835	7.75	8.	0.	122.55
1836	8.	7.75	0.	138.45
1837	8.25	8.	0.	131.79
1838	7.9998	8.2499	0.	129.05
1839	7.75	7.	0.	121.91
1840	8.	7.25	0.	138.07
1841	8.2494	6.9996	0.	131.43
1842	7.9965	6.7479	0.	128.17
1843	5.	-6.25	0.	142.06
1844	5.25	-6.	0.	128.84
1845	4.7593	-6.0008	0.	136.49
1846	5.0024	-5.7457	0.	133.88
1847	5.	-6.75	0.	141.75
1848	5.25	-7.	0.	126.63
1849	5.0002	-7.25	0.	132.55
1850	4.7515	-7.0004	0.	134.86
1851	6.75	-6.	0.	116.57
1852	7.	-6.25	0.	129.61
1853	7.	-5.75	0.	119.68
1854	7.25	-6.	0.	122.72
1855	6.75	-7.	0.	120.4
1856	7.	-6.75	0.	131.78
1857	7.	-7.25	0.	124.97
1858	7.25	-7.	0.	127.1
1859	-1.	5.75	0.	132.48
1860	-0.75	6.	0.	116.34
1861	-1.2502	5.9999	0.	127.62
1862	-1.0004	6.25	0.	124.11
1863	-1.	4.25	0.	130.27
1864	-0.75	4.	0.	113.75
1865	-1.0014	3.7502	0.	120.15
1866	-1.2502	4.0001	0.	124.71
1867	-0.25	6.	0.	117.14
1868	0.	5.75	0.	134.13
1869	0.24593	6.0003	0.	129.09
1870	-1.6828e-003	6.2501	0.	125.32
1871	-0.25	4.	0.	114.35
1872	0.	4.25	0.	132.13
1873	0.24012	4.0017	0.	127.92
1874	-5.5588e-003	3.7506	0.	122.08
1875	-2.	1.75	0.	137.25
1876	-1.75	2.	0.	122.18
1877	-1.9985	2.2501	0.	129.18
1878	-2.245	1.9996	0.	132.34
1879	-2.	0.25	0.	134.65
1880	-1.75	0.	0.	120.16
1881	-2.2466	-5.5462e-004	0.	127.77
1882	-2.0007	-0.25482	0.	124.73
1883	-0.25	2.	0.	120.95
1884	0.	1.75	0.	137.26
1885	0.24074	2.0054	0.	131.57
1886	-5.2639e-003	2.2513	0.	127.
1887	-0.25	0.	0.	124.08
1888	0.	0.25	0.	138.84
1889	0.23396	8.2608e-003	0.	133.41
1890	-9.0156e-003	-0.24562	0.	129.98
1891	-2.	-6.25	0.	132.92
1892	-1.75	-6.	0.	118.66
1893	-2.0175	-5.7527	0.	121.17
1894	-2.2462	-6.0191	0.	126.39
1895	-2.	-7.75	0.	136.21
1896	-1.75	-8.	0.	121.29
1897	-1.9996	-8.2499	0.	127.62
1898	-2.248	-8.0003	0.	130.86
1899	-0.25	-6.	0.	127.54
1900	0.	-6.25	0.	140.98
1901	1.921e-002	-5.7843	0.	136.46
1902	0.24463	-6.0302	0.	134.03
1903	-0.25	-8.	0.	121.92
1904	0.	-7.75	0.	137.36
1905	-4.4662e-004	-8.2506	0.	128.17
1906	0.24859	-8.0036	0.	131.59
1907	-9.	8.75	0.	145.61
1908	-8.75	9.	0.	130.28
1909	-9.25	9.	0.	135.48
1910	-9.	9.25	0.	133.67
1911	-9.	7.25	0.	144.21
1912	-8.75	7.	0.	128.5
1913	-9.	6.7499	0.	132.82
1914	-9.25	7.	0.	136.83
1915	-7.25	9.	0.	128.74
1916	-7.	8.75	0.	142.36
1917	-6.75	9.	0.	133.91
1918	-7.	9.25	0.	132.9
1919	-7.25	7.	0.	128.55
1920	-7.	7.25	0.	141.51
1921	-6.75	7.	0.	132.56
1922	-7.	6.75	0.	134.13
1923	-9.	3.75	0.	141.88
1924	-8.75	4.	0.	124.35
1925	-9.	4.2499	0.	130.76
1926	-9.25	4.0001	0.	135.35
1927	-9.	3.25	0.	142.23
1928	-8.75	3.	0.	125.06
1929	-9.0079	2.7558	0.	132.47
1930	-9.251	3.0016	0.	136.05
1931	-8.25	4.	0.	123.1
1932	-8.	3.75	0.	138.2
1933	-7.9996	4.2481	0.	128.89
1934	-7.75	3.9897	0.	131.43
1935	-8.25	3.	0.	122.55
1936	-8.	3.25	0.	137.24
1937	-8.0175	2.7507	0.	127.34
1938	-7.7566	2.9808	0.	128.83
1939	-7.	5.75	0.	139.18
1940	-6.75	6.	0.	128.89
1941	-7.25	5.9995	0.	129.44
1942	-7.	6.25	0.	133.29
1943	-7.	5.25	0.	138.35
1944	-6.75	5.	0.	126.49
1945	-7.2497	4.9973	0.	131.05
1946	-7.0001	4.7412	0.	130.22
1947	-5.25	6.	0.	129.76
1948	-5.	5.75	0.	142.69
1949	-5.	6.25	0.	133.9
1950	-4.7502	5.9996	0.	135.47
1951	-5.25	5.	0.	128.69
1952	-5.	5.25	0.	142.45
1953	-4.7509	4.9982	0.	135.4
1954	-5.0026	4.7451	0.	133.43
1955	9.75	10.	0.	125.
1956	10.	9.75	0.	124.99
1957	-9.75	10.	0.	124.95
1958	-10.	9.75	0.	124.77
1959	10.	-9.75	0.	130.89
1960	9.75	-10.	0.	130.28
1961	-10.	-9.75	0.	132.87
1962	-9.75	-10.	0.	132.11
1963	4.7555	-1.6954	0.	95.038
1964	5.0472	-0.83342	0.	96.327
1965	5.6242	-1.4843	0.	137.66
1966	5.23	3.25	0.	105.89
1967	5.5901	3.1605	0.	120.36
1968	5.3395	3.5545	0.	115.68
1969	4.965	2.645	0.	109.58
1970	5.1795	2.4415	0.	110.17
1971	4.7355	2.3914	0.	110.97
1972	4.575	3.175	0.	125.63
1973	4.4124	3.4087	0.	125.61
1974	4.2516	2.9873	0.	131.29
1975	7.32	-4.5e-002	0.	102.37
1976	7.5657	0.11106	0.	103.53
1977	7.1194	0.22828	0.	107.04
1978	7.51	-0.685	0.	84.95
1979	7.8351	-0.72589	0.	106.54
1980	7.4456	-0.99715	0.	99.378
1981	6.86	-0.53	0.	129.89
1982	6.6197	-0.3717	0.	136.26
1983	6.7089	-0.79093	0.	123.89
1984	-2.445	-1.79	0.	87.212
1985	-2.3336	-1.5128	0.	102.07
1986	-2.6836	-1.663	0.	97.631
1987	-1.975	-2.125	0.	132.95
1988	-1.7183	-1.9343	0.	128.81
1989	-1.7656	-2.3459	0.	124.33
1990	-2.5	-2.365	0.	72.492
1991	-2.7797	-2.4232	0.	98.046
1992	-2.4922	-2.6658	0.	98.003
1993	0.51881	-4.1914	0.	130.78
1994	1.5138	-3.9157	0.	102.39
1995	1.1789	-4.8011	0.	102.
1996	-2.43	-4.37	0.	107.76
1997	-2.769	-4.1929	0.	123.51
1998	-2.5747	-4.6118	0.	114.5
1999	-2.07	-3.795	0.	102.57
2000	-2.381	-3.6047	0.	100.92
2001	-1.8661	-3.5489	0.	99.228
2002	-1.75	-4.395	0.	104.76
2003	-1.6152	-4.6088	0.	108.78
2004	-1.4046	-4.211	0.	117.8
2005	-6.3145	-6.5004	0.	93.289
2006	-5.8329	-7.3481	0.	105.32
2007	-6.9406	-7.181	0.	121.51
2008	-7.02	0.17	0.	82.831
2009	-7.1635	-0.20178	0.	100.38
2010	-6.7866	6.6449e-002	0.	95.008
2011	-7.585	0.495	0.	144.14
2012	-7.8267	0.23661	0.	135.9
2013	-7.8302	0.68323	0.	137.43
2014	-7.025	0.825	0.	84.914
2015	-6.795	0.97508	0.	97.593
2016	-7.1929	1.1665	0.	100.1
2017	-6.7	-4.2351	0.	127.05
2018	-6.8504	-3.9572	0.	123.
2019	-6.86	-4.6851	0.	132.45
2020	-7.0687	-4.3998	0.	130.91
2021	-7.1881	-4.8896	0.	134.97
2022	-5.995	-4.1038	0.	101.01
2023	-5.9579	-3.8048	0.	106.08
2024	-5.685	-4.4662	0.	103.46
2025	-5.5839	-4.1314	0.	117.56
2026	-5.3024	-4.5486	0.	120.63
2027	-6.395	-5.2288	0.	110.45
2028	-6.4136	-5.4103	0.	106.12
2029	-6.739	-5.5154	0.	105.88
2030	-5.925	-5.1413	0.	110.43
2031	-6.1786	-5.3666	0.	109.71
2032	-5.7037	-5.3021	0.	108.27
2033	6.	-3.75	0.	139.75
2034	5.7506	-3.4914	0.	134.65
2035	6.	-4.25	0.	138.07
2036	5.744	-3.9922	0.	134.84
2037	5.744	-4.4927	0.	132.4
2038	6.75	-3.	0.	116.08
2039	6.5233	-2.771	0.	114.75
2040	7.25	-3.	0.	114.71
2041	7.0188	-2.7694	0.	114.38
2042	7.5135	-2.7626	0.	111.76
2043	6.75	-5.	0.	112.81
2044	6.4999	-5.2499	0.	107.72
2045	7.25	-5.	0.	117.34
2046	7.	-5.25	0.	116.09
2047	7.5	-5.25	0.	118.35
2048	8.	-3.75	0.	146.61
2049	8.2502	-3.5002	0.	141.22
2050	8.	-4.25	0.	147.37
2051	8.25	-4.0001	0.	143.3
2052	8.25	-4.5	0.	142.44
2053	6.7465	7.492	0.	135.83
2054	7.4996	8.2497	0.	112.38
2055	7.494	6.7451	0.	111.93
2056	8.2498	7.4998	0.	136.61
2057	4.7549	-6.501	0.	139.83
2058	5.75	-6.	0.	120.14
2059	5.5001	-5.7474	0.	121.42
2060	6.25	-6.	0.	114.47
2061	5.9997	-5.7493	0.	118.77
2062	6.4999	-5.7499	0.	108.15
2063	5.75	-7.	0.	117.9
2064	5.5001	-7.25	0.	116.18
2065	6.25	-7.	0.	116.24
2066	6.	-7.25	0.	117.4
2067	6.5	-7.25	0.	112.99
2068	7.25	-6.5	0.	129.4
2069	-1.	5.25	0.	136.61
2070	-1.2501	5.4999	0.	132.93
2071	-1.	4.75	0.	135.83
2072	-1.2501	5.	0.	133.32
2073	-1.2501	4.5	0.	131.62
2074	-0.50079	6.25	0.	106.4
2075	-0.50267	3.7503	0.	103.25
2076	0.	5.25	0.	138.43
2077	0.24425	5.5007	0.	134.84
2078	0.	4.75	0.	138.03
2079	0.24248	5.0013	0.	135.56
2080	0.24098	4.5018	0.	134.27
2081	-2.	1.25	0.	141.57
2082	-2.2438	1.4991	0.	137.03
2083	-2.	0.75	0.	140.5
2084	-2.2441	0.99865	0.	137.37
2085	-2.245	0.49852	0.	134.92
2086	-1.25	2.	0.	113.33
2087	-1.5	2.25	0.	112.21
2088	-0.75	2.	0.	112.39
2089	-1.0011	2.25	0.	112.62
2090	-0.50247	2.2502	0.	109.67
2091	-1.25	0.	0.	114.15
2092	-1.5019	-0.25144	0.	111.88
2093	-0.75	0.	0.	115.92
2094	-1.0015	-0.2481	0.	116.49
2095	-0.50337	-0.2472	0.	114.5
2096	0.	1.25	0.	143.15
2097	0.23929	1.5061	0.	138.14
2098	0.	0.75	0.	143.63
2099	0.23694	1.0073	0.	140.01
2100	0.2357	0.50733	0.	139.04
2101	-2.	-6.75	0.	139.39
2102	-2.2425	-6.5115	0.	134.24
2103	-2.	-7.25	0.	140.63
2104	-2.2438	-7.0062	0.	136.7
2105	-2.2462	-7.5023	0.	136.08
2106	-1.25	-6.	0.	114.46
2107	-1.5087	-5.7584	0.	111.16
2108	-0.75	-6.	0.	118.33
2109	-0.99474	-5.7683	0.	118.22
2110	-0.48397	-5.7753	0.	118.07
2111	-1.25	-8.	0.	113.33
2112	-1.4999	-8.2499	0.	111.26
2113	-0.75	-8.	0.	113.59
2114	-1.	-8.25	0.	113.46
2115	-0.50015	-8.2501	0.	111.67
2116	0.	-6.75	0.	143.57
2117	0.24327	-6.5164	0.	138.2
2118	0.	-7.25	0.	142.91
2119	0.24539	-7.0099	0.	138.92
2120	0.24721	-7.5064	0.	137.33
2121	-9.	8.25	0.	151.73
2122	-9.25	8.5	0.	143.43
2123	-9.	7.75	0.	151.38
2124	-9.25	8.	0.	145.43
2125	-9.25	7.5	0.	143.87
2126	-8.25	9.	0.	123.86
2127	-8.5	9.25	0.	119.81
2128	-7.75	9.	0.	123.3
2129	-8.	9.25	0.	123.49
2130	-7.5	9.25	0.	119.26
2131	-8.25	7.	0.	122.14
2132	-8.5	6.7498	0.	118.1
2133	-7.75	7.	0.	122.54
2134	-8.	6.7498	0.	121.97
2135	-7.5	6.7498	0.	121.2
2136	-7.	8.25	0.	146.8
2137	-6.75	8.5	0.	139.84
2138	-7.	7.75	0.	146.31
2139	-6.75	8.	0.	140.78
2140	-6.75	7.5	0.	138.71
2141	-9.2501	3.5005	0.	141.53
2142	-8.4999	4.2495	0.	112.51
2143	-8.5119	2.7562	0.	114.24
2144	-7.7508	3.4849	0.	134.85
2145	-7.2499	5.4989	0.	133.56
2146	-6.25	6.	0.	125.4
2147	-6.5	6.25	0.	124.08
2148	-5.75	6.	0.	124.98
2149	-6.	6.25	0.	126.06
2150	-5.5	6.25	0.	121.22
2151	-6.25	5.	0.	122.
2152	-6.5018	4.7404	0.	118.45
2153	-5.75	5.	0.	122.34
2154	-6.0024	4.7419	0.	122.1
2155	-5.5027	4.7435	0.	119.5
2156	-4.7504	5.4992	0.	139.74
2157	9.25	10.	0.	124.81
2158	9.5	9.75	0.	125.09
2159	8.75	10.	0.	124.21
2160	9.	9.75	0.	124.97
2161	8.25	10.	0.	123.26
2162	8.4999	9.75	0.	124.25
2163	7.75	10.	0.	122.54
2164	7.9998	9.7499	0.	123.11
2165	7.25	10.	0.	122.6
2166	7.4997	9.7497	0.	122.51
2167	6.75	10.	0.	123.48
2168	6.9995	9.7493	0.	123.2
2169	6.25	10.	0.	124.62
2170	6.4994	9.7489	0.	124.47
2171	5.75	10.	0.	125.43
2172	5.9995	9.7488	0.	125.35
2173	5.25	10.	0.	125.78
2174	5.4994	9.7487	0.	125.64
2175	4.75	10.	0.	125.82
2176	4.9995	9.7489	0.	125.66
2177	4.25	10.	0.	125.75
2178	4.4995	9.7491	0.	125.6
2179	3.75	10.	0.	125.65
2180	3.9994	9.7493	0.	125.53
2181	3.25	10.	0.	125.55
2182	3.4994	9.7495	0.	125.47
2183	2.75	10.	0.	125.42
2184	2.9994	9.7496	0.	125.39
2185	2.25	10.	0.	125.24
2186	2.4994	9.7498	0.	125.28
2187	1.75	10.	0.	125.
2188	1.9994	9.7499	0.	125.12
2189	1.25	10.	0.	124.71
2190	1.4995	9.75	0.	124.89
2191	0.75	10.	0.	124.41
2192	0.99958	9.75	0.	124.62
2193	0.25	10.	0.	124.18
2194	0.49969	9.75	0.	124.35
2195	-0.25	10.	0.	124.07
2196	-2.1997e-004	9.75	0.	124.17
2197	-0.75	10.	0.	124.15
2198	-0.50015	9.75	0.	124.14
2199	-1.25	10.	0.	124.42
2200	-1.0001	9.75	0.	124.3
2201	-1.75	10.	0.	124.83
2202	-1.5001	9.75	0.	124.62
2203	-2.25	10.	0.	125.3
2204	-2.	9.75	0.	125.03
2205	-2.75	10.	0.	125.75
2206	-2.5	9.75	0.	125.44
2207	-3.25	10.	0.	126.14
2208	-3.	9.75	0.	125.79
2209	-3.75	10.	0.	126.46
2210	-3.5	9.75	0.	126.05
2211	-4.25	10.	0.	126.79
2212	-4.	9.75	0.	126.22
2213	-4.75	10.	0.	127.22
2214	-4.5	9.75	0.	126.38
2215	-5.25	10.	0.	127.85
2216	-5.	9.75	0.	126.62
2217	-5.75	10.	0.	128.62
2218	-5.5	9.75	0.	127.03
2219	-6.25	10.	0.	128.27
2220	-6.	9.75	0.	127.75
2221	-6.75	10.	0.	124.72
2222	-6.5	9.75	0.	128.39
2223	-7.25	10.	0.	119.61
2224	-7.	9.75	0.	124.23
2225	-7.75	10.	0.	116.18
2226	-7.5	9.75	0.	118.16
2227	-8.25	10.	0.	115.94
2228	-8.	9.75	0.	117.45
2229	-8.75	10.	0.	118.7
2230	-8.5	9.75	0.	117.91
2231	-9.25	10.	0.	122.53
2232	-9.	9.75	0.	123.44
2233	-9.5	9.75	0.	126.64
2234	10.	9.25	0.	124.96
2235	9.75	9.5	0.	125.09
2236	10.	8.75	0.	124.73
2237	9.75	9.	0.	125.36
2238	10.	8.25	0.	124.08
2239	9.75	8.5	0.	125.22
2240	10.	7.75	0.	123.57
2241	9.7499	7.9999	0.	124.65
2242	10.	7.25	0.	124.06
2243	9.7499	7.4999	0.	124.55
2244	10.	6.75	0.	125.51
2245	9.7497	6.9999	0.	125.42
2246	10.	6.25	0.	126.96
2247	9.7496	6.4999	0.	126.7
2248	10.	5.75	0.	127.65
2249	9.7496	5.9999	0.	127.4
2250	10.	5.25	0.	127.6
2251	9.7496	5.4999	0.	127.41
2252	10.	4.75	0.	127.22
2253	9.7497	4.9999	0.	127.08
2254	10.	4.25	0.	126.87
2255	9.7497	4.5	0.	126.74
2256	10.	3.75	0.	126.8
2257	9.7497	4.0001	0.	126.57
2258	10.	3.25	0.	127.12
2259	9.7498	3.5005	0.	126.68
2260	10.	2.75	0.	127.86
2261	9.7507	3.0012	0.	127.13
2262	10.	2.25	0.	128.86
2263	9.7526	2.5023	0.	127.9
2264	10.	1.75	0.	129.76
2265	9.7555	2.0034	0.	128.85
2266	10.	1.25	0.	129.97
2267	9.7581	1.5043	0.	129.63
2268	10.	0.75	0.	129.01
2269	9.7592	1.0038	0.	129.7
2270	10.	0.25	0.	127.34
2271	9.758	0.50274	0.	128.74
2272	10.	-0.25	0.	126.54
2273	9.757	1.7991e-003	0.	127.43
2274	10.	-0.75	0.	127.88
2275	9.7582	-0.49913	0.	127.52
2276	10.	-1.25	0.	130.78
2277	9.7559	-0.99995	0.	129.62
2278	10.	-1.75	0.	133.37
2279	9.7531	-1.5001	0.	132.18
2280	10.	-2.25	0.	134.14
2281	9.7516	-2.	0.	133.69
2282	10.	-2.75	0.	132.94
2283	9.7509	-2.5001	0.	133.6
2284	10.	-3.25	0.	130.75
2285	9.7504	-3.0001	0.	132.22
2286	10.	-3.75	0.	129.
2287	9.7501	-3.5001	0.	130.69
2288	10.	-4.25	0.	128.55
2289	9.75	-4.	0.	129.89
2290	10.	-4.75	0.	129.41
2291	9.75	-4.5	0.	130.08
2292	10.	-5.25	0.	130.8
2293	9.75	-5.	0.	130.96
2294	10.	-5.75	0.	131.72
2295	9.75	-5.5	0.	131.77
2296	10.	-6.25	0.	131.81
2297	9.75	-6.	0.	131.8
2298	10.	-6.75	0.	131.43
2299	9.75	-6.5	0.	131.28
2300	10.	-7.25	0.	131.1
2301	9.75	-7.	0.	130.79
2302	10.	-7.75	0.	130.99
2303	9.75	-7.5	0.	130.57
2304	10.	-8.25	0.	130.99
2305	9.75	-8.	0.	130.52
2306	10.	-8.75	0.	130.98
2307	9.75	-8.5	0.	130.47
2308	10.	-9.25	0.	130.93
2309	9.75	-9.	0.	130.39
2310	9.75	-9.5	0.	130.31
2311	-10.	9.25	0.	123.48
2312	-9.75	9.5	0.	126.45
2313	-10.	8.75	0.	122.64
2314	-9.75	9.	0.	127.
2315	-10.	8.25	0.	123.97
2316	-9.75	8.5	0.	129.14
2317	-10.	7.75	0.	126.81
2318	-9.75	8.	0.	131.93
2319	-10.	7.25	0.	130.85
2320	-9.75	7.5	0.	132.79
2321	-10.	6.75	0.	135.59
2322	-9.75	7.	0.	134.71
2323	-10.	6.25	0.	137.36
2324	-9.75	6.4999	0.	136.52
2325	-10.	5.75	0.	136.27
2326	-9.75	5.9999	0.	134.23
2327	-10.	5.25	0.	135.61
2328	-9.75	5.4999	0.	132.7
2329	-10.	4.75	0.	135.77
2330	-9.75	4.9999	0.	133.13
2331	-10.	4.25	0.	134.11
2332	-9.75	4.5	0.	134.95
2333	-10.	3.75	0.	130.91
2334	-9.75	4.0001	0.	133.58
2335	-10.	3.25	0.	131.48
2336	-9.7501	3.5005	0.	132.49
2337	-10.	2.75	0.	135.32
2338	-9.751	3.0016	0.	134.48
2339	-10.	2.25	0.	136.06
2340	-9.7541	2.5038	0.	136.04
2341	-10.	1.75	0.	132.77
2342	-9.7572	2.0063	0.	133.19
2343	-10.	1.25	0.	128.46
2344	-9.7592	1.5092	0.	129.81
2345	-10.	0.75	0.	125.58
2346	-9.7601	1.0122	0.	126.97
2347	-10.	0.25	0.	125.08
2348	-9.76	0.51537	0.	125.64
2349	-10.	-0.25	0.	126.65
2350	-9.7593	1.8332e-002	0.	126.29
2351	-10.	-0.75	0.	128.95
2352	-9.7583	-0.47927	0.	128.11
2353	-10.	-1.25	0.	130.71
2354	-9.7568	-0.97777	0.	129.8
2355	-10.	-1.75	0.	131.38
2356	-9.7547	-1.4774	0.	130.64
2357	-10.	-2.25	0.	131.09
2358	-9.7518	-1.9781	0.	130.67
2359	-10.	-2.75	0.	130.09
2360	-9.7492	-2.4796	0.	130.14
2361	-10.	-3.25	0.	128.66
2362	-9.7481	-2.9817	0.	129.21
2363	-10.	-3.75	0.	127.11
2364	-9.7477	-3.484	0.	128.05
2365	-10.	-4.25	0.	125.84
2366	-9.7469	-3.9867	0.	126.93
2367	-10.	-4.75	0.	125.23
2368	-9.7456	-4.489	0.	126.19
2369	-10.	-5.25	0.	125.39
2370	-9.7442	-4.9904	0.	126.1
2371	-10.	-5.75	0.	126.08
2372	-9.7421	-5.4917	0.	126.59
2373	-10.	-6.25	0.	126.93
2374	-9.7388	-5.993	0.	127.3
2375	-10.	-6.75	0.	127.81
2376	-9.7351	-6.4941	0.	127.95
2377	-10.	-7.25	0.	128.78
2378	-9.7336	-6.9947	0.	128.58
2379	-10.	-7.75	0.	129.89
2380	-9.7367	-7.4953	0.	129.34
2381	-10.	-8.25	0.	131.01
2382	-9.7418	-7.9963	0.	130.24
2383	-10.	-8.75	0.	131.95
2384	-9.7456	-8.4974	0.	131.07
2385	-10.	-9.25	0.	132.58
2386	-9.748	-8.9984	0.	131.67
2387	-9.7492	-9.4992	0.	132.01
2388	-9.25	-10.	0.	130.63
2389	-9.4992	-9.7492	0.	131.25
2390	-8.75	-10.	0.	129.3
2391	-8.9988	-9.7493	0.	129.99
2392	-8.25	-10.	0.	127.74
2393	-8.4984	-9.7506	0.	128.7
2394	-7.75	-10.	0.	125.74
2395	-7.9981	-9.7528	0.	127.
2396	-7.25	-10.	0.	123.44
2397	-7.4975	-9.7551	0.	124.71
2398	-6.75	-10.	0.	121.61
2399	-6.9964	-9.7555	0.	122.22
2400	-6.25	-10.	0.	121.19
2401	-6.4958	-9.7531	0.	120.74
2402	-5.75	-10.	0.	122.5
2403	-5.9961	-9.7497	0.	121.28
2404	-5.25	-10.	0.	124.89
2405	-5.4973	-9.7487	0.	123.57
2406	-4.75	-10.	0.	127.32
2407	-4.9982	-9.7487	0.	126.32
2408	-4.25	-10.	0.	129.06
2409	-4.4987	-9.7489	0.	128.5
2410	-3.75	-10.	0.	129.75
2411	-3.9991	-9.7493	0.	129.74
2412	-3.25	-10.	0.	129.08
2413	-3.4996	-9.7491	0.	129.88
2414	-2.75	-10.	0.	126.74
2415	-2.9998	-9.7495	0.	128.58
2416	-2.25	-10.	0.	122.81
2417	-2.4999	-9.7497	0.	125.35
2418	-1.75	-10.	0.	118.44
2419	-2.	-9.7499	0.	120.59
2420	-1.25	-10.	0.	115.57
2421	-1.5	-9.7499	0.	116.18
2422	-0.75	-10.	0.	115.63
2423	-1.0001	-9.75	0.	114.44
2424	-0.25	-10.	0.	118.63
2425	-0.5001	-9.7501	0.	116.31
2426	0.25	-10.	0.	123.13
2427	-1.3305e-004	-9.7502	0.	120.84
2428	0.75	-10.	0.	127.25
2429	0.49982	-9.7505	0.	125.75
2430	1.25	-10.	0.	129.93
2431	0.9998	-9.7509	0.	129.2
2432	1.75	-10.	0.	131.2
2433	1.4998	-9.7511	0.	130.91
2434	2.25	-10.	0.	131.53
2435	1.9999	-9.7508	0.	131.5
2436	2.75	-10.	0.	131.26
2437	2.5	-9.7504	0.	131.47
2438	3.25	-10.	0.	130.5
2439	3.	-9.7501	0.	130.99
2440	3.75	-10.	0.	129.19
2441	3.5	-9.7499	0.	130.03
2442	4.25	-10.	0.	127.33
2443	4.	-9.7499	0.	128.47
2444	4.75	-10.	0.	125.06
2445	4.5	-9.7499	0.	126.32
2446	5.25	-10.	0.	122.8
2447	5.	-9.7499	0.	123.87
2448	5.75	-10.	0.	121.11
2449	5.5	-9.75	0.	121.67
2450	6.25	-10.	0.	120.45
2451	6.	-9.75	0.	120.36
2452	6.75	-10.	0.	120.92
2453	6.5	-9.75	0.	120.3
2454	7.25	-10.	0.	122.27
2455	7.	-9.75	0.	121.38
2456	7.75	-10.	0.	124.07
2457	7.5	-9.75	0.	123.14
2458	8.25	-10.	0.	125.9
2459	8.	-9.75	0.	125.07
2460	8.75	-10.	0.	127.57
2461	8.5	-9.75	0.	126.85
2462	9.25	-10.	0.	129.01
2463	9.	-9.75	0.	128.38
2464	9.5	-9.75	0.	129.7
2465	3.7143	6.4716	0.	125.37
2466	3.2169	6.4811	0.	125.98
2467	3.4716	6.7299	0.	125.53
2468	3.4576	6.2258	0.	125.91
2469	2.7884	0.37275	0.	130.98
2470	3.0263	0.63224	0.	130.9
2471	2.5671	0.60194	0.	130.74
2472	2.8073	0.85909	0.	131.01
2473	2.1786	5.0043	0.	128.11
2474	1.6946	5.0057	0.	128.04
2475	1.945	5.2544	0.	127.78
2476	1.9282	4.7615	0.	128.39
2477	3.7917	-3.7945	0.	129.79
2478	3.6414	-3.338	0.	131.71
2479	3.9216	-3.4936	0.	129.72
2480	3.4787	-3.6005	0.	131.02
2481	2.5529	0.1143	0.	130.74
2482	3.0105	0.14906	0.	131.21
2483	2.7768	-0.11079	0.	130.84
2484	3.2484	0.40854	0.	131.12
2485	3.4897	0.6674	0.	129.91
2486	3.2689	0.88915	0.	130.87
2487	2.6887	5.4915	0.	127.48
2488	3.1815	5.4793	0.	127.15
2489	2.9212	5.2408	0.	127.86
2490	2.9445	5.7367	0.	127.08
2491	4.2122	6.4605	0.	124.82
2492	3.9699	6.7214	0.	124.96
2493	3.9552	6.211	0.	125.17
2494	2.4321	5.2495	0.	127.87
2495	2.4079	4.7594	0.	128.54
2496	2.6646	4.9988	0.	128.25
2497	2.451	5.7452	0.	127.33
2498	2.1984	5.4996	0.	127.55
2499	2.7211	6.4887	0.	126.53
2500	2.9747	6.7369	0.	126.11
2501	2.9617	6.2362	0.	126.51
2502	2.3469	0.83679	0.	130.51
2503	2.3316	0.34349	0.	130.49
2504	2.1065	0.57988	0.	130.26
2505	2.8938	-3.2076	0.	134.05
2506	3.0674	-2.9023	0.	134.02
2507	3.346	-3.1396	0.	133.31
2508	3.1834	-3.4021	0.	132.62
2509	2.1228	1.0738	0.	130.26
2510	1.6543	1.0558	0.	129.95
2511	1.8999	1.3129	0.	130.09
2512	1.8824	0.81689	0.	130.
2513	2.5871	1.0939	0.	130.79
2514	2.3689	1.3326	0.	130.57
2515	2.1008	-1.4107	0.	129.21
2516	1.66	-1.6273	0.	127.86
2517	1.6251	-1.4231	0.	128.46
2518	1.9583	-1.7128	0.	129.03
2519	1.8592	-1.1986	0.	129.21
2520	2.0958	8.6437e-002	0.	130.34
2521	2.3216	-0.14606	0.	130.36
2522	-4.1986	2.4901	0.	129.75
2523	-4.4544	2.7364	0.	129.43
2524	-4.4254	2.2364	0.	128.92
2525	-4.6667	2.4789	0.	128.74
2526	2.3625	3.8072	0.	129.53
2527	2.5561	3.5719	0.	129.41
2528	2.4337	3.3452	0.	129.48
2529	2.1378	3.5545	0.	129.99
2530	2.4662	6.2428	0.	126.94
2531	2.2132	5.9958	0.	127.23
2532	2.7068	5.9903	0.	126.92
2533	2.4786	6.7426	0.	126.62
2534	2.2261	6.4943	0.	127.01
2535	2.3963	-1.5718	0.	129.97
2536	2.2538	-1.8738	0.	129.79
2537	2.5869	-1.9821	0.	131.3
2538	2.6364	-1.7569	0.	130.54
2539	2.3316	-1.1163	0.	129.69
2540	2.0899	-0.90409	0.	129.69
2541	2.5471	-0.85443	0.	129.86
2542	2.3183	-0.63562	0.	130.
2543	2.5698	-1.3187	0.	129.7
2544	2.382	4.2782	0.	129.16
2545	2.1575	4.5165	0.	128.83
2546	2.6342	4.513	0.	129.03
2547	2.139	4.0331	0.	129.53
2548	2.5981	4.0375	0.	129.42
2549	4.4679	6.7123	0.	124.55
2550	4.7109	6.4494	0.	124.61
2551	4.4534	6.1949	0.	124.53
2552	-3.9446	0.74045	0.	127.
2553	-3.9386	1.2399	0.	127.22
2554	-4.1795	0.99007	0.	126.8
2555	-3.6996	0.99056	0.	126.91
2556	2.1964	-6.5377	0.	128.2
2557	2.4641	-6.7671	0.	128.82
2558	2.712	-6.4828	0.	129.6
2559	2.3999	-6.2969	0.	129.82
2560	-5.7392	2.9481	0.	123.69
2561	-6.0329	2.7787	0.	123.11
2562	-6.234	2.9166	0.	121.86
2563	-5.9956	3.2227	0.	121.45
2564	-5.4022	2.6729	0.	126.13
2565	-5.3167	2.2064	0.	127.92
2566	-5.5033	2.4517	0.	126.62
2567	-5.106	2.4549	0.	127.75
2568	-5.0953	1.9759	0.	128.5
2569	-4.8763	1.7318	0.	128.19
2570	-4.6433	1.9819	0.	128.51
2571	-4.8846	2.2245	0.	128.34
2572	3.4137	5.2233	0.	127.47
2573	3.6766	5.4593	0.	126.3
2574	3.4394	5.7234	0.	126.51
2575	3.2356	-7.3786e-002	0.	131.49
2576	3.4764	0.1845	0.	130.99
2577	3.0498	1.116	0.	130.99
2578	2.8342	1.3484	0.	131.11
2579	1.428	-1.5805	0.	127.51
2580	1.5513	-1.9804	0.	126.88
2581	1.2348	-1.8661	0.	125.84
2582	1.1721	-1.4089	0.	127.58
2583	1.396	-1.1478	0.	128.89
2584	1.9603	-6.7897	0.	127.31
2585	1.9219	-6.3187	0.	127.64
2586	1.7022	-6.549	0.	126.55
2587	-4.1903	0.49343	0.	127.06
2588	-3.9554	0.24292	0.	128.03
2589	-3.707	0.4912	0.	127.1
2590	3.9181	-4.2696	0.	129.28
2591	4.1381	-3.9633	0.	127.99
2592	3.6239	-4.0635	0.	129.55
2593	2.8711	-6.222	0.	130.79
2594	2.9576	-5.9924	0.	131.48
2595	2.5589	-6.0361	0.	131.01
2596	2.7374	-5.7851	0.	132.42
2597	1.4482	4.7582	0.	128.44
2598	1.459	5.2544	0.	127.86
2599	1.2112	5.0057	0.	128.49
2600	1.4136	0.80011	0.	129.97
2601	1.4261	1.2981	0.	130.03
2602	1.1829	1.0401	0.	130.54
2603	2.2281	-7.019	0.	127.93
2604	2.7354	-6.9949	0.	128.98
2605	2.4868	-7.2574	0.	128.71
2606	1.982	-7.2731	0.	127.7
2607	1.7256	-7.0314	0.	127.
2608	-4.1739	1.4886	0.	127.6
2609	-4.4149	1.2388	0.	127.18
2610	-4.6452	1.4864	0.	127.76
2611	-4.4121	1.7366	0.	128.08
2612	2.8908	4.7524	0.	128.73
2613	3.1535	4.9848	0.	128.18
2614	1.8497	-2.0659	0.	128.06
2615	2.1794	-2.1679	0.	130.37
2616	2.5972	-3.0244	0.	134.2
2617	2.4453	-3.2964	0.	135.38
2618	2.7205	-3.4786	0.	133.47
2619	3.9589	0.70442	0.	126.97
2620	3.7177	0.44336	0.	129.79
2621	3.7351	0.92249	0.	129.01
2622	2.7743	-0.58995	0.	130.32
2623	3.0019	-0.33363	0.	131.13
2624	2.5454	-0.37115	0.	130.46
2625	2.87	-2.4057	0.	133.29
2626	2.7753	-1.9469	0.	131.5
2627	2.9543	-2.1772	0.	132.86
2628	2.5125	-2.2762	0.	131.87
2629	3.2733	-2.6638	0.	134.54
2630	2.7707	-2.719	0.	134.18
2631	3.0985	-2.4107	0.	133.89
2632	3.789	-3.0032	0.	132.75
2633	3.552	-2.9011	0.	133.83
2634	4.0693	-3.1588	0.	130.75
2635	4.3394	-3.4131	0.	127.73
2636	4.268	-3.6624	0.	127.92
2637	3.064	-6.2107	0.	130.78
2638	3.2461	-6.4659	0.	130.14
2639	2.9833	-6.7106	0.	129.76
2640	1.9606	5.7502	0.	127.45
2641	1.7093	5.5031	0.	127.61
2642	1.9145	4.2714	0.	129.2
2643	1.6819	4.514	0.	128.79
2644	-3.0003	6.7496	0.	127.36
2645	-3.0002	7.2498	0.	127.24
2646	-3.2502	6.9997	0.	127.83
2647	-2.7503	6.9997	0.	127.26
2648	-3.0009	5.7492	0.	126.38
2649	-3.2512	5.4989	0.	126.59
2650	-2.751	5.4992	0.	126.02
2651	-3.0013	5.249	0.	126.43
2652	-5.228	2.9368	0.	126.21
2653	-5.5896	2.686	0.	125.46
2654	-5.4927	3.1796	0.	124.09
2655	2.2355	6.9948	0.	126.69
2656	1.983	6.7465	0.	127.08
2657	1.9897	7.2468	0.	126.68
2658	1.7388	6.9975	0.	127.1
2659	2.7321	6.9908	0.	126.2
2660	2.4869	7.2441	0.	126.28
2661	3.2293	6.9857	0.	125.66
2662	2.9845	7.2402	0.	125.8
2663	3.7272	6.9797	0.	125.12
2664	3.4825	7.2356	0.	125.28
2665	4.2255	6.9733	0.	124.69
2666	3.9811	7.2306	0.	124.81
2667	4.7245	6.9673	0.	124.53
2668	4.4799	7.2254	0.	124.5
2669	2.1459	1.5716	0.	130.4
2670	2.399	1.829	0.	130.51
2671	2.616	1.587	0.	130.89
2672	2.634	3.3427	0.	129.25
2673	2.9726	3.5441	0.	129.09
2674	2.7917	3.8022	0.	129.3
2675	2.2397	3.0812	0.	129.96
2676	2.4854	2.8518	0.	129.57
2677	2.7772	3.0841	0.	128.83
2678	7.007	4.2607	0.	124.42
2679	6.9859	4.7352	0.	124.36
2680	6.7368	4.4713	0.	125.25
2681	7.2476	4.4983	0.	124.19
2682	6.7906	4.0025	0.	124.98
2683	7.2529	4.0167	0.	123.96
2684	6.9415	3.7838	0.	123.89
2685	-3.6974	1.4917	0.	127.81
2686	-3.9394	1.7409	0.	128.3
2687	-3.9706	2.7442	0.	130.65
2688	-4.2263	2.9905	0.	130.33
2689	-3.7346	2.9966	0.	131.47
2690	-3.9884	3.2449	0.	131.31
2691	1.9641	2.8006	0.	130.63
2692	1.9438	3.2905	0.	130.46
2693	1.7157	3.0349	0.	131.14
2694	1.9223	1.811	0.	130.36
2695	1.6716	1.5552	0.	130.17
2696	1.8707	0.32283	0.	130.1
2697	1.6417	0.56122	0.	130.03
2698	1.8613	-0.67365	0.	129.88
2699	1.6301	-0.92324	0.	129.63
2700	3.0101	-3.6731	0.	132.05
2701	3.311	-3.8695	0.	130.79
2702	-3.7076	-7.0348	0.	128.23
2703	-3.2196	-7.0258	0.	128.34
2704	-3.4717	-7.2712	0.	128.09
2705	-3.4553	-6.7983	0.	128.7
2706	-4.9931	-1.2164	0.	130.01
2707	-4.734	-0.97756	0.	131.06
2708	-5.2059	-0.97296	0.	129.94
2709	-4.9588	-0.72894	0.	130.07
2710	-6.7693	-1.2193	0.	118.52
2711	-6.8852	-1.6755	0.	119.01
2712	-6.5859	-1.4548	0.	119.99
2713	-6.9776	-1.4571	0.	118.48
2714	-5.2461	-1.4579	0.	128.56
2715	-4.769	-1.4609	0.	130.54
2716	-5.0293	-1.6987	0.	129.22
2717	-4.8695	-2.907	0.	131.3
2718	-4.6503	-3.1574	0.	133.27
2719	-4.6123	-2.6665	0.	132.45
2720	-4.3845	-2.9025	0.	134.56
2721	-3.9368	-6.8092	0.	129.3
2722	-3.9644	-7.2753	0.	128.11
2723	-4.1965	-7.0382	0.	127.82
2724	-3.9108	-6.3514	0.	131.62
2725	-3.6845	-6.5728	0.	129.76
2726	-4.1568	-6.5784	0.	130.61
2727	3.721	-4.5402	0.	129.86
2728	3.5124	-4.8053	0.	130.9
2729	3.2415	-4.5922	0.	130.43
2730	3.4268	-4.3342	0.	130.14
2731	1.864	-0.17269	0.	130.17
2732	1.6303	-0.42886	0.	130.33
2733	2.0897	-0.40518	0.	130.19
2734	1.6353	6.4722e-002	0.	130.28
2735	1.9476	2.3069	0.	130.6
2736	2.1754	2.0684	0.	130.47
2737	1.6928	2.0487	0.	130.66
2738	2.2099	2.5712	0.	130.25
2739	1.7119	2.5434	0.	131.11
2740	-3.7175	2.4953	0.	130.75
2741	-3.9508	2.2426	0.	129.62
2742	2.4376	2.3327	0.	130.11
2743	2.7048	2.5799	0.	129.42
2744	2.6541	2.0814	0.	130.54
2745	4.9676	6.7044	0.	124.58
2746	4.9794	7.2211	0.	124.48
2747	5.2252	6.9619	0.	124.79
2748	5.212	6.4417	0.	125.02
2749	4.9528	6.1802	0.	124.44
2750	7.2324	4.9849	0.	123.77
2751	6.9709	5.2201	0.	123.81
2752	6.7103	4.9505	0.	124.72
2753	-4.7194	2.9762	0.	128.53
2754	-4.9815	3.2183	0.	127.19
2755	-4.9318	2.7187	0.	127.84
2756	-4.483	3.2364	0.	129.83
2757	-2.7513	4.4993	0.	127.26
2758	-3.0016	4.749	0.	127.3
2759	-3.2521	4.4985	0.	128.76
2760	-3.0012	4.2492	0.	128.69
2761	-3.0006	6.2494	0.	126.93
2762	-2.7504	6.4996	0.	127.14
2763	-3.2504	6.4995	0.	127.76
2764	-2.7507	5.9994	0.	126.46
2765	-3.2507	5.9991	0.	126.99
2766	1.9143	3.7804	0.	129.99
2767	1.683	3.527	0.	130.73
2768	1.6736	4.0213	0.	129.79
2769	1.973	6.2473	0.	127.3
2770	1.7215	5.9992	0.	127.5
2771	1.7314	6.4978	0.	127.48
2772	3.1451	-5.7567	0.	131.98
2773	2.9249	-5.5494	0.	132.92
2774	3.1136	-5.3038	0.	132.3
2775	3.3612	-5.5269	0.	132.39
2776	3.3624	-5.9934	0.	131.43
2777	3.7695	-2.7904	0.	133.68
2778	4.2672	-2.9007	0.	130.01
2779	4.0441	-2.6106	0.	134.48
2780	3.5761	-2.4685	0.	135.39
2781	2.8098	-1.5038	0.	130.27
2782	3.0272	-1.7284	0.	131.08
2783	2.7854	-1.0569	0.	129.87
2784	3.003	-0.81204	0.	130.21
2785	3.0162	-1.2767	0.	129.55
2786	4.4324	0.74704	0.	122.74
2787	4.9097	0.79928	0.	120.24
2788	4.6618	0.53132	0.	120.18
2789	4.6805	1.0042	0.	120.28
2790	4.1883	0.48317	0.	125.65
2791	4.207	0.95843	0.	124.78
2792	2.3111	-2.8751	0.	133.17
2793	2.4131	-2.5895	0.	132.77
2794	-4.1226	-6.126	0.	134.
2795	-3.8988	-5.8954	0.	133.58
2796	-3.6701	-6.1152	0.	132.01
2797	3.1143	4.4968	0.	129.25
2798	2.8503	4.2722	0.	129.29
2799	6.5204	4.2132	0.	125.8
2800	6.325	3.9121	0.	126.77
2801	6.7148	3.7598	0.	124.57
2802	6.1828	4.3826	0.	126.12
2803	6.4612	4.6866	0.	125.61
2804	-5.9157	-1.2206	0.	126.26
2805	-6.1619	-1.4646	0.	123.06
2806	-5.9709	-1.7045	0.	123.33
2807	-5.7109	-1.4604	0.	126.09
2808	-4.4252	0.74304	0.	126.87
2809	-4.6586	0.99281	0.	126.81
2810	-4.4389	0.24802	0.	127.69
2811	-4.204	-2.4897e-003	0.	128.67
2812	-4.6867	4.8907e-003	0.	128.12
2813	-4.4554	-0.24527	0.	129.47
2814	-4.6731	0.49883	0.	126.55
2815	7.3165	1.9903	0.	121.86
2816	7.8024	2.0185	0.	122.72
2817	7.5805	1.7716	0.	121.38
2818	7.5379	2.2582	0.	121.85
2819	7.4617	3.2605	0.	122.42
2820	7.7322	3.01	0.	122.58
2821	7.2166	3.0001	0.	121.82
2822	7.4959	2.7575	0.	122.
2823	7.4687	3.7594	0.	123.17
2824	7.714	3.5091	0.	123.05
2825	7.1573	3.5264	0.	123.11
2826	7.4941	4.7481	0.	123.61
2827	7.7485	4.5013	0.	123.9
2828	7.4935	4.2544	0.	123.73
2829	7.4858	5.2406	0.	122.76
2830	7.7426	4.9964	0.	123.56
2831	-3.7285	-7.5117	0.	127.98
2832	-3.983	-7.7558	0.	128.35
2833	-4.2279	-7.5138	0.	127.91
2834	2.1254	-6.0778	0.	129.26
2835	2.3213	-5.8456	0.	131.91
2836	2.1592	-3.1471	0.	134.36
2837	1.9858	-3.2911	0.	133.26
2838	2.252	-3.5528	0.	134.98
2839	-2.9748	1.245	0.	128.51
2840	-2.7317	0.99571	0.	130.64
2841	-3.2171	0.99284	0.	127.59
2842	-2.9768	0.74363	0.	127.55
2843	-2.0006	5.2497	0.	126.23
2844	-1.7504	4.9998	0.	128.28
2845	-2.0006	4.7498	0.	126.07
2846	-2.2508	4.9996	0.	126.16
2847	-2.9719	-6.7828	0.	128.38
2848	-2.7316	-7.0167	0.	130.6
2849	-2.9805	-7.2654	0.	128.45
2850	4.2143	-4.4889	0.	128.74
2851	3.9911	-4.7618	0.	130.59
2852	1.4916	-7.768	0.	128.5
2853	1.739	-7.5196	0.	127.94
2854	1.4826	-7.2779	0.	127.24
2855	1.2393	-7.5215	0.	128.14
2856	-6.2566	3.9627	0.	119.09
2857	-6.0062	4.2258	0.	119.09
2858	-5.7567	3.9699	0.	120.31
2859	-6.0046	3.7121	0.	119.67
2860	-4.5607	-6.1202	0.	136.35
2861	-4.3686	-6.3531	0.	133.01
2862	-4.338	-5.9072	0.	136.27
2863	-4.7555	-5.9119	0.	139.06
2864	-4.9899	-6.0209	0.	136.47
2865	-4.8166	-6.3248	0.	133.85
2866	-3.718	-7.6147e-003	0.	128.66
2867	-3.9701	-0.25278	0.	130.24
2868	1.8839	-5.8751	0.	129.21
2869	1.6657	-6.072	0.	126.37
2870	2.4997	-5.5946	0.	133.31
2871	2.6764	-5.3438	0.	134.04
2872	1.446	-6.3023	0.	125.27
2873	1.4676	-6.7907	0.	126.24
2874	1.2158	-6.5465	0.	126.13
2875	-3.4848	-7.7572	0.	128.5
2876	-3.2325	-7.5108	0.	128.2
2877	-4.2488	-0.98582	0.	132.67
2878	-4.479	-0.73584	0.	131.12
2879	-4.5099	-1.2221	0.	131.58
2880	0.595	-2.2806	0.	123.44
2881	0.51341	-1.7415	0.	124.71
2882	0.28654	-2.0005	0.	123.59
2883	0.77364	-1.9745	0.	124.4
2884	1.4063	0.30312	0.	130.2
2885	1.1749	0.54243	0.	130.43
2886	-3.4815	2.7477	0.	131.57
2887	-3.2404	2.9989	0.	132.07
2888	-3.492	3.2482	0.	131.79
2889	7.05	2.2223	0.	121.93
2890	7.0991	1.7184	0.	121.03
2891	6.8338	1.9455	0.	123.57
2892	3.5142	1.1442	0.	129.97
2893	3.2973	1.3678	0.	131.4
2894	5.155	1.0619	0.	119.82
2895	5.4022	1.3206	0.	122.02
2896	5.1654	1.525	0.	118.42
2897	4.9257	1.2668	0.	119.86
2898	5.3954	0.85199	0.	122.51
2899	5.1431	0.58961	0.	118.6
2900	-3.2501	7.4999	0.	127.18
2901	-3.5001	7.2498	0.	127.78
2902	-3.7501	7.4999	0.	127.37
2903	-3.5001	7.7499	0.	126.86
2904	-2.7502	7.4999	0.	126.78
2905	-3.0001	7.7499	0.	126.67
2906	-2.2503	7.4999	0.	126.13
2907	-2.5003	7.2498	0.	126.81
2908	-2.5002	7.7499	0.	126.26
2909	1.7431	7.4981	0.	126.48
2910	1.4922	7.2487	0.	126.9
2911	1.2448	7.4993	0.	126.25
2912	1.4949	7.749	0.	126.17
2913	2.241	7.4961	0.	126.27
2914	1.9933	7.7478	0.	126.18
2915	2.7392	7.4935	0.	125.88
2916	2.4918	7.7458	0.	125.92
2917	3.2377	7.4902	0.	125.42
2918	2.9906	7.7433	0.	125.54
2919	3.7365	7.4866	0.	124.97
2920	3.4896	7.7404	0.	125.13
2921	4.2355	7.4828	0.	124.62
2922	3.989	7.7376	0.	124.77
2923	4.7348	7.4792	0.	124.46
2924	4.4883	7.7343	0.	124.55
2925	5.235	7.4763	0.	124.62
2926	4.9879	7.7315	0.	124.58
2927	5.4808	7.2172	0.	124.93
2928	5.7369	7.4756	0.	125.02
2929	5.4885	7.7291	0.	125.03
2930	7.2243	5.4757	0.	122.79
2931	7.4818	5.7365	0.	120.88
2932	7.7365	5.4914	0.	122.67
2933	-4.245	3.4908	0.	130.82
2934	-3.9989	3.745	0.	131.84
2935	-3.7458	3.4965	0.	131.63
2936	-3.7519	3.9966	0.	131.52
2937	-3.502	4.248	0.	130.26
2938	-3.2511	3.9987	0.	130.19
2939	-3.4988	3.7481	0.	131.31
2940	-3.5003	6.7496	0.	128.22
2941	-3.7501	6.9997	0.	128.75
2942	-3.5017	5.2484	0.	127.45
2943	-3.501	5.7488	0.	127.2
2944	-3.7513	5.4984	0.	127.41
2945	-4.	7.7499	0.	126.67
2946	-4.0001	7.2498	0.	128.36
2947	-4.25	7.4999	0.	126.94
2948	-1.7504	7.4999	0.	124.76
2949	-2.0003	7.7499	0.	125.43
2950	-2.0004	7.2499	0.	126.21
2951	-2.5008	5.7494	0.	126.09
2952	-2.2507	5.4996	0.	125.97
2953	-2.5009	5.2494	0.	125.9
2954	-2.5004	6.7497	0.	127.04
2955	-2.2504	6.9998	0.	126.88
2956	1.4409	4.2639	0.	129.38
2957	1.2034	4.5095	0.	128.9
2958	1.4635	2.7777	0.	131.61
2959	1.4549	3.2713	0.	131.4
2960	1.2167	3.0185	0.	131.9
2961	1.4872	6.7488	0.	127.51
2962	1.2417	6.9991	0.	127.3
2963	1.4702	5.752	0.	127.65
2964	1.2209	5.5028	0.	127.88
2965	-0.25156	7.5001	0.	120.66
2966	-0.50138	7.2501	0.	118.16
2967	-0.75098	7.5	0.	120.53
2968	-0.50118	7.7501	0.	120.87
2969	0.99435	7.2497	0.	126.65
2970	0.74615	7.4999	0.	125.08
2971	0.9961	7.7497	0.	125.6
2972	3.3172	-5.0588	0.	131.85
2973	3.5648	-5.2819	0.	131.94
2974	3.7825	-5.0269	0.	131.63
2975	3.506	-6.7403	0.	130.07
2976	3.5445	-6.2486	0.	130.78
2977	3.7657	-6.4964	0.	130.07
2978	2.9921	-7.2375	0.	129.57
2979	3.2432	-6.985	0.	129.69
2980	3.2459	-7.4938	0.	130.15
2981	2.9965	-7.7464	0.	130.
2982	2.7435	-7.4999	0.	129.3
2983	-3.9765	-4.5238	0.	130.39
2984	-3.7654	-4.2797	0.	129.18
2985	-4.2988	-4.3235	0.	131.14
2986	-4.0929	-4.0694	0.	131.43
2987	-3.6759	-5.6615	0.	133.46
2988	-3.9046	-5.4387	0.	133.56
2989	-4.1143	-5.6766	0.	135.85
2990	4.5373	-3.155	0.	126.97
2991	4.4754	-3.6503	0.	126.75
2992	4.7769	-3.429	0.	125.73
2993	3.2062	-1.9586	0.	132.44
2994	3.4013	-2.2154	0.	134.74
2995	3.2306	-0.55573	0.	131.01
2996	3.4623	-0.29938	0.	132.5
2997	3.9472	0.22211	0.	128.46
2998	3.7031	-4.1089e-002	0.	132.
2999	1.7528	-2.3769	0.	127.91
3000	1.4091	-2.2761	0.	124.76
3001	-3.4438	-6.3366	0.	130.16
3002	-3.2075	-6.5553	0.	128.74
3003	-3.9168	-4.9803	0.	131.58
3004	-4.1756	-4.7743	0.	130.99
3005	-3.6356	-4.7448	0.	131.07
3006	3.2404	3.7585	0.	129.55
3007	3.1157	3.2855	0.	128.67
3008	3.4279	3.5014	0.	129.5
3009	3.377	4.7291	0.	128.69
3010	3.6449	4.9579	0.	127.47
3011	4.1735	5.4314	0.	124.92
3012	3.9078	5.1939	0.	126.3
3013	3.9358	5.7009	0.	125.51
3014	-5.5342	1.9931	0.	128.26
3015	-5.3309	1.734	0.	128.85
3016	-5.8833	2.5167	0.	124.88
3017	-5.7208	2.2384	0.	126.97
3018	-6.1279	2.3435	0.	124.73
3019	-6.2771	2.7064	0.	122.56
3020	-5.6637	-0.97472	0.	128.64
3021	-5.4589	-1.2145	0.	128.5
3022	-5.4245	-0.72555	0.	129.78
3023	-6.5381	-0.99233	0.	121.46
3024	-6.9595	-0.99822	0.	116.34
3025	-6.7297	-0.77744	0.	119.31
3026	-4.8889	1.2405	0.	127.38
3027	-5.1119	1.4899	0.	128.54
3028	-4.9351	-0.23706	0.	128.79
3029	-4.7038	-0.48722	0.	130.14
3030	-5.1773	-0.48153	0.	129.91
3031	-4.9209	0.2557	0.	126.98
3032	-5.1668	1.1638e-002	0.	127.58
3033	-4.9065	0.7486	0.	126.49
3034	-5.1588	0.50591	0.	126.14
3035	-5.1381	0.99919	0.	126.92
3036	-6.1084	-0.98388	0.	126.1
3037	-6.3546	-1.2279	0.	122.92
3038	-6.3153	-0.75161	0.	126.19
3039	-5.8795	-0.7327	0.	129.64
3040	-5.9654	2.0653	0.	126.81
3041	-5.777	1.7706	0.	129.52
3042	-6.3937	2.2012	0.	123.68
3043	-6.2155	1.8659	0.	126.98
3044	5.404	5.059	0.	122.91
3045	5.1745	5.3713	0.	123.45
3046	5.6782	5.3703	0.	124.42
3047	5.436	5.633	0.	124.37
3048	5.5953	4.2399	0.	123.91
3049	5.8987	4.5809	0.	125.63
3050	5.9874	4.0815	0.	127.07
3051	3.3236	4.2411	0.	129.71
3052	3.6001	4.4627	0.	129.36
3053	3.5341	3.9765	0.	130.17
3054	3.0595	4.0166	0.	129.76
3055	-3.4655	-5.4318	0.	132.89
3056	-3.6942	-5.209	0.	133.
3057	-3.2709	-5.1932	0.	132.48
3058	-3.4131	-4.9735	0.	132.46
3059	-3.4471	-5.8812	0.	131.9
3060	-3.2265	-5.638	0.	132.24
3061	-3.206	-6.0916	0.	130.13
3062	1.9804	-2.7645	0.	130.65
3063	1.9216	-3.0954	0.	131.24
3064	1.6565	-2.6871	0.	126.2
3065	2.0824	-2.4789	0.	130.23
3066	4.4176	0.26745	0.	123.11
3067	4.6414	4.8614e-002	0.	119.72
3068	4.8951	0.32165	0.	118.53
3069	4.1729	-1.9763e-003	0.	128.87
3070	3.2338	-1.0319	0.	129.88
3071	3.4572	-0.7851	0.	131.03
3072	3.4579	-1.2686	0.	129.75
3073	3.2336	-1.5013	0.	130.36
3074	4.5399	-2.6481	0.	129.16
3075	4.5789	-2.0941	0.	128.51
3076	4.7819	-2.4453	0.	124.67
3077	4.3167	-2.3581	0.	133.6
3078	4.7731	-2.9352	0.	125.69
3079	-4.1377	-5.2271	0.	133.12
3080	3.4971	-7.2413	0.	130.27
3081	3.7503	-6.9936	0.	130.44
3082	3.4976	-7.7452	0.	130.72
3083	3.748	-7.4953	0.	131.23
3084	3.8074	-6.0061	0.	131.86
3085	3.5785	-5.7636	0.	131.83
3086	-2.3202e-003	7.2501	0.	120.75
3087	-1.7945e-003	7.7501	0.	122.01
3088	0.2474	7.5001	0.	122.82
3089	1.4799	6.2497	0.	127.68
3090	1.2296	6.0006	0.	127.99
3091	1.2366	6.4995	0.	128.06
3092	1.1998	4.0126	0.	130.07
3093	1.4423	3.768	0.	130.53
3094	-2.5006	6.2496	0.	126.67
3095	-2.2505	6.4997	0.	127.18
3096	-2.2506	5.9996	0.	126.58
3097	-1.5005	7.75	0.	123.83
3098	-1.5005	7.2499	0.	124.32
3099	-1.2507	7.5	0.	122.5
3100	-5.25	7.5	0.	123.93
3101	-4.75	7.4999	0.	125.55
3102	-5.	7.75	0.	124.14
3103	-5.	7.2499	0.	125.41
3104	-3.5006	6.2492	0.	127.82
3105	-3.7504	6.4994	0.	129.29
3106	-3.7522	4.9976	0.	128.89
3107	-3.2518	4.9986	0.	127.29
3108	-3.5023	4.7481	0.	128.74
3109	-4.4989	3.738	0.	130.77
3110	-4.7451	3.4786	0.	128.5
3111	6.9697	5.7175	0.	123.05
3112	6.7066	5.4454	0.	124.27
3113	5.4697	6.6993	0.	125.24
3114	5.728	6.9602	0.	125.8
3115	5.7158	6.4414	0.	126.29
3116	5.4548	6.173	0.	125.18
3117	6.6453	1.1903	0.	123.32
3118	6.8771	1.449	0.	121.95
3119	6.6119	1.6761	0.	124.5
3120	6.3828	1.4103	0.	125.36
3121	3.7622	1.3947	0.	130.04
3122	3.9832	1.1765	0.	126.83
3123	2.9966	2.8122	0.	128.67
3124	3.1913	2.5658	0.	129.4
3125	2.9213	2.3286	0.	129.85
3126	6.7851	2.4447	0.	122.73
3127	6.992	2.7328	0.	121.74
3128	7.2714	2.4902	0.	121.92
3129	5.6426	1.1107	0.	124.69
3130	5.642	1.5758	0.	124.4
3131	5.8894	1.3673	0.	125.64
3132	-3.2303	2.498	0.	131.86
3133	-3.4688	2.2461	0.	130.44
3134	1.4571	2.2853	0.	131.17
3135	1.2079	2.0314	0.	131.07
3136	1.4422	1.7929	0.	130.47
3137	1.2175	2.5248	0.	131.85
3138	1.4016	-0.19144	0.	130.44
3139	1.3991	-0.67845	0.	130.08
3140	1.1658	-0.44802	0.	131.04
3141	1.1706	4.457e-002	0.	130.9
3142	-5.6093e-003	-1.2413	0.	123.08
3143	0.24466	-1.4872	0.	124.05
3144	1.7795e-002	-1.7462	0.	122.93
3145	-0.24411	-1.4913	0.	121.15
3146	3.0463	-4.8457	0.	131.38
3147	2.7762	-4.6427	0.	130.74
3148	2.9496	-4.3876	0.	130.15
3149	-4.4165	-6.8073	0.	129.14
3150	-4.6864	-7.0241	0.	127.19
3151	-4.46	-7.2767	0.	127.62
3152	-4.6245	-6.5578	0.	130.49
3153	-5.3457	-2.892	0.	126.86
3154	-5.0952	-2.6618	0.	129.09
3155	-5.1397	-3.1586	0.	129.7
3156	-6.9868	-2.1753	0.	120.12
3157	-7.2327	-1.9699	0.	120.86
3158	-7.0736	-1.6891	0.	118.93
3159	-6.7276	-1.9276	0.	119.5
3160	-6.4283	-1.7069	0.	120.48
3161	-5.5456	-2.1761	0.	124.8
3162	-5.7653	-1.9419	0.	123.7
3163	-5.5053	-1.6978	0.	126.48
3164	-5.2886	-1.9386	0.	127.13
3165	-4.3165	-1.9467	0.	131.4
3166	-4.5805	-2.1833	0.	131.31
3167	-4.5454	-1.7034	0.	131.15
3168	-4.8057	-1.9411	0.	129.82
3169	0.73276	5.5016	0.	129.66
3170	0.97318	5.254	0.	128.51
3171	0.98027	5.7514	0.	128.22
3172	-0.77652	-4.4401	0.	118.43
3173	-0.64992	-4.0126	0.	121.01
3174	-0.94419	-4.2228	0.	125.21
3175	-0.46633	-4.2268	0.	118.64
3176	2.0798	-5.6429	0.	131.84
3177	2.252	-5.4049	0.	135.54
3178	1.8361	-5.4699	0.	131.77
3179	1.6449	-5.596	0.	126.48
3180	-6.5429	2.5641	0.	121.51
3181	-6.7446	2.8772	0.	121.56
3182	-6.4896	3.1327	0.	120.64
3183	-6.6459	2.0192	0.	121.46
3184	-6.8387	2.3378	0.	121.17
3185	-3.4803	-0.2604	0.	129.82
3186	-3.2295	-9.1481e-003	0.	127.81
3187	-3.4695	0.24067	0.	127.72
3188	-3.2391	-0.51279	0.	129.57
3189	-3.4954	-0.75906	0.	133.34
3190	-3.7324	-0.50557	0.	131.4
3191	8.0308	2.2712	0.	123.39
3192	8.29	2.0241	0.	124.71
3193	8.0635	1.7871	0.	124.1
3194	8.0027	2.7634	0.	123.1
3195	8.2641	2.5145	0.	124.
3196	7.7664	2.5109	0.	122.53
3197	8.2442	3.0089	0.	123.74
3198	7.9845	3.2585	0.	123.21
3199	7.9969	4.7496	0.	123.86
3200	8.2485	4.5003	0.	124.34
3201	7.9938	4.252	0.	123.87
3202	8.2467	4.9989	0.	124.33
3203	7.9933	5.2472	0.	123.48
3204	-6.7538	3.9603	0.	121.33
3205	-6.5046	4.2192	0.	118.68
3206	-6.5032	3.6894	0.	119.65
3207	6.3803	-2.0808	0.	121.72
3208	6.8429	-2.0866	0.	112.8
3209	6.5783	-2.3178	0.	115.42
3210	6.6292	-1.8721	0.	117.41
3211	6.75	-8.	0.	118.57
3212	6.5	-8.25	0.	117.38
3213	6.5	-7.75	0.	114.91
3214	6.25	-8.	0.	116.14
3215	2.7476	-8.0014	0.	129.99
3216	2.9987	-8.2493	0.	130.48
3217	3.2482	-7.9977	0.	130.56
3218	2.4982	-8.2536	0.	130.12
3219	2.2465	-8.0073	0.	129.49
3220	2.4946	-7.755	0.	129.29
3221	1.4963	-8.2609	0.	129.85
3222	1.7452	-8.0121	0.	129.24
3223	1.2448	-8.0134	0.	129.59
3224	8.0177	-1.2127	0.	128.92
3225	8.2695	-0.95917	0.	131.92
3226	8.1203	-0.68141	0.	129.56
3227	7.7707	-1.038	0.	122.19
3228	8.0275	-1.7549	0.	124.31
3229	8.2721	-1.4949	0.	128.39
3230	7.7958	-1.5369	0.	119.34
3231	5.9841	7.2186	0.	125.89
3232	5.9905	7.73	0.	125.97
3233	6.2406	7.48	0.	127.16
3234	-5.75	8.	0.	124.69
3235	-6.	8.25	0.	125.85
3236	-6.	7.75	0.	125.24
3237	-6.25	8.	0.	130.19
3238	-5.5	8.25	0.	123.51
3239	-5.5	7.75	0.	123.32
3240	-5.25	8.	0.	123.54
3241	-3.75	7.9999	0.	126.16
3242	-4.	8.25	0.	125.6
3243	-4.25	7.9999	0.	125.45
3244	-3.2501	7.9999	0.	126.35
3245	-3.5	8.25	0.	126.04
3246	-2.7501	7.9999	0.	126.14
3247	-3.0001	8.25	0.	126.07
3248	-2.2502	8.	0.	125.55
3249	-2.5001	8.25	0.	125.74
3250	-1.7504	8.	0.	124.5
3251	-2.0002	8.25	0.	125.05
3252	-1.5004	8.25	0.	124.
3253	-1.2506	8.	0.	123.15
3254	1.9955	8.2486	0.	125.72
3255	2.2441	7.9974	0.	125.83
3256	1.7452	7.9987	0.	125.87
3257	3.9937	8.2425	0.	124.84
3258	3.7421	7.9915	0.	124.93
3259	4.2417	7.9892	0.	124.7
3260	5.7421	7.9836	0.	125.98
3261	5.4935	8.237	0.	125.62
3262	5.2413	7.9843	0.	124.99
3263	4.7192	-4.4673	0.	127.1
3264	4.4827	-4.7257	0.	129.32
3265	4.4342	-4.1825	0.	127.45
3266	-3.7542	-0.99904	0.	134.52
3267	-4.0201	-1.2324	0.	133.34
3268	-3.9912	-0.74554	0.	132.59
3269	-6.9057	1.8201	0.	117.75
3270	-6.4678	1.6839	0.	124.76
3271	-6.7189	1.494	0.	121.33
3272	-2.9698	-6.3103	0.	128.69
3273	-2.7265	-6.5338	0.	129.31
3274	-7.2294	-2.449	0.	122.5
3275	-7.4754	-2.2436	0.	123.25
3276	-7.4815	-2.6865	0.	125.91
3277	-7.7168	-2.3767	0.	125.13
3278	-0.21844	-2.4995	0.	125.38
3279	0.3597	-2.5232	0.	124.14
3280	5.124e-002	-2.243	0.	124.3
3281	3.3779e-002	-2.7109	0.	127.29
3282	3.9289	-0.26517	0.	132.35
3283	3.689	-0.52875	0.	132.49
3284	4.8406	-1.9668	0.	116.89
3285	4.363	-1.7984	0.	134.25
3286	-3.2412	-8.0018	0.	129.24
3287	-3.4928	-8.2496	0.	129.46
3288	-3.7393	-8.0014	0.	128.88
3289	-5.2289	-7.9896	0.	128.66
3290	-4.9892	-8.2397	0.	129.1
3291	-4.7405	-7.991	0.	129.39
3292	-4.9957	-7.7412	0.	128.12
3293	-4.5329	-5.699	0.	138.98
3294	-4.3474	-5.4651	0.	135.39
3295	0.99117	6.7498	0.	127.85
3296	0.74435	6.9999	0.	126.41
3297	0.96223	4.2582	0.	129.59
3298	0.72262	4.5057	0.	129.94
3299	0.96632	4.757	0.	128.95
3300	-2.0005	5.7497	0.	126.46
3301	-1.7504	5.4998	0.	127.59
3302	-4.2528	3.9922	0.	131.79
3303	-4.003	4.2455	0.	131.98
3304	7.2272	5.9783	0.	121.11
3305	7.7358	5.9906	0.	120.96
3306	7.4848	6.2381	0.	116.36
3307	-0.4661	-2.729	0.	127.57
3308	-0.46494	-3.1585	0.	129.43
3309	-0.6207	-2.9372	0.	129.96
3310	-0.21387	-2.9405	0.	129.42
3311	7.6756	0.89933	0.	120.33
3312	7.8983	0.66156	0.	125.23
3313	7.6403	0.50987	0.	116.06
3314	7.449	0.82052	0.	116.94
3315	7.8891	1.0889	0.	123.64
3316	7.634	1.3151	0.	120.68
3317	7.4387	1.0189	0.	117.1
3318	5.8925	0.89608	0.	127.5
3319	5.6374	0.63721	0.	123.66
3320	4.4744	1.6815	0.	121.21
3321	4.7146	1.933	0.	114.27
3322	4.9376	1.7287	0.	117.11
3323	4.6979	1.4705	0.	118.64
3324	3.3365	1.8452	0.	131.83
3325	3.5453	1.6183	0.	131.47
3326	3.0816	1.6002	0.	131.53
3327	6.3902	3.1501	0.	123.73
3328	6.0683	3.3193	0.	129.96
3329	6.2013	3.6184	0.	126.13
3330	6.5911	3.466	0.	123.97
3331	-7.3874	-1.0559	0.	117.01
3332	-7.145	-0.73255	0.	112.17
3333	-7.1678	-1.2361	0.	116.32
3334	-7.9436	-4.6471	0.	128.51
3335	-8.2054	-4.9133	0.	128.36
3336	-7.692	-4.8826	0.	132.89
3337	-7.9524	-5.1484	0.	131.17
3338	-7.9649	-4.1505	0.	128.9
3339	-8.2041	-4.4138	0.	128.43
3340	-7.6484	-4.3688	0.	129.94
3341	-7.9969	-3.6494	0.	128.92
3342	-8.239	-3.9137	0.	128.59
3343	-7.7564	-3.8857	0.	128.72
3344	-7.9986	-3.1334	0.	128.46
3345	-7.756	-3.3989	0.	128.64
3346	-8.2492	-3.4031	0.	128.86
3347	-8.2426	-2.8796	0.	128.21
3348	-7.7452	-2.8946	0.	127.72
3349	-7.9805	-2.5848	0.	126.96
3350	-0.2585	-0.99029	0.	121.06
3351	-0.75019	-0.98991	0.	118.49
3352	-0.50478	-0.74262	0.	116.84
3353	-0.497	-1.2403	0.	119.13
3354	-2.9766	1.7466	0.	129.83
3355	-2.7311	1.497	0.	130.7
3356	-3.2161	1.4945	0.	128.41
3357	-2.7445	2.9999	0.	131.46
3358	-2.9892	2.7493	0.	132.36
3359	-2.9953	3.2496	0.	131.6
3360	-7.0063	3.1738	0.	121.51
3361	-7.0018	3.7003	0.	122.27
3362	-7.2516	3.4536	0.	124.19
3363	-6.7512	3.4293	0.	120.59
3364	1.2002	-6.0597	0.	124.87
3365	1.4266	-5.7929	0.	123.61
3366	-0.89929	-4.8689	0.	118.48
3367	-0.58727	-4.657	0.	120.45
3368	-1.1021	-4.6421	0.	118.69
3369	-0.68427	-5.0939	0.	120.07
3370	-0.9721	-5.3105	0.	117.56
3371	-1.2484	-5.0655	0.	117.63
3372	-1.0245	-2.1938	0.	120.17
3373	-1.2361	-1.9472	0.	119.57
3374	-0.98841	-1.7183	0.	118.55
3375	-0.73924	-1.9762	0.	119.55
3376	-7.0985	2.1387	0.	117.53
3377	-7.3577	1.9321	0.	117.05
3378	-7.1497	1.6427	0.	111.57
3379	-3.8769	-3.3469	0.	136.64
3380	-4.4097	-3.3871	0.	134.42
3381	-4.1511	-3.6055	0.	133.87
3382	-4.1438	-3.1322	0.	135.71
3383	-0.78172	-2.4704	0.	123.84
3384	-0.66136	-2.7205	0.	127.8
3385	-0.49649	-2.2528	0.	123.23
3386	-1.1431	-2.6524	0.	125.04
3387	-1.2973	-2.4018	0.	121.3
3388	-7.9014	-6.1607	0.	135.84
3389	-8.1398	-6.4371	0.	132.46
3390	-7.6197	-6.3656	0.	138.13
3391	-7.8288	-6.6953	0.	130.16
3392	-5.1666	-6.9771	0.	121.8
3393	-4.8945	-6.7745	0.	128.56
3394	-4.9661	-7.2529	0.	126.72
3395	-5.7722	-6.1369	0.	119.34
3396	-5.7332	-5.7146	0.	113.2
3397	-6.0184	-5.8988	0.	107.84
3398	-5.4765	-5.9264	0.	125.3
3399	5.9292	-2.031	0.	134.41
3400	6.0983	-2.2947	0.	128.44
3401	6.1939	-1.8452	0.	126.02
3402	5.6253	0.16131	0.	121.27
3403	5.5911	-0.30659	0.	120.01
3404	5.8906	-7.7514e-002	0.	122.59
3405	5.3652	-0.10187	0.	115.29
3406	2.0082	-5.2319	0.	135.38
3407	1.7421	-5.0776	0.	136.76
3408	1.6107	-5.4027	0.	127.81
3409	2.163	-4.9676	0.	139.35
3410	2.4286	-5.1541	0.	136.24
3411	2.1975	-4.2454	0.	128.22
3412	2.3505	-3.9876	0.	132.38
3413	2.4839	-4.4407	0.	130.97
3414	2.6573	-4.1857	0.	130.4
3415	-0.37225	-4.8821	0.	122.02
3416	-8.1307e-002	-4.6646	0.	122.14
3417	-0.27709	-4.4438	0.	120.61
3418	-0.14701	-5.1151	0.	131.18
3419	-0.44088	-5.3269	0.	120.71
3420	-7.0404	2.6509	0.	121.23
3421	-7.3098	2.4268	0.	122.66
3422	-7.2621	2.9358	0.	123.9
3423	0.72794	-6.0615	0.	127.3
3424	0.9671	-5.8245	0.	122.43
3425	0.96998	-6.304	0.	125.76
3426	0.22526	-0.98331	0.	125.81
3427	-1.611e-002	-0.74048	0.	124.26
3428	0.46302	-0.72786	0.	130.67
3429	0.47553	-1.2292	0.	126.78
3430	0.69934	-0.9627	0.	128.93
3431	0.70259	2.5474e-002	0.	132.04
3432	0.93922	0.28388	0.	131.12
3433	0.93478	-0.21201	0.	131.5
3434	0.96828	2.2709	0.	131.75
3435	0.72326	2.0175	0.	131.33
3436	0.96027	1.7775	0.	130.93
3437	0.72649	2.5126	0.	131.91
3438	0.97072	2.7656	0.	132.13
3439	-2.9885	-0.78039	0.	129.2
3440	-2.7445	-0.50241	0.	125.99
3441	-2.9882	-0.26153	0.	127.54
3442	-2.7427	-0.99011	0.	122.61
3443	-2.4988	-0.71214	0.	119.53
3444	-2.2616	-0.98994	0.	111.99
3445	-2.4487	-1.1248	0.	111.75
3446	-2.2476	3.0001	0.	127.93
3447	-1.9994	3.2502	0.	125.62
3448	-1.998	2.7502	0.	125.07
3449	-1.7499	3.0002	0.	121.44
3450	-2.4944	2.75	0.	132.2
3451	-2.4975	3.2501	0.	129.86
3452	-2.9822	2.2482	0.	131.65
3453	-2.7391	2.4994	0.	133.09
3454	-2.7343	1.9984	0.	131.36
3455	-3.2207	1.9963	0.	130.24
3456	-1.249	-0.99439	0.	121.42
3457	-1.0003	-0.74259	0.	116.95
3458	-0.99107	-1.2332	0.	118.73
3459	-7.6007	-0.86576	0.	117.2
3460	-7.8338	-1.1733	0.	123.04
3461	-7.5926	-1.3531	0.	120.46
3462	-7.8259	1.9991	0.	122.09
3463	-7.569	2.2203	0.	122.34
3464	-7.6009	1.7522	0.	118.27
3465	-8.304	2.0239	0.	124.17
3466	-8.0725	1.7872	0.	129.15
3467	-8.0492	2.2605	0.	123.19
3468	6.5044	2.6619	0.	123.27
3469	6.569	2.1678	0.	124.35
3470	6.3123	2.3763	0.	128.03
3471	6.2338	2.8584	0.	120.68
3472	6.7113	2.95	0.	122.29
3473	3.5902	2.0893	0.	133.92
3474	3.3959	2.3216	0.	130.78
3475	3.1259	2.0844	0.	131.24
3476	4.0106	1.6448	0.	128.11
3477	3.7989	1.8623	0.	133.55
3478	4.2585	1.8898	0.	126.6
3479	4.2316	1.4266	0.	124.9
3480	6.4019	0.9327	0.	126.42
3481	6.6527	0.72	0.	126.12
3482	6.9361	0.94468	0.	118.31
3483	6.1436	0.6747	0.	133.46
3484	6.1394	1.1527	0.	128.46
3485	5.8884	0.41582	0.	129.76
3486	5.3851	0.37482	0.	119.78
3487	7.3121	-2.0642	0.	110.77
3488	7.0567	-2.3093	0.	110.55
3489	7.0882	-1.8524	0.	106.41
3490	7.7874	-2.0307	0.	117.89
3491	7.5377	-2.287	0.	111.83
3492	7.5557	-1.8127	0.	112.86
3493	8.3359	0.58041	0.	132.54
3494	8.0804	0.40492	0.	135.98
3495	8.1119	0.85115	0.	128.53
3496	-0.54755	-3.5848	0.	126.71
3497	-0.36058	-3.7968	0.	124.57
3498	-0.80645	-3.7977	0.	121.45
3499	-0.71775	-3.3642	0.	132.62
3500	-0.2908	-3.3714	0.	129.57
3501	-3.0655	-2.7088	0.	137.18
3502	-3.0589	-2.5098	0.	135.03
3503	-2.772	-2.724	0.	124.7
3504	-3.3164	-3.284	0.	139.98
3505	-3.6011	-3.5583	0.	135.06
3506	-3.634	-3.0988	0.	138.81
3507	6.2336	6.968	0.	127.83
3508	5.9741	6.7023	0.	126.84
3509	6.7172	5.9571	0.	124.42
3510	6.4687	6.2025	0.	127.83
3511	6.2066	5.9299	0.	126.17
3512	6.4542	5.6849	0.	125.64
3513	6.9778	6.2256	0.	123.09
3514	-4.7546	3.9852	0.	129.26
3515	-5.0056	4.2357	0.	127.78
3516	-5.2559	3.9766	0.	124.41
3517	-5.0008	3.7257	0.	126.98
3518	-4.5039	4.2412	0.	133.13
3519	-4.003	4.7465	0.	130.86
3520	-4.2541	4.4945	0.	133.31
3521	-3.753	4.4969	0.	130.73
3522	-4.2521	4.9967	0.	131.51
3523	-4.0017	5.2476	0.	128.85
3524	-4.2505	5.9991	0.	131.02
3525	-3.7507	5.999	0.	128.34
3526	-4.0005	6.2492	0.	129.8
3527	-4.0009	5.7485	0.	128.55
3528	-4.5001	6.7497	0.	131.55
3529	-4.2501	6.9998	0.	129.3
3530	-4.5	7.2499	0.	127.91
3531	-4.75	6.9999	0.	127.77
3532	-1.2507	7.	0.	122.21
3533	-1.0008	6.75	0.	119.56
3534	-0.75119	7.	0.	117.97
3535	-1.0008	7.25	0.	120.39
3536	-1.5005	6.7499	0.	126.43
3537	-1.7505	6.9999	0.	125.77
3538	-2.0005	6.2497	0.	127.09
3539	-1.7505	6.4998	0.	127.68
3540	-2.0005	6.7498	0.	127.03
3541	-1.7504	5.9998	0.	127.02
3542	-2.0001	3.7501	0.	126.07
3543	-1.7504	4.0001	0.	125.26
3544	-2.0005	4.25	0.	125.91
3545	-2.2503	3.9999	0.	126.87
3546	-1.7503	3.5002	0.	124.71
3547	-2.2493	3.5001	0.	127.56
3548	-1.0028	2.7502	0.	110.77
3549	-1.0032	3.2504	0.	112.71
3550	-1.2522	3.0003	0.	114.34
3551	-0.75564	3.0006	0.	110.5
3552	0.96245	3.7594	0.	130.87
3553	0.72103	3.507	0.	130.88
3554	1.205	3.5148	0.	131.33
3555	0.96682	3.2619	0.	131.83
3556	0.7207	4.006	0.	129.88
3557	0.74139	6.5002	0.	128.76
3558	0.98636	6.2505	0.	128.37
3559	0.24643	7.0002	0.	122.79
3560	0.49457	6.7503	0.	127.33
3561	0.49614	7.2501	0.	124.85
3562	-3.0253e-003	6.7502	0.	120.19
3563	-0.25214	7.0001	0.	118.2
3564	4.0428	-5.7586	0.	132.9
3565	4.2824	-5.5039	0.	134.59
3566	3.8138	-5.516	0.	132.87
3567	4.0316	-5.2609	0.	132.56
3568	4.2796	-6.0041	0.	133.79
3569	4.0286	-6.254	0.	131.15
3570	4.2531	-6.9995	0.	131.79
3571	4.0012	-7.2477	0.	131.39
3572	4.0099	-6.7498	0.	130.44
3573	4.5001	-7.7496	0.	132.04
3574	4.2493	-7.9986	0.	130.69
3575	4.7498	-7.9996	0.	127.58
3576	4.4996	-8.2493	0.	129.02
3577	7.25	-8.	0.	122.97
3578	7.	-8.25	0.	120.76
3579	7.	-7.75	0.	120.93
3580	7.5	-7.75	0.	126.69
3581	7.75	-8.	0.	126.24
3582	7.5	-8.25	0.	124.6
3583	8.	-7.25	0.	126.54
3584	8.25	-7.5	0.	127.64
3585	7.75	-7.5	0.	127.74
3586	8.	-7.75	0.	127.3
3587	8.	-6.75	0.	124.77
3588	8.25	-7.	0.	126.48
3589	7.75	-7.	0.	125.78
3590	-7.6668	-5.8739	0.	142.98
3591	-7.9414	-5.6524	0.	136.26
3592	-8.1809	-5.9238	0.	135.46
3593	-4.7722	-5.5177	0.	142.75
3594	-4.9696	-5.8214	0.	137.81
3595	-4.3965	-5.0211	0.	132.52
3596	-4.5868	-5.2838	0.	139.29
3597	-4.6547	-4.8406	0.	128.45
3598	-4.498	-4.574	0.	131.73
3599	5.2616	-2.4781	0.	125.06
3600	5.0436	-2.318	0.	113.1
3601	5.0152	-2.7324	0.	121.24
3602	-7.2003	-7.6366	0.	130.14
3603	-7.3349	-7.4101	0.	130.94
3604	-7.6678	-7.5665	0.	128.98
3605	-7.4479	-7.8444	0.	129.51
3606	-5.4741	-8.2392	0.	126.48
3607	-5.7036	-7.948	0.	124.25
3608	-5.5213	-7.734	0.	131.63
3609	4.3967	-0.22081	0.	125.49
3610	4.6118	-0.4444	0.	123.33
3611	4.8712	-0.16139	0.	115.03
3612	4.1521	-0.49712	0.	137.05
3613	1.5976	-3.018	0.	126.8
3614	1.5365	-3.3283	0.	124.58
3615	1.7428	-3.5104	0.	136.92
3616	1.2415	-2.8967	0.	119.1
3617	1.3128	-2.5863	0.	123.02
3618	0.11428	-3.7811	0.	128.32
3619	-0.10384	-3.5834	0.	127.39
3620	-0.177	-4.011	0.	122.17
3621	-7.2555	-3.4244	0.	129.07
3622	-7.5026	-3.16	0.	127.91
3623	-7.5155	-3.6352	0.	128.44
3624	-5.5875	-3.0996	0.	124.59
3625	-5.8041	-3.3324	0.	121.17
3626	-5.68	-3.5033	0.	122.3
3627	-5.3814	-3.3662	0.	127.42
3628	-5.8142	-2.8929	0.	119.92
3629	-5.5709	-2.6469	0.	124.18
3630	-6.7535	-2.446	0.	119.38
3631	-6.9959	-2.6984	0.	122.27
3632	-6.2781	-2.4386	0.	118.57
3633	-6.0447	-2.6672	0.	117.38
3634	-5.8014	-2.4212	0.	121.66
3635	-6.021	-2.187	0.	120.57
3636	-6.5137	-2.7114	0.	116.54
3637	-6.4943	-2.1984	0.	118.75
3638	-2.9854	-5.8484	0.	130.48
3639	-2.7319	-6.0571	0.	127.41
3640	-2.7639	-5.5891	0.	128.45
3641	-3.0318	-5.3994	0.	131.81
3642	3.8106	4.1981	0.	129.81
3643	4.0928	4.4157	0.	127.18
3644	3.868	4.6915	0.	128.14
3645	5.3421	4.4606	0.	121.77
3646	5.6455	4.8016	0.	123.49
3647	5.134	4.8029	0.	121.56
3648	-6.0271	1.5713	0.	129.64
3649	-5.8315	1.2766	0.	131.46
3650	-5.5737	1.5115	0.	130.09
3651	-6.2905	1.3426	0.	130.12
3652	-6.3197	-0.26891	0.	130.36
3653	-6.0864	-0.50043	0.	129.67
3654	-6.5069	-0.53673	0.	124.04
3655	-5.3905	0.7565	0.	126.56
3656	-5.619	1.0137	0.	129.51
3657	-5.3611	1.2486	0.	128.06
3658	-5.4047	0.26185	0.	126.72
3659	-5.6441	1.2702e-002	0.	129.44
3660	-5.4089	-0.23283	0.	128.69
3661	-5.6548	0.51221	0.	124.68
3662	-3.2448	-1.0267	0.	132.96
3663	-3.0458	-1.2899	0.	133.82
3664	-2.8662	-1.2512	0.	126.42
3665	-3.5258	-1.2517	0.	136.21
3666	-3.1271	-3.0339	0.	141.36
3667	-3.2216	-2.6256	0.	138.54
3668	-3.4447	-2.8486	0.	140.16
3669	-4.0523	-1.712	0.	132.5
3670	-3.7917	-1.485	0.	135.1
3671	-4.2812	-1.4687	0.	132.26
3672	-3.8783	-2.4195	0.	133.9
3673	-4.0922	-2.1858	0.	132.69
3674	-4.3562	-2.4224	0.	132.6
3675	-4.1284	-2.6584	0.	134.72
3676	-1.0227	-2.9025	0.	128.96
3677	-0.87352	-3.1429	0.	133.14
3678	-1.3018	-3.1056	0.	127.82
3679	-1.4474	-2.8497	0.	127.54
3680	4.9841	-4.7254	0.	126.94
3681	5.231	-4.4773	0.	127.16
3682	4.9694	-4.2141	0.	126.11
3683	8.25	-6.5	0.	125.77
3684	8.	-6.25	0.	124.84
3685	7.75	-6.5	0.	123.78
3686	-5.75	7.	0.	123.25
3687	-5.5	6.75	0.	122.12
3688	-5.5	7.25	0.	123.12
3689	-5.25	6.9999	0.	124.62
3690	5.9942	8.2371	0.	127.2
3691	6.2442	7.9865	0.	128.05
3692	8.2695	-2.0065	0.	127.7
3693	8.0215	-2.2614	0.	124.49
3694	-8.4388	-7.7398	0.	129.22
3695	-8.4699	-8.2474	0.	129.61
3696	-8.7141	-7.992	0.	129.65
3697	-8.2078	-8.0091	0.	129.6
3698	-8.3948	-7.2285	0.	129.02
3699	-8.6825	-7.4844	0.	129.08
3700	-8.1602	-7.5001	0.	128.89
3701	-8.387	-6.7145	0.	130.28
3702	-8.6498	-6.9757	0.	129.21
3703	-8.076	-6.9727	0.	127.97
3704	-8.6704	-6.4658	0.	130.59
3705	-8.4192	-6.2002	0.	132.03
3706	-8.4619	-5.1833	0.	129.72
3707	-8.7151	-5.4493	0.	129.92
3708	-8.2089	-5.4184	0.	132.55
3709	-8.4483	-5.6898	0.	131.72
3710	-8.4659	-4.6801	0.	128.28
3711	-8.7198	-4.9447	0.	128.34
3712	-8.4782	-4.1771	0.	128.12
3713	-8.7256	-4.4424	0.	127.77
3714	-8.4913	-3.6674	0.	128.52
3715	-8.7386	-3.9365	0.	128.18
3716	-8.4932	-3.1493	0.	128.61
3717	-8.744	-3.424	0.	128.59
3718	-8.4905	-2.6256	0.	128.29
3719	-8.7423	-2.9065	0.	128.67
3720	-8.5024	-2.1025	0.	128.02
3721	-8.7428	-2.3883	0.	128.47
3722	-8.2284	-2.3308	0.	127.03
3723	-8.5258	-1.5872	0.	128.68
3724	-8.7616	-1.8737	0.	128.61
3725	-8.2744	-1.7958	0.	126.65
3726	-8.541	-1.084	0.	130.43
3727	-8.7785	-1.3667	0.	129.54
3728	-8.2994	-1.2844	0.	127.75
3729	-8.5478	-0.59221	0.	131.07
3730	-8.3066	-0.78964	0.	131.86
3731	-8.7869	-0.86939	0.	130.81
3732	-8.5521	-0.10934	0.	128.84
3733	-8.7916	-0.37959	0.	129.97
3734	-8.3086	-0.30783	0.	132.44
3735	-8.7954	0.10424	0.	127.11
3736	-8.3121	0.16336	0.	127.71
3737	-8.5559	0.36735	0.	125.9
3738	-8.5587	1.3126	0.	127.52
3739	-8.8	1.0625	0.	126.84
3740	-8.5588	0.84009	0.	125.88
3741	-8.3193	1.09	0.	128.13
3742	-8.551	1.7888	0.	126.19
3743	-8.3195	1.5522	0.	131.02
3744	-8.7973	1.5424	0.	127.84
3745	-8.7866	2.0254	0.	125.73
3746	-8.5342	2.2702	0.	119.93
3747	-2.9946	-8.2499	0.	130.02
3748	-2.7443	-8.0008	0.	129.82
3749	-2.9889	-7.7554	0.	128.93
3750	8.25	-8.5	0.	126.97
3751	8.	-8.75	0.	125.88
3752	8.	-8.25	0.	126.73
3753	7.75	-8.5	0.	125.08
3754	6.75	-8.5	0.	119.56
3755	7.	-8.75	0.	120.98
3756	7.25	-8.5	0.	122.39
3757	6.25	-8.5	0.	118.1
3758	6.5	-8.75	0.	118.89
3759	5.75	-8.5	0.	119.1
3760	6.	-8.75	0.	118.67
3761	6.	-8.25	0.	116.88
3762	5.2499	-8.4999	0.	122.29
3763	5.5	-8.75	0.	120.69
3764	5.5	-8.25	0.	119.7
3765	4.9999	-8.7498	0.	124.12
3766	4.9999	-8.2498	0.	124.68
3767	4.7497	-8.4996	0.	126.12
3768	3.7494	-8.4988	0.	130.31
3769	3.9996	-8.7491	0.	129.52
3770	3.9992	-8.2483	0.	130.64
3771	4.2495	-8.4991	0.	128.96
3772	3.2494	-8.4994	0.	130.66
3773	3.4996	-8.7492	0.	130.47
3774	3.4988	-8.2478	0.	130.74
3775	2.7492	-8.5015	0.	130.62
3776	2.9996	-8.7502	0.	130.79
3777	2.2489	-8.5044	0.	130.48
3778	2.4994	-8.7523	0.	130.83
3779	1.7483	-8.507	0.	130.47
3780	1.9991	-8.7546	0.	130.79
3781	1.9971	-8.2581	0.	129.85
3782	1.2477	-8.5081	0.	130.75
3783	1.4985	-8.7563	0.	130.76
3784	0.74799	-8.5061	0.	131.34
3785	0.9983	-8.756	0.	130.72
3786	0.99624	-8.2606	0.	130.49
3787	-3.2462	-8.4977	0.	130.25
3788	-2.7473	-8.499	0.	130.85
3789	-2.9974	-8.749	0.	130.21
3790	-3.7453	-8.4949	0.	129.83
3791	-3.4969	-8.7464	0.	130.12
3792	-4.2436	-8.4928	0.	129.52
3793	-3.9956	-8.745	0.	129.8
3794	-3.9918	-8.2466	0.	129.25
3795	-4.74	-8.4921	0.	128.85
3796	-4.4937	-8.7436	0.	129.19
3797	-4.4913	-8.2434	0.	129.14
3798	-5.2345	-8.4892	0.	126.89
3799	-4.9901	-8.7431	0.	127.74
3800	-5.7267	-8.4814	0.	121.7
3801	-5.4851	-8.7398	0.	124.62
3802	-6.2214	-8.5032	0.	116.99
3803	-5.9562	-8.1903	0.	119.49
3804	-5.9782	-8.7358	0.	118.99
3805	-6.7239	-8.5409	0.	119.13
3806	-6.471	-8.3069	0.	112.44
3807	-6.4765	-8.772	0.	117.6
3808	-7.2282	-8.5468	0.	124.85
3809	-6.981	-8.789	0.	122.07
3810	-6.9716	-8.3227	0.	124.42
3811	-7.7296	-8.5299	0.	128.33
3812	-7.484	-8.7824	0.	126.61
3813	-7.4707	-8.3064	0.	128.78
3814	-8.2302	-8.509	0.	129.35
3815	-7.9851	-8.7649	0.	128.51
3816	-7.968	-8.2708	0.	129.34
3817	-8.486	-8.7507	0.	129.43
3818	-8.7326	-8.4968	0.	129.84
3819	8.2428	5.9968	0.	124.59
3820	7.9915	6.2455	0.	122.68
3821	7.9905	5.7454	0.	122.78
3822	8.4961	5.7488	0.	126.07
3823	8.496	6.2485	0.	128.76
3824	8.7468	5.9991	0.	127.3
3825	8.4973	5.2491	0.	125.11
3826	8.7475	5.4993	0.	125.97
3827	8.2439	5.4974	0.	124.26
3828	8.4983	4.7497	0.	124.82
3829	8.7483	4.9995	0.	125.44
3830	8.4971	4.2505	0.	124.64
3831	8.7484	4.5001	0.	125.2
3832	8.4943	3.7521	0.	124.48
3833	8.7465	4.001	0.	125.05
3834	8.2424	4.0022	0.	124.17
3835	8.4957	3.2552	0.	124.42
3836	8.7454	3.5025	0.	124.98
3837	8.236	3.5048	0.	123.88
3838	8.5057	2.7601	0.	124.64
3839	8.7498	3.0059	0.	125.11
3840	8.5233	2.2674	0.	125.32
3841	8.7613	2.5108	0.	125.6
3842	8.5451	1.7775	0.	126.69
3843	8.7778	2.0178	0.	126.57
3844	8.5635	1.2873	0.	128.92
3845	8.7958	1.5259	0.	128.18
3846	8.3187	1.5405	0.	126.07
3847	8.5657	0.79004	0.	132.64
3848	8.8055	1.0301	0.	130.44
3849	8.3416	1.0608	0.	128.54
3850	8.5365	0.26865	0.	132.97
3851	8.7971	0.526	0.	133.02
3852	8.5557	-0.25503	0.	129.74
3853	8.768	2.784e-003	0.	129.88
3854	8.3729	-0.21786	0.	128.63
3855	8.281	9.3159e-002	0.	135.93
3856	8.5658	-0.74929	0.	129.93
3857	8.4166	-0.47153	0.	127.73
3858	8.8205	-0.50292	0.	128.2
3859	8.5239	-1.2413	0.	131.5
3860	8.7783	-0.99459	0.	130.98
3861	8.5142	-1.7466	0.	131.78
3862	8.7635	-1.4957	0.	132.21
3863	8.5103	-2.2515	0.	133.29
3864	8.7597	-1.9999	0.	132.74
3865	8.5	-6.75	0.	127.47
3866	8.5	-6.25	0.	129.07
3867	8.75	-6.5	0.	128.78
3868	8.5	-7.25	0.	127.58
3869	8.75	-7.	0.	128.18
3870	8.5	-7.75	0.	127.98
3871	8.75	-7.5	0.	128.46
3872	8.5	-8.25	0.	127.89
3873	8.75	-8.	0.	128.56
3874	8.25	-8.	0.	127.64
3875	8.75	-8.5	0.	128.29
3876	8.5	-8.75	0.	127.47
3877	-5.75	8.5	0.	124.68
3878	-6.	8.75	0.	125.89
3879	-6.25	8.5	0.	129.47
3880	-5.25	8.5	0.	123.61
3881	-5.5	8.75	0.	123.97
3882	-4.75	8.5	0.	123.99
3883	-5.	8.75	0.	123.93
3884	-5.	8.25	0.	123.63
3885	-4.25	8.5	0.	124.83
3886	-4.5	8.75	0.	124.6
3887	-4.5	8.25	0.	124.69
3888	-3.75	8.5	0.	125.48
3889	-4.	8.75	0.	125.26
3890	-3.2501	8.5	0.	125.76
3891	-3.5	8.75	0.	125.63
3892	-2.7501	8.5	0.	125.67
3893	-3.0001	8.75	0.	125.68
3894	-2.2502	8.5	0.	125.25
3895	-2.5001	8.75	0.	125.44
3896	-1.7503	8.5	0.	124.55
3897	-2.0002	8.75	0.	124.95
3898	-1.2505	8.5	0.	123.77
3899	-1.5003	8.75	0.	124.3
3900	-1.0005	8.75	0.	123.71
3901	-0.75076	8.5001	0.	123.23
3902	-1.0007	8.25	0.	122.92
3903	0.24845	8.5001	0.	123.79
3904	-1.0956e-003	8.7501	0.	123.7
3905	-0.25111	8.5001	0.	123.24
3906	-1.4653e-003	8.2501	0.	122.99
3907	0.49848	8.7501	0.	124.26
3908	0.74789	8.5	0.	124.53
3909	0.49791	8.2501	0.	124.09
3910	1.7466	8.4993	0.	125.43
3911	1.4974	8.7497	0.	125.22
3912	1.2472	8.4997	0.	125.13
3913	1.4963	8.2494	0.	125.59
3914	2.2461	8.4985	0.	125.48
3915	1.9969	8.7492	0.	125.38
3916	2.7458	8.4976	0.	125.37
3917	2.4966	8.7485	0.	125.37
3918	2.4947	8.2474	0.	125.6
3919	3.2456	8.4965	0.	125.18
3920	2.9965	8.7477	0.	125.26
3921	2.9943	8.2459	0.	125.36
3922	3.7455	8.4952	0.	124.99
3923	3.4965	8.7468	0.	125.11
3924	3.4939	8.2442	0.	125.07
3925	4.2453	8.4936	0.	124.89
3926	3.9965	8.7457	0.	125.
3927	4.7454	8.4925	0.	125.02
3928	4.4964	8.7444	0.	125.01
3929	4.4933	8.2403	0.	124.75
3930	5.2456	8.4916	0.	125.57
3931	4.9965	8.7436	0.	125.28
3932	4.9933	8.2389	0.	124.95
3933	5.7456	8.4905	0.	126.84
3934	5.4966	8.7429	0.	125.99
3935	6.2461	8.4915	0.	129.05
3936	5.9967	8.7425	0.	127.32
3937	-8.2496	4.9977	0.	118.64
3938	-7.9996	5.2473	0.	118.7
3939	-7.9994	4.7465	0.	121.77
3940	-7.7495	4.9957	0.	123.97
3941	-7.251	3.9713	0.	126.2
3942	-7.0011	4.2227	0.	124.58
3943	4.7475	-4.9838	0.	129.18
3944	4.5104	-5.2415	0.	133.21
3945	4.2595	-4.9986	0.	131.17
3946	8.5	-5.75	0.	133.26
3947	8.25	-6.	0.	128.16
3948	8.75	-6.	0.	131.17
3949	-8.7498	4.9991	0.	119.89
3950	-8.4997	4.7488	0.	115.05
3951	-8.4997	5.2487	0.	117.47
3952	-8.2498	5.999	0.	117.67
3953	-8.7498	5.9993	0.	121.01
3954	-8.4999	6.2493	0.	117.62
3955	-8.4998	5.749	0.	117.84
3956	-6.	7.25	0.	124.
3957	-6.25	7.5	0.	128.18
3958	-5.75	7.5	0.	123.86
3959	-7.9998	5.7484	0.	117.36
3960	-7.7498	5.4978	0.	121.01
3961	-8.2497	5.4983	0.	117.54
3962	3.9122	-0.7607	0.	137.28
3963	3.6814	-1.0218	0.	130.86
3964	0.84275	-2.7783	0.	118.87
3965	0.91395	-2.4679	0.	122.74
3966	0.5323	-2.773	0.	124.42
3967	-3.5977	-2.1939	0.	132.51
3968	-3.4279	-2.4221	0.	135.53
3969	-3.651	-2.6451	0.	137.08
3970	-3.8115	-1.9602	0.	131.34
3971	-3.5509	-1.7332	0.	133.9
3972	-5.8833	0.76944	0.	127.56
3973	-5.8942	0.26306	0.	127.28
3974	5.0626	4.2479	0.	119.18
3975	4.582	4.3616	0.	121.01
3976	4.8545	4.5902	0.	119.11
3977	-2.2818	-5.5315	0.	119.02
3978	-1.7762	-5.5111	0.	113.53
3979	-6.0308	-3.1258	0.	116.48
3980	-6.2802	-2.9401	0.	115.22
3981	-7.0009	-3.2003	0.	126.8
3982	-6.7562	-2.9637	0.	119.45
3983	-7.248	-2.9359	0.	125.64
3984	0.87339	-3.126	0.	119.04
3985	1.1804	-3.2071	0.	116.68
3986	0.52248	-3.3134	0.	127.92
3987	0.56295	-3.1206	0.	124.65
3988	4.1289	-1.0059	0.	133.32
3989	4.3671	-0.72071	0.	134.46
3990	3.8981	-1.267	0.	127.12
3991	3.6727	-1.5164	0.	130.91
3992	-6.2057	-7.9939	0.	114.46
3993	-5.758	-7.6902	0.	128.29
3994	-6.7187	-8.0887	0.	117.72
3995	-7.9999	6.2492	0.	118.22
3996	-7.7499	5.9989	0.	120.24
3997	-6.25	7.	0.	125.66
3998	-6.	6.75	0.	123.66
3999	-8.9999	6.2496	0.	125.58
4000	-9.2499	5.9997	0.	127.71
4001	-8.9998	5.7495	0.	123.42
4002	8.7559	-2.5016	0.	134.53
4003	8.5051	-2.7521	0.	134.5
4004	8.2623	-2.5064	0.	130.03
4005	8.75	-5.5	0.	134.88
4006	8.5	-5.25	0.	135.96
4007	8.25	-5.5	0.	132.58
4008	8.	-5.75	0.	127.53
4009	7.75	-6.	0.	123.97
4010	5.2445	-4.9855	0.	126.11
4011	4.9995	-5.2366	0.	128.58
4012	5.2932	-2.2928	0.	119.78
4013	5.6095	-2.2235	0.	136.76
4014	5.7786	-2.4871	0.	131.19
4015	5.5109	-2.7149	0.	129.63
4016	-5.0287	-5.3855	0.	140.27
4017	-4.8449	-5.1034	0.	134.94
4018	-7.3852	-6.0788	0.	145.19
4019	-7.1278	-5.801	0.	126.44
4020	-7.444	-5.6052	0.	139.94
4021	7.25	-7.5	0.	124.62
4022	7.5	-7.25	0.	126.95
4023	4.7504	-7.4999	0.	130.57
4024	4.5018	-7.2503	0.	133.27
4025	4.2498	-7.4985	0.	132.91
4026	4.5193	-5.7494	0.	135.43
4027	4.7624	-5.4943	0.	132.59
4028	0.49273	6.2505	0.	128.82
4029	0.24512	6.5003	0.	124.71
4030	0.47928	3.7535	0.	129.87
4031	0.23361	3.5024	0.	123.77
4032	0.4789	3.2548	0.	129.41
4033	-1.2518	3.5004	0.	118.8
4034	-1.5006	3.7502	0.	123.9
4035	-1.5008	3.2503	0.	120.59
4036	-1.5004	6.2498	0.	127.58
4037	-1.2507	6.4999	0.	123.76
4038	-4.7501	6.4998	0.	131.29
4039	-4.5002	6.2495	0.	133.2
4040	-4.2502	6.4995	0.	132.04
4041	-4.5032	4.7447	0.	133.89
4042	-4.7549	4.4917	0.	131.61
4043	8.7499	8.5	0.	129.42
4044	8.4999	8.2499	0.	130.41
4045	8.2498	8.4999	0.	127.34
4046	8.4998	8.7499	0.	128.79
4047	8.4976	6.7488	0.	130.42
4048	8.2447	6.4972	0.	126.82
4049	8.7471	6.4988	0.	129.63
4050	6.7293	6.471	0.	126.47
4051	6.4815	6.7181	0.	129.25
4052	6.222	6.4523	0.	128.3
4053	6.4972	8.7442	0.	128.55
4054	6.4961	8.241	0.	129.87
4055	6.7473	8.4953	0.	127.07
4056	-2.7456	-3.3329	0.	117.71
4057	-3.0628	-3.4965	0.	132.5
4058	-2.8335	-3.049	0.	128.85
4059	-1.1526	-3.346	0.	131.8
4060	-0.97666	-3.577	0.	127.11
4061	6.3944	0.462	0.	132.6
4062	6.1537	0.177	0.	131.
4063	-7.8475	1.5404	0.	125.16
4064	-8.08	1.3296	0.	131.44
4065	-8.0674	-0.50527	0.	133.09
4066	-7.832	-0.68251	0.	123.35
4067	-8.0651	-0.99003	0.	129.21
4068	-1.5021	-0.75134	0.	119.13
4069	-1.7616	-1.0229	0.	117.33
4070	-1.4846	-1.2397	0.	123.42
4071	-2.2448	2.5	0.	129.32
4072	-2.4913	2.2495	0.	132.75
4073	-2.4952	-0.24572	0.	125.1
4074	-2.2494	-0.49999	0.	121.31
4075	0.48147	2.2592	0.	131.46
4076	0.23547	2.5051	0.	126.46
4077	0.48047	2.7567	0.	130.15
4078	0.46462	-0.23116	0.	132.84
4079	0.22165	-0.48504	0.	129.06
4080	0.69681	-0.46864	0.	132.35
4081	-2.5104	-5.7979	0.	125.34
4082	-2.5772	-5.3227	0.	127.3
4083	0.27339	-5.5932	0.	133.46
4084	0.49881	-5.8391	0.	131.22
4085	0.59831	-5.3982	0.	128.26
4086	0.73798	-5.6021	0.	126.4
4087	-2.4986	-8.7491	0.	129.35
4088	-2.2486	-8.4994	0.	127.02
4089	-2.497	-8.2499	0.	130.61
4090	0.24876	-8.5026	0.	127.46
4091	0.49779	-8.2557	0.	131.25
4092	0.49874	-8.7532	0.	129.8
4093	-8.9999	4.7496	0.	123.67
4094	-9.2499	4.9997	0.	126.55
4095	-8.9998	5.2495	0.	122.69
4096	-7.7493	4.4922	0.	128.51
4097	-7.4997	4.2338	0.	131.27
4098	-7.4994	4.7413	0.	130.65
4099	-7.2498	4.4852	0.	129.68
4100	-5.75	9.	0.	125.2
4101	-6.25	9.	0.	127.89
4102	-6.	9.25	0.	126.3
4103	-5.25	9.	0.	124.29
4104	-5.5	9.25	0.	125.08
4105	-4.75	9.	0.	124.54
4106	-5.	9.25	0.	125.03
4107	-4.25	9.	0.	125.03
4108	-4.5	9.25	0.	125.29
4109	-3.75	9.	0.	125.41
4110	-4.	9.25	0.	125.56
4111	-3.25	9.	0.	125.56
4112	-3.5	9.25	0.	125.67
4113	-2.7501	9.	0.	125.46
4114	-3.	9.25	0.	125.59
4115	-2.2501	9.	0.	125.15
4116	-2.5001	9.25	0.	125.35
4117	-1.7502	9.	0.	124.7
4118	-2.0001	9.25	0.	124.98
4119	-1.2503	9.	0.	124.24
4120	-1.5002	9.25	0.	124.55
4121	-0.75049	9.0001	0.	123.94
4122	-1.0003	9.25	0.	124.2
4123	-0.50045	9.2501	0.	124.03
4124	-0.25075	9.0001	0.	123.92
4125	-0.50076	8.7501	0.	123.46
4126	0.74855	9.	0.	124.56
4127	0.49907	9.2501	0.	124.4
4128	0.24893	9.0001	0.	124.17
4129	1.2481	8.9999	0.	124.92
4130	0.99875	9.25	0.	124.72
4131	0.99796	8.75	0.	124.83
4132	1.7478	8.9996	0.	125.16
4133	1.4984	9.2499	0.	125.
4134	2.2475	8.9992	0.	125.26
4135	1.9982	9.2496	0.	125.17
4136	2.7474	8.9987	0.	125.26
4137	2.4981	9.2492	0.	125.25
4138	3.2474	8.998	0.	125.2
4139	2.9981	9.2488	0.	125.27
4140	3.7474	8.9973	0.	125.13
4141	3.4981	9.2483	0.	125.25
4142	4.2475	8.9965	0.	125.12
4143	3.9982	9.2477	0.	125.23
4144	4.7475	8.9955	0.	125.27
4145	4.4982	9.2471	0.	125.27
4146	5.2475	8.9949	0.	125.7
4147	4.9982	9.2464	0.	125.44
4148	5.7477	8.9949	0.	126.47
4149	5.4983	9.2461	0.	125.79
4150	6.2478	8.9952	0.	126.81
4151	5.9983	9.2463	0.	126.24
4152	6.7481	8.9966	0.	124.84
4153	6.4983	9.2466	0.	125.78
4154	7.2487	8.9985	0.	121.6
4155	6.9983	8.7477	0.	123.38
4156	6.9987	9.2482	0.	123.25
4157	7.7493	8.9995	0.	121.64
4158	7.4992	8.7493	0.	116.89
4159	7.4992	9.2493	0.	121.5
4160	7.9996	8.7498	0.	123.5
4161	7.9996	9.2498	0.	123.26
4162	8.2497	8.9998	0.	124.92
4163	8.9999	8.75	0.	127.51
4164	9.2499	9.	0.	126.35
4165	8.9999	9.25	0.	126.12
4166	8.7499	8.9999	0.	126.86
4167	8.9999	8.2499	0.	127.79
4168	9.2499	8.5	0.	127.02
4169	8.9997	7.7498	0.	126.9
4170	8.7499	7.9999	0.	128.8
4171	9.2499	7.9999	0.	126.57
4172	8.9993	7.2496	0.	127.03
4173	8.7496	7.4997	0.	128.16
4174	9.2497	7.4997	0.	125.96
4175	8.7489	6.9993	0.	128.99
4176	9.2492	6.9996	0.	126.99
4177	8.9984	6.7493	0.	128.17
4178	8.9981	5.7496	0.	127.2
4179	9.2486	5.9997	0.	127.52
4180	8.9979	6.2493	0.	128.18
4181	8.9985	5.2496	0.	126.3
4182	9.2488	5.4997	0.	126.83
4183	8.9984	4.7499	0.	125.83
4184	9.2491	4.9998	0.	126.35
4185	9.2488	4.5001	0.	126.08
4186	8.9978	4.2506	0.	125.61
4187	8.9996	3.2533	0.	125.67
4188	9.2487	3.5015	0.	126.03
4189	8.9976	3.7515	0.	125.55
4190	9.0055	2.7566	0.	126.07
4191	9.2513	3.0035	0.	126.33
4192	9.0158	2.2612	0.	126.84
4193	9.2575	2.5065	0.	126.92
4194	9.0285	1.7662	0.	128.07
4195	9.2665	2.0103	0.	127.82
4196	9.0378	1.2687	0.	129.72
4197	9.2756	1.5135	0.	128.96
4198	9.037	0.7661	0.	130.84
4199	9.2795	1.0132	0.	130.11
4200	9.0287	0.26014	0.	129.8
4201	9.2746	0.50942	0.	130.16
4202	9.269	5.2656e-003	0.	128.48
4203	9.0329	-0.24511	0.	128.13
4204	9.0179	-1.2489	0.	131.66
4205	9.268	-0.9996	0.	130.41
4206	9.033	-0.74822	0.	129.21
4207	9.009	-1.749	0.	133.17
4208	9.2588	-1.4993	0.	132.29
4209	9.0053	-2.25	0.	133.98
4210	9.255	-1.9998	0.	133.39
4211	9.0027	-2.7505	0.	133.98
4212	9.2529	-2.5003	0.	133.74
4213	9.0009	-3.2504	0.	133.41
4214	8.7519	-3.0011	0.	133.99
4215	9.2511	-3.0004	0.	133.13
4216	9.0002	-3.7502	0.	133.38
4217	8.7504	-3.5004	0.	134.95
4218	9.2503	-3.5002	0.	132.45
4219	9.	-4.2501	0.	133.5
4220	8.7501	-4.0001	0.	136.33
4221	9.2501	-4.0001	0.	132.52
4222	9.	-4.75	0.	133.64
4223	8.75	-4.5	0.	135.53
4224	9.25	-4.5	0.	132.4
4225	9.	-5.25	0.	133.86
4226	8.75	-5.	0.	134.96
4227	9.25	-5.	0.	132.88
4228	9.	-5.75	0.	132.82
4229	9.25	-5.5	0.	132.91
4230	9.25	-6.	0.	131.76
4231	9.	-6.25	0.	130.88
4232	9.	-7.25	0.	129.05
4233	9.25	-7.	0.	129.73
4234	9.	-6.75	0.	129.48
4235	9.	-7.75	0.	129.03
4236	9.25	-7.5	0.	129.59
4237	9.	-8.25	0.	128.96
4238	9.25	-8.	0.	129.54
4239	9.	-8.75	0.	128.75
4240	9.25	-8.5	0.	129.41
4241	8.75	-9.	0.	127.93
4242	9.25	-9.	0.	129.22
4243	9.	-9.25	0.	128.52
4244	8.25	-9.	0.	126.38
4245	8.5	-9.25	0.	127.07
4246	7.75	-9.	0.	124.46
4247	8.	-9.25	0.	125.33
4248	7.25	-9.	0.	122.25
4249	7.5	-9.25	0.	123.28
4250	7.5	-8.75	0.	123.66
4251	6.75	-9.	0.	120.3
4252	7.	-9.25	0.	121.23
4253	6.25	-9.	0.	119.45
4254	6.5	-9.25	0.	119.85
4255	5.75	-9.	0.	120.26
4256	6.	-9.25	0.	119.82
4257	5.2499	-8.9999	0.	122.53
4258	5.5	-9.25	0.	121.35
4259	4.7499	-8.9997	0.	125.42
4260	4.9999	-9.2499	0.	123.91
4261	4.2498	-8.9995	0.	127.97
4262	4.4999	-9.2497	0.	126.64
4263	4.4997	-8.7495	0.	127.41
4264	3.7498	-8.9995	0.	129.67
4265	3.9998	-9.2496	0.	128.8
4266	3.2498	-9.	0.	130.6
4267	3.4999	-9.2497	0.	130.18
4268	2.7498	-9.0011	0.	131.01
4269	2.9999	-9.2503	0.	130.94
4270	2.2496	-9.0026	0.	131.15
4271	2.4999	-9.2513	0.	131.28
4272	1.7493	-9.004	0.	131.09
4273	1.9997	-9.2525	0.	131.31
4274	1.2491	-9.0043	0.	130.73
4275	1.4994	-9.2534	0.	130.98
4276	0.99931	-9.2528	0.	129.92
4277	0.74905	-9.0032	0.	129.15
4278	-1.7499	-8.9996	0.	117.98
4279	-1.4999	-8.7498	0.	113.21
4280	-1.5001	-9.2498	0.	115.37
4281	-1.2501	-8.9999	0.	113.48
4282	-2.2495	-8.9993	0.	124.33
4283	-1.9994	-8.7496	0.	122.05
4284	-1.9999	-9.2496	0.	120.94
4285	-2.7488	-8.999	0.	128.69
4286	-2.4996	-9.2492	0.	126.54
4287	-3.2481	-8.9976	0.	130.08
4288	-2.999	-9.2489	0.	129.36
4289	-3.7472	-8.9965	0.	130.09
4290	-3.4986	-9.2473	0.	130.11
4291	-4.2457	-8.9959	0.	129.46
4292	-3.9973	-9.2476	0.	129.86
4293	-4.7437	-8.9947	0.	128.07
4294	-4.4962	-9.2464	0.	128.79
4295	-5.2407	-8.9937	0.	125.46
4296	-4.9944	-9.2459	0.	126.78
4297	-5.7366	-8.9942	0.	121.93
4298	-5.4917	-9.2452	0.	123.68
4299	-6.2333	-9.0047	0.	119.53
4300	-5.9883	-9.2473	0.	120.59
4301	-6.7337	-9.0201	0.	120.51
4302	-6.487	-9.2601	0.	119.78
4303	-7.2369	-9.0246	0.	123.83
4304	-6.9889	-9.2687	0.	122.09
4305	-7.7395	-9.0174	0.	126.78
4306	-7.4918	-9.2666	0.	125.22
4307	-8.2409	-9.0066	0.	128.59
4308	-7.9933	-9.2587	0.	127.54
4309	-8.7423	-8.9989	0.	129.65
4310	-8.4941	-9.2513	0.	129.
4311	-8.9888	-8.745	0.	130.06
4312	-8.9953	-9.2475	0.	130.05
4313	-9.2445	-8.9966	0.	130.54
4314	-8.9768	-8.2413	0.	129.88
4315	-9.2379	-8.4942	0.	130.31
4316	-8.9578	-7.7365	0.	129.51
4317	-9.2264	-7.9909	0.	129.87
4318	-8.9375	-7.2317	0.	129.28
4319	-9.21	-7.4873	0.	129.34
4320	-8.9332	-6.727	0.	129.52
4321	-9.1978	-6.9844	0.	129.08
4322	-8.9468	-6.2214	0.	129.84
4323	-9.2041	-6.4814	0.	129.16
4324	-8.9625	-5.7153	0.	129.5
4325	-9.2166	-5.9771	0.	129.01
4326	-8.6957	-5.9558	0.	131.29
4327	-8.9731	-5.2106	0.	128.53
4328	-9.2267	-5.4729	0.	128.31
4329	-8.9796	-4.707	0.	127.82
4330	-9.2326	-4.9699	0.	127.52
4331	-8.986	-4.2018	0.	127.82
4332	-9.2368	-4.4666	0.	127.35
4333	-8.9913	-3.6931	0.	128.24
4334	-9.2417	-3.961	0.	127.75
4335	-8.9931	-3.1812	0.	128.64
4336	-9.2442	-3.4528	0.	128.37
4337	-8.9947	-2.6691	0.	128.86
4338	-9.2448	-2.9441	0.	128.89
4339	-9.0021	-2.1595	0.	129.06
4340	-9.2473	-2.4364	0.	129.24
4341	-9.0143	-1.6532	0.	129.47
4342	-9.2558	-1.9309	0.	129.55
4343	-9.0244	-1.1521	0.	129.91
4344	-9.265	-1.4279	0.	129.85
4345	-9.0307	-0.65677	0.	129.68
4346	-9.271	-0.92937	0.	129.8
4347	-9.0349	-0.16602	0.	128.22
4348	-9.2748	-0.43444	0.	128.85
4349	-9.038	0.3213	0.	126.55
4350	-9.2777	5.7489e-002	0.	127.13
4351	-9.0397	0.80685	0.	126.3
4352	-9.2797	0.54751	0.	126.29
4353	-8.7985	0.58441	0.	125.38
4354	-9.0386	1.2924	0.	127.15
4355	-9.2801	1.0369	0.	127.07
4356	-9.0329	1.779	0.	127.41
4357	-9.2778	1.5268	0.	128.44
4358	-9.0223	2.2671	0.	127.35
4359	-9.2715	2.0177	0.	129.24
4360	-7.7923	2.4818	0.	123.43
4361	-7.5315	2.7118	0.	125.3
4362	0.14393	-4.8976	0.	130.94
4363	7.9104e-002	-5.3478	0.	136.89
4364	0.40402	-5.1528	0.	131.61
4365	2.0431	-4.5133	0.	132.77
4366	1.8969	-4.8133	0.	140.
4367	2.3294	-4.7086	0.	136.03
4368	5.809	-0.57249	0.	128.14
4369	5.9879	-0.83744	0.	132.39
4370	6.1086	-0.34342	0.	131.17
4371	6.2479	-0.51715	0.	138.56
4372	6.2738	-0.72305	0.	131.66
4373	-7.3285	-6.5382	0.	130.98
4374	-7.1022	-6.2809	0.	129.9
4375	-7.1015	-7.4289	0.	132.
4376	-6.9665	-7.8745	0.	128.94
4377	-7.2652	-6.9824	0.	126.05
4378	-7.5376	-6.8679	0.	123.16
4379	-7.5085	-7.0879	0.	129.8
4380	-6.5778	-6.2694	0.	104.5
4381	-6.8448	-6.0031	0.	111.61
4382	-6.0547	-6.3211	0.	106.98
4383	-5.5545	-6.3953	0.	130.22
4384	-6.3009	-6.083	0.	95.507
4385	-5.4887	-7.2098	0.	125.96
4386	-5.3576	-6.6913	0.	127.46
4387	-5.2882	-7.4856	0.	131.1
4388	4.1189	-1.5301	0.	133.21
4389	4.8318	-0.64792	0.	114.96
4390	5.3172	-0.56963	0.	110.47
4391	5.0913	-0.36491	0.	106.53
4392	5.7681	-1.7638	0.	137.45
4393	5.8756	-1.3005	0.	130.33
4394	6.0329	-1.578	0.	129.24
4395	6.1113	-1.1352	0.	126.66
4396	1.5312	-3.5993	0.	131.3
4397	1.8561	-4.0299	0.	134.05
4398	2.0091	-3.7721	0.	138.52
4399	1.4526	-4.9579	0.	125.03
4400	0.22035	-4.4381	0.	127.26
4401	0.31585	-3.9874	0.	131.94
4402	0.34659	-3.5694	0.	132.02
4403	2.4568e-002	-4.2173	0.	125.88
4404	-8.2794	2.5069	0.	118.7
4405	-8.7698	2.5119	0.	121.4
4406	-9.262	2.5095	0.	131.26
4407	-8.2495	4.4976	0.	118.16
4408	-8.7499	4.4993	0.	118.79
4409	-9.25	4.4999	0.	129.42
4410	-7.5074	3.2157	0.	126.57
4411	-7.5008	3.7246	0.	128.11
4412	-0.2506	-8.5007	0.	117.62
4413	-7.252e-004	-8.7511	0.	122.41
4414	-0.75018	-8.5001	0.	111.69
4415	-0.50034	-8.7503	0.	113.44
4416	-1.2499	-8.4999	0.	111.54
4417	-1.0001	-8.75	0.	111.87
4418	-1.7494	-8.4998	0.	117.27
4419	-0.21476	-5.5597	0.	126.29
4420	-0.72871	-5.5436	0.	118.08
4421	-1.2534	-5.5267	0.	115.08
4422	-1.5297	-5.2816	0.	115.4
4423	0.46966	0.26559	0.	133.71
4424	0.47264	0.76465	0.	135.42
4425	0.70629	0.524	0.	132.82
4426	0.47624	1.2634	0.	135.
4427	0.71048	1.0231	0.	133.58
4428	0.48003	1.7615	0.	132.61
4429	0.71705	1.5214	0.	132.24
4430	-0.26239	-0.49282	0.	120.
4431	-0.75492	-0.4953	0.	115.2
4432	-1.2534	-0.49954	0.	114.36
4433	-1.7526	-0.50626	0.	116.17
4434	-0.25773	2.5015	0.	115.49
4435	-1.1873e-002	2.7526	0.	119.74
4436	-0.75356	2.5002	0.	110.07
4437	-0.50637	2.7507	0.	109.8
4438	-1.2511	2.5	0.	111.62
4439	-1.7486	2.5001	0.	118.8
4440	-1.5005	2.7501	0.	115.27
4441	-2.4916	0.24797	0.	128.26
4442	-2.7389	-4.8415e-003	0.	126.64
4443	-2.4891	0.74717	0.	131.78
4444	-2.7342	0.49509	0.	128.67
4445	-2.4879	1.2477	0.	132.83
4446	-2.4888	1.7487	0.	132.2
4447	-6.5	8.75	0.	131.45
4448	-6.5	9.25	0.	129.48
4449	-6.5	8.25	0.	133.8
4450	-6.5	7.25	0.	129.88
4451	-6.5	6.75	0.	126.85
4452	-6.5	7.75	0.	133.16
4453	-8.7499	6.4996	0.	122.2
4454	-9.2499	6.4998	0.	131.22
4455	-8.2499	6.4995	0.	118.19
4456	-7.75	6.4996	0.	120.81
4457	-7.5	6.2493	0.	122.75
4458	-7.25	6.4998	0.	126.15
4459	0.4879	-6.2966	0.	131.27
4460	0.4958	-7.76	0.	131.7
4461	0.74604	-8.0101	0.	130.44
4462	0.49261	-7.2663	0.	133.33
4463	0.74233	-7.5168	0.	130.52
4464	0.48866	-6.7763	0.	133.53
4465	0.73671	-7.0255	0.	131.12
4466	0.72994	-6.5391	0.	129.71
4467	-2.4942	-7.7526	0.	130.85
4468	-2.49	-7.2585	0.	132.15
4469	-2.7388	-7.5072	0.	129.99
4470	-2.4887	-6.2806	0.	127.99
4471	-2.4863	-6.7677	0.	131.55
4472	8.5014	-3.2511	0.	135.52
4473	8.5002	-3.7503	0.	137.92
4474	8.5	-4.2501	0.	138.37
4475	8.5	-4.75	0.	136.83
4476	7.75	-5.5	0.	124.43
4477	7.25	-5.5	0.	117.16
4478	7.5	-5.75	0.	120.87
4479	6.2963	-2.5317	0.	122.09
4480	7.7719	-2.5176	0.	118.43
4481	7.2823	-2.532	0.	111.63
4482	6.7922	-2.5405	0.	113.2
4483	5.5059	-3.2298	0.	128.3
4484	5.2644	-2.9692	0.	125.66
4485	5.4946	-3.7336	0.	129.75
4486	5.2541	-3.4698	0.	127.08
4487	5.488	-4.2349	0.	129.17
4488	5.2264	-3.9717	0.	128.11
4489	5.4915	-4.7373	0.	126.3
4490	5.4975	-5.242	0.	123.58
4491	-5.4829	-5.4774	0.	123.44
4492	-5.2262	-5.6892	0.	135.8
4493	-5.9574	-5.5274	0.	108.12
4494	-6.2426	-5.7117	0.	102.75
4495	-6.5679	-5.8168	0.	102.6
4496	-7.4583	-5.118	0.	135.22
4497	-7.7186	-5.3838	0.	133.68
4498	-7.3968	-4.6043	0.	134.33
4499	-7.0415	-3.6756	0.	127.04
4500	-7.2191	-4.1218	0.	127.6
4501	-7.3015	-3.8864	0.	126.44
4502	-7.4398	-4.104	0.	129.77
4503	-5.8898	-3.5162	0.	118.5
4504	-4.9777	-4.6667	0.	134.58
4505	-5.2013	-4.2137	0.	135.52
4506	-4.821	-4.4	0.	137.89
4507	-5.5468	-3.8324	0.	123.18
4508	-5.0363	-3.9398	0.	130.3
4509	-5.2481	-3.6953	0.	128.32
4510	6.75	-7.5	0.	117.21
4511	6.25	-7.5	0.	114.29
4512	5.7501	-7.5	0.	115.83
4513	6.	-7.75	0.	115.56
4514	5.2502	-7.5	0.	121.84
4515	5.0002	-7.7499	0.	126.18
4516	5.5001	-7.75	0.	117.76
4517	4.5065	-6.7513	0.	133.05
4518	4.5142	-6.2517	0.	134.35
4519	5.7498	-5.4967	0.	120.08
4520	5.2525	-5.4931	0.	126.04
4521	6.2496	-5.4992	0.	112.57
4522	6.7499	-5.4999	0.	111.19
4523	7.5	-6.25	0.	122.84
4524	7.5	-6.75	0.	124.76
4525	0.49018	5.751	0.	129.88
4526	0.73769	6.0008	0.	128.45
4527	0.48673	5.2519	0.	131.96
4528	0.48346	4.7531	0.	131.8
4529	0.72716	5.0044	0.	130.81
4530	0.4811	4.2535	0.	130.21
4531	-0.25823	3.5009	0.	110.8
4532	-1.2168e-002	3.2519	0.	117.7
4533	-0.75412	3.5005	0.	109.45
4534	-0.50657	3.2508	0.	107.25
4535	-1.5003	4.2501	0.	126.23
4536	-1.5003	4.75	0.	129.11
4537	-1.7504	4.4999	0.	126.89
4538	-1.5003	5.2499	0.	129.63
4539	-1.5003	5.7499	0.	128.14
4540	-0.75119	6.5	0.	113.8
4541	-0.25247	6.5001	0.	114.22
4542	-0.50158	6.7501	0.	112.38
4543	-7.4996	5.2461	0.	126.3
4544	-7.4999	5.7484	0.	123.88
4545	-6.75	6.4999	0.	127.82
4546	-6.25	6.5	0.	124.86
4547	-5.75	6.5	0.	122.52
4548	-5.25	6.4999	0.	125.08
4549	-5.	6.7499	0.	127.58
4550	-4.5005	5.7488	0.	132.62
4551	-4.5013	5.2474	0.	132.81
4552	-4.251	5.4982	0.	130.17
4553	-5.2554	4.4886	0.	123.99
4554	-5.7551	4.4853	0.	119.4
4555	-5.5056	4.2295	0.	120.63
4556	-6.2542	4.4823	0.	118.69
4557	-6.7519	4.4816	0.	121.93
4558	8.4998	7.7498	0.	130.04
4559	8.4992	7.2494	0.	130.1
4560	7.7405	6.493	0.	117.97
4561	7.2355	6.4855	0.	118.25
4562	6.4902	7.2294	0.	129.09
4563	6.4943	7.7365	0.	129.23
4564	7.7495	8.4996	0.	118.64
4565	7.2487	8.4985	0.	118.55
4566	-2.1771	-3.3586	0.	98.107
4567	-2.3699	-3.2327	0.	92.771
4568	-1.6315	-3.3147	0.	114.79
4569	-1.7771	-3.0587	0.	114.64
4570	-2.0817	-3.1685	0.	97.266
4571	-2.726	-4.8707	0.	128.67
4572	-2.8452	-5.1331	0.	130.68
4573	-3.0505	-3.9828	0.	131.07
4574	-3.3474	-3.7708	0.	127.94
4575	-2.9136	-4.4346	0.	133.39
4576	-3.2508	-4.2392	0.	133.37
4577	-3.0874	-4.6961	0.	129.93
4578	-1.1007	-4.0079	0.	125.7
4579	-1.2698	-4.4249	0.	125.5
4580	-1.4512	-4.8387	0.	118.01
4581	7.5487	-1.3622	0.	112.57
4582	7.3317	-1.6008	0.	108.42
4583	6.8904	0.47031	0.	118.4
4584	7.3651	0.38434	0.	109.87
4585	7.1738	0.69498	0.	110.98
4586	7.8224	0.25323	0.	126.79
4587	6.2685	-1.4128	0.	125.51
4588	6.3972	-1.0209	0.	125.92
4589	6.4807	-1.2203	0.	125.94
4590	6.3034	-0.253	0.	131.97
4591	6.4686	-0.63263	0.	132.35
4592	4.089	3.221	0.	132.82
4593	3.9538	2.7783	0.	131.05
4594	3.7774	3.0141	0.	131.31
4595	3.9143	3.4625	0.	130.06
4596	4.2239	3.6692	0.	130.92
4597	4.4986	2.1413	0.	119.6
4598	4.0468	2.1073	0.	131.88
4599	4.95	2.1879	0.	112.09
4600	5.4015	2.2399	0.	121.18
4601	5.173	1.9836	0.	115.13
4602	5.6338	2.0366	0.	126.88
4603	5.8536	2.3023	0.	130.61
4604	5.4403	3.9224	0.	124.44
4605	5.6996	3.4649	0.	131.4
4606	5.8325	3.764	0.	127.63
4607	5.9119	3.0276	0.	126.86
4608	6.0417	2.5727	0.	125.3
4609	-8.0719	0.42484	0.	129.18
4610	-8.3157	0.62883	0.	127.36
4611	-8.0762	0.87871	0.	129.46
4612	-8.0686	-3.5132e-002	0.	131.18
4613	-7.393	1.4628	0.	112.19
4614	-6.5416	1.1526	0.	126.61
4615	-6.0949	1.048	0.	131.87
4616	-6.9629	1.3166	0.	115.09
4617	-7.3583	-0.54243	0.	111.99
4618	-6.9301	-0.30533	0.	114.73
4619	-6.9151	-0.51177	0.	115.18
4620	-6.5377	-8.572e-002	0.	125.93
4621	-6.7249	-0.35354	0.	119.72
4622	-6.1087	-6.477e-003	0.	132.03
4623	-1.5089	-2.1553	0.	120.71
4624	-1.4744	-1.7075	0.	121.77
4625	-1.6017	-2.5991	0.	123.65
4626	-2.9268	-1.4948	0.	129.64
4627	-3.3268	-1.5149	0.	137.07
4628	-2.21	-1.1808	0.	108.76
4629	-2.0122	-0.77779	0.	114.45
4630	-2.5722	-1.3858	0.	115.4
4631	9.5	8.75	0.	125.85
4632	9.5	9.25	0.	125.48
4633	9.4999	8.2499	0.	125.8
4634	9.4998	7.7499	0.	125.64
4635	9.4996	7.2498	0.	125.92
4636	9.4994	6.7497	0.	126.62
4637	9.4992	6.2498	0.	127.14
4638	9.2485	6.4994	0.	127.81
4639	9.4992	5.7498	0.	127.15
4640	9.4994	5.2499	0.	126.89
4641	9.4994	4.7499	0.	126.61
4642	9.4994	4.2501	0.	126.44
4643	9.4994	3.7506	0.	126.45
4644	9.2484	4.0006	0.	125.97
4645	9.5005	3.2518	0.	126.69
4646	9.5033	2.7535	0.	127.18
4647	9.5082	2.2556	0.	127.9
4648	9.5136	1.7577	0.	128.71
4649	9.5173	1.2581	0.	129.35
4650	9.5172	0.75655	0.	129.43
4651	9.5149	0.25454	0.	128.83
4652	9.5152	-0.24733	0.	128.4
4653	9.5141	-0.74909	0.	129.28
4654	9.279	-0.49771	0.	128.08
4655	9.5089	-1.25	0.	131.05
4656	9.5047	-1.7501	0.	132.51
4657	9.5025	-2.2501	0.	133.14
4658	9.5013	-2.7502	0.	132.88
4659	9.5005	-3.2502	0.	132.17
4660	9.5002	-3.7501	0.	131.59
4661	9.5	-4.25	0.	131.42
4662	9.5	-4.75	0.	131.63
4663	9.5	-5.25	0.	131.93
4664	9.5	-5.75	0.	131.85
4665	9.5	-6.25	0.	131.28
4666	9.5	-6.75	0.	130.65
4667	9.25	-6.5	0.	130.4
4668	9.5	-7.25	0.	130.27
4669	9.5	-7.75	0.	130.1
4670	9.5	-8.25	0.	129.99
4671	9.5	-8.75	0.	129.88
4672	9.5	-9.25	0.	129.77
4673	9.25	-9.5	0.	129.07
4674	8.75	-9.5	0.	127.66
4675	8.25	-9.5	0.	126.02
4676	7.75	-9.5	0.	124.15
4677	7.25	-9.5	0.	122.26
4678	6.75	-9.5	0.	120.77
4679	6.25	-9.5	0.	120.22
4680	5.75	-9.5	0.	120.91
4681	5.25	-9.4999	0.	122.73
4682	4.7499	-9.4998	0.	125.14
4683	4.2499	-9.4998	0.	127.47
4684	3.75	-9.4998	0.	129.31
4685	3.25	-9.5001	0.	130.52
4686	2.75	-9.5006	0.	131.2
4687	2.2499	-9.5013	0.	131.45
4688	1.7498	-9.5019	0.	131.21
4689	1.2496	-9.5019	0.	130.17
4690	0.74962	-9.5013	0.	127.7
4691	0.24968	-9.5007	0.	123.47
4692	0.49936	-9.2517	0.	126.94
4693	-0.25023	-9.5003	0.	118.53
4694	-4.1162e-004	-9.2507	0.	121.22
4695	-0.75018	-9.5001	0.	115.12
4696	-0.50029	-9.2503	0.	115.52
4697	-1.2501	-9.4999	0.	115.05
4698	-1.0001	-9.25	0.	113.19
4699	-1.75	-9.4998	0.	118.34
4700	-2.2499	-9.4995	0.	123.15
4701	-2.7498	-9.4991	0.	127.2
4702	-3.2494	-9.4986	0.	129.38
4703	-3.7487	-9.4984	0.	129.88
4704	-4.2478	-9.4982	0.	129.18
4705	-4.7469	-9.4976	0.	127.5
4706	-5.2454	-9.4974	0.	125.
4707	-5.7434	-9.4984	0.	122.35
4708	-6.242	-9.5028	0.	120.83
4709	-6.7422	-9.5087	0.	121.35
4710	-7.2438	-9.5106	0.	123.49
4711	-7.7456	-9.5079	0.	125.97
4712	-8.2465	-9.5034	0.	127.96
4713	-9.248	-9.4985	0.	130.61
4714	-8.7472	-9.4999	0.	129.4
4715	-9.4972	-9.2477	0.	131.1
4716	-9.4936	-8.7458	0.	130.79
4717	-9.4875	-8.2437	0.	130.3
4718	-9.4785	-7.7416	0.	129.7
4719	-9.4703	-7.24	0.	129.14
4720	-9.4687	-6.7387	0.	128.72
4721	-9.4739	-6.2371	0.	128.32
4722	-9.4809	-5.7347	0.	127.82
4723	-9.4862	-5.2321	0.	127.3
4724	-9.4898	-4.7294	0.	127.05
4725	-9.4925	-4.2257	0.	127.27
4726	-9.4946	-3.7207	0.	127.88
4727	-9.4959	-3.2157	0.	128.62
4728	-9.4974	-2.7113	0.	129.27
4729	-9.501	-2.2078	0.	129.73
4730	-9.5065	-1.7055	0.	129.93
4731	-9.5115	-1.2052	0.	129.74
4732	-9.5151	-0.70704	0.	128.97
4733	-9.5176	-0.21094	0.	127.76
4734	-9.5193	0.2837	0.	126.84
4735	-9.5201	0.77758	0.	127.04
4736	-9.5193	1.2714	0.	128.36
4737	-9.5164	1.7655	0.	130.28
4738	-9.5113	2.2601	0.	133.18
4739	-9.5051	2.7554	0.	135.18
4740	-9.5011	3.2521	0.	135.49
4741	-9.5001	3.7506	0.	135.14
4742	-9.5	4.2501	0.	134.4
4743	-9.5	4.75	0.	132.32
4744	-9.4999	5.2499	0.	130.22
4745	-9.4999	5.7498	0.	130.66
4746	-9.2499	5.4996	0.	126.38
4747	-9.4999	6.2499	0.	133.39
4748	-9.5	6.7499	0.	135.62
4749	-9.5	7.25	0.	136.66
4750	-9.5	7.75	0.	137.91
4751	-9.5	8.25	0.	137.13
4752	-9.5	8.75	0.	133.48
4753	-9.5	9.25	0.	129.97
4754	-9.25	9.5	0.	127.57
4755	-8.75	9.5	0.	122.93
4756	-8.25	9.5	0.	119.88
4757	-7.75	9.5	0.	119.88
4758	-7.25	9.5	0.	123.05
4759	-6.75	9.5	0.	127.96
4760	-6.25	9.5	0.	127.91
4761	-5.75	9.5	0.	126.2
4762	-5.25	9.5	0.	125.83
4763	-4.75	9.5	0.	125.79
4764	-4.25	9.5	0.	125.82
4765	-3.75	9.5	0.	125.81
4766	-3.25	9.5	0.	125.7
4767	-2.75	9.5	0.	125.49
4768	-2.2501	9.5	0.	125.18
4769	-1.7501	9.5	0.	124.83
4770	-1.2502	9.5	0.	124.51
4771	-0.75024	9.5	0.	124.29
4772	-0.25037	9.5001	0.	124.24
4773	0.24947	9.5001	0.	124.35
4774	-6.6694e-004	9.2501	0.	124.12
4775	0.74927	9.5	0.	124.56
4776	1.2491	9.5	0.	124.8
4777	1.7489	9.4998	0.	125.01
4778	2.2488	9.4996	0.	125.16
4779	2.7488	9.4994	0.	125.26
4780	3.7488	9.4987	0.	125.35
4781	3.2488	9.4991	0.	125.32
4782	4.2489	9.4984	0.	125.39
4783	4.7489	9.498	0.	125.44
4784	5.2489	9.4975	0.	125.53
4785	5.7489	9.4975	0.	125.56
4786	6.2489	9.4977	0.	125.21
4787	6.749	9.4981	0.	124.21
4788	7.2492	9.499	0.	123.12
4789	7.7495	9.4996	0.	123.09
4790	8.2497	9.4998	0.	124.11
4791	9.2499	9.5	0.	125.25
4792	8.7499	9.5	0.	125.02
4793	-2.4578	-2.9487	0.	103.62
4794	0.12847	-3.3716	0.	131.25
4795	0.37459	-3.179	0.	129.29
4796	-0.50106	8.2501	0.	122.46
4797	3.2024	5.9808	0.	126.44
4798	4.455	1.2155	0.	122.33
4799	3.2905	3.0396	0.	127.69
4800	3.4484	-1.7491	0.	131.55
4801	1.9926	-7.7637	0.	128.67
4802	2.2408	-7.5114	0.	128.48
4803	-2.2508	4.4997	0.	126.19
4804	-2.501	4.7495	0.	126.28
4805	-2.5006	4.2497	0.	127.14
4806	-3.2065	-4.9585	0.	131.89
4807	0.71877	-1.4615	0.	126.22
4808	0.97901	-1.6946	0.	125.93
4809	0.94258	-1.1951	0.	128.4
4810	-4.2215	-0.49556	0.	131.04
4811	2.7432	7.9957	0.	125.59
4812	3.2425	7.9936	0.	125.25
4813	5.8772	1.8356	0.	126.47
4814	5.4052	1.7802	0.	120.81
4815	1.1945	1.5391	0.	130.33
4816	-4.2395	-7.9973	0.	128.87
4817	-4.4845	-7.7553	0.	128.42
4818	6.8745	-1.6378	0.	111.02
4819	7.3631	1.4997	0.	120.53
4820	7.1678	1.2035	0.	117.03
4821	3.8559	2.3251	0.	131.28
4822	5.75	-8.	0.	117.46
4823	5.25	-7.9999	0.	122.1
4824	-8.0481	-1.493	0.	125.73
4825	-8.0004	-2.0241	0.	125.66
4826	-7.8069	-1.6728	0.	123.17
4827	0.94413	0.78243	0.	130.99
4828	4.6844	-3.9293	0.	126.47
4829	-7.7257	-2.1654	0.	124.15
4830	-7.5322	-1.8141	0.	121.66
4831	-5.2588	-6.1848	0.	137.16
4832	-8.7498	5.4991	0.	120.28
4833	8.0968	1.314	0.	125.71
4834	6.3537	1.8929	0.	126.83
4835	3.7217	3.7194	0.	130.11
4836	4.0312	3.9261	0.	130.97
4837	2.5272	-3.735	0.	133.12
4838	-4.1776	1.9889	0.	128.78
4839	-1.2267	-1.4785	0.	120.96
4840	6.4428	-1.6365	0.	121.64
4841	3.8935	-1.7795	0.	137.25
4842	4.1008	-2.0624	0.	139.48
4843	-3.4619	0.74131	0.	127.02
4844	-3.4584	1.2424	0.	127.49
4845	3.7486	-7.9973	0.	131.07
4846	3.999	-7.7475	0.	131.59
4847	2.834	-3.9331	0.	131.11
4848	4.3643	4.6452	0.	124.32
4849	4.3134	4.1437	0.	128.37
4850	0.82793	-5.3825	0.	121.37
4851	0.95556	-5.1079	0.	115.4
4852	-4.0002	6.7496	0.	129.82
4853	1.1665	-0.93391	0.	129.68
4854	7.8417	1.5401	0.	122.77
4855	0.99711	8.2498	0.	125.06
4856	2.8651	-5.0981	0.	133.42
4857	0.93314	-0.70348	0.	130.65
4858	7.7388	4.0051	0.	123.69
4859	7.9842	3.7548	0.	123.57
4860	1.1936	-5.5576	0.	121.02
4861	4.2632	-6.5016	0.	131.73
4862	-5.3204	-2.4167	0.	126.42
4863	-7.2141	-8.0823	0.	128.28
4864	1.2297	-7.0325	0.	127.4
4865	-4.5	7.7499	0.	125.73
4866	-3.5478	-4.0272	0.	130.
4867	-3.4245	-4.5007	0.	129.85
4868	-5.5013	3.712	0.	122.49
4869	-5.0855	-6.4887	0.	134.64
4870	-5.2462	3.4611	0.	125.07
4871	8.4998	9.2499	0.	125.76
4872	-0.25047	-9.0007	0.	118.22
4873	0.24926	-9.0017	0.	124.69
4874	0.248	8.0001	0.	123.29
4875	-0.25141	8.0001	0.	122.2
4876	6.9122	3.2659	0.	122.51
4877	0.49719	7.7501	0.	124.1
4878	0.74714	7.9999	0.	124.62
4879	-2.7513	4.9992	0.	126.31
4880	5.9598	6.1798	0.	126.65
4881	-6.2372	-1.9468	0.	120.73
4882	4.6729	5.3998	0.	123.6
4883	4.9045	5.1151	0.	122.13
4884	4.9341	5.6498	0.	123.67
4885	4.4051	5.1585	0.	123.89
4886	4.1394	4.921	0.	125.27
4887	4.6367	4.8737	0.	122.4
4888	-4.656	-4.1261	0.	132.79
4889	0.23313	3.0043	0.	123.37
4890	-0.26051	3.0018	0.	114.06
4891	3.1349	-4.1296	0.	129.86
4892	5.1249	0.11165	0.	113.93
4893	-3.974e-002	-3.1533	0.	129.55
4894	1.3212	-5.283	0.	116.06
4895	6.177	4.8849	0.	125.12
4896	5.9197	5.1129	0.	125.
4897	0.97799	-6.7884	0.	127.3
4898	0.98643	-7.2761	0.	128.3
4899	-4.7087	-3.6535	0.	133.66
4900	-4.9206	-3.409	0.	131.67
4901	4.9859	-3.7079	0.	125.46
4902	-1.0008	7.75	0.	121.82
4903	0.95129	1.2811	0.	130.84
4904	-2.9816	0.24228	0.	127.05
4905	-7.373	-1.5333	0.	119.72
4906	-3.8753	-3.8169	0.	132.3
4907	-4.4501	-3.872	0.	133.12
4908	3.6986	5.9651	0.	125.71
4909	2.595	-4.8951	0.	132.76
4910	3.6616	2.5574	0.	128.25
4911	3.4852	2.7932	0.	128.39
4912	-0.73788	-1.4836	0.	119.35
4913	-5.8754	-0.238	0.	131.42
4914	-5.6402	-0.48354	0.	130.75
4915	-0.2268	-1.9964	0.	122.1
4916	-0.48871	-1.7415	0.	120.33
4917	6.097	2.1014	0.	130.44
4918	6.1247	1.6271	0.	127.71
4919	-3.2216	0.49209	0.	126.97
4920	-2.9992	3.7494	0.	130.2
4921	-2.7505	3.9995	0.	128.57
4922	-5.7492	3.4542	0.	121.83
4923	-6.2511	3.4389	0.	120.22
4924	4.7413	7.9866	0.	124.68
4925	-7.8414	-7.2443	0.	127.82
4926	-7.9291	-7.7694	0.	129.26
4927	5.9411	5.6487	0.	125.59
4928	5.6989	5.9114	0.	125.55
4929	6.5781	-1.0379	0.	125.47
4930	4.4341	5.6758	0.	124.29
4931	-7.7092	-8.0473	0.	129.79
4932	1.0926	-2.1619	0.	123.73
4933	6.446	5.1758	0.	125.18
4934	1.2462	7.9995	0.	125.52
4935	-0.75026	-9.0002	0.	113.57
4936	3.6434	-2.0059	0.	133.84
4937	3.8507	-2.2887	0.	136.17
4938	-4.75	8.	0.	124.32
4939	-4.838	-2.4213	0.	130.23
4940	2.871	1.8393	0.	130.93
4941	-2.7482	3.4998	0.	130.
4942	-3.2469	3.4988	0.	131.32
4943	-2.4995	3.7499	0.	128.36
4944	3.6027	3.2555	0.	128.51
4945	-3.4601	1.7441	0.	128.81
4946	-3.7022	1.9933	0.	129.31
4947	-0.75096	8.0001	0.	122.14
4948	5.0126	-3.2092	0.	124.45
4949	6.1887	5.4037	0.	125.06
4950	-3.901	-2.884	0.	137.91
4951	-5.0633	-2.1792	0.	128.75
4952	0.99257	-7.7669	0.	129.23
4953	0.7247	3.0097	0.	130.35
4954	-4.7397	-7.5055	0.	127.19
4955	0.20638	-2.9607	0.	127.54
4956	5.1956	5.9115	0.	124.59
4957	4.6952	5.9258	0.	124.36
4958	4.1964	5.9454	0.	124.88
4959	6.655	-1.444	0.	121.92
4960	-8.	4.	0.	98.626
4961	-9.	4.	0.	100.48
4962	-8.	3.	0.	97.454
4963	-9.	3.	0.	101.42
4964	-8.5	4.	0.	115.05
4965	-8.	3.5	0.	103.38
4966	-9.	3.5	0.	106.36
4967	-8.5	3.	0.	115.39
4968	-8.5	3.5	0.	112.79
4969	-8.25	4.	0.	106.82
4970	-8.	3.75	0.	100.99
4971	-8.75	4.	0.	107.74
4972	-9.	3.75	0.	103.41
4973	-8.	3.25	0.	100.4
4974	-8.25	3.	0.	106.4
4975	-9.	3.25	0.	103.89
4976	-8.75	3.	0.	108.39
4977	-8.5	3.75	0.	113.86
4978	-8.25	3.5	0.	108.06
4979	-8.75	3.5	0.	109.56
4980	-8.5	3.25	0.	114.04
4981	-7.	9.	0.	99.37
4982	-9.	9.	0.	100.97
4983	-7.	7.	0.	99.325
4984	-9.	7.	0.	101.83
4985	-7.5	9.	0.	117.81
4986	-8.	9.	0.	117.01
4987	-8.5	9.	0.	118.68
4988	-7.	8.5	0.	104.64
4989	-7.	8.	0.	103.16
4990	-7.	7.5	0.	104.26
4991	-9.	8.5	0.	107.02
4992	-9.	8.	0.	106.06
4993	-9.	7.5	0.	106.59
4994	-8.5	7.	0.	116.65
4995	-8.	7.	0.	115.21
4996	-7.5	7.	0.	117.37
4997	-8.	8.	0.	118.84
4998	-8.	8.5	0.	119.58
4999	-7.5	8.5	0.	115.09
5000	-7.5	8.	0.	113.97
5001	-7.5	7.5	0.	114.59
5002	-8.	7.5	0.	118.46
5003	-8.5	7.5	0.	115.62
5004	-8.5	8.	0.	115.69
5005	-8.5	8.5	0.	116.68
5006	-7.25	9.	0.	108.49
5007	-7.	8.75	0.	101.99
5008	-8.75	9.	0.	109.73
5009	-9.	8.75	0.	103.99
5010	-7.	7.25	0.	101.76
5011	-7.25	7.	0.	108.26
5012	-9.	7.25	0.	104.2
5013	-8.75	7.	0.	109.19
5014	-7.75	9.	0.	117.4
5015	-7.5	8.75	0.	116.4
5016	-8.25	9.	0.	117.84
5017	-8.	8.75	0.	118.26
5018	-8.5	8.75	0.	117.62
5019	-7.	8.25	0.	103.84
5020	-7.25	8.5	0.	109.84
5021	-7.	7.75	0.	103.65
5022	-7.25	8.	0.	108.55
5023	-7.25	7.5	0.	109.41
5024	-9.	8.25	0.	106.52
5025	-8.75	8.5	0.	111.83
5026	-9.	7.75	0.	106.3
5027	-8.75	8.	0.	110.87
5028	-8.75	7.5	0.	111.1
5029	-8.25	7.	0.	115.93
5030	-8.5	7.25	0.	116.1
5031	-7.75	7.	0.	116.28
5032	-8.	7.25	0.	116.81
5033	-7.5	7.25	0.	115.95
5034	-8.	8.25	0.	119.21
5035	-7.75	8.	0.	116.4
5036	-8.	7.75	0.	118.65
5037	-8.25	8.	0.	117.26
5038	-7.75	8.5	0.	117.31
5039	-8.25	8.5	0.	118.1
5040	-7.5	8.25	0.	114.5
5041	-7.5	7.75	0.	114.25
5042	-7.75	7.5	0.	116.52
5043	-8.25	7.5	0.	117.04
5044	-8.5	7.75	0.	115.65
5045	-8.5	8.25	0.	116.18
5046	0.	-6.	0.	99.76
5047	-2.	-6.	0.	92.369
5048	0.	-8.	0.	96.558
5049	-2.	-8.	0.	95.866
5050	-0.5	-6.	0.	114.05
5051	-1.	-6.	0.	109.96
5052	-1.5	-6.	0.	108.61
5053	0.	-6.5	0.	102.4
5054	0.	-7.	0.	100.15
5055	0.	-7.5	0.	100.84
5056	-2.	-6.5	0.	98.028
5057	-2.	-7.	0.	97.971
5058	-2.	-7.5	0.	99.669
5059	-1.5	-8.	0.	109.34
5060	-1.	-8.	0.	107.1
5061	-0.5	-8.	0.	109.83
5062	-1.	-6.5	0.	111.19
5063	-0.5	-6.5	0.	109.89
5064	-0.5	-7.5	0.	107.9
5065	-1.	-7.5	0.	109.87
5066	-1.5	-7.5	0.	106.97
5067	-1.5	-6.5	0.	106.59
5068	-1.5	-7.	0.	106.09
5069	-0.5	-7.	0.	107.86
5070	-1.	-7.	0.	110.16
5071	-0.25	-6.	0.	106.76
5072	0.	-6.25	0.	101.06
5073	-1.75	-6.	0.	100.45
5074	-2.	-6.25	0.	95.174
5075	0.	-7.75	0.	98.692
5076	-0.25	-8.	0.	103.13
5077	-2.	-7.75	0.	97.756
5078	-1.75	-8.	0.	102.54
5079	-0.75	-6.	0.	111.99
5080	-0.5	-6.25	0.	111.94
5081	-1.25	-6.	0.	109.28
5082	-1.	-6.25	0.	110.56
5083	-1.5	-6.25	0.	107.58
5084	0.	-6.75	0.	101.24
5085	-0.25	-6.5	0.	106.12
5086	0.	-7.25	0.	100.47
5087	-0.25	-7.	0.	104.
5088	-0.25	-7.5	0.	104.36
5089	-2.	-6.75	0.	97.963
5090	-1.75	-6.5	0.	102.29
5091	-2.	-7.25	0.	98.788
5092	-1.75	-7.	0.	102.02
5093	-1.75	-7.5	0.	103.3
5094	-1.25	-8.	0.	108.22
5095	-1.5	-7.75	0.	108.13
5096	-0.75	-8.	0.	108.47
5097	-1.	-7.75	0.	108.47
5098	-0.5	-7.75	0.	108.84
5099	-0.75	-6.5	0.	110.51
5100	-1.25	-6.5	0.	108.87
5101	-1.	-6.75	0.	110.67
5102	-0.5	-6.75	0.	108.87
5103	-0.75	-7.5	0.	108.88
5104	-0.5	-7.25	0.	107.87
5105	-1.25	-7.5	0.	108.41
5106	-1.	-7.25	0.	110.01
5107	-1.5	-7.25	0.	106.51
5108	-1.5	-6.75	0.	106.32
5109	-1.25	-7.	0.	108.12
5110	-0.75	-7.	0.	109.01
5111	0.	2.	0.	95.781
5112	-2.	2.	0.	97.148
5113	0.	0.	0.	98.152
5114	-2.	0.	0.	93.618
5115	-0.5	2.	0.	108.85
5116	-1.	2.	0.	106.65
5117	-1.5	2.	0.	109.86
5118	0.	1.5	0.	100.7
5119	0.	1.	0.	100.03
5120	0.	0.5	0.	101.61
5121	-2.	1.5	0.	100.27
5122	-2.	1.	0.	98.494
5123	-2.	0.5	0.	99.04
5124	-1.5	0.	0.	109.36
5125	-1.	0.	0.	108.52
5126	-0.5	0.	0.	111.55
5127	-1.	1.	0.	109.64
5128	-1.	0.5	0.	110.29
5129	-1.5	0.5	0.	106.86
5130	-1.5	1.	0.	106.26
5131	-1.5	1.5	0.	107.22
5132	-1.	1.5	0.	109.47
5133	-0.5	1.5	0.	107.24
5134	-0.5	1.	0.	107.13
5135	-0.5	0.5	0.	108.49
5136	-0.25	2.	0.	102.26
5137	0.	1.75	0.	98.234
5138	-1.75	2.	0.	103.43
5139	-2.	1.75	0.	98.701
5140	0.	0.25	0.	99.872
5141	-0.25	0.	0.	104.77
5142	-2.	0.25	0.	96.306
5143	-1.75	0.	0.	101.43
5144	-0.75	2.	0.	107.75
5145	-0.5	1.75	0.	108.01
5146	-1.25	2.	0.	108.25
5147	-1.	1.75	0.	108.04
5148	-1.5	1.75	0.	108.51
5149	0.	1.25	0.	100.34
5150	-0.25	1.5	0.	103.96
5151	0.	0.75	0.	100.79
5152	-0.25	1.	0.	103.58
5153	-0.25	0.5	0.	105.04
5154	-2.	1.25	0.	99.351
5155	-1.75	1.5	0.	103.73
5156	-2.	0.75	0.	98.734
5157	-1.75	1.	0.	102.37
5158	-1.75	0.5	0.	102.94
5159	-1.25	0.	0.	108.94
5160	-1.5	0.25	0.	108.09
5161	-0.75	0.	0.	110.03
5162	-1.	0.25	0.	109.39
5163	-0.5	0.25	0.	110.
5164	-1.	0.75	0.	109.97
5165	-1.25	1.	0.	107.95
5166	-1.	1.25	0.	109.55
5167	-0.75	1.	0.	108.39
5168	-1.25	0.5	0.	108.56
5169	-0.75	0.5	0.	109.38
5170	-1.5	0.75	0.	106.55
5171	-1.5	1.25	0.	106.73
5172	-1.25	1.5	0.	108.33
5173	-0.75	1.5	0.	108.35
5174	-0.5	1.25	0.	107.18
5175	-0.5	0.75	0.	107.8
5176	0.	6.	0.	93.88
5177	-1.	6.	0.	93.496
5178	0.	4.	0.	93.707
5179	-1.	4.	0.	90.709
5180	-0.5	6.	0.	107.48
5181	0.	5.5	0.	97.87
5182	0.	5.	0.	96.475
5183	0.	4.5	0.	97.005
5184	-1.	5.5	0.	96.952
5185	-1.	5.	0.	95.451
5186	-1.	4.5	0.	95.839
5187	-0.5	4.	0.	105.13
5188	-0.5	5.5	0.	101.55
5189	-0.5	5.	0.	99.003
5190	-0.5	4.5	0.	100.52
5191	-0.25	6.	0.	100.61
5192	0.	5.75	0.	95.868
5193	-0.75	6.	0.	100.44
5194	-1.	5.75	0.	95.221
5195	0.	4.25	0.	95.354
5196	-0.25	4.	0.	99.387
5197	-1.	4.25	0.	93.269
5198	-0.75	4.	0.	97.883
5199	-0.5	5.75	0.	104.47
5200	0.	5.25	0.	97.144
5201	-0.25	5.5	0.	99.653
5202	0.	4.75	0.	96.712
5203	-0.25	5.	0.	97.738
5204	-0.25	4.5	0.	98.731
5205	-1.	5.25	0.	96.157
5206	-0.75	5.5	0.	99.188
5207	-1.	4.75	0.	95.604
5208	-0.75	5.	0.	97.224
5209	-0.75	4.5	0.	98.151
5210	-0.5	4.25	0.	102.79
5211	-0.5	5.25	0.	100.27
5212	-0.5	4.75	0.	99.761
5213	7.	-6.	0.	90.92
5214	5.	-6.	0.	102.32
5215	7.	-7.	0.	94.635
5216	5.	-7.	0.	99.543
5217	6.5	-6.	0.	108.59
5218	6.	-6.	0.	111.95
5219	5.5	-6.	0.	117.28
5220	7.	-6.5	0.	97.584
5221	5.	-6.5	0.	105.88
5222	5.5	-7.	0.	115.23
5223	6.	-7.	0.	111.63
5224	6.5	-7.	0.	111.02
5225	5.5	-6.5	0.	114.65
5226	6.	-6.5	0.	114.75
5227	6.5	-6.5	0.	108.62
5228	6.75	-6.	0.	99.746
5229	7.	-6.25	0.	94.222
5230	5.25	-6.	0.	109.73
5231	5.	-6.25	0.	104.08
5232	7.	-6.75	0.	96.092
5233	6.75	-7.	0.	102.77
5234	5.	-6.75	0.	102.69
5235	5.25	-7.	0.	107.34
5236	6.25	-6.	0.	110.25
5237	6.5	-6.25	0.	108.59
5238	5.75	-6.	0.	114.61
5239	6.	-6.25	0.	113.34
5240	5.5	-6.25	0.	115.95
5241	6.75	-6.5	0.	103.07
5242	5.25	-6.5	0.	110.25
5243	5.75	-7.	0.	113.43
5244	5.5	-6.75	0.	114.91
5245	6.25	-7.	0.	111.32
5246	6.	-6.75	0.	113.18
5247	6.5	-6.75	0.	109.8
5248	5.75	-6.5	0.	114.7
5249	6.25	-6.5	0.	111.68
5250	8.	8.	0.	98.425
5251	7.	8.	0.	98.205
5252	8.	7.	0.	98.386
5253	7.	7.	0.	97.82
5254	7.5	8.	0.	113.98
5255	8.	7.5	0.	103.59
5256	7.	7.5	0.	103.29
5257	7.5	7.	0.	113.66
5258	7.5	7.5	0.	111.21
5259	7.75	8.	0.	106.18
5260	8.	7.75	0.	101.
5261	7.25	8.	0.	106.07
5262	7.	7.75	0.	100.74
5263	8.	7.25	0.	100.98
5264	7.75	7.	0.	106.01
5265	7.	7.25	0.	100.55
5266	7.25	7.	0.	105.72
5267	7.5	7.75	0.	112.54
5268	7.75	7.5	0.	107.38
5269	7.25	7.5	0.	107.23
5270	7.5	7.25	0.	112.39
5271	8.	-3.	0.	98.154
5272	6.	-3.	0.	97.403
5273	8.	-5.	0.	100.99
5274	6.	-5.	0.	91.744
5275	7.5	-3.	0.	110.76
5276	7.	-3.	0.	108.21
5277	6.5	-3.	0.	111.5
5278	8.	-3.5	0.	103.05
5279	8.	-4.	0.	102.51
5280	8.	-4.5	0.	104.45
5281	6.	-3.5	0.	99.882
5282	6.	-4.	0.	97.234
5283	6.	-4.5	0.	97.208
5284	6.5	-5.	0.	107.03
5285	7.	-5.	0.	108.52
5286	7.5	-5.	0.	114.15
5287	7.	-4.	0.	110.6
5288	6.5	-4.	0.	105.97
5289	6.5	-3.5	0.	107.83
5290	7.	-3.5	0.	110.89
5291	7.5	-3.5	0.	109.29
5292	7.5	-4.	0.	109.18
5293	7.5	-4.5	0.	110.65
5294	7.	-4.5	0.	110.78
5295	6.5	-4.5	0.	105.71
5296	7.75	-3.	0.	104.4
5297	8.	-3.25	0.	100.59
5298	6.25	-3.	0.	104.34
5299	6.	-3.25	0.	98.626
5300	8.	-4.75	0.	102.71
5301	7.75	-5.	0.	107.47
5302	6.	-4.75	0.	94.457
5303	6.25	-5.	0.	99.351
5304	7.25	-3.	0.	109.48
5305	7.5	-3.25	0.	109.99
5306	6.75	-3.	0.	109.85
5307	7.	-3.25	0.	109.53
5308	6.5	-3.25	0.	109.64
5309	8.	-3.75	0.	102.76
5310	7.75	-3.5	0.	106.16
5311	8.	-4.25	0.	103.46
5312	7.75	-4.	0.	105.84
5313	7.75	-4.5	0.	107.53
5314	6.	-3.75	0.	98.518
5315	6.25	-3.5	0.	103.83
5316	6.	-4.25	0.	97.18
5317	6.25	-4.	0.	101.6
5318	6.25	-4.5	0.	101.45
5319	6.75	-5.	0.	107.78
5320	6.5	-4.75	0.	106.35
5321	7.25	-5.	0.	111.33
5322	7.	-4.75	0.	109.63
5323	7.5	-4.75	0.	112.37
5324	6.75	-4.	0.	108.28
5325	7.	-3.75	0.	110.75
5326	7.25	-4.	0.	109.89
5327	7.	-4.25	0.	110.69
5328	6.5	-3.75	0.	106.88
5329	6.5	-4.25	0.	105.82
5330	6.75	-3.5	0.	109.34
5331	7.25	-3.5	0.	110.09
5332	7.5	-3.75	0.	109.23
5333	7.5	-4.25	0.	109.91
5334	7.25	-4.5	0.	110.7
5335	6.75	-4.5	0.	108.24
5336	-5.22	-5.01	0.	75.448
5337	-6.46	-3.56	0.	101.74
5338	-7.1	-5.36	0.	64.436
5339	-5.53	-4.6475	0.	106.25
5340	-5.84	-4.285	0.	101.48
5341	-6.15	-3.9225	0.	94.919
5342	-5.69	-5.0975	0.	115.29
5343	-6.16	-5.185	0.	103.53
5344	-6.63	-5.2725	0.	109.59
5345	-6.62	-4.01	0.	97.042
5346	-6.78	-4.46	0.	97.994
5347	-6.94	-4.91	0.	101.93
5348	-6.2132	-4.3152	0.	100.97
5349	-6.5992	-4.934	0.	98.144
5350	-6.4656	-4.6082	0.	100.73
5351	-5.9138	-4.7251	0.	104.45
5352	-6.2538	-4.8667	0.	103.51
5353	-5.375	-4.8288	0.	88.896
5354	-5.455	-5.0538	0.	93.258
5355	-6.305	-3.7413	0.	97.01
5356	-6.54	-3.785	0.	97.942
5357	-6.865	-5.3162	0.	86.911
5358	-7.02	-5.135	0.	83.134
5359	-5.685	-4.4662	0.	103.84
5360	-5.7219	-4.6863	0.	105.27
5361	-5.995	-4.1038	0.	98.201
5362	-6.0266	-4.3001	0.	101.2
5363	-6.1816	-4.1188	0.	97.925
5364	-5.925	-5.1413	0.	109.37
5365	-5.8019	-4.9113	0.	109.68
5366	-6.395	-5.2288	0.	106.56
5367	-6.2069	-5.0259	0.	103.52
5368	-6.6146	-5.1032	0.	103.85
5369	-6.7	-4.235	0.	97.46
5370	-6.4166	-4.1626	0.	98.963
5371	-6.86	-4.685	0.	99.963
5372	-6.6228	-4.5341	0.	99.353
5373	-6.7696	-4.922	0.	100.02
5374	-6.3394	-4.4617	0.	100.84
5375	-6.0635	-4.5201	0.	102.65
5376	-6.5324	-4.7711	0.	99.408
5377	-6.4265	-4.9003	0.	100.82
5378	-6.3597	-4.7375	0.	102.11
5379	-6.0838	-4.7959	0.	103.92
5380	-7.59	1.15	0.	79.046
5381	-7.58	-0.16	0.	82.228
5382	-6.46	0.5	0.	70.427
5383	-7.5867	0.71333	0.	101.35
5384	-7.5833	0.27667	0.	101.12
5385	-7.2133	0.93333	0.	97.705
5386	-6.8367	0.71667	0.	101.29
5387	-7.2067	6.e-002	0.	96.431
5388	-6.8333	0.28	0.	100.13
5389	-7.2968	0.64961	0.	98.114
5390	-7.2946	0.34603	0.	98.386
5391	-7.0369	0.49648	0.	101.91
5392	-7.5883	0.93167	0.	88.135
5393	-7.4017	1.0417	0.	86.386
5394	-7.5817	5.8333e-002	0.	89.463
5395	-7.3933	-5.e-002	0.	87.297
5396	-6.6483	0.60833	0.	79.84
5397	-6.6467	0.39	0.	79.32
5398	-7.585	0.495	0.	101.08
5399	-7.4417	0.68147	0.	99.7
5400	-7.439	0.31135	0.	99.704
5401	-7.025	0.825	0.	99.357
5402	-7.2551	0.79147	0.	97.843
5403	-6.9368	0.60657	0.	101.
5404	-7.02	0.17	0.	98.151
5405	-7.2506	0.20301	0.	97.336
5406	-6.9351	0.38824	0.	100.4
5407	-7.2957	0.49782	0.	98.245
5408	-7.1669	0.57304	0.	99.902
5409	-7.1657	0.42125	0.	100.04
5410	-6.42	-7.67	0.	103.47
5411	-5.76	-6.77	0.	54.115
5412	-6.87	-6.65	0.	53.768
5413	-6.09	-7.22	0.	80.911
5414	-6.645	-7.16	0.	88.115
5415	-6.315	-6.71	0.	113.
5416	-6.35	-7.03	0.	97.421
5417	-6.255	-7.445	0.	91.545
5418	-6.5325	-7.415	0.	94.196
5419	-5.925	-6.995	0.	65.421
5420	-6.0375	-6.74	0.	82.471
5421	-6.7575	-6.905	0.	70.612
5422	-6.5925	-6.68	0.	83.371
5423	-6.22	-7.125	0.	88.734
5424	-6.4975	-7.095	0.	92.414
5425	-6.3325	-6.87	0.	105.14
5426	-1.39	-3.82	0.	52.668
5427	-2.75	-3.77	0.	51.334
5428	-2.11	-4.97	0.	104.84
5429	-1.8433	-3.8033	0.	107.51
5430	-2.2967	-3.7867	0.	106.36
5431	-1.63	-4.2033	0.	91.271
5432	-1.87	-4.5867	0.	86.421
5433	-2.5367	-4.17	0.	93.233
5434	-2.3233	-4.57	0.	87.737
5435	-1.923	-4.1019	0.	94.715
5436	-2.0895	-4.3678	0.	95.575
5437	-2.2375	-4.0903	0.	94.556
5438	-1.6167	-3.8117	0.	79.069
5439	-1.51	-4.0117	0.	70.817
5440	-2.5233	-3.7783	0.	78.445
5441	-2.6433	-3.97	0.	71.72
5442	-1.99	-4.7783	0.	94.172
5443	-2.2167	-4.77	0.	94.835
5444	-2.07	-3.795	0.	106.82
5445	-1.8832	-3.9526	0.	101.
5446	-2.2671	-3.9385	0.	100.35
5447	-1.75	-4.395	0.	88.687
5448	-1.7765	-4.1526	0.	92.862
5449	-1.9797	-4.4772	0.	90.928
5450	-2.43	-4.37	0.	90.423
5451	-2.3871	-4.1302	0.	93.805
5452	-2.2064	-4.4689	0.	91.588
5453	-2.0063	-4.2348	0.	95.06
5454	-2.0802	-4.0961	0.	94.536
5455	-2.1635	-4.2291	0.	95.004
5456	1.66	-4.44	0.	60.697
5457	0.92	-3.66	0.	105.06
5458	0.61	-4.69	0.	60.261
5459	1.29	-4.05	0.	85.65
5460	1.135	-4.565	0.	119.22
5461	0.765	-4.175	0.	97.881
5462	1.0633	-4.2632	0.	104.8
5463	1.475	-4.245	0.	69.196
5464	1.3975	-4.5025	0.	86.805
5465	1.105	-3.855	0.	94.678
5466	0.8425	-3.9175	0.	99.605
5467	0.8725	-4.6275	0.	89.384
5468	0.6875	-4.4325	0.	78.864
5469	1.1767	-4.1566	0.	94.577
5470	1.0992	-4.4141	0.	111.71
5471	0.91416	-4.2191	0.	101.07
5472	-2.03	-2.7	0.	83.273
5473	-1.92	-1.55	0.	66.037
5474	-2.97	-2.03	0.	67.881
5475	-1.9933	-2.3167	0.	93.563
5476	-1.9567	-1.9333	0.	95.819
5477	-2.3433	-2.4767	0.	87.695
5478	-2.6567	-2.2533	0.	94.876
5479	-2.27	-1.71	0.	97.879
5480	-2.62	-1.87	0.	102.08
5481	-2.2425	-2.2327	0.	93.495
5482	-2.216	-1.966	0.	93.45
5483	-2.4599	-2.0789	0.	99.307
5484	-2.0117	-2.5083	0.	86.105
5485	-2.1867	-2.5883	0.	83.484
5486	-1.9383	-1.7417	0.	79.578
5487	-2.095	-1.63	0.	80.393
5488	-2.8133	-2.1417	0.	74.778
5489	-2.795	-1.95	0.	78.243
5490	-1.975	-2.125	0.	94.523
5491	-2.1179	-2.2747	0.	93.479
5492	-2.0863	-1.9497	0.	94.63
5493	-2.5	-2.365	0.	91.158
5494	-2.2929	-2.3547	0.	90.522
5495	-2.5583	-2.1661	0.	96.445
5496	-2.445	-1.79	0.	99.9
5497	-2.243	-1.838	0.	95.598
5498	-2.54	-1.9745	0.	100.05
5499	-2.2293	-2.0993	0.	93.441
5500	-2.3512	-2.1558	0.	96.242
5501	-2.338	-2.0225	0.	96.219
5502	7.05	-1.17	0.	100.91
5503	7.97	-0.2	0.	68.706
5504	6.67	0.11	0.	60.858
5505	7.3567	-0.84667	0.	89.47
5506	7.6633	-0.52333	0.	96.345
5507	6.9233	-0.74333	0.	94.724
5508	6.7967	-0.31667	0.	100.67
5509	7.5367	-9.6667e-002	0.	111.1
5510	7.1033	6.6667e-003	0.	110.85
5511	7.1892	-0.59265	0.	99.578
5512	7.4034	-0.36847	0.	101.87
5513	7.1005	-0.29774	0.	98.803
5514	7.2033	-1.0083	0.	93.887
5515	6.9867	-0.95667	0.	96.073
5516	7.8167	-0.36167	0.	79.248
5517	7.7533	-0.14833	0.	86.517
5518	6.7333	-0.10333	0.	80.612
5519	6.8867	5.8333e-002	0.	85.551
5520	7.51	-0.685	0.	92.817
5521	7.2729	-0.71966	0.	94.512
5522	7.5334	-0.4459	0.	98.823
5523	6.86	-0.53	0.	97.581
5524	7.0563	-0.66799	0.	97.063
5525	6.9486	-0.3072	0.	99.73
5526	7.32	-4.5e-002	0.	110.86
5527	7.4701	-0.23257	0.	106.14
5528	7.1019	-0.14554	0.	104.8
5529	7.2963	-0.48056	0.	100.61
5530	7.1448	-0.44519	0.	99.161
5531	7.2519	-0.33311	0.	100.22
5532	4.31	2.57	0.	70.991
5533	5.62	2.72	0.	78.435
5534	4.84	3.78	0.	103.
5535	4.7467	2.62	0.	116.67
5536	5.1833	2.67	0.	112.15
5537	4.4867	2.9733	0.	107.92
5538	4.6633	3.3767	0.	95.645
5539	5.36	3.0733	0.	101.47
5540	5.1	3.4267	0.	99.5
5541	4.852	3.0343	0.	102.19
5542	4.5283	2.595	0.	93.601
5543	4.3983	2.7717	0.	89.33
5544	5.4017	2.695	0.	94.481
5545	5.49	2.8967	0.	89.017
5546	4.7517	3.5783	0.	98.301
5547	4.97	3.6033	0.	100.14
5548	4.965	2.645	0.	114.41
5549	4.7993	2.8272	0.	109.42
5550	5.2717	2.8717	0.	106.71
5551	5.0177	2.8522	0.	107.16
5552	4.575	3.175	0.	101.73
5553	4.6693	3.0038	0.	105.04
5554	4.7577	3.2055	0.	98.897
5555	5.23	3.25	0.	100.44
5556	4.976	3.2305	0.	100.81
5557	5.54	-0.91	0.	67.28
5558	4.51	-1.22	0.	64.41
5559	5.3	-1.96	0.	100.99
5560	5.025	-1.065	0.	112.63
5561	5.42	-1.435	0.	101.98
5562	4.905	-1.59	0.	88.234
5563	5.1168	-1.3632	0.	104.42
5564	5.2825	-0.9875	0.	88.907
5565	5.48	-1.1725	0.	84.066
5566	4.7675	-1.1425	0.	84.269
5567	4.7075	-1.405	0.	71.646
5568	5.36	-1.6975	0.	99.507
5569	5.1025	-1.775	0.	93.576
5570	5.0709	-1.2141	0.	107.92
5571	5.2684	-1.3991	0.	103.06
5572	5.0109	-1.4766	0.	95.636
5573	-5.	6.	0.	101.43
5574	-7.	6.	0.	98.552
5575	-5.	5.	0.	101.12
5576	-7.	5.	0.	99.246
5577	-5.5	6.	0.	119.4
5578	-6.	6.	0.	118.73
5579	-6.5	6.	0.	119.63
5580	-5.	5.5	0.	106.56
5581	-7.	5.5	0.	103.76
5582	-6.5	5.	0.	117.04
5583	-6.	5.	0.	116.64
5584	-5.5	5.	0.	118.33
5585	-6.5	5.5	0.	116.63
5586	-6.	5.5	0.	120.92
5587	-5.5	5.5	0.	117.56
5588	-5.25	6.	0.	110.37
5589	-5.	5.75	0.	103.97
5590	-6.75	6.	0.	109.01
5591	-7.	5.75	0.	101.1
5592	-5.	5.25	0.	103.81
5593	-5.25	5.	0.	109.69
5594	-7.	5.25	0.	101.48
5595	-6.75	5.	0.	108.11
5596	-5.75	6.	0.	119.06
5597	-5.5	5.75	0.	118.46
5598	-6.25	6.	0.	119.18
5599	-6.	5.75	0.	119.82
5600	-6.5	5.75	0.	118.11
5601	-5.25	5.5	0.	112.04
5602	-6.75	5.5	0.	110.18
5603	-6.25	5.	0.	116.83
5604	-6.5	5.25	0.	116.82
5605	-5.75	5.	0.	117.48
5606	-6.	5.25	0.	118.77
5607	-5.5	5.25	0.	117.93
5608	-6.25	5.5	0.	118.77
5609	-5.75	5.5	0.	119.24
