Node Number	X Location (mm)	Y Location (mm)	Z Location (mm)	Equivalent (von-Mises) Stress (MPa)
1	-2.04	7.88	0.	179.02
2	-0.87	7.75	0.	172.86
3	-1.34	8.84	0.	120.67
4	2.23	7.05	0.	192.95
5	1.14	7.51	0.	150.88
6	1.29	6.33	0.	152.02
7	7.09	7.23	0.	117.2
8	6.59	5.57	0.	163.08
9	8.27	5.96	0.	164.09
10	6.49	-0.39	0.	131.77
11	7.89	0.8	0.	164.87
12	6.15	1.42	0.	154.5
13	-3.88	-1.76	0.	171.8
14	-2.38	-1.24	0.	159.71
15	-3.58	-0.19	0.	132.44
16	4.73	-2.49	0.	142.59
17	6.36	-1.48	0.	146.81
18	4.67	-0.58	0.	147.34
19	-1.2	-7.38	0.	130.42
20	-1.43	-8.76	0.	148.24
21	-0.12	-8.27	0.	156.73
22	6.72	-5.86	0.	153.21
23	5.08	-6.58	0.	160.18
24	6.53	-7.64	0.	134.45
25	-2.96	-7.31	0.	158.92
26	-1.72	-8.11	0.	149.19
27	-1.64	-6.63	0.	146.09
28	-4.	6.	0.	135.67
29	-4.	5.	0.	136.07
30	-3.	6.	0.	136.43
31	-3.	5.	0.	134.49
32	-1.	6.	0.	134.15
33	-1.	4.	0.	134.12
34	1.	6.	0.	149.7
35	1.	4.	0.	133.36
36	-8.	7.	0.	136.5
37	-8.	5.	0.	135.32
38	-6.	7.	0.	137.15
39	-6.	5.	0.	136.77
40	5.	7.	0.	131.15
41	5.	5.	0.	134.01
42	6.	7.	0.	136.74
43	6.	5.	0.	139.27
44	-1.	2.	0.	131.16
45	-1.	0.	0.	131.07
46	0.	2.	0.	129.9
47	0.	0.	0.	133.78
48	-9.	0.	0.	138.78
49	-9.	-2.	0.	139.06
50	-7.	0.	0.	137.83
51	-7.	-2.	0.	139.9
52	-5.	0.	0.	138.55
53	-5.	-2.	0.	136.22
54	-4.	0.	0.	144.88
55	-4.	-2.	0.	162.49
56	1.	1.	0.	133.89
57	1.	-1.	0.	130.18
58	2.	1.	0.	133.47
59	2.	-1.	0.	131.98
60	2.	-6.	0.	136.13
61	2.	-8.	0.	135.42
62	3.	-6.	0.	134.04
63	3.	-8.	0.	133.71
64	0.	-6.	0.	134.37
65	0.	-8.	0.	144.11
66	1.	-6.	0.	137.3
67	1.	-8.	0.	132.84
68	-2.	-5.	0.	129.28
69	-2.	-6.	0.	119.47
70	-1.	-5.	0.	135.11
71	-1.	-6.	0.	136.89
72	-7.	-7.	0.	135.19
73	-7.	-9.	0.	133.53
74	-5.	-7.	0.	134.34
75	-5.	-9.	0.	136.09
76	10.	10.	0.	124.98
77	-10.	10.	0.	124.97
78	10.	-10.	0.	131.23
79	-10.	-10.	0.	132.23
80	6.	5.5052	0.	146.36
81	-4.	-1.6235	0.	160.42
82	-1.68	-7.3699	0.	149.31
83	-1.3151	-8.0708	0.	146.96
84	-1.65	7.8367	0.	103.87
85	-1.26	7.7933	0.	102.85
86	-1.8067	8.2	0.	109.9
87	-1.5733	8.52	0.	93.663
88	-1.0267	8.1133	0.	133.12
89	-1.1833	8.4767	0.	114.86
90	1.8667	7.2033	0.	61.689
91	1.5033	7.3567	0.	97.34
92	1.9167	6.81	0.	70.096
93	1.6033	6.57	0.	92.21
94	1.19	7.1167	0.	147.85
95	1.24	6.7233	0.	144.01
96	6.965	6.815	0.	132.06
97	6.84	6.4	0.	138.37
98	6.715	5.985	0.	140.01
99	7.385	6.9125	0.	100.83
100	7.68	6.595	0.	113.56
101	7.975	6.2775	0.	99.72
102	7.01	5.6675	0.	109.26
103	7.43	5.765	0.	117.21
104	7.85	5.8625	0.	113.21
105	6.84	-9.25e-002	0.	92.915
106	7.19	0.205	0.	105.71
107	7.54	0.5025	0.	85.315
108	6.405	6.25e-002	0.	142.32
109	6.32	0.515	0.	139.79
110	6.235	0.9675	0.	141.39
111	7.455	0.955	0.	94.231
112	7.02	1.11	0.	112.13
113	6.585	1.265	0.	102.56
114	-3.38	-1.5867	0.	117.34
115	-2.88	-1.4133	0.	94.499
116	-3.78	-1.2367	0.	150.04
117	-3.68	-0.71333	0.	154.51
118	-2.78	-0.89	0.	83.951
119	-3.18	-0.54	0.	89.596
120	5.1375	-2.2375	0.	99.847
121	5.545	-1.985	0.	109.27
122	5.9525	-1.7325	0.	95.837
123	4.715	-2.0125	0.	144.96
124	4.7	-1.535	0.	146.8
125	4.685	-1.0575	0.	145.94
126	5.9375	-1.255	0.	93.929
127	5.515	-1.03	0.	113.93
128	5.0925	-0.805	0.	102.9
129	-1.2576	-7.7254	0.	141.67
130	-1.3726	-8.4154	0.	160.62
131	-0.84263	-7.6745	0.	100.41
132	-0.48227	-7.9715	0.	91.764
133	-0.99333	-8.5967	0.	112.22
134	-0.55667	-8.4333	0.	106.23
135	6.31	-6.04	0.	99.603
136	5.9	-6.22	0.	108.13
137	5.49	-6.4	0.	87.176
138	6.6725	-6.305	0.	144.63
139	6.625	-6.75	0.	143.08
140	6.5775	-7.195	0.	140.19
141	5.4425	-6.845	0.	83.277
142	5.805	-7.11	0.	100.44
143	6.1675	-7.375	0.	90.435
144	-2.5467	-7.5767	0.	80.451
145	-2.1333	-7.8433	0.	92.987
146	-2.52	-7.0833	0.	87.466
147	-2.08	-6.8567	0.	97.937
148	-1.7	-7.7399	0.	144.45
149	-1.66	-6.9999	0.	153.78
150	-4.	5.5	0.	144.89
151	-3.5	6.	0.	112.76
152	-3.5	5.	0.	112.08
153	-3.	5.5	0.	144.08
154	-1.	5.5	0.	140.9
155	-1.	5.	0.	143.13
156	-1.	4.5	0.	142.88
157	-0.5	6.	0.	112.88
158	0.	6.	0.	121.83
159	0.5	6.	0.	125.31
160	-0.5	4.	0.	112.18
161	0.	4.	0.	116.67
162	0.5	4.	0.	113.09
163	1.	5.5	0.	139.29
164	1.	5.	0.	142.15
165	1.	4.5	0.	141.5
166	-8.	6.5	0.	145.67
167	-8.	6.	0.	146.81
168	-8.	5.5	0.	145.34
169	-7.5	7.	0.	114.95
170	-7.	7.	0.	119.3
171	-6.5	7.	0.	114.8
172	-7.5	5.	0.	114.38
173	-7.	5.	0.	118.48
174	-6.5	5.	0.	113.98
175	-6.	6.5	0.	145.36
176	-6.	6.	0.	145.92
177	-6.	5.5	0.	144.43
178	5.	6.5	0.	140.62
179	5.	6.	0.	141.35
180	5.	5.5	0.	142.13
181	5.5	7.	0.	106.89
182	5.5	5.	0.	110.71
183	6.	6.507	0.	142.42
184	6.	6.0083	0.	140.69
185	-1.	1.5	0.	142.54
186	-1.	1.	0.	143.4
187	-1.	0.5	0.	143.49
188	-0.5	2.	0.	106.75
189	-0.5	0.	0.	106.22
190	0.	1.5	0.	141.7
191	0.	1.	0.	142.37
192	0.	0.5	0.	141.19
193	-9.	-0.5	0.	150.38
194	-9.	-1.	0.	152.33
195	-9.	-1.5	0.	150.66
196	-8.5	0.	0.	116.56
197	-8.	0.	0.	120.15
198	-7.5	0.	0.	115.19
199	-8.5	-2.	0.	117.51
200	-8.	-2.	0.	120.93
201	-7.5	-2.	0.	115.57
202	-7.	-0.5	0.	145.75
203	-7.	-1.	0.	146.83
204	-7.	-1.5	0.	146.29
205	-5.	-0.5	0.	144.14
206	-5.	-1.	0.	143.
207	-5.	-1.5	0.	143.81
208	-4.5	0.	0.	111.68
209	-4.5	-2.	0.	120.72
210	1.	0.5	0.	141.49
211	1.	0.	0.	142.18
212	1.	-0.5	0.	141.57
213	1.5	1.	0.	107.64
214	1.5	-1.	0.	106.63
215	2.	0.5	0.	142.33
216	2.	0.	0.	142.15
217	2.	-0.5	0.	141.31
218	2.	-6.5	0.	144.19
219	2.	-7.	0.	144.81
220	2.	-7.5	0.	143.23
221	2.5	-6.	0.	109.5
222	2.5	-8.	0.	108.83
223	3.	-6.5	0.	141.11
224	3.	-7.	0.	141.21
225	3.	-7.5	0.	141.92
226	0.	-6.5006	0.	144.9
227	0.	-7.0015	0.	144.02
228	0.	-7.5006	0.	146.88
229	0.5	-6.	0.	110.54
230	0.5	-8.	0.	105.22
231	1.	-6.5	0.	145.31
232	1.	-7.	0.	146.3
233	1.	-7.5	0.	144.77
234	-2.	-5.5	0.	134.7
235	-1.5	-5.	0.	110.73
236	-1.5	-6.	0.	110.19
237	-1.	-5.5	0.	145.82
238	-7.	-7.5	0.	143.91
239	-7.	-8.	0.	144.94
240	-7.	-8.5	0.	143.65
241	-6.5	-7.	0.	112.57
242	-6.	-7.	0.	116.53
243	-5.5	-7.	0.	111.91
244	-6.5	-9.	0.	111.42
245	-6.	-9.	0.	114.98
246	-5.5	-9.	0.	111.96
247	-5.	-7.5	0.	142.31
248	-5.	-8.	0.	144.21
249	-5.	-8.5	0.	144.45
250	9.5	10.	0.	124.92
251	9.	10.	0.	124.53
252	8.5	10.	0.	123.92
253	8.	10.	0.	123.28
254	7.5	10.	0.	122.81
255	7.	10.	0.	122.67
256	6.5	10.	0.	122.89
257	6.	10.	0.	123.43
258	5.5	10.	0.	124.27
259	5.	10.	0.	125.33
260	4.5	10.	0.	126.42
261	4.	10.	0.	127.23
262	3.5	10.	0.	127.41
263	3.	10.	0.	126.75
264	2.5	10.	0.	125.44
265	2.	10.	0.	124.11
266	1.5	10.	0.	123.51
267	1.	10.	0.	123.92
268	0.5	10.	0.	125.1
269	-5.2042e-015	10.	0.	125.97
270	-0.5	10.	0.	124.46
271	-1.	10.	0.	121.98
272	-1.5	10.	0.	120.88
273	-2.	10.	0.	123.48
274	-2.5	10.	0.	127.12
275	-3.	10.	0.	128.86
276	-3.5	10.	0.	128.75
277	-4.	10.	0.	128.01
278	-4.5	10.	0.	127.08
279	-5.	10.	0.	125.97
280	-5.5	10.	0.	124.68
281	-6.	10.	0.	123.36
282	-6.5	10.	0.	122.31
283	-7.	10.	0.	121.79
284	-7.5	10.	0.	121.92
285	-8.	10.	0.	122.57
286	-8.5	10.	0.	123.49
287	-9.	10.	0.	124.36
288	-9.5	10.	0.	124.9
289	10.	9.5	0.	125.12
290	10.	9.	0.	125.81
291	10.	8.5	0.	126.6
292	10.	8.	0.	126.77
293	10.	7.5	0.	125.73
294	10.	7.	0.	123.39
295	10.	6.5	0.	121.07
296	10.	6.	0.	121.41
297	10.	5.5	0.	125.06
298	10.	5.	0.	129.47
299	10.	4.5	0.	132.55
300	10.	4.	0.	134.07
301	10.	3.5	0.	134.72
302	10.	3.	0.	134.76
303	10.	2.5	0.	133.97
304	10.	2.	0.	131.92
305	10.	1.5	0.	128.73
306	10.	1.	0.	125.74
307	10.	0.5	0.	124.59
308	10.	-5.2042e-015	0.	125.8
309	10.	-0.5	0.	127.92
310	10.	-1.	0.	129.61
311	10.	-1.5	0.	130.59
312	10.	-2.	0.	131.18
313	10.	-2.5	0.	131.66
314	10.	-3.	0.	132.07
315	10.	-3.5	0.	132.28
316	10.	-4.	0.	132.08
317	10.	-4.5	0.	131.33
318	10.	-5.	0.	129.99
319	10.	-5.5	0.	128.29
320	10.	-6.	0.	126.67
321	10.	-6.5	0.	125.67
322	10.	-7.	0.	125.62
323	10.	-7.5	0.	126.45
324	10.	-8.	0.	127.8
325	10.	-8.5	0.	129.21
326	10.	-9.	0.	130.33
327	10.	-9.5	0.	131.01
328	-10.	9.5	0.	125.13
329	-10.	9.	0.	126.09
330	-10.	8.5	0.	127.26
331	-10.	8.	0.	127.73
332	-10.	7.5	0.	126.86
333	-10.	7.	0.	124.92
334	-10.	6.5	0.	123.08
335	-10.	6.	0.	122.62
336	-10.	5.5	0.	123.96
337	-10.	5.	0.	126.69
338	-10.	4.5	0.	129.56
339	-10.	4.	0.	131.45
340	-10.	3.5	0.	132.16
341	-10.	3.	0.	132.29
342	-10.	2.5	0.	132.57
343	-10.	2.	0.	133.54
344	-10.	1.5	0.	135.55
345	-10.	1.	0.	138.33
346	-10.	0.5	0.	138.97
347	-10.	-5.2042e-015	0.	135.13
348	-10.	-0.5	0.	130.69
349	-10.	-1.	0.	130.45
350	-10.	-1.5	0.	131.38
351	-10.	-2.	0.	136.41
352	-10.	-2.5	0.	140.66
353	-10.	-3.	0.	140.18
354	-10.	-3.5	0.	137.44
355	-10.	-4.	0.	135.32
356	-10.	-4.5	0.	134.01
357	-10.	-5.	0.	133.18
358	-10.	-5.5	0.	132.43
359	-10.	-6.	0.	131.51
360	-10.	-6.5	0.	130.37
361	-10.	-7.	0.	129.22
362	-10.	-7.5	0.	128.47
363	-10.	-8.	0.	128.48
364	-10.	-8.5	0.	129.29
365	-10.	-9.	0.	130.59
366	-10.	-9.5	0.	131.77
367	-9.5	-10.	0.	132.14
368	-9.	-10.	0.	133.24
369	-8.5	-10.	0.	134.75
370	-8.	-10.	0.	135.92
371	-7.5	-10.	0.	133.17
372	-7.	-10.	0.	122.98
373	-6.5	-10.	0.	112.5
374	-6.	-10.	0.	108.88
375	-5.5	-10.	0.	113.68
376	-5.	-10.	0.	125.31
377	-4.5	-10.	0.	136.22
378	-4.	-10.	0.	138.8
379	-3.5	-10.	0.	136.29
380	-3.	-10.	0.	132.33
381	-2.5	-10.	0.	128.13
382	-2.	-10.	0.	123.46
383	-1.5	-10.	0.	117.34
384	-1.	-10.	0.	114.56
385	-0.5	-10.	0.	117.89
386	5.2042e-015	-10.	0.	123.65
387	0.5	-10.	0.	126.99
388	1.	-10.	0.	128.12
389	1.5	-10.	0.	127.81
390	2.	-10.	0.	126.37
391	2.5	-10.	0.	125.52
392	3.	-10.	0.	126.42
393	3.5	-10.	0.	128.25
394	4.	-10.	0.	129.09
395	4.5	-10.	0.	128.11
396	5.	-10.	0.	125.71
397	5.5	-10.	0.	123.03
398	6.	-10.	0.	121.43
399	6.5	-10.	0.	121.77
400	7.	-10.	0.	123.74
401	7.5	-10.	0.	126.14
402	8.	-10.	0.	127.98
403	8.5	-10.	0.	129.01
404	9.	-10.	0.	129.55
405	9.5	-10.	0.	130.11
406	-4.	-1.211	0.	167.65
407	-4.	-0.80385	0.	147.35
408	-4.	-0.40088	0.	146.67
409	5.7445	-4.1726	0.	118.16
410	-5.9754	-4.9856	0.	121.98
411	-5.9639	-4.4852	0.	124.6
412	-6.0156	2.5102	0.	125.96
413	-5.5198	2.5154	0.	127.16
414	-4.5226	2.5282	0.	126.35
415	-4.9495	-4.4598	0.	125.26
416	-6.4714	-4.4912	0.	124.4
417	-6.4791	-4.9908	0.	122.33
418	3.5846	2.4682	0.	132.03
419	-3.3363	-3.563	0.	122.35
420	1.477	-3.5069	0.	124.71
421	0.98848	-3.5039	0.	124.46
422	0.49921	-3.4977	0.	124.9
423	-0.8899	-2.8017	0.	125.48
424	-0.84863	-2.3295	0.	124.96
425	-3.7916	-3.3692	0.	120.99
426	-2.5308	1.1441	0.	126.56
427	2.1037	5.6166	0.	124.53
428	-3.3122	-3.1172	0.	120.38
429	5.7736	-4.6929	0.	117.04
430	7.108	2.9634	0.	117.45
431	7.1164	2.5044	0.	115.86
432	-5.986	-5.486	0.	119.03
433	-2.8363	-3.1534	0.	122.22
434	7.07	3.4311	0.	118.58
435	5.296	-4.2648	0.	120.28
436	4.1036	2.4662	0.	130.92
437	2.4546	-4.0137	0.	127.22
438	1.9632	-3.5123	0.	125.78
439	2.4458	-3.5201	0.	127.55
440	2.9231	-3.5283	0.	129.75
441	-5.4731	-4.9755	0.	123.02
442	-4.4059	-3.9364	0.	124.24
443	1.4834	-3.0061	0.	123.24
444	3.0503	2.9892	0.	132.43
445	-5.9542	-3.9858	0.	127.35
446	-6.9784	-4.4944	0.	124.41
447	-6.021	2.0127	0.	127.55
448	-7.0068	2.5031	0.	122.02
449	-6.5066	3.0044	0.	122.43
450	-1.424	-3.1936	0.	124.84
451	-3.8979	-3.9372	0.	123.57
452	-4.4453	-4.4499	0.	125.37
453	-3.5135	3.0336	0.	126.4
454	-5.0148	3.0153	0.	128.14
455	5.6472	3.1833	0.	122.23
456	4.0822	2.9761	0.	131.4
457	3.5418	3.4988	0.	132.53
458	2.4367	5.1647	0.	128.54
459	7.5061	4.4256	0.	118.22
460	2.9679	5.0456	0.	130.37
461	2.9852	4.554	0.	130.62
462	4.6095	2.9767	0.	129.44
463	5.1579	2.97	0.	126.49
464	-4.5158	3.0213	0.	127.53
465	-3.0151	2.5508	0.	127.73
466	-3.0207	2.0713	0.	126.4
467	-3.981	-4.9563	0.	127.23
468	-0.97106	-3.2332	0.	124.83
469	-6.0098	3.0077	0.	125.14
470	-5.5128	3.0116	0.	127.37
471	-6.5145	2.0072	0.	125.71
472	-7.0092	2.0038	0.	123.15
473	-6.4655	-3.9919	0.	126.69
474	3.0336	3.5089	0.	132.23
475	3.0148	4.0319	0.	131.49
476	1.0035	-3.0017	0.	123.1
477	1.9676	-3.0134	0.	124.75
478	2.4458	-3.0289	0.	127.25
479	-5.5248	2.0188	0.	127.91
480	-4.0253	2.0466	0.	124.21
481	-4.5212	1.5347	0.	123.71
482	-5.441	-3.9744	0.	126.97
483	-4.9244	-3.9568	0.	125.69
484	-4.4754	-4.9559	0.	126.43
485	-4.9727	-4.9639	0.	124.82
486	2.9388	-4.0146	0.	129.02
487	4.1262	1.9564	0.	129.74
488	7.108	-3.9807	0.	125.35
489	6.6496	-4.0263	0.	121.9
490	4.8453	-4.358	0.	124.46
491	6.1268	3.2511	0.	119.34
492	6.6646	2.9423	0.	116.43
493	4.3832	-4.4294	0.	128.7
494	-1.8851	-3.1737	0.	124.98
495	7.0831	-3.485	0.	125.82
496	-3.2947	-2.6264	0.	117.18
497	4.1628	1.439	0.	127.78
498	3.9167	6.0382	0.	130.37
499	-2.0564	1.1431	0.	130.35
500	-5.9973	-0.99729	0.	133.89
501	-3.8481	-2.816	0.	119.12
502	-5.9929	-5.9891	0.	115.44
503	5.8094	-5.2062	0.	114.65
504	-0.82457	-1.851	0.	122.82
505	1.9676	-4.0101	0.	126.19
506	1.4783	-4.0071	0.	125.63
507	0.49278	-3.9986	0.	125.49
508	7.0928	2.0448	0.	113.72
509	7.5836	4.8633	0.	117.32
510	7.5159	3.9388	0.	120.03
511	7.5456	3.4467	0.	120.43
512	7.5703	2.9571	0.	120.65
513	7.5761	2.4661	0.	121.08
514	-7.5057	2.0018	0.	121.16
515	-7.5023	3.0011	0.	120.55
516	-7.5013	3.5007	0.	119.41
517	-7.4837	-4.4964	0.	124.65
518	-7.4817	-3.997	0.	123.86
519	3.517	4.02	0.	132.46
520	3.4105	5.5581	0.	131.42
521	-2.5251	1.6002	0.	127.53
522	-3.0098	3.0341	0.	128.12
523	-2.5053	3.0283	0.	130.97
524	-2.8734	-3.5995	0.	123.47
525	-3.4096	-4.01	0.	124.13
526	-1.459	-3.6383	0.	122.3
527	-6.2936e-004	-3.4821	0.	125.58
528	-5.0087	3.5109	0.	129.97
529	-7.482	-3.4983	0.	122.8
530	2.9234	-2.583	0.	129.71
531	1.5063	-2.5052	0.	120.99
532	-6.0195	1.5133	0.	130.15
533	-3.0179	1.1173	0.	122.93
534	-2.03	0.74334	0.	131.17
535	-3.521	1.5689	0.	122.67
536	-4.3667	-3.4216	0.	122.59
537	-5.9513	-3.4876	0.	130.68
538	-6.4865	-5.4914	0.	120.15
539	-6.983	-4.9939	0.	123.76
540	-7.4869	-4.996	0.	125.48
541	-5.4871	-5.4778	0.	120.85
542	-4.0068	-5.4466	0.	129.6
543	2.4683	-4.5082	0.	125.91
544	4.74	1.0282	0.	122.84
545	7.5075	-6.8055	0.	128.81
546	6.2229	-4.603	0.	116.85
547	7.5606	-3.4718	0.	127.64
548	7.6044	-4.4637	0.	129.38
549	3.3975	-3.5202	0.	131.68
550	5.2687	-3.7386	0.	118.68
551	3.893	-3.9763	0.	130.72
552	5.2384	0.51671	0.	119.16
553	7.0193	3.9309	0.	119.54
554	5.5627	3.6148	0.	121.26
555	7.6906	-0.41432	0.	127.87
556	7.5442	-2.9766	0.	127.44
557	6.6039	-3.0289	0.	124.85
558	7.0715	-2.9941	0.	126.53
559	-2.3198	-2.7194	0.	126.03
560	4.8759	-4.884	0.	126.8
561	4.4131	-4.9447	0.	130.71
562	6.0526	3.6994	0.	119.93
563	6.54	3.8044	0.	119.97
564	4.7374	0.62765	0.	120.81
565	4.2462	0.88607	0.	125.84
566	4.3589	-3.9255	0.	127.78
567	4.8166	-3.8436	0.	122.59
568	3.3531	-2.5988	0.	131.82
569	3.3748	-3.0482	0.	132.32
570	3.3841	6.0808	0.	131.04
571	7.1385	-4.4792	0.	126.03
572	6.6784	-4.5288	0.	120.71
573	4.6405	1.9616	0.	128.72
574	4.6758	1.4731	0.	125.87
575	6.2209	2.7607	0.	118.04
576	5.6898	2.7842	0.	123.41
577	0.98866	-4.5039	0.	125.4
578	1.9767	-4.507	0.	126.17
579	1.4824	-4.5061	0.	126.48
580	3.4395	-4.4976	0.	130.36
581	2.9552	-4.5071	0.	127.82
582	-4.4978	-5.4557	0.	127.87
583	-4.9903	-5.4665	0.	124.53
584	-7.4903	-5.4961	0.	126.7
585	-4.9083	-3.4562	0.	126.08
586	-4.0194	1.5484	0.	122.24
587	-2.4962	0.69189	0.	126.88
588	-5.5218	1.5198	0.	129.6
589	3.6286	-1.5495	0.	130.98
590	1.9929	-2.5152	0.	123.31
591	2.4758	-2.536	0.	126.82
592	2.5513	2.4867	0.	131.07
593	2.0378	2.4964	0.	128.23
594	0.55702	-2.4882	0.	122.76
595	1.03	-2.4991	0.	121.28
596	2.5297	3.5231	0.	131.66
597	2.5143	4.049	0.	130.42
598	-6.9741	-3.4967	0.	126.33
599	-6.5137	1.5073	0.	128.08
600	-7.009	1.5036	0.	124.29
601	-5.5078	3.5086	0.	128.57
602	-0.53619	-3.4566	0.	125.39
603	-3.4542	-4.4887	0.	125.75
604	-1.9273	-3.631	0.	122.77
605	-2.5098	2.5451	0.	130.36
606	-2.516	2.0676	0.	128.96
607	-4.5096	3.515	0.	128.89
608	-4.0099	3.5195	0.	126.56
609	5.0715	3.5201	0.	125.17
610	3.4927	4.5326	0.	132.01
611	6.1417	-2.5908	0.	122.26
612	-2.8099	-2.3424	0.	120.88
613	5.3656	-5.3258	0.	122.42
614	3.6674	-2.0437	0.	131.29
615	2.4919	5.9284	0.	133.57
616	7.5765	-6.3787	0.	127.65
617	-6.4922	-5.9933	0.	117.67
618	3.089	0.45873	0.	131.26
619	-7.4846	-2.9992	0.	121.28
620	-6.5019	4.0018	0.	118.94
621	-2.4097	0.24894	0.	129.3
622	-1.9379	0.31019	0.	132.27
623	3.9415	5.5381	0.	130.98
624	-3.0058	3.5214	0.	127.34
625	-2.5029	3.5169	0.	130.78
626	-3.976	7.5113	0.	125.45
627	-3.956	8.0147	0.	125.14
628	-4.4695	8.0081	0.	127.22
629	5.1591	6.8458e-002	0.	115.52
630	-7.9923	-5.4973	0.	128.74
631	-7.9902	-4.9972	0.	127.
632	-7.9887	-4.4976	0.	125.4
633	-7.9879	-3.9984	0.	123.62
634	-7.988	-3.4991	0.	121.32
635	-7.9898	-2.9996	0.	118.38
636	-7.9997	-7.9996	0.	131.79
637	5.4295	-8.1343	0.	122.76
638	4.9535	-8.086	0.	128.52
639	4.4727	-8.0468	0.	131.65
640	7.9855	7.5512	0.	127.11
641	2.1013	8.0345	0.	124.87
642	2.5598	7.994	0.	134.01
643	3.0373	7.9959	0.	133.56
644	3.5245	7.9926	0.	131.23
645	7.9887	8.0468	0.	124.65
646	-7.5006	4.0005	0.	117.72
647	-8.0022	1.0002	0.	116.87
648	-8.0031	1.5006	0.	119.26
649	-8.0034	2.0008	0.	120.89
650	-8.0023	2.5007	0.	121.79
651	-8.0014	3.0006	0.	122.23
652	-8.0008	3.5004	0.	122.6
653	7.5562	1.9721	0.	122.26
654	8.073	4.8189	0.	123.53
655	8.0286	4.3891	0.	122.84
656	8.0212	3.9254	0.	122.94
657	8.0321	3.443	0.	123.58
658	8.0434	2.9486	0.	124.63
659	8.0459	2.4446	0.	126.86
660	0.49334	-4.5015	0.	124.77
661	-0.7537	-1.4124	0.	119.52
662	1.5282	2.5042	0.	125.52
663	7.5181	-2.4752	0.	126.5
664	5.4258	-7.721	0.	121.16
665	6.9494	4.5137	0.	120.14
666	3.6136	-1.0538	0.	130.33
667	3.6313	0.42716	0.	130.85
668	5.2442	-3.2166	0.	115.09
669	3.8649	-3.488	0.	132.53
670	0.245	6.8148	0.	117.66
671	-0.23677	8.1791	0.	125.55
672	6.2504	-5.0978	0.	112.65
673	7.6211	-4.9535	0.	132.03
674	7.4873	-7.2122	0.	128.84
675	8.0983	-0.50372	0.	132.26
676	7.9999	-0.97262	0.	128.63
677	7.9799	-1.4682	0.	125.92
678	7.9906	-1.9721	0.	125.95
679	8.0086	-2.4736	0.	127.11
680	8.027	-2.9731	0.	128.13
681	8.0456	-3.4718	0.	128.83
682	8.0601	-3.9673	0.	129.54
683	8.0768	-4.4642	0.	130.55
684	8.089	-4.9607	0.	131.4
685	8.09	-5.456	0.	130.98
686	8.0754	-5.9539	0.	128.81
687	8.0355	-6.4618	0.	127.2
688	7.9417	-7.0038	0.	127.39
689	7.9835	-7.5416	0.	129.1
690	7.9865	-8.0407	0.	130.36
691	5.2298	0.98256	0.	121.08
692	5.1409	2.4367	0.	128.89
693	2.4796	-5.0049	0.	122.67
694	3.9413	-4.9795	0.	132.6
695	-5.496	-5.9824	0.	118.25
696	-3.0691	-5.9044	0.	130.55
697	-3.5445	-5.914	0.	132.72
698	-4.0262	-5.9338	0.	132.71
699	-7.9946	-5.9976	0.	130.77
700	-4.3885	-2.9199	0.	120.77
701	-3.5115	1.0771	0.	120.93
702	-5.9988	-0.49516	0.	133.16
703	3.0976	-2.1015	0.	130.19
704	3.0833	1.9684	0.	132.48
705	1.535	-2.0049	0.	117.49
706	1.9898	4.5503	0.	128.12
707	2.0319	3.0104	0.	130.72
708	-5.9938	-1.4981	0.	133.16
709	-5.9587	-2.9902	0.	134.54
710	-7.504	1.0011	0.	119.37
711	-6.0111	1.012	0.	133.71
712	-6.4939	8.0001	0.	119.35
713	-4.9791	8.0037	0.	129.36
714	-1.4708	-4.0852	0.	118.67
715	-4.6534e-003	-3.9924	0.	126.71
716	-3.0177	-5.4654	0.	126.53
717	-2.9216	-4.0547	0.	125.25
718	-2.0227	1.5753	0.	130.18
719	-2.0021	3.0197	0.	133.35
720	-0.49677	3.0012	0.	112.73
721	-4.9999	5.5026	0.	130.63
722	-3.5046	4.0135	0.	122.36
723	-5.0047	4.0074	0.	132.67
724	-2.0079	5.4838	0.	127.41
725	-3.4374	8.0248	0.	123.91
726	-3.4747	7.5124	0.	124.78
727	-3.4959	7.0036	0.	123.24
728	3.903	6.5293	0.	128.9
729	4.016	7.9901	0.	130.08
730	5.5167	4.0788	0.	118.89
731	4.0212	4.0051	0.	132.75
732	3.9691	5.0305	0.	132.25
733	3.995	4.5215	0.	133.12
734	4.5248	4.0069	0.	130.58
735	5.01	8.0158	0.	123.43
736	4.5127	7.9994	0.	128.06
737	4.0029	7.494	0.	130.04
738	3.958	7.0098	0.	128.99
739	-3.0078	6.9902	0.	128.98
740	-3.003	4.0119	0.	125.6
741	-2.5016	4.0086	0.	130.71
742	-2.0028	4.9929	0.	130.28
743	-4.5053	4.0098	0.	131.02
744	-4.4904	7.0055	0.	129.98
745	-4.9964	6.503	0.	132.75
746	-4.9987	6.0026	0.	132.46
747	0.51093	3.0024	0.	118.86
748	6.2452e-003	3.0009	0.	113.17
749	-2.0107	2.048	0.	131.51
750	-1.954	-4.0867	0.	120.87
751	-2.4356	-4.0775	0.	124.97
752	-2.9581	-4.5216	0.	126.4
753	-0.49868	-4.0028	0.	126.87
754	-0.98477	-4.0624	0.	123.08
755	-4.9918	7.0038	0.	132.61
756	-4.985	7.5045	0.	131.44
757	-5.4859	8.0015	0.	129.38
758	-5.9906	8.0004	0.	124.95
759	-6.0031	4.0035	0.	125.36
760	-5.5045	4.0061	0.	131.07
761	-5.0023	4.5048	0.	134.17
762	-5.001	5.0036	0.	132.76
763	-6.5088	1.0066	0.	131.49
764	-7.0063	1.003	0.	125.55
765	-6.9779	-2.9978	0.	127.61
766	1.525	3.0107	0.	128.97
767	2.0239	3.5242	0.	131.68
768	2.0121	4.0391	0.	130.22
769	-2.0005	4.0049	0.	132.76
770	-2.0009	3.5116	0.	133.37
771	-1.4999	3.0103	0.	131.33
772	-0.99847	3.0039	0.	121.35
773	-1.1324	6.886	0.	118.37
774	-1.5947	6.9036	0.	118.29
775	-2.041	6.4507	0.	129.32
776	-2.02	5.9696	0.	128.32
777	1.0539	-1.9976	0.	119.07
778	3.0962	1.4613	0.	132.27
779	2.5607	1.9815	0.	131.38
780	2.0411	1.9934	0.	125.54
781	2.0292	-2.0161	0.	121.96
782	2.5434	-2.0413	0.	127.72
783	3.0903	-1.5597	0.	130.15
784	3.0793	-1.0454	0.	130.32
785	-5.5117	1.0159	0.	132.53
786	-6.0041	0.51019	0.	135.93
787	-6.0004	7.3603e-003	0.	134.99
788	-2.9142	0.17406	0.	121.23
789	-2.9844	0.6407	0.	120.87
790	-4.5132	1.0318	0.	121.63
791	-5.9853	-1.9973	0.	135.23
792	-5.9712	-2.4943	0.	136.54
793	-4.9211	-2.9629	0.	126.39
794	-6.9925	-5.9955	0.	123.53
795	-7.4933	-5.9967	0.	129.03
796	-7.9966	-6.4981	0.	132.08
797	-7.9983	-6.9987	0.	131.8
798	-4.0313	-6.4218	0.	134.41
799	-4.5123	-5.9538	0.	130.09
800	-5.0023	-5.9709	0.	124.34
801	3.9956	-6.0062	0.	131.05
802	3.4591	-4.9967	0.	131.26
803	2.9705	-5.0035	0.	125.94
804	1.9851	-5.0046	0.	125.96
805	1.4893	-5.0041	0.	129.21
806	0.99269	-5.0035	0.	125.34
807	6.1508	2.2719	0.	118.99
808	5.6515	2.3522	0.	126.87
809	5.1484	1.9397	0.	129.39
810	5.1811	1.4567	0.	126.41
811	7.4905	-7.6171	0.	130.52
812	7.6135	-5.913	0.	130.57
813	7.6259	-5.4369	0.	133.24
814	6.6999	-5.0066	0.	120.23
815	0.19265	8.1182	0.	125.64
816	2.891	6.1404	0.	134.43
817	3.0334	7.5369	0.	132.74
818	-2.9251	8.0232	0.	125.99
819	-2.984	7.4989	0.	127.79
820	-2.5293	6.9618	0.	135.02
821	-2.0593	6.9292	0.	129.28
822	-0.67138	6.8708	0.	121.14
823	-0.21151	6.8512	0.	119.18
824	0.20739	7.214	0.	120.16
825	0.17532	7.6661	0.	124.43
826	3.771	-2.5252	0.	133.64
827	3.83	-3.0072	0.	134.55
828	4.3288	-3.4336	0.	128.86
829	4.7906	-3.3456	0.	121.34
830	4.6678	0.21817	0.	121.24
831	4.1619	0.36072	0.	128.21
832	3.6089	-7.0431e-002	0.	132.12
833	3.6058	-0.56254	0.	131.71
834	5.998	4.1399	0.	120.28
835	6.4495	4.1949	0.	123.26
836	7.4724	8.0821	0.	120.97
837	6.9571	8.107	0.	122.02
838	6.4695	8.143	0.	125.79
839	-3.5482	-6.3822	0.	137.13
840	-3.5871	-8.3488	0.	134.97
841	-3.1956	-8.3862	0.	131.93
842	-4.021	-6.9109	0.	131.28
843	-4.017	-7.4022	0.	129.91
844	-4.0289	-7.9004	0.	131.88
845	4.9705	-7.606	0.	129.77
846	4.9176	-5.4296	0.	129.11
847	4.4504	-5.4732	0.	133.47
848	4.0114	-7.0227	0.	128.48
849	4.0144	-6.5182	0.	128.86
850	-2.3164	-2.2623	0.	128.
851	-1.8215	-2.2381	0.	131.64
852	-1.8604	-0.17733	0.	134.92
853	-2.289	-0.19739	0.	131.03
854	6.577	-2.531	0.	125.91
855	7.0398	-2.4935	0.	127.44
856	7.4414	-0.8831	0.	124.06
857	7.4895	-1.9698	0.	123.56
858	7.463	-1.4514	0.	121.69
859	1.5265	1.9992	0.	120.81
860	-0.79575	-0.99031	0.	116.84
861	0.49565	-5.0032	0.	121.64
862	8.0258	1.9243	0.	129.63
863	-2.2748	8.4294	0.	142.37
864	-2.825	8.5795	0.	127.09
865	-3.414	8.5304	0.	125.03
866	-4.4667	8.5063	0.	126.35
867	-4.9775	8.5025	0.	127.31
868	-5.4847	8.5007	0.	126.76
869	-5.9897	8.5	0.	124.28
870	-6.4932	8.4998	0.	121.16
871	-6.9956	8.4999	0.	119.67
872	-7.4972	8.4999	0.	120.83
873	-7.9982	8.4999	0.	123.75
874	-8.0004	4.0002	0.	123.27
875	8.6175	6.5889	0.	133.6
876	8.5267	7.0482	0.	131.1
877	8.499	7.5344	0.	129.14
878	8.4967	8.0274	0.	127.52
879	3.9843	-8.024	0.	132.58
880	7.9877	-8.53	0.	130.15
881	7.4756	-8.5437	0.	130.08
882	6.9581	-8.5478	0.	125.46
883	6.4457	-8.5473	0.	117.95
884	5.9468	-8.5842	0.	116.81
885	5.4523	-8.5867	0.	122.21
886	4.9624	-8.5618	0.	127.32
887	4.4734	-8.5377	0.	130.72
888	3.9818	-8.5215	0.	132.57
889	1.0188	2.5032	0.	124.59
890	-1.6585e-003	-4.5018	0.	126.98
891	-8.4996	-7.9996	0.	130.56
892	-8.4991	-7.4992	0.	130.46
893	-8.4984	-6.9989	0.	130.84
894	-8.4973	-6.4986	0.	131.25
895	-8.4958	-5.9982	0.	130.84
896	-8.4944	-5.4981	0.	129.76
897	-8.4931	-4.9982	0.	128.41
898	-8.4925	-4.4986	0.	126.92
899	-8.4922	-3.9991	0.	125.19
900	-8.4923	-3.4995	0.	123.1
901	-8.4934	-2.9999	0.	120.67
902	-7.9999	-8.4998	0.	131.98
903	-8.4999	-8.4998	0.	131.36
904	-2.7901	-8.5188	0.	125.66
905	-3.4399	-8.8679	0.	133.74
906	5.6078	-0.10688	0.	120.44
907	-0.30262	8.5988	0.	129.51
908	0.157	8.5798	0.	126.7
909	0.62591	8.5434	0.	124.22
910	1.1031	8.5021	0.	118.92
911	1.5826	8.4737	0.	115.91
912	2.0628	8.5017	0.	122.53
913	2.5477	8.501	0.	129.04
914	3.5221	8.4974	0.	130.23
915	4.0138	8.4961	0.	128.91
916	4.5083	8.5019	0.	126.95
917	5.002	8.5151	0.	124.54
918	5.494	8.5321	0.	123.24
919	5.9857	8.5406	0.	123.73
920	6.4818	8.5739	0.	123.98
921	6.985	8.5711	0.	122.82
922	7.9952	8.5346	0.	124.28
923	8.4986	8.5204	0.	125.91
924	-8.5012	1.	0.	119.4
925	-8.5017	1.5002	0.	121.28
926	-8.502	2.0003	0.	122.77
927	-8.5014	2.5003	0.	123.89
928	-8.5004	3.5002	0.	126.17
929	-8.5002	4.0001	0.	128.6
930	-8.499	8.	0.	128.76
931	-8.4989	8.5	0.	126.28
932	8.1658	-6.2217e-002	0.	135.88
933	8.5532	5.2613	0.	134.17
934	8.5221	3.93	0.	126.64
935	8.5249	3.4429	0.	126.88
936	8.5282	2.9478	0.	128.08
937	8.5099	1.9303	0.	133.84
938	8.5862	-4.7529e-002	0.	134.07
939	8.5603	-0.52398	0.	132.98
940	8.5152	-1.0029	0.	130.76
941	8.4951	-1.4899	0.	128.8
942	8.4955	-1.9838	0.	128.06
943	8.5048	-2.4806	0.	128.36
944	8.517	-2.9782	0.	128.98
945	8.5301	-3.4759	0.	129.58
946	8.5424	-3.9737	0.	130.14
947	8.5538	-4.4722	0.	130.6
948	8.561	-4.9721	0.	130.65
949	8.5598	-5.4739	0.	129.84
950	8.5464	-5.9791	0.	128.35
951	8.5169	-6.4895	0.	127.21
952	8.4815	-7.002	0.	127.31
953	8.4851	-7.5128	0.	128.34
954	8.4904	-8.0179	0.	129.41
955	8.4931	-8.5161	0.	129.78
956	6.9904	-1.9902	0.	125.48
957	6.9365	-1.5	0.	116.92
958	6.9154	-1.0477	0.	119.2
959	-1.8186	-0.69347	0.	134.13
960	-1.8181	-1.7384	0.	134.61
961	-1.8211	-1.2177	0.	123.23
962	4.4936	-6.009	0.	135.08
963	4.5324	-7.0511	0.	133.56
964	8.5476	0.42919	0.	130.75
965	8.4712	0.90705	0.	130.3
966	8.4834	1.4118	0.	137.03
967	-3.5549	-7.8194	0.	134.36
968	-3.5231	-6.8599	0.	137.03
969	-3.5078	-7.3475	0.	126.6
970	-2.3465	-8.6397	0.	115.24
971	6.3258	7.7648	0.	129.64
972	8.2154e-003	-9.1439	0.	126.35
973	0.45182	-9.1431	0.	126.64
974	1.971	-8.9968	0.	125.79
975	2.4829	-8.9998	0.	121.71
976	3.9856	-9.0151	0.	131.09
977	4.4807	-9.0258	0.	129.51
978	4.975	-9.0394	0.	126.4
979	5.4712	-9.0503	0.	122.42
980	5.9705	-9.049	0.	119.58
981	6.9766	-9.0305	0.	124.12
982	7.4841	-9.0264	0.	127.59
983	8.4956	-9.0112	0.	129.53
984	6.4741	4.6398	0.	128.59
985	4.1304	-0.12034	0.	135.56
986	4.2913	-2.9565	0.	136.87
987	-0.30428	7.292	0.	127.68
988	-2.5132	7.4564	0.	141.14
989	-8.499	8.9999	0.	124.98
990	-5.9912	8.9997	0.	124.06
991	-5.4873	9.0001	0.	125.53
992	-4.9821	9.0012	0.	126.14
993	9.3776e-002	9.046	0.	127.66
994	0.57977	9.0281	0.	124.45
995	1.0649	9.0066	0.	121.62
996	1.5503	8.9942	0.	120.76
997	2.0384	8.9989	0.	123.06
998	2.5291	8.9993	0.	126.47
999	3.0205	8.9967	0.	128.28
1000	3.5151	8.9998	0.	128.35
1001	4.0089	8.9986	0.	127.6
1002	4.5046	9.0027	0.	126.37
1003	5.0009	9.0105	0.	125.03
1004	5.4962	9.0211	0.	124.16
1005	5.9935	9.0294	0.	123.92
1006	6.492	9.0422	0.	123.69
1007	6.9946	9.0418	0.	123.29
1008	7.4972	9.0332	0.	123.35
1009	7.9992	9.0225	0.	124.1
1010	8.5004	9.0135	0.	125.01
1011	9.0008	9.007	0.	125.53
1012	9.0003	8.5114	0.	126.49
1013	9.0066	7.5241	0.	129.02
1014	9.0254	7.0357	0.	129.68
1015	9.0521	6.5411	0.	127.96
1016	9.0352	6.0323	0.	127.02
1017	8.9748	5.4829	0.	132.55
1018	9.0185	4.9452	0.	131.89
1019	9.0197	4.4459	0.	130.22
1020	9.0162	3.9544	0.	129.46
1021	9.0158	3.46	0.	129.55
1022	9.0171	2.9599	0.	130.28
1023	9.0119	2.4583	0.	131.51
1024	9.0034	1.9535	0.	132.64
1025	8.9921	1.4504	0.	131.94
1026	8.9953	0.95321	0.	129.84
1027	9.025	0.46186	0.	128.8
1028	9.0442	-2.925e-002	0.	130.84
1029	9.0359	-0.51953	0.	131.44
1030	9.0148	-1.0088	0.	130.76
1031	9.0024	-1.4991	0.	129.88
1032	8.9993	-1.9928	0.	129.45
1033	9.0033	-2.4886	0.	129.53
1034	9.0104	-2.9857	0.	129.86
1035	9.0187	-3.4835	0.	130.2
1036	9.0269	-3.9821	0.	130.43
1037	9.0339	-4.4818	0.	130.44
1038	9.0377	-4.983	0.	130.06
1039	9.036	-5.486	0.	129.23
1040	9.0267	-5.9907	0.	128.17
1041	9.0103	-6.4964	0.	127.44
1042	8.9942	-7.0013	0.	127.43
1043	8.9912	-7.5054	0.	128.05
1044	8.9935	-8.0076	0.	128.82
1045	8.996	-8.5074	0.	129.35
1046	8.9978	-9.0056	0.	129.55
1047	-9.0009	1.5	0.	125.85
1048	-9.0012	2.0001	0.	126.3
1049	-9.0008	2.5002	0.	126.9
1050	-9.0004	3.0001	0.	127.62
1051	-9.0002	3.5001	0.	128.69
1052	-9.0001	4.0001	0.	130.28
1053	-9.	4.5	0.	131.46
1054	-9.	5.	0.	131.12
1055	-9.	5.5	0.	130.26
1056	-9.	6.	0.	130.49
1057	-8.9999	6.5	0.	129.91
1058	-8.9998	7.	0.	130.46
1059	-8.9996	7.5001	0.	130.54
1060	-8.9994	8.	0.	129.13
1061	-8.9994	8.5	0.	127.23
1062	-8.9994	9.	0.	125.79
1063	0.6574	8.0628	0.	130.21
1064	8.5778	5.6557	0.	141.01
1065	6.8848	7.636	0.	125.12
1066	6.5191	5.1261	0.	132.37
1067	7.1687	-5.4298	0.	138.2
1068	6.9541	-8.084	0.	133.92
1069	5.6454	1.8893	0.	134.49
1070	0.38419	-8.7664	0.	124.63
1071	1.4949	-5.5025	0.	136.61
1072	1.4656	-8.4926	0.	135.42
1073	3.487	-8.5105	0.	133.52
1074	3.4788	-5.4995	0.	134.16
1075	-1.449	-9.1287	0.	117.53
1076	-1.9395	-9.1277	0.	127.48
1077	-2.4256	-9.077	0.	123.56
1078	-2.916	-8.9944	0.	128.73
1079	-3.9833	-8.9345	0.	136.16
1080	-4.5171	-6.4533	0.	133.28
1081	-7.4962	-6.4976	0.	133.29
1082	-5.4645	-2.4896	0.	137.46
1083	-3.4878	0.58219	0.	119.98
1084	-5.5054	0.50975	0.	136.75
1085	2.5569	-1.5363	0.	130.44
1086	2.562	1.4784	0.	133.71
1087	0.58697	-1.4869	0.	126.73
1088	-1.5569	6.4385	0.	125.96
1089	-1.4996	3.5063	0.	134.03
1090	1.5182	3.5175	0.	132.77
1091	-8.	-8.9999	0.	133.66
1092	-8.5	-8.9999	0.	132.72
1093	-8.9999	-8.9999	0.	131.9
1094	-8.9998	-8.4998	0.	130.87
1095	-8.9997	-7.9996	0.	130.23
1096	-8.9988	-6.9992	0.	130.48
1097	-8.9981	-6.499	0.	130.85
1098	-8.9971	-5.9988	0.	130.9
1099	-8.9964	-5.4988	0.	130.55
1100	-8.9958	-4.999	0.	129.94
1101	-8.9953	-4.4992	0.	129.19
1102	-8.9953	-3.9995	0.	128.32
1103	-8.9954	-3.4998	0.	127.49
1104	-8.996	-3.	0.	127.12
1105	-6.5038	0.50549	0.	136.11
1106	-8.4993	7.5001	0.	133.29
1107	-8.5001	4.5001	0.	133.17
1108	-5.5022	4.5041	0.	134.94
1109	-5.4899	7.502	0.	134.01
1110	-1.49e-003	-5.0045	0.	125.09
1111	-0.49511	-4.5094	0.	130.78
1112	-2.4672	-4.5406	0.	128.39
1113	-1.5016	2.5151	0.	133.12
1114	-1.3472	-0.63749	0.	127.15
1115	0.51123	2.5017	0.	124.85
1116	1.0169	2.0019	0.	123.21
1117	-4.4963	6.5035	0.	133.41
1118	-4.503	4.5065	0.	134.64
1119	-2.5014	4.502	0.	132.78
1120	-2.5243	6.4709	0.	134.74
1121	4.5114	7.5006	0.	131.31
1122	4.4995	4.5152	0.	134.17
1123	-3.0219	-6.7708	0.	138.32
1124	-2.0564	-6.452	0.	109.44
1125	-2.5446	-6.5889	0.	122.82
1126	5.9925	4.5833	0.	124.22
1127	5.0018	4.5197	0.	125.08
1128	5.4993	4.5428	0.	112.49
1129	4.4819	5.0195	0.	132.74
1130	4.4703	5.5191	0.	133.71
1131	4.461	6.0158	0.	134.07
1132	4.4836	7.0036	0.	130.08
1133	4.4619	6.5099	0.	131.91
1134	5.0369	7.5149	0.	121.8
1135	6.1306	7.403	0.	130.66
1136	5.6081	7.5618	0.	114.43
1137	-2.5128	5.9812	0.	131.39
1138	-2.5023	4.996	0.	131.21
1139	-2.5057	5.4895	0.	131.23
1140	-3.0017	4.505	0.	125.18
1141	-4.0026	4.506	0.	126.37
1142	-3.5022	4.5064	0.	114.92
1143	-4.5011	5.0038	0.	133.1
1144	-4.5	5.5024	0.	132.92
1145	-3.998	6.5027	0.	125.85
1146	-3.0108	6.4907	0.	127.49
1147	-3.5023	6.4998	0.	115.94
1148	0.50858	2.0014	0.	127.52
1149	0.50501	1.5013	0.	134.09
1150	5.5781e-002	-0.48664	0.	123.47
1151	-0.89085	-0.52594	0.	116.42
1152	-0.42043	-0.48932	0.	109.16
1153	-1.4201	-0.10157	0.	133.56
1154	-1.4779	0.42449	0.	135.31
1155	-1.572	0.96807	0.	135.44
1156	-1.5059	2.0182	0.	132.66
1157	-1.5186	1.5122	0.	133.7
1158	-0.99954	2.5044	0.	121.35
1159	5.7309e-003	2.5008	0.	117.28
1160	-0.49756	2.5012	0.	107.94
1161	-1.9762	-4.5432	0.	120.89
1162	-0.98864	-4.5286	0.	124.39
1163	-1.4831	-4.5404	0.	111.52
1164	-0.49904	-5.0065	0.	131.32
1165	-0.50122	-5.5065	0.	135.02
1166	-1.5483	-6.3997	0.	114.08
1167	-2.5767	-6.0576	0.	125.03
1168	-2.4922	-5.0173	0.	126.05
1169	-2.5156	-5.5151	0.	124.48
1170	-5.495	7.002	0.	133.78
1171	-5.4978	6.5018	0.	136.19
1172	-5.4991	6.0017	0.	137.17
1173	-5.5008	5.0027	0.	133.12
1174	-5.5	5.5021	0.	135.44
1175	-6.0015	4.5021	0.	127.11
1176	-7.0005	4.5004	0.	114.62
1177	-8.0002	4.5001	0.	125.27
1178	-7.5003	4.5002	0.	114.54
1179	-8.5	5.	0.	133.1
1180	-8.5	5.5	0.	135.04
1181	-8.5	6.	0.	136.88
1182	-8.5	6.5	0.	135.23
1183	-7.999	7.5001	0.	126.33
1184	-7.4984	7.5001	0.	115.46
1185	-5.9937	7.5006	0.	127.21
1186	-6.4961	7.5002	0.	115.71
1187	-6.9975	7.5001	0.	115.47
1188	-6.5006	3.9479e-003	0.	134.81
1189	-6.4992	-0.49755	0.	136.86
1190	-6.4982	-0.99867	0.	138.28
1191	-6.4903	-1.9986	0.	135.07
1192	-6.4959	-1.4991	0.	137.41
1193	-6.9859	-2.4988	0.	130.14
1194	-7.4909	-2.4998	0.	117.35
1195	-7.994	-2.5	0.	117.03
1196	-8.9977	-2.5001	0.	128.52
1197	-8.4962	-2.5001	0.	117.3
1198	-8.5006	0.49998	0.	116.32
1199	-8.0011	0.50011	0.	115.94
1200	-7.0029	0.50203	0.	127.81
1201	-7.502	0.50062	0.	116.14
1202	1.0119	3.5063	0.	125.28
1203	0.50669	3.5015	0.	113.78
1204	3.9462e-003	3.5005	0.	112.54
1205	-0.99876	3.5025	0.	123.98
1206	-0.49771	3.5008	0.	111.88
1207	-1.4999	4.0025	0.	132.81
1208	-1.5004	4.4989	0.	134.15
1209	-1.5016	4.9944	0.	134.38
1210	-1.519	5.969	0.	126.78
1211	-1.5052	5.4864	0.	131.74
1212	1.5071	4.0182	0.	130.93
1213	1.4894	4.5036	0.	131.44
1214	1.9182	5.0233	0.	126.29
1215	1.586	5.4453	0.	125.18
1216	0.55563	-0.98762	0.	128.08
1217	0.52844	-0.49044	0.	133.88
1218	0.50644	4.9787e-003	0.	135.6
1219	0.50128	1.0013	0.	136.06
1220	0.50092	0.5018	0.	137.66
1221	1.0105	1.5013	0.	123.22
1222	2.0348	1.493	0.	125.3
1223	1.5187	1.4991	0.	111.77
1224	2.5448	0.48047	0.	133.93
1225	2.5397	-1.977e-002	0.	135.26
1226	2.5437	-1.0272	0.	130.45
1227	2.5385	-0.52273	0.	132.86
1228	2.037	-1.5127	0.	122.86
1229	1.0493	-1.4969	0.	118.27
1230	1.533	-1.5026	0.	109.87
1231	-5.0053	0.51138	0.	128.52
1232	-3.998	0.53378	0.	120.63
1233	-4.5033	0.51854	0.	116.24
1234	-5.4872	-1.9952	0.	135.23
1235	-5.4958	-1.497	0.	135.47
1236	-5.4984	-0.99716	0.	136.64
1237	-5.5008	6.6384e-003	0.	134.67
1238	-5.4995	-0.49607	0.	136.24
1239	-6.9962	-6.4974	0.	125.19
1240	-6.4967	-6.4963	0.	113.68
1241	-5.9975	-6.4942	0.	113.25
1242	-5.0063	-6.4798	0.	125.14
1243	-5.5	-6.4901	0.	113.76
1244	-4.5127	-6.9536	0.	131.7
1245	-4.5105	-7.4529	0.	133.19
1246	-4.5121	-7.9544	0.	136.6
1247	-4.4943	-8.9704	0.	135.77
1248	-4.5078	-8.4612	0.	136.87
1249	-7.5	-9.	0.	133.92
1250	-7.4999	-8.4999	0.	134.95
1251	-7.4998	-7.9998	0.	136.52
1252	-7.4986	-6.9987	0.	132.64
1253	-7.4995	-7.4994	0.	134.95
1254	3.496	-6.0038	0.	131.56
1255	3.5049	-6.5077	0.	132.32
1256	3.5038	-7.0092	0.	134.14
1257	3.4919	-8.0107	0.	132.61
1258	3.4977	-7.5101	0.	133.68
1259	2.9895	-8.5033	0.	124.38
1260	1.9794	-8.4982	0.	126.66
1261	2.4873	-8.5004	0.	113.28
1262	1.9926	-5.5025	0.	126.84
1263	2.9851	-5.5018	0.	125.28
1264	2.4893	-5.5025	0.	113.95
1265	-1.8329e-003	-5.5036	0.	124.
1266	0.99637	-5.5021	0.	126.88
1267	0.49758	-5.5022	0.	113.71
1268	1.4988	-6.0011	0.	135.35
1269	1.4998	-6.5002	0.	140.59
1270	1.4999	-6.9998	0.	143.55
1271	1.4929	-7.9967	0.	133.68
1272	1.4991	-7.499	0.	139.68
1273	-3.0482e-002	-8.7461	0.	129.31
1274	-0.44253	-8.9782	0.	122.71
1275	-0.95688	-9.0595	0.	114.39
1276	6.1313	1.8246	0.	120.48
1277	6.6004	1.7065	0.	108.68
1278	7.0599	1.5802	0.	112.95
1279	7.9834	1.3761	0.	136.4
1280	7.5173	1.4665	0.	118.89
1281	5.9562	-0.33292	0.	127.72
1282	6.0828	-1.1763e-002	0.	124.6
1283	5.7854	0.38525	0.	127.53
1284	5.6738	1.4197	0.	127.09
1285	5.7304	0.93109	0.	129.04
1286	8.1124	0.36041	0.	135.68
1287	7.7701	7.6391e-002	0.	133.79
1288	7.4103	-0.15133	0.	119.33
1289	6.7601	-0.65993	0.	111.16
1290	7.1196	-0.45749	0.	124.08
1291	6.3846	-8.037	0.	107.39
1292	5.9042	-7.7198	0.	116.27
1293	5.0812	-7.114	0.	131.13
1294	5.5359	-7.3818	0.	112.64
1295	4.9805	-6.014	0.	133.04
1296	6.7167	-5.462	0.	118.84
1297	5.8476	-5.716	0.	112.65
1298	5.4175	-5.8647	0.	119.85
1299	7.1598	-5.8855	0.	132.18
1300	7.0001	-7.6422	0.	134.15
1301	7.0325	-7.2066	0.	129.56
1302	7.07	-6.7724	0.	135.07
1303	7.121	-6.333	0.	133.9
1304	6.302	5.5482	0.	143.84
1305	6.3567	6.0038	0.	149.22
1306	6.6035	7.2774	0.	135.77
1307	6.4927	6.8867	0.	130.93
1308	6.4191	6.4543	0.	140.38
1309	7.458	7.6292	0.	116.81
1310	7.4676	7.2503	0.	119.84
1311	8.5683	6.1267	0.	126.19
1312	8.252	6.5301	0.	137.99
1313	7.9847	7.006	0.	124.01
1314	8.2119	5.5975	0.	132.32
1315	7.851	5.5444	0.	113.52
1316	7.4847	5.3953	0.	115.14
1317	7.0909	5.0806	0.	114.11
1318	-1.0722	6.4375	0.	124.07
1319	-0.59058	6.4319	0.	114.39
1320	-0.11689	6.4212	0.	116.74
1321	0.33818	6.4068	0.	117.34
1322	0.75988	6.5226	0.	122.84
1323	0.6669	7.5898	0.	129.22
1324	0.70084	7.1019	0.	125.79
1325	2.2627	6.391	0.	145.42
1326	1.8691	6.1202	0.	125.96
1327	2.5389	7.4589	0.	140.46
1328	2.0523	7.614	0.	130.33
1329	1.6371	7.9082	0.	110.
1330	1.1347	7.9987	0.	113.28
1331	0.95118	-8.4681	0.	123.86
1332	0.43246	-8.3864	0.	109.39
1333	-3.0961	-7.8794	0.	133.45
1334	-2.6732	-8.0428	0.	121.06
1335	-2.2518	-8.224	0.	113.04
1336	-0.50593	-6.016	0.	135.8
1337	-0.53041	-6.554	0.	132.61
1338	-0.29657	-7.6206	0.	133.9
1339	-0.57898	-7.1414	0.	125.66
1340	-1.042	-6.4782	0.	127.75
1341	-1.889	-8.7268	0.	116.82
1342	-1.8185	-8.3657	0.	108.25
1343	-2.3439	-1.7777	0.	134.57
1344	-2.8765	-1.9057	0.	114.98
1345	-4.9565	-2.4782	0.	127.87
1346	-4.4441	-2.4463	0.	117.09
1347	-3.9322	-2.3493	0.	125.49
1348	-3.439	-2.0771	0.	107.54
1349	-2.2798	-0.68201	0.	132.83
1350	-2.6841	-0.5024	0.	119.55
1351	-3.0478	-0.23119	0.	116.75
1352	-3.436	8.8488e-002	0.	107.76
1353	4.6364	-0.21059	0.	121.81
1354	5.1132	-0.37669	0.	115.04
1355	5.5638	-0.57934	0.	120.74
1356	6.4567	-1.1425	0.	128.1
1357	6.0257	-0.80377	0.	129.39
1358	6.5108	-2.0312	0.	128.85
1359	5.6963	-2.5141	0.	116.63
1360	4.759	-2.8787	0.	116.84
1361	5.2165	-2.7124	0.	115.29
1362	4.2443	-2.4894	0.	135.91
1363	4.1963	-2.0179	0.	134.07
1364	4.1356	-0.58757	0.	133.38
1365	4.1493	-1.0602	0.	134.02
1366	4.1665	-1.5398	0.	136.63
1367	-0.74851	8.5656	0.	130.17
1368	-0.3582	7.7721	0.	119.87
1369	-0.62834	8.1708	0.	138.79
1370	-0.75172	7.3153	0.	130.7
1371	-1.192	7.3379	0.	107.37
1372	-2.063	7.4062	0.	134.76
1373	-1.6256	7.3683	0.	110.71
1374	-2.4492	7.9512	0.	118.78
1375	-1.9886	8.9259	0.	133.63
1376	9.5006	9.0031	0.	125.74
1377	9.5007	8.5051	0.	126.36
1378	9.5017	8.0079	0.	126.86
1379	9.5054	7.5124	0.	126.99
1380	9.5132	7.0157	0.	126.46
1381	9.5202	6.5143	0.	125.49
1382	9.5113	6.0055	0.	125.76
1383	9.4955	5.4936	0.	128.19
1384	9.5043	4.9832	0.	130.31
1385	9.5088	4.4778	0.	131.08
1386	9.5083	3.9785	0.	131.5
1387	9.5079	3.4795	0.	131.84
1388	9.5075	2.9791	0.	132.1
1389	9.5052	2.4784	0.	132.08
1390	9.501	1.9776	0.	131.57
1391	9.4976	1.4777	0.	130.26
1392	9.5006	0.97993	0.	128.44
1393	9.5119	0.48293	0.	127.97
1394	9.5194	-1.387e-002	0.	128.62
1395	9.5168	-0.51046	0.	129.51
1396	9.5086	-1.006	0.	130.
1397	9.5029	-1.5013	0.	130.18
1398	9.5007	-1.9976	0.	130.33
1399	9.502	-2.4948	0.	130.56
1400	9.5052	-2.9929	0.	130.82
1401	9.5091	-3.4916	0.	130.97
1402	9.5131	-3.9909	0.	130.9
1403	9.5164	-4.4911	0.	130.52
1404	9.5179	-4.9921	0.	129.79
1405	9.5167	-5.4941	0.	128.79
1406	9.5122	-5.9966	0.	127.8
1407	9.505	-6.4991	0.	127.17
1408	9.4983	-7.001	0.	127.12
1409	9.4961	-7.5022	0.	127.6
1410	9.4969	-8.0028	0.	128.35
1411	9.4981	-8.5028	0.	129.1
1412	9.499	-9.0022	0.	129.67
1413	9.4998	-9.5012	0.	130.
1414	8.9992	-9.5029	0.	129.57
1415	8.498	-9.5056	0.	129.16
1416	7.9958	-9.509	0.	128.27
1417	7.4925	-9.5126	0.	126.46
1418	6.9896	-9.5151	0.	123.77
1419	6.4879	-9.517	0.	121.42
1420	5.9866	-9.5232	0.	121.
1421	5.4865	-9.5237	0.	122.9
1422	4.9876	-9.5197	0.	125.9
1423	4.4897	-9.5132	0.	128.5
1424	3.9918	-9.508	0.	129.59
1425	3.4918	-9.5044	0.	128.49
1426	2.9915	-9.5015	0.	126.01
1427	2.4883	-9.4994	0.	124.72
1428	1.9815	-9.4972	0.	126.19
1429	1.472	-9.4942	0.	127.94
1430	0.97039	-9.5033	0.	128.1
1431	0.48433	-9.5528	0.	126.99
1432	-2.5191e-003	-9.5541	0.	124.42
1433	-0.48516	-9.5133	0.	118.83
1434	-0.97483	-9.5295	0.	113.32
1435	-1.4733	-9.5552	0.	117.69
1436	-1.9737	-9.5561	0.	124.13
1437	-2.473	-9.5328	0.	127.42
1438	-2.9737	-9.4919	0.	131.22
1439	-3.4762	-9.4511	0.	135.34
1440	-3.9834	-9.4642	0.	137.98
1441	-4.4913	-9.4832	0.	138.29
1442	-4.9963	-9.4963	0.	126.7
1443	-5.4989	-9.4995	0.	111.98
1444	-5.9997	-9.4999	0.	110.22
1445	-6.4999	-9.5	0.	111.05
1446	-7.	-9.5	0.	124.08
1447	-7.5	-9.5	0.	135.21
1448	-8.	-9.5	0.	135.34
1449	-8.5	-9.5	0.	134.17
1450	-9.	-9.4999	0.	132.85
1451	-9.5	-9.5	0.	131.86
1452	-9.5	-8.9999	0.	131.14
1453	-9.4999	-8.4999	0.	130.36
1454	-9.4998	-7.9998	0.	129.83
1455	-9.4996	-7.4997	0.	129.76
1456	-9.4994	-6.9996	0.	130.09
1457	-9.499	-6.4994	0.	130.61
1458	-9.4986	-5.9994	0.	131.08
1459	-9.4982	-5.4994	0.	131.4
1460	-9.4979	-4.9995	0.	131.59
1461	-9.4978	-4.4996	0.	131.78
1462	-9.4978	-3.9998	0.	132.12
1463	-9.4978	-3.4999	0.	132.72
1464	-9.4981	-3.	0.	134.08
1465	-9.4989	-2.5001	0.	137.86
1466	-9.4997	-2.0001	0.	138.09
1467	-9.5	-1.5	0.	139.74
1468	-9.5	-1.	0.	141.15
1469	-9.5	-0.5	0.	139.42
1470	-9.5	-1.0868e-005	0.	137.11
1471	-9.5001	0.49998	0.	136.66
1472	-9.5002	0.99998	0.	132.67
1473	-9.5004	1.5	0.	131.09
1474	-9.5006	2.	0.	130.38
1475	-9.5004	2.5001	0.	130.08
1476	-9.5002	3.0001	0.	130.11
1477	-9.5001	3.5	0.	130.29
1478	-9.5001	4.	0.	130.37
1479	-9.5	4.5	0.	129.95
1480	-9.5	5.	0.	128.83
1481	-9.5	5.5	0.	127.74
1482	-9.5	6.	0.	127.1
1483	-9.5	6.5	0.	127.11
1484	-9.4999	7.	0.	127.57
1485	-9.4998	7.5	0.	128.08
1486	-9.4997	8.	0.	127.85
1487	-9.4997	8.5	0.	127.06
1488	-9.4997	9.	0.	126.1
1489	-9.4998	9.5	0.	125.21
1490	-8.9996	9.5	0.	124.75
1491	-8.4994	9.4999	0.	124.11
1492	-7.999	9.4999	0.	123.34
1493	-7.4985	9.4998	0.	122.69
1494	-6.9977	9.4998	0.	122.53
1495	-6.4965	9.4997	0.	123.
1496	-5.9949	9.4996	0.	123.93
1497	-5.4929	9.4998	0.	124.93
1498	-4.9905	9.5004	0.	125.71
1499	-4.4881	9.5019	0.	126.2
1500	-3.9871	9.5055	0.	126.52
1501	-3.4903	9.5136	0.	126.99
1502	-2.9964	9.5234	0.	127.66
1503	-2.5014	9.5111	0.	128.63
1504	-2.0102	9.4951	0.	126.02
1505	-1.4881	9.1659	0.	113.36
1506	-1.0338	9.4604	0.	123.15
1507	-0.47885	9.5101	0.	128.21
1508	3.6355e-002	9.5193	0.	126.14
1509	0.53686	9.5138	0.	124.86
1510	1.0311	9.5051	0.	123.64
1511	1.5243	9.4998	0.	123.28
1512	2.0184	9.4998	0.	124.19
1513	2.5139	9.4997	0.	125.63
1514	3.0099	9.4989	0.	126.67
1515	3.5067	9.4994	0.	127.
1516	4.0041	9.4999	0.	126.72
1517	4.502	9.5018	0.	126.05
1518	5.0001	9.5055	0.	125.21
1519	5.4985	9.5102	0.	124.48
1520	5.9973	9.5148	0.	123.96
1521	6.4969	9.5196	0.	123.6
1522	6.9983	9.5194	0.	123.39
1523	7.4996	9.5159	0.	123.47
1524	8.0004	9.5111	0.	123.87
1525	8.5008	9.5068	0.	124.39
1526	9.0007	9.5037	0.	124.82
1527	9.5005	9.5016	0.	125.14
1528	-4.0155	3.0284	0.	126.48
1529	-4.0058	4.0129	0.	125.88
1530	-9.0006	0.99999	0.	125.89
1531	-0.87571	8.986	0.	134.39
1532	-2.7947	-2.7356	0.	121.56
1533	3.0739	-0.54223	0.	130.65
1534	-1.8458	-2.7135	0.	127.53
1535	-2.001	4.4995	0.	131.58
1536	6.6732	2.5543	0.	114.52
1537	0.58499	-1.9861	0.	122.81
1538	-1.0069	-3.6333	0.	123.84
1539	6.4718	-9.0352	0.	120.24
1540	7.489	8.5549	0.	122.57
1541	-5.4446	-2.9803	0.	132.65
1542	3.4603	5.0451	0.	131.38
1543	-6.501	4.501	0.	115.13
1544	5.8997	-8.1509	0.	115.22
1545	6.2766	-5.578	0.	109.82
1546	-3.5193	2.5472	0.	126.01
1547	-5.0252	2.0249	0.	126.79
1548	0.98649	-4.0038	0.	125.22
1549	-7.9983	8.9999	0.	123.56
1550	-6.4697	-2.9949	0.	133.08
1551	-5.4565	-4.4738	0.	124.96
1552	6.6299	-3.5449	0.	123.14
1553	-2.3989	-3.6197	0.	123.8
1554	3.9119	-4.4726	0.	130.95
1555	-7.5043	2.5016	0.	121.13
1556	3.6575	0.93045	0.	129.66
1557	7.1581	-4.9631	0.	128.8
1558	-3.515	-5.4457	0.	129.35
1559	2.5407	3.0021	0.	131.71
1560	8.549	4.8546	0.	129.84
1561	3.5048	7.508	0.	129.78
1562	-5.4346	-3.4755	0.	129.36
1563	4.4924	-7.5524	0.	132.47
1564	-7.0013	4.001	0.	115.9
1565	9.0007	8.0173	0.	127.7
1566	-3.968	9.0099	0.	125.67
1567	2.9875	-9.003	0.	124.7
1568	1.4446	-8.9907	0.	129.6
1569	-7.4974	8.	0.	118.95
1570	5.326	-4.7952	0.	121.25
1571	-9.0003	0.49997	0.	127.79
1572	-4.4989	6.0023	0.	132.61
1573	-6.5039	3.5032	0.	120.85
1574	5.9642	8.0269	0.	124.2
1575	2.5521	0.97862	0.	132.25
1576	5.0249	4.0286	0.	124.21
1577	-3.5084	3.5223	0.	125.41
1578	2.8651	5.5652	0.	131.21
1579	-1.2487	-1.2022	0.	122.07
1580	4.5354	-6.5385	0.	123.65
1581	8.5314	4.4021	0.	127.48
1582	1.0173	3.0049	0.	124.63
1583	-3.9473	-4.456	0.	125.45
1584	7.9908	-9.019	0.	129.16
1585	6.1701	-3.5804	0.	120.29
1586	-5.0119	1.0183	0.	127.09
1587	-1.1399	-6.9482	0.	108.89
1588	-0.39428	9.0432	0.	130.22
1589	2.7138	6.6957	0.	130.43
1590	-3.5217	2.0554	0.	124.62
1591	3.6337	1.4428	0.	130.24
1592	-4.4797	7.5078	0.	128.4
1593	3.0676	2.4777	0.	132.38
1594	-7.9992	-7.4992	0.	131.12
1595	-8.9993	-7.4994	0.	130.13
1596	-7.9983	8.	0.	124.29
1597	5.4848	8.0554	0.	120.78
1598	-6.9959	8.	0.	116.85
1599	-6.9744	-3.9946	0.	125.24
1600	-6.5109	2.5062	0.	123.93
1601	3.6066	1.9575	0.	131.32
1602	-6.9961	8.9998	0.	121.63
1603	-6.4797	-2.4965	0.	137.2
1604	-3.9492	8.514	0.	125.08
1605	-5.0211	2.5208	0.	127.16
1606	-3.9906	7.0065	0.	125.25
1607	8.5265	2.4424	0.	130.11
1608	-4.0098	1.0428	0.	119.98
1609	3.9965	-7.5252	0.	131.44
1610	4.052	3.4909	0.	131.86
1611	-8.4998	7.	0.	132.9
1612	-2.633	-0.16453	0.	126.29
1613	-4.021	2.5374	0.	125.67
1614	-7.0045	3.0025	0.	120.59
1615	-6.0061	3.5057	0.	124.99
1616	-4.0255	-8.4144	0.	134.31
1617	-6.4644	-3.493	0.	129.47
1618	7.5832	-3.9696	0.	128.09
1619	-2.5285	9.0313	0.	130.68
1620	-3.0654	-6.3167	0.	133.67
1621	6.1443	-3.0701	0.	121.42
1622	2.9287	7.0968	0.	126.12
1623	2.4844	4.5832	0.	128.83
1624	7.4781	-8.0736	0.	131.88
1625	-2.9882	-4.9948	0.	126.33
1626	-6.4941	8.9997	0.	122.44
1627	-8.5009	3.0003	0.	124.87
1628	-5.021	1.5243	0.	126.86
1629	2.9138	-3.0503	0.	129.89
1630	-2.9909	9.0572	0.	128.06
1631	-7.4974	8.9999	0.	122.15
1632	6.6245	2.146	0.	110.96
1633	3.0341	8.5	0.	130.87
1634	4.5657	3.4936	0.	129.32
1635	-1.3729	-2.7377	0.	126.86
1636	3.4876	-9.0081	0.	129.88
1637	0.88426	-8.975	0.	125.67
1638	3.1003	0.95776	0.	131.59
1639	-4.4758	9.0042	0.	125.98
1640	0.52601	-2.9917	0.	123.81
1641	-2.0053	2.532	0.	132.79
1642	-3.4654	9.0233	0.	126.02
1643	-7.5056	1.5018	0.	120.59
1644	-6.988	-5.494	0.	123.41
1645	-7.0026	3.5018	0.	118.6
1646	4.6242	2.4642	0.	129.67
1647	3.0769	-4.2208e-002	0.	131.64
1648	-3.0231	1.5916	0.	124.65
1649	-2.3589	-3.168	0.	124.22
1650	3.4156	-4.0041	0.	130.76
1651	6.1961	-4.0964	0.	118.89
1652	-3.4852	-4.9701	0.	127.06
1653	3.5647	2.9825	0.	132.38
1654	-4.5218	2.0312	0.	125.13
1655	3.4315	7.0423	0.	128.27
1656	7.7642	5.219	0.	117.74
1657	8.1505	5.2158	0.	124.9
1658	5.7162	-3.6385	0.	117.99
1659	5.6909	-3.083	0.	117.79
1660	3.9675	-5.4915	0.	133.77
1661	6.3925	-0.73369	0.	129.44
1662	6.2552	-0.38151	0.	140.7
1663	6.6003	3.3589	0.	118.12
1664	-1.3132	-1.7565	0.	125.14
1665	-1.3466	-2.2612	0.	127.69
1666	4.6283e-002	-2.9691	0.	124.53
1667	-0.43145	-2.9151	0.	124.96
1668	8.9515e-002	-2.4613	0.	123.73
1669	-0.38485	-2.4084	0.	124.11
1670	0.12217	-1.9629	0.	123.52
1671	-0.34597	-1.9218	0.	122.55
1672	0.1298	-1.4692	0.	123.43
1673	-0.3132	-1.4463	0.	120.3
1674	0.10213	-0.97695	0.	122.5
1675	-0.35265	-0.97059	0.	116.72
1676	1.4638	4.9732	0.	131.97
1677	6.0815	-2.168	0.	119.33
1678	1.4679	5.9356	0.	105.75
1679	-1.5333	9.5536	0.	121.42
1680	3.3044	6.5919	0.	129.02
1681	-1.845	7.8583	0.	139.37
1682	-1.9233	8.04	0.	139.87
1683	-2.0515	7.6431	0.	156.58
1684	-2.2446	7.9156	0.	148.65
1685	-1.065	7.7717	0.	136.92
1686	-0.94833	7.9317	0.	148.52
1687	-0.6141	7.761	0.	145.59
1688	-0.81086	7.5326	0.	151.72
1689	-1.4567	8.68	0.	103.1
1690	-1.2617	8.6583	0.	113.93
1691	-1.414	9.003	0.	115.73
1692	-1.1079	8.913	0.	126.81
1693	2.0483	7.1267	0.	126.84
1694	2.0733	6.93	0.	130.11
1695	2.3844	7.2544	0.	166.22
1696	2.4719	6.8729	0.	161.58
1697	1.3217	7.4333	0.	123.92
1698	1.165	7.3133	0.	147.7
1699	0.90345	7.5499	0.	138.8
1700	1.1373	7.7543	0.	131.67
1701	1.145	6.165	0.	150.24
1702	1.4467	6.45	0.	120.44
1703	1.265	6.5267	0.	145.13
1704	1.379	6.1328	0.	126.75
1705	7.0275	7.0225	0.	123.88
1706	7.2375	7.0712	0.	107.19
1707	6.9874	7.433	0.	120.96
1708	6.8467	7.2537	0.	125.99
1709	7.2788	7.2402	0.	118.
1710	6.6525	5.7775	0.	150.27
1711	6.8	5.6187	0.	136.1
1712	6.5546	5.3481	0.	147.68
1713	6.446	5.5591	0.	152.66
1714	8.1225	6.1188	0.	131.49
1715	8.06	5.9112	0.	137.94
1716	8.4192	6.0434	0.	145.06
1717	8.241	5.7788	0.	147.56
1718	6.665	-0.24125	0.	110.89
1719	6.4475	-0.16375	0.	135.83
1720	6.6251	-0.52497	0.	119.76
1721	6.3726	-0.38576	0.	135.06
1722	7.715	0.65125	0.	124.97
1723	7.6725	0.8775	0.	128.84
1724	8.1806	0.85353	0.	147.52
1725	7.9367	1.0881	0.	150.18
1726	8.0012	0.5802	0.	150.1
1727	6.1925	1.1938	0.	146.52
1728	6.3675	1.3425	0.	128.5
1729	6.1406	1.6223	0.	137.33
1730	5.9119	1.4198	0.	139.78
1731	-3.94	-1.88	0.	166.5
1732	-3.94	-1.6918	0.	163.92
1733	-3.63	-1.6733	0.	144.57
1734	-3.83	-1.4983	0.	158.9
1735	-3.6595	-1.9186	0.	139.27
1736	-2.63	-1.3267	0.	126.08
1737	-2.58	-1.065	0.	121.67
1738	-2.1006	-1.2288	0.	141.46
1739	-2.362	-1.5088	0.	146.33
1740	-2.3299	-0.96101	0.	146.03
1741	-3.63	-0.45167	0.	142.64
1742	-3.38	-0.365	0.	108.4
1743	-3.79	-0.29544	0.	137.4
1744	-3.508	-5.0756e-002	0.	119.55
1745	4.9338	-2.3637	0.	120.92
1746	4.7225	-2.2513	0.	143.02
1747	4.7445	-2.6844	0.	129.43
1748	4.4872	-2.4897	0.	138.27
1749	6.1562	-1.6063	0.	121.19
1750	6.1487	-1.3675	0.	120.09
1751	6.6482	-1.49	0.	131.81
1752	6.4084	-1.3113	0.	137.16
1753	6.4354	-1.7556	0.	137.49
1754	4.6775	-0.81875	0.	145.86
1755	4.8812	-0.6925	0.	124.99
1756	4.6532	-0.39529	0.	134.31
1757	4.4028	-0.58379	0.	139.4
1758	-1.44	-7.3749	0.	139.45
1759	-1.2288	-7.5527	0.	135.4
1760	-1.0213	-7.5272	0.	114.69
1761	-1.1699	-7.1641	0.	119.18
1762	-1.4013	-8.5877	0.	153.82
1763	-1.2117	-8.6783	0.	130.
1764	-1.4395	-8.9443	0.	132.68
1765	-1.6595	-8.7434	0.	131.72
1766	-6.e-002	-8.135	0.	150.41
1767	-0.30113	-8.1207	0.	123.87
1768	-0.33833	-8.3517	0.	131.21
1769	-7.5241e-002	-8.5081	0.	142.53
1770	0.15623	-8.3282	0.	133.03
1771	6.515	-5.95	0.	126.33
1772	6.6962	-6.0825	0.	147.72
1773	6.7183	-5.661	0.	135.83
1774	6.9399	-5.8728	0.	141.51
1775	5.285	-6.49	0.	123.24
1776	5.2613	-6.7125	0.	121.64
1777	5.0806	-6.847	0.	145.32
1778	5.0302	-6.297	0.	146.08
1779	4.8077	-6.5593	0.	141.9
1780	6.5538	-7.4175	0.	136.23
1781	6.3488	-7.5075	0.	111.46
1782	6.4573	-7.8385	0.	120.27
1783	6.7651	-7.6411	0.	133.12
1784	-2.7533	-7.4433	0.	119.51
1785	-2.74	-7.1967	0.	122.25
1786	-3.2339	-7.3287	0.	142.73
1787	-2.9909	-7.0404	0.	147.99
1788	-3.028	-7.5947	0.	145.87
1789	-1.5176	-8.0904	0.	146.94
1790	-1.9267	-7.9767	0.	120.07
1791	-1.71	-7.925	0.	145.69
1792	-1.7692	-8.2378	0.	128.15
1793	-1.86	-6.7433	0.	120.81
1794	-1.65	-6.815	0.	149.32
1795	-1.5941	-6.5148	0.	129.77
1796	-1.3899	-6.7891	0.	125.8
1797	-4.	5.75	0.	140.
1798	-3.75	6.	0.	123.82
1799	-3.999	6.2514	0.	130.74
1800	-4.2494	6.0011	0.	133.78
1801	-4.	5.25	0.	140.22
1802	-3.75	5.	0.	123.72
1803	-4.0013	4.753	0.	131.17
1804	-4.2505	5.0019	0.	134.22
1805	-3.25	6.	0.	124.19
1806	-3.	5.75	0.	139.97
1807	-2.7564	5.9906	0.	133.59
1808	-3.0054	6.2454	0.	131.91
1809	-3.25	5.	0.	122.93
1810	-3.	5.25	0.	139.01
1811	-2.7512	4.998	0.	132.5
1812	-3.0008	4.7525	0.	129.81
1813	-1.	5.75	0.	137.11
1814	-0.75	6.	0.	122.91
1815	-1.2595	5.9845	0.	129.92
1816	-1.0361	6.2188	0.	129.07
1817	-1.	4.25	0.	138.28
1818	-0.75	4.	0.	122.73
1819	-0.99938	3.7512	0.	129.
1820	-1.25	4.0013	0.	133.06
1821	0.75	6.	0.	136.23
1822	1.	5.75	0.	144.1
1823	0.87994	6.2613	0.	135.68
1824	1.234	5.9678	0.	126.93
1825	0.75	4.	0.	122.78
1826	1.	4.25	0.	137.22
1827	1.006	3.7531	0.	129.3
1828	1.2535	4.0091	0.	131.84
1829	-8.	6.75	0.	140.86
1830	-7.75	7.	0.	125.23
1831	-7.9995	7.25	0.	131.38
1832	-8.2499	7.	0.	134.3
1833	-8.	5.25	0.	140.14
1834	-7.75	5.	0.	124.41
1835	-8.0001	4.7501	0.	130.27
1836	-8.25	5.	0.	133.82
1837	-6.25	7.	0.	125.45
1838	-6.	6.75	0.	140.99
1839	-5.7475	7.001	0.	135.05
1840	-5.9968	7.2503	0.	132.14
1841	-6.25	5.	0.	124.82
1842	-6.	5.25	0.	140.29
1843	-5.7504	5.0014	0.	134.55
1844	-6.0008	4.751	0.	131.9
1845	5.	6.75	0.	135.62
1846	5.25	7.	0.	118.55
1847	4.7418	7.0018	0.	130.25
1848	5.0185	7.2574	0.	126.44
1849	5.	5.25	0.	137.83
1850	5.25	5.	0.	121.9
1851	5.0009	4.7598	0.	129.51
1852	4.7409	5.0097	0.	133.02
1853	5.75	7.	0.	121.42
1854	6.	6.7535	0.	139.31
1855	6.0653	7.2015	0.	133.59
1856	6.2463	6.9434	0.	133.42
1857	6.	5.2526	0.	142.67
1858	5.75	5.	0.	124.65
1859	6.2596	5.0631	0.	134.63
1860	5.9962	4.7917	0.	131.67
1861	-1.	1.75	0.	136.69
1862	-0.75	2.	0.	118.66
1863	-1.2529	2.0091	0.	131.54
1864	-0.99977	2.2522	0.	126.19
1865	-1.	0.25	0.	137.04
1866	-0.75	0.	0.	118.21
1867	-0.94543	-0.26297	0.	123.64
1868	-1.21	-5.0783e-002	0.	131.92
1869	-0.25	2.	0.	118.
1870	0.	1.75	0.	135.59
1871	0.25429	2.0007	0.	128.1
1872	2.8655e-003	2.2504	0.	123.55
1873	-0.25	0.	0.	119.52
1874	0.	0.25	0.	137.17
1875	2.789e-002	-0.24332	0.	128.56
1876	0.25322	2.4894e-003	0.	134.28
1877	-9.	-0.25	0.	144.41
1878	-8.75	0.	0.	127.24
1879	-9.25	-5.4338e-006	0.	137.54
1880	-9.0002	0.24999	0.	133.26
1881	-9.	-1.75	0.	144.71
1882	-8.75	-2.	0.	127.86
1883	-8.9989	-2.2501	0.	133.77
1884	-9.2499	-2.	0.	138.21
1885	-7.25	0.	0.	125.99
1886	-7.	-0.25	0.	141.49
1887	-6.7503	1.9739e-003	0.	135.91
1888	-7.0015	0.25102	0.	132.78
1889	-7.25	-2.	0.	127.14
1890	-7.	-1.75	0.	142.74
1891	-6.7451	-1.9993	0.	137.07
1892	-6.9929	-2.2494	0.	134.96
1893	-5.	-0.25	0.	140.96
1894	-4.75	0.	0.	124.54
1895	-5.0027	0.25569	0.	133.48
1896	-5.2504	3.3192e-003	0.	136.18
1897	-5.	-1.75	0.	139.74
1898	-4.75	-2.	0.	127.81
1899	-5.2436	-1.9976	0.	135.37
1900	-4.9782	-2.2391	0.	132.02
1901	-4.25	0.	0.	128.21
1902	-4.	-0.20044	0.	145.42
1903	-3.999	0.26689	0.	132.68
1904	-3.718	4.4244e-002	0.	126.07
1905	-4.	-1.8118	0.	160.23
1906	-4.25	-2.	0.	141.61
1907	-3.9661	-2.1746	0.	143.83
1908	1.	0.75	0.	137.37
1909	1.25	1.	0.	120.25
1910	0.75064	1.0007	0.	134.55
1911	1.0053	1.2506	0.	128.51
1912	1.	-0.75	0.	135.64
1913	1.25	-1.	0.	118.02
1914	0.77781	-0.99381	0.	128.67
1915	1.0247	-1.2484	0.	124.18
1916	1.75	1.	0.	120.14
1917	2.	0.75	0.	137.7
1918	2.0174	1.2465	0.	129.32
1919	2.276	0.98931	0.	132.5
1920	1.75	-1.	0.	118.87
1921	2.	-0.75	0.	136.38
1922	2.2718	-1.0136	0.	130.81
1923	2.0185	-1.2564	0.	127.38
1924	2.	-6.25	0.	139.9
1925	2.25	-6.	0.	122.36
1926	1.9963	-5.7512	0.	131.4
1927	1.7494	-6.0005	0.	135.37
1928	2.	-7.75	0.	139.
1929	2.25	-8.	0.	121.64
1930	1.9897	-8.2491	0.	130.97
1931	1.7464	-7.9984	0.	134.16
1932	2.75	-6.	0.	121.23
1933	3.	-6.25	0.	137.25
1934	3.248	-6.0019	0.	132.46
1935	2.9926	-5.7509	0.	129.6
1936	2.75	-8.	0.	120.81
1937	3.	-7.75	0.	137.57
1938	3.2459	-8.0054	0.	132.79
1939	2.9948	-8.2516	0.	128.98
1940	0.	-6.2503	0.	139.42
1941	0.25	-6.	0.	122.06
1942	-9.1646e-004	-5.7518	0.	129.16
1943	-0.25296	-6.008	0.	134.7
1944	0.	-7.7503	0.	145.32
1945	0.25	-8.	0.	124.11
1946	-0.14828	-7.8103	0.	139.
1947	0.75	-6.	0.	123.45
1948	1.	-6.25	0.	140.97
1949	0.99819	-5.7511	0.	132.01
1950	1.2494	-6.0005	0.	135.93
1951	0.75	-8.	0.	118.78
1952	1.	-7.75	0.	138.51
1953	1.2464	-7.9984	0.	132.83
1954	0.97559	-8.2341	0.	128.18
1955	-2.	-5.25	0.	131.75
1956	-1.75	-5.	0.	119.56
1957	-1.9881	-4.7716	0.	125.08
1958	-2.2461	-5.0087	0.	127.43
1959	-2.	-5.75	0.	126.84
1960	-1.75	-6.	0.	114.52
1961	-2.0282	-6.226	0.	114.16
1962	-2.2883	-6.0288	0.	121.5
1963	-1.25	-5.	0.	122.58
1964	-1.	-5.25	0.	140.27
1965	-0.99432	-4.7643	0.	129.72
1966	-0.74952	-5.0032	0.	132.76
1967	-1.25	-6.	0.	123.05
1968	-1.	-5.75	0.	141.18
1969	-0.75296	-6.008	0.	136.07
1970	-1.021	-6.2391	0.	132.21
1971	-7.	-7.25	0.	139.31
1972	-6.75	-7.	0.	123.37
1973	-6.9981	-6.7487	0.	130.15
1974	-7.2493	-6.9994	0.	133.51
1975	-7.	-8.75	0.	138.42
1976	-6.75	-9.	0.	122.1
1977	-7.25	-9.	0.	133.36
1978	-7.	-9.25	0.	128.76
1979	-5.25	-7.	0.	122.55
1980	-5.	-7.25	0.	137.99
1981	-5.0031	-6.7399	0.	129.7
1982	-4.7564	-6.9768	0.	132.64
1983	-5.25	-9.	0.	123.61
1984	-5.	-8.75	0.	140.08
1985	-4.7472	-8.9852	0.	135.56
1986	-4.9981	-9.2481	0.	131.32
1987	9.75	10.	0.	124.95
1988	10.	9.75	0.	125.05
1989	-9.75	10.	0.	124.93
1990	-10.	9.75	0.	125.05
1991	10.	-9.75	0.	131.12
1992	9.75	-10.	0.	130.67
1993	-10.	-9.75	0.	132.
1994	-9.75	-10.	0.	132.18
1995	6.	5.7567	0.	143.48
1996	6.151	5.5267	0.	145.03
1997	-4.	-1.4173	0.	163.84
1998	-1.69	-7.5549	0.	146.51
1999	-1.67	-7.1849	0.	151.54
2000	-1.2864	-7.8981	0.	143.39
2001	-1.3439	-8.2431	0.	153.37
2002	-1.455	7.815	0.	102.79
2003	-1.6378	7.6025	0.	105.74
2004	-1.226	7.5656	0.	104.1
2005	-1.69	8.36	0.	99.874
2006	-2.0407	8.3147	0.	122.26
2007	-1.781	8.7229	0.	111.89
2008	-1.105	8.295	0.	123.58
2009	-0.8275	8.1421	0.	133.32
2010	-0.96592	8.5211	0.	120.88
2011	1.685	7.28	0.	79.059
2012	1.9595	7.4086	0.	94.612
2013	1.5702	7.6325	0.	102.41
2014	1.76	6.69	0.	77.99
2015	2.0897	6.6005	0.	106.47
2016	1.7362	6.3451	0.	106.39
2017	1.215	6.92	0.	145.85
2018	0.94542	7.1093	0.	136.77
2019	0.99994	6.623	0.	133.05
2020	6.9025	6.6075	0.	135.1
2021	6.7288	6.8509	0.	131.04
2022	6.7775	6.1925	0.	139.13
2023	6.6295	6.4271	0.	139.22
2024	6.5358	5.9944	0.	144.09
2025	7.5325	6.7537	0.	107.1
2026	7.4263	7.0814	0.	109.76
2027	7.8275	6.4363	0.	106.43
2028	7.8323	6.8005	0.	118.68
2029	8.1135	6.4038	0.	118.51
2030	7.22	5.7162	0.	113.21
2031	7.0505	5.374	0.	111.57
2032	7.64	5.8137	0.	115.13
2033	7.4573	5.5801	0.	116.09
2034	7.8505	5.7034	0.	112.81
2035	7.015	5.625e-002	0.	99.163
2036	6.9798	-0.27499	0.	107.89
2037	7.365	0.35375	0.	95.299
2038	7.3002	2.6835e-002	0.	112.41
2039	7.6551	0.28945	0.	109.21
2040	6.3625	0.28875	0.	140.96
2041	6.2439	2.5369e-002	0.	133.32
2042	6.2775	0.74125	0.	140.57
2043	6.0527	0.45013	0.	133.6
2044	5.9827	0.94929	0.	135.01
2045	7.2375	1.0325	0.	103.03
2046	7.4862	1.2108	0.	105.35
2047	6.8025	1.1875	0.	107.26
2048	7.0399	1.3451	0.	112.4
2049	6.5927	1.4857	0.	105.32
2050	-3.13	-1.5	0.	105.7
2051	-3.4095	-1.8319	0.	112.08
2052	-2.8783	-1.6595	0.	103.31
2053	-3.73	-0.975	0.	152.23
2054	-3.89	-1.2238	0.	158.47
2055	-3.84	-0.75859	0.	150.85
2056	-2.98	-0.715	0.	86.651
2057	-2.732	-0.6962	0.	101.31
2058	-3.1139	-0.3856	0.	101.79
2059	5.3412	-2.1112	0.	104.47
2060	5.177	-2.475	0.	107.19
2061	5.7488	-1.8587	0.	102.49
2062	5.6206	-2.2495	0.	112.86
2063	6.017	-1.9503	0.	107.11
2064	4.7075	-1.7737	0.	145.83
2065	4.4557	-2.0152	0.	139.47
2066	4.6925	-1.2962	0.	146.33
2067	4.4332	-1.5374	0.	141.71
2068	4.4172	-1.0588	0.	139.98
2069	5.7263	-1.1425	0.	103.9
2070	5.9816	-1.0294	0.	111.15
2071	5.3038	-0.9175	0.	108.21
2072	5.5394	-0.80467	0.	117.32
2073	5.1029	-0.59084	0.	108.72
2074	-1.4788	-7.7327	0.	142.97
2075	-1.5955	-8.3905	0.	134.35
2076	-0.66245	-7.823	0.	96.079
2077	-0.7108	-7.408	0.	112.75
2078	-0.38942	-7.796	0.	112.46
2079	-0.775	-8.515	0.	109.2
2080	-0.97511	-8.8281	0.	112.96
2081	-0.4996	-8.7058	0.	113.95
2082	6.105	-6.13	0.	103.73
2083	6.2933	-5.809	0.	104.25
2084	5.695	-6.31	0.	97.53
2085	5.8738	-5.968	0.	110.19
2086	5.4538	-6.1324	0.	102.39
2087	6.6487	-6.5275	0.	143.83
2088	6.8967	-6.319	0.	139.19
2089	6.6013	-6.9725	0.	141.54
2090	6.8475	-6.7612	0.	139.05
2091	6.805	-7.2008	0.	134.71
2092	5.6238	-6.9775	0.	91.694
2093	5.2619	-6.9795	0.	106.62
2094	5.9862	-7.2425	0.	95.158
2095	5.6704	-7.2459	0.	106.5
2096	6.0358	-7.5474	0.	102.67
2097	-2.34	-7.71	0.	86.606
2098	-2.6099	-7.8098	0.	100.09
2099	-2.1925	-8.0337	0.	101.96
2100	-2.3	-6.97	0.	92.674
2101	-2.5323	-6.8361	0.	103.77
2102	-2.0682	-6.6543	0.	102.65
2103	-1.3999	-6.9741	0.	130.85
2104	-4.25	5.5012	0.	138.88
2105	-3.5012	6.2499	0.	114.17
2106	-3.5011	4.7532	0.	113.34
2107	-2.7528	5.4948	0.	137.63
2108	-1.	5.25	0.	142.
2109	-1.2526	5.4932	0.	136.3
2110	-1.	4.75	0.	142.99
2111	-1.2508	4.9972	0.	138.75
2112	-1.2502	4.4995	0.	138.51
2113	-0.25	6.	0.	117.36
2114	-0.54529	6.2159	0.	113.34
2115	0.25	6.	0.	123.54
2116	-5.8447e-002	6.2106	0.	119.19
2117	0.41909	6.2034	0.	121.06
2118	-0.25	4.	0.	114.42
2119	-0.49886	3.7504	0.	111.89
2120	0.25	4.	0.	114.87
2121	1.9731e-003	3.7503	0.	114.57
2122	0.50334	3.7508	0.	113.31
2123	1.	5.25	0.	140.67
2124	1.293	5.4726	0.	132.18
2125	1.	4.75	0.	141.81
2126	1.2319	4.9866	0.	137.06
2127	1.2447	4.5018	0.	136.46
2128	-8.	6.25	0.	146.23
2129	-8.25	6.5	0.	140.44
2130	-8.	5.75	0.	146.07
2131	-8.25	6.	0.	141.84
2132	-8.25	5.5	0.	140.19
2133	-7.25	7.	0.	117.12
2134	-7.4992	7.25	0.	115.04
2135	-6.75	7.	0.	117.05
2136	-6.9988	7.2501	0.	117.34
2137	-6.4981	7.2501	0.	115.08
2138	-7.25	5.	0.	116.42
2139	-7.5002	4.7501	0.	114.32
2140	-6.75	5.	0.	116.22
2141	-7.0003	4.7502	0.	116.5
2142	-6.5005	4.7505	0.	114.37
2143	-6.	6.25	0.	145.63
2144	-5.7489	6.5009	0.	140.77
2145	-6.	5.75	0.	145.17
2146	-5.7496	6.0009	0.	141.54
2147	-5.75	5.501	0.	139.92
2148	5.	6.25	0.	140.98
2149	4.731	6.505	0.	136.26
2150	5.	5.75	0.	141.73
2151	4.7305	6.0079	0.	137.7
2152	4.7351	5.5095	0.	137.92
2153	5.5541	7.2809	0.	110.53
2154	5.4996	4.7714	0.	111.42
2155	6.	6.2576	0.	141.55
2156	6.2095	6.4806	0.	141.39
2157	6.1783	6.006	0.	144.95
2158	-1.	1.25	0.	142.96
2159	-1.2593	1.5061	0.	138.11
2160	-1.	0.75	0.	143.44
2161	-1.286	0.98403	0.	139.41
2162	-1.239	0.46225	0.	139.39
2163	-0.49878	2.2506	0.	107.16
2164	-0.46021	-0.24466	0.	107.41
2165	0.	1.25	0.	142.03
2166	0.25251	1.5006	0.	137.87
2167	0.	0.75	0.	141.77
2168	0.25064	1.0007	0.	139.21
2169	0.25046	0.5009	0.	139.38
2170	-9.	-0.75	0.	151.35
2171	-9.25	-0.5	0.	144.9
2172	-9.	-1.25	0.	151.49
2173	-9.25	-1.	0.	146.74
2174	-9.25	-1.5	0.	145.2
2175	-8.25	0.	0.	118.35
2176	-8.5003	0.24999	0.	116.29
2177	-7.75	0.	0.	117.66
2178	-8.0006	0.25005	0.	118.
2179	-7.501	0.25031	0.	115.49
2180	-8.25	-2.	0.	119.21
2181	-8.4981	-2.25	0.	117.26
2182	-7.75	-2.	0.	118.24
2183	-7.997	-2.25	0.	118.93
2184	-7.4954	-2.2499	0.	116.26
2185	-7.	-0.75	0.	146.28
2186	-6.7496	-0.49878	0.	141.29
2187	-7.	-1.25	0.	146.55
2188	-6.7491	-0.99933	0.	142.55
2189	-6.748	-1.4995	0.	141.83
2190	-5.	-0.75	0.	143.56
2191	-5.2498	-0.49804	0.	140.17
2192	-5.	-1.25	0.	143.4
2193	-5.2492	-0.99858	0.	139.82
2194	-5.2479	-1.4985	0.	139.63
2195	-4.5017	0.25927	0.	113.77
2196	-4.4721	-2.2231	0.	118.71
2197	1.	0.25	0.	141.82
2198	0.75046	0.5009	0.	139.54
2199	1.	-0.25	0.	141.87
2200	0.75322	2.4894e-003	0.	138.88
2201	0.76422	-0.49522	0.	137.72
2202	1.5093	1.2496	0.	109.51
2203	1.5165	-1.2513	0.	108.04
2204	2.	0.25	0.	142.24
2205	2.2724	0.49024	0.	138.12
2206	2.	-0.25	0.	141.72
2207	2.2698	-9.8848e-003	0.	138.7
2208	2.2693	-0.51136	0.	137.08
2209	2.	-6.75	0.	144.5
2210	1.7499	-6.5001	0.	142.37
2211	2.	-7.25	0.	144.01
2212	1.7499	-6.9999	0.	144.18
2213	1.7496	-7.4995	0.	141.43
2214	2.4947	-5.7513	0.	111.55
2215	2.4937	-8.2502	0.	110.88
2216	3.	-6.75	0.	141.14
2217	3.2525	-6.5038	0.	136.69
2218	3.	-7.25	0.	141.55
2219	3.2519	-7.0046	0.	137.67
2220	3.2489	-7.5051	0.	137.78
2221	0.	-6.7511	0.	144.45
2222	-0.2652	-6.5273	0.	138.7
2223	0.	-7.251	0.	145.44
2224	-0.28949	-7.0715	0.	134.83
2225	-0.14828	-7.5606	0.	140.24
2226	0.49879	-5.7511	0.	111.93
2227	0.46623	-8.1932	0.	106.97
2228	1.	-6.75	0.	145.79
2229	1.2499	-6.5001	0.	142.93
2230	1.	-7.25	0.	145.53
2231	1.2499	-6.9999	0.	144.92
2232	1.2496	-7.4995	0.	142.21
2233	-2.2578	-5.5076	0.	129.55
2234	-1.4916	-4.7702	0.	110.93
2235	-1.5241	-6.1998	0.	111.93
2236	-0.75061	-5.5033	0.	140.4
2237	-7.	-7.75	0.	144.42
2238	-7.2498	-7.4997	0.	139.42
2239	-7.	-8.25	0.	144.29
2240	-7.2499	-7.9999	0.	140.73
2241	-7.25	-8.5	0.	139.3
2242	-6.25	-7.	0.	114.55
2243	-6.4984	-6.7482	0.	112.97
2244	-5.75	-7.	0.	114.22
2245	-5.9988	-6.7471	0.	114.84
2246	-5.5	-6.7451	0.	112.65
2247	-6.25	-9.	0.	113.19
2248	-6.4999	-9.25	0.	111.13
2249	-5.75	-9.	0.	113.46
2250	-5.9998	-9.25	0.	112.57
2251	-5.4994	-9.2498	0.	111.87
2252	-5.	-7.75	0.	143.25
2253	-4.7552	-7.4764	0.	137.73
2254	-5.	-8.25	0.	144.32
2255	-4.7561	-7.9772	0.	140.4
2256	-4.7539	-8.4806	0.	140.65
2257	9.25	10.	0.	124.73
2258	9.5002	9.7508	0.	125.03
2259	8.75	10.	0.	124.22
2260	9.0004	9.7518	0.	124.67
2261	8.25	10.	0.	123.6
2262	8.5004	9.7534	0.	124.15
2263	7.75	10.	0.	123.05
2264	8.0002	9.7555	0.	123.57
2265	7.25	10.	0.	122.74
2266	7.4998	9.7579	0.	123.14
2267	6.75	10.	0.	122.78
2268	6.9992	9.7597	0.	123.03
2269	6.25	10.	0.	123.16
2270	6.4985	9.7598	0.	123.24
2271	5.75	10.	0.	123.85
2272	5.9987	9.7574	0.	123.69
2273	5.25	10.	0.	124.79
2274	5.4993	9.7551	0.	124.37
2275	4.75	10.	0.	125.87
2276	5.0001	9.7527	0.	125.26
2277	4.25	10.	0.	126.82
2278	4.501	9.7509	0.	126.23
2279	3.75	10.	0.	127.32
2280	4.0021	9.7499	0.	126.97
2281	3.25	10.	0.	127.08
2282	3.5034	9.7497	0.	127.2
2283	2.75	10.	0.	126.09
2284	3.005	9.7494	0.	126.7
2285	2.25	10.	0.	124.77
2286	2.5069	9.7498	0.	125.52
2287	1.75	10.	0.	123.81
2288	2.0092	9.7499	0.	124.14
2289	1.25	10.	0.	123.72
2290	1.5121	9.7499	0.	123.39
2291	0.75	10.	0.	124.51
2292	1.0155	9.7525	0.	123.78
2293	0.25	10.	0.	125.53
2294	0.51843	9.7569	0.	124.97
2295	-0.25	10.	0.	125.21
2296	1.8177e-002	9.7597	0.	126.05
2297	-0.75	10.	0.	123.18
2298	-0.48942	9.755	0.	126.32
2299	-1.25	10.	0.	121.42
2300	-1.0169	9.7302	0.	122.41
2301	-1.75	10.	0.	122.13
2302	-1.5167	9.7768	0.	121.06
2303	-2.25	10.	0.	125.26
2304	-2.0051	9.7476	0.	124.63
2305	-2.75	10.	0.	127.99
2306	-2.5007	9.7556	0.	127.85
2307	-3.25	10.	0.	128.81
2308	-2.9982	9.7617	0.	128.25
2309	-3.75	10.	0.	128.38
2310	-3.4951	9.7568	0.	127.86
2311	-4.25	10.	0.	127.55
2312	-3.9936	9.7528	0.	127.26
2313	-4.75	10.	0.	126.52
2314	-4.4941	9.7509	0.	126.63
2315	-5.25	10.	0.	125.32
2316	-4.9952	9.7502	0.	125.83
2317	-5.75	10.	0.	124.01
2318	-5.4964	9.7499	0.	124.79
2319	-6.25	10.	0.	122.83
2320	-5.9975	9.7498	0.	123.63
2321	-6.75	10.	0.	122.05
2322	-6.4983	9.7498	0.	122.65
2323	-7.25	10.	0.	121.86
2324	-6.9989	9.7499	0.	122.16
2325	-7.75	10.	0.	122.24
2326	-7.4992	9.7499	0.	122.3
2327	-8.25	10.	0.	123.03
2328	-7.9995	9.75	0.	122.94
2329	-8.75	10.	0.	123.92
2330	-8.4997	9.75	0.	123.79
2331	-9.25	10.	0.	124.63
2332	-8.9998	9.75	0.	124.55
2333	-9.4999	9.75	0.	125.06
2334	10.	9.25	0.	125.47
2335	9.7502	9.5008	0.	125.13
2336	10.	8.75	0.	126.21
2337	9.7503	9.0015	0.	125.77
2338	10.	8.25	0.	126.69
2339	9.7503	8.5025	0.	126.48
2340	10.	7.75	0.	126.25
2341	9.7508	8.0039	0.	126.82
2342	10.	7.25	0.	124.56
2343	9.7527	7.5062	0.	126.36
2344	10.	6.75	0.	122.23
2345	9.7566	7.0078	0.	124.92
2346	10.	6.25	0.	121.24
2347	9.7601	6.5071	0.	123.28
2348	10.	5.75	0.	123.23
2349	9.7557	6.0028	0.	123.57
2350	10.	5.25	0.	127.26
2351	9.7478	5.4968	0.	126.6
2352	10.	4.75	0.	131.01
2353	9.7521	4.9916	0.	129.87
2354	10.	4.25	0.	133.31
2355	9.7544	4.4889	0.	131.81
2356	10.	3.75	0.	134.39
2357	9.7541	3.9893	0.	132.78
2358	10.	3.25	0.	134.74
2359	9.7539	3.4898	0.	133.28
2360	10.	2.75	0.	134.37
2361	9.7538	2.9895	0.	133.43
2362	10.	2.25	0.	132.95
2363	9.7526	2.4892	0.	133.02
2364	10.	1.75	0.	130.33
2365	9.7505	1.9888	0.	131.74
2366	10.	1.25	0.	127.23
2367	9.7488	1.4889	0.	129.48
2368	10.	0.75	0.	125.16
2369	9.7503	0.98996	0.	127.08
2370	10.	0.25	0.	125.19
2371	9.7559	0.49147	0.	126.28
2372	10.	-0.25	0.	126.86
2373	9.7597	-6.9351e-003	0.	127.2
2374	10.	-0.75	0.	128.76
2375	9.7584	-0.50523	0.	128.71
2376	10.	-1.25	0.	130.1
2377	9.7543	-1.003	0.	129.8
2378	10.	-1.75	0.	130.89
2379	9.7515	-1.5006	0.	130.38
2380	10.	-2.25	0.	131.42
2381	9.7504	-1.9988	0.	130.76
2382	10.	-2.75	0.	131.86
2383	9.751	-2.4974	0.	131.11
2384	10.	-3.25	0.	132.17
2385	9.7526	-2.9964	0.	131.44
2386	10.	-3.75	0.	132.18
2387	9.7546	-3.4958	0.	131.62
2388	10.	-4.25	0.	131.7
2389	9.7566	-3.9955	0.	131.49
2390	10.	-4.75	0.	130.66
2391	9.7582	-4.4955	0.	130.92
2392	10.	-5.25	0.	129.14
2393	9.759	-4.9961	0.	129.88
2394	10.	-5.75	0.	127.48
2395	9.7584	-5.497	0.	128.53
2396	10.	-6.25	0.	126.17
2397	9.7561	-5.9983	0.	127.23
2398	10.	-6.75	0.	125.64
2399	9.7525	-6.4996	0.	126.42
2400	10.	-7.25	0.	126.03
2401	9.7492	-7.0005	0.	126.37
2402	10.	-7.75	0.	127.13
2403	9.7481	-7.5011	0.	127.02
2404	10.	-8.25	0.	128.51
2405	9.7484	-8.0014	0.	128.08
2406	10.	-8.75	0.	129.77
2407	9.749	-8.5014	0.	129.15
2408	10.	-9.25	0.	130.67
2409	9.7495	-9.0011	0.	130.
2410	9.7499	-9.5006	0.	130.51
2411	-10.	9.25	0.	125.61
2412	-9.7499	9.5	0.	125.17
2413	-10.	8.75	0.	126.68
2414	-9.7499	9.	0.	126.09
2415	-10.	8.25	0.	127.5
2416	-9.7499	8.5	0.	127.16
2417	-10.	7.75	0.	127.3
2418	-9.7499	8.	0.	127.79
2419	-10.	7.25	0.	125.89
2420	-9.7499	7.5	0.	127.47
2421	-10.	6.75	0.	124.
2422	-9.7499	7.	0.	126.24
2423	-10.	6.25	0.	122.85
2424	-9.75	6.5	0.	125.09
2425	-10.	5.75	0.	123.29
2426	-9.75	6.	0.	124.86
2427	-10.	5.25	0.	125.32
2428	-9.75	5.5	0.	125.84
2429	-10.	4.75	0.	128.12
2430	-9.75	5.	0.	127.75
2431	-10.	4.25	0.	130.5
2432	-9.75	4.5	0.	129.75
2433	-10.	3.75	0.	131.81
2434	-9.75	4.	0.	130.91
2435	-10.	3.25	0.	132.23
2436	-9.7501	3.5	0.	131.23
2437	-10.	2.75	0.	132.43
2438	-9.7501	3.	0.	131.2
2439	-10.	2.25	0.	133.05
2440	-9.7502	2.5	0.	131.32
2441	-10.	1.75	0.	134.55
2442	-9.7503	2.	0.	131.95
2443	-10.	1.25	0.	136.94
2444	-9.7502	1.5	0.	133.31
2445	-10.	0.75	0.	138.65
2446	-9.7501	0.99999	0.	135.48
2447	-10.	0.25	0.	137.05
2448	-9.75	0.49999	0.	137.81
2449	-10.	-0.25	0.	132.91
2450	-9.75	-5.4338e-006	0.	136.1
2451	-10.	-0.75	0.	130.57
2452	-9.75	-0.5	0.	135.06
2453	-10.	-1.25	0.	130.91
2454	-9.75	-1.	0.	135.8
2455	-10.	-1.75	0.	133.89
2456	-9.75	-1.5	0.	135.56
2457	-10.	-2.25	0.	138.53
2458	-9.7499	-2.	0.	137.22
2459	-10.	-2.75	0.	140.42
2460	-9.7495	-2.5001	0.	139.25
2461	-10.	-3.25	0.	138.81
2462	-9.7491	-3.	0.	137.12
2463	-10.	-3.75	0.	136.38
2464	-9.7489	-3.5	0.	135.07
2465	-10.	-4.25	0.	134.66
2466	-9.7489	-3.9999	0.	133.71
2467	-10.	-4.75	0.	133.59
2468	-9.7489	-4.4998	0.	132.9
2469	-10.	-5.25	0.	132.8
2470	-9.7489	-4.9997	0.	132.38
2471	-10.	-5.75	0.	131.97
2472	-9.7491	-5.4997	0.	131.91
2473	-10.	-6.25	0.	130.94
2474	-9.7493	-5.9997	0.	131.29
2475	-10.	-6.75	0.	129.8
2476	-9.7495	-6.4997	0.	130.49
2477	-10.	-7.25	0.	128.85
2478	-9.7497	-6.9998	0.	129.65
2479	-10.	-7.75	0.	128.48
2480	-9.7498	-7.4998	0.	129.11
2481	-10.	-8.25	0.	128.88
2482	-9.7499	-7.9999	0.	129.15
2483	-10.	-8.75	0.	129.94
2484	-9.7499	-8.4999	0.	129.82
2485	-10.	-9.25	0.	131.18
2486	-9.75	-9.	0.	130.87
2487	-9.75	-9.5	0.	131.81
2488	-9.25	-10.	0.	132.69
2489	-9.5	-9.75	0.	132.
2490	-8.75	-10.	0.	133.99
2491	-9.	-9.75	0.	133.04
2492	-8.25	-10.	0.	135.33
2493	-8.5	-9.75	0.	134.45
2494	-7.75	-10.	0.	134.54
2495	-8.	-9.75	0.	135.62
2496	-7.25	-10.	0.	128.07
2497	-7.5	-9.75	0.	134.19
2498	-6.75	-10.	0.	117.73
2499	-7.	-9.75	0.	123.49
2500	-6.25	-10.	0.	110.69
2501	-6.4999	-9.75	0.	111.78
2502	-5.75	-10.	0.	111.28
2503	-5.9998	-9.75	0.	109.54
2504	-5.25	-10.	0.	119.49
2505	-5.4994	-9.7498	0.	112.83
2506	-4.75	-10.	0.	130.76
2507	-4.9981	-9.7481	0.	125.94
2508	-4.25	-10.	0.	137.51
2509	-4.4957	-9.7416	0.	137.25
2510	-3.75	-10.	0.	137.54
2511	-3.9917	-9.7321	0.	138.38
2512	-3.25	-10.	0.	134.31
2513	-3.4881	-9.7256	0.	135.81
2514	-2.75	-10.	0.	130.23
2515	-2.9868	-9.7459	0.	131.77
2516	-2.25	-10.	0.	125.8
2517	-2.4865	-9.7664	0.	127.78
2518	-1.75	-10.	0.	120.4
2519	-1.9868	-9.7781	0.	123.79
2520	-1.25	-10.	0.	115.95
2521	-1.4867	-9.7776	0.	117.51
2522	-0.75	-10.	0.	116.23
2523	-0.98742	-9.7648	0.	113.94
2524	-0.25	-10.	0.	120.77
2525	-0.49258	-9.7566	0.	118.35
2526	0.25	-10.	0.	125.32
2527	-1.2596e-003	-9.7771	0.	124.03
2528	0.75	-10.	0.	127.55
2529	0.49216	-9.7764	0.	126.99
2530	1.25	-10.	0.	127.97
2531	0.9852	-9.7516	0.	128.11
2532	1.75	-10.	0.	127.09
2533	1.486	-9.7471	0.	127.87
2534	2.25	-10.	0.	125.94
2535	1.9907	-9.7486	0.	126.28
2536	2.75	-10.	0.	125.97
2537	2.4941	-9.7497	0.	125.12
2538	3.25	-10.	0.	127.34
2539	2.9958	-9.7507	0.	126.21
2540	3.75	-10.	0.	128.67
2541	3.4959	-9.7522	0.	128.37
2542	4.25	-10.	0.	128.6
2543	3.9959	-9.754	0.	129.34
2544	4.75	-10.	0.	126.91
2545	4.4949	-9.7566	0.	128.3
2546	5.25	-10.	0.	124.37
2547	4.9938	-9.7598	0.	125.8
2548	5.75	-10.	0.	122.23
2549	5.4933	-9.7619	0.	122.96
2550	6.25	-10.	0.	121.6
2551	5.9933	-9.7616	0.	121.21
2552	6.75	-10.	0.	122.75
2553	6.4939	-9.7585	0.	121.59
2554	7.25	-10.	0.	124.94
2555	6.9948	-9.7576	0.	123.75
2556	7.75	-10.	0.	127.06
2557	7.4963	-9.7563	0.	126.3
2558	8.25	-10.	0.	128.49
2559	7.9979	-9.7545	0.	128.13
2560	8.75	-10.	0.	129.28
2561	8.499	-9.7528	0.	129.09
2562	9.25	-10.	0.	129.83
2563	8.9996	-9.7515	0.	129.56
2564	9.4999	-9.7506	0.	130.06
2565	-4.	-1.0074	0.	157.48
2566	-4.	-0.60236	0.	146.46
2567	5.7591	-4.4328	0.	117.6
2568	5.5202	-4.2187	0.	119.22
2569	5.9703	-4.1345	0.	118.52
2570	5.7303	-3.9055	0.	118.08
2571	-5.9696	-4.7354	0.	123.29
2572	-6.2273	-4.9882	0.	122.14
2573	-5.9807	-5.2358	0.	120.5
2574	-5.7242	-4.9806	0.	122.48
2575	-6.2176	-4.4882	0.	124.49
2576	-5.959	-4.2355	0.	125.97
2577	-5.7102	-4.4795	0.	124.77
2578	-5.7677	2.5128	0.	126.56
2579	-6.0183	2.2615	0.	126.75
2580	-6.0127	2.759	0.	125.55
2581	-6.2633	2.5082	0.	124.94
2582	-5.5163	2.7635	0.	127.26
2583	-5.5223	2.2671	0.	127.53
2584	-5.2705	2.5181	0.	127.16
2585	-4.5192	2.7747	0.	126.94
2586	-4.7719	2.5245	0.	126.75
2587	-4.2718	2.5328	0.	126.01
2588	-4.5222	2.2797	0.	125.74
2589	-4.6974	-4.4549	0.	125.31
2590	-4.9369	-4.2083	0.	125.48
2591	-4.9611	-4.7119	0.	125.04
2592	-5.203	-4.4668	0.	125.11
2593	-6.4753	-4.741	0.	123.36
2594	-6.7249	-4.4928	0.	124.4
2595	-6.4685	-4.2415	0.	125.54
2596	-6.4828	-5.2411	0.	121.24
2597	-6.7311	-4.9923	0.	123.04
2598	3.8441	2.4672	0.	131.48
2599	3.3261	2.4729	0.	132.21
2600	3.5956	2.2128	0.	131.67
2601	3.5746	2.7253	0.	132.21
2602	-3.564	-3.4661	0.	121.66
2603	-3.3242	-3.3401	0.	121.36
2604	-3.1048	-3.5812	0.	122.9
2605	-3.373	-3.7865	0.	123.24
2606	1.2327	-3.5054	0.	124.58
2607	1.7201	-3.5096	0.	125.24
2608	1.4802	-3.2565	0.	123.97
2609	1.4776	-3.757	0.	125.17
2610	0.74384	-3.5008	0.	124.68
2611	0.99601	-3.2528	0.	123.78
2612	0.98748	-3.7538	0.	124.84
2613	0.49599	-3.7482	0.	125.19
2614	0.24929	-3.4899	0.	125.24
2615	0.51261	-3.2447	0.	124.35
2616	-0.86927	-2.5656	0.	125.21
2617	-0.93048	-3.0175	0.	125.15
2618	-1.1314	-2.7697	0.	126.16
2619	-0.66068	-2.8584	0.	125.22
2620	-0.8366	-2.0902	0.	123.88
2621	-1.0976	-2.2953	0.	126.32
2622	-0.61674	-2.3689	0.	124.53
2623	-3.5519	-3.2432	0.	120.67
2624	-3.8447	-3.6532	0.	122.28
2625	-3.8199	-3.0926	0.	120.06
2626	-4.0791	-3.3954	0.	121.77
2627	-2.2936	1.1436	0.	128.45
2628	-2.528	1.3722	0.	127.04
2629	-2.7744	1.1307	0.	124.74
2630	-2.5135	0.91798	0.	126.72
2631	2.2702	5.3906	0.	126.51
2632	2.2978	5.7725	0.	129.02
2633	1.8449	5.5309	0.	124.68
2634	1.9864	5.8684	0.	125.12
2635	-3.0742	-3.1353	0.	121.29
2636	-3.3034	-2.8718	0.	118.78
2637	5.7915	-4.9495	0.	115.84
2638	5.9983	-4.6479	0.	116.93
2639	5.5498	-4.7441	0.	119.14
2640	7.1122	2.7339	0.	116.65
2641	7.089	3.1972	0.	118.02
2642	6.8863	2.9528	0.	116.93
2643	7.3392	2.9602	0.	119.05
2644	7.1046	2.2746	0.	114.79
2645	7.3462	2.4853	0.	118.46
2646	6.8948	2.5293	0.	115.16
2647	-5.9895	-5.7376	0.	117.23
2648	-6.2362	-5.4887	0.	119.57
2649	-5.7365	-5.4819	0.	119.92
2650	-2.8548	-3.3764	0.	122.84
2651	-2.8155	-2.9445	0.	121.89
2652	-2.5976	-3.1607	0.	123.22
2653	7.3078	3.4389	0.	119.5
2654	7.0447	3.681	0.	119.06
2655	6.8351	3.395	0.	118.35
2656	5.0707	-4.3114	0.	122.36
2657	5.2824	-4.0017	0.	119.47
2658	5.311	-4.53	0.	120.75
2659	4.0929	2.7211	0.	131.16
2660	4.1149	2.2113	0.	130.33
2661	4.3639	2.4652	0.	130.29
2662	2.4502	-3.7669	0.	127.38
2663	2.6967	-4.0141	0.	128.12
2664	2.2111	-4.0119	0.	126.7
2665	2.4614	-4.261	0.	126.56
2666	2.2045	-3.5162	0.	126.67
2667	1.9654	-3.2629	0.	125.26
2668	1.9654	-3.7612	0.	125.98
2669	2.6845	-3.5242	0.	128.65
2670	2.4458	-3.2745	0.	127.4
2671	2.931	-3.7715	0.	129.38
2672	3.1603	-3.5243	0.	130.71
2673	2.9185	-3.2893	0.	129.81
2674	-5.2229	-4.9697	0.	123.92
2675	-5.4801	-5.2266	0.	121.93
2676	-5.4648	-4.7247	0.	123.98
2677	-4.1519	-3.9368	0.	123.9
2678	-4.4256	-4.1931	0.	124.8
2679	-4.6651	-3.9466	0.	124.97
2680	-4.3863	-3.679	0.	123.41
2681	1.2435	-3.0039	0.	123.16
2682	1.7255	-3.0097	0.	123.99
2683	1.4949	-2.7556	0.	122.11
2684	3.042	3.2491	0.	132.33
2685	2.7955	2.9957	0.	132.07
2686	3.0589	2.7334	0.	132.41
2687	3.3075	2.9858	0.	132.41
2688	-6.2099	-3.9889	0.	127.01
2689	-5.6976	-3.9801	0.	127.15
2690	-5.9527	-3.7367	0.	129.01
2691	-7.2311	-4.4954	0.	124.53
2692	-6.9807	-4.7441	0.	124.08
2693	-6.9764	-4.2445	0.	124.82
2694	-6.2677	2.01	0.	126.62
2695	-5.7729	2.0157	0.	127.72
2696	-6.0202	1.763	0.	128.85
2697	-7.008	2.2535	0.	122.58
2698	-7.2556	2.5024	0.	121.57
2699	-6.7589	2.5046	0.	122.97
2700	-7.0056	2.7528	0.	121.3
2701	-6.2582	3.006	0.	123.78
2702	-6.5053	3.2538	0.	121.64
2703	-6.5088	2.7553	0.	123.18
2704	-6.7555	3.0034	0.	121.5
2705	-1.1975	-3.2134	0.	124.82
2706	-1.6546	-3.1837	0.	124.89
2707	-1.4415	-3.416	0.	123.57
2708	-1.3985	-2.9657	0.	125.84
2709	-3.6538	-3.9736	0.	123.84
2710	-3.9226	-4.1966	0.	124.51
2711	-4.4603	-4.7029	0.	125.9
2712	-4.1963	-4.4529	0.	125.4
2713	-3.2617	3.0339	0.	127.26
2714	-3.7645	3.031	0.	126.44
2715	-3.5164	2.7904	0.	126.21
2716	-3.5109	3.278	0.	125.9
2717	-4.7653	3.0183	0.	127.83
2718	-5.2638	3.0134	0.	127.75
2719	-5.0117	3.2631	0.	129.05
2720	-5.018	2.768	0.	127.65
2721	5.4026	3.0767	0.	124.36
2722	5.887	3.2172	0.	120.78
2723	5.6049	3.3991	0.	121.74
2724	5.6685	2.9837	0.	122.82
2725	4.3458	2.9764	0.	130.42
2726	4.0671	3.2335	0.	131.63
2727	3.8234	2.9793	0.	131.89
2728	3.2877	3.5039	0.	132.38
2729	3.5294	3.7594	0.	132.49
2730	3.7969	3.4949	0.	132.19
2731	3.5532	3.2407	0.	132.46
2732	2.7023	5.1052	0.	129.45
2733	2.1775	5.094	0.	127.4
2734	2.6509	5.3649	0.	129.87
2735	2.4606	4.8739	0.	128.67
2736	7.5448	4.6444	0.	117.77
2737	7.511	4.1822	0.	119.13
2738	7.7674	4.4074	0.	120.53
2739	7.2277	4.4696	0.	119.15
2740	2.9765	4.7998	0.	130.49
2741	3.2141	5.0454	0.	130.87
2742	2.9165	5.3054	0.	130.79
2743	3.	4.2929	0.	131.05
2744	3.239	4.5433	0.	131.31
2745	2.7348	4.5686	0.	129.72
2746	4.8837	2.9733	0.	127.96
2747	4.5876	3.2351	0.	129.38
2748	4.6169	2.7204	0.	129.55
2749	5.4239	2.8771	0.	124.94
2750	5.1147	3.2451	0.	125.82
2751	5.1494	2.7034	0.	127.69
2752	-4.5127	3.2681	0.	128.21
2753	-4.2657	3.0248	0.	127.
2754	-3.0179	2.311	0.	127.06
2755	-3.0125	2.7925	0.	127.92
2756	-2.7625	2.5479	0.	129.04
2757	-3.2672	2.549	0.	126.87
2758	-2.7683	2.0695	0.	127.68
2759	-3.2712	2.0633	0.	125.5
2760	-3.0219	1.8314	0.	125.52
2761	-4.2282	-4.9561	0.	126.82
2762	-3.9939	-5.2014	0.	128.42
2763	-3.9641	-4.7061	0.	126.34
2764	-3.7331	-4.9632	0.	127.14
2765	-0.75362	-3.3449	0.	125.11
2766	-0.98897	-3.4333	0.	124.33
2767	-5.7613	3.0096	0.	126.25
2768	-6.0079	3.2567	0.	125.06
2769	-5.5103	3.2601	0.	127.97
2770	-6.7619	2.0055	0.	124.42
2771	-6.5141	1.7573	0.	126.89
2772	-6.5127	2.2567	0.	124.82
2773	-7.2575	2.0028	0.	122.15
2774	-7.0091	1.7537	0.	123.71
2775	-6.72	-3.9932	0.	125.96
2776	-6.465	-3.7424	0.	128.07
2777	3.0242	3.7704	0.	131.86
2778	2.7816	3.516	0.	131.94
2779	3.2659	4.0259	0.	131.97
2780	2.7645	4.0404	0.	130.96
2781	1.0168	-2.7504	0.	122.19
2782	0.76478	-2.9967	0.	123.45
2783	2.2067	-3.0212	0.	126.
2784	1.9803	-2.7643	0.	124.03
2785	2.4608	-2.7825	0.	127.03
2786	2.6798	-3.0396	0.	128.57
2787	-5.5233	1.7693	0.	128.76
2788	-5.275	2.0218	0.	127.35
2789	-4.0224	1.7975	0.	123.22
2790	-3.7735	2.051	0.	124.41
2791	-4.0231	2.292	0.	124.94
2792	-4.2736	2.0389	0.	124.67
2793	-4.2703	1.5415	0.	122.96
2794	-4.5172	1.2832	0.	122.67
2795	-4.7711	1.5295	0.	125.28
2796	-4.5215	1.783	0.	124.42
2797	-5.1827	-3.9656	0.	126.33
2798	-5.4488	-4.2241	0.	125.96
2799	-5.4378	-3.7249	0.	128.16
2800	-4.9163	-3.7065	0.	125.88
2801	-4.724	-4.9599	0.	125.62
2802	-4.4866	-5.2058	0.	127.15
2803	-4.9815	-5.2152	0.	124.67
2804	2.947	-4.2608	0.	128.41
2805	3.1772	-4.0093	0.	129.89
2806	4.1445	1.6977	0.	128.75
2807	4.3833	1.959	0.	129.23
2808	3.8664	1.9569	0.	130.53
2809	6.8788	-4.0035	0.	123.63
2810	7.0955	-3.7328	0.	125.59
2811	7.1232	-4.2299	0.	125.69
2812	7.3456	-3.9751	0.	126.72
2813	6.664	-4.2775	0.	121.3
2814	6.6397	-3.7856	0.	122.52
2815	6.4229	-4.0614	0.	120.39
2816	4.6142	-4.3937	0.	126.57
2817	4.8606	-4.621	0.	125.62
2818	4.831	-4.1008	0.	123.51
2819	6.0897	3.4753	0.	119.63
2820	6.1738	3.0059	0.	118.69
2821	6.3635	3.305	0.	118.73
2822	6.4428	2.8515	0.	117.22
2823	6.6689	2.7483	0.	115.47
2824	6.6324	3.1506	0.	117.27
2825	4.3981	-4.6871	0.	129.7
2826	4.371	-4.1775	0.	128.23
2827	4.1475	-4.451	0.	129.82
2828	-1.9062	-3.4024	0.	123.87
2829	-1.8655	-2.9436	0.	126.25
2830	-2.122	-3.1709	0.	124.59
2831	7.3219	-3.4784	0.	126.73
2832	7.0773	-3.2395	0.	126.18
2833	6.8565	-3.5149	0.	124.48
2834	-3.5714	-2.7212	0.	118.14
2835	-3.0523	-2.4844	0.	118.98
2836	-3.3669	-2.3518	0.	112.36
2837	-3.0447	-2.681	0.	119.34
2838	4.2045	1.1625	0.	126.79
2839	4.4193	1.4561	0.	126.82
2840	3.8982	1.4409	0.	129.01
2841	3.6504	6.0595	0.	130.7
2842	3.9291	5.7882	0.	130.67
2843	3.9099	6.2838	0.	129.63
2844	4.1889	6.027	0.	132.21
2845	-2.0432	0.94323	0.	130.76
2846	-2.0396	1.3592	0.	130.27
2847	-1.8142	1.0556	0.	132.89
2848	-5.9981	-0.74623	0.	133.53
2849	-5.9956	-1.2477	0.	133.52
2850	-6.2477	-0.99798	0.	136.08
2851	-5.7479	-0.99722	0.	135.26
2852	-4.1183	-2.8679	0.	119.92
2853	-3.8901	-2.5826	0.	122.26
2854	-6.2426	-5.9912	0.	116.51
2855	-5.7445	-5.9858	0.	116.8
2856	-5.9952	-6.2416	0.	114.33
2857	5.5875	-5.266	0.	118.52
2858	6.0299	-5.152	0.	113.6
2859	5.8285	-5.4611	0.	113.63
2860	-0.78914	-1.6317	0.	121.16
2861	-1.0689	-1.8038	0.	123.97
2862	-0.58527	-1.8864	0.	122.68
2863	1.7229	-4.0086	0.	125.91
2864	1.9721	-4.2586	0.	126.18
2865	1.4803	-4.2566	0.	126.05
2866	1.2324	-4.0055	0.	125.42
2867	0.49306	-4.2501	0.	125.12
2868	0.24406	-3.9955	0.	126.1
2869	0.73963	-4.0012	0.	125.35
2870	7.3245	2.0085	0.	117.97
2871	7.0764	1.8125	0.	113.31
2872	6.8587	2.0954	0.	112.28
2873	7.8283	4.8411	0.	120.41
2874	7.3373	4.9719	0.	115.68
2875	7.6739	5.0411	0.	117.52
2876	7.5308	3.6928	0.	120.23
2877	7.2676	3.9349	0.	119.78
2878	7.7685	3.9321	0.	121.49
2879	7.558	3.2019	0.	120.54
2880	7.7889	3.4448	0.	122.
2881	7.5732	2.7116	0.	120.86
2882	7.8069	2.9528	0.	122.64
2883	7.5662	2.2191	0.	121.66
2884	7.811	2.4554	0.	123.96
2885	-7.7546	2.0013	0.	121.02
2886	-7.505	2.2517	0.	121.14
2887	-7.5057	1.7518	0.	120.87
2888	-7.5018	3.2509	0.	119.98
2889	-7.7519	3.0008	0.	121.39
2890	-7.5033	2.7514	0.	120.84
2891	-7.2534	3.0018	0.	120.56
2892	-7.501	3.7506	0.	118.56
2893	-7.751	3.5006	0.	121.
2894	-7.252	3.5013	0.	118.99
2895	-7.4827	-4.2467	0.	124.26
2896	-7.4853	-4.7462	0.	125.07
2897	-7.7362	-4.497	0.	125.02
2898	-7.4819	-3.7477	0.	123.33
2899	-7.7348	-3.9977	0.	123.73
2900	-7.228	-3.9958	0.	124.55
2901	3.5048	4.2763	0.	132.23
2902	3.7691	4.0126	0.	132.6
2903	3.3973	5.8194	0.	131.22
2904	3.676	5.5481	0.	131.2
2905	3.4354	5.3016	0.	131.4
2906	3.1378	5.5616	0.	131.3
2907	-2.5206	1.8339	0.	128.24
2908	-2.2739	1.5878	0.	128.86
2909	-2.7741	1.5959	0.	126.08
2910	-2.7576	3.0312	0.	129.54
2911	-3.0078	3.2778	0.	127.72
2912	-2.5076	2.7867	0.	130.66
2913	-2.5041	3.2726	0.	130.87
2914	-2.2537	3.024	0.	132.16
2915	-2.8975	-3.8271	0.	124.36
2916	-2.6362	-3.6096	0.	123.63
2917	-3.4319	-4.2493	0.	124.94
2918	-3.1656	-4.0323	0.	124.68
2919	-1.6932	-3.6347	0.	122.51
2920	-1.4649	-3.8618	0.	120.48
2921	-1.233	-3.6358	0.	123.06
2922	-0.26841	-3.4693	0.	125.48
2923	-2.6414e-003	-3.7372	0.	126.14
2924	2.2827e-002	-3.2256	0.	125.05
2925	-5.2583	3.5098	0.	129.26
2926	-4.7592	3.5129	0.	129.42
2927	-5.0067	3.7591	0.	131.32
2928	-7.228	-3.4975	0.	124.56
2929	-7.4833	-3.2488	0.	122.03
2930	-7.735	-3.4987	0.	122.05
2931	3.1382	-2.5909	0.	130.77
2932	2.6996	-2.5595	0.	128.27
2933	3.0105	-2.3423	0.	129.95
2934	2.9186	-2.8166	0.	129.8
2935	1.7496	-2.5102	0.	122.14
2936	1.2681	-2.5021	0.	121.13
2937	1.5207	-2.255	0.	119.24
2938	-5.7706	1.5166	0.	129.86
2939	-6.2666	1.5103	0.	129.1
2940	-6.0153	1.2627	0.	131.93
2941	-3.2647	1.0972	0.	121.92
2942	-3.0011	0.87899	0.	121.9
2943	-3.0205	1.3544	0.	123.79
2944	-2.2631	0.71761	0.	129.02
2945	-1.984	0.52677	0.	131.71
2946	-1.801	0.8557	0.	133.3
2947	-3.7702	1.5586	0.	122.44
2948	-3.5162	1.323	0.	121.8
2949	-3.5213	1.8121	0.	123.64
2950	-3.2721	1.5802	0.	123.65
2951	-4.6375	-3.4389	0.	124.33
2952	-4.3776	-3.1707	0.	121.68
2953	-5.955	-3.2389	0.	132.61
2954	-5.6929	-3.4815	0.	129.99
2955	-6.2079	-3.4903	0.	130.05
2956	-6.4894	-5.7423	0.	118.9
2957	-6.7373	-5.4927	0.	121.77
2958	-7.235	-4.995	0.	124.62
2959	-6.9855	-5.244	0.	123.58
2960	-7.4886	-5.2461	0.	126.09
2961	-7.7385	-4.9966	0.	126.24
2962	-5.2387	-5.4721	0.	122.69
2963	-5.4915	-5.7301	0.	119.54
2964	-4.2523	-5.4511	0.	128.72
2965	-4.0165	-5.6902	0.	131.16
2966	-3.7609	-5.4461	0.	129.46
2967	2.2225	-4.5076	0.	126.04
2968	2.7117	-4.5077	0.	126.85
2969	2.474	-4.7566	0.	124.29
2970	4.7387	0.82794	0.	121.81
2971	4.4931	0.95715	0.	124.33
2972	4.7079	1.2507	0.	124.35
2973	4.9849	1.0054	0.	121.94
2974	7.542	-6.5921	0.	128.22
2975	7.4974	-7.0088	0.	128.82
2976	7.7246	-6.9046	0.	128.1
2977	7.2887	-6.789	0.	131.94
2978	6.4506	-4.5659	0.	118.77
2979	6.2366	-4.8504	0.	114.75
2980	6.2095	-4.3497	0.	117.87
2981	7.5524	-3.2242	0.	127.54
2982	7.8031	-3.4718	0.	128.23
2983	7.5719	-3.7207	0.	127.87
2984	7.3715	-4.4714	0.	127.7
2985	7.6128	-4.7086	0.	130.7
2986	7.8406	-4.4639	0.	129.96
2987	7.5938	-4.2166	0.	128.74
2988	3.3861	-3.2842	0.	131.99
2989	3.6312	-3.5041	0.	132.1
2990	3.4065	-3.7621	0.	131.22
2991	5.0427	-3.7911	0.	120.63
2992	5.2565	-3.4776	0.	116.88
2993	5.4925	-3.6885	0.	118.33
2994	4.126	-3.9509	0.	129.25
2995	3.8789	-3.7322	0.	131.62
2996	3.9024	-4.2245	0.	130.84
2997	3.6543	-3.9902	0.	130.74
2998	4.9879	0.57218	0.	119.97
2999	5.1987	0.29258	0.	117.33
3000	5.2341	0.74963	0.	120.11
3001	5.5119	0.45098	0.	123.27
3002	6.7796	3.8676	0.	119.75
3003	6.9843	4.2223	0.	119.82
3004	5.8076	3.6571	0.	120.59
3005	5.3171	3.5675	0.	123.21
3006	5.5397	3.8468	0.	120.08
3007	7.8945	-0.45902	0.	130.06
3008	7.566	-0.64871	0.	125.95
3009	7.7304	-0.16897	0.	130.76
3010	7.5505	-0.28283	0.	123.6
3011	7.3078	-2.9853	0.	126.99
3012	7.5311	-2.7259	0.	126.97
3013	7.7856	-2.9748	0.	127.79
3014	6.8377	-3.0115	0.	125.68
3015	6.5904	-2.7799	0.	125.38
3016	6.6169	-3.2869	0.	123.99
3017	6.3741	-3.0495	0.	123.13
3018	7.0556	-2.7438	0.	126.98
3019	-2.3181	-2.4908	0.	127.01
3020	-2.5572	-2.7275	0.	123.79
3021	-2.0828	-2.7164	0.	126.76
3022	-2.3393	-2.9437	0.	125.12
3023	4.6445	-4.9143	0.	128.74
3024	4.8967	-5.1568	0.	127.95
3025	5.1009	-4.8396	0.	124.02
3026	4.1772	-4.9621	0.	131.64
3027	4.4318	-5.209	0.	132.09
3028	6.2963	3.7519	0.	119.94
3029	6.0253	3.9197	0.	120.1
3030	6.4947	3.9996	0.	121.61
3031	6.5701	3.5816	0.	119.05
3032	4.4918	0.75686	0.	123.32
3033	4.7026	0.42291	0.	120.99
3034	4.2041	0.6234	0.	127.01
3035	3.9519	0.90826	0.	127.74
3036	4.5878	-3.8846	0.	125.18
3037	4.3439	-3.6796	0.	128.31
3038	4.8036	-3.5946	0.	121.94
3039	3.3639	-2.8235	0.	132.06
3040	3.2253	-2.3502	0.	131.
3041	3.5621	-2.562	0.	132.73
3042	3.6024	-3.0277	0.	133.43
3043	3.1443	-3.0493	0.	131.1
3044	3.1376	6.1106	0.	132.73
3045	3.3442	6.3363	0.	130.02
3046	6.9085	-4.504	0.	123.37
3047	7.1483	-4.7211	0.	127.41
3048	6.6891	-4.7677	0.	120.45
3049	4.6581	1.7174	0.	127.29
3050	4.8945	1.9507	0.	129.06
3051	4.6324	2.2129	0.	129.19
3052	4.9284	1.4649	0.	126.13
3053	5.9553	2.7724	0.	120.72
3054	6.1858	2.5163	0.	118.49
3055	6.4471	2.6575	0.	116.27
3056	5.6706	2.5682	0.	125.14
3057	1.2355	-4.505	0.	125.94
3058	0.741	-4.5027	0.	125.08
3059	0.99067	-4.7537	0.	125.36
3060	0.98757	-4.2539	0.	125.31
3061	1.7295	-4.5066	0.	126.33
3062	1.9809	-4.7558	0.	126.06
3063	1.4859	-4.7551	0.	127.84
3064	3.1974	-4.5023	0.	129.08
3065	3.4493	-4.7471	0.	130.8
3066	3.6757	-4.4851	0.	130.65
3067	3.4276	-4.2508	0.	130.56
3068	2.9628	-4.7553	0.	126.86
3069	-4.744	-5.4611	0.	126.2
3070	-4.505	-5.7047	0.	128.98
3071	-4.9963	-5.7187	0.	124.43
3072	-7.7413	-5.4967	0.	127.72
3073	-7.4918	-5.7464	0.	127.86
3074	-7.2391	-5.4951	0.	125.06
3075	-4.9147	-3.2096	0.	126.23
3076	-5.1714	-3.4659	0.	127.71
3077	-4.0146	1.2956	0.	121.11
3078	-2.4529	0.47042	0.	128.09
3079	-2.7403	0.66629	0.	123.87
3080	-5.5168	1.2679	0.	131.06
3081	-5.2714	1.5221	0.	128.23
3082	3.648	-1.7966	0.	131.12
3083	3.6211	-1.3016	0.	130.65
3084	3.3594	-1.5546	0.	130.56
3085	3.8975	-1.5447	0.	133.8
3086	2.2344	-2.5256	0.	125.06
3087	2.011	-2.2657	0.	122.62
3088	2.5096	-2.2887	0.	127.27
3089	2.2946	2.4915	0.	129.64
3090	2.556	2.2341	0.	131.23
3091	2.546	2.7444	0.	131.39
3092	2.8094	2.4822	0.	131.73
3093	1.783	2.5003	0.	126.85
3094	2.0348	2.7534	0.	129.47
3095	2.0394	2.2449	0.	126.87
3096	0.79349	-2.4936	0.	122.02
3097	0.571	-2.2371	0.	122.78
3098	0.54151	-2.7399	0.	123.28
3099	0.32327	-2.4747	0.	123.24
3100	1.0419	-2.2483	0.	120.17
3101	2.522	3.786	0.	131.04
3102	2.2768	3.5236	0.	131.67
3103	2.5352	3.2626	0.	131.68
3104	2.2632	4.0441	0.	130.32
3105	2.4993	4.3161	0.	129.62
3106	-6.976	-3.2473	0.	126.95
3107	-6.9742	-3.7456	0.	125.78
3108	-6.7192	-3.4949	0.	127.89
3109	-6.7614	1.5055	0.	126.18
3110	-6.5112	1.257	0.	129.78
3111	-7.0076	1.2533	0.	124.9
3112	-7.2573	1.5027	0.	122.44
3113	-5.5062	3.7573	0.	129.82
3114	-5.7569	3.5072	0.	126.78
3115	-0.51743	-3.7297	0.	126.13
3116	-0.77154	-3.5449	0.	124.62
3117	-0.48382	-3.1858	0.	125.17
3118	-3.2062	-4.5052	0.	126.07
3119	-3.7008	-4.4723	0.	125.59
3120	-3.4697	-4.7294	0.	126.4
3121	-1.9406	-3.8589	0.	121.81
3122	-2.1631	-3.6253	0.	123.28
3123	-2.5129	2.3064	0.	129.65
3124	-2.2576	2.5385	0.	131.57
3125	-2.2634	2.0578	0.	130.24
3126	-4.2598	3.5172	0.	127.72
3127	-4.5075	3.7624	0.	129.95
3128	-4.0127	3.274	0.	126.52
3129	-4.0079	3.7662	0.	126.21
3130	-3.7592	3.5209	0.	125.98
3131	5.0482	3.7743	0.	124.68
3132	4.8186	3.5068	0.	127.24
3133	3.7439	4.5271	0.	132.56
3134	3.4765	4.7889	0.	131.69
3135	6.3594	-2.5609	0.	124.08
3136	5.919	-2.5525	0.	119.43
3137	6.143	-2.8304	0.	121.84
3138	6.1116	-2.3794	0.	120.77
3139	-2.5632	-2.3024	0.	124.43
3140	-2.8432	-2.1241	0.	117.92
3141	-2.8023	-2.539	0.	121.22
3142	5.1416	-5.3777	0.	125.76
3143	5.3916	-5.5953	0.	121.09
3144	5.3458	-5.0605	0.	121.82
3145	3.3825	-2.0726	0.	130.74
3146	3.7192	-2.2844	0.	132.45
3147	3.9319	-2.0308	0.	132.65
3148	2.6915	6.0344	0.	133.96
3149	2.3773	6.1597	0.	139.48
3150	2.6785	5.7468	0.	132.38
3151	7.806	-6.4202	0.	127.42
3152	7.595	-6.1459	0.	129.08
3153	7.3487	-6.3559	0.	130.75
3154	-6.7424	-5.9944	0.	120.59
3155	-6.4945	-6.2448	0.	115.67
3156	3.3601	0.44294	0.	131.05
3157	2.8169	0.4696	0.	132.58
3158	3.0946	0.70825	0.	131.42
3159	3.083	0.20826	0.	131.44
3160	-7.7372	-2.9994	0.	119.79
3161	-7.2312	-2.9985	0.	124.44
3162	-7.4877	-2.7495	0.	119.31
3163	-6.2525	4.0027	0.	122.14
3164	-6.5014	4.2514	0.	117.03
3165	-6.7516	4.0014	0.	117.38
3166	-6.5029	3.7525	0.	119.89
3167	-2.1738	0.27957	0.	130.78
3168	-2.662	0.2115	0.	125.27
3169	-2.3494	2.5776e-002	0.	130.16
3170	-1.8991	6.6429e-002	0.	133.59
3171	-1.7079	0.36734	0.	133.78
3172	3.9553	5.2843	0.	131.61
3173	4.2059	5.5286	0.	132.34
3174	-2.7544	3.5191	0.	129.06
3175	-3.0044	3.7667	0.	126.46
3176	-3.2571	3.5219	0.	126.37
3177	-2.5022	3.7627	0.	130.74
3178	-2.2519	3.5142	0.	132.07
3179	-3.966	7.763	0.	125.29
3180	-3.7253	7.5118	0.	125.12
3181	-4.2278	7.5095	0.	126.92
3182	-3.9833	7.2589	0.	125.34
3183	-4.2128	8.0114	0.	126.18
3184	-3.6967	8.0197	0.	124.52
3185	-3.9526	8.2643	0.	125.1
3186	-4.7243	8.0059	0.	128.28
3187	-4.4681	8.2572	0.	126.78
3188	-4.4746	7.7579	0.	127.8
3189	4.9134	0.14331	0.	118.31
3190	5.3834	-1.921e-002	0.	117.93
3191	5.1361	-0.15412	0.	115.16
3192	-7.9912	-5.2472	0.	127.87
3193	-7.9934	-5.7474	0.	129.75
3194	-8.2433	-5.4977	0.	129.25
3195	-7.9894	-4.7474	0.	126.2
3196	-8.2416	-4.9977	0.	127.7
3197	-7.9883	-4.248	0.	124.51
3198	-8.2406	-4.4981	0.	126.16
3199	-7.988	-3.7487	0.	122.47
3200	-8.24	-3.9987	0.	124.4
3201	-7.9889	-3.2493	0.	119.85
3202	-8.2402	-3.4993	0.	122.19
3203	-8.2416	-2.9997	0.	119.48
3204	-7.9919	-2.7498	0.	117.7
3205	-8.2497	-7.9996	0.	131.17
3206	-7.9998	-8.2497	0.	131.88
3207	-7.7498	-7.9997	0.	134.15
3208	-7.9994	-7.7494	0.	131.45
3209	5.1915	-8.1102	0.	125.64
3210	5.4277	-7.9277	0.	121.96
3211	5.4409	-8.3605	0.	122.48
3212	5.6646	-8.1426	0.	118.99
3213	4.7131	-8.0664	0.	130.07
3214	4.962	-7.846	0.	129.14
3215	4.958	-8.3239	0.	127.92
3216	4.2285	-8.0354	0.	132.1
3217	4.473	-8.2923	0.	131.18
3218	4.4825	-7.7996	0.	132.05
3219	7.9871	7.799	0.	125.88
3220	8.2422	7.5428	0.	128.12
3221	7.7217	7.5902	0.	121.96
3222	7.9851	7.2786	0.	125.54
3223	2.3305	8.0143	0.	129.38
3224	2.082	8.2681	0.	123.67
3225	2.0768	7.8242	0.	127.52
3226	1.8692	7.9714	0.	117.43
3227	2.7985	7.995	0.	133.73
3228	2.5537	8.2475	0.	131.52
3229	2.5493	7.7264	0.	137.02
3230	3.2809	7.9943	0.	132.38
3231	3.0354	7.7664	0.	133.11
3232	3.0357	8.248	0.	132.21
3233	3.7703	7.9913	0.	130.65
3234	3.5233	8.245	0.	130.73
3235	3.5147	7.7503	0.	130.5
3236	7.7306	8.0645	0.	122.8
3237	8.2427	8.0371	0.	126.08
3238	7.992	8.2907	0.	124.46
3239	-7.7505	4.0003	0.	120.49
3240	-7.5005	4.2503	0.	116.13
3241	-7.2509	4.0007	0.	116.77
3242	-8.0027	1.2504	0.	118.06
3243	-7.7531	1.0007	0.	118.09
3244	-8.2517	1.0001	0.	118.1
3245	-8.0017	0.75017	0.	116.4
3246	-8.0033	1.7507	0.	120.07
3247	-8.2524	1.5004	0.	120.25
3248	-7.7544	1.5012	0.	119.91
3249	-8.0029	2.2507	0.	121.34
3250	-8.2527	2.0006	0.	121.83
3251	-8.0019	2.7506	0.	122.01
3252	-8.2519	2.5005	0.	122.84
3253	-7.7533	2.5012	0.	121.46
3254	-8.0011	3.2505	0.	122.42
3255	-8.2512	3.0004	0.	123.55
3256	-8.0006	3.7503	0.	122.93
3257	-8.2506	3.5003	0.	124.38
3258	7.791	1.9482	0.	125.94
3259	7.5368	1.7193	0.	120.56
3260	8.0508	4.604	0.	123.18
3261	8.311	4.8368	0.	126.68
3262	8.1118	5.0173	0.	124.2
3263	8.0249	4.1573	0.	122.89
3264	8.28	4.3956	0.	125.16
3265	8.0267	3.6842	0.	123.26
3266	8.2716	3.9277	0.	124.79
3267	8.0378	3.1958	0.	124.1
3268	8.2785	3.4429	0.	125.23
3269	8.0447	2.6966	0.	125.74
3270	8.2858	2.9482	0.	126.35
3271	8.0358	2.1845	0.	128.25
3272	8.2862	2.4435	0.	128.48
3273	0.49449	-4.7523	0.	123.2
3274	0.24584	-4.5017	0.	125.87
3275	-0.77473	-1.2014	0.	118.18
3276	-1.0012	-1.3073	0.	120.79
3277	-0.53345	-1.4294	0.	119.9
3278	1.5266	2.7574	0.	127.24
3279	1.5274	2.2517	0.	123.16
3280	1.2735	2.5037	0.	125.05
3281	7.7633	-2.4744	0.	126.8
3282	7.2789	-2.4843	0.	126.97
3283	7.5038	-2.2225	0.	125.02
3284	5.1982	-7.6635	0.	125.46
3285	5.665	-7.7204	0.	118.64
3286	5.4809	-7.5514	0.	116.88
3287	6.6994	4.3543	0.	121.65
3288	6.7117	4.5768	0.	124.35
3289	7.0201	4.7971	0.	117.12
3290	3.3464	-1.0496	0.	130.33
3291	3.6097	-0.80816	0.	131.02
3292	3.8815	-1.057	0.	132.16
3293	3.8966	0.39394	0.	129.51
3294	3.6201	0.17836	0.	131.48
3295	3.6444	0.6788	0.	130.26
3296	5.0174	-3.2811	0.	118.16
3297	5.2303	-2.9645	0.	115.13
3298	5.4675	-3.1498	0.	116.42
3299	3.8474	-3.2476	0.	133.53
3300	4.0968	-3.4608	0.	130.68
3301	1.6749e-002	6.833	0.	118.31
3302	0.2262	7.0144	0.	118.87
3303	0.29159	6.6108	0.	117.43
3304	0.50244	6.6687	0.	120.24
3305	-2.2059e-002	8.1487	0.	125.56
3306	-0.26969	8.389	0.	127.49
3307	-0.29749	7.9756	0.	122.59
3308	-0.43256	8.175	0.	132.16
3309	6.4751	-5.0522	0.	116.38
3310	6.2635	-5.3379	0.	111.18
3311	7.8551	-4.9571	0.	131.71
3312	7.6235	-5.1952	0.	132.62
3313	7.3896	-4.9583	0.	130.38
3314	7.7145	-7.108	0.	128.12
3315	7.4889	-7.4146	0.	129.67
3316	7.2599	-7.2094	0.	129.17
3317	8.0491	-0.73817	0.	130.44
3318	8.132	-0.28297	0.	134.04
3319	8.3293	-0.51385	0.	132.6
3320	7.9899	-1.2204	0.	127.27
3321	7.7206	-0.92786	0.	126.33
3322	8.2575	-0.98776	0.	129.68
3323	7.9852	-1.7202	0.	125.93
3324	7.7214	-1.4598	0.	123.8
3325	8.2375	-1.4791	0.	127.36
3326	7.9996	-2.2229	0.	126.53
3327	7.74	-1.9709	0.	124.75
3328	8.243	-1.9779	0.	127.01
3329	8.0178	-2.7233	0.	127.62
3330	8.2567	-2.4771	0.	127.74
3331	8.0363	-3.2224	0.	128.48
3332	8.272	-2.9756	0.	128.56
3333	8.0528	-3.7195	0.	129.18
3334	8.2878	-3.4738	0.	129.2
3335	8.0684	-4.2157	0.	130.04
3336	8.3012	-3.9705	0.	129.84
3337	7.8216	-3.9684	0.	128.82
3338	8.0829	-4.7124	0.	130.97
3339	8.3153	-4.4682	0.	130.57
3340	8.0895	-5.2083	0.	131.18
3341	8.325	-4.9664	0.	131.02
3342	8.0827	-5.7049	0.	129.89
3343	7.858	-5.4465	0.	132.11
3344	8.3249	-5.465	0.	130.41
3345	8.0555	-6.2078	0.	128.
3346	7.8444	-5.9334	0.	129.69
3347	8.3109	-5.9665	0.	128.58
3348	7.9886	-6.7328	0.	127.28
3349	8.2762	-6.4756	0.	127.2
3350	7.9626	-7.2727	0.	128.24
3351	8.2116	-7.0029	0.	127.35
3352	7.985	-7.7911	0.	129.73
3353	7.737	-7.5794	0.	129.81
3354	8.2343	-7.5272	0.	128.72
3355	7.9871	-8.2853	0.	130.25
3356	8.2384	-8.0293	0.	129.89
3357	7.7323	-8.0571	0.	131.12
3358	5.2054	1.2196	0.	123.72
3359	5.4801	0.95682	0.	125.06
3360	5.3962	2.3944	0.	127.86
3361	5.1447	2.1882	0.	129.13
3362	4.8826	2.4504	0.	129.28
3363	2.7251	-5.0042	0.	124.27
3364	2.2324	-5.0047	0.	124.29
3365	2.4845	-5.2537	0.	118.3
3366	3.7002	-4.9881	0.	131.92
3367	3.9266	-4.7261	0.	131.77
3368	3.9544	-5.2355	0.	133.18
3369	-5.2492	-5.9767	0.	121.29
3370	-5.498	-6.2363	0.	116.01
3371	-3.3068	-5.9092	0.	131.6
3372	-3.0434	-5.6849	0.	128.53
3373	-2.8229	-5.981	0.	127.77
3374	-3.0672	-6.1105	0.	132.11
3375	-3.7854	-5.9239	0.	132.68
3376	-3.5464	-6.1481	0.	134.93
3377	-3.5297	-5.6798	0.	131.04
3378	-4.0287	-6.1778	0.	133.56
3379	-4.2693	-5.9438	0.	131.38
3380	-7.744	-5.9971	0.	129.88
3381	-7.9956	-6.2478	0.	131.42
3382	-8.2452	-5.9979	0.	130.8
3383	-4.6548	-2.9414	0.	123.57
3384	-4.4163	-2.6831	0.	118.92
3385	-3.4996	0.82966	0.	120.44
3386	-3.7607	1.0599	0.	120.44
3387	-5.9996	-0.2439	0.	134.06
3388	-6.249	-0.49636	0.	134.99
3389	-5.7492	-0.49562	0.	134.69
3390	2.8205	-2.0714	0.	128.95
3391	3.0939	-1.8306	0.	130.16
3392	3.0898	1.7148	0.	132.38
3393	2.822	1.9749	0.	131.93
3394	3.0754	2.223	0.	132.43
3395	3.3449	1.9629	0.	131.9
3396	1.2944	-2.0012	0.	118.24
3397	1.7821	-2.0105	0.	119.69
3398	1.534	-1.7537	0.	113.68
3399	2.001	4.2947	0.	129.16
3400	1.7396	4.527	0.	129.78
3401	1.954	4.7868	0.	127.2
3402	2.2371	4.5668	0.	128.47
3403	1.7785	3.0105	0.	129.83
3404	2.0279	3.2673	0.	131.2
3405	2.2863	3.0062	0.	131.21
3406	-5.9895	-1.7477	0.	134.18
3407	-6.2448	-1.4986	0.	135.27
3408	-5.7448	-1.4976	0.	134.3
3409	-5.965	-2.7422	0.	135.54
3410	-5.7017	-2.9853	0.	133.55
3411	-6.2142	-2.9925	0.	133.77
3412	-7.2552	1.0021	0.	122.45
3413	-7.503	0.75086	0.	117.75
3414	-7.5048	1.2514	0.	119.97
3415	-6.26	1.0093	0.	132.57
3416	-5.7614	1.014	0.	133.08
3417	-6.0076	0.76111	0.	134.82
3418	-6.2422	8.0002	0.	122.15
3419	-6.4935	8.25	0.	120.25
3420	-6.495	7.7501	0.	117.53
3421	-6.7449	8.0001	0.	118.06
3422	-4.9821	7.7541	0.	130.39
3423	-5.2325	8.0026	0.	129.35
3424	-4.9783	8.2531	0.	128.33
3425	-1.7124	-4.086	0.	119.72
3426	-1.2278	-4.0738	0.	120.84
3427	-1.477	-4.3128	0.	115.09
3428	-0.25166	-3.9976	0.	126.78
3429	-3.156e-003	-4.2471	0.	126.84
3430	-2.7667	-5.4903	0.	125.5
3431	-3.2663	-5.4555	0.	127.92
3432	-3.0029	-5.2301	0.	126.42
3433	-2.6786	-4.0661	0.	125.1
3434	-2.9398	-4.2882	0.	125.82
3435	-2.0167	1.8117	0.	130.85
3436	-1.7707	1.5438	0.	131.92
3437	-2.0015	3.2656	0.	133.35
3438	-1.751	3.015	0.	132.34
3439	-2.0037	2.7758	0.	133.06
3440	-0.24526	3.001	0.	112.94
3441	-0.74762	3.0025	0.	117.02
3442	-0.49716	2.7512	0.	110.33
3443	-0.49724	3.251	0.	112.3
3444	-4.9993	5.7526	0.	131.54
3445	-5.0004	5.2531	0.	131.69
3446	-4.75	5.5025	0.	131.78
3447	-5.25	5.5023	0.	133.02
3448	-3.2538	4.0127	0.	123.95
3449	-3.5034	4.2599	0.	118.63
3450	-3.7552	4.0132	0.	124.09
3451	-3.5065	3.7679	0.	123.88
3452	-4.755	4.0086	0.	131.82
3453	-5.2546	4.0067	0.	131.85
3454	-5.0035	4.2561	0.	133.42
3455	-2.0054	5.2383	0.	128.84
3456	-2.014	5.7267	0.	127.86
3457	-2.2568	5.4866	0.	129.32
3458	-1.7566	5.4851	0.	129.54
3459	-3.4561	7.7686	0.	124.34
3460	-3.1813	8.024	0.	124.95
3461	-3.4257	8.2776	0.	124.46
3462	-3.4853	7.258	0.	124.01
3463	-3.2294	7.5057	0.	126.28
3464	-3.2519	6.9969	0.	126.07
3465	-3.4991	6.7517	0.	119.58
3466	-3.7433	7.005	0.	124.23
3467	3.9305	6.7696	0.	128.94
3468	4.1825	6.5196	0.	130.39
3469	3.6037	6.5606	0.	128.95
3470	4.2644	7.9947	0.	129.06
3471	4.0095	7.7421	0.	130.05
3472	4.0149	8.2431	0.	129.49
3473	5.7573	4.1093	0.	119.57
3474	5.508	4.3108	0.	115.69
3475	5.2708	4.0537	0.	121.53
3476	4.0081	4.2633	0.	132.93
3477	4.273	4.006	0.	131.65
3478	4.0366	3.748	0.	132.3
3479	3.9821	4.776	0.	132.68
3480	4.2255	5.025	0.	132.49
3481	3.7147	5.0378	0.	131.81
3482	4.2473	4.5184	0.	133.63
3483	4.5121	4.2611	0.	132.37
3484	4.7748	4.0177	0.	127.39
3485	4.5452	3.7502	0.	129.95
3486	4.7613	8.0076	0.	125.75
3487	5.006	8.2654	0.	123.98
3488	5.0235	7.7653	0.	122.6
3489	5.2474	8.0356	0.	122.09
3490	4.5105	8.2506	0.	127.5
3491	4.5121	7.75	0.	129.69
3492	3.9804	7.2519	0.	129.5
3493	4.2572	7.4973	0.	130.66
3494	3.7539	7.501	0.	129.91
3495	4.2208	7.0067	0.	129.54
3496	3.6947	7.026	0.	128.63
3497	-2.9959	7.2445	0.	128.32
3498	-2.7685	6.976	0.	131.98
3499	-3.0093	6.7404	0.	128.17
3500	-2.7523	4.0102	0.	128.16
3501	-3.0024	4.2585	0.	125.37
3502	-2.251	4.0067	0.	131.73
3503	-2.5015	4.2553	0.	131.74
3504	-2.2526	4.9944	0.	130.74
3505	-1.7522	4.9936	0.	132.33
3506	-2.0019	4.7462	0.	130.92
3507	-4.5042	4.2582	0.	132.83
3508	-4.2556	4.0113	0.	128.44
3509	-4.7411	7.0046	0.	131.28
3510	-4.4934	6.7545	0.	131.69
3511	-4.485	7.2566	0.	129.18
3512	-4.2405	7.006	0.	127.61
3513	-4.9975	6.2528	0.	132.6
3514	-4.9941	6.7534	0.	132.67
3515	-4.7464	6.5032	0.	133.06
3516	-5.2471	6.5024	0.	134.45
3517	-5.2489	6.0022	0.	134.81
3518	-4.7488	6.0025	0.	132.53
3519	0.25859	3.0016	0.	115.96
3520	0.51108	2.752	0.	121.85
3521	0.50881	3.2519	0.	116.32
3522	0.7641	3.0036	0.	121.72
3523	5.988e-003	2.7508	0.	115.2
3524	5.0957e-003	3.2507	0.	112.84
3525	-1.7583	2.0331	0.	132.09
3526	-2.008	2.29	0.	132.14
3527	-2.1948	-4.0821	0.	122.92
3528	-1.9651	-4.315	0.	120.86
3529	-2.4514	-4.3091	0.	126.68
3530	-2.4173	-3.8486	0.	124.38
3531	-2.7127	-4.5311	0.	127.39
3532	-2.9731	-4.7582	0.	126.36
3533	-0.74172	-4.0326	0.	124.97
3534	-0.49689	-4.2561	0.	128.81
3535	-0.9867	-4.2955	0.	123.71
3536	-0.99583	-3.8478	0.	123.46
3537	-4.9884	7.2541	0.	132.02
3538	-5.2434	7.0029	0.	133.2
3539	-5.2375	7.5032	0.	132.69
3540	-4.7324	7.5061	0.	129.91
3541	-5.7382	8.0009	0.	127.15
3542	-5.4853	8.2511	0.	128.07
3543	-5.4879	7.7517	0.	131.69
3544	-5.9902	8.2502	0.	124.61
3545	-5.9921	7.7505	0.	126.06
3546	-5.7538	4.0048	0.	128.2
3547	-6.0023	4.2528	0.	126.22
3548	-6.0046	3.7546	0.	125.16
3549	-5.5033	4.2551	0.	133.01
3550	-5.0016	4.7542	0.	133.45
3551	-5.2522	4.5045	0.	134.54
3552	-4.7526	4.5057	0.	134.39
3553	-4.751	5.0037	0.	132.93
3554	-5.2509	5.0031	0.	132.94
3555	-6.7575	1.0048	0.	128.5
3556	-6.5063	0.75607	0.	133.8
3557	-7.0046	0.75253	0.	126.66
3558	-6.9819	-2.7483	0.	128.85
3559	-6.7238	-2.9964	0.	130.32
3560	1.5216	3.2641	0.	130.86
3561	1.2712	3.0078	0.	126.79
3562	2.018	3.7817	0.	130.94
3563	1.771	3.5209	0.	132.21
3564	1.7596	4.0287	0.	130.58
3565	-2.0007	3.7582	0.	133.06
3566	-1.7502	4.0037	0.	132.79
3567	-2.0008	4.2522	0.	132.16
3568	-1.7503	3.509	0.	133.68
3569	-1.2492	3.0071	0.	126.33
3570	-1.4998	3.2583	0.	132.68
3571	-1.5008	2.7627	0.	132.22
3572	-0.99901	2.7541	0.	121.29
3573	-0.99861	3.2532	0.	122.62
3574	-1.3636	6.8948	0.	118.
3575	-0.90188	6.8784	0.	119.76
3576	-1.1023	6.6618	0.	121.22
3577	-1.1622	7.1119	0.	112.87
3578	-1.827	6.9164	0.	123.68
3579	-1.5758	6.671	0.	122.11
3580	-1.6102	7.1359	0.	114.45
3581	-2.0305	6.2101	0.	128.8
3582	-2.0502	6.6899	0.	129.27
3583	-1.7989	6.4446	0.	127.59
3584	-2.2827	6.4608	0.	132.02
3585	-2.2664	5.9754	0.	129.85
3586	-1.7695	5.9693	0.	127.54
3587	1.0516	-1.7472	0.	118.64
3588	0.81944	-1.9918	0.	120.94
3589	2.8291	1.4699	0.	132.98
3590	3.3649	1.4521	0.	131.26
3591	3.0982	1.2095	0.	131.93
3592	2.3009	1.9875	0.	128.46
3593	2.5613	1.73	0.	132.54
3594	1.7838	1.9963	0.	123.12
3595	2.0379	1.7432	0.	125.38
3596	2.2863	-2.0287	0.	124.84
3597	2.0331	-1.7644	0.	122.39
3598	2.5502	-1.7888	0.	129.08
3599	3.0848	-1.3025	0.	130.23
3600	2.8236	-1.548	0.	130.28
3601	2.8115	-1.0363	0.	130.39
3602	3.0766	-0.7938	0.	130.49
3603	-5.5085	0.76282	0.	134.64
3604	-5.2618	1.0171	0.	129.79
3605	-6.0022	0.25878	0.	135.44
3606	-5.7547	0.50997	0.	136.31
3607	-6.2539	0.50784	0.	135.99
3608	-6.2505	5.6541e-003	0.	134.9
3609	-5.7506	6.9994e-003	0.	134.83
3610	-2.9493	0.40738	0.	121.05
3611	-2.981	-2.8565e-002	0.	118.86
3612	-3.1751	0.13128	0.	114.31
3613	-2.7736	4.7667e-003	0.	123.75
3614	-3.2361	0.61144	0.	120.37
3615	-4.5082	0.77515	0.	118.94
3616	-4.7625	1.025	0.	124.35
3617	-4.2615	1.0373	0.	120.78
3618	-5.9783	-2.2458	0.	135.87
3619	-6.2378	-1.9979	0.	135.15
3620	-5.7363	-1.9963	0.	135.23
3621	-5.7178	-2.4919	0.	136.97
3622	-6.2255	-2.4954	0.	136.85
3623	-4.9388	-2.7206	0.	127.12
3624	-5.1828	-2.9716	0.	129.51
3625	-7.2429	-5.9961	0.	126.27
3626	-6.9943	-6.2464	0.	124.34
3627	-6.9903	-5.7448	0.	123.47
3628	-7.4948	-6.2472	0.	131.16
3629	-7.9974	-6.7484	0.	131.94
3630	-8.247	-6.4983	0.	131.67
3631	-7.7464	-6.4979	0.	132.67
3632	-8.2483	-6.9988	0.	131.32
3633	-7.7484	-6.9987	0.	132.22
3634	-7.9987	-7.249	0.	131.46
3635	-3.7897	-6.402	0.	135.75
3636	-4.0261	-6.6664	0.	132.82
3637	-4.2742	-6.4376	0.	133.82
3638	-4.7573	-5.9624	0.	127.21
3639	-4.5147	-6.2036	0.	131.69
3640	-5.0043	-6.2254	0.	124.73
3641	4.005	-6.2622	0.	129.93
3642	4.2446	-6.0076	0.	133.06
3643	3.7458	-6.005	0.	131.3
3644	3.9816	-5.7489	0.	132.38
3645	3.2148	-5.0001	0.	128.6
3646	3.4689	-5.2481	0.	132.71
3647	2.9778	-5.2526	0.	125.58
3648	1.7372	-5.0044	0.	127.57
3649	1.9889	-5.2535	0.	126.35
3650	1.241	-5.0038	0.	127.26
3651	1.4921	-5.2533	0.	132.91
3652	0.74417	-5.0034	0.	123.47
3653	0.99453	-5.2528	0.	126.05
3654	5.9011	2.312	0.	122.91
3655	6.141	2.0482	0.	119.66
3656	6.3876	2.2089	0.	114.93
3657	5.6484	2.1207	0.	130.65
3658	5.1648	1.6982	0.	127.88
3659	5.3969	1.9145	0.	131.91
3660	5.4274	1.4382	0.	126.7
3661	7.2453	-7.6296	0.	132.33
3662	7.4843	-7.8454	0.	131.19
3663	7.6197	-5.675	0.	131.88
3664	7.3866	-5.8993	0.	131.35
3665	7.3973	-5.4334	0.	135.65
3666	6.7083	-5.2343	0.	119.43
3667	6.929	-4.9848	0.	124.5
3668	0.18399	7.8921	0.	124.97
3669	0.17482	8.349	0.	126.12
3670	0.42503	8.0905	0.	127.87
3671	2.8781	5.8528	0.	132.8
3672	2.8024	6.418	0.	132.2
3673	2.7862	7.4979	0.	136.57
3674	3.2691	7.5224	0.	131.25
3675	2.9811	7.3168	0.	129.35
3676	-2.9545	7.7611	0.	126.88
3677	-2.875	8.3014	0.	126.5
3678	-2.6872	7.9872	0.	122.31
3679	-2.7486	7.4777	0.	134.42
3680	-2.2943	6.9455	0.	132.15
3681	-2.5212	7.2091	0.	137.9
3682	-2.5268	6.7163	0.	134.88
3683	-2.0612	7.1677	0.	131.95
3684	-0.44144	6.861	0.	120.
3685	-0.63098	6.6514	0.	117.77
3686	-0.71155	7.0931	0.	125.9
3687	-0.25789	7.0716	0.	123.34
3688	-0.1642	6.6362	0.	117.95
3689	0.19135	7.44	0.	122.29
3690	-4.8448e-002	7.253	0.	123.82
3691	0.45411	7.1579	0.	122.96
3692	0.42111	7.6279	0.	126.76
3693	-9.1441e-002	7.7191	0.	122.12
3694	3.8005	-2.7662	0.	134.07
3695	4.0077	-2.5073	0.	134.77
3696	4.0606	-2.9818	0.	135.65
3697	4.5597	-3.3896	0.	125.1
3698	4.31	-3.195	0.	132.86
3699	4.7748	-3.1122	0.	119.03
3700	4.4149	0.28944	0.	124.71
3701	4.6521	3.7905e-003	0.	121.46
3702	4.1462	0.12019	0.	131.87
3703	3.6074	-0.31649	0.	131.91
3704	3.8697	-9.5386e-002	0.	133.81
3705	3.3429	-5.632e-002	0.	131.88
3706	3.8707	-0.57506	0.	132.54
3707	3.3399	-0.55239	0.	131.18
3708	6.2238	4.1674	0.	121.76
3709	5.9952	4.3616	0.	122.22
3710	6.4618	4.4174	0.	125.89
3711	7.2147	8.0946	0.	121.46
3712	7.4652	7.8556	0.	118.87
3713	7.4807	8.3185	0.	121.77
3714	6.7133	8.125	0.	123.9
3715	6.971	8.3391	0.	122.41
3716	6.9209	7.8715	0.	123.5
3717	6.4757	8.3584	0.	124.88
3718	6.3976	7.9539	0.	127.7
3719	6.2169	8.0849	0.	124.99
3720	-3.5356	-6.6211	0.	136.95
3721	-3.3068	-6.3495	0.	135.33
3722	-3.3913	-8.3675	0.	133.44
3723	-3.5135	-8.6083	0.	134.34
3724	-3.571	-8.0841	0.	134.56
3725	-3.8063	-8.3816	0.	134.63
3726	-2.9928	-8.4525	0.	128.79
3727	-3.3178	-8.6271	0.	132.83
3728	-3.1458	-8.1328	0.	132.69
3729	-4.019	-7.1566	0.	130.57
3730	-3.772	-6.8854	0.	134.13
3731	-4.2669	-6.9323	0.	131.48
3732	-4.023	-7.6513	0.	130.89
3733	-3.7624	-7.3748	0.	128.24
3734	-4.2637	-7.4276	0.	131.53
3735	-3.7919	-7.8599	0.	133.1
3736	-4.2705	-7.9274	0.	134.23
3737	-4.0272	-8.1574	0.	133.08
3738	5.0259	-7.36	0.	130.39
3739	4.7315	-7.5792	0.	131.08
3740	4.684	-5.4514	0.	131.26
3741	4.9491	-5.7218	0.	131.07
3742	4.472	-5.7411	0.	134.22
3743	4.209	-5.4824	0.	133.6
3744	4.0129	-6.7705	0.	128.65
3745	4.2719	-7.0369	0.	131.
3746	3.7576	-7.016	0.	131.3
3747	4.004	-7.274	0.	129.95
3748	3.7597	-6.513	0.	130.58
3749	4.2749	-6.5284	0.	126.23
3750	-2.069	-2.2502	0.	129.76
3751	-2.3302	-2.02	0.	131.26
3752	-1.8198	-1.9882	0.	132.98
3753	-1.8337	-2.4758	0.	129.58
3754	-1.5841	-2.2496	0.	129.64
3755	-2.0747	-0.18736	0.	132.97
3756	-1.8395	-0.4354	0.	134.46
3757	-1.6402	-0.13945	0.	134.24
3758	-2.2844	-0.4397	0.	131.93
3759	-2.461	-0.18096	0.	128.66
3760	6.8084	-2.5122	0.	126.67
3761	6.5439	-2.2811	0.	127.37
3762	7.0151	-2.2419	0.	126.41
3763	7.4522	-1.1672	0.	122.82
3764	7.1784	-0.96542	0.	121.61
3765	7.2805	-0.67029	0.	123.92
3766	7.4762	-1.7106	0.	122.59
3767	7.2399	-1.98	0.	124.48
3768	7.1997	-1.4757	0.	119.24
3769	1.2717	2.0006	0.	121.97
3770	1.5226	1.7492	0.	116.28
3771	-0.8433	-0.75813	0.	116.61
3772	-1.0222	-1.0962	0.	119.45
3773	-0.5742	-0.98045	0.	116.74
3774	0.24708	-5.0039	0.	123.33
3775	0.49661	-5.2527	0.	117.67
3776	8.2678	1.9273	0.	131.7
3777	8.0046	1.6502	0.	133.
3778	-2.5499	8.5045	0.	134.73
3779	-2.362	8.1903	0.	130.38
3780	-2.1317	8.6777	0.	137.8
3781	-3.1195	8.555	0.	126.05
3782	-2.6767	8.8054	0.	128.83
3783	-2.908	8.8184	0.	127.56
3784	-3.6816	8.5222	0.	125.05
3785	-3.4397	8.7768	0.	125.52
3786	-4.7221	8.5044	0.	126.82
3787	-4.2079	8.5101	0.	125.71
3788	-4.4712	8.7552	0.	126.16
3789	-5.2311	8.5016	0.	127.03
3790	-4.9798	8.7519	0.	126.73
3791	-5.7372	8.5004	0.	125.52
3792	-5.486	8.7504	0.	126.14
3793	-6.2414	8.4999	0.	122.71
3794	-5.9904	8.7498	0.	124.17
3795	-6.7444	8.4999	0.	120.39
3796	-6.4936	8.7498	0.	121.79
3797	-7.2464	8.4999	0.	120.23
3798	-6.9957	8.2499	0.	118.26
3799	-6.9958	8.7498	0.	120.65
3800	-7.7477	8.4999	0.	122.28
3801	-7.4973	8.25	0.	119.88
3802	-7.4973	8.7499	0.	121.48
3803	-8.2486	8.5	0.	125.01
3804	-7.9983	8.7499	0.	123.65
3805	-7.9983	8.25	0.	124.01
3806	-8.2503	4.0002	0.	125.93
3807	-8.0003	4.2502	0.	124.25
3808	8.5721	6.8185	0.	132.33
3809	8.8348	6.565	0.	130.78
3810	8.5929	6.3578	0.	129.81
3811	8.4347	6.5595	0.	135.59
3812	8.5129	7.2913	0.	130.12
3813	8.7761	7.0419	0.	130.37
3814	8.2557	7.0271	0.	127.54
3815	8.4978	7.7809	0.	128.32
3816	8.7528	7.5292	0.	129.07
3817	8.4976	8.2739	0.	126.71
3818	8.7487	8.0223	0.	127.6
3819	3.9831	-8.2727	0.	132.57
3820	3.7381	-8.0173	0.	132.59
3821	3.9904	-7.7746	0.	132.
3822	7.7316	-8.5368	0.	130.11
3823	8.2404	-8.523	0.	129.96
3824	7.9893	-8.7745	0.	129.65
3825	7.2168	-8.5458	0.	127.74
3826	7.4798	-8.7851	0.	128.84
3827	7.4768	-8.3087	0.	130.98
3828	6.7019	-8.5476	0.	121.7
3829	6.9674	-8.7892	0.	124.78
3830	6.9561	-8.3159	0.	129.67
3831	6.1963	-8.5658	0.	117.32
3832	6.4152	-8.2922	0.	112.66
3833	6.4588	-8.7913	0.	119.09
3834	5.6996	-8.5855	0.	119.49
3835	5.9586	-8.8166	0.	118.19
3836	5.9233	-8.3675	0.	116.
3837	5.2074	-8.5743	0.	124.76
3838	5.4617	-8.8185	0.	122.31
3839	4.7179	-8.5498	0.	129.01
3840	4.9687	-8.8006	0.	126.86
3841	4.2276	-8.5296	0.	131.64
3842	4.4771	-8.7818	0.	130.11
3843	3.9837	-8.7683	0.	131.83
3844	3.7344	-8.516	0.	133.02
3845	0.76501	2.5024	0.	124.69
3846	1.0179	2.2526	0.	123.89
3847	1.018	2.754	0.	124.61
3848	-1.5743e-003	-4.7532	0.	126.01
3849	-0.24838	-4.5056	0.	128.87
3850	-8.4994	-7.7494	0.	130.5
3851	-8.4997	-8.2497	0.	130.95
3852	-8.7496	-7.9996	0.	130.39
3853	-8.4987	-7.2491	0.	130.64
3854	-8.2491	-7.4992	0.	130.79
3855	-8.7492	-7.4993	0.	130.29
3856	-8.4979	-6.7488	0.	131.04
3857	-8.7486	-6.9991	0.	130.66
3858	-8.4966	-6.2484	0.	131.05
3859	-8.7477	-6.4988	0.	131.05
3860	-8.4951	-5.7482	0.	130.3
3861	-8.7465	-5.9985	0.	130.87
3862	-8.4937	-5.2482	0.	129.08
3863	-8.7454	-5.4985	0.	130.15
3864	-8.4928	-4.7484	0.	127.66
3865	-8.7444	-4.9986	0.	129.17
3866	-8.4924	-4.2488	0.	126.06
3867	-8.7439	-4.4989	0.	128.05
3868	-8.4923	-3.7493	0.	124.14
3869	-8.7437	-3.9993	0.	126.75
3870	-8.4929	-3.2497	0.	121.88
3871	-8.7439	-3.4996	0.	125.29
3872	-8.7447	-2.9999	0.	123.88
3873	-8.4948	-2.75	0.	118.98
3874	-8.2499	-8.4998	0.	131.67
3875	-7.9999	-8.7499	0.	132.81
3876	-7.7499	-8.4999	0.	133.45
3877	-8.4999	-8.7498	0.	132.03
3878	-8.7498	-8.4998	0.	131.11
3879	-2.5683	-8.5792	0.	120.41
3880	-2.8531	-8.7566	0.	127.19
3881	-2.7317	-8.2808	0.	123.29
3882	-3.178	-8.9312	0.	131.23
3883	-3.7116	-8.9012	0.	134.95
3884	-3.458	-9.1595	0.	134.53
3885	5.782	-0.2199	0.	124.06
3886	5.6966	0.13919	0.	123.96
3887	5.5858	-0.34311	0.	120.53
3888	-7.281e-002	8.5893	0.	128.1
3889	-0.52556	8.5822	0.	129.83
3890	-0.34845	8.821	0.	129.85
3891	0.39145	8.5616	0.	125.46
3892	0.12539	8.8129	0.	127.17
3893	0.86449	8.5227	0.	121.57
3894	0.60284	8.7857	0.	124.33
3895	0.64166	8.3031	0.	127.19
3896	1.3428	8.4879	0.	117.34
3897	1.084	8.7543	0.	120.27
3898	1.1189	8.2504	0.	116.04
3899	1.8227	8.4877	0.	119.18
3900	1.5665	8.7339	0.	118.33
3901	1.6098	8.191	0.	112.84
3902	2.3052	8.5014	0.	125.78
3903	2.0506	8.7503	0.	122.77
3904	2.5384	8.7501	0.	127.75
3905	2.7909	8.5005	0.	129.93
3906	3.7679	8.4968	0.	129.56
3907	3.5186	8.7486	0.	129.29
3908	3.2781	8.4987	0.	130.54
3909	4.261	8.499	0.	127.92
3910	4.0114	8.7474	0.	128.25
3911	4.7551	8.5085	0.	125.74
3912	4.5065	8.7523	0.	126.66
3913	5.248	8.5236	0.	123.89
3914	5.0014	8.7628	0.	124.78
3915	5.7398	8.5364	0.	123.48
3916	5.4951	8.7766	0.	123.7
3917	5.4894	8.2938	0.	122.01
3918	6.2338	8.5573	0.	123.85
3919	5.9896	8.785	0.	123.83
3920	5.975	8.2838	0.	123.95
3921	6.7334	8.5725	0.	123.4
3922	6.4869	8.8081	0.	123.83
3923	6.9898	8.8065	0.	123.05
3924	7.237	8.563	0.	122.69
3925	8.2469	8.5275	0.	125.1
3926	7.9972	8.7786	0.	124.19
3927	7.7421	8.5448	0.	123.42
3928	8.4995	8.7669	0.	125.46
3929	8.7495	8.5159	0.	126.2
3930	-8.5014	1.2501	0.	120.33
3931	-8.5009	0.75	0.	117.86
3932	-8.7509	1.	0.	122.64
3933	-8.5019	1.7503	0.	122.02
3934	-8.7513	1.5001	0.	123.56
3935	-8.5017	2.2503	0.	123.33
3936	-8.7516	2.0002	0.	124.54
3937	-8.7511	2.5002	0.	125.39
3938	-8.5011	2.7503	0.	124.38
3939	-8.5003	3.7502	0.	127.38
3940	-8.7503	3.5001	0.	127.43
3941	-8.5007	3.2502	0.	125.52
3942	-8.7502	4.0001	0.	129.43
3943	-8.5002	4.2501	0.	130.88
3944	-8.4989	8.25	0.	127.52
3945	-8.7492	8.	0.	128.93
3946	-8.4992	7.75	0.	131.02
3947	-8.2486	8.	0.	126.52
3948	-8.4989	8.75	0.	125.63
3949	-8.7491	8.5	0.	126.75
3950	8.376	-5.4873e-002	0.	134.97
3951	8.1391	0.14909	0.	135.77
3952	7.968	7.0867e-003	0.	134.63
3953	8.764	5.3721	0.	133.28
3954	8.5655	5.4585	0.	137.45
3955	8.5511	5.058	0.	132.
3956	8.3518	5.2385	0.	129.5
3957	8.5235	3.6864	0.	126.76
3958	8.7691	3.9422	0.	128.05
3959	8.5267	4.166	0.	127.06
3960	8.5265	3.1953	0.	127.48
3961	8.7704	3.4515	0.	128.22
3962	8.7726	2.9538	0.	129.18
3963	8.5273	2.6951	0.	129.1
3964	8.4967	1.6711	0.	135.38
3965	8.7566	1.9419	0.	133.22
3966	8.5182	2.1864	0.	131.97
3967	8.5732	-0.28575	0.	133.52
3968	8.5669	0.19083	0.	132.36
3969	8.8152	-3.8389e-002	0.	132.45
3970	8.5377	-0.76344	0.	131.87
3971	8.7981	-0.52176	0.	132.21
3972	8.5051	-1.2464	0.	129.78
3973	8.765	-1.0059	0.	130.76
3974	8.4953	-1.7369	0.	128.43
3975	8.7487	-1.4945	0.	129.34
3976	8.5001	-2.2322	0.	128.21
3977	8.7474	-1.9883	0.	128.75
3978	8.5109	-2.7294	0.	128.67
3979	8.7541	-2.4846	0.	128.95
3980	8.5235	-3.227	0.	129.28
3981	8.7637	-2.9819	0.	129.42
3982	8.5362	-3.7248	0.	129.86
3983	8.7744	-3.4797	0.	129.89
3984	8.5481	-4.2229	0.	130.37
3985	8.7846	-3.9779	0.	130.28
3986	8.5574	-4.7221	0.	130.62
3987	8.7939	-4.477	0.	130.51
3988	8.5604	-5.223	0.	130.24
3989	8.7994	-4.9776	0.	130.35
3990	8.5531	-5.7265	0.	129.09
3991	8.7979	-5.4799	0.	129.53
3992	8.5317	-6.2343	0.	127.78
3993	8.7865	-5.9849	0.	128.26
3994	8.4992	-6.7457	0.	127.25
3995	8.7636	-6.4929	0.	127.32
3996	8.4833	-7.2574	0.	127.82
3997	8.7379	-7.0017	0.	127.37
3998	8.4877	-7.7654	0.	128.88
3999	8.7381	-7.5091	0.	128.2
4000	8.4918	-8.267	0.	129.59
4001	8.7419	-8.0128	0.	129.12
4002	8.4944	-8.7637	0.	129.65
4003	8.7446	-8.5118	0.	129.56
4004	6.9634	-1.7451	0.	121.15
4005	6.7506	-2.0107	0.	127.11
4006	6.926	-1.2739	0.	117.93
4007	6.8378	-0.85384	0.	115.15
4008	6.6861	-1.0951	0.	123.24
4009	-1.8199	-0.95558	0.	128.47
4010	-1.5829	-0.66548	0.	130.56
4011	-2.0492	-0.68774	0.	133.38
4012	-1.8196	-1.4781	0.	128.8
4013	-2.081	-1.7581	0.	134.05
4014	-1.5657	-1.7475	0.	129.86
4015	-1.5349	-1.2099	0.	122.62
4016	4.737	-6.0115	0.	133.9
4017	4.5145	-6.2738	0.	129.25
4018	4.8068	-7.0826	0.	131.87
4019	4.5124	-7.3017	0.	132.92
4020	4.5339	-6.7948	0.	128.45
4021	8.5094	0.66812	0.	130.36
4022	8.7863	0.44552	0.	129.74
4023	8.33	0.3948	0.	133.18
4024	8.4773	1.1594	0.	133.62
4025	8.7332	0.93013	0.	130.05
4026	8.7378	1.4311	0.	134.48
4027	8.2334	1.3939	0.	136.5
4028	-3.5313	-7.5834	0.	130.4
4029	-3.3255	-7.8494	0.	133.78
4030	-3.5154	-7.1037	0.	131.66
4031	-3.2725	-6.8154	0.	137.34
4032	-2.3861	-8.8583	0.	119.38
4033	-2.2992	-8.4318	0.	114.1
4034	-2.1178	-8.6832	0.	115.66
4035	6.6053	7.7004	0.	127.22
4036	6.2282	7.5839	0.	130.07
4037	6.145	7.8959	0.	126.91
4038	0.23002	-9.1435	0.	126.49
4039	-1.1133e-002	-8.945	0.	127.82
4040	-0.21716	-9.0611	0.	124.47
4041	2.8481e-003	-9.349	0.	125.37
4042	0.418	-8.9547	0.	125.57
4043	0.46807	-9.3479	0.	126.81
4044	0.66804	-9.059	0.	126.14
4045	2.227	-8.9983	0.	123.73
4046	1.9752	-8.7475	0.	126.19
4047	1.9762	-9.247	0.	125.98
4048	1.7078	-8.9937	0.	127.68
4049	2.4851	-8.7501	0.	117.48
4050	2.4856	-9.2496	0.	123.21
4051	2.7352	-9.0014	0.	123.18
4052	4.2332	-9.0205	0.	130.29
4053	3.9887	-9.2615	0.	130.34
4054	3.7366	-9.0116	0.	130.47
4055	4.7278	-9.0326	0.	127.95
4056	4.4852	-9.2695	0.	129.
4057	5.2231	-9.0449	0.	124.41
4058	4.9813	-9.2796	0.	126.14
4059	5.7208	-9.0497	0.	120.99
4060	5.4788	-9.287	0.	122.65
4061	5.9785	-9.2861	0.	120.29
4062	6.2211	-9.0421	0.	119.89
4063	7.2304	-9.0285	0.	125.85
4064	6.9831	-9.2728	0.	123.94
4065	6.7242	-9.0329	0.	122.18
4066	7.4883	-9.2695	0.	127.02
4067	7.7375	-9.0227	0.	128.37
4068	8.7467	-9.0084	0.	129.54
4069	8.4968	-9.2584	0.	129.35
4070	8.2432	-9.0151	0.	129.34
4071	6.4966	4.883	0.	130.36
4072	6.2333	4.6116	0.	126.2
4073	4.3834	-0.16546	0.	128.48
4074	4.133	-0.35396	0.	134.33
4075	4.5252	-2.9176	0.	126.75
4076	4.2678	-2.723	0.	136.19
4077	-0.33124	7.532	0.	123.62
4078	-0.528	7.3036	0.	128.66
4079	-2.2881	7.4313	0.	137.46
4080	-2.4812	7.7038	0.	129.63
4081	-8.7492	9.	0.	125.39
4082	-8.4992	9.2499	0.	124.54
4083	-8.2487	8.9999	0.	124.27
4084	-5.7392	8.9999	0.	124.8
4085	-5.9931	9.2497	0.	123.99
4086	-6.2426	8.9997	0.	123.25
4087	-5.2347	9.0006	0.	125.83
4088	-5.4901	9.2499	0.	125.23
4089	-4.9863	9.2508	0.	125.92
4090	-4.729	9.0027	0.	126.06
4091	0.33677	9.037	0.	126.05
4092	6.5065e-002	9.2826	0.	126.9
4093	-0.15025	9.0446	0.	128.93
4094	0.82232	9.0173	0.	123.03
4095	0.55831	9.271	0.	124.65
4096	1.3076	9.0004	0.	121.17
4097	1.048	9.2558	0.	122.63
4098	1.7943	8.9966	0.	121.89
4099	1.5373	9.247	0.	122.02
4100	2.2837	8.9991	0.	124.77
4101	2.0284	9.2494	0.	123.62
4102	2.7748	8.998	0.	127.37
4103	2.5215	9.2495	0.	126.04
4104	3.2678	8.9982	0.	128.31
4105	3.0152	9.2478	0.	127.47
4106	3.0273	8.7483	0.	129.58
4107	3.762	8.9992	0.	127.97
4108	3.5109	9.2496	0.	127.67
4109	4.2568	9.0006	0.	126.98
4110	4.0065	9.2493	0.	127.16
4111	4.7528	9.0066	0.	125.7
4112	4.5033	9.2522	0.	126.21
4113	5.2486	9.0158	0.	124.59
4114	5.0005	9.258	0.	125.12
4115	5.7449	9.0252	0.	124.04
4116	5.4974	9.2656	0.	124.32
4117	6.2428	9.0358	0.	123.81
4118	5.9954	9.2721	0.	123.94
4119	6.7433	9.042	0.	123.49
4120	6.4945	9.2809	0.	123.64
4121	7.2459	9.0375	0.	123.32
4122	6.9965	9.2806	0.	123.34
4123	7.7482	9.0279	0.	123.72
4124	7.4984	9.2746	0.	123.41
4125	7.4931	8.7941	0.	122.96
4126	8.2498	9.018	0.	124.56
4127	7.9998	9.2668	0.	123.99
4128	8.7506	9.0102	0.	125.27
4129	8.5006	9.2601	0.	124.7
4130	9.0006	8.7592	0.	126.01
4131	9.2507	9.005	0.	125.63
4132	9.0008	9.2553	0.	125.17
4133	9.2505	8.5082	0.	126.42
4134	9.0005	8.2643	0.	127.09
4135	9.016	7.2799	0.	129.35
4136	9.256	7.5183	0.	128.
4137	9.0037	7.7707	0.	128.36
4138	9.0388	6.7884	0.	128.81
4139	9.2693	7.0257	0.	128.07
4140	9.0437	6.2867	0.	127.44
4141	9.2862	6.5277	0.	126.73
4142	9.005	5.7576	0.	129.75
4143	8.8018	6.0795	0.	126.51
4144	9.2733	6.0189	0.	126.38
4145	8.9967	5.214	0.	132.2
4146	8.7763	5.5693	0.	136.77
4147	9.2352	5.4882	0.	130.37
4148	9.0191	4.6956	0.	131.05
4149	9.2614	4.9642	0.	131.1
4150	8.7838	4.8999	0.	130.85
4151	9.018	4.2002	0.	129.84
4152	9.2643	4.4619	0.	130.65
4153	8.7756	4.424	0.	128.85
4154	9.016	3.7072	0.	129.51
4155	9.2622	3.9665	0.	130.48
4156	9.0165	3.21	0.	129.92
4157	9.2619	3.4698	0.	130.7
4158	9.0145	2.7091	0.	130.89
4159	9.2623	2.9695	0.	131.19
4160	9.0076	2.2059	0.	132.07
4161	9.2586	2.4684	0.	131.79
4162	8.7692	2.4503	0.	130.8
4163	8.9977	1.702	0.	132.28
4164	9.2522	1.9656	0.	132.11
4165	8.9937	1.2018	0.	130.88
4166	9.2449	1.464	0.	131.1
4167	9.0101	0.70753	0.	129.29
4168	9.2479	0.96657	0.	129.13
4169	9.0346	0.2163	0.	129.81
4170	9.2684	0.47239	0.	128.38
4171	9.04	-0.27439	0.	131.14
4172	9.2818	-2.156e-002	0.	129.73
4173	9.0253	-0.76418	0.	131.1
4174	9.2763	-0.515	0.	130.48
4175	9.0086	-1.254	0.	130.32
4176	9.2617	-1.0074	0.	130.38
4177	9.0008	-1.7459	0.	129.66
4178	9.2527	-1.5002	0.	130.03
4179	9.0013	-2.2407	0.	129.49
4180	9.25	-1.9952	0.	129.89
4181	9.0069	-2.7371	0.	129.69
4182	9.2527	-2.4917	0.	130.05
4183	9.0145	-3.2346	0.	130.03
4184	9.2578	-2.9893	0.	130.34
4185	9.0228	-3.7328	0.	130.32
4186	9.2639	-3.4876	0.	130.59
4187	9.0304	-4.232	0.	130.43
4188	9.27	-3.9865	0.	130.67
4189	9.0358	-4.7324	0.	130.25
4190	9.2752	-4.4865	0.	130.48
4191	9.0368	-5.2345	0.	129.64
4192	9.2778	-4.9876	0.	129.92
4193	9.0313	-5.7383	0.	128.7
4194	9.2763	-5.49	0.	129.01
4195	9.0185	-6.2435	0.	127.8
4196	9.2694	-5.9936	0.	127.98
4197	9.0023	-6.7489	0.	127.43
4198	9.2577	-6.4977	0.	127.3
4199	8.9927	-7.2533	0.	127.74
4200	9.2463	-7.0012	0.	127.28
4201	8.9923	-7.7565	0.	128.44
4202	9.2437	-7.5038	0.	127.82
4203	8.9947	-8.2575	0.	129.09
4204	9.2452	-8.0052	0.	128.59
4205	8.9969	-8.7565	0.	129.45
4206	9.247	-8.5051	0.	129.23
4207	9.2484	-9.0039	0.	129.61
4208	8.9985	-9.2543	0.	129.56
4209	-9.001	1.7501	0.	126.07
4210	-9.2506	1.5	0.	128.47
4211	-9.0007	1.25	0.	125.87
4212	-9.001	2.2501	0.	126.6
4213	-9.2509	2.0001	0.	128.34
4214	-9.0006	2.7501	0.	127.26
4215	-9.2506	2.5001	0.	128.49
4216	-9.0003	3.2501	0.	128.15
4217	-9.2503	3.0001	0.	128.86
4218	-8.7507	3.0002	0.	126.24
4219	-9.0002	3.7501	0.	129.48
4220	-9.2502	3.5001	0.	129.49
4221	-9.0001	4.2501	0.	130.87
4222	-9.2501	4.	0.	130.32
4223	-9.	4.75	0.	131.29
4224	-8.7501	4.5001	0.	132.3
4225	-9.25	4.5	0.	130.7
4226	-9.	5.25	0.	130.69
4227	-8.75	5.	0.	132.11
4228	-9.25	5.	0.	129.98
4229	-9.	5.75	0.	130.37
4230	-8.75	5.5	0.	132.64
4231	-9.25	5.5	0.	129.
4232	-9.	6.25	0.	130.2
4233	-8.75	6.	0.	133.68
4234	-9.25	6.	0.	128.79
4235	-8.9999	6.75	0.	130.18
4236	-8.7499	6.5	0.	132.55
4237	-9.2499	6.5	0.	128.51
4238	-8.9997	7.2501	0.	130.49
4239	-9.2498	7.	0.	129.01
4240	-8.7498	7.	0.	131.68
4241	-8.9995	7.75	0.	129.83
4242	-8.7494	7.5001	0.	131.89
4243	-9.2497	7.5	0.	129.31
4244	-8.9994	8.25	0.	128.18
4245	-9.2496	8.	0.	128.49
4246	-8.9994	8.75	0.	126.51
4247	-9.2495	8.5	0.	127.14
4248	-9.2496	9.	0.	125.94
4249	-8.9995	9.25	0.	125.27
4250	0.66215	7.8263	0.	129.27
4251	0.89603	8.0307	0.	121.6
4252	8.5731	5.8912	0.	133.25
4253	8.3949	5.6266	0.	136.05
4254	6.7441	7.4567	0.	130.33
4255	7.1714	7.6326	0.	120.67
4256	6.4106	5.3371	0.	137.03
4257	6.805	5.1033	0.	123.13
4258	6.9427	-5.4459	0.	128.24
4259	7.1642	-5.6577	0.	134.88
4260	7.1634	-5.1964	0.	133.48
4261	6.6693	-8.0605	0.	120.59
4262	6.9771	-7.8631	0.	133.76
4263	7.2161	-8.0788	0.	132.78
4264	5.8883	1.8569	0.	127.16
4265	5.6596	1.6545	0.	130.51
4266	0.17685	-8.7563	0.	126.87
4267	0.40832	-8.5764	0.	116.97
4268	0.63422	-8.8707	0.	125.06
4269	1.7437	-5.5025	0.	131.61
4270	1.2456	-5.5023	0.	131.62
4271	1.4968	-5.7518	0.	135.93
4272	1.7225	-8.4954	0.	130.92
4273	1.4792	-8.2446	0.	134.5
4274	1.2084	-8.4804	0.	129.54
4275	1.4551	-8.7416	0.	132.51
4276	3.4894	-8.2606	0.	133.03
4277	3.2383	-8.5069	0.	128.89
4278	3.4873	-8.7593	0.	131.7
4279	3.4874	-5.7516	0.	132.8
4280	3.232	-5.5006	0.	129.68
4281	3.7232	-5.4955	0.	133.95
4282	-1.6943	-9.1282	0.	122.32
4283	-1.2029	-9.0941	0.	115.76
4284	-1.4612	-9.3419	0.	117.58
4285	-2.1825	-9.1023	0.	125.48
4286	-1.9143	-8.9272	0.	121.86
4287	-1.9566	-9.3419	0.	125.76
4288	-2.6708	-9.0357	0.	126.12
4289	-2.4493	-9.3049	0.	125.48
4290	-2.9448	-9.2431	0.	129.97
4291	-4.2388	-8.9524	0.	135.96
4292	-3.9833	-9.1993	0.	137.06
4293	-4.0044	-8.6744	0.	135.21
4294	-4.7617	-6.4666	0.	129.16
4295	-4.5149	-6.7035	0.	132.41
4296	-7.2462	-6.4975	0.	129.17
4297	-7.4974	-6.7482	0.	132.92
4298	-5.4759	-2.2424	0.	136.26
4299	-5.2105	-2.4839	0.	132.57
4300	-5.4545	-2.7349	0.	135.05
4301	-3.7429	0.55798	0.	120.3
4302	-3.4619	0.33534	0.	113.84
4303	-5.2553	0.51057	0.	132.55
4304	-5.5031	0.25819	0.	135.64
4305	2.5503	-1.2818	0.	130.4
4306	2.297	-1.5245	0.	126.59
4307	2.2984	1.4857	0.	129.45
4308	2.557	1.2285	0.	132.95
4309	0.5713	-1.2372	0.	127.33
4310	0.81815	-1.4919	0.	122.45
4311	0.58598	-1.7365	0.	124.76
4312	0.35839	-1.478	0.	125.05
4313	-1.5379	6.2037	0.	126.34
4314	-1.3145	6.438	0.	124.77
4315	-1.2492	3.5044	0.	128.92
4316	-1.4998	3.7544	0.	133.38
4317	1.2651	3.5119	0.	128.97
4318	1.5126	3.7679	0.	131.8
4319	-8.25	-8.9999	0.	133.19
4320	-7.75	-8.9999	0.	133.79
4321	-8.	-9.2499	0.	134.49
4322	-8.7499	-8.9999	0.	132.31
4323	-8.5	-9.2499	0.	133.44
4324	-8.9999	-8.7498	0.	131.38
4325	-9.	-9.2499	0.	132.37
4326	-9.2499	-8.9999	0.	131.52
4327	-8.9997	-8.2497	0.	130.55
4328	-9.2499	-8.4998	0.	130.61
4329	-9.2497	-7.9997	0.	130.03
4330	-8.9995	-7.7495	0.	130.18
4331	-8.9985	-6.7491	0.	130.66
4332	-9.2491	-6.9994	0.	130.28
4333	-8.9991	-7.2493	0.	130.3
4334	-8.9976	-6.2489	0.	130.88
4335	-9.2485	-6.4992	0.	130.73
4336	-8.9967	-5.7488	0.	130.72
4337	-9.2478	-5.9991	0.	130.99
4338	-8.9961	-5.2489	0.	130.25
4339	-9.2473	-5.4991	0.	130.97
4340	-8.9955	-4.7491	0.	129.56
4341	-9.2468	-4.9992	0.	130.77
4342	-8.9953	-4.2493	0.	128.75
4343	-9.2465	-4.4994	0.	130.49
4344	-8.9954	-3.7496	0.	127.9
4345	-9.2465	-3.9996	0.	130.22
4346	-8.9957	-3.2499	0.	127.3
4347	-9.2466	-3.4998	0.	130.11
4348	-8.9969	-2.7501	0.	127.8
4349	-9.2471	-3.	0.	130.6
4350	-6.5022	0.25472	0.	135.4
4351	-6.7534	0.50376	0.	131.87
4352	-8.2492	7.5001	0.	129.74
4353	-8.4996	7.2501	0.	133.05
4354	-8.2501	4.5001	0.	129.14
4355	-8.5001	4.7501	0.	133.08
4356	-5.5015	4.7534	0.	133.97
4357	-5.7519	4.5031	0.	130.95
4358	-5.4924	7.252	0.	133.85
4359	-5.7418	7.5013	0.	130.52
4360	-0.25026	-5.0055	0.	128.2
4361	-1.6615e-003	-5.254	0.	124.53
4362	-0.74187	-4.519	0.	127.51
4363	-0.49707	-4.7579	0.	130.99
4364	-2.2217	-4.5419	0.	124.59
4365	-2.4797	-4.779	0.	127.18
4366	-1.5038	2.2666	0.	132.85
4367	-1.2506	2.5097	0.	127.19
4368	-1.7535	2.5235	0.	132.95
4369	-1.119	-0.58171	0.	121.76
4370	-1.3837	-0.36953	0.	130.33
4371	-1.298	-0.91983	0.	124.58
4372	0.50991	2.2515	0.	126.15
4373	0.25848	2.5012	0.	120.9
4374	0.76275	2.0017	0.	125.36
4375	1.0137	1.7516	0.	123.2
4376	-4.2472	6.5031	0.	129.57
4377	-4.4976	6.2529	0.	132.94
4378	-4.2528	4.5063	0.	130.44
4379	-4.502	4.7552	0.	133.82
4380	-2.5018	4.749	0.	131.93
4381	-2.7515	4.5035	0.	128.93
4382	-2.2512	4.5007	0.	132.17
4383	-2.5185	6.226	0.	132.99
4384	-2.7676	6.4808	0.	131.09
4385	4.4975	7.2521	0.	130.64
4386	4.7742	7.5077	0.	126.51
4387	4.7506	4.5175	0.	129.56
4388	4.4907	4.7674	0.	133.4
4389	-2.7832	-6.6799	0.	130.55
4390	-3.0436	-6.5438	0.	135.98
4391	-2.3005	-6.5204	0.	115.83
4392	-1.8023	-6.4258	0.	111.51
4393	-2.5606	-6.3232	0.	123.91
4394	5.7459	4.5631	0.	118.25
4395	5.2505	4.5313	0.	118.67
4396	5.0134	4.2741	0.	124.61
4397	4.4761	5.2693	0.	133.2
4398	4.4657	5.7675	0.	133.88
4399	4.4615	6.2629	0.	132.98
4400	4.4728	6.7568	0.	130.98
4401	5.3225	7.5383	0.	117.9
4402	5.8694	7.4824	0.	122.45
4403	6.367	7.3402	0.	133.09
4404	5.7862	7.7944	0.	119.3
4405	5.5465	7.8086	0.	117.56
4406	-2.5092	5.7354	0.	131.29
4407	-2.504	5.2427	0.	131.21
4408	-3.2519	4.5057	0.	119.94
4409	-3.7524	4.5062	0.	120.53
4410	-4.0042	4.2595	0.	126.09
4411	-4.5005	5.2531	0.	132.98
4412	-4.4994	5.7524	0.	132.75
4413	-3.7502	6.5013	0.	120.78
4414	-3.9943	6.7546	0.	125.53
4415	-3.2566	6.4953	0.	121.56
4416	0.5068	1.7513	0.	130.77
4417	0.50315	1.2513	0.	135.07
4418	0.75778	1.5013	0.	128.51
4419	-0.18232	-0.48798	0.	116.24
4420	0.29211	-0.48854	0.	128.54
4421	7.8954e-002	-0.73179	0.	122.95
4422	-0.65564	-0.50763	0.	112.62
4423	-0.38654	-0.72996	0.	112.93
4424	-1.449	0.16146	0.	134.39
4425	-1.525	0.69628	0.	135.37
4426	-1.5453	1.2402	0.	134.56
4427	-1.5122	1.7652	0.	133.15
4428	-0.74855	2.5028	0.	114.54
4429	-0.24591	2.501	0.	112.57
4430	-1.7296	-4.5418	0.	116.05
4431	-1.2359	-4.5345	0.	117.85
4432	-0.50013	-5.2565	0.	133.14
4433	-0.25153	-5.505	0.	129.45
4434	-0.50358	-5.7613	0.	135.37
4435	-1.2952	-6.4389	0.	119.47
4436	-2.5461	-5.7863	0.	124.69
4437	-2.821	-6.1871	0.	129.34
4438	-2.5039	-5.2662	0.	125.22
4439	-2.7402	-5.006	0.	126.18
4440	-5.4964	6.7519	0.	134.95
4441	-5.4985	6.2518	0.	136.67
4442	-5.4996	5.7519	0.	136.28
4443	-5.5004	5.2524	0.	134.26
4444	-6.2513	4.5016	0.	121.09
4445	-7.2504	4.5003	0.	114.54
4446	-6.7508	4.5007	0.	114.83
4447	-7.0009	4.2507	0.	115.25
4448	-7.7502	4.5002	0.	119.87
4449	-8.5	5.25	0.	134.03
4450	-8.5	5.75	0.	135.95
4451	-8.5	6.25	0.	136.05
4452	-8.4999	6.75	0.	134.03
4453	-7.7487	7.5001	0.	120.85
4454	-7.9986	7.75	0.	125.29
4455	-7.248	7.5001	0.	115.42
4456	-7.4979	7.7501	0.	117.2
4457	-6.2449	7.5004	0.	121.42
4458	-6.7468	7.5002	0.	115.54
4459	-6.9967	7.7501	0.	116.15
4460	-6.4999	-0.2468	0.	135.81
4461	-6.4987	-0.74811	0.	137.54
4462	-6.497	-1.2489	0.	137.81
4463	-6.4931	-1.7488	0.	136.21
4464	-6.485	-2.2476	0.	136.08
4465	-7.2384	-2.4993	0.	123.72
4466	-6.7328	-2.4977	0.	133.58
4467	-7.7425	-2.4999	0.	117.14
4468	-8.2451	-2.5001	0.	117.13
4469	-8.747	-2.5001	0.	122.85
4470	-9.2483	-2.5001	0.	133.13
4471	-8.2509	0.50004	0.	116.1
4472	-8.7504	0.49998	0.	122.01
4473	-7.7516	0.50036	0.	116.01
4474	-7.2525	0.50133	0.	121.95
4475	0.75932	3.5039	0.	119.47
4476	1.0146	3.2556	0.	124.95
4477	0.25532	3.501	0.	113.13
4478	-0.24688	3.5006	0.	112.2
4479	-0.74824	3.5016	0.	117.92
4480	-1.5001	4.2507	0.	133.43
4481	-1.501	4.7466	0.	134.25
4482	-1.7507	4.4992	0.	132.85
4483	-1.5034	5.2404	0.	133.03
4484	-1.5121	5.7277	0.	129.24
4485	1.4982	4.2609	0.	131.16
4486	1.4766	4.7384	0.	131.69
4487	1.7521	5.2343	0.	125.69
4488	1.691	4.9983	0.	129.11
4489	1.5249	5.2092	0.	128.57
4490	1.527	5.6904	0.	115.42
4491	0.54203	-0.73903	0.	130.97
4492	0.32888	-0.98228	0.	125.29
4493	0.51744	-0.24273	0.	134.74
4494	0.50368	0.25339	0.	136.56
4495	0.5011	0.75157	0.	136.79
4496	1.2646	1.5002	0.	117.37
4497	1.7767	1.4961	0.	118.37
4498	2.5423	0.23035	0.	134.59
4499	2.5485	0.72955	0.	133.06
4500	2.5391	-0.27125	0.	134.05
4501	2.8083	-3.0989e-002	0.	133.45
4502	2.5411	-0.77496	0.	131.64
4503	2.8062	-0.53248	0.	131.74
4504	1.785	-1.5077	0.	116.27
4505	1.2912	-1.4997	0.	113.91
4506	-4.7543	0.51496	0.	122.32
4507	-5.0086	0.76483	0.	127.78
4508	-4.2506	0.52616	0.	118.4
4509	-4.0039	0.78828	0.	120.29
4510	-5.4915	-1.7461	0.	135.31
4511	-5.4971	-1.2471	0.	136.05
4512	-5.499	-0.74662	0.	136.43
4513	-5.5002	-0.24472	0.	135.42
4514	-6.7464	-6.4969	0.	119.39
4515	-6.2471	-6.4952	0.	113.41
4516	-5.7487	-6.4921	0.	113.45
4517	-5.2531	-6.485	0.	119.41
4518	-4.5116	-7.2033	0.	132.43
4519	-4.5113	-7.7037	0.	134.86
4520	-4.51	-8.2078	0.	136.72
4521	-4.5011	-8.7158	0.	136.26
4522	-4.4928	-9.2268	0.	136.98
4523	-4.2666	-8.4378	0.	135.58
4524	-7.5	-8.7499	0.	134.4
4525	-7.5	-9.25	0.	134.52
4526	-7.4999	-8.2498	0.	135.73
4527	-7.4997	-7.7496	0.	135.72
4528	-7.499	-7.2491	0.	133.75
4529	-7.7493	-7.4993	0.	133.02
4530	3.5004	-6.2558	0.	131.92
4531	3.5044	-6.7584	0.	133.2
4532	3.5008	-7.2596	0.	133.89
4533	3.4948	-7.7604	0.	133.1
4534	3.7471	-7.5177	0.	132.55
4535	2.7384	-8.5018	0.	118.67
4536	2.9885	-8.7531	0.	124.5
4537	2.2334	-8.4993	0.	119.85
4538	2.241	-5.5025	0.	120.26
4539	2.7372	-5.5022	0.	119.46
4540	0.24787	-5.5029	0.	118.72
4541	0.74698	-5.5021	0.	120.18
4542	1.4993	-6.2507	0.	137.96
4543	1.4999	-6.75	0.	142.06
4544	1.4995	-7.2494	0.	141.61
4545	1.496	-7.7479	0.	136.68
4546	-0.2365	-8.8622	0.	125.94
4547	-0.6997	-9.0189	0.	118.53
4548	-0.46384	-9.2458	0.	120.76
4549	-0.96586	-9.2945	0.	113.79
4550	6.3659	1.7655	0.	114.25
4551	6.8302	1.6433	0.	110.81
4552	6.6125	1.9262	0.	109.75
4553	7.2886	1.5233	0.	115.77
4554	7.7504	1.4213	0.	127.55
4555	6.0195	-0.17234	0.	125.98
4556	5.991	-0.56834	0.	128.29
4557	6.1057	-0.35722	0.	134.19
4558	5.9341	0.18675	0.	126.04
4559	6.169	-0.19664	0.	132.35
4560	5.7579	0.65817	0.	128.22
4561	5.7021	1.1754	0.	127.92
4562	7.9413	0.2184	0.	134.42
4563	7.5902	-3.747e-002	0.	126.48
4564	7.265	-0.30441	0.	121.62
4565	6.9399	-0.55871	0.	117.56
4566	6.5763	-0.69681	0.	119.3
4567	6.1444	-7.8784	0.	111.71
4568	6.1422	-8.0939	0.	111.14
4569	5.72	-7.5508	0.	114.34
4570	5.902	-7.9353	0.	115.69
4571	5.3085	-7.2479	0.	121.83
4572	5.199	-5.9394	0.	126.33
4573	6.4966	-5.52	0.	113.96
4574	5.6326	-5.7904	0.	116.11
4575	6.0621	-5.647	0.	111.22
4576	7.1404	-6.1093	0.	132.85
4577	7.0163	-7.4244	0.	131.73
4578	7.0512	-6.9895	0.	132.31
4579	7.0955	-6.5527	0.	134.47
4580	6.3294	5.776	0.	146.26
4581	6.3879	6.2291	0.	144.79
4582	6.5481	7.0821	0.	133.29
4583	6.4559	6.6705	0.	135.65
4584	7.4628	7.4398	0.	118.3
4585	7.7262	7.1282	0.	121.88
4586	8.4101	6.3284	0.	131.78
4587	8.1183	6.768	0.	130.94
4588	8.0315	5.571	0.	122.79
4589	8.1812	5.4066	0.	128.53
4590	7.6679	5.4698	0.	114.3
4591	7.8076	5.3817	0.	115.63
4592	7.2878	5.2379	0.	114.59
4593	7.6245	5.3071	0.	116.42
4594	-0.83137	6.4347	0.	119.23
4595	-0.35374	6.4265	0.	115.47
4596	0.11065	6.414	0.	117.01
4597	0.54903	6.4647	0.	119.97
4598	0.73036	6.8122	0.	124.27
4599	0.68387	7.3458	0.	127.36
4600	2.0659	6.2556	0.	135.64
4601	2.4882	6.5434	0.	137.24
4602	1.6685	6.0279	0.	115.22
4603	2.2956	7.5364	0.	134.4
4604	2.7338	7.2778	0.	133.09
4605	1.8447	7.7611	0.	120.07
4606	1.3859	7.9535	0.	110.94
4607	0.69182	-8.4273	0.	116.27
4608	0.91772	-8.7216	0.	124.7
4609	-2.8846	-7.9611	0.	127.11
4610	-2.4625	-8.1334	0.	116.89
4611	-2.0351	-8.2948	0.	110.16
4612	-0.51817	-6.285	0.	134.06
4613	-0.55469	-6.8477	0.	129.08
4614	-0.78622	-6.5161	0.	129.98
4615	-0.43777	-7.381	0.	129.54
4616	-0.85942	-7.0448	0.	116.79
4617	-1.0909	-6.7132	0.	117.98
4618	-1.8537	-8.5462	0.	112.51
4619	-2.6102	-1.8417	0.	124.74
4620	-3.1578	-1.9914	0.	111.19
4621	-4.7003	-2.4623	0.	122.41
4622	-4.1882	-2.3978	0.	121.27
4623	-3.6856	-2.2132	0.	116.45
4624	-2.4819	-0.59221	0.	126.07
4625	-2.8659	-0.3668	0.	117.74
4626	-2.6585	-0.33347	0.	122.8
4627	-3.2419	-7.1353e-002	0.	112.21
4628	4.8748	-0.29364	0.	118.11
4629	5.3385	-0.47801	0.	117.88
4630	5.7948	-0.69155	0.	124.69
4631	6.2412	-0.97314	0.	128.69
4632	6.4246	-0.9381	0.	128.49
4633	6.2091	-0.76873	0.	129.33
4634	6.2962	-2.0996	0.	123.99
4635	5.4564	-2.6133	0.	115.93
4636	5.6936	-2.7986	0.	117.19
4637	5.8889	-2.3411	0.	117.92
4638	4.9877	-2.7956	0.	115.82
4639	4.2203	-2.2537	0.	134.91
4640	4.1814	-1.7789	0.	135.35
4641	4.1425	-0.82387	0.	133.65
4642	4.1579	-1.3	0.	135.32
4643	-0.68842	8.3682	0.	134.42
4644	-0.81211	8.7758	0.	132.21
4645	-0.49327	7.9715	0.	129.15
4646	-0.97184	7.3266	0.	119.01
4647	-1.4088	7.3531	0.	108.46
4648	-1.8443	7.3872	0.	122.61
4649	-1.9994	9.2105	0.	129.78
4650	-1.7383	9.0459	0.	123.39
4651	-2.2585	8.9786	0.	132.1
4652	9.5007	8.7541	0.	126.05
4653	9.5005	9.2523	0.	125.44
4654	9.5012	8.2565	0.	126.61
4655	9.5035	7.7602	0.	126.92
4656	9.2512	8.0126	0.	127.28
4657	9.5093	7.2641	0.	126.72
4658	9.5167	6.765	0.	125.97
4659	9.5158	6.2599	0.	125.61
4660	9.5034	5.7495	0.	126.97
4661	9.4999	5.2384	0.	129.25
4662	9.5065	4.7305	0.	130.69
4663	9.5085	4.2282	0.	131.29
4664	9.5081	3.729	0.	131.67
4665	9.5077	3.2293	0.	131.97
4666	9.5064	2.7288	0.	132.09
4667	9.5031	2.228	0.	131.82
4668	9.4993	1.7277	0.	130.91
4669	9.4991	1.2288	0.	129.35
4670	9.5062	0.73143	0.	128.2
4671	9.5156	0.23453	0.	128.29
4672	9.5181	-0.26217	0.	129.06
4673	9.5127	-0.75825	0.	129.75
4674	9.5058	-1.2537	0.	130.09
4675	9.5018	-1.7494	0.	130.25
4676	9.5014	-2.2462	0.	130.45
4677	9.5036	-2.7439	0.	130.69
4678	9.5072	-3.2422	0.	130.89
4679	9.5111	-3.7413	0.	130.94
4680	9.5147	-4.241	0.	130.71
4681	9.5171	-4.7416	0.	130.15
4682	9.5173	-5.2431	0.	129.29
4683	9.5145	-5.7453	0.	128.29
4684	9.5086	-6.2479	0.	127.48
4685	9.5017	-6.75	0.	127.14
4686	9.4972	-7.2516	0.	127.36
4687	9.4965	-7.7525	0.	127.98
4688	9.4975	-8.2528	0.	128.73
4689	9.4986	-8.7525	0.	129.38
4690	9.4994	-9.2517	0.	129.83
4691	9.2495	-9.5021	0.	129.78
4692	8.7486	-9.5043	0.	129.37
4693	8.2469	-9.5073	0.	128.72
4694	7.7442	-9.5108	0.	127.36
4695	7.9933	-9.264	0.	128.71
4696	7.2411	-9.5139	0.	125.11
4697	6.7387	-9.5161	0.	122.59
4698	6.2372	-9.5201	0.	121.21
4699	6.4798	-9.2761	0.	120.82
4700	5.7365	-9.5235	0.	121.95
4701	5.2371	-9.5217	0.	124.4
4702	4.7387	-9.5165	0.	127.2
4703	4.2408	-9.5106	0.	129.04
4704	3.7418	-9.5062	0.	129.04
4705	3.2417	-9.5029	0.	127.25
4706	3.4897	-9.2562	0.	129.18
4707	2.7399	-9.5004	0.	125.36
4708	2.9895	-9.2522	0.	125.35
4709	2.2349	-9.4983	0.	125.45
4710	1.7268	-9.4957	0.	127.06
4711	1.2212	-9.4987	0.	128.02
4712	1.4583	-9.2425	0.	128.77
4713	0.72736	-9.528	0.	127.55
4714	0.92733	-9.2392	0.	126.88
4715	0.2409	-9.5535	0.	125.7
4716	-0.24384	-9.5337	0.	121.62
4717	-0.73	-9.5214	0.	116.07
4718	-1.2241	-9.5424	0.	115.49
4719	-1.7235	-9.5557	0.	120.9
4720	-2.2234	-9.5445	0.	125.77
4721	-2.7234	-9.5123	0.	129.32
4722	-3.2249	-9.4715	0.	133.28
4723	-3.7298	-9.4576	0.	136.66
4724	-4.2373	-9.4737	0.	138.13
4725	-4.7438	-9.4897	0.	132.43
4726	-5.2476	-9.4979	0.	119.3
4727	-5.7493	-9.4997	0.	111.1
4728	-6.2498	-9.5	0.	110.63
4729	-6.7499	-9.5	0.	117.54
4730	-7.25	-9.5	0.	129.59
4731	-7.75	-9.5	0.	135.27
4732	-8.25	-9.5	0.	134.75
4733	-8.75	-9.5	0.	133.51
4734	-9.25	-9.5	0.	132.35
4735	-9.5	-9.2499	0.	131.5
4736	-9.4999	-8.7499	0.	130.75
4737	-9.4998	-8.2498	0.	130.09
4738	-9.4997	-7.7497	0.	129.79
4739	-9.4995	-7.2496	0.	129.92
4740	-9.2495	-7.4995	0.	129.94
4741	-9.4992	-6.7495	0.	130.35
4742	-9.4988	-6.2494	0.	130.84
4743	-9.4984	-5.7494	0.	131.24
4744	-9.498	-5.2494	0.	131.49
4745	-9.4978	-4.7495	0.	131.69
4746	-9.4978	-4.2497	0.	131.95
4747	-9.4978	-3.7498	0.	132.42
4748	-9.498	-3.25	0.	133.4
4749	-9.4985	-2.7501	0.	135.96
4750	-9.4993	-2.2501	0.	137.92
4751	-9.4999	-1.7501	0.	138.87
4752	-9.5	-1.25	0.	140.45
4753	-9.5	-0.75001	0.	140.29
4754	-9.5	-0.25001	0.	138.22
4755	-9.5001	0.24998	0.	136.84
4756	-9.5002	0.74998	0.	134.65
4757	-9.2502	0.49998	0.	132.16
4758	-9.5003	1.25	0.	131.88
4759	-9.2504	0.99999	0.	129.27
4760	-9.5005	1.75	0.	130.73
4761	-9.5005	2.2501	0.	130.23
4762	-9.5003	2.7501	0.	130.09
4763	-9.5002	3.2501	0.	130.2
4764	-9.5001	3.75	0.	130.33
4765	-9.5	4.25	0.	130.16
4766	-9.5	4.75	0.	129.39
4767	-9.5	5.25	0.	128.29
4768	-9.5	5.75	0.	127.41
4769	-9.5	6.25	0.	127.1
4770	-9.4999	6.75	0.	127.34
4771	-9.4998	7.25	0.	127.82
4772	-9.4997	7.75	0.	127.96
4773	-9.4997	8.25	0.	127.46
4774	-9.4997	8.75	0.	126.58
4775	-9.4998	9.25	0.	125.65
4776	-9.2497	9.5	0.	124.98
4777	-8.7495	9.4999	0.	124.43
4778	-8.2492	9.4999	0.	123.72
4779	-7.7488	9.4999	0.	123.01
4780	-7.9987	9.2499	0.	123.45
4781	-7.2481	9.4998	0.	122.61
4782	-7.498	9.2499	0.	122.42
4783	-6.7471	9.4997	0.	122.76
4784	-6.9969	9.2498	0.	122.08
4785	-6.2457	9.4997	0.	123.46
4786	-6.4953	9.2497	0.	122.71
4787	-5.7439	9.4997	0.	124.43
4788	-5.2417	9.5001	0.	125.32
4789	-4.7393	9.5011	0.	125.95
4790	-4.2376	9.5037	0.	126.36
4791	-4.482	9.253	0.	126.09
4792	-3.7387	9.5096	0.	126.76
4793	-3.9775	9.2577	0.	126.09
4794	-3.2433	9.5185	0.	127.32
4795	-3.4778	9.2684	0.	126.5
4796	-2.7489	9.5173	0.	128.12
4797	-2.9937	9.2903	0.	127.85
4798	-2.2558	9.5031	0.	127.29
4799	-2.5149	9.2712	0.	129.65
4800	-1.7718	9.5243	0.	123.67
4801	-1.2609	9.3132	0.	117.68
4802	-1.5107	9.3597	0.	117.32
4803	-0.75632	9.4852	0.	125.62
4804	-0.95475	9.2232	0.	128.72
4805	-1.2836	9.507	0.	122.02
4806	-0.22125	9.5147	0.	127.15
4807	-0.43656	9.2766	0.	129.19
4808	0.28661	9.5166	0.	125.5
4809	0.78397	9.5095	0.	124.25
4810	1.2777	9.5024	0.	123.45
4811	1.7713	9.4998	0.	123.73
4812	2.2661	9.4997	0.	124.91
4813	2.7619	9.4993	0.	126.14
4814	3.2583	9.4991	0.	126.83
4815	3.7554	9.4996	0.	126.86
4816	4.2531	9.5008	0.	126.38
4817	4.7511	9.5037	0.	125.63
4818	5.2493	9.5078	0.	124.84
4819	5.7479	9.5125	0.	124.22
4820	6.2471	9.5172	0.	123.78
4821	6.7476	9.5195	0.	123.49
4822	7.249	9.5177	0.	123.43
4823	7.75	9.5135	0.	123.67
4824	8.2506	9.509	0.	124.13
4825	8.7507	9.5052	0.	124.6
4826	9.2506	9.5027	0.	124.98
4827	-4.0183	2.7829	0.	126.08
4828	-9.0005	0.74998	0.	126.82
4829	-0.63499	9.0146	0.	132.26
4830	3.0754	-0.29222	0.	131.14
4831	-1.6094	-2.7256	0.	127.17
4832	6.6488	2.3501	0.	112.74
4833	0.35358	-1.9745	0.	123.16
4834	-5.4396	-3.2279	0.	131.
4835	-3.5205	2.3013	0.	125.32
4836	-3.7701	2.5423	0.	125.84
4837	-5.0232	2.2728	0.	126.97
4838	-5.0231	1.7746	0.	126.82
4839	-4.7735	2.0281	0.	125.96
4840	-7.7479	8.9999	0.	122.85
4841	-6.4747	-2.7457	0.	135.14
4842	-6.4671	-3.2439	0.	131.27
4843	6.4	-3.5626	0.	121.71
4844	-2.3789	-3.3938	0.	124.01
4845	3.6456	1.1866	0.	129.94
4846	3.3789	0.9441	0.	130.62
4847	-3.5001	-5.2079	0.	128.2
4848	8.5402	4.6283	0.	128.66
4849	3.4682	7.2751	0.	129.01
4850	4.2445	-7.5388	0.	131.95
4851	-7.0019	3.7514	0.	117.25
4852	-3.9586	8.762	0.	125.37
4853	-4.2219	9.0071	0.	125.83
4854	-3.7167	9.0166	0.	125.85
4855	3.2375	-9.0055	0.	127.29
4856	1.1644	-8.9829	0.	127.63
4857	-7.7478	8.	0.	121.61
4858	-7.2466	8.	0.	117.86
4859	-6.255	3.5045	0.	122.91
4860	-6.7533	3.5025	0.	119.71
4861	5.7245	8.0412	0.	122.47
4862	2.8262	0.96819	0.	131.92
4863	-1.281	-1.4794	0.	123.59
4864	6.1572	-3.3252	0.	120.85
4865	6.1831	-3.8384	0.	119.59
4866	5.9432	-3.6094	0.	119.14
4867	-5.0165	1.2713	0.	126.97
4868	2.8213	6.8963	0.	127.98
4869	3.0091	6.6438	0.	129.61
4870	3.6201	1.7001	0.	130.77
4871	-6.7451	8.9997	0.	122.02
4872	-7.2468	8.9998	0.	121.88
4873	4.3089	3.4923	0.	130.59
4874	-7.0036	3.2522	0.	119.59
4875	-2.7597	9.0443	0.	129.35
4876	5.9176	-3.0766	0.	119.6
4877	3.1801	7.0695	0.	127.16
4878	-3.2367	-4.9824	0.	126.69
4879	-3.2282	9.0402	0.	127.04
4880	-1.3598	-2.4995	0.	127.26
4881	0.28615	-2.9804	0.	124.17
4882	3.3679	6.8171	0.	128.64
4883	7.9573	5.2174	0.	121.3
4884	5.7036	-3.3607	0.	117.89
4885	6.3239	-0.5576	0.	134.47
4886	-1.3299	-2.0089	0.	126.38
4887	-0.19259	-2.9421	0.	124.75
4888	6.7899e-002	-2.7152	0.	124.13
4889	-0.40815	-2.6618	0.	124.53
4890	-0.14767	-2.4349	0.	123.92
4891	0.10584	-2.2121	0.	123.62
4892	-0.36541	-2.1651	0.	123.33
4893	-0.1119	-1.9423	0.	123.03
4894	0.12599	-1.7161	0.	123.46
4895	-0.32959	-1.684	0.	121.41
4896	-9.1701e-002	-1.4578	0.	121.86
4897	0.11596	-1.2231	0.	122.93
4898	-0.33293	-1.2085	0.	118.49
4899	-0.12526	-0.97377	0.	119.6
4900	-1.	-5.	0.	98.775
4901	-2.	-5.	0.	94.995
4902	-1.	-6.	0.	102.29
4903	-2.	-6.	0.	88.564
4904	-1.5	-5.	0.	111.75
4905	-1.	-5.5	0.	105.11
4906	-2.	-5.5	0.	97.814
4907	-1.5	-6.	0.	110.92
4908	-1.5	-5.5	0.	108.57
4909	-1.25	-5.	0.	105.23
4910	-1.	-5.25	0.	101.94
4911	-1.75	-5.	0.	103.34
4912	-2.	-5.25	0.	96.389
4913	-1.	-5.75	0.	103.69
4914	-1.25	-6.	0.	106.55
4915	-2.	-5.75	0.	93.166
4916	-1.75	-6.	0.	99.732
4917	-1.5	-5.25	0.	110.1
4918	-1.25	-5.5	0.	106.83
4919	-1.75	-5.5	0.	103.14
4920	-1.5	-5.75	0.	109.7
4921	1.	-6.	0.	99.295
4922	0.	-6.	0.	98.671
4923	1.	-8.	0.	98.617
4924	0.	-8.	0.	103.65
4925	0.5	-6.	0.	113.13
4926	1.	-6.5	0.	103.64
4927	1.	-7.	0.	102.72
4928	1.	-7.5	0.	102.3
4929	0.	-6.5	0.	102.11
4930	0.	-7.	0.	100.77
4931	0.	-7.5	0.	103.13
4932	0.5	-8.	0.	111.82
4933	0.5	-6.5	0.	107.7
4934	0.5	-7.	0.	105.72
4935	0.5	-7.5	0.	108.25
4936	0.75	-6.	0.	106.16
4937	1.	-6.25	0.	101.46
4938	0.25	-6.	0.	105.86
4939	0.	-6.25	0.	100.39
4940	1.	-7.75	0.	100.45
4941	0.75	-8.	0.	105.17
4942	0.	-7.75	0.	103.39
4943	0.25	-8.	0.	107.59
4944	0.5	-6.25	0.	110.38
4945	1.	-6.75	0.	103.12
4946	0.75	-6.5	0.	105.63
4947	1.	-7.25	0.	102.45
4948	0.75	-7.	0.	104.22
4949	0.75	-7.5	0.	105.23
4950	0.	-6.75	0.	101.41
4951	0.25	-6.5	0.	104.87
4952	0.	-7.25	0.	101.91
4953	0.25	-7.	0.	103.24
4954	0.25	-7.5	0.	105.58
4955	0.5	-7.75	0.	109.95
4956	0.5	-6.75	0.	106.7
4957	0.5	-7.25	0.	106.98
4958	3.	-6.	0.	96.833
4959	2.	-6.	0.	98.863
4960	3.	-8.	0.	97.161
4961	2.	-8.	0.	97.976
4962	2.5	-6.	0.	112.09
4963	3.	-6.5	0.	100.11
4964	3.	-7.	0.	98.677
4965	3.	-7.5	0.	100.3
4966	2.	-6.5	0.	102.17
4967	2.	-7.	0.	101.03
4968	2.	-7.5	0.	101.75
4969	2.5	-8.	0.	111.66
4970	2.5	-6.5	0.	105.28
4971	2.5	-7.	0.	102.69
4972	2.5	-7.5	0.	105.13
4973	2.75	-6.	0.	104.4
4974	3.	-6.25	0.	98.462
4975	2.25	-6.	0.	105.42
4976	2.	-6.25	0.	100.5
4977	3.	-7.75	0.	98.72
4978	2.75	-8.	0.	104.36
4979	2.	-7.75	0.	99.852
4980	2.25	-8.	0.	104.77
4981	2.5	-6.25	0.	108.65
4982	3.	-6.75	0.	99.346
4983	2.75	-6.5	0.	102.64
4984	3.	-7.25	0.	99.449
4985	2.75	-7.	0.	100.68
4986	2.75	-7.5	0.	102.66
4987	2.	-6.75	0.	101.56
4988	2.25	-6.5	0.	103.67
4989	2.	-7.25	0.	101.35
4990	2.25	-7.	0.	101.86
4991	2.25	-7.5	0.	103.39
4992	2.5	-7.75	0.	108.36
4993	2.5	-6.75	0.	103.98
4994	2.5	-7.25	0.	103.91
4995	2.	1.	0.	96.918
4996	1.	1.	0.	96.931
4997	2.	-1.	0.	95.608
4998	1.	-1.	0.	95.321
4999	1.5	1.	0.	110.72
5000	2.	0.5	0.	100.41
5001	2.	0.	0.	99.133
5002	2.	-0.5	0.	99.986
5003	1.	0.5	0.	100.67
5004	1.	0.	0.	99.263
5005	1.	-0.5	0.	99.801
5006	1.5	-1.	0.	109.56
5007	1.5	0.5	0.	104.6
5008	1.5	0.	0.	102.28
5009	1.5	-0.5	0.	104.31
5010	1.75	1.	0.	103.76
5011	2.	0.75	0.	98.659
5012	1.25	1.	0.	103.77
5013	1.	0.75	0.	98.794
5014	2.	-0.75	0.	97.794
5015	1.75	-1.	0.	102.54
5016	1.	-0.75	0.	97.559
5017	1.25	-1.	0.	102.4
5018	1.5	0.75	0.	107.62
5019	2.	0.25	0.	99.743
5020	1.75	0.5	0.	102.46
5021	2.	-0.25	0.	99.522
5022	1.75	0.	0.	100.7
5023	1.75	-0.5	0.	102.1
5024	1.	0.25	0.	99.919
5025	1.25	0.5	0.	102.58
5026	1.	-0.25	0.	99.499
5027	1.25	0.	0.	100.77
5028	1.25	-0.5	0.	102.02
5029	1.5	-0.75	0.	106.89
5030	1.5	0.25	0.	103.44
5031	1.5	-0.25	0.	103.29
5032	-4.	0.	0.	100.22
5033	-5.	0.	0.	97.55
5034	-4.	-2.	0.	116.81
5035	-5.	-2.	0.	98.494
5036	-4.5	0.	0.	115.45
5037	-4.	-0.5	0.	101.99
5038	-4.	-1.	0.	109.15
5039	-4.	-1.5	0.	112.36
5040	-5.	-0.5	0.	101.69
5041	-5.	-1.	0.	98.809
5042	-5.	-1.5	0.	101.09
5043	-4.5	-2.	0.	117.97
5044	-4.5	-0.5	0.	106.39
5045	-4.5	-1.	0.	103.81
5046	-4.5	-1.5	0.	105.25
5047	-4.25	0.	0.	107.7
5048	-4.	-0.25	0.	100.87
5049	-4.75	0.	0.	106.46
5050	-5.	-0.25	0.	99.579
5051	-4.	-1.75	0.	113.73
5052	-4.25	-2.	0.	117.07
5053	-5.	-1.75	0.	99.773
5054	-4.75	-2.	0.	108.21
5055	-4.5	-0.25	0.	110.91
5056	-4.	-0.75	0.	105.45
5057	-4.25	-0.5	0.	104.14
5058	-4.	-1.25	0.	110.65
5059	-4.25	-1.	0.	106.41
5060	-4.25	-1.5	0.	108.69
5061	-5.	-0.75	0.	100.23
5062	-4.75	-0.5	0.	103.99
5063	-5.	-1.25	0.	99.939
5064	-4.75	-1.	0.	101.31
5065	-4.75	-1.5	0.	103.1
5066	-4.5	-1.75	0.	111.6
5067	-4.5	-0.75	0.	105.07
5068	-4.5	-1.25	0.	104.5
5069	-7.	0.	0.	99.422
5070	-9.	0.	0.	101.3
5071	-7.	-2.	0.	99.637
5072	-9.	-2.	0.	102.03
5073	-7.5	0.	0.	113.99
5074	-8.	0.	0.	111.76
5075	-8.5	0.	0.	114.68
5076	-7.	-0.5	0.	103.78
5077	-7.	-1.	0.	102.52
5078	-7.	-1.5	0.	104.28
5079	-9.	-0.5	0.	105.91
5080	-9.	-1.	0.	105.15
5081	-9.	-1.5	0.	106.11
5082	-8.5	-2.	0.	115.26
5083	-8.	-2.	0.	112.38
5084	-7.5	-2.	0.	114.69
5085	-8.	-0.5	0.	114.64
5086	-7.5	-0.5	0.	111.44
5087	-7.5	-1.5	0.	111.8
5088	-8.	-1.5	0.	114.98
5089	-8.5	-1.5	0.	113.23
5090	-8.5	-0.5	0.	112.93
5091	-8.5	-1.	0.	112.57
5092	-7.5	-1.	0.	110.77
5093	-8.	-1.	0.	114.69
5094	-7.25	0.	0.	106.64
5095	-7.	-0.25	0.	101.58
5096	-8.75	0.	0.	107.93
5097	-9.	-0.25	0.	103.6
5098	-7.	-1.75	0.	101.93
5099	-7.25	-2.	0.	107.08
5100	-9.	-1.75	0.	104.07
5101	-8.75	-2.	0.	108.58
5102	-7.75	0.	0.	112.87
5103	-7.5	-0.25	0.	112.69
5104	-8.25	0.	0.	113.22
5105	-8.	-0.25	0.	113.18
5106	-8.5	-0.25	0.	113.77
5107	-7.	-0.75	0.	103.1
5108	-7.25	-0.5	0.	107.59
5109	-7.	-1.25	0.	103.35
5110	-7.25	-1.	0.	106.63
5111	-7.25	-1.5	0.	108.02
5112	-9.	-0.75	0.	105.52
5113	-8.75	-0.5	0.	109.41
5114	-9.	-1.25	0.	105.62
5115	-8.75	-1.	0.	108.86
5116	-8.75	-1.5	0.	109.66
5117	-8.25	-2.	0.	113.82
5118	-8.5	-1.75	0.	114.21
5119	-7.75	-2.	0.	113.54
5120	-8.	-1.75	0.	113.66
5121	-7.5	-1.75	0.	113.22
5122	-7.75	-0.5	0.	113.03
5123	-8.25	-0.5	0.	113.78
5124	-8.	-0.75	0.	114.66
5125	-7.5	-0.75	0.	111.08
5126	-7.75	-1.5	0.	113.37
5127	-7.5	-1.25	0.	111.26
5128	-8.25	-1.5	0.	114.09
5129	-8.	-1.25	0.	114.83
5130	-8.5	-1.25	0.	112.9
5131	-8.5	-0.75	0.	112.75
5132	-8.25	-1.	0.	113.63
5133	-7.75	-1.	0.	112.73
5134	0.	2.	0.	94.577
5135	-1.	2.	0.	96.786
5136	0.	0.	0.	95.901
5137	-1.	0.	0.	96.048
5138	-0.5	2.	0.	108.94
5139	0.	1.5	0.	100.07
5140	0.	1.	0.	99.478
5141	0.	0.5	0.	100.41
5142	-1.	1.5	0.	100.57
5143	-1.	1.	0.	99.802
5144	-1.	0.5	0.	100.67
5145	-0.5	0.	0.	109.68
5146	-0.5	1.5	0.	104.79
5147	-0.5	1.	0.	102.7
5148	-0.5	0.5	0.	104.38
5149	-0.25	2.	0.	101.73
5150	0.	1.75	0.	97.318
5151	-0.75	2.	0.	102.84
5152	-1.	1.75	0.	98.675
5153	0.	0.25	0.	98.152
5154	-0.25	0.	0.	102.74
5155	-1.	0.25	0.	98.349
5156	-0.75	0.	0.	102.81
5157	-0.5	1.75	0.	106.83
5158	0.	1.25	0.	99.74
5159	-0.25	1.5	0.	102.41
5160	0.	0.75	0.	99.885
5161	-0.25	1.	0.	101.08
5162	-0.25	0.5	0.	102.33
5163	-1.	1.25	0.	100.16
5164	-0.75	1.5	0.	102.65
5165	-1.	0.75	0.	100.21
5166	-0.75	1.	0.	101.25
5167	-0.75	0.5	0.	102.47
5168	-0.5	0.25	0.	106.97
5169	-0.5	1.25	0.	103.74
5170	-0.5	0.75	0.	103.54
5171	6.	7.	0.	97.697
5172	5.	7.	0.	96.018
5173	6.	5.	0.	100.1
5174	5.	5.	0.	97.909
5175	5.5	7.	0.	111.06
5176	6.	6.5	0.	101.21
5177	6.	6.	0.	99.487
5178	6.	5.5	0.	103.19
5179	5.	6.5	0.	99.226
5180	5.	6.	0.	98.224
5181	5.	5.5	0.	100.35
5182	5.5	5.	0.	112.8
5183	5.5	6.5	0.	104.07
5184	5.5	6.	0.	101.32
5185	5.5	5.5	0.	105.39
5186	5.75	7.	0.	104.32
5187	6.	6.75	0.	99.435
5188	5.25	7.	0.	103.49
5189	5.	6.75	0.	97.614
5190	6.	5.25	0.	101.59
5191	5.75	5.	0.	106.39
5192	5.	5.25	0.	99.123
5193	5.25	5.	0.	105.32
5194	5.5	6.75	0.	107.54
5195	6.	6.25	0.	100.29
5196	5.75	6.5	0.	102.6
5197	6.	5.75	0.	101.24
5198	5.75	6.	0.	100.39
5199	5.75	5.5	0.	104.23
5200	5.	6.25	0.	98.696
5201	5.25	6.5	0.	101.59
5202	5.	5.75	0.	99.261
5203	5.25	6.	0.	99.77
5204	5.25	5.5	0.	102.8
5205	5.5	5.25	0.	109.08
5206	5.5	6.25	0.	102.69
5207	5.5	5.75	0.	103.34
5208	-6.	7.	0.	98.967
5209	-8.	7.	0.	98.794
5210	-6.	5.	0.	98.321
5211	-8.	5.	0.	98.692
5212	-6.5	7.	0.	113.13
5213	-7.	7.	0.	110.56
5214	-7.5	7.	0.	112.94
5215	-6.	6.5	0.	103.23
5216	-6.	6.	0.	101.65
5217	-6.	5.5	0.	102.78
5218	-8.	6.5	0.	103.09
5219	-8.	6.	0.	101.82
5220	-8.	5.5	0.	102.77
5221	-7.5	5.	0.	112.33
5222	-7.	5.	0.	109.96
5223	-6.5	5.	0.	112.56
5224	-7.	6.	0.	112.6
5225	-6.5	6.	0.	109.43
5226	-6.5	5.5	0.	110.02
5227	-7.	5.5	0.	112.6
5228	-7.5	5.5	0.	110.19
5229	-7.5	6.	0.	109.66
5230	-7.5	6.5	0.	110.51
5231	-7.	6.5	0.	112.99
5232	-6.5	6.5	0.	110.47
5233	-6.25	7.	0.	105.97
5234	-6.	6.75	0.	101.08
5235	-7.75	7.	0.	105.79
5236	-8.	6.75	0.	100.93
5237	-6.	5.25	0.	100.53
5238	-6.25	5.	0.	105.37
5239	-8.	5.25	0.	100.73
5240	-7.75	5.	0.	105.44
5241	-6.75	7.	0.	111.84
5242	-6.5	6.75	0.	111.77
5243	-7.25	7.	0.	111.75
5244	-7.	6.75	0.	111.76
5245	-7.5	6.75	0.	111.69
5246	-6.	6.25	0.	102.4
5247	-6.25	6.5	0.	106.83
5248	-6.	5.75	0.	102.17
5249	-6.25	6.	0.	105.53
5250	-6.25	5.5	0.	106.38
5251	-8.	6.25	0.	102.44
5252	-7.75	6.5	0.	106.79
5253	-8.	5.75	0.	102.28
5254	-7.75	6.	0.	105.74
5255	-7.75	5.5	0.	106.47
5256	-7.25	5.	0.	111.14
5257	-7.5	5.25	0.	111.23
5258	-6.75	5.	0.	111.26
5259	-7.	5.25	0.	111.26
5260	-6.5	5.25	0.	111.27
5261	-6.75	6.	0.	111.01
5262	-7.	5.75	0.	112.59
5263	-7.25	6.	0.	111.13
5264	-7.	6.25	0.	112.79
5265	-6.5	5.75	0.	109.71
5266	-6.5	6.25	0.	109.93
5267	-6.75	5.5	0.	111.3
5268	-7.25	5.5	0.	111.38
5269	-7.5	5.75	0.	109.92
5270	-7.5	6.25	0.	110.08
5271	-7.25	6.5	0.	111.74
5272	-6.75	6.5	0.	111.72
5273	1.	6.	0.	103.35
5274	-1.	6.	0.	95.058
5275	1.	4.	0.	97.358
5276	-1.	4.	0.	97.292
5277	0.5	6.	0.	118.42
5278	0.	6.	0.	112.61
5279	-0.5	6.	0.	112.01
5280	1.	5.5	0.	103.25
5281	1.	5.	0.	99.739
5282	1.	4.5	0.	100.73
5283	-1.	5.5	0.	100.63
5284	-1.	5.	0.	99.878
5285	-1.	4.5	0.	101.44
5286	-0.5	4.	0.	110.58
5287	0.	4.	0.	108.31
5288	0.5	4.	0.	110.9
5289	0.	5.	0.	112.48
5290	-0.5	5.	0.	108.37
5291	-0.5	5.5	0.	109.36
5292	0.	5.5	0.	114.22
5293	0.5	5.5	0.	113.2
5294	0.5	5.	0.	109.38
5295	0.5	4.5	0.	108.94
5296	0.	4.5	0.	111.5
5297	-0.5	4.5	0.	108.78
5298	0.75	6.	0.	110.63
5299	1.	5.75	0.	103.27
5300	-0.75	6.	0.	103.46
5301	-1.	5.75	0.	97.814
5302	1.	4.25	0.	99.032
5303	0.75	4.	0.	104.06
5304	-1.	4.25	0.	99.352
5305	-0.75	4.	0.	103.88
5306	0.25	6.	0.	115.5
5307	0.5	5.75	0.	115.75
5308	-0.25	6.	0.	112.3
5309	0.	5.75	0.	113.39
5310	-0.5	5.75	0.	110.65
5311	1.	5.25	0.	101.41
5312	0.75	5.5	0.	108.14
5313	1.	4.75	0.	100.19
5314	0.75	5.	0.	104.55
5315	0.75	4.5	0.	104.82
5316	-1.	5.25	0.	100.2
5317	-0.75	5.5	0.	104.97
5318	-1.	4.75	0.	100.62
5319	-0.75	5.	0.	104.11
5320	-0.75	4.5	0.	105.1
5321	-0.25	4.	0.	109.44
5322	-0.5	4.25	0.	109.65
5323	0.25	4.	0.	109.6
5324	0.	4.25	0.	109.89
5325	0.5	4.25	0.	109.89
5326	-0.25	5.	0.	110.42
5327	0.	5.25	0.	113.35
5328	0.25	5.	0.	110.92
5329	0.	4.75	0.	111.99
5330	-0.5	5.25	0.	108.83
5331	-0.5	4.75	0.	108.55
5332	-0.25	5.5	0.	111.76
5333	0.25	5.5	0.	113.66
5334	0.5	5.25	0.	111.29
5335	0.5	4.75	0.	109.15
5336	0.25	4.5	0.	110.21
5337	-0.25	4.5	0.	110.13
5338	-3.	6.	0.	99.664
5339	-4.	6.	0.	99.707
5340	-3.	5.	0.	99.183
5341	-4.	5.	0.	99.758
5342	-3.5	6.	0.	115.8
5343	-3.	5.5	0.	104.35
5344	-4.	5.5	0.	104.85
5345	-3.5	5.	0.	115.27
5346	-3.5	5.5	0.	112.23
5347	-3.25	6.	0.	107.7
5348	-3.	5.75	0.	101.99
5349	-3.75	6.	0.	107.73
5350	-4.	5.75	0.	102.26
5351	-3.	5.25	0.	101.75
5352	-3.25	5.	0.	107.21
5353	-4.	5.25	0.	102.29
5354	-3.75	5.	0.	107.49
5355	-3.5	5.75	0.	113.97
5356	-3.25	5.5	0.	108.26
5357	-3.75	5.5	0.	108.51
5358	-3.5	5.25	0.	113.7
5359	-1.64	-6.63	0.	74.929
5360	-2.96	-7.31	0.	75.053
5361	-1.72	-8.11	0.	88.949
5362	-2.08	-6.8567	0.	103.38
5363	-2.52	-7.0833	0.	109.
5364	-1.6667	-7.1233	0.	101.18
5365	-1.6933	-7.6167	0.	102.99
5366	-2.5467	-7.5767	0.	103.2
5367	-2.1333	-7.8433	0.	99.634
5368	-2.304	-7.3408	0.	105.85
5369	-1.9987	-7.1835	0.	101.21
5370	-2.0173	-7.5257	0.	100.8
5371	-1.86	-6.7433	0.	87.779
5372	-1.6533	-6.8767	0.	86.907
5373	-2.74	-7.1967	0.	87.485
5374	-2.7533	-7.4433	0.	84.468
5375	-1.7067	-7.8633	0.	94.874
5376	-1.9267	-7.9767	0.	93.224
5377	-2.3	-6.97	0.	106.05
5378	-2.0394	-7.0201	0.	102.22
5379	-2.412	-7.212	0.	106.99
5380	-1.68	-7.37	0.	102.03
5381	-1.8327	-7.1534	0.	101.18
5382	-1.8553	-7.5712	0.	101.85
5383	-2.34	-7.71	0.	101.35
5384	-2.4253	-7.4587	0.	104.
5385	-2.0753	-7.6845	0.	100.13
5386	-2.1513	-7.2621	0.	103.47
5387	-2.1606	-7.4332	0.	103.21
5388	-2.008	-7.3546	0.	101.
5389	6.53	-7.64	0.	89.96
5390	6.72	-5.86	0.	73.457
5391	5.08	-6.58	0.	75.684
5392	6.5775	-7.195	0.	101.09
5393	6.625	-6.75	0.	99.034
5394	6.6725	-6.305	0.	102.02
5395	6.1675	-7.375	0.	97.838
5396	5.805	-7.11	0.	102.26
5397	5.4425	-6.845	0.	105.9
5398	6.31	-6.04	0.	104.57
5399	5.9	-6.22	0.	104.07
5400	5.49	-6.4	0.	111.45
5401	6.0113	-6.8281	0.	101.85
5402	6.3326	-6.7363	0.	101.5
5403	6.2798	-7.0663	0.	99.916
5404	5.7029	-6.6446	0.	107.81
5405	6.0015	-6.4944	0.	103.89
5406	6.3334	-6.3881	0.	99.275
5407	6.5538	-7.4175	0.	93.491
5408	6.3488	-7.5075	0.	92.176
5409	6.6962	-6.0825	0.	86.665
5410	6.515	-5.95	0.	87.856
5411	5.2613	-6.7125	0.	86.79
5412	5.285	-6.49	0.	89.433
5413	6.6013	-6.9725	0.	100.
5414	6.4286	-7.1306	0.	100.44
5415	6.6487	-6.5275	0.	100.51
5416	6.4788	-6.7432	0.	100.26
5417	6.5029	-6.3466	0.	100.64
5418	5.9862	-7.2425	0.	100.03
5419	6.2236	-7.2206	0.	98.822
5420	5.6238	-6.9775	0.	103.95
5421	5.9082	-6.969	0.	102.05
5422	5.5727	-6.7448	0.	106.54
5423	6.105	-6.13	0.	104.29
5424	6.3217	-6.2141	0.	101.87
5425	5.695	-6.31	0.	107.64
5426	5.9508	-6.3572	0.	103.98
5427	5.5965	-6.5223	0.	109.28
5428	6.172	-6.7822	0.	101.67
5429	6.1456	-6.9472	0.	100.87
5430	5.8571	-6.7363	0.	104.76
5431	6.0064	-6.6612	0.	102.84
5432	6.3062	-6.9013	0.	100.7
5433	6.333	-6.5622	0.	100.38
5434	5.8522	-6.5695	0.	105.78
5435	6.1675	-6.4412	0.	101.57
5436	-0.12	-8.27	0.	93.817
5437	-1.2	-7.38	0.	93.669
5438	-1.43	-8.76	0.	79.983
5439	-0.48	-7.9733	0.	109.25
5440	-0.84	-7.6767	0.	106.06
5441	-0.55667	-8.4333	0.	119.11
5442	-0.99333	-8.5967	0.	118.
5443	-1.2767	-7.84	0.	102.78
5444	-1.3533	-8.3	0.	109.73
5445	-0.99285	-8.1437	0.	106.64
5446	-0.3	-8.1217	0.	99.384
5447	-0.33833	-8.3517	0.	105.17
5448	-1.02	-7.5283	0.	99.02
5449	-1.2383	-7.61	0.	97.5
5450	-1.2117	-8.6783	0.	98.589
5451	-1.3917	-8.53	0.	94.596
5452	-0.66	-7.825	0.	107.64
5453	-0.51833	-8.2033	0.	113.77
5454	-0.91643	-7.9102	0.	106.3
5455	-0.775	-8.515	0.	118.53
5456	-0.77476	-8.2885	0.	112.78
5457	-0.99309	-8.3702	0.	112.24
5458	-1.315	-8.07	0.	106.08
5459	-1.1348	-7.9918	0.	104.64
5460	-1.1731	-8.2218	0.	108.16
5461	4.67	-0.58	0.	85.033
5462	4.73	-2.49	0.	86.452
5463	6.36	-1.48	0.	91.599
5464	4.685	-1.0575	0.	106.37
5465	4.7	-1.535	0.	102.51
5466	4.715	-2.0125	0.	105.12
5467	5.0925	-0.805	0.	109.84
5468	5.515	-1.03	0.	113.13
5469	5.9375	-1.255	0.	113.96
5470	5.1375	-2.2375	0.	106.83
5471	5.545	-1.985	0.	108.07
5472	5.9525	-1.7325	0.	111.67
5473	5.0021	-1.2164	0.	104.57
5474	5.3958	-1.4857	0.	110.24
5475	5.0258	-1.8213	0.	103.55
5476	4.6775	-0.81875	0.	94.707
5477	4.8812	-0.6925	0.	96.433
5478	4.7225	-2.2513	0.	94.666
5479	4.9338	-2.3637	0.	95.512
5480	6.1487	-1.3675	0.	101.11
5481	6.1562	-1.6063	0.	99.77
5482	4.6925	-1.2962	0.	104.39
5483	4.8436	-1.1369	0.	105.42
5484	4.7075	-1.7737	0.	103.75
5485	4.8511	-1.3757	0.	103.54
5486	4.8629	-1.6782	0.	103.03
5487	4.8704	-1.9169	0.	104.28
5488	5.3038	-0.9175	0.	111.43
5489	5.0473	-1.0107	0.	107.15
5490	5.7263	-1.1425	0.	113.55
5491	5.4554	-1.2579	0.	111.66
5492	5.945	-1.4937	0.	112.57
5493	5.6666	-1.3704	0.	112.07
5494	5.3412	-2.1112	0.	107.41
5495	5.0817	-2.0294	0.	105.12
5496	5.7488	-1.8587	0.	109.75
5497	5.4704	-1.7354	0.	109.15
5498	5.199	-1.351	0.	107.35
5499	5.2108	-1.6535	0.	106.87
5500	-3.58	-0.19	0.	101.39
5501	-3.88	-1.76	0.	78.696
5502	-2.38	-1.24	0.	74.898
5503	-3.68	-0.71333	0.	107.52
5504	-3.78	-1.2367	0.	111.14
5505	-3.18	-0.54	0.	98.427
5506	-2.78	-0.89	0.	101.54
5507	-3.38	-1.5867	0.	111.26
5508	-2.88	-1.4133	0.	112.59
5509	-3.3494	-0.86135	0.	106.48
5510	-3.0719	-1.1042	0.	107.62
5511	-3.4188	-1.2244	0.	105.01
5512	-3.63	-0.45167	0.	102.04
5513	-3.38	-0.365	0.	98.084
5514	-3.83	-1.4983	0.	94.217
5515	-3.63	-1.6733	0.	94.032
5516	-2.58	-1.065	0.	84.213
5517	-2.63	-1.3267	0.	89.665
5518	-3.73	-0.975	0.	109.23
5519	-3.5147	-0.78734	0.	106.92
5520	-3.5994	-1.2305	0.	108.07
5521	-2.98	-0.715	0.	99.858
5522	-3.2647	-0.70067	0.	102.43
5523	-2.926	-0.99708	0.	104.21
5524	-3.13	-1.5	0.	111.83
5525	-3.3994	-1.4055	0.	108.08
5526	-2.976	-1.2587	0.	109.66
5527	-3.2107	-0.98275	0.	106.96
5528	-3.3841	-1.0429	0.	105.74
5529	-3.2454	-1.1643	0.	106.24
5530	6.15	1.42	0.	68.184
5531	6.49	-0.39	0.	95.907
5532	7.89	0.8	0.	78.631
5533	6.235	0.9675	0.	101.38
5534	6.32	0.515	0.	99.139
5535	6.405	6.25e-002	0.	102.08
5536	6.585	1.265	0.	106.92
5537	7.02	1.11	0.	106.34
5538	7.455	0.955	0.	115.87
5539	6.84	-9.25e-002	0.	100.59
5540	7.19	0.205	0.	105.86
5541	7.54	0.5025	0.	107.39
5542	6.9554	0.4792	0.	104.54
5543	6.9381	0.82175	0.	106.41
5544	7.2567	0.68922	0.	110.45
5545	6.6997	0.21586	0.	102.93
5546	6.6186	0.55012	0.	103.1
5547	6.5894	0.90678	0.	99.853
5548	6.1925	1.1938	0.	84.086
5549	6.3675	1.3425	0.	86.734
5550	6.4475	-0.16375	0.	97.016
5551	6.665	-0.24125	0.	96.646
5552	7.6725	0.8775	0.	93.32
5553	7.715	0.65125	0.	89.235
5554	6.2775	0.74125	0.	100.25
5555	6.4122	0.93714	0.	100.62
5556	6.3625	0.28875	0.	100.51
5557	6.4693	0.53256	0.	101.12
5558	6.5524	0.13918	0.	102.4
5559	6.8025	1.1875	0.	106.6
5560	6.5872	1.0859	0.	103.35
5561	7.2375	1.0325	0.	111.
5562	6.9791	0.96587	0.	106.37
5563	7.3558	0.82211	0.	112.8
5564	7.015	5.625e-002	0.	103.21
5565	6.7699	6.168e-002	0.	101.72
5566	7.365	0.35375	0.	106.52
5567	7.0727	0.3421	0.	105.2
5568	7.3983	0.59586	0.	108.66
5569	6.9468	0.65047	0.	105.45
5570	7.106	0.58421	0.	107.44
5571	6.8276	0.34753	0.	103.73
5572	6.787	0.51466	0.	103.82
5573	7.0974	0.75549	0.	108.36
5574	6.7637	0.86426	0.	103.12
5575	6.6592	0.38299	0.	103.01
5576	6.604	0.72845	0.	101.45
5577	8.27	5.96	0.	86.745
5578	7.09	7.23	0.	102.16
5579	6.59	5.57	0.	77.286
5580	7.975	6.2775	0.	110.93
5581	7.68	6.595	0.	107.7
5582	7.385	6.9125	0.	102.31
5583	7.85	5.8625	0.	117.1
5584	7.43	5.765	0.	107.1
5585	7.01	5.6675	0.	115.37
5586	6.965	6.815	0.	102.05
5587	6.84	6.4	0.	102.96
5588	6.715	5.985	0.	110.26
5589	7.3195	6.4875	0.	105.12
5590	7.4508	6.1458	0.	110.24
5591	7.0355	6.0378	0.	104.5
5592	8.1225	6.1188	0.	97.768
5593	8.06	5.9113	0.	100.48
5594	7.2375	7.0712	0.	101.4
5595	7.0275	7.0225	0.	101.3
5596	6.8	5.6188	0.	96.201
5597	6.6525	5.7775	0.	93.692
5598	7.8275	6.4363	0.	109.31
5599	7.9125	6.07	0.	113.85
5600	7.7129	6.2117	0.	110.51
5601	7.5325	6.7537	0.	105.
5602	7.4998	6.5413	0.	106.39
5603	7.175	6.8637	0.	102.17
5604	7.3523	6.7	0.	103.7
5605	7.64	5.8137	0.	112.08
5606	7.22	5.7162	0.	111.21
5607	7.4404	5.9554	0.	108.66
5608	7.0228	5.8526	0.	109.93
5609	6.9025	6.6075	0.	102.46
5610	6.7775	6.1925	0.	106.61
5611	7.0798	6.4438	0.	103.99
5612	6.9378	6.2189	0.	103.73
5613	6.8753	6.0114	0.	107.38
5614	7.3851	6.3167	0.	107.67
5615	7.2432	6.0918	0.	107.32
5616	1.29	6.33	0.	92.997
5617	2.23	7.05	0.	64.857
5618	1.14	7.51	0.	70.493
5619	1.6033	6.57	0.	93.802
5620	1.9167	6.81	0.	95.535
5621	1.24	6.7233	0.	103.94
5622	1.19	7.1167	0.	101.57
5623	1.8667	7.2033	0.	103.47
5624	1.5033	7.3567	0.	98.878
5625	1.7103	6.9831	0.	103.82
5626	1.4583	7.0902	0.	99.317
5627	1.493	6.8168	0.	100.9
5628	1.4467	6.45	0.	91.111
5629	1.265	6.5267	0.	95.196
5630	2.0733	6.93	0.	71.871
5631	2.0483	7.1267	0.	75.908
5632	1.165	7.3133	0.	84.017
5633	1.3217	7.4333	0.	82.525
5634	1.76	6.69	0.	94.55
5635	1.5482	6.6934	0.	97.308
5636	1.8135	6.8966	0.	99.028
5637	1.215	6.92	0.	102.62
5638	1.3665	6.7701	0.	102.32
5639	1.3241	7.1034	0.	100.44
5640	1.685	7.28	0.	101.
5641	1.7885	7.0932	0.	102.78
5642	1.4808	7.2234	0.	99.005
5643	1.5843	7.0366	0.	101.42
5644	1.6017	6.9	0.	102.19
5645	1.4756	6.9535	0.	100.09
5646	-1.34	8.84	0.	111.73
5647	-2.04	7.88	0.	53.009
5648	-0.87	7.75	0.	47.447
5649	-1.5733	8.52	0.	89.836
5650	-1.8067	8.2	0.	92.786
5651	-1.1833	8.4767	0.	93.801
5652	-1.0267	8.1133	0.	94.557
5653	-1.65	7.8367	0.	114.59
5654	-1.26	7.7933	0.	111.77
5655	-1.2905	8.0608	0.	99.282
5656	-1.3983	8.3157	0.	100.75
5657	-1.5605	8.0921	0.	101.45
5658	-1.4567	8.68	0.	99.079
5659	-1.2617	8.6583	0.	100.42
5660	-1.9233	8.04	0.	69.748
5661	-1.845	7.8583	0.	80.88
5662	-0.94833	7.9317	0.	70.515
5663	-1.065	7.7717	0.	79.35
5664	-1.69	8.36	0.	91.186
5665	-1.4858	8.4178	0.	95.238
5666	-1.6836	8.1461	0.	96.878
5667	-1.105	8.295	0.	94.017
5668	-1.2908	8.3962	0.	97.078
5669	-1.1586	8.0871	0.	96.77
5670	-1.455	7.815	0.	113.06
5671	-1.6053	7.9644	0.	107.76
5672	-1.2752	7.9271	0.	105.48
5673	-1.3444	8.1882	0.	99.919
5674	-1.4255	8.0764	0.	100.23
5675	-1.4794	8.2039	0.	100.96
5676	-5.	-7.	0.	96.67
5677	-7.	-7.	0.	97.58
5678	-5.	-9.	0.	98.579
5679	-7.	-9.	0.	97.721
5680	-5.5	-7.	0.	110.74
5681	-6.	-7.	0.	108.27
5682	-6.5	-7.	0.	111.05
5683	-5.	-7.5	0.	101.06
5684	-5.	-8.	0.	100.21
5685	-5.	-8.5	0.	102.15
5686	-7.	-7.5	0.	101.75
5687	-7.	-8.	0.	100.42
5688	-7.	-8.5	0.	101.44
5689	-6.5	-9.	0.	109.78
5690	-6.	-9.	0.	107.08
5691	-5.5	-9.	0.	110.5
5692	-5.5	-8.	0.	107.26
5693	-5.5	-8.5	0.	108.24
5694	-6.5	-8.5	0.	107.92
5695	-6.5	-8.	0.	107.44
5696	-6.5	-7.5	0.	108.35
5697	-5.5	-7.5	0.	107.89
5698	-6.	-7.5	0.	110.46
5699	-6.	-8.5	0.	110.04
5700	-6.	-8.	0.	110.09
5701	-5.25	-7.	0.	103.63
5702	-5.	-7.25	0.	98.845
5703	-6.75	-7.	0.	104.23
5704	-7.	-7.25	0.	99.658
5705	-5.	-8.75	0.	100.35
5706	-5.25	-9.	0.	104.47
5707	-7.	-8.75	0.	99.574
5708	-6.75	-9.	0.	103.7
5709	-5.75	-7.	0.	109.5
5710	-5.5	-7.25	0.	109.29
5711	-6.25	-7.	0.	109.66
5712	-6.	-7.25	0.	109.35
5713	-6.5	-7.25	0.	109.67
5714	-5.	-7.75	0.	100.59
5715	-5.25	-7.5	0.	104.45
5716	-5.	-8.25	0.	101.16
5717	-5.25	-8.	0.	103.74
5718	-5.25	-8.5	0.	105.18
5719	-7.	-7.75	0.	101.07
5720	-6.75	-7.5	0.	105.04
5721	-7.	-8.25	0.	100.91
5722	-6.75	-8.	0.	103.93
5723	-6.75	-8.5	0.	104.67
5724	-6.25	-9.	0.	108.43
5725	-6.5	-8.75	0.	108.83
5726	-5.75	-9.	0.	108.79
5727	-6.	-8.75	0.	108.55
5728	-5.5	-8.75	0.	109.34
5729	-5.5	-8.25	0.	107.74
5730	-5.5	-7.75	0.	107.56
5731	-5.75	-8.	0.	108.68
5732	-5.75	-8.5	0.	109.14
5733	-6.5	-8.25	0.	107.68
5734	-6.25	-8.5	0.	108.98
5735	-6.5	-7.75	0.	107.89
5736	-6.25	-8.	0.	108.77
5737	-6.25	-7.5	0.	109.39
5738	-5.75	-7.5	0.	109.16
5739	-6.	-7.75	0.	110.27
5740	-6.	-8.25	0.	110.07
