Node Number	X Location (mm)	Y Location (mm)	Z Location (mm)	Equivalent (von-Mises) Stress (MPa)
1	6.92	8.29	0.	163.37
2	5.4	8.66	0.	165.53
3	5.84	7.16	0.	115.75
4	6.54	1.39	0.	169.9
5	5.02	1.43	0.	167.9
6	5.74	9.e-002	0.	108.04
7	4.32	-2.24	0.	154.14
8	5.41	-1.86	0.	151.79
9	4.53	-1.11	0.	126.12
10	-2.74	4.84	0.	174.6
11	-1.46	4.98	0.	181.02
12	-2.22	6.02	0.	112.54
13	-0.65	-2.09	0.	118.67
14	-0.16	-0.21	0.	152.22
15	-2.03	-0.73	0.	173.91
16	0.64	4.47	0.	145.75
17	0.57	5.55	0.	136.25
18	-0.33	4.95	0.	153.96
19	-5.51	-7.34	0.	147.31
20	-6.84	-7.74	0.	145.42
21	-5.83	-8.7	0.	118.22
22	-6.95	-1.92	0.	156.72
23	-5.63	-1.49	0.	157.63
24	-6.66	-0.57	0.	118.98
25	-5.58	5.95	0.	175.08
26	-7.12	6.23	0.	161.87
27	-6.6	4.76	0.	109.35
28	7.	-4.	0.	132.74
29	7.	-6.	0.	123.57
30	9.	-4.	0.	138.27
31	9.	-6.	0.	140.54
32	5.	6.	0.	131.32
33	5.	4.	0.	128.9
34	6.	6.	0.	125.12
35	6.	4.	0.	126.15
36	6.	-7.	0.	137.14
37	6.	-9.	0.	131.81
38	8.	-7.	0.	124.47
39	8.	-9.	0.	128.38
40	1.	8.	0.	133.04
41	1.	7.	0.	133.86
42	2.	8.	0.	134.61
43	2.	7.	0.	136.09
44	-1.	2.	0.	131.19
45	-1.	1.	0.	126.44
46	1.	2.	0.	137.99
47	1.	1.	0.	139.49
48	0.	-5.	0.	133.15
49	0.	-6.	0.	133.28
50	1.	-5.	0.	134.62
51	1.	-6.	0.	134.45
52	-9.	-1.	0.	133.16
53	-9.	-3.	0.	134.52
54	-8.	-1.	0.	131.42
55	-8.	-3.	0.	134.77
56	-8.	3.	0.	134.51
57	-8.	1.	0.	134.21
58	-6.	3.	0.	132.67
59	-6.	1.	0.	131.62
60	-7.	-5.	0.	130.07
61	-7.	-6.	0.	128.4
62	-6.	-5.	0.	128.5
63	-6.	-6.	0.	126.03
64	10.	10.	0.	125.06
65	-10.	10.	0.	124.99
66	10.	-10.	0.	135.65
67	-10.	-10.	0.	126.75
68	6.4133	8.4133	0.	101.35
69	5.9067	8.5367	0.	114.01
70	6.56	7.9133	0.	82.083
71	6.2	7.5367	0.	87.013
72	5.5467	8.16	0.	134.05
73	5.6933	7.66	0.	127.39
74	6.0333	1.4033	0.	106.74
75	5.5267	1.4167	0.	109.18
76	6.2733	0.95667	0.	108.34
77	6.0067	0.52333	0.	102.58
78	5.26	0.98333	0.	111.6
79	5.5	0.53667	0.	108.35
80	4.6833	-2.1133	0.	105.43
81	5.0467	-1.9867	0.	95.567
82	4.425	-1.675	0.	138.84
83	5.1167	-1.61	0.	86.667
84	4.8233	-1.36	0.	94.062
85	-2.3133	4.8867	0.	107.56
86	-1.8867	4.9333	0.	100.31
87	-2.5667	5.2333	0.	133.35
88	-2.3933	5.6267	0.	117.51
89	-1.7133	5.3267	0.	104.92
90	-1.9667	5.6733	0.	95.746
91	-0.5275	-1.62	0.	128.84
92	-0.405	-1.15	0.	134.04
93	-0.2825	-0.68	0.	134.42
94	-0.995	-1.75	0.	92.973
95	-1.34	-1.41	0.	105.72
96	-1.685	-1.07	0.	90.856
97	-0.6275	-0.34	0.	104.92
98	-1.095	-0.47	0.	111.11
99	-1.5625	-0.6	0.	94.822
100	0.605	5.01	0.	144.38
101	0.155	4.71	0.	72.703
102	0.12	5.25	0.	66.638
103	-5.9533	-7.4733	0.	104.2
104	-6.3967	-7.6067	0.	97.375
105	-5.6167	-7.7933	0.	134.98
106	-5.7233	-8.2467	0.	132.09
107	-6.5033	-8.06	0.	90.44
108	-6.1667	-8.38	0.	94.758
109	-6.51	-1.7767	0.	104.64
110	-6.07	-1.6333	0.	92.116
111	-6.8533	-1.47	0.	136.31
112	-6.7567	-1.02	0.	131.39
113	-5.9733	-1.1833	0.	75.903
114	-6.3167	-0.87667	0.	85.001
115	-6.0933	6.0433	0.	102.7
116	-6.6067	6.1367	0.	110.2
117	-5.92	5.5533	0.	82.119
118	-6.26	5.1567	0.	88.415
119	-6.9467	5.74	0.	128.49
120	-6.7733	5.25	0.	121.74
121	7.	-4.5	0.	139.47
122	7.	-5.	0.	138.82
123	7.	-5.5	0.	135.13
124	7.5	-4.	0.	112.29
125	8.	-4.	0.	117.4
126	8.5	-4.	0.	114.42
127	7.5	-6.	0.	106.11
128	8.	-6.	0.	116.68
129	8.5	-6.	0.	118.38
130	9.	-4.5	0.	149.2
131	9.	-5.	0.	151.43
132	9.	-5.5	0.	150.29
133	5.	5.5	0.	139.91
134	5.	5.	0.	139.55
135	5.	4.5	0.	138.52
136	5.5	6.	0.	104.98
137	5.5	4.	0.	103.24
138	6.	5.5	0.	134.62
139	6.	5.	0.	135.83
140	6.	4.5	0.	135.56
141	6.	-7.5	0.	144.11
142	6.	-8.	0.	144.12
143	6.	-8.5	0.	142.06
144	6.5	-7.	0.	115.19
145	7.	-7.	0.	114.58
146	7.5	-7.	0.	105.17
147	6.5	-9.	0.	108.06
148	7.	-9.	0.	110.51
149	7.5	-9.	0.	106.73
150	8.	-7.5	0.	134.98
151	8.	-8.	0.	137.91
152	8.	-8.5	0.	137.76
153	1.	7.5	0.	142.19
154	1.5	8.	0.	111.82
155	1.5	7.	0.	112.92
156	2.	7.5	0.	144.27
157	-1.	1.5	0.	137.49
158	-0.5	2.	0.	114.58
159	0.	2.	0.	120.69
160	0.5	2.	0.	117.3
161	-0.5	1.	0.	110.98
162	0.	1.	0.	122.36
163	0.5	1.	0.	122.61
164	1.	1.5	0.	147.26
165	0.	-5.5	0.	142.39
166	0.5	-5.	0.	111.52
167	0.5	-6.	0.	111.29
168	1.	-5.5	0.	143.99
169	-9.	-1.5	0.	144.29
170	-9.	-2.	0.	145.29
171	-9.	-2.5	0.	144.95
172	-8.5	-1.	0.	107.19
173	-8.5	-3.	0.	109.93
174	-8.	-1.5	0.	136.05
175	-8.	-2.	0.	140.72
176	-8.	-2.5	0.	144.16
177	-8.	2.5	0.	143.84
178	-8.	2.	0.	144.69
179	-8.	1.5	0.	143.05
180	-7.5	3.	0.	113.68
181	-7.	3.	0.	115.21
182	-6.5	3.	0.	109.47
183	-7.5	1.	0.	112.32
184	-7.	1.	0.	115.01
185	-6.5	1.	0.	109.5
186	-6.	2.5	0.	142.
187	-6.	2.	0.	143.17
188	-6.	1.5	0.	141.61
189	-7.	-5.5	0.	138.33
190	-6.5	-5.	0.	107.16
191	-6.5	-6.	0.	105.09
192	-6.	-5.5	0.	136.72
193	9.5	10.	0.	125.26
194	9.	10.	0.	126.18
195	8.5	10.	0.	127.33
196	8.	10.	0.	128.13
197	7.5	10.	0.	126.73
198	7.	10.	0.	123.35
199	6.5	10.	0.	118.91
200	6.	10.	0.	117.64
201	5.5	10.	0.	120.31
202	5.	10.	0.	125.98
203	4.5	10.	0.	129.83
204	4.	10.	0.	130.35
205	3.5	10.	0.	129.48
206	3.	10.	0.	128.21
207	2.5	10.	0.	126.51
208	2.	10.	0.	124.78
209	1.5	10.	0.	123.8
210	1.	10.	0.	123.91
211	0.5	10.	0.	124.76
212	-5.2042e-015	10.	0.	125.55
213	-0.5	10.	0.	125.88
214	-1.	10.	0.	125.88
215	-1.5	10.	0.	125.78
216	-2.	10.	0.	125.75
217	-2.5	10.	0.	125.8
218	-3.	10.	0.	125.9
219	-3.5	10.	0.	125.92
220	-4.	10.	0.	125.75
221	-4.5	10.	0.	125.33
222	-5.	10.	0.	124.69
223	-5.5	10.	0.	123.98
224	-6.	10.	0.	123.38
225	-6.5	10.	0.	123.07
226	-7.	10.	0.	123.11
227	-7.5	10.	0.	123.44
228	-8.	10.	0.	123.92
229	-8.5	10.	0.	124.4
230	-9.	10.	0.	124.77
231	-9.5	10.	0.	124.97
232	10.	9.5	0.	124.55
233	10.	9.	0.	122.98
234	10.	8.5	0.	121.57
235	10.	8.	0.	121.13
236	10.	7.5	0.	121.73
237	10.	7.	0.	122.94
238	10.	6.5	0.	124.24
239	10.	6.	0.	125.26
240	10.	5.5	0.	125.94
241	10.	5.	0.	126.38
242	10.	4.5	0.	126.7
243	10.	4.	0.	126.9
244	10.	3.5	0.	126.87
245	10.	3.	0.	126.47
246	10.	2.5	0.	125.67
247	10.	2.	0.	124.61
248	10.	1.5	0.	123.61
249	10.	1.	0.	123.01
250	10.	0.5	0.	123.
251	10.	-5.2042e-015	0.	123.53
252	10.	-0.5	0.	124.44
253	10.	-1.	0.	125.67
254	10.	-1.5	0.	127.32
255	10.	-2.	0.	129.67
256	10.	-2.5	0.	133.01
257	10.	-3.	0.	137.03
258	10.	-3.5	0.	138.87
259	10.	-4.	0.	136.39
260	10.	-4.5	0.	133.31
261	10.	-5.	0.	134.11
262	10.	-5.5	0.	135.28
263	10.	-6.	0.	139.57
264	10.	-6.5	0.	141.79
265	10.	-7.	0.	138.45
266	10.	-7.5	0.	133.29
267	10.	-8.	0.	130.38
268	10.	-8.5	0.	130.28
269	10.	-9.	0.	132.26
270	10.	-9.5	0.	134.63
271	-10.	9.5	0.	125.03
272	-10.	9.	0.	125.38
273	-10.	8.5	0.	125.84
274	-10.	8.	0.	126.08
275	-10.	7.5	0.	125.83
276	-10.	7.	0.	125.08
277	-10.	6.5	0.	124.21
278	-10.	6.	0.	123.96
279	-10.	5.5	0.	124.91
280	-10.	5.	0.	126.98
281	-10.	4.5	0.	129.4
282	-10.	4.	0.	131.01
283	-10.	3.5	0.	130.89
284	-10.	3.	0.	129.25
285	-10.	2.5	0.	127.33
286	-10.	2.	0.	126.59
287	-10.	1.5	0.	127.61
288	-10.	1.	0.	130.27
289	-10.	0.5	0.	133.71
290	-10.	-5.2042e-015	0.	137.
291	-10.	-0.5	0.	137.81
292	-10.	-1.	0.	134.47
293	-10.	-1.5	0.	130.83
294	-10.	-2.	0.	130.84
295	-10.	-2.5	0.	131.28
296	-10.	-3.	0.	134.56
297	-10.	-3.5	0.	136.66
298	-10.	-4.	0.	134.64
299	-10.	-4.5	0.	130.94
300	-10.	-5.	0.	128.2
301	-10.	-5.5	0.	126.56
302	-10.	-6.	0.	125.72
303	-10.	-6.5	0.	125.28
304	-10.	-7.	0.	124.97
305	-10.	-7.5	0.	124.76
306	-10.	-8.	0.	124.84
307	-10.	-8.5	0.	125.29
308	-10.	-9.	0.	125.96
309	-10.	-9.5	0.	126.53
310	-9.5	-10.	0.	126.36
311	-9.	-10.	0.	126.49
312	-8.5	-10.	0.	126.69
313	-8.	-10.	0.	126.47
314	-7.5	-10.	0.	125.05
315	-7.	-10.	0.	121.36
316	-6.5	-10.	0.	116.79
317	-6.	-10.	0.	115.12
318	-5.5	-10.	0.	119.42
319	-5.	-10.	0.	125.12
320	-4.5	-10.	0.	128.09
321	-4.	-10.	0.	128.71
322	-3.5	-10.	0.	128.49
323	-3.	-10.	0.	128.03
324	-2.5	-10.	0.	127.54
325	-2.	-10.	0.	127.04
326	-1.5	-10.	0.	126.55
327	-1.	-10.	0.	126.08
328	-0.5	-10.	0.	125.71
329	5.2042e-015	-10.	0.	125.53
330	0.5	-10.	0.	125.63
331	1.	-10.	0.	126.06
332	1.5	-10.	0.	126.78
333	2.	-10.	0.	127.71
334	2.5	-10.	0.	128.77
335	3.	-10.	0.	129.93
336	3.5	-10.	0.	131.2
337	4.	-10.	0.	132.58
338	4.5	-10.	0.	133.93
339	5.	-10.	0.	134.71
340	5.5	-10.	0.	131.43
341	6.	-10.	0.	120.51
342	6.5	-10.	0.	109.07
343	7.	-10.	0.	104.27
344	7.5	-10.	0.	107.74
345	8.	-10.	0.	118.1
346	8.5	-10.	0.	128.65
347	9.	-10.	0.	132.55
348	9.5	-10.	0.	133.29
349	-3.3458	-2.8621	0.	131.73
350	-2.9912	-3.4365	0.	130.79
351	-3.9457	1.9563	0.	131.42
352	-3.0048	-5.4718	0.	127.51
353	-3.0093	-4.4552	0.	128.79
354	-3.9187	2.4432	0.	131.94
355	4.5504	-5.0213	0.	126.67
356	-3.7371	-2.8462	0.	131.57
357	-4.0681	-3.4081	0.	131.08
358	-5.6829	-0.37917	0.	126.38
359	-3.5207	-3.9074	0.	130.37
360	-2.4829	-3.4876	0.	129.43
361	-2.5001	-3.9799	0.	128.62
362	4.0264	-5.5219	0.	128.28
363	3.5241	-5.5206	0.	128.43
364	-3.0043	-5.9763	0.	127.34
365	-3.0068	-6.4793	0.	127.25
366	-3.4692	1.4226	0.	131.54
367	2.0365	-1.5217	0.	128.08
368	4.0532	-5.0305	0.	127.5
369	-3.3242	-2.3788	0.	131.64
370	4.0874	-4.546	0.	126.92
371	1.9513	-2.024	0.	128.42
372	1.9102	-2.5176	0.	129.34
373	-3.4855	0.89272	0.	132.98
374	-2.5049	-5.9841	0.	126.84
375	3.5482	-5.027	0.	128.3
376	3.5808	-4.5399	0.	128.46
377	-2.5047	-4.4788	0.	127.88
378	-2.5048	-4.9801	0.	127.25
379	-2.4499	-3.0031	0.	130.34
380	-2.8757	-2.4475	0.	132.15
381	-2.4235	-2.53	0.	131.37
382	-3.5071	-4.9555	0.	128.37
383	-3.5125	-4.4388	0.	129.27
384	2.1318	-1.0221	0.	128.85
385	-3.4478	1.9305	0.	130.81
386	1.4393	-2.0089	0.	127.81
387	3.5129	-6.0121	0.	128.77
388	5.191	-3.4488	0.	123.11
389	-4.1572	-2.8998	0.	131.38
390	2.7924	-3.4761	0.	131.84
391	3.5538	2.6413	0.	133.25
392	2.3874	-3.4645	0.	131.66
393	-3.5058	0.31811	0.	133.72
394	3.3678	0.36339	0.	129.77
395	2.2241	-0.52644	0.	130.48
396	1.6467	-0.97923	0.	127.36
397	-4.567	-3.4487	0.	130.12
398	4.5276	-5.5144	0.	128.15
399	5.0415	-5.0125	0.	125.92
400	3.927	0.27814	0.	128.69
401	-5.2448	4.8089	0.	132.75
402	-3.5079	-6.4679	0.	127.82
403	-2.5092	-6.9899	0.	126.97
404	5.0755	-4.5163	0.	124.76
405	3.0196	5.0227	0.	128.93
406	-4.0871	7.1456	0.	131.69
407	-3.766	-2.3579	0.	130.86
408	7.1218	-1.9899	0.	120.51
409	4.633	-4.0351	0.	124.4
410	3.1179	-4.0225	0.	130.63
411	2.3849	-2.9978	0.	131.08
412	2.523	3.515	0.	133.53
413	3.385	0.85311	0.	127.95
414	2.9615	1.9291	0.	130.9
415	-3.9663	1.4643	0.	131.86
416	-3.9575	0.11746	0.	133.09
417	3.0015	-7.0039	0.	129.19
418	-2.0063	-6.9943	0.	127.11
419	1.9221	-3.0128	0.	130.25
420	1.3286	-2.5727	0.	128.66
421	1.0541	-1.4172	0.	126.02
422	3.0228	-5.5109	0.	128.54
423	-2.0038	-5.4908	0.	126.22
424	-1.9948	-4.0011	0.	127.06
425	2.7881	-7.4133e-002	0.	131.7
426	2.9197	1.4121	0.	129.38
427	-2.9742	1.4142	0.	130.45
428	4.0157	-6.0141	0.	129.08
429	3.5065	-6.5077	0.	129.11
430	3.5031	-7.0049	0.	129.23
431	-1.9805	-3.5112	0.	127.11
432	-1.9593	-2.1246	0.	128.43
433	-3.2954	-1.8751	0.	130.73
434	3.0254	3.0189	0.	133.85
435	3.0195	4.5259	0.	129.61
436	-4.0293	-3.9252	0.	130.28
437	-4.0041	-5.458	0.	127.85
438	-3.8844	2.925	0.	133.36
439	-3.419	2.4268	0.	131.01
440	2.5279	-1.5479	0.	128.81
441	2.6147	-1.0565	0.	129.93
442	-4.6626	4.8216	0.	132.62
443	-4.7085	4.3569	0.	134.58
444	-3.3849	2.9147	0.	131.94
445	-2.8952	2.9135	0.	129.49
446	-4.0146	-4.4428	0.	129.23
447	3.0171	4.0293	0.	131.36
448	3.0158	3.5297	0.	133.09
449	-2.4027	-2.0801	0.	132.39
450	-1.9485	-2.5657	0.	128.37
451	-1.9627	-3.0322	0.	127.51
452	4.0083	-6.5092	0.	129.57
453	4.0039	-7.0056	0.	129.62
454	-2.9287	2.4218	0.	129.43
455	-2.9543	1.9233	0.	129.47
456	2.8957	0.91043	0.	129.48
457	-2.0008	-4.495	0.	126.83
458	-2.0032	-4.9908	0.	126.44
459	3.0393	-5.013	0.	128.96
460	3.0661	-4.5128	0.	129.74
461	0.93615	-1.9263	0.	127.41
462	0.79789	-2.4461	0.	128.48
463	1.015	-3.0307	0.	127.9
464	-2.0043	-5.991	0.	126.48
465	-2.0052	-6.492	0.	126.9
466	3.0106	-6.0084	0.	128.7
467	-3.9786	0.97777	0.	132.85
468	3.4199	1.8176	0.	130.05
469	3.3852	1.3409	0.	128.11
470	2.5265	4.0191	0.	131.33
471	2.5286	4.5202	0.	128.73
472	2.4533	-2.036	0.	129.
473	2.4054	-2.5189	0.	130.03
474	4.1346	-4.0601	0.	126.46
475	-3.7842	-0.83955	0.	129.
476	-3.7676	-1.8556	0.	129.33
477	6.6761	-1.9496	0.	121.23
478	6.9569	7.2506	0.	130.83
479	5.1229	-4.0034	0.	124.04
480	-4.0041	-5.9569	0.	128.26
481	7.0694	-2.4978	0.	120.61
482	-3.5731	7.599	0.	129.26
483	-4.0451	7.6146	0.	130.36
484	-4.5114	7.6306	0.	130.53
485	-3.5173	-6.971	0.	127.37
486	-3.5343	-7.479	0.	126.69
487	-3.0231	-7.4868	0.	126.77
488	-2.5155	-7.4914	0.	126.9
489	-2.0089	-7.4953	0.	127.04
490	-1.5053	-7.4975	0.	127.14
491	2.5001	-7.5013	0.	128.93
492	3.0006	-7.5023	0.	129.1
493	3.5015	-7.5033	0.	129.23
494	4.0018	-7.5035	0.	129.49
495	7.0015	4.978	0.	126.24
496	4.0102	5.0238	0.	130.96
497	0.56552	-1.3304	0.	126.09
498	-4.966	1.9972	0.	131.77
499	5.073	-2.9667	0.	120.44
500	5.0216	-5.5082	0.	127.84
501	7.6412	0.39708	0.	126.29
502	7.6339	-7.5531e-002	0.	127.17
503	7.6175	-0.55175	0.	126.3
504	7.6066	-1.0318	0.	124.21
505	7.6022	-1.5166	0.	121.79
506	7.5827	-2.0135	0.	119.62
507	7.5431	-2.5153	0.	117.91
508	1.7414	-0.48418	0.	129.42
509	1.161	-0.92163	0.	125.72
510	5.5336	-5.0122	0.	125.39
511	-0.59835	7.5255	0.	125.41
512	3.2685	-0.11963	0.	131.94
513	-1.9098	3.4279	0.	124.32
514	-4.2873	3.8816	0.	136.03
515	-4.0302	5.2683	0.	128.04
516	-2.3848	3.4125	0.	124.81
517	-3.8461	3.3998	0.	135.19
518	-4.0082	-6.4535	0.	128.71
519	-4.5332	-3.9536	0.	129.55
520	-4.5045	-5.4577	0.	127.15
521	-5.0557	-3.4832	0.	127.72
522	3.5155	3.0832	0.	133.48
523	3.5123	4.533	0.	130.16
524	3.0191	5.5202	0.	129.71
525	3.5178	5.5213	0.	130.65
526	-3.362	-0.2476	0.	131.87
527	-3.2507	-1.3509	0.	128.99
528	5.5626	-4.5217	0.	124.92
529	4.5019	-7.5027	0.	130.15
530	4.5146	-6.0097	0.	129.66
531	-2.4164	2.9211	0.	127.42
532	-2.9827	0.89184	0.	132.68
533	-2.4785	1.4361	0.	128.37
534	2.5258	3.0037	0.	134.34
535	-7.1271e-002	3.1379	0.	116.46
536	2.4446	1.4615	0.	130.35
537	2.304	-3.386e-002	0.	131.85
538	-1.4805	-3.5182	0.	124.22
539	-1.492	-4.0094	0.	125.58
540	2.57	-3.9313	0.	131.61
541	0.50543	-3.5005	0.	124.11
542	1.9524	-3.5039	0.	131.03
543	-1.5049	-6.9965	0.	127.46
544	-1.5026	-5.4971	0.	125.84
545	-1.0036	-7.4985	0.	126.88
546	2.	-7.5005	0.	128.36
547	0.49964	-7.4999	0.	122.63
548	2.5188	-5.5017	0.	128.67
549	2.501	-7.0021	0.	129.35
550	-4.47	1.4999	0.	131.81
551	-4.4221	0.10451	0.	133.8
552	4.0196	2.6496	0.	132.67
553	5.4544	2.935	0.	110.86
554	3.8768	0.80134	0.	126.45
555	3.5336	2.2375	0.	132.
556	7.6272	0.85488	0.	124.57
557	2.0344	5.0186	0.	125.22
558	2.0267	3.5139	0.	133.87
559	-6.4996	7.5368	0.	116.69
560	-4.1603	6.6808	0.	131.6
561	-4.5339	5.2845	0.	128.71
562	-5.9844	7.5084	0.	119.62
563	-4.5476	7.1798	0.	132.29
564	2.841	-3.013	0.	131.86
565	3.0142	-1.5732	0.	129.3
566	4.6693	-3.5382	0.	122.61
567	3.2247	-3.5415	0.	131.5
568	7.2006	0.3769	0.	128.81
569	7.1375	-1.503	0.	121.85
570	7.1407	-1.0239	0.	124.41
571	-3.8522	-0.33599	0.	131.34
572	-4.2105	-2.3854	0.	130.7
573	-4.6186	-2.9416	0.	130.81
574	-6.0365	-3.0585	0.	116.6
575	-3.899	5.7242	0.	128.13
576	-3.6201	7.1243	0.	130.69
577	-3.0962	7.5868	0.	127.24
578	-1.1191	7.5493	0.	125.09
579	7.3853	7.3729	0.	133.06
580	-1.627	7.563	0.	123.79
581	-2.124	7.5672	0.	123.06
582	-2.6116	7.5745	0.	124.67
583	-3.7798	6.1852	0.	130.59
584	-5.5609	-3.0237	0.	123.34
585	-5.0877	-2.9837	0.	128.46
586	-4.2369	-1.8725	0.	128.62
587	-4.2585	-1.3591	0.	127.45
588	-4.2718	-0.85176	0.	129.21
589	-4.3328	-0.36334	0.	132.08
590	-4.794	-0.35653	0.	133.61
591	7.1769	-8.5632e-002	0.	128.77
592	4.1787	-3.5761	0.	126.05
593	2.8823	-2.5366	0.	130.84
594	-4.9955	7.2363	0.	131.39
595	-5.4389	7.472	0.	126.6
596	-4.2587	6.2158	0.	129.42
597	-7.5143	7.5573	0.	125.8
598	2.0402	4.5182	0.	127.68
599	3.8449	1.7278	0.	129.48
600	3.8414	1.2827	0.	126.22
601	-4.4799	1.0256	0.	132.81
602	-5.242	-0.34221	0.	133.13
603	2.5089	-6.003	0.	128.8
604	0.99988	-7.5	0.	124.17
605	1.5	-7.5001	0.	126.7
606	-9.815e-004	-7.4998	0.	123.6
607	-1.5041	-6.4959	0.	127.28
608	1.4805	-3.5244	0.	129.28
609	2.5479	-4.4799	0.	130.78
610	-1.4984	-4.5037	0.	126.21
611	-1.5015	-4.9989	0.	125.94
612	2.4126	0.95694	0.	130.8
613	2.4817	1.9743	0.	131.58
614	2.5251	2.4887	0.	133.51
615	-2.4823	0.93892	0.	130.87
616	-2.4423	2.4284	0.	128.03
617	-2.463	1.9337	0.	127.69
618	4.5071	-6.5063	0.	130.57
619	4.5038	-7.0046	0.	130.48
620	5.6783	-3.5526	0.	126.82
621	-1.4748	-2.5694	0.	122.73
622	-1.4672	-3.0316	0.	122.56
623	-0.9846	-3.5182	0.	122.
624	-0.48975	-3.5328	0.	121.94
625	-2.2502	-1.6828	0.	133.53
626	-2.4614	0.44497	0.	134.77
627	-2.9568	0.34756	0.	135.01
628	3.5285	6.5156	0.	131.97
629	3.5219	6.018	0.	131.78
630	7.5025	5.9674	0.	128.56
631	7.4963	6.4463	0.	130.82
632	7.502	3.4649	0.	128.09
633	7.5013	3.9757	0.	126.83
634	6.0087	2.4277	0.	110.11
635	4.4968	2.6839	0.	128.81
636	4.971	2.7301	0.	119.82
637	3.5088	4.0441	0.	131.3
638	3.5072	3.5592	0.	132.77
639	-5.5425	-3.5126	0.	123.14
640	-6.0299	-3.5372	0.	118.13
641	-4.508	-4.9596	0.	127.57
642	-4.5161	-4.4578	0.	128.73
643	-4.0407	-7.4548	0.	126.59
644	-4.0191	-6.9509	0.	128.26
645	-3.3494	3.3961	0.	133.4
646	-2.8641	3.4004	0.	129.29
647	-4.1429	4.8115	0.	130.83
648	-4.2182	4.3481	0.	134.7
649	-0.49861	3.4178	0.	122.62
650	-1.4389	3.4397	0.	127.2
651	-0.96949	3.4404	0.	127.37
652	6.6829	-1.4719	0.	121.72
653	5.4536	-2.9623	0.	126.01
654	6.6266	-2.4427	0.	123.68
655	3.1803	-0.60536	0.	132.57
656	3.0962	-1.0892	0.	131.15
657	-0.6319	7.0293	0.	126.88
658	4.5873	7.5153	0.	127.76
659	-4.5391	-8.2066	0.	126.24
660	-4.0995	-7.9947	0.	125.98
661	-3.5496	-7.9905	0.	126.4
662	-1.5057	-7.9978	0.	126.77
663	-0.5021	-7.9994	0.	125.38
664	1.4999	-8.0001	0.	126.39
665	4.001	-8.0022	0.	129.62
666	4.4817	0.37183	0.	127.61
667	-6.5261	7.058	0.	110.88
668	7.2001	0.83855	0.	125.21
669	-0.53444	2.9639	0.	119.63
670	7.5051	-3.0136	0.	116.14
671	0.67587	-0.85204	0.	124.23
672	7.0024	5.4658	0.	126.08
673	4.0074	4.534	0.	130.35
674	-4.5657	-7.8037	0.	124.97
675	-4.504	-5.9512	0.	128.14
676	-3.2709	-0.81212	0.	129.18
677	0.52873	-2.9542	0.	127.04
678	1.2568	-0.43551	0.	127.26
679	-8.0017	-7.5372	0.	125.24
680	-8.0031	-8.035	0.	123.91
681	4.5493	8.0215	0.	124.26
682	7.8598	7.4782	0.	130.16
683	7.9504	6.9862	0.	130.58
684	8.0007	4.4845	0.	126.47
685	8.0976	-5.6672e-002	0.	125.82
686	8.0731	-1.5216	0.	122.05
687	-8.1261	4.533	0.	127.22
688	-7.8287	5.1049	0.	125.33
689	-8.0156	7.5483	0.	128.29
690	-7.0003	8.0348	0.	121.56
691	-5.4839	8.014	0.	124.88
692	-3.5445	8.0769	0.	127.95
693	-2.5737	8.0587	0.	124.97
694	-2.082	8.0513	0.	124.1
695	-1.5857	8.043	0.	124.21
696	-1.0826	8.0301	0.	124.84
697	-0.57296	8.0138	0.	125.39
698	5.5163	-5.5057	0.	126.88
699	-1.151	7.0788	0.	126.84
700	-4.662	-2.4316	0.	131.51
701	4.6566	-3.0509	0.	118.95
702	3.2931	-3.055	0.	132.91
703	-6.0299	7.0137	0.	116.47
704	1.5271	3.5217	0.	133.42
705	4.3636	0.82848	0.	125.05
706	4.032	2.1542	0.	132.88
707	-5.1655	4.3541	0.	133.
708	-4.7794	3.893	0.	135.44
709	2.0136	-5.498	0.	128.44
710	2.0007	-7.0008	0.	129.53
711	0.49981	-6.9999	0.	119.94
712	-1.0034	-6.9983	0.	127.92
713	0.50193	-4.0082	0.	120.56
714	2.0173	-3.9905	0.	131.87
715	-1.0015	-5.5007	0.	125.6
716	-0.99292	-4.0144	0.	125.05
717	1.9631	1.4905	0.	130.71
718	1.8213	5.4371e-003	0.	132.45
719	0.476	3.0777	0.	117.46
720	2.0191	3.0086	0.	134.96
721	-1.9105	0.14372	0.	131.6
722	-1.9825	1.4621	0.	125.29
723	-1.9378	2.9345	0.	127.28
724	2.021	5.5168	0.	125.36
725	6.2569	-3.2283	0.	129.59
726	-7.532e-003	-3.0887	0.	124.46
727	4.0507	7.0145	0.	130.94
728	7.0011	2.9451	0.	127.54
729	4.0031	3.1127	0.	132.62
730	-6.5163	-4.028	0.	115.36
731	3.494	-1.6028	0.	128.77
732	-0.68528	6.4989	0.	131.17
733	4.1833	-0.16648	0.	128.78
734	3.6628	-0.64007	0.	134.56
735	3.5803	-1.1169	0.	132.69
736	6.0092	-2.6581	0.	129.95
737	6.19	-2.2784	0.	126.15
738	6.2585	-1.8787	0.	121.95
739	6.2326	-1.4417	0.	121.38
740	-1.424	3.9383	0.	128.57
741	-3.6492	4.8025	0.	131.97
742	-3.7313	4.3408	0.	135.83
743	-3.3081	3.8724	0.	136.27
744	-2.8332	3.8827	0.	129.14
745	-7.4134	-7.6075	0.	124.26
746	-7.5224	-8.0584	0.	122.78
747	-4.5402	-7.3919	0.	127.93
748	-4.5172	-6.9224	0.	130.2
749	-7.9745	-6.5425	0.	129.08
750	-5.0045	-6.4366	0.	130.21
751	-5.0033	-5.9545	0.	127.02
752	-5.0078	-4.9719	0.	126.88
753	-5.5257	-4.0032	0.	124.55
754	-6.0204	-4.0204	0.	118.3
755	-7.0133	-4.0246	0.	120.17
756	-7.9997	-5.0143	0.	124.12
757	4.0034	4.0512	0.	131.19
758	3.9994	3.5773	0.	132.24
759	4.4842	3.1261	0.	128.75
760	4.9602	3.1175	0.	119.17
761	5.9863	2.9466	0.	112.55
762	7.0001	3.462	0.	127.18
763	7.0002	3.9732	0.	126.47
764	7.006	5.9439	0.	127.3
765	7.0104	6.4063	0.	129.44
766	4.5703	7.0089	0.	130.7
767	4.0361	6.5152	0.	133.11
768	4.0219	6.0161	0.	132.72
769	-8.0064	-4.0098	0.	122.53
770	-7.5099	-4.0162	0.	125.08
771	-7.009	-3.0594	0.	121.03
772	-6.9792	-2.6087	0.	121.3
773	-2.8493	-0.23549	0.	136.11
774	-2.7171	-0.81324	0.	127.29
775	-0.96983	-3.0108	0.	118.23
776	-0.47495	-3.0524	0.	119.68
777	0.2948	-2.2795	0.	128.43
778	6.9516	-3.0429	0.	122.75
779	6.4663	-2.8466	0.	127.52
780	6.111	-3.6257	0.	129.14
781	6.0792	-4.0517	0.	127.33
782	5.0051	-6.5028	0.	132.35
783	5.0027	-7.002	0.	132.24
784	-0.11291	6.5222	0.	124.08
785	2.0066	6.0122	0.	126.23
786	3.0197	6.5129	0.	132.23
787	-1.4621	2.9472	0.	127.47
788	-1.9727	1.9515	0.	126.61
789	-1.9834	0.98022	0.	127.61
790	-1.9847	0.53415	0.	130.58
791	1.9877	1.9953	0.	132.7
792	2.0093	2.5019	0.	134.7
793	0.99805	3.0395	0.	125.81
794	1.3375	4.4648e-002	0.	131.52
795	1.9328	0.98973	0.	132.73
796	4.9227e-003	-4.0174	0.	121.87
797	-0.49422	-4.0195	0.	124.67
798	-1.0003	-5.0039	0.	126.56
799	2.0297	-4.4888	0.	131.86
800	1.5036	-4.0088	0.	130.34
801	1.0004	-4.0101	0.	124.87
802	-1.002	-5.9991	0.	127.31
803	-1.0026	-6.4984	0.	128.42
804	-7.9879e-004	-6.9998	0.	122.68
805	1.5007	-7.0001	0.	128.17
806	2.0073	-5.9998	0.	129.53
807	-4.9161	2.9575	0.	133.25
808	-4.861	3.4288	0.	134.89
809	-5.8744	3.2128e-002	0.	121.38
810	-5.3727	9.2335e-002	0.	132.34
811	-4.9797	1.0388	0.	132.76
812	5.0293	2.3149	0.	120.68
813	4.228	1.7278	0.	130.21
814	7.4507	1.3088	0.	126.2
815	7.004	2.4224	0.	129.93
816	1.5244	5.5172	0.	125.08
817	1.4945	6.0116	0.	124.98
818	1.0215	3.5438	0.	126.51
819	1.5565	4.5193	0.	128.16
820	-7.027	7.0838	0.	119.43
821	-8.0195	6.5754	0.	129.37
822	-4.8521	5.7921	0.	127.9
823	-5.0888	6.817	0.	134.56
824	3.4137	-2.0874	0.	130.04
825	3.3469	-2.5717	0.	132.52
826	3.749	-3.0933	0.	132.05
827	4.2064	-3.0972	0.	126.15
828	-5.6981	3.9829	0.	126.17
829	-7.6774	4.6493	0.	124.85
830	-7.0315	3.858	0.	112.03
831	-6.5569	3.9187	0.	109.17
832	-0.94954	3.9358	0.	134.52
833	-0.46781	3.8851	0.	127.92
834	6.6824	-0.53588	0.	127.29
835	6.7224	-7.7317e-002	0.	128.11
836	4.6585	-6.7326e-002	0.	124.8
837	6.2024	-0.97582	0.	122.49
838	5.1939	-1.0004	0.	122.05
839	5.722	-0.96702	0.	123.45
840	-4.7232	-0.84244	0.	130.42
841	-5.4779	-0.72623	0.	132.16
842	-5.5797	-2.5314	0.	124.63
843	-5.1195	-2.486	0.	131.31
844	-3.2017	6.6272	0.	131.63
845	-3.2859	6.1597	0.	131.62
846	-1.0137	5.8626	0.	137.26
847	-1.1568	6.265	0.	133.15
848	-1.1915	6.6477	0.	130.34
849	-2.6569	7.0877	0.	124.24
850	-1.6639	7.0887	0.	123.19
851	-2.1633	7.0791	0.	121.42
852	6.0115	-5.5053	0.	125.25
853	-4.488	-8.6259	0.	127.4
854	-4.0199	-8.5326	0.	126.87
855	-3.5253	-8.5015	0.	126.93
856	-3.0193	-8.4954	0.	127.01
857	-2.5134	-8.4954	0.	126.99
858	-2.0092	-8.4966	0.	126.86
859	-1.5059	-8.4979	0.	126.57
860	-0.50172	-8.4995	0.	125.43
861	-1.1302e-003	-8.4997	0.	124.88
862	0.49929	-8.4998	0.	124.81
863	0.99969	-8.5	0.	125.39
864	1.4998	-8.5001	0.	126.43
865	2.4999	-8.5004	0.	128.46
866	3.	-8.5007	0.	129.17
867	3.5002	-8.501	0.	129.73
868	4.0004	-8.5012	0.	130.21
869	4.5003	-8.5009	0.	130.74
870	5.0002	-8.5005	0.	131.33
871	5.0902	6.9723	0.	127.16
872	6.5392	6.8123	0.	124.29
873	-5.6656e-002	8.0011	0.	126.37
874	-7.5132	-5.7389e-003	0.	123.01
875	8.5509	8.0698	0.	124.37
876	8.3927	7.5939	0.	126.23
877	8.4505	7.0366	0.	128.03
878	8.4801	6.5146	0.	128.33
879	8.4931	6.0048	0.	127.82
880	8.4979	5.4994	0.	127.1
881	8.4994	4.9948	0.	126.65
882	8.5	4.4904	0.	126.64
883	8.4994	3.4759	0.	127.6
884	8.4984	2.9663	0.	127.96
885	8.4975	2.4584	0.	127.76
886	8.4986	1.9506	0.	126.73
887	8.512	1.4504	0.	125.41
888	8.5409	0.95329	0.	124.69
889	8.5612	0.45595	0.	124.85
890	8.5578	-0.52889	0.	125.06
891	8.5529	-1.0216	0.	124.31
892	8.5507	-1.5179	0.	123.07
893	8.5262	-2.5102	0.	119.69
894	8.5152	-3.0055	0.	117.71
895	5.5073	-6.0024	0.	129.92
896	-4.9496	-8.6859	0.	127.77
897	3.0146	8.0042	0.	127.51
898	-8.046	4.0661	0.	126.72
899	-8.5081	1.1396e-003	0.	122.85
900	-8.5219	4.01	0.	130.62
901	-8.5471	4.4857	0.	128.39
902	-8.3859	4.9724	0.	126.12
903	-8.4857	6.0398	0.	124.44
904	-8.5085	6.544	0.	127.02
905	-8.515	7.041	0.	128.33
906	-8.5135	7.5342	0.	128.03
907	-8.5099	8.0261	0.	126.92
908	-8.5063	8.5185	0.	125.94
909	-8.0052	8.5235	0.	125.38
910	-7.5023	8.5251	0.	124.14
911	-6.9981	8.5218	0.	122.67
912	-5.9918	8.5097	0.	122.83
913	-5.4949	8.5181	0.	124.63
914	-3.5267	8.5558	0.	126.95
915	-2.5436	8.5427	0.	125.22
916	-2.0496	8.5362	0.	124.71
917	-1.5524	8.5293	0.	124.73
918	-1.0504	8.5178	0.	125.19
919	-0.54515	8.5068	0.	126.04
920	3.0069	8.503	0.	127.75
921	3.5118	8.5068	0.	125.58
922	4.507	8.5263	0.	126.28
923	7.6662	7.9439	0.	125.77
924	7.4799	8.416	0.	129.
925	8.0381	8.5138	0.	125.78
926	8.5323	8.5342	0.	124.2
927	-6.9545	-8.7611	0.	125.23
928	-7.4409	-8.5436	0.	126.89
929	-7.9905	-8.5282	0.	125.29
930	-8.5033	-8.5158	0.	125.37
931	-8.5025	-8.0203	0.	124.87
932	-8.4986	-7.5224	0.	125.41
933	-8.4859	-7.0249	0.	126.77
934	-8.484	-6.5248	0.	127.16
935	-8.4887	-6.021	0.	126.05
936	-8.4942	-5.5163	0.	124.65
937	-8.4986	-5.0124	0.	123.67
938	-8.5018	-4.5093	0.	122.58
939	-4.6984	-1.9164	0.	128.9
940	-1.6905	6.6196	0.	123.54
941	-2.196	6.574	0.	115.96
942	-5.1509	-1.9971	0.	135.04
943	-5.188	-1.5565	0.	126.09
944	-4.7623	-1.3752	0.	126.19
945	5.2239	-0.49291	0.	120.18
946	5.7142	-0.46236	0.	114.59
947	6.2049	-0.49696	0.	121.66
948	-7.0975	4.2874	0.	119.35
949	-6.6152	4.3431	0.	105.91
950	-6.112	4.0068	0.	114.64
951	-9.0005	-4.5064	0.	124.39
952	-8.9984	-5.0086	0.	124.92
953	-8.9956	-5.5102	0.	125.34
954	-8.9927	-6.0118	0.	125.9
955	-8.9913	-6.5126	0.	126.26
956	-8.9937	-7.0122	0.	126.07
957	-8.9995	-7.5113	0.	125.56
958	-9.0032	-8.0102	0.	125.28
959	-9.0049	-8.5083	0.	125.52
960	8.5115	9.0125	0.	125.21
961	7.484	8.9333	0.	134.52
962	4.492	9.0238	0.	128.87
963	3.5013	9.0053	0.	126.22
964	3.0021	9.0024	0.	127.4
965	2.5005	9.0008	0.	127.45
966	1.494	8.9986	0.	120.86
967	0.98958	8.9973	0.	123.39
968	-1.0269	9.0099	0.	125.53
969	-1.5284	9.0183	0.	125.2
970	-2.5233	9.0278	0.	125.42
971	-4.5061	9.0351	0.	126.16
972	-6.4968	9.009	0.	123.14
973	-6.9985	9.0129	0.	123.38
974	-7.5008	9.0151	0.	124.07
975	-8.0026	9.0144	0.	124.77
976	-8.5034	9.0117	0.	125.2
977	-9.0077	8.0167	0.	126.57
978	-9.0095	7.5208	0.	126.99
979	-9.009	7.0233	0.	126.9
980	-9.0022	6.5224	0.	126.03
981	-8.9858	6.0172	0.	125.19
982	-8.9985	2.5042	0.	131.08
983	9.	-8.5	0.	129.58
984	9.	-8.	0.	129.35
985	9.	-7.5	0.	128.39
986	-8.5077	-9.0111	0.	126.12
987	-8.01	-9.0199	0.	126.42
988	-7.5194	-9.0499	0.	126.36
989	-7.0623	-9.1411	0.	124.27
990	-4.9741	-9.1117	0.	128.28
991	-4.4851	-9.0777	0.	128.26
992	-3.9987	-9.0326	0.	128.
993	-3.5069	-9.0078	0.	127.71
994	-3.0089	-8.9992	0.	127.48
995	-2.5078	-8.9974	0.	127.23
996	-1.5043	-8.9984	0.	126.52
997	-1.0027	-8.9991	0.	126.04
998	-0.50176	-8.9995	0.	125.56
999	-9.4802e-004	-8.9998	0.	125.25
1000	0.99966	-9.	0.	125.76
1001	1.4998	-9.	0.	126.59
1002	1.9999	-9.0001	0.	127.58
1003	2.4999	-9.0002	0.	128.56
1004	3.	-9.0004	0.	129.48
1005	3.5	-9.0006	0.	130.36
1006	4.0001	-9.0007	0.	131.21
1007	4.5001	-9.0005	0.	131.95
1008	3.8002	-2.6124	0.	137.69
1009	-5.1667	6.3511	0.	141.17
1010	1.0548	4.0334	0.	137.41
1011	0.9704	6.0075	0.	132.43
1012	4.6257	1.8038	0.	140.84
1013	-5.4521	0.55255	0.	133.28
1014	-5.3863	3.4605	0.	133.82
1015	-8.5036	0.50097	0.	130.25
1016	-8.4862	3.5167	0.	134.54
1017	1.502	-6.4999	0.	131.89
1018	-0.50142	-6.4996	0.	130.43
1019	1.5138	-4.5009	0.	133.36
1020	-0.49766	-4.5108	0.	129.12
1021	1.4055	0.52302	0.	137.67
1022	1.501	2.5129	0.	136.05
1023	-1.4829	0.45021	0.	123.18
1024	-1.4745	2.4585	0.	130.27
1025	2.511	6.5098	0.	134.23
1026	0.42938	6.4995	0.	123.83
1027	5.0001	-9.0003	0.	132.67
1028	6.005	-6.0018	0.	126.27
1029	5.5034	-6.5011	0.	134.92
1030	6.5899	-3.5031	0.	130.86
1031	9.0194	8.5239	0.	123.81
1032	8.9611	7.5364	0.	124.93
1033	8.9653	7.0304	0.	126.02
1034	8.9824	6.5182	0.	126.65
1035	8.9924	6.0093	0.	126.75
1036	8.9994	4.4939	0.	126.6
1037	8.9996	3.9899	0.	126.81
1038	8.9984	3.4839	0.	127.03
1039	8.9984	2.9794	0.	127.06
1040	9.025	0.9754	0.	124.66
1041	9.0365	0.47537	0.	124.64
1042	9.04	-2.1942e-002	0.	124.87
1043	9.0364	-0.51772	0.	125.02
1044	9.0335	-1.014	0.	124.96
1045	9.0319	-1.5116	0.	124.72
1046	9.0245	-2.0084	0.	124.38
1047	9.017	-2.506	0.	124.2
1048	9.0104	-3.0039	0.	124.59
1049	9.	-7.	0.	128.91
1050	4.9783	9.0445	0.	142.61
1051	0.36115	0.12884	0.	132.34
1052	-0.39098	-2.5928	0.	122.2
1053	-9.0044	6.9159e-004	0.	126.58
1054	-7.5518	-0.49916	0.	128.07
1055	-7.5095	-3.5173	0.	128.01
1056	-9.0014	-4.0044	0.	123.45
1057	4.5397	6.5063	0.	134.86
1058	6.5175	6.3955	0.	125.18
1059	6.4963	3.465	0.	125.24
1060	4.4928	3.5758	0.	131.35
1061	-7.5062	-4.5131	0.	127.03
1062	-5.5135	-4.4944	0.	128.
1063	-5.4995	-6.4522	0.	125.71
1064	-7.4664	-6.5627	0.	130.95
1065	-5.011	-6.9103	0.	135.98
1066	-5.4637	-9.1108	0.	125.72
1067	-3.2555	4.3429	0.	141.67
1068	-0.95219	4.4468	0.	141.28
1069	5.8378	-1.9648	0.	122.82
1070	-9.0032	9.0079	0.	125.38
1071	9.0109	9.0137	0.	124.41
1072	9.	-9.	0.	130.93
1073	-9.0056	-9.0061	0.	125.99
1074	4.1653	-0.64328	0.	133.01
1075	3.8756	-2.1299	0.	128.93
1076	4.0645	-1.1302	0.	137.14
1077	3.9662	-1.6325	0.	133.77
1078	-5.2761	5.8706	0.	123.85
1079	-5.5002	5.4133	0.	141.66
1080	-6.0987	4.5093	0.	114.99
1081	-5.7782	4.9688	0.	121.74
1082	-7.1655	4.7303	0.	125.51
1083	-7.2965	5.1858	0.	123.49
1084	-7.0529	6.6314	0.	120.85
1085	-5.6053	6.4471	0.	132.12
1086	-6.0722	6.5238	0.	109.84
1087	-0.46702	4.4489	0.	140.3
1088	5.36e-002	4.2354	0.	114.92
1089	-0.43709	5.5004	0.	132.44
1090	0.40434	5.9691	0.	106.99
1091	1.0833	4.5192	0.	130.25
1092	1.0697	5.018	0.	127.56
1093	1.0332	5.5189	0.	130.58
1094	6.2549	-2.5152e-002	0.	126.38
1095	6.4051	0.41225	0.	122.07
1096	6.7371	0.82593	0.	137.44
1097	5.1625	-1.4048e-002	0.	124.88
1098	4.6926	1.3444	0.	122.51
1099	4.8276	0.89101	0.	138.32
1100	4.9995	0.44299	0.	122.74
1101	5.0665	1.8676	0.	124.39
1102	5.5381	1.9019	0.	103.81
1103	6.5104	1.9073	0.	124.96
1104	6.0247	1.9118	0.	105.33
1105	-5.4841	1.0287	0.	131.83
1106	-5.4882	1.5134	0.	133.7
1107	-5.4826	2.0023	0.	135.29
1108	-5.4719	2.4923	0.	133.78
1109	-8.501	1.0008	0.	131.15
1110	-8.5002	1.5011	0.	134.18
1111	-8.4997	2.0022	0.	136.21
1112	-8.4932	3.011	0.	133.61
1113	-8.4986	2.5046	0.	134.83
1114	1.001	-6.4999	0.	124.21
1115	-5.8552e-004	-6.4999	0.	123.35
1116	0.50004	-6.5	0.	113.23
1117	1.0049	-4.5045	0.	125.14
1118	0.5025	-4.5053	0.	113.5
1119	2.4577e-003	-4.5086	0.	122.97
1120	1.4574	1.0077	0.	136.12
1121	1.4801	1.5032	0.	134.63
1122	1.4925	2.0058	0.	134.51
1123	0.92155	0.54389	0.	129.96
1124	0.43107	0.56364	0.	124.06
1125	-6.1273e-002	0.57725	0.	119.6
1126	-0.97713	0.56031	0.	114.65
1127	-0.52556	0.59461	0.	108.79
1128	0.9938	2.5237	0.	127.47
1129	0.48553	2.5411	0.	116.8
1130	-1.6025e-002	2.5483	0.	115.82
1131	-0.50495	2.4972	0.	115.16
1132	-0.99267	2.4751	0.	123.69
1133	-1.4889	0.98	0.	125.37
1134	-1.4847	1.9701	0.	127.5
1135	-1.4893	1.4781	0.	126.
1136	2.0015	6.5066	0.	127.1
1137	0.96308	6.5013	0.	125.08
1138	1.4877	6.5044	0.	116.78
1139	1.999	8.4999	0.	124.46
1140	1.4947	8.4993	0.	113.81
1141	-5.9573	0.5086	0.	122.24
1142	-6.4685	0.46134	0.	109.07
1143	-8.0031	0.49956	0.	124.65
1144	-7.4976	0.49368	0.	114.68
1145	-6.9836	0.47688	0.	111.7
1146	-7.9412	3.5499	0.	124.47
1147	-5.9393	3.5411	0.	123.11
1148	-6.4894	3.4686	0.	108.78
1149	-6.9903	3.4308	0.	111.28
1150	-7.4644	3.409	0.	113.15
1151	1.5042	-5.9991	0.	131.24
1152	1.5072	-5.4986	0.	131.3
1153	1.5116	-4.9985	0.	131.99
1154	-0.50094	-6.0003	0.	129.49
1155	-0.49966	-5.0049	0.	128.76
1156	-0.50049	-5.5017	0.	129.19
1157	2.5065	8.0017	0.	130.32
1158	2.5101	7.0062	0.	132.44
1159	2.5086	7.5033	0.	131.19
1160	0.46796	7.996	0.	128.92
1161	0.45649	7.4994	0.	127.32
1162	0.44832	7.0031	0.	125.94
1163	8.5	-7.	0.	123.62
1164	8.5	-9.	0.	129.63
1165	8.5	-8.5	0.	130.53
1166	8.5	-8.	0.	131.21
1167	8.5	-7.5	0.	128.21
1168	6.002	-6.5006	0.	128.39
1169	6.501	-6.5001	0.	118.58
1170	5.5001	-9.0001	0.	132.38
1171	5.5001	-8.5002	0.	134.19
1172	5.5016	-7.0007	0.	134.06
1173	5.5007	-7.5005	0.	135.39
1174	5.5003	-8.0003	0.	136.26
1175	6.5027	-6.0011	0.	122.25
1176	6.5064	-5.5036	0.	126.73
1177	6.5134	-5.0083	0.	130.19
1178	6.5478	-4.0191	0.	129.24
1179	6.5262	-4.5145	0.	130.66
1180	7.0484	-3.5353	0.	122.36
1181	7.516	-3.509	0.	112.77
1182	8.0095	-3.504	0.	113.27
1183	9.0051	-3.502	0.	127.01
1184	8.5072	-3.5034	0.	114.39
1185	9.	-6.5	0.	130.86
1186	8.5	-6.5	0.	120.69
1187	7.0004	-6.5001	0.	113.07
1188	7.5002	-6.5	0.	104.61
1189	8.0001	-6.5	0.	114.54
1190	7.2026	7.8176	0.	132.71
1191	6.8079	7.5951	0.	129.32
1192	6.0792	6.888	0.	105.25
1193	6.4957	7.2314	0.	120.08
1194	5.4787	7.1634	0.	129.11
1195	5.1568	7.5092	0.	125.39
1196	4.9832	8.5595	0.	125.47
1197	5.0576	8.0536	0.	135.94
1198	5.4673	9.0615	0.	124.97
1199	6.9683	8.8669	0.	135.46
1200	0.29454	-0.31521	0.	121.79
1201	0.19194	-0.77472	0.	132.65
1202	7.8103e-002	-1.2414	0.	129.72
1203	-0.19896	-2.1653	0.	132.94
1204	-4.6959e-002	-1.7092	0.	124.52
1205	-2.2523	-0.46894	0.	148.8
1206	-0.15125	0.16218	0.	120.7
1207	-0.71334	0.16065	0.	107.81
1208	-1.2527	-1.7219e-002	0.	116.85
1209	-1.7466	-0.22602	0.	119.93
1210	-0.96781	-2.4576	0.	110.59
1211	-2.0023	-1.3415	0.	137.66
1212	-1.7083	-1.6573	0.	121.46
1213	-1.4199	-2.0903	0.	122.16
1214	-9.0042	-0.49982	0.	124.46
1215	-8.0238	-0.49802	0.	122.31
1216	-8.5096	-0.49953	0.	112.18
1217	-7.5811	-0.99277	0.	127.03
1218	-7.6026	-1.4858	0.	131.
1219	-7.6072	-1.9683	0.	138.43
1220	-7.5012	-3.008	0.	129.21
1221	-7.473	-2.4631	0.	137.28
1222	-8.0049	-3.5066	0.	123.04
1223	-9.0012	-3.5021	0.	124.12
1224	-8.5025	-3.5034	0.	112.43
1225	5.0363	6.4788	0.	123.87
1226	6.0299	6.4261	0.	113.73
1227	5.5326	6.4334	0.	106.87
1228	6.5051	5.946	0.	124.4
1229	6.5007	5.4714	0.	127.82
1230	6.5002	4.9823	0.	129.52
1231	6.499	3.9783	0.	125.67
1232	6.5003	4.4837	0.	127.88
1233	5.9912	3.4711	0.	115.23
1234	4.9915	3.5434	0.	119.32
1235	5.4894	3.4845	0.	105.45
1236	4.501	4.0414	0.	129.99
1237	4.5043	4.5233	0.	132.46
1238	4.5058	5.0148	0.	134.36
1239	4.516	6.0079	0.	133.08
1240	4.5083	5.5101	0.	133.51
1241	-7.0076	-4.513	0.	120.6
1242	-6.0107	-4.5077	0.	119.05
1243	-6.5087	-4.5128	0.	109.
1244	-5.5057	-4.9871	0.	126.99
1245	-5.5018	-5.9703	0.	125.17
1246	-5.503	-5.4805	0.	126.09
1247	-5.9918	-6.4918	0.	112.71
1248	-6.9695	-6.5665	0.	119.48
1249	-6.4815	-6.5337	0.	106.81
1250	-7.4872	-6.0332	0.	128.88
1251	-7.501	-5.0121	0.	125.9
1252	-7.4964	-5.5172	0.	126.84
1253	-5.3955	-8.6958	0.	129.75
1254	-5.3263	-8.2837	0.	127.3
1255	-5.0957	-7.8691	0.	129.5
1256	-5.9554	-9.0393	0.	105.57
1257	-6.4486	-8.8306	0.	118.39
1258	-7.1059	-8.1714	0.	125.3
1259	-6.7545	-8.4191	0.	125.47
1260	-6.9257	-7.1565	0.	124.79
1261	-6.4496	-7.0702	0.	110.88
1262	-5.9773	-6.9854	0.	107.05
1263	-6.4173	-0.11835	0.	104.14
1264	-6.0669	-0.5437	0.	116.3
1265	-5.4967	-1.1003	0.	132.31
1266	-5.7915	-0.88405	0.	122.71
1267	-5.6026	-2.0304	0.	130.01
1268	-6.8935	-2.2624	0.	117.45
1269	-6.4806	-2.1924	0.	105.13
1270	-7.2298	-1.9967	0.	140.9
1271	-7.2178	-1.4873	0.	136.87
1272	-7.0894	-0.51769	0.	130.35
1273	-7.1649	-1.0009	0.	126.82
1274	-3.1769	4.803	0.	128.01
1275	-3.0475	5.2431	0.	139.3
1276	-2.7702	6.1189	0.	133.67
1277	-2.901	5.6751	0.	131.9
1278	-1.6545	6.1694	0.	128.2
1279	-1.1006	4.9182	0.	122.1
1280	-1.2887	5.3596	0.	145.99
1281	-1.4317	4.4455	0.	131.85
1282	-1.8846	4.4251	0.	112.99
1283	-2.7923	4.3622	0.	132.59
1284	-2.3379	4.3926	0.	108.42
1285	4.719	-0.65235	0.	114.4
1286	5.7944	-1.4493	0.	127.7
1287	5.3991	-1.4449	0.	125.16
1288	-9.0015	9.5039	0.	124.91
1289	-8.5016	9.5057	0.	124.67
1290	-8.0011	9.5069	0.	124.32
1291	-7.5002	9.507	0.	123.93
1292	-6.9993	9.5062	0.	123.62
1293	-6.4987	9.5045	0.	123.56
1294	-5.999	9.504	0.	123.84
1295	-5.5001	9.5065	0.	124.38
1296	-5.0017	9.5116	0.	124.98
1297	-4.5038	9.5174	0.	125.47
1298	-4.0049	9.5186	0.	125.76
1299	-3.5063	9.5175	0.	125.84
1300	-3.0079	9.5159	0.	125.76
1301	-2.5095	9.5137	0.	125.63
1302	-2.0111	9.5112	0.	125.54
1303	-1.5117	9.5085	0.	125.56
1304	-1.0112	9.5045	0.	125.67
1305	-0.51014	9.5007	0.	125.86
1306	-8.8793e-003	9.4983	0.	125.96
1307	0.49268	9.4977	0.	125.45
1308	0.99459	9.4985	0.	124.32
1309	1.4965	9.499	0.	123.8
1310	1.9981	9.4997	0.	124.88
1311	2.4992	9.5003	0.	126.4
1312	2.9995	9.5013	0.	127.17
1313	3.499	9.5033	0.	127.35
1314	3.9968	9.5069	0.	127.61
1315	4.4944	9.513	0.	129.58
1316	4.991	9.5208	0.	129.77
1317	5.4912	9.522	0.	123.52
1318	5.9926	9.5011	0.	117.37
1319	6.4927	9.4699	0.	122.03
1320	6.9905	9.4472	0.	126.77
1321	7.4911	9.4653	0.	129.02
1322	7.996	9.4908	0.	127.17
1323	8.5016	9.5033	0.	126.07
1324	9.0037	9.5058	0.	125.37
1325	9.5027	9.5036	0.	124.75
1326	9.5057	9.0074	0.	123.83
1327	9.5082	8.5104	0.	123.2
1328	9.5021	8.0122	0.	123.14
1329	9.4863	7.5138	0.	123.69
1330	9.484	7.014	0.	124.5
1331	9.4898	6.5106	0.	125.24
1332	9.4951	6.0065	0.	125.78
1333	9.4978	5.503	0.	126.13
1334	9.499	4.9999	0.	126.36
1335	9.4994	4.4969	0.	126.55
1336	9.4994	3.9948	0.	126.68
1337	9.4986	3.4919	0.	126.69
1338	9.4991	2.9911	0.	126.47
1339	9.5	2.4905	0.	125.99
1340	9.5018	1.9901	0.	125.32
1341	9.5059	1.4898	0.	124.66
1342	9.5124	0.98875	0.	124.23
1343	9.5171	0.48936	0.	124.18
1344	9.5196	-1.0283e-002	0.	124.47
1345	9.5179	-0.50853	0.	124.96
1346	9.5165	-1.007	0.	125.59
1347	9.5158	-1.506	0.	126.4
1348	9.512	-2.0045	0.	127.5
1349	9.5084	-2.5033	0.	129.
1350	9.5053	-3.0022	0.	131.37
1351	9.5027	-3.5014	0.	135.97
1352	9.5007	-4.0007	0.	136.87
1353	9.5001	-4.5003	0.	140.22
1354	9.5	-5.0001	0.	142.31
1355	9.5	-5.5	0.	141.24
1356	9.5	-6.	0.	139.58
1357	9.5	-6.5	0.	139.
1358	9.5	-7.	0.	134.19
1359	9.5	-7.5	0.	131.88
1360	9.5	-8.	0.	130.86
1361	9.5	-8.5	0.	130.91
1362	9.5	-9.	0.	131.76
1363	9.5	-9.5	0.	132.86
1364	9.	-9.5	0.	132.18
1365	8.5	-9.5	0.	130.7
1366	8.	-9.5	0.	119.19
1367	7.5	-9.5	0.	106.38
1368	7.	-9.5	0.	105.65
1369	6.5	-9.5	0.	107.65
1370	6.	-9.5	0.	121.82
1371	5.5	-9.5001	0.	133.48
1372	5.	-9.5001	0.	134.16
1373	4.5001	-9.5002	0.	133.35
1374	4.	-9.5003	0.	132.17
1375	3.5	-9.5002	0.	130.95
1376	3.	-9.5002	0.	129.8
1377	2.5	-9.5001	0.	128.71
1378	1.9999	-9.5	0.	127.67
1379	1.4999	-9.5	0.	126.73
1380	0.9998	-9.5	0.	125.99
1381	0.49962	-9.4999	0.	125.55
1382	-6.7121e-004	-9.4998	0.	125.46
1383	-0.50101	-9.4996	0.	125.67
1384	-1.0016	-9.4994	0.	126.07
1385	-1.5021	-9.4991	0.	126.54
1386	-2.0028	-9.4988	0.	127.
1387	-2.5032	-9.499	0.	127.45
1388	-3.0028	-9.5006	0.	127.88
1389	-3.5004	-9.5061	0.	128.29
1390	-3.9958	-9.5188	0.	128.57
1391	-4.4898	-9.5381	0.	128.24
1392	-4.9902	-9.5509	0.	126.42
1393	-5.4954	-9.5431	0.	119.64
1394	-6.0122	-9.4976	0.	113.82
1395	-6.5628	-9.404	0.	117.34
1396	-7.0498	-9.5531	0.	122.64
1397	-7.5256	-9.5298	0.	125.51
1398	-8.0119	-9.5136	0.	126.55
1399	-8.5066	-9.5065	0.	126.57
1400	-9.0039	-9.5034	0.	126.36
1401	-9.502	-9.5015	0.	126.24
1402	-9.503	-9.0026	0.	125.92
1403	-9.5028	-8.5034	0.	125.55
1404	-9.5018	-8.004	0.	125.33
1405	-9.4999	-7.5044	0.	125.36
1406	-9.4975	-7.0049	0.	125.59
1407	-9.4962	-6.5053	0.	125.81
1408	-9.4965	-6.0053	0.	126.01
1409	-9.4977	-5.5049	0.	126.33
1410	-9.499	-5.0043	0.	126.95
1411	-9.4999	-4.5034	0.	127.91
1412	-9.5004	-4.0023	0.	129.6
1413	-9.5004	-3.5012	0.	133.65
1414	-9.5	-3.0005	0.	134.33
1415	-9.5	-2.5001	0.	136.66
1416	-9.5	-2.	0.	138.03
1417	-9.5	-1.5	0.	136.28
1418	-9.5004	-1.0001	0.	134.63
1419	-9.5017	-0.49997	0.	134.75
1420	-9.5019	3.1467e-004	0.	132.
1421	-9.5012	0.50052	0.	131.27
1422	-9.5005	1.0007	0.	130.45
1423	-9.5	1.501	0.	129.71
1424	-9.4997	2.0015	0.	129.4
1425	-9.4991	2.5021	0.	129.68
1426	-9.4989	3.0025	0.	130.29
1427	-9.5002	3.5025	0.	130.72
1428	-9.5032	4.0029	0.	130.19
1429	-9.4982	4.5042	0.	128.86
1430	-9.484	5.0044	0.	127.23
1431	-9.4835	5.5043	0.	125.92
1432	-9.4919	6.0066	0.	125.31
1433	-9.4999	6.5089	0.	125.45
1434	-9.5039	7.0099	0.	125.87
1435	-9.5047	7.5095	0.	126.13
1436	-9.5041	8.008	0.	126.08
1437	-9.503	8.506	0.	125.8
1438	-9.5019	9.004	0.	125.43
1439	-9.501	9.502	0.	125.08
1440	5.5572	-2.42	0.	132.61
1441	4.2415	-2.6379	0.	128.34
1442	4.6681	-2.5758	0.	111.1
1443	5.0888	-2.4841	0.	119.56
1444	8.5669	-3.823e-002	0.	125.18
1445	5.0006	-8.0009	0.	131.57
1446	2.0355	4.0169	0.	131.59
1447	7.5016	4.9828	0.	126.1
1448	5.8421	-3.0977	0.	128.83
1449	2.939	-2.0557	0.	129.18
1450	3.5336	7.0125	0.	130.
1451	1.5447	4.0211	0.	132.87
1452	6.9928	1.8914	0.	138.85
1453	9.7024e-003	-3.5346	0.	122.75
1454	-6.9937	-3.3029e-002	0.	118.03
1455	0.55525	4.08	0.	106.53
1456	-8.0121	4.1507e-004	0.	122.59
1457	-5.0375	-7.3804	0.	126.95
1458	4.0143	5.5181	0.	131.24
1459	-6.4941	8.515	0.	122.02
1460	3.005	-6.5058	0.	129.04
1461	-7.9679	-7.0499	0.	127.9
1462	0.99569	-3.5165	0.	126.47
1463	6.4964	2.9458	0.	121.41
1464	1.0004	-6.9999	0.	123.34
1465	4.0356	8.0123	0.	124.92
1466	0.49941	-7.9999	0.	124.
1467	-7.0149	-3.5381	0.	121.19
1468	-6.5616	6.5899	0.	106.17
1469	-9.0025	0.50092	0.	129.64
1470	2.3669	0.45914	0.	131.92
1471	-5.4494	2.9809	0.	131.91
1472	-4.9963	8.0725	0.	127.54
1473	2.0029	-6.5006	0.	130.28
1474	-2.0063	-8.9976	0.	126.91
1475	-5.5486	6.9444	0.	127.41
1476	7.9845	6.4864	0.	130.1
1477	-2.5063	-6.4868	0.	126.95
1478	-0.99758	-4.5086	0.	126.78
1479	-5.0343	5.3154	0.	131.07
1480	1.4705	-3.0535	0.	129.12
1481	-3.6193e-002	8.4986	0.	127.62
1482	1.5434	-1.4852	0.	127.
1483	5.9647	9.0115	0.	111.37
1484	1.5478	5.019	0.	122.36
1485	4.501	-8.0018	0.	130.13
1486	5.5675	6.8201	0.	118.14
1487	-7.5256	7.0809	0.	129.73
1488	2.5311	-4.996	0.	129.47
1489	-7.523	6.1349	0.	123.27
1490	-8.0093	8.0348	0.	126.46
1491	-5.4985	-6.9184	0.	122.45
1492	-3.6878	6.6531	0.	131.4
1493	-1.4522e-002	5.6583	0.	119.56
1494	7.9992	8.989	0.	127.34
1495	-2.5174	-7.9933	0.	126.86
1496	7.4667	6.9131	0.	132.75
1497	-3.4035	5.7051	0.	130.27
1498	-4.7227	6.2673	0.	129.92
1499	-4.3855	5.7505	0.	126.96
1500	6.9966	6.8445	0.	131.14
1501	2.0224	-4.9939	0.	130.33
1502	-3.0285	-7.9913	0.	126.71
1503	3.9992	9.0113	0.	126.26
1504	6.9325	1.3565	0.	121.41
1505	-4.0077	-4.9531	0.	128.26
1506	3.5147	5.0257	0.	129.89
1507	-2.3242	-1.0743	0.	133.12
1508	-8.503	-4.0069	0.	119.78
1509	-4.9773	1.5145	0.	131.56
1510	7.996	2.4359	0.	129.18
1511	-2.7001	6.5976	0.	126.4
1512	1.5107	3.0194	0.	133.11
1513	-1.004	-8.4987	0.	126.08
1514	-0.99218	2.9555	0.	124.38
1515	2.5	-8.0008	0.	128.57
1516	-3.5046	-5.4627	0.	127.91
1517	9.0019	1.9748	0.	125.98
1518	3.5007	-8.0021	0.	129.34
1519	8.0663	0.91702	0.	124.63
1520	-4.5092	8.5587	0.	127.24
1521	0.50883	3.5966	0.	115.59
1522	3.0759	2.4678	0.	132.89
1523	6.6753	-1.0017	0.	124.01
1524	-1.9582	2.4429	0.	128.08
1525	-0.50234	-7.4992	0.	125.64
1526	0.98724	8.4973	0.	123.95
1527	2.5041	-6.5028	0.	129.36
1528	7.9988	2.9534	0.	129.02
1529	-3.0364	8.5496	0.	126.1
1530	-1.5035	-5.9958	0.	126.42
1531	-9.0051	8.5123	0.	125.95
1532	-7.9934	6.0819	0.	125.7
1533	2.5137	6.0138	0.	130.3
1534	0.47599	8.4956	0.	130.31
1535	-8.0039	-4.5118	0.	123.95
1536	-9.0086	4.0033	0.	131.08
1537	8.0158	-3.0082	0.	114.41
1538	-3.9994	0.53203	0.	133.51
1539	-5.9847	8.0097	0.	121.56
1540	6.0466	-4.5283	0.	125.91
1541	-8.4412	5.521	0.	124.37
1542	-4.471	0.56165	0.	133.83
1543	4.2821	1.2869	0.	126.6
1544	-6.0384	-2.5816	0.	114.97
1545	7.5011	4.4807	0.	126.12
1546	-4.8896	0.10387	0.	134.4
1547	-5.0312	-3.9798	0.	128.02
1548	8.9988	4.9975	0.	126.53
1549	-8.9963	3.0061	0.	132.04
1550	0.77193	-0.38079	0.	125.93
1551	3.0185	6.0174	0.	131.5
1552	5.5135	2.3999	0.	109.09
1553	3.7225	-0.18118	0.	131.96
1554	9.0088	8.0312	0.	123.91
1555	-4.9437	-8.2766	0.	126.53
1556	-5.5962	4.411	0.	127.14
1557	-4.5071	-6.4399	0.	130.26
1558	-0.7195	4.9539	0.	126.42
1559	-7.9941	-5.5208	0.	124.18
1560	-8.9624	5.5078	0.	125.36
1561	0.12282	-2.6964	0.	127.85
1562	1.9999	-8.5002	0.	127.54
1563	5.0117	-6.0057	0.	130.47
1564	-3.5047	-5.9659	0.	127.85
1565	-5.0027	8.5456	0.	126.29
1566	-4.0271	8.0866	0.	128.77
1567	4.0126	8.5126	0.	124.4
1568	-3.532	-3.3373	0.	131.37
1569	3.524	8.0075	0.	125.64
1570	-1.3739e-003	-7.9996	0.	124.34
1571	7.1543	-0.55082	0.	127.05
1572	4.5869	-4.5274	0.	125.5
1573	-4.0111	9.0388	0.	126.38
1574	-8.0203	7.0622	0.	131.02
1575	3.696	-3.5728	0.	129.74
1576	2.52	5.5176	0.	127.85
1577	-5.0044	-5.4653	0.	125.25
1578	4.5422	2.2423	0.	131.81
1579	-7.9283	5.5865	0.	122.96
1580	-5.4991	9.0139	0.	124.54
1581	-9.0001	1.5015	0.	130.5
1582	2.7018	-0.5656	0.	131.34
1583	8.0874	-0.54201	0.	125.44
1584	-6.5208	-3.5473	0.	116.67
1585	-2.0487e-002	8.9981	0.	127.16
1586	-2.0272	9.0234	0.	125.17
1587	-2.3608	3.9021	0.	119.52
1588	-3.7948	3.8719	0.	136.82
1589	3.0207	7.0092	0.	130.43
1590	5.0014	-7.5015	0.	131.33
1591	8.0348	-2.5127	0.	117.27
1592	-6.5016	-2.624	0.	108.96
1593	7.498	2.4203	0.	131.25
1594	8.4999	3.9826	0.	127.03
1595	-4.9698	7.6395	0.	129.35
1596	8.0001	5.4903	0.	127.25
1597	8.0008	3.9781	0.	127.11
1598	0.4993	-8.9998	0.	125.29
1599	-2.3781	-3.5176e-002	0.	138.94
1600	7.2004e-003	3.713	0.	115.36
1601	-2.5048	-5.481	0.	126.89
1602	7.5021	5.4766	0.	126.9
1603	-7.0097	7.5547	0.	120.24
1604	-1.0037	-7.9987	0.	126.3
1605	4.0532	7.5128	0.	127.34
1606	-2.9182	-2.9427	0.	131.57
1607	-4.0183	8.5617	0.	127.4
1608	-3.0098	-3.9422	0.	129.79
1609	-4.9473	2.4783	0.	131.78
1610	9.0109	1.4739	0.	125.16
1611	8.0009	1.4065	0.	125.5
1612	-5.016	-4.4761	0.	128.17
1613	2.8556	0.41387	0.	130.71
1614	7.5004	2.9456	0.	129.41
1615	8.1167	8.0434	0.	124.74
1616	2.5035	8.5012	0.	130.85
1617	-9.003	4.5032	0.	128.95
1618	-1.8939	3.9236	0.	119.59
1619	-7.5361	6.6091	0.	141.03
1620	6.4648	8.9395	0.	116.72
1621	8.0586	-2.0174	0.	119.8
1622	-3.5344	5.2554	0.	127.09
1623	-6.044	-2.1064	0.	111.62
1624	7.4839	1.8785	0.	130.06
1625	-7.986	-6.0307	0.	127.11
1626	-3.1416	7.1055	0.	128.81
1627	-1.4872	5.7656	0.	130.9
1628	-5.2551	3.9144	0.	132.97
1629	-2.8268	-1.9414	0.	132.38
1630	0.44126	-1.8129	0.	127.4
1631	-8.9557	5.0021	0.	126.87
1632	-7.5795	4.1974	0.	122.83
1633	-3.0142	-6.9825	0.	127.05
1634	3.0192	7.5063	0.	127.52
1635	-3.5152	9.0364	0.	126.23
1636	-7.4261	5.6566	0.	134.11
1637	-3.759	-1.3531	0.	128.27
1638	6.7875	0.36197	0.	128.21
1639	-9.001	1.0011	0.	130.57
1640	3.0003	-8.0014	0.	129.04
1641	0.99971	-8.	0.	124.86
1642	-4.5116	8.0921	0.	128.72
1643	1.8837	0.49489	0.	134.08
1644	-8.9995	2.0025	0.	131.26
1645	1.9979	8.9997	0.	123.81
1646	0.48444	8.9966	0.	127.
1647	-0.50195	-6.9993	0.	126.96
1648	-7.4895	3.7881	0.	117.64
1649	-3.0199	9.0326	0.	125.84
1650	-2.7051	-1.3983	0.	132.71
1651	6.027	-5.016	0.	125.87
1652	8.997	5.5027	0.	126.62
1653	-4.9529	0.56682	0.	134.13
1654	8.9985	2.4746	0.	126.7
1655	7.0008	4.4782	0.	125.75
1656	-7.4407	-7.0958	0.	129.48
1657	-8.9978	3.5059	0.	132.38
1658	-6.4932	8.0238	0.	120.02
1659	-5.9976	9.01	0.	123.59
1660	-5.0036	9.0289	0.	125.51
1661	-0.52477	9.0034	0.	126.18
1662	8.0799	-1.0299	0.	124.04
1663	-4.4531	1.9799	0.	131.46
1664	8.0006	4.9881	0.	126.49
1665	-2.0116	-7.9954	0.	126.9
1666	7.9899	1.9148	0.	127.89
1667	5.6029	-4.0328	0.	125.29
1668	-3.007	-4.9643	0.	127.98
1669	8.5407	-2.015	0.	121.51
1670	-4.6272	6.7309	0.	133.69
1671	3.5332	7.5097	0.	127.39
1672	8.0963	0.42768	0.	125.21
1673	3.6314	-4.0527	0.	128.89
1674	-7.5062	8.0388	0.	124.47
1675	7.9967	5.9875	0.	128.62
1676	7.9994	3.466	0.	128.09
1677	2.5255	5.0204	0.	127.23
1678	1.9999	-8.0004	0.	127.73
1679	-3.0612	8.0681	0.	126.52
1680	6.5057	2.4271	0.	120.93
1681	-9.7491e-002	6.07	0.	122.07
1682	-0.55825	5.9904	0.	132.69
1683	0.85024	8.3708e-002	0.	128.06
1684	-5.1041	-0.75388	0.	133.22
1685	-5.1487	-1.166	0.	129.72
1686	-6.5183	-3.0762	0.	114.78
1687	-4.3498	3.4102	0.	135.31
1688	-4.3961	2.9385	0.	133.56
1689	-4.4297	2.4604	0.	132.1
1690	-0.86242	5.4174	0.	132.42
1691	-9.7134e-002	7.0113	0.	124.99
1692	-7.4165e-002	7.5073	0.	124.57
1693	6.6667	8.3517	0.	130.98
1694	6.74	8.1017	0.	122.11
1695	7.2	8.353	0.	146.14
1696	7.0613	8.0538	0.	147.85
1697	6.9442	8.5784	0.	148.77
1698	5.6533	8.5983	0.	139.57
1699	5.4733	8.41	0.	147.5
1700	5.1916	8.6098	0.	144.66
1701	5.4336	8.8607	0.	144.93
1702	6.02	7.3483	0.	98.2
1703	5.7667	7.41	0.	119.85
1704	5.9596	7.024	0.	109.39
1705	5.6594	7.1617	0.	120.88
1706	6.2867	1.3967	0.	137.43
1707	6.4067	1.1733	0.	136.01
1708	6.5252	1.6487	0.	147.17
1709	6.7362	1.3733	0.	145.35
1710	5.2733	1.4233	0.	137.85
1711	5.14	1.2067	0.	136.78
1712	4.8563	1.3872	0.	144.84
1713	5.0433	1.6488	0.	145.69
1714	5.8733	0.30667	0.	102.53
1715	5.62	0.31333	0.	105.92
1716	5.7271	-0.18618	0.	111.02
1717	5.9974	3.2424e-002	0.	116.84
1718	5.4513	3.7976e-002	0.	116.18
1719	4.5017	-2.1767	0.	129.74
1720	4.3725	-1.9575	0.	145.15
1721	4.0978	-2.185	0.	140.91
1722	4.2807	-2.4389	0.	141.19
1723	5.2283	-1.9233	0.	123.18
1724	5.2633	-1.735	0.	119.21
1725	5.6239	-1.9124	0.	137.27
1726	5.4045	-1.6524	0.	138.27
1727	5.4836	-2.14	0.	141.68
1728	4.4775	-1.3925	0.	131.89
1729	4.6767	-1.235	0.	109.07
1730	4.2972	-1.1201	0.	131.02
1731	4.6245	-0.88118	0.	119.58
1732	-2.5267	4.8633	0.	140.39
1733	-2.6533	5.0367	0.	150.09
1734	-2.9584	4.8215	0.	150.61
1735	-2.7662	4.6011	0.	153.57
1736	-1.6733	4.9567	0.	138.87
1737	-1.5867	5.1533	0.	137.41
1738	-1.2803	4.9491	0.	151.23
1739	-1.4459	4.7127	0.	156.15
1740	-2.3067	5.8233	0.	112.8
1741	-2.0933	5.8467	0.	101.07
1742	-2.208	6.297	0.	113.89
1743	-2.4951	6.0695	0.	122.82
1744	-1.9372	6.0947	0.	119.82
1745	-0.58875	-1.855	0.	122.6
1746	-0.8225	-1.92	0.	104.17
1747	-0.42448	-2.1277	0.	125.27
1748	-0.8089	-2.2738	0.	113.65
1749	-0.22125	-0.445	0.	141.99
1750	-0.39375	-0.275	0.	128.5
1751	6.7271e-002	-0.2626	0.	136.13
1752	-0.15562	-2.391e-002	0.	136.32
1753	-1.8575	-0.9	0.	131.78
1754	-1.7962	-0.665	0.	133.27
1755	-2.1411	-0.59947	0.	161.02
1756	-2.1771	-0.90215	0.	153.39
1757	0.6225	4.74	0.	143.4
1758	0.3975	4.59	0.	107.76
1759	0.86163	4.4946	0.	136.52
1760	0.59762	4.275	0.	125.8
1761	0.5875	5.28	0.	139.17
1762	0.345	5.4	0.	99.18
1763	0.48717	5.7596	0.	120.88
1764	0.80159	5.5345	0.	131.84
1765	-8.75e-002	4.83	0.	111.06
1766	-0.105	5.1	0.	108.16
1767	-0.39851	4.6994	0.	146.38
1768	-0.38355	5.2252	0.	142.57
1769	-0.52475	4.952	0.	140.19
1770	-5.7317	-7.4067	0.	125.75
1771	-5.5633	-7.5667	0.	140.11
1772	-5.2737	-7.3602	0.	136.57
1773	-5.5043	-7.1292	0.	134.84
1774	-6.6183	-7.6733	0.	121.03
1775	-6.6717	-7.9	0.	117.84
1776	-7.1267	-7.6738	0.	134.79
1777	-6.973	-7.9557	0.	135.22
1778	-6.8828	-7.4483	0.	134.85
1779	-5.7767	-8.4733	0.	124.52
1780	-5.9983	-8.54	0.	105.21
1781	-5.6127	-8.6979	0.	123.35
1782	-5.8927	-8.8697	0.	111.27
1783	-6.73	-1.8483	0.	130.67
1784	-6.9017	-1.695	0.	144.26
1785	-6.9217	-2.0912	0.	136.93
1786	-7.0899	-1.9583	0.	147.97
1787	-5.85	-1.5617	0.	123.86
1788	-5.8017	-1.3367	0.	116.58
1789	-5.409	-1.5232	0.	141.83
1790	-5.5634	-1.2952	0.	144.77
1791	-5.6163	-1.7602	0.	143.21
1792	-6.7083	-0.795	0.	123.95
1793	-6.4883	-0.72333	0.	100.37
1794	-6.5387	-0.34417	0.	110.78
1795	-6.8747	-0.54384	0.	123.72
1796	-5.8367	5.9967	0.	137.5
1797	-5.75	5.7517	0.	126.68
1798	-5.428	5.9103	0.	149.36
1799	-5.5927	6.1986	0.	152.84
1800	-6.8633	6.1833	0.	135.81
1801	-7.0333	5.985	0.	142.77
1802	-7.0864	6.4307	0.	141.06
1803	-7.3215	6.1824	0.	141.84
1804	-6.43	4.9583	0.	96.584
1805	-6.6867	5.005	0.	114.17
1806	-6.6076	4.5516	0.	107.35
1807	-6.3494	4.6347	0.	111.51
1808	-6.8827	4.7451	0.	116.78
1809	7.	-4.25	0.	135.83
1810	7.25	-4.	0.	121.94
1811	6.7739	-4.0096	0.	130.67
1812	7.0242	-3.7676	0.	127.52
1813	7.	-5.75	0.	129.08
1814	7.25	-6.	0.	114.55
1815	6.7514	-6.0005	0.	122.22
1816	7.0002	-6.25	0.	118.25
1817	8.75	-4.	0.	125.88
1818	9.	-4.25	0.	143.53
1819	9.0025	-3.751	0.	132.61
1820	9.2503	-4.0004	0.	137.13
1821	8.75	-6.	0.	128.9
1822	9.	-5.75	0.	145.23
1823	9.	-6.25	0.	135.7
1824	9.25	-6.	0.	139.73
1825	5.	5.75	0.	135.42
1826	5.25	6.	0.	117.72
1827	5.0181	6.2394	0.	127.56
1828	4.758	6.0039	0.	131.94
1829	5.	4.25	0.	133.52
1830	5.25	4.	0.	115.71
1831	4.9957	3.7717	0.	124.06
1832	4.7505	4.0207	0.	129.09
1833	5.75	6.	0.	114.62
1834	6.	5.75	0.	129.6
1835	6.015	6.2131	0.	119.39
1836	6.2525	5.973	0.	124.26
1837	5.75	4.	0.	114.3
1838	6.	4.25	0.	130.6
1839	6.2495	3.9891	0.	125.51
1840	5.9956	3.7355	0.	120.63
1841	6.	-7.25	0.	140.4
1842	6.25	-7.	0.	125.5
1843	6.001	-6.7503	0.	132.76
1844	5.7508	-7.0004	0.	135.29
1845	6.	-8.75	0.	136.75
1846	6.25	-9.	0.	119.56
1847	5.75	-9.0001	0.	131.69
1848	6.	-9.25	0.	126.75
1849	7.75	-7.	0.	114.48
1850	8.	-7.25	0.	129.44
1851	8.25	-7.	0.	123.37
1852	8.	-6.75	0.	119.42
1853	7.75	-9.	0.	117.17
1854	8.	-8.75	0.	132.9
1855	8.25	-9.	0.	128.66
1856	8.	-9.25	0.	123.74
1857	1.	7.75	0.	137.4
1858	1.25	8.	0.	122.11
1859	0.73398	7.998	0.	130.66
1860	0.99362	8.2487	0.	128.47
1861	1.	7.25	0.	137.73
1862	1.25	7.	0.	122.97
1863	0.98154	6.7507	0.	129.46
1864	0.72416	7.0016	0.	129.46
1865	1.75	8.	0.	122.86
1866	2.	7.75	0.	139.17
1867	1.9995	8.25	0.	129.51
1868	2.2532	8.0009	0.	132.07
1869	1.75	7.	0.	124.1
1870	2.	7.25	0.	139.93
1871	2.0007	6.7533	0.	131.58
1872	2.2551	7.0031	0.	133.98
1873	-1.	1.75	0.	134.16
1874	-0.75	2.	0.	122.44
1875	-0.99633	2.2375	0.	127.42
1876	-1.2424	1.9851	0.	129.1
1877	-1.	1.25	0.	131.77
1878	-0.75	1.	0.	118.46
1879	-0.98856	0.78016	0.	120.52
1880	-1.2444	0.99	0.	125.4
1881	0.75	2.	0.	127.29
1882	1.	1.75	0.	142.41
1883	1.2462	2.0029	0.	135.87
1884	0.9969	2.2618	0.	132.69
1885	0.75	1.	0.	130.52
1886	1.	1.25	0.	143.19
1887	1.2287	1.0038	0.	137.54
1888	0.96078	0.77194	0.	134.72
1889	0.	-5.25	0.	137.51
1890	0.25	-5.	0.	121.98
1891	1.2288e-003	-4.7543	0.	128.04
1892	-0.24983	-5.0024	0.	130.58
1893	0.	-5.75	0.	137.59
1894	0.25	-6.	0.	121.94
1895	-2.9276e-004	-6.25	0.	128.29
1896	-0.25047	-6.0001	0.	131.05
1897	0.75	-5.	0.	122.75
1898	1.	-5.25	0.	139.09
1899	1.0025	-4.7523	0.	129.85
1900	1.2558	-4.9993	0.	132.97
1901	0.75	-6.	0.	122.52
1902	1.	-5.75	0.	138.97
1903	1.0005	-6.2499	0.	129.3
1904	1.2521	-5.9996	0.	132.49
1905	-9.	-1.25	0.	138.58
1906	-8.75	-1.	0.	119.8
1907	-9.0021	-0.74991	0.	128.76
1908	-9.2502	-1.	0.	133.57
1909	-9.	-2.75	0.	139.51
1910	-8.75	-3.	0.	121.81
1911	-9.0006	-3.251	0.	129.29
1912	-9.25	-3.0002	0.	134.05
1913	-8.25	-1.	0.	118.64
1914	-8.	-1.25	0.	133.1
1915	-8.0119	-0.74901	0.	126.8
1916	-7.7905	-0.99639	0.	128.8
1917	-8.25	-3.	0.	121.92
1918	-8.	-2.75	0.	139.26
1919	-7.7506	-3.004	0.	131.46
1920	-8.0025	-3.2533	0.	128.85
1921	-8.	2.75	0.	138.97
1922	-7.75	3.	0.	123.61
1923	-8.2466	3.0055	0.	133.71
1924	-7.9706	3.2749	0.	129.45
1925	-8.	1.25	0.	138.39
1926	-7.75	1.	0.	122.74
1927	-8.2505	1.0004	0.	132.26
1928	-8.0015	0.74978	0.	129.41
1929	-6.25	3.	0.	120.68
1930	-6.	2.75	0.	137.14
1931	-5.9696	3.2706	0.	127.8
1932	-5.7247	2.9904	0.	131.85
1933	-6.25	1.	0.	120.21
1934	-6.	1.25	0.	136.44
1935	-5.7421	1.0144	0.	131.33
1936	-5.9787	0.7543	0.	126.88
1937	-7.	-5.25	0.	133.93
1938	-6.75	-5.	0.	118.23
1939	-7.0038	-4.7565	0.	125.3
1940	-7.2505	-5.0061	0.	127.63
1941	-7.	-5.75	0.	133.2
1942	-6.75	-6.	0.	116.51
1943	-6.9847	-6.2832	0.	123.87
1944	-7.2436	-6.0166	0.	128.37
1945	-6.25	-5.	0.	117.48
1946	-6.	-5.25	0.	132.4
1947	-6.0053	-4.7538	0.	123.75
1948	-5.7528	-4.9936	0.	127.45
1949	-6.25	-6.	0.	115.31
1950	-6.	-5.75	0.	131.15
1951	-5.7509	-5.9851	0.	125.14
1952	-5.9959	-6.2459	0.	119.33
1953	9.75	10.	0.	125.16
1954	10.	9.75	0.	124.8
1955	-9.75	10.	0.	124.98
1956	-10.	9.75	0.	125.01
1957	10.	-9.75	0.	135.14
1958	9.75	-10.	0.	134.47
1959	-10.	-9.75	0.	126.64
1960	-9.75	-10.	0.	126.55
1961	6.16	8.475	0.	107.59
1962	6.4391	8.6764	0.	107.44
1963	5.9357	8.7741	0.	112.18
1964	6.38	7.725	0.	84.271
1965	6.684	7.7542	0.	105.05
1966	6.3478	7.384	0.	102.37
1967	5.62	7.91	0.	130.68
1968	5.3021	8.1068	0.	133.81
1969	5.4251	7.5846	0.	125.31
1970	5.78	1.41	0.	107.67
1971	6.029	1.6576	0.	105.37
1972	5.5324	1.6593	0.	105.97
1973	6.14	0.74	0.	105.09
1974	6.5052	0.8913	0.	120.81
1975	6.2059	0.46779	0.	111.34
1976	5.38	0.76	0.	109.74
1977	5.0438	0.93717	0.	122.94
1978	5.2497	0.48983	0.	114.39
1979	4.865	-2.05	0.	100.45
1980	4.6757	-2.3446	0.	107.94
1981	5.0677	-2.2354	0.	106.76
1982	4.1956	-1.6538	0.	135.82
1983	4.97	-1.485	0.	90.352
1984	5.2579	-1.5274	0.	105.63
1985	5.0086	-1.1802	0.	107.66
1986	-2.1	4.91	0.	103.4
1987	-2.3256	4.6397	0.	107.4
1988	-1.8857	4.6792	0.	104.96
1989	-2.48	5.43	0.	125.19
1990	-2.8071	5.2382	0.	133.84
1991	-2.6472	5.6509	0.	123.24
1992	-1.84	5.5	0.	99.183
1993	-1.501	5.3431	0.	121.91
1994	-1.727	5.7195	0.	112.03
1995	-0.46625	-1.385	0.	131.31
1996	-0.28723	-1.6646	0.	126.19
1997	-0.34375	-0.915	0.	134.21
1998	-0.16345	-1.1957	0.	131.8
1999	-4.5282e-002	-0.72736	0.	133.2
2000	-1.1675	-1.58	0.	99.201
2001	-1.2075	-1.9202	0.	107.04
2002	-1.5125	-1.24	0.	98.023
2003	-1.5242	-1.5337	0.	113.54
2004	-1.8437	-1.2058	0.	113.81
2005	-0.86125	-0.405	0.	107.99
2006	-0.67042	-8.9676e-002	0.	106.25
2007	-1.3288	-0.535	0.	102.87
2008	-1.1739	-0.24361	0.	113.87
2009	-1.6546	-0.41301	0.	105.94
2010	0.83734	5.014	0.	135.88
2011	0.1043	4.4727	0.	89.971
2012	5.2739e-002	5.4542	0.	88.859
2013	-6.175	-7.54	0.	100.76
2014	-5.9653	-7.2293	0.	105.34
2015	-6.4232	-7.3384	0.	103.55
2016	-5.67	-8.02	0.	133.52
2017	-5.3562	-7.8312	0.	131.91
2018	-5.5248	-8.2652	0.	129.43
2019	-6.335	-8.22	0.	92.527
2020	-6.6289	-8.2396	0.	107.73
2021	-6.3076	-8.6053	0.	106.14
2022	-6.29	-1.705	0.	98.303
2023	-6.4953	-1.9845	0.	104.44
2024	-6.057	-1.8699	0.	100.58
2025	-6.805	-1.245	0.	133.82
2026	-7.0355	-1.4786	0.	135.77
2027	-6.9608	-1.0104	0.	128.68
2028	-6.145	-1.03	0.	80.304
2029	-5.8824	-1.0337	0.	98.74
2030	-6.1918	-0.71018	0.	99.708
2031	-6.35	6.09	0.	106.31
2032	-6.0828	6.2836	0.	104.97
2033	-6.5841	6.3633	0.	107.82
2034	-6.09	5.355	0.	84.559
2035	-5.7101	5.4833	0.	110.4
2036	-6.0191	5.0627	0.	104.25
2037	-6.86	5.495	0.	125.04
2038	-7.1864	5.6983	0.	129.91
2039	-7.0349	5.2179	0.	121.65
2040	7.	-4.75	0.	139.14
2041	6.7631	-4.5073	0.	135.05
2042	7.	-5.25	0.	136.97
2043	6.7567	-5.0041	0.	134.49
2044	6.7532	-5.5018	0.	130.91
2045	7.75	-4.	0.	114.84
2046	7.508	-3.7545	0.	112.36
2047	8.25	-4.	0.	115.9
2048	8.0047	-3.752	0.	115.28
2049	8.5036	-3.7517	0.	114.23
2050	7.75	-6.	0.	111.38
2051	7.5001	-6.25	0.	105.22
2052	8.25	-6.	0.	117.52
2053	8.	-6.25	0.	115.55
2054	8.5	-6.25	0.	119.36
2055	9.	-4.75	0.	150.31
2056	9.25	-4.5001	0.	144.71
2057	9.	-5.25	0.	150.85
2058	9.25	-5.	0.	146.87
2059	9.25	-5.5	0.	145.76
2060	5.	5.25	0.	139.72
2061	4.7541	5.5051	0.	136.7
2062	5.	4.75	0.	139.03
2063	4.7529	5.0074	0.	136.95
2064	4.7521	4.5116	0.	135.48
2065	5.5163	6.2167	0.	105.72
2066	5.4947	3.7423	0.	104.14
2067	6.	5.25	0.	135.22
2068	6.2504	5.4857	0.	131.21
2069	6.	4.75	0.	135.69
2070	6.2501	4.9912	0.	132.67
2071	6.2501	4.4919	0.	131.71
2072	6.	-7.75	0.	144.11
2073	5.7503	-7.5003	0.	139.74
2074	6.	-8.25	0.	143.08
2075	5.7501	-8.0002	0.	140.19
2076	5.7501	-8.5001	0.	138.12
2077	6.75	-7.	0.	114.88
2078	6.5005	-6.75	0.	116.7
2079	7.25	-7.	0.	109.87
2080	7.0002	-6.75	0.	113.77
2081	7.5001	-6.75	0.	104.75
2082	6.75	-9.	0.	109.27
2083	6.5	-9.25	0.	107.75
2084	7.25	-9.	0.	108.61
2085	7.	-9.25	0.	108.04
2086	7.5	-9.25	0.	106.44
2087	8.	-7.75	0.	136.44
2088	8.25	-7.5	0.	131.58
2089	8.	-8.25	0.	137.83
2090	8.25	-8.	0.	134.55
2091	8.25	-8.5	0.	134.14
2092	0.72825	7.4997	0.	134.73
2093	1.4973	8.2497	0.	112.63
2094	1.4939	6.7522	0.	114.66
2095	2.2543	7.5016	0.	137.7
2096	-1.2446	1.489	0.	131.73
2097	-0.25	2.	0.	117.62
2098	-0.50248	2.2486	0.	114.75
2099	0.25	2.	0.	118.97
2100	-8.0124e-003	2.2741	0.	118.22
2101	0.49277	2.2705	0.	116.93
2102	-0.25	1.	0.	116.64
2103	-0.51278	0.7973	0.	109.72
2104	0.25	1.	0.	122.47
2105	-3.0637e-002	0.78863	0.	120.92
2106	0.46554	0.78182	0.	123.25
2107	1.24	1.5016	0.	140.93
2108	-0.25025	-5.5009	0.	135.77
2109	0.50125	-4.7527	0.	112.33
2110	0.50002	-6.25	0.	112.07
2111	1.2536	-5.4993	0.	137.63
2112	-9.	-1.75	0.	144.79
2113	-9.25	-1.5	0.	140.28
2114	-9.	-2.25	0.	145.12
2115	-9.25	-2.	0.	141.66
2116	-9.25	-2.5001	0.	140.8
2117	-8.5048	-0.74976	0.	109.48
2118	-8.5012	-3.2517	0.	110.95
2119	-8.	-1.75	0.	138.36
2120	-7.8013	-1.4929	0.	133.47
2121	-8.	-2.25	0.	142.43
2122	-7.8036	-1.9842	0.	139.55
2123	-7.7365	-2.4815	0.	140.7
2124	-8.	2.25	0.	144.26
2125	-8.2493	2.5023	0.	139.33
2126	-8.	1.75	0.	143.87
2127	-8.2499	2.0011	0.	140.45
2128	-8.2501	1.5006	0.	138.61
2129	-7.25	3.	0.	114.44
2130	-7.4822	3.2045	0.	113.32
2131	-6.75	3.	0.	112.33
2132	-6.9952	3.2154	0.	113.21
2133	-6.4947	3.2343	0.	108.98
2134	-7.25	1.	0.	113.66
2135	-7.4988	0.74684	0.	113.34
2136	-6.75	1.	0.	112.25
2137	-6.9918	0.73844	0.	113.31
2138	-6.4843	0.73067	0.	109.12
2139	-6.	2.25	0.	142.58
2140	-5.7359	2.4961	0.	137.89
2141	-6.	1.75	0.	142.39
2142	-5.7413	2.0012	0.	139.23
2143	-5.7441	1.5067	0.	137.65
2144	-7.2482	-5.5086	0.	132.57
2145	-6.5043	-4.7564	0.	107.9
2146	-6.4908	-6.2668	0.	105.79
2147	-5.7515	-5.4902	0.	131.39
2148	9.25	10.	0.	125.72
2149	9.5013	9.7518	0.	125.
2150	8.75	10.	0.	126.75
2151	9.0018	9.7529	0.	125.77
2152	8.25	10.	0.	127.73
2153	8.5008	9.7517	0.	126.68
2154	7.75	10.	0.	127.43
2155	7.998	9.7454	0.	127.64
2156	7.25	10.	0.	125.
2157	7.4956	9.7326	0.	127.85
2158	6.75	10.	0.	121.03
2159	6.9952	9.7236	0.	124.92
2160	6.25	10.	0.	118.26
2161	6.4963	9.735	0.	120.25
2162	5.75	10.	0.	118.92
2163	5.9963	9.7506	0.	117.35
2164	5.25	10.	0.	123.
2165	5.4956	9.761	0.	121.62
2166	4.75	10.	0.	127.87
2167	4.9955	9.7604	0.	127.75
2168	4.25	10.	0.	130.09
2169	4.4972	9.7565	0.	129.68
2170	3.75	10.	0.	129.91
2171	3.9984	9.7534	0.	128.95
2172	3.25	10.	0.	128.84
2173	3.4995	9.7517	0.	128.39
2174	2.75	10.	0.	127.35
2175	2.9997	9.7507	0.	127.68
2176	2.25	10.	0.	125.64
2177	2.4996	9.7502	0.	126.44
2178	1.75	10.	0.	124.28
2179	1.9991	9.7498	0.	124.81
2180	1.25	10.	0.	123.85
2181	1.4983	9.7495	0.	123.79
2182	0.75	10.	0.	124.33
2183	0.99729	9.7492	0.	124.11
2184	0.25	10.	0.	125.15
2185	0.49634	9.7489	0.	125.1
2186	-0.25	10.	0.	125.71
2187	-4.4396e-003	9.7492	0.	125.75
2188	-0.75	10.	0.	125.88
2189	-0.50507	9.7503	0.	125.87
2190	-1.25	10.	0.	125.83
2191	-1.0056	9.7522	0.	125.78
2192	-1.75	10.	0.	125.77
2193	-1.5059	9.7543	0.	125.67
2194	-2.25	10.	0.	125.77
2195	-2.0056	9.7556	0.	125.64
2196	-2.75	10.	0.	125.85
2197	-2.5048	9.7568	0.	125.71
2198	-3.25	10.	0.	125.91
2199	-3.004	9.7579	0.	125.83
2200	-3.75	10.	0.	125.83
2201	-3.5031	9.7588	0.	125.88
2202	-4.25	10.	0.	125.54
2203	-4.0025	9.7593	0.	125.76
2204	-4.75	10.	0.	125.01
2205	-4.5019	9.7587	0.	125.4
2206	-5.25	10.	0.	124.33
2207	-5.0008	9.7558	0.	124.83
2208	-5.75	10.	0.	123.68
2209	-5.5001	9.7532	0.	124.17
2210	-6.25	10.	0.	123.23
2211	-5.9995	9.752	0.	123.61
2212	-6.75	10.	0.	123.09
2213	-6.4993	9.7522	0.	123.32
2214	-7.25	10.	0.	123.28
2215	-6.9996	9.7531	0.	123.36
2216	-7.75	10.	0.	123.68
2217	-7.5001	9.7535	0.	123.68
2218	-8.25	10.	0.	124.16
2219	-8.0005	9.7535	0.	124.12
2220	-8.75	10.	0.	124.58
2221	-8.5008	9.7528	0.	124.53
2222	-9.25	10.	0.	124.87
2223	-9.0008	9.7519	0.	124.84
2224	-9.5005	9.751	0.	125.03
2225	10.	9.25	0.	123.76
2226	9.7513	9.5018	0.	124.65
2227	10.	8.75	0.	122.27
2228	9.7528	9.0037	0.	123.4
2229	10.	8.25	0.	121.35
2230	9.7541	8.5052	0.	122.38
2231	10.	7.75	0.	121.43
2232	9.751	8.0061	0.	122.13
2233	10.	7.25	0.	122.34
2234	9.7432	7.5069	0.	122.71
2235	10.	6.75	0.	123.59
2236	9.742	7.007	0.	123.72
2237	10.	6.25	0.	124.75
2238	9.7449	6.5053	0.	124.74
2239	10.	5.75	0.	125.6
2240	9.7475	6.0032	0.	125.52
2241	10.	5.25	0.	126.16
2242	9.7489	5.5015	0.	126.03
2243	10.	4.75	0.	126.54
2244	9.7495	4.9999	0.	126.37
2245	10.	4.25	0.	126.8
2246	9.7497	4.4984	0.	126.63
2247	10.	3.75	0.	126.89
2248	9.7497	3.9974	0.	126.79
2249	10.	3.25	0.	126.67
2250	9.7493	3.496	0.	126.78
2251	10.	2.75	0.	126.07
2252	9.7496	2.9955	0.	126.47
2253	10.	2.25	0.	125.14
2254	9.75	2.4952	0.	125.83
2255	10.	1.75	0.	124.11
2256	9.7509	1.995	0.	124.96
2257	10.	1.25	0.	123.31
2258	9.7529	1.4949	0.	124.13
2259	10.	0.75	0.	123.
2260	9.7562	0.99437	0.	123.62
2261	10.	0.25	0.	123.26
2262	9.7586	0.49468	0.	123.59
2263	10.	-0.25	0.	123.98
2264	9.7598	-5.1416e-003	0.	124.
2265	10.	-0.75	0.	125.06
2266	9.759	-0.50427	0.	124.7
2267	10.	-1.25	0.	126.5
2268	9.7583	-1.0035	0.	125.63
2269	10.	-1.75	0.	128.5
2270	9.7579	-1.503	0.	126.86
2271	10.	-2.25	0.	131.34
2272	9.756	-2.0022	0.	128.57
2273	10.	-2.75	0.	135.02
2274	9.7542	-2.5016	0.	130.99
2275	10.	-3.25	0.	137.95
2276	9.7526	-3.0011	0.	134.17
2277	10.	-3.75	0.	137.63
2278	9.7513	-3.5007	0.	137.41
2279	10.	-4.25	0.	134.85
2280	9.7503	-4.0004	0.	136.62
2281	10.	-4.75	0.	133.71
2282	9.75	-4.5001	0.	136.76
2283	10.	-5.25	0.	134.7
2284	9.75	-5.	0.	138.21
2285	10.	-5.75	0.	137.42
2286	9.75	-5.5	0.	138.26
2287	10.	-6.25	0.	140.68
2288	9.75	-6.	0.	139.56
2289	10.	-6.75	0.	140.12
2290	9.75	-6.5	0.	140.38
2291	10.	-7.25	0.	135.87
2292	9.75	-7.	0.	136.28
2293	10.	-7.75	0.	131.84
2294	9.75	-7.5	0.	132.56
2295	10.	-8.25	0.	130.33
2296	9.75	-8.	0.	130.62
2297	10.	-8.75	0.	131.27
2298	9.75	-8.5	0.	130.6
2299	10.	-9.25	0.	133.45
2300	9.75	-9.	0.	132.
2301	9.75	-9.5	0.	133.74
2302	-10.	9.25	0.	125.21
2303	-9.7505	9.501	0.	125.06
2304	-10.	8.75	0.	125.61
2305	-9.7509	9.002	0.	125.4
2306	-10.	8.25	0.	125.96
2307	-9.7515	8.503	0.	125.82
2308	-10.	7.75	0.	125.96
2309	-9.7521	8.004	0.	126.08
2310	-10.	7.25	0.	125.46
2311	-9.7524	7.5047	0.	125.98
2312	-10.	6.75	0.	124.65
2313	-9.7519	7.005	0.	125.48
2314	-10.	6.25	0.	124.09
2315	-9.75	6.5045	0.	124.83
2316	-10.	5.75	0.	124.44
2317	-9.746	6.0033	0.	124.64
2318	-10.	5.25	0.	125.95
2319	-9.7417	5.5021	0.	125.41
2320	-10.	4.75	0.	128.19
2321	-9.742	5.0022	0.	127.1
2322	-10.	4.25	0.	130.2
2323	-9.7491	4.5021	0.	129.12
2324	-10.	3.75	0.	130.95
2325	-9.7516	4.0014	0.	130.6
2326	-10.	3.25	0.	130.07
2327	-9.7501	3.5012	0.	130.8
2328	-10.	2.75	0.	128.29
2329	-9.7495	3.0013	0.	129.76
2330	-10.	2.25	0.	126.96
2331	-9.7496	2.5011	0.	128.51
2332	-10.	1.75	0.	127.1
2333	-9.7498	2.0007	0.	128.
2334	-10.	1.25	0.	128.94
2335	-9.75	1.5005	0.	128.66
2336	-10.	0.75	0.	131.99
2337	-9.7502	1.0004	0.	130.35
2338	-10.	0.25	0.	135.35
2339	-9.7506	0.50026	0.	132.47
2340	-10.	-0.25	0.	137.41
2341	-9.7509	1.5734e-004	0.	134.49
2342	-10.	-0.75	0.	136.14
2343	-9.7508	-0.49998	0.	136.27
2344	-10.	-1.25	0.	132.65
2345	-9.7502	-1.	0.	134.53
2346	-10.	-1.75	0.	130.83
2347	-9.75	-1.5	0.	133.55
2348	-10.	-2.25	0.	131.06
2349	-9.75	-2.	0.	134.43
2350	-10.	-2.75	0.	132.92
2351	-9.75	-2.5001	0.	133.97
2352	-10.	-3.25	0.	135.61
2353	-9.75	-3.0002	0.	134.44
2354	-10.	-3.75	0.	135.65
2355	-9.7502	-3.5006	0.	135.14
2356	-10.	-4.25	0.	132.79
2357	-9.7502	-4.0012	0.	132.1
2358	-10.	-4.75	0.	129.57
2359	-9.75	-4.5017	0.	129.41
2360	-10.	-5.25	0.	127.38
2361	-9.7495	-5.0021	0.	127.57
2362	-10.	-5.75	0.	126.14
2363	-9.7488	-5.5024	0.	126.44
2364	-10.	-6.25	0.	125.5
2365	-9.7482	-6.0026	0.	125.86
2366	-10.	-6.75	0.	125.13
2367	-9.7481	-6.5027	0.	125.55
2368	-10.	-7.25	0.	124.87
2369	-9.7487	-7.0025	0.	125.28
2370	-10.	-7.75	0.	124.8
2371	-9.7499	-7.5022	0.	125.06
2372	-10.	-8.25	0.	125.07
2373	-9.7509	-8.002	0.	125.09
2374	-10.	-8.75	0.	125.63
2375	-9.7514	-8.5017	0.	125.42
2376	-10.	-9.25	0.	126.24
2377	-9.7515	-9.0013	0.	125.94
2378	-9.751	-9.5008	0.	126.38
2379	-9.25	-10.	0.	126.42
2380	-9.501	-9.7508	0.	126.3
2381	-8.75	-10.	0.	126.59
2382	-9.002	-9.7517	0.	126.42
2383	-8.25	-10.	0.	126.58
2384	-8.5033	-9.7532	0.	126.63
2385	-7.75	-10.	0.	125.76
2386	-8.006	-9.7568	0.	126.51
2387	-7.25	-10.	0.	123.21
2388	-7.5128	-9.7649	0.	125.28
2389	-6.75	-10.	0.	119.07
2390	-7.0249	-9.7766	0.	121.99
2391	-6.25	-10.	0.	115.95
2392	-6.5314	-9.702	0.	117.04
2393	-5.75	-10.	0.	117.27
2394	-6.0061	-9.7488	0.	114.47
2395	-5.25	-10.	0.	122.27
2396	-5.4977	-9.7715	0.	119.51
2397	-4.75	-10.	0.	126.6
2398	-4.9951	-9.7754	0.	125.77
2399	-4.25	-10.	0.	128.4
2400	-4.4949	-9.769	0.	128.16
2401	-3.75	-10.	0.	128.6
2402	-3.9979	-9.7594	0.	128.64
2403	-3.25	-10.	0.	128.26
2404	-3.5002	-9.7531	0.	128.39
2405	-2.75	-10.	0.	127.78
2406	-3.0014	-9.7503	0.	127.96
2407	-2.25	-10.	0.	127.29
2408	-2.5016	-9.7495	0.	127.49
2409	-1.75	-10.	0.	126.79
2410	-2.0014	-9.7494	0.	127.02
2411	-1.25	-10.	0.	126.32
2412	-1.5011	-9.7496	0.	126.54
2413	-0.75	-10.	0.	125.9
2414	-1.0008	-9.7497	0.	126.08
2415	-0.25	-10.	0.	125.62
2416	-0.5005	-9.7498	0.	125.69
2417	0.25	-10.	0.	125.58
2418	-3.3561e-004	-9.7499	0.	125.5
2419	0.75	-10.	0.	125.85
2420	0.49981	-9.75	0.	125.59
2421	1.25	-10.	0.	126.42
2422	0.9999	-9.75	0.	126.02
2423	1.75	-10.	0.	127.25
2424	1.4999	-9.75	0.	126.76
2425	2.25	-10.	0.	128.24
2426	2.	-9.75	0.	127.69
2427	2.75	-10.	0.	129.35
2428	2.5	-9.75	0.	128.74
2429	3.25	-10.	0.	130.56
2430	3.	-9.7501	0.	129.87
2431	3.75	-10.	0.	131.89
2432	3.5	-9.7501	0.	131.07
2433	4.25	-10.	0.	133.25
2434	4.	-9.7501	0.	132.37
2435	4.75	-10.	0.	134.32
2436	4.5	-9.7501	0.	133.64
2437	5.25	-10.	0.	133.07
2438	5.	-9.7501	0.	134.42
2439	5.75	-10.	0.	125.96
2440	5.5	-9.75	0.	132.45
2441	6.25	-10.	0.	114.78
2442	6.	-9.75	0.	121.11
2443	6.75	-10.	0.	106.67
2444	6.5	-9.75	0.	108.35
2445	7.25	-10.	0.	106.
2446	7.	-9.75	0.	104.96
2447	7.75	-10.	0.	112.91
2448	7.5	-9.75	0.	107.06
2449	8.25	-10.	0.	123.37
2450	8.	-9.75	0.	118.6
2451	8.75	-10.	0.	130.59
2452	8.5	-9.75	0.	129.67
2453	9.25	-10.	0.	132.92
2454	9.	-9.75	0.	132.35
2455	9.5	-9.75	0.	133.07
2456	-3.5415	-2.8541	0.	131.65
2457	-3.335	-2.6205	0.	131.68
2458	-3.4389	-3.0997	0.	131.55
2459	-3.132	-2.9024	0.	131.65
2460	-2.7371	-3.462	0.	130.11
2461	-3.2616	-3.3869	0.	131.08
2462	-2.9547	-3.1896	0.	131.18
2463	-3.0005	-3.6893	0.	130.29
2464	-3.9322	2.1997	0.	131.68
2465	-3.6968	1.9434	0.	131.12
2466	-3.956	1.7103	0.	131.64
2467	-4.1994	1.9681	0.	131.44
2468	-3.0045	-5.724	0.	127.42
2469	-3.2547	-5.4672	0.	127.71
2470	-2.7548	-5.4764	0.	127.2
2471	-3.0059	-5.218	0.	127.74
2472	-2.757	-4.467	0.	128.33
2473	-3.2609	-4.447	0.	129.03
2474	-3.0096	-4.1987	0.	129.29
2475	-3.0081	-4.7098	0.	128.38
2476	-3.9016	2.6841	0.	132.65
2477	-3.6689	2.435	0.	131.48
2478	-4.1742	2.4518	0.	132.02
2479	4.3018	-5.0259	0.	127.08
2480	4.539	-5.2678	0.	127.41
2481	4.7959	-5.0169	0.	126.29
2482	4.5686	-4.7744	0.	126.09
2483	-3.9472	-2.873	0.	131.47
2484	-3.7516	-2.602	0.	131.22
2485	-3.6346	-3.0917	0.	131.47
2486	-4.1127	-3.1539	0.	131.23
2487	-4.3176	-3.4284	0.	130.6
2488	-4.0487	-3.6666	0.	130.68
2489	-3.8001	-3.3727	0.	131.22
2490	-5.4625	-0.36069	0.	129.74
2491	-5.7787	-0.17352	0.	123.87
2492	-5.5804	-0.5527	0.	129.25
2493	-5.8749	-0.46143	0.	121.31
2494	-3.5166	-4.1731	0.	129.82
2495	-3.775	-3.9163	0.	130.32
2496	-3.5264	-3.6223	0.	130.87
2497	-3.2653	-3.9248	0.	130.08
2498	-2.4915	-3.7337	0.	129.03
2499	-2.4664	-3.2453	0.	129.88
2500	-2.2317	-3.4994	0.	128.27
2501	-2.5024	-4.2294	0.	128.25
2502	-2.2474	-3.9905	0.	127.84
2503	-2.755	-3.9611	0.	129.21
2504	3.7753	-5.5212	0.	128.35
2505	4.0398	-5.2762	0.	127.89
2506	4.277	-5.5181	0.	128.21
2507	4.021	-5.768	0.	128.68
2508	3.5362	-5.2738	0.	128.36
2509	3.5185	-5.7663	0.	128.6
2510	3.2734	-5.5157	0.	128.48
2511	-3.0056	-6.2278	0.	127.29
2512	-2.7546	-5.9802	0.	127.09
2513	-3.2545	-5.9711	0.	127.59
2514	-3.2574	-6.4736	0.	127.54
2515	-2.7566	-6.4831	0.	127.1
2516	-3.0105	-6.7309	0.	127.15
2517	-3.4774	1.1576	0.	132.26
2518	-3.4585	1.6765	0.	131.18
2519	-3.7178	1.4434	0.	131.7
2520	-3.2217	1.4184	0.	130.99
2521	1.9939	-1.7728	0.	128.25
2522	2.0842	-1.2719	0.	128.46
2523	2.2822	-1.5348	0.	128.45
2524	1.79	-1.5034	0.	127.54
2525	4.0703	-4.7883	0.	127.21
2526	3.8007	-5.0287	0.	127.9
2527	-3.0999	-2.4132	0.	131.89
2528	-3.5451	-2.3684	0.	131.25
2529	-3.3098	-2.127	0.	131.18
2530	3.8341	-4.543	0.	127.69
2531	4.111	-4.303	0.	126.69
2532	4.3372	-4.5367	0.	126.21
2533	1.9308	-2.2708	0.	128.88
2534	1.6953	-2.0164	0.	128.12
2535	2.2023	-2.03	0.	128.71
2536	1.9162	-2.7652	0.	129.79
2537	1.6194	-2.5451	0.	129.
2538	2.1578	-2.5182	0.	129.68
2539	-3.4957	0.60542	0.	133.35
2540	-3.7321	0.93524	0.	132.91
2541	-3.2341	0.89228	0.	132.82
2542	-2.2546	-5.9875	0.	126.66
2543	-2.5056	-6.2355	0.	126.89
2544	-2.5048	-5.7325	0.	126.86
2545	3.5645	-4.7834	0.	128.38
2546	3.2938	-5.02	0.	128.63
2547	3.3234	-4.5264	0.	129.1
2548	3.6061	-4.2963	0.	128.67
2549	-2.5047	-4.7294	0.	127.56
2550	-2.2527	-4.4869	0.	127.36
2551	-2.254	-4.9854	0.	126.85
2552	-2.5048	-5.2305	0.	127.07
2553	-2.7559	-4.9722	0.	127.61
2554	-2.4367	-2.7665	0.	130.86
2555	-2.2063	-3.0176	0.	128.92
2556	-2.6841	-2.9729	0.	130.95
2557	-2.6496	-2.4888	0.	131.76
2558	-2.8969	-2.6951	0.	131.86
2559	-2.8512	-2.1944	0.	132.26
2560	-2.4131	-2.3051	0.	131.88
2561	-2.186	-2.5479	0.	129.87
2562	-3.5098	-4.6972	0.	128.82
2563	-3.7574	-4.9543	0.	128.31
2564	-3.5059	-5.2091	0.	128.14
2565	-3.257	-4.9599	0.	128.18
2566	-3.7636	-4.4408	0.	129.25
2567	2.178	-0.77429	0.	129.66
2568	1.8893	-1.0007	0.	128.1
2569	2.3733	-1.0393	0.	129.39
2570	-3.4334	2.1786	0.	130.91
2571	-3.2011	1.9269	0.	130.14
2572	1.384	-2.2908	0.	128.23
2573	1.1877	-1.9676	0.	127.61
2574	1.4914	-1.747	0.	127.4
2575	3.7643	-6.0131	0.	128.92
2576	3.5097	-6.2599	0.	128.94
2577	3.2618	-6.0102	0.	128.73
2578	5.157	-3.7261	0.	123.57
2579	5.132	-3.2078	0.	121.77
2580	4.9301	-3.4935	0.	122.84
2581	5.4346	-3.5007	0.	124.96
2582	5.3223	-3.2056	0.	124.53
2583	-4.1838	-2.6426	0.	131.04
2584	-4.3879	-2.9207	0.	131.09
2585	2.5899	-3.4703	0.	131.75
2586	2.6812	-3.7037	0.	131.72
2587	2.8167	-3.2445	0.	131.85
2588	3.0086	-3.5088	0.	131.67
2589	3.5346	2.8623	0.	133.36
2590	3.7867	2.6455	0.	132.96
2591	3.5437	2.4394	0.	132.62
2592	3.3148	2.5545	0.	133.07
2593	2.3862	-3.2311	0.	131.37
2594	2.4787	-3.6979	0.	131.63
2595	2.1699	-3.4842	0.	131.34
2596	-3.7317	0.21779	0.	133.41
2597	-3.4339	3.5255e-002	0.	132.79
2598	-3.2313	0.33284	0.	134.36
2599	-3.7526	0.42507	0.	133.61
2600	3.6474	0.32076	0.	129.23
2601	3.3764	0.60825	0.	128.85
2602	3.3182	0.12188	0.	130.85
2603	3.1117	0.38863	0.	130.24
2604	1.9828	-0.50531	0.	129.94
2605	2.2641	-0.28015	0.	131.16
2606	2.463	-0.54602	0.	130.91
2607	1.6941	-0.73171	0.	128.38
2608	1.4039	-0.95043	0.	126.53
2609	1.595	-1.2322	0.	127.18
2610	-4.5501	-3.7012	0.	129.84
2611	-4.8114	-3.4659	0.	128.92
2612	-4.5928	-3.1951	0.	130.47
2613	4.7746	-5.5113	0.	127.99
2614	4.5211	-5.7621	0.	128.9
2615	5.0585	-4.7644	0.	125.34
2616	5.0315	-5.2604	0.	126.88
2617	5.2876	-5.0123	0.	125.65
2618	3.9019	0.53974	0.	127.55
2619	4.2044	0.32498	0.	128.14
2620	4.0551	5.5827e-002	0.	128.73
2621	3.8247	4.848e-002	0.	130.32
2622	-4.9537	4.8153	0.	132.67
2623	-5.2051	4.5815	0.	132.87
2624	-5.5115	4.8889	0.	127.24
2625	-5.1396	5.0622	0.	131.8
2626	-5.4205	4.61	0.	129.94
2627	-3.5126	-6.7195	0.	127.6
2628	-3.758	-6.4607	0.	128.27
2629	-3.5063	-6.2169	0.	127.83
2630	-2.2577	-6.9921	0.	127.04
2631	-2.5123	-7.2407	0.	126.93
2632	-2.5078	-6.7384	0.	126.96
2633	-2.7617	-6.9862	0.	127.01
2634	5.0992	-4.2598	0.	124.4
2635	5.3191	-4.519	0.	124.84
2636	4.8312	-4.5218	0.	125.13
2637	3.0196	4.7743	0.	129.27
2638	3.0194	5.2715	0.	129.31
2639	3.2672	5.0242	0.	129.41
2640	2.7726	5.0216	0.	128.08
2641	-4.0661	7.3801	0.	131.02
2642	-4.1237	6.9132	0.	131.64
2643	-4.3173	7.1627	0.	131.99
2644	-3.8536	7.135	0.	131.19
2645	-3.7668	-2.1068	0.	130.09
2646	-3.9883	-2.3716	0.	130.78
2647	6.899	-1.9698	0.	120.87
2648	7.0956	-2.2439	0.	120.56
2649	7.3522	-2.0017	0.	120.06
2650	7.1297	-1.7465	0.	121.18
2651	4.3838	-4.0476	0.	125.43
2652	4.878	-4.0193	0.	124.22
2653	4.6511	-3.7867	0.	123.5
2654	4.6099	-4.2813	0.	124.95
2655	3.092	-4.2677	0.	130.18
2656	2.844	-3.9769	0.	131.12
2657	3.1713	-3.782	0.	131.06
2658	3.3746	-4.0376	0.	129.76
2659	2.1535	-3.0053	0.	130.66
2660	2.3952	-2.7584	0.	130.55
2661	2.6129	-3.0054	0.	131.47
2662	2.7694	3.5223	0.	133.31
2663	2.5248	3.767	0.	132.43
2664	2.5244	3.2593	0.	133.93
2665	2.2748	3.5144	0.	133.7
2666	3.1404	0.88177	0.	128.71
2667	3.3851	1.097	0.	128.02
2668	3.6309	0.82722	0.	127.19
2669	2.9406	1.6706	0.	130.14
2670	3.1907	1.8733	0.	130.47
2671	2.7216	1.9517	0.	131.24
2672	3.0187	2.1984	0.	131.89
2673	-3.9725	1.221	0.	132.35
2674	-4.2182	1.4821	0.	131.83
2675	-4.1898	0.11099	0.	133.44
2676	-3.9048	-0.10927	0.	132.21
2677	-3.9784	0.32475	0.	133.3
2678	3.2523	-7.0044	0.	129.21
2679	3.0011	-7.2531	0.	129.14
2680	2.7513	-7.003	0.	129.27
2681	3.0033	-6.7548	0.	129.11
2682	-2.0057	-6.7432	0.	127.01
2683	-2.0076	-7.2448	0.	127.07
2684	-1.7556	-6.9954	0.	127.29
2685	1.9373	-3.2583	0.	130.64
2686	1.6963	-3.0331	0.	129.68
2687	1.0633	-2.5094	0.	128.57
2688	1.1718	-2.8017	0.	128.27
2689	1.3996	-2.8131	0.	128.89
2690	0.99511	-1.6717	0.	126.71
2691	0.80979	-1.3738	0.	126.05
2692	1.1075	-1.1694	0.	125.86
2693	1.2987	-1.4512	0.	126.51
2694	3.031	-5.2619	0.	128.75
2695	3.0167	-5.7596	0.	128.62
2696	2.7708	-5.5063	0.	128.61
2697	-2.0035	-5.2408	0.	126.33
2698	-2.004	-5.7409	0.	126.35
2699	-1.7532	-5.4939	0.	126.03
2700	-2.2543	-5.4859	0.	126.55
2701	-1.9876	-3.7562	0.	127.08
2702	-1.9978	-4.248	0.	126.95
2703	-1.7434	-4.0053	0.	126.32
2704	3.0283	-9.6884e-002	0.	131.82
2705	2.5461	-5.3996e-002	0.	131.77
2706	2.7449	-0.31987	0.	131.52
2707	2.8219	0.16987	0.	131.2
2708	2.9077	1.1613	0.	129.43
2709	3.1524	1.3765	0.	128.74
2710	2.6821	1.4368	0.	129.86
2711	-2.9642	1.6688	0.	129.96
2712	-2.9784	1.153	0.	131.56
2713	-2.7263	1.4252	0.	129.41
2714	4.012	-6.2616	0.	129.32
2715	4.2651	-6.0119	0.	129.37
2716	3.5048	-6.7563	0.	129.17
2717	3.7574	-6.5084	0.	129.34
2718	3.2558	-6.5068	0.	129.07
2719	3.7535	-7.0053	0.	129.43
2720	3.5023	-7.2541	0.	129.23
2721	-1.9716	-3.2717	0.	127.31
2722	-1.7305	-3.5147	0.	125.66
2723	-2.181	-2.1024	0.	130.4
2724	-1.9539	-2.3452	0.	128.4
2725	-2.1048	-1.9037	0.	130.97
2726	-1.6896	-2.1075	0.	125.27
2727	-3.5315	-1.8653	0.	130.03
2728	-3.273	-1.613	0.	129.86
2729	-3.0611	-1.9082	0.	131.55
2730	3.0206	3.2743	0.	133.47
2731	3.2704	3.051	0.	133.66
2732	2.7756	3.0113	0.	134.09
2733	3.0506	2.7433	0.	133.37
2734	3.0183	4.2776	0.	130.48
2735	2.7741	4.5231	0.	129.17
2736	3.2659	4.5295	0.	129.89
2737	-4.022	-4.184	0.	129.75
2738	-4.2813	-3.9394	0.	129.91
2739	-4.0041	-5.7075	0.	128.05
2740	-4.2543	-5.4578	0.	127.5
2741	-4.0059	-5.2056	0.	128.05
2742	-3.7544	-5.4604	0.	127.88
2743	-3.6347	2.9199	0.	132.65
2744	-3.8653	3.1624	0.	134.27
2745	-4.1403	2.9317	0.	133.46
2746	-3.402	2.6707	0.	131.48
2747	-3.1739	2.4243	0.	130.22
2748	2.5713	-1.3022	0.	129.37
2749	2.4906	-1.7919	0.	128.91
2750	2.771	-1.5605	0.	129.05
2751	2.8554	-1.0728	0.	130.54
2752	2.6583	-0.81105	0.	130.63
2753	-4.6855	4.5892	0.	133.58
2754	-4.5983	5.0531	0.	130.65
2755	-4.4028	4.8165	0.	131.72
2756	-4.4633	4.3525	0.	134.64
2757	-4.937	4.3555	0.	133.79
2758	-4.7439	4.1249	0.	135.01
2759	-3.14	2.9141	0.	130.72
2760	-3.3672	3.1554	0.	132.67
2761	-2.9119	2.6677	0.	129.46
2762	-2.6558	2.9173	0.	128.45
2763	-2.8796	3.157	0.	129.39
2764	-4.2654	-4.4503	0.	128.98
2765	-4.0112	-4.698	0.	128.74
2766	3.0164	3.7795	0.	132.22
2767	2.7718	4.0242	0.	131.34
2768	3.263	4.0367	0.	131.33
2769	3.2615	3.5445	0.	132.93
2770	-2.3264	-1.8815	0.	132.96
2771	-2.6147	-2.0108	0.	132.37
2772	-1.9556	-2.7989	0.	127.94
2773	-1.7117	-2.5675	0.	125.54
2774	-1.7149	-3.0319	0.	125.03
2775	4.0061	-6.7574	0.	129.6
2776	4.2577	-6.5077	0.	130.07
2777	4.0029	-7.2545	0.	129.56
2778	4.2539	-7.0051	0.	130.05
2779	-2.9415	2.1726	0.	129.45
2780	-2.6855	2.4251	0.	128.73
2781	-2.7087	1.9285	0.	128.58
2782	2.6542	0.93368	0.	130.14
2783	2.8757	0.66215	0.	130.09
2784	-2.002	-4.7429	0.	126.64
2785	-1.7496	-4.4993	0.	126.52
2786	-1.7524	-4.9948	0.	126.19
2787	3.0527	-4.7629	0.	129.35
2788	2.7852	-5.0045	0.	129.21
2789	2.807	-4.4964	0.	130.26
2790	0.86702	-2.1862	0.	127.94
2791	0.68871	-1.8696	0.	127.41
2792	0.66331	-2.7001	0.	127.75
2793	0.54634	-2.3628	0.	128.46
2794	0.77185	-2.9924	0.	127.46
2795	1.0053	-3.2736	0.	127.18
2796	1.2427	-3.0421	0.	128.5
2797	-2.0048	-6.2415	0.	126.69
2798	-1.7539	-5.9934	0.	126.45
2799	-1.7546	-6.4939	0.	127.09
2800	-2.2558	-6.4894	0.	126.92
2801	2.7598	-6.0057	0.	128.75
2802	3.0078	-6.2571	0.	128.87
2803	-4.2292	1.0017	0.	132.83
2804	-3.989	0.7549	0.	133.18
2805	3.4026	1.5793	0.	129.08
2806	3.4768	2.0276	0.	131.02
2807	3.6324	1.7727	0.	129.76
2808	3.6133	1.3118	0.	127.16
2809	2.5276	4.2696	0.	130.03
2810	2.281	4.018	0.	131.45
2811	2.2844	4.5192	0.	128.2
2812	2.527	4.7703	0.	127.98
2813	2.4294	-2.2775	0.	129.52
2814	2.6962	-2.0458	0.	129.09
2815	2.6439	-2.5278	0.	130.43
2816	4.1567	-3.8181	0.	126.25
2817	3.883	-4.0564	0.	127.67
2818	-3.8182	-0.58777	0.	130.16
2819	-4.028	-0.84566	0.	129.1
2820	-3.5275	-0.82584	0.	129.08
2821	-3.7716	-1.0963	0.	128.63
2822	-4.0022	-1.864	0.	128.97
2823	-3.7633	-1.6044	0.	128.8
2824	6.6795	-1.7108	0.	121.47
2825	6.6514	-2.1961	0.	122.45
2826	6.4673	-1.9141	0.	121.59
2827	7.1711	7.3117	0.	131.91
2828	6.8824	7.4228	0.	129.97
2829	6.7263	7.241	0.	125.42
2830	6.9767	7.0475	0.	130.98
2831	5.3629	-4.0181	0.	124.66
2832	-4.0061	-6.2052	0.	128.48
2833	-4.2541	-5.9541	0.	128.2
2834	-3.7544	-5.9614	0.	128.05
2835	7.3062	-2.5065	0.	119.26
2836	6.848	-2.4702	0.	122.14
2837	7.0105	-2.7703	0.	121.66
2838	-3.8091	7.6068	0.	129.8
2839	-3.5966	7.3617	0.	129.97
2840	-3.3346	7.5929	0.	128.24
2841	-3.5588	7.838	0.	128.6
2842	-4.2782	7.6226	0.	130.44
2843	-4.0361	7.8506	0.	129.56
2844	-4.5295	7.4052	0.	131.41
2845	-4.7406	7.635	0.	129.93
2846	-4.5115	7.8614	0.	129.62
2847	-3.5258	-7.225	0.	127.03
2848	-3.7682	-6.9609	0.	127.82
2849	-3.2658	-6.9767	0.	127.21
2850	-3.2787	-7.4829	0.	126.73
2851	-3.7875	-7.4669	0.	126.64
2852	-3.5419	-7.7347	0.	126.54
2853	-2.7693	-7.4891	0.	126.83
2854	-3.0258	-7.7391	0.	126.74
2855	-3.0186	-7.2347	0.	126.91
2856	-2.2622	-7.4933	0.	126.97
2857	-2.5164	-7.7424	0.	126.88
2858	-1.7571	-7.4964	0.	127.09
2859	-2.0103	-7.7453	0.	126.97
2860	-1.5051	-7.247	0.	127.3
2861	-1.2545	-7.498	0.	127.01
2862	-1.5055	-7.7477	0.	126.95
2863	2.7504	-7.5018	0.	129.01
2864	2.2501	-7.5009	0.	128.64
2865	2.5005	-7.2517	0.	129.14
2866	2.5	-7.751	0.	128.75
2867	3.2511	-7.5028	0.	129.16
2868	3.0005	-7.7519	0.	129.07
2869	3.7516	-7.5034	0.	129.36
2870	3.5011	-7.7527	0.	129.28
2871	4.2519	-7.5031	0.	129.82
2872	4.0014	-7.7528	0.	129.55
2873	7.0019	5.2219	0.	126.16
2874	6.7508	4.9801	0.	127.88
2875	7.2515	4.9804	0.	126.17
2876	7.0011	4.7281	0.	125.99
2877	4.0088	4.7789	0.	130.66
2878	4.258	5.0193	0.	132.66
2879	4.0123	5.271	0.	131.1
2880	3.7625	5.0247	0.	130.43
2881	0.62069	-1.0912	0.	125.16
2882	0.32181	-1.2859	0.	127.89
2883	0.50339	-1.5717	0.	126.74
2884	-5.2243	1.9998	0.	133.53
2885	-4.9717	1.7559	0.	131.66
2886	-4.9566	2.2378	0.	131.77
2887	-4.7096	1.9885	0.	131.61
2888	5.2633	-2.9645	0.	123.22
2889	4.8648	-3.0088	0.	119.61
2890	5.0809	-2.7254	0.	119.96
2891	5.2689	-5.5069	0.	127.35
2892	5.0166	-5.7569	0.	129.15
2893	7.6375	0.16078	0.	126.72
2894	7.6342	0.62598	0.	125.42
2895	7.4209	0.38699	0.	127.55
2896	7.8688	0.41238	0.	125.75
2897	7.6257	-0.31364	0.	126.73
2898	7.4054	-8.0582e-002	0.	127.96
2899	7.8657	-6.6102e-002	0.	126.49
2900	7.612	-0.79178	0.	125.25
2901	7.3859	-0.55129	0.	126.66
2902	7.8525	-0.54688	0.	125.87
2903	7.6044	-1.2742	0.	123.
2904	7.3736	-1.0279	0.	124.3
2905	7.8432	-1.0309	0.	124.12
2906	7.5925	-1.7651	0.	120.71
2907	7.3699	-1.5098	0.	121.81
2908	7.8377	-1.5191	0.	121.91
2909	7.5629	-2.2644	0.	118.77
2910	7.8206	-2.0154	0.	119.7
2911	7.5241	-2.7644	0.	117.02
2912	7.789	-2.514	0.	117.57
2913	1.4991	-0.45985	0.	128.33
2914	1.7813	-0.23937	0.	130.93
2915	0.91843	-0.88683	0.	124.97
2916	1.2089	-0.67857	0.	126.47
2917	5.5481	-4.7669	0.	125.15
2918	5.525	-5.2589	0.	126.13
2919	5.7803	-5.0141	0.	125.63
2920	-0.85874	7.5374	0.	125.25
2921	-0.61512	7.2774	0.	126.14
2922	-0.58565	7.7697	0.	125.4
2923	-0.33626	7.5164	0.	124.99
2924	3.2244	-0.3625	0.	132.25
2925	3.4955	-0.15041	0.	131.94
2926	-2.1473	3.4202	0.	124.53
2927	-1.6743	3.4338	0.	125.75
2928	-1.9238	3.1812	0.	125.79
2929	-1.9018	3.6757	0.	121.93
2930	-4.2527	4.1149	0.	135.37
2931	-4.5334	3.8873	0.	135.74
2932	-4.0411	3.8768	0.	136.43
2933	-4.3186	3.6459	0.	135.67
2934	-4.282	5.2764	0.	128.37
2935	-3.9646	5.4962	0.	128.09
2936	-4.0866	5.0399	0.	129.42
2937	-3.7823	5.2618	0.	127.56
2938	-2.4006	3.1668	0.	126.11
2939	-2.6245	3.4064	0.	127.04
2940	-2.3728	3.6573	0.	122.15
2941	-3.5978	3.398	0.	134.29
2942	-3.8204	3.6359	0.	136.
2943	-4.098	3.405	0.	135.25
2944	-4.0136	-6.7022	0.	128.49
2945	-4.2576	-6.4467	0.	129.49
2946	-4.5247	-4.2057	0.	129.14
2947	-4.7822	-3.9667	0.	128.78
2948	-4.5063	-5.2086	0.	127.36
2949	-4.5043	-5.7044	0.	127.64
2950	-4.7545	-5.4615	0.	126.2
2951	-5.0717	-3.2335	0.	128.08
2952	-5.2991	-3.4979	0.	125.43
2953	-5.0434	-3.7315	0.	127.87
2954	3.5113	3.3212	0.	133.12
2955	3.7593	3.0979	0.	133.05
2956	3.5105	4.2885	0.	130.73
2957	3.7599	4.5335	0.	130.26
2958	3.5135	4.7794	0.	130.03
2959	3.2684	5.5208	0.	130.18
2960	3.0188	5.7688	0.	130.6
2961	2.7695	5.5189	0.	128.78
2962	3.5198	5.7697	0.	131.21
2963	3.7661	5.5197	0.	130.94
2964	3.5162	5.2735	0.	130.27
2965	-3.6071	-0.2918	0.	131.6
2966	-3.3164	-0.52986	0.	130.51
2967	-3.1056	-0.24155	0.	133.98
2968	-3.2608	-1.0815	0.	129.08
2969	-3.5048	-1.352	0.	128.63
2970	-2.9779	-1.3746	0.	130.85
2971	5.8046	-4.525	0.	125.42
2972	5.5828	-4.2772	0.	125.1
2973	4.5029	-7.2536	0.	130.31
2974	4.5015	-7.7523	0.	130.14
2975	4.7517	-7.5021	0.	130.74
2976	4.5109	-6.258	0.	130.11
2977	4.7631	-6.0077	0.	130.06
2978	-2.4293	2.6748	0.	127.72
2979	-2.1771	2.9278	0.	127.34
2980	-2.7325	0.91538	0.	131.76
2981	-2.9697	0.6197	0.	133.84
2982	-2.4804	1.1875	0.	129.62
2983	-2.4708	1.6849	0.	128.03
2984	-2.2305	1.4491	0.	126.83
2985	2.5254	2.7462	0.	133.92
2986	2.2725	3.0061	0.	134.65
2987	-0.28494	3.2779	0.	119.53
2988	-0.30285	3.0509	0.	118.01
2989	0.20236	3.1078	0.	116.96
2990	-4.3648e-002	2.8431	0.	116.13
2991	-3.2035e-002	3.4254	0.	115.87
2992	2.4286	1.2092	0.	130.57
2993	2.4631	1.7179	0.	130.96
2994	2.2039	1.476	0.	130.53
2995	2.0626	-1.4211e-002	0.	132.14
2996	2.3355	0.21264	0.	131.88
2997	-1.4863	-3.7638	0.	124.9
2998	-1.4739	-3.2749	0.	123.38
2999	-1.2326	-3.5182	0.	123.09
3000	-1.4952	-4.2566	0.	125.89
3001	-1.2425	-4.0119	0.	125.3
3002	2.559	-4.2056	0.	131.19
3003	2.2937	-3.9609	0.	131.74
3004	0.51708	-3.2273	0.	125.57
3005	0.50368	-3.7544	0.	122.33
3006	0.25756	-3.5175	0.	123.42
3007	0.75056	-3.5085	0.	125.27
3008	1.7164	-3.5141	0.	130.15
3009	1.9849	-3.7472	0.	131.45
3010	-1.5045	-6.7462	0.	127.37
3011	-1.2541	-6.9974	0.	127.69
3012	-1.5021	-5.248	0.	125.89
3013	-1.2521	-5.4989	0.	125.72
3014	-1.5031	-5.7464	0.	126.13
3015	-1.0035	-7.2484	0.	127.4
3016	-0.75297	-7.4989	0.	126.26
3017	-1.0037	-7.7486	0.	126.59
3018	1.75	-7.5003	0.	127.53
3019	2.0004	-7.2506	0.	128.94
3020	2.	-7.7505	0.	128.04
3021	0.74976	-7.4999	0.	123.39
3022	0.24933	-7.4998	0.	123.11
3023	0.49973	-7.2499	0.	121.28
3024	0.49952	-7.7499	0.	123.32
3025	2.5138	-5.7523	0.	128.73
3026	2.2662	-5.4998	0.	128.55
3027	2.525	-5.2489	0.	129.07
3028	2.2509	-7.0015	0.	129.44
3029	2.5025	-6.7525	0.	129.35
3030	-4.4749	1.2628	0.	132.31
3031	-4.7236	1.5072	0.	131.68
3032	-4.4616	1.7399	0.	131.63
3033	-4.3774	-0.12942	0.	132.93
3034	-4.4466	0.33308	0.	133.81
3035	-4.6558	0.10419	0.	134.1
3036	4.2582	2.6667	0.	130.74
3037	4.0258	2.4019	0.	132.77
3038	4.0113	2.8811	0.	132.65
3039	5.2127	2.8325	0.	115.33
3040	5.2073	3.0263	0.	114.98
3041	5.7204	2.9408	0.	111.7
3042	5.4719	3.2098	0.	108.15
3043	5.484	2.6675	0.	109.96
3044	3.8591	1.042	0.	126.31
3045	4.1202	0.81491	0.	125.74
3046	3.7828	2.1959	0.	132.44
3047	3.3048	2.3526	0.	132.44
3048	7.4137	0.84672	0.	124.87
3049	7.539	1.0819	0.	125.35
3050	7.8468	0.88595	0.	124.6
3051	2.0373	4.7684	0.	126.43
3052	2.0277	5.2677	0.	125.27
3053	1.7911	5.0188	0.	123.78
3054	2.28	5.0195	0.	126.22
3055	1.7769	3.5178	0.	133.64
3056	2.0229	3.2613	0.	134.41
3057	2.0311	3.7654	0.	132.72
3058	-6.242	7.5226	0.	118.1
3059	-6.5129	7.2974	0.	113.78
3060	-6.7547	7.5458	0.	118.43
3061	-6.4964	7.7803	0.	118.36
3062	-4.2095	6.4483	0.	130.5
3063	-3.924	6.6669	0.	131.5
3064	-4.3937	6.7059	0.	132.64
3065	-4.7841	5.3	0.	129.87
3066	-4.4597	5.5175	0.	127.83
3067	-5.7117	7.4902	0.	123.1
3068	-6.0071	7.2611	0.	118.03
3069	-5.9846	7.759	0.	120.58
3070	-4.7715	7.208	0.	131.82
3071	-4.5874	6.9553	0.	132.99
3072	2.8616	-2.7748	0.	131.35
3073	3.0671	-3.034	0.	132.39
3074	3.0552	-1.3312	0.	130.22
3075	3.2541	-1.588	0.	129.03
3076	2.9766	-1.8144	0.	129.24
3077	4.424	-3.5572	0.	124.32
3078	4.663	-3.2946	0.	120.78
3079	3.2589	-3.2983	0.	132.2
3080	3.4603	-3.5572	0.	130.61
3081	7.1888	0.14563	0.	128.78
3082	7.2003	0.60773	0.	126.97
3083	6.9941	0.36944	0.	128.5
3084	7.1391	-1.2634	0.	123.12
3085	6.9102	-1.4875	0.	121.78
3086	6.908	-1.0128	0.	124.2
3087	7.1475	-0.78735	0.	125.72
3088	-4.0925	-0.34967	0.	131.7
3089	-4.2237	-2.1289	0.	129.65
3090	-4.4362	-2.4085	0.	131.1
3091	-4.8531	-2.9627	0.	129.63
3092	-4.6403	-2.6866	0.	131.16
3093	-5.7987	-3.0411	0.	119.96
3094	-6.0332	-3.2979	0.	117.35
3095	-6.0375	-2.8201	0.	115.76
3096	-6.2774	-3.0673	0.	115.67
3097	-3.8394	5.9547	0.	129.34
3098	-3.6513	5.7146	0.	129.2
3099	-4.1423	5.7374	0.	127.55
3100	-3.6539	6.8887	0.	131.04
3101	-3.3809	7.1149	0.	129.75
3102	-2.8539	7.5806	0.	125.95
3103	-3.1189	7.3461	0.	128.02
3104	-3.0787	7.8274	0.	126.88
3105	-1.3731	7.5562	0.	124.44
3106	-1.1009	7.7897	0.	124.96
3107	-1.1351	7.3141	0.	125.96
3108	7.6226	7.4256	0.	131.6
3109	7.294	7.5953	0.	132.83
3110	7.426	7.143	0.	132.89
3111	-1.8755	7.5651	0.	123.42
3112	-1.6064	7.803	0.	124.
3113	-1.6455	7.3258	0.	123.49
3114	-2.3678	7.5709	0.	123.86
3115	-2.103	7.8093	0.	123.58
3116	-2.1437	7.3232	0.	122.24
3117	-2.5926	7.8166	0.	124.82
3118	-2.6342	7.3311	0.	124.45
3119	-4.0193	6.2005	0.	130.
3120	-3.5328	6.1725	0.	131.1
3121	-3.7338	6.4191	0.	130.98
3122	-5.3243	-3.0037	0.	125.89
3123	-5.5517	-3.2681	0.	123.23
3124	-5.5703	-2.7775	0.	123.96
3125	-5.1036	-2.7349	0.	129.88
3126	-4.2477	-1.6158	0.	128.02
3127	-4.4676	-1.8945	0.	128.75
3128	-4.2652	-1.1055	0.	128.33
3129	-4.5104	-1.3672	0.	126.81
3130	-4.0087	-1.3561	0.	127.86
3131	-4.3023	-0.60755	0.	130.64
3132	-4.4975	-0.8471	0.	129.81
3133	-4.5634	-0.35994	0.	132.84
3134	-5.018	-0.34937	0.	133.36
3135	-4.7586	-0.59948	0.	131.99
3136	-4.8418	-0.12633	0.	133.99
3137	6.9497	-8.1475e-002	0.	128.43
3138	7.1656	-0.31823	0.	127.9
3139	4.1925	-3.3366	0.	126.08
3140	3.9373	-3.5744	0.	127.89
3141	3.1146	-2.5542	0.	131.68
3142	2.9107	-2.2962	0.	130.
3143	-5.2172	7.3541	0.	128.99
3144	-5.0421	7.0266	0.	132.97
3145	-4.9826	7.4379	0.	130.37
3146	-5.4614	7.743	0.	125.73
3147	-5.4937	7.2082	0.	126.98
3148	-5.2043	7.5557	0.	127.97
3149	-4.4907	6.2415	0.	129.66
3150	-4.3221	5.9832	0.	128.18
3151	-7.7649	7.5528	0.	127.03
3152	-7.5199	7.3191	0.	127.76
3153	-7.262	7.556	0.	123.02
3154	-7.5103	7.7981	0.	125.13
3155	1.7983	4.5188	0.	127.9
3156	2.0378	4.2676	0.	129.63
3157	3.8432	1.5053	0.	127.84
3158	3.9384	1.941	0.	131.16
3159	4.0364	1.7278	0.	129.84
3160	4.0618	1.2848	0.	126.4
3161	-4.7298	1.0322	0.	132.79
3162	-4.4754	0.79365	0.	133.32
3163	-5.3074	-0.12494	0.	132.73
3164	-5.1731	-0.54804	0.	133.15
3165	2.2581	-6.0014	0.	129.16
3166	2.5065	-6.2529	0.	129.08
3167	1.2499	-7.5	0.	125.44
3168	1.0002	-7.25	0.	123.75
3169	0.99979	-7.75	0.	124.51
3170	1.4999	-7.7501	0.	126.55
3171	1.5003	-7.2501	0.	127.43
3172	-8.9014e-004	-7.2498	0.	123.13
3173	-0.25166	-7.4995	0.	124.62
3174	-1.1777e-003	-7.7497	0.	123.97
3175	-1.2533	-6.4972	0.	127.85
3176	-1.5038	-6.2458	0.	126.85
3177	1.492	-3.7666	0.	129.81
3178	1.2381	-3.5205	0.	127.87
3179	1.4755	-3.2889	0.	129.2
3180	2.2888	-4.4844	0.	131.32
3181	2.5395	-4.738	0.	130.12
3182	-1.5	-4.7513	0.	126.07
3183	-1.248	-4.5062	0.	126.49
3184	-1.2509	-5.0014	0.	126.25
3185	2.1727	0.97333	0.	131.76
3186	2.3898	0.70804	0.	131.36
3187	2.5034	2.2315	0.	132.54
3188	2.2347	1.9848	0.	132.14
3189	2.2672	2.4953	0.	134.1
3190	2.8005	2.4782	0.	133.2
3191	-2.4719	0.69195	0.	132.82
3192	-2.2328	0.95957	0.	129.23
3193	-2.4526	2.181	0.	127.86
3194	-2.2002	2.4357	0.	128.06
3195	-2.2178	1.9426	0.	127.15
3196	4.5055	-6.7554	0.	130.52
3197	4.7561	-6.5046	0.	131.46
3198	4.7533	-7.0033	0.	131.36
3199	5.8946	-3.5892	0.	127.98
3200	5.7602	-3.3252	0.	127.82
3201	5.6406	-3.7927	0.	126.05
3202	-1.471	-2.8005	0.	122.63
3203	-1.2213	-2.5135	0.	116.65
3204	-1.4474	-2.3299	0.	122.41
3205	-1.2185	-3.0212	0.	120.36
3206	-0.73717	-3.5255	0.	121.95
3207	-0.98876	-3.7663	0.	123.53
3208	-0.97721	-3.2645	0.	120.12
3209	-0.48235	-3.2926	0.	120.81
3210	-0.49198	-3.7762	0.	123.3
3211	-0.24002	-3.5337	0.	122.35
3212	-2.1263	-1.5122	0.	135.45
3213	-1.9793	-1.67	0.	127.45
3214	-2.4777	-1.5405	0.	133.08
3215	-2.7091	0.39626	0.	134.87
3216	-2.223	0.48956	0.	132.66
3217	-2.4197	0.2049	0.	136.86
3218	-2.903	5.6033e-002	0.	135.53
3219	3.5252	6.2668	0.	131.87
3220	3.7823	6.5154	0.	132.54
3221	3.2741	6.5143	0.	132.1
3222	3.531	6.764	0.	130.98
3223	3.7719	6.0171	0.	132.25
3224	3.2702	6.0177	0.	131.64
3225	7.4994	6.2069	0.	129.69
3226	7.2542	5.9557	0.	127.93
3227	7.5023	5.722	0.	127.72
3228	7.7496	5.9774	0.	128.58
3229	7.2534	6.4263	0.	130.12
3230	7.7404	6.4664	0.	130.45
3231	7.4815	6.6797	0.	131.78
3232	7.5016	3.7203	0.	127.46
3233	7.2511	3.4634	0.	127.63
3234	7.5012	3.2052	0.	128.75
3235	7.7507	3.4654	0.	128.09
3236	7.2507	3.9744	0.	126.65
3237	7.5012	4.2282	0.	126.47
3238	7.751	3.9769	0.	126.97
3239	5.9975	2.6872	0.	111.3
3240	6.0167	2.1698	0.	107.71
3241	5.7611	2.4138	0.	109.51
3242	6.2572	2.4274	0.	115.49
3243	4.7339	2.707	0.	124.31
3244	4.4905	2.905	0.	128.78
3245	4.5195	2.4631	0.	130.31
3246	4.9656	2.9238	0.	119.47
3247	5.0001	2.5225	0.	120.2
3248	3.508	3.8017	0.	132.03
3249	3.7561	4.0476	0.	131.24
3250	3.7533	3.5683	0.	132.51
3251	-5.7862	-3.5249	0.	120.63
3252	-5.5341	-3.7579	0.	123.83
3253	-6.0251	-3.7788	0.	118.2
3254	-6.2754	-3.5423	0.	117.39
3255	-4.5121	-4.7087	0.	128.15
3256	-4.7579	-4.9658	0.	127.23
3257	-4.2579	-4.9564	0.	127.91
3258	-4.7661	-4.467	0.	128.45
3259	-4.0299	-7.2028	0.	127.43
3260	-4.0701	-7.7248	0.	126.28
3261	-4.2904	-7.4233	0.	127.25
3262	-4.2682	-6.9366	0.	129.23
3263	-3.1068	3.3983	0.	131.35
3264	-3.3288	3.6342	0.	134.83
3265	-2.8487	3.6416	0.	129.2
3266	-4.1805	4.5798	0.	132.75
3267	-3.896	4.807	0.	131.38
3268	-3.9747	4.3444	0.	135.26
3269	-0.73405	3.4291	0.	124.95
3270	-0.51653	3.1909	0.	121.11
3271	-0.48321	3.6515	0.	125.25
3272	-1.2042	3.4401	0.	127.27
3273	-1.4315	3.689	0.	127.86
3274	-1.4505	3.1935	0.	127.33
3275	-0.95952	3.6881	0.	130.94
3276	-0.98084	3.1979	0.	125.87
3277	6.4577	-1.4568	0.	121.55
3278	6.6791	-1.2368	0.	122.86
3279	5.5054	-2.6911	0.	129.29
3280	5.6479	-3.03	0.	127.42
3281	6.4083	-2.3606	0.	124.9
3282	6.5465	-2.6446	0.	125.59
3283	3.1382	-0.84727	0.	131.86
3284	3.4215	-0.62272	0.	133.56
3285	2.9411	-0.58548	0.	131.96
3286	3.3383	-1.103	0.	131.92
3287	-0.89147	7.054	0.	126.85
3288	-0.65859	6.7641	0.	129.02
3289	-0.36452	7.0203	0.	125.93
3290	4.5683	7.7684	0.	125.98
3291	4.5788	7.2621	0.	129.21
3292	4.8721	7.5123	0.	126.55
3293	4.3202	7.5141	0.	127.54
3294	-4.3193	-8.1007	0.	126.11
3295	-4.5524	-8.0051	0.	125.6
3296	-4.5135	-8.4162	0.	126.81
3297	-4.7414	-8.2416	0.	126.39
3298	-3.8245	-7.9926	0.	126.19
3299	-4.3326	-7.8992	0.	125.47
3300	-4.0597	-8.2637	0.	126.42
3301	-3.5374	-8.246	0.	126.66
3302	-3.289	-7.9909	0.	126.56
3303	-1.5058	-8.2478	0.	126.67
3304	-1.2547	-7.9982	0.	126.53
3305	-1.7587	-7.9966	0.	126.83
3306	-0.50191	-8.2495	0.	125.41
3307	-0.50222	-7.7493	0.	125.51
3308	-0.25174	-7.9995	0.	124.86
3309	-0.75291	-7.999	0.	125.84
3310	1.4999	-8.2501	0.	126.41
3311	1.2498	-8.	0.	125.63
3312	1.7499	-8.0002	0.	127.06
3313	4.0007	-8.2517	0.	129.91
3314	4.251	-8.002	0.	129.87
3315	3.7508	-8.0022	0.	129.48
3316	4.4227	0.60016	0.	126.3
3317	4.5701	0.15225	0.	126.19
3318	4.7406	0.40741	0.	125.13
3319	-6.278	7.0359	0.	113.52
3320	-6.7765	7.0709	0.	115.05
3321	-6.5438	6.8239	0.	108.47
3322	7.3254	1.0737	0.	125.62
3323	6.9686	0.83224	0.	131.28
3324	-0.51969	2.7306	0.	117.39
3325	-0.76331	2.9597	0.	121.99
3326	7.2283	-3.0282	0.	119.43
3327	7.5105	-3.2613	0.	114.45
3328	7.7604	-3.0109	0.	115.24
3329	0.4339	-0.81338	0.	128.43
3330	0.7239	-0.61641	0.	125.03
3331	7.0042	5.7049	0.	126.68
3332	6.7515	5.4686	0.	126.93
3333	7.2522	5.4712	0.	126.49
3334	4.0054	4.2926	0.	130.77
3335	4.2559	4.5286	0.	131.39
3336	-4.5529	-7.5978	0.	126.44
3337	-4.8307	-7.8364	0.	127.23
3338	-4.7537	-5.9529	0.	127.57
3339	-4.5056	-6.1956	0.	129.2
3340	-2.994	-0.81268	0.	128.2
3341	0.2606	-3.0214	0.	125.74
3342	0.32577	-2.8253	0.	127.44
3343	1.2972	-0.19543	0.	129.38
3344	1.0144	-0.40815	0.	126.59
3345	-8.0024	-7.7861	0.	124.56
3346	-7.7076	-7.5723	0.	124.73
3347	-8.2502	-7.5298	0.	125.32
3348	-7.9848	-7.2936	0.	126.56
3349	-7.7628	-8.0467	0.	123.33
3350	-7.9968	-8.2816	0.	124.59
3351	-8.2528	-8.0277	0.	124.39
3352	4.5282	8.2739	0.	125.21
3353	4.8034	8.0375	0.	130.09
3354	4.2924	8.0169	0.	124.58
3355	7.9051	7.2322	0.	130.36
3356	8.1263	7.5361	0.	128.19
3357	7.763	7.7111	0.	127.92
3358	8.2005	7.0114	0.	129.31
3359	7.9674	6.7363	0.	130.33
3360	7.7085	6.9497	0.	131.66
3361	8.2504	4.4874	0.	126.56
3362	7.7509	4.4826	0.	126.29
3363	8.0008	4.2313	0.	126.79
3364	8.0007	4.7363	0.	126.48
3365	8.3322	-4.7451e-002	0.	125.5
3366	8.0925	-0.29934	0.	125.63
3367	8.097	0.1855	0.	125.51
3368	8.3119	-1.5197	0.	122.56
3369	8.0658	-1.7695	0.	120.92
3370	8.0765	-1.2757	0.	123.04
3371	-7.9018	4.5911	0.	126.03
3372	-8.086	4.2996	0.	126.97
3373	-8.3366	4.5094	0.	127.8
3374	-8.256	4.7527	0.	126.66
3375	-7.7531	4.8771	0.	125.08
3376	-8.1073	5.0386	0.	125.72
3377	-7.5626	5.1454	0.	124.36
3378	-7.8785	5.3457	0.	124.13
3379	-8.2646	7.5412	0.	128.15
3380	-8.0124	7.7915	0.	127.37
3381	-8.018	7.3052	0.	129.65
3382	-6.9992	8.2783	0.	122.12
3383	-7.005	7.7948	0.	120.9
3384	-6.7467	8.0293	0.	120.78
3385	-7.2533	8.0368	0.	123.01
3386	-5.4894	8.2661	0.	124.75
3387	-5.2401	8.0433	0.	126.21
3388	-5.7343	8.0118	0.	123.21
3389	-3.5356	8.3164	0.	127.45
3390	-3.7858	8.0817	0.	128.36
3391	-3.3029	8.0725	0.	127.24
3392	-2.3279	8.055	0.	124.54
3393	-2.5587	8.3007	0.	125.1
3394	-2.8175	8.0634	0.	125.75
3395	-1.8339	8.0472	0.	124.15
3396	-2.0658	8.2937	0.	124.4
3397	-1.3342	8.0366	0.	124.52
3398	-1.5691	8.2862	0.	124.47
3399	-0.82778	8.022	0.	125.12
3400	-1.0665	8.274	0.	125.02
3401	-0.31481	8.0075	0.	125.88
3402	-0.55905	8.2603	0.	125.71
3403	5.7639	-5.5055	0.	126.07
3404	5.5118	-5.754	0.	128.39
3405	-1.1713	6.8633	0.	128.59
3406	-1.4075	7.0837	0.	125.01
3407	-4.8907	-2.4588	0.	131.39
3408	-4.6802	-2.174	0.	130.18
3409	4.4315	-3.074	0.	122.53
3410	4.6624	-2.8134	0.	115.01
3411	3.32	-2.8133	0.	132.71
3412	3.5211	-3.0741	0.	132.47
3413	-6.0511	6.7688	0.	113.16
3414	-5.7892	6.9791	0.	121.93
3415	1.2743	3.5328	0.	129.95
3416	1.5359	3.7714	0.	133.12
3417	1.5189	3.2706	0.	133.26
3418	4.5956	0.85975	0.	131.64
3419	4.3228	1.0577	0.	125.75
3420	4.13	1.941	0.	131.51
3421	4.2871	2.1982	0.	132.31
3422	-5.3808	4.3826	0.	130.07
3423	-5.2103	4.1343	0.	132.98
3424	-4.8202	3.6609	0.	135.16
3425	-5.0172	3.9037	0.	134.2
3426	2.0105	-5.7489	0.	128.98
3427	1.7604	-5.4983	0.	129.87
3428	2.018	-5.2459	0.	129.38
3429	1.7507	-7.0005	0.	128.84
3430	2.0018	-6.7507	0.	129.9
3431	0.24951	-6.9999	0.	121.28
3432	0.49993	-6.7499	0.	116.59
3433	0.75012	-6.9999	0.	121.61
3434	-1.003	-6.7483	0.	128.17
3435	-0.75267	-6.9988	0.	127.43
3436	0.25343	-4.0128	0.	121.19
3437	0.75117	-4.0092	0.	122.68
3438	0.50221	-4.2568	0.	117.03
3439	2.0235	-4.2396	0.	131.86
3440	1.7605	-3.9996	0.	131.1
3441	-1.0009	-5.2523	0.	126.07
3442	-1.0018	-5.7499	0.	126.45
3443	-0.751	-5.5012	0.	127.39
3444	-0.74357	-4.0169	0.	124.83
3445	-0.99525	-4.2615	0.	125.91
3446	1.9754	1.7429	0.	131.7
3447	1.948	1.2401	0.	131.72
3448	1.7216	1.4968	0.	132.67
3449	1.5794	2.5043e-002	0.	131.97
3450	1.8525	0.25016	0.	133.26
3451	0.73702	3.0586	0.	121.63
3452	0.48077	2.8094	0.	117.13
3453	0.49241	3.3372	0.	116.5
3454	2.0142	2.7553	0.	134.82
3455	1.7649	3.014	0.	134.03
3456	-1.9476	0.33893	0.	131.08
3457	-1.6967	0.29697	0.	127.36
3458	-1.8286	-4.1148e-002	0.	125.73
3459	-2.1443	5.4271e-002	0.	135.22
3460	-1.9776	1.7068	0.	125.94
3461	-1.983	1.2212	0.	126.43
3462	-1.7359	1.4701	0.	125.63
3463	-1.7	2.9408	0.	127.36
3464	-1.948	2.6887	0.	127.68
3465	2.0138	5.7645	0.	125.78
3466	1.7727	5.517	0.	125.22
3467	2.2705	5.5172	0.	126.6
3468	6.3616	-3.0374	0.	128.55
3469	6.184	-3.427	0.	129.36
3470	6.4234	-3.3657	0.	130.22
3471	6.0495	-3.163	0.	129.21
3472	-0.24124	-3.0705	0.	122.07
3473	1.0852e-003	-3.3116	0.	123.61
3474	5.7644e-002	-2.8926	0.	126.15
3475	4.3105	7.0117	0.	130.81
3476	4.0434	6.7649	0.	132.01
3477	3.7921	7.0135	0.	130.46
3478	4.0519	7.2637	0.	129.13
3479	7.0006	3.2035	0.	127.36
3480	7.0026	2.6837	0.	128.73
3481	6.7487	2.9454	0.	124.47
3482	7.2508	2.9453	0.	128.47
3483	4.0012	3.345	0.	132.43
3484	4.2436	3.1194	0.	130.68
3485	-6.2683	-4.0242	0.	116.81
3486	-6.7648	-4.0263	0.	117.74
3487	-6.5125	-4.2704	0.	112.18
3488	-6.5185	-3.7877	0.	116.01
3489	3.5372	-1.3599	0.	130.72
3490	3.4539	-1.8451	0.	129.38
3491	3.7301	-1.6177	0.	131.26
3492	-0.39909	6.5105	0.	127.62
3493	-0.92102	6.3819	0.	132.13
3494	-0.93841	6.5733	0.	130.71
3495	-0.62177	6.2446	0.	131.92
3496	4.4209	-0.1169	0.	126.76
3497	4.1743	-0.40488	0.	130.87
3498	3.9529	-0.17383	0.	130.37
3499	3.6216	-0.87849	0.	133.6
3500	3.914	-0.64168	0.	133.71
3501	3.6926	-0.41062	0.	133.24
3502	3.8224	-1.1235	0.	134.91
3503	6.0996	-2.4683	0.	128.04
3504	6.2378	-2.7524	0.	128.72
3505	5.7832	-2.539	0.	131.26
3506	5.9257	-2.8779	0.	129.38
3507	6.2243	-2.0786	0.	124.03
3508	6.0139	-2.1216	0.	124.41
3509	6.2455	-1.6602	0.	121.64
3510	6.0482	-1.9217	0.	122.3
3511	6.2175	-1.2088	0.	121.92
3512	6.0135	-1.4455	0.	124.54
3513	-1.1868	3.937	0.	131.45
3514	-1.4279	4.1919	0.	130.19
3515	-1.6589	3.9309	0.	124.07
3516	-3.6902	4.5716	0.	133.87
3517	-3.413	4.8027	0.	129.92
3518	-3.5918	5.0289	0.	129.47
3519	-3.4934	4.3418	0.	138.73
3520	-3.763	4.1063	0.	136.31
3521	-3.0707	3.8775	0.	132.69
3522	-3.2818	4.1076	0.	138.95
3523	-3.5515	3.8721	0.	136.53
3524	-2.8128	4.1224	0.	130.8
3525	-2.597	3.8924	0.	124.3
3526	-7.4679	-7.8329	0.	123.43
3527	-7.427	-7.3516	0.	126.84
3528	-7.4817	-8.301	0.	124.8
3529	-7.3142	-8.1149	0.	124.01
3530	-4.5287	-7.1571	0.	129.05
3531	-4.7888	-7.3861	0.	127.4
3532	-4.7641	-6.9163	0.	133.07
3533	-4.5122	-6.6812	0.	130.22
3534	-8.2292	-6.5336	0.	128.12
3535	-7.7204	-6.5526	0.	130.01
3536	-7.9712	-6.7962	0.	128.48
3537	-7.9802	-6.2866	0.	128.09
3538	-5.0039	-6.1956	0.	128.61
3539	-5.252	-6.4444	0.	127.96
3540	-5.0078	-6.6734	0.	133.06
3541	-4.7558	-6.4382	0.	130.22
3542	-5.2526	-5.9624	0.	126.09
3543	-5.0039	-5.7099	0.	126.12
3544	-5.2567	-4.9795	0.	126.93
3545	-5.0061	-5.2186	0.	126.06
3546	-5.0119	-4.724	0.	127.52
3547	-5.773	-4.0118	0.	121.42
3548	-5.5196	-4.2488	0.	126.27
3549	-5.2784	-3.9915	0.	126.28
3550	-6.0155	-4.264	0.	118.64
3551	-7.2616	-4.0204	0.	122.62
3552	-7.0105	-4.2688	0.	120.35
3553	-7.0141	-3.7814	0.	120.65
3554	-8.2492	-5.0133	0.	123.89
3555	-7.7503	-5.0132	0.	125.01
3556	-8.0018	-4.763	0.	124.03
3557	-7.9969	-5.2675	0.	124.15
3558	4.0014	3.8142	0.	131.71
3559	4.2522	4.0463	0.	130.59
3560	4.2461	3.5766	0.	131.79
3561	4.7222	3.1218	0.	123.95
3562	4.4885	3.351	0.	130.05
3563	4.9758	3.3305	0.	119.19
3564	5.9888	3.2088	0.	113.85
3565	6.2414	2.9462	0.	116.96
3566	7.0002	3.7176	0.	126.82
3567	6.7482	3.4635	0.	126.19
3568	6.7496	3.9757	0.	126.07
3569	7.0005	4.2257	0.	126.1
3570	7.0082	6.1751	0.	128.36
3571	6.7555	5.945	0.	125.85
3572	6.764	6.4009	0.	127.31
3573	7.0035	6.6254	0.	130.28
3574	4.8303	6.9906	0.	128.92
3575	4.555	6.7576	0.	132.75
3576	4.029	6.2657	0.	132.91
3577	4.2879	6.5108	0.	133.97
3578	4.269	6.012	0.	132.89
3579	4.0181	5.7671	0.	131.98
3580	-7.7581	-4.013	0.	123.8
3581	-8.0057	-3.7582	0.	122.75
3582	-8.2547	-4.0083	0.	121.12
3583	-8.0051	-4.2608	0.	123.22
3584	-7.5097	-3.7667	0.	126.53
3585	-7.5081	-4.2646	0.	126.05
3586	-6.9941	-2.834	0.	121.12
3587	-7.2551	-3.0337	0.	125.12
3588	-7.0119	-3.2988	0.	121.08
3589	-6.7637	-3.0678	0.	117.89
3590	-7.2261	-2.5359	0.	129.14
3591	-6.9363	-2.4355	0.	119.21
3592	-6.7404	-2.6163	0.	115.04
3593	-2.7832	-0.52437	0.	131.6
3594	-2.6137	-0.13533	0.	137.44
3595	-2.4847	-0.64109	0.	137.84
3596	-2.5207	-0.94377	0.	130.1
3597	-2.7111	-1.1058	0.	129.93
3598	-0.72239	-3.0316	0.	118.9
3599	-0.96882	-2.7342	0.	114.35
3600	-0.43297	-2.8226	0.	120.88
3601	4.7919e-002	-2.2224	0.	130.68
3602	0.20881	-2.488	0.	128.11
3603	0.36803	-2.0462	0.	127.9
3604	6.7089	-2.9447	0.	125.12
3605	6.7708	-3.273	0.	126.79
3606	7.	-3.2891	0.	122.53
3607	6.0951	-3.8387	0.	128.23
3608	6.3505	-3.5644	0.	129.98
3609	6.3135	-4.0354	0.	128.28
3610	6.0629	-4.29	0.	126.61
3611	5.8411	-4.0422	0.	126.31
3612	5.0039	-6.7524	0.	132.29
3613	5.2542	-6.502	0.	133.62
3614	5.0084	-6.2543	0.	131.41
3615	5.2521	-7.0014	0.	133.15
3616	5.0021	-7.2518	0.	131.78
3617	0.15824	6.5109	0.	123.84
3618	-0.1052	6.2961	0.	123.05
3619	-0.10502	6.7668	0.	124.52
3620	1.7506	6.0119	0.	125.58
3621	2.004	6.2594	0.	126.64
3622	2.2601	6.013	0.	128.26
3623	2.7653	6.5114	0.	133.22
3624	3.0191	6.2652	0.	131.86
3625	3.0202	6.7611	0.	131.33
3626	-1.4683	2.7028	0.	128.86
3627	-1.2272	2.9513	0.	125.93
3628	-1.7287	1.9608	0.	127.05
3629	-1.9654	2.1972	0.	127.34
3630	-1.984	0.75719	0.	129.09
3631	-1.7361	0.98011	0.	126.49
3632	-1.7338	0.49218	0.	126.86
3633	1.9985	2.2486	0.	133.69
3634	1.7401	2.0006	0.	133.6
3635	1.7551	2.5074	0.	135.37
3636	1.0098	3.2917	0.	126.13
3637	0.99592	2.7816	0.	126.61
3638	1.2544	3.0295	0.	129.46
3639	1.3715	0.28383	0.	134.58
3640	1.0939	6.4178e-002	0.	129.79
3641	1.6951	0.9987	0.	134.42
3642	1.9083	0.74231	0.	133.39
3643	-0.24465	-4.0185	0.	123.26
3644	3.6902e-003	-4.263	0.	122.4
3645	7.3125e-003	-3.776	0.	122.31
3646	-0.49594	-4.2652	0.	126.89
3647	-0.74998	-5.0044	0.	127.66
3648	-0.99894	-4.7562	0.	126.67
3649	1.7717	-4.4948	0.	132.6
3650	2.026	-4.7413	0.	131.09
3651	1.252	-4.0095	0.	127.61
3652	1.5087	-4.2548	0.	131.85
3653	1.0027	-4.2573	0.	124.98
3654	0.99805	-3.7633	0.	125.66
3655	-1.0023	-6.2488	0.	127.86
3656	-0.75148	-5.9997	0.	128.39
3657	-1.2528	-5.9974	0.	126.86
3658	-0.75201	-6.499	0.	129.42
3659	-6.9215e-004	-6.7499	0.	122.99
3660	-0.25137	-6.9996	0.	124.82
3661	1.5013	-6.75	0.	130.03
3662	1.2505	-7.	0.	125.75
3663	1.7558	-5.9994	0.	130.38
3664	2.0051	-6.2502	0.	129.9
3665	-4.8885	3.1931	0.	134.07
3666	-5.1828	2.9692	0.	132.58
3667	-4.9317	2.7179	0.	132.5
3668	-4.6561	2.948	0.	133.4
3669	-5.1236	3.4446	0.	134.35
3670	-4.6054	3.4195	0.	135.1
3671	-5.6236	6.2232e-002	0.	126.86
3672	-5.9159	0.27037	0.	121.77
3673	-6.1459	-4.311e-002	0.	112.73
3674	-5.4124	0.32244	0.	132.81
3675	-5.1312	9.8101e-002	0.	133.37
3676	-5.2319	1.0337	0.	132.3
3677	-4.9785	1.2767	0.	132.15
3678	-4.9663	0.8028	0.	133.44
3679	5.0479	2.0912	0.	122.39
3680	5.2714	2.3574	0.	114.87
3681	4.7858	2.2786	0.	126.18
3682	4.4269	1.7658	0.	135.47
3683	4.2551	1.5074	0.	128.37
3684	7.1916	1.3327	0.	123.75
3685	7.7258	1.3577	0.	125.83
3686	7.4673	1.5937	0.	128.1
3687	6.9984	2.1569	0.	134.33
3688	7.251	2.4213	0.	130.56
3689	6.7549	2.4247	0.	125.41
3690	1.5094	5.7644	0.	125.01
3691	1.2788	5.5181	0.	127.83
3692	1.5361	5.2681	0.	123.68
3693	1.2325	6.0095	0.	128.42
3694	1.4911	6.258	0.	120.86
3695	1.0382	3.7886	0.	131.94
3696	0.76518	3.5702	0.	121.04
3697	1.3199	4.5192	0.	129.15
3698	1.5506	4.2702	0.	130.48
3699	1.5522	4.7691	0.	125.19
3700	-7.04	6.8576	0.	119.97
3701	-7.2763	7.0824	0.	124.56
3702	-7.0184	7.3193	0.	119.81
3703	-8.264	6.5597	0.	128.19
3704	-8.0065	6.3286	0.	127.51
3705	-8.0199	6.8188	0.	130.16
3706	-7.7778	6.5922	0.	135.14
3707	-5.0641	5.8313	0.	125.79
3708	-4.9432	5.5538	0.	129.42
3709	-4.7874	6.0297	0.	128.87
3710	-4.6188	5.7713	0.	127.42
3711	-5.1277	6.5841	0.	137.74
3712	-5.3187	6.8807	0.	130.93
3713	-4.858	6.774	0.	134.09
3714	3.3803	-2.3296	0.	131.27
3715	3.6447	-2.1087	0.	129.46
3716	3.1764	-2.0716	0.	129.61
3717	3.5735	-2.5921	0.	135.08
3718	3.9777	-3.0952	0.	129.09
3719	3.7746	-2.8529	0.	134.85
3720	3.7225	-3.3331	0.	130.89
3721	4.2239	-2.8675	0.	127.19
3722	-5.905	3.9949	0.	120.39
3723	-5.8187	3.762	0.	124.59
3724	-5.6472	4.197	0.	126.65
3725	-5.4766	3.9487	0.	129.56
3726	-7.4214	4.6898	0.	125.16
3727	-7.6284	4.4233	0.	123.83
3728	-6.7942	3.8884	0.	110.59
3729	-7.0645	4.0727	0.	115.68
3730	-7.0109	3.6444	0.	111.64
3731	-7.2605	3.823	0.	114.75
3732	-6.586	4.1309	0.	107.53
3733	-6.3344	3.9628	0.	111.87
3734	-6.5231	3.6936	0.	108.97
3735	-0.70868	3.9104	0.	131.09
3736	-0.95086	4.1913	0.	137.89
3737	-0.46741	4.167	0.	134.1
3738	-0.2303	3.799	0.	121.62
3739	6.7024	-0.3066	0.	127.69
3740	6.4436	-0.51642	0.	124.46
3741	6.6788	-0.7688	0.	125.64
3742	6.9183	-0.54335	0.	127.16
3743	6.4887	-5.1235e-002	0.	127.24
3744	6.755	0.14233	0.	128.14
3745	4.9105	-4.0687e-002	0.	124.78
3746	4.6888	-0.35984	0.	119.55
3747	5.9622	-0.97142	0.	122.9
3748	6.2036	-0.73639	0.	122.06
3749	6.4388	-0.98877	0.	123.25
3750	5.4579	-0.98371	0.	122.66
3751	5.2089	-0.74665	0.	121.08
3752	4.9564	-0.82638	0.	118.18
3753	5.2965	-1.2226	0.	123.57
3754	5.7181	-0.71469	0.	119.01
3755	5.7582	-1.2082	0.	125.44
3756	-4.7427	-1.1088	0.	128.28
3757	-4.9137	-0.79816	0.	131.81
3758	-5.4873	-0.91329	0.	132.23
3759	-5.6347	-0.80514	0.	127.24
3760	-5.291	-0.74005	0.	132.68
3761	-5.3496	-2.5087	0.	127.93
3762	-5.5911	-2.2809	0.	127.29
3763	-5.809	-2.5565	0.	119.8
3764	-5.1352	-2.2415	0.	133.11
3765	-3.2438	6.3935	0.	131.6
3766	-3.4447	6.6401	0.	131.51
3767	-2.9509	6.6124	0.	128.96
3768	-3.1717	6.8664	0.	130.22
3769	-3.028	6.1393	0.	132.62
3770	-3.3447	5.9324	0.	130.92
3771	-1.0853	6.0638	0.	135.2
3772	-1.2505	5.8141	0.	134.02
3773	-0.786	5.9265	0.	134.9
3774	-0.93808	5.64	0.	134.69
3775	-1.1742	6.4563	0.	131.74
3776	-1.4056	6.2172	0.	130.57
3777	-1.441	6.6336	0.	126.9
3778	-2.4101	7.0834	0.	122.82
3779	-2.6785	6.8427	0.	125.29
3780	-2.8993	7.0966	0.	126.52
3781	-1.9136	7.0839	0.	122.29
3782	-1.6772	6.8541	0.	123.33
3783	-2.1796	6.8266	0.	118.69
3784	6.0082	-5.7535	0.	125.75
3785	6.259	-5.5045	0.	125.95
3786	6.0193	-5.2606	0.	125.56
3787	-4.254	-8.5793	0.	127.13
3788	-4.7188	-8.6559	0.	127.58
3789	-4.4865	-8.8518	0.	127.82
3790	-3.7726	-8.5171	0.	126.9
3791	-4.0093	-8.7826	0.	127.43
3792	-3.2723	-8.4985	0.	126.97
3793	-3.5161	-8.7547	0.	127.32
3794	-2.7663	-8.4954	0.	127.
3795	-3.0141	-8.7473	0.	127.24
3796	-3.0239	-8.2434	0.	126.86
3797	-2.2613	-8.496	0.	126.92
3798	-2.5106	-8.7464	0.	127.11
3799	-2.5154	-8.2444	0.	126.93
3800	-1.7575	-8.4973	0.	126.71
3801	-2.0077	-8.7471	0.	126.89
3802	-2.0104	-8.246	0.	126.88
3803	-1.5051	-8.7481	0.	126.54
3804	-1.2549	-8.4983	0.	126.32
3805	-0.25143	-8.4996	0.	125.16
3806	-0.50174	-8.7495	0.	125.5
3807	-0.75284	-8.4991	0.	125.75
3808	0.24908	-8.4998	0.	124.84
3809	-1.0391e-003	-8.7497	0.	125.07
3810	-1.2521e-003	-8.2497	0.	124.61
3811	0.74949	-8.4999	0.	125.1
3812	0.49935	-8.2499	0.	124.41
3813	0.49929	-8.7498	0.	125.05
3814	1.2498	-8.5	0.	125.91
3815	0.99968	-8.75	0.	125.58
3816	0.9997	-8.25	0.	125.13
3817	1.4998	-8.75	0.	126.51
3818	1.7499	-8.5001	0.	126.99
3819	2.75	-8.5005	0.	128.82
3820	2.4999	-8.7503	0.	128.51
3821	2.5	-8.2506	0.	128.52
3822	2.2499	-8.5003	0.	128.
3823	3.2501	-8.5009	0.	129.45
3824	3.	-8.7505	0.	129.33
3825	3.0001	-8.2511	0.	129.1
3826	3.7503	-8.5011	0.	129.97
3827	3.5001	-8.7508	0.	130.05
3828	3.5004	-8.2516	0.	129.53
3829	4.2504	-8.5011	0.	130.47
3830	4.0003	-8.751	0.	130.71
3831	4.7503	-8.5007	0.	131.04
3832	4.5002	-8.7507	0.	131.35
3833	4.5007	-8.2514	0.	130.44
3834	5.0002	-8.7504	0.	131.99
3835	5.2502	-8.5003	0.	132.74
3836	5.0004	-8.2507	0.	131.45
3837	5.2845	7.0679	0.	128.13
3838	5.1235	7.2408	0.	126.22
3839	5.0633	6.7256	0.	125.51
3840	5.3289	6.8962	0.	122.06
3841	6.5284	6.6039	0.	124.73
3842	6.3092	6.8501	0.	114.75
3843	6.5174	7.0218	0.	122.14
3844	6.7679	6.8284	0.	127.71
3845	0.20565	7.9986	0.	127.63
3846	-4.6425e-002	8.2499	0.	126.99
3847	-6.5411e-002	7.7542	0.	125.46
3848	-7.5325	-0.25245	0.	125.53
3849	-7.5054	0.24397	0.	118.84
3850	-7.2535	-1.9384e-002	0.	120.13
3851	-7.7627	-2.6619e-003	0.	122.76
3852	8.4718	7.8318	0.	125.29
3853	8.5416	8.302	0.	124.28
3854	8.7799	8.0505	0.	124.13
3855	8.3338	8.0566	0.	124.55
3856	8.4216	7.3152	0.	127.13
3857	8.6769	7.5652	0.	125.58
3858	8.2547	7.8186	0.	125.48
3859	8.4653	6.7756	0.	128.18
3860	8.7079	7.0335	0.	127.03
3861	8.4866	6.2597	0.	128.08
3862	8.7312	6.5164	0.	127.49
3863	8.2323	6.5005	0.	129.21
3864	8.4955	5.7521	0.	127.46
3865	8.7427	6.007	0.	127.28
3866	8.2449	5.9962	0.	128.22
3867	8.4987	5.2471	0.	126.87
3868	8.249	5.4948	0.	127.17
3869	8.7474	5.501	0.	126.86
3870	8.4997	4.7426	0.	126.65
3871	8.7491	4.9962	0.	126.59
3872	8.25	4.9914	0.	126.57
3873	8.7497	4.4921	0.	126.62
3874	8.5	4.2365	0.	126.84
3875	8.4989	3.2211	0.	127.77
3876	8.7489	3.4799	0.	127.31
3877	8.4996	3.7292	0.	127.31
3878	8.2494	3.4709	0.	127.84
3879	8.498	2.7123	0.	127.85
3880	8.7484	2.9728	0.	127.51
3881	8.2486	2.9598	0.	128.49
3882	8.498	2.2045	0.	127.24
3883	8.2468	2.4472	0.	128.47
3884	8.748	2.4665	0.	127.23
3885	8.5053	1.7005	0.	126.07
3886	8.7502	1.9627	0.	126.36
3887	8.2442	1.9327	0.	127.31
3888	8.5264	1.2018	0.	125.05
3889	8.7614	1.4622	0.	125.28
3890	8.2564	1.4284	0.	125.45
3891	8.5511	0.70462	0.	124.77
3892	8.7829	0.96435	0.	124.68
3893	8.3036	0.93516	0.	124.66
3894	8.7988	0.46566	0.	124.75
3895	8.5641	0.20886	0.	125.01
3896	8.3288	0.44181	0.	125.03
3897	8.5553	-0.77525	0.	124.69
3898	8.7971	-0.5233	0.	125.04
3899	8.5623	-0.28356	0.	125.12
3900	8.3226	-0.53545	0.	125.25
3901	8.5518	-1.2698	0.	123.69
3902	8.7932	-1.0178	0.	124.63
3903	8.3164	-1.0258	0.	124.17
3904	8.7913	-1.5147	0.	123.89
3905	8.5457	-1.7664	0.	122.29
3906	8.5207	-2.7578	0.	118.7
3907	8.7716	-2.5081	0.	121.94
3908	8.2805	-2.5114	0.	118.46
3909	8.5334	-2.2626	0.	120.6
3910	8.7628	-3.0047	0.	121.14
3911	8.5112	-3.2544	0.	116.05
3912	8.2655	-3.0068	0.	116.02
3913	5.7561	-6.0021	0.	128.09
3914	5.5053	-6.2517	0.	132.41
3915	5.2595	-6.004	0.	130.17
3916	-4.9619	-8.8988	0.	128.02
3917	-5.1726	-8.6909	0.	128.76
3918	-4.9467	-8.4813	0.	127.14
3919	3.0108	8.2536	0.	127.62
3920	2.7605	8.003	0.	128.92
3921	3.2693	8.0059	0.	126.57
3922	3.0169	7.7553	0.	127.52
3923	-8.284	4.0381	0.	128.67
3924	-7.9936	3.808	0.	125.59
3925	-7.8127	4.1318	0.	124.75
3926	-8.5059	0.25105	0.	126.53
3927	-8.7563	9.1558e-004	0.	124.62
3928	-8.5089	-0.2492	0.	117.5
3929	-8.2601	7.7732e-004	0.	122.67
3930	-8.5345	4.2479	0.	129.5
3931	-8.5041	3.7634	0.	132.57
3932	-8.7653	4.0066	0.	130.84
3933	-8.4665	4.7291	0.	127.25
3934	-8.775	4.4945	0.	128.67
3935	-8.4136	5.2467	0.	125.23
3936	-8.6708	4.9872	0.	126.49
3937	-8.4971	6.2919	0.	125.72
3938	-8.7358	6.0285	0.	124.81
3939	-8.2395	6.0609	0.	125.05
3940	-8.4635	5.7804	0.	124.38
3941	-8.5117	6.7925	0.	127.67
3942	-8.7553	6.5332	0.	126.52
3943	-8.5143	7.2876	0.	128.18
3944	-8.762	7.0322	0.	127.61
3945	-8.2677	7.0516	0.	129.67
3946	-8.5117	7.7802	0.	127.47
3947	-8.7615	7.5275	0.	127.51
3948	-8.5081	8.2723	0.	126.43
3949	-8.7588	8.0214	0.	126.74
3950	-8.2596	8.0304	0.	126.68
3951	-8.2558	8.521	0.	125.66
3952	-8.5049	8.7651	0.	125.57
3953	-8.7557	8.5154	0.	125.95
3954	-7.7538	8.5243	0.	124.76
3955	-8.0039	8.769	0.	125.07
3956	-8.0073	8.2791	0.	125.92
3957	-7.2502	8.5234	0.	123.4
3958	-7.5016	8.7701	0.	124.1
3959	-7.5043	8.2819	0.	124.3
3960	-6.9983	8.7673	0.	123.03
3961	-6.7461	8.5184	0.	122.34
3962	-5.7434	8.5139	0.	123.73
3963	-6.243	8.5123	0.	122.42
3964	-5.9883	8.2597	0.	122.19
3965	-5.9947	8.7598	0.	123.21
3966	-5.2488	8.5319	0.	125.46
3967	-5.497	8.766	0.	124.58
3968	-3.2815	8.5527	0.	126.52
3969	-3.7725	8.5587	0.	127.17
3970	-3.5209	8.7961	0.	126.59
3971	-2.2966	8.5394	0.	124.97
3972	-2.5335	8.7852	0.	125.32
3973	-2.79	8.5462	0.	125.66
3974	-1.801	8.5328	0.	124.72
3975	-2.0384	8.7798	0.	124.94
3976	-1.3014	8.5236	0.	124.96
3977	-1.5404	8.7738	0.	124.97
3978	-0.79776	8.5123	0.	125.62
3979	-1.0386	8.7638	0.	125.36
3980	-0.29067	8.5027	0.	126.83
3981	-0.53496	8.7551	0.	126.11
3982	3.2593	8.5049	0.	126.66
3983	3.0045	8.7527	0.	127.56
3984	2.7552	8.5021	0.	129.28
3985	3.5065	8.756	0.	125.89
3986	3.7622	8.5097	0.	124.99
3987	3.5179	8.2571	0.	125.6
3988	4.4995	8.7751	0.	127.55
3989	4.7451	8.5429	0.	125.81
3990	4.2598	8.5195	0.	125.33
3991	7.5731	8.18	0.	127.25
3992	7.4344	7.8808	0.	129.21
3993	7.8915	7.9937	0.	125.22
3994	7.759	8.4649	0.	127.38
3995	7.482	8.6746	0.	131.7
3996	8.2852	8.524	0.	124.99
3997	8.0186	8.7514	0.	126.55
3998	8.0774	8.2786	0.	125.25
3999	8.5219	8.7734	0.	124.7
4000	8.7759	8.5291	0.	124.
4001	-7.1977	-8.6524	0.	126.03
4002	-7.0084	-8.9511	0.	124.75
4003	-6.7015	-8.7959	0.	121.79
4004	-6.8545	-8.5901	0.	125.31
4005	-7.7157	-8.5359	0.	126.09
4006	-7.4801	-8.7968	0.	126.62
4007	-7.2734	-8.3575	0.	126.08
4008	-8.2469	-8.522	0.	125.33
4009	-8.0003	-8.7741	0.	125.85
4010	-8.5029	-8.268	0.	125.12
4011	-8.7541	-8.5121	0.	125.44
4012	-8.5055	-8.7634	0.	125.75
4013	-8.5006	-7.7713	0.	125.14
4014	-8.7529	-8.0153	0.	125.07
4015	-8.4923	-7.2736	0.	126.09
4016	-8.7491	-7.5169	0.	125.49
4017	-8.485	-6.7748	0.	126.96
4018	-8.7398	-7.0186	0.	126.42
4019	-8.2269	-7.0374	0.	127.33
4020	-8.4864	-6.2729	0.	126.6
4021	-8.7377	-6.5187	0.	126.71
4022	-8.4914	-5.7686	0.	125.35
4023	-8.7407	-6.0164	0.	125.97
4024	-8.2374	-6.0259	0.	126.57
4025	-8.4964	-5.2643	0.	124.16
4026	-8.7449	-5.5132	0.	124.99
4027	-8.2441	-5.5185	0.	124.41
4028	-8.5002	-4.7609	0.	123.13
4029	-8.7485	-5.0105	0.	124.3
4030	-8.7512	-4.5079	0.	123.48
4031	-8.5024	-4.2581	0.	121.18
4032	-8.2528	-4.5106	0.	123.25
4033	-4.9246	-1.9568	0.	131.96
4034	-4.7303	-1.6458	0.	127.51
4035	-1.9432	6.5968	0.	119.64
4036	-1.6725	6.3945	0.	125.86
4037	-2.448	6.5858	0.	121.11
4038	-5.1694	-1.7768	0.	130.48
4039	-5.3767	-2.0137	0.	132.21
4040	-4.9751	-1.4658	0.	126.09
4041	-5.1683	-1.3612	0.	127.67
4042	-4.9555	-1.2706	0.	127.88
4043	5.4691	-0.47764	0.	117.27
4044	5.1932	-0.25348	0.	122.47
4045	4.9715	-0.57263	0.	117.19
4046	5.9595	-0.47966	0.	117.9
4047	6.2299	-0.26106	0.	124.01
4048	-6.8563	4.3153	0.	112.6
4049	-7.1315	4.5089	0.	122.29
4050	-7.3385	4.2424	0.	120.94
4051	-6.3569	4.4262	0.	110.14
4052	-6.1053	4.2581	0.	114.75
4053	-6.0256	3.774	0.	118.85
4054	-8.9994	-4.7575	0.	124.65
4055	-9.001	-4.2554	0.	123.91
4056	-9.2502	-4.5049	0.	126.15
4057	-8.997	-5.2594	0.	125.13
4058	-9.2487	-5.0064	0.	125.94
4059	-8.9941	-5.761	0.	125.62
4060	-9.2466	-5.5075	0.	125.83
4061	-8.992	-6.2622	0.	126.08
4062	-9.2446	-6.0085	0.	125.95
4063	-8.9925	-6.7624	0.	126.17
4064	-9.2438	-6.509	0.	126.04
4065	-8.9966	-7.2618	0.	125.82
4066	-9.2456	-7.0086	0.	125.83
4067	-9.0013	-7.7608	0.	125.42
4068	-9.2497	-7.5079	0.	125.46
4069	-9.004	-8.2593	0.	125.4
4070	-9.2525	-8.0071	0.	125.31
4071	-9.0052	-8.7572	0.	125.76
4072	-9.2538	-8.5059	0.	125.54
4073	8.7612	9.0131	0.	124.81
4074	8.5066	9.2579	0.	125.64
4075	8.2553	9.0008	0.	126.28
4076	7.2262	8.9001	0.	134.66
4077	7.4876	9.1993	0.	131.73
4078	7.7416	8.9611	0.	130.93
4079	4.7352	9.0342	0.	135.67
4080	4.4932	9.2684	0.	129.19
4081	4.2456	9.0176	0.	127.56
4082	3.2517	9.0038	0.	126.8
4083	3.5001	9.2543	0.	126.77
4084	3.7502	9.0083	0.	126.23
4085	2.7513	9.0016	0.	127.42
4086	3.0008	9.2519	0.	127.28
4087	2.4998	9.2506	0.	126.92
4088	2.502	8.751	0.	129.14
4089	2.2492	9.0002	0.	125.63
4090	1.2418	8.998	0.	122.09
4091	1.4944	8.749	0.	117.33
4092	1.4953	9.2488	0.	122.33
4093	1.746	8.9992	0.	122.31
4094	0.99209	9.2479	0.	123.85
4095	0.98841	8.7473	0.	123.65
4096	0.73701	8.9969	0.	125.19
4097	-1.2777	9.0141	0.	125.36
4098	-1.019	9.2572	0.	125.6
4099	-0.77583	9.0066	0.	125.85
4100	-1.5201	9.2634	0.	125.38
4101	-1.7778	9.0208	0.	125.19
4102	-2.5164	9.2707	0.	125.53
4103	-2.2752	9.0256	0.	125.3
4104	-2.7716	9.0302	0.	125.63
4105	-4.5049	9.2763	0.	125.82
4106	-4.5076	8.7969	0.	126.7
4107	-4.2586	9.037	0.	126.27
4108	-4.7548	9.032	0.	125.83
4109	-6.7476	9.0109	0.	123.26
4110	-6.4977	9.2567	0.	123.35
4111	-6.4954	8.762	0.	122.58
4112	-6.2472	9.0095	0.	123.36
4113	-7.2497	9.014	0.	123.73
4114	-6.9989	9.2595	0.	123.5
4115	-7.7517	9.0147	0.	124.42
4116	-7.5005	9.2611	0.	124.
4117	-8.253	9.013	0.	124.99
4118	-8.0019	9.2606	0.	124.55
4119	-8.7533	9.0098	0.	125.29
4120	-8.5025	9.2587	0.	124.94
4121	-9.0086	7.7687	0.	126.78
4122	-9.2559	8.0123	0.	126.32
4123	-9.0064	8.2645	0.	126.26
4124	-9.0093	7.2721	0.	126.94
4125	-9.2571	7.5151	0.	126.56
4126	-9.0056	6.7728	0.	126.46
4127	-9.2564	7.0166	0.	126.38
4128	-8.994	6.2698	0.	125.61
4129	-9.2511	6.5156	0.	125.74
4130	-9.2389	6.0119	0.	125.25
4131	-8.9741	5.7625	0.	125.27
4132	-8.7486	2.5044	0.	132.95
4133	-9.2488	2.5032	0.	130.38
4134	-8.9974	2.7551	0.	131.56
4135	-8.999	2.2533	0.	131.17
4136	9.	-8.25	0.	129.45
4137	9.	-8.75	0.	130.24
4138	8.75	-8.5	0.	130.04
4139	9.25	-8.5	0.	130.24
4140	9.	-7.75	0.	128.86
4141	8.75	-8.	0.	130.27
4142	9.25	-8.	0.	130.1
4143	9.	-7.25	0.	128.63
4144	8.75	-7.5	0.	128.26
4145	9.25	-7.5	0.	130.13
4146	-8.2589	-9.0155	0.	126.27
4147	-8.7567	-9.0086	0.	126.06
4148	-8.5072	-9.2588	0.	126.35
4149	-7.7647	-9.0349	0.	126.38
4150	-8.011	-9.2668	0.	126.48
4151	-7.2909	-9.0955	0.	125.3
4152	-7.5225	-9.2899	0.	125.93
4153	-6.8126	-9.2725	0.	120.8
4154	-7.0561	-9.3471	0.	123.45
4155	-4.7296	-9.0947	0.	128.27
4156	-5.2189	-9.1113	0.	126.91
4157	-4.9822	-9.3313	0.	127.35
4158	-4.2419	-9.0551	0.	128.13
4159	-4.4874	-9.3079	0.	128.25
4160	-3.7528	-9.0202	0.	127.85
4161	-3.9972	-9.2757	0.	128.28
4162	-3.2579	-9.0035	0.	127.6
4163	-3.5037	-9.257	0.	128.
4164	-2.7583	-8.9983	0.	127.36
4165	-3.0058	-9.2499	0.	127.68
4166	-2.5055	-9.2482	0.	127.34
4167	-2.257	-8.9975	0.	127.07
4168	-1.2535	-8.9987	0.	126.28
4169	-1.5032	-9.2487	0.	126.53
4170	-1.7553	-8.998	0.	126.72
4171	-0.75221	-8.9993	0.	125.8
4172	-1.0021	-9.2493	0.	126.06
4173	-1.0033	-8.7489	0.	126.06
4174	-0.25135	-8.9996	0.	125.41
4175	-0.50138	-9.2496	0.	125.62
4176	-8.0962e-004	-9.2498	0.	125.35
4177	0.24917	-8.9998	0.	125.27
4178	1.2497	-9.	0.	126.18
4179	0.99973	-9.25	0.	125.88
4180	0.74948	-8.9999	0.	125.52
4181	1.7499	-9.0001	0.	127.08
4182	1.4998	-9.25	0.	126.66
4183	2.2499	-9.0001	0.	128.07
4184	1.9999	-9.2501	0.	127.62
4185	1.9999	-8.7501	0.	127.56
4186	2.75	-9.0003	0.	129.02
4187	2.5	-9.2501	0.	128.63
4188	3.25	-9.0005	0.	129.92
4189	3.	-9.2503	0.	129.64
4190	3.7501	-9.0006	0.	130.78
4191	3.5	-9.2504	0.	130.65
4192	4.2501	-9.0006	0.	131.58
4193	4.0001	-9.2505	0.	131.69
4194	4.7501	-9.0004	0.	132.31
4195	4.5001	-9.2504	0.	132.65
4196	3.8379	-2.3712	0.	133.16
4197	4.0208	-2.6252	0.	132.79
4198	-5.2214	6.1108	0.	132.03
4199	-5.386	6.3991	0.	135.92
4200	-4.9447	6.3092	0.	135.5
4201	1.069	4.2763	0.	133.4
4202	1.2997	4.0273	0.	135.05
4203	0.80503	4.0567	0.	121.81
4204	0.68737	5.9883	0.	119.6
4205	1.0018	5.7632	0.	131.01
4206	0.96674	6.2544	0.	128.75
4207	4.6592	1.5741	0.	131.27
4208	4.8461	1.8357	0.	131.82
4209	4.584	2.023	0.	136.26
4210	-5.4681	0.79063	0.	132.52
4211	-5.7047	0.53058	0.	127.66
4212	-5.2025	0.55969	0.	133.7
4213	-5.6628	3.5008	0.	128.37
4214	-5.4179	3.2207	0.	132.84
4215	-5.3207	3.6875	0.	133.39
4216	-8.5023	0.7509	0.	130.64
4217	-8.2533	0.50027	0.	127.34
4218	-8.753	0.50094	0.	129.89
4219	-8.4897	3.2638	0.	134.01
4220	-8.2137	3.5333	0.	129.47
4221	-8.742	3.5113	0.	133.44
4222	1.2515	-6.4999	0.	127.99
4223	1.5031	-6.2495	0.	131.52
4224	1.7525	-6.5002	0.	131.08
4225	-0.251	-6.4998	0.	126.84
4226	-0.50118	-6.25	0.	129.91
4227	-0.50168	-6.7495	0.	128.69
4228	1.2593	-4.5027	0.	129.2
4229	1.5127	-4.7497	0.	132.63
4230	-0.2476	-4.5097	0.	125.97
4231	-0.49866	-4.7578	0.	128.89
4232	-0.74762	-4.5097	0.	127.93
4233	1.4314	0.76535	0.	136.79
4234	1.1635	0.53345	0.	133.77
4235	1.6446	0.50895	0.	135.85
4236	1.4967	2.2594	0.	135.22
4237	1.2474	2.5183	0.	131.7
4238	1.5058	2.7661	0.	134.58
4239	-1.23	0.50526	0.	118.72
4240	-1.4859	0.71511	0.	124.23
4241	-1.3678	0.2165	0.	119.93
4242	-1.2336	2.4668	0.	126.94
4243	-1.4796	2.2143	0.	128.82
4244	-1.7163	2.4507	0.	129.16
4245	2.2562	6.5082	0.	130.62
4246	2.5106	6.758	0.	133.28
4247	2.5123	6.2618	0.	132.26
4248	0.41686	6.2343	0.	115.38
4249	0.69623	6.5004	0.	124.3
4250	0.43885	6.7513	0.	124.84
4251	5.2501	-9.0002	0.	132.52
4252	5.0001	-9.2502	0.	133.4
4253	6.0035	-6.2512	0.	127.31
4254	6.2539	-6.0014	0.	124.25
4255	5.7527	-6.5008	0.	131.6
4256	5.5025	-6.7509	0.	134.43
4257	6.5689	-3.7611	0.	129.99
4258	6.8192	-3.5192	0.	126.56
4259	9.0152	8.7688	0.	124.11
4260	9.2638	8.5171	0.	123.5
4261	9.0141	8.2775	0.	123.85
4262	8.9632	7.2834	0.	125.48
4263	9.2237	7.5251	0.	124.31
4264	8.985	7.7838	0.	124.42
4265	8.9739	6.7743	0.	126.34
4266	9.2247	7.0222	0.	125.26
4267	8.9874	6.2637	0.	126.7
4268	9.2361	6.5144	0.	125.95
4269	9.2437	6.0079	0.	126.26
4270	8.9947	5.756	0.	126.68
4271	8.9995	4.2419	0.	126.71
4272	9.2494	4.4954	0.	126.58
4273	8.9991	4.7457	0.	126.56
4274	8.999	3.7369	0.	126.92
4275	9.2495	3.9924	0.	126.75
4276	8.7497	3.9862	0.	126.92
4277	8.9984	3.2316	0.	127.04
4278	9.2485	3.4879	0.	126.86
4279	9.2487	2.9852	0.	126.76
4280	8.9985	2.727	0.	126.88
4281	9.0307	0.72538	0.	124.65
4282	9.2687	0.98207	0.	124.45
4283	9.0179	1.2247	0.	124.91
4284	9.0382	0.22671	0.	124.75
4285	9.2768	0.48236	0.	124.41
4286	9.0382	-0.26983	0.	124.94
4287	9.2798	-1.6113e-002	0.	124.67
4288	8.8034	-3.0086e-002	0.	125.02
4289	9.035	-0.76586	0.	124.99
4290	9.2772	-0.51313	0.	124.99
4291	9.0327	-1.2628	0.	124.84
4292	9.275	-1.0105	0.	125.27
4293	9.0282	-1.76	0.	124.55
4294	9.2739	-1.5088	0.	125.56
4295	9.0207	-2.2572	0.	124.29
4296	9.2682	-2.0064	0.	125.94
4297	8.7826	-2.0117	0.	122.95
4298	9.0137	-2.7549	0.	124.39
4299	9.2627	-2.5046	0.	126.6
4300	9.0077	-3.2529	0.	125.78
4301	9.2578	-3.0031	0.	127.97
4302	8.75	-7.	0.	126.25
4303	9.	-6.75	0.	129.86
4304	9.25	-7.	0.	131.54
4305	4.9808	8.802	0.	133.63
4306	5.2228	9.053	0.	133.1
4307	4.9847	9.2827	0.	136.12
4308	0.39611	0.34624	0.	128.12
4309	0.32785	-9.3182e-002	0.	126.87
4310	0.10495	0.14551	0.	125.59
4311	0.60569	0.10627	0.	130.16
4312	-0.29497	-2.3791	0.	127.4
4313	-0.67939	-2.5252	0.	115.9
4314	-0.13408	-2.6446	0.	124.93
4315	-9.0043	-0.24956	0.	125.5
4316	-9.2531	5.0313e-004	0.	129.29
4317	-9.0035	0.25081	0.	128.11
4318	-7.7878	-0.49859	0.	125.11
4319	-7.5664	-0.74597	0.	127.45
4320	-7.3206	-0.50842	0.	129.14
4321	-7.5054	-3.2626	0.	128.54
4322	-7.7572	-3.5119	0.	125.46
4323	-7.2622	-3.5277	0.	124.58
4324	-9.0013	-3.7532	0.	123.76
4325	-9.2509	-4.0033	0.	126.52
4326	-8.7522	-4.0056	0.	121.58
4327	4.788	6.4925	0.	129.36
4328	4.5279	6.2571	0.	133.91
4329	6.2737	6.4108	0.	119.2
4330	6.5113	6.1708	0.	124.77
4331	6.4976	3.7216	0.	125.43
4332	6.2438	3.468	0.	120.16
4333	6.4964	3.2054	0.	123.32
4334	4.7421	3.5596	0.	125.26
4335	4.4969	3.8086	0.	130.65
4336	-7.2569	-4.513	0.	123.76
4337	-7.5036	-4.7626	0.	126.41
4338	-7.755	-4.5124	0.	125.47
4339	-5.7621	-4.501	0.	123.48
4340	-5.5096	-4.7408	0.	127.46
4341	-5.2647	-4.4853	0.	128.08
4342	-5.5007	-6.2112	0.	125.42
4343	-5.7457	-6.472	0.	119.02
4344	-5.499	-6.6853	0.	124.04
4345	-7.2179	-6.5646	0.	125.21
4346	-7.4768	-6.2979	0.	129.85
4347	-7.4535	-6.8292	0.	130.18
4348	-5.0242	-7.1453	0.	131.3
4349	-5.2548	-6.9143	0.	129.08
4350	-5.4296	-8.9033	0.	127.61
4351	-5.7096	-9.0751	0.	115.53
4352	-5.4796	-9.3269	0.	122.65
4353	-3.2162	4.573	0.	134.58
4354	-3.0239	4.3525	0.	136.82
4355	-0.7096	4.4478	0.	140.7
4356	-1.0264	4.6825	0.	131.24
4357	-1.1919	4.4461	0.	136.34
4358	5.8161	-1.7071	0.	125.06
4359	5.6975	-2.1924	0.	127.45
4360	-9.0023	9.2559	0.	125.14
4361	-9.2525	9.0059	0.	125.4
4362	-9.0041	8.7601	0.	125.67
4363	9.0073	9.2598	0.	124.89
4364	9.2583	9.0105	0.	124.12
4365	8.75	-9.	0.	130.28
4366	9.25	-9.	0.	131.34
4367	9.	-9.25	0.	131.55
4368	-9.0047	-9.2547	0.	126.18
4369	-9.2543	-9.0043	0.	125.96
4370	4.1149	-0.88672	0.	134.87
4371	4.4421	-0.64782	0.	123.46
4372	3.9209	-1.8812	0.	131.26
4373	4.0153	-1.3813	0.	135.4
4374	-5.3881	5.6419	0.	132.43
4375	-5.6392	5.191	0.	131.63
4376	-5.2673	5.3644	0.	136.12
4377	-5.9384	4.7391	0.	118.32
4378	-5.8475	4.4602	0.	121.04
4379	-7.231	4.958	0.	124.47
4380	-7.3613	5.4212	0.	128.79
4381	-6.8072	6.6106	0.	112.83
4382	-7.2945	6.6202	0.	130.26
4383	-5.8388	6.4855	0.	120.87
4384	-5.577	6.6958	0.	129.69
4385	-6.3169	6.5569	0.	107.92
4386	-0.20671	4.3421	0.	127.31
4387	-0.59326	4.7014	0.	132.78
4388	0.30442	4.1577	0.	109.79
4389	3.04e-002	3.9742	0.	115.
4390	-0.22581	5.5793	0.	125.9
4391	-0.49767	5.7454	0.	132.54
4392	-0.64975	5.4589	0.	132.22
4393	0.19491	5.8137	0.	112.78
4394	0.15342	6.0196	0.	114.17
4395	1.0765	4.7686	0.	128.68
4396	1.0514	5.2685	0.	128.92
4397	1.3087	5.0185	0.	124.94
4398	6.33	0.19355	0.	124.19
4399	6.5711	0.61909	0.	129.74
4400	6.5963	0.38711	0.	125.12
4401	6.8348	1.0912	0.	129.36
4402	6.7623	0.59395	0.	132.8
4403	5.081	0.21447	0.	123.77
4404	4.7601	1.1177	0.	130.33
4405	4.4873	1.3156	0.	124.49
4406	4.9135	0.667	0.	130.52
4407	5.3023	1.8847	0.	113.81
4408	5.7814	1.9069	0.	104.5
4409	5.5258	2.1509	0.	106.44
4410	6.2675	1.9096	0.	114.99
4411	6.7516	1.8993	0.	131.44
4412	6.5081	2.1672	0.	122.83
4413	-5.4862	1.271	0.	132.73
4414	-5.4854	1.7579	0.	134.5
4415	-5.2328	1.514	0.	132.62
4416	-5.4773	2.2473	0.	134.53
4417	-5.4607	2.7366	0.	132.8
4418	-5.2096	2.4853	0.	132.77
4419	-8.5006	1.251	0.	132.64
4420	-8.751	1.001	0.	130.86
4421	-8.4999	1.7516	0.	135.19
4422	-8.7501	1.5013	0.	132.32
4423	-8.4992	2.2534	0.	135.52
4424	-8.7496	2.0023	0.	133.73
4425	-8.4959	2.7578	0.	134.19
4426	-8.7448	3.0086	0.	132.82
4427	0.75051	-6.4999	0.	118.61
4428	1.0007	-6.7499	0.	123.74
4429	0.24973	-6.4999	0.	118.18
4430	0.75372	-4.5049	0.	119.21
4431	0.25248	-4.507	0.	118.14
4432	1.4687	1.2554	0.	135.35
4433	1.4863	1.7545	0.	134.53
4434	0.67631	0.55376	0.	126.81
4435	0.88589	0.3138	0.	128.99
4436	0.1849	0.57045	0.	121.73
4437	-0.29342	0.58593	0.	114.17
4438	-0.10626	0.36972	0.	120.03
4439	-0.75134	0.57746	0.	111.71
4440	-0.84523	0.36048	0.	111.22
4441	-0.61945	0.37763	0.	108.28
4442	0.73966	2.5324	0.	122.12
4443	0.23475	2.5447	0.	116.3
4444	-0.26049	2.5228	0.	115.47
4445	-0.74881	2.4861	0.	119.36
4446	-0.99243	2.7153	0.	124.02
4447	-1.4891	1.229	0.	125.63
4448	-1.487	1.7241	0.	126.71
4449	1.7446	6.5055	0.	121.77
4450	1.2254	6.5029	0.	120.75
4451	1.7468	8.4996	0.	119.03
4452	2.2513	8.5006	0.	127.59
4453	1.9985	8.7498	0.	124.11
4454	1.241	8.4983	0.	118.76
4455	-6.2129	0.48497	0.	115.65
4456	-6.7261	0.46911	0.	110.37
4457	-6.4429	0.17149	0.	106.57
4458	-7.7504	0.49662	0.	119.61
4459	-8.0076	0.24999	0.	123.61
4460	-7.2406	0.48528	0.	113.09
4461	-6.9887	0.22193	0.	114.82
4462	-7.7028	3.4794	0.	118.72
4463	-7.7153	3.669	0.	121.
4464	-6.2143	3.5048	0.	115.94
4465	-6.7398	3.4497	0.	110.01
4466	-7.2274	3.4199	0.	112.19
4467	-7.477	3.5985	0.	115.39
4468	1.5057	-5.7489	0.	131.25
4469	1.5094	-5.2486	0.	131.62
4470	1.767	-4.9962	0.	131.16
4471	-0.50071	-5.751	0.	129.32
4472	-0.50007	-5.2533	0.	128.96
4473	2.5075	7.7525	0.	130.74
4474	2.505	8.2515	0.	130.52
4475	2.5094	7.2547	0.	131.8
4476	2.7654	7.0077	0.	131.43
4477	2.7639	7.5048	0.	129.35
4478	0.46223	7.7477	0.	128.09
4479	0.47198	8.2458	0.	129.56
4480	0.45241	7.2512	0.	126.6
4481	0.19116	7.5033	0.	125.94
4482	0.17559	7.0072	0.	125.46
4483	8.5	-7.25	0.	125.86
4484	8.5	-6.75	0.	122.09
4485	8.5	-8.75	0.	130.03
4486	8.5	-9.25	0.	130.12
4487	8.5	-8.25	0.	130.87
4488	8.5	-7.75	0.	129.71
4489	6.2515	-6.5003	0.	123.37
4490	6.5019	-6.2506	0.	120.36
4491	6.7507	-6.5001	0.	115.6
4492	5.5001	-8.7502	0.	133.24
4493	5.5	-9.2501	0.	132.88
4494	5.5002	-8.2503	0.	135.22
4495	5.5011	-7.2506	0.	134.7
4496	5.5005	-7.7504	0.	135.82
4497	5.251	-7.501	0.	133.35
4498	5.2504	-8.0006	0.	133.91
4499	6.5046	-5.7523	0.	124.44
4500	6.5099	-5.256	0.	128.45
4501	6.5198	-4.7614	0.	130.42
4502	6.2702	-5.0121	0.	128.02
4503	6.537	-4.2668	0.	129.92
4504	6.2864	-4.5214	0.	128.28
4505	7.2822	-3.5221	0.	117.5
4506	7.7628	-3.5065	0.	112.98
4507	8.2583	-3.5037	0.	113.79
4508	8.0127	-3.2561	0.	113.83
4509	8.7561	-3.5027	0.	120.67
4510	9.2539	-3.5017	0.	131.4
4511	8.75	-6.5	0.	125.67
4512	9.25	-6.5	0.	134.87
4513	8.25	-6.5	0.	117.42
4514	7.2503	-6.5001	0.	108.82
4515	7.7501	-6.5	0.	109.56
4516	7.0053	7.7064	0.	130.61
4517	6.6518	7.4133	0.	124.45
4518	6.2874	7.0597	0.	112.64
4519	6.0546	6.657	0.	109.32
4520	5.8234	6.854	0.	111.41
4521	5.3178	7.3363	0.	127.21
4522	5.5231	6.9917	0.	123.12
4523	5.1072	7.7814	0.	130.65
4524	5.0204	8.3065	0.	130.54
4525	5.4792	9.2917	0.	124.02
4526	5.716	9.0365	0.	117.29
4527	6.9794	9.1571	0.	131.05
4528	6.7166	8.9032	0.	126.05
4529	0.24324	-0.54496	0.	127.1
4530	0.53323	-0.348	0.	123.84
4531	0.13502	-1.0081	0.	131.16
4532	1.5572e-002	-1.4753	0.	127.11
4533	-0.12296	-1.9373	0.	128.65
4534	0.19715	-1.7611	0.	125.95
4535	-1.9995	-0.34748	0.	133.85
4536	-2.3152	-0.25206	0.	143.75
4537	-0.43229	0.16141	0.	114.08
4538	-0.98304	7.1715e-002	0.	112.3
4539	-1.4997	-0.12162	0.	118.01
4540	-1.1939	-2.274	0.	116.33
4541	-1.8553	-1.4994	0.	129.53
4542	-2.1633	-1.2079	0.	134.9
4543	-1.5641	-1.8738	0.	121.71
4544	-8.7569	-0.49967	0.	118.08
4545	-9.2529	-0.49989	0.	129.57
4546	-8.2667	-0.49877	0.	117.11
4547	-8.018	-0.2488	0.	122.43
4548	-7.5918	-1.2393	0.	129.
4549	-7.373	-0.99683	0.	126.85
4550	-7.6049	-1.727	0.	134.53
4551	-7.4102	-1.4865	0.	133.92
4552	-7.5401	-2.2157	0.	137.79
4553	-7.4185	-1.9825	0.	139.65
4554	-7.4871	-2.7355	0.	133.23
4555	-7.3514	-2.2299	0.	139.
4556	-8.2537	-3.505	0.	117.61
4557	-8.7518	-3.5027	0.	118.14
4558	-9.2508	-3.5017	0.	128.83
4559	-8.5027	-3.7551	0.	116.1
4560	5.2844	6.4561	0.	115.
4561	5.7812	6.4298	0.	110.29
4562	5.55	6.6267	0.	112.45
4563	6.5029	5.7087	0.	126.08
4564	6.5005	5.2269	0.	128.67
4565	6.5002	4.733	0.	128.69
4566	6.4996	4.231	0.	126.74
4567	6.7505	4.481	0.	126.8
4568	5.7403	3.4778	0.	110.27
4569	5.2404	3.514	0.	112.25
4570	4.5026	4.2824	0.	131.2
4571	4.5051	4.769	0.	133.4
4572	4.5071	5.2625	0.	133.93
4573	4.5122	5.759	0.	133.27
4574	4.2613	5.5141	0.	132.37
4575	-6.7582	-4.5129	0.	114.7
4576	-6.2597	-4.5102	0.	113.9
4577	-5.5043	-5.2338	0.	126.51
4578	-5.5024	-5.7254	0.	125.6
4579	-5.2537	-5.4729	0.	125.67
4580	-6.2367	-6.5127	0.	109.76
4581	-5.9846	-6.7386	0.	109.87
4582	-6.7255	-6.5501	0.	113.03
4583	-6.9476	-6.8615	0.	122.1
4584	-6.4656	-6.8019	0.	108.84
4585	-7.4918	-5.7752	0.	127.83
4586	-7.7366	-6.0319	0.	127.98
4587	-7.4987	-5.2646	0.	126.35
4588	-7.7452	-5.519	0.	125.5
4589	-5.3609	-8.4897	0.	128.47
4590	-5.211	-8.0764	0.	128.38
4591	-5.135	-8.2802	0.	126.9
4592	-5.0666	-7.6248	0.	128.12
4593	-5.0197	-8.0729	0.	128.01
4594	-6.202	-8.935	0.	111.9
4595	-5.9838	-9.2685	0.	109.69
4596	-6.6016	-8.6249	0.	121.89
4597	-6.5057	-9.1173	0.	117.84
4598	-6.9302	-8.2953	0.	125.19
4599	-6.6877	-7.1134	0.	117.76
4600	-7.1832	-7.1262	0.	127.02
4601	-6.2135	-7.0278	0.	108.94
4602	-5.7379	-6.9519	0.	114.44
4603	-6.2421	-0.33102	0.	110.16
4604	-6.7055	-7.5689e-002	0.	110.97
4605	-5.9292	-0.71387	0.	119.22
4606	-5.6441	-0.9922	0.	127.3
4607	-5.3227	-1.1332	0.	130.9
4608	-5.8233	-2.0684	0.	120.78
4609	-6.687	-2.2274	0.	110.6
4610	-7.0616	-2.1295	0.	128.02
4611	-6.4911	-2.4082	0.	106.97
4612	-6.2623	-2.1494	0.	108.29
4613	-7.2238	-1.742	0.	138.58
4614	-7.1913	-1.2441	0.	131.8
4615	-7.1272	-0.75928	0.	128.43
4616	-7.0416	-0.27536	0.	123.97
4617	-3.1122	5.023	0.	133.38
4618	-2.9742	5.4591	0.	135.53
4619	-3.2909	5.2492	0.	133.18
4620	-2.8356	5.897	0.	132.75
4621	-2.7351	6.3583	0.	129.99
4622	-3.1523	5.6901	0.	131.06
4623	-1.5708	5.9675	0.	129.53
4624	-1.1946	5.1389	0.	134.
4625	-0.91004	4.9361	0.	124.24
4626	-1.388	5.5626	0.	138.34
4627	-1.0756	5.3885	0.	139.2
4628	-1.6582	4.4353	0.	122.39
4629	-2.1112	4.4089	0.	110.31
4630	-1.8893	4.1743	0.	116.26
4631	-2.5651	4.3774	0.	120.37
4632	-2.3493	4.1474	0.	113.97
4633	5.5967	-1.4471	0.	126.
4634	-8.7516	9.5048	0.	124.79
4635	-9.2513	9.503	0.	125.
4636	-8.2513	9.5063	0.	124.5
4637	-7.7506	9.507	0.	124.13
4638	-7.2497	9.5066	0.	123.77
4639	-6.749	9.5053	0.	123.59
4640	-6.2488	9.5042	0.	123.7
4641	-5.7495	9.5053	0.	124.11
4642	-5.9983	9.257	0.	123.71
4643	-5.2509	9.5091	0.	124.68
4644	-5.4996	9.2602	0.	124.45
4645	-4.7527	9.5145	0.	125.23
4646	-5.0026	9.2703	0.	125.24
4647	-4.2543	9.518	0.	125.62
4648	-3.7556	9.5181	0.	125.8
4649	-4.008	9.2787	0.	126.07
4650	-3.2571	9.5167	0.	125.8
4651	-3.5107	9.277	0.	126.03
4652	-2.7587	9.5148	0.	125.69
4653	-3.0139	9.2742	0.	125.8
4654	-2.2603	9.5124	0.	125.59
4655	-1.7614	9.5099	0.	125.55
4656	-2.0191	9.2673	0.	125.36
4657	-1.2614	9.5065	0.	125.61
4658	-0.76065	9.5026	0.	125.77
4659	-0.25951	9.4995	0.	125.91
4660	-0.51746	9.252	0.	126.02
4661	0.2419	9.498	0.	125.7
4662	-1.4683e-002	9.2482	0.	126.56
4663	0.74364	9.4981	0.	124.89
4664	0.48856	9.2472	0.	126.22
4665	1.2456	9.4988	0.	124.05
4666	1.7473	9.4994	0.	124.33
4667	2.2487	9.5	0.	125.64
4668	1.998	9.2497	0.	124.34
4669	2.7493	9.5008	0.	126.78
4670	3.2492	9.5023	0.	127.26
4671	3.7479	9.5051	0.	127.48
4672	4.2456	9.5099	0.	128.58
4673	3.998	9.2591	0.	126.92
4674	4.7427	9.5169	0.	129.58
4675	5.2411	9.5214	0.	126.61
4676	5.7419	9.5116	0.	120.27
4677	6.2426	9.4855	0.	119.47
4678	5.9787	9.2563	0.	114.28
4679	6.7416	9.4586	0.	124.39
4680	6.4788	9.2047	0.	119.36
4681	7.2408	9.4562	0.	127.84
4682	7.7436	9.478	0.	128.06
4683	8.2488	9.4971	0.	126.61
4684	7.9976	9.2399	0.	127.24
4685	8.7526	9.5045	0.	125.72
4686	9.2532	9.5047	0.	125.06
4687	9.5042	9.2555	0.	124.29
4688	9.5069	8.7589	0.	123.52
4689	9.5051	8.2613	0.	123.17
4690	9.4942	7.763	0.	123.41
4691	9.2554	8.0217	0.	123.52
4692	9.4852	7.2639	0.	124.09
4693	9.4869	6.7623	0.	124.87
4694	9.4924	6.2585	0.	125.51
4695	9.4964	5.7547	0.	125.95
4696	9.4984	5.2514	0.	126.24
4697	9.2474	5.5029	0.	126.37
4698	9.4992	4.7484	0.	126.46
4699	9.2489	4.9987	0.	126.45
4700	9.4994	4.2459	0.	126.62
4701	9.499	3.7434	0.	126.68
4702	9.4988	3.2415	0.	126.58
4703	9.4995	2.7408	0.	126.23
4704	9.5009	2.2403	0.	125.66
4705	9.2493	2.4825	0.	126.35
4706	9.5038	1.74	0.	124.99
4707	9.2519	1.9824	0.	125.65
4708	9.5091	1.2393	0.	124.44
4709	9.2584	1.4819	0.	124.91
4710	9.5148	0.73905	0.	124.21
4711	9.5184	0.23954	0.	124.32
4712	9.5188	-0.25941	0.	124.71
4713	9.5172	-0.75775	0.	125.27
4714	9.5161	-1.2565	0.	126.
4715	9.5139	-1.7552	0.	126.95
4716	9.5102	-2.2539	0.	128.25
4717	9.5069	-2.7528	0.	130.18
4718	9.504	-3.2518	0.	133.66
4719	9.5017	-3.751	0.	136.37
4720	9.5004	-4.2505	0.	138.5
4721	9.5001	-4.7502	0.	141.26
4722	9.5	-5.2501	0.	141.77
4723	9.5	-5.75	0.	140.39
4724	9.5	-6.25	0.	139.22
4725	9.5	-6.75	0.	136.58
4726	9.5	-7.25	0.	133.03
4727	9.5	-7.75	0.	131.36
4728	9.5	-8.25	0.	130.88
4729	9.5	-8.75	0.	131.33
4730	9.5	-9.25	0.	132.31
4731	9.25	-9.5	0.	132.52
4732	8.75	-9.5	0.	131.43
4733	8.25	-9.5	0.	124.89
4734	7.75	-9.5	0.	112.75
4735	7.25	-9.5	0.	106.01
4736	6.75	-9.5	0.	106.65
4737	6.25	-9.5	0.	114.7
4738	5.75	-9.5	0.	127.58
4739	5.25	-9.5001	0.	133.81
4740	4.7501	-9.5002	0.	133.75
4741	4.2501	-9.5003	0.	132.76
4742	3.75	-9.5003	0.	131.56
4743	3.25	-9.5002	0.	130.38
4744	2.75	-9.5001	0.	129.25
4745	2.25	-9.5001	0.	128.19
4746	1.7499	-9.5	0.	127.2
4747	1.2498	-9.5	0.	126.36
4748	0.74971	-9.4999	0.	125.77
4749	0.24947	-9.4999	0.	125.51
4750	0.49946	-9.2499	0.	125.42
4751	-0.25084	-9.4997	0.	125.57
4752	-0.75129	-9.4995	0.	125.87
4753	-1.2519	-9.4993	0.	126.3
4754	-1.7525	-9.499	0.	126.77
4755	-2.253	-9.4989	0.	127.23
4756	-2.0045	-9.2482	0.	126.96
4757	-2.753	-9.4998	0.	127.67
4758	-3.2516	-9.5034	0.	128.08
4759	-3.7481	-9.5124	0.	128.43
4760	-4.2428	-9.5284	0.	128.4
4761	-4.74	-9.5445	0.	127.33
4762	-5.2428	-9.547	0.	123.02
4763	-5.7538	-9.5203	0.	116.72
4764	-6.2875	-9.4508	0.	115.55
4765	-6.8063	-9.4785	0.	119.98
4766	-7.2877	-9.5415	0.	124.07
4767	-7.7688	-9.5217	0.	126.03
4768	-8.2593	-9.5101	0.	126.56
4769	-8.7553	-9.505	0.	126.46
4770	-9.2529	-9.5025	0.	126.3
4771	-9.5025	-9.2521	0.	126.08
4772	-9.5029	-8.753	0.	125.74
4773	-9.5023	-8.2537	0.	125.44
4774	-9.5008	-7.7542	0.	125.35
4775	-9.4987	-7.2547	0.	125.47
4776	-9.4968	-6.7551	0.	125.7
4777	-9.4963	-6.2553	0.	125.91
4778	-9.4971	-5.7551	0.	126.17
4779	-9.4983	-5.2546	0.	126.64
4780	-9.4995	-4.7538	0.	127.43
4781	-9.5002	-4.2528	0.	128.75
4782	-9.5004	-3.7518	0.	131.62
4783	-9.5002	-3.2509	0.	133.94
4784	-9.5	-2.7503	0.	135.47
4785	-9.5	-2.2501	0.	137.34
4786	-9.5	-1.75	0.	137.15
4787	-9.5002	-1.2501	0.	135.42
4788	-9.501	-0.75002	0.	134.65
4789	-9.5018	-0.24983	0.	133.36
4790	-9.5015	0.25042	0.	131.63
4791	-9.5008	0.75062	0.	130.86
4792	-9.2518	0.50072	0.	130.45
4793	-9.5003	1.2509	0.	130.08
4794	-9.2507	1.0009	0.	130.51
4795	-9.4998	1.7513	0.	129.55
4796	-9.2501	1.5013	0.	130.1
4797	-9.4994	2.2518	0.	129.54
4798	-9.2496	2.002	0.	130.33
4799	-9.499	2.7523	0.	129.98
4800	-9.4996	3.2525	0.	130.5
4801	-9.2476	3.0043	0.	131.16
4802	-9.5017	3.7527	0.	130.45
4803	-9.249	3.5042	0.	131.55
4804	-9.5007	4.2535	0.	129.52
4805	-9.2559	4.0031	0.	130.63
4806	-9.4911	4.7543	0.	128.05
4807	-9.2506	4.5037	0.	128.9
4808	-9.4837	5.2543	0.	126.57
4809	-9.2199	5.0032	0.	127.05
4810	-9.4877	5.7554	0.	125.61
4811	-9.2229	5.506	0.	125.63
4812	-9.4959	6.2577	0.	125.38
4813	-9.5019	6.7594	0.	125.66
4814	-9.5043	7.2597	0.	126.
4815	-9.5044	7.7587	0.	126.11
4816	-9.5036	8.257	0.	125.94
4817	-9.5025	8.755	0.	125.61
4818	-9.2541	8.5092	0.	125.88
4819	-9.5014	9.253	0.	125.25
4820	5.323	-2.452	0.	126.03
4821	4.4548	-2.6069	0.	119.53
4822	4.8784	-2.53	0.	115.17
4823	4.7508	-8.0013	0.	130.85
4824	5.001	-7.7512	0.	131.45
4825	1.7901	4.019	0.	132.22
4826	7.5013	4.7317	0.	126.11
4827	7.5018	5.2297	0.	126.49
4828	7.7511	4.9854	0.	126.29
4829	3.2771	7.0108	0.	130.21
4830	3.5334	7.2611	0.	128.69
4831	6.9627	1.624	0.	129.8
4832	7.2384	1.885	0.	134.42
4833	0.53204	3.8383	0.	110.97
4834	-6.4936	8.2694	0.	121.02
4835	2.7545	-6.5043	0.	129.2
4836	-7.7043	-7.0729	0.	128.68
4837	6.5011	2.6864	0.	121.13
4838	4.0241	8.2625	0.	124.64
4839	3.7798	8.0099	0.	125.28
4840	4.0444	7.7626	0.	126.12
4841	0.24902	-7.9998	0.	124.17
4842	0.74956	-7.9999	0.	124.43
4843	-6.7679	-3.5427	0.	118.92
4844	-9.0017	0.751	0.	130.1
4845	2.6113	0.43651	0.	131.31
4846	2.1253	0.47701	0.	133.
4847	-4.9995	8.309	0.	126.91
4848	-4.983	7.856	0.	128.45
4849	-4.754	8.0823	0.	128.13
4850	2.2535	-6.5017	0.	129.82
4851	7.9906	6.2369	0.	129.36
4852	0.2199	8.4971	0.	128.96
4853	-2.834e-002	8.7484	0.	127.39
4854	6.2148	8.9755	0.	113.86
4855	-7.773	7.0715	0.	130.33
4856	-7.5308	6.845	0.	135.28
4857	2.2768	-4.995	0.	129.9
4858	-7.7582	6.1084	0.	124.41
4859	-7.5295	6.372	0.	131.75
4860	-7.4746	5.8957	0.	128.53
4861	-7.7578	8.0368	0.	125.46
4862	-5.6007e-002	5.8642	0.	120.8
4863	-2.773	-7.9923	0.	126.79
4864	-2.2645	-7.9944	0.	126.88
4865	7.2316	6.8788	0.	131.93
4866	-3.4689	5.4802	0.	128.66
4867	-4.6749	6.4991	0.	131.77
4868	4.0059	8.762	0.	125.31
4869	-2.5146	-1.2363	0.	132.88
4870	7.9974	2.6947	0.	129.09
4871	7.747	2.4281	0.	130.21
4872	7.993	2.1754	0.	128.53
4873	-1.0038	-8.2487	0.	126.19
4874	2.7501	-8.0011	0.	128.8
4875	2.25	-8.0006	0.	128.15
4876	-3.5046	-5.7143	0.	127.88
4877	9.0064	1.7243	0.	125.57
4878	9.0002	2.2247	0.	126.34
4879	3.2505	-8.0018	0.	129.19
4880	8.0336	1.1618	0.	125.05
4881	8.0813	0.67235	0.	124.91
4882	-4.7559	8.5521	0.	126.76
4883	-4.2637	8.5602	0.	127.32
4884	-4.5104	8.3254	0.	127.98
4885	0.25801	3.6548	0.	115.37
4886	-0.50214	-7.2493	0.	126.3
4887	0.73161	8.4965	0.	127.08
4888	7.7496	2.9495	0.	129.21
4889	7.9991	3.2097	0.	128.55
4890	-3.0281	8.7911	0.	125.97
4891	-3.0488	8.3089	0.	126.31
4892	-7.9608	5.8342	0.	124.27
4893	2.7661	6.0156	0.	130.89
4894	2.5168	5.7657	0.	129.07
4895	0.48021	8.7461	0.	128.65
4896	-9.0058	4.2532	0.	130.01
4897	-9.0032	3.7546	0.	131.72
4898	8.0253	-2.7604	0.	115.84
4899	-4.2352	0.54684	0.	133.67
4900	-6.2389	8.0167	0.	120.77
4901	6.0368	-4.7721	0.	125.89
4902	-8.7018	5.5144	0.	124.86
4903	-8.1848	5.5538	0.	123.65
4904	-4.712	0.56424	0.	133.98
4905	-6.27	-2.6028	0.	111.84
4906	-6.0412	-2.344	0.	113.29
4907	7.2509	4.4795	0.	125.93
4908	-4.9213	0.33534	0.	134.26
4909	-5.0236	-4.228	0.	128.09
4910	8.9979	5.2501	0.	126.57
4911	-8.997	3.256	0.	132.2
4912	0.81108	-0.14854	0.	126.97
4913	-0.79096	5.1856	0.	129.33
4914	-7.99	-5.7757	0.	125.64
4915	-8.959	5.2549	0.	126.11
4916	1.9999	-8.2503	0.	127.63
4917	-5.0031	8.7872	0.	125.9
4918	-4.0227	8.3241	0.	128.09
4919	-4.2694	8.0894	0.	128.74
4920	3.5286	7.7586	0.	126.51
4921	-4.0147	8.8003	0.	126.89
4922	-3.7631	9.0376	0.	126.3
4923	3.6637	-3.8127	0.	129.31
4924	2.5227	5.269	0.	127.54
4925	-7.6772	5.6216	0.	128.53
4926	-5.7484	9.012	0.	124.06
4927	-5.2514	9.0214	0.	125.02
4928	-9.0005	1.2513	0.	130.53
4929	-8.9998	1.752	0.	130.87
4930	8.0836	-0.78596	0.	124.74
4931	-6.5196	-3.3118	0.	115.72
4932	0.23198	8.9974	0.	127.07
4933	-0.27263	9.0008	0.	126.67
4934	-2.1273	3.9129	0.	119.36
4935	3.02	7.2578	0.	128.97
4936	8.0467	-2.265	0.	118.53
4937	-6.51	-2.8501	0.	111.87
4938	7.4992	2.6829	0.	130.32
4939	7.491	2.1494	0.	130.62
4940	8.2503	3.9803	0.	127.07
4941	7.7511	5.4834	0.	127.07
4942	8.0004	5.2392	0.	126.87
4943	7.9984	5.7389	0.	127.93
4944	8.0001	3.722	0.	127.6
4945	3.7932	7.5112	0.	127.35
4946	-4.6885	2.4694	0.	131.94
4947	7.9954	1.6606	0.	126.69
4948	-8.9793	4.7526	0.	127.91
4949	8.2996	-2.0162	0.	120.64
4950	7.7369	1.8967	0.	128.97
4951	-2.7659	-1.6698	0.	132.53
4952	-7.5345	3.9928	0.	120.23
4953	3.2762	7.508	0.	127.45
4954	-3.2676	9.0345	0.	126.03
4955	-4.4414	2.2201	0.	131.78
4956	-0.32787	6.0302	0.	127.38
4957	-5.1264	-0.95992	0.	131.36
4958	-4.373	3.1743	0.	134.43
4959	-4.4129	2.6994	0.	132.83
4960	-8.5649e-002	7.2593	0.	124.77
4961	-6.	3.	0.	95.834
4962	-8.	3.	0.	98.323
4963	-6.	1.	0.	95.79
4964	-8.	1.	0.	97.028
4965	-6.5	3.	0.	108.33
4966	-7.	3.	0.	106.77
4967	-7.5	3.	0.	110.66
4968	-6.	2.5	0.	100.38
4969	-6.	2.	0.	99.238
4970	-6.	1.5	0.	100.08
4971	-8.	2.5	0.	101.85
4972	-8.	2.	0.	100.4
4973	-8.	1.5	0.	101.43
4974	-7.5	1.	0.	110.42
4975	-7.	1.	0.	106.85
4976	-6.5	1.	0.	108.19
4977	-6.5	2.	0.	106.24
4978	-6.5	1.5	0.	106.67
4979	-7.5	1.5	0.	107.89
4980	-7.5	2.	0.	107.27
4981	-7.5	2.5	0.	108.12
4982	-6.5	2.5	0.	106.76
4983	-7.	2.5	0.	109.53
4984	-7.	1.5	0.	109.45
4985	-7.	2.	0.	109.43
4986	-6.25	3.	0.	102.03
4987	-6.	2.75	0.	98.102
4988	-7.75	3.	0.	104.42
4989	-8.	2.75	0.	100.08
4990	-6.	1.25	0.	97.929
4991	-6.25	1.	0.	101.94
4992	-8.	1.25	0.	99.218
4993	-7.75	1.	0.	103.64
4994	-6.75	3.	0.	107.55
4995	-6.5	2.75	0.	107.52
4996	-7.25	3.	0.	108.72
4997	-7.	2.75	0.	108.13
4998	-7.5	2.75	0.	109.36
4999	-6.	2.25	0.	99.79
5000	-6.25	2.5	0.	103.56
5001	-6.	1.75	0.	99.636
5002	-6.25	2.	0.	102.74
5003	-6.25	1.5	0.	103.37
5004	-8.	2.25	0.	101.1
5005	-7.75	2.5	0.	104.97
5006	-8.	1.75	0.	100.89
5007	-7.75	2.	0.	103.83
5008	-7.75	1.5	0.	104.65
5009	-7.25	1.	0.	108.64
5010	-7.5	1.25	0.	109.13
5011	-6.75	1.	0.	107.52
5012	-7.	1.25	0.	108.14
5013	-6.5	1.25	0.	107.4
5014	-6.5	1.75	0.	106.45
5015	-6.5	2.25	0.	106.49
5016	-6.75	2.	0.	107.83
5017	-6.75	1.5	0.	108.05
5018	-7.5	1.75	0.	107.57
5019	-7.25	1.5	0.	108.66
5020	-7.5	2.25	0.	107.69
5021	-7.25	2.	0.	108.35
5022	-7.25	2.5	0.	108.81
5023	-6.75	2.5	0.	108.14
5024	-7.	2.25	0.	109.48
5025	-7.	1.75	0.	109.44
5026	-8.	-1.	0.	93.44
5027	-9.	-1.	0.	97.877
5028	-8.	-3.	0.	97.277
5029	-9.	-3.	0.	98.542
5030	-8.5	-1.	0.	109.82
5031	-8.	-1.5	0.	98.012
5032	-8.	-2.	0.	99.173
5033	-8.	-2.5	0.	102.07
5034	-9.	-1.5	0.	101.1
5035	-9.	-2.	0.	100.8
5036	-9.	-2.5	0.	102.33
5037	-8.5	-3.	0.	112.18
5038	-8.5	-1.5	0.	103.87
5039	-8.5	-2.	0.	103.06
5040	-8.5	-2.5	0.	106.63
5041	-8.25	-1.	0.	101.57
5042	-8.	-1.25	0.	95.693
5043	-8.75	-1.	0.	103.79
5044	-9.	-1.25	0.	99.476
5045	-8.	-2.75	0.	99.664
5046	-8.25	-3.	0.	104.68
5047	-9.	-2.75	0.	100.43
5048	-8.75	-3.	0.	105.32
5049	-8.5	-1.25	0.	106.8
5050	-8.	-1.75	0.	98.464
5051	-8.25	-1.5	0.	100.88
5052	-8.	-2.25	0.	100.59
5053	-8.25	-2.	0.	101.11
5054	-8.25	-2.5	0.	104.31
5055	-9.	-1.75	0.	100.93
5056	-8.75	-1.5	0.	102.44
5057	-9.	-2.25	0.	101.54
5058	-8.75	-2.	0.	101.93
5059	-8.75	-2.5	0.	104.43
5060	-8.5	-2.75	0.	109.37
5061	-8.5	-1.75	0.	103.45
5062	-8.5	-2.25	0.	104.84
5063	1.	-5.	0.	99.187
5064	0.	-5.	0.	97.754
5065	1.	-6.	0.	98.689
5066	0.	-6.	0.	98.02
5067	0.5	-5.	0.	114.
5068	1.	-5.5	0.	104.07
5069	0.	-5.5	0.	103.1
5070	0.5	-6.	0.	113.92
5071	0.5	-5.5	0.	111.25
5072	0.75	-5.	0.	106.57
5073	1.	-5.25	0.	101.62
5074	0.25	-5.	0.	105.86
5075	0.	-5.25	0.	100.41
5076	1.	-5.75	0.	101.37
5077	0.75	-6.	0.	106.29
5078	0.	-5.75	0.	100.55
5079	0.25	-6.	0.	105.95
5080	0.5	-5.25	0.	112.58
5081	0.75	-5.5	0.	107.64
5082	0.25	-5.5	0.	107.15
5083	0.5	-5.75	0.	112.54
5084	1.	2.	0.	100.61
5085	-1.	2.	0.	96.133
5086	1.	1.	0.	103.03
5087	-1.	1.	0.	92.578
5088	0.5	2.	0.	115.86
5089	0.	2.	0.	112.52
5090	-0.5	2.	0.	112.45
5091	1.	1.5	0.	106.69
5092	-1.	1.5	0.	99.173
5093	-0.5	1.	0.	109.83
5094	0.	1.	0.	113.45
5095	0.5	1.	0.	118.64
5096	-0.5	1.5	0.	110.04
5097	0.	1.5	0.	115.9
5098	0.5	1.5	0.	115.65
5099	0.75	2.	0.	108.2
5100	1.	1.75	0.	103.63
5101	-0.75	2.	0.	104.23
5102	-1.	1.75	0.	97.632
5103	1.	1.25	0.	104.83
5104	0.75	1.	0.	110.75
5105	-1.	1.25	0.	95.851
5106	-0.75	1.	0.	101.2
5107	0.25	2.	0.	114.18
5108	0.5	1.75	0.	115.73
5109	-0.25	2.	0.	112.48
5110	0.	1.75	0.	114.2
5111	-0.5	1.75	0.	111.23
5112	0.75	1.5	0.	111.15
5113	-0.75	1.5	0.	104.58
5114	-0.25	1.	0.	111.63
5115	-0.5	1.25	0.	109.92
5116	0.25	1.	0.	116.04
5117	0.	1.25	0.	114.67
5118	0.5	1.25	0.	117.12
5119	-0.25	1.5	0.	112.97
5120	0.25	1.5	0.	115.77
5121	2.	8.	0.	98.718
5122	1.	8.	0.	98.295
5123	2.	7.	0.	100.21
5124	1.	7.	0.	97.754
5125	1.5	8.	0.	114.22
5126	2.	7.5	0.	104.63
5127	1.	7.5	0.	103.21
5128	1.5	7.	0.	115.19
5129	1.5	7.5	0.	111.87
5130	1.75	8.	0.	106.45
5131	2.	7.75	0.	101.66
5132	1.25	8.	0.	106.24
5133	1.	7.75	0.	100.74
5134	2.	7.25	0.	102.41
5135	1.75	7.	0.	107.67
5136	1.	7.25	0.	100.46
5137	1.25	7.	0.	106.44
5138	1.5	7.75	0.	112.99
5139	1.75	7.5	0.	108.22
5140	1.25	7.5	0.	107.51
5141	1.5	7.25	0.	113.48
5142	8.	-7.	0.	89.766
5143	6.	-7.	0.	99.409
5144	8.	-9.	0.	93.917
5145	6.	-9.	0.	95.805
5146	7.5	-7.	0.	104.43
5147	7.	-7.	0.	106.12
5148	6.5	-7.	0.	112.13
5149	8.	-7.5	0.	95.562
5150	8.	-8.	0.	95.58
5151	8.	-8.5	0.	97.247
5152	6.	-7.5	0.	102.25
5153	6.	-8.	0.	99.899
5154	6.	-8.5	0.	100.27
5155	6.5	-9.	0.	106.99
5156	7.	-9.	0.	103.23
5157	7.5	-9.	0.	105.52
5158	7.5	-8.	0.	102.84
5159	7.5	-8.5	0.	103.61
5160	6.5	-8.5	0.	105.63
5161	6.5	-8.	0.	105.91
5162	6.5	-7.5	0.	107.91
5163	7.5	-7.5	0.	103.
5164	7.	-7.5	0.	107.8
5165	7.	-8.5	0.	106.46
5166	7.	-8.	0.	106.98
5167	7.75	-7.	0.	97.064
5168	8.	-7.25	0.	92.645
5169	6.25	-7.	0.	105.64
5170	6.	-7.25	0.	100.82
5171	8.	-8.75	0.	95.577
5172	7.75	-9.	0.	99.662
5173	6.	-8.75	0.	98.031
5174	6.25	-9.	0.	101.34
5175	7.25	-7.	0.	105.27
5176	7.5	-7.25	0.	103.7
5177	6.75	-7.	0.	109.11
5178	7.	-7.25	0.	106.95
5179	6.5	-7.25	0.	109.99
5180	8.	-7.75	0.	95.545
5181	7.75	-7.5	0.	99.273
5182	8.	-8.25	0.	96.391
5183	7.75	-8.	0.	99.206
5184	7.75	-8.5	0.	100.41
5185	6.	-7.75	0.	101.05
5186	6.25	-7.5	0.	105.05
5187	6.	-8.25	0.	100.06
5188	6.25	-8.	0.	102.9
5189	6.25	-8.5	0.	102.94
5190	6.75	-9.	0.	105.11
5191	6.5	-8.75	0.	106.27
5192	7.25	-9.	0.	104.38
5193	7.	-8.75	0.	104.83
5194	7.5	-8.75	0.	104.54
5195	7.5	-8.25	0.	103.21
5196	7.5	-7.75	0.	102.91
5197	7.25	-8.	0.	104.91
5198	7.25	-8.5	0.	105.03
5199	6.5	-8.25	0.	105.76
5200	6.75	-8.5	0.	106.04
5201	6.5	-7.75	0.	106.9
5202	6.75	-8.	0.	106.44
5203	6.75	-7.5	0.	107.83
5204	7.25	-7.5	0.	105.4
5205	7.	-7.75	0.	107.39
5206	7.	-8.25	0.	106.72
5207	6.	6.	0.	90.53
5208	5.	6.	0.	96.487
5209	6.	4.	0.	91.654
5210	5.	4.	0.	93.853
5211	5.5	6.	0.	106.35
5212	6.	5.5	0.	95.503
5213	6.	5.	0.	95.042
5214	6.	4.5	0.	95.982
5215	5.	5.5	0.	98.825
5216	5.	5.	0.	97.24
5217	5.	4.5	0.	97.833
5218	5.5	4.	0.	105.71
5219	5.5	5.5	0.	101.21
5220	5.5	5.	0.	99.101
5221	5.5	4.5	0.	100.94
5222	5.75	6.	0.	98.411
5223	6.	5.75	0.	93.012
5224	5.25	6.	0.	101.36
5225	5.	5.75	0.	97.652
5226	6.	4.25	0.	93.815
5227	5.75	4.	0.	98.645
5228	5.	4.25	0.	95.84
5229	5.25	4.	0.	99.733
5230	5.5	5.75	0.	103.74
5231	6.	5.25	0.	95.233
5232	5.75	5.5	0.	98.322
5233	6.	4.75	0.	95.473
5234	5.75	5.	0.	97.07
5235	5.75	4.5	0.	98.422
5236	5.	5.25	0.	98.006
5237	5.25	5.5	0.	99.97
5238	5.	4.75	0.	97.509
5239	5.25	5.	0.	98.17
5240	5.25	4.5	0.	99.351
5241	5.5	4.25	0.	103.28
5242	5.5	5.25	0.	100.15
5243	5.5	4.75	0.	100.02
5244	9.	-4.	0.	100.13
5245	7.	-4.	0.	95.644
5246	9.	-6.	0.	103.02
5247	7.	-6.	0.	89.698
5248	8.5	-4.	0.	112.72
5249	8.	-4.	0.	108.82
5250	7.5	-4.	0.	110.21
5251	9.	-4.5	0.	105.31
5252	9.	-5.	0.	104.8
5253	9.	-5.5	0.	106.43
5254	7.	-4.5	0.	99.07
5255	7.	-5.	0.	96.6
5256	7.	-5.5	0.	95.886
5257	7.5	-6.	0.	105.37
5258	8.	-6.	0.	108.26
5259	8.5	-6.	0.	115.08
5260	8.	-5.	0.	111.02
5261	8.	-5.5	0.	110.87
5262	7.5	-5.5	0.	104.82
5263	7.5	-5.	0.	105.49
5264	7.5	-4.5	0.	107.17
5265	8.	-4.5	0.	111.39
5266	8.5	-4.5	0.	110.98
5267	8.5	-5.	0.	110.75
5268	8.5	-5.5	0.	111.93
5269	8.75	-4.	0.	106.35
5270	9.	-4.25	0.	102.72
5271	7.25	-4.	0.	102.84
5272	7.	-4.25	0.	97.341
5273	9.	-5.75	0.	104.72
5274	8.75	-6.	0.	108.95
5275	7.	-5.75	0.	92.774
5276	7.25	-6.	0.	97.515
5277	8.25	-4.	0.	110.77
5278	8.5	-4.25	0.	111.8
5279	7.75	-4.	0.	109.51
5280	8.	-4.25	0.	110.08
5281	7.5	-4.25	0.	108.67
5282	9.	-4.75	0.	105.04
5283	8.75	-4.5	0.	108.14
5284	9.	-5.25	0.	105.6
5285	8.75	-5.	0.	107.77
5286	8.75	-5.5	0.	109.16
5287	7.	-4.75	0.	97.802
5288	7.25	-4.5	0.	103.09
5289	7.	-5.25	0.	96.206
5290	7.25	-5.	0.	101.03
5291	7.25	-5.5	0.	100.34
5292	7.75	-6.	0.	106.81
5293	7.5	-5.75	0.	105.08
5294	8.25	-6.	0.	111.67
5295	8.	-5.75	0.	109.55
5296	8.5	-5.75	0.	113.47
5297	8.	-5.25	0.	110.94
5298	7.75	-5.	0.	108.25
5299	8.	-4.75	0.	111.2
5300	8.25	-5.	0.	110.89
5301	7.75	-5.5	0.	107.84
5302	8.25	-5.5	0.	111.39
5303	7.5	-5.25	0.	105.13
5304	7.5	-4.75	0.	106.31
5305	7.75	-4.5	0.	109.26
5306	8.25	-4.5	0.	111.17
5307	8.5	-4.75	0.	110.86
5308	8.5	-5.25	0.	111.34
5309	-6.6	4.76	0.	101.71
5310	-5.58	5.95	0.	66.059
5311	-7.12	6.23	0.	59.774
5312	-6.26	5.1567	0.	89.568
5313	-5.92	5.5533	0.	96.669
5314	-6.7733	5.25	0.	93.086
5315	-6.9467	5.74	0.	98.248
5316	-6.0933	6.0433	0.	111.36
5317	-6.6067	6.1367	0.	109.7
5318	-6.236	5.7168	0.	101.33
5319	-6.4719	5.4417	0.	99.226
5320	-6.5921	5.7815	0.	97.505
5321	-6.43	4.9583	0.	94.322
5322	-6.6867	5.005	0.	95.608
5323	-5.75	5.7517	0.	78.496
5324	-5.8367	5.9967	0.	85.595
5325	-7.0333	5.985	0.	78.89
5326	-6.8633	6.1833	0.	84.49
5327	-6.09	5.355	0.	93.025
5328	-6.3659	5.2992	0.	94.394
5329	-6.078	5.6351	0.	98.77
5330	-6.86	5.495	0.	95.511
5331	-6.6226	5.3458	0.	96.062
5332	-6.7694	5.7608	0.	97.862
5333	-6.35	6.09	0.	110.42
5334	-6.1647	5.8801	0.	106.02
5335	-6.5994	5.9591	0.	103.58
5336	-6.3539	5.5792	0.	100.18
5337	-6.4141	5.7492	0.	99.296
5338	-6.532	5.6116	0.	98.334
5339	-6.66	-0.57	0.	94.077
5340	-6.95	-1.92	0.	67.018
5341	-5.63	-1.49	0.	70.807
5342	-6.7567	-1.02	0.	96.095
5343	-6.8533	-1.47	0.	99.573
5344	-6.3167	-0.87667	0.	92.007
5345	-5.9733	-1.1833	0.	97.425
5346	-6.51	-1.7767	0.	105.44
5347	-6.07	-1.6333	0.	107.58
5348	-6.2322	-1.3644	0.	101.38
5349	-6.5374	-1.4639	0.	96.823
5350	-6.4704	-1.1517	0.	98.534
5351	-6.7083	-0.795	0.	93.125
5352	-6.4883	-0.72333	0.	91.428
5353	-6.9017	-1.695	0.	82.829
5354	-6.73	-1.8483	0.	85.535
5355	-5.8017	-1.3367	0.	80.408
5356	-5.85	-1.5617	0.	85.254
5357	-6.805	-1.245	0.	97.651
5358	-6.6135	-1.0859	0.	97.227
5359	-6.6954	-1.4669	0.	98.197
5360	-6.145	-1.03	0.	94.625
5361	-6.3935	-1.0142	0.	95.231
5362	-6.1028	-1.2739	0.	99.05
5363	-6.29	-1.705	0.	106.41
5364	-6.5237	-1.6203	0.	101.09
5365	-6.1511	-1.4989	0.	104.06
5366	-6.3848	-1.4141	0.	98.995
5367	-6.3513	-1.2581	0.	99.867
5368	-6.5039	-1.3078	0.	97.662
5369	-5.83	-8.7	0.	93.751
5370	-5.51	-7.34	0.	72.928
5371	-6.84	-7.74	0.	82.5
5372	-5.7233	-8.2467	0.	95.038
5373	-5.6167	-7.7933	0.	103.63
5374	-6.1667	-8.38	0.	99.185
5375	-6.5033	-8.06	0.	99.717
5376	-5.9533	-7.4733	0.	109.96
5377	-6.3967	-7.6067	0.	108.07
5378	-5.9841	-7.925	0.	98.539
5379	-5.7767	-8.4733	0.	93.275
5380	-5.9983	-8.54	0.	95.296
5381	-5.5633	-7.5667	0.	87.999
5382	-5.7317	-7.4067	0.	91.075
5383	-6.6717	-7.9	0.	89.603
5384	-6.6183	-7.6733	0.	94.01
5385	-5.67	-8.02	0.	99.225
5386	-5.8537	-8.0858	0.	96.747
5387	-5.8004	-7.8592	0.	101.06
5388	-6.335	-8.22	0.	99.377
5389	-6.0754	-8.1525	0.	98.829
5390	-6.45	-7.8333	0.	103.69
5391	-6.175	-7.54	0.	109.01
5392	-5.9687	-7.6992	0.	104.22
5393	-6.1904	-7.7658	0.	103.28
5394	-0.33	4.95	0.	63.384
5395	0.64	4.47	0.	78.246
5396	0.57	5.55	0.	85.874
5397	0.155	4.71	0.	99.564
5398	0.12	5.25	0.	93.448
5399	0.605	5.01	0.	101.3
5400	0.29332	4.99	0.	100.86
5401	-8.75e-002	4.83	0.	76.688
5402	-0.105	5.1	0.	73.342
5403	0.3975	4.59	0.	87.153
5404	0.6225	4.74	0.	88.526
5405	0.345	5.4	0.	87.979
5406	0.5875	5.28	0.	91.817
5407	0.22416	4.85	0.	99.377
5408	0.20666	5.12	0.	96.284
5409	0.44916	5.	0.	101.07
5410	-2.03	-0.73	0.	83.269
5411	-0.65	-2.09	0.	98.332
5412	-0.16	-0.21	0.	65.506
5413	-1.685	-1.07	0.	107.39
5414	-1.34	-1.41	0.	103.41
5415	-0.995	-1.75	0.	97.176
5416	-1.5625	-0.6	0.	116.31
5417	-1.095	-0.47	0.	106.59
5418	-0.6275	-0.34	0.	109.86
5419	-0.5275	-1.62	0.	97.77
5420	-0.405	-1.15	0.	97.875
5421	-0.2825	-0.68	0.	100.59
5422	-1.2819	-1.0348	0.	105.89
5423	-0.71873	-1.032	0.	101.62
5424	-0.96581	-0.80046	0.	105.4
5425	-0.62501	-0.68637	0.	98.534
5426	-0.88753	-1.3652	0.	101.95
5427	-1.8575	-0.9	0.	92.619
5428	-1.7962	-0.665	0.	97.215
5429	-0.8225	-1.92	0.	96.335
5430	-0.58875	-1.855	0.	96.525
5431	-0.39375	-0.275	0.	87.393
5432	-0.22125	-0.445	0.	82.825
5433	-1.5125	-1.24	0.	105.35
5434	-1.4834	-1.0524	0.	106.51
5435	-1.1675	-1.58	0.	100.29
5436	-1.3109	-1.2224	0.	104.63
5437	-0.94126	-1.5576	0.	99.526
5438	-1.3288	-0.535	0.	111.44
5439	-1.4222	-0.81742	0.	110.95
5440	-0.86125	-0.405	0.	108.21
5441	-1.0304	-0.63523	0.	106.
5442	-0.62625	-0.51318	0.	104.18
5443	-0.46625	-1.385	0.	97.732
5444	-0.70751	-1.4926	0.	99.8
5445	-0.34375	-0.915	0.	99.234
5446	-0.56186	-1.091	0.	99.74
5447	-0.45375	-0.68318	0.	99.554
5448	-1.1238	-0.91765	0.	105.57
5449	-1.0847	-1.2	0.	103.86
5450	-0.84227	-0.91625	0.	103.5
5451	-0.67187	-0.8592	0.	100.04
5452	-0.80313	-1.1986	0.	101.78
5453	-0.79541	-0.74342	0.	101.95
5454	-2.22	6.02	0.	110.16
5455	-2.74	4.84	0.	52.589
5456	-1.46	4.98	0.	53.954
5457	-2.3933	5.6267	0.	94.539
5458	-2.5667	5.2333	0.	98.243
5459	-1.9667	5.6733	0.	90.245
5460	-1.7133	5.3267	0.	94.712
5461	-2.3133	4.8867	0.	113.47
5462	-1.8867	4.9333	0.	113.76
5463	-1.9824	5.2101	0.	102.18
5464	-2.1578	5.4512	0.	101.15
5465	-2.2783	5.1779	0.	100.1
5466	-2.3067	5.8233	0.	100.33
5467	-2.0933	5.8467	0.	98.735
5468	-2.6533	5.0367	0.	75.137
5469	-2.5267	4.8633	0.	82.814
5470	-1.5867	5.1533	0.	71.693
5471	-1.6733	4.9567	0.	81.346
5472	-2.48	5.43	0.	96.251
5473	-2.2756	5.5389	0.	97.721
5474	-2.4225	5.2056	0.	99.089
5475	-1.84	5.5	0.	92.326
5476	-2.0622	5.5623	0.	95.668
5477	-1.8479	5.2684	0.	98.218
5478	-2.1	4.91	0.	113.5
5479	-2.2958	5.0323	0.	106.73
5480	-1.9345	5.0717	0.	107.72
5481	-2.0701	5.3306	0.	101.54
5482	-2.1303	5.194	0.	101.
5483	-2.218	5.3146	0.	100.55
5484	4.53	-1.11	0.	94.398
5485	4.32	-2.24	0.	74.591
5486	5.41	-1.86	0.	77.249
5487	4.425	-1.675	0.	107.95
5488	4.8233	-1.36	0.	98.101
5489	5.1167	-1.61	0.	103.79
5490	4.6833	-2.1133	0.	110.33
5491	5.0467	-1.9867	0.	112.06
5492	4.793	-1.7441	0.	103.19
5493	4.4775	-1.3925	0.	99.79
5494	4.6767	-1.235	0.	95.242
5495	4.3725	-1.9575	0.	90.579
5496	4.5017	-2.1767	0.	92.033
5497	5.2633	-1.735	0.	87.816
5498	5.2283	-1.9233	0.	91.754
5499	4.609	-1.7095	0.	105.55
5500	4.97	-1.485	0.	100.88
5501	4.8082	-1.552	0.	100.59
5502	4.9548	-1.677	0.	103.28
5503	4.865	-2.05	0.	111.13
5504	4.7382	-1.9287	0.	106.74
5505	4.9198	-1.8654	0.	107.49
5506	5.74	9.e-002	0.	107.43
5507	6.54	1.39	0.	57.946
5508	5.02	1.43	0.	58.247
5509	6.0067	0.52333	0.	90.484
5510	6.2733	0.95667	0.	96.328
5511	5.5	0.53667	0.	90.785
5512	5.26	0.98333	0.	96.193
5513	6.0333	1.4033	0.	111.74
5514	5.5267	1.4167	0.	111.16
5515	5.9455	1.0671	0.	99.388
5516	5.7605	0.76651	0.	99.934
5517	5.594	1.0764	0.	98.447
5518	5.8733	0.30667	0.	97.638
5519	5.62	0.31333	0.	97.684
5520	6.4067	1.1733	0.	75.956
5521	6.2867	1.3967	0.	83.641
5522	5.14	1.2067	0.	76.437
5523	5.2733	1.4233	0.	83.947
5524	6.14	0.74	0.	93.321
5525	5.8836	0.64492	0.	95.175
5526	6.1094	1.0119	0.	97.756
5527	5.38	0.76	0.	93.357
5528	5.6302	0.65159	0.	95.295
5529	5.427	1.0298	0.	97.233
5530	5.78	1.41	0.	111.32
5531	5.9894	1.2352	0.	105.41
5532	5.5604	1.2465	0.	104.71
5533	5.853	0.91682	0.	99.597
5534	5.7698	1.0717	0.	98.806
5535	5.6773	0.92143	0.	99.131
5536	5.84	7.16	0.	101.42
5537	6.92	8.29	0.	70.399
5538	5.4	8.66	0.	62.855
5539	6.2	7.5367	0.	92.915
5540	6.56	7.9133	0.	98.89
5541	5.6933	7.66	0.	96.527
5542	5.5467	8.16	0.	101.86
5543	6.4133	8.4133	0.	113.67
5544	5.9067	8.5367	0.	113.
5545	5.9023	8.1808	0.	100.74
5546	6.2537	8.0953	0.	105.1
5547	6.004	7.834	0.	102.2
5548	6.02	7.3483	0.	95.725
5549	5.7667	7.41	0.	97.133
5550	6.74	8.1017	0.	81.164
5551	6.6667	8.3517	0.	88.188
5552	5.4733	8.41	0.	82.156
5553	5.6533	8.5983	0.	87.556
5554	6.38	7.725	0.	95.795
5555	6.102	7.6853	0.	97.543
5556	6.4069	8.0043	0.	101.69
5557	5.62	7.91	0.	99.011
5558	5.8487	7.747	0.	99.28
5559	5.7245	8.1704	0.	101.29
5560	6.16	8.475	0.	113.25
5561	6.3335	8.2543	0.	109.02
5562	5.9045	8.3587	0.	106.85
5563	6.078	8.138	0.	102.78
5564	5.9531	8.0074	0.	101.44
5565	6.1289	7.9646	0.	103.55
5566	-6.	-5.	0.	94.797
5567	-7.	-5.	0.	94.663
5568	-6.	-6.	0.	92.388
5569	-7.	-6.	0.	95.606
5570	-6.5	-5.	0.	109.48
5571	-6.	-5.5	0.	98.723
5572	-7.	-5.5	0.	99.839
5573	-6.5	-6.	0.	107.97
5574	-6.5	-5.5	0.	106.3
5575	-6.25	-5.	0.	102.12
5576	-6.	-5.25	0.	96.755
5577	-6.75	-5.	0.	102.04
5578	-7.	-5.25	0.	97.241
5579	-6.	-5.75	0.	95.542
5580	-6.25	-6.	0.	100.17
5581	-7.	-5.75	0.	97.718
5582	-6.75	-6.	0.	101.78
5583	-6.5	-5.25	0.	107.84
5584	-6.25	-5.5	0.	102.48
5585	-6.75	-5.5	0.	103.05
5586	-6.5	-5.75	0.	107.1
