Node Number	X Location (mm)	Y Location (mm)	Z Location (mm)	Equivalent (von-Mises) Stress (MPa)
1	-4.	0.	0.	131.28
2	-4.	-1.	0.	129.67
3	-3.	0.	0.	129.83
4	-3.	-1.	0.	128.03
5	-4.	-3.	0.	132.05
6	-4.	-4.	0.	133.24
7	-2.	-3.	0.	134.05
8	-2.	-4.	0.	134.18
9	10.	10.	0.	125.
10	-10.	10.	0.	125.
11	10.	-10.	0.	125.16
12	-10.	-10.	0.	126.67
13	-4.	-0.5	0.	139.83
14	-3.5	0.	0.	108.35
15	-3.5	-1.	0.	106.97
16	-3.	-0.5	0.	138.08
17	-4.	-3.5	0.	141.25
18	-3.5	-3.	0.	113.81
19	-3.	-3.	0.	119.4
20	-2.5	-3.	0.	115.63
21	-3.5	-4.	0.	115.12
22	-3.	-4.	0.	120.27
23	-2.5	-4.	0.	115.49
24	-2.	-3.5	0.	142.51
25	9.5	10.	0.	125.
26	9.	10.	0.	125.
27	8.5	10.	0.	125.
28	8.	10.	0.	125.01
29	7.5	10.	0.	125.01
30	7.	10.	0.	125.01
31	6.5	10.	0.	125.01
32	6.	10.	0.	125.01
33	5.5	10.	0.	125.
34	5.	10.	0.	124.99
35	4.5	10.	0.	124.99
36	4.	10.	0.	124.97
37	3.5	10.	0.	124.96
38	3.	10.	0.	124.94
39	2.5	10.	0.	124.92
40	2.	10.	0.	124.89
41	1.5	10.	0.	124.87
42	1.	10.	0.	124.84
43	0.5	10.	0.	124.81
44	-5.2042e-015	10.	0.	124.78
45	-0.5	10.	0.	124.75
46	-1.	10.	0.	124.72
47	-1.5	10.	0.	124.7
48	-2.	10.	0.	124.68
49	-2.5	10.	0.	124.67
50	-3.	10.	0.	124.67
51	-3.5	10.	0.	124.68
52	-4.	10.	0.	124.69
53	-4.5	10.	0.	124.72
54	-5.	10.	0.	124.75
55	-5.5	10.	0.	124.78
56	-6.	10.	0.	124.82
57	-6.5	10.	0.	124.86
58	-7.	10.	0.	124.9
59	-7.5	10.	0.	124.93
60	-8.	10.	0.	124.97
61	-8.5	10.	0.	124.99
62	-9.	10.	0.	125.
63	-9.5	10.	0.	125.
64	10.	9.5	0.	125.
65	10.	9.	0.	125.
66	10.	8.5	0.	124.99
67	10.	8.	0.	124.99
68	10.	7.5	0.	124.99
69	10.	7.	0.	124.98
70	10.	6.5	0.	124.98
71	10.	6.	0.	124.98
72	10.	5.5	0.	124.97
73	10.	5.	0.	124.96
74	10.	4.5	0.	124.95
75	10.	4.	0.	124.94
76	10.	3.5	0.	124.93
77	10.	3.	0.	124.92
78	10.	2.5	0.	124.9
79	10.	2.	0.	124.88
80	10.	1.5	0.	124.86
81	10.	1.	0.	124.84
82	10.	0.5	0.	124.82
83	10.	-5.2042e-015	0.	124.8
84	10.	-0.5	0.	124.79
85	10.	-1.	0.	124.78
86	10.	-1.5	0.	124.77
87	10.	-2.	0.	124.77
88	10.	-2.5	0.	124.77
89	10.	-3.	0.	124.78
90	10.	-3.5	0.	124.8
91	10.	-4.	0.	124.83
92	10.	-4.5	0.	124.86
93	10.	-5.	0.	124.89
94	10.	-5.5	0.	124.93
95	10.	-6.	0.	124.97
96	10.	-6.5	0.	125.
97	10.	-7.	0.	125.04
98	10.	-7.5	0.	125.08
99	10.	-8.	0.	125.11
100	10.	-8.5	0.	125.13
101	10.	-9.	0.	125.15
102	10.	-9.5	0.	125.16
103	-10.	9.5	0.	124.99
104	-10.	9.	0.	125.
105	-10.	8.5	0.	125.02
106	-10.	8.	0.	125.07
107	-10.	7.5	0.	125.13
108	-10.	7.	0.	125.21
109	-10.	6.5	0.	125.3
110	-10.	6.	0.	125.39
111	-10.	5.5	0.	125.49
112	-10.	5.	0.	125.59
113	-10.	4.5	0.	125.69
114	-10.	4.	0.	125.77
115	-10.	3.5	0.	125.84
116	-10.	3.	0.	125.88
117	-10.	2.5	0.	125.89
118	-10.	2.	0.	125.87
119	-10.	1.5	0.	125.82
120	-10.	1.	0.	125.74
121	-10.	0.5	0.	125.64
122	-10.	-5.2042e-015	0.	125.53
123	-10.	-0.5	0.	125.42
124	-10.	-1.	0.	125.33
125	-10.	-1.5	0.	125.25
126	-10.	-2.	0.	125.2
127	-10.	-2.5	0.	125.18
128	-10.	-3.	0.	125.2
129	-10.	-3.5	0.	125.27
130	-10.	-4.	0.	125.39
131	-10.	-4.5	0.	125.55
132	-10.	-5.	0.	125.74
133	-10.	-5.5	0.	125.94
134	-10.	-6.	0.	126.13
135	-10.	-6.5	0.	126.29
136	-10.	-7.	0.	126.42
137	-10.	-7.5	0.	126.52
138	-10.	-8.	0.	126.58
139	-10.	-8.5	0.	126.63
140	-10.	-9.	0.	126.65
141	-10.	-9.5	0.	126.67
142	-9.5	-10.	0.	126.45
143	-9.	-10.	0.	126.25
144	-8.5	-10.	0.	126.05
145	-8.	-10.	0.	125.85
146	-7.5	-10.	0.	125.63
147	-7.	-10.	0.	125.39
148	-6.5	-10.	0.	125.12
149	-6.	-10.	0.	124.81
150	-5.5	-10.	0.	124.49
151	-5.	-10.	0.	124.16
152	-4.5	-10.	0.	123.85
153	-4.	-10.	0.	123.6
154	-3.5	-10.	0.	123.43
155	-3.	-10.	0.	123.38
156	-2.5	-10.	0.	123.44
157	-2.	-10.	0.	123.61
158	-1.5	-10.	0.	123.85
159	-1.	-10.	0.	124.15
160	-0.5	-10.	0.	124.45
161	5.2042e-015	-10.	0.	124.74
162	0.5	-10.	0.	124.99
163	1.	-10.	0.	125.19
164	1.5	-10.	0.	125.35
165	2.	-10.	0.	125.45
166	2.5	-10.	0.	125.51
167	3.	-10.	0.	125.54
168	3.5	-10.	0.	125.55
169	4.	-10.	0.	125.53
170	4.5	-10.	0.	125.5
171	5.	-10.	0.	125.47
172	5.5	-10.	0.	125.42
173	6.	-10.	0.	125.38
174	6.5	-10.	0.	125.33
175	7.	-10.	0.	125.29
176	7.5	-10.	0.	125.25
177	8.	-10.	0.	125.21
178	8.5	-10.	0.	125.18
179	9.	-10.	0.	125.16
180	9.5	-10.	0.	125.16
181	2.5	2.5	0.	125.49
182	3.	2.5	0.	125.45
183	2.5	2.	0.	125.52
184	2.	2.5	0.	125.52
185	2.5	3.	0.	125.45
186	3.	1.5	0.	125.49
187	1.5	3.	0.	125.48
188	3.	-0.5	0.	125.45
189	3.	1.	0.	125.49
190	3.	3.	0.	125.42
191	2.5	1.5	0.	125.55
192	2.	2.	0.	125.57
193	3.	-1.	0.	125.41
194	1.5	2.5	0.	125.54
195	1.	3.	0.	125.47
196	0.5	3.5	0.	125.33
197	3.	0.5	0.	125.49
198	1.5	3.5	0.	125.4
199	2.5	3.5	0.	125.4
200	3.	3.5	0.	125.38
201	3.5	3.5	0.	125.35
202	3.5	2.5	0.	125.4
203	3.5	0.5	0.	125.42
204	3.5	-0.5	0.	125.37
205	3.5	-1.	0.	125.33
206	3.5	-1.5	0.	125.29
207	2.5	-0.5	0.	125.54
208	2.5	1.	0.	125.56
209	3.5	-3.5	0.	125.19
210	3.5	-2.	0.	125.25
211	2.	1.5	0.	125.6
212	3.	-1.5	0.	125.36
213	4.	3.5	0.	125.31
214	1.5	2.	0.	125.6
215	3.5	-4.	0.	125.22
216	2.5	-1.	0.	125.5
217	-0.5	4.	0.	124.99
218	1.	2.5	0.	125.55
219	1.3502e-011	3.5	0.	125.23
220	0.5	3.	0.	125.43
221	2.5	-1.7077e-010	0.	125.56
222	2.5	0.5	0.	125.56
223	-7.6653e-011	4.	0.	125.13
224	0.5	4.	0.	125.23
225	1.5	4.	0.	125.33
226	2.5	4.	0.	125.34
227	3.5	4.	0.	125.31
228	4.	2.5	0.	125.36
229	4.	1.5	0.	125.37
230	4.	0.5	0.	125.35
231	4.	-3.965e-011	0.	125.33
232	4.	-0.5	0.	125.3
233	4.	-1.5	0.	125.24
234	4.	-2.	0.	125.2
235	4.	-3.5	0.	125.17
236	2.	-0.5	0.	125.65
237	2.	1.	0.	125.63
238	3.	-3.5	0.	125.22
239	3.	-2.	0.	125.3
240	4.	4.	0.	125.28
241	4.	-4.	0.	125.2
242	-1.5	4.5	0.	124.58
243	1.5	1.5	0.	125.65
244	3.	-4.	0.	125.25
245	-1.	4.	0.	124.8
246	1.	2.	0.	125.62
247	2.	-1.	0.	125.63
248	-0.5	3.5	0.	125.08
249	0.5	2.5	0.	125.53
250	8.1715e-011	3.	0.	125.35
251	2.	-2.042e-010	0.	125.65
252	2.	0.5	0.	125.64
253	3.	-3.	0.	125.22
254	-0.5	4.5	0.	124.93
255	1.5	4.5	0.	125.26
256	2.	4.5	0.	125.28
257	2.5	4.5	0.	125.29
258	3.5	4.5	0.	125.27
259	4.	4.5	0.	125.25
260	4.5	4.5	0.	125.22
261	4.5	3.5	0.	125.28
262	4.5	2.5	0.	125.31
263	4.5	1.5	0.	125.32
264	4.5	0.5	0.	125.3
265	4.5	-1.5974e-011	0.	125.28
266	4.5	-0.5	0.	125.25
267	4.5	-1.5	0.	125.19
268	4.5	-2.	0.	125.17
269	4.5	-3.	0.	125.14
270	4.5	-3.5	0.	125.15
271	4.5	-4.5	0.	125.21
272	4.	-4.5	0.	125.24
273	3.5	-4.5	0.	125.27
274	-2.	4.5	0.	124.39
275	1.5	-0.5	0.	125.78
276	1.5	1.	0.	125.68
277	-3.5	4.5	0.	124.09
278	3.	-4.5	0.	125.31
279	2.5	-3.5	0.	125.25
280	2.5	-2.	0.	125.38
281	-1.5	4.	0.	124.57
282	1.	1.5	0.	125.68
283	2.	-1.5	0.	125.58
284	-5.	4.5	0.	124.52
285	-4.5	5.	0.	124.42
286	5.	4.5	0.	125.2
287	4.5	-5.	0.	125.26
288	-1.	3.5	0.	124.87
289	0.5	2.	0.	125.63
290	1.5	-1.	0.	125.79
291	-0.5	3.	0.	125.21
292	1.1948e-010	2.5	0.	125.48
293	-3.	4.5	0.	124.11
294	1.5	-2.2268e-010	0.	125.74
295	1.5	0.5	0.	125.71
296	-4.5	4.5	0.	124.32
297	2.5	-4.5	0.	125.36
298	2.5	-4.	0.	125.29
299	2.5	-2.5	0.	125.31
300	-4.	5.	0.	124.31
301	-3.5	5.	0.	124.25
302	-3.	5.	0.	124.26
303	-2.5	5.	0.	124.34
304	-1.5	5.	0.	124.61
305	-0.5	5.	0.	124.89
306	1.5	5.	0.	125.2
307	2.	5.	0.	125.22
308	2.5	5.	0.	125.24
309	3.5	5.	0.	125.23
310	4.	5.	0.	125.21
311	4.5	5.	0.	125.19
312	5.	4.	0.	125.22
313	5.	3.5	0.	125.24
314	5.	3.	0.	125.26
315	5.	2.5	0.	125.26
316	5.	1.5	0.	125.27
317	5.	0.5	0.	125.24
318	5.	-0.5	0.	125.2
319	5.	-1.5	0.	125.16
320	5.	-2.5	0.	125.13
321	5.	-3.	0.	125.12
322	5.	-3.5	0.	125.13
323	5.	-4.	0.	125.16
324	5.	-4.5	0.	125.19
325	3.5	-5.	0.	125.34
326	2.5	-5.	0.	125.46
327	-2.	4.	0.	124.31
328	1.	-0.5	0.	125.91
329	1.	1.	0.	125.72
330	-3.5	4.	0.	123.88
331	-5.	4.	0.	124.49
332	2.	-3.5	0.	125.28
333	2.	-2.	0.	125.5
334	-5.	5.	0.	124.57
335	5.	5.	0.	125.17
336	5.	-5.	0.	125.23
337	2.	-5.	0.	125.55
338	-1.5	3.5	0.	124.59
339	0.5	1.5	0.	125.7
340	1.5	-1.5	0.	125.76
341	-1.	3.	0.	124.99
342	1.2971e-010	2.	0.	125.6
343	-5.5	3.5	0.	124.84
344	1.	-1.	0.	125.99
345	-0.5	2.5	0.	125.37
346	-3.	4.	0.	123.91
347	1.	-2.4424e-010	0.	125.82
348	1.	0.5	0.	125.77
349	-4.5	4.	0.	124.21
350	2.	-4.	0.	125.33
351	2.	-2.5	0.	125.4
352	-5.	5.5	0.	124.62
353	-4.5	5.5	0.	124.5
354	-3.5	5.5	0.	124.38
355	-2.5	5.5	0.	124.44
356	-2.	5.5	0.	124.53
357	-1.5	5.5	0.	124.64
358	-1.	5.5	0.	124.75
359	-0.5	5.5	0.	124.86
360	0.5	5.5	0.	125.04
361	1.5	5.5	0.	125.14
362	2.	5.5	0.	125.17
363	2.5	5.5	0.	125.18
364	3.5	5.5	0.	125.19
365	4.5	5.5	0.	125.16
366	5.5	5.5	0.	125.13
367	5.5	4.5	0.	125.17
368	5.5	4.	0.	125.19
369	5.5	3.	0.	125.21
370	5.5	2.5	0.	125.22
371	5.5	2.	0.	125.22
372	5.5	1.5	0.	125.22
373	5.5	0.5	0.	125.2
374	5.5	7.0186e-012	0.	125.18
375	5.5	-0.5	0.	125.16
376	5.5	-1.5	0.	125.13
377	5.5	-2.5	0.	125.1
378	5.5	-3.	0.	125.11
379	5.5	-3.5	0.	125.12
380	5.5	-4.5	0.	125.16
381	5.5	-5.5	0.	125.23
382	4.5	-5.5	0.	125.31
383	3.5	-5.5	0.	125.41
384	2.5	-5.5	0.	125.55
385	2.	-5.5	0.	125.66
386	1.5	-5.5	0.	125.81
387	-5.5	4.5	0.	124.74
388	-5.5	5.5	0.	124.75
389	-2.	3.5	0.	124.25
390	0.5	-0.5	0.	126.01
391	0.5	1.	0.	125.74
392	-3.5	3.5	0.	123.6
393	-5.	3.5	0.	124.47
394	1.5	-5.	0.	125.69
395	1.5	-3.5	0.	125.33
396	1.5	-2.	0.	125.66
397	6.	5.5	0.	125.11
398	-5.5	6.	0.	124.76
399	1.	-6.	0.	126.
400	-1.5	3.	0.	124.66
401	1.184e-010	1.5	0.	125.69
402	-5.5	3.	0.	124.98
403	1.	-5.5	0.	126.
404	1.	-1.5	0.	126.01
405	-1.	2.5	0.	125.17
406	-0.5	2.	0.	125.54
407	0.5	-1.	0.	126.21
408	-3.	3.5	0.	123.66
409	0.5	0.5	0.	125.78
410	-4.	3.5	0.	123.75
411	-4.5	3.5	0.	124.08
412	1.5	-4.5	0.	125.53
413	1.5	-4.	0.	125.38
414	1.5	-3.	0.	125.39
415	1.5	-2.5	0.	125.52
416	-5.	6.	0.	124.66
417	-4.5	6.	0.	124.58
418	-3.5	6.	0.	124.48
419	-2.5	6.	0.	124.52
420	-1.5	6.	0.	124.67
421	0.5	6.	0.	125.
422	1.5	6.	0.	125.09
423	2.	6.	0.	125.12
424	2.5	6.	0.	125.14
425	3.5	6.	0.	125.15
426	4.	6.	0.	125.14
427	4.5	6.	0.	125.13
428	5.5	6.	0.	125.1
429	6.	5.	0.	125.12
430	6.	4.5	0.	125.14
431	6.	3.5	0.	125.17
432	6.	2.5	0.	125.18
433	6.	2.	0.	125.18
434	6.	1.5	0.	125.17
435	6.	1.	0.	125.17
436	6.	0.5	0.	125.15
437	6.	-0.5	0.	125.12
438	6.	-1.5	0.	125.1
439	6.	-2.	0.	125.09
440	6.	-2.5	0.	125.08
441	6.	-3.5	0.	125.1
442	6.	-4.5	0.	125.14
443	6.	-5.	0.	125.17
444	6.	-5.5	0.	125.2
445	4.5	-6.	0.	125.36
446	3.5	-6.	0.	125.46
447	2.5	-6.	0.	125.62
448	2.	-6.	0.	125.72
449	1.5	-6.	0.	125.85
450	-6.	3.5	0.	125.13
451	-6.	4.5	0.	124.94
452	-6.	5.5	0.	124.88
453	6.	-6.	0.	125.23
454	6.	6.	0.	125.09
455	-6.	6.	0.	124.87
456	-6.	2.5	0.	125.56
457	-2.	3.	0.	124.21
458	3.9429e-011	-0.5	0.	126.04
459	9.6035e-011	1.	0.	125.73
460	-3.5	3.	0.	123.21
461	-5.	3.	0.	124.51
462	1.	-5.	0.	125.88
463	1.	-3.5	0.	125.39
464	1.	-2.	0.	125.92
465	-1.5	2.5	0.	124.82
466	-0.5	1.5	0.	125.68
467	-5.5	2.5	0.	125.23
468	0.5	-5.5	0.	126.27
469	-3.	-6.5	0.	121.33
470	0.5	-1.5	0.	126.36
471	-6.	-6.5	0.	125.96
472	6.5	-6.	0.	125.2
473	6.	6.5	0.	125.07
474	-6.5	6.	0.	124.97
475	-1.	2.	0.	125.41
476	-6.	2.	0.	125.88
477	5.9195e-011	-6.	0.	126.29
478	-6.	-6.	0.	126.34
479	3.4948e-011	-1.	0.	126.43
480	-3.	3.	0.	123.32
481	7.2251e-011	0.5	0.	125.75
482	-4.5	3.	0.	123.94
483	1.	-4.5	0.	125.67
484	1.	-4.	0.	125.46
485	1.	-3.	0.	125.5
486	1.	-2.5	0.	125.72
487	-5.5	6.5	0.	124.78
488	-5.	6.5	0.	124.7
489	-4.5	6.5	0.	124.64
490	-3.5	6.5	0.	124.56
491	-3.	6.5	0.	124.57
492	-2.5	6.5	0.	124.59
493	-2.	6.5	0.	124.64
494	-1.5	6.5	0.	124.7
495	-0.5	6.5	0.	124.84
496	0.5	6.5	0.	124.96
497	1.5	6.5	0.	125.05
498	2.	6.5	0.	125.07
499	2.5	6.5	0.	125.09
500	3.5	6.5	0.	125.11
501	4.	6.5	0.	125.1
502	4.5	6.5	0.	125.1
503	5.	6.5	0.	125.09
504	5.5	6.5	0.	125.08
505	6.5	6.	0.	125.07
506	6.5	5.5	0.	125.09
507	6.5	4.5	0.	125.11
508	6.5	3.5	0.	125.13
509	6.5	2.5	0.	125.14
510	6.5	2.	0.	125.14
511	6.5	1.5	0.	125.13
512	6.5	0.5	0.	125.11
513	6.5	1.0358e-011	0.	125.1
514	6.5	-0.5	0.	125.09
515	6.5	-1.	0.	125.08
516	6.5	-1.5	0.	125.07
517	6.5	-2.	0.	125.06
518	6.5	-2.5	0.	125.06
519	6.5	-3.5	0.	125.07
520	6.5	-4.	0.	125.09
521	6.5	-4.5	0.	125.11
522	6.5	-5.	0.	125.14
523	6.5	-5.5	0.	125.17
524	5.5	-6.5	0.	125.31
525	5.	-6.5	0.	125.35
526	4.5	-6.5	0.	125.4
527	4.	-6.5	0.	125.45
528	3.5	-6.5	0.	125.51
529	2.5	-6.5	0.	125.65
530	2.	-6.5	0.	125.74
531	1.5	-6.5	0.	125.83
532	1.	-6.5	0.	125.91
533	0.5	-6.5	0.	125.96
534	3.6619e-011	-6.5	0.	125.91
535	-0.5	-6.5	0.	125.66
536	-6.5	-5.5	0.	126.44
537	-6.5	1.5	0.	126.13
538	-6.5	2.	0.	125.94
539	-6.5	2.5	0.	125.72
540	-6.5	3.5	0.	125.33
541	-6.5	4.5	0.	125.11
542	-6.5	5.5	0.	125.
543	-2.	2.5	0.	124.26
544	-0.5	-0.5	0.	125.88
545	-0.5	1.	0.	125.72
546	-6.5	1.	0.	126.22
547	-6.5	-0.5	0.	126.24
548	-3.5	2.5	0.	122.63
549	-5.	2.5	0.	124.64
550	0.5	-5.	0.	126.18
551	-2.5	-6.5	0.	121.78
552	-1.	-6.5	0.	125.08
553	-3.5	-6.5	0.	121.72
554	-6.5	-5.	0.	126.38
555	-6.5	-2.	0.	126.97
556	-6.5	-3.5	0.	125.88
557	0.5	-3.5	0.	125.46
558	0.5	-2.	0.	126.33
559	-6.5	-6.5	0.	126.09
560	6.5	-6.5	0.	125.22
561	6.5	6.5	0.	125.06
562	-6.5	6.5	0.	124.95
563	-1.5	2.	0.	125.1
564	-1.	1.5	0.	125.64
565	-6.	1.5	0.	126.21
566	-5.5	2.	0.	125.62
567	7.3264e-011	-5.5	0.	126.59
568	-0.5	-6.	0.	126.23
569	-5.5	-6.	0.	126.19
570	-3.	-6.	0.	120.25
571	-6.	-5.5	0.	126.65
572	3.3208e-011	-1.5	0.	126.83
573	-0.5	-1.	0.	126.51
574	-0.5	0.5	0.	125.66
575	-6.5	-1.5	0.	126.9
576	-6.5	1.724e-011	0.	126.13
577	-4.5	2.5	0.	123.83
578	-1.5	-6.5	0.	124.1
579	-4.	-6.5	0.	122.76
580	-6.5	-4.5	0.	126.15
581	-6.5	-3.	0.	126.2
582	0.5	-3.	0.	125.67
583	0.5	-2.5	0.	126.06
584	-6.	7.	0.	124.86
585	-5.5	7.	0.	124.8
586	-5.	7.	0.	124.74
587	-4.5	7.	0.	124.68
588	-3.5	7.	0.	124.63
589	-2.	7.	0.	124.68
590	-1.5	7.	0.	124.73
591	-0.5	7.	0.	124.84
592	0.5	7.	0.	124.94
593	1.5	7.	0.	125.01
594	2.	7.	0.	125.03
595	2.5	7.	0.	125.05
596	3.5	7.	0.	125.07
597	4.5	7.	0.	125.07
598	5.5	7.	0.	125.06
599	-7.	-6.5	0.	126.12
600	6.5	-7.	0.	125.25
601	7.	6.5	0.	125.04
602	6.	7.	0.	125.05
603	6.5	7.	0.	125.04
604	7.	6.	0.	125.05
605	7.	5.5	0.	125.07
606	7.	4.5	0.	125.08
607	7.	3.5	0.	125.1
608	7.	3.	0.	125.1
609	7.	2.5	0.	125.1
610	7.	1.5	0.	125.09
611	7.	1.	0.	125.08
612	7.	0.5	0.	125.07
613	7.	9.1309e-012	0.	125.06
614	7.	-0.5	0.	125.05
615	7.	-1.	0.	125.04
616	7.	-1.5	0.	125.04
617	7.	-2.	0.	125.03
618	7.	-2.5	0.	125.03
619	7.	-3.	0.	125.04
620	7.	-3.5	0.	125.05
621	7.	-4.	0.	125.07
622	7.	-5.	0.	125.11
623	7.	-5.5	0.	125.13
624	7.	-6.	0.	125.16
625	7.	-6.5	0.	125.19
626	5.5	-7.	0.	125.34
627	5.	-7.	0.	125.39
628	4.5	-7.	0.	125.43
629	3.5	-7.	0.	125.54
630	2.5	-7.	0.	125.65
631	2.	-7.	0.	125.71
632	1.5	-7.	0.	125.75
633	1.	-7.	0.	125.77
634	0.5	-7.	0.	125.72
635	1.3931e-011	-7.	0.	125.56
636	-1.5	-7.	0.	123.9
637	-2.5	-7.	0.	122.35
638	-3.5	-7.	0.	122.3
639	-4.5	-7.	0.	123.83
640	-5.	-7.	0.	124.63
641	-5.5	-7.	0.	125.23
642	-6.5	-7.	0.	125.84
643	-7.	-5.5	0.	126.27
644	-7.	-5.	0.	126.19
645	-7.	-4.5	0.	126.03
646	-7.	-4.	0.	125.88
647	-7.	-3.5	0.	125.88
648	-7.	-2.5	0.	126.3
649	-7.	-1.	0.	126.3
650	-7.	-0.5	0.	126.14
651	-7.	0.5	0.	126.08
652	-7.	1.	0.	126.09
653	-7.	1.5	0.	126.04
654	-7.	2.5	0.	125.78
655	-7.	3.	0.	125.61
656	-7.	3.5	0.	125.46
657	-7.	4.5	0.	125.24
658	-7.	5.5	0.	125.1
659	-6.5	7.	0.	124.93
660	-7.	6.5	0.	125.02
661	-2.	2.	0.	124.47
662	-1.	-0.5	0.	125.41
663	-1.	1.	0.	125.74
664	-6.	1.	0.	126.41
665	-6.	-0.5	0.	126.25
666	-3.5	2.	0.	121.74
667	-5.	2.	0.	124.98
668	7.3385e-011	-5.	0.	126.64
669	-2.5	-6.	0.	121.
670	-1.	-6.	0.	125.74
671	-5.	-6.	0.	125.63
672	-3.5	-6.	0.	120.9
673	-6.	-5.	0.	126.72
674	-6.	-2.	0.	127.78
675	-6.	-3.5	0.	125.81
676	3.8296e-011	-3.5	0.	125.54
677	3.1636e-011	-2.	0.	126.97
678	-0.5	-1.5	0.	127.34
679	-1.	-1.	0.	126.25
680	-1.5	1.5	0.	125.51
681	-5.5	1.5	0.	126.16
682	-0.5	-5.5	0.	126.87
683	-5.5	-5.5	0.	126.81
684	-7.	-7.	0.	125.97
685	7.	-7.	0.	125.21
686	-7.	7.	0.	125.
687	-3.	-5.5	0.	118.66
688	-3.	2.	0.	122.21
689	-1.	0.5	0.	125.58
690	-6.	-1.	0.	126.86
691	-6.	-1.5	0.	127.56
692	-6.	0.5	0.	126.35
693	-6.	2.0859e-011	0.	126.17
694	-4.5	2.	0.	123.82
695	6.2592e-011	-4.5	0.	126.3
696	4.8497e-011	-4.	0.	125.76
697	-1.5	-6.	0.	124.56
698	-4.	-6.	0.	122.58
699	-6.	-4.	0.	125.93
700	-6.	-4.5	0.	126.41
701	-6.	-2.5	0.	127.28
702	-6.	-3.	0.	126.41
703	3.2238e-011	-3.	0.	125.97
704	2.9999e-011	-2.5	0.	126.62
705	-1.	-1.5	0.	127.62
706	-3.	-5.	0.	116.57
707	-7.	7.5	0.	124.97
708	-6.5	7.5	0.	124.92
709	-6.	7.5	0.	124.86
710	-5.5	7.5	0.	124.81
711	-5.	7.5	0.	124.76
712	-4.5	7.5	0.	124.72
713	-4.	7.5	0.	124.69
714	-3.5	7.5	0.	124.68
715	-3.	7.5	0.	124.68
716	-2.5	7.5	0.	124.69
717	-2.	7.5	0.	124.72
718	-1.5	7.5	0.	124.75
719	-1.	7.5	0.	124.79
720	-0.5	7.5	0.	124.83
721	-8.6276e-011	7.5	0.	124.88
722	0.5	7.5	0.	124.91
723	1.	7.5	0.	124.95
724	1.5	7.5	0.	124.98
725	2.	7.5	0.	125.
726	2.5	7.5	0.	125.02
727	3.	7.5	0.	125.03
728	3.5	7.5	0.	125.04
729	4.	7.5	0.	125.04
730	4.5	7.5	0.	125.04
731	5.	7.5	0.	125.04
732	5.5	7.5	0.	125.04
733	6.	7.5	0.	125.03
734	6.5	7.5	0.	125.03
735	7.	7.5	0.	125.02
736	7.5	7.5	0.	125.02
737	7.5	7.	0.	125.02
738	7.5	6.5	0.	125.03
739	7.5	6.	0.	125.04
740	7.5	5.5	0.	125.05
741	7.5	5.	0.	125.05
742	7.5	4.5	0.	125.06
743	7.5	4.	0.	125.06
744	7.5	3.5	0.	125.06
745	7.5	3.	0.	125.06
746	7.5	2.5	0.	125.06
747	7.5	2.	0.	125.06
748	7.5	1.5	0.	125.05
749	7.5	1.	0.	125.04
750	7.5	0.5	0.	125.04
751	7.5	7.4406e-012	0.	125.03
752	7.5	-0.5	0.	125.02
753	7.5	-1.	0.	125.01
754	7.5	-1.5	0.	125.01
755	7.5	-2.	0.	125.
756	7.5	-2.5	0.	125.01
757	7.5	-3.	0.	125.01
758	7.5	-3.5	0.	125.02
759	7.5	-4.	0.	125.04
760	7.5	-4.5	0.	125.06
761	7.5	-5.	0.	125.08
762	7.5	-5.5	0.	125.1
763	7.5	-6.	0.	125.13
764	7.5	-7.	0.	125.17
765	7.5	-7.5	0.	125.2
766	7.	-7.5	0.	125.23
767	6.5	-7.5	0.	125.28
768	6.	-7.5	0.	125.32
769	5.5	-7.5	0.	125.37
770	5.	-7.5	0.	125.41
771	4.5	-7.5	0.	125.46
772	4.	-7.5	0.	125.51
773	3.5	-7.5	0.	125.56
774	3.	-7.5	0.	125.6
775	2.5	-7.5	0.	125.64
776	2.	-7.5	0.	125.66
777	1.5	-7.5	0.	125.65
778	1.	-7.5	0.	125.61
779	0.5	-7.5	0.	125.49
780	-7.1989e-013	-7.5	0.	125.28
781	-0.5	-7.5	0.	124.93
782	-1.	-7.5	0.	124.44
783	-1.5	-7.5	0.	123.83
784	-2.	-7.5	0.	123.22
785	-2.5	-7.5	0.	122.74
786	-3.5	-7.5	0.	122.72
787	-4.	-7.5	0.	123.17
788	-4.5	-7.5	0.	123.79
789	-6.	-7.5	0.	125.34
790	-6.5	-7.5	0.	125.62
791	-7.	-7.5	0.	125.8
792	-7.5	-7.5	0.	125.93
793	-7.5	-7.	0.	126.03
794	-7.5	-6.	0.	126.17
795	-7.5	-5.5	0.	126.15
796	-7.5	-5.	0.	126.07
797	-7.5	-4.5	0.	125.95
798	-7.5	-4.	0.	125.86
799	-7.5	-3.5	0.	125.84
800	-7.5	-3.	0.	125.93
801	-7.5	-2.5	0.	126.05
802	-7.5	-2.	0.	126.15
803	-7.5	-1.5	0.	126.16
804	-7.5	-1.	0.	126.1
805	-7.5	-0.5	0.	126.03
806	-7.5	8.0048e-012	0.	125.99
807	-7.5	0.5	0.	125.98
808	-7.5	1.	0.	125.98
809	-7.5	1.5	0.	125.96
810	-7.5	2.	0.	125.89
811	-7.5	2.5	0.	125.78
812	-7.5	3.	0.	125.66
813	-7.5	3.5	0.	125.54
814	-7.5	4.	0.	125.43
815	-7.5	4.5	0.	125.34
816	-7.5	5.	0.	125.26
817	-7.5	6.	0.	125.14
818	-7.5	6.5	0.	125.09
819	-7.5	7.	0.	125.06
820	-7.5	7.5	0.	125.02
821	-0.5	-2.	0.	127.9
822	-5.5	-5.	0.	127.22
823	-5.5	-3.5	0.	125.75
824	-3.5	-5.5	0.	119.78
825	-5.	-5.5	0.	126.59
826	-2.5	-5.5	0.	119.93
827	-0.5	-3.5	0.	125.76
828	-0.5	-5.	0.	127.29
829	-5.	1.5	0.	125.68
830	-5.5	1.	0.	126.65
831	-5.5	-2.	0.	128.93
832	-1.5	1.	0.	125.84
833	-1.5	-0.5	0.	124.69
834	-3.5	1.5	0.	120.25
835	-2.	1.5	0.	125.
836	-2.5	1.5	0.	123.53
837	-3.	1.5	0.	121.33
838	-1.5	0.5	0.	125.68
839	-5.5	-1.5	0.	128.5
840	-5.5	2.2378e-011	0.	126.19
841	-4.5	1.5	0.	124.12
842	-0.5	-4.5	0.	127.05
843	-0.5	-4.	0.	126.12
844	-1.5	-5.5	0.	125.47
845	-4.	-5.5	0.	122.57
846	-5.5	-4.	0.	126.06
847	-5.5	-4.5	0.	126.97
848	-5.5	-2.5	0.	128.19
849	-5.5	-3.	0.	126.67
850	-0.5	-3.	0.	126.49
851	-0.5	-2.5	0.	127.63
852	-2.5	-5.	0.	118.51
853	-1.5	-1.	0.	125.48
854	-2.	1.	0.	125.95
855	-3.5	1.	0.	117.4
856	-7.5	8.	0.	124.99
857	-7.	8.	0.	124.95
858	-6.5	8.	0.	124.91
859	-6.	8.	0.	124.86
860	-5.5	8.	0.	124.82
861	-5.	8.	0.	124.78
862	-4.5	8.	0.	124.75
863	-4.	8.	0.	124.73
864	-3.5	8.	0.	124.71
865	-3.	8.	0.	124.71
866	-2.5	8.	0.	124.72
867	-2.	8.	0.	124.74
868	-1.5	8.	0.	124.77
869	-1.	8.	0.	124.8
870	-0.5	8.	0.	124.83
871	-5.7648e-011	8.	0.	124.86
872	0.5	8.	0.	124.89
873	1.	8.	0.	124.92
874	1.5	8.	0.	124.95
875	2.5	8.	0.	124.99
876	3.	8.	0.	125.
877	3.5	8.	0.	125.01
878	4.	8.	0.	125.02
879	4.5	8.	0.	125.02
880	5.	8.	0.	125.02
881	5.5	8.	0.	125.02
882	6.	8.	0.	125.02
883	6.5	8.	0.	125.02
884	7.	8.	0.	125.01
885	7.5	8.	0.	125.01
886	8.	8.	0.	125.01
887	8.	7.5	0.	125.01
888	8.	7.	0.	125.01
889	8.	6.5	0.	125.02
890	8.	6.	0.	125.02
891	8.	5.5	0.	125.03
892	8.	5.	0.	125.03
893	8.	4.5	0.	125.03
894	8.	4.	0.	125.03
895	8.	3.5	0.	125.03
896	8.	3.	0.	125.03
897	8.	2.5	0.	125.03
898	8.	2.	0.	125.02
899	8.	1.5	0.	125.01
900	8.	1.	0.	125.
901	8.	0.5	0.	125.
902	8.	5.6232e-012	0.	124.99
903	8.	-0.5	0.	124.98
904	8.	-1.	0.	124.98
905	8.	-1.5	0.	124.97
906	8.	-2.	0.	124.97
907	8.	-2.5	0.	124.97
908	8.	-3.	0.	124.98
909	8.	-3.5	0.	124.99
910	8.	-4.	0.	125.01
911	8.	-4.5	0.	125.03
912	8.	-5.	0.	125.05
913	8.	-5.5	0.	125.07
914	8.	-6.	0.	125.09
915	8.	-6.5	0.	125.12
916	8.	-7.	0.	125.14
917	8.	-7.5	0.	125.16
918	7.5	-8.	0.	125.21
919	7.	-8.	0.	125.25
920	6.5	-8.	0.	125.3
921	6.	-8.	0.	125.34
922	5.5	-8.	0.	125.39
923	5.	-8.	0.	125.43
924	4.5	-8.	0.	125.48
925	4.	-8.	0.	125.52
926	3.5	-8.	0.	125.56
927	3.	-8.	0.	125.59
928	1.5	-8.	0.	125.56
929	1.	-8.	0.	125.47
930	0.5	-8.	0.	125.31
931	-5.302e-012	-8.	0.	125.07
932	-0.5	-8.	0.	124.73
933	-1.	-8.	0.	124.3
934	-1.5	-8.	0.	123.82
935	-2.	-8.	0.	123.36
936	-2.5	-8.	0.	123.03
937	-3.	-8.	0.	122.9
938	-3.5	-8.	0.	123.01
939	-4.	-8.	0.	123.33
940	-4.5	-8.	0.	123.79
941	-5.	-8.	0.	124.28
942	-5.5	-8.	0.	124.74
943	-6.	-8.	0.	125.13
944	-6.5	-8.	0.	125.43
945	-7.	-8.	0.	125.66
946	-7.5	-8.	0.	125.83
947	-8.	-8.	0.	125.97
948	-8.	-7.5	0.	126.03
949	-8.	-7.	0.	126.08
950	-8.	-6.5	0.	126.11
951	-8.	-6.	0.	126.11
952	-8.	-5.5	0.	126.07
953	-8.	-5.	0.	125.99
954	-8.	-4.5	0.	125.9
955	-8.	-4.	0.	125.82
956	-8.	-3.5	0.	125.79
957	-8.	-3.	0.	125.82
958	-8.	-2.5	0.	125.88
959	-8.	-2.	0.	125.93
960	-8.	-1.5	0.	125.95
961	-8.	-1.	0.	125.93
962	-8.	-0.5	0.	125.91
963	-8.	4.9714e-012	0.	125.89
964	-8.	0.5	0.	125.89
965	-8.	1.	0.	125.9
966	-8.	1.5	0.	125.88
967	-8.	2.	0.	125.84
968	-8.	2.5	0.	125.77
969	-8.	3.	0.	125.68
970	-8.	3.5	0.	125.59
971	-8.	4.	0.	125.5
972	-8.	4.5	0.	125.41
973	-8.	5.	0.	125.33
974	-8.	5.5	0.	125.27
975	-8.	6.	0.	125.21
976	-8.	6.5	0.	125.16
977	-8.	7.	0.	125.11
978	-8.	7.5	0.	125.07
979	-8.	8.	0.	125.03
980	-2.	-0.5	0.	123.59
981	-3.5	-2.	0.	113.04
982	-5.	-0.5	0.	125.72
983	-5.	1.	0.	126.83
984	-1.	-3.5	0.	125.76
985	-3.5	-5.	0.	118.27
986	-5.	-5.	0.	127.83
987	-5.	-2.	0.	130.18
988	-1.5	-1.5	0.	127.05
989	-1.	-2.	0.	129.09
990	-1.	-3.	0.	127.79
991	-1.	-2.5	0.	129.46
992	-2.	-2.	0.	125.41
993	-5.	-2.5	0.	129.48
994	-5.	-3.	0.	127.38
995	-5.	-4.	0.	126.88
996	-5.	-4.5	0.	128.26
997	-4.	-5.	0.	122.88
998	-2.	-5.	0.	123.24
999	-1.5	-5.	0.	127.38
1000	-1.	-4.5	0.	128.54
1001	-1.	-4.	0.	127.23
1002	-4.	1.	0.	120.74
1003	-4.5	1.	0.	125.49
1004	-5.	1.9469e-011	0.	126.7
1005	-5.	-1.	0.	127.79
1006	-5.	-1.5	0.	129.66
1007	-4.5	-2.	0.	128.4
1008	-4.	-2.	0.	120.07
1009	-3.	-2.	0.	114.28
1010	-2.5	-2.	0.	119.96
1011	-2.	-1.	0.	124.81
1012	-2.	0.5	0.	126.37
1013	-2.5	1.	0.	124.67
1014	-3.	1.	0.	120.19
1015	8.5	8.	0.	125.
1016	8.	8.5	0.	125.
1017	6.5	8.5	0.	125.01
1018	7.	8.5	0.	125.01
1019	6.	8.5	0.	125.01
1020	4.5	8.5	0.	125.
1021	5.	8.5	0.	125.
1022	3.5	8.5	0.	124.98
1023	4.	8.5	0.	124.99
1024	2.5	8.5	0.	124.96
1025	3.	8.5	0.	124.97
1026	1.5	8.5	0.	124.92
1027	2.	8.5	0.	124.94
1028	0.5	8.5	0.	124.87
1029	1.	8.5	0.	124.9
1030	-0.5	8.5	0.	124.82
1031	-3.6942e-011	8.5	0.	124.85
1032	-1.5	8.5	0.	124.77
1033	-1.	8.5	0.	124.79
1034	-2.	8.5	0.	124.75
1035	-3.5	8.5	0.	124.74
1036	-3.	8.5	0.	124.73
1037	-4.5	8.5	0.	124.77
1038	-4.	8.5	0.	124.75
1039	-5.5	8.5	0.	124.82
1040	-5.	8.5	0.	124.79
1041	-6.5	8.5	0.	124.89
1042	-6.	8.5	0.	124.86
1043	-7.5	8.5	0.	124.97
1044	-7.	8.5	0.	124.93
1045	8.	-8.5	0.	125.19
1046	-8.5	-8.	0.	126.1
1047	-8.	8.5	0.	125.
1048	-8.5	7.5	0.	125.11
1049	-8.5	8.	0.	125.07
1050	-8.5	7.	0.	125.16
1051	-8.5	6.	0.	125.27
1052	-8.5	4.5	0.	125.47
1053	-8.5	5.	0.	125.4
1054	-8.5	3.5	0.	125.63
1055	-8.5	4.	0.	125.55
1056	-8.5	3.	0.	125.7
1057	-8.5	2.	0.	125.8
1058	-8.5	1.	0.	125.82
1059	-8.5	-0.5	0.	125.79
1060	-8.5	2.8806e-012	0.	125.8
1061	-8.5	-1.	0.	125.79
1062	-8.5	-2.	0.	125.76
1063	-8.5	-3.	0.	125.72
1064	-8.5	-4.5	0.	125.84
1065	-8.5	-4.	0.	125.77
1066	-8.5	-5.5	0.	126.01
1067	-8.5	-5.	0.	125.93
1068	-8.5	-6.	0.	126.08
1069	-8.5	-7.	0.	126.13
1070	-7.5	-8.5	0.	125.75
1071	-8.	-8.5	0.	125.92
1072	-7.	-8.5	0.	125.54
1073	-4.5	-8.5	0.	123.81
1074	-5.	-8.5	0.	124.22
1075	-3.5	-8.5	0.	123.21
1076	-4.	-8.5	0.	123.45
1077	-2.5	-8.5	0.	123.22
1078	-3.	-8.5	0.	123.13
1079	-2.	-8.5	0.	123.47
1080	-0.5	-8.5	0.	124.59
1081	0.5	-8.5	0.	125.17
1082	-4.7076e-012	-8.5	0.	124.91
1083	1.5	-8.5	0.	125.47
1084	1.	-8.5	0.	125.35
1085	2.5	-8.5	0.	125.57
1086	2.	-8.5	0.	125.54
1087	3.	-8.5	0.	125.57
1088	4.	-8.5	0.	125.53
1089	5.	-8.5	0.	125.45
1090	6.5	-8.5	0.	125.31
1091	6.	-8.5	0.	125.36
1092	7.	-8.5	0.	125.27
1093	8.5	-8.	0.	125.15
1094	8.5	-7.	0.	125.11
1095	8.5	-6.	0.	125.06
1096	8.5	-5.	0.	125.01
1097	8.5	-3.5	0.	124.96
1098	8.5	-4.	0.	124.97
1099	8.5	-2.5	0.	124.94
1100	8.5	-3.	0.	124.95
1101	8.5	-1.5	0.	124.93
1102	8.5	-2.	0.	124.93
1103	8.5	-1.	0.	124.94
1104	8.5	0.5	0.	124.96
1105	8.5	3.4938e-012	0.	124.95
1106	8.5	1.5	0.	124.97
1107	8.5	1.	0.	124.97
1108	8.5	2.	0.	124.98
1109	8.5	3.5	0.	125.
1110	8.5	3.	0.	125.
1111	8.5	4.	0.	125.01
1112	8.5	5.	0.	125.01
1113	8.5	6.5	0.	125.01
1114	8.5	6.	0.	125.01
1115	8.5	7.5	0.	125.
1116	8.5	7.	0.	125.01
1117	8.5	8.5	0.	125.
1118	8.5	-8.5	0.	125.16
1119	-8.5	-8.5	0.	126.08
1120	-8.5	8.5	0.	125.03
1121	9.	7.5	0.	125.
1122	9.	6.5	0.	125.
1123	9.	5.5	0.	124.99
1124	9.	4.5	0.	124.99
1125	9.	3.5	0.	124.98
1126	9.	2.5	0.	124.96
1127	9.	1.5	0.	124.94
1128	9.	0.5	0.	124.91
1129	9.	-1.	0.	124.89
1130	9.	-1.5	0.	124.89
1131	9.	-2.	0.	124.89
1132	9.	-2.5	0.	124.89
1133	9.	-3.5	0.	124.92
1134	9.	-4.5	0.	124.95
1135	9.	-5.5	0.	125.
1136	9.	-6.5	0.	125.06
1137	9.	8.5	0.	125.
1138	9.	-8.5	0.	125.14
1139	8.	-9.	0.	125.2
1140	7.5	-9.	0.	125.24
1141	6.5	-9.	0.	125.32
1142	5.5	-9.	0.	125.41
1143	4.5	-9.	0.	125.5
1144	3.5	-9.	0.	125.55
1145	2.5	-9.	0.	125.54
1146	1.5	-9.	0.	125.4
1147	-0.5	-9.	0.	124.51
1148	-1.5	-9.	0.	123.84
1149	-2.	-9.	0.	123.55
1150	-2.5	-9.	0.	123.35
1151	-3.5	-9.	0.	123.34
1152	-4.	-9.	0.	123.54
1153	-4.5	-9.	0.	123.83
1154	-5.5	-9.	0.	124.54
1155	-6.5	-9.	0.	125.19
1156	-7.5	-9.	0.	125.68
1157	-9.	-8.5	0.	126.24
1158	-8.5	-9.	0.	126.06
1159	-9.	-8.	0.	126.23
1160	-9.	-7.	0.	126.18
1161	-9.	-6.5	0.	126.13
1162	-9.	-6.	0.	126.06
1163	-9.	-5.5	0.	125.98
1164	-9.	-4.5	0.	125.78
1165	-9.	-4.	0.	125.69
1166	-9.	-3.5	0.	125.63
1167	-9.	-1.5	0.	125.63
1168	-9.	-0.5	0.	125.68
1169	-9.	0.5	0.	125.74
1170	-9.	1.5	0.	125.78
1171	-9.	2.5	0.	125.76
1172	-9.	3.5	0.	125.67
1173	-9.	4.	0.	125.6
1174	-9.	4.5	0.	125.53
1175	-9.	5.5	0.	125.39
1176	-9.	6.5	0.	125.25
1177	-9.	7.	0.	125.19
1178	-9.	7.5	0.	125.14
1179	-8.5	9.	0.	125.
1180	-9.	8.	0.	125.09
1181	-9.	8.5	0.	125.05
1182	-8.	9.	0.	124.97
1183	-7.5	9.	0.	124.95
1184	-6.5	9.	0.	124.88
1185	-6.	9.	0.	124.85
1186	-5.5	9.	0.	124.82
1187	-4.5	9.	0.	124.77
1188	-4.	9.	0.	124.75
1189	-3.5	9.	0.	124.74
1190	-2.5	9.	0.	124.74
1191	-1.5	9.	0.	124.76
1192	-0.5	9.	0.	124.8
1193	0.5	9.	0.	124.85
1194	1.5	9.	0.	124.9
1195	2.	9.	0.	124.92
1196	2.5	9.	0.	124.94
1197	3.5	9.	0.	124.97
1198	4.	9.	0.	124.98
1199	4.5	9.	0.	124.99
1200	5.5	9.	0.	125.
1201	6.	9.	0.	125.
1202	6.5	9.	0.	125.
1203	7.5	9.	0.	125.
1204	8.5	9.	0.	125.
1205	-2.5	0.5	0.	127.86
1206	-2.5	-1.5	0.	124.87
1207	-4.5	-1.5	0.	130.21
1208	-4.5	0.5	0.	128.97
1209	-1.5	-4.5	0.	130.97
1210	-4.5	-4.5	0.	130.5
1211	-4.5	-2.5	0.	130.6
1212	-1.5	-2.5	0.	132.14
1213	9.	9.	0.	125.
1214	9.	-9.	0.	125.15
1215	-9.	-9.	0.	126.24
1216	-9.	9.	0.	125.02
1217	-2.5	-5.4693e-011	0.	126.63
1218	-2.5	-1.	0.	125.27
1219	-2.5	-0.5	0.	125.98
1220	-3.	-1.5	0.	116.98
1221	-4.	-1.5	0.	120.08
1222	-3.5	-1.5	0.	108.1
1223	-4.5	-1.	0.	128.94
1224	-4.5	1.1501e-011	0.	127.98
1225	-4.5	-0.5	0.	128.08
1226	-3.	0.5	0.	120.54
1227	-3.5	0.5	0.	110.49
1228	-4.	0.5	0.	121.44
1229	-2.	-4.5	0.	124.82
1230	-3.	-4.5	0.	116.06
1231	-4.	-4.5	0.	124.24
1232	-3.5	-4.5	0.	115.38
1233	-4.5	-4.	0.	128.98
1234	-4.5	-3.	0.	129.06
1235	-4.5	-3.5	0.	128.3
1236	-4.	-2.5	0.	122.32
1237	-3.5	-2.5	0.	112.96
1238	-3.	-2.5	0.	114.7
1239	-2.	-2.5	0.	125.6
1240	-2.5	-2.5	0.	115.91
1241	-1.5	-3.	0.	130.41
1242	-1.5	-4.	0.	129.58
1243	-1.5	-3.5	0.	129.24
1244	9.5	9.	0.	125.
1245	9.5	8.5	0.	125.
1246	9.5	8.	0.	124.99
1247	9.5	7.5	0.	124.99
1248	9.5	7.	0.	124.99
1249	9.5	6.5	0.	124.99
1250	9.5	6.	0.	124.98
1251	9.5	5.5	0.	124.98
1252	9.5	5.	0.	124.98
1253	9.5	4.5	0.	124.97
1254	9.5	4.	0.	124.96
1255	9.5	3.5	0.	124.95
1256	9.5	3.	0.	124.94
1257	9.5	2.5	0.	124.93
1258	9.5	2.	0.	124.91
1259	9.5	1.5	0.	124.9
1260	9.5	1.	0.	124.88
1261	9.5	0.5	0.	124.87
1262	9.5	5.6946e-013	0.	124.86
1263	9.5	-0.5	0.	124.85
1264	9.5	-1.	0.	124.84
1265	9.5	-1.5	0.	124.83
1266	9.5	-2.	0.	124.83
1267	9.5	-2.5	0.	124.84
1268	9.5	-3.	0.	124.85
1269	9.5	-3.5	0.	124.86
1270	9.5	-4.	0.	124.88
1271	9.5	-4.5	0.	124.91
1272	9.5	-5.	0.	124.94
1273	9.5	-5.5	0.	124.97
1274	9.5	-6.	0.	125.
1275	9.5	-6.5	0.	125.03
1276	9.5	-7.	0.	125.06
1277	9.5	-7.5	0.	125.09
1278	9.5	-8.	0.	125.11
1279	9.5	-9.	0.	125.14
1280	9.5	-9.5	0.	125.15
1281	9.	-9.5	0.	125.16
1282	8.5	-9.5	0.	125.18
1283	8.	-9.5	0.	125.21
1284	7.5	-9.5	0.	125.24
1285	7.	-9.5	0.	125.28
1286	6.5	-9.5	0.	125.33
1287	6.	-9.5	0.	125.37
1288	5.5	-9.5	0.	125.42
1289	5.	-9.5	0.	125.46
1290	4.5	-9.5	0.	125.5
1291	4.	-9.5	0.	125.53
1292	3.5	-9.5	0.	125.55
1293	3.	-9.5	0.	125.55
1294	2.5	-9.5	0.	125.52
1295	2.	-9.5	0.	125.46
1296	1.5	-9.5	0.	125.36
1297	1.	-9.5	0.	125.21
1298	0.5	-9.5	0.	125.01
1299	-1.4346e-012	-9.5	0.	124.76
1300	-0.5	-9.5	0.	124.47
1301	-1.	-9.5	0.	124.15
1302	-1.5	-9.5	0.	123.85
1303	-2.	-9.5	0.	123.59
1304	-2.5	-9.5	0.	123.42
1305	-3.	-9.5	0.	123.35
1306	-3.5	-9.5	0.	123.41
1307	-4.	-9.5	0.	123.58
1308	-4.5	-9.5	0.	123.84
1309	-5.	-9.5	0.	124.16
1310	-5.5	-9.5	0.	124.5
1311	-6.	-9.5	0.	124.83
1312	-6.5	-9.5	0.	125.14
1313	-7.	-9.5	0.	125.41
1314	-7.5	-9.5	0.	125.64
1315	-8.	-9.5	0.	125.86
1316	-8.5	-9.5	0.	126.05
1317	-9.	-9.5	0.	126.25
1318	-9.5	-9.5	0.	126.45
1319	-9.5	-9.	0.	126.44
1320	-9.5	-8.5	0.	126.42
1321	-9.5	-8.	0.	126.39
1322	-9.5	-7.5	0.	126.34
1323	-9.5	-7.	0.	126.27
1324	-9.5	-6.5	0.	126.19
1325	-9.5	-6.	0.	126.08
1326	-9.5	-5.	0.	125.82
1327	-9.5	-4.5	0.	125.69
1328	-9.5	-4.	0.	125.57
1329	-9.5	-3.5	0.	125.49
1330	-9.5	-3.	0.	125.44
1331	-9.5	-2.5	0.	125.42
1332	-9.5	-2.	0.	125.43
1333	-9.5	-1.5	0.	125.46
1334	-9.5	-1.	0.	125.5
1335	-9.5	-0.5	0.	125.56
1336	-9.5	5.891e-013	0.	125.62
1337	-9.5	0.5	0.	125.68
1338	-9.5	1.	0.	125.74
1339	-9.5	1.5	0.	125.78
1340	-9.5	2.	0.	125.8
1341	-9.5	2.5	0.	125.8
1342	-9.5	3.	0.	125.78
1343	-9.5	3.5	0.	125.73
1344	-9.5	4.	0.	125.67
1345	-9.5	4.5	0.	125.6
1346	-9.5	5.	0.	125.52
1347	-9.5	5.5	0.	125.44
1348	-9.5	6.	0.	125.36
1349	-9.5	6.5	0.	125.28
1350	-9.5	7.	0.	125.21
1351	-9.5	7.5	0.	125.15
1352	-9.5	8.	0.	125.09
1353	-9.5	8.5	0.	125.05
1354	-9.5	9.	0.	125.02
1355	-9.5	9.5	0.	125.
1356	-9.	9.5	0.	125.
1357	-8.5	9.5	0.	124.98
1358	-8.	9.5	0.	124.96
1359	-7.5	9.5	0.	124.93
1360	-7.	9.5	0.	124.9
1361	-6.5	9.5	0.	124.87
1362	-6.	9.5	0.	124.84
1363	-5.5	9.5	0.	124.8
1364	-5.	9.5	0.	124.78
1365	-4.5	9.5	0.	124.75
1366	-4.	9.5	0.	124.73
1367	-3.5	9.5	0.	124.72
1368	-3.	9.5	0.	124.72
1369	-2.5	9.5	0.	124.72
1370	-2.	9.5	0.	124.73
1371	-1.5	9.5	0.	124.74
1372	-1.	9.5	0.	124.76
1373	-0.5	9.5	0.	124.78
1374	-8.911e-012	9.5	0.	124.8
1375	0.5	9.5	0.	124.83
1376	1.	9.5	0.	124.85
1377	1.5	9.5	0.	124.88
1378	2.	9.5	0.	124.9
1379	2.5	9.5	0.	124.92
1380	3.	9.5	0.	124.94
1381	3.5	9.5	0.	124.96
1382	4.	9.5	0.	124.97
1383	5.	9.5	0.	124.99
1384	5.5	9.5	0.	125.
1385	6.	9.5	0.	125.
1386	7.	9.5	0.	125.
1387	7.5	9.5	0.	125.
1388	8.5	9.5	0.	125.
1389	9.	9.5	0.	125.
1390	9.5	9.5	0.	125.
1391	6.	-3.	0.	125.08
1392	-9.	-7.5	0.	126.22
1393	6.5	9.5	0.	125.
1394	0.5	-4.	0.	125.57
1395	3.5	1.	0.	125.43
1396	3.5	-3.	0.	125.19
1397	9.	3.	0.	124.97
1398	0.5	4.5	0.	125.15
1399	3.	-5.5	0.	125.47
1400	3.	-6.	0.	125.53
1401	-7.	9.	0.	124.91
1402	-8.5	6.5	0.	125.21
1403	3.	-9.	0.	125.56
1404	-6.5	-2.5	0.	126.68
1405	-5.5	-8.5	0.	124.62
1406	2.	4.	0.	125.35
1407	-4.	6.	0.	124.51
1408	3.5	-2.5	0.	125.21
1409	-1.5	-1.3729e-010	0.	124.95
1410	-2.	9.	0.	124.75
1411	-4.	2.5	0.	123.03
1412	-6.	4.	0.	125.01
1413	3.	6.5	0.	125.1
1414	-6.	-8.5	0.	124.98
1415	4.5	-4.	0.	125.18
1416	-1.	4.5	0.	124.77
1417	-5.5	-1.	0.	127.19
1418	-9.5	-5.5	0.	125.95
1419	-2.1983e-011	9.	0.	124.83
1420	2.5	-3.	0.	125.26
1421	-2.5	3.	0.	123.72
1422	4.	-5.5	0.	125.35
1423	2.	8.	0.	124.97
1424	4.	3.	0.	125.34
1425	-4.	6.5	0.	124.59
1426	1.	5.5	0.	125.1
1427	0.5	5.	0.	125.09
1428	-4.	4.5	0.	124.16
1429	-9.	-1.	0.	125.65
1430	-9.	-5.	0.	125.88
1431	-4.	5.5	0.	124.42
1432	-9.	-2.	0.	125.61
1433	8.5	-9.	0.	125.17
1434	2.5	-8.	0.	125.6
1435	-2.5	4.5	0.	124.22
1436	-4.	3.	0.	123.45
1437	-1.	9.	0.	124.78
1438	6.5	5.	0.	125.1
1439	-0.5	6.	0.	124.85
1440	9.	2.	0.	124.95
1441	9.	-6.	0.	125.03
1442	6.	-6.5	0.	125.26
1443	2.	-3.	0.	125.31
1444	-8.5	-6.5	0.	126.11
1445	-1.2048e-010	7.	0.	124.89
1446	-5.5	-6.5	0.	125.64
1447	-1.8757e-010	5.	0.	125.
1448	-9.	-3.	0.	125.6
1449	-6.	3.	0.	125.31
1450	6.5	3.	0.	125.14
1451	4.	-2.5	0.	125.18
1452	-6.5	-8.5	0.	125.29
1453	0.5	-2.4131e-010	0.	125.86
1454	-1.	-1.7321e-010	0.	125.32
1455	5.	7.	0.	125.07
1456	6.5	4.	0.	125.12
1457	0.5	-4.5	0.	125.9
1458	-1.	6.5	0.	124.77
1459	7.	-4.5	0.	125.09
1460	-9.	-2.5	0.	125.6
1461	7.	5.	0.	125.08
1462	4.5	9.5	0.	124.98
1463	3.	6.	0.	125.14
1464	-6.	6.5	0.	124.86
1465	9.	-8.	0.	125.12
1466	-9.	1.5358e-012	0.	125.71
1467	-7.	-3.	0.	126.05
1468	-2.5	-4.5	0.	115.68
1469	-3.	5.5	0.	124.39
1470	9.5	-8.5	0.	125.13
1471	-4.5	-6.5	0.	123.99
1472	5.5	-4.	0.	125.13
1473	-7.5	-6.5	0.	126.12
1474	7.	2.	0.	125.1
1475	5.	2.	0.	125.27
1476	-5.	-9.	0.	124.18
1477	9.	-7.	0.	125.08
1478	3.	7.	0.	125.06
1479	5.5	-6.	0.	125.27
1480	6.	-7.	0.	125.29
1481	-3.	-7.	0.	122.06
1482	-6.5	-6.	0.	126.31
1483	-9.	3.	0.	125.72
1484	1.	9.	0.	124.88
1485	-3.	7.	0.	124.63
1486	-7.	1.2375e-011	0.	126.07
1487	0.5	-9.	0.	125.07
1488	-1.	-9.	0.	124.17
1489	3.	5.5	0.	125.19
1490	5.	9.	0.	124.99
1491	4.	5.5	0.	125.18
1492	-5.5	5.	0.	124.74
1493	-8.5	2.5	0.	125.76
1494	9.	6.	0.	125.
1495	-3.	-9.	0.	123.27
1496	9.	1.6133e-012	0.	124.9
1497	4.5	4.	0.	125.25
1498	8.5	-6.5	0.	125.09
1499	-1.5	-8.5	0.	123.82
1500	7.5	8.5	0.	125.01
1501	5.5	-8.5	0.	125.4
1502	4.5	-8.5	0.	125.49
1503	3.5	2.	0.	125.42
1504	-6.5	-4.	0.	125.9
1505	-5.	-3.5	0.	125.33
1506	8.	9.5	0.	125.
1507	2.5	-1.5	0.	125.45
1508	2.	3.5	0.	125.41
1509	-5.5	-7.5	0.	124.94
1510	8.5	-7.5	0.	125.13
1511	3.	5.	0.	125.24
1512	6.5	-3.	0.	125.06
1513	9.	5.	0.	124.99
1514	7.5	-8.5	0.	125.23
1515	1.	4.	0.	125.3
1516	-7.5	5.5	0.	125.19
1517	-1.9814e-010	5.5	0.	124.96
1518	-4.	4.	0.	123.98
1519	2.	-4.5	0.	125.43
1520	4.5	-1.	0.	125.22
1521	5.	5.5	0.	125.15
1522	5.5	-2.	0.	125.11
1523	3.	-2.5	0.	125.25
1524	9.	4.	0.	124.98
1525	2.	3.	0.	125.47
1526	-6.5	5.	0.	125.04
1527	-5.	-6.5	0.	125.01
1528	5.5	-1.	0.	125.14
1529	9.	1.	0.	124.92
1530	2.	-9.	0.	125.49
1531	4.	1.	0.	125.37
1532	-7.	-2.	0.	126.47
1533	9.	-0.5	0.	124.9
1534	3.	4.	0.	125.33
1535	9.	-5.	0.	124.98
1536	9.	8.	0.	125.
1537	-9.	1.	0.	125.77
1538	9.	-3.	0.	124.9
1539	-3.	2.5	0.	122.86
1540	-5.	0.5	0.	127.49
1541	-6.	-7.	0.	125.62
1542	4.5	3.	0.	125.3
1543	-8.5	5.5	0.	125.33
1544	1.	7.	0.	124.98
1545	-5.5	4.	0.	124.77
1546	-6.5	-1.	0.	126.56
1547	-4.	1.5	0.	121.69
1548	-2.	-6.	0.	122.74
1549	4.	2.	0.	125.37
1550	-4.	7.	0.	124.65
1551	1.	-9.	0.	125.26
1552	-9.	2.	0.	125.78
1553	-2.	-1.5	0.	125.72
1554	-2.5	3.5	0.	123.91
1555	-8.5	-3.5	0.	125.73
1556	9.	7.	0.	125.
1557	-7.	-6.	0.	126.24
1558	8.5	-5.5	0.	125.04
1559	2.	-8.	0.	125.6
1560	5.3085e-011	-2.2817e-010	0.	125.82
1561	4.5	-2.5	0.	125.15
1562	4.	-7.	0.	125.49
1563	5.5	3.5	0.	125.2
1564	-2.5	7.	0.	124.65
1565	-1.	5.	0.	124.75
1566	7.	-9.	0.	125.28
1567	-6.	-9.	0.	124.89
1568	9.	-4.	0.	124.93
1569	5.5	1.	0.	125.21
1570	5.	-1.	0.	125.18
1571	5.	-1.588e-012	0.	125.23
1572	5.	-5.5	0.	125.27
1573	-7.	2.	0.	125.93
1574	-2.	-5.5	0.	122.81
1575	6.	-4.	0.	125.11
1576	3.	-1.1724e-010	0.	125.47
1577	-1.4265e-010	4.5	0.	125.06
1578	7.	9.	0.	125.
1579	-7.	5.	0.	125.16
1580	6.	3.	0.	125.17
1581	4.	-5.	0.	125.3
1582	-8.5	1.5	0.	125.82
1583	3.	9.	0.	124.95
1584	-6.	5.	0.	124.9
1585	-4.5	-5.	0.	127.03
1586	-6.5	3.	0.	125.51
1587	-3.	-7.5	0.	122.56
1588	6.5	1.	0.	125.12
1589	3.	2.	0.	125.47
1590	-1.	-7.	0.	124.68
1591	-4.	-7.	0.	122.98
1592	4.	-9.	0.	125.53
1593	-1.5597e-010	6.5	0.	124.91
1594	5.	-9.	0.	125.46
1595	5.	6.	0.	125.12
1596	3.5	3.	0.	125.38
1597	6.	-9.	0.	125.37
1598	-5.	9.	0.	124.79
1599	-1.	-5.	0.	128.05
1600	3.	4.5	0.	125.28
1601	-3.	9.	0.	124.73
1602	1.	6.	0.	125.05
1603	1.	4.5	0.	125.22
1604	4.	-1.	0.	125.27
1605	-6.5	0.5	0.	126.19
1606	-3.1364e-012	-9.	0.	124.82
1607	-3.	6.	0.	124.49
1608	4.	-3.	0.	125.17
1609	-4.5	-6.	0.	124.39
1610	-5.	-7.5	0.	124.41
1611	-2.5	2.	0.	123.4
1612	-2.5	4.	0.	124.08
1613	6.	-1.	0.	125.11
1614	-2.	-6.5	0.	122.87
1615	6.	9.9714e-012	0.	125.14
1616	4.5	1.	0.	125.31
1617	5.5	5.	0.	125.15
1618	-4.	2.	0.	122.45
1619	5.5	-5.	0.	125.2
1620	7.	7.	0.	125.03
1621	6.	4.	0.	125.16
1622	-2.	-9.6877e-011	0.	125.2
1623	-8.	-9.	0.	125.88
1624	-7.	4.	0.	125.34
1625	7.	4.	0.	125.09
1626	4.	-6.	0.	125.41
1627	3.	-6.5	0.	125.58
1628	0.5	-6.	0.	126.17
1629	3.	-5.	0.	125.39
1630	-5.5	-0.5	0.	126.22
1631	8.5	4.5	0.	125.01
1632	-7.	-9.	0.	125.46
1633	-9.	5.	0.	125.46
1634	-1.	6.	0.	124.76
1635	9.	-7.5	0.	125.1
1636	7.5	-6.5	0.	125.15
1637	-1.5	-2.	0.	128.95
1638	8.	9.	0.	125.
1639	-7.	6.	0.	125.06
1640	-9.	6.	0.	125.32
1641	8.5	2.5	0.	124.99
1642	4.5	2.	0.	125.32
1643	-2.5	8.5	0.	124.74
1644	8.5	-4.5	0.	124.99
1645	-2.	6.	0.	124.59
1646	-1.	-5.5	0.	126.75
1647	-1.8407e-010	6.	0.	124.93
1648	-8.5	-7.5	0.	126.12
1649	-0.5	-2.0375e-010	0.	125.64
1650	3.5	-7.5098e-011	0.	125.4
1651	-7.	-1.5	0.	126.45
1652	-8.5	-2.5	0.	125.74
1653	8.5	5.5	0.	125.01
1654	5.5	8.5	0.	125.01
1655	-1.	-8.5	0.	124.22
1656	-5.5	0.5	0.	126.68
1657	-8.5	0.5	0.	125.81
1658	3.5	-8.5	0.	125.56
1659	1.	5.	0.	125.15
1660	5.	-2.	0.	125.14
1661	-4.5	-5.5	0.	125.23
1662	5.	1.	0.	125.26
1663	8.5	-0.5	0.	124.94
1664	-8.5	-1.5	0.	125.78
1665	-1.	7.	0.	124.78
1666	5.	-6.	0.	125.31
1667	8.	-8.	0.	125.18
1668	4.	7.	0.	125.07
1669	-6.5	4.	0.	125.2
1670	-2.	-7.	0.	123.04
1671	-2.5	2.5	0.	123.52
1672	3.	-7.	0.	125.6
1673	1.	6.5	0.	125.01
1674	1.	3.5	0.	125.38
1675	-0.5	-7.	0.	125.23
1676	-2.	5.	0.	124.46
1677	3.5	1.5	0.	125.43
1678	-4.	-0.25	0.	135.3
1679	-3.75	0.	0.	119.44
1680	-4.25	5.7506e-012	0.	129.29
1681	-4.	0.25	0.	126.33
1682	-4.	-0.75	0.	134.58
1683	-3.75	-1.	0.	118.06
1684	-4.	-1.25	0.	124.83
1685	-4.25	-1.	0.	128.98
1686	-3.25	0.	0.	118.74
1687	-3.	-0.25	0.	133.72
1688	-2.75	-2.7346e-011	0.	127.93
1689	-3.	0.25	0.	125.16
1690	-3.25	-1.	0.	117.21
1691	-3.	-0.75	0.	132.82
1692	-2.75	-1.	0.	126.24
1693	-3.	-1.25	0.	122.48
1694	-4.	-3.25	0.	136.48
1695	-3.75	-3.	0.	122.61
1696	-4.25	-3.	0.	130.21
1697	-4.	-2.75	0.	127.16
1698	-4.	-3.75	0.	137.05
1699	-3.75	-4.	0.	123.77
1700	-4.	-4.25	0.	128.72
1701	-4.25	-4.	0.	130.79
1702	-2.25	-3.	0.	124.47
1703	-2.	-3.25	0.	138.11
1704	-2.	-2.75	0.	129.81
1705	-1.75	-3.	0.	131.92
1706	-2.25	-4.	0.	124.43
1707	-2.	-3.75	0.	138.14
1708	-2.	-4.25	0.	129.47
1709	-1.75	-4.	0.	131.53
1710	9.75	10.	0.	125.
1711	10.	9.75	0.	125.
1712	-9.75	10.	0.	125.
1713	-10.	9.75	0.	125.
1714	10.	-9.75	0.	125.16
1715	9.75	-10.	0.	125.16
1716	-10.	-9.75	0.	126.67
1717	-9.75	-10.	0.	126.56
1718	-4.25	-0.5	0.	133.94
1719	-3.5	0.25	0.	109.23
1720	-3.5	-1.25	0.	107.37
1721	-2.75	-0.5	0.	132.01
1722	-4.25	-3.5	0.	134.77
1723	-3.25	-3.	0.	116.59
1724	-3.5	-2.75	0.	113.27
1725	-2.75	-3.	0.	117.49
1726	-3.	-2.75	0.	117.02
1727	-2.5	-2.75	0.	115.67
1728	-3.25	-4.	0.	117.68
1729	-3.5	-4.25	0.	115.12
1730	-2.75	-4.	0.	117.87
1731	-3.	-4.25	0.	118.13
1732	-2.5	-4.25	0.	115.45
1733	-1.75	-3.5	0.	135.86
1734	9.25	10.	0.	125.
1735	9.5	9.75	0.	125.
1736	8.75	10.	0.	125.
1737	9.	9.75	0.	125.
1738	8.25	10.	0.	125.
1739	8.5	9.75	0.	125.
1740	7.75	10.	0.	125.01
1741	8.	9.75	0.	125.
1742	7.25	10.	0.	125.01
1743	7.5	9.75	0.	125.01
1744	6.75	10.	0.	125.01
1745	7.	9.75	0.	125.01
1746	6.25	10.	0.	125.01
1747	6.5	9.75	0.	125.
1748	5.75	10.	0.	125.
1749	6.	9.75	0.	125.
1750	5.25	10.	0.	125.
1751	5.5	9.75	0.	125.
1752	4.75	10.	0.	124.99
1753	5.	9.75	0.	124.99
1754	4.25	10.	0.	124.98
1755	4.5	9.75	0.	124.98
1756	3.75	10.	0.	124.97
1757	4.	9.75	0.	124.97
1758	3.25	10.	0.	124.95
1759	3.5	9.75	0.	124.96
1760	2.75	10.	0.	124.93
1761	3.	9.75	0.	124.94
1762	2.25	10.	0.	124.91
1763	2.5	9.75	0.	124.92
1764	1.75	10.	0.	124.88
1765	2.	9.75	0.	124.9
1766	1.25	10.	0.	124.85
1767	1.5	9.75	0.	124.87
1768	0.75	10.	0.	124.82
1769	1.	9.75	0.	124.85
1770	0.25	10.	0.	124.79
1771	0.5	9.75	0.	124.82
1772	-0.25	10.	0.	124.76
1773	-4.4581e-012	9.75	0.	124.79
1774	-0.75	10.	0.	124.73
1775	-0.5	9.75	0.	124.76
1776	-1.25	10.	0.	124.71
1777	-1.	9.75	0.	124.74
1778	-1.75	10.	0.	124.69
1779	-1.5	9.75	0.	124.72
1780	-2.25	10.	0.	124.68
1781	-2.	9.75	0.	124.7
1782	-2.75	10.	0.	124.67
1783	-2.5	9.75	0.	124.7
1784	-3.25	10.	0.	124.68
1785	-3.	9.75	0.	124.69
1786	-3.75	10.	0.	124.69
1787	-3.5	9.75	0.	124.7
1788	-4.25	10.	0.	124.7
1789	-4.	9.75	0.	124.71
1790	-4.75	10.	0.	124.73
1791	-4.5	9.75	0.	124.73
1792	-5.25	10.	0.	124.76
1793	-5.	9.75	0.	124.76
1794	-5.75	10.	0.	124.8
1795	-5.5	9.75	0.	124.79
1796	-6.25	10.	0.	124.84
1797	-6.	9.75	0.	124.83
1798	-6.75	10.	0.	124.88
1799	-6.5	9.75	0.	124.86
1800	-7.25	10.	0.	124.92
1801	-7.	9.75	0.	124.9
1802	-7.75	10.	0.	124.95
1803	-7.5	9.75	0.	124.93
1804	-8.25	10.	0.	124.98
1805	-8.	9.75	0.	124.96
1806	-8.75	10.	0.	124.99
1807	-8.5	9.75	0.	124.98
1808	-9.25	10.	0.	125.
1809	-9.	9.75	0.	125.
1810	-9.5	9.75	0.	125.
1811	10.	9.25	0.	125.
1812	9.75	9.5	0.	125.
1813	10.	8.75	0.	125.
1814	9.75	9.	0.	125.
1815	10.	8.25	0.	124.99
1816	9.75	8.5	0.	124.99
1817	10.	7.75	0.	124.99
1818	9.75	8.	0.	124.99
1819	10.	7.25	0.	124.98
1820	9.75	7.5	0.	124.99
1821	10.	6.75	0.	124.98
1822	9.75	7.	0.	124.99
1823	10.	6.25	0.	124.98
1824	9.75	6.5	0.	124.98
1825	10.	5.75	0.	124.97
1826	9.75	6.	0.	124.98
1827	10.	5.25	0.	124.97
1828	9.75	5.5	0.	124.98
1829	10.	4.75	0.	124.96
1830	9.75	5.	0.	124.97
1831	10.	4.25	0.	124.95
1832	9.75	4.5	0.	124.96
1833	10.	3.75	0.	124.94
1834	9.75	4.	0.	124.95
1835	10.	3.25	0.	124.92
1836	9.75	3.5	0.	124.94
1837	10.	2.75	0.	124.91
1838	9.75	3.	0.	124.93
1839	10.	2.25	0.	124.89
1840	9.75	2.5	0.	124.91
1841	10.	1.75	0.	124.87
1842	9.75	2.	0.	124.9
1843	10.	1.25	0.	124.85
1844	9.75	1.5	0.	124.88
1845	10.	0.75	0.	124.83
1846	9.75	1.	0.	124.86
1847	10.	0.25	0.	124.81
1848	9.75	0.5	0.	124.84
1849	10.	-0.25	0.	124.79
1850	9.75	2.8213e-013	0.	124.83
1851	10.	-0.75	0.	124.78
1852	9.75	-0.5	0.	124.82
1853	10.	-1.25	0.	124.77
1854	9.75	-1.	0.	124.81
1855	10.	-1.75	0.	124.77
1856	9.75	-1.5	0.	124.8
1857	10.	-2.25	0.	124.77
1858	9.75	-2.	0.	124.8
1859	10.	-2.75	0.	124.78
1860	9.75	-2.5	0.	124.81
1861	10.	-3.25	0.	124.79
1862	9.75	-3.	0.	124.82
1863	10.	-3.75	0.	124.81
1864	9.75	-3.5	0.	124.83
1865	10.	-4.25	0.	124.84
1866	9.75	-4.	0.	124.86
1867	10.	-4.75	0.	124.87
1868	9.75	-4.5	0.	124.88
1869	10.	-5.25	0.	124.91
1870	9.75	-5.	0.	124.91
1871	10.	-5.75	0.	124.95
1872	9.75	-5.5	0.	124.95
1873	10.	-6.25	0.	124.98
1874	9.75	-6.	0.	124.98
1875	10.	-6.75	0.	125.02
1876	9.75	-6.5	0.	125.02
1877	10.	-7.25	0.	125.06
1878	9.75	-7.	0.	125.05
1879	10.	-7.75	0.	125.09
1880	9.75	-7.5	0.	125.08
1881	10.	-8.25	0.	125.12
1882	9.75	-8.	0.	125.11
1883	10.	-8.75	0.	125.14
1884	9.75	-8.5	0.	125.13
1885	10.	-9.25	0.	125.15
1886	9.75	-9.	0.	125.15
1887	9.75	-9.5	0.	125.16
1888	-10.	9.25	0.	124.99
1889	-9.75	9.5	0.	125.
1890	-10.	8.75	0.	125.01
1891	-9.75	9.	0.	125.01
1892	-10.	8.25	0.	125.04
1893	-9.75	8.5	0.	125.04
1894	-10.	7.75	0.	125.1
1895	-9.75	8.	0.	125.08
1896	-10.	7.25	0.	125.17
1897	-9.75	7.5	0.	125.14
1898	-10.	6.75	0.	125.25
1899	-9.75	7.	0.	125.21
1900	-10.	6.25	0.	125.35
1901	-9.75	6.5	0.	125.29
1902	-10.	5.75	0.	125.44
1903	-9.75	6.	0.	125.38
1904	-10.	5.25	0.	125.54
1905	-9.75	5.5	0.	125.47
1906	-10.	4.75	0.	125.64
1907	-9.75	5.	0.	125.56
1908	-10.	4.25	0.	125.73
1909	-9.75	4.5	0.	125.65
1910	-10.	3.75	0.	125.81
1911	-9.75	4.	0.	125.72
1912	-10.	3.25	0.	125.86
1913	-9.75	3.5	0.	125.79
1914	-10.	2.75	0.	125.89
1915	-9.75	3.	0.	125.83
1916	-10.	2.25	0.	125.88
1917	-9.75	2.5	0.	125.85
1918	-10.	1.75	0.	125.84
1919	-9.75	2.	0.	125.84
1920	-10.	1.25	0.	125.78
1921	-9.75	1.5	0.	125.8
1922	-10.	0.75	0.	125.69
1923	-9.75	1.	0.	125.74
1924	-10.	0.25	0.	125.58
1925	-9.75	0.5	0.	125.66
1926	-10.	-0.25	0.	125.48
1927	-9.75	2.9195e-013	0.	125.57
1928	-10.	-0.75	0.	125.37
1929	-9.75	-0.5	0.	125.49
1930	-10.	-1.25	0.	125.29
1931	-9.75	-1.	0.	125.41
1932	-10.	-1.75	0.	125.22
1933	-9.75	-1.5	0.	125.35
1934	-10.	-2.25	0.	125.19
1935	-9.75	-2.	0.	125.31
1936	-10.	-2.75	0.	125.19
1937	-9.75	-2.5	0.	125.3
1938	-10.	-3.25	0.	125.23
1939	-9.75	-3.	0.	125.32
1940	-10.	-3.75	0.	125.33
1941	-9.75	-3.5	0.	125.38
1942	-10.	-4.25	0.	125.47
1943	-9.75	-4.	0.	125.48
1944	-10.	-4.75	0.	125.65
1945	-9.75	-4.5	0.	125.62
1946	-10.	-5.25	0.	125.84
1947	-9.75	-5.	0.	125.78
1948	-10.	-5.75	0.	126.03
1949	-9.75	-5.5	0.	125.94
1950	-10.	-6.25	0.	126.21
1951	-9.75	-6.	0.	126.1
1952	-10.	-6.75	0.	126.35
1953	-9.75	-6.5	0.	126.24
1954	-10.	-7.25	0.	126.47
1955	-9.75	-7.	0.	126.35
1956	-10.	-7.75	0.	126.55
1957	-9.75	-7.5	0.	126.43
1958	-10.	-8.25	0.	126.61
1959	-9.75	-8.	0.	126.49
1960	-10.	-8.75	0.	126.64
1961	-9.75	-8.5	0.	126.52
1962	-10.	-9.25	0.	126.66
1963	-9.75	-9.	0.	126.55
1964	-9.75	-9.5	0.	126.56
1965	-9.25	-10.	0.	126.35
1966	-9.5	-9.75	0.	126.45
1967	-8.75	-10.	0.	126.15
1968	-9.	-9.75	0.	126.25
1969	-8.25	-10.	0.	125.95
1970	-8.5	-9.75	0.	126.05
1971	-7.75	-10.	0.	125.74
1972	-8.	-9.75	0.	125.85
1973	-7.25	-10.	0.	125.51
1974	-7.5	-9.75	0.	125.64
1975	-6.75	-10.	0.	125.25
1976	-7.	-9.75	0.	125.4
1977	-6.25	-10.	0.	124.97
1978	-6.5	-9.75	0.	125.13
1979	-5.75	-10.	0.	124.65
1980	-6.	-9.75	0.	124.82
1981	-5.25	-10.	0.	124.32
1982	-5.5	-9.75	0.	124.49
1983	-4.75	-10.	0.	124.
1984	-5.	-9.75	0.	124.16
1985	-4.25	-10.	0.	123.72
1986	-4.5	-9.75	0.	123.85
1987	-3.75	-10.	0.	123.52
1988	-4.	-9.75	0.	123.59
1989	-3.25	-10.	0.	123.41
1990	-3.5	-9.75	0.	123.42
1991	-2.75	-10.	0.	123.41
1992	-3.	-9.75	0.	123.37
1993	-2.25	-10.	0.	123.52
1994	-2.5	-9.75	0.	123.43
1995	-1.75	-10.	0.	123.73
1996	-2.	-9.75	0.	123.6
1997	-1.25	-10.	0.	124.
1998	-1.5	-9.75	0.	123.85
1999	-0.75	-10.	0.	124.3
2000	-1.	-9.75	0.	124.15
2001	-0.25	-10.	0.	124.6
2002	-0.5	-9.75	0.	124.46
2003	0.25	-10.	0.	124.87
2004	-7.147e-013	-9.75	0.	124.75
2005	0.75	-10.	0.	125.09
2006	0.5	-9.75	0.	125.
2007	1.25	-10.	0.	125.27
2008	1.	-9.75	0.	125.2
2009	1.75	-10.	0.	125.4
2010	1.5	-9.75	0.	125.35
2011	2.25	-10.	0.	125.48
2012	2.	-9.75	0.	125.46
2013	2.75	-10.	0.	125.53
2014	2.5	-9.75	0.	125.52
2015	3.25	-10.	0.	125.55
2016	3.	-9.75	0.	125.55
2017	3.75	-10.	0.	125.54
2018	3.5	-9.75	0.	125.55
2019	4.25	-10.	0.	125.52
2020	4.	-9.75	0.	125.53
2021	4.75	-10.	0.	125.48
2022	4.5	-9.75	0.	125.5
2023	5.25	-10.	0.	125.44
2024	5.	-9.75	0.	125.46
2025	5.75	-10.	0.	125.4
2026	5.5	-9.75	0.	125.42
2027	6.25	-10.	0.	125.35
2028	6.	-9.75	0.	125.38
2029	6.75	-10.	0.	125.31
2030	6.5	-9.75	0.	125.33
2031	7.25	-10.	0.	125.27
2032	7.	-9.75	0.	125.29
2033	7.75	-10.	0.	125.23
2034	7.5	-9.75	0.	125.25
2035	8.25	-10.	0.	125.2
2036	8.	-9.75	0.	125.21
2037	8.75	-10.	0.	125.17
2038	8.5	-9.75	0.	125.18
2039	9.25	-10.	0.	125.16
2040	9.	-9.75	0.	125.16
2041	9.5	-9.75	0.	125.16
2042	2.75	2.5	0.	125.47
2043	2.5	2.25	0.	125.51
2044	2.25	2.5	0.	125.51
2045	2.5	2.75	0.	125.47
2046	3.	2.75	0.	125.43
2047	3.25	2.5	0.	125.43
2048	3.	2.25	0.	125.46
2049	2.5	1.75	0.	125.53
2050	2.25	2.	0.	125.55
2051	2.75	2.	0.	125.5
2052	2.	2.25	0.	125.54
2053	1.75	2.5	0.	125.53
2054	2.	2.75	0.	125.5
2055	2.75	3.	0.	125.43
2056	2.5	3.25	0.	125.42
2057	2.25	3.	0.	125.46
2058	3.	1.25	0.	125.49
2059	2.75	1.5	0.	125.52
2060	3.	1.75	0.	125.48
2061	3.25	1.5	0.	125.46
2062	1.5	2.75	0.	125.51
2063	1.25	3.	0.	125.47
2064	1.5	3.25	0.	125.44
2065	1.75	3.	0.	125.47
2066	3.	-0.75	0.	125.43
2067	3.25	-0.5	0.	125.41
2068	2.75	-0.5	0.	125.49
2069	3.	-0.25	0.	125.46
2070	3.	0.75	0.	125.49
2071	2.75	1.	0.	125.53
2072	3.25	1.	0.	125.46
2073	3.	3.25	0.	125.4
2074	3.25	3.	0.	125.4
2075	2.5	1.25	0.	125.55
2076	2.25	1.5	0.	125.57
2077	2.	1.75	0.	125.58
2078	1.75	2.	0.	125.58
2079	3.25	-1.	0.	125.37
2080	3.	-1.25	0.	125.38
2081	2.75	-1.	0.	125.46
2082	1.5	2.25	0.	125.57
2083	1.25	2.5	0.	125.55
2084	1.	2.75	0.	125.51
2085	0.75	3.	0.	125.45
2086	1.	3.25	0.	125.42
2087	0.25	3.5	0.	125.28
2088	0.5	3.25	0.	125.38
2089	0.5	3.75	0.	125.28
2090	0.75	3.5	0.	125.35
2091	3.25	0.5	0.	125.45
2092	2.75	0.5	0.	125.53
2093	3.	0.25	0.	125.48
2094	1.5	3.75	0.	125.37
2095	1.75	3.5	0.	125.41
2096	1.25	3.5	0.	125.39
2097	2.75	3.5	0.	125.39
2098	2.5	3.75	0.	125.37
2099	2.25	3.5	0.	125.4
2100	3.25	3.5	0.	125.36
2101	3.	3.75	0.	125.35
2102	3.75	3.5	0.	125.33
2103	3.5	3.75	0.	125.33
2104	3.5	3.25	0.	125.36
2105	3.75	2.5	0.	125.38
2106	3.5	2.25	0.	125.41
2107	3.5	2.75	0.	125.39
2108	3.75	0.5	0.	125.39
2109	3.5	0.75	0.	125.42
2110	3.5	0.25	0.	125.41
2111	3.5	-0.75	0.	125.35
2112	3.75	-0.5	0.	125.34
2113	3.5	-0.25	0.	125.38
2114	3.5	-1.25	0.	125.31
2115	3.75	-1.	0.	125.3
2116	3.5	-1.75	0.	125.27
2117	3.25	-1.5	0.	125.32
2118	3.75	-1.5	0.	125.26
2119	2.5	-0.75	0.	125.52
2120	2.5	-0.25	0.	125.55
2121	2.25	-0.5	0.	125.59
2122	2.5	0.75	0.	125.56
2123	2.25	1.	0.	125.59
2124	3.5	-3.75	0.	125.21
2125	3.75	-3.5	0.	125.18
2126	3.25	-3.5	0.	125.21
2127	3.5	-3.25	0.	125.19
2128	3.75	-2.	0.	125.22
2129	3.25	-2.	0.	125.27
2130	3.5	-2.25	0.	125.23
2131	2.	1.25	0.	125.61
2132	1.75	1.5	0.	125.62
2133	3.	-1.75	0.	125.33
2134	2.75	-1.5	0.	125.4
2135	4.	3.75	0.	125.3
2136	4.25	3.5	0.	125.3
2137	4.	3.25	0.	125.33
2138	1.5	1.75	0.	125.62
2139	1.25	2.	0.	125.61
2140	3.75	-4.	0.	125.21
2141	3.25	-4.	0.	125.24
2142	3.5	-4.25	0.	125.25
2143	2.25	-1.	0.	125.57
2144	2.5	-1.25	0.	125.48
2145	-0.25	4.	0.	125.06
2146	-0.75	4.	0.	124.9
2147	-0.5	3.75	0.	125.04
2148	-0.5	4.25	0.	124.96
2149	1.	2.25	0.	125.59
2150	0.75	2.5	0.	125.54
2151	-3.1576e-011	3.75	0.	125.18
2152	-0.25	3.5	0.	125.16
2153	4.7608e-011	3.25	0.	125.29
2154	0.5	2.75	0.	125.48
2155	0.25	3.	0.	125.39
2156	2.5	0.25	0.	125.56
2157	2.25	-1.8749e-010	0.	125.6
2158	2.75	-1.4401e-010	0.	125.52
2159	2.25	0.5	0.	125.6
2160	0.25	4.	0.	125.18
2161	-1.0965e-010	4.25	0.	125.1
2162	0.5	4.25	0.	125.19
2163	0.75	4.	0.	125.26
2164	1.5	4.25	0.	125.3
2165	1.75	4.	0.	125.34
2166	1.25	4.	0.	125.31
2167	2.5	4.25	0.	125.32
2168	2.25	4.	0.	125.34
2169	2.75	4.	0.	125.34
2170	3.75	4.	0.	125.3
2171	3.5	4.25	0.	125.29
2172	3.25	4.	0.	125.32
2173	4.25	2.5	0.	125.33
2174	4.	2.75	0.	125.35
2175	4.	2.25	0.	125.36
2176	4.25	1.5	0.	125.35
2177	4.	1.25	0.	125.37
2178	4.	1.75	0.	125.37
2179	3.75	1.5	0.	125.4
2180	4.	0.25	0.	125.34
2181	4.25	0.5	0.	125.33
2182	4.	0.75	0.	125.36
2183	4.	-0.25	0.	125.32
2184	4.25	-2.7812e-011	0.	125.3
2185	3.75	-5.7374e-011	0.	125.37
2186	4.25	-0.5	0.	125.28
2187	4.	-0.75	0.	125.29
2188	4.	-1.75	0.	125.22
2189	4.25	-1.5	0.	125.21
2190	4.	-1.25	0.	125.25
2191	4.25	-2.	0.	125.19
2192	4.	-2.25	0.	125.19
2193	4.	-3.75	0.	125.19
2194	4.25	-3.5	0.	125.16
2195	4.	-3.25	0.	125.17
2196	2.	-0.75	0.	125.64
2197	2.	-0.25	0.	125.65
2198	1.75	-0.5	0.	125.71
2199	2.	0.75	0.	125.63
2200	1.75	1.	0.	125.65
2201	3.	-3.75	0.	125.24
2202	3.	-3.25	0.	125.22
2203	2.75	-3.5	0.	125.23
2204	2.75	-2.	0.	125.34
2205	3.	-2.25	0.	125.28
2206	4.	4.25	0.	125.27
2207	4.25	4.	0.	125.27
2208	4.	-4.25	0.	125.22
2209	4.25	-4.	0.	125.19
2210	-1.75	4.5	0.	124.48
2211	-1.5	4.25	0.	124.57
2212	-1.5	4.75	0.	124.59
2213	-1.25	4.5	0.	124.67
2214	1.5	1.25	0.	125.67
2215	1.25	1.5	0.	125.66
2216	3.	-4.25	0.	125.28
2217	2.75	-4.	0.	125.27
2218	-1.25	4.	0.	124.68
2219	-1.	3.75	0.	124.84
2220	-1.	4.25	0.	124.78
2221	1.	1.75	0.	125.65
2222	0.75	2.	0.	125.62
2223	2.	-1.25	0.	125.6
2224	1.75	-1.	0.	125.71
2225	-0.75	3.5	0.	124.98
2226	-0.5	3.25	0.	125.15
2227	0.5	2.25	0.	125.58
2228	0.25	2.5	0.	125.51
2229	-0.25	3.	0.	125.28
2230	1.006e-010	2.75	0.	125.41
2231	2.	0.25	0.	125.65
2232	1.75	-2.1344e-010	0.	125.7
2233	1.75	0.5	0.	125.68
2234	3.25	-3.	0.	125.21
2235	2.75	-3.	0.	125.24
2236	3.	-2.75	0.	125.24
2237	-0.5	4.75	0.	124.91
2238	-0.75	4.5	0.	124.85
2239	-0.25	4.5	0.	124.99
2240	1.75	4.5	0.	125.27
2241	1.5	4.75	0.	125.23
2242	1.25	4.5	0.	125.24
2243	2.25	4.5	0.	125.29
2244	2.	4.75	0.	125.25
2245	2.	4.25	0.	125.31
2246	2.5	4.75	0.	125.26
2247	2.75	4.5	0.	125.29
2248	3.75	4.5	0.	125.26
2249	3.5	4.75	0.	125.25
2250	3.25	4.5	0.	125.28
2251	4.25	4.5	0.	125.24
2252	4.	4.75	0.	125.23
2253	4.75	4.5	0.	125.21
2254	4.5	4.75	0.	125.21
2255	4.5	4.25	0.	125.24
2256	4.75	3.5	0.	125.26
2257	4.5	3.75	0.	125.26
2258	4.5	3.25	0.	125.29
2259	4.75	2.5	0.	125.29
2260	4.5	2.75	0.	125.3
2261	4.5	2.25	0.	125.31
2262	4.75	1.5	0.	125.29
2263	4.5	1.25	0.	125.31
2264	4.5	1.75	0.	125.32
2265	4.5	0.25	0.	125.29
2266	4.75	0.5	0.	125.27
2267	4.5	0.75	0.	125.3
2268	4.5	-0.25	0.	125.26
2269	4.75	-8.7808e-012	0.	125.25
2270	4.75	-0.5	0.	125.23
2271	4.5	-0.75	0.	125.24
2272	4.5	-1.75	0.	125.18
2273	4.75	-1.5	0.	125.18
2274	4.5	-1.25	0.	125.21
2275	4.5	-2.25	0.	125.16
2276	4.75	-2.	0.	125.15
2277	4.5	-3.25	0.	125.15
2278	4.75	-3.	0.	125.13
2279	4.5	-2.75	0.	125.15
2280	4.25	-3.	0.	125.16
2281	4.75	-3.5	0.	125.14
2282	4.5	-3.75	0.	125.17
2283	4.25	-4.5	0.	125.23
2284	4.5	-4.75	0.	125.24
2285	4.75	-4.5	0.	125.2
2286	4.5	-4.25	0.	125.2
2287	3.75	-4.5	0.	125.26
2288	4.	-4.75	0.	125.27
2289	3.25	-4.5	0.	125.29
2290	3.5	-4.75	0.	125.31
2291	-2.	4.25	0.	124.35
2292	-2.25	4.5	0.	124.3
2293	-2.	4.75	0.	124.42
2294	1.5	-0.75	0.	125.78
2295	1.5	-0.25	0.	125.76
2296	1.25	-0.5	0.	125.84
2297	1.5	0.75	0.	125.7
2298	1.25	1.	0.	125.7
2299	-3.25	4.5	0.	124.1
2300	-3.5	4.75	0.	124.17
2301	-3.5	4.25	0.	123.98
2302	-3.75	4.5	0.	124.13
2303	2.75	-4.5	0.	125.34
2304	3.	-4.75	0.	125.35
2305	2.5	-3.75	0.	125.27
2306	2.25	-3.5	0.	125.27
2307	2.5	-3.25	0.	125.25
2308	2.5	-2.25	0.	125.35
2309	2.25	-2.	0.	125.44
2310	2.5	-1.75	0.	125.42
2311	-1.75	4.	0.	124.44
2312	-1.5	3.75	0.	124.58
2313	1.	1.25	0.	125.7
2314	0.75	1.5	0.	125.69
2315	2.	-1.75	0.	125.54
2316	1.75	-1.5	0.	125.67
2317	2.25	-1.5	0.	125.51
2318	-4.75	4.5	0.	124.42
2319	-5.	4.25	0.	124.51
2320	-5.	4.75	0.	124.55
2321	-5.25	4.5	0.	124.63
2322	-4.5	4.75	0.	124.37
2323	-4.25	5.	0.	124.36
2324	-4.75	5.	0.	124.49
2325	-4.5	5.25	0.	124.46
2326	5.	4.25	0.	125.21
2327	5.	4.75	0.	125.19
2328	5.25	4.5	0.	125.18
2329	4.75	-5.	0.	125.24
2330	4.5	-5.25	0.	125.28
2331	4.25	-5.	0.	125.28
2332	-1.25	3.5	0.	124.73
2333	-1.	3.25	0.	124.93
2334	0.5	1.75	0.	125.66
2335	0.25	2.	0.	125.61
2336	1.5	-1.25	0.	125.77
2337	1.25	-1.	0.	125.89
2338	-0.75	3.	0.	125.1
2339	-0.5	2.75	0.	125.29
2340	1.2459e-010	2.25	0.	125.54
2341	-0.25	2.5	0.	125.43
2342	-3.	4.75	0.	124.19
2343	-3.	4.25	0.	124.01
2344	-2.75	4.5	0.	124.17
2345	1.5	0.25	0.	125.73
2346	1.25	-2.3346e-010	0.	125.78
2347	1.25	0.5	0.	125.74
2348	-4.5	4.25	0.	124.26
2349	-4.25	4.5	0.	124.24
2350	2.5	-4.25	0.	125.33
2351	2.5	-4.75	0.	125.41
2352	2.25	-4.5	0.	125.4
2353	2.25	-4.	0.	125.31
2354	2.25	-2.5	0.	125.35
2355	2.5	-2.75	0.	125.29
2356	2.75	-2.5	0.	125.28
2357	-3.75	5.	0.	124.28
2358	-4.	4.75	0.	124.23
2359	-4.	5.25	0.	124.36
2360	-3.25	5.	0.	124.26
2361	-3.5	5.25	0.	124.32
2362	-2.75	5.	0.	124.3
2363	-3.	5.25	0.	124.33
2364	-2.5	5.25	0.	124.39
2365	-2.5	4.75	0.	124.28
2366	-2.25	5.	0.	124.4
2367	-1.5	5.25	0.	124.62
2368	-1.25	5.	0.	124.68
2369	-1.75	5.	0.	124.53
2370	-0.5	5.25	0.	124.88
2371	-0.25	5.	0.	124.94
2372	-0.75	5.	0.	124.82
2373	1.75	5.	0.	125.21
2374	1.5	5.25	0.	125.17
2375	1.25	5.	0.	125.18
2376	2.25	5.	0.	125.23
2377	2.	5.25	0.	125.2
2378	2.5	5.25	0.	125.21
2379	2.75	5.	0.	125.24
2380	3.75	5.	0.	125.22
2381	3.5	5.25	0.	125.21
2382	3.25	5.	0.	125.23
2383	4.25	5.	0.	125.2
2384	4.	5.25	0.	125.19
2385	4.75	5.	0.	125.18
2386	4.5	5.25	0.	125.18
2387	5.	3.75	0.	125.23
2388	5.25	4.	0.	125.2
2389	4.75	4.	0.	125.24
2390	5.	3.25	0.	125.25
2391	5.25	3.5	0.	125.22
2392	5.	2.75	0.	125.26
2393	5.25	3.	0.	125.23
2394	4.75	3.	0.	125.28
2395	5.25	2.5	0.	125.24
2396	5.	2.25	0.	125.27
2397	5.25	1.5	0.	125.24
2398	5.	1.75	0.	125.27
2399	5.	1.25	0.	125.26
2400	5.25	0.5	0.	125.22
2401	5.	0.25	0.	125.24
2402	5.	0.75	0.	125.25
2403	5.25	-0.5	0.	125.18
2404	5.	-0.75	0.	125.19
2405	5.	-0.25	0.	125.22
2406	5.25	-1.5	0.	125.14
2407	5.	-1.25	0.	125.17
2408	5.	-1.75	0.	125.15
2409	5.	-2.75	0.	125.13
2410	5.25	-2.5	0.	125.12
2411	4.75	-2.5	0.	125.14
2412	5.	-2.25	0.	125.13
2413	5.	-3.25	0.	125.13
2414	5.25	-3.	0.	125.11
2415	5.	-3.75	0.	125.14
2416	5.25	-3.5	0.	125.12
2417	5.	-4.25	0.	125.17
2418	4.75	-4.	0.	125.17
2419	5.25	-4.	0.	125.15
2420	5.	-4.75	0.	125.21
2421	5.25	-4.5	0.	125.17
2422	3.5	-5.25	0.	125.37
2423	3.75	-5.	0.	125.32
2424	3.25	-5.	0.	125.37
2425	2.25	-5.	0.	125.51
2426	2.5	-5.25	0.	125.51
2427	2.75	-5.	0.	125.43
2428	-2.	3.75	0.	124.28
2429	-2.25	4.	0.	124.19
2430	1.	-0.75	0.	125.95
2431	1.	-0.25	0.	125.87
2432	0.75	-0.5	0.	125.96
2433	1.	0.75	0.	125.74
2434	0.75	1.	0.	125.73
2435	-3.25	4.	0.	123.9
2436	-3.5	3.75	0.	123.74
2437	-3.75	4.	0.	123.93
2438	-4.75	4.	0.	124.35
2439	-5.	3.75	0.	124.48
2440	-5.25	4.	0.	124.63
2441	2.	-3.75	0.	125.31
2442	1.75	-3.5	0.	125.31
2443	2.	-3.25	0.	125.3
2444	2.	-2.25	0.	125.45
2445	1.75	-2.	0.	125.58
2446	-5.	5.25	0.	124.59
2447	-5.25	5.	0.	124.65
2448	5.	5.25	0.	125.16
2449	5.25	5.	0.	125.16
2450	5.	-5.25	0.	125.25
2451	5.25	-5.	0.	125.21
2452	2.	-5.25	0.	125.61
2453	1.75	-5.	0.	125.62
2454	2.	-4.75	0.	125.49
2455	-1.75	3.5	0.	124.42
2456	-1.5	3.25	0.	124.62
2457	0.5	1.25	0.	125.72
2458	0.25	1.5	0.	125.69
2459	1.5	-1.75	0.	125.71
2460	1.25	-1.5	0.	125.88
2461	-1.25	3.	0.	124.82
2462	-1.	2.75	0.	125.08
2463	1.2405e-010	1.75	0.	125.65
2464	-0.25	2.	0.	125.57
2465	-5.25	3.5	0.	124.66
2466	-5.5	3.25	0.	124.91
2467	-5.75	3.5	0.	124.99
2468	-5.5	3.75	0.	124.8
2469	1.	-1.25	0.	126.
2470	0.75	-1.	0.	126.1
2471	-0.75	2.5	0.	125.27
2472	-0.5	2.25	0.	125.46
2473	-3.	3.75	0.	123.79
2474	-2.75	4.	0.	124.
2475	1.	0.25	0.	125.8
2476	0.75	-2.4277e-010	0.	125.84
2477	0.75	0.5	0.	125.77
2478	-4.5	3.75	0.	124.14
2479	-4.25	4.	0.	124.09
2480	1.75	-4.	0.	125.36
2481	2.	-4.25	0.	125.38
2482	1.75	-2.5	0.	125.46
2483	2.	-2.75	0.	125.35
2484	-4.75	5.5	0.	124.56
2485	-5.25	5.5	0.	124.68
2486	-5.	5.75	0.	124.64
2487	-4.5	5.75	0.	124.54
2488	-4.25	5.5	0.	124.46
2489	-3.5	5.75	0.	124.43
2490	-3.75	5.5	0.	124.4
2491	-3.25	5.5	0.	124.38
2492	-2.25	5.5	0.	124.49
2493	-2.5	5.75	0.	124.48
2494	-2.75	5.5	0.	124.41
2495	-1.75	5.5	0.	124.58
2496	-2.	5.75	0.	124.56
2497	-2.	5.25	0.	124.5
2498	-1.25	5.5	0.	124.7
2499	-1.5	5.75	0.	124.66
2500	-0.75	5.5	0.	124.81
2501	-1.	5.25	0.	124.75
2502	-1.	5.75	0.	124.76
2503	-0.5	5.75	0.	124.86
2504	-0.25	5.5	0.	124.91
2505	0.5	5.75	0.	125.02
2506	0.75	5.5	0.	125.07
2507	0.5	5.25	0.	125.06
2508	0.25	5.5	0.	125.
2509	1.75	5.5	0.	125.16
2510	1.5	5.75	0.	125.12
2511	1.25	5.5	0.	125.12
2512	2.25	5.5	0.	125.18
2513	2.	5.75	0.	125.14
2514	2.5	5.75	0.	125.16
2515	2.75	5.5	0.	125.19
2516	3.5	5.75	0.	125.17
2517	3.25	5.5	0.	125.19
2518	3.75	5.5	0.	125.18
2519	4.5	5.75	0.	125.15
2520	4.25	5.5	0.	125.17
2521	4.75	5.5	0.	125.15
2522	5.75	5.5	0.	125.12
2523	5.5	5.75	0.	125.12
2524	5.25	5.5	0.	125.14
2525	5.5	5.25	0.	125.14
2526	5.5	4.25	0.	125.18
2527	5.75	4.5	0.	125.16
2528	5.5	4.75	0.	125.16
2529	5.5	3.75	0.	125.2
2530	5.75	4.	0.	125.17
2531	5.5	2.75	0.	125.22
2532	5.5	3.25	0.	125.21
2533	5.75	3.	0.	125.19
2534	5.5	2.25	0.	125.22
2535	5.75	2.5	0.	125.2
2536	5.5	1.75	0.	125.22
2537	5.75	2.	0.	125.2
2538	5.25	2.	0.	125.25
2539	5.75	1.5	0.	125.2
2540	5.5	1.25	0.	125.21
2541	5.5	0.25	0.	125.19
2542	5.75	0.5	0.	125.18
2543	5.5	0.75	0.	125.2
2544	5.5	-0.25	0.	125.17
2545	5.25	2.7153e-012	0.	125.2
2546	5.75	8.495e-012	0.	125.16
2547	5.75	-0.5	0.	125.14
2548	5.5	-0.75	0.	125.15
2549	5.75	-1.5	0.	125.11
2550	5.5	-1.75	0.	125.12
2551	5.5	-1.25	0.	125.13
2552	5.5	-2.75	0.	125.1
2553	5.75	-2.5	0.	125.09
2554	5.5	-2.25	0.	125.11
2555	5.5	-3.25	0.	125.11
2556	5.75	-3.	0.	125.1
2557	5.75	-3.5	0.	125.11
2558	5.5	-3.75	0.	125.12
2559	5.75	-4.5	0.	125.15
2560	5.5	-4.25	0.	125.15
2561	5.5	-4.75	0.	125.18
2562	5.75	-5.5	0.	125.22
2563	5.5	-5.75	0.	125.25
2564	5.25	-5.5	0.	125.25
2565	5.5	-5.25	0.	125.21
2566	4.5	-5.75	0.	125.33
2567	4.25	-5.5	0.	125.33
2568	4.75	-5.5	0.	125.29
2569	3.5	-5.75	0.	125.44
2570	3.25	-5.5	0.	125.44
2571	3.75	-5.5	0.	125.38
2572	2.25	-5.5	0.	125.61
2573	2.5	-5.75	0.	125.58
2574	2.75	-5.5	0.	125.51
2575	1.75	-5.5	0.	125.73
2576	2.	-5.75	0.	125.69
2577	1.5	-5.25	0.	125.75
2578	1.25	-5.5	0.	125.9
2579	1.5	-5.75	0.	125.83
2580	-5.75	4.5	0.	124.84
2581	-5.5	4.75	0.	124.74
2582	-5.5	4.25	0.	124.76
2583	-5.5	5.75	0.	124.75
2584	-5.75	5.5	0.	124.81
2585	-5.5	5.25	0.	124.74
2586	-2.	3.25	0.	124.23
2587	-2.25	3.5	0.	124.08
2588	0.5	-0.75	0.	126.11
2589	0.25	-0.5	0.	126.03
2590	0.5	-0.25	0.	125.94
2591	0.5	0.75	0.	125.76
2592	0.25	1.	0.	125.74
2593	-3.25	3.5	0.	123.63
2594	-3.75	3.5	0.	123.67
2595	-3.5	3.25	0.	123.4
2596	-4.75	3.5	0.	124.27
2597	-5.	3.25	0.	124.49
2598	1.5	-4.75	0.	125.61
2599	1.25	-5.	0.	125.78
2600	1.5	-3.75	0.	125.36
2601	1.5	-3.25	0.	125.36
2602	1.25	-3.5	0.	125.36
2603	1.5	-2.25	0.	125.59
2604	1.25	-2.	0.	125.79
2605	6.	5.25	0.	125.12
2606	6.	5.75	0.	125.1
2607	6.25	5.5	0.	125.1
2608	-5.25	6.	0.	124.71
2609	-5.75	6.	0.	124.81
2610	-5.5	6.25	0.	124.77
2611	1.	-5.75	0.	126.
2612	1.25	-6.	0.	125.93
2613	1.	-6.25	0.	125.96
2614	0.75	-6.	0.	126.08
2615	-1.75	3.	0.	124.43
2616	-1.5	2.75	0.	124.74
2617	1.0722e-010	1.25	0.	125.71
2618	-0.25	1.5	0.	125.68
2619	-5.25	3.	0.	124.74
2620	-5.5	2.75	0.	125.1
2621	-5.75	3.	0.	125.14
2622	1.	-5.25	0.	125.94
2623	0.75	-5.5	0.	126.13
2624	1.	-1.75	0.	125.97
2625	0.75	-1.5	0.	126.19
2626	-1.25	2.5	0.	124.99
2627	-1.	2.25	0.	125.29
2628	-0.5	1.75	0.	125.61
2629	-0.75	2.	0.	125.47
2630	0.5	-1.25	0.	126.29
2631	0.25	-1.	0.	126.32
2632	-3.	3.25	0.	123.49
2633	-2.75	3.5	0.	123.78
2634	0.25	0.5	0.	125.77
2635	0.5	0.25	0.	125.82
2636	-4.25	3.5	0.	123.91
2637	-4.	3.25	0.	123.6
2638	-4.	3.75	0.	123.87
2639	-4.5	3.25	0.	124.01
2640	1.5	-4.25	0.	125.45
2641	1.25	-4.5	0.	125.6
2642	1.75	-4.5	0.	125.48
2643	1.25	-4.	0.	125.42
2644	1.5	-2.75	0.	125.46
2645	1.25	-3.	0.	125.44
2646	1.75	-3.	0.	125.35
2647	1.25	-2.5	0.	125.62
2648	-4.75	6.	0.	124.62
2649	-5.	6.25	0.	124.68
2650	-4.5	6.25	0.	124.61
2651	-4.25	6.	0.	124.54
2652	-3.5	6.25	0.	124.52
2653	-3.75	6.	0.	124.5
2654	-3.25	6.	0.	124.48
2655	-2.5	6.25	0.	124.56
2656	-2.75	6.	0.	124.51
2657	-2.25	6.	0.	124.56
2658	-1.5	6.25	0.	124.69
2659	-1.25	6.	0.	124.72
2660	-1.75	6.	0.	124.63
2661	0.5	6.25	0.	124.98
2662	0.75	6.	0.	125.02
2663	0.25	6.	0.	124.96
2664	1.75	6.	0.	125.11
2665	1.5	6.25	0.	125.07
2666	1.25	6.	0.	125.07
2667	2.25	6.	0.	125.13
2668	2.	6.25	0.	125.1
2669	2.5	6.25	0.	125.11
2670	2.75	6.	0.	125.14
2671	3.75	6.	0.	125.14
2672	3.5	6.25	0.	125.13
2673	3.25	6.	0.	125.14
2674	4.25	6.	0.	125.14
2675	4.	6.25	0.	125.12
2676	4.	5.75	0.	125.16
2677	4.5	6.25	0.	125.12
2678	4.75	6.	0.	125.12
2679	5.75	6.	0.	125.1
2680	5.5	6.25	0.	125.09
2681	5.25	6.	0.	125.11
2682	6.	4.75	0.	125.13
2683	6.25	5.	0.	125.11
2684	5.75	5.	0.	125.14
2685	6.25	4.5	0.	125.13
2686	6.	4.25	0.	125.15
2687	6.25	3.5	0.	125.15
2688	5.75	3.5	0.	125.18
2689	6.	3.25	0.	125.17
2690	6.	3.75	0.	125.16
2691	6.	2.25	0.	125.18
2692	6.25	2.5	0.	125.16
2693	6.	2.75	0.	125.18
2694	6.	1.75	0.	125.18
2695	6.25	2.	0.	125.16
2696	6.	1.25	0.	125.17
2697	6.25	1.5	0.	125.15
2698	6.	0.75	0.	125.16
2699	5.75	1.	0.	125.19
2700	6.25	1.	0.	125.14
2701	6.25	0.5	0.	125.13
2702	6.	0.25	0.	125.15
2703	6.25	-0.5	0.	125.11
2704	6.	-0.75	0.	125.12
2705	6.	-0.25	0.	125.13
2706	6.	-1.75	0.	125.09
2707	6.25	-1.5	0.	125.08
2708	6.	-1.25	0.	125.1
2709	6.	-2.25	0.	125.08
2710	6.25	-2.	0.	125.07
2711	5.75	-2.	0.	125.1
2712	6.25	-2.5	0.	125.07
2713	6.	-2.75	0.	125.08
2714	6.25	-3.5	0.	125.08
2715	6.	-3.25	0.	125.09
2716	6.	-3.75	0.	125.1
2717	6.	-4.75	0.	125.15
2718	6.25	-4.5	0.	125.12
2719	6.	-4.25	0.	125.13
2720	6.	-5.25	0.	125.18
2721	6.25	-5.	0.	125.15
2722	5.75	-5.	0.	125.18
2723	6.	-5.75	0.	125.22
2724	6.25	-5.5	0.	125.18
2725	4.5	-6.25	0.	125.38
2726	4.25	-6.	0.	125.38
2727	4.75	-6.	0.	125.33
2728	3.5	-6.25	0.	125.49
2729	3.25	-6.	0.	125.5
2730	3.75	-6.	0.	125.44
2731	2.25	-6.	0.	125.67
2732	2.5	-6.25	0.	125.63
2733	2.75	-6.	0.	125.58
2734	1.75	-6.	0.	125.79
2735	2.	-6.25	0.	125.73
2736	1.5	-6.25	0.	125.84
2737	-6.25	3.5	0.	125.23
2738	-6.	3.75	0.	125.07
2739	-6.	3.25	0.	125.22
2740	-6.25	4.5	0.	125.02
2741	-6.	4.25	0.	124.98
2742	-6.	4.75	0.	124.92
2743	-6.	5.75	0.	124.87
2744	-6.25	5.5	0.	124.94
2745	-6.	5.25	0.	124.89
2746	6.25	-6.	0.	125.21
2747	6.	-6.25	0.	125.25
2748	5.75	-6.	0.	125.25
2749	6.	6.25	0.	125.08
2750	6.25	6.	0.	125.08
2751	-6.25	6.	0.	124.92
2752	-6.	6.25	0.	124.87
2753	-5.75	2.5	0.	125.39
2754	-6.	2.25	0.	125.72
2755	-6.25	2.5	0.	125.64
2756	-6.	2.75	0.	125.44
2757	-2.	2.75	0.	124.23
2758	-2.25	3.	0.	123.96
2759	3.7188e-011	-0.75	0.	126.23
2760	-0.25	-0.5	0.	125.96
2761	4.6257e-011	-0.25	0.	125.93
2762	8.4143e-011	0.75	0.	125.74
2763	-0.25	1.	0.	125.72
2764	-3.25	3.	0.	123.26
2765	-3.5	2.75	0.	122.92
2766	-3.75	3.	0.	123.32
2767	-4.75	3.	0.	124.22
2768	-5.	2.75	0.	124.57
2769	1.	-4.75	0.	125.77
2770	0.75	-5.	0.	126.03
2771	1.	-3.75	0.	125.42
2772	1.	-3.25	0.	125.44
2773	0.75	-3.5	0.	125.42
2774	1.	-2.25	0.	125.82
2775	0.75	-2.	0.	126.13
2776	-1.75	2.5	0.	124.54
2777	-1.5	2.25	0.	124.96
2778	-0.5	1.25	0.	125.7
2779	-0.75	1.5	0.	125.66
2780	-5.25	2.5	0.	124.93
2781	-5.5	2.25	0.	125.42
2782	0.5	-5.25	0.	126.22
2783	0.25	-5.5	0.	126.43
2784	0.5	-5.75	0.	126.22
2785	-2.75	-6.5	0.	121.56
2786	-3.25	-6.5	0.	121.52
2787	-3.	-6.25	0.	120.79
2788	-3.	-6.75	0.	121.7
2789	0.5	-1.75	0.	126.35
2790	0.25	-1.5	0.	126.6
2791	-6.	-6.25	0.	126.15
2792	-6.25	-6.5	0.	126.03
2793	-5.75	-6.5	0.	125.8
2794	-6.	-6.75	0.	125.79
2795	6.5	-5.75	0.	125.18
2796	6.5	-6.25	0.	125.21
2797	6.75	-6.	0.	125.18
2798	5.75	6.5	0.	125.07
2799	6.25	6.5	0.	125.06
2800	6.	6.75	0.	125.06
2801	-6.5	5.75	0.	124.98
2802	-6.5	6.25	0.	124.96
2803	-6.75	6.	0.	125.01
2804	-1.25	2.	0.	125.25
2805	-1.	1.75	0.	125.52
2806	-6.25	2.	0.	125.91
2807	-6.	1.75	0.	126.04
2808	-5.75	2.	0.	125.75
2809	4.7907e-011	-6.25	0.	126.1
2810	6.6229e-011	-5.75	0.	126.44
2811	-0.25	-6.	0.	126.26
2812	0.25	-6.	0.	126.23
2813	-5.75	-6.	0.	126.27
2814	-6.	-5.75	0.	126.49
2815	-6.25	-6.	0.	126.33
2816	3.4078e-011	-1.25	0.	126.63
2817	-0.25	-1.	0.	126.47
2818	-2.75	3.	0.	123.52
2819	-3.	2.75	0.	123.09
2820	-0.25	0.5	0.	125.7
2821	6.2668e-011	0.25	0.	125.78
2822	-4.5	2.75	0.	123.89
2823	-4.25	3.	0.	123.69
2824	1.	-4.25	0.	125.56
2825	0.75	-4.5	0.	125.78
2826	0.75	-4.	0.	125.52
2827	1.	-2.75	0.	125.61
2828	0.75	-3.	0.	125.59
2829	0.75	-2.5	0.	125.89
2830	-5.25	6.5	0.	124.74
2831	-5.5	6.75	0.	124.79
2832	-5.75	6.5	0.	124.82
2833	-4.75	6.5	0.	124.67
2834	-5.	6.75	0.	124.72
2835	-4.5	6.75	0.	124.66
2836	-4.25	6.5	0.	124.61
2837	-3.25	6.5	0.	124.57
2838	-3.5	6.75	0.	124.6
2839	-3.75	6.5	0.	124.58
2840	-2.75	6.5	0.	124.58
2841	-3.	6.75	0.	124.6
2842	-3.	6.25	0.	124.53
2843	-2.25	6.5	0.	124.62
2844	-2.5	6.75	0.	124.62
2845	-1.75	6.5	0.	124.67
2846	-2.	6.75	0.	124.66
2847	-2.	6.25	0.	124.62
2848	-1.5	6.75	0.	124.72
2849	-1.25	6.5	0.	124.74
2850	-0.5	6.75	0.	124.84
2851	-0.5	6.25	0.	124.85
2852	-0.75	6.5	0.	124.81
2853	-0.25	6.5	0.	124.87
2854	0.5	6.75	0.	124.95
2855	0.25	6.5	0.	124.94
2856	0.75	6.5	0.	124.99
2857	1.75	6.5	0.	125.06
2858	1.5	6.75	0.	125.03
2859	1.25	6.5	0.	125.03
2860	2.25	6.5	0.	125.08
2861	2.	6.75	0.	125.05
2862	2.5	6.75	0.	125.07
2863	2.75	6.5	0.	125.1
2864	3.75	6.5	0.	125.11
2865	3.5	6.75	0.	125.09
2866	3.25	6.5	0.	125.1
2867	4.25	6.5	0.	125.1
2868	4.	6.75	0.	125.09
2869	4.75	6.5	0.	125.1
2870	4.5	6.75	0.	125.08
2871	5.25	6.5	0.	125.09
2872	5.	6.75	0.	125.08
2873	5.	6.25	0.	125.1
2874	5.5	6.75	0.	125.07
2875	6.5	5.75	0.	125.08
2876	6.5	6.25	0.	125.06
2877	6.75	6.	0.	125.06
2878	6.75	5.5	0.	125.08
2879	6.5	5.25	0.	125.09
2880	6.75	4.5	0.	125.1
2881	6.5	4.75	0.	125.11
2882	6.5	4.25	0.	125.12
2883	6.75	3.5	0.	125.11
2884	6.5	3.25	0.	125.13
2885	6.5	3.75	0.	125.13
2886	6.5	2.25	0.	125.14
2887	6.75	2.5	0.	125.12
2888	6.5	2.75	0.	125.14
2889	6.5	1.75	0.	125.13
2890	6.75	2.	0.	125.12
2891	6.75	1.5	0.	125.11
2892	6.5	1.25	0.	125.13
2893	6.5	0.25	0.	125.11
2894	6.75	0.5	0.	125.09
2895	6.5	0.75	0.	125.12
2896	6.5	-0.25	0.	125.1
2897	6.75	9.7442e-012	0.	125.08
2898	6.25	1.0165e-011	0.	125.12
2899	6.5	-0.75	0.	125.08
2900	6.75	-0.5	0.	125.07
2901	6.5	-1.25	0.	125.07
2902	6.75	-1.	0.	125.06
2903	6.25	-1.	0.	125.09
2904	6.5	-1.75	0.	125.06
2905	6.75	-1.5	0.	125.05
2906	6.5	-2.25	0.	125.06
2907	6.75	-2.	0.	125.05
2908	6.75	-2.5	0.	125.05
2909	6.5	-2.75	0.	125.06
2910	6.5	-3.75	0.	125.08
2911	6.75	-3.5	0.	125.06
2912	6.5	-3.25	0.	125.07
2913	6.5	-4.25	0.	125.1
2914	6.75	-4.	0.	125.08
2915	6.25	-4.	0.	125.1
2916	6.5	-4.75	0.	125.12
2917	6.75	-4.5	0.	125.1
2918	6.5	-5.25	0.	125.15
2919	6.75	-5.	0.	125.12
2920	6.75	-5.5	0.	125.15
2921	5.25	-6.5	0.	125.33
2922	5.5	-6.75	0.	125.32
2923	5.75	-6.5	0.	125.29
2924	5.5	-6.25	0.	125.29
2925	4.75	-6.5	0.	125.38
2926	5.	-6.75	0.	125.37
2927	5.	-6.25	0.	125.33
2928	4.25	-6.5	0.	125.43
2929	4.5	-6.75	0.	125.42
2930	3.75	-6.5	0.	125.48
2931	4.	-6.75	0.	125.47
2932	4.	-6.25	0.	125.43
2933	3.5	-6.75	0.	125.53
2934	3.25	-6.5	0.	125.54
2935	2.25	-6.5	0.	125.69
2936	2.5	-6.75	0.	125.65
2937	2.75	-6.5	0.	125.61
2938	1.75	-6.5	0.	125.78
2939	2.	-6.75	0.	125.72
2940	1.25	-6.5	0.	125.87
2941	1.5	-6.75	0.	125.79
2942	0.75	-6.5	0.	125.93
2943	1.	-6.75	0.	125.84
2944	0.25	-6.5	0.	125.93
2945	0.5	-6.75	0.	125.84
2946	0.5	-6.25	0.	126.06
2947	-0.25	-6.5	0.	125.79
2948	2.5275e-011	-6.75	0.	125.74
2949	-0.75	-6.5	0.	125.37
2950	-0.5	-6.25	0.	125.95
2951	-0.5	-6.75	0.	125.45
2952	-6.5	-5.25	0.	126.41
2953	-6.25	-5.5	0.	126.54
2954	-6.75	-5.5	0.	126.35
2955	-6.5	-5.75	0.	126.38
2956	-6.5	1.75	0.	126.04
2957	-6.5	1.25	0.	126.18
2958	-6.25	1.5	0.	126.17
2959	-6.75	1.5	0.	126.09
2960	-6.5	2.25	0.	125.83
2961	-6.75	2.	0.	125.94
2962	-6.75	2.5	0.	125.75
2963	-6.5	2.75	0.	125.61
2964	-6.75	3.5	0.	125.4
2965	-6.5	3.25	0.	125.42
2966	-6.5	3.75	0.	125.27
2967	-6.75	4.5	0.	125.17
2968	-6.5	4.75	0.	125.07
2969	-6.5	4.25	0.	125.16
2970	-6.75	5.5	0.	125.05
2971	-6.5	5.25	0.	125.02
2972	-2.	2.25	0.	124.36
2973	-2.25	2.5	0.	123.89
2974	-0.5	-0.75	0.	126.19
2975	-0.75	-0.5	0.	125.65
2976	-0.5	-0.25	0.	125.76
2977	-0.5	0.75	0.	125.69
2978	-0.75	1.	0.	125.73
2979	-6.75	1.	0.	126.15
2980	-6.25	1.	0.	126.31
2981	-6.5	0.75	0.	126.2
2982	-6.5	-0.25	0.	126.18
2983	-6.75	-0.5	0.	126.19
2984	-6.25	-0.5	0.	126.25
2985	-6.5	-0.75	0.	126.4
2986	-3.5	2.25	0.	122.19
2987	-3.75	2.5	0.	122.83
2988	-3.25	2.5	0.	122.74
2989	-4.75	2.5	0.	124.23
2990	-5.	2.25	0.	124.81
2991	0.25	-5.	0.	126.41
2992	0.5	-4.75	0.	126.04
2993	-2.5	-6.75	0.	122.06
2994	-2.5	-6.25	0.	121.39
2995	-2.25	-6.5	0.	122.32
2996	-1.25	-6.5	0.	124.59
2997	-1.	-6.25	0.	125.41
2998	-1.	-6.75	0.	124.88
2999	-3.75	-6.5	0.	122.24
3000	-3.5	-6.75	0.	122.01
3001	-3.5	-6.25	0.	121.31
3002	-6.5	-4.75	0.	126.27
3003	-6.75	-5.	0.	126.29
3004	-6.25	-5.	0.	126.55
3005	-6.5	-1.75	0.	126.93
3006	-6.25	-2.	0.	127.38
3007	-6.5	-2.25	0.	126.83
3008	-6.75	-2.	0.	126.72
3009	-6.5	-3.25	0.	126.04
3010	-6.75	-3.5	0.	125.88
3011	-6.25	-3.5	0.	125.85
3012	-6.5	-3.75	0.	125.89
3013	0.5	-3.25	0.	125.57
3014	0.25	-3.5	0.	125.5
3015	0.5	-3.75	0.	125.51
3016	0.5	-2.25	0.	126.19
3017	0.25	-2.	0.	126.65
3018	-6.75	-6.5	0.	126.11
3019	-6.5	-6.75	0.	125.97
3020	-6.5	-6.25	0.	126.2
3021	6.5	-6.75	0.	125.24
3022	6.75	-6.5	0.	125.21
3023	6.25	-6.5	0.	125.24
3024	6.75	6.5	0.	125.05
3025	6.5	6.75	0.	125.05
3026	-6.5	6.75	0.	124.94
3027	-6.75	6.5	0.	124.99
3028	-6.25	6.5	0.	124.9
3029	-1.75	2.	0.	124.79
3030	-1.5	1.75	0.	125.31
3031	-1.	1.25	0.	125.69
3032	-1.25	1.5	0.	125.57
3033	-6.	1.25	0.	126.31
3034	-5.75	1.5	0.	126.18
3035	-5.25	2.	0.	125.3
3036	-5.5	1.75	0.	125.89
3037	7.3324e-011	-5.25	0.	126.61
3038	-0.25	-5.5	0.	126.73
3039	-0.75	-6.	0.	125.99
3040	-0.5	-5.75	0.	126.55
3041	-5.25	-6.	0.	125.91
3042	-5.5	-5.75	0.	126.5
3043	-5.5	-6.25	0.	125.92
3044	-2.75	-6.	0.	120.62
3045	-3.25	-6.	0.	120.57
3046	-3.	-5.75	0.	119.46
3047	-6.	-5.25	0.	126.68
3048	-5.75	-5.5	0.	126.73
3049	3.2422e-011	-1.75	0.	126.9
3050	-0.25	-1.5	0.	127.08
3051	-0.5	-1.25	0.	126.92
3052	-0.75	-1.	0.	126.37
3053	-0.75	0.5	0.	125.62
3054	-0.5	0.25	0.	125.65
3055	-6.25	-1.5	0.	127.23
3056	-6.5	-1.25	0.	126.73
3057	-6.75	-1.5	0.	126.68
3058	-6.25	1.9049e-011	0.	126.15
3059	-6.75	1.4807e-011	0.	126.1
3060	-6.5	0.25	0.	126.16
3061	-4.5	2.25	0.	123.82
3062	-4.25	2.5	0.	123.43
3063	-1.5	-6.75	0.	124.
3064	-1.5	-6.25	0.	124.33
3065	-1.75	-6.5	0.	123.48
3066	-4.	-6.25	0.	122.67
3067	-4.25	-6.5	0.	123.38
3068	-4.	-6.75	0.	122.87
3069	-6.75	-4.5	0.	126.09
3070	-6.25	-4.5	0.	126.28
3071	-6.5	-4.25	0.	126.03
3072	-6.25	-3.	0.	126.3
3073	-6.5	-2.75	0.	126.44
3074	-6.75	-3.	0.	126.13
3075	0.5	-2.75	0.	125.86
3076	0.25	-3.	0.	125.82
3077	0.25	-2.5	0.	126.34
3078	-5.75	7.	0.	124.83
3079	-6.25	7.	0.	124.9
3080	-6.	7.25	0.	124.86
3081	-6.	6.75	0.	124.86
3082	-5.25	7.	0.	124.77
3083	-5.5	7.25	0.	124.8
3084	-4.75	7.	0.	124.71
3085	-5.	7.25	0.	124.75
3086	-4.5	7.25	0.	124.7
3087	-4.25	7.	0.	124.67
3088	-3.5	7.25	0.	124.65
3089	-3.25	7.	0.	124.63
3090	-3.75	7.	0.	124.64
3091	-1.75	7.	0.	124.71
3092	-2.	7.25	0.	124.7
3093	-2.25	7.	0.	124.67
3094	-1.5	7.25	0.	124.74
3095	-1.25	7.	0.	124.76
3096	-0.5	7.25	0.	124.84
3097	-0.25	7.	0.	124.86
3098	-0.75	7.	0.	124.81
3099	0.5	7.25	0.	124.93
3100	0.25	7.	0.	124.91
3101	0.75	7.	0.	124.96
3102	1.75	7.	0.	125.02
3103	1.5	7.25	0.	124.99
3104	1.25	7.	0.	124.99
3105	2.25	7.	0.	125.04
3106	2.	7.25	0.	125.02
3107	2.5	7.25	0.	125.03
3108	2.75	7.	0.	125.06
3109	3.5	7.25	0.	125.05
3110	3.25	7.	0.	125.07
3111	3.75	7.	0.	125.07
3112	4.5	7.25	0.	125.06
3113	4.75	7.	0.	125.07
3114	4.25	7.	0.	125.07
3115	5.75	7.	0.	125.05
3116	5.5	7.25	0.	125.05
3117	5.25	7.	0.	125.06
3118	-7.	-6.75	0.	126.04
3119	-7.25	-6.5	0.	126.12
3120	-7.	-6.25	0.	126.18
3121	6.75	-7.	0.	125.23
3122	6.5	-7.25	0.	125.26
3123	6.25	-7.	0.	125.27
3124	7.	6.25	0.	125.05
3125	7.25	6.5	0.	125.04
3126	7.	6.75	0.	125.04
3127	6.25	7.	0.	125.05
3128	6.	7.25	0.	125.04
3129	6.5	7.25	0.	125.04
3130	6.75	7.	0.	125.04
3131	7.	5.75	0.	125.06
3132	7.25	6.	0.	125.05
3133	7.25	5.5	0.	125.06
3134	7.	5.25	0.	125.07
3135	7.25	4.5	0.	125.07
3136	7.	4.75	0.	125.08
3137	7.	4.25	0.	125.09
3138	7.	3.25	0.	125.1
3139	7.25	3.5	0.	125.08
3140	7.	3.75	0.	125.09
3141	7.	2.75	0.	125.1
3142	7.25	3.	0.	125.08
3143	6.75	3.	0.	125.12
3144	7.25	2.5	0.	125.08
3145	7.	2.25	0.	125.1
3146	7.	1.25	0.	125.09
3147	7.25	1.5	0.	125.07
3148	7.	1.75	0.	125.09
3149	7.	0.75	0.	125.08
3150	7.25	1.	0.	125.06
3151	6.75	1.	0.	125.1
3152	7.	0.25	0.	125.07
3153	7.25	0.5	0.	125.05
3154	7.	-0.25	0.	125.06
3155	7.25	8.2857e-012	0.	125.05
3156	7.	-0.75	0.	125.05
3157	7.25	-0.5	0.	125.04
3158	7.	-1.25	0.	125.04
3159	7.25	-1.	0.	125.03
3160	7.	-1.75	0.	125.04
3161	7.25	-1.5	0.	125.02
3162	7.	-2.25	0.	125.03
3163	7.25	-2.	0.	125.02
3164	7.	-2.75	0.	125.04
3165	7.25	-2.5	0.	125.02
3166	7.	-3.25	0.	125.04
3167	7.25	-3.	0.	125.03
3168	6.75	-3.	0.	125.05
3169	7.	-3.75	0.	125.06
3170	7.25	-3.5	0.	125.04
3171	7.25	-4.	0.	125.05
3172	7.	-4.25	0.	125.08
3173	7.	-5.25	0.	125.12
3174	7.25	-5.	0.	125.09
3175	7.	-4.75	0.	125.1
3176	7.	-5.75	0.	125.15
3177	7.25	-5.5	0.	125.12
3178	7.	-6.25	0.	125.17
3179	7.25	-6.	0.	125.14
3180	7.	-6.75	0.	125.2
3181	7.25	-6.5	0.	125.17
3182	5.25	-7.	0.	125.36
3183	5.5	-7.25	0.	125.35
3184	5.75	-7.	0.	125.32
3185	4.75	-7.	0.	125.41
3186	5.	-7.25	0.	125.4
3187	4.5	-7.25	0.	125.45
3188	4.25	-7.	0.	125.46
3189	3.5	-7.25	0.	125.55
3190	3.75	-7.	0.	125.51
3191	3.25	-7.	0.	125.57
3192	2.25	-7.	0.	125.68
3193	2.5	-7.25	0.	125.64
3194	2.75	-7.	0.	125.63
3195	1.75	-7.	0.	125.73
3196	2.	-7.25	0.	125.68
3197	1.25	-7.	0.	125.76
3198	1.5	-7.25	0.	125.7
3199	0.75	-7.	0.	125.74
3200	1.	-7.25	0.	125.69
3201	0.25	-7.	0.	125.64
3202	0.5	-7.25	0.	125.61
3203	6.6054e-012	-7.25	0.	125.42
3204	-0.25	-7.	0.	125.4
3205	-1.5	-7.25	0.	123.87
3206	-1.25	-7.	0.	124.29
3207	-1.75	-7.	0.	123.47
3208	-2.5	-7.25	0.	122.54
3209	-2.75	-7.	0.	122.2
3210	-2.25	-7.	0.	122.69
3211	-3.5	-7.25	0.	122.51
3212	-3.25	-7.	0.	122.18
3213	-3.75	-7.	0.	122.64
3214	-4.75	-7.	0.	124.23
3215	-4.5	-7.25	0.	123.81
3216	-4.5	-6.75	0.	123.91
3217	-4.25	-7.	0.	123.41
3218	-5.25	-7.	0.	124.93
3219	-5.	-6.75	0.	124.82
3220	-5.	-7.25	0.	124.52
3221	-5.5	-6.75	0.	125.44
3222	-5.5	-7.25	0.	125.08
3223	-5.75	-7.	0.	125.42
3224	-6.75	-7.	0.	125.9
3225	-6.5	-7.25	0.	125.73
3226	-6.25	-7.	0.	125.73
3227	-7.	-5.25	0.	126.23
3228	-7.25	-5.5	0.	126.21
3229	-7.	-5.75	0.	126.25
3230	-7.	-4.75	0.	126.11
3231	-7.25	-5.	0.	126.13
3232	-7.	-4.25	0.	125.95
3233	-7.25	-4.5	0.	125.99
3234	-7.	-3.75	0.	125.88
3235	-7.25	-4.	0.	125.87
3236	-6.75	-4.	0.	125.89
3237	-7.25	-3.5	0.	125.86
3238	-7.	-3.25	0.	125.96
3239	-7.25	-2.5	0.	126.18
3240	-6.75	-2.5	0.	126.49
3241	-7.	-2.75	0.	126.17
3242	-7.	-2.25	0.	126.38
3243	-7.	-0.75	0.	126.22
3244	-7.25	-1.	0.	126.2
3245	-6.75	-1.	0.	126.43
3246	-7.	-1.25	0.	126.38
3247	-7.25	-0.5	0.	126.08
3248	-7.	-0.25	0.	126.11
3249	-7.	0.75	0.	126.08
3250	-7.25	0.5	0.	126.03
3251	-7.	0.25	0.	126.07
3252	-6.75	0.5	0.	126.13
3253	-7.	1.25	0.	126.07
3254	-7.25	1.	0.	126.04
3255	-7.25	1.5	0.	126.
3256	-7.	1.75	0.	125.99
3257	-7.	2.75	0.	125.69
3258	-7.25	2.5	0.	125.78
3259	-7.	2.25	0.	125.85
3260	-7.	3.25	0.	125.54
3261	-7.25	3.	0.	125.64
3262	-6.75	3.	0.	125.56
3263	-7.25	3.5	0.	125.5
3264	-7.	3.75	0.	125.4
3265	-7.25	4.5	0.	125.29
3266	-7.	4.75	0.	125.2
3267	-7.	4.25	0.	125.29
3268	-7.25	5.5	0.	125.15
3269	-7.	5.25	0.	125.13
3270	-7.	5.75	0.	125.08
3271	-6.75	7.	0.	124.96
3272	-6.5	7.25	0.	124.92
3273	-7.	6.75	0.	125.01
3274	-7.25	6.5	0.	125.06
3275	-7.	6.25	0.	125.04
3276	-2.	1.75	0.	124.74
3277	-2.25	2.	0.	123.93
3278	-1.	-0.75	0.	125.83
3279	-1.25	-0.5	0.	125.05
3280	-1.	-0.25	0.	125.36
3281	-1.	0.75	0.	125.66
3282	-1.25	1.	0.	125.79
3283	-6.	0.75	0.	126.38
3284	-5.75	1.	0.	126.53
3285	-6.	-0.75	0.	126.56
3286	-6.	-0.25	0.	126.21
3287	-5.75	-0.5	0.	126.24
3288	-3.25	2.	0.	121.97
3289	-3.5	1.75	0.	120.99
3290	-3.75	2.	0.	122.1
3291	-4.75	2.	0.	124.4
3292	-5.	1.75	0.	125.33
3293	6.7988e-011	-4.75	0.	126.47
3294	-0.25	-5.	0.	126.96
3295	-2.5	-5.75	0.	120.47
3296	-2.25	-6.	0.	121.87
3297	-1.25	-6.	0.	125.15
3298	-1.	-5.75	0.	126.25
3299	-5.	-5.75	0.	126.11
3300	-5.	-6.25	0.	125.32
3301	-4.75	-6.	0.	125.01
3302	-3.75	-6.	0.	121.74
3303	-3.5	-5.75	0.	120.34
3304	-6.	-4.75	0.	126.56
3305	-5.75	-5.	0.	126.97
3306	-6.	-1.75	0.	127.67
3307	-6.	-2.25	0.	127.53
3308	-5.75	-2.	0.	128.35
3309	-6.	-3.75	0.	125.87
3310	-6.	-3.25	0.	126.11
3311	-5.75	-3.5	0.	125.78
3312	4.3396e-011	-3.75	0.	125.65
3313	3.5267e-011	-3.25	0.	125.75
3314	-0.25	-3.5	0.	125.65
3315	3.0817e-011	-2.25	0.	126.79
3316	-0.25	-2.	0.	127.43
3317	-0.75	-1.5	0.	127.48
3318	-0.5	-1.75	0.	127.62
3319	-1.	-1.25	0.	126.93
3320	-1.25	-1.	0.	125.86
3321	-1.5	1.25	0.	125.67
3322	-1.75	1.5	0.	125.26
3323	-5.25	1.5	0.	125.92
3324	-5.5	1.25	0.	126.4
3325	-0.5	-5.25	0.	127.08
3326	-0.75	-5.5	0.	126.81
3327	-5.5	-5.25	0.	127.02
3328	-5.25	-5.5	0.	126.7
3329	-7.	-7.25	0.	125.89
3330	-7.25	-7.	0.	126.
3331	7.25	-7.	0.	125.19
3332	7.	-7.25	0.	125.22
3333	-7.	7.25	0.	124.98
3334	-7.25	7.	0.	125.03
3335	-3.	-5.25	0.	117.62
3336	-3.25	-5.5	0.	119.21
3337	-2.75	-5.5	0.	119.29
3338	-3.	1.75	0.	121.77
3339	-3.	2.25	0.	122.53
3340	-2.75	2.	0.	122.8
3341	-1.25	0.5	0.	125.63
3342	-1.	0.25	0.	125.45
3343	-6.	-1.25	0.	127.21
3344	-5.75	-1.	0.	127.02
3345	-6.25	-1.	0.	126.71
3346	-5.75	-1.5	0.	128.03
3347	-6.	0.25	0.	126.26
3348	-6.25	0.5	0.	126.27
3349	-5.75	0.5	0.	126.51
3350	-5.75	2.1618e-011	0.	126.18
3351	-4.5	1.75	0.	123.97
3352	-4.25	2.	0.	123.14
3353	5.5544e-011	-4.25	0.	126.03
3354	-0.25	-4.5	0.	126.67
3355	0.25	-4.5	0.	126.1
3356	-0.25	-4.	0.	125.94
3357	0.25	-4.	0.	125.67
3358	-1.5	-5.75	0.	125.01
3359	-1.75	-6.	0.	123.65
3360	-4.	-5.75	0.	122.57
3361	-4.25	-6.	0.	123.49
3362	-6.	-4.25	0.	126.17
3363	-5.75	-4.	0.	126.
3364	-6.25	-4.	0.	125.91
3365	-5.75	-4.5	0.	126.69
3366	-6.	-2.75	0.	126.84
3367	-5.75	-2.5	0.	127.73
3368	-6.25	-2.5	0.	126.98
3369	-5.75	-3.	0.	126.54
3370	3.1119e-011	-2.75	0.	126.29
3371	-0.25	-3.	0.	126.23
3372	-0.25	-2.5	0.	127.13
3373	-1.25	-1.5	0.	127.33
3374	-1.	-1.75	0.	128.35
3375	-2.75	-5.	0.	117.52
3376	-3.25	-5.	0.	117.4
3377	-3.	-4.75	0.	116.31
3378	-6.75	7.5	0.	124.95
3379	-7.25	7.5	0.	125.
3380	-7.	7.75	0.	124.96
3381	-6.25	7.5	0.	124.89
3382	-6.5	7.75	0.	124.91
3383	-5.75	7.5	0.	124.84
3384	-6.	7.75	0.	124.86
3385	-5.25	7.5	0.	124.79
3386	-5.5	7.75	0.	124.81
3387	-4.75	7.5	0.	124.74
3388	-5.	7.75	0.	124.77
3389	-4.25	7.5	0.	124.71
3390	-4.5	7.75	0.	124.74
3391	-3.75	7.5	0.	124.69
3392	-4.	7.75	0.	124.71
3393	-4.	7.25	0.	124.67
3394	-3.25	7.5	0.	124.68
3395	-3.5	7.75	0.	124.7
3396	-2.75	7.5	0.	124.69
3397	-3.	7.75	0.	124.7
3398	-3.	7.25	0.	124.65
3399	-2.25	7.5	0.	124.7
3400	-2.5	7.75	0.	124.71
3401	-2.5	7.25	0.	124.67
3402	-1.75	7.5	0.	124.73
3403	-2.	7.75	0.	124.73
3404	-1.25	7.5	0.	124.77
3405	-1.5	7.75	0.	124.76
3406	-0.75	7.5	0.	124.81
3407	-1.	7.75	0.	124.79
3408	-1.	7.25	0.	124.79
3409	-0.25	7.5	0.	124.85
3410	-0.5	7.75	0.	124.83
3411	0.25	7.5	0.	124.89
3412	-7.1962e-011	7.75	0.	124.87
3413	-1.0338e-010	7.25	0.	124.88
3414	0.75	7.5	0.	124.93
3415	0.5	7.75	0.	124.9
3416	1.25	7.5	0.	124.96
3417	1.	7.75	0.	124.93
3418	1.	7.25	0.	124.96
3419	1.75	7.5	0.	124.99
3420	1.5	7.75	0.	124.96
3421	2.25	7.5	0.	125.01
3422	2.	7.75	0.	124.98
3423	2.75	7.5	0.	125.02
3424	2.5	7.75	0.	125.
3425	3.25	7.5	0.	125.03
3426	3.	7.75	0.	125.01
3427	3.	7.25	0.	125.05
3428	3.75	7.5	0.	125.04
3429	3.5	7.75	0.	125.02
3430	4.25	7.5	0.	125.04
3431	4.	7.75	0.	125.03
3432	4.	7.25	0.	125.06
3433	4.75	7.5	0.	125.04
3434	4.5	7.75	0.	125.03
3435	5.25	7.5	0.	125.04
3436	5.	7.75	0.	125.03
3437	5.	7.25	0.	125.05
3438	5.75	7.5	0.	125.04
3439	5.5	7.75	0.	125.03
3440	6.25	7.5	0.	125.03
3441	6.	7.75	0.	125.03
3442	6.75	7.5	0.	125.03
3443	6.5	7.75	0.	125.02
3444	7.25	7.5	0.	125.02
3445	7.	7.75	0.	125.02
3446	7.	7.25	0.	125.03
3447	7.5	7.25	0.	125.02
3448	7.5	7.75	0.	125.01
3449	7.75	7.5	0.	125.01
3450	7.5	6.75	0.	125.03
3451	7.75	7.	0.	125.02
3452	7.25	7.	0.	125.03
3453	7.5	6.25	0.	125.03
3454	7.75	6.5	0.	125.02
3455	7.5	5.75	0.	125.04
3456	7.75	6.	0.	125.03
3457	7.5	5.25	0.	125.05
3458	7.75	5.5	0.	125.04
3459	7.5	4.75	0.	125.06
3460	7.75	5.	0.	125.04
3461	7.25	5.	0.	125.06
3462	7.5	4.25	0.	125.06
3463	7.75	4.5	0.	125.05
3464	7.5	3.75	0.	125.06
3465	7.75	4.	0.	125.05
3466	7.25	4.	0.	125.08
3467	7.5	3.25	0.	125.06
3468	7.75	3.5	0.	125.05
3469	7.5	2.75	0.	125.06
3470	7.75	3.	0.	125.05
3471	7.5	2.25	0.	125.06
3472	7.75	2.5	0.	125.04
3473	7.5	1.75	0.	125.05
3474	7.75	2.	0.	125.04
3475	7.25	2.	0.	125.08
3476	7.5	1.25	0.	125.05
3477	7.75	1.5	0.	125.03
3478	7.5	0.75	0.	125.04
3479	7.75	1.	0.	125.02
3480	7.5	0.25	0.	125.03
3481	7.75	0.5	0.	125.02
3482	7.5	-0.25	0.	125.02
3483	7.75	6.5319e-012	0.	125.01
3484	7.5	-0.75	0.	125.01
3485	7.75	-0.5	0.	125.
3486	7.5	-1.25	0.	125.01
3487	7.75	-1.	0.	124.99
3488	7.5	-1.75	0.	125.01
3489	7.75	-1.5	0.	124.99
3490	7.5	-2.25	0.	125.01
3491	7.75	-2.	0.	124.99
3492	7.5	-2.75	0.	125.01
3493	7.75	-2.5	0.	124.99
3494	7.5	-3.25	0.	125.02
3495	7.75	-3.	0.	125.
3496	7.5	-3.75	0.	125.03
3497	7.75	-3.5	0.	125.01
3498	7.5	-4.25	0.	125.05
3499	7.75	-4.	0.	125.02
3500	7.5	-4.75	0.	125.07
3501	7.75	-4.5	0.	125.04
3502	7.25	-4.5	0.	125.07
3503	7.5	-5.25	0.	125.09
3504	7.75	-5.	0.	125.06
3505	7.5	-5.75	0.	125.11
3506	7.75	-5.5	0.	125.09
3507	7.75	-6.	0.	125.11
3508	7.5	-6.25	0.	125.14
3509	7.5	-7.25	0.	125.18
3510	7.75	-7.	0.	125.16
3511	7.5	-6.75	0.	125.16
3512	7.25	-7.5	0.	125.21
3513	7.75	-7.5	0.	125.18
3514	7.5	-7.75	0.	125.2
3515	6.75	-7.5	0.	125.25
3516	7.	-7.75	0.	125.24
3517	6.25	-7.5	0.	125.3
3518	6.5	-7.75	0.	125.29
3519	5.75	-7.5	0.	125.34
3520	6.	-7.75	0.	125.33
3521	6.	-7.25	0.	125.31
3522	5.25	-7.5	0.	125.39
3523	5.5	-7.75	0.	125.38
3524	4.75	-7.5	0.	125.44
3525	5.	-7.75	0.	125.42
3526	4.25	-7.5	0.	125.48
3527	4.5	-7.75	0.	125.47
3528	3.75	-7.5	0.	125.53
3529	4.	-7.75	0.	125.52
3530	4.	-7.25	0.	125.5
3531	3.25	-7.5	0.	125.58
3532	3.5	-7.75	0.	125.56
3533	2.75	-7.5	0.	125.62
3534	3.	-7.75	0.	125.59
3535	3.	-7.25	0.	125.6
3536	2.25	-7.5	0.	125.65
3537	2.5	-7.75	0.	125.62
3538	1.75	-7.5	0.	125.66
3539	2.	-7.75	0.	125.63
3540	1.25	-7.5	0.	125.63
3541	1.5	-7.75	0.	125.6
3542	0.75	-7.5	0.	125.55
3543	1.	-7.75	0.	125.54
3544	0.25	-7.5	0.	125.39
3545	0.5	-7.75	0.	125.4
3546	-0.25	-7.5	0.	125.11
3547	-3.0109e-012	-7.75	0.	125.17
3548	-0.75	-7.5	0.	124.68
3549	-0.5	-7.75	0.	124.83
3550	-0.5	-7.25	0.	125.08
3551	-1.25	-7.5	0.	124.13
3552	-1.	-7.75	0.	124.37
3553	-1.	-7.25	0.	124.56
3554	-1.75	-7.5	0.	123.52
3555	-1.5	-7.75	0.	123.82
3556	-2.25	-7.5	0.	122.98
3557	-2.	-7.75	0.	123.29
3558	-2.	-7.25	0.	123.13
3559	-2.5	-7.75	0.	122.89
3560	-2.75	-7.5	0.	122.65
3561	-3.75	-7.5	0.	122.95
3562	-3.5	-7.75	0.	122.86
3563	-3.25	-7.5	0.	122.64
3564	-4.25	-7.5	0.	123.48
3565	-4.	-7.75	0.	123.25
3566	-4.	-7.25	0.	123.07
3567	-4.5	-7.75	0.	123.79
3568	-4.75	-7.5	0.	124.1
3569	-6.25	-7.5	0.	125.48
3570	-6.	-7.75	0.	125.23
3571	-5.75	-7.5	0.	125.14
3572	-6.	-7.25	0.	125.48
3573	-6.75	-7.5	0.	125.71
3574	-6.5	-7.75	0.	125.52
3575	-7.25	-7.5	0.	125.87
3576	-7.	-7.75	0.	125.73
3577	-7.5	-7.25	0.	125.98
3578	-7.5	-7.75	0.	125.88
3579	-7.75	-7.5	0.	125.98
3580	-7.75	-7.	0.	126.06
3581	-7.5	-6.75	0.	126.08
3582	-7.5	-5.75	0.	126.16
3583	-7.75	-6.	0.	126.14
3584	-7.5	-6.25	0.	126.14
3585	-7.25	-6.	0.	126.2
3586	-7.5	-5.25	0.	126.11
3587	-7.75	-5.5	0.	126.11
3588	-7.5	-4.75	0.	126.01
3589	-7.75	-5.	0.	126.03
3590	-7.5	-4.25	0.	125.91
3591	-7.75	-4.5	0.	125.92
3592	-7.5	-3.75	0.	125.85
3593	-7.75	-4.	0.	125.84
3594	-7.5	-3.25	0.	125.88
3595	-7.75	-3.5	0.	125.82
3596	-7.5	-2.75	0.	125.99
3597	-7.75	-3.	0.	125.87
3598	-7.25	-3.	0.	125.99
3599	-7.5	-2.25	0.	126.1
3600	-7.75	-2.5	0.	125.97
3601	-7.5	-1.75	0.	126.15
3602	-7.75	-2.	0.	126.04
3603	-7.25	-2.	0.	126.31
3604	-7.5	-1.25	0.	126.13
3605	-7.75	-1.5	0.	126.05
3606	-7.25	-1.5	0.	126.31
3607	-7.5	-0.75	0.	126.06
3608	-7.75	-1.	0.	126.01
3609	-7.5	-0.25	0.	126.01
3610	-7.75	-0.5	0.	125.97
3611	-7.5	0.25	0.	125.98
3612	-7.75	6.4881e-012	0.	125.94
3613	-7.25	1.019e-011	0.	126.03
3614	-7.5	0.75	0.	125.98
3615	-7.75	0.5	0.	125.94
3616	-7.5	1.25	0.	125.97
3617	-7.75	1.	0.	125.94
3618	-7.5	1.75	0.	125.92
3619	-7.75	1.5	0.	125.92
3620	-7.5	2.25	0.	125.83
3621	-7.75	2.	0.	125.86
3622	-7.25	2.	0.	125.91
3623	-7.5	2.75	0.	125.72
3624	-7.75	2.5	0.	125.77
3625	-7.5	3.25	0.	125.6
3626	-7.75	3.	0.	125.67
3627	-7.5	3.75	0.	125.49
3628	-7.75	3.5	0.	125.56
3629	-7.5	4.25	0.	125.38
3630	-7.75	4.	0.	125.46
3631	-7.25	4.	0.	125.38
3632	-7.5	4.75	0.	125.3
3633	-7.75	4.5	0.	125.37
3634	-7.75	5.	0.	125.3
3635	-7.5	5.25	0.	125.22
3636	-7.25	5.	0.	125.21
3637	-7.5	6.25	0.	125.12
3638	-7.75	6.	0.	125.17
3639	-7.5	5.75	0.	125.17
3640	-7.25	6.	0.	125.1
3641	-7.5	6.75	0.	125.08
3642	-7.75	6.5	0.	125.13
3643	-7.5	7.25	0.	125.04
3644	-7.75	7.	0.	125.08
3645	-7.5	7.75	0.	125.01
3646	-7.75	7.5	0.	125.05
3647	-0.5	-2.25	0.	127.76
3648	-0.75	-2.	0.	128.49
3649	-5.5	-4.75	0.	127.1
3650	-5.25	-5.	0.	127.52
3651	-5.5	-3.75	0.	125.9
3652	-5.5	-3.25	0.	126.21
3653	-5.25	-3.5	0.	125.54
3654	-3.75	-5.5	0.	121.17
3655	-3.5	-5.25	0.	119.03
3656	-5.	-5.25	0.	127.21
3657	-4.75	-5.5	0.	125.91
3658	-2.5	-5.25	0.	119.22
3659	-2.25	-5.5	0.	121.37
3660	-0.5	-3.75	0.	125.94
3661	-0.5	-3.25	0.	126.12
3662	-0.75	-3.5	0.	125.76
3663	-0.5	-4.75	0.	127.17
3664	-0.75	-5.	0.	127.67
3665	-4.75	1.5	0.	124.9
3666	-5.	1.25	0.	126.25
3667	-5.25	1.	0.	126.73
3668	-5.5	0.75	0.	126.66
3669	-5.5	-1.75	0.	128.71
3670	-5.5	-2.25	0.	128.56
3671	-5.25	-2.	0.	129.55
3672	-1.5	0.75	0.	125.76
3673	-1.75	1.	0.	125.89
3674	-1.5	-0.75	0.	125.08
3675	-1.75	-0.5	0.	124.14
3676	-1.5	-0.25	0.	124.82
3677	-3.25	1.5	0.	120.78
3678	-3.5	1.25	0.	118.82
3679	-3.75	1.5	0.	120.96
3680	-2.25	1.5	0.	124.27
3681	-2.	1.25	0.	125.48
3682	-2.75	1.5	0.	122.43
3683	-2.5	1.25	0.	124.1
3684	-2.5	1.75	0.	123.46
3685	-3.	1.25	0.	120.75
3686	-1.75	0.5	0.	126.03
3687	-1.5	0.25	0.	125.32
3688	-5.25	-1.5	0.	129.08
3689	-5.5	-1.25	0.	127.84
3690	-5.25	2.0923e-011	0.	126.44
3691	-5.5	-0.25	0.	126.2
3692	-5.5	0.25	0.	126.43
3693	-4.5	1.25	0.	124.8
3694	-4.25	1.5	0.	122.9
3695	-0.5	-4.25	0.	126.58
3696	-0.75	-4.5	0.	127.79
3697	-0.75	-4.	0.	126.68
3698	-1.5	-5.25	0.	126.42
3699	-1.75	-5.5	0.	124.14
3700	-1.25	-5.5	0.	126.11
3701	-4.	-5.25	0.	122.72
3702	-4.25	-5.5	0.	123.9
3703	-5.5	-4.25	0.	126.52
3704	-5.25	-4.	0.	126.47
3705	-5.25	-4.5	0.	127.62
3706	-5.5	-2.75	0.	127.43
3707	-5.25	-2.5	0.	128.83
3708	-5.25	-3.	0.	127.02
3709	-0.5	-2.75	0.	127.06
3710	-0.75	-3.	0.	127.14
3711	-0.75	-2.5	0.	128.55
3712	-2.25	-5.	0.	120.87
3713	-2.5	-4.75	0.	117.09
3714	-1.5	-1.25	0.	126.26
3715	-1.75	-1.	0.	125.14
3716	-2.	0.75	0.	126.16
3717	-2.25	1.	0.	125.3
3718	-3.75	1.	0.	119.04
3719	-3.25	1.	0.	118.77
3720	-3.5	0.75	0.	113.95
3721	-7.25	8.	0.	124.97
3722	-7.75	8.	0.	125.01
3723	-7.5	8.25	0.	124.98
3724	-6.75	8.	0.	124.93
3725	-7.	8.25	0.	124.94
3726	-6.25	8.	0.	124.88
3727	-6.5	8.25	0.	124.9
3728	-5.75	8.	0.	124.84
3729	-6.	8.25	0.	124.86
3730	-5.25	8.	0.	124.8
3731	-5.5	8.25	0.	124.82
3732	-4.75	8.	0.	124.77
3733	-5.	8.25	0.	124.79
3734	-4.25	8.	0.	124.74
3735	-4.5	8.25	0.	124.76
3736	-3.75	8.	0.	124.72
3737	-4.	8.25	0.	124.74
3738	-3.25	8.	0.	124.71
3739	-3.5	8.25	0.	124.73
3740	-2.75	8.	0.	124.72
3741	-3.	8.25	0.	124.72
3742	-2.25	8.	0.	124.73
3743	-2.5	8.25	0.	124.73
3744	-1.75	8.	0.	124.75
3745	-2.	8.25	0.	124.75
3746	-1.25	8.	0.	124.78
3747	-1.5	8.25	0.	124.77
3748	-0.75	8.	0.	124.81
3749	-1.	8.25	0.	124.79
3750	-0.25	8.	0.	124.84
3751	-0.5	8.25	0.	124.82
3752	0.25	8.	0.	124.88
3753	-4.7295e-011	8.25	0.	124.85
3754	0.75	8.	0.	124.91
3755	0.5	8.25	0.	124.88
3756	1.25	8.	0.	124.93
3757	1.	8.25	0.	124.91
3758	1.5	8.25	0.	124.93
3759	1.75	8.	0.	124.96
3760	2.75	8.	0.	124.99
3761	2.5	8.25	0.	124.97
3762	2.25	8.	0.	124.98
3763	3.25	8.	0.	125.
3764	3.	8.25	0.	124.99
3765	3.75	8.	0.	125.01
3766	3.5	8.25	0.	125.
3767	4.25	8.	0.	125.02
3768	4.	8.25	0.	125.
3769	4.75	8.	0.	125.02
3770	4.5	8.25	0.	125.01
3771	5.25	8.	0.	125.02
3772	5.	8.25	0.	125.01
3773	5.75	8.	0.	125.02
3774	5.5	8.25	0.	125.01
3775	6.25	8.	0.	125.02
3776	6.	8.25	0.	125.01
3777	6.75	8.	0.	125.02
3778	6.5	8.25	0.	125.01
3779	7.25	8.	0.	125.01
3780	7.	8.25	0.	125.01
3781	7.75	8.	0.	125.01
3782	7.5	8.25	0.	125.01
3783	8.	7.75	0.	125.01
3784	8.25	8.	0.	125.
3785	8.	8.25	0.	125.
3786	8.	7.25	0.	125.01
3787	8.25	7.5	0.	125.01
3788	8.	6.75	0.	125.02
3789	8.25	7.	0.	125.01
3790	8.	6.25	0.	125.02
3791	8.25	6.5	0.	125.01
3792	8.	5.75	0.	125.03
3793	8.25	6.	0.	125.02
3794	8.	5.25	0.	125.03
3795	8.25	5.5	0.	125.02
3796	8.	4.75	0.	125.03
3797	8.25	5.	0.	125.02
3798	8.	4.25	0.	125.03
3799	8.25	4.5	0.	125.02
3800	8.	3.75	0.	125.03
3801	8.25	4.	0.	125.02
3802	8.	3.25	0.	125.03
3803	8.25	3.5	0.	125.02
3804	8.	2.75	0.	125.03
3805	8.25	3.	0.	125.01
3806	8.	2.25	0.	125.02
3807	8.25	2.5	0.	125.01
3808	8.	1.75	0.	125.02
3809	8.25	2.	0.	125.
3810	8.	1.25	0.	125.01
3811	8.25	1.5	0.	124.99
3812	8.	0.75	0.	125.
3813	8.25	1.	0.	124.98
3814	8.	0.25	0.	124.99
3815	8.25	0.5	0.	124.98
3816	8.	-0.25	0.	124.98
3817	8.25	4.5585e-012	0.	124.97
3818	8.	-0.75	0.	124.98
3819	8.25	-0.5	0.	124.96
3820	8.	-1.25	0.	124.97
3821	8.25	-1.	0.	124.96
3822	8.	-1.75	0.	124.97
3823	8.25	-1.5	0.	124.95
3824	8.	-2.25	0.	124.97
3825	8.25	-2.	0.	124.95
3826	8.	-2.75	0.	124.98
3827	8.25	-2.5	0.	124.96
3828	8.	-3.25	0.	124.99
3829	8.25	-3.	0.	124.96
3830	8.	-3.75	0.	125.
3831	8.25	-3.5	0.	124.98
3832	8.	-4.25	0.	125.02
3833	8.25	-4.	0.	124.99
3834	8.	-4.75	0.	125.04
3835	8.25	-4.5	0.	125.01
3836	8.	-5.25	0.	125.06
3837	8.25	-5.	0.	125.03
3838	8.	-5.75	0.	125.08
3839	8.25	-5.5	0.	125.05
3840	8.	-6.25	0.	125.11
3841	8.25	-6.	0.	125.08
3842	8.	-6.75	0.	125.13
3843	8.25	-6.5	0.	125.1
3844	7.75	-6.5	0.	125.13
3845	8.	-7.25	0.	125.15
3846	8.25	-7.	0.	125.12
3847	8.25	-7.5	0.	125.14
3848	8.	-7.75	0.	125.17
3849	7.25	-8.	0.	125.23
3850	7.5	-8.25	0.	125.22
3851	7.75	-8.	0.	125.2
3852	6.75	-8.	0.	125.27
3853	7.	-8.25	0.	125.26
3854	6.25	-8.	0.	125.32
3855	6.5	-8.25	0.	125.3
3856	5.75	-8.	0.	125.36
3857	6.	-8.25	0.	125.35
3858	5.25	-8.	0.	125.41
3859	5.5	-8.25	0.	125.39
3860	4.75	-8.	0.	125.46
3861	5.	-8.25	0.	125.44
3862	4.25	-8.	0.	125.5
3863	4.5	-8.25	0.	125.49
3864	3.75	-8.	0.	125.54
3865	4.	-8.25	0.	125.53
3866	3.25	-8.	0.	125.57
3867	3.5	-8.25	0.	125.56
3868	3.	-8.25	0.	125.58
3869	2.75	-8.	0.	125.6
3870	1.25	-8.	0.	125.51
3871	1.5	-8.25	0.	125.51
3872	1.75	-8.	0.	125.58
3873	0.75	-8.	0.	125.39
3874	1.	-8.25	0.	125.41
3875	0.25	-8.	0.	125.19
3876	0.5	-8.25	0.	125.24
3877	-0.25	-8.	0.	124.9
3878	-5.0048e-012	-8.25	0.	124.99
3879	-0.75	-8.	0.	124.51
3880	-0.5	-8.25	0.	124.66
3881	-1.25	-8.	0.	124.06
3882	-1.	-8.25	0.	124.26
3883	-1.75	-8.	0.	123.59
3884	-1.5	-8.25	0.	123.82
3885	-2.25	-8.	0.	123.19
3886	-2.	-8.25	0.	123.42
3887	-2.75	-8.	0.	122.96
3888	-2.5	-8.25	0.	123.12
3889	-3.25	-8.	0.	122.95
3890	-3.	-8.25	0.	123.01
3891	-3.	-7.75	0.	122.73
3892	-3.75	-8.	0.	123.17
3893	-3.5	-8.25	0.	123.11
3894	-4.25	-8.	0.	123.56
3895	-4.	-8.25	0.	123.39
3896	-4.75	-8.	0.	124.04
3897	-4.5	-8.25	0.	123.8
3898	-5.25	-8.	0.	124.51
3899	-5.	-8.25	0.	124.25
3900	-5.	-7.75	0.	124.35
3901	-5.75	-8.	0.	124.94
3902	-5.5	-8.25	0.	124.68
3903	-5.5	-7.75	0.	124.84
3904	-6.25	-8.	0.	125.28
3905	-6.	-8.25	0.	125.06
3906	-6.75	-8.	0.	125.54
3907	-6.5	-8.25	0.	125.36
3908	-7.25	-8.	0.	125.75
3909	-7.	-8.25	0.	125.6
3910	-7.75	-8.	0.	125.9
3911	-7.5	-8.25	0.	125.79
3912	-8.	-7.75	0.	126.
3913	-8.25	-8.	0.	126.04
3914	-8.	-8.25	0.	125.95
3915	-8.	-7.25	0.	126.06
3916	-8.25	-7.5	0.	126.07
3917	-8.	-6.75	0.	126.1
3918	-8.25	-7.	0.	126.1
3919	-8.	-6.25	0.	126.11
3920	-8.25	-6.5	0.	126.11
3921	-7.75	-6.5	0.	126.12
3922	-8.	-5.75	0.	126.09
3923	-8.25	-6.	0.	126.09
3924	-8.	-5.25	0.	126.03
3925	-8.25	-5.5	0.	126.04
3926	-8.	-4.75	0.	125.94
3927	-8.25	-5.	0.	125.96
3928	-8.	-4.25	0.	125.86
3929	-8.25	-4.5	0.	125.87
3930	-8.	-3.75	0.	125.81
3931	-8.25	-4.	0.	125.79
3932	-8.	-3.25	0.	125.81
3933	-8.25	-3.5	0.	125.76
3934	-8.	-2.75	0.	125.85
3935	-8.25	-3.	0.	125.77
3936	-8.	-2.25	0.	125.91
3937	-8.25	-2.5	0.	125.81
3938	-8.	-1.75	0.	125.94
3939	-8.25	-2.	0.	125.85
3940	-8.	-1.25	0.	125.94
3941	-8.25	-1.5	0.	125.86
3942	-8.	-0.75	0.	125.92
3943	-8.25	-1.	0.	125.86
3944	-8.	-0.25	0.	125.9
3945	-8.25	-0.5	0.	125.85
3946	-8.	0.25	0.	125.89
3947	-8.25	3.926e-012	0.	125.85
3948	-8.	0.75	0.	125.9
3949	-8.25	0.5	0.	125.85
3950	-8.	1.25	0.	125.89
3951	-8.25	1.	0.	125.86
3952	-8.	1.75	0.	125.86
3953	-8.25	1.5	0.	125.85
3954	-8.	2.25	0.	125.8
3955	-8.25	2.	0.	125.82
3956	-8.	2.75	0.	125.72
3957	-8.25	2.5	0.	125.76
3958	-8.	3.25	0.	125.64
3959	-8.25	3.	0.	125.69
3960	-8.	3.75	0.	125.54
3961	-8.25	3.5	0.	125.61
3962	-8.	4.25	0.	125.45
3963	-8.25	4.	0.	125.52
3964	-8.	4.75	0.	125.37
3965	-8.25	4.5	0.	125.44
3966	-8.	5.25	0.	125.3
3967	-8.25	5.	0.	125.37
3968	-8.	5.75	0.	125.24
3969	-7.75	5.5	0.	125.23
3970	-8.25	5.5	0.	125.3
3971	-8.	6.25	0.	125.18
3972	-8.25	6.	0.	125.24
3973	-8.	6.75	0.	125.13
3974	-8.25	6.5	0.	125.18
3975	-8.	7.25	0.	125.09
3976	-8.25	7.	0.	125.13
3977	-8.	7.75	0.	125.05
3978	-8.25	7.5	0.	125.09
3979	-8.	8.25	0.	125.02
3980	-8.25	8.	0.	125.05
3981	-2.	-0.75	0.	124.19
3982	-2.25	-0.5	0.	124.78
3983	-2.	-0.25	0.	124.39
3984	-3.75	-2.	0.	116.54
3985	-3.25	-2.	0.	113.66
3986	-3.5	-1.75	0.	110.57
3987	-3.5	-2.25	0.	113.
3988	-5.	-0.25	0.	126.2
3989	-5.	-0.75	0.	126.75
3990	-4.75	-0.5	0.	126.89
3991	-5.25	-0.5	0.	125.96
3992	-4.75	1.	0.	126.15
3993	-5.	0.75	0.	127.16
3994	-1.	-3.25	0.	126.77
3995	-1.	-3.75	0.	126.49
3996	-1.25	-3.5	0.	127.5
3997	-3.75	-5.	0.	120.57
3998	-3.5	-4.75	0.	116.83
3999	-5.	-4.75	0.	128.04
4000	-4.75	-5.	0.	127.42
4001	-5.	-2.25	0.	129.82
4002	-5.	-1.75	0.	129.91
4003	-4.75	-2.	0.	129.29
4004	-1.75	-1.5	0.	126.39
4005	-1.5	-1.75	0.	128.
4006	-1.	-2.25	0.	129.27
4007	-1.25	-2.	0.	129.01
4008	-1.	-2.75	0.	128.62
4009	-1.25	-3.	0.	129.09
4010	-1.25	-2.5	0.	130.79
4011	-2.25	-2.	0.	122.66
4012	-2.	-2.25	0.	125.5
4013	-2.	-1.75	0.	125.57
4014	-1.75	-2.	0.	127.18
4015	-5.	-2.75	0.	128.42
4016	-4.75	-2.5	0.	130.03
4017	-4.75	-3.	0.	128.21
4018	-5.	-3.25	0.	126.35
4019	-5.	-4.25	0.	127.56
4020	-4.75	-4.	0.	127.92
4021	-5.	-3.75	0.	126.1
4022	-4.75	-4.5	0.	129.37
4023	-4.	-4.75	0.	123.55
4024	-4.25	-5.	0.	124.95
4025	-1.75	-5.	0.	125.3
4026	-2.	-4.75	0.	124.01
4027	-2.	-5.25	0.	123.02
4028	-1.5	-4.75	0.	129.17
4029	-1.25	-5.	0.	127.7
4030	-1.	-4.25	0.	127.88
4031	-1.25	-4.5	0.	129.74
4032	-1.	-4.75	0.	128.29
4033	-1.25	-4.	0.	128.4
4034	-4.25	1.	0.	123.11
4035	-4.	0.75	0.	121.06
4036	-4.	1.25	0.	121.21
4037	-4.5	0.75	0.	127.23
4038	-4.75	1.5485e-011	0.	127.34
4039	-5.	0.25	0.	127.09
4040	-5.	-1.25	0.	128.72
4041	-4.75	-1.	0.	128.36
4042	-5.25	-1.	0.	127.48
4043	-4.75	-1.5	0.	129.93
4044	-4.25	-2.	0.	124.23
4045	-4.5	-1.75	0.	129.3
4046	-4.5	-2.25	0.	129.5
4047	-4.	-1.75	0.	120.03
4048	-4.	-2.25	0.	121.16
4049	-2.75	-2.	0.	117.09
4050	-3.	-1.75	0.	115.61
4051	-3.	-2.25	0.	114.48
4052	-2.5	-1.75	0.	122.41
4053	-2.5	-2.25	0.	117.93
4054	-2.25	-1.	0.	125.04
4055	-2.	-1.25	0.	125.26
4056	-2.25	0.5	0.	127.11
4057	-2.	0.25	0.	125.78
4058	-2.75	1.	0.	122.43
4059	-2.5	0.75	0.	126.26
4060	-3.	0.75	0.	120.34
4061	8.5	7.75	0.	125.
4062	8.5	8.25	0.	125.
4063	8.75	8.	0.	125.
4064	8.25	8.5	0.	125.
4065	7.75	8.5	0.	125.
4066	8.	8.75	0.	125.
4067	6.75	8.5	0.	125.01
4068	6.25	8.5	0.	125.01
4069	6.5	8.75	0.	125.01
4070	7.25	8.5	0.	125.01
4071	7.	8.75	0.	125.01
4072	6.	8.75	0.	125.01
4073	5.75	8.5	0.	125.01
4074	4.75	8.5	0.	125.
4075	4.25	8.5	0.	125.
4076	4.5	8.75	0.	124.99
4077	5.	8.75	0.	125.
4078	5.25	8.5	0.	125.01
4079	3.75	8.5	0.	124.99
4080	3.25	8.5	0.	124.98
4081	3.5	8.75	0.	124.98
4082	4.	8.75	0.	124.99
4083	2.75	8.5	0.	124.97
4084	2.25	8.5	0.	124.95
4085	2.5	8.75	0.	124.95
4086	3.	8.75	0.	124.96
4087	1.75	8.5	0.	124.93
4088	1.25	8.5	0.	124.91
4089	1.5	8.75	0.	124.91
4090	2.	8.75	0.	124.93
4091	2.	8.25	0.	124.95
4092	0.75	8.5	0.	124.88
4093	0.25	8.5	0.	124.86
4094	0.5	8.75	0.	124.86
4095	1.	8.75	0.	124.89
4096	-0.25	8.5	0.	124.83
4097	-0.75	8.5	0.	124.81
4098	-0.5	8.75	0.	124.81
4099	-2.9462e-011	8.75	0.	124.84
4100	-1.25	8.5	0.	124.78
4101	-1.75	8.5	0.	124.76
4102	-1.5	8.75	0.	124.77
4103	-1.	8.75	0.	124.79
4104	-2.	8.75	0.	124.75
4105	-2.25	8.5	0.	124.74
4106	-3.25	8.5	0.	124.73
4107	-3.75	8.5	0.	124.74
4108	-3.5	8.75	0.	124.74
4109	-3.	8.75	0.	124.73
4110	-2.75	8.5	0.	124.74
4111	-4.25	8.5	0.	124.76
4112	-4.75	8.5	0.	124.78
4113	-4.5	8.75	0.	124.77
4114	-4.	8.75	0.	124.75
4115	-5.25	8.5	0.	124.81
4116	-5.75	8.5	0.	124.84
4117	-5.5	8.75	0.	124.82
4118	-5.	8.75	0.	124.79
4119	-6.25	8.5	0.	124.88
4120	-6.75	8.5	0.	124.91
4121	-6.5	8.75	0.	124.89
4122	-6.	8.75	0.	124.85
4123	-7.25	8.5	0.	124.95
4124	-7.75	8.5	0.	124.98
4125	-7.5	8.75	0.	124.96
4126	-7.	8.75	0.	124.92
4127	8.25	-8.5	0.	125.18
4128	8.	-8.75	0.	125.2
4129	7.75	-8.5	0.	125.21
4130	8.	-8.25	0.	125.19
4131	-8.5	-8.25	0.	126.09
4132	-8.75	-8.	0.	126.17
4133	-8.5	-7.75	0.	126.11
4134	-8.25	8.5	0.	125.01
4135	-8.	8.75	0.	124.99
4136	-8.5	7.75	0.	125.09
4137	-8.5	7.25	0.	125.13
4138	-8.75	7.5	0.	125.12
4139	-8.5	8.25	0.	125.05
4140	-8.75	8.	0.	125.08
4141	-8.75	7.	0.	125.17
4142	-8.5	6.75	0.	125.18
4143	-8.5	6.25	0.	125.24
4144	-8.5	5.75	0.	125.3
4145	-8.75	6.	0.	125.29
4146	-8.5	4.75	0.	125.44
4147	-8.5	4.25	0.	125.51
4148	-8.75	4.5	0.	125.5
4149	-8.5	5.25	0.	125.37
4150	-8.75	5.	0.	125.43
4151	-8.5	3.75	0.	125.59
4152	-8.5	3.25	0.	125.66
4153	-8.75	3.5	0.	125.65
4154	-8.75	4.	0.	125.58
4155	-8.75	3.	0.	125.71
4156	-8.5	2.75	0.	125.73
4157	-8.5	2.25	0.	125.78
4158	-8.75	2.	0.	125.79
4159	-8.5	1.75	0.	125.81
4160	-8.75	1.	0.	125.8
4161	-8.5	1.25	0.	125.82
4162	-8.5	0.75	0.	125.82
4163	-8.5	-0.25	0.	125.79
4164	-8.5	-0.75	0.	125.79
4165	-8.75	-0.5	0.	125.73
4166	-8.75	2.2082e-012	0.	125.75
4167	-8.5	0.25	0.	125.81
4168	-8.75	-1.	0.	125.72
4169	-8.5	-1.25	0.	125.78
4170	-8.75	-2.	0.	125.69
4171	-8.5	-2.25	0.	125.75
4172	-8.5	-1.75	0.	125.77
4173	-8.75	-3.	0.	125.66
4174	-8.5	-3.25	0.	125.72
4175	-8.5	-2.75	0.	125.73
4176	-8.5	-4.25	0.	125.8
4177	-8.5	-4.75	0.	125.89
4178	-8.75	-4.5	0.	125.81
4179	-8.75	-4.	0.	125.73
4180	-8.5	-3.75	0.	125.75
4181	-8.5	-5.25	0.	125.97
4182	-8.5	-5.75	0.	126.05
4183	-8.75	-5.5	0.	125.99
4184	-8.75	-5.	0.	125.9
4185	-8.75	-6.	0.	126.07
4186	-8.5	-6.25	0.	126.1
4187	-8.75	-7.	0.	126.16
4188	-8.5	-6.75	0.	126.12
4189	-8.5	-7.25	0.	126.12
4190	-7.75	-8.5	0.	125.83
4191	-7.25	-8.5	0.	125.64
4192	-7.5	-8.75	0.	125.72
4193	-8.25	-8.5	0.	126.
4194	-8.	-8.75	0.	125.9
4195	-6.75	-8.5	0.	125.42
4196	-7.	-8.75	0.	125.5
4197	-4.75	-8.5	0.	124.01
4198	-4.25	-8.5	0.	123.63
4199	-4.5	-8.75	0.	123.82
4200	-5.25	-8.5	0.	124.42
4201	-5.	-8.75	0.	124.2
4202	-3.75	-8.5	0.	123.33
4203	-3.25	-8.5	0.	123.17
4204	-3.5	-8.75	0.	123.27
4205	-4.	-8.75	0.	123.49
4206	-2.75	-8.5	0.	123.17
4207	-2.25	-8.5	0.	123.35
4208	-2.5	-8.75	0.	123.28
4209	-3.	-8.75	0.	123.2
4210	-2.	-8.75	0.	123.51
4211	-1.75	-8.5	0.	123.65
4212	-0.25	-8.5	0.	124.75
4213	-0.5	-8.75	0.	124.55
4214	-0.75	-8.5	0.	124.41
4215	0.25	-8.5	0.	125.04
4216	0.75	-8.5	0.	125.26
4217	0.5	-8.75	0.	125.12
4218	-3.922e-012	-8.75	0.	124.86
4219	1.25	-8.5	0.	125.41
4220	1.75	-8.5	0.	125.5
4221	1.5	-8.75	0.	125.43
4222	1.	-8.75	0.	125.31
4223	2.25	-8.5	0.	125.55
4224	2.75	-8.5	0.	125.57
4225	2.5	-8.75	0.	125.55
4226	2.5	-8.25	0.	125.59
4227	2.	-8.75	0.	125.51
4228	2.	-8.25	0.	125.57
4229	3.	-8.75	0.	125.57
4230	3.25	-8.5	0.	125.57
4231	4.25	-8.5	0.	125.51
4232	4.	-8.75	0.	125.53
4233	3.75	-8.5	0.	125.54
4234	5.25	-8.5	0.	125.43
4235	4.75	-8.5	0.	125.47
4236	5.	-8.75	0.	125.45
4237	6.25	-8.5	0.	125.33
4238	6.75	-8.5	0.	125.29
4239	6.5	-8.75	0.	125.32
4240	5.75	-8.5	0.	125.38
4241	6.	-8.75	0.	125.36
4242	7.25	-8.5	0.	125.25
4243	7.	-8.75	0.	125.27
4244	8.5	-8.25	0.	125.16
4245	8.75	-8.	0.	125.14
4246	8.5	-7.75	0.	125.14
4247	8.25	-8.	0.	125.16
4248	8.75	-7.	0.	125.09
4249	8.5	-6.75	0.	125.1
4250	8.5	-7.25	0.	125.12
4251	8.75	-6.	0.	125.05
4252	8.5	-6.25	0.	125.07
4253	8.5	-5.75	0.	125.05
4254	8.75	-5.	0.	125.
4255	8.5	-5.25	0.	125.03
4256	8.5	-4.75	0.	125.
4257	8.5	-3.75	0.	124.97
4258	8.5	-3.25	0.	124.95
4259	8.75	-3.5	0.	124.94
4260	8.75	-4.	0.	124.95
4261	8.5	-4.25	0.	124.98
4262	8.5	-2.75	0.	124.94
4263	8.5	-2.25	0.	124.94
4264	8.75	-2.5	0.	124.92
4265	8.75	-3.	0.	124.92
4266	8.5	-1.75	0.	124.93
4267	8.5	-1.25	0.	124.93
4268	8.75	-1.5	0.	124.91
4269	8.75	-2.	0.	124.91
4270	8.75	-1.	0.	124.91
4271	8.5	-0.75	0.	124.94
4272	8.5	0.25	0.	124.95
4273	8.5	0.75	0.	124.96
4274	8.75	0.5	0.	124.93
4275	8.75	2.5536e-012	0.	124.93
4276	8.5	-0.25	0.	124.94
4277	8.5	1.25	0.	124.97
4278	8.5	1.75	0.	124.98
4279	8.75	1.5	0.	124.96
4280	8.75	1.	0.	124.95
4281	8.75	2.	0.	124.97
4282	8.5	2.25	0.	124.99
4283	8.5	3.25	0.	125.
4284	8.5	3.75	0.	125.
4285	8.75	3.5	0.	124.99
4286	8.75	3.	0.	124.98
4287	8.5	2.75	0.	124.99
4288	8.75	4.	0.	124.99
4289	8.5	4.25	0.	125.01
4290	8.75	5.	0.	125.
4291	8.5	4.75	0.	125.01
4292	8.5	5.25	0.	125.01
4293	8.5	6.25	0.	125.01
4294	8.5	6.75	0.	125.01
4295	8.75	6.5	0.	125.
4296	8.75	6.	0.	125.
4297	8.5	5.75	0.	125.01
4298	8.5	7.25	0.	125.
4299	8.75	7.5	0.	125.
4300	8.75	7.	0.	125.
4301	8.75	8.5	0.	125.
4302	8.5	8.75	0.	125.
4303	8.75	-8.5	0.	125.15
4304	8.5	-8.75	0.	125.17
4305	-8.75	-8.5	0.	126.16
4306	-8.5	-8.75	0.	126.07
4307	-8.5	8.75	0.	125.01
4308	-8.75	8.5	0.	125.04
4309	9.25	7.5	0.	124.99
4310	9.	7.75	0.	125.
4311	9.	7.25	0.	125.
4312	9.25	6.5	0.	124.99
4313	9.	6.25	0.	125.
4314	9.	6.75	0.	125.
4315	9.25	5.5	0.	124.99
4316	9.	5.75	0.	124.99
4317	9.	5.25	0.	124.99
4318	8.75	5.5	0.	125.
4319	9.25	4.5	0.	124.98
4320	9.	4.75	0.	124.99
4321	9.	4.25	0.	124.98
4322	8.75	4.5	0.	125.
4323	9.25	3.5	0.	124.96
4324	9.	3.25	0.	124.97
4325	9.	3.75	0.	124.98
4326	9.25	2.5	0.	124.94
4327	9.	2.75	0.	124.96
4328	9.	2.25	0.	124.95
4329	8.75	2.5	0.	124.97
4330	9.25	1.5	0.	124.92
4331	9.	1.75	0.	124.94
4332	9.	1.25	0.	124.93
4333	9.25	0.5	0.	124.89
4334	9.	0.25	0.	124.91
4335	9.	0.75	0.	124.92
4336	9.	-1.25	0.	124.89
4337	9.25	-1.	0.	124.86
4338	9.	-0.75	0.	124.89
4339	9.	-1.75	0.	124.89
4340	9.25	-1.5	0.	124.86
4341	9.	-2.25	0.	124.89
4342	9.25	-2.	0.	124.86
4343	9.25	-2.5	0.	124.87
4344	9.	-2.75	0.	124.9
4345	9.25	-3.5	0.	124.89
4346	9.	-3.25	0.	124.91
4347	9.	-3.75	0.	124.92
4348	9.25	-4.5	0.	124.93
4349	9.	-4.75	0.	124.97
4350	9.	-4.25	0.	124.94
4351	8.75	-4.5	0.	124.97
4352	9.25	-5.5	0.	124.98
4353	9.	-5.75	0.	125.02
4354	9.	-5.25	0.	124.99
4355	8.75	-5.5	0.	125.02
4356	9.25	-6.5	0.	125.04
4357	9.	-6.25	0.	125.04
4358	9.	-6.75	0.	125.07
4359	8.75	-6.5	0.	125.07
4360	9.	8.75	0.	125.
4361	9.25	8.5	0.	125.
4362	9.	8.25	0.	125.
4363	9.	-8.75	0.	125.15
4364	9.	-8.25	0.	125.13
4365	9.25	-8.5	0.	125.14
4366	7.75	-9.	0.	125.22
4367	8.	-9.25	0.	125.21
4368	8.25	-9.	0.	125.19
4369	7.5	-9.25	0.	125.24
4370	7.5	-8.75	0.	125.23
4371	7.25	-9.	0.	125.26
4372	6.5	-9.25	0.	125.33
4373	6.75	-9.	0.	125.3
4374	6.25	-9.	0.	125.34
4375	5.5	-9.25	0.	125.42
4376	5.5	-8.75	0.	125.41
4377	5.25	-9.	0.	125.44
4378	5.75	-9.	0.	125.39
4379	4.5	-9.25	0.	125.5
4380	4.5	-8.75	0.	125.49
4381	4.25	-9.	0.	125.51
4382	4.75	-9.	0.	125.48
4383	3.5	-9.25	0.	125.55
4384	3.25	-9.	0.	125.56
4385	3.75	-9.	0.	125.54
4386	3.5	-8.75	0.	125.56
4387	2.5	-9.25	0.	125.53
4388	2.75	-9.	0.	125.55
4389	2.25	-9.	0.	125.52
4390	1.5	-9.25	0.	125.38
4391	1.75	-9.	0.	125.45
4392	1.25	-9.	0.	125.33
4393	-0.5	-9.25	0.	124.49
4394	-0.75	-9.	0.	124.34
4395	-0.25	-9.	0.	124.66
4396	-1.75	-9.	0.	123.69
4397	-1.5	-9.25	0.	123.84
4398	-1.25	-9.	0.	124.01
4399	-1.5	-8.75	0.	123.83
4400	-2.25	-9.	0.	123.45
4401	-2.	-9.25	0.	123.57
4402	-2.5	-9.25	0.	123.38
4403	-2.75	-9.	0.	123.31
4404	-3.75	-9.	0.	123.44
4405	-3.5	-9.25	0.	123.38
4406	-3.25	-9.	0.	123.31
4407	-4.25	-9.	0.	123.68
4408	-4.	-9.25	0.	123.56
4409	-4.5	-9.25	0.	123.84
4410	-4.75	-9.	0.	124.
4411	-5.5	-9.25	0.	124.52
4412	-5.5	-8.75	0.	124.58
4413	-5.25	-9.	0.	124.36
4414	-5.75	-9.	0.	124.71
4415	-6.5	-9.25	0.	125.16
4416	-6.5	-8.75	0.	125.24
4417	-6.25	-9.	0.	125.04
4418	-6.75	-9.	0.	125.33
4419	-7.5	-9.25	0.	125.66
4420	-7.75	-9.	0.	125.78
4421	-7.25	-9.	0.	125.57
4422	-9.	-8.25	0.	126.24
4423	-9.	-8.75	0.	126.24
4424	-9.25	-8.5	0.	126.33
4425	-8.75	-9.	0.	126.15
4426	-8.5	-9.25	0.	126.06
4427	-8.25	-9.	0.	125.97
4428	-9.25	-8.	0.	126.31
4429	-9.	-7.75	0.	126.23
4430	-9.	-6.75	0.	126.16
4431	-9.25	-7.	0.	126.23
4432	-9.	-7.25	0.	126.2
4433	-9.	-6.25	0.	126.1
4434	-9.25	-6.5	0.	126.16
4435	-8.75	-6.5	0.	126.12
4436	-9.	-5.75	0.	126.02
4437	-9.25	-6.	0.	126.07
4438	-9.25	-5.5	0.	125.96
4439	-9.	-5.25	0.	125.93
4440	-9.	-4.25	0.	125.73
4441	-9.25	-4.5	0.	125.73
4442	-9.	-4.75	0.	125.83
4443	-9.	-3.75	0.	125.66
4444	-9.25	-4.	0.	125.63
4445	-9.25	-3.5	0.	125.56
4446	-9.	-3.25	0.	125.62
4447	-8.75	-3.5	0.	125.68
4448	-9.25	-1.5	0.	125.54
4449	-9.	-1.25	0.	125.64
4450	-9.	-1.75	0.	125.62
4451	-8.75	-1.5	0.	125.7
4452	-9.25	-0.5	0.	125.62
4453	-9.	-0.75	0.	125.66
4454	-9.	-0.25	0.	125.69
4455	-9.25	0.5	0.	125.71
4456	-9.	0.25	0.	125.72
4457	-9.	0.75	0.	125.75
4458	-8.75	0.5	0.	125.78
4459	-9.25	1.5	0.	125.78
4460	-9.	1.25	0.	125.78
4461	-9.	1.75	0.	125.78
4462	-8.75	1.5	0.	125.8
4463	-9.25	2.5	0.	125.78
4464	-9.	2.75	0.	125.74
4465	-8.75	2.5	0.	125.76
4466	-9.	2.25	0.	125.77
4467	-9.	3.75	0.	125.64
4468	-9.25	3.5	0.	125.7
4469	-9.	3.25	0.	125.69
4470	-9.	4.25	0.	125.57
4471	-9.25	4.	0.	125.64
4472	-9.25	4.5	0.	125.57
4473	-9.	4.75	0.	125.5
4474	-9.25	5.5	0.	125.41
4475	-8.75	5.5	0.	125.36
4476	-9.	5.25	0.	125.42
4477	-9.	5.75	0.	125.35
4478	-9.	6.75	0.	125.22
4479	-9.25	6.5	0.	125.27
4480	-8.75	6.5	0.	125.23
4481	-9.	6.25	0.	125.28
4482	-9.	7.25	0.	125.16
4483	-9.25	7.	0.	125.2
4484	-9.	7.75	0.	125.11
4485	-9.25	7.5	0.	125.14
4486	-8.25	9.	0.	124.99
4487	-8.75	9.	0.	125.01
4488	-8.5	9.25	0.	124.99
4489	-9.	8.25	0.	125.07
4490	-9.25	8.	0.	125.09
4491	-9.	8.75	0.	125.03
4492	-9.25	8.5	0.	125.05
4493	-7.75	9.	0.	124.96
4494	-8.	9.25	0.	124.97
4495	-7.5	9.25	0.	124.94
4496	-7.25	9.	0.	124.93
4497	-6.25	9.	0.	124.87
4498	-6.5	9.25	0.	124.88
4499	-6.75	9.	0.	124.9
4500	-5.75	9.	0.	124.83
4501	-6.	9.25	0.	124.84
4502	-5.5	9.25	0.	124.81
4503	-5.25	9.	0.	124.8
4504	-4.25	9.	0.	124.76
4505	-4.5	9.25	0.	124.76
4506	-4.75	9.	0.	124.78
4507	-3.75	9.	0.	124.74
4508	-4.	9.25	0.	124.74
4509	-3.5	9.25	0.	124.73
4510	-3.25	9.	0.	124.74
4511	-2.5	9.25	0.	124.73
4512	-2.25	9.	0.	124.74
4513	-2.75	9.	0.	124.74
4514	-2.5	8.75	0.	124.74
4515	-1.5	9.25	0.	124.75
4516	-1.75	9.	0.	124.75
4517	-1.25	9.	0.	124.77
4518	-0.5	9.25	0.	124.79
4519	-0.25	9.	0.	124.81
4520	-0.75	9.	0.	124.79
4521	0.5	9.25	0.	124.84
4522	0.25	9.	0.	124.84
4523	0.75	9.	0.	124.86
4524	1.75	9.	0.	124.91
4525	1.5	9.25	0.	124.89
4526	1.25	9.	0.	124.89
4527	2.25	9.	0.	124.93
4528	2.	9.25	0.	124.91
4529	2.5	9.25	0.	124.93
4530	2.75	9.	0.	124.95
4531	3.75	9.	0.	124.97
4532	3.5	9.25	0.	124.96
4533	3.25	9.	0.	124.96
4534	4.25	9.	0.	124.98
4535	4.	9.25	0.	124.97
4536	4.5	9.25	0.	124.98
4537	4.75	9.	0.	124.99
4538	5.75	9.	0.	125.
4539	5.5	9.25	0.	125.
4540	5.25	9.	0.	125.
4541	5.5	8.75	0.	125.
4542	6.25	9.	0.	125.
4543	6.	9.25	0.	125.
4544	6.5	9.25	0.	125.
4545	6.75	9.	0.	125.
4546	7.5	9.25	0.	125.
4547	7.5	8.75	0.	125.
4548	7.25	9.	0.	125.
4549	7.75	9.	0.	125.
4550	8.75	9.	0.	125.
4551	8.5	9.25	0.	125.
4552	8.25	9.	0.	125.
4553	-2.5	0.25	0.	127.2
4554	-2.75	0.5	0.	124.15
4555	-2.5	-1.25	0.	125.03
4556	-2.75	-1.5	0.	120.82
4557	-2.25	-1.5	0.	125.28
4558	-4.25	-1.5	0.	125.1
4559	-4.5	-1.25	0.	129.53
4560	-4.5	0.25	0.	128.44
4561	-4.25	0.5	0.	125.15
4562	-4.75	0.5	0.	128.22
4563	-1.75	-4.5	0.	127.83
4564	-1.5	-4.25	0.	130.21
4565	-4.25	-4.5	0.	127.31
4566	-4.5	-4.25	0.	129.68
4567	-4.5	-4.75	0.	128.76
4568	-4.5	-2.75	0.	129.77
4569	-4.25	-2.5	0.	126.39
4570	-1.75	-2.5	0.	128.82
4571	-1.5	-2.75	0.	131.2
4572	-1.5	-2.25	0.	130.54
4573	9.25	9.	0.	125.
4574	9.	9.25	0.	125.
4575	9.25	-9.	0.	125.15
4576	9.	-9.25	0.	125.16
4577	8.75	-9.	0.	125.16
4578	-9.	-9.25	0.	126.25
4579	-9.25	-9.	0.	126.34
4580	-9.25	9.	0.	125.02
4581	-9.	9.25	0.	125.01
4582	-2.5	-0.25	0.	126.28
4583	-2.25	-7.5785e-011	0.	125.91
4584	-2.5	-0.75	0.	125.6
4585	-3.25	-1.5	0.	112.49
4586	-3.75	-1.5	0.	114.
4587	-4.5	-0.75	0.	128.49
4588	-4.5	-0.25	0.	128.01
4589	-3.25	0.5	0.	115.39
4590	-3.75	0.5	0.	115.86
4591	-2.25	-4.5	0.	120.22
4592	-3.25	-4.5	0.	115.7
4593	-2.75	-4.5	0.	115.85
4594	-3.75	-4.5	0.	119.78
4595	-4.5	-3.75	0.	128.6
4596	-4.5	-3.25	0.	128.64
4597	-4.75	-3.5	0.	126.81
4598	-3.75	-2.5	0.	117.63
4599	-3.25	-2.5	0.	113.82
4600	-2.75	-2.5	0.	115.29
4601	-2.25	-2.5	0.	120.71
4602	-1.5	-3.25	0.	129.79
4603	-1.5	-3.75	0.	129.37
4604	9.5	8.75	0.	125.
4605	9.5	9.25	0.	125.
4606	9.5	8.25	0.	124.99
4607	9.5	7.75	0.	124.99
4608	9.25	8.	0.	125.
4609	9.5	7.25	0.	124.99
4610	9.5	6.75	0.	124.99
4611	9.25	7.	0.	124.99
4612	9.5	6.25	0.	124.99
4613	9.5	5.75	0.	124.98
4614	9.25	6.	0.	124.99
4615	9.5	5.25	0.	124.98
4616	9.5	4.75	0.	124.97
4617	9.25	5.	0.	124.98
4618	9.5	4.25	0.	124.96
4619	9.5	3.75	0.	124.96
4620	9.25	4.	0.	124.97
4621	9.5	3.25	0.	124.95
4622	9.5	2.75	0.	124.93
4623	9.25	3.	0.	124.95
4624	9.5	2.25	0.	124.92
4625	9.5	1.75	0.	124.91
4626	9.25	2.	0.	124.93
4627	9.5	1.25	0.	124.89
4628	9.5	0.75	0.	124.88
4629	9.25	1.	0.	124.9
4630	9.5	0.25	0.	124.86
4631	9.5	-0.25	0.	124.85
4632	9.25	1.0914e-012	0.	124.88
4633	9.5	-0.75	0.	124.84
4634	9.25	-0.5	0.	124.87
4635	9.5	-1.25	0.	124.84
4636	9.5	-1.75	0.	124.83
4637	9.5	-2.25	0.	124.84
4638	9.5	-2.75	0.	124.84
4639	9.5	-3.25	0.	124.86
4640	9.25	-3.	0.	124.88
4641	9.5	-3.75	0.	124.87
4642	9.5	-4.25	0.	124.9
4643	9.25	-4.	0.	124.91
4644	9.5	-4.75	0.	124.92
4645	9.5	-5.25	0.	124.95
4646	9.25	-5.	0.	124.96
4647	9.5	-5.75	0.	124.98
4648	9.5	-6.25	0.	125.01
4649	9.25	-6.	0.	125.01
4650	9.5	-6.75	0.	125.04
4651	9.5	-7.25	0.	125.07
4652	9.25	-7.	0.	125.07
4653	9.5	-7.75	0.	125.1
4654	9.25	-7.5	0.	125.1
4655	9.25	-8.	0.	125.12
4656	9.5	-8.25	0.	125.12
4657	9.5	-9.25	0.	125.15
4658	9.5	-8.75	0.	125.14
4659	9.25	-9.5	0.	125.16
4660	8.75	-9.5	0.	125.17
4661	8.25	-9.5	0.	125.19
4662	8.5	-9.25	0.	125.18
4663	7.75	-9.5	0.	125.23
4664	7.25	-9.5	0.	125.26
4665	6.75	-9.5	0.	125.31
4666	7.	-9.25	0.	125.28
4667	6.25	-9.5	0.	125.35
4668	5.75	-9.5	0.	125.4
4669	6.	-9.25	0.	125.37
4670	5.25	-9.5	0.	125.44
4671	4.75	-9.5	0.	125.48
4672	5.	-9.25	0.	125.46
4673	4.25	-9.5	0.	125.52
4674	3.75	-9.5	0.	125.54
4675	4.	-9.25	0.	125.53
4676	3.25	-9.5	0.	125.55
4677	2.75	-9.5	0.	125.53
4678	3.	-9.25	0.	125.55
4679	2.25	-9.5	0.	125.49
4680	1.75	-9.5	0.	125.41
4681	2.	-9.25	0.	125.48
4682	1.25	-9.5	0.	125.29
4683	0.75	-9.5	0.	125.11
4684	1.	-9.25	0.	125.24
4685	0.25	-9.5	0.	124.88
4686	0.5	-9.25	0.	125.04
4687	-0.25	-9.5	0.	124.61
4688	-2.2855e-012	-9.25	0.	124.79
4689	-0.75	-9.5	0.	124.31
4690	-1.25	-9.5	0.	124.
4691	-1.	-9.25	0.	124.16
4692	-1.75	-9.5	0.	123.72
4693	-2.25	-9.5	0.	123.51
4694	-2.75	-9.5	0.	123.39
4695	-3.25	-9.5	0.	123.38
4696	-3.	-9.25	0.	123.31
4697	-3.75	-9.5	0.	123.5
4698	-4.25	-9.5	0.	123.71
4699	-4.75	-9.5	0.	124.
4700	-5.25	-9.5	0.	124.33
4701	-5.	-9.25	0.	124.17
4702	-5.75	-9.5	0.	124.67
4703	-6.25	-9.5	0.	124.98
4704	-6.	-9.25	0.	124.86
4705	-6.75	-9.5	0.	125.27
4706	-7.25	-9.5	0.	125.53
4707	-7.	-9.25	0.	125.43
4708	-7.75	-9.5	0.	125.75
4709	-8.25	-9.5	0.	125.95
4710	-8.	-9.25	0.	125.87
4711	-8.75	-9.5	0.	126.15
4712	-9.25	-9.5	0.	126.35
4713	-9.5	-9.25	0.	126.44
4714	-9.5	-8.75	0.	126.43
4715	-9.5	-8.25	0.	126.4
4716	-9.5	-7.75	0.	126.37
4717	-9.5	-7.25	0.	126.31
4718	-9.25	-7.5	0.	126.28
4719	-9.5	-6.75	0.	126.23
4720	-9.5	-6.25	0.	126.13
4721	-9.5	-5.75	0.	126.01
4722	-9.5	-4.75	0.	125.75
4723	-9.5	-5.25	0.	125.88
4724	-9.25	-5.	0.	125.85
4725	-9.5	-4.25	0.	125.63
4726	-9.5	-3.75	0.	125.53
4727	-9.5	-3.25	0.	125.47
4728	-9.5	-2.75	0.	125.43
4729	-9.25	-3.	0.	125.52
4730	-9.5	-2.25	0.	125.42
4731	-9.25	-2.5	0.	125.51
4732	-9.5	-1.75	0.	125.44
4733	-9.25	-2.	0.	125.52
4734	-9.5	-1.25	0.	125.48
4735	-9.5	-0.75	0.	125.53
4736	-9.25	-1.	0.	125.58
4737	-9.5	-0.25	0.	125.59
4738	-9.5	0.25	0.	125.65
4739	-9.25	1.0625e-012	0.	125.66
4740	-9.5	0.75	0.	125.71
4741	-9.5	1.25	0.	125.76
4742	-9.25	1.	0.	125.75
4743	-9.5	1.75	0.	125.79
4744	-9.5	2.25	0.	125.8
4745	-9.25	2.	0.	125.79
4746	-9.5	2.75	0.	125.79
4747	-9.5	3.25	0.	125.75
4748	-9.25	3.	0.	125.75
4749	-9.5	3.75	0.	125.7
4750	-9.5	4.25	0.	125.64
4751	-9.5	4.75	0.	125.56
4752	-9.5	5.25	0.	125.48
4753	-9.25	5.	0.	125.49
4754	-9.5	5.75	0.	125.4
4755	-9.5	6.25	0.	125.32
4756	-9.25	6.	0.	125.34
4757	-9.5	6.75	0.	125.25
4758	-9.5	7.25	0.	125.18
4759	-9.5	7.75	0.	125.12
4760	-9.5	8.25	0.	125.07
4761	-9.5	8.75	0.	125.04
4762	-9.5	9.25	0.	125.01
4763	-9.25	9.5	0.	125.
4764	-8.75	9.5	0.	124.99
4765	-8.25	9.5	0.	124.97
4766	-7.75	9.5	0.	124.95
4767	-7.25	9.5	0.	124.92
4768	-6.75	9.5	0.	124.89
4769	-7.	9.25	0.	124.91
4770	-6.25	9.5	0.	124.85
4771	-5.75	9.5	0.	124.82
4772	-5.25	9.5	0.	124.79
4773	-4.75	9.5	0.	124.76
4774	-5.	9.25	0.	124.78
4775	-4.25	9.5	0.	124.74
4776	-3.75	9.5	0.	124.73
4777	-3.25	9.5	0.	124.72
4778	-2.75	9.5	0.	124.72
4779	-3.	9.25	0.	124.73
4780	-2.25	9.5	0.	124.72
4781	-1.75	9.5	0.	124.73
4782	-2.	9.25	0.	124.74
4783	-1.25	9.5	0.	124.75
4784	-0.75	9.5	0.	124.77
4785	-1.	9.25	0.	124.77
4786	-0.25	9.5	0.	124.79
4787	0.25	9.5	0.	124.82
4788	-1.5447e-011	9.25	0.	124.82
4789	0.75	9.5	0.	124.84
4790	1.25	9.5	0.	124.87
4791	1.	9.25	0.	124.87
4792	1.75	9.5	0.	124.89
4793	2.25	9.5	0.	124.91
4794	2.75	9.5	0.	124.93
4795	3.25	9.5	0.	124.95
4796	3.	9.25	0.	124.95
4797	3.75	9.5	0.	124.96
4798	4.25	9.5	0.	124.98
4799	5.25	9.5	0.	124.99
4800	4.75	9.5	0.	124.99
4801	5.	9.25	0.	124.99
4802	5.75	9.5	0.	125.
4803	6.25	9.5	0.	125.
4804	7.25	9.5	0.	125.
4805	6.75	9.5	0.	125.
4806	7.	9.25	0.	125.
4807	7.75	9.5	0.	125.
4808	8.75	9.5	0.	125.
4809	8.25	9.5	0.	125.
4810	9.25	9.5	0.	125.
4811	6.25	-3.	0.	125.07
4812	-8.75	-7.5	0.	126.17
4813	0.5	-4.25	0.	125.73
4814	3.75	1.	0.	125.4
4815	3.5	1.25	0.	125.43
4816	3.5	-2.75	0.	125.2
4817	3.75	-3.	0.	125.18
4818	0.5	4.75	0.	125.12
4819	0.25	4.5	0.	125.11
4820	0.75	4.5	0.	125.19
4821	3.	-5.75	0.	125.5
4822	3.	-5.25	0.	125.43
4823	3.	-6.25	0.	125.56
4824	-5.75	-8.5	0.	124.8
4825	2.	3.75	0.	125.38
4826	-4.	6.25	0.	124.55
4827	-4.	5.75	0.	124.47
4828	3.75	-2.5	0.	125.19
4829	3.25	-2.5	0.	125.23
4830	-1.25	-1.5525e-010	0.	125.14
4831	-1.75	-1.1709e-010	0.	125.08
4832	-4.	2.75	0.	123.24
4833	-4.	2.25	0.	122.74
4834	-5.75	4.	0.	124.89
4835	-6.25	4.	0.	125.11
4836	3.	6.25	0.	125.12
4837	3.	6.75	0.	125.08
4838	-6.25	-8.5	0.	125.14
4839	-6.	-8.75	0.	124.93
4840	-1.	4.75	0.	124.76
4841	-5.5	-0.75	0.	126.7
4842	2.25	-3.	0.	125.29
4843	-2.5	3.25	0.	123.81
4844	-2.5	2.75	0.	123.62
4845	4.	-5.25	0.	125.32
4846	4.	-5.75	0.	125.38
4847	4.25	3.	0.	125.32
4848	3.75	3.	0.	125.36
4849	-4.	6.75	0.	124.62
4850	1.	5.75	0.	125.07
4851	1.	5.25	0.	125.13
4852	0.25	5.	0.	125.04
4853	0.75	5.	0.	125.12
4854	-4.	4.25	0.	124.07
4855	-9.	-2.25	0.	125.6
4856	2.25	-8.	0.	125.6
4857	-2.5	4.25	0.	124.15
4858	6.75	5.	0.	125.09
4859	-0.75	6.	0.	124.81
4860	-0.25	6.	0.	124.89
4861	6.	-6.75	0.	125.28
4862	-1.3823e-010	6.75	0.	124.9
4863	-5.25	-6.5	0.	125.32
4864	-1.9285e-010	5.25	0.	124.98
4865	-1.6511e-010	4.75	0.	125.03
4866	-9.	-2.75	0.	125.6
4867	-6.25	3.	0.	125.41
4868	6.25	3.	0.	125.16
4869	4.25	-2.5	0.	125.16
4870	4.	-2.75	0.	125.17
4871	0.25	-2.3474e-010	0.	125.84
4872	-0.75	-1.8848e-010	0.	125.48
4873	6.25	4.	0.	125.14
4874	6.75	4.	0.	125.11
4875	-1.	6.25	0.	124.77
4876	-1.	6.75	0.	124.78
4877	-8.75	-2.5	0.	125.67
4878	3.	5.75	0.	125.17
4879	9.	-7.75	0.	125.11
4880	-3.	5.75	0.	124.44
4881	-4.75	-6.5	0.	124.5
4882	-4.5	-6.25	0.	124.19
4883	5.75	-4.	0.	125.12
4884	4.75	2.	0.	125.29
4885	9.	-7.25	0.	125.09
4886	5.25	-6.	0.	125.29
4887	-3.	-7.25	0.	122.31
4888	-6.75	-6.	0.	126.28
4889	-2.75	7.	0.	124.64
4890	0.75	-9.	0.	125.17
4891	0.25	-9.	0.	124.94
4892	-1.	-8.75	0.	124.2
4893	3.	5.25	0.	125.21
4894	-5.75	5.	0.	124.82
4895	9.	-0.25	0.	124.9
4896	-1.25	-8.5	0.	124.02
4897	3.75	2.	0.	125.39
4898	3.25	2.	0.	125.45
4899	3.5	1.75	0.	125.43
4900	8.	9.25	0.	125.
4901	2.	3.25	0.	125.44
4902	-5.25	-7.5	0.	124.67
4903	8.75	-7.5	0.	125.12
4904	3.	4.75	0.	125.26
4905	1.	4.25	0.	125.26
4906	1.	3.75	0.	125.34
4907	-1.9111e-010	5.75	0.	124.94
4908	4.75	-1.	0.	125.2
4909	4.25	-1.	0.	125.25
4910	5.	5.75	0.	125.13
4911	5.25	-2.	0.	125.13
4912	-6.75	5.	0.	125.1
4913	-6.25	5.	0.	124.97
4914	5.25	-1.	0.	125.16
4915	5.75	-1.	0.	125.13
4916	4.25	1.	0.	125.34
4917	-7.	-1.75	0.	126.46
4918	8.75	-0.5	0.	124.92
4919	3.	4.25	0.	125.31
4920	-2.75	2.5	0.	123.19
4921	-5.25	0.5	0.	127.09
4922	1.	6.75	0.	124.99
4923	-4.	1.75	0.	122.07
4924	-2.	-5.75	0.	122.77
4925	-2.	-6.25	0.	122.8
4926	4.25	2.	0.	125.34
4927	-2.5	3.75	0.	123.99
4928	-0.25	-2.1596e-010	0.	125.73
4929	5.25	1.	0.	125.23
4930	5.	-5.75	0.	125.29
4931	3.25	-9.617e-011	0.	125.44
4932	-4.5	-5.25	0.	126.13
4933	-0.75	-7.	0.	124.96
4934	-1.7002e-010	6.25	0.	124.92
4935	-1.	-5.25	0.	127.4
4936	1.	6.25	0.	125.03
4937	1.	4.75	0.	125.19
4938	-4.5	-5.75	0.	124.81
4939	-2.5	2.25	0.	123.46
4940	-2.	-6.75	0.	122.95
4941	4.75	1.	0.	125.28
4942	-6.75	4.	0.	125.27
4943	3.	-6.75	0.	125.59
4944	-3.	0.	0.	95.434
4945	-4.	0.	0.	95.927
4946	-3.	-1.	0.	94.089
4947	-4.	-1.	0.	96.083
4948	-3.5	0.	0.	110.77
4949	-3.	-0.5	0.	99.885
4950	-4.	-0.5	0.	100.94
4951	-3.5	-1.	0.	109.6
4952	-3.5	-0.5	0.	107.67
4953	-3.25	0.	0.	103.08
4954	-3.	-0.25	0.	97.652
4955	-3.75	0.	0.	103.32
4956	-4.	-0.25	0.	98.426
4957	-3.	-0.75	0.	96.975
4958	-3.25	-1.	0.	101.84
4959	-4.	-0.75	0.	98.507
4960	-3.75	-1.	0.	102.83
4961	-3.5	-0.25	0.	109.17
4962	-3.25	-0.5	0.	103.75
4963	-3.75	-0.5	0.	104.29
4964	-3.5	-0.75	0.	108.6
4965	-2.	-3.	0.	98.458
4966	-4.	-3.	0.	96.861
4967	-2.	-4.	0.	97.868
4968	-4.	-4.	0.	97.368
4969	-2.5	-3.	0.	113.95
4970	-3.	-3.	0.	111.7
4971	-3.5	-3.	0.	112.58
4972	-2.	-3.5	0.	102.94
4973	-4.	-3.5	0.	101.93
4974	-3.5	-4.	0.	113.52
4975	-3.	-4.	0.	112.26
4976	-2.5	-4.	0.	113.99
4977	-3.5	-3.5	0.	111.83
4978	-3.	-3.5	0.	115.12
4979	-2.5	-3.5	0.	112.62
4980	-2.25	-3.	0.	106.16
4981	-2.	-3.25	0.	100.68
4982	-3.75	-3.	0.	104.69
4983	-4.	-3.25	0.	99.378
4984	-2.	-3.75	0.	100.38
4985	-2.25	-4.	0.	105.88
4986	-4.	-3.75	0.	99.631
4987	-3.75	-4.	0.	105.4
4988	-2.75	-3.	0.	112.82
4989	-2.5	-3.25	0.	113.27
4990	-3.25	-3.	0.	112.13
4991	-3.	-3.25	0.	113.4
4992	-3.5	-3.25	0.	112.19
4993	-2.25	-3.5	0.	107.77
4994	-3.75	-3.5	0.	106.87
4995	-3.25	-4.	0.	112.89
4996	-3.5	-3.75	0.	112.66
4997	-2.75	-4.	0.	113.12
4998	-3.	-3.75	0.	113.68
4999	-2.5	-3.75	0.	113.28
5000	-3.25	-3.5	0.	113.47
5001	-2.75	-3.5	0.	113.87
