Node Number	X Location (mm)	Y Location (mm)	Z Location (mm)	Equivalent (von-Mises) Stress (MPa)
1	-5.	-1.	0.	139.08
2	-5.	-2.	0.	138.57
3	-3.	-1.	0.	130.75
4	-3.	-2.	0.	133.51
5	-7.	-2.	0.	134.98
6	-7.	-3.	0.	138.13
7	-6.	-2.	0.	137.61
8	-6.	-3.	0.	138.74
9	-9.	1.	0.	136.1
10	-9.	0.	0.	135.77
11	-8.	1.	0.	136.9
12	-8.	0.	0.	135.32
13	1.	2.	0.	136.77
14	1.	1.	0.	137.09
15	3.	2.	0.	133.17
16	3.	1.	0.	133.38
17	-1.	8.	0.	136.26
18	-1.	7.	0.	136.36
19	1.	8.	0.	136.69
20	1.	7.	0.	136.39
21	3.	4.	0.	132.12
22	3.	3.	0.	133.86
23	4.	4.	0.	135.31
24	4.	3.	0.	136.94
25	-9.	-4.	0.	134.52
26	-9.	-6.	0.	133.63
27	-8.	-4.	0.	136.15
28	-8.	-6.	0.	132.03
29	-7.	3.	0.	133.68
30	-7.	2.	0.	136.26
31	-6.	3.	0.	135.54
32	-6.	2.	0.	134.99
33	0.	-6.	0.	132.73
34	0.	-7.	0.	132.2
35	1.	-6.	0.	132.53
36	1.	-7.	0.	132.49
37	7.	-1.	0.	131.89
38	7.	-3.	0.	131.8
39	8.	-1.	0.	131.7
40	8.	-3.	0.	131.44
41	-4.	3.	0.	134.74
42	-4.	1.	0.	132.99
43	-2.	3.	0.	136.57
44	-2.	1.	0.	136.04
45	10.	10.	0.	125.
46	-10.	10.	0.	125.
47	10.	-10.	0.	124.71
48	-10.	-10.	0.	124.72
49	-5.	-1.5	0.	149.17
50	-4.5	-1.	0.	119.7
51	-4.	-1.	0.	121.93
52	-3.5	-1.	0.	114.26
53	-4.5	-2.	0.	117.75
54	-4.	-2.	0.	121.79
55	-3.5	-2.	0.	115.72
56	-3.	-1.5	0.	140.73
57	-7.	-2.5	0.	145.4
58	-6.5	-2.	0.	113.4
59	-6.5	-3.	0.	115.72
60	-6.	-2.5	0.	149.48
61	-9.	0.5	0.	146.27
62	-8.5	1.	0.	113.83
63	-8.5	0.	0.	113.35
64	-8.	0.5	0.	145.22
65	1.	1.5	0.	145.17
66	1.5	2.	0.	118.76
67	2.	2.	0.	124.89
68	2.5	2.	0.	118.85
69	1.5	1.	0.	117.95
70	2.	1.	0.	122.81
71	2.5	1.	0.	117.
72	3.	1.5	0.	141.1
73	-1.	7.5	0.	144.59
74	-0.5	8.	0.	118.67
75	0.	8.	0.	124.19
76	0.5	8.	0.	118.7
77	-0.5	7.	0.	118.69
78	0.	7.	0.	124.17
79	0.5	7.	0.	118.92
80	1.	7.5	0.	144.88
81	3.	3.5	0.	141.17
82	3.5	4.	0.	112.05
83	3.5	3.	0.	114.71
84	4.	3.5	0.	145.
85	-9.	-4.5	0.	144.65
86	-9.	-5.	0.	145.21
87	-9.	-5.5	0.	144.13
88	-8.5	-4.	0.	110.17
89	-8.5	-6.	0.	108.3
90	-8.	-4.5	0.	143.61
91	-8.	-5.	0.	142.94
92	-8.	-5.5	0.	141.72
93	-7.	2.5	0.	144.3
94	-6.5	3.	0.	112.16
95	-6.5	2.	0.	112.59
96	-6.	2.5	0.	143.91
97	0.	-6.5	0.	141.65
98	0.5	-6.	0.	110.41
99	0.5	-7.	0.	110.2
100	1.	-6.5	0.	141.74
101	7.	-1.5	0.	140.82
102	7.	-2.	0.	141.18
103	7.	-2.5	0.	140.69
104	7.5	-1.	0.	107.4
105	7.5	-3.	0.	107.28
106	8.	-1.5	0.	140.85
107	8.	-2.	0.	141.33
108	8.	-2.5	0.	140.8
109	-4.	2.5	0.	142.47
110	-4.	2.	0.	143.33
111	-4.	1.5	0.	142.09
112	-3.5	3.	0.	113.32
113	-3.	3.	0.	117.79
114	-2.5	3.	0.	113.56
115	-3.5	1.	0.	111.31
116	-3.	1.	0.	117.07
117	-2.5	1.	0.	114.32
118	-2.	2.5	0.	144.31
119	-2.	2.	0.	145.26
120	-2.	1.5	0.	144.3
121	9.5	10.	0.	125.
122	9.	10.	0.	125.01
123	8.5	10.	0.	125.05
124	8.	10.	0.	125.09
125	7.5	10.	0.	125.13
126	7.	10.	0.	125.17
127	6.5	10.	0.	125.21
128	6.	10.	0.	125.25
129	5.5	10.	0.	125.3
130	5.	10.	0.	125.38
131	4.5	10.	0.	125.51
132	4.	10.	0.	125.71
133	3.5	10.	0.	125.97
134	3.	10.	0.	126.24
135	2.5	10.	0.	126.34
136	2.	10.	0.	125.94
137	1.5	10.	0.	124.76
138	1.	10.	0.	122.98
139	0.5	10.	0.	121.37
140	-5.2042e-015	10.	0.	120.69
141	-0.5	10.	0.	121.27
142	-1.	10.	0.	122.77
143	-1.5	10.	0.	124.46
144	-2.	10.	0.	125.57
145	-2.5	10.	0.	125.91
146	-3.	10.	0.	125.76
147	-3.5	10.	0.	125.46
148	-4.	10.	0.	125.16
149	-4.5	10.	0.	124.94
150	-5.	10.	0.	124.8
151	-5.5	10.	0.	124.73
152	-6.	10.	0.	124.71
153	-6.5	10.	0.	124.73
154	-7.	10.	0.	124.78
155	-7.5	10.	0.	124.84
156	-8.	10.	0.	124.9
157	-8.5	10.	0.	124.95
158	-9.	10.	0.	124.99
159	-9.5	10.	0.	125.
160	10.	9.5	0.	125.
161	10.	9.	0.	124.97
162	10.	8.5	0.	124.91
163	10.	8.	0.	124.81
164	10.	7.5	0.	124.7
165	10.	7.	0.	124.56
166	10.	6.5	0.	124.4
167	10.	6.	0.	124.22
168	10.	5.5	0.	124.03
169	10.	5.	0.	123.85
170	10.	4.5	0.	123.7
171	10.	4.	0.	123.62
172	10.	3.5	0.	123.63
173	10.	3.	0.	123.79
174	10.	2.5	0.	124.12
175	10.	2.	0.	124.67
176	10.	1.5	0.	125.46
177	10.	1.	0.	126.43
178	10.	0.5	0.	127.37
179	10.	-5.2042e-015	0.	127.86
180	10.	-0.5	0.	127.44
181	10.	-1.	0.	126.19
182	10.	-1.5	0.	124.9
183	10.	-2.	0.	124.47
184	10.	-2.5	0.	125.14
185	10.	-3.	0.	126.65
186	10.	-3.5	0.	128.09
187	10.	-4.	0.	128.71
188	10.	-4.5	0.	128.39
189	10.	-5.	0.	127.61
190	10.	-5.5	0.	126.77
191	10.	-6.	0.	126.08
192	10.	-6.5	0.	125.58
193	10.	-7.	0.	125.23
194	10.	-7.5	0.	125.01
195	10.	-8.	0.	124.87
196	10.	-8.5	0.	124.78
197	10.	-9.	0.	124.74
198	10.	-9.5	0.	124.71
199	-10.	9.5	0.	124.99
200	-10.	9.	0.	125.02
201	-10.	8.5	0.	125.1
202	-10.	8.	0.	125.23
203	-10.	7.5	0.	125.39
204	-10.	7.	0.	125.59
205	-10.	6.5	0.	125.8
206	-10.	6.	0.	125.99
207	-10.	5.5	0.	126.12
208	-10.	5.	0.	126.15
209	-10.	4.5	0.	126.
210	-10.	4.	0.	125.7
211	-10.	3.5	0.	125.46
212	-10.	3.	0.	125.73
213	-10.	2.5	0.	127.16
214	-10.	2.	0.	129.86
215	-10.	1.5	0.	131.09
216	-10.	1.	0.	128.23
217	-10.	0.5	0.	125.01
218	-10.	-5.2042e-015	0.	129.06
219	-10.	-0.5	0.	132.54
220	-10.	-1.	0.	131.62
221	-10.	-1.5	0.	129.01
222	-10.	-2.	0.	127.84
223	-10.	-2.5	0.	128.83
224	-10.	-3.	0.	131.86
225	-10.	-3.5	0.	134.18
226	-10.	-4.	0.	133.14
227	-10.	-4.5	0.	131.14
228	-10.	-5.	0.	131.59
229	-10.	-5.5	0.	131.14
230	-10.	-6.	0.	133.28
231	-10.	-6.5	0.	134.64
232	-10.	-7.	0.	132.59
233	-10.	-7.5	0.	129.27
234	-10.	-8.	0.	127.02
235	-10.	-8.5	0.	125.77
236	-10.	-9.	0.	125.11
237	-10.	-9.5	0.	124.81
238	-9.5	-10.	0.	124.84
239	-9.	-10.	0.	124.68
240	-8.5	-10.	0.	124.47
241	-8.	-10.	0.	124.39
242	-7.5	-10.	0.	124.5
243	-7.	-10.	0.	124.74
244	-6.5	-10.	0.	125.01
245	-6.	-10.	0.	125.26
246	-5.5	-10.	0.	125.45
247	-5.	-10.	0.	125.58
248	-4.5	-10.	0.	125.68
249	-4.	-10.	0.	125.76
250	-3.5	-10.	0.	125.83
251	-3.	-10.	0.	125.87
252	-2.5	-10.	0.	125.85
253	-2.	-10.	0.	125.69
254	-1.5	-10.	0.	125.31
255	-1.	-10.	0.	124.67
256	-0.5	-10.	0.	123.86
257	5.2042e-015	-10.	0.	123.15
258	0.5	-10.	0.	122.89
259	1.	-10.	0.	123.23
260	1.5	-10.	0.	124.01
261	2.	-10.	0.	124.87
262	2.5	-10.	0.	125.54
263	3.	-10.	0.	125.92
264	3.5	-10.	0.	126.05
265	4.	-10.	0.	126.01
266	4.5	-10.	0.	125.87
267	5.	-10.	0.	125.69
268	5.5	-10.	0.	125.49
269	6.	-10.	0.	125.31
270	6.5	-10.	0.	125.16
271	7.	-10.	0.	125.04
272	7.5	-10.	0.	124.96
273	8.	-10.	0.	124.91
274	8.5	-10.	0.	124.88
275	9.	-10.	0.	124.84
276	9.5	-10.	0.	124.79
277	3.	-3.	0.	125.02
278	2.5	-2.5	0.	124.1
279	2.	-2.5	0.	123.86
280	5.	-5.5	0.	125.94
281	-4.	-5.5	0.	123.91
282	2.	-2.	0.	123.38
283	2.5	-3.	0.	124.61
284	4.	-4.5	0.	126.53
285	4.5	-5.	0.	126.43
286	3.5	-4.	0.	126.23
287	5.5	-5.5	0.	125.62
288	6.	-6.	0.	124.8
289	3.	-2.5	0.	124.56
290	3.5	-2.5	0.	125.13
291	3.5	-3.	0.	125.47
292	-3.5	-5.5	0.	124.
293	-3.5	-6.	0.	124.19
294	1.5	-2.5	0.	123.91
295	1.	-2.5	0.	124.24
296	4.5	-6.	0.	125.74
297	4.5	-5.5	0.	126.06
298	-4.5	-6.	0.	124.23
299	5.5	-6.	0.	125.28
300	5.	-6.	0.	125.59
301	-4.5	-5.5	0.	124.03
302	-3.5	-5.	0.	123.76
303	0.5	-2.5	0.	124.77
304	1.5	-2.	0.	123.68
305	2.5	-2.	0.	123.57
306	4.	-2.	0.	125.66
307	4.	-2.5	0.	125.7
308	4.	-4.	0.	126.49
309	2.	-3.	0.	124.28
310	0.5	-3.	0.	124.4
311	4.	-5.	0.	126.39
312	-5.	6.	0.	125.
313	4.5	-6.5	0.	125.54
314	-3.5	-6.5	0.	124.41
315	2.	-1.5	0.	122.74
316	4.5	-2.	0.	126.27
317	4.5	-4.5	0.	126.72
318	-3.	-5.	0.	124.3
319	2.5	-3.5	0.	125.16
320	3.5	-4.5	0.	126.43
321	-5.	-6.	0.	124.44
322	-3.5113e-012	-3.	0.	125.
323	6.	-6.5	0.	124.76
324	-6.	6.5	0.	124.7
325	-3.5	6.	0.	124.05
326	5.9986	6.0002	0.	126.25
327	6.	-5.5	0.	125.
328	6.5	-6.	0.	124.22
329	5.	-5.	0.	126.41
330	4.5	-1.5	0.	126.65
331	3.	-4.	0.	126.02
332	-5.	-5.5	0.	124.23
333	-4.	-5.	0.	123.66
334	-4.5	6.	0.	124.66
335	1.	-2.	0.	124.38
336	3.	-2.	0.	124.16
337	3.5	-2.	0.	124.93
338	4.	-3.	0.	125.95
339	4.	-3.5	0.	126.26
340	-3.	-5.5	0.	124.35
341	-3.	-6.	0.	124.38
342	1.	-3.	0.	124.09
343	4.	-6.	0.	125.79
344	4.	-5.5	0.	126.1
345	-5.5	6.	0.	125.07
346	-6.	6.	0.	124.93
347	4.3164e-011	-2.5	0.	125.39
348	7.3514e-011	-2.	0.	125.94
349	-4.5	-6.5	0.	124.53
350	5.	-6.5	0.	125.38
351	5.4977	6.5002	0.	125.69
352	5.9978	6.5003	0.	125.79
353	6.4987	6.0002	0.	125.99
354	6.4993	5.5002	0.	126.2
355	-5.	6.5	0.	124.5
356	-4.	6.5	0.	123.99
357	4.	-6.5	0.	125.6
358	-6.5	6.	0.	124.82
359	-3.	-6.5	0.	124.5
360	-3.5	5.5	0.	123.63
361	9.1648e-011	-1.5	0.	126.89
362	1.5	-1.5	0.	123.35
363	2.5	-1.5	0.	122.96
364	4.	-1.5	0.	125.93
365	4.9978	6.5001	0.	125.34
366	6.4996	5.0001	0.	126.24
367	6.5	2.	0.	125.05
368	6.5	3.5	0.	125.4
369	4.5	-2.5	0.	126.24
370	4.5	-4.	0.	126.84
371	-2.5	-5.	0.	125.12
372	2.	-3.5	0.	124.73
373	0.5	-3.5	0.	123.93
374	3.5	-5.	0.	126.41
375	-5.	5.5	0.	125.78
376	-0.5	-3.	0.	125.77
377	-0.5	-1.5	0.	127.27
378	-3.5	-4.5	0.	123.3
379	6.5	-6.5	0.	124.37
380	6.4981	6.5003	0.	125.71
381	-6.5	6.5	0.	124.74
382	-3.	5.	0.	122.23
383	-3.5	6.5	0.	124.01
384	-3.	5.5	0.	123.8
385	2.	-1.	0.	121.8
386	5.4986	6.0001	0.	126.34
387	5.9992	5.5001	0.	126.69
388	6.	1.5	0.	126.12
389	6.5	-5.5	0.	124.12
390	5.5	-5.	0.	126.17
391	5.	-4.5	0.	126.91
392	4.5	-1.	0.	127.33
393	5.	-2.	0.	126.81
394	6.5	1.5	0.	124.88
395	2.5	-4.	0.	125.77
396	3.	-4.5	0.	126.42
397	-5.5	-5.5	0.	124.41
398	-4.5	-5.	0.	123.97
399	-1.	-3.5	0.	126.54
400	-1.5	-4.	0.	126.95
401	3.5	-6.5	0.	125.6
402	-4.6637e-007	4.5	0.	126.82
403	-6.5	5.5	0.	124.79
404	3.4986	6.5	0.	124.11
405	-2.5	-6.5	0.	124.67
406	-0.5	-1.	0.	128.87
407	-1.7301e-006	5.	0.	125.16
408	-4.5	5.5	0.	125.26
409	0.5	-1.5	0.	125.9
410	1.	-1.5	0.	124.57
411	3.	-1.5	0.	123.84
412	3.5	-1.5	0.	124.96
413	3.9983	6.5	0.	124.18
414	6.4999	4.	0.	125.7
415	6.4998	4.5001	0.	126.04
416	6.5	2.5	0.	125.17
417	6.5	3.	0.	125.25
418	4.5	-3.	0.	126.46
419	4.5	-3.5	0.	126.73
420	-2.5	-6.	0.	124.7
421	-0.5	-3.5	0.	125.57
422	1.	-3.5	0.	123.86
423	3.5	-6.	0.	125.8
424	3.5	-5.5	0.	126.15
425	-5.5	5.5	0.	125.67
426	-6.	5.5	0.	125.18
427	-5.5	-6.	0.	124.76
428	-0.5	-2.5	0.	125.96
429	-3.	-4.5	0.	124.13
430	-2.5	-4.5	0.	125.27
431	-3.5	-7.	0.	124.7
432	-4.	-7.	0.	124.72
433	-4.5	-7.	0.	124.85
434	-5.5	-7.	0.	125.47
435	7.	-6.	0.	123.71
436	7.	-6.5	0.	124.06
437	6.5	-7.	0.	124.53
438	6.	-7.	0.	124.81
439	5.5	-7.	0.	125.09
440	5.	-7.	0.	125.32
441	4.	-7.	0.	125.58
442	4.4972	7.0001	0.	124.43
443	5.4969	7.0002	0.	125.23
444	5.9971	7.0003	0.	125.41
445	6.4975	7.0003	0.	125.44
446	6.9989	6.0002	0.	125.69
447	6.9997	5.0001	0.	125.71
448	6.9998	4.5001	0.	125.51
449	6.9999	4.0001	0.	125.22
450	7.	3.	0.	124.7
451	7.	2.	0.	124.15
452	-7.	6.5	0.	124.84
453	-6.5	7.	0.	124.66
454	-6.	7.	0.	124.54
455	-5.	7.	0.	124.19
456	-4.	7.	0.	123.76
457	5.5	1.	0.	127.16
458	-3.5	5.	0.	122.66
459	-2.5	5.	0.	123.49
460	3.498	7.	0.	123.98
461	-0.5	5.	0.	126.04
462	-3.5	7.	0.	123.76
463	1.0367e-010	-1.	0.	128.35
464	1.5	-1.	0.	122.85
465	2.5	-1.	0.	122.17
466	4.	-1.	0.	126.56
467	4.9986	6.0001	0.	126.04
468	5.9996	5.0001	0.	126.93
469	6.	2.	0.	126.17
470	6.	3.5	0.	126.
471	7.	-5.5	0.	123.27
472	6.	-5.	0.	125.46
473	5.	-2.5	0.	126.79
474	5.	-4.	0.	127.28
475	5.	-1.5	0.	127.21
476	7.	1.5	0.	123.71
477	6.	1.	0.	126.36
478	-2.	-5.	0.	126.04
479	-1.	-4.	0.	126.53
480	2.	-4.	0.	125.29
481	0.5	-4.	0.	123.16
482	3.	-5.	0.	126.58
483	-5.	5.	0.	127.01
484	-6.	-5.5	0.	124.74
485	-1.	-3.	0.	126.58
486	-3.5	-4.	0.	122.46
487	-2.	-4.	0.	126.61
488	3.5	-7.	0.	125.66
489	3.	-6.5	0.	125.57
490	0.5	4.5	0.	126.06
491	-0.5	4.5	0.	127.88
492	-7.	7.	0.	124.79
493	-7.	5.5	0.	124.81
494	-2.5	5.5	0.	125.04
495	3.4992	5.9999	0.	123.84
496	5.4992	5.5001	0.	127.12
497	6.998	7.0002	0.	125.38
498	5.5	0.5	0.	127.86
499	-1.5	-4.5	0.	126.91
500	2.5	-4.5	0.	126.44
501	7.	-7.	0.	124.33
502	-2.	-6.5	0.	124.86
503	-6.5	5.	0.	124.46
504	-1.5	-3.5	0.	127.19
505	-0.5	-0.5	0.	130.9
506	-1.	-1.5	0.	126.96
507	-6.	-7.	0.	126.01
508	-2.5	-7.	0.	124.91
509	-2.6478e-007	4.	0.	128.18
510	-4.5	-4.5	0.	123.99
511	0.49999	5.	0.	125.17
512	4.5	-0.5	0.	128.08
513	5.5	1.5	0.	127.03
514	5.	4.1972e-008	0.	128.5
515	-3.	4.5	0.	119.79
516	-5.8442e-006	5.5	0.	123.05
517	2.	-0.5	0.	120.39
518	-6.5	-5.	0.	125.15
519	-4.5	5.	0.	126.18
520	-2.	5.	0.	125.62
521	2.999	6.4999	0.	124.88
522	2.9986	7.	0.	124.44
523	-1.	5.	0.	127.09
524	-3.	7.	0.	124.13
525	-3.	6.5	0.	124.58
526	0.5	-1.	0.	126.94
527	1.	-1.	0.	124.86
528	3.	-1.	0.	123.6
529	3.5	-1.	0.	125.29
530	3.9989	6.	0.	124.18
531	5.9998	4.5001	0.	126.79
532	6.	3.	0.	126.03
533	7.	-5.	0.	122.68
534	5.	-3.	0.	127.07
535	5.	-3.5	0.	127.32
536	5.	-1.	0.	127.89
537	6.5	1.	0.	124.84
538	-2.	-6.	0.	125.11
539	-0.5	-4.	0.	125.41
540	1.	-4.	0.	123.46
541	3.	-6.	0.	125.87
542	3.	-5.5	0.	126.35
543	-5.5	5.	0.	126.57
544	-6.	5.	0.	125.35
545	-6.	-6.	0.	125.33
546	-5.5	-5.	0.	124.42
547	-1.	-2.5	0.	126.46
548	-1.	-2.	0.	126.4
549	-3.	-4.	0.	123.83
550	-2.5	-4.	0.	125.48
551	3.	-7.	0.	125.77
552	0.5	4.	0.	126.71
553	-7.	-5.	0.	127.96
554	6.	-2.	0.	129.34
555	2.	8.7282e-012	0.	118.49
556	-1.3308e-005	6.	0.	120.58
557	-1.	2.	0.	130.8
558	-3.	4.	0.	116.45
559	5.	0.5	0.	127.92
560	5.	1.	0.	127.21
561	5.	1.5	0.	127.23
562	4.5	2.8176e-008	0.	128.45
563	0.99999	5.	0.	126.03
564	1.5	5.	0.	127.17
565	-4.5	-4.	0.	123.81
566	0.99999	4.5	0.	125.74
567	1.	4.	0.	125.18
568	-1.3457e-007	3.5	0.	129.33
569	-2.5	-7.5	0.	125.31
570	-3.	-7.5	0.	125.11
571	-3.5	-7.5	0.	125.02
572	-4.	-7.5	0.	125.03
573	-4.5	-7.5	0.	125.13
574	-5.	-7.5	0.	125.32
575	-5.5	-7.5	0.	125.59
576	-6.	-7.5	0.	125.9
577	-6.5	-7.5	0.	126.09
578	-7.	-7.5	0.	125.77
579	-6.5	0.5	0.	124.44
580	-1.	-1.	0.	128.56
581	-1.	-0.5	0.	130.81
582	-2.	-3.5	0.	127.23
583	-4.	-3.5	0.	120.56
584	-3.5	-3.5	0.	121.11
585	-1.5	-1.5	0.	126.18
586	-5.	-4.5	0.	125.01
587	-6.5	-4.5	0.	124.39
588	-6.5	-5.5	0.	125.74
589	-6.5	-7.	0.	126.64
590	-6.5	4.5	0.	123.47
591	-2.	-7.	0.	125.16
592	-2.	-7.5	0.	125.67
593	7.5	-5.	0.	121.97
594	7.5	-5.5	0.	122.9
595	7.5	-6.	0.	123.52
596	7.5	-6.5	0.	123.95
597	7.5	-7.	0.	124.27
598	7.5	-7.5	0.	124.5
599	7.	-7.5	0.	124.55
600	6.5	-7.5	0.	124.7
601	6.	-7.5	0.	124.91
602	5.5	-7.5	0.	125.14
603	5.	-7.5	0.	125.35
604	4.5	-7.5	0.	125.54
605	4.	-7.5	0.	125.7
606	3.5	-7.5	0.	125.89
607	3.	-7.5	0.	126.18
608	2.5	-5.	0.	126.94
609	2.5	-6.5	0.	125.66
610	2.	-4.5	0.	126.14
611	-1.	-4.5	0.	126.84
612	0.5	-4.5	0.	121.79
613	-1.5	-6.5	0.	125.19
614	-1.5	-5.	0.	126.93
615	6.	0.5	0.	127.17
616	2.9983	7.5	0.	124.11
617	3.4976	7.5	0.	123.89
618	3.9971	7.5001	0.	123.99
619	4.4966	7.5001	0.	124.29
620	4.9964	7.5001	0.	124.65
621	5.4964	7.5002	0.	124.96
622	5.9966	7.5002	0.	125.16
623	6.4971	7.5002	0.	125.24
624	6.9977	7.5002	0.	125.24
625	7.4983	7.5001	0.	125.18
626	7.4984	7.0002	0.	125.26
627	7.4991	6.0002	0.	125.4
628	7.4994	5.5002	0.	125.39
629	7.4997	5.0001	0.	125.3
630	7.4998	4.5001	0.	125.12
631	7.4999	4.0001	0.	124.88
632	7.5	3.5	0.	124.62
633	7.5	3.	0.	124.35
634	7.5	2.5	0.	124.05
635	7.5	2.	0.	123.66
636	7.5	1.	0.	122.15
637	7.5	0.5	0.	120.59
638	5.5	1.2476e-007	0.	128.67
639	5.5	-4.	0.	127.71
640	5.5	-2.5	0.	127.58
641	7.5	-4.5	0.	120.4
642	6.	-4.5	0.	126.38
643	5.5	2.	0.	127.38
644	5.4996	5.0001	0.	127.78
645	5.5	3.5	0.	126.85
646	4.9992	5.5001	0.	127.12
647	2.9994	5.9999	0.	124.85
648	3.4996	5.5	0.	122.76
649	4.	-0.5	0.	127.52
650	2.5	-0.5	0.	121.09
651	1.5	-0.5	0.	122.06
652	8.9052e-011	-0.5	0.	130.26
653	-2.5	6.	0.	125.99
654	-7.	5.	0.	124.56
655	-7.5	5.5	0.	125.16
656	-7.5	6.	0.	125.08
657	-7.5	6.5	0.	125.01
658	-7.5	7.	0.	124.94
659	-7.5	7.5	0.	124.89
660	-7.	7.5	0.	124.75
661	-6.5	7.5	0.	124.6
662	-6.	7.5	0.	124.45
663	-5.5	7.5	0.	124.28
664	-5.	7.5	0.	124.07
665	-4.5	7.5	0.	123.84
666	-4.	7.5	0.	123.66
667	-3.5	7.5	0.	123.62
668	-3.	7.5	0.	123.83
669	-2.5	7.5	0.	124.49
670	-0.5	5.5	0.	124.17
671	1.9999	5.5	0.	128.32
672	0.49998	5.5	0.	123.87
673	2.4988	7.5	0.	124.82
674	2.4996	5.9999	0.	126.9
675	-0.5	4.	0.	129.51
676	-2.5	4.5	0.	121.52
677	-1.	4.5	0.	128.63
678	-5.	4.5	0.	129.
679	-3.5	4.5	0.	121.04
680	-4.5	4.5	0.	127.66
681	-0.5	3.	0.	130.49
682	-0.5	3.5	0.	130.51
683	2.4993	6.4999	0.	126.59
684	2.499	7.	0.	125.51
685	0.99996	5.5	0.	126.08
686	1.4999	5.5	0.	128.
687	-2.5	6.5	0.	125.99
688	0.5	-0.5	0.	128.44
689	1.	-0.5	0.	125.33
690	-0.5	0.5	0.	132.46
691	-0.5	2.	0.	129.07
692	3.	-0.5	0.	123.54
693	3.5	-0.5	0.	126.06
694	2.9997	5.4999	0.	124.12
695	2.4998	5.5	0.	126.69
696	3.9994	5.5	0.	123.94
697	5.4998	4.5	0.	127.88
698	5.5	-3.	0.	127.82
699	5.5	-3.5	0.	128.08
700	5.5	-1.	0.	128.5
701	6.5	0.5	0.	125.19
702	-1.5	-6.	0.	125.65
703	-0.5	-4.5	0.	125.51
704	1.5	-4.5	0.	124.88
705	1.	-4.5	0.	122.83
706	2.5	-6.	0.	126.11
707	2.5	-7.	0.	126.02
708	-1.5	-7.	0.	125.58
709	-1.5	-7.5	0.	126.34
710	-6.	4.5	0.	125.32
711	-7.	4.5	0.	124.02
712	-7.5	4.5	0.	125.63
713	-6.5	-6.	0.	126.33
714	-6.	-4.5	0.	124.27
715	-5.5	-4.5	0.	125.14
716	-3.	-3.5	0.	123.58
717	-2.5	-3.5	0.	126.04
718	-7.	-4.5	0.	127.15
719	-3.5	4.	0.	118.72
720	-1.	2.5	0.	130.63
721	0.49996	6.	0.	122.13
722	2.5	2.8915e-010	0.	119.62
723	6.	-2.5	0.	128.73
724	-1.5	-1.	0.	127.51
725	-1.5	-0.5	0.	129.72
726	-6.5	-3.3709e-012	0.	126.13
727	-7.5	-7.5	0.	124.29
728	-6.	0.5	0.	126.59
729	-5.5	0.5	0.	129.35
730	0.5	3.5	0.	127.57
731	1.	3.5	0.	124.87
732	-4.	-3.	0.	118.04
733	-4.5	-3.5	0.	122.83
734	-6.5	1.	0.	121.54
735	-6.5	-4.	0.	122.67
736	-2.	7.5	0.	125.3
737	-8.	4.5	0.	126.48
738	-8.	5.	0.	125.88
739	-8.	5.5	0.	125.54
740	-8.	6.	0.	125.34
741	-8.	6.5	0.	125.2
742	-8.	7.	0.	125.1
743	-8.	7.5	0.	125.03
744	-7.5	8.	0.	124.86
745	-7.	8.	0.	124.73
746	-6.5	8.	0.	124.6
747	-5.5	8.	0.	124.29
748	-5.	8.	0.	124.1
749	-4.5	8.	0.	123.91
750	-4.	8.	0.	123.77
751	-3.5	8.	0.	123.78
752	-3.	8.	0.	124.09
753	-2.5	8.	0.	124.9
754	7.5	1.8005e-007	0.	117.59
755	2.4989	8.	0.	125.16
756	2.9983	8.0001	0.	124.36
757	3.4977	8.0001	0.	124.07
758	3.997	8.0001	0.	124.11
759	4.4966	8.0001	0.	124.33
760	5.4962	8.0002	0.	124.85
761	5.9968	8.0001	0.	125.03
762	6.4971	8.0001	0.	125.13
763	6.9978	8.0001	0.	125.15
764	7.4983	8.0001	0.	125.12
765	7.9988	8.	0.	125.06
766	7.9987	7.5001	0.	125.08
767	7.9988	7.0001	0.	125.11
768	7.999	6.5002	0.	125.13
769	7.9992	6.0002	0.	125.13
770	7.9997	5.0001	0.	124.99
771	7.9998	4.5001	0.	124.83
772	7.9999	4.0001	0.	124.64
773	8.	3.5	0.	124.43
774	8.	3.	0.	124.21
775	8.	2.	0.	123.62
776	8.	1.5	0.	123.17
777	8.	1.	0.	122.56
778	8.	0.5	0.	121.77
779	1.5	4.5	0.	126.01
780	1.5	4.	0.	124.12
781	1.5	3.5	0.	122.31
782	4.5	0.5	0.	127.96
783	4.5	1.	0.	126.71
784	4.5	1.5	0.	126.26
785	-6.	-6.3135e-012	0.	128.58
786	-2.5	4.	0.	119.13
787	-1.	4.	0.	130.66
788	-1.	1.5	0.	130.56
789	1.9993	7.5	0.	125.64
790	1.9997	6.	0.	129.11
791	-0.50001	6.	0.	122.18
792	-2.	6.	0.	128.08
793	5.9018e-011	-9.1776e-011	0.	132.19
794	-3.0986e-009	1.5	0.	128.31
795	-8.5476e-008	3.	0.	130.4
796	4.	1.2163e-008	0.	128.65
797	1.9999	5.	0.	128.04
798	3.4998	5.	0.	120.15
799	4.9996	5.	0.	128.62
800	5.	3.5	0.	127.6
801	5.	2.	0.	128.5
802	7.5	-4.	0.	117.4
803	6.	-4.	0.	127.88
804	6.	-1.5	0.	129.01
805	6.	1.6542e-007	0.	128.63
806	-7.	0.5	0.	125.01
807	-1.	-6.5	0.	125.32
808	0.5	-5.	0.	119.07
809	2.	-5.	0.	127.37
810	2.	-6.5	0.	125.6
811	-6.5	4.	0.	120.97
812	-5.	4.	0.	131.8
813	-5.	2.5	0.	129.2
814	-8.	2.5	0.	123.9
815	-8.	4.	0.	127.41
816	-7.	-5.5	0.	127.65
817	-7.	-7.	0.	127.1
818	8.	-4.5	0.	121.75
819	8.	-5.	0.	122.6
820	8.	-5.5	0.	123.25
821	8.	-6.	0.	123.74
822	8.	-6.5	0.	124.1
823	8.	-7.	0.	124.37
824	8.	-7.5	0.	124.56
825	8.	-8.	0.	124.7
826	7.5	-8.	0.	124.68
827	7.	-8.	0.	124.73
828	6.5	-8.	0.	124.85
829	6.	-8.	0.	125.03
830	5.5	-8.	0.	125.23
831	5.	-8.	0.	125.44
832	4.5	-8.	0.	125.64
833	4.	-8.	0.	125.85
834	3.5	-8.	0.	126.09
835	3.	-8.	0.	126.41
836	2.5	-8.	0.	126.82
837	2.	-8.	0.	127.21
838	0.5	-8.	0.	118.5
839	-1.	-8.	0.	126.93
840	-1.5	-8.	0.	126.47
841	-2.	-8.	0.	125.99
842	-2.5	-8.	0.	125.65
843	-3.	-8.	0.	125.44
844	-3.5	-8.	0.	125.33
845	-4.	-8.	0.	125.3
846	-4.5	-8.	0.	125.35
847	-5.5	-8.	0.	125.59
848	-6.	-8.	0.	125.67
849	-6.5	-8.	0.	125.57
850	-7.	-8.	0.	125.06
851	-7.5	-8.	0.	124.04
852	-8.	-8.	0.	122.91
853	-8.	-7.5	0.	121.98
854	-5.	-4.	0.	126.34
855	-8.	-2.5	0.	122.74
856	-6.5	-0.5	0.	126.09
857	-2.	-1.5	0.	124.94
858	-2.	-3.	0.	128.16
859	-3.5	2.6771e-012	0.	114.35
860	-2.	-1.	0.	126.58
861	-2.	-0.5	0.	127.93
862	-2.5	4.2923e-011	0.	121.29
863	-3.	1.7995e-011	0.	115.73
864	-3.	-3.	0.	123.58
865	-2.5	-3.	0.	127.53
866	-2.	-2.	0.	126.71
867	-7.	-1.	0.	125.39
868	-8.	-2.	0.	124.44
869	-6.	-4.	0.	124.54
870	-5.5	-4.	0.	127.42
871	-7.5	-7.	0.	125.79
872	-7.	-6.5	0.	128.21
873	-7.	-6.	0.	128.14
874	-7.	4.	0.	123.14
875	-7.5	4.	0.	126.91
876	-8.	3.	0.	126.13
877	-6.	1.	0.	124.81
878	-5.5	1.	0.	129.41
879	-5.	1.5	0.	130.7
880	-5.	2.	0.	130.61
881	-5.5	4.	0.	130.16
882	-6.	4.	0.	124.89
883	-1.	-7.	0.	126.69
884	-1.	-7.5	0.	127.59
885	1.	-8.	0.	121.59
886	1.5	-8.	0.	126.09
887	2.	-7.	0.	126.97
888	2.	-6.	0.	127.07
889	2.	-5.5	0.	128.04
890	1.	-5.	0.	121.96
891	-0.5	-5.	0.	126.69
892	-1.	-5.5	0.	127.98
893	-1.	-6.	0.	126.83
894	-8.	-1.	0.	124.51
895	-7.	-1.3242e-012	0.	126.9
896	7.	2.0805e-007	0.	121.24
897	6.5	1.8524e-007	0.	126.76
898	6.	-0.5	0.	129.77
899	6.	-1.	0.	129.6
900	6.	-3.5	0.	129.09
901	7.	-4.	0.	120.93
902	5.	3.	0.	129.07
903	4.9999	4.	0.	128.85
904	4.9998	4.5	0.	129.55
905	4.4997	5.	0.	127.87
906	3.9997	5.	0.	123.47
907	2.9998	5.	0.	122.83
908	2.4999	5.	0.	127.14
909	2.	4.5	0.	127.28
910	2.	4.	0.	124.73
911	3.	1.4294e-009	0.	123.73
912	4.	0.5	0.	128.76
913	4.	1.	0.	126.73
914	1.	3.	0.	125.35
915	0.5	3.	0.	129.4
916	-1.2478e-008	2.	0.	129.5
917	-1.2704e-010	0.5	0.	132.66
918	0.5	-1.8187e-010	0.	130.72
919	1.	-1.0652e-010	0.	126.03
920	-2.	6.5	0.	128.56
921	-1.	6.	0.	126.1
922	1.9994	7.	0.	127.63
923	-1.5	6.5766e-011	0.	132.12
924	-1.	0.5	0.	133.64
925	-1.	1.	0.	132.2
926	-1.	3.	0.	131.62
927	-1.	3.5	0.	131.98
928	-2.	4.	0.	125.06
929	-4.	4.	0.	124.64
930	-5.	3.5	0.	133.35
931	-5.	3.	0.	131.72
932	-5.	1.	0.	130.72
933	-5.	0.5	0.	130.22
934	-4.5	-1.3727e-011	0.	124.48
935	-4.	-6.839e-012	0.	118.29
936	-5.	-1.3117e-011	0.	129.34
937	-5.5	-1.0063e-011	0.	130.98
938	4.	1.5	0.	124.14
939	2.	3.5	0.	121.25
940	8.	2.5135e-007	0.	120.77
941	-2.	8.	0.	126.86
942	-7.	-4.	0.	127.17
943	-8.	-3.	0.	123.52
944	-8.5	-8.	0.	122.64
945	-8.5	-7.5	0.	120.96
946	-8.5	-7.	0.	117.89
947	8.	-4.	0.	120.7
948	1.9993	8.	0.	127.1
949	-8.5	2.	0.	120.36
950	-8.5	2.5	0.	122.59
951	-8.5	3.	0.	124.45
952	-8.5	3.5	0.	126.05
953	-8.5	4.	0.	126.61
954	-8.5	4.5	0.	126.45
955	-8.5	5.	0.	126.09
956	-8.5	5.5	0.	125.77
957	-8.5	6.	0.	125.54
958	-8.5	6.5	0.	125.38
959	-8.5	7.	0.	125.25
960	-8.5	7.5	0.	125.16
961	-8.5	8.	0.	125.08
962	-8.5	8.5	0.	125.02
963	-8.	8.5	0.	124.94
964	-7.5	8.5	0.	124.85
965	-7.	8.5	0.	124.75
966	-6.5	8.5	0.	124.64
967	-6.	8.5	0.	124.53
968	-5.5	8.5	0.	124.4
969	-5.	8.5	0.	124.26
970	-4.5	8.5	0.	124.14
971	-4.	8.5	0.	124.07
972	-3.5	8.5	0.	124.17
973	-3.	8.5	0.	124.62
974	-2.5	8.5	0.	125.73
975	-2.	8.5	0.	128.01
976	1.9994	8.5001	0.	128.23
977	2.499	8.5001	0.	125.98
978	2.9986	8.5001	0.	124.89
979	3.498	8.5001	0.	124.48
980	3.9975	8.5001	0.	124.42
981	4.497	8.5001	0.	124.54
982	4.9967	8.5001	0.	124.72
983	5.4967	8.5001	0.	124.89
984	5.997	8.5001	0.	125.01
985	6.4977	8.5001	0.	125.09
986	6.998	8.5	0.	125.11
987	7.9989	8.5	0.	125.05
988	8.4992	8.5	0.	125.
989	8.4991	8.	0.	124.98
990	8.4991	7.5001	0.	124.96
991	8.4992	7.0001	0.	124.95
992	8.4993	6.5001	0.	124.93
993	8.4994	6.0001	0.	124.88
994	8.4996	5.5001	0.	124.82
995	8.4997	5.0001	0.	124.72
996	8.4999	4.5001	0.	124.6
997	8.4999	4.0001	0.	124.47
998	8.5	3.5	0.	124.33
999	8.5	3.	0.	124.2
1000	8.5	2.5	0.	124.07
1001	8.5	2.	0.	123.93
1002	8.5	1.5	0.	123.81
1003	8.5	1.	0.	123.81
1004	8.5	0.5	0.	124.18
1005	8.5	3.308e-007	0.	125.81
1006	8.5	-4.	0.	125.93
1007	8.5	-4.5	0.	124.37
1008	8.5	-5.	0.	124.07
1009	8.5	-5.5	0.	124.14
1010	8.5	-6.	0.	124.31
1011	8.5	-7.	0.	124.6
1012	8.5	-7.5	0.	124.7
1013	8.5	-8.	0.	124.77
1014	8.5	-8.5	0.	124.82
1015	8.	-8.5	0.	124.79
1016	7.5	-8.5	0.	124.8
1017	7.	-8.5	0.	124.87
1018	6.5	-8.5	0.	124.98
1019	6.	-8.5	0.	125.14
1020	5.5	-8.5	0.	125.33
1021	5.	-8.5	0.	125.54
1022	4.5	-8.5	0.	125.75
1023	4.	-8.5	0.	125.96
1024	3.5	-8.5	0.	126.16
1025	3.	-8.5	0.	126.34
1026	2.5	-8.5	0.	126.41
1027	2.	-8.5	0.	126.04
1028	1.5	-8.5	0.	124.6
1029	0.5	-8.5	0.	121.02
1030	1.4409e-011	-8.5	0.	122.2
1031	-0.5	-8.5	0.	124.4
1032	-1.	-8.5	0.	125.78
1033	-1.5	-8.5	0.	126.1
1034	-2.	-8.5	0.	126.01
1035	-2.5	-8.5	0.	125.83
1036	-3.	-8.5	0.	125.67
1037	-3.5	-8.5	0.	125.56
1038	-4.	-8.5	0.	125.51
1039	-4.5	-8.5	0.	125.51
1040	-5.	-8.5	0.	125.53
1041	-5.5	-8.5	0.	125.54
1042	-6.	-8.5	0.	125.47
1043	-6.5	-8.5	0.	125.25
1044	-7.	-8.5	0.	124.79
1045	-7.5	-8.5	0.	124.15
1046	-8.	-8.5	0.	123.61
1047	-8.5	-8.5	0.	123.61
1048	-7.	1.	0.	125.25
1049	-8.	2.	0.	124.5
1050	-8.5	-3.	0.	118.83
1051	-8.5	-2.5	0.	121.09
1052	-8.5	-2.	0.	122.34
1053	-8.5	-1.5	0.	122.65
1054	4.5	2.	0.	128.1
1055	1.5	3.	0.	121.01
1056	-4.5	-3.	0.	120.76
1057	-5.	-3.5	0.	127.44
1058	-6.5	-1.	0.	122.77
1059	-6.	-0.5	0.	129.31
1060	-6.	-1.	0.	127.3
1061	-5.	-3.	0.	127.15
1062	-5.5	-0.5	0.	134.83
1063	-4.5	0.5	0.	129.98
1064	-4.5	3.5	0.	133.91
1065	-1.5	3.5	0.	133.95
1066	-1.5	0.5	0.	135.52
1067	1.4997	8.5	0.	131.9
1068	1.4998	6.5	0.	132.86
1069	-1.5	6.5	0.	132.31
1070	-1.5	8.5	0.	131.66
1071	0.5	0.5	0.	134.32
1072	0.5	2.5	0.	133.03
1073	2.	3.	0.	120.24
1074	4.	2.	0.	124.9
1075	3.5	0.5	0.	130.85
1076	2.5	4.5	0.	129.64
1077	4.4999	4.5	0.	131.87
1078	8.5	-3.5	0.	129.97
1079	6.5	-3.5	0.	130.2
1080	6.5	-0.5	0.	130.67
1081	8.5	-0.5	0.	129.9
1082	-9.	-2.5	0.	122.9
1083	-9.	-2.	0.	123.57
1084	-9.	-1.5	0.	123.79
1085	-9.	-1.	0.	123.46
1086	-7.5	-0.5	0.	131.1
1087	-0.5	-5.5	0.	130.04
1088	1.5	-5.5	0.	129.93
1089	1.5	-7.5	0.	129.73
1090	-0.5	-7.5	0.	129.5
1091	-5.5	3.5	0.	133.93
1092	-5.5	1.5	0.	132.19
1093	-7.5	1.5	0.	136.23
1094	-7.5	3.5	0.	130.37
1095	-7.5	-6.5	0.	129.77
1096	-9.	-8.5	0.	124.31
1097	-9.	-8.	0.	123.8
1098	-9.	-7.5	0.	122.95
1099	-9.	-3.	0.	122.2
1100	-5.5	-3.5	0.	132.6
1101	-7.5	-3.5	0.	136.91
1102	-7.5	-1.5	0.	130.19
1103	-9.	2.	0.	122.97
1104	-9.	2.5	0.	123.61
1105	-9.	3.	0.	124.65
1106	-9.	3.5	0.	125.6
1107	-9.	4.	0.	126.12
1108	-9.	4.5	0.	126.2
1109	-9.	5.	0.	126.06
1110	-9.	5.5	0.	125.86
1111	-9.	6.	0.	125.68
1112	-9.	6.5	0.	125.52
1113	-9.	7.	0.	125.39
1114	-9.	7.5	0.	125.27
1115	-9.	8.	0.	125.17
1116	-9.	8.5	0.	125.09
1117	-9.	9.	0.	125.03
1118	-8.5	9.	0.	124.98
1119	-8.	9.	0.	124.91
1120	-7.5	9.	0.	124.84
1121	-7.	9.	0.	124.77
1122	-6.5	9.	0.	124.7
1123	-6.	9.	0.	124.63
1124	-5.5	9.	0.	124.56
1125	-5.	9.	0.	124.5
1126	-4.5	9.	0.	124.45
1127	-4.	9.	0.	124.46
1128	-3.5	9.	0.	124.6
1129	-3.	9.	0.	125.
1130	-2.5	9.	0.	125.83
1131	-2.	9.	0.	127.2
1132	-1.5	9.	0.	127.66
1133	-1.	9.	0.	124.96
1134	-0.50001	9.	0.	121.48
1135	-2.1285e-005	9.	0.	120.14
1136	0.49995	9.	0.	121.6
1137	0.99989	9.	0.	125.17
1138	1.4998	9.	0.	127.91
1139	1.9996	9.0001	0.	127.46
1140	2.4994	9.0001	0.	126.11
1141	2.999	9.0001	0.	125.31
1142	3.4986	9.0001	0.	124.95
1143	3.9982	9.0001	0.	124.85
1144	4.4979	9.0001	0.	124.87
1145	4.9977	9.0001	0.	124.94
1146	5.4976	9.0001	0.	125.02
1147	5.9978	9.	0.	125.07
1148	6.4981	9.	0.	125.1
1149	6.9985	9.	0.	125.11
1150	7.4988	9.	0.	125.09
1151	7.9991	9.	0.	125.06
1152	8.4994	9.	0.	125.02
1153	8.9996	9.	0.	124.98
1154	8.9995	8.5	0.	124.94
1155	8.9995	8.	0.	124.9
1156	8.9995	7.5	0.	124.85
1157	8.9995	7.0001	0.	124.8
1158	8.9995	6.5001	0.	124.73
1159	8.9996	6.0001	0.	124.65
1160	8.9997	5.5001	0.	124.57
1161	8.9998	5.0001	0.	124.47
1162	8.9999	4.5001	0.	124.37
1163	8.9999	4.	0.	124.29
1164	9.	3.5	0.	124.24
1165	9.	3.	0.	124.22
1166	9.	2.	0.	124.36
1167	9.	1.5	0.	124.56
1168	9.	1.	0.	124.97
1169	9.	0.5	0.	125.81
1170	9.	4.0039e-007	0.	127.28
1171	9.	-0.5	0.	128.61
1172	9.	-1.	0.	128.8
1173	9.	-1.5	0.	128.6
1174	9.	-2.	0.	129.2
1175	9.	-2.5	0.	128.7
1176	9.	-3.	0.	129.
1177	9.	-3.5	0.	128.88
1178	9.	-4.	0.	127.63
1179	9.	-4.5	0.	126.24
1180	9.	-5.	0.	125.49
1181	9.	-5.5	0.	125.16
1182	9.	-6.	0.	125.01
1183	9.	-6.5	0.	124.94
1184	9.	-7.	0.	124.9
1185	9.	-8.	0.	124.86
1186	9.	-8.5	0.	124.85
1187	9.	-9.	0.	124.84
1188	8.5	-9.	0.	124.85
1189	8.	-9.	0.	124.86
1190	7.5	-9.	0.	124.89
1191	7.	-9.	0.	124.96
1192	6.5	-9.	0.	125.08
1193	6.	-9.	0.	125.23
1194	5.5	-9.	0.	125.42
1195	5.	-9.	0.	125.62
1196	4.5	-9.	0.	125.82
1197	4.	-9.	0.	126.
1198	3.5	-9.	0.	126.13
1199	3.	-9.	0.	126.15
1200	2.5	-9.	0.	125.94
1201	2.	-9.	0.	125.31
1202	1.5	-9.	0.	124.17
1203	1.	-9.	0.	122.83
1204	0.5	-9.	0.	122.19
1205	-1.	-9.	0.	125.09
1206	-1.5	-9.	0.	125.67
1207	-2.	-9.	0.	125.87
1208	-2.5	-9.	0.	125.87
1209	-3.	-9.	0.	125.8
1210	-3.5	-9.	0.	125.72
1211	-4.	-9.	0.	125.65
1212	-4.5	-9.	0.	125.61
1213	-5.	-9.	0.	125.56
1214	-5.5	-9.	0.	125.49
1215	-6.	-9.	0.	125.35
1216	-6.5	-9.	0.	125.09
1217	-7.5	-9.	0.	124.32
1218	-8.	-9.	0.	124.06
1219	-8.5	-9.	0.	124.13
1220	-9.	-9.	0.	124.55
1221	-2.5	-2.5	0.	130.65
1222	-2.5	-0.5	0.	126.92
1223	-2.5	-1.	0.	127.32
1224	-2.5	-2.	0.	128.63
1225	-2.5	-1.5	0.	127.58
1226	-3.	-2.5	0.	124.7
1227	-3.5	-2.5	0.	116.1
1228	-4.	-2.5	0.	117.27
1229	-5.	-2.5	0.	127.32
1230	-4.5	-2.5	0.	117.54
1231	-5.5	-1.	0.	134.89
1232	-5.5	-1.5	0.	136.75
1233	-5.	-0.5	0.	129.58
1234	-4.5	-0.5	0.	119.99
1235	-4.	-0.5	0.	117.71
1236	-3.	-0.5	0.	119.95
1237	-3.5	-0.5	0.	113.61
1238	-4.5	1.	0.	130.42
1239	-4.5	1.5	0.	133.38
1240	-4.5	2.	0.	134.78
1241	-4.5	3.	0.	132.
1242	-4.5	2.5	0.	133.4
1243	-4.	3.5	0.	125.9
1244	-3.5	3.5	0.	114.57
1245	-3.	3.5	0.	114.48
1246	-2.	3.5	0.	126.76
1247	-2.5	3.5	0.	114.93
1248	-1.5	3.	0.	132.73
1249	-1.5	2.5	0.	135.11
1250	-1.5	2.	0.	136.37
1251	-1.5	1.	0.	133.81
1252	-1.5	1.5	0.	134.94
1253	-4.	0.5	0.	121.93
1254	-3.5	0.5	0.	111.91
1255	-3.	0.5	0.	113.75
1256	-2.5	0.5	0.	115.71
1257	1.4997	8.	0.	130.59
1258	1.4997	7.	0.	131.23
1259	1.4997	7.5	0.	130.33
1260	0.99988	6.5	0.	127.4
1261	0.49995	6.5	0.	119.1
1262	-2.0398e-005	6.5	0.	119.89
1263	-1.	6.5	0.	127.29
1264	-0.50001	6.5	0.	119.01
1265	-1.5	7.	0.	130.67
1266	-1.5	8.	0.	130.44
1267	-1.5	7.5	0.	130.03
1268	-1.	8.5	0.	126.8
1269	-0.50001	8.5	0.	118.73
1270	0.99984	8.5	0.	127.09
1271	0.49993	8.5	0.	118.82
1272	-2.9368e-005	8.5	0.	119.69
1273	0.5	1.	0.	132.54
1274	0.5	2.	0.	131.88
1275	0.5	1.5	0.	131.85
1276	1.	2.5	0.	127.21
1277	1.5	2.5	0.	118.79
1278	2.	2.5	0.	120.56
1279	2.5	2.5	0.	122.33
1280	3.5	2.	0.	124.36
1281	3.5	1.	0.	128.83
1282	3.5	1.5	0.	126.8
1283	1.	0.5	0.	127.67
1284	1.5	0.5	0.	118.14
1285	2.	0.5	0.	118.23
1286	2.5	0.5	0.	116.93
1287	3.	0.5	0.	124.79
1288	2.9999	4.5	0.	122.9
1289	3.9999	4.5	0.	124.7
1290	3.4999	4.5	0.	113.55
1291	4.5	4.	0.	131.33
1292	4.5	3.	0.	132.27
1293	4.5	3.5	0.	131.76
1294	4.	2.5	0.	127.14
1295	3.	2.5	0.	125.57
1296	3.5	2.5	0.	119.05
1297	2.5	4.	0.	127.73
1298	2.5	3.5	0.	126.06
1299	2.5	3.	0.	124.02
1300	8.	-3.5	0.	121.37
1301	7.	-3.5	0.	121.7
1302	7.5	-3.5	0.	109.9
1303	6.5	-3.	0.	129.92
1304	6.5	-2.5	0.	132.49
1305	6.5	-2.	0.	134.23
1306	6.5	-1.	0.	130.31
1307	6.5	-1.5	0.	132.64
1308	7.	-0.5	0.	121.9
1309	8.	-0.5	0.	121.55
1310	7.5	-0.5	0.	110.05
1311	8.5	-1.	0.	129.85
1312	8.5	-3.	0.	129.95
1313	8.5	-2.5	0.	132.42
1314	8.5	-2.	0.	134.21
1315	8.5	-1.5	0.	132.45
1316	-9.	1.5	0.	124.68
1317	-8.	1.5	0.	126.61
1318	-8.5	1.5	0.	114.75
1319	-7.5	-3.8144e-013	0.	130.38
1320	-7.5	0.5	0.	130.59
1321	-8.	-0.5	0.	125.01
1322	-9.	-0.5	0.	124.73
1323	-8.5	-0.5	0.	114.55
1324	-3.7517e-011	-5.5	0.	122.86
1325	1.	-5.5	0.	122.64
1326	0.5	-5.5	0.	112.34
1327	1.5	-6.	0.	129.14
1328	1.5	-7.	0.	128.98
1329	1.5	-6.5	0.	128.94
1330	1.	-7.5	0.	122.44
1331	1.0209e-011	-7.5	0.	122.22
1332	0.5	-7.5	0.	112.
1333	-0.5	-7.	0.	128.86
1334	-0.5	-6.	0.	128.98
1335	-0.5	-6.5	0.	128.79
1336	-5.5	3.	0.	132.29
1337	-5.5	2.	0.	131.24
1338	-5.5	2.5	0.	131.88
1339	-6.	1.5	0.	125.14
1340	-7.	1.5	0.	126.55
1341	-6.5	1.5	0.	114.77
1342	-7.5	2.	0.	131.12
1343	-7.5	3.	0.	129.69
1344	-7.5	2.5	0.	129.55
1345	-6.	3.5	0.	125.75
1346	-6.5	3.5	0.	114.26
1347	-7.	3.5	0.	123.68
1348	-8.	-6.5	0.	121.68
1349	-9.	-6.5	0.	122.74
1350	-8.5	-6.5	0.	110.58
1351	-9.	-3.5	0.	123.54
1352	-8.	-3.5	0.	125.7
1353	-8.5	-3.5	0.	112.2
1354	-7.5	-4.	0.	132.5
1355	-7.5	-6.	0.	129.75
1356	-7.5	-5.5	0.	132.4
1357	-7.5	-5.	0.	134.56
1358	-7.5	-4.5	0.	133.6
1359	-6.	-3.5	0.	126.79
1360	-7.	-3.5	0.	128.57
1361	-6.5	-3.5	0.	116.95
1362	-7.5	-3.	0.	131.45
1363	-7.5	-2.	0.	129.17
1364	-7.5	-2.5	0.	129.65
1365	-7.	-1.5	0.	124.85
1366	-6.	-1.5	0.	125.98
1367	-6.5	-1.5	0.	115.19
1368	-5.5	-2.	0.	137.03
1369	-5.5	-3.	0.	134.19
1370	-5.5	-2.5	0.	137.52
1371	-9.	9.5	0.	124.99
1372	-8.5	9.5	0.	124.95
1373	-8.	9.5	0.	124.9
1374	-7.5	9.5	0.	124.84
1375	-7.	9.5	0.	124.79
1376	-6.5	9.5	0.	124.75
1377	-6.	9.5	0.	124.72
1378	-5.5	9.5	0.	124.7
1379	-5.	9.5	0.	124.72
1380	-4.5	9.5	0.	124.77
1381	-4.	9.5	0.	124.87
1382	-3.5	9.5	0.	125.02
1383	-3.	9.5	0.	125.24
1384	-2.5	9.5	0.	125.52
1385	-2.	9.5	0.	125.69
1386	-1.5	9.5	0.	125.24
1387	-1.	9.5	0.	123.93
1388	-0.50001	9.5	0.	122.37
1389	-1.2444e-005	9.5	0.	121.72
1390	0.49997	9.5	0.	122.47
1391	0.99994	9.5	0.	124.11
1392	1.4999	9.5	0.	125.48
1393	1.9998	9.5	0.	125.99
1394	2.4997	9.5001	0.	125.86
1395	2.9995	9.5001	0.	125.62
1396	3.4993	9.5001	0.	125.44
1397	3.9991	9.5001	0.	125.31
1398	4.499	9.5001	0.	125.24
1399	4.9988	9.5001	0.	125.2
1400	5.4988	9.5	0.	125.18
1401	5.9989	9.5	0.	125.17
1402	6.499	9.5	0.	125.15
1403	6.9992	9.5	0.	125.13
1404	7.4994	9.5	0.	125.11
1405	7.9995	9.5	0.	125.07
1406	8.4997	9.5	0.	125.04
1407	8.9998	9.5	0.	125.01
1408	9.4999	9.5	0.	124.99
1409	9.4998	9.	0.	124.96
1410	9.4998	8.5	0.	124.9
1411	9.4997	8.	0.	124.84
1412	9.4997	7.5	0.	124.76
1413	9.4997	7.	0.	124.66
1414	9.4998	6.5	0.	124.55
1415	9.4998	6.	0.	124.43
1416	9.4999	5.5	0.	124.31
1417	9.4999	5.	0.	124.19
1418	9.4999	4.5	0.	124.09
1419	9.5	4.	0.	124.04
1420	9.5	3.5	0.	124.05
1421	9.5	3.	0.	124.14
1422	9.5	2.5	0.	124.35
1423	9.5	2.	0.	124.68
1424	9.5	1.5	0.	125.15
1425	9.5	1.	0.	125.77
1426	9.5	0.5	0.	126.51
1427	9.5	4.8205e-007	0.	127.21
1428	9.5	-0.5	0.	127.54
1429	9.5	-1.	0.	127.31
1430	9.5	-1.5	0.	127.07
1431	9.5	-2.	0.	127.01
1432	9.5	-2.5	0.	127.23
1433	9.5	-3.	0.	127.62
1434	9.5	-3.5	0.	128.
1435	9.5	-4.	0.	127.79
1436	9.5	-4.5	0.	127.22
1437	9.5	-5.	0.	126.6
1438	9.5	-5.5	0.	126.07
1439	9.5	-6.	0.	125.67
1440	9.5	-6.5	0.	125.37
1441	9.5	-7.	0.	125.16
1442	9.5	-7.5	0.	125.01
1443	9.5	-8.	0.	124.91
1444	9.5	-8.5	0.	124.85
1445	9.5	-9.	0.	124.81
1446	9.5	-9.5	0.	124.8
1447	9.	-9.5	0.	124.84
1448	8.5	-9.5	0.	124.87
1449	8.	-9.5	0.	124.9
1450	7.5	-9.5	0.	124.94
1451	7.	-9.5	0.	125.02
1452	6.5	-9.5	0.	125.14
1453	6.	-9.5	0.	125.29
1454	5.5	-9.5	0.	125.47
1455	5.	-9.5	0.	125.67
1456	4.5	-9.5	0.	125.86
1457	4.	-9.5	0.	126.01
1458	3.5	-9.5	0.	126.07
1459	3.	-9.5	0.	125.98
1460	2.5	-9.5	0.	125.64
1461	2.	-9.5	0.	124.97
1462	1.5	-9.5	0.	124.03
1463	1.	-9.5	0.	123.14
1464	0.5	-9.5	0.	122.73
1465	4.8628e-012	-9.5	0.	123.05
1466	-0.5	-9.5	0.	123.88
1467	-1.	-9.5	0.	124.76
1468	-1.5	-9.5	0.	125.4
1469	-2.	-9.5	0.	125.74
1470	-2.5	-9.5	0.	125.86
1471	-3.	-9.5	0.	125.86
1472	-3.5	-9.5	0.	125.8
1473	-4.	-9.5	0.	125.73
1474	-4.5	-9.5	0.	125.66
1475	-5.	-9.5	0.	125.58
1476	-5.5	-9.5	0.	125.46
1477	-6.	-9.5	0.	125.28
1478	-6.5	-9.5	0.	125.03
1479	-7.	-9.5	0.	124.73
1480	-7.5	-9.5	0.	124.45
1481	-8.	-9.5	0.	124.32
1482	-8.5	-9.5	0.	124.39
1483	-9.	-9.5	0.	124.65
1484	-9.5	-9.5	0.	124.88
1485	-9.5	-9.	0.	125.04
1486	-9.5	-8.5	0.	125.32
1487	-9.5	-8.	0.	125.78
1488	-9.5	-7.5	0.	126.49
1489	-9.5	-7.	0.	128.08
1490	-9.5	-6.5	0.	132.21
1491	-9.5	-6.	0.	133.06
1492	-9.5	-5.5	0.	136.19
1493	-9.5	-5.	0.	137.92
1494	-9.5	-4.5	0.	136.34
1495	-9.5	-4.	0.	133.32
1496	-9.5	-3.5	0.	132.42
1497	-9.5	-3.	0.	128.17
1498	-9.5	-2.5	0.	126.68
1499	-9.5	-2.	0.	126.48
1500	-9.5	-1.5	0.	126.89
1501	-9.5	-1.	0.	128.22
1502	-9.5	-0.5	0.	132.
1503	-9.5	-2.7076e-014	0.	132.45
1504	-9.5	0.5	0.	132.87
1505	-9.5	1.	0.	131.98
1506	-9.5	1.5	0.	131.33
1507	-9.5	2.	0.	127.29
1508	-9.5	2.5	0.	125.93
1509	-9.5	3.	0.	125.63
1510	-9.5	3.5	0.	125.72
1511	-9.5	4.	0.	125.9
1512	-9.5	4.5	0.	126.01
1513	-9.5	5.	0.	126.01
1514	-9.5	5.5	0.	125.93
1515	-9.5	6.	0.	125.8
1516	-9.5	6.5	0.	125.65
1517	-9.5	7.	0.	125.5
1518	-9.5	7.5	0.	125.36
1519	-9.5	8.	0.	125.23
1520	-9.5	8.5	0.	125.13
1521	-9.5	9.	0.	125.06
1522	-9.5	9.5	0.	125.01
1523	-8.	3.5	0.	127.69
1524	5.5	-4.5	0.	126.93
1525	6.5	-4.	0.	126.24
1526	-3.	6.	0.	124.57
1527	-1.5	-2.	0.	126.25
1528	-3.5	-3.	0.	119.27
1529	6.5	-4.5	0.	124.6
1530	-6.1468e-008	2.5	0.	130.68
1531	-7.5	5.	0.	125.29
1532	-4.1887e-011	-3.5	0.	124.57
1533	-4.	4.5	0.	124.43
1534	7.	-4.5	0.	121.91
1535	5.4999	4.	0.	127.24
1536	-2.	-4.5	0.	126.29
1537	-5.	-7.	0.	125.09
1538	-2.5	-5.5	0.	124.91
1539	7.	1.	0.	123.1
1540	-4.	5.5	0.	124.34
1541	4.5	2.5	0.	132.83
1542	-4.	-4.5	0.	123.24
1543	5.5	-6.5	0.	125.12
1544	6.9993	5.5002	0.	125.76
1545	-1.5	-2.5	0.	127.07
1546	-6.1614e-011	-5.	0.	122.21
1547	6.5	-5.	0.	124.17
1548	-1.5	-5.5	0.	126.56
1549	-0.5	-8.3686e-011	0.	132.48
1550	-8.5	-1.	0.	120.77
1551	-2.5	7.	0.	125.06
1552	5.5	-2.	0.	127.59
1553	-5.	-5.	0.	124.34
1554	-4.	6.	0.	124.22
1555	-0.5	-8.	0.	125.86
1556	0.99992	6.	0.	126.24
1557	-5.5	-6.5	0.	125.18
1558	7.4987	6.5002	0.	125.34
1559	7.4985	8.5	0.	125.09
1560	4.9964	8.0001	0.	124.6
1561	5.5	-0.5	0.	128.98
1562	-1.5	5.5	0.	127.4
1563	1.5	-5.	0.	126.34
1564	-8.	-1.5	0.	125.31
1565	-8.	8.	0.	124.98
1566	7.9995	5.5001	0.	125.09
1567	-5.5	7.	0.	124.39
1568	4.997	7.0001	0.	124.89
1569	3.5	-3.5	0.	125.87
1570	9.	2.5	0.	124.26
1571	8.	2.5	0.	123.95
1572	-6.	8.	0.	124.46
1573	1.5	-5.7938e-011	0.	120.86
1574	-0.5	-9.	0.	124.
1575	2.5	-7.5	0.	126.74
1576	-7.5	1.	0.	131.86
1577	-2.	5.7503e-011	0.	127.61
1578	1.0949e-011	-8.	0.	121.44
1579	-2.	-2.5	0.	128.32
1580	0.5	-2.	0.	125.22
1581	-2.	7.	0.	127.11
1582	7.	0.5	0.	122.29
1583	-2.	4.5	0.	125.04
1584	1.9995	6.5	0.	129.28
1585	5.5	2.5	0.	127.56
1586	-4.5	4.	0.	130.15
1587	-6.	-5.	0.	124.36
1588	-4.	-6.	0.	124.14
1589	-2.	5.5	0.	126.72
1590	-7.	-0.5	0.	127.3
1591	-7.	-9.	0.	124.72
1592	-5.5	4.5	0.	127.89
1593	-1.5	-3.	0.	127.38
1594	-1.5	4.	0.	129.99
1595	5.	-0.5	0.	128.45
1596	6.9984	6.5003	0.	125.54
1597	4.4981	6.5	0.	124.74
1598	1.5	-3.	0.	124.08
1599	9.	-7.5	0.	124.88
1600	-7.	6.	0.	124.87
1601	8.5	-6.5	0.	124.47
1602	-3.	-7.	0.	124.76
1603	1.	-8.5	0.	122.31
1604	-6.5975e-011	-4.	0.	123.98
1605	-5.5	6.5	0.	124.65
1606	-1.5	4.5	0.	127.86
1607	7.5	1.5	0.	123.07
1608	-1.	5.5	0.	126.25
1609	-1.5676e-009	1.	0.	130.72
1610	-0.5	1.5	0.	129.19
1611	-6.	-6.5	0.	125.83
1612	-4.5	7.	0.	123.95
1613	-2.	0.5	0.	127.7
1614	3.5	5.6824e-009	0.	127.69
1615	9.2804e-012	-9.	0.	122.74
1616	-1.	7.1584e-012	0.	132.98
1617	5.9999	4.	0.	126.35
1618	7.	3.5	0.	124.94
1619	4.5	-7.	0.	125.48
1620	1.5	-3.5	0.	124.23
1621	-5.	-8.	0.	125.46
1622	6.	2.5	0.	126.17
1623	-4.	-4.	0.	122.32
1624	5.	2.5	0.	129.68
1625	2.	-7.5	0.	127.88
1626	4.4988	6.	0.	125.22
1627	6.	-3.	0.	129.09
1628	-8.	-7.	0.	120.89
1629	-1.5	6.	0.	128.95
1630	1.4998	6.	0.	129.56
1631	3.9976	7.	0.	124.05
1632	-7.5	-1.	0.	128.37
1633	-1.	-5.	0.	127.64
1634	-9.	-7.	0.	121.85
1635	4.4993	5.5	0.	126.01
1636	-4.	-6.5	0.	124.41
1637	5.5	-1.5	0.	127.94
1638	-7.0821e-011	-4.5	0.	123.19
1639	3.	-3.5	0.	125.52
1640	-2.	-5.5	0.	125.62
1641	-0.5	1.	0.	130.65
1642	-6.5	-6.5	0.	126.82
1643	-0.5	2.5	0.	129.92
1644	5.5	3.	0.	127.11
1645	2.5	-5.5	0.	126.87
1646	1.5	-4.	0.	124.43
1647	-4.	5.	0.	124.36
1648	-1.5	5.	0.	127.13
1649	-0.5	-2.	0.	126.35
1650	7.	2.5	0.	124.46
1651	-4.5	6.5	0.	124.24
1652	-5.	-6.5	0.	124.77
1653	-5.	-1.25	0.	144.
1654	-4.75	-1.	0.	129.07
1655	-5.25	-1.	0.	136.58
1656	-5.	-0.75	0.	134.31
1657	-5.	-1.75	0.	143.69
1658	-4.75	-2.	0.	127.78
1659	-5.	-2.25	0.	132.94
1660	-5.25	-2.	0.	137.36
1661	-3.25	-1.	0.	122.2
1662	-3.	-1.25	0.	135.55
1663	-2.75	-1.	0.	128.61
1664	-3.	-0.75	0.	125.33
1665	-3.25	-2.	0.	124.18
1666	-3.	-1.75	0.	136.91
1667	-2.75	-2.	0.	130.77
1668	-3.	-2.25	0.	129.08
1669	-7.	-2.25	0.	139.93
1670	-6.75	-2.	0.	123.87
1671	-7.25	-2.	0.	131.71
1672	-7.	-1.75	0.	129.89
1673	-7.	-2.75	0.	141.5
1674	-6.75	-3.	0.	126.53
1675	-7.	-3.25	0.	133.32
1676	-7.25	-3.	0.	134.54
1677	-6.25	-2.	0.	125.17
1678	-6.	-2.25	0.	143.32
1679	-6.	-1.75	0.	131.79
1680	-5.75	-2.	0.	136.86
1681	-6.25	-3.	0.	126.91
1682	-6.	-2.75	0.	143.92
1683	-6.	-3.25	0.	132.74
1684	-5.75	-3.	0.	135.98
1685	-9.	0.75	0.	140.96
1686	-8.75	1.	0.	124.62
1687	-9.	1.25	0.	130.37
1688	-9.25	1.	0.	133.65
1689	-9.	0.25	0.	140.81
1690	-8.75	0.	0.	124.24
1691	-9.	-0.25	0.	130.23
1692	-9.25	-1.3538e-014	0.	133.74
1693	-8.25	1.	0.	125.
1694	-8.	0.75	0.	140.82
1695	-8.	1.25	0.	131.71
1696	-7.75	1.	0.	134.11
1697	-8.25	0.	0.	123.99
1698	-8.	0.25	0.	140.01
1699	-7.75	-1.9072e-013	0.	132.49
1700	-8.	-0.25	0.	130.14
1701	1.	1.75	0.	140.74
1702	1.25	2.	0.	127.34
1703	0.75	2.	0.	133.98
1704	1.	2.25	0.	131.98
1705	1.	1.25	0.	140.9
1706	1.25	1.	0.	127.11
1707	0.75	1.	0.	134.47
1708	1.	0.75	0.	132.35
1709	2.75	2.	0.	125.49
1710	3.	1.75	0.	136.82
1711	3.25	2.	0.	128.22
1712	3.	2.25	0.	129.33
1713	2.75	1.	0.	124.81
1714	3.	1.25	0.	137.06
1715	3.25	1.	0.	130.83
1716	3.	0.75	0.	129.07
1717	-1.	7.75	0.	140.21
1718	-0.75	8.	0.	127.05
1719	-1.25	8.	0.	133.02
1720	-1.	8.25	0.	131.51
1721	-1.	7.25	0.	140.26
1722	-0.75	7.	0.	127.12
1723	-1.	6.75	0.	131.8
1724	-1.25	7.	0.	133.17
1725	0.75	8.	0.	127.26
1726	1.	7.75	0.	140.56
1727	1.2498	8.	0.	133.3
1728	0.99992	8.25	0.	131.87
1729	0.75	7.	0.	127.27
1730	1.	7.25	0.	140.44
1731	1.2498	7.	0.	133.48
1732	0.99994	6.75	0.	131.88
1733	3.	3.75	0.	136.42
1734	3.25	4.	0.	121.77
1735	3.	4.25	0.	127.49
1736	2.75	4.	0.	129.64
1737	3.	3.25	0.	137.15
1738	3.25	3.	0.	123.77
1739	3.	2.75	0.	129.7
1740	2.75	3.	0.	128.51
1741	3.75	4.	0.	123.33
1742	4.	3.75	0.	139.9
1743	3.9999	4.25	0.	129.98
1744	4.25	4.	0.	132.94
1745	3.75	3.	0.	125.37
1746	4.	3.25	0.	140.72
1747	4.25	3.	0.	134.31
1748	4.	2.75	0.	132.03
1749	-9.	-4.25	0.	139.34
1750	-8.75	-4.	0.	121.89
1751	-9.	-3.75	0.	129.
1752	-9.25	-4.	0.	133.53
1753	-9.	-5.75	0.	138.64
1754	-8.75	-6.	0.	120.54
1755	-9.	-6.25	0.	128.15
1756	-9.25	-6.	0.	132.94
1757	-8.25	-4.	0.	122.66
1758	-8.	-4.25	0.	139.62
1759	-8.	-3.75	0.	130.85
1760	-7.75	-4.	0.	134.04
1761	-8.25	-6.	0.	119.74
1762	-8.	-5.75	0.	136.62
1763	-8.	-6.25	0.	126.82
1764	-7.75	-6.	0.	130.51
1765	-7.	2.75	0.	138.78
1766	-6.75	3.	0.	122.62
1767	-7.25	3.	0.	131.33
1768	-7.	3.25	0.	128.65
1769	-7.	2.25	0.	140.05
1770	-6.75	2.	0.	124.06
1771	-7.	1.75	0.	131.35
1772	-7.25	2.	0.	133.44
1773	-6.25	3.	0.	123.48
1774	-6.	2.75	0.	139.44
1775	-5.75	3.	0.	133.56
1776	-6.	3.25	0.	130.61
1777	-6.25	2.	0.	123.39
1778	-6.	2.25	0.	139.14
1779	-5.75	2.	0.	132.75
1780	-6.	1.75	0.	130.05
1781	0.	-6.25	0.	136.94
1782	0.25	-6.	0.	121.22
1783	-1.8758e-011	-5.75	0.	127.77
1784	-0.25	-6.	0.	130.52
1785	0.	-6.75	0.	136.69
1786	0.25	-7.	0.	120.87
1787	5.1047e-012	-7.25	0.	127.19
1788	-0.25	-7.	0.	130.18
1789	0.75	-6.	0.	121.13
1790	1.	-6.25	0.	136.9
1791	1.	-5.75	0.	127.56
1792	1.25	-6.	0.	130.49
1793	0.75	-7.	0.	121.01
1794	1.	-6.75	0.	136.87
1795	1.25	-7.	0.	130.38
1796	1.	-7.25	0.	127.44
1797	7.	-1.25	0.	136.1
1798	7.25	-1.	0.	119.19
1799	6.75	-1.	0.	130.74
1800	7.	-0.75	0.	126.86
1801	7.	-2.75	0.	135.98
1802	7.25	-3.	0.	119.08
1803	7.	-3.25	0.	126.71
1804	6.75	-3.	0.	130.48
1805	7.75	-1.	0.	119.1
1806	8.	-1.25	0.	136.03
1807	8.	-0.75	0.	126.58
1808	8.25	-1.	0.	130.39
1809	7.75	-3.	0.	118.92
1810	8.	-2.75	0.	135.88
1811	8.	-3.25	0.	126.37
1812	8.25	-3.	0.	130.32
1813	-4.	2.75	0.	138.35
1814	-3.75	3.	0.	123.5
1815	-4.25	3.	0.	133.03
1816	-4.	3.25	0.	130.28
1817	-4.	1.25	0.	137.28
1818	-3.75	1.	0.	121.7
1819	-4.25	1.	0.	131.22
1820	-4.	0.75	0.	127.41
1821	-2.25	3.	0.	124.51
1822	-2.	2.75	0.	140.16
1823	-2.	3.25	0.	131.62
1824	-1.75	3.	0.	134.24
1825	-2.25	1.	0.	124.67
1826	-2.	1.25	0.	139.94
1827	-1.75	1.	0.	134.59
1828	-2.	0.75	0.	131.84
1829	9.75	10.	0.	125.
1830	10.	9.75	0.	125.
1831	-9.75	10.	0.	125.
1832	-10.	9.75	0.	124.99
1833	10.	-9.75	0.	124.71
1834	9.75	-10.	0.	124.75
1835	-10.	-9.75	0.	124.77
1836	-9.75	-10.	0.	124.78
1837	-5.25	-1.5	0.	142.95
1838	-4.25	-1.	0.	120.79
1839	-4.5	-0.75	0.	119.76
1840	-3.75	-1.	0.	118.07
1841	-4.	-0.75	0.	119.79
1842	-3.5	-0.75	0.	113.8
1843	-4.25	-2.	0.	119.75
1844	-4.5	-2.25	0.	117.49
1845	-3.75	-2.	0.	118.74
1846	-4.	-2.25	0.	119.49
1847	-3.5	-2.25	0.	115.77
1848	-2.75	-1.5	0.	134.14
1849	-7.25	-2.5	0.	137.5
1850	-6.5	-1.75	0.	114.1
1851	-6.5	-3.25	0.	116.13
1852	-5.75	-2.5	0.	143.49
1853	-9.25	0.5	0.	139.56
1854	-8.5	1.25	0.	114.07
1855	-8.5	-0.25	0.	113.75
1856	-7.75	0.5	0.	137.88
1857	0.75	1.5	0.	138.49
1858	1.75	2.	0.	121.82
1859	1.5	2.25	0.	118.6
1860	2.25	2.	0.	121.87
1861	2.	2.25	0.	122.68
1862	2.5	2.25	0.	120.49
1863	1.75	1.	0.	120.36
1864	1.5	0.75	0.	117.91
1865	2.25	1.	0.	119.89
1866	2.	0.75	0.	120.49
1867	2.5	0.75	0.	116.85
1868	3.25	1.5	0.	133.94
1869	-1.25	7.5	0.	137.3
1870	-0.25	8.	0.	121.42
1871	-0.50001	8.25	0.	118.55
1872	0.25	8.	0.	121.43
1873	-1.4684e-005	8.25	0.	121.9
1874	0.49997	8.25	0.	118.61
1875	-0.25	7.	0.	121.41
1876	-0.5	6.75	0.	118.72
1877	0.25	7.	0.	121.53
1878	-1.0199e-005	6.75	0.	122.
1879	0.49998	6.75	0.	118.89
1880	1.2498	7.5	0.	137.59
1881	2.75	3.5	0.	133.59
1882	3.5	4.25	0.	112.61
1883	3.5	2.75	0.	116.67
1884	4.25	3.5	0.	138.36
1885	-9.	-4.75	0.	144.92
1886	-9.25	-4.5	0.	140.49
1887	-9.	-5.25	0.	144.66
1888	-9.25	-5.	0.	141.56
1889	-9.25	-5.5	0.	140.15
1890	-8.5	-3.75	0.	110.92
1891	-8.5	-6.25	0.	109.2
1892	-8.	-4.75	0.	143.27
1893	-7.75	-4.5	0.	138.58
1894	-8.	-5.25	0.	142.32
1895	-7.75	-5.	0.	138.74
1896	-7.75	-5.5	0.	137.05
1897	-7.25	2.5	0.	136.91
1898	-6.5	3.25	0.	113.04
1899	-6.5	1.75	0.	113.47
1900	-5.75	2.5	0.	137.87
1901	-0.25	-6.5	0.	135.21
1902	0.5	-5.75	0.	111.19
1903	0.5	-7.25	0.	110.92
1904	1.25	-6.5	0.	135.32
1905	7.	-1.75	0.	140.99
1906	6.75	-1.5	0.	136.72
1907	7.	-2.25	0.	140.93
1908	6.75	-2.	0.	137.71
1909	6.75	-2.5	0.	136.58
1910	7.5	-0.75	0.	108.49
1911	7.5	-3.25	0.	108.36
1912	8.	-1.75	0.	141.08
1913	8.25	-1.5	0.	136.64
1914	8.	-2.25	0.	141.06
1915	8.25	-2.	0.	137.77
1916	8.25	-2.5	0.	136.6
1917	-4.	2.25	0.	142.89
1918	-4.25	2.5	0.	137.92
1919	-4.	1.75	0.	142.7
1920	-4.25	2.	0.	139.05
1921	-4.25	1.5	0.	137.73
1922	-3.25	3.	0.	115.55
1923	-3.5	3.25	0.	113.79
1924	-2.75	3.	0.	115.67
1925	-3.	3.25	0.	116.09
1926	-2.5	3.25	0.	114.07
1927	-3.25	1.	0.	114.18
1928	-3.5	0.75	0.	111.45
1929	-2.75	1.	0.	115.69
1930	-3.	0.75	0.	115.37
1931	-2.5	0.75	0.	114.89
1932	-2.	2.25	0.	144.78
1933	-1.75	2.5	0.	139.7
1934	-2.	1.75	0.	144.77
1935	-1.75	2.	0.	140.81
1936	-1.75	1.5	0.	139.61
1937	9.25	10.	0.	125.01
1938	9.5	9.75	0.	125.
1939	8.75	10.	0.	125.03
1940	8.9999	9.75	0.	125.01
1941	8.25	10.	0.	125.07
1942	8.4998	9.75	0.	125.04
1943	7.75	10.	0.	125.11
1944	7.9998	9.75	0.	125.08
1945	7.25	10.	0.	125.15
1946	7.4997	9.75	0.	125.12
1947	6.75	10.	0.	125.19
1948	6.9996	9.75	0.	125.15
1949	6.25	10.	0.	125.23
1950	6.4995	9.75	0.	125.18
1951	5.75	10.	0.	125.27
1952	5.9994	9.75	0.	125.21
1953	5.25	10.	0.	125.34
1954	5.4994	9.75	0.	125.24
1955	4.75	10.	0.	125.44
1956	4.9994	9.75	0.	125.29
1957	4.25	10.	0.	125.61
1958	4.4995	9.75	0.	125.37
1959	3.75	10.	0.	125.84
1960	3.9996	9.75	0.	125.51
1961	3.25	10.	0.	126.1
1962	3.4997	9.75	0.	125.7
1963	2.75	10.	0.	126.29
1964	2.9998	9.75	0.	125.93
1965	2.25	10.	0.	126.14
1966	2.4998	9.75	0.	126.1
1967	1.75	10.	0.	125.34
1968	1.9999	9.75	0.	125.96
1969	1.25	10.	0.	123.86
1970	1.4999	9.75	0.	125.1
1971	0.75	10.	0.	122.16
1972	0.99997	9.75	0.	123.52
1973	0.25	10.	0.	121.03
1974	0.49999	9.75	0.	121.89
1975	-0.25	10.	0.	120.98
1976	-6.2219e-006	9.75	0.	121.18
1977	-0.75	10.	0.	122.01
1978	-0.5	9.75	0.	121.79
1979	-1.25	10.	0.	123.6
1980	-1.	9.75	0.	123.32
1981	-1.75	10.	0.	125.01
1982	-1.5	9.75	0.	124.83
1983	-2.25	10.	0.	125.74
1984	-2.	9.75	0.	125.63
1985	-2.75	10.	0.	125.84
1986	-2.5	9.75	0.	125.71
1987	-3.25	10.	0.	125.61
1988	-3.	9.75	0.	125.5
1989	-3.75	10.	0.	125.31
1990	-3.5	9.75	0.	125.24
1991	-4.25	10.	0.	125.05
1992	-4.	9.75	0.	125.01
1993	-4.75	10.	0.	124.87
1994	-4.5	9.75	0.	124.86
1995	-5.25	10.	0.	124.77
1996	-5.	9.75	0.	124.76
1997	-5.75	10.	0.	124.72
1998	-5.5	9.75	0.	124.72
1999	-6.25	10.	0.	124.72
2000	-6.	9.75	0.	124.71
2001	-6.75	10.	0.	124.75
2002	-6.5	9.75	0.	124.74
2003	-7.25	10.	0.	124.81
2004	-7.	9.75	0.	124.78
2005	-7.75	10.	0.	124.87
2006	-7.5	9.75	0.	124.84
2007	-8.25	10.	0.	124.92
2008	-8.	9.75	0.	124.9
2009	-8.75	10.	0.	124.97
2010	-8.5	9.75	0.	124.95
2011	-9.25	10.	0.	125.
2012	-9.	9.75	0.	124.99
2013	-9.5	9.75	0.	125.01
2014	10.	9.25	0.	124.99
2015	9.75	9.5	0.	125.
2016	10.	8.75	0.	124.94
2017	9.7499	9.	0.	124.97
2018	10.	8.25	0.	124.86
2019	9.7499	8.5	0.	124.91
2020	10.	7.75	0.	124.76
2021	9.7499	8.	0.	124.83
2022	10.	7.25	0.	124.63
2023	9.7499	7.5	0.	124.73
2024	10.	6.75	0.	124.48
2025	9.7499	7.	0.	124.61
2026	10.	6.25	0.	124.31
2027	9.7499	6.5	0.	124.47
2028	10.	5.75	0.	124.12
2029	9.7499	6.	0.	124.32
2030	10.	5.25	0.	123.94
2031	9.7499	5.5	0.	124.17
2032	10.	4.75	0.	123.78
2033	9.75	5.	0.	124.02
2034	10.	4.25	0.	123.66
2035	9.75	4.5	0.	123.9
2036	10.	3.75	0.	123.63
2037	9.75	4.	0.	123.83
2038	10.	3.25	0.	123.71
2039	9.75	3.5	0.	123.84
2040	10.	2.75	0.	123.95
2041	9.75	3.	0.	123.97
2042	10.	2.25	0.	124.4
2043	9.75	2.5	0.	124.23
2044	10.	1.75	0.	125.07
2045	9.75	2.	0.	124.68
2046	10.	1.25	0.	125.94
2047	9.75	1.5	0.	125.3
2048	10.	0.75	0.	126.9
2049	9.75	1.	0.	126.1
2050	10.	0.25	0.	127.62
2051	9.75	0.5	0.	126.94
2052	10.	-0.25	0.	127.65
2053	9.75	2.4103e-007	0.	127.53
2054	10.	-0.75	0.	126.81
2055	9.75	-0.5	0.	127.49
2056	10.	-1.25	0.	125.55
2057	9.75	-1.	0.	126.75
2058	10.	-1.75	0.	124.69
2059	9.75	-1.5	0.	125.99
2060	10.	-2.25	0.	124.81
2061	9.75	-2.	0.	125.74
2062	10.	-2.75	0.	125.89
2063	9.75	-2.5	0.	126.18
2064	10.	-3.25	0.	127.37
2065	9.75	-3.	0.	127.13
2066	10.	-3.75	0.	128.4
2067	9.75	-3.5	0.	128.04
2068	10.	-4.25	0.	128.55
2069	9.75	-4.	0.	128.25
2070	10.	-4.75	0.	128.
2071	9.75	-4.5	0.	127.81
2072	10.	-5.25	0.	127.19
2073	9.75	-5.	0.	127.1
2074	10.	-5.75	0.	126.43
2075	9.75	-5.5	0.	126.42
2076	10.	-6.25	0.	125.83
2077	9.75	-6.	0.	125.88
2078	10.	-6.75	0.	125.41
2079	9.75	-6.5	0.	125.47
2080	10.	-7.25	0.	125.12
2081	9.75	-7.	0.	125.19
2082	10.	-7.75	0.	124.94
2083	9.75	-7.5	0.	125.01
2084	10.	-8.25	0.	124.83
2085	9.75	-8.	0.	124.89
2086	10.	-8.75	0.	124.76
2087	9.75	-8.5	0.	124.82
2088	10.	-9.25	0.	124.72
2089	9.75	-9.	0.	124.78
2090	9.75	-9.5	0.	124.75
2091	-10.	9.25	0.	125.
2092	-9.75	9.5	0.	125.
2093	-10.	8.75	0.	125.06
2094	-9.75	9.	0.	125.04
2095	-10.	8.25	0.	125.16
2096	-9.75	8.5	0.	125.11
2097	-10.	7.75	0.	125.31
2098	-9.75	8.	0.	125.23
2099	-10.	7.25	0.	125.49
2100	-9.75	7.5	0.	125.37
2101	-10.	6.75	0.	125.69
2102	-9.75	7.	0.	125.54
2103	-10.	6.25	0.	125.89
2104	-9.75	6.5	0.	125.72
2105	-10.	5.75	0.	126.06
2106	-9.75	6.	0.	125.89
2107	-10.	5.25	0.	126.14
2108	-9.75	5.5	0.	126.03
2109	-10.	4.75	0.	126.07
2110	-9.75	5.	0.	126.08
2111	-10.	4.25	0.	125.85
2112	-9.75	4.5	0.	126.
2113	-10.	3.75	0.	125.58
2114	-9.75	4.	0.	125.8
2115	-10.	3.25	0.	125.6
2116	-9.75	3.5	0.	125.59
2117	-10.	2.75	0.	126.45
2118	-9.75	3.	0.	125.68
2119	-10.	2.25	0.	128.51
2120	-9.75	2.5	0.	126.54
2121	-10.	1.75	0.	130.47
2122	-9.75	2.	0.	128.56
2123	-10.	1.25	0.	129.66
2124	-9.75	1.5	0.	131.2
2125	-10.	0.75	0.	126.62
2126	-9.75	1.	0.	130.09
2127	-10.	0.25	0.	127.03
2128	-9.75	0.5	0.	128.94
2129	-10.	-0.25	0.	130.8
2130	-9.75	-1.614e-014	0.	130.73
2131	-10.	-0.75	0.	132.08
2132	-9.75	-0.5	0.	132.26
2133	-10.	-1.25	0.	130.32
2134	-9.75	-1.	0.	129.91
2135	-10.	-1.75	0.	128.43
2136	-9.75	-1.5	0.	127.95
2137	-10.	-2.25	0.	128.33
2138	-9.75	-2.	0.	127.16
2139	-10.	-2.75	0.	130.34
2140	-9.75	-2.5	0.	127.75
2141	-10.	-3.25	0.	133.02
2142	-9.75	-3.	0.	129.99
2143	-10.	-3.75	0.	133.66
2144	-9.75	-3.5	0.	133.28
2145	-10.	-4.25	0.	132.14
2146	-9.75	-4.	0.	133.23
2147	-10.	-4.75	0.	131.36
2148	-9.75	-4.5	0.	133.73
2149	-10.	-5.25	0.	131.36
2150	-9.75	-5.	0.	134.76
2151	-10.	-5.75	0.	132.21
2152	-9.75	-5.5	0.	133.65
2153	-10.	-6.25	0.	133.96
2154	-9.75	-6.	0.	133.17
2155	-10.	-6.75	0.	133.62
2156	-9.75	-6.5	0.	133.41
2157	-10.	-7.25	0.	130.93
2158	-9.75	-7.	0.	130.31
2159	-10.	-7.75	0.	128.14
2160	-9.75	-7.5	0.	127.87
2161	-10.	-8.25	0.	126.39
2162	-9.75	-8.	0.	126.39
2163	-10.	-8.75	0.	125.44
2164	-9.75	-8.5	0.	125.54
2165	-10.	-9.25	0.	124.96
2166	-9.75	-9.	0.	125.08
2167	-9.75	-9.5	0.	124.85
2168	-9.25	-10.	0.	124.76
2169	-9.5	-9.75	0.	124.86
2170	-8.75	-10.	0.	124.58
2171	-9.	-9.75	0.	124.66
2172	-8.25	-10.	0.	124.43
2173	-8.5	-9.75	0.	124.43
2174	-7.75	-10.	0.	124.45
2175	-8.	-9.75	0.	124.35
2176	-7.25	-10.	0.	124.62
2177	-7.5	-9.75	0.	124.48
2178	-6.75	-10.	0.	124.88
2179	-7.	-9.75	0.	124.73
2180	-6.25	-10.	0.	125.14
2181	-6.5	-9.75	0.	125.02
2182	-5.75	-10.	0.	125.36
2183	-6.	-9.75	0.	125.27
2184	-5.25	-10.	0.	125.52
2185	-5.5	-9.75	0.	125.46
2186	-4.75	-10.	0.	125.63
2187	-5.	-9.75	0.	125.58
2188	-4.25	-10.	0.	125.72
2189	-4.5	-9.75	0.	125.67
2190	-3.75	-10.	0.	125.79
2191	-4.	-9.75	0.	125.75
2192	-3.25	-10.	0.	125.85
2193	-3.5	-9.75	0.	125.82
2194	-2.75	-10.	0.	125.86
2195	-3.	-9.75	0.	125.87
2196	-2.25	-10.	0.	125.77
2197	-2.5	-9.75	0.	125.86
2198	-1.75	-10.	0.	125.5
2199	-2.	-9.75	0.	125.72
2200	-1.25	-10.	0.	124.99
2201	-1.5	-9.75	0.	125.36
2202	-0.75	-10.	0.	124.26
2203	-1.	-9.75	0.	124.71
2204	-0.25	-10.	0.	123.5
2205	-0.5	-9.75	0.	123.87
2206	0.25	-10.	0.	123.02
2207	2.434e-012	-9.75	0.	123.1
2208	0.75	-10.	0.	123.06
2209	0.5	-9.75	0.	122.81
2210	1.25	-10.	0.	123.62
2211	1.	-9.75	0.	123.18
2212	1.75	-10.	0.	124.44
2213	1.5	-9.75	0.	124.02
2214	2.25	-10.	0.	125.21
2215	2.	-9.75	0.	124.92
2216	2.75	-10.	0.	125.73
2217	2.5	-9.75	0.	125.59
2218	3.25	-10.	0.	125.99
2219	3.	-9.75	0.	125.95
2220	3.75	-10.	0.	126.03
2221	3.5	-9.75	0.	126.06
2222	4.25	-10.	0.	125.94
2223	4.	-9.75	0.	126.01
2224	4.75	-10.	0.	125.78
2225	4.5	-9.75	0.	125.86
2226	5.25	-10.	0.	125.59
2227	5.	-9.75	0.	125.68
2228	5.75	-10.	0.	125.4
2229	5.5	-9.75	0.	125.48
2230	6.25	-10.	0.	125.24
2231	6.	-9.75	0.	125.3
2232	6.75	-10.	0.	125.1
2233	6.5	-9.75	0.	125.15
2234	7.25	-10.	0.	125.
2235	7.	-9.75	0.	125.03
2236	7.75	-10.	0.	124.94
2237	7.5	-9.75	0.	124.95
2238	8.25	-10.	0.	124.89
2239	8.	-9.75	0.	124.9
2240	8.75	-10.	0.	124.86
2241	8.5	-9.75	0.	124.87
2242	9.25	-10.	0.	124.82
2243	9.	-9.75	0.	124.84
2244	9.5	-9.75	0.	124.79
2245	2.75	-3.	0.	124.81
2246	3.	-2.75	0.	124.79
2247	3.25	-3.	0.	125.24
2248	3.	-3.25	0.	125.27
2249	2.25	-2.5	0.	123.98
2250	2.5	-2.75	0.	124.35
2251	2.75	-2.5	0.	124.33
2252	2.5	-2.25	0.	123.83
2253	2.	-2.25	0.	123.62
2254	1.75	-2.5	0.	123.88
2255	2.	-2.75	0.	124.07
2256	5.25	-5.5	0.	125.78
2257	4.75	-5.5	0.	126.
2258	5.	-5.75	0.	125.77
2259	5.	-5.25	0.	126.18
2260	-3.75	-5.5	0.	123.95
2261	-4.25	-5.5	0.	123.97
2262	-4.	-5.25	0.	123.78
2263	-4.	-5.75	0.	124.02
2264	1.75	-2.	0.	123.53
2265	2.25	-2.	0.	123.47
2266	2.	-1.75	0.	123.06
2267	2.25	-3.	0.	124.45
2268	2.5	-3.25	0.	124.88
2269	4.	-4.25	0.	126.51
2270	4.	-4.75	0.	126.46
2271	4.25	-4.5	0.	126.63
2272	3.75	-4.5	0.	126.48
2273	4.5	-5.25	0.	126.25
2274	4.25	-5.	0.	126.41
2275	4.5	-4.75	0.	126.57
2276	4.75	-5.	0.	126.42
2277	3.75	-4.	0.	126.36
2278	3.5	-4.25	0.	126.33
2279	3.25	-4.	0.	126.12
2280	3.5	-3.75	0.	126.05
2281	5.5	-5.75	0.	125.45
2282	5.75	-5.5	0.	125.31
2283	5.5	-5.25	0.	125.89
2284	5.75	-6.	0.	125.04
2285	6.	-6.25	0.	124.78
2286	6.	-5.75	0.	124.9
2287	6.25	-6.	0.	124.51
2288	3.25	-2.5	0.	124.84
2289	3.	-2.25	0.	124.36
2290	3.5	-2.75	0.	125.3
2291	3.75	-2.5	0.	125.41
2292	3.5	-2.25	0.	125.03
2293	3.75	-3.	0.	125.71
2294	3.5	-3.25	0.	125.67
2295	-3.5	-5.75	0.	124.09
2296	-3.5	-5.25	0.	123.88
2297	-3.25	-5.5	0.	124.18
2298	-3.5	-6.25	0.	124.3
2299	-3.25	-6.	0.	124.28
2300	-3.75	-6.	0.	124.16
2301	1.25	-2.5	0.	124.07
2302	1.5	-2.25	0.	123.79
2303	1.5	-2.75	0.	123.99
2304	0.75	-2.5	0.	124.5
2305	1.	-2.25	0.	124.31
2306	1.	-2.75	0.	124.16
2307	4.5	-5.75	0.	125.9
2308	4.75	-6.	0.	125.67
2309	4.5	-6.25	0.	125.64
2310	4.25	-6.	0.	125.77
2311	4.25	-5.5	0.	126.08
2312	-4.5	-5.75	0.	124.13
2313	-4.75	-6.	0.	124.34
2314	-4.5	-6.25	0.	124.38
2315	-4.25	-6.	0.	124.19
2316	5.25	-6.	0.	125.44
2317	5.5	-6.25	0.	125.2
2318	5.	-6.25	0.	125.49
2319	-4.75	-5.5	0.	124.13
2320	-4.5	-5.25	0.	124.
2321	-3.25	-5.	0.	124.03
2322	-3.75	-5.	0.	123.71
2323	-3.5	-4.75	0.	123.53
2324	0.5	-2.75	0.	124.58
2325	0.25	-2.5	0.	125.08
2326	0.5	-2.25	0.	125.
2327	1.25	-2.	0.	124.03
2328	1.5	-1.75	0.	123.52
2329	2.75	-2.	0.	123.86
2330	2.5	-1.75	0.	123.26
2331	4.	-2.25	0.	125.68
2332	4.25	-2.	0.	125.96
2333	3.75	-2.	0.	125.3
2334	4.	-1.75	0.	125.8
2335	4.	-2.75	0.	125.83
2336	4.25	-2.5	0.	125.97
2337	4.	-3.75	0.	126.38
2338	4.25	-4.	0.	126.66
2339	2.	-3.25	0.	124.5
2340	1.75	-3.	0.	124.18
2341	0.25	-3.	0.	124.7
2342	0.75	-3.	0.	124.24
2343	0.5	-3.25	0.	124.16
2344	4.	-5.25	0.	126.24
2345	3.75	-5.	0.	126.4
2346	-4.75	6.	0.	124.83
2347	-5.25	6.	0.	125.03
2348	-5.	6.25	0.	124.75
2349	-5.	5.75	0.	125.39
2350	4.75	-6.5	0.	125.46
2351	4.25	-6.5	0.	125.57
2352	4.5	-6.75	0.	125.51
2353	-3.25	-6.5	0.	124.45
2354	-3.5	-6.75	0.	124.55
2355	-3.75	-6.5	0.	124.41
2356	1.75	-1.5	0.	123.04
2357	2.25	-1.5	0.	122.85
2358	2.	-1.25	0.	122.27
2359	4.5	-1.75	0.	126.46
2360	4.5	-2.25	0.	126.25
2361	4.75	-2.	0.	126.54
2362	4.5	-4.25	0.	126.78
2363	4.75	-4.5	0.	126.82
2364	-3.	-5.25	0.	124.32
2365	-2.75	-5.	0.	124.71
2366	-3.	-4.75	0.	124.21
2367	2.25	-3.5	0.	124.94
2368	2.5	-3.75	0.	125.47
2369	2.75	-3.5	0.	125.34
2370	3.5	-4.75	0.	126.42
2371	3.25	-4.5	0.	126.43
2372	-5.	-5.75	0.	124.33
2373	-5.25	-6.	0.	124.6
2374	-5.	-6.25	0.	124.6
2375	1.9826e-011	-2.75	0.	125.19
2376	-0.25	-3.	0.	125.38
2377	-2.2699e-011	-3.25	0.	124.78
2378	6.25	-6.5	0.	124.56
2379	6.	-6.75	0.	124.78
2380	5.75	-6.5	0.	124.94
2381	-6.	6.25	0.	124.82
2382	-6.25	6.5	0.	124.72
2383	-6.	6.75	0.	124.62
2384	-5.75	6.5	0.	124.68
2385	-3.5	5.75	0.	123.84
2386	-3.5	6.25	0.	124.03
2387	-3.25	6.	0.	124.31
2388	-3.75	6.	0.	124.13
2389	5.9982	6.2502	0.	126.02
2390	6.2487	6.0002	0.	126.12
2391	5.7486	6.0002	0.	126.29
2392	5.9989	5.7502	0.	126.47
2393	6.25	-5.5	0.	124.56
2394	6.	-5.25	0.	125.23
2395	6.5	-6.25	0.	124.29
2396	6.5	-5.75	0.	124.17
2397	6.75	-6.	0.	123.97
2398	5.25	-5.	0.	126.29
2399	5.	-4.75	0.	126.66
2400	4.25	-1.5	0.	126.29
2401	4.5	-1.25	0.	126.99
2402	4.75	-1.5	0.	126.93
2403	2.75	-4.	0.	125.9
2404	3.	-4.25	0.	126.22
2405	3.	-3.75	0.	125.77
2406	-5.25	-5.5	0.	124.32
2407	-5.	-5.25	0.	124.28
2408	-4.25	-5.	0.	123.81
2409	-4.	-4.75	0.	123.45
2410	-4.5	5.75	0.	124.96
2411	-4.25	6.	0.	124.44
2412	-4.5	6.25	0.	124.45
2413	1.	-1.75	0.	124.47
2414	0.75	-2.	0.	124.8
2415	3.25	-2.	0.	124.54
2416	3.	-1.75	0.	124.
2417	3.5	-1.75	0.	124.94
2418	4.	-3.25	0.	126.11
2419	4.25	-3.	0.	126.21
2420	4.25	-3.5	0.	126.5
2421	3.75	-3.5	0.	126.07
2422	-3.	-5.75	0.	124.37
2423	-2.75	-5.5	0.	124.63
2424	-3.	-6.25	0.	124.44
2425	-2.75	-6.	0.	124.54
2426	1.	-3.25	0.	123.98
2427	1.25	-3.	0.	124.09
2428	4.	-5.75	0.	125.94
2429	4.	-6.25	0.	125.69
2430	3.75	-6.	0.	125.8
2431	3.75	-5.5	0.	126.13
2432	-5.75	6.	0.	125.
2433	-5.5	5.75	0.	125.37
2434	-5.5	6.25	0.	124.86
2435	-6.25	6.	0.	124.87
2436	-6.	5.75	0.	125.06
2437	5.8339e-011	-2.25	0.	125.66
2438	-0.25	-2.5	0.	125.67
2439	8.2581e-011	-1.75	0.	126.41
2440	0.25	-2.	0.	125.58
2441	-0.25	-2.	0.	126.15
2442	-4.5	-6.75	0.	124.69
2443	-4.25	-6.5	0.	124.47
2444	-4.75	-6.5	0.	124.65
2445	5.	-6.75	0.	125.35
2446	5.25	-6.5	0.	125.25
2447	5.7478	6.5002	0.	125.74
2448	5.2478	6.5001	0.	125.51
2449	5.4982	6.2502	0.	126.01
2450	5.4973	6.7502	0.	125.46
2451	6.248	6.5003	0.	125.75
2452	5.9975	6.7503	0.	125.6
2453	6.499	5.7502	0.	126.1
2454	6.4984	6.2503	0.	125.85
2455	6.7488	6.0002	0.	125.84
2456	6.4995	5.2501	0.	126.22
2457	6.2493	5.5002	0.	126.45
2458	6.7493	5.5002	0.	125.98
2459	-5.	6.75	0.	124.35
2460	-5.25	6.5	0.	124.58
2461	-4.75	6.5	0.	124.37
2462	-3.75	6.5	0.	124.
2463	-4.	6.75	0.	123.88
2464	-4.	6.25	0.	124.1
2465	-4.25	6.5	0.	124.12
2466	3.75	-6.5	0.	125.6
2467	4.	-6.75	0.	125.59
2468	-6.5	6.25	0.	124.78
2469	-6.5	5.75	0.	124.8
2470	-6.75	6.	0.	124.84
2471	-2.75	-6.5	0.	124.59
2472	-3.	-6.75	0.	124.63
2473	-3.25	5.5	0.	123.71
2474	-3.5	5.25	0.	123.15
2475	-3.75	5.5	0.	123.98
2476	-0.25	-1.5	0.	127.07
2477	0.25	-1.5	0.	126.39
2478	9.7658e-011	-1.25	0.	127.62
2479	1.25	-1.5	0.	123.96
2480	1.5	-1.25	0.	123.1
2481	2.75	-1.5	0.	123.4
2482	2.5	-1.25	0.	122.56
2483	3.75	-1.5	0.	125.45
2484	4.	-1.25	0.	126.25
2485	4.9982	6.2501	0.	125.69
2486	4.9974	6.7501	0.	125.11
2487	4.748	6.5001	0.	125.04
2488	6.4997	4.7501	0.	126.14
2489	6.7496	5.0001	0.	125.97
2490	6.2496	5.0001	0.	126.58
2491	6.5	1.75	0.	124.96
2492	6.5	2.25	0.	125.11
2493	6.75	2.	0.	124.6
2494	6.25	2.	0.	125.61
2495	6.5	3.75	0.	125.55
2496	6.5	3.25	0.	125.32
2497	6.25	3.5	0.	125.7
2498	6.75	3.5	0.	125.17
2499	4.5	-2.75	0.	126.35
2500	4.75	-2.5	0.	126.51
2501	4.5	-3.75	0.	126.78
2502	4.75	-4.	0.	127.06
2503	-2.5	-4.75	0.	125.19
2504	-2.25	-5.	0.	125.58
2505	-2.5	-5.25	0.	125.01
2506	2.	-3.75	0.	125.01
2507	1.75	-3.5	0.	124.48
2508	0.75	-3.5	0.	123.89
2509	0.5	-3.75	0.	123.54
2510	0.25	-3.5	0.	124.25
2511	3.5	-5.25	0.	126.28
2512	3.25	-5.	0.	126.49
2513	-4.75	5.5	0.	125.52
2514	-5.25	5.5	0.	125.73
2515	-5.	5.25	0.	126.4
2516	-0.5	-3.25	0.	125.67
2517	-0.5	-2.75	0.	125.86
2518	-0.75	-3.	0.	126.17
2519	-0.5	-1.25	0.	128.07
2520	-0.75	-1.5	0.	127.11
2521	-0.5	-1.75	0.	126.81
2522	-3.25	-4.5	0.	123.71
2523	-3.5	-4.25	0.	122.88
2524	-3.75	-4.5	0.	123.27
2525	6.75	-6.5	0.	124.21
2526	6.5	-6.75	0.	124.45
2527	6.4978	6.7503	0.	125.58
2528	6.7482	6.5003	0.	125.63
2529	-6.75	6.5	0.	124.79
2530	-6.5	6.75	0.	124.7
2531	-3.	5.25	0.	123.02
2532	-3.25	5.	0.	122.43
2533	-2.75	5.	0.	122.85
2534	-3.	4.75	0.	121.01
2535	-3.5	6.75	0.	123.88
2536	-3.25	6.5	0.	124.3
2537	-2.75	5.5	0.	124.41
2538	-3.	5.75	0.	124.19
2539	1.75	-1.	0.	122.32
2540	2.25	-1.	0.	121.98
2541	2.	-0.75	0.	121.09
2542	5.2486	6.0001	0.	126.19
2543	5.4989	5.7501	0.	126.73
2544	5.9994	5.2501	0.	126.81
2545	5.7492	5.5001	0.	126.9
2546	6.25	1.5	0.	125.5
2547	6.	1.75	0.	126.15
2548	6.	1.25	0.	126.24
2549	5.75	1.5	0.	126.58
2550	6.75	-5.5	0.	123.7
2551	6.5	-5.25	0.	124.15
2552	5.75	-5.	0.	125.81
2553	5.5	-4.75	0.	126.55
2554	5.	-4.25	0.	127.09
2555	5.25	-4.5	0.	126.92
2556	4.25	-1.	0.	126.94
2557	4.5	-0.75	0.	127.7
2558	4.75	-1.	0.	127.61
2559	5.	-2.25	0.	126.8
2560	5.	-1.75	0.	127.01
2561	5.25	-2.	0.	127.2
2562	6.75	1.5	0.	124.3
2563	6.5	1.25	0.	124.86
2564	2.25	-4.	0.	125.53
2565	2.5	-4.25	0.	126.1
2566	3.	-4.75	0.	126.5
2567	2.75	-4.5	0.	126.43
2568	-5.5	-5.75	0.	124.58
2569	-5.75	-5.5	0.	124.58
2570	-5.5	-5.25	0.	124.42
2571	-4.5	-4.75	0.	123.98
2572	-4.75	-5.	0.	124.15
2573	-0.75	-3.5	0.	126.05
2574	-1.	-3.75	0.	126.53
2575	-1.	-3.25	0.	126.56
2576	-1.25	-3.5	0.	126.86
2577	-1.25	-4.	0.	126.74
2578	-1.75	-4.	0.	126.78
2579	-1.5	-4.25	0.	126.93
2580	-1.5	-3.75	0.	127.07
2581	3.5	-6.25	0.	125.7
2582	3.5	-6.75	0.	125.63
2583	3.25	-6.5	0.	125.58
2584	-1.0982e-006	4.75	0.	125.99
2585	0.25	4.5	0.	126.44
2586	-0.25	4.5	0.	127.34
2587	-3.6557e-007	4.25	0.	127.5
2588	-6.25	5.5	0.	124.98
2589	-6.75	5.5	0.	124.8
2590	-6.5	5.25	0.	124.62
2591	3.7485	6.5	0.	124.14
2592	3.4983	6.75	0.	124.05
2593	3.4989	6.25	0.	123.97
2594	3.2488	6.5	0.	124.49
2595	-2.5	-6.25	0.	124.68
2596	-2.25	-6.5	0.	124.77
2597	-2.5	-6.75	0.	124.79
2598	-0.25	-1.	0.	128.6
2599	-0.5	-0.75	0.	129.89
2600	-0.75	-1.	0.	128.71
2601	-0.25	5.	0.	125.59
2602	0.25	5.	0.	125.16
2603	-3.7872e-006	5.25	0.	124.11
2604	-4.5	5.25	0.	125.72
2605	-4.25	5.5	0.	124.8
2606	0.75	-1.5	0.	125.23
2607	0.5	-1.25	0.	126.42
2608	0.5	-1.75	0.	125.56
2609	1.	-1.25	0.	124.71
2610	3.25	-1.5	0.	124.4
2611	3.	-1.25	0.	123.72
2612	3.5	-1.25	0.	125.12
2613	3.9986	6.25	0.	124.18
2614	4.2482	6.5	0.	124.46
2615	3.998	6.75	0.	124.12
2616	6.4999	4.2501	0.	125.87
2617	6.7499	4.	0.	125.46
2618	6.2499	4.	0.	126.03
2619	6.7498	4.5001	0.	125.78
2620	6.2498	4.5001	0.	126.42
2621	6.5	2.75	0.	125.21
2622	6.25	2.5	0.	125.67
2623	6.75	2.5	0.	124.82
2624	6.75	3.	0.	124.97
2625	6.25	3.	0.	125.64
2626	4.5	-3.25	0.	126.6
2627	4.75	-3.	0.	126.77
2628	4.75	-3.5	0.	127.02
2629	-2.25	-6.	0.	124.9
2630	-2.5	-5.75	0.	124.8
2631	-0.5	-3.75	0.	125.49
2632	-0.25	-3.5	0.	125.07
2633	1.	-3.75	0.	123.66
2634	1.25	-3.5	0.	124.04
2635	3.5	-5.75	0.	125.98
2636	3.25	-6.	0.	125.84
2637	3.25	-5.5	0.	126.25
2638	-5.75	5.5	0.	125.43
2639	-5.5	5.25	0.	126.12
2640	-6.	5.25	0.	125.26
2641	-5.75	-6.	0.	125.04
2642	-5.5	-6.25	0.	124.97
2643	-0.75	-2.5	0.	126.21
2644	-0.5	-2.25	0.	126.16
2645	-2.75	-4.5	0.	124.7
2646	-3.	-4.25	0.	123.98
2647	-2.5	-4.25	0.	125.37
2648	-2.25	-4.5	0.	125.78
2649	-3.75	-7.	0.	124.71
2650	-3.5	-7.25	0.	124.86
2651	-3.25	-7.	0.	124.73
2652	-4.25	-7.	0.	124.78
2653	-4.	-7.25	0.	124.87
2654	-4.	-6.75	0.	124.57
2655	-4.5	-7.25	0.	124.99
2656	-4.75	-7.	0.	124.97
2657	-5.75	-7.	0.	125.74
2658	-5.5	-7.25	0.	125.53
2659	-5.25	-7.	0.	125.28
2660	-5.5	-6.75	0.	125.32
2661	7.	-6.25	0.	123.89
2662	7.	-5.75	0.	123.49
2663	7.25	-6.	0.	123.62
2664	7.	-6.75	0.	124.19
2665	7.25	-6.5	0.	124.
2666	6.25	-7.	0.	124.67
2667	6.75	-7.	0.	124.43
2668	6.5	-7.25	0.	124.62
2669	5.75	-7.	0.	124.95
2670	6.	-7.25	0.	124.86
2671	5.25	-7.	0.	125.2
2672	5.5	-7.25	0.	125.11
2673	5.5	-6.75	0.	125.1
2674	5.	-7.25	0.	125.33
2675	4.75	-7.	0.	125.4
2676	3.75	-7.	0.	125.62
2677	4.	-7.25	0.	125.64
2678	4.25	-7.	0.	125.53
2679	4.4969	7.2501	0.	124.36
2680	4.7471	7.0001	0.	124.66
2681	4.4976	6.7501	0.	124.59
2682	4.2474	7.	0.	124.24
2683	5.747	7.0002	0.	125.32
2684	5.4967	7.2502	0.	125.09
2685	5.247	7.0002	0.	125.06
2686	6.2473	7.0003	0.	125.43
2687	5.9969	7.2502	0.	125.28
2688	6.7477	7.0003	0.	125.41
2689	6.4973	7.2503	0.	125.34
2690	7.249	6.0002	0.	125.54
2691	6.9991	5.7502	0.	125.73
2692	6.9986	6.2502	0.	125.62
2693	6.9997	4.7501	0.	125.61
2694	7.2497	5.0001	0.	125.5
2695	6.9995	5.2502	0.	125.73
2696	6.9999	4.2501	0.	125.37
2697	7.2498	4.5001	0.	125.32
2698	7.2499	4.0001	0.	125.05
2699	6.9999	3.75	0.	125.08
2700	7.25	3.	0.	124.52
2701	7.	3.25	0.	124.82
2702	7.	2.75	0.	124.58
2703	7.	1.75	0.	123.93
2704	7.25	2.	0.	123.9
2705	7.	2.25	0.	124.31
2706	-7.	6.75	0.	124.81
2707	-7.25	6.5	0.	124.92
2708	-7.	6.25	0.	124.85
2709	-6.25	7.	0.	124.6
2710	-6.75	7.	0.	124.72
2711	-6.5	7.25	0.	124.63
2712	-6.	7.25	0.	124.5
2713	-5.75	7.	0.	124.47
2714	-5.	7.25	0.	124.13
2715	-5.25	7.	0.	124.29
2716	-4.75	7.	0.	124.07
2717	-3.75	7.	0.	123.76
2718	-4.	7.25	0.	123.71
2719	-4.25	7.	0.	123.86
2720	5.75	1.	0.	126.76
2721	5.5	0.75	0.	127.51
2722	5.5	1.25	0.	127.1
2723	5.25	1.	0.	127.19
2724	-3.5	4.75	0.	121.85
2725	-3.75	5.	0.	123.51
2726	-2.5	5.25	0.	124.26
2727	-2.25	5.	0.	124.55
2728	-2.5	4.75	0.	122.5
2729	3.2483	7.	0.	124.21
2730	3.4978	7.25	0.	123.94
2731	3.7478	7.	0.	124.02
2732	-0.5	4.75	0.	126.96
2733	-0.75	5.	0.	126.56
2734	-0.5	5.25	0.	125.1
2735	-3.25	7.	0.	123.95
2736	-3.5	7.25	0.	123.69
2737	0.25	-1.	0.	127.64
2738	9.636e-011	-0.75	0.	129.3
2739	1.25	-1.	0.	123.85
2740	1.5	-0.75	0.	122.45
2741	2.75	-1.	0.	122.88
2742	2.5	-0.75	0.	121.63
2743	3.75	-1.	0.	125.93
2744	4.	-0.75	0.	127.04
2745	4.9989	5.7501	0.	126.58
2746	4.7487	6.0001	0.	125.63
2747	5.9997	4.7501	0.	126.86
2748	5.7496	5.0001	0.	127.36
2749	5.75	2.	0.	126.78
2750	6.	2.25	0.	126.17
2751	6.	3.25	0.	126.02
2752	5.75	3.5	0.	126.43
2753	6.	3.75	0.	126.18
2754	7.	-5.25	0.	122.98
2755	7.25	-5.5	0.	123.09
2756	6.	-4.75	0.	125.92
2757	6.25	-5.	0.	124.82
2758	5.	-2.75	0.	126.93
2759	5.25	-2.5	0.	127.19
2760	5.	-3.75	0.	127.3
2761	5.25	-4.	0.	127.49
2762	5.	-1.25	0.	127.55
2763	5.25	-1.5	0.	127.57
2764	7.	1.25	0.	123.41
2765	7.25	1.5	0.	123.39
2766	6.25	1.	0.	125.6
2767	6.	0.75	0.	126.76
2768	-1.75	-5.	0.	126.48
2769	-2.	-4.75	0.	126.16
2770	-2.	-5.25	0.	125.83
2771	-0.75	-4.	0.	125.97
2772	-1.	-4.25	0.	126.69
2773	2.	-4.25	0.	125.72
2774	1.75	-4.	0.	124.86
2775	0.75	-4.	0.	123.3
2776	0.5	-4.25	0.	122.47
2777	0.25	-4.	0.	123.57
2778	3.	-5.25	0.	126.46
2779	2.75	-5.	0.	126.76
2780	-4.75	5.	0.	126.59
2781	-5.25	5.	0.	126.79
2782	-5.	4.75	0.	128.01
2783	-6.	-5.75	0.	125.04
2784	-6.25	-5.5	0.	125.24
2785	-6.	-5.25	0.	124.55
2786	-1.	-2.75	0.	126.52
2787	-1.25	-3.	0.	126.98
2788	-3.25	-4.	0.	123.14
2789	-3.5	-3.75	0.	121.78
2790	-3.75	-4.	0.	122.39
2791	-2.25	-4.	0.	126.04
2792	-2.	-3.75	0.	126.92
2793	-2.	-4.25	0.	126.45
2794	3.25	-7.	0.	125.71
2795	3.5	-7.25	0.	125.77
2796	3.	-6.25	0.	125.72
2797	3.	-6.75	0.	125.66
2798	2.75	-6.5	0.	125.61
2799	0.5	4.75	0.	125.62
2800	0.5	4.25	0.	126.39
2801	0.75	4.5	0.	125.9
2802	-0.5	4.25	0.	128.69
2803	-0.75	4.5	0.	128.25
2804	-7.25	7.	0.	124.86
2805	-7.	7.25	0.	124.77
2806	-7.	5.25	0.	124.69
2807	-7.25	5.5	0.	124.99
2808	-7.	5.75	0.	124.84
2809	-2.5	5.75	0.	125.51
2810	-2.25	5.5	0.	125.87
2811	3.7491	6.	0.	124.01
2812	3.2493	5.9999	0.	124.34
2813	3.4994	5.75	0.	123.3
2814	5.4994	5.2501	0.	127.45
2815	5.2492	5.5001	0.	127.12
2816	6.9978	7.2502	0.	125.31
2817	7.2482	7.0002	0.	125.32
2818	6.9982	6.7503	0.	125.46
2819	5.25	0.5	0.	127.89
2820	5.75	0.5	0.	127.51
2821	5.5	0.25	0.	128.26
2822	-1.25	-4.5	0.	126.88
2823	-1.5	-4.75	0.	126.92
2824	-1.75	-4.5	0.	126.6
2825	2.5	-4.75	0.	126.69
2826	2.25	-4.5	0.	126.29
2827	7.25	-7.	0.	124.3
2828	7.	-7.25	0.	124.44
2829	-2.	-6.25	0.	124.99
2830	-2.	-6.75	0.	125.01
2831	-1.75	-6.5	0.	125.02
2832	-6.25	5.	0.	124.9
2833	-6.5	4.75	0.	123.97
2834	-6.75	5.	0.	124.51
2835	-1.75	-3.5	0.	127.21
2836	-1.5	-3.25	0.	127.29
2837	-0.75	-0.5	0.	130.85
2838	-0.25	-0.5	0.	130.57
2839	-0.5	-0.25	0.	131.69
2840	-1.	-1.75	0.	126.68
2841	-1.	-1.25	0.	127.76
2842	-1.25	-1.5	0.	126.57
2843	-6.	-7.25	0.	125.95
2844	-6.25	-7.	0.	126.33
2845	-6.	-6.75	0.	125.92
2846	-2.5	-7.25	0.	125.11
2847	-2.25	-7.	0.	125.04
2848	-2.75	-7.	0.	124.84
2849	0.25	4.	0.	127.44
2850	-1.9968e-007	3.75	0.	128.75
2851	-0.25	4.	0.	128.84
2852	-4.5	-4.25	0.	123.9
2853	-4.75	-4.5	0.	124.5
2854	-4.25	-4.5	0.	123.61
2855	0.74999	5.	0.	125.6
2856	0.49999	5.25	0.	124.52
2857	4.5	-0.25	0.	128.26
2858	4.25	-0.5	0.	127.8
2859	4.75	-0.5	0.	128.26
2860	5.25	1.5	0.	127.13
2861	5.5	1.75	0.	127.21
2862	5.	0.25	0.	128.21
2863	4.75	3.5074e-008	0.	128.47
2864	5.25	8.3368e-008	0.	128.58
2865	5.	-0.25	0.	128.47
2866	-3.	4.25	0.	118.12
2867	-2.75	4.5	0.	120.63
2868	-3.25	4.5	0.	120.39
2869	-9.5763e-006	5.75	0.	121.82
2870	-0.25	5.5	0.	123.6
2871	0.24999	5.5	0.	123.45
2872	2.	-0.25	0.	119.44
2873	2.25	-0.5	0.	120.73
2874	1.75	-0.5	0.	121.21
2875	-6.75	-5.	0.	126.55
2876	-6.5	-4.75	0.	124.77
2877	-6.5	-5.25	0.	125.44
2878	-6.25	-5.	0.	124.75
2879	-4.5	4.75	0.	126.92
2880	-4.25	5.	0.	125.27
2881	-2.	4.75	0.	125.33
2882	-2.	5.25	0.	126.16
2883	-1.75	5.	0.	126.37
2884	2.9988	6.75	0.	124.66
2885	2.9992	6.2499	0.	124.87
2886	2.7491	6.4999	0.	125.73
2887	2.9984	7.25	0.	124.27
2888	2.7488	7.	0.	124.97
2889	-1.	4.75	0.	127.86
2890	-1.	5.25	0.	126.67
2891	-1.25	5.	0.	127.11
2892	-3.	6.75	0.	124.36
2893	-3.	7.25	0.	123.98
2894	-2.75	7.	0.	124.6
2895	-2.75	6.5	0.	125.28
2896	-3.	6.25	0.	124.58
2897	0.75	-1.	0.	125.9
2898	0.5	-0.75	0.	127.69
2899	1.	-0.75	0.	125.09
2900	3.25	-1.	0.	124.45
2901	3.	-0.75	0.	123.57
2902	3.5	-0.75	0.	125.68
2903	3.9992	5.75	0.	124.06
2904	4.2489	6.	0.	124.7
2905	5.7498	4.5	0.	127.33
2906	5.9999	4.25	0.	126.57
2907	6.	2.75	0.	126.1
2908	5.75	3.	0.	126.57
2909	7.25	-5.	0.	122.32
2910	7.	-4.75	0.	122.3
2911	6.75	-5.	0.	123.43
2912	5.	-3.25	0.	127.19
2913	5.25	-3.	0.	127.44
2914	5.25	-3.5	0.	127.7
2915	5.25	-1.	0.	128.19
2916	5.	-0.75	0.	128.17
2917	6.5	0.75	0.	125.01
2918	6.75	1.	0.	123.97
2919	-1.75	-6.	0.	125.38
2920	-2.	-5.75	0.	125.37
2921	-0.5	-4.25	0.	125.46
2922	-0.25	-4.	0.	124.69
2923	1.	-4.25	0.	123.14
2924	1.25	-4.	0.	123.94
2925	3.	-5.75	0.	126.11
2926	2.75	-6.	0.	125.99
2927	2.75	-5.5	0.	126.61
2928	-5.75	5.	0.	125.96
2929	-5.5	4.75	0.	127.23
2930	-6.	4.75	0.	125.33
2931	-6.25	-6.	0.	125.83
2932	-6.	-6.25	0.	125.58
2933	-5.5	-4.75	0.	124.78
2934	-5.25	-5.	0.	124.38
2935	-5.75	-5.	0.	124.39
2936	-1.	-2.25	0.	126.43
2937	-1.25	-2.5	0.	126.77
2938	-1.25	-2.	0.	126.32
2939	-0.75	-2.	0.	126.38
2940	-2.75	-4.	0.	124.66
2941	-3.	-3.75	0.	123.7
2942	-2.5	-3.75	0.	125.76
2943	3.	-7.25	0.	125.97
2944	2.75	-7.	0.	125.89
2945	0.75	4.	0.	125.95
2946	0.5	3.75	0.	127.14
2947	-7.	-4.75	0.	127.55
2948	-7.	-5.25	0.	127.81
2949	-7.25	-5.	0.	131.26
2950	6.	-2.25	0.	129.04
2951	6.	-1.75	0.	129.18
2952	6.25	-2.	0.	131.79
2953	5.75	-2.	0.	128.47
2954	2.25	1.4894e-010	0.	119.04
2955	2.	0.25	0.	118.35
2956	1.75	-2.4605e-011	0.	119.66
2957	0.24998	6.	0.	121.33
2958	-0.25001	6.	0.	121.36
2959	-1.6853e-005	6.25	0.	120.23
2960	-0.75	2.	0.	129.94
2961	-1.	2.25	0.	130.72
2962	-1.	1.75	0.	130.68
2963	-1.25	2.	0.	133.59
2964	-3.25	4.	0.	117.54
2965	-2.75	4.	0.	117.75
2966	-3.	3.75	0.	115.46
2967	5.	0.75	0.	127.56
2968	4.75	0.5	0.	127.94
2969	5.	1.25	0.	127.22
2970	4.75	1.	0.	126.96
2971	4.75	1.5	0.	126.74
2972	5.	1.75	0.	127.86
2973	4.5	0.25	0.	128.2
2974	4.25	2.0169e-008	0.	128.55
2975	1.25	5.	0.	126.6
2976	0.99999	4.75	0.	125.88
2977	0.99997	5.25	0.	126.05
2978	1.4999	5.25	0.	127.58
2979	1.5	4.75	0.	126.59
2980	1.75	5.	0.	127.6
2981	-4.5	-3.75	0.	123.31
2982	-4.75	-4.	0.	125.07
2983	-4.25	-4.	0.	123.06
2984	1.	4.25	0.	125.46
2985	1.25	4.5	0.	125.87
2986	1.	3.75	0.	125.02
2987	1.25	4.	0.	124.65
2988	-0.25	3.5	0.	129.91
2989	0.25	3.5	0.	128.44
2990	-1.1002e-007	3.25	0.	129.86
2991	-2.75	-7.5	0.	125.21
2992	-2.25	-7.5	0.	125.49
2993	-2.5	-7.75	0.	125.48
2994	-3.25	-7.5	0.	125.07
2995	-3.	-7.75	0.	125.27
2996	-3.	-7.25	0.	124.94
2997	-3.75	-7.5	0.	125.03
2998	-3.5	-7.75	0.	125.18
2999	-4.25	-7.5	0.	125.08
3000	-4.	-7.75	0.	125.17
3001	-4.75	-7.5	0.	125.22
3002	-4.5	-7.75	0.	125.24
3003	-5.25	-7.5	0.	125.46
3004	-5.	-7.25	0.	125.2
3005	-5.	-7.75	0.	125.39
3006	-5.75	-7.5	0.	125.74
3007	-5.5	-7.75	0.	125.59
3008	-6.25	-7.5	0.	125.99
3009	-6.	-7.75	0.	125.78
3010	-6.75	-7.5	0.	125.93
3011	-6.5	-7.25	0.	126.36
3012	-6.5	-7.75	0.	125.83
3013	-7.25	-7.5	0.	125.03
3014	-7.	-7.25	0.	126.44
3015	-7.	-7.75	0.	125.42
3016	-6.5	0.25	0.	125.28
3017	-6.25	0.5	0.	125.5
3018	-6.5	0.75	0.	122.99
3019	-6.75	0.5	0.	124.71
3020	-1.	-0.75	0.	129.68
3021	-1.25	-1.	0.	128.03
3022	-1.25	-0.5	0.	130.26
3023	-1.	-0.25	0.	131.9
3024	-2.25	-3.5	0.	126.63
3025	-2.	-3.25	0.	127.7
3026	-3.75	-3.5	0.	120.82
3027	-4.	-3.25	0.	119.3
3028	-4.25	-3.5	0.	121.68
3029	-4.	-3.75	0.	121.44
3030	-3.25	-3.5	0.	122.34
3031	-3.5	-3.25	0.	120.19
3032	-1.5	-1.25	0.	126.84
3033	-1.75	-1.5	0.	125.55
3034	-1.5	-1.75	0.	126.21
3035	-5.25	-4.5	0.	125.07
3036	-5.	-4.25	0.	125.67
3037	-5.	-4.75	0.	124.67
3038	-6.25	-4.5	0.	124.33
3039	-6.75	-4.5	0.	125.76
3040	-6.5	-4.25	0.	123.53
3041	-6.5	-5.75	0.	126.04
3042	-6.75	-5.5	0.	126.69
3043	-6.75	-7.	0.	126.87
3044	-6.5	-6.75	0.	126.73
3045	-6.25	4.5	0.	124.39
3046	-6.75	4.5	0.	123.74
3047	-6.5	4.25	0.	122.22
3048	-2.	-7.25	0.	125.42
3049	-1.75	-7.	0.	125.37
3050	-1.75	-7.5	0.	126.01
3051	-2.	-7.75	0.	125.83
3052	7.5	-5.25	0.	122.43
3053	7.5	-4.75	0.	121.18
3054	7.75	-5.	0.	122.28
3055	7.5	-5.75	0.	123.21
3056	7.75	-5.5	0.	123.08
3057	7.5	-6.25	0.	123.73
3058	7.75	-6.	0.	123.63
3059	7.5	-6.75	0.	124.11
3060	7.75	-6.5	0.	124.03
3061	7.5	-7.25	0.	124.38
3062	7.75	-7.	0.	124.32
3063	7.25	-7.5	0.	124.53
3064	7.75	-7.5	0.	124.53
3065	7.5	-7.75	0.	124.59
3066	6.75	-7.5	0.	124.63
3067	7.	-7.75	0.	124.64
3068	6.25	-7.5	0.	124.8
3069	6.5	-7.75	0.	124.78
3070	5.75	-7.5	0.	125.02
3071	6.	-7.75	0.	124.97
3072	5.25	-7.5	0.	125.24
3073	5.5	-7.75	0.	125.18
3074	4.75	-7.5	0.	125.44
3075	5.	-7.75	0.	125.39
3076	4.25	-7.5	0.	125.62
3077	4.5	-7.75	0.	125.59
3078	4.5	-7.25	0.	125.51
3079	3.75	-7.5	0.	125.8
3080	4.	-7.75	0.	125.78
3081	3.25	-7.5	0.	126.03
3082	3.5	-7.75	0.	125.99
3083	3.	-7.75	0.	126.29
3084	2.75	-7.5	0.	126.46
3085	2.25	-5.	0.	127.16
3086	2.5	-5.25	0.	126.91
3087	2.5	-6.25	0.	125.88
3088	2.5	-6.75	0.	125.84
3089	2.25	-6.5	0.	125.63
3090	1.75	-4.5	0.	125.51
3091	2.	-4.75	0.	126.76
3092	-0.75	-4.5	0.	126.18
3093	-1.	-4.75	0.	127.24
3094	0.75	-4.5	0.	122.3
3095	0.5	-4.75	0.	120.43
3096	0.25	-4.5	0.	122.48
3097	-1.5	-6.25	0.	125.42
3098	-1.5	-6.75	0.	125.38
3099	-1.25	-6.5	0.	125.25
3100	-1.5	-5.25	0.	126.74
3101	-1.25	-5.	0.	127.28
3102	6.25	0.5	0.	126.18
3103	6.	0.25	0.	127.9
3104	3.2479	7.5	0.	124.
3105	2.7486	7.5	0.	124.47
3106	2.9983	7.75	0.	124.24
3107	3.7473	7.5	0.	123.94
3108	3.4976	7.7501	0.	123.98
3109	4.2468	7.5001	0.	124.14
3110	3.997	7.7501	0.	124.05
3111	3.9973	7.25	0.	124.02
3112	4.7465	7.5001	0.	124.47
3113	4.4966	7.7501	0.	124.31
3114	5.2464	7.5002	0.	124.8
3115	4.9964	7.7501	0.	124.63
3116	4.9967	7.2501	0.	124.77
3117	5.7465	7.5002	0.	125.06
3118	5.4963	7.7502	0.	124.9
3119	6.2469	7.5002	0.	125.2
3120	5.9967	7.7502	0.	125.09
3121	6.7474	7.5002	0.	125.24
3122	6.4971	7.7502	0.	125.18
3123	7.248	7.5002	0.	125.21
3124	6.9977	7.7501	0.	125.2
3125	7.4983	7.2502	0.	125.22
3126	7.4983	7.7501	0.	125.15
3127	7.7485	7.5001	0.	125.13
3128	7.7486	7.0002	0.	125.18
3129	7.4986	6.7502	0.	125.3
3130	7.4992	5.7502	0.	125.39
3131	7.7492	6.0002	0.	125.26
3132	7.4989	6.2502	0.	125.37
3133	7.4995	5.2501	0.	125.35
3134	7.2493	5.5002	0.	125.58
3135	7.7494	5.5002	0.	125.24
3136	7.4998	4.7501	0.	125.21
3137	7.7497	5.0001	0.	125.14
3138	7.4999	4.2501	0.	125.
3139	7.7498	4.5001	0.	124.98
3140	7.4999	3.75	0.	124.75
3141	7.7499	4.0001	0.	124.76
3142	7.5	3.25	0.	124.49
3143	7.75	3.5	0.	124.53
3144	7.25	3.5	0.	124.78
3145	7.5	2.75	0.	124.2
3146	7.75	3.	0.	124.28
3147	7.5	2.25	0.	123.86
3148	7.75	2.5	0.	124.
3149	7.25	2.5	0.	124.26
3150	7.75	2.	0.	123.64
3151	7.5	1.75	0.	123.36
3152	7.5	0.75	0.	121.37
3153	7.75	1.	0.	122.35
3154	7.25	1.	0.	122.62
3155	7.5	1.25	0.	122.61
3156	7.5	0.25	0.	119.09
3157	7.75	0.5	0.	121.17
3158	7.25	0.5	0.	121.43
3159	5.75	1.4509e-007	0.	128.65
3160	5.5	-0.25	0.	128.82
3161	5.5	-3.75	0.	127.89
3162	5.75	-4.	0.	127.79
3163	5.5	-4.25	0.	127.32
3164	5.5	-2.75	0.	127.7
3165	5.75	-2.5	0.	128.16
3166	5.5	-2.25	0.	127.59
3167	7.5	-4.25	0.	118.9
3168	7.75	-4.5	0.	121.07
3169	7.25	-4.5	0.	121.15
3170	6.	-4.25	0.	127.13
3171	5.75	-4.5	0.	126.65
3172	6.25	-4.5	0.	125.49
3173	5.25	2.	0.	127.94
3174	5.5	2.25	0.	127.47
3175	5.4997	4.7501	0.	127.83
3176	5.2496	5.	0.	128.2
3177	5.25	3.5	0.	127.23
3178	5.5	3.75	0.	127.04
3179	5.5	3.25	0.	126.98
3180	4.9994	5.25	0.	127.87
3181	4.7493	5.5	0.	126.57
3182	2.7495	5.9999	0.	125.88
3183	2.9995	5.7499	0.	124.48
3184	3.2496	5.5	0.	123.43
3185	3.7495	5.5	0.	123.34
3186	3.4997	5.25	0.	121.45
3187	3.75	-0.5	0.	126.79
3188	4.	-0.25	0.	128.08
3189	2.75	-0.5	0.	122.31
3190	2.5	-0.25	0.	120.36
3191	1.25	-0.5	0.	123.69
3192	1.5	-0.25	0.	121.45
3193	0.25	-0.5	0.	129.34
3194	7.4035e-011	-0.25	0.	131.22
3195	-2.5	6.25	0.	125.98
3196	-2.25	6.	0.	127.03
3197	-2.75	6.	0.	125.28
3198	-7.	4.75	0.	124.29
3199	-7.25	5.	0.	124.93
3200	-7.5	5.75	0.	125.12
3201	-7.75	5.5	0.	125.35
3202	-7.5	5.25	0.	125.23
3203	-7.5	6.25	0.	125.04
3204	-7.75	6.	0.	125.21
3205	-7.25	6.	0.	124.97
3206	-7.5	6.75	0.	124.97
3207	-7.75	6.5	0.	125.1
3208	-7.5	7.25	0.	124.91
3209	-7.75	7.	0.	125.02
3210	-7.25	7.5	0.	124.82
3211	-7.75	7.5	0.	124.96
3212	-7.5	7.75	0.	124.87
3213	-6.75	7.5	0.	124.68
3214	-7.	7.75	0.	124.74
3215	-6.25	7.5	0.	124.53
3216	-6.5	7.75	0.	124.6
3217	-5.75	7.5	0.	124.37
3218	-6.	7.75	0.	124.46
3219	-5.25	7.5	0.	124.17
3220	-5.5	7.75	0.	124.28
3221	-5.5	7.25	0.	124.34
3222	-4.75	7.5	0.	123.95
3223	-5.	7.75	0.	124.08
3224	-4.25	7.5	0.	123.75
3225	-4.5	7.75	0.	123.87
3226	-4.5	7.25	0.	123.9
3227	-3.75	7.5	0.	123.64
3228	-4.	7.75	0.	123.71
3229	-3.25	7.5	0.	123.72
3230	-3.5	7.75	0.	123.7
3231	-2.75	7.5	0.	124.16
3232	-3.	7.75	0.	123.96
3233	-2.25	7.5	0.	124.89
3234	-2.5	7.75	0.	124.7
3235	-2.5	7.25	0.	124.77
3236	-0.5	5.75	0.	123.17
3237	-0.75	5.5	0.	125.2
3238	1.7499	5.5	0.	128.16
3239	2.2498	5.5	0.	127.5
3240	1.9998	5.75	0.	128.71
3241	1.9999	5.25	0.	128.18
3242	0.74997	5.5	0.	124.97
3243	0.49997	5.75	0.	123.
3244	2.4989	7.25	0.	125.16
3245	2.4989	7.75	0.	124.99
3246	2.2491	7.5	0.	125.23
3247	2.4994	6.2499	0.	126.74
3248	2.4997	5.7499	0.	126.79
3249	2.2497	5.9999	0.	128.01
3250	-0.5	3.75	0.	130.01
3251	-0.75	4.	0.	130.08
3252	-2.5	4.25	0.	120.32
3253	-2.25	4.5	0.	123.28
3254	-1.	4.25	0.	129.65
3255	-1.25	4.5	0.	128.24
3256	-4.75	4.5	0.	128.32
3257	-5.	4.25	0.	130.4
3258	-5.25	4.5	0.	128.44
3259	-3.5	4.25	0.	119.88
3260	-3.75	4.5	0.	122.73
3261	-4.25	4.5	0.	126.05
3262	-4.5	4.25	0.	128.91
3263	-0.5	3.25	0.	130.5
3264	-0.25	3.	0.	130.45
3265	-0.75	3.	0.	131.06
3266	-0.5	2.75	0.	130.2
3267	-0.75	3.5	0.	131.24
3268	2.4991	6.75	0.	126.04
3269	2.2494	6.4999	0.	127.93
3270	2.2492	7.	0.	126.57
3271	1.2499	5.5	0.	127.04
3272	0.99994	5.75	0.	126.16
3273	1.4999	5.75	0.	128.78
3274	-2.25	6.5	0.	127.27
3275	-2.5	6.75	0.	125.52
3276	0.75	-0.5	0.	126.88
3277	0.5	-0.25	0.	129.58
3278	1.	-0.25	0.	125.67
3279	-0.25	0.5	0.	132.56
3280	-0.75	0.5	0.	133.05
3281	-0.5	0.25	0.	132.47
3282	-0.5	0.75	0.	131.55
3283	-0.25	2.	0.	129.29
3284	-0.5	1.75	0.	129.13
3285	-0.5	2.25	0.	129.49
3286	3.25	-0.5	0.	124.8
3287	3.	-0.25	0.	123.63
3288	3.5	-0.25	0.	126.87
3289	2.7497	5.5	0.	125.4
3290	2.9998	5.25	0.	123.47
3291	2.4998	5.25	0.	126.91
3292	3.9996	5.25	0.	123.7
3293	4.2494	5.5	0.	124.98
3294	5.2498	4.5	0.	128.71
3295	5.4999	4.25	0.	127.56
3296	5.5	-3.25	0.	127.95
3297	5.75	-3.	0.	128.45
3298	5.75	-3.5	0.	128.58
3299	5.75	-1.	0.	129.05
3300	5.5	-0.75	0.	128.74
3301	5.5	-1.25	0.	128.22
3302	6.5	0.25	0.	125.97
3303	6.75	0.5	0.	123.74
3304	-1.25	-6.	0.	126.24
3305	-1.5	-5.75	0.	126.1
3306	-0.5	-4.75	0.	126.1
3307	-0.25	-4.5	0.	124.35
3308	1.25	-4.5	0.	123.85
3309	1.5	-4.75	0.	125.61
3310	1.5	-4.25	0.	124.66
3311	1.	-4.75	0.	122.39
3312	2.25	-6.	0.	126.59
3313	2.5	-5.75	0.	126.49
3314	2.25	-7.	0.	126.49
3315	2.5	-7.25	0.	126.38
3316	-1.5	-7.25	0.	125.96
3317	-1.25	-7.	0.	126.13
3318	-1.5	-7.75	0.	126.4
3319	-1.25	-7.5	0.	126.97
3320	-6.	4.25	0.	125.09
3321	-5.75	4.5	0.	126.6
3322	-7.25	4.5	0.	124.82
3323	-7.	4.25	0.	123.58
3324	-7.75	4.5	0.	126.05
3325	-7.5	4.25	0.	126.26
3326	-7.5	4.75	0.	125.46
3327	-6.75	-6.	0.	127.23
3328	-6.5	-6.25	0.	126.57
3329	-5.75	-4.5	0.	124.71
3330	-6.	-4.25	0.	124.4
3331	-6.	-4.75	0.	124.31
3332	-5.5	-4.25	0.	126.28
3333	-2.75	-3.5	0.	124.81
3334	-3.	-3.25	0.	123.57
3335	-2.5	-3.25	0.	126.79
3336	-7.	-4.25	0.	127.15
3337	-7.25	-4.5	0.	130.36
3338	-3.75	4.	0.	121.67
3339	-3.5	3.75	0.	116.64
3340	-1.	2.75	0.	131.12
3341	-1.25	2.5	0.	132.86
3342	-0.75	2.5	0.	130.27
3343	0.49996	6.25	0.	120.61
3344	0.74994	6.	0.	124.18
3345	2.75	8.5928e-010	0.	121.67
3346	2.5	0.25	0.	118.28
3347	6.25	-2.5	0.	130.59
3348	6.	-2.75	0.	128.91
3349	-1.5	-0.75	0.	128.61
3350	-1.75	-1.	0.	127.04
3351	-1.75	-0.5	0.	128.83
3352	-1.5	-0.25	0.	130.92
3353	-6.25	-4.8422e-012	0.	127.35
3354	-6.5	-0.25	0.	126.11
3355	-6.75	-2.3476e-012	0.	126.51
3356	-7.5	-7.75	0.	124.17
3357	-7.75	-7.5	0.	123.13
3358	-7.5	-7.25	0.	125.04
3359	-5.75	0.5	0.	127.96
3360	-6.	0.25	0.	127.57
3361	-6.	0.75	0.	125.68
3362	-5.5	0.75	0.	129.38
3363	-5.25	0.5	0.	129.78
3364	-5.5	0.25	0.	130.16
3365	0.75	3.5	0.	126.22
3366	0.5	3.25	0.	128.49
3367	1.25	3.5	0.	123.59
3368	1.	3.25	0.	125.11
3369	-4.25	-3.	0.	119.37
3370	-4.	-2.75	0.	117.65
3371	-3.75	-3.	0.	118.63
3372	-4.5	-3.25	0.	121.79
3373	-4.75	-3.5	0.	125.13
3374	-6.25	1.	0.	123.15
3375	-6.75	1.	0.	123.37
3376	-6.5	1.25	0.	118.15
3377	-6.25	-4.	0.	123.59
3378	-6.75	-4.	0.	124.9
3379	-6.5	-3.75	0.	119.81
3380	-2.	7.75	0.	126.07
3381	-1.75	7.5	0.	127.66
3382	-2.	7.25	0.	126.2
3383	-8.	4.75	0.	126.18
3384	-8.	4.25	0.	126.95
3385	-8.25	4.5	0.	126.47
3386	-8.	5.25	0.	125.71
3387	-8.25	5.	0.	125.98
3388	-7.75	5.	0.	125.59
3389	-8.	5.75	0.	125.44
3390	-8.25	5.5	0.	125.66
3391	-8.	6.25	0.	125.27
3392	-8.25	6.	0.	125.44
3393	-8.	6.75	0.	125.15
3394	-8.25	6.5	0.	125.29
3395	-8.	7.25	0.	125.06
3396	-8.25	7.	0.	125.18
3397	-8.25	7.5	0.	125.09
3398	-8.	7.75	0.	125.
3399	-7.25	8.	0.	124.8
3400	-7.5	8.25	0.	124.85
3401	-7.75	8.	0.	124.92
3402	-6.75	8.	0.	124.67
3403	-7.	8.25	0.	124.74
3404	-6.5	8.25	0.	124.62
3405	-6.25	8.	0.	124.53
3406	-5.25	8.	0.	124.19
3407	-5.5	8.25	0.	124.35
3408	-5.75	8.	0.	124.37
3409	-4.75	8.	0.	124.
3410	-5.	8.25	0.	124.18
3411	-4.25	8.	0.	123.84
3412	-4.5	8.25	0.	124.02
3413	-3.75	8.	0.	123.78
3414	-4.	8.25	0.	123.92
3415	-3.25	8.	0.	123.94
3416	-3.5	8.25	0.	123.98
3417	-2.75	8.	0.	124.5
3418	-3.	8.25	0.	124.36
3419	-2.25	8.	0.	125.88
3420	-2.5	8.25	0.	125.32
3421	7.25	1.9405e-007	0.	119.38
3422	7.75	2.157e-007	0.	119.14
3423	7.5	-0.25	0.	113.82
3424	2.7486	8.0001	0.	124.76
3425	2.2491	8.	0.	126.13
3426	2.4989	8.2501	0.	125.57
3427	3.248	8.0001	0.	124.22
3428	2.9984	8.2501	0.	124.63
3429	3.7474	8.0001	0.	124.09
3430	3.4978	8.2501	0.	124.27
3431	4.2468	8.0001	0.	124.22
3432	3.9973	8.2501	0.	124.27
3433	4.4968	8.2501	0.	124.43
3434	4.7465	8.0001	0.	124.47
3435	5.7465	8.0001	0.	124.94
3436	5.4964	8.2501	0.	124.87
3437	5.2463	8.0001	0.	124.73
3438	6.247	8.0001	0.	125.08
3439	5.9969	8.2501	0.	125.02
3440	6.7475	8.0001	0.	125.14
3441	6.4974	8.2501	0.	125.11
3442	7.248	8.0001	0.	125.13
3443	6.9979	8.2501	0.	125.13
3444	7.7485	8.0001	0.	125.09
3445	7.4984	8.25	0.	125.11
3446	7.9987	7.7501	0.	125.07
3447	7.9988	8.25	0.	125.05
3448	8.2489	8.	0.	125.02
3449	7.9988	7.2501	0.	125.09
3450	8.2489	7.5001	0.	125.02
3451	7.9989	6.7502	0.	125.12
3452	8.249	7.0001	0.	125.03
3453	7.9991	6.2502	0.	125.13
3454	8.2491	6.5001	0.	125.03
3455	7.7489	6.5002	0.	125.23
3456	8.2493	6.0001	0.	125.01
3457	7.9994	5.7502	0.	125.11
3458	7.9998	4.7501	0.	124.91
3459	8.2497	5.0001	0.	124.85
3460	7.9996	5.2501	0.	125.04
3461	7.9999	4.2501	0.	124.74
3462	8.2498	4.5001	0.	124.72
3463	7.9999	3.7501	0.	124.54
3464	8.2499	4.0001	0.	124.55
3465	8.	3.25	0.	124.32
3466	8.25	3.5	0.	124.38
3467	8.25	3.	0.	124.2
3468	8.	2.75	0.	124.08
3469	8.	1.75	0.	123.4
3470	8.25	2.	0.	123.78
3471	8.	2.25	0.	123.79
3472	8.	1.25	0.	122.87
3473	8.25	1.5	0.	123.49
3474	7.75	1.5	0.	123.12
3475	8.	0.75	0.	122.16
3476	8.25	1.	0.	123.18
3477	8.	0.25	0.	121.26
3478	8.25	0.5	0.	122.97
3479	1.5	4.25	0.	125.06
3480	1.75	4.5	0.	126.64
3481	1.5	3.75	0.	123.21
3482	1.75	4.	0.	124.42
3483	1.75	3.5	0.	121.77
3484	1.5	3.25	0.	121.66
3485	4.5	0.75	0.	127.33
3486	4.25	0.5	0.	128.36
3487	4.5	1.25	0.	126.48
3488	4.25	1.	0.	126.72
3489	4.25	1.5	0.	125.19
3490	4.5	1.75	0.	127.17
3491	-5.75	-8.1881e-012	0.	129.77
3492	-6.	-0.25	0.	128.92
3493	-2.25	4.	0.	122.09
3494	-2.5	3.75	0.	117.03
3495	-1.	3.75	0.	131.32
3496	-1.25	4.	0.	130.31
3497	-1.	1.25	0.	131.37
3498	-1.25	1.5	0.	132.74
3499	-0.75	1.5	0.	129.88
3500	1.9993	7.25	0.	126.63
3501	1.9993	7.75	0.	126.36
3502	1.7495	7.5	0.	127.98
3503	1.9996	6.25	0.	129.19
3504	1.7498	6.	0.	129.33
3505	-0.75	6.	0.	124.14
3506	-0.50001	6.25	0.	120.59
3507	-2.	6.25	0.	128.31
3508	-2.	5.75	0.	127.39
3509	-1.75	6.	0.	128.5
3510	-3.4009e-011	0.25	0.	132.42
3511	0.25	-1.3682e-010	0.	131.44
3512	-0.25	-8.7731e-011	0.	132.33
3513	-7.7881e-009	1.75	0.	128.9
3514	0.25	1.5	0.	130.08
3515	-2.3331e-009	1.25	0.	129.51
3516	-0.25	1.5	0.	128.75
3517	0.25	3.	0.	129.89
3518	-7.3472e-008	2.75	0.	130.53
3519	4.	0.25	0.	128.7
3520	3.75	8.9226e-009	0.	128.16
3521	2.2499	5.	0.	127.59
3522	2.	4.75	0.	127.66
3523	3.7498	5.	0.	121.79
3524	3.2498	5.	0.	121.46
3525	3.4998	4.75	0.	116.85
3526	4.9997	4.75	0.	129.08
3527	4.7497	5.	0.	128.24
3528	5.	3.25	0.	128.33
3529	5.	3.75	0.	128.22
3530	4.75	3.5	0.	129.68
3531	4.75	2.	0.	128.29
3532	5.	2.25	0.	129.09
3533	7.25	-4.	0.	119.13
3534	7.75	-4.	0.	119.02
3535	7.5	-3.75	0.	113.65
3536	6.	-3.75	0.	128.48
3537	6.25	-4.	0.	127.05
3538	6.	-1.25	0.	129.31
3539	6.25	-1.5	0.	130.82
3540	5.75	-1.5	0.	128.48
3541	6.25	1.7533e-007	0.	127.69
3542	6.	-0.25	0.	129.2
3543	-7.	0.25	0.	125.95
3544	-7.	0.75	0.	125.13
3545	-7.25	0.5	0.	127.8
3546	-1.	-6.75	0.	126.
3547	-1.	-6.25	0.	126.07
3548	-0.75	-6.5	0.	127.05
3549	0.75	-5.	0.	120.49
3550	0.5	-5.25	0.	115.71
3551	0.25	-5.	0.	120.62
3552	2.	-5.25	0.	127.7
3553	1.75	-5.	0.	126.85
3554	2.	-6.75	0.	126.28
3555	2.	-6.25	0.	126.33
3556	1.75	-6.5	0.	127.27
3557	-6.75	4.	0.	122.04
3558	-6.25	4.	0.	122.91
3559	-6.5	3.75	0.	117.62
3560	-5.25	4.	0.	130.96
3561	-5.	3.75	0.	132.58
3562	-4.75	4.	0.	130.96
3563	-5.	2.25	0.	129.9
3564	-5.	2.75	0.	130.45
3565	-4.75	2.5	0.	131.29
3566	-5.25	2.5	0.	130.54
3567	-8.	2.75	0.	125.02
3568	-8.25	2.5	0.	123.24
3569	-8.	2.25	0.	124.2
3570	-7.75	2.5	0.	126.73
3571	-7.75	4.	0.	127.15
3572	-8.25	4.	0.	127.01
3573	-8.	3.75	0.	127.54
3574	-7.	-5.75	0.	127.89
3575	-7.25	-5.5	0.	130.01
3576	-7.25	-7.	0.	126.44
3577	-7.	-6.75	0.	127.66
3578	8.	-4.75	0.	122.17
3579	8.	-4.25	0.	121.22
3580	8.25	-4.5	0.	123.06
3581	8.	-5.25	0.	122.92
3582	8.25	-5.	0.	123.33
3583	8.	-5.75	0.	123.5
3584	8.25	-5.5	0.	123.69
3585	8.	-6.25	0.	123.92
3586	8.25	-6.	0.	124.02
3587	8.	-6.75	0.	124.23
3588	8.25	-6.5	0.	124.29
3589	8.	-7.25	0.	124.46
3590	8.25	-7.	0.	124.48
3591	8.	-7.75	0.	124.63
3592	8.25	-7.5	0.	124.63
3593	7.75	-8.	0.	124.69
3594	8.25	-8.	0.	124.73
3595	8.	-8.25	0.	124.75
3596	7.25	-8.	0.	124.7
3597	7.5	-8.25	0.	124.74
3598	6.75	-8.	0.	124.79
3599	7.	-8.25	0.	124.8
3600	6.25	-8.	0.	124.94
3601	6.5	-8.25	0.	124.92
3602	5.75	-8.	0.	125.13
3603	6.	-8.25	0.	125.09
3604	5.25	-8.	0.	125.33
3605	5.5	-8.25	0.	125.28
3606	4.75	-8.	0.	125.54
3607	5.	-8.25	0.	125.49
3608	4.25	-8.	0.	125.75
3609	4.5	-8.25	0.	125.7
3610	3.75	-8.	0.	125.97
3611	4.	-8.25	0.	125.9
3612	3.25	-8.	0.	126.25
3613	3.5	-8.25	0.	126.13
3614	2.75	-8.	0.	126.61
3615	3.	-8.25	0.	126.38
3616	2.25	-8.	0.	127.01
3617	2.5	-8.25	0.	126.61
3618	2.5	-7.75	0.	126.78
3619	1.75	-8.	0.	126.64
3620	2.	-8.25	0.	126.63
3621	2.	-7.75	0.	127.54
3622	0.75	-8.	0.	120.02
3623	0.5	-8.25	0.	119.76
3624	0.5	-7.75	0.	115.25
3625	0.25	-8.	0.	119.95
3626	-1.25	-8.	0.	126.69
3627	-1.	-7.75	0.	127.26
3628	-1.	-8.25	0.	126.35
3629	-0.75	-8.	0.	126.39
3630	-1.75	-8.	0.	126.23
3631	-1.5	-8.25	0.	126.28
3632	-2.25	-8.	0.	125.82
3633	-2.	-8.25	0.	126.
3634	-2.75	-8.	0.	125.54
3635	-2.5	-8.25	0.	125.74
3636	-3.25	-8.	0.	125.38
3637	-3.	-8.25	0.	125.55
3638	-3.75	-8.	0.	125.31
3639	-3.5	-8.25	0.	125.45
3640	-4.25	-8.	0.	125.33
3641	-4.	-8.25	0.	125.41
3642	-4.5	-8.25	0.	125.43
3643	-4.75	-8.	0.	125.4
3644	-5.75	-8.	0.	125.63
3645	-5.5	-8.25	0.	125.56
3646	-5.25	-8.	0.	125.52
3647	-6.25	-8.	0.	125.62
3648	-6.	-8.25	0.	125.57
3649	-6.75	-8.	0.	125.31
3650	-6.5	-8.25	0.	125.41
3651	-7.25	-8.	0.	124.55
3652	-7.	-8.25	0.	124.92
3653	-7.75	-8.	0.	123.48
3654	-7.5	-8.25	0.	124.09
3655	-8.	-7.75	0.	122.44
3656	-8.25	-8.	0.	122.77
3657	-8.	-8.25	0.	123.26
3658	-8.25	-7.5	0.	121.46
3659	-8.	-7.25	0.	121.42
3660	-5.25	-4.	0.	126.87
3661	-5.	-3.75	0.	126.88
3662	-8.	-2.25	0.	123.59
3663	-8.	-2.75	0.	123.12
3664	-8.25	-2.5	0.	121.91
3665	-7.75	-2.5	0.	126.19
3666	-6.5	-0.75	0.	124.43
3667	-6.25	-0.5	0.	127.7
3668	-6.75	-0.5	0.	126.69
3669	-2.	-1.25	0.	125.74
3670	-2.	-1.75	0.	125.81
3671	-2.25	-1.5	0.	126.25
3672	-2.25	-3.	0.	127.84
3673	-2.	-2.75	0.	128.24
3674	-1.75	-3.	0.	127.77
3675	-3.25	1.0336e-011	0.	115.02
3676	-3.75	-2.0809e-012	0.	116.31
3677	-3.5	-0.25	0.	113.97
3678	-3.5	0.25	0.	113.13
3679	-2.	-0.75	0.	127.25
3680	-2.25	-1.	0.	126.95
3681	-2.25	-0.5	0.	127.4
3682	-2.	-0.25	0.	127.77
3683	-2.75	3.0459e-011	0.	118.44
3684	-2.5	-0.25	0.	124.11
3685	-2.5	0.25	0.	118.5
3686	-2.25	5.0213e-011	0.	124.42
3687	-3.	-0.25	0.	117.83
3688	-3.	0.25	0.	114.73
3689	-2.75	-3.	0.	125.55
3690	-3.	-2.75	0.	124.12
3691	-3.25	-3.	0.	121.42
3692	-2.5	-2.75	0.	129.09
3693	-2.25	-2.	0.	127.66
3694	-1.75	-2.	0.	126.48
3695	-2.	-2.25	0.	127.51
3696	-6.75	-1.	0.	124.03
3697	-7.	-1.25	0.	125.09
3698	-7.	-0.75	0.	126.33
3699	-7.25	-1.	0.	126.87
3700	-8.25	-2.	0.	123.39
3701	-7.75	-2.	0.	126.8
3702	-8.	-1.75	0.	124.87
3703	-5.75	-4.	0.	125.98
3704	-6.	-3.75	0.	125.63
3705	-5.5	-3.75	0.	130.
3706	-7.5	-6.75	0.	127.78
3707	-7.75	-7.	0.	123.33
3708	-7.	-6.25	0.	128.17
3709	-7.25	-6.5	0.	128.98
3710	-6.75	-6.5	0.	127.51
3711	-7.25	-6.	0.	128.95
3712	-7.25	4.	0.	125.02
3713	-7.	3.75	0.	123.39
3714	-7.5	3.75	0.	128.63
3715	-8.25	3.	0.	125.29
3716	-7.75	3.	0.	127.91
3717	-8.	3.25	0.	126.9
3718	-5.75	1.	0.	127.11
3719	-6.	1.25	0.	124.95
3720	-5.25	1.	0.	130.06
3721	-5.5	1.25	0.	130.79
3722	-5.	1.75	0.	130.65
3723	-5.	1.25	0.	130.7
3724	-5.25	1.5	0.	131.42
3725	-4.75	1.5	0.	132.02
3726	-4.75	2.	0.	132.7
3727	-5.25	2.	0.	130.92
3728	-5.75	4.	0.	127.52
3729	-5.5	3.75	0.	132.04
3730	-5.5	4.25	0.	129.02
3731	-6.	3.75	0.	125.29
3732	-1.	-7.25	0.	127.14
3733	-0.75	-7.	0.	127.77
3734	-0.75	-7.5	0.	128.54
3735	1.25	-8.	0.	123.84
3736	1.	-7.75	0.	121.99
3737	1.	-8.25	0.	121.94
3738	1.5	-8.25	0.	125.34
3739	1.5	-7.75	0.	127.91
3740	1.75	-7.	0.	127.97
3741	2.	-7.25	0.	127.42
3742	2.	-5.75	0.	127.55
3743	1.75	-6.	0.	128.1
3744	1.75	-5.5	0.	128.98
3745	2.25	-5.5	0.	127.46
3746	1.	-5.25	0.	122.28
3747	1.25	-5.	0.	124.15
3748	-0.5	-5.25	0.	128.36
3749	-0.25	-5.	0.	124.45
3750	-0.75	-5.	0.	127.16
3751	-1.	-5.75	0.	127.4
3752	-0.75	-5.5	0.	129.
3753	-1.25	-5.5	0.	127.27
3754	-1.	-5.25	0.	127.81
3755	-0.75	-6.	0.	127.9
3756	-8.	-0.75	0.	124.73
3757	-8.25	-1.	0.	122.61
3758	-8.	-1.25	0.	124.89
3759	-7.75	-1.	0.	126.43
3760	-7.25	-8.5284e-013	0.	128.64
3761	-7.	-0.25	0.	127.09
3762	6.75	1.9664e-007	0.	124.
3763	7.	-0.25	0.	121.53
3764	7.	0.25	0.	121.75
3765	6.5	-0.25	0.	128.71
3766	6.	-0.75	0.	129.68
3767	6.25	-0.5	0.	130.2
3768	5.75	-0.5	0.	129.37
3769	6.25	-1.	0.	129.96
3770	6.25	-3.5	0.	129.63
3771	6.	-3.25	0.	129.08
3772	7.	-3.75	0.	121.28
3773	6.75	-4.	0.	123.58
3774	7.	-4.25	0.	121.41
3775	4.75	3.	0.	130.67
3776	5.	2.75	0.	129.37
3777	5.25	3.	0.	128.09
3778	4.9999	4.25	0.	129.19
3779	4.75	4.	0.	130.09
3780	5.2499	4.	0.	128.04
3781	4.7498	4.5	0.	130.7
3782	4.2497	5.	0.	125.67
3783	4.4998	4.75	0.	129.86
3784	4.4995	5.25	0.	126.94
3785	3.9998	4.75	0.	124.06
3786	2.7499	5.	0.	124.98
3787	2.9999	4.75	0.	122.84
3788	2.4999	4.75	0.	128.39
3789	2.	4.25	0.	126.
3790	2.25	4.5	0.	128.46
3791	2.	3.75	0.	122.99
3792	2.25	4.	0.	126.21
3793	3.	0.25	0.	124.25
3794	3.25	3.5559e-009	0.	125.71
3795	4.	0.75	0.	127.74
3796	3.75	0.5	0.	129.79
3797	4.	1.25	0.	125.42
3798	3.75	1.	0.	127.77
3799	0.75	3.	0.	127.37
3800	1.25	3.	0.	123.18
3801	1.	2.75	0.	126.27
3802	0.5	2.75	0.	131.21
3803	0.25	2.	0.	130.69
3804	-3.6973e-008	2.25	0.	130.08
3805	0.25	0.5	0.	133.48
3806	-8.473e-010	0.75	0.	131.68
3807	0.75	-1.442e-010	0.	128.37
3808	0.5	0.25	0.	132.52
3809	1.	0.25	0.	126.84
3810	1.25	-8.2231e-011	0.	123.44
3811	-1.75	6.5	0.	130.42
3812	-2.	6.75	0.	127.82
3813	-1.	6.25	0.	126.69
3814	-1.	5.75	0.	126.18
3815	-1.25	6.	0.	127.52
3816	1.7495	7.	0.	129.42
3817	1.9995	6.75	0.	128.45
3818	-1.5	0.25	0.	133.81
3819	-1.75	6.1635e-011	0.	129.86
3820	-1.25	3.6462e-011	0.	132.54
3821	-1.	0.75	0.	132.91
3822	-1.25	0.5	0.	134.57
3823	-1.	0.25	0.	133.31
3824	-1.25	1.	0.	133.
3825	-0.75	1.	0.	131.42
3826	-1.	3.25	0.	131.79
3827	-1.25	3.	0.	132.18
3828	-1.25	3.5	0.	132.94
3829	-2.	3.75	0.	125.89
3830	-2.	4.25	0.	125.05
3831	-1.75	4.	0.	127.52
3832	-4.	3.75	0.	125.25
3833	-4.	4.25	0.	124.53
3834	-4.25	4.	0.	127.39
3835	-5.	3.25	0.	132.52
3836	-4.75	3.5	0.	133.61
3837	-5.25	3.5	0.	133.62
3838	-4.75	3.	0.	131.86
3839	-5.25	3.	0.	132.
3840	-5.	0.75	0.	130.47
3841	-4.75	1.	0.	130.57
3842	-5.	0.25	0.	129.78
3843	-4.75	0.5	0.	130.06
3844	-4.25	-1.0283e-011	0.	121.34
3845	-4.75	-1.3422e-011	0.	126.88
3846	-4.5	0.25	0.	127.23
3847	-4.5	-0.25	0.	122.23
3848	-4.	-0.25	0.	117.98
3849	-4.	0.25	0.	120.09
3850	-5.25	-1.159e-011	0.	130.16
3851	-5.	-0.25	0.	129.45
3852	-5.5	-0.25	0.	132.88
3853	4.	1.75	0.	124.49
3854	3.75	1.5	0.	125.46
3855	2.	3.25	0.	120.74
3856	2.25	3.5	0.	123.64
3857	8.25	2.9107e-007	0.	123.29
3858	8.	-0.25	0.	121.12
3859	-2.	8.25	0.	127.43
3860	-1.75	8.	0.	128.65
3861	-7.25	-4.	0.	129.83
3862	-7.	-3.75	0.	127.83
3863	-8.25	-3.	0.	121.15
3864	-8.	-3.25	0.	124.54
3865	-7.75	-3.	0.	127.47
3866	-8.5	-7.75	0.	121.8
3867	-8.5	-8.25	0.	123.12
3868	-8.75	-8.	0.	123.22
3869	-8.5	-7.25	0.	119.43
3870	-8.75	-7.5	0.	121.95
3871	-8.5	-6.75	0.	114.24
3872	-8.25	-7.	0.	119.36
3873	-8.75	-7.	0.	119.84
3874	8.25	-4.	0.	123.31
3875	8.	-3.75	0.	121.
3876	1.9994	8.25	0.	127.66
3877	1.7495	8.	0.	128.84
3878	-8.5	2.25	0.	121.47
3879	-8.25	2.	0.	122.41
3880	-8.75	2.	0.	121.65
3881	-8.5	1.75	0.	117.56
3882	-8.5	2.75	0.	123.51
3883	-8.75	2.5	0.	123.09
3884	-8.5	3.25	0.	125.25
3885	-8.75	3.	0.	124.54
3886	-8.5	3.75	0.	126.33
3887	-8.75	3.5	0.	125.82
3888	-8.25	3.5	0.	126.87
3889	-8.5	4.25	0.	126.53
3890	-8.75	4.	0.	126.37
3891	-8.5	4.75	0.	126.27
3892	-8.75	4.5	0.	126.32
3893	-8.5	5.25	0.	125.93
3894	-8.75	5.	0.	126.07
3895	-8.5	5.75	0.	125.66
3896	-8.75	5.5	0.	125.82
3897	-8.5	6.25	0.	125.46
3898	-8.75	6.	0.	125.61
3899	-8.5	6.75	0.	125.32
3900	-8.75	6.5	0.	125.45
3901	-8.5	7.25	0.	125.21
3902	-8.75	7.	0.	125.32
3903	-8.5	7.75	0.	125.12
3904	-8.75	7.5	0.	125.22
3905	-8.5	8.25	0.	125.05
3906	-8.75	8.	0.	125.13
3907	-8.25	8.	0.	125.03
3908	-8.25	8.5	0.	124.98
3909	-8.75	8.5	0.	125.06
3910	-8.5	8.75	0.	125.
3911	-7.75	8.5	0.	124.89
3912	-8.	8.75	0.	124.93
3913	-8.	8.25	0.	124.96
3914	-7.25	8.5	0.	124.8
3915	-7.5	8.75	0.	124.84
3916	-6.75	8.5	0.	124.7
3917	-7.	8.75	0.	124.76
3918	-6.25	8.5	0.	124.59
3919	-6.5	8.75	0.	124.67
3920	-5.75	8.5	0.	124.46
3921	-6.	8.75	0.	124.58
3922	-6.	8.25	0.	124.49
3923	-5.25	8.5	0.	124.33
3924	-5.5	8.75	0.	124.48
3925	-4.75	8.5	0.	124.2
3926	-5.	8.75	0.	124.38
3927	-4.25	8.5	0.	124.1
3928	-4.5	8.75	0.	124.29
3929	-3.75	8.5	0.	124.12
3930	-4.	8.75	0.	124.27
3931	-3.25	8.5	0.	124.39
3932	-3.5	8.75	0.	124.39
3933	-2.75	8.5	0.	125.17
3934	-3.	8.75	0.	124.81
3935	-2.25	8.5	0.	126.87
3936	-2.5	8.75	0.	125.78
3937	-1.75	8.5	0.	129.82
3938	-2.	8.75	0.	127.6
3939	2.2492	8.5001	0.	127.11
3940	1.7496	8.5001	0.	130.05
3941	1.9995	8.7501	0.	127.84
3942	2.7488	8.5001	0.	125.44
3943	2.4992	8.7501	0.	126.04
3944	3.2483	8.5001	0.	124.69
3945	2.9988	8.7501	0.	125.1
3946	3.7478	8.5001	0.	124.45
3947	3.4983	8.7501	0.	124.71
3948	4.2472	8.5001	0.	124.48
3949	3.9978	8.7501	0.	124.63
3950	4.7468	8.5001	0.	124.63
3951	4.4974	8.7501	0.	124.71
3952	5.2467	8.5001	0.	124.8
3953	4.9972	8.7501	0.	124.83
3954	4.9966	8.2501	0.	124.66
3955	5.7468	8.5001	0.	124.95
3956	5.4972	8.7501	0.	124.95
3957	6.2473	8.5001	0.	125.05
3958	5.9974	8.75	0.	125.04
3959	6.7478	8.5	0.	125.1
3960	6.4979	8.75	0.	125.09
3961	6.9982	8.75	0.	125.11
3962	7.2482	8.5	0.	125.1
3963	8.249	8.5	0.	125.02
3964	7.999	8.75	0.	125.06
3965	7.7487	8.5	0.	125.07
3966	8.4992	8.25	0.	124.99
3967	8.4993	8.75	0.	125.01
3968	8.7494	8.5	0.	124.97
3969	8.4991	7.75	0.	124.97
3970	8.7493	8.	0.	124.94
3971	8.4992	7.2501	0.	124.96
3972	8.7493	7.5	0.	124.91
3973	8.4992	6.7501	0.	124.94
3974	8.7493	7.0001	0.	124.87
3975	8.4994	6.2501	0.	124.91
3976	8.7494	6.5001	0.	124.83
3977	8.4995	5.7501	0.	124.85
3978	8.7495	6.0001	0.	124.77
3979	8.4997	5.2501	0.	124.77
3980	8.7497	5.5001	0.	124.69
3981	8.2495	5.5001	0.	124.95
3982	8.4998	4.7501	0.	124.66
3983	8.7498	5.0001	0.	124.59
3984	8.4999	4.2501	0.	124.53
3985	8.7499	4.5001	0.	124.49
3986	8.4999	3.75	0.	124.4
3987	8.7499	4.0001	0.	124.38
3988	8.5	3.25	0.	124.27
3989	8.75	3.5	0.	124.28
3990	8.5	2.75	0.	124.13
3991	8.75	3.	0.	124.21
3992	8.5	2.25	0.	124.
3993	8.75	2.5	0.	124.16
3994	8.25	2.5	0.	124.01
3995	8.5	1.75	0.	123.87
3996	8.75	2.	0.	124.15
3997	8.5	1.25	0.	123.81
3998	8.75	1.5	0.	124.18
3999	8.5	0.75	0.	123.99
4000	8.75	1.	0.	124.39
4001	8.5	0.25	0.	124.99
4002	8.75	0.5	0.	124.99
4003	8.5	-0.25	0.	127.85
4004	8.75	3.656e-007	0.	126.54
4005	8.5	-4.25	0.	125.15
4006	8.5	-3.75	0.	127.94
4007	8.75	-4.	0.	126.77
4008	8.5	-4.75	0.	124.22
4009	8.75	-4.5	0.	125.31
4010	8.5	-5.25	0.	124.1
4011	8.75	-5.	0.	124.78
4012	8.5	-5.75	0.	124.22
4013	8.75	-5.5	0.	124.65
4014	8.75	-6.	0.	124.66
4015	8.5	-6.25	0.	124.39
4016	8.5	-7.25	0.	124.65
4017	8.75	-7.	0.	124.75
4018	8.5	-6.75	0.	124.54
4019	8.5	-7.75	0.	124.74
4020	8.75	-7.5	0.	124.79
4021	8.5	-8.25	0.	124.8
4022	8.75	-8.	0.	124.82
4023	8.25	-8.5	0.	124.81
4024	8.75	-8.5	0.	124.83
4025	8.5	-8.75	0.	124.84
4026	7.75	-8.5	0.	124.8
4027	8.	-8.75	0.	124.83
4028	7.25	-8.5	0.	124.84
4029	7.5	-8.75	0.	124.85
4030	6.75	-8.5	0.	124.92
4031	7.	-8.75	0.	124.92
4032	6.25	-8.5	0.	125.06
4033	6.5	-8.75	0.	125.03
4034	5.75	-8.5	0.	125.24
4035	6.	-8.75	0.	125.19
4036	5.25	-8.5	0.	125.44
4037	5.5	-8.75	0.	125.38
4038	4.75	-8.5	0.	125.64
4039	5.	-8.75	0.	125.58
4040	4.25	-8.5	0.	125.85
4041	4.5	-8.75	0.	125.78
4042	3.75	-8.5	0.	126.06
4043	4.	-8.75	0.	125.98
4044	3.25	-8.5	0.	126.25
4045	3.5	-8.75	0.	126.15
4046	2.75	-8.5	0.	126.38
4047	3.	-8.75	0.	126.25
4048	2.25	-8.5	0.	126.22
4049	2.5	-8.75	0.	126.18
4050	1.75	-8.5	0.	125.32
4051	2.	-8.75	0.	125.68
4052	1.5	-8.75	0.	124.38
4053	1.25	-8.5	0.	123.46
4054	0.25	-8.5	0.	121.6
4055	0.5	-8.75	0.	121.6
4056	0.75	-8.5	0.	121.66
4057	-0.25	-8.5	0.	123.3
4058	1.2679e-011	-8.25	0.	121.81
4059	1.1845e-011	-8.75	0.	122.47
4060	-0.75	-8.5	0.	125.09
4061	-0.5	-8.25	0.	125.13
4062	-0.5	-8.75	0.	124.2
4063	-1.25	-8.5	0.	125.94
4064	-1.	-8.75	0.	125.43
4065	-1.75	-8.5	0.	126.05
4066	-1.5	-8.75	0.	125.89
4067	-2.25	-8.5	0.	125.92
4068	-2.	-8.75	0.	125.94
4069	-2.75	-8.5	0.	125.75
4070	-2.5	-8.75	0.	125.85
4071	-3.25	-8.5	0.	125.62
4072	-3.	-8.75	0.	125.74
4073	-3.75	-8.5	0.	125.54
4074	-3.5	-8.75	0.	125.64
4075	-4.25	-8.5	0.	125.51
4076	-4.	-8.75	0.	125.58
4077	-4.75	-8.5	0.	125.52
4078	-4.5	-8.75	0.	125.56
4079	-5.25	-8.5	0.	125.53
4080	-5.	-8.75	0.	125.55
4081	-5.	-8.25	0.	125.49
4082	-5.75	-8.5	0.	125.51
4083	-5.5	-8.75	0.	125.51
4084	-6.25	-8.5	0.	125.36
4085	-6.	-8.75	0.	125.41
4086	-6.75	-8.5	0.	125.02
4087	-6.5	-8.75	0.	125.17
4088	-7.25	-8.5	0.	124.47
4089	-7.	-8.75	0.	124.76
4090	-7.75	-8.5	0.	123.88
4091	-7.5	-8.75	0.	124.23
4092	-8.25	-8.5	0.	123.61
4093	-8.	-8.75	0.	123.84
4094	-8.75	-8.5	0.	123.96
4095	-8.5	-8.75	0.	123.87
4096	-7.	1.25	0.	125.85
4097	-7.25	1.	0.	128.55
4098	-8.	1.75	0.	125.51
4099	-7.75	2.	0.	127.8
4100	-8.5	-2.75	0.	119.96
4101	-8.75	-3.	0.	120.49
4102	-8.5	-3.25	0.	115.52
4103	-8.5	-2.25	0.	121.71
4104	-8.75	-2.5	0.	121.99
4105	-8.5	-1.75	0.	122.49
4106	-8.75	-2.	0.	122.95
4107	-8.75	-1.5	0.	123.22
4108	-8.5	-1.25	0.	121.71
4109	-8.25	-1.5	0.	123.98
4110	4.25	2.	0.	126.5
4111	4.5	2.25	0.	130.46
4112	1.75	3.	0.	120.61
4113	1.5	2.75	0.	119.9
4114	-4.75	-3.	0.	123.95
4115	-4.5	-2.75	0.	119.15
4116	-5.	-3.25	0.	127.28
4117	-5.25	-3.5	0.	130.
4118	-6.25	-1.	0.	125.
4119	-6.5	-1.25	0.	118.98
4120	-6.	-0.75	0.	128.28
4121	-5.75	-0.5	0.	132.05
4122	-5.75	-1.	0.	131.09
4123	-6.	-1.25	0.	126.63
4124	-5.	-2.75	0.	127.23
4125	-5.25	-3.	0.	130.67
4126	-5.5	-0.75	0.	134.77
4127	-5.25	-0.5	0.	132.15
4128	-4.5	0.75	0.	130.16
4129	-4.25	0.5	0.	125.82
4130	-4.5	3.25	0.	132.9
4131	-4.25	3.5	0.	129.84
4132	-4.5	3.75	0.	132.03
4133	-1.75	3.5	0.	130.27
4134	-1.5	3.25	0.	133.28
4135	-1.5	3.75	0.	131.97
4136	-1.5	0.75	0.	134.59
4137	-1.75	0.5	0.	131.56
4138	1.4997	8.75	0.	129.9
4139	1.4997	8.25	0.	131.18
4140	1.2498	8.5	0.	129.43
4141	1.4997	6.75	0.	131.97
4142	1.2498	6.5	0.	130.07
4143	1.7497	6.5	0.	131.06
4144	1.4998	6.25	0.	131.2
4145	-1.25	6.5	0.	129.74
4146	-1.5	6.75	0.	131.41
4147	-1.5	6.25	0.	130.62
4148	-1.5	8.75	0.	129.65
4149	-1.5	8.25	0.	130.99
4150	-1.25	8.5	0.	129.17
4151	0.5	0.75	0.	133.37
4152	0.75	0.5	0.	130.93
4153	0.5	2.25	0.	132.38
4154	0.75	2.5	0.	130.05
4155	0.25	2.5	0.	131.83
4156	2.	2.75	0.	120.38
4157	2.25	3.	0.	122.12
4158	3.75	2.	0.	124.62
4159	4.	2.25	0.	125.98
4160	3.5	0.75	0.	129.78
4161	3.25	0.5	0.	127.77
4162	3.5	0.25	0.	129.26
4163	2.7499	4.5	0.	126.23
4164	2.5	4.25	0.	128.63
4165	4.2499	4.5	0.	128.22
4166	4.4999	4.25	0.	131.55
4167	8.75	-3.5	0.	129.41
4168	8.25	-3.5	0.	125.61
4169	8.5	-3.25	0.	129.92
4170	6.75	-3.5	0.	125.89
4171	6.5	-3.25	0.	130.03
4172	6.5	-3.75	0.	128.22
4173	6.5	-0.75	0.	130.46
4174	6.75	-0.5	0.	126.23
4175	8.75	-0.5	0.	129.23
4176	8.25	-0.5	0.	125.66
4177	8.5	-0.75	0.	129.84
4178	-9.	-2.25	0.	123.23
4179	-9.	-2.75	0.	122.53
4180	-9.25	-2.5	0.	124.79
4181	-9.	-1.75	0.	123.68
4182	-9.25	-2.	0.	125.02
4183	-9.	-1.25	0.	123.62
4184	-9.25	-1.5	0.	125.34
4185	-9.	-0.75	0.	124.08
4186	-9.25	-1.	0.	125.84
4187	-8.75	-1.	0.	122.1
4188	-7.5	-0.25	0.	130.68
4189	-7.75	-0.5	0.	128.
4190	-7.25	-0.5	0.	129.18
4191	-7.5	-0.75	0.	129.72
4192	-0.25	-5.5	0.	126.4
4193	-0.5	-5.75	0.	129.46
4194	1.25	-5.5	0.	126.23
4195	1.5	-5.75	0.	129.49
4196	1.5	-5.25	0.	128.13
4197	1.5	-7.25	0.	129.31
4198	1.25	-7.5	0.	126.03
4199	1.75	-7.5	0.	128.79
4200	-0.25	-7.5	0.	125.81
4201	-0.5	-7.25	0.	129.14
4202	-0.5	-7.75	0.	127.68
4203	-5.5	3.25	0.	133.06
4204	-5.75	3.5	0.	129.77
4205	-5.5	1.75	0.	131.64
4206	-5.75	1.5	0.	128.61
4207	-7.75	1.5	0.	131.39
4208	-7.25	1.5	0.	131.36
4209	-7.5	1.75	0.	133.63
4210	-7.5	1.25	0.	134.
4211	-7.5	3.25	0.	129.97
4212	-7.25	3.5	0.	126.97
4213	-7.75	3.5	0.	129.02
4214	-7.75	-6.5	0.	125.66
4215	-7.5	-6.25	0.	129.72
4216	-9.	-8.25	0.	124.05
4217	-9.	-8.75	0.	124.43
4218	-9.25	-8.5	0.	124.81
4219	-9.	-7.75	0.	123.38
4220	-9.25	-8.	0.	124.79
4221	-9.25	-7.5	0.	124.72
4222	-9.	-7.25	0.	122.39
4223	-9.	-3.25	0.	122.83
4224	-9.25	-3.	0.	125.18
4225	-5.75	-3.5	0.	129.61
4226	-5.5	-3.25	0.	133.34
4227	-7.75	-3.5	0.	131.27
4228	-7.5	-3.75	0.	134.68
4229	-7.25	-3.5	0.	132.72
4230	-7.5	-3.25	0.	134.13
4231	-7.5	-1.75	0.	129.61
4232	-7.25	-1.5	0.	127.48
4233	-7.75	-1.5	0.	127.74
4234	-7.5	-1.25	0.	129.27
4235	-9.	2.25	0.	123.28
4236	-9.	1.75	0.	123.8
4237	-9.25	2.	0.	125.13
4238	-9.	2.75	0.	124.12
4239	-9.25	2.5	0.	124.76
4240	-9.	3.25	0.	125.12
4241	-9.25	3.	0.	125.14
4242	-9.	3.75	0.	125.86
4243	-9.25	3.5	0.	125.66
4244	-9.	4.25	0.	126.16
4245	-9.25	4.	0.	126.01
4246	-9.	4.75	0.	126.13
4247	-9.25	4.5	0.	126.1
4248	-9.	5.25	0.	125.96
4249	-9.25	5.	0.	126.03
4250	-9.	5.75	0.	125.77
4251	-9.25	5.5	0.	125.9
4252	-9.	6.25	0.	125.6
4253	-9.25	6.	0.	125.74
4254	-9.	6.75	0.	125.45
4255	-9.25	6.5	0.	125.59
4256	-9.	7.25	0.	125.33
4257	-9.25	7.	0.	125.44
4258	-9.	7.75	0.	125.22
4259	-9.25	7.5	0.	125.31
4260	-9.	8.25	0.	125.13
4261	-9.25	8.	0.	125.2
4262	-9.	8.75	0.	125.06
4263	-9.25	8.5	0.	125.11
4264	-8.75	9.	0.	125.
4265	-9.	9.25	0.	125.01
4266	-9.25	9.	0.	125.04
4267	-8.25	9.	0.	124.94
4268	-8.5	9.25	0.	124.96
4269	-7.75	9.	0.	124.88
4270	-8.	9.25	0.	124.9
4271	-7.25	9.	0.	124.81
4272	-7.5	9.25	0.	124.84
4273	-6.75	9.	0.	124.74
4274	-7.	9.25	0.	124.78
4275	-6.25	9.	0.	124.67
4276	-6.5	9.25	0.	124.73
4277	-5.75	9.	0.	124.6
4278	-6.	9.25	0.	124.67
4279	-5.25	9.	0.	124.53
4280	-5.5	9.25	0.	124.63
4281	-4.75	9.	0.	124.48
4282	-5.	9.25	0.	124.61
4283	-4.25	9.	0.	124.46
4284	-4.5	9.25	0.	124.61
4285	-3.75	9.	0.	124.53
4286	-4.	9.25	0.	124.67
4287	-3.25	9.	0.	124.8
4288	-3.5	9.25	0.	124.81
4289	-2.75	9.	0.	125.41
4290	-3.	9.25	0.	125.12
4291	-2.25	9.	0.	126.51
4292	-2.5	9.25	0.	125.68
4293	-1.75	9.	0.	127.42
4294	-2.	9.25	0.	126.45
4295	-1.25	9.	0.	126.31
4296	-1.5	9.25	0.	126.44
4297	-0.75001	9.	0.	123.22
4298	-1.	8.75	0.	125.87
4299	-1.	9.25	0.	124.44
4300	-0.25001	9.	0.	120.78
4301	-0.50001	8.75	0.	120.1
4302	-0.50001	9.25	0.	121.92
4303	0.24996	9.	0.	120.84
4304	-2.5326e-005	8.75	0.	119.9
4305	-1.6864e-005	9.25	0.	120.93
4306	0.74992	9.	0.	123.38
4307	0.49994	8.75	0.	120.21
4308	0.49996	9.25	0.	122.03
4309	1.2498	9.	0.	126.53
4310	0.99987	8.75	0.	126.12
4311	0.99992	9.25	0.	124.63
4312	1.7497	9.0001	0.	127.67
4313	1.4998	9.25	0.	126.69
4314	2.2495	9.0001	0.	126.78
4315	1.9997	9.2501	0.	126.72
4316	2.7492	9.0001	0.	125.71
4317	2.4995	9.2501	0.	125.98
4318	3.2488	9.0001	0.	125.13
4319	2.9993	9.2501	0.	125.47
4320	3.7484	9.0001	0.	124.9
4321	3.499	9.2501	0.	125.19
4322	4.248	9.0001	0.	124.86
4323	3.9987	9.2501	0.	125.08
4324	4.7478	9.0001	0.	124.91
4325	4.4984	9.2501	0.	125.05
4326	5.2476	9.0001	0.	124.98
4327	4.9983	9.2501	0.	125.07
4328	5.7477	9.	0.	125.05
4329	5.4982	9.25	0.	125.1
4330	6.248	9.	0.	125.09
4331	5.9983	9.25	0.	125.12
4332	6.7483	9.	0.	125.11
4333	6.4986	9.25	0.	125.13
4334	7.2486	9.	0.	125.1
4335	6.9988	9.25	0.	125.12
4336	7.749	9.	0.	125.08
4337	7.4991	9.25	0.	125.1
4338	7.4986	8.75	0.	125.09
4339	8.2493	9.	0.	125.04
4340	7.9993	9.25	0.	125.07
4341	8.7495	9.	0.	125.
4342	8.4995	9.25	0.	125.03
4343	8.9996	8.75	0.	124.96
4344	8.9997	9.25	0.	125.
4345	9.2497	9.	0.	124.97
4346	8.9995	8.25	0.	124.92
4347	9.2496	8.5	0.	124.92
4348	8.9995	7.75	0.	124.87
4349	9.2496	8.	0.	124.87
4350	8.9995	7.25	0.	124.82
4351	9.2496	7.5	0.	124.8
4352	8.9995	6.7501	0.	124.76
4353	9.2496	7.	0.	124.73
4354	8.9996	6.2501	0.	124.69
4355	9.2497	6.5001	0.	124.64
4356	8.9997	5.7501	0.	124.61
4357	9.2497	6.0001	0.	124.54
4358	8.9998	5.2501	0.	124.52
4359	9.2498	5.5001	0.	124.44
4360	8.9999	4.7501	0.	124.42
4361	9.2499	5.0001	0.	124.33
4362	8.9999	4.2501	0.	124.33
4363	9.2499	4.5	0.	124.23
4364	8.9999	3.75	0.	124.26
4365	9.2499	4.	0.	124.16
4366	9.	3.25	0.	124.23
4367	9.25	3.5	0.	124.14
4368	9.25	3.	0.	124.18
4369	9.	2.75	0.	124.24
4370	9.	1.75	0.	124.46
4371	9.25	2.	0.	124.52
4372	9.	2.25	0.	124.31
4373	9.	1.25	0.	124.76
4374	9.25	1.5	0.	124.86
4375	9.	0.75	0.	125.39
4376	9.25	1.	0.	125.37
4377	9.	0.25	0.	126.54
4378	9.25	0.5	0.	126.16
4379	9.	-0.25	0.	127.94
4380	9.25	4.4122e-007	0.	127.24
4381	9.	-0.75	0.	128.7
4382	9.25	-0.5	0.	128.07
4383	9.	-1.25	0.	128.7
4384	8.75	-1.	0.	129.32
4385	9.25	-1.	0.	128.05
4386	9.	-1.75	0.	128.9
4387	8.75	-1.5	0.	130.51
4388	9.25	-1.5	0.	127.83
4389	9.	-2.25	0.	128.95
4390	8.75	-2.	0.	131.7
4391	9.25	-2.	0.	128.1
4392	9.	-2.75	0.	128.85
4393	8.75	-2.5	0.	130.55
4394	9.25	-2.5	0.	127.97
4395	9.	-3.25	0.	128.94
4396	8.75	-3.	0.	129.47
4397	9.25	-3.	0.	128.31
4398	9.	-3.75	0.	128.26
4399	9.25	-3.5	0.	128.44
4400	9.	-4.25	0.	126.94
4401	9.25	-4.	0.	127.71
4402	9.	-4.75	0.	125.87
4403	9.25	-4.5	0.	126.73
4404	9.	-5.25	0.	125.33
4405	9.25	-5.	0.	126.04
4406	9.	-5.75	0.	125.09
4407	9.25	-5.5	0.	125.62
4408	9.	-6.25	0.	124.98
4409	9.25	-6.	0.	125.34
4410	9.	-6.75	0.	124.92
4411	9.25	-6.5	0.	125.16
4412	8.75	-6.5	0.	124.71
4413	9.25	-7.	0.	125.03
4414	9.	-7.25	0.	124.89
4415	9.	-8.25	0.	124.86
4416	9.25	-8.	0.	124.89
4417	9.	-7.75	0.	124.87
4418	9.	-8.75	0.	124.85
4419	9.25	-8.5	0.	124.85
4420	8.75	-9.	0.	124.85
4421	9.25	-9.	0.	124.83
4422	9.	-9.25	0.	124.84
4423	8.25	-9.	0.	124.86
4424	8.5	-9.25	0.	124.86
4425	7.75	-9.	0.	124.88
4426	8.	-9.25	0.	124.88
4427	7.25	-9.	0.	124.93
4428	7.5	-9.25	0.	124.92
4429	6.75	-9.	0.	125.02
4430	7.	-9.25	0.	124.99
4431	6.25	-9.	0.	125.16
4432	6.5	-9.25	0.	125.11
4433	5.75	-9.	0.	125.33
4434	6.	-9.25	0.	125.26
4435	5.25	-9.	0.	125.52
4436	5.5	-9.25	0.	125.45
4437	4.75	-9.	0.	125.72
4438	5.	-9.25	0.	125.64
4439	4.25	-9.	0.	125.91
4440	4.5	-9.25	0.	125.84
4441	3.75	-9.	0.	126.07
4442	4.	-9.25	0.	126.
4443	3.25	-9.	0.	126.14
4444	3.5	-9.25	0.	126.1
4445	2.75	-9.	0.	126.05
4446	3.	-9.25	0.	126.07
4447	2.25	-9.	0.	125.63
4448	2.5	-9.25	0.	125.79
4449	1.75	-9.	0.	124.74
4450	2.	-9.25	0.	125.14
4451	1.25	-9.	0.	123.5
4452	1.5	-9.25	0.	124.1
4453	0.75	-9.	0.	122.51
4454	1.	-9.25	0.	122.98
4455	1.	-8.75	0.	122.57
4456	0.5	-9.25	0.	122.46
4457	0.25	-9.	0.	122.46
4458	-1.25	-9.	0.	125.38
4459	-1.	-9.25	0.	124.92
4460	-0.75	-9.	0.	124.54
4461	-1.75	-9.	0.	125.77
4462	-1.5	-9.25	0.	125.54
4463	-2.25	-9.	0.	125.87
4464	-2.	-9.25	0.	125.81
4465	-2.75	-9.	0.	125.84
4466	-2.5	-9.25	0.	125.87
4467	-3.25	-9.	0.	125.76
4468	-3.	-9.25	0.	125.83
4469	-3.75	-9.	0.	125.69
4470	-3.5	-9.25	0.	125.76
4471	-4.25	-9.	0.	125.63
4472	-4.	-9.25	0.	125.69
4473	-4.75	-9.	0.	125.59
4474	-4.5	-9.25	0.	125.64
4475	-5.25	-9.	0.	125.53
4476	-5.	-9.25	0.	125.57
4477	-5.75	-9.	0.	125.42
4478	-5.5	-9.25	0.	125.48
4479	-6.25	-9.	0.	125.22
4480	-6.	-9.25	0.	125.31
4481	-6.5	-9.25	0.	125.06
4482	-6.75	-9.	0.	124.91
4483	-7.75	-9.	0.	124.19
4484	-7.5	-9.25	0.	124.39
4485	-7.25	-9.	0.	124.52
4486	-8.25	-9.	0.	124.1
4487	-8.	-9.25	0.	124.19
4488	-8.75	-9.	0.	124.34
4489	-8.5	-9.25	0.	124.26
4490	-9.	-9.25	0.	124.6
4491	-9.25	-9.	0.	124.79
4492	-2.5	-2.25	0.	129.58
4493	-2.75	-2.5	0.	127.62
4494	-2.25	-2.5	0.	129.47
4495	-2.5	-0.75	0.	127.08
4496	-2.75	-0.5	0.	123.3
4497	-2.5	-1.25	0.	127.41
4498	-2.5	-1.75	0.	128.06
4499	-3.25	-2.5	0.	120.36
4500	-3.75	-2.5	0.	116.66
4501	-3.5	-2.75	0.	117.68
4502	-4.25	-2.5	0.	117.38
4503	-4.75	-2.5	0.	122.4
4504	-5.25	-2.5	0.	132.35
4505	-5.5	-1.25	0.	135.77
4506	-5.75	-1.5	0.	131.31
4507	-5.5	-1.75	0.	136.76
4508	-4.75	-0.5	0.	124.73
4509	-4.25	-0.5	0.	118.83
4510	-3.75	-0.5	0.	115.65
4511	-3.25	-0.5	0.	116.78
4512	-4.5	1.25	0.	131.85
4513	-4.5	1.75	0.	134.07
4514	-4.5	2.25	0.	134.07
4515	-4.5	2.75	0.	132.68
4516	-3.75	3.5	0.	120.18
4517	-3.25	3.5	0.	114.47
4518	-2.75	3.5	0.	114.65
4519	-2.25	3.5	0.	120.8
4520	-1.5	2.75	0.	133.89
4521	-1.5	2.25	0.	135.73
4522	-1.5	1.75	0.	135.64
4523	-1.5	1.25	0.	134.35
4524	-3.75	0.5	0.	116.91
4525	-3.25	0.5	0.	112.8
4526	-2.75	0.5	0.	114.68
4527	-2.25	0.5	0.	121.63
4528	1.4997	7.75	0.	130.43
4529	1.4997	7.25	0.	130.74
4530	0.74992	6.5	0.	123.22
4531	0.9999	6.25	0.	126.81
4532	0.24997	6.5	0.	119.48
4533	-0.25001	6.5	0.	119.43
4534	-0.75001	6.5	0.	123.12
4535	-1.5	7.25	0.	130.32
4536	-1.75	7.	0.	128.88
4537	-1.5	7.75	0.	130.21
4538	-0.75001	8.5	0.	122.73
4539	-0.25002	8.5	0.	119.18
4540	0.74989	8.5	0.	122.92
4541	0.24995	8.5	0.	119.23
4542	0.5	1.25	0.	132.16
4543	0.25	1.	0.	131.62
4544	0.5	1.75	0.	131.84
4545	1.25	2.5	0.	122.97
4546	1.75	2.5	0.	119.65
4547	2.25	2.5	0.	121.39
4548	2.75	2.5	0.	123.78
4549	2.5	2.75	0.	123.12
4550	3.5	1.75	0.	125.54
4551	3.5	2.25	0.	121.65
4552	3.5	1.25	0.	127.78
4553	1.25	0.5	0.	122.88
4554	1.75	0.5	0.	118.17
4555	1.5	0.25	0.	119.5
4556	2.25	0.5	0.	117.56
4557	2.75	0.5	0.	120.82
4558	3.2499	4.5	0.	118.11
4559	3.7499	4.5	0.	119.04
4560	4.5	3.75	0.	131.53
4561	4.5	3.25	0.	132.
4562	4.5	2.75	0.	132.49
4563	3.75	2.5	0.	122.92
4564	4.25	2.5	0.	129.93
4565	3.25	2.5	0.	122.
4566	2.5	3.75	0.	126.88
4567	2.5	3.25	0.	125.02
4568	7.75	-3.5	0.	115.5
4569	7.25	-3.5	0.	115.67
4570	6.5	-2.75	0.	131.18
4571	6.25	-3.	0.	129.5
4572	6.5	-2.25	0.	133.35
4573	6.5	-1.75	0.	133.42
4574	6.5	-1.25	0.	131.46
4575	7.25	-0.5	0.	115.83
4576	7.75	-0.5	0.	115.66
4577	8.5	-1.25	0.	131.12
4578	8.5	-2.75	0.	131.16
4579	8.5	-2.25	0.	133.3
4580	8.5	-1.75	0.	133.32
4581	-8.75	1.5	0.	119.62
4582	-9.25	1.5	0.	127.93
4583	-8.25	1.5	0.	120.57
4584	-7.5	0.25	0.	130.47
4585	-7.5	0.75	0.	131.2
4586	-8.25	-0.5	0.	119.68
4587	-8.75	-0.5	0.	119.55
4588	-9.25	-0.5	0.	128.31
4589	-8.5	-0.75	0.	117.66
4590	0.25	-5.5	0.	117.49
4591	-4.9565e-011	-5.25	0.	122.51
4592	0.75	-5.5	0.	117.38
4593	1.5	-6.25	0.	129.02
4594	1.5	-6.75	0.	128.94
4595	0.75	-7.5	0.	117.12
4596	0.25	-7.5	0.	117.01
4597	1.0579e-011	-7.75	0.	121.8
4598	-0.5	-6.75	0.	128.81
4599	-0.5	-6.25	0.	128.87
4600	-5.5	2.75	0.	132.06
4601	-5.5	2.25	0.	131.55
4602	-6.25	1.5	0.	119.85
4603	-6.75	1.5	0.	120.52
4604	-7.5	2.25	0.	130.31
4605	-7.5	2.75	0.	129.6
4606	-6.25	3.5	0.	119.91
4607	-6.75	3.5	0.	118.87
4608	-8.25	-6.5	0.	116.
4609	-8.	-6.75	0.	121.24
4610	-8.75	-6.5	0.	116.53
4611	-9.25	-6.5	0.	127.41
4612	-9.	-6.75	0.	122.26
4613	-8.75	-3.5	0.	117.74
4614	-9.25	-3.5	0.	127.91
4615	-8.25	-3.5	0.	118.8
4616	-7.5	-4.25	0.	133.03
4617	-7.5	-5.75	0.	131.06
4618	-7.5	-5.25	0.	133.46
4619	-7.5	-4.75	0.	134.06
4620	-6.25	-3.5	0.	121.79
4621	-6.75	-3.5	0.	122.65
4622	-7.5	-2.75	0.	130.53
4623	-7.5	-2.25	0.	129.4
4624	-6.75	-1.5	0.	119.9
4625	-6.25	-1.5	0.	120.48
4626	-5.5	-2.25	0.	137.18
4627	-5.5	-2.75	0.	135.82
4628	-8.75	9.5	0.	124.97
4629	-9.25	9.5	0.	125.
4630	-8.25	9.5	0.	124.92
4631	-7.75	9.5	0.	124.87
4632	-7.25	9.5	0.	124.82
4633	-6.75	9.5	0.	124.77
4634	-6.25	9.5	0.	124.73
4635	-5.75	9.5	0.	124.71
4636	-5.25	9.5	0.	124.71
4637	-4.75	9.5	0.	124.74
4638	-4.25	9.5	0.	124.82
4639	-3.75	9.5	0.	124.94
4640	-3.25	9.5	0.	125.13
4641	-2.75	9.5	0.	125.38
4642	-2.25	9.5	0.	125.6
4643	-1.75	9.5	0.	125.46
4644	-1.25	9.5	0.	124.58
4645	-0.75	9.5	0.	123.14
4646	-0.25001	9.5	0.	122.03
4647	0.24998	9.5	0.	122.08
4648	0.74996	9.5	0.	123.29
4649	1.2499	9.5	0.	124.79
4650	1.7498	9.5	0.	125.73
4651	2.2497	9.5	0.	125.92
4652	2.7496	9.5001	0.	125.74
4653	3.2494	9.5001	0.	125.53
4654	3.7492	9.5001	0.	125.37
4655	4.249	9.5001	0.	125.28
4656	4.7489	9.5001	0.	125.22
4657	5.2488	9.5	0.	125.19
4658	5.7488	9.5	0.	125.17
4659	6.2489	9.5	0.	125.16
4660	6.7491	9.5	0.	125.14
4661	7.2493	9.5	0.	125.12
4662	7.7495	9.5	0.	125.09
4663	8.2496	9.5	0.	125.06
4664	8.7497	9.5	0.	125.03
4665	9.2498	9.5	0.	125.
4666	9.4999	9.25	0.	124.97
4667	9.4998	8.75	0.	124.93
4668	9.4998	8.25	0.	124.87
4669	9.4997	7.75	0.	124.8
4670	9.4997	7.25	0.	124.71
4671	9.4998	6.75	0.	124.61
4672	9.4998	6.25	0.	124.49
4673	9.4998	5.75	0.	124.37
4674	9.4999	5.25	0.	124.25
4675	9.4999	4.75	0.	124.14
4676	9.4999	4.25	0.	124.07
4677	9.5	3.75	0.	124.04
4678	9.5	3.25	0.	124.1
4679	9.5	2.75	0.	124.25
4680	9.5	2.25	0.	124.51
4681	9.25	2.5	0.	124.3
4682	9.5	1.75	0.	124.92
4683	9.5	1.25	0.	125.46
4684	9.5	0.75	0.	126.14
4685	9.5	0.25	0.	126.86
4686	9.5	-0.25	0.	127.37
4687	9.5	-0.75	0.	127.42
4688	9.5	-1.25	0.	127.19
4689	9.5	-1.75	0.	127.04
4690	9.5	-2.25	0.	127.12
4691	9.5	-2.75	0.	127.43
4692	9.5	-3.25	0.	127.81
4693	9.5	-3.75	0.	127.89
4694	9.5	-4.25	0.	127.51
4695	9.5	-4.75	0.	126.91
4696	9.5	-5.25	0.	126.34
4697	9.5	-5.75	0.	125.87
4698	9.5	-6.25	0.	125.52
4699	9.5	-6.75	0.	125.26
4700	9.5	-7.25	0.	125.08
4701	9.5	-7.75	0.	124.96
4702	9.25	-7.5	0.	124.94
4703	9.5	-8.25	0.	124.88
4704	9.5	-8.75	0.	124.83
4705	9.5	-9.25	0.	124.8
4706	9.25	-9.5	0.	124.82
4707	8.75	-9.5	0.	124.86
4708	8.25	-9.5	0.	124.88
4709	7.75	-9.5	0.	124.92
4710	7.25	-9.5	0.	124.98
4711	6.75	-9.5	0.	125.08
4712	6.25	-9.5	0.	125.22
4713	5.75	-9.5	0.	125.38
4714	5.25	-9.5	0.	125.57
4715	4.75	-9.5	0.	125.76
4716	4.25	-9.5	0.	125.93
4717	3.75	-9.5	0.	126.04
4718	3.25	-9.5	0.	126.03
4719	2.75	-9.5	0.	125.81
4720	2.25	-9.5	0.	125.3
4721	1.75	-9.5	0.	124.5
4722	1.25	-9.5	0.	123.58
4723	0.75	-9.5	0.	122.94
4724	0.25	-9.5	0.	122.89
4725	-0.25	-9.5	0.	123.47
4726	7.0716e-012	-9.25	0.	122.9
4727	-0.75	-9.5	0.	124.32
4728	-0.5	-9.25	0.	123.94
4729	-1.25	-9.5	0.	125.08
4730	-1.75	-9.5	0.	125.57
4731	-2.25	-9.5	0.	125.8
4732	-2.75	-9.5	0.	125.86
4733	-3.25	-9.5	0.	125.83
4734	-3.75	-9.5	0.	125.77
4735	-4.25	-9.5	0.	125.7
4736	-4.75	-9.5	0.	125.62
4737	-5.25	-9.5	0.	125.52
4738	-5.75	-9.5	0.	125.37
4739	-6.25	-9.5	0.	125.16
4740	-6.75	-9.5	0.	124.88
4741	-7.25	-9.5	0.	124.59
4742	-7.	-9.25	0.	124.73
4743	-7.75	-9.5	0.	124.38
4744	-8.25	-9.5	0.	124.35
4745	-8.75	-9.5	0.	124.52
4746	-9.25	-9.5	0.	124.77
4747	-9.5	-9.25	0.	124.96
4748	-9.5	-8.75	0.	125.18
4749	-9.5	-8.25	0.	125.55
4750	-9.5	-7.75	0.	126.13
4751	-9.5	-7.25	0.	127.28
4752	-9.5	-6.75	0.	130.14
4753	-9.25	-7.	0.	124.96
4754	-9.5	-6.25	0.	132.6
4755	-9.5	-5.75	0.	134.6
4756	-9.5	-5.25	0.	137.05
4757	-9.5	-4.75	0.	137.13
4758	-9.5	-4.25	0.	134.81
4759	-9.5	-3.75	0.	132.83
4760	-9.5	-3.25	0.	130.29
4761	-9.5	-2.75	0.	127.42
4762	-9.5	-2.25	0.	126.57
4763	-9.5	-1.75	0.	126.68
4764	-9.5	-1.25	0.	127.55
4765	-9.5	-0.75	0.	130.1
4766	-9.5	-0.25	0.	132.18
4767	-9.5	0.25	0.	132.63
4768	-9.5	0.75	0.	132.4
4769	-9.5	1.25	0.	131.61
4770	-9.5	1.75	0.	129.3
4771	-9.5	2.25	0.	126.61
4772	-9.5	2.75	0.	125.78
4773	-9.5	3.25	0.	125.68
4774	-9.5	3.75	0.	125.81
4775	-9.5	4.25	0.	125.96
4776	-9.5	4.75	0.	126.01
4777	-9.5	5.25	0.	125.97
4778	-9.5	5.75	0.	125.86
4779	-9.5	6.25	0.	125.73
4780	-9.5	6.75	0.	125.57
4781	-9.5	7.25	0.	125.43
4782	-9.5	7.75	0.	125.29
4783	-9.5	8.25	0.	125.18
4784	-9.5	8.75	0.	125.09
4785	-9.5	9.25	0.	125.03
4786	6.5	-4.25	0.	125.42
4787	-1.5	-2.25	0.	126.66
4788	6.75	-4.5	0.	123.26
4789	6.5	-4.75	0.	124.39
4790	-0.25	2.5	0.	130.3
4791	-5.3931e-011	-3.75	0.	124.28
4792	-4.	4.75	0.	124.39
4793	5.7499	4.	0.	126.8
4794	-5.	-6.75	0.	124.93
4795	-2.25	-5.5	0.	125.27
4796	7.	0.75	0.	122.69
4797	-4.	5.75	0.	124.28
4798	-4.	5.25	0.	124.35
4799	4.75	2.5	0.	131.24
4800	-4.	-4.25	0.	122.78
4801	-1.75	-2.5	0.	127.7
4802	-1.5	-2.75	0.	127.23
4803	-6.6218e-011	-4.75	0.	122.69
4804	-1.75	-5.5	0.	126.09
4805	-0.75	-3.8264e-011	0.	132.72
4806	-2.25	7.	0.	126.08
4807	5.5	-1.75	0.	127.77
4808	-0.25	-8.	0.	123.65
4809	1.2499	6.	0.	127.89
4810	-5.75	-6.5	0.	125.5
4811	-5.25	-6.5	0.	124.97
4812	7.2486	6.5002	0.	125.44
4813	5.25	-0.5	0.	128.71
4814	-1.75	5.5	0.	127.06
4815	-1.25	5.5	0.	126.83
4816	-1.5	5.75	0.	128.18
4817	-1.5	5.25	0.	127.27
4818	-5.5	6.75	0.	124.52
4819	3.25	-3.5	0.	125.7
4820	-0.25	-9.	0.	123.37
4821	2.25	-7.5	0.	127.31
4822	-2.	0.25	0.	127.64
4823	-1.75	4.5	0.	126.45
4824	5.75	2.5	0.	126.87
4825	5.25	2.5	0.	128.62
4826	5.5	2.75	0.	127.34
4827	-4.	-6.25	0.	124.28
4828	-1.5	4.25	0.	128.92
4829	4.4984	6.25	0.	124.98
4830	1.5	-3.25	0.	124.16
4831	-6.8398e-011	-4.25	0.	123.59
4832	-1.5	4.75	0.	127.49
4833	-0.25	1.	0.	130.68
4834	-0.5	1.25	0.	129.92
4835	-6.25	-6.5	0.	126.32
4836	-4.5	6.75	0.	124.1
4837	1.5	-3.75	0.	124.33
4838	4.499	5.75	0.	125.62
4839	8.	-1.	0.	95.555
4840	7.	-1.	0.	95.712
4841	8.	-3.	0.	95.595
4842	7.	-3.	0.	95.488
4843	7.5	-1.	0.	109.58
4844	8.	-1.5	0.	99.779
4845	8.	-2.	0.	98.813
4846	8.	-2.5	0.	99.722
4847	7.	-1.5	0.	99.837
4848	7.	-2.	0.	98.807
4849	7.	-2.5	0.	99.764
4850	7.5	-3.	0.	109.46
4851	7.5	-1.5	0.	104.28
4852	7.5	-2.	0.	102.17
4853	7.5	-2.5	0.	104.22
4854	7.75	-1.	0.	102.52
4855	8.	-1.25	0.	97.664
4856	7.25	-1.	0.	102.59
4857	7.	-1.25	0.	97.773
4858	8.	-2.75	0.	97.657
4859	7.75	-3.	0.	102.48
4860	7.	-2.75	0.	97.623
4861	7.25	-3.	0.	102.42
4862	7.5	-1.25	0.	106.88
4863	8.	-1.75	0.	99.259
4864	7.75	-1.5	0.	101.98
4865	8.	-2.25	0.	99.231
4866	7.75	-2.	0.	100.49
4867	7.75	-2.5	0.	101.93
4868	7.	-1.75	0.	99.282
4869	7.25	-1.5	0.	102.01
4870	7.	-2.25	0.	99.245
4871	7.25	-2.	0.	100.49
4872	7.25	-2.5	0.	101.95
4873	7.5	-2.75	0.	106.79
4874	7.5	-1.75	0.	103.23
4875	7.5	-2.25	0.	103.2
4876	1.	-6.	0.	97.489
4877	0.	-6.	0.	97.38
4878	1.	-7.	0.	97.317
4879	0.	-7.	0.	97.335
4880	0.5	-6.	0.	112.85
4881	1.	-6.5	0.	102.54
4882	0.	-6.5	0.	102.49
4883	0.5	-7.	0.	112.68
4884	0.5	-6.5	0.	110.13
4885	0.75	-6.	0.	105.15
4886	1.	-6.25	0.	100.
4887	0.25	-6.	0.	105.1
4888	0.	-6.25	0.	99.926
4889	1.	-6.75	0.	99.916
4890	0.75	-7.	0.	104.98
4891	0.	-6.75	0.	99.904
4892	0.25	-7.	0.	104.99
4893	0.5	-6.25	0.	111.44
4894	0.75	-6.5	0.	106.31
4895	0.25	-6.5	0.	106.29
4896	0.5	-6.75	0.	111.36
4897	-6.	3.	0.	99.293
4898	-7.	3.	0.	98.839
4899	-6.	2.	0.	99.02
4900	-7.	2.	0.	99.614
4901	-6.5	3.	0.	114.77
4902	-6.	2.5	0.	104.5
4903	-7.	2.5	0.	104.16
4904	-6.5	2.	0.	115.23
4905	-6.5	2.5	0.	112.12
4906	-6.25	3.	0.	107.01
4907	-6.	2.75	0.	101.88
4908	-6.75	3.	0.	106.79
4909	-7.	2.75	0.	101.49
4910	-6.	2.25	0.	101.74
4911	-6.25	2.	0.	107.11
4912	-7.	2.25	0.	101.88
4913	-6.75	2.	0.	107.39
4914	-6.5	2.75	0.	113.4
4915	-6.25	2.5	0.	108.28
4916	-6.75	2.5	0.	108.12
4917	-6.5	2.25	0.	113.63
4918	-8.	-4.	0.	97.924
4919	-9.	-4.	0.	98.008
4920	-8.	-6.	0.	96.053
4921	-9.	-6.	0.	97.228
4922	-8.5	-4.	0.	112.28
4923	-8.	-4.5	0.	101.91
4924	-8.	-5.	0.	100.2
4925	-8.	-5.5	0.	100.6
4926	-9.	-4.5	0.	102.43
4927	-9.	-5.	0.	101.42
4928	-9.	-5.5	0.	101.95
4929	-8.5	-6.	0.	110.66
4930	-8.5	-4.5	0.	106.85
4931	-8.5	-5.	0.	104.36
4932	-8.5	-5.5	0.	105.92
4933	-8.25	-4.	0.	105.03
4934	-8.	-4.25	0.	99.912
4935	-8.75	-4.	0.	105.1
4936	-9.	-4.25	0.	100.22
4937	-8.	-5.75	0.	98.326
4938	-8.25	-6.	0.	103.31
4939	-9.	-5.75	0.	99.588
4940	-8.75	-6.	0.	103.9
4941	-8.5	-4.25	0.	109.51
4942	-8.	-4.75	0.	101.01
4943	-8.25	-4.5	0.	104.32
4944	-8.	-5.25	0.	100.35
4945	-8.25	-5.	0.	102.28
4946	-8.25	-5.5	0.	103.22
4947	-9.	-4.75	0.	101.89
4948	-8.75	-4.5	0.	104.59
4949	-9.	-5.25	0.	101.65
4950	-8.75	-5.	0.	102.89
4951	-8.75	-5.5	0.	103.9
4952	-8.5	-5.75	0.	108.23
4953	-8.5	-4.75	0.	105.6
4954	-8.5	-5.25	0.	105.14
4955	4.	4.	0.	99.125
4956	3.	4.	0.	97.821
4957	4.	3.	0.	100.79
4958	3.	3.	0.	97.381
4959	3.5	4.	0.	114.2
4960	4.	3.5	0.	105.22
4961	3.	3.5	0.	102.81
4962	3.5	3.	0.	116.15
4963	3.5	3.5	0.	112.27
4964	3.75	4.	0.	106.64
4965	4.	3.75	0.	102.16
4966	3.25	4.	0.	106.
4967	3.	3.75	0.	100.3
4968	4.	3.25	0.	103.
4969	3.75	3.	0.	108.44
4970	3.	3.25	0.	100.07
4971	3.25	3.	0.	106.73
4972	3.5	3.75	0.	113.18
4973	3.75	3.5	0.	108.72
4974	3.25	3.5	0.	107.51
4975	3.5	3.25	0.	114.16
4976	1.	8.	0.	99.651
4977	-1.	8.	0.	99.609
4978	1.	7.	0.	100.05
4979	-1.	7.	0.	99.714
4980	0.5	8.	0.	117.04
4981	0.	8.	0.	115.8
4982	-0.5	8.	0.	116.94
4983	1.	7.5	0.	104.84
4984	-1.	7.5	0.	104.67
4985	-0.5	7.	0.	116.93
4986	0.	7.	0.	115.76
4987	0.5	7.	0.	117.03
4988	-0.5	7.5	0.	115.54
4989	0.	7.5	0.	118.96
4990	0.5	7.5	0.	115.65
4991	0.75	8.	0.	108.3
4992	1.	7.75	0.	102.22
4993	-0.75	8.	0.	108.23
4994	-1.	7.75	0.	102.12
4995	1.	7.25	0.	102.42
4996	0.75	7.	0.	108.5
4997	-1.	7.25	0.	102.16
4998	-0.75	7.	0.	108.28
4999	0.25	8.	0.	116.42
5000	0.5	7.75	0.	116.33
5001	-0.25	8.	0.	116.37
5002	0.	7.75	0.	117.37
5003	-0.5	7.75	0.	116.22
5004	0.75	7.5	0.	110.23
5005	-0.75	7.5	0.	110.09
5006	-0.25	7.	0.	116.34
5007	-0.5	7.25	0.	116.22
5008	0.25	7.	0.	116.39
5009	0.	7.25	0.	117.35
5010	0.5	7.25	0.	116.32
5011	-0.25	7.5	0.	117.25
5012	0.25	7.5	0.	117.3
5013	3.	2.	0.	96.963
5014	1.	2.	0.	100.03
5015	3.	1.	0.	98.102
5016	1.	1.	0.	100.04
5017	2.5	2.	0.	116.74
5018	2.	2.	0.	116.03
5019	1.5	2.	0.	117.15
5020	3.	1.5	0.	102.48
5021	1.	1.5	0.	105.16
5022	1.5	1.	0.	116.71
5023	2.	1.	0.	114.81
5024	2.5	1.	0.	115.32
5025	1.5	1.5	0.	115.48
5026	2.	1.5	0.	118.49
5027	2.5	1.5	0.	114.29
5028	2.75	2.	0.	106.8
5029	3.	1.75	0.	99.683
5030	1.25	2.	0.	108.55
5031	1.	1.75	0.	102.57
5032	3.	1.25	0.	100.27
5033	2.75	1.	0.	106.67
5034	1.	1.25	0.	102.57
5035	1.25	1.	0.	108.34
5036	2.25	2.	0.	116.39
5037	2.5	1.75	0.	115.5
5038	1.75	2.	0.	116.59
5039	2.	1.75	0.	117.25
5040	1.5	1.75	0.	116.3
5041	2.75	1.5	0.	108.37
5042	1.25	1.5	0.	110.3
5043	1.75	1.	0.	115.75
5044	1.5	1.25	0.	116.08
5045	2.25	1.	0.	115.06
5046	2.	1.25	0.	116.64
5047	2.5	1.25	0.	114.79
5048	1.75	1.5	0.	116.98
5049	2.25	1.5	0.	116.39
5050	-8.	1.	0.	100.33
5051	-9.	1.	0.	100.07
5052	-8.	0.	0.	99.461
5053	-9.	0.	0.	100.23
5054	-8.5	1.	0.	116.05
5055	-8.	0.5	0.	105.23
5056	-9.	0.5	0.	105.64
5057	-8.5	0.	0.	115.62
5058	-8.5	0.5	0.	113.47
5059	-8.25	1.	0.	108.17
5060	-8.	0.75	0.	102.77
5061	-8.75	1.	0.	108.04
5062	-9.	0.75	0.	102.85
5063	-8.	0.25	0.	102.34
5064	-8.25	0.	0.	107.52
5065	-9.	0.25	0.	102.93
5066	-8.75	0.	0.	107.91
5067	-8.5	0.75	0.	114.71
5068	-8.25	0.5	0.	109.33
5069	-8.75	0.5	0.	109.54
5070	-8.5	0.25	0.	114.5
5071	-6.	-2.	0.	101.56
5072	-7.	-2.	0.	99.315
5073	-6.	-3.	0.	102.18
5074	-7.	-3.	0.	100.97
5075	-6.5	-2.	0.	116.24
5076	-6.	-2.5	0.	107.65
5077	-7.	-2.5	0.	105.45
5078	-6.5	-3.	0.	117.73
5079	-6.5	-2.5	0.	114.58
5080	-6.25	-2.	0.	108.88
5081	-6.	-2.25	0.	104.59
5082	-6.75	-2.	0.	107.76
5083	-7.	-2.25	0.	102.37
5084	-6.	-2.75	0.	104.91
5085	-6.25	-3.	0.	109.94
5086	-7.	-2.75	0.	103.19
5087	-6.75	-3.	0.	109.33
5088	-6.5	-2.25	0.	115.35
5089	-6.25	-2.5	0.	111.09
5090	-6.75	-2.5	0.	109.99
5091	-6.5	-2.75	0.	116.11
5092	-3.	-1.	0.	96.055
5093	-5.	-1.	0.	102.55
5094	-3.	-2.	0.	97.318
5095	-5.	-2.	0.	101.33
5096	-3.5	-1.	0.	113.1
5097	-4.	-1.	0.	113.89
5098	-4.5	-1.	0.	117.48
5099	-3.	-1.5	0.	101.67
5100	-5.	-1.5	0.	107.11
5101	-4.5	-2.	0.	116.53
5102	-4.	-2.	0.	113.81
5103	-3.5	-2.	0.	114.24
5104	-4.5	-1.5	0.	115.92
5105	-4.	-1.5	0.	117.05
5106	-3.5	-1.5	0.	112.45
5107	-3.25	-1.	0.	104.56
5108	-3.	-1.25	0.	98.836
5109	-4.75	-1.	0.	109.98
5110	-5.	-1.25	0.	104.82
5111	-3.	-1.75	0.	99.471
5112	-3.25	-2.	0.	105.73
5113	-5.	-1.75	0.	104.21
5114	-4.75	-2.	0.	108.89
5115	-3.75	-1.	0.	113.49
5116	-3.5	-1.25	0.	112.76
5117	-4.25	-1.	0.	115.68
5118	-4.	-1.25	0.	115.47
5119	-4.5	-1.25	0.	116.68
5120	-3.25	-1.5	0.	107.04
5121	-4.75	-1.5	0.	111.51
5122	-4.25	-2.	0.	115.17
5123	-4.5	-1.75	0.	116.19
5124	-3.75	-2.	0.	114.02
5125	-4.	-1.75	0.	115.42
5126	-3.5	-1.75	0.	113.33
5127	-4.25	-1.5	0.	116.48
5128	-3.75	-1.5	0.	114.75
5129	-2.	3.	0.	97.996
5130	-4.	3.	0.	97.563
5131	-2.	1.	0.	99.007
5132	-4.	1.	0.	95.882
5133	-2.5	3.	0.	111.99
5134	-3.	3.	0.	109.16
5135	-3.5	3.	0.	111.45
5136	-2.	2.5	0.	102.39
5137	-2.	2.	0.	100.99
5138	-2.	1.5	0.	102.38
5139	-4.	2.5	0.	101.15
5140	-4.	2.	0.	99.671
5141	-4.	1.5	0.	100.69
5142	-3.5	1.	0.	110.06
5143	-3.	1.	0.	108.63
5144	-2.5	1.	0.	112.15
5145	-3.	2.	0.	110.86
5146	-3.	1.5	0.	111.01
5147	-3.5	1.5	0.	107.96
5148	-3.5	2.	0.	107.42
5149	-3.5	2.5	0.	108.48
5150	-3.	2.5	0.	111.3
5151	-2.5	2.5	0.	109.22
5152	-2.5	2.	0.	108.34
5153	-2.5	1.5	0.	109.25
5154	-2.25	3.	0.	104.91
5155	-2.	2.75	0.	100.18
5156	-3.75	3.	0.	104.43
5157	-4.	2.75	0.	99.344
5158	-2.	1.25	0.	100.68
5159	-2.25	1.	0.	105.5
5160	-4.	1.25	0.	98.273
5161	-3.75	1.	0.	102.92
5162	-2.75	3.	0.	110.58
5163	-2.5	2.75	0.	110.57
5164	-3.25	3.	0.	110.3
5165	-3.	2.75	0.	110.22
5166	-3.5	2.75	0.	109.94
5167	-2.	2.25	0.	101.66
5168	-2.25	2.5	0.	105.79
5169	-2.	1.75	0.	101.65
5170	-2.25	2.	0.	104.66
5171	-2.25	1.5	0.	105.8
5172	-4.	2.25	0.	100.38
5173	-3.75	2.5	0.	104.8
5174	-4.	1.75	0.	100.15
5175	-3.75	2.	0.	103.54
5176	-3.75	1.5	0.	104.32
5177	-3.25	1.	0.	109.34
5178	-3.5	1.25	0.	108.99
5179	-2.75	1.	0.	110.39
5180	-3.	1.25	0.	109.81
5181	-2.5	1.25	0.	110.68
5182	-3.	1.75	0.	110.94
5183	-3.25	2.	0.	109.14
5184	-3.	2.25	0.	111.08
5185	-2.75	2.	0.	109.6
5186	-3.25	1.5	0.	109.48
5187	-2.75	1.5	0.	110.12
5188	-3.5	1.75	0.	107.68
5189	-3.5	2.25	0.	107.94
5190	-3.25	2.5	0.	109.88
5191	-2.75	2.5	0.	110.25
5192	-2.5	2.25	0.	108.77
5193	-2.5	1.75	0.	108.79
