Node Number	X Location (mm)	Y Location (mm)	Z Location (mm)	Equivalent (von-Mises) Stress (MPa)
1	8.7	-5.e-002	0.	169.98
2	7.31	1.31	0.	123.11
3	6.83	-0.58	0.	155.61
4	5.4	4.31	0.	170.56
5	6.13	2.93	0.	108.97
6	6.96	4.25	0.	170.38
7	4.33	-6.17	0.	166.43
8	5.65	-7.62	0.	115.42
9	6.25	-5.75	0.	157.97
10	-1.e-002	-7.26	0.	130.19
11	-1.12	-8.04	0.	150.47
12	0.11	-8.62	0.	146.23
13	-2.8	-1.38	0.	167.54
14	-1.5	-1.14	0.	174.37
15	-2.36	-0.14	0.	116.29
16	0.15	0.52	0.	156.6
17	1.39	-0.45	0.	135.25
18	1.61	1.11	0.	157.49
19	-7.04	-8.03	0.	173.12
20	-5.76	-8.11	0.	172.38
21	-6.33	-6.97	0.	108.57
22	-7.53	-0.56	0.	104.39
23	-8.11	-1.49	0.	170.62
24	-7.01	-1.53	0.	156.77
25	-7.23	-4.34	0.	108.73
26	-6.16	-2.83	0.	173.96
27	-8.	-2.66	0.	158.66
28	4.	9.	0.	140.21
29	4.	7.	0.	137.36
30	6.	9.	0.	140.12
31	6.	7.	0.	138.17
32	7.	9.	0.	136.79
33	7.	7.	0.	137.52
34	8.	9.	0.	134.99
35	8.	7.	0.	132.73
36	-2.	6.	0.	135.93
37	-2.	4.	0.	136.02
38	0.	6.	0.	134.86
39	0.	4.	0.	134.58
40	-2.	-4.	0.	132.64
41	-2.	-6.	0.	135.1
42	0.	-4.	0.	133.39
43	0.	-6.	0.	126.93
44	-7.	9.	0.	135.66
45	-7.	8.	0.	133.24
46	-6.	9.	0.	135.68
47	-6.	8.	0.	133.25
48	-7.	3.	0.	134.3
49	-7.	1.	0.	132.56
50	-5.	3.	0.	136.8
51	-5.	1.	0.	138.38
52	10.	10.	0.	125.12
53	-10.	10.	0.	125.03
54	10.	-10.	0.	128.71
55	-10.	-10.	0.	131.27
56	8.3511	0.29141	0.	102.08
57	8.0043	0.6307	0.	107.89
58	7.6571	0.97035	0.	91.983
59	8.2303	-0.18313	0.	101.25
60	7.7636	-0.31539	0.	113.21
61	7.2968	-0.4477	0.	109.87
62	7.19	0.8375	0.	130.5
63	7.07	0.365	0.	135.7
64	6.95	-0.1075	0.	139.08
65	5.6433	3.85	0.	114.82
66	5.8867	3.39	0.	110.45
67	5.92	4.29	0.	111.72
68	6.44	4.27	0.	110.6
69	6.4067	3.37	0.	104.81
70	6.6833	3.81	0.	103.94
71	4.66	-6.5325	0.	99.112
72	4.99	-6.895	0.	111.83
73	5.32	-7.2575	0.	99.444
74	4.81	-6.065	0.	106.85
75	5.29	-5.96	0.	117.29
76	5.77	-5.855	0.	110.57
77	5.8	-7.1525	0.	124.36
78	5.95	-6.685	0.	133.91
79	6.1	-6.2175	0.	134.72
80	-0.38	-7.52	0.	84.599
81	-0.75	-7.78	0.	68.016
82	3.e-002	-7.7133	0.	136.6
83	7.e-002	-8.1667	0.	140.21
84	-0.71	-8.2333	0.	81.226
85	-0.3	-8.4267	0.	94.37
86	-2.3667	-1.3	0.	108.22
87	-1.9333	-1.22	0.	97.184
88	-2.6533	-0.96667	0.	139.38
89	-2.5067	-0.55333	0.	126.37
90	-1.7867	-0.80667	0.	82.113
91	-2.0733	-0.47333	0.	87.278
92	0.56333	0.19667	0.	78.715
93	0.97667	-0.12667	0.	88.116
94	0.63667	0.71667	0.	89.951
95	1.1233	0.91333	0.	103.38
96	1.4633	7.e-002	0.	141.51
97	1.5367	0.59	0.	145.09
98	-6.6133	-8.0567	0.	103.33
99	-6.1867	-8.0833	0.	102.18
100	-6.8033	-7.6767	0.	110.27
101	-6.5667	-7.3233	0.	96.048
102	-5.95	-7.73	0.	126.5
103	-6.14	-7.35	0.	106.52
104	-7.82	-1.025	0.	95.137
105	-7.27	-1.045	0.	102.81
106	-7.56	-1.51	0.	102.9
107	-6.9625	-3.9625	0.	100.52
108	-6.695	-3.585	0.	113.46
109	-6.4275	-3.2075	0.	111.23
110	-7.4225	-3.92	0.	112.89
111	-7.615	-3.5	0.	123.31
112	-7.8075	-3.08	0.	123.92
113	-6.62	-2.7875	0.	109.05
114	-7.08	-2.745	0.	113.67
115	-7.54	-2.7025	0.	101.15
116	4.	8.5	0.	147.36
117	4.	8.	0.	148.33
118	4.	7.5	0.	147.03
119	4.5	9.	0.	119.04
120	5.	9.	0.	125.27
121	5.5	9.	0.	119.12
122	4.5	7.	0.	117.67
123	5.	7.	0.	121.
124	5.5	7.	0.	115.89
125	6.	8.5	0.	148.54
126	6.	8.	0.	150.49
127	6.	7.5	0.	147.48
128	7.	8.5	0.	144.2
129	7.	8.	0.	145.51
130	7.	7.5	0.	144.12
131	7.5	9.	0.	110.83
132	7.5	7.	0.	110.24
133	8.	8.5	0.	143.62
134	8.	8.	0.	143.72
135	8.	7.5	0.	143.31
136	-2.	5.5	0.	145.1
137	-2.	5.	0.	146.5
138	-2.	4.5	0.	145.43
139	-1.5	6.	0.	113.85
140	-1.	6.	0.	117.92
141	-0.5	6.	0.	113.38
142	-1.5	4.	0.	114.6
143	-1.	4.	0.	118.19
144	-0.5	4.	0.	113.22
145	0.	5.5	0.	143.54
146	0.	5.	0.	144.53
147	0.	4.5	0.	143.11
148	-2.	-4.5	0.	141.6
149	-2.	-5.	0.	143.7
150	-2.	-5.5	0.	142.95
151	-1.5	-4.	0.	111.55
152	-1.	-4.	0.	115.8
153	-0.5	-4.	0.	111.98
154	-1.5	-6.	0.	113.4
155	-1.	-6.	0.	113.19
156	-0.5	-6.	0.	106.83
157	0.	-4.5	0.	140.89
158	0.	-5.	0.	141.1
159	0.	-5.5	0.	138.72
160	-7.	8.5	0.	143.61
161	-6.5	9.	0.	113.75
162	-6.5	8.	0.	111.35
163	-6.	8.5	0.	143.56
164	-7.	2.5	0.	142.64
165	-7.	2.	0.	143.29
166	-7.	1.5	0.	141.32
167	-6.5	3.	0.	113.13
168	-6.	3.	0.	118.02
169	-5.5	3.	0.	114.41
170	-6.5	1.	0.	113.07
171	-6.	1.	0.	119.54
172	-5.5	1.	0.	116.57
173	-5.	2.5	0.	146.5
174	-5.	2.	0.	148.18
175	-5.	1.5	0.	147.44
176	9.5	10.	0.	125.56
177	9.	10.	0.	126.88
178	8.5	10.	0.	126.06
179	8.	10.	0.	121.82
180	7.5	10.	0.	120.41
181	7.	10.	0.	123.74
182	6.5	10.	0.	127.97
183	6.	10.	0.	124.51
184	5.5	10.	0.	119.38
185	5.	10.	0.	116.89
186	4.5	10.	0.	119.34
187	4.	10.	0.	124.56
188	3.5	10.	0.	130.4
189	3.	10.	0.	131.77
190	2.5	10.	0.	130.47
191	2.	10.	0.	129.
192	1.5	10.	0.	127.56
193	1.	10.	0.	126.27
194	0.5	10.	0.	125.11
195	-5.2042e-015	10.	0.	124.14
196	-0.5	10.	0.	123.45
197	-1.	10.	0.	123.09
198	-1.5	10.	0.	123.09
199	-2.	10.	0.	123.39
200	-2.5	10.	0.	123.89
201	-3.	10.	0.	124.51
202	-3.5	10.	0.	125.17
203	-4.	10.	0.	125.89
204	-4.5	10.	0.	126.65
205	-5.	10.	0.	127.38
206	-5.5	10.	0.	126.09
207	-6.	10.	0.	121.58
208	-6.5	10.	0.	119.53
209	-7.	10.	0.	121.52
210	-7.5	10.	0.	125.96
211	-8.	10.	0.	127.21
212	-8.5	10.	0.	126.45
213	-9.	10.	0.	125.72
214	-9.5	10.	0.	125.17
215	10.	9.5	0.	123.87
216	10.	9.	0.	121.32
217	10.	8.5	0.	119.74
218	10.	8.	0.	120.01
219	10.	7.5	0.	122.03
220	10.	7.	0.	125.17
221	10.	6.5	0.	128.08
222	10.	6.	0.	129.63
223	10.	5.5	0.	129.57
224	10.	5.	0.	128.49
225	10.	4.5	0.	127.29
226	10.	4.	0.	126.83
227	10.	3.5	0.	127.61
228	10.	3.	0.	129.52
229	10.	2.5	0.	131.82
230	10.	2.	0.	133.48
231	10.	1.5	0.	133.11
232	10.	1.	0.	130.18
233	10.	0.5	0.	124.66
234	10.	-5.2042e-015	0.	123.08
235	10.	-0.5	0.	128.44
236	10.	-1.	0.	134.24
237	10.	-1.5	0.	135.58
238	10.	-2.	0.	134.41
239	10.	-2.5	0.	132.6
240	10.	-3.	0.	130.91
241	10.	-3.5	0.	129.49
242	10.	-4.	0.	128.25
243	10.	-4.5	0.	127.07
244	10.	-5.	0.	125.94
245	10.	-5.5	0.	124.96
246	10.	-6.	0.	124.33
247	10.	-6.5	0.	124.2
248	10.	-7.	0.	124.59
249	10.	-7.5	0.	125.39
250	10.	-8.	0.	126.38
251	10.	-8.5	0.	127.33
252	10.	-9.	0.	128.08
253	10.	-9.5	0.	128.56
254	-10.	9.5	0.	124.7
255	-10.	9.	0.	123.9
256	-10.	8.5	0.	123.5
257	-10.	8.	0.	123.84
258	-10.	7.5	0.	124.74
259	-10.	7.	0.	125.85
260	-10.	6.5	0.	126.87
261	-10.	6.	0.	127.68
262	-10.	5.5	0.	128.26
263	-10.	5.	0.	128.58
264	-10.	4.5	0.	128.57
265	-10.	4.	0.	128.15
266	-10.	3.5	0.	127.41
267	-10.	3.	0.	126.64
268	-10.	2.5	0.	126.32
269	-10.	2.	0.	126.88
270	-10.	1.5	0.	128.5
271	-10.	1.	0.	130.84
272	-10.	0.5	0.	133.03
273	-10.	-5.2042e-015	0.	133.92
274	-10.	-0.5	0.	133.03
275	-10.	-1.	0.	131.44
276	-10.	-1.5	0.	131.15
277	-10.	-2.	0.	131.6
278	-10.	-2.5	0.	130.98
279	-10.	-3.	0.	129.71
280	-10.	-3.5	0.	129.6
281	-10.	-4.	0.	131.03
282	-10.	-4.5	0.	132.74
283	-10.	-5.	0.	133.7
284	-10.	-5.5	0.	133.53
285	-10.	-6.	0.	132.39
286	-10.	-6.5	0.	130.68
287	-10.	-7.	0.	128.95
288	-10.	-7.5	0.	127.81
289	-10.	-8.	0.	127.69
290	-10.	-8.5	0.	128.53
291	-10.	-9.	0.	129.81
292	-10.	-9.5	0.	130.88
293	-9.5	-10.	0.	130.32
294	-9.	-10.	0.	130.27
295	-8.5	-10.	0.	130.15
296	-8.	-10.	0.	128.9
297	-7.5	-10.	0.	125.34
298	-7.	-10.	0.	120.05
299	-6.5	-10.	0.	116.67
300	-6.	-10.	0.	118.36
301	-5.5	-10.	0.	123.69
302	-5.	-10.	0.	128.54
303	-4.5	-10.	0.	130.67
304	-4.	-10.	0.	130.9
305	-3.5	-10.	0.	130.37
306	-3.	-10.	0.	129.68
307	-2.5	-10.	0.	128.79
308	-2.	-10.	0.	126.89
309	-1.5	-10.	0.	122.59
310	-1.	-10.	0.	115.84
311	-0.5	-10.	0.	110.97
312	5.2042e-015	-10.	0.	114.39
313	0.5	-10.	0.	122.98
314	1.	-10.	0.	129.75
315	1.5	-10.	0.	132.
316	2.	-10.	0.	131.94
317	2.5	-10.	0.	131.24
318	3.	-10.	0.	130.12
319	3.5	-10.	0.	128.5
320	4.	-10.	0.	126.36
321	4.5	-10.	0.	123.97
322	5.	-10.	0.	122.01
323	5.5	-10.	0.	121.3
324	6.	-10.	0.	122.12
325	6.5	-10.	0.	123.85
326	7.	-10.	0.	125.63
327	7.5	-10.	0.	126.87
328	8.	-10.	0.	127.5
329	8.5	-10.	0.	127.72
330	9.	-10.	0.	127.8
331	9.5	-10.	0.	128.03
332	4.8257	-3.0728	0.	125.56
333	4.1997	-2.6327	0.	127.88
334	3.653	-2.4234	0.	129.07
335	3.4689	-2.7703	0.	129.14
336	3.0083	-2.7296	0.	129.56
337	3.7839	-2.9704	0.	128.48
338	3.3766	-3.1262	0.	129.14
339	2.9434	-3.1425	0.	129.48
340	3.1195	-2.3205	0.	129.73
341	2.519	-2.6933	0.	129.34
342	3.7391	-1.9741	0.	129.05
343	4.2624	-2.0618	0.	128.19
344	4.7755	-2.5762	0.	126.81
345	5.3457	-3.4903	0.	122.97
346	5.3262	-3.0181	0.	124.59
347	-1.1645	-0.44081	0.	131.75
348	4.8807	-3.5545	0.	124.07
349	4.4828	0.43702	0.	125.26
350	2.9581	-3.571	0.	129.53
351	4.3398	-3.1756	0.	126.81
352	3.8881	-3.362	0.	128.02
353	3.429	-3.5051	0.	129.07
354	5.8187	-2.9869	0.	123.94
355	4.9875	0.41756	0.	124.37
356	5.3448	-3.9493	0.	121.15
357	-3.9144	-4.996	0.	129.6
358	5.307	-2.5364	0.	126.09
359	4.7883	-2.0674	0.	127.58
360	2.1021	-5.1649	0.	128.6
361	2.0051	5.0155	0.	128.31
362	2.5062	5.0298	0.	128.86
363	2.0166	-2.6494	0.	128.37
364	3.2105	-1.8877	0.	129.91
365	2.527	4.5304	0.	128.06
366	3.1201	3.5161	0.	128.69
367	1.9298	-5.6693	0.	128.71
368	4.3102	-1.5427	0.	127.95
369	4.4409	-5.3266e-002	0.	125.13
370	3.0041	-4.0172	0.	129.73
371	4.4219	-3.6677	0.	125.78
372	5.8119	-3.4646	0.	122.66
373	2.5655	-4.5527	0.	129.53
374	-6.4998	5.4997	0.	120.24
375	-5.9996	4.9994	0.	118.93
376	3.9396	-2.8389e-002	0.	125.88
377	3.7963	-1.4923	0.	128.72
378	3.0669	2.9757	0.	130.42
379	4.5147	0.92409	0.	126.43
380	3.6046	3.3108	0.	129.07
381	-4.3855	-5.4638	0.	130.16
382	-4.3878	-4.995	0.	129.75
383	-4.3895	-4.5371	0.	129.56
384	2.3522	-7.1321	0.	128.63
385	3.5552	2.8827	0.	130.72
386	3.5467	2.4169	0.	131.78
387	3.8471	-1.0056	0.	127.88
388	3.8946	-0.51696	0.	126.73
389	4.0094	0.94636	0.	127.27
390	4.0303	1.4299	0.	129.2
391	-4.4999	5.4992	0.	125.6
392	-4.9998	5.4992	0.	123.43
393	-4.5471	-4.0569	0.	129.45
394	6.2795	-3.4507	0.	122.93
395	3.4913	-3.9334	0.	129.24
396	4.3971	-0.54531	0.	125.93
397	4.3537	-1.0402	0.	127.09
398	2.2419	-6.6459	0.	128.67
399	2.1569	-6.1652	0.	128.77
400	0.46617	-2.4804	0.	124.65
401	-4.5	5.9996	0.	126.14
402	3.0693	4.0542	0.	127.82
403	3.032	4.5583	0.	128.18
404	2.553	4.0245	0.	127.95
405	2.5701	3.5149	0.	128.61
406	-4.8646	-4.9716	0.	129.54
407	2.6879	-1.828	0.	130.24
408	3.0497	2.4725	0.	132.12
409	-2.8564	1.4838	0.	125.2
410	-6.4997	4.9997	0.	119.52
411	1.5028	-2.5904	0.	126.93
412	2.5552	3.0049	0.	129.91
413	3.0072	5.0525	0.	129.3
414	2.4958	5.526	0.	130.09
415	2.6552	-5.0443	0.	129.58
416	5.306	-2.0466	0.	127.39
417	5.5685	0.89949	0.	124.57
418	6.064	0.72834	0.	124.64
419	-4.5	6.4998	0.	126.97
420	-6.9999	5.4999	0.	121.67
421	-5.9993	4.4993	0.	117.17
422	-3.4383	-4.9983	0.	129.64
423	1.5267	-5.0942	0.	128.25
424	1.5061	5.0083	0.	128.26
425	5.1697	-4.4328	0.	119.32
426	5.4856	0.39272	0.	123.82
427	-5.1095	-3.9094	0.	129.67
428	-4.3762	-5.9357	0.	130.68
429	4.0419	1.9063	0.	130.95
430	4.0401	3.2504	0.	129.41
431	-0.9676	2.5604	0.	119.32
432	3.2785	-1.4301	0.	129.83
433	2.0849	-2.207	0.	128.1
434	3.5401	1.9405	0.	131.65
435	3.4389	1.2059e-003	0.	126.5
436	3.4798	0.48783	0.	126.46
437	3.645	3.6994	0.	127.67
438	-4.9999	5.9996	0.	124.35
439	-6.4999	5.9998	0.	120.51
440	-5.475	-0.88655	0.	122.57
441	-5.0656	-1.3926	0.	127.36
442	-5.4994	4.9989	0.	120.29
443	-3.4998	4.9981	0.	129.48
444	-3.9997	4.9979	0.	127.89
445	-3.8387	-6.8743	0.	129.83
446	-3.9084	-5.4722	0.	130.14
447	1.9813	-3.1074	0.	128.93
448	2.0495	-4.5998	0.	128.69
449	-3.9325	-4.5196	0.	129.33
450	-3.8107	-3.1388	0.	130.76
451	2.0211	4.5153	0.	127.75
452	-1.4299	2.0803	0.	121.38
453	-3.4419	1.9465	0.	129.49
454	-2.9283	1.9849	0.	126.74
455	1.998	5.5144	0.	129.23
456	-3.9999	5.499	0.	127.43
457	-4.	6.9999	0.	128.13
458	5.7729	-3.9514	0.	121.16
459	7.1834	-3.9199	0.	125.35
460	2.8552	-7.1095	0.	128.56
461	2.3948	-5.6302	0.	128.67
462	3.0715	-4.4792	0.	130.21
463	4.5129	-4.1423	0.	124.74
464	5.8154	-2.5079	0.	125.38
465	4.8204	-1.5591	0.	127.68
466	-4.4217	-3.4972	0.	129.37
467	1.8629	-7.1189	0.	129.28
468	6.2977	-2.9692	0.	123.32
469	6.7645	-2.9552	0.	122.62
470	4.5314	1.4087	0.	128.32
471	1.7972	-6.6393	0.	129.97
472	1.7817	-6.1608	0.	129.59
473	-4.6101	-1.4165	0.	128.91
474	-4.6768	-1.9001	0.	130.63
475	-0.52077	-2.5567	0.	121.63
476	4.8585	-1.059	0.	126.86
477	6.305	-2.4864	0.	124.07
478	6.7763	-2.4658	0.	122.11
479	3.5662	-4.3844	0.	129.84
480	2.5583	-6.102	0.	128.09
481	2.6992	-6.6006	0.	127.85
482	7.6354	-4.4175	0.	127.42
483	6.7137	-3.9208	0.	124.31
484	6.243	-3.9322	0.	122.61
485	1.9965	7.0055	0.	129.27
486	-4.	5.9995	0.	127.73
487	1.9949	6.5087	0.	130.23
488	-2.4223	2.0297	0.	124.06
489	-1.9237	2.0628	0.	122.03
490	2.0365	4.0115	0.	127.72
491	-3.916	-3.574	0.	129.89
492	-3.9701	-4.0457	0.	129.44
493	1.9821	-3.5843	0.	129.16
494	-3.8973	-5.9453	0.	130.74
495	-3.8747	-6.4118	0.	130.77
496	-4.4994	4.9979	0.	125.78
497	-4.9992	4.9982	0.	122.97
498	-5.0208	-0.91309	0.	125.61
499	-4.5586	-0.93353	0.	127.76
500	-5.4998	5.9996	0.	122.42
501	3.5369	4.6013	0.	127.94
502	3.5847	4.1275	0.	127.31
503	3.5089	0.97395	0.	127.95
504	3.5291	1.458	0.	130.1
505	1.0275	-2.0651	0.	122.54
506	1.5623	-2.1422	0.	125.15
507	3.3375	-0.95674	0.	129.06
508	4.0395	2.8227	0.	131.03
509	4.0437	2.3725	0.	131.76
510	-5.8187	-4.1408	0.	129.43
511	-4.3259	-6.8617	0.	129.79
512	-4.3554	-6.4003	0.	130.79
513	-5.6379	-3.7708	0.	130.66
514	5.9698	0.34174	0.	125.26
515	0.24089	-0.84561	0.	123.09
516	-5.3441	-4.9517	0.	128.45
517	-2.3583	1.5452	0.	121.98
518	-6.9999	5.9999	0.	121.71
519	4.0658	-7.3071	0.	130.59
520	5.2097	-4.9693	0.	115.99
521	4.9831	6.0856	0.	119.14
522	-2.9998	4.9989	0.	131.69
523	-1.0001	7.	0.	115.27
524	-0.984	3.0398	0.	115.96
525	1.0052	5.0043	0.	129.75
526	-1.0075	-3.022	0.	115.18
527	1.0044	-5.0471	0.	129.
528	-5.9994	3.9994	0.	114.76
529	-3.9613	1.9607	0.	132.63
530	-5.4858	-1.3368	0.	125.21
531	6.9557	-6.6465	0.	128.16
532	-3.5	7.4999	0.	127.68
533	-1.0001	7.5	0.	118.05
534	1.4986	7.5019	0.	127.42
535	1.9979	7.5036	0.	127.63
536	-4.	7.5	0.	127.32
537	-4.5	6.9999	0.	127.55
538	4.8818	-7.6239	0.	123.44
539	4.2996	-7.7094	0.	128.2
540	3.5754	-7.4877	0.	130.71
541	3.0374	-7.6426	0.	129.67
542	2.4564	-7.6085	0.	128.84
543	1.9357	-7.5959	0.	128.39
544	1.4383	-7.586	0.	128.22
545	1.4525	-5.5935	0.	128.96
546	7.4161	-6.6457	0.	126.3
547	7.4139	-7.5337	0.	128.28
548	5.8654	1.2629	0.	124.67
549	6.2709	1.0985	0.	125.54
550	1.3706	-7.0956	0.	130.67
551	-4.2433	-2.398	0.	131.9
552	-3.7468	-2.7349	0.	132.06
553	5.4399	-9.1847e-002	0.	124.15
554	5.8127	-2.0243	0.	127.18
555	3.1647	-4.9495	0.	130.87
556	7.4581	-6.256	0.	125.99
557	7.1669	-4.3976	0.	127.46
558	2.4974	7.5059	0.	128.57
559	2.994	5.5432	0.	130.91
560	-3.	7.5	0.	127.64
561	-1.5	7.5	0.	119.6
562	-3.5	6.9999	0.	128.99
563	1.4975	7.0033	0.	129.08
564	1.4995	5.5076	0.	129.03
565	-0.50014	7.5001	0.	119.37
566	0.99903	7.501	0.	127.1
567	-1.4601	2.5551	0.	119.97
568	-2.963	2.491	0.	128.84
569	2.0329	3.0021	0.	128.37
570	-0.48275	2.5709	0.	120.8
571	1.5159	4.5069	0.	127.83
572	1.5086	2.9851	0.	126.38
573	-1.5155	-2.6223	0.	117.95
574	-3.4468	-4.5248	0.	129.31
575	-3.3545	-3.1555	0.	130.27
576	1.5281	-4.5784	0.	128.32
577	0.98809	-2.5298	0.	125.65
578	-3.3517	-6.8655	0.	130.44
579	-3.431	-5.4721	0.	130.34
580	-6.4996	4.4997	0.	118.39
581	-3.4682	2.4709	0.	130.72
582	-5.4989	4.4984	0.	119.07
583	-3.4992	4.4966	0.	130.72
584	-3.9988	4.4958	0.	129.43
585	-5.4843	-0.42181	0.	121.44
586	-3.3997	1.3895	0.	129.55
587	-4.0373	-0.47107	0.	130.6
588	-6.9998	4.9999	0.	121.64
589	-7.4999	5.	0.	124.15
590	-7.4999	5.4999	0.	123.67
591	-7.4999	5.9999	0.	123.7
592	-5.	6.4997	0.	125.65
593	-6.4999	6.4999	0.	120.13
594	4.4841	5.6091	0.	126.35
595	4.1939	3.6952	0.	127.18
596	4.0034	5.1134	0.	129.02
597	3.0431	1.9802	0.	132.82
598	2.983	0.51661	0.	126.86
599	0.9327	2.4256	0.	121.05
600	2.5435	2.5005	0.	131.79
601	2.1652	-1.7675	0.	128.82
602	0.56705	-1.511	0.	119.55
603	2.9394	3.3547e-002	0.	127.17
604	2.7623	-1.3772	0.	130.82
605	-0.9401	2.0839	0.	122.48
606	0.47552	2.1753	0.	121.04
607	4.5462	1.887	0.	130.39
608	4.4525	3.2496	0.	129.99
609	-5.3486	-5.4442	0.	127.53
610	-4.8587	-5.9224	0.	130.17
611	7.7918	3.533	0.	123.55
612	7.7193	3.0965	0.	124.85
613	8.191	3.5135	0.	123.7
614	-4.8131	-6.8417	0.	130.59
615	-4.8416	-6.3849	0.	130.8
616	-2.2637	1.0607	0.	119.38
617	-5.8241	-4.9923	0.	125.82
618	4.547	2.3558	0.	131.8
619	-1.3344	0.73754	0.	122.23
620	-0.45736	2.0906	0.	124.01
621	2.8291	-0.91507	0.	130.71
622	1.1071	-1.6183	0.	118.88
623	1.6389	-1.7006	0.	124.07
624	2.0257	2.4996	0.	129.14
625	3.0158	1.0032	0.	128.73
626	3.0341	1.4906	0.	131.68
627	4.0384	4.6384	0.	128.01
628	4.0991	4.1664	0.	126.15
629	4.9807	5.6281	0.	123.25
630	-5.9999	6.4998	0.	121.23
631	-5.4999	6.4998	0.	123.65
632	-7.5	6.4999	0.	124.25
633	-6.9999	6.4999	0.	121.64
634	-3.5388	0.90344	0.	132.23
635	-5.0065	-0.4369	0.	125.48
636	-4.5262	-0.4546	0.	128.9
637	-4.4985	4.4961	0.	127.03
638	-4.9986	4.4973	0.	123.11
639	-3.4846	2.9831	0.	132.3
640	-6.9998	4.4999	0.	121.84
641	-7.4999	4.5	0.	125.29
642	-3.4192	-5.9414	0.	131.05
643	-3.3953	-6.4039	0.	131.38
644	-3.4432e-002	-2.488	0.	123.6
645	1.505	-4.0633	0.	128.8
646	1.4842	-3.5559	0.	129.22
647	-3.4157	-3.6021	0.	129.91
648	-3.4503	-4.0582	0.	129.37
649	-1.9473	-2.6778	0.	116.8
650	-2.3851	-2.6783	0.	120.07
651	1.5229	4.0043	0.	127.69
652	-5.2774e-003	2.5836	0.	122.53
653	0.45897	2.5902	0.	123.01
654	-1.9578	2.5413	0.	122.87
655	-3.4974	3.9939	0.	132.31
656	-3.4931	3.4899	0.	133.21
657	-3.1267e-004	7.5002	0.	122.61
658	1.4965	6.5049	0.	130.05
659	-3.5	5.9995	0.	129.26
660	-2.	7.5	0.	123.05
661	-2.5	7.5	0.	126.18
662	3.4917	5.5644	0.	130.69
663	3.9892	5.5866	0.	128.97
664	2.4952	7.0099	0.	130.27
665	2.4929	6.5151	0.	131.4
666	6.6883	-4.3967	0.	125.98
667	7.5418	-5.8355	0.	126.44
668	2.9919	-6.0132	0.	128.05
669	3.1502	-6.5094	0.	127.13
670	4.1462	-4.7331	0.	128.32
671	3.6582	-4.8476	0.	131.13
672	6.3107	-2.0025	0.	125.56
673	6.7821	-1.9741	0.	121.93
674	5.3981	-0.57546	0.	125.5
675	5.3595	-1.063	0.	127.57
676	8.0187	1.6994	0.	122.31
677	8.062	2.1243	0.	122.28
678	7.6456	2.6462	0.	123.66
679	-4.8015	-2.9074	0.	129.14
680	-4.7338	-2.3987	0.	131.04
681	1.2947e-002	-1.3788	0.	123.33
682	-0.3217	-0.90854	0.	125.34
683	-1.026	-2.4857	0.	121.16
684	-3.3055	-2.7179	0.	130.85
685	-2.846	-2.6982	0.	126.12
686	-4.1453	-1.4186	0.	129.8
687	5.9642	5.1862	0.	111.57
688	6.4752	5.6269	0.	119.19
689	2.4925	0.54118	0.	127.21
690	-5.4931	4.8337e-002	0.	120.11
691	-2.9517	-5.4655	0.	131.05
692	-0.49129	3.0467	0.	117.97
693	-2.9994	4.4984	0.	131.92
694	1.0002	5.5038	0.	129.76
695	-1.5001	7.	0.	117.77
696	2.9975	7.5087	0.	130.62
697	-3.608	-0.94635	0.	128.1
698	-7.935	-5.8289	0.	125.51
699	-7.9412	-6.3842	0.	127.32
700	-7.954	-6.8944	0.	128.03
701	5.4751	1.3832	0.	125.5
702	6.0108	1.6271	0.	123.9
703	6.9753	5.6049	0.	123.57
704	7.4753	5.5717	0.	126.34
705	8.2026	3.9711	0.	123.48
706	7.4219	-8.0152	0.	128.67
707	1.3701	-6.0958	0.	130.52
708	3.8768	-7.9809	0.	129.84
709	3.4053	-8.0778	0.	130.05
710	1.9732	-8.0766	0.	128.26
711	1.0096	-8.087	0.	125.5
712	8.1226	-2.9455	0.	123.3
713	8.0867	-4.9332	0.	127.39
714	8.0597	-5.4262	0.	126.86
715	7.8979	-6.4656	0.	125.61
716	-8.	6.	0.	125.4
717	-8.	6.5	0.	125.98
718	-4.5	8.	0.	126.01
719	-3.5	8.	0.	126.22
720	-3.	8.	0.	126.01
721	-0.50008	8.0001	0.	120.92
722	-1.7323e-004	8.0001	0.	122.71
723	0.99948	8.0006	0.	125.59
724	2.4987	8.0036	0.	126.97
725	2.9989	8.005	0.	129.73
726	-2.7769	-7.2739	0.	128.38
727	7.9759	5.5326	0.	127.99
728	-7.3805	-5.8998	0.	121.48
729	-3.5363	-0.48689	0.	131.66
730	-5.963	-0.42403	0.	119.75
731	-5.9864	4.5529e-002	0.	117.61
732	-0.90531	1.6102	0.	125.15
733	-1.0061	-0.13067	0.	129.7
734	2.2439	-1.3196	0.	131.46
735	2.5424	2.0046	0.	134.63
736	-6.3738	-0.91615	0.	118.73
737	-5.8738	-1.3315	0.	121.92
738	6.4589	5.1706	0.	113.35
739	7.9471	5.0289	0.	130.19
740	-5.	6.9999	0.	127.27
741	-6.5	6.9999	0.	118.35
742	-8.	7.	0.	127.15
743	-3.9581	1.4541	0.	132.66
744	-4.0101	7.3544e-004	0.	134.03
745	-5.4988	3.9984	0.	117.56
746	-3.9971	3.9926	0.	131.92
747	-7.9999	4.0002	0.	129.06
748	0.96554	-5.5498	0.	129.03
749	-1.5981	-6.8329	0.	120.17
750	-2.8762	-6.8335	0.	131.35
751	-0.51546	-3.0178	0.	118.02
752	0.97703	-3.0187	0.	128.54
753	-2.9596	-4.5256	0.	129.74
754	-2.8886	-3.1485	0.	128.53
755	1.0109	4.5042	0.	128.74
756	0.99438	2.9832	0.	125.64
757	-1.4795	3.035	0.	118.03
758	-2.9819	2.995	0.	131.6
759	-0.50032	7.0001	0.	117.47
760	0.99834	7.0019	0.	129.29
761	-3.	5.4993	0.	130.79
762	-3.	6.9999	0.	129.79
763	7.4891	6.0478	0.	121.87
764	4.4844	6.073	0.	122.58
765	2.9901	6.0327	0.	132.7
766	5.7024	-4.9141	0.	115.31
767	7.1487	-4.869	0.	130.2
768	3.8055	-6.8613	0.	131.11
769	3.2902	-5.4247	0.	131.59
770	5.8268	-1.5391	0.	129.39
771	-5.1609	-1.8677	0.	131.03
772	1.3456	-6.599	0.	131.82
773	-0.86542	-0.75529	0.	128.13
774	-2.3256	-2.225	0.	113.54
775	-7.8278	-7.4069	0.	125.54
776	-7.9317	-7.9627	0.	126.43
777	-3.6792	-1.4074	0.	132.15
778	-3.2866	-2.2803	0.	133.59
779	-2.8118	-2.2531	0.	124.66
780	-1.2754	-2.0243	0.	126.38
781	-0.43581	-1.5543	0.	126.16
782	-0.66475	-1.154	0.	124.36
783	0.8527	-7.0705	0.	133.49
784	-5.3076	-2.8537	0.	130.54
785	-5.2251	-2.3567	0.	132.06
786	7.5786	2.182	0.	119.55
787	6.4326	1.5081	0.	125.35
788	5.8924	-0.57414	0.	127.55
789	5.8526	-1.0553	0.	129.72
790	6.8061	-1.4886	0.	122.43
791	3.7613	-5.3171	0.	133.58
792	3.5925	-6.3918	0.	128.18
793	7.1247	-5.3323	0.	130.75
794	6.1923	-4.8751	0.	122.43
795	2.9948	7.0145	0.	132.47
796	2.9913	6.5229	0.	133.56
797	3.9861	6.0593	0.	128.45
798	-2.	7.	0.	123.62
799	-2.5	6.9999	0.	128.73
800	-3.	5.9996	0.	131.24
801	0.99779	6.5027	0.	130.88
802	0.49898	7.0009	0.	128.04
803	-6.9016e-004	7.0005	0.	123.05
804	-2.9974	3.9977	0.	133.21
805	-2.9921	3.4968	0.	133.51
806	-2.4798	3.0112	0.	129.49
807	-1.9786	3.0252	0.	123.83
808	0.49538	3.0352	0.	125.89
809	1.0142	4.0036	0.	128.81
810	-2.4232	-3.133	0.	124.84
811	-2.9541	-4.0594	0.	129.84
812	1.0017	-4.0371	0.	129.57
813	0.98626	-3.5261	0.	130.07
814	0.4773	-2.9942	0.	127.46
815	-1.8851e-002	-2.9994	0.	123.21
816	-2.9244	-6.3813	0.	132.71
817	-2.0319	-6.7863	0.	126.68
818	0.91699	-6.0467	0.	131.07
819	-6.9998	3.9999	0.	122.46
820	-7.4999	4.0001	0.	127.65
821	-8.0038	1.0041	0.	127.3
822	-3.9876	2.9818	0.	133.54
823	-4.4973	3.994	0.	129.88
824	-4.9979	3.9966	0.	123.97
825	-5.0021	3.9159e-002	0.	126.46
826	-4.5098	2.3667e-002	0.	132.12
827	-4.0082	0.47539	0.	135.49
828	-4.0006	0.96085	0.	134.65
829	-8.	8.	0.	126.81
830	-8.	7.5	0.	127.86
831	-7.	6.9999	0.	121.43
832	-6.	6.9999	0.	121.27
833	-5.5	6.9998	0.	125.77
834	-5.	8.	0.	127.04
835	7.7343	3.9996	0.	123.89
836	7.8832	4.5215	0.	126.84
837	7.4479	5.0912	0.	131.33
838	6.9535	5.1411	0.	123.98
839	5.4728	5.1871	0.	120.73
840	4.5259	4.6749	0.	129.46
841	4.5901	4.2052	0.	127.5
842	-5.676	-1.7831	0.	129.73
843	-6.1796	-1.8523	0.	126.79
844	-6.2761	-1.3838	0.	120.37
845	2.527	1.0268	0.	130.99
846	2.0352	2.0063	0.	131.88
847	1.2108	-1.1763	0.	114.89
848	1.7268	-1.2618	0.	125.15
849	2.3204	-0.86823	0.	132.52
850	-0.57547	-0.4097	0.	130.35
851	6.0306e-002	1.6318	0.	126.39
852	-0.42123	1.606	0.	128.7
853	-0.87653	1.1489	0.	125.48
854	-0.8812	0.68777	0.	125.42
855	-6.4512	-0.44731	0.	121.16
856	-6.4861	2.9551e-002	0.	120.14
857	-7.5053	0.4963	0.	125.58
858	7.0941	2.2776	0.	122.65
859	7.1717	2.7282	0.	123.88
860	6.0816	1.9973	0.	121.42
861	4.8436	-8.1017	0.	122.26
862	4.8835	-8.5538	0.	121.34
863	-6.305	-5.0059	0.	122.34
864	-6.2834	-4.5751	0.	124.1
865	-8.1713	-4.4059	0.	129.46
866	-8.1577	-4.9045	0.	128.62
867	-6.8159	-5.444	0.	116.42
868	-7.7308	-5.3633	0.	122.25
869	-1.278	-7.263	0.	122.53
870	-1.7222	-7.2405	0.	124.24
871	-3.5127	0.43741	0.	134.66
872	-3.4911	-2.7259e-002	0.	133.83
873	-7.4184	-6.414	0.	125.89
874	-7.4663	-6.9694	0.	128.78
875	-5.3015	-6.8275	0.	130.68
876	-6.8591	-5.9268	0.	117.16
877	-5.845	-5.9327	0.	121.87
878	-6.3489	-5.9421	0.	116.83
879	8.445	1.5317	0.	127.17
880	8.6262	3.4844	0.	124.71
881	8.6124	3.9506	0.	124.54
882	8.4782	5.5038	0.	128.92
883	-5.	8.5	0.	125.06
884	-3.5	8.5	0.	125.15
885	0.99975	8.5004	0.	124.95
886	2.9995	8.5027	0.	127.96
887	-8.	8.5	0.	124.94
888	-8.4134	-7.4444	0.	126.41
889	-8.4462	-6.9322	0.	127.6
890	-8.5674	-5.4291	0.	129.28
891	-8.6442	-3.4629	0.	130.45
892	-8.5283	2.9571e-002	0.	133.48
893	-8.5	3.5004	0.	129.03
894	-8.5	4.5001	0.	127.93
895	-8.5	6.	0.	126.39
896	-8.5	6.5	0.	126.57
897	-8.5	7.	0.	126.79
898	-8.5	7.5	0.	126.51
899	-8.5	8.	0.	125.47
900	-2.2183	-7.6803	0.	123.06
901	-2.1716	-8.1431	0.	122.74
902	-4.1609	-8.6318	0.	129.07
903	-4.6701	-8.6185	0.	130.3
904	-7.5051	-8.5127	0.	138.15
905	-7.9829	-8.4854	0.	129.61
906	-8.4755	-8.4761	0.	128.56
907	7.9514	-8.5016	0.	128.09
908	7.4309	-8.5058	0.	128.32
909	6.9035	-8.5002	0.	127.93
910	6.3601	-8.4675	0.	126.19
911	5.3361	-8.5216	0.	117.54
912	4.406	-8.556	0.	125.44
913	3.9276	-8.5251	0.	128.23
914	3.4482	-8.5508	0.	129.52
915	2.9595	-8.5708	0.	129.9
916	2.4777	-8.5661	0.	129.73
917	1.9933	-8.5597	0.	129.19
918	1.5086	-8.5588	0.	128.4
919	1.0276	-8.5671	0.	128.48
920	8.6338	-1.4457	0.	125.63
921	8.5969	-1.9473	0.	124.34
922	8.5706	-4.4611	0.	126.87
923	8.5587	-4.9604	0.	126.83
924	7.9896	6.0249	0.	125.32
925	8.4893	6.0075	0.	129.71
926	5.796	-8.3703	0.	117.52
927	-6.3545	-6.4338	0.	111.09
928	-3.0195	0.41423	0.	131.02
929	-2.1571	0.56927	0.	113.02
930	-1.7331	-7.6726	0.	121.88
931	-1.6646	-8.1136	0.	119.38
932	-7.7041	-4.906	0.	121.93
933	-6.7798	-4.9658	0.	115.64
934	6.4159	-7.9867	0.	128.68
935	6.5991	2.3742	0.	121.47
936	5.575	2.3863	0.	126.57
937	-8.0237	9.7552e-003	0.	125.65
938	-6.9961	3.1113e-003	0.	121.27
939	-7.5117	-1.6685e-002	0.	114.76
940	-0.38789	1.1138	0.	133.51
941	-0.38721	0.61419	0.	124.88
942	8.935	1.3243	0.	131.66
943	8.8205	0.55166	0.	142.92
944	9.1795	-0.59162	0.	138.78
945	9.1284	-1.0244	0.	133.73
946	9.0878	-1.4936	0.	130.15
947	9.0604	-1.9801	0.	128.06
948	9.045	-4.4762	0.	126.92
949	7.9632	-8.9992	0.	127.86
950	7.4478	-8.9997	0.	127.59
951	6.9282	-8.9928	0.	126.58
952	6.4069	-8.9714	0.	124.18
953	5.8993	-8.9489	0.	121.18
954	3.9589	-9.0263	0.	127.14
955	1.9998	-9.0413	0.	130.57
956	1.5062	-9.0422	0.	130.69
957	-0.52977	-9.1919	0.	106.83
958	-1.0337	-9.0275	0.	119.46
959	-1.5669	-9.0504	0.	126.83
960	-2.077	-9.0666	0.	127.47
961	-2.5841	-9.0802	0.	127.72
962	-3.0924	-9.0871	0.	128.43
963	-4.1048	-9.0836	0.	130.16
964	-4.6068	-9.0755	0.	131.25
965	-5.1044	-9.0658	0.	131.63
966	-5.5925	-9.0546	0.	125.37
967	-6.0759	-9.0448	0.	114.86
968	-6.5554	-9.0342	0.	111.79
969	-7.0342	-9.0227	0.	121.53
970	-7.5156	-9.0097	0.	129.89
971	-8.0017	-8.9954	0.	131.18
972	-8.493	-8.9876	0.	130.
973	-8.9798	-8.4806	0.	128.54
974	-8.9631	-7.9729	0.	127.58
975	-8.9529	-7.4662	0.	127.41
976	-8.9634	-6.9603	0.	128.27
977	-8.9779	-6.4561	0.	129.18
978	-9.0011	-5.9575	0.	129.92
979	-9.0387	-5.4633	0.	130.67
980	-9.0638	-4.9704	0.	131.32
981	-9.0622	-4.4807	0.	131.47
982	-9.0357	-3.9944	0.	131.35
983	-9.0568	-3.5161	0.	130.52
984	-8.9312	-3.0141	0.	131.75
985	-9.0139	-1.9381	0.	138.39
986	-9.0212	-1.4343	0.	133.4
987	-9.0504	-0.94416	0.	131.87
988	-9.0415	-0.45765	0.	134.36
989	-9.0235	2.8033e-002	0.	133.54
990	-9.0115	0.51709	0.	131.59
991	-9.0004	2.502	0.	127.65
992	-9.0002	3.0012	0.	128.
993	-9.	3.5007	0.	128.34
994	-9.	4.0004	0.	128.35
995	-9.	4.5002	0.	128.01
996	-9.	5.5	0.	127.13
997	-9.	6.	0.	126.85
998	-9.	6.5	0.	126.65
999	-9.	7.	0.	126.38
1000	-9.	7.5	0.	125.84
1001	-9.	8.	0.	125.06
1002	-9.	8.5	0.	124.45
1003	1.815	-0.82887	0.	136.55
1004	2.0515	1.5257	0.	142.8
1005	-6.6363	-1.8869	0.	133.
1006	-8.5344	-1.8891	0.	151.4
1007	7.3997	4.6119	0.	139.58
1008	-5.5	7.4999	0.	129.91
1009	-7.5	7.5	0.	129.91
1010	-8.5	9.	0.	124.45
1011	-8.	9.	0.	125.59
1012	-4.5035	0.50285	0.	137.04
1013	-4.4955	3.4915	0.	134.85
1014	-7.4999	3.5002	0.	131.83
1015	0.4164	-6.4751	0.	131.24
1016	-2.4633	-6.3667	0.	135.34
1017	0.49061	-3.5125	0.	131.84
1018	-2.4502	-3.5859	0.	130.73
1019	0.50689	3.5167	0.	130.67
1020	-2.4915	3.5054	0.	134.52
1021	0.49873	6.5013	0.	132.41
1022	-2.5	6.4999	0.	133.26
1023	8.4967	6.5062	0.	132.9
1024	6.4944	6.5468	0.	135.86
1025	3.4901	6.5289	0.	136.36
1026	-5.	9.	0.	125.63
1027	-4.5	9.	0.	124.52
1028	-4.	9.	0.	124.58
1029	-3.5	9.	0.	124.7
1030	-3.	9.	0.	124.59
1031	-2.5	9.	0.	124.18
1032	-2.	9.	0.	123.6
1033	-1.5	9.	0.	123.09
1034	-1.	9.	0.	122.92
1035	-0.50001	9.	0.	123.19
1036	-2.7025e-005	9.	0.	123.81
1037	0.49994	9.0001	0.	124.51
1038	0.99989	9.0002	0.	125.06
1039	1.4998	9.0003	0.	125.36
1040	1.9998	9.0006	0.	125.52
1041	2.4997	9.001	0.	125.89
1042	2.9998	9.0014	0.	127.68
1043	6.6637	-5.3155	0.	137.9
1044	3.8685	-5.7926	0.	137.49
1045	7.0175	1.8265	0.	124.27
1046	9.1592	-0.19087	0.	134.73
1047	-5.7018	-2.3167	0.	140.35
1048	-8.5102	-2.3744	0.	145.91
1049	0.37228	-6.8694	0.	134.72
1050	0.52808	-9.0426	0.	135.68
1051	-1.038	-1.3847	0.	132.92
1052	-5.1715	-8.5994	0.	135.61
1053	9.	9.0002	0.	126.86
1054	8.9845	-8.9967	0.	127.64
1055	-8.992	-8.9883	0.	129.61
1056	-9.	9.	0.	124.46
1057	0.84124	-0.56433	0.	115.
1058	-2.8156e-003	-2.9446e-002	0.	131.38
1059	0.41075	-0.31013	0.	121.35
1060	0.10437	1.1088	0.	131.44
1061	0.58749	1.2286	0.	115.78
1062	1.5571	1.502	0.	118.45
1063	1.0678	1.3841	0.	110.59
1064	1.8884	-0.39037	0.	133.31
1065	1.9499	7.6388e-002	0.	131.58
1066	2.0089	0.56257	0.	135.74
1067	2.0518	1.0479	0.	132.46
1068	-6.961	-0.48935	0.	125.68
1069	-6.6896	-1.427	0.	113.51
1070	-6.829	-0.96208	0.	129.29
1071	-7.09	-1.9124	0.	110.19
1072	-8.0565	-1.8951	0.	128.09
1073	-7.5682	-1.9048	0.	91.521
1074	-8.5072	-1.3574	0.	125.52
1075	-8.0709	-0.47295	0.	131.62
1076	-8.2123	-0.92204	0.	141.34
1077	5.5433	2.873	0.	130.12
1078	5.1959	3.7884	0.	141.6
1079	5.3872	3.3346	0.	126.94
1080	6.929	4.6854	0.	129.22
1081	6.4431	4.7166	0.	106.42
1082	5.9491	4.7342	0.	106.32
1083	5.4651	4.7388	0.	125.14
1084	7.2944	4.1413	0.	120.89
1085	6.6774	2.8263	0.	125.51
1086	6.8473	3.268	0.	120.45
1087	7.0652	3.7056	0.	138.94
1088	-5.5	8.	0.	129.64
1089	-5.5	8.5	0.	129.51
1090	-5.5	9.	0.	128.95
1091	-7.5	8.	0.	129.6
1092	-7.5	9.	0.	128.95
1093	-7.5	8.5	0.	129.45
1094	-4.4969	0.98976	0.	136.32
1095	-4.4838	1.4832	0.	137.3
1096	-4.4819	1.9824	0.	138.63
1097	-4.4876	2.485	0.	136.94
1098	-4.4927	2.9886	0.	134.61
1099	-7.5022	0.99995	0.	127.29
1100	-7.5008	1.5007	0.	131.43
1101	-7.5002	2.0007	0.	133.86
1102	-7.5	3.0003	0.	130.99
1103	-7.5	2.5005	0.	132.9
1104	-6.7911e-002	-6.4654	0.	113.54
1105	-0.55435	-6.4909	0.	104.22
1106	-1.0422	-6.4515	0.	111.11
1107	-2.0015	-6.3877	0.	127.05
1108	-1.5281	-6.4168	0.	113.73
1109	-6.9405e-003	-3.5029	0.	124.34
1110	-0.5036	-3.5097	0.	113.17
1111	-0.99752	-3.5168	0.	112.66
1112	-1.4858	-3.5371	0.	111.6
1113	-1.9709	-3.56	0.	121.76
1114	4.2838e-003	3.5237	0.	124.8
1115	-0.49525	3.5234	0.	113.96
1116	-0.99333	3.5201	0.	114.53
1117	-1.9913	3.512	0.	125.94
1118	-1.4915	3.5172	0.	114.74
1119	-6.5107e-004	6.5005	0.	124.99
1120	-0.50027	6.5001	0.	114.
1121	-1.0001	6.5	0.	114.
1122	-1.5001	6.5	0.	114.36
1123	-2.	6.5	0.	125.73
1124	-5.	0.51734	0.	128.67
1125	-5.4979	0.52285	0.	116.69
1126	-5.9966	0.52094	0.	116.17
1127	-7.0012	0.50196	0.	121.99
1128	-6.4976	0.5136	0.	114.73
1129	-5.499	3.499	0.	114.5
1130	-5.9996	3.4996	0.	113.84
1131	-6.4998	3.4999	0.	113.6
1132	-6.9999	3.5	0.	124.49
1133	-6.	7.4999	0.	122.68
1134	-7.	7.5	0.	122.7
1135	-6.5	7.5	0.	112.66
1136	0.50007	-4.02	0.	130.45
1137	0.45495	-6.0073	0.	129.74
1138	0.48074	-5.5158	0.	131.34
1139	0.49838	-5.0192	0.	133.15
1140	0.50365	-4.5204	0.	132.31
1141	-2.4732	-5.4714	0.	135.08
1142	-2.4709	-4.0456	0.	130.12
1143	-2.4765	-4.5177	0.	133.78
1144	-2.4759	-4.9948	0.	135.63
1145	0.49911	6.0014	0.	131.89
1146	0.50734	4.0073	0.	130.34
1147	0.50534	4.5034	0.	133.33
1148	0.50312	5.0022	0.	135.24
1149	0.50037	5.5017	0.	133.98
1150	-2.4977	4.0016	0.	134.16
1151	-2.4995	4.5001	0.	135.94
1152	-2.5	5.9998	0.	132.9
1153	-2.5	5.4997	0.	135.4
1154	-2.4999	4.9997	0.	137.31
1155	8.5	9.0002	0.	129.92
1156	8.5	8.5004	0.	132.98
1157	8.4996	7.0034	0.	132.27
1158	8.4999	7.5015	0.	133.2
1159	8.5	8.0007	0.	134.84
1160	7.9968	6.5135	0.	124.17
1161	6.9954	6.5356	0.	127.19
1162	7.4964	6.5241	0.	113.51
1163	6.5	9.0002	0.	134.75
1164	6.5	8.5006	0.	141.97
1165	6.499	7.0185	0.	134.69
1166	6.4999	7.5057	0.	141.95
1167	6.5	8.0017	0.	145.26
1168	5.9932	6.5465	0.	126.9
1169	5.4916	6.5455	0.	116.07
1170	3.9901	6.5313	0.	129.1
1171	4.4904	6.5367	0.	118.06
1172	4.9908	6.5422	0.	117.79
1173	3.4958	7.0149	0.	135.09
1174	3.4999	9.001	0.	130.85
1175	3.4998	8.5019	0.	135.05
1176	3.4995	8.0038	0.	137.02
1177	3.4986	7.5071	0.	135.8
1178	6.1999	-5.3283	0.	122.99
1179	5.7265	-5.3897	0.	112.28
1180	5.2479	-5.4722	0.	114.74
1181	4.7737	-5.5728	0.	116.86
1182	4.3123	-5.6795	0.	134.28
1183	6.6399	-5.7661	0.	128.65
1184	6.5555	-6.2059	0.	136.87
1185	6.4908	-6.6129	0.	133.25
1186	6.2948	-7.4648	0.	128.08
1187	6.4168	-6.9995	0.	129.1
1188	5.3254	-8.0106	0.	114.28
1189	4.5498	-7.1412	0.	124.5
1190	4.0075	-6.268	0.	124.92
1191	4.2528	-6.7101	0.	140.82
1192	6.3737	-0.56389	0.	127.57
1193	6.8709	1.3896	0.	131.61
1194	6.7111	0.9343	0.	124.03
1195	6.4952	0.44823	0.	129.47
1196	6.4441	-7.6228e-002	0.	133.34
1197	7.53	1.6852	0.	110.02
1198	7.8595	1.3205	0.	119.77
1199	8.2318	1.0725	0.	120.34
1200	9.0407	0.19863	0.	128.2
1201	8.5792	0.84392	0.	130.71
1202	7.7782	-0.85052	0.	113.82
1203	8.7767	-0.49065	0.	141.41
1204	-5.7745	-2.8111	0.	125.85
1205	-5.9521	-3.2633	0.	143.77
1206	-6.7255	-4.5161	0.	120.62
1207	-6.1734	-3.6892	0.	128.67
1208	-7.7025	-4.4693	0.	127.01
1209	-8.4292	-2.8389	0.	125.61
1210	-8.2407	-3.2775	0.	137.74
1211	-8.0566	-3.7136	0.	128.04
1212	-7.8347	-4.0858	0.	121.96
1213	-8.0341	-2.3071	0.	129.29
1214	-7.5573	-2.3064	0.	96.161
1215	-7.0871	-2.325	0.	109.02
1216	-6.1635	-2.3306	0.	134.4
1217	-6.6233	-2.3349	0.	116.2
1218	0.41764	-7.2571	0.	133.33
1219	0.55674	-8.5831	0.	128.34
1220	0.53648	-8.1248	0.	129.99
1221	0.49162	-7.672	0.	127.91
1222	4.8826e-002	-8.9971	0.	109.58
1223	-0.39301	-8.825	0.	105.35
1224	-1.1883	-8.546	0.	125.95
1225	-0.79717	-8.6432	0.	109.91
1226	-1.2956	-7.6385	0.	125.2
1227	-9.486e-002	-6.9059	0.	101.93
1228	-0.61332	-7.0356	0.	108.55
1229	-0.9375	-7.4239	0.	115.34
1230	-1.4336	-1.5784	0.	136.86
1231	-2.8019	-1.8114	0.	125.97
1232	-2.3354	-1.7644	0.	107.18
1233	-1.8721	-1.704	0.	112.32
1234	-1.9386	0.13327	0.	116.82
1235	-1.7215	-0.26005	0.	120.5
1236	-1.2151	-0.97727	0.	123.59
1237	-1.4708	-0.62109	0.	137.7
1238	-3.2222	-1.3942	0.	130.32
1239	-2.9291	-6.4115e-002	0.	134.46
1240	-3.0238	-0.51068	0.	132.39
1241	-6.5835	-8.5478	0.	106.56
1242	-6.1244	-8.5658	0.	105.87
1243	-6.8976	-6.8524	0.	124.43
1244	-7.0504	-7.2136	0.	127.05
1245	-7.2981	-7.5751	0.	139.33
1246	-7.4537	-8.0217	0.	118.63
1247	9.5	9.0001	0.	124.23
1248	9.5	8.5002	0.	124.24
1249	9.5001	8.0005	0.	124.76
1250	9.5001	7.5008	0.	125.87
1251	9.4999	7.0011	0.	127.32
1252	9.4978	6.5001	0.	128.62
1253	9.4949	5.9988	0.	129.08
1254	9.4912	5.4966	0.	128.81
1255	9.489	4.995	0.	128.12
1256	9.4963	4.4959	0.	127.4
1257	9.5184	3.9965	0.	127.1
1258	9.5313	3.4942	0.	127.52
1259	9.527	2.9846	0.	128.58
1260	9.5166	2.4679	0.	129.92
1261	9.4966	1.9487	0.	131.06
1262	9.4912	1.4444	0.	132.07
1263	9.1625	0.84287	0.	134.28
1264	9.4795	0.45992	0.	131.77
1265	9.5608	-5.6524e-002	0.	128.74
1266	9.5813	-0.5424	0.	132.79
1267	9.5654	-1.0223	0.	133.68
1268	9.545	-1.5061	0.	132.4
1269	9.5301	-1.9963	0.	131.1
1270	9.5165	-2.9888	0.	129.1
1271	9.5188	-3.4884	0.	128.37
1272	9.5213	-3.9888	0.	127.7
1273	9.5213	-4.4896	0.	127.03
1274	9.5171	-4.9911	0.	126.37
1275	9.5099	-5.4929	0.	125.78
1276	9.5001	-5.9944	0.	125.4
1277	9.4896	-6.4949	0.	125.34
1278	9.4864	-6.9954	0.	125.59
1279	9.4865	-7.496	0.	126.07
1280	9.4879	-7.9966	0.	126.66
1281	9.4898	-8.4972	0.	127.22
1282	9.4924	-8.9978	0.	127.65
1283	9.4957	-9.4987	0.	127.93
1284	8.9916	-9.4981	0.	127.76
1285	8.4866	-9.4984	0.	127.74
1286	7.9795	-9.4984	0.	127.59
1287	7.472	-9.498	0.	127.03
1288	6.9635	-9.494	0.	125.79
1289	6.457	-9.485	0.	123.86
1290	5.957	-9.4824	0.	121.84
1291	5.4627	-9.4989	0.	120.97
1292	4.9689	-9.5118	0.	121.87
1293	4.4752	-9.5153	0.	124.11
1294	3.9819	-9.5151	0.	126.57
1295	2.9941	-9.5205	0.	130.08
1296	2.4973	-9.5214	0.	131.02
1297	2.0002	-9.5211	0.	131.61
1298	1.5015	-9.5218	0.	131.72
1299	1.0006	-9.5205	0.	131.14
1300	0.48559	-9.5114	0.	124.48
1301	-6.8065e-002	-9.4664	0.	111.21
1302	-0.55576	-9.5728	0.	110.41
1303	-1.0355	-9.5297	0.	116.91
1304	-1.5327	-9.5252	0.	123.76
1305	-2.0366	-9.5324	0.	127.37
1306	-2.5403	-9.5387	0.	128.61
1307	-3.0447	-9.5421	0.	129.38
1308	-3.5498	-9.5448	0.	130.11
1309	-4.0523	-9.5416	0.	130.74
1310	-4.5528	-9.5372	0.	130.81
1311	-5.0511	-9.5332	0.	128.87
1312	-5.5443	-9.5278	0.	123.88
1313	-6.0367	-9.523	0.	117.38
1314	-6.528	-9.5179	0.	115.68
1315	-7.0191	-9.5122	0.	120.44
1316	-7.511	-9.5057	0.	126.34
1317	-8.0044	-9.4993	0.	129.53
1318	-8.4998	-9.4953	0.	130.26
1319	-8.9979	-9.4947	0.	130.12
1320	-9.4982	-9.4965	0.	130.11
1321	-9.4948	-8.993	0.	129.53
1322	-9.489	-8.4895	0.	128.79
1323	-9.482	-7.9863	0.	128.25
1324	-9.4786	-7.4841	0.	128.32
1325	-9.4824	-6.9825	0.	128.98
1326	-9.4902	-6.4819	0.	129.95
1327	-9.5022	-5.983	0.	130.89
1328	-9.5182	-5.4847	0.	131.65
1329	-9.5291	-4.9866	0.	132.
1330	-9.529	-4.4902	0.	131.85
1331	-9.5215	-3.9954	0.	131.28
1332	-9.5153	-3.4972	0.	130.89
1333	-9.4818	-2.9947	0.	131.45
1334	-9.4909	-2.4863	0.	133.1
1335	-9.5044	-1.9765	0.	133.71
1336	-9.5121	-1.4735	0.	132.61
1337	-9.5214	-0.97522	0.	132.39
1338	-9.52	-0.479	0.	132.89
1339	-9.5129	1.5544e-002	0.	132.94
1340	-9.5069	0.51039	0.	131.84
1341	-9.5034	1.0066	0.	130.29
1342	-9.5015	1.5041	0.	128.86
1343	-9.5007	2.0023	0.	127.89
1344	-9.5003	2.5013	0.	127.5
1345	-9.5001	3.0008	0.	127.58
1346	-9.5001	3.5005	0.	127.85
1347	-9.5	4.0002	0.	128.06
1348	-9.5	4.5001	0.	128.07
1349	-9.5	5.0001	0.	127.88
1350	-9.5	5.5	0.	127.56
1351	-9.5	6.	0.	127.15
1352	-9.5	6.5	0.	126.66
1353	-9.5	7.	0.	126.06
1354	-9.5	7.5	0.	125.38
1355	-9.5	8.	0.	124.75
1356	-9.5	8.5	0.	124.38
1357	-9.5	9.	0.	124.43
1358	-9.5	9.5	0.	124.85
1359	-9.	9.5	0.	125.05
1360	-8.5	9.5	0.	125.21
1361	-8.	9.5	0.	125.9
1362	-7.5	9.5	0.	128.73
1363	-7.	9.5	0.	125.31
1364	-6.5	9.5	0.	116.66
1365	-6.	9.5	0.	125.35
1366	-5.5	9.5	0.	128.76
1367	-5.	9.5	0.	125.94
1368	-4.5	9.5	0.	125.23
1369	-4.	9.5	0.	125.02
1370	-3.5	9.5	0.	124.81
1371	-3.	9.5	0.	124.5
1372	-2.5	9.5	0.	124.12
1373	-2.	9.5	0.	123.74
1374	-1.5	9.5	0.	123.48
1375	-1.	9.5	0.	123.46
1376	-0.50001	9.5	0.	123.73
1377	-1.2879e-005	9.5	0.	124.26
1378	0.49997	9.5	0.	124.93
1379	0.99995	9.5001	0.	125.63
1380	1.4999	9.5002	0.	126.29
1381	1.9999	9.5003	0.	126.86
1382	2.4999	9.5005	0.	127.39
1383	2.9999	9.5006	0.	128.21
1384	3.5	9.5004	0.	131.02
1385	4.	9.5001	0.	128.39
1386	4.5	9.5	0.	120.22
1387	5.	9.5	0.	121.19
1388	5.5	9.5	0.	120.12
1389	6.	9.5	0.	127.85
1390	6.5	9.5001	0.	132.87
1391	7.	9.5	0.	126.43
1392	7.5	9.5	0.	115.94
1393	8.	9.5	0.	125.01
1394	8.5	9.5001	0.	129.02
1395	9.	9.5001	0.	126.22
1396	9.5	9.5001	0.	124.84
1397	-5.8013	-6.8581	0.	129.71
1398	-5.2624	-8.1344	0.	122.01
1399	-5.3828	-7.6583	0.	134.05
1400	-5.6911	-7.2686	0.	129.85
1401	4.9401	-7.2846e-002	0.	124.35
1402	8.5779	-3.4626	0.	125.81
1403	-0.50004	8.5	0.	122.2
1404	5.0141	2.8336	0.	131.51
1405	5.0567	2.3612	0.	131.62
1406	1.4763e-002	2.1166	0.	124.07
1407	-2.9568	-4.9961	0.	130.94
1408	7.9431	-8.0056	0.	127.99
1409	8.4665	-8.4973	0.	127.72
1410	-4.	6.4997	0.	128.17
1411	9.0361	-4.9783	0.	126.59
1412	-3.1285	-0.95123	0.	137.49
1413	-7.9999	5.5	0.	125.43
1414	6.3392	-1.0418	0.	136.2
1415	4.4981	5.1417	0.	130.17
1416	-3.6505	-8.6402	0.	128.2
1417	7.0124	-6.219	0.	126.32
1418	6.9016	-7.0926	0.	128.66
1419	8.4266	4.4244	0.	125.6
1420	3.9788	0.4603	0.	126.01
1421	8.9788	-8.4959	0.	127.4
1422	8.9767	-6.488	0.	125.7
1423	8.5289	2.0116	0.	127.09
1424	1.0192	1.8825	0.	114.12
1425	-1.4682	0.32208	0.	122.66
1426	-1.	8.	0.	120.21
1427	-5.9253	-0.88253	0.	120.11
1428	-4.5	8.5	0.	124.84
1429	5.5978	1.8672	0.	124.75
1430	-8.	3.0006	0.	129.69
1431	-1.9569	-3.114	0.	119.04
1432	3.4321	-5.9068	0.	128.88
1433	-9.	5.0001	0.	127.54
1434	9.0713	3.4871	0.	126.24
1435	-8.5051	1.0091	0.	128.36
1436	5.9968	-7.8699	0.	129.2
1437	4.0475	-4.2695	0.	127.73
1438	-5.3493	-5.9203	0.	127.82
1439	-4.9385	-3.4118	0.	128.83
1440	-4.2017	-1.8998	0.	131.94
1441	2.0093	-4.0813	0.	128.98
1442	8.5363	-5.4619	0.	126.37
1443	8.5812	-3.9612	0.	126.48
1444	-8.6187	-4.4763	0.	131.02
1445	-7.9999	4.5001	0.	127.3
1446	-4.5	7.4999	0.	127.28
1447	-6.4005	-4.1367	0.	122.78
1448	2.4433	6.133e-002	0.	128.3
1449	-1.8741	1.592	0.	120.98
1450	8.4749	-8.9976	0.	127.78
1451	8.7101	-0.97514	0.	130.47
1452	8.1206	-3.4475	0.	124.76
1453	-8.5124	-3.9758	0.	129.91
1454	-9.0023	1.5059	0.	128.31
1455	-5.2551	-7.245	0.	129.29
1456	6.0902	2.4275	0.	114.26
1457	-2.9287	-3.6011	0.	129.77
1458	-1.4822	-3.072	0.	115.18
1459	5.9401	-9.8865e-002	0.	124.08
1460	5.0432	4.2456	0.	123.21
1461	6.9877	6.0689	0.	124.38
1462	-3.9936	3.4884	0.	133.76
1463	7.4206	-7.0692	0.	127.29
1464	7.5896	-5.3725	0.	128.15
1465	1.483	-3.0679	0.	128.56
1466	-8.4163e-005	8.5001	0.	123.2
1467	-2.6309	-8.6237	0.	126.09
1468	7.0809	-5.7853	0.	128.95
1469	-1.5	8.	0.	121.07
1470	8.9987	-5.9849	0.	125.77
1471	8.9739	4.9865	0.	127.89
1472	6.6736	-4.8608	0.	129.31
1473	-1.3515	1.1636	0.	122.3
1474	0.49983	8.5002	0.	124.26
1475	1.9989	8.0023	0.	126.12
1476	-3.	8.5	0.	125.02
1477	2.4604	-8.0878	0.	129.16
1478	6.4863	6.0843	0.	126.21
1479	4.4408	-9.0327	0.	124.48
1480	-4.	8.	0.	126.03
1481	9.0005	1.9	0.	129.94
1482	1.9949	6.0121	0.	130.11
1483	9.0452	-3.4755	0.	127.07
1484	-8.5007	2.003	0.	127.46
1485	-8.5001	3.0009	0.	128.46
1486	8.9995	7.0023	0.	129.94
1487	-8.0005	2.0018	0.	128.57
1488	8.1289	-2.4339	0.	121.72
1489	-2.7028	1.0046	0.	123.18
1490	-7.0407	-8.5304	0.	127.19
1491	2.8315	-5.525	0.	129.31
1492	5.0231	0.90575	0.	125.33
1493	-5.6567	-8.5819	0.	132.29
1494	2.0412	3.5064	0.	128.01
1495	-2.1278	-8.6039	0.	125.1
1496	2.5099	-4.0648	0.	129.45
1497	-1.	8.5	0.	121.8
1498	3.9633	-3.8091	0.	127.73
1499	-2.5	8.	0.	124.93
1500	4.6421	-4.6024	0.	123.08
1501	-4.8663	-5.4499	0.	129.57
1502	7.4332	3.5956	0.	126.34
1503	-8.4606	-6.4189	0.	128.4
1504	4.8953	3.2944	0.	131.8
1505	-3.7618	-2.3237	0.	133.99
1506	4.9856	5.1693	0.	129.34
1507	-6.4996	3.9997	0.	116.83
1508	9.065	2.9816	0.	127.14
1509	3.3911	-0.48045	0.	127.7
1510	8.113	2.5805	0.	123.98
1511	-2.5	8.5	0.	124.35
1512	0.49934	7.5006	0.	125.61
1513	2.4906	-9.0435	0.	130.45
1514	-5.8402	-6.4042	0.	122.85
1515	3.3429	-7.001	0.	129.06
1516	-4.8324	-4.5034	0.	129.64
1517	1.0124	-4.5468	0.	128.65
1518	-2.4714	-5.9321	0.	133.11
1519	8.4559	-7.4956	0.	126.85
1520	-9.6447e-002	-1.9507	0.	124.05
1521	-3.4999	5.499	0.	129.06
1522	1.4933	2.4728	0.	123.89
1523	1.5222	1.9727	0.	121.73
1524	-8.	3.5004	0.	130.19
1525	-2.5487	0.42711	0.	121.27
1526	-6.8844	-6.4121	0.	119.97
1527	9.0456	3.9849	0.	125.97
1528	-8.0015	1.5029	0.	127.44
1529	-8.0001	2.5011	0.	128.62
1530	-9.0054	1.0102	0.	129.64
1531	-0.83583	-1.7895	0.	129.32
1532	-3.2883	-7.3069	0.	128.66
1533	1.3116	-0.75608	0.	106.29
1534	-5.9997	5.4995	0.	120.11
1535	-1.7832	-2.2165	0.	116.69
1536	4.2383	-5.2008	0.	129.56
1537	-6.3269	-5.4664	0.	119.21
1538	2.3869	-0.40806	0.	130.9
1539	1.4969	6.0067	0.	129.79
1540	9.0421	-2.975	0.	127.05
1541	8.9915	5.9999	0.	130.14
1542	-2.4582	2.5186	0.	126.28
1543	-7.2939	-5.407	0.	117.63
1544	6.3201	-1.5197	0.	128.97
1545	8.2927	-0.77766	0.	119.57
1546	-1.3734	-0.10138	0.	127.08
1547	-2.	8.5	0.	123.27
1548	5.7097	-4.4306	0.	118.82
1549	7.617	-4.8976	0.	128.45
1550	8.9817	4.4801	0.	126.62
1551	-7.2455	-4.9002	0.	112.73
1552	-8.1341	-5.3683	0.	126.62
1553	8.1525	-1.9107	0.	120.28
1554	-1.7675	0.69982	0.	118.82
1555	-8.5	5.0001	0.	127.08
1556	-4.2495	-2.9397	0.	130.67
1557	2.8879	-0.44314	0.	129.08
1558	-3.2646	-1.8402	0.	141.61
1559	8.4517	-6.4786	0.	125.71
1560	-3.6007	-9.0885	0.	129.31
1561	-5.8402	-4.5576	0.	127.79
1562	1.9995	8.5013	0.	125.29
1563	0.95468	-7.5992	0.	127.89
1564	0.54067	1.7279	0.	119.93
1565	7.933	-7.0062	0.	126.42
1566	-4.2946	-7.3091	0.	127.91
1567	6.5395	1.9314	0.	123.59
1568	0.88455	-6.5485	0.	133.89
1569	9.0001	8.0009	0.	128.42
1570	-1.3899	1.6152	0.	122.13
1571	2.9816	-9.0428	0.	130.
1572	8.1032	-4.4387	0.	127.03
1573	6.8209	-1.0152	0.	124.13
1574	-4.9974	3.4968	0.	126.43
1575	-0.47019	0.11255	0.	129.19
1576	-1.6345	-8.5788	0.	129.14
1577	2.4757	-3.135	0.	129.37
1578	3.4708	-9.0342	0.	128.97
1579	4.716	3.7438	0.	126.87
1580	8.983	5.4947	0.	129.03
1581	-0.60565	-2.1575	0.	125.
1582	8.6109	2.9994	0.	125.54
1583	8.497	-5.9688	0.	125.83
1584	1.5225	3.4969	0.	127.53
1585	8.4505	-6.9891	0.	126.14
1586	3.4876	-9.5176	0.	128.63
1587	-7.5	7.	0.	125.95
1588	-5.9998	5.9997	0.	120.85
1589	-8.612	-0.89719	0.	134.93
1590	-6.3994e-006	3.0511	0.	122.66
1591	4.3857	-8.1127	0.	126.95
1592	4.9267	-9.028	0.	121.49
1593	9.0428	2.4587	0.	128.36
1594	9.0471	-2.4757	0.	127.26
1595	8.007	-5.9293	0.	125.96
1596	9.523	-2.4911	0.	130.
1597	8.9748	-7.9951	0.	127.01
1598	4.898	-0.56415	0.	125.48
1599	8.5794	-2.959	0.	125.03
1600	8.4601	-7.9978	0.	127.42
1601	-7.9999	5.	0.	126.05
1602	-2.2415	-7.1896	0.	126.63
1603	-8.4862	-5.9158	0.	128.6
1604	-1.5	8.5	0.	122.24
1605	3.5078	5.0823	0.	129.3
1606	-5.454	-3.3268	0.	128.44
1607	5.0233	1.3944	0.	127.
1608	1.0151	-9.0454	0.	131.29
1609	-8.5124	0.5162	0.	130.15
1610	3.4884	6.0463	0.	132.74
1611	4.9982	4.71	0.	141.23
1612	-5.3453	-4.4113	0.	129.69
1613	-3.9761	2.4728	0.	132.51
1614	2.4929	6.0212	0.	131.19
1615	1.4991	8.0013	0.	125.94
1616	7.2978	-0.9387	0.	110.09
1617	-9.001	2.0035	0.	127.69
1618	2.9331	-8.1129	0.	129.75
1619	8.9701	-6.9909	0.	125.98
1620	-3.5	6.4997	0.	129.57
1621	2.4761	-3.5924	0.	129.43
1622	9.05	-3.9755	0.	127.07
1623	-3.7306	-1.8691	0.	134.5
1624	7.2857	3.1688	0.	126.4
1625	-3.7926	-7.3163	0.	128.41
1626	-3.1395	-8.6362	0.	127.24
1627	2.4994	8.5022	0.	125.96
1628	7.648	-3.9316	0.	125.77
1629	-8.5	4.0003	0.	128.77
1630	-5.336	-6.3813	0.	130.13
1631	8.5764	2.5058	0.	126.25
1632	9.	7.5015	0.	128.72
1633	-8.5003	2.5018	0.	127.82
1634	-1.8153	1.1344	0.	119.45
1635	-8.0098	0.50609	0.	126.3
1636	9.	8.5005	0.	127.24
1637	4.7207	-5.0818	0.	121.65
1638	9.0206	-5.4811	0.	126.14
1639	-1.1228	-6.8891	0.	113.75
1640	-8.9904	-2.4586	0.	136.56
1641	0.70889	-1.0303	0.	115.11
1642	1.4996	8.5008	0.	125.2
1643	8.9715	-7.4937	0.	126.49
1644	-4.0866	-0.94215	0.	128.85
1645	2.5406	1.5139	0.	134.64
1646	8.9969	6.502	0.	130.73
1647	-5.	7.4999	0.	128.12
1648	-3.	6.4997	0.	131.31
1649	0.99831	6.0035	0.	130.7
1650	-4.7904	-7.2848	0.	128.63
1651	-2.9432	-5.9264	0.	132.19
1652	8.2003	-1.3608	0.	119.76
1653	1.0117	3.4993	0.	128.24
1654	5.4115	-8.9992	0.	119.7
1655	-8.5634	-0.44349	0.	134.9
1656	8.1171	-3.9423	0.	126.05
1657	4.5197	2.8106	0.	132.18
1658	-0.94733	0.24798	0.	125.68
1659	6.2036	-4.4099	0.	122.26
1660	-3.1097	0.88521	0.	128.54
1661	-2.4418	-6.781	0.	130.93
1662	5.0591	1.8803	0.	128.95
1663	-8.6027	-4.9442	0.	130.29
1664	-8.4421	-7.9589	0.	126.1
1665	-8.5022	1.5053	0.	127.61
1666	-8.5	8.5	0.	124.57
1667	-4.	8.5	0.	124.92
1668	5.3238	-1.5528	0.	128.09
1669	-5.8362	-5.4596	0.	123.67
1670	8.457	4.9813	0.	128.
1671	1.4853	-8.075	0.	127.15
1672	8.1628	3.0419	0.	124.39
1673	8.5861	-2.4537	0.	124.4
1674	4.9399	-4.0091	0.	122.42
1675	-2.	8.	0.	123.
1676	0.49964	8.0004	0.	124.53
1677	7.9376	-7.5103	0.	127.37
1678	-8.5	5.5	0.	126.54
1679	-5.4996	5.4991	0.	121.36
1680	5.4779	5.638	0.	119.41
1681	5.4841	6.0909	0.	118.54
1682	5.9761	5.637	0.	117.12
1683	5.9852	6.0906	0.	122.
1684	6.7419	-3.4404	0.	123.33
1685	2.6024	-2.2611	0.	129.59
1686	-4.7432	-8.165	0.	128.42
1687	-4.8017	-7.7208	0.	124.69
1688	-4.2201	-8.1873	0.	127.19
1689	-4.2679	-7.7471	0.	127.15
1690	-3.7015	-8.1958	0.	127.42
1691	-3.749	-7.7547	0.	127.31
1692	-3.187	-8.1892	0.	126.59
1693	-3.2352	-7.7448	0.	127.11
1694	-2.6777	-8.1693	0.	124.78
1695	-2.7241	-7.7162	0.	125.75
1696	6.9019	-8.007	0.	129.39
1697	6.8743	-7.5285	0.	129.2
1698	7.662	-3.4391	0.	124.05
1699	7.2017	-3.4353	0.	123.64
1700	7.6728	-2.9391	0.	122.25
1701	7.2196	-2.9432	0.	122.1
1702	7.6848	-2.4308	0.	120.19
1703	7.2331	-2.4421	0.	120.39
1704	7.7086	-1.9128	0.	117.48
1705	7.2486	-1.9403	0.	118.3
1706	7.7452	-1.3847	0.	114.61
1707	7.2774	-1.4376	0.	114.35
1708	0.48297	-1.995	0.	122.31
1709	-0.12626	-0.53545	0.	127.9
1710	9.5555	0.96835	0.	131.33
1711	8.5255	0.1207	0.	135.57
1712	8.4651	-0.11657	0.	134.71
1713	8.8703	7.4313e-002	0.	148.9
1714	8.7383	-0.27033	0.	155.25
1715	7.4836	1.1402	0.	105.9
1716	7.25	1.0738	0.	125.58
1717	7.0904	1.3498	0.	126.64
1718	7.42	1.4976	0.	115.66
1719	7.0634	-0.51385	0.	132.64
1720	6.89	-0.34375	0.	145.56
1721	6.6018	-0.57195	0.	140.64
1722	6.8254	-0.79762	0.	139.81
1723	5.5217	4.08	0.	139.67
1724	5.66	4.3	0.	140.44
1725	5.4326	4.5244	0.	147.32
1726	5.2216	4.2778	0.	146.46
1727	6.0083	3.16	0.	107.28
1728	6.2683	3.15	0.	104.23
1729	5.8367	2.9015	0.	119.24
1730	6.4037	2.8782	0.	116.89
1731	6.1101	2.6787	0.	111.3
1732	6.7	4.26	0.	139.57
1733	6.8217	4.03	0.	134.28
1734	6.9445	4.4677	0.	149.11
1735	7.1272	4.1957	0.	145.41
1736	4.495	-6.3513	0.	132.13
1737	4.57	-6.1175	0.	136.05
1738	4.3212	-5.9248	0.	149.95
1739	4.1688	-6.219	0.	145.63
1740	5.485	-7.4387	0.	105.95
1741	5.725	-7.3863	0.	118.73
1742	5.4877	-7.8153	0.	114.07
1743	5.8234	-7.7449	0.	122.07
1744	6.01	-5.8025	0.	134.19
1745	6.175	-5.9838	0.	144.94
1746	6.2249	-5.5391	0.	140.39
1747	6.4449	-5.758	0.	142.7
1748	-0.195	-7.39	0.	106.16
1749	1.e-002	-7.4867	0.	132.27
1750	0.20382	-7.2586	0.	130.67
1751	-5.243e-002	-7.083	0.	115.44
1752	-0.935	-7.91	0.	109.14
1753	-0.915	-8.1367	0.	114.91
1754	-1.3923	-8.0768	0.	134.88
1755	-1.1541	-8.293	0.	137.7
1756	-1.2078	-7.8393	0.	137.56
1757	9.e-002	-8.3933	0.	141.93
1758	-9.5e-002	-8.5233	0.	120.07
1759	0.33337	-8.6016	0.	135.99
1760	7.9413e-002	-8.8085	0.	127.68
1761	-2.5833	-1.34	0.	137.64
1762	-2.7267	-1.1733	0.	150.72
1763	-2.8009	-1.5957	0.	146.67
1764	-3.0111	-1.3871	0.	148.03
1765	-1.7167	-1.18	0.	134.51
1766	-1.6433	-0.97333	0.	126.28
1767	-1.4668	-1.3592	0.	155.
1768	-1.3575	-1.0586	0.	148.85
1769	-2.4333	-0.34667	0.	119.7
1770	-2.2167	-0.30667	0.	99.213
1771	-2.1493	-3.3639e-003	0.	115.5
1772	-2.6446	-0.10206	0.	124.9
1773	-2.4543	0.14355	0.	118.41
1774	0.35667	0.35833	0.	117.54
1775	0.39333	0.61833	0.	122.29
1776	-0.1186	0.5671	0.	140.68
1777	7.3592e-002	0.24528	0.	143.74
1778	0.12719	0.81442	0.	143.4
1779	1.1833	-0.28833	0.	109.87
1780	1.4267	-0.19	0.	137.18
1781	1.6392	-0.42019	0.	132.73
1782	1.3508	-0.60304	0.	120.14
1783	1.3667	1.0117	0.	130.3
1784	1.5733	0.85	0.	149.68
1785	1.5835	1.306	0.	137.77
1786	1.8309	1.0789	0.	143.67
1787	-6.8267	-8.0433	0.	136.63
1788	-6.9217	-7.8533	0.	137.22
1789	-7.2468	-8.0259	0.	145.53
1790	-7.0404	-8.2802	0.	149.95
1791	-5.9733	-8.0967	0.	136.29
1792	-5.855	-7.92	0.	145.66
1793	-5.5112	-8.1222	0.	146.57
1794	-5.7084	-8.346	0.	152.3
1795	-6.4483	-7.1467	0.	99.234
1796	-6.235	-7.16	0.	104.72
1797	-6.3423	-6.7019	0.	109.4
1798	-6.6138	-6.9112	0.	116.02
1799	-6.0657	-6.9141	0.	118.84
1800	-7.675	-0.7925	0.	92.589
1801	-7.4	-0.8025	0.	98.591
1802	-7.5208	-0.28834	0.	109.28
1803	-7.2455	-0.52468	0.	114.75
1804	-7.8004	-0.51648	0.	117.56
1805	-7.965	-1.2575	0.	127.38
1806	-7.835	-1.5	0.	135.5
1807	-8.0832	-1.6925	0.	148.84
1808	-8.3086	-1.4237	0.	147.91
1809	-7.14	-1.2875	0.	124.49
1810	-7.285	-1.52	0.	128.59
1811	-6.8498	-1.4785	0.	134.62
1812	-7.05	-1.7212	0.	132.71
1813	-7.0962	-4.1512	0.	102.77
1814	-7.3263	-4.13	0.	109.18
1815	-6.9778	-4.428	0.	114.24
1816	-7.4663	-4.4047	0.	117.68
1817	-7.2378	-4.6201	0.	110.43
1818	-6.2937	-3.0187	0.	139.97
1819	-6.39	-2.8087	0.	140.31
1820	-5.9673	-2.8205	0.	149.72
1821	-6.1617	-2.5803	0.	153.92
1822	-7.9037	-2.87	0.	139.98
1823	-7.77	-2.6813	0.	129.7
1824	-8.2146	-2.7495	0.	141.89
1825	-8.0171	-2.4835	0.	143.9
1826	4.	8.75	0.	143.43
1827	4.25	9.	0.	128.95
1828	3.75	9.0005	0.	135.03
1829	4.	9.25	0.	134.23
1830	4.	7.25	0.	142.01
1831	4.25	7.	0.	127.09
1832	3.995	6.7657	0.	133.21
1833	3.7479	7.0074	0.	135.89
1834	5.75	9.	0.	129.02
1835	6.	8.75	0.	143.98
1836	6.25	9.0001	0.	136.94
1837	6.	9.25	0.	133.94
1838	5.75	7.	0.	126.58
1839	6.	7.25	0.	142.53
1840	6.2495	7.0093	0.	135.93
1841	5.9966	6.7732	0.	132.48
1842	7.	8.75	0.	140.1
1843	7.25	9.	0.	123.23
1844	6.75	9.0001	0.	135.33
1845	7.	9.25	0.	131.57
1846	7.	7.25	0.	140.43
1847	7.25	7.	0.	123.33
1848	6.9977	6.7678	0.	132.28
1849	6.7495	7.0093	0.	135.64
1850	7.75	9.	0.	122.37
1851	8.	8.75	0.	139.05
1852	8.25	9.0001	0.	132.06
1853	8.	9.25	0.	129.96
1854	7.75	7.	0.	121.13
1855	8.	7.25	0.	137.86
1856	8.2498	7.0017	0.	132.17
1857	7.9984	6.7568	0.	128.41
1858	-2.	5.75	0.	140.28
1859	-1.75	6.	0.	124.4
1860	-2.	6.25	0.	130.79
1861	-2.25	5.9999	0.	134.
1862	-2.	4.25	0.	140.51
1863	-1.75	4.	0.	124.83
1864	-1.9957	3.756	0.	130.95
1865	-2.2489	4.0008	0.	134.71
1866	-0.25	6.	0.	123.62
1867	0.	5.75	0.	138.95
1868	-3.2553e-004	6.2502	0.	129.9
1869	0.24955	6.0007	0.	132.99
1870	-0.25	4.	0.	123.39
1871	0.	4.25	0.	138.58
1872	2.1419e-003	3.7619	0.	129.66
1873	0.25367	4.0037	0.	132.02
1874	-2.	-4.25	0.	136.87
1875	-1.75	-4.	0.	121.6
1876	-1.9855	-3.78	0.	127.18
1877	-2.2355	-4.0228	0.	130.96
1878	-2.	-5.75	0.	138.84
1879	-1.75	-6.	0.	123.74
1880	-2.0007	-6.1939	0.	131.06
1881	-2.2357	-5.966	0.	133.81
1882	-0.25	-4.	0.	122.15
1883	0.	-4.25	0.	136.91
1884	-3.4702e-003	-3.7515	0.	128.83
1885	0.25003	-4.01	0.	131.57
1886	-0.25	-6.	0.	116.58
1887	0.	-5.75	0.	132.64
1888	-3.3955e-002	-6.2327	0.	120.18
1889	0.22748	-6.0036	0.	127.91
1890	-7.	8.75	0.	139.34
1891	-6.75	9.	0.	124.25
1892	-7.25	9.	0.	131.96
1893	-7.	9.25	0.	130.46
1894	-7.	8.25	0.	138.2
1895	-6.75	8.	0.	122.01
1896	-7.25	8.	0.	131.04
1897	-7.	7.75	0.	127.95
1898	-6.25	9.	0.	124.25
1899	-6.	8.75	0.	139.32
1900	-5.75	9.	0.	131.96
1901	-6.	9.25	0.	130.5
1902	-6.25	8.	0.	122.01
1903	-6.	8.25	0.	138.17
1904	-5.75	8.	0.	131.07
1905	-6.	7.75	0.	127.94
1906	-7.	2.75	0.	138.22
1907	-6.75	3.	0.	123.21
1908	-7.25	3.0001	0.	132.27
1909	-6.9999	3.25	0.	129.36
1910	-7.	1.25	0.	136.63
1911	-6.75	1.	0.	122.3
1912	-7.2511	0.99998	0.	129.4
1913	-7.0006	0.75098	0.	127.25
1914	-5.25	3.	0.	125.14
1915	-5.	2.75	0.	141.43
1916	-4.7463	2.9943	0.	135.3
1917	-4.9987	3.2484	0.	131.58
1918	-5.25	1.	0.	126.97
1919	-5.	1.25	0.	142.7
1920	-4.7484	0.99488	0.	136.99
1921	-5.	0.75867	0.	133.5
1922	9.75	10.	0.	125.34
1923	10.	9.75	0.	124.49
1924	-9.75	10.	0.	125.1
1925	-10.	9.75	0.	124.87
1926	10.	-9.75	0.	128.63
1927	9.75	-10.	0.	128.37
1928	-10.	-9.75	0.	131.07
1929	-9.75	-10.	0.	130.79
1930	8.1777	0.46106	0.	104.64
1931	8.5858	0.42153	0.	121.97
1932	8.4652	0.56767	0.	115.86
1933	7.8307	0.80053	0.	99.757
1934	8.1181	0.85159	0.	114.04
1935	7.7583	1.1454	0.	105.23
1936	7.9969	-0.24926	0.	106.98
1937	8.2615	-0.4804	0.	109.31
1938	7.5302	-0.38155	0.	111.51
1939	7.7709	-0.58296	0.	113.47
1940	7.2973	-0.6932	0.	109.88
1941	7.13	0.60125	0.	132.95
1942	6.9506	0.8859	0.	126.8
1943	7.01	0.12875	0.	137.37
1944	6.7826	0.40661	0.	132.45
1945	6.697	-9.1864e-002	0.	135.75
1946	5.765	3.62	0.	112.38
1947	5.4196	3.8192	0.	126.25
1948	5.6369	3.3623	0.	117.65
1949	6.18	4.28	0.	110.97
1950	5.9345	4.5121	0.	108.61
1951	6.4415	4.4933	0.	107.94
1952	6.545	3.59	0.	104.1
1953	6.627	3.319	0.	111.58
1954	6.8743	3.7578	0.	119.64
1955	4.825	-6.7137	0.	105.28
1956	4.4564	-6.6213	0.	119.5
1957	5.155	-7.0763	0.	105.53
1958	4.7699	-7.0181	0.	118.09
1959	5.1009	-7.4407	0.	111.02
1960	5.05	-6.0125	0.	112.01
1961	4.7918	-5.8189	0.	111.18
1962	5.53	-5.9075	0.	113.91
1963	5.2689	-5.7161	0.	115.93
1964	5.7482	-5.6223	0.	111.3
1965	5.875	-6.9188	0.	129.01
1966	6.0474	-7.3087	0.	125.52
1967	6.025	-6.4513	0.	134.26
1968	6.2204	-6.6489	0.	133.46
1969	6.1834	-6.8423	0.	131.38
1970	6.3277	-6.2117	0.	135.29
1971	-0.565	-7.65	0.	76.154
1972	-0.49666	-7.2778	0.	95.568
1973	-0.84375	-7.6019	0.	91.058
1974	5.e-002	-7.94	0.	138.38
1975	0.26081	-7.6927	0.	132.07
1976	0.30324	-8.1457	0.	134.97
1977	-0.505	-8.33	0.	87.777
1978	-0.75359	-8.4383	0.	94.166
1979	-0.34651	-8.6258	0.	98.922
1980	-2.15	-1.26	0.	102.43
1981	-2.3511	-1.5322	0.	107.28
1982	-1.9027	-1.462	0.	103.11
1983	-2.58	-0.76	0.	132.76
1984	-2.8909	-0.95895	0.	137.04
1985	-2.7652	-0.532	0.	128.23
1986	-1.93	-0.64	0.	83.918
1987	-1.6288	-0.71388	0.	108.44
1988	-1.8974	-0.36669	0.	102.88
1989	0.77	3.5e-002	0.	83.262
1990	0.48704	-5.6733e-002	0.	99.463
1991	0.90895	-0.3455	0.	100.14
1992	0.88	0.815	0.	96.632
1993	0.61208	0.97264	0.	101.47
1994	1.0956	1.1487	0.	106.17
1995	1.5	0.33	0.	143.29
1996	1.7066	7.3194e-002	0.	136.36
1997	1.7728	0.57629	0.	140.11
1998	-6.4	-8.07	0.	102.19
1999	-6.5984	-8.3023	0.	103.72
2000	-6.1555	-8.3246	0.	103.14
2001	-6.685	-7.5	0.	102.47
2002	-7.0507	-7.6259	0.	121.3
2003	-6.8086	-7.2685	0.	110.06
2004	-6.045	-7.54	0.	116.17
2005	-5.6664	-7.6941	0.	127.68
2006	-5.9156	-7.3093	0.	116.63
2007	-8.0162	-0.97352	0.	113.34
2008	-7.0495	-1.0035	0.	111.95
2009	-7.5641	-1.7074	0.	96.484
2010	-6.8287	-3.7737	0.	106.84
2011	-6.6815	-4.0496	0.	110.88
2012	-6.5612	-3.3962	0.	111.87
2013	-6.4342	-3.6371	0.	120.88
2014	-6.1898	-3.2354	0.	125.71
2015	-7.5188	-3.71	0.	117.95
2016	-7.6286	-4.0029	0.	116.47
2017	-7.7112	-3.29	0.	123.47
2018	-7.8358	-3.6068	0.	125.49
2019	-8.0241	-3.1787	0.	130.
2020	-6.85	-2.7662	0.	111.15
2021	-6.6217	-2.5612	0.	111.96
2022	-7.31	-2.7238	0.	107.36
2023	-7.0836	-2.535	0.	111.28
2024	-7.5486	-2.5045	0.	98.493
2025	4.	8.25	0.	147.84
2026	3.7499	8.501	0.	141.19
2027	4.	7.75	0.	147.66
2028	3.7497	8.0019	0.	142.67
2029	3.7493	7.5035	0.	141.41
2030	4.75	9.	0.	122.15
2031	4.5	9.25	0.	119.38
2032	5.25	9.	0.	122.2
2033	5.	9.25	0.	123.11
2034	5.5	9.25	0.	119.36
2035	4.75	7.	0.	119.33
2036	4.4952	6.7683	0.	117.76
2037	5.25	7.	0.	118.43
2038	4.9954	6.7711	0.	119.37
2039	5.4958	6.7728	0.	115.84
2040	6.	8.25	0.	149.51
2041	6.25	8.5003	0.	145.24
2042	6.	7.75	0.	148.98
2043	6.25	8.0009	0.	147.87
2044	6.2499	7.5028	0.	144.68
2045	7.	8.25	0.	144.84
2046	6.75	8.5003	0.	143.06
2047	7.	7.75	0.	144.8
2048	6.75	8.0009	0.	145.38
2049	6.7499	7.5028	0.	143.01
2050	7.5	9.25	0.	113.15
2051	7.4982	6.762	0.	111.69
2052	8.	8.25	0.	143.67
2053	8.25	8.5002	0.	138.29
2054	8.	7.75	0.	143.51
2055	8.25	8.0004	0.	139.28
2056	8.25	7.5008	0.	138.25
2057	-2.	5.25	0.	145.8
2058	-2.25	5.4999	0.	140.24
2059	-2.	4.75	0.	145.96
2060	-2.2499	4.9999	0.	141.9
2061	-2.2497	4.5	0.	140.68
2062	-1.25	6.	0.	115.88
2063	-1.5	6.25	0.	113.94
2064	-0.75	6.	0.	115.65
2065	-1.0001	6.25	0.	115.91
2066	-0.50013	6.2501	0.	113.52
2067	-1.25	4.	0.	116.39
2068	-1.4957	3.7586	0.	114.52
2069	-0.75	4.	0.	115.7
2070	-0.99666	3.76	0.	116.32
2071	-0.49762	3.7617	0.	113.42
2072	0.	5.25	0.	144.03
2073	0.25019	5.5008	0.	138.75
2074	0.	4.75	0.	143.82
2075	0.25156	5.0011	0.	139.88
2076	0.25267	4.5017	0.	138.21
2077	-2.	-4.75	0.	142.65
2078	-2.2383	-4.5089	0.	137.69
2079	-2.	-5.25	0.	143.32
2080	-2.238	-4.9974	0.	139.66
2081	-2.2366	-5.4857	0.	139.01
2082	-1.25	-4.	0.	113.67
2083	-1.4929	-3.7685	0.	111.41
2084	-0.75	-4.	0.	113.89
2085	-0.99876	-3.7584	0.	114.19
2086	-0.5018	-3.7548	0.	112.42
2087	-1.25	-6.	0.	113.29
2088	-1.5141	-6.2084	0.	113.44
2089	-0.75	-6.	0.	109.99
2090	-1.0211	-6.2258	0.	112.12
2091	-0.52718	-6.2455	0.	105.36
2092	0.	-4.75	0.	140.99
2093	0.25183	-4.5102	0.	136.59
2094	0.	-5.25	0.	139.9
2095	0.24919	-5.0096	0.	137.12
2096	0.24037	-5.5079	0.	135.02
2097	-7.25	8.5	0.	136.51
2098	-6.5	9.25	0.	114.94
2099	-6.5	7.75	0.	111.84
2100	-5.75	8.5	0.	136.51
2101	-7.	2.25	0.	142.95
2102	-7.25	2.5002	0.	137.76
2103	-7.	1.75	0.	142.29
2104	-7.2501	2.0003	0.	138.57
2105	-7.2504	1.5003	0.	136.37
2106	-6.25	3.	0.	115.57
2107	-6.4999	3.2499	0.	113.19
2108	-5.75	3.	0.	116.21
2109	-5.9998	3.2498	0.	115.88
2110	-5.4995	3.2495	0.	114.3
2111	-6.25	1.	0.	116.3
2112	-6.4988	0.7568	0.	113.73
2113	-5.75	1.	0.	118.05
2114	-5.9983	0.76047	0.	117.81
2115	-5.499	0.76142	0.	116.47
2116	-5.	2.25	0.	147.33
2117	-4.7438	2.4925	0.	141.72
2118	-5.	1.75	0.	147.8
2119	-4.741	1.9912	0.	143.4
2120	-4.7419	1.4916	0.	142.36
2121	9.25	10.	0.	126.21
2122	9.5	9.75	0.	125.19
2123	8.75	10.	0.	126.46
2124	9.	9.75	0.	126.54
2125	8.25	10.	0.	123.87
2126	8.5	9.75	0.	127.53
2127	7.75	10.	0.	121.09
2128	8.	9.75	0.	123.27
2129	7.25	10.	0.	122.
2130	7.5	9.75	0.	118.13
2131	6.75	10.	0.	125.78
2132	7.	9.75	0.	124.91
2133	6.25	10.	0.	126.19
2134	6.5	9.75	0.	130.4
2135	5.75	10.	0.	121.81
2136	6.	9.75	0.	125.99
2137	5.25	10.	0.	118.11
2138	5.5	9.75	0.	119.61
2139	4.75	10.	0.	118.09
2140	5.	9.75	0.	118.81
2141	4.25	10.	0.	121.81
2142	4.5	9.75	0.	119.61
2143	3.75	10.	0.	127.38
2144	4.	9.75	0.	126.22
2145	3.25	10.	0.	131.08
2146	3.5	9.7502	0.	130.65
2147	2.75	10.	0.	131.11
2148	3.	9.7503	0.	129.94
2149	2.25	10.	0.	129.73
2150	2.4999	9.7502	0.	128.9
2151	1.75	10.	0.	128.28
2152	2.	9.7501	0.	127.91
2153	1.25	10.	0.	126.91
2154	1.5	9.7501	0.	126.91
2155	0.75	10.	0.	125.68
2156	0.99998	9.75	0.	125.94
2157	0.25	10.	0.	124.62
2158	0.49999	9.75	0.	125.01
2159	-0.25	10.	0.	123.79
2160	-6.4394e-006	9.75	0.	124.19
2161	-0.75	10.	0.	123.27
2162	-0.5	9.75	0.	123.59
2163	-1.25	10.	0.	123.09
2164	-1.	9.75	0.	123.28
2165	-1.75	10.	0.	123.24
2166	-1.5	9.75	0.	123.28
2167	-2.25	10.	0.	123.64
2168	-2.	9.75	0.	123.56
2169	-2.75	10.	0.	124.2
2170	-2.5	9.75	0.	124.
2171	-3.25	10.	0.	124.84
2172	-3.	9.75	0.	124.5
2173	-3.75	10.	0.	125.53
2174	-3.5	9.75	0.	124.99
2175	-4.25	10.	0.	126.27
2176	-4.	9.75	0.	125.45
2177	-4.75	10.	0.	127.01
2178	-4.5	9.75	0.	125.93
2179	-5.25	10.	0.	126.73
2180	-5.	9.75	0.	126.65
2181	-5.75	10.	0.	123.76
2182	-5.5	9.75	0.	127.41
2183	-6.25	10.	0.	120.51
2184	-6.	9.75	0.	123.3
2185	-6.75	10.	0.	120.48
2186	-6.5	9.75	0.	118.02
2187	-7.25	10.	0.	123.66
2188	-7.	9.75	0.	123.25
2189	-7.75	10.	0.	126.58
2190	-7.5	9.75	0.	127.33
2191	-8.25	10.	0.	126.83
2192	-8.	9.75	0.	126.54
2193	-8.75	10.	0.	126.08
2194	-8.5	9.75	0.	125.82
2195	-9.25	10.	0.	125.44
2196	-9.	9.75	0.	125.38
2197	-9.5	9.75	0.	125.01
2198	10.	9.25	0.	122.59
2199	9.75	9.5	0.	124.35
2200	10.	8.75	0.	120.53
2201	9.75	9.0001	0.	122.77
2202	10.	8.25	0.	119.88
2203	9.75	8.5001	0.	121.99
2204	10.	7.75	0.	121.02
2205	9.75	8.0002	0.	122.38
2206	10.	7.25	0.	123.6
2207	9.7501	7.5004	0.	123.94
2208	10.	6.75	0.	126.62
2209	9.7499	7.0005	0.	126.23
2210	10.	6.25	0.	128.85
2211	9.7489	6.5001	0.	128.34
2212	10.	5.75	0.	129.6
2213	9.7475	5.9994	0.	129.35
2214	10.	5.25	0.	129.03
2215	9.7456	5.4983	0.	129.19
2216	10.	4.75	0.	127.89
2217	9.7445	4.9975	0.	128.3
2218	10.	4.25	0.	127.06
2219	9.7481	4.4979	0.	127.35
2220	10.	3.75	0.	127.22
2221	9.7592	3.9983	0.	126.97
2222	10.	3.25	0.	128.56
2223	9.7656	3.4971	0.	127.56
2224	10.	2.75	0.	130.67
2225	9.7635	2.9923	0.	129.04
2226	10.	2.25	0.	132.65
2227	9.7583	2.484	0.	130.87
2228	10.	1.75	0.	133.29
2229	9.7483	1.9744	0.	132.27
2230	10.	1.25	0.	131.64
2231	9.7456	1.4722	0.	132.59
2232	10.	0.75	0.	127.42
2233	9.7777	0.98418	0.	130.74
2234	10.	0.25	0.	123.87
2235	9.7398	0.47996	0.	128.2
2236	10.	-0.25	0.	125.76
2237	9.7804	-2.8262e-002	0.	125.89
2238	10.	-0.75	0.	131.34
2239	9.7906	-0.5212	0.	130.58
2240	10.	-1.25	0.	134.91
2241	9.7827	-1.0112	0.	133.96
2242	10.	-1.75	0.	134.99
2243	9.7725	-1.503	0.	133.99
2244	10.	-2.25	0.	133.5
2245	9.7651	-1.9981	0.	132.75
2246	10.	-2.75	0.	131.76
2247	9.7615	-2.4955	0.	131.3
2248	10.	-3.25	0.	130.2
2249	9.7583	-2.9944	0.	130.
2250	10.	-3.75	0.	128.87
2251	9.7594	-3.4942	0.	128.93
2252	10.	-4.25	0.	127.66
2253	9.7607	-3.9944	0.	127.97
2254	10.	-4.75	0.	126.51
2255	9.7606	-4.4948	0.	127.05
2256	10.	-5.25	0.	125.45
2257	9.7585	-4.9956	0.	126.15
2258	10.	-5.75	0.	124.65
2259	9.7549	-5.4964	0.	125.37
2260	10.	-6.25	0.	124.26
2261	9.75	-5.9972	0.	124.87
2262	10.	-6.75	0.	124.39
2263	9.7448	-6.4975	0.	124.77
2264	10.	-7.25	0.	124.99
2265	9.7432	-6.9977	0.	125.09
2266	10.	-7.75	0.	125.88
2267	9.7432	-7.498	0.	125.73
2268	10.	-8.25	0.	126.85
2269	9.7439	-7.9983	0.	126.52
2270	10.	-8.75	0.	127.71
2271	9.7449	-8.4986	0.	127.27
2272	10.	-9.25	0.	128.32
2273	9.7462	-8.9989	0.	127.87
2274	9.7479	-9.4994	0.	128.24
2275	-10.	9.25	0.	124.3
2276	-9.75	9.5	0.	124.77
2277	-10.	8.75	0.	123.7
2278	-9.75	9.	0.	124.17
2279	-10.	8.25	0.	123.67
2280	-9.75	8.5	0.	123.94
2281	-10.	7.75	0.	124.29
2282	-9.75	8.	0.	124.29
2283	-10.	7.25	0.	125.3
2284	-9.75	7.5	0.	125.06
2285	-10.	6.75	0.	126.36
2286	-9.75	7.	0.	125.95
2287	-10.	6.25	0.	127.28
2288	-9.75	6.5	0.	126.76
2289	-10.	5.75	0.	127.97
2290	-9.75	6.	0.	127.42
2291	-10.	5.25	0.	128.42
2292	-9.75	5.5	0.	127.91
2293	-10.	4.75	0.	128.57
2294	-9.75	5.	0.	128.23
2295	-10.	4.25	0.	128.36
2296	-9.75	4.5001	0.	128.32
2297	-10.	3.75	0.	127.78
2298	-9.75	4.0001	0.	128.1
2299	-10.	3.25	0.	127.03
2300	-9.75	3.5002	0.	127.63
2301	-10.	2.75	0.	126.48
2302	-9.7501	3.0004	0.	127.11
2303	-10.	2.25	0.	126.6
2304	-9.7502	2.5007	0.	126.91
2305	-10.	1.75	0.	127.69
2306	-9.7503	2.0012	0.	127.39
2307	-10.	1.25	0.	129.67
2308	-9.7508	1.502	0.	128.67
2309	-10.	0.75	0.	131.93
2310	-9.7517	1.0033	0.	130.55
2311	-10.	0.25	0.	133.47
2312	-9.7534	0.50519	0.	132.43
2313	-10.	-0.25	0.	133.47
2314	-9.7564	7.7722e-003	0.	133.43
2315	-10.	-0.75	0.	132.23
2316	-9.76	-0.4895	0.	132.96
2317	-10.	-1.25	0.	131.3
2318	-9.7607	-0.98761	0.	131.91
2319	-10.	-1.75	0.	131.38
2320	-9.756	-1.4867	0.	131.88
2321	-10.	-2.25	0.	131.29
2322	-9.7522	-1.9882	0.	132.65
2323	-10.	-2.75	0.	130.35
2324	-9.7455	-2.4932	0.	132.04
2325	-10.	-3.25	0.	129.65
2326	-9.7409	-2.9973	0.	130.58
2327	-10.	-3.75	0.	130.31
2328	-9.7576	-3.4986	0.	130.24
2329	-10.	-4.25	0.	131.88
2330	-9.7608	-3.9977	0.	131.15
2331	-10.	-4.75	0.	133.22
2332	-9.7645	-4.4951	0.	132.29
2333	-10.	-5.25	0.	133.62
2334	-9.7646	-4.9933	0.	132.85
2335	-10.	-5.75	0.	132.96
2336	-9.7591	-5.4924	0.	132.59
2337	-10.	-6.25	0.	131.54
2338	-9.7511	-5.9915	0.	131.64
2339	-10.	-6.75	0.	129.82
2340	-9.7451	-6.491	0.	130.31
2341	-10.	-7.25	0.	128.38
2342	-9.7412	-6.9912	0.	128.96
2343	-10.	-7.75	0.	127.75
2344	-9.7393	-7.492	0.	128.06
2345	-10.	-8.25	0.	128.11
2346	-9.741	-7.9931	0.	127.97
2347	-10.	-8.75	0.	129.17
2348	-9.7445	-8.4948	0.	128.65
2349	-10.	-9.25	0.	130.34
2350	-9.7474	-8.9965	0.	129.67
2351	-9.7491	-9.4983	0.	130.49
2352	-9.25	-10.	0.	130.29
2353	-9.4991	-9.7483	0.	130.21
2354	-8.75	-10.	0.	130.21
2355	-8.9989	-9.7474	0.	130.19
2356	-8.25	-10.	0.	129.52
2357	-8.4999	-9.7476	0.	130.2
2358	-7.75	-10.	0.	127.12
2359	-8.0022	-9.7496	0.	129.21
2360	-7.25	-10.	0.	122.69
2361	-7.5055	-9.7529	0.	125.84
2362	-6.75	-10.	0.	118.36
2363	-7.0095	-9.7561	0.	120.23
2364	-6.25	-10.	0.	117.52
2365	-6.514	-9.759	0.	116.17
2366	-5.75	-10.	0.	121.02
2367	-6.0184	-9.7615	0.	117.86
2368	-5.25	-10.	0.	126.11
2369	-5.5222	-9.7639	0.	123.77
2370	-4.75	-10.	0.	129.6
2371	-5.0255	-9.7666	0.	128.7
2372	-4.25	-10.	0.	130.78
2373	-4.5264	-9.7686	0.	130.74
2374	-3.75	-10.	0.	130.64
2375	-4.0262	-9.7708	0.	130.82
2376	-3.25	-10.	0.	130.02
2377	-3.5249	-9.7724	0.	130.24
2378	-2.75	-10.	0.	129.23
2379	-3.0223	-9.7711	0.	129.53
2380	-2.25	-10.	0.	127.84
2381	-2.5201	-9.7694	0.	128.7
2382	-1.75	-10.	0.	124.74
2383	-2.0183	-9.7662	0.	127.13
2384	-1.25	-10.	0.	119.21
2385	-1.5163	-9.7626	0.	123.17
2386	-0.75	-10.	0.	113.4
2387	-1.0178	-9.7648	0.	116.35
2388	-0.25	-10.	0.	112.68
2389	-0.52788	-9.7864	0.	110.69
2390	0.25	-10.	0.	118.68
2391	-3.4032e-002	-9.7332	0.	112.76
2392	0.75	-10.	0.	126.36
2393	0.49279	-9.7557	0.	123.69
2394	1.25	-10.	0.	130.88
2395	1.0003	-9.7603	0.	130.45
2396	1.75	-10.	0.	131.97
2397	1.5008	-9.7609	0.	131.86
2398	2.25	-10.	0.	131.59
2399	2.0001	-9.7606	0.	131.78
2400	2.75	-10.	0.	130.68
2401	2.4986	-9.7607	0.	131.13
2402	3.25	-10.	0.	129.31
2403	2.997	-9.7603	0.	130.1
2404	3.75	-10.	0.	127.43
2405	3.4938	-9.7588	0.	128.57
2406	4.25	-10.	0.	125.17
2407	3.9909	-9.7575	0.	126.47
2408	4.75	-10.	0.	122.99
2409	4.4876	-9.7576	0.	124.04
2410	5.25	-10.	0.	121.65
2411	4.9844	-9.7559	0.	121.94
2412	5.75	-10.	0.	121.71
2413	5.4813	-9.7494	0.	121.14
2414	6.25	-10.	0.	122.98
2415	5.9785	-9.7412	0.	121.98
2416	6.75	-10.	0.	124.74
2417	6.4785	-9.7425	0.	123.85
2418	7.25	-10.	0.	126.25
2419	6.9817	-9.747	0.	125.71
2420	7.75	-10.	0.	127.18
2421	7.486	-9.749	0.	126.95
2422	8.25	-10.	0.	127.61
2423	7.9897	-9.7492	0.	127.54
2424	8.75	-10.	0.	127.76
2425	8.4933	-9.7492	0.	127.73
2426	9.25	-10.	0.	127.91
2427	8.9958	-9.749	0.	127.78
2428	9.4979	-9.7494	0.	127.98
2429	4.8006	-2.8245	0.	126.19
2430	5.0759	-3.0455	0.	125.07
2431	4.8532	-3.3137	0.	124.82
2432	4.5827	-3.1242	0.	126.18
2433	3.9263	-2.528	0.	128.47
2434	3.9918	-2.8015	0.	128.18
2435	4.231	-2.3472	0.	128.03
2436	4.4876	-2.6044	0.	127.34
2437	4.2697	-2.9041	0.	127.34
2438	3.561	-2.5968	0.	129.1
2439	3.3862	-2.372	0.	129.4
2440	3.6961	-2.1988	0.	129.06
2441	3.2386	-2.7499	0.	129.35
2442	3.6264	-2.8703	0.	128.81
2443	3.4228	-2.9482	0.	129.14
2444	2.9759	-2.9361	0.	129.52
2445	3.0639	-2.5251	0.	129.65
2446	2.7637	-2.7115	0.	129.45
2447	3.5803	-3.0483	0.	128.81
2448	3.836	-3.1662	0.	128.25
2449	3.16	-3.1344	0.	129.31
2450	3.4028	-3.3157	0.	129.11
2451	2.9507	-3.3568	0.	129.5
2452	2.7096	-3.1388	0.	129.42
2453	3.165	-2.1041	0.	129.82
2454	2.8609	-2.2908	0.	129.66
2455	2.2678	-2.6714	0.	128.85
2456	2.4974	-2.9142	0.	129.35
2457	2.5607	-2.4772	0.	129.46
2458	4.0008	-2.018	0.	128.62
2459	3.4748	-1.9309	0.	129.48
2460	3.7677	-1.7332	0.	128.88
2461	4.5253	-2.0646	0.	127.88
2462	4.2863	-1.8023	0.	128.07
2463	5.0413	-2.5563	0.	126.45
2464	4.7819	-2.3218	0.	127.2
2465	5.336	-3.2542	0.	123.78
2466	5.1132	-3.5224	0.	123.52
2467	5.3453	-3.7198	0.	122.06
2468	5.5788	-3.4775	0.	122.81
2469	5.5724	-3.0025	0.	124.26
2470	5.3166	-2.7773	0.	125.34
2471	-1.0853	-0.28574	0.	130.73
2472	-1.015	-0.59805	0.	129.93
2473	-1.3177	-0.53095	0.	134.5
2474	-1.269	-0.2711	0.	129.35
2475	4.6513	-3.6111	0.	124.92
2476	4.9103	-3.7818	0.	123.25
2477	4.7352	0.42729	0.	124.81
2478	4.4619	0.19188	0.	125.19
2479	4.4988	0.68056	0.	125.84
2480	4.2308	0.44866	0.	125.63
2481	3.1935	-3.538	0.	129.3
2482	2.9811	-3.7941	0.	129.63
2483	2.7171	-3.5817	0.	129.48
2484	4.1139	-3.2688	0.	127.41
2485	4.3808	-3.4216	0.	126.29
2486	3.6585	-3.4335	0.	128.54
2487	3.9257	-3.5855	0.	127.87
2488	3.4602	-3.7192	0.	129.16
2489	5.8153	-3.2258	0.	123.3
2490	5.8171	-2.7474	0.	124.66
2491	6.0582	-2.9781	0.	123.63
2492	5.2365	0.40514	0.	124.09
2493	4.9638	0.17235	0.	124.36
2494	5.0053	0.66165	0.	124.84
2495	5.2573	-4.191	0.	120.23
2496	5.5588	-3.9504	0.	121.15
2497	5.1423	-3.9792	0.	121.78
2498	-4.1511	-4.9955	0.	129.67
2499	-3.6764	-4.9971	0.	129.62
2500	-3.9114	-5.2341	0.	129.87
2501	-3.9235	-4.7578	0.	129.46
2502	5.3065	-2.2915	0.	126.74
2503	5.5612	-2.5221	0.	125.73
2504	5.0471	-2.057	0.	127.48
2505	4.8043	-1.8133	0.	127.63
2506	2.0159	-5.4171	0.	128.65
2507	2.3786	-5.1046	0.	129.09
2508	1.8144	-5.1295	0.	128.42
2509	2.0758	-4.8823	0.	128.64
2510	2.2484	-5.3976	0.	128.63
2511	2.2556	5.0226	0.	128.58
2512	1.7556	5.0119	0.	128.28
2513	2.0131	4.7654	0.	128.02
2514	2.0015	5.2649	0.	128.76
2515	2.5166	4.7801	0.	128.46
2516	2.7567	5.0412	0.	129.08
2517	2.501	5.2779	0.	129.47
2518	1.7597	-2.6199	0.	127.65
2519	2.0508	-2.4282	0.	128.23
2520	1.9989	-2.8784	0.	128.65
2521	2.9492	-1.8578	0.	130.07
2522	3.2445	-1.6589	0.	129.87
2523	2.7795	4.5444	0.	128.12
2524	2.54	4.2775	0.	128.01
2525	2.274	4.5228	0.	127.9
2526	3.0935	3.2459	0.	129.56
2527	3.3624	3.4135	0.	128.88
2528	3.0947	3.7852	0.	128.26
2529	2.8451	3.5155	0.	128.65
2530	3.3826	3.6078	0.	128.18
2531	2.0433	-5.9173	0.	128.74
2532	2.1623	-5.6497	0.	128.69
2533	1.8557	-5.915	0.	129.15
2534	1.6912	-5.6314	0.	128.83
2535	4.0533	-1.5175	0.	128.33
2536	4.3319	-1.2914	0.	127.52
2537	4.5653	-1.5509	0.	127.81
2538	4.1903	-4.0827e-002	0.	125.51
2539	4.419	-0.29929	0.	125.53
2540	4.6905	-6.3056e-002	0.	124.74
2541	3.2477	-3.9753	0.	129.48
2542	3.0378	-4.2482	0.	129.97
2543	2.757	-4.041	0.	129.59
2544	4.4674	-3.905	0.	125.26
2545	4.1926	-3.7384	0.	126.75
2546	6.0457	-3.4577	0.	122.79
2547	5.7924	-3.708	0.	121.91
2548	2.6103	-4.7985	0.	129.55
2549	2.3075	-4.5762	0.	129.11
2550	2.8185	-4.5159	0.	129.87
2551	2.5377	-4.3088	0.	129.49
2552	-6.4998	5.2497	0.	119.88
2553	-6.7498	5.4998	0.	120.95
2554	-6.4999	5.7498	0.	120.37
2555	-6.2498	5.4996	0.	120.17
2556	-6.2496	4.9996	0.	119.22
2557	-5.9994	4.7494	0.	118.05
2558	-5.7495	4.9991	0.	119.6
2559	-5.9996	5.2495	0.	119.52
2560	3.9171	-0.27268	0.	126.3
2561	3.6893	-1.3591e-002	0.	126.19
2562	3.9592	0.21596	0.	125.95
2563	3.8217	-1.2489	0.	128.3
2564	3.5374	-1.4612	0.	129.28
2565	3.3111	2.9292	0.	130.57
2566	3.0583	2.7241	0.	131.27
2567	2.8111	2.9903	0.	130.16
2568	4.2621	0.93523	0.	126.85
2569	4.523	1.1664	0.	127.37
2570	4.7689	0.91492	0.	125.88
2571	3.5799	3.0967	0.	129.89
2572	3.8224	3.2806	0.	129.23
2573	3.6248	3.5051	0.	128.37
2574	-4.3867	-5.2294	0.	129.95
2575	-4.3809	-5.6998	0.	130.42
2576	-4.147	-5.468	0.	130.15
2577	-4.6259	-5.4568	0.	129.86
2578	-4.3887	-4.766	0.	129.65
2579	-4.6262	-4.9833	0.	129.64
2580	-4.4683	-4.297	0.	129.5
2581	-4.161	-4.5283	0.	129.45
2582	-4.611	-4.5203	0.	129.6
2583	2.297	-6.889	0.	128.65
2584	2.6037	-7.1208	0.	128.59
2585	2.1075	-7.1255	0.	128.95
2586	2.4043	-7.3703	0.	128.73
2587	3.5509	2.6498	0.	131.25
2588	3.7973	2.8527	0.	130.87
2589	3.2982	2.4447	0.	131.95
2590	3.5434	2.1787	0.	131.72
2591	3.7952	2.3947	0.	131.77
2592	3.8708	-0.76128	0.	127.3
2593	4.1004	-1.0229	0.	127.48
2594	3.5923	-0.98117	0.	128.47
2595	4.1458	-0.53113	0.	126.33
2596	3.6428	-0.49871	0.	127.21
2597	4.0199	1.1881	0.	128.23
2598	3.7592	0.96016	0.	127.61
2599	3.9941	0.70333	0.	126.64
2600	4.0361	1.6681	0.	130.08
2601	4.2808	1.4193	0.	128.76
2602	3.7797	1.444	0.	129.65
2603	-4.7498	5.4992	0.	124.52
2604	-4.4999	5.7494	0.	125.87
2605	-4.2499	5.4991	0.	126.51
2606	-4.4997	5.2485	0.	125.69
2607	-4.9998	5.7494	0.	123.89
2608	-4.9995	5.2487	0.	123.2
2609	-5.2497	5.4992	0.	122.39
2610	-4.8283	-3.9831	0.	129.56
2611	-4.4844	-3.777	0.	129.41
2612	-4.2586	-4.0513	0.	129.44
2613	-4.6898	-4.2802	0.	129.54
2614	6.2886	-3.21	0.	123.13
2615	6.2613	-3.6915	0.	122.77
2616	6.5107	-3.4456	0.	123.13
2617	3.5288	-4.1589	0.	129.54
2618	3.7273	-3.8712	0.	128.48
2619	4.3754	-0.79273	0.	126.51
2620	4.6475	-0.55473	0.	125.71
2621	4.6061	-1.0496	0.	126.98
2622	2.1994	-6.4056	0.	128.72
2623	2.0195	-6.6426	0.	129.32
2624	2.4706	-6.6232	0.	128.26
2625	1.9693	-6.163	0.	129.18
2626	2.3576	-6.1336	0.	128.43
2627	0.72713	-2.5051	0.	125.13
2628	0.21587	-2.4842	0.	124.12
2629	0.47174	-2.7373	0.	126.05
2630	0.47457	-2.2377	0.	123.48
2631	-4.5	6.2497	0.	126.55
2632	-4.7499	5.9996	0.	125.24
2633	-4.25	5.9995	0.	126.93
2634	3.0507	4.3063	0.	128.
2635	2.8112	4.0394	0.	127.89
2636	3.327	4.0909	0.	127.56
2637	3.0196	4.8054	0.	128.74
2638	3.2845	4.5798	0.	128.06
2639	2.5616	3.7697	0.	128.28
2640	2.2948	4.018	0.	127.84
2641	2.5627	3.2599	0.	129.26
2642	2.3056	3.5106	0.	128.31
2643	-5.1044	-4.9617	0.	128.99
2644	-4.8655	-5.2108	0.	129.55
2645	-4.8485	-4.7375	0.	129.58
2646	2.4266	-1.7977	0.	129.53
2647	2.7251	-1.6026	0.	130.53
2648	2.6451	-2.0446	0.	129.92
2649	3.0464	2.2264	0.	132.47
2650	2.7966	2.4865	0.	131.95
2651	-2.8924	1.7343	0.	125.97
2652	-2.6074	1.5145	0.	123.58
2653	-3.1281	1.4366	0.	127.37
2654	-2.7796	1.2442	0.	124.19
2655	-6.4996	4.7497	0.	118.95
2656	-6.7498	4.9998	0.	120.57
2657	1.5325	-2.3663	0.	126.04
2658	1.2454	-2.5601	0.	126.28
2659	1.4929	-2.8292	0.	127.75
2660	2.2941	3.0035	0.	129.14
2661	2.5494	2.7527	0.	130.85
2662	3.0006	5.2978	0.	130.1
2663	3.2575	5.0674	0.	129.29
2664	2.2469	5.5202	0.	129.66
2665	2.7449	5.5346	0.	130.49
2666	2.4943	5.7736	0.	130.64
2667	2.9099	-4.9969	0.	130.22
2668	2.7433	-5.2846	0.	129.44
2669	5.5594	-2.0355	0.	127.28
2670	5.3149	-1.7997	0.	127.74
2671	5.8163	0.81392	0.	124.59
2672	5.5271	0.64611	0.	124.19
2673	5.717	1.0812	0.	124.62
2674	5.5218	1.1413	0.	125.03
2675	5.2958	0.90262	0.	124.95
2676	6.0169	0.53504	0.	124.95
2677	6.1675	0.91344	0.	125.08
2678	6.2796	0.58829	0.	127.03
2679	-4.5	6.7498	0.	127.26
2680	-4.75	6.4998	0.	126.31
2681	-4.25	6.4997	0.	127.57
2682	-6.9999	5.7499	0.	121.69
2683	-6.9998	5.2499	0.	121.65
2684	-7.2499	5.4999	0.	122.67
2685	-5.9993	4.2493	0.	115.96
2686	-6.2495	4.4995	0.	117.77
2687	-5.7491	4.4988	0.	118.1
2688	-3.4426	-4.7616	0.	129.47
2689	-3.4346	-5.2352	0.	129.98
2690	-3.1976	-4.9972	0.	130.29
2691	1.2655	-5.0706	0.	128.62
2692	1.4896	-5.3438	0.	128.6
2693	1.5274	-4.8363	0.	128.28
2694	1.2556	5.0063	0.	129.
2695	1.5028	5.258	0.	128.64
2696	1.511	4.7576	0.	128.04
2697	5.1897	-4.7011	0.	117.65
2698	4.9059	-4.5176	0.	121.18
2699	5.4397	-4.4317	0.	119.04
2700	5.0548	-4.221	0.	120.87
2701	5.7277	0.36723	0.	124.54
2702	5.4627	0.15044	0.	123.98
2703	-5.3737	-3.8401	0.	130.15
2704	-5.024	-3.6606	0.	129.24
2705	-5.2274	-4.1603	0.	129.67
2706	-4.1367	-5.9405	0.	130.71
2707	-4.3658	-6.168	0.	130.73
2708	-4.6174	-5.9291	0.	130.42
2709	3.791	1.9234	0.	131.3
2710	4.0428	2.1394	0.	131.36
2711	4.2941	1.8966	0.	130.67
2712	4.0398	3.0366	0.	130.21
2713	4.117	3.4728	0.	128.29
2714	4.2463	3.25	0.	129.7
2715	-0.9758	2.8001	0.	117.64
2716	-1.2138	2.5578	0.	119.62
2717	-0.72518	2.5657	0.	120.03
2718	-0.95385	2.3221	0.	120.9
2719	3.308	-1.1934	0.	129.44
2720	3.0204	-1.4037	0.	130.33
2721	1.8236	-2.1746	0.	126.62
2722	2.1251	-1.9872	0.	128.46
2723	2.3436	-2.234	0.	128.84
2724	3.5346	1.6993	0.	130.87
2725	3.2916	1.9604	0.	132.23
2726	3.4594	0.24452	0.	126.48
2727	3.1892	1.7376e-002	0.	126.84
2728	3.415	-0.23962	0.	127.1
2729	3.4944	0.73089	0.	127.2
2730	3.2314	0.50222	0.	126.66
2731	3.7293	0.47406	0.	126.23
2732	3.6148	3.9135	0.	127.49
2733	3.9194	3.6973	0.	127.42
2734	-5.2499	5.9996	0.	123.38
2735	-4.9999	6.2497	0.	125.
2736	-6.7499	5.9998	0.	121.11
2737	-6.4999	6.2498	0.	120.32
2738	-6.2499	5.9997	0.	120.68
2739	-5.2479	-0.89982	0.	124.08
2740	-5.4804	-1.1117	0.	123.88
2741	-5.4796	-0.65418	0.	122.
2742	-5.7002	-0.88454	0.	121.33
2743	-4.8378	-1.4046	0.	128.13
2744	-5.0432	-1.1528	0.	126.48
2745	-5.2757	-1.3647	0.	126.27
2746	-5.1132	-1.6301	0.	129.19
2747	-5.2493	4.9985	0.	121.63
2748	-5.4991	4.7486	0.	119.68
2749	-5.4995	5.249	0.	120.82
2750	-3.7497	4.998	0.	128.69
2751	-3.2498	4.9985	0.	130.58
2752	-3.4995	4.7473	0.	130.1
2753	-3.4999	5.2485	0.	129.27
2754	-3.9998	5.2484	0.	127.66
2755	-4.2496	4.9979	0.	126.84
2756	-3.9993	4.7468	0.	128.66
2757	-3.8567	-6.643	0.	130.29
2758	-4.0823	-6.868	0.	129.81
2759	-3.5952	-6.8699	0.	130.13
2760	-3.8157	-7.0953	0.	129.11
2761	-3.9028	-5.7087	0.	130.44
2762	-3.6697	-5.4722	0.	130.24
2763	1.9817	-3.3458	0.	129.05
2764	1.7321	-3.0877	0.	128.74
2765	2.2285	-3.1212	0.	129.15
2766	1.7888	-4.5891	0.	128.51
2767	2.0294	-4.3405	0.	128.83
2768	-3.9513	-4.2827	0.	129.39
2769	-3.6897	-4.5222	0.	129.32
2770	-3.8633	-3.3564	0.	130.32
2771	-3.7787	-2.9368	0.	131.4
2772	-3.5826	-3.1472	0.	130.52
2773	-4.0301	-3.0392	0.	130.71
2774	2.0288	4.2634	0.	127.74
2775	1.7685	4.5111	0.	127.79
2776	-1.6768	2.0715	0.	121.71
2777	-1.445	2.3177	0.	120.68
2778	-1.185	2.0821	0.	121.92
2779	-1.4099	1.8477	0.	121.75
2780	-3.1851	1.9657	0.	128.12
2781	-3.7016	1.9536	0.	131.06
2782	-3.455	2.2087	0.	130.1
2783	-3.4208	1.668	0.	129.52
2784	-2.6753	2.0073	0.	125.4
2785	-2.9457	2.238	0.	127.79
2786	1.7487	5.511	0.	129.13
2787	1.9965	5.7632	0.	129.67
2788	-3.9999	5.7492	0.	127.58
2789	-3.7499	5.499	0.	128.24
2790	-4.	7.2499	0.	127.72
2791	-4.25	6.9999	0.	127.84
2792	-3.75	6.9999	0.	128.56
2793	-4.	6.7498	0.	128.15
2794	6.0079	-3.9418	0.	121.88
2795	5.7413	-4.191	0.	119.99
2796	6.9485	-3.9204	0.	124.83
2797	7.1751	-4.1588	0.	126.4
2798	7.4157	-3.9258	0.	125.55
2799	7.1925	-3.6776	0.	124.49
2800	2.7772	-6.855	0.	128.2
2801	2.9463	-7.376	0.	129.12
2802	3.099	-7.0552	0.	128.81
2803	2.4765	-5.8661	0.	128.38
2804	2.6132	-5.5776	0.	128.99
2805	3.3188	-4.4318	0.	130.02
2806	3.1181	-4.7144	0.	130.54
2807	4.2802	-4.2059	0.	126.24
2808	4.5775	-4.3724	0.	123.91
2809	4.7264	-4.0757	0.	123.58
2810	6.0602	-2.4971	0.	124.72
2811	5.8141	-2.2661	0.	126.28
2812	4.8395	-1.3091	0.	127.27
2813	5.0721	-1.556	0.	127.88
2814	-4.1689	-3.5356	0.	129.63
2815	-4.6801	-3.4545	0.	129.1
2816	-4.3356	-3.2184	0.	130.01
2817	1.83	-6.8791	0.	129.62
2818	1.8993	-7.3574	0.	128.83
2819	1.6167	-7.1072	0.	129.97
2820	6.5311	-2.9622	0.	122.97
2821	6.3013	-2.7278	0.	123.69
2822	6.7704	-2.7105	0.	122.36
2823	6.7532	-3.1978	0.	122.97
2824	6.992	-2.9492	0.	122.36
2825	4.5388	1.6478	0.	129.35
2826	4.7773	1.4015	0.	127.66
2827	1.7894	-6.4	0.	129.77
2828	1.5714	-6.6191	0.	130.89
2829	1.5759	-6.1283	0.	130.05
2830	-4.6435	-1.6583	0.	129.77
2831	-4.5844	-1.175	0.	128.34
2832	-4.3777	-1.4176	0.	129.35
2833	-4.7053	-2.1494	0.	130.83
2834	-4.9188	-1.8839	0.	130.82
2835	-4.4393	-1.8999	0.	131.28
2836	-0.2776	-2.5224	0.	122.6
2837	-0.77337	-2.5212	0.	121.33
2838	-0.51811	-2.7873	0.	119.82
2839	-0.56321	-2.3571	0.	123.32
2840	5.109	-1.061	0.	127.22
2841	4.8782	-0.81158	0.	126.17
2842	6.5406	-2.4761	0.	123.09
2843	6.3078	-2.2444	0.	124.81
2844	6.7792	-2.2199	0.	122.01
2845	7.0047	-2.4539	0.	121.24
2846	3.6122	-4.616	0.	130.49
2847	3.8068	-4.3269	0.	128.79
2848	2.6288	-6.3513	0.	127.96
2849	2.7751	-6.0576	0.	128.07
2850	2.9247	-6.555	0.	127.48
2851	7.4012	-4.4075	0.	127.43
2852	7.6262	-4.6576	0.	127.93
2853	7.8693	-4.4281	0.	127.22
2854	7.6417	-4.1746	0.	126.59
2855	6.4783	-3.9265	0.	123.46
2856	6.701	-4.1587	0.	125.14
2857	6.7278	-3.6806	0.	123.82
2858	6.2233	-4.1711	0.	122.43
2859	1.9957	6.7571	0.	129.75
2860	1.9972	7.2546	0.	128.45
2861	1.747	7.0044	0.	129.17
2862	2.2458	7.0077	0.	129.77
2863	-3.75	5.9995	0.	128.5
2864	-4.	6.2496	0.	127.95
2865	1.7457	6.5068	0.	130.14
2866	2.2439	6.5119	0.	130.81
2867	1.9949	6.2604	0.	130.17
2868	-2.173	2.0463	0.	123.05
2869	-2.3903	1.7875	0.	123.02
2870	-2.4402	2.2741	0.	125.17
2871	-1.9408	2.302	0.	122.45
2872	-1.8989	1.8274	0.	121.51
2873	1.7797	4.0079	0.	127.71
2874	2.0388	3.7589	0.	127.87
2875	-3.9431	-3.8099	0.	129.67
2876	-3.6659	-3.5881	0.	129.9
2877	-3.7102	-4.052	0.	129.41
2878	1.7331	-3.5701	0.	129.19
2879	1.9957	-3.8328	0.	129.07
2880	2.2291	-3.5884	0.	129.3
2881	-3.886	-6.1785	0.	130.75
2882	-3.6582	-5.9433	0.	130.9
2883	-4.1151	-6.406	0.	130.78
2884	-3.635	-6.4078	0.	131.07
2885	-4.7493	4.9981	0.	124.38
2886	-4.499	4.747	0.	126.41
2887	-4.9989	4.7477	0.	123.04
2888	-4.7897	-0.92331	0.	126.68
2889	-5.0137	-0.67499	0.	125.54
2890	-4.5424	-0.69406	0.	128.33
2891	-4.3226	-0.93784	0.	128.31
2892	-5.4999	6.2497	0.	123.03
2893	-5.7498	5.9996	0.	121.63
2894	-5.4997	5.7493	0.	121.89
2895	3.5608	4.3644	0.	127.62
2896	3.7876	4.6198	0.	127.97
2897	3.5223	4.8418	0.	128.62
2898	3.8419	4.1469	0.	126.73
2899	3.519	1.216	0.	129.02
2900	3.2624	0.98857	0.	128.33
2901	3.2816	1.4743	0.	130.88
2902	1.2949	-2.1036	0.	123.82
2903	1.0078	-2.2975	0.	124.1
2904	1.0673	-1.8417	0.	120.71
2905	0.75522	-2.03	0.	122.4
2906	1.6006	-1.9214	0.	124.6
2907	3.0833	-0.93591	0.	129.88
2908	3.3643	-0.71859	0.	128.38
2909	4.0416	2.5976	0.	131.39
2910	4.2796	2.8166	0.	131.61
2911	4.2953	2.3642	0.	131.77
2912	-5.7283	-3.9558	0.	130.04
2913	-6.1096	-4.1387	0.	126.1
2914	-5.8295	-4.3492	0.	128.61
2915	-5.582	-4.276	0.	129.55
2916	-4.3407	-6.631	0.	130.29
2917	-4.5695	-6.8517	0.	130.19
2918	-4.3102	-7.0854	0.	128.85
2919	-4.5985	-6.3926	0.	130.8
2920	-5.9056	-3.73	0.	129.56
2921	-5.5459	-3.5488	0.	129.53
2922	6.2325	0.39498	0.	127.34
2923	5.955	0.12144	0.	124.66
2924	0.12692	-1.1122	0.	123.2
2925	0.32582	-0.57787	0.	122.2
2926	0.47489	-0.93793	0.	119.09
2927	5.7313e-002	-0.69053	0.	125.46
2928	-5.3464	-5.1979	0.	127.99
2929	-5.5841	-4.972	0.	127.12
2930	-5.3447	-4.6815	0.	129.06
2931	-2.311	1.3029	0.	120.68
2932	-2.1162	1.5686	0.	121.47
2933	-7.2499	5.9999	0.	122.7
2934	-6.9999	6.2499	0.	121.67
2935	4.1827	-7.5082	0.	129.4
2936	3.8206	-7.3974	0.	130.64
2937	3.9356	-7.0842	0.	130.8
2938	4.3078	-7.2241	0.	127.53
2939	5.456	-4.9417	0.	115.59
2940	5.2288	-5.2207	0.	115.35
2941	4.9652	-5.0255	0.	118.79
2942	4.9819	5.8569	0.	121.2
2943	4.7337	6.0793	0.	120.8
2944	4.987	6.3139	0.	118.46
2945	5.2336	6.0883	0.	118.81
2946	-2.9996	4.7486	0.	131.8
2947	-2.9999	5.2491	0.	131.24
2948	-2.7499	4.9993	0.	134.5
2949	-1.0001	7.25	0.	116.66
2950	-1.2501	7.	0.	116.48
2951	-0.75022	7.0001	0.	116.33
2952	-1.0001	6.75	0.	114.62
2953	-0.73765	3.0432	0.	116.92
2954	-1.2318	3.0374	0.	116.95
2955	-0.98866	3.2799	0.	115.24
2956	1.0027	5.2541	0.	129.75
2957	1.008	4.7543	0.	129.24
2958	0.75417	5.0032	0.	132.49
2959	-1.0167	-2.7538	0.	118.17
2960	-0.76147	-3.0199	0.	116.53
2961	-1.0025	-3.2694	0.	113.91
2962	-1.2448	-3.047	0.	115.13
2963	0.98497	-5.2984	0.	129.01
2964	0.75139	-5.0332	0.	131.08
2965	1.0084	-4.7969	0.	128.82
2966	-5.7491	3.9989	0.	116.12
2967	-5.9995	3.7495	0.	114.29
2968	-6.2495	3.9996	0.	115.76
2969	-3.9597	1.7074	0.	132.65
2970	-4.2216	1.9716	0.	135.63
2971	-3.9687	2.2168	0.	132.57
2972	-5.6798	-1.3342	0.	123.54
2973	-5.5809	-1.56	0.	127.44
2974	7.1859	-6.6461	0.	127.23
2975	6.7232	-6.6297	0.	130.68
2976	6.9841	-6.4327	0.	127.23
2977	6.9287	-6.8695	0.	128.4
2978	-3.75	7.5	0.	127.5
2979	-3.25	7.5	0.	127.66
2980	-3.5	7.2499	0.	128.33
2981	-3.5	7.75	0.	126.95
2982	-1.25	7.5	0.	118.81
2983	-0.7501	7.5	0.	118.69
2984	-1.	7.75	0.	119.13
2985	1.7483	7.5028	0.	127.52
2986	1.4981	7.2526	0.	128.25
2987	1.2488	7.5015	0.	127.25
2988	1.4989	7.7516	0.	126.68
2989	2.2477	7.5047	0.	128.1
2990	1.9984	7.7529	0.	126.87
2991	-4.25	7.4999	0.	127.3
2992	-4.	7.75	0.	126.67
2993	-4.75	6.9999	0.	127.41
2994	-4.5	7.2499	0.	127.42
2995	4.5907	-7.6667	0.	125.81
2996	4.8627	-7.8628	0.	122.82
2997	5.1036	-7.8173	0.	118.81
2998	4.7158	-7.3825	0.	123.91
2999	4.0882	-7.8451	0.	129.02
3000	4.3427	-7.911	0.	127.58
3001	3.3064	-7.5651	0.	130.19
3002	3.7261	-7.7343	0.	130.26
3003	3.4592	-7.2444	0.	129.88
3004	2.7469	-7.6255	0.	129.26
3005	3.2214	-7.8602	0.	129.86
3006	2.9853	-7.8778	0.	129.71
3007	2.1961	-7.6022	0.	128.62
3008	2.4584	-7.8481	0.	129.
3009	1.687	-7.5909	0.	128.31
3010	1.9544	-7.8363	0.	128.33
3011	1.4044	-7.3408	0.	129.44
3012	1.1965	-7.5926	0.	128.05
3013	1.4618	-7.8305	0.	127.68
3014	1.4113	-5.8447	0.	129.74
3015	1.209	-5.5716	0.	128.99
3016	7.4371	-6.4509	0.	126.14
3017	7.657	-6.5557	0.	125.95
3018	7.4183	-6.8575	0.	126.79
3019	7.4179	-7.7744	0.	128.47
3020	7.4172	-7.3014	0.	127.78
3021	7.6757	-7.522	0.	127.83
3022	7.1441	-7.5311	0.	128.74
3023	6.0682	1.1807	0.	125.1
3024	5.6703	1.3231	0.	125.08
3025	5.9381	1.445	0.	124.28
3026	6.3518	1.3033	0.	125.42
3027	6.491	1.0164	0.	124.75
3028	1.3581	-6.8473	0.	131.23
3029	1.1117	-7.083	0.	132.07
3030	-4.4885	-2.3984	0.	131.47
3031	-4.2225	-2.1489	0.	131.91
3032	-4.0026	-2.3609	0.	132.94
3033	-4.2464	-2.6688	0.	131.27
3034	-3.5261	-2.7264	0.	131.45
3035	-3.7543	-2.5293	0.	133.01
3036	-3.9981	-2.8373	0.	131.36
3037	5.419	-0.33365	0.	124.82
3038	5.19	-8.2347e-002	0.	124.25
3039	5.69	-9.5356e-002	0.	124.11
3040	6.0617	-2.0134	0.	126.36
3041	5.8198	-1.7817	0.	128.29
3042	3.4115	-4.8985	0.	130.99
3043	3.2275	-5.1871	0.	131.23
3044	7.5	-6.0457	0.	126.21
3045	7.678	-6.3608	0.	125.8
3046	7.2353	-6.2375	0.	126.15
3047	6.9276	-4.3971	0.	126.7
3048	7.1578	-4.6333	0.	128.82
3049	2.4963	7.2579	0.	129.42
3050	2.7475	7.5073	0.	129.6
3051	2.4981	7.7547	0.	127.77
3052	3.2428	5.5538	0.	130.79
3053	2.992	5.788	0.	131.79
3054	-2.75	7.5	0.	126.91
3055	-3.	7.75	0.	126.83
3056	-3.	7.2499	0.	128.72
3057	-1.75	7.5	0.	121.32
3058	-1.5	7.25	0.	118.68
3059	-1.5	7.75	0.	120.33
3060	-3.25	6.9999	0.	129.39
3061	-3.5	6.7498	0.	129.28
3062	1.497	6.7541	0.	129.56
3063	1.2479	7.0026	0.	129.18
3064	1.2498	5.5057	0.	129.39
3065	1.4982	5.7571	0.	129.41
3066	-0.25022	7.5001	0.	120.98
3067	-0.50011	7.7501	0.	120.14
3068	-0.50023	7.2501	0.	118.42
3069	0.99926	7.7508	0.	126.35
3070	0.99868	7.2515	0.	128.19
3071	0.74919	7.5008	0.	126.35
3072	-1.7089	2.5482	0.	121.42
3073	-1.4698	2.795	0.	119.
3074	-3.2156	2.481	0.	129.77
3075	-2.9724	2.743	0.	130.22
3076	-2.7106	2.5048	0.	127.55
3077	1.7708	2.9936	0.	127.37
3078	2.0293	2.7509	0.	128.76
3079	2.0371	3.2543	0.	128.19
3080	-0.47006	2.3308	0.	122.4
3081	-0.24402	2.5773	0.	121.66
3082	-0.48702	2.8088	0.	119.38
3083	1.5194	4.2556	0.	127.76
3084	1.2634	4.5056	0.	128.28
3085	1.2515	2.9842	0.	125.99
3086	1.501	2.729	0.	125.13
3087	1.5155	3.241	0.	126.96
3088	-1.7314	-2.6501	0.	117.38
3089	-1.2707	-2.554	0.	119.5
3090	-1.4989	-2.8472	0.	116.57
3091	-1.6494	-2.4194	0.	117.31
3092	-3.4486	-4.2915	0.	129.34
3093	-3.2032	-4.5252	0.	129.52
3094	-3.3851	-3.3788	0.	130.09
3095	-3.33	-2.9367	0.	130.56
3096	-3.1216	-3.152	0.	129.4
3097	1.5166	-4.3209	0.	128.56
3098	1.2702	-4.5626	0.	128.48
3099	0.98256	-2.7743	0.	127.09
3100	-3.3735	-6.6347	0.	130.91
3101	-3.114	-6.8495	0.	130.89
3102	-3.32	-7.0862	0.	129.55
3103	-3.4251	-5.7067	0.	130.69
3104	-3.1913	-5.4688	0.	130.7
3105	-6.7497	4.4998	0.	120.11
3106	-6.4996	4.2497	0.	117.61
3107	-3.4764	2.727	0.	131.5
3108	-3.7221	2.4719	0.	131.61
3109	-5.2488	4.4978	0.	121.09
3110	-5.4989	4.2484	0.	118.31
3111	-3.749	4.4962	0.	130.07
3112	-3.4983	4.2453	0.	131.51
3113	-3.2493	4.4975	0.	131.32
3114	-4.2487	4.4959	0.	128.23
3115	-3.998	4.2442	0.	130.67
3116	-5.2454	-0.42936	0.	123.45
3117	-5.4887	-0.18674	0.	120.77
3118	-5.7236	-0.42292	0.	120.58
3119	-3.4692	1.1465	0.	130.89
3120	-3.6789	1.4218	0.	131.1
3121	-3.2547	1.1374	0.	129.04
3122	-4.2817	-0.46284	0.	129.74
3123	-3.7868	-0.47898	0.	131.12
3124	-4.0237	-0.23517	0.	132.3
3125	-4.0619	-0.70661	0.	129.71
3126	-7.2499	4.9999	0.	122.89
3127	-6.9998	4.7499	0.	121.73
3128	-7.4999	5.25	0.	123.91
3129	-7.4999	4.75	0.	124.72
3130	-7.7499	5.	0.	125.1
3131	-7.4999	5.7499	0.	123.68
3132	-7.7499	5.5	0.	124.55
3133	-7.4999	6.2499	0.	123.97
3134	-7.7499	6.	0.	124.55
3135	-5.2499	6.4998	0.	124.65
3136	-5.	6.7498	0.	126.46
3137	-6.2499	6.4998	0.	120.68
3138	-6.7499	6.4999	0.	120.88
3139	-6.4999	6.7499	0.	119.24
3140	4.7324	5.6186	0.	124.73
3141	4.2366	5.5978	0.	127.64
3142	4.4843	5.841	0.	124.46
3143	4.4911	5.3754	0.	128.25
3144	4.3232	3.4724	0.	128.58
3145	4.1465	3.9308	0.	126.65
3146	4.4549	3.7195	0.	127.01
3147	4.0209	4.8759	0.	128.51
3148	3.9963	5.35	0.	128.99
3149	4.2508	5.1275	0.	129.58
3150	3.7556	5.0978	0.	129.16
3151	3.0386	1.7354	0.	132.24
3152	2.7927	1.9924	0.	133.72
3153	2.9612	0.27508	0.	127.01
3154	2.9994	0.7599	0.	127.79
3155	2.7378	0.5289	0.	127.03
3156	0.70411	2.3005	0.	121.
3157	0.69584	2.5079	0.	122.
3158	0.96354	2.7044	0.	123.34
3159	0.97593	2.154	0.	117.58
3160	1.213	2.4492	0.	122.4
3161	2.2846	2.5	0.	130.46
3162	2.5429	2.2525	0.	133.21
3163	1.902	-1.734	0.	126.44
3164	2.2046	-1.5436	0.	130.14
3165	0.83709	-1.5647	0.	119.17
3166	0.29	-1.4449	0.	121.44
3167	0.63797	-1.2706	0.	117.33
3168	0.52501	-1.753	0.	120.93
3169	2.6914	4.7438e-002	0.	127.73
3170	2.9136	-0.2048	0.	128.12
3171	2.7957	-1.1462	0.	130.76
3172	2.5031	-1.3484	0.	131.13
3173	-0.69873	2.0872	0.	123.21
3174	-0.92271	1.847	0.	123.81
3175	0.46725	2.3827	0.	122.03
3176	0.24514	2.146	0.	122.56
3177	0.5081	1.9516	0.	120.48
3178	4.5466	2.1214	0.	131.09
3179	4.8027	1.8836	0.	129.67
3180	4.6739	3.272	0.	130.9
3181	4.4861	3.0301	0.	131.08
3182	-5.349	-5.6822	0.	127.67
3183	-5.1074	-5.447	0.	128.55
3184	-5.5924	-5.4519	0.	125.59
3185	-4.8501	-6.1536	0.	130.48
3186	-5.104	-5.9213	0.	128.99
3187	-4.8625	-5.6861	0.	129.87
3188	7.7556	3.3148	0.	124.19
3189	7.9914	3.5233	0.	123.62
3190	7.7631	3.7663	0.	123.68
3191	7.6125	3.5643	0.	124.94
3192	7.6825	2.8714	0.	124.24
3193	7.5025	3.1327	0.	125.59
3194	7.9411	3.0692	0.	124.61
3195	8.1968	3.7423	0.	123.58
3196	8.4086	3.4989	0.	124.21
3197	8.1769	3.2777	0.	124.04
3198	-4.8273	-6.6133	0.	130.69
3199	-5.0573	-6.8346	0.	130.63
3200	-4.8017	-7.0632	0.	129.6
3201	-5.0888	-6.3831	0.	130.46
3202	-2.2104	0.81496	0.	116.2
3203	-2.4832	1.0326	0.	121.27
3204	-2.0395	1.0975	0.	119.4
3205	-6.0645	-4.9991	0.	124.06
3206	-5.8322	-4.775	0.	126.8
3207	-5.8301	-5.226	0.	124.74
3208	4.8018	2.3585	0.	131.7
3209	4.5333	2.5832	0.	131.99
3210	-1.1078	0.71265	0.	123.82
3211	-1.4013	0.52981	0.	122.44
3212	-1.3429	0.95055	0.	122.27
3213	-1.551	0.71868	0.	120.52
3214	-0.4393	1.8483	0.	126.35
3215	-0.2213	2.1036	0.	124.02
3216	2.5747	-0.89165	0.	131.61
3217	2.8585	-0.67911	0.	129.89
3218	1.373	-1.6594	0.	121.44
3219	1.159	-1.3973	0.	116.86
3220	1.6828	-1.4812	0.	124.59
3221	2.0305	2.253	0.	130.5
3222	1.7595	2.4862	0.	126.51
3223	3.025	1.2469	0.	130.19
3224	2.7714	1.015	0.	129.85
3225	2.7874	1.5023	0.	133.15
3226	4.0687	4.4024	0.	127.07
3227	4.2821	4.6566	0.	128.73
3228	4.3446	4.1858	0.	126.82
3229	4.9831	5.3987	0.	126.29
3230	5.2293	5.6331	0.	121.31
3231	-5.7499	6.4998	0.	122.44
3232	-5.9999	6.7498	0.	121.24
3233	-5.9999	6.2497	0.	121.04
3234	-5.4999	6.7498	0.	124.71
3235	-7.2499	6.4999	0.	122.94
3236	-7.75	6.5	0.	125.11
3237	-7.5	6.7499	0.	125.1
3238	-6.9999	6.7499	0.	121.53
3239	-3.7697	0.93215	0.	133.44
3240	-3.5258	0.67042	0.	133.44
3241	-3.3242	0.89433	0.	130.38
3242	-4.7664	-0.44575	0.	127.19
3243	-5.0043	-0.19887	0.	125.96
3244	-4.518	-0.21547	0.	130.5
3245	-4.7486	4.4967	0.	125.07
3246	-4.4979	4.2451	0.	128.45
3247	-4.9983	4.247	0.	123.53
3248	-3.4888	3.2365	0.	132.75
3249	-3.2332	2.989	0.	131.94
3250	-3.7361	2.9824	0.	132.92
3251	-7.2498	4.4999	0.	123.56
3252	-6.9998	4.2499	0.	122.14
3253	-7.4999	4.25	0.	126.47
3254	-7.7499	4.5	0.	126.29
3255	-3.4072	-6.1726	0.	131.21
3256	-3.1812	-5.9339	0.	131.62
3257	-3.1598	-6.3926	0.	132.04
3258	-2.6641e-002	-2.7437	0.	123.4
3259	-6.5439e-002	-2.2193	0.	123.82
3260	1.4946	-3.8096	0.	129.01
3261	1.2534	-4.0502	0.	129.18
3262	1.7572	-4.0723	0.	128.89
3263	1.2352	-3.541	0.	129.64
3264	1.4836	-3.3119	0.	128.89
3265	-3.433	-3.8302	0.	129.64
3266	-3.1722	-3.6016	0.	129.83
3267	-3.2022	-4.0588	0.	129.61
3268	-2.1662	-2.678	0.	118.4
3269	-1.9521	-2.8959	0.	117.92
3270	-1.8653	-2.4471	0.	116.73
3271	-2.6156	-2.6882	0.	123.06
3272	-2.3553	-2.4517	0.	116.8
3273	-2.4042	-2.9056	0.	122.45
3274	1.2686	4.004	0.	128.25
3275	1.5227	3.7506	0.	127.61
3276	0.22685	2.5869	0.	122.77
3277	4.743e-003	2.3501	0.	123.3
3278	-2.6419e-003	2.8173	0.	122.59
3279	0.47718	2.8127	0.	124.45
3280	-1.9682	2.7832	0.	123.35
3281	-2.208	2.5299	0.	124.57
3282	-3.4953	3.7419	0.	132.76
3283	-3.7473	3.9933	0.	132.11
3284	-3.2474	3.9958	0.	132.76
3285	-3.2426	3.4933	0.	133.36
3286	-3.7433	3.4891	0.	133.48
3287	-2.4295e-004	7.7502	0.	122.66
3288	-5.0142e-004	7.2503	0.	122.83
3289	0.24952	7.5004	0.	124.11
3290	1.2472	6.5038	0.	130.46
3291	1.4967	6.2558	0.	129.92
3292	-3.25	5.9996	0.	130.25
3293	-3.5	5.7492	0.	129.16
3294	-3.5	6.2496	0.	129.41
3295	-2.25	7.5	0.	124.62
3296	-2.	7.25	0.	123.33
3297	-2.	7.75	0.	123.03
3298	-2.5	7.25	0.	127.46
3299	-2.5	7.75	0.	125.55
3300	3.7404	5.5755	0.	129.83
3301	3.4997	5.3233	0.	129.99
3302	3.4901	5.8054	0.	131.71
3303	3.9876	5.8229	0.	128.71
3304	2.4941	6.7625	0.	130.83
3305	2.745	7.0122	0.	131.37
3306	2.7421	6.519	0.	132.48
3307	2.4929	6.2682	0.	131.29
3308	6.6809	-4.6287	0.	127.64
3309	6.446	-4.4033	0.	124.12
3310	7.5657	-5.604	0.	127.29
3311	7.3114	-5.8104	0.	127.69
3312	7.7744	-5.8824	0.	126.2
3313	3.071	-6.2613	0.	127.58
3314	3.212	-5.96	0.	128.46
3315	2.9117	-5.7691	0.	128.68
3316	3.3713	-6.4506	0.	127.65
3317	3.2466	-6.7552	0.	128.09
3318	3.9022	-4.7903	0.	129.72
3319	4.0968	-4.5013	0.	128.03
3320	4.3942	-4.6678	0.	125.7
3321	4.1923	-4.967	0.	128.94
3322	3.7098	-5.0823	0.	132.35
3323	6.5464	-1.9883	0.	123.74
3324	6.3154	-1.7611	0.	127.26
3325	6.7941	-1.7314	0.	122.16
3326	7.0153	-1.9572	0.	120.11
3327	5.3788	-0.81921	0.	126.53
3328	5.6452	-0.5748	0.	126.52
3329	5.148	-0.5698	0.	125.49
3330	5.606	-1.0591	0.	128.64
3331	5.3416	-1.3079	0.	127.82
3332	8.0403	1.9119	0.	122.29
3333	8.2318	1.6156	0.	124.74
3334	7.7743	1.6923	0.	116.12
3335	7.9391	1.51	0.	120.93
3336	7.8203	2.1532	0.	120.86
3337	8.2955	2.0679	0.	124.68
3338	8.0875	2.3524	0.	123.13
3339	7.6121	2.4141	0.	121.59
3340	7.4087	2.6872	0.	123.74
3341	7.8793	2.6134	0.	123.8
3342	-4.7677	-2.653	0.	130.08
3343	-5.0546	-2.8806	0.	129.83
3344	-4.87	-3.1596	0.	128.97
3345	-4.5255	-2.9235	0.	129.9
3346	-4.9795	-2.3777	0.	131.55
3347	-0.15438	-1.1437	0.	124.28
3348	-0.21143	-1.4665	0.	124.74
3349	-4.175e-002	-1.6647	0.	123.68
3350	-0.49322	-1.0313	0.	124.84
3351	-0.44858	-0.65912	0.	127.77
3352	-0.22398	-0.722	0.	126.62
3353	-1.1507	-2.255	0.	123.73
3354	-0.81581	-2.3216	0.	123.02
3355	-3.0758	-2.708	0.	128.48
3356	-3.296	-2.4991	0.	132.22
3357	-2.8673	-2.9233	0.	127.33
3358	-2.8289	-2.4756	0.	125.38
3359	-3.9123	-1.413	0.	130.97
3360	-4.1735	-1.6592	0.	130.86
3361	-4.116	-1.1804	0.	129.32
3362	6.2116	5.1784	0.	112.24
3363	5.7185	5.1867	0.	116.12
3364	5.9566	4.9602	0.	108.91
3365	5.9701	5.4116	0.	114.34
3366	6.7253	5.6159	0.	121.34
3367	6.4671	5.3988	0.	116.27
3368	6.4807	5.8556	0.	122.7
3369	6.2256	5.632	0.	118.04
3370	2.5098	0.78399	0.	129.06
3371	2.2507	0.55188	0.	131.46
3372	2.4679	0.30126	0.	127.74
3373	-5.7398	4.6933e-002	0.	118.81
3374	-5.2476	4.3748e-002	0.	123.28
3375	-5.4955	0.28559	0.	118.4
3376	-2.7124	-5.4684	0.	133.06
3377	-2.9543	-5.2308	0.	130.99
3378	-2.9474	-5.6959	0.	131.62
3379	-0.49327	3.285	0.	115.96
3380	-0.24565	3.0489	0.	120.31
3381	-2.9984	4.248	0.	132.56
3382	-2.7494	4.4992	0.	133.92
3383	0.75029	5.5027	0.	131.86
3384	0.99926	5.7537	0.	130.23
3385	-1.75	7.	0.	120.68
3386	-1.5001	6.75	0.	116.06
3387	2.9982	7.7568	0.	130.17
3388	2.9961	7.2616	0.	131.54
3389	3.2481	7.5079	0.	133.2
3390	-3.5722	-0.71662	0.	129.85
3391	-3.6436	-1.1769	0.	130.08
3392	-3.3683	-0.94879	0.	132.76
3393	-3.8473	-0.94425	0.	128.47
3394	-7.9381	-6.1066	0.	126.41
3395	-7.6577	-5.8644	0.	123.48
3396	-7.8329	-5.5961	0.	123.88
3397	-8.0345	-5.5986	0.	126.06
3398	-8.2106	-5.8724	0.	127.05
3399	-7.9476	-6.6393	0.	127.67
3400	-7.6798	-6.3991	0.	126.58
3401	-8.2009	-6.4015	0.	127.86
3402	-7.8909	-7.1506	0.	126.77
3403	-7.7101	-6.9319	0.	128.4
3404	-8.2001	-6.9133	0.	127.81
3405	5.5365	1.6252	0.	125.12
3406	5.2492	1.3888	0.	126.25
3407	6.2217	1.5676	0.	124.61
3408	6.0462	1.8122	0.	122.65
3409	5.8043	1.7472	0.	124.31
3410	7.2253	5.5883	0.	124.94
3411	6.9644	5.373	0.	123.77
3412	6.9815	5.8369	0.	123.97
3413	7.7256	5.5522	0.	127.13
3414	7.4822	5.8098	0.	124.1
3415	7.4616	5.3314	0.	128.83
3416	7.9684	3.9854	0.	123.67
3417	8.4075	3.9608	0.	124.01
3418	8.3146	4.1977	0.	124.53
3419	7.4264	-8.2605	0.	128.49
3420	7.6825	-8.0104	0.	128.33
3421	7.1619	-8.0111	0.	129.03
3422	1.3578	-6.3474	0.	131.16
3423	1.1435	-6.0713	0.	130.79
3424	3.641	-8.0293	0.	129.94
3425	3.9022	-8.253	0.	129.03
3426	4.1313	-8.0468	0.	128.39
3427	3.4267	-8.3143	0.	129.79
3428	3.1692	-8.0953	0.	129.9
3429	1.9832	-8.3182	0.	128.72
3430	2.2168	-8.0822	0.	128.71
3431	1.7293	-8.0758	0.	127.7
3432	1.0186	-8.327	0.	126.95
3433	0.77305	-8.1059	0.	127.72
3434	0.98215	-7.8431	0.	126.67
3435	1.2475	-8.081	0.	126.31
3436	8.1216	-3.1965	0.	124.03
3437	8.1258	-2.6897	0.	122.51
3438	8.351	-2.9523	0.	124.17
3439	7.8977	-2.9423	0.	122.77
3440	8.0732	-5.1797	0.	127.12
3441	8.3227	-4.9468	0.	127.11
3442	7.8518	-4.9154	0.	127.92
3443	8.095	-4.6859	0.	127.21
3444	8.298	-5.444	0.	126.62
3445	7.8246	-5.3993	0.	127.51
3446	8.0333	-5.6777	0.	126.41
3447	8.1748	-6.4721	0.	125.66
3448	7.9155	-6.7359	0.	126.01
3449	7.9525	-6.1975	0.	125.78
3450	-8.	6.25	0.	125.69
3451	-8.25	6.	0.	125.89
3452	-8.	5.75	0.	125.41
3453	-8.	6.75	0.	126.57
3454	-8.25	6.5	0.	126.27
3455	-4.75	8.	0.	126.52
3456	-4.5	8.25	0.	125.42
3457	-4.5	7.75	0.	126.64
3458	-4.25	8.	0.	126.02
3459	-3.25	8.	0.	126.11
3460	-3.5	8.25	0.	125.69
3461	-3.75	8.	0.	126.12
3462	-3.	8.25	0.	125.52
3463	-2.75	8.	0.	125.47
3464	-0.25012	8.0001	0.	121.81
3465	-0.50006	8.25	0.	121.56
3466	-0.75006	8.	0.	120.56
3467	-1.287e-004	8.2501	0.	122.95
3468	0.24973	8.0003	0.	123.62
3469	0.99962	8.2505	0.	125.27
3470	1.2493	8.001	0.	125.76
3471	0.74956	8.0005	0.	125.06
3472	2.7488	8.0043	0.	128.34
3473	2.2488	8.0029	0.	126.54
3474	2.4991	8.2529	0.	126.46
3475	2.9992	8.2538	0.	128.84
3476	3.2492	8.0044	0.	133.37
3477	-2.8265	-7.0537	0.	129.86
3478	-3.0326	-7.2904	0.	128.51
3479	-2.5092	-7.2317	0.	127.49
3480	-2.7505	-7.4951	0.	127.07
3481	7.9615	5.2808	0.	129.08
3482	8.2271	5.5182	0.	128.45
3483	7.9827	5.7788	0.	126.66
3484	-7.3994	-6.1569	0.	123.69
3485	-7.1198	-5.9133	0.	119.3
3486	-7.3372	-5.6534	0.	119.56
3487	-3.5137	-0.25707	0.	132.74
3488	-3.2801	-0.49878	0.	132.02
3489	-5.9747	-0.18925	0.	118.67
3490	-6.2071	-0.43567	0.	120.43
3491	-5.9442	-0.65328	0.	119.92
3492	-6.2362	3.754e-002	0.	118.81
3493	-5.9915	0.28324	0.	116.88
3494	-0.66327	1.6081	0.	126.88
3495	-0.89092	1.3795	0.	125.29
3496	-1.1476	1.6127	0.	123.63
3497	-0.7908	-0.27018	0.	130.03
3498	-1.1898	-0.11603	0.	128.35
3499	-0.97673	5.8654e-002	0.	127.68
3500	1.9853	-1.2907	0.	128.28
3501	2.2821	-1.0939	0.	131.97
3502	2.2888	2.0054	0.	133.22
3503	2.5415	1.7593	0.	134.6
3504	-6.3249	-1.15	0.	119.44
3505	-6.4125	-0.68173	0.	119.89
3506	-6.6014	-0.93911	0.	123.99
3507	-6.1496	-0.89934	0.	119.41
3508	-5.7749	-1.5573	0.	125.81
3509	-6.0749	-1.3577	0.	121.11
3510	-5.8996	-1.107	0.	121.
3511	6.7062	5.1558	0.	118.63
3512	6.451	4.9436	0.	109.87
3513	7.9152	4.7752	0.	128.47
3514	7.6975	5.06	0.	130.7
3515	8.202	5.0051	0.	129.09
3516	-5.25	6.9999	0.	126.51
3517	-5.	7.2499	0.	127.69
3518	-6.75	6.9999	0.	119.87
3519	-6.25	6.9999	0.	119.8
3520	-6.5	7.2499	0.	115.51
3521	-8.	7.25	0.	127.5
3522	-8.25	7.	0.	126.97
3523	-7.75	7.	0.	126.54
3524	-3.9794	1.2075	0.	133.65
3525	-4.2209	1.4686	0.	134.97
3526	-4.2599	1.2201e-002	0.	133.06
3527	-4.0091	0.23806	0.	134.76
3528	-3.7506	-1.3262e-002	0.	133.93
3529	-5.2483	3.9975	0.	120.75
3530	-5.4989	3.7487	0.	116.03
3531	-4.2472	3.9933	0.	130.88
3532	-3.9953	3.7405	0.	132.83
3533	-7.7499	4.0001	0.	128.34
3534	-7.9999	4.2501	0.	128.18
3535	-8.	3.7503	0.	129.62
3536	-8.25	4.0002	0.	128.91
3537	0.94127	-5.7982	0.	130.04
3538	0.72314	-5.5328	0.	130.17
3539	-1.815	-6.8096	0.	123.4
3540	-1.6601	-7.0367	0.	122.19
3541	-1.5631	-6.6249	0.	116.94
3542	-1.3604	-6.861	0.	116.83
3543	-2.9003	-6.6074	0.	132.02
3544	-2.659	-6.8072	0.	131.12
3545	-0.26716	-3.0086	0.	120.6
3546	-0.50953	-3.2637	0.	115.59
3547	0.98164	-3.2724	0.	129.3
3548	0.72716	-3.0065	0.	127.98
3549	1.23	-3.0433	0.	128.54
3550	-2.9568	-4.2925	0.	129.79
3551	-2.7181	-4.5217	0.	131.74
3552	-2.9582	-4.7608	0.	130.34
3553	-2.6559	-3.1407	0.	126.65
3554	-2.9086	-3.3748	0.	129.15
3555	1.0125	4.2539	0.	128.77
3556	0.75809	4.5038	0.	131.01
3557	0.74488	3.0092	0.	125.72
3558	1.0031	3.2412	0.	126.94
3559	-1.7291	3.0301	0.	120.92
3560	-1.4855	3.2761	0.	116.38
3561	-2.987	3.2459	0.	132.55
3562	-2.7308	3.0031	0.	130.52
3563	-0.2505	7.0003	0.	120.26
3564	-0.50029	6.7501	0.	115.74
3565	0.99806	6.7523	0.	130.08
3566	0.74866	7.0014	0.	128.65
3567	-3.	5.7495	0.	131.01
3568	-2.75	5.4995	0.	133.08
3569	-3.25	5.4991	0.	129.92
3570	-2.75	6.9999	0.	129.24
3571	-3.	6.7498	0.	130.55
3572	7.7393	6.0364	0.	123.54
3573	7.4928	6.2859	0.	117.68
3574	7.2384	6.0584	0.	123.11
3575	4.2353	6.0661	0.	125.5
3576	4.4874	6.3048	0.	120.32
3577	2.9907	6.2778	0.	133.12
3578	3.2392	6.0395	0.	132.71
3579	2.7415	6.027	0.	131.94
3580	5.9474	-4.8946	0.	118.84
3581	5.7144	-5.1519	0.	113.77
3582	5.7061	-4.6724	0.	117.06
3583	7.1367	-5.1007	0.	130.45
3584	6.9112	-4.8649	0.	129.72
3585	7.3829	-4.8833	0.	129.31
3586	3.699	-6.6266	0.	129.61
3587	4.0292	-6.7857	0.	135.81
3588	3.5742	-6.9311	0.	130.08
3589	3.5258	-5.3709	0.	132.57
3590	3.3612	-5.6658	0.	130.21
3591	3.0609	-5.4748	0.	130.45
3592	5.8397	-1.2972	0.	129.54
3593	6.0734	-1.5294	0.	129.15
3594	5.5753	-1.546	0.	128.73
3595	-5.193	-2.1122	0.	131.53
3596	-5.4184	-1.8254	0.	130.31
3597	1.1151	-6.5737	0.	132.85
3598	-0.76508	-0.95464	0.	126.18
3599	-0.72044	-0.5825	0.	129.22
3600	-1.0402	-0.86628	0.	125.75
3601	-2.5687	-2.2391	0.	119.03
3602	-2.3305	-1.9947	0.	110.34
3603	-2.0544	-2.2208	0.	115.
3604	-7.8797	-7.6848	0.	125.92
3605	-7.647	-7.1881	0.	127.12
3606	-8.1206	-7.4256	0.	125.97
3607	-7.5629	-7.491	0.	132.43
3608	-7.9573	-8.2241	0.	128.
3609	-7.6927	-7.9922	0.	122.47
3610	-8.1869	-7.9608	0.	126.25
3611	-3.4507	-1.4008	0.	131.19
3612	-3.7049	-1.6383	0.	133.3
3613	-3.0492	-2.2667	0.	129.12
3614	-3.5242	-2.302	0.	133.77
3615	-3.2756	-2.0603	0.	137.56
3616	-2.8069	-2.0323	0.	125.2
3617	-1.3545	-1.8014	0.	131.57
3618	-1.0556	-1.9069	0.	127.66
3619	-1.5293	-2.1204	0.	121.51
3620	-0.55028	-1.3542	0.	125.22
3621	-0.26613	-1.7525	0.	125.1
3622	-0.63582	-1.6719	0.	127.71
3623	-0.85139	-1.2694	0.	128.57
3624	0.61249	-6.97	0.	134.
3625	0.63517	-7.1638	0.	133.38
3626	0.90369	-7.3349	0.	130.66
3627	0.86863	-6.8095	0.	133.63
3628	-5.2663	-2.6052	0.	131.29
3629	-5.541	-2.8324	0.	128.17
3630	-5.3808	-3.0903	0.	129.43
3631	-5.4635	-2.3367	0.	136.17
3632	7.3364	2.2298	0.	121.03
3633	7.5543	1.9336	0.	114.77
3634	6.6517	1.4489	0.	128.47
3635	6.486	1.7197	0.	124.41
3636	5.8725	-0.81473	0.	128.61
3637	6.133	-0.56902	0.	127.53
3638	5.9162	-0.3365	0.	125.79
3639	6.0959	-1.0485	0.	132.93
3640	6.5631	-1.5042	0.	125.68
3641	6.8135	-1.2519	0.	123.21
3642	7.0418	-1.4631	0.	118.36
3643	3.8149	-5.5548	0.	135.45
3644	3.9998	-5.2589	0.	131.53
3645	3.8	-6.3299	0.	126.5
3646	3.5123	-6.1493	0.	128.51
3647	6.8942	-5.3239	0.	134.27
3648	7.3571	-5.3524	0.	129.45
3649	7.1028	-5.5588	0.	129.83
3650	6.1961	-5.1017	0.	122.64
3651	6.433	-4.8679	0.	125.85
3652	6.198	-4.6425	0.	122.33
3653	2.993	6.7687	0.	133.01
3654	3.2453	7.0147	0.	133.78
3655	3.2407	6.5259	0.	134.94
3656	3.9881	6.2953	0.	128.77
3657	3.7373	6.0528	0.	130.6
3658	-2.25	7.	0.	126.17
3659	-2.	6.75	0.	124.65
3660	-2.5	6.7499	0.	130.99
3661	-2.75	5.9997	0.	132.07
3662	-3.	6.2497	0.	131.27
3663	0.74826	6.502	0.	131.62
3664	0.99805	6.2531	0.	130.79
3665	0.24914	7.0007	0.	125.54
3666	0.49885	6.7511	0.	130.22
3667	0.49916	7.2508	0.	126.82
3668	-6.7062e-004	6.7505	0.	124.01
3669	-2.9948	3.7472	0.	133.36
3670	-2.7476	3.9996	0.	133.69
3671	-2.7418	3.5011	0.	133.99
3672	-2.2292	3.0182	0.	126.65
3673	-2.4857	3.2583	0.	131.99
3674	-2.469	2.7649	0.	127.88
3675	-1.9849	3.2686	0.	124.87
3676	0.50113	3.2759	0.	128.27
3677	0.24769	3.0431	0.	124.26
3678	0.76077	4.0055	0.	129.57
3679	1.013	3.7514	0.	128.52
3680	-2.4367	-3.3594	0.	127.78
3681	-2.19	-3.1235	0.	121.91
3682	-2.7125	-4.0525	0.	129.98
3683	-2.9414	-3.8302	0.	129.8
3684	0.99397	-3.7816	0.	129.81
3685	0.75088	-4.0285	0.	130.01
3686	1.007	-4.2919	0.	129.1
3687	0.73844	-3.5193	0.	130.93
3688	0.22922	-2.9968	0.	125.33
3689	0.48396	-3.2534	0.	129.64
3690	-1.2896e-002	-3.2512	0.	123.76
3691	-2.6939	-6.374	0.	134.01
3692	-2.9338	-6.1538	0.	132.45
3693	-2.0167	-6.587	0.	126.85
3694	-2.1367	-6.9879	0.	126.65
3695	-2.2369	-6.7836	0.	128.8
3696	0.68597	-6.027	0.	130.4
3697	0.90077	-6.2976	0.	132.45
3698	-7.2499	4.	0.	125.05
3699	-6.9999	3.75	0.	123.46
3700	-6.7497	3.9998	0.	119.64
3701	-7.4999	3.7501	0.	129.73
3702	-7.753	1.002	0.	127.29
3703	-8.2544	1.0066	0.	127.83
3704	-8.0026	1.2535	0.	127.36
3705	-8.0068	0.75512	0.	126.79
3706	-4.2401	2.9852	0.	134.08
3707	-3.9906	3.2351	0.	133.65
3708	-3.9818	2.7273	0.	133.02
3709	-4.7476	3.9953	0.	126.91
3710	-4.4964	3.7428	0.	132.36
3711	-4.9977	3.7467	0.	125.18
3712	-4.756	3.1413e-002	0.	129.28
3713	-5.0011	0.27825	0.	127.54
3714	-4.5066	0.26326	0.	134.57
3715	-4.0044	0.71812	0.	135.07
3716	-3.7605	0.4564	0.	135.07
3717	-4.2558	0.48912	0.	136.25
3718	-4.2487	0.97531	0.	135.48
3719	-8.	7.75	0.	127.33
3720	-8.	8.25	0.	125.87
3721	-8.25	8.	0.	126.14
3722	-7.75	8.	0.	128.2
3723	-8.25	7.5	0.	127.18
3724	-7.75	7.5	0.	128.87
3725	-7.	7.25	0.	122.04
3726	-7.25	6.9999	0.	123.68
3727	-5.75	6.9999	0.	123.52
3728	-6.	7.2499	0.	121.95
3729	-5.5	7.2499	0.	127.84
3730	-5.	8.25	0.	126.04
3731	-5.25	8.	0.	128.34
3732	-5.	7.75	0.	127.58
3733	7.8088	4.2606	0.	125.32
3734	7.5144	4.0705	0.	122.33
3735	7.5838	3.7976	0.	125.08
3736	7.6415	4.5667	0.	133.16
3737	8.1549	4.4729	0.	126.2
3738	7.2007	5.1161	0.	127.6
3739	7.4238	4.8515	0.	135.28
3740	6.9413	4.9132	0.	126.51
3741	5.4689	4.963	0.	122.82
3742	5.2292	5.1782	0.	124.96
3743	5.4754	5.4126	0.	120.06
3744	4.558	4.44	0.	128.45
3745	4.512	4.9083	0.	129.77
3746	4.7621	4.6925	0.	135.27
3747	4.8166	4.2254	0.	125.3
3748	4.653	3.9745	0.	127.11
3749	-5.9278	-1.8177	0.	128.16
3750	-5.6889	-2.0499	0.	134.97
3751	-6.2278	-1.618	0.	123.52
3752	-6.408	-1.8696	0.	129.84
3753	-6.1716	-2.0915	0.	130.53
3754	-6.4828	-1.4054	0.	116.85
3755	2.2894	1.0373	0.	131.67
3756	2.5338	1.2704	0.	132.78
3757	2.0434	1.766	0.	137.29
3758	1.7787	1.9895	0.	126.8
3759	1.4688	-1.2191	0.	119.99
3760	1.2612	-0.96621	0.	110.53
3761	0.95985	-1.1033	0.	114.84
3762	1.7709	-1.0454	0.	130.83
3763	2.0677	-0.84855	0.	134.43
3764	2.3536	-0.63815	0.	131.69
3765	-0.52283	-0.14857	0.	129.73
3766	-0.35086	-0.47257	0.	129.07
3767	-0.18046	1.6189	0.	127.49
3768	8.2339e-002	1.3703	0.	128.9
3769	3.7535e-002	1.8742	0.	125.23
3770	0.30049	1.6799	0.	123.16
3771	-0.40456	1.3599	0.	131.02
3772	-0.87887	0.91832	0.	125.44
3773	-0.63221	1.1313	0.	129.49
3774	-1.114	1.1562	0.	123.89
3775	-0.6342	0.65098	0.	125.13
3776	-0.91427	0.46787	0.	125.52
3777	-6.4686	-0.20888	0.	120.62
3778	-6.7061	-0.46833	0.	123.39
3779	-6.7411	1.6331e-002	0.	120.63
3780	-6.4918	0.27158	0.	117.44
3781	-7.5085	0.23981	0.	120.15
3782	-7.5038	0.74813	0.	126.38
3783	-7.2532	0.49913	0.	123.59
3784	-7.7575	0.5012	0.	125.84
3785	7.1329	2.5029	0.	123.23
3786	6.8466	2.3259	0.	122.05
3787	7.0558	2.0521	0.	123.41
3788	6.9245	2.7773	0.	124.67
3789	7.2287	2.9485	0.	125.12
3790	5.8397	1.9323	0.	123.05
3791	6.0859	2.2124	0.	117.84
3792	6.3105	1.9644	0.	122.42
3793	4.8636	-8.3277	0.	121.79
3794	5.0845	-8.0561	0.	118.26
3795	4.6147	-8.1072	0.	124.6
3796	5.1098	-8.5377	0.	119.44
3797	4.6448	-8.5549	0.	123.39
3798	4.9051	-8.7909	0.	121.41
3799	-6.2942	-4.7905	0.	123.22
3800	-6.5424	-4.9858	0.	118.98
3801	-6.316	-5.2361	0.	120.77
3802	-6.5045	-4.5456	0.	122.34
3803	-6.3419	-4.3559	0.	123.43
3804	-6.0618	-4.5664	0.	125.92
3805	-8.1645	-4.6552	0.	129.04
3806	-7.9369	-4.4376	0.	128.22
3807	-8.003	-4.2458	0.	125.69
3808	-8.395	-4.4411	0.	130.24
3809	-8.3419	-4.1908	0.	129.68
3810	-7.9309	-4.9052	0.	125.26
3811	-8.1459	-5.1364	0.	127.62
3812	-8.3802	-4.9243	0.	129.45
3813	-6.8375	-5.6854	0.	116.79
3814	-6.7979	-5.2049	0.	116.01
3815	-6.5714	-5.4552	0.	117.81
3816	-7.0549	-5.4255	0.	117.01
3817	-7.7174	-5.1346	0.	122.07
3818	-7.5123	-5.3852	0.	119.92
3819	-7.9324	-5.3658	0.	124.43
3820	-1.5001	-7.2518	0.	123.32
3821	-1.2868	-7.4508	0.	123.84
3822	-1.1077	-7.3434	0.	118.67
3823	-1.2004	-7.0761	0.	118.1
3824	-1.7277	-7.4565	0.	122.99
3825	-1.9819	-7.215	0.	125.43
3826	-3.5019	0.20507	0.	134.24
3827	-3.2661	0.42582	0.	132.81
3828	-3.2101	-4.5687e-002	0.	134.14
3829	-7.4423	-6.6917	0.	127.32
3830	-7.1514	-6.413	0.	122.86
3831	-7.182	-6.9109	0.	126.5
3832	-7.2584	-7.0915	0.	127.9
3833	-5.5514	-6.8428	0.	130.16
3834	-5.2783	-7.0363	0.	129.96
3835	-5.3187	-6.6044	0.	130.4
3836	-6.604	-5.9344	0.	116.99
3837	-6.8718	-6.1694	0.	118.54
3838	-6.0969	-5.9374	0.	119.32
3839	-5.5972	-5.9265	0.	124.84
3840	-5.8426	-6.1685	0.	122.32
3841	-5.8406	-5.6962	0.	122.76
3842	-6.3517	-6.188	0.	113.96
3843	-6.3379	-5.7042	0.	118.02
3844	8.69	1.428	0.	129.41
3845	8.3384	1.3021	0.	123.75
3846	8.4869	1.7717	0.	127.13
3847	8.6193	3.7175	0.	124.62
3848	8.8488	3.4857	0.	125.47
3849	8.6186	3.2419	0.	125.12
3850	8.5195	4.1875	0.	125.06
3851	8.829	3.9677	0.	125.26
3852	8.4838	5.7557	0.	129.31
3853	8.7306	5.4993	0.	128.97
3854	8.4676	5.2425	0.	128.46
3855	-5.	8.75	0.	125.34
3856	-5.25	8.5	0.	127.28
3857	-4.75	8.5	0.	124.95
3858	-3.5	8.75	0.	124.93
3859	-3.25	8.5	0.	125.09
3860	-3.75	8.5	0.	125.04
3861	0.99982	8.7503	0.	125.01
3862	0.74979	8.5003	0.	124.61
3863	1.2497	8.5006	0.	125.07
3864	2.9997	8.7521	0.	127.81
3865	3.2497	8.5023	0.	131.47
3866	2.7495	8.5024	0.	126.95
3867	-8.	8.75	0.	125.26
3868	-7.75	8.5	0.	127.19
3869	-8.25	8.5	0.	124.75
3870	-8.4298	-7.1883	0.	126.99
3871	-8.6831	-7.4553	0.	126.91
3872	-8.4277	-7.7016	0.	126.24
3873	-8.7048	-6.9462	0.	127.93
3874	-8.4534	-6.6755	0.	128.
3875	-8.803	-5.4462	0.	129.97
3876	-8.3507	-5.3987	0.	127.95
3877	-8.5268	-5.6725	0.	128.94
3878	-8.585	-5.1866	0.	129.78
3879	-8.8505	-3.4895	0.	130.48
3880	-8.7877	-3.2385	0.	131.08
3881	-8.4424	-3.3702	0.	134.07
3882	-8.5783	-3.7193	0.	130.18
3883	-8.276	1.9663e-002	0.	129.54
3884	-8.7759	2.8802e-002	0.	133.49
3885	-8.5204	0.27289	0.	131.81
3886	-8.5458	-0.20696	0.	134.17
3887	-8.75	3.5005	0.	128.69
3888	-8.5	3.2507	0.	128.75
3889	-8.25	3.5004	0.	129.61
3890	-8.5	3.7503	0.	128.9
3891	-8.75	4.5002	0.	127.97
3892	-8.25	4.5001	0.	127.61
3893	-8.5	4.7501	0.	127.51
3894	-8.5	4.2502	0.	128.35
3895	-8.5	6.25	0.	126.48
3896	-8.75	6.	0.	126.62
3897	-8.5	5.75	0.	126.47
3898	-8.5	6.75	0.	126.68
3899	-8.75	6.5	0.	126.61
3900	-8.5	7.25	0.	126.65
3901	-8.75	7.	0.	126.58
3902	-8.5	7.75	0.	125.99
3903	-8.75	7.5	0.	126.17
3904	-8.75	8.	0.	125.26
3905	-8.5	8.25	0.	125.02
3906	-2.195	-7.9117	0.	122.87
3907	-1.9757	-7.6764	0.	122.44
3908	-2.2299	-7.4349	0.	124.83
3909	-2.4712	-7.6983	0.	124.4
3910	-1.9181	-8.1284	0.	121.03
3911	-2.1497	-8.3735	0.	123.9
3912	-2.4246	-8.1562	0.	123.76
3913	-4.4155	-8.6252	0.	129.68
3914	-4.1329	-8.8577	0.	129.61
3915	-3.9057	-8.636	0.	128.63
3916	-4.1905	-8.4095	0.	128.13
3917	-4.6384	-8.847	0.	130.76
3918	-4.9208	-8.6089	0.	132.95
3919	-4.7066	-8.3917	0.	129.35
3920	-7.744	-8.4991	0.	133.85
3921	-7.5103	-8.7612	0.	133.95
3922	-7.4794	-8.2672	0.	128.1
3923	-7.2729	-8.5215	0.	132.21
3924	-8.2292	-8.4808	0.	129.08
3925	-7.9923	-8.7404	0.	130.37
3926	-8.4843	-8.7319	0.	129.28
3927	-8.7276	-8.4784	0.	128.55
3928	-8.4588	-8.2175	0.	127.32
3929	7.6912	-8.5037	0.	128.2
3930	7.9573	-8.7504	0.	127.97
3931	7.9473	-8.2536	0.	128.04
3932	8.209	-8.4994	0.	127.91
3933	7.1672	-8.503	0.	128.12
3934	7.4393	-8.7527	0.	127.95
3935	6.6318	-8.4838	0.	127.05
3936	6.9158	-8.7465	0.	127.26
3937	6.9027	-8.2536	0.	128.66
3938	6.0781	-8.4189	0.	121.85
3939	6.388	-8.2271	0.	127.44
3940	6.3835	-8.7195	0.	125.18
3941	5.5661	-8.4459	0.	117.45
3942	5.3308	-8.2661	0.	115.88
3943	5.3738	-8.7604	0.	118.62
3944	4.1668	-8.5405	0.	126.83
3945	4.4234	-8.7944	0.	124.96
3946	4.3959	-8.3343	0.	126.19
3947	3.6879	-8.538	0.	128.87
3948	3.9433	-8.7757	0.	127.68
3949	3.2039	-8.5608	0.	129.71
3950	3.4595	-8.7925	0.	129.25
3951	2.7186	-8.5685	0.	129.82
3952	2.9706	-8.8068	0.	129.95
3953	2.9463	-8.3419	0.	129.82
3954	2.2355	-8.5629	0.	129.46
3955	2.4691	-8.3269	0.	129.44
3956	2.4842	-8.8048	0.	130.09
3957	1.7509	-8.5593	0.	128.79
3958	1.9965	-8.8005	0.	129.88
3959	1.2681	-8.5629	0.	128.43
3960	1.5074	-8.8005	0.	129.54
3961	1.4969	-8.3169	0.	127.76
3962	0.79219	-8.5751	0.	128.37
3963	1.0214	-8.8062	0.	129.87
3964	8.6154	-1.6965	0.	124.98
3965	8.8608	-1.4696	0.	127.88
3966	8.672	-1.2104	0.	128.04
3967	8.417	-1.4032	0.	122.69
3968	8.8287	-1.9637	0.	126.2
3969	8.3747	-1.929	0.	122.31
3970	8.5915	-2.2005	0.	124.37
3971	8.5647	-4.7108	0.	126.85
3972	8.8078	-4.4686	0.	126.89
3973	8.5759	-4.2111	0.	126.68
3974	8.3369	-4.4499	0.	126.95
3975	8.7974	-4.9693	0.	126.71
3976	8.5475	-5.2111	0.	126.6
3977	8.2395	6.0162	0.	127.52
3978	7.9932	6.2692	0.	124.72
3979	8.493	6.2569	0.	131.3
3980	8.7404	6.0037	0.	129.92
3981	5.8477	-8.6596	0.	119.33
3982	5.5607	-8.1904	0.	115.69
3983	5.8964	-8.1201	0.	123.34
3984	-6.0974	-6.419	0.	116.87
3985	-6.6195	-6.423	0.	115.45
3986	-2.9743	0.17506	0.	132.72
3987	-2.7841	0.42067	0.	126.13
3988	-3.0646	0.64972	0.	129.76
3989	-2.0479	0.35127	0.	114.83
3990	-2.3529	0.49819	0.	117.04
3991	-1.9623	0.63454	0.	115.88
3992	-1.6989	-7.8931	0.	120.46
3993	-1.5144	-7.6556	0.	123.44
3994	-1.6496	-8.3462	0.	124.19
3995	-7.7033	-4.6876	0.	124.46
3996	-7.4748	-4.9031	0.	117.28
3997	-6.7527	-4.7409	0.	118.13
3998	-7.0127	-4.933	0.	114.08
3999	6.3553	-7.7257	0.	128.34
4000	6.2063	-7.9283	0.	128.91
4001	6.6589	-7.9969	0.	129.02
4002	6.6382	2.6003	0.	123.46
4003	6.3446	2.4008	0.	117.64
4004	6.5693	2.1528	0.	122.48
4005	5.5592	2.6296	0.	128.31
4006	5.3159	2.3737	0.	129.06
4007	5.5864	2.1267	0.	125.64
4008	5.8326	2.4069	0.	120.31
4009	-7.7677	-3.4651e-003	0.	119.91
4010	-8.0473	-0.2316	0.	128.63
4011	-8.0167	0.25792	0.	125.94
4012	-7.2539	-6.787e-003	0.	117.87
4013	-6.9786	-0.24312	0.	123.41
4014	-6.9987	0.25254	0.	121.63
4015	-0.38755	0.86401	0.	129.11
4016	-0.14176	1.1113	0.	132.16
4017	-0.4287	0.36337	0.	126.8
4018	8.7571	1.0841	0.	131.17
4019	9.2131	1.3843	0.	131.86
4020	9.0488	1.0836	0.	132.93
4021	8.9678	1.6121	0.	130.8
4022	8.9306	0.37514	0.	135.21
4023	8.6998	0.69779	0.	136.82
4024	8.9915	0.69726	0.	138.48
4025	9.154	-0.80801	0.	136.19
4026	9.1694	-0.39124	0.	136.66
4027	8.9781	-0.54113	0.	139.92
4028	9.3804	-0.56701	0.	135.78
4029	9.1081	-1.259	0.	131.94
4030	9.3469	-1.0234	0.	133.69
4031	8.9193	-0.99977	0.	132.09
4032	9.0741	-1.7369	0.	129.11
4033	9.3164	-1.4998	0.	131.27
4034	9.2953	-1.9882	0.	129.58
4035	9.0538	-2.2279	0.	127.66
4036	9.2832	-4.4829	0.	126.98
4037	9.0406	-4.7272	0.	126.75
4038	9.0475	-4.2258	0.	127.
4039	7.7055	-8.9994	0.	127.72
4040	7.9713	-9.2488	0.	127.72
4041	8.2191	-8.9984	0.	127.82
4042	7.188	-8.9962	0.	127.09
4043	7.4599	-9.2488	0.	127.31
4044	6.6675	-8.9821	0.	125.38
4045	6.9458	-9.2434	0.	126.18
4046	6.1531	-8.9602	0.	122.68
4047	6.4319	-9.2282	0.	124.02
4048	5.9282	-9.2157	0.	121.51
4049	5.6554	-8.9741	0.	120.44
4050	3.9704	-9.2707	0.	126.86
4051	4.1998	-9.0295	0.	125.81
4052	3.7149	-9.0302	0.	128.06
4053	1.753	-9.0417	0.	130.63
4054	2.	-9.2812	0.	131.09
4055	2.2452	-9.0424	0.	130.51
4056	1.5039	-9.282	0.	131.2
4057	1.2606	-9.0438	0.	130.99
4058	-0.78176	-9.1097	0.	113.12
4059	-0.46139	-9.0084	0.	106.02
4060	-0.29892	-9.3291	0.	108.92
4061	-0.54277	-9.3823	0.	108.62
4062	-1.3003	-9.0389	0.	123.12
4063	-1.111	-8.7867	0.	122.7
4064	-0.91546	-8.8353	0.	114.67
4065	-1.0346	-9.2786	0.	118.17
4066	-1.8219	-9.0585	0.	127.14
4067	-1.5498	-9.2878	0.	125.29
4068	-1.6007	-8.8146	0.	127.9
4069	-2.3305	-9.0734	0.	127.59
4070	-2.0568	-9.2995	0.	127.42
4071	-2.1024	-8.8353	0.	126.27
4072	-2.8382	-9.0836	0.	128.07
4073	-2.5622	-9.3094	0.	128.16
4074	-2.6075	-8.8519	0.	126.9
4075	-3.0685	-9.3146	0.	128.9
4076	-3.3465	-9.0878	0.	128.87
4077	-3.1159	-8.8616	0.	127.84
4078	-4.3558	-9.0795	0.	130.7
4079	-4.0786	-9.3126	0.	130.45
4080	-3.8528	-9.0861	0.	129.73
4081	-4.8556	-9.0706	0.	131.42
4082	-4.5798	-9.3063	0.	131.03
4083	-5.3485	-9.0602	0.	128.45
4084	-5.138	-8.8326	0.	133.59
4085	-5.0778	-9.2995	0.	130.25
4086	-5.8342	-9.0497	0.	120.11
4087	-5.5684	-9.2912	0.	124.6
4088	-5.6246	-8.8183	0.	128.78
4089	-6.3156	-9.0395	0.	113.16
4090	-6.1001	-8.8053	0.	110.35
4091	-6.0563	-9.2839	0.	116.09
4092	-6.7948	-9.0284	0.	116.63
4093	-6.5695	-8.791	0.	109.16
4094	-6.5417	-9.2761	0.	113.72
4095	-7.2749	-9.0162	0.	125.68
4096	-7.0266	-9.2674	0.	120.96
4097	-7.0375	-8.7765	0.	124.28
4098	-7.7586	-9.0026	0.	130.51
4099	-7.5133	-9.2577	0.	128.11
4100	-8.2474	-8.9915	0.	130.59
4101	-8.0031	-9.2474	0.	130.35
4102	-8.7425	-8.988	0.	129.8
4103	-8.4964	-9.2415	0.	130.12
4104	-8.9714	-8.2267	0.	128.06
4105	-8.9859	-8.7345	0.	129.07
4106	-9.2344	-8.4851	0.	128.66
4107	-8.958	-7.7195	0.	127.49
4108	-9.2226	-7.9796	0.	127.91
4109	-8.7026	-7.9659	0.	126.84
4110	-8.9582	-7.2132	0.	127.83
4111	-9.2157	-7.4751	0.	127.86
4112	-8.9707	-6.7082	0.	128.72
4113	-9.2229	-6.9714	0.	128.62
4114	-8.9895	-6.2068	0.	129.55
4115	-9.234	-6.469	0.	129.56
4116	-8.7193	-6.4375	0.	128.79
4117	-9.0199	-5.7104	0.	130.29
4118	-9.2517	-5.9702	0.	130.41
4119	-8.7436	-5.9366	0.	129.26
4120	-9.0513	-5.2168	0.	130.99
4121	-9.2785	-5.474	0.	131.16
4122	-9.063	-4.7256	0.	131.39
4123	-9.2964	-4.9785	0.	131.66
4124	-8.8332	-4.9573	0.	130.81
4125	-9.049	-4.2375	0.	131.41
4126	-9.2956	-4.4854	0.	131.66
4127	-8.8405	-4.4785	0.	131.24
4128	-9.0462	-3.7553	0.	130.93
4129	-9.2786	-3.9949	0.	131.32
4130	-8.774	-3.9851	0.	130.63
4131	-8.994	-3.2651	0.	131.11
4132	-9.286	-3.5067	0.	130.7
4133	-8.6802	-2.9265	0.	128.62
4134	-9.2065	-3.0044	0.	131.59
4135	-8.9608	-2.7363	0.	134.14
4136	-9.0175	-1.6862	0.	135.88
4137	-8.7742	-1.9136	0.	144.81
4138	-9.2591	-1.9573	0.	136.04
4139	-9.0021	-2.1983	0.	137.4
4140	-9.0358	-1.1892	0.	132.62
4141	-8.7642	-1.3958	0.	129.38
4142	-9.2666	-1.4539	0.	133.
4143	-9.046	-0.7009	0.	133.11
4144	-9.2859	-0.95969	0.	132.13
4145	-8.8312	-0.92067	0.	133.39
4146	-9.0325	-0.21481	0.	133.94
4147	-9.2807	-0.46832	0.	133.62
4148	-8.8024	-0.45057	0.	134.61
4149	-9.0175	0.27256	0.	132.56
4150	-9.2682	2.1789e-002	0.	133.23
4151	-9.2592	0.51374	0.	131.71
4152	-9.0084	0.76365	0.	130.62
4153	-8.7619	0.51664	0.	130.87
4154	-9.0003	2.7516	0.	127.82
4155	-9.2504	2.5017	0.	127.58
4156	-9.0007	2.2528	0.	127.67
4157	-8.7503	2.5019	0.	127.73
4158	-9.0001	3.2509	0.	128.17
4159	-9.2502	3.001	0.	127.79
4160	-8.7501	3.001	0.	128.23
4161	-9.	3.7505	0.	128.35
4162	-9.2501	3.5006	0.	128.1
4163	-9.	4.2503	0.	128.18
4164	-9.25	4.0003	0.	128.2
4165	-8.75	4.0003	0.	128.56
4166	-9.25	4.5002	0.	128.04
4167	-9.	4.7502	0.	127.78
4168	-9.	5.75	0.	126.99
4169	-9.25	5.5	0.	127.34
4170	-9.	5.2501	0.	127.34
4171	-8.75	5.5	0.	126.84
4172	-9.	6.25	0.	126.75
4173	-9.25	6.	0.	127.
4174	-9.	6.75	0.	126.52
4175	-9.25	6.5	0.	126.65
4176	-9.	7.25	0.	126.11
4177	-9.25	7.	0.	126.22
4178	-9.	7.75	0.	125.45
4179	-9.25	7.5	0.	125.61
4180	-9.	8.25	0.	124.76
4181	-9.25	8.	0.	124.9
4182	-9.	8.75	0.	124.45
4183	-9.25	8.5	0.	124.42
4184	-8.75	8.5	0.	124.51
4185	1.8517	-0.60962	0.	134.59
4186	1.5633	-0.79248	0.	121.35
4187	1.8043	1.5138	0.	130.27
4188	2.0516	1.2868	0.	137.2
4189	2.2961	1.5198	0.	138.64
4190	-6.6629	-1.6569	0.	122.72
4191	-6.8631	-1.8996	0.	120.16
4192	-6.6298	-2.1109	0.	124.44
4193	-8.5223	-2.1318	0.	148.09
4194	-8.2955	-1.8921	0.	139.22
4195	-8.5208	-1.6233	0.	138.05
4196	7.1644	4.6486	0.	133.48
4197	7.347	4.3766	0.	129.84
4198	-5.5	7.75	0.	129.73
4199	-5.75	7.4999	0.	126.23
4200	-5.25	7.4999	0.	129.
4201	-7.5	7.75	0.	129.71
4202	-7.25	7.5	0.	126.24
4203	-7.5	7.25	0.	127.93
4204	-8.25	9.	0.	125.02
4205	-8.75	9.	0.	124.46
4206	-8.5	9.25	0.	124.83
4207	-8.5	8.75	0.	124.51
4208	-7.75	9.	0.	127.27
4209	-8.	9.25	0.	125.74
4210	-4.5002	0.74631	0.	136.63
4211	-4.7517	0.51009	0.	132.78
4212	-4.4941	3.2401	0.	134.69
4213	-4.2445	3.4899	0.	134.28
4214	-4.7465	3.4942	0.	130.55
4215	-7.5	3.2502	0.	131.36
4216	-7.2499	3.5001	0.	128.08
4217	-7.7499	3.5003	0.	130.99
4218	0.39434	-6.6723	0.	132.97
4219	0.17425	-6.4702	0.	122.29
4220	0.43568	-6.2412	0.	130.44
4221	0.65047	-6.5118	0.	132.56
4222	-2.2324	-6.3772	0.	131.1
4223	-2.4674	-6.1494	0.	134.17
4224	-2.4526	-6.5739	0.	133.11
4225	0.24184	-3.5077	0.	128.02
4226	0.49534	-3.7663	0.	131.09
4227	-2.2106	-3.573	0.	126.11
4228	-2.4605	-3.8158	0.	130.38
4229	-2.6894	-3.5935	0.	130.22
4230	0.25559	3.5202	0.	127.63
4231	0.50711	3.762	0.	130.45
4232	0.75931	3.508	0.	129.42
4233	-2.2414	3.5087	0.	130.15
4234	-2.4946	3.7535	0.	134.29
4235	0.24904	6.5009	0.	128.62
4236	0.49892	6.2514	0.	132.1
4237	-2.25	6.4999	0.	129.41
4238	-2.5	6.2498	0.	133.03
4239	-2.75	6.4998	0.	132.26
4240	8.4982	6.7548	0.	132.54
4241	8.2468	6.5099	0.	128.49
4242	8.7468	6.5041	0.	131.8
4243	6.7449	6.5412	0.	131.3
4244	6.4967	6.7827	0.	135.21
4245	6.2438	6.5466	0.	131.12
4246	6.4903	6.3156	0.	131.03
4247	3.7401	6.5301	0.	132.66
4248	3.493	6.7719	0.	135.66
4249	3.4893	6.2876	0.	134.54
4250	-4.75	9.	0.	125.07
4251	-5.25	9.	0.	127.29
4252	-5.	9.25	0.	125.78
4253	-4.25	9.	0.	124.55
4254	-4.5	9.25	0.	124.87
4255	-4.5	8.75	0.	124.67
4256	-3.75	9.	0.	124.64
4257	-4.	9.25	0.	124.8
4258	-4.	8.75	0.	124.75
4259	-3.25	9.	0.	124.64
4260	-3.5	9.25	0.	124.76
4261	-2.75	9.	0.	124.38
4262	-3.	9.25	0.	124.55
4263	-3.	8.75	0.	124.8
4264	-2.25	9.	0.	123.89
4265	-2.5	9.25	0.	124.15
4266	-2.5	8.75	0.	124.27
4267	-1.75	9.	0.	123.34
4268	-2.	9.25	0.	123.67
4269	-2.	8.75	0.	123.44
4270	-1.25	9.	0.	123.
4271	-1.5	9.25	0.	123.29
4272	-1.5	8.75	0.	122.67
4273	-0.75001	9.	0.	123.05
4274	-1.	9.25	0.	123.19
4275	-1.	8.75	0.	122.36
4276	-0.25002	9.	0.	123.5
4277	-0.50001	9.25	0.	123.46
4278	-0.50002	8.75	0.	122.7
4279	0.24996	9.0001	0.	124.16
4280	-1.9952e-005	9.25	0.	124.03
4281	-5.5594e-005	8.7501	0.	123.5
4282	0.74992	9.0001	0.	124.79
4283	0.49996	9.2501	0.	124.72
4284	0.49988	8.7501	0.	124.39
4285	1.2499	9.0003	0.	125.21
4286	0.99992	9.2501	0.	125.34
4287	1.7498	9.0005	0.	125.44
4288	1.4999	9.2503	0.	125.82
4289	1.4997	8.7506	0.	125.28
4290	2.2498	9.0008	0.	125.7
4291	1.9998	9.2504	0.	126.18
4292	1.9996	8.751	0.	125.4
4293	2.7498	9.0012	0.	126.78
4294	2.4998	9.2507	0.	126.63
4295	2.4996	8.7516	0.	125.91
4296	3.2499	9.0012	0.	129.26
4297	2.9999	9.251	0.	127.93
4298	6.4318	-5.3219	0.	130.13
4299	6.6518	-5.5408	0.	133.04
4300	6.6686	-5.0881	0.	133.57
4301	4.0904	-5.736	0.	135.48
4302	3.938	-6.0303	0.	130.93
4303	3.6503	-5.8497	0.	133.16
4304	6.9442	1.6081	0.	127.72
4305	7.2737	1.7559	0.	116.83
4306	6.7785	1.8789	0.	123.84
4307	9.0999	3.8801e-003	0.	130.91
4308	8.9679	-0.34076	0.	137.57
4309	9.36	-0.1237	0.	131.65
4310	-5.7382	-2.5639	0.	132.91
4311	-5.9326	-2.3237	0.	137.07
4312	-8.4697	-2.6067	0.	135.5
4313	-8.2722	-2.3407	0.	137.19
4314	-8.7503	-2.4165	0.	141.13
4315	0.39496	-7.0633	0.	133.77
4316	0.13871	-6.8877	0.	118.25
4317	0.54241	-8.8128	0.	131.69
4318	0.28845	-9.0198	0.	122.34
4319	0.50683	-9.277	0.	130.07
4320	0.77159	-9.044	0.	133.41
4321	-1.2358	-1.4816	0.	134.03
4322	-1.1265	-1.181	0.	127.61
4323	-0.93693	-1.5871	0.	131.02
4324	-5.2169	-8.3669	0.	128.64
4325	-5.4141	-8.5907	0.	133.62
4326	8.75	9.0002	0.	128.39
4327	9.25	9.0002	0.	125.55
4328	9.	9.2502	0.	126.54
4329	9.	8.7503	0.	127.05
4330	9.2385	-8.9972	0.	127.65
4331	8.988	-9.2474	0.	127.7
4332	8.9817	-8.7463	0.	127.52
4333	8.7297	-8.9971	0.	127.71
4334	-8.9949	-9.2415	0.	129.86
4335	-9.2434	-8.9907	0.	129.57
4336	-9.25	9.	0.	124.44
4337	-9.	9.25	0.	124.75
4338	0.62599	-0.43723	0.	118.02
4339	1.0764	-0.66021	0.	110.36
4340	0.77506	-0.79729	0.	114.94
4341	0.20397	-0.16979	0.	126.2
4342	-0.2365	4.1551e-002	0.	130.16
4343	-6.4537e-002	-0.28245	0.	129.62
4344	0.34593	1.1687	0.	123.58
4345	0.82763	1.3063	0.	113.08
4346	0.56408	1.4783	0.	117.85
4347	1.3124	1.443	0.	113.82
4348	1.5396	1.7373	0.	119.95
4349	1.0435	1.6333	0.	112.28
4350	1.9192	-0.15699	0.	132.31
4351	2.1377	-0.39922	0.	132.09
4352	1.9794	0.31948	0.	133.63
4353	2.1966	6.8859e-002	0.	129.9
4354	2.0303	0.80522	0.	133.88
4355	-6.895	-0.72572	0.	127.4
4356	-6.7593	-1.1945	0.	121.2
4357	-7.3291	-1.9086	0.	100.59
4358	-7.0886	-2.1187	0.	109.5
4359	-7.8124	-1.8999	0.	109.39
4360	-8.0453	-2.1011	0.	128.32
4361	-7.5628	-2.1056	0.	93.831
4362	-8.3598	-1.1397	0.	133.34
4363	-8.5596	-1.1273	0.	130.09
4364	-8.1416	-0.69749	0.	136.45
4365	-8.3171	-0.45822	0.	133.21
4366	-8.4122	-0.90961	0.	138.03
4367	5.4653	3.1038	0.	128.5
4368	5.2787	2.8533	0.	130.81
4369	5.2916	3.5615	0.	134.26
4370	5.1196	4.017	0.	132.32
4371	4.956	3.7661	0.	134.22
4372	5.1413	3.3145	0.	129.36
4373	6.686	4.701	0.	117.49
4374	6.1961	4.7254	0.	106.33
4375	5.7071	4.7365	0.	115.33
4376	5.2317	4.7244	0.	132.28
4377	7.1798	3.9235	0.	129.8
4378	6.7623	3.0472	0.	122.93
4379	6.9562	3.4868	0.	129.68
4380	7.0665	3.2184	0.	123.4
4381	7.2492	3.6506	0.	132.48
4382	-5.5	8.25	0.	129.56
4383	-5.5	8.75	0.	129.21
4384	-5.5	9.25	0.	128.82
4385	-7.5	8.25	0.	129.51
4386	-7.5	8.75	0.	129.18
4387	-7.5	9.25	0.	128.8
4388	-4.4903	1.2365	0.	136.77
4389	-4.4828	1.7328	0.	137.96
4390	-4.4847	2.2337	0.	137.78
4391	-4.4901	2.7368	0.	135.74
4392	-4.2319	2.4789	0.	134.71
4393	-7.5015	1.2503	0.	129.33
4394	-7.5005	1.7507	0.	132.64
4395	-7.7512	1.5018	0.	129.4
4396	-7.5001	2.2506	0.	133.37
4397	-7.7504	2.0012	0.	131.21
4398	-7.5	2.7504	0.	131.92
4399	-7.75	3.0004	0.	130.34
4400	-7.7501	2.5008	0.	130.75
4401	-0.31113	-6.4781	0.	108.87
4402	-8.1385e-002	-6.6856	0.	107.66
4403	-0.79826	-6.4712	0.	107.64
4404	-0.58384	-6.7632	0.	106.35
4405	-1.2851	-6.4342	0.	112.35
4406	-1.0825	-6.6703	0.	112.43
4407	-1.7648	-6.4023	0.	120.27
4408	-0.25527	-3.5063	0.	118.69
4409	-0.75056	-3.5132	0.	112.85
4410	-1.2417	-3.5269	0.	112.09
4411	-1.7284	-3.5485	0.	116.64
4412	-1.484	-3.3045	0.	113.38
4413	-1.9639	-3.337	0.	120.39
4414	-0.24548	3.5236	0.	119.35
4415	2.1387e-003	3.2874	0.	123.72
4416	-0.74429	3.5217	0.	114.21
4417	-1.2424	3.5187	0.	114.6
4418	-1.7414	3.5146	0.	120.29
4419	-0.25046	6.5003	0.	119.46
4420	-0.75019	6.5001	0.	113.96
4421	-1.2501	6.5	0.	114.14
4422	-1.7501	6.5	0.	120.
4423	-5.249	0.52009	0.	122.63
4424	-5.7473	0.5219	0.	116.38
4425	-6.2471	0.51727	0.	115.39
4426	-6.7494	0.50778	0.	118.33
4427	-5.7493	3.4993	0.	114.13
4428	-5.2482	3.4979	0.	120.43
4429	-6.2497	3.4997	0.	113.68
4430	-6.7498	3.4999	0.	119.01
4431	-6.4997	3.7498	0.	115.21
4432	-6.25	7.4999	0.	117.59
4433	-6.75	7.5	0.	117.6
4434	0.50186	-4.2702	0.	131.35
4435	0.46785	-5.7615	0.	130.49
4436	0.48956	-5.2675	0.	132.24
4437	0.50101	-4.7698	0.	132.72
4438	0.75802	-4.5336	0.	130.47
4439	-2.4745	-5.2331	0.	135.35
4440	-2.4723	-5.7017	0.	134.07
4441	-2.4737	-4.2817	0.	131.92
4442	-2.4762	-4.7563	0.	134.69
4443	-2.7164	-4.9954	0.	133.28
4444	0.49974	5.7516	0.	132.9
4445	0.74871	6.0025	0.	131.29
4446	0.50634	4.2554	0.	131.81
4447	0.50423	4.7528	0.	134.27
4448	0.50174	5.2519	0.	134.6
4449	-2.4986	4.2508	0.	135.02
4450	-2.4997	4.7499	0.	136.62
4451	-2.5	5.7498	0.	134.12
4452	-2.4999	5.2497	0.	136.35
4453	8.5	8.7503	0.	131.42
4454	8.5	9.2501	0.	129.44
4455	8.5	8.2506	0.	133.9
4456	8.75	8.5004	0.	130.09
4457	8.4998	7.2525	0.	132.7
4458	8.7496	7.0028	0.	131.1
4459	8.5	7.7511	0.	134.02
4460	8.75	7.5015	0.	130.95
4461	8.75	8.0008	0.	131.63
4462	7.7466	6.5188	0.	118.65
4463	7.2459	6.5298	0.	120.27
4464	6.9915	6.3022	0.	125.75
4465	6.5	8.7504	0.	138.35
4466	6.5	9.2501	0.	133.77
4467	6.5	8.2512	0.	143.6
4468	6.4995	7.2621	0.	138.31
4469	6.4999	7.7537	0.	143.6
4470	5.7424	6.546	0.	121.48
4471	5.9892	6.3185	0.	124.43
4472	5.2412	6.5439	0.	116.91
4473	5.4879	6.3182	0.	117.3
4474	4.2402	6.534	0.	123.51
4475	4.7406	6.5394	0.	117.89
4476	3.4972	7.261	0.	135.42
4477	3.4999	8.7515	0.	132.91
4478	3.5	9.2507	0.	130.89
4479	3.4996	8.2528	0.	136.02
4480	3.4991	7.7554	0.	136.4
4481	5.9632	-5.359	0.	117.4
4482	5.4872	-5.4309	0.	113.49
4483	5.0108	-5.5225	0.	115.71
4484	4.543	-5.6262	0.	125.55
4485	4.7472	-5.3273	0.	119.25
4486	4.2753	-5.4402	0.	131.9
4487	6.5977	-5.986	0.	132.66
4488	6.8604	-5.7757	0.	128.78
4489	6.5231	-6.4094	0.	135.03
4490	6.7839	-6.2124	0.	131.59
4491	6.4538	-6.8062	0.	131.17
4492	6.3558	-7.2322	0.	128.54
4493	6.1458	-7.6673	0.	128.5
4494	6.5845	-7.4966	0.	128.64
4495	6.6592	-7.046	0.	128.85
4496	4.4013	-6.9257	0.	132.66
4497	4.1302	-6.4891	0.	132.66
4498	6.4089	-0.32006	0.	130.34
4499	6.3564	-0.80283	0.	131.67
4500	6.791	1.162	0.	127.73
4501	6.6032	0.69126	0.	126.75
4502	6.4696	0.186	0.	131.37
4503	6.1921	-8.7547e-002	0.	128.7
4504	7.6948	1.5029	0.	114.82
4505	8.0457	1.1965	0.	119.94
4506	8.4055	0.9582	0.	125.52
4507	9.2601	0.32927	0.	129.89
4508	8.0355	-0.81409	0.	116.52
4509	7.538	-0.89461	0.	111.95
4510	7.7617	-1.1176	0.	114.19
4511	8.7434	-0.73289	0.	135.92
4512	8.5347	-0.63416	0.	130.41
4513	-5.8633	-3.0372	0.	134.78
4514	-6.0627	-3.4763	0.	136.17
4515	-5.703	-3.2951	0.	136.08
4516	-6.563	-4.3264	0.	121.65
4517	-6.2869	-3.9129	0.	125.67
4518	-7.7686	-4.2775	0.	124.44
4519	-8.335	-3.0582	0.	131.62
4520	-8.1487	-3.4955	0.	132.88
4521	-7.9456	-3.8997	0.	124.94
4522	-8.2845	-3.8447	0.	128.92
4523	-7.7957	-2.3067	0.	112.7
4524	-7.3222	-2.3157	0.	102.48
4525	-6.8552	-2.33	0.	112.4
4526	-6.3934	-2.3328	0.	125.11
4527	0.45463	-7.4646	0.	130.5
4528	0.54661	-8.354	0.	128.93
4529	0.51405	-7.8984	0.	128.94
4530	0.72315	-7.6356	0.	127.88
4531	-0.17209	-8.911	0.	106.95
4532	-9.6194e-003	-9.2317	0.	110.23
4533	-0.59509	-8.7341	0.	107.5
4534	-0.99273	-8.5946	0.	117.88
4535	-1.4114	-8.5624	0.	127.36
4536	-1.1166	-7.5312	0.	119.85
4537	-0.35409	-6.9707	0.	105.04
4538	-0.77541	-7.2297	0.	111.85
4539	-0.86805	-6.9623	0.	111.12
4540	-1.6528	-1.6412	0.	124.51
4541	-2.5687	-1.7879	0.	116.18
4542	-3.0332	-1.8258	0.	133.38
4543	-2.1038	-1.7342	0.	109.6
4544	-1.8277	-1.9602	0.	114.49
4545	-1.8301	-6.3388e-002	0.	118.53
4546	-1.7034	0.22768	0.	119.7
4547	-1.5962	-0.44057	0.	129.
4548	-1.5475	-0.18071	0.	123.78
4549	-1.343	-0.79918	0.	130.16
4550	-3.1754	-1.1727	0.	133.61
4551	-3.2434	-1.6172	0.	135.65
4552	-2.9765	-0.2874	0.	133.4
4553	-3.0762	-0.73095	0.	134.91
4554	-6.3539	-8.5568	0.	105.86
4555	-6.8121	-8.5391	0.	116.78
4556	-5.8905	-8.5739	0.	119.04
4557	-6.974	-7.033	0.	125.71
4558	-6.891	-6.6322	0.	122.2
4559	-7.1743	-7.3944	0.	133.11
4560	-7.3759	-7.7984	0.	128.83
4561	9.5	8.7502	0.	124.23
4562	9.5	9.2501	0.	124.53
4563	9.5001	8.2504	0.	124.49
4564	9.25	8.5003	0.	125.74
4565	9.5001	7.7506	0.	125.31
4566	9.2501	8.0007	0.	126.59
4567	9.5	7.251	0.	126.59
4568	9.2501	7.5011	0.	127.3
4569	9.4989	6.7506	0.	127.96
4570	9.2497	7.0017	0.	128.63
4571	9.4964	6.2494	0.	128.85
4572	9.2474	6.501	0.	129.67
4573	9.493	5.7477	0.	128.94
4574	9.2432	5.9993	0.	129.61
4575	9.4901	5.2458	0.	128.47
4576	9.2371	5.4957	0.	128.92
4577	9.4926	4.7454	0.	127.76
4578	9.2314	4.9907	0.	128.01
4579	9.5073	4.2462	0.	127.25
4580	9.239	4.488	0.	127.01
4581	9.5248	3.7454	0.	127.31
4582	9.282	3.9907	0.	126.54
4583	9.5291	3.2394	0.	128.05
4584	9.3013	3.4906	0.	126.88
4585	9.5218	2.7263	0.	129.25
4586	9.296	2.9831	0.	127.86
4587	9.5066	2.2083	0.	130.49
4588	9.2797	2.4633	0.	129.14
4589	9.4939	1.6965	0.	131.56
4590	9.2486	1.9244	0.	130.49
4591	9.5234	1.2064	0.	131.69
4592	9.321	0.65139	0.	133.01
4593	9.359	0.90561	0.	132.8
4594	9.5202	0.2017	0.	130.2
4595	9.5175	0.71413	0.	131.54
4596	9.5711	-0.29946	0.	130.75
4597	9.5733	-0.78236	0.	133.22
4598	9.5552	-1.2642	0.	133.03
4599	9.5376	-1.7512	0.	131.74
4600	9.5266	-2.2437	0.	130.55
4601	9.5177	-3.2386	0.	128.73
4602	9.2793	-2.9819	0.	128.08
4603	9.5197	-2.74	0.	129.55
4604	9.5201	-3.7386	0.	128.03
4605	9.282	-3.4819	0.	127.72
4606	9.5213	-4.2392	0.	127.37
4607	9.2857	-3.9822	0.	127.39
4608	9.5192	-4.7404	0.	126.7
4609	9.5135	-5.242	0.	126.08
4610	9.2766	-4.9847	0.	126.48
4611	9.505	-5.7436	0.	125.59
4612	9.2653	-5.487	0.	125.96
4613	9.4948	-6.2446	0.	125.37
4614	9.2494	-5.9896	0.	125.59
4615	9.488	-6.7452	0.	125.46
4616	9.2332	-6.4915	0.	125.52
4617	9.4864	-7.2457	0.	125.83
4618	9.2282	-6.9931	0.	125.78
4619	9.4872	-7.7463	0.	126.37
4620	9.229	-7.4949	0.	126.28
4621	9.4888	-8.2469	0.	126.94
4622	9.2313	-7.9959	0.	126.83
4623	9.4911	-8.7475	0.	127.44
4624	9.2343	-8.4965	0.	127.31
4625	9.4941	-9.2483	0.	127.79
4626	9.2437	-9.4984	0.	127.85
4627	8.7391	-9.4982	0.	127.75
4628	8.233	-9.4984	0.	127.67
4629	8.4808	-9.248	0.	127.76
4630	7.7257	-9.4982	0.	127.31
4631	7.2177	-9.496	0.	126.41
4632	6.7102	-9.4895	0.	124.82
4633	6.207	-9.4837	0.	122.85
4634	5.7098	-9.4906	0.	121.41
4635	5.2158	-9.5053	0.	121.42
4636	5.4371	-9.2491	0.	120.34
4637	4.722	-9.5135	0.	122.99
4638	4.9478	-9.2699	0.	121.68
4639	4.2285	-9.5152	0.	125.34
4640	4.458	-9.274	0.	124.29
4641	3.7347	-9.5164	0.	127.6
4642	2.7457	-9.521	0.	130.55
4643	2.9878	-9.2817	0.	130.04
4644	3.2408	-9.5191	0.	129.36
4645	2.2487	-9.5212	0.	131.32
4646	2.4939	-9.2824	0.	130.74
4647	1.7509	-9.5214	0.	131.66
4648	1.2511	-9.5211	0.	131.43
4649	0.74309	-9.5159	0.	127.78
4650	1.0078	-9.2829	0.	131.21
4651	0.20876	-9.4889	0.	117.83
4652	-0.31191	-9.5196	0.	110.74
4653	-0.79563	-9.5512	0.	113.65
4654	-1.2841	-9.5274	0.	120.33
4655	-1.7846	-9.5288	0.	125.56
4656	-2.2884	-9.5356	0.	127.99
4657	-2.7925	-9.5404	0.	128.99
4658	-3.2972	-9.5435	0.	129.74
4659	-3.801	-9.5432	0.	130.43
4660	-3.5752	-9.3167	0.	129.71
4661	-4.3026	-9.5394	0.	130.77
4662	-4.8019	-9.5352	0.	129.83
4663	-5.2977	-9.5305	0.	126.37
4664	-5.7905	-9.5254	0.	120.63
4665	-6.2824	-9.5205	0.	116.51
4666	-6.7736	-9.5151	0.	118.05
4667	-7.265	-9.509	0.	123.39
4668	-7.7577	-9.5025	0.	127.93
4669	-8.2521	-9.4973	0.	129.89
4670	-8.7489	-9.495	0.	130.19
4671	-9.248	-9.4956	0.	130.12
4672	-9.4965	-9.2448	0.	129.82
4673	-9.4919	-8.7413	0.	129.16
4674	-9.4855	-8.2379	0.	128.52
4675	-9.4803	-7.7352	0.	128.28
4676	-9.4805	-7.2333	0.	128.65
4677	-9.4863	-6.7322	0.	129.46
4678	-9.4962	-6.2325	0.	130.42
4679	-9.5102	-5.7339	0.	131.27
4680	-9.5236	-5.2356	0.	131.82
4681	-9.5291	-4.7384	0.	131.92
4682	-9.5253	-4.2428	0.	131.57
4683	-9.5184	-3.7463	0.	131.08
4684	-9.4985	-3.2459	0.	131.16
4685	-9.4864	-2.7405	0.	132.28
4686	-9.4977	-2.2314	0.	133.4
4687	-9.2406	-2.4725	0.	134.81
4688	-9.5082	-1.725	0.	133.16
4689	-9.5167	-1.2244	0.	132.49
4690	-9.5207	-0.72711	0.	132.64
4691	-9.5164	-0.23173	0.	132.91
4692	-9.5099	0.26297	0.	132.38
4693	-9.5052	0.7585	0.	131.06
4694	-9.5025	1.2553	0.	129.57
4695	-9.2544	1.0084	0.	129.96
4696	-9.5011	1.7532	0.	128.37
4697	-9.2519	1.505	0.	128.58
4698	-9.5005	2.2518	0.	127.7
4699	-9.2508	2.0029	0.	127.79
4700	-9.5002	2.7511	0.	127.54
4701	-9.5001	3.2507	0.	127.71
4702	-9.5	3.7504	0.	127.95
4703	-9.5	4.2502	0.	128.06
4704	-9.5	4.7501	0.	127.97
4705	-9.5	5.25	0.	127.72
4706	-9.25	5.0001	0.	127.71
4707	-9.5	5.75	0.	127.35
4708	-9.5	6.25	0.	126.9
4709	-9.5	6.75	0.	126.36
4710	-9.5	7.25	0.	125.72
4711	-9.5	7.75	0.	125.06
4712	-9.5	8.25	0.	124.56
4713	-9.5	8.75	0.	124.41
4714	-9.5	9.25	0.	124.64
4715	-9.25	9.5	0.	124.95
4716	-8.75	9.5	0.	125.13
4717	-8.25	9.5	0.	125.56
4718	-7.75	9.5	0.	127.29
4719	-7.25	9.5	0.	126.94
4720	-6.75	9.5	0.	120.8
4721	-6.25	9.5	0.	120.82
4722	-5.75	9.5	0.	126.98
4723	-5.25	9.5	0.	127.33
4724	-4.75	9.5	0.	125.58
4725	-4.25	9.5	0.	125.13
4726	-3.75	9.5	0.	124.92
4727	-3.25	9.5	0.	124.66
4728	-2.75	9.5	0.	124.31
4729	-2.25	9.5	0.	123.93
4730	-1.75	9.5	0.	123.61
4731	-1.25	9.5	0.	123.47
4732	-0.75	9.5	0.	123.6
4733	-0.25001	9.5	0.	123.99
4734	0.24998	9.5	0.	124.59
4735	0.74996	9.5001	0.	125.28
4736	1.2499	9.5001	0.	125.96
4737	1.7499	9.5002	0.	126.57
4738	2.2499	9.5004	0.	127.13
4739	2.7499	9.5005	0.	127.8
4740	3.25	9.5005	0.	129.57
4741	3.75	9.5003	0.	129.56
4742	4.25	9.5001	0.	124.24
4743	4.75	9.5	0.	120.6
4744	5.25	9.5	0.	120.55
4745	5.75	9.5	0.	123.94
4746	6.25	9.5	0.	130.08
4747	6.75	9.5	0.	129.43
4748	7.25	9.5	0.	121.01
4749	7.75	9.5	0.	120.24
4750	8.25	9.5	0.	126.94
4751	8.75	9.5001	0.	127.59
4752	9.25	9.5001	0.	125.53
4753	-5.7462	-7.0634	0.	129.76
4754	-5.8208	-6.6312	0.	126.27
4755	-5.3226	-7.8963	0.	127.75
4756	-5.0028	-8.1497	0.	125.16
4757	-5.5369	-7.4634	0.	131.85
4758	-5.3189	-7.4516	0.	131.63
4759	-5.0922	-7.6895	0.	129.34
4760	-5.4731	-7.2568	0.	129.53
4761	4.919	-0.3185	0.	124.92
4762	8.5796	-3.7119	0.	126.15
4763	8.3493	-3.4551	0.	125.29
4764	8.8116	-3.469	0.	126.44
4765	8.5787	-3.2108	0.	125.42
4766	-0.25006	8.5001	0.	122.7
4767	-0.75003	8.5	0.	122.
4768	5.0354	2.5974	0.	131.55
4769	4.9547	3.064	0.	131.65
4770	4.7669	2.8221	0.	131.85
4771	5.0579	2.1207	0.	130.28
4772	8.2016	-8.0017	0.	127.71
4773	7.9403	-7.758	0.	127.68
4774	8.7227	-8.4966	0.	127.56
4775	8.4707	-8.7474	0.	127.75
4776	8.4633	-8.2475	0.	127.57
4777	-3.75	6.4997	0.	128.87
4778	9.0284	-5.2297	0.	126.36
4779	-7.9999	5.25	0.	125.74
4780	-8.25	5.5	0.	125.99
4781	6.3297	-1.2807	0.	132.54
4782	6.5801	-1.0285	0.	129.79
4783	4.7419	5.1555	0.	129.65
4784	-3.6256	-8.8644	0.	128.75
4785	-3.395	-8.6382	0.	127.72
4786	-3.676	-8.418	0.	127.81
4787	7.0466	-6.0021	0.	127.61
4788	7.1611	-7.0809	0.	127.97
4789	6.8879	-7.3105	0.	128.92
4790	8.7041	4.4522	0.	126.1
4791	8.4418	4.7028	0.	126.79
4792	8.9768	-8.2455	0.	127.2
4793	8.9877	-6.2364	0.	125.73
4794	8.7142	-6.4833	0.	125.7
4795	8.9734	-6.7394	0.	125.84
4796	8.7647	1.9558	0.	128.51
4797	8.5526	2.2587	0.	126.67
4798	1.2707	1.9276	0.	117.79
4799	0.77992	1.8052	0.	116.94
4800	-1.4208	0.11035	0.	124.86
4801	-1.6179	0.51095	0.	120.73
4802	-1.2078	0.28503	0.	124.13
4803	-1.25	8.	0.	120.63
4804	-1.	8.25	0.	121.01
4805	-4.25	8.5	0.	124.88
4806	5.3285	1.8737	0.	126.85
4807	-8.25	3.0008	0.	129.08
4808	-8.	3.2505	0.	129.93
4809	-8.0001	2.7509	0.	129.15
4810	-1.7195	-3.093	0.	117.11
4811	-8.75	5.0001	0.	127.31
4812	9.0681	3.2344	0.	126.68
4813	9.0585	3.736	0.	126.1
4814	-8.7552	1.0096	0.	129.
4815	-8.5088	0.76265	0.	129.25
4816	-8.5037	1.2572	0.	127.98
4817	4.0054	-4.0393	0.	127.73
4818	-5.3427	-6.1508	0.	128.98
4819	-5.1962	-3.3693	0.	128.63
4820	-3.9662	-1.8845	0.	133.22
4821	2.2596	-4.073	0.	129.21
4822	8.5166	-5.7153	0.	126.1
4823	8.7785	-5.4715	0.	126.26
4824	8.8156	-3.9683	0.	126.78
4825	8.3491	-3.9517	0.	126.27
4826	-8.5656	-4.226	0.	130.46
4827	-8.6107	-4.7102	0.	130.65
4828	-7.9999	4.7501	0.	126.68
4829	-4.75	7.4999	0.	127.7
4830	2.4151	-0.17337	0.	129.58
4831	-1.632	1.6036	0.	121.55
4832	-1.8447	1.3632	0.	120.21
4833	8.5014	-0.8764	0.	124.97
4834	8.1188	-3.6949	0.	125.41
4835	7.8913	-3.4433	0.	124.4
4836	-9.0038	1.2581	0.	128.98
4837	-9.0016	1.7547	0.	128.
4838	-8.7522	1.5056	0.	127.96
4839	-5.0227	-7.2649	0.	128.96
4840	5.0207	4.4778	0.	131.84
4841	6.737	6.0766	0.	125.22
4842	7.6768	-7.0377	0.	126.85
4843	7.6033	-5.1351	0.	128.3
4844	0.24987	8.5001	0.	123.73
4845	-2.3794	-8.6138	0.	125.59
4846	-2.8852	-8.6299	0.	126.66
4847	-2.6543	-8.3965	0.	125.43
4848	-1.5	8.25	0.	121.66
4849	-1.75	8.	0.	122.04
4850	8.7479	-5.9768	0.	125.8
4851	9.0097	-5.733	0.	125.95
4852	8.9778	4.7333	0.	127.25
4853	8.9785	5.2406	0.	128.46
4854	8.7154	4.9839	0.	127.95
4855	-1.3707	1.3894	0.	122.21
4856	-1.5834	1.149	0.	120.88
4857	0.49973	8.2503	0.	124.39
4858	1.9992	8.2518	0.	125.7
4859	1.749	8.0018	0.	126.02
4860	-2.75	8.5	0.	124.69
4861	2.6968	-8.1004	0.	129.45
4862	6.2357	6.0875	0.	123.97
4863	4.6837	-9.0303	0.	122.98
4864	-4.	8.25	0.	125.48
4865	9.0217	2.1793	0.	129.15
4866	1.7459	6.0094	0.	129.95
4867	2.2439	6.0166	0.	130.65
4868	9.0436	-3.2253	0.	127.06
4869	9.0476	-3.7255	0.	127.07
4870	-8.2506	2.0024	0.	128.01
4871	-8.7509	2.0033	0.	127.57
4872	-8.5005	2.2524	0.	127.64
4873	-8.5015	1.7542	0.	127.53
4874	-8.5002	2.7513	0.	128.14
4875	8.9998	7.2519	0.	129.33
4876	8.9982	6.7521	0.	130.33
4877	-8.001	1.7524	0.	128.
4878	-8.0003	2.2515	0.	128.59
4879	8.1407	-2.1723	0.	121.
4880	8.3575	-2.4438	0.	123.05
4881	7.9068	-2.4323	0.	120.95
4882	-2.6257	0.71584	0.	122.18
4883	-2.9062	0.94489	0.	125.86
4884	5.0232	1.1501	0.	126.16
4885	1.7818	3.5017	0.	127.77
4886	-1.8812	-8.5913	0.	127.11
4887	2.493	-3.8286	0.	129.44
4888	-1.25	8.5	0.	122.02
4889	-2.5	8.25	0.	124.64
4890	-2.25	8.	0.	123.96
4891	4.6814	-4.8421	0.	122.36
4892	7.3594	3.3822	0.	126.31
4893	-8.4734	-6.1674	0.	128.5
4894	4.8057	3.5191	0.	129.3
4895	-3.7462	-2.0964	0.	134.21
4896	4.9919	4.9397	0.	135.16
4897	8.8379	2.9905	0.	126.34
4898	9.0539	2.7202	0.	127.75
4899	3.1395	-0.4618	0.	128.39
4900	8.3447	2.5431	0.	125.11
4901	8.1379	2.8112	0.	124.18
4902	-2.25	8.5	0.	123.81
4903	0.49949	7.7505	0.	125.07
4904	2.7361	-9.0432	0.	130.22
4905	-5.5881	-6.3928	0.	126.45
4906	-5.0888	-4.4574	0.	129.66
4907	-2.7073	-5.9292	0.	132.65
4908	8.4532	-7.2423	0.	126.49
4909	8.458	-7.7467	0.	127.14
4910	8.7137	-7.4946	0.	126.67
4911	8.1967	-7.5029	0.	127.11
4912	-0.35105	-2.0541	0.	124.49
4913	0.19326	-1.9728	0.	123.18
4914	1.5078	2.2228	0.	122.78
4915	9.0137	4.2325	0.	126.29
4916	-8.2518	1.5041	0.	127.52
4917	-8.2502	2.5014	0.	128.22
4918	-0.72074	-1.9735	0.	127.16
4919	-3.5405	-7.3116	0.	128.53
4920	-3.2617	-7.5259	0.	127.88
4921	-5.9998	5.7496	0.	120.48
4922	-5.7496	5.4993	0.	120.73
4923	4.4795	-5.1413	0.	125.6
4924	-6.0816	-5.463	0.	121.43
4925	2.6374	-0.4256	0.	129.99
4926	1.2476	6.0051	0.	130.25
4927	9.0446	-2.7254	0.	127.16
4928	8.8107	-2.967	0.	126.04
4929	8.9873	5.7473	0.	129.58
4930	8.9942	6.2509	0.	130.43
4931	-7.2697	-5.1536	0.	115.17
4932	8.2465	-1.0693	0.	119.63
4933	-1.75	8.5	0.	122.76
4934	-2.	8.25	0.	123.14
4935	5.9567	-4.4202	0.	120.53
4936	8.1764	-1.6357	0.	120.01
4937	7.9305	-1.9117	0.	118.86
4938	-1.7914	0.91709	0.	119.13
4939	-8.25	5.	0.	126.57
4940	-8.5	5.25	0.	126.81
4941	-3.4976	-1.8547	0.	138.01
4942	8.4744	-6.2237	0.	125.77
4943	8.4511	-6.7339	0.	125.93
4944	-5.5927	-4.4845	0.	128.72
4945	2.2494	8.5017	0.	125.62
4946	1.7495	8.5011	0.	125.24
4947	8.1918	-6.9977	0.	126.28
4948	7.9353	-7.2583	0.	126.89
4949	-4.0436	-7.3127	0.	128.16
4950	-4.5425	-7.2969	0.	128.27
4951	-4.2812	-7.5281	0.	127.53
4952	9.	7.7512	0.	128.57
4953	9.	8.2507	0.	127.83
4954	3.2262	-9.0385	0.	129.48
4955	8.1101	-4.1905	0.	126.54
4956	7.0594	-0.97697	0.	116.84
4957	-0.70876	0.18026	0.	127.34
4958	2.4759	-3.3637	0.	129.4
4959	3.4792	-9.2759	0.	128.8
4960	8.5936	2.7526	0.	125.89
4961	8.3869	3.0206	0.	124.96
4962	8.252	-5.949	0.	125.89
4963	1.2671	3.4981	0.	127.88
4964	8.7103	-6.99	0.	126.06
4965	-8.5877	-0.67034	0.	134.84
4966	5.1691	-9.0136	0.	120.59
4967	8.8096	2.4822	0.	127.31
4968	9.2851	-2.4834	0.	128.63
4969	8.8166	-2.4647	0.	125.83
4970	8.7174	-7.9964	0.	127.21
4971	8.9731	-7.7444	0.	126.75
4972	8.5827	-2.7064	0.	124.72
4973	-2.3417	-6.9853	0.	128.77
4974	5.0412	1.6373	0.	127.97
4975	-8.2611	0.51115	0.	128.22
4976	1.4994	8.2511	0.	125.57
4977	7.2876	-1.1881	0.	112.17
4978	8.9708	-7.2423	0.	126.23
4979	-3.25	6.4997	0.	130.44
4980	-3.7708	-7.5355	0.	127.86
4981	-3.1633	-8.4127	0.	126.92
4982	7.8825	-3.937	0.	125.91
4983	7.655	-3.6854	0.	124.91
4984	-4.7961	-7.5028	0.	126.64
4985	7.9727	-1.3728	0.	117.16
4986	5.481	5.8645	0.	118.97
4987	5.727	5.6375	0.	118.25
4988	5.7347	6.0908	0.	120.26
4989	5.9806	5.8638	0.	119.56
4990	6.9718	-3.4379	0.	123.48
4991	-4.7725	-7.9429	0.	126.52
4992	-4.4817	-8.1761	0.	127.8
4993	-4.5348	-7.734	0.	125.91
4994	-4.244	-7.9672	0.	127.17
4995	-3.9608	-8.1915	0.	127.31
4996	-4.0084	-7.7509	0.	127.23
4997	-3.7252	-7.9753	0.	127.37
4998	-3.4443	-8.1925	0.	127.01
4999	-3.4921	-7.7498	0.	127.21
5000	-3.2111	-7.967	0.	126.85
5001	-2.9324	-8.1793	0.	125.69
5002	-2.9796	-7.7305	0.	126.43
5003	-2.7009	-7.9428	0.	125.26
5004	6.8881	-7.7677	0.	129.29
5005	7.4319	-3.4372	0.	123.84
5006	7.6674	-3.1891	0.	123.15
5007	7.2107	-3.1893	0.	122.87
5008	7.4462	-2.9412	0.	122.17
5009	7.6788	-2.6849	0.	121.22
5010	7.2264	-2.6926	0.	121.24
5011	7.4589	-2.4364	0.	120.28
5012	7.6967	-2.1718	0.	118.83
5013	7.2408	-2.1912	0.	119.34
5014	7.4786	-1.9266	0.	117.86
5015	7.7269	-1.6488	0.	116.04
5016	7.263	-1.689	0.	116.32
5017	7.5113	-1.4112	0.	114.41
5018	-6.	9.	0.	99.113
5019	-7.	9.	0.	99.127
5020	-6.	8.	0.	98.405
5021	-7.	8.	0.	98.425
5022	-6.5	9.	0.	115.96
5023	-6.	8.5	0.	104.07
5024	-7.	8.5	0.	104.06
5025	-6.5	8.	0.	114.03
5026	-6.5	8.5	0.	112.19
5027	-6.25	9.	0.	107.5
5028	-6.	8.75	0.	101.58
5029	-6.75	9.	0.	107.51
5030	-7.	8.75	0.	101.58
5031	-6.	8.25	0.	101.22
5032	-6.25	8.	0.	106.21
5033	-7.	8.25	0.	101.23
5034	-6.75	8.	0.	106.21
5035	-6.5	8.75	0.	114.02
5036	-6.25	8.5	0.	108.1
5037	-6.75	8.5	0.	108.1
5038	-6.5	8.25	0.	113.06
5039	0.	-4.	0.	96.392
5040	-2.	-4.	0.	95.898
5041	0.	-6.	0.	92.91
5042	-2.	-6.	0.	98.516
5043	-0.5	-4.	0.	109.78
5044	-1.	-4.	0.	107.12
5045	-1.5	-4.	0.	109.4
5046	0.	-4.5	0.	99.884
5047	0.	-5.	0.	97.911
5048	0.	-5.5	0.	97.943
5049	-2.	-4.5	0.	100.47
5050	-2.	-5.	0.	99.743
5051	-2.	-5.5	0.	101.41
5052	-1.5	-6.	0.	110.3
5053	-1.	-6.	0.	105.35
5054	-0.5	-6.	0.	105.43
5055	-1.	-5.	0.	108.55
5056	-0.5	-5.	0.	105.14
5057	-0.5	-5.5	0.	104.73
5058	-1.	-5.5	0.	108.19
5059	-1.5	-5.5	0.	107.47
5060	-1.5	-5.	0.	106.49
5061	-1.5	-4.5	0.	107.1
5062	-1.	-4.5	0.	109.18
5063	-0.5	-4.5	0.	106.69
5064	-0.25	-4.	0.	103.
5065	0.	-4.25	0.	98.126
5066	-1.75	-4.	0.	102.58
5067	-2.	-4.25	0.	98.172
5068	0.	-5.75	0.	95.421
5069	-0.25	-6.	0.	99.142
5070	-2.	-5.75	0.	99.954
5071	-1.75	-6.	0.	104.31
5072	-0.75	-4.	0.	108.44
5073	-0.5	-4.25	0.	108.21
5074	-1.25	-4.	0.	108.26
5075	-1.	-4.25	0.	108.13
5076	-1.5	-4.25	0.	108.22
5077	0.	-4.75	0.	98.872
5078	-0.25	-4.5	0.	103.27
5079	0.	-5.25	0.	97.902
5080	-0.25	-5.	0.	101.52
5081	-0.25	-5.5	0.	101.33
5082	-2.	-4.75	0.	100.08
5083	-1.75	-4.5	0.	103.78
5084	-2.	-5.25	0.	100.55
5085	-1.75	-5.	0.	103.11
5086	-1.75	-5.5	0.	104.43
5087	-1.25	-6.	0.	107.82
5088	-1.5	-5.75	0.	108.86
5089	-0.75	-6.	0.	105.38
5090	-1.	-5.75	0.	106.75
5091	-0.5	-5.75	0.	105.06
5092	-0.75	-5.	0.	106.84
5093	-1.	-5.25	0.	108.36
5094	-1.25	-5.	0.	107.52
5095	-1.	-4.75	0.	108.86
5096	-0.5	-5.25	0.	104.92
5097	-0.5	-4.75	0.	105.9
5098	-0.75	-5.5	0.	106.46
5099	-1.25	-5.5	0.	107.82
5100	-1.5	-5.25	0.	106.98
5101	-1.5	-4.75	0.	106.79
5102	-1.25	-4.5	0.	108.13
5103	-0.75	-4.5	0.	107.92
5104	0.	6.	0.	97.648
5105	-2.	6.	0.	98.321
5106	0.	4.	0.	97.055
5107	-2.	4.	0.	99.012
5108	-0.5	6.	0.	111.66
5109	-1.	6.	0.	109.39
5110	-1.5	6.	0.	112.07
5111	0.	5.5	0.	101.84
5112	0.	5.	0.	100.53
5113	0.	4.5	0.	101.63
5114	-2.	5.5	0.	102.77
5115	-2.	5.	0.	101.71
5116	-2.	4.5	0.	102.98
5117	-1.5	4.	0.	112.38
5118	-1.	4.	0.	109.55
5119	-0.5	4.	0.	111.53
5120	-1.	5.	0.	111.85
5121	-1.5	5.	0.	109.19
5122	-1.5	5.5	0.	109.81
5123	-1.	5.5	0.	111.99
5124	-0.5	5.5	0.	109.25
5125	-0.5	5.	0.	108.49
5126	-0.5	4.5	0.	109.17
5127	-1.	4.5	0.	112.05
5128	-1.5	4.5	0.	109.99
5129	-0.25	6.	0.	104.58
5130	0.	5.75	0.	99.73
5131	-1.75	6.	0.	105.13
5132	-2.	5.75	0.	100.53
5133	0.	4.25	0.	99.324
5134	-0.25	4.	0.	104.22
5135	-2.	4.25	0.	100.99
5136	-1.75	4.	0.	105.62
5137	-0.75	6.	0.	110.52
5138	-0.5	5.75	0.	110.43
5139	-1.25	6.	0.	110.73
5140	-1.	5.75	0.	110.67
5141	-1.5	5.75	0.	110.91
5142	0.	5.25	0.	101.15
5143	-0.25	5.5	0.	105.53
5144	0.	4.75	0.	101.05
5145	-0.25	5.	0.	104.51
5146	-0.25	4.5	0.	105.38
5147	-2.	5.25	0.	102.21
5148	-1.75	5.5	0.	106.28
5149	-2.	4.75	0.	102.32
5150	-1.75	5.	0.	105.45
5151	-1.75	4.5	0.	106.47
5152	-1.25	4.	0.	110.96
5153	-1.5	4.25	0.	111.16
5154	-0.75	4.	0.	110.54
5155	-1.	4.25	0.	110.79
5156	-0.5	4.25	0.	110.32
5157	-1.25	5.	0.	110.52
5158	-1.	5.25	0.	111.92
5159	-0.75	5.	0.	110.17
5160	-1.	4.75	0.	111.95
5161	-1.5	5.25	0.	109.5
5162	-1.5	4.75	0.	109.59
5163	-1.25	5.5	0.	110.89
5164	-0.75	5.5	0.	110.61
5165	-0.5	5.25	0.	108.86
5166	-0.5	4.75	0.	108.81
5167	-0.75	4.5	0.	110.6
5168	-1.25	4.5	0.	111.01
5169	8.	9.	0.	97.608
5170	7.	9.	0.	99.016
5171	8.	7.	0.	98.361
5172	7.	7.	0.	98.4
5173	7.5	9.	0.	113.37
5174	8.	8.5	0.	101.26
5175	8.	8.	0.	99.933
5176	8.	7.5	0.	100.9
5177	7.	8.5	0.	103.06
5178	7.	8.	0.	102.14
5179	7.	7.5	0.	103.04
5180	7.5	7.	0.	112.36
5181	7.5	8.5	0.	106.56
5182	7.5	8.	0.	104.02
5183	7.5	7.5	0.	106.35
5184	7.75	9.	0.	105.41
5185	8.	8.75	0.	99.427
5186	7.25	9.	0.	106.14
5187	7.	8.75	0.	101.03
5188	8.	7.25	0.	99.627
5189	7.75	7.	0.	105.33
5190	7.	7.25	0.	100.7
5191	7.25	7.	0.	105.32
5192	7.5	8.75	0.	109.92
5193	8.	8.25	0.	100.57
5194	7.75	8.5	0.	103.85
5195	8.	7.75	0.	100.39
5196	7.75	8.	0.	101.98
5197	7.75	7.5	0.	103.58
5198	7.	8.25	0.	102.53
5199	7.25	8.5	0.	104.75
5200	7.	7.75	0.	102.53
5201	7.25	8.	0.	103.07
5202	7.25	7.5	0.	104.65
5203	7.5	7.25	0.	109.33
5204	7.5	8.25	0.	105.28
5205	7.5	7.75	0.	105.17
5206	6.	9.	0.	100.98
5207	4.	9.	0.	99.492
5208	6.	7.	0.	100.04
5209	4.	7.	0.	101.19
5210	5.5	9.	0.	117.34
5211	5.	9.	0.	115.73
5212	4.5	9.	0.	117.24
5213	6.	8.5	0.	105.9
5214	6.	8.	0.	104.79
5215	6.	7.5	0.	105.15
5216	4.	8.5	0.	104.75
5217	4.	8.	0.	103.22
5218	4.	7.5	0.	104.29
5219	4.5	7.	0.	114.97
5220	5.	7.	0.	112.44
5221	5.5	7.	0.	114.32
5222	5.	8.	0.	115.7
5223	5.5	8.	0.	112.36
5224	5.5	7.5	0.	112.44
5225	5.	7.5	0.	115.2
5226	4.5	7.5	0.	112.61
5227	4.5	8.	0.	112.21
5228	4.5	8.5	0.	113.75
5229	5.	8.5	0.	117.1
5230	5.5	8.5	0.	113.91
5231	5.75	9.	0.	109.08
5232	6.	8.75	0.	103.42
5233	4.25	9.	0.	108.25
5234	4.	8.75	0.	102.1
5235	6.	7.25	0.	102.56
5236	5.75	7.	0.	107.13
5237	4.	7.25	0.	102.73
5238	4.25	7.	0.	108.02
5239	5.25	9.	0.	116.53
5240	5.5	8.75	0.	115.6
5241	4.75	9.	0.	116.48
5242	5.	8.75	0.	116.39
5243	4.5	8.75	0.	115.45
5244	6.	8.25	0.	105.3
5245	5.75	8.5	0.	109.88
5246	6.	7.75	0.	104.93
5247	5.75	8.	0.	108.57
5248	5.75	7.5	0.	108.78
5249	4.	8.25	0.	103.96
5250	4.25	8.5	0.	109.22
5251	4.	7.75	0.	103.72
5252	4.25	8.	0.	107.71
5253	4.25	7.5	0.	108.44
5254	4.75	7.	0.	113.71
5255	4.5	7.25	0.	113.77
5256	5.25	7.	0.	113.38
5257	5.	7.25	0.	113.81
5258	5.5	7.25	0.	113.36
5259	5.25	8.	0.	114.02
5260	5.	7.75	0.	115.45
5261	4.75	8.	0.	113.95
5262	5.	8.25	0.	116.4
5263	5.5	7.75	0.	112.38
5264	5.5	8.25	0.	113.11
5265	5.25	7.5	0.	113.82
5266	4.75	7.5	0.	113.9
5267	4.5	7.75	0.	112.4
5268	4.5	8.25	0.	112.97
5269	4.75	8.5	0.	115.39
5270	5.25	8.5	0.	115.47
5271	-8.	-2.66	0.	63.905
5272	-7.23	-4.34	0.	103.58
5273	-6.16	-2.83	0.	69.683
5274	-7.8075	-3.08	0.	99.824
5275	-7.615	-3.5	0.	97.73
5276	-7.4225	-3.92	0.	94.832
5277	-7.54	-2.7025	0.	108.81
5278	-7.08	-2.745	0.	102.95
5279	-6.62	-2.7875	0.	116.62
5280	-6.9625	-3.9625	0.	93.741
5281	-6.695	-3.585	0.	100.17
5282	-6.4275	-3.2075	0.	105.85
5283	-7.1462	-3.077	0.	102.82
5284	-6.8111	-3.2431	0.	101.49
5285	-7.1265	-3.62	0.	100.69
5286	-7.4849	-3.0278	0.	97.525
5287	-7.3399	-3.3361	0.	99.602
5288	-7.9037	-2.87	0.	81.628
5289	-7.77	-2.6813	0.	86.172
5290	-7.3263	-4.13	0.	97.825
5291	-7.0963	-4.1512	0.	97.368
5292	-6.39	-2.8087	0.	91.743
5293	-6.2937	-3.0187	0.	86.317
5294	-7.7112	-3.29	0.	98.765
5295	-7.6462	-3.0539	0.	98.62
5296	-7.5188	-3.71	0.	96.227
5297	-7.4775	-3.4181	0.	98.659
5298	-7.2745	-3.77	0.	97.729
5299	-7.31	-2.7238	0.	105.87
5300	-7.5124	-2.8652	0.	103.12
5301	-6.85	-2.7662	0.	109.79
5302	-7.1131	-2.911	0.	102.89
5303	-6.7156	-3.0153	0.	108.98
5304	-6.8288	-3.7738	0.	96.944
5305	-7.0445	-3.7912	0.	97.213
5306	-6.5613	-3.3963	0.	103.
5307	-6.7531	-3.4141	0.	100.82
5308	-6.6193	-3.2253	0.	103.63
5309	-6.9787	-3.16	0.	102.1
5310	-7.3155	-3.0524	0.	100.16
5311	-7.243	-3.2065	0.	101.2
5312	-6.9688	-3.4315	0.	101.05
5313	-7.2332	-3.478	0.	100.15
5314	-7.4124	-3.182	0.	98.527
5315	-7.01	-1.53	0.	50.623
5316	-7.53	-0.56	0.	104.61
5317	-8.11	-1.49	0.	55.808
5318	-7.27	-1.045	0.	83.331
5319	-7.56	-1.51	0.	114.64
5320	-7.82	-1.025	0.	84.183
5321	-7.5501	-1.1933	0.	97.593
5322	-7.14	-1.2875	0.	66.157
5323	-7.285	-1.52	0.	82.538
5324	-7.4	-0.8025	0.	92.929
5325	-7.675	-0.7925	0.	93.498
5326	-7.835	-1.5	0.	84.657
5327	-7.965	-1.2575	0.	68.516
5328	-7.4101	-1.1191	0.	90.044
5329	-7.5551	-1.3516	0.	106.1
5330	-7.6851	-1.1091	0.	90.482
5331	-6.33	-6.97	0.	109.
5332	-7.04	-8.03	0.	51.319
5333	-5.76	-8.11	0.	49.087
5334	-6.5667	-7.3233	0.	88.29
5335	-6.8033	-7.6767	0.	92.355
5336	-6.14	-7.35	0.	90.84
5337	-5.95	-7.73	0.	94.177
5338	-6.6133	-8.0567	0.	112.22
5339	-6.1867	-8.0833	0.	111.3
5340	-6.5318	-7.7777	0.	99.283
5341	-6.2352	-7.7963	0.	98.25
5342	-6.365	-7.5342	0.	98.925
5343	-6.4483	-7.1467	0.	97.045
5344	-6.235	-7.16	0.	98.01
5345	-6.9217	-7.8533	0.	69.696
5346	-6.8267	-8.0433	0.	79.844
5347	-5.855	-7.92	0.	70.923
5348	-5.9733	-8.0967	0.	79.697
5349	-6.685	-7.5	0.	90.172
5350	-6.4658	-7.4287	0.	93.547
5351	-6.6676	-7.7272	0.	95.628
5352	-6.045	-7.54	0.	92.377
5353	-6.2525	-7.4421	0.	94.76
5354	-6.0926	-7.7632	0.	96.091
5355	-6.4	-8.07	0.	111.64
5356	-6.5726	-7.9172	0.	105.56
5357	-6.2109	-7.9398	0.	104.69
5358	-6.3835	-7.787	0.	98.628
5359	-6.4484	-7.6559	0.	98.981
5360	-6.3001	-7.6652	0.	98.496
5361	1.61	1.11	0.	72.469
5362	0.15	0.52	0.	73.275
5363	1.39	-0.45	0.	93.534
5364	1.1233	0.91333	0.	106.06
5365	0.63667	0.71667	0.	108.01
5366	1.5367	0.59	0.	103.15
5367	1.4633	7.e-002	0.	100.6
5368	0.56333	0.19667	0.	100.12
5369	0.97667	-0.12667	0.	95.527
5370	1.1795	0.55903	0.	99.672
5371	1.1286	0.19832	0.	100.9
5372	0.84191	0.42261	0.	103.93
5373	1.3667	1.0117	0.	88.155
5374	1.5733	0.85	0.	86.897
5375	0.39333	0.61833	0.	86.264
5376	0.35667	0.35833	0.	82.381
5377	1.4267	-0.19	0.	94.917
5378	1.1833	-0.28833	0.	92.773
5379	0.88	0.815	0.	106.92
5380	1.1514	0.73618	0.	102.82
5381	0.73929	0.56964	0.	105.51
5382	1.5	0.33	0.	101.71
5383	1.3581	0.57452	0.	101.4
5384	1.296	0.13416	0.	100.65
5385	0.77	3.5e-002	0.	97.691
5386	0.70262	0.30964	0.	101.6
5387	1.0527	3.5824e-002	0.	98.172
5388	1.1541	0.37868	0.	100.28
5389	1.0107	0.49082	0.	101.72
5390	0.98528	0.31046	0.	102.32
5391	-2.36	-0.14	0.	105.92
5392	-2.8	-1.38	0.	58.133
5393	-1.5	-1.14	0.	64.475
5394	-2.5067	-0.55333	0.	96.4
5395	-2.6533	-0.96667	0.	100.82
5396	-2.0733	-0.47333	0.	90.076
5397	-1.7867	-0.80667	0.	94.798
5398	-2.3667	-1.3	0.	111.5
5399	-1.9333	-1.22	0.	111.43
5400	-2.3561	-1.	0.	99.347
5401	-2.0549	-0.9445	0.	102.19
5402	-2.2536	-0.71374	0.	101.35
5403	-2.4333	-0.34667	0.	98.865
5404	-2.2167	-0.30667	0.	96.525
5405	-2.7267	-1.1733	0.	79.367
5406	-2.5833	-1.34	0.	84.583
5407	-1.6433	-0.97333	0.	76.162
5408	-1.7167	-1.18	0.	84.471
5409	-2.58	-0.76	0.	98.485
5410	-2.3801	-0.63354	0.	98.752
5411	-2.5047	-0.98335	0.	100.06
5412	-1.93	-0.64	0.	92.328
5413	-2.1635	-0.59354	0.	95.703
5414	-1.9208	-0.87558	0.	98.215
5415	-2.15	-1.26	0.	111.33
5416	-2.3614	-1.15	0.	105.4
5417	-1.9941	-1.0823	0.	106.47
5418	-2.2055	-0.97226	0.	100.67
5419	-2.3049	-0.85688	0.	100.31
5420	-2.1542	-0.82912	0.	101.66
5421	0.11	-8.62	0.	70.852
5422	-1.e-002	-7.26	0.	87.519
5423	-1.12	-8.04	0.	68.651
5424	7.e-002	-8.1667	0.	98.477
5425	3.e-002	-7.7133	0.	96.623
5426	-0.3	-8.4267	0.	98.605
5427	-0.71	-8.2333	0.	100.2
5428	-0.38	-7.52	0.	90.273
5429	-0.75	-7.78	0.	93.898
5430	-0.2637	-7.8084	0.	95.437
5431	-0.23593	-8.1229	0.	94.412
5432	-0.52032	-7.9888	0.	97.927
5433	9.e-002	-8.3933	0.	83.444
5434	-9.5e-002	-8.5233	0.	83.398
5435	1.e-002	-7.4867	0.	89.954
5436	-0.195	-7.39	0.	87.153
5437	-0.915	-8.1367	0.	79.902
5438	-0.935	-7.91	0.	76.955
5439	5.e-002	-7.94	0.	97.405
5440	-8.2967e-002	-8.1448	0.	96.43
5441	-0.11685	-7.7609	0.	95.946
5442	-0.505	-8.33	0.	99.294
5443	-0.26797	-8.2748	0.	96.46
5444	-0.61516	-8.111	0.	98.619
5445	-0.565	-7.65	0.	91.944
5446	-0.32185	-7.6642	0.	92.808
5447	-0.63516	-7.8844	0.	95.46
5448	-0.24982	-7.9656	0.	94.922
5449	-0.39201	-7.8986	0.	96.594
5450	-0.37813	-8.0558	0.	96.084
5451	6.25	-5.75	0.	73.761
5452	4.33	-6.17	0.	85.571
5453	5.65	-7.62	0.	99.39
5454	5.77	-5.855	0.	112.49
5455	5.29	-5.96	0.	109.93
5456	4.81	-6.065	0.	115.62
5457	6.1	-6.2175	0.	107.36
5458	5.95	-6.685	0.	101.16
5459	5.8	-7.1525	0.	97.417
5460	4.66	-6.5325	0.	106.99
5461	4.99	-6.895	0.	107.81
5462	5.32	-7.2575	0.	99.521
5463	5.2512	-6.4474	0.	106.44
5464	5.721	-6.3793	0.	102.06
5465	5.521	-6.8539	0.	104.45
5466	6.01	-5.8025	0.	92.945
5467	6.175	-5.9837	0.	90.447
5468	4.57	-6.1175	0.	99.374
5469	4.495	-6.3513	0.	94.997
5470	5.725	-7.3863	0.	97.315
5471	5.485	-7.4387	0.	98.274
5472	5.53	-5.9075	0.	111.19
5473	5.7455	-6.1171	0.	107.27
5474	5.05	-6.0125	0.	112.77
5475	5.2706	-6.2037	0.	108.16
5476	4.735	-6.2987	0.	111.19
5477	5.0306	-6.2562	0.	111.01
5478	6.025	-6.4513	0.	104.26
5479	5.9105	-6.2984	0.	104.71
5480	5.875	-6.9187	0.	99.244
5481	5.8355	-6.5321	0.	101.61
5482	5.6605	-7.0032	0.	100.92
5483	4.825	-6.7137	0.	107.35
5484	5.155	-7.0763	0.	103.66
5485	5.1206	-6.6712	0.	107.12
5486	5.4205	-7.0557	0.	101.94
5487	5.4861	-6.4134	0.	104.18
5488	5.3861	-6.6507	0.	105.42
5489	5.621	-6.6166	0.	103.24
5490	6.96	4.25	0.	60.209
5491	5.4	4.31	0.	58.552
5492	6.13	2.93	0.	109.16
5493	6.44	4.27	0.	112.59
5494	5.92	4.29	0.	112.97
5495	6.6833	3.81	0.	96.288
5496	6.4067	3.37	0.	91.106
5497	5.6433	3.85	0.	98.101
5498	5.8867	3.39	0.	92.405
5499	6.1556	3.6219	0.	101.27
5500	5.9868	3.941	0.	99.92
5501	6.3475	3.9271	0.	100.11
5502	6.7	4.26	0.	85.1
5503	6.8217	4.03	0.	76.967
5504	5.66	4.3	0.	85.018
5505	5.5217	4.08	0.	77.571
5506	6.2683	3.15	0.	98.753
5507	6.0083	3.16	0.	99.288
5508	6.18	4.28	0.	112.66
5509	6.3938	4.0986	0.	106.22
5510	5.9534	4.1155	0.	106.35
5511	6.545	3.59	0.	93.568
5512	6.5154	3.8686	0.	98.087
5513	6.2811	3.496	0.	96.139
5514	5.765	3.62	0.	95.143
5515	5.8151	3.8955	0.	98.931
5516	6.0211	3.506	0.	96.773
5517	6.0712	3.7815	0.	100.54
5518	6.2516	3.7745	0.	100.63
5519	6.1672	3.9341	0.	99.91
5520	6.83	-0.58	0.	78.581
5521	8.7	-5.e-002	0.	80.408
5522	7.31	1.31	0.	97.601
5523	7.3676	-0.42763	0.	105.31
5524	7.765	-0.315	0.	110.36
5525	8.2325	-0.1825	0.	118.8
5526	6.95	-0.1075	0.	103.86
5527	7.07	0.365	0.	99.847
5528	7.19	0.8375	0.	97.804
5529	8.3525	0.29	0.	110.18
5530	8.005	0.63	0.	106.32
5531	7.6575	0.97	0.	99.912
5532	7.2121	5.8062e-002	0.	98.71
5533	7.4326	0.48683	0.	103.22
5534	7.9982	-3.2745e-003	0.	108.97
5535	7.6684	0.13599	0.	106.15
5536	7.0988	-0.50381	0.	91.593
5537	6.89	-0.34375	0.	90.882
5538	8.4663	-0.11625	0.	96.274
5539	8.5262	0.12	0.	92.766
5540	7.25	1.0738	0.	96.317
5541	7.4837	1.14	0.	97.31
5542	7.5663	-0.37131	0.	107.77
5543	7.2899	-0.18478	0.	101.95
5544	7.518	-0.14582	0.	105.63
5545	7.9988	-0.24875	0.	114.49
5546	7.8816	-0.15914	0.	109.63
5547	8.1153	-9.2887e-002	0.	113.65
5548	7.01	0.12875	0.	101.84
5549	7.0811	-2.4719e-002	0.	101.27
5550	7.13	0.60125	0.	98.775
5551	7.1411	0.21153	0.	99.271
5552	7.3113	0.66216	0.	100.48
5553	8.1788	0.46	0.	108.2
5554	8.1753	0.14336	0.	109.4
5555	7.8313	0.8	0.	103.12
5556	7.8367	0.383	0.	106.2
5557	7.5451	0.72841	0.	101.52
5558	7.3224	0.27244	0.	100.94
5559	7.5505	0.31141	0.	104.68
5560	7.8333	6.6359e-002	0.	107.53
5561	-5.	3.	0.	99.228
5562	-7.	3.	0.	97.119
5563	-5.	1.	0.	100.62
5564	-7.	1.	0.	95.521
5565	-5.5	3.	0.	112.5
5566	-6.	3.	0.	109.42
5567	-6.5	3.	0.	111.34
5568	-5.	2.5	0.	103.74
5569	-5.	2.	0.	102.89
5570	-5.	1.5	0.	104.45
5571	-7.	2.5	0.	101.26
5572	-7.	2.	0.	99.776
5573	-7.	1.5	0.	100.54
5574	-6.5	1.	0.	111.26
5575	-6.	1.	0.	110.39
5576	-5.5	1.	0.	113.85
5577	-5.5	2.	0.	110.13
5578	-5.5	1.5	0.	111.22
5579	-6.5	1.5	0.	108.88
5580	-6.5	2.	0.	108.24
5581	-6.5	2.5	0.	109.01
5582	-5.5	2.5	0.	110.5
5583	-6.	2.5	0.	112.21
5584	-6.	1.5	0.	112.66
5585	-6.	2.	0.	112.25
5586	-5.25	3.	0.	105.79
5587	-5.	2.75	0.	101.48
5588	-6.75	3.	0.	104.16
5589	-7.	2.75	0.	99.179
5590	-5.	1.25	0.	102.53
5591	-5.25	1.	0.	107.16
5592	-7.	1.25	0.	98.012
5593	-6.75	1.	0.	103.33
5594	-5.75	3.	0.	110.96
5595	-5.5	2.75	0.	111.47
5596	-6.25	3.	0.	110.38
5597	-6.	2.75	0.	110.8
5598	-6.5	2.75	0.	110.15
5599	-5.	2.25	0.	103.29
5600	-5.25	2.5	0.	107.11
5601	-5.	1.75	0.	103.64
5602	-5.25	2.	0.	106.5
5603	-5.25	1.5	0.	107.82
5604	-7.	2.25	0.	100.48
5605	-6.75	2.5	0.	105.12
5606	-7.	1.75	0.	100.12
5607	-6.75	2.	0.	104.
5608	-6.75	1.5	0.	104.7
5609	-6.25	1.	0.	110.83
5610	-6.5	1.25	0.	110.05
5611	-5.75	1.	0.	112.12
5612	-6.	1.25	0.	111.51
5613	-5.5	1.25	0.	112.5
5614	-5.5	1.75	0.	110.67
5615	-5.5	2.25	0.	110.31
5616	-5.75	2.	0.	111.19
5617	-5.75	1.5	0.	111.93
5618	-6.5	1.75	0.	108.54
5619	-6.25	1.5	0.	110.76
5620	-6.5	2.25	0.	108.61
5621	-6.25	2.	0.	110.24
5622	-6.25	2.5	0.	110.6
5623	-5.75	2.5	0.	111.35
5624	-6.	2.25	0.	112.23
5625	-6.	1.75	0.	112.46
