Node Number	X Location (mm)	Y Location (mm)	Z Location (mm)	Equivalent (von-Mises) Stress (MPa)
1	-1.	-3.	0.	133.69
2	-1.	-4.	0.	133.55
3	0.	-3.	0.	135.
4	0.	-4.	0.	134.24
5	6.	7.	0.	132.03
6	6.	6.	0.	132.14
7	7.	7.	0.	133.17
8	7.	6.	0.	132.15
9	4.	2.	0.	130.52
10	4.	0.	0.	126.6
11	5.	2.	0.	129.08
12	5.	0.	0.	128.69
13	4.	-1.	0.	125.82
14	4.	-3.	0.	135.15
15	5.	-1.	0.	129.24
16	5.	-3.	0.	133.42
17	8.	-7.	0.	132.79
18	8.	-9.	0.	130.13
19	9.	-7.	0.	133.04
20	9.	-9.	0.	131.38
21	6.	0.	0.	136.86
22	6.	-2.	0.	134.45
23	7.	0.	0.	134.65
24	7.	-2.	0.	134.19
25	2.	-3.	0.	133.57
26	2.	-5.	0.	134.3
27	3.	-3.	0.	135.62
28	3.	-5.	0.	130.6
29	10.	10.	0.	125.
30	-10.	10.	0.	125.
31	10.	-10.	0.	138.67
32	-10.	-10.	0.	124.39
33	-1.	-3.5	0.	143.03
34	-0.5	-3.	0.	111.56
35	-0.5	-4.	0.	111.16
36	0.	-3.5	0.	143.74
37	6.	6.5	0.	141.17
38	6.5	7.	0.	110.34
39	6.5	6.	0.	110.05
40	7.	6.5	0.	141.98
41	4.	1.5	0.	138.87
42	4.	1.	0.	138.88
43	4.	0.5	0.	137.73
44	4.5	2.	0.	105.9
45	4.5	0.	0.	100.86
46	5.	1.5	0.	138.73
47	5.	1.	0.	140.6
48	5.	0.5	0.	141.12
49	4.	-1.5	0.	139.15
50	4.	-2.	0.	142.49
51	4.	-2.5	0.	144.28
52	4.5	-1.	0.	100.88
53	4.5	-3.	0.	108.78
54	5.	-1.5	0.	140.86
55	5.	-2.	0.	143.48
56	5.	-2.5	0.	144.19
57	8.	-7.5	0.	141.19
58	8.	-8.	0.	141.32
59	8.	-8.5	0.	140.31
60	8.5	-7.	0.	108.07
61	8.5	-9.	0.	105.8
62	9.	-7.5	0.	143.53
63	9.	-8.	0.	144.1
64	9.	-8.5	0.	142.93
65	6.	-0.5	0.	149.22
66	6.	-1.	0.	147.95
67	6.	-1.5	0.	144.84
68	6.5	0.	0.	110.67
69	6.5	-2.	0.	109.
70	7.	-0.5	0.	144.01
71	7.	-1.	0.	144.34
72	7.	-1.5	0.	143.42
73	2.	-3.5	0.	142.09
74	2.	-4.	0.	142.75
75	2.	-4.5	0.	142.65
76	2.5	-3.	0.	108.87
77	2.5	-5.	0.	108.35
78	3.	-3.5	0.	145.16
79	3.	-4.	0.	144.05
80	3.	-4.5	0.	141.65
81	9.5	10.	0.	125.01
82	9.	10.	0.	124.95
83	8.5	10.	0.	124.74
84	8.	10.	0.	124.35
85	7.5	10.	0.	123.85
86	7.	10.	0.	123.39
87	6.5	10.	0.	123.17
88	6.	10.	0.	123.27
89	5.5	10.	0.	123.62
90	5.	10.	0.	124.06
91	4.5	10.	0.	124.44
92	4.	10.	0.	124.69
93	3.5	10.	0.	124.83
94	3.	10.	0.	124.89
95	2.5	10.	0.	124.92
96	2.	10.	0.	124.94
97	1.5	10.	0.	124.97
98	1.	10.	0.	125.
99	0.5	10.	0.	125.03
100	-5.2042e-015	10.	0.	125.06
101	-0.5	10.	0.	125.09
102	-1.	10.	0.	125.11
103	-1.5	10.	0.	125.13
104	-2.	10.	0.	125.15
105	-2.5	10.	0.	125.16
106	-3.	10.	0.	125.16
107	-3.5	10.	0.	125.16
108	-4.	10.	0.	125.15
109	-4.5	10.	0.	125.14
110	-5.	10.	0.	125.12
111	-5.5	10.	0.	125.11
112	-6.	10.	0.	125.09
113	-6.5	10.	0.	125.07
114	-7.	10.	0.	125.05
115	-7.5	10.	0.	125.03
116	-8.	10.	0.	125.02
117	-8.5	10.	0.	125.01
118	-9.	10.	0.	125.
119	-9.5	10.	0.	125.
120	10.	9.5	0.	124.96
121	10.	9.	0.	125.
122	10.	8.5	0.	125.07
123	10.	8.	0.	125.04
124	10.	7.5	0.	124.89
125	10.	7.	0.	124.82
126	10.	6.5	0.	125.07
127	10.	6.	0.	125.76
128	10.	5.5	0.	126.74
129	10.	5.	0.	127.72
130	10.	4.5	0.	128.47
131	10.	4.	0.	128.93
132	10.	3.5	0.	129.16
133	10.	3.	0.	129.23
134	10.	2.5	0.	129.2
135	10.	2.	0.	129.04
136	10.	1.5	0.	128.69
137	10.	1.	0.	128.05
138	10.	0.5	0.	127.12
139	10.	-5.2042e-015	0.	126.03
140	10.	-0.5	0.	125.08
141	10.	-1.	0.	124.57
142	10.	-1.5	0.	124.63
143	10.	-2.	0.	125.17
144	10.	-2.5	0.	125.93
145	10.	-3.	0.	126.62
146	10.	-3.5	0.	127.09
147	10.	-4.	0.	127.41
148	10.	-4.5	0.	127.8
149	10.	-5.	0.	128.61
150	10.	-5.5	0.	130.34
151	10.	-6.	0.	133.15
152	10.	-6.5	0.	134.74
153	10.	-7.	0.	132.88
154	10.	-7.5	0.	130.34
155	10.	-8.	0.	130.66
156	10.	-8.5	0.	130.78
157	10.	-9.	0.	134.03
158	10.	-9.5	0.	137.5
159	-10.	9.5	0.	125.
160	-10.	9.	0.	125.
161	-10.	8.5	0.	124.99
162	-10.	8.	0.	124.97
163	-10.	7.5	0.	124.94
164	-10.	7.	0.	124.9
165	-10.	6.5	0.	124.86
166	-10.	6.	0.	124.82
167	-10.	5.5	0.	124.77
168	-10.	5.	0.	124.72
169	-10.	4.5	0.	124.66
170	-10.	4.	0.	124.6
171	-10.	3.5	0.	124.54
172	-10.	3.	0.	124.47
173	-10.	2.5	0.	124.4
174	-10.	2.	0.	124.33
175	-10.	1.5	0.	124.25
176	-10.	1.	0.	124.17
177	-10.	0.5	0.	124.09
178	-10.	-5.2042e-015	0.	124.
179	-10.	-0.5	0.	123.93
180	-10.	-1.	0.	123.86
181	-10.	-1.5	0.	123.79
182	-10.	-2.	0.	123.74
183	-10.	-2.5	0.	123.71
184	-10.	-3.	0.	123.69
185	-10.	-3.5	0.	123.7
186	-10.	-4.	0.	123.72
187	-10.	-4.5	0.	123.76
188	-10.	-5.	0.	123.82
189	-10.	-5.5	0.	123.89
190	-10.	-6.	0.	123.97
191	-10.	-6.5	0.	124.05
192	-10.	-7.	0.	124.12
193	-10.	-7.5	0.	124.2
194	-10.	-8.	0.	124.26
195	-10.	-8.5	0.	124.32
196	-10.	-9.	0.	124.36
197	-10.	-9.5	0.	124.38
198	-9.5	-10.	0.	124.46
199	-9.	-10.	0.	124.55
200	-8.5	-10.	0.	124.68
201	-8.	-10.	0.	124.81
202	-7.5	-10.	0.	124.96
203	-7.	-10.	0.	125.11
204	-6.5	-10.	0.	125.26
205	-6.	-10.	0.	125.4
206	-5.5	-10.	0.	125.53
207	-5.	-10.	0.	125.64
208	-4.5	-10.	0.	125.72
209	-4.	-10.	0.	125.77
210	-3.5	-10.	0.	125.77
211	-3.	-10.	0.	125.73
212	-2.5	-10.	0.	125.63
213	-2.	-10.	0.	125.49
214	-1.5	-10.	0.	125.31
215	-1.	-10.	0.	125.08
216	-0.5	-10.	0.	124.81
217	5.2042e-015	-10.	0.	124.51
218	0.5	-10.	0.	124.19
219	1.	-10.	0.	123.87
220	1.5	-10.	0.	123.59
221	2.	-10.	0.	123.4
222	2.5	-10.	0.	123.35
223	3.	-10.	0.	123.48
224	3.5	-10.	0.	123.8
225	4.	-10.	0.	124.31
226	4.5	-10.	0.	125.01
227	5.	-10.	0.	125.88
228	5.5	-10.	0.	126.95
229	6.	-10.	0.	128.19
230	6.5	-10.	0.	129.42
231	7.	-10.	0.	130.13
232	7.5	-10.	0.	127.08
233	8.	-10.	0.	117.14
234	8.5	-10.	0.	111.14
235	9.	-10.	0.	118.06
236	9.5	-10.	0.	129.93
237	-3.	2.5	0.	125.59
238	-3.	3.	0.	125.55
239	-2.	3.	0.	125.64
240	-2.5	2.5	0.	125.62
241	-3.	2.	0.	125.63
242	-3.5	3.	0.	125.51
243	-1.5	3.	0.	125.7
244	-2.	2.5	0.	125.64
245	-3.5	2.5	0.	125.55
246	-2.5	2.	0.	125.64
247	-1.5	3.5	0.	125.69
248	-3.	3.5	0.	125.52
249	-2.	3.5	0.	125.63
250	-3.5	1.5	0.	125.66
251	-1.5	2.5	0.	125.68
252	-2.	2.	0.	125.64
253	-1.	3.5	0.	125.78
254	-4.	4.	0.	125.38
255	-3.	1.5	0.	125.68
256	-3.5	1.	0.	125.74
257	-0.5	4.	0.	125.86
258	-4.	0.5	0.	125.76
259	-4.	1.5	0.	125.61
260	-4.	2.5	0.	125.5
261	-4.	3.	0.	125.45
262	-4.	3.5	0.	125.42
263	-3.	4.	0.	125.48
264	-2.	4.	0.	125.59
265	-1.5	4.	0.	125.67
266	-1.	4.	0.	125.75
267	-1.5	2.	0.	125.65
268	-1.	3.	0.	125.78
269	-4.5	4.	0.	125.32
270	-2.5	1.5	0.	125.68
271	-0.5	3.5	0.	125.9
272	-3.	1.	0.	125.76
273	-4.8293e-011	4.	0.	125.99
274	-4.5	-0.5	0.	125.73
275	-3.5	0.5	0.	125.85
276	-4.	2.2503e-012	0.	125.85
277	-1.	2.	0.	125.68
278	-4.5	0.5	0.	125.64
279	-4.5	1.	0.	125.59
280	-4.5	1.5	0.	125.53
281	-4.5	2.5	0.	125.43
282	-4.5	3.	0.	125.39
283	-4.5	3.5	0.	125.36
284	-4.5	4.5	0.	125.29
285	-4.	4.5	0.	125.34
286	-3.	4.5	0.	125.44
287	-2.	4.5	0.	125.55
288	-1.5	4.5	0.	125.61
289	-1.	4.5	0.	125.69
290	-8.1228e-011	4.5	0.	125.86
291	0.5	4.5	0.	125.96
292	-2.	1.5	0.	125.65
293	-0.5	3.	0.	125.89
294	-5.	-1.5	0.	125.44
295	-2.5	1.	0.	125.73
296	-0.5	1.5	0.	125.65
297	-1.7959e-011	3.5	0.	126.05
298	-5.	5.	0.	125.21
299	-4.5	-1.	0.	125.73
300	-3.	0.5	0.	125.88
301	0.5	4.	0.	126.13
302	-4.	-0.5	0.	125.93
303	-3.5	1.1015e-011	0.	125.98
304	1.	4.5	0.	126.03
305	-1.5	1.5	0.	125.61
306	-0.5	2.	0.	125.75
307	-5.	-1.	0.	125.51
308	-5.	-0.5	0.	125.53
309	-5.	-5.1142e-012	0.	125.53
310	-5.	0.5	0.	125.51
311	-5.	1.	0.	125.47
312	-5.	1.5	0.	125.43
313	-5.	2.	0.	125.39
314	-5.	2.5	0.	125.36
315	-5.	3.	0.	125.32
316	-5.	3.5	0.	125.29
317	-5.	4.	0.	125.26
318	-5.	4.5	0.	125.23
319	-4.5	5.	0.	125.26
320	-4.	5.	0.	125.3
321	-3.	5.	0.	125.39
322	-2.	5.	0.	125.49
323	-1.	5.	0.	125.6
324	-1.0623e-010	5.	0.	125.71
325	0.5	5.	0.	125.74
326	1.	5.	0.	125.74
327	1.5	5.	0.	125.68
328	-5.	-3.5	0.	125.13
329	-2.	1.	0.	125.66
330	-0.5	1.	0.	125.55
331	2.2485e-012	3.	0.	126.05
332	5.3535e-012	1.5	0.	125.75
333	-5.	-5.	0.	125.4
334	-5.5	5.	0.	125.16
335	-4.5	-1.5	0.	125.67
336	-2.5	0.5	0.	125.83
337	0.5	3.5	0.	126.24
338	-4.	-1.	0.	125.97
339	-3.	2.1644e-011	0.	126.03
340	1.	4.	0.	126.28
341	-3.5	-0.5	0.	126.12
342	1.5	4.5	0.	126.04
343	2.	5.	0.	125.52
344	-5.	-4.5	0.	125.28
345	-5.	-2.5	0.	125.24
346	-5.	-3.	0.	125.16
347	-1.5	1.	0.	125.58
348	1.0663e-012	1.	0.	125.65
349	9.6152e-012	2.	0.	125.87
350	-4.5	-5.5	0.	125.74
351	-5.	-5.5	0.	125.52
352	-5.5	-4.5	0.	125.14
353	-5.5	-4.	0.	125.06
354	-5.5	-3.5	0.	125.03
355	-5.5	-3.	0.	125.04
356	-5.5	-2.5	0.	125.1
357	-5.5	-1.5	0.	125.25
358	-5.5	-1.	0.	125.31
359	-5.5	-0.5	0.	125.35
360	-5.5	0.5	0.	125.36
361	-5.5	1.5	0.	125.32
362	-5.5	2.	0.	125.3
363	-5.5	2.5	0.	125.27
364	-5.5	3.5	0.	125.22
365	-5.5	4.5	0.	125.18
366	-5.	5.5	0.	125.18
367	-4.	5.5	0.	125.26
368	-3.	5.5	0.	125.34
369	-2.	5.5	0.	125.42
370	-1.	5.5	0.	125.49
371	-0.5	5.5	0.	125.52
372	-1.2512e-010	5.5	0.	125.54
373	0.5	5.5	0.	125.53
374	1.	5.5	0.	125.48
375	2.	5.5	0.	125.18
376	-4.5	-5.	0.	125.6
377	-4.5	-2.	0.	125.56
378	-4.5	-3.5	0.	125.24
379	-2.	0.5	0.	125.71
380	-0.5	0.5	0.	125.44
381	0.5	3.	0.	126.26
382	0.5	1.5	0.	125.91
383	-5.5	-5.5	0.	125.33
384	-4.	-5.5	0.	126.01
385	-4.	-1.5	0.	125.95
386	-2.5	3.5087e-011	0.	125.98
387	1.	3.5	0.	126.46
388	1.	1.	0.	126.05
389	-3.5	-6.	0.	126.32
390	-3.5	-1.	0.	126.24
391	-3.	-0.5	0.	126.24
392	1.5	4.	0.	126.4
393	2.5	5.	0.	125.23
394	2.	4.5	0.	125.94
395	-6.	6.	0.	125.08
396	1.	0.5	0.	126.11
397	-4.5	-4.5	0.	125.44
398	-4.5	-2.5	0.	125.41
399	-4.5	-3.	0.	125.28
400	-1.	0.5	0.	125.44
401	-1.5	0.5	0.	125.55
402	-1.0028e-012	0.5	0.	125.58
403	0.5	2.	0.	126.05
404	-4.5	-6.	0.	125.83
405	-5.	-6.	0.	125.61
406	-5.5	-6.	0.	125.42
407	-6.	-5.5	0.	125.16
408	-6.	-4.5	0.	125.01
409	-6.	-4.	0.	124.95
410	-6.	-3.5	0.	124.92
411	-6.	-2.5	0.	124.97
412	-6.	-1.5	0.	125.09
413	-6.	-0.5	0.	125.18
414	-6.	0.5	0.	125.22
415	-6.	1.	0.	125.22
416	-6.	1.5	0.	125.21
417	-6.	2.	0.	125.19
418	-6.	2.5	0.	125.18
419	-6.	3.5	0.	125.15
420	-6.	4.5	0.	125.12
421	-6.	5.5	0.	125.09
422	-5.5	6.	0.	125.12
423	-5.	6.	0.	125.16
424	-4.	6.	0.	125.23
425	-3.	6.	0.	125.29
426	-2.	6.	0.	125.35
427	-1.5	6.	0.	125.37
428	-1.	6.	0.	125.39
429	-0.5	6.	0.	125.39
430	-1.3134e-010	6.	0.	125.38
431	0.5	6.	0.	125.33
432	1.	6.	0.	125.25
433	2.	6.	0.	124.92
434	-4.	-5.	0.	125.86
435	-4.	-2.	0.	125.82
436	-4.	-3.5	0.	125.35
437	-2.	4.9453e-011	0.	125.8
438	-0.5	7.0001e-011	0.	125.29
439	1.	3.	0.	126.52
440	1.	1.5	0.	126.11
441	2.5	6.	0.	124.68
442	-6.	-6.5	0.	125.3
443	-2.5	-6.5	0.	126.32
444	-3.5	-5.5	0.	126.33
445	-3.5	-1.5	0.	126.29
446	-2.5	-0.5	0.	126.22
447	1.5	3.5	0.	126.7
448	1.5	1.	0.	126.31
449	3.	5.	0.	124.82
450	2.5	4.5	0.	125.64
451	-6.5	6.	0.	125.04
452	-6.	6.5	0.	125.07
453	-3.	-6.	0.	126.55
454	-3.	-1.	0.	126.48
455	2.	4.	0.	126.42
456	1.5	0.5	0.	126.46
457	1.	7.2142e-011	0.	126.29
458	-4.	-4.5	0.	125.64
459	-4.	-3.	0.	125.43
460	-1.	6.7796e-011	0.	125.31
461	-1.5	5.9717e-011	0.	125.54
462	0.5	7.2221e-011	0.	125.89
463	-1.5111e-012	7.209e-011	0.	125.51
464	1.	2.	0.	126.28
465	-3.	-6.5	0.	126.35
466	-3.5	-6.5	0.	126.24
467	-4.5	-6.5	0.	125.87
468	-5.	-6.5	0.	125.67
469	-5.5	-6.5	0.	125.48
470	-6.5	-6.	0.	125.07
471	-6.5	-5.5	0.	125.01
472	-6.5	-4.5	0.	124.88
473	-6.5	-3.5	0.	124.81
474	-6.5	-2.5	0.	124.85
475	-6.5	-0.5	0.	125.03
476	-6.5	-5.5869e-012	0.	125.06
477	-6.5	0.5	0.	125.07
478	-6.5	1.	0.	125.08
479	-6.5	1.5	0.	125.09
480	-6.5	2.	0.	125.08
481	-6.5	2.5	0.	125.08
482	-6.5	3.5	0.	125.07
483	-6.5	4.5	0.	125.05
484	-6.5	5.	0.	125.05
485	-6.5	5.5	0.	125.04
486	-5.5	6.5	0.	125.1
487	-5.	6.5	0.	125.13
488	-4.5	6.5	0.	125.16
489	-4.	6.5	0.	125.19
490	-3.	6.5	0.	125.24
491	-2.	6.5	0.	125.28
492	-1.	6.5	0.	125.29
493	-0.5	6.5	0.	125.27
494	-1.2367e-010	6.5	0.	125.24
495	0.5	6.5	0.	125.17
496	1.	6.5	0.	125.08
497	2.	6.5	0.	124.77
498	3.	6.5	0.	124.36
499	-6.5	-6.5	0.	125.13
500	-2.	-6.5	0.	126.08
501	-0.5	-6.5	0.	125.21
502	-3.5	-5.	0.	126.2
503	-3.5	-2.	0.	126.19
504	-3.5	-3.5	0.	125.47
505	-2.	-0.5	0.	125.99
506	-0.5	-0.5	0.	125.02
507	1.5	3.	0.	126.85
508	3.5	5.	0.	124.38
509	-6.5	6.5	0.	125.04
510	-2.5	-6.	0.	126.63
511	-3.	-5.5	0.	126.7
512	-3.	-1.5	0.	126.68
513	-2.5	-1.	0.	126.58
514	5.5	-6.5	0.	125.95
515	2.	3.5	0.	126.89
516	2.5	4.	0.	126.19
517	3.5	6.5	0.	124.2
518	5.5	-6.	0.	125.77
519	6.	-5.5	0.	125.73
520	1.5	7.0464e-011	0.	126.68
521	1.	-0.5	0.	126.58
522	2.	1.	0.	126.67
523	-7.	-6.5	0.	124.97
524	1.0461e-010	-6.5	0.	125.72
525	6.5	-5.	0.	125.42
526	5.	-6.5	0.	125.62
527	-1.	-6.5	0.	125.23
528	-3.5	-4.	0.	125.61
529	-3.5	-4.5	0.	125.92
530	-3.5	-3.	0.	125.61
531	-1.	-0.5	0.	125.11
532	-1.5	-0.5	0.	125.54
533	-1.361e-012	-0.5	0.	125.42
534	1.5	2.	0.	126.57
535	3.5	5.5	0.	124.33
536	5.	-7.	0.	125.39
537	4.5	-7.	0.	124.96
538	0.5	-7.	0.	125.61
539	-0.5	-7.	0.	125.36
540	-1.5	-7.	0.	125.64
541	-2.	-7.	0.	125.92
542	-2.5	-7.	0.	126.11
543	-3.	-7.	0.	126.18
544	-3.5	-7.	0.	126.13
545	-4.	-7.	0.	126.02
546	-4.5	-7.	0.	125.86
547	-5.	-7.	0.	125.69
548	-5.5	-7.	0.	125.52
549	-6.5	-7.	0.	125.17
550	-7.	-6.	0.	124.91
551	-7.	-5.5	0.	124.86
552	-7.	-4.5	0.	124.75
553	-7.	-3.5	0.	124.7
554	-7.	-3.	0.	124.7
555	-7.	-2.5	0.	124.72
556	-7.	-2.	0.	124.76
557	-7.	-1.5	0.	124.8
558	-7.	-0.5	0.	124.88
559	-7.	0.5	0.	124.93
560	-7.	1.5	0.	124.96
561	-7.	2.	0.	124.97
562	-7.	2.5	0.	124.98
563	-7.	3.5	0.	124.99
564	-7.	4.5	0.	124.99
565	-7.	5.	0.	124.99
566	-7.	5.5	0.	124.99
567	-7.	6.	0.	125.
568	-7.	6.5	0.	125.
569	-6.	7.	0.	125.06
570	-5.5	7.	0.	125.09
571	-5.	7.	0.	125.12
572	-4.5	7.	0.	125.14
573	-4.	7.	0.	125.16
574	-3.	7.	0.	125.2
575	-2.5	7.	0.	125.21
576	-2.	7.	0.	125.22
577	-1.	7.	0.	125.2
578	-0.5	7.	0.	125.17
579	-1.0381e-010	7.	0.	125.13
580	0.5	7.	0.	125.06
581	1.	7.	0.	124.96
582	2.	7.	0.	124.7
583	2.5	7.	0.	124.56
584	3.	7.	0.	124.45
585	-2.	-6.	0.	126.37
586	-3.	-5.	0.	126.68
587	-3.	-2.	0.	126.7
588	-3.	-3.5	0.	125.61
589	-2.	-1.	0.	126.34
590	-0.5	-1.	0.	124.47
591	5.5	-7.	0.	125.82
592	6.	-6.	0.	126.34
593	1.	-7.	0.	125.28
594	2.5	-7.	0.	121.81
595	4.	-7.	0.	124.28
596	2.	3.	0.	127.22
597	4.5	4.	0.	121.75
598	3.	4.	0.	125.5
599	4.	5.	0.	124.16
600	3.5	7.	0.	124.42
601	4.	6.5	0.	124.13
602	7.	3.	0.	124.56
603	5.5	-5.5	0.	125.18
604	6.	-5.	0.	125.08
605	1.5	-0.5	0.	126.83
606	1.	-1.	0.	127.16
607	2.	0.5	0.	126.93
608	-2.5	-5.5	0.	127.02
609	-2.5	-1.5	0.	127.03
610	2.5	3.5	0.	126.88
611	-7.	7.	0.	125.01
612	-7.	-7.	0.	125.01
613	6.5	4.	0.	122.53
614	0.5	-6.5	0.	126.39
615	-0.5	-6.	0.	124.62
616	7.	-4.5	0.	124.83
617	6.5	-5.5	0.	126.21
618	7.	-5.	0.	125.3
619	6.5	3.5	0.	123.62
620	6.5	-4.5	0.	124.87
621	5.	-6.	0.	125.57
622	4.5	-6.5	0.	125.42
623	2.5	1.	0.	127.27
624	-1.	-6.	0.	124.79
625	-3.	-4.5	0.	126.36
626	-3.	-3.	0.	125.89
627	-1.	-1.	0.	124.74
628	-1.5	-1.	0.	125.63
629	-1.1575e-012	-1.	0.	125.25
630	6.	-7.	0.	126.42
631	2.	-7.	0.	122.74
632	3.	-7.	0.	122.11
633	5.	4.	0.	121.83
634	2.	2.	0.	126.97
635	3.5	4.	0.	124.22
636	6.	4.	0.	122.32
637	4.	5.5	0.	124.3
638	7.	2.5	0.	124.45
639	5.5	-5.	0.	124.36
640	1.5	-1.	0.	126.93
641	2.5	0.5	0.	127.72
642	3.	1.	0.	128.61
643	4.5	-6.	0.	125.78
644	2.	6.2429e-011	0.	127.28
645	2.	-0.5	0.	127.21
646	2.	-1.	0.	126.43
647	5.	-5.5	0.	124.95
648	5.	-5.	0.	123.71
649	6.	-4.5	0.	124.78
650	7.5	3.5	0.	125.15
651	7.5	3.	0.	125.25
652	7.5	2.5	0.	125.25
653	7.5	2.	0.	125.27
654	7.	2.	0.	123.86
655	6.5	3.	0.	124.36
656	7.	-5.5	0.	126.17
657	6.5	-4.	0.	124.27
658	7.	-4.	0.	124.39
659	7.5	-4.	0.	125.14
660	7.5	-4.5	0.	124.82
661	7.5	-5.	0.	124.68
662	1.1667e-010	-6.	0.	125.64
663	0.5	-6.	0.	127.28
664	7.	4.	0.	123.54
665	7.5	4.	0.	125.07
666	4.5	5.	0.	124.39
667	5.	4.5	0.	123.33
668	4.5	6.5	0.	124.32
669	6.	-7.5	0.	126.18
670	5.5	-7.5	0.	125.63
671	5.	-7.5	0.	125.16
672	4.5	-7.5	0.	124.64
673	3.5	-7.5	0.	123.23
674	3.	-7.5	0.	122.6
675	2.5	-7.5	0.	122.48
676	2.	-7.5	0.	122.98
677	1.	-7.5	0.	124.6
678	0.5	-7.5	0.	125.04
679	5.6764e-011	-7.5	0.	125.21
680	-0.5	-7.5	0.	125.29
681	-1.	-7.5	0.	125.41
682	-1.5	-7.5	0.	125.6
683	-2.	-7.5	0.	125.8
684	-2.5	-7.5	0.	125.96
685	-3.	-7.5	0.	126.04
686	-3.5	-7.5	0.	126.03
687	-4.	-7.5	0.	125.96
688	-4.5	-7.5	0.	125.84
689	-5.	-7.5	0.	125.7
690	-5.5	-7.5	0.	125.54
691	-6.	-7.5	0.	125.37
692	-6.5	-7.5	0.	125.21
693	-7.	-7.5	0.	125.04
694	-7.5	-7.5	0.	124.88
695	-7.5	-6.5	0.	124.81
696	-7.5	-6.	0.	124.76
697	-7.5	-5.5	0.	124.71
698	-7.5	-4.5	0.	124.62
699	-7.5	-4.	0.	124.59
700	-7.5	-3.5	0.	124.58
701	-7.5	-3.	0.	124.58
702	-7.5	-2.5	0.	124.59
703	-7.5	-2.	0.	124.62
704	-7.5	-1.5	0.	124.66
705	-7.5	-1.	0.	124.69
706	-7.5	-0.5	0.	124.73
707	-7.5	-2.8319e-012	0.	124.77
708	-7.5	0.5	0.	124.8
709	-7.5	1.	0.	124.82
710	-7.5	1.5	0.	124.84
711	-7.5	2.	0.	124.86
712	-7.5	2.5	0.	124.88
713	-7.5	3.	0.	124.89
714	-7.5	4.	0.	124.92
715	-7.5	4.5	0.	124.93
716	-7.5	5.	0.	124.94
717	-7.5	5.5	0.	124.95
718	-7.5	6.	0.	124.96
719	-7.5	6.5	0.	124.97
720	-7.5	7.	0.	124.98
721	-7.5	7.5	0.	124.99
722	-7.	7.5	0.	125.01
723	-6.5	7.5	0.	125.04
724	-6.	7.5	0.	125.06
725	-5.5	7.5	0.	125.08
726	-5.	7.5	0.	125.1
727	-4.5	7.5	0.	125.12
728	-4.	7.5	0.	125.14
729	-3.	7.5	0.	125.16
730	-2.5	7.5	0.	125.17
731	-1.5	7.5	0.	125.16
732	-1.	7.5	0.	125.14
733	-0.5	7.5	0.	125.1
734	-8.1095e-011	7.5	0.	125.05
735	0.5	7.5	0.	124.99
736	1.	7.5	0.	124.9
737	1.5	7.5	0.	124.8
738	2.	7.5	0.	124.7
739	2.5	7.5	0.	124.63
740	3.	7.5	0.	124.63
741	3.5	7.5	0.	124.75
742	4.	7.5	0.	125.11
743	3.	3.5	0.	126.28
744	2.5	1.5	0.	127.22
745	2.5	3.	0.	127.56
746	4.5	3.5	0.	119.68
747	6.	3.5	0.	123.26
748	4.	-6.5	0.	124.96
749	2.5	-6.5	0.	120.55
750	1.	-6.5	0.	126.49
751	6.5	-7.5	0.	127.08
752	6.5	-6.	0.	127.05
753	1.	-1.5	0.	128.45
754	-2.	-1.5	0.	127.02
755	-0.5	-1.5	0.	123.3
756	-2.5	-2.	0.	127.38
757	-2.5	-5.	0.	127.32
758	-2.5	-3.5	0.	125.91
759	-0.5	-5.5	0.	123.23
760	-2.	-5.5	0.	126.97
761	-1.	-5.5	0.	124.02
762	-2.5	-4.	0.	126.31
763	-2.5	-4.5	0.	127.12
764	-2.5	-3.	0.	126.37
765	-1.	-1.5	0.	124.13
766	-1.5	-1.5	0.	125.98
767	-8.8143e-013	-1.5	0.	124.93
768	6.5	-7.	0.	127.28
769	2.	-6.5	0.	122.41
770	3.	-6.5	0.	121.37
771	3.5	-6.5	0.	123.52
772	5.5	3.5	0.	122.24
773	5.	3.5	0.	120.44
774	2.5	2.	0.	127.48
775	3.5	3.5	0.	124.42
776	4.5	7.5	0.	125.85
777	4.5	7.	0.	124.96
778	6.	4.5	0.	121.59
779	4.5	5.5	0.	124.78
780	7.5	4.5	0.	125.27
781	3.	0.5	0.	128.61
782	1.0859e-010	-5.5	0.	125.04
783	0.5	-5.5	0.	128.04
784	7.5	-5.5	0.	124.94
785	6.5	2.5	0.	124.4
786	6.5	2.	0.	123.44
787	5.5	-4.5	0.	123.83
788	5.	-4.5	0.	122.16
789	1.5	-1.5	0.	127.33
790	2.	-1.5	0.	125.06
791	7.5	-3.5	0.	125.71
792	7.	-3.5	0.	123.65
793	6.5	-3.5	0.	122.84
794	2.5	5.1619e-011	0.	128.3
795	2.5	-0.5	0.	128.34
796	2.5	-1.	0.	126.85
797	2.5	-1.5	0.	124.21
798	4.5	-5.5	0.	125.47
799	4.5	-5.	0.	124.09
800	7.5	1.5	0.	125.7
801	7.	1.5	0.	123.05
802	6.5	1.5	0.	121.85
803	-0.5	-5.	0.	120.33
804	-2.	-5.	0.	127.98
805	-2.	-3.5	0.	126.09
806	-2.	-2.	0.	128.1
807	-0.5	-2.	0.	120.69
808	7.	-7.5	0.	128.43
809	7.	-6.	0.	127.63
810	7.	-8.	0.	128.98
811	6.5	-8.	0.	127.09
812	6.	-8.	0.	126.2
813	5.5	-8.	0.	125.62
814	5.	-8.	0.	125.09
815	4.5	-8.	0.	124.54
816	4.	-8.	0.	123.94
817	3.5	-8.	0.	123.36
818	3.	-8.	0.	122.94
819	2.5	-8.	0.	122.85
820	2.	-8.	0.	123.15
821	1.5	-8.	0.	123.68
822	1.	-8.	0.	124.24
823	0.5	-8.	0.	124.67
824	3.7425e-011	-8.	0.	124.95
825	-0.5	-8.	0.	125.15
826	-1.5	-8.	0.	125.52
827	-2.	-8.	0.	125.7
828	-2.5	-8.	0.	125.84
829	-3.	-8.	0.	125.92
830	-3.5	-8.	0.	125.94
831	-4.	-8.	0.	125.89
832	-4.5	-8.	0.	125.81
833	-5.	-8.	0.	125.69
834	-5.5	-8.	0.	125.54
835	-6.	-8.	0.	125.39
836	-6.5	-8.	0.	125.23
837	-7.	-8.	0.	125.07
838	-8.	-8.	0.	124.76
839	-8.	-7.5	0.	124.73
840	-8.	-7.	0.	124.69
841	-8.	-6.5	0.	124.65
842	-8.	-6.	0.	124.61
843	-8.	-5.5	0.	124.56
844	-8.	-5.	0.	124.52
845	-8.	-4.5	0.	124.48
846	-8.	-4.	0.	124.46
847	-8.	-3.5	0.	124.44
848	-8.	-3.	0.	124.44
849	-8.	-2.5	0.	124.46
850	-8.	-2.	0.	124.48
851	-8.	-1.5	0.	124.51
852	-8.	-1.	0.	124.55
853	-8.	-0.5	0.	124.58
854	-8.	-2.0051e-012	0.	124.62
855	-8.	0.5	0.	124.66
856	-8.	1.	0.	124.69
857	-8.	1.5	0.	124.72
858	-8.	2.	0.	124.75
859	-8.	2.5	0.	124.78
860	-8.	3.	0.	124.8
861	-8.	3.5	0.	124.82
862	-8.	4.	0.	124.84
863	-8.	4.5	0.	124.86
864	-8.	5.	0.	124.88
865	-8.	5.5	0.	124.9
866	-8.	6.	0.	124.92
867	-8.	6.5	0.	124.94
868	-8.	7.	0.	124.95
869	-8.	7.5	0.	124.97
870	-8.	8.	0.	124.99
871	-7.5	8.	0.	125.
872	-7.	8.	0.	125.02
873	-6.5	8.	0.	125.04
874	-6.	8.	0.	125.06
875	-5.5	8.	0.	125.08
876	-5.	8.	0.	125.09
877	-4.5	8.	0.	125.11
878	-4.	8.	0.	125.12
879	-3.	8.	0.	125.13
880	-2.5	8.	0.	125.13
881	-2.	8.	0.	125.13
882	-1.5	8.	0.	125.11
883	-1.	8.	0.	125.09
884	-0.5	8.	0.	125.06
885	-5.8193e-011	8.	0.	125.01
886	0.5	8.	0.	124.95
887	1.	8.	0.	124.88
888	1.5	8.	0.	124.8
889	2.	8.	0.	124.74
890	2.5	8.	0.	124.72
891	3.	8.	0.	124.78
892	3.5	8.	0.	124.98
893	4.	8.	0.	125.39
894	4.5	8.	0.	126.03
895	8.	4.5	0.	126.94
896	8.	4.	0.	126.37
897	8.	3.5	0.	126.16
898	8.	3.	0.	126.14
899	8.	2.5	0.	126.26
900	8.	2.	0.	126.62
901	8.	1.5	0.	127.5
902	8.	1.	0.	129.11
903	8.	-0.5	0.	130.41
904	8.	-1.	0.	130.82
905	8.	-1.5	0.	130.02
906	8.	-3.	0.	128.63
907	8.	-3.5	0.	126.98
908	8.	-4.	0.	125.79
909	8.	-4.5	0.	124.83
910	8.	-5.	0.	123.86
911	8.	-5.5	0.	122.78
912	6.	-4.	0.	125.09
913	1.	-3.5	0.	129.81
914	1.	-2.	0.	130.83
915	2.5	-6.	0.	117.86
916	1.	-6.	0.	128.46
917	4.	-6.	0.	126.14
918	4.5	3.	0.	116.3
919	3.	1.5	0.	127.99
920	3.	3.	0.	127.6
921	8.	8.	0.	127.51
922	5.	6.5	0.	124.49
923	6.5	5.	0.	118.37
924	5.	5.	0.	125.06
925	8.	6.5	0.	126.11
926	8.	5.	0.	128.
927	7.5	5.	0.	126.56
928	8.	6.	0.	127.66
929	5.	5.5	0.	126.13
930	6.	5.	0.	120.9
931	5.5	8.	0.	125.97
932	5.	7.5	0.	127.29
933	5.	7.	0.	126.17
934	8.	7.	0.	127.39
935	8.	7.5	0.	128.25
936	7.	8.	0.	122.24
937	3.	3.711e-011	0.	129.92
938	3.	-1.	0.	128.87
939	4.	3.	0.	120.23
940	3.5	3.	0.	125.79
941	3.	2.	0.	128.44
942	6.	2.	0.	124.89
943	6.	2.5	0.	125.43
944	5.5	3.	0.	123.5
945	5.	3.	0.	119.
946	3.	-6.	0.	120.33
947	3.5	-6.	0.	124.93
948	4.	-5.5	0.	126.97
949	4.	-5.	0.	126.27
950	1.	-5.5	0.	130.43
951	1.5	-6.	0.	127.33
952	2.	-6.	0.	121.99
953	2.	-2.	0.	123.43
954	1.5	-2.	0.	128.95
955	5.	-4.	0.	120.74
956	5.5	-4.	0.	124.77
957	8.	-6.	0.	121.61
958	7.5	-6.	0.	126.47
959	7.	-7.	0.	128.79
960	1.	-3.	0.	131.56
961	1.	-2.5	0.	132.53
962	0.5	-2.	0.	129.41
963	-5.2164e-013	-2.	0.	124.32
964	-1.	-2.	0.	123.23
965	-1.5	-2.	0.	127.34
966	-2.	-4.	0.	127.5
967	-2.	-4.5	0.	128.51
968	-1.	-5.	0.	122.96
969	8.1928e-011	-5.	0.	123.94
970	0.5	-5.	0.	129.21
971	1.	-4.	0.	131.73
972	7.	-3.	0.	122.55
973	7.5	-3.	0.	127.41
974	8.	-2.5	0.	129.94
975	8.	-2.	0.	130.13
976	8.	-9.1083e-012	0.	130.75
977	8.	0.5	0.	130.55
978	7.	1.	0.	122.34
979	6.5	1.	0.	119.13
980	4.	-4.5	0.	124.89
981	3.	-1.5	0.	126.31
982	6.	1.5	0.	123.79
983	8.5	8.	0.	126.84
984	8.5	7.5	0.	126.95
985	8.5	7.	0.	126.4
986	8.5	6.5	0.	126.21
987	8.5	6.	0.	126.79
988	8.5	5.5	0.	127.64
989	8.5	5.	0.	127.82
990	8.5	4.5	0.	127.52
991	8.5	4.	0.	127.18
992	8.5	3.5	0.	127.
993	8.5	3.	0.	126.98
994	8.5	2.5	0.	127.12
995	8.5	2.	0.	127.48
996	8.5	1.5	0.	128.12
997	8.5	1.	0.	128.88
998	8.5	0.5	0.	129.31
999	8.5	-1.5	0.	128.45
1000	8.5	-2.	0.	128.53
1001	8.5	-3.	0.	128.14
1002	8.5	-3.5	0.	127.22
1003	8.5	-4.	0.	126.2
1004	8.5	-4.5	0.	125.12
1005	8.5	-5.	0.	123.76
1006	8.5	-5.5	0.	121.78
1007	8.5	-6.	0.	118.43
1008	7.	-8.5	0.	128.56
1009	6.5	-8.5	0.	127.45
1010	6.	-8.5	0.	126.57
1011	5.5	-8.5	0.	125.88
1012	5.	-8.5	0.	125.23
1013	4.5	-8.5	0.	124.61
1014	4.	-8.5	0.	124.02
1015	3.5	-8.5	0.	123.51
1016	3.	-8.5	0.	123.18
1017	2.5	-8.5	0.	123.09
1018	2.	-8.5	0.	123.26
1019	1.5	-8.5	0.	123.62
1020	1.	-8.5	0.	124.04
1021	0.5	-8.5	0.	124.43
1022	2.3308e-011	-8.5	0.	124.75
1023	-0.5	-8.5	0.	125.01
1024	-1.	-8.5	0.	125.24
1025	-1.5	-8.5	0.	125.44
1026	-2.5	-8.5	0.	125.75
1027	-3.	-8.5	0.	125.84
1028	-3.5	-8.5	0.	125.87
1029	-4.5	-8.5	0.	125.77
1030	-5.	-8.5	0.	125.67
1031	-5.5	-8.5	0.	125.54
1032	-6.	-8.5	0.	125.4
1033	-6.5	-8.5	0.	125.25
1034	-7.	-8.5	0.	125.09
1035	-7.5	-8.5	0.	124.93
1036	-8.	-8.5	0.	124.78
1037	-8.5	-8.5	0.	124.64
1038	-8.5	-8.	0.	124.61
1039	-8.5	-7.5	0.	124.58
1040	-8.5	-7.	0.	124.54
1041	-8.5	-6.5	0.	124.5
1042	-8.5	-6.	0.	124.45
1043	-8.5	-5.5	0.	124.41
1044	-8.5	-5.	0.	124.37
1045	-8.5	-4.5	0.	124.33
1046	-8.5	-4.	0.	124.31
1047	-8.5	-3.5	0.	124.3
1048	-8.5	-3.	0.	124.29
1049	-8.5	-2.5	0.	124.31
1050	-8.5	-2.	0.	124.33
1051	-8.5	-1.5	0.	124.36
1052	-8.5	-1.	0.	124.39
1053	-8.5	-0.5	0.	124.43
1054	-8.5	-1.1713e-012	0.	124.48
1055	-8.5	0.5	0.	124.52
1056	-8.5	1.	0.	124.56
1057	-8.5	1.5	0.	124.6
1058	-8.5	2.	0.	124.64
1059	-8.5	2.5	0.	124.68
1060	-8.5	3.	0.	124.71
1061	-8.5	3.5	0.	124.74
1062	-8.5	4.	0.	124.78
1063	-8.5	4.5	0.	124.81
1064	-8.5	5.	0.	124.83
1065	-8.5	5.5	0.	124.86
1066	-8.5	6.	0.	124.89
1067	-8.5	7.	0.	124.93
1068	-8.5	7.5	0.	124.95
1069	-8.5	8.	0.	124.97
1070	-8.5	8.5	0.	124.99
1071	-8.	8.5	0.	125.
1072	-7.5	8.5	0.	125.01
1073	-7.	8.5	0.	125.03
1074	-6.5	8.5	0.	125.05
1075	-6.	8.5	0.	125.06
1076	-5.5	8.5	0.	125.08
1077	-5.	8.5	0.	125.09
1078	-4.5	8.5	0.	125.1
1079	-4.	8.5	0.	125.11
1080	-3.5	8.5	0.	125.12
1081	-3.	8.5	0.	125.12
1082	-2.5	8.5	0.	125.11
1083	-2.	8.5	0.	125.11
1084	-1.5	8.5	0.	125.09
1085	-1.	8.5	0.	125.07
1086	-0.5	8.5	0.	125.04
1087	-4.1093e-011	8.5	0.	124.99
1088	0.5	8.5	0.	124.94
1089	1.	8.5	0.	124.89
1090	1.5	8.5	0.	124.83
1091	2.	8.5	0.	124.79
1092	2.5	8.5	0.	124.79
1093	3.	8.5	0.	124.85
1094	3.5	8.5	0.	125.02
1095	4.	8.5	0.	125.31
1096	4.5	8.5	0.	125.63
1097	5.	8.5	0.	125.63
1098	5.5	8.5	0.	124.63
1099	6.	8.5	0.	122.74
1100	6.5	8.5	0.	121.74
1101	7.	8.5	0.	123.03
1102	8.	8.5	0.	126.19
1103	8.5	8.5	0.	126.2
1104	6.5	-3.	0.	119.47
1105	6.	-3.5	0.	125.1
1106	4.5	-4.	0.	118.62
1107	2.5	-2.	0.	120.24
1108	3.	-2.	0.	124.86
1109	4.	-4.	0.	124.16
1110	6.	-3.	0.	123.77
1111	7.5	0.5	0.	131.96
1112	7.5	-2.5	0.	131.47
1113	0.5	-4.5	0.	132.54
1114	-1.5	-4.5	0.	130.61
1115	-1.5	-2.5	0.	130.84
1116	0.5	-2.5	0.	133.29
1117	7.5	-6.5	0.	130.35
1118	9.	8.5	0.	125.83
1119	9.	8.	0.	126.14
1120	9.	5.	0.	127.58
1121	9.	4.5	0.	127.7
1122	9.	4.	0.	127.68
1123	9.	3.5	0.	127.66
1124	9.	3.	0.	127.69
1125	9.	2.5	0.	127.79
1126	9.	2.	0.	127.97
1127	9.	1.5	0.	128.22
1128	9.	1.	0.	128.42
1129	9.	0.5	0.	128.37
1130	9.	-4.5699e-012	0.	128.03
1131	9.	-0.5	0.	127.59
1132	9.	-1.	0.	127.32
1133	9.	-1.5	0.	127.28
1134	9.	-2.	0.	127.46
1135	9.	-2.5	0.	127.61
1136	9.	-3.	0.	127.51
1137	9.	-3.5	0.	127.13
1138	9.	-4.	0.	126.59
1139	9.	-4.5	0.	125.92
1140	9.	-5.	0.	125.01
1141	9.	-5.5	0.	123.77
1142	9.	-6.	0.	122.23
1143	5.5	-3.5	0.	128.74
1144	7.	-9.	0.	129.19
1145	6.5	-9.	0.	128.15
1146	6.	-9.	0.	127.24
1147	5.5	-9.	0.	126.33
1148	5.	-9.	0.	125.51
1149	4.5	-9.	0.	124.78
1150	4.	-9.	0.	124.15
1151	3.5	-9.	0.	123.66
1152	3.	-9.	0.	123.34
1153	2.	-9.	0.	123.34
1154	1.5	-9.	0.	123.6
1155	1.	-9.	0.	123.93
1156	0.5	-9.	0.	124.29
1157	1.3492e-011	-9.	0.	124.61
1158	-0.5	-9.	0.	124.9
1159	-1.	-9.	0.	125.15
1160	-2.	-9.	0.	125.55
1161	-2.5	-9.	0.	125.69
1162	-3.	-9.	0.	125.78
1163	-3.5	-9.	0.	125.81
1164	-4.	-9.	0.	125.8
1165	-4.5	-9.	0.	125.75
1166	-5.	-9.	0.	125.66
1167	-5.5	-9.	0.	125.54
1168	-6.5	-9.	0.	125.26
1169	-7.	-9.	0.	125.1
1170	-7.5	-9.	0.	124.95
1171	-8.	-9.	0.	124.8
1172	-8.5	-9.	0.	124.66
1173	-9.	-9.	0.	124.53
1174	-9.	-8.5	0.	124.51
1175	-9.	-8.	0.	124.48
1176	-9.	-7.5	0.	124.44
1177	-9.	-6.5	0.	124.34
1178	-9.	-6.	0.	124.29
1179	-9.	-5.5	0.	124.25
1180	-9.	-5.	0.	124.2
1181	-9.	-4.5	0.	124.17
1182	-9.	-4.	0.	124.14
1183	-9.	-3.5	0.	124.13
1184	-9.	-3.	0.	124.12
1185	-9.	-2.5	0.	124.14
1186	-9.	-2.	0.	124.16
1187	-9.	-1.5	0.	124.19
1188	-9.	-1.	0.	124.23
1189	-9.	-0.5	0.	124.28
1190	-9.	-5.23e-013	0.	124.33
1191	-9.	0.5	0.	124.38
1192	-9.	1.	0.	124.43
1193	-9.	1.5	0.	124.48
1194	-9.	2.	0.	124.53
1195	-9.	2.5	0.	124.58
1196	-9.	3.5	0.	124.67
1197	-9.	4.	0.	124.71
1198	-9.	4.5	0.	124.75
1199	-9.	5.	0.	124.79
1200	-9.	5.5	0.	124.82
1201	-9.	6.	0.	124.86
1202	-9.	6.5	0.	124.89
1203	-9.	7.	0.	124.91
1204	-9.	7.5	0.	124.94
1205	-9.	8.	0.	124.96
1206	-9.	8.5	0.	124.98
1207	-9.	9.	0.	124.99
1208	-8.5	9.	0.	125.
1209	-8.	9.	0.	125.01
1210	-7.5	9.	0.	125.02
1211	-7.	9.	0.	125.04
1212	-6.5	9.	0.	125.05
1213	-6.	9.	0.	125.07
1214	-5.5	9.	0.	125.08
1215	-5.	9.	0.	125.09
1216	-4.5	9.	0.	125.1
1217	-3.5	9.	0.	125.11
1218	-3.	9.	0.	125.11
1219	-2.5	9.	0.	125.11
1220	-2.	9.	0.	125.1
1221	-1.5	9.	0.	125.09
1222	-1.	9.	0.	125.06
1223	-0.5	9.	0.	125.03
1224	-2.5445e-011	9.	0.	125.
1225	0.5	9.	0.	124.96
1226	1.	9.	0.	124.91
1227	1.5	9.	0.	124.87
1228	2.	9.	0.	124.84
1229	2.5	9.	0.	124.82
1230	3.	9.	0.	124.85
1231	3.5	9.	0.	124.92
1232	4.	9.	0.	125.02
1233	4.5	9.	0.	125.07
1234	5.	9.	0.	124.88
1235	6.	9.	0.	123.39
1236	6.5	9.	0.	123.02
1237	7.	9.	0.	123.56
1238	7.5	9.	0.	124.55
1239	8.	9.	0.	125.25
1240	8.5	9.	0.	125.47
1241	9.	9.	0.	125.39
1242	1.5	-2.5	0.	132.64
1243	1.5	-5.5	0.	131.96
1244	3.5	-5.5	0.	128.81
1245	6.	1.	0.	123.5
1246	5.5	2.5	0.	127.11
1247	3.5	2.5	0.	129.46
1248	3.5	-0.5	0.	133.23
1249	7.5	7.5	0.	130.27
1250	5.5	7.5	0.	129.42
1251	5.5	5.5	0.	128.46
1252	7.5	5.5	0.	130.16
1253	7.	5.5	0.	122.27
1254	6.	5.5	0.	121.96
1255	6.5	5.5	0.	111.87
1256	5.5	7.	0.	128.55
1257	5.5	6.5	0.	128.17
1258	6.	7.5	0.	122.32
1259	7.	7.5	0.	123.09
1260	6.5	7.5	0.	112.3
1261	7.5	6.	0.	129.61
1262	7.5	6.5	0.	129.3
1263	7.5	7.	0.	129.31
1264	3.5	1.9814e-011	0.	129.77
1265	3.5	0.5	0.	130.97
1266	3.5	1.	0.	132.73
1267	3.5	2.	0.	128.88
1268	3.5	1.5	0.	131.25
1269	4.	2.5	0.	120.74
1270	5.	2.5	0.	119.36
1271	4.5	2.5	0.	108.57
1272	5.5	0.5	0.	135.25
1273	5.5	1.	0.	132.6
1274	5.5	1.5	0.	129.33
1275	5.5	2.	0.	126.82
1276	3.	-5.5	0.	120.76
1277	2.	-5.5	0.	123.49
1278	2.5	-5.5	0.	110.71
1279	1.5	-5.	0.	132.01
1280	1.5	-4.5	0.	134.98
1281	1.5	-4.	0.	135.97
1282	1.5	-3.	0.	131.58
1283	1.5	-3.5	0.	133.91
1284	2.	-2.5	0.	123.68
1285	3.	-2.5	0.	124.75
1286	2.5	-2.5	0.	111.96
1287	3.5	-5.	0.	128.99
1288	3.5	-4.5	0.	131.1
1289	3.5	-4.	0.	134.64
1290	3.5	-3.5	0.	137.12
1291	5.5	-3.6768e-012	0.	135.27
1292	5.5	-0.5	0.	140.66
1293	6.	0.5	0.	124.49
1294	7.	0.5	0.	123.74
1295	6.5	0.5	0.	112.37
1296	7.5	-8.4768e-012	0.	132.1
1297	7.5	-0.5	0.	134.82
1298	7.5	-1.	0.	136.46
1299	7.5	-2.	0.	131.3
1300	7.5	-1.5	0.	134.49
1301	6.	-2.5	0.	123.71
1302	6.5	-2.5	0.	111.69
1303	7.	-2.5	0.	123.4
1304	4.4074e-011	-4.5	0.	124.32
1305	-1.	-4.5	0.	123.51
1306	-0.5	-4.5	0.	113.39
1307	-1.5	-4.	0.	129.79
1308	-1.5	-3.	0.	129.97
1309	-1.5	-3.5	0.	129.74
1310	-1.	-2.5	0.	123.8
1311	6.9025e-014	-2.5	0.	125.1
1312	-0.5	-2.5	0.	113.84
1313	0.5	-3.	0.	132.11
1314	0.5	-4.	0.	131.77
1315	0.5	-3.5	0.	131.93
1316	8.	-6.5	0.	122.45
1317	9.	-6.5	0.	122.61
1318	8.5	-6.5	0.	110.75
1319	7.5	-7.	0.	129.9
1320	7.5	-7.5	0.	132.65
1321	7.5	-8.	0.	134.06
1322	7.5	-8.5	0.	132.06
1323	7.5	-9.	0.	129.41
1324	5.5	-1.	0.	139.31
1325	5.5	-1.5	0.	138.7
1326	5.5	-2.	0.	138.06
1327	5.5	-3.	0.	129.93
1328	5.5	-2.5	0.	136.06
1329	5.	-3.5	0.	121.81
1330	4.	-3.5	0.	124.38
1331	4.5	-3.5	0.	111.17
1332	3.5	-2.5	0.	136.89
1333	3.5	-2.	0.	134.19
1334	3.5	-1.	0.	129.95
1335	3.5	-1.5	0.	130.64
1336	5.	-0.5	0.	118.73
1337	4.5	-0.5	0.	97.84
1338	4.	-0.5	0.	116.52
1339	9.	-9.5	0.	119.89
1340	8.5	-9.5	0.	107.08
1341	8.	-9.5	0.	118.99
1342	7.5	-9.5	0.	129.56
1343	7.	-9.5	0.	129.89
1344	6.5	-9.5	0.	129.06
1345	6.	-9.5	0.	127.9
1346	5.5	-9.5	0.	126.77
1347	5.	-9.5	0.	125.78
1348	4.5	-9.5	0.	124.94
1349	4.	-9.5	0.	124.27
1350	3.5	-9.5	0.	123.76
1351	3.	-9.5	0.	123.45
1352	2.5	-9.5	0.	123.32
1353	2.	-9.5	0.	123.39
1354	1.5	-9.5	0.	123.59
1355	1.	-9.5	0.	123.88
1356	0.5	-9.5	0.	124.21
1357	6.1736e-012	-9.5	0.	124.54
1358	-0.5	-9.5	0.	124.83
1359	-1.	-9.5	0.	125.1
1360	-1.5	-9.5	0.	125.32
1361	-2.	-9.5	0.	125.51
1362	-2.5	-9.5	0.	125.65
1363	-3.	-9.5	0.	125.74
1364	-3.5	-9.5	0.	125.78
1365	-4.	-9.5	0.	125.78
1366	-4.5	-9.5	0.	125.73
1367	-5.	-9.5	0.	125.65
1368	-5.5	-9.5	0.	125.53
1369	-6.	-9.5	0.	125.4
1370	-6.5	-9.5	0.	125.26
1371	-7.	-9.5	0.	125.11
1372	-7.5	-9.5	0.	124.96
1373	-8.	-9.5	0.	124.81
1374	-8.5	-9.5	0.	124.67
1375	-9.	-9.5	0.	124.55
1376	-9.5	-9.5	0.	124.45
1377	-9.5	-9.	0.	124.43
1378	-9.5	-8.5	0.	124.4
1379	-9.5	-8.	0.	124.36
1380	-9.5	-7.5	0.	124.31
1381	-9.5	-7.	0.	124.25
1382	-9.5	-6.5	0.	124.19
1383	-9.5	-6.	0.	124.13
1384	-9.5	-5.5	0.	124.08
1385	-9.5	-5.	0.	124.02
1386	-9.5	-4.5	0.	123.98
1387	-9.5	-4.	0.	123.95
1388	-9.5	-3.5	0.	123.93
1389	-9.5	-3.	0.	123.93
1390	-9.5	-2.5	0.	123.94
1391	-9.5	-2.	0.	123.97
1392	-9.5	-1.5	0.	124.
1393	-9.5	-1.	0.	124.05
1394	-9.5	-0.5	0.	124.11
1395	-9.5	-2.1442e-013	0.	124.17
1396	-9.5	0.5	0.	124.23
1397	-9.5	1.	0.	124.3
1398	-9.5	1.5	0.	124.36
1399	-9.5	2.	0.	124.43
1400	-9.5	2.5	0.	124.49
1401	-9.5	3.	0.	124.54
1402	-9.5	3.5	0.	124.6
1403	-9.5	4.	0.	124.65
1404	-9.5	4.5	0.	124.7
1405	-9.5	5.	0.	124.75
1406	-9.5	5.5	0.	124.79
1407	-9.5	6.	0.	124.83
1408	-9.5	6.5	0.	124.87
1409	-9.5	7.	0.	124.9
1410	-9.5	7.5	0.	124.93
1411	-9.5	8.	0.	124.96
1412	-9.5	8.5	0.	124.98
1413	-9.5	9.	0.	124.99
1414	-9.5	9.5	0.	125.
1415	-9.	9.5	0.	125.
1416	-8.5	9.5	0.	125.01
1417	-8.	9.5	0.	125.02
1418	-7.5	9.5	0.	125.03
1419	-7.	9.5	0.	125.05
1420	-6.5	9.5	0.	125.06
1421	-6.	9.5	0.	125.08
1422	-5.5	9.5	0.	125.09
1423	-5.	9.5	0.	125.1
1424	-4.5	9.5	0.	125.11
1425	-4.	9.5	0.	125.12
1426	-3.5	9.5	0.	125.13
1427	-3.	9.5	0.	125.13
1428	-2.5	9.5	0.	125.12
1429	-2.	9.5	0.	125.11
1430	-1.5	9.5	0.	125.1
1431	-1.	9.5	0.	125.08
1432	-0.5	9.5	0.	125.05
1433	-1.2825e-011	9.5	0.	125.02
1434	0.5	9.5	0.	124.99
1435	1.	9.5	0.	124.95
1436	1.5	9.5	0.	124.92
1437	2.	9.5	0.	124.89
1438	2.5	9.5	0.	124.86
1439	3.	9.5	0.	124.83
1440	3.5	9.5	0.	124.8
1441	4.	9.5	0.	124.74
1442	4.5	9.5	0.	124.62
1443	5.	9.5	0.	124.38
1444	5.5	9.5	0.	124.01
1445	6.	9.5	0.	123.65
1446	6.5	9.5	0.	123.53
1447	7.	9.5	0.	123.77
1448	7.5	9.5	0.	124.22
1449	8.	9.5	0.	124.64
1450	8.5	9.5	0.	124.91
1451	9.	9.5	0.	125.02
1452	9.5	9.5	0.	125.04
1453	9.5	9.	0.	125.21
1454	9.5	8.5	0.	125.4
1455	9.5	8.	0.	125.53
1456	9.5	7.5	0.	125.57
1457	9.5	7.	0.	125.6
1458	9.5	6.5	0.	125.82
1459	9.5	6.	0.	126.3
1460	9.5	5.5	0.	126.92
1461	9.5	5.	0.	127.49
1462	9.5	4.5	0.	127.91
1463	9.5	4.	0.	128.16
1464	9.5	3.5	0.	128.31
1465	9.5	3.	0.	128.38
1466	9.5	2.5	0.	128.41
1467	9.5	2.	0.	128.39
1468	9.5	1.5	0.	128.29
1469	9.5	1.	0.	128.05
1470	9.5	0.5	0.	127.62
1471	9.5	-2.3125e-012	0.	127.08
1472	9.5	-0.5	0.	126.56
1473	9.5	-1.	0.	126.25
1474	9.5	-1.5	0.	126.22
1475	9.5	-2.	0.	126.42
1476	9.5	-3.	0.	126.94
1477	9.5	-3.5	0.	127.03
1478	9.5	-4.5	0.	127.02
1479	9.5	-5.	0.	127.11
1480	9.5	-5.5	0.	127.41
1481	9.5	-6.	0.	128.55
1482	9.5	-6.5	0.	132.29
1483	9.5	-7.	0.	132.89
1484	9.5	-7.5	0.	135.53
1485	9.5	-8.	0.	137.14
1486	9.5	-8.5	0.	135.54
1487	9.5	-9.	0.	133.08
1488	9.5	-9.5	0.	132.59
1489	-7.5	-7.	0.	124.85
1490	5.5	4.5	0.	122.86
1491	0.5	-0.5	0.	126.07
1492	2.5	-9.	0.	123.24
1493	-9.	-7.	0.	124.39
1494	7.	3.5	0.	124.2
1495	7.	4.5	0.	122.7
1496	-1.5	-5.5	0.	125.9
1497	-6.5	-2.	0.	124.89
1498	-2.5	5.5	0.	125.38
1499	6.5	4.5	0.	121.03
1500	-6.	-2.	0.	125.03
1501	-3.	-4.	0.	125.87
1502	-5.5	4.	0.	125.2
1503	-4.5	-4.	0.	125.3
1504	5.5	5.	0.	124.62
1505	-2.	-2.5	0.	128.65
1506	-1.5	-6.5	0.	125.64
1507	-5.5	3.	0.	125.24
1508	-3.5	4.5	0.	125.39
1509	6.5	-6.5	0.	127.5
1510	-2.5	5.	0.	125.44
1511	7.	-6.5	0.	128.79
1512	-4.5	5.5	0.	125.22
1513	3.5	-7.	0.	123.22
1514	1.5	-6.5	0.	125.09
1515	-4.	-6.5	0.	126.06
1516	1.	2.5	0.	126.44
1517	-3.	-2.5	0.	126.4
1518	-1.	1.5	0.	125.61
1519	1.5	1.5	0.	126.36
1520	3.5	4.5	0.	124.31
1521	-3.5	8.	0.	125.13
1522	-2.5	-2.5	0.	127.2
1523	-4.	-4.	0.	125.43
1524	3.5	-3.	0.	134.29
1525	8.5	-0.5	0.	128.79
1526	9.	7.	0.	126.02
1527	9.	6.	0.	126.54
1528	-1.5	-5.	0.	127.15
1529	4.5	-4.5	0.	121.94
1530	-1.5	5.	0.	125.54
1531	4.	6.	0.	124.15
1532	-3.5	2.	0.	125.6
1533	-2.5	4.5	0.	125.49
1534	-6.5	-4.	0.	124.84
1535	-6.5	-5.	0.	124.94
1536	-6.5	-3.	0.	124.82
1537	-6.	-5.	0.	125.08
1538	-6.	-1.	0.	125.14
1539	-6.	-5.7729e-012	0.	125.21
1540	-7.	-4.8831e-012	0.	124.91
1541	-4.5	2.	0.	125.48
1542	3.	5.5	0.	124.59
1543	1.5	5.5	0.	125.37
1544	-6.5	4.	0.	125.06
1545	-6.5	7.	0.	125.04
1546	-4.	-6.	0.	126.07
1547	-6.	-3.	0.	124.93
1548	-7.5	3.5	0.	124.9
1549	6.	8.	0.	121.79
1550	5.	8.	0.	126.74
1551	-5.5	1.	0.	125.35
1552	5.5	6.	0.	127.85
1553	3.	-0.5	0.	130.65
1554	-1.	1.	0.	125.53
1555	2.5	6.5	0.	124.56
1556	1.5	6.5	0.	124.94
1557	-4.	1.	0.	125.68
1558	-6.	-7.	0.	125.34
1559	2.5	5.5	0.	124.91
1560	4.	4.5	0.	123.59
1561	-2.5	3.	0.	125.59
1562	6.5	8.	0.	119.05
1563	9.	5.5	0.	127.17
1564	9.	6.5	0.	126.05
1565	9.	7.5	0.	126.18
1566	-1.	-8.	0.	125.34
1567	-2.	7.5	0.	125.16
1568	-4.	-8.5	0.	125.84
1569	0.5	-1.	0.	126.49
1570	-6.5	3.	0.	125.07
1571	2.5	2.5	0.	127.82
1572	1.5	-7.	0.	124.22
1573	0.5	2.5	0.	126.18
1574	-7.	1.	0.	124.95
1575	1.	-5.	0.	131.64
1576	6.	3.	0.	124.58
1577	7.5	8.	0.	126.65
1578	-3.5	3.5	0.	125.47
1579	7.5	1.	0.	127.54
1580	4.5	4.5	0.	123.29
1581	1.5	2.5	0.	126.79
1582	-3.5	5.5	0.	125.3
1583	-3.5	6.5	0.	125.22
1584	-6.	-9.	0.	125.4
1585	-1.5	-9.	0.	125.37
1586	-6.	-6.	0.	125.24
1587	-1.	-7.	0.	125.41
1588	3.	4.5	0.	125.08
1589	4.	3.5	0.	121.54
1590	-2.5	3.5	0.	125.57
1591	-0.5	5.	0.	125.65
1592	9.5	-2.5	0.	126.72
1593	-7.	-5.	0.	124.8
1594	0.5	0.5	0.	125.82
1595	9.5	-4.	0.	127.03
1596	-7.	-4.	0.	124.72
1597	8.5	-7.2097e-012	0.	129.1
1598	-2.	-3.	0.	127.6
1599	-3.5	7.5	0.	125.15
1600	-1.5	-6.	0.	125.66
1601	-1.5	5.5	0.	125.46
1602	-1.	2.5	0.	125.74
1603	-6.5	-1.5	0.	124.94
1604	-7.	-1.	0.	124.84
1605	4.	7.	0.	124.55
1606	-3.5	-2.5	0.	125.93
1607	-5.	-2.	0.	125.35
1608	5.	6.	0.	125.56
1609	3.5	6.	0.	124.2
1610	-6.	4.	0.	125.13
1611	2.	1.5	0.	126.68
1612	0.5	1.	0.	125.83
1613	-2.5	4.	0.	125.54
1614	-5.5	5.5	0.	125.14
1615	-1.5	7.	0.	125.21
1616	8.	5.5	0.	128.64
1617	5.5	9.	0.	124.25
1618	-4.	9.	0.	125.11
1619	8.0879e-012	2.5	0.	125.98
1620	7.	5.	0.	121.71
1621	-4.5	-2.9202e-012	0.	125.7
1622	-6.5	-1.	0.	124.99
1623	-3.5	4.	0.	125.43
1624	-7.5	-8.	0.	124.91
1625	4.	4.	0.	122.68
1626	-7.	3.	0.	124.98
1627	-2.5	6.5	0.	125.26
1628	-3.5	6.	0.	125.26
1629	1.5	7.	0.	124.84
1630	1.	-4.5	0.	131.99
1631	-5.5	-5.	0.	125.23
1632	1.5	6.	0.	125.12
1633	6.	-6.5	0.	126.57
1634	2.	2.5	0.	127.24
1635	-4.	2.	0.	125.55
1636	-9.	3.	0.	124.63
1637	-7.	4.	0.	124.99
1638	-2.5	6.	0.	125.32
1639	3.	2.5	0.	128.61
1640	0.5	-1.5	0.	127.38
1641	8.5	-1.	0.	128.53
1642	8.2013e-011	-7.	0.	125.5
1643	8.5	-2.5	0.	128.64
1644	7.5	8.5	0.	125.1
1645	-2.	-8.5	0.	125.62
1646	-4.	-2.5	0.	125.62
1647	4.5	6.	0.	124.41
1648	-6.	3.	0.	125.16
1649	-5.5	-5.9138e-012	0.	125.37
1650	-4.5	6.	0.	125.19
1651	-8.5	6.5	0.	124.91
1652	-0.5	2.5	0.	125.84
1653	-3.5	7.	0.	125.18
1654	5.5	4.	0.	122.24
1655	-5.	-4.	0.	125.17
1656	-3.5	5.	0.	125.35
1657	1.5	-7.5	0.	123.84
1658	-0.5	4.5	0.	125.77
1659	-7.5	-5.	0.	124.66
1660	4.	-7.5	0.	123.99
1661	-1.5	6.5	0.	125.29
1662	-6.	5.	0.	125.1
1663	3.	6.	0.	124.42
1664	-5.5	-2.	0.	125.18
1665	-1.	-3.25	0.	138.12
1666	-0.75	-3.	0.	122.28
1667	-1.25	-3.	0.	131.48
1668	-1.	-2.75	0.	128.72
1669	-1.	-3.75	0.	138.05
1670	-0.75	-4.	0.	122.02
1671	-1.	-4.25	0.	128.5
1672	-1.25	-4.	0.	131.31
1673	-0.25	-3.	0.	122.92
1674	0.	-3.25	0.	139.11
1675	3.4512e-014	-2.75	0.	130.02
1676	0.25	-3.	0.	133.21
1677	-0.25	-4.	0.	122.35
1678	0.	-3.75	0.	138.73
1679	2.2037e-011	-4.25	0.	129.26
1680	0.25	-4.	0.	132.64
1681	6.	6.75	0.	136.37
1682	6.25	7.	0.	120.85
1683	5.75	7.	0.	129.96
1684	6.	7.25	0.	127.15
1685	6.	6.25	0.	136.39
1686	6.25	6.	0.	120.74
1687	6.	5.75	0.	127.02
1688	5.75	6.	0.	129.63
1689	6.75	7.	0.	121.39
1690	7.	6.75	0.	137.32
1691	7.	7.25	0.	128.1
1692	7.25	7.	0.	130.89
1693	6.75	6.	0.	120.8
1694	7.	6.25	0.	136.86
1695	7.	5.75	0.	127.18
1696	7.25	6.	0.	130.54
1697	4.	1.75	0.	134.43
1698	4.25	2.	0.	117.74
1699	3.75	2.	0.	129.34
1700	4.	2.25	0.	125.59
1701	4.	0.25	0.	131.98
1702	4.25	0.	0.	113.5
1703	3.75	9.9069e-012	0.	127.83
1704	4.	-0.25	0.	121.4
1705	4.75	2.	0.	117.05
1706	5.	1.75	0.	133.66
1707	5.	2.25	0.	124.19
1708	5.25	2.	0.	127.58
1709	4.75	0.	0.	114.57
1710	5.	0.25	0.	134.8
1711	5.25	-1.8384e-012	0.	131.65
1712	5.	-0.25	0.	123.58
1713	4.	-1.25	0.	132.36
1714	4.25	-1.	0.	113.19
1715	3.75	-1.	0.	127.54
1716	4.	-0.75	0.	121.
1717	4.	-2.75	0.	139.46
1718	4.25	-3.	0.	121.47
1719	4.	-3.25	0.	129.74
1720	3.75	-3.	0.	134.32
1721	4.75	-1.	0.	114.85
1722	5.	-1.25	0.	134.88
1723	5.25	-1.	0.	133.91
1724	5.	-0.75	0.	123.83
1725	4.75	-3.	0.	120.68
1726	5.	-2.75	0.	138.59
1727	5.25	-3.	0.	131.19
1728	5.	-3.25	0.	127.56
1729	8.	-7.25	0.	136.69
1730	8.25	-7.	0.	119.94
1731	8.	-6.75	0.	127.58
1732	7.75	-7.	0.	130.96
1733	8.	-8.75	0.	134.97
1734	8.25	-9.	0.	117.58
1735	7.75	-9.	0.	129.36
1736	8.	-9.25	0.	124.5
1737	8.75	-7.	0.	120.14
1738	9.	-7.25	0.	138.07
1739	9.	-6.75	0.	127.79
1740	9.25	-7.	0.	132.59
1741	8.75	-9.	0.	118.24
1742	9.	-8.75	0.	136.96
1743	9.	-9.25	0.	125.58
1744	9.25	-9.	0.	131.83
1745	6.	-0.25	0.	142.88
1746	6.25	0.	0.	123.38
1747	5.75	-1.8384e-012	0.	135.54
1748	6.	0.25	0.	130.64
1749	6.	-1.75	0.	139.4
1750	6.25	-2.	0.	121.31
1751	6.	-2.25	0.	129.04
1752	5.75	-2.	0.	135.88
1753	6.75	0.	0.	122.21
1754	7.	-0.25	0.	139.05
1755	7.	0.25	0.	129.16
1756	7.25	-4.2384e-012	0.	132.98
1757	6.75	-2.	0.	121.12
1758	7.	-1.75	0.	138.52
1759	7.25	-2.	0.	132.33
1760	7.	-2.25	0.	128.74
1761	2.	-3.25	0.	137.53
1762	2.25	-3.	0.	120.73
1763	1.75	-3.	0.	132.22
1764	2.	-2.75	0.	128.58
1765	2.	-4.75	0.	138.18
1766	2.25	-5.	0.	120.84
1767	2.	-5.25	0.	128.84
1768	1.75	-5.	0.	132.73
1769	2.75	-3.	0.	121.75
1770	3.	-3.25	0.	140.15
1771	3.	-2.75	0.	130.15
1772	3.25	-3.	0.	134.55
1773	2.75	-5.	0.	119.11
1774	3.	-4.75	0.	135.92
1775	3.	-5.25	0.	125.65
1776	3.25	-5.	0.	129.43
1777	9.75	10.	0.	125.01
1778	10.	9.75	0.	124.98
1779	-9.75	10.	0.	125.
1780	-10.	9.75	0.	125.
1781	10.	-9.75	0.	138.08
1782	9.75	-10.	0.	134.3
1783	-10.	-9.75	0.	124.38
1784	-9.75	-10.	0.	124.42
1785	-1.25	-3.5	0.	136.37
1786	-0.5	-2.75	0.	112.52
1787	-0.5	-4.25	0.	112.09
1788	0.25	-3.5	0.	137.82
1789	5.75	6.5	0.	134.65
1790	6.5	7.25	0.	111.13
1791	6.5	5.75	0.	110.78
1792	7.25	6.5	0.	135.62
1793	4.	1.25	0.	138.87
1794	3.75	1.5	0.	135.05
1795	4.	0.75	0.	138.3
1796	3.75	1.	0.	135.8
1797	3.75	0.5	0.	134.34
1798	4.5	2.25	0.	107.01
1799	4.5	-0.25	0.	99.153
1800	5.	1.25	0.	139.66
1801	5.25	1.5	0.	134.02
1802	5.	0.75	0.	140.86
1803	5.25	1.	0.	136.59
1804	5.25	0.5	0.	138.17
1805	4.	-1.75	0.	140.82
1806	3.75	-1.5	0.	134.88
1807	4.	-2.25	0.	143.39
1808	3.75	-2.	0.	138.32
1809	3.75	-2.5	0.	140.56
1810	4.5	-0.75	0.	99.199
1811	4.5	-3.25	0.	109.71
1812	5.	-1.75	0.	142.16
1813	5.25	-1.5	0.	139.77
1814	5.	-2.25	0.	143.83
1815	5.25	-2.	0.	140.77
1816	5.25	-2.5	0.	140.12
1817	8.	-7.75	0.	141.25
1818	7.75	-7.5	0.	136.91
1819	8.	-8.25	0.	140.81
1820	7.75	-8.	0.	137.69
1821	7.75	-8.5	0.	136.17
1822	8.5	-6.75	0.	109.17
1823	8.5	-9.25	0.	106.21
1824	9.	-7.75	0.	143.81
1825	9.25	-7.5	0.	139.53
1826	9.	-8.25	0.	143.52
1827	9.25	-8.	0.	140.62
1828	9.25	-8.5	0.	139.23
1829	6.	-0.75	0.	148.59
1830	5.75	-0.5	0.	144.94
1831	6.	-1.25	0.	146.39
1832	5.75	-1.	0.	143.62
1833	5.75	-1.5	0.	141.75
1834	6.5	0.25	0.	111.26
1835	6.5	-2.25	0.	110.12
1836	7.	-0.75	0.	144.17
1837	7.25	-0.5	0.	139.41
1838	7.	-1.25	0.	143.87
1839	7.25	-1.	0.	140.4
1840	7.25	-1.5	0.	138.94
1841	2.	-3.75	0.	142.41
1842	1.75	-3.5	0.	137.99
1843	2.	-4.25	0.	142.69
1844	1.75	-4.	0.	139.36
1845	1.75	-4.5	0.	138.8
1846	2.5	-2.75	0.	110.15
1847	2.5	-5.25	0.	109.31
1848	3.	-3.75	0.	144.61
1849	3.25	-3.5	0.	141.11
1850	3.	-4.25	0.	142.85
1851	3.25	-4.	0.	139.33
1852	3.25	-4.5	0.	136.36
1853	9.25	10.	0.	124.98
1854	9.5	9.75	0.	125.03
1855	8.75	10.	0.	124.85
1856	9.	9.75	0.	124.99
1857	8.25	10.	0.	124.54
1858	8.5	9.75	0.	124.82
1859	7.75	10.	0.	124.1
1860	8.	9.75	0.	124.49
1861	7.25	10.	0.	123.62
1862	7.5	9.75	0.	124.03
1863	6.75	10.	0.	123.28
1864	7.	9.75	0.	123.58
1865	6.25	10.	0.	123.22
1866	6.5	9.75	0.	123.35
1867	5.75	10.	0.	123.44
1868	6.	9.75	0.	123.46
1869	5.25	10.	0.	123.84
1870	5.5	9.75	0.	123.81
1871	4.75	10.	0.	124.25
1872	5.	9.75	0.	124.22
1873	4.25	10.	0.	124.56
1874	4.5	9.75	0.	124.53
1875	3.75	10.	0.	124.76
1876	4.	9.75	0.	124.72
1877	3.25	10.	0.	124.86
1878	3.5	9.75	0.	124.81
1879	2.75	10.	0.	124.91
1880	3.	9.75	0.	124.86
1881	2.25	10.	0.	124.93
1882	2.5	9.75	0.	124.89
1883	1.75	10.	0.	124.96
1884	2.	9.75	0.	124.92
1885	1.25	10.	0.	124.98
1886	1.5	9.75	0.	124.94
1887	0.75	10.	0.	125.01
1888	1.	9.75	0.	124.97
1889	0.25	10.	0.	125.04
1890	0.5	9.75	0.	125.01
1891	-0.25	10.	0.	125.07
1892	-6.415e-012	9.75	0.	125.04
1893	-0.75	10.	0.	125.1
1894	-0.5	9.75	0.	125.07
1895	-1.25	10.	0.	125.12
1896	-1.	9.75	0.	125.1
1897	-1.75	10.	0.	125.14
1898	-1.5	9.75	0.	125.12
1899	-2.25	10.	0.	125.15
1900	-2.	9.75	0.	125.13
1901	-2.75	10.	0.	125.16
1902	-2.5	9.75	0.	125.14
1903	-3.25	10.	0.	125.16
1904	-3.	9.75	0.	125.14
1905	-3.75	10.	0.	125.15
1906	-3.5	9.75	0.	125.14
1907	-4.25	10.	0.	125.14
1908	-4.	9.75	0.	125.14
1909	-4.75	10.	0.	125.13
1910	-4.5	9.75	0.	125.13
1911	-5.25	10.	0.	125.11
1912	-5.	9.75	0.	125.11
1913	-5.75	10.	0.	125.1
1914	-5.5	9.75	0.	125.1
1915	-6.25	10.	0.	125.08
1916	-6.	9.75	0.	125.08
1917	-6.75	10.	0.	125.06
1918	-6.5	9.75	0.	125.06
1919	-7.25	10.	0.	125.04
1920	-7.	9.75	0.	125.05
1921	-7.75	10.	0.	125.02
1922	-7.5	9.75	0.	125.03
1923	-8.25	10.	0.	125.01
1924	-8.	9.75	0.	125.02
1925	-8.75	10.	0.	125.
1926	-8.5	9.75	0.	125.01
1927	-9.25	10.	0.	125.
1928	-9.	9.75	0.	125.
1929	-9.5	9.75	0.	125.
1930	10.	9.25	0.	124.98
1931	9.75	9.5	0.	125.
1932	10.	8.75	0.	125.04
1933	9.75	9.	0.	125.11
1934	10.	8.25	0.	125.05
1935	9.75	8.5	0.	125.24
1936	10.	7.75	0.	124.96
1937	9.75	8.	0.	125.28
1938	10.	7.25	0.	124.85
1939	9.75	7.5	0.	125.23
1940	10.	6.75	0.	124.94
1941	9.75	7.	0.	125.21
1942	10.	6.25	0.	125.41
1943	9.75	6.5	0.	125.45
1944	10.	5.75	0.	126.25
1945	9.75	6.	0.	126.03
1946	10.	5.25	0.	127.23
1947	9.75	5.5	0.	126.83
1948	10.	4.75	0.	128.09
1949	9.75	5.	0.	127.6
1950	10.	4.25	0.	128.7
1951	9.75	4.5	0.	128.19
1952	10.	3.75	0.	129.04
1953	9.75	4.	0.	128.54
1954	10.	3.25	0.	129.2
1955	9.75	3.5	0.	128.73
1956	10.	2.75	0.	129.22
1957	9.75	3.	0.	128.81
1958	10.	2.25	0.	129.12
1959	9.75	2.5	0.	128.81
1960	10.	1.75	0.	128.86
1961	9.75	2.	0.	128.72
1962	10.	1.25	0.	128.37
1963	9.75	1.5	0.	128.49
1964	10.	0.75	0.	127.58
1965	9.75	1.	0.	128.05
1966	10.	0.25	0.	126.57
1967	9.75	0.5	0.	127.37
1968	10.	-0.25	0.	125.56
1969	9.75	-1.1588e-012	0.	126.55
1970	10.	-0.75	0.	124.83
1971	9.75	-0.5	0.	125.82
1972	10.	-1.25	0.	124.6
1973	9.75	-1.	0.	125.41
1974	10.	-1.75	0.	124.9
1975	9.75	-1.5	0.	125.42
1976	10.	-2.25	0.	125.55
1977	9.75	-2.	0.	125.8
1978	10.	-2.75	0.	126.27
1979	9.75	-2.5	0.	126.32
1980	10.	-3.25	0.	126.85
1981	9.75	-3.	0.	126.78
1982	10.	-3.75	0.	127.25
1983	9.75	-3.5	0.	127.06
1984	10.	-4.25	0.	127.6
1985	9.75	-4.	0.	127.22
1986	10.	-4.75	0.	128.2
1987	9.75	-4.5	0.	127.41
1988	10.	-5.25	0.	129.48
1989	9.75	-5.	0.	127.86
1990	10.	-5.75	0.	131.74
1991	9.75	-5.5	0.	128.87
1992	10.	-6.25	0.	133.94
1993	9.75	-6.	0.	130.83
1994	10.	-6.75	0.	133.81
1995	9.75	-6.5	0.	133.5
1996	10.	-7.25	0.	131.61
1997	9.75	-7.	0.	132.88
1998	10.	-7.75	0.	130.5
1999	9.75	-7.5	0.	132.93
2000	10.	-8.25	0.	130.72
2001	9.75	-8.	0.	133.9
2002	10.	-8.75	0.	132.41
2003	9.75	-8.5	0.	133.16
2004	10.	-9.25	0.	135.77
2005	9.75	-9.	0.	133.55
2006	9.75	-9.5	0.	135.04
2007	-10.	9.25	0.	125.
2008	-9.75	9.5	0.	125.
2009	-10.	8.75	0.	125.
2010	-9.75	9.	0.	125.
2011	-10.	8.25	0.	124.98
2012	-9.75	8.5	0.	124.98
2013	-10.	7.75	0.	124.95
2014	-9.75	8.	0.	124.96
2015	-10.	7.25	0.	124.92
2016	-9.75	7.5	0.	124.94
2017	-10.	6.75	0.	124.88
2018	-9.75	7.	0.	124.9
2019	-10.	6.25	0.	124.84
2020	-9.75	6.5	0.	124.87
2021	-10.	5.75	0.	124.79
2022	-9.75	6.	0.	124.83
2023	-10.	5.25	0.	124.74
2024	-9.75	5.5	0.	124.78
2025	-10.	4.75	0.	124.69
2026	-9.75	5.	0.	124.73
2027	-10.	4.25	0.	124.63
2028	-9.75	4.5	0.	124.68
2029	-10.	3.75	0.	124.57
2030	-9.75	4.	0.	124.63
2031	-10.	3.25	0.	124.51
2032	-9.75	3.5	0.	124.57
2033	-10.	2.75	0.	124.44
2034	-9.75	3.	0.	124.51
2035	-10.	2.25	0.	124.36
2036	-9.75	2.5	0.	124.44
2037	-10.	1.75	0.	124.29
2038	-9.75	2.	0.	124.38
2039	-10.	1.25	0.	124.21
2040	-9.75	1.5	0.	124.3
2041	-10.	0.75	0.	124.13
2042	-9.75	1.	0.	124.23
2043	-10.	0.25	0.	124.05
2044	-9.75	0.5	0.	124.16
2045	-10.	-0.25	0.	123.97
2046	-9.75	-1.0981e-013	0.	124.09
2047	-10.	-0.75	0.	123.89
2048	-9.75	-0.5	0.	124.02
2049	-10.	-1.25	0.	123.82
2050	-9.75	-1.	0.	123.95
2051	-10.	-1.75	0.	123.77
2052	-9.75	-1.5	0.	123.9
2053	-10.	-2.25	0.	123.73
2054	-9.75	-2.	0.	123.86
2055	-10.	-2.75	0.	123.7
2056	-9.75	-2.5	0.	123.83
2057	-10.	-3.25	0.	123.7
2058	-9.75	-3.	0.	123.81
2059	-10.	-3.75	0.	123.71
2060	-9.75	-3.5	0.	123.81
2061	-10.	-4.25	0.	123.74
2062	-9.75	-4.	0.	123.84
2063	-10.	-4.75	0.	123.79
2064	-9.75	-4.5	0.	123.87
2065	-10.	-5.25	0.	123.85
2066	-9.75	-5.	0.	123.92
2067	-10.	-5.75	0.	123.93
2068	-9.75	-5.5	0.	123.98
2069	-10.	-6.25	0.	124.01
2070	-9.75	-6.	0.	124.05
2071	-10.	-6.75	0.	124.09
2072	-9.75	-6.5	0.	124.12
2073	-10.	-7.25	0.	124.16
2074	-9.75	-7.	0.	124.19
2075	-10.	-7.75	0.	124.23
2076	-9.75	-7.5	0.	124.25
2077	-10.	-8.25	0.	124.29
2078	-9.75	-8.	0.	124.31
2079	-10.	-8.75	0.	124.34
2080	-9.75	-8.5	0.	124.36
2081	-10.	-9.25	0.	124.37
2082	-9.75	-9.	0.	124.39
2083	-9.75	-9.5	0.	124.41
2084	-9.25	-10.	0.	124.5
2085	-9.5	-9.75	0.	124.45
2086	-8.75	-10.	0.	124.62
2087	-9.	-9.75	0.	124.55
2088	-8.25	-10.	0.	124.74
2089	-8.5	-9.75	0.	124.67
2090	-7.75	-10.	0.	124.89
2091	-8.	-9.75	0.	124.81
2092	-7.25	-10.	0.	125.04
2093	-7.5	-9.75	0.	124.96
2094	-6.75	-10.	0.	125.19
2095	-7.	-9.75	0.	125.11
2096	-6.25	-10.	0.	125.33
2097	-6.5	-9.75	0.	125.26
2098	-5.75	-10.	0.	125.47
2099	-6.	-9.75	0.	125.4
2100	-5.25	-10.	0.	125.59
2101	-5.5	-9.75	0.	125.53
2102	-4.75	-10.	0.	125.68
2103	-5.	-9.75	0.	125.64
2104	-4.25	-10.	0.	125.75
2105	-4.5	-9.75	0.	125.73
2106	-3.75	-10.	0.	125.77
2107	-4.	-9.75	0.	125.77
2108	-3.25	-10.	0.	125.75
2109	-3.5	-9.75	0.	125.78
2110	-2.75	-10.	0.	125.68
2111	-3.	-9.75	0.	125.73
2112	-2.25	-10.	0.	125.56
2113	-2.5	-9.75	0.	125.64
2114	-1.75	-10.	0.	125.4
2115	-2.	-9.75	0.	125.5
2116	-1.25	-10.	0.	125.19
2117	-1.5	-9.75	0.	125.31
2118	-0.75	-10.	0.	124.94
2119	-1.	-9.75	0.	125.09
2120	-0.25	-10.	0.	124.66
2121	-0.5	-9.75	0.	124.82
2122	0.25	-10.	0.	124.35
2123	3.0894e-012	-9.75	0.	124.52
2124	0.75	-10.	0.	124.03
2125	0.5	-9.75	0.	124.2
2126	1.25	-10.	0.	123.73
2127	1.	-9.75	0.	123.88
2128	1.75	-10.	0.	123.49
2129	1.5	-9.75	0.	123.59
2130	2.25	-10.	0.	123.37
2131	2.	-9.75	0.	123.39
2132	2.75	-10.	0.	123.42
2133	2.5	-9.75	0.	123.34
2134	3.25	-10.	0.	123.64
2135	3.	-9.75	0.	123.46
2136	3.75	-10.	0.	124.06
2137	3.5	-9.75	0.	123.78
2138	4.25	-10.	0.	124.66
2139	4.	-9.75	0.	124.29
2140	4.75	-10.	0.	125.45
2141	4.5	-9.75	0.	124.97
2142	5.25	-10.	0.	126.42
2143	5.	-9.75	0.	125.83
2144	5.75	-10.	0.	127.57
2145	5.5	-9.75	0.	126.86
2146	6.25	-10.	0.	128.8
2147	6.	-9.75	0.	128.04
2148	6.75	-10.	0.	129.78
2149	6.5	-9.75	0.	129.24
2150	7.25	-10.	0.	128.61
2151	7.	-9.75	0.	130.01
2152	7.75	-10.	0.	122.1
2153	7.5	-9.75	0.	128.32
2154	8.25	-10.	0.	114.13
2155	8.	-9.75	0.	117.99
2156	8.75	-10.	0.	114.59
2157	8.5	-9.75	0.	109.11
2158	9.25	-10.	0.	123.99
2159	9.	-9.75	0.	118.92
2160	9.5	-9.75	0.	131.26
2161	-3.	2.75	0.	125.57
2162	-2.75	2.5	0.	125.6
2163	-3.	2.25	0.	125.61
2164	-3.25	2.5	0.	125.57
2165	-3.25	3.	0.	125.53
2166	-3.	3.25	0.	125.54
2167	-2.75	3.	0.	125.57
2168	-1.75	3.	0.	125.67
2169	-2.	2.75	0.	125.64
2170	-2.	3.25	0.	125.63
2171	-2.25	3.	0.	125.62
2172	-2.25	2.5	0.	125.63
2173	-2.5	2.25	0.	125.63
2174	-2.5	2.75	0.	125.61
2175	-2.75	2.	0.	125.63
2176	-3.	1.75	0.	125.66
2177	-3.25	2.	0.	125.61
2178	-3.5	2.75	0.	125.53
2179	-3.75	3.	0.	125.48
2180	-3.5	3.25	0.	125.49
2181	-1.5	3.25	0.	125.7
2182	-1.5	2.75	0.	125.69
2183	-1.25	3.	0.	125.74
2184	-1.75	2.5	0.	125.66
2185	-2.	2.25	0.	125.64
2186	-3.75	2.5	0.	125.52
2187	-3.5	2.25	0.	125.57
2188	-2.25	2.	0.	125.64
2189	-2.5	1.75	0.	125.66
2190	-1.75	3.5	0.	125.66
2191	-1.25	3.5	0.	125.74
2192	-1.5	3.75	0.	125.68
2193	-3.	3.75	0.	125.5
2194	-3.25	3.5	0.	125.49
2195	-2.75	3.5	0.	125.54
2196	-2.	3.75	0.	125.61
2197	-2.25	3.5	0.	125.6
2198	-3.25	1.5	0.	125.67
2199	-3.5	1.25	0.	125.7
2200	-3.75	1.5	0.	125.64
2201	-3.5	1.75	0.	125.63
2202	-1.5	2.25	0.	125.67
2203	-1.25	2.5	0.	125.71
2204	-1.75	2.	0.	125.65
2205	-2.	1.75	0.	125.64
2206	-1.	3.75	0.	125.77
2207	-1.	3.25	0.	125.78
2208	-0.75	3.5	0.	125.84
2209	-4.	3.75	0.	125.4
2210	-4.25	4.	0.	125.35
2211	-4.	4.25	0.	125.36
2212	-3.75	4.	0.	125.4
2213	-2.75	1.5	0.	125.68
2214	-3.	1.25	0.	125.72
2215	-3.25	1.	0.	125.75
2216	-3.5	0.75	0.	125.8
2217	-3.75	1.	0.	125.71
2218	-0.75	4.	0.	125.81
2219	-0.5	3.75	0.	125.88
2220	-0.25	4.	0.	125.92
2221	-0.5	4.25	0.	125.82
2222	-3.75	0.5	0.	125.81
2223	-4.	0.25	0.	125.81
2224	-4.25	0.5	0.	125.7
2225	-4.	0.75	0.	125.72
2226	-4.25	1.5	0.	125.57
2227	-4.	1.25	0.	125.64
2228	-4.	1.75	0.	125.58
2229	-4.	2.75	0.	125.48
2230	-4.25	2.5	0.	125.47
2231	-4.	2.25	0.	125.52
2232	-4.	3.25	0.	125.44
2233	-4.25	3.	0.	125.42
2234	-4.25	3.5	0.	125.39
2235	-3.75	3.5	0.	125.44
2236	-3.	4.25	0.	125.46
2237	-2.75	4.	0.	125.51
2238	-3.25	4.	0.	125.46
2239	-1.75	4.	0.	125.63
2240	-2.	4.25	0.	125.57
2241	-2.25	4.	0.	125.57
2242	-1.25	4.	0.	125.71
2243	-1.5	4.25	0.	125.64
2244	-1.	4.25	0.	125.72
2245	-1.25	2.	0.	125.67
2246	-1.5	1.75	0.	125.63
2247	-0.75	3.	0.	125.84
2248	-1.	2.75	0.	125.76
2249	-4.5	3.75	0.	125.34
2250	-4.5	4.25	0.	125.3
2251	-4.75	4.	0.	125.29
2252	-2.25	1.5	0.	125.66
2253	-2.5	1.25	0.	125.7
2254	-0.5	3.25	0.	125.9
2255	-0.25	3.5	0.	125.98
2256	-2.75	1.	0.	125.75
2257	-3.	0.75	0.	125.82
2258	-6.4761e-011	4.25	0.	125.93
2259	-3.3126e-011	3.75	0.	126.02
2260	0.25	4.	0.	126.06
2261	-4.5	-0.75	0.	125.73
2262	-4.25	-0.5	0.	125.83
2263	-4.75	-0.5	0.	125.63
2264	-4.5	-0.25	0.	125.71
2265	-3.25	0.5	0.	125.86
2266	-3.5	0.25	0.	125.91
2267	-4.	-0.25	0.	125.89
2268	-3.75	6.6327e-012	0.	125.91
2269	-4.25	-3.3498e-013	0.	125.77
2270	-0.75	2.	0.	125.72
2271	-1.	1.75	0.	125.65
2272	-1.	2.25	0.	125.71
2273	-4.5	0.75	0.	125.61
2274	-4.75	0.5	0.	125.57
2275	-4.5	0.25	0.	125.67
2276	-4.5	1.25	0.	125.56
2277	-4.75	1.	0.	125.53
2278	-4.25	1.	0.	125.63
2279	-4.75	1.5	0.	125.48
2280	-4.5	1.75	0.	125.5
2281	-4.5	2.75	0.	125.41
2282	-4.75	2.5	0.	125.4
2283	-4.5	2.25	0.	125.46
2284	-4.5	3.25	0.	125.37
2285	-4.75	3.	0.	125.36
2286	-4.75	3.5	0.	125.32
2287	-4.25	4.5	0.	125.31
2288	-4.75	4.5	0.	125.26
2289	-4.5	4.75	0.	125.27
2290	-4.	4.75	0.	125.32
2291	-3.75	4.5	0.	125.37
2292	-3.	4.75	0.	125.42
2293	-3.25	4.5	0.	125.42
2294	-2.75	4.5	0.	125.47
2295	-1.75	4.5	0.	125.58
2296	-2.	4.75	0.	125.52
2297	-2.25	4.5	0.	125.52
2298	-1.25	4.5	0.	125.65
2299	-1.5	4.75	0.	125.58
2300	-1.	4.75	0.	125.64
2301	-0.75	4.5	0.	125.73
2302	0.25	4.5	0.	125.91
2303	-9.373e-011	4.75	0.	125.79
2304	-0.25	4.5	0.	125.82
2305	0.5	4.25	0.	126.04
2306	0.75	4.5	0.	125.99
2307	0.5	4.75	0.	125.85
2308	-1.75	1.5	0.	125.63
2309	-2.	1.25	0.	125.65
2310	-0.25	3.	0.	125.97
2311	-0.5	2.75	0.	125.87
2312	-5.	-1.25	0.	125.48
2313	-4.75	-1.5	0.	125.56
2314	-5.25	-1.5	0.	125.35
2315	-5.	-1.75	0.	125.4
2316	-2.25	1.	0.	125.7
2317	-2.5	0.75	0.	125.78
2318	-0.5	1.75	0.	125.7
2319	-0.5	1.25	0.	125.6
2320	-0.25	1.5	0.	125.7
2321	-0.75	1.5	0.	125.63
2322	-7.8554e-012	3.25	0.	126.05
2323	0.25	3.5	0.	126.15
2324	-5.	4.75	0.	125.22
2325	-4.75	5.	0.	125.23
2326	-5.25	5.	0.	125.18
2327	-5.	5.25	0.	125.19
2328	-4.75	-1.	0.	125.62
2329	-4.5	-1.25	0.	125.7
2330	-4.25	-1.	0.	125.85
2331	-2.75	0.5	0.	125.85
2332	-3.	0.25	0.	125.95
2333	0.5	3.75	0.	126.19
2334	0.75	4.	0.	126.21
2335	-4.	-0.75	0.	125.95
2336	-3.75	-0.5	0.	126.02
2337	-3.25	1.6329e-011	0.	126.
2338	-3.5	-0.25	0.	126.05
2339	1.	4.75	0.	125.89
2340	1.	4.25	0.	126.15
2341	1.25	4.5	0.	126.03
2342	-1.5	1.25	0.	125.6
2343	-1.25	1.5	0.	125.61
2344	-0.25	2.	0.	125.81
2345	-0.5	2.25	0.	125.8
2346	-5.	-0.75	0.	125.52
2347	-5.25	-1.	0.	125.41
2348	-5.	-0.25	0.	125.53
2349	-5.25	-0.5	0.	125.44
2350	-5.	0.25	0.	125.52
2351	-4.75	-4.0172e-012	0.	125.61
2352	-5.25	-5.514e-012	0.	125.45
2353	-5.	0.75	0.	125.49
2354	-5.25	0.5	0.	125.43
2355	-5.	1.25	0.	125.45
2356	-5.25	1.	0.	125.41
2357	-5.	1.75	0.	125.41
2358	-5.25	1.5	0.	125.38
2359	-5.	2.25	0.	125.38
2360	-5.25	2.	0.	125.35
2361	-4.75	2.	0.	125.44
2362	-5.	2.75	0.	125.34
2363	-5.25	2.5	0.	125.31
2364	-5.	3.25	0.	125.31
2365	-5.25	3.	0.	125.28
2366	-5.	3.75	0.	125.28
2367	-5.25	3.5	0.	125.26
2368	-5.	4.25	0.	125.25
2369	-5.25	4.	0.	125.23
2370	-5.25	4.5	0.	125.2
2371	-4.25	5.	0.	125.28
2372	-4.5	5.25	0.	125.24
2373	-4.	5.25	0.	125.28
2374	-3.75	5.	0.	125.33
2375	-3.	5.25	0.	125.37
2376	-2.75	5.	0.	125.42
2377	-3.25	5.	0.	125.37
2378	-2.	5.25	0.	125.45
2379	-2.25	5.	0.	125.46
2380	-1.75	5.	0.	125.51
2381	-1.	5.25	0.	125.54
2382	-1.25	5.	0.	125.57
2383	-0.75	5.	0.	125.63
2384	0.25	5.	0.	125.72
2385	-1.1568e-010	5.25	0.	125.62
2386	-0.25	5.	0.	125.68
2387	0.75	5.	0.	125.74
2388	0.5	5.25	0.	125.64
2389	1.25	5.	0.	125.71
2390	1.	5.25	0.	125.61
2391	1.5	4.75	0.	125.86
2392	1.75	5.	0.	125.6
2393	1.5	5.25	0.	125.53
2394	-5.	-3.25	0.	125.15
2395	-5.25	-3.5	0.	125.08
2396	-4.75	-3.5	0.	125.18
2397	-5.	-3.75	0.	125.15
2398	-1.75	1.	0.	125.62
2399	-2.	0.75	0.	125.69
2400	-0.25	1.	0.	125.6
2401	-0.5	0.75	0.	125.49
2402	-0.75	1.	0.	125.54
2403	0.25	3.	0.	126.15
2404	5.1682e-012	2.75	0.	126.02
2405	3.2099e-012	1.25	0.	125.7
2406	7.4844e-012	1.75	0.	125.81
2407	0.25	1.5	0.	125.83
2408	-5.	-4.75	0.	125.34
2409	-5.	-5.25	0.	125.46
2410	-4.75	-5.	0.	125.5
2411	-5.25	-5.	0.	125.32
2412	-5.5	4.75	0.	125.17
2413	-5.5	5.25	0.	125.15
2414	-5.75	5.	0.	125.13
2415	-4.5	-1.75	0.	125.61
2416	-4.25	-1.5	0.	125.81
2417	-2.25	0.5	0.	125.77
2418	-2.5	0.25	0.	125.91
2419	0.5	3.25	0.	126.25
2420	0.75	3.5	0.	126.35
2421	-4.	-1.25	0.	125.96
2422	-3.75	-1.	0.	126.11
2423	-2.75	2.8365e-011	0.	126.01
2424	-3.	-0.25	0.	126.14
2425	1.	3.75	0.	126.37
2426	1.25	4.	0.	126.34
2427	-3.5	-0.75	0.	126.18
2428	-3.25	-0.5	0.	126.18
2429	1.5	4.25	0.	126.22
2430	1.75	4.5	0.	125.99
2431	2.	5.25	0.	125.35
2432	2.25	5.	0.	125.37
2433	2.	4.75	0.	125.73
2434	-5.25	-4.5	0.	125.21
2435	-4.75	-4.5	0.	125.36
2436	-5.	-4.25	0.	125.23
2437	-5.	-2.75	0.	125.2
2438	-5.25	-2.5	0.	125.17
2439	-4.75	-2.5	0.	125.33
2440	-5.	-2.25	0.	125.3
2441	-5.25	-3.	0.	125.1
2442	-4.75	-3.	0.	125.22
2443	-1.5	0.75	0.	125.57
2444	-1.25	1.	0.	125.56
2445	3.176e-014	0.75	0.	125.62
2446	0.25	1.	0.	125.74
2447	0.25	2.	0.	125.96
2448	8.8515e-012	2.25	0.	125.93
2449	-4.75	-5.5	0.	125.63
2450	-4.5	-5.25	0.	125.67
2451	-4.25	-5.5	0.	125.88
2452	-4.5	-5.75	0.	125.79
2453	-5.25	-5.5	0.	125.43
2454	-5.	-5.75	0.	125.57
2455	-5.5	-4.25	0.	125.1
2456	-5.75	-4.5	0.	125.07
2457	-5.5	-4.75	0.	125.18
2458	-5.5	-3.75	0.	125.04
2459	-5.75	-4.	0.	125.01
2460	-5.25	-4.	0.	125.12
2461	-5.5	-3.25	0.	125.04
2462	-5.75	-3.5	0.	124.98
2463	-5.5	-2.75	0.	125.07
2464	-5.75	-3.	0.	124.99
2465	-5.75	-2.5	0.	125.04
2466	-5.5	-2.25	0.	125.14
2467	-5.5	-1.25	0.	125.28
2468	-5.75	-1.5	0.	125.17
2469	-5.5	-1.75	0.	125.22
2470	-5.5	-0.75	0.	125.33
2471	-5.75	-1.	0.	125.23
2472	-5.75	-0.5	0.	125.27
2473	-5.5	-0.25	0.	125.36
2474	-5.75	0.5	0.	125.29
2475	-5.5	0.75	0.	125.35
2476	-5.5	0.25	0.	125.36
2477	-5.5	1.75	0.	125.31
2478	-5.75	1.5	0.	125.26
2479	-5.5	1.25	0.	125.33
2480	-5.5	2.25	0.	125.28
2481	-5.75	2.	0.	125.24
2482	-5.75	2.5	0.	125.22
2483	-5.5	2.75	0.	125.26
2484	-5.75	3.5	0.	125.18
2485	-5.5	3.75	0.	125.21
2486	-5.5	3.25	0.	125.23
2487	-5.75	4.5	0.	125.15
2488	-5.5	4.25	0.	125.19
2489	-5.	5.75	0.	125.17
2490	-4.75	5.5	0.	125.2
2491	-5.25	5.5	0.	125.16
2492	-4.	5.75	0.	125.25
2493	-4.25	5.5	0.	125.24
2494	-3.75	5.5	0.	125.28
2495	-3.	5.75	0.	125.32
2496	-2.75	5.5	0.	125.36
2497	-3.25	5.5	0.	125.32
2498	-2.	5.75	0.	125.38
2499	-2.25	5.5	0.	125.4
2500	-1.75	5.5	0.	125.44
2501	-0.75	5.5	0.	125.51
2502	-1.	5.75	0.	125.44
2503	-1.25	5.5	0.	125.48
2504	-0.25	5.5	0.	125.53
2505	-0.5	5.75	0.	125.46
2506	-0.5	5.25	0.	125.59
2507	0.25	5.5	0.	125.53
2508	-1.2823e-010	5.75	0.	125.46
2509	0.75	5.5	0.	125.5
2510	0.5	5.75	0.	125.43
2511	1.	5.75	0.	125.36
2512	1.25	5.5	0.	125.42
2513	2.	5.75	0.	125.05
2514	1.75	5.5	0.	125.27
2515	2.25	5.5	0.	125.04
2516	-4.5	-4.75	0.	125.52
2517	-4.25	-5.	0.	125.73
2518	-4.5	-2.25	0.	125.48
2519	-4.25	-2.	0.	125.69
2520	-4.75	-2.	0.	125.45
2521	-4.5	-3.25	0.	125.26
2522	-4.25	-3.5	0.	125.29
2523	-4.5	-3.75	0.	125.27
2524	-1.75	0.5	0.	125.63
2525	-2.	0.25	0.	125.76
2526	-0.75	0.5	0.	125.44
2527	-0.25	0.5	0.	125.51
2528	-0.5	0.25	0.	125.36
2529	0.75	3.	0.	126.39
2530	0.5	2.75	0.	126.22
2531	0.5	1.75	0.	125.98
2532	0.75	1.5	0.	126.01
2533	0.5	1.25	0.	125.87
2534	-5.5	-5.75	0.	125.38
2535	-5.75	-5.5	0.	125.25
2536	-5.5	-5.25	0.	125.28
2537	-4.	-5.25	0.	125.93
2538	-3.75	-5.5	0.	126.17
2539	-4.	-5.75	0.	126.04
2540	-4.	-1.75	0.	125.88
2541	-3.75	-1.5	0.	126.12
2542	-2.25	4.227e-011	0.	125.89
2543	-2.5	-0.25	0.	126.1
2544	1.	3.25	0.	126.49
2545	1.25	3.5	0.	126.58
2546	1.	0.75	0.	126.08
2547	1.	1.25	0.	126.08
2548	1.25	1.	0.	126.18
2549	0.75	1.	0.	125.94
2550	-3.5	-5.75	0.	126.33
2551	-3.25	-6.	0.	126.43
2552	-3.5	-6.25	0.	126.28
2553	-3.75	-6.	0.	126.2
2554	-3.5	-1.25	0.	126.26
2555	-3.25	-1.	0.	126.36
2556	-2.75	-0.5	0.	126.23
2557	-3.	-0.75	0.	126.36
2558	1.5	3.75	0.	126.55
2559	1.75	4.	0.	126.41
2560	2.75	5.	0.	125.02
2561	2.5	4.75	0.	125.44
2562	2.5	5.25	0.	125.07
2563	2.25	4.5	0.	125.79
2564	2.	4.25	0.	126.18
2565	-6.	5.75	0.	125.08
2566	-5.75	6.	0.	125.1
2567	-6.25	6.	0.	125.06
2568	-6.	6.25	0.	125.07
2569	1.25	0.5	0.	126.28
2570	1.	0.25	0.	126.2
2571	0.75	0.5	0.	125.97
2572	-4.25	-4.5	0.	125.54
2573	-4.5	-4.25	0.	125.37
2574	-4.5	-2.75	0.	125.35
2575	-4.25	-2.5	0.	125.52
2576	-4.25	-3.	0.	125.36
2577	-1.25	0.5	0.	125.5
2578	-1.	0.25	0.	125.38
2579	-1.	0.75	0.	125.48
2580	-1.5	0.25	0.	125.55
2581	-1.257e-012	0.25	0.	125.54
2582	0.25	0.5	0.	125.7
2583	0.75	2.	0.	126.16
2584	0.5	2.25	0.	126.11
2585	-4.75	-6.	0.	125.72
2586	-4.5	-6.25	0.	125.85
2587	-4.25	-6.	0.	125.95
2588	-5.25	-6.	0.	125.52
2589	-5.	-6.25	0.	125.64
2590	-5.5	-6.25	0.	125.45
2591	-5.75	-6.	0.	125.33
2592	-6.25	-5.5	0.	125.09
2593	-6.	-5.25	0.	125.12
2594	-6.	-5.75	0.	125.2
2595	-6.	-4.25	0.	124.98
2596	-6.25	-4.5	0.	124.94
2597	-6.	-4.75	0.	125.04
2598	-6.	-3.75	0.	124.94
2599	-6.25	-4.	0.	124.89
2600	-6.25	-3.5	0.	124.87
2601	-6.	-3.25	0.	124.93
2602	-6.25	-2.5	0.	124.91
2603	-6.	-2.25	0.	125.
2604	-6.	-2.75	0.	124.95
2605	-6.	-1.75	0.	125.06
2606	-6.	-1.25	0.	125.12
2607	-6.25	-1.5	0.	125.01
2608	-6.25	-0.5	0.	125.11
2609	-6.	-0.75	0.	125.16
2610	-6.	-0.25	0.	125.2
2611	-6.	0.75	0.	125.22
2612	-6.25	0.5	0.	125.15
2613	-6.	0.25	0.	125.21
2614	-6.	1.25	0.	125.21
2615	-6.25	1.	0.	125.15
2616	-5.75	1.	0.	125.28
2617	-6.	1.75	0.	125.2
2618	-6.25	1.5	0.	125.15
2619	-6.	2.25	0.	125.18
2620	-6.25	2.	0.	125.14
2621	-6.25	2.5	0.	125.13
2622	-6.	2.75	0.	125.17
2623	-6.25	3.5	0.	125.11
2624	-6.	3.75	0.	125.14
2625	-6.	3.25	0.	125.15
2626	-6.25	4.5	0.	125.08
2627	-6.	4.25	0.	125.12
2628	-6.	4.75	0.	125.11
2629	-6.25	5.5	0.	125.07
2630	-5.75	5.5	0.	125.11
2631	-6.	5.25	0.	125.1
2632	-5.25	6.	0.	125.14
2633	-5.5	6.25	0.	125.11
2634	-5.5	5.75	0.	125.13
2635	-5.	6.25	0.	125.15
2636	-4.75	6.	0.	125.17
2637	-4.	6.25	0.	125.21
2638	-3.75	6.	0.	125.24
2639	-4.25	6.	0.	125.21
2640	-3.	6.25	0.	125.27
2641	-3.25	6.	0.	125.28
2642	-2.75	6.	0.	125.31
2643	-1.75	6.	0.	125.36
2644	-2.	6.25	0.	125.31
2645	-2.25	6.	0.	125.33
2646	-1.25	6.	0.	125.38
2647	-1.5	5.75	0.	125.41
2648	-1.5	6.25	0.	125.33
2649	-0.75	6.	0.	125.39
2650	-1.	6.25	0.	125.34
2651	-0.25	6.	0.	125.38
2652	-0.5	6.25	0.	125.33
2653	0.25	6.	0.	125.35
2654	-1.2751e-010	6.25	0.	125.31
2655	0.75	6.	0.	125.29
2656	0.5	6.25	0.	125.25
2657	1.	6.25	0.	125.16
2658	1.25	6.	0.	125.18
2659	2.25	6.	0.	124.8
2660	2.	6.25	0.	124.85
2661	1.75	6.	0.	125.02
2662	-4.	-4.75	0.	125.75
2663	-3.75	-5.	0.	126.03
2664	-3.75	-2.	0.	126.01
2665	-4.	-2.25	0.	125.72
2666	-4.	-3.25	0.	125.39
2667	-3.75	-3.5	0.	125.41
2668	-4.	-3.75	0.	125.39
2669	-1.75	5.4585e-011	0.	125.67
2670	-2.	-0.25	0.	125.9
2671	-0.75	6.8899e-011	0.	125.3
2672	-0.25	7.1046e-011	0.	125.4
2673	-0.5	-0.25	0.	125.15
2674	1.25	3.	0.	126.68
2675	1.	2.75	0.	126.48
2676	1.	1.75	0.	126.2
2677	1.25	1.5	0.	126.24
2678	2.5	6.25	0.	124.62
2679	2.5	5.75	0.	124.79
2680	2.75	6.	0.	124.55
2681	-5.75	-6.5	0.	125.39
2682	-6.25	-6.5	0.	125.21
2683	-6.	-6.75	0.	125.32
2684	-6.	-6.25	0.	125.27
2685	-2.75	-6.5	0.	126.34
2686	-2.25	-6.5	0.	126.2
2687	-2.5	-6.25	0.	126.47
2688	-2.5	-6.75	0.	126.22
2689	-3.5	-5.25	0.	126.27
2690	-3.25	-5.5	0.	126.52
2691	-3.5	-1.75	0.	126.24
2692	-3.25	-1.5	0.	126.48
2693	-2.25	-0.5	0.	126.11
2694	-2.5	-0.75	0.	126.4
2695	1.5	3.25	0.	126.77
2696	1.75	3.5	0.	126.79
2697	1.5	0.75	0.	126.38
2698	1.75	1.	0.	126.49
2699	1.5	1.25	0.	126.34
2700	3.25	5.	0.	124.6
2701	3.	5.25	0.	124.7
2702	3.	4.75	0.	124.95
2703	2.5	4.25	0.	125.92
2704	2.75	4.5	0.	125.36
2705	-6.5	5.75	0.	125.04
2706	-6.5	6.25	0.	125.04
2707	-6.75	6.	0.	125.02
2708	-5.75	6.5	0.	125.09
2709	-6.25	6.5	0.	125.05
2710	-6.	6.75	0.	125.07
2711	-3.	-6.25	0.	126.45
2712	-2.75	-6.	0.	126.59
2713	-3.	-5.75	0.	126.62
2714	-3.	-1.25	0.	126.58
2715	-2.75	-1.	0.	126.53
2716	2.	3.75	0.	126.65
2717	2.25	4.	0.	126.3
2718	1.5	0.25	0.	126.57
2719	1.75	0.5	0.	126.69
2720	0.75	7.2181e-011	0.	126.09
2721	1.25	7.1303e-011	0.	126.48
2722	1.	-0.25	0.	126.43
2723	-3.75	-4.5	0.	125.78
2724	-4.	-4.25	0.	125.54
2725	-3.75	-3.	0.	125.52
2726	-4.	-2.75	0.	125.53
2727	-1.25	6.3757e-011	0.	125.43
2728	-1.	-0.25	0.	125.21
2729	-1.5	-0.25	0.	125.54
2730	0.25	7.2156e-011	0.	125.7
2731	0.5	-0.25	0.	125.98
2732	0.5	0.25	0.	125.86
2733	-1.4361e-012	-0.25	0.	125.47
2734	1.25	2.	0.	126.42
2735	1.	2.25	0.	126.36
2736	-3.25	-6.5	0.	126.3
2737	-3.	-6.75	0.	126.26
2738	-3.5	-6.75	0.	126.19
2739	-3.75	-6.5	0.	126.15
2740	-4.75	-6.5	0.	125.77
2741	-4.5	-6.75	0.	125.86
2742	-4.25	-6.5	0.	125.96
2743	-5.25	-6.5	0.	125.57
2744	-5.	-6.75	0.	125.68
2745	-5.5	-6.75	0.	125.5
2746	-6.5	-5.75	0.	125.04
2747	-6.5	-6.25	0.	125.1
2748	-6.75	-6.	0.	124.99
2749	-6.25	-6.	0.	125.16
2750	-6.75	-5.5	0.	124.93
2751	-6.5	-5.25	0.	124.97
2752	-6.75	-4.5	0.	124.82
2753	-6.5	-4.25	0.	124.86
2754	-6.5	-4.75	0.	124.91
2755	-6.75	-3.5	0.	124.76
2756	-6.5	-3.75	0.	124.83
2757	-6.5	-3.25	0.	124.82
2758	-6.75	-2.5	0.	124.79
2759	-6.5	-2.25	0.	124.87
2760	-6.5	-2.75	0.	124.83
2761	-6.5	-0.25	0.	125.04
2762	-6.75	-0.5	0.	124.95
2763	-6.5	-0.75	0.	125.01
2764	-6.5	0.25	0.	125.06
2765	-6.25	-5.6799e-012	0.	125.13
2766	-6.75	-5.235e-012	0.	124.98
2767	-6.5	0.75	0.	125.08
2768	-6.75	0.5	0.	125.
2769	-6.5	1.25	0.	125.08
2770	-6.75	1.	0.	125.02
2771	-6.5	1.75	0.	125.08
2772	-6.75	1.5	0.	125.03
2773	-6.5	2.25	0.	125.08
2774	-6.75	2.	0.	125.03
2775	-6.75	2.5	0.	125.03
2776	-6.5	2.75	0.	125.08
2777	-6.75	3.5	0.	125.03
2778	-6.5	3.75	0.	125.06
2779	-6.5	3.25	0.	125.07
2780	-6.5	4.75	0.	125.05
2781	-6.75	4.5	0.	125.02
2782	-6.5	4.25	0.	125.06
2783	-6.5	5.25	0.	125.04
2784	-6.75	5.	0.	125.02
2785	-6.25	5.	0.	125.07
2786	-6.75	5.5	0.	125.02
2787	-5.25	6.5	0.	125.12
2788	-5.5	6.75	0.	125.1
2789	-4.75	6.5	0.	125.15
2790	-5.	6.75	0.	125.13
2791	-4.25	6.5	0.	125.18
2792	-4.5	6.75	0.	125.15
2793	-4.5	6.25	0.	125.18
2794	-4.	6.75	0.	125.18
2795	-3.75	6.5	0.	125.21
2796	-3.	6.75	0.	125.22
2797	-3.25	6.5	0.	125.23
2798	-2.75	6.5	0.	125.25
2799	-2.	6.75	0.	125.25
2800	-2.25	6.5	0.	125.27
2801	-1.75	6.5	0.	125.28
2802	-0.75	6.5	0.	125.28
2803	-1.	6.75	0.	125.24
2804	-1.25	6.5	0.	125.29
2805	-0.25	6.5	0.	125.25
2806	-0.5	6.75	0.	125.22
2807	0.25	6.5	0.	125.21
2808	-1.1374e-010	6.75	0.	125.18
2809	0.75	6.5	0.	125.13
2810	0.5	6.75	0.	125.12
2811	1.	6.75	0.	125.02
2812	1.25	6.5	0.	125.01
2813	2.	6.75	0.	124.73
2814	2.25	6.5	0.	124.66
2815	1.75	6.5	0.	124.85
2816	3.25	6.5	0.	124.28
2817	3.	6.75	0.	124.41
2818	2.75	6.5	0.	124.46
2819	3.	6.25	0.	124.39
2820	-6.75	-6.5	0.	125.05
2821	-6.5	-6.75	0.	125.15
2822	-2.	-6.75	0.	126.
2823	-2.	-6.25	0.	126.23
2824	-1.75	-6.5	0.	125.86
2825	-0.25	-6.5	0.	125.47
2826	-0.75	-6.5	0.	125.22
2827	-0.5	-6.75	0.	125.29
2828	-0.5	-6.25	0.	124.92
2829	-3.5	-4.75	0.	126.06
2830	-3.25	-5.	0.	126.44
2831	-3.25	-2.	0.	126.44
2832	-3.5	-2.25	0.	126.06
2833	-3.5	-3.75	0.	125.54
2834	-3.5	-3.25	0.	125.54
2835	-3.25	-3.5	0.	125.54
2836	-1.75	-0.5	0.	125.77
2837	-2.	-0.75	0.	126.17
2838	-0.75	-0.5	0.	125.06
2839	-0.25	-0.5	0.	125.22
2840	-0.5	-0.75	0.	124.74
2841	1.75	3.	0.	127.03
2842	1.5	2.75	0.	126.82
2843	3.5	5.25	0.	124.36
2844	3.75	5.	0.	124.27
2845	3.5	4.75	0.	124.35
2846	-6.75	6.5	0.	125.02
2847	-6.5	6.75	0.	125.04
2848	-2.25	-6.	0.	126.5
2849	-2.5	-5.75	0.	126.82
2850	-3.	-5.25	0.	126.69
2851	-2.75	-5.5	0.	126.86
2852	-3.	-1.75	0.	126.69
2853	-2.75	-1.5	0.	126.86
2854	-2.25	-1.	0.	126.46
2855	-2.5	-1.25	0.	126.81
2856	5.5	-6.25	0.	125.86
2857	5.25	-6.5	0.	125.79
2858	5.5	-6.75	0.	125.88
2859	5.75	-6.5	0.	126.26
2860	2.	3.25	0.	127.05
2861	2.25	3.5	0.	126.88
2862	2.75	4.	0.	125.84
2863	2.5	3.75	0.	126.53
2864	3.5	6.75	0.	124.31
2865	3.75	6.5	0.	124.17
2866	3.5	6.25	0.	124.2
2867	5.75	-6.	0.	126.05
2868	5.5	-5.75	0.	125.48
2869	5.25	-6.	0.	125.67
2870	6.	-5.75	0.	126.03
2871	5.75	-5.5	0.	125.46
2872	6.	-5.25	0.	125.41
2873	6.25	-5.5	0.	125.97
2874	1.5	-0.25	0.	126.75
2875	1.75	6.6446e-011	0.	126.98
2876	1.25	-0.5	0.	126.7
2877	1.	-0.75	0.	126.87
2878	0.75	-0.5	0.	126.33
2879	2.	0.75	0.	126.8
2880	2.25	1.	0.	126.97
2881	2.	1.25	0.	126.67
2882	-7.	-6.25	0.	124.94
2883	-7.	-6.75	0.	124.99
2884	-7.25	-6.5	0.	124.89
2885	0.25	-6.5	0.	126.05
2886	1.1064e-010	-6.25	0.	125.68
2887	9.3313e-011	-6.75	0.	125.61
2888	6.25	-5.	0.	125.25
2889	6.5	-5.25	0.	125.81
2890	6.75	-5.	0.	125.36
2891	6.5	-4.75	0.	125.15
2892	5.	-6.75	0.	125.5
2893	5.	-6.25	0.	125.59
2894	4.75	-6.5	0.	125.52
2895	-1.	-6.25	0.	125.01
2896	-1.25	-6.5	0.	125.44
2897	-1.	-6.75	0.	125.32
2898	-3.5	-4.25	0.	125.76
2899	-3.25	-4.	0.	125.74
2900	-3.75	-4.	0.	125.52
2901	-3.25	-4.5	0.	126.14
2902	-3.25	-3.	0.	125.75
2903	-3.5	-2.75	0.	125.77
2904	-1.25	-0.5	0.	125.32
2905	-1.	-0.75	0.	124.92
2906	-1.5	-0.75	0.	125.59
2907	-1.2593e-012	-0.75	0.	125.34
2908	0.25	-0.5	0.	125.75
2909	1.75	2.	0.	126.77
2910	1.5	1.75	0.	126.47
2911	1.5	2.25	0.	126.68
2912	3.75	5.5	0.	124.31
2913	3.25	5.5	0.	124.46
2914	3.5	5.75	0.	124.26
2915	4.75	-7.	0.	125.17
2916	5.25	-7.	0.	125.6
2917	5.	-7.25	0.	125.27
2918	4.25	-7.	0.	124.62
2919	4.5	-6.75	0.	125.19
2920	4.5	-7.25	0.	124.8
2921	0.75	-7.	0.	125.44
2922	0.5	-6.75	0.	126.
2923	0.5	-7.25	0.	125.33
2924	0.25	-7.	0.	125.56
2925	-0.5	-7.25	0.	125.33
2926	-0.75	-7.	0.	125.38
2927	-0.25	-7.	0.	125.43
2928	-1.75	-7.	0.	125.78
2929	-1.5	-7.25	0.	125.62
2930	-1.5	-6.75	0.	125.64
2931	-1.25	-7.	0.	125.52
2932	-2.25	-7.	0.	126.01
2933	-2.	-7.25	0.	125.86
2934	-2.75	-7.	0.	126.14
2935	-2.5	-7.25	0.	126.04
2936	-3.25	-7.	0.	126.16
2937	-3.	-7.25	0.	126.11
2938	-3.75	-7.	0.	126.08
2939	-3.5	-7.25	0.	126.08
2940	-4.25	-7.	0.	125.94
2941	-4.	-7.25	0.	125.99
2942	-4.	-6.75	0.	126.04
2943	-4.75	-7.	0.	125.78
2944	-4.5	-7.25	0.	125.85
2945	-5.25	-7.	0.	125.61
2946	-5.	-7.25	0.	125.69
2947	-5.5	-7.25	0.	125.53
2948	-5.75	-7.	0.	125.43
2949	-6.75	-7.	0.	125.09
2950	-6.5	-7.25	0.	125.19
2951	-6.25	-7.	0.	125.26
2952	-7.	-5.75	0.	124.89
2953	-7.25	-6.	0.	124.84
2954	-7.25	-5.5	0.	124.78
2955	-7.	-5.25	0.	124.83
2956	-7.25	-4.5	0.	124.69
2957	-7.	-4.75	0.	124.78
2958	-7.	-4.25	0.	124.74
2959	-7.	-3.25	0.	124.7
2960	-7.25	-3.5	0.	124.64
2961	-7.	-3.75	0.	124.71
2962	-7.	-2.75	0.	124.71
2963	-7.25	-3.	0.	124.64
2964	-6.75	-3.	0.	124.76
2965	-7.	-2.25	0.	124.74
2966	-7.25	-2.5	0.	124.66
2967	-7.	-1.75	0.	124.78
2968	-7.25	-2.	0.	124.69
2969	-6.75	-2.	0.	124.82
2970	-7.25	-1.5	0.	124.73
2971	-6.75	-1.5	0.	124.87
2972	-7.	-1.25	0.	124.82
2973	-7.25	-0.5	0.	124.8
2974	-7.	-0.25	0.	124.89
2975	-7.	-0.75	0.	124.86
2976	-7.25	0.5	0.	124.86
2977	-7.	0.25	0.	124.92
2978	-7.	0.75	0.	124.94
2979	-7.	1.75	0.	124.97
2980	-7.25	1.5	0.	124.9
2981	-7.	1.25	0.	124.96
2982	-7.	2.25	0.	124.98
2983	-7.25	2.	0.	124.92
2984	-7.25	2.5	0.	124.93
2985	-7.	2.75	0.	124.98
2986	-7.25	3.5	0.	124.94
2987	-7.	3.25	0.	124.98
2988	-7.	3.75	0.	124.99
2989	-7.	4.75	0.	124.99
2990	-7.25	4.5	0.	124.96
2991	-7.	4.25	0.	124.99
2992	-7.	5.25	0.	124.99
2993	-7.25	5.	0.	124.96
2994	-7.	5.75	0.	125.
2995	-7.25	5.5	0.	124.97
2996	-7.	6.25	0.	125.
2997	-7.25	6.	0.	124.98
2998	-7.	6.75	0.	125.
2999	-7.25	6.5	0.	124.99
3000	-5.75	7.	0.	125.08
3001	-6.	7.25	0.	125.06
3002	-6.25	7.	0.	125.05
3003	-5.25	7.	0.	125.1
3004	-5.5	7.25	0.	125.09
3005	-4.75	7.	0.	125.13
3006	-5.	7.25	0.	125.11
3007	-4.25	7.	0.	125.15
3008	-4.5	7.25	0.	125.13
3009	-4.	7.25	0.	125.15
3010	-3.75	7.	0.	125.17
3011	-2.75	7.	0.	125.2
3012	-3.	7.25	0.	125.18
3013	-3.25	7.	0.	125.19
3014	-2.25	7.	0.	125.21
3015	-2.5	7.25	0.	125.19
3016	-2.5	6.75	0.	125.24
3017	-2.	7.25	0.	125.19
3018	-1.75	7.	0.	125.22
3019	-0.75	7.	0.	125.19
3020	-1.	7.25	0.	125.17
3021	-1.25	7.	0.	125.21
3022	-0.25	7.	0.	125.15
3023	-0.5	7.25	0.	125.14
3024	0.25	7.	0.	125.09
3025	-9.245e-011	7.25	0.	125.09
3026	0.75	7.	0.	125.01
3027	0.5	7.25	0.	125.02
3028	1.	7.25	0.	124.93
3029	1.25	7.	0.	124.9
3030	2.25	7.	0.	124.63
3031	2.	7.25	0.	124.7
3032	1.75	7.	0.	124.77
3033	2.75	7.	0.	124.51
3034	2.5	7.25	0.	124.6
3035	2.5	6.75	0.	124.56
3036	3.25	7.	0.	124.44
3037	3.	7.25	0.	124.54
3038	-2.	-5.75	0.	126.67
3039	-1.75	-6.	0.	126.02
3040	-3.	-4.75	0.	126.52
3041	-2.75	-5.	0.	127.
3042	-2.75	-2.	0.	127.04
3043	-3.	-2.25	0.	126.55
3044	-3.	-3.25	0.	125.75
3045	-2.75	-3.5	0.	125.76
3046	-3.	-3.75	0.	125.74
3047	-1.75	-1.	0.	125.99
3048	-2.	-1.25	0.	126.68
3049	-0.75	-1.	0.	124.6
3050	-0.25	-1.	0.	124.86
3051	-0.5	-1.25	0.	123.89
3052	5.75	-7.	0.	126.12
3053	5.5	-7.25	0.	125.72
3054	6.25	-6.	0.	126.69
3055	6.	-6.25	0.	126.45
3056	1.	-7.25	0.	124.94
3057	1.	-6.75	0.	125.88
3058	1.25	-7.	0.	124.75
3059	2.25	-7.	0.	122.27
3060	2.75	-7.	0.	121.96
3061	2.5	-7.25	0.	122.14
3062	2.5	-6.75	0.	121.18
3063	4.	-6.75	0.	124.62
3064	3.75	-7.	0.	123.75
3065	4.	-7.25	0.	124.14
3066	2.25	3.	0.	127.39
3067	2.	2.75	0.	127.23
3068	4.75	4.	0.	121.78
3069	4.5	3.75	0.	120.71
3070	4.5	4.25	0.	122.52
3071	4.25	4.	0.	122.21
3072	3.25	4.	0.	124.86
3073	3.	3.75	0.	125.89
3074	3.	4.25	0.	125.29
3075	4.	5.25	0.	124.23
3076	4.25	5.	0.	124.27
3077	4.	4.75	0.	123.88
3078	3.5	7.25	0.	124.59
3079	3.75	7.	0.	124.49
3080	4.25	6.5	0.	124.23
3081	4.	6.25	0.	124.14
3082	4.	6.75	0.	124.34
3083	7.	2.75	0.	124.5
3084	7.25	3.	0.	124.9
3085	6.75	3.	0.	124.46
3086	7.	3.25	0.	124.38
3087	5.5	-5.25	0.	124.77
3088	5.25	-5.5	0.	125.06
3089	5.75	-5.	0.	124.72
3090	6.	-4.75	0.	124.93
3091	1.5	-0.75	0.	126.88
3092	1.75	-0.5	0.	127.02
3093	1.25	-1.	0.	127.04
3094	1.	-1.25	0.	127.8
3095	0.75	-1.	0.	126.82
3096	2.25	0.5	0.	127.33
3097	2.	0.25	0.	127.1
3098	-2.5	-5.25	0.	127.17
3099	-2.25	-5.5	0.	126.99
3100	-2.25	-1.5	0.	127.02
3101	-2.5	-1.75	0.	127.21
3102	2.75	3.5	0.	126.58
3103	2.5	3.25	0.	127.22
3104	-7.25	7.	0.	124.99
3105	-7.	7.25	0.	125.01
3106	-6.75	7.	0.	125.02
3107	-7.	-7.25	0.	125.03
3108	-7.25	-7.	0.	124.93
3109	6.5	3.75	0.	123.08
3110	6.25	4.	0.	122.42
3111	6.75	4.	0.	123.04
3112	6.5	4.25	0.	121.78
3113	0.5	-6.25	0.	126.83
3114	0.75	-6.5	0.	126.44
3115	-0.75	-6.	0.	124.71
3116	-0.25	-6.	0.	125.13
3117	-0.5	-5.75	0.	123.93
3118	7.	-4.75	0.	125.07
3119	6.75	-4.5	0.	124.85
3120	7.	-4.25	0.	124.61
3121	7.25	-4.5	0.	124.83
3122	6.75	-5.5	0.	126.19
3123	6.5	-5.75	0.	126.63
3124	7.	-5.25	0.	125.73
3125	7.25	-5.	0.	124.99
3126	6.5	3.25	0.	123.99
3127	6.25	3.5	0.	123.44
3128	6.75	3.5	0.	123.91
3129	6.25	-4.5	0.	124.83
3130	6.5	-4.25	0.	124.57
3131	4.75	-6.	0.	125.67
3132	5.	-5.75	0.	125.26
3133	4.5	-6.25	0.	125.6
3134	4.25	-6.5	0.	125.19
3135	2.5	0.75	0.	127.49
3136	2.75	1.	0.	127.94
3137	2.5	1.25	0.	127.24
3138	-1.	-5.75	0.	124.41
3139	-1.25	-6.	0.	125.23
3140	-2.75	-4.5	0.	126.74
3141	-3.	-4.25	0.	126.11
3142	-2.75	-3.	0.	126.13
3143	-3.	-2.75	0.	126.14
3144	-1.25	-1.	0.	125.18
3145	-1.	-1.25	0.	124.43
3146	-1.5	-1.25	0.	125.81
3147	-1.0195e-012	-1.25	0.	125.09
3148	0.25	-1.	0.	125.87
3149	6.	-7.25	0.	126.3
3150	6.25	-7.	0.	126.85
3151	6.	-6.75	0.	126.49
3152	2.	-7.25	0.	122.86
3153	2.	-6.75	0.	122.57
3154	1.75	-7.	0.	123.48
3155	3.	-7.25	0.	122.36
3156	3.	-6.75	0.	121.74
3157	3.25	-7.	0.	122.66
3158	5.	4.25	0.	122.58
3159	5.	3.75	0.	121.13
3160	5.25	4.	0.	122.03
3161	2.25	2.	0.	127.23
3162	2.	1.75	0.	126.82
3163	2.	2.25	0.	127.1
3164	3.5	3.75	0.	124.32
3165	3.5	4.25	0.	124.26
3166	3.75	4.	0.	123.45
3167	6.	3.75	0.	122.79
3168	6.	4.25	0.	121.95
3169	5.75	4.	0.	122.28
3170	4.25	5.5	0.	124.54
3171	4.	5.75	0.	124.22
3172	7.25	2.5	0.	124.85
3173	7.	2.25	0.	124.15
3174	6.75	2.5	0.	124.42
3175	5.25	-5.	0.	124.03
3176	5.5	-4.75	0.	124.1
3177	1.75	-1.	0.	126.68
3178	1.5	-1.25	0.	127.13
3179	2.75	0.5	0.	128.16
3180	2.5	0.25	0.	128.01
3181	3.	0.75	0.	128.61
3182	3.	1.25	0.	128.3
3183	3.25	1.	0.	130.67
3184	4.5	-5.75	0.	125.62
3185	4.25	-6.	0.	125.96
3186	2.	-0.25	0.	127.24
3187	2.25	5.7024e-011	0.	127.79
3188	2.	-0.75	0.	126.82
3189	2.25	-0.5	0.	127.78
3190	2.	-1.25	0.	125.74
3191	2.25	-1.	0.	126.63
3192	5.	-5.25	0.	124.33
3193	4.75	-5.5	0.	125.21
3194	5.	-4.75	0.	122.93
3195	4.75	-5.	0.	123.89
3196	5.75	-4.5	0.	124.31
3197	6.	-4.25	0.	124.94
3198	7.5	3.25	0.	125.2
3199	7.5	3.75	0.	125.11
3200	7.75	3.5	0.	125.66
3201	7.25	3.5	0.	124.67
3202	7.5	2.75	0.	125.25
3203	7.75	3.	0.	125.7
3204	7.5	2.25	0.	125.26
3205	7.75	2.5	0.	125.75
3206	7.25	2.	0.	124.56
3207	7.5	1.75	0.	125.48
3208	7.75	2.	0.	125.94
3209	6.75	2.	0.	123.65
3210	7.	1.75	0.	123.46
3211	6.5	2.75	0.	124.38
3212	6.25	3.	0.	124.46
3213	7.25	-5.5	0.	125.55
3214	7.	-5.75	0.	126.9
3215	6.75	-4.	0.	124.33
3216	6.5	-3.75	0.	123.56
3217	6.25	-4.	0.	124.68
3218	7.25	-4.	0.	124.77
3219	7.	-3.75	0.	124.02
3220	7.5	-4.25	0.	124.98
3221	7.5	-3.75	0.	125.43
3222	7.75	-4.	0.	125.46
3223	7.5	-4.75	0.	124.75
3224	7.75	-4.5	0.	124.83
3225	7.5	-5.25	0.	124.81
3226	7.75	-5.	0.	124.27
3227	0.25	-6.	0.	126.46
3228	1.1263e-010	-5.75	0.	125.34
3229	0.5	-5.75	0.	127.65
3230	0.75	-6.	0.	127.86
3231	7.25	4.	0.	124.3
3232	7.	3.75	0.	123.87
3233	7.	4.25	0.	123.12
3234	7.5	4.25	0.	125.17
3235	7.75	4.	0.	125.72
3236	4.5	5.25	0.	124.58
3237	4.75	5.	0.	124.72
3238	4.5	4.75	0.	123.84
3239	5.	4.75	0.	124.19
3240	5.25	4.5	0.	123.09
3241	4.75	4.5	0.	123.3
3242	4.5	6.75	0.	124.64
3243	4.75	6.5	0.	124.4
3244	4.5	6.25	0.	124.36
3245	5.75	-7.5	0.	125.91
3246	6.25	-7.5	0.	126.63
3247	6.	-7.75	0.	126.19
3248	5.25	-7.5	0.	125.39
3249	5.5	-7.75	0.	125.62
3250	4.75	-7.5	0.	124.9
3251	5.	-7.75	0.	125.12
3252	4.5	-7.75	0.	124.59
3253	4.25	-7.5	0.	124.32
3254	3.25	-7.5	0.	122.92
3255	3.5	-7.75	0.	123.29
3256	3.5	-7.25	0.	123.23
3257	3.75	-7.5	0.	123.61
3258	2.75	-7.5	0.	122.54
3259	3.	-7.75	0.	122.77
3260	2.25	-7.5	0.	122.73
3261	2.5	-7.75	0.	122.67
3262	2.	-7.75	0.	123.06
3263	1.75	-7.5	0.	123.41
3264	0.75	-7.5	0.	124.82
3265	1.	-7.75	0.	124.42
3266	1.25	-7.5	0.	124.22
3267	0.25	-7.5	0.	125.13
3268	0.5	-7.75	0.	124.85
3269	-0.25	-7.5	0.	125.25
3270	4.7095e-011	-7.75	0.	125.08
3271	6.9389e-011	-7.25	0.	125.36
3272	-0.75	-7.5	0.	125.35
3273	-0.5	-7.75	0.	125.22
3274	-1.25	-7.5	0.	125.5
3275	-1.	-7.75	0.	125.37
3276	-1.	-7.25	0.	125.41
3277	-1.75	-7.5	0.	125.7
3278	-1.5	-7.75	0.	125.56
3279	-2.25	-7.5	0.	125.88
3280	-2.	-7.75	0.	125.75
3281	-2.75	-7.5	0.	126.
3282	-2.5	-7.75	0.	125.9
3283	-3.25	-7.5	0.	126.03
3284	-3.	-7.75	0.	125.98
3285	-3.75	-7.5	0.	125.99
3286	-3.5	-7.75	0.	125.98
3287	-4.25	-7.5	0.	125.9
3288	-4.	-7.75	0.	125.93
3289	-4.75	-7.5	0.	125.77
3290	-4.5	-7.75	0.	125.82
3291	-5.25	-7.5	0.	125.62
3292	-5.	-7.75	0.	125.69
3293	-5.75	-7.5	0.	125.46
3294	-5.5	-7.75	0.	125.54
3295	-6.25	-7.5	0.	125.29
3296	-6.	-7.75	0.	125.38
3297	-6.	-7.25	0.	125.36
3298	-6.75	-7.5	0.	125.13
3299	-6.5	-7.75	0.	125.22
3300	-7.25	-7.5	0.	124.96
3301	-7.	-7.75	0.	125.06
3302	-7.75	-7.5	0.	124.81
3303	-7.5	-7.25	0.	124.87
3304	-7.5	-7.75	0.	124.9
3305	-7.5	-6.25	0.	124.78
3306	-7.75	-6.5	0.	124.73
3307	-7.5	-6.75	0.	124.83
3308	-7.5	-5.75	0.	124.73
3309	-7.75	-6.	0.	124.68
3310	-7.75	-5.5	0.	124.64
3311	-7.5	-5.25	0.	124.69
3312	-7.5	-4.25	0.	124.61
3313	-7.75	-4.5	0.	124.55
3314	-7.5	-4.75	0.	124.64
3315	-7.5	-3.75	0.	124.59
3316	-7.75	-4.	0.	124.53
3317	-7.25	-4.	0.	124.66
3318	-7.5	-3.25	0.	124.58
3319	-7.75	-3.5	0.	124.51
3320	-7.5	-2.75	0.	124.59
3321	-7.75	-3.	0.	124.51
3322	-7.5	-2.25	0.	124.61
3323	-7.75	-2.5	0.	124.53
3324	-7.5	-1.75	0.	124.64
3325	-7.75	-2.	0.	124.55
3326	-7.5	-1.25	0.	124.67
3327	-7.75	-1.5	0.	124.58
3328	-7.5	-0.75	0.	124.71
3329	-7.75	-1.	0.	124.62
3330	-7.25	-1.	0.	124.77
3331	-7.5	-0.25	0.	124.75
3332	-7.75	-0.5	0.	124.66
3333	-7.5	0.25	0.	124.78
3334	-7.75	-2.4185e-012	0.	124.69
3335	-7.25	-3.8575e-012	0.	124.84
3336	-7.5	0.75	0.	124.81
3337	-7.75	0.5	0.	124.73
3338	-7.5	1.25	0.	124.83
3339	-7.75	1.	0.	124.76
3340	-7.25	1.	0.	124.89
3341	-7.5	1.75	0.	124.85
3342	-7.75	1.5	0.	124.78
3343	-7.5	2.25	0.	124.87
3344	-7.75	2.	0.	124.81
3345	-7.5	2.75	0.	124.88
3346	-7.75	2.5	0.	124.83
3347	-7.75	3.	0.	124.85
3348	-7.5	3.25	0.	124.9
3349	-7.25	3.	0.	124.94
3350	-7.5	4.25	0.	124.92
3351	-7.75	4.	0.	124.88
3352	-7.5	3.75	0.	124.91
3353	-7.25	4.	0.	124.95
3354	-7.5	4.75	0.	124.93
3355	-7.75	4.5	0.	124.9
3356	-7.5	5.25	0.	124.94
3357	-7.75	5.	0.	124.91
3358	-7.5	5.75	0.	124.95
3359	-7.75	5.5	0.	124.92
3360	-7.5	6.25	0.	124.96
3361	-7.75	6.	0.	124.94
3362	-7.5	6.75	0.	124.97
3363	-7.75	6.5	0.	124.95
3364	-7.5	7.25	0.	124.99
3365	-7.75	7.	0.	124.97
3366	-7.25	7.5	0.	125.
3367	-7.75	7.5	0.	124.98
3368	-7.5	7.75	0.	125.
3369	-6.75	7.5	0.	125.03
3370	-7.	7.75	0.	125.02
3371	-6.25	7.5	0.	125.05
3372	-6.5	7.75	0.	125.04
3373	-6.5	7.25	0.	125.04
3374	-5.75	7.5	0.	125.07
3375	-6.	7.75	0.	125.06
3376	-5.25	7.5	0.	125.09
3377	-5.5	7.75	0.	125.08
3378	-4.75	7.5	0.	125.11
3379	-5.	7.75	0.	125.1
3380	-4.25	7.5	0.	125.13
3381	-4.5	7.75	0.	125.11
3382	-4.	7.75	0.	125.13
3383	-3.75	7.5	0.	125.14
3384	-2.75	7.5	0.	125.16
3385	-3.	7.75	0.	125.15
3386	-3.25	7.5	0.	125.16
3387	-2.5	7.75	0.	125.15
3388	-2.25	7.5	0.	125.17
3389	-1.25	7.5	0.	125.15
3390	-1.5	7.75	0.	125.13
3391	-1.75	7.5	0.	125.16
3392	-1.5	7.25	0.	125.18
3393	-0.75	7.5	0.	125.12
3394	-1.	7.75	0.	125.11
3395	-0.25	7.5	0.	125.08
3396	-0.5	7.75	0.	125.08
3397	0.25	7.5	0.	125.02
3398	-6.9644e-011	7.75	0.	125.03
3399	0.75	7.5	0.	124.94
3400	0.5	7.75	0.	124.97
3401	1.25	7.5	0.	124.85
3402	1.	7.75	0.	124.89
3403	1.75	7.5	0.	124.75
3404	1.5	7.75	0.	124.8
3405	1.5	7.25	0.	124.82
3406	2.25	7.5	0.	124.67
3407	2.	7.75	0.	124.72
3408	2.75	7.5	0.	124.63
3409	2.5	7.75	0.	124.68
3410	3.25	7.5	0.	124.69
3411	3.	7.75	0.	124.7
3412	3.75	7.5	0.	124.93
3413	3.5	7.75	0.	124.87
3414	4.25	7.5	0.	125.48
3415	4.	7.75	0.	125.25
3416	4.	7.25	0.	124.83
3417	3.25	3.5	0.	125.35
3418	3.	3.25	0.	126.94
3419	2.5	1.75	0.	127.35
3420	2.75	1.5	0.	127.6
3421	2.25	1.5	0.	126.95
3422	2.75	3.	0.	127.58
3423	2.5	2.75	0.	127.69
3424	4.75	3.5	0.	120.05
3425	4.5	3.25	0.	117.99
3426	4.25	3.5	0.	120.6
3427	5.75	3.5	0.	122.75
3428	6.	3.25	0.	123.92
3429	3.75	-6.5	0.	124.24
3430	4.	-6.25	0.	125.55
3431	2.25	-6.5	0.	121.47
3432	2.75	-6.5	0.	120.95
3433	2.5	-6.25	0.	119.2
3434	1.	-6.25	0.	127.48
3435	1.25	-6.5	0.	125.79
3436	6.5	-7.25	0.	127.18
3437	6.75	-7.5	0.	127.75
3438	6.5	-7.75	0.	127.09
3439	6.75	-6.	0.	127.34
3440	6.5	-6.25	0.	127.28
3441	1.25	-1.5	0.	127.89
3442	1.	-1.75	0.	129.64
3443	0.75	-1.5	0.	127.91
3444	-1.75	-1.5	0.	126.5
3445	-2.	-1.75	0.	127.56
3446	-0.75	-1.5	0.	123.71
3447	-0.25	-1.5	0.	124.11
3448	-0.5	-1.75	0.	122.
3449	-2.25	-2.	0.	127.74
3450	-2.5	-2.25	0.	127.29
3451	-2.5	-4.75	0.	127.22
3452	-2.25	-5.	0.	127.65
3453	-2.5	-3.75	0.	126.11
3454	-2.5	-3.25	0.	126.14
3455	-2.25	-3.5	0.	126.
3456	-0.75	-5.5	0.	123.62
3457	-0.25	-5.5	0.	124.13
3458	-0.5	-5.25	0.	121.78
3459	-2.	-5.25	0.	127.48
3460	-1.75	-5.5	0.	126.43
3461	-1.	-5.25	0.	123.49
3462	-1.25	-5.5	0.	124.96
3463	-2.5	-4.25	0.	126.72
3464	-2.25	-4.	0.	126.91
3465	-2.75	-4.	0.	126.09
3466	-2.25	-4.5	0.	127.81
3467	-2.5	-2.75	0.	126.78
3468	-2.25	-3.	0.	126.98
3469	-1.25	-1.5	0.	125.05
3470	-1.	-1.75	0.	123.67
3471	-1.5	-1.75	0.	126.66
3472	-7.0154e-013	-1.75	0.	124.62
3473	0.25	-1.5	0.	126.15
3474	6.75	-7.	0.	128.04
3475	6.5	-6.75	0.	127.39
3476	2.	-6.25	0.	122.19
3477	1.75	-6.5	0.	123.75
3478	3.25	-6.5	0.	122.44
3479	3.	-6.25	0.	120.85
3480	3.5	-6.25	0.	124.22
3481	3.5	-6.75	0.	123.37
3482	5.25	3.5	0.	121.34
3483	5.5	3.25	0.	122.87
3484	5.5	3.75	0.	122.24
3485	5.	3.25	0.	119.71
3486	2.75	2.	0.	127.96
3487	2.5	2.25	0.	127.65
3488	3.5	3.25	0.	125.1
3489	3.75	3.5	0.	122.98
3490	4.5	7.25	0.	125.41
3491	4.5	7.75	0.	125.94
3492	4.75	7.5	0.	126.57
3493	4.75	7.	0.	125.57
3494	4.25	7.	0.	124.76
3495	6.	4.75	0.	121.24
3496	5.75	4.5	0.	122.22
3497	6.25	4.5	0.	121.31
3498	4.75	5.5	0.	125.45
3499	4.5	5.75	0.	124.59
3500	7.75	4.5	0.	126.1
3501	7.5	4.75	0.	125.91
3502	7.25	4.5	0.	123.98
3503	3.	0.25	0.	129.26
3504	3.25	0.5	0.	129.78
3505	0.25	-5.5	0.	126.54
3506	9.5259e-011	-5.25	0.	124.48
3507	0.75	-5.5	0.	129.22
3508	0.5	-5.25	0.	128.62
3509	7.75	-5.5	0.	123.86
3510	7.5	-5.75	0.	125.7
3511	6.5	2.25	0.	123.92
3512	6.25	2.5	0.	124.92
3513	6.5	1.75	0.	122.64
3514	6.25	2.	0.	124.16
3515	5.25	-4.5	0.	122.99
3516	5.5	-4.25	0.	124.3
3517	5.	-4.25	0.	121.44
3518	4.75	-4.5	0.	122.04
3519	1.75	-1.5	0.	126.2
3520	1.5	-1.75	0.	128.13
3521	2.25	-1.5	0.	124.62
3522	2.	-1.75	0.	124.23
3523	7.25	-3.5	0.	124.68
3524	7.75	-3.5	0.	126.34
3525	7.5	-3.25	0.	126.56
3526	6.75	-3.5	0.	123.24
3527	7.	-3.25	0.	123.1
3528	6.5	-3.25	0.	121.15
3529	6.25	-3.5	0.	123.97
3530	2.5	-0.25	0.	128.32
3531	2.75	4.4365e-011	0.	129.11
3532	2.5	-0.75	0.	127.59
3533	2.75	-0.5	0.	129.49
3534	2.5	-1.25	0.	125.53
3535	2.75	-1.	0.	127.85
3536	2.75	-1.5	0.	125.25
3537	2.5	-1.75	0.	122.22
3538	4.5	-5.25	0.	124.78
3539	4.25	-5.5	0.	126.22
3540	4.25	-5.	0.	125.18
3541	4.5	-4.75	0.	123.02
3542	7.25	1.5	0.	124.38
3543	7.75	1.5	0.	126.6
3544	7.5	1.25	0.	126.61
3545	6.75	1.5	0.	122.45
3546	7.	1.25	0.	122.68
3547	6.5	1.25	0.	120.49
3548	6.25	1.5	0.	122.81
3549	-0.75	-5.	0.	121.62
3550	-0.25	-5.	0.	122.11
3551	-0.5	-4.75	0.	116.86
3552	-2.	-4.75	0.	128.24
3553	-1.75	-5.	0.	127.56
3554	-2.	-3.75	0.	126.79
3555	-1.75	-3.5	0.	127.91
3556	-2.	-3.25	0.	126.84
3557	-1.75	-2.	0.	127.71
3558	-2.	-2.25	0.	128.37
3559	-0.25	-2.	0.	122.48
3560	-0.75	-2.	0.	121.93
3561	-0.5	-2.25	0.	117.26
3562	7.	-7.75	0.	128.7
3563	7.	-7.25	0.	128.6
3564	7.25	-7.5	0.	130.52
3565	7.25	-6.	0.	127.04
3566	7.	-6.25	0.	128.21
3567	6.75	-8.	0.	128.04
3568	7.	-8.25	0.	128.77
3569	7.25	-8.	0.	131.52
3570	6.25	-8.	0.	126.65
3571	6.5	-8.25	0.	127.27
3572	5.75	-8.	0.	125.91
3573	6.	-8.25	0.	126.38
3574	5.25	-8.	0.	125.35
3575	5.5	-8.25	0.	125.75
3576	4.75	-8.	0.	124.81
3577	5.	-8.25	0.	125.16
3578	4.25	-8.	0.	124.24
3579	4.5	-8.25	0.	124.57
3580	3.75	-8.	0.	123.65
3581	4.	-8.25	0.	123.98
3582	4.	-7.75	0.	123.96
3583	3.25	-8.	0.	123.15
3584	3.5	-8.25	0.	123.43
3585	2.75	-8.	0.	122.9
3586	3.	-8.25	0.	123.06
3587	2.25	-8.	0.	123.
3588	2.5	-8.25	0.	122.97
3589	1.75	-8.	0.	123.41
3590	2.	-8.25	0.	123.2
3591	1.25	-8.	0.	123.96
3592	1.5	-8.25	0.	123.65
3593	1.5	-7.75	0.	123.76
3594	0.75	-8.	0.	124.45
3595	1.	-8.25	0.	124.14
3596	0.25	-8.	0.	124.81
3597	0.5	-8.25	0.	124.55
3598	-0.25	-8.	0.	125.05
3599	3.0366e-011	-8.25	0.	124.85
3600	-0.5	-8.25	0.	125.08
3601	-0.75	-8.	0.	125.24
3602	-1.75	-8.	0.	125.61
3603	-1.5	-8.25	0.	125.48
3604	-1.25	-8.	0.	125.43
3605	-2.25	-8.	0.	125.77
3606	-2.	-8.25	0.	125.66
3607	-2.75	-8.	0.	125.88
3608	-2.5	-8.25	0.	125.8
3609	-3.25	-8.	0.	125.93
3610	-3.	-8.25	0.	125.88
3611	-3.75	-8.	0.	125.92
3612	-3.5	-8.25	0.	125.9
3613	-4.25	-8.	0.	125.85
3614	-4.	-8.25	0.	125.87
3615	-4.75	-8.	0.	125.75
3616	-4.5	-8.25	0.	125.79
3617	-5.25	-8.	0.	125.61
3618	-5.	-8.25	0.	125.68
3619	-5.75	-8.	0.	125.47
3620	-5.5	-8.25	0.	125.54
3621	-6.25	-8.	0.	125.31
3622	-6.	-8.25	0.	125.4
3623	-6.75	-8.	0.	125.15
3624	-6.5	-8.25	0.	125.24
3625	-7.	-8.25	0.	125.08
3626	-7.25	-8.	0.	124.99
3627	-8.	-7.75	0.	124.74
3628	-8.	-8.25	0.	124.77
3629	-8.25	-8.	0.	124.69
3630	-7.75	-8.	0.	124.84
3631	-8.	-7.25	0.	124.71
3632	-8.25	-7.5	0.	124.65
3633	-8.	-6.75	0.	124.67
3634	-8.25	-7.	0.	124.62
3635	-7.75	-7.	0.	124.77
3636	-8.	-6.25	0.	124.63
3637	-8.25	-6.5	0.	124.57
3638	-8.	-5.75	0.	124.58
3639	-8.25	-6.	0.	124.53
3640	-8.	-5.25	0.	124.54
3641	-8.25	-5.5	0.	124.48
3642	-8.	-4.75	0.	124.5
3643	-8.25	-5.	0.	124.44
3644	-7.75	-5.	0.	124.59
3645	-8.	-4.25	0.	124.47
3646	-8.25	-4.5	0.	124.41
3647	-8.	-3.75	0.	124.45
3648	-8.25	-4.	0.	124.38
3649	-8.	-3.25	0.	124.44
3650	-8.25	-3.5	0.	124.37
3651	-8.	-2.75	0.	124.45
3652	-8.25	-3.	0.	124.37
3653	-8.	-2.25	0.	124.47
3654	-8.25	-2.5	0.	124.38
3655	-8.	-1.75	0.	124.5
3656	-8.25	-2.	0.	124.4
3657	-8.	-1.25	0.	124.53
3658	-8.25	-1.5	0.	124.43
3659	-8.	-0.75	0.	124.57
3660	-8.25	-1.	0.	124.47
3661	-8.	-0.25	0.	124.6
3662	-8.25	-0.5	0.	124.51
3663	-8.	0.25	0.	124.64
3664	-8.25	-1.5882e-012	0.	124.55
3665	-8.	0.75	0.	124.67
3666	-8.25	0.5	0.	124.59
3667	-8.	1.25	0.	124.71
3668	-8.25	1.	0.	124.63
3669	-8.	1.75	0.	124.74
3670	-8.25	1.5	0.	124.66
3671	-8.	2.25	0.	124.76
3672	-8.25	2.	0.	124.69
3673	-8.	2.75	0.	124.79
3674	-8.25	2.5	0.	124.73
3675	-8.	3.25	0.	124.81
3676	-8.25	3.	0.	124.76
3677	-8.	3.75	0.	124.83
3678	-8.25	3.5	0.	124.78
3679	-7.75	3.5	0.	124.86
3680	-8.	4.25	0.	124.85
3681	-8.25	4.	0.	124.81
3682	-8.	4.75	0.	124.87
3683	-8.25	4.5	0.	124.84
3684	-8.	5.25	0.	124.89
3685	-8.25	5.	0.	124.86
3686	-8.	5.75	0.	124.91
3687	-8.25	5.5	0.	124.88
3688	-8.	6.25	0.	124.93
3689	-8.25	6.	0.	124.9
3690	-8.	6.75	0.	124.95
3691	-8.25	6.5	0.	124.92
3692	-8.	7.25	0.	124.96
3693	-8.25	7.	0.	124.94
3694	-8.	7.75	0.	124.98
3695	-8.25	7.5	0.	124.96
3696	-7.75	8.	0.	124.99
3697	-8.25	8.	0.	124.98
3698	-8.	8.25	0.	124.99
3699	-7.25	8.	0.	125.01
3700	-7.5	8.25	0.	125.01
3701	-6.75	8.	0.	125.03
3702	-7.	8.25	0.	125.03
3703	-6.25	8.	0.	125.05
3704	-6.5	8.25	0.	125.04
3705	-5.75	8.	0.	125.07
3706	-6.	8.25	0.	125.06
3707	-5.25	8.	0.	125.09
3708	-5.5	8.25	0.	125.08
3709	-4.75	8.	0.	125.1
3710	-5.	8.25	0.	125.09
3711	-4.25	8.	0.	125.11
3712	-4.5	8.25	0.	125.1
3713	-4.	8.25	0.	125.11
3714	-3.75	8.	0.	125.12
3715	-2.75	8.	0.	125.13
3716	-3.	8.25	0.	125.12
3717	-3.25	8.	0.	125.13
3718	-2.25	8.	0.	125.13
3719	-2.5	8.25	0.	125.12
3720	-1.75	8.	0.	125.12
3721	-2.	8.25	0.	125.12
3722	-2.	7.75	0.	125.15
3723	-1.25	8.	0.	125.1
3724	-1.5	8.25	0.	125.1
3725	-0.75	8.	0.	125.07
3726	-1.	8.25	0.	125.08
3727	-0.25	8.	0.	125.03
3728	-0.5	8.25	0.	125.05
3729	0.25	8.	0.	124.98
3730	-4.9643e-011	8.25	0.	125.
3731	0.75	8.	0.	124.91
3732	0.5	8.25	0.	124.95
3733	1.25	8.	0.	124.84
3734	1.	8.25	0.	124.88
3735	1.75	8.	0.	124.77
3736	1.5	8.25	0.	124.82
3737	2.25	8.	0.	124.73
3738	2.	8.25	0.	124.77
3739	2.75	8.	0.	124.75
3740	2.5	8.25	0.	124.75
3741	3.25	8.	0.	124.88
3742	3.	8.25	0.	124.82
3743	3.75	8.	0.	125.19
3744	3.5	8.25	0.	125.
3745	4.25	8.	0.	125.71
3746	4.	8.25	0.	125.35
3747	4.5	8.25	0.	125.83
3748	4.75	8.	0.	126.39
3749	8.	4.25	0.	126.65
3750	8.	4.75	0.	127.47
3751	8.25	4.5	0.	127.23
3752	8.	3.75	0.	126.27
3753	8.25	4.	0.	126.78
3754	8.	3.25	0.	126.15
3755	8.25	3.5	0.	126.58
3756	8.	2.75	0.	126.2
3757	8.25	3.	0.	126.56
3758	8.	2.25	0.	126.44
3759	8.25	2.5	0.	126.69
3760	8.	1.75	0.	127.06
3761	8.25	2.	0.	127.05
3762	8.	1.25	0.	128.31
3763	8.25	1.5	0.	127.81
3764	8.	0.75	0.	129.83
3765	8.25	1.	0.	128.99
3766	7.75	1.	0.	128.31
3767	8.	-0.75	0.	130.61
3768	8.	-0.25	0.	130.58
3769	7.75	-0.5	0.	132.6
3770	8.25	-0.5	0.	129.6
3771	8.	-1.25	0.	130.42
3772	7.75	-1.	0.	133.64
3773	8.25	-1.	0.	129.67
3774	8.	-1.75	0.	130.07
3775	8.25	-1.5	0.	129.23
3776	7.75	-1.5	0.	132.23
3777	8.	-3.25	0.	127.8
3778	7.75	-3.	0.	128.01
3779	8.	-2.75	0.	129.28
3780	8.25	-3.	0.	128.38
3781	8.	-3.75	0.	126.38
3782	8.25	-3.5	0.	127.1
3783	8.	-4.25	0.	125.31
3784	8.25	-4.	0.	125.99
3785	8.	-4.75	0.	124.35
3786	8.25	-4.5	0.	124.97
3787	8.	-5.25	0.	123.32
3788	8.25	-5.	0.	123.81
3789	8.	-5.75	0.	122.18
3790	8.25	-5.5	0.	122.27
3791	5.75	-4.	0.	124.93
3792	6.	-3.75	0.	125.09
3793	1.	-3.25	0.	130.68
3794	1.	-3.75	0.	130.76
3795	1.25	-3.5	0.	131.85
3796	0.75	-3.5	0.	130.87
3797	1.25	-2.	0.	129.87
3798	1.	-2.25	0.	131.68
3799	0.75	-2.	0.	130.1
3800	2.75	-6.	0.	119.06
3801	2.25	-6.	0.	119.9
3802	2.5	-5.75	0.	114.28
3803	1.	-5.75	0.	129.44
3804	1.25	-6.	0.	127.88
3805	3.75	-6.	0.	125.53
3806	4.	-5.75	0.	126.55
3807	4.25	3.	0.	118.22
3808	4.75	3.	0.	117.61
3809	4.5	2.75	0.	112.43
3810	3.	1.75	0.	128.21
3811	3.25	1.5	0.	129.61
3812	3.25	3.	0.	126.69
3813	3.	2.75	0.	128.1
3814	8.	7.75	0.	127.88
3815	8.25	8.	0.	127.17
3816	8.	8.25	0.	126.85
3817	7.75	8.	0.	127.07
3818	5.	6.75	0.	125.33
3819	5.25	6.5	0.	126.33
3820	5.	6.25	0.	125.02
3821	6.25	5.	0.	119.62
3822	6.5	5.25	0.	115.12
3823	6.5	4.75	0.	119.7
3824	6.75	5.	0.	120.02
3825	5.	5.25	0.	125.59
3826	5.25	5.	0.	124.83
3827	8.	6.25	0.	126.88
3828	8.	6.75	0.	126.75
3829	8.25	6.5	0.	126.16
3830	7.75	6.5	0.	127.7
3831	7.75	5.	0.	127.28
3832	8.25	5.	0.	127.91
3833	8.	5.25	0.	128.32
3834	7.5	5.25	0.	128.36
3835	7.25	5.	0.	124.13
3836	8.25	6.	0.	127.22
3837	7.75	6.	0.	128.63
3838	8.	5.75	0.	128.15
3839	5.25	5.5	0.	127.28
3840	5.	5.75	0.	125.84
3841	6.	5.25	0.	121.41
3842	5.75	5.	0.	122.76
3843	5.5	8.25	0.	125.3
3844	5.5	7.75	0.	127.69
3845	5.75	8.	0.	123.87
3846	5.25	8.	0.	126.35
3847	5.	7.25	0.	126.73
3848	5.25	7.5	0.	128.34
3849	5.	7.75	0.	127.01
3850	5.25	7.	0.	127.36
3851	8.	7.25	0.	127.82
3852	8.25	7.	0.	126.9
3853	7.75	7.	0.	128.35
3854	8.25	7.5	0.	127.6
3855	7.75	7.5	0.	129.25
3856	7.	8.25	0.	122.63
3857	7.	7.75	0.	122.64
3858	6.75	8.	0.	120.62
3859	7.25	8.	0.	124.44
3860	3.25	2.8462e-011	0.	129.84
3861	3.	-0.25	0.	130.28
3862	3.	-1.25	0.	127.59
3863	3.25	-1.	0.	129.4
3864	3.	-0.75	0.	129.75
3865	3.75	3.	0.	123.01
3866	4.	2.75	0.	120.45
3867	4.	3.25	0.	120.88
3868	3.5	2.75	0.	127.63
3869	3.25	2.	0.	128.66
3870	3.	2.25	0.	128.52
3871	6.	2.25	0.	125.15
3872	6.	1.75	0.	124.33
3873	5.75	2.	0.	125.85
3874	5.75	2.5	0.	126.26
3875	6.	2.75	0.	125.
3876	5.25	3.	0.	121.25
3877	5.5	2.75	0.	125.3
3878	5.75	3.	0.	124.03
3879	5.	2.75	0.	119.15
3880	3.25	-6.	0.	122.63
3881	3.	-5.75	0.	120.52
3882	3.5	-5.75	0.	126.86
3883	4.	-5.25	0.	126.61
3884	3.75	-5.5	0.	127.87
3885	4.	-4.75	0.	125.58
3886	3.75	-5.	0.	127.63
3887	1.25	-5.5	0.	131.17
3888	1.	-5.25	0.	131.03
3889	1.75	-6.	0.	124.65
3890	1.5	-5.75	0.	129.64
3891	1.5	-6.25	0.	126.2
3892	2.	-5.75	0.	122.7
3893	1.75	-2.	0.	126.18
3894	2.25	-2.	0.	121.79
3895	2.	-2.25	0.	123.51
3896	1.5	-2.25	0.	130.79
3897	5.25	-4.	0.	122.75
3898	4.75	-4.	0.	119.64
3899	5.	-3.75	0.	121.23
3900	5.5	-3.75	0.	126.75
3901	7.75	-6.	0.	124.04
3902	8.25	-6.	0.	119.98
3903	8.	-6.25	0.	121.99
3904	7.5	-6.25	0.	128.41
3905	7.25	-7.	0.	129.34
3906	7.	-6.75	0.	128.78
3907	1.	-2.75	0.	132.04
3908	1.25	-3.	0.	131.57
3909	0.75	-3.	0.	131.83
3910	0.75	-2.5	0.	132.89
3911	1.25	-2.5	0.	132.57
3912	0.25	-2.	0.	126.86
3913	0.5	-2.25	0.	131.35
3914	0.5	-1.75	0.	128.39
3915	-2.2631e-013	-2.25	0.	124.68
3916	-1.25	-2.	0.	125.28
3917	-1.	-2.25	0.	123.49
3918	-1.5	-2.25	0.	129.08
3919	-2.	-4.25	0.	128.
3920	-1.75	-4.	0.	128.64
3921	-1.75	-4.5	0.	129.55
3922	-1.	-4.75	0.	123.21
3923	-1.25	-5.	0.	125.06
3924	0.25	-5.	0.	126.57
3925	6.3001e-011	-4.75	0.	124.11
3926	0.5	-4.75	0.	130.87
3927	0.75	-5.	0.	130.41
3928	1.25	-4.	0.	133.85
3929	0.75	-4.	0.	131.75
3930	1.	-4.25	0.	131.86
3931	7.25	-3.	0.	124.98
3932	6.75	-3.	0.	120.98
3933	7.	-2.75	0.	122.94
3934	7.5	-2.75	0.	129.44
3935	8.	-2.25	0.	130.04
3936	7.75	-2.5	0.	130.69
3937	8.25	-2.5	0.	129.29
3938	8.25	-2.	0.	129.33
3939	7.75	-2.	0.	130.71
3940	8.	0.25	0.	130.64
3941	7.75	-8.7926e-012	0.	131.42
3942	8.25	-8.159e-012	0.	129.92
3943	8.25	0.5	0.	129.93
3944	7.75	0.5	0.	131.24
3945	6.75	1.	0.	120.71
3946	7.	0.75	0.	123.
3947	7.25	1.	0.	124.93
3948	6.25	1.	0.	121.29
3949	6.5	0.75	0.	115.75
3950	4.	-4.25	0.	124.52
3951	3.75	-4.5	0.	127.98
3952	4.25	-4.5	0.	123.41
3953	3.	-1.75	0.	125.58
3954	3.25	-1.5	0.	128.47
3955	6.	1.25	0.	123.64
3956	5.75	1.5	0.	126.55
3957	8.5	7.75	0.	126.89
3958	8.5	8.25	0.	126.52
3959	8.75	8.	0.	126.49
3960	8.5	7.25	0.	126.68
3961	8.75	7.5	0.	126.56
3962	8.5	6.75	0.	126.31
3963	8.75	7.	0.	126.21
3964	8.5	6.25	0.	126.5
3965	8.75	6.5	0.	126.13
3966	8.5	5.75	0.	127.22
3967	8.75	6.	0.	126.66
3968	8.5	5.25	0.	127.73
3969	8.75	5.5	0.	127.4
3970	8.25	5.5	0.	128.14
3971	8.5	4.75	0.	127.67
3972	8.75	5.	0.	127.7
3973	8.5	4.25	0.	127.35
3974	8.75	4.5	0.	127.61
3975	8.5	3.75	0.	127.09
3976	8.75	4.	0.	127.43
3977	8.5	3.25	0.	126.99
3978	8.75	3.5	0.	127.33
3979	8.5	2.75	0.	127.05
3980	8.75	3.	0.	127.33
3981	8.5	2.25	0.	127.3
3982	8.75	2.5	0.	127.45
3983	8.5	1.75	0.	127.8
3984	8.75	2.	0.	127.73
3985	8.5	1.25	0.	128.5
3986	8.75	1.5	0.	128.17
3987	8.5	0.75	0.	129.09
3988	8.75	1.	0.	128.65
3989	8.75	0.5	0.	128.84
3990	8.5	0.25	0.	129.21
3991	8.5	-1.75	0.	128.49
3992	8.75	-1.5	0.	127.86
3993	8.5	-1.25	0.	128.49
3994	8.75	-2.	0.	127.99
3995	8.5	-2.25	0.	128.58
3996	8.5	-3.25	0.	127.68
3997	8.75	-3.	0.	127.82
3998	8.5	-2.75	0.	128.39
3999	8.5	-3.75	0.	126.71
4000	8.75	-3.5	0.	127.17
4001	8.5	-4.25	0.	125.66
4002	8.75	-4.	0.	126.39
4003	8.5	-4.75	0.	124.44
4004	8.75	-4.5	0.	125.52
4005	8.5	-5.25	0.	122.77
4006	8.75	-5.	0.	124.38
4007	8.5	-5.75	0.	120.1
4008	8.75	-5.5	0.	122.76
4009	8.75	-6.	0.	120.29
4010	8.5	-6.25	0.	114.59
4011	6.75	-8.5	0.	128.
4012	7.	-8.75	0.	128.87
4013	7.25	-8.5	0.	130.29
4014	6.25	-8.5	0.	127.01
4015	6.5	-8.75	0.	127.8
4016	5.75	-8.5	0.	126.22
4017	6.	-8.75	0.	126.9
4018	5.25	-8.5	0.	125.56
4019	5.5	-8.75	0.	126.11
4020	4.75	-8.5	0.	124.92
4021	5.	-8.75	0.	125.37
4022	4.25	-8.5	0.	124.31
4023	4.5	-8.75	0.	124.69
4024	3.75	-8.5	0.	123.76
4025	4.	-8.75	0.	124.08
4026	3.25	-8.5	0.	123.34
4027	3.5	-8.75	0.	123.59
4028	2.75	-8.5	0.	123.13
4029	3.	-8.75	0.	123.26
4030	2.25	-8.5	0.	123.18
4031	2.5	-8.75	0.	123.16
4032	1.75	-8.5	0.	123.44
4033	2.	-8.75	0.	123.3
4034	1.25	-8.5	0.	123.83
4035	1.5	-8.75	0.	123.61
4036	0.75	-8.5	0.	124.23
4037	1.	-8.75	0.	123.99
4038	0.25	-8.5	0.	124.59
4039	0.5	-8.75	0.	124.36
4040	-0.25	-8.5	0.	124.88
4041	1.84e-011	-8.75	0.	124.68
4042	-0.75	-8.5	0.	125.13
4043	-0.5	-8.75	0.	124.96
4044	-1.25	-8.5	0.	125.34
4045	-1.	-8.75	0.	125.2
4046	-1.	-8.25	0.	125.29
4047	-1.5	-8.75	0.	125.41
4048	-1.75	-8.5	0.	125.53
4049	-2.75	-8.5	0.	125.8
4050	-2.5	-8.75	0.	125.72
4051	-2.25	-8.5	0.	125.69
4052	-3.25	-8.5	0.	125.85
4053	-3.	-8.75	0.	125.81
4054	-3.5	-8.75	0.	125.84
4055	-3.75	-8.5	0.	125.85
4056	-4.75	-8.5	0.	125.72
4057	-4.5	-8.75	0.	125.76
4058	-4.25	-8.5	0.	125.81
4059	-5.25	-8.5	0.	125.61
4060	-5.	-8.75	0.	125.66
4061	-5.75	-8.5	0.	125.47
4062	-5.5	-8.75	0.	125.54
4063	-6.25	-8.5	0.	125.32
4064	-6.	-8.75	0.	125.4
4065	-6.75	-8.5	0.	125.17
4066	-6.5	-8.75	0.	125.25
4067	-7.25	-8.5	0.	125.01
4068	-7.	-8.75	0.	125.1
4069	-7.75	-8.5	0.	124.86
4070	-7.5	-8.75	0.	124.94
4071	-7.5	-8.25	0.	124.92
4072	-8.25	-8.5	0.	124.71
4073	-8.	-8.75	0.	124.79
4074	-8.5	-8.25	0.	124.63
4075	-8.5	-8.75	0.	124.65
4076	-8.75	-8.5	0.	124.58
4077	-8.5	-7.75	0.	124.6
4078	-8.75	-8.	0.	124.55
4079	-8.5	-7.25	0.	124.56
4080	-8.75	-7.5	0.	124.51
4081	-8.5	-6.75	0.	124.52
4082	-8.75	-7.	0.	124.47
4083	-8.5	-6.25	0.	124.47
4084	-8.75	-6.5	0.	124.42
4085	-8.5	-5.75	0.	124.43
4086	-8.75	-6.	0.	124.37
4087	-8.5	-5.25	0.	124.39
4088	-8.75	-5.5	0.	124.33
4089	-8.5	-4.75	0.	124.35
4090	-8.75	-5.	0.	124.28
4091	-8.5	-4.25	0.	124.32
4092	-8.75	-4.5	0.	124.25
4093	-8.5	-3.75	0.	124.3
4094	-8.75	-4.	0.	124.22
4095	-8.5	-3.25	0.	124.3
4096	-8.75	-3.5	0.	124.21
4097	-8.5	-2.75	0.	124.3
4098	-8.75	-3.	0.	124.21
4099	-8.5	-2.25	0.	124.32
4100	-8.75	-2.5	0.	124.22
4101	-8.5	-1.75	0.	124.34
4102	-8.75	-2.	0.	124.24
4103	-8.5	-1.25	0.	124.38
4104	-8.75	-1.5	0.	124.27
4105	-8.5	-0.75	0.	124.41
4106	-8.75	-1.	0.	124.31
4107	-8.5	-0.25	0.	124.45
4108	-8.75	-0.5	0.	124.36
4109	-8.5	0.25	0.	124.5
4110	-8.75	-8.4714e-013	0.	124.4
4111	-8.5	0.75	0.	124.54
4112	-8.75	0.5	0.	124.45
4113	-8.5	1.25	0.	124.58
4114	-8.75	1.	0.	124.49
4115	-8.5	1.75	0.	124.62
4116	-8.75	1.5	0.	124.54
4117	-8.5	2.25	0.	124.66
4118	-8.75	2.	0.	124.59
4119	-8.5	2.75	0.	124.69
4120	-8.75	2.5	0.	124.63
4121	-8.5	3.25	0.	124.73
4122	-8.75	3.	0.	124.67
4123	-8.5	3.75	0.	124.76
4124	-8.75	3.5	0.	124.71
4125	-8.5	4.25	0.	124.79
4126	-8.75	4.	0.	124.74
4127	-8.5	4.75	0.	124.82
4128	-8.75	4.5	0.	124.78
4129	-8.5	5.25	0.	124.85
4130	-8.75	5.	0.	124.81
4131	-8.5	5.75	0.	124.87
4132	-8.75	5.5	0.	124.84
4133	-8.75	6.	0.	124.87
4134	-8.5	6.25	0.	124.9
4135	-8.5	7.25	0.	124.94
4136	-8.75	7.	0.	124.92
4137	-8.5	6.75	0.	124.92
4138	-8.5	7.75	0.	124.96
4139	-8.75	7.5	0.	124.94
4140	-8.5	8.25	0.	124.98
4141	-8.75	8.	0.	124.96
4142	-8.25	8.5	0.	124.99
4143	-8.75	8.5	0.	124.98
4144	-8.5	8.75	0.	124.99
4145	-7.75	8.5	0.	125.01
4146	-8.	8.75	0.	125.01
4147	-7.25	8.5	0.	125.02
4148	-7.5	8.75	0.	125.02
4149	-6.75	8.5	0.	125.04
4150	-7.	8.75	0.	125.03
4151	-6.25	8.5	0.	125.05
4152	-6.5	8.75	0.	125.05
4153	-5.75	8.5	0.	125.07
4154	-6.	8.75	0.	125.06
4155	-5.25	8.5	0.	125.08
4156	-5.5	8.75	0.	125.08
4157	-4.75	8.5	0.	125.1
4158	-5.	8.75	0.	125.09
4159	-4.25	8.5	0.	125.11
4160	-4.5	8.75	0.	125.1
4161	-3.75	8.5	0.	125.11
4162	-4.	8.75	0.	125.11
4163	-3.25	8.5	0.	125.12
4164	-3.5	8.75	0.	125.11
4165	-3.5	8.25	0.	125.12
4166	-2.75	8.5	0.	125.12
4167	-3.	8.75	0.	125.12
4168	-2.25	8.5	0.	125.11
4169	-2.5	8.75	0.	125.11
4170	-1.75	8.5	0.	125.1
4171	-2.	8.75	0.	125.1
4172	-1.25	8.5	0.	125.08
4173	-1.5	8.75	0.	125.09
4174	-0.75	8.5	0.	125.05
4175	-1.	8.75	0.	125.07
4176	-0.25	8.5	0.	125.01
4177	-0.5	8.75	0.	125.04
4178	0.25	8.5	0.	124.97
4179	-3.3269e-011	8.75	0.	125.
4180	0.75	8.5	0.	124.91
4181	0.5	8.75	0.	124.95
4182	1.25	8.5	0.	124.86
4183	1.	8.75	0.	124.9
4184	1.75	8.5	0.	124.81
4185	1.5	8.75	0.	124.85
4186	2.25	8.5	0.	124.79
4187	2.	8.75	0.	124.81
4188	2.75	8.5	0.	124.82
4189	2.5	8.75	0.	124.81
4190	3.25	8.5	0.	124.94
4191	3.	8.75	0.	124.85
4192	3.75	8.5	0.	125.16
4193	3.5	8.75	0.	124.97
4194	4.25	8.5	0.	125.47
4195	4.	8.75	0.	125.16
4196	4.75	8.5	0.	125.63
4197	4.5	8.75	0.	125.35
4198	5.25	8.5	0.	125.13
4199	5.	8.75	0.	125.26
4200	5.	8.25	0.	126.19
4201	5.75	8.5	0.	123.69
4202	5.5	8.75	0.	124.44
4203	6.25	8.5	0.	122.23
4204	6.	8.75	0.	123.07
4205	6.	8.25	0.	122.26
4206	6.75	8.5	0.	122.38
4207	6.5	8.75	0.	122.38
4208	6.5	8.25	0.	120.4
4209	7.	8.75	0.	123.29
4210	7.25	8.5	0.	124.06
4211	8.25	8.5	0.	126.19
4212	8.	8.75	0.	125.72
4213	7.75	8.5	0.	125.64
4214	8.75	8.5	0.	126.01
4215	8.5	8.75	0.	125.83
4216	6.25	-3.	0.	121.59
4217	6.5	-2.75	0.	115.58
4218	6.	-3.25	0.	124.42
4219	5.75	-3.5	0.	126.91
4220	4.25	-4.	0.	121.36
4221	4.5	-3.75	0.	114.89
4222	4.5	-4.25	0.	120.28
4223	2.75	-2.	0.	122.51
4224	2.5	-2.25	0.	116.1
4225	3.	-2.25	0.	124.77
4226	3.25	-2.	0.	129.52
4227	3.75	-4.	0.	129.39
4228	4.	-3.75	0.	124.24
4229	6.	-2.75	0.	123.72
4230	5.75	-3.	0.	126.85
4231	7.25	0.5	0.	127.78
4232	7.5	0.25	0.	132.
4233	7.5	0.75	0.	129.75
4234	7.5	-2.25	0.	131.35
4235	7.25	-2.5	0.	127.37
4236	0.25	-4.5	0.	128.37
4237	0.5	-4.25	0.	132.1
4238	0.75	-4.5	0.	132.24
4239	-1.25	-4.5	0.	127.01
4240	-1.5	-4.25	0.	130.16
4241	-1.5	-4.75	0.	128.88
4242	-1.5	-2.75	0.	130.35
4243	-1.25	-2.5	0.	127.27
4244	-1.75	-2.5	0.	129.73
4245	0.25	-2.5	0.	129.13
4246	0.5	-2.75	0.	132.66
4247	7.75	-6.5	0.	126.33
4248	7.5	-6.75	0.	130.09
4249	7.25	-6.5	0.	129.55
4250	9.	8.25	0.	125.99
4251	9.	8.75	0.	125.61
4252	9.25	8.5	0.	125.62
4253	9.25	8.	0.	125.84
4254	9.	7.75	0.	126.16
4255	9.	4.75	0.	127.64
4256	9.25	5.	0.	127.54
4257	9.	5.25	0.	127.37
4258	9.	4.25	0.	127.69
4259	9.25	4.5	0.	127.8
4260	9.	3.75	0.	127.67
4261	9.25	4.	0.	127.92
4262	9.	3.25	0.	127.67
4263	9.25	3.5	0.	127.98
4264	9.	2.75	0.	127.74
4265	9.25	3.	0.	128.03
4266	9.	2.25	0.	127.88
4267	9.25	2.5	0.	128.1
4268	9.	1.75	0.	128.1
4269	9.25	2.	0.	128.18
4270	9.	1.25	0.	128.32
4271	9.25	1.5	0.	128.26
4272	9.	0.75	0.	128.39
4273	9.25	1.	0.	128.23
4274	9.	0.25	0.	128.2
4275	9.25	0.5	0.	128.
4276	9.	-0.25	0.	127.81
4277	9.25	-3.4412e-012	0.	127.55
4278	8.75	-5.8898e-012	0.	128.57
4279	9.	-0.75	0.	127.45
4280	9.25	-0.5	0.	127.08
4281	8.75	-0.5	0.	128.19
4282	9.	-1.25	0.	127.3
4283	9.25	-1.	0.	126.78
4284	8.75	-1.	0.	127.93
4285	9.	-1.75	0.	127.37
4286	9.25	-1.5	0.	126.75
4287	9.	-2.25	0.	127.53
4288	9.25	-2.	0.	126.94
4289	9.	-2.75	0.	127.56
4290	9.25	-2.5	0.	127.16
4291	8.75	-2.5	0.	128.12
4292	9.	-3.25	0.	127.32
4293	9.25	-3.	0.	127.23
4294	9.	-3.75	0.	126.86
4295	9.25	-3.5	0.	127.08
4296	9.	-4.25	0.	126.25
4297	9.25	-4.	0.	126.81
4298	9.	-4.75	0.	125.46
4299	9.25	-4.5	0.	126.47
4300	9.	-5.25	0.	124.39
4301	9.25	-5.	0.	126.06
4302	9.	-5.75	0.	123.
4303	9.25	-5.5	0.	125.59
4304	9.	-6.25	0.	122.39
4305	9.25	-6.	0.	125.39
4306	5.5	-3.25	0.	129.29
4307	5.25	-3.5	0.	125.21
4308	6.75	-9.	0.	128.67
4309	7.25	-9.	0.	129.3
4310	7.	-9.25	0.	129.54
4311	6.25	-9.	0.	127.7
4312	6.5	-9.25	0.	128.6
4313	5.75	-9.	0.	126.78
4314	6.	-9.25	0.	127.57
4315	5.25	-9.	0.	125.92
4316	5.5	-9.25	0.	126.55
4317	4.75	-9.	0.	125.14
4318	5.	-9.25	0.	125.64
4319	4.25	-9.	0.	124.46
4320	4.5	-9.25	0.	124.86
4321	3.75	-9.	0.	123.91
4322	4.	-9.25	0.	124.21
4323	3.25	-9.	0.	123.5
4324	3.5	-9.25	0.	123.71
4325	3.	-9.25	0.	123.4
4326	2.75	-9.	0.	123.29
4327	1.75	-9.	0.	123.47
4328	2.	-9.25	0.	123.36
4329	2.25	-9.	0.	123.29
4330	1.25	-9.	0.	123.77
4331	1.5	-9.25	0.	123.59
4332	0.75	-9.	0.	124.11
4333	1.	-9.25	0.	123.91
4334	0.25	-9.	0.	124.45
4335	0.5	-9.25	0.	124.25
4336	-0.25	-9.	0.	124.76
4337	9.8328e-012	-9.25	0.	124.58
4338	-0.75	-9.	0.	125.03
4339	-0.5	-9.25	0.	124.87
4340	-1.	-9.25	0.	125.13
4341	-1.25	-9.	0.	125.26
4342	-2.25	-9.	0.	125.62
4343	-2.	-9.25	0.	125.53
4344	-1.75	-9.	0.	125.46
4345	-2.	-8.75	0.	125.58
4346	-2.75	-9.	0.	125.73
4347	-2.5	-9.25	0.	125.67
4348	-3.25	-9.	0.	125.8
4349	-3.	-9.25	0.	125.76
4350	-3.75	-9.	0.	125.81
4351	-3.5	-9.25	0.	125.8
4352	-4.25	-9.	0.	125.77
4353	-4.	-9.25	0.	125.79
4354	-4.	-8.75	0.	125.82
4355	-4.75	-9.	0.	125.7
4356	-4.5	-9.25	0.	125.74
4357	-5.25	-9.	0.	125.6
4358	-5.	-9.25	0.	125.65
4359	-5.5	-9.25	0.	125.54
4360	-5.75	-9.	0.	125.47
4361	-6.75	-9.	0.	125.18
4362	-6.5	-9.25	0.	125.26
4363	-6.25	-9.	0.	125.33
4364	-7.25	-9.	0.	125.03
4365	-7.	-9.25	0.	125.11
4366	-7.75	-9.	0.	124.87
4367	-7.5	-9.25	0.	124.95
4368	-8.25	-9.	0.	124.73
4369	-8.	-9.25	0.	124.8
4370	-8.75	-9.	0.	124.6
4371	-8.5	-9.25	0.	124.67
4372	-9.	-8.75	0.	124.52
4373	-9.	-9.25	0.	124.54
4374	-9.25	-9.	0.	124.48
4375	-9.	-8.25	0.	124.49
4376	-9.25	-8.5	0.	124.46
4377	-9.	-7.75	0.	124.46
4378	-9.25	-8.	0.	124.42
4379	-9.25	-7.5	0.	124.37
4380	-9.	-7.25	0.	124.42
4381	-9.	-6.25	0.	124.32
4382	-9.25	-6.5	0.	124.27
4383	-9.	-6.75	0.	124.37
4384	-9.	-5.75	0.	124.27
4385	-9.25	-6.	0.	124.21
4386	-9.	-5.25	0.	124.22
4387	-9.25	-5.5	0.	124.16
4388	-9.	-4.75	0.	124.19
4389	-9.25	-5.	0.	124.11
4390	-9.	-4.25	0.	124.15
4391	-9.25	-4.5	0.	124.07
4392	-9.	-3.75	0.	124.13
4393	-9.25	-4.	0.	124.04
4394	-9.	-3.25	0.	124.13
4395	-9.25	-3.5	0.	124.03
4396	-9.	-2.75	0.	124.13
4397	-9.25	-3.	0.	124.03
4398	-9.	-2.25	0.	124.15
4399	-9.25	-2.5	0.	124.04
4400	-9.	-1.75	0.	124.17
4401	-9.25	-2.	0.	124.06
4402	-9.	-1.25	0.	124.21
4403	-9.25	-1.5	0.	124.1
4404	-9.	-0.75	0.	124.25
4405	-9.25	-1.	0.	124.14
4406	-9.	-0.25	0.	124.3
4407	-9.25	-0.5	0.	124.19
4408	-9.	0.25	0.	124.35
4409	-9.25	-3.6871e-013	0.	124.25
4410	-9.	0.75	0.	124.4
4411	-9.25	0.5	0.	124.31
4412	-9.	1.25	0.	124.46
4413	-9.25	1.	0.	124.36
4414	-9.	1.75	0.	124.51
4415	-9.25	1.5	0.	124.42
4416	-9.	2.25	0.	124.56
4417	-9.25	2.	0.	124.48
4418	-9.25	2.5	0.	124.53
4419	-9.	2.75	0.	124.6
4420	-9.	3.75	0.	124.69
4421	-9.25	3.5	0.	124.64
4422	-9.	3.25	0.	124.65
4423	-9.	4.25	0.	124.73
4424	-9.25	4.	0.	124.68
4425	-9.	4.75	0.	124.77
4426	-9.25	4.5	0.	124.73
4427	-9.	5.25	0.	124.81
4428	-9.25	5.	0.	124.77
4429	-9.	5.75	0.	124.84
4430	-9.25	5.5	0.	124.81
4431	-9.	6.25	0.	124.87
4432	-9.25	6.	0.	124.84
4433	-9.	6.75	0.	124.9
4434	-9.25	6.5	0.	124.88
4435	-8.75	6.5	0.	124.9
4436	-9.	7.25	0.	124.93
4437	-9.25	7.	0.	124.91
4438	-9.	7.75	0.	124.95
4439	-9.25	7.5	0.	124.94
4440	-9.	8.25	0.	124.97
4441	-9.25	8.	0.	124.96
4442	-9.	8.75	0.	124.99
4443	-9.25	8.5	0.	124.98
4444	-8.75	9.	0.	125.
4445	-9.25	9.	0.	124.99
4446	-9.	9.25	0.	125.
4447	-8.25	9.	0.	125.01
4448	-8.5	9.25	0.	125.
4449	-7.75	9.	0.	125.02
4450	-8.	9.25	0.	125.02
4451	-7.25	9.	0.	125.03
4452	-7.5	9.25	0.	125.03
4453	-6.75	9.	0.	125.05
4454	-7.	9.25	0.	125.04
4455	-6.25	9.	0.	125.06
4456	-6.5	9.25	0.	125.06
4457	-5.75	9.	0.	125.07
4458	-6.	9.25	0.	125.07
4459	-5.25	9.	0.	125.09
4460	-5.5	9.25	0.	125.09
4461	-4.75	9.	0.	125.1
4462	-5.	9.25	0.	125.1
4463	-4.5	9.25	0.	125.11
4464	-4.25	9.	0.	125.11
4465	-3.25	9.	0.	125.11
4466	-3.5	9.25	0.	125.12
4467	-3.75	9.	0.	125.11
4468	-2.75	9.	0.	125.11
4469	-3.	9.25	0.	125.12
4470	-2.25	9.	0.	125.11
4471	-2.5	9.25	0.	125.12
4472	-1.75	9.	0.	125.09
4473	-2.	9.25	0.	125.11
4474	-1.25	9.	0.	125.07
4475	-1.5	9.25	0.	125.09
4476	-0.75	9.	0.	125.05
4477	-1.	9.25	0.	125.07
4478	-0.25	9.	0.	125.02
4479	-0.5	9.25	0.	125.04
4480	0.25	9.	0.	124.98
4481	-1.9135e-011	9.25	0.	125.01
4482	0.75	9.	0.	124.94
4483	0.5	9.25	0.	124.97
4484	1.25	9.	0.	124.89
4485	1.	9.25	0.	124.93
4486	1.75	9.	0.	124.85
4487	1.5	9.25	0.	124.9
4488	2.25	9.	0.	124.83
4489	2.	9.25	0.	124.86
4490	2.75	9.	0.	124.84
4491	2.5	9.25	0.	124.84
4492	3.25	9.	0.	124.88
4493	3.	9.25	0.	124.84
4494	3.75	9.	0.	124.97
4495	3.5	9.25	0.	124.86
4496	4.25	9.	0.	125.05
4497	4.	9.25	0.	124.88
4498	4.75	9.	0.	124.98
4499	4.5	9.25	0.	124.85
4500	5.	9.25	0.	124.63
4501	5.25	9.	0.	124.57
4502	6.25	9.	0.	123.2
4503	6.	9.25	0.	123.52
4504	5.75	9.	0.	123.82
4505	6.75	9.	0.	123.29
4506	6.5	9.25	0.	123.28
4507	7.25	9.	0.	124.06
4508	7.	9.25	0.	123.66
4509	7.75	9.	0.	124.9
4510	7.5	9.25	0.	124.38
4511	7.5	8.75	0.	124.82
4512	8.25	9.	0.	125.36
4513	8.	9.25	0.	124.95
4514	8.75	9.	0.	125.43
4515	8.5	9.25	0.	125.19
4516	9.	9.25	0.	125.2
4517	9.25	9.	0.	125.3
4518	1.5	-2.75	0.	132.07
4519	1.75	-2.5	0.	128.1
4520	1.75	-5.5	0.	127.65
4521	1.5	-5.25	0.	131.95
4522	3.25	-5.5	0.	124.73
4523	3.5	-5.25	0.	128.85
4524	5.75	1.	0.	128.05
4525	6.	0.75	0.	123.96
4526	5.25	2.5	0.	123.19
4527	5.5	2.25	0.	126.92
4528	3.5	2.25	0.	129.13
4529	3.75	2.5	0.	125.05
4530	3.25	2.5	0.	129.02
4531	3.5	-0.25	0.	131.45
4532	3.5	-0.75	0.	131.53
4533	3.75	-0.5	0.	124.87
4534	3.25	-0.5	0.	131.93
4535	7.25	7.5	0.	126.62
4536	7.5	7.25	0.	129.74
4537	7.5	7.75	0.	128.45
4538	5.5	7.25	0.	128.94
4539	5.75	7.5	0.	125.82
4540	5.75	5.5	0.	125.15
4541	5.5	5.25	0.	126.54
4542	5.5	5.75	0.	128.11
4543	7.25	5.5	0.	126.16
4544	7.5	5.75	0.	129.84
4545	7.75	5.5	0.	129.39
4546	6.75	5.5	0.	116.96
4547	7.	5.25	0.	121.96
4548	6.25	5.5	0.	116.83
4549	5.5	6.75	0.	128.34
4550	5.5	6.25	0.	127.99
4551	6.25	7.5	0.	117.2
4552	6.	7.75	0.	122.03
4553	6.75	7.5	0.	117.59
4554	6.5	7.75	0.	115.68
4555	7.5	6.25	0.	129.43
4556	7.5	6.75	0.	129.28
4557	3.5	0.25	0.	130.34
4558	3.5	0.75	0.	131.84
4559	3.5	1.25	0.	131.98
4560	3.5	1.75	0.	130.04
4561	4.25	2.5	0.	114.51
4562	4.75	2.5	0.	113.82
4563	5.5	0.75	0.	133.92
4564	5.5	0.25	0.	135.14
4565	5.75	0.5	0.	129.84
4566	5.5	1.25	0.	130.94
4567	5.5	1.75	0.	128.06
4568	2.75	-5.5	0.	115.59
4569	2.25	-5.5	0.	117.
4570	1.5	-4.75	0.	133.46
4571	1.25	-5.	0.	131.82
4572	1.5	-4.25	0.	135.46
4573	1.25	-4.5	0.	133.46
4574	1.5	-3.75	0.	134.91
4575	1.5	-3.25	0.	132.73
4576	2.25	-2.5	0.	117.66
4577	2.75	-2.5	0.	118.19
4578	3.25	-2.5	0.	130.8
4579	3.5	-4.75	0.	130.03
4580	3.5	-4.25	0.	132.85
4581	3.5	-3.75	0.	135.88
4582	3.75	-3.5	0.	130.73
4583	3.5	-3.25	0.	135.6
4584	5.5	-0.25	0.	137.85
4585	5.5	-0.75	0.	139.97
4586	5.25	-0.5	0.	129.68
4587	6.25	0.5	0.	118.3
4588	6.75	0.5	0.	117.94
4589	7.5	-0.25	0.	133.44
4590	7.5	-0.75	0.	135.62
4591	7.5	-1.25	0.	135.46
4592	7.5	-1.75	0.	132.87
4593	6.25	-2.5	0.	117.57
4594	5.75	-2.5	0.	129.77
4595	6.75	-2.5	0.	117.42
4596	-0.25	-4.5	0.	118.75
4597	-0.75	-4.5	0.	118.34
4598	-1.5	-3.75	0.	129.74
4599	-1.5	-3.25	0.	129.83
4600	-1.75	-3.	0.	128.78
4601	-0.75	-2.5	0.	118.71
4602	-0.25	-2.5	0.	119.36
4603	0.5	-3.25	0.	132.
4604	0.5	-3.75	0.	131.84
4605	8.25	-6.5	0.	116.47
4606	8.75	-6.5	0.	116.53
4607	9.25	-6.5	0.	127.39
4608	7.5	-7.25	0.	131.25
4609	7.5	-7.75	0.	133.34
4610	7.5	-8.25	0.	133.05
4611	7.5	-8.75	0.	130.71
4612	7.5	-9.25	0.	129.46
4613	5.5	-1.25	0.	138.92
4614	5.5	-1.75	0.	138.33
4615	5.5	-2.25	0.	137.05
4616	5.5	-2.75	0.	132.96
4617	4.75	-3.5	0.	116.35
4618	4.25	-3.5	0.	117.63
4619	3.5	-2.25	0.	135.54
4620	3.5	-2.75	0.	135.5
4621	3.5	-1.75	0.	132.4
4622	3.5	-1.25	0.	130.26
4623	4.75	-0.5	0.	108.23
4624	4.25	-0.5	0.	107.12
4625	8.75	-9.5	0.	113.4
4626	9.25	-9.5	0.	126.18
4627	8.25	-9.5	0.	112.95
4628	7.75	-9.5	0.	124.21
4629	7.25	-9.5	0.	129.72
4630	6.75	-9.5	0.	129.47
4631	6.25	-9.5	0.	128.48
4632	5.75	-9.5	0.	127.33
4633	5.25	-9.5	0.	126.27
4634	4.75	-9.5	0.	125.36
4635	4.25	-9.5	0.	124.61
4636	3.75	-9.5	0.	124.02
4637	3.25	-9.5	0.	123.61
4638	2.75	-9.5	0.	123.39
4639	2.25	-9.5	0.	123.35
4640	2.5	-9.25	0.	123.28
4641	1.75	-9.5	0.	123.49
4642	1.25	-9.5	0.	123.74
4643	0.75	-9.5	0.	124.05
4644	0.25	-9.5	0.	124.37
4645	-0.25	-9.5	0.	124.69
4646	-0.75	-9.5	0.	124.97
4647	-1.25	-9.5	0.	125.21
4648	-1.75	-9.5	0.	125.42
4649	-1.5	-9.25	0.	125.35
4650	-2.25	-9.5	0.	125.58
4651	-2.75	-9.5	0.	125.69
4652	-3.25	-9.5	0.	125.76
4653	-3.75	-9.5	0.	125.78
4654	-4.25	-9.5	0.	125.75
4655	-4.75	-9.5	0.	125.69
4656	-5.25	-9.5	0.	125.59
4657	-5.75	-9.5	0.	125.47
4658	-6.25	-9.5	0.	125.33
4659	-6.	-9.25	0.	125.4
4660	-6.75	-9.5	0.	125.18
4661	-7.25	-9.5	0.	125.03
4662	-7.75	-9.5	0.	124.88
4663	-8.25	-9.5	0.	124.74
4664	-8.75	-9.5	0.	124.61
4665	-9.25	-9.5	0.	124.5
4666	-9.5	-9.25	0.	124.44
4667	-9.5	-8.75	0.	124.42
4668	-9.5	-8.25	0.	124.38
4669	-9.5	-7.75	0.	124.33
4670	-9.5	-7.25	0.	124.28
4671	-9.5	-6.75	0.	124.22
4672	-9.25	-7.	0.	124.32
4673	-9.5	-6.25	0.	124.16
4674	-9.5	-5.75	0.	124.1
4675	-9.5	-5.25	0.	124.05
4676	-9.5	-4.75	0.	124.
4677	-9.5	-4.25	0.	123.96
4678	-9.5	-3.75	0.	123.94
4679	-9.5	-3.25	0.	123.93
4680	-9.5	-2.75	0.	123.93
4681	-9.5	-2.25	0.	123.95
4682	-9.5	-1.75	0.	123.99
4683	-9.5	-1.25	0.	124.03
4684	-9.5	-0.75	0.	124.08
4685	-9.5	-0.25	0.	124.14
4686	-9.5	0.25	0.	124.2
4687	-9.5	0.75	0.	124.27
4688	-9.5	1.25	0.	124.33
4689	-9.5	1.75	0.	124.39
4690	-9.5	2.25	0.	124.46
4691	-9.5	2.75	0.	124.52
4692	-9.5	3.25	0.	124.57
4693	-9.25	3.	0.	124.59
4694	-9.5	3.75	0.	124.63
4695	-9.5	4.25	0.	124.68
4696	-9.5	4.75	0.	124.73
4697	-9.5	5.25	0.	124.77
4698	-9.5	5.75	0.	124.81
4699	-9.5	6.25	0.	124.85
4700	-9.5	6.75	0.	124.89
4701	-9.5	7.25	0.	124.92
4702	-9.5	7.75	0.	124.94
4703	-9.5	8.25	0.	124.97
4704	-9.5	8.75	0.	124.98
4705	-9.5	9.25	0.	124.99
4706	-9.25	9.5	0.	125.
4707	-8.75	9.5	0.	125.01
4708	-8.25	9.5	0.	125.01
4709	-7.75	9.5	0.	125.03
4710	-7.25	9.5	0.	125.04
4711	-6.75	9.5	0.	125.05
4712	-6.25	9.5	0.	125.07
4713	-5.75	9.5	0.	125.08
4714	-5.25	9.5	0.	125.1
4715	-4.75	9.5	0.	125.11
4716	-4.25	9.5	0.	125.12
4717	-3.75	9.5	0.	125.13
4718	-4.	9.25	0.	125.12
4719	-3.25	9.5	0.	125.13
4720	-2.75	9.5	0.	125.13
4721	-2.25	9.5	0.	125.12
4722	-1.75	9.5	0.	125.11
4723	-1.25	9.5	0.	125.09
4724	-0.75	9.5	0.	125.07
4725	-0.25	9.5	0.	125.04
4726	0.25	9.5	0.	125.01
4727	0.75	9.5	0.	124.97
4728	1.25	9.5	0.	124.94
4729	1.75	9.5	0.	124.9
4730	2.25	9.5	0.	124.87
4731	2.75	9.5	0.	124.85
4732	3.25	9.5	0.	124.82
4733	3.75	9.5	0.	124.77
4734	4.25	9.5	0.	124.68
4735	4.75	9.5	0.	124.5
4736	5.25	9.5	0.	124.19
4737	5.75	9.5	0.	123.83
4738	5.5	9.25	0.	124.13
4739	6.25	9.5	0.	123.59
4740	6.75	9.5	0.	123.65
4741	7.25	9.5	0.	123.99
4742	7.75	9.5	0.	124.43
4743	8.25	9.5	0.	124.77
4744	8.75	9.5	0.	124.96
4745	9.25	9.5	0.	125.03
4746	9.5	9.25	0.	125.13
4747	9.5	8.75	0.	125.31
4748	9.5	8.25	0.	125.47
4749	9.5	7.75	0.	125.55
4750	9.5	7.25	0.	125.58
4751	9.25	7.5	0.	125.87
4752	9.5	6.75	0.	125.71
4753	9.25	7.	0.	125.81
4754	9.5	6.25	0.	126.06
4755	9.25	6.5	0.	125.94
4756	9.5	5.75	0.	126.61
4757	9.25	6.	0.	126.42
4758	9.5	5.25	0.	127.21
4759	9.25	5.5	0.	127.04
4760	9.5	4.75	0.	127.7
4761	9.5	4.25	0.	128.03
4762	9.5	3.75	0.	128.23
4763	9.5	3.25	0.	128.34
4764	9.5	2.75	0.	128.4
4765	9.5	2.25	0.	128.4
4766	9.5	1.75	0.	128.34
4767	9.5	1.25	0.	128.17
4768	9.5	0.75	0.	127.84
4769	9.5	0.25	0.	127.35
4770	9.5	-0.25	0.	126.82
4771	9.5	-0.75	0.	126.41
4772	9.5	-1.25	0.	126.23
4773	9.5	-1.75	0.	126.32
4774	9.5	-2.25	0.	126.57
4775	9.5	-3.25	0.	126.99
4776	9.5	-2.75	0.	126.83
4777	9.5	-3.75	0.	127.03
4778	9.5	-4.75	0.	127.07
4779	9.5	-4.25	0.	127.03
4780	9.5	-5.25	0.	127.26
4781	9.5	-5.75	0.	127.98
4782	9.5	-6.25	0.	130.41
4783	9.5	-6.75	0.	132.56
4784	9.5	-7.25	0.	134.18
4785	9.5	-7.75	0.	136.33
4786	9.5	-8.25	0.	136.34
4787	9.5	-8.75	0.	134.27
4788	9.5	-9.25	0.	132.82
4789	5.5	4.75	0.	123.74
4790	5.5	4.25	0.	122.55
4791	0.5	-0.75	0.	126.28
4792	6.75	4.5	0.	121.86
4793	7.	4.75	0.	122.2
4794	-1.5	-5.25	0.	126.52
4795	-1.5	-5.75	0.	125.78
4796	-6.25	-2.	0.	124.96
4797	-6.5	-1.75	0.	124.92
4798	-2.5	5.25	0.	125.41
4799	-2.5	5.75	0.	125.35
4800	-5.75	-2.	0.	125.1
4801	-5.75	4.	0.	125.16
4802	-4.25	-4.	0.	125.36
4803	-4.75	-4.	0.	125.23
4804	-2.25	-2.5	0.	127.92
4805	-2.	-2.75	0.	128.12
4806	-1.5	-6.25	0.	125.65
4807	-5.75	3.	0.	125.2
4808	-3.5	4.25	0.	125.41
4809	-3.5	4.75	0.	125.37
4810	6.75	-6.5	0.	128.14
4811	6.25	-6.5	0.	127.03
4812	-2.5	4.75	0.	125.47
4813	-4.5	5.75	0.	125.21
4814	1.5	-6.75	0.	124.65
4815	-4.	-6.25	0.	126.07
4816	0.75	2.5	0.	126.31
4817	1.25	2.5	0.	126.62
4818	-2.75	-2.5	0.	126.8
4819	-3.25	-2.5	0.	126.16
4820	-1.	1.25	0.	125.57
4821	1.75	1.5	0.	126.52
4822	3.75	4.5	0.	123.95
4823	3.25	4.5	0.	124.7
4824	-3.5	7.75	0.	125.14
4825	8.5	-0.25	0.	128.94
4826	8.5	-0.75	0.	128.66
4827	9.	6.75	0.	126.04
4828	9.	7.25	0.	126.1
4829	9.	5.75	0.	126.85
4830	9.	6.25	0.	126.29
4831	-1.5	5.25	0.	125.5
4832	3.75	6.	0.	124.17
4833	4.25	6.	0.	124.28
4834	-3.75	2.	0.	125.57
4835	-2.5	4.25	0.	125.51
4836	-6.75	-4.	0.	124.78
4837	-6.25	-5.	0.	125.01
4838	-6.75	-5.	0.	124.87
4839	-6.25	-3.	0.	124.88
4840	-5.75	-5.	0.	125.16
4841	-6.25	-1.	0.	125.07
4842	-5.75	-5.8433e-012	0.	125.29
4843	-4.25	2.	0.	125.51
4844	2.75	5.5	0.	124.75
4845	3.	5.75	0.	124.5
4846	1.5	5.75	0.	125.24
4847	-6.25	4.	0.	125.09
4848	-6.75	4.	0.	125.02
4849	6.25	8.	0.	120.39
4850	5.25	6.	0.	126.7
4851	1.5	6.75	0.	124.89
4852	1.5	6.25	0.	125.03
4853	4.25	4.5	0.	123.44
4854	4.	4.25	0.	123.13
4855	-2.5	3.25	0.	125.58
4856	0.5	-1.25	0.	126.93
4857	-6.75	3.	0.	125.03
4858	-6.25	3.	0.	125.12
4859	2.25	2.5	0.	127.53
4860	2.75	2.5	0.	128.21
4861	1.5	-7.25	0.	124.03
4862	0.25	2.5	0.	126.08
4863	1.	-4.75	0.	131.81
4864	7.5	8.25	0.	125.87
4865	-3.5	3.75	0.	125.45
4866	1.75	2.5	0.	127.01
4867	-3.5	5.75	0.	125.28
4868	-3.5	5.25	0.	125.33
4869	-3.5	6.25	0.	125.24
4870	-3.5	6.75	0.	125.2
4871	4.	3.75	0.	122.11
4872	-2.5	3.75	0.	125.55
4873	-0.5	4.75	0.	125.71
4874	-7.25	-5.	0.	124.73
4875	0.5	0.75	0.	125.82
4876	-3.5	7.25	0.	125.17
4877	-0.75	2.5	0.	125.79
4878	-6.5	-1.25	0.	124.96
4879	-6.75	-1.	0.	124.91
4880	-3.75	-2.5	0.	125.77
4881	-5.25	-2.	0.	125.26
4882	4.75	6.	0.	124.98
4883	3.25	6.	0.	124.31
4884	-1.5	6.75	0.	125.25
4885	-0.25	2.5	0.	125.91
4886	-2.5	6.25	0.	125.29
4887	7.	0.	0.	97.793
4888	6.	0.	0.	99.694
4889	7.	-2.	0.	96.673
4890	6.	-2.	0.	98.72
4891	6.5	0.	0.	112.95
4892	7.	-0.5	0.	102.41
4893	7.	-1.	0.	101.2
4894	7.	-1.5	0.	101.7
4895	6.	-0.5	0.	104.68
4896	6.	-1.	0.	103.
4897	6.	-1.5	0.	102.8
4898	6.5	-2.	0.	111.58
4899	6.5	-0.5	0.	108.22
4900	6.5	-1.	0.	105.57
4901	6.5	-1.5	0.	106.76
4902	6.75	0.	0.	105.33
4903	7.	-0.25	0.	100.1
4904	6.25	0.	0.	106.28
4905	6.	-0.25	0.	102.18
4906	7.	-1.75	0.	99.184
4907	6.75	-2.	0.	104.07
4908	6.	-1.75	0.	100.76
4909	6.25	-2.	0.	105.11
4910	6.5	-0.25	0.	110.53
4911	7.	-0.75	0.	101.76
4912	6.75	-0.5	0.	105.27
4913	7.	-1.25	0.	101.41
4914	6.75	-1.	0.	103.38
4915	6.75	-1.5	0.	104.19
4916	6.	-0.75	0.	103.82
4917	6.25	-0.5	0.	106.41
4918	6.	-1.25	0.	102.85
4919	6.25	-1.	0.	104.28
4920	6.25	-1.5	0.	104.73
4921	6.5	-1.75	0.	109.11
4922	6.5	-0.75	0.	106.89
4923	6.5	-1.25	0.	106.16
4924	9.	-7.	0.	97.191
4925	8.	-7.	0.	95.75
4926	9.	-9.	0.	96.09
4927	8.	-9.	0.	94.601
4928	8.5	-7.	0.	110.49
4929	9.	-7.5	0.	101.3
4930	9.	-8.	0.	100.33
4931	9.	-8.5	0.	100.73
4932	8.	-7.5	0.	100.23
4933	8.	-8.	0.	98.948
4934	8.	-8.5	0.	99.38
4935	8.5	-9.	0.	108.63
4936	8.5	-7.5	0.	105.21
4937	8.5	-8.	0.	102.93
4938	8.5	-8.5	0.	104.37
4939	8.75	-7.	0.	103.8
4940	9.	-7.25	0.	99.245
4941	8.25	-7.	0.	103.07
4942	8.	-7.25	0.	97.984
4943	9.	-8.75	0.	98.408
4944	8.75	-9.	0.	102.32
4945	8.	-8.75	0.	96.989
4946	8.25	-9.	0.	101.58
4947	8.5	-7.25	0.	107.8
4948	9.	-7.75	0.	100.79
4949	8.75	-7.5	0.	103.21
4950	9.	-8.25	0.	100.51
4951	8.75	-8.	0.	101.63
4952	8.75	-8.5	0.	102.52
4953	8.	-7.75	0.	99.543
4954	8.25	-7.5	0.	102.67
4955	8.	-8.25	0.	99.121
4956	8.25	-8.	0.	100.94
4957	8.25	-8.5	0.	101.84
4958	8.5	-8.75	0.	106.45
4959	8.5	-7.75	0.	104.07
4960	8.5	-8.25	0.	103.65
4961	5.	-1.	0.	94.739
4962	4.	-1.	0.	92.722
4963	5.	-3.	0.	96.838
4964	4.	-3.	0.	97.728
4965	4.5	-1.	0.	104.44
4966	5.	-1.5	0.	99.566
4967	5.	-2.	0.	99.962
4968	5.	-2.5	0.	101.56
4969	4.	-1.5	0.	97.709
4970	4.	-2.	0.	99.06
4971	4.	-2.5	0.	101.77
4972	4.5	-3.	0.	111.28
4973	4.5	-1.5	0.	102.16
4974	4.5	-2.	0.	102.42
4975	4.5	-2.5	0.	105.87
4976	4.75	-1.	0.	99.575
4977	5.	-1.25	0.	97.151
4978	4.25	-1.	0.	98.568
4979	4.	-1.25	0.	95.21
4980	5.	-2.75	0.	99.193
4981	4.75	-3.	0.	104.01
4982	4.	-2.75	0.	99.748
4983	4.25	-3.	0.	104.45
4984	4.5	-1.25	0.	103.26
4985	5.	-1.75	0.	99.728
4986	4.75	-1.5	0.	100.85
4987	5.	-2.25	0.	100.74
4988	4.75	-2.	0.	101.19
4989	4.75	-2.5	0.	103.67
4990	4.	-1.75	0.	98.359
4991	4.25	-1.5	0.	99.925
4992	4.	-2.25	0.	100.4
4993	4.25	-2.	0.	100.73
4994	4.25	-2.5	0.	103.75
4995	4.5	-2.75	0.	108.52
4996	4.5	-1.75	0.	102.29
4997	4.5	-2.25	0.	104.14
4998	5.	2.	0.	93.961
4999	4.	2.	0.	94.415
5000	5.	0.	0.	94.382
5001	4.	0.	0.	92.074
5002	4.5	2.	0.	107.9
5003	5.	1.5	0.	98.154
5004	5.	1.	0.	97.741
5005	5.	0.5	0.	98.77
5006	4.	1.5	0.	98.505
5007	4.	1.	0.	97.099
5008	4.	0.5	0.	97.207
5009	4.5	0.	0.	104.27
5010	4.5	1.5	0.	102.7
5011	4.5	1.	0.	100.49
5012	4.5	0.5	0.	101.54
5013	4.75	2.	0.	100.88
5014	5.	1.75	0.	96.056
5015	4.25	2.	0.	101.1
5016	4.	1.75	0.	96.457
5017	5.	0.25	0.	96.563
5018	4.75	0.	0.	99.308
5019	4.	0.25	0.	94.638
5020	4.25	0.	0.	98.152
5021	4.5	1.75	0.	105.25
5022	5.	1.25	0.	97.917
5023	4.75	1.5	0.	100.38
5024	5.	0.75	0.	98.241
5025	4.75	1.	0.	99.116
5026	4.75	0.5	0.	100.13
5027	4.	1.25	0.	97.764
5028	4.25	1.5	0.	100.55
5029	4.	0.75	0.	97.119
5030	4.25	1.	0.	98.794
5031	4.25	0.5	0.	99.352
5032	4.5	0.25	0.	102.86
5033	4.5	1.25	0.	101.59
5034	4.5	0.75	0.	101.02
5035	7.	7.	0.	97.434
5036	6.	7.	0.	97.3
5037	7.	6.	0.	97.668
5038	6.	6.	0.	96.772
5039	6.5	7.	0.	112.82
5040	7.	6.5	0.	102.65
5041	6.	6.5	0.	102.2
5042	6.5	6.	0.	112.56
5043	6.5	6.5	0.	110.04
5044	6.75	7.	0.	105.1
5045	7.	6.75	0.	100.03
5046	6.25	7.	0.	105.04
5047	6.	6.75	0.	99.742
5048	7.	6.25	0.	100.15
5049	6.75	6.	0.	105.1
5050	6.	6.25	0.	99.473
5051	6.25	6.	0.	104.64
5052	6.5	6.75	0.	111.38
5053	6.75	6.5	0.	106.32
5054	6.25	6.5	0.	106.09
5055	6.5	6.25	0.	111.25
5056	0.	-3.	0.	98.993
5057	-1.	-3.	0.	98.361
5058	0.	-4.	0.	98.752
5059	-1.	-4.	0.	98.142
5060	-0.5	-3.	0.	114.28
5061	0.	-3.5	0.	104.05
5062	-1.	-3.5	0.	103.34
5063	-0.5	-4.	0.	113.99
5064	-0.5	-3.5	0.	111.28
5065	-0.25	-3.	0.	106.61
5066	0.	-3.25	0.	101.51
5067	-0.75	-3.	0.	106.3
5068	-1.	-3.25	0.	100.84
5069	0.	-3.75	0.	101.39
5070	-0.25	-4.	0.	106.35
5071	-1.	-3.75	0.	100.73
5072	-0.75	-4.	0.	106.05
5073	-0.5	-3.25	0.	112.74
5074	-0.25	-3.5	0.	107.64
5075	-0.75	-3.5	0.	107.29
5076	-0.5	-3.75	0.	112.59
5077	3.	-3.	0.	97.853
5078	2.	-3.	0.	96.82
5079	3.	-5.	0.	96.219
5080	2.	-5.	0.	96.579
5081	2.5	-3.	0.	111.57
5082	3.	-3.5	0.	102.26
5083	3.	-4.	0.	100.41
5084	3.	-4.5	0.	100.26
5085	2.	-3.5	0.	101.04
5086	2.	-4.	0.	100.17
5087	2.	-4.5	0.	101.36
5088	2.5	-5.	0.	110.45
5089	2.5	-3.5	0.	106.09
5090	2.5	-4.	0.	103.8
5091	2.5	-4.5	0.	105.57
5092	2.75	-3.	0.	104.65
5093	3.	-3.25	0.	100.05
5094	2.25	-3.	0.	104.14
5095	2.	-3.25	0.	98.927
5096	3.	-4.75	0.	98.238
5097	2.75	-5.	0.	103.31
5098	2.	-4.75	0.	98.966
5099	2.25	-5.	0.	103.46
5100	2.5	-3.25	0.	108.77
5101	3.	-3.75	0.	101.31
5102	2.75	-3.5	0.	104.11
5103	3.	-4.25	0.	100.3
5104	2.75	-4.	0.	102.1
5105	2.75	-4.5	0.	102.88
5106	2.	-3.75	0.	100.55
5107	2.25	-3.5	0.	103.5
5108	2.	-4.25	0.	100.72
5109	2.25	-4.	0.	101.98
5110	2.25	-4.5	0.	103.43
5111	2.5	-4.75	0.	107.96
5112	2.5	-3.75	0.	104.94
5113	2.5	-4.25	0.	104.68
