Node Number	X Location (mm)	Y Location (mm)	Z Location (mm)	Equivalent (von-Mises) Stress (MPa)
1	6.83	0.68	0.	109.06
2	7.55	1.67	0.	173.83
3	6.34	1.8	0.	170.42
4	7.32	-4.16	0.	151.54
5	6.48	-3.57	0.	132.67
6	6.39	-4.59	0.	150.3
7	-0.74	-0.19	0.	119.96
8	-1.48	-0.94	0.	169.63
9	-0.46	-1.2	0.	160.37
10	-1.03	6.01	0.	156.61
11	-0.4	4.13	0.	112.3
12	0.91	5.62	0.	160.46
13	-7.55	-8.38	0.	159.22
14	-5.61	-8.07	0.	168.94
15	-6.85	-6.54	0.	113.47
16	-8.7	-1.36	0.	161.98
17	-7.51	-1.73	0.	151.02
18	-7.79	-0.52	0.	123.55
19	6.	-1.	0.	129.93
20	6.	-2.	0.	130.16
21	7.	-1.	0.	127.17
22	7.	-2.	0.	127.5
23	4.	5.	0.	137.12
24	4.	3.	0.	139.87
25	6.	5.	0.	135.36
26	6.	3.	0.	140.18
27	7.	5.	0.	137.89
28	7.	4.	0.	135.49
29	9.	5.	0.	139.28
30	9.	4.	0.	139.27
31	6.	8.	0.	132.42
32	6.	7.	0.	132.08
33	7.	8.	0.	132.87
34	7.	7.	0.	132.78
35	-3.	-7.	0.	137.19
36	-3.	-8.	0.	137.31
37	-2.	-7.	0.	137.75
38	-2.	-8.	0.	136.3
39	0.	2.	0.	132.57
40	0.	1.	0.	134.74
41	2.	2.	0.	138.78
42	2.	1.	0.	137.84
43	0.	-4.	0.	131.91
44	0.	-5.	0.	130.28
45	2.	-4.	0.	133.25
46	2.	-5.	0.	130.59
47	0.	-7.	0.	131.13
48	0.	-9.	0.	131.92
49	2.	-7.	0.	130.86
50	2.	-9.	0.	129.91
51	-9.	-3.	0.	136.22
52	-9.	-5.	0.	138.55
53	-7.	-3.	0.	133.58
54	-7.	-5.	0.	132.53
55	-7.	2.	0.	129.36
56	-7.	1.	0.	133.43
57	-6.	2.	0.	133.35
58	-6.	1.	0.	133.42
59	-6.	7.	0.	137.83
60	-6.	6.	0.	137.8
61	-5.	7.	0.	135.54
62	-5.	6.	0.	133.46
63	-9.	7.	0.	136.91
64	-9.	5.	0.	136.77
65	-7.	7.	0.	139.05
66	-7.	5.	0.	136.44
67	10.	10.	0.	125.01
68	-10.	10.	0.	124.92
69	10.	-10.	0.	125.06
70	-10.	-10.	0.	132.18
71	7.07	1.01	0.	88.453
72	7.31	1.34	0.	104.13
73	6.6667	1.0533	0.	113.37
74	6.5033	1.4267	0.	128.16
75	7.1467	1.7133	0.	100.9
76	6.7433	1.7567	0.	111.98
77	6.9	-3.865	0.	63.457
78	6.855	-4.375	0.	77.442
79	6.435	-4.08	0.	142.26
80	-1.11	-0.565	0.	64.298
81	-0.6	-0.695	0.	134.51
82	-0.97	-1.07	0.	94.067
83	-0.8725	5.54	0.	133.52
84	-0.715	5.07	0.	133.09
85	-0.5575	4.6	0.	126.29
86	-0.545	5.9125	0.	109.54
87	-6.e-002	5.815	0.	115.43
88	0.425	5.7175	0.	106.19
89	-7.25e-002	4.5025	0.	99.016
90	0.255	4.875	0.	111.29
91	0.5825	5.2475	0.	100.78
92	-7.065	-8.3025	0.	108.86
93	-6.58	-8.225	0.	114.82
94	-6.095	-8.1475	0.	104.09
95	-7.375	-7.92	0.	129.58
96	-7.2	-7.46	0.	129.06
97	-7.025	-7.	0.	121.67
98	-5.92	-7.6875	0.	101.97
99	-6.23	-7.305	0.	110.14
100	-6.54	-6.9225	0.	95.026
101	-8.3033	-1.4833	0.	81.405
102	-7.9067	-1.6067	0.	97.658
103	-8.3967	-1.08	0.	75.057
104	-8.0933	-0.8	0.	81.974
105	-7.6033	-1.3267	0.	136.67
106	-7.6967	-0.92333	0.	127.22
107	6.	-1.5	0.	139.7
108	6.5	-1.	0.	106.99
109	6.5	-2.	0.	105.85
110	7.	-1.5	0.	136.85
111	4.	4.5	0.	146.5
112	4.	4.	0.	148.74
113	4.	3.5	0.	148.56
114	4.5	5.	0.	115.17
115	5.	5.	0.	119.08
116	5.5	5.	0.	113.82
117	4.5	3.	0.	117.64
118	5.	3.	0.	122.88
119	5.5	3.	0.	118.9
120	6.	4.5	0.	141.09
121	6.	4.	0.	145.21
122	6.	3.5	0.	146.37
123	7.	4.5	0.	144.37
124	7.5	5.	0.	118.66
125	8.	5.	0.	124.85
126	8.5	5.	0.	120.54
127	7.5	4.	0.	116.35
128	8.	4.	0.	123.3
129	8.5	4.	0.	120.03
130	9.	4.5	0.	149.36
131	6.	7.5	0.	140.93
132	6.5	8.	0.	110.53
133	6.5	7.	0.	111.16
134	7.	7.5	0.	141.63
135	-3.	-7.5	0.	146.4
136	-2.5	-7.	0.	114.2
137	-2.5	-8.	0.	113.6
138	-2.	-7.5	0.	146.1
139	0.	1.5	0.	140.22
140	0.5	2.	0.	114.84
141	1.	2.	0.	122.42
142	1.5	2.	0.	119.71
143	0.5	1.	0.	118.55
144	1.	1.	0.	123.96
145	1.5	1.	0.	119.12
146	2.	1.5	0.	147.54
147	0.	-4.5	0.	139.63
148	0.5	-4.	0.	113.47
149	1.	-4.	0.	118.54
150	1.5	-4.	0.	114.02
151	0.5	-5.	0.	111.56
152	1.	-5.	0.	115.46
153	1.5	-5.	0.	111.53
154	2.	-4.5	0.	140.52
155	0.	-7.5	0.	139.8
156	0.	-8.	0.	141.36
157	0.	-8.5	0.	140.96
158	0.5	-7.	0.	108.15
159	1.	-7.	0.	111.52
160	1.5	-7.	0.	108.23
161	0.5	-9.	0.	108.44
162	1.	-9.	0.	111.28
163	1.5	-9.	0.	107.86
164	2.	-7.5	0.	139.97
165	2.	-8.	0.	140.95
166	2.	-8.5	0.	139.68
167	-9.	-3.5	0.	148.07
168	-9.	-4.	0.	150.32
169	-9.	-4.5	0.	149.05
170	-8.5	-3.	0.	110.7
171	-8.	-3.	0.	111.37
172	-7.5	-3.	0.	109.66
173	-8.5	-5.	0.	116.1
174	-8.	-5.	0.	118.38
175	-7.5	-5.	0.	111.3
176	-7.	-3.5	0.	142.38
177	-7.	-4.	0.	142.87
178	-7.	-4.5	0.	140.9
179	-7.	1.5	0.	138.84
180	-6.5	2.	0.	109.44
181	-6.5	1.	0.	110.11
182	-6.	1.5	0.	143.07
183	-6.	6.5	0.	146.45
184	-5.5	7.	0.	113.19
185	-5.5	6.	0.	111.51
186	-5.	6.5	0.	144.06
187	-9.	6.5	0.	147.99
188	-9.	6.	0.	149.79
189	-9.	5.5	0.	147.99
190	-8.5	7.	0.	115.65
191	-8.	7.	0.	119.73
192	-7.5	7.	0.	115.24
193	-8.5	5.	0.	115.47
194	-8.	5.	0.	119.27
195	-7.5	5.	0.	114.59
196	-7.	6.5	0.	144.32
197	-7.	6.	0.	147.29
198	-7.	5.5	0.	147.1
199	9.5	10.	0.	125.07
200	9.	10.	0.	125.14
201	8.5	10.	0.	124.95
202	8.	10.	0.	124.31
203	7.5	10.	0.	123.16
204	7.	10.	0.	121.93
205	6.5	10.	0.	121.4
206	6.	10.	0.	121.91
207	5.5	10.	0.	123.15
208	5.	10.	0.	124.37
209	4.5	10.	0.	125.18
210	4.	10.	0.	125.63
211	3.5	10.	0.	125.88
212	3.	10.	0.	126.
213	2.5	10.	0.	125.97
214	2.	10.	0.	125.79
215	1.5	10.	0.	125.49
216	1.	10.	0.	125.14
217	0.5	10.	0.	124.88
218	-5.2042e-015	10.	0.	124.83
219	-0.5	10.	0.	125.06
220	-1.	10.	0.	125.57
221	-1.5	10.	0.	126.27
222	-2.	10.	0.	127.02
223	-2.5	10.	0.	127.67
224	-3.	10.	0.	128.09
225	-3.5	10.	0.	128.2
226	-4.	10.	0.	127.95
227	-4.5	10.	0.	127.38
228	-5.	10.	0.	126.62
229	-5.5	10.	0.	125.82
230	-6.	10.	0.	125.02
231	-6.5	10.	0.	124.2
232	-7.	10.	0.	123.4
233	-7.5	10.	0.	122.79
234	-8.	10.	0.	122.63
235	-8.5	10.	0.	123.05
236	-9.	10.	0.	123.94
237	-9.5	10.	0.	124.77
238	10.	9.5	0.	124.84
239	10.	9.	0.	124.64
240	10.	8.5	0.	124.7
241	10.	8.	0.	125.22
242	10.	7.5	0.	126.45
243	10.	7.	0.	128.59
244	10.	6.5	0.	131.56
245	10.	6.	0.	134.63
246	10.	5.5	0.	134.65
247	10.	5.	0.	129.43
248	10.	4.5	0.	124.79
249	10.	4.	0.	129.73
250	10.	3.5	0.	135.23
251	10.	3.	0.	135.32
252	10.	2.5	0.	132.23
253	10.	2.	0.	129.28
254	10.	1.5	0.	127.66
255	10.	1.	0.	127.84
256	10.	0.5	0.	129.04
257	10.	-5.2042e-015	0.	130.21
258	10.	-0.5	0.	130.65
259	10.	-1.	0.	130.47
260	10.	-1.5	0.	130.05
261	10.	-2.	0.	129.6
262	10.	-2.5	0.	128.97
263	10.	-3.	0.	127.91
264	10.	-3.5	0.	126.59
265	10.	-4.	0.	125.57
266	10.	-4.5	0.	125.44
267	10.	-5.	0.	126.05
268	10.	-5.5	0.	126.81
269	10.	-6.	0.	127.21
270	10.	-6.5	0.	127.17
271	10.	-7.	0.	126.82
272	10.	-7.5	0.	126.36
273	10.	-8.	0.	125.9
274	10.	-8.5	0.	125.53
275	10.	-9.	0.	125.27
276	10.	-9.5	0.	125.11
277	-10.	9.5	0.	125.38
278	-10.	9.	0.	127.47
279	-10.	8.5	0.	130.8
280	-10.	8.	0.	134.64
281	-10.	7.5	0.	136.03
282	-10.	7.	0.	132.71
283	-10.	6.5	0.	128.6
284	-10.	6.	0.	128.44
285	-10.	5.5	0.	129.14
286	-10.	5.	0.	133.69
287	-10.	4.5	0.	137.35
288	-10.	4.	0.	136.25
289	-10.	3.5	0.	132.7
290	-10.	3.	0.	129.62
291	-10.	2.5	0.	127.48
292	-10.	2.	0.	126.41
293	-10.	1.5	0.	126.62
294	-10.	1.	0.	128.07
295	-10.	0.5	0.	130.07
296	-10.	-5.2042e-015	0.	131.1
297	-10.	-0.5	0.	129.14
298	-10.	-1.	0.	125.85
299	-10.	-1.5	0.	130.24
300	-10.	-2.	0.	139.11
301	-10.	-2.5	0.	144.28
302	-10.	-3.	0.	141.48
303	-10.	-3.5	0.	136.19
304	-10.	-4.	0.	134.8
305	-10.	-4.5	0.	134.5
306	-10.	-5.	0.	138.19
307	-10.	-5.5	0.	140.77
308	-10.	-6.	0.	138.26
309	-10.	-6.5	0.	132.95
310	-10.	-7.	0.	128.26
311	-10.	-7.5	0.	125.4
312	-10.	-8.	0.	124.79
313	-10.	-8.5	0.	126.42
314	-10.	-9.	0.	129.09
315	-10.	-9.5	0.	131.36
316	-9.5	-10.	0.	130.6
317	-9.	-10.	0.	130.67
318	-8.5	-10.	0.	129.98
319	-8.	-10.	0.	126.
320	-7.5	-10.	0.	118.8
321	-7.	-10.	0.	113.03
322	-6.5	-10.	0.	113.15
323	-6.	-10.	0.	119.02
324	-5.5	-10.	0.	126.99
325	-5.	-10.	0.	133.23
326	-4.5	-10.	0.	135.72
327	-4.	-10.	0.	135.17
328	-3.5	-10.	0.	132.72
329	-3.	-10.	0.	129.84
330	-2.5	-10.	0.	128.51
331	-2.	-10.	0.	129.76
332	-1.5	-10.	0.	132.54
333	-1.	-10.	0.	134.64
334	-0.5	-10.	0.	131.98
335	5.2042e-015	-10.	0.	121.21
336	0.5	-10.	0.	109.88
337	1.	-10.	0.	105.27
338	1.5	-10.	0.	108.98
339	2.	-10.	0.	119.43
340	2.5	-10.	0.	129.63
341	3.	-10.	0.	132.56
342	3.5	-10.	0.	131.63
343	4.	-10.	0.	130.25
344	4.5	-10.	0.	128.92
345	5.	-10.	0.	127.79
346	5.5	-10.	0.	126.88
347	6.	-10.	0.	126.16
348	6.5	-10.	0.	125.65
349	7.	-10.	0.	125.33
350	7.5	-10.	0.	125.19
351	8.	-10.	0.	125.18
352	8.5	-10.	0.	125.24
353	9.	-10.	0.	125.29
354	9.5	-10.	0.	125.26
355	-3.9677	-3.5125	0.	129.51
356	-3.4603	-3.5173	0.	129.37
357	-3.9762	-4.0046	0.	129.5
358	-2.9001	2.2336	0.	129.45
359	-4.4812	-3.9987	0.	129.52
360	-3.9603	-2.528	0.	129.9
361	-3.9572	-2.0371	0.	129.76
362	-2.9691	-4.0123	0.	128.32
363	-3.4719	-4.0095	0.	129.08
364	-4.475	-1.5313	0.	129.09
365	-2.9001	2.6355	0.	129.81
366	-2.9598	-3.5206	0.	128.92
367	-2.9835	1.3354	0.	129.61
368	2.9951	-1.5112	0.	126.65
369	-4.9851	-3.9926	0.	129.21
370	-3.987	3.502	0.	129.82
371	-4.473	-1.0371	0.	128.93
372	-2.9469	-3.0299	0.	129.82
373	-3.5075	4.0225	0.	129.51
374	3.4974	-1.5099	0.	127.8
375	-2.4588	1.7322	0.	128.39
376	-4.4858	-4.4908	0.	130.12
377	4.4792	-6.013	0.	129.68
378	4.9897	-6.5043	0.	128.23
379	-3.4493	-2.5353	0.	130.31
380	-3.9561	-1.5446	0.	129.36
381	-3.456	3.0066	0.	130.17
382	-3.4804	1.3997	0.	129.66
383	-3.9838	-4.4979	0.	129.95
384	-4.4759	-2.0249	0.	129.48
385	-4.4761	-3.5062	0.	129.46
386	-2.9535	3.0723	0.	130.18
387	-3.0224	4.5235	0.	128.66
388	-2.987	3.5481	0.	130.18
389	-4.4741	-2.5191	0.	129.73
390	-3.4816	-4.5032	0.	129.17
391	-2.4694	-4.0136	0.	127.35
392	-3.4538	1.9084	0.	129.65
393	-3.376	2.4536	0.	129.92
394	-3.4834	0.41261	0.	129.92
395	-3.4873	0.90372	0.	129.88
396	-3.9605	-0.55576	0.	129.16
397	-3.9577	-1.0498	0.	129.06
398	-3.4451	-2.0453	0.	130.29
399	4.4886	-6.5089	0.	129.18
400	-4.49	-4.9825	0.	131.33
401	-2.419	2.1853	0.	128.58
402	-2.4085	2.6355	0.	129.34
403	3.4951	-1.0105	0.	127.95
404	-3.5151	4.519	0.	128.85
405	3.493	-0.50998	0.	128.47
406	3.5003	-2.0095	0.	128.13
407	3.5011	-2.5089	0.	128.66
408	-4.4736	-0.53976	0.	129.25
409	4.4453	0.51069	0.	125.54
410	4.4387	1.0002	0.	123.03
411	-2.9922	0.38758	0.	130.41
412	-2.4991	0.81748	0.	130.28
413	-4.003	4.0095	0.	129.21
414	-4.4877	3.4965	0.	129.43
415	1.6702	3.8977	0.	126.68
416	2.0447	4.4243	0.	128.18
417	1.6051	4.3544	0.	127.47
418	7.3241e-002	7.1821	0.	117.96
419	1.009	-2.536	0.	119.2
420	-2.434	3.0923	0.	130.13
421	1.2686	4.2027	0.	126.35
422	-4.9866	-4.4826	0.	129.67
423	-4.4909	-5.4732	0.	132.92
424	3.999	-9.8047e-003	0.	128.
425	3.9973	-1.5154	0.	128.22
426	-2.4888	-5.0057	0.	126.84
427	2.9899	-1.0121	0.	126.95
428	1.9896	-1.5205	0.	122.28
429	-1.9469	-3.025	0.	127.65
430	3.	-2.0105	0.	127.01
431	3.9985	-3.0108	0.	128.98
432	3.9804	-4.5121	0.	126.98
433	3.9836	-6.0109	0.	130.39
434	7.0649	-6.6745	0.	122.88
435	7.0745	-7.0822	0.	123.59
436	6.6012	-6.9193	0.	123.36
437	6.0409	-6.9601	0.	124.63
438	5.5145	-6.986	0.	126.18
439	5.0021	-6.9995	0.	127.43
440	4.4968	-7.005	0.	128.33
441	-3.9707	-6.0234e-002	0.	129.58
442	-4.9996	-1.5159	0.	128.6
443	1.4558	-0.52228	0.	119.19
444	1.4992	-2.0282	0.	120.81
445	7.0102	-6.2443	0.	121.61
446	5.4975	-6.4869	0.	126.77
447	4.4718	-5.5151	0.	129.39
448	4.4807	-4.0156	0.	126.59
449	-2.951	-2.538	0.	130.79
450	4.8708	0.99109	0.	121.69
451	4.9581	0.18338	0.	127.07
452	-1.4539	-2.5224	0.	124.33
453	-2.4503	-2.5382	0.	130.86
454	-1.9495	-2.5314	0.	128.96
455	4.4728	-4.5157	0.	126.8
456	4.4694	-5.0158	0.	128.15
457	6.0108	-6.4511	0.	124.49
458	6.5199	-6.3788	0.	122.26
459	1.4717	-1.0254	0.	119.63
460	-3.4484	-0.56433	0.	128.92
461	-5.5349	-0.99628	0.	126.6
462	-3.9848	0.9373	0.	129.65
463	-3.9614	1.9542	0.	129.62
464	3.9952	-7.0058	0.	129.04
465	3.9898	-6.5083	0.	130.04
466	3.9793	-5.512	0.	129.65
467	3.9781	-5.0122	0.	128.18
468	3.993	-3.511	0.	127.99
469	2.4978	-2.0136	0.	125.09
470	1.9983	-2.0199	0.	122.65
471	-1.9717	-4.0146	0.	126.32
472	2.4862	-1.0152	0.	124.94
473	-1.8872	2.6136	0.	128.34
474	-1.9268	2.1474	0.	127.07
475	-3.4893	-4.9983	0.	129.64
476	4.0008	-2.5118	0.	129.18
477	3.9949	-1.0168	0.	128.25
478	-4.9823	-3.0087	0.	129.82
479	-4.9856	-2.5114	0.	129.92
480	-5.43	-6.8684	0.	132.1
481	-4.9747	-5.9412	0.	134.01
482	-4.9785	-5.4552	0.	132.55
483	-4.9831	-4.9697	0.	130.91
484	-2.9974	5.5037	0.	126.63
485	-2.9916	6.4936	0.	127.03
486	-2.9886	5.9947	0.	126.52
487	2.0044	7.4815	0.	128.93
488	1.2652	3.4296	0.	122.52
489	1.2581	3.8271	0.	124.52
490	-2.5088	4.0384	0.	129.91
491	-2.4744	3.5613	0.	130.44
492	4.8939	0.57241	0.	124.58
493	1.0318	4.5017	0.	125.74
494	2.0964	3.9396	0.	128.47
495	2.5515	3.9616	0.	130.41
496	3.4883	6.977	0.	127.01
497	-5.5266	-1.5003	0.	127.71
498	-4.4985	4.0016	0.	128.46
499	-4.9966	3.9988	0.	127.33
500	-2.9442	-2.0485	0.	131.27
501	-2.5065	0.36293	0.	131.42
502	0.99938	-6.0003	0.	107.17
503	0.9191	-1.5184e-002	0.	118.09
504	-1.6458	4.9651	0.	129.04
505	1.3736e-002	6.7543	0.	114.95
506	3.0268	3.9767	0.	133.25
507	-8.193	-7.2362	0.	124.66
508	5.0084	-7.4956	0.	126.9
509	4.502	-7.5015	0.	127.6
510	7.5069	-6.1453	0.	123.65
511	7.5359	-6.6082	0.	123.9
512	7.5439	-7.0725	0.	124.15
513	-1.9876	1.2217	0.	127.11
514	-2.0069	0.7674	0.	129.26
515	-2.0219	0.31502	0.	132.92
516	-6.1141	-0.94136	0.	124.11
517	1.681	3.4617	0.	125.7
518	4.9652	-5.513	0.	129.52
519	4.9743	-4.0206	0.	125.93
520	1.0029	-2.0421	0.	120.88
521	-2.948	-1.5542	0.	130.41
522	-4.4735	2.9882	0.	130.14
523	-4.9897	3.4952	0.	128.68
524	3.4869	-4.5083	0.	126.9
525	1.5046	-2.5236	0.	120.03
526	3.0015	-2.5094	0.	127.87
527	2.9877	-0.51137	0.	128.03
528	3.9676	0.99608	0.	125.42
529	-4.4863	-5.9622	0.	134.24
530	-4.9752	-6.9092	0.	134.32
531	4.5331	-1.0627e-002	0.	127.67
532	-5.4967	3.9983	0.	126.42
533	-2.994	6.9938	0.	127.85
534	-2.9949	7.4942	0.	128.37
535	-0.39033	7.4231	0.	118.95
536	8.2773e-002	7.5863	0.	120.16
537	0.55047	7.5706	0.	122.48
538	1.0291	7.5359	0.	125.6
539	2.4975	7.4734	0.	128.64
540	2.994	7.4749	0.	127.66
541	3.4932	7.4813	0.	126.29
542	3.9939	7.4873	0.	124.8
543	4.4955	7.4933	0.	123.8
544	5.0365	1.4269	0.	118.58
545	-2.4745	5.4797	0.	126.44
546	-2.4921	6.9881	0.	128.75
547	2.4703	6.4543	0.	130.37
548	0.53974	7.1098	0.	121.62
549	1.9911	6.9787	0.	130.6
550	2.9761	6.4628	0.	129.72
551	3.9907	6.9853	0.	124.93
552	2.5211	4.4551	0.	129.34
553	6.9815	-5.7748	0.	119.3
554	-2.0458	4.5057	0.	129.27
555	5.2731	1.0128	0.	121.45
556	5.3404	0.6152	0.	124.88
557	5.3867	0.21982	0.	126.75
558	-1.9673	3.5715	0.	130.64
559	0.84192	3.3827	0.	119.99
560	0.83352	3.7977	0.	122.07
561	7.4819	-5.6752	0.	124.09
562	2.4745	4.949	0.	128.59
563	3.9883	6.4854	0.	125.26
564	3.4826	6.4752	0.	128.14
565	1.0173	7.0517	0.	126.81
566	2.4532	5.9493	0.	129.68
567	-2.4852	6.4814	0.	128.13
568	-2.4731	5.9742	0.	126.64
569	-1.4755	7.4764	0.	126.69
570	5.0192	1.9606	0.	117.1
571	4.4925	6.4922	0.	122.59
572	-5.482	-4.9631	0.	129.72
573	-5.4332	-6.389	0.	133.17
574	-5.4709	-5.4429	0.	131.2
575	-5.4945	-2.5098	0.	130.78
576	-3.4961	6.9978	0.	127.57
577	-3.4963	7.4974	0.	128.64
578	-3.5039	5.5092	0.	127.46
579	-3.4971	6.0031	0.	126.72
580	-4.5055	4.5052	0.	127.63
581	-6.4969	3.4996	0.	121.69
582	4.4929	-1.0334	0.	128.22
583	4.5018	-2.5173	0.	129.97
584	-4.4934	-6.9434	0.	132.82
585	-3.4951	-5.4948	0.	130.47
586	-1.3114	2.5676	0.	126.83
587	-1.4527	2.092	0.	125.27
588	-1.5492	0.26312	0.	128.55
589	-1.4946	1.1691	0.	123.78
590	-1.5156	0.70802	0.	125.17
591	3.4807	0.99401	0.	127.96
592	1.9715	-0.51838	0.	122.75
593	2.4795	-0.51371	0.	126.14
594	-1.4764	-4.0164	0.	125.43
595	2.502	-2.5123	0.	126.01
596	2.0028	-2.517	0.	122.96
597	3.4957	-3.508	0.	128.21
598	-1.9961	-5.5039	0.	127.36
599	-1.4959	-5.5053	0.	129.8
600	3.4853	-5.5085	0.	130.32
601	3.4849	-5.0086	0.	128.3
602	3.4919	-6.5062	0.	131.03
603	-5.4927	3.4966	0.	127.04
604	-5.995	3.4982	0.	124.42
605	-4.4676	2.4811	0.	130.15
606	-5.9713	-0.45586	0.	124.78
607	-5.4957	-0.49816	0.	127.17
608	-2.0521	-0.12327	0.	133.21
609	-2.5072	-7.8202e-002	0.	130.92
610	-2.9322	-1.0576	0.	128.78
611	0.96396	-1.0339	0.	118.32
612	1.9748e-002	-2.5561	0.	122.08
613	5.9842	-5.9506	0.	124.88
614	6.4854	-5.8796	0.	120.31
615	4.963	-4.5186	0.	126.3
616	4.96	-5.016	0.	128.59
617	-5.0061	-7.3827	0.	132.74
618	-4.5272	-7.4399	0.	130.09
619	5.7013	1.0551	0.	123.12
620	-1.5603	4.5212	0.	129.97
621	2.0806	3.4571	0.	128.76
622	2.5449	3.4681	0.	131.77
623	3.0248	3.479	0.	134.14
624	4.4932	5.9941	0.	120.58
625	1.4097	4.8316	0.	129.96
626	-0.47125	6.8859	0.	115.36
627	-6.8433	-0.58565	0.	124.57
628	-5.994	-3.5016	0.	130.46
629	-7.4994	4.0003	0.	117.14
630	3.4909	1.4942	0.	128.45
631	1.4533	-1.7064e-002	0.	119.4
632	0.51433	-3.0355	0.	117.73
633	2.9984	-7.5019	0.	128.92
634	8.0548	0.49768	0.	131.16
635	4.9891	-3.5214	0.	128.03
636	-6.0491	-1.4989	0.	126.08
637	-5.4998	4.4997	0.	124.98
638	-7.9996	3.5008	0.	118.39
639	-7.9998	4.0003	0.	115.59
640	7.5128	-8.0217	0.	124.64
641	6.514	-7.9912	0.	124.75
642	6.0152	-7.9851	0.	125.29
643	5.5122	-7.989	0.	126.01
644	5.008	-7.9947	0.	126.73
645	4.5041	-7.999	0.	127.3
646	3.4997	-8.0016	0.	127.98
647	2.9995	-8.0011	0.	128.98
648	8.0039	-6.0846	0.	126.2
649	8.0196	-6.5653	0.	125.34
650	8.0245	-7.0469	0.	125.
651	8.0177	-7.5308	0.	124.91
652	8.0117	-8.021	0.	124.94
653	4.9968	7.4961	0.	123.47
654	-8.	8.	0.	117.36
655	-3.4977	7.9976	0.	128.81
656	-2.9966	7.9959	0.	128.37
657	-2.4934	7.9926	0.	128.05
658	-1.9866	7.9868	0.	127.39
659	-1.4773	7.9792	0.	125.82
660	-0.96594	7.9709	0.	123.5
661	-0.45811	7.976	0.	121.74
662	3.8608e-002	8.0293	0.	121.78
663	0.53411	8.0402	0.	123.22
664	1.0247	8.0237	0.	125.15
665	1.5155	8.0036	0.	126.75
666	2.008	7.9912	0.	127.52
667	2.5022	7.9842	0.	127.45
668	2.9983	7.9826	0.	126.81
669	3.4965	7.9858	0.	125.89
670	3.9962	7.9898	0.	125.03
671	4.4967	7.9934	0.	124.65
672	-6.6525	-1.072	0.	121.61
673	-0.77685	2.7471	0.	125.42
674	-1.4065	3.1044	0.	128.92
675	0.35887	4.2324	0.	118.72
676	0.30009	2.9793	0.	117.21
677	-8.0028	-6.8145	0.	123.76
678	0.502	6.6504	0.	120.52
679	1.969	6.4648	0.	131.62
680	-1.9103	5.4092	0.	126.58
681	-1.989	6.9824	0.	130.34
682	-6.5329	9.568e-004	0.	121.77
683	7.2352	2.556	0.	117.5
684	8.0433	3.03	0.	121.92
685	5.5637	1.4777	0.	118.23
686	8.	6.	0.	122.7
687	-5.9925	-4.4803	0.	128.57
688	-6.0138	-2.0157	0.	130.33
689	-3.9984	7.9989	0.	129.51
690	-3.9988	6.5021	0.	126.66
691	-4.0098	5.0109	0.	128.87
692	-7.5	8.	0.	120.56
693	-5.9972	3.9986	0.	126.18
694	4.9977	-1.536	0.	127.42
695	4.9888	-0.18804	0.	128.67
696	5.4658	-4.0276	0.	123.6
697	5.0013	-3.0221	0.	130.68
698	8.0471	-1.3633e-002	0.	130.25
699	8.0049	-1.5113	0.	125.29
700	-3.9934	-5.9793	0.	133.92
701	-2.4986	-6.001	0.	123.83
702	-0.98392	1.5939	0.	121.89
703	0.33616	1.4071e-002	0.	123.55
704	-2.4527	-2.0498	0.	132.76
705	1.423	3.0212	0.	121.71
706	2.9939	1.4941	0.	130.16
707	2.9846	-1.0453e-002	0.	129.77
708	-0.98975	-4.5119	0.	124.99
709	-0.9641	-3.0294	0.	124.18
710	1.5062	-3.0175	0.	118.26
711	3.0009	-3.0081	0.	128.94
712	0.49998	-6.0004	0.	110.92
713	2.9921	-4.5054	0.	126.2
714	-1.0001	-7.5004	0.	129.72
715	-0.9985	-6.0031	0.	134.07
716	1.4983	-6.0005	0.	110.7
717	2.9915	-6.005	0.	132.27
718	-7.9836	1.5037	0.	120.46
719	-7.9991	3.0012	0.	121.13
720	-6.4964	2.9996	0.	118.13
721	-4.9823	2.9912	0.	130.07
722	-4.9874	1.4797	0.	128.58
723	-4.985	-2.2297e-002	0.	130.13
724	-1.4769	-2.0074	0.	124.52
725	-2.4657	-1.56	0.	132.48
726	0.40909	-0.54069	0.	118.93
727	0.50846	-2.0595	0.	124.06
728	6.9572	-5.2995	0.	114.92
729	5.4602	-5.5005	0.	130.27
730	5.4496	-4.522	0.	126.9
731	5.4492	-5.0111	0.	130.29
732	5.9584	-5.4681	0.	127.26
733	6.4595	-5.4032	0.	117.44
734	-0.4854	-2.0658	0.	118.94
735	1.3001e-002	-2.0709	0.	125.61
736	0.46254	-1.0554	0.	120.39
737	-2.4358	-1.0622	0.	128.2
738	-1.9656	-2.041	0.	132.39
739	-6.0085	1.6145e-002	0.	124.34
740	-5.4949	-1.4012e-003	0.	128.96
741	-4.9891	0.47722	0.	130.99
742	-4.99	0.97769	0.	130.17
743	-4.9807	2.488	0.	130.74
744	-5.4882	2.9944	0.	128.39
745	-5.9935	2.9977	0.	122.87
746	-7.9595	1.0146	0.	120.69
747	-7.7594	0.53755	0.	120.32
748	-7.4987	3.0019	0.	120.91
749	-7.9973	2.5013	0.	122.77
750	-7.9928	2.0012	0.	122.24
751	2.9966	-7.0029	0.	130.46
752	2.9941	-6.5041	0.	132.
753	1.9965	-6.0013	0.	120.4
754	2.4943	-6.0028	0.	129.78
755	2.9904	-5.0057	0.	128.67
756	-0.49896	-6.0021	0.	130.93
757	5.4813e-004	-6.001	0.	120.99
758	2.9949	-4.0059	0.	127.55
759	2.9983	-3.507	0.	129.08
760	2.5023	-3.0098	0.	127.78
761	2.0039	-3.0127	0.	123.25
762	-0.47558	-3.0351	0.	123.9
763	-0.98233	-4.0172	0.	125.48
764	1.9698	-1.3575e-002	0.	124.2
765	2.4784	-1.1709e-002	0.	128.8
766	2.987	0.99312	0.	130.49
767	2.9999	1.9927	0.	134.02
768	1.9951	2.9819	0.	128.39
769	-1.0034	1.1196	0.	121.71
770	-1.0282	0.64372	0.	120.3
771	-0.96697	2.0947	0.	124.68
772	-0.9999	-7.0009	0.	132.33
773	-0.99937	-6.5018	0.	134.58
774	-1.4982	-6.0033	0.	132.42
775	-1.9984	-6.0023	0.	127.22
776	-2.9989	-5.9982	0.	127.05
777	-3.4969	-5.9914	0.	132.1
778	-4.0018	-6.9697	0.	132.52
779	7.0478	-2.9899	0.	114.19
780	7.5014	-3.0431	0.	127.48
781	7.9972	-2.5306	0.	129.9
782	8.0017	-2.0182	0.	127.4
783	8.0107	-1.0094	0.	126.69
784	8.0241	-0.51145	0.	128.59
785	5.0023	-2.0269	0.	129.63
786	5.0049	-2.5236	0.	131.35
787	5.4889	-3.5298	0.	128.31
788	5.8321	-0.13896	0.	124.49
789	5.4239	-0.18455	0.	128.38
790	4.9916	-1.0572	0.	128.32
791	-6.9986	4.0002	0.	121.48
792	-6.4979	3.9996	0.	125.3
793	-7.	8.	0.	126.82
794	-6.5	8.	0.	130.53
795	-5.004	5.0026	0.	123.75
796	-4.5063	5.0059	0.	127.94
797	-4.0049	5.5079	0.	128.89
798	-4.0005	6.0045	0.	127.84
799	-3.9975	6.9998	0.	128.47
800	-3.9975	7.4989	0.	129.87
801	-4.9999	8.	0.	125.31
802	-5.9933	-3.0098	0.	132.19
803	-5.9981	-2.5161	0.	132.74
804	-5.9837	-4.9642	0.	128.58
805	4.9959	6.4969	0.	122.65
806	7.4999	6.	0.	124.37
807	6.9999	6.0001	0.	125.1
808	5.9992	5.9999	0.	123.55
809	5.5102	1.9473	0.	122.09
810	7.6211	2.5653	0.	123.78
811	-7.0837	-5.5012e-002	0.	126.59
812	-1.483	6.9746	0.	129.39
813	-1.9845	6.4737	0.	130.39
814	-1.9615	5.9541	0.	128.3
815	1.9141	5.426	0.	126.97
816	1.9388	5.9476	0.	129.22
817	0.98809	6.5677	0.	128.42
818	3.987	5.9866	0.	125.72
819	2.9695	5.4645	0.	131.19
820	2.9861	4.969	0.	131.13
821	3.0119	2.9832	0.	136.37
822	3.5005	1.9927	0.	131.54
823	4.0027	1.9909	0.	125.78
824	7.4559	-5.1919	0.	125.78
825	7.9811	-3.0523	0.	132.2
826	-5.8915	-6.3551	0.	128.1
827	-7.9288	-6.4143	0.	121.27
828	-6.9702	-5.4858	0.	121.8
829	0.42148	3.7985	0.	119.42
830	-1.4628	3.596	0.	130.72
831	-0.24935	2.8691	0.	120.86
832	5.7943	0.64765	0.	125.26
833	5.8273	0.25086	0.	125.81
834	7.6105	0.40759	0.	128.19
835	7.5766	-3.2348e-002	0.	125.71
836	6.5918	-0.22436	0.	111.07
837	-6.5566	-1.5587	0.	125.31
838	-4.5801	-7.9385	0.	129.69
839	8.006	-8.5126	0.	125.02
840	5.0057	-8.4955	0.	126.9
841	4.5038	-8.4983	0.	127.51
842	3.	-8.5006	0.	128.87
843	8.528	2.028	0.	127.14
844	8.483	1.5275	0.	126.77
845	8.4978	0.51642	0.	131.04
846	8.4593	-3.5538	0.	128.19
847	8.4573	-4.5626	0.	126.67
848	8.4744	-5.0612	0.	128.93
849	8.4895	-5.5555	0.	128.49
850	8.5018	-6.0469	0.	127.26
851	8.5106	-6.5373	0.	126.31
852	8.5109	-7.5188	0.	125.43
853	-8.6688	-0.62544	0.	133.01
854	-8.4239	0.9444	0.	120.75
855	-8.4997	3.4998	0.	120.24
856	-8.4562	-8.1207	0.	126.45
857	-8.4337	-6.5484	0.	123.21
858	-1.001	-8.5001	0.	132.46
859	-8.5003	-8.5947	0.	128.88
860	8.5	8.	0.	125.43
861	8.5	7.	0.	124.76
862	8.5	6.	0.	123.28
863	-3.498	8.498	0.	128.29
864	-0.48155	8.492	0.	123.38
865	0.51906	8.521	0.	123.98
866	3.4985	8.4901	0.	125.69
867	3.998	8.4924	0.	125.35
868	4.4979	8.4948	0.	125.58
869	8.	8.5	0.	127.37
870	-8.5	8.5	0.	121.07
871	7.5503	3.03	0.	119.61
872	6.8393	2.5713	0.	116.15
873	6.2877	0.26222	0.	121.5
874	6.7109	0.18868	0.	110.6
875	-0.96214	3.6512	0.	128.07
876	1.0319e-002	3.4092	0.	115.78
877	-7.4389	-5.9793	0.	120.16
878	-6.4336	-5.9377	0.	119.78
879	-6.9285	-5.9901	0.	116.11
880	7.9439	-3.5802	0.	132.25
881	-6.0007	4.9999	0.	126.22
882	7.0261	2.9826	0.	119.6
883	6.4376	2.6203	0.	128.46
884	3.5052	2.4911	0.	137.32
885	3.4823	5.4793	0.	134.11
886	-5.0751	-8.4478	0.	139.17
887	-8.0134	-8.6636	0.	139.48
888	1.4354	5.9786	0.	134.71
889	-1.4897	6.4758	0.	137.11
890	8.0592	2.061	0.	135.11
891	5.9838	2.2612	0.	138.63
892	6.4998	5.5002	0.	134.71
893	-9.	8.5	0.	124.17
894	-9.	9.	0.	124.29
895	-3.4984	8.9985	0.	127.69
896	-2.9973	8.9974	0.	127.52
897	-0.49254	8.9972	0.	124.49
898	2.5019	8.994	0.	126.
899	3.0003	8.9931	0.	125.82
900	3.4993	8.9937	0.	125.56
901	3.9989	8.995	0.	125.43
902	4.4988	8.9965	0.	125.66
903	7.4999	9.	0.	126.06
904	8.	9.	0.	126.5
905	9.	9.	0.	125.41
906	9.	8.	0.	125.54
907	9.	6.	0.	126.96
908	5.4989	8.4989	0.	129.33
909	5.498	6.499	0.	126.46
910	7.5	6.5	0.	128.64
911	7.4999	8.5	0.	129.74
912	-1.5022	-8.9998	0.	132.06
913	-2.0041	-8.9993	0.	127.17
914	-2.5073	-8.9981	0.	124.13
915	-4.5358	-8.9739	0.	136.3
916	-5.5325	-9.0224	0.	129.57
917	-6.0287	-9.0651	0.	118.25
918	-6.5252	-9.1012	0.	110.83
919	-7.5205	-9.129	0.	120.78
920	-9.0067	-9.0323	0.	129.87
921	-8.9935	-8.54	0.	128.06
922	-8.958	-8.0322	0.	125.61
923	-8.9794	-6.5053	0.	126.17
924	-6.4692	-5.4601	0.	126.61
925	-6.4977	-2.5308	0.	136.47
926	-4.5036	5.5046	0.	130.93
927	-9.089	-0.47503	0.	132.44
928	-9.0295	-2.1515e-002	0.	128.74
929	-8.8952	0.44875	0.	124.79
930	-8.938	0.95683	0.	123.52
931	-8.9712	1.4738	0.	123.4
932	-8.988	1.986	0.	123.79
933	-8.9958	2.4935	0.	124.23
934	-8.9987	2.9971	0.	124.31
935	-8.9996	3.4988	0.	124.12
936	-6.5	7.5	0.	138.28
937	-6.4996	4.4997	0.	130.68
938	5.4786	-0.60125	0.	130.82
939	5.5112	-2.5265	0.	132.87
940	7.5205	-0.50831	0.	126.63
941	7.5069	-2.522	0.	127.99
942	-3.4953	-6.4874	0.	135.44
943	-1.4994	-6.5018	0.	135.98
944	-3.5249	-8.4868	0.	135.39
945	-1.5018	-8.5	0.	134.31
946	-0.57979	2.3517	0.	126.91
947	-0.55282	0.62929	0.	125.64
948	2.4984	2.4891	0.	138.13
949	2.4832	0.49081	0.	133.71
950	2.5006	-3.5069	0.	130.97
951	-0.49783	-5.5036	0.	131.9
952	2.494	-5.5032	0.	131.39
953	-0.49954	-6.5012	0.	133.16
954	2.4961	-6.5022	0.	132.03
955	9.0184	3.0106	0.	128.43
956	9.0212	2.5129	0.	128.4
957	9.0126	2.0127	0.	127.75
958	8.9894	1.5122	0.	126.68
959	8.9937	0.51069	0.	129.68
960	9.0084	4.0055e-003	0.	130.25
961	9.01	-0.50155	0.	129.69
962	9.0063	-1.0062	0.	128.87
963	9.0023	-1.5109	0.	128.43
964	8.9986	-2.0149	0.	128.69
965	8.9923	-2.5214	0.	129.16
966	8.9839	-3.0273	0.	129.02
967	8.9748	-3.5318	0.	127.96
968	8.969	-4.0353	0.	126.49
969	8.9754	-4.5337	0.	126.78
970	8.9846	-5.0316	0.	127.49
971	8.9935	-5.5284	0.	127.67
972	9.0007	-6.024	0.	127.26
973	9.0055	-6.5191	0.	126.67
974	9.0069	-7.0143	0.	126.18
975	9.0061	-7.5102	0.	125.83
976	9.004	-8.0067	0.	125.6
977	9.0022	-8.504	0.	125.45
978	9.001	-9.0022	0.	125.36
979	8.5017	-9.0039	0.	125.23
980	8.0026	-9.0068	0.	125.1
981	7.502	-9.0054	0.	125.04
982	7.0016	-9.0022	0.	125.13
983	6.5017	-8.9988	0.	125.4
984	6.0023	-8.9968	0.	125.88
985	5.5031	-8.9963	0.	126.52
986	5.0032	-8.9969	0.	127.27
987	4.5027	-8.9984	0.	128.08
988	3.0002	-9.0003	0.	130.37
989	-1.0011	-9.	0.	133.56
990	-7.4977	2.5028	0.	125.03
991	-5.4876	2.4927	0.	131.87
992	-5.5013	0.49276	0.	132.78
993	-1.973	-1.1188	0.	134.02
994	2.9039e-003	-1.5881	0.	136.42
995	-0.46983	0.23696	0.	128.97
996	6.0278	-3.046	0.	128.37
997	5.9375	-4.9983	0.	137.69
998	7.4145	-4.6922	0.	134.55
999	6.4314	-4.9569	0.	111.41
1000	6.9205	-4.8308	0.	111.1
1001	5.9304	-4.5279	0.	127.43
1002	5.9888	-3.5469	0.	131.75
1003	5.9542	-4.0427	0.	126.83
1004	6.5798	-3.1019	0.	102.58
1005	7.4446	-3.5988	0.	130.77
1006	-0.23324	-0.14264	0.	136.87
1007	-2.1503e-002	-1.1036	0.	120.1
1008	-0.49434	-1.601	0.	118.
1009	-1.5436	-1.4488	0.	139.82
1010	-1.0074	-1.5413	0.	104.11
1011	-1.825	-0.69281	0.	124.67
1012	-1.0492	0.12686	0.	112.43
1013	-1.5169	-0.21701	0.	141.74
1014	-5.4965	0.99047	0.	131.73
1015	-5.4931	1.4905	0.	131.01
1016	-5.49	1.9911	0.	130.99
1017	-7.5113	1.0313	0.	123.54
1018	-7.4959	2.005	0.	124.8
1019	-7.4931	1.5115	0.	124.79
1020	1.9976	-6.501	0.	121.45
1021	1.4987	-6.5005	0.	108.38
1022	0.99937	-6.5003	0.	107.3
1023	0.49984	-6.5003	0.	108.54
1024	2.2086e-004	-6.5006	0.	122.06
1025	1.9968	-5.5012	0.	121.33
1026	1.4986	-5.5003	0.	110.36
1027	0.99951	-5.5001	0.	109.77
1028	1.0886e-003	-5.5012	0.	121.57
1029	0.50014	-5.5003	0.	110.47
1030	2.0022	-3.5071	0.	124.49
1031	1.5041	-3.5095	0.	114.71
1032	1.0062	-3.5129	0.	115.02
1033	0.50872	-3.5175	0.	114.05
1034	1.2672e-002	-3.5216	0.	122.55
1035	2.4918	0.99407	0.	133.55
1036	2.4965	1.4957	0.	134.01
1037	2.4984	1.9945	0.	136.04
1038	1.9806	0.49155	0.	126.84
1039	1.4746	0.49056	0.	118.38
1040	0.96784	0.49322	0.	119.33
1041	-1.1408e-002	0.46458	0.	129.55
1042	0.48293	0.51646	0.	118.97
1043	1.9819	2.4957	0.	129.23
1044	1.456	2.5039	0.	119.21
1045	0.9261	2.4888	0.	117.88
1046	0.40384	2.4796	0.	114.55
1047	-0.1013	2.4331	0.	124.57
1048	-0.50492	1.0666	0.	124.7
1049	-0.48091	1.9591	0.	125.88
1050	-0.49271	1.5295	0.	125.89
1051	-2.0032	-8.4997	0.	126.72
1052	-3.0127	-8.4955	0.	128.02
1053	-2.5061	-8.4988	0.	116.33
1054	-1.9997	-6.5011	0.	127.99
1055	-2.5	-6.5002	0.	116.76
1056	-2.999	-6.4974	0.	127.46
1057	7.5025	-2.013	0.	126.49
1058	7.5032	-1.5073	0.	126.
1059	7.5059	-1.0045	0.	125.89
1060	5.504	-2.0236	0.	130.33
1061	5.4952	-1.0508	0.	128.9
1062	5.4997	-1.5291	0.	128.93
1063	-6.5003	4.9999	0.	132.24
1064	-6.5003	5.5	0.	138.26
1065	-6.9993	4.5	0.	124.75
1066	-9.	4.4998	0.	126.11
1067	-8.5	4.5	0.	115.1
1068	-7.9998	4.5001	0.	114.82
1069	-7.4994	4.4999	0.	114.56
1070	-9.	7.5	0.	126.22
1071	-8.5	7.5	0.	115.61
1072	-7.	7.5	0.	129.68
1073	-7.5	7.5	0.	116.78
1074	-8.	7.5	0.	115.94
1075	-4.5011	6.003	0.	130.31
1076	-4.4999	6.5016	0.	130.39
1077	-4.4993	7.0006	0.	130.74
1078	-6.0008	5.5002	0.	126.55
1079	-5.5016	5.5008	0.	114.22
1080	-5.0023	5.5018	0.	123.46
1081	-6.	7.5	0.	128.2
1082	-4.9999	7.5001	0.	125.92
1083	-5.4999	7.5	0.	116.18
1084	-6.5001	6.	0.	139.82
1085	-6.5	7.	0.	136.35
1086	-6.5	6.5	0.	139.45
1087	-6.0274	0.50194	0.	123.95
1088	-7.1737	0.50238	0.	126.79
1089	-6.5925	0.49848	0.	114.15
1090	-5.9933	2.4976	0.	123.43
1091	-6.497	2.4998	0.	111.3
1092	-6.4963	-3.0139	0.	133.89
1093	-6.4976	-3.503	0.	133.73
1094	-6.4979	-3.9957	0.	134.37
1095	-6.4874	-4.9767	0.	127.65
1096	-6.4959	-4.488	0.	132.05
1097	-8.484	-5.5016	0.	116.61
1098	-7.9783	-5.4918	0.	115.67
1099	-8.9588	-2.4658	0.	126.38
1100	-8.4662	-2.4963	0.	109.89
1101	-6.9945	-2.5442	0.	128.2
1102	-7.4887	-2.5492	0.	109.6
1103	-7.9786	-2.5302	0.	103.06
1104	2.498	-7.0016	0.	130.51
1105	2.5	-9.0001	0.	130.34
1106	2.4999	-8.5003	0.	131.55
1107	2.4996	-8.0006	0.	133.19
1108	2.499	-7.5011	0.	131.88
1109	-0.50051	-9.	0.	132.66
1110	-0.50046	-8.5001	0.	133.75
1111	-0.49988	-7.0006	0.	131.04
1112	-0.50007	-7.5004	0.	132.47
1113	-0.50029	-8.0002	0.	134.4
1114	2.498	-4.0043	0.	129.
1115	2.4951	-5.003	0.	129.78
1116	2.4962	-4.5032	0.	128.54
1117	-0.48955	-4.0148	0.	127.07
1118	-0.49414	-4.5085	0.	127.53
1119	-0.49667	-5.0053	0.	129.52
1120	-1.5006	-8.0002	0.	132.95
1121	-1.5001	-7.5004	0.	133.15
1122	-1.4999	-7.0009	0.	133.85
1123	-3.5208	-7.9869	0.	133.12
1124	-3.5024	-6.9878	0.	134.1
1125	-3.5116	-7.4876	0.	133.12
1126	7.5	8.	0.	128.71
1127	7.5	7.	0.	128.21
1128	7.5	7.5	0.	128.43
1129	5.9991	6.4998	0.	123.01
1130	6.4996	6.5	0.	114.32
1131	6.9999	6.5	0.	124.
1132	5.9994	8.4996	0.	122.75
1133	6.9999	8.5	0.	122.98
1134	6.4997	8.4999	0.	112.52
1135	5.4984	7.4985	0.	127.43
1136	5.4982	6.9986	0.	126.67
1137	9.01	3.5061	0.	129.46
1138	8.5149	3.5102	0.	120.17
1139	7.012	3.5003	0.	123.71
1140	7.5169	3.5104	0.	116.44
1141	8.0183	3.5137	0.	119.56
1142	6.9999	5.5001	0.	128.46
1143	9.	5.5	0.	128.84
1144	8.5	5.5	0.	120.42
1145	8.	5.5	0.	121.24
1146	7.4999	5.5	0.	120.14
1147	6.4975	3.0446	0.	127.92
1148	6.505	3.5116	0.	135.87
1149	6.5012	4.0033	0.	137.36
1150	6.5001	4.501	0.	136.47
1151	6.5	5.0003	0.	133.17
1152	6.0069	2.6223	0.	133.55
1153	5.5586	2.4665	0.	122.28
1154	4.0066	2.4929	0.	128.79
1155	4.5115	2.4887	0.	117.59
1156	5.0237	2.4801	0.	118.17
1157	3.9907	5.4912	0.	127.53
1158	5.9995	5.5	0.	126.53
1159	5.4991	5.4997	0.	115.98
1160	4.998	5.4989	0.	116.31
1161	4.4955	5.4967	0.	116.31
1162	3.5069	2.99	0.	137.15
1163	3.5115	3.4894	0.	138.83
1164	3.5114	3.9888	0.	139.41
1165	3.4929	4.9843	0.	133.49
1166	3.5043	4.4875	0.	136.68
1167	6.0198	-2.5298	0.	120.7
1168	6.5233	-2.5371	0.	107.22
1169	7.0164	-2.5109	0.	116.17
1170	5.9971	-0.53497	0.	121.04
1171	6.9875	-0.47	0.	115.36
1172	6.4966	-0.59478	0.	106.39
1173	-6.3586	-6.3901	0.	122.08
1174	-6.2049	-6.7771	0.	117.94
1175	-5.9242	-7.1025	0.	121.46
1176	-5.1629	-7.8628	0.	125.43
1177	-5.5028	-7.3888	0.	140.76
1178	-7.9736	-8.2256	0.	122.55
1179	-7.4223	-6.4562	0.	125.07
1180	-7.5269	-6.9078	0.	120.82
1181	-7.692	-7.3473	0.	127.54
1182	-7.8523	-7.7858	0.	135.04
1183	-5.565	-8.5338	0.	138.36
1184	-6.0566	-8.6034	0.	112.21
1185	-7.5275	-8.7207	0.	126.37
1186	-7.037	-8.7061	0.	107.64
1187	-6.5472	-8.6601	0.	111.66
1188	1.3489	5.4096	0.	123.73
1189	0.95807	5.0354	0.	136.44
1190	0.64779	4.6621	0.	120.5
1191	-2.1473e-002	3.8496	0.	113.61
1192	-1.1996	5.0259	0.	132.3
1193	-1.4698	5.9766	0.	127.2
1194	-1.3698	5.4897	0.	135.86
1195	-0.99852	6.462	0.	124.14
1196	-0.5092	6.3899	0.	111.55
1197	-2.4301e-002	6.2873	0.	113.86
1198	0.95051	6.0856	0.	135.44
1199	0.46304	6.1856	0.	114.98
1200	-8.406	-1.9904	0.	110.39
1201	-7.9481	-2.0657	0.	96.822
1202	-7.4819	-2.1129	0.	115.61
1203	-7.438	-0.34827	0.	132.26
1204	-7.2694	-0.76049	0.	124.02
1205	-7.0443	-1.6396	0.	121.67
1206	-7.136	-1.197	0.	128.
1207	-9.0014	-0.91259	0.	127.98
1208	-8.0136	-0.10282	0.	107.08
1209	-8.3136	-0.40431	0.	119.61
1210	7.213	0.44977	0.	118.61
1211	7.4447	0.77234	0.	126.49
1212	5.9581	1.8705	0.	122.49
1213	6.0449	1.4578	0.	133.49
1214	6.1772	1.0575	0.	126.65
1215	6.2816	0.66054	0.	125.7
1216	9.0005	-9.501	0.	125.31
1217	8.5007	-9.5019	0.	125.24
1218	8.001	-9.5032	0.	125.16
1219	7.5007	-9.5023	0.	125.15
1220	7.0005	-9.501	0.	125.28
1221	6.5005	-9.4996	0.	125.59
1222	6.0008	-9.4987	0.	126.09
1223	5.5011	-9.4984	0.	126.78
1224	5.0015	-9.4984	0.	127.64
1225	4.5014	-9.499	0.	128.67
1226	4.001	-9.4996	0.	129.84
1227	3.5006	-9.5	0.	131.05
1228	3.0003	-9.5001	0.	131.99
1229	2.5001	-9.5001	0.	131.61
1230	2.	-9.5	0.	120.56
1231	1.5	-9.5	0.	107.55
1232	1.	-9.5	0.	106.59
1233	0.49996	-9.5	0.	108.32
1234	-1.7251e-004	-9.5	0.	122.43
1235	-0.50041	-9.5	0.	134.04
1236	-1.0008	-9.4999	0.	134.34
1237	-1.5015	-9.4998	0.	132.18
1238	-2.0027	-9.4994	0.	129.03
1239	-2.5046	-9.4986	0.	127.49
1240	-3.0074	-9.4968	0.	129.31
1241	-3.5107	-9.494	0.	132.72
1242	-4.0138	-9.4906	0.	135.3
1243	-4.5153	-9.4892	0.	136.07
1244	-5.0145	-9.4953	0.	133.87
1245	-5.513	-9.5117	0.	127.74
1246	-6.0111	-9.5316	0.	118.81
1247	-6.5104	-9.5487	0.	112.41
1248	-7.0105	-9.5596	0.	112.39
1249	-7.5113	-9.5602	0.	119.35
1250	-8.0112	-9.5494	0.	127.38
1251	-8.5094	-9.5329	0.	130.68
1252	-9.0064	-9.5177	0.	130.64
1253	-9.5032	-9.5071	0.	130.23
1254	-9.5023	-9.0119	0.	129.16
1255	-9.494	-8.5123	0.	127.62
1256	-9.4756	-8.0072	0.	126.6
1257	-9.4634	-7.5021	0.	126.63
1258	-9.4946	-7.0003	0.	127.99
1259	-9.4927	-6.5001	0.	129.99
1260	-9.4902	-6.0021	0.	132.59
1261	-9.4939	-5.5021	0.	137.39
1262	-9.4986	-5.001	0.	138.1
1263	-9.4998	-4.5001	0.	140.58
1264	-9.4999	-3.9991	0.	142.25
1265	-9.4991	-3.4958	0.	140.87
1266	-9.4932	-2.9871	0.	139.34
1267	-9.4707	-2.4709	0.	140.17
1268	-9.4236	-1.9481	0.	136.22
1269	-9.4731	-0.97035	0.	129.13
1270	-9.5261	-0.48557	0.	130.91
1271	-9.5077	1.6724e-003	0.	129.8
1272	-9.4651	0.48708	0.	127.9
1273	-9.4685	0.98109	0.	126.45
1274	-9.4827	1.4845	0.	125.76
1275	-9.4921	1.9901	0.	125.79
1276	-9.4969	2.4946	0.	126.38
1277	-9.4989	2.9973	0.	127.35
1278	-9.4996	3.4988	0.	128.62
1279	-9.4999	3.9994	0.	130.57
1280	-9.5	4.4998	0.	134.7
1281	-9.5	4.9999	0.	135.19
1282	-9.5	5.5	0.	137.29
1283	-9.5	6.	0.	138.76
1284	-9.5	6.5	0.	137.09
1285	-9.5	7.	0.	134.7
1286	-9.5	7.5	0.	134.13
1287	-9.5	8.	0.	129.86
1288	-9.5	8.5	0.	127.77
1289	-9.5	9.	0.	126.4
1290	-9.5	9.5	0.	125.26
1291	-9.	9.5	0.	124.2
1292	-8.5	9.5	0.	123.39
1293	-8.	9.5	0.	123.11
1294	-7.5	9.5	0.	123.43
1295	-7.	9.5	0.	124.13
1296	-6.5	9.5	0.	124.81
1297	-6.	9.5	0.	125.32
1298	-5.5	9.5	0.	125.78
1299	-4.9999	9.5	0.	126.33
1300	-4.4998	9.4999	0.	126.91
1301	-3.9995	9.4996	0.	127.34
1302	-3.4991	9.4991	0.	127.51
1303	-2.9985	9.4985	0.	127.42
1304	-2.4982	9.4979	0.	127.12
1305	-1.9973	9.4966	0.	126.65
1306	-1.4974	9.4962	0.	126.09
1307	-0.99752	9.4969	0.	125.54
1308	-0.49754	9.4991	0.	125.12
1309	2.9555e-003	9.5024	0.	124.94
1310	0.50372	9.504	0.	125.01
1311	1.0038	9.5036	0.	125.24
1312	1.5031	9.501	0.	125.5
1313	2.0021	9.4986	0.	125.7
1314	2.5011	9.4973	0.	125.77
1315	3.0003	9.4968	0.	125.71
1316	3.4998	9.497	0.	125.55
1317	3.9995	9.4975	0.	125.37
1318	4.4994	9.4982	0.	125.21
1319	4.9994	9.499	0.	124.96
1320	5.4995	9.4995	0.	124.14
1321	5.9997	9.4998	0.	122.75
1322	6.4998	9.4999	0.	121.94
1323	6.9999	9.5	0.	122.78
1324	7.4999	9.5	0.	124.16
1325	8.	9.5	0.	124.93
1326	8.5	9.5	0.	125.08
1327	9.	9.5	0.	125.09
1328	9.5	9.5	0.	125.02
1329	9.5	9.	0.	125.15
1330	9.5	8.5	0.	125.38
1331	9.5	8.	0.	125.76
1332	9.5	7.5	0.	126.46
1333	9.5	7.	0.	127.55
1334	9.5	6.5	0.	128.95
1335	9.5	6.	0.	130.84
1336	9.5	5.5	0.	134.75
1337	9.5	5.0001	0.	134.82
1338	9.5002	4.5005	0.	134.7
1339	9.5012	4.0015	0.	135.1
1340	9.5051	3.5032	0.	135.27
1341	9.5085	3.0049	0.	131.86
1342	9.5093	2.505	0.	130.29
1343	9.5049	2.0047	0.	128.99
1344	9.4962	1.5048	0.	128.32
1345	9.4921	1.0054	0.	128.45
1346	9.4962	0.50508	0.	129.25
1347	9.5024	2.6002e-003	0.	129.77
1348	9.5041	-0.5003	0.	129.84
1349	9.5027	-1.0039	0.	129.56
1350	9.501	-1.5059	0.	129.25
1351	9.4986	-2.0084	0.	129.04
1352	9.4952	-2.511	0.	128.78
1353	9.4916	-3.0134	0.	128.22
1354	9.4879	-3.5149	0.	127.36
1355	9.4864	-4.0152	0.	126.7
1356	9.4887	-4.5145	0.	126.5
1357	9.4928	-5.0133	0.	126.78
1358	9.4969	-5.5118	0.	127.03
1359	9.5002	-6.0101	0.	127.02
1360	9.5024	-6.5082	0.	126.79
1361	9.5032	-7.0063	0.	126.46
1362	9.5029	-7.5046	0.	126.12
1363	9.502	-8.0032	0.	125.82
1364	9.5012	-8.502	0.	125.58
1365	9.5006	-9.0012	0.	125.4
1366	9.5003	-9.5005	0.	125.3
1367	6.3896	2.2109	0.	126.88
1368	7.618	2.1069	0.	135.14
1369	7.2	2.1354	0.	110.4
1370	2.512	2.9786	0.	134.06
1371	-2.4925	7.4905	0.	128.59
1372	2.0044	8.997	0.	125.97
1373	-0.94786	7.4568	0.	122.54
1374	-8.489	1.9905	0.	122.11
1375	8.5393	2.5271	0.	128.02
1376	-5.9684	-5.4425	0.	128.7
1377	1.0092	-3.0242	0.	116.29
1378	3.4812	0.49154	0.	128.66
1379	4.984	-0.59889	0.	129.15
1380	-4.4856	0.9604	0.	129.58
1381	-4.9929	-2.0135	0.	129.41
1382	3.0102	4.4734	0.	131.5
1383	-3.9925	-6.4728	0.	134.43
1384	2.5033	8.4907	0.	126.56
1385	-4.4734	1.9731	0.	129.47
1386	5.4795	-5.9897	0.	127.97
1387	6.2105	-0.14271	0.	116.62
1388	3.9862	-4.0115	0.	126.99
1389	-4.0432	-7.9693	0.	130.85
1390	6.0312	-7.4718	0.	124.97
1391	8.5	6.5	0.	124.53
1392	-4.4814	-6.4509	0.	134.42
1393	-4.499	7.5	0.	132.28
1394	-1.456	-3.0241	0.	125.4
1395	4.002	-8.5	0.	127.98
1396	0.50969	9.0105	0.	124.63
1397	6.9998	9.	0.	122.24
1398	9.	7.	0.	125.89
1399	-6.	9.	0.	125.73
1400	9.	7.5	0.	125.56
1401	-2.4513	-3.0281	0.	129.23
1402	-6.411	-0.47689	0.	123.49
1403	-0.10377	-0.61387	0.	128.83
1404	1.0166	8.5151	0.	125.06
1405	-8.8809	-1.9127	0.	132.79
1406	-3.4867	3.5193	0.	130.02
1407	1.9557	4.9171	0.	127.22
1408	-4.9828	-3.5013	0.	129.38
1409	-3.9894	-4.9914	0.	130.91
1410	-3.981	0.43715	0.	129.81
1411	4.996	6.9958	0.	123.7
1412	1.4755	6.5	0.	133.22
1413	-3.4481	-1.5506	0.	129.66
1414	7.9889	1.5703	0.	117.08
1415	-2.4949	8.995	0.	127.16
1416	-1.4853	-4.5121	0.	125.76
1417	-1.5025	4.0658	0.	130.22
1418	-3.4953	6.499	0.	126.72
1419	-6.5	8.5	0.	126.99
1420	5.9995	8.9996	0.	122.13
1421	-1.0005	-8.0002	0.	131.5
1422	1.5143	7.5054	0.	128.03
1423	-6.9979	3.5003	0.	119.88
1424	-4.0092	4.5112	0.	128.75
1425	-2.98	-4.5071	0.	128.05
1426	-3.9641	-3.0194	0.	129.75
1427	-1.9592	-3.52	0.	126.88
1428	-7.5	8.5	0.	122.04
1429	-2.0054	-1.576	0.	137.57
1430	4.5005	-2.0207	0.	129.03
1431	-1.0632	4.562	0.	126.86
1432	3.9883	1.4932	0.	124.81
1433	-8.9999	3.9995	0.	124.24
1434	-4.4802	1.4638	0.	129.17
1435	-5.5019	5.0007	0.	121.59
1436	-8.5	9.	0.	122.6
1437	-4.0215	-7.4689	0.	129.85
1438	-9.0213	-6.9849	0.	126.08
1439	1.486	-1.5254	0.	120.43
1440	7.1227	2.5416e-002	0.	113.3
1441	-5.4892	-3.006	0.	130.5
1442	-7.0221	-9.1262	0.	109.95
1443	-3.9989	8.9992	0.	127.57
1444	-3.9597	2.9867	0.	130.15
1445	-5.4885	-3.9901	0.	128.99
1446	3.4981	-7.503	0.	128.46
1447	-8.5113	-9.0653	0.	131.99
1448	2.451	5.4485	0.	128.62
1449	8.5097	-1.0086	0.	127.91
1450	8.4991	-2.0199	0.	128.17
1451	5.4988	7.9986	0.	128.02
1452	-4.9999	8.4999	0.	125.94
1453	0.98705	-1.5395	0.	120.47
1454	8.9724	1.0133	0.	128.26
1455	8.	8.	0.	126.38
1456	8.	7.	0.	125.39
1457	3.4793	5.9765	0.	130.26
1458	-0.99373	-5.0081	0.	128.21
1459	-6.	8.	0.	126.82
1460	2.9836	0.49103	0.	130.96
1461	-1.4729	1.6343	0.	123.98
1462	7.0053	-8.5053	0.	124.88
1463	2.487	6.9661	0.	129.83
1464	1.8302e-002	-3.0381	0.	121.35
1465	-3.0166	5.0127	0.	127.54
1466	6.0065	-8.4926	0.	125.59
1467	5.5087	-3.0299	0.	131.43
1468	-2.4808	-4.5094	0.	127.02
1469	1.9133e-002	8.5126	0.	123.27
1470	-5.4534	-5.9175	0.	132.41
1471	3.4879	-6.0077	0.	131.37
1472	-3.9989	8.4991	0.	128.36
1473	3.5006	-8.5007	0.	128.43
1474	-6.9979	2.5011	0.	119.52
1475	-1.4849	8.4851	0.	125.71
1476	7.5278	-7.5432	0.	124.39
1477	-1.9859	7.4846	0.	128.48
1478	-1.4655	-3.5211	0.	125.79
1479	4.9784	-6.0067	0.	129.14
1480	3.4956	-7.0047	0.	129.67
1481	-5.037	-8.9824	0.	136.94
1482	-0.98608	-2.0333	0.	113.99
1483	1.5014	7.0064	0.	129.95
1484	-1.9827	-4.5105	0.	126.25
1485	-7.6008	7.8834e-002	0.	120.51
1486	-3.0059	4.0317	0.	129.65
1487	-8.9886	-5.5036	0.	128.02
1488	-7.9552	-5.9738	0.	118.96
1489	-8.	9.	0.	122.12
1490	4.9984	8.4974	0.	126.87
1491	-8.4999	3.9999	0.	118.17
1492	-4.4993	8.9996	0.	127.01
1493	8.	7.5	0.	124.65
1494	-5.5	8.	0.	123.07
1495	-3.938	2.4695	0.	130.01
1496	-8.3258	0.36484	0.	118.67
1497	8.0691	2.5473	0.	128.58
1498	-1.9888	8.4891	0.	126.82
1499	-2.9711	-8.882e-002	0.	129.83
1500	-8.8908	-7.486	0.	125.34
1501	-4.961	-6.4223	0.	134.44
1502	7.0325	-7.5275	0.	124.09
1503	-5.9936	-3.9918	0.	129.83
1504	0.51363	-2.5474	0.	120.66
1505	-7.	9.	0.	124.54
1506	-3.5121	5.0139	0.	128.18
1507	-2.5307	4.5163	0.	128.76
1508	-4.5627	-8.4528	0.	133.15
1509	1.5118	8.5036	0.	126.03
1510	8.4791	-3.0417	0.	130.51
1511	8.4456	-4.062	0.	126.6
1512	7.0141	-8.0118	0.	124.54
1513	-5.5071	-2.007	0.	129.57
1514	-8.5	8.	0.	118.98
1515	-9.	8.	0.	124.32
1516	-4.0288	-8.9806	0.	135.3
1517	4.4905	-3.5156	0.	127.98
1518	-6.5136	-2.0464	0.	131.07
1519	-2.4841	1.2764	0.	128.97
1520	4.511	1.9799	0.	119.63
1521	8.514	-7.0286	0.	125.73
1522	-0.40502	3.2823	0.	118.36
1523	-2.5248	4.9962	0.	127.27
1524	-2.9552	1.8042	0.	129.35
1525	-0.97323	-3.5235	0.	125.93
1526	2.9864	6.9691	0.	128.67
1527	3.9968	-0.51484	0.	128.41
1528	3.0039	2.4886	0.	137.06
1529	-4.4779	-4.1137e-002	0.	129.85
1530	-2.9924	0.86206	0.	130.15
1531	-2.4929	8.4932	0.	127.53
1532	-2.9943	-5.4996	0.	127.74
1533	1.9789	-1.0185	0.	122.13
1534	-8.4987	2.9987	0.	121.92
1535	8.5041	-8.5077	0.	125.24
1536	-2.3478	-0.53592	0.	129.96
1537	7.0083	-3.4308	0.	116.84
1538	3.9992	-7.5032	0.	128.05
1539	-5.8319	-6.7618	0.	127.25
1540	8.5301	3.0203	0.	124.61
1541	8.5215	1.0041e-003	0.	130.74
1542	-8.3537	-7.6582	0.	124.35
1543	-4.9877	-0.52148	0.	128.81
1544	-5.5	9.	0.	125.68
1545	3.9998	-2.014	0.	128.7
1546	-1.9905	-5.007	0.	126.8
1547	0.93286	-0.52436	0.	118.02
1548	6.7931	2.1676	0.	108.1
1549	8.5	9.	0.	125.8
1550	0.42146	3.4057	0.	117.68
1551	-7.0025	-2.0887	0.	135.01
1552	-0.47771	-2.5466	0.	120.84
1553	-6.9978	3.0008	0.	118.77
1554	4.4933	6.9912	0.	123.32
1555	-4.4989	7.9995	0.	129.02
1556	-8.4713	1.4767	0.	121.3
1557	7.8344	1.05	0.	138.11
1558	-0.99183	8.992	0.	125.07
1559	2.0073	8.4958	0.	126.55
1560	-3.4457	-1.0557	0.	128.94
1561	1.0095	9.0086	0.	125.15
1562	-4.0419	-8.4724	0.	133.64
1563	-5.5	8.5	0.	125.15
1564	8.5	7.5	0.	124.89
1565	6.5379	-7.4742	0.	124.25
1566	4.4951	1.4828	0.	120.65
1567	-4.4744	-3.0123	0.	129.65
1568	-0.99638	-5.5053	0.	131.67
1569	-6.5	9.	0.	125.6
1570	9.	8.5	0.	125.59
1571	9.	6.5	0.	126.35
1572	4.9989	8.9979	0.	126.31
1573	4.9963	5.9976	0.	119.12
1574	-3.9924	-5.4848	0.	132.33
1575	-8.619	-0.10487	0.	124.03
1576	-0.98047	8.4832	0.	124.36
1577	2.4913	-1.5148	0.	124.67
1578	-3.978	1.4413	0.	129.43
1579	-0.97734	4.1066	0.	130.72
1580	-1.4918	-5.0082	0.	127.4
1581	0.49273	-1.5608	0.	123.48
1582	-8.9781	-6.0075	0.	126.44
1583	-4.9998	8.9999	0.	126.18
1584	4.9977	7.9966	0.	125.56
1585	-7.5	9.	0.	123.02
1586	-8.0165	-9.1031	0.	131.98
1587	-2.4586	-3.5205	0.	128.09
1588	-8.4663	-6.0091	0.	120.63
1589	-1.9929	8.9926	0.	126.61
1590	4.4949	-0.53768	0.	128.55
1591	-2.9877	-5.0029	0.	127.96
1592	3.4992	-3.0087	0.	128.83
1593	-5.0012	4.5011	0.	125.72
1594	8.	6.5	0.	125.1
1595	-3.52	-8.9891	0.	133.29
1596	4.0019	-8.9995	0.	128.89
1597	5.5192	-7.4846	0.	125.97
1598	-0.48146	-3.5239	0.	128.28
1599	-0.97055	6.9499	0.	122.5
1600	8.504	-1.5129	0.	127.32
1601	-7.	8.5	0.	125.27
1602	3.9736	0.49259	0.	126.84
1603	-5.9995	4.4994	0.	127.09
1604	-3.0125	-8.995	0.	127.85
1605	6.4996	6.	0.	124.72
1606	6.4997	8.9998	0.	119.45
1607	6.5062	-8.4967	0.	125.12
1608	0.83426	4.1699	0.	123.06
1609	-5.9394	-5.9095	0.	129.37
1610	3.501	-9.0001	0.	129.63
1611	-1.4912	8.9908	0.	125.87
1612	-4.9815	1.9827	0.	129.81
1613	2.9901	-5.5056	0.	131.21
1614	-5.4887	-3.4995	0.	129.65
1615	8.8606e-003	9.0059	0.	124.34
1616	5.4981	5.9992	0.	121.36
1617	5.4992	8.999	0.	125.89
1618	-1.9148	3.0912	0.	129.81
1619	-2.0684	4.954	0.	127.96
1620	1.5073	9.0026	0.	125.66
1621	-4.9991	-1.0188	0.	128.27
1622	2.9684	5.9627	0.	130.71
1623	-2.9961	8.4964	0.	127.96
1624	8.414	1.0267	0.	126.85
1625	8.5077	-8.0133	0.	125.29
1626	4.4968	-1.5268	0.	128.21
1627	3.0005	8.4891	0.	126.2
1628	5.5073	-8.4926	0.	126.22
1629	-0.89672	3.1901	0.	124.99
1630	-8.5976	-7.0471	0.	124.7
1631	-2.4936	-5.5032	0.	126.19
1632	-8.4959	2.4959	0.	122.63
1633	8.5	8.5	0.	126.04
1634	-4.4991	8.4994	0.	127.55
1635	-6.	8.5	0.	126.25
1636	-8.	8.5	0.	120.17
1637	-2.0072	4.0435	0.	130.56
1638	4.4984	-3.0163	0.	129.57
1639	8.4919	-2.5297	0.	129.81
1640	8.5169	-0.50561	0.	129.5
1641	-7.4988	3.5008	0.	118.62
1642	7.5068	-8.5122	0.	124.87
1643	-2.9231	-0.56544	0.	128.53
1644	-0.96944	-2.5321	0.	120.55
1645	4.0013	-8.0012	0.	127.65
1646	3.4895	-9.8761e-003	0.	128.87
1647	-1.9626	1.6831	0.	126.45
1648	3.4909	-4.0082	0.	127.06
1649	-5.4875	-4.4782	0.	128.99
1650	-4.4836	0.45862	0.	130.11
1651	-3.4686	-7.6468e-002	0.	129.45
1652	0.86953	2.9538	0.	117.67
1653	7.985	-5.6037	0.	127.88
1654	-3.4604	-3.0246	0.	129.88
1655	-7.4716	-5.4905	0.	113.38
1656	7.905	-4.1018	0.	122.85
1657	7.9316	-4.6119	0.	131.06
1658	7.9623	-5.1139	0.	131.56
1659	-0.48802	3.7027	0.	115.53
1660	-9.3491	-1.4379	0.	130.36
1661	6.95	0.845	0.	95.776
1662	6.7483	0.86667	0.	108.99
1663	6.7705	0.43434	0.	109.44
1664	7.0215	0.56488	0.	113.21
1665	6.5558	0.67027	0.	116.9
1666	7.43	1.505	0.	135.67
1667	7.3483	1.6917	0.	135.43
1668	7.584	1.8885	0.	154.21
1669	7.7694	1.6202	0.	145.3
1670	6.4217	1.6133	0.	145.19
1671	6.5417	1.7783	0.	140.32
1672	6.1491	1.8352	0.	145.84
1673	6.3648	2.0054	0.	148.5
1674	7.11	-4.0125	0.	105.07
1675	7.0875	-4.2675	0.	111.52
1676	7.3672	-4.4261	0.	142.37
1677	7.3823	-3.8794	0.	140.64
1678	7.6125	-4.1309	0.	137.11
1679	6.69	-3.7175	0.	95.43
1680	6.4575	-3.825	0.	136.3
1681	6.2344	-3.5584	0.	130.77
1682	6.5299	-3.3359	0.	116.91
1683	6.6225	-4.4825	0.	112.44
1684	6.4125	-4.335	0.	144.23
1685	6.4107	-4.7735	0.	130.6
1686	6.1602	-4.5589	0.	137.49
1687	-0.925	-0.3775	0.	85.32
1688	-0.67	-0.4425	0.	125.19
1689	-0.48662	-0.16632	0.	127.59
1690	-0.8946	-3.1571e-002	0.	114.38
1691	-1.295	-0.7525	0.	114.32
1692	-1.225	-1.005	0.	128.99
1693	-1.5118	-1.1944	0.	154.04
1694	-1.6525	-0.81641	0.	146.87
1695	-0.53	-0.9475	0.	143.51
1696	-0.715	-1.135	0.	126.04
1697	-0.24075	-1.1518	0.	139.15
1698	-0.47717	-1.4005	0.	138.93
1699	-0.95125	5.775	0.	143.77
1700	-0.7875	5.9612	0.	132.97
1701	-1.2499	5.9933	0.	141.34
1702	-1.0143	6.236	0.	140.3
1703	-0.47875	4.365	0.	118.59
1704	-0.23625	4.3162	0.	104.29
1705	-0.21074	3.9898	0.	112.34
1706	-0.68867	4.1183	0.	121.26
1707	-0.44401	3.9164	0.	113.75
1708	0.6675	5.6687	0.	132.63
1709	0.74625	5.4338	0.	129.91
1710	1.1295	5.5148	0.	142.05
1711	0.93026	5.8528	0.	147.59
1712	-7.3075	-8.3413	0.	133.85
1713	-7.4625	-8.15	0.	142.9
1714	-7.7618	-8.3028	0.	140.38
1715	-7.5387	-8.5504	0.	142.52
1716	-5.8525	-8.1088	0.	135.55
1717	-5.765	-7.8787	0.	134.23
1718	-5.3865	-7.9664	0.	147.16
1719	-5.5875	-8.3019	0.	153.26
1720	-6.9375	-6.77	0.	116.4
1721	-6.695	-6.7312	0.	102.03
1722	-6.8893	-6.265	0.	114.54
1723	-6.6043	-6.4651	0.	117.04
1724	-7.1361	-6.4981	0.	118.82
1725	-8.5017	-1.4217	0.	120.71
1726	-8.5483	-1.22	0.	117.66
1727	-8.8507	-1.1363	0.	144.72
1728	-8.7904	-1.6363	0.	147.05
1729	-9.0246	-1.399	0.	146.08
1730	-7.7083	-1.6683	0.	124.15
1731	-7.5567	-1.5283	0.	142.04
1732	-7.496	-1.9214	0.	133.21
1733	-7.2772	-1.6848	0.	135.21
1734	-7.9417	-0.66	0.	100.51
1735	-7.7433	-0.72167	0.	123.11
1736	-7.614	-0.43414	0.	127.3
1737	-7.9018	-0.31141	0.	113.9
1738	6.	-1.25	0.	134.64
1739	6.25	-1.	0.	118.17
1740	5.7476	-1.0254	0.	129.09
1741	5.9986	-0.76748	0.	125.44
1742	6.	-1.75	0.	134.75
1743	6.25	-2.	0.	117.74
1744	5.752	-2.0118	0.	129.95
1745	6.0099	-2.2649	0.	125.35
1746	6.75	-1.	0.	116.76
1747	7.	-1.25	0.	131.77
1748	7.2529	-1.0022	0.	126.13
1749	6.9938	-0.735	0.	121.23
1750	6.75	-2.	0.	116.4
1751	7.	-1.75	0.	131.96
1752	7.2513	-2.0065	0.	126.63
1753	7.0082	-2.2554	0.	121.79
1754	4.	4.75	0.	141.57
1755	4.25	5.	0.	125.65
1756	3.9953	5.2456	0.	132.3
1757	3.7465	4.9921	0.	134.89
1758	4.	3.25	0.	143.97
1759	4.25	3.	0.	128.23
1760	4.0033	2.7465	0.	134.3
1761	3.7535	2.995	0.	138.11
1762	5.75	5.	0.	124.03
1763	6.	4.75	0.	137.86
1764	6.25	5.0002	0.	133.93
1765	5.9998	5.25	0.	130.89
1766	5.75	3.	0.	128.89
1767	6.	3.25	0.	143.01
1768	6.2487	3.0223	0.	133.52
1769	6.0034	2.8112	0.	136.8
1770	7.	4.75	0.	140.85
1771	7.25	5.	0.	127.82
1772	6.9999	5.25	0.	133.12
1773	6.75	5.0002	0.	135.17
1774	7.	4.25	0.	139.69
1775	7.25	4.	0.	125.54
1776	7.006	3.7501	0.	129.58
1777	6.7506	4.0017	0.	136.01
1778	8.75	5.	0.	129.55
1779	9.	4.75	0.	144.17
1780	9.	5.25	0.	134.05
1781	9.25	5.0001	0.	136.68
1782	8.75	4.	0.	129.3
1783	9.	4.25	0.	144.18
1784	9.005	3.7531	0.	134.35
1785	9.2506	4.0007	0.	136.84
1786	6.	7.75	0.	136.41
1787	6.25	8.	0.	121.1
1788	5.9997	8.2498	0.	127.56
1789	5.7494	7.9993	0.	129.91
1790	6.	7.25	0.	136.24
1791	6.25	7.	0.	121.25
1792	5.9996	6.7499	0.	127.53
1793	5.7491	6.9993	0.	128.99
1794	6.75	8.	0.	121.33
1795	7.	7.75	0.	136.99
1796	7.25	8.	0.	130.46
1797	6.9999	8.25	0.	127.9
1798	6.75	7.	0.	121.61
1799	7.	7.25	0.	136.96
1800	7.25	7.	0.	130.14
1801	6.9999	6.75	0.	128.37
1802	-3.	-7.25	0.	141.54
1803	-2.75	-7.	0.	125.33
1804	-2.9995	-6.7487	0.	132.29
1805	-3.2512	-6.9939	0.	135.3
1806	-3.	-7.75	0.	141.59
1807	-2.75	-8.	0.	125.09
1808	-3.0064	-8.2477	0.	132.63
1809	-3.2604	-7.9935	0.	134.86
1810	-2.25	-7.	0.	125.6
1811	-2.	-7.25	0.	141.66
1812	-1.9998	-6.7506	0.	132.83
1813	-1.7499	-7.0004	0.	135.46
1814	-2.25	-8.	0.	124.59
1815	-2.	-7.75	0.	140.94
1816	-2.0016	-8.2498	0.	131.49
1817	-1.7503	-8.0001	0.	134.27
1818	0.	1.75	0.	136.17
1819	0.25	2.	0.	123.34
1820	-5.0651e-002	2.2166	0.	128.54
1821	-0.24046	1.9795	0.	128.85
1822	0.	1.25	0.	137.22
1823	0.25	1.	0.	126.14
1824	-5.7039e-003	0.73229	0.	132.09
1825	-0.25246	1.0333	0.	129.37
1826	1.75	2.	0.	128.86
1827	2.	1.75	0.	143.
1828	2.2492	1.9972	0.	137.13
1829	1.9909	2.2479	0.	133.99
1830	1.75	1.	0.	128.1
1831	2.	1.25	0.	142.49
1832	2.2459	0.99704	0.	135.3
1833	1.9903	0.74578	0.	132.32
1834	0.	-4.25	0.	135.54
1835	0.25	-4.	0.	122.25
1836	6.3359e-003	-3.7608	0.	127.21
1837	-0.24477	-4.0074	0.	129.14
1838	0.	-4.75	0.	134.83
1839	0.25	-5.	0.	120.65
1840	5.4432e-004	-5.2506	0.	125.89
1841	-0.24833	-5.0027	0.	129.61
1842	1.75	-4.	0.	123.18
1843	2.	-4.25	0.	136.67
1844	2.0011	-3.7535	0.	128.84
1845	2.249	-4.0022	0.	130.82
1846	1.75	-5.	0.	120.79
1847	2.	-4.75	0.	135.42
1848	1.9984	-5.2506	0.	125.92
1849	2.2475	-5.0015	0.	129.86
1850	0.	-7.25	0.	135.24
1851	0.25	-7.	0.	119.19
1852	1.1043e-004	-6.7503	0.	126.54
1853	-0.24994	-7.0003	0.	130.73
1854	0.	-8.75	0.	136.27
1855	0.25	-9.	0.	119.78
1856	-0.25025	-9.	0.	131.91
1857	-8.6255e-005	-9.25	0.	127.11
1858	1.75	-7.	0.	119.12
1859	2.	-7.25	0.	135.23
1860	1.9988	-6.7505	0.	126.1
1861	2.249	-7.0008	0.	130.33
1862	1.75	-9.	0.	118.51
1863	2.	-8.75	0.	134.63
1864	2.25	-9.0001	0.	129.76
1865	2.	-9.25	0.	125.18
1866	-9.	-3.25	0.	142.
1867	-8.75	-3.	0.	123.12
1868	-8.9794	-2.7329	0.	131.26
1869	-9.2466	-2.9936	0.	137.43
1870	-9.	-4.75	0.	143.61
1871	-8.75	-5.	0.	126.83
1872	-9.2493	-5.0005	0.	137.94
1873	-8.9943	-5.2518	0.	133.27
1874	-7.25	-3.	0.	121.26
1875	-7.	-3.25	0.	137.84
1876	-6.7482	-3.007	0.	133.49
1877	-6.9973	-2.7721	0.	130.85
1878	-7.25	-5.	0.	121.39
1879	-7.	-4.75	0.	136.4
1880	-6.9851	-5.2429	0.	127.12
1881	-6.7437	-4.9884	0.	129.55
1882	-7.	1.75	0.	133.84
1883	-6.75	2.	0.	119.07
1884	-7.2479	2.0025	0.	126.73
1885	-6.999	2.2505	0.	124.43
1886	-7.	1.25	0.	135.82
1887	-6.75	1.	0.	121.36
1888	-7.2556	1.0157	0.	128.12
1889	-7.0869	0.75119	0.	130.07
1890	-6.25	2.	0.	121.08
1891	-6.	1.75	0.	137.99
1892	-5.745	1.9956	0.	131.81
1893	-5.9967	2.2488	0.	128.36
1894	-6.25	1.	0.	121.4
1895	-6.	1.25	0.	138.03
1896	-5.7483	0.99523	0.	132.27
1897	-6.0137	0.75097	0.	128.67
1898	-6.	6.75	0.	141.9
1899	-5.75	7.	0.	125.18
1900	-6.	7.25	0.	132.96
1901	-6.25	7.	0.	136.75
1902	-6.	6.25	0.	141.82
1903	-5.75	6.	0.	124.27
1904	-6.0004	5.7501	0.	132.14
1905	-6.25	6.	0.	138.4
1906	-5.25	7.	0.	123.99
1907	-5.	6.75	0.	139.53
1908	-4.7496	7.0003	0.	132.78
1909	-4.9999	7.25	0.	130.69
1910	-5.25	6.	0.	122.19
1911	-5.	6.25	0.	138.54
1912	-4.7505	6.0015	0.	131.53
1913	-5.0011	5.7509	0.	128.42
1914	-9.	6.75	0.	142.27
1915	-8.75	7.	0.	125.84
1916	-9.	7.25	0.	131.55
1917	-9.25	7.	0.	135.41
1918	-9.	5.25	0.	142.2
1919	-8.75	5.	0.	125.7
1920	-9.	4.7499	0.	131.42
1921	-9.25	5.	0.	135.59
1922	-7.25	7.	0.	126.54
1923	-7.	6.75	0.	141.33
1924	-7.	7.25	0.	134.29
1925	-6.75	7.	0.	137.36
1926	-7.25	5.	0.	125.1
1927	-7.	5.25	0.	141.56
1928	-6.7501	5.	0.	133.79
1929	-6.9997	4.75	0.	130.56
1930	9.75	10.	0.	125.04
1931	10.	9.75	0.	124.93
1932	-9.75	10.	0.	124.85
1933	-10.	9.75	0.	125.15
1934	10.	-9.75	0.	125.08
1935	9.75	-10.	0.	125.16
1936	-10.	-9.75	0.	131.77
1937	-9.75	-10.	0.	131.39
1938	7.19	1.175	0.	95.266
1939	7.2574	0.89117	0.	105.9
1940	7.5722	1.195	0.	118.32
1941	6.585	1.24	0.	120.59
1942	6.4219	1.0554	0.	118.52
1943	6.2741	1.4422	0.	128.28
1944	6.945	1.735	0.	106.01
1945	7.1733	1.9244	0.	103.79
1946	6.7682	1.9621	0.	109.48
1947	6.9542	-3.6479	0.	86.144
1948	6.8877	-4.6029	0.	90.083
1949	6.1946	-4.0614	0.	134.19
1950	-1.3134	-0.391	0.	99.209
1951	-0.35189	-0.65444	0.	129.52
1952	-0.98868	-1.3056	0.	96.252
1953	-0.79375	5.305	0.	133.27
1954	-1.1211	5.5149	0.	134.2
1955	-0.63625	4.835	0.	129.61
1956	-0.95729	5.048	0.	132.57
1957	-0.81036	4.581	0.	126.12
1958	-0.3025	5.8637	0.	112.46
1959	-0.5271	6.1512	0.	110.41
1960	0.1825	5.7663	0.	110.74
1961	-4.215e-002	6.0512	0.	114.57
1962	0.44402	5.9516	0.	109.88
1963	9.125e-002	4.6887	0.	105.07
1964	0.14318	4.3675	0.	108.41
1965	0.41875	5.0613	0.	105.86
1966	0.45139	4.7685	0.	115.85
1967	0.77029	5.1415	0.	118.2
1968	-6.8225	-8.2638	0.	111.8
1969	-7.051	-8.5043	0.	108.09
1970	-6.3375	-8.1862	0.	109.29
1971	-6.5636	-8.4426	0.	113.17
1972	-6.0758	-8.3755	0.	107.22
1973	-7.2875	-7.69	0.	129.26
1974	-7.6136	-7.8529	0.	131.57
1975	-7.1125	-7.23	0.	125.21
1976	-7.446	-7.4037	0.	128.11
1977	-7.2759	-6.9539	0.	120.54
1978	-6.075	-7.4963	0.	105.66
1979	-5.7114	-7.5381	0.	120.52
1980	-6.385	-7.1137	0.	102.46
1981	-6.0771	-7.2037	0.	115.76
1982	-6.3725	-6.8498	0.	105.84
1983	-8.105	-1.545	0.	89.353
1984	-8.3547	-1.7369	0.	94.342
1985	-7.9274	-1.8362	0.	96.655
1986	-8.245	-0.94	0.	76.927
1987	-8.5327	-0.85272	0.	102.84
1988	-8.2035	-0.60216	0.	99.076
1989	-7.65	-1.125	0.	131.81
1990	-7.3696	-1.2618	0.	131.76
1991	-7.483	-0.84191	0.	124.75
1992	5.7499	-1.5146	0.	134.31
1993	6.4983	-0.79739	0.	106.53
1994	6.5116	-2.2685	0.	106.36
1995	7.2516	-1.5036	0.	131.41
1996	4.	4.25	0.	147.61
1997	3.7521	4.4937	0.	141.58
1998	4.	3.75	0.	148.64
1999	3.7557	3.9944	0.	144.07
2000	3.7557	3.4947	0.	143.68
2001	4.75	5.	0.	117.12
2002	4.4977	5.2483	0.	115.58
2003	5.25	5.	0.	116.45
2004	4.999	5.2495	0.	117.66
2005	5.4995	5.2499	0.	114.74
2006	4.75	3.	0.	120.26
2007	4.5057	2.7444	0.	117.41
2008	5.25	3.	0.	120.88
2009	5.0119	2.74	0.	120.45
2010	5.5293	2.7333	0.	120.43
2011	6.	4.25	0.	143.12
2012	6.2501	4.5005	0.	138.75
2013	6.	3.75	0.	145.78
2014	6.2506	4.0017	0.	141.27
2015	6.2525	3.5058	0.	141.11
2016	6.7501	4.5005	0.	140.39
2017	7.75	5.	0.	121.74
2018	7.5	5.25	0.	119.27
2019	8.25	5.	0.	122.68
2020	8.	5.25	0.	123.02
2021	8.5	5.25	0.	120.36
2022	7.75	4.	0.	119.8
2023	7.5085	3.7552	0.	116.21
2024	8.25	4.	0.	121.65
2025	8.0091	3.7568	0.	121.39
2026	8.5075	3.7551	0.	120.
2027	9.2501	4.5002	0.	142.03
2028	5.7492	7.4992	0.	134.16
2029	6.4999	8.2499	0.	111.31
2030	6.4998	6.75	0.	112.58
2031	7.25	7.5	0.	135.01
2032	-3.2558	-7.4938	0.	139.74
2033	-2.5	-6.7501	0.	115.3
2034	-2.503	-8.2494	0.	114.79
2035	-1.7501	-7.5002	0.	139.6
2036	-0.24635	1.5147	0.	133.04
2037	0.75	2.	0.	118.61
2038	0.45192	2.2398	0.	114.51
2039	1.25	2.	0.	121.05
2040	0.96305	2.2444	0.	120.11
2041	1.478	2.252	0.	119.36
2042	0.75	1.	0.	121.25
2043	0.49147	0.75823	0.	118.64
2044	1.25	1.	0.	121.52
2045	0.98392	0.74661	0.	121.6
2046	1.4873	0.74528	0.	118.61
2047	2.2483	1.4979	0.	140.77
2048	-0.24707	-4.5043	0.	133.57
2049	0.75	-4.	0.	116.
2050	0.50436	-3.7587	0.	113.63
2051	1.25	-4.	0.	116.27
2052	1.0031	-3.7564	0.	116.75
2053	1.5021	-3.7548	0.	114.23
2054	0.75	-5.	0.	113.48
2055	0.50007	-5.2501	0.	110.94
2056	1.25	-5.	0.	113.46
2057	0.99975	-5.2501	0.	112.59
2058	1.4993	-5.2502	0.	110.87
2059	2.2481	-4.5016	0.	134.52
2060	0.	-7.75	0.	140.57
2061	-0.25003	-7.5002	0.	136.13
2062	0.	-8.25	0.	141.16
2063	-0.25014	-8.0001	0.	137.87
2064	-0.25023	-8.5	0.	137.35
2065	0.75	-7.	0.	109.82
2066	0.49992	-6.7501	0.	108.22
2067	1.25	-7.	0.	109.86
2068	0.99969	-6.7501	0.	109.37
2069	1.4993	-6.7502	0.	108.19
2070	0.75	-9.	0.	109.85
2071	0.49998	-9.25	0.	108.28
2072	1.25	-9.	0.	109.55
2073	1.	-9.25	0.	108.9
2074	1.5	-9.25	0.	107.6
2075	2.	-7.75	0.	140.46
2076	2.2495	-7.5005	0.	135.92
2077	2.	-8.25	0.	140.31
2078	2.2498	-8.0003	0.	137.07
2079	2.25	-8.5002	0.	135.61
2080	-9.	-3.75	0.	149.2
2081	-9.2495	-3.4979	0.	144.47
2082	-9.	-4.25	0.	149.69
2083	-9.2499	-3.9996	0.	146.29
2084	-9.2499	-4.5	0.	144.82
2085	-8.25	-3.	0.	110.99
2086	-8.4831	-2.7481	0.	110.24
2087	-7.75	-3.	0.	110.47
2088	-7.9893	-2.7651	0.	107.19
2089	-7.4943	-2.7746	0.	109.58
2090	-8.25	-5.	0.	117.23
2091	-8.492	-5.2508	0.	116.19
2092	-7.75	-5.	0.	114.84
2093	-7.9892	-5.2459	0.	116.98
2094	-7.4858	-5.2452	0.	112.12
2095	-7.	-3.75	0.	142.61
2096	-6.7488	-3.5015	0.	138.05
2097	-7.	-4.25	0.	141.88
2098	-6.749	-3.9979	0.	138.61
2099	-6.748	-4.494	0.	136.47
2100	-7.2466	1.5058	0.	131.79
2101	-6.4985	2.2499	0.	110.19
2102	-6.5463	0.74924	0.	111.94
2103	-5.7466	1.4953	0.	137.03
2104	-6.25	6.5	0.	142.91
2105	-5.5	7.25	0.	114.54
2106	-5.5008	5.7504	0.	112.68
2107	-4.7499	6.5008	0.	137.2
2108	-9.	6.25	0.	148.89
2109	-9.25	6.5	0.	142.54
2110	-9.	5.75	0.	148.89
2111	-9.25	6.	0.	144.27
2112	-9.25	5.5	0.	142.64
2113	-8.25	7.	0.	117.68
2114	-8.5	7.25	0.	115.47
2115	-7.75	7.	0.	117.48
2116	-8.	7.25	0.	117.79
2117	-7.5	7.25	0.	115.84
2118	-8.25	5.	0.	117.36
2119	-8.5	4.75	0.	115.13
2120	-7.75	5.	0.	116.92
2121	-7.9999	4.7501	0.	116.99
2122	-7.4997	4.75	0.	114.42
2123	-7.	6.25	0.	145.79
2124	-6.75	6.5	0.	141.86
2125	-7.	5.75	0.	147.19
2126	-6.75	6.	0.	143.55
2127	-6.7501	5.5	0.	142.67
2128	9.25	10.	0.	125.1
2129	9.5	9.75	0.	125.05
2130	8.75	10.	0.	125.04
2131	9.	9.75	0.	125.11
2132	8.25	10.	0.	124.63
2133	8.5	9.75	0.	125.02
2134	7.75	10.	0.	123.73
2135	8.	9.75	0.	124.62
2136	7.25	10.	0.	122.54
2137	7.5	9.75	0.	123.65
2138	6.75	10.	0.	121.66
2139	6.9999	9.75	0.	122.34
2140	6.25	10.	0.	121.65
2141	6.4999	9.7499	0.	121.66
2142	5.75	10.	0.	122.52
2143	5.9998	9.7499	0.	122.31
2144	5.25	10.	0.	123.75
2145	5.4998	9.7497	0.	123.63
2146	4.75	10.	0.	124.78
2147	4.9997	9.7495	0.	124.66
2148	4.25	10.	0.	125.41
2149	4.4997	9.7491	0.	125.19
2150	3.75	10.	0.	125.76
2151	3.9998	9.7488	0.	125.5
2152	3.25	10.	0.	125.94
2153	3.4999	9.7485	0.	125.72
2154	2.75	10.	0.	125.99
2155	3.0001	9.7484	0.	125.85
2156	2.25	10.	0.	125.88
2157	2.5005	9.7487	0.	125.87
2158	1.75	10.	0.	125.64
2159	2.001	9.7493	0.	125.75
2160	1.25	10.	0.	125.32
2161	1.5016	9.7505	0.	125.5
2162	0.75	10.	0.	125.01
2163	1.0019	9.7518	0.	125.19
2164	0.25	10.	0.	124.85
2165	0.50186	9.752	0.	124.94
2166	-0.25	10.	0.	124.94
2167	1.4778e-003	9.7512	0.	124.88
2168	-0.75	10.	0.	125.31
2169	-0.49877	9.7495	0.	125.09
2170	-1.25	10.	0.	125.92
2171	-0.99876	9.7484	0.	125.55
2172	-1.75	10.	0.	126.64
2173	-1.4987	9.7481	0.	126.18
2174	-2.25	10.	0.	127.34
2175	-1.9987	9.7483	0.	126.83
2176	-2.75	10.	0.	127.88
2177	-2.4991	9.749	0.	127.39
2178	-3.25	10.	0.	128.15
2179	-2.9993	9.7493	0.	127.75
2180	-3.75	10.	0.	128.07
2181	-3.4996	9.7495	0.	127.85
2182	-4.25	10.	0.	127.66
2183	-3.9997	9.7498	0.	127.64
2184	-4.75	10.	0.	127.
2185	-4.4999	9.7499	0.	127.14
2186	-5.25	10.	0.	126.22
2187	-5.	9.75	0.	126.47
2188	-5.75	10.	0.	125.42
2189	-5.5	9.75	0.	125.79
2190	-6.25	10.	0.	124.61
2191	-6.	9.75	0.	125.17
2192	-6.75	10.	0.	123.8
2193	-6.5	9.75	0.	124.5
2194	-7.25	10.	0.	123.09
2195	-7.	9.75	0.	123.75
2196	-7.75	10.	0.	122.71
2197	-7.5	9.75	0.	123.1
2198	-8.25	10.	0.	122.84
2199	-8.	9.75	0.	122.86
2200	-8.75	10.	0.	123.49
2201	-8.5	9.75	0.	123.22
2202	-9.25	10.	0.	124.35
2203	-9.	9.75	0.	124.06
2204	-9.5	9.75	0.	125.01
2205	10.	9.25	0.	124.74
2206	9.75	9.5	0.	124.93
2207	10.	8.75	0.	124.67
2208	9.75	9.	0.	124.89
2209	10.	8.25	0.	124.96
2210	9.75	8.5	0.	125.04
2211	10.	7.75	0.	125.84
2212	9.75	8.	0.	125.49
2213	10.	7.25	0.	127.52
2214	9.75	7.5	0.	126.45
2215	10.	6.75	0.	130.07
2216	9.75	7.	0.	128.06
2217	10.	6.25	0.	133.09
2218	9.75	6.5	0.	130.24
2219	10.	5.75	0.	134.64
2220	9.75	6.	0.	132.72
2221	10.	5.25	0.	132.04
2222	9.75	5.5	0.	134.69
2223	10.	4.75	0.	127.11
2224	9.75	5.0001	0.	132.08
2225	10.	4.25	0.	127.26
2226	9.7501	4.5002	0.	129.74
2227	10.	3.75	0.	132.48
2228	9.7506	4.0007	0.	132.37
2229	10.	3.25	0.	135.27
2230	9.7526	3.5016	0.	135.24
2231	10.	2.75	0.	133.78
2232	9.7542	3.0024	0.	133.58
2233	10.	2.25	0.	130.75
2234	9.7546	2.5025	0.	131.25
2235	10.	1.75	0.	128.47
2236	9.7524	2.0023	0.	129.12
2237	10.	1.25	0.	127.75
2238	9.7481	1.5024	0.	127.99
2239	10.	0.75	0.	128.44
2240	9.746	1.0027	0.	128.14
2241	10.	0.25	0.	129.62
2242	9.7481	0.50254	0.	129.14
2243	10.	-0.25	0.	130.43
2244	9.7512	1.3001e-003	0.	129.99
2245	10.	-0.75	0.	130.56
2246	9.752	-0.50015	0.	130.24
2247	10.	-1.25	0.	130.26
2248	9.7513	-1.0019	0.	130.01
2249	10.	-1.75	0.	129.82
2250	9.7505	-1.503	0.	129.65
2251	10.	-2.25	0.	129.28
2252	9.7493	-2.0042	0.	129.32
2253	10.	-2.75	0.	128.44
2254	9.7476	-2.5055	0.	128.87
2255	10.	-3.25	0.	127.25
2256	9.7458	-3.0067	0.	128.07
2257	10.	-3.75	0.	126.08
2258	9.744	-3.5075	0.	126.97
2259	10.	-4.25	0.	125.5
2260	9.7432	-4.0076	0.	126.13
2261	10.	-4.75	0.	125.74
2262	9.7444	-4.5072	0.	125.97
2263	10.	-5.25	0.	126.43
2264	9.7464	-5.0067	0.	126.41
2265	10.	-5.75	0.	127.01
2266	9.7484	-5.5059	0.	126.92
2267	10.	-6.25	0.	127.19
2268	9.7501	-6.005	0.	127.12
2269	10.	-6.75	0.	127.
2270	9.7512	-6.5041	0.	126.98
2271	10.	-7.25	0.	126.59
2272	9.7516	-7.0032	0.	126.64
2273	10.	-7.75	0.	126.13
2274	9.7514	-7.5023	0.	126.24
2275	10.	-8.25	0.	125.72
2276	9.751	-8.0016	0.	125.86
2277	10.	-8.75	0.	125.4
2278	9.7506	-8.501	0.	125.55
2279	10.	-9.25	0.	125.19
2280	9.7503	-9.0006	0.	125.33
2281	9.7501	-9.5003	0.	125.2
2282	-10.	9.25	0.	126.42
2283	-9.75	9.5	0.	125.31
2284	-10.	8.75	0.	129.13
2285	-9.75	9.	0.	126.92
2286	-10.	8.25	0.	132.72
2287	-9.75	8.5	0.	129.27
2288	-10.	7.75	0.	135.34
2289	-9.75	8.	0.	132.22
2290	-10.	7.25	0.	134.37
2291	-9.75	7.5	0.	135.07
2292	-10.	6.75	0.	130.66
2293	-9.75	7.	0.	133.69
2294	-10.	6.25	0.	128.52
2295	-9.75	6.5	0.	132.84
2296	-10.	5.75	0.	128.79
2297	-9.75	6.	0.	133.6
2298	-10.	5.25	0.	131.42
2299	-9.75	5.5	0.	133.21
2300	-10.	4.75	0.	135.52
2301	-9.75	5.	0.	134.42
2302	-10.	4.25	0.	136.8
2303	-9.75	4.4999	0.	136.02
2304	-10.	3.75	0.	134.47
2305	-9.7499	3.9997	0.	133.39
2306	-10.	3.25	0.	131.16
2307	-9.7498	3.4994	0.	130.65
2308	-10.	2.75	0.	128.55
2309	-9.7495	2.9987	0.	128.47
2310	-10.	2.25	0.	126.94
2311	-9.7484	2.4973	0.	126.92
2312	-10.	1.75	0.	126.52
2313	-9.7461	1.995	0.	126.1
2314	-10.	1.25	0.	127.34
2315	-9.7413	1.4923	0.	126.19
2316	-10.	0.75	0.	129.07
2317	-9.7343	0.99054	0.	127.25
2318	-10.	0.25	0.	130.58
2319	-9.7325	0.49354	0.	128.98
2320	-10.	-0.25	0.	130.12
2321	-9.7539	8.3621e-004	0.	130.45
2322	-10.	-0.75	0.	127.49
2323	-9.7631	-0.49278	0.	130.02
2324	-10.	-1.25	0.	128.04
2325	-9.7366	-0.98517	0.	127.47
2326	-10.	-1.75	0.	134.68
2327	-9.6746	-1.469	0.	130.18
2328	-10.	-2.25	0.	141.69
2329	-9.7118	-1.974	0.	137.53
2330	-10.	-2.75	0.	142.88
2331	-9.7354	-2.4855	0.	142.19
2332	-10.	-3.25	0.	138.83
2333	-9.7466	-2.9936	0.	140.38
2334	-10.	-3.75	0.	135.5
2335	-9.7495	-3.4979	0.	138.53
2336	-10.	-4.25	0.	134.65
2337	-9.7499	-3.9996	0.	138.53
2338	-10.	-4.75	0.	136.35
2339	-9.7499	-4.5	0.	137.54
2340	-10.	-5.25	0.	139.48
2341	-9.7493	-5.0005	0.	138.13
2342	-10.	-5.75	0.	139.51
2343	-9.7469	-5.5011	0.	139.06
2344	-10.	-6.25	0.	135.6
2345	-9.7451	-6.0011	0.	135.38
2346	-10.	-6.75	0.	130.6
2347	-9.7463	-6.5001	0.	131.43
2348	-10.	-7.25	0.	126.83
2349	-9.7473	-7.0002	0.	128.1
2350	-10.	-7.75	0.	125.09
2351	-9.7317	-7.501	0.	126.01
2352	-10.	-8.25	0.	125.6
2353	-9.7378	-8.0036	0.	125.69
2354	-10.	-8.75	0.	127.75
2355	-9.747	-8.5061	0.	127.01
2356	-10.	-9.25	0.	130.22
2357	-9.7511	-9.0059	0.	129.12
2358	-9.7516	-9.5036	0.	130.79
2359	-9.25	-10.	0.	130.63
2360	-9.5016	-9.7536	0.	130.41
2361	-8.75	-10.	0.	130.32
2362	-9.0032	-9.7589	0.	130.65
2363	-8.25	-10.	0.	127.99
2364	-8.5047	-9.7665	0.	130.33
2365	-7.75	-10.	0.	122.39
2366	-8.0056	-9.7747	0.	126.68
2367	-7.25	-10.	0.	115.91
2368	-7.5056	-9.7801	0.	119.05
2369	-6.75	-10.	0.	113.09
2370	-7.0052	-9.7798	0.	112.71
2371	-6.25	-10.	0.	116.08
2372	-6.5052	-9.7743	0.	112.77
2373	-5.75	-10.	0.	123.
2374	-6.0056	-9.7658	0.	118.89
2375	-5.25	-10.	0.	130.11
2376	-5.5065	-9.7559	0.	127.35
2377	-4.75	-10.	0.	134.48
2378	-5.0072	-9.7476	0.	133.55
2379	-4.25	-10.	0.	135.44
2380	-4.5077	-9.7446	0.	135.89
2381	-3.75	-10.	0.	133.94
2382	-4.0069	-9.7453	0.	135.23
2383	-3.25	-10.	0.	131.28
2384	-3.5054	-9.747	0.	132.71
2385	-2.75	-10.	0.	129.17
2386	-3.0037	-9.7484	0.	129.57
2387	-2.25	-10.	0.	129.13
2388	-2.5023	-9.7493	0.	128.
2389	-1.75	-10.	0.	131.15
2390	-2.0014	-9.7497	0.	129.39
2391	-1.25	-10.	0.	133.59
2392	-1.5008	-9.7499	0.	132.35
2393	-0.75	-10.	0.	133.31
2394	-1.0004	-9.75	0.	134.48
2395	-0.25	-10.	0.	126.59
2396	-0.5002	-9.75	0.	133.01
2397	0.25	-10.	0.	115.54
2398	-8.6255e-005	-9.75	0.	121.76
2399	0.75	-10.	0.	107.57
2400	0.49998	-9.75	0.	109.09
2401	1.25	-10.	0.	107.12
2402	1.	-9.75	0.	105.92
2403	1.75	-10.	0.	114.2
2404	1.5	-9.75	0.	108.26
2405	2.25	-10.	0.	124.53
2406	2.	-9.75	0.	119.95
2407	2.75	-10.	0.	131.09
2408	2.5	-9.75	0.	130.62
2409	3.25	-10.	0.	132.09
2410	3.0001	-9.75	0.	132.26
2411	3.75	-10.	0.	130.94
2412	3.5003	-9.75	0.	131.33
2413	4.25	-10.	0.	129.58
2414	4.0005	-9.7498	0.	130.04
2415	4.75	-10.	0.	128.36
2416	4.5007	-9.7495	0.	128.79
2417	5.25	-10.	0.	127.34
2418	5.0007	-9.7492	0.	127.72
2419	5.75	-10.	0.	126.52
2420	5.5006	-9.7492	0.	126.83
2421	6.25	-10.	0.	125.9
2422	6.0004	-9.7494	0.	126.12
2423	6.75	-10.	0.	125.49
2424	6.5003	-9.7498	0.	125.62
2425	7.25	-10.	0.	125.26
2426	7.0002	-9.7505	0.	125.31
2427	7.75	-10.	0.	125.18
2428	7.5003	-9.7512	0.	125.17
2429	8.25	-10.	0.	125.21
2430	8.0005	-9.7516	0.	125.17
2431	8.75	-10.	0.	125.27
2432	8.5004	-9.7509	0.	125.24
2433	9.25	-10.	0.	125.28
2434	9.0002	-9.7505	0.	125.3
2435	9.5001	-9.7503	0.	125.28
2436	-3.714	-3.5149	0.	129.44
2437	-3.972	-3.7585	0.	129.51
2438	-4.2219	-3.5094	0.	129.49
2439	-3.9659	-3.2659	0.	129.63
2440	-3.4661	-3.7634	0.	129.23
2441	-3.2101	-3.519	0.	129.15
2442	-3.4603	-3.271	0.	129.62
2443	-4.2287	-4.0016	0.	129.51
2444	-3.7241	-4.007	0.	129.29
2445	-3.98	-4.2512	0.	129.73
2446	-2.9001	2.4346	0.	129.63
2447	-3.138	2.3436	0.	129.69
2448	-2.6596	2.2095	0.	129.01
2449	-2.9276	2.0189	0.	129.4
2450	-4.7332	-3.9957	0.	129.37
2451	-4.4835	-4.2447	0.	129.82
2452	-4.4787	-3.7525	0.	129.49
2453	-3.9588	-2.2825	0.	129.83
2454	-3.7048	-2.5316	0.	130.1
2455	-4.2172	-2.5235	0.	129.81
2456	-3.9622	-2.7737	0.	129.82
2457	-3.9566	-1.7908	0.	129.56
2458	-4.2165	-2.031	0.	129.62
2459	-3.7012	-2.0412	0.	130.03
2460	-3.2205	-4.0109	0.	128.7
2461	-2.9644	-3.7665	0.	128.62
2462	-2.7192	-4.013	0.	127.84
2463	-2.9745	-4.2597	0.	128.19
2464	-3.4768	-4.2563	0.	129.13
2465	-4.474	-1.2842	0.	129.01
2466	-4.2156	-1.538	0.	129.23
2467	-4.4754	-1.7781	0.	129.29
2468	-4.7373	-1.5236	0.	128.85
2469	-2.9268	2.8539	0.	129.99
2470	-3.138	2.5445	0.	129.86
2471	-2.6543	2.6355	0.	129.57
2472	-2.9534	-3.2753	0.	129.37
2473	-2.7092	-3.5206	0.	128.51
2474	-3.2319	1.3676	0.	129.64
2475	-2.7338	1.3059	0.	129.29
2476	-2.9693	1.5698	0.	129.48
2477	-2.9879	1.0987	0.	129.88
2478	3.2462	-1.5106	0.	127.22
2479	2.9925	-1.2617	0.	126.8
2480	2.9975	-1.7609	0.	126.83
2481	2.7432	-1.513	0.	125.66
2482	-4.9859	-4.2376	0.	129.44
2483	-4.984	-3.7469	0.	129.3
2484	-5.2368	-3.9913	0.	129.1
2485	-3.995	3.7557	0.	129.51
2486	-4.2373	3.4992	0.	129.63
2487	-3.7368	3.5107	0.	129.92
2488	-3.9733	3.2444	0.	129.98
2489	-4.2153	-1.0434	0.	128.99
2490	-4.4733	-0.78842	0.	129.09
2491	-4.736	-1.0279	0.	128.6
2492	-2.949	-2.784	0.	130.31
2493	-2.6991	-3.029	0.	129.53
2494	-3.2037	-3.0272	0.	129.85
2495	-3.5113	4.2707	0.	129.17
2496	-3.7552	4.016	0.	129.36
2497	-3.4971	3.7709	0.	129.76
2498	-3.2567	4.0271	0.	129.58
2499	3.4962	-1.2602	0.	127.87
2500	3.4988	-1.7597	0.	127.96
2501	3.7473	-1.5127	0.	128.01
2502	-2.4389	1.9588	0.	128.48
2503	-2.4714	1.5043	0.	128.68
2504	-2.707	1.7682	0.	128.87
2505	-2.2107	1.7077	0.	127.42
2506	-4.2348	-4.4943	0.	130.03
2507	-4.4879	-4.7366	0.	130.73
2508	-4.7362	-4.4867	0.	129.9
2509	4.4839	-6.261	0.	129.43
2510	4.2314	-6.012	0.	130.03
2511	4.4755	-5.7641	0.	129.53
2512	4.7288	-6.0099	0.	129.41
2513	4.7391	-6.5066	0.	128.7
2514	4.9959	-6.7519	0.	127.83
2515	5.2436	-6.4956	0.	127.5
2516	4.984	-6.2555	0.	128.68
2517	-3.4472	-2.2903	0.	130.3
2518	-3.2002	-2.5367	0.	130.55
2519	-3.4549	-2.7799	0.	130.09
2520	-3.9569	-1.2972	0.	129.21
2521	-3.7021	-1.5476	0.	129.51
2522	-3.2047	3.0394	0.	130.17
2523	-3.416	2.7301	0.	130.04
2524	-3.4713	3.263	0.	130.09
2525	-3.7079	2.9967	0.	130.16
2526	-3.4671	1.6541	0.	129.66
2527	-3.4838	1.1517	0.	129.77
2528	-3.7292	1.4205	0.	129.55
2529	-3.7327	-4.5005	0.	129.56
2530	-3.9866	-4.7447	0.	130.43
2531	-4.475	-2.272	0.	129.61
2532	-4.7344	-2.0192	0.	129.44
2533	-4.7295	-3.5037	0.	129.42
2534	-4.4753	-3.2593	0.	129.56
2535	-2.9702	3.3102	0.	130.18
2536	-2.6937	3.0823	0.	130.15
2537	-3.2688	4.5213	0.	128.75
2538	-3.0195	4.7681	0.	128.1
2539	-3.0142	4.2776	0.	129.16
2540	-2.7766	4.5199	0.	128.71
2541	-2.7307	3.5547	0.	130.31
2542	-3.2369	3.5337	0.	130.1
2543	-2.9964	3.7899	0.	129.91
2544	-4.7299	-2.5153	0.	129.82
2545	-4.4743	-2.7657	0.	129.69
2546	-3.4854	-4.7507	0.	129.4
2547	-3.2308	-4.5051	0.	128.61
2548	-2.2205	-4.0141	0.	126.84
2549	-2.4751	-4.2615	0.	127.18
2550	-2.464	-3.7671	0.	127.72
2551	-3.4149	2.181	0.	129.79
2552	-3.7076	1.9313	0.	129.64
2553	-3.2045	1.8563	0.	129.5
2554	-3.657	2.4615	0.	129.97
2555	-3.4853	0.65816	0.	129.9
2556	-3.2378	0.40009	0.	130.16
2557	-3.7322	0.42488	0.	129.86
2558	-3.476	0.16807	0.	129.68
2559	-3.736	0.92051	0.	129.77
2560	-3.2398	0.88289	0.	130.01
2561	-3.9591	-0.80278	0.	129.11
2562	-4.2171	-0.54776	0.	129.21
2563	-3.9656	-0.308	0.	129.37
2564	-3.7045	-0.56004	0.	129.04
2565	-3.7017	-1.0528	0.	129.
2566	-3.1947	-2.0469	0.	130.78
2567	-3.4466	-1.7979	0.	129.98
2568	4.4927	-6.7569	0.	128.75
2569	4.2392	-6.5086	0.	129.61
2570	-4.4905	-5.2278	0.	132.13
2571	-4.7365	-4.9761	0.	131.12
2572	-4.2397	-4.9869	0.	131.12
2573	-2.4137	2.4104	0.	128.96
2574	-2.1729	2.1663	0.	127.82
2575	-2.4212	2.8639	0.	129.74
2576	-2.1478	2.6245	0.	128.84
2577	3.494	-0.76023	0.	128.21
2578	3.2425	-1.0113	0.	127.45
2579	3.745	-1.0137	0.	128.1
2580	-3.7622	4.5151	0.	128.8
2581	-3.5136	4.7664	0.	128.51
2582	3.2404	-0.51068	0.	128.25
2583	3.7449	-0.51241	0.	128.44
2584	3.4913	-0.25993	0.	128.67
2585	3.5007	-2.2592	0.	128.39
2586	3.2501	-2.01	0.	127.57
2587	3.7501	-2.0117	0.	128.41
2588	3.751	-2.5103	0.	128.92
2589	3.2513	-2.5091	0.	128.27
2590	3.5002	-2.7588	0.	128.75
2591	-4.4757	-0.29045	0.	129.55
2592	-4.7307	-0.53062	0.	129.03
2593	4.442	0.75546	0.	124.28
2594	4.6696	0.54155	0.	125.05
2595	4.4892	0.25003	0.	126.61
2596	4.2095	0.50164	0.	126.19
2597	4.6548	0.99566	0.	122.35
2598	4.2032	0.99815	0.	124.22
2599	4.4669	1.2415	0.	121.83
2600	-2.7493	0.37525	0.	130.91
2601	-2.9816	0.14938	0.	130.12
2602	-2.9923	0.62482	0.	130.28
2603	-2.5028	0.5902	0.	130.85
2604	-2.253	0.79244	0.	129.76
2605	-2.4916	1.0469	0.	129.62
2606	-2.7458	0.83977	0.	130.21
2607	-4.2507	4.0056	0.	128.83
2608	-4.0061	4.2603	0.	128.98
2609	-4.4931	3.7491	0.	128.94
2610	-4.4806	3.2423	0.	129.79
2611	-4.7387	3.4958	0.	129.06
2612	1.6376	4.126	0.	127.08
2613	1.4642	3.8624	0.	125.59
2614	1.8833	3.9186	0.	127.57
2615	1.6756	3.6797	0.	126.19
2616	1.8249	4.3893	0.	127.82
2617	2.0706	4.1819	0.	128.32
2618	2.2829	4.4397	0.	128.76
2619	2.0002	4.6707	0.	127.69
2620	1.4368	4.2786	0.	126.9
2621	1.5074	4.593	0.	128.71
2622	4.3488e-002	6.9682	0.	116.46
2623	-0.15854	7.3026	0.	118.43
2624	7.8007e-002	7.3842	0.	119.06
2625	0.30649	7.146	0.	119.77
2626	1.006	-2.2891	0.	120.04
2627	1.2568	-2.5298	0.	119.6
2628	1.0091	-2.7801	0.	117.74
2629	0.76131	-2.5417	0.	119.9
2630	-2.4542	3.3268	0.	130.29
2631	-2.1744	3.0917	0.	129.97
2632	1.2634	4.0149	0.	125.43
2633	1.1502	4.3522	0.	126.03
2634	1.0514	4.1863	0.	124.69
2635	-4.9848	-4.7262	0.	130.29
2636	-5.2371	-4.4804	0.	129.33
2637	-4.7347	-5.4642	0.	132.74
2638	-4.4886	-5.7177	0.	133.58
2639	-4.2417	-5.479	0.	132.62
2640	4.266	-1.0216e-002	0.	127.83
2641	3.9979	-0.26232	0.	128.2
2642	3.9863	0.24139	0.	127.42
2643	3.7442	-9.8404e-003	0.	128.43
2644	3.9961	-1.2661	0.	128.24
2645	3.9986	-1.7647	0.	128.46
2646	4.247	-1.5211	0.	128.22
2647	-2.4848	-4.7575	0.	126.93
2648	-2.2397	-5.0063	0.	126.82
2649	-2.7383	-5.0043	0.	127.4
2650	-2.4912	-5.2544	0.	126.51
2651	2.738	-1.0137	0.	125.94
2652	2.9888	-0.76176	0.	127.49
2653	1.994	-1.7702	0.	122.46
2654	1.7378	-1.5229	0.	121.36
2655	1.9843	-1.2695	0.	122.2
2656	2.2404	-1.5177	0.	123.48
2657	-1.9482	-2.7782	0.	128.3
2658	-1.7015	-3.0246	0.	126.53
2659	-2.1991	-3.0266	0.	128.44
2660	-1.9531	-3.2725	0.	127.26
2661	2.7489	-2.0121	0.	126.05
2662	3.0007	-2.26	0.	127.44
2663	3.9957	-3.2609	0.	128.48
2664	3.9996	-2.7613	0.	129.08
2665	3.7488	-3.0098	0.	128.91
2666	4.2485	-3.0135	0.	129.28
2667	4.2266	-4.5139	0.	126.89
2668	3.9793	-4.7622	0.	127.58
2669	3.7337	-4.5102	0.	126.94
2670	3.9833	-4.2618	0.	126.99
2671	3.9867	-6.2596	0.	130.21
2672	3.9814	-5.7615	0.	130.02
2673	3.7357	-6.0093	0.	130.88
2674	7.0697	-6.8784	0.	123.23
2675	6.8331	-6.7969	0.	123.12
2676	7.0376	-6.4594	0.	122.24
2677	7.3004	-6.6414	0.	123.39
2678	6.8378	-7.0007	0.	123.47
2679	7.3092	-7.0774	0.	123.87
2680	7.0535	-7.3049	0.	123.84
2681	6.321	-6.9397	0.	123.99
2682	6.5605	-6.649	0.	122.81
2683	6.5695	-7.1968	0.	123.81
2684	5.7777	-6.973	0.	125.4
2685	6.0259	-6.7056	0.	124.56
2686	6.036	-7.216	0.	124.8
2687	5.2583	-6.9928	0.	126.8
2688	5.506	-6.7364	0.	126.47
2689	5.5168	-7.2353	0.	126.07
2690	4.7495	-7.0022	0.	127.88
2691	5.0053	-7.2476	0.	127.17
2692	4.246	-7.0054	0.	128.69
2693	4.4994	-7.2532	0.	127.96
2694	-3.9758	0.18846	0.	129.69
2695	-4.2243	-5.0686e-002	0.	129.71
2696	-3.7196	-6.8351e-002	0.	129.51
2697	-5.2631	-1.5081	0.	128.15
2698	-4.9962	-1.7647	0.	129.
2699	-4.9993	-1.2673	0.	128.43
2700	1.4638	-0.77385	0.	119.4
2701	1.7137	-0.52033	0.	120.97
2702	1.4546	-0.26967	0.	119.29
2703	1.1943	-0.52332	0.	118.6
2704	1.7488	-2.024	0.	121.73
2705	1.2511	-2.0351	0.	120.84
2706	1.5019	-2.2759	0.	120.42
2707	1.4926	-1.7768	0.	120.62
2708	6.7651	-6.3115	0.	121.92
2709	7.2586	-6.1948	0.	122.62
2710	6.9959	-6.0096	0.	120.45
2711	5.7542	-6.469	0.	125.63
2712	5.4885	-6.2383	0.	127.36
2713	4.4706	-5.2654	0.	128.77
2714	4.2256	-5.5136	0.	129.52
2715	4.7185	-5.514	0.	129.45
2716	4.4767	-4.2656	0.	126.69
2717	4.7275	-4.0181	0.	126.26
2718	4.2334	-4.0135	0.	126.79
2719	4.4856	-3.7656	0.	127.28
2720	-2.7007	-2.5381	0.	130.82
2721	-2.9476	-2.2932	0.	131.03
2722	4.8823	0.78175	0.	123.13
2723	4.9536	1.209	0.	120.13
2724	5.0719	1.002	0.	121.56
2725	4.926	0.37789	0.	125.82
2726	4.7456	8.6377e-002	0.	127.36
2727	5.1724	0.2016	0.	126.9
2728	4.9734	-2.3272e-003	0.	127.87
2729	-1.7017	-2.5269	0.	126.64
2730	-1.4654	-2.2649	0.	124.41
2731	-1.455	-2.7732	0.	124.86
2732	-1.2117	-2.5273	0.	122.41
2733	-2.1999	-2.5348	0.	129.9
2734	-2.4515	-2.294	0.	131.81
2735	-2.4508	-2.7831	0.	130.05
2736	-1.9576	-2.2862	0.	130.67
2737	4.4711	-4.7657	0.	127.48
2738	4.7179	-4.5171	0.	126.55
2739	4.2238	-5.014	0.	128.17
2740	4.7147	-5.0159	0.	128.37
2741	6.2653	-6.4149	0.	123.37
2742	5.9975	-6.2008	0.	124.68
2743	6.5026	-6.1292	0.	121.29
2744	1.2178	-1.0297	0.	118.97
2745	1.4788	-1.2754	0.	120.02
2746	1.7253	-1.022	0.	120.88
2747	-3.4471	-0.81002	0.	128.93
2748	-3.1857	-0.56489	0.	128.72
2749	-3.4585	-0.3204	0.	129.18
2750	-5.5307	-1.2483	0.	127.15
2751	-5.8245	-0.96882	0.	125.35
2752	-5.5153	-0.74722	0.	126.88
2753	-5.267	-1.0075	0.	127.43
2754	-4.2352	0.94885	0.	129.62
2755	-3.9829	0.68723	0.	129.73
2756	-3.9814	1.1893	0.	129.54
2757	-4.2174	1.9636	0.	129.55
2758	-3.9497	2.2119	0.	129.82
2759	-3.9697	1.6978	0.	129.53
2760	3.9925	-6.7571	0.	129.54
2761	3.7454	-7.0052	0.	129.35
2762	3.9972	-7.2545	0.	128.55
2763	3.7408	-6.5073	0.	130.54
2764	3.9787	-5.2621	0.	128.92
2765	3.7323	-5.5102	0.	129.99
2766	3.7315	-5.0104	0.	128.24
2767	3.7443	-3.5095	0.	128.1
2768	3.9896	-3.7612	0.	127.49
2769	4.2417	-3.5133	0.	127.98
2770	2.2481	-2.0168	0.	123.87
2771	2.4999	-2.263	0.	125.55
2772	2.4945	-1.7642	0.	124.88
2773	2.0005	-2.2684	0.	122.8
2774	-1.7241	-4.0155	0.	125.88
2775	-1.9655	-3.7673	0.	126.6
2776	-1.9772	-4.2625	0.	126.29
2777	2.4829	-0.76444	0.	125.54
2778	2.2325	-1.0169	0.	123.53
2779	2.4887	-1.265	0.	124.8
2780	-1.907	2.3805	0.	127.7
2781	-1.5993	2.5906	0.	127.58
2782	-1.901	2.8524	0.	129.08
2783	-1.6898	2.1197	0.	126.17
2784	-1.9447	1.9152	0.	126.76
2785	-3.4922	-5.2465	0.	130.05
2786	-3.7394	-4.9949	0.	130.28
2787	-3.2385	-5.0006	0.	128.8
2788	4.2513	-2.5146	0.	129.57
2789	4.0003	-2.2629	0.	128.94
2790	4.2439	-1.0251	0.	128.23
2791	3.9959	-0.76583	0.	128.33
2792	-4.984	-2.76	0.	129.87
2793	-4.9826	-3.255	0.	129.6
2794	-5.2358	-3.0073	0.	130.16
2795	-4.7283	-3.0105	0.	129.73
2796	-5.2401	-2.5106	0.	130.35
2797	-4.9893	-2.2624	0.	129.66
2798	-5.2026	-6.8888	0.	133.21
2799	-5.4316	-6.6287	0.	132.63
2800	-5.4664	-7.1286	0.	136.41
2801	-5.6309	-6.8151	0.	129.68
2802	-4.9766	-5.6982	0.	133.28
2803	-4.7305	-5.9517	0.	134.13
2804	-5.2141	-5.9293	0.	133.21
2805	-4.9678	-6.1817	0.	134.23
2806	-4.9808	-5.2125	0.	131.73
2807	-5.2247	-5.449	0.	131.88
2808	-5.2325	-4.9664	0.	130.31
2809	-2.993	5.7492	0.	126.58
2810	-2.7359	5.4917	0.	126.53
2811	-3.2506	5.5065	0.	127.05
2812	-3.007	5.2582	0.	127.08
2813	-2.9901	6.2441	0.	126.77
2814	-2.9928	6.7437	0.	127.44
2815	-2.7384	6.4875	0.	127.58
2816	-3.2434	6.4963	0.	126.88
2817	-2.7308	5.9845	0.	126.58
2818	-3.2428	5.9989	0.	126.62
2819	2.2509	7.4774	0.	128.78
2820	1.9977	7.2301	0.	129.76
2821	2.0062	7.7363	0.	128.22
2822	1.7593	7.4934	0.	128.48
2823	1.2617	3.6284	0.	123.52
2824	1.4731	3.4457	0.	124.09
2825	1.0536	3.4062	0.	121.23
2826	1.3441	3.2254	0.	122.11
2827	1.0458	3.8124	0.	123.28
2828	-2.4916	3.7998	0.	130.18
2829	-2.7573	4.0351	0.	129.78
2830	-2.5197	4.2773	0.	129.34
2831	-2.258	4.0409	0.	130.23
2832	-2.2208	3.5664	0.	130.54
2833	5.1172	0.5938	0.	124.72
2834	1.2208	4.6666	0.	127.79
2835	0.83981	4.5819	0.	123.09
2836	0.93305	4.3358	0.	124.4
2837	2.324	3.9506	0.	129.44
2838	2.0885	3.6983	0.	128.61
2839	2.7892	3.9692	0.	131.83
2840	2.5363	4.2084	0.	129.87
2841	2.5482	3.7149	0.	131.09
2842	3.4908	7.2291	0.	126.65
2843	3.7395	6.9811	0.	125.97
2844	3.4854	6.7261	0.	127.57
2845	3.2374	6.973	0.	127.84
2846	-5.7879	-1.4996	0.	126.89
2847	-5.5169	-1.7537	0.	128.64
2848	-4.7475	4.0002	0.	127.89
2849	-4.502	4.2534	0.	128.04
2850	-4.9931	3.747	0.	128.
2851	-5.2467	3.9985	0.	126.87
2852	-4.9989	4.2499	0.	126.52
2853	-2.9461	-1.8013	0.	130.83
2854	-2.6984	-2.0492	0.	132.01
2855	-2.2642	0.33898	0.	132.16
2856	-2.5068	0.14236	0.	131.17
2857	0.74968	-6.0003	0.	109.04
2858	1.2488	-6.0004	0.	108.93
2859	0.99937	-6.2503	0.	107.23
2860	0.99944	-5.7502	0.	108.47
2861	1.1862	-1.6124e-002	0.	118.74
2862	0.62763	-5.5653e-004	0.	120.8
2863	0.94347	0.23902	0.	118.69
2864	0.92598	-0.26977	0.	118.05
2865	-1.6031	4.7432	0.	129.5
2866	-1.7781	5.1871	0.	127.8
2867	-1.4227	4.9955	0.	130.65
2868	-1.8571	4.9595	0.	128.5
2869	-0.22875	6.8201	0.	115.1
2870	0.25787	6.7023	0.	117.7
2871	-5.2826e-003	6.5208	0.	114.39
2872	3.0258	3.7279	0.	133.69
2873	3.2691	3.9828	0.	136.33
2874	3.0185	4.2251	0.	132.37
2875	-8.0979	-7.0254	0.	124.2
2876	-7.9425	-7.2917	0.	126.02
2877	-8.2734	-7.4472	0.	124.5
2878	-8.3953	-7.1416	0.	124.66
2879	4.7552	-7.4985	0.	127.25
2880	5.0082	-7.7451	0.	126.82
2881	5.2638	-7.4901	0.	126.44
2882	4.5031	-7.7502	0.	127.45
2883	4.2506	-7.5024	0.	127.83
2884	7.5214	-6.3767	0.	123.77
2885	7.4944	-5.9103	0.	123.86
2886	7.7554	-6.115	0.	124.92
2887	7.5399	-6.8403	0.	124.03
2888	7.7777	-6.5867	0.	124.62
2889	7.7842	-7.0597	0.	124.57
2890	7.5359	-7.3079	0.	124.27
2891	-1.9972	0.99454	0.	128.18
2892	-1.7411	1.1954	0.	125.44
2893	-2.2358	1.249	0.	128.04
2894	-1.9751	1.4524	0.	126.77
2895	-2.0144	0.54121	0.	131.09
2896	-1.7612	0.73771	0.	127.21
2897	-1.7856	0.28907	0.	130.7
2898	-2.037	9.5877e-002	0.	132.99
2899	-6.0427	-0.69861	0.	124.44
2900	-6.0816	-1.2201	0.	125.08
2901	-6.3833	-1.0067	0.	122.85
2902	-6.2626	-0.70912	0.	123.8
2903	1.8808	3.4594	0.	127.23
2904	1.552	3.2414	0.	123.7
2905	4.9626	-5.2645	0.	129.05
2906	5.2127	-5.5067	0.	129.89
2907	4.9718	-5.7598	0.	129.33
2908	4.9687	-4.2696	0.	126.1
2909	4.9817	-3.771	0.	126.97
2910	5.2201	-4.0241	0.	124.75
2911	0.75569	-2.0508	0.	122.45
2912	0.99498	-1.7908	0.	120.67
2913	-2.9401	-1.3059	0.	129.59
2914	-2.7069	-1.5571	0.	131.45
2915	-3.1981	-1.5524	0.	130.04
2916	-4.4705	2.7347	0.	130.15
2917	-4.7279	2.9897	0.	130.11
2918	-4.2166	2.9875	0.	130.15
2919	-5.2412	3.4959	0.	127.86
2920	-4.986	3.2432	0.	129.38
2921	3.4859	-4.7584	0.	127.6
2922	3.2395	-4.5069	0.	126.55
2923	3.4889	-4.2583	0.	126.98
2924	1.7537	-2.5203	0.	121.49
2925	1.5054	-2.7705	0.	119.15
2926	2.7517	-2.5109	0.	126.94
2927	3.0012	-2.7588	0.	128.4
2928	2.7336	-0.51254	0.	127.08
2929	2.9861	-0.26091	0.	128.9
2930	3.7242	0.99504	0.	126.69
2931	3.978	1.2447	0.	125.11
2932	3.9706	0.74433	0.	126.13
2933	-4.2399	-5.9707	0.	134.08
2934	-4.4839	-6.2065	0.	134.33
2935	-4.7343	-6.9263	0.	133.57
2936	-4.9906	-7.1459	0.	133.49
2937	-4.9681	-6.6657	0.	134.38
2938	4.7609	-9.9332e-002	0.	128.17
2939	4.514	-0.27415	0.	128.11
2940	-5.4947	3.7474	0.	126.73
2941	-5.4983	4.249	0.	125.7
2942	-5.747	3.9985	0.	126.3
2943	-2.9945	7.244	0.	128.11
2944	-2.7431	6.9909	0.	128.3
2945	-3.2451	6.9958	0.	127.71
2946	-3.2456	7.4958	0.	128.51
2947	-2.9957	7.7451	0.	128.37
2948	-2.7437	7.4924	0.	128.48
2949	-0.15378	7.5047	0.	119.54
2950	-0.43079	7.1545	0.	117.15
2951	-0.42422	7.6996	0.	120.35
2952	-0.66909	7.44	0.	120.73
2953	0.31662	7.5784	0.	121.31
2954	6.069e-002	7.8078	0.	120.97
2955	0.78978	7.5532	0.	124.04
2956	0.54511	7.3402	0.	122.04
2957	0.54229	7.8054	0.	122.85
2958	1.0232	7.2938	0.	126.2
2959	1.0269	7.7798	0.	125.37
2960	1.2717	7.5206	0.	126.82
2961	2.7458	7.4742	0.	128.15
2962	2.4998	7.7288	0.	128.04
2963	2.4922	7.2198	0.	129.23
2964	3.2436	7.4781	0.	126.97
2965	2.9962	7.7288	0.	127.24
2966	2.9902	7.222	0.	128.17
2967	3.7436	7.4843	0.	125.54
2968	3.4949	7.7336	0.	126.09
2969	4.2447	7.4903	0.	124.3
2970	3.9923	7.2363	0.	124.86
2971	3.9951	7.7386	0.	124.91
2972	4.7461	7.4947	0.	123.63
2973	4.4961	7.7434	0.	124.22
2974	4.4944	7.2422	0.	123.56
2975	5.1548	1.2199	0.	120.
2976	5.0278	1.6938	0.	117.83
2977	5.3001	1.4523	0.	118.39
2978	4.7658	1.4549	0.	119.6
2979	-2.4738	5.7269	0.	126.54
2980	-2.1924	5.4444	0.	126.5
2981	-2.4997	5.2379	0.	126.85
2982	-2.4886	6.7347	0.	128.44
2983	-2.2406	6.9852	0.	129.54
2984	-2.4923	7.2393	0.	128.67
2985	2.7232	6.4586	0.	130.04
2986	2.4618	6.2018	0.	130.02
2987	2.2196	6.4596	0.	131.
2988	2.4786	6.7102	0.	130.1
2989	0.77852	7.0807	0.	124.21
2990	0.52087	6.8801	0.	121.06
2991	1.98	6.7218	0.	131.11
2992	2.239	6.9724	0.	130.21
2993	1.7462	6.9925	0.	130.26
2994	3.2293	6.469	0.	128.92
2995	2.9812	6.7159	0.	129.19
2996	2.9722	6.2127	0.	130.21
2997	3.9895	6.7354	0.	125.09
2998	4.242	6.9882	0.	124.13
2999	2.4978	4.702	0.	128.96
3000	2.7657	4.4643	0.	130.41
3001	7.2317	-5.725	0.	121.68
3002	6.7334	-5.8272	0.	119.77
3003	6.9693	-5.5372	0.	117.09
3004	-1.8031	4.5135	0.	129.62
3005	-2.2882	4.511	0.	129.02
3006	-2.0571	4.7298	0.	128.61
3007	-2.0265	4.2746	0.	129.91
3008	5.3067	0.81401	0.	123.16
3009	5.4872	1.0339	0.	122.28
3010	5.3636	0.41751	0.	125.81
3011	5.5674	0.63143	0.	125.07
3012	5.4053	1.7632e-002	0.	127.56
3013	5.607	0.23534	0.	126.28
3014	-1.715	3.5837	0.	130.68
3015	-1.9411	3.3313	0.	130.23
3016	-1.9873	3.8075	0.	130.6
3017	0.83772	3.5902	0.	121.03
3018	0.63169	3.3942	0.	118.82
3019	0.85572	3.1683	0.	118.83
3020	0.6275	3.7981	0.	120.73
3021	0.83389	3.9838	0.	122.56
3022	7.4689	-5.4336	0.	124.92
3023	7.7334	-5.6395	0.	125.98
3024	2.7303	4.959	0.	129.86
3025	2.2151	4.933	0.	127.9
3026	2.4628	5.1987	0.	128.59
3027	3.7355	6.4803	0.	126.7
3028	4.2404	6.4888	0.	123.92
3029	3.9877	6.236	0.	125.49
3030	3.4809	6.2258	0.	129.2
3031	1.0027	6.8097	0.	127.61
3032	1.2593	7.029	0.	128.37
3033	2.196	5.9484	0.	129.45
3034	2.4521	5.6989	0.	129.13
3035	2.7108	5.956	0.	130.19
3036	-2.4791	6.2278	0.	127.38
3037	-2.2348	6.4776	0.	129.26
3038	-2.2173	5.9642	0.	127.47
3039	-1.4764	7.7278	0.	126.25
3040	-1.4793	7.2255	0.	128.04
3041	-1.2117	7.4666	0.	124.61
3042	-1.7307	7.4805	0.	127.58
3043	5.2647	1.9539	0.	119.59
3044	5.0214	2.2203	0.	117.6
3045	4.7651	1.9703	0.	118.35
3046	4.4928	6.2432	0.	121.58
3047	4.7442	6.4945	0.	122.6
3048	4.4929	6.7417	0.	122.96
3049	-5.4764	-5.203	0.	130.46
3050	-5.7328	-4.9637	0.	129.15
3051	-5.4848	-4.7207	0.	129.35
3052	-5.6624	-6.3721	0.	130.63
3053	-5.4433	-6.1533	0.	132.79
3054	-5.1971	-6.4057	0.	133.8
3055	-5.7197	-5.4427	0.	129.95
3056	-5.4622	-5.6802	0.	131.81
3057	-5.7463	-2.5129	0.	131.75
3058	-5.4919	-2.7579	0.	130.64
3059	-5.5008	-2.2584	0.	130.17
3060	-3.4962	7.2476	0.	128.1
3061	-3.7468	6.9988	0.	128.02
3062	-3.4957	6.7484	0.	127.14
3063	-3.497	7.7475	0.	128.72
3064	-3.7469	7.4981	0.	129.25
3065	-3.5005	5.7561	0.	127.09
3066	-3.7544	5.5086	0.	128.18
3067	-3.508	5.2615	0.	127.81
3068	-3.7488	6.0038	0.	127.28
3069	-3.4962	6.251	0.	126.72
3070	-4.5059	4.7556	0.	127.78
3071	-4.2574	4.5082	0.	128.19
3072	-4.7534	4.5031	0.	126.68
3073	-6.2459	3.4989	0.	123.04
3074	-6.4967	3.2496	0.	119.91
3075	-6.4974	3.7496	0.	123.49
3076	-6.7474	3.4999	0.	120.77
3077	4.7422	-1.0453	0.	128.27
3078	4.4939	-0.78556	0.	128.38
3079	4.4948	-1.2801	0.	128.21
3080	4.7533	-2.5205	0.	130.66
3081	4.5012	-2.269	0.	129.5
3082	4.5001	-2.7668	0.	129.77
3083	-4.5103	-7.1916	0.	131.45
3084	-4.2476	-6.9565	0.	132.66
3085	-4.4874	-6.6971	0.	133.61
3086	-3.496	-5.7431	0.	131.28
3087	-3.2447	-5.4972	0.	129.1
3088	-3.7438	-5.4898	0.	131.4
3089	-1.382	2.3298	0.	126.04
3090	-1.0441	2.6574	0.	126.12
3091	-1.3589	2.836	0.	127.87
3092	-1.1392	2.3311	0.	125.75
3093	-1.2098	2.0933	0.	124.97
3094	-1.4628	1.8631	0.	124.62
3095	-1.5324	0.48557	0.	126.85
3096	-1.2992	0.19499	0.	120.45
3097	-1.5331	2.3059e-002	0.	135.12
3098	-1.5051	0.93855	0.	124.46
3099	-1.249	1.1443	0.	122.74
3100	-1.4837	1.4017	0.	123.87
3101	-1.2719	0.67587	0.	122.72
3102	3.4858	1.2441	0.	128.21
3103	3.2339	0.99357	0.	129.23
3104	3.481	0.74277	0.	128.31
3105	2.2255	-0.51605	0.	124.44
3106	1.9706	-0.26598	0.	123.46
3107	1.9752	-0.76846	0.	122.43
3108	2.479	-0.26271	0.	127.47
3109	-1.2294	-4.0168	0.	125.46
3110	-1.4809	-4.2643	0.	125.59
3111	-1.471	-3.7688	0.	125.61
3112	2.2524	-2.5147	0.	124.49
3113	2.5021	-2.7611	0.	126.89
3114	2.0033	-2.7649	0.	123.1
3115	3.247	-3.5075	0.	128.64
3116	3.4974	-3.2583	0.	128.52
3117	3.4933	-3.7581	0.	127.63
3118	-1.746	-5.5046	0.	128.58
3119	-1.9972	-5.7531	0.	127.28
3120	-1.9933	-5.2555	0.	127.08
3121	-2.2448	-5.5036	0.	126.77
3122	-1.4971	-5.7543	0.	131.1
3123	-1.2462	-5.5053	0.	130.73
3124	-1.4939	-5.2568	0.	128.6
3125	3.4851	-5.2585	0.	129.31
3126	3.4866	-5.7581	0.	130.84
3127	3.2377	-5.507	0.	130.77
3128	3.2377	-5.0071	0.	128.48
3129	3.243	-6.5052	0.	131.51
3130	3.4899	-6.257	0.	131.19
3131	3.4937	-6.7554	0.	130.35
3132	-5.7438	3.4974	0.	125.73
3133	-5.4904	3.2455	0.	127.71
3134	-5.9961	3.7484	0.	125.3
3135	-5.9942	3.2479	0.	123.64
3136	-4.7242	2.4845	0.	130.44
3137	-4.4705	2.2271	0.	129.81
3138	-4.2028	2.4753	0.	130.08
3139	-5.7335	-0.47701	0.	125.97
3140	-5.9899	-0.21986	0.	124.55
3141	-6.1912	-0.46638	0.	124.13
3142	-5.4953	-0.24978	0.	128.06
3143	-5.2417	-0.50982	0.	127.99
3144	-2.2797	-0.10074	0.	132.06
3145	-1.7845	-0.17014	0.	137.3
3146	-2.2	-0.32959	0.	131.55
3147	-2.7391	-8.3511e-002	0.	130.38
3148	-2.4275	-0.30706	0.	130.43
3149	-2.684	-1.0599	0.	128.48
3150	-3.1889	-1.0567	0.	128.86
3151	-2.9276	-0.81154	0.	128.65
3152	0.71325	-1.0446	0.	119.34
3153	0.9755	-1.2867	0.	119.39
3154	0.94841	-0.77912	0.	118.16
3155	1.6375e-002	-2.3135	0.	123.84
3156	1.9025e-002	-2.7971	0.	121.71
3157	0.26669	-2.5518	0.	121.35
3158	-0.22898	-2.5514	0.	121.46
3159	6.2348	-5.9151	0.	122.59
3160	5.9713	-5.7093	0.	126.06
3161	5.7319	-5.9701	0.	126.42
3162	6.4724	-5.6414	0.	118.85
3163	4.9615	-4.7673	0.	127.44
3164	5.2063	-4.5203	0.	126.59
3165	5.2046	-5.0136	0.	129.44
3166	-4.7666	-7.4113	0.	131.41
3167	-5.0845	-7.6228	0.	129.04
3168	-5.2544	-7.3858	0.	136.64
3169	-4.5536	-7.6892	0.	129.88
3170	-4.2743	-7.4544	0.	129.97
3171	5.6325	1.2664	0.	120.65
3172	5.7478	0.85136	0.	124.17
3173	5.9392	1.0563	0.	124.86
3174	-1.5314	4.2935	0.	130.09
3175	-1.3118	4.5416	0.	128.41
3176	2.3128	3.4626	0.	130.27
3177	2.0379	3.2195	0.	128.57
3178	2.7849	3.4735	0.	132.95
3179	2.5285	3.2234	0.	132.91
3180	3.0184	3.2311	0.	135.24
3181	3.2682	3.4842	0.	136.47
3182	4.2401	5.9903	0.	123.14
3183	4.4944	5.7454	0.	118.44
3184	4.7448	5.9959	0.	119.8
3185	1.3793	5.1206	0.	126.79
3186	1.1839	4.9335	0.	133.02
3187	1.6827	4.8743	0.	128.58
3188	-0.49022	6.6379	0.	113.44
3189	-0.7209	6.9179	0.	118.9
3190	-6.7479	-0.82884	0.	123.07
3191	-6.9635	-0.32033	0.	125.49
3192	-7.0564	-0.67307	0.	124.28
3193	-6.6272	-0.53127	0.	124.03
3194	-5.9937	-3.2557	0.	131.32
3195	-6.2458	-3.5023	0.	132.09
3196	-5.9938	-3.7467	0.	130.15
3197	-5.7413	-3.5005	0.	130.06
3198	-7.7496	4.0003	0.	116.34
3199	-7.249	4.0003	0.	119.31
3200	-7.4994	4.2501	0.	115.85
3201	-7.4991	3.7506	0.	117.88
3202	3.2424	1.4942	0.	129.3
3203	3.4957	1.7434	0.	129.99
3204	3.7396	1.4937	0.	126.63
3205	1.7115	-1.5319e-002	0.	121.8
3206	1.4639	0.23675	0.	118.89
3207	0.51153	-3.2765	0.	115.89
3208	0.76176	-3.0299	0.	116.97
3209	0.26632	-3.0368	0.	119.53
3210	0.51398	-2.7915	0.	119.19
3211	2.9989	-7.7515	0.	128.95
3212	2.9975	-7.2524	0.	129.68
3213	2.7487	-7.5015	0.	130.39
3214	3.2483	-7.5024	0.	128.69
3215	8.051	0.24203	0.	130.69
3216	7.8326	0.45264	0.	129.65
3217	8.2763	0.50705	0.	131.1
3218	7.9446	0.77384	0.	134.62
3219	4.9952	-3.2718	0.	129.35
3220	5.239	-3.5256	0.	128.16
3221	4.7398	-3.5185	0.	128.
3222	-6.0314	-1.7573	0.	128.2
3223	-6.3029	-1.5288	0.	125.66
3224	-5.5008	4.7502	0.	123.28
3225	-5.2505	4.5004	0.	125.35
3226	-5.7496	4.4995	0.	126.03
3227	-7.9997	3.7506	0.	116.99
3228	-7.9993	3.251	0.	119.76
3229	-8.2496	3.5003	0.	119.3
3230	-7.7492	3.5008	0.	118.49
3231	-7.9998	4.2502	0.	115.19
3232	-8.2498	4.0001	0.	116.85
3233	7.7623	-8.0214	0.	124.79
3234	7.5203	-7.7825	0.	124.52
3235	7.2635	-8.0167	0.	124.59
3236	7.5098	-8.2669	0.	124.75
3237	6.2646	-7.9882	0.	125.02
3238	6.7641	-8.0015	0.	124.65
3239	6.526	-7.7327	0.	124.5
3240	6.5101	-8.244	0.	124.93
3241	5.7637	-7.9871	0.	125.65
3242	6.0232	-7.7285	0.	125.13
3243	6.0108	-8.2388	0.	125.44
3244	5.2601	-7.9918	0.	126.37
3245	5.5157	-7.7368	0.	125.99
3246	5.5098	-8.2408	0.	126.12
3247	4.7561	-7.9968	0.	127.01
3248	5.0069	-8.2451	0.	126.81
3249	4.5039	-8.2486	0.	127.4
3250	4.2527	-8.0001	0.	127.47
3251	3.2496	-8.0014	0.	128.48
3252	3.4989	-7.7523	0.	128.22
3253	3.5002	-8.2512	0.	128.2
3254	3.7505	-8.0014	0.	127.81
3255	2.9997	-8.2509	0.	128.92
3256	2.7495	-8.0009	0.	131.09
3257	8.0118	-6.3249	0.	125.77
3258	8.2528	-6.0657	0.	126.73
3259	7.9944	-5.8441	0.	127.04
3260	8.0221	-6.8061	0.	125.17
3261	8.2651	-6.5513	0.	125.82
3262	8.0211	-7.2888	0.	124.95
3263	8.2692	-7.0378	0.	125.37
3264	8.0147	-7.7759	0.	124.92
3265	8.2643	-7.5248	0.	125.17
3266	7.7728	-7.537	0.	124.65
3267	8.0088	-8.2668	0.	124.98
3268	8.2597	-8.0171	0.	125.12
3269	5.2476	7.4973	0.	125.44
3270	4.9964	7.2459	0.	123.58
3271	4.9973	7.7463	0.	124.51
3272	-7.75	8.	0.	118.92
3273	-8.	7.75	0.	116.64
3274	-8.25	8.	0.	118.13
3275	-8.	8.25	0.	118.76
3276	-3.2471	7.9968	0.	128.59
3277	-3.748	7.9983	0.	129.15
3278	-3.4978	8.2478	0.	128.55
3279	-2.745	7.9942	0.	128.21
3280	-2.9964	8.2462	0.	128.16
3281	-2.24	7.9897	0.	127.72
3282	-2.4929	7.7415	0.	128.32
3283	-2.4931	8.2429	0.	127.79
3284	-1.7319	7.983	0.	126.6
3285	-1.9863	7.7357	0.	127.93
3286	-1.9877	8.238	0.	127.11
3287	-1.2216	7.975	0.	124.66
3288	-1.4811	8.2322	0.	125.76
3289	-0.71203	7.9734	0.	122.62
3290	-0.9569	7.7138	0.	123.02
3291	-0.97321	8.227	0.	123.93
3292	-0.20975	8.0026	0.	121.75
3293	-0.46983	8.234	0.	122.56
3294	0.28636	8.0347	0.	122.5
3295	2.887e-002	8.2709	0.	122.53
3296	0.77942	8.0319	0.	124.18
3297	0.52658	8.2806	0.	123.6
3298	1.2701	8.0137	0.	125.95
3299	1.0207	8.2694	0.	125.1
3300	1.7617	7.9974	0.	127.13
3301	1.5149	7.7545	0.	127.39
3302	1.5137	8.2536	0.	126.39
3303	2.2551	7.9877	0.	127.48
3304	2.0076	8.2435	0.	127.03
3305	2.7502	7.9834	0.	127.13
3306	2.5028	8.2374	0.	127.01
3307	3.2474	7.9842	0.	126.35
3308	2.9994	8.2359	0.	126.51
3309	3.7464	7.9878	0.	125.46
3310	3.4975	8.2379	0.	125.79
3311	4.2465	7.9916	0.	124.84
3312	3.9971	8.2411	0.	125.19
3313	4.4973	8.2441	0.	125.11
3314	4.7472	7.995	0.	125.1
3315	-6.6046	-1.3154	0.	123.41
3316	-6.8942	-1.1345	0.	124.8
3317	-0.5131	2.8081	0.	123.08
3318	-0.67832	2.5494	0.	126.17
3319	-0.83679	2.9686	0.	125.21
3320	-1.4347	3.3502	0.	129.82
3321	-1.6607	3.0978	0.	129.36
3322	-1.1516	3.1473	0.	126.95
3323	0.39017	4.0155	0.	119.04
3324	0.50333	4.4473	0.	119.55
3325	0.1687	4.041	0.	116.08
3326	0.59656	4.2012	0.	120.89
3327	2.5367e-002	2.9242	0.	119.02
3328	0.1552	3.1942	0.	116.5
3329	0.35196	2.7294	0.	115.88
3330	0.36078	3.1925	0.	117.45
3331	0.58481	2.9666	0.	117.43
3332	-7.9658	-6.6144	0.	122.51
3333	-8.2182	-6.6815	0.	123.46
3334	-7.7648	-6.8612	0.	122.26
3335	0.74504	6.609	0.	124.47
3336	0.48252	6.418	0.	117.75
3337	1.9539	6.2062	0.	130.41
3338	1.7223	6.4824	0.	132.4
3339	-1.9359	5.6817	0.	127.42
3340	-1.64	5.4495	0.	131.21
3341	-1.9893	5.1816	0.	127.26
3342	-1.736	6.9785	0.	129.83
3343	-1.9868	6.7281	0.	130.34
3344	-1.9875	7.2335	0.	129.4
3345	-6.2707	8.5507e-003	0.	123.02
3346	-6.8083	-2.7027e-002	0.	124.12
3347	-6.5627	0.24972	0.	117.94
3348	-6.472	-0.23797	0.	122.62
3349	7.4282	2.5607	0.	120.64
3350	7.0373	2.5637	0.	116.65
3351	7.1307	2.7693	0.	118.51
3352	7.2176	2.3457	0.	113.95
3353	7.7968	3.03	0.	120.72
3354	8.0308	3.2718	0.	120.74
3355	8.0562	2.7886	0.	125.25
3356	8.2867	3.0252	0.	123.2
3357	5.537	1.7125	0.	120.11
3358	5.8043	1.4678	0.	125.84
3359	7.75	6.	0.	123.49
3360	8.25	6.	0.	122.96
3361	8.	5.75	0.	121.96
3362	8.	6.25	0.	123.89
3363	-5.9881	-4.7223	0.	128.56
3364	-6.2442	-4.4842	0.	130.28
3365	-5.993	-4.236	0.	129.2
3366	-5.74	-4.4793	0.	128.78
3367	-6.0059	-2.2659	0.	131.52
3368	-5.7604	-2.0114	0.	129.94
3369	-6.2637	-2.0311	0.	130.67
3370	-3.9979	7.7489	0.	129.68
3371	-3.9986	8.249	0.	128.93
3372	-4.2486	7.9992	0.	129.25
3373	-3.9997	6.2533	0.	127.24
3374	-3.9982	6.751	0.	127.56
3375	-4.2493	6.5019	0.	128.52
3376	-3.7471	6.5005	0.	126.69
3377	-4.258	5.0084	0.	128.4
3378	-4.0073	5.2594	0.	128.88
3379	-4.0095	4.761	0.	128.81
3380	-3.7609	5.0124	0.	128.52
3381	-7.25	8.	0.	123.69
3382	-7.5	7.75	0.	118.67
3383	-7.5	8.25	0.	121.29
3384	-6.2475	3.9991	0.	125.72
3385	-5.9983	4.249	0.	126.63
3386	5.	-1.7815	0.	128.52
3387	4.9946	-1.2966	0.	127.86
3388	5.2487	-1.5326	0.	128.17
3389	4.7472	-1.5314	0.	127.81
3390	5.2063	-0.1863	0.	128.52
3391	4.9864	-0.39346	0.	128.91
3392	5.4577	-4.2748	0.	125.19
3393	5.4773	-3.7787	0.	125.92
3394	5.71	-4.0352	0.	125.19
3395	5.0031	-2.7729	0.	131.01
3396	5.255	-3.026	0.	131.05
3397	4.7499	-3.0192	0.	130.13
3398	8.0356	-0.26254	0.	129.41
3399	7.8119	-2.299e-002	0.	127.98
3400	8.2843	-6.3143e-003	0.	130.49
3401	8.0033	-1.7647	0.	126.34
3402	8.0078	-1.2604	0.	125.98
3403	7.7541	-1.5093	0.	125.64
3404	8.2544	-1.5121	0.	126.3
3405	-3.7452	-5.9853	0.	133.
3406	-3.993	-6.226	0.	134.17
3407	-3.9929	-5.732	0.	133.12
3408	-2.2485	-6.0016	0.	125.5
3409	-2.7487	-5.9996	0.	125.42
3410	-2.4993	-6.2506	0.	120.29
3411	-2.4961	-5.7521	0.	125.01
3412	-0.99364	1.3567	0.	121.79
3413	-0.97544	1.8443	0.	123.28
3414	-0.73831	1.5617	0.	123.89
3415	-1.2284	1.6141	0.	122.93
3416	0.37262	-0.26331	0.	121.19
3417	5.1464e-002	-6.4286e-002	0.	130.2
3418	0.16238	0.23933	0.	126.44
3419	0.40955	0.26526	0.	121.26
3420	-2.4592	-1.8049	0.	132.6
3421	-2.2091	-2.0454	0.	132.54
3422	1.709	3.0016	0.	125.03
3423	1.4395	2.7626	0.	120.46
3424	1.1462	2.9875	0.	119.65
3425	2.9905	1.2436	0.	130.32
3426	2.9969	1.7434	0.	132.08
3427	2.7452	1.4949	0.	132.07
3428	2.7315	-1.1081e-002	0.	129.27
3429	2.9841	0.24029	0.	130.36
3430	3.2371	-1.0164e-002	0.	129.32
3431	-0.98604	-4.2645	0.	125.23
3432	-0.74194	-4.5102	0.	126.25
3433	-1.2375	-4.512	0.	125.37
3434	-0.99174	-4.76	0.	126.59
3435	-0.71984	-3.0322	0.	124.
3436	-1.2101	-3.0267	0.	124.78
3437	-0.96867	-3.2764	0.	125.05
3438	-0.96677	-2.7807	0.	122.36
3439	1.7551	-3.0151	0.	120.75
3440	1.5052	-3.2635	0.	116.49
3441	1.2577	-3.0208	0.	117.24
3442	2.9996	-3.2576	0.	129.
3443	2.7516	-3.009	0.	128.35
3444	3.25	-3.0084	0.	128.88
3445	0.25026	-6.0007	0.	115.95
3446	0.49991	-6.2503	0.	109.73
3447	0.50006	-5.7503	0.	110.69
3448	2.9912	-4.7556	0.	127.42
3449	2.9935	-4.2557	0.	126.86
3450	2.7442	-4.5043	0.	127.36
3451	-1.	-7.2506	0.	131.01
3452	-0.7501	-7.5004	0.	131.08
3453	-1.2501	-7.5004	0.	131.44
3454	-1.0003	-7.7503	0.	130.61
3455	-0.74873	-6.0026	0.	132.5
3456	-0.99894	-6.2525	0.	134.33
3457	-1.2484	-6.0032	0.	133.23
3458	-0.99744	-5.7542	0.	132.87
3459	1.7474	-6.0009	0.	115.54
3460	1.4985	-6.2505	0.	109.54
3461	1.4985	-5.7504	0.	110.52
3462	2.9928	-6.2545	0.	132.13
3463	2.7429	-6.0039	0.	131.03
3464	3.2397	-6.0063	0.	131.82
3465	2.9908	-5.7553	0.	131.74
3466	-7.9716	1.2592	0.	120.57
3467	-7.9882	1.7525	0.	121.35
3468	-7.7384	1.5076	0.	122.62
3469	-8.2275	1.4902	0.	120.87
3470	-7.7489	3.0016	0.	121.
3471	-7.9982	2.7512	0.	121.95
3472	-8.2489	3.	0.	121.51
3473	-6.245	2.9986	0.	120.47
3474	-6.4967	2.7497	0.	114.71
3475	-6.7471	3.0002	0.	118.42
3476	-4.9815	2.7396	0.	130.4
3477	-5.2353	2.9928	0.	129.22
3478	-4.9887	1.2287	0.	129.37
3479	-5.2403	1.4851	0.	129.79
3480	-4.7338	1.4717	0.	128.87
3481	-4.9845	1.7312	0.	129.19
3482	-5.24	-1.1849e-002	0.	129.54
3483	-4.9871	0.22746	0.	130.56
3484	-4.7314	-3.1717e-002	0.	129.99
3485	-4.9864	-0.27189	0.	129.47
3486	-1.7212	-2.0242	0.	128.44
3487	-1.5102	-1.7281	0.	132.12
3488	-1.2315	-2.0203	0.	119.19
3489	-2.4507	-1.3111	0.	130.32
3490	-2.2356	-1.568	0.	135.01
3491	0.43581	-0.79802	0.	119.61
3492	0.15266	-0.57728	0.	123.87
3493	0.67097	-0.53252	0.	118.47
3494	0.26073	-2.0652	0.	124.77
3495	0.51105	-2.3035	0.	122.35
3496	0.5006	-1.8102	0.	123.72
3497	6.7083	-5.3513	0.	115.95
3498	7.2066	-5.2457	0.	120.34
3499	6.9388	-5.0652	0.	112.87
3500	5.4547	-5.2558	0.	130.26
3501	5.7093	-5.4843	0.	128.74
3502	5.4699	-5.7451	0.	129.12
3503	5.4494	-4.7666	0.	128.57
3504	5.69	-4.5249	0.	127.11
3505	5.6934	-5.0047	0.	133.93
3506	6.209	-5.4357	0.	122.34
3507	5.948	-5.2332	0.	132.44
3508	6.4455	-5.18	0.	114.31
3509	-0.2362	-2.0683	0.	122.26
3510	-0.48987	-1.8334	0.	118.32
3511	-0.73574	-2.0495	0.	116.29
3512	-0.48155	-2.3062	0.	119.87
3513	7.9523e-003	-1.8295	0.	130.89
3514	0.22052	-1.0795	0.	120.18
3515	0.47763	-1.3081	0.	121.91
3516	-2.2044	-1.0905	0.	131.02
3517	-2.3918	-0.79908	0.	129.06
3518	-1.9855	-1.8085	0.	134.91
3519	-5.7517	7.3717e-003	0.	126.65
3520	-6.018	0.25904	0.	124.12
3521	-5.4981	0.24568	0.	130.86
3522	-4.9896	0.72745	0.	130.57
3523	-5.2452	0.48499	0.	131.87
3524	-4.7364	0.46792	0.	130.55
3525	-5.2433	0.98408	0.	130.94
3526	-4.7378	0.96904	0.	129.87
3527	-5.2342	2.4903	0.	131.29
3528	-4.9811	2.2353	0.	130.27
3529	-5.7408	2.996	0.	125.63
3530	-5.4879	2.7435	0.	130.12
3531	-5.9934	2.7476	0.	123.12
3532	-7.8594	0.77608	0.	120.48
3533	-8.1917	0.9795	0.	120.71
3534	-7.7354	1.023	0.	122.12
3535	-7.6353	0.78444	0.	121.9
3536	-7.4665	0.51996	0.	123.45
3537	-7.6801	0.30819	0.	120.24
3538	-8.0426	0.4512	0.	119.42
3539	-7.4982	2.7523	0.	122.96
3540	-7.2482	3.0014	0.	119.84
3541	-7.4987	3.2514	0.	119.76
3542	-7.995	2.2512	0.	122.5
3543	-7.7475	2.502	0.	123.88
3544	-8.2466	2.4986	0.	122.7
3545	-7.7443	2.0031	0.	123.52
3546	-8.2409	1.9958	0.	122.18
3547	2.9954	-6.7535	0.	131.22
3548	2.7473	-7.0023	0.	130.48
3549	3.2461	-7.0038	0.	130.06
3550	2.7451	-6.5032	0.	132.01
3551	2.2454	-6.0021	0.	125.09
3552	1.997	-6.2512	0.	120.88
3553	1.9967	-5.7513	0.	120.83
3554	2.4941	-5.753	0.	130.59
3555	2.4952	-6.2525	0.	130.91
3556	2.7427	-5.0043	0.	129.21
3557	2.9902	-5.2556	0.	129.93
3558	-0.2492	-6.0015	0.	125.95
3559	-0.49839	-5.7528	0.	131.42
3560	-0.49925	-6.2517	0.	132.04
3561	3.845e-004	-6.2508	0.	121.48
3562	8.1839e-004	-5.7511	0.	121.24
3563	2.9966	-3.7564	0.	128.31
3564	2.7464	-4.0051	0.	128.27
3565	3.2429	-4.0071	0.	127.3
3566	2.7495	-3.5069	0.	130.02
3567	2.2531	-3.0113	0.	125.51
3568	2.5015	-3.2584	0.	129.37
3569	2.003	-3.2599	0.	123.86
3570	-0.22864	-3.0366	0.	122.61
3571	-0.47665	-2.7908	0.	122.37
3572	-0.47852	-3.2795	0.	126.08
3573	-0.73594	-4.016	0.	126.28
3574	-0.97778	-3.7703	0.	125.7
3575	2.2241	-1.2642e-002	0.	126.49
3576	1.9752	0.23899	0.	125.5
3577	2.4808	0.23955	0.	131.25
3578	2.7394	0.9936	0.	132.02
3579	2.9853	0.74207	0.	130.72
3580	3.2502	1.9927	0.	132.75
3581	2.7491	1.9936	0.	135.01
3582	3.0019	2.2407	0.	135.54
3583	1.9885	2.7388	0.	128.79
3584	2.2536	2.9803	0.	131.22
3585	-1.0158	0.88163	0.	121.
3586	-0.75415	1.0931	0.	123.2
3587	-0.7905	0.6365	0.	122.86
3588	-1.0387	0.38529	0.	116.26
3589	-0.77338	2.2232	0.	125.79
3590	-0.72394	2.0269	0.	125.27
3591	-0.99964	-6.7513	0.	133.44
3592	-0.74989	-7.0008	0.	131.68
3593	-1.2499	-7.0009	0.	133.08
3594	-1.2494	-6.5018	0.	135.27
3595	-0.74946	-6.5015	0.	133.86
3596	-1.7483	-6.0028	0.	129.81
3597	-1.4988	-6.2526	0.	134.2
3598	-1.999	-6.2517	0.	127.57
3599	-3.2479	-5.9948	0.	129.57
3600	-2.9989	-6.2478	0.	127.23
3601	-2.9966	-5.7489	0.	127.39
3602	-3.4961	-6.2394	0.	133.77
3603	-3.7521	-6.9787	0.	133.3
3604	-3.9971	-6.7212	0.	133.46
3605	-4.0116	-7.2193	0.	131.17
3606	7.2746	-3.0165	0.	120.83
3607	6.8138	-3.0459	0.	108.25
3608	7.0321	-2.7504	0.	115.08
3609	7.0281	-3.2103	0.	115.42
3610	7.7413	-3.0477	0.	129.83
3611	7.5042	-2.7825	0.	127.74
3612	7.473	-3.3209	0.	129.1
3613	7.9995	-2.2744	0.	128.64
3614	7.9892	-2.7914	0.	131.04
3615	7.7521	-2.5263	0.	128.94
3616	8.2446	-2.5301	0.	129.85
3617	7.7521	-2.0156	0.	126.94
3618	8.2504	-2.019	0.	127.78
3619	8.0174	-0.76042	0.	127.64
3620	7.7583	-1.0069	0.	126.29
3621	8.2602	-1.009	0.	127.3
3622	7.7723	-0.50988	0.	127.61
3623	8.2705	-0.50853	0.	129.04
3624	5.0036	-2.2753	0.	130.49
3625	5.2531	-2.0252	0.	129.97
3626	4.7514	-2.0238	0.	129.33
3627	5.2581	-2.5251	0.	132.11
3628	5.7388	-3.5384	0.	130.02
3629	5.4988	-3.2799	0.	129.85
3630	5.628	-0.16175	0.	126.43
3631	5.8297	5.5954e-002	0.	125.15
3632	5.9146	-0.33696	0.	122.75
3633	6.0213	-0.14083	0.	120.54
3634	5.4513	-0.3929	0.	129.59
3635	5.2434	-1.054	0.	128.61
3636	4.9878	-0.82806	0.	128.73
3637	-6.7482	3.9999	0.	123.37
3638	-6.9989	4.2501	0.	123.1
3639	-6.9983	3.7502	0.	120.68
3640	-6.4988	4.2497	0.	127.98
3641	-6.75	8.	0.	128.65
3642	-7.	7.75	0.	128.22
3643	-7.	8.25	0.	126.03
3644	-6.5	7.75	0.	134.4
3645	-6.5	8.25	0.	128.76
3646	-6.25	8.	0.	128.65
3647	-4.7552	5.0043	0.	125.84
3648	-5.0031	5.2522	0.	123.57
3649	-5.2529	5.0016	0.	122.64
3650	-5.0026	4.7518	0.	124.73
3651	-4.505	5.2553	0.	129.43
3652	-4.0027	5.7562	0.	128.36
3653	-4.2542	5.5063	0.	129.9
3654	-4.2508	6.0038	0.	129.07
3655	-3.9975	7.2494	0.	129.16
3656	-4.2484	7.0002	0.	129.61
3657	-4.2483	7.4994	0.	131.06
3658	-4.9999	7.75	0.	125.6
3659	-4.9999	8.25	0.	125.62
3660	-5.2499	8.	0.	124.17
3661	-4.7494	7.9998	0.	127.16
3662	-5.9957	-2.7629	0.	132.45
3663	-6.2448	-3.0118	0.	133.03
3664	-5.7413	-3.0079	0.	131.34
3665	-6.2479	-2.5234	0.	134.59
3666	-6.2355	-4.9705	0.	128.11
3667	-5.9761	-5.2034	0.	128.63
3668	5.247	6.4979	0.	124.51
3669	4.9959	6.7463	0.	123.17
3670	4.9961	6.2472	0.	120.88
3671	7.2499	6.	0.	124.73
3672	7.4999	6.25	0.	126.49
3673	7.4999	5.75	0.	122.26
3674	6.9999	6.25	0.	124.54
3675	6.9999	5.7501	0.	126.77
3676	6.7497	6.0001	0.	124.8
3677	5.9992	6.2499	0.	123.28
3678	5.9994	5.7499	0.	125.03
3679	6.2494	6.	0.	124.03
3680	5.7487	5.9996	0.	122.45
3681	5.5344	2.2069	0.	122.1
3682	5.7342	1.9089	0.	122.25
3683	7.5857	2.7977	0.	121.69
3684	7.6196	2.3361	0.	129.42
3685	7.8451	2.5563	0.	126.08
3686	-7.1287	0.22368	0.	126.66
3687	-7.2609	-0.20164	0.	129.42
3688	-7.3423	1.1911e-002	0.	123.47
3689	-1.4863	6.7252	0.	133.21
3690	-1.2268	6.9623	0.	125.93
3691	-1.973	6.2139	0.	129.33
3692	-1.7371	6.4748	0.	133.71
3693	-1.7157	5.9654	0.	127.73
3694	1.9264	5.6868	0.	128.06
3695	1.6315	5.4178	0.	125.29
3696	1.9349	5.1716	0.	127.08
3697	2.1826	5.4373	0.	127.79
3698	1.6871	5.9631	0.	131.95
3699	0.9693	6.3267	0.	131.91
3700	1.2318	6.5339	0.	130.77
3701	3.9888	5.7389	0.	126.62
3702	3.7331	5.9815	0.	127.98
3703	2.9778	5.2168	0.	131.15
3704	3.2259	5.4719	0.	132.63
3705	2.7103	5.4565	0.	129.9
3706	2.969	5.7136	0.	130.94
3707	3.2395	4.9766	0.	132.31
3708	2.9982	4.7212	0.	131.31
3709	3.2594	2.9866	0.	136.75
3710	2.762	2.9809	0.	135.21
3711	3.0079	2.7359	0.	136.71
3712	3.7516	1.9918	0.	128.64
3713	3.5029	2.2419	0.	134.42
3714	4.0046	2.2419	0.	127.26
3715	3.9955	1.7421	0.	125.29
3716	4.2568	1.9854	0.	122.7
3717	7.4352	-4.9421	0.	130.12
3718	7.7091	-5.1529	0.	128.62
3719	7.9625	-3.3162	0.	132.14
3720	8.2301	-3.047	0.	131.35
3721	-6.1251	-6.3726	0.	125.09
3722	-5.8617	-6.5585	0.	127.66
3723	-5.9155	-6.1323	0.	128.73
3724	-8.1812	-6.4813	0.	122.2
3725	-7.6755	-6.4352	0.	123.14
3726	-7.942	-6.1941	0.	120.11
3727	-6.9494	-5.7379	0.	118.95
3728	-6.7197	-5.473	0.	123.97
3729	-7.2209	-5.4881	0.	117.58
3730	0.2	3.8241	0.	116.5
3731	0.42147	3.6021	0.	118.55
3732	-1.2125	3.6236	0.	129.37
3733	-1.4826	3.8309	0.	130.46
3734	-0.17533	2.6511	0.	122.7
3735	-0.32719	3.0757	0.	119.59
3736	5.8108	0.44926	0.	125.53
3737	6.038	0.6541	0.	125.46
3738	6.0575	0.25654	0.	123.58
3739	7.5935	0.18762	0.	126.95
3740	7.4117	0.42868	0.	123.35
3741	7.5276	0.58996	0.	127.34
3742	7.5486	-0.27033	0.	126.17
3743	7.3496	-3.466e-003	0.	119.5
3744	6.6514	-1.7841e-002	0.	110.83
3745	6.7896	-0.34718	0.	113.21
3746	6.5442	-0.40957	0.	108.72
3747	6.4012	-0.18354	0.	113.81
3748	-6.8005	-1.5991	0.	123.4
3749	-6.5351	-1.8026	0.	128.16
3750	-4.8715	-7.9007	0.	127.49
3751	-4.3116	-7.9539	0.	130.27
3752	-4.5714	-8.1956	0.	131.39
3753	8.0043	-8.7597	0.	125.06
3754	8.2551	-8.5102	0.	125.13
3755	7.7564	-8.5124	0.	124.94
3756	4.7547	-8.4969	0.	127.2
3757	5.0044	-8.7462	0.	127.08
3758	5.2565	-8.494	0.	126.56
3759	4.5032	-8.7483	0.	127.79
3760	4.2529	-8.4992	0.	127.75
3761	3.0001	-8.7504	0.	129.61
3762	2.75	-8.5005	0.	130.19
3763	3.2503	-8.5007	0.	128.65
3764	8.5055	1.7778	0.	126.94
3765	8.2936	2.0445	0.	131.11
3766	8.7703	2.0204	0.	127.44
3767	8.5337	2.2775	0.	127.56
3768	8.7362	1.5199	0.	126.72
3769	8.2359	1.5489	0.	121.85
3770	8.4485	1.2771	0.	126.76
3771	8.7458	0.51355	0.	130.36
3772	8.5096	0.25871	0.	130.88
3773	8.4559	0.77154	0.	128.92
3774	8.2016	-3.567	0.	130.2
3775	8.7171	-3.5428	0.	128.07
3776	8.4692	-3.2978	0.	129.34
3777	8.4525	-3.8079	0.	127.38
3778	8.4659	-4.8119	0.	127.79
3779	8.7163	-4.5482	0.	126.72
3780	8.4514	-4.3123	0.	126.62
3781	8.1945	-4.5873	0.	128.84
3782	8.482	-5.3084	0.	128.71
3783	8.7295	-5.0464	0.	128.21
3784	8.2184	-5.0875	0.	130.23
3785	8.4957	-5.8012	0.	127.87
3786	8.7415	-5.542	0.	128.08
3787	8.2373	-5.5796	0.	128.18
3788	8.5062	-6.2921	0.	126.78
3789	8.7513	-6.0355	0.	127.26
3790	8.7581	-6.5282	0.	126.49
3791	8.5123	-6.783	0.	126.02
3792	8.7585	-7.5145	0.	125.63
3793	8.5124	-7.2737	0.	125.58
3794	8.5093	-7.766	0.	125.36
3795	-8.8789	-0.55023	0.	132.58
3796	-8.8351	-0.76901	0.	130.21
3797	-8.4912	-0.51487	0.	126.27
3798	-8.6439	-0.36515	0.	128.51
3799	-8.6809	0.95062	0.	122.13
3800	-8.3748	0.65462	0.	119.7
3801	-8.4476	1.2106	0.	121.02
3802	-8.7497	3.4993	0.	122.18
3803	-8.4998	3.7498	0.	119.2
3804	-8.4992	3.2493	0.	121.08
3805	-8.4782	-8.3577	0.	127.65
3806	-8.7071	-8.0764	0.	126.02
3807	-8.2149	-8.1731	0.	124.45
3808	-8.405	-7.8894	0.	125.36
3809	-8.7065	-6.5269	0.	124.68
3810	-8.45	-6.2787	0.	121.92
3811	-8.5156	-6.7978	0.	123.95
3812	-1.2514	-8.5	0.	133.37
3813	-1.0011	-8.75	0.	132.99
3814	-0.75071	-8.5001	0.	133.09
3815	-1.0007	-8.2502	0.	131.97
3816	-8.2569	-8.6291	0.	134.15
3817	-8.7469	-8.5673	0.	128.46
3818	-8.5058	-8.83	0.	130.41
3819	8.75	8.	0.	125.49
3820	8.25	8.	0.	125.9
3821	8.5	7.75	0.	125.16
3822	8.5	8.25	0.	125.73
3823	8.5	6.75	0.	124.65
3824	8.75	7.	0.	125.32
3825	8.25	7.	0.	125.07
3826	8.5	7.25	0.	124.82
3827	8.75	6.	0.	125.12
3828	8.5	5.75	0.	121.85
3829	8.5	6.25	0.	123.9
3830	-3.4982	8.7483	0.	127.99
3831	-3.7484	8.4986	0.	128.32
3832	-3.2471	8.4972	0.	128.12
3833	-0.48704	8.7446	0.	123.93
3834	-0.23121	8.5023	0.	123.32
3835	-0.73101	8.4876	0.	123.87
3836	0.51437	8.7657	0.	124.3
3837	0.76783	8.5181	0.	124.52
3838	0.26909	8.5168	0.	123.62
3839	3.7483	8.4912	0.	125.52
3840	3.4989	8.7419	0.	125.63
3841	3.2495	8.4896	0.	125.95
3842	4.248	8.4936	0.	125.46
3843	3.9984	8.7437	0.	125.39
3844	4.4984	8.7457	0.	125.62
3845	4.7481	8.4961	0.	126.23
3846	8.	8.75	0.	126.93
3847	7.75	8.5	0.	128.54
3848	8.	8.25	0.	126.87
3849	8.25	8.5	0.	126.7
3850	-8.75	8.5	0.	122.61
3851	-8.5	8.75	0.	121.84
3852	-8.5	8.25	0.	120.02
3853	-8.25	8.5	0.	120.6
3854	7.2882	3.0063	0.	119.59
3855	7.5336	3.2702	0.	118.
3856	6.9327	2.7769	0.	117.8
3857	6.6385	2.5958	0.	122.14
3858	6.8162	2.3695	0.	112.1
3859	6.4993	0.22545	0.	116.02
3860	6.2847	0.46138	0.	123.54
3861	6.2491	5.9753e-002	0.	119.03
3862	6.9168	0.10705	0.	111.85
3863	-0.96974	3.8789	0.	129.35
3864	-0.92943	3.4207	0.	126.52
3865	-0.72508	3.677	0.	121.79
3866	-5.5769e-003	3.6294	0.	114.68
3867	-0.19735	3.3457	0.	117.02
3868	0.21589	3.4074	0.	116.73
3869	-7.1837	-5.9847	0.	118.13
3870	-7.4306	-6.2178	0.	122.51
3871	-7.697	-5.9766	0.	119.4
3872	-7.4553	-5.7349	0.	116.76
3873	-6.681	-5.9639	0.	117.62
3874	-6.4514	-5.6989	0.	123.18
3875	-6.3961	-6.1639	0.	120.92
3876	-6.1865	-5.9236	0.	124.56
3877	7.6942	-3.5895	0.	131.41
3878	7.9245	-3.841	0.	127.46
3879	-6.2505	4.9999	0.	129.23
3880	-6.0007	5.25	0.	126.37
3881	-5.7513	5.0003	0.	123.89
3882	-6.0001	4.7496	0.	126.64
3883	7.0191	3.2414	0.	121.65
3884	6.7618	3.0136	0.	123.67
3885	6.4676	2.8324	0.	128.04
3886	6.2223	2.6213	0.	130.9
3887	6.4136	2.4156	0.	127.42
3888	3.7559	2.492	0.	132.96
3889	3.5061	2.7406	0.	137.2
3890	3.2545	2.4899	0.	137.17
3891	3.7365	5.4852	0.	130.73
3892	3.4876	5.2318	0.	133.74
3893	3.4808	5.7279	0.	132.17
3894	-5.119	-8.1553	0.	131.99
3895	-5.3201	-8.4908	0.	138.23
3896	-5.0561	-8.7151	0.	137.93
3897	-4.8189	-8.4503	0.	136.14
3898	-7.9935	-8.4446	0.	130.79
3899	-7.7705	-8.6921	0.	132.03
3900	-8.015	-8.8833	0.	135.6
3901	1.3922	5.6941	0.	128.93
3902	1.1929	6.0321	0.	134.7
3903	1.4555	6.2393	0.	133.86
3904	-1.4797	6.2262	0.	131.93
3905	-1.2441	6.4689	0.	130.33
3906	7.8386	2.0839	0.	134.57
3907	8.0241	1.8156	0.	125.84
3908	8.0641	2.3041	0.	131.7
3909	5.9954	2.4418	0.	135.98
3910	5.7712	2.3639	0.	130.41
3911	5.971	2.0658	0.	130.13
3912	6.1867	2.236	0.	132.48
3913	6.7498	5.5001	0.	131.4
3914	6.4999	5.2503	0.	133.86
3915	6.2497	5.5001	0.	130.44
3916	6.4997	5.7501	0.	129.71
3917	-9.	8.75	0.	124.23
3918	-9.25	8.5	0.	125.97
3919	-9.	8.25	0.	124.24
3920	-9.25	9.	0.	125.35
3921	-9.	9.25	0.	124.25
3922	-8.75	9.	0.	123.45
3923	-3.2479	8.998	0.	127.61
3924	-3.4988	9.2488	0.	127.6
3925	-3.7487	8.9988	0.	127.63
3926	-2.9979	9.248	0.	127.47
3927	-2.7461	8.9962	0.	127.34
3928	-2.9967	8.7469	0.	127.74
3929	-0.49504	9.2481	0.	124.8
3930	-0.74218	8.9946	0.	124.78
3931	-0.24184	9.0015	0.	124.41
3932	2.7511	8.9935	0.	125.91
3933	2.5015	9.2456	0.	125.89
3934	2.2532	8.9955	0.	125.98
3935	2.5026	8.7423	0.	126.28
3936	3.2498	8.9934	0.	125.69
3937	3.0003	9.245	0.	125.76
3938	3.0004	8.7411	0.	126.01
3939	3.7491	8.9944	0.	125.5
3940	3.4996	9.2454	0.	125.56
3941	4.2488	8.9957	0.	125.55
3942	3.9992	9.2463	0.	125.4
3943	4.4991	9.2473	0.	125.43
3944	4.7488	8.9972	0.	125.98
3945	7.7499	9.	0.	126.27
3946	7.4999	8.75	0.	127.89
3947	7.4999	9.25	0.	125.11
3948	7.2499	9.	0.	124.15
3949	8.	9.25	0.	125.71
3950	8.25	9.	0.	126.15
3951	9.	9.25	0.	125.25
3952	9.25	9.	0.	125.28
3953	8.75	9.	0.	125.61
3954	9.	8.75	0.	125.5
3955	9.25	8.	0.	125.65
3956	9.	7.75	0.	125.55
3957	9.	8.25	0.	125.56
3958	9.	5.75	0.	127.89
3959	9.25	6.	0.	128.89
3960	9.	6.25	0.	126.65
3961	5.7492	8.4992	0.	126.
3962	5.4989	8.2487	0.	128.63
3963	5.2487	8.4981	0.	128.09
3964	5.4991	8.7489	0.	127.6
3965	5.7486	6.4994	0.	124.66
3966	5.4981	6.7488	0.	126.49
3967	5.4981	6.2491	0.	123.89
3968	7.5	6.75	0.	128.35
3969	7.2499	6.5	0.	126.26
3970	7.75	6.5	0.	126.84
3971	7.5	8.25	0.	129.18
3972	7.2499	8.5	0.	126.31
3973	-1.7531	-8.9996	0.	129.61
3974	-1.502	-8.7499	0.	133.18
3975	-1.2517	-8.9999	0.	132.81
3976	-1.5019	-9.2498	0.	132.11
3977	-2.2557	-8.9987	0.	125.62
3978	-2.0036	-8.7495	0.	126.93
3979	-2.0034	-9.2494	0.	128.09
3980	-2.5067	-8.7485	0.	120.22
3981	-2.5059	-9.2484	0.	125.81
3982	-2.7599	-8.9965	0.	125.96
3983	-4.5256	-9.2315	0.	136.18
3984	-4.7864	-8.9782	0.	136.6
3985	-4.5493	-8.7134	0.	134.7
3986	-4.2823	-8.9773	0.	135.8
3987	-5.7806	-9.0438	0.	123.9
3988	-5.5488	-8.7781	0.	133.93
3989	-5.5227	-9.2671	0.	128.64
3990	-5.2848	-9.0024	0.	133.2
3991	-6.277	-9.0831	0.	114.5
3992	-6.0427	-8.8343	0.	115.22
3993	-6.0199	-9.2983	0.	118.51
3994	-6.5362	-8.8806	0.	111.22
3995	-6.5178	-9.3249	0.	111.61
3996	-6.7736	-9.1137	0.	110.34
3997	-7.524	-8.9248	0.	123.46
3998	-7.5159	-9.3446	0.	120.04
3999	-7.2713	-9.1276	0.	115.33
4000	-7.7685	-9.116	0.	126.32
4001	-9.0001	-8.7861	0.	128.96
4002	-9.0066	-9.275	0.	130.25
4003	-9.2545	-9.0221	0.	129.52
4004	-8.759	-9.0488	0.	130.93
4005	-8.9757	-8.2861	0.	126.82
4006	-9.2438	-8.5261	0.	127.84
4007	-9.2168	-8.0197	0.	126.1
4008	-8.9244	-7.7591	0.	125.45
4009	-9.236	-6.5027	0.	128.08
4010	-9.0003	-6.7451	0.	126.12
4011	-8.9788	-6.2564	0.	126.3
4012	-6.4783	-5.2184	0.	127.1
4013	-6.2188	-5.4513	0.	127.61
4014	-6.497	-2.7723	0.	135.1
4015	-6.7461	-2.5375	0.	132.32
4016	-6.5057	-2.2886	0.	133.72
4017	-4.5023	5.7538	0.	130.57
4018	-4.7529	5.5032	0.	127.15
4019	-9.0592	-0.24827	0.	130.55
4020	-9.0452	-0.69381	0.	130.18
4021	-9.3075	-0.4803	0.	131.67
4022	-8.9623	0.21362	0.	126.76
4023	-9.2686	-9.9211e-003	0.	129.25
4024	-8.8242	-6.3191e-002	0.	126.38
4025	-8.9166	0.70279	0.	124.15
4026	-9.1802	0.46792	0.	126.34
4027	-8.6105	0.4068	0.	121.72
4028	-8.9546	1.2153	0.	123.46
4029	-9.2033	0.96896	0.	124.99
4030	-8.9796	1.7299	0.	123.59
4031	-9.2269	1.4791	0.	124.58
4032	-8.7212	1.4752	0.	122.35
4033	-8.9919	2.2397	0.	124.01
4034	-9.24	1.9881	0.	124.79
4035	-8.7385	1.9882	0.	122.95
4036	-8.9973	2.7453	0.	124.27
4037	-9.2464	2.494	0.	125.3
4038	-8.7458	2.4947	0.	123.43
4039	-8.9992	3.2479	0.	124.22
4040	-9.2488	2.9972	0.	125.83
4041	-8.7487	2.9979	0.	123.11
4042	-9.2496	3.4988	0.	126.37
4043	-8.9998	3.7491	0.	124.18
4044	-6.75	7.5	0.	133.84
4045	-6.25	7.5	0.	133.12
4046	-6.5	7.25	0.	137.25
4047	-6.5	4.7498	0.	131.4
4048	-6.7495	4.4999	0.	127.6
4049	-6.2495	4.4996	0.	128.85
4050	5.4869	-0.82604	0.	129.83
4051	5.7379	-0.56811	0.	125.88
4052	5.2313	-0.60007	0.	129.98
4053	5.5076	-2.275	0.	131.55
4054	5.7655	-2.5282	0.	126.78
4055	5.51	-2.7782	0.	132.14
4056	7.5132	-0.7564	0.	126.23
4057	7.254	-0.48915	0.	120.9
4058	7.5047	-2.2675	0.	127.21
4059	7.2616	-2.5164	0.	122.01
4060	-3.2471	-6.4924	0.	131.4
4061	-3.4989	-6.7376	0.	134.72
4062	-3.7439	-6.4801	0.	134.92
4063	-1.7495	-6.5015	0.	131.92
4064	-1.4996	-6.7514	0.	134.86
4065	-3.2688	-8.4911	0.	131.66
4066	-3.5229	-8.2369	0.	134.2
4067	-3.7834	-8.4796	0.	134.51
4068	-3.5225	-8.7379	0.	134.34
4069	-1.7525	-8.4999	0.	130.47
4070	-1.5012	-8.2501	0.	133.56
4071	-0.34055	2.3924	0.	125.62
4072	-0.53035	2.1554	0.	126.37
4073	-0.51132	0.43313	0.	127.12
4074	-0.28211	0.54694	0.	127.56
4075	-0.52887	0.84794	0.	125.07
4076	2.4984	2.2418	0.	137.04
4077	2.2401	2.4924	0.	133.63
4078	2.5052	2.7339	0.	136.09
4079	2.7511	2.4889	0.	137.59
4080	2.4875	0.74244	0.	133.57
4081	2.2319	0.49118	0.	130.19
4082	2.7334	0.49092	0.	132.31
4083	2.2514	-3.507	0.	127.67
4084	2.4993	-3.7556	0.	129.93
4085	-0.24837	-5.5024	0.	126.7
4086	-0.49725	-5.2545	0.	130.66
4087	-0.74711	-5.5044	0.	131.79
4088	2.2454	-5.5022	0.	126.31
4089	2.4945	-5.2531	0.	130.53
4090	2.742	-5.5044	0.	131.3
4091	-0.24966	-6.5009	0.	127.55
4092	-0.49971	-6.7509	0.	132.05
4093	2.2469	-6.5016	0.	126.69
4094	2.4971	-6.7519	0.	131.23
4095	9.0198	2.7617	0.	128.42
4096	9.0142	3.2584	0.	128.94
4097	9.2634	3.0077	0.	130.14
4098	8.7742	3.0155	0.	126.51
4099	9.0169	2.2628	0.	128.07
4100	9.2652	2.5089	0.	129.34
4101	8.7802	2.52	0.	128.2
4102	9.001	1.7624	0.	127.2
4103	9.2587	2.0087	0.	128.37
4104	9.2428	1.5085	0.	127.5
4105	8.9809	1.2628	0.	127.46
4106	9.0011	0.25735	0.	129.96
4107	9.245	0.50788	0.	129.46
4108	8.9831	0.76198	0.	128.97
4109	9.0092	-0.24877	0.	129.97
4110	9.2554	3.3028e-003	0.	130.01
4111	8.7649	2.5048e-003	0.	130.49
4112	9.0082	-0.75387	0.	129.28
4113	9.257	-0.50093	0.	129.77
4114	8.7634	-0.50358	0.	129.6
4115	9.0043	-1.2585	0.	128.65
4116	9.2545	-1.005	0.	129.22
4117	8.758	-1.0074	0.	128.39
4118	9.0005	-1.7629	0.	128.56
4119	9.2516	-1.5084	0.	128.84
4120	8.7531	-1.5119	0.	127.88
4121	8.9954	-2.2681	0.	128.92
4122	9.2486	-2.0116	0.	128.86
4123	8.7488	-2.0174	0.	128.43
4124	8.9881	-2.7743	0.	129.09
4125	9.2437	-2.5162	0.	128.97
4126	8.7421	-2.5255	0.	129.49
4127	8.9794	-3.2796	0.	128.49
4128	9.2378	-3.0203	0.	128.62
4129	8.7315	-3.0345	0.	129.77
4130	8.9719	-3.7836	0.	127.23
4131	9.2314	-3.5234	0.	127.66
4132	8.9722	-4.2845	0.	126.63
4133	9.2277	-4.0253	0.	126.59
4134	8.7073	-4.0487	0.	126.54
4135	8.98	-4.7826	0.	127.13
4136	9.2321	-4.5241	0.	126.64
4137	8.9891	-5.28	0.	127.58
4138	9.2387	-5.0225	0.	127.13
4139	8.9971	-5.7762	0.	127.46
4140	9.2452	-5.5201	0.	127.35
4141	9.0031	-6.2716	0.	126.96
4142	9.2505	-6.0171	0.	127.14
4143	9.0062	-6.7667	0.	126.42
4144	9.254	-6.5137	0.	126.73
4145	9.0065	-7.2622	0.	126.01
4146	9.2551	-7.0103	0.	126.32
4147	8.7605	-7.0215	0.	125.96
4148	9.005	-7.7584	0.	125.72
4149	9.2545	-7.5074	0.	125.98
4150	9.0031	-8.2553	0.	125.53
4151	9.253	-8.0049	0.	125.71
4152	8.7558	-8.01	0.	125.45
4153	9.0016	-8.7531	0.	125.41
4154	9.2517	-8.503	0.	125.51
4155	8.7532	-8.5059	0.	125.35
4156	8.7514	-9.003	0.	125.3
4157	9.0007	-9.2516	0.	125.33
4158	9.2508	-9.0017	0.	125.38
4159	8.2521	-9.0053	0.	125.17
4160	8.5012	-9.2529	0.	125.23
4161	8.5029	-8.7558	0.	125.24
4162	7.7523	-9.0061	0.	125.07
4163	8.0018	-9.255	0.	125.13
4164	7.2518	-9.0038	0.	125.08
4165	7.5013	-9.2539	0.	125.1
4166	7.5044	-8.7588	0.	124.95
4167	6.7516	-9.0005	0.	125.26
4168	7.001	-9.2516	0.	125.2
4169	7.0034	-8.7537	0.	125.
4170	6.252	-8.9978	0.	125.64
4171	6.5011	-9.2492	0.	125.49
4172	6.5039	-8.7477	0.	125.26
4173	5.7527	-8.9965	0.	126.2
4174	6.0015	-9.2478	0.	125.98
4175	6.0044	-8.7447	0.	125.74
4176	5.2531	-8.9966	0.	126.9
4177	5.5021	-9.2473	0.	126.65
4178	5.5052	-8.7444	0.	126.37
4179	4.7529	-8.9976	0.	127.67
4180	5.0023	-9.2477	0.	127.46
4181	4.502	-9.2487	0.	128.37
4182	4.2523	-8.9989	0.	128.49
4183	2.7501	-9.0002	0.	130.36
4184	3.0002	-9.2502	0.	131.17
4185	3.2506	-9.0002	0.	130.
4186	-0.75083	-9.	0.	133.11
4187	-1.001	-9.2499	0.	133.94
4188	-7.4968	2.2539	0.	124.86
4189	-7.2478	2.5019	0.	122.21
4190	-5.4888	2.2419	0.	131.39
4191	-5.7405	2.4951	0.	127.59
4192	-5.4989	0.74161	0.	132.21
4193	-5.7643	0.49735	0.	128.32
4194	-1.7583	-1.2838	0.	136.06
4195	-1.899	-0.90583	0.	128.54
4196	-1.9892	-1.3474	0.	135.59
4197	-9.2994e-003	-1.3459	0.	127.86
4198	-0.24572	-1.5945	0.	126.5
4199	0.24782	-1.5745	0.	129.88
4200	-0.35153	4.716e-002	0.	132.63
4201	-0.75952	0.18191	0.	119.57
4202	-0.24062	0.35077	0.	129.2
4203	6.0083	-3.2964	0.	129.84
4204	6.3038	-3.0739	0.	115.37
4205	6.0238	-2.7879	0.	124.46
4206	5.7683	-3.038	0.	129.81
4207	6.1844	-4.9776	0.	124.25
4208	5.9339	-4.7631	0.	132.21
4209	7.1675	-4.7615	0.	122.68
4210	7.673	-4.6521	0.	132.5
4211	6.6759	-4.8938	0.	109.95
4212	5.9423	-4.2853	0.	126.9
4213	5.9715	-3.7948	0.	129.15
4214	6.5515	-2.8195	0.	104.89
4215	6.7941	-3.2663	0.	109.28
4216	7.2264	-3.5148	0.	123.63
4217	-0.1685	-0.37826	0.	132.67
4218	-6.2639e-002	-0.85873	0.	124.21
4219	-0.75085	-1.5711	0.	109.8
4220	-1.2755	-1.495	0.	121.9
4221	-1.7745	-1.5124	0.	138.45
4222	-0.99672	-1.7873	0.	108.92
4223	-1.6709	-0.45491	0.	132.42
4224	-2.0864	-0.61437	0.	127.09
4225	-1.283	-4.5075e-002	0.	126.97
4226	-5.4948	1.2405	0.	131.35
4227	-5.4915	1.7408	0.	130.98
4228	-5.2357	1.9869	0.	130.4
4229	-7.5022	1.2714	0.	124.15
4230	-7.4945	1.7582	0.	124.78
4231	1.7481	-6.5008	0.	114.88
4232	1.249	-6.5004	0.	107.83
4233	0.74961	-6.5003	0.	107.91
4234	0.25003	-6.5005	0.	115.27
4235	1.7477	-5.5007	0.	115.82
4236	1.2491	-5.5002	0.	110.06
4237	0.74982	-5.5002	0.	110.12
4238	0.25061	-5.5008	0.	116.
4239	1.7532	-3.5083	0.	119.56
4240	1.2552	-3.5112	0.	114.83
4241	0.75746	-3.5152	0.	114.51
4242	1.0077	-3.2685	0.	115.65
4243	0.2607	-3.5195	0.	118.26
4244	1.5487e-002	-3.2799	0.	121.94
4245	-0.23439	-3.5228	0.	125.33
4246	2.4941	1.2449	0.	133.74
4247	2.4974	1.7451	0.	134.98
4248	1.7276	0.49105	0.	122.59
4249	1.2212	0.49189	0.	118.84
4250	0.72539	0.50484	0.	119.13
4251	0.23576	0.49052	0.	124.19
4252	1.7189	2.4998	0.	124.16
4253	1.191	2.4963	0.	118.53
4254	0.66497	2.4842	0.	116.19
4255	0.89781	2.7213	0.	117.76
4256	0.15127	2.4563	0.	119.55
4257	-0.49881	1.298	0.	125.27
4258	-0.48681	1.7443	0.	125.86
4259	-2.2546	-8.4992	0.	121.4
4260	-2.7594	-8.4971	0.	122.06
4261	-3.0126	-8.7452	0.	127.91
4262	-2.2499	-6.5006	0.	122.26
4263	-2.7495	-6.4988	0.	122.
4264	7.5029	-1.7601	0.	126.21
4265	7.5046	-1.2559	0.	125.91
4266	5.5018	-1.7764	0.	129.6
4267	5.4975	-1.29	0.	128.89
4268	-6.5003	5.25	0.	135.21
4269	-6.2505	5.5001	0.	132.26
4270	-6.5002	5.75	0.	139.03
4271	-7.2494	4.5	0.	119.63
4272	-8.75	4.4999	0.	120.56
4273	-9.25	4.4998	0.	130.33
4274	-9.	4.2497	0.	125.16
4275	-8.2499	4.5001	0.	114.93
4276	-8.4999	4.2499	0.	116.63
4277	-7.7496	4.5	0.	114.66
4278	-8.75	7.5	0.	120.87
4279	-9.25	7.5	0.	130.1
4280	-9.	7.75	0.	125.26
4281	-8.25	7.5	0.	115.74
4282	-8.5	7.75	0.	117.29
4283	-7.25	7.5	0.	123.2
4284	-7.75	7.5	0.	116.31
4285	-4.5005	6.2523	0.	130.33
4286	-4.4996	6.7511	0.	130.53
4287	-4.4992	7.2503	0.	131.46
4288	-5.7512	5.5005	0.	120.31
4289	-5.2519	5.5013	0.	118.71
4290	-5.5017	5.2507	0.	117.9
4291	-5.75	7.5	0.	122.09
4292	-6.	7.75	0.	127.46
4293	-5.2499	7.5	0.	120.96
4294	-4.7495	7.5	0.	129.04
4295	-5.5	7.75	0.	119.62
4296	-6.5	6.25	0.	139.57
4297	-6.5	6.75	0.	137.87
4298	-6.31	0.50021	0.	118.81
4299	-6.8831	0.50043	0.	120.4
4300	-6.2452	2.4987	0.	117.26
4301	-6.7475	2.5004	0.	115.32
4302	-6.497	-3.2585	0.	133.78
4303	-6.4977	-3.7494	0.	134.04
4304	-6.4969	-4.2419	0.	133.2
4305	-6.2457	-3.9937	0.	132.1
4306	-6.4917	-4.7324	0.	129.82
4307	-8.2311	-5.4967	0.	116.07
4308	-8.7363	-5.5026	0.	122.25
4309	-8.4751	-5.7553	0.	118.61
4310	-7.9668	-5.7328	0.	117.31
4311	-7.725	-5.4911	0.	114.43
4312	-8.7125	-2.4811	0.	118.04
4313	-9.2148	-2.4684	0.	133.26
4314	-8.9198	-2.1893	0.	129.57
4315	-8.2224	-2.5133	0.	106.44
4316	-8.4361	-2.2434	0.	110.1
4317	-7.2416	-2.5467	0.	118.73
4318	-6.9985	-2.3165	0.	131.59
4319	-7.7336	-2.5397	0.	106.31
4320	-7.4853	-2.331	0.	112.52
4321	-7.9633	-2.298	0.	99.92
4322	2.4985	-7.2513	0.	131.15
4323	2.5	-8.7502	0.	130.9
4324	2.5001	-9.2501	0.	130.93
4325	2.4998	-8.2505	0.	132.36
4326	2.4993	-7.7508	0.	132.53
4327	-0.50048	-8.75	0.	133.14
4328	-0.50046	-9.25	0.	133.31
4329	-0.50037	-8.2501	0.	134.07
4330	-0.49997	-7.2505	0.	131.73
4331	-0.50018	-7.7503	0.	133.42
4332	-0.75039	-8.0002	0.	132.95
4333	2.4971	-4.2537	0.	128.73
4334	2.4957	-4.7531	0.	129.12
4335	-0.49184	-4.2616	0.	127.26
4336	-0.4855	-3.7693	0.	127.62
4337	-0.4954	-4.7569	0.	128.48
4338	-0.7452	-5.0067	0.	128.85
4339	-1.5004	-7.7503	0.	133.04
4340	-1.2505	-8.0002	0.	132.22
4341	-1.5	-7.2506	0.	133.47
4342	-3.5162	-7.7373	0.	133.1
4343	-3.782	-7.9781	0.	131.98
4344	-3.507	-7.2377	0.	133.59
4345	-3.7666	-7.4782	0.	131.48
4346	7.5	7.75	0.	128.55
4347	7.75	8.	0.	127.54
4348	7.5	7.25	0.	128.3
4349	7.75	7.	0.	126.8
4350	7.75	7.5	0.	126.54
4351	6.2494	6.4999	0.	118.53
4352	6.7497	6.5	0.	119.01
4353	6.4996	6.25	0.	119.51
4354	6.2496	8.4998	0.	117.51
4355	5.9995	8.7496	0.	122.41
4356	6.7498	8.4999	0.	117.62
4357	6.9999	8.75	0.	122.58
4358	6.4997	8.7499	0.	115.98
4359	5.4983	7.2485	0.	127.04
4360	5.4986	7.7485	0.	127.71
4361	5.2471	6.9972	0.	125.19
4362	8.7625	3.5082	0.	124.77
4363	9.2576	3.5047	0.	132.31
4364	8.2666	3.512	0.	119.84
4365	8.5225	3.2653	0.	122.39
4366	7.2645	3.5053	0.	120.07
4367	6.7585	3.506	0.	129.56
4368	7.7676	3.512	0.	117.98
4369	7.2499	5.5	0.	124.28
4370	8.75	5.5	0.	124.6
4371	9.25	5.5	0.	131.73
4372	8.25	5.5	0.	120.81
4373	7.75	5.5	0.	120.67
4374	6.5012	3.2781	0.	131.87
4375	6.5031	3.7575	0.	136.6
4376	6.5007	4.2522	0.	136.83
4377	6.5001	4.7507	0.	134.79
4378	5.7828	2.5444	0.	127.71
4379	5.2912	2.4733	0.	120.16
4380	4.259	2.4908	0.	123.16
4381	4.7676	2.4844	0.	117.85
4382	4.5112	2.2343	0.	118.6
4383	4.2431	5.4939	0.	121.88
4384	5.7493	5.4998	0.	121.22
4385	5.2485	5.4993	0.	116.08
4386	5.4986	5.7495	0.	118.67
4387	4.7467	5.4978	0.	116.25
4388	4.9972	5.7482	0.	117.71
4389	3.5092	3.2397	0.	137.94
4390	3.5114	3.7391	0.	139.11
4391	3.5079	4.2381	0.	138.03
4392	3.4986	4.7359	0.	135.07
4393	3.2573	4.4805	0.	134.06
4394	6.2716	-2.5335	0.	113.85
4395	6.7698	-2.524	0.	111.67
4396	6.2468	-0.56487	0.	113.61
4397	6.1038	-0.33884	0.	118.78
4398	6.7421	-0.53239	0.	110.84
4399	7.0551	-0.22229	0.	114.24
4400	-6.2818	-6.5836	0.	119.94
4401	-6.0646	-6.9398	0.	119.51
4402	-6.0184	-6.7695	0.	122.56
4403	-5.7135	-7.2456	0.	131.09
4404	-5.878	-6.9322	0.	124.28
4405	-5.3328	-7.6258	0.	132.91
4406	-7.9129	-8.0057	0.	128.72
4407	-7.4746	-6.682	0.	122.91
4408	-7.6095	-7.1275	0.	124.17
4409	-7.7722	-7.5665	0.	131.26
4410	-8.103	-7.722	0.	129.69
4411	-5.8108	-8.5686	0.	125.23
4412	-6.3019	-8.6318	0.	111.82
4413	-7.2822	-8.7134	0.	116.62
4414	-6.7921	-8.6831	0.	109.65
4415	-7.0295	-8.9162	0.	108.74
4416	1.1535	5.2225	0.	129.81
4417	0.80293	4.8488	0.	128.47
4418	-0.25475	3.7762	0.	114.24
4419	-1.2847	5.2578	0.	134.04
4420	-1.1314	4.794	0.	129.57
4421	-1.4198	5.7332	0.	131.44
4422	-0.75386	6.426	0.	117.65
4423	-0.98454	6.7059	0.	123.26
4424	-0.26675	6.3386	0.	112.68
4425	0.21937	6.2365	0.	114.32
4426	0.70677	6.1356	0.	125.18
4427	-8.1771	-2.0281	0.	103.54
4428	-8.6434	-1.9516	0.	121.35
4429	-7.715	-2.0893	0.	105.91
4430	-7.2422	-2.1008	0.	124.6
4431	-7.3537	-0.55438	0.	127.98
4432	-7.5194	-0.13472	0.	126.3
4433	-7.2027	-0.97874	0.	126.
4434	-7.0901	-1.4183	0.	124.6
4435	-7.0234	-1.8642	0.	128.09
4436	-9.2373	-0.94147	0.	128.54
4437	-8.1636	-0.25357	0.	113.2
4438	-7.8072	-1.1994e-002	0.	113.32
4439	-8.1697	0.13101	0.	112.86
4440	-8.4663	-0.25459	0.	121.79
4441	7.3289	0.61105	0.	122.47
4442	7.1678	0.23759	0.	115.88
4443	7.6396	0.91117	0.	132.22
4444	6.0015	1.6641	0.	127.76
4445	6.1111	1.2577	0.	129.99
4446	6.2294	0.85904	0.	126.16
4447	8.7506	-9.5014	0.	125.27
4448	9.2504	-9.5008	0.	125.3
4449	8.2509	-9.5025	0.	125.2
4450	7.7508	-9.5028	0.	125.16
4451	7.2506	-9.5017	0.	125.22
4452	6.7505	-9.5003	0.	125.43
4453	6.2507	-9.4992	0.	125.84
4454	5.751	-9.4986	0.	126.43
4455	5.2513	-9.4984	0.	127.21
4456	4.7514	-9.4987	0.	128.15
4457	4.2512	-9.4993	0.	129.25
4458	3.7508	-9.4998	0.	130.44
4459	4.0014	-9.2495	0.	129.36
4460	3.2504	-9.5	0.	131.51
4461	3.5008	-9.25	0.	130.33
4462	2.7502	-9.5001	0.	131.79
4463	2.2501	-9.5	0.	126.03
4464	1.75	-9.5	0.	114.03
4465	1.25	-9.5	0.	107.06
4466	0.74998	-9.5	0.	107.45
4467	0.24989	-9.5	0.	115.34
4468	-0.25029	-9.5	0.	128.17
4469	-0.75062	-9.4999	0.	134.18
4470	-1.2512	-9.4998	0.	133.26
4471	-1.7521	-9.4996	0.	130.61
4472	-2.2537	-9.499	0.	128.26
4473	-2.756	-9.4977	0.	128.39
4474	-3.259	-9.4954	0.	131.01
4475	-3.01	-9.2459	0.	128.57
4476	-3.7623	-9.4923	0.	134.01
4477	-3.5154	-9.2415	0.	133.
4478	-4.2646	-9.4899	0.	135.68
4479	-4.0213	-9.2356	0.	135.3
4480	-4.7649	-9.4922	0.	134.96
4481	-5.2637	-9.5035	0.	130.8
4482	-5.0258	-9.2389	0.	135.4
4483	-5.762	-9.5217	0.	123.27
4484	-6.2608	-9.5401	0.	115.6
4485	-6.7605	-9.5541	0.	112.38
4486	-7.2609	-9.5599	0.	115.86
4487	-7.0163	-9.3429	0.	111.16
4488	-7.7613	-9.5548	0.	123.36
4489	-8.2603	-9.5411	0.	129.02
4490	-8.0139	-9.3262	0.	129.68
4491	-8.7579	-9.5253	0.	130.66
4492	-8.5104	-9.2991	0.	131.33
4493	-9.2548	-9.5124	0.	130.43
4494	-9.5028	-9.2595	0.	129.69
4495	-9.4982	-8.7621	0.	128.39
4496	-9.4848	-8.2598	0.	127.11
4497	-9.4695	-7.7546	0.	126.6
4498	-9.479	-7.2512	0.	127.3
4499	-9.1771	-7.494	0.	125.98
4500	-9.4936	-6.7502	0.	128.99
4501	-9.258	-6.9926	0.	127.03
4502	-9.4915	-6.2511	0.	131.29
4503	-9.4921	-5.7521	0.	134.97
4504	-9.2342	-6.0048	0.	129.51
4505	-9.4962	-5.2516	0.	137.68
4506	-9.2412	-5.5028	0.	132.63
4507	-9.4992	-4.7505	0.	139.3
4508	-9.4999	-4.2496	0.	141.42
4509	-9.4995	-3.7475	0.	141.56
4510	-9.4961	-3.2415	0.	140.07
4511	-9.482	-2.729	0.	139.65
4512	-9.4472	-2.2095	0.	138.08
4513	-9.1523	-1.9304	0.	134.38
4514	-9.3864	-1.693	0.	133.27
4515	-9.4996	-0.72796	0.	130.
4516	-9.4111	-1.2041	0.	129.54
4517	-9.5169	-0.24195	0.	130.35
4518	-9.4864	0.24438	0.	128.85
4519	-9.4668	0.73409	0.	127.18
4520	-9.4756	1.2328	0.	126.11
4521	-9.4874	1.7373	0.	125.77
4522	-9.4945	2.2423	0.	126.08
4523	-9.4979	2.7459	0.	126.86
4524	-9.4993	3.248	0.	127.99
4525	-9.4998	3.7491	0.	129.59
4526	-9.4999	4.2496	0.	132.62
4527	-9.2499	3.9994	0.	127.4
4528	-9.5	4.7499	0.	134.89
4529	-9.5	5.25	0.	136.2
4530	-9.5	5.75	0.	138.02
4531	-9.5	6.25	0.	137.92
4532	-9.5	6.75	0.	135.86
4533	-9.5	7.25	0.	134.36
4534	-9.5	7.75	0.	131.98
4535	-9.5	8.25	0.	128.81
4536	-9.25	8.	0.	127.08
4537	-9.5	8.75	0.	127.09
4538	-9.5	9.25	0.	125.83
4539	-9.25	9.5	0.	124.73
4540	-8.75	9.5	0.	123.8
4541	-8.25	9.5	0.	123.25
4542	-8.5	9.25	0.	123.
4543	-7.75	9.5	0.	123.27
4544	-8.	9.25	0.	122.61
4545	-7.25	9.5	0.	123.78
4546	-7.5	9.25	0.	123.22
4547	-6.75	9.5	0.	124.47
4548	-7.	9.25	0.	124.33
4549	-6.25	9.5	0.	125.07
4550	-6.5	9.25	0.	125.2
4551	-5.75	9.5	0.	125.55
4552	-6.	9.25	0.	125.52
4553	-5.25	9.5	0.	126.05
4554	-5.5	9.25	0.	125.73
4555	-4.7499	9.4999	0.	126.62
4556	-4.9999	9.2499	0.	126.25
4557	-4.2496	9.4997	0.	127.12
4558	-4.4996	9.2497	0.	126.96
4559	-3.7493	9.4994	0.	127.42
4560	-3.9992	9.2494	0.	127.46
4561	-3.2488	9.4988	0.	127.46
4562	-2.7483	9.4982	0.	127.27
4563	-2.2478	9.4972	0.	126.89
4564	-2.4965	9.2465	0.	127.14
4565	-1.7473	9.4964	0.	126.37
4566	-1.9951	9.2446	0.	126.63
4567	-1.2474	9.4965	0.	125.81
4568	-1.4943	9.2435	0.	125.98
4569	-0.74753	9.498	0.	125.33
4570	-0.99468	9.2444	0.	125.3
4571	-0.24729	9.5007	0.	125.03
4572	0.25334	9.5032	0.	124.97
4573	5.9081e-003	9.2541	0.	124.64
4574	0.75377	9.5038	0.	125.12
4575	0.50671	9.2573	0.	124.82
4576	1.2535	9.5023	0.	125.37
4577	1.0067	9.2561	0.	125.19
4578	1.7526	9.4998	0.	125.6
4579	1.5052	9.2518	0.	125.58
4580	2.2516	9.498	0.	125.74
4581	2.0033	9.2478	0.	125.83
4582	2.7507	9.4971	0.	125.74
4583	3.2501	9.4969	0.	125.63
4584	3.7497	9.4973	0.	125.46
4585	4.2495	9.4979	0.	125.29
4586	4.7494	9.4986	0.	125.08
4587	5.2495	9.4992	0.	124.55
4588	4.9992	9.2484	0.	125.63
4589	5.7496	9.4996	0.	123.44
4590	5.4994	9.2492	0.	125.01
4591	6.2497	9.4998	0.	122.33
4592	5.9996	9.2497	0.	122.43
4593	6.7498	9.4999	0.	122.35
4594	6.4997	9.2499	0.	120.69
4595	7.2499	9.5	0.	123.47
4596	6.9999	9.25	0.	122.5
4597	7.75	9.5	0.	124.54
4598	8.25	9.5	0.	125.
4599	8.75	9.5	0.	125.08
4600	8.5	9.25	0.	125.44
4601	9.25	9.5	0.	125.05
4602	9.5	9.25	0.	125.09
4603	9.5	8.75	0.	125.26
4604	9.5	8.25	0.	125.57
4605	9.25	8.5	0.	125.48
4606	9.5	7.75	0.	126.11
4607	9.5	7.25	0.	127.
4608	9.25	7.5	0.	126.01
4609	9.5	6.75	0.	128.25
4610	9.25	7.	0.	126.72
4611	9.5	6.25	0.	129.89
4612	9.25	6.5	0.	127.65
4613	9.5	5.75	0.	132.78
4614	9.5	5.2501	0.	134.72
4615	9.5001	4.7503	0.	134.69
4616	9.5007	4.251	0.	134.84
4617	9.5032	3.7524	0.	135.13
4618	9.5068	3.254	0.	133.55
4619	9.5089	2.7549	0.	131.07
4620	9.5071	2.2548	0.	129.64
4621	9.5005	1.7547	0.	128.65
4622	9.4942	1.2551	0.	128.38
4623	9.4941	0.75521	0.	128.85
4624	9.2322	1.0093	0.	128.36
4625	9.4993	0.25384	0.	129.51
4626	9.5033	-0.24885	0.	129.8
4627	9.5034	-0.7521	0.	129.7
4628	9.5018	-1.2549	0.	129.41
4629	9.4998	-1.7572	0.	129.15
4630	9.4969	-2.2597	0.	128.91
4631	9.4934	-2.7622	0.	128.5
4632	9.4897	-3.2641	0.	127.79
4633	9.4871	-3.765	0.	127.03
4634	9.4875	-4.2648	0.	126.6
4635	9.4907	-4.7639	0.	126.64
4636	9.4948	-5.2626	0.	126.9
4637	9.4986	-5.761	0.	127.02
4638	9.5013	-6.2591	0.	126.9
4639	9.5028	-6.7572	0.	126.63
4640	9.503	-7.2555	0.	126.29
4641	9.5024	-7.7539	0.	125.97
4642	9.5016	-8.2526	0.	125.7
4643	9.5009	-8.7516	0.	125.49
4644	9.5004	-9.2508	0.	125.35
4645	6.5913	2.1892	0.	116.91
4646	7.409	2.1212	0.	122.73
4647	6.9965	2.1515	0.	108.95
4648	-2.2392	7.4875	0.	128.53
4649	2.0059	8.7464	0.	126.26
4650	1.7559	8.9998	0.	125.81
4651	-0.95921	7.2033	0.	122.51
4652	-8.4801	1.7336	0.	121.7
4653	-8.4924	2.2432	0.	122.37
4654	8.3042	2.5372	0.	128.23
4655	8.5347	2.7737	0.	126.31
4656	-5.9539	-5.676	0.	129.03
4657	3.2324	0.49128	0.	129.81
4658	3.7274	0.49206	0.	127.75
4659	3.4854	0.24083	0.	128.76
4660	4.7394	-0.56828	0.	128.85
4661	-4.4829	1.2121	0.	129.37
4662	-4.4846	0.70951	0.	129.84
4663	-5.25	-2.0103	0.	129.48
4664	-4.237	-6.4618	0.	134.42
4665	2.2553	8.4933	0.	126.56
4666	2.7519	8.4899	0.	126.38
4667	-4.4768	1.7184	0.	129.32
4668	-4.7275	1.9779	0.	129.64
4669	5.229	-5.9982	0.	128.55
4670	3.7385	-4.0098	0.	127.03
4671	-4.0323	-7.7191	0.	130.35
4672	-4.0425	-8.2209	0.	132.23
4673	6.2845	-7.473	0.	124.61
4674	5.7752	-7.4782	0.	125.47
4675	8.75	6.5	0.	125.44
4676	8.25	6.5	0.	124.81
4677	-4.7212	-6.4366	0.	134.43
4678	-4.499	7.7497	0.	130.65
4679	-1.4608	-3.2726	0.	125.6
4680	3.7513	-8.5004	0.	128.2
4681	4.0019	-8.7498	0.	128.44
4682	4.0017	-8.2506	0.	127.82
4683	0.75961	9.0095	0.	124.89
4684	0.25927	9.0082	0.	124.48
4685	6.7498	8.9999	0.	120.81
4686	9.	7.25	0.	125.72
4687	9.	6.75	0.	126.12
4688	-5.75	9.	0.	125.7
4689	-6.25	9.	0.	125.66
4690	-6.	8.75	0.	125.99
4691	8.75	7.5	0.	125.22
4692	-2.4549	-3.2743	0.	128.66
4693	1.2642	8.5093	0.	125.54
4694	1.0131	8.7619	0.	125.11
4695	-5.2358	-3.5004	0.	129.52
4696	-3.9909	-5.2381	0.	131.62
4697	-4.2323	0.44789	0.	129.96
4698	4.7446	6.9935	0.	123.51
4699	1.4884	6.7532	0.	131.58
4700	-3.4469	-1.3032	0.	129.3
4701	7.9117	1.3102	0.	127.44
4702	-2.4939	8.7441	0.	127.34
4703	-2.2439	8.9938	0.	126.89
4704	-1.734	-4.5113	0.	126.01
4705	-1.4886	-4.7602	0.	126.58
4706	-1.2399	4.0862	0.	130.47
4707	-1.7548	4.0547	0.	130.39
4708	-6.5	8.75	0.	126.29
4709	-6.75	8.5	0.	126.13
4710	-6.25	8.5	0.	126.62
4711	6.2496	8.9997	0.	120.75
4712	5.7493	8.9993	0.	124.01
4713	1.5078	7.2559	0.	128.99
4714	-6.9978	3.2505	0.	119.32
4715	-7.2484	3.5005	0.	119.25
4716	-2.7304	-4.5083	0.	127.54
4717	-2.9839	-4.755	0.	128.01
4718	-4.2193	-3.0158	0.	129.7
4719	-3.7123	-3.022	0.	129.81
4720	-1.7124	-3.5206	0.	126.33
4721	-2.2089	-3.5203	0.	127.48
4722	-7.5	8.75	0.	122.52
4723	-7.25	8.5	0.	123.65
4724	-7.75	8.5	0.	121.09
4725	4.2502	-2.0173	0.	128.86
4726	4.4987	-1.7737	0.	128.62
4727	-1.0203	4.3343	0.	128.76
4728	4.2417	1.488	0.	122.72
4729	-8.7499	3.9997	0.	121.2
4730	-4.2291	1.4525	0.	129.3
4731	-8.25	9.	0.	122.36
4732	-8.9561	-7.2355	0.	125.69
4733	-8.8095	-7.016	0.	125.39
4734	1.2365	-1.5324	0.	120.45
4735	-5.489	-3.2527	0.	130.08
4736	-3.9989	8.7491	0.	127.97
4737	-4.2491	8.9994	0.	127.29
4738	-3.9488	2.7281	0.	130.08
4739	-5.741	-3.9909	0.	129.41
4740	-5.4886	-3.7448	0.	129.32
4741	-5.488	-4.2342	0.	128.99
4742	3.4968	-7.2538	0.	129.06
4743	3.7487	-7.5031	0.	128.26
4744	-8.2639	-9.0842	0.	131.94
4745	8.5068	-1.2607	0.	127.62
4746	8.5133	-0.75711	0.	128.7
4747	8.5015	-1.7664	0.	127.74
4748	8.4955	-2.2748	0.	128.99
4749	5.2482	7.9976	0.	126.78
4750	-5.2499	8.5	0.	125.54
4751	-4.9998	8.7499	0.	126.06
4752	-4.7495	8.4997	0.	126.74
4753	0.73989	-1.5501	0.	121.97
4754	8.6932	1.02	0.	127.54
4755	8.	7.75	0.	125.51
4756	8.	7.25	0.	125.01
4757	8.	6.75	0.	125.24
4758	3.2239	5.9696	0.	130.47
4759	-0.99506	-5.2567	0.	129.93
4760	-1.2428	-5.0082	0.	127.8
4761	-5.75	8.	0.	124.93
4762	-6.	8.25	0.	126.53
4763	-1.7177	1.6587	0.	125.22
4764	7.0097	-8.2585	0.	124.71
4765	6.7557	-8.501	0.	125.
4766	7.2561	-8.5087	0.	124.87
4767	2.7367	6.9676	0.	129.25
4768	-3.2643	5.0133	0.	127.86
4769	-2.7707	5.0045	0.	127.4
4770	6.2563	-8.4946	0.	125.36
4771	5.7569	-8.4926	0.	125.91
4772	-2.2318	-4.5099	0.	126.64
4773	1.3997e-002	8.7592	0.	123.81
4774	-5.6964	-5.9135	0.	130.89
4775	-4.249	8.4992	0.	127.95
4776	3.5008	-8.7504	0.	129.02
4777	-6.9978	2.7509	0.	119.13
4778	-1.7368	8.4871	0.	126.26
4779	-1.2327	8.4842	0.	125.03
4780	-1.488	8.7379	0.	125.78
4781	7.2802	-7.5354	0.	124.24
4782	-1.2194	-3.5223	0.	125.86
4783	-0.97776	-2.2827	0.	117.27
4784	-1.9866	-4.7587	0.	126.53
4785	-8.9834	-5.7556	0.	127.22
4786	-8.2107	-5.9914	0.	119.72
4787	-7.75	9.	0.	122.56
4788	-8.	8.75	0.	121.15
4789	4.9986	8.7476	0.	126.59
4790	4.998	8.247	0.	126.21
4791	-4.7496	8.9997	0.	126.59
4792	-4.4992	8.7495	0.	127.28
4793	8.25	7.5	0.	124.77
4794	-5.5	8.25	0.	124.11
4795	-8.4724	0.12999	0.	121.33
4796	-2.2409	8.4911	0.	127.17
4797	-1.9908	8.7409	0.	126.72
4798	-2.9471	-0.32713	0.	129.18
4799	-3.2198	-8.2644e-002	0.	129.64
4800	-8.6223	-7.5721	0.	124.84
4801	-8.7442	-7.2665	0.	125.02
4802	7.0233	-7.7696	0.	124.32
4803	6.7852	-7.5009	0.	124.17
4804	-6.75	9.	0.	125.07
4805	-7.25	9.	0.	123.78
4806	-7.	8.75	0.	124.9
4807	-2.5278	4.7563	0.	128.01
4808	-4.3023	-8.4626	0.	133.39
4809	1.7596	8.4997	0.	126.29
4810	1.5096	8.7531	0.	125.84
4811	8.4855	-2.7857	0.	130.16
4812	8.1753	-4.0819	0.	124.7
4813	-8.75	8.	0.	121.64
4814	-4.0353	-8.7265	0.	134.46
4815	-3.7744	-8.9848	0.	134.29
4816	4.4945	-3.2659	0.	128.77
4817	-6.758	-2.0676	0.	133.02
4818	4.503	1.7314	0.	120.13
4819	-0.65087	3.2362	0.	121.66
4820	-0.44652	3.4925	0.	116.9
4821	-2.2966	4.9751	0.	127.61
4822	-0.72734	-3.5237	0.	127.08
4823	4.2459	-0.52626	0.	128.48
4824	-4.4807	0.20874	0.	129.98
4825	-2.7445	8.4948	0.	127.74
4826	-2.991	-5.2512	0.	127.85
4827	-2.744	-5.5014	0.	126.96
4828	-8.4973	2.7473	0.	122.27
4829	8.5059	-8.2605	0.	125.27
4830	-2.6355	-0.55068	0.	129.24
4831	4.0003	-7.7522	0.	127.85
4832	8.5192	-0.2523	0.	130.12
4833	-4.9934	-0.77013	0.	128.54
4834	-5.5	8.75	0.	125.41
4835	-5.2499	8.9999	0.	125.93
4836	-1.7412	-5.0076	0.	127.1
4837	8.5	8.75	0.	125.92
4838	-0.72357	-2.5393	0.	120.65
4839	-4.499	8.2495	0.	128.28
4840	8.1242	1.0383	0.	132.48
4841	-0.98615	8.7376	0.	124.71
4842	-1.2415	8.9914	0.	125.47
4843	1.2584	9.0056	0.	125.41
4844	-5.75	8.5	0.	125.7
4845	8.75	8.5	0.	125.81
4846	5.2491	8.9984	0.	126.09
4847	5.2472	5.9984	0.	120.17
4848	-8.7222	-6.0083	0.	123.52
4849	-1.742	8.9917	0.	126.24
4850	-3.2663	-8.992	0.	130.56
4851	3.7515	-8.9998	0.	129.26
4852	7.9736	-5.3588	0.	129.72
4853	7.9183	-4.3569	0.	126.82
4854	7.947	-4.8629	0.	131.19
4855	-5.	7.	0.	99.141
4856	-6.	7.	0.	101.77
4857	-5.	6.	0.	98.74
4858	-6.	6.	0.	100.77
4859	-5.5	7.	0.	116.04
4860	-5.	6.5	0.	103.91
4861	-6.	6.5	0.	106.27
4862	-5.5	6.	0.	115.11
4863	-5.5	6.5	0.	112.42
4864	-5.25	7.	0.	107.57
4865	-5.	6.75	0.	101.51
4866	-5.75	7.	0.	108.89
4867	-6.	6.75	0.	104.
4868	-5.	6.25	0.	101.32
4869	-5.25	6.	0.	106.91
4870	-6.	6.25	0.	103.5
4871	-5.75	6.	0.	107.92
4872	-5.5	6.75	0.	114.2
4873	-5.25	6.5	0.	108.14
4874	-5.75	6.5	0.	109.31
4875	-5.5	6.25	0.	113.71
4876	-6.	2.	0.	97.972
4877	-7.	2.	0.	95.441
4878	-6.	1.	0.	99.003
4879	-7.	1.	0.	96.156
4880	-6.5	2.	0.	112.04
4881	-6.	1.5	0.	103.42
4882	-7.	1.5	0.	100.81
4883	-6.5	1.	0.	113.06
4884	-6.5	1.5	0.	109.8
4885	-6.25	2.	0.	104.98
4886	-6.	1.75	0.	100.69
4887	-6.75	2.	0.	103.73
4888	-7.	1.75	0.	98.113
4889	-6.	1.25	0.	101.21
4890	-6.25	1.	0.	106.
4891	-7.	1.25	0.	98.467
4892	-6.75	1.	0.	104.58
4893	-6.5	1.75	0.	110.87
4894	-6.25	1.5	0.	106.59
4895	-6.75	1.5	0.	105.28
4896	-6.5	1.25	0.	111.39
4897	-7.	-3.	0.	98.244
4898	-9.	-3.	0.	100.31
4899	-7.	-5.	0.	94.636
4900	-9.	-5.	0.	101.11
4901	-7.5	-3.	0.	108.15
4902	-8.	-3.	0.	104.17
4903	-8.5	-3.	0.	109.35
4904	-7.	-3.5	0.	100.64
4905	-7.	-4.	0.	99.149
4906	-7.	-4.5	0.	100.
4907	-9.	-3.5	0.	104.25
4908	-9.	-4.	0.	103.75
4909	-9.	-4.5	0.	105.16
4910	-8.5	-5.	0.	113.54
4911	-8.	-5.	0.	109.57
4912	-7.5	-5.	0.	110.16
4913	-8.	-3.5	0.	108.94
4914	-7.5	-3.5	0.	106.75
4915	-7.5	-4.5	0.	107.63
4916	-8.	-4.5	0.	111.47
4917	-8.5	-4.5	0.	110.79
4918	-8.5	-3.5	0.	108.74
4919	-8.5	-4.	0.	109.33
4920	-7.5	-4.	0.	106.64
4921	-8.	-4.	0.	110.4
4922	-7.25	-3.	0.	103.13
4923	-7.	-3.25	0.	99.436
4924	-8.75	-3.	0.	104.78
4925	-9.	-3.25	0.	102.28
4926	-7.	-4.75	0.	97.298
4927	-7.25	-5.	0.	102.33
4928	-9.	-4.75	0.	103.13
4929	-8.75	-5.	0.	107.24
4930	-7.75	-3.	0.	106.14
4931	-7.5	-3.25	0.	107.42
4932	-8.25	-3.	0.	106.74
4933	-8.	-3.25	0.	106.54
4934	-8.5	-3.25	0.	109.
4935	-7.	-3.75	0.	99.868
4936	-7.25	-3.5	0.	103.68
4937	-7.	-4.25	0.	99.548
4938	-7.25	-4.	0.	102.89
4939	-7.25	-4.5	0.	103.8
4940	-9.	-3.75	0.	103.99
4941	-8.75	-3.5	0.	106.49
4942	-9.	-4.25	0.	104.44
4943	-8.75	-4.	0.	106.54
4944	-8.75	-4.5	0.	107.96
4945	-8.25	-5.	0.	111.55
4946	-8.5	-4.75	0.	112.13
4947	-7.75	-5.	0.	109.86
4948	-8.	-4.75	0.	110.5
4949	-7.5	-4.75	0.	108.87
4950	-7.75	-3.5	0.	107.85
4951	-8.25	-3.5	0.	108.84
4952	-8.	-3.75	0.	109.67
4953	-7.5	-3.75	0.	106.69
4954	-7.75	-4.5	0.	109.54
4955	-7.5	-4.25	0.	107.12
4956	-8.25	-4.5	0.	111.12
4957	-8.	-4.25	0.	110.93
4958	-8.5	-4.25	0.	110.06
4959	-8.5	-3.75	0.	109.03
4960	-8.25	-4.	0.	109.86
4961	-7.75	-4.	0.	108.52
4962	2.	-7.	0.	94.99
4963	0.	-7.	0.	95.097
4964	2.	-9.	0.	94.822
4965	0.	-9.	0.	95.813
4966	1.5	-7.	0.	106.86
4967	1.	-7.	0.	103.93
4968	0.5	-7.	0.	106.95
4969	2.	-7.5	0.	98.785
4970	2.	-8.	0.	97.549
4971	2.	-8.5	0.	98.556
4972	0.	-7.5	0.	98.947
4973	0.	-8.	0.	97.99
4974	0.	-8.5	0.	99.52
4975	0.5	-9.	0.	107.11
4976	1.	-9.	0.	103.72
4977	1.5	-9.	0.	106.43
4978	1.5	-8.	0.	104.07
4979	1.5	-8.5	0.	104.6
4980	0.5	-8.5	0.	105.06
4981	0.5	-8.	0.	104.25
4982	0.5	-7.5	0.	104.77
4983	1.5	-7.5	0.	104.74
4984	1.	-7.5	0.	106.65
4985	1.	-8.5	0.	106.62
4986	1.	-8.	0.	106.62
4987	1.75	-7.	0.	100.86
4988	2.	-7.25	0.	96.882
4989	0.25	-7.	0.	100.96
4990	0.	-7.25	0.	97.011
4991	2.	-8.75	0.	96.684
4992	1.75	-9.	0.	100.57
4993	0.	-8.75	0.	97.659
4994	0.25	-9.	0.	101.4
4995	1.25	-7.	0.	105.39
4996	1.5	-7.25	0.	105.77
4997	0.75	-7.	0.	105.44
4998	1.	-7.25	0.	105.27
4999	0.5	-7.25	0.	105.83
5000	2.	-7.75	0.	98.149
5001	1.75	-7.5	0.	101.75
5002	2.	-8.25	0.	98.033
5003	1.75	-8.	0.	100.81
5004	1.75	-8.5	0.	101.57
5005	0.	-7.75	0.	98.441
5006	0.25	-7.5	0.	101.84
5007	0.	-8.25	0.	98.734
5008	0.25	-8.	0.	101.12
5009	0.25	-8.5	0.	102.28
5010	0.75	-9.	0.	105.41
5011	0.5	-8.75	0.	106.06
5012	1.25	-9.	0.	105.07
5013	1.	-8.75	0.	105.16
5014	1.5	-8.75	0.	105.49
5015	1.5	-8.25	0.	104.33
5016	1.5	-7.75	0.	104.4
5017	1.25	-8.	0.	105.34
5018	1.25	-8.5	0.	105.61
5019	0.5	-8.25	0.	104.65
5020	0.75	-8.5	0.	105.84
5021	0.5	-7.75	0.	104.5
5022	0.75	-8.	0.	105.43
5023	0.75	-7.5	0.	105.7
5024	1.25	-7.5	0.	105.69
5025	1.	-7.75	0.	106.63
5026	1.	-8.25	0.	106.62
5027	2.	-4.	0.	96.836
5028	0.	-4.	0.	95.836
5029	2.	-5.	0.	96.437
5030	0.	-5.	0.	96.34
5031	1.5	-4.	0.	112.41
5032	1.	-4.	0.	110.51
5033	0.5	-4.	0.	111.89
5034	2.	-4.5	0.	101.28
5035	0.	-4.5	0.	100.68
5036	0.5	-5.	0.	110.38
5037	1.	-5.	0.	108.51
5038	1.5	-5.	0.	110.5
5039	0.5	-4.5	0.	109.91
5040	1.	-4.5	0.	112.65
5041	1.5	-4.5	0.	110.23
5042	1.75	-4.	0.	104.56
5043	2.	-4.25	0.	99.04
5044	0.25	-4.	0.	103.8
5045	0.	-4.25	0.	98.238
5046	2.	-4.75	0.	98.844
5047	1.75	-5.	0.	103.44
5048	0.	-4.75	0.	98.498
5049	0.25	-5.	0.	103.33
5050	1.25	-4.	0.	111.46
5051	1.5	-4.25	0.	111.3
5052	0.75	-4.	0.	111.2
5053	1.	-4.25	0.	111.57
5054	0.5	-4.25	0.	110.88
5055	1.75	-4.5	0.	105.75
5056	0.25	-4.5	0.	105.29
5057	0.75	-5.	0.	109.43
5058	0.5	-4.75	0.	110.13
5059	1.25	-5.	0.	109.49
5060	1.	-4.75	0.	110.57
5061	1.5	-4.75	0.	110.35
5062	0.75	-4.5	0.	111.28
5063	1.25	-4.5	0.	111.44
5064	2.	2.	0.	102.15
5065	0.	2.	0.	96.511
5066	2.	1.	0.	100.84
5067	0.	1.	0.	97.997
5068	1.5	2.	0.	117.61
5069	1.	2.	0.	114.68
5070	0.5	2.	0.	114.04
5071	2.	1.5	0.	106.52
5072	0.	1.5	0.	101.97
5073	0.5	1.	0.	116.11
5074	1.	1.	0.	115.38
5075	1.5	1.	0.	117.34
5076	0.5	1.5	0.	113.65
5077	1.	1.5	0.	118.24
5078	1.5	1.5	0.	116.26
5079	1.75	2.	0.	109.83
5080	2.	1.75	0.	104.32
5081	0.25	2.	0.	105.25
5082	0.	1.75	0.	99.214
5083	2.	1.25	0.	103.66
5084	1.75	1.	0.	109.05
5085	0.	1.25	0.	99.954
5086	0.25	1.	0.	107.
5087	1.25	2.	0.	116.14
5088	1.5	1.75	0.	116.91
5089	0.75	2.	0.	114.35
5090	1.	1.75	0.	116.45
5091	0.5	1.75	0.	113.83
5092	1.75	1.5	0.	111.38
5093	0.25	1.5	0.	107.79
5094	0.75	1.	0.	115.74
5095	0.5	1.25	0.	114.87
5096	1.25	1.	0.	116.36
5097	1.	1.25	0.	116.8
5098	1.5	1.25	0.	116.78
5099	0.75	1.5	0.	115.94
5100	1.25	1.5	0.	117.25
5101	-2.	-7.	0.	100.81
5102	-3.	-7.	0.	100.96
5103	-2.	-8.	0.	100.48
5104	-3.	-8.	0.	100.58
5105	-2.5	-7.	0.	116.92
5106	-2.	-7.5	0.	105.79
5107	-3.	-7.5	0.	105.95
5108	-2.5	-8.	0.	116.5
5109	-2.5	-7.5	0.	113.65
5110	-2.25	-7.	0.	108.84
5111	-2.	-7.25	0.	103.28
5112	-2.75	-7.	0.	108.92
5113	-3.	-7.25	0.	103.44
5114	-2.	-7.75	0.	103.12
5115	-2.25	-8.	0.	108.47
5116	-3.	-7.75	0.	103.25
5117	-2.75	-8.	0.	108.52
5118	-2.5	-7.25	0.	115.24
5119	-2.25	-7.5	0.	109.69
5120	-2.75	-7.5	0.	109.77
5121	-2.5	-7.75	0.	115.03
5122	7.	8.	0.	97.409
5123	6.	8.	0.	97.147
5124	7.	7.	0.	97.737
5125	6.	7.	0.	97.051
5126	6.5	8.	0.	112.95
5127	7.	7.5	0.	102.65
5128	6.	7.5	0.	102.23
5129	6.5	7.	0.	113.25
5130	6.5	7.5	0.	110.27
5131	6.75	8.	0.	105.15
5132	7.	7.75	0.	100.02
5133	6.25	8.	0.	105.02
5134	6.	7.75	0.	99.677
5135	7.	7.25	0.	100.18
5136	6.75	7.	0.	105.48
5137	6.	7.25	0.	99.624
5138	6.25	7.	0.	105.13
5139	6.5	7.75	0.	111.55
5140	6.75	7.5	0.	106.43
5141	6.25	7.5	0.	106.22
5142	6.5	7.25	0.	111.72
5143	9.	5.	0.	102.27
5144	7.	5.	0.	100.32
5145	9.	4.	0.	102.42
5146	7.	4.	0.	99.521
5147	8.5	5.	0.	118.55
5148	8.	5.	0.	116.51
5149	7.5	5.	0.	117.33
5150	9.	4.5	0.	107.22
5151	7.	4.5	0.	105.02
5152	7.5	4.	0.	115.72
5153	8.	4.	0.	115.56
5154	8.5	4.	0.	118.23
5155	7.5	4.5	0.	114.94
5156	8.	4.5	0.	119.1
5157	8.5	4.5	0.	117.17
5158	8.75	5.	0.	110.37
5159	9.	4.75	0.	104.74
5160	7.25	5.	0.	108.79
5161	7.	4.75	0.	102.62
5162	9.	4.25	0.	104.81
5163	8.75	4.	0.	110.28
5164	7.	4.25	0.	102.23
5165	7.25	4.	0.	107.6
5166	8.25	5.	0.	117.53
5167	8.5	4.75	0.	117.84
5168	7.75	5.	0.	116.91
5169	8.	4.75	0.	117.8
5170	7.5	4.75	0.	116.13
5171	8.75	4.5	0.	112.19
5172	7.25	4.5	0.	109.95
5173	7.75	4.	0.	115.64
5174	7.5	4.25	0.	115.31
5175	8.25	4.	0.	116.89
5176	8.	4.25	0.	117.32
5177	8.5	4.25	0.	117.67
5178	7.75	4.5	0.	117.02
5179	8.25	4.5	0.	118.13
5180	6.	5.	0.	97.804
5181	4.	5.	0.	99.385
5182	6.	3.	0.	100.23
5183	4.	3.	0.	101.11
5184	5.5	5.	0.	112.31
5185	5.	5.	0.	110.58
5186	4.5	5.	0.	113.44
5187	6.	4.5	0.	101.49
5188	6.	4.	0.	101.45
5189	6.	3.5	0.	104.09
5190	4.	4.5	0.	103.87
5191	4.	4.	0.	103.32
5192	4.	3.5	0.	105.25
5193	4.5	3.	0.	115.51
5194	5.	3.	0.	113.41
5195	5.5	3.	0.	116.49
5196	5.	4.	0.	113.64
5197	5.	4.5	0.	113.03
5198	5.5	4.5	0.	109.44
5199	5.5	4.	0.	109.74
5200	5.5	3.5	0.	112.4
5201	5.	3.5	0.	115.13
5202	4.5	3.5	0.	112.61
5203	4.5	4.	0.	111.02
5204	4.5	4.5	0.	111.12
5205	5.75	5.	0.	104.99
5206	6.	4.75	0.	99.608
5207	4.25	5.	0.	106.34
5208	4.	4.75	0.	101.62
5209	6.	3.25	0.	102.13
5210	5.75	3.	0.	108.23
5211	4.	3.25	0.	103.17
5212	4.25	3.	0.	108.23
5213	5.25	5.	0.	111.44
5214	5.5	4.75	0.	110.86
5215	4.75	5.	0.	112.01
5216	5.	4.75	0.	111.79
5217	4.5	4.75	0.	112.25
5218	6.	4.25	0.	101.4
5219	5.75	4.5	0.	105.44
5220	6.	3.75	0.	102.73
5221	5.75	4.	0.	105.58
5222	5.75	3.5	0.	108.22
5223	4.	4.25	0.	103.56
5224	4.25	4.5	0.	107.48
5225	4.	3.75	0.	104.26
5226	4.25	4.	0.	107.17
5227	4.25	3.5	0.	108.91
5228	4.75	3.	0.	114.46
5229	4.5	3.25	0.	114.04
5230	5.25	3.	0.	114.95
5231	5.	3.25	0.	114.26
5232	5.5	3.25	0.	114.41
5233	5.	4.25	0.	113.34
5234	5.25	4.	0.	111.69
5235	5.	3.75	0.	114.39
5236	4.75	4.	0.	112.33
5237	5.25	4.5	0.	111.23
5238	4.75	4.5	0.	112.07
5239	5.5	4.25	0.	109.56
5240	5.5	3.75	0.	111.05
5241	5.25	3.5	0.	113.74
5242	4.75	3.5	0.	113.85
5243	4.5	3.75	0.	111.81
5244	4.5	4.25	0.	111.06
5245	7.	-1.	0.	93.725
5246	6.	-1.	0.	96.001
5247	7.	-2.	0.	93.444
5248	6.	-2.	0.	95.911
5249	6.5	-1.	0.	108.68
5250	7.	-1.5	0.	98.803
5251	6.	-1.5	0.	100.62
5252	6.5	-2.	0.	108.77
5253	6.5	-1.5	0.	106.49
5254	6.75	-1.	0.	101.19
5255	7.	-1.25	0.	96.256
5256	6.25	-1.	0.	102.32
5257	6.	-1.25	0.	98.305
5258	7.	-1.75	0.	96.116
5259	6.75	-2.	0.	101.1
5260	6.	-1.75	0.	98.262
5261	6.25	-2.	0.	102.32
5262	6.5	-1.25	0.	107.54
5263	6.75	-1.5	0.	102.62
5264	6.25	-1.5	0.	103.54
5265	6.5	-1.75	0.	107.59
5266	-7.79	-0.52	0.	97.003
5267	-8.7	-1.36	0.	62.171
5268	-7.51	-1.73	0.	57.856
5269	-8.0933	-0.8	0.	87.289
5270	-8.3967	-1.08	0.	90.463
5271	-7.6967	-0.92333	0.	94.946
5272	-7.6033	-1.3267	0.	95.11
5273	-8.3033	-1.4833	0.	104.84
5274	-7.9067	-1.6067	0.	100.03
5275	-7.9509	-1.0449	0.	96.003
5276	-8.162	-1.2389	0.	97.679
5277	-7.8864	-1.3246	0.	93.42
5278	-7.9417	-0.66	0.	90.367
5279	-7.7433	-0.72167	0.	93.292
5280	-8.5483	-1.22	0.	71.014
5281	-8.5017	-1.4217	0.	78.401
5282	-7.5567	-1.5283	0.	75.864
5283	-7.7083	-1.6683	0.	78.039
5284	-8.245	-0.94	0.	88.794
5285	-8.0221	-0.92246	0.	91.629
5286	-8.2793	-1.1594	0.	93.659
5287	-7.65	-1.125	0.	94.89
5288	-7.8238	-0.98413	0.	95.293
5289	-7.7449	-1.3256	0.	94.238
5290	-8.105	-1.545	0.	102.27
5291	-8.2327	-1.3611	0.	100.7
5292	-7.8965	-1.4656	0.	96.686
5293	-8.0565	-1.1419	0.	96.713
5294	-7.9187	-1.1848	0.	94.689
5295	-8.0242	-1.2817	0.	95.45
5296	-6.85	-6.54	0.	102.33
5297	-7.55	-8.38	0.	65.243
5298	-5.61	-8.07	0.	74.051
5299	-7.025	-7.	0.	96.692
5300	-7.2	-7.46	0.	98.141
5301	-7.375	-7.92	0.	101.44
5302	-6.54	-6.9225	0.	95.597
5303	-6.23	-7.305	0.	102.48
5304	-5.92	-7.6875	0.	106.18
5305	-7.065	-8.3025	0.	112.19
5306	-6.58	-8.225	0.	105.61
5307	-6.095	-8.1475	0.	115.7
5308	-6.6692	-7.8957	0.	105.14
5309	-6.6133	-7.3264	0.	101.83
5310	-7.0263	-7.9565	0.	99.477
5311	-6.8792	-7.623	0.	101.59
5312	-6.3177	-7.7579	0.	105.53
5313	-6.9375	-6.77	0.	98.161
5314	-6.695	-6.7312	0.	97.705
5315	-7.4625	-8.15	0.	83.152
5316	-7.3075	-8.3413	0.	88.502
5317	-5.765	-7.8787	0.	88.22
5318	-5.8525	-8.1088	0.	92.817
5319	-7.1125	-7.23	0.	97.321
5320	-6.8191	-7.1632	0.	99.227
5321	-7.2875	-7.69	0.	99.789
5322	-7.0396	-7.5415	0.	99.849
5323	-7.2006	-7.9382	0.	100.44
5324	-6.385	-7.1137	0.	99.036
5325	-6.5766	-7.1245	0.	98.698
5326	-6.075	-7.4963	0.	104.3
5327	-6.4216	-7.3157	0.	102.13
5328	-6.1188	-7.7227	0.	105.78
5329	-6.8225	-8.2638	0.	108.89
5330	-7.0456	-8.1295	0.	105.82
5331	-6.3375	-8.1862	0.	110.63
5332	-6.6246	-8.0603	0.	105.38
5333	-6.2063	-7.9527	0.	110.44
5334	-6.8477	-7.9261	0.	102.29
5335	-6.7742	-7.7594	0.	103.36
5336	-6.4934	-7.8268	0.	105.26
5337	-6.7462	-7.4747	0.	101.71
5338	-6.4655	-7.5422	0.	103.62
5339	-6.9527	-7.7898	0.	100.49
5340	0.91	5.62	0.	83.292
5341	-1.03	6.01	0.	73.067
5342	-0.4	4.13	0.	99.422
5343	0.425	5.7175	0.	115.47
5344	-6.e-002	5.815	0.	105.35
5345	-0.545	5.9125	0.	112.75
5346	0.5825	5.2475	0.	107.82
5347	0.255	4.875	0.	105.28
5348	-7.25e-002	4.5025	0.	97.977
5349	-0.8725	5.54	0.	105.81
5350	-0.715	5.07	0.	100.46
5351	-0.5575	4.6	0.	96.567
5352	-4.7894e-003	5.2947	0.	106.3
5353	-0.34611	4.9583	0.	102.75
5354	-0.46718	5.4639	0.	101.83
5355	0.6675	5.6687	0.	97.978
5356	0.74625	5.4338	0.	94.464
5357	-0.7875	5.9612	0.	92.73
5358	-0.95125	5.775	0.	89.346
5359	-0.23625	4.3162	0.	97.636
5360	-0.47875	4.365	0.	96.933
5361	0.1825	5.7663	0.	110.4
5362	0.50375	5.4825	0.	111.49
5363	-0.3025	5.8637	0.	109.03
5364	-3.2395e-002	5.5549	0.	105.82
5365	-0.50609	5.6882	0.	107.28
5366	0.41875	5.0613	0.	106.52
5367	0.28886	5.2711	0.	106.98
5368	9.125e-002	4.6887	0.	101.62
5369	0.12511	5.0849	0.	105.78
5370	-0.20931	4.7304	0.	100.32
5371	-0.79375	5.305	0.	103.13
5372	-0.66984	5.502	0.	103.81
5373	-0.63625	4.835	0.	98.444
5374	-0.53056	5.0141	0.	101.59
5375	-0.45181	4.7791	0.	99.626
5376	-0.17545	5.1265	0.	104.51
5377	-0.23599	5.3793	0.	104.01
5378	-0.40665	5.2111	0.	102.28
5379	-0.46	-1.2	0.	59.998
5380	-0.74	-0.19	0.	101.85
5381	-1.48	-0.94	0.	58.546
5382	-0.6	-0.695	0.	97.105
5383	-0.97	-1.07	0.	114.33
5384	-1.11	-0.565	0.	83.545
5385	-0.89318	-0.77665	0.	102.28
5386	-0.53	-0.9475	0.	78.276
5387	-0.715	-1.135	0.	86.538
5388	-0.67	-0.4425	0.	97.317
5389	-0.925	-0.3775	0.	91.907
5390	-1.225	-1.005	0.	82.838
5391	-1.295	-0.7525	0.	66.591
5392	-0.74659	-0.73583	0.	99.429
5393	-0.93159	-0.92333	0.	107.89
5394	-1.0016	-0.67083	0.	92.251
5395	6.39	-4.59	0.	73.977
5396	7.32	-4.16	0.	61.814
5397	6.48	-3.57	0.	86.838
5398	6.855	-4.375	0.	101.47
5399	6.435	-4.08	0.	100.76
5400	6.9	-3.865	0.	89.944
5401	6.7299	-4.1067	0.	100.46
5402	6.6225	-4.4825	0.	86.063
5403	6.4125	-4.335	0.	86.25
5404	7.0875	-4.2675	0.	76.308
5405	7.11	-4.0125	0.	70.248
5406	6.4575	-3.825	0.	91.752
5407	6.69	-3.7175	0.	86.553
5408	6.7925	-4.2409	0.	100.12
5409	6.5825	-4.0934	0.	100.58
5410	6.815	-3.9859	0.	94.222
5411	6.34	1.8	0.	50.533
5412	6.83	0.68	0.	106.58
5413	7.55	1.67	0.	55.53
5414	6.5033	1.4267	0.	95.516
5415	6.6667	1.0533	0.	91.796
5416	6.7433	1.7567	0.	112.23
5417	7.1467	1.7133	0.	112.3
5418	7.07	1.01	0.	88.276
5419	7.31	1.34	0.	92.579
5420	6.7754	1.4802	0.	98.351
5421	6.8882	1.2207	0.	98.97
5422	7.055	1.45	0.	100.27
5423	6.4217	1.6133	0.	72.642
5424	6.5417	1.7783	0.	81.076
5425	6.7483	0.86667	0.	97.038
5426	6.95	0.845	0.	95.837
5427	7.3483	1.6917	0.	81.103
5428	7.43	1.505	0.	71.075
5429	6.585	1.24	0.	93.478
5430	6.6394	1.4534	0.	96.853
5431	6.7774	1.137	0.	95.259
5432	6.945	1.735	0.	112.17
5433	6.7594	1.6184	0.	105.24
5434	7.1009	1.5817	0.	106.03
5435	7.19	1.175	0.	90.301
5436	6.9791	1.1154	0.	93.598
5437	7.1825	1.395	0.	96.191
5438	6.8318	1.3505	0.	98.575
5439	6.9152	1.4651	0.	99.151
5440	6.9716	1.3354	0.	99.49
5441	-7.	7.	0.	99.699
5442	-9.	7.	0.	99.877
5443	-7.	5.	0.	98.914
5444	-9.	5.	0.	99.997
5445	-7.5	7.	0.	113.68
5446	-8.	7.	0.	111.05
5447	-8.5	7.	0.	113.52
5448	-7.	6.5	0.	103.54
5449	-7.	6.	0.	102.59
5450	-7.	5.5	0.	103.95
5451	-9.	6.5	0.	104.37
5452	-9.	6.	0.	103.55
5453	-9.	5.5	0.	104.43
5454	-8.5	5.	0.	113.37
5455	-8.	5.	0.	110.77
5456	-7.5	5.	0.	113.05
5457	-8.	6.5	0.	113.63
5458	-7.5	6.5	0.	110.69
5459	-7.5	5.5	0.	111.14
5460	-8.	5.5	0.	113.71
5461	-8.5	5.5	0.	111.65
5462	-8.5	6.5	0.	111.6
5463	-8.5	6.	0.	111.13
5464	-7.5	6.	0.	110.11
5465	-8.	6.	0.	113.59
5466	-7.25	7.	0.	106.6
5467	-7.	6.75	0.	101.59
5468	-8.75	7.	0.	106.63
5469	-9.	6.75	0.	102.12
5470	-7.	5.25	0.	101.42
5471	-7.25	5.	0.	105.93
5472	-9.	5.25	0.	102.21
5473	-8.75	5.	0.	106.62
5474	-7.75	7.	0.	112.36
5475	-7.5	6.75	0.	112.17
5476	-8.25	7.	0.	112.28
5477	-8.	6.75	0.	112.32
5478	-8.5	6.75	0.	112.52
5479	-7.	6.25	0.	103.01
5480	-7.25	6.5	0.	107.09
5481	-7.	5.75	0.	103.24
5482	-7.25	6.	0.	106.34
5483	-7.25	5.5	0.	107.54
5484	-9.	6.25	0.	103.94
5485	-8.75	6.5	0.	107.97
5486	-9.	5.75	0.	103.98
5487	-8.75	6.	0.	107.34
5488	-8.75	5.5	0.	108.03
5489	-8.25	5.	0.	112.07
5490	-8.5	5.25	0.	112.48
5491	-7.75	5.	0.	111.91
5492	-8.	5.25	0.	112.22
5493	-7.5	5.25	0.	112.07
5494	-7.75	6.5	0.	112.15
5495	-8.25	6.5	0.	112.61
5496	-8.	6.25	0.	113.61
5497	-7.5	6.25	0.	110.38
5498	-7.75	5.5	0.	112.42
5499	-7.5	5.75	0.	110.61
5500	-8.25	5.5	0.	112.67
5501	-8.	5.75	0.	113.65
5502	-8.5	5.75	0.	111.39
5503	-8.5	6.25	0.	111.37
5504	-8.25	6.	0.	112.36
5505	-7.75	6.	0.	111.85
