Node Number	X Location (mm)	Y Location (mm)	Z Location (mm)	Equivalent (von-Mises) Stress (MPa)
1	-4.	-2.	0.	132.97
2	-4.	-3.	0.	131.94
3	-3.	-2.	0.	135.53
4	-3.	-3.	0.	135.65
5	8.	7.	0.	127.57
6	8.	6.	0.	130.47
7	9.	7.	0.	132.99
8	9.	6.	0.	133.96
9	4.	-7.	0.	128.52
10	4.	-8.	0.	130.3
11	5.	-7.	0.	131.87
12	5.	-8.	0.	133.46
13	-3.	-7.	0.	134.93
14	-3.	-8.	0.	131.93
15	-2.	-7.	0.	133.5
16	-2.	-8.	0.	133.43
17	-4.	4.	0.	134.62
18	-4.	2.	0.	132.
19	-3.	4.	0.	133.47
20	-3.	2.	0.	132.35
21	-3.	8.	0.	136.13
22	-3.	7.	0.	135.05
23	-1.	8.	0.	135.4
24	-1.	7.	0.	134.71
25	7.	2.	0.	131.27
26	7.	0.	0.	133.15
27	8.	2.	0.	132.02
28	8.	0.	0.	132.22
29	7.	9.	0.	139.51
30	7.	8.	0.	137.51
31	9.	9.	0.	138.51
32	9.	8.	0.	133.53
33	-8.	1.	0.	134.58
34	-8.	0.	0.	131.32
35	-6.	1.	0.	137.35
36	-6.	0.	0.	138.6
37	-8.	-1.	0.	130.58
38	-8.	-3.	0.	132.43
39	-7.	-1.	0.	125.89
40	-7.	-3.	0.	131.02
41	6.	-7.	0.	137.72
42	6.	-8.	0.	134.74
43	7.	-7.	0.	136.64
44	7.	-8.	0.	134.29
45	-7.	8.	0.	137.52
46	-7.	6.	0.	135.85
47	-5.	8.	0.	136.58
48	-5.	6.	0.	138.45
49	-2.	-2.	0.	138.04
50	-2.	-3.	0.	138.15
51	0.	-2.	0.	137.29
52	0.	-3.	0.	135.09
53	-5.	-5.	0.	135.64
54	-5.	-6.	0.	134.36
55	-4.	-5.	0.	133.16
56	-4.	-6.	0.	135.48
57	2.	8.	0.	135.26
58	2.	7.	0.	134.44
59	4.	8.	0.	135.3
60	4.	7.	0.	134.92
61	1.	-7.	0.	132.39
62	1.	-9.	0.	130.22
63	2.	-7.	0.	132.81
64	2.	-9.	0.	129.62
65	3.	-3.	0.	134.27
66	3.	-5.	0.	136.18
67	5.	-3.	0.	136.01
68	5.	-5.	0.	133.9
69	8.	-4.	0.	134.12
70	8.	-5.	0.	136.99
71	9.	-4.	0.	136.19
72	9.	-5.	0.	136.58
73	1.	2.	0.	131.04
74	1.	0.	0.	133.86
75	2.	2.	0.	130.93
76	2.	0.	0.	133.05
77	10.	10.	0.	125.48
78	-10.	10.	0.	125.04
79	10.	-10.	0.	130.79
80	-10.	-10.	0.	126.57
81	-4.	-2.5	0.	141.78
82	-3.5	-2.	0.	110.79
83	-3.5	-3.	0.	110.76
84	-3.	-2.5	0.	141.88
85	8.	6.5	0.	137.97
86	8.5	7.	0.	107.84
87	8.5	6.	0.	109.27
88	9.	6.5	0.	143.86
89	4.	-7.5	0.	138.45
90	4.5	-7.	0.	107.3
91	4.5	-8.	0.	108.67
92	5.	-7.5	0.	139.81
93	-3.	-7.5	0.	142.57
94	-2.5	-7.	0.	111.61
95	-2.5	-8.	0.	110.65
96	-2.	-7.5	0.	142.51
97	-4.	3.5	0.	142.39
98	-4.	3.	0.	142.43
99	-4.	2.5	0.	141.9
100	-3.5	4.	0.	109.92
101	-3.5	2.	0.	107.62
102	-3.	3.5	0.	141.78
103	-3.	3.	0.	141.85
104	-3.	2.5	0.	141.04
105	-3.	7.5	0.	143.57
106	-2.5	8.	0.	117.3
107	-2.	8.	0.	122.53
108	-1.5	8.	0.	116.98
109	-2.5	7.	0.	116.12
110	-2.	7.	0.	121.73
111	-1.5	7.	0.	116.8
112	-1.	7.5	0.	143.19
113	7.	1.5	0.	140.44
114	7.	1.	0.	141.07
115	7.	0.5	0.	141.02
116	7.5	2.	0.	107.21
117	7.5	0.	0.	108.09
118	8.	1.5	0.	141.34
119	8.	1.	0.	141.98
120	8.	0.5	0.	141.65
121	7.	8.5	0.	146.28
122	7.5	9.	0.	121.5
123	8.	9.	0.	128.04
124	8.5	9.	0.	121.49
125	7.5	8.	0.	121.6
126	8.	8.	0.	122.93
127	8.5	8.	0.	114.92
128	9.	8.5	0.	146.57
129	-8.	0.5	0.	142.5
130	-7.5	1.	0.	115.56
131	-7.	1.	0.	121.14
132	-6.5	1.	0.	117.22
133	-7.5	0.	0.	110.88
134	-7.	0.	0.	119.4
135	-6.5	0.	0.	119.98
136	-6.	0.5	0.	146.46
137	-8.	-1.5	0.	140.95
138	-8.	-2.	0.	141.33
139	-8.	-2.5	0.	141.08
140	-7.5	-1.	0.	103.82
141	-7.5	-3.	0.	106.77
142	-7.	-1.5	0.	135.76
143	-7.	-2.	0.	137.58
144	-7.	-2.5	0.	138.37
145	6.	-7.5	0.	142.63
146	6.5	-7.	0.	114.33
147	6.5	-8.	0.	111.98
148	7.	-7.5	0.	144.67
149	-7.	7.5	0.	145.89
150	-7.	7.	0.	146.9
151	-7.	6.5	0.	145.51
152	-6.5	8.	0.	115.41
153	-6.	8.	0.	119.91
154	-5.5	8.	0.	114.92
155	-6.5	6.	0.	115.48
156	-6.	6.	0.	120.09
157	-5.5	6.	0.	115.78
158	-5.	7.5	0.	144.11
159	-5.	7.	0.	145.75
160	-5.	6.5	0.	145.6
161	-2.	-2.5	0.	144.16
162	-1.5	-2.	0.	118.84
163	-1.	-2.	0.	124.12
164	-0.5	-2.	0.	118.84
165	-1.5	-3.	0.	118.27
166	-1.	-3.	0.	123.11
167	-0.5	-3.	0.	117.64
168	0.	-2.5	0.	144.51
169	-5.	-5.5	0.	144.13
170	-4.5	-5.	0.	112.53
171	-4.5	-6.	0.	112.55
172	-4.	-5.5	0.	143.38
173	2.	7.5	0.	142.86
174	2.5	8.	0.	117.24
175	3.	8.	0.	122.72
176	3.5	8.	0.	117.27
177	2.5	7.	0.	116.42
178	3.	7.	0.	121.81
179	3.5	7.	0.	116.78
180	4.	7.5	0.	143.35
181	1.	-7.5	0.	140.28
182	1.	-8.	0.	140.25
183	1.	-8.5	0.	139.72
184	1.5	-7.	0.	108.02
185	1.5	-9.	0.	105.57
186	2.	-7.5	0.	139.19
187	2.	-8.	0.	139.16
188	2.	-8.5	0.	138.92
189	3.	-3.5	0.	142.84
190	3.	-4.	0.	144.4
191	3.	-4.5	0.	143.79
192	3.5	-3.	0.	113.19
193	4.	-3.	0.	117.87
194	4.5	-3.	0.	113.67
195	3.5	-5.	0.	114.19
196	4.	-5.	0.	117.61
197	4.5	-5.	0.	112.69
198	5.	-3.5	0.	143.56
199	5.	-4.	0.	144.12
200	5.	-4.5	0.	142.67
201	8.	-4.5	0.	144.37
202	8.5	-4.	0.	112.57
203	8.5	-5.	0.	113.97
204	9.	-4.5	0.	147.06
205	1.	1.5	0.	140.37
206	1.	1.	0.	141.27
207	1.	0.5	0.	141.65
208	1.5	2.	0.	106.66
209	1.5	0.	0.	109.07
210	2.	1.5	0.	139.69
211	2.	1.	0.	140.38
212	2.	0.5	0.	140.49
213	9.5	10.	0.	124.68
214	9.	10.	0.	121.86
215	8.5	10.	0.	118.9
216	8.	10.	0.	117.7
217	7.5	10.	0.	120.53
218	7.	10.	0.	125.51
219	6.5	10.	0.	130.65
220	6.	10.	0.	131.72
221	5.5	10.	0.	130.49
222	5.	10.	0.	129.01
223	4.5	10.	0.	127.03
224	4.	10.	0.	124.76
225	3.5	10.	0.	122.89
226	3.	10.	0.	122.16
227	2.5	10.	0.	122.88
228	2.	10.	0.	124.7
229	1.5	10.	0.	126.82
230	1.	10.	0.	128.37
231	0.5	10.	0.	128.94
232	-5.2042e-015	10.	0.	128.49
233	-0.5	10.	0.	127.06
234	-1.	10.	0.	125.03
235	-1.5	10.	0.	123.28
236	-2.	10.	0.	122.61
237	-2.5	10.	0.	123.34
238	-3.	10.	0.	125.04
239	-3.5	10.	0.	126.65
240	-4.	10.	0.	126.98
241	-4.5	10.	0.	125.55
242	-5.	10.	0.	123.02
243	-5.5	10.	0.	120.72
244	-6.	10.	0.	119.67
245	-6.5	10.	0.	120.23
246	-7.	10.	0.	122.01
247	-7.5	10.	0.	124.09
248	-8.	10.	0.	125.49
249	-8.5	10.	0.	125.9
250	-9.	10.	0.	125.62
251	-9.5	10.	0.	125.17
252	10.	9.5	0.	123.75
253	10.	9.	0.	120.83
254	10.	8.5	0.	120.46
255	10.	8.	0.	129.62
256	10.	7.5	0.	136.87
257	10.	7.	0.	134.51
258	10.	6.5	0.	129.11
259	10.	6.	0.	131.2
260	10.	5.5	0.	133.88
261	10.	5.	0.	133.09
262	10.	4.5	0.	130.99
263	10.	4.	0.	129.95
264	10.	3.5	0.	129.75
265	10.	3.	0.	129.6
266	10.	2.5	0.	128.83
267	10.	2.	0.	127.41
268	10.	1.5	0.	126.07
269	10.	1.	0.	125.67
270	10.	0.5	0.	126.42
271	10.	-5.2042e-015	0.	128.02
272	10.	-0.5	0.	129.59
273	10.	-1.	0.	130.38
274	10.	-1.5	0.	130.42
275	10.	-2.	0.	130.42
276	10.	-2.5	0.	131.17
277	10.	-3.	0.	132.88
278	10.	-3.5	0.	133.06
279	10.	-4.	0.	129.39
280	10.	-4.5	0.	125.89
281	10.	-5.	0.	130.07
282	10.	-5.5	0.	133.9
283	10.	-6.	0.	133.2
284	10.	-6.5	0.	130.54
285	10.	-7.	0.	128.71
286	10.	-7.5	0.	128.01
287	10.	-8.	0.	128.24
288	10.	-8.5	0.	129.02
289	10.	-9.	0.	129.92
290	10.	-9.5	0.	130.57
291	-10.	9.5	0.	124.7
292	-10.	9.	0.	123.65
293	-10.	8.5	0.	122.4
294	-10.	8.	0.	121.3
295	-10.	7.5	0.	120.71
296	-10.	7.	0.	120.93
297	-10.	6.5	0.	122.06
298	-10.	6.	0.	123.86
299	-10.	5.5	0.	125.9
300	-10.	5.	0.	127.75
301	-10.	4.5	0.	129.2
302	-10.	4.	0.	130.27
303	-10.	3.5	0.	131.11
304	-10.	3.	0.	131.8
305	-10.	2.5	0.	132.21
306	-10.	2.	0.	131.99
307	-10.	1.5	0.	130.92
308	-10.	1.	0.	129.6
309	-10.	0.5	0.	129.27
310	-10.	-5.2042e-015	0.	130.44
311	-10.	-0.5	0.	131.68
312	-10.	-1.	0.	131.61
313	-10.	-1.5	0.	130.4
314	-10.	-2.	0.	129.27
315	-10.	-2.5	0.	128.97
316	-10.	-3.	0.	129.58
317	-10.	-3.5	0.	130.31
318	-10.	-4.	0.	130.38
319	-10.	-4.5	0.	129.69
320	-10.	-5.	0.	128.66
321	-10.	-5.5	0.	127.71
322	-10.	-6.	0.	127.02
323	-10.	-6.5	0.	126.62
324	-10.	-7.	0.	126.43
325	-10.	-7.5	0.	126.38
326	-10.	-8.	0.	126.4
327	-10.	-8.5	0.	126.46
328	-10.	-9.	0.	126.52
329	-10.	-9.5	0.	126.55
330	-9.5	-10.	0.	126.51
331	-9.	-10.	0.	126.48
332	-8.5	-10.	0.	126.45
333	-8.	-10.	0.	126.41
334	-7.5	-10.	0.	126.34
335	-7.	-10.	0.	126.24
336	-6.5	-10.	0.	126.09
337	-6.	-10.	0.	125.93
338	-5.5	-10.	0.	125.8
339	-5.	-10.	0.	125.7
340	-4.5	-10.	0.	125.48
341	-4.	-10.	0.	124.82
342	-3.5	-10.	0.	123.41
343	-3.	-10.	0.	121.81
344	-2.5	-10.	0.	121.58
345	-2.	-10.	0.	123.57
346	-1.5	-10.	0.	126.87
347	-1.	-10.	0.	129.86
348	-0.5	-10.	0.	131.79
349	5.2042e-015	-10.	0.	132.42
350	0.5	-10.	0.	128.93
351	1.	-10.	0.	118.39
352	1.5	-10.	0.	111.75
353	2.	-10.	0.	117.76
354	2.5	-10.	0.	127.52
355	3.	-10.	0.	129.8
356	3.5	-10.	0.	127.56
357	4.	-10.	0.	124.57
358	4.5	-10.	0.	122.75
359	5.	-10.	0.	122.69
360	5.5	-10.	0.	123.1
361	6.	-10.	0.	122.83
362	6.5	-10.	0.	122.84
363	7.	-10.	0.	124.31
364	7.5	-10.	0.	126.67
365	8.	-10.	0.	128.54
366	8.5	-10.	0.	129.43
367	9.	-10.	0.	129.73
368	9.5	-10.	0.	130.
369	4.5	3.5	0.	127.24
370	4.5	1.	0.	124.6
371	5.	4.	0.	127.61
372	4.5	4.	0.	127.02
373	3.5	4.5	0.	124.15
374	3.	4.5	0.	123.14
375	4.5	3.	0.	127.21
376	4.5	1.5	0.	125.18
377	4.5	0.5	0.	124.37
378	5.5	5.	0.	128.01
379	3.	5.	0.	121.89
380	3.5	4.	0.	125.19
381	4.	1.	0.	124.63
382	4.	3.5	0.	126.7
383	-0.5	4.	0.	127.56
384	8.2724e-010	4.5	0.	127.42
385	5.	3.5	0.	127.71
386	6.	4.5	0.	127.18
387	5.5	4.	0.	127.68
388	5.	1.	0.	125.12
389	0.5	5.	0.	127.67
390	6.	5.	0.	127.53
391	-6.4991	3.4999	0.	120.39
392	-6.4988	2.9999	0.	120.1
393	-5.9992	3.4999	0.	121.44
394	-0.5	-5.	0.	124.47
395	4.5	4.5	0.	126.8
396	1.5	4.5	0.	123.84
397	0.5	4.5	0.	126.51
398	2.5	4.5	0.	122.72
399	2.	4.5	0.	122.97
400	4.5	2.	0.	126.
401	4.5	-0.5	0.	124.04
402	-6.9991	2.9999	0.	119.81
403	3.5	5.	0.	123.
404	5.	5.	0.	127.87
405	1.	5.	0.	126.54
406	2.5	5.	0.	122.07
407	4.	-1.	0.	122.35
408	4.	0.5	0.	124.36
409	-1.	3.	0.	127.66
410	1.2584e-009	4.	0.	126.97
411	3.	4.	0.	124.2
412	1.5	4.	0.	122.48
413	4.	1.5	0.	125.19
414	4.	3.	0.	126.95
415	-0.5	4.5	0.	127.7
416	-1.	3.5	0.	127.7
417	-1.	1.	0.	126.31
418	-2.	-4.5326e-007	0.	124.96
419	5.	3.	0.	127.67
420	5.	1.5	0.	125.62
421	6.	4.	0.	127.
422	5.	0.5	0.	125.04
423	2.2881e-009	5.	0.	128.2
424	6.	5.5	0.	127.74
425	-8.1223e-012	-5.	0.	125.52
426	-6.9992	3.4999	0.	120.82
427	-6.4994	3.9999	0.	120.42
428	4.5	-1.	0.	123.16
429	-5.9989	2.9999	0.	121.94
430	-5.9995	4.	0.	120.9
431	5.5	5.5	0.	128.42
432	-0.5	3.5	0.	127.63
433	3.5	3.5	0.	126.16
434	-0.5	-5.5	0.	126.43
435	-1.5	0.5	0.	125.58
436	-3.5	-6.9127e-006	0.	121.68
437	-7.	-7.	0.	126.33
438	-7.	-5.5	0.	124.42
439	5.5	3.5	0.	127.88
440	0.5	5.5	0.	128.84
441	-1.	-5.	0.	123.64
442	3.	5.5	0.	120.19
443	3.5	1.	0.	125.42
444	-0.5	1.	0.	126.87
445	4.	-1.5	0.	119.86
446	-1.5	3.	0.	127.95
447	6.5	4.5	0.	126.08
448	-6.999	2.4999	0.	118.5
449	-1.5	-1.6458e-007	0.	124.8
450	-1.	0.5	0.	125.68
451	5.5	1.	0.	126.25
452	4.	5.	0.	124.95
453	4.5	5.	0.	126.81
454	1.5	5.	0.	125.01
455	2.	5.	0.	123.33
456	4.	-0.5	0.	123.72
457	4.	-1.6146e-011	0.	124.22
458	-1.	2.5	0.	127.52
459	0.5	4.	0.	125.62
460	2.5	4.	0.	123.19
461	2.	4.	0.	122.39
462	4.	2.5	0.	126.7
463	-1.	4.	0.	127.75
464	-1.	4.5	0.	127.61
465	-1.	1.5	0.	126.84
466	-1.	2.	0.	127.27
467	-2.5	-1.3895e-006	0.	124.22
468	-3.	-3.5193e-006	0.	122.54
469	-7.	-6.	0.	125.15
470	-7.	-6.5	0.	125.89
471	5.	2.5	0.	127.24
472	7.	4.	0.	123.32
473	6.5	4.	0.	125.44
474	5.	-0.5	0.	125.53
475	-1.	5.	0.	127.1
476	-0.5	5.	0.	127.96
477	6.	6.	0.	127.78
478	0.5	-5.	0.	126.1
479	-6.9995	3.9999	0.	121.71
480	7.	-2.	0.	126.12
481	5.	-1.	0.	125.46
482	-5.4991	2.9999	0.	124.78
483	-5.9997	4.5	0.	119.72
484	-5.9999	5.	0.	117.47
485	-1.	-4.	0.	119.55
486	-1.	-5.9409e-008	0.	124.94
487	-1.	-0.5	0.	123.68
488	-1.	-1.	0.	121.52
489	-6.9993	2.	0.	116.78
490	7.	4.5	0.	124.59
491	-2.	3.	0.	129.59
492	-4.9994	3.	0.	128.42
493	6.	-4.	0.	129.21
494	4.	-2.	0.	116.4
495	2.	-4.	0.	129.26
496	8.6475e-008	1.	0.	128.82
497	3.	1.	0.	127.57
498	3.	6.	0.	118.04
499	6.5	5.	0.	126.78
500	7.	-2.5	0.	127.26
501	7.5	-2.	0.	123.94
502	-1.5	-4.5	0.	122.75
503	-1.5	-5.	0.	123.36
504	-2.	5.5	0.	122.88
505	-5.4994	3.5	0.	123.92
506	-6.499	2.4999	0.	119.64
507	1.5	-4.5	0.	127.32
508	-0.5	0.5	0.	126.59
509	-5.5	-2.5	0.	126.21
510	2.6523e-009	5.5	0.	129.17
511	-1.5	5.5	0.	124.01
512	5.5	-1.	0.	128.02
513	5.5	0.5	0.	126.34
514	7.5	-1.5	0.	122.24
515	6.	3.5	0.	127.3
516	7.5	4.	0.	121.6
517	7.5	3.5	0.	120.13
518	5.5	1.5	0.	126.6
519	5.5	3.	0.	128.14
520	-7.	-5.	0.	123.9
521	-6.5	-7.5	0.	126.58
522	-7.	-7.5	0.	126.42
523	-7.5	-7.5	0.	126.25
524	-7.5	-7.	0.	125.99
525	-7.5	-6.5	0.	125.5
526	-7.5	-6.	0.	124.81
527	-7.5	-5.5	0.	124.01
528	-7.5	-5.	0.	123.03
529	-7.5	-4.5	0.	121.44
530	-6.5	-7.	0.	126.93
531	-6.5	-5.5	0.	125.54
532	-4.5	-7.5	0.	121.66
533	-6.	-7.5	0.	126.36
534	-6.4997	4.4999	0.	119.95
535	-7.4993	2.5	0.	120.09
536	-7.4992	2.9999	0.	121.26
537	-7.4994	3.4999	0.	122.43
538	-7.4995	3.9999	0.	123.8
539	6.5	-4.5	0.	127.27
540	-1.5	-0.5	0.	124.09
541	-3.5	-0.5	0.	122.17
542	-4.	-1.4926e-005	0.	123.04
543	1.	-4.5	0.	126.89
544	-0.5	-4.5	0.	122.6
545	1.5	-4.	0.	127.7
546	-2.	0.5	0.	125.43
547	-3.5	0.49999	0.	120.14
548	-1.5	2.5	0.	127.75
549	-1.5	1.	0.	126.5
550	-1.5	5.	0.	126.32
551	-1.5	3.5	0.	128.1
552	6.5	-2.	0.	128.74
553	4.5	-1.5	0.	121.48
554	6.	-1.5	0.	129.72
555	-2.9008e-011	-5.5	0.	126.96
556	-0.5	-6.	0.	128.15
557	-0.5	-7.5	0.	127.48
558	-2.5	-5.5	0.	121.71
559	-1.	-5.5	0.	125.6
560	3.5	3.	0.	126.91
561	3.5	1.5	0.	125.86
562	3.	3.5	0.	125.39
563	2.3542e-009	3.5	0.	127.11
564	1.5	3.5	0.	120.56
565	-0.5	1.5	0.	127.22
566	-0.5	3.	0.	127.89
567	3.5	0.5	0.	125.23
568	3.5	-1.5	0.	121.25
569	3.5	-1.	0.	123.51
570	0.5	6.	0.	129.45
571	0.5	7.5	0.	124.88
572	2.5	5.5	0.	121.06
573	1.	5.5	0.	127.99
574	5.	5.5	0.	128.54
575	3.5	5.5	0.	121.64
576	5.5	6.	0.	128.75
577	6.	6.5	0.	127.94
578	5.5	6.5	0.	128.62
579	5.5	7.	0.	127.73
580	4.	5.5	0.	124.62
581	4.5	5.5	0.	127.33
582	2.	5.5	0.	123.62
583	3.5	-0.5	0.	124.85
584	3.5	-2.6586e-011	0.	125.15
585	-0.5	2.5	0.	127.99
586	-0.5	2.	0.	127.62
587	0.5	3.5	0.	125.28
588	2.5	3.5	0.	123.78
589	2.	3.5	0.	121.54
590	3.5	2.5	0.	127.08
591	-1.5	-5.5	0.	124.28
592	-2.	-5.5	0.	122.46
593	-0.5	-7.	0.	127.99
594	1.	-5.5	0.	125.24
595	0.5	-5.5	0.	126.53
596	3.	-1.5	0.	124.33
597	2.5	-1.5	0.	126.13
598	5.	-1.5	0.	125.2
599	6.5	-2.5	0.	129.26
600	-1.5	4.	0.	128.12
601	-1.5	4.5	0.	127.76
602	-1.5	1.5	0.	127.25
603	-1.5	2.	0.	127.51
604	1.5	-3.	0.	127.16
605	0.5	-4.5	0.	126.34
606	-4.5	-2.3082e-005	0.	126.08
607	-2.	-0.5	0.	125.55
608	-2.5	-0.5	0.	125.59
609	-3.	-0.5	0.	123.63
610	6.5	-3.5	0.	128.41
611	6.5	-4.	0.	127.49
612	-6.9997	4.4999	0.	122.63
613	-5.5	-7.5	0.	125.04
614	-5.	-7.5	0.	122.81
615	-6.5	-6.5	0.	126.81
616	-7.	-4.5	0.	123.23
617	-6.5	-5.	0.	125.87
618	5.5	2.5	0.	128.01
619	5.5	2.	0.	127.28
620	6.5	3.5	0.	125.28
621	6.5	-1.5	0.	128.08
622	7.	-1.5	0.	124.73
623	5.5	-0.5	0.	127.58
624	0.5	6.5	0.	128.6
625	0.5	7.	0.	126.28
626	-0.5	5.5	0.	128.41
627	-7.4994	2.	0.	118.69
628	-6.	-2.	0.	127.36
629	3.5	6.	0.	119.97
630	5.4719e-008	0.5	0.	128.38
631	3.	1.5	0.	127.19
632	2.	-4.5	0.	128.72
633	3.5	-2.	0.	118.47
634	6.	-3.5	0.	129.37
635	-2.	3.5	0.	129.18
636	-5.999	2.4999	0.	122.82
637	-5.4991	2.4999	0.	126.4
638	-4.9994	2.4999	0.	129.23
639	-0.5	-4.	0.	120.7
640	-1.5	-1.	0.	122.98
641	-5.4996	4.	0.	123.4
642	-5.4998	4.5	0.	122.75
643	6.	0.5	0.	128.1
644	-1.5	6.	0.	121.27
645	-2.5	5.5	0.	123.04
646	-3.	5.5	0.	123.97
647	5.5	7.5	0.	126.69
648	-2.	-4.5	0.	124.98
649	7.5	-2.5	0.	125.07
650	-3.9999	0.49998	0.	121.92
651	-5.5	-2.	0.	126.88
652	6.5	5.5	0.	127.
653	6.5	6.	0.	126.63
654	6.5	6.5	0.	126.86
655	-4.	-7.5	0.	122.79
656	-3.	-5.5	0.	123.04
657	-4.	7.5	0.	129.08
658	-7.9994	2.5	0.	123.6
659	-7.9995	2.9999	0.	123.82
660	-7.9995	3.4999	0.	124.55
661	-7.9996	3.9999	0.	125.76
662	-7.9997	4.4999	0.	127.49
663	1.	7.5	0.	124.86
664	0.5	8.	0.	125.51
665	-7.5	-4.	0.	118.22
666	-4.5	-8.	0.	123.38
667	-5.	-8.	0.	123.71
668	-5.5	-8.	0.	124.83
669	-6.	-8.	0.	125.78
670	-6.5	-8.	0.	126.23
671	-7.	-8.	0.	126.34
672	-7.5	-8.	0.	126.33
673	-8.	-8.	0.	126.33
674	-8.	-7.5	0.	126.2
675	-8.	-7.	0.	125.94
676	-8.	-6.5	0.	125.53
677	-8.	-6.	0.	125.
678	-8.	-5.5	0.	124.4
679	-8.	-5.	0.	123.71
680	-8.	-4.5	0.	122.85
681	-1.	-7.5	0.	126.77
682	-4.307e-012	-8.	0.	129.27
683	-0.5	-8.	0.	128.01
684	7.5	3.	0.	117.26
685	8.	4.	0.	121.18
686	8.	3.5	0.	121.06
687	-5.5	-1.5	0.	128.81
688	5.	7.5	0.	125.84
689	5.	6.	0.	129.58
690	2.5	6.	0.	119.61
691	1.	6.	0.	129.27
692	3.	0.5	0.	126.98
693	3.	-1.	0.	125.95
694	1.5	-2.	0.	126.37
695	1.5	-1.5	0.	125.2
696	1.5	-1.	0.	121.59
697	7.7082e-008	1.5	0.	128.33
698	6.6109e-009	3.	0.	128.03
699	1.5	3.	0.	117.27
700	3.	3.	0.	126.9
701	-2.5	-6.	0.	119.3
702	-1.	-6.	0.	127.75
703	1.5	-5.	0.	126.68
704	1.5	-6.	0.	121.41
705	-3.5944e-011	-6.	0.	128.75
706	2.	-3.5	0.	128.5
707	2.	-2.	0.	127.27
708	4.5	-2.	0.	119.09
709	6.	-2.	0.	130.72
710	6.	-4.5	0.	128.46
711	-4.9996	3.5	0.	127.22
712	-2.	5.	0.	126.36
713	-2.	2.5	0.	128.74
714	-2.	1.	0.	126.86
715	-3.4999	0.99998	0.	117.26
716	7.5	4.5	0.	122.68
717	8.	4.5	0.	120.86
718	7.	5.	0.	126.08
719	-6.	-2.5	0.	126.96
720	-6.4992	1.9999	0.	118.94
721	-4.9999	0.49996	0.	127.96
722	-0.5	-2.0875e-008	0.	126.26
723	-0.5	-0.5	0.	125.59
724	-0.5	-1.	0.	123.79
725	1.	-2.5	0.	126.24
726	1.	-4.	0.	128.05
727	-1.5	-4.	0.	121.87
728	-5.	-2.5	0.	125.53
729	-5.	-1.	0.	131.5
730	-3.5	-1.	0.	120.64
731	6.5	-5.5	0.	128.51
732	3.	-7.5	0.	125.59
733	8.	-7.5	0.	127.32
734	7.	-4.5	0.	126.94
735	7.	-3.	0.	128.35
736	8.	-1.5	0.	122.74
737	8.	-2.	0.	123.12
738	8.	-2.5	0.	122.98
739	-6.4998	5.	0.	118.75
740	-7.9999	4.9999	0.	129.68
741	-2.5	-5.	0.	123.9
742	-2.5	-4.5	0.	126.58
743	-4.5	-7.	0.	119.51
744	-6.	-7.	0.	127.58
745	-6.	-5.5	0.	126.59
746	-6.	-4.	0.	130.8
747	-5.5	-3.5	0.	128.82
748	6.	7.	0.	128.61
749	5.5	8.	0.	125.76
750	6.	1.5	0.	128.06
751	6.	3.	0.	128.28
752	7.5	-1.	0.	118.99
753	6.	-1.	0.	129.66
754	-2.5	6.	0.	120.6
755	-3.5	5.	0.	122.02
756	-3.5	5.5	0.	126.01
757	2.6577e-011	7.5	0.	124.97
758	1.8066e-009	6.	0.	130.07
759	-0.5	6.	0.	129.54
760	8.7336e-010	6.5	0.	129.73
761	3.3008e-010	7.	0.	127.36
762	-4.	7.	0.	131.05
763	-4.	6.5	0.	131.58
764	-3.5	6.	0.	128.61
765	-3.	6.	0.	124.43
766	6.	-0.5	0.	129.69
767	6.5	-1.	0.	128.6
768	7.	-1.	0.	123.08
769	7.	3.	0.	120.9
770	6.5	3.	0.	126.45
771	6.	2.5	0.	129.05
772	6.	2.	0.	128.69
773	6.	7.5	0.	128.89
774	-6.	-4.5	0.	130.28
775	-6.	-5.	0.	128.48
776	-6.	-6.	0.	127.75
777	-6.	-6.5	0.	128.44
778	-5.5	-7.	0.	126.67
779	-5.	-7.	0.	122.32
780	-3.	-5.	0.	125.39
781	-3.	-4.5	0.	127.17
782	-3.5	-4.	0.	122.64
783	-7.9999	5.5	0.	131.21
784	-7.4998	4.9999	0.	128.54
785	-6.9998	5.	0.	123.76
786	-4.9999	5.	0.	127.91
787	-4.	6.	0.	131.54
788	8.	-3.	0.	122.5
789	7.5	-3.	0.	126.79
790	7.	-3.5	0.	128.84
791	7.	-4.	0.	128.05
792	7.	-5.5	0.	129.95
793	8.	-6.	0.	127.56
794	8.	-7.	0.	128.38
795	8.	-6.5	0.	128.86
796	-3.	-1.	0.	124.62
797	-2.5	-1.	0.	129.14
798	-4.5	-1.	0.	128.83
799	-5.	-2.	0.	127.65
800	-5.	-3.5	0.	127.55
801	-3.	-4.	0.	127.17
802	-2.5	-4.	0.	130.35
803	-2.	-4.	0.	126.99
804	0.5	-4.	0.	127.84
805	1.	-2.	0.	127.57
806	1.	-1.5	0.	128.06
807	8.6445e-009	-1.	0.	128.75
808	-5.	-0.50001	0.	131.53
809	-5.	-2.255e-005	0.	129.75
810	-4.9998	0.99994	0.	130.35
811	-5.4993	1.9999	0.	129.3
812	-5.9992	1.9999	0.	124.25
813	-7.	-4.	0.	121.93
814	-6.5	-4.	0.	128.03
815	-6.	-3.5	0.	130.03
816	7.	6.	0.	125.97
817	7.	5.5	0.	126.85
818	8.	5.	0.	120.14
819	-4.9995	1.9999	0.	131.41
820	-4.9997	1.4999	0.	132.44
821	-4.4999	0.99995	0.	127.02
822	-3.9999	0.99997	0.	120.93
823	-2.5	1.	0.	125.59
824	-2.	1.5	0.	128.26
825	-2.	2.	0.	128.68
826	-2.	4.	0.	129.4
827	-2.	4.5	0.	128.8
828	-3.	5.	0.	123.17
829	-4.	5.	0.	127.21
830	-4.4999	5.	0.	131.88
831	-4.9998	4.5	0.	128.03
832	-4.9997	4.	0.	127.51
833	6.	-5.5	0.	130.32
834	6.	-5.	0.	129.42
835	6.	-2.5	0.	131.41
836	5.	-2.	0.	125.13
837	3.	-2.	0.	123.59
838	2.5	-2.	0.	127.47
839	2.	-3.	0.	128.6
840	2.	-5.	0.	129.03
841	2.	-5.5	0.	128.56
842	3.	-6.	0.	127.9
843	1.	-6.	0.	123.7
844	0.5	-6.	0.	127.98
845	-3.1134e-011	-6.5	0.	129.74
846	-1.9905e-011	-7.	0.	129.19
847	3.	-7.	0.	127.32
848	3.	-6.5	0.	128.73
849	2.5	-6.	0.	131.02
850	2.	-6.	0.	126.1
851	-1.	-7.	0.	128.22
852	-1.	-6.5	0.	129.
853	-2.	-6.	0.	121.95
854	3.	2.	0.	127.75
855	3.	2.5	0.	127.96
856	2.5	3.	0.	125.38
857	2.	3.	0.	120.41
858	1.	3.	0.	120.88
859	0.5	3.	0.	126.32
860	2.1547e-008	2.5	0.	128.91
861	5.8583e-008	2.	0.	128.77
862	3.8093e-008	-7.8519e-009	0.	128.95
863	2.146e-008	-0.5	0.	129.34
864	0.5	-1.	0.	131.23
865	1.	-1.	0.	126.16
866	2.5	-1.	0.	127.02
867	3.	-0.5	0.	127.27
868	3.	-2.6087e-011	0.	127.32
869	1.	6.5	0.	129.22
870	2.	6.	0.	124.03
871	4.	6.	0.	124.69
872	4.5	6.	0.	128.87
873	5.	6.5	0.	129.87
874	5.	7.	0.	128.19
875	-6.	-1.5	0.	127.32
876	8.	-8.	0.	129.07
877	8.	3.	0.	120.52
878	-1.	-8.	0.	128.35
879	-8.	-4.	0.	121.72
880	1.	8.	0.	126.57
881	-8.	8.	0.	130.12
882	5.	8.	0.	126.59
883	7.8511e-012	8.	0.	126.57
884	-4.	8.	0.	131.33
885	-8.	8.5	0.	130.04
886	-4.	8.5	0.	132.64
887	6.2048e-012	8.5	0.	128.31
888	0.5	8.5	0.	127.23
889	1.	8.5	0.	128.34
890	5.	8.5	0.	127.29
891	5.5	8.5	0.	125.46
892	6.	8.5	0.	125.27
893	-7.9995	2.	0.	123.92
894	-8.5	-8.	0.	126.36
895	-8.5	-7.5	0.	126.25
896	-8.5	-7.	0.	126.08
897	-8.5	-6.5	0.	125.85
898	-8.5	-6.	0.	125.58
899	-8.5	-5.5	0.	125.36
900	-8.5	-5.	0.	125.3
901	-8.5	-4.5	0.	125.64
902	-8.5	-4.	0.	127.25
903	-8.4996	2.	0.	128.96
904	-8.4996	2.5	0.	127.09
905	-8.4996	3.	0.	126.47
906	-8.4996	3.4999	0.	126.57
907	-8.4997	3.9999	0.	127.21
908	-8.4998	4.4999	0.	128.16
909	-8.4999	5.	0.	129.08
910	-8.4999	5.5	0.	129.38
911	-8.5	6.	0.	128.75
912	-8.5	6.5	0.	127.94
913	-8.5	7.	0.	127.39
914	-8.5	7.5	0.	127.27
915	-8.5	8.	0.	127.45
916	-8.5	8.5	0.	127.54
917	-4.	-8.	0.	124.87
918	-1.4538e-012	-8.5	0.	129.55
919	-1.	-8.5	0.	129.82
920	-4.	-8.5	0.	126.27
921	-4.5	-8.5	0.	124.9
922	-5.	-8.5	0.	124.69
923	-5.5	-8.5	0.	125.11
924	-6.	-8.5	0.	125.67
925	-6.5	-8.5	0.	126.07
926	-7.	-8.5	0.	126.27
927	-7.5	-8.5	0.	126.35
928	-8.	-8.5	0.	126.38
929	-8.5	-8.5	0.	126.41
930	8.	-1.	0.	121.8
931	8.5	5.	0.	117.98
932	8.5	4.5	0.	120.78
933	8.5	4.	0.	122.38
934	8.5	3.5	0.	123.68
935	8.5	3.	0.	125.84
936	8.5	-1.	0.	126.9
937	8.5	-1.5	0.	125.
938	8.5	-2.	0.	123.91
939	8.5	-2.5	0.	122.52
940	8.5	-3.	0.	120.01
941	-5.5	-1.	0.	131.45
942	8.	-8.5	0.	130.27
943	8.5	-6.	0.	123.31
944	8.5	-6.5	0.	126.04
945	8.5	-7.	0.	126.79
946	8.5	-7.5	0.	127.27
947	8.5	-8.	0.	128.21
948	8.5	-8.5	0.	129.31
949	-3.	-6.	0.	123.42
950	-4.	-7.	0.	123.41
951	7.	6.5	0.	124.7
952	6.5	7.	0.	128.7
953	7.	7.	0.	126.49
954	4.5	6.5	0.	132.16
955	1.5	6.5	0.	131.37
956	1.5	8.5	0.	131.42
957	4.5	8.5	0.	130.93
958	2.5	-0.5	0.	130.37
959	0.5	-0.5	0.	133.
960	0.5	2.5	0.	129.92
961	2.5	2.5	0.	129.16
962	-3.5	-8.5	0.	128.62
963	-1.5	-6.5	0.	130.46
964	-1.5	-8.5	0.	131.14
965	2.5	-6.5	0.	132.01
966	8.5	-9.	0.	129.67
967	8.	-9.	0.	129.79
968	7.5	-9.	0.	128.34
969	7.	-9.	0.	123.56
970	6.5	-9.	0.	120.47
971	6.	-9.	0.	123.44
972	5.5	-9.	0.	126.42
973	5.	-9.	0.	122.83
974	4.5	-9.	0.	119.41
975	4.	-9.	0.	122.37
976	3.5	-9.	0.	127.4
977	3.	-9.	0.	129.5
978	0.5	-6.5	0.	131.36
979	2.5	-5.5	0.	133.44
980	5.5	-2.5	0.	133.71
981	5.5	-5.5	0.	132.77
982	-4.4999	4.5	0.	133.01
983	-2.5	4.5	0.	130.87
984	-2.5	1.5	0.	129.68
985	-4.4998	1.4999	0.	131.71
986	7.5	5.5	0.	127.92
987	-6.	-1.	0.	128.48
988	-6.5	-3.5	0.	130.77
989	-8.5	-3.5	0.	131.27
990	-8.5	-0.5	0.	138.08
991	-8.4998	1.5	0.	132.74
992	-5.4996	1.4999	0.	133.99
993	-5.5	-0.50001	0.	135.61
994	0.5	-1.5	0.	133.24
995	0.5	-3.5	0.	131.45
996	-2.5	-3.5	0.	137.42
997	-4.5	-3.5	0.	127.99
998	-4.5	-1.5	0.	131.45
999	-2.5	-1.5	0.	136.62
1000	7.5	-6.5	0.	133.59
1001	7.5	-8.5	0.	131.93
1002	5.5	-8.5	0.	133.64
1003	3.5	-8.5	0.	129.51
1004	3.5	-6.5	0.	126.22
1005	5.5	-6.5	0.	136.53
1006	7.5	-5.5	0.	133.61
1007	7.5	-3.5	0.	130.62
1008	9.	5.	0.	122.35
1009	9.	4.5	0.	123.59
1010	9.	4.	0.	124.84
1011	9.	3.5	0.	126.19
1012	9.	3.	0.	127.93
1013	9.	2.5	0.	129.38
1014	9.	2.	0.	129.66
1015	9.	1.5	0.	129.52
1016	9.	1.	0.	130.2
1017	9.	0.5	0.	129.8
1018	9.	-1.0219e-012	0.	130.2
1019	9.	-0.5	0.	130.13
1020	9.	-1.	0.	128.81
1021	9.	-1.5	0.	127.19
1022	9.	-2.	0.	125.95
1023	9.	-2.5	0.	124.81
1024	9.	-3.	0.	123.75
1025	-4.5	5.5	0.	134.89
1026	-7.4999	5.5	0.	133.3
1027	-7.5	8.5	0.	133.23
1028	-4.5	8.5	0.	133.76
1029	-3.5	-4.5	0.	128.54
1030	-3.5	-6.5	0.	134.75
1031	-5.5	-6.5	0.	130.76
1032	-5.5	-4.5	0.	133.43
1033	9.	-6.	0.	125.48
1034	9.	-6.5	0.	126.52
1035	9.	-7.	0.	127.14
1036	9.	-7.5	0.	127.6
1037	9.	-8.	0.	128.29
1038	9.	-8.5	0.	129.04
1039	9.	-9.	0.	129.52
1040	-9.2775e-014	-9.	0.	130.88
1041	-0.5	-9.	0.	130.52
1042	-1.	-9.	0.	130.1
1043	-1.5	-9.	0.	128.03
1044	-2.	-9.	0.	122.59
1045	-2.5	-9.	0.	118.66
1046	-3.	-9.	0.	120.96
1047	-4.	-9.	0.	125.94
1048	-4.5	-9.	0.	125.52
1049	-5.	-9.	0.	125.34
1050	-5.5	-9.	0.	125.48
1051	-6.	-9.	0.	125.77
1052	-6.5	-9.	0.	126.05
1053	-7.	-9.	0.	126.23
1054	-7.5	-9.	0.	126.34
1055	-8.	-9.	0.	126.4
1056	-8.5	-9.	0.	126.44
1057	-9.	-8.	0.	126.41
1058	-9.	-7.5	0.	126.36
1059	-9.	-7.	0.	126.31
1060	-9.	-6.5	0.	126.27
1061	-9.	-6.	0.	126.28
1062	-9.	-5.5	0.	126.42
1063	-9.	-5.	0.	126.81
1064	-9.	-4.5	0.	127.67
1065	-9.	-4.	0.	129.2
1066	-9.	-3.5	0.	130.58
1067	-9.	-3.	0.	130.9
1068	-9.	-2.5	0.	130.95
1069	-9.	-2.	0.	132.06
1070	-9.	-1.5	0.	132.54
1071	-9.	-1.	0.	134.2
1072	-9.	-0.5	0.	134.89
1073	-9.	7.0634e-006	0.	132.55
1074	-9.	0.50001	0.	129.66
1075	-8.9999	1.	0.	130.54
1076	-8.9998	1.5	0.	131.45
1077	-8.9998	2.	0.	130.66
1078	-8.9997	2.5	0.	129.32
1079	-8.9997	3.	0.	128.51
1080	-8.9998	3.5	0.	128.21
1081	-8.9998	4.	0.	128.22
1082	-8.9999	4.5	0.	128.36
1083	-8.9999	5.	0.	128.36
1084	-8.9999	5.5	0.	127.96
1085	-9.	6.	0.	127.15
1086	-9.	8.5	0.	125.69
1087	-9.	9.	0.	125.58
1088	-8.5	9.	0.	126.82
1089	-8.	9.	0.	128.25
1090	-7.5	9.	0.	128.4
1091	-7.	9.	0.	124.79
1092	-6.5	9.	0.	120.15
1093	-6.	9.	0.	118.18
1094	-5.5	9.	0.	120.3
1095	-5.	9.	0.	125.18
1096	-4.5	9.	0.	129.39
1097	-3.	9.	0.	125.94
1098	-2.5	9.	0.	121.95
1099	-2.	9.	0.	120.36
1100	-1.5	9.	0.	121.78
1101	-1.	9.	0.	125.41
1102	-0.5	9.	0.	128.31
1103	1.2304e-011	9.	0.	128.26
1104	0.5	9.	0.	127.74
1105	1.	9.	0.	128.27
1106	1.5	9.	0.	128.32
1107	2.	9.	0.	125.42
1108	2.5	9.	0.	121.79
1109	3.	9.	0.	120.32
1110	3.5	9.	0.	121.73
1111	4.	9.	0.	125.23
1112	4.5	9.	0.	127.82
1113	5.	9.	0.	127.17
1114	5.5	9.	0.	125.78
1115	6.	9.	0.	126.22
1116	6.5	7.5	0.	132.89
1117	8.5	2.5	0.	130.22
1118	6.5	2.5	0.	130.08
1119	6.5	-0.5	0.	131.55
1120	8.5	-0.5	0.	131.07
1121	-3.5	8.5	0.	133.68
1122	-3.5	6.5	0.	132.14
1123	-0.5	6.5	0.	132.24
1124	-0.5	8.5	0.	131.38
1125	-0.5	8.	0.	129.47
1126	-0.5	7.	0.	130.25
1127	-0.5	7.5	0.	129.26
1128	-1.	6.5	0.	126.14
1129	-1.5	6.5	0.	117.52
1130	-2.	6.5	0.	117.94
1131	-3.	6.5	0.	125.72
1132	-2.5	6.5	0.	117.01
1133	-3.5	7.	0.	131.
1134	-3.5	8.	0.	131.96
1135	-3.5	7.5	0.	131.31
1136	-3.	8.5	0.	127.3
1137	-2.5	8.5	0.	118.38
1138	-1.	8.5	0.	126.44
1139	-1.5	8.5	0.	118.06
1140	-2.	8.5	0.	118.96
1141	8.	-0.5	0.	122.33
1142	7.	-0.5	0.	123.38
1143	7.5	-0.5	0.	111.05
1144	6.5	1.2014e-011	0.	130.27
1145	6.5	0.5	0.	132.57
1146	6.5	1.	0.	133.84
1147	6.5	2.	0.	129.7
1148	6.5	1.5	0.	131.99
1149	7.	2.5	0.	121.4
1150	8.	2.5	0.	121.59
1151	7.5	2.5	0.	109.86
1152	8.5	-1.0828e-012	0.	131.07
1153	8.5	0.5	0.	133.32
1154	8.5	1.	0.	135.03
1155	8.5	1.5	0.	133.17
1156	6.5	8.	0.	132.12
1157	6.5	9.	0.	129.43
1158	6.5	8.5	0.	130.61
1159	7.	7.5	0.	128.71
1160	7.5	7.5	0.	123.52
1161	4.	6.5	0.	125.86
1162	3.5	6.5	0.	117.04
1163	3.	6.5	0.	117.52
1164	2.	6.5	0.	125.34
1165	2.5	6.5	0.	116.74
1166	1.5	7.	0.	129.67
1167	1.5	8.	0.	129.5
1168	1.5	7.5	0.	129.1
1169	2.	8.5	0.	126.47
1170	2.5	8.5	0.	118.16
1171	3.	8.5	0.	119.
1172	4.	8.5	0.	126.28
1173	3.5	8.5	0.	118.11
1174	4.5	8.	0.	129.55
1175	4.5	7.	0.	130.54
1176	4.5	7.5	0.	129.61
1177	2.	-0.5	0.	123.79
1178	1.	-0.5	0.	125.12
1179	1.5	-0.5	0.	112.65
1180	0.5	-2.9469e-009	0.	131.21
1181	0.5	0.5	0.	132.89
1182	0.5	1.	0.	134.07
1183	0.5	2.	0.	129.64
1184	0.5	1.5	0.	132.08
1185	1.	2.5	0.	121.19
1186	2.	2.5	0.	121.01
1187	1.5	2.5	0.	109.54
1188	2.5	2.	0.	128.76
1189	2.5	1.5	0.	131.28
1190	2.5	1.	0.	133.03
1191	2.5	-1.0763e-011	0.	129.33
1192	2.5	0.5	0.	131.71
1193	-3.5	-8.	0.	128.19
1194	-3.5	-7.	0.	129.77
1195	-3.5	-7.5	0.	128.23
1196	-3.	-6.5	0.	125.14
1197	-2.	-6.5	0.	123.27
1198	-2.5	-6.5	0.	113.26
1199	-1.5	-7.	0.	129.92
1200	-1.5	-8.	0.	129.98
1201	-1.5	-7.5	0.	129.95
1202	-2.	-8.5	0.	123.39
1203	-3.	-8.5	0.	121.77
1204	-2.5	-8.5	0.	112.31
1205	2.5	-7.	0.	128.99
1206	2.5	-7.5	0.	130.71
1207	2.5	-8.	0.	132.24
1208	2.5	-9.	0.	129.42
1209	2.5	-8.5	0.	131.19
1210	0.5	-9.	0.	130.41
1211	0.5	-8.5	0.	132.21
1212	0.5	-8.	0.	133.72
1213	0.5	-7.	0.	130.23
1214	0.5	-7.5	0.	132.21
1215	2.	-6.5	0.	124.67
1216	1.5	-6.5	0.	112.07
1217	1.	-6.5	0.	123.45
1218	2.5	-5.	0.	131.83
1219	2.5	-4.5	0.	133.78
1220	2.5	-4.	0.	135.02
1221	2.5	-3.	0.	130.51
1222	2.5	-3.5	0.	133.12
1223	3.	-2.5	0.	124.81
1224	3.5	-2.5	0.	114.23
1225	4.	-2.5	0.	114.41
1226	5.	-2.5	0.	126.56
1227	4.5	-2.5	0.	114.87
1228	5.5	-3.	0.	132.15
1229	5.5	-3.5	0.	134.04
1230	5.5	-4.	0.	134.94
1231	5.5	-5.	0.	131.14
1232	5.5	-4.5	0.	133.04
1233	5.	-5.5	0.	124.45
1234	4.5	-5.5	0.	112.82
1235	4.	-5.5	0.	113.73
1236	3.	-5.5	0.	127.65
1237	3.5	-5.5	0.	115.58
1238	-3.9999	4.5	0.	125.85
1239	-3.	4.5	0.	123.85
1240	-3.5	4.5	0.	113.14
1241	-2.5	4.	0.	130.74
1242	-2.5	3.5	0.	133.16
1243	-2.5	3.	0.	134.66
1244	-2.5	2.	0.	129.59
1245	-2.5	2.5	0.	132.76
1246	-3.	1.5	0.	121.78
1247	-3.9999	1.5	0.	121.74
1248	-3.4999	1.5	0.	110.03
1249	-4.4998	2.	0.	131.73
1250	-4.4999	4.	0.	130.93
1251	-4.4998	3.5	0.	132.93
1252	-4.4997	3.	0.	134.65
1253	-4.4997	2.5	0.	133.3
1254	8.5	5.5	0.	111.21
1255	7.5	6.	0.	126.64
1256	7.5	7.	0.	125.11
1257	7.5	6.5	0.	126.11
1258	9.	7.5	0.	123.91
1259	8.5	7.5	0.	108.56
1260	8.	7.5	0.	118.91
1261	-6.5	-1.	0.	124.89
1262	-6.5	-1.5	0.	128.64
1263	-6.5	-2.	0.	131.12
1264	-6.5	-2.5	0.	130.43
1265	-7.	-3.5	0.	121.94
1266	-8.	-3.5	0.	122.33
1267	-7.5	-3.5	0.	110.1
1268	-8.5	-1.	0.	134.69
1269	-8.5	-1.5	0.	134.52
1270	-8.5	-2.	0.	135.79
1271	-8.5	-2.5	0.	133.88
1272	-8.5	-3.	0.	131.05
1273	-8.5	3.7076e-006	0.	133.42
1274	-8.4999	1.	0.	131.47
1275	-8.5	0.50001	0.	131.07
1276	-7.9997	1.5	0.	125.42
1277	-7.4996	1.5	0.	115.85
1278	-6.9996	1.5	0.	116.64
1279	-5.9996	1.4999	0.	126.88
1280	-6.4996	1.5	0.	116.8
1281	-5.4999	0.99995	0.	132.88
1282	-5.5	-1.2318e-005	0.	134.1
1283	-5.4999	0.49998	0.	132.55
1284	-6.	-0.5	0.	130.11
1285	-8.	-0.5	0.	122.14
1286	-7.5	-0.5	0.	104.93
1287	-7.	-0.5	0.	116.47
1288	-6.5	-0.5	0.	122.58
1289	-2.	-1.5	0.	129.42
1290	-1.5	-1.5	0.	119.85
1291	-1.	-1.5	0.	120.47
1292	4.7714e-009	-1.5	0.	128.88
1293	-0.5	-1.5	0.	119.95
1294	0.5	-3.	0.	130.65
1295	0.5	-2.5	0.	130.28
1296	1.6938e-011	-3.5	0.	125.75
1297	-0.5	-3.5	0.	117.76
1298	-1.	-3.5	0.	118.95
1299	-2.	-3.5	0.	129.4
1300	-1.5	-3.5	0.	119.04
1301	-3.	-3.5	0.	127.38
1302	-4.	-3.5	0.	122.04
1303	-3.5	-3.5	0.	114.2
1304	-4.5	-2.	0.	129.53
1305	-4.5	-2.5	0.	128.64
1306	-4.	-1.5	0.	123.75
1307	-3.	-1.5	0.	126.34
1308	-3.5	-1.5	0.	113.86
1309	-2.5	-3.	0.	134.63
1310	-2.5	-2.5	0.	135.25
1311	-2.5	-2.	0.	134.3
1312	6.	-6.5	0.	129.73
1313	7.	-6.5	0.	128.01
1314	6.5	-6.5	0.	117.83
1315	7.5	-7.	0.	131.66
1316	7.5	-8.	0.	131.29
1317	7.5	-7.5	0.	131.11
1318	7.	-8.5	0.	124.25
1319	6.	-8.5	0.	125.14
1320	6.5	-8.5	0.	114.08
1321	5.	-8.5	0.	124.18
1322	4.	-8.5	0.	121.78
1323	4.5	-8.5	0.	111.95
1324	3.5	-8.	0.	127.65
1325	3.5	-7.	0.	126.29
1326	3.5	-7.5	0.	126.91
1327	4.	-6.5	0.	117.65
1328	5.	-6.5	0.	123.22
1329	4.5	-6.5	0.	109.3
1330	5.5	-8.	0.	131.96
1331	5.5	-7.5	0.	133.41
1332	5.5	-7.	0.	133.38
1333	7.5	-4.	0.	130.49
1334	7.5	-4.5	0.	131.06
1335	8.	-3.5	0.	123.62
1336	9.	-3.5	0.	124.85
1337	8.5	-3.5	0.	113.86
1338	9.	-5.5	0.	126.04
1339	8.	-5.5	0.	127.48
1340	8.5	-5.5	0.	116.09
1341	-5.	5.5	0.	129.01
1342	-5.5	5.5	0.	117.1
1343	-5.9999	5.5	0.	116.29
1344	-6.9999	5.5	0.	125.97
1345	-6.4999	5.5	0.	115.73
1346	-7.5	6.	0.	133.13
1347	-7.5	6.5	0.	134.99
1348	-7.5	7.	0.	136.79
1349	-7.5	8.	0.	132.7
1350	-7.5	7.5	0.	135.33
1351	-6.5	8.5	0.	116.36
1352	-6.	8.5	0.	116.34
1353	-5.	8.5	0.	127.12
1354	-5.5	8.5	0.	116.26
1355	-4.5	8.	0.	132.21
1356	-4.5	7.5	0.	134.45
1357	-4.5	6.	0.	133.63
1358	-4.5	6.5	0.	135.87
1359	-4.5	7.	0.	136.4
1360	-3.5	-5.	0.	128.57
1361	-3.5	-6.	0.	130.08
1362	-3.5	-5.5	0.	128.7
1363	-4.	-6.5	0.	125.43
1364	-5.	-6.5	0.	123.77
1365	-4.5	-6.5	0.	113.75
1366	-5.5	-6.	0.	130.5
1367	-5.5	-5.5	0.	130.81
1368	-5.	-4.5	0.	126.24
1369	-4.	-4.5	0.	122.71
1370	-4.5	-4.5	0.	114.41
1371	9.5	9.	0.	129.73
1372	9.5	8.5	0.	131.32
1373	9.5	8.	0.	133.65
1374	9.5	7.5	0.	136.9
1375	9.5	7.	0.	134.45
1376	9.5	6.5	0.	133.73
1377	9.5	6.	0.	132.71
1378	9.5	5.5	0.	132.25
1379	9.5	5.	0.	128.65
1380	9.5	4.5	0.	127.73
1381	9.5	4.	0.	127.75
1382	9.5	3.5	0.	128.11
1383	9.5	3.	0.	128.56
1384	9.5	2.5	0.	128.74
1385	9.5	2.	0.	128.43
1386	9.5	1.5	0.	128.18
1387	9.5	1.	0.	128.15
1388	9.5	0.5	0.	128.45
1389	9.5	-5.4224e-013	0.	128.94
1390	9.5	-0.5	0.	129.4
1391	9.5	-1.	0.	129.31
1392	9.5	-1.5	0.	128.87
1393	9.5	-2.	0.	128.48
1394	9.5	-2.5	0.	128.37
1395	9.5	-3.	0.	129.18
1396	9.5	-3.5	0.	132.68
1397	9.5	-4.	0.	133.07
1398	9.5	-4.5	0.	133.77
1399	9.5	-5.	0.	133.66
1400	9.5	-5.5	0.	133.41
1401	9.5	-6.	0.	129.87
1402	9.5	-6.5	0.	128.74
1403	9.5	-7.	0.	128.33
1404	9.5	-7.5	0.	128.25
1405	9.5	-8.	0.	128.54
1406	9.5	-8.5	0.	129.05
1407	9.5	-9.	0.	129.55
1408	9.5	-9.5	0.	129.88
1409	9.	-9.5	0.	129.7
1410	8.5	-9.5	0.	129.54
1411	8.	-9.5	0.	128.86
1412	7.5	-9.5	0.	126.95
1413	7.	-9.5	0.	124.14
1414	6.5	-9.5	0.	122.42
1415	6.	-9.5	0.	122.99
1416	5.5	-9.5	0.	123.64
1417	5.	-9.5	0.	122.73
1418	4.5	-9.5	0.	122.06
1419	4.	-9.5	0.	123.99
1420	3.5	-9.5	0.	127.33
1421	3.	-9.5	0.	129.73
1422	2.5	-9.5	0.	129.93
1423	2.	-9.5	0.	119.33
1424	1.5	-9.5	0.	107.33
1425	1.	-9.5	0.	119.92
1426	0.5	-9.5	0.	131.21
1427	2.4865e-013	-9.5	0.	132.04
1428	-0.5	-9.5	0.	131.45
1429	-1.	-9.5	0.	129.88
1430	-2.	-9.5	0.	123.31
1431	-2.5	-9.5	0.	120.97
1432	-3.	-9.5	0.	121.59
1433	-3.5	-9.5	0.	123.67
1434	-4.	-9.5	0.	125.11
1435	-4.5	-9.5	0.	125.54
1436	-5.	-9.5	0.	125.63
1437	-5.5	-9.5	0.	125.72
1438	-6.	-9.5	0.	125.89
1439	-6.5	-9.5	0.	126.08
1440	-7.	-9.5	0.	126.23
1441	-7.5	-9.5	0.	126.34
1442	-8.	-9.5	0.	126.41
1443	-8.5	-9.5	0.	126.45
1444	-9.	-9.5	0.	126.47
1445	-9.5	-9.5	0.	126.5
1446	-9.5	-9.	0.	126.48
1447	-9.5	-8.5	0.	126.46
1448	-9.5	-8.	0.	126.44
1449	-9.5	-7.5	0.	126.43
1450	-9.5	-7.	0.	126.48
1451	-9.5	-6.5	0.	126.6
1452	-9.5	-6.	0.	126.85
1453	-9.5	-5.5	0.	127.27
1454	-9.5	-5.	0.	127.89
1455	-9.5	-4.5	0.	128.69
1456	-9.5	-4.	0.	129.53
1457	-9.5	-3.5	0.	130.07
1458	-9.5	-3.	0.	130.14
1459	-9.5	-2.5	0.	130.33
1460	-9.5	-2.	0.	130.78
1461	-9.5	-1.5	0.	131.52
1462	-9.5	-1.	0.	132.23
1463	-9.5	-0.5	0.	132.35
1464	-9.5	5.8932e-006	0.	131.37
1465	-9.5	0.50001	0.	130.43
1466	-9.5	1.	0.	130.37
1467	-9.4999	1.5	0.	130.89
1468	-9.4999	2.	0.	130.96
1469	-9.4999	2.5	0.	130.59
1470	-9.4999	3.	0.	130.09
1471	-9.4999	3.5	0.	129.6
1472	-9.4999	4.	0.	129.12
1473	-9.4999	4.5	0.	128.55
1474	-9.5	5.	0.	127.79
1475	-9.5	5.5	0.	126.79
1476	-9.5	6.	0.	125.62
1477	-9.5	6.5	0.	124.54
1478	-9.5	7.	0.	123.8
1479	-9.5	7.5	0.	123.55
1480	-9.5	8.	0.	123.71
1481	-9.5	8.5	0.	124.1
1482	-9.5	9.	0.	124.5
1483	-9.5	9.5	0.	124.9
1484	-9.	9.5	0.	125.41
1485	-8.5	9.5	0.	125.81
1486	-8.	9.5	0.	125.94
1487	-7.5	9.5	0.	125.24
1488	-7.	9.5	0.	123.53
1489	-6.5	9.5	0.	121.51
1490	-6.	9.5	0.	120.72
1491	-5.5	9.5	0.	121.81
1492	-5.	9.5	0.	124.14
1493	-4.5	9.5	0.	126.18
1494	-4.	9.5	0.	127.13
1495	-3.5	9.5	0.	126.74
1496	-3.	9.5	0.	125.32
1497	-2.5	9.5	0.	123.62
1498	-2.	9.5	0.	122.88
1499	-1.5	9.5	0.	123.61
1500	-1.	9.5	0.	125.33
1501	-0.5	9.5	0.	126.82
1502	8.9929e-012	9.5	0.	127.5
1503	0.5	9.5	0.	127.58
1504	1.	9.5	0.	127.45
1505	1.5	9.5	0.	126.73
1506	2.	9.5	0.	125.21
1507	2.5	9.5	0.	123.47
1508	3.	9.5	0.	122.72
1509	3.5	9.5	0.	123.46
1510	4.	9.5	0.	125.19
1511	4.5	9.5	0.	126.68
1512	5.	9.5	0.	127.31
1513	5.5	9.5	0.	127.39
1514	6.	9.5	0.	127.86
1515	6.5	9.5	0.	130.71
1516	7.	9.5	0.	128.45
1517	7.5	9.5	0.	121.62
1518	8.	9.5	0.	122.69
1519	8.5	9.5	0.	120.65
1520	9.	9.5	0.	126.45
1521	9.5	9.5	0.	128.45
1522	4.	4.	0.	126.15
1523	7.5	5.	0.	124.41
1524	-4.	-4.	0.	121.
1525	-1.5	-9.5	0.	127.
1526	1.	-3.5	0.	128.75
1527	1.5191e-011	-4.5	0.	124.68
1528	1.5	-3.5	0.	127.73
1529	-1.	6.	0.	125.71
1530	0.5	-2.	0.	130.99
1531	1.5	-5.5	0.	125.26
1532	6.	8.	0.	127.49
1533	8.	5.5	0.	120.9
1534	1.5	-2.5	0.	126.78
1535	3.	-8.	0.	127.79
1536	-4.	9.	0.	130.47
1537	-5.	-1.5	0.	130.07
1538	7.	3.5	0.	122.15
1539	5.	1.9218e-011	0.	125.3
1540	-2.5	5.	0.	126.11
1541	-5.5	-5.	0.	131.52
1542	6.	2.1469e-011	0.	128.91
1543	5.5	-2.	0.	130.2
1544	1.	-3.	0.	127.8
1545	4.	-6.	0.	114.5
1546	5.	-6.	0.	122.85
1547	1.5	5.5	0.	126.28
1548	7.	-6.	0.	128.8
1549	6.	-6.	0.	129.76
1550	-5.	-4.	0.	126.45
1551	7.5	-5.	0.	131.39
1552	-4.5	-3.	0.	128.17
1553	-6.	-3.	0.	128.33
1554	-9.	7.5	0.	125.41
1555	-9.	6.5	0.	126.23
1556	9.	5.5	0.	123.17
1557	-8.	6.	0.	130.95
1558	6.5	-3.	0.	129.04
1559	-7.	8.5	0.	127.18
1560	-9.	-8.5	0.	126.44
1561	5.	2.	0.	126.46
1562	-1.5	-6.	0.	126.34
1563	-6.5	-6.	0.	126.03
1564	2.	-1.5	0.	125.58
1565	2.	-2.5	0.	128.43
1566	-0.5	-6.5	0.	128.78
1567	-4.5	-0.50001	0.	127.45
1568	-4.	5.5	0.	130.12
1569	-9.	8.	0.	125.56
1570	-8.	7.5	0.	129.62
1571	-9.	7.	0.	125.61
1572	-8.	6.5	0.	130.05
1573	-8.	7.	0.	130.25
1574	-2.5	0.5	0.	124.05
1575	-6.5	-4.5	0.	126.78
1576	6.	-3.	0.	130.65
1577	-4.	-0.50001	0.	123.78
1578	-1.	-4.5	0.	121.72
1579	-4.4999	0.49996	0.	125.44
1580	-2.	6.	0.	119.37
1581	8.5	2.	0.	130.36
1582	4.	2.	0.	126.01
1583	-4.	-1.	0.	123.47
1584	2.	-1.	0.	123.76
1585	1.	-5.	0.	126.12
1586	6.	1.	0.	128.48
1587	-3.	0.99999	0.	120.6
1588	1.	4.	0.	123.79
1589	2.5	-2.5	0.	131.13
1590	-3.5	-9.	0.	125.02
1591	-2.	-5.	0.	123.45
1592	5.5	2.451e-011	0.	126.83
1593	4.5	2.5	0.	126.78
1594	5.	4.5	0.	127.6
1595	-6.5	-3.	0.	128.96
1596	-5.	-3.	0.	126.74
1597	7.	-5.	0.	128.79
1598	-5.5	-4.	0.	130.52
1599	-5.4999	5.	0.	121.09
1600	1.5	6.	0.	128.15
1601	5.5	-1.5	0.	128.56
1602	-3.	0.49999	0.	121.52
1603	-1.0147e-011	-7.5	0.	128.47
1604	-1.	5.5	0.	126.34
1605	6.5	-6.	0.	126.16
1606	4.5	-6.	0.	114.13
1607	-2.	-1.	0.	127.12
1608	1.	7.	0.	127.07
1609	-9.	-9.	0.	126.46
1610	3.	-8.5	0.	128.81
1611	3.5	-6.	0.	120.96
1612	5.5	-6.	0.	131.6
1613	7.5	-6.	0.	131.73
1614	-4.5	-4.	0.	122.24
1615	-3.5	9.	0.	129.55
1616	2.3574e-011	-4.	0.	124.54
1617	1.	4.5	0.	125.16
1618	3.5	2.	0.	126.49
1619	-0.5	-8.5	0.	129.34
1620	1.	3.5	0.	122.38
1621	6.5	-5.	0.	127.94
1622	-5.5	-3.	0.	127.05
1623	4.	4.5	0.	125.51
1624	4.5	2.8139e-012	0.	124.31
1625	-7.4997	4.4999	0.	125.64
1626	5.5	4.5	0.	127.73
1627	-4.	-2.25	0.	137.14
1628	-3.75	-2.	0.	121.53
1629	-4.25	-2.	0.	130.94
1630	-4.	-1.75	0.	128.33
1631	-4.	-2.75	0.	136.62
1632	-3.75	-3.	0.	121.02
1633	-4.	-3.25	0.	126.97
1634	-4.25	-3.	0.	129.65
1635	-3.25	-2.	0.	122.76
1636	-3.	-2.25	0.	138.38
1637	-3.	-1.75	0.	130.87
1638	-2.75	-2.	0.	134.63
1639	-3.25	-3.	0.	122.81
1640	-3.	-2.75	0.	138.45
1641	-3.	-3.25	0.	131.45
1642	-2.75	-3.	0.	134.87
1643	8.	6.75	0.	132.52
1644	8.25	7.	0.	117.45
1645	7.75	7.	0.	125.86
1646	8.	7.25	0.	123.2
1647	8.	6.25	0.	133.95
1648	8.25	6.	0.	119.47
1649	7.75	6.	0.	128.25
1650	8.	5.75	0.	125.66
1651	8.75	7.	0.	120.18
1652	9.	6.75	0.	138.28
1653	9.	7.25	0.	128.39
1654	9.25	7.	0.	133.41
1655	8.75	6.	0.	121.28
1656	9.	6.25	0.	138.7
1657	9.25	6.	0.	132.96
1658	9.	5.75	0.	128.53
1659	4.	-7.25	0.	133.24
1660	4.25	-7.	0.	117.62
1661	3.75	-7.	0.	126.97
1662	4.	-6.75	0.	123.04
1663	4.	-7.75	0.	134.13
1664	4.25	-8.	0.	119.11
1665	4.	-8.25	0.	126.02
1666	3.75	-8.	0.	128.68
1667	4.75	-7.	0.	119.31
1668	5.	-7.25	0.	135.63
1669	5.	-6.75	0.	127.47
1670	5.25	-7.	0.	132.36
1671	4.75	-8.	0.	120.66
1672	5.	-7.75	0.	136.33
1673	5.	-8.25	0.	128.76
1674	5.25	-8.	0.	132.41
1675	-3.	-7.25	0.	138.51
1676	-2.75	-7.	0.	122.89
1677	-3.25	-7.	0.	132.09
1678	-3.	-6.75	0.	129.99
1679	-3.	-7.75	0.	137.04
1680	-2.75	-8.	0.	120.99
1681	-3.25	-8.	0.	129.7
1682	-3.	-8.25	0.	126.82
1683	-2.25	-7.	0.	122.19
1684	-2.	-7.25	0.	137.75
1685	-2.	-6.75	0.	128.36
1686	-1.75	-7.	0.	131.36
1687	-2.25	-8.	0.	121.69
1688	-2.	-7.75	0.	137.71
1689	-1.75	-8.	0.	131.35
1690	-2.	-8.25	0.	128.38
1691	-4.	3.75	0.	138.24
1692	-3.75	4.	0.	121.75
1693	-4.	4.25	0.	130.19
1694	-4.2499	4.	0.	132.45
1695	-4.	2.25	0.	136.74
1696	-3.75	2.	0.	119.41
1697	-3.9999	1.75	0.	126.83
1698	-4.2499	2.	0.	131.53
1699	-3.25	4.	0.	121.18
1700	-3.	3.75	0.	137.35
1701	-3.	4.25	0.	128.64
1702	-2.75	4.	0.	131.74
1703	-3.25	2.	0.	119.49
1704	-3.	2.25	0.	136.39
1705	-2.75	2.	0.	130.57
1706	-3.	1.75	0.	127.03
1707	-3.	7.75	0.	139.61
1708	-2.75	8.	0.	126.27
1709	-3.25	8.	0.	133.7
1710	-3.	8.25	0.	131.68
1711	-3.	7.25	0.	139.05
1712	-2.75	7.	0.	125.17
1713	-3.	6.75	0.	130.36
1714	-3.25	7.	0.	132.65
1715	-1.25	8.	0.	125.75
1716	-1.	7.75	0.	139.05
1717	-0.75	8.	0.	132.09
1718	-1.	8.25	0.	130.89
1719	-1.25	7.	0.	125.36
1720	-1.	7.25	0.	138.75
1721	-0.75	7.	0.	132.16
1722	-1.	6.75	0.	130.4
1723	7.	1.75	0.	135.6
1724	7.25	2.	0.	118.8
1725	6.75	2.	0.	130.12
1726	7.	2.25	0.	126.29
1727	7.	0.25	0.	136.79
1728	7.25	0.	0.	120.11
1729	7.	-0.25	0.	128.22
1730	6.75	6.0071e-012	0.	131.35
1731	7.75	2.	0.	119.16
1732	8.	1.75	0.	136.42
1733	8.	2.25	0.	126.76
1734	8.25	2.	0.	130.8
1735	7.75	0.	0.	119.72
1736	8.	0.25	0.	136.7
1737	8.	-0.25	0.	127.24
1738	8.25	-5.4139e-013	0.	131.28
1739	7.	8.75	0.	142.56
1740	7.25	9.	0.	129.97
1741	6.75	9.	0.	134.04
1742	7.	9.25	0.	133.94
1743	7.	8.25	0.	141.73
1744	7.25	8.	0.	129.16
1745	6.75	8.	0.	134.53
1746	7.	7.75	0.	133.11
1747	8.75	9.	0.	129.49
1748	9.	8.75	0.	142.35
1749	9.25	9.	0.	133.73
1750	9.	9.25	0.	132.46
1751	8.75	8.	0.	124.1
1752	9.	8.25	0.	139.97
1753	9.	7.75	0.	128.65
1754	9.25	8.	0.	133.28
1755	-8.	0.75	0.	138.36
1756	-7.75	1.	0.	124.63
1757	-8.25	1.	0.	132.71
1758	-7.9999	1.25	0.	129.97
1759	-8.	0.25	0.	136.8
1760	-7.75	0.	0.	120.94
1761	-8.25	1.8538e-006	0.	132.06
1762	-8.	-0.25	0.	126.61
1763	-6.25	1.	0.	126.9
1764	-6.	0.75	0.	141.7
1765	-5.9998	1.25	0.	132.09
1766	-5.7499	0.99998	0.	134.75
1767	-6.25	0.	0.	128.83
1768	-6.	0.25	0.	142.37
1769	-5.75	-6.159e-006	0.	136.08
1770	-6.	-0.25	0.	134.35
1771	-8.	-1.25	0.	135.63
1772	-7.75	-1.	0.	116.9
1773	-8.25	-1.	0.	132.37
1774	-8.	-0.75	0.	126.27
1775	-8.	-2.75	0.	136.5
1776	-7.75	-3.	0.	119.1
1777	-8.	-3.25	0.	127.33
1778	-8.25	-3.	0.	131.36
1779	-7.25	-1.	0.	114.49
1780	-7.	-1.25	0.	130.53
1781	-6.75	-1.	0.	124.83
1782	-7.	-0.75	0.	121.11
1783	-7.25	-3.	0.	118.38
1784	-7.	-2.75	0.	134.42
1785	-7.	-3.25	0.	126.43
1786	-6.75	-3.	0.	129.68
1787	6.	-7.25	0.	139.84
1788	6.25	-7.	0.	125.55
1789	6.	-6.75	0.	133.67
1790	5.75	-7.	0.	135.3
1791	6.	-7.75	0.	138.38
1792	6.25	-8.	0.	123.
1793	6.	-8.25	0.	129.9
1794	5.75	-8.	0.	133.04
1795	6.75	-7.	0.	125.07
1796	7.	-7.25	0.	140.4
1797	7.	-6.75	0.	132.31
1798	7.25	-7.	0.	133.84
1799	6.75	-8.	0.	122.83
1800	7.	-7.75	0.	139.27
1801	7.25	-8.	0.	132.43
1802	7.	-8.25	0.	129.24
1803	-7.	7.75	0.	141.44
1804	-6.75	8.	0.	125.91
1805	-7.25	8.	0.	134.71
1806	-7.	8.25	0.	132.31
1807	-7.	6.25	0.	140.47
1808	-6.75	6.	0.	125.21
1809	-7.	5.75	0.	130.89
1810	-7.25	6.	0.	134.1
1811	-5.25	8.	0.	125.17
1812	-5.	7.75	0.	140.02
1813	-5.	8.25	0.	131.82
1814	-4.75	8.	0.	134.02
1815	-5.25	6.	0.	126.56
1816	-5.	6.25	0.	141.74
1817	-5.	5.75	0.	133.68
1818	-4.75	6.	0.	135.63
1819	-2.	-2.25	0.	140.84
1820	-1.75	-2.	0.	127.98
1821	-2.	-1.75	0.	133.69
1822	-2.25	-2.	0.	135.88
1823	-2.	-2.75	0.	140.89
1824	-1.75	-3.	0.	127.77
1825	-2.	-3.25	0.	133.72
1826	-2.25	-3.	0.	136.1
1827	-0.25	-2.	0.	127.61
1828	0.	-2.25	0.	140.67
1829	2.3857e-009	-1.75	0.	133.05
1830	0.25	-2.	0.	133.81
1831	-0.25	-3.	0.	125.99
1832	0.	-2.75	0.	139.61
1833	0.25	-3.	0.	132.52
1834	8.4689e-012	-3.25	0.	130.41
1835	-5.	-5.25	0.	139.64
1836	-4.75	-5.	0.	123.72
1837	-5.	-4.75	0.	130.92
1838	-5.25	-5.	0.	133.27
1839	-5.	-5.75	0.	139.
1840	-4.75	-6.	0.	123.11
1841	-5.	-6.25	0.	129.05
1842	-5.25	-6.	0.	132.07
1843	-4.25	-5.	0.	122.52
1844	-4.	-5.25	0.	138.03
1845	-3.75	-5.	0.	130.49
1846	-4.	-4.75	0.	127.92
1847	-4.25	-6.	0.	123.65
1848	-4.	-5.75	0.	139.19
1849	-3.75	-6.	0.	132.53
1850	-4.	-6.25	0.	130.42
1851	2.	7.75	0.	138.82
1852	2.25	8.	0.	125.8
1853	1.75	8.	0.	132.04
1854	2.	8.25	0.	130.84
1855	2.	7.25	0.	138.44
1856	2.25	7.	0.	125.04
1857	2.	6.75	0.	129.87
1858	1.75	7.	0.	131.72
1859	3.75	8.	0.	125.85
1860	4.	7.75	0.	139.09
1861	4.	8.25	0.	130.77
1862	4.25	8.	0.	132.07
1863	3.75	7.	0.	125.46
1864	4.	7.25	0.	138.94
1865	4.	6.75	0.	130.37
1866	4.25	7.	0.	132.4
1867	1.	-7.25	0.	136.07
1868	1.25	-7.	0.	119.69
1869	0.75	-7.	0.	130.98
1870	1.	-6.75	0.	127.88
1871	1.	-8.75	0.	134.75
1872	1.25	-9.	0.	117.51
1873	0.75	-9.	0.	129.93
1874	1.	-9.25	0.	125.01
1875	1.75	-7.	0.	119.84
1876	2.	-7.25	0.	135.68
1877	2.25	-7.	0.	130.59
1878	2.	-6.75	0.	128.69
1879	1.75	-9.	0.	117.21
1880	2.	-8.75	0.	134.05
1881	2.25	-9.	0.	129.13
1882	2.	-9.25	0.	124.42
1883	3.	-3.25	0.	138.29
1884	3.25	-3.	0.	123.21
1885	2.75	-3.	0.	132.
1886	3.	-2.75	0.	129.52
1887	3.	-4.75	0.	139.73
1888	3.25	-5.	0.	124.64
1889	2.75	-5.	0.	133.64
1890	3.	-5.25	0.	131.88
1891	4.75	-3.	0.	124.29
1892	5.	-3.25	0.	139.52
1893	5.	-2.75	0.	131.25
1894	5.25	-3.	0.	133.71
1895	4.75	-5.	0.	122.83
1896	5.	-4.75	0.	138.04
1897	5.25	-5.	0.	132.14
1898	5.	-5.25	0.	129.13
1899	8.	-4.25	0.	138.99
1900	8.25	-4.	0.	123.02
1901	7.75	-4.	0.	131.93
1902	8.	-3.75	0.	128.85
1903	8.	-4.75	0.	140.36
1904	8.25	-5.	0.	125.05
1905	8.	-5.25	0.	132.21
1906	7.75	-5.	0.	133.86
1907	8.75	-4.	0.	124.08
1908	9.	-4.25	0.	141.42
1909	9.	-3.75	0.	130.49
1910	9.25	-4.	0.	134.24
1911	8.75	-5.	0.	124.96
1912	9.	-4.75	0.	141.64
1913	9.	-5.25	0.	131.29
1914	9.25	-5.	0.	134.77
1915	1.	1.75	0.	135.46
1916	1.25	2.	0.	118.41
1917	0.75	2.	0.	129.97
1918	1.	2.25	0.	126.08
1919	1.	0.25	0.	137.51
1920	1.25	0.	0.	120.96
1921	1.	-0.25	0.	129.45
1922	0.75	-1.4734e-009	0.	132.22
1923	1.75	2.	0.	118.33
1924	2.	1.75	0.	135.04
1925	2.	2.25	0.	125.93
1926	2.25	2.	0.	129.47
1927	1.75	0.	0.	120.51
1928	2.	0.25	0.	136.46
1929	2.	-0.25	0.	128.39
1930	2.25	-5.3813e-012	0.	130.84
1931	9.75	10.	0.	125.08
1932	10.	9.75	0.	124.62
1933	-9.75	10.	0.	125.1
1934	-10.	9.75	0.	124.87
1935	10.	-9.75	0.	130.68
1936	9.75	-10.	0.	130.4
1937	-10.	-9.75	0.	126.56
1938	-9.75	-10.	0.	126.54
1939	-4.25	-2.5	0.	135.19
1940	-3.5	-1.75	0.	112.16
1941	-3.5	-3.25	0.	112.34
1942	-2.75	-2.5	0.	138.52
1943	7.75	6.5	0.	132.02
1944	8.5	7.25	0.	108.09
1945	8.5	5.75	0.	110.03
1946	9.25	6.5	0.	138.79
1947	3.75	-7.5	0.	132.66
1948	4.5	-6.75	0.	108.17
1949	4.5	-8.25	0.	110.15
1950	5.25	-7.5	0.	136.58
1951	-3.25	-7.5	0.	135.38
1952	-2.5	-6.75	0.	112.23
1953	-2.5	-8.25	0.	111.3
1954	-1.75	-7.5	0.	136.21
1955	-4.	3.25	0.	142.4
1956	-4.2499	3.5	0.	137.65
1957	-4.	2.75	0.	142.16
1958	-4.2499	3.	0.	138.53
1959	-4.2498	2.5	0.	137.59
1960	-3.5	4.25	0.	111.29
1961	-3.5	1.75	0.	108.58
1962	-3.	3.25	0.	141.8
1963	-2.75	3.5	0.	137.46
1964	-3.	2.75	0.	141.43
1965	-2.75	3.	0.	138.25
1966	-2.75	2.5	0.	136.89
1967	-3.25	7.5	0.	137.42
1968	-2.25	8.	0.	119.9
1969	-2.5	8.25	0.	117.7
1970	-1.75	8.	0.	119.74
1971	-2.	8.25	0.	120.72
1972	-1.5	8.25	0.	117.39
1973	-2.25	7.	0.	118.91
1974	-2.5	6.75	0.	116.42
1975	-1.75	7.	0.	119.25
1976	-2.	6.75	0.	119.81
1977	-1.5	6.75	0.	117.05
1978	-0.75	7.5	0.	136.21
1979	7.	1.25	0.	140.75
1980	6.75	1.5	0.	136.21
1981	7.	0.75	0.	141.04
1982	6.75	1.	0.	137.45
1983	6.75	0.5	0.	136.78
1984	7.5	2.25	0.	108.31
1985	7.5	-0.25	0.	109.34
1986	8.	1.25	0.	141.65
1987	8.25	1.5	0.	137.25
1988	8.	0.75	0.	141.81
1989	8.25	1.	0.	138.5
1990	8.25	0.5	0.	137.48
1991	6.75	8.5	0.	138.42
1992	7.75	9.	0.	124.77
1993	7.5	9.25	0.	121.35
1994	8.25	9.	0.	124.76
1995	8.	9.25	0.	125.25
1996	8.5	9.25	0.	120.83
1997	7.75	8.	0.	122.24
1998	7.5	7.75	0.	122.43
1999	8.25	8.	0.	118.85
2000	8.	7.75	0.	120.88
2001	8.5	7.75	0.	111.66
2002	9.25	8.5	0.	138.94
2003	-8.25	0.5	0.	136.78
2004	-7.25	1.	0.	118.34
2005	-7.4998	1.25	0.	115.57
2006	-6.75	1.	0.	119.16
2007	-6.9998	1.25	0.	118.85
2008	-6.4998	1.25	0.	116.88
2009	-7.25	0.	0.	115.08
2010	-7.5	-0.25	0.	107.8
2011	-6.75	0.	0.	119.67
2012	-7.	-0.25	0.	117.88
2013	-6.5	-0.25	0.	121.17
2014	-5.75	0.49999	0.	139.49
2015	-8.	-1.75	0.	141.14
2016	-8.25	-1.5	0.	137.73
2017	-8.	-2.25	0.	141.21
2018	-8.25	-2.	0.	138.56
2019	-8.25	-2.5	0.	137.47
2020	-7.5	-0.75	0.	104.22
2021	-7.5	-3.25	0.	108.2
2022	-7.	-1.75	0.	136.66
2023	-6.75	-1.5	0.	132.19
2024	-7.	-2.25	0.	137.97
2025	-6.75	-2.	0.	134.34
2026	-6.75	-2.5	0.	134.39
2027	5.75	-7.5	0.	137.97
2028	6.5	-6.75	0.	115.9
2029	6.5	-8.25	0.	112.87
2030	7.25	-7.5	0.	137.87
2031	-7.	7.25	0.	146.39
2032	-7.25	7.5	0.	140.6
2033	-7.	6.75	0.	146.19
2034	-7.25	7.	0.	141.84
2035	-7.25	6.5	0.	140.24
2036	-6.25	8.	0.	117.66
2037	-6.5	8.25	0.	115.7
2038	-5.75	8.	0.	117.41
2039	-6.	8.25	0.	118.07
2040	-5.5	8.25	0.	115.39
2041	-6.25	6.	0.	117.78
2042	-6.5	5.75	0.	115.45
2043	-5.75	6.	0.	117.93
2044	-6.	5.75	0.	118.15
2045	-5.5	5.75	0.	116.28
2046	-5.	7.25	0.	144.91
2047	-4.75	7.5	0.	139.26
2048	-5.	6.75	0.	145.66
2049	-4.75	7.	0.	141.06
2050	-4.75	6.5	0.	140.73
2051	-2.25	-2.5	0.	139.67
2052	-1.25	-2.	0.	121.47
2053	-1.5	-1.75	0.	119.21
2054	-0.75	-2.	0.	121.47
2055	-1.	-1.75	0.	122.27
2056	-0.5	-1.75	0.	119.28
2057	-1.25	-3.	0.	120.67
2058	-1.5	-3.25	0.	118.53
2059	-0.75	-3.	0.	120.36
2060	-1.	-3.25	0.	121.
2061	-0.5	-3.25	0.	117.57
2062	0.25	-2.5	0.	137.38
2063	-5.25	-5.5	0.	137.45
2064	-4.5	-4.75	0.	113.28
2065	-4.5	-6.25	0.	112.93
2066	-3.75	-5.5	0.	136.02
2067	1.75	7.5	0.	135.97
2068	2.75	8.	0.	119.97
2069	2.5	8.25	0.	117.56
2070	3.25	8.	0.	119.99
2071	3.	8.25	0.	120.83
2072	3.5	8.25	0.	117.55
2073	2.75	7.	0.	119.1
2074	2.5	6.75	0.	116.45
2075	3.25	7.	0.	119.28
2076	3.	6.75	0.	119.64
2077	3.5	6.75	0.	116.79
2078	4.25	7.5	0.	136.46
2079	1.	-7.75	0.	140.26
2080	0.75	-7.5	0.	136.24
2081	1.	-8.25	0.	139.98
2082	0.75	-8.	0.	136.98
2083	0.75	-8.5	0.	135.96
2084	1.5	-6.75	0.	109.82
2085	1.5	-9.25	0.	106.25
2086	2.	-7.75	0.	139.16
2087	2.25	-7.5	0.	134.93
2088	2.	-8.25	0.	139.03
2089	2.25	-8.	0.	135.69
2090	2.25	-8.5	0.	135.05
2091	3.	-3.75	0.	143.61
2092	2.75	-3.5	0.	137.97
2093	3.	-4.25	0.	144.08
2094	2.75	-4.	0.	139.7
2095	2.75	-4.5	0.	138.77
2096	3.75	-3.	0.	115.53
2097	3.5	-2.75	0.	113.54
2098	4.25	-3.	0.	115.77
2099	4.	-2.75	0.	116.09
2100	4.5	-2.75	0.	114.1
2101	3.75	-5.	0.	115.89
2102	3.5	-5.25	0.	114.75
2103	4.25	-5.	0.	115.14
2104	4.	-5.25	0.	115.63
2105	4.5	-5.25	0.	112.6
2106	5.	-3.75	0.	143.83
2107	5.25	-3.5	0.	138.79
2108	5.	-4.25	0.	143.38
2109	5.25	-4.	0.	139.53
2110	5.25	-4.5	0.	137.84
2111	7.75	-4.5	0.	137.69
2112	8.5	-3.75	0.	113.02
2113	8.5	-5.25	0.	114.83
2114	9.25	-4.5	0.	140.4
2115	1.	1.25	0.	140.81
2116	0.75	1.5	0.	136.22
2117	1.	0.75	0.	141.45
2118	0.75	1.	0.	137.67
2119	0.75	0.5	0.	137.26
2120	1.5	2.25	0.	107.88
2121	1.5	-0.25	0.	110.63
2122	2.	1.25	0.	140.03
2123	2.25	1.5	0.	135.47
2124	2.	0.75	0.	140.43
2125	2.25	1.	0.	136.71
2126	2.25	0.5	0.	136.08
2127	9.25	10.	0.	123.24
2128	9.5	9.75	0.	126.57
2129	8.75	10.	0.	120.33
2130	9.	9.75	0.	124.02
2131	8.25	10.	0.	118.3
2132	8.5	9.75	0.	119.65
2133	7.75	10.	0.	119.09
2134	8.	9.75	0.	120.
2135	7.25	10.	0.	122.91
2136	7.5	9.75	0.	120.94
2137	6.75	10.	0.	128.01
2138	7.	9.75	0.	126.79
2139	6.25	10.	0.	131.18
2140	6.5	9.75	0.	130.63
2141	5.75	10.	0.	131.1
2142	6.	9.75	0.	129.74
2143	5.25	10.	0.	129.75
2144	5.5	9.75	0.	128.91
2145	4.75	10.	0.	128.01
2146	5.	9.75	0.	128.14
2147	4.25	10.	0.	125.88
2148	4.5	9.75	0.	126.83
2149	3.75	10.	0.	123.81
2150	4.	9.75	0.	124.94
2151	3.25	10.	0.	122.52
2152	3.5	9.75	0.	123.16
2153	2.75	10.	0.	122.52
2154	3.	9.75	0.	122.43
2155	2.25	10.	0.	123.78
2156	2.5	9.75	0.	123.15
2157	1.75	10.	0.	125.75
2158	2.	9.75	0.	124.92
2159	1.25	10.	0.	127.59
2160	1.5	9.75	0.	126.76
2161	0.75	10.	0.	128.66
2162	1.	9.75	0.	127.9
2163	0.25	10.	0.	128.72
2164	0.5	9.75	0.	128.25
2165	-0.25	10.	0.	127.77
2166	4.4939e-012	9.75	0.	127.98
2167	-0.75	10.	0.	126.03
2168	-0.5	9.75	0.	126.92
2169	-1.25	10.	0.	124.15
2170	-1.	9.75	0.	125.15
2171	-1.75	10.	0.	122.94
2172	-1.5	9.75	0.	123.43
2173	-2.25	10.	0.	122.97
2174	-2.	9.75	0.	122.73
2175	-2.75	10.	0.	124.18
2176	-2.5	9.75	0.	123.47
2177	-3.25	10.	0.	125.84
2178	-3.	9.75	0.	125.16
2179	-3.75	10.	0.	126.82
2180	-3.5	9.75	0.	126.69
2181	-4.25	10.	0.	126.26
2182	-4.	9.75	0.	127.05
2183	-4.75	10.	0.	124.26
2184	-4.5	9.75	0.	125.84
2185	-5.25	10.	0.	121.85
2186	-5.	9.75	0.	123.52
2187	-5.75	10.	0.	120.19
2188	-5.5	9.75	0.	121.22
2189	-6.25	10.	0.	119.95
2190	-6.	9.75	0.	120.16
2191	-6.75	10.	0.	121.1
2192	-6.5	9.75	0.	120.83
2193	-7.25	10.	0.	123.03
2194	-7.	9.75	0.	122.72
2195	-7.75	10.	0.	124.79
2196	-7.5	9.75	0.	124.64
2197	-8.25	10.	0.	125.7
2198	-8.	9.75	0.	125.71
2199	-8.75	10.	0.	125.76
2200	-8.5	9.75	0.	125.86
2201	-9.25	10.	0.	125.39
2202	-9.	9.75	0.	125.51
2203	-9.5	9.75	0.	125.03
2204	10.	9.25	0.	122.29
2205	9.75	9.5	0.	126.1
2206	10.	8.75	0.	120.64
2207	9.75	9.	0.	125.27
2208	10.	8.25	0.	125.04
2209	9.75	8.5	0.	125.85
2210	10.	7.75	0.	133.24
2211	9.75	8.	0.	131.52
2212	10.	7.25	0.	135.69
2213	9.75	7.5	0.	136.86
2214	10.	6.75	0.	131.81
2215	9.75	7.	0.	134.44
2216	10.	6.25	0.	130.15
2217	9.75	6.5	0.	131.41
2218	10.	5.75	0.	132.54
2219	9.75	6.	0.	131.94
2220	10.	5.25	0.	133.48
2221	9.75	5.5	0.	133.05
2222	10.	4.75	0.	132.04
2223	9.75	5.	0.	130.86
2224	10.	4.25	0.	130.47
2225	9.75	4.5	0.	129.35
2226	10.	3.75	0.	129.85
2227	9.75	4.	0.	128.85
2228	10.	3.25	0.	129.68
2229	9.75	3.5	0.	128.93
2230	10.	2.75	0.	129.22
2231	9.75	3.	0.	129.08
2232	10.	2.25	0.	128.12
2233	9.75	2.5	0.	128.78
2234	10.	1.75	0.	126.74
2235	9.75	2.	0.	127.92
2236	10.	1.25	0.	125.87
2237	9.75	1.5	0.	127.13
2238	10.	0.75	0.	126.04
2239	9.75	1.	0.	126.91
2240	10.	0.25	0.	127.22
2241	9.75	0.5	0.	127.43
2242	10.	-0.25	0.	128.81
2243	9.75	-2.7372e-013	0.	128.48
2244	10.	-0.75	0.	129.98
2245	9.75	-0.5	0.	129.49
2246	10.	-1.25	0.	130.4
2247	9.75	-1.	0.	129.84
2248	10.	-1.75	0.	130.42
2249	9.75	-1.5	0.	129.65
2250	10.	-2.25	0.	130.8
2251	9.75	-2.	0.	129.45
2252	10.	-2.75	0.	132.02
2253	9.75	-2.5	0.	129.77
2254	10.	-3.25	0.	132.97
2255	9.75	-3.	0.	131.02
2256	10.	-3.75	0.	131.22
2257	9.75	-3.5	0.	132.87
2258	10.	-4.25	0.	127.64
2259	9.75	-4.	0.	131.21
2260	10.	-4.75	0.	127.98
2261	9.75	-4.5	0.	129.82
2262	10.	-5.25	0.	131.99
2263	9.75	-5.	0.	131.84
2264	10.	-5.75	0.	133.55
2265	9.75	-5.5	0.	133.65
2266	10.	-6.25	0.	131.87
2267	9.75	-6.	0.	131.52
2268	10.	-6.75	0.	129.63
2269	9.75	-6.5	0.	129.64
2270	10.	-7.25	0.	128.36
2271	9.75	-7.	0.	128.52
2272	10.	-7.75	0.	128.12
2273	9.75	-7.5	0.	128.13
2274	10.	-8.25	0.	128.63
2275	9.75	-8.	0.	128.39
2276	10.	-8.75	0.	129.47
2277	9.75	-8.5	0.	129.04
2278	10.	-9.25	0.	130.24
2279	9.75	-9.	0.	129.73
2280	9.75	-9.5	0.	130.23
2281	-10.	9.25	0.	124.18
2282	-9.75	9.5	0.	124.8
2283	-10.	8.75	0.	123.03
2284	-9.75	9.	0.	124.08
2285	-10.	8.25	0.	121.85
2286	-9.75	8.5	0.	123.25
2287	-10.	7.75	0.	121.01
2288	-9.75	8.	0.	122.51
2289	-10.	7.25	0.	120.82
2290	-9.75	7.5	0.	122.13
2291	-10.	6.75	0.	121.49
2292	-9.75	7.	0.	122.37
2293	-10.	6.25	0.	122.96
2294	-9.75	6.5	0.	123.29
2295	-10.	5.75	0.	124.88
2296	-9.75	6.	0.	124.73
2297	-10.	5.25	0.	126.82
2298	-9.75	5.5	0.	126.34
2299	-10.	4.75	0.	128.47
2300	-9.75	5.	0.	127.77
2301	-10.	4.25	0.	129.74
2302	-9.75	4.5	0.	128.87
2303	-10.	3.75	0.	130.69
2304	-9.75	4.	0.	129.69
2305	-10.	3.25	0.	131.46
2306	-9.7499	3.5	0.	130.36
2307	-10.	2.75	0.	132.
2308	-9.7499	3.	0.	130.94
2309	-10.	2.25	0.	132.1
2310	-9.7499	2.5	0.	131.4
2311	-10.	1.75	0.	131.46
2312	-9.7499	2.	0.	131.47
2313	-10.	1.25	0.	130.26
2314	-9.75	1.5	0.	130.9
2315	-10.	0.75	0.	129.43
2316	-9.75	1.	0.	129.98
2317	-10.	0.25	0.	129.85
2318	-9.75	0.5	0.	129.85
2319	-10.	-0.25	0.	131.06
2320	-9.75	2.9466e-006	0.	130.9
2321	-10.	-0.75	0.	131.64
2322	-9.75	-0.5	0.	132.01
2323	-10.	-1.25	0.	131.
2324	-9.75	-1.	0.	131.92
2325	-10.	-1.75	0.	129.83
2326	-9.75	-1.5	0.	130.96
2327	-10.	-2.25	0.	129.12
2328	-9.75	-2.	0.	130.02
2329	-10.	-2.75	0.	129.28
2330	-9.75	-2.5	0.	129.65
2331	-10.	-3.25	0.	129.94
2332	-9.75	-3.	0.	129.86
2333	-10.	-3.75	0.	130.35
2334	-9.75	-3.5	0.	130.19
2335	-10.	-4.25	0.	130.04
2336	-9.75	-4.	0.	129.95
2337	-10.	-4.75	0.	129.17
2338	-9.75	-4.5	0.	129.19
2339	-10.	-5.25	0.	128.18
2340	-9.75	-5.	0.	128.27
2341	-10.	-5.75	0.	127.37
2342	-9.75	-5.5	0.	127.49
2343	-10.	-6.25	0.	126.82
2344	-9.75	-6.	0.	126.94
2345	-10.	-6.75	0.	126.52
2346	-9.75	-6.5	0.	126.61
2347	-10.	-7.25	0.	126.4
2348	-9.75	-7.	0.	126.45
2349	-10.	-7.75	0.	126.39
2350	-9.75	-7.5	0.	126.41
2351	-10.	-8.25	0.	126.43
2352	-9.75	-8.	0.	126.42
2353	-10.	-8.75	0.	126.49
2354	-9.75	-8.5	0.	126.46
2355	-10.	-9.25	0.	126.53
2356	-9.75	-9.	0.	126.5
2357	-9.75	-9.5	0.	126.53
2358	-9.25	-10.	0.	126.49
2359	-9.5	-9.75	0.	126.5
2360	-8.75	-10.	0.	126.46
2361	-9.	-9.75	0.	126.47
2362	-8.25	-10.	0.	126.43
2363	-8.5	-9.75	0.	126.45
2364	-7.75	-10.	0.	126.38
2365	-8.	-9.75	0.	126.41
2366	-7.25	-10.	0.	126.29
2367	-7.5	-9.75	0.	126.34
2368	-6.75	-10.	0.	126.16
2369	-7.	-9.75	0.	126.23
2370	-6.25	-10.	0.	126.01
2371	-6.5	-9.75	0.	126.08
2372	-5.75	-10.	0.	125.87
2373	-6.	-9.75	0.	125.91
2374	-5.25	-10.	0.	125.75
2375	-5.5	-9.75	0.	125.76
2376	-4.75	-10.	0.	125.59
2377	-5.	-9.75	0.	125.66
2378	-4.25	-10.	0.	125.15
2379	-4.5	-9.75	0.	125.51
2380	-3.75	-10.	0.	124.11
2381	-4.	-9.75	0.	124.96
2382	-3.25	-10.	0.	122.61
2383	-3.5	-9.75	0.	123.54
2384	-2.75	-10.	0.	121.69
2385	-3.	-9.75	0.	121.7
2386	-2.25	-10.	0.	122.57
2387	-2.5	-9.75	0.	121.27
2388	-1.75	-10.	0.	125.22
2389	-2.	-9.75	0.	123.44
2390	-1.25	-10.	0.	128.36
2391	-1.5	-9.75	0.	126.93
2392	-0.75	-10.	0.	130.82
2393	-1.	-9.75	0.	129.87
2394	-0.25	-10.	0.	132.1
2395	-0.5	-9.75	0.	131.62
2396	0.25	-10.	0.	130.68
2397	1.2693e-013	-9.75	0.	132.23
2398	0.75	-10.	0.	123.65
2399	0.5	-9.75	0.	130.07
2400	1.25	-10.	0.	115.06
2401	1.	-9.75	0.	119.08
2402	1.75	-10.	0.	114.75
2403	1.5	-9.75	0.	109.54
2404	2.25	-10.	0.	122.63
2405	2.	-9.75	0.	118.48
2406	2.75	-10.	0.	128.66
2407	2.5	-9.75	0.	128.72
2408	3.25	-10.	0.	128.68
2409	3.	-9.75	0.	129.76
2410	3.75	-10.	0.	126.06
2411	3.5	-9.75	0.	127.43
2412	4.25	-10.	0.	123.66
2413	4.	-9.75	0.	124.28
2414	4.75	-10.	0.	122.72
2415	4.5	-9.75	0.	122.4
2416	5.25	-10.	0.	122.9
2417	5.	-9.75	0.	122.71
2418	5.75	-10.	0.	122.96
2419	5.5	-9.75	0.	123.37
2420	6.25	-10.	0.	122.84
2421	6.	-9.75	0.	122.91
2422	6.75	-10.	0.	123.58
2423	6.5	-9.75	0.	122.63
2424	7.25	-10.	0.	125.49
2425	7.	-9.75	0.	124.22
2426	7.75	-10.	0.	127.6
2427	7.5	-9.75	0.	126.81
2428	8.25	-10.	0.	128.99
2429	8.	-9.75	0.	128.7
2430	8.75	-10.	0.	129.58
2431	8.5	-9.75	0.	129.49
2432	9.25	-10.	0.	129.86
2433	9.	-9.75	0.	129.72
2434	9.5	-9.75	0.	129.94
2435	4.5	3.75	0.	127.13
2436	4.5	3.25	0.	127.22
2437	4.25	3.5	0.	126.97
2438	4.75	3.5	0.	127.47
2439	4.5	1.25	0.	124.89
2440	4.5	0.75	0.	124.49
2441	4.25	1.	0.	124.61
2442	4.75	1.	0.	124.86
2443	4.75	4.	0.	127.31
2444	5.	3.75	0.	127.66
2445	5.25	4.	0.	127.64
2446	5.	4.25	0.	127.61
2447	4.5	4.25	0.	126.91
2448	4.25	4.	0.	126.58
2449	3.25	4.5	0.	123.64
2450	3.5	4.25	0.	124.67
2451	3.5	4.75	0.	123.58
2452	3.75	4.5	0.	124.83
2453	3.	4.75	0.	122.51
2454	2.75	4.5	0.	122.93
2455	3.	4.25	0.	123.67
2456	4.25	3.	0.	127.08
2457	4.75	3.	0.	127.44
2458	4.5	2.75	0.	126.99
2459	4.5	1.75	0.	125.59
2460	4.25	1.5	0.	125.19
2461	4.75	1.5	0.	125.4
2462	4.25	0.5	0.	124.36
2463	4.75	0.5	0.	124.71
2464	4.5	0.25	0.	124.34
2465	5.75	5.	0.	127.77
2466	5.25	5.	0.	127.94
2467	5.5	5.25	0.	128.22
2468	5.5	4.75	0.	127.87
2469	3.25	5.	0.	122.44
2470	2.75	5.	0.	121.97
2471	3.	5.25	0.	121.04
2472	3.25	4.	0.	124.69
2473	3.5	3.75	0.	125.67
2474	3.75	4.	0.	125.67
2475	4.	0.75	0.	124.49
2476	4.	1.25	0.	124.91
2477	3.75	1.	0.	125.02
2478	4.	3.25	0.	126.82
2479	3.75	3.5	0.	126.43
2480	4.	3.75	0.	126.42
2481	-0.25	4.	0.	127.27
2482	-0.5	4.25	0.	127.63
2483	-0.5	3.75	0.	127.59
2484	-0.75	4.	0.	127.65
2485	0.25	4.5	0.	126.96
2486	1.0428e-009	4.25	0.	127.2
2487	-0.25	4.5	0.	127.56
2488	1.5577e-009	4.75	0.	127.81
2489	5.	3.25	0.	127.69
2490	5.25	3.5	0.	127.8
2491	6.	4.75	0.	127.35
2492	6.	4.25	0.	127.09
2493	6.25	4.5	0.	126.63
2494	5.75	4.5	0.	127.46
2495	5.75	4.	0.	127.34
2496	5.5	3.75	0.	127.78
2497	5.5	4.25	0.	127.71
2498	5.	1.25	0.	125.37
2499	5.	0.75	0.	125.08
2500	5.25	1.	0.	125.69
2501	0.5	4.75	0.	127.08
2502	0.75	5.	0.	127.1
2503	0.25	5.	0.	127.93
2504	0.5	5.25	0.	128.25
2505	6.	5.25	0.	127.63
2506	6.25	5.	0.	127.15
2507	-6.499	3.2499	0.	120.24
2508	-6.2491	3.4999	0.	120.91
2509	-6.7491	3.4999	0.	120.61
2510	-6.4993	3.7499	0.	120.4
2511	-6.749	2.9999	0.	119.95
2512	-6.2489	2.9999	0.	121.02
2513	-6.4989	2.7499	0.	119.87
2514	-5.9991	3.2499	0.	121.69
2515	-5.9994	3.7499	0.	121.17
2516	-5.7493	3.5	0.	122.67
2517	-0.25	-5.	0.	124.99
2518	-0.5	-5.25	0.	125.45
2519	-0.75	-5.	0.	124.05
2520	-0.5	-4.75	0.	123.53
2521	4.5	4.75	0.	126.81
2522	4.75	4.5	0.	127.2
2523	4.25	4.5	0.	126.16
2524	1.75	4.5	0.	123.4
2525	1.5	4.25	0.	123.16
2526	1.5	4.75	0.	124.42
2527	1.25	4.5	0.	124.49
2528	0.5	4.25	0.	126.06
2529	0.75	4.5	0.	125.83
2530	2.25	4.5	0.	122.85
2531	2.5	4.75	0.	122.4
2532	2.5	4.25	0.	122.96
2533	2.	4.75	0.	123.15
2534	2.	4.25	0.	122.68
2535	4.75	2.	0.	126.23
2536	4.25	2.	0.	126.
2537	4.5	2.25	0.	126.39
2538	4.5	-0.75	0.	123.6
2539	4.25	-0.5	0.	123.88
2540	4.75	-0.5	0.	124.78
2541	4.5	-0.25	0.	124.18
2542	-6.9992	3.2499	0.	120.32
2543	-6.9991	2.7499	0.	119.16
2544	-7.2492	2.9999	0.	120.53
2545	3.75	5.	0.	123.97
2546	3.5	5.25	0.	122.32
2547	4.75	5.	0.	127.34
2548	5.	5.25	0.	128.21
2549	5.	4.75	0.	127.74
2550	1.25	5.	0.	125.77
2551	1.	5.25	0.	127.26
2552	1.	4.75	0.	125.85
2553	2.25	5.	0.	122.7
2554	2.5	5.25	0.	121.56
2555	4.25	-1.	0.	122.74
2556	4.	-1.25	0.	121.1
2557	4.	-0.75	0.	123.03
2558	3.75	-1.	0.	122.92
2559	4.	0.25	0.	124.29
2560	3.75	0.5	0.	124.79
2561	-1.	3.25	0.	127.68
2562	-1.25	3.	0.	127.8
2563	-1.	2.75	0.	127.59
2564	-0.75	3.	0.	127.77
2565	0.25	4.	0.	126.3
2566	1.8063e-009	3.75	0.	127.04
2567	2.75	4.	0.	123.7
2568	3.	3.75	0.	124.8
2569	1.75	4.	0.	122.43
2570	1.5	3.75	0.	121.52
2571	1.25	4.	0.	123.13
2572	3.75	1.5	0.	125.52
2573	4.	1.75	0.	125.6
2574	4.	2.75	0.	126.83
2575	3.75	3.	0.	126.93
2576	-0.75	4.5	0.	127.65
2577	-0.5	4.75	0.	127.83
2578	-0.75	3.5	0.	127.67
2579	-1.	3.75	0.	127.73
2580	-1.25	3.5	0.	127.9
2581	-0.75	1.	0.	126.59
2582	-1.	0.75	0.	125.99
2583	-1.	1.25	0.	126.58
2584	-1.25	1.	0.	126.4
2585	-1.75	-3.0892e-007	0.	124.88
2586	-2.25	-9.2138e-007	0.	124.59
2587	-2.	0.25	0.	125.2
2588	-2.	-0.25	0.	125.26
2589	5.	2.75	0.	127.45
2590	5.25	3.	0.	127.9
2591	5.25	1.5	0.	126.11
2592	5.	1.75	0.	126.04
2593	6.25	4.	0.	126.22
2594	6.	3.75	0.	127.15
2595	5.25	0.5	0.	125.69
2596	5.	0.25	0.	125.17
2597	-0.25	5.	0.	128.08
2598	2.4702e-009	5.25	0.	128.68
2599	5.75	5.5	0.	128.08
2600	6.	5.75	0.	127.75
2601	6.25	5.5	0.	127.37
2602	0.25	-5.	0.	125.81
2603	-1.8565e-011	-5.25	0.	126.24
2604	3.5344e-012	-4.75	0.	125.1
2605	-6.9993	3.7499	0.	121.26
2606	-7.2493	3.4999	0.	121.62
2607	-6.2495	3.9999	0.	120.66
2608	-6.7495	3.9999	0.	121.06
2609	-6.4996	4.2499	0.	120.19
2610	4.75	-1.	0.	124.3
2611	4.5	-1.25	0.	122.31
2612	-5.749	2.9999	0.	123.36
2613	-5.9989	2.7499	0.	122.38
2614	-5.9996	4.25	0.	120.31
2615	-5.7496	4.	0.	122.15
2616	5.25	5.5	0.	128.48
2617	5.5	5.75	0.	128.58
2618	-0.25	3.5	0.	127.37
2619	-0.5	3.25	0.	127.76
2620	3.5	3.25	0.	126.53
2621	3.25	3.5	0.	125.77
2622	-0.25	-5.5	0.	126.69
2623	-0.5	-5.75	0.	127.29
2624	-0.75	-5.5	0.	126.01
2625	-1.5	0.25	0.	125.19
2626	-1.25	0.5	0.	125.63
2627	-1.75	0.5	0.	125.5
2628	-1.5	0.75	0.	126.04
2629	-3.25	-5.216e-006	0.	122.1
2630	-3.5	-0.25001	0.	121.92
2631	-3.75	-1.0919e-005	0.	122.36
2632	-3.5	0.24999	0.	120.91
2633	-7.	-6.75	0.	126.11
2634	-7.	-7.25	0.	126.37
2635	-7.25	-7.	0.	126.16
2636	-6.75	-7.	0.	126.63
2637	-7.	-5.75	0.	124.78
2638	-7.	-5.25	0.	124.16
2639	-7.25	-5.5	0.	124.21
2640	-6.75	-5.5	0.	124.98
2641	5.75	3.5	0.	127.59
2642	5.5	3.25	0.	128.01
2643	0.25	5.5	0.	129.
2644	0.5	5.75	0.	129.15
2645	0.75	5.5	0.	128.41
2646	-1.25	-5.	0.	123.5
2647	-1.	-5.25	0.	124.62
2648	-1.	-4.75	0.	122.68
2649	3.	5.75	0.	119.12
2650	2.75	5.5	0.	120.62
2651	3.25	5.5	0.	120.91
2652	3.25	1.	0.	126.5
2653	3.5	1.25	0.	125.64
2654	3.5	0.75	0.	125.33
2655	-0.25	1.	0.	127.85
2656	-0.5	0.75	0.	126.73
2657	-0.5	1.25	0.	127.05
2658	4.	-1.75	0.	118.13
2659	4.25	-1.5	0.	120.64
2660	3.75	-1.5	0.	120.53
2661	-1.75	3.	0.	128.77
2662	-1.5	2.75	0.	127.85
2663	-1.5	3.25	0.	128.02
2664	6.5	4.25	0.	125.76
2665	6.75	4.5	0.	125.33
2666	6.5	4.75	0.	126.43
2667	-6.9992	2.2499	0.	117.64
2668	-6.749	2.4999	0.	119.06
2669	-7.2492	2.4999	0.	119.28
2670	-1.25	-1.12e-007	0.	124.87
2671	-1.5	-0.25	0.	124.44
2672	-1.	0.25	0.	125.31
2673	-0.75	0.5	0.	126.13
2674	5.5	0.75	0.	126.29
2675	5.5	1.25	0.	126.43
2676	5.75	1.	0.	127.37
2677	4.25	5.	0.	125.88
2678	4.	5.25	0.	124.78
2679	4.	4.75	0.	125.23
2680	4.5	5.25	0.	127.07
2681	1.75	5.	0.	124.17
2682	1.5	5.25	0.	125.64
2683	2.	5.25	0.	123.47
2684	4.	-0.25	0.	123.97
2685	3.75	-0.5	0.	124.28
2686	3.75	-2.1366e-011	0.	124.68
2687	4.25	-6.6662e-012	0.	124.26
2688	-1.	2.25	0.	127.39
2689	-1.25	2.5	0.	127.64
2690	-0.75	2.5	0.	127.76
2691	0.5	3.75	0.	125.45
2692	0.75	4.	0.	124.7
2693	2.25	4.	0.	122.79
2694	2.5	3.75	0.	123.48
2695	2.	3.75	0.	121.96
2696	3.75	2.5	0.	126.89
2697	4.	2.25	0.	126.35
2698	4.25	2.5	0.	126.74
2699	-1.	4.25	0.	127.68
2700	-1.25	4.	0.	127.94
2701	-1.	4.75	0.	127.36
2702	-1.25	4.5	0.	127.69
2703	-1.	1.75	0.	127.06
2704	-0.75	1.5	0.	127.03
2705	-1.25	1.5	0.	127.04
2706	-0.75	2.	0.	127.44
2707	-1.25	2.	0.	127.39
2708	-2.75	-2.4544e-006	0.	123.38
2709	-2.5	-0.25	0.	124.91
2710	-2.5	0.25	0.	124.13
2711	-3.	-0.25	0.	123.08
2712	-3.	0.25	0.	122.02
2713	-7.	-6.25	0.	125.52
2714	-7.25	-6.	0.	124.98
2715	-6.75	-6.	0.	125.59
2716	-7.25	-6.5	0.	125.7
2717	-6.75	-6.5	0.	126.35
2718	5.25	2.5	0.	127.63
2719	5.	2.25	0.	126.85
2720	4.75	2.5	0.	127.01
2721	6.75	4.	0.	124.37
2722	7.	4.25	0.	123.95
2723	7.25	4.	0.	122.45
2724	7.	3.75	0.	122.73
2725	6.5	3.75	0.	125.35
2726	5.	-0.75	0.	125.49
2727	5.25	-0.5	0.	126.55
2728	5.	-0.25	0.	125.41
2729	-0.75	5.	0.	127.53
2730	-1.25	5.	0.	126.71
2731	-1.	5.25	0.	126.72
2732	-0.5	5.25	0.	128.19
2733	5.75	6.	0.	128.26
2734	6.	6.25	0.	127.86
2735	6.25	6.	0.	127.2
2736	0.5	-5.25	0.	126.31
2737	0.5	-4.75	0.	126.22
2738	0.75	-5.	0.	126.11
2739	-7.2495	3.9999	0.	122.75
2740	-6.9996	4.2499	0.	122.17
2741	7.	-2.25	0.	126.69
2742	7.25	-2.	0.	125.03
2743	6.75	-2.	0.	127.42
2744	7.	-1.75	0.	125.42
2745	5.25	-1.	0.	126.74
2746	5.	-1.25	0.	125.32
2747	-5.2492	3.	0.	126.6
2748	-5.4993	3.25	0.	124.35
2749	-5.4991	2.7499	0.	125.59
2750	-5.9998	4.75	0.	118.59
2751	-6.2497	4.5	0.	119.83
2752	-5.7497	4.5	0.	121.22
2753	-6.2499	5.	0.	118.08
2754	-5.9999	5.25	0.	116.87
2755	-5.7499	5.	0.	119.25
2756	-0.75	-4.	0.	120.1
2757	-1.25	-4.	0.	120.69
2758	-1.	-3.75	0.	119.24
2759	-1.	-4.25	0.	120.63
2760	-1.	-0.25	0.	124.31
2761	-0.75	-4.0142e-008	0.	125.6
2762	-1.	-0.75	0.	122.6
2763	-1.25	-0.5	0.	123.88
2764	-0.75	-0.5	0.	124.62
2765	-1.25	-1.	0.	122.23
2766	-0.75	-1.	0.	122.63
2767	-1.	-1.25	0.	120.99
2768	-7.2493	2.	0.	117.71
2769	-6.7492	1.9999	0.	117.84
2770	-6.9994	1.75	0.	116.7
2771	7.25	4.5	0.	123.63
2772	7.	4.75	0.	125.33
2773	-2.	3.25	0.	129.38
2774	-2.	2.75	0.	129.16
2775	-2.25	3.	0.	132.12
2776	-4.9994	2.75	0.	128.83
2777	-4.9995	3.25	0.	127.82
2778	-4.7495	3.	0.	131.53
2779	6.25	-4.	0.	128.35
2780	6.	-3.75	0.	129.29
2781	6.	-4.25	0.	128.83
2782	5.75	-4.	0.	132.07
2783	3.75	-2.	0.	117.38
2784	4.25	-2.	0.	117.69
2785	4.	-2.25	0.	115.4
2786	1.75	-4.	0.	128.48
2787	2.	-4.25	0.	128.99
2788	2.	-3.75	0.	128.88
2789	2.25	-4.	0.	132.14
2790	7.0597e-008	0.75	0.	128.6
2791	8.1779e-008	1.25	0.	128.58
2792	0.25	1.	0.	131.44
2793	3.	1.25	0.	127.38
2794	3.	0.75	0.	127.27
2795	2.75	1.	0.	130.3
2796	3.25	6.	0.	118.99
2797	2.75	6.	0.	118.81
2798	3.	6.25	0.	117.77
2799	6.5	5.25	0.	126.89
2800	6.75	5.	0.	126.42
2801	6.75	-2.5	0.	128.26
2802	7.25	-2.5	0.	126.16
2803	7.	-2.75	0.	127.8
2804	7.5	-1.75	0.	123.09
2805	7.5	-2.25	0.	124.5
2806	7.75	-2.	0.	123.53
2807	-1.5	-4.75	0.	123.06
2808	-1.75	-4.5	0.	123.87
2809	-1.5	-4.25	0.	122.31
2810	-1.25	-4.5	0.	122.23
2811	-1.5	-5.25	0.	123.82
2812	-1.75	-5.	0.	123.41
2813	-1.75	5.5	0.	123.42
2814	-2.25	5.5	0.	122.94
2815	-2.	5.25	0.	124.62
2816	-2.	5.75	0.	121.12
2817	-5.4995	3.75	0.	123.66
2818	-5.2495	3.5	0.	125.57
2819	-6.249	2.4999	0.	121.23
2820	-6.4991	2.2499	0.	119.29
2821	1.25	-4.5	0.	127.1
2822	1.5	-4.25	0.	127.51
2823	1.75	-4.5	0.	128.02
2824	1.5	-4.75	0.	127.
2825	-0.25	0.5	0.	127.48
2826	-0.5	0.25	0.	126.43
2827	-5.5	-2.25	0.	126.55
2828	-5.75	-2.5	0.	126.59
2829	-5.25	-2.5	0.	125.87
2830	-5.5	-2.75	0.	126.63
2831	-0.25	5.5	0.	128.79
2832	2.2295e-009	5.75	0.	129.62
2833	-1.5	5.25	0.	125.17
2834	-1.5	5.75	0.	122.64
2835	-1.25	5.5	0.	125.17
2836	5.5	-0.75	0.	127.79
2837	5.75	-1.	0.	128.84
2838	5.5	-1.25	0.	128.29
2839	5.75	0.5	0.	127.22
2840	5.5	0.25	0.	126.58
2841	7.25	-1.5	0.	123.47
2842	7.75	-1.5	0.	122.48
2843	7.5	-1.25	0.	120.61
2844	6.25	3.5	0.	126.29
2845	6.	3.25	0.	127.79
2846	7.5	3.75	0.	120.86
2847	7.75	4.	0.	121.39
2848	7.5	4.25	0.	122.14
2849	7.5	3.25	0.	118.69
2850	7.75	3.5	0.	120.59
2851	7.25	3.5	0.	121.13
2852	5.5	1.75	0.	126.94
2853	5.75	1.5	0.	127.33
2854	5.5	2.75	0.	128.08
2855	5.75	3.	0.	128.21
2856	-7.25	-5.	0.	123.47
2857	-7.	-4.75	0.	123.57
2858	-6.75	-5.	0.	124.89
2859	-6.75	-7.5	0.	126.5
2860	-6.5	-7.25	0.	126.75
2861	-6.25	-7.5	0.	126.47
2862	-6.5	-7.75	0.	126.4
2863	-7.25	-7.5	0.	126.33
2864	-7.	-7.75	0.	126.38
2865	-7.5	-7.25	0.	126.12
2866	-7.5	-7.75	0.	126.29
2867	-7.75	-7.5	0.	126.22
2868	-7.5	-6.75	0.	125.75
2869	-7.75	-7.	0.	125.97
2870	-7.5	-6.25	0.	125.15
2871	-7.75	-6.5	0.	125.52
2872	-7.5	-5.75	0.	124.41
2873	-7.75	-6.	0.	124.9
2874	-7.5	-5.25	0.	123.52
2875	-7.75	-5.5	0.	124.2
2876	-7.5	-4.75	0.	122.24
2877	-7.75	-5.	0.	123.37
2878	-7.25	-4.5	0.	122.32
2879	-7.5	-4.25	0.	119.83
2880	-7.75	-4.5	0.	122.14
2881	-6.5	-6.75	0.	126.87
2882	-6.25	-7.	0.	127.25
2883	-6.5	-5.25	0.	125.7
2884	-6.25	-5.5	0.	126.06
2885	-6.5	-5.75	0.	125.78
2886	-4.75	-7.5	0.	122.23
2887	-4.25	-7.5	0.	122.22
2888	-4.5	-7.75	0.	122.52
2889	-4.5	-7.25	0.	120.58
2890	-5.75	-7.5	0.	125.7
2891	-6.	-7.75	0.	126.07
2892	-6.	-7.25	0.	126.97
2893	-6.7497	4.4999	0.	121.29
2894	-6.4998	4.75	0.	119.35
2895	-7.4993	2.7499	0.	120.67
2896	-7.4993	2.25	0.	119.38
2897	-7.7494	2.5	0.	121.84
2898	-7.4993	3.2499	0.	121.84
2899	-7.7494	2.9999	0.	122.54
2900	-7.4995	3.7499	0.	123.11
2901	-7.7494	3.4999	0.	123.49
2902	-7.7496	3.9999	0.	124.78
2903	-7.4996	4.2499	0.	124.72
2904	6.5	-4.25	0.	127.38
2905	6.25	-4.5	0.	127.86
2906	6.75	-4.5	0.	127.11
2907	6.5	-4.75	0.	127.6
2908	-1.75	-0.5	0.	124.82
2909	-1.5	-0.75	0.	123.53
2910	-3.25	-0.5	0.	122.9
2911	-3.5	-0.75	0.	121.4
2912	-3.75	-0.50001	0.	122.97
2913	-4.25	-1.9004e-005	0.	124.56
2914	-4.	0.24998	0.	122.48
2915	-4.	-0.25001	0.	123.41
2916	0.75	-4.5	0.	126.61
2917	1.	-4.25	0.	127.46
2918	1.	-4.75	0.	126.51
2919	-0.5	-4.25	0.	121.65
2920	-0.25	-4.5	0.	123.63
2921	-0.75	-4.5	0.	122.15
2922	1.25	-4.	0.	127.87
2923	1.5	-3.75	0.	127.71
2924	-2.	0.75	0.	126.14
2925	-2.25	0.5	0.	124.74
2926	-3.75	0.49998	0.	121.02
2927	-3.5	0.74999	0.	118.7
2928	-3.25	0.49999	0.	120.82
2929	-1.5	2.25	0.	127.63
2930	-1.75	2.5	0.	128.24
2931	-1.5	1.25	0.	126.87
2932	-1.75	1.	0.	126.67
2933	-1.5	4.75	0.	127.04
2934	-1.75	5.	0.	126.32
2935	-1.5	3.75	0.	128.11
2936	-1.75	3.5	0.	128.64
2937	6.5	-2.25	0.	128.99
2938	6.5	-1.75	0.	128.4
2939	6.25	-2.	0.	129.72
2940	4.75	-1.5	0.	123.33
2941	4.5	-1.75	0.	120.28
2942	6.25	-1.5	0.	128.9
2943	6.	-1.75	0.	130.22
2944	6.	-1.25	0.	129.69
2945	5.75	-1.5	0.	129.14
2946	0.25	-5.5	0.	126.74
2947	-3.2476e-011	-5.75	0.	127.86
2948	-0.75	-6.	0.	127.94
2949	-0.25	-6.	0.	128.44
2950	-0.5	-6.25	0.	128.46
2951	-0.5	-7.25	0.	127.73
2952	-0.75	-7.5	0.	127.13
2953	-0.5	-7.75	0.	127.74
2954	-0.25	-7.5	0.	127.98
2955	-2.25	-5.5	0.	122.08
2956	-2.75	-5.5	0.	122.37
2957	-2.5	-5.75	0.	120.51
2958	-2.5	-5.25	0.	122.8
2959	-1.25	-5.5	0.	124.93
2960	-1.	-5.75	0.	126.68
2961	3.5	2.75	0.	126.99
2962	3.25	3.	0.	126.9
2963	3.25	1.5	0.	126.52
2964	3.5	1.75	0.	126.17
2965	2.75	3.5	0.	124.58
2966	3.	3.25	0.	126.14
2967	0.25	3.5	0.	126.2
2968	4.4825e-009	3.25	0.	127.57
2969	1.75	3.5	0.	121.04
2970	1.5	3.25	0.	118.92
2971	1.25	3.5	0.	121.46
2972	-0.5	1.75	0.	127.42
2973	-0.25	1.5	0.	127.78
2974	-0.5	2.75	0.	127.94
2975	-0.25	3.	0.	127.96
2976	3.5	0.25	0.	125.19
2977	3.25	0.5	0.	126.1
2978	3.5	-1.25	0.	122.38
2979	3.25	-1.5	0.	122.78
2980	3.5	-1.75	0.	119.85
2981	3.5	-0.75	0.	124.18
2982	3.25	-1.	0.	124.72
2983	0.5	6.25	0.	129.02
2984	0.75	6.	0.	129.36
2985	0.25	6.	0.	129.76
2986	0.5	7.25	0.	125.57
2987	0.75	7.5	0.	124.87
2988	0.5	7.75	0.	125.19
2989	0.25	7.5	0.	124.92
2990	2.25	5.5	0.	122.34
2991	2.5	5.75	0.	120.33
2992	1.	5.75	0.	128.63
2993	1.25	5.5	0.	127.13
2994	4.75	5.5	0.	127.93
2995	5.	5.75	0.	129.06
2996	3.75	5.5	0.	123.13
2997	3.5	5.75	0.	120.8
2998	5.5	6.25	0.	128.68
2999	5.25	6.	0.	129.16
3000	5.75	6.5	0.	128.28
3001	6.25	6.5	0.	127.4
3002	6.	6.75	0.	128.28
3003	5.5	6.75	0.	128.17
3004	5.25	6.5	0.	129.24
3005	5.5	7.25	0.	127.2
3006	5.75	7.	0.	128.17
3007	5.25	7.	0.	127.96
3008	4.25	5.5	0.	125.98
3009	4.	5.75	0.	124.65
3010	4.5	5.75	0.	128.1
3011	2.	5.75	0.	123.82
3012	1.75	5.5	0.	124.95
3013	3.5	-0.25	0.	125.
3014	3.25	-0.5	0.	126.05
3015	3.25	-2.6336e-011	0.	126.24
3016	-0.5	2.25	0.	127.8
3017	-0.25	2.5	0.	128.45
3018	-0.25	2.	0.	128.19
3019	0.5	3.25	0.	125.8
3020	0.75	3.5	0.	123.83
3021	2.25	3.5	0.	122.66
3022	2.5	3.25	0.	124.57
3023	2.	3.25	0.	120.97
3024	3.25	2.5	0.	127.51
3025	3.5	2.25	0.	126.78
3026	-1.75	-5.5	0.	123.37
3027	-1.5	-5.75	0.	125.31
3028	-2.	-5.75	0.	122.2
3029	-2.	-5.25	0.	122.96
3030	-0.25	-7.	0.	128.59
3031	-0.75	-7.	0.	128.11
3032	-0.5	-6.75	0.	128.38
3033	0.75	-5.5	0.	125.88
3034	1.	-5.75	0.	124.47
3035	1.25	-5.5	0.	125.24
3036	1.	-5.25	0.	125.68
3037	0.5	-5.75	0.	127.25
3038	2.75	-1.5	0.	125.23
3039	3.	-1.25	0.	125.14
3040	3.	-1.75	0.	123.96
3041	2.5	-1.75	0.	126.8
3042	2.5	-1.25	0.	126.58
3043	2.25	-1.5	0.	125.85
3044	5.	-1.75	0.	125.15
3045	5.25	-1.5	0.	126.88
3046	6.25	-2.5	0.	130.33
3047	6.5	-2.75	0.	129.15
3048	-1.5	4.25	0.	127.94
3049	-1.75	4.	0.	128.76
3050	-1.75	4.5	0.	128.27
3051	-1.5	1.75	0.	127.38
3052	-1.75	1.5	0.	127.75
3053	-1.75	2.	0.	128.1
3054	1.75	-3.	0.	127.88
3055	1.5	-3.25	0.	127.45
3056	1.5	-2.75	0.	126.97
3057	1.25	-3.	0.	127.48
3058	0.5	-4.25	0.	127.09
3059	0.25	-4.5	0.	125.51
3060	-4.75	-2.2816e-005	0.	127.92
3061	-4.5	-0.25002	0.	126.76
3062	-4.4999	0.24997	0.	125.76
3063	-2.25	-0.5	0.	125.57
3064	-2.	-0.75	0.	126.33
3065	-2.75	-0.5	0.	124.61
3066	-2.5	-0.75	0.	127.36
3067	-3.	-0.75	0.	124.11
3068	6.5	-3.75	0.	127.94
3069	6.25	-3.5	0.	128.89
3070	6.75	-3.5	0.	128.62
3071	6.5	-3.25	0.	128.72
3072	6.75	-4.	0.	127.77
3073	-6.9998	4.7499	0.	123.19
3074	-7.2497	4.4999	0.	124.13
3075	-5.25	-7.5	0.	123.93
3076	-5.5	-7.75	0.	124.93
3077	-5.5	-7.25	0.	125.85
3078	-5.	-7.75	0.	123.26
3079	-5.	-7.25	0.	122.56
3080	-6.25	-6.5	0.	127.62
3081	-6.5	-6.25	0.	126.42
3082	-7.	-4.25	0.	122.57
3083	-6.75	-4.5	0.	125.
3084	-6.25	-5.	0.	127.18
3085	-6.5	-4.75	0.	126.32
3086	5.5	2.25	0.	127.65
3087	5.75	2.5	0.	128.53
3088	5.75	2.	0.	127.99
3089	5.25	2.	0.	126.87
3090	6.5	3.25	0.	125.86
3091	6.75	3.5	0.	123.71
3092	6.75	-1.5	0.	126.4
3093	6.5	-1.25	0.	128.33
3094	7.	-1.25	0.	123.89
3095	5.75	-0.5	0.	128.63
3096	5.5	-0.25	0.	127.2
3097	0.5	6.75	0.	127.43
3098	0.25	6.5	0.	129.17
3099	0.75	6.5	0.	128.91
3100	0.25	7.	0.	126.82
3101	0.75	7.	0.	126.67
3102	-0.5	5.75	0.	128.98
3103	-0.75	5.5	0.	127.38
3104	-7.7494	2.	0.	121.3
3105	-7.4995	1.75	0.	117.27
3106	-5.75	-2.	0.	127.12
3107	-6.	-2.25	0.	127.16
3108	-6.	-1.75	0.	127.34
3109	-6.25	-2.	0.	129.24
3110	3.75	6.	0.	122.33
3111	3.5	6.25	0.	118.51
3112	4.6406e-008	0.25	0.	128.66
3113	0.25	0.5	0.	130.62
3114	3.	1.75	0.	127.47
3115	2.75	1.5	0.	129.22
3116	2.	-4.75	0.	128.87
3117	2.25	-4.5	0.	131.23
3118	3.25	-2.	0.	121.02
3119	3.5	-2.25	0.	116.35
3120	5.75	-3.5	0.	131.7
3121	6.	-3.25	0.	130.01
3122	-2.	3.75	0.	129.29
3123	-2.25	3.5	0.	131.15
3124	-5.749	2.4999	0.	124.61
3125	-5.9991	2.2499	0.	123.53
3126	-5.2492	2.4999	0.	127.81
3127	-5.4992	2.2499	0.	127.85
3128	-4.9994	2.2499	0.	130.32
3129	-4.7495	2.5	0.	131.26
3130	-0.5	-3.75	0.	119.23
3131	-0.25	-4.	0.	122.62
3132	-1.5	-1.25	0.	121.41
3133	-1.75	-1.	0.	125.05
3134	-5.4997	4.25	0.	123.07
3135	-5.2497	4.	0.	125.45
3136	-5.2498	4.5	0.	125.38
3137	-5.4998	4.75	0.	121.91
3138	6.25	0.5	0.	130.33
3139	6.	0.25	0.	128.5
3140	6.	0.75	0.	128.29
3141	-1.5	6.25	0.	119.39
3142	-1.25	6.	0.	123.48
3143	-1.75	6.	0.	120.29
3144	-2.75	5.5	0.	123.51
3145	-2.5	5.75	0.	121.82
3146	-2.5	5.25	0.	124.58
3147	-3.25	5.5	0.	124.98
3148	-3.	5.75	0.	124.2
3149	-3.	5.25	0.	123.57
3150	5.25	7.5	0.	126.26
3151	5.5	7.75	0.	126.22
3152	5.75	7.5	0.	127.79
3153	-2.25	-4.5	0.	125.77
3154	-2.	-4.25	0.	125.97
3155	-2.	-4.75	0.	124.21
3156	7.75	-2.5	0.	124.02
3157	7.5	-2.75	0.	125.92
3158	-3.9999	0.74997	0.	121.42
3159	-4.2499	0.49997	0.	123.68
3160	-5.5	-1.75	0.	127.84
3161	-5.25	-2.	0.	127.26
3162	6.5	5.75	0.	126.81
3163	6.75	5.5	0.	126.93
3164	6.5	6.25	0.	126.74
3165	6.75	6.	0.	126.3
3166	6.75	6.5	0.	125.78
3167	6.5	6.75	0.	127.78
3168	-4.	-7.75	0.	123.83
3169	-4.	-7.25	0.	123.1
3170	-3.75	-7.5	0.	125.51
3171	-3.	-5.25	0.	124.21
3172	-3.	-5.75	0.	123.23
3173	-3.25	-5.5	0.	125.87
3174	-4.	7.25	0.	130.06
3175	-4.	7.75	0.	130.2
3176	-3.75	7.5	0.	130.19
3177	-4.25	7.5	0.	131.75
3178	-7.9994	2.75	0.	123.71
3179	-7.9995	2.25	0.	123.76
3180	-8.2495	2.5	0.	125.35
3181	-7.9995	3.2499	0.	124.18
3182	-8.2495	3.	0.	125.14
3183	-7.9996	3.7499	0.	125.16
3184	-8.2496	3.4999	0.	125.56
3185	-7.9997	4.2499	0.	126.63
3186	-8.2497	3.9999	0.	126.48
3187	-7.9998	4.7499	0.	128.59
3188	-8.2498	4.4999	0.	127.82
3189	-7.7497	4.4999	0.	126.56
3190	1.	7.75	0.	125.71
3191	1.25	7.5	0.	126.98
3192	1.	7.25	0.	125.96
3193	0.75	8.	0.	126.04
3194	0.25	8.	0.	126.04
3195	0.5	8.25	0.	126.36
3196	-7.25	-4.	0.	120.03
3197	-7.75	-4.	0.	119.93
3198	-7.5	-3.75	0.	114.16
3199	-4.75	-8.	0.	123.54
3200	-4.25	-8.	0.	124.12
3201	-4.5	-8.25	0.	124.14
3202	-5.25	-8.	0.	124.27
3203	-5.	-8.25	0.	124.2
3204	-5.75	-8.	0.	125.3
3205	-5.5	-8.25	0.	124.97
3206	-6.25	-8.	0.	126.
3207	-6.	-8.25	0.	125.72
3208	-6.75	-8.	0.	126.29
3209	-6.5	-8.25	0.	126.15
3210	-7.25	-8.	0.	126.34
3211	-7.	-8.25	0.	126.3
3212	-7.75	-8.	0.	126.33
3213	-7.5	-8.25	0.	126.34
3214	-8.	-7.75	0.	126.26
3215	-8.25	-8.	0.	126.34
3216	-8.	-8.25	0.	126.36
3217	-8.	-7.25	0.	126.07
3218	-8.25	-7.5	0.	126.23
3219	-8.	-6.75	0.	125.74
3220	-8.25	-7.	0.	126.01
3221	-8.	-6.25	0.	125.27
3222	-8.25	-6.5	0.	125.69
3223	-8.	-5.75	0.	124.7
3224	-8.25	-6.	0.	125.29
3225	-8.	-5.25	0.	124.05
3226	-8.25	-5.5	0.	124.88
3227	-8.	-4.75	0.	123.28
3228	-8.25	-5.	0.	124.5
3229	-8.	-4.25	0.	122.28
3230	-8.25	-4.5	0.	124.25
3231	-1.	-7.25	0.	127.49
3232	-1.	-7.75	0.	127.56
3233	-1.25	-7.5	0.	128.36
3234	-0.25	-8.	0.	128.64
3235	-2.8804e-012	-8.25	0.	129.41
3236	0.25	-8.	0.	131.5
3237	-7.2272e-012	-7.75	0.	128.87
3238	-0.75	-8.	0.	128.18
3239	-0.5	-8.25	0.	128.67
3240	7.25	3.	0.	119.05
3241	7.75	3.	0.	118.86
3242	7.5	2.75	0.	113.56
3243	8.	3.75	0.	121.12
3244	8.	4.25	0.	121.02
3245	8.25	4.	0.	121.78
3246	8.	3.25	0.	120.78
3247	8.25	3.5	0.	122.37
3248	-5.75	-1.5	0.	128.06
3249	-5.5	-1.25	0.	130.12
3250	-5.25	-1.5	0.	129.44
3251	5.	7.25	0.	127.01
3252	5.	7.75	0.	126.21
3253	4.75	7.5	0.	127.72
3254	4.75	6.	0.	129.22
3255	5.	6.25	0.	129.72
3256	2.25	6.	0.	121.82
3257	2.5	6.25	0.	118.18
3258	1.	6.25	0.	129.24
3259	1.25	6.	0.	128.7
3260	3.	0.25	0.	127.15
3261	2.75	0.5	0.	129.33
3262	2.75	-1.	0.	126.48
3263	3.	-0.75	0.	126.6
3264	1.5	-1.75	0.	125.78
3265	1.75	-2.	0.	126.81
3266	1.25	-2.	0.	126.97
3267	1.5	-2.25	0.	126.57
3268	1.5	-1.25	0.	123.39
3269	1.25	-1.5	0.	126.61
3270	1.75	-1.5	0.	125.37
3271	1.25	-1.	0.	123.81
3272	1.5	-0.75	0.	117.12
3273	1.75	-1.	0.	122.63
3274	6.7833e-008	1.75	0.	128.55
3275	0.25	1.5	0.	130.19
3276	0.25	3.	0.	127.17
3277	1.4079e-008	2.75	0.	128.47
3278	1.75	3.	0.	118.8
3279	1.25	3.	0.	119.04
3280	1.5	2.75	0.	113.41
3281	3.	2.75	0.	127.43
3282	2.75	3.	0.	126.13
3283	-2.25	-6.	0.	120.61
3284	-2.75	-6.	0.	121.34
3285	-2.5	-6.25	0.	116.28
3286	-1.	-6.25	0.	128.38
3287	-1.25	-6.	0.	127.03
3288	1.75	-5.	0.	127.85
3289	1.5	-5.25	0.	125.97
3290	1.25	-5.	0.	126.4
3291	1.25	-6.	0.	122.5
3292	1.75	-6.	0.	123.68
3293	1.5	-6.25	0.	116.74
3294	1.5	-5.75	0.	123.33
3295	0.25	-6.	0.	128.36
3296	-3.3539e-011	-6.25	0.	129.24
3297	2.	-3.25	0.	128.55
3298	2.25	-3.5	0.	130.8
3299	1.75	-3.5	0.	128.11
3300	2.25	-2.	0.	127.35
3301	2.	-1.75	0.	126.42
3302	2.	-2.25	0.	127.83
3303	4.75	-2.	0.	122.1
3304	4.5	-2.25	0.	116.98
3305	6.	-2.25	0.	131.05
3306	5.75	-2.	0.	130.45
3307	6.	-4.75	0.	128.93
3308	5.75	-4.5	0.	130.73
3309	-4.9997	3.75	0.	127.36
3310	-4.7497	3.5	0.	130.06
3311	-2.	4.75	0.	127.57
3312	-2.25	5.	0.	126.21
3313	-2.	2.25	0.	128.71
3314	-2.25	2.5	0.	130.73
3315	-2.25	1.	0.	126.21
3316	-2.	1.25	0.	127.56
3317	-3.7499	0.99998	0.	119.06
3318	-3.4999	1.25	0.	113.64
3319	-3.25	0.99999	0.	118.9
3320	7.75	4.5	0.	121.77
3321	7.5	4.75	0.	123.54
3322	8.	4.75	0.	120.49
3323	8.25	4.5	0.	120.82
3324	7.	5.25	0.	126.46
3325	7.25	5.	0.	125.24
3326	-6.25	-2.5	0.	128.69
3327	-6.	-2.75	0.	127.64
3328	-6.2492	1.9999	0.	121.6
3329	-6.4994	1.75	0.	117.87
3330	-4.9999	0.24997	0.	128.86
3331	-4.9999	0.74995	0.	129.15
3332	-5.2499	0.49997	0.	130.25
3333	-4.7499	0.49996	0.	126.7
3334	-0.5	-0.25	0.	125.92
3335	-0.25	-1.4363e-008	0.	127.61
3336	-0.5	-0.75	0.	124.68
3337	-0.25	-0.5	0.	127.46
3338	-0.25	-1.	0.	126.25
3339	-0.5	-1.25	0.	121.87
3340	1.	-2.25	0.	126.89
3341	0.75	-2.5	0.	128.26
3342	1.25	-2.5	0.	126.51
3343	1.	-2.75	0.	127.01
3344	0.75	-4.	0.	127.93
3345	1.	-3.75	0.	128.38
3346	-1.75	-4.	0.	124.42
3347	-1.5	-3.75	0.	120.45
3348	-5.	-2.25	0.	126.59
3349	-4.75	-2.5	0.	127.08
3350	-5.	-2.75	0.	126.13
3351	-4.75	-1.	0.	130.17
3352	-5.	-0.75001	0.	131.51
3353	-5.25	-1.	0.	131.47
3354	-5.	-1.25	0.	130.78
3355	-3.25	-1.	0.	122.61
3356	-3.5	-1.25	0.	117.24
3357	-3.75	-1.	0.	122.04
3358	6.75	-5.5	0.	129.22
3359	6.25	-5.5	0.	129.41
3360	6.5	-5.75	0.	127.33
3361	6.5	-5.25	0.	128.22
3362	3.	-7.25	0.	126.44
3363	2.75	-7.5	0.	128.13
3364	3.25	-7.5	0.	126.24
3365	3.	-7.75	0.	126.68
3366	8.	-7.25	0.	127.84
3367	8.	-7.75	0.	128.19
3368	8.25	-7.5	0.	127.29
3369	7.75	-7.5	0.	129.21
3370	7.	-4.25	0.	127.5
3371	7.25	-4.5	0.	129.
3372	7.	-4.75	0.	127.86
3373	7.25	-3.	0.	127.55
3374	7.	-3.25	0.	128.58
3375	6.75	-3.	0.	128.69
3376	8.	-1.75	0.	122.93
3377	8.	-1.25	0.	122.26
3378	8.25	-1.5	0.	123.87
3379	8.	-2.25	0.	123.04
3380	8.25	-2.	0.	123.51
3381	8.	-2.75	0.	122.73
3382	8.25	-2.5	0.	122.75
3383	-6.7498	5.	0.	121.25
3384	-6.4999	5.25	0.	117.24
3385	-7.9999	5.25	0.	130.44
3386	-7.7498	4.9999	0.	129.09
3387	-8.2499	4.9999	0.	129.38
3388	-2.5	-4.75	0.	125.24
3389	-2.75	-5.	0.	124.64
3390	-2.25	-5.	0.	123.67
3391	-2.75	-4.5	0.	126.87
3392	-2.5	-4.25	0.	128.46
3393	-4.75	-7.	0.	120.89
3394	-4.25	-7.	0.	121.44
3395	-4.5	-6.75	0.	116.63
3396	-6.	-6.75	0.	128.
3397	-5.75	-7.	0.	127.11
3398	-6.	-5.25	0.	127.53
3399	-6.	-5.75	0.	127.17
3400	-5.75	-5.5	0.	128.7
3401	-6.	-4.25	0.	130.54
3402	-6.25	-4.	0.	129.41
3403	-6.	-3.75	0.	130.42
3404	-5.75	-4.	0.	130.66
3405	-5.25	-3.5	0.	128.18
3406	-5.75	-3.5	0.	129.43
3407	-5.5	-3.75	0.	129.66
3408	-5.5	-3.25	0.	127.93
3409	6.	7.25	0.	128.74
3410	6.25	7.	0.	128.65
3411	5.25	8.	0.	126.17
3412	5.5	8.25	0.	125.61
3413	5.75	8.	0.	126.62
3414	6.	1.75	0.	128.37
3415	6.25	1.5	0.	130.01
3416	6.	1.25	0.	128.27
3417	6.25	3.	0.	127.36
3418	6.	2.75	0.	128.66
3419	7.25	-1.	0.	120.99
3420	7.75	-1.	0.	120.36
3421	7.5	-0.75	0.	115.02
3422	6.	-0.75	0.	129.67
3423	6.25	-1.	0.	129.13
3424	-2.75	6.	0.	122.51
3425	-2.5	6.25	0.	118.8
3426	-2.25	6.	0.	119.96
3427	-3.5	5.25	0.	124.01
3428	-3.25	5.	0.	122.55
3429	-3.75	5.	0.	124.54
3430	-3.5	4.75	0.	117.58
3431	-3.5	5.75	0.	127.31
3432	-3.75	5.5	0.	128.03
3433	1.7833e-010	7.25	0.	126.16
3434	1.7214e-011	7.75	0.	125.77
3435	-0.25	7.5	0.	127.11
3436	-0.25	6.	0.	129.8
3437	1.34e-009	6.25	0.	129.9
3438	-0.5	6.25	0.	130.89
3439	-0.75	6.	0.	127.62
3440	6.0172e-010	6.75	0.	128.54
3441	-0.25	6.5	0.	130.98
3442	-0.25	7.	0.	128.8
3443	-4.	6.75	0.	131.31
3444	-3.75	7.	0.	131.02
3445	-4.25	7.	0.	133.72
3446	-4.	6.25	0.	131.54
3447	-3.75	6.5	0.	131.83
3448	-4.25	6.5	0.	133.71
3449	-3.25	6.	0.	126.5
3450	-3.75	6.	0.	130.05
3451	-3.5	6.25	0.	130.37
3452	-3.	6.25	0.	125.07
3453	6.25	-0.5	0.	130.61
3454	6.	-0.25	0.	129.29
3455	6.75	-1.	0.	125.84
3456	6.5	-0.75	0.	130.07
3457	7.	-0.75	0.	123.19
3458	6.75	3.	0.	123.67
3459	7.	2.75	0.	121.11
3460	7.	3.25	0.	121.52
3461	6.5	2.75	0.	128.26
3462	6.	2.25	0.	128.86
3463	6.25	2.5	0.	129.55
3464	6.25	2.	0.	129.2
3465	6.25	7.5	0.	130.88
3466	6.	7.75	0.	128.18
3467	-6.	-4.75	0.	129.38
3468	-5.75	-4.5	0.	131.85
3469	-6.25	-4.5	0.	128.53
3470	-5.75	-5.	0.	129.99
3471	-6.	-6.25	0.	128.09
3472	-5.75	-6.	0.	129.12
3473	-6.25	-6.	0.	126.89
3474	-5.75	-6.5	0.	129.58
3475	-5.25	-7.	0.	124.49
3476	-5.5	-6.75	0.	128.71
3477	-5.	-6.75	0.	123.01
3478	-3.	-4.75	0.	126.28
3479	-3.25	-5.	0.	126.98
3480	-3.	-4.25	0.	127.17
3481	-3.25	-4.5	0.	127.84
3482	-3.25	-4.	0.	124.87
3483	-3.5	-4.25	0.	125.59
3484	-3.5	-3.75	0.	118.41
3485	-3.75	-4.	0.	121.79
3486	-8.2499	5.5	0.	130.29
3487	-7.7499	5.5	0.	132.23
3488	-7.9999	5.75	0.	131.07
3489	-7.2498	4.9999	0.	126.14
3490	-7.4999	5.25	0.	130.91
3491	-7.4998	4.7499	0.	127.09
3492	-6.9999	5.25	0.	124.85
3493	-4.7499	5.	0.	129.9
3494	-4.9999	4.75	0.	127.95
3495	-4.9999	5.25	0.	128.43
3496	-5.2499	5.	0.	124.49
3497	-4.25	6.	0.	132.58
3498	-4.	5.75	0.	130.82
3499	7.75	-3.	0.	124.64
3500	8.25	-3.	0.	121.24
3501	8.	-3.25	0.	123.04
3502	7.5	-3.25	0.	128.7
3503	7.	-3.75	0.	128.43
3504	7.25	-3.5	0.	129.71
3505	7.25	-4.	0.	129.27
3506	7.25	-5.5	0.	131.76
3507	7.	-5.75	0.	129.36
3508	7.	-5.25	0.	129.36
3509	8.	-6.25	0.	128.19
3510	8.25	-6.	0.	125.4
3511	8.	-5.75	0.	127.49
3512	7.75	-6.	0.	129.64
3513	8.	-6.75	0.	128.61
3514	8.25	-7.	0.	127.58
3515	7.75	-7.	0.	130.01
3516	8.25	-6.5	0.	127.44
3517	7.75	-6.5	0.	131.21
3518	-2.75	-1.	0.	126.85
3519	-3.	-1.25	0.	125.42
3520	-2.5	-1.25	0.	132.88
3521	-2.25	-1.	0.	128.11
3522	-4.5	-1.25	0.	130.14
3523	-4.5	-0.75001	0.	128.13
3524	-4.25	-1.	0.	126.15
3525	-4.75	-2.	0.	128.58
3526	-5.	-1.75	0.	128.86
3527	-4.75	-3.5	0.	127.74
3528	-5.	-3.75	0.	127.
3529	-5.	-3.25	0.	127.14
3530	-2.75	-4.	0.	128.74
3531	-3.	-3.75	0.	127.24
3532	-2.25	-4.	0.	128.64
3533	-2.5	-3.75	0.	133.88
3534	-2.	-3.75	0.	128.16
3535	0.5	-3.75	0.	129.63
3536	0.25	-4.	0.	126.19
3537	1.	-1.75	0.	127.81
3538	0.75	-2.	0.	129.28
3539	1.	-1.25	0.	127.08
3540	0.75	-1.5	0.	130.63
3541	1.5052e-008	-0.75	0.	129.03
3542	0.25	-1.	0.	129.98
3543	6.7079e-009	-1.25	0.	128.8
3544	-5.	-0.25002	0.	130.63
3545	-5.25	-0.50001	0.	133.56
3546	-4.75	-0.50001	0.	129.48
3547	-5.25	-1.7434e-005	0.	131.92
3548	-4.9998	1.2499	0.	131.39
3549	-4.7498	0.99995	0.	128.68
3550	-5.2498	0.99995	0.	131.61
3551	-5.7492	1.9999	0.	126.77
3552	-5.2494	1.9999	0.	130.34
3553	-5.4994	1.7499	0.	131.64
3554	-5.9994	1.7499	0.	125.55
3555	-6.75	-4.	0.	124.97
3556	-7.	-3.75	0.	121.89
3557	-6.5	-3.75	0.	129.4
3558	-6.5	-4.25	0.	127.39
3559	-6.25	-3.5	0.	130.4
3560	-6.	-3.25	0.	129.17
3561	7.	5.75	0.	126.41
3562	7.	6.25	0.	125.33
3563	7.25	6.	0.	126.3
3564	7.25	5.5	0.	127.38
3565	8.25	5.	0.	119.03
3566	7.75	5.	0.	122.27
3567	8.	5.25	0.	120.49
3568	-4.9996	1.7499	0.	131.92
3569	-4.7496	1.9999	0.	131.57
3570	-4.7498	1.4999	0.	132.07
3571	-5.2497	1.4999	0.	133.21
3572	-4.2499	0.99996	0.	123.97
3573	-4.4998	1.25	0.	129.36
3574	-4.4999	0.74996	0.	126.23
3575	-3.9999	1.25	0.	121.3
3576	-2.5	1.25	0.	127.63
3577	-2.5	0.75	0.	124.81
3578	-2.75	1.	0.	123.09
3579	-2.	1.75	0.	128.47
3580	-2.25	1.5	0.	128.95
3581	-2.25	2.	0.	129.14
3582	-2.	4.25	0.	129.09
3583	-2.25	4.	0.	130.07
3584	-2.25	4.5	0.	129.81
3585	-3.	4.75	0.	123.49
3586	-2.75	5.	0.	124.64
3587	-4.25	5.	0.	129.53
3588	-4.	4.75	0.	126.48
3589	-4.	5.25	0.	128.64
3590	-4.4999	4.75	0.	132.44
3591	-4.5	5.25	0.	133.38
3592	-4.9998	4.25	0.	127.75
3593	-4.7499	4.5	0.	130.51
3594	-4.7498	4.	0.	129.22
3595	6.	-5.25	0.	129.85
3596	5.75	-5.5	0.	131.53
3597	6.	-5.75	0.	130.01
3598	5.75	-5.	0.	130.28
3599	6.25	-5.	0.	128.68
3600	5.75	-2.5	0.	132.54
3601	6.	-2.75	0.	131.02
3602	5.	-2.25	0.	125.82
3603	5.25	-2.	0.	127.66
3604	2.75	-2.	0.	125.53
3605	3.	-2.25	0.	124.19
3606	2.5	-2.25	0.	129.29
3607	2.25	-3.	0.	129.56
3608	2.	-2.75	0.	128.5
3609	2.	-5.25	0.	128.78
3610	2.25	-5.	0.	130.43
3611	2.	-5.75	0.	127.3
3612	2.25	-5.5	0.	130.97
3613	1.75	-5.5	0.	126.89
3614	3.	-6.25	0.	128.31
3615	2.75	-6.	0.	129.46
3616	3.	-5.75	0.	127.76
3617	3.25	-6.	0.	124.39
3618	0.75	-6.	0.	125.84
3619	1.	-6.25	0.	123.55
3620	0.5	-6.25	0.	129.66
3621	-2.5519e-011	-6.75	0.	129.46
3622	0.25	-6.5	0.	130.54
3623	-0.25	-6.5	0.	129.26
3624	0.25	-7.	0.	129.71
3625	-1.5026e-011	-7.25	0.	128.83
3626	3.	-6.75	0.	128.01
3627	2.75	-7.	0.	128.15
3628	3.25	-7.	0.	126.81
3629	2.75	-6.5	0.	130.36
3630	3.25	-6.5	0.	127.44
3631	2.25	-6.	0.	128.55
3632	2.5	-6.25	0.	131.52
3633	2.5	-5.75	0.	132.21
3634	2.	-6.25	0.	125.34
3635	-1.	-6.75	0.	128.61
3636	-1.25	-7.	0.	129.07
3637	-1.25	-6.5	0.	129.72
3638	-0.75	-6.5	0.	128.89
3639	-2.	-6.25	0.	122.58
3640	-1.75	-6.	0.	124.14
3641	3.	2.25	0.	127.85
3642	2.75	2.	0.	128.25
3643	3.25	2.	0.	127.12
3644	2.75	2.5	0.	128.54
3645	2.25	3.	0.	122.89
3646	2.5	2.75	0.	127.27
3647	2.	2.75	0.	120.68
3648	0.75	3.	0.	123.6
3649	1.	2.75	0.	121.
3650	1.	3.25	0.	121.62
3651	0.5	2.75	0.	128.11
3652	4.0065e-008	2.25	0.	128.83
3653	0.25	2.5	0.	129.4
3654	0.25	2.	0.	129.2
3655	2.9777e-008	-0.25	0.	129.14
3656	0.25	-5.3994e-009	0.	130.08
3657	0.25	-0.5	0.	131.16
3658	0.75	-1.	0.	128.68
3659	0.5	-0.75	0.	132.11
3660	0.5	-1.25	0.	132.22
3661	1.	-0.75	0.	125.59
3662	2.5	-0.75	0.	128.69
3663	2.25	-1.	0.	125.39
3664	3.	-0.25	0.	127.29
3665	2.75	-0.5	0.	128.8
3666	2.75	-1.8425e-011	0.	128.33
3667	1.25	6.5	0.	130.28
3668	1.	6.75	0.	128.13
3669	2.	6.25	0.	124.68
3670	1.75	6.	0.	126.08
3671	4.25	6.	0.	126.78
3672	4.	6.25	0.	125.26
3673	4.5	6.25	0.	130.51
3674	5.	6.75	0.	129.03
3675	4.75	6.5	0.	131.
3676	4.75	7.	0.	129.36
3677	-6.	-1.25	0.	127.89
3678	-6.25	-1.5	0.	127.95
3679	8.	-8.25	0.	129.66
3680	8.25	-8.	0.	128.64
3681	7.75	-8.	0.	130.17
3682	8.25	3.	0.	123.17
3683	8.	2.75	0.	121.02
3684	-1.	-8.25	0.	129.08
3685	-1.25	-8.	0.	129.16
3686	-8.25	-4.	0.	124.48
3687	-8.	-3.75	0.	121.99
3688	1.	8.25	0.	127.44
3689	1.25	8.	0.	128.03
3690	-8.	8.25	0.	130.08
3691	-8.25	8.	0.	128.78
3692	-7.75	8.	0.	131.41
3693	-8.	7.75	0.	129.87
3694	5.	8.25	0.	126.93
3695	4.75	8.	0.	128.07
3696	7.028e-012	8.25	0.	127.43
3697	-0.25	8.	0.	128.02
3698	-4.	8.25	0.	131.97
3699	-3.75	8.	0.	131.64
3700	-4.25	8.	0.	131.77
3701	-8.25	8.5	0.	128.79
3702	-7.75	8.5	0.	131.61
3703	-8.	8.75	0.	129.14
3704	-4.25	8.5	0.	133.18
3705	-3.75	8.5	0.	133.14
3706	-4.	8.75	0.	131.55
3707	0.25	8.5	0.	127.77
3708	9.2546e-012	8.75	0.	128.28
3709	-0.25	8.5	0.	129.83
3710	0.75	8.5	0.	127.78
3711	0.5	8.75	0.	127.48
3712	1.25	8.5	0.	129.86
3713	1.	8.75	0.	128.3
3714	5.25	8.5	0.	126.37
3715	4.75	8.5	0.	129.09
3716	5.	8.75	0.	127.22
3717	5.75	8.5	0.	125.36
3718	5.5	8.75	0.	125.6
3719	6.	8.75	0.	125.72
3720	6.25	8.5	0.	127.93
3721	6.	8.25	0.	126.38
3722	-8.2496	2.	0.	126.44
3723	-7.9996	1.75	0.	124.65
3724	-8.5	-7.75	0.	126.31
3725	-8.5	-8.25	0.	126.39
3726	-8.75	-8.	0.	126.38
3727	-8.5	-7.25	0.	126.17
3728	-8.75	-7.5	0.	126.31
3729	-8.5	-6.75	0.	125.97
3730	-8.75	-7.	0.	126.2
3731	-8.5	-6.25	0.	125.72
3732	-8.75	-6.5	0.	126.06
3733	-8.5	-5.75	0.	125.47
3734	-8.75	-6.	0.	125.93
3735	-8.5	-5.25	0.	125.33
3736	-8.75	-5.5	0.	125.89
3737	-8.5	-4.75	0.	125.47
3738	-8.75	-5.	0.	126.05
3739	-8.5	-4.25	0.	126.44
3740	-8.75	-4.5	0.	126.66
3741	-8.5	-3.75	0.	129.26
3742	-8.75	-4.	0.	128.22
3743	-8.4996	2.25	0.	128.03
3744	-8.4997	1.75	0.	130.85
3745	-8.7497	2.	0.	129.8
3746	-8.4996	2.75	0.	126.78
3747	-8.7497	2.5	0.	128.21
3748	-8.4996	3.25	0.	126.52
3749	-8.7497	3.	0.	127.49
3750	-8.4997	3.7499	0.	126.89
3751	-8.7497	3.5	0.	127.39
3752	-8.4997	4.2499	0.	127.68
3753	-8.7498	3.9999	0.	127.71
3754	-8.4998	4.7499	0.	128.62
3755	-8.7498	4.4999	0.	128.26
3756	-8.4999	5.25	0.	129.23
3757	-8.7499	5.	0.	128.72
3758	-8.4999	5.75	0.	129.06
3759	-8.7499	5.5	0.	128.67
3760	-8.5	6.25	0.	128.34
3761	-8.75	6.	0.	127.95
3762	-8.25	6.	0.	129.85
3763	-8.5	6.75	0.	127.66
3764	-8.75	6.5	0.	127.08
3765	-8.25	6.5	0.	128.99
3766	-8.5	7.25	0.	127.33
3767	-8.75	7.	0.	126.5
3768	-8.25	7.	0.	128.82
3769	-8.5	7.75	0.	127.36
3770	-8.75	7.5	0.	126.34
3771	-8.25	7.5	0.	128.45
3772	-8.5	8.25	0.	127.49
3773	-8.75	8.	0.	126.5
3774	-8.75	8.5	0.	126.62
3775	-8.5	8.75	0.	127.18
3776	-4.	-8.25	0.	125.57
3777	-3.75	-8.	0.	126.53
3778	-7.733e-013	-8.75	0.	130.21
3779	0.25	-8.5	0.	130.87
3780	-0.25	-8.5	0.	129.44
3781	-1.25	-8.5	0.	130.47
3782	-1.	-8.75	0.	129.95
3783	-0.75	-8.5	0.	129.58
3784	-4.25	-8.5	0.	125.59
3785	-3.75	-8.5	0.	127.43
3786	-4.	-8.75	0.	126.1
3787	-4.75	-8.5	0.	124.79
3788	-4.5	-8.75	0.	125.21
3789	-5.25	-8.5	0.	124.9
3790	-5.	-8.75	0.	125.01
3791	-5.75	-8.5	0.	125.39
3792	-5.5	-8.75	0.	125.3
3793	-6.25	-8.5	0.	125.87
3794	-6.	-8.75	0.	125.72
3795	-6.75	-8.5	0.	126.17
3796	-6.5	-8.75	0.	126.06
3797	-7.25	-8.5	0.	126.31
3798	-7.	-8.75	0.	126.25
3799	-7.75	-8.5	0.	126.36
3800	-7.5	-8.75	0.	126.34
3801	-8.25	-8.5	0.	126.4
3802	-8.	-8.75	0.	126.39
3803	-8.5	-8.75	0.	126.42
3804	-8.75	-8.5	0.	126.43
3805	8.25	-1.	0.	124.35
3806	8.	-0.75	0.	122.03
3807	8.5	4.75	0.	119.38
3808	8.75	5.	0.	120.14
3809	8.5	5.25	0.	114.59
3810	8.5	4.25	0.	121.58
3811	8.75	4.5	0.	122.18
3812	8.5	3.75	0.	123.03
3813	8.75	4.	0.	123.6
3814	8.5	3.25	0.	124.76
3815	8.75	3.5	0.	124.93
3816	8.75	3.	0.	126.87
3817	8.5	2.75	0.	128.03
3818	8.5	-1.25	0.	125.95
3819	8.75	-1.	0.	127.85
3820	8.5	-0.75	0.	128.98
3821	8.5	-1.75	0.	124.45
3822	8.75	-1.5	0.	126.09
3823	8.5	-2.25	0.	123.21
3824	8.75	-2.	0.	124.93
3825	8.5	-2.75	0.	121.27
3826	8.75	-2.5	0.	123.66
3827	8.75	-3.	0.	121.86
3828	8.5	-3.25	0.	116.94
3829	-5.75	-1.	0.	129.96
3830	-5.5	-0.75001	0.	133.52
3831	8.25	-8.5	0.	129.79
3832	8.	-8.75	0.	130.03
3833	7.75	-8.5	0.	131.09
3834	8.5	-6.25	0.	124.68
3835	8.75	-6.	0.	124.36
3836	8.5	-5.75	0.	119.7
3837	8.5	-6.75	0.	126.42
3838	8.75	-6.5	0.	126.28
3839	8.5	-7.25	0.	127.03
3840	8.75	-7.	0.	126.96
3841	8.5	-7.75	0.	127.74
3842	8.75	-7.5	0.	127.43
3843	8.5	-8.25	0.	128.76
3844	8.75	-8.	0.	128.25
3845	8.5	-8.75	0.	129.49
3846	8.75	-8.5	0.	129.17
3847	-3.	-6.25	0.	124.23
3848	-3.25	-6.	0.	126.74
3849	-3.75	-7.	0.	126.58
3850	-4.	-6.75	0.	124.38
3851	7.	6.75	0.	125.58
3852	7.25	6.5	0.	125.4
3853	6.75	7.	0.	127.59
3854	6.5	7.25	0.	130.78
3855	7.	7.25	0.	127.59
3856	7.25	7.	0.	125.8
3857	4.25	6.5	0.	128.95
3858	4.5	6.75	0.	131.28
3859	1.75	6.5	0.	128.29
3860	1.5	6.75	0.	130.45
3861	1.5	6.25	0.	129.75
3862	1.5	8.75	0.	129.86
3863	1.5	8.25	0.	130.38
3864	1.75	8.5	0.	128.89
3865	4.5	8.75	0.	129.36
3866	4.25	8.5	0.	128.54
3867	4.5	8.25	0.	130.16
3868	2.25	-0.5	0.	127.03
3869	2.5	-0.25	0.	129.8
3870	0.75	-0.5	0.	129.03
3871	0.5	-0.25	0.	132.06
3872	0.5	2.25	0.	129.74
3873	0.75	2.5	0.	125.5
3874	2.25	2.5	0.	125.03
3875	2.5	2.25	0.	128.92
3876	-3.5	-8.25	0.	128.35
3877	-3.25	-8.5	0.	125.14
3878	-3.5	-8.75	0.	126.82
3879	-1.75	-6.5	0.	126.8
3880	-1.5	-6.75	0.	130.15
3881	-1.5	-6.25	0.	128.4
3882	-1.5	-8.75	0.	129.58
3883	-1.5	-8.25	0.	130.51
3884	-1.75	-8.5	0.	127.21
3885	2.5	-6.75	0.	130.44
3886	2.25	-6.5	0.	128.31
3887	8.25	-9.	0.	129.73
3888	8.75	-9.	0.	129.6
3889	8.5	-9.25	0.	129.6
3890	7.75	-9.	0.	129.06
3891	8.	-9.25	0.	129.33
3892	7.25	-9.	0.	125.95
3893	7.5	-8.75	0.	130.13
3894	7.5	-9.25	0.	127.64
3895	6.75	-9.	0.	122.
3896	7.	-8.75	0.	123.88
3897	7.	-9.25	0.	123.84
3898	6.25	-9.	0.	121.94
3899	6.5	-8.75	0.	117.27
3900	6.5	-9.25	0.	121.44
3901	5.75	-9.	0.	124.91
3902	6.	-8.75	0.	124.25
3903	6.	-9.25	0.	123.21
3904	5.25	-9.	0.	124.61
3905	5.5	-8.75	0.	130.03
3906	5.5	-9.25	0.	125.03
3907	4.75	-9.	0.	121.1
3908	5.	-8.75	0.	123.46
3909	5.	-9.25	0.	122.77
3910	4.25	-9.	0.	120.86
3911	4.5	-8.75	0.	115.67
3912	4.5	-9.25	0.	120.73
3913	3.75	-9.	0.	124.88
3914	4.	-8.75	0.	122.06
3915	4.	-9.25	0.	123.17
3916	3.25	-9.	0.	128.45
3917	3.5	-8.75	0.	128.46
3918	3.5	-9.25	0.	127.36
3919	2.75	-9.	0.	129.46
3920	3.	-9.25	0.	129.61
3921	3.	-8.75	0.	129.15
3922	0.5	-6.75	0.	130.75
3923	0.75	-6.5	0.	127.36
3924	2.5	-5.25	0.	132.56
3925	2.75	-5.5	0.	130.5
3926	5.25	-2.5	0.	130.07
3927	5.5	-2.75	0.	132.88
3928	5.5	-2.25	0.	131.95
3929	5.5	-5.25	0.	131.89
3930	5.25	-5.5	0.	128.55
3931	5.5	-5.75	0.	132.18
3932	-4.2499	4.5	0.	129.4
3933	-4.4999	4.25	0.	131.92
3934	-2.75	4.5	0.	127.3
3935	-2.5	4.25	0.	130.76
3936	-2.5	4.75	0.	128.48
3937	-2.5	1.75	0.	129.6
3938	-2.75	1.5	0.	125.66
3939	-4.2499	1.5	0.	126.67
3940	-4.4998	1.75	0.	131.7
3941	7.5	5.75	0.	127.24
3942	7.5	5.25	0.	126.16
3943	7.75	5.5	0.	124.36
3944	-6.25	-1.	0.	126.68
3945	-6.	-0.75	0.	129.28
3946	-6.75	-3.5	0.	126.31
3947	-6.5	-3.25	0.	129.83
3948	-8.75	-3.5	0.	130.91
3949	-8.25	-3.5	0.	126.74
3950	-8.5	-3.25	0.	131.13
3951	-8.75	-0.5	0.	136.47
3952	-8.5	-0.75	0.	136.32
3953	-8.5	-0.25	0.	135.67
3954	-8.25	-0.5	0.	130.11
3955	-8.7498	1.5	0.	132.08
3956	-8.4998	1.25	0.	132.06
3957	-8.2497	1.5	0.	129.02
3958	-5.7496	1.4999	0.	130.36
3959	-5.4997	1.2499	0.	133.39
3960	-5.5	-0.25001	0.	134.78
3961	-5.75	-0.5	0.	132.82
3962	0.25	-1.5	0.	131.01
3963	0.5	-1.75	0.	132.03
3964	0.5	-3.25	0.	130.97
3965	0.25	-3.5	0.	128.54
3966	0.75	-3.5	0.	130.08
3967	-2.25	-3.5	0.	133.3
3968	-2.75	-3.5	0.	132.3
3969	-2.5	-3.25	0.	135.96
3970	-4.25	-3.5	0.	124.92
3971	-4.5	-3.25	0.	128.03
3972	-4.5	-3.75	0.	125.11
3973	-4.5	-1.75	0.	130.44
3974	-4.25	-1.5	0.	127.56
3975	-4.75	-1.5	0.	130.76
3976	-2.25	-1.5	0.	132.9
3977	-2.75	-1.5	0.	131.36
3978	-2.5	-1.75	0.	135.4
3979	7.25	-6.5	0.	130.77
3980	7.5	-6.75	0.	132.56
3981	7.5	-6.25	0.	132.65
3982	7.5	-8.25	0.	131.56
3983	7.25	-8.5	0.	128.03
3984	5.75	-8.5	0.	129.28
3985	5.25	-8.5	0.	128.8
3986	5.5	-8.25	0.	132.75
3987	3.75	-8.5	0.	125.61
3988	3.5	-8.25	0.	128.53
3989	3.25	-8.5	0.	129.15
3990	3.5	-6.75	0.	126.22
3991	3.75	-6.5	0.	121.81
3992	3.5	-6.25	0.	123.59
3993	5.75	-6.5	0.	133.06
3994	5.25	-6.5	0.	129.79
3995	5.5	-6.75	0.	134.9
3996	5.5	-6.25	0.	134.06
3997	7.75	-5.5	0.	130.5
3998	7.5	-5.25	0.	132.43
3999	7.5	-5.75	0.	132.66
4000	7.5	-3.75	0.	130.49
4001	7.75	-3.5	0.	127.05
4002	9.	4.75	0.	122.96
4003	9.25	5.	0.	125.5
4004	9.	5.25	0.	122.73
4005	9.	4.25	0.	124.21
4006	9.25	4.5	0.	125.66
4007	9.	3.75	0.	125.51
4008	9.25	4.	0.	126.29
4009	9.	3.25	0.	127.06
4010	9.25	3.5	0.	127.15
4011	9.	2.75	0.	128.65
4012	9.25	3.	0.	128.24
4013	9.	2.25	0.	129.52
4014	8.75	2.5	0.	129.78
4015	9.25	2.5	0.	129.06
4016	9.	1.75	0.	129.59
4017	9.25	2.	0.	129.04
4018	8.75	2.	0.	130.01
4019	9.	1.25	0.	129.86
4020	8.75	1.5	0.	131.33
4021	9.25	1.5	0.	128.85
4022	9.	0.75	0.	130.
4023	8.75	1.	0.	132.62
4024	9.25	1.	0.	129.18
4025	9.	0.25	0.	130.
4026	8.75	0.5	0.	131.55
4027	9.25	0.5	0.	129.13
4028	9.	-0.25	0.	130.16
4029	8.75	-1.0524e-012	0.	130.63
4030	9.25	-7.8208e-013	0.	129.57
4031	9.	-0.75	0.	129.47
4032	8.75	-0.5	0.	130.59
4033	9.25	-0.5	0.	129.77
4034	9.	-1.25	0.	128.
4035	9.25	-1.	0.	129.06
4036	9.	-1.75	0.	126.57
4037	9.25	-1.5	0.	128.03
4038	9.	-2.25	0.	125.37
4039	9.25	-2.	0.	127.21
4040	9.	-2.75	0.	124.27
4041	9.25	-2.5	0.	126.58
4042	9.	-3.25	0.	124.27
4043	9.25	-3.	0.	126.46
4044	-4.75	5.5	0.	131.87
4045	-4.5	5.75	0.	134.19
4046	-4.25	5.5	0.	132.46
4047	-7.2499	5.5	0.	129.55
4048	-7.4999	5.75	0.	133.16
4049	-7.5	8.75	0.	130.81
4050	-7.5	8.25	0.	132.92
4051	-7.25	8.5	0.	130.13
4052	-4.5	8.75	0.	131.57
4053	-4.75	8.5	0.	130.36
4054	-4.5	8.25	0.	132.92
4055	-3.5	-4.75	0.	128.5
4056	-3.75	-4.5	0.	125.54
4057	-3.5	-6.75	0.	132.22
4058	-3.25	-6.5	0.	129.92
4059	-3.5	-6.25	0.	132.38
4060	-3.75	-6.5	0.	130.06
4061	-5.25	-6.5	0.	127.2
4062	-5.5	-6.25	0.	130.58
4063	-5.25	-4.5	0.	129.8
4064	-5.5	-4.75	0.	132.42
4065	-5.5	-4.25	0.	131.97
4066	9.	-6.25	0.	126.
4067	9.	-5.75	0.	125.74
4068	9.25	-6.	0.	127.67
4069	9.	-6.75	0.	126.83
4070	9.25	-6.5	0.	127.63
4071	9.	-7.25	0.	127.37
4072	9.25	-7.	0.	127.74
4073	9.	-7.75	0.	127.94
4074	9.25	-7.5	0.	127.92
4075	9.	-8.25	0.	128.67
4076	9.25	-8.	0.	128.42
4077	9.	-8.75	0.	129.28
4078	9.25	-8.5	0.	129.05
4079	9.25	-9.	0.	129.54
4080	9.	-9.25	0.	129.61
4081	-0.25	-9.	0.	130.7
4082	0.25	-9.	0.	130.64
4083	7.7936e-014	-9.25	0.	131.46
4084	-0.75	-9.	0.	130.31
4085	-0.5	-9.25	0.	130.98
4086	-0.5	-8.75	0.	129.93
4087	-1.25	-9.	0.	129.06
4088	-1.	-9.25	0.	129.99
4089	-1.75	-9.	0.	125.3
4090	-1.5	-9.25	0.	127.51
4091	-2.25	-9.	0.	120.6
4092	-2.	-8.75	0.	122.96
4093	-2.	-9.25	0.	122.94
4094	-2.75	-9.	0.	119.79
4095	-2.5	-8.75	0.	115.48
4096	-2.5	-9.25	0.	119.81
4097	-3.	-8.75	0.	121.34
4098	-3.	-9.25	0.	121.27
4099	-3.25	-9.	0.	122.99
4100	-4.25	-9.	0.	125.73
4101	-4.	-9.25	0.	125.52
4102	-3.75	-9.	0.	125.47
4103	-4.75	-9.	0.	125.43
4104	-4.5	-9.25	0.	125.53
4105	-5.25	-9.	0.	125.41
4106	-5.	-9.25	0.	125.49
4107	-5.75	-9.	0.	125.63
4108	-5.5	-9.25	0.	125.6
4109	-6.25	-9.	0.	125.91
4110	-6.	-9.25	0.	125.83
4111	-6.75	-9.	0.	126.14
4112	-6.5	-9.25	0.	126.06
4113	-7.25	-9.	0.	126.29
4114	-7.	-9.25	0.	126.23
4115	-7.75	-9.	0.	126.37
4116	-7.5	-9.25	0.	126.34
4117	-8.25	-9.	0.	126.42
4118	-8.	-9.25	0.	126.4
4119	-8.5	-9.25	0.	126.44
4120	-8.75	-9.	0.	126.45
4121	-9.	-7.75	0.	126.39
4122	-9.25	-8.	0.	126.42
4123	-9.	-8.25	0.	126.42
4124	-9.	-7.25	0.	126.34
4125	-9.25	-7.5	0.	126.4
4126	-9.	-6.75	0.	126.29
4127	-9.25	-7.	0.	126.39
4128	-9.	-6.25	0.	126.28
4129	-9.25	-6.5	0.	126.44
4130	-9.	-5.75	0.	126.35
4131	-9.25	-6.	0.	126.57
4132	-9.	-5.25	0.	126.62
4133	-9.25	-5.5	0.	126.85
4134	-9.	-4.75	0.	127.24
4135	-9.25	-5.	0.	127.35
4136	-9.	-4.25	0.	128.43
4137	-9.25	-4.5	0.	128.18
4138	-9.	-3.75	0.	129.89
4139	-9.25	-4.	0.	129.36
4140	-9.	-3.25	0.	130.74
4141	-9.25	-3.5	0.	130.32
4142	-9.	-2.75	0.	130.93
4143	-8.75	-3.	0.	130.97
4144	-9.25	-3.	0.	130.52
4145	-9.	-2.25	0.	131.5
4146	-8.75	-2.5	0.	132.4
4147	-9.25	-2.5	0.	130.64
4148	-9.	-1.75	0.	132.3
4149	-8.75	-2.	0.	133.92
4150	-9.25	-2.	0.	131.42
4151	-9.	-1.25	0.	133.37
4152	-8.75	-1.5	0.	133.53
4153	-9.25	-1.5	0.	132.03
4154	-9.	-0.75	0.	134.53
4155	-8.75	-1.	0.	134.44
4156	-9.25	-1.	0.	133.22
4157	-9.	-0.24999	0.	133.71
4158	-9.25	-0.5	0.	133.62
4159	-9.	0.25001	0.	131.09
4160	-8.75	5.3855e-006	0.	132.96
4161	-9.25	6.4783e-006	0.	131.95
4162	-8.9999	0.75002	0.	130.09
4163	-8.75	0.50001	0.	130.35
4164	-9.25	0.50001	0.	130.04
4165	-8.9999	1.25	0.	130.99
4166	-8.7499	1.	0.	131.
4167	-9.2499	1.	0.	130.46
4168	-8.9998	1.75	0.	131.05
4169	-9.2499	1.5	0.	131.17
4170	-8.9998	2.25	0.	129.99
4171	-9.2498	2.	0.	130.81
4172	-8.9997	2.75	0.	128.92
4173	-9.2498	2.5	0.	129.96
4174	-8.9997	3.25	0.	128.36
4175	-9.2498	3.	0.	129.3
4176	-8.9998	3.75	0.	128.22
4177	-9.2498	3.5	0.	128.9
4178	-8.9998	4.25	0.	128.29
4179	-9.2499	4.	0.	128.67
4180	-8.9999	4.75	0.	128.36
4181	-9.2499	4.5	0.	128.45
4182	-8.9999	5.25	0.	128.16
4183	-9.2499	5.	0.	128.07
4184	-9.	5.75	0.	127.55
4185	-9.25	5.5	0.	127.37
4186	-9.25	6.	0.	126.38
4187	-9.	6.25	0.	126.69
4188	-9.	8.75	0.	125.64
4189	-9.25	8.5	0.	124.9
4190	-9.	8.25	0.	125.63
4191	-8.75	9.	0.	126.2
4192	-9.25	9.	0.	125.04
4193	-9.	9.25	0.	125.5
4194	-8.25	9.	0.	127.52
4195	-8.5	9.25	0.	126.31
4196	-7.75	9.	0.	128.3
4197	-8.	9.25	0.	127.09
4198	-7.25	9.	0.	126.58
4199	-7.5	9.25	0.	126.81
4200	-6.75	9.	0.	122.46
4201	-7.	9.25	0.	124.14
4202	-7.	8.75	0.	125.96
4203	-6.25	9.	0.	119.1
4204	-6.5	8.75	0.	118.25
4205	-6.5	9.25	0.	120.82
4206	-5.75	9.	0.	119.18
4207	-6.	8.75	0.	117.24
4208	-6.	9.25	0.	119.44
4209	-5.25	9.	0.	122.73
4210	-5.5	8.75	0.	118.28
4211	-5.5	9.25	0.	121.04
4212	-4.75	9.	0.	127.27
4213	-5.	8.75	0.	126.13
4214	-5.	9.25	0.	124.64
4215	-4.5	9.25	0.	127.78
4216	-4.25	9.	0.	129.89
4217	-2.75	9.	0.	123.94
4218	-3.	8.75	0.	126.61
4219	-3.	9.25	0.	125.62
4220	-3.25	9.	0.	127.73
4221	-2.25	9.	0.	121.12
4222	-2.5	8.75	0.	120.16
4223	-2.5	9.25	0.	122.78
4224	-1.75	9.	0.	121.04
4225	-2.	8.75	0.	119.66
4226	-2.	9.25	0.	121.62
4227	-1.25	9.	0.	123.59
4228	-1.5	8.75	0.	119.92
4229	-1.5	9.25	0.	122.69
4230	-0.75	9.	0.	126.85
4231	-1.	8.75	0.	125.92
4232	-1.	9.25	0.	125.36
4233	-0.25	9.	0.	128.27
4234	-0.5	8.75	0.	129.84
4235	-0.5	9.25	0.	127.56
4236	0.25	9.	0.	128.
4237	1.0649e-011	9.25	0.	127.88
4238	0.75	9.	0.	128.
4239	0.5	9.25	0.	127.66
4240	1.25	9.	0.	128.28
4241	1.	9.25	0.	127.86
4242	1.75	9.	0.	126.86
4243	1.5	9.25	0.	127.52
4244	2.25	9.	0.	123.6
4245	2.	8.75	0.	125.94
4246	2.	9.25	0.	125.3
4247	2.75	9.	0.	121.02
4248	2.5	8.75	0.	119.97
4249	2.5	9.25	0.	122.62
4250	3.25	9.	0.	120.99
4251	3.	8.75	0.	119.65
4252	3.	9.25	0.	121.52
4253	3.75	9.	0.	123.47
4254	3.5	8.75	0.	119.92
4255	3.5	9.25	0.	122.59
4256	4.25	9.	0.	126.52
4257	4.	8.75	0.	125.74
4258	4.	9.25	0.	125.2
4259	4.75	9.	0.	127.48
4260	4.5	9.25	0.	127.25
4261	5.25	9.	0.	126.47
4262	5.	9.25	0.	127.24
4263	5.75	9.	0.	125.99
4264	5.5	9.25	0.	126.57
4265	6.25	9.	0.	127.82
4266	6.	9.25	0.	127.01
4267	6.5	7.75	0.	132.41
4268	6.75	7.5	0.	130.75
4269	8.25	2.5	0.	125.84
4270	8.5	2.25	0.	130.26
4271	6.5	2.25	0.	129.86
4272	6.75	2.5	0.	125.68
4273	6.75	-0.5	0.	127.41
4274	6.5	-0.25	0.	130.87
4275	8.25	-0.5	0.	126.65
4276	8.5	-0.25	0.	131.04
4277	-3.5	8.25	0.	132.75
4278	-3.25	8.5	0.	130.42
4279	-3.5	8.75	0.	131.61
4280	-3.25	6.5	0.	128.85
4281	-3.5	6.75	0.	131.49
4282	-0.5	6.75	0.	131.17
4283	-0.75	6.5	0.	129.14
4284	-0.5	8.25	0.	130.35
4285	-0.75	8.5	0.	128.85
4286	-0.5	7.75	0.	129.34
4287	-0.5	7.25	0.	129.72
4288	-1.25	6.5	0.	121.79
4289	-1.	6.25	0.	125.91
4290	-1.75	6.5	0.	117.71
4291	-2.25	6.5	0.	117.45
4292	-2.	6.25	0.	118.65
4293	-2.75	6.5	0.	121.34
4294	-3.5	7.25	0.	131.13
4295	-3.5	7.75	0.	131.6
4296	-2.75	8.5	0.	122.8
4297	-2.25	8.5	0.	118.64
4298	-1.25	8.5	0.	122.22
4299	-1.75	8.5	0.	118.48
4300	7.75	-0.5	0.	116.53
4301	7.25	-0.5	0.	117.07
4302	6.5	0.25	0.	131.4
4303	6.25	1.6742e-011	0.	129.59
4304	6.5	0.75	0.	133.19
4305	6.5	1.25	0.	132.9
4306	6.25	1.	0.	131.16
4307	6.5	1.75	0.	130.83
4308	7.25	2.5	0.	115.49
4309	7.75	2.5	0.	115.6
4310	8.5	0.25	0.	132.17
4311	8.5	0.75	0.	134.16
4312	8.5	1.25	0.	134.09
4313	8.5	1.75	0.	131.74
4314	6.5	8.25	0.	131.35
4315	6.25	8.	0.	129.8
4316	6.5	8.75	0.	129.98
4317	6.5	9.25	0.	130.02
4318	7.25	7.5	0.	126.04
4319	7.5	7.25	0.	124.24
4320	7.75	7.5	0.	121.12
4321	3.75	6.5	0.	121.42
4322	3.25	6.5	0.	117.27
4323	2.75	6.5	0.	117.11
4324	2.25	6.5	0.	121.01
4325	1.5	7.25	0.	129.36
4326	1.25	7.	0.	128.37
4327	1.5	7.75	0.	129.27
4328	2.25	8.5	0.	122.28
4329	2.75	8.5	0.	118.54
4330	3.25	8.5	0.	118.52
4331	3.75	8.5	0.	122.16
4332	4.5	7.75	0.	129.55
4333	4.5	7.25	0.	130.04
4334	1.75	-0.5	0.	118.06
4335	2.	-0.75	0.	123.76
4336	1.25	-0.5	0.	118.68
4337	0.5	0.25	0.	132.03
4338	0.5	0.75	0.	133.46
4339	0.5	1.25	0.	133.06
4340	0.5	1.75	0.	130.84
4341	1.25	2.5	0.	115.22
4342	1.75	2.5	0.	115.14
4343	2.5	1.75	0.	130.
4344	2.5	1.25	0.	132.14
4345	2.5	0.75	0.	132.35
4346	2.5	0.25	0.	130.5
4347	-3.5	-7.75	0.	128.2
4348	-3.5	-7.25	0.	128.97
4349	-2.75	-6.5	0.	119.08
4350	-2.25	-6.5	0.	118.17
4351	-1.5	-7.25	0.	129.92
4352	-1.5	-7.75	0.	129.95
4353	-2.25	-8.5	0.	117.75
4354	-2.75	-8.5	0.	116.94
4355	2.5	-7.25	0.	129.84
4356	2.5	-7.75	0.	131.44
4357	2.5	-8.25	0.	131.7
4358	2.75	-8.	0.	130.01
4359	2.5	-8.75	0.	130.27
4360	2.5	-9.25	0.	129.65
4361	2.75	-8.5	0.	129.99
4362	0.5	-8.75	0.	131.27
4363	0.5	-9.25	0.	130.78
4364	0.5	-8.25	0.	132.95
4365	0.5	-7.75	0.	132.95
4366	0.5	-7.25	0.	131.2
4367	0.25	-7.5	0.	130.33
4368	1.75	-6.5	0.	118.17
4369	1.25	-6.5	0.	117.57
4370	2.5	-4.75	0.	132.78
4371	2.5	-4.25	0.	134.39
4372	2.5	-3.75	0.	134.06
4373	2.5	-3.25	0.	131.79
4374	2.5	-2.75	0.	130.75
4375	3.25	-2.5	0.	119.48
4376	2.75	-2.5	0.	127.9
4377	3.75	-2.5	0.	114.27
4378	4.25	-2.5	0.	114.59
4379	4.75	-2.5	0.	120.67
4380	5.5	-3.25	0.	133.07
4381	5.75	-3.	0.	131.4
4382	5.5	-3.75	0.	134.48
4383	5.5	-4.25	0.	133.97
4384	5.5	-4.75	0.	132.06
4385	4.75	-5.5	0.	118.61
4386	5.	-5.75	0.	123.61
4387	4.25	-5.5	0.	113.25
4388	4.5	-5.75	0.	113.47
4389	3.75	-5.5	0.	114.61
4390	4.	-5.75	0.	114.1
4391	3.25	-5.5	0.	121.55
4392	3.5	-5.75	0.	118.27
4393	-3.75	4.5	0.	119.3
4394	-3.25	4.5	0.	118.34
4395	-2.5	3.75	0.	131.94
4396	-2.5	3.25	0.	133.9
4397	-2.5	2.75	0.	133.7
4398	-2.5	2.25	0.	131.16
4399	-3.25	1.5	0.	115.78
4400	-3.	1.25	0.	121.16
4401	-3.7499	1.5	0.	115.73
4402	-4.4997	2.25	0.	132.49
4403	-4.4998	3.75	0.	131.91
4404	-4.4997	3.25	0.	133.77
4405	-4.4997	2.75	0.	133.96
4406	8.25	5.5	0.	115.95
4407	8.75	5.5	0.	117.07
4408	7.5	6.25	0.	126.35
4409	7.5	6.75	0.	125.58
4410	8.75	7.5	0.	116.2
4411	9.25	7.5	0.	130.4
4412	8.25	7.5	0.	113.66
4413	-6.5	-1.25	0.	126.73
4414	-6.5	-0.75	0.	123.68
4415	-6.5	-1.75	0.	129.87
4416	-6.5	-2.25	0.	130.76
4417	-6.5	-2.75	0.	129.68
4418	-7.25	-3.5	0.	115.85
4419	-7.75	-3.5	0.	116.06
4420	-8.5	-1.25	0.	134.58
4421	-8.5	-1.75	0.	135.15
4422	-8.5	-2.25	0.	134.83
4423	-8.5	-2.75	0.	132.44
4424	-8.5	0.25001	0.	132.19
4425	-8.4999	0.75001	0.	131.22
4426	-7.7497	1.5	0.	120.59
4427	-7.2496	1.5	0.	116.22
4428	-6.7496	1.5	0.	116.7
4429	-6.2496	1.5	0.	121.82
4430	-5.4999	0.74997	0.	132.67
4431	-5.5	0.24998	0.	133.29
4432	-6.25	-0.5	0.	126.25
4433	-7.75	-0.5	0.	113.47
4434	-7.25	-0.5	0.	110.63
4435	-6.75	-0.5	0.	119.4
4436	-1.75	-1.5	0.	124.61
4437	-2.	-1.25	0.	128.26
4438	-1.25	-1.5	0.	120.13
4439	-0.75	-1.5	0.	120.18
4440	-0.25	-1.5	0.	124.37
4441	0.5	-2.75	0.	130.44
4442	0.75	-3.	0.	129.22
4443	0.5	-2.25	0.	130.59
4444	-0.25	-3.5	0.	121.72
4445	2.0256e-011	-3.75	0.	125.14
4446	-0.75	-3.5	0.	118.34
4447	-1.25	-3.5	0.	118.98
4448	-1.75	-3.5	0.	124.19
4449	-3.25	-3.5	0.	120.67
4450	-3.75	-3.5	0.	118.03
4451	-4.	-3.75	0.	121.52
4452	-4.5	-2.25	0.	129.06
4453	-4.5	-2.75	0.	128.38
4454	-3.75	-1.5	0.	118.68
4455	-4.	-1.25	0.	123.58
4456	-3.25	-1.5	0.	120.
4457	-2.5	-2.75	0.	134.89
4458	-2.5	-2.25	0.	134.74
4459	6.25	-6.5	0.	123.63
4460	6.	-6.25	0.	129.69
4461	6.75	-6.5	0.	122.76
4462	7.	-6.25	0.	128.39
4463	6.5	-6.25	0.	121.99
4464	7.5	-7.25	0.	131.36
4465	7.5	-7.75	0.	131.18
4466	6.75	-8.5	0.	119.07
4467	6.25	-8.5	0.	119.53
4468	4.75	-8.5	0.	117.96
4469	4.25	-8.5	0.	116.74
4470	3.5	-7.75	0.	127.26
4471	3.25	-8.	0.	127.72
4472	3.5	-7.25	0.	126.57
4473	4.25	-6.5	0.	113.44
4474	4.	-6.25	0.	116.05
4475	4.75	-6.5	0.	116.17
4476	5.	-6.25	0.	122.95
4477	4.5	-6.25	0.	111.7
4478	5.5	-7.75	0.	132.66
4479	5.5	-7.25	0.	133.35
4480	7.5	-4.25	0.	130.76
4481	7.5	-4.75	0.	131.2
4482	8.25	-3.5	0.	118.65
4483	8.75	-3.5	0.	119.26
4484	9.25	-3.5	0.	128.7
4485	8.75	-5.5	0.	120.94
4486	9.25	-5.5	0.	129.67
4487	8.25	-5.5	0.	121.67
4488	-5.25	5.5	0.	123.01
4489	-5.75	5.5	0.	116.65
4490	-5.4999	5.25	0.	119.09
4491	-6.2499	5.5	0.	115.97
4492	-6.7499	5.5	0.	120.81
4493	-7.5	6.25	0.	134.03
4494	-7.75	6.	0.	132.04
4495	-7.5	6.75	0.	135.88
4496	-7.75	6.5	0.	132.5
4497	-7.5	7.25	0.	136.05
4498	-7.75	7.	0.	133.52
4499	-7.5	7.75	0.	133.98
4500	-7.75	7.5	0.	132.46
4501	-6.25	8.5	0.	116.28
4502	-6.75	8.5	0.	121.72
4503	-5.75	8.5	0.	116.23
4504	-5.25	8.5	0.	121.64
4505	-4.5	7.75	0.	133.31
4506	-4.5	7.25	0.	135.39
4507	-4.5	6.25	0.	134.71
4508	-4.5	6.75	0.	136.12
4509	-3.5	-5.25	0.	128.62
4510	-3.5	-5.75	0.	129.37
4511	-4.25	-6.5	0.	119.48
4512	-4.75	-6.5	0.	118.66
4513	-5.5	-5.75	0.	130.64
4514	-5.5	-5.25	0.	131.14
4515	-4.75	-4.5	0.	120.2
4516	-5.	-4.25	0.	126.32
4517	-4.25	-4.5	0.	118.46
4518	-4.	-4.25	0.	121.84
4519	-4.5	-4.25	0.	118.32
4520	9.5	8.75	0.	130.44
4521	9.5	9.25	0.	129.07
4522	9.5	8.25	0.	132.43
4523	9.5	7.75	0.	135.16
4524	9.5	7.25	0.	135.57
4525	9.5	6.75	0.	134.06
4526	9.5	6.25	0.	133.18
4527	9.5	5.75	0.	132.44
4528	9.5	5.25	0.	130.44
4529	9.25	5.5	0.	127.65
4530	9.5	4.75	0.	128.19
4531	9.5	4.25	0.	127.74
4532	9.5	3.75	0.	127.93
4533	9.5	3.25	0.	128.34
4534	9.5	2.75	0.	128.65
4535	9.5	2.25	0.	128.59
4536	9.5	1.75	0.	128.31
4537	9.5	1.25	0.	128.17
4538	9.5	0.75	0.	128.3
4539	9.5	0.25	0.	128.69
4540	9.5	-0.25	0.	129.17
4541	9.5	-0.75	0.	129.35
4542	9.5	-1.25	0.	129.09
4543	9.5	-1.75	0.	128.68
4544	9.5	-2.25	0.	128.42
4545	9.5	-2.75	0.	128.77
4546	9.5	-3.25	0.	130.92
4547	9.5	-3.75	0.	132.84
4548	9.5	-4.25	0.	133.38
4549	9.5	-4.75	0.	133.68
4550	9.5	-5.25	0.	133.48
4551	9.5	-5.75	0.	131.63
4552	9.5	-6.25	0.	129.3
4553	9.5	-6.75	0.	128.54
4554	9.5	-7.25	0.	128.29
4555	9.5	-7.75	0.	128.39
4556	9.5	-8.25	0.	128.8
4557	9.5	-8.75	0.	129.3
4558	9.5	-9.25	0.	129.72
4559	9.25	-9.5	0.	129.79
4560	8.75	-9.5	0.	129.62
4561	8.25	-9.5	0.	129.2
4562	7.75	-9.5	0.	127.91
4563	7.25	-9.5	0.	125.54
4564	6.75	-9.5	0.	123.28
4565	6.25	-9.5	0.	122.71
4566	5.75	-9.5	0.	123.31
4567	5.25	-9.5	0.	123.18
4568	4.75	-9.5	0.	122.39
4569	4.25	-9.5	0.	123.02
4570	3.75	-9.5	0.	125.66
4571	3.25	-9.5	0.	128.53
4572	2.75	-9.5	0.	129.82
4573	2.25	-9.5	0.	124.57
4574	1.75	-9.5	0.	113.24
4575	1.25	-9.5	0.	113.53
4576	0.75	-9.5	0.	125.5
4577	0.25	-9.5	0.	131.62
4578	-0.25	-9.5	0.	131.75
4579	-0.75	-9.5	0.	130.67
4580	-1.25	-9.5	0.	128.44
4581	-2.25	-9.5	0.	122.14
4582	-1.75	-9.5	0.	125.15
4583	-2.75	-9.5	0.	121.28
4584	-3.25	-9.5	0.	122.63
4585	-3.75	-9.5	0.	124.39
4586	-3.5	-9.25	0.	124.34
4587	-4.25	-9.5	0.	125.32
4588	-4.75	-9.5	0.	125.58
4589	-5.25	-9.5	0.	125.67
4590	-5.75	-9.5	0.	125.81
4591	-6.25	-9.5	0.	125.98
4592	-6.75	-9.5	0.	126.15
4593	-7.25	-9.5	0.	126.29
4594	-7.75	-9.5	0.	126.37
4595	-8.25	-9.5	0.	126.43
4596	-8.75	-9.5	0.	126.46
4597	-9.25	-9.5	0.	126.49
4598	-9.	-9.25	0.	126.47
4599	-9.5	-9.25	0.	126.49
4600	-9.5	-8.75	0.	126.47
4601	-9.25	-9.	0.	126.47
4602	-9.5	-8.25	0.	126.45
4603	-9.25	-8.5	0.	126.45
4604	-9.5	-7.75	0.	126.43
4605	-9.5	-7.25	0.	126.45
4606	-9.5	-6.75	0.	126.54
4607	-9.5	-6.25	0.	126.73
4608	-9.5	-5.75	0.	127.06
4609	-9.5	-5.25	0.	127.58
4610	-9.5	-4.75	0.	128.29
4611	-9.5	-4.25	0.	129.11
4612	-9.5	-3.75	0.	129.8
4613	-9.5	-3.25	0.	130.11
4614	-9.5	-2.75	0.	130.24
4615	-9.5	-2.25	0.	130.55
4616	-9.5	-1.75	0.	131.15
4617	-9.5	-1.25	0.	131.88
4618	-9.5	-0.75	0.	132.29
4619	-9.5	-0.25	0.	131.86
4620	-9.5	0.25001	0.	130.9
4621	-9.5	0.75001	0.	130.39
4622	-9.4999	1.25	0.	130.63
4623	-9.4999	1.75	0.	130.92
4624	-9.4999	2.25	0.	130.77
4625	-9.4999	2.75	0.	130.34
4626	-9.4999	3.25	0.	129.84
4627	-9.4999	3.75	0.	129.36
4628	-9.4999	4.25	0.	128.83
4629	-9.4999	4.75	0.	128.17
4630	-9.5	5.25	0.	127.29
4631	-9.5	5.75	0.	126.21
4632	-9.5	6.25	0.	125.08
4633	-9.5	6.75	0.	124.17
4634	-9.25	6.5	0.	125.38
4635	-9.5	7.25	0.	123.67
4636	-9.25	7.	0.	124.7
4637	-9.5	7.75	0.	123.63
4638	-9.25	7.5	0.	124.48
4639	-9.5	8.25	0.	123.91
4640	-9.25	8.	0.	124.64
4641	-9.5	8.75	0.	124.3
4642	-9.5	9.25	0.	124.7
4643	-9.25	9.5	0.	125.16
4644	-8.75	9.5	0.	125.61
4645	-8.25	9.5	0.	125.87
4646	-7.75	9.5	0.	125.58
4647	-7.25	9.5	0.	124.38
4648	-6.75	9.5	0.	122.51
4649	-6.25	9.5	0.	121.09
4650	-5.75	9.5	0.	121.24
4651	-5.25	9.5	0.	122.96
4652	-4.75	9.5	0.	125.15
4653	-4.25	9.5	0.	126.64
4654	-3.75	9.5	0.	126.92
4655	-4.	9.25	0.	128.8
4656	-3.25	9.5	0.	126.02
4657	-3.5	9.25	0.	128.14
4658	-2.75	9.5	0.	124.47
4659	-2.25	9.5	0.	123.23
4660	-1.75	9.5	0.	123.23
4661	-1.25	9.5	0.	124.47
4662	-0.75	9.5	0.	126.07
4663	-0.25	9.5	0.	127.15
4664	0.25	9.5	0.	127.54
4665	0.75	9.5	0.	127.51
4666	1.25	9.5	0.	127.09
4667	1.75	9.5	0.	125.97
4668	2.25	9.5	0.	124.33
4669	2.75	9.5	0.	123.08
4670	3.25	9.5	0.	123.08
4671	3.75	9.5	0.	124.32
4672	4.25	9.5	0.	125.93
4673	4.75	9.5	0.	126.99
4674	5.25	9.5	0.	127.35
4675	5.75	9.5	0.	127.62
4676	6.25	9.5	0.	129.26
4677	6.75	9.5	0.	129.46
4678	7.25	9.5	0.	124.99
4679	7.75	9.5	0.	122.1
4680	8.25	9.5	0.	121.61
4681	8.75	9.5	0.	123.5
4682	9.25	9.5	0.	127.34
4683	4.	4.25	0.	125.83
4684	-4.25	-4.	0.	121.58
4685	1.25	-3.5	0.	128.23
4686	1.	-3.25	0.	128.27
4687	1.9383e-011	-4.25	0.	124.61
4688	-1.	5.75	0.	126.02
4689	1.75	-2.5	0.	127.6
4690	3.	-8.25	0.	128.3
4691	-3.75	9.	0.	129.97
4692	5.25	2.1864e-011	0.	126.06
4693	4.75	1.1016e-011	0.	124.81
4694	5.75	2.299e-011	0.	127.87
4695	5.5	-1.75	0.	129.38
4696	4.25	-6.	0.	114.31
4697	3.75	-6.	0.	117.67
4698	4.75	-6.	0.	118.48
4699	5.25	-6.	0.	127.22
4700	1.5	5.75	0.	127.21
4701	6.75	-6.	0.	127.43
4702	7.25	-6.	0.	130.26
4703	6.25	-6.	0.	127.92
4704	5.75	-6.	0.	130.67
4705	-5.25	-4.	0.	128.48
4706	-4.75	-4.	0.	124.29
4707	7.25	-5.	0.	130.08
4708	-4.75	-3.	0.	127.45
4709	-6.25	-3.	0.	128.64
4710	-5.75	-3.	0.	127.69
4711	-9.	7.75	0.	125.48
4712	-9.	7.25	0.	125.5
4713	-9.	6.75	0.	125.92
4714	-8.	6.25	0.	130.49
4715	6.25	-3.	0.	129.85
4716	-9.	-8.75	0.	126.45
4717	2.	-1.25	0.	124.66
4718	2.25	-2.5	0.	129.75
4719	-4.25	-0.50001	0.	125.61
4720	-8.	7.25	0.	129.94
4721	-8.	6.75	0.	130.15
4722	-2.75	0.5	0.	122.78
4723	-4.	-0.75001	0.	123.62
4724	3.75	2.	0.	126.25
4725	-3.	0.74999	0.	121.05
4726	1.	4.25	0.	124.47
4727	1.	3.75	0.	123.08
4728	5.25	4.5	0.	127.67
4729	-5.25	-3.	0.	126.89
4730	6.75	-5.	0.	128.36
4731	9.	-4.	0.	100.21
4732	8.	-4.	0.	99.073
4733	9.	-5.	0.	101.05
4734	8.	-5.	0.	99.702
4735	8.5	-4.	0.	115.28
4736	9.	-4.5	0.	105.89
4737	8.	-4.5	0.	104.85
4738	8.5	-5.	0.	116.35
4739	8.5	-4.5	0.	113.24
4740	8.75	-4.	0.	107.72
4741	9.	-4.25	0.	103.04
4742	8.25	-4.	0.	107.17
4743	8.	-4.25	0.	101.94
4744	9.	-4.75	0.	103.46
4745	8.75	-5.	0.	108.68
4746	8.	-4.75	0.	102.25
4747	8.25	-5.	0.	108.
4748	8.5	-4.25	0.	114.21
4749	8.75	-4.5	0.	109.55
4750	8.25	-4.5	0.	109.01
4751	8.5	-4.75	0.	114.75
4752	5.	-3.	0.	97.822
4753	3.	-3.	0.	97.142
4754	5.	-5.	0.	97.1
4755	3.	-5.	0.	98.243
4756	4.5	-3.	0.	111.88
4757	4.	-3.	0.	109.19
4758	3.5	-3.	0.	111.38
4759	5.	-3.5	0.	101.91
4760	5.	-4.	0.	100.27
4761	5.	-4.5	0.	101.24
4762	3.	-3.5	0.	101.42
4763	3.	-4.	0.	100.44
4764	3.	-4.5	0.	102.08
4765	3.5	-5.	0.	112.1
4766	4.	-5.	0.	108.93
4767	4.5	-5.	0.	110.86
4768	4.	-4.	0.	111.2
4769	4.	-4.5	0.	111.41
4770	3.5	-4.5	0.	109.26
4771	3.5	-4.	0.	108.23
4772	3.5	-3.5	0.	108.86
4773	4.	-3.5	0.	111.49
4774	4.5	-3.5	0.	109.07
4775	4.5	-4.	0.	108.06
4776	4.5	-4.5	0.	108.64
4777	4.75	-3.	0.	104.77
4778	5.	-3.25	0.	99.851
4779	3.25	-3.	0.	104.19
4780	3.	-3.25	0.	99.267
4781	5.	-4.75	0.	99.158
4782	4.75	-5.	0.	103.92
4783	3.	-4.75	0.	100.14
4784	3.25	-5.	0.	105.08
4785	4.25	-3.	0.	110.54
4786	4.5	-3.25	0.	110.45
4787	3.75	-3.	0.	110.29
4788	4.	-3.25	0.	110.33
4789	3.5	-3.25	0.	110.09
4790	5.	-3.75	0.	101.06
4791	4.75	-3.5	0.	105.47
4792	5.	-4.25	0.	100.72
4793	4.75	-4.	0.	104.16
4794	4.75	-4.5	0.	104.93
4795	3.	-3.75	0.	100.89
4796	3.25	-3.5	0.	105.12
4797	3.	-4.25	0.	101.23
4798	3.25	-4.	0.	104.33
4799	3.25	-4.5	0.	105.65
4800	3.75	-5.	0.	110.52
4801	3.5	-4.75	0.	110.65
4802	4.25	-5.	0.	109.9
4803	4.	-4.75	0.	110.16
4804	4.5	-4.75	0.	109.73
4805	4.	-4.25	0.	111.3
4806	3.75	-4.	0.	109.72
4807	4.	-3.75	0.	111.35
4808	4.25	-4.	0.	109.63
4809	3.75	-4.5	0.	110.33
4810	4.25	-4.5	0.	110.02
4811	3.5	-4.25	0.	108.74
4812	3.5	-3.75	0.	108.54
4813	3.75	-3.5	0.	110.17
4814	4.25	-3.5	0.	110.27
4815	4.5	-3.75	0.	108.56
4816	4.5	-4.25	0.	108.34
4817	2.	-7.	0.	95.449
4818	1.	-7.	0.	95.939
4819	2.	-9.	0.	94.386
4820	1.	-9.	0.	94.755
4821	1.5	-7.	0.	110.03
4822	2.	-7.5	0.	98.986
4823	2.	-8.	0.	97.473
4824	2.	-8.5	0.	98.393
4825	1.	-7.5	0.	99.427
4826	1.	-8.	0.	98.024
4827	1.	-8.5	0.	98.843
4828	1.5	-9.	0.	107.82
4829	1.5	-7.5	0.	103.63
4830	1.5	-8.	0.	101.03
4831	1.5	-8.5	0.	102.92
4832	1.75	-7.	0.	102.67
4833	2.	-7.25	0.	97.21
4834	1.25	-7.	0.	102.92
4835	1.	-7.25	0.	97.679
4836	2.	-8.75	0.	96.387
4837	1.75	-9.	0.	101.07
4838	1.	-8.75	0.	96.796
4839	1.25	-9.	0.	101.25
4840	1.5	-7.25	0.	106.78
4841	2.	-7.75	0.	98.18
4842	1.75	-7.5	0.	101.24
4843	2.	-8.25	0.	97.892
4844	1.75	-8.	0.	99.247
4845	1.75	-8.5	0.	100.62
4846	1.	-7.75	0.	98.686
4847	1.25	-7.5	0.	101.46
4848	1.	-8.25	0.	98.4
4849	1.25	-8.	0.	99.524
4850	1.25	-8.5	0.	100.85
4851	1.5	-8.75	0.	105.33
4852	1.5	-7.75	0.	102.32
4853	1.5	-8.25	0.	101.97
4854	4.	8.	0.	98.691
4855	2.	8.	0.	98.612
4856	4.	7.	0.	98.888
4857	2.	7.	0.	98.42
4858	3.5	8.	0.	115.86
4859	3.	8.	0.	114.59
4860	2.5	8.	0.	115.83
4861	4.	7.5	0.	103.69
4862	2.	7.5	0.	103.44
4863	2.5	7.	0.	115.23
4864	3.	7.	0.	114.01
4865	3.5	7.	0.	115.45
4866	2.5	7.5	0.	113.96
4867	3.	7.5	0.	117.35
4868	3.5	7.5	0.	114.13
4869	3.75	8.	0.	107.23
4870	4.	7.75	0.	101.16
4871	2.25	8.	0.	107.17
4872	2.	7.75	0.	100.99
4873	4.	7.25	0.	101.26
4874	3.75	7.	0.	107.13
4875	2.	7.25	0.	100.9
4876	2.25	7.	0.	106.79
4877	3.25	8.	0.	115.23
4878	3.5	7.75	0.	114.98
4879	2.75	8.	0.	115.21
4880	3.	7.75	0.	115.96
4881	2.5	7.75	0.	114.88
4882	3.75	7.5	0.	108.89
4883	2.25	7.5	0.	108.68
4884	2.75	7.	0.	114.61
4885	2.5	7.25	0.	114.58
4886	3.25	7.	0.	114.73
4887	3.	7.25	0.	115.67
4888	3.5	7.25	0.	114.77
4889	2.75	7.5	0.	115.66
4890	3.25	7.5	0.	115.74
4891	-4.	-5.	0.	98.246
4892	-5.	-5.	0.	99.438
4893	-4.	-6.	0.	99.03
4894	-5.	-6.	0.	98.907
4895	-4.5	-5.	0.	114.64
4896	-4.	-5.5	0.	103.83
4897	-5.	-5.5	0.	104.46
4898	-4.5	-6.	0.	114.72
4899	-4.5	-5.5	0.	112.11
4900	-4.25	-5.	0.	106.43
4901	-4.	-5.25	0.	101.03
4902	-4.75	-5.	0.	107.01
4903	-5.	-5.25	0.	101.93
4904	-4.	-5.75	0.	101.42
4905	-4.25	-6.	0.	106.85
4906	-5.	-5.75	0.	101.67
4907	-4.75	-6.	0.	106.8
4908	-4.5	-5.25	0.	113.32
4909	-4.25	-5.5	0.	107.95
4910	-4.75	-5.5	0.	108.26
4911	-4.5	-5.75	0.	113.36
4912	0.	-2.	0.	99.895
4913	-2.	-2.	0.	100.81
4914	0.	-3.	0.	99.368
4915	-2.	-3.	0.	100.72
4916	-0.5	-2.	0.	117.17
4917	-1.	-2.	0.	115.77
4918	-1.5	-2.	0.	117.25
4919	0.	-2.5	0.	104.47
4920	-2.	-2.5	0.	105.24
4921	-1.5	-3.	0.	116.94
4922	-1.	-3.	0.	115.15
4923	-0.5	-3.	0.	116.18
4924	-1.5	-2.5	0.	115.28
4925	-1.	-2.5	0.	118.47
4926	-0.5	-2.5	0.	115.12
4927	-0.25	-2.	0.	108.48
4928	0.	-2.25	0.	102.15
4929	-1.75	-2.	0.	108.98
4930	-2.	-2.25	0.	102.98
4931	0.	-2.75	0.	101.89
4932	-0.25	-3.	0.	107.74
4933	-2.	-2.75	0.	102.94
4934	-1.75	-3.	0.	108.79
4935	-0.75	-2.	0.	116.47
4936	-0.5	-2.25	0.	116.13
4937	-1.25	-2.	0.	116.51
4938	-1.	-2.25	0.	117.11
4939	-1.5	-2.25	0.	116.25
4940	-0.25	-2.5	0.	109.78
4941	-1.75	-2.5	0.	110.23
4942	-1.25	-3.	0.	116.04
4943	-1.5	-2.75	0.	116.09
4944	-0.75	-3.	0.	115.67
4945	-1.	-2.75	0.	116.8
4946	-0.5	-2.75	0.	115.63
4947	-1.25	-2.5	0.	116.87
4948	-0.75	-2.5	0.	116.79
4949	-5.	8.	0.	98.403
4950	-7.	8.	0.	98.918
4951	-5.	6.	0.	99.372
4952	-7.	6.	0.	99.112
4953	-5.5	8.	0.	113.34
4954	-6.	8.	0.	111.16
4955	-6.5	8.	0.	113.65
4956	-5.	7.5	0.	102.66
4957	-5.	7.	0.	101.64
4958	-5.	6.5	0.	103.55
4959	-7.	7.5	0.	103.41
4960	-7.	7.	0.	102.06
4961	-7.	6.5	0.	103.1
4962	-6.5	6.	0.	113.21
4963	-6.	6.	0.	111.15
4964	-5.5	6.	0.	113.93
4965	-6.	7.5	0.	113.46
4966	-5.5	7.5	0.	110.49
4967	-5.5	6.5	0.	111.03
4968	-6.	6.5	0.	113.55
4969	-6.5	6.5	0.	110.88
4970	-6.5	7.5	0.	110.98
4971	-6.5	7.	0.	110.15
4972	-5.5	7.	0.	109.84
4973	-6.	7.	0.	113.21
4974	-5.25	8.	0.	105.79
4975	-5.	7.75	0.	100.51
4976	-6.75	8.	0.	106.2
4977	-7.	7.75	0.	101.15
4978	-5.	6.25	0.	101.44
4979	-5.25	6.	0.	106.57
4980	-7.	6.25	0.	101.1
4981	-6.75	6.	0.	106.1
4982	-5.75	8.	0.	112.25
4983	-5.5	7.75	0.	111.89
4984	-6.25	8.	0.	112.4
4985	-6.	7.75	0.	112.29
4986	-6.5	7.75	0.	112.28
4987	-5.	7.25	0.	102.1
4988	-5.25	7.5	0.	106.56
4989	-5.	6.75	0.	102.56
4990	-5.25	7.	0.	105.74
4991	-5.25	6.5	0.	107.27
4992	-7.	7.25	0.	102.7
4993	-6.75	7.5	0.	107.18
4994	-7.	6.75	0.	102.55
4995	-6.75	7.	0.	106.1
4996	-6.75	6.5	0.	106.98
4997	-6.25	6.	0.	112.18
4998	-6.5	6.25	0.	112.02
4999	-5.75	6.	0.	112.54
5000	-6.	6.25	0.	112.34
5001	-5.5	6.25	0.	112.45
5002	-5.75	7.5	0.	111.96
5003	-6.25	7.5	0.	112.2
5004	-6.	7.25	0.	113.33
5005	-5.5	7.25	0.	110.15
5006	-5.75	6.5	0.	112.28
5007	-5.5	6.75	0.	110.42
5008	-6.25	6.5	0.	112.2
5009	-6.	6.75	0.	113.38
5010	-6.5	6.75	0.	110.51
5011	-6.5	7.25	0.	110.56
5012	-6.25	7.	0.	111.68
5013	-5.75	7.	0.	111.52
5014	7.	-7.	0.	100.14
5015	6.	-7.	0.	100.38
5016	7.	-8.	0.	99.14
5017	6.	-8.	0.	99.097
5018	6.5	-7.	0.	116.33
5019	7.	-7.5	0.	104.54
5020	6.	-7.5	0.	104.38
5021	6.5	-8.	0.	114.52
5022	6.5	-7.5	0.	112.22
5023	6.75	-7.	0.	108.2
5024	7.	-7.25	0.	102.33
5025	6.25	-7.	0.	108.32
5026	6.	-7.25	0.	102.35
5027	7.	-7.75	0.	101.83
5028	6.75	-8.	0.	106.81
5029	6.	-7.75	0.	101.71
5030	6.25	-8.	0.	106.8
5031	6.5	-7.25	0.	114.23
5032	6.75	-7.5	0.	108.36
5033	6.25	-7.5	0.	108.26
5034	6.5	-7.75	0.	113.32
5035	-7.	-1.	0.	91.086
5036	-8.	-1.	0.	96.216
5037	-7.	-3.	0.	94.767
5038	-8.	-3.	0.	95.603
5039	-7.5	-1.	0.	106.2
5040	-7.	-1.5	0.	96.393
5041	-7.	-2.	0.	96.338
5042	-7.	-2.5	0.	98.211
5043	-8.	-1.5	0.	99.292
5044	-8.	-2.	0.	98.441
5045	-8.	-2.5	0.	99.688
5046	-7.5	-3.	0.	109.12
5047	-7.5	-1.5	0.	101.86
5048	-7.5	-2.	0.	100.43
5049	-7.5	-2.5	0.	103.1
5050	-7.25	-1.	0.	98.612
5051	-7.	-1.25	0.	93.733
5052	-7.75	-1.	0.	101.18
5053	-8.	-1.25	0.	97.75
5054	-7.	-2.75	0.	96.485
5055	-7.25	-3.	0.	101.89
5056	-8.	-2.75	0.	97.639
5057	-7.75	-3.	0.	102.3
5058	-7.5	-1.25	0.	104.
5059	-7.	-1.75	0.	96.321
5060	-7.25	-1.5	0.	99.102
5061	-7.	-2.25	0.	97.228
5062	-7.25	-2.	0.	98.381
5063	-7.25	-2.5	0.	100.59
5064	-8.	-1.75	0.	98.842
5065	-7.75	-1.5	0.	100.55
5066	-8.	-2.25	0.	99.037
5067	-7.75	-2.	0.	99.436
5068	-7.75	-2.5	0.	101.34
5069	-7.5	-2.75	0.	106.06
5070	-7.5	-1.75	0.	101.14
5071	-7.5	-2.25	0.	101.76
5072	-6.	1.	0.	99.978
5073	-8.	1.	0.	98.122
5074	-6.	0.	0.	101.95
5075	-8.	0.	0.	96.779
5076	-6.5	1.	0.	115.72
5077	-7.	1.	0.	113.
5078	-7.5	1.	0.	113.88
5079	-6.	0.5	0.	105.85
5080	-8.	0.5	0.	102.27
5081	-7.5	0.	0.	110.45
5082	-7.	0.	0.	112.04
5083	-6.5	0.	0.	117.25
5084	-7.5	0.5	0.	111.43
5085	-7.	0.5	0.	115.75
5086	-6.5	0.5	0.	114.97
5087	-6.25	1.	0.	107.8
5088	-6.	0.75	0.	102.9
5089	-7.75	1.	0.	105.94
5090	-8.	0.75	0.	100.18
5091	-6.	0.25	0.	103.88
5092	-6.25	0.	0.	109.53
5093	-8.	0.25	0.	99.517
5094	-7.75	0.	0.	103.61
5095	-6.75	1.	0.	114.36
5096	-6.5	0.75	0.	115.31
5097	-7.25	1.	0.	113.44
5098	-7.	0.75	0.	114.37
5099	-7.5	0.75	0.	112.64
5100	-6.25	0.5	0.	110.4
5101	-7.75	0.5	0.	106.83
5102	-7.25	0.	0.	111.21
5103	-7.5	0.25	0.	110.92
5104	-6.75	0.	0.	114.64
5105	-7.	0.25	0.	113.89
5106	-6.5	0.25	0.	116.09
5107	-7.25	0.5	0.	113.58
5108	-6.75	0.5	0.	115.36
5109	9.	9.	0.	100.37
5110	7.	9.	0.	100.12
5111	9.	8.	0.	99.478
5112	7.	8.	0.	102.06
5113	8.5	9.	0.	119.14
5114	8.	9.	0.	118.74
5115	7.5	9.	0.	119.83
5116	9.	8.5	0.	105.12
5117	7.	8.5	0.	106.38
5118	7.5	8.	0.	119.16
5119	8.	8.	0.	115.61
5120	8.5	8.	0.	114.21
5121	7.5	8.5	0.	117.93
5122	8.	8.5	0.	120.56
5123	8.5	8.5	0.	116.18
5124	8.75	9.	0.	109.67
5125	9.	8.75	0.	102.74
5126	7.25	9.	0.	109.91
5127	7.	8.75	0.	103.22
5128	9.	8.25	0.	102.29
5129	8.75	8.	0.	106.84
5130	7.	8.25	0.	104.19
5131	7.25	8.	0.	110.57
5132	8.25	9.	0.	118.94
5133	8.5	8.75	0.	117.63
5134	7.75	9.	0.	119.28
5135	8.	8.75	0.	119.63
5136	7.5	8.75	0.	118.85
5137	8.75	8.5	0.	110.64
5138	7.25	8.5	0.	112.14
5139	7.75	8.	0.	117.38
5140	7.5	8.25	0.	118.53
5141	8.25	8.	0.	114.86
5142	8.	8.25	0.	118.08
5143	8.5	8.25	0.	115.18
5144	7.75	8.5	0.	119.24
5145	8.25	8.5	0.	118.35
5146	8.	2.	0.	95.659
5147	7.	2.	0.	95.519
5148	8.	0.	0.	96.424
5149	7.	0.	0.	95.897
5150	7.5	2.	0.	109.53
5151	8.	1.5	0.	100.06
5152	8.	1.	0.	99.212
5153	8.	0.5	0.	100.27
5154	7.	1.5	0.	99.598
5155	7.	1.	0.	98.793
5156	7.	0.5	0.	100.11
5157	7.5	0.	0.	110.27
5158	7.5	1.5	0.	104.32
5159	7.5	1.	0.	102.38
5160	7.5	0.5	0.	104.69
5161	7.75	2.	0.	102.54
5162	8.	1.75	0.	97.855
5163	7.25	2.	0.	102.48
5164	7.	1.75	0.	97.557
5165	8.	0.25	0.	98.343
5166	7.75	0.	0.	103.3
5167	7.	0.25	0.	98.
5168	7.25	0.	0.	103.02
5169	7.5	1.75	0.	106.88
5170	8.	1.25	0.	99.6
5171	7.75	1.5	0.	102.14
5172	8.	0.75	0.	99.703
5173	7.75	1.	0.	100.8
5174	7.75	0.5	0.	102.43
5175	7.	1.25	0.	99.151
5176	7.25	1.5	0.	101.91
5177	7.	0.75	0.	99.41
5178	7.25	1.	0.	100.59
5179	7.25	0.5	0.	102.35
5180	7.5	0.25	0.	107.43
5181	7.5	1.25	0.	103.35
5182	7.5	0.75	0.	103.53
5183	-1.	8.	0.	98.553
5184	-3.	8.	0.	99.414
5185	-1.	7.	0.	98.913
5186	-3.	7.	0.	98.602
5187	-1.5	8.	0.	115.84
5188	-2.	8.	0.	114.61
5189	-2.5	8.	0.	116.14
5190	-1.	7.5	0.	103.52
5191	-3.	7.5	0.	104.01
5192	-2.5	7.	0.	115.41
5193	-2.	7.	0.	114.12
5194	-1.5	7.	0.	115.53
5195	-2.5	7.5	0.	114.07
5196	-2.	7.5	0.	117.34
5197	-1.5	7.5	0.	114.03
5198	-1.25	8.	0.	107.15
5199	-1.	7.75	0.	101.01
5200	-2.75	8.	0.	107.73
5201	-3.	7.75	0.	101.68
5202	-1.	7.25	0.	101.19
5203	-1.25	7.	0.	107.18
5204	-3.	7.25	0.	101.27
5205	-2.75	7.	0.	106.97
5206	-1.75	8.	0.	115.22
5207	-1.5	7.75	0.	114.91
5208	-2.25	8.	0.	115.37
5209	-2.	7.75	0.	115.97
5210	-2.5	7.75	0.	115.09
5211	-1.25	7.5	0.	108.76
5212	-2.75	7.5	0.	109.02
5213	-2.25	7.	0.	114.76
5214	-2.5	7.25	0.	114.73
5215	-1.75	7.	0.	114.82
5216	-2.	7.25	0.	115.72
5217	-1.5	7.25	0.	114.76
5218	-2.25	7.5	0.	115.7
5219	-1.75	7.5	0.	115.68
5220	-3.	4.	0.	96.86
5221	-4.	4.	0.	97.235
5222	-3.	2.	0.	95.384
5223	-4.	2.	0.	96.481
5224	-3.5	4.	0.	111.47
5225	-3.	3.5	0.	100.79
5226	-3.	3.	0.	99.456
5227	-3.	2.5	0.	100.18
5228	-4.	3.5	0.	101.04
5229	-4.	3.	0.	99.639
5230	-4.	2.5	0.	100.4
5231	-3.5	2.	0.	109.88
5232	-3.5	3.5	0.	105.62
5233	-3.5	3.	0.	103.06
5234	-3.5	2.5	0.	104.84
5235	-3.25	4.	0.	104.11
5236	-3.	3.75	0.	98.822
5237	-3.75	4.	0.	104.29
5238	-4.	3.75	0.	99.132
5239	-3.	2.25	0.	97.781
5240	-3.25	2.	0.	102.58
5241	-4.	2.25	0.	98.44
5242	-3.75	2.	0.	103.14
5243	-3.5	3.75	0.	108.5
5244	-3.	3.25	0.	100.08
5245	-3.25	3.5	0.	103.15
5246	-3.	2.75	0.	99.774
5247	-3.25	3.	0.	101.25
5248	-3.25	2.5	0.	102.47
5249	-4.	3.25	0.	100.3
5250	-3.75	3.5	0.	103.28
5251	-4.	2.75	0.	99.984
5252	-3.75	3.	0.	101.35
5253	-3.75	2.5	0.	102.57
5254	-3.5	2.25	0.	107.31
5255	-3.5	3.25	0.	104.34
5256	-3.5	2.75	0.	103.95
5257	-2.	-7.	0.	98.119
5258	-3.	-7.	0.	98.501
5259	-2.	-8.	0.	97.865
5260	-3.	-8.	0.	97.567
5261	-2.5	-7.	0.	113.96
5262	-2.	-7.5	0.	103.28
5263	-3.	-7.5	0.	103.05
5264	-2.5	-8.	0.	113.16
5265	-2.5	-7.5	0.	110.92
5266	-2.25	-7.	0.	106.02
5267	-2.	-7.25	0.	100.69
5268	-2.75	-7.	0.	106.2
5269	-3.	-7.25	0.	100.77
5270	-2.	-7.75	0.	100.56
5271	-2.25	-8.	0.	105.49
5272	-3.	-7.75	0.	100.3
5273	-2.75	-8.	0.	105.35
5274	-2.5	-7.25	0.	112.39
5275	-2.25	-7.5	0.	107.07
5276	-2.75	-7.5	0.	106.96
5277	-2.5	-7.75	0.	111.99
5278	5.	-7.	0.	97.626
5279	4.	-7.	0.	94.4
5280	5.	-8.	0.	97.222
5281	4.	-8.	0.	95.849
5282	4.5	-7.	0.	110.29
5283	5.	-7.5	0.	101.7
5284	4.	-7.5	0.	99.97
5285	4.5	-8.	0.	111.49
5286	4.5	-7.5	0.	107.77
5287	4.75	-7.	0.	103.95
5288	5.	-7.25	0.	99.649
5289	4.25	-7.	0.	102.33
5290	4.	-7.25	0.	97.171
5291	5.	-7.75	0.	99.441
5292	4.75	-8.	0.	104.32
5293	4.	-7.75	0.	97.9
5294	4.25	-8.	0.	103.65
5295	4.5	-7.25	0.	108.99
5296	4.75	-7.5	0.	104.7
5297	4.25	-7.5	0.	103.84
5298	4.5	-7.75	0.	109.59
5299	9.	7.	0.	98.643
5300	8.	7.	0.	94.133
5301	9.	6.	0.	98.208
5302	8.	6.	0.	95.417
5303	8.5	7.	0.	110.48
5304	9.	6.5	0.	103.41
5305	8.	6.5	0.	99.989
5306	8.5	6.	0.	111.86
5307	8.5	6.5	0.	108.74
5308	8.75	7.	0.	104.55
5309	9.	6.75	0.	101.02
5310	8.25	7.	0.	102.3
5311	8.	6.75	0.	97.045
5312	9.	6.25	0.	100.81
5313	8.75	6.	0.	105.01
5314	8.	6.25	0.	97.692
5315	8.25	6.	0.	103.62
5316	8.5	6.75	0.	109.57
5317	8.75	6.5	0.	106.06
5318	8.25	6.5	0.	104.33
5319	8.5	6.25	0.	110.25
5320	-3.	-2.	0.	99.079
5321	-4.	-2.	0.	97.749
5322	-3.	-3.	0.	99.449
5323	-4.	-3.	0.	97.159
5324	-3.5	-2.	0.	113.77
5325	-3.	-2.5	0.	103.72
5326	-4.	-2.5	0.	102.24
5327	-3.5	-3.	0.	113.67
5328	-3.5	-2.5	0.	110.28
5329	-3.25	-2.	0.	106.4
5330	-3.	-2.25	0.	101.37
5331	-3.75	-2.	0.	105.73
5332	-4.	-2.25	0.	99.986
5333	-3.	-2.75	0.	101.55
5334	-3.25	-3.	0.	106.54
5335	-4.	-2.75	0.	99.689
5336	-3.75	-3.	0.	105.4
5337	-3.5	-2.25	0.	111.98
5338	-3.25	-2.5	0.	106.96
5339	-3.75	-2.5	0.	106.24
5340	-3.5	-2.75	0.	111.94
5341	2.	2.	0.	94.847
5342	1.	2.	0.	95.305
5343	2.	0.	0.	95.987
5344	1.	0.	0.	96.959
5345	1.5	2.	0.	109.03
5346	2.	1.5	0.	99.121
5347	2.	1.	0.	98.377
5348	2.	0.5	0.	99.878
5349	1.	1.5	0.	99.428
5350	1.	1.	0.	98.806
5351	1.	0.5	0.	100.42
5352	1.5	0.	0.	110.9
5353	1.5	1.5	0.	103.79
5354	1.5	1.	0.	102.04
5355	1.5	0.5	0.	104.75
5356	1.75	2.	0.	101.89
5357	2.	1.75	0.	96.982
5358	1.25	2.	0.	102.12
5359	1.	1.75	0.	97.365
5360	2.	0.25	0.	97.927
5361	1.75	0.	0.	103.38
5362	1.	0.25	0.	98.682
5363	1.25	0.	0.	103.87
5364	1.5	1.75	0.	106.36
5365	2.	1.25	0.	98.703
5366	1.75	1.5	0.	101.41
5367	2.	0.75	0.	99.081
5368	1.75	1.	0.	100.2
5369	1.75	0.5	0.	102.25
5370	1.	1.25	0.	99.078
5371	1.25	1.5	0.	101.56
5372	1.	0.75	0.	99.573
5373	1.25	1.	0.	100.42
5374	1.25	0.5	0.	102.52
5375	1.5	0.25	0.	107.78
5376	1.5	1.25	0.	102.91
5377	1.5	0.75	0.	103.39
