Node Number	X Location (mm)	Y Location (mm)	Z Location (mm)	Equivalent (von-Mises) Stress (MPa)
1	-7.	6.	0.	132.8
2	-7.	5.	0.	135.23
3	-6.	6.	0.	134.66
4	-6.	5.	0.	133.82
5	-7.	-7.	0.	123.71
6	-7.	-8.	0.	127.03
7	-6.	-7.	0.	127.96
8	-6.	-8.	0.	129.9
9	4.	3.	0.	135.73
10	4.	1.	0.	137.51
11	6.	3.	0.	136.58
12	6.	1.	0.	134.7
13	5.	9.	0.	135.59
14	5.	8.	0.	133.7
15	6.	9.	0.	136.49
16	6.	8.	0.	137.29
17	-7.	-1.	0.	133.81
18	-7.	-3.	0.	130.59
19	-5.	-1.	0.	135.48
20	-5.	-3.	0.	135.79
21	-4.	8.	0.	135.57
22	-4.	7.	0.	136.05
23	-3.	8.	0.	135.04
24	-3.	7.	0.	136.37
25	1.	0.	0.	133.86
26	1.	-1.	0.	133.
27	2.	0.	0.	135.56
28	2.	-1.	0.	135.57
29	-9.	4.	0.	135.52
30	-9.	3.	0.	134.79
31	-8.	4.	0.	135.26
32	-8.	3.	0.	133.34
33	8.	6.	0.	132.5
34	8.	4.	0.	134.33
35	9.	6.	0.	133.98
36	9.	4.	0.	134.33
37	5.	-4.	0.	134.33
38	5.	-5.	0.	134.38
39	7.	-4.	0.	134.61
40	7.	-5.	0.	135.05
41	-1.	5.	0.	136.43
42	-1.	3.	0.	136.19
43	1.	5.	0.	136.41
44	1.	3.	0.	135.2
45	-8.	-5.	0.	137.1
46	-8.	-6.	0.	138.17
47	-6.	-5.	0.	128.18
48	-6.	-6.	0.	127.53
49	7.	9.	0.	136.87
50	7.	8.	0.	136.45
51	8.	9.	0.	134.75
52	8.	8.	0.	132.4
53	-1.	-7.	0.	131.27
54	-1.	-9.	0.	129.37
55	0.	-7.	0.	131.13
56	0.	-9.	0.	128.98
57	10.	10.	0.	125.09
58	-10.	10.	0.	125.
59	10.	-10.	0.	126.25
60	-10.	-10.	0.	130.39
61	-7.	5.5	0.	143.19
62	-6.5	6.	0.	111.46
63	-6.5	5.	0.	111.92
64	-6.	5.5	0.	143.72
65	-7.	-7.5	0.	134.52
66	-6.5	-7.	0.	103.71
67	-6.5	-8.	0.	105.84
68	-6.	-7.5	0.	138.4
69	4.	2.5	0.	145.53
70	4.	2.	0.	147.41
71	4.	1.5	0.	146.7
72	4.5	3.	0.	113.95
73	5.	3.	0.	118.27
74	5.5	3.	0.	114.07
75	4.5	1.	0.	114.88
76	5.	1.	0.	118.57
77	5.5	1.	0.	113.83
78	6.	2.5	0.	145.16
79	6.	2.	0.	145.85
80	6.	1.5	0.	144.18
81	5.	8.5	0.	143.89
82	5.5	9.	0.	113.69
83	5.5	8.	0.	112.65
84	6.	8.5	0.	143.64
85	-7.	-1.5	0.	141.94
86	-7.	-2.	0.	142.51
87	-7.	-2.5	0.	140.53
88	-6.5	-1.	0.	112.36
89	-6.	-1.	0.	117.01
90	-5.5	-1.	0.	113.12
91	-6.5	-3.	0.	110.1
92	-6.	-3.	0.	116.07
93	-5.5	-3.	0.	113.77
94	-5.	-1.5	0.	144.04
95	-5.	-2.	0.	145.3
96	-5.	-2.5	0.	144.4
97	-4.	7.5	0.	145.33
98	-3.5	8.	0.	113.17
99	-3.5	7.	0.	113.57
100	-3.	7.5	0.	145.07
101	1.	-0.5	0.	142.26
102	1.5	0.	0.	112.22
103	1.5	-1.	0.	112.06
104	2.	-0.5	0.	145.61
105	-9.	3.5	0.	145.53
106	-8.5	4.	0.	112.82
107	-8.5	3.	0.	111.96
108	-8.	3.5	0.	143.18
109	8.	5.5	0.	142.08
110	8.	5.	0.	143.32
111	8.	4.5	0.	143.49
112	8.5	6.	0.	108.77
113	8.5	4.	0.	109.32
114	9.	5.5	0.	144.42
115	9.	5.	0.	145.28
116	9.	4.5	0.	144.48
117	5.	-4.5	0.	142.84
118	5.5	-4.	0.	116.17
119	6.	-4.	0.	121.4
120	6.5	-4.	0.	116.58
121	5.5	-5.	0.	116.45
122	6.	-5.	0.	121.58
123	6.5	-5.	0.	116.56
124	7.	-4.5	0.	143.39
125	-1.	4.5	0.	144.97
126	-1.	4.	0.	146.02
127	-1.	3.5	0.	144.88
128	-0.5	5.	0.	114.54
129	0.	5.	0.	118.81
130	0.5	5.	0.	114.45
131	-0.5	3.	0.	114.31
132	0.	3.	0.	118.3
133	0.5	3.	0.	113.54
134	1.	4.5	0.	145.26
135	1.	4.	0.	146.17
136	1.	3.5	0.	144.51
137	-8.	-5.5	0.	145.96
138	-7.5	-5.	0.	116.98
139	-7.	-5.	0.	118.49
140	-6.5	-5.	0.	110.7
141	-7.5	-6.	0.	117.87
142	-7.	-6.	0.	117.28
143	-6.5	-6.	0.	108.56
144	-6.	-5.5	0.	137.06
145	7.	8.5	0.	143.42
146	7.5	9.	0.	113.27
147	7.5	8.	0.	111.91
148	8.	8.5	0.	142.94
149	-1.	-7.5	0.	139.87
150	-1.	-8.	0.	139.95
151	-1.	-8.5	0.	139.19
152	-0.5	-7.	0.	106.62
153	-0.5	-9.	0.	104.8
154	0.	-7.5	0.	139.57
155	0.	-8.	0.	139.66
156	0.	-8.5	0.	138.87
157	9.5	10.	0.	125.49
158	9.	10.	0.	126.68
159	8.5	10.	0.	125.99
160	8.	10.	0.	122.18
161	7.5	10.	0.	120.85
162	7.	10.	0.	123.87
163	6.5	10.	0.	127.45
164	6.	10.	0.	124.19
165	5.5	10.	0.	121.48
166	5.	10.	0.	123.23
167	4.5	10.	0.	127.43
168	4.	10.	0.	128.39
169	3.5	10.	0.	127.41
170	3.	10.	0.	126.54
171	2.5	10.	0.	125.85
172	2.	10.	0.	125.34
173	1.5	10.	0.	124.96
174	1.	10.	0.	124.72
175	0.5	10.	0.	124.65
176	-5.2042e-015	10.	0.	124.76
177	-0.5	10.	0.	125.04
178	-1.	10.	0.	125.42
179	-1.5	10.	0.	125.69
180	-2.	10.	0.	125.54
181	-2.5	10.	0.	124.81
182	-3.	10.	0.	123.85
183	-3.5	10.	0.	123.45
184	-4.	10.	0.	123.98
185	-4.5	10.	0.	125.05
186	-5.	10.	0.	125.85
187	-5.5	10.	0.	126.02
188	-6.	10.	0.	125.78
189	-6.5	10.	0.	125.42
190	-7.	10.	0.	125.14
191	-7.5	10.	0.	124.99
192	-8.	10.	0.	124.94
193	-8.5	10.	0.	124.95
194	-9.	10.	0.	124.97
195	-9.5	10.	0.	124.99
196	10.	9.5	0.	124.01
197	10.	9.	0.	122.16
198	10.	8.5	0.	121.99
199	10.	8.	0.	124.4
200	10.	7.5	0.	128.7
201	10.	7.	0.	133.65
202	10.	6.5	0.	136.37
203	10.	6.	0.	134.85
204	10.	5.5	0.	132.14
205	10.	5.	0.	131.9
206	10.	4.5	0.	130.83
207	10.	4.	0.	132.41
208	10.	3.5	0.	133.24
209	10.	3.	0.	130.77
210	10.	2.5	0.	127.21
211	10.	2.	0.	125.11
212	10.	1.5	0.	124.43
213	10.	1.	0.	124.71
214	10.	0.5	0.	125.53
215	10.	-5.2042e-015	0.	126.54
216	10.	-0.5	0.	127.5
217	10.	-1.	0.	128.25
218	10.	-1.5	0.	128.72
219	10.	-2.	0.	128.81
220	10.	-2.5	0.	128.47
221	10.	-3.	0.	127.7
222	10.	-3.5	0.	126.65
223	10.	-4.	0.	125.65
224	10.	-4.5	0.	125.11
225	10.	-5.	0.	125.22
226	10.	-5.5	0.	125.81
227	10.	-6.	0.	126.51
228	10.	-6.5	0.	127.02
229	10.	-7.	0.	127.21
230	10.	-7.5	0.	127.15
231	10.	-8.	0.	126.93
232	10.	-8.5	0.	126.67
233	10.	-9.	0.	126.45
234	10.	-9.5	0.	126.3
235	-10.	9.5	0.	125.01
236	-10.	9.	0.	125.04
237	-10.	8.5	0.	125.05
238	-10.	8.	0.	125.
239	-10.	7.5	0.	124.85
240	-10.	7.	0.	124.63
241	-10.	6.5	0.	124.51
242	-10.	6.	0.	124.94
243	-10.	5.5	0.	126.52
244	-10.	5.	0.	129.33
245	-10.	4.5	0.	130.66
246	-10.	4.	0.	128.01
247	-10.	3.5	0.	125.18
248	-10.	3.	0.	129.69
249	-10.	2.5	0.	133.75
250	-10.	2.	0.	133.5
251	-10.	1.5	0.	131.43
252	-10.	1.	0.	130.01
253	-10.	0.5	0.	129.09
254	-10.	-5.2042e-015	0.	128.25
255	-10.	-0.5	0.	127.31
256	-10.	-1.	0.	126.42
257	-10.	-1.5	0.	125.97
258	-10.	-2.	0.	126.34
259	-10.	-2.5	0.	127.64
260	-10.	-3.	0.	129.58
261	-10.	-3.5	0.	131.44
262	-10.	-4.	0.	132.32
263	-10.	-4.5	0.	131.6
264	-10.	-5.	0.	129.83
265	-10.	-5.5	0.	128.52
266	-10.	-6.	0.	128.77
267	-10.	-6.5	0.	129.84
268	-10.	-7.	0.	130.56
269	-10.	-7.5	0.	130.59
270	-10.	-8.	0.	130.39
271	-10.	-8.5	0.	130.28
272	-10.	-9.	0.	130.31
273	-10.	-9.5	0.	130.37
274	-9.5	-10.	0.	129.24
275	-9.	-10.	0.	128.
276	-8.5	-10.	0.	126.46
277	-8.	-10.	0.	124.33
278	-7.5	-10.	0.	121.56
279	-7.	-10.	0.	118.89
280	-6.5	-10.	0.	117.96
281	-6.	-10.	0.	119.56
282	-5.5	-10.	0.	122.64
283	-5.	-10.	0.	125.47
284	-4.5	-10.	0.	127.37
285	-4.	-10.	0.	128.58
286	-3.5	-10.	0.	129.5
287	-3.	-10.	0.	130.35
288	-2.5	-10.	0.	131.1
289	-2.	-10.	0.	131.29
290	-1.5	-10.	0.	127.71
291	-1.	-10.	0.	117.27
292	-0.5	-10.	0.	110.79
293	5.2042e-015	-10.	0.	116.94
294	0.5	-10.	0.	127.08
295	1.	-10.	0.	130.39
296	1.5	-10.	0.	129.95
297	2.	-10.	0.	128.94
298	2.5	-10.	0.	127.87
299	3.	-10.	0.	126.89
300	3.5	-10.	0.	126.01
301	4.	-10.	0.	125.21
302	4.5	-10.	0.	124.51
303	5.	-10.	0.	123.94
304	5.5	-10.	0.	123.55
305	6.	-10.	0.	123.4
306	6.5	-10.	0.	123.47
307	7.	-10.	0.	123.76
308	7.5	-10.	0.	124.19
309	8.	-10.	0.	124.7
310	8.5	-10.	0.	125.22
311	9.	-10.	0.	125.69
312	9.5	-10.	0.	126.06
313	-1.	-3.5	0.	125.58
314	-1.5	-3.	0.	126.43
315	2.	-4.5	0.	124.99
316	-4.5	2.5	0.	125.18
317	-0.5	-4.	0.	124.39
318	-2.	-2.	0.	126.61
319	-2.	-4.	0.	127.38
320	-2.	-2.5	0.	126.81
321	-4.	2.	0.	126.89
322	1.5	-4.5	0.	124.7
323	-0.5	-3.5	0.	124.99
324	-1.5	-2.5	0.	126.42
325	2.	-4.	0.	124.62
326	-2.5	-4.5	0.	128.67
327	-3.5	1.5	0.	128.81
328	-2.5	-2.	0.	127.06
329	2.	-5.	0.	125.61
330	-2.5	0.5	0.	129.15
331	-2.	-1.3585e-010	0.	127.51
332	-1.	-3.	0.	125.96
333	-5.	2.5	0.	123.91
334	-4.5	3.	0.	125.18
335	-3.5	4.	0.	125.52
336	-1.5	-4.	0.	126.17
337	-4.	2.5	0.	126.39
338	1.	-4.	0.	124.
339	-2.	-1.5	0.	126.55
340	-2.	-3.	0.	127.07
341	-4.5	2.	0.	125.36
342	-5.	2.	0.	123.8
343	-2.	-0.5	0.	127.02
344	2.5	-4.5	0.	125.21
345	2.5	-6.	0.	126.98
346	-2.	-4.5	0.	127.38
347	1.	-4.5	0.	124.31
348	-0.5	-4.5	0.	123.65
349	5.5	-1.5	0.	119.87
350	-3.5	3.5	0.	126.08
351	-3.5	2.	0.	128.25
352	9.5831e-011	-3.5	0.	124.51
353	-1.5	-0.5	0.	126.06
354	-1.5	-2.	0.	126.33
355	2.5	-4.	0.	125.09
356	-2.5	-4.	0.	128.63
357	-2.5	-2.5	0.	127.37
358	-4.	1.5	0.	127.46
359	-5.5	1.5	0.	121.99
360	-2.5	-1.5	0.	127.1
361	-2.5	-8.8123e-011	0.	128.61
362	-3.5	-5.5	0.	128.78
363	3.	-6.5	0.	127.19
364	-3.	-5.5	0.	129.02
365	-2.5	-5.	0.	128.67
366	1.5	-5.	0.	125.39
367	2.5	-6.5	0.	127.12
368	2.	-5.5	0.	126.39
369	4.	5.5	0.	124.29
370	5.	5.	0.	119.65
371	3.5	6.	0.	126.96
372	-2.	0.5	0.	128.15
373	-1.5	-1.6725e-010	0.	126.33
374	-2.5	1.	0.	129.69
375	-3.	1.5	0.	129.74
376	-0.5	-3.	0.	125.57
377	-1.	-2.5	0.	126.23
378	-3.	-4.5	0.	129.7
379	-3.5	1.	0.	129.35
380	-3.	-2.	0.	127.68
381	-3.	0.5	0.	129.76
382	-5.5	2.5	0.	122.78
383	-5.	3.	0.	124.19
384	-6.	1.5	0.	121.28
385	6.	-2.	0.	119.87
386	5.5	5.	0.	120.43
387	6.	-7.	0.	120.88
388	-4.	3.5	0.	125.69
389	-3.	4.	0.	126.14
390	-6.	1.	0.	119.82
391	-3.5	-5.	0.	129.45
392	5.5	5.5	0.	121.59
393	5.	-1.	0.	119.28
394	1.2249e-010	7.	0.	120.32
395	3.	6.5	0.	128.06
396	2.5	-5.5	0.	126.44
397	4.5	-1.5	0.	122.39
398	0.5	-4.5	0.	123.83
399	8.4177e-012	-4.5	0.	123.49
400	6.	-1.5	0.	120.55
401	6.5	-1.5	0.	122.24
402	5.	5.5	0.	121.25
403	1.	-3.5	0.	123.78
404	-1.5	-1.	0.	126.04
405	-1.5	-1.5	0.	126.18
406	2.	-3.5	0.	124.44
407	2.5	-3.5	0.	125.32
408	-2.5	-3.	0.	127.89
409	-4.5	1.5	0.	125.67
410	-5.	1.5	0.	123.66
411	-2.5	-0.5	0.	128.03
412	-3.5	-6.	0.	128.41
413	3.	-7.	0.	126.86
414	2.5	7.	0.	127.22
415	4.	-7.	0.	126.16
416	5.5	-7.	0.	121.53
417	3.	-6.	0.	127.2
418	5.5	-2.	0.	119.94
419	-3.5	-7.	0.	127.7
420	-3.	-6.	0.	128.81
421	-2.	-5.	0.	127.45
422	1.	-5.	0.	124.86
423	-0.5	-5.	0.	122.57
424	2.5	-7.	0.	126.93
425	2.	-6.	0.	127.04
426	3.5	5.5	0.	126.48
427	4.5	5.	0.	120.85
428	5.5	-1.	0.	119.36
429	4.	6.	0.	125.32
430	2.	7.	0.	126.64
431	0.5	7.	0.	121.1
432	3.	6.	0.	128.41
433	-1.5	0.5	0.	126.79
434	-2.	1.	0.	128.94
435	-3.	2.	0.	129.47
436	1.2912e-010	-3.	0.	125.09
437	-1.	-2.	0.	126.33
438	-1.	-0.5	0.	125.24
439	1.5	-3.	0.	123.34
440	-3.	-4.	0.	129.91
441	-3.	-2.5	0.	128.12
442	-4.	1.	0.	128.22
443	-5.5	1.	0.	120.98
444	-3.	-5.3383e-011	0.	129.57
445	-5.5	3.	0.	122.94
446	-6.	2.	0.	122.08
447	7.	-1.5	0.	124.26
448	6.5	-2.	0.	121.34
449	6.	5.	0.	122.79
450	3.5	-6.5	0.	127.34
451	-2.5	-5.5	0.	128.82
452	6.5	-7.	0.	121.6
453	1.5	-5.5	0.	126.32
454	7.	-1.	0.	125.23
455	-4.	4.	0.	125.48
456	-4.5	3.5	0.	125.45
457	-3.5	5.	0.	124.59
458	-3.	4.5	0.	125.86
459	2.5	6.5	0.	128.51
460	-2.5	1.5	0.	130.24
461	4.	-2.	0.	125.95
462	3.5	-2.5	0.	127.89
463	-6.5	1.	0.	120.44
464	-3.5	0.5	0.	129.93
465	-4.	-7.	0.	127.63
466	-3.5	-4.5	0.	130.4
467	-4.	-5.5	0.	128.07
468	-6.5	1.5	0.	121.78
469	5.5	6.	0.	122.51
470	6.	5.5	0.	123.21
471	4.5	-1.	0.	121.04
472	-0.5	7.	0.	121.3
473	3.5	6.5	0.	127.39
474	3.	7.	0.	127.37
475	6.	-2.5	0.	118.7
476	6.	-6.5	0.	119.42
477	5.	4.5	0.	117.6
478	5.	-0.5	0.	117.52
479	-2.5	4.	0.	127.49
480	-3.5	-2.	0.	128.68
481	-6.	0.5	0.	117.64
482	4.5	-7.	0.	124.97
483	5.	-7.	0.	123.19
484	3.	-5.5	0.	126.69
485	4.5	-2.	0.	123.71
486	-3.	-7.	0.	128.
487	-1.5	-5.	0.	125.66
488	-1.3145e-011	-5.	0.	122.81
489	2.	-6.5	0.	127.28
490	4.	5.	0.	123.43
491	3.5	5.	0.	126.24
492	6.	-1.	0.	121.
493	6.5	-1.	0.	123.27
494	5.	6.	0.	122.43
495	1.	7.	0.	123.12
496	3.	5.5	0.	128.46
497	-1.5	1.	0.	127.4
498	-1.	1.	0.	125.3
499	1.	-3.	0.	123.51
500	-1.	-1.	0.	125.62
501	-1.	-1.5	0.	126.1
502	-1.	-1.7357e-010	0.	125.27
503	2.	-3.	0.	124.25
504	2.5	-3.	0.	125.73
505	-3.	-3.	0.	128.93
506	-4.5	1.	0.	126.19
507	-5.	1.	0.	123.47
508	-3.	-0.5	0.	129.08
509	-6.	2.5	0.	122.2
510	-6.	3.	0.	121.83
511	-4.	-6.	0.	127.98
512	7.	-2.	0.	123.7
513	6.5	5.	0.	125.84
514	-6.	-1.2704e-012	0.	114.73
515	-4.	-2.	0.	130.79
516	7.	5.	0.	129.36
517	2.	4.	0.	131.89
518	1.192e-010	6.	0.	116.03
519	-2.	4.	0.	130.16
520	5.	1.2668e-011	0.	115.2
521	5.	4.	0.	115.04
522	6.	-6.	0.	117.49
523	3.5	7.	0.	127.5
524	-1.	7.5	0.	123.59
525	-0.5	7.5	0.	122.18
526	8.4956e-011	7.5	0.	121.58
527	0.5	7.5	0.	122.01
528	1.	7.5	0.	123.17
529	1.5	7.5	0.	124.48
530	2.	7.5	0.	125.47
531	2.5	7.5	0.	126.01
532	3.	7.5	0.	126.34
533	4.5	-0.5	0.	119.64
534	6.5	5.5	0.	125.55
535	6.	6.	0.	124.01
536	-7.	1.5	0.	122.93
537	-4.	-5.	0.	128.91
538	-4.	-4.5	0.	130.45
539	5.5	4.5	0.	119.12
540	-4.5	-5.5	0.	126.95
541	-3.	-7.5	0.	127.61
542	-4.	-7.5	0.	127.21
543	-4.5	-7.5	0.	127.07
544	-6.5	2.	0.	122.68
545	-3.5	-2.5301e-011	0.	130.37
546	-3.5	-1.5	0.	128.8
547	-5.5	0.5	0.	119.49
548	-4.	0.5	0.	129.33
549	-6.5	0.5	0.	118.8
550	-7.	1.	0.	122.14
551	-3.5	-2.5	0.	129.25
552	3.	-2.5	0.	127.82
553	3.5	-2.	0.	127.79
554	4.	-1.5	0.	124.88
555	4.	-1.	0.	123.98
556	5.6927e-011	2.	0.	116.29
557	5.0533e-011	1.5	0.	119.9
558	-0.5	1.	0.	123.57
559	-0.5	-2.	0.	126.65
560	-0.5	-0.5	0.	124.89
561	1.5	-2.5	0.	122.31
562	1.4227e-010	-2.5	0.	125.96
563	-2.5	2.	0.	130.58
564	-2.5	3.5	0.	128.1
565	-0.5	1.5	0.	121.59
566	-2.	1.5	0.	130.02
567	3.	2.	0.	132.66
568	2.5	2.	0.	130.38
569	2.5	6.	0.	129.63
570	2.5	4.5	0.	130.16
571	0.5	6.5	0.	119.93
572	2.	6.5	0.	128.33
573	-1.5	7.5	0.	125.41
574	-1.	7.	0.	123.63
575	-2.5	4.5	0.	127.52
576	-3.	5.	0.	125.87
577	-3.5	5.5	0.	123.71
578	5.5	6.5	0.	122.78
579	4.	6.5	0.	126.47
580	-6.5	7.5	0.	121.67
581	-5.	3.5	0.	124.95
582	-6.5	3.5	0.	120.58
583	-4.5	4.	0.	125.88
584	-4.	4.5	0.	125.18
585	-4.	5.	0.	124.75
586	7.	-0.5	0.	126.7
587	5.5	-0.5	0.	118.43
588	3.	4.5	0.	128.95
589	4.5	4.5	0.	119.24
590	2.5	4.	0.	130.53
591	1.5	-6.	0.	127.26
592	7.5	-7.5	0.	124.57
593	7.	-7.5	0.	123.35
594	6.5	-7.5	0.	122.28
595	6.	-7.5	0.	121.85
596	5.5	-7.5	0.	122.25
597	5.	-7.5	0.	123.3
598	4.5	-7.5	0.	124.52
599	3.5	-7.5	0.	126.17
600	3.	-7.5	0.	126.5
601	2.5	-7.5	0.	126.67
602	2.	-7.5	0.	126.83
603	1.5	-7.5	0.	127.26
604	1.	-5.5	0.	125.85
605	-2.	-5.5	0.	127.9
606	-0.5	-5.5	0.	120.81
607	-2.5	-7.5	0.	128.04
608	-2.5	-6.	0.	129.05
609	4.	-2.5	0.	127.08
610	5.5	-2.5	0.	119.53
611	3.5	-3.	0.	127.8
612	3.5	-6.	0.	127.73
613	5.5	-6.5	0.	120.54
614	4.	-6.5	0.	127.16
615	6.5	-6.5	0.	120.66
616	7.	-7.	0.	123.31
617	7.5	-7.	0.	125.1
618	6.5	-2.5	0.	120.33
619	7.	2.	0.	129.55
620	7.5	2.	0.	126.27
621	7.5	1.5	0.	126.69
622	7.5	1.1448e-011	0.	128.14
623	7.5	-1.	0.	126.52
624	7.5	-1.5	0.	125.98
625	7.5	-2.	0.	125.94
626	7.5	-2.5	0.	126.57
627	7.	-2.5	0.	123.58
628	7.	-6.5	0.	123.49
629	7.5	-6.5	0.	126.11
630	4.5	-6.5	0.	125.88
631	5.	-6.5	0.	123.28
632	3.5	-5.5	0.	127.37
633	3.5	-4.	0.	126.08
634	4.5	-2.5	0.	125.16
635	-2.5	-7.	0.	128.44
636	-1.5	-5.5	0.	125.7
637	-3.4742e-011	-5.5	0.	121.92
638	1.5	-6.5	0.	127.74
639	4.	4.5	0.	123.03
640	3.5	4.5	0.	126.71
641	7.5	0.5	0.	128.28
642	7.5	1.	0.	127.53
643	6.5	-0.5	0.	124.76
644	-4.5	4.5	0.	126.08
645	-4.5	5.	0.	125.88
646	-6.	3.5	0.	121.41
647	-5.5	3.5	0.	123.53
648	-7.5	7.5	0.	124.32
649	5.	6.5	0.	123.1
650	-3.	5.5	0.	125.79
651	-2.5	5.5	0.	129.21
652	-2.5	5.	0.	128.14
653	-1.5	7.	0.	126.31
654	-1.	6.5	0.	124.1
655	-1.5	6.5	0.	128.16
656	1.	6.5	0.	123.4
657	2.5	5.	0.	130.1
658	2.5	5.5	0.	130.2
659	2.5	3.	0.	130.88
660	1.5	1.5	0.	123.8
661	-1.	1.5	0.	125.06
662	-2.5	2.5	0.	130.27
663	1.	-2.5	0.	123.07
664	-0.5	-1.5	0.	126.54
665	-0.5	-1.5582e-010	0.	124.7
666	0.5	1.5	0.	120.28
667	3.5	-1.5	0.	127.43
668	3.5	-1.	0.	126.93
669	2.	-2.5	0.	123.94
670	2.5	-2.5	0.	126.42
671	-3.5	-3.	0.	130.26
672	-4.5	0.5	0.	127.19
673	-5.	0.5	0.	123.43
674	-3.5	-0.5	0.	130.25
675	-6.5	2.5	0.	122.75
676	-6.5	3.	0.	121.8
677	-4.5	-7.	0.	127.92
678	-4.5	-6.5	0.	128.44
679	-4.5	-6.	0.	127.67
680	6.5	-6.	0.	119.36
681	5.5	-3.	0.	118.6
682	1.	-7.5	0.	128.07
683	4.5	4.	0.	117.43
684	5.5	1.298e-011	0.	117.05
685	2.	1.5	0.	126.93
686	2.5	1.5	0.	130.26
687	3.	1.5	0.	132.77
688	-0.5	6.	0.	118.61
689	2.	4.5	0.	131.37
690	6.	4.5	0.	122.95
691	6.5	4.5	0.	127.09
692	7.	4.5	0.	130.22
693	-6.5	-6.3541e-013	0.	116.8
694	-4.	-1.5	0.	130.24
695	-4.5	-5.	0.	127.5
696	-4.5	-4.5	0.	129.2
697	-7.5	1.5	0.	123.43
698	6.5	6.	0.	126.04
699	4.	-0.5	0.	123.72
700	3.5	-0.5	0.	127.56
701	3.5	7.5	0.	126.9
702	-4.	5.5	0.	124.35
703	-4.5	5.5	0.	126.28
704	-6.	7.5	0.	123.3
705	-5.5	7.5	0.	126.03
706	7.5	-8.	0.	124.33
707	7.	-8.	0.	123.45
708	6.5	-8.	0.	122.76
709	6.	-8.	0.	122.49
710	5.5	-8.	0.	122.76
711	5.	-8.	0.	123.47
712	4.5	-8.	0.	124.37
713	4.	-8.	0.	125.21
714	3.5	-8.	0.	125.87
715	3.	-8.	0.	126.31
716	2.5	-8.	0.	126.6
717	2.	-8.	0.	126.83
718	1.5	-8.	0.	127.27
719	1.	-8.	0.	128.6
720	8.	2.	0.	124.14
721	8.	1.5	0.	125.17
722	8.	0.5	0.	127.19
723	8.	7.2637e-012	0.	127.55
724	8.	-0.5	0.	127.45
725	8.	-1.	0.	127.18
726	8.	-1.5	0.	127.07
727	8.	-2.	0.	127.32
728	8.	-2.5	0.	128.06
729	8.	-6.5	0.	127.36
730	8.	-7.	0.	126.27
731	8.	-7.5	0.	125.56
732	8.	-8.	0.	125.13
733	-6.5	4.	0.	118.79
734	-5.	-7.5	0.	126.46
735	-2.	-8.	0.	129.25
736	-2.5	-8.	0.	128.04
737	-3.	-8.	0.	127.67
738	-3.5	-8.	0.	127.47
739	-4.	-8.	0.	127.25
740	-4.5	-8.	0.	126.94
741	-5.	7.5	0.	127.74
742	-8.	7.5	0.	125.36
743	-8.	8.	0.	124.89
744	-7.5	8.	0.	124.15
745	-6.5	8.	0.	123.06
746	-6.	8.	0.	124.07
747	-5.5	8.	0.	125.92
748	6.5	-3.	0.	119.04
749	8.	-3.	0.	129.23
750	8.	-4.5	0.	126.4
751	8.	-6.	0.	128.76
752	5.5	-6.	0.	119.18
753	4.	-6.	0.	128.44
754	4.	-4.5	0.	125.59
755	-2.	-7.5	0.	128.76
756	-2.	-6.	0.	128.92
757	-0.5	-6.	0.	117.55
758	1.	-6.	0.	127.39
759	3.	4.	0.	130.33
760	5.5	4.	0.	117.59
761	7.	1.5	0.	128.89
762	7.	1.2894e-011	0.	128.63
763	4.5	1.0098e-011	0.	118.1
764	-5.	5.5	0.	127.33
765	-5.	4.	0.	126.43
766	-8.	5.5	0.	123.04
767	-8.	7.	0.	126.29
768	-6.5	7.	0.	119.23
769	5.5	7.	0.	121.33
770	4.	7.	0.	127.77
771	-1.5	8.	0.	125.6
772	-1.	8.	0.	124.08
773	-0.5	8.	0.	123.03
774	5.5779e-011	8.	0.	122.59
775	0.5	8.	0.	122.79
776	1.	8.	0.	123.43
777	1.5	8.	0.	124.18
778	2.5	8.	0.	125.04
779	3.	8.	0.	125.19
780	3.5	8.	0.	125.53
781	-3.5	6.	0.	121.53
782	-2.	7.5	0.	126.86
783	-2.	4.5	0.	129.78
784	0.5	6.	0.	118.34
785	2.	6.	0.	130.46
786	2.	3.5	0.	131.23
787	2.	2.	0.	129.04
788	-0.5	2.	0.	119.07
789	-2.	2.	0.	131.41
790	7.	2.5	0.	129.91
791	7.5	2.5	0.	126.72
792	8.	2.5	0.	123.31
793	7.	5.5	0.	128.03
794	1.5	-2.	0.	119.95
795	1.3258e-010	-2.	0.	127.19
796	3.5601e-011	-0.5	0.	124.85
797	2.9589e-011	1.	0.	123.25
798	1.5	1.	0.	120.6
799	3.	-0.5	0.	129.37
800	3.	-2.	0.	129.03
801	6.	6.5	0.	124.95
802	6.5	6.5	0.	127.34
803	-4.	-2.5	0.	130.8
804	-4.	-4.	0.	132.26
805	-5.5	-2.6949e-012	0.	117.52
806	-4.	-1.2944e-011	0.	130.83
807	-7.	3.5	0.	122.18
808	-7.	2.	0.	124.18
809	-8.	-2.5	0.	128.2
810	-8.	-2.	0.	128.76
811	-8.	-1.5	0.	128.51
812	-8.	-5.581e-013	0.	128.3
813	-8.	0.5	0.	126.15
814	-8.	1.	0.	124.29
815	-8.	1.5	0.	122.81
816	-5.	-5.5	0.	125.07
817	-6.5	-4.	0.	112.
818	-5.	-5.	0.	125.84
819	-6.	-4.	0.	113.89
820	-5.	-6.	0.	128.05
821	-5.	-7.	0.	129.03
822	-5.	-6.5	0.	130.29
823	-8.	2.	0.	121.72
824	-7.5	2.	0.	124.69
825	-7.	3.	0.	123.86
826	-4.	-1.	0.	131.11
827	-4.	-0.5	0.	131.71
828	-5.	-4.7165e-012	0.	123.77
829	-7.	-3.7843e-013	0.	122.29
830	-7.5	-4.7496e-013	0.	127.17
831	-8.	-3.5	0.	129.27
832	-7.	-4.	0.	115.69
833	-5.	-4.	0.	126.68
834	-4.5	-4.	0.	131.48
835	-4.	-3.	0.	132.18
836	7.	7.	0.	127.49
837	6.	7.	0.	125.85
838	6.5	7.	0.	130.25
839	2.	-2.	0.	123.49
840	2.5	-2.	0.	128.19
841	3.	1.2476e-012	0.	132.86
842	2.5	1.	0.	131.55
843	2.	1.	0.	125.37
844	0.5	1.	0.	123.43
845	1.8828e-011	0.5	0.	125.38
846	2.1956e-011	-1.1691e-010	0.	125.51
847	6.2904e-011	-1.	0.	126.75
848	1.0057e-010	-1.5	0.	127.84
849	0.5	-2.	0.	126.41
850	1.	-2.	0.	122.41
851	7.	6.5	0.	128.17
852	7.	6.	0.	128.07
853	7.	4.	0.	132.5
854	8.	3.	0.	122.62
855	-2.	2.5	0.	132.08
856	-1.	2.	0.	125.07
857	2.	3.	0.	131.34
858	2.	5.	0.	131.91
859	2.	5.5	0.	131.98
860	1.	6.	0.	124.14
861	-1.	6.	0.	124.81
862	-1.5	6.	0.	130.58
863	-2.	5.5	0.	132.18
864	-2.	5.	0.	130.94
865	-3.	6.	0.	125.32
866	-2.	7.	0.	129.05
867	-5.	7.	0.	130.43
868	-4.5	6.	0.	128.48
869	-4.	6.	0.	124.13
870	4.	8.	0.	126.89
871	4.	7.5	0.	128.28
872	4.5	7.	0.	126.84
873	5.	7.	0.	123.05
874	-5.	6.5	0.	132.04
875	-5.5	7.	0.	127.97
876	-6.	7.	0.	122.84
877	-7.	7.	0.	121.67
878	-7.5	7.	0.	125.62
879	-8.	6.5	0.	126.65
880	-8.	6.	0.	125.22
881	-6.	4.	0.	121.31
882	-5.5	4.	0.	125.51
883	-5.	4.5	0.	127.71
884	-5.	5.	0.	127.65
885	3.	1.	0.	134.52
886	3.	0.5	0.	135.38
887	3.5	2.4351e-012	0.	130.44
888	4.	6.6262e-012	0.	124.53
889	6.	1.2955e-011	0.	122.42
890	6.5	1.3129e-011	0.	127.38
891	7.	0.5	0.	129.92
892	7.	1.	0.	129.61
893	6.5	4.	0.	129.82
894	6.	4.	0.	123.84
895	4.	4.	0.	123.35
896	3.5	4.	0.	128.73
897	3.	3.	0.	131.97
898	1.	-6.5	0.	128.57
899	-3.8354e-011	-6.	0.	120.75
900	-1.5	-6.	0.	126.91
901	-2.	-7.	0.	129.35
902	4.5	-3.	0.	127.34
903	4.	-4.	0.	127.26
904	4.	-5.	0.	127.39
905	4.	-5.5	0.	128.87
906	5.	-6.	0.	123.71
907	7.	-6.	0.	124.02
908	7.5	-6.	0.	128.12
909	8.	-5.5	0.	129.33
910	8.	-5.	0.	128.01
911	8.	-4.	0.	128.22
912	7.	-3.	0.	123.93
913	-5.	8.	0.	128.36
914	7.5	7.	0.	122.68
915	-5.	-8.	0.	126.92
916	-8.	-4.	0.	128.6
917	-8.5	-8.	0.	126.76
918	-8.5	-7.5	0.	127.39
919	-8.5	-4.	0.	132.51
920	-8.5	-3.5	0.	130.63
921	-8.5	-3.	0.	129.12
922	-8.5	-2.5	0.	128.09
923	-8.5	-1.5	0.	127.74
924	-8.5	-1.	0.	128.19
925	-8.5	-0.5	0.	128.55
926	-8.5	-6.1735e-013	0.	127.97
927	-8.5	0.5	0.	126.61
928	-8.5	1.	0.	124.82
929	-8.5	1.5	0.	122.69
930	-8.5	2.	0.	119.65
931	-8.	-8.	0.	125.22
932	-2.	-8.5	0.	129.02
933	-2.5	-8.5	0.	128.57
934	-3.	-8.5	0.	128.22
935	-4.	-8.5	0.	127.69
936	-4.5	-8.5	0.	127.44
937	-5.	-8.5	0.	127.47
938	-8.	-8.5	0.	126.13
939	-8.5	-8.5	0.	126.99
940	8.	7.	0.	120.06
941	8.5	7.	0.	120.27
942	-2.	8.	0.	127.86
943	-8.	8.5	0.	124.77
944	-7.5	8.5	0.	124.35
945	-7.	8.5	0.	123.98
946	-6.5	8.5	0.	124.04
947	-6.	8.5	0.	124.84
948	-5.5	8.5	0.	126.4
949	-5.	8.5	0.	128.76
950	-2.	8.5	0.	128.44
951	-1.5	8.5	0.	126.17
952	-1.	8.5	0.	124.71
953	-0.5	8.5	0.	123.84
954	3.5882e-011	8.5	0.	123.46
955	0.5	8.5	0.	123.51
956	1.	8.5	0.	123.84
957	1.5	8.5	0.	124.23
958	2.	8.5	0.	124.5
959	2.5	8.5	0.	124.56
960	3.	8.5	0.	124.44
961	4.	8.5	0.	124.85
962	-8.5	5.	0.	119.59
963	-8.5	5.5	0.	121.81
964	-8.5	6.	0.	123.6
965	-8.5	6.5	0.	125.11
966	-8.5	7.	0.	125.62
967	-8.5	7.5	0.	125.46
968	-8.5	8.	0.	125.17
969	-8.5	8.5	0.	125.01
970	-8.	5.	0.	123.55
971	-7.	4.	0.	123.08
972	8.	-8.5	0.	124.9
973	7.	-8.5	0.	123.57
974	6.5	-8.5	0.	123.09
975	6.	-8.5	0.	122.92
976	5.5	-8.5	0.	123.12
977	5.	-8.5	0.	123.65
978	4.5	-8.5	0.	124.36
979	4.	-8.5	0.	125.11
980	3.5	-8.5	0.	125.78
981	3.	-8.5	0.	126.35
982	2.5	-8.5	0.	126.81
983	2.	-8.5	0.	127.21
984	1.5	-8.5	0.	127.7
985	1.	-8.5	0.	128.33
986	8.5	3.	0.	118.75
987	8.5	2.5	0.	121.61
988	8.5	2.	0.	123.29
989	8.5	1.5	0.	124.58
990	8.5	1.	0.	125.68
991	8.5	0.5	0.	126.56
992	8.5	4.1099e-012	0.	127.1
993	8.5	-0.5	0.	127.34
994	8.5	-1.	0.	127.43
995	8.5	-1.5	0.	127.56
996	8.5	-2.	0.	127.84
997	8.5	-2.5	0.	128.28
998	8.5	-3.	0.	128.58
999	8.5	-3.5	0.	128.26
1000	8.5	-4.	0.	127.19
1001	8.5	-4.5	0.	126.54
1002	8.5	-5.	0.	126.95
1003	8.5	-5.5	0.	127.83
1004	8.5	-6.	0.	127.97
1005	8.5	-6.5	0.	127.45
1006	8.5	-7.	0.	126.75
1007	8.5	-7.5	0.	126.17
1008	8.5	-8.	0.	125.75
1009	8.5	-8.5	0.	125.49
1010	-8.	-7.5	0.	124.09
1011	-8.5	-7.	0.	129.95
1012	-8.	-7.	0.	126.05
1013	-8.5	-6.5	0.	134.76
1014	7.5	-3.5	0.	131.93
1015	7.5	-5.5	0.	131.8
1016	4.5	-5.5	0.	131.35
1017	4.5	-3.5	0.	131.07
1018	-1.5	-6.5	0.	130.45
1019	0.5	-6.5	0.	129.65
1020	8.	-9.	0.	124.78
1021	7.5	-9.	0.	124.2
1022	7.	-9.	0.	123.67
1023	6.5	-9.	0.	123.31
1024	6.	-9.	0.	123.19
1025	5.5	-9.	0.	123.37
1026	5.	-9.	0.	123.8
1027	4.5	-9.	0.	124.42
1028	4.	-9.	0.	125.13
1029	3.5	-9.	0.	125.85
1030	2.5	-9.	0.	127.25
1031	2.	-9.	0.	127.93
1032	1.5	-9.	0.	128.53
1033	1.	-9.	0.	129.19
1034	3.5	3.5	0.	133.15
1035	6.5	3.5	0.	134.53
1036	6.5	0.5	0.	131.89
1037	3.5	0.5	0.	135.78
1038	-5.5	4.5	0.	129.96
1039	-7.5	6.5	0.	129.22
1040	-5.5	6.5	0.	132.4
1041	4.5	7.5	0.	130.61
1042	-8.5	9.	0.	124.97
1043	-8.	9.	0.	124.85
1044	-7.5	9.	0.	124.67
1045	-7.	9.	0.	124.56
1046	-6.5	9.	0.	124.72
1047	-6.	9.	0.	125.29
1048	-5.5	9.	0.	126.31
1049	-5.	9.	0.	127.64
1050	-2.	9.	0.	127.38
1051	-1.5	9.	0.	126.09
1052	-1.	9.	0.	125.09
1053	-0.5	9.	0.	124.47
1054	2.0416e-011	9.	0.	124.18
1055	0.5	9.	0.	124.16
1056	1.	9.	0.	124.31
1057	1.5	9.	0.	124.52
1058	2.	9.	0.	124.67
1059	2.5	9.	0.	124.68
1060	3.	9.	0.	124.57
1061	3.5	9.	0.	124.55
1062	4.	9.	0.	125.67
1063	-4.5	6.5	0.	133.19
1064	-4.5	8.5	0.	131.75
1065	-2.5	8.5	0.	131.41
1066	-2.5	6.5	0.	133.81
1067	-1.5	5.5	0.	134.35
1068	1.5	5.5	0.	133.86
1069	1.5	2.5	0.	132.03
1070	-1.5	2.5	0.	134.1
1071	-5.5	-8.5	0.	128.03
1072	-7.5	-8.5	0.	126.16
1073	7.5	3.5	0.	133.48
1074	7.5	6.5	0.	128.78
1075	9.	8.5	0.	124.64
1076	9.	8.	0.	125.98
1077	9.	7.5	0.	126.14
1078	9.	7.	0.	124.3
1079	0.5	-1.5	0.	130.05
1080	0.5	0.5	0.	128.19
1081	2.5	0.5	0.	135.47
1082	2.5	-1.5	0.	132.33
1083	6.5	7.5	0.	137.28
1084	8.5	7.5	0.	126.98
1085	-7.5	-3.5	0.	127.94
1086	-7.5	-0.5	0.	131.38
1087	-4.5	-0.5	0.	133.37
1088	-7.5	4.5	0.	134.77
1089	-9.	-8.5	0.	128.23
1090	-9.	-8.	0.	128.41
1091	-9.	-7.	0.	130.92
1092	-9.	-6.5	0.	132.2
1093	-9.	-6.	0.	131.49
1094	-9.	-5.5	0.	130.17
1095	-9.	-5.	0.	132.06
1096	-9.	-4.5	0.	133.4
1097	-9.	-4.	0.	132.68
1098	-9.	-2.5	0.	128.27
1099	-9.	-2.	0.	127.61
1100	-9.	-1.	0.	127.76
1101	-9.	-0.5	0.	128.
1102	-9.	-5.5568e-013	0.	127.84
1103	-9.	0.5	0.	127.19
1104	-9.	1.	0.	126.14
1105	-9.	1.5	0.	124.8
1106	-9.	2.	0.	123.41
1107	9.	9.	0.	125.54
1108	9.	2.5	0.	123.
1109	9.	2.	0.	123.93
1110	9.	0.5	0.	126.25
1111	9.	2.1098e-012	0.	126.82
1112	9.	-0.5	0.	127.22
1113	9.	-1.	0.	127.51
1114	9.	-1.5	0.	127.74
1115	9.	-2.	0.	127.94
1116	9.	-2.5	0.	128.08
1117	9.	-4.	0.	126.85
1118	9.	-4.5	0.	126.41
1119	9.	-5.	0.	126.59
1120	9.	-5.5	0.	127.04
1121	9.	-6.	0.	127.28
1122	9.	-6.5	0.	127.16
1123	9.	-7.	0.	126.85
1124	9.	-7.5	0.	126.5
1125	9.	-8.	0.	126.2
1126	9.	-8.5	0.	125.97
1127	9.	-9.	0.	125.81
1128	-2.	-9.	0.	129.96
1129	-2.5	-9.	0.	129.53
1130	-3.	-9.	0.	129.14
1131	-3.5	-9.	0.	128.67
1132	-4.	-9.	0.	128.18
1133	-4.5	-9.	0.	127.6
1134	-5.	-9.	0.	126.81
1135	-5.5	-9.	0.	124.42
1136	-6.	-9.	0.	118.78
1137	-6.5	-9.	0.	114.94
1138	-7.	-9.	0.	117.75
1139	-7.5	-9.	0.	123.
1140	-8.	-9.	0.	125.59
1141	-8.5	-9.	0.	126.93
1142	-9.	-9.	0.	128.17
1143	-9.	5.	0.	122.34
1144	-9.	5.5	0.	122.9
1145	-9.	6.	0.	123.86
1146	-9.	6.5	0.	124.72
1147	-9.	7.	0.	125.18
1148	-9.	7.5	0.	125.26
1149	-9.	8.	0.	125.17
1150	-9.	8.5	0.	125.07
1151	-9.	9.	0.	125.02
1152	-5.5	-6.5	0.	133.61
1153	-5.5	-4.5	0.	125.22
1154	-5.5	-5.	0.	125.28
1155	-5.5	-6.	0.	128.76
1156	-5.5	-5.5	0.	125.95
1157	-8.	-6.5	0.	128.8
1158	-7.5	-6.5	0.	120.41
1159	-8.5	-6.	0.	133.82
1160	-8.5	-5.5	0.	133.23
1161	-8.	-4.5	0.	128.53
1162	-6.	-4.5	0.	117.77
1163	-6.5	-4.5	0.	110.67
1164	-7.	-4.5	0.	114.65
1165	-7.5	-4.5	0.	117.52
1166	7.5	-4.	0.	130.67
1167	7.5	-5.	0.	130.4
1168	7.5	-4.5	0.	129.87
1169	7.	-5.5	0.	125.66
1170	6.5	-5.5	0.	116.65
1171	6.	-5.5	0.	117.17
1172	5.	-5.5	0.	125.19
1173	5.5	-5.5	0.	116.49
1174	4.5	-5.	0.	129.96
1175	4.5	-4.	0.	129.75
1176	4.5	-4.5	0.	129.23
1177	5.	-3.5	0.	124.91
1178	7.	-3.5	0.	125.37
1179	6.5	-3.5	0.	116.49
1180	6.	-3.5	0.	116.91
1181	5.5	-3.5	0.	116.16
1182	-1.	-6.5	0.	121.57
1183	-2.6253e-011	-6.5	0.	121.3
1184	-0.5	-6.5	0.	109.67
1185	0.5	-7.	0.	129.17
1186	0.5	-7.5	0.	131.58
1187	0.5	-8.	0.	133.03
1188	0.5	-9.	0.	129.02
1189	0.5	-8.5	0.	131.17
1190	-1.5	-9.	0.	129.55
1191	-1.5	-8.5	0.	131.7
1192	-1.5	-7.	0.	129.83
1193	-1.5	-7.5	0.	132.04
1194	-1.5	-8.	0.	133.51
1195	4.	3.5	0.	125.4
1196	4.5	3.5	0.	114.22
1197	5.	3.5	0.	114.06
1198	6.	3.5	0.	126.25
1199	5.5	3.5	0.	114.44
1200	6.5	3.	0.	133.55
1201	6.5	2.5	0.	135.21
1202	6.5	2.	0.	136.08
1203	6.5	1.	0.	131.64
1204	6.5	1.5	0.	133.96
1205	6.	0.5	0.	124.63
1206	5.5	0.5	0.	114.07
1207	5.	0.5	0.	114.38
1208	4.	0.5	0.	127.04
1209	3.5	3.	0.	133.25
1210	3.5	2.5	0.	136.03
1211	3.5	2.	0.	138.28
1212	3.5	1.5	0.	137.19
1213	3.5	1.	0.	135.43
1214	-6.	4.5	0.	123.03
1215	-7.	4.5	0.	125.15
1216	-6.5	4.5	0.	113.25
1217	-7.5	5.	0.	130.03
1218	-7.5	6.	0.	128.68
1219	-7.5	5.5	0.	128.68
1220	-7.	6.5	0.	122.54
1221	-6.	6.5	0.	124.18
1222	-6.5	6.5	0.	112.99
1223	-5.5	5.	0.	130.21
1224	-5.5	5.5	0.	130.91
1225	-5.5	6.	0.	131.56
1226	4.5	8.	0.	129.92
1227	4.5	9.	0.	129.
1228	4.5	8.5	0.	129.3
1229	5.	7.5	0.	123.88
1230	5.5	7.5	0.	115.
1231	6.	7.5	0.	127.72
1232	-4.5	7.	0.	132.54
1233	-4.5	8.	0.	131.46
1234	-4.5	7.5	0.	131.85
1235	-4.	8.5	0.	125.09
1236	-3.	8.5	0.	124.74
1237	-3.5	8.5	0.	114.68
1238	-2.5	8.	0.	131.11
1239	-2.5	7.	0.	132.02
1240	-2.5	7.5	0.	131.29
1241	-3.	6.5	0.	126.24
1242	-3.5	6.5	0.	115.1
1243	-1.	5.5	0.	126.69
1244	-0.5	5.5	0.	115.18
1245	6.2088e-011	5.5	0.	114.88
1246	1.	5.5	0.	126.3
1247	0.5	5.5	0.	115.02
1248	1.5	5.	0.	133.38
1249	1.5	4.5	0.	135.66
1250	1.5	4.	0.	137.13
1251	1.5	3.	0.	132.24
1252	1.5	3.5	0.	135.17
1253	1.	2.5	0.	124.86
1254	0.5	2.5	0.	114.23
1255	3.4752e-011	2.5	0.	114.56
1256	-1.	2.5	0.	126.55
1257	-0.5	2.5	0.	115.1
1258	-1.5	3.	0.	133.02
1259	-1.5	5.	0.	133.07
1260	-1.5	4.5	0.	134.96
1261	-1.5	4.	0.	136.42
1262	-1.5	3.5	0.	134.93
1263	-5.5	-7.	0.	130.28
1264	-5.5	-8.	0.	127.29
1265	-5.5	-7.5	0.	128.07
1266	-6.	-8.5	0.	119.77
1267	-7.	-8.5	0.	118.07
1268	-6.5	-8.5	0.	108.19
1269	-7.5	-8.	0.	124.9
1270	-7.5	-7.	0.	122.75
1271	-7.5	-7.5	0.	124.
1272	-7.	-6.5	0.	114.29
1273	-6.	-6.5	0.	119.31
1274	-6.5	-6.5	0.	103.82
1275	9.	3.5	0.	123.22
1276	8.	3.5	0.	123.76
1277	8.5	3.5	0.	111.54
1278	7.5	4.	0.	133.07
1279	7.5	4.5	0.	134.68
1280	7.5	5.	0.	135.44
1281	7.5	6.	0.	129.46
1282	7.5	5.5	0.	132.86
1283	8.	6.5	0.	121.64
1284	9.	6.5	0.	123.91
1285	8.5	6.5	0.	111.45
1286	0.5	-1.	0.	129.33
1287	0.5	-6.3395e-011	0.	127.94
1288	0.5	-0.5	0.	128.88
1289	1.	0.5	0.	123.19
1290	2.	0.5	0.	125.61
1291	1.5	0.5	0.	113.92
1292	2.5	5.5127e-013	0.	134.39
1293	2.5	-1.	0.	132.06
1294	2.5	-0.5	0.	132.66
1295	1.	-1.5	0.	123.19
1296	1.5	-1.5	0.	113.59
1297	2.	-1.5	0.	124.77
1298	6.5	8.	0.	135.
1299	6.5	9.	0.	133.45
1300	6.5	8.5	0.	135.71
1301	8.5	9.	0.	128.7
1302	8.5	8.	0.	128.05
1303	8.5	8.5	0.	128.59
1304	8.	7.5	0.	121.81
1305	7.	7.5	0.	127.7
1306	7.5	7.5	0.	114.62
1307	-5.	-3.5	0.	127.07
1308	-5.5	-3.5	0.	114.76
1309	-6.	-3.5	0.	112.39
1310	-7.	-3.5	0.	119.57
1311	-6.5	-3.5	0.	110.13
1312	-7.5	-3.	0.	128.59
1313	-7.5	-2.5	0.	131.51
1314	-7.5	-2.	0.	133.69
1315	-7.5	-1.	0.	130.56
1316	-7.5	-1.5	0.	132.61
1317	-7.	-0.5	0.	124.15
1318	-6.5	-0.5	0.	113.15
1319	-6.	-0.5	0.	113.26
1320	-5.	-0.5	0.	125.61
1321	-5.5	-0.5	0.	113.85
1322	-4.5	-1.	0.	132.46
1323	-4.5	-3.	0.	133.8
1324	-4.5	-2.5	0.	135.04
1325	-4.5	-2.	0.	136.38
1326	-4.5	-1.5	0.	134.73
1327	-9.	4.5	0.	124.1
1328	-8.	4.5	0.	125.39
1329	-8.5	4.5	0.	113.91
1330	-7.5	4.	0.	130.02
1331	-7.5	3.	0.	127.76
1332	-7.5	3.5	0.	128.38
1333	-8.	2.5	0.	122.79
1334	-9.	2.5	0.	124.04
1335	-8.5	2.5	0.	113.22
1336	9.5	9.	0.	124.23
1337	9.5	8.5	0.	124.5
1338	9.5	8.	0.	125.7
1339	9.5	7.5	0.	127.43
1340	9.5	7.	0.	129.4
1341	9.5	6.5	0.	133.42
1342	9.5	6.	0.	134.07
1343	9.5	5.5	0.	136.66
1344	9.5	5.	0.	138.12
1345	9.5	4.5	0.	136.27
1346	9.5	4.	0.	132.81
1347	9.5	3.5	0.	131.81
1348	9.5	3.	0.	127.45
1349	9.5	2.5	0.	125.75
1350	9.5	2.	0.	125.18
1351	9.5	1.5	0.	125.12
1352	9.5	1.	0.	125.45
1353	9.5	0.5	0.	126.01
1354	9.5	9.3676e-013	0.	126.64
1355	9.5	-0.5	0.	127.22
1356	9.5	-1.	0.	127.68
1357	9.5	-1.5	0.	127.98
1358	9.5	-2.	0.	128.1
1359	9.5	-2.5	0.	127.99
1360	9.5	-3.	0.	127.64
1361	9.5	-3.5	0.	127.09
1362	9.5	-4.	0.	126.5
1363	9.5	-4.5	0.	126.15
1364	9.5	-5.	0.	126.18
1365	9.5	-5.5	0.	126.46
1366	9.5	-6.	0.	126.76
1367	9.5	-6.5	0.	126.91
1368	9.5	-7.	0.	126.89
1369	9.5	-7.5	0.	126.75
1370	9.5	-8.	0.	126.55
1371	9.5	-8.5	0.	126.36
1372	9.5	-9.	0.	126.2
1373	9.5	-9.5	0.	126.09
1374	9.	-9.5	0.	125.72
1375	8.5	-9.5	0.	125.25
1376	8.	-9.5	0.	124.72
1377	7.5	-9.5	0.	124.19
1378	7.	-9.5	0.	123.74
1379	6.5	-9.5	0.	123.43
1380	6.	-9.5	0.	123.35
1381	5.5	-9.5	0.	123.51
1382	5.	-9.5	0.	123.91
1383	4.5	-9.5	0.	124.48
1384	4.	-9.5	0.	125.19
1385	3.5	-9.5	0.	125.96
1386	3.	-9.5	0.	126.8
1387	2.5	-9.5	0.	127.69
1388	2.	-9.5	0.	128.63
1389	1.5	-9.5	0.	129.54
1390	1.	-9.5	0.	130.09
1391	0.5	-9.5	0.	129.44
1392	4.9822e-013	-9.5	0.	118.53
1393	-0.5	-9.5	0.	106.47
1394	-1.	-9.5	0.	118.87
1395	-1.5	-9.5	0.	130.05
1396	-2.	-9.5	0.	130.95
1397	-2.5	-9.5	0.	130.65
1398	-3.	-9.5	0.	129.99
1399	-3.5	-9.5	0.	129.26
1400	-4.	-9.5	0.	128.48
1401	-4.5	-9.5	0.	127.46
1402	-5.	-9.5	0.	125.81
1403	-5.5	-9.5	0.	122.94
1404	-6.	-9.5	0.	119.37
1405	-6.5	-9.5	0.	117.33
1406	-7.	-9.5	0.	118.62
1407	-7.5	-9.5	0.	121.79
1408	-8.	-9.5	0.	124.66
1409	-8.5	-9.5	0.	126.62
1410	-9.	-9.5	0.	128.06
1411	-9.5	-9.5	0.	129.25
1412	-9.5	-9.	0.	129.29
1413	-9.5	-8.5	0.	129.37
1414	-9.5	-8.	0.	129.56
1415	-9.5	-7.5	0.	129.97
1416	-9.5	-7.	0.	130.47
1417	-9.5	-6.5	0.	130.63
1418	-9.5	-6.	0.	130.23
1419	-9.5	-5.5	0.	130.18
1420	-9.5	-5.	0.	130.86
1421	-9.5	-4.5	0.	131.7
1422	-9.5	-4.	0.	131.66
1423	-9.5	-3.5	0.	130.79
1424	-9.5	-3.	0.	129.54
1425	-9.5	-2.5	0.	128.34
1426	-9.5	-2.	0.	127.52
1427	-9.5	-1.5	0.	127.22
1428	-9.5	-1.	0.	127.35
1429	-9.5	-0.5	0.	127.67
1430	-9.5	-3.3221e-013	0.	127.96
1431	-9.5	0.5	0.	128.1
1432	-9.5	1.	0.	128.16
1433	-9.5	1.5	0.	128.26
1434	-9.5	2.	0.	129.05
1435	-9.5	2.5	0.	132.36
1436	-9.5	3.	0.	132.59
1437	-9.5	3.5	0.	132.64
1438	-9.5	4.	0.	131.55
1439	-9.5	4.5	0.	130.84
1440	-9.5	5.	0.	126.73
1441	-9.5	5.5	0.	125.25
1442	-9.5	6.	0.	124.85
1443	-9.5	6.5	0.	124.84
1444	-9.5	7.	0.	124.95
1445	-9.5	7.5	0.	125.03
1446	-9.5	8.	0.	125.05
1447	-9.5	8.5	0.	125.05
1448	-9.5	9.	0.	125.03
1449	-9.5	9.5	0.	125.01
1450	-9.	9.5	0.	124.99
1451	-8.5	9.5	0.	124.98
1452	-8.	9.5	0.	124.95
1453	-7.5	9.5	0.	124.94
1454	-7.	9.5	0.	124.99
1455	-6.5	9.5	0.	125.17
1456	-6.	9.5	0.	125.48
1457	-5.5	9.5	0.	125.87
1458	-5.	9.5	0.	126.12
1459	-4.5	9.5	0.	125.66
1460	-4.	9.5	0.	124.43
1461	-3.5	9.5	0.	123.62
1462	-3.	9.5	0.	124.31
1463	-2.5	9.5	0.	125.46
1464	-2.	9.5	0.	125.88
1465	-1.5	9.5	0.	125.62
1466	-1.	9.5	0.	125.21
1467	-0.5	9.5	0.	124.88
1468	8.7067e-012	9.5	0.	124.67
1469	0.5	9.5	0.	124.62
1470	1.	9.5	0.	124.69
1471	1.5	9.5	0.	124.86
1472	2.	9.5	0.	125.07
1473	2.5	9.5	0.	125.27
1474	3.	9.5	0.	125.47
1475	3.5	9.5	0.	125.72
1476	4.	9.5	0.	126.5
1477	4.5	9.5	0.	129.39
1478	5.	9.5	0.	125.95
1479	5.5	9.5	0.	117.51
1480	6.	9.5	0.	126.66
1481	6.5	9.5	0.	132.68
1482	7.	9.5	0.	126.68
1483	7.5	9.5	0.	117.05
1484	8.	9.5	0.	125.13
1485	8.5	9.5	0.	128.66
1486	9.	9.5	0.	125.83
1487	9.5	9.5	0.	124.81
1488	2.	2.5	0.	130.84
1489	-7.5	-4.	0.	122.37
1490	-0.5	-2.5	0.	126.18
1491	1.	1.5	0.	121.75
1492	0.5	-2.5	0.	124.87
1493	5.	-1.5	0.	120.54
1494	-2.	6.5	0.	131.31
1495	9.	3.	0.	122.03
1496	-2.	3.5	0.	129.99
1497	1.5	2.	0.	127.08
1498	-2.5	3.	0.	129.16
1499	1.5	-7.	0.	127.51
1500	3.5	-4.5	0.	125.58
1501	6.	-0.5	0.	121.53
1502	0.5	-5.5	0.	124.29
1503	-3.	-1.5	0.	127.78
1504	0.5	-3.5	0.	124.07
1505	8.	1.	0.	126.3
1506	-7.	2.5	0.	124.85
1507	3.	-4.	0.	125.57
1508	3.	-1.5	0.	129.9
1509	-4.	-6.5	0.	127.98
1510	-3.	-3.5	0.	129.65
1511	1.5	6.5	0.	126.67
1512	-7.	7.5	0.	122.48
1513	2.	8.	0.	124.75
1514	4.5	-6.	0.	127.76
1515	0.5	2.	0.	117.88
1516	3.	-5.	0.	125.88
1517	-8.5	-4.5	0.	135.9
1518	-3.5	-1.	0.	129.45
1519	6.	-3.	0.	117.03
1520	1.2876e-010	6.5	0.	118.54
1521	-1.	-4.	0.	125.12
1522	-3.5	-4.	0.	131.18
1523	3.	-9.	0.	126.56
1524	-2.	-1.	0.	126.69
1525	0.5	-4.	0.	123.92
1526	-4.	9.	0.	123.99
1527	-3.	9.	0.	123.8
1528	-4.	6.5	0.	125.55
1529	-4.	-3.5	0.	133.13
1530	-3.	-6.5	0.	128.48
1531	-5.	6.	0.	130.22
1532	2.5	-5.	0.	125.73
1533	2.	-7.	0.	127.11
1534	-3.5	2.5	0.	127.57
1535	0.5	-6.	0.	125.85
1536	-7.5	0.5	0.	124.77
1537	8.5	-9.	0.	125.33
1538	1.5	6.	0.	129.31
1539	-5.5	-4.	0.	119.95
1540	1.5	-4.	0.	124.24
1541	3.5	8.5	0.	124.51
1542	-7.	0.5	0.	121.93
1543	-2.	-3.5	0.	127.29
1544	-3.	3.	0.	127.82
1545	9.	-3.5	0.	127.54
1546	3.5	-7.	0.	126.7
1547	5.	-2.5	0.	122.24
1548	-3.5	-8.5	0.	127.97
1549	-9.	-3.5	0.	131.02
1550	7.5	3.	0.	128.81
1551	-4.5	-7.9867e-012	0.	129.34
1552	1.	1.	0.	121.43
1553	4.	-3.5	0.	128.71
1554	-4.	3.	0.	125.98
1555	-8.	-1.	0.	129.36
1556	3.	2.5	0.	131.81
1557	-3.5	-6.5	0.	128.11
1558	-2.	-6.5	0.	129.69
1559	3.	3.5	0.	131.7
1560	-3.5	3.	0.	126.8
1561	1.5	7.	0.	125.25
1562	3.	-3.	0.	126.98
1563	8.	-3.5	0.	129.68
1564	4.	-3.	0.	128.32
1565	-0.5	0.5	0.	124.63
1566	-1.	-5.5	0.	122.62
1567	-2.	3.	0.	131.2
1568	0.5	-5.	0.	123.89
1569	4.5	6.	0.	123.63
1570	-1.	-6.	0.	121.25
1571	-8.5	-5.	0.	134.34
1572	1.	-7.	0.	128.5
1573	-9.	-1.5	0.	127.49
1574	1.5	-3.5	0.	123.87
1575	-7.5	2.5	0.	128.31
1576	7.5	-8.5	0.	124.23
1577	7.5	-0.5	0.	127.36
1578	-2.5	-1.	0.	127.47
1579	1.	2.	0.	122.54
1580	-0.5	6.5	0.	120.21
1581	-2.5	-6.5	0.	128.99
1582	-3.5	-3.5	0.	131.2
1583	7.	3.	0.	132.15
1584	-1.	0.5	0.	125.4
1585	-3.	3.5	0.	126.81
1586	-4.5	-3.5	0.	135.16
1587	3.	-4.5	0.	125.36
1588	-8.	-0.5	0.	129.68
1589	0.5	-3.	0.	124.34
1590	-0.5	-1.	0.	125.65
1591	9.	-3.	0.	127.99
1592	-2.5	6.	0.	130.69
1593	-1.5	2.	0.	130.29
1594	-3.	2.5	0.	128.82
1595	-1.	-4.5	0.	124.52
1596	-1.5	-3.5	0.	126.35
1597	-1.	-5.	0.	123.7
1598	9.	1.5	0.	124.77
1599	3.	-1.	0.	129.51
1600	-9.	-3.	0.	129.48
1601	-8.	-3.	0.	128.85
1602	-9.	-7.5	0.	129.2
1603	4.5	0.5	0.	115.08
1604	-3.	-1.	0.	128.37
1605	3.	-3.5	0.	126.24
1606	-7.	8.	0.	123.26
1607	-1.5	1.5	0.	128.33
1608	-3.5	9.	0.	121.2
1609	5.	-3.	0.	123.12
1610	7.	3.5	0.	133.77
1611	-2.5	9.	0.	127.34
1612	-4.5	9.	0.	127.61
1613	9.	1.	0.	125.55
1614	-5.	-4.5	0.	126.91
1615	7.5	-3.	0.	128.32
1616	-8.5	-2.	0.	127.63
1617	4.5	6.5	0.	124.92
1618	2.5	3.5	0.	130.92
1619	-2.	6.	0.	132.36
1620	-2.5	-3.5	0.	128.38
1621	-1.5	-4.5	0.	125.9
1622	-3.	1.	0.	129.8
1623	3.5	-3.5	0.	127.21
1624	2.5	2.5	0.	130.79
1625	3.5	-5.	0.	126.23
1626	3.	5.	0.	128.46
1627	-7.5	1.	0.	123.64
1628	5.	-2.	0.	121.45
1629	-3.5	-7.5	0.	127.4
1630	-3.5	4.5	0.	125.08
1631	4.5	5.5	0.	122.31
1632	4.	-7.5	0.	125.53
1633	-3.	-5.	0.	129.32
1634	-5.5	2.	0.	122.55
1635	5.0065e-011	-4.	0.	124.01
1636	-7.	5.75	0.	137.77
1637	-6.75	6.	0.	121.82
1638	-7.25	6.	0.	130.38
1639	-7.	6.25	0.	127.64
1640	-7.	5.25	0.	138.97
1641	-6.75	5.	0.	123.21
1642	-7.	4.75	0.	130.14
1643	-7.25	5.	0.	132.37
1644	-6.25	6.	0.	122.71
1645	-6.	5.75	0.	138.94
1646	-6.	6.25	0.	129.39
1647	-5.75	6.	0.	132.77
1648	-6.25	5.	0.	122.53
1649	-6.	5.25	0.	138.53
1650	-6.	4.75	0.	128.41
1651	-5.75	5.	0.	131.64
1652	-7.	-7.25	0.	128.87
1653	-6.75	-7.	0.	113.49
1654	-7.25	-7.	0.	122.7
1655	-7.	-6.75	0.	118.94
1656	-7.	-7.75	0.	130.55
1657	-6.75	-8.	0.	116.06
1658	-7.	-8.25	0.	122.52
1659	-7.25	-8.	0.	125.69
1660	-6.25	-7.	0.	115.64
1661	-6.	-7.25	0.	133.05
1662	-5.75	-7.	0.	128.86
1663	-6.	-6.75	0.	123.57
1664	-6.25	-8.	0.	117.48
1665	-6.	-7.75	0.	133.89
1666	-5.75	-8.	0.	128.24
1667	-6.	-8.25	0.	124.8
1668	4.	2.75	0.	140.39
1669	4.25	3.	0.	124.36
1670	4.	3.25	0.	130.54
1671	3.75	3.	0.	134.08
1672	4.	1.25	0.	141.89
1673	4.25	1.	0.	125.72
1674	4.	0.75	0.	132.24
1675	3.75	1.	0.	136.07
1676	5.75	3.	0.	124.82
1677	6.	2.75	0.	140.63
1678	6.	3.25	0.	131.38
1679	6.25	3.	0.	134.69
1680	5.75	1.	0.	123.8
1681	6.	1.25	0.	139.21
1682	6.25	1.	0.	132.76
1683	6.	0.75	0.	129.64
1684	5.	8.75	0.	139.47
1685	5.25	9.	0.	124.22
1686	4.75	9.	0.	131.94
1687	5.	9.25	0.	130.75
1688	5.	8.25	0.	138.59
1689	5.25	8.	0.	122.87
1690	4.75	8.	0.	131.47
1691	5.	7.75	0.	128.77
1692	5.75	9.	0.	124.65
1693	6.	8.75	0.	139.73
1694	6.25	9.	0.	134.63
1695	6.	9.25	0.	131.55
1696	5.75	8.	0.	124.58
1697	6.	8.25	0.	140.15
1698	6.	7.75	0.	132.45
1699	6.25	8.	0.	135.85
1700	-7.	-1.25	0.	137.63
1701	-6.75	-1.	0.	122.57
1702	-7.25	-1.	0.	131.81
1703	-7.	-0.75	0.	128.95
1704	-7.	-2.75	0.	135.32
1705	-6.75	-3.	0.	119.93
1706	-7.	-3.25	0.	125.04
1707	-7.25	-3.	0.	129.12
1708	-5.25	-1.	0.	123.79
1709	-5.	-1.25	0.	139.52
1710	-5.	-0.75	0.	130.51
1711	-4.75	-1.	0.	133.58
1712	-5.25	-3.	0.	124.3
1713	-5.	-2.75	0.	139.89
1714	-5.	-3.25	0.	131.4
1715	-4.75	-3.	0.	134.46
1716	-4.	7.75	0.	140.21
1717	-3.75	8.	0.	124.03
1718	-4.25	8.	0.	133.14
1719	-4.	8.25	0.	130.31
1720	-4.	7.25	0.	140.46
1721	-3.75	7.	0.	124.46
1722	-4.25	7.	0.	133.97
1723	-4.	6.75	0.	130.78
1724	-3.25	8.	0.	123.78
1725	-3.	7.75	0.	139.83
1726	-3.	8.25	0.	129.87
1727	-2.75	8.	0.	132.71
1728	-3.25	7.	0.	124.6
1729	-3.	7.25	0.	140.47
1730	-2.75	7.	0.	133.87
1731	-3.	6.75	0.	131.27
1732	1.	-0.25	0.	137.74
1733	1.25	0.	0.	122.63
1734	0.75	-3.1697e-011	0.	130.51
1735	1.	0.25	0.	128.51
1736	1.	-0.75	0.	137.4
1737	1.25	-1.	0.	122.2
1738	0.75	-1.	0.	130.83
1739	1.	-1.25	0.	128.08
1740	1.75	0.	0.	123.6
1741	2.	-0.25	0.	140.42
1742	2.	0.25	0.	130.55
1743	2.25	2.7564e-013	0.	134.68
1744	1.75	-1.	0.	123.48
1745	2.	-0.75	0.	140.36
1746	2.25	-1.	0.	133.42
1747	2.	-1.25	0.	130.13
1748	-9.	3.75	0.	140.29
1749	-8.75	4.	0.	123.82
1750	-9.	4.25	0.	129.78
1751	-9.25	4.	0.	133.13
1752	-9.	3.25	0.	139.98
1753	-8.75	3.	0.	123.08
1754	-9.	2.75	0.	129.39
1755	-9.25	3.	0.	133.33
1756	-8.25	4.	0.	123.68
1757	-8.	3.75	0.	138.98
1758	-8.	4.25	0.	130.29
1759	-7.75	4.	0.	132.39
1760	-8.25	3.	0.	122.3
1761	-8.	3.25	0.	137.98
1762	-7.75	3.	0.	130.17
1763	-8.	2.75	0.	128.04
1764	8.	5.75	0.	137.01
1765	8.25	6.	0.	120.18
1766	7.75	6.	0.	130.55
1767	8.	6.25	0.	127.03
1768	8.	4.25	0.	138.67
1769	8.25	4.	0.	121.37
1770	8.	3.75	0.	129.
1771	7.75	4.	0.	133.35
1772	8.75	6.	0.	120.95
1773	9.	5.75	0.	138.97
1774	9.	6.25	0.	128.92
1775	9.25	6.	0.	133.65
1776	8.75	4.	0.	121.37
1777	9.	4.25	0.	139.15
1778	9.	3.75	0.	128.74
1779	9.25	4.	0.	133.15
1780	5.	-4.25	0.	138.38
1781	5.25	-4.	0.	124.87
1782	4.75	-4.	0.	131.7
1783	5.	-3.75	0.	129.6
1784	5.	-4.75	0.	138.42
1785	5.25	-5.	0.	125.03
1786	5.	-5.25	0.	129.77
1787	4.75	-5.	0.	131.85
1788	6.75	-4.	0.	125.22
1789	7.	-4.25	0.	138.82
1790	7.25	-4.	0.	132.31
1791	7.	-3.75	0.	129.97
1792	6.75	-5.	0.	125.41
1793	7.	-4.75	0.	139.02
1794	7.25	-5.	0.	132.39
1795	7.	-5.25	0.	130.33
1796	-1.	4.75	0.	140.46
1797	-0.75	5.	0.	124.98
1798	-1.	5.25	0.	131.53
1799	-1.25	5.	0.	134.37
1800	-1.	3.25	0.	140.3
1801	-0.75	3.	0.	124.75
1802	-1.	2.75	0.	131.34
1803	-1.25	3.	0.	134.23
1804	0.75	5.	0.	124.93
1805	1.	4.75	0.	140.59
1806	1.	5.25	0.	131.32
1807	1.25	5.	0.	134.49
1808	0.75	3.	0.	123.88
1809	1.	3.25	0.	139.59
1810	1.25	3.	0.	133.29
1811	1.	2.75	0.	130.01
1812	-8.	-5.25	0.	141.37
1813	-7.75	-5.	0.	126.67
1814	-8.	-4.75	0.	132.8
1815	-8.25	-5.	0.	135.41
1816	-8.	-5.75	0.	141.87
1817	-7.75	-6.	0.	127.54
1818	-8.	-6.25	0.	133.48
1819	-8.25	-6.	0.	135.68
1820	-6.25	-5.	0.	119.08
1821	-6.	-5.25	0.	132.42
1822	-5.75	-5.	0.	126.32
1823	-6.	-4.75	0.	122.94
1824	-6.25	-6.	0.	117.84
1825	-6.	-5.75	0.	132.18
1826	-5.75	-6.	0.	127.89
1827	-6.	-6.25	0.	123.33
1828	7.	8.75	0.	139.78
1829	7.25	9.	0.	124.6
1830	6.75	9.	0.	134.82
1831	7.	9.25	0.	131.75
1832	7.	8.25	0.	139.65
1833	7.25	8.	0.	123.82
1834	6.75	8.	0.	135.44
1835	7.	7.75	0.	132.02
1836	7.75	9.	0.	123.59
1837	8.	8.75	0.	138.59
1838	8.25	9.	0.	131.39
1839	8.	9.25	0.	129.92
1840	7.75	8.	0.	121.85
1841	8.	8.25	0.	137.44
1842	8.25	8.	0.	129.81
1843	8.	7.75	0.	127.09
1844	-1.	-7.25	0.	135.32
1845	-0.75	-7.	0.	118.48
1846	-1.	-6.75	0.	126.38
1847	-1.25	-7.	0.	130.2
1848	-1.	-8.75	0.	134.05
1849	-0.75	-9.	0.	116.71
1850	-1.25	-9.	0.	129.07
1851	-1.	-9.25	0.	124.06
1852	-0.25	-7.	0.	118.4
1853	0.	-7.25	0.	135.09
1854	-1.3127e-011	-6.75	0.	126.17
1855	0.25	-7.	0.	129.79
1856	-0.25	-9.	0.	116.52
1857	0.	-8.75	0.	133.7
1858	0.25	-9.	0.	128.61
1859	2.4911e-013	-9.25	0.	123.69
1860	9.75	10.	0.	125.29
1861	10.	9.75	0.	124.55
1862	-9.75	10.	0.	125.
1863	-10.	9.75	0.	125.
1864	10.	-9.75	0.	126.27
1865	9.75	-10.	0.	126.15
1866	-10.	-9.75	0.	130.38
1867	-9.75	-10.	0.	129.82
1868	-7.25	5.5	0.	135.91
1869	-6.5	6.25	0.	112.03
1870	-6.5	4.75	0.	112.37
1871	-5.75	5.5	0.	137.3
1872	-7.25	-7.5	0.	129.23
1873	-6.5	-6.75	0.	103.66
1874	-6.5	-8.25	0.	106.81
1875	-5.75	-7.5	0.	133.22
1876	4.	2.25	0.	146.46
1877	3.75	2.5	0.	140.77
1878	4.	1.75	0.	147.05
1879	3.75	2.	0.	142.84
1880	3.75	1.5	0.	141.94
1881	4.75	3.	0.	116.1
1882	4.5	3.25	0.	113.92
1883	5.25	3.	0.	116.16
1884	5.	3.25	0.	116.11
1885	5.5	3.25	0.	114.09
1886	4.75	1.	0.	116.72
1887	4.5	0.75	0.	114.83
1888	5.25	1.	0.	116.19
1889	5.	0.75	0.	116.43
1890	5.5	0.75	0.	113.79
1891	6.	2.25	0.	145.5
1892	6.25	2.5	0.	140.17
1893	6.	1.75	0.	145.01
1894	6.25	2.	0.	140.96
1895	6.25	1.5	0.	139.06
1896	4.75	8.5	0.	136.58
1897	5.5	9.25	0.	115.4
1898	5.5	7.75	0.	113.66
1899	6.25	8.5	0.	139.63
1900	-7.	-1.75	0.	142.22
1901	-7.25	-1.5	0.	137.26
1902	-7.	-2.25	0.	141.51
1903	-7.25	-2.	0.	138.1
1904	-7.25	-2.5	0.	136.01
1905	-6.25	-1.	0.	114.68
1906	-6.5	-0.75	0.	112.59
1907	-5.75	-1.	0.	115.06
1908	-6.	-0.75	0.	115.09
1909	-5.5	-0.75	0.	113.32
1910	-6.25	-3.	0.	113.08
1911	-6.5	-3.25	0.	109.95
1912	-5.75	-3.	0.	114.91
1913	-6.	-3.25	0.	114.19
1914	-5.5	-3.25	0.	114.14
1915	-5.	-1.75	0.	144.66
1916	-4.75	-1.5	0.	139.38
1917	-5.	-2.25	0.	144.84
1918	-4.75	-2.	0.	140.84
1919	-4.75	-2.5	0.	139.72
1920	-4.25	7.5	0.	138.58
1921	-3.5	8.25	0.	113.74
1922	-3.5	6.75	0.	114.13
1923	-2.75	7.5	0.	138.16
1924	0.75	-0.5	0.	135.55
1925	1.5	0.25	0.	112.86
1926	1.5	-1.25	0.	112.63
1927	2.25	-0.5	0.	139.13
1928	-9.25	3.5	0.	139.08
1929	-8.5	4.25	0.	113.15
1930	-8.5	2.75	0.	112.39
1931	-7.75	3.5	0.	135.76
1932	8.	5.25	0.	142.69
1933	7.75	5.5	0.	137.46
1934	8.	4.75	0.	143.4
1935	7.75	5.	0.	139.37
1936	7.75	4.5	0.	139.07
1937	8.5	6.25	0.	109.88
1938	8.5	3.75	0.	110.18
1939	9.	5.25	0.	144.84
1940	9.25	5.5	0.	140.54
1941	9.	4.75	0.	144.88
1942	9.25	5.	0.	141.7
1943	9.25	4.5	0.	140.37
1944	4.75	-4.5	0.	136.02
1945	5.75	-4.	0.	118.77
1946	5.5	-3.75	0.	116.04
1947	6.25	-4.	0.	118.97
1948	6.	-3.75	0.	119.13
1949	6.5	-3.75	0.	116.42
1950	5.75	-5.	0.	119.
1951	5.5	-5.25	0.	116.34
1952	6.25	-5.	0.	119.05
1953	6.	-5.25	0.	119.34
1954	6.5	-5.25	0.	116.48
1955	7.25	-4.5	0.	136.62
1956	-1.	4.25	0.	145.49
1957	-1.25	4.5	0.	139.95
1958	-1.	3.75	0.	145.44
1959	-1.25	4.	0.	141.21
1960	-1.25	3.5	0.	139.9
1961	-0.25	5.	0.	116.67
1962	-0.5	5.25	0.	114.7
1963	0.25	5.	0.	116.62
1964	3.1044e-011	5.25	0.	116.8
1965	0.5	5.25	0.	114.57
1966	-0.25	3.	0.	116.3
1967	-0.5	2.75	0.	114.55
1968	0.25	3.	0.	115.92
1969	1.7376e-011	2.75	0.	116.39
1970	0.5	2.75	0.	113.71
1971	1.	4.25	0.	145.71
1972	1.25	4.5	0.	140.45
1973	1.	3.75	0.	145.33
1974	1.25	4.	0.	141.65
1975	1.25	3.5	0.	139.83
1976	-8.25	-5.5	0.	139.59
1977	-7.25	-5.	0.	117.72
1978	-7.5	-4.75	0.	117.16
1979	-6.75	-5.	0.	114.58
1980	-7.	-4.75	0.	116.54
1981	-6.5	-4.75	0.	110.53
1982	-7.25	-6.	0.	117.55
1983	-7.5	-6.25	0.	119.01
1984	-6.75	-6.	0.	112.88
1985	-7.	-6.25	0.	115.73
1986	-6.5	-6.25	0.	106.09
1987	-5.75	-5.5	0.	131.5
1988	6.75	8.5	0.	139.52
1989	7.5	9.25	0.	114.95
1990	7.5	7.75	0.	113.12
1991	8.25	8.5	0.	135.75
1992	-1.	-7.75	0.	139.9
1993	-1.25	-7.5	0.	135.95
1994	-1.	-8.25	0.	139.56
1995	-1.25	-8.	0.	136.73
1996	-1.25	-8.5	0.	135.44
1997	-0.5	-6.75	0.	107.92
1998	-0.5	-9.25	0.	105.43
1999	0.	-7.75	0.	139.61
2000	0.25	-7.5	0.	135.57
2001	0.	-8.25	0.	139.26
2002	0.25	-8.	0.	136.34
2003	0.25	-8.5	0.	135.02
2004	9.25	10.	0.	126.08
2005	9.5	9.75	0.	125.15
2006	8.75	10.	0.	126.34
2007	9.	9.75	0.	126.25
2008	8.25	10.	0.	124.03
2009	8.5	9.75	0.	127.32
2010	7.75	10.	0.	121.49
2011	8.	9.75	0.	123.53
2012	7.25	10.	0.	122.3
2013	7.5	9.75	0.	118.91
2014	6.75	10.	0.	125.61
2015	7.	9.75	0.	125.12
2016	6.25	10.	0.	125.77
2017	6.5	9.75	0.	130.06
2018	5.75	10.	0.	122.78
2019	6.	9.75	0.	125.29
2020	5.25	10.	0.	122.32
2021	5.5	9.75	0.	119.46
2022	4.75	10.	0.	125.27
2023	5.	9.75	0.	124.46
2024	4.25	10.	0.	127.91
2025	4.5	9.75	0.	128.4
2026	3.75	10.	0.	127.9
2027	4.	9.75	0.	127.43
2028	3.25	10.	0.	126.98
2029	3.5	9.75	0.	126.56
2030	2.75	10.	0.	126.19
2031	3.	9.75	0.	126.
2032	2.25	10.	0.	125.59
2033	2.5	9.75	0.	125.56
2034	1.75	10.	0.	125.15
2035	2.	9.75	0.	125.2
2036	1.25	10.	0.	124.84
2037	1.5	9.75	0.	124.91
2038	0.75	10.	0.	124.69
2039	1.	9.75	0.	124.71
2040	0.25	10.	0.	124.7
2041	0.5	9.75	0.	124.63
2042	-0.25	10.	0.	124.9
2043	4.3507e-012	9.75	0.	124.72
2044	-0.75	10.	0.	125.23
2045	-0.5	9.75	0.	124.96
2046	-1.25	10.	0.	125.55
2047	-1.	9.75	0.	125.31
2048	-1.75	10.	0.	125.61
2049	-1.5	9.75	0.	125.65
2050	-2.25	10.	0.	125.18
2051	-2.	9.75	0.	125.71
2052	-2.75	10.	0.	124.33
2053	-2.5	9.75	0.	125.13
2054	-3.25	10.	0.	123.65
2055	-3.	9.75	0.	124.07
2056	-3.75	10.	0.	123.72
2057	-3.5	9.75	0.	123.53
2058	-4.25	10.	0.	124.51
2059	-4.	9.75	0.	124.2
2060	-4.75	10.	0.	125.45
2061	-4.5	9.75	0.	125.35
2062	-5.25	10.	0.	125.94
2063	-5.	9.75	0.	125.98
2064	-5.75	10.	0.	125.9
2065	-5.5	9.75	0.	125.95
2066	-6.25	10.	0.	125.6
2067	-6.	9.75	0.	125.63
2068	-6.75	10.	0.	125.28
2069	-6.5	9.75	0.	125.29
2070	-7.25	10.	0.	125.07
2071	-7.	9.75	0.	125.07
2072	-7.75	10.	0.	124.97
2073	-7.5	9.75	0.	124.96
2074	-8.25	10.	0.	124.95
2075	-8.	9.75	0.	124.95
2076	-8.75	10.	0.	124.96
2077	-8.5	9.75	0.	124.96
2078	-9.25	10.	0.	124.98
2079	-9.	9.75	0.	124.98
2080	-9.5	9.75	0.	125.
2081	10.	9.25	0.	123.08
2082	9.75	9.5	0.	124.4
2083	10.	8.75	0.	122.07
2084	9.75	9.	0.	123.19
2085	10.	8.25	0.	123.19
2086	9.75	8.5	0.	123.24
2087	10.	7.75	0.	126.55
2088	9.75	8.	0.	125.03
2089	10.	7.25	0.	131.17
2090	9.75	7.5	0.	128.04
2091	10.	6.75	0.	135.01
2092	9.75	7.	0.	131.49
2093	10.	6.25	0.	135.61
2094	9.75	6.5	0.	134.88
2095	10.	5.75	0.	133.49
2096	9.75	6.	0.	134.45
2097	10.	5.25	0.	132.02
2098	9.75	5.5	0.	134.4
2099	10.	4.75	0.	131.36
2100	9.75	5.	0.	135.01
2101	10.	4.25	0.	131.62
2102	9.75	4.5	0.	133.54
2103	10.	3.75	0.	132.83
2104	9.75	4.	0.	132.61
2105	10.	3.25	0.	132.
2106	9.75	3.5	0.	132.51
2107	10.	2.75	0.	128.99
2108	9.75	3.	0.	129.08
2109	10.	2.25	0.	126.16
2110	9.75	2.5	0.	126.47
2111	10.	1.75	0.	124.77
2112	9.75	2.	0.	125.14
2113	10.	1.25	0.	124.57
2114	9.75	1.5	0.	124.78
2115	10.	0.75	0.	125.12
2116	9.75	1.	0.	125.08
2117	10.	0.25	0.	126.03
2118	9.75	0.5	0.	125.77
2119	10.	-0.25	0.	127.02
2120	9.75	4.6578e-013	0.	126.59
2121	10.	-0.75	0.	127.88
2122	9.75	-0.5	0.	127.36
2123	10.	-1.25	0.	128.48
2124	9.75	-1.	0.	127.97
2125	10.	-1.75	0.	128.76
2126	9.75	-1.5	0.	128.35
2127	10.	-2.25	0.	128.64
2128	9.75	-2.	0.	128.45
2129	10.	-2.75	0.	128.09
2130	9.75	-2.5	0.	128.23
2131	10.	-3.25	0.	127.18
2132	9.75	-3.	0.	127.67
2133	10.	-3.75	0.	126.15
2134	9.75	-3.5	0.	126.87
2135	10.	-4.25	0.	125.38
2136	9.75	-4.	0.	126.08
2137	10.	-4.75	0.	125.16
2138	9.75	-4.5	0.	125.63
2139	10.	-5.25	0.	125.51
2140	9.75	-5.	0.	125.7
2141	10.	-5.75	0.	126.16
2142	9.75	-5.5	0.	126.14
2143	10.	-6.25	0.	126.77
2144	9.75	-6.	0.	126.64
2145	10.	-6.75	0.	127.12
2146	9.75	-6.5	0.	126.96
2147	10.	-7.25	0.	127.18
2148	9.75	-7.	0.	127.05
2149	10.	-7.75	0.	127.04
2150	9.75	-7.5	0.	126.95
2151	10.	-8.25	0.	126.8
2152	9.75	-8.	0.	126.74
2153	10.	-8.75	0.	126.56
2154	9.75	-8.5	0.	126.51
2155	10.	-9.25	0.	126.37
2156	9.75	-9.	0.	126.32
2157	9.75	-9.5	0.	126.19
2158	-10.	9.25	0.	125.03
2159	-9.75	9.5	0.	125.01
2160	-10.	8.75	0.	125.05
2161	-9.75	9.	0.	125.03
2162	-10.	8.25	0.	125.03
2163	-9.75	8.5	0.	125.05
2164	-10.	7.75	0.	124.93
2165	-9.75	8.	0.	125.03
2166	-10.	7.25	0.	124.74
2167	-9.75	7.5	0.	124.94
2168	-10.	6.75	0.	124.57
2169	-9.75	7.	0.	124.79
2170	-10.	6.25	0.	124.73
2171	-9.75	6.5	0.	124.67
2172	-10.	5.75	0.	125.73
2173	-9.75	6.	0.	124.9
2174	-10.	5.25	0.	127.92
2175	-9.75	5.5	0.	125.88
2176	-10.	4.75	0.	130.
2177	-9.75	5.	0.	128.01
2178	-10.	4.25	0.	129.33
2179	-9.75	4.5	0.	130.74
2180	-10.	3.75	0.	126.59
2181	-9.75	4.	0.	129.77
2182	-10.	3.25	0.	127.43
2183	-9.75	3.5	0.	128.9
2184	-10.	2.75	0.	131.72
2185	-9.75	3.	0.	131.11
2186	-10.	2.25	0.	133.63
2187	-9.75	2.5	0.	133.05
2188	-10.	1.75	0.	132.46
2189	-9.75	2.	0.	131.27
2190	-10.	1.25	0.	130.72
2191	-9.75	1.5	0.	129.84
2192	-10.	0.75	0.	129.55
2193	-9.75	1.	0.	129.08
2194	-10.	0.25	0.	128.67
2195	-9.75	0.5	0.	128.6
2196	-10.	-0.25	0.	127.78
2197	-9.75	-1.6871e-013	0.	128.11
2198	-10.	-0.75	0.	126.87
2199	-9.75	-0.5	0.	127.49
2200	-10.	-1.25	0.	126.2
2201	-9.75	-1.	0.	126.88
2202	-10.	-1.75	0.	126.15
2203	-9.75	-1.5	0.	126.59
2204	-10.	-2.25	0.	126.99
2205	-9.75	-2.	0.	126.93
2206	-10.	-2.75	0.	128.61
2207	-9.75	-2.5	0.	127.98
2208	-10.	-3.25	0.	130.51
2209	-9.75	-3.	0.	129.55
2210	-10.	-3.75	0.	131.88
2211	-9.75	-3.5	0.	131.11
2212	-10.	-4.25	0.	131.96
2213	-9.75	-4.	0.	131.99
2214	-10.	-4.75	0.	130.72
2215	-9.75	-4.5	0.	131.65
2216	-10.	-5.25	0.	129.18
2217	-9.75	-5.	0.	130.34
2218	-10.	-5.75	0.	128.65
2219	-9.75	-5.5	0.	129.35
2220	-10.	-6.25	0.	129.31
2221	-9.75	-6.	0.	129.5
2222	-10.	-6.75	0.	130.2
2223	-9.75	-6.5	0.	130.24
2224	-10.	-7.25	0.	130.57
2225	-9.75	-7.	0.	130.51
2226	-10.	-7.75	0.	130.49
2227	-9.75	-7.5	0.	130.28
2228	-10.	-8.25	0.	130.34
2229	-9.75	-8.	0.	129.97
2230	-10.	-8.75	0.	130.3
2231	-9.75	-8.5	0.	129.83
2232	-10.	-9.25	0.	130.34
2233	-9.75	-9.	0.	129.8
2234	-9.75	-9.5	0.	129.81
2235	-9.25	-10.	0.	128.62
2236	-9.5	-9.75	0.	129.25
2237	-8.75	-10.	0.	127.23
2238	-9.	-9.75	0.	128.03
2239	-8.25	-10.	0.	125.4
2240	-8.5	-9.75	0.	126.54
2241	-7.75	-10.	0.	122.95
2242	-8.	-9.75	0.	124.5
2243	-7.25	-10.	0.	120.23
2244	-7.5	-9.75	0.	121.67
2245	-6.75	-10.	0.	118.43
2246	-7.	-9.75	0.	118.76
2247	-6.25	-10.	0.	118.76
2248	-6.5	-9.75	0.	117.64
2249	-5.75	-10.	0.	121.1
2250	-6.	-9.75	0.	119.46
2251	-5.25	-10.	0.	124.05
2252	-5.5	-9.75	0.	122.79
2253	-4.75	-10.	0.	126.42
2254	-5.	-9.75	0.	125.64
2255	-4.25	-10.	0.	127.98
2256	-4.5	-9.75	0.	127.42
2257	-3.75	-10.	0.	129.04
2258	-4.	-9.75	0.	128.53
2259	-3.25	-10.	0.	129.92
2260	-3.5	-9.75	0.	129.38
2261	-2.75	-10.	0.	130.73
2262	-3.	-9.75	0.	130.17
2263	-2.25	-10.	0.	131.19
2264	-2.5	-9.75	0.	130.87
2265	-1.75	-10.	0.	129.5
2266	-2.	-9.75	0.	131.11
2267	-1.25	-10.	0.	122.48
2268	-1.5	-9.75	0.	128.88
2269	-0.75	-10.	0.	114.02
2270	-1.	-9.75	0.	118.
2271	-0.25	-10.	0.	113.86
2272	-0.5	-9.75	0.	108.63
2273	0.25	-10.	0.	122.
2274	2.5171e-013	-9.75	0.	117.66
2275	0.75	-10.	0.	128.74
2276	0.5	-9.75	0.	128.26
2277	1.25	-10.	0.	130.17
2278	1.	-9.75	0.	130.24
2279	1.75	-10.	0.	129.44
2280	1.5	-9.75	0.	129.74
2281	2.25	-10.	0.	128.4
2282	2.	-9.75	0.	128.78
2283	2.75	-10.	0.	127.38
2284	2.5	-9.75	0.	127.78
2285	3.25	-10.	0.	126.45
2286	3.	-9.75	0.	126.84
2287	3.75	-10.	0.	125.61
2288	3.5	-9.75	0.	125.99
2289	4.25	-10.	0.	124.86
2290	4.	-9.75	0.	125.2
2291	4.75	-10.	0.	124.22
2292	4.5	-9.75	0.	124.5
2293	5.25	-10.	0.	123.75
2294	5.	-9.75	0.	123.92
2295	5.75	-10.	0.	123.48
2296	5.5	-9.75	0.	123.53
2297	6.25	-10.	0.	123.43
2298	6.	-9.75	0.	123.37
2299	6.75	-10.	0.	123.61
2300	6.5	-9.75	0.	123.45
2301	7.25	-10.	0.	123.97
2302	7.	-9.75	0.	123.75
2303	7.75	-10.	0.	124.45
2304	7.5	-9.75	0.	124.19
2305	8.25	-10.	0.	124.96
2306	8.	-9.75	0.	124.71
2307	8.75	-10.	0.	125.46
2308	8.5	-9.75	0.	125.24
2309	9.25	-10.	0.	125.87
2310	9.	-9.75	0.	125.71
2311	9.5	-9.75	0.	126.07
2312	-0.75	-3.5	0.	125.29
2313	-1.	-3.25	0.	125.77
2314	-1.	-3.75	0.	125.35
2315	-1.25	-3.5	0.	125.97
2316	-1.5	-2.75	0.	126.43
2317	-1.25	-3.	0.	126.19
2318	-1.75	-3.	0.	126.75
2319	-1.5	-3.25	0.	126.39
2320	1.75	-4.5	0.	124.84
2321	2.	-4.25	0.	124.8
2322	2.	-4.75	0.	125.3
2323	2.25	-4.5	0.	125.1
2324	-4.75	2.5	0.	124.55
2325	-4.5	2.75	0.	125.18
2326	-4.25	2.5	0.	125.79
2327	-4.5	2.25	0.	125.27
2328	-0.5	-3.75	0.	124.69
2329	-0.5	-4.25	0.	124.02
2330	-0.75	-4.	0.	124.75
2331	-0.25	-4.	0.	124.2
2332	-2.	-2.25	0.	126.71
2333	-2.25	-2.	0.	126.83
2334	-2.	-1.75	0.	126.58
2335	-1.75	-2.	0.	126.47
2336	-1.75	-4.	0.	126.77
2337	-2.	-4.25	0.	127.38
2338	-2.25	-4.	0.	128.01
2339	-2.	-3.75	0.	127.33
2340	-1.75	-2.5	0.	126.61
2341	-2.	-2.75	0.	126.94
2342	-2.25	-2.5	0.	127.09
2343	-4.	2.25	0.	126.64
2344	-4.25	2.	0.	126.13
2345	-3.75	2.	0.	127.57
2346	-4.	1.75	0.	127.17
2347	1.25	-4.5	0.	124.5
2348	1.5	-4.75	0.	125.04
2349	1.5	-4.25	0.	124.47
2350	-0.25	-3.5	0.	124.75
2351	-0.5	-3.25	0.	125.28
2352	-1.5	-2.25	0.	126.38
2353	-1.25	-2.5	0.	126.33
2354	2.25	-4.	0.	124.86
2355	2.	-3.75	0.	124.53
2356	1.75	-4.	0.	124.43
2357	-2.25	-4.5	0.	128.02
2358	-2.5	-4.25	0.	128.65
2359	-2.5	-4.75	0.	128.67
2360	-2.75	-4.5	0.	129.19
2361	-3.5	1.75	0.	128.53
2362	-3.75	1.5	0.	128.14
2363	-3.25	1.5	0.	129.28
2364	-3.5	1.25	0.	129.08
2365	-2.5	-2.25	0.	127.22
2366	-2.5	-1.75	0.	127.08
2367	-2.75	-2.	0.	127.37
2368	1.75	-5.	0.	125.5
2369	2.	-5.25	0.	126.
2370	2.25	-5.	0.	125.67
2371	-2.5	0.25	0.	128.88
2372	-2.25	0.5	0.	128.65
2373	-2.5	0.75	0.	129.42
2374	-2.75	0.5	0.	129.46
2375	-2.	-0.25	0.	127.27
2376	-2.25	-1.1199e-010	0.	128.06
2377	-2.	0.25	0.	127.83
2378	-1.75	-1.5155e-010	0.	126.92
2379	-0.75	-3.	0.	125.76
2380	-1.	-2.75	0.	126.09
2381	-5.	2.25	0.	123.86
2382	-5.25	2.5	0.	123.34
2383	-5.	2.75	0.	124.05
2384	-4.75	3.	0.	124.68
2385	-4.5	3.25	0.	125.31
2386	-4.25	3.	0.	125.58
2387	-3.5	3.75	0.	125.8
2388	-3.25	4.	0.	125.83
2389	-3.75	4.	0.	125.5
2390	-3.5	4.25	0.	125.3
2391	-1.25	-4.	0.	125.65
2392	-1.5	-3.75	0.	126.26
2393	-1.5	-4.25	0.	126.03
2394	-3.75	2.5	0.	126.98
2395	-4.	2.75	0.	126.19
2396	1.	-4.25	0.	124.15
2397	1.	-3.75	0.	123.89
2398	0.75	-4.	0.	123.96
2399	1.25	-4.	0.	124.12
2400	-2.25	-1.5	0.	126.83
2401	-1.75	-1.5	0.	126.37
2402	-2.	-1.25	0.	126.62
2403	-2.25	-3.	0.	127.48
2404	-2.	-3.25	0.	127.18
2405	-4.75	2.	0.	124.58
2406	-4.5	1.75	0.	125.52
2407	-5.	1.75	0.	123.73
2408	-5.25	2.	0.	123.18
2409	-1.75	-0.5	0.	126.54
2410	-2.25	-0.5	0.	127.52
2411	-2.	-0.75	0.	126.85
2412	2.5	-4.25	0.	125.15
2413	2.5	-4.75	0.	125.47
2414	2.75	-4.5	0.	125.28
2415	2.5	-6.25	0.	127.05
2416	2.5	-5.75	0.	126.71
2417	2.75	-6.	0.	127.09
2418	2.25	-6.	0.	127.01
2419	-2.	-4.75	0.	127.41
2420	-1.75	-4.5	0.	126.64
2421	0.75	-4.5	0.	124.07
2422	1.	-4.75	0.	124.58
2423	-0.25	-4.5	0.	123.56
2424	-0.5	-4.75	0.	123.11
2425	-0.75	-4.5	0.	124.08
2426	5.75	-1.5	0.	120.21
2427	5.5	-1.75	0.	119.91
2428	5.5	-1.25	0.	119.62
2429	5.25	-1.5	0.	120.2
2430	-3.75	3.5	0.	125.89
2431	-3.5	3.25	0.	126.44
2432	-3.25	3.5	0.	126.45
2433	-3.25	2.	0.	128.86
2434	-3.5	2.25	0.	127.91
2435	1.1247e-010	-3.25	0.	124.8
2436	0.25	-3.5	0.	124.29
2437	7.2948e-011	-3.75	0.	124.26
2438	-1.5	-0.25	0.	126.19
2439	-1.5	-0.75	0.	126.05
2440	-1.25	-0.5	0.	125.65
2441	-1.5	-1.75	0.	126.26
2442	-1.25	-2.	0.	126.33
2443	2.5	-3.75	0.	125.21
2444	2.75	-4.	0.	125.33
2445	-2.75	-4.	0.	129.27
2446	-2.5	-3.75	0.	128.5
2447	-2.5	-2.75	0.	127.63
2448	-2.75	-2.5	0.	127.75
2449	-4.25	1.5	0.	126.57
2450	-4.	1.25	0.	127.84
2451	-5.75	1.5	0.	121.63
2452	-5.25	1.5	0.	122.83
2453	-5.5	1.25	0.	121.48
2454	-5.5	1.75	0.	122.27
2455	-2.75	-1.5	0.	127.44
2456	-2.5	-1.25	0.	127.28
2457	-2.5	-0.25	0.	128.31
2458	-2.75	-7.0753e-011	0.	129.09
2459	-3.25	-5.5	0.	128.9
2460	-3.5	-5.25	0.	129.11
2461	-3.5	-5.75	0.	128.6
2462	-3.75	-5.5	0.	128.43
2463	2.75	-6.5	0.	127.16
2464	3.	-6.75	0.	127.03
2465	3.	-6.25	0.	127.2
2466	3.25	-6.5	0.	127.26
2467	-3.	-5.75	0.	128.92
2468	-2.75	-5.5	0.	128.92
2469	-3.	-5.25	0.	129.17
2470	-2.25	-5.	0.	128.06
2471	-2.5	-5.25	0.	128.74
2472	-2.75	-5.	0.	129.
2473	1.25	-5.	0.	125.12
2474	1.5	-5.25	0.	125.86
2475	2.5	-6.75	0.	127.03
2476	2.25	-6.5	0.	127.2
2477	2.25	-5.5	0.	126.41
2478	2.	-5.75	0.	126.71
2479	1.75	-5.5	0.	126.35
2480	3.75	5.5	0.	125.38
2481	4.	5.75	0.	124.8
2482	4.	5.25	0.	123.86
2483	4.25	5.5	0.	123.29
2484	5.25	5.	0.	120.03
2485	5.	5.25	0.	120.45
2486	4.75	5.	0.	120.24
2487	5.	4.75	0.	118.62
2488	3.5	5.75	0.	126.72
2489	3.75	6.	0.	126.14
2490	3.25	6.	0.	127.68
2491	3.5	6.25	0.	127.17
2492	-1.75	0.5	0.	127.47
2493	-2.	0.75	0.	128.54
2494	-1.5	0.25	0.	126.56
2495	-1.25	-1.7041e-010	0.	125.8
2496	-2.25	1.	0.	129.32
2497	-2.5	1.25	0.	129.97
2498	-2.75	1.	0.	129.75
2499	-3.	1.75	0.	129.61
2500	-2.75	1.5	0.	129.99
2501	-3.	1.25	0.	129.77
2502	-0.25	-3.	0.	125.33
2503	-0.5	-2.75	0.	125.88
2504	-1.	-2.25	0.	126.28
2505	-0.75	-2.5	0.	126.21
2506	-3.	-4.25	0.	129.81
2507	-3.25	-4.5	0.	130.05
2508	-3.	-4.75	0.	129.51
2509	-3.75	1.	0.	128.78
2510	-3.5	0.75	0.	129.64
2511	-3.25	1.	0.	129.58
2512	-3.	-2.25	0.	127.9
2513	-3.25	-2.	0.	128.18
2514	-3.	-1.75	0.	127.73
2515	-3.	0.25	0.	129.66
2516	-3.25	0.5	0.	129.85
2517	-3.	0.75	0.	129.78
2518	-5.5	2.75	0.	122.86
2519	-5.75	2.5	0.	122.49
2520	-5.5	2.25	0.	122.66
2521	-5.25	3.	0.	123.56
2522	-5.	3.25	0.	124.57
2523	-6.	1.25	0.	120.55
2524	-6.	1.75	0.	121.68
2525	-6.25	1.5	0.	121.53
2526	6.	-1.75	0.	120.21
2527	5.75	-2.	0.	119.9
2528	6.25	-2.	0.	120.6
2529	6.	-2.25	0.	119.28
2530	5.5	5.25	0.	121.01
2531	5.75	5.	0.	121.61
2532	5.5	4.75	0.	119.78
2533	5.75	-7.	0.	121.2
2534	6.25	-7.	0.	121.24
2535	6.	-6.75	0.	120.15
2536	6.	-7.25	0.	121.36
2537	-4.	3.75	0.	125.58
2538	-4.25	3.5	0.	125.57
2539	-4.	3.25	0.	125.83
2540	-3.	4.25	0.	126.
2541	-2.75	4.	0.	126.81
2542	-3.	3.75	0.	126.47
2543	-5.75	1.	0.	120.39
2544	-6.25	1.	0.	120.12
2545	-6.	0.75	0.	118.73
2546	-3.5	-4.75	0.	129.92
2547	-3.75	-5.	0.	129.18
2548	-3.25	-5.	0.	129.39
2549	5.25	5.5	0.	121.42
2550	5.5	5.75	0.	122.05
2551	5.75	5.5	0.	122.4
2552	5.25	-1.	0.	119.32
2553	4.75	-1.	0.	120.16
2554	5.	-0.75	0.	118.4
2555	5.	-1.25	0.	119.91
2556	0.25	7.	0.	120.7
2557	-0.25	7.	0.	120.8
2558	1.0373e-010	7.25	0.	120.95
2559	1.2563e-010	6.75	0.	119.43
2560	3.	6.25	0.	128.23
2561	2.75	6.5	0.	128.28
2562	3.25	6.5	0.	127.72
2563	3.	6.75	0.	127.71
2564	2.75	-5.5	0.	126.57
2565	2.5	-5.25	0.	126.08
2566	4.5	-1.25	0.	121.72
2567	4.5	-1.75	0.	123.05
2568	4.25	-1.5	0.	123.63
2569	4.75	-1.5	0.	121.46
2570	0.25	-4.5	0.	123.66
2571	0.5	-4.25	0.	123.87
2572	0.5	-4.75	0.	123.86
2573	-2.3637e-012	-4.75	0.	123.15
2574	2.9241e-011	-4.25	0.	123.75
2575	6.25	-1.5	0.	121.39
2576	6.	-1.25	0.	120.78
2577	6.75	-1.5	0.	123.25
2578	6.5	-1.75	0.	121.78
2579	6.5	-1.25	0.	122.75
2580	5.	5.75	0.	121.84
2581	4.75	5.5	0.	121.77
2582	1.	-3.25	0.	123.65
2583	0.75	-3.5	0.	123.93
2584	1.25	-3.5	0.	123.82
2585	-1.5	-1.25	0.	126.11
2586	-1.25	-1.	0.	125.83
2587	-1.75	-1.	0.	126.36
2588	-1.25	-1.5	0.	126.14
2589	2.25	-3.5	0.	124.88
2590	2.	-3.25	0.	124.35
2591	1.75	-3.5	0.	124.15
2592	2.5	-3.25	0.	125.52
2593	2.75	-3.5	0.	125.78
2594	-2.75	-3.	0.	128.41
2595	-2.5	-3.25	0.	128.13
2596	-4.75	1.5	0.	124.67
2597	-4.5	1.25	0.	125.93
2598	-5.	1.25	0.	123.57
2599	-2.75	-0.5	0.	128.55
2600	-2.5	-0.75	0.	127.75
2601	-3.25	-6.	0.	128.61
2602	-3.75	-6.	0.	128.2
2603	-3.5	-6.25	0.	128.26
2604	2.75	-7.	0.	126.9
2605	3.	-7.25	0.	126.68
2606	3.25	-7.	0.	126.78
2607	2.25	7.	0.	126.93
2608	2.5	6.75	0.	127.86
2609	2.75	7.	0.	127.29
2610	2.5	7.25	0.	126.61
2611	4.25	-7.	0.	125.56
2612	4.	-6.75	0.	126.66
2613	3.75	-7.	0.	126.43
2614	4.	-7.25	0.	125.85
2615	5.25	-7.	0.	122.36
2616	5.5	-7.25	0.	121.89
2617	5.5	-6.75	0.	121.03
2618	3.	-5.75	0.	126.95
2619	3.25	-6.	0.	127.46
2620	5.5	-2.25	0.	119.73
2621	5.25	-2.	0.	120.69
2622	-3.75	-7.	0.	127.67
2623	-3.25	-7.	0.	127.85
2624	-3.5	-6.75	0.	127.91
2625	-3.5	-7.25	0.	127.55
2626	-2.75	-6.	0.	128.93
2627	-3.	-6.25	0.	128.64
2628	-1.75	-5.	0.	126.55
2629	-2.	-5.25	0.	127.67
2630	1.	-5.25	0.	125.35
2631	0.75	-5.	0.	124.37
2632	-0.25	-5.	0.	122.69
2633	-0.5	-5.25	0.	121.69
2634	-0.75	-5.	0.	123.13
2635	2.5	-7.25	0.	126.8
2636	2.25	-7.	0.	127.02
2637	2.	-6.25	0.	127.16
2638	1.75	-6.	0.	127.15
2639	3.5	5.25	0.	126.36
2640	3.25	5.5	0.	127.47
2641	4.25	5.	0.	122.14
2642	4.5	4.75	0.	120.04
2643	4.5	5.25	0.	121.58
2644	5.75	-1.	0.	120.18
2645	5.5	-0.75	0.	118.89
2646	4.	6.25	0.	125.89
2647	4.25	6.	0.	124.47
2648	2.	7.25	0.	126.06
2649	2.	6.75	0.	127.48
2650	1.75	7.	0.	125.95
2651	0.75	7.	0.	122.11
2652	0.5	7.25	0.	121.55
2653	0.5	6.75	0.	120.52
2654	3.	5.75	0.	128.43
2655	2.75	6.	0.	129.02
2656	-1.5	0.75	0.	127.09
2657	-1.25	0.5	0.	126.09
2658	-1.75	1.	0.	128.17
2659	-2.	1.25	0.	129.48
2660	-2.75	2.	0.	130.03
2661	-3.	2.25	0.	129.14
2662	1.3569e-010	-2.75	0.	125.52
2663	0.25	-3.	0.	124.72
2664	-1.	-1.75	0.	126.21
2665	-0.75	-2.	0.	126.49
2666	-1.	-0.75	0.	125.43
2667	-1.	-0.25	0.	125.25
2668	-0.75	-0.5	0.	125.07
2669	1.25	-3.	0.	123.43
2670	1.75	-3.	0.	123.8
2671	1.5	-2.75	0.	122.82
2672	1.5	-3.25	0.	123.6
2673	-3.	-3.75	0.	129.78
2674	-3.25	-4.	0.	130.55
2675	-3.	-2.75	0.	128.53
2676	-3.25	-2.5	0.	128.68
2677	-4.25	1.	0.	127.2
2678	-4.	0.75	0.	128.77
2679	-5.25	1.	0.	122.22
2680	-5.5	0.75	0.	120.23
2681	-3.	-0.25	0.	129.32
2682	-3.25	-3.9342e-011	0.	129.97
2683	-5.75	3.	0.	122.38
2684	-5.5	3.25	0.	123.23
2685	-6.	2.25	0.	122.14
2686	-6.25	2.	0.	122.38
2687	-5.75	2.	0.	122.32
2688	7.	-1.25	0.	124.75
2689	7.	-1.75	0.	123.98
2690	7.25	-1.5	0.	125.12
2691	6.75	-2.	0.	122.52
2692	6.5	-2.25	0.	120.83
2693	6.	5.25	0.	123.
2694	6.25	5.	0.	124.31
2695	6.	4.75	0.	122.87
2696	3.5	-6.25	0.	127.53
2697	3.75	-6.5	0.	127.25
2698	3.5	-6.75	0.	127.02
2699	-2.25	-5.5	0.	128.35
2700	-2.5	-5.75	0.	128.93
2701	6.5	-7.25	0.	121.94
2702	6.5	-6.75	0.	121.13
2703	6.75	-7.	0.	122.46
2704	1.5	-5.75	0.	126.79
2705	1.25	-5.5	0.	126.08
2706	6.75	-1.	0.	124.25
2707	7.	-0.75	0.	125.97
2708	7.25	-1.	0.	125.87
2709	-4.25	4.	0.	125.68
2710	-4.	4.25	0.	125.33
2711	-4.75	3.5	0.	125.2
2712	-4.5	3.75	0.	125.66
2713	-3.25	5.	0.	125.23
2714	-3.5	5.25	0.	124.15
2715	-3.75	5.	0.	124.67
2716	-3.5	4.75	0.	124.84
2717	-2.75	4.5	0.	126.69
2718	-3.	4.75	0.	125.87
2719	-3.25	4.5	0.	125.47
2720	2.5	6.25	0.	129.07
2721	2.25	6.5	0.	128.41
2722	-2.5	1.75	0.	130.41
2723	-2.25	1.5	0.	130.13
2724	4.25	-2.	0.	124.83
2725	3.75	-2.	0.	126.87
2726	4.	-1.75	0.	125.41
2727	4.	-2.25	0.	126.51
2728	3.25	-2.5	0.	127.86
2729	3.5	-2.25	0.	127.84
2730	3.75	-2.5	0.	127.49
2731	3.5	-2.75	0.	127.84
2732	-6.5	1.25	0.	121.11
2733	-6.5	0.75	0.	119.62
2734	-6.75	1.	0.	121.29
2735	-3.5	0.25	0.	130.15
2736	-3.75	0.5	0.	129.63
2737	-4.	-7.25	0.	127.42
2738	-4.25	-7.	0.	127.78
2739	-4.	-6.75	0.	127.81
2740	-3.75	-4.5	0.	130.42
2741	-3.5	-4.25	0.	130.79
2742	-4.	-5.75	0.	128.03
2743	-4.	-5.25	0.	128.49
2744	-4.25	-5.5	0.	127.51
2745	-6.75	1.5	0.	122.35
2746	-6.5	1.75	0.	122.23
2747	5.25	6.	0.	122.47
2748	5.75	6.	0.	123.26
2749	5.5	6.25	0.	122.64
2750	6.25	5.5	0.	124.38
2751	6.	5.75	0.	123.61
2752	4.5	-0.75	0.	120.34
2753	4.25	-1.	0.	122.51
2754	-0.5	7.25	0.	121.74
2755	-0.75	7.	0.	122.46
2756	-0.5	6.75	0.	120.75
2757	3.5	6.75	0.	127.44
2758	3.75	6.5	0.	126.93
2759	3.25	7.	0.	127.43
2760	3.	7.25	0.	126.85
2761	5.75	-2.5	0.	119.11
2762	6.25	-2.5	0.	119.51
2763	6.	-2.75	0.	117.86
2764	6.	-6.25	0.	118.46
2765	5.75	-6.5	0.	119.97
2766	6.25	-6.5	0.	120.03
2767	5.	4.25	0.	116.32
2768	5.25	4.5	0.	118.35
2769	4.75	4.5	0.	118.4
2770	5.	-0.25	0.	116.36
2771	4.75	-0.5	0.	118.57
2772	5.25	-0.5	0.	117.96
2773	-2.25	4.	0.	128.83
2774	-2.5	3.75	0.	127.8
2775	-2.5	4.25	0.	127.51
2776	-3.75	-2.	0.	129.74
2777	-3.5	-1.75	0.	128.74
2778	-3.5	-2.25	0.	128.96
2779	-6.	0.25	0.	116.18
2780	-5.75	0.5	0.	118.55
2781	-6.25	0.5	0.	118.2
2782	4.75	-7.	0.	124.08
2783	4.5	-7.25	0.	124.74
2784	4.5	-6.75	0.	125.42
2785	5.	-7.25	0.	123.24
2786	5.	-6.75	0.	123.23
2787	3.25	-5.5	0.	127.03
2788	3.	-5.25	0.	126.29
2789	4.5	-2.25	0.	124.43
2790	4.75	-2.	0.	122.58
2791	-3.	-7.25	0.	127.8
2792	-2.75	-7.	0.	128.22
2793	-3.	-6.75	0.	128.24
2794	-1.5	-5.25	0.	125.67
2795	-1.25	-5.	0.	124.67
2796	-1.5	-4.75	0.	125.78
2797	-2.3944e-011	-5.25	0.	122.37
2798	0.25	-5.	0.	123.35
2799	1.75	-6.5	0.	127.51
2800	2.	-6.75	0.	127.19
2801	3.75	5.	0.	124.84
2802	4.	4.75	0.	123.23
2803	3.5	4.75	0.	126.48
2804	3.25	5.	0.	127.35
2805	6.25	-1.	0.	122.14
2806	6.	-0.75	0.	121.27
2807	6.5	-0.75	0.	124.02
2808	5.	6.25	0.	122.76
2809	4.75	6.	0.	123.03
2810	1.	7.25	0.	123.14
2811	1.	6.75	0.	123.25
2812	1.25	7.	0.	124.18
2813	2.75	5.5	0.	129.33
2814	3.	5.25	0.	128.46
2815	-1.25	1.	0.	126.35
2816	-1.5	1.25	0.	127.86
2817	-0.75	1.	0.	124.43
2818	-1.	1.25	0.	125.18
2819	-1.	0.75	0.	125.35
2820	1.	-2.75	0.	123.29
2821	0.75	-3.	0.	123.92
2822	-1.	-1.25	0.	125.86
2823	-0.75	-1.	0.	125.63
2824	-0.75	-1.5	0.	126.32
2825	-0.75	-1.647e-010	0.	124.98
2826	-1.	0.25	0.	125.33
2827	2.25	-3.	0.	124.99
2828	2.	-2.75	0.	124.1
2829	2.5	-2.75	0.	126.07
2830	2.75	-3.	0.	126.36
2831	-3.25	-3.	0.	129.6
2832	-3.	-3.25	0.	129.29
2833	-4.75	1.	0.	124.83
2834	-4.5	0.75	0.	126.69
2835	-5.	0.75	0.	123.45
2836	-3.25	-0.5	0.	129.66
2837	-3.	-0.75	0.	128.72
2838	-6.	2.75	0.	122.01
2839	-6.25	2.5	0.	122.47
2840	-6.	3.25	0.	121.62
2841	-6.25	3.	0.	121.81
2842	-4.25	-6.	0.	127.82
2843	-4.	-6.25	0.	127.98
2844	7.25	-2.	0.	124.82
2845	7.	-2.25	0.	123.64
2846	6.75	5.	0.	127.6
2847	6.5	5.25	0.	125.7
2848	6.5	4.75	0.	126.46
2849	-6.25	-9.5291e-013	0.	115.72
2850	-5.75	-1.9827e-012	0.	116.08
2851	-6.	-0.25	0.	113.98
2852	-4.	-1.75	0.	130.52
2853	-4.	-2.25	0.	130.79
2854	-4.25	-2.	0.	133.58
2855	7.	4.75	0.	129.79
2856	7.	5.25	0.	128.69
2857	7.25	5.	0.	132.39
2858	2.25	4.	0.	131.21
2859	2.	4.25	0.	131.63
2860	2.	3.75	0.	131.56
2861	1.75	4.	0.	134.51
2862	-0.25	6.	0.	117.28
2863	0.25	6.	0.	117.15
2864	9.0642e-011	5.75	0.	115.44
2865	1.2398e-010	6.25	0.	117.28
2866	-2.	4.25	0.	129.97
2867	-1.75	4.	0.	133.29
2868	-2.	3.75	0.	130.08
2869	5.25	1.2824e-011	0.	116.09
2870	4.75	1.1383e-011	0.	116.62
2871	5.	0.25	0.	114.78
2872	4.75	4.	0.	116.2
2873	5.25	4.	0.	116.28
2874	5.	3.75	0.	114.54
2875	6.25	-6.	0.	118.4
2876	5.75	-6.	0.	118.32
2877	6.	-5.75	0.	117.32
2878	3.5	7.25	0.	127.2
2879	3.75	7.	0.	127.63
2880	-0.75	7.5	0.	122.88
2881	-1.25	7.5	0.	124.5
2882	-1.	7.25	0.	123.61
2883	-1.	7.75	0.	123.83
2884	-0.25	7.5	0.	121.87
2885	-0.5	7.75	0.	122.6
2886	0.25	7.5	0.	121.79
2887	7.0368e-011	7.75	0.	122.08
2888	0.75	7.5	0.	122.59
2889	0.5	7.75	0.	122.4
2890	1.25	7.5	0.	123.83
2891	1.	7.75	0.	123.3
2892	1.75	7.5	0.	124.98
2893	1.5	7.75	0.	124.33
2894	1.5	7.25	0.	124.87
2895	2.25	7.5	0.	125.74
2896	2.	7.75	0.	125.11
2897	2.75	7.5	0.	126.17
2898	2.5	7.75	0.	125.53
2899	3.25	7.5	0.	126.62
2900	3.	7.75	0.	125.76
2901	4.25	-0.5	0.	121.67
2902	4.5	-0.25	0.	118.86
2903	6.5	5.75	0.	125.79
2904	6.75	5.5	0.	126.79
2905	6.25	6.	0.	125.03
2906	6.	6.25	0.	124.48
2907	-7.	1.25	0.	122.53
2908	-7.25	1.5	0.	123.18
2909	-7.	1.75	0.	123.55
2910	-4.	-4.75	0.	129.67
2911	-4.25	-5.	0.	128.2
2912	-4.25	-4.5	0.	129.82
2913	-4.	-4.25	0.	131.35
2914	5.75	4.5	0.	121.03
2915	5.5	4.25	0.	118.35
2916	-4.5	-5.75	0.	127.31
2917	-4.5	-5.25	0.	127.22
2918	-4.75	-5.5	0.	126.01
2919	-2.75	-7.5	0.	127.82
2920	-3.	-7.75	0.	127.64
2921	-3.25	-7.5	0.	127.51
2922	-4.25	-7.5	0.	127.14
2923	-4.	-7.75	0.	127.23
2924	-3.75	-7.5	0.	127.31
2925	-4.5	-7.25	0.	127.5
2926	-4.75	-7.5	0.	126.76
2927	-4.5	-7.75	0.	127.
2928	-6.5	2.25	0.	122.71
2929	-6.75	2.	0.	123.42
2930	-3.5	-0.25	0.	130.31
2931	-3.75	-1.9123e-011	0.	130.6
2932	-3.75	-1.5	0.	129.52
2933	-3.25	-1.5	0.	128.29
2934	-3.5	-1.25	0.	129.12
2935	-5.25	0.5	0.	121.46
2936	-5.5	0.25	0.	118.5
2937	-4.25	0.5	0.	128.26
2938	-4.	0.25	0.	130.08
2939	-6.5	0.25	0.	117.8
2940	-6.75	0.5	0.	120.36
2941	-7.	0.75	0.	122.04
2942	-7.25	1.	0.	122.89
2943	-3.5	-2.75	0.	129.75
2944	-3.75	-2.5	0.	130.02
2945	2.75	-2.5	0.	127.12
2946	3.	-2.25	0.	128.42
2947	3.	-2.75	0.	127.4
2948	3.5	-1.75	0.	127.61
2949	3.25	-2.	0.	128.41
2950	4.	-1.25	0.	124.43
2951	3.75	-1.5	0.	126.15
2952	3.75	-1.	0.	125.45
2953	4.	-0.75	0.	123.85
2954	5.373e-011	1.75	0.	118.1
2955	-0.25	2.	0.	117.63
2956	4.584e-011	2.25	0.	115.42
2957	0.25	2.	0.	117.04
2958	-0.25	1.5	0.	120.72
2959	0.25	1.5	0.	120.06
2960	4.0061e-011	1.25	0.	121.58
2961	-0.5	1.25	0.	122.58
2962	-0.25	1.	0.	123.4
2963	-0.5	0.75	0.	124.1
2964	-0.5	-1.75	0.	126.59
2965	-0.25	-2.	0.	126.92
2966	-0.5	-2.25	0.	126.42
2967	-0.5	-0.25	0.	124.79
2968	-0.25	-0.5	0.	124.87
2969	-0.5	-0.75	0.	125.27
2970	1.25	-2.5	0.	122.68
2971	1.75	-2.5	0.	123.12
2972	1.5	-2.25	0.	121.13
2973	1.3742e-010	-2.25	0.	126.57
2974	-0.25	-2.5	0.	126.07
2975	0.25	-2.5	0.	125.41
2976	-2.5	2.25	0.	130.42
2977	-2.25	2.	0.	130.99
2978	-2.25	3.5	0.	129.05
2979	-2.5	3.25	0.	128.63
2980	-2.75	3.5	0.	127.45
2981	-0.75	1.5	0.	123.32
2982	-0.5	1.75	0.	120.33
2983	-2.	1.75	0.	130.71
2984	-1.75	1.5	0.	129.17
2985	2.75	2.	0.	131.52
2986	3.	1.75	0.	132.71
2987	3.25	2.	0.	135.47
2988	3.	2.25	0.	132.23
2989	2.5	1.75	0.	130.32
2990	2.25	2.	0.	129.7
2991	2.5	2.25	0.	130.58
2992	2.5	5.75	0.	129.91
2993	2.25	6.	0.	130.04
2994	2.75	4.5	0.	129.55
2995	2.5	4.25	0.	130.34
2996	2.5	4.75	0.	130.13
2997	2.25	4.5	0.	130.76
2998	0.75	6.5	0.	121.66
2999	0.5	6.25	0.	119.13
3000	0.25	6.5	0.	119.22
3001	2.	6.25	0.	129.39
3002	1.75	6.5	0.	127.49
3003	-1.5	7.25	0.	125.86
3004	-1.5	7.75	0.	125.5
3005	-1.75	7.5	0.	126.13
3006	-1.25	7.	0.	124.97
3007	-1.	6.75	0.	123.86
3008	-2.5	4.75	0.	127.83
3009	-2.25	4.5	0.	128.65
3010	-3.	5.25	0.	125.83
3011	-2.75	5.	0.	127.01
3012	-3.25	5.5	0.	124.74
3013	-3.75	5.5	0.	124.02
3014	-3.5	5.75	0.	122.62
3015	5.25	6.5	0.	122.94
3016	5.5	6.75	0.	122.05
3017	5.75	6.5	0.	123.86
3018	4.	6.75	0.	127.12
3019	4.25	6.5	0.	125.7
3020	-6.25	7.5	0.	122.48
3021	-6.5	7.75	0.	122.36
3022	-6.5	7.25	0.	120.45
3023	-6.75	7.5	0.	122.07
3024	-5.25	3.5	0.	124.24
3025	-5.	3.75	0.	125.69
3026	-6.25	3.5	0.	120.99
3027	-6.5	3.25	0.	121.19
3028	-6.5	3.75	0.	119.69
3029	-6.75	3.5	0.	121.38
3030	-4.5	4.25	0.	125.98
3031	-4.75	4.	0.	126.15
3032	-4.	4.75	0.	124.97
3033	-4.25	4.5	0.	125.63
3034	-3.75	4.5	0.	125.13
3035	-4.25	5.	0.	125.31
3036	-4.	5.25	0.	124.55
3037	6.75	-0.5	0.	125.73
3038	7.	-0.25	0.	127.66
3039	7.25	-0.5	0.	127.03
3040	5.5	-0.25	0.	117.73
3041	5.75	-0.5	0.	119.98
3042	3.25	4.5	0.	127.83
3043	3.	4.25	0.	129.63
3044	3.	4.75	0.	128.7
3045	4.25	4.5	0.	121.13
3046	4.5	4.25	0.	118.33
3047	2.75	4.	0.	130.42
3048	2.5	3.75	0.	130.72
3049	1.5	-6.25	0.	127.5
3050	1.25	-6.	0.	127.32
3051	7.25	-7.5	0.	123.96
3052	7.5	-7.25	0.	124.83
3053	7.5	-7.75	0.	124.45
3054	7.75	-7.5	0.	125.06
3055	6.75	-7.5	0.	122.81
3056	7.	-7.25	0.	123.33
3057	7.	-7.75	0.	123.4
3058	6.25	-7.5	0.	122.06
3059	6.5	-7.75	0.	122.52
3060	5.75	-7.5	0.	122.05
3061	6.	-7.75	0.	122.17
3062	5.25	-7.5	0.	122.77
3063	5.5	-7.75	0.	122.51
3064	4.75	-7.5	0.	123.91
3065	5.	-7.75	0.	123.38
3066	4.5	-7.75	0.	124.45
3067	4.25	-7.5	0.	125.03
3068	3.25	-7.5	0.	126.34
3069	3.5	-7.75	0.	126.02
3070	3.5	-7.25	0.	126.44
3071	3.75	-7.5	0.	125.85
3072	2.75	-7.5	0.	126.59
3073	3.	-7.75	0.	126.4
3074	2.25	-7.5	0.	126.75
3075	2.5	-7.75	0.	126.63
3076	1.75	-7.5	0.	127.04
3077	2.	-7.75	0.	126.83
3078	2.	-7.25	0.	126.97
3079	1.25	-7.5	0.	127.66
3080	1.5	-7.75	0.	127.26
3081	1.5	-7.25	0.	127.38
3082	1.	-5.75	0.	126.62
3083	0.75	-5.5	0.	125.07
3084	-1.75	-5.5	0.	126.79
3085	-2.	-5.75	0.	128.41
3086	-0.25	-5.5	0.	121.36
3087	-0.5	-5.75	0.	119.18
3088	-0.75	-5.5	0.	121.7
3089	-2.5	-7.25	0.	128.24
3090	-2.5	-7.75	0.	128.04
3091	-2.25	-7.5	0.	128.4
3092	-2.25	-6.	0.	128.98
3093	-2.5	-6.25	0.	129.02
3094	4.25	-2.5	0.	126.12
3095	4.	-2.75	0.	127.7
3096	5.5	-2.75	0.	119.06
3097	5.25	-2.5	0.	120.88
3098	3.25	-3.	0.	127.39
3099	3.75	-3.	0.	128.06
3100	3.5	-3.25	0.	127.5
3101	3.5	-5.75	0.	127.55
3102	3.75	-6.	0.	128.08
3103	5.25	-6.5	0.	121.91
3104	5.5	-6.25	0.	119.86
3105	4.25	-6.5	0.	126.52
3106	4.	-6.25	0.	127.8
3107	6.75	-6.5	0.	122.07
3108	6.5	-6.25	0.	120.
3109	7.25	-7.	0.	124.2
3110	7.	-6.75	0.	123.4
3111	7.5	-6.75	0.	125.6
3112	7.75	-7.	0.	125.68
3113	6.75	-2.5	0.	121.95
3114	6.5	-2.75	0.	119.68
3115	7.25	2.	0.	127.91
3116	7.	1.75	0.	129.22
3117	7.	2.25	0.	129.73
3118	6.75	2.	0.	132.82
3119	7.5	1.75	0.	126.48
3120	7.75	2.	0.	125.2
3121	7.5	2.25	0.	126.5
3122	7.5	1.25	0.	127.11
3123	7.75	1.5	0.	125.93
3124	7.25	1.5	0.	127.79
3125	7.5	0.25	0.	128.21
3126	7.75	9.3558e-012	0.	127.84
3127	7.25	1.2171e-011	0.	128.38
3128	7.5	-0.25	0.	127.75
3129	7.5	-1.25	0.	126.25
3130	7.75	-1.	0.	126.85
3131	7.5	-0.75	0.	126.94
3132	7.5	-1.75	0.	125.96
3133	7.75	-1.5	0.	126.53
3134	7.5	-2.25	0.	126.25
3135	7.75	-2.	0.	126.63
3136	7.25	-2.5	0.	125.07
3137	7.75	-2.5	0.	127.31
3138	7.5	-2.75	0.	127.44
3139	7.	-2.75	0.	123.75
3140	7.25	-6.5	0.	124.8
3141	7.	-6.25	0.	123.75
3142	7.75	-6.5	0.	126.73
3143	7.5	-6.25	0.	127.11
3144	4.75	-6.5	0.	124.58
3145	4.5	-6.25	0.	126.82
3146	5.	-6.25	0.	123.49
3147	3.75	-5.5	0.	128.12
3148	3.5	-5.25	0.	126.8
3149	3.75	-4.	0.	126.67
3150	3.5	-4.25	0.	125.83
3151	3.25	-4.	0.	125.82
3152	3.5	-3.75	0.	126.64
3153	4.5	-2.75	0.	126.25
3154	4.75	-2.5	0.	123.7
3155	-2.25	-7.	0.	128.89
3156	-2.5	-6.75	0.	128.71
3157	-1.5	-5.75	0.	126.3
3158	-1.25	-5.5	0.	124.16
3159	-3.6548e-011	-5.75	0.	121.33
3160	0.25	-5.5	0.	123.1
3161	1.25	-6.5	0.	128.15
3162	1.5	-6.75	0.	127.62
3163	3.75	4.5	0.	124.87
3164	4.	4.25	0.	123.18
3165	3.5	4.25	0.	127.72
3166	7.5	0.75	0.	127.9
3167	7.75	0.5	0.	127.73
3168	7.25	0.5	0.	129.1
3169	7.25	1.	0.	128.57
3170	7.75	1.	0.	126.92
3171	6.5	-0.25	0.	126.07
3172	6.25	-0.5	0.	123.15
3173	-4.5	4.75	0.	125.98
3174	-4.75	4.5	0.	126.9
3175	-4.5	5.25	0.	126.08
3176	-4.75	5.	0.	126.76
3177	-5.75	3.5	0.	122.47
3178	-6.	3.75	0.	121.35
3179	-5.5	3.75	0.	124.52
3180	-7.75	7.5	0.	124.84
3181	-7.5	7.75	0.	124.24
3182	-7.5	7.25	0.	124.97
3183	-7.25	7.5	0.	123.4
3184	5.	6.75	0.	123.07
3185	4.75	6.5	0.	124.01
3186	-2.75	5.5	0.	127.5
3187	-3.	5.75	0.	125.54
3188	-2.5	5.25	0.	128.67
3189	-2.25	5.5	0.	130.69
3190	-2.5	5.75	0.	129.94
3191	-2.25	5.	0.	129.54
3192	-1.5	6.75	0.	127.23
3193	-1.75	7.	0.	127.68
3194	-1.25	6.5	0.	126.13
3195	-1.	6.25	0.	124.45
3196	-0.75	6.5	0.	122.15
3197	-1.5	6.25	0.	129.36
3198	-1.75	6.5	0.	129.73
3199	1.	6.25	0.	123.76
3200	1.25	6.5	0.	125.03
3201	2.5	5.25	0.	130.15
3202	2.25	5.	0.	131.01
3203	2.75	5.	0.	129.28
3204	2.25	5.5	0.	131.08
3205	2.25	3.	0.	131.11
3206	2.75	3.	0.	131.43
3207	2.5	3.25	0.	130.9
3208	2.5	2.75	0.	130.84
3209	1.75	1.5	0.	125.35
3210	1.5	1.25	0.	122.2
3211	1.25	1.5	0.	122.77
3212	1.5	1.75	0.	125.44
3213	-1.	1.75	0.	125.06
3214	-1.25	1.5	0.	126.7
3215	-2.25	2.5	0.	131.18
3216	-2.5	2.75	0.	129.71
3217	-2.75	2.5	0.	129.54
3218	1.	-2.25	0.	122.74
3219	0.75	-2.5	0.	123.97
3220	-0.25	-1.5	0.	127.19
3221	-0.5	-1.25	0.	126.09
3222	-0.25	-1.3637e-010	0.	125.1
3223	-0.5	0.25	0.	124.66
3224	0.5	1.25	0.	121.86
3225	0.75	1.5	0.	121.02
3226	0.5	1.75	0.	119.08
3227	3.5	-1.25	0.	127.18
3228	3.25	-1.5	0.	128.66
3229	3.5	-0.75	0.	127.25
3230	3.25	-1.	0.	128.22
3231	2.25	-2.5	0.	125.18
3232	2.	-2.25	0.	123.7
3233	2.5	-2.25	0.	127.3
3234	-3.75	-3.	0.	131.22
3235	-3.5	-3.25	0.	130.72
3236	-4.75	0.5	0.	125.31
3237	-4.5	0.25	0.	128.27
3238	-5.	0.25	0.	123.59
3239	-3.75	-0.5	0.	130.98
3240	-3.5	-0.75	0.	129.85
3241	-6.5	2.75	0.	122.27
3242	-6.75	2.5	0.	123.8
3243	-6.75	3.	0.	122.83
3244	-4.5	-6.75	0.	128.18
3245	-4.75	-7.	0.	128.47
3246	-4.5	-6.25	0.	128.06
3247	-4.75	-6.5	0.	129.37
3248	-4.25	-6.5	0.	128.21
3249	-4.75	-6.	0.	127.85
3250	6.75	-6.	0.	121.68
3251	6.5	-5.75	0.	118.
3252	5.5	-3.25	0.	117.38
3253	5.75	-3.	0.	117.8
3254	5.25	-3.	0.	120.86
3255	1.	-7.75	0.	128.33
3256	0.75	-7.5	0.	129.81
3257	1.	-7.25	0.	128.28
3258	4.25	4.	0.	120.38
3259	4.5	3.75	0.	115.82
3260	5.75	1.2968e-011	0.	119.73
3261	5.5	0.25	0.	115.56
3262	2.25	1.5	0.	128.59
3263	2.	1.75	0.	127.99
3264	2.	1.25	0.	126.14
3265	2.75	1.5	0.	131.52
3266	2.5	1.25	0.	130.9
3267	3.	1.25	0.	133.63
3268	3.25	1.5	0.	134.97
3269	-0.75	6.	0.	121.7
3270	-0.5	5.75	0.	116.89
3271	-0.5	6.25	0.	119.4
3272	2.	4.75	0.	131.64
3273	1.75	4.5	0.	133.5
3274	6.25	4.5	0.	125.02
3275	6.	4.25	0.	123.39
3276	6.75	4.5	0.	128.65
3277	6.5	4.25	0.	128.45
3278	7.	4.25	0.	131.36
3279	7.25	4.5	0.	132.45
3280	-6.75	-5.0692e-013	0.	119.54
3281	-6.5	-0.25	0.	114.97
3282	-4.	-1.25	0.	130.67
3283	-4.25	-1.5	0.	132.47
3284	-4.5	-4.75	0.	128.35
3285	-4.75	-5.	0.	126.67
3286	-4.5	-4.25	0.	130.34
3287	-4.75	-4.5	0.	128.06
3288	-7.75	1.5	0.	123.12
3289	-7.5	1.75	0.	124.06
3290	-7.5	1.25	0.	123.53
3291	6.5	6.25	0.	126.69
3292	6.75	6.	0.	127.05
3293	3.75	-0.5	0.	125.64
3294	4.	-0.25	0.	124.12
3295	3.25	-0.5	0.	128.46
3296	3.5	-0.25	0.	129.
3297	3.5	7.75	0.	126.22
3298	3.75	7.5	0.	127.59
3299	-4.25	5.5	0.	125.32
3300	-4.	5.75	0.	124.23
3301	-4.75	5.5	0.	126.81
3302	-4.5	5.75	0.	127.38
3303	-5.75	7.5	0.	124.66
3304	-6.	7.75	0.	123.68
3305	-6.	7.25	0.	123.07
3306	-5.25	7.5	0.	126.88
3307	-5.5	7.75	0.	125.97
3308	-5.5	7.25	0.	126.99
3309	7.25	-8.	0.	123.89
3310	7.75	-8.	0.	124.73
3311	7.5	-8.25	0.	124.28
3312	6.75	-8.	0.	123.11
3313	7.	-8.25	0.	123.51
3314	6.25	-8.	0.	122.62
3315	6.5	-8.25	0.	122.92
3316	5.75	-8.	0.	122.62
3317	6.	-8.25	0.	122.7
3318	5.25	-8.	0.	123.11
3319	5.5	-8.25	0.	122.94
3320	4.75	-8.	0.	123.92
3321	5.	-8.25	0.	123.56
3322	4.25	-8.	0.	124.79
3323	4.5	-8.25	0.	124.36
3324	3.75	-8.	0.	125.54
3325	4.	-8.25	0.	125.16
3326	4.	-7.75	0.	125.37
3327	3.25	-8.	0.	126.09
3328	3.5	-8.25	0.	125.83
3329	2.75	-8.	0.	126.45
3330	3.	-8.25	0.	126.33
3331	2.25	-8.	0.	126.71
3332	2.5	-8.25	0.	126.7
3333	1.75	-8.	0.	127.05
3334	2.	-8.25	0.	127.02
3335	1.25	-8.	0.	127.93
3336	1.5	-8.25	0.	127.48
3337	1.	-8.25	0.	128.46
3338	0.75	-8.	0.	130.81
3339	8.	1.75	0.	124.65
3340	8.	2.25	0.	123.72
3341	8.25	2.	0.	123.71
3342	8.25	1.5	0.	124.87
3343	8.	1.25	0.	125.74
3344	8.	0.25	0.	127.37
3345	8.25	0.5	0.	126.87
3346	8.	0.75	0.	126.74
3347	8.	-0.25	0.	127.5
3348	8.25	5.6868e-012	0.	127.32
3349	8.	-0.75	0.	127.32
3350	8.25	-0.5	0.	127.39
3351	7.75	-0.5	0.	127.4
3352	8.	-1.25	0.	127.13
3353	8.25	-1.	0.	127.31
3354	8.	-1.75	0.	127.19
3355	8.25	-1.5	0.	127.32
3356	8.	-2.25	0.	127.69
3357	8.25	-2.	0.	127.58
3358	8.	-2.75	0.	128.65
3359	8.25	-2.5	0.	128.17
3360	8.	-6.75	0.	126.81
3361	8.	-6.25	0.	128.06
3362	8.25	-6.5	0.	127.4
3363	8.	-7.25	0.	125.91
3364	8.25	-7.	0.	126.51
3365	8.	-7.75	0.	125.35
3366	8.25	-7.5	0.	125.86
3367	8.	-8.25	0.	125.02
3368	8.25	-8.	0.	125.44
3369	-6.25	4.	0.	120.04
3370	-6.75	4.	0.	120.92
3371	-6.5	4.25	0.	116.02
3372	-5.	-7.25	0.	127.74
3373	-5.	-7.75	0.	126.69
3374	-5.25	-7.5	0.	127.26
3375	-2.25	-8.	0.	128.65
3376	-2.	-7.75	0.	129.01
3377	-2.	-8.25	0.	129.14
3378	-1.75	-8.	0.	131.38
3379	-2.75	-8.	0.	127.86
3380	-2.5	-8.25	0.	128.3
3381	-3.25	-8.	0.	127.57
3382	-3.	-8.25	0.	127.95
3383	-3.75	-8.	0.	127.36
3384	-3.5	-8.25	0.	127.72
3385	-3.5	-7.75	0.	127.44
3386	-4.25	-8.	0.	127.09
3387	-4.	-8.25	0.	127.47
3388	-4.75	-8.	0.	126.93
3389	-4.5	-8.25	0.	127.19
3390	-5.	7.25	0.	129.08
3391	-5.	7.75	0.	128.05
3392	-4.75	7.5	0.	129.79
3393	-8.	7.75	0.	125.12
3394	-8.	7.25	0.	125.83
3395	-8.25	7.5	0.	125.41
3396	-7.75	8.	0.	124.52
3397	-8.	8.25	0.	124.83
3398	-8.25	8.	0.	125.03
3399	-7.5	8.25	0.	124.25
3400	-7.25	8.	0.	123.71
3401	-6.25	8.	0.	123.56
3402	-6.5	8.25	0.	123.55
3403	-6.75	8.	0.	123.16
3404	-5.75	8.	0.	124.99
3405	-6.	8.25	0.	124.45
3406	-5.25	8.	0.	127.14
3407	-5.5	8.25	0.	126.16
3408	6.75	-3.	0.	121.48
3409	6.5	-3.25	0.	117.76
3410	6.25	-3.	0.	118.02
3411	8.25	-3.	0.	128.9
3412	8.	-3.25	0.	129.45
3413	7.75	-3.	0.	128.77
3414	8.	-4.75	0.	127.2
3415	8.	-4.25	0.	127.3
3416	8.25	-4.5	0.	126.47
3417	7.75	-4.5	0.	128.13
3418	7.75	-6.	0.	128.43
3419	8.	-5.75	0.	129.04
3420	8.25	-6.	0.	128.37
3421	5.25	-6.	0.	121.44
3422	5.5	-5.75	0.	117.83
3423	4.	-5.75	0.	128.65
3424	4.25	-6.	0.	128.09
3425	4.	-4.25	0.	126.42
3426	4.	-4.75	0.	126.48
3427	4.25	-4.5	0.	127.41
3428	3.75	-4.5	0.	125.58
3429	-2.	-7.25	0.	129.05
3430	-1.75	-7.5	0.	130.39
3431	-1.75	-6.	0.	127.9
3432	-2.	-6.25	0.	129.3
3433	-0.25	-6.	0.	119.11
3434	-0.5	-6.25	0.	113.61
3435	-0.75	-6.	0.	119.36
3436	1.	-6.25	0.	127.98
3437	0.75	-6.	0.	126.61
3438	3.25	4.	0.	129.51
3439	3.	3.75	0.	131.
3440	5.75	4.	0.	120.71
3441	5.5	3.75	0.	116.01
3442	7.	1.25	0.	129.25
3443	6.75	1.5	0.	131.41
3444	6.75	1.3012e-011	0.	127.98
3445	7.	0.25	0.	129.27
3446	4.25	8.362e-012	0.	121.31
3447	4.5	0.25	0.	116.59
3448	-5.	5.25	0.	127.49
3449	-5.25	5.5	0.	129.12
3450	-5.	5.75	0.	128.77
3451	-5.25	4.	0.	125.95
3452	-5.	4.25	0.	127.07
3453	-8.	5.75	0.	124.13
3454	-8.25	5.5	0.	122.42
3455	-8.	5.25	0.	123.29
3456	-7.75	5.5	0.	125.86
3457	-7.75	7.	0.	125.95
3458	-8.	6.75	0.	126.47
3459	-8.25	7.	0.	125.95
3460	-6.25	7.	0.	121.02
3461	-6.75	7.	0.	120.42
3462	-6.5	6.75	0.	116.11
3463	5.75	7.	0.	123.57
3464	5.25	7.	0.	122.18
3465	5.5	7.25	0.	118.16
3466	4.	7.25	0.	128.02
3467	4.25	7.	0.	127.3
3468	-1.25	8.	0.	124.84
3469	-1.75	8.	0.	126.73
3470	-1.5	8.25	0.	125.88
3471	-0.75	8.	0.	123.55
3472	-1.	8.25	0.	124.39
3473	-0.25	8.	0.	122.81
3474	-0.5	8.25	0.	123.43
3475	0.25	8.	0.	122.69
3476	4.5831e-011	8.25	0.	123.03
3477	0.75	8.	0.	123.11
3478	0.5	8.25	0.	123.15
3479	1.25	8.	0.	123.8
3480	1.	8.25	0.	123.63
3481	1.5	8.25	0.	124.2
3482	1.75	8.	0.	124.47
3483	2.75	8.	0.	125.11
3484	2.5	8.25	0.	124.8
3485	2.25	8.	0.	124.9
3486	3.25	8.	0.	125.36
3487	3.	8.25	0.	124.81
3488	3.75	8.	0.	126.21
3489	3.5	8.25	0.	125.02
3490	-3.25	6.	0.	123.39
3491	-3.75	6.	0.	122.8
3492	-3.5	6.25	0.	118.31
3493	-2.	7.25	0.	127.95
3494	-2.	7.75	0.	127.36
3495	-2.25	7.5	0.	129.07
3496	-2.	4.75	0.	130.35
3497	-1.75	4.5	0.	132.35
3498	0.75	6.	0.	121.23
3499	0.5	5.75	0.	116.67
3500	2.	5.75	0.	131.21
3501	1.75	6.	0.	129.87
3502	2.	3.25	0.	131.28
3503	1.75	3.5	0.	133.18
3504	2.25	3.5	0.	131.07
3505	2.	2.25	0.	129.93
3506	1.75	2.	0.	128.04
3507	-0.75	2.	0.	122.06
3508	-0.5	2.25	0.	117.09
3509	-2.	2.25	0.	131.74
3510	-1.75	2.	0.	130.84
3511	7.25	2.5	0.	128.32
3512	6.75	2.5	0.	132.55
3513	7.	2.75	0.	131.03
3514	7.75	2.5	0.	125.01
3515	7.5	2.75	0.	127.76
3516	8.	2.75	0.	122.96
3517	8.25	2.5	0.	122.45
3518	7.	5.75	0.	128.04
3519	7.25	5.5	0.	130.42
3520	1.75	-2.	0.	121.7
3521	1.25	-2.	0.	121.16
3522	1.5	-1.75	0.	116.76
3523	1.1658e-010	-1.75	0.	127.51
3524	0.25	-2.	0.	126.79
3525	2.8778e-011	-0.25	0.	125.18
3526	4.9252e-011	-0.75	0.	125.8
3527	0.25	-0.5	0.	126.87
3528	0.25	1.	0.	123.31
3529	2.4208e-011	0.75	0.	124.31
3530	1.75	1.	0.	122.94
3531	1.5	0.75	0.	117.26
3532	1.25	1.	0.	121.
3533	3.	-0.25	0.	131.1
3534	2.75	-0.5	0.	131.01
3535	3.	-0.75	0.	129.44
3536	2.75	-2.	0.	128.6
3537	3.	-1.75	0.	129.46
3538	6.25	6.5	0.	126.14
3539	6.	6.75	0.	125.38
3540	6.5	6.75	0.	128.79
3541	6.75	6.5	0.	127.76
3542	-4.	-2.75	0.	131.48
3543	-4.25	-2.5	0.	132.91
3544	-4.25	-4.	0.	131.86
3545	-3.75	-4.	0.	131.72
3546	-4.	-3.75	0.	132.69
3547	-5.25	-3.7057e-012	0.	120.63
3548	-5.5	-0.25	0.	115.68
3549	-4.	-0.25	0.	131.27
3550	-4.25	-1.0465e-011	0.	130.08
3551	-7.	3.25	0.	123.02
3552	-7.	3.75	0.	122.63
3553	-7.25	3.5	0.	125.28
3554	-7.25	2.	0.	124.42
3555	-7.	2.25	0.	124.51
3556	-8.	-2.25	0.	128.48
3557	-8.25	-2.5	0.	128.14
3558	-7.75	-2.5	0.	129.83
3559	-8.	-2.75	0.	128.52
3560	-8.	-1.75	0.	128.63
3561	-7.75	-2.	0.	131.23
3562	-8.25	-2.	0.	128.2
3563	-8.25	-1.5	0.	128.12
3564	-7.75	-1.5	0.	130.54
3565	-8.	-1.25	0.	128.93
3566	-8.	0.25	0.	127.22
3567	-7.75	-5.1653e-013	0.	127.72
3568	-8.25	-5.8772e-013	0.	128.13
3569	-8.	-0.25	0.	128.98
3570	-8.	0.75	0.	125.22
3571	-8.25	0.5	0.	126.37
3572	-7.75	0.5	0.	125.45
3573	-8.	1.25	0.	123.55
3574	-8.25	1.	0.	124.55
3575	-7.75	1.	0.	123.96
3576	-8.	1.75	0.	122.26
3577	-8.25	1.5	0.	122.74
3578	-5.	-5.25	0.	125.44
3579	-5.	-5.75	0.	126.55
3580	-5.25	-5.5	0.	125.5
3581	-6.25	-4.	0.	112.93
3582	-6.75	-4.	0.	113.84
3583	-6.5	-4.25	0.	111.33
3584	-6.5	-3.75	0.	111.06
3585	-5.25	-5.	0.	125.56
3586	-5.	-4.75	0.	126.37
3587	-6.	-4.25	0.	115.82
3588	-6.	-3.75	0.	113.13
3589	-5.75	-4.	0.	116.86
3590	-5.	-6.25	0.	129.16
3591	-5.25	-6.	0.	128.37
3592	-5.	-6.75	0.	129.65
3593	-5.25	-7.	0.	129.64
3594	-5.25	-6.5	0.	131.94
3595	-7.75	2.	0.	123.2
3596	-8.25	2.	0.	120.66
3597	-8.	2.25	0.	122.23
3598	-7.5	2.25	0.	126.49
3599	-7.25	3.	0.	125.81
3600	-7.	2.75	0.	124.35
3601	-4.	-0.75	0.	131.4
3602	-4.25	-1.	0.	131.78
3603	-3.75	-1.	0.	130.28
3604	-4.25	-0.5	0.	132.52
3605	-5.	-0.25	0.	124.67
3606	-4.75	-6.3516e-012	0.	126.55
3607	-7.25	-4.2669e-013	0.	124.72
3608	-7.	-0.25	0.	123.2
3609	-7.	0.25	0.	122.11
3610	-7.5	-0.25	0.	129.27
3611	-7.5	0.25	0.	125.97
3612	-8.	-3.75	0.	128.93
3613	-8.25	-3.5	0.	129.95
3614	-7.75	-3.5	0.	128.57
3615	-8.	-3.25	0.	129.05
3616	-7.	-4.25	0.	115.16
3617	-7.	-3.75	0.	117.61
3618	-7.25	-4.	0.	118.97
3619	-4.75	-4.	0.	129.08
3620	-5.	-3.75	0.	126.86
3621	-5.25	-4.	0.	123.29
3622	-5.	-4.25	0.	126.79
3623	-4.5	-3.75	0.	133.31
3624	-4.25	-3.	0.	132.99
3625	-4.	-3.25	0.	132.64
3626	6.75	7.	0.	128.87
3627	7.	6.75	0.	127.83
3628	7.25	7.	0.	125.04
3629	7.	7.25	0.	127.56
3630	6.25	7.	0.	128.03
3631	6.	7.25	0.	126.73
3632	6.5	7.25	0.	133.76
3633	2.25	-2.	0.	125.84
3634	2.	-1.75	0.	124.09
3635	2.5	-1.75	0.	130.26
3636	3.	0.25	0.	134.12
3637	3.25	1.8414e-012	0.	131.62
3638	2.75	8.9943e-013	0.	133.61
3639	2.25	1.	0.	128.46
3640	2.75	1.	0.	133.03
3641	2.5	0.75	0.	133.51
3642	2.	0.75	0.	125.45
3643	0.5	0.75	0.	125.8
3644	0.75	1.	0.	122.42
3645	2.0392e-011	0.25	0.	125.44
3646	0.25	0.5	0.	126.76
3647	-0.25	0.5	0.	125.
3648	0.25	-9.0154e-011	0.	126.73
3649	8.1736e-011	-1.25	0.	127.29
3650	0.25	-1.	0.	128.03
3651	-0.25	-1.	0.	126.2
3652	0.25	-1.5	0.	128.93
3653	0.75	-2.	0.	124.41
3654	0.5	-1.75	0.	128.22
3655	0.5	-2.25	0.	125.64
3656	1.	-1.75	0.	122.78
3657	7.	6.25	0.	128.12
3658	7.25	6.5	0.	128.45
3659	7.25	6.	0.	128.76
3660	6.75	4.	0.	131.15
3661	7.25	4.	0.	132.78
3662	7.	3.75	0.	133.13
3663	8.25	3.	0.	120.65
3664	8.	3.25	0.	123.15
3665	7.75	3.	0.	125.71
3666	-1.75	2.5	0.	133.08
3667	-2.	2.75	0.	131.64
3668	-1.	2.25	0.	125.79
3669	-1.25	2.	0.	127.67
3670	1.75	3.	0.	131.79
3671	2.	2.75	0.	131.08
3672	2.	5.25	0.	131.94
3673	1.75	5.	0.	132.65
3674	1.75	5.5	0.	132.89
3675	1.	5.75	0.	125.2
3676	1.25	6.	0.	126.71
3677	-1.25	6.	0.	127.69
3678	-1.	5.75	0.	125.73
3679	-1.5	5.75	0.	132.46
3680	-1.75	6.	0.	131.46
3681	-2.	5.25	0.	131.55
3682	-1.75	5.5	0.	133.25
3683	-2.	5.75	0.	132.26
3684	-1.75	5.	0.	132.
3685	-3.	6.25	0.	125.74
3686	-2.75	6.	0.	128.
3687	-2.25	7.	0.	130.52
3688	-2.	6.75	0.	130.17
3689	-5.	6.75	0.	131.24
3690	-5.25	7.	0.	129.19
3691	-4.75	7.	0.	131.48
3692	-4.25	6.	0.	126.3
3693	-4.5	6.25	0.	130.83
3694	-4.75	6.	0.	129.34
3695	-4.	6.25	0.	124.81
3696	4.	7.75	0.	127.58
3697	4.	8.25	0.	125.87
3698	4.25	8.	0.	128.4
3699	4.25	7.5	0.	129.43
3700	4.75	7.	0.	124.94
3701	4.5	7.25	0.	128.72
3702	4.5	6.75	0.	125.88
3703	5.	7.25	0.	123.45
3704	-5.25	6.5	0.	132.21
3705	-4.75	6.5	0.	132.61
3706	-5.	6.25	0.	131.13
3707	-5.75	7.	0.	125.4
3708	-5.5	6.75	0.	130.18
3709	-6.	6.75	0.	123.48
3710	-7.25	7.	0.	123.64
3711	-7.	6.75	0.	122.07
3712	-7.	7.25	0.	122.07
3713	-7.5	6.75	0.	127.42
3714	-8.	6.25	0.	125.93
3715	-8.25	6.5	0.	125.88
3716	-7.75	6.5	0.	127.92
3717	-8.25	6.	0.	124.41
3718	-7.75	6.	0.	126.94
3719	-5.75	4.	0.	123.4
3720	-6.	4.25	0.	122.14
3721	-5.5	4.25	0.	127.72
3722	-5.	4.75	0.	127.68
3723	-5.25	4.5	0.	128.81
3724	-5.25	5.	0.	128.93
3725	3.	0.75	0.	134.95
3726	3.25	1.	0.	134.97
3727	3.25	0.5	0.	135.56
3728	2.75	0.5	0.	135.42
3729	3.75	4.5307e-012	0.	127.47
3730	3.5	0.25	0.	133.1
3731	4.	0.25	0.	125.76
3732	6.25	1.3042e-011	0.	124.89
3733	6.	0.25	0.	123.51
3734	6.	-0.25	0.	121.97
3735	6.5	0.25	0.	129.63
3736	7.	0.75	0.	129.76
3737	6.75	0.5	0.	130.88
3738	6.75	1.	0.	130.63
3739	6.25	4.	0.	126.82
3740	6.5	3.75	0.	132.17
3741	6.	3.75	0.	125.02
3742	3.75	4.	0.	126.03
3743	4.	3.75	0.	124.36
3744	3.5	3.75	0.	130.93
3745	3.25	3.	0.	132.61
3746	3.	2.75	0.	131.89
3747	3.	3.25	0.	131.83
3748	0.75	-6.5	0.	129.09
3749	1.	-6.75	0.	128.53
3750	-3.2303e-011	-6.25	0.	120.99
3751	0.25	-6.	0.	123.3
3752	-1.5	-6.25	0.	128.68
3753	-1.25	-6.	0.	124.07
3754	-1.75	-7.	0.	129.59
3755	-2.	-6.75	0.	129.52
3756	4.5	-3.25	0.	129.2
3757	4.25	-3.	0.	127.82
3758	4.75	-3.	0.	125.22
3759	4.25	-4.	0.	128.5
3760	4.	-3.75	0.	127.98
3761	4.	-5.25	0.	128.12
3762	4.25	-5.	0.	128.67
3763	3.75	-5.	0.	126.81
3764	4.25	-5.5	0.	130.1
3765	5.	-5.75	0.	124.44
3766	4.75	-6.	0.	125.73
3767	7.25	-6.	0.	126.06
3768	7.	-5.75	0.	124.82
3769	7.5	-5.75	0.	129.96
3770	8.	-5.25	0.	128.67
3771	8.25	-5.5	0.	128.58
3772	7.75	-5.5	0.	130.56
3773	8.25	-5.	0.	127.48
3774	7.75	-5.	0.	129.2
3775	8.25	-4.	0.	127.7
3776	7.75	-4.	0.	129.44
3777	8.	-3.75	0.	128.94
3778	7.	-3.25	0.	124.64
3779	7.25	-3.	0.	126.12
3780	-5.	8.25	0.	128.55
3781	-4.75	8.	0.	129.91
3782	7.75	7.	0.	121.34
3783	7.5	6.75	0.	125.72
3784	7.5	7.25	0.	118.64
3785	-5.	-8.25	0.	127.2
3786	-5.25	-8.	0.	127.1
3787	-8.25	-4.	0.	130.56
3788	-8.	-4.25	0.	128.56
3789	-7.75	-4.	0.	125.46
3790	-8.5	-7.75	0.	127.07
3791	-8.25	-8.	0.	125.99
3792	-8.5	-8.25	0.	126.87
3793	-8.75	-8.	0.	127.58
3794	-8.25	-7.5	0.	125.74
3795	-8.5	-7.25	0.	128.66
3796	-8.75	-7.5	0.	128.29
3797	-8.5	-3.75	0.	131.57
3798	-8.75	-4.	0.	132.59
3799	-8.5	-4.25	0.	134.19
3800	-8.5	-3.25	0.	129.87
3801	-8.75	-3.5	0.	130.82
3802	-8.5	-2.75	0.	128.6
3803	-8.75	-3.	0.	129.3
3804	-8.25	-3.	0.	128.98
3805	-8.75	-2.5	0.	128.18
3806	-8.5	-2.25	0.	127.86
3807	-8.5	-1.25	0.	127.96
3808	-8.75	-1.5	0.	127.61
3809	-8.5	-1.75	0.	127.69
3810	-8.5	-0.75	0.	128.37
3811	-8.75	-1.	0.	127.97
3812	-8.25	-1.	0.	128.78
3813	-8.5	-0.25	0.	128.26
3814	-8.75	-0.5	0.	128.27
3815	-8.25	-0.5	0.	129.11
3816	-8.5	0.25	0.	127.29
3817	-8.75	-5.8651e-013	0.	127.9
3818	-8.5	0.75	0.	125.72
3819	-8.75	0.5	0.	126.9
3820	-8.5	1.25	0.	123.75
3821	-8.75	1.	0.	125.47
3822	-8.5	1.75	0.	121.17
3823	-8.75	1.5	0.	123.73
3824	-8.75	2.	0.	121.5
3825	-8.5	2.25	0.	116.44
3826	-8.	-8.25	0.	125.67
3827	-8.	-7.75	0.	124.65
3828	-7.75	-8.	0.	125.05
3829	-2.25	-8.5	0.	128.79
3830	-2.	-8.75	0.	129.49
3831	-1.75	-8.5	0.	130.35
3832	-2.75	-8.5	0.	128.39
3833	-2.5	-8.75	0.	129.04
3834	-3.	-8.75	0.	128.68
3835	-3.25	-8.5	0.	128.1
3836	-4.25	-8.5	0.	127.56
3837	-4.	-8.75	0.	127.93
3838	-3.75	-8.5	0.	127.83
3839	-4.75	-8.5	0.	127.46
3840	-4.5	-8.75	0.	127.52
3841	-5.25	-8.5	0.	127.74
3842	-5.	-8.75	0.	127.14
3843	-8.25	-8.5	0.	126.56
3844	-7.75	-8.5	0.	126.14
3845	-8.	-8.75	0.	125.86
3846	-8.75	-8.5	0.	127.61
3847	-8.5	-8.75	0.	126.96
3848	8.25	7.	0.	120.12
3849	8.	6.75	0.	120.83
3850	8.	7.25	0.	120.93
3851	8.75	7.	0.	122.22
3852	8.5	7.25	0.	123.62
3853	8.5	6.75	0.	115.86
3854	-2.	8.25	0.	128.14
3855	-2.25	8.	0.	129.49
3856	-7.75	8.5	0.	124.56
3857	-8.25	8.5	0.	124.89
3858	-8.	8.75	0.	124.81
3859	-7.25	8.5	0.	124.16
3860	-7.5	8.75	0.	124.51
3861	-6.75	8.5	0.	124.01
3862	-7.	8.75	0.	124.27
3863	-7.	8.25	0.	123.62
3864	-6.25	8.5	0.	124.44
3865	-6.5	8.75	0.	124.38
3866	-5.75	8.5	0.	125.62
3867	-6.	8.75	0.	125.06
3868	-5.25	8.5	0.	127.58
3869	-5.5	8.75	0.	126.36
3870	-5.	8.75	0.	128.19
3871	-4.75	8.5	0.	130.24
3872	-1.75	8.5	0.	127.3
3873	-2.	8.75	0.	127.9
3874	-2.25	8.5	0.	129.9
3875	-1.25	8.5	0.	125.44
3876	-1.5	8.75	0.	126.13
3877	-0.75	8.5	0.	124.27
3878	-1.	8.75	0.	124.9
3879	-0.25	8.5	0.	123.65
3880	-0.5	8.75	0.	124.15
3881	0.25	8.5	0.	123.49
3882	2.8149e-011	8.75	0.	123.82
3883	0.75	8.5	0.	123.67
3884	0.5	8.75	0.	123.84
3885	1.25	8.5	0.	124.03
3886	1.	8.75	0.	124.07
3887	1.75	8.5	0.	124.36
3888	1.5	8.75	0.	124.37
3889	2.25	8.5	0.	124.53
3890	2.	8.75	0.	124.58
3891	2.	8.25	0.	124.63
3892	2.75	8.5	0.	124.5
3893	2.5	8.75	0.	124.62
3894	3.	8.75	0.	124.51
3895	3.25	8.5	0.	124.47
3896	4.	8.75	0.	125.25
3897	4.25	8.5	0.	127.07
3898	3.75	8.5	0.	124.68
3899	-8.5	5.25	0.	120.7
3900	-8.25	5.	0.	121.55
3901	-8.75	5.	0.	120.95
3902	-8.5	4.75	0.	116.75
3903	-8.5	5.75	0.	122.7
3904	-8.75	5.5	0.	122.35
3905	-8.5	6.25	0.	124.36
3906	-8.75	6.	0.	123.73
3907	-8.5	6.75	0.	125.36
3908	-8.75	6.5	0.	124.92
3909	-8.5	7.25	0.	125.54
3910	-8.75	7.	0.	125.4
3911	-8.5	7.75	0.	125.32
3912	-8.75	7.5	0.	125.36
3913	-8.5	8.25	0.	125.09
3914	-8.75	8.	0.	125.17
3915	-8.5	8.75	0.	124.99
3916	-8.75	8.5	0.	125.04
3917	-7.75	5.	0.	126.78
3918	-8.	4.75	0.	124.42
3919	-7.	4.25	0.	124.06
3920	-7.25	4.	0.	126.54
3921	8.25	-8.5	0.	125.19
3922	8.	-8.75	0.	124.84
3923	7.75	-8.5	0.	124.56
3924	6.75	-8.5	0.	123.33
3925	7.	-8.75	0.	123.62
3926	7.25	-8.5	0.	123.9
3927	6.25	-8.5	0.	123.
3928	6.5	-8.75	0.	123.2
3929	5.75	-8.5	0.	123.02
3930	6.	-8.75	0.	123.06
3931	5.25	-8.5	0.	123.38
3932	5.5	-8.75	0.	123.24
3933	4.75	-8.5	0.	124.
3934	5.	-8.75	0.	123.72
3935	4.25	-8.5	0.	124.73
3936	4.5	-8.75	0.	124.39
3937	3.75	-8.5	0.	125.45
3938	4.	-8.75	0.	125.12
3939	3.25	-8.5	0.	126.07
3940	3.5	-8.75	0.	125.82
3941	2.75	-8.5	0.	126.58
3942	3.	-8.75	0.	126.46
3943	2.25	-8.5	0.	127.01
3944	2.5	-8.75	0.	127.03
3945	1.75	-8.5	0.	127.45
3946	2.	-8.75	0.	127.57
3947	1.25	-8.5	0.	128.01
3948	1.5	-8.75	0.	128.11
3949	1.	-8.75	0.	128.75
3950	0.75	-8.5	0.	129.74
3951	8.5	2.75	0.	120.18
3952	8.5	3.25	0.	115.15
3953	8.75	3.	0.	120.36
3954	8.5	2.25	0.	122.45
3955	8.75	2.5	0.	122.3
3956	8.5	1.75	0.	123.94
3957	8.75	2.	0.	123.6
3958	8.5	1.25	0.	125.13
3959	8.75	1.5	0.	124.67
3960	8.5	0.75	0.	126.12
3961	8.25	1.	0.	125.99
3962	8.75	1.	0.	125.61
3963	8.5	0.25	0.	126.83
3964	8.75	0.5	0.	126.4
3965	8.5	-0.25	0.	127.22
3966	8.75	3.1098e-012	0.	126.96
3967	8.5	-0.75	0.	127.39
3968	8.75	-0.5	0.	127.28
3969	8.5	-1.25	0.	127.5
3970	8.75	-1.	0.	127.47
3971	8.5	-1.75	0.	127.7
3972	8.75	-1.5	0.	127.65
3973	8.5	-2.25	0.	128.06
3974	8.75	-2.	0.	127.89
3975	8.5	-2.75	0.	128.43
3976	8.75	-2.5	0.	128.17
3977	8.5	-3.25	0.	128.42
3978	8.75	-3.	0.	128.29
3979	8.5	-3.75	0.	127.72
3980	8.75	-3.5	0.	127.9
3981	8.25	-3.5	0.	128.97
3982	8.5	-4.25	0.	126.86
3983	8.75	-4.	0.	127.02
3984	8.5	-4.75	0.	126.74
3985	8.75	-4.5	0.	126.47
3986	8.5	-5.25	0.	127.39
3987	8.75	-5.	0.	126.77
3988	8.5	-5.75	0.	127.9
3989	8.75	-5.5	0.	127.43
3990	8.5	-6.25	0.	127.71
3991	8.75	-6.	0.	127.62
3992	8.5	-6.75	0.	127.1
3993	8.75	-6.5	0.	127.31
3994	8.5	-7.25	0.	126.46
3995	8.75	-7.	0.	126.8
3996	8.5	-7.75	0.	125.96
3997	8.75	-7.5	0.	126.33
3998	8.5	-8.25	0.	125.62
3999	8.75	-8.	0.	125.97
4000	8.75	-8.5	0.	125.73
4001	8.5	-8.75	0.	125.41
4002	-8.	-7.25	0.	125.05
4003	-7.75	-7.5	0.	124.04
4004	-8.25	-7.	0.	127.99
4005	-8.5	-6.75	0.	132.35
4006	-8.75	-7.	0.	130.42
4007	-8.	-6.75	0.	127.4
4008	-7.75	-7.	0.	124.4
4009	-8.75	-6.5	0.	133.47
4010	-8.25	-6.5	0.	131.71
4011	-8.5	-6.25	0.	134.23
4012	7.5	-3.75	0.	131.24
4013	7.25	-3.5	0.	128.59
4014	7.75	-3.5	0.	130.79
4015	7.5	-3.25	0.	130.12
4016	7.5	-5.25	0.	131.04
4017	7.25	-5.5	0.	128.66
4018	4.75	-5.5	0.	128.21
4019	4.5	-5.25	0.	130.59
4020	4.5	-5.75	0.	129.55
4021	4.5	-3.75	0.	130.35
4022	4.75	-3.5	0.	127.92
4023	4.25	-3.5	0.	129.87
4024	-1.25	-6.5	0.	125.96
4025	-1.5	-6.75	0.	130.11
4026	-1.75	-6.5	0.	130.06
4027	0.25	-6.5	0.	125.42
4028	0.5	-6.75	0.	129.37
4029	0.5	-6.25	0.	127.75
4030	7.75	-9.	0.	124.49
4031	8.	-9.25	0.	124.75
4032	8.25	-9.	0.	125.05
4033	7.25	-9.	0.	123.93
4034	7.5	-9.25	0.	124.19
4035	7.5	-8.75	0.	124.21
4036	6.75	-9.	0.	123.49
4037	7.	-9.25	0.	123.7
4038	6.25	-9.	0.	123.25
4039	6.5	-9.25	0.	123.37
4040	5.75	-9.	0.	123.28
4041	6.	-9.25	0.	123.27
4042	5.25	-9.	0.	123.58
4043	5.5	-9.25	0.	123.44
4044	4.75	-9.	0.	124.11
4045	5.	-9.25	0.	123.85
4046	4.25	-9.	0.	124.77
4047	4.5	-9.25	0.	124.45
4048	3.75	-9.	0.	125.49
4049	4.	-9.25	0.	125.16
4050	3.5	-9.25	0.	125.91
4051	3.25	-9.	0.	126.21
4052	2.25	-9.	0.	127.59
4053	2.5	-9.25	0.	127.47
4054	2.75	-9.	0.	126.91
4055	1.75	-9.	0.	128.23
4056	2.	-9.25	0.	128.28
4057	1.25	-9.	0.	128.86
4058	1.5	-9.25	0.	129.03
4059	0.75	-9.	0.	129.1
4060	1.	-9.25	0.	129.63
4061	3.75	3.5	0.	129.19
4062	3.5	3.25	0.	133.15
4063	3.25	3.5	0.	132.4
4064	6.25	3.5	0.	130.32
4065	6.5	3.25	0.	134.
4066	6.75	3.5	0.	134.14
4067	6.5	0.75	0.	131.71
4068	6.25	0.5	0.	128.18
4069	3.75	0.5	0.	131.32
4070	3.5	0.75	0.	135.56
4071	-5.75	4.5	0.	126.42
4072	-5.5	4.75	0.	130.04
4073	-7.5	6.25	0.	128.89
4074	-7.25	6.5	0.	125.82
4075	-5.75	6.5	0.	128.23
4076	-5.5	6.25	0.	131.94
4077	4.5	7.75	0.	130.21
4078	4.75	7.5	0.	127.19
4079	-8.25	9.	0.	124.91
4080	-8.75	9.	0.	125.
4081	-8.5	9.25	0.	124.97
4082	-7.75	9.	0.	124.76
4083	-8.	9.25	0.	124.9
4084	-7.25	9.	0.	124.61
4085	-7.5	9.25	0.	124.8
4086	-6.75	9.	0.	124.64
4087	-7.	9.25	0.	124.78
4088	-6.25	9.	0.	125.
4089	-6.5	9.25	0.	124.94
4090	-5.75	9.	0.	125.8
4091	-6.	9.25	0.	125.38
4092	-5.25	9.	0.	126.97
4093	-5.5	9.25	0.	126.09
4094	-5.	9.25	0.	126.88
4095	-4.75	9.	0.	127.61
4096	-1.75	9.	0.	126.73
4097	-2.	9.25	0.	126.63
4098	-2.25	9.	0.	127.35
4099	-1.25	9.	0.	125.59
4100	-1.5	9.25	0.	125.85
4101	-0.75	9.	0.	124.78
4102	-1.	9.25	0.	125.15
4103	-0.25	9.	0.	124.32
4104	-0.5	9.25	0.	124.67
4105	0.25	9.	0.	124.17
4106	1.4561e-011	9.25	0.	124.43
4107	0.75	9.	0.	124.24
4108	0.5	9.25	0.	124.39
4109	1.25	9.	0.	124.41
4110	1.	9.25	0.	124.5
4111	1.75	9.	0.	124.59
4112	1.5	9.25	0.	124.69
4113	2.25	9.	0.	124.67
4114	2.	9.25	0.	124.87
4115	2.75	9.	0.	124.63
4116	2.5	9.25	0.	124.98
4117	3.25	9.	0.	124.56
4118	3.	9.25	0.	125.02
4119	3.75	9.	0.	125.11
4120	3.5	9.25	0.	125.13
4121	3.5	8.75	0.	124.53
4122	4.25	9.	0.	127.33
4123	4.	9.25	0.	126.08
4124	-4.5	6.75	0.	132.83
4125	-4.25	6.5	0.	129.31
4126	-4.5	8.25	0.	131.55
4127	-4.25	8.5	0.	128.36
4128	-4.5	8.75	0.	129.68
4129	-2.75	8.5	0.	128.01
4130	-2.5	8.25	0.	131.21
4131	-2.5	8.75	0.	129.37
4132	-2.5	6.75	0.	132.87
4133	-2.75	6.5	0.	129.98
4134	-2.25	6.5	0.	132.56
4135	-2.5	6.25	0.	132.25
4136	-1.25	5.5	0.	130.45
4137	-1.5	5.25	0.	133.65
4138	1.25	5.5	0.	130.
4139	1.5	5.25	0.	133.57
4140	1.5	5.75	0.	131.58
4141	1.5	2.75	0.	132.08
4142	1.25	2.5	0.	128.35
4143	1.75	2.5	0.	131.4
4144	1.5	2.25	0.	129.55
4145	-1.25	2.5	0.	130.26
4146	-1.5	2.75	0.	133.51
4147	-1.5	2.25	0.	132.19
4148	-5.5	-8.75	0.	126.22
4149	-5.5	-8.25	0.	127.63
4150	-5.75	-8.5	0.	123.84
4151	-7.5	-8.75	0.	124.58
4152	-7.25	-8.5	0.	122.07
4153	-7.5	-8.25	0.	125.5
4154	7.75	3.5	0.	128.56
4155	7.5	3.75	0.	133.25
4156	7.5	3.25	0.	131.13
4157	7.25	3.5	0.	133.62
4158	7.5	6.25	0.	129.09
4159	7.75	6.5	0.	125.12
4160	9.	8.25	0.	125.3
4161	9.	8.75	0.	125.08
4162	8.75	8.5	0.	126.61
4163	9.25	8.5	0.	124.56
4164	9.	7.75	0.	126.06
4165	8.75	8.	0.	127.01
4166	9.25	8.	0.	125.83
4167	9.	7.25	0.	125.22
4168	8.75	7.5	0.	126.52
4169	9.25	7.5	0.	126.79
4170	9.	6.75	0.	124.09
4171	9.25	7.	0.	126.85
4172	0.5	-1.25	0.	129.63
4173	0.75	-1.5	0.	126.57
4174	0.5	0.25	0.	128.01
4175	0.75	0.5	0.	125.61
4176	2.25	0.5	0.	130.5
4177	2.5	0.25	0.	134.9
4178	2.5	-1.25	0.	132.15
4179	2.25	-1.5	0.	128.48
4180	2.75	-1.5	0.	131.09
4181	6.25	7.5	0.	132.39
4182	6.5	7.75	0.	136.09
4183	6.75	7.5	0.	132.39
4184	8.5	7.75	0.	127.47
4185	8.25	7.5	0.	124.28
4186	-7.25	-3.5	0.	123.62
4187	-7.5	-3.25	0.	128.22
4188	-7.5	-3.75	0.	125.16
4189	-7.5	-0.75	0.	130.92
4190	-7.25	-0.5	0.	127.69
4191	-7.75	-0.5	0.	130.51
4192	-4.75	-0.5	0.	129.41
4193	-4.5	-0.75	0.	132.86
4194	-4.5	-0.25	0.	131.35
4195	-7.25	4.5	0.	129.93
4196	-7.5	4.75	0.	132.36
4197	-7.75	4.5	0.	130.05
4198	-7.5	4.25	0.	132.35
4199	-9.	-8.25	0.	128.32
4200	-9.	-8.75	0.	128.2
4201	-9.25	-8.5	0.	128.8
4202	-9.25	-8.	0.	128.98
4203	-9.	-7.75	0.	128.8
4204	-9.	-6.75	0.	131.56
4205	-9.25	-7.	0.	130.69
4206	-9.	-7.25	0.	130.06
4207	-9.	-6.25	0.	131.84
4208	-9.25	-6.5	0.	131.42
4209	-9.	-5.75	0.	130.82
4210	-8.75	-6.	0.	132.65
4211	-9.25	-6.	0.	130.86
4212	-9.	-5.25	0.	131.11
4213	-8.75	-5.5	0.	131.69
4214	-9.25	-5.5	0.	130.17
4215	-9.	-4.75	0.	132.72
4216	-9.25	-5.	0.	131.46
4217	-8.75	-5.	0.	133.19
4218	-9.	-4.25	0.	133.03
4219	-9.25	-4.5	0.	132.55
4220	-8.75	-4.5	0.	134.64
4221	-9.25	-4.	0.	132.17
4222	-9.	-3.75	0.	131.85
4223	-9.	-2.25	0.	127.94
4224	-9.25	-2.5	0.	128.3
4225	-9.	-2.75	0.	128.87
4226	-9.25	-2.	0.	127.56
4227	-9.	-1.75	0.	127.54
4228	-8.75	-2.	0.	127.62
4229	-9.	-0.75	0.	127.88
4230	-9.25	-1.	0.	127.55
4231	-9.	-1.25	0.	127.62
4232	-9.	-0.25	0.	127.92
4233	-9.25	-0.5	0.	127.83
4234	-9.	0.25	0.	127.51
4235	-9.25	-4.4395e-013	0.	127.9
4236	-9.	0.75	0.	126.66
4237	-9.25	0.5	0.	127.65
4238	-9.	1.25	0.	125.47
4239	-9.25	1.	0.	127.15
4240	-9.	1.75	0.	124.1
4241	-9.25	1.5	0.	126.53
4242	-9.	2.25	0.	123.7
4243	-9.25	2.	0.	126.23
4244	8.75	9.	0.	127.12
4245	9.25	9.	0.	124.88
4246	9.	9.25	0.	125.68
4247	9.	2.25	0.	123.46
4248	9.25	2.5	0.	124.38
4249	9.	2.75	0.	122.5
4250	9.25	2.	0.	124.55
4251	9.	1.75	0.	124.34
4252	9.	0.25	0.	126.53
4253	9.25	0.5	0.	126.13
4254	9.	0.75	0.	125.9
4255	9.	-0.25	0.	127.02
4256	9.25	1.5233e-012	0.	126.73
4257	9.	-0.75	0.	127.37
4258	9.25	-0.5	0.	127.22
4259	9.	-1.25	0.	127.63
4260	9.25	-1.	0.	127.6
4261	9.	-1.75	0.	127.84
4262	9.25	-1.5	0.	127.86
4263	9.	-2.25	0.	128.01
4264	9.25	-2.	0.	128.02
4265	9.25	-2.5	0.	128.03
4266	9.	-2.75	0.	128.03
4267	9.	-4.25	0.	126.63
4268	9.25	-4.	0.	126.68
4269	9.	-3.75	0.	127.19
4270	9.	-4.75	0.	126.5
4271	9.25	-4.5	0.	126.28
4272	9.	-5.25	0.	126.81
4273	9.25	-5.	0.	126.38
4274	9.	-5.75	0.	127.16
4275	9.25	-5.5	0.	126.75
4276	9.	-6.25	0.	127.22
4277	9.25	-6.	0.	127.02
4278	9.	-6.75	0.	127.
4279	9.25	-6.5	0.	127.04
4280	9.	-7.25	0.	126.67
4281	9.25	-7.	0.	126.87
4282	9.	-7.75	0.	126.35
4283	9.25	-7.5	0.	126.62
4284	9.	-8.25	0.	126.08
4285	9.25	-8.	0.	126.37
4286	9.	-8.75	0.	125.89
4287	9.25	-8.5	0.	126.16
4288	9.25	-9.	0.	126.
4289	9.	-9.25	0.	125.77
4290	8.75	-9.	0.	125.57
4291	-2.25	-9.	0.	129.74
4292	-1.75	-9.	0.	129.76
4293	-2.	-9.25	0.	130.45
4294	-2.75	-9.	0.	129.33
4295	-2.5	-9.25	0.	130.09
4296	-3.25	-9.	0.	128.9
4297	-3.	-9.25	0.	129.56
4298	-3.75	-9.	0.	128.42
4299	-3.5	-9.25	0.	128.97
4300	-3.5	-8.75	0.	128.32
4301	-4.25	-9.	0.	127.89
4302	-4.	-9.25	0.	128.33
4303	-4.75	-9.	0.	127.2
4304	-4.5	-9.25	0.	127.53
4305	-5.25	-9.	0.	125.61
4306	-5.	-9.25	0.	126.31
4307	-5.75	-9.	0.	121.6
4308	-5.5	-9.25	0.	123.68
4309	-6.25	-9.	0.	116.83
4310	-6.	-8.75	0.	119.24
4311	-6.	-9.25	0.	119.06
4312	-6.75	-9.	0.	116.32
4313	-6.5	-8.75	0.	111.56
4314	-6.5	-9.25	0.	116.13
4315	-7.25	-9.	0.	120.37
4316	-7.	-8.75	0.	117.88
4317	-7.	-9.25	0.	118.18
4318	-7.75	-9.	0.	124.29
4319	-7.5	-9.25	0.	122.39
4320	-8.25	-9.	0.	126.26
4321	-8.	-9.25	0.	125.13
4322	-8.75	-9.	0.	127.55
4323	-8.5	-9.25	0.	126.77
4324	-9.	-9.25	0.	128.11
4325	-9.25	-9.	0.	128.73
4326	-9.	5.25	0.	122.61
4327	-9.	4.75	0.	123.19
4328	-9.25	5.	0.	124.53
4329	-9.	5.75	0.	123.38
4330	-9.25	5.5	0.	124.08
4331	-9.	6.25	0.	124.29
4332	-9.25	6.	0.	124.35
4333	-9.	6.75	0.	124.95
4334	-9.25	6.5	0.	124.78
4335	-9.	7.25	0.	125.22
4336	-9.25	7.	0.	125.07
4337	-9.	7.75	0.	125.21
4338	-9.25	7.5	0.	125.14
4339	-9.	8.25	0.	125.12
4340	-9.25	8.	0.	125.11
4341	-9.	8.75	0.	125.05
4342	-9.25	8.5	0.	125.06
4343	-9.25	9.	0.	125.02
4344	-9.	9.25	0.	125.01
4345	-5.5	-6.25	0.	131.11
4346	-5.5	-6.75	0.	131.87
4347	-5.75	-6.5	0.	126.46
4348	-5.5	-4.75	0.	125.21
4349	-5.75	-4.5	0.	121.37
4350	-5.5	-4.25	0.	122.59
4351	-5.25	-4.5	0.	126.04
4352	-5.5	-5.25	0.	125.56
4353	-5.5	-5.75	0.	127.3
4354	-7.75	-6.5	0.	124.53
4355	-7.5	-6.75	0.	121.53
4356	-7.25	-6.5	0.	117.22
4357	-8.5	-5.75	0.	133.49
4358	-8.5	-5.25	0.	133.75
4359	-7.75	-4.5	0.	122.96
4360	-8.25	-4.5	0.	132.17
4361	-6.25	-4.5	0.	114.21
4362	-6.75	-4.5	0.	112.64
4363	-7.25	-4.5	0.	116.06
4364	-7.5	-4.25	0.	119.95
4365	7.5	-4.25	0.	130.23
4366	7.5	-4.75	0.	130.1
4367	6.75	-5.5	0.	121.12
4368	6.25	-5.5	0.	116.89
4369	5.75	-5.5	0.	116.81
4370	5.25	-5.5	0.	120.81
4371	4.5	-4.75	0.	129.56
4372	4.5	-4.25	0.	129.45
4373	5.25	-3.5	0.	120.51
4374	5.	-3.25	0.	124.
4375	6.75	-3.5	0.	120.9
4376	6.25	-3.5	0.	116.68
4377	5.75	-3.5	0.	116.52
4378	6.	-3.25	0.	116.96
4379	-0.75	-6.5	0.	115.47
4380	-1.	-6.25	0.	121.37
4381	-0.25	-6.5	0.	115.34
4382	0.5	-7.25	0.	130.35
4383	0.75	-7.	0.	128.84
4384	0.5	-7.75	0.	132.29
4385	0.5	-8.25	0.	132.09
4386	0.5	-8.75	0.	130.07
4387	0.5	-9.25	0.	129.2
4388	-1.5	-8.75	0.	130.6
4389	-1.5	-9.25	0.	129.77
4390	-1.5	-8.25	0.	132.6
4391	-1.5	-7.25	0.	130.91
4392	-1.5	-7.75	0.	132.77
4393	4.25	3.5	0.	119.77
4394	4.75	3.5	0.	114.11
4395	5.25	3.5	0.	114.22
4396	5.75	3.5	0.	120.31
4397	6.5	2.75	0.	134.34
4398	6.75	3.	0.	132.85
4399	6.5	2.25	0.	135.64
4400	6.5	1.75	0.	135.01
4401	6.5	1.25	0.	132.77
4402	5.75	0.5	0.	119.32
4403	5.25	0.5	0.	114.2
4404	4.75	0.5	0.	114.7
4405	4.25	0.5	0.	121.02
4406	3.5	2.75	0.	134.62
4407	3.5	2.25	0.	137.15
4408	3.25	2.5	0.	133.9
4409	3.5	1.75	0.	137.73
4410	3.5	1.25	0.	136.26
4411	-6.25	4.5	0.	118.05
4412	-6.75	4.5	0.	119.09
4413	-7.5	5.25	0.	129.33
4414	-7.5	5.75	0.	128.66
4415	-6.75	6.5	0.	117.66
4416	-6.25	6.5	0.	118.49
4417	-5.5	5.25	0.	130.55
4418	-5.5	5.75	0.	131.21
4419	-5.25	6.	0.	130.88
4420	4.5	8.25	0.	129.59
4421	4.5	8.75	0.	129.13
4422	4.5	9.25	0.	129.15
4423	5.25	7.5	0.	119.34
4424	5.75	7.5	0.	121.27
4425	-4.5	7.25	0.	132.17
4426	-4.5	7.75	0.	131.63
4427	-3.75	8.5	0.	119.79
4428	-4.	8.75	0.	124.51
4429	-3.25	8.5	0.	119.61
4430	-3.	8.75	0.	124.24
4431	-3.5	8.75	0.	117.94
4432	-2.5	7.75	0.	131.18
4433	-2.5	7.25	0.	131.63
4434	-3.25	6.5	0.	120.55
4435	-3.75	6.5	0.	120.22
4436	-0.75	5.5	0.	120.89
4437	-0.25	5.5	0.	114.99
4438	0.25	5.5	0.	114.91
4439	0.75	5.5	0.	120.62
4440	1.5	4.75	0.	134.49
4441	1.5	4.25	0.	136.39
4442	1.5	3.75	0.	136.14
4443	1.5	3.25	0.	133.68
4444	0.75	2.5	0.	119.51
4445	1.	2.25	0.	123.69
4446	0.25	2.5	0.	114.35
4447	0.5	2.25	0.	116.05
4448	-0.25	2.5	0.	114.79
4449	-0.75	2.5	0.	120.78
4450	-1.5	3.25	0.	133.95
4451	-1.75	3.	0.	132.11
4452	-1.5	4.75	0.	133.98
4453	-1.5	4.25	0.	135.68
4454	-1.5	3.75	0.	135.67
4455	-1.75	3.5	0.	132.45
4456	-5.5	-7.25	0.	129.15
4457	-5.5	-7.75	0.	127.65
4458	-6.25	-8.5	0.	113.87
4459	-6.75	-8.5	0.	113.
4460	-7.5	-7.75	0.	124.42
4461	-7.5	-7.25	0.	123.34
4462	-6.75	-6.5	0.	109.01
4463	-6.25	-6.5	0.	111.54
4464	8.75	3.5	0.	117.25
4465	9.25	3.5	0.	127.44
4466	9.	3.25	0.	122.59
4467	8.25	3.5	0.	117.51
4468	7.5	4.25	0.	133.85
4469	7.5	4.75	0.	135.05
4470	7.5	5.25	0.	134.13
4471	7.5	5.75	0.	131.14
4472	8.25	6.5	0.	116.42
4473	8.75	6.5	0.	117.52
4474	9.25	6.5	0.	128.61
4475	0.5	-0.75	0.	129.09
4476	0.5	-0.25	0.	128.4
4477	1.25	0.5	0.	118.48
4478	1.	0.75	0.	122.3
4479	1.75	0.5	0.	119.62
4480	2.5	-0.25	0.	133.49
4481	2.5	-0.75	0.	132.33
4482	2.75	-1.	0.	130.79
4483	1.25	-1.5	0.	118.29
4484	1.75	-1.5	0.	119.08
4485	6.5	8.25	0.	135.32
4486	6.5	8.75	0.	134.55
4487	6.5	9.25	0.	133.03
4488	8.5	8.75	0.	128.62
4489	8.5	9.25	0.	128.64
4490	8.5	8.25	0.	128.3
4491	7.75	7.5	0.	118.13
4492	7.25	7.5	0.	121.04
4493	-5.25	-3.5	0.	120.84
4494	-4.75	-3.5	0.	131.06
4495	-5.75	-3.5	0.	113.53
4496	-5.5	-3.75	0.	117.35
4497	-6.25	-3.5	0.	111.24
4498	-6.75	-3.5	0.	114.84
4499	-7.5	-2.75	0.	130.01
4500	-7.75	-3.	0.	128.72
4501	-7.5	-2.25	0.	132.59
4502	-7.5	-1.75	0.	133.14
4503	-7.5	-1.25	0.	131.55
4504	-7.75	-1.	0.	129.96
4505	-6.75	-0.5	0.	118.61
4506	-6.25	-0.5	0.	113.16
4507	-5.75	-0.5	0.	113.51
4508	-5.25	-0.5	0.	119.69
4509	-4.5	-1.25	0.	133.56
4510	-4.5	-2.75	0.	134.39
4511	-4.5	-3.25	0.	134.42
4512	-4.5	-2.25	0.	135.7
4513	-4.5	-1.75	0.	135.54
4514	-8.75	4.5	0.	118.92
4515	-9.25	4.5	0.	127.4
4516	-8.25	4.5	0.	119.54
4517	-7.5	3.75	0.	129.18
4518	-7.5	3.25	0.	128.06
4519	-7.5	2.75	0.	127.97
4520	-8.25	2.5	0.	117.92
4521	-7.75	2.5	0.	125.49
4522	-8.75	2.5	0.	118.52
4523	-9.25	2.5	0.	128.15
4524	9.5	8.75	0.	124.35
4525	9.5	9.25	0.	124.52
4526	9.5	8.25	0.	125.09
4527	9.5	7.75	0.	126.56
4528	9.5	7.25	0.	128.41
4529	9.5	6.75	0.	131.4
4530	9.5	6.25	0.	133.7
4531	9.5	5.75	0.	135.34
4532	9.5	5.25	0.	137.39
4533	9.5	4.75	0.	137.19
4534	9.5	4.25	0.	134.51
4535	9.5	3.75	0.	132.27
4536	9.5	3.25	0.	129.62
4537	9.5	2.75	0.	126.6
4538	9.25	3.	0.	124.73
4539	9.5	2.25	0.	125.46
4540	9.5	1.75	0.	125.15
4541	9.5	1.25	0.	125.29
4542	9.25	1.5	0.	124.94
4543	9.5	0.75	0.	125.73
4544	9.25	1.	0.	125.5
4545	9.5	0.25	0.	126.32
4546	9.5	-0.25	0.	126.93
4547	9.5	-0.75	0.	127.45
4548	9.5	-1.25	0.	127.83
4549	9.5	-1.75	0.	128.04
4550	9.5	-2.25	0.	128.04
4551	9.5	-2.75	0.	127.82
4552	9.5	-3.25	0.	127.36
4553	9.25	-3.	0.	127.82
4554	9.5	-3.75	0.	126.79
4555	9.25	-3.5	0.	127.31
4556	9.5	-4.25	0.	126.33
4557	9.5	-4.75	0.	126.17
4558	9.5	-5.25	0.	126.32
4559	9.5	-5.75	0.	126.61
4560	9.5	-6.25	0.	126.83
4561	9.5	-6.75	0.	126.9
4562	9.5	-7.25	0.	126.82
4563	9.5	-7.75	0.	126.65
4564	9.5	-8.25	0.	126.45
4565	9.5	-8.75	0.	126.28
4566	9.5	-9.25	0.	126.14
4567	9.25	-9.5	0.	125.91
4568	8.75	-9.5	0.	125.48
4569	8.25	-9.5	0.	124.98
4570	8.5	-9.25	0.	125.29
4571	7.75	-9.5	0.	124.46
4572	7.25	-9.5	0.	123.96
4573	6.75	-9.5	0.	123.58
4574	6.25	-9.5	0.	123.39
4575	5.75	-9.5	0.	123.43
4576	5.25	-9.5	0.	123.71
4577	4.75	-9.5	0.	124.19
4578	4.25	-9.5	0.	124.83
4579	3.75	-9.5	0.	125.57
4580	3.25	-9.5	0.	126.38
4581	2.75	-9.5	0.	127.24
4582	3.	-9.25	0.	126.68
4583	2.25	-9.5	0.	128.16
4584	1.75	-9.5	0.	129.09
4585	1.25	-9.5	0.	129.81
4586	0.75	-9.5	0.	129.76
4587	0.25	-9.5	0.	123.92
4588	-0.25	-9.5	0.	112.41
4589	-0.75	-9.5	0.	112.58
4590	-1.25	-9.5	0.	124.4
4591	-1.75	-9.5	0.	130.49
4592	-2.25	-9.5	0.	130.8
4593	-2.75	-9.5	0.	130.32
4594	-3.25	-9.5	0.	129.63
4595	-3.75	-9.5	0.	128.87
4596	-4.25	-9.5	0.	127.97
4597	-4.75	-9.5	0.	126.64
4598	-5.25	-9.5	0.	124.38
4599	-5.75	-9.5	0.	121.15
4600	-6.25	-9.5	0.	118.34
4601	-6.75	-9.5	0.	117.97
4602	-7.25	-9.5	0.	120.21
4603	-7.75	-9.5	0.	123.23
4604	-8.25	-9.5	0.	125.64
4605	-8.75	-9.5	0.	127.34
4606	-9.25	-9.5	0.	128.66
4607	-9.5	-9.25	0.	129.27
4608	-9.5	-8.75	0.	129.33
4609	-9.5	-8.25	0.	129.46
4610	-9.5	-7.75	0.	129.77
4611	-9.5	-7.25	0.	130.22
4612	-9.25	-7.5	0.	129.58
4613	-9.5	-6.75	0.	130.55
4614	-9.5	-6.25	0.	130.43
4615	-9.5	-5.75	0.	130.2
4616	-9.5	-5.25	0.	130.52
4617	-9.5	-4.75	0.	131.28
4618	-9.5	-4.25	0.	131.68
4619	-9.5	-3.75	0.	131.23
4620	-9.5	-3.25	0.	130.17
4621	-9.25	-3.5	0.	130.91
4622	-9.5	-2.75	0.	128.94
4623	-9.25	-3.	0.	129.5
4624	-9.5	-2.25	0.	127.93
4625	-9.5	-1.75	0.	127.37
4626	-9.5	-1.25	0.	127.28
4627	-9.25	-1.5	0.	127.35
4628	-9.5	-0.75	0.	127.51
4629	-9.5	-0.25	0.	127.82
4630	-9.5	0.25	0.	128.03
4631	-9.5	0.75	0.	128.13
4632	-9.5	1.25	0.	128.21
4633	-9.5	1.75	0.	128.65
4634	-9.5	2.25	0.	130.7
4635	-9.5	2.75	0.	132.43
4636	-9.5	3.25	0.	132.59
4637	-9.5	3.75	0.	132.06
4638	-9.5	4.25	0.	131.15
4639	-9.5	4.75	0.	128.77
4640	-9.5	5.25	0.	125.99
4641	-9.5	5.75	0.	125.05
4642	-9.5	6.25	0.	124.84
4643	-9.5	6.75	0.	124.89
4644	-9.5	7.25	0.	124.99
4645	-9.5	7.75	0.	125.04
4646	-9.5	8.25	0.	125.05
4647	-9.5	8.75	0.	125.04
4648	-9.5	9.25	0.	125.02
4649	-9.25	9.5	0.	125.
4650	-8.75	9.5	0.	124.98
4651	-8.25	9.5	0.	124.96
4652	-7.75	9.5	0.	124.94
4653	-7.25	9.5	0.	124.96
4654	-6.75	9.5	0.	125.08
4655	-6.25	9.5	0.	125.32
4656	-5.75	9.5	0.	125.68
4657	-5.25	9.5	0.	126.
4658	-4.75	9.5	0.	125.89
4659	-4.25	9.5	0.	125.05
4660	-4.5	9.25	0.	126.63
4661	-3.75	9.5	0.	124.02
4662	-4.	9.25	0.	124.2
4663	-3.25	9.5	0.	123.96
4664	-3.5	9.25	0.	122.41
4665	-2.75	9.5	0.	124.88
4666	-3.	9.25	0.	124.05
4667	-2.25	9.5	0.	125.67
4668	-2.5	9.25	0.	126.4
4669	-1.75	9.5	0.	125.75
4670	-1.25	9.5	0.	125.41
4671	-0.75	9.5	0.	125.04
4672	-0.25	9.5	0.	124.77
4673	0.25	9.5	0.	124.65
4674	0.75	9.5	0.	124.66
4675	1.25	9.5	0.	124.78
4676	1.75	9.5	0.	124.96
4677	2.25	9.5	0.	125.17
4678	2.75	9.5	0.	125.37
4679	3.25	9.5	0.	125.59
4680	3.75	9.5	0.	126.11
4681	4.25	9.5	0.	127.93
4682	4.75	9.5	0.	127.6
4683	5.25	9.5	0.	121.55
4684	5.75	9.5	0.	121.94
4685	6.25	9.5	0.	129.49
4686	6.75	9.5	0.	129.49
4687	7.25	9.5	0.	121.72
4688	7.75	9.5	0.	120.9
4689	8.25	9.5	0.	126.83
4690	8.75	9.5	0.	127.22
4691	9.25	9.5	0.	125.32
4692	2.25	2.5	0.	130.81
4693	1.	1.25	0.	121.59
4694	1.	1.75	0.	122.15
4695	0.5	-2.75	0.	124.61
4696	5.	-1.75	0.	120.99
4697	-2.	6.25	0.	131.83
4698	-2.	3.25	0.	130.59
4699	1.25	2.	0.	124.8
4700	-2.75	3.	0.	128.49
4701	-2.25	3.	0.	130.18
4702	1.75	-7.	0.	127.31
4703	1.25	-7.	0.	128.
4704	3.25	-4.5	0.	125.47
4705	3.5	-4.75	0.	125.9
4706	0.5	-5.75	0.	125.06
4707	0.5	-5.25	0.	124.09
4708	-3.	-1.25	0.	128.07
4709	0.5	-3.75	0.	124.
4710	0.5	-3.25	0.	124.21
4711	-7.25	2.5	0.	126.57
4712	3.	-4.25	0.	125.46
4713	3.	-3.75	0.	125.9
4714	3.	-1.25	0.	129.7
4715	-3.75	-6.5	0.	128.05
4716	-3.25	-3.5	0.	130.43
4717	-2.75	-3.5	0.	129.01
4718	1.5	6.25	0.	127.99
4719	1.5	6.75	0.	125.96
4720	-7.	7.75	0.	122.87
4721	0.75	2.	0.	120.21
4722	2.75	-5.	0.	125.8
4723	3.	-4.75	0.	125.62
4724	3.25	-5.	0.	126.06
4725	-8.5	-4.75	0.	135.05
4726	-3.25	-1.	0.	128.91
4727	-0.25	6.5	0.	119.36
4728	-1.	-4.25	0.	124.82
4729	-3.5	-3.75	0.	131.19
4730	-2.25	-1.	0.	127.08
4731	0.25	-4.	0.	123.97
4732	-3.75	9.	0.	122.57
4733	-4.25	9.	0.	125.79
4734	-3.25	9.	0.	122.47
4735	-2.75	9.	0.	125.57
4736	-3.75	-3.5	0.	132.16
4737	-4.25	-3.5	0.	134.13
4738	-3.25	-6.5	0.	128.29
4739	-2.75	-6.5	0.	128.74
4740	-3.5	2.75	0.	127.18
4741	-3.25	2.5	0.	128.19
4742	-7.25	0.5	0.	123.35
4743	-7.5	0.75	0.	124.2
4744	1.5	-3.75	0.	124.05
4745	-1.75	-3.5	0.	126.82
4746	-2.25	-3.5	0.	127.83
4747	-3.25	3.	0.	127.31
4748	-3.	3.25	0.	127.31
4749	-3.	2.75	0.	128.32
4750	9.	-3.25	0.	127.76
4751	5.	-2.75	0.	122.68
4752	5.	-2.25	0.	121.84
4753	-9.	-3.25	0.	130.25
4754	7.25	3.	0.	130.47
4755	4.	-3.25	0.	128.51
4756	3.75	-3.5	0.	127.96
4757	-3.75	3.	0.	126.39
4758	-8.	-0.75	0.	129.51
4759	2.75	2.5	0.	131.3
4760	-2.25	-6.5	0.	129.34
4761	2.75	3.5	0.	131.3
4762	3.	-3.25	0.	126.61
4763	-0.75	0.5	0.	125.01
4764	-1.	-5.75	0.	121.92
4765	-1.	-5.25	0.	123.16
4766	4.5	6.25	0.	124.27
4767	4.5	5.75	0.	122.97
4768	-2.75	-1.	0.	127.92
4769	7.	3.25	0.	132.96
4770	-2.25	6.	0.	131.52
4771	-1.5	1.75	0.	129.31
4772	-1.	-4.75	0.	124.11
4773	-1.25	-4.5	0.	125.21
4774	9.	1.25	0.	125.16
4775	3.25	-3.5	0.	126.72
4776	8.	9.	0.	98.847
4777	7.	9.	0.	99.915
4778	8.	8.	0.	97.727
4779	7.	8.	0.	100.4
4780	7.5	9.	0.	115.72
4781	8.	8.5	0.	103.29
4782	7.	8.5	0.	104.88
4783	7.5	8.	0.	114.58
4784	7.5	8.5	0.	111.87
4785	7.75	9.	0.	107.25
4786	8.	8.75	0.	101.06
4787	7.25	9.	0.	107.78
4788	7.	8.75	0.	102.37
4789	8.	8.25	0.	100.5
4790	7.75	8.	0.	106.14
4791	7.	8.25	0.	102.61
4792	7.25	8.	0.	107.47
4793	7.5	8.75	0.	113.74
4794	7.75	8.5	0.	107.56
4795	7.25	8.5	0.	108.34
4796	7.5	8.25	0.	113.19
4797	-6.	-5.	0.	93.392
4798	-8.	-5.	0.	100.68
4799	-6.	-6.	0.	93.966
4800	-8.	-6.	0.	100.78
4801	-6.5	-5.	0.	109.67
4802	-7.	-5.	0.	110.62
4803	-7.5	-5.	0.	114.94
4804	-6.	-5.5	0.	98.419
4805	-8.	-5.5	0.	105.51
4806	-7.5	-6.	0.	115.67
4807	-7.	-6.	0.	109.97
4808	-6.5	-6.	0.	107.93
4809	-7.5	-5.5	0.	113.68
4810	-7.	-5.5	0.	113.37
4811	-6.5	-5.5	0.	108.02
4812	-6.25	-5.	0.	101.49
4813	-6.	-5.25	0.	95.886
4814	-7.75	-5.	0.	107.77
4815	-8.	-5.25	0.	103.08
4816	-6.	-5.75	0.	96.184
4817	-6.25	-6.	0.	100.94
4818	-8.	-5.75	0.	103.12
4819	-7.75	-6.	0.	108.15
4820	-6.75	-5.	0.	110.14
4821	-6.5	-5.25	0.	108.83
4822	-7.25	-5.	0.	112.78
4823	-7.	-5.25	0.	111.99
4824	-7.5	-5.25	0.	114.29
4825	-6.25	-5.5	0.	103.21
4826	-7.75	-5.5	0.	109.59
4827	-7.25	-6.	0.	112.82
4828	-7.5	-5.75	0.	114.65
4829	-6.75	-6.	0.	108.93
4830	-7.	-5.75	0.	111.66
4831	-6.5	-5.75	0.	107.96
4832	-7.25	-5.5	0.	113.52
4833	-6.75	-5.5	0.	110.7
4834	1.	5.	0.	98.68
4835	-1.	5.	0.	98.655
4836	1.	3.	0.	97.873
4837	-1.	3.	0.	98.578
4838	0.5	5.	0.	112.62
4839	0.	5.	0.	110.13
4840	-0.5	5.	0.	112.66
4841	1.	4.5	0.	102.95
4842	1.	4.	0.	101.57
4843	1.	3.5	0.	102.48
4844	-1.	4.5	0.	102.8
4845	-1.	4.	0.	101.48
4846	-1.	3.5	0.	102.71
4847	-0.5	3.	0.	112.48
4848	0.	3.	0.	109.79
4849	0.5	3.	0.	112.
4850	9.099e-017	4.	0.	112.33
4851	0.5	4.	0.	109.28
4852	0.5	3.5	0.	109.78
4853	1.3786e-017	3.5	0.	112.39
4854	-0.5	3.5	0.	110.01
4855	-0.5	4.	0.	109.32
4856	-0.5	4.5	0.	110.15
4857	8.2718e-017	4.5	0.	112.63
4858	0.5	4.5	0.	110.18
4859	0.75	5.	0.	105.58
4860	1.	4.75	0.	100.8
4861	-0.75	5.	0.	105.58
4862	-1.	4.75	0.	100.72
4863	1.	3.25	0.	100.17
4864	0.75	3.	0.	104.87
4865	-1.	3.25	0.	100.63
4866	-0.75	3.	0.	105.45
4867	0.25	5.	0.	111.38
4868	0.5	4.75	0.	111.37
4869	-0.25	5.	0.	111.39
4870	4.1359e-017	4.75	0.	111.36
4871	-0.5	4.75	0.	111.38
4872	1.	4.25	0.	102.23
4873	0.75	4.5	0.	106.55
4874	1.	3.75	0.	101.99
4875	0.75	4.	0.	105.42
4876	0.75	3.5	0.	106.12
4877	-1.	4.25	0.	102.11
4878	-0.75	4.5	0.	106.46
4879	-1.	3.75	0.	102.07
4880	-0.75	4.	0.	105.4
4881	-0.75	3.5	0.	106.35
4882	-0.25	3.	0.	111.13
4883	-0.5	3.25	0.	111.22
4884	0.25	3.	0.	110.9
4885	6.8932e-018	3.25	0.	111.07
4886	0.5	3.25	0.	110.86
4887	0.25	4.	0.	110.8
4888	5.2388e-017	3.75	0.	112.36
4889	-0.25	4.	0.	110.82
4890	8.6854e-017	4.25	0.	112.48
4891	0.5	3.75	0.	109.52
4892	0.5	4.25	0.	109.72
4893	0.25	3.5	0.	111.07
4894	-0.25	3.5	0.	111.19
4895	-0.5	3.75	0.	109.66
4896	-0.5	4.25	0.	109.73
4897	-0.25	4.5	0.	111.38
4898	0.25	4.5	0.	111.39
4899	7.	-4.	0.	98.785
4900	5.	-4.	0.	98.219
4901	7.	-5.	0.	98.611
4902	5.	-5.	0.	98.423
4903	6.5	-4.	0.	114.91
4904	6.	-4.	0.	113.39
4905	5.5	-4.	0.	114.68
4906	7.	-4.5	0.	103.58
4907	5.	-4.5	0.	103.21
4908	5.5	-5.	0.	114.82
4909	6.	-5.	0.	113.5
4910	6.5	-5.	0.	115.02
4911	5.5	-4.5	0.	113.44
4912	6.	-4.5	0.	116.61
4913	6.5	-4.5	0.	113.66
4914	6.75	-4.	0.	106.81
4915	7.	-4.25	0.	101.16
4916	5.25	-4.	0.	106.41
4917	5.	-4.25	0.	100.69
4918	7.	-4.75	0.	101.07
4919	6.75	-5.	0.	106.77
4920	5.	-4.75	0.	100.8
4921	5.25	-5.	0.	106.58
4922	6.25	-4.	0.	114.15
4923	6.5	-4.25	0.	114.27
4924	5.75	-4.	0.	114.03
4925	6.	-4.25	0.	114.99
4926	5.5	-4.25	0.	114.04
4927	6.75	-4.5	0.	108.61
4928	5.25	-4.5	0.	108.31
4929	5.75	-5.	0.	114.16
4930	5.5	-4.75	0.	114.11
4931	6.25	-5.	0.	114.26
4932	6.	-4.75	0.	115.05
4933	6.5	-4.75	0.	114.32
4934	5.75	-4.5	0.	115.02
4935	6.25	-4.5	0.	115.13
4936	9.	6.	0.	97.946
4937	8.	6.	0.	95.906
4938	9.	4.	0.	97.47
4939	8.	4.	0.	97.553
4940	8.5	6.	0.	111.02
4941	9.	5.5	0.	102.18
4942	9.	5.	0.	101.44
4943	9.	4.5	0.	102.24
4944	8.	5.5	0.	100.82
4945	8.	5.	0.	100.35
4946	8.	4.5	0.	101.69
4947	8.5	4.	0.	111.63
4948	8.5	5.5	0.	106.12
4949	8.5	5.	0.	104.35
4950	8.5	4.5	0.	106.52
4951	8.75	6.	0.	104.44
4952	9.	5.75	0.	100.06
4953	8.25	6.	0.	103.42
4954	8.	5.75	0.	98.363
4955	9.	4.25	0.	99.855
4956	8.75	4.	0.	104.5
4957	8.	4.25	0.	99.617
4958	8.25	4.	0.	104.54
4959	8.5	5.75	0.	108.52
4960	9.	5.25	0.	101.78
4961	8.75	5.5	0.	104.11
4962	9.	4.75	0.	101.81
4963	8.75	5.	0.	102.9
4964	8.75	4.5	0.	104.34
4965	8.	5.25	0.	100.55
4966	8.25	5.5	0.	103.43
4967	8.	4.75	0.	100.98
4968	8.25	5.	0.	102.35
4969	8.25	4.5	0.	104.05
4970	8.5	4.25	0.	109.02
4971	8.5	5.25	0.	105.24
4972	8.5	4.75	0.	105.44
4973	-8.	4.	0.	99.218
4974	-9.	4.	0.	99.441
4975	-8.	3.	0.	97.781
4976	-9.	3.	0.	99.801
4977	-8.5	4.	0.	115.08
4978	-8.	3.5	0.	103.81
4979	-9.	3.5	0.	105.01
4980	-8.5	3.	0.	114.38
4981	-8.5	3.5	0.	112.34
4982	-8.25	4.	0.	107.13
4983	-8.	3.75	0.	101.5
4984	-8.75	4.	0.	107.24
4985	-9.	3.75	0.	102.22
4986	-8.	3.25	0.	100.78
4987	-8.25	3.	0.	106.07
4988	-9.	3.25	0.	102.4
4989	-8.75	3.	0.	107.08
4990	-8.5	3.75	0.	113.66
4991	-8.25	3.5	0.	108.05
4992	-8.75	3.5	0.	108.66
4993	-8.5	3.25	0.	113.31
4994	2.	0.	0.	100.47
4995	1.	0.	0.	97.443
4996	2.	-1.	0.	99.339
4997	1.	-1.	0.	98.295
4998	1.5	0.	0.	114.55
4999	2.	-0.5	0.	104.99
5000	1.	-0.5	0.	103.31
5001	1.5	-1.	0.	114.35
5002	1.5	-0.5	0.	111.93
5003	1.75	0.	0.	107.49
5004	2.	-0.25	0.	102.73
5005	1.25	0.	0.	105.97
5006	1.	-0.25	0.	100.36
5007	2.	-0.75	0.	102.16
5008	1.75	-1.	0.	106.82
5009	1.	-0.75	0.	100.79
5010	1.25	-1.	0.	106.31
5011	1.5	-0.25	0.	113.19
5012	1.75	-0.5	0.	108.44
5013	1.25	-0.5	0.	107.59
5014	1.5	-0.75	0.	113.09
5015	-3.	8.	0.	99.608
5016	-4.	8.	0.	99.655
5017	-3.	7.	0.	99.877
5018	-4.	7.	0.	100.04
5019	-3.5	8.	0.	115.39
5020	-3.	7.5	0.	105.04
5021	-4.	7.5	0.	105.19
5022	-3.5	7.	0.	115.79
5023	-3.5	7.5	0.	113.05
5024	-3.25	8.	0.	107.48
5025	-3.	7.75	0.	102.31
5026	-3.75	8.	0.	107.5
5027	-4.	7.75	0.	102.41
5028	-3.	7.25	0.	102.45
5029	-3.25	7.	0.	107.81
5030	-4.	7.25	0.	102.61
5031	-3.75	7.	0.	107.89
5032	-3.5	7.75	0.	114.17
5033	-3.25	7.5	0.	109.02
5034	-3.75	7.5	0.	109.1
5035	-3.5	7.25	0.	114.37
5036	-5.	-1.	0.	97.765
5037	-7.	-1.	0.	96.62
5038	-5.	-3.	0.	98.761
5039	-7.	-3.	0.	94.711
5040	-5.5	-1.	0.	111.29
5041	-6.	-1.	0.	108.4
5042	-6.5	-1.	0.	110.56
5043	-5.	-1.5	0.	102.09
5044	-5.	-2.	0.	100.92
5045	-5.	-2.5	0.	102.33
5046	-7.	-1.5	0.	100.65
5047	-7.	-2.	0.	99.04
5048	-7.	-2.5	0.	99.591
5049	-6.5	-3.	0.	108.72
5050	-6.	-3.	0.	107.67
5051	-5.5	-3.	0.	111.5
5052	-5.5	-2.	0.	108.09
5053	-5.5	-2.5	0.	108.92
5054	-6.5	-2.5	0.	107.06
5055	-6.5	-2.	0.	106.85
5056	-6.5	-1.5	0.	107.93
5057	-5.5	-1.5	0.	108.84
5058	-6.	-1.5	0.	110.78
5059	-6.	-2.5	0.	110.34
5060	-6.	-2.	0.	110.4
5061	-5.25	-1.	0.	104.45
5062	-5.	-1.25	0.	99.92
5063	-6.75	-1.	0.	103.51
5064	-7.	-1.25	0.	98.624
5065	-5.	-2.75	0.	100.54
5066	-5.25	-3.	0.	105.05
5067	-7.	-2.75	0.	97.14
5068	-6.75	-3.	0.	101.67
5069	-5.75	-1.	0.	109.85
5070	-5.5	-1.25	0.	110.03
5071	-6.25	-1.	0.	109.48
5072	-6.	-1.25	0.	109.57
5073	-6.5	-1.25	0.	109.22
5074	-5.	-1.75	0.	101.48
5075	-5.25	-1.5	0.	105.45
5076	-5.	-2.25	0.	101.6
5077	-5.25	-2.	0.	104.5
5078	-5.25	-2.5	0.	105.61
5079	-7.	-1.75	0.	99.816
5080	-6.75	-1.5	0.	104.27
5081	-7.	-2.25	0.	99.285
5082	-6.75	-2.	0.	102.94
5083	-6.75	-2.5	0.	103.32
5084	-6.25	-3.	0.	108.19
5085	-6.5	-2.75	0.	107.86
5086	-5.75	-3.	0.	109.58
5087	-6.	-2.75	0.	108.99
5088	-5.5	-2.75	0.	110.18
5089	-5.5	-2.25	0.	108.5
5090	-5.5	-1.75	0.	108.46
5091	-5.75	-2.	0.	109.24
5092	-5.75	-2.5	0.	109.62
5093	-6.5	-2.25	0.	106.94
5094	-6.25	-2.5	0.	108.7
5095	-6.5	-1.75	0.	107.38
5096	-6.25	-2.	0.	108.62
5097	-6.25	-1.5	0.	109.34
5098	-5.75	-1.5	0.	109.8
5099	-6.	-1.75	0.	110.58
5100	-6.	-2.25	0.	110.37
5101	6.	9.	0.	100.28
5102	5.	9.	0.	99.124
5103	6.	8.	0.	100.32
5104	5.	8.	0.	98.996
5105	5.5	9.	0.	116.04
5106	6.	8.5	0.	105.09
5107	5.	8.5	0.	103.97
5108	5.5	8.	0.	115.25
5109	5.5	8.5	0.	112.38
5110	5.75	9.	0.	108.14
5111	6.	8.75	0.	102.66
5112	5.25	9.	0.	107.55
5113	5.	8.75	0.	101.53
5114	6.	8.25	0.	102.68
5115	5.75	8.	0.	107.76
5116	5.	8.25	0.	101.47
5117	5.25	8.	0.	107.11
5118	5.5	8.75	0.	114.16
5119	5.75	8.5	0.	108.7
5120	5.25	8.5	0.	108.15
5121	5.5	8.25	0.	113.77
5122	6.	3.	0.	98.548
5123	4.	3.	0.	98.548
5124	6.	1.	0.	97.863
5125	4.	1.	0.	99.582
5126	5.5	3.	0.	112.43
5127	5.	3.	0.	109.83
5128	4.5	3.	0.	112.31
5129	6.	2.5	0.	102.83
5130	6.	2.	0.	101.34
5131	6.	1.5	0.	102.22
5132	4.	2.5	0.	103.1
5133	4.	2.	0.	102.34
5134	4.	1.5	0.	103.84
5135	4.5	1.	0.	112.97
5136	5.	1.	0.	109.96
5137	5.5	1.	0.	111.96
5138	5.	2.	0.	112.56
5139	5.	2.5	0.	112.6
5140	5.5	2.5	0.	110.09
5141	5.5	2.	0.	109.31
5142	5.5	1.5	0.	109.87
5143	5.	1.5	0.	112.7
5144	4.5	1.5	0.	110.71
5145	4.5	2.	0.	109.83
5146	4.5	2.5	0.	110.25
5147	5.75	3.	0.	105.41
5148	6.	2.75	0.	100.68
5149	4.25	3.	0.	105.36
5150	4.	2.75	0.	100.82
5151	6.	1.25	0.	100.03
5152	5.75	1.	0.	104.85
5153	4.	1.25	0.	101.7
5154	4.25	1.	0.	106.21
5155	5.25	3.	0.	111.13
5156	5.5	2.75	0.	111.23
5157	4.75	3.	0.	111.07
5158	5.	2.75	0.	111.2
5159	4.5	2.75	0.	111.25
5160	6.	2.25	0.	102.06
5161	5.75	2.5	0.	106.45
5162	6.	1.75	0.	101.75
5163	5.75	2.	0.	105.32
5164	5.75	1.5	0.	106.03
5165	4.	2.25	0.	102.69
5166	4.25	2.5	0.	106.66
5167	4.	1.75	0.	103.07
5168	4.25	2.	0.	106.08
5169	4.25	1.5	0.	107.26
5170	4.75	1.	0.	111.47
5171	4.5	1.25	0.	111.81
5172	5.25	1.	0.	110.96
5173	5.	1.25	0.	111.32
5174	5.5	1.25	0.	110.89
5175	5.	2.25	0.	112.58
5176	5.25	2.	0.	110.93
5177	5.	1.75	0.	112.63
5178	4.75	2.	0.	111.19
5179	5.25	2.5	0.	111.34
5180	4.75	2.5	0.	111.42
5181	5.5	2.25	0.	109.69
5182	5.5	1.75	0.	109.58
5183	5.25	1.5	0.	111.28
5184	4.75	1.5	0.	111.7
5185	4.5	1.75	0.	110.26
5186	4.5	2.25	0.	110.03
5187	-6.	-7.	0.	95.287
5188	-7.	-7.	0.	91.105
5189	-6.	-8.	0.	94.422
5190	-7.	-8.	0.	93.336
5191	-6.5	-7.	0.	106.59
5192	-6.	-7.5	0.	99.62
5193	-7.	-7.5	0.	97.237
5194	-6.5	-8.	0.	108.54
5195	-6.5	-7.5	0.	105.11
5196	-6.25	-7.	0.	100.93
5197	-6.	-7.25	0.	97.45
5198	-6.75	-7.	0.	98.838
5199	-7.	-7.25	0.	94.156
5200	-6.	-7.75	0.	97.015
5201	-6.25	-8.	0.	101.44
5202	-7.	-7.75	0.	95.28
5203	-6.75	-8.	0.	100.91
5204	-6.5	-7.25	0.	105.81
5205	-6.25	-7.5	0.	102.35
5206	-6.75	-7.5	0.	101.14
5207	-6.5	-7.75	0.	106.77
5208	-6.	6.	0.	98.769
5209	-7.	6.	0.	98.061
5210	-6.	5.	0.	98.549
5211	-7.	5.	0.	98.806
5212	-6.5	6.	0.	113.97
5213	-6.	5.5	0.	104.01
5214	-7.	5.5	0.	103.55
5215	-6.5	5.	0.	114.37
5216	-6.5	5.5	0.	111.6
5217	-6.25	6.	0.	106.35
5218	-6.	5.75	0.	101.38
5219	-6.75	6.	0.	106.
5220	-7.	5.75	0.	100.8
5221	-6.	5.25	0.	101.27
5222	-6.25	5.	0.	106.44
5223	-7.	5.25	0.	101.17
5224	-6.75	5.	0.	106.56
5225	-6.5	5.75	0.	112.74
5226	-6.25	5.5	0.	107.78
5227	-6.75	5.5	0.	107.55
5228	-6.5	5.25	0.	112.94
5229	0.	-7.	0.	94.878
5230	-1.	-7.	0.	95.182
5231	0.	-9.	0.	93.999
5232	-1.	-9.	0.	94.166
5233	-0.5	-7.	0.	108.93
5234	0.	-7.5	0.	98.885
5235	0.	-8.	0.	97.608
5236	0.	-8.5	0.	98.235
5237	-1.	-7.5	0.	99.054
5238	-1.	-8.	0.	97.786
5239	-1.	-8.5	0.	98.445
5240	-0.5	-9.	0.	107.25
5241	-0.5	-7.5	0.	103.28
5242	-0.5	-8.	0.	100.89
5243	-0.5	-8.5	0.	102.59
5244	-0.25	-7.	0.	101.85
5245	0.	-7.25	0.	96.878
5246	-0.75	-7.	0.	102.
5247	-1.	-7.25	0.	97.114
5248	0.	-8.75	0.	96.116
5249	-0.25	-9.	0.	100.59
5250	-1.	-8.75	0.	96.303
5251	-0.75	-9.	0.	100.67
5252	-0.5	-7.25	0.	106.05
5253	0.	-7.75	0.	98.209
5254	-0.25	-7.5	0.	101.03
5255	0.	-8.25	0.	97.886
5256	-0.25	-8.	0.	99.25
5257	-0.25	-8.5	0.	100.38
5258	-1.	-7.75	0.	98.383
5259	-0.75	-7.5	0.	101.11
5260	-1.	-8.25	0.	98.081
5261	-0.75	-8.	0.	99.339
5262	-0.75	-8.5	0.	100.48
5263	-0.5	-8.75	0.	104.88
5264	-0.5	-7.75	0.	102.08
5265	-0.5	-8.25	0.	101.74
