Node Number	X Location (mm)	Y Location (mm)	Z Location (mm)	Equivalent (von-Mises) Stress (MPa)
1	4.44	7.43	0.	191.93
2	5.47	7.25	0.	142.74
3	5.12	8.24	0.	106.76
4	-7.92	7.08	0.	112.85
5	-7.16	8.16	0.	180.57
6	-8.47	8.27	0.	174.15
7	1.75	7.54	0.	180.35
8	0.9	8.35	0.	127.54
9	0.63	7.21	0.	164.02
10	4.63	-0.24	0.	169.63
11	5.74	-1.81	0.	110.21
12	6.55	-6.e-002	0.	164.94
13	-4.74	-1.43	0.	171.85
14	-6.38	-1.23	0.	168.81
15	-5.74	-2.75	0.	111.89
16	-3.77	-2.11	0.	145.73
17	-2.77	-1.55	0.	152.63
18	-3.76	-0.97	0.	146.18
19	-4.78	-7.2	0.	158.31
20	-6.01	-6.25	0.	133.65
21	-6.22	-7.8	0.	152.39
22	-3.9	-8.33	0.	154.15
23	-2.24	-7.68	0.	159.9
24	-3.64	-6.57	0.	129.22
25	4.41	-8.03	0.	103.27
26	4.95	-7.06	0.	170.82
27	3.85	-7.08	0.	171.43
28	5.	7.	0.	106.02
29	5.	5.	0.	127.91
30	6.	7.	0.	141.71
31	6.	5.	0.	130.76
32	-9.	2.	0.	139.26
33	-9.	0.	0.	139.97
34	-7.	2.	0.	134.62
35	-7.	0.	0.	143.06
36	-2.	-5.	0.	136.38
37	-2.	-6.	0.	138.14
38	0.	-5.	0.	138.91
39	0.	-6.	0.	138.13
40	10.	10.	0.	125.02
41	-10.	10.	0.	125.09
42	10.	-10.	0.	125.54
43	-10.	-10.	0.	130.9
44	5.5	7.	0.	132.43
45	5.124	7.3105	0.	112.31
46	4.782	7.3702	0.	76.089
47	4.78	7.835	0.	78.044
48	5.295	7.745	0.	116.49
49	-7.6667	7.44	0.	96.553
50	-7.4133	7.8	0.	108.9
51	-8.1033	7.4767	0.	113.49
52	-8.2867	7.8733	0.	131.77
53	-7.5967	8.1967	0.	103.96
54	-8.0333	8.2333	0.	113.99
55	1.4667	7.81	0.	75.892
56	1.1833	8.08	0.	80.284
57	1.3767	7.43	0.	80.054
58	1.0033	7.32	0.	99.827
59	0.81	7.97	0.	130.46
60	0.72	7.59	0.	144.9
61	4.9075	-0.6325	0.	105.79
62	5.185	-1.025	0.	113.28
63	5.4625	-1.4175	0.	100.27
64	5.11	-0.195	0.	107.46
65	5.59	-0.15	0.	117.49
66	6.07	-0.105	0.	108.9
67	5.9425	-1.3725	0.	115.54
68	6.145	-0.935	0.	125.35
69	6.3475	-0.4975	0.	127.16
70	-5.2867	-1.3633	0.	107.
71	-5.8333	-1.2967	0.	112.74
72	-5.0733	-1.87	0.	100.68
73	-5.4067	-2.31	0.	98.659
74	-6.1667	-1.7367	0.	123.21
75	-5.9533	-2.2433	0.	117.61
76	-3.27	-1.83	0.	73.888
77	-3.765	-1.54	0.	143.66
78	-3.265	-1.26	0.	73.209
79	-5.19	-6.8833	0.	77.222
80	-5.6	-6.5667	0.	89.57
81	-5.26	-7.4	0.	87.348
82	-5.74	-7.6	0.	99.072
83	-6.08	-6.7667	0.	139.41
84	-6.15	-7.2833	0.	142.11
85	-3.485	-8.1675	0.	105.33
86	-3.07	-8.005	0.	112.58
87	-2.655	-7.8425	0.	100.35
88	-3.835	-7.89	0.	144.38
89	-3.77	-7.45	0.	139.89
90	-3.705	-7.01	0.	136.58
91	-2.5901	-7.4025	0.	92.35
92	-2.9401	-7.125	0.	107.75
93	-3.29	-6.8475	0.	98.805
94	4.68	-7.545	0.	105.49
95	4.13	-7.555	0.	103.59
96	4.4	-7.07	0.	102.55
97	5.	6.5	0.	122.91
98	5.	6.	0.	132.35
99	5.	5.5	0.	135.38
100	5.5	5.	0.	104.94
101	6.	6.5	0.	144.88
102	6.	6.	0.	142.48
103	6.	5.5	0.	140.13
104	-9.	1.5	0.	150.64
105	-9.	1.	0.	152.68
106	-9.	0.5	0.	150.97
107	-8.5	2.	0.	116.69
108	-8.	2.	0.	120.1
109	-7.5	2.	0.	114.92
110	-8.5	0.	0.	118.36
111	-8.	0.	0.	123.32
112	-7.5	0.	0.	119.85
113	-7.	1.5	0.	144.48
114	-7.	1.	0.	146.71
115	-7.	0.5	0.	146.86
116	-2.	-5.5	0.	145.21
117	-1.5	-5.	0.	120.59
118	-1.	-5.	0.	125.89
119	-0.5	-5.	0.	120.91
120	-1.5	-6.	0.	121.
121	-1.	-6.	0.	125.83
122	-0.5	-6.	0.	120.08
123	0.	-5.5	0.	147.08
124	9.5	10.	0.	125.06
125	9.	10.	0.	125.29
126	8.5	10.	0.	125.58
127	8.	10.	0.	125.8
128	7.5	10.	0.	125.79
129	7.	10.	0.	125.41
130	6.5	10.	0.	124.4
131	6.	10.	0.	122.8
132	5.5	10.	0.	121.33
133	5.	10.	0.	121.24
134	4.5	10.	0.	122.81
135	4.	10.	0.	125.35
136	3.5	10.	0.	127.66
137	3.	10.	0.	128.5
138	2.5	10.	0.	127.83
139	2.	10.	0.	125.77
140	1.5	10.	0.	123.66
141	1.	10.	0.	122.98
142	0.5	10.	0.	124.24
143	-5.2042e-015	10.	0.	126.28
144	-0.5	10.	0.	127.5
145	-1.	10.	0.	127.66
146	-1.5	10.	0.	127.35
147	-2.	10.	0.	126.95
148	-2.5	10.	0.	126.64
149	-3.	10.	0.	126.46
150	-3.5	10.	0.	126.42
151	-4.	10.	0.	126.54
152	-4.5	10.	0.	126.84
153	-5.	10.	0.	127.29
154	-5.5	10.	0.	127.75
155	-6.	10.	0.	127.73
156	-6.5	10.	0.	126.35
157	-7.	10.	0.	123.21
158	-7.5	10.	0.	120.11
159	-8.	10.	0.	119.26
160	-8.5	10.	0.	120.95
161	-9.	10.	0.	123.51
162	-9.5	10.	0.	124.84
163	10.	9.5	0.	124.9
164	10.	9.	0.	124.43
165	10.	8.5	0.	123.83
166	10.	8.	0.	123.29
167	10.	7.5	0.	122.94
168	10.	7.	0.	122.87
169	10.	6.5	0.	123.13
170	10.	6.	0.	123.75
171	10.	5.5	0.	124.66
172	10.	5.	0.	125.75
173	10.	4.5	0.	126.88
174	10.	4.	0.	127.89
175	10.	3.5	0.	128.68
176	10.	3.	0.	129.17
177	10.	2.5	0.	129.29
178	10.	2.	0.	129.01
179	10.	1.5	0.	128.29
180	10.	1.	0.	127.18
181	10.	0.5	0.	125.88
182	10.	-5.2042e-015	0.	124.71
183	10.	-0.5	0.	124.04
184	10.	-1.	0.	124.03
185	10.	-1.5	0.	124.61
186	10.	-2.	0.	125.49
187	10.	-2.5	0.	126.37
188	10.	-3.	0.	127.02
189	10.	-3.5	0.	127.36
190	10.	-4.	0.	127.39
191	10.	-4.5	0.	127.17
192	10.	-5.	0.	126.78
193	10.	-5.5	0.	126.3
194	10.	-6.	0.	125.81
195	10.	-6.5	0.	125.39
196	10.	-7.	0.	125.1
197	10.	-7.5	0.	124.98
198	10.	-8.	0.	125.01
199	10.	-8.5	0.	125.15
200	10.	-9.	0.	125.34
201	10.	-9.5	0.	125.48
202	-10.	9.5	0.	124.91
203	-10.	9.	0.	123.85
204	-10.	8.5	0.	120.1
205	-10.	8.	0.	118.3
206	-10.	7.5	0.	120.43
207	-10.	7.	0.	125.88
208	-10.	6.5	0.	129.76
209	-10.	6.	0.	130.98
210	-10.	5.5	0.	130.86
211	-10.	5.	0.	130.68
212	-10.	4.5	0.	131.19
213	-10.	4.	0.	132.75
214	-10.	3.5	0.	135.55
215	-10.	3.	0.	139.13
216	-10.	2.5	0.	140.51
217	-10.	2.	0.	137.3
218	-10.	1.5	0.	133.17
219	-10.	1.	0.	132.68
220	-10.	0.5	0.	132.44
221	-10.	-5.2042e-015	0.	135.83
222	-10.	-0.5	0.	138.25
223	-10.	-1.	0.	136.23
224	-10.	-1.5	0.	132.28
225	-10.	-2.	0.	129.6
226	-10.	-2.5	0.	128.53
227	-10.	-3.	0.	128.58
228	-10.	-3.5	0.	129.11
229	-10.	-4.	0.	129.59
230	-10.	-4.5	0.	129.74
231	-10.	-5.	0.	129.42
232	-10.	-5.5	0.	128.69
233	-10.	-6.	0.	127.76
234	-10.	-6.5	0.	126.95
235	-10.	-7.	0.	126.58
236	-10.	-7.5	0.	126.83
237	-10.	-8.	0.	127.65
238	-10.	-8.5	0.	128.78
239	-10.	-9.	0.	129.87
240	-10.	-9.5	0.	130.64
241	-9.5	-10.	0.	130.09
242	-9.	-10.	0.	130.02
243	-8.5	-10.	0.	130.22
244	-8.	-10.	0.	130.23
245	-7.5	-10.	0.	129.5
246	-7.	-10.	0.	127.51
247	-6.5	-10.	0.	124.55
248	-6.	-10.	0.	122.12
249	-5.5	-10.	0.	121.77
250	-5.	-10.	0.	123.04
251	-4.5	-10.	0.	123.28
252	-4.	-10.	0.	120.76
253	-3.5	-10.	0.	117.88
254	-3.	-10.	0.	118.06
255	-2.5	-10.	0.	121.12
256	-2.	-10.	0.	124.78
257	-1.5	-10.	0.	127.18
258	-1.	-10.	0.	128.18
259	-0.5	-10.	0.	128.43
260	5.2042e-015	-10.	0.	128.57
261	0.5	-10.	0.	128.88
262	1.	-10.	0.	129.31
263	1.5	-10.	0.	129.69
264	2.	-10.	0.	129.78
265	2.5	-10.	0.	129.22
266	3.	-10.	0.	127.59
267	3.5	-10.	0.	124.79
268	4.	-10.	0.	121.87
269	4.5	-10.	0.	120.78
270	5.	-10.	0.	122.07
271	5.5	-10.	0.	124.55
272	6.	-10.	0.	126.43
273	6.5	-10.	0.	127.24
274	7.	-10.	0.	127.28
275	7.5	-10.	0.	126.97
276	8.	-10.	0.	126.57
277	8.5	-10.	0.	126.19
278	9.	-10.	0.	125.86
279	9.5	-10.	0.	125.62
280	-2.6101	3.9346	0.	125.79
281	0.2135	1.8976	0.	126.48
282	0.68259	1.914	0.	126.57
283	-3.1035	3.9734	0.	125.71
284	-3.1452	3.4929	0.	125.48
285	-0.24968	2.3517	0.	126.39
286	-0.69972	2.5127	0.	126.28
287	-1.2669	2.9279	0.	126.06
288	-1.5492	3.3671	0.	126.01
289	-2.1146	3.8759	0.	125.94
290	-0.2508	1.9046	0.	126.44
291	0.23068	1.4162	0.	126.39
292	-3.5644	4.4874	0.	125.81
293	0.70973	1.4261	0.	126.42
294	1.1554	1.9416	0.	126.75
295	1.1169	2.43	0.	126.75
296	0.19201	2.367	0.	126.47
297	0.65285	2.3941	0.	126.58
298	-2.6607	3.4607	0.	125.58
299	1.5969	2.4662	0.	127.
300	-2.5936	4.4285	0.	125.9
301	-3.5852	3.9945	0.	125.73
302	-0.30457	2.77	0.	126.31
303	1.0777	2.9151	0.	126.6
304	-1.643	2.8736	0.	125.89
305	-0.86612	3.065	0.	126.17
306	-1.1713	2.4459	0.	126.13
307	1.1871	1.4507	0.	126.56
308	-1.6136	3.867	0.	126.1
309	-0.69853	1.9521	0.	126.38
310	-4.0507	4.498	0.	125.92
311	1.5628	2.9566	0.	126.86
312	1.6326	1.973	0.	127.01
313	-2.1119	4.3851	0.	126.07
314	-0.2343	1.4175	0.	126.43
315	-4.5357	4.9968	0.	125.99
316	0.73838	0.93074	0.	126.1
317	0.26058	0.92101	0.	126.15
318	2.0802	2.4984	0.	127.26
319	-2.7707	2.9869	0.	125.26
320	-3.6183	3.5046	0.	125.49
321	0.13874	2.8315	0.	126.35
322	0.60404	2.8733	0.	126.44
323	-2.393	2.9007	0.	125.43
324	-3.0652	4.9614	0.	125.74
325	-2.5771	4.9298	0.	125.88
326	-4.0451	4.9935	0.	125.83
327	-3.5554	4.982	0.	125.73
328	0.77049	0.42903	0.	125.67
329	1.0209	3.3969	0.	126.29
330	-0.42452	3.214	0.	126.2
331	-1.5999	2.4058	0.	125.89
332	1.6896	-1.5439	0.	125.83
333	1.2181	0.95244	0.	126.2
334	-1.0523	3.5923	0.	126.15
335	-1.1419	1.9409	0.	126.24
336	-4.0653	4.0029	0.	125.86
337	1.5203	3.4471	0.	126.57
338	2.0504	2.9925	0.	127.14
339	1.6651	1.4793	0.	126.83
340	-1.6448	4.3473	0.	126.23
341	-0.68788	1.4319	0.	126.48
342	0.28269	0.42491	0.	125.76
343	-4.5366	5.4927	0.	125.84
344	-5.029	4.9947	0.	126.07
345	-4.5384	4.5	0.	126.06
346	2.5668	2.5229	0.	127.36
347	2.1124	2.0044	0.	127.3
348	-2.0908	4.8893	0.	126.12
349	-0.21323	0.92029	0.	126.3
350	-2.8327	2.4879	0.	124.87
351	0.7972	-7.8191e-002	0.	125.21
352	0.53265	3.3507	0.	126.17
353	-2.4248	2.435	0.	125.19
354	1.232	-1.5591	0.	125.58
355	1.2062	-1.0974	0.	125.1
356	1.7448	-2.023	0.	126.75
357	-3.0561	5.4609	0.	125.5
358	-2.5633	5.4352	0.	125.69
359	-4.0428	5.4898	0.	125.61
360	-3.5494	5.4791	0.	125.48
361	1.6116	-1.0834	0.	125.23
362	1.2606	0.44376	0.	125.71
363	0.96239	3.88	0.	125.81
364	-0.54003	3.7046	0.	126.13
365	-2.8611	1.9885	0.	124.48
366	-1.5818	1.9254	0.	125.97
367	0.80535	-0.57597	0.	124.9
368	2.1484	-1.5155	0.	125.97
369	-4.0889	3.5091	0.	125.66
370	1.4623	3.9267	0.	126.09
371	2.0211	3.4953	0.	126.96
372	1.7058	0.9769	0.	126.44
373	-1.1706	4.1546	0.	126.26
374	1.3688	4.3843	0.	125.42
375	-1.1369	1.4341	0.	126.43
376	0.29789	-7.4411e-002	0.	125.27
377	2.8247	-3.509	0.	127.9
378	-4.5368	5.9874	0.	125.55
379	-5.0328	5.4888	0.	126.09
380	-5.0279	4.4978	0.	126.09
381	-5.5239	4.99	0.	125.86
382	-4.5471	4.0042	0.	126.06
383	2.5431	3.0131	0.	127.29
384	3.0547	2.5421	0.	127.1
385	2.1479	1.5072	0.	127.2
386	2.5954	2.0313	0.	127.5
387	2.2634	-2.5065	0.	127.86
388	1.2731	-2.035	0.	126.42
389	-1.6036	4.8313	0.	126.38
390	-2.0714	5.3994	0.	126.04
391	-0.68083	0.92552	0.	126.53
392	-0.20139	0.42232	0.	126.
393	-3.2857	2.0109	0.	124.1
394	1.3033	-7.5871e-002	0.	125.22
395	1.3592	-0.62957	0.	124.99
396	-3.368e-002	3.7777	0.	125.98
397	0.46701	3.8317	0.	125.81
398	-2.0144	1.9305	0.	125.53
399	-2.4393	1.9558	0.	124.99
400	0.7668	-1.0665	0.	124.83
401	-2.5505	5.9458	0.	125.3
402	-4.0411	5.9856	0.	125.24
403	-3.5447	5.9796	0.	125.08
404	-4.1176	3.0145	0.	125.26
405	2.8578	-4.0202	0.	127.5
406	1.7645	4.448	0.	125.97
407	1.9949	4.0263	0.	126.68
408	1.7501	0.47356	0.	125.87
409	2.0448	-1.0227	0.	125.22
410	-0.61194	4.2175	0.	126.16
411	0.9066	4.3717	0.	125.12
412	-1.5819	1.4344	0.	126.19
413	0.29783	-0.56832	0.	124.8
414	2.6248	-1.4911	0.	126.15
415	-5.5201	4.4931	0.	125.81
416	-6.0191	4.9803	0.	125.13
417	-5.5335	5.4851	0.	126.18
418	-5.0321	4.0016	0.	126.21
419	-4.5627	3.5089	0.	125.96
420	3.0376	3.0269	0.	127.09
421	3.5412	2.5592	0.	126.19
422	2.527	3.5039	0.	127.3
423	2.6285	1.5373	0.	127.63
424	2.1878	1.0082	0.	126.86
425	3.0795	2.0546	0.	127.38
426	2.3065	-3.0112	0.	128.49
427	-1.5808	5.3502	0.	126.49
428	-1.1179	4.7401	0.	126.48
429	-2.0526	5.9192	0.	125.73
430	-0.68144	0.42407	0.	126.43
431	-1.143	0.92947	0.	126.7
432	-0.1973	-7.4445e-002	0.	125.49
433	3.3135	-3.5089	0.	126.82
434	0.79455	-2.0412	0.	125.86
435	-3.7189	2.0178	0.	123.91
436	-4.1444	2.5176	0.	124.65
437	-2.879	1.5025	0.	124.12
438	-3.3085	1.5155	0.	123.56
439	3.8347	-4.0142	0.	124.32
440	3.3458	-4.0203	0.	126.
441	2.1775	4.4838	0.	126.77
442	1.8137	-3.8594e-002	0.	125.29
443	1.9018	-0.53985	0.	125.
444	0.41498	4.3195	0.	125.36
445	-2.0216	1.4455	0.	125.65
446	-2.4528	1.4722	0.	124.88
447	0.28953	-1.0608	0.	124.51
448	2.7466	-2.4954	0.	127.92
449	1.7826	4.8798	0.	125.52
450	2.2009	4.9247	0.	126.8
451	-2.5375	6.4597	0.	124.76
452	-4.0423	6.4836	0.	124.73
453	-3.5431	6.4813	0.	124.59
454	-4.5398	6.4803	0.	125.06
455	-3.32	1.0307	0.	123.02
456	-6.0147	4.4859	0.	124.96
457	-6.0305	5.4774	0.	125.78
458	6.394	-5.0106	0.	124.9
459	-5.5214	3.9972	0.	126.08
460	-5.0416	3.5061	0.	126.34
461	3.5298	3.0398	0.	126.26
462	3.0302	3.51	0.	127.31
463	3.1106	1.5648	0.	127.88
464	2.346	-3.5155	0.	128.77
465	-1.1533	0.4285	0.	126.95
466	-0.68437	-7.4295e-002	0.	125.99
467	4.3334	-4.0077	0.	122.69
468	3.8066	-3.4996	0.	125.47
469	-2.0307	6.4461	0.	125.12
470	1.383	4.9727	0.	124.23
471	-5.5329	5.9716	0.	126.53
472	3.2733	-2.998	0.	127.58
473	3.1279	-1.4714	0.	126.57
474	-0.1974	-0.56937	0.	124.81
475	-2.8993	1.0247	0.	123.72
476	0.87673	4.8715	0.	124.12
477	0.31477	-2.043	0.	125.1
478	3.5624	2.0769	0.	126.59
479	4.9711	2.1756	0.	119.93
480	2.5353	3.9897	0.	127.37
481	-4.1644	2.0186	0.	123.94
482	3.8595	-4.5312	0.	123.25
483	3.3703	-4.5329	0.	125.32
484	-4.6218	2.021	0.	124.22
485	2.6311	4.946	0.	127.95
486	2.6022	4.4667	0.	127.57
487	4.4966	2.5884	0.	122.26
488	4.9573	2.5844	0.	120.18
489	4.5104	2.1304	0.	122.38
490	4.0396	2.1012	0.	124.87
491	2.3221	-5.0085e-003	0.	125.4
492	-0.13683	-2.5365	0.	124.97
493	-0.11394	4.7714	0.	125.76
494	0.38249	4.8124	0.	124.86
495	-3.7422	1.515	0.	123.35
496	-2.041	0.95767	0.	126.
497	-2.4749	0.98994	0.	124.93
498	-0.1975	-1.0625	0.	124.19
499	-0.18962	-1.5552	0.	123.95
500	3.2355	-2.4861	0.	127.98
501	6.3795	-4.4891	0.	123.86
502	-5.4945	6.4381	0.	126.49
503	-5.6139	6.9174	0.	126.19
504	2.1892	5.3862	0.	126.96
505	-2.0196	6.971	0.	124.37
506	-2.5351	6.9724	0.	124.19
507	-3.0418	6.9779	0.	124.12
508	-3.5453	6.9837	0.	124.11
509	-4.048	6.9833	0.	124.2
510	-4.551	6.9704	0.	124.43
511	5.9788	2.4228	0.	119.35
512	6.4959	2.4401	0.	121.65
513	4.3059	-3.4904	0.	123.75
514	-1.0944	-3.0453	0.	124.52
515	-1.166	-7.0101e-002	0.	126.88
516	-1.0675	5.826	0.	127.2
517	3.1497	1.0714	0.	128.37
518	3.5267	3.5197	0.	126.76
519	-5.5268	3.5022	0.	126.62
520	6.8698	-3.4607	0.	124.88
521	6.907	-5.0044	0.	125.43
522	6.9146	-6.048	0.	125.83
523	-1.0616	-3.5363	0.	123.29
524	5.5578	1.3348	0.	115.29
525	-5.5729	1.0475	0.	123.87
526	2.5693	5.9197	0.	129.86
527	1.2758	5.4755	0.	122.34
528	-6.0654	6.0065	0.	126.95
529	4.8351	-3.9961	0.	121.47
530	3.7694	-2.9897	0.	126.74
531	3.6615	-1.4673	0.	127.98
532	-0.6314	-2.5439	0.	124.28
533	-0.68864	-0.57073	0.	125.1
534	-2.9303	0.56378	0.	123.35
535	-1.6186	0.43968	0.	127.27
536	-4.9212	-4.9793	0.	120.84
537	0.8256	5.3599	0.	122.79
538	-0.60561	5.271	0.	126.81
539	-1.5227	6.4225	0.	125.86
540	-0.5991	-3.0353	0.	124.48
541	0.86633	-3.0186	0.	128.4
542	1.895	-4.0181	0.	129.83
543	2.4342	-5.5552	0.	128.97
544	1.9525	-5.5392	0.	128.87
545	-4.4193	-4.5085	0.	123.22
546	6.0131	1.9014	0.	118.52
547	3.0281	-0.97698	0.	125.2
548	2.7248	0.53824	0.	126.87
549	3.5926	1.5926	0.	127.53
550	5.0365	1.7392	0.	119.12
551	4.0188	3.0503	0.	124.63
552	3.0389	3.9904	0.	127.67
553	3.0395	5.936	0.	130.89
554	5.4857	2.9597	0.	118.89
555	-6.0146	3.9922	0.	125.34
556	-5.0543	3.0111	0.	126.29
557	5.8831	-5.0184	0.	123.98
558	-3.0084	-3.8249	0.	126.08
559	-4.425	-4.0055	0.	124.55
560	-3.4738	-3.9496	0.	125.29
561	3.8799	-5.0411	0.	122.15
562	1.9936	-7.064	0.	127.85
563	6.9163	-7.082	0.	124.44
564	-5.0856	2.0227	0.	124.89
565	-5.0694	2.5166	0.	125.82
566	-7.0084	3.9853	0.	121.4
567	5.9872	2.9467	0.	119.76
568	6.4933	2.9533	0.	122.07
569	3.0672	4.4723	0.	128.08
570	4.505	3.0523	0.	122.29
571	4.9947	3.0266	0.	119.89
572	4.5532	1.6692	0.	122.59
573	4.0729	1.6259	0.	125.82
574	2.9182	-0.47726	0.	124.79
575	7.0172	1.9474	0.	124.83
576	6.5142	1.9286	0.	121.5
577	-3.9252	-4.5235	0.	124.16
578	1.9433	-5.0257	0.	129.1
579	1.9244	-4.5185	0.	129.58
580	-0.1044	-3.0272	0.	125.73
581	1.9753	-6.5615	0.	128.62
582	1.9613	-6.0519	0.	128.99
583	-1.465	7.001	0.	124.72
584	0.35761	5.3038	0.	124.42
585	-3.7468	1.0094	0.	123.01
586	-4.1873	1.0135	0.	123.35
587	-4.6409	1.0266	0.	123.38
588	-2.0764	0.46421	0.	126.79
589	-2.5224	0.50435	0.	125.05
590	-0.69016	-1.0659	0.	124.
591	-0.66251	-2.0525	0.	123.67
592	-0.68282	-1.5596	0.	123.45
593	3.6919	-1.9718	0.	128.31
594	6.363	-3.9704	0.	123.02
595	5.3411	-3.9856	0.	121.
596	5.8496	-3.9754	0.	121.57
597	-5.9144	6.4925	0.	127.43
598	1.6971	5.6912	0.	123.88
599	2.119	5.8741	0.	127.33
600	2.9984	6.4139	0.	131.81
601	-6.6402	7.2114	0.	131.1
602	2.0004	-7.5588	0.	127.55
603	1.4868	-7.5295	0.	128.36
604	-6.048	1.0437	0.	127.27
605	6.9931	6.0007	0.	130.65
606	4.2429	-1.4722	0.	128.46
607	5.5788	0.83541	0.	112.13
608	-1.0346	-4.0259	0.	121.43
609	-5.0469	7.4121	0.	124.11
610	-4.5664	7.4619	0.	123.85
611	-4.0593	7.4812	0.	123.8
612	-3.5517	7.4861	0.	123.82
613	-3.0474	7.4845	0.	123.84
614	-2.5467	7.4832	0.	123.84
615	-2.0549	7.4873	0.	123.84
616	-1.5965	7.513	0.	123.83
617	-4.9446	-5.4899	0.	122.54
618	-7.0147	5.4349	0.	122.42
619	-7.5065	3.9874	0.	119.52
620	-7.5073	4.4804	0.	120.2
621	-7.5078	4.971	0.	120.5
622	-7.5542	-7.5867	0.	126.67
623	-7.5471	-7.0965	0.	125.73
624	-7.4028	-4.6322	0.	128.92
625	-7.3365	-4.1549	0.	128.51
626	-7.6483	-3.4944	0.	128.74
627	-7.6464	-2.9573	0.	127.44
628	-7.636	-2.4715	0.	124.96
629	-7.605	-2.0134	0.	121.8
630	-5.9478	7.5433	0.	125.15
631	-4.4308	-3.5131	0.	127.44
632	2.9176	-5.5625	0.	128.36
633	2.531	-7.5987	0.	127.04
634	2.4472	-6.0714	0.	129.46
635	6.4002	-6.0644	0.	126.67
636	7.4113	-4.4865	0.	125.76
637	7.4202	-5.0004	0.	125.78
638	7.4287	-6.0293	0.	125.55
639	7.4791	-7.5368	0.	124.85
640	6.5122	-7.6354	0.	124.56
641	4.3868	-5.5491	0.	117.86
642	5.8921	-5.5407	0.	125.82
643	-7.5277	-6.6045	0.	126.9
644	-5.5356	3.008	0.	127.13
645	-6.0175	3.4983	0.	126.33
646	3.5328	4.0002	0.	127.51
647	3.6308	1.105	0.	128.91
648	5.0739	1.2632	0.	117.92
649	3.2046	0.57278	0.	128.1
650	7.4704	-1.0343	0.	127.58
651	7.4841	6.5042	0.	127.77
652	7.4917	6.0013	0.	128.03
653	7.496	5.498	0.	128.13
654	7.4998	3.4784	0.	126.85
655	7.5021	2.9724	0.	126.31
656	7.5152	1.9617	0.	127.04
657	7.5217	1.4558	0.	128.55
658	0.90229	-3.5117	0.	130.14
659	-4.4264	-5.0192	0.	123.62
660	-0.63355	7.7443	0.	124.04
661	-4.9074	-4.4739	0.	120.97
662	-6.5423	5.8681	0.	125.8
663	2.9751	6.8756	0.	129.83
664	3.4618	6.4353	0.	132.35
665	1.6132	6.0918	0.	121.71
666	2.0012	6.445	0.	128.73
667	-0.53314	-7.6818	0.	121.89
668	-0.46792	-7.2733	0.	121.21
669	-6.4914	6.2603	0.	127.45
670	5.8294	-3.4557	0.	120.19
671	6.3484	-3.4546	0.	122.38
672	4.1758	-1.9804	0.	128.34
673	7.3965	-2.4787	0.	128.34
674	7.4142	-1.9927	0.	129.04
675	-1.1829	-1.5633	0.	122.9
676	-2.5711	-3.1998	0.	126.27
677	-2.1199	-2.8703e-002	0.	128.2
678	-5.8716	-4.3608	0.	118.96
679	-7.1974	-2.8953	0.	128.71
680	-3.7229	0.48407	0.	122.89
681	-0.1062	5.7775	0.	126.98
682	0.35199	5.7913	0.	124.47
683	-0.78194	7.3194	0.	124.49
684	-3.9167	-5.0498	0.	123.69
685	1.4829	-6.5338	0.	129.38
686	0.48269	-7.4553	0.	127.4
687	0.41734	-3.5144	0.	128.96
688	1.4598	-5.016	0.	129.68
689	-3.4331	-4.5092	0.	125.13
690	-3.371	-5.0653	0.	122.78
691	-2.0511	-3.6112	0.	126.51
692	-2.5349	-3.7014	0.	126.98
693	7.0279	1.4407	0.	126.42
694	6.5344	1.4198	0.	121.85
695	3.2845	6.3969e-002	0.	126.54
696	3.3931	-0.4495	0.	124.6
697	4.591	1.1987	0.	123.39
698	4.1107	1.1468	0.	127.69
699	4.5134	3.5266	0.	122.64
700	3.551	4.9735	0.	128.54
701	3.5455	4.4848	0.	128.17
702	7.4722	7.0069	0.	127.28
703	7.4589	7.5086	0.	127.03
704	7.4986	4.4889	0.	128.21
705	7.4978	4.9938	0.	128.19
706	5.9981	3.4675	0.	119.65
707	3.3411	8.224	0.	128.
708	-6.5116	3.4947	0.	124.67
709	-5.5599	2.0226	0.	126.17
710	-5.5469	2.5147	0.	127.1
711	-5.5846	0.10422	0.	120.26
712	-7.5022	-6.1117	0.	129.11
713	-6.3937	-4.7884	0.	122.66
714	4.8852	-5.5434	0.	119.78
715	6.3418	-7.175	0.	123.65
716	6.3832	-6.6043	0.	125.79
717	2.5049	-7.099	0.	126.58
718	3.8934	-5.5558	0.	120.93
719	3.4048	-5.5575	0.	125.72
720	-4.4562	-3.0376	0.	133.01
721	-3.5085	-3.4246	0.	123.28
722	1.163	6.3598	0.	114.22
723	3.1089	-7.6816	0.	127.22
724	-0.19859	7.686	0.	124.06
725	-6.4411	7.6404	0.	126.07
726	-0.44799	-6.8871	0.	121.09
727	-1.5298	-4.0477	0.	122.65
728	7.4513	-0.55261	0.	124.73
729	5.0994	0.77838	0.	116.25
730	4.0202	5.4917	0.	128.23
731	-6.0412	1.5281	0.	127.37
732	-5.4303	-5.4617	0.	115.04
733	-7.0693	-7.1405	0.	125.4
734	3.8318	8.0199	0.	130.34
735	3.4686	6.9347	0.	131.89
736	-0.95804	-8.0346	0.	122.94
737	-0.51963	-8.1109	0.	123.75
738	-5.6977e-002	-8.1365	0.	125.11
739	0.43222	-7.977	0.	126.69
740	0.96517	-8.0029	0.	128.
741	1.4798	-8.0238	0.	128.37
742	1.9883	-8.0474	0.	128.37
743	2.4911	-8.0786	0.	128.48
744	-7.5057	5.4589	0.	120.44
745	3.9956	6.0135	0.	130.37
746	-4.961	-5.9802	0.	124.44
747	-5.609	-0.34204	0.	115.98
748	-8.037	-7.5582	0.	126.89
749	-8.0315	-7.0629	0.	126.23
750	-8.0181	-6.5659	0.	127.02
751	-7.9996	-6.0673	0.	128.43
752	-7.9778	-5.5654	0.	129.49
753	-7.9517	-5.0584	0.	129.73
754	-7.9123	-4.5449	0.	129.49
755	-7.83	-4.0283	0.	129.13
756	-8.1163	-3.4417	0.	128.2
757	-8.1032	-2.9587	0.	126.66
758	-8.09	-2.4702	0.	124.16
759	-8.0469	-1.9819	0.	121.18
760	-7.9718	-1.4953	0.	118.53
761	-7.9644	-0.99861	0.	117.28
762	-7.5459	-8.0733	0.	129.57
763	-8.0334	-8.0507	0.	128.48
764	-8.0027	2.9977	0.	115.59
765	-8.0034	3.4955	0.	117.72
766	-8.0041	3.9923	0.	119.31
767	-8.0047	4.488	0.	120.23
768	-8.0041	4.9835	0.	120.54
769	-7.9995	5.4805	0.	120.1
770	2.5135	6.9054	0.	132.32
771	3.1263	7.807	0.	125.08
772	-7.0074	5.8995	0.	123.6
773	4.7768	-2.9631	0.	122.45
774	6.9406	-1.5102	0.	129.25
775	6.8623	-2.9561	0.	125.87
776	2.9671	-8.1225	0.	130.12
777	5.6367	-7.595	0.	124.97
778	7.9786	7.004	0.	126.23
779	7.986	6.503	0.	126.45
780	7.9957	5.4988	0.	127.11
781	7.9974	4.9953	0.	127.49
782	8.0004	3.4842	0.	127.43
783	8.0027	2.9798	0.	127.27
784	8.0148	1.4684	0.	128.79
785	7.9873	-3.7848e-002	0.	126.45
786	7.9735	-0.53126	0.	125.73
787	7.9708	-1.0216	0.	126.07
788	7.919	-3.4832	0.	127.06
789	7.9349	-4.998	0.	126.03
790	7.9454	-6.0142	0.	125.56
791	7.9671	-7.0189	0.	125.04
792	7.9964	-8.0144	0.	125.4
793	6.5156	-8.0904	0.	125.81
794	-1.6673	-0.55717	0.	128.08
795	-5.1189	7.1827e-002	0.	122.82
796	0.78282	6.2759	0.	119.49
797	-4.0732	7.9794	0.	123.75
798	-3.5561	7.9881	0.	123.86
799	-3.0487	7.991	0.	123.9
800	-2.0528	7.9976	0.	123.87
801	-1.035	7.9818	0.	124.03
802	-0.5582	8.1437	0.	125.39
803	0.98125	-5.5107	0.	129.05
804	0.9914	-7.0024	0.	129.94
805	-0.92803	-7.0206	0.	119.09
806	6.0603	0.88284	0.	114.55
807	7.521	0.95069	0.	130.8
808	4.03	-0.93233	0.	127.79
809	3.681	0.61129	0.	130.68
810	5.5068	3.9901	0.	115.27
811	6.9278	8.0209	0.	127.67
812	6.9988	3.98	0.	127.19
813	-7.5056	2.9964	0.	117.15
814	-6.0231	3.0044	0.	127.9
815	-7.0409	-6.6539	0.	127.47
816	5.8909	-6.0641	0.	128.61
817	-3.0899	-2.8054	0.	118.94
818	-7.1778	-1.9911	0.	123.68
819	-7.4414	-0.99755	0.	121.08
820	-7.4041	-1.5443	0.	121.39
821	-4.5073	-2.5823	0.	135.79
822	-4.0113	-3.0051	0.	127.52
823	-3.5536	-2.9294	0.	118.92
824	3.4881	7.6139	0.	125.22
825	3.9037	-6.0651	0.	119.91
826	2.9553	-6.6027	0.	130.49
827	3.009	-7.1302	0.	127.2
828	5.7992	-7.1058	0.	125.28
829	5.8701	-6.5887	0.	128.07
830	5.3871	-6.0565	0.	127.45
831	4.8891	-6.0562	0.	119.03
832	-7.0798	-7.6236	0.	128.36
833	-7.0611	-8.0998	0.	131.89
834	-5.9221	-5.3654	0.	116.86
835	-6.9691	-5.6811	0.	131.17
836	-7.0059	-6.167	0.	130.13
837	-6.0488	0.10414	0.	124.17
838	-6.0363	2.0181	0.	128.52
839	-6.0302	2.511	0.	129.03
840	-6.5147	3.0005	0.	126.9
841	-7.0092	2.9975	0.	122.22
842	3.9954	8.5087	0.	132.35
843	2.8975	8.424	0.	128.58
844	1.5181	8.6623	0.	122.77
845	6.0025	3.9814	0.	119.12
846	6.4999	3.9786	0.	124.83
847	6.9991	4.4869	0.	128.79
848	6.9985	4.9929	0.	129.28
849	6.969	7.01	0.	129.3
850	6.9416	7.5178	0.	127.94
851	4.0298	4.9899	0.	128.19
852	4.5179	4.0106	0.	124.1
853	4.6237	0.71965	0.	124.97
854	3.8478	-0.40497	0.	126.16
855	7.5101	0.44584	0.	130.8
856	6.5446	0.91629	0.	123.08
857	-2.9787	-5.7592	0.	119.9
858	-2.0203	-4.0976	0.	126.41
859	-2.5008	-4.189	0.	129.15
860	-2.9194	-4.7783	0.	126.69
861	0.97317	-5.0089	0.	131.13
862	-4.4141e-002	-4.0122	0.	127.39
863	0.50421	-6.9646	0.	129.7
864	0.99162	-6.5072	0.	131.05
865	0.98618	-6.0105	0.	130.37
866	-4.9455	-8.2295	0.	125.52
867	-4.3187e-002	8.5872	0.	130.63
868	-1.0438	8.5171	0.	125.34
869	-2.5398	8.4979	0.	124.37
870	-3.0429	8.4942	0.	124.35
871	-3.5529	8.4874	0.	124.27
872	-4.0708	8.4784	0.	124.14
873	-4.5934	8.4635	0.	124.01
874	-5.119	8.4542	0.	124.03
875	-6.139	8.5507	0.	127.21
876	-3.463	-5.6352	0.	120.38
877	-0.32354	7.2392	0.	126.46
878	-5.456e-002	6.2744	0.	129.62
879	0.39643	6.2789	0.	125.24
880	-3.6501	6.5383e-003	0.	121.75
881	-4.8891	-3.4965	0.	125.7
882	-4.8722	-3.0421	0.	129.2
883	-6.3076	-3.8128	0.	122.24
884	-5.8377	-3.854	0.	118.21
885	-2.153	-0.52771	0.	131.13
886	-2.6192	-2.6799	0.	127.1
887	-1.6858	-1.0597	0.	124.9
888	-1.6691	-2.0698	0.	124.45
889	-1.6907	-1.5647	0.	123.61
890	5.5295	-8.0766	0.	129.03
891	-0.98759	-8.5158	0.	126.1
892	-0.51556	-8.5641	0.	125.76
893	0.97826	-8.5071	0.	128.21
894	1.9832	-8.5357	0.	129.2
895	2.4793	-8.5581	0.	129.75
896	2.9701	-8.5805	0.	130.14
897	3.442	-8.1364	0.	130.39
898	6.8762	-1.9733	0.	128.3
899	4.7323	-2.4412	0.	124.77
900	6.3344	-2.94	0.	121.98
901	5.2911	-2.9532	0.	118.68
902	5.8104	-2.9347	0.	118.3
903	-6.9528	6.3517	0.	126.78
904	-1.4337	-6.9942	0.	121.52
905	-1.8996	-6.9841	0.	130.08
906	-0.96275	-7.5477	0.	120.11
907	2.7205	7.947	0.	126.17
908	3.0351	7.3348	0.	126.68
909	1.5505	6.4938	0.	121.45
910	-8.4868	5.9915	0.	122.63
911	-8.4968	5.4905	0.	122.42
912	-8.5014	4.9914	0.	122.32
913	-8.5025	3.9957	0.	121.34
914	-8.502	3.4973	0.	120.19
915	-8.5016	2.9984	0.	118.7
916	2.012	7.0245	0.	138.32
917	5.4987	-8.5531	0.	128.99
918	6.0073	-8.5639	0.	128.02
919	6.5087	-8.5592	0.	127.04
920	7.0067	-8.5407	0.	126.39
921	7.5036	-8.5232	0.	126.03
922	8.0013	-8.5116	0.	125.83
923	-8.5232	-8.0327	0.	128.24
924	-8.5245	-7.5368	0.	127.26
925	-8.5203	-7.0382	0.	126.91
926	-8.5111	-6.5384	0.	127.36
927	-8.4979	-6.0364	0.	128.25
928	-8.4813	-5.5301	0.	129.03
929	-8.4599	-5.0154	0.	129.4
930	-8.428	-4.4826	0.	129.37
931	-8.3771	-3.9119	0.	128.93
932	-8.5549	-3.4289	0.	128.03
933	-8.565	-2.9551	0.	126.71
934	-8.5551	-2.468	0.	124.79
935	-8.5279	-1.9769	0.	122.54
936	-8.4942	-1.486	0.	120.57
937	-8.4832	-0.9933	0.	119.29
938	-4.4423	-8.688	0.	136.11
939	-4.9547	-8.6732	0.	124.67
940	-5.4751	-8.4927	0.	112.72
941	-6.0073	-8.5581	0.	114.97
942	-6.5263	-8.5788	0.	127.49
943	-7.0318	-8.5715	0.	132.88
944	-7.5296	-8.5558	0.	130.88
945	-8.0243	-8.5398	0.	129.88
946	-8.5182	-8.5262	0.	129.25
947	8.4826	7.9997	0.	125.38
948	8.482	7.5012	0.	125.42
949	8.4847	7.0021	0.	125.52
950	8.4892	6.5019	0.	125.72
951	8.4961	5.4995	0.	126.48
952	8.4975	4.9971	0.	126.94
953	8.4986	4.4941	0.	127.31
954	8.4992	3.9917	0.	127.53
955	8.5005	3.4892	0.	127.62
956	8.5027	2.9873	0.	127.69
957	8.5055	2.4846	0.	127.86
958	8.508	1.981	0.	128.15
959	8.5086	1.4774	0.	128.39
960	8.5067	0.97479	0.	128.29
961	8.501	0.47413	0.	127.5
962	8.4914	-2.435e-002	0.	126.39
963	8.4835	-0.51977	0.	125.61
964	8.4774	-1.014	0.	125.87
965	8.4677	-1.508	0.	126.6
966	8.4573	-2.0006	0.	127.28
967	8.4483	-2.4943	0.	127.53
968	8.4418	-2.9912	0.	127.43
969	8.441	-3.4903	0.	127.11
970	8.4421	-3.9912	0.	126.76
971	8.4459	-4.4928	0.	126.46
972	8.4511	-4.9966	0.	126.19
973	8.4565	-5.5011	0.	125.94
974	8.4618	-6.0048	0.	125.67
975	8.4689	-6.5072	0.	125.42
976	8.4774	-7.0079	0.	125.27
977	8.4881	-7.5074	0.	125.27
978	8.496	-8.0065	0.	125.43
979	8.5	-8.5053	0.	125.69
980	6.9792	8.5164	0.	126.98
981	7.9818	8.5003	0.	125.84
982	8.4871	8.499	0.	125.34
983	6.3528	8.0635	0.	126.07
984	3.937	6.5856	0.	134.23
985	2.4507	7.4206	0.	125.26
986	-1.7589	-8.4446	0.	130.11
987	-1.7973	-7.9718	0.	129.71
988	-1.4194	-7.4852	0.	120.6
989	-7.956	6.5047	0.	114.78
990	5.2541	-2.4386	0.	117.67
991	6.3182	-2.4252	0.	123.47
992	4.9803	-8.5383	0.	124.78
993	3.9506	-8.5569	0.	121.94
994	4.4583	-8.5343	0.	111.7
995	-2.1798	-2.0878	0.	130.96
996	-2.2126	-1.5624	0.	121.14
997	-6.2738	-3.3177	0.	124.07
998	-5.8024	-3.3289	0.	115.13
999	3.5514e-002	6.7489	0.	134.78
1000	-4.0426	-6.0957	0.	133.88
1001	0.5024	-6.4814	0.	133.83
1002	0.46984	-4.5058	0.	135.73
1003	-2.4699	-4.663	0.	132.68
1004	7.0243	0.43221	0.	138.21
1005	4.2033	0.17591	0.	138.97
1006	4.5188	4.5017	0.	127.89
1007	6.427	7.5162	0.	130.09
1008	-9.0011	3.4987	0.	125.15
1009	-9.0014	3.9979	0.	125.12
1010	-9.0013	4.4968	0.	125.19
1011	-9.0002	4.9954	0.	125.26
1012	-8.9969	5.4934	0.	125.58
1013	-8.9914	5.9899	0.	126.8
1014	-8.9881	6.4811	0.	129.78
1015	-8.9964	6.956	0.	130.87
1016	-9.0181	7.4113	0.	130.04
1017	-8.866	7.8638	0.	135.19
1018	-8.97	8.9979	0.	133.95
1019	-8.4863	9.0704	0.	125.93
1020	-8.0048	9.0982	0.	115.6
1021	-7.5258	9.0941	0.	119.16
1022	-7.0451	9.0785	0.	128.73
1023	-6.5598	9.0575	0.	132.
1024	-6.0679	9.0302	0.	128.61
1025	-5.5695	9.0007	0.	125.96
1026	-5.0661	8.9789	0.	125.08
1027	-4.5581	8.9775	0.	124.87
1028	-4.0493	8.9834	0.	124.92
1029	-3.5409	8.9893	0.	125.
1030	-3.0337	8.9946	0.	125.07
1031	-2.5297	8.999	0.	125.13
1032	-1.5301	9.0066	0.	125.55
1033	-1.0335	9.0179	0.	126.34
1034	-0.53684	9.0391	0.	127.82
1035	-4.0499e-002	9.0529	0.	129.72
1036	0.43964	9.0603	0.	128.21
1037	0.93169	8.9768	0.	115.99
1038	1.4745	9.0542	0.	122.28
1039	1.9817	9.0142	0.	128.48
1040	2.4875	8.9441	0.	129.9
1041	3.0453	8.9105	0.	129.04
1042	3.5495	9.0409	0.	129.21
1043	4.0429	8.9926	0.	128.87
1044	4.5552	8.9179	0.	122.73
1045	5.0649	8.8238	0.	114.5
1046	5.552	8.9172	0.	121.7
1047	6.033	8.9906	0.	127.26
1048	6.5148	9.0177	0.	126.71
1049	7.0005	9.0122	0.	126.5
1050	7.4929	9.0041	0.	126.
1051	7.9914	9.0003	0.	125.62
1052	8.4927	8.9991	0.	125.3
1053	8.9949	8.9991	0.	124.99
1054	8.9919	8.4992	0.	124.88
1055	8.9897	7.9996	0.	124.82
1056	8.9892	7.5004	0.	124.82
1057	8.9903	7.0011	0.	124.9
1058	8.9927	6.5012	0.	125.12
1059	8.9952	6.0007	0.	125.49
1060	8.9971	5.4999	0.	125.97
1061	8.9979	4.998	0.	126.51
1062	8.9987	4.4963	0.	127.02
1063	8.9994	3.9948	0.	127.42
1064	9.0004	3.4933	0.	127.71
1065	9.0019	2.992	0.	127.91
1066	9.0033	2.4899	0.	128.04
1067	9.0045	1.9873	0.	128.1
1068	9.0044	1.4854	0.	128.
1069	9.0032	0.98425	0.	127.62
1070	8.9998	0.48404	0.	126.94
1071	8.9945	-1.4961e-002	0.	126.15
1072	8.9898	-0.51234	0.	125.68
1073	8.9846	-1.0095	0.	125.72
1074	8.9784	-1.5061	0.	126.15
1075	8.9722	-2.0018	0.	126.63
1076	8.9658	-2.4988	0.	126.96
1077	8.9625	-2.9962	0.	127.06
1078	8.9611	-3.4951	0.	126.98
1079	8.9619	-3.9944	0.	126.8
1080	8.9641	-4.4951	0.	126.57
1081	8.9674	-4.9968	0.	126.32
1082	8.9711	-5.499	0.	126.05
1083	8.9749	-6.0009	0.	125.79
1084	8.9798	-6.5023	0.	125.55
1085	8.9852	-7.0029	0.	125.39
1086	8.9917	-7.5029	0.	125.35
1087	8.9968	-8.0026	0.	125.41
1088	8.9995	-8.5021	0.	125.55
1089	9.0004	-9.0015	0.	125.71
1090	8.5011	-9.0037	0.	125.94
1091	8.0023	-9.0081	0.	126.22
1092	7.5038	-9.0155	0.	126.56
1093	7.0048	-9.0258	0.	126.98
1094	6.5041	-9.0352	0.	127.42
1095	6.0008	-9.0379	0.	127.51
1096	5.4946	-9.0336	0.	126.37
1097	4.9871	-9.027	0.	121.8
1098	4.4799	-9.0275	0.	118.44
1099	3.9773	-9.0381	0.	120.78
1100	2.9802	-9.0488	0.	129.13
1101	2.4832	-9.0382	0.	129.77
1102	1.9865	-9.0241	0.	129.66
1103	1.4886	-9.0136	0.	129.28
1104	0.9905	-9.0092	0.	128.73
1105	0.49026	-9.0164	0.	128.08
1106	-1.6989e-002	-9.0333	0.	127.52
1107	-0.53057	-9.0336	0.	127.32
1108	-1.0955	-8.986	0.	127.73
1109	-1.5943	-8.9074	0.	128.38
1110	-2.0885	-8.9731	0.	126.28
1111	-3.0093	-9.0086	0.	116.26
1112	-3.4733	-9.074	0.	115.03
1113	-3.9581	-9.1099	0.	122.86
1114	-4.4483	-9.1159	0.	128.28
1115	-4.9212	-9.1066	0.	125.31
1116	-5.393	-8.9636	0.	119.2
1117	-5.9608	-9.0204	0.	118.6
1118	-6.4939	-9.0418	0.	124.77
1119	-7.0093	-9.0437	0.	129.41
1120	-7.5146	-9.0366	0.	130.64
1121	-8.0145	-9.0271	0.	130.35
1122	-9.0121	-8.5157	0.	128.97
1123	-9.0146	-8.0197	0.	128.22
1124	-9.0149	-7.5213	0.	127.59
1125	-9.012	-7.0211	0.	127.36
1126	-9.0061	-6.52	0.	127.61
1127	-8.9973	-6.0172	0.	128.17
1128	-8.9858	-5.5115	0.	128.73
1129	-8.9691	-4.9988	0.	129.08
1130	-8.9513	-4.4831	0.	129.12
1131	-8.9514	-3.9715	0.	128.84
1132	-9.0104	-3.4716	0.	128.29
1133	-9.0341	-2.9726	0.	127.44
1134	-9.0315	-2.4768	0.	126.41
1135	-9.0172	-1.9818	0.	125.42
1136	-9.0009	-1.4875	0.	124.94
1137	-8.9935	-0.99311	0.	125.53
1138	-9.0009	2.9991	0.	125.65
1139	-6.5178	2.5057	0.	131.27
1140	-6.4788	-0.39743	0.	136.1
1141	-6.4632	-5.7513	0.	132.04
1142	-6.5792	-8.1276	0.	143.13
1143	5.376	-6.5684	0.	138.26
1144	3.4316	-6.5917	0.	140.
1145	-4.079	-2.5414	0.	141.31
1146	-4.1595	-0.49688	0.	143.8
1147	-4.6248	-2.0934	0.	142.91
1148	-5.2773	-2.9551	0.	124.09
1149	-4.971	-2.5666	0.	126.87
1150	-6.2686	-2.8295	0.	130.47
1151	-6.3718	-2.3668	0.	124.33
1152	-6.8459	-1.423	0.	120.33
1153	-6.6731	-1.9441	0.	135.46
1154	-5.8206	-0.77761	0.	110.4
1155	-5.2536	-0.87927	0.	111.63
1156	-3.5956	-0.53143	0.	109.96
1157	-3.1468	-0.83765	0.	116.53
1158	-2.6853	-2.1243	0.	131.7
1159	-3.6231	-2.4695	0.	105.54
1160	-3.1587	-2.3031	0.	116.65
1161	-4.1626	-2.0876	0.	138.09
1162	-4.2305	-1.0155	0.	145.54
1163	-4.3063	-1.5981	0.	127.52
1164	4.3592	8.0066	0.	145.58
1165	4.1058	7.6573	0.	124.33
1166	3.8653	-8.0732	0.	130.81
1167	3.4801	-7.1087	0.	121.47
1168	3.6451	-7.6062	0.	139.66
1169	3.9067	-6.5732	0.	122.16
1170	4.8931	-6.5622	0.	121.34
1171	4.3983	-6.5696	0.	100.12
1172	5.322	-7.0785	0.	120.46
1173	4.9933	-8.0508	0.	130.25
1174	5.156	-7.571	0.	138.58
1175	-6.6016	-7.1984	0.	134.55
1176	-6.5107	-6.2251	0.	133.46
1177	-6.5576	-6.7097	0.	128.5
1178	-6.0913	-8.1292	0.	108.68
1179	-5.6085	-8.0199	0.	111.07
1180	-5.1583	-7.8287	0.	112.09
1181	-4.6808	-7.6995	0.	137.19
1182	-5.9498	-5.8517	0.	108.12
1183	-5.4301	-6.0437	0.	115.81
1184	-5.0452	-6.4335	0.	122.07
1185	-6.5184	6.5298e-002	0.	131.78
1186	-6.5253	0.54072	0.	134.85
1187	-6.524	1.0259	0.	135.37
1188	-6.5209	1.5167	0.	133.3
1189	-6.5188	2.0107	0.	131.16
1190	-6.9714	-0.45863	0.	137.43
1191	-8.9947	-0.49716	0.	128.33
1192	-8.489	-0.49765	0.	117.36
1193	-7.9816	-0.4986	0.	118.06
1194	-7.475	-0.49221	0.	120.59
1195	-9.0005	2.4996	0.	128.
1196	-8.5014	2.4991	0.	116.01
1197	-7.0099	2.5003	0.	124.19
1198	-7.5049	2.4985	0.	114.54
1199	-8.0026	2.4987	0.	115.19
1200	6.4994	4.9937	0.	129.61
1201	6.4984	5.4975	0.	133.1
1202	6.4961	5.9998	0.	136.24
1203	6.4907	6.502	0.	136.27
1204	6.475	7.0056	0.	131.34
1205	6.0025	4.4911	0.	120.22
1206	5.0108	4.5004	0.	118.46
1207	5.5057	4.4955	0.	107.82
1208	4.6511	0.24063	0.	129.6
1209	6.5452	0.42081	0.	126.96
1210	6.0661	0.38638	0.	109.81
1211	5.5877	0.3414	0.	111.71
1212	5.1134	0.29162	0.	111.37
1213	6.8858	-0.60723	0.	135.99
1214	6.3075	-1.921	0.	128.4
1215	6.4369	-1.4654	0.	123.81
1216	6.5769	-1.0295	0.	130.49
1217	5.0122	-1.5881	0.	119.96
1218	4.2864	-0.3181	0.	122.4
1219	4.4785	-0.78599	0.	140.86
1220	4.722	-1.2204	0.	125.31
1221	-2.4897	-6.1281	0.	129.71
1222	-2.4683	-5.1453	0.	129.27
1223	-2.4886	-5.6384	0.	128.37
1224	-1.998	-4.5688	0.	127.73
1225	-1.5083	-4.5289	0.	119.71
1226	-1.0137	-4.5146	0.	121.33
1227	-2.2719e-002	-4.5063	0.	129.04
1228	-0.51806	-4.509	0.	120.64
1229	0.48443	-5.0043	0.	134.01
1230	0.49527	-5.9958	0.	133.09
1231	0.49054	-5.5025	0.	133.19
1232	-2.0097	-6.5326	0.	129.98
1233	-1.4781	-6.505	0.	120.92
1234	-0.97688	-6.4961	0.	120.38
1235	-0.48294	-6.4609	0.	118.93
1236	1.3443e-002	-6.4617	0.	128.37
1237	-6.9331	7.7224	0.	143.81
1238	-7.1531	7.3192	0.	130.25
1239	-8.4484	8.6508	0.	133.33
1240	-7.0937	8.6212	0.	137.23
1241	-7.5534	8.6452	0.	112.27
1242	-8.0068	8.6614	0.	108.48
1243	-8.4791	6.9754	0.	132.47
1244	-8.884	8.4472	0.	134.84
1245	-8.572	7.4175	0.	132.48
1246	-4.4023	-8.2709	0.	131.73
1247	-4.2791	-7.8741	0.	141.14
1248	-4.2233	-7.4862	0.	136.89
1249	-4.142	-6.5965	0.	135.61
1250	-3.5386	-6.1525	0.	112.5
1251	-3.0196	-6.3351	0.	121.68
1252	-2.5705	-6.683	0.	126.66
1253	-1.9189	-7.4602	0.	123.99
1254	-2.3204	-7.0611	0.	134.13
1255	-3.9458	-8.6882	0.	126.57
1256	-3.4723	-8.6153	0.	112.76
1257	-3.0162	-8.5069	0.	115.55
1258	-2.5428	-8.3925	0.	121.53
1259	-2.1104	-8.5261	0.	128.13
1260	1.7548	8.139	0.	137.4
1261	1.4169	8.3395	0.	120.79
1262	1.1479	8.6022	0.	109.01
1263	0.14673	7.2019	0.	126.62
1264	0.49749	8.5847	0.	136.2
1265	0.3588	8.0883	0.	129.4
1266	0.25454	7.6405	0.	131.77
1267	0.50697	6.7541	0.	127.88
1268	1.4878	6.9348	0.	119.79
1269	4.5144	4.9982	0.	127.27
1270	4.5074	5.5009	0.	128.92
1271	4.4944	6.0047	0.	129.08
1272	4.4922	6.4915	0.	128.4
1273	5.6303	8.3938	0.	130.2
1274	5.802	7.9103	0.	124.82
1275	9.0005	-9.5008	0.	125.82
1276	8.5009	-9.502	0.	126.12
1277	8.0016	-9.5043	0.	126.48
1278	7.5023	-9.5079	0.	126.87
1279	7.0025	-9.5125	0.	127.22
1280	6.5017	-9.5164	0.	127.32
1281	5.9995	-9.5179	0.	126.74
1282	5.4967	-9.5162	0.	124.89
1283	4.994	-9.514	0.	122.05
1284	4.4919	-9.5147	0.	120.13
1285	3.9908	-9.519	0.	121.7
1286	3.4904	-9.5232	0.	125.13
1287	2.9903	-9.523	0.	128.
1288	2.4909	-9.5191	0.	129.41
1289	1.9926	-9.5124	0.	129.77
1290	1.4944	-9.5076	0.	129.58
1291	0.99575	-9.506	0.	129.15
1292	0.49354	-9.5089	0.	128.66
1293	-1.5018e-002	-9.5133	0.	128.3
1294	-0.53212	-9.5083	0.	128.16
1295	-1.0456	-9.4892	0.	128.08
1296	-1.5477	-9.469	0.	127.35
1297	-2.0395	-9.4838	0.	124.98
1298	-2.5173	-9.4869	0.	121.18
1299	-2.9996	-9.5104	0.	117.57
1300	-3.4855	-9.5356	0.	117.41
1301	-3.9781	-9.5515	0.	121.1
1302	-4.4738	-9.5547	0.	124.34
1303	-4.9702	-9.54	0.	123.52
1304	-5.4668	-9.4995	0.	121.22
1305	-5.9758	-9.5057	0.	121.35
1306	-6.4904	-9.5167	0.	124.43
1307	-7.0004	-9.5199	0.	127.93
1308	-7.5053	-9.5177	0.	129.81
1309	-8.0065	-9.5135	0.	130.31
1310	-8.5059	-9.5092	0.	130.16
1311	-9.0043	-9.5056	0.	129.92
1312	-9.5023	-9.5027	0.	129.93
1313	-9.5043	-9.0051	0.	129.49
1314	-9.5061	-8.5073	0.	128.84
1315	-9.5071	-8.0089	0.	128.13
1316	-9.507	-7.5094	0.	127.59
1317	-9.5055	-7.0091	0.	127.39
1318	-9.5025	-6.5082	0.	127.59
1319	-9.4981	-6.0063	0.	128.05
1320	-9.4914	-5.5028	0.	128.57
1321	-9.4834	-4.9974	0.	128.96
1322	-9.4776	-4.4932	0.	129.1
1323	-9.4817	-3.9911	0.	128.99
1324	-9.5015	-3.49	0.	128.67
1325	-9.5136	-2.9887	0.	128.28
1326	-9.5142	-2.4887	0.	128.08
1327	-9.5084	-1.9903	0.	128.37
1328	-9.5017	-1.4928	0.	129.42
1329	-9.4981	-0.9957	0.	131.69
1330	-9.498	-0.49805	0.	136.51
1331	-9.4995	6.3733e-004	0.	137.37
1332	-9.4999	0.5002	0.	140.4
1333	-9.5	1.0001	0.	142.11
1334	-9.5	1.5	0.	140.55
1335	-9.5001	1.9999	0.	137.98
1336	-9.5002	2.4998	0.	137.29
1337	-9.5004	2.9996	0.	132.87
1338	-9.5005	3.4994	0.	130.75
1339	-9.5007	3.9991	0.	129.49
1340	-9.5006	4.4986	0.	128.7
1341	-9.5	4.9979	0.	128.35
1342	-9.4985	5.4965	0.	128.36
1343	-9.4966	5.9936	0.	128.66
1344	-9.4963	6.4872	0.	128.82
1345	-9.4993	6.9767	0.	128.46
1346	-9.4924	7.4666	0.	126.63
1347	-9.4467	7.9592	0.	123.8
1348	-9.4467	8.4686	0.	127.47
1349	-9.4769	8.9849	0.	128.15
1350	-9.494	9.4957	0.	126.03
1351	-8.9941	9.5052	0.	126.23
1352	-8.4988	9.531	0.	123.66
1353	-8.0042	9.5455	0.	120.34
1354	-7.5108	9.5459	0.	121.52
1355	-7.0177	9.5388	0.	125.48
1356	-6.5233	9.528	0.	127.29
1357	-6.027	9.5147	0.	127.21
1358	-5.5288	9.5012	0.	126.56
1359	-5.029	9.4916	0.	126.13
1360	-4.0248	9.4911	0.	125.85
1361	-3.5221	9.4933	0.	125.83
1362	-3.0189	9.4967	0.	125.88
1363	-2.5171	9.499	0.	125.97
1364	-2.016	9.5014	0.	126.14
1365	-1.5168	9.5042	0.	126.39
1366	-1.0186	9.5101	0.	126.76
1367	-0.52035	9.5185	0.	127.2
1368	-2.2547e-002	9.5258	0.	127.24
1369	0.47627	9.5223	0.	125.24
1370	0.97558	9.5022	0.	123.11
1371	1.4829	9.5136	0.	123.85
1372	1.9937	9.5017	0.	126.49
1373	2.5039	9.4746	0.	127.72
1374	3.0113	9.4692	0.	127.85
1375	3.5181	9.501	0.	127.35
1376	4.0277	9.4885	0.	126.2
1377	4.5309	9.4548	0.	123.33
1378	5.0285	9.41	0.	121.33
1379	5.519	9.4551	0.	122.3
1380	6.0125	9.4896	0.	124.44
1381	6.507	9.5052	0.	125.27
1382	7.0023	9.5059	0.	125.51
1383	7.4989	9.5027	0.	125.56
1384	7.9972	9.5007	0.	125.48
1385	8.497	9.4996	0.	125.34
1386	8.9977	9.4995	0.	125.15
1387	9.4988	9.4996	0.	124.93
1388	9.4974	8.9994	0.	124.66
1389	9.4961	8.4995	0.	124.4
1390	9.495	7.9998	0.	124.19
1391	9.4949	7.5002	0.	124.08
1392	9.4954	7.0005	0.	124.13
1393	9.4964	6.5006	0.	124.37
1394	9.4975	6.0004	0.	124.82
1395	9.4984	5.5	0.	125.43
1396	9.4987	4.9991	0.	126.14
1397	9.4991	4.4981	0.	126.85
1398	9.4996	3.9974	0.	127.48
1399	9.5002	3.4969	0.	127.97
1400	9.5008	2.996	0.	128.27
1401	9.5015	2.4948	0.	128.37
1402	9.5018	1.9937	0.	128.25
1403	9.5018	1.4928	0.	127.87
1404	9.5012	0.99229	0.	127.25
1405	9.4997	0.4922	0.	126.47
1406	9.4973	-7.305e-003	0.	125.75
1407	9.4923	-1.0051	0.	125.28
1408	9.4863	-2.0017	0.	126.07
1409	9.4833	-2.4999	0.	126.51
1410	9.4818	-2.9984	0.	126.82
1411	9.481	-3.4976	0.	126.95
1412	9.4811	-3.9973	0.	126.91
1413	9.4821	-4.4974	0.	126.74
1414	9.4837	-4.998	0.	126.48
1415	9.4855	-5.4989	0.	126.17
1416	9.4875	-5.9998	0.	125.85
1417	9.49	-6.5004	0.	125.57
1418	9.4927	-7.0007	0.	125.38
1419	9.4957	-7.5007	0.	125.29
1420	9.4982	-8.0007	0.	125.3
1421	9.4996	-8.5007	0.	125.39
1422	9.5001	-9.0005	0.	125.5
1423	9.5002	-9.5003	0.	125.59
1424	5.9279	7.4415	0.	112.5
1425	4.1742	7.0512	0.	146.27
1426	4.5735	6.9075	0.	125.6
1427	5.3861	-5.542	0.	123.76
1428	5.3757	-5.0247	0.	122.36
1429	7.4776	8.5054	0.	126.49
1430	7.9981	4.4909	0.	127.72
1431	0.93292	-4.0084	0.	132.07
1432	-2.0861	-3.1219	0.	127.44
1433	6.497	3.4667	0.	122.87
1434	5.5018	3.4807	0.	117.93
1435	2.815	2.7071e-002	0.	125.69
1436	7.4017	-3.9775	0.	125.92
1437	2.2154	-2.0152	0.	126.98
1438	6.9891	-7.7804e-002	0.	125.13
1439	7.9393	-5.5074	0.	125.83
1440	9.4948	-0.50654	0.	125.31
1441	1.4414	-4.5114	0.	130.81
1442	4.0205	3.5275	0.	125.35
1443	-5.1075	0.55355	0.	122.93
1444	7.4975	-8.0316	0.	125.36
1445	-0.61732	4.7448	0.	126.34
1446	4.3757	-5.0346	0.	120.26
1447	0.47543	-8.5142	0.	127.29
1448	-3.0476	5.9654	0.	125.1
1449	0.98912	6.7691	0.	106.3
1450	-4.5276	9.4894	0.	125.94
1451	6.9126	-5.5258	0.	125.84
1452	-2.1875	-1.0404	0.	131.22
1453	5.156e-002	3.2989	0.	126.17
1454	-4.6039	2.5174	0.	125.05
1455	8.0123	0.9641	0.	129.27
1456	3.3905	-5.0445	0.	125.04
1457	-4.6412	0.53044	0.	124.51
1458	4.6396	-1.8813	0.	126.89
1459	-7.0097	4.4751	0.	121.57
1460	-6.3917	-0.83983	0.	139.76
1461	-4.6337	1.5239	0.	123.49
1462	6.5151	8.5471	0.	127.82
1463	4.36	-4.5165	0.	121.68
1464	-7.2297	-3.7221	0.	128.6
1465	7.9728	8.0021	0.	126.02
1466	7.4248	-5.5159	0.	125.78
1467	8.493	6.0008	0.	126.05
1468	-4.5843	3.0134	0.	125.65
1469	5.3618	-4.5046	0.	121.65
1470	-1.5957	0.9384	0.	126.6
1471	1.4815	-8.519	0.	128.82
1472	7.0031	2.4548	0.	124.29
1473	-2.6017	2.2958e-002	0.	125.68
1474	3.416	-6.0749	0.	128.97
1475	7.4988	3.9836	0.	127.65
1476	-6.6256	8.5936	0.	137.08
1477	7.9282	-4.4905	0.	126.23
1478	-1.5545	8.0031	0.	123.91
1479	-5.3904	-4.4242	0.	118.72
1480	-6.8396	-4.2424	0.	126.14
1481	2.2486	0.49742	0.	126.2
1482	-8.5027	4.4932	0.	122.04
1483	1.4676	-5.5239	0.	128.97
1484	-4.6111	7.9556	0.	123.63
1485	-4.7279	-0.94862	0.	139.74
1486	-7.0121	4.959	0.	121.9
1487	2.6191	5.4311	0.	128.7
1488	2.4697	-6.5859	0.	128.79
1489	4.0223	2.5755	0.	124.51
1490	-4.5196	-6.068	0.	131.97
1491	2.6713	1.0383	0.	127.5
1492	-6.4271	-5.2744	0.	123.87
1493	5.3167	-3.468	0.	120.14
1494	-1.5406	8.5045	0.	124.63
1495	5.012	4.0032	0.	118.28
1496	4.0253	4.0089	0.	126.75
1497	7.9225	-3.9865	0.	126.55
1498	1.4748	-6.03	0.	129.14
1499	1.4141	-4.0114	0.	130.94
1500	-5.5662	1.5327	0.	125.
1501	-4.1834	1.5177	0.	123.37
1502	5.0075	3.5097	0.	119.35
1503	-1.3857	-7.9683	0.	123.58
1504	3.751	0.10931	0.	128.62
1505	1.7977	5.3226	0.	125.02
1506	7.4818	-5.8412e-002	0.	128.51
1507	-3.1225	0.107	0.	120.58
1508	-4.6428	3.5887e-002	0.	128.73
1509	5.5157	1.8488	0.	117.58
1510	-5.4913e-002	-7.7594	0.	124.45
1511	7.5067	2.4669	0.	126.32
1512	-4.1766	0.50933	0.	124.65
1513	-3.0801	4.464	0.	125.8
1514	-6.7379	-3.3185	0.	129.13
1515	-1.1308	-2.5539	0.	124.64
1516	-2.0291	9.002	0.	125.24
1517	6.9968	5.4971	0.	129.5
1518	0.76814	-1.558	0.	125.14
1519	3.5419	5.4702	0.	129.44
1520	-3.9644	-5.5756	0.	124.42
1521	-0.54888	8.5716	0.	127.23
1522	-7.4472	6.4348	0.	119.65
1523	-1.1632	-2.0596	0.	123.78
1524	4.5741	8.4021	0.	126.67
1525	-4.4594	-5.5365	0.	127.11
1526	-3.9469	-3.9986	0.	125.07
1527	7.9379	-2.0002	0.	128.04
1528	-7.3596	6.9062	0.	126.68
1529	-6.3392	6.663	0.	129.15
1530	7.4327	-6.5394	0.	125.11
1531	-2.6816	-0.9859	0.	132.62
1532	0.34964	-2.531	0.	126.04
1533	-0.56639	-3.5261	0.	124.07
1534	-3.1036	-0.3998	0.	118.21
1535	-6.7699	-2.4279	0.	127.84
1536	-5.0621	6.9437	0.	124.97
1537	-5.7526	8.0069	0.	123.6
1538	-5.1959	7.8929	0.	123.65
1539	2.9328	-6.0792	0.	130.87
1540	-7.4421	-5.1246	0.	129.67
1541	-4.2235	-7.0706	0.	127.39
1542	-3.971	-3.4905	0.	126.13
1543	5.2015	-1.9692	0.	122.13
1544	6.9979	2.9627	0.	124.53
1545	-0.53033	6.2955	0.	128.93
1546	0.29331	-1.5545	0.	124.57
1547	-7.5061	3.4925	0.	118.49
1548	7.4472	-1.5159	0.	128.3
1549	0.98041	-7.5011	0.	128.54
1550	-3.3095	0.56361	0.	122.07
1551	-5.1057	1.0403	0.	123.11
1552	5.7829	-2.3986	0.	113.81
1553	8.0114	1.9726	0.	127.97
1554	8.441e-003	-7.3547	0.	124.81
1555	7.9183	-2.9849	0.	127.67
1556	7.3949	-3.4731	0.	126.45
1557	-2.238e-002	-8.5635	0.	126.36
1558	-6.3509	-4.3037	0.	122.18
1559	0.95543	-4.5086	0.	132.76
1560	6.9786	-7.5723	0.	124.55
1561	2.4031	-4.5259	0.	128.52
1562	2.1151	7.8609	0.	124.8
1563	4.2732	-2.9788	0.	125.18
1564	-1.0224	6.3504	0.	127.16
1565	-5.3442	-3.4238	0.	117.38
1566	-8.9903e-002	4.2712	0.	125.81
1567	-7.3675e-002	-3.5196	0.	126.5
1568	5.8689	-4.4968	0.	122.67
1569	-1.5928	-3.0711	0.	126.09
1570	-3.0433	-3.3142	0.	123.35
1571	-6.7379	8.1418	0.	119.93
1572	6.8946	-4.4872	0.	124.96
1573	-5.0973	1.5304	0.	123.84
1574	4.1549	0.66476	0.	131.22
1575	-7.9848	5.9836	0.	119.03
1576	-0.17012	-2.0473	0.	124.28
1577	-2.6343	-0.47078	0.	127.6
1578	-1.6431	-5.6474e-002	0.	128.07
1579	7.0028	-1.0651	0.	128.45
1580	7.999	3.9874	0.	127.67
1581	6.0267	-8.1008	0.	127.19
1582	7.9531	-6.5187	0.	125.25
1583	-1.5565	5.8808	0.	126.4
1584	-6.511	3.9876	0.	123.7
1585	6.4007	-5.5357	0.	126.07
1586	4.8763	-5.026	0.	120.62
1587	4.3966	-6.0559	0.	112.52
1588	-5.6375	8.4986	0.	124.99
1589	3.4777	-9.0497	0.	126.56
1590	-5.4105	-4.9338	0.	117.96
1591	-5.3707	-3.9207	0.	118.68
1592	2.8847	-4.5301	0.	127.16
1593	6.5003	4.4875	0.	129.19
1594	-0.93796	6.8558	0.	126.13
1595	0.38267	-3.0223	0.	127.3
1596	-4.1529	6.5978e-003	0.	127.93
1597	7.9247	-2.4901	0.	128.16
1598	1.9353	8.5465	0.	131.85
1599	-6.5152	4.9626	0.	123.72
1600	-6.0512	0.56725	0.	125.64
1601	6.0655	8.5165	0.	126.73
1602	-7.4736	-5.6191	0.	130.09
1603	7.9562	-1.5123	0.	127.36
1604	-1.1859	-1.0657	0.	124.29
1605	3.1904	-1.9776	0.	127.72
1606	5.4257	2.4005	0.	118.78
1607	-8.4717	6.4911	0.	125.39
1608	-2.1385	3.3383	0.	125.75
1609	-1.093	5.2951	0.	126.84
1610	-1.1858	7.469	0.	123.98
1611	7.983	-7.518	0.	125.09
1612	-5.0324	6.4638	0.	125.67
1613	8.0066	2.4764	0.	127.42
1614	3.7988	7.3072	0.	128.52
1615	-6.7392	-2.8695	0.	128.73
1616	6.9978	3.4713	0.	125.48
1617	9.4893	-1.5036	0.	125.59
1618	-5.162	-0.40672	0.	121.48
1619	-6.0286	-0.33794	0.	122.04
1620	-5.5785	0.57004	0.	122.53
1621	6.9851	6.5045	0.	129.99
1622	-6.9213	-0.93335	0.	138.88
1623	3.5145	5.9645	0.	131.22
1624	-6.1341	7.0868	0.	127.78
1625	0.83051	-2.5276	0.	126.97
1626	-6.6228	-7.674	0.	129.15
1627	7.4578	8.008	0.	126.69
1628	7.0035	-8.0589	0.	125.46
1629	-2.0405	8.5006	0.	124.42
1630	6.8594	-2.4591	0.	128.09
1631	-2.1307	-2.6108	0.	130.08
1632	-9.0084	-9.0111	0.	129.57
1633	2.7936	-3.0016	0.	128.1
1634	2.5288	-0.99356	0.	125.17
1635	-7.1918	-2.4442	0.	127.22
1636	-0.10174	8.1348	0.	127.33
1637	0.78986	5.8303	0.	120.93
1638	7.3919	-2.9747	0.	127.39
1639	2.5808e-002	-6.9134	0.	125.97
1640	-6.8933	-4.7168	0.	126.75
1641	-6.7742	-3.7782	0.	126.66
1642	6.0424	1.3874	0.	117.05
1643	-5.8993	-4.8649	0.	118.32
1644	3.459	-8.5842	0.	129.97
1645	3.5341	-0.96143	0.	125.67
1646	-6.2618	8.0849	0.	126.25
1647	-0.58086	5.7904	0.	127.73
1648	-4.6713	-0.45699	0.	133.64
1649	-2.0096	2.4048	0.	125.56
1650	-6.512	4.4774	0.	123.44
1651	-2.9179	-5.2291	0.	123.8
1652	3.7307	-2.481	0.	127.86
1653	2.3756	-4.019	0.	128.73
1654	7.9918	6.0011	0.	126.77
1655	-1.5582	-3.5643	0.	124.54
1656	0.4445	-4.0101	0.	131.46
1657	-5.032	5.9766	0.	126.02
1658	-6.5224	5.4345	0.	124.52
1659	1.4904	-7.0324	0.	128.86
1660	-1.632	-2.574	0.	126.82
1661	-4.8988	-3.9776	0.	122.18
1662	-6.8287	6.7881	0.	129.43
1663	7.4478	-7.0417	0.	124.76
1664	-0.54007	-4.0179	0.	123.02
1665	-5.4935	7.4251	0.	124.55
1666	4.8089	-3.4799	0.	121.73
1667	-2.972	-4.325	0.	127.64
1668	2.905	-5.0445	0.	127.3
1669	-7.0088	3.4924	0.	121.55
1670	-6.934	-5.1982	0.	128.93
1671	-8.5119	-9.0183	0.	129.9
1672	2.4095	8.3653	0.	130.46
1673	4.0304	4.4965	0.	128.02
1674	-0.44382	6.7803	0.	129.01
1675	-1.1778	-0.56727	0.	125.98
1676	-7.4904	5.9463	0.	119.71
1677	7.0308	0.93597	0.	129.98
1678	2.5124	6.4198	0.	131.85
1679	-2.0132	2.8655	0.	125.66
1680	3.503	8.6316	0.	129.83
1681	6.06	-7.6568	0.	124.64
1682	1.2103	5.9309	0.	119.68
1683	-3.0411	6.4707	0.	124.6
1684	2.4213	-0.50731	0.	124.91
1685	4.2293	-2.4707	0.	126.92
1686	8.0031	0.4614	0.	128.64
1687	-0.1201	5.2775	0.	126.04
1688	-2.548	7.9921	0.	123.9
1689	3.0832	4.9594	0.	128.6
1690	7.9723	7.5039	0.	126.09
1691	-7.1851	-3.3208	0.	128.77
1692	2.6974	-1.9925	0.	127.23
1693	4.8607	-4.5085	0.	121.17
1694	6.8819	-3.9734	0.	124.69
1695	-1.3969	-8.4416	0.	127.74
1696	-4.6343	-6.6477	0.	132.48
1697	6.9058	-6.5717	0.	125.15
1698	3.0738	5.4523	0.	129.53
1699	2.4224	-5.0387	0.	128.48
1700	-3.6594	3.0133	0.	125.09
1701	-3.2076	3.0052	0.	125.11
1702	-3.6949	2.5164	0.	124.54
1703	-3.2561	2.5077	0.	124.63
1704	1.3086	-2.527	0.	127.55
1705	1.7864	-2.5226	0.	127.8
1706	1.3463	-3.0211	0.	128.83
1707	1.8269	-3.0204	0.	128.78
1708	1.381	-3.5177	0.	130.1
1709	1.8625	-3.5176	0.	129.52
1710	-2.5446	-8.9646	0.	121.45
1711	-2.1756	-8.0967	0.	133.29
1712	4.611	7.4001	0.	127.67
1713	4.61	7.6325	0.	129.11
1714	4.2729	7.5436	0.	158.04
1715	4.3071	7.2406	0.	168.75
1716	5.485	7.125	0.	136.32
1717	5.297	7.2802	0.	125.15
1718	5.3825	7.4975	0.	126.22
1719	5.6989	7.3457	0.	126.64
1720	4.95	8.0375	0.	84.624
1721	5.2075	7.9925	0.	109.28
1722	5.0924	8.5319	0.	110.2
1723	5.3752	8.3169	0.	118.26
1724	4.847	8.3211	0.	115.8
1725	-7.7933	7.26	0.	101.76
1726	-8.0117	7.2783	0.	110.61
1727	-7.938	6.7924	0.	113.38
1728	-8.1995	7.0277	0.	122.34
1729	-7.6398	6.9931	0.	119.22
1730	-7.2867	7.98	0.	140.1
1731	-7.3783	8.1783	0.	140.42
1732	-7.1269	8.3906	0.	158.65
1733	-6.9489	8.1509	0.	150.03
1734	-8.3783	8.0717	0.	149.36
1735	-8.2517	8.2517	0.	143.09
1736	-8.4592	8.4604	0.	153.58
1737	-8.677	8.3586	0.	153.8
1738	1.6083	7.675	0.	126.07
1739	1.5633	7.485	0.	129.13
1740	1.881	7.2823	0.	159.03
1741	1.9325	7.7005	0.	152.39
1742	1.0417	8.215	0.	100.41
1743	0.855	8.16	0.	126.45
1744	1.024	8.4761	0.	116.52
1745	0.69874	8.4673	0.	131.12
1746	0.81667	7.265	0.	131.75
1747	0.675	7.4	0.	152.19
1748	0.38837	7.206	0.	144.24
1749	0.56848	6.982	0.	145.89
1750	4.7688	-0.43625	0.	135.81
1751	4.87	-0.2175	0.	137.73
1752	4.6406	3.1619e-004	0.	149.23
1753	4.4582	-0.27905	0.	145.87
1754	5.6013	-1.6137	0.	103.31
1755	5.8412	-1.5912	0.	111.36
1756	6.0238	-1.8655	0.	119.1
1757	5.4707	-1.8896	0.	115.74
1758	5.7614	-2.1043	0.	111.72
1759	6.31	-8.25e-002	0.	136.5
1760	6.4488	-0.27875	0.	144.05
1761	6.5476	0.1804	0.	145.85
1762	6.7695	-6.8902e-002	0.	144.51
1763	-5.0133	-1.3967	0.	137.98
1764	-4.9067	-1.65	0.	133.19
1765	-4.5232	-1.514	0.	149.5
1766	-4.7339	-1.1893	0.	154.96
1767	-6.1067	-1.2633	0.	140.24
1768	-6.2733	-1.4833	0.	143.7
1769	-6.6129	-1.3265	0.	144.23
1770	-6.3859	-1.0349	0.	153.89
1771	-5.5733	-2.53	0.	102.14
1772	-5.8467	-2.4967	0.	112.48
1773	-5.7712	-3.0395	0.	113.15
1774	-5.5086	-2.8525	0.	117.49
1775	-6.0043	-2.7898	0.	120.83
1776	-3.52	-1.97	0.	108.24
1777	-3.7675	-1.825	0.	142.97
1778	-3.6965	-2.2897	0.	125.22
1779	-3.9663	-2.0988	0.	140.33
1780	-3.02	-1.69	0.	110.78
1781	-3.0175	-1.405	0.	110.1
1782	-2.4913	-1.5562	0.	136.84
1783	-2.7277	-1.8372	0.	141.55
1784	-2.7258	-1.268	0.	142.03
1785	-3.7625	-1.255	0.	143.22
1786	-3.5125	-1.115	0.	107.93
1787	-3.6778	-0.75072	0.	127.45
1788	-3.9952	-0.99277	0.	144.57
1789	-4.985	-7.0417	0.	117.68
1790	-5.02	-7.3	0.	121.85
1791	-4.7304	-7.4498	0.	147.23
1792	-4.5017	-7.1353	0.	142.76
1793	-4.7072	-6.9239	0.	145.03
1794	-5.805	-6.4083	0.	110.19
1795	-6.045	-6.5083	0.	135.27
1796	-6.2603	-6.2376	0.	132.39
1797	-5.9799	-6.0508	0.	120.27
1798	-5.98	-7.7	0.	125.51
1799	-6.185	-7.5417	0.	145.72
1800	-6.1557	-7.9646	0.	130.35
1801	-6.4214	-7.737	0.	139.28
1802	-3.6925	-8.2487	0.	129.71
1803	-3.8675	-8.11	0.	148.42
1804	-4.1511	-8.3004	0.	141.94
1805	-3.9229	-8.5091	0.	140.3
1806	-2.4475	-7.7613	0.	129.72
1807	-2.415	-7.5412	0.	126.06
1808	-2.0795	-7.5701	0.	141.79
1809	-2.2078	-7.8884	0.	146.12
1810	-3.6725	-6.79	0.	132.28
1811	-3.465	-6.7087	0.	113.45
1812	-3.891	-6.5833	0.	131.84
1813	-3.5893	-6.3612	0.	120.48
1814	4.545	-7.7875	0.	98.783
1815	4.27	-7.7925	0.	97.515
1816	4.4341	-8.2821	0.	107.21
1817	4.1377	-8.0516	0.	116.79
1818	4.7016	-8.0404	0.	116.52
1819	4.815	-7.3025	0.	131.68
1820	4.675	-7.065	0.	135.42
1821	4.9215	-6.8111	0.	145.74
1822	5.136	-7.0692	0.	145.24
1823	3.99	-7.3175	0.	131.12
1824	4.125	-7.075	0.	135.62
1825	3.665	-7.0944	0.	146.09
1826	3.8784	-6.8266	0.	146.45
1827	5.25	7.	0.	118.32
1828	5.062	7.1552	0.	107.31
1829	5.	6.75	0.	114.37
1830	4.7868	6.9537	0.	114.28
1831	5.	5.25	0.	131.4
1832	5.25	5.	0.	115.96
1833	5.0054	4.7502	0.	123.14
1834	4.7572	4.9991	0.	127.28
1835	5.75	7.	0.	132.63
1836	6.	6.75	0.	142.51
1837	6.2375	7.0028	0.	135.95
1838	5.9639	7.2207	0.	126.85
1839	5.75	5.	0.	117.38
1840	6.	5.25	0.	135.2
1841	6.2497	4.9969	0.	129.76
1842	6.0012	4.7456	0.	125.44
1843	-9.	1.75	0.	144.75
1844	-8.75	2.	0.	127.54
1845	-9.0002	2.2498	0.	133.61
1846	-9.25	2.	0.	138.2
1847	-9.	0.25	0.	145.25
1848	-8.75	0.	0.	128.69
1849	-8.9973	-0.24858	0.	134.13
1850	-9.2498	3.1867e-004	0.	138.24
1851	-7.25	2.	0.	124.32
1852	-7.	1.75	0.	139.3
1853	-6.7594	2.0053	0.	132.49
1854	-7.0049	2.2502	0.	129.38
1855	-7.25	0.	0.	130.73
1856	-7.	0.25	0.	144.65
1857	-6.7592	3.2649e-002	0.	137.14
1858	-6.9857	-0.22932	0.	140.18
1859	-2.	-5.25	0.	140.62
1860	-1.75	-5.	0.	128.14
1861	-2.2341	-5.0727	0.	132.52
1862	-1.999	-4.7844	0.	132.04
1863	-2.	-5.75	0.	141.43
1864	-1.75	-6.	0.	129.06
1865	-2.2449	-6.064	0.	133.63
1866	-2.0049	-6.2663	0.	134.04
1867	-0.25	-5.	0.	129.49
1868	0.	-5.25	0.	142.78
1869	-1.136e-002	-4.7532	0.	133.96
1870	0.24222	-5.0022	0.	136.13
1871	-0.25	-6.	0.	128.71
1872	0.	-5.75	0.	142.4
1873	0.24763	-5.9979	0.	135.25
1874	6.7213e-003	-6.2309	0.	133.23
1875	9.75	10.	0.	125.04
1876	10.	9.75	0.	124.96
1877	-9.75	10.	0.	124.96
1878	-10.	9.75	0.	125.
1879	10.	-9.75	0.	125.51
1880	9.75	-10.	0.	125.58
1881	-10.	-9.75	0.	130.77
1882	-9.75	-10.	0.	130.49
1883	4.953	7.3403	0.	88.522
1884	4.6778	7.1388	0.	91.86
1885	4.5696	7.9208	0.	106.58
1886	5.5485	7.8277	0.	118.68
1887	-7.54	7.62	0.	101.87
1888	-7.4099	7.3796	0.	112.07
1889	-7.1732	7.7612	0.	122.79
1890	-8.195	7.675	0.	122.4
1891	-8.3377	7.4471	0.	121.47
1892	-8.5763	7.8685	0.	131.25
1893	-7.815	8.215	0.	108.46
1894	-7.575	8.4209	0.	106.51
1895	-8.0201	8.4473	0.	110.6
1896	1.325	7.945	0.	76.33
1897	1.6107	7.9745	0.	104.83
1898	1.3001	8.2098	0.	98.711
1899	1.19	7.375	0.	89.684
1900	1.4323	7.1824	0.	97.996
1901	0.99623	7.0445	0.	102.47
1902	0.765	7.78	0.	137.55
1903	0.5844	8.0292	0.	128.96
1904	0.48727	7.6153	0.	137.46
1905	5.0462	-0.82875	0.	109.14
1906	4.693	-0.70925	0.	122.08
1907	5.3238	-1.2213	0.	106.64
1908	4.9535	-1.1227	0.	119.14
1909	5.2373	-1.5028	0.	109.33
1910	5.35	-0.1725	0.	112.34
1911	5.1117	4.831e-002	0.	108.65
1912	5.83	-0.1275	0.	113.11
1913	5.5889	9.5701e-002	0.	114.52
1914	6.068	0.14069	0.	109.02
1915	6.0437	-1.1537	0.	120.29
1916	6.1897	-1.4189	0.	118.82
1917	6.2463	-0.71625	0.	126.11
1918	6.361	-0.98223	0.	127.79
1919	6.6167	-0.55236	0.	130.5
1920	-5.56	-1.33	0.	109.66
1921	-5.2701	-1.1213	0.	108.1
1922	-5.827	-1.0371	0.	111.19
1923	-5.24	-2.09	0.	99.221
1924	-4.8491	-1.9817	0.	119.88
1925	-5.1888	-2.4383	0.	111.32
1926	-6.06	-1.99	0.	120.31
1927	-6.4199	-1.8404	0.	127.8
1928	-6.1625	-2.3051	0.	119.93
1929	-3.2144	-2.0665	0.	91.381
1930	-4.0357	-1.569	0.	135.51
1931	-3.2059	-1.0488	0.	90.638
1932	-5.395	-6.725	0.	83.154
1933	-5.1176	-6.6584	0.	99.029
1934	-5.5151	-6.3052	0.	101.53
1935	-5.5	-7.5	0.	93.186
1936	-5.2091	-7.6143	0.	98.009
1937	-5.6743	-7.81	0.	104.13
1938	-6.115	-7.025	0.	140.74
1939	-6.3188	-6.7382	0.	133.75
1940	-6.3758	-7.2409	0.	138.06
1941	-3.2775	-8.0863	0.	108.91
1942	-3.4787	-8.3914	0.	108.85
1943	-2.8625	-7.9237	0.	106.4
1944	-3.0431	-8.256	0.	113.96
1945	-2.5989	-8.1175	0.	110.24
1946	-3.8025	-7.67	0.	142.14
1947	-4.0571	-7.8821	0.	142.67
1948	-3.7375	-7.23	0.	138.08
1949	-3.9966	-7.4681	0.	138.23
1950	-3.9642	-7.0403	0.	131.87
1951	-2.7651	-7.2637	0.	99.898
1952	-2.4552	-7.2318	0.	113.04
1953	-3.115	-6.9862	0.	103.09
1954	-2.7553	-6.904	0.	117.12
1955	-3.1548	-6.5913	0.	109.99
1956	4.918	-7.558	0.	116.78
1957	3.8875	-7.5806	0.	116.15
1958	4.3992	-6.8198	0.	100.09
1959	5.	6.25	0.	127.61
1960	4.7461	6.4958	0.	125.52
1961	5.	5.75	0.	133.86
1962	4.7472	6.0024	0.	130.69
1963	4.7537	5.5005	0.	132.13
1964	5.5028	4.7478	0.	106.15
1965	6.	6.25	0.	143.66
1966	6.2453	6.501	0.	140.54
1967	6.	5.75	0.	141.3
1968	6.248	5.9999	0.	139.35
1969	6.2492	5.4987	0.	136.61
1970	-9.	1.25	0.	151.66
1971	-9.25	1.5	0.	145.59
1972	-9.	0.75	0.	151.82
1973	-9.25	1.	0.	147.4
1974	-9.25	0.5001	0.	145.68
1975	-8.25	2.	0.	118.38
1976	-8.5007	2.2495	0.	116.18
1977	-7.75	2.	0.	117.5
1978	-8.0013	2.2493	0.	117.59
1979	-7.5025	2.2493	0.	114.57
1980	-8.25	0.	0.	120.83
1981	-8.4945	-0.24882	0.	117.66
1982	-7.75	0.	0.	121.57
1983	-7.9908	-0.2493	0.	120.6
1984	-7.4875	-0.2461	0.	120.03
1985	-7.	1.25	0.	145.58
1986	-6.7605	1.5083	0.	138.88
1987	-7.	0.75	0.	146.78
1988	-6.762	1.0129	0.	141.04
1989	-6.7627	0.52036	0.	140.83
1990	-2.2443	-5.5692	0.	136.78
1991	-1.25	-5.	0.	123.23
1992	-1.5041	-4.7644	0.	120.04
1993	-0.75	-5.	0.	123.38
1994	-1.0069	-4.7573	0.	123.58
1995	-0.50903	-4.7545	0.	120.64
1996	-1.25	-6.	0.	123.39
1997	-1.4891	-6.2525	0.	120.82
1998	-0.75	-6.	0.	122.94
1999	-0.98844	-6.2481	0.	123.05
2000	-0.49147	-6.2305	0.	119.35
2001	0.24527	-5.5012	0.	140.12
2002	9.25	10.	0.	125.18
2003	9.4994	9.7498	0.	125.
2004	8.75	10.	0.	125.44
2005	8.9988	9.7497	0.	125.22
2006	8.25	10.	0.	125.69
2007	8.4985	9.7498	0.	125.46
2008	7.75	10.	0.	125.79
2009	7.9986	9.7503	0.	125.64
2010	7.25	10.	0.	125.6
2011	7.4994	9.7514	0.	125.67
2012	6.75	10.	0.	124.9
2013	7.0011	9.7529	0.	125.46
2014	6.25	10.	0.	123.59
2015	6.5035	9.7526	0.	124.83
2016	5.75	10.	0.	122.05
2017	6.0063	9.7448	0.	123.59
2018	5.25	10.	0.	121.28
2019	5.5095	9.7276	0.	121.78
2020	4.75	10.	0.	122.01
2021	5.0142	9.705	0.	121.25
2022	4.25	10.	0.	124.05
2023	4.5154	9.7274	0.	123.01
2024	3.75	10.	0.	126.49
2025	4.0138	9.7443	0.	125.73
2026	3.25	10.	0.	128.08
2027	3.5091	9.7505	0.	127.49
2028	2.75	10.	0.	128.16
2029	3.0057	9.7346	0.	128.16
2030	2.25	10.	0.	126.79
2031	2.5019	9.7373	0.	127.76
2032	1.75	10.	0.	124.69
2033	1.9969	9.7508	0.	126.1
2034	1.25	10.	0.	123.32
2035	1.4915	9.7568	0.	123.73
2036	0.75	10.	0.	123.6
2037	0.98779	9.7511	0.	123.03
2038	0.25	10.	0.	125.25
2039	0.48813	9.7611	0.	124.71
2040	-0.25	10.	0.	126.88
2041	-1.1273e-002	9.7629	0.	126.74
2042	-0.75	10.	0.	127.58
2043	-0.51017	9.7593	0.	127.35
2044	-1.25	10.	0.	127.5
2045	-1.0093	9.7551	0.	127.21
2046	-1.75	10.	0.	127.15
2047	-1.5084	9.7521	0.	126.86
2048	-2.25	10.	0.	126.8
2049	-2.008	9.7507	0.	126.54
2050	-2.75	10.	0.	126.55
2051	-2.5086	9.7495	0.	126.31
2052	-3.25	10.	0.	126.44
2053	-3.0094	9.7483	0.	126.17
2054	-3.75	10.	0.	126.48
2055	-3.5111	9.7467	0.	126.13
2056	-4.25	10.	0.	126.69
2057	-4.0124	9.7455	0.	126.2
2058	-4.75	10.	0.	127.06
2059	-4.5138	9.7447	0.	126.38
2060	-5.25	10.	0.	127.52
2061	-5.0145	9.7458	0.	126.7
2062	-5.75	10.	0.	127.74
2063	-5.5144	9.7506	0.	127.15
2064	-6.25	10.	0.	127.04
2065	-6.0135	9.7574	0.	127.46
2066	-6.75	10.	0.	124.75
2067	-6.5117	9.764	0.	126.79
2068	-7.25	10.	0.	121.61
2069	-7.0088	9.7694	0.	124.27
2070	-7.75	10.	0.	119.68
2071	-7.5054	9.773	0.	120.74
2072	-8.25	10.	0.	120.09
2073	-8.0021	9.7728	0.	119.74
2074	-8.75	10.	0.	122.2
2075	-8.4994	9.7655	0.	122.23
2076	-9.25	10.	0.	124.17
2077	-8.9971	9.7526	0.	124.84
2078	-9.497	9.7478	0.	125.43
2079	10.	9.25	0.	124.66
2080	9.7494	9.4998	0.	124.91
2081	10.	8.75	0.	124.13
2082	9.7487	8.9997	0.	124.54
2083	10.	8.25	0.	123.56
2084	9.748	8.4998	0.	124.11
2085	10.	7.75	0.	123.12
2086	9.7475	7.9999	0.	123.74
2087	10.	7.25	0.	122.9
2088	9.7474	7.5001	0.	123.51
2089	10.	6.75	0.	123.
2090	9.7477	7.0002	0.	123.5
2091	10.	6.25	0.	123.44
2092	9.7482	6.5003	0.	123.75
2093	10.	5.75	0.	124.2
2094	9.7487	6.0002	0.	124.28
2095	10.	5.25	0.	125.21
2096	9.7492	5.5	0.	125.04
2097	10.	4.75	0.	126.31
2098	9.7494	4.9995	0.	125.94
2099	10.	4.25	0.	127.38
2100	9.7496	4.499	0.	126.86
2101	10.	3.75	0.	128.29
2102	9.7498	3.9987	0.	127.68
2103	10.	3.25	0.	128.92
2104	9.7501	3.4984	0.	128.32
2105	10.	2.75	0.	129.23
2106	9.7504	2.998	0.	128.72
2107	10.	2.25	0.	129.15
2108	9.7507	2.4974	0.	128.83
2109	10.	1.75	0.	128.65
2110	9.7509	1.9969	0.	128.63
2111	10.	1.25	0.	127.74
2112	9.7509	1.4964	0.	128.08
2113	10.	0.75	0.	126.53
2114	9.7506	0.99615	0.	127.21
2115	10.	0.25	0.	125.3
2116	9.7498	0.4961	0.	126.17
2117	10.	-0.25	0.	124.38
2118	9.7487	-3.6525e-003	0.	125.23
2119	10.	-0.75	0.	124.03
2120	9.7474	-0.50327	0.	124.68
2121	10.	-1.25	0.	124.32
2122	9.7461	-1.0025	0.	124.66
2123	10.	-1.75	0.	125.05
2124	9.7447	-1.5018	0.	125.1
2125	10.	-2.25	0.	125.93
2126	9.7431	-2.0009	0.	125.78
2127	10.	-2.75	0.	126.7
2128	9.7416	-2.5	0.	126.44
2129	10.	-3.25	0.	127.19
2130	9.7409	-2.9992	0.	126.92
2131	10.	-3.75	0.	127.37
2132	9.7405	-3.4988	0.	127.15
2133	10.	-4.25	0.	127.28
2134	9.7406	-3.9986	0.	127.15
2135	10.	-4.75	0.	126.97
2136	9.7411	-4.4987	0.	126.95
2137	10.	-5.25	0.	126.54
2138	9.7419	-4.999	0.	126.63
2139	10.	-5.75	0.	126.06
2140	9.7428	-5.4995	0.	126.23
2141	10.	-6.25	0.	125.6
2142	9.7437	-5.9999	0.	125.83
2143	10.	-6.75	0.	125.25
2144	9.745	-6.5002	0.	125.48
2145	10.	-7.25	0.	125.04
2146	9.7463	-7.0003	0.	125.24
2147	10.	-7.75	0.	124.99
2148	9.7479	-7.5004	0.	125.13
2149	10.	-8.25	0.	125.08
2150	9.7491	-8.0004	0.	125.15
2151	10.	-8.75	0.	125.25
2152	9.7498	-8.5003	0.	125.27
2153	10.	-9.25	0.	125.41
2154	9.7501	-9.0003	0.	125.42
2155	9.7501	-9.5002	0.	125.54
2156	-10.	9.25	0.	124.38
2157	-9.747	9.4978	0.	125.47
2158	-10.	8.75	0.	121.97
2159	-9.7384	8.9924	0.	125.99
2160	-10.	8.25	0.	119.2
2161	-9.7233	8.4843	0.	123.77
2162	-10.	7.75	0.	119.37
2163	-9.7233	7.9796	0.	121.05
2164	-10.	7.25	0.	123.16
2165	-9.7462	7.4833	0.	123.51
2166	-10.	6.75	0.	127.82
2167	-9.7497	6.9883	0.	127.15
2168	-10.	6.25	0.	130.37
2169	-9.7482	6.4936	0.	129.28
2170	-10.	5.75	0.	130.92
2171	-9.7483	5.9968	0.	129.82
2172	-10.	5.25	0.	130.77
2173	-9.7492	5.4983	0.	129.61
2174	-10.	4.75	0.	130.93
2175	-9.75	4.9989	0.	129.51
2176	-10.	4.25	0.	131.97
2177	-9.7503	4.4993	0.	129.94
2178	-10.	3.75	0.	134.15
2179	-9.7503	3.9995	0.	131.11
2180	-10.	3.25	0.	137.34
2181	-9.7503	3.4997	0.	133.13
2182	-10.	2.75	0.	139.82
2183	-9.7502	2.9998	0.	135.98
2184	-10.	2.25	0.	138.9
2185	-9.7501	2.4999	0.	138.89
2186	-10.	1.75	0.	135.23
2187	-9.75	2.	0.	137.62
2188	-10.	1.25	0.	132.93
2189	-9.75	1.5	0.	136.86
2190	-10.	0.75	0.	132.56
2191	-9.75	1.	0.	137.4
2192	-10.	0.25	0.	134.13
2193	-9.75	0.5001	0.	136.41
2194	-10.	-0.25	0.	137.04
2195	-9.7498	3.1867e-004	0.	136.59
2196	-10.	-0.75	0.	137.24
2197	-9.749	-0.49903	0.	137.36
2198	-10.	-1.25	0.	134.26
2199	-9.7491	-0.99785	0.	133.93
2200	-10.	-1.75	0.	130.94
2201	-9.7509	-1.4964	0.	130.83
2202	-10.	-2.25	0.	129.06
2203	-9.7542	-1.9951	0.	128.98
2204	-10.	-2.75	0.	128.55
2205	-9.7571	-2.4944	0.	128.31
2206	-10.	-3.25	0.	128.84
2207	-9.7568	-2.9943	0.	128.43
2208	-10.	-3.75	0.	129.35
2209	-9.7508	-3.495	0.	128.89
2210	-10.	-4.25	0.	129.66
2211	-9.7408	-3.9955	0.	129.29
2212	-10.	-4.75	0.	129.58
2213	-9.7388	-4.4966	0.	129.42
2214	-10.	-5.25	0.	129.05
2215	-9.7417	-4.9987	0.	129.19
2216	-10.	-5.75	0.	128.22
2217	-9.7457	-5.5014	0.	128.63
2218	-10.	-6.25	0.	127.35
2219	-9.7491	-6.0032	0.	127.9
2220	-10.	-6.75	0.	126.76
2221	-9.7513	-6.5041	0.	127.27
2222	-10.	-7.25	0.	126.71
2223	-9.7528	-7.0046	0.	126.99
2224	-10.	-7.75	0.	127.24
2225	-9.7535	-7.5047	0.	127.21
2226	-10.	-8.25	0.	128.22
2227	-9.7536	-8.0045	0.	127.89
2228	-10.	-8.75	0.	129.33
2229	-9.753	-8.5037	0.	128.81
2230	-10.	-9.25	0.	130.25
2231	-9.7522	-9.0026	0.	129.68
2232	-9.7512	-9.5013	0.	130.28
2233	-9.25	-10.	0.	130.06
2234	-9.5012	-9.7513	0.	130.01
2235	-8.75	-10.	0.	130.12
2236	-9.0022	-9.7528	0.	129.97
2237	-8.25	-10.	0.	130.23
2238	-8.5029	-9.7546	0.	130.19
2239	-7.75	-10.	0.	129.87
2240	-8.0033	-9.7568	0.	130.27
2241	-7.25	-10.	0.	128.51
2242	-7.5026	-9.7588	0.	129.65
2243	-6.75	-10.	0.	126.03
2244	-7.0002	-9.7599	0.	127.72
2245	-6.25	-10.	0.	123.33
2246	-6.4952	-9.7584	0.	124.49
2247	-5.75	-10.	0.	121.94
2248	-5.9879	-9.7528	0.	121.73
2249	-5.25	-10.	0.	122.41
2250	-5.4834	-9.7498	0.	121.49
2251	-4.75	-10.	0.	123.16
2252	-4.9851	-9.77	0.	123.28
2253	-4.25	-10.	0.	122.02
2254	-4.4869	-9.7774	0.	123.81
2255	-3.75	-10.	0.	119.32
2256	-3.9891	-9.7757	0.	120.92
2257	-3.25	-10.	0.	117.97
2258	-3.4928	-9.7678	0.	117.64
2259	-2.75	-10.	0.	119.59
2260	-2.9998	-9.7552	0.	117.82
2261	-2.25	-10.	0.	122.95
2262	-2.5087	-9.7435	0.	121.15
2263	-1.75	-10.	0.	125.98
2264	-2.0198	-9.7419	0.	124.88
2265	-1.25	-10.	0.	127.68
2266	-1.5239	-9.7345	0.	127.27
2267	-0.75	-10.	0.	128.3
2268	-1.0228	-9.7446	0.	128.13
2269	-0.25	-10.	0.	128.5
2270	-0.51606	-9.7541	0.	128.29
2271	0.25	-10.	0.	128.73
2272	-7.5092e-003	-9.7566	0.	128.44
2273	0.75	-10.	0.	129.09
2274	0.49677	-9.7544	0.	128.77
2275	1.25	-10.	0.	129.5
2276	0.99788	-9.753	0.	129.23
2277	1.75	-10.	0.	129.73
2278	1.4972	-9.7538	0.	129.64
2279	2.25	-10.	0.	129.5
2280	1.9963	-9.7562	0.	129.77
2281	2.75	-10.	0.	128.4
2282	2.4955	-9.7596	0.	129.32
2283	3.25	-10.	0.	126.19
2284	2.9952	-9.7615	0.	127.79
2285	3.75	-10.	0.	123.33
2286	3.4952	-9.7616	0.	124.96
2287	4.25	-10.	0.	121.32
2288	3.9954	-9.7595	0.	121.78
2289	4.75	-10.	0.	121.42
2290	4.496	-9.7573	0.	120.45
2291	5.25	-10.	0.	123.31
2292	4.997	-9.757	0.	122.06
2293	5.75	-10.	0.	125.49
2294	5.4983	-9.7581	0.	124.72
2295	6.25	-10.	0.	126.83
2296	5.9998	-9.7589	0.	126.58
2297	6.75	-10.	0.	127.26
2298	6.5008	-9.7582	0.	127.28
2299	7.25	-10.	0.	127.12
2300	7.0013	-9.7562	0.	127.25
2301	7.75	-10.	0.	126.77
2302	7.5012	-9.7539	0.	126.92
2303	8.25	-10.	0.	126.38
2304	8.0008	-9.7521	0.	126.53
2305	8.75	-10.	0.	126.03
2306	8.5005	-9.751	0.	126.16
2307	9.25	-10.	0.	125.74
2308	9.0002	-9.7504	0.	125.84
2309	9.5001	-9.7502	0.	125.61
2310	-2.8568	3.954	0.	125.75
2311	-2.3624	3.9052	0.	125.87
2312	-2.6354	3.6977	0.	125.68
2313	-2.6019	4.1815	0.	125.85
2314	0.44804	1.9058	0.	126.53
2315	-1.8651e-002	1.9011	0.	126.46
2316	0.22209	1.6569	0.	126.44
2317	0.20275	2.1323	0.	126.47
2318	0.69616	1.6701	0.	126.49
2319	0.91901	1.9278	0.	126.66
2320	0.66772	2.154	0.	126.57
2321	-3.1244	3.7332	0.	125.59
2322	-3.3444	3.984	0.	125.72
2323	-3.0918	4.2187	0.	125.76
2324	-2.9029	3.4768	0.	125.53
2325	-3.3817	3.4987	0.	125.48
2326	-3.1764	3.2491	0.	125.29
2327	-0.4747	2.4322	0.	126.34
2328	-0.25024	2.1282	0.	126.42
2329	-2.8836e-002	2.3593	0.	126.43
2330	-0.27713	2.5609	0.	126.35
2331	-0.50215	2.6414	0.	126.29
2332	-0.78292	2.7888	0.	126.23
2333	-0.9355	2.4793	0.	126.2
2334	-0.69912	2.2324	0.	126.33
2335	-1.408	3.1475	0.	126.04
2336	-1.4549	2.9008	0.	125.97
2337	-1.0665	2.9964	0.	126.12
2338	-1.2191	2.6869	0.	126.09
2339	-1.5961	3.1204	0.	125.95
2340	-1.5814	3.6171	0.	126.05
2341	-1.3007	3.4797	0.	126.08
2342	-1.8439	3.3527	0.	125.88
2343	-1.8641	3.8714	0.	126.02
2344	-2.1132	4.1305	0.	126.
2345	-2.1265	3.6071	0.	125.85
2346	-0.47466	1.9283	0.	126.41
2347	-0.24255	1.661	0.	126.44
2348	0.47021	1.4212	0.	126.4
2349	-1.8082e-003	1.4168	0.	126.41
2350	0.24563	1.1686	0.	126.27
2351	-3.5748	4.241	0.	125.77
2352	-3.8076	4.4927	0.	125.86
2353	-3.5599	4.7347	0.	125.77
2354	-3.3223	4.4757	0.	125.81
2355	0.94842	1.4384	0.	126.49
2356	0.72405	1.1784	0.	126.26
2357	1.1361	2.1858	0.	126.75
2358	1.1713	1.6961	0.	126.65
2359	1.394	1.9573	0.	126.88
2360	0.88485	2.412	0.	126.67
2361	1.3569	2.4481	0.	126.88
2362	1.0973	2.6725	0.	126.68
2363	0.42243	2.3805	0.	126.52
2364	0.16537	2.5993	0.	126.41
2365	0.62844	2.6337	0.	126.51
2366	-2.7157	3.2238	0.	125.42
2367	-2.3996	3.3995	0.	125.66
2368	1.5798	2.7114	0.	126.93
2369	1.6147	2.2196	0.	127.01
2370	1.8386	2.4823	0.	127.13
2371	-2.3527	4.4068	0.	125.99
2372	-2.5854	4.6791	0.	125.89
2373	-2.8368	4.4462	0.	125.85
2374	-3.6018	3.7496	0.	125.61
2375	-3.8253	3.9987	0.	125.8
2376	-8.2919e-002	2.8008	0.	126.33
2377	-0.36455	2.992	0.	126.26
2378	1.3202	2.9359	0.	126.73
2379	0.84085	2.8942	0.	126.52
2380	1.0493	3.156	0.	126.45
2381	-1.6215	2.6397	0.	125.89
2382	-1.8281	2.8695	0.	125.77
2383	-0.64532	3.1395	0.	126.19
2384	-0.95918	3.3286	0.	126.16
2385	-1.3856	2.4258	0.	126.01
2386	-1.1566	2.1934	0.	126.19
2387	1.2026	1.2015	0.	126.38
2388	1.4261	1.465	0.	126.7
2389	-1.6292	4.1072	0.	126.16
2390	-1.3921	4.0108	0.	126.18
2391	-0.9202	1.9465	0.	126.31
2392	-0.6932	1.692	0.	126.43
2393	-4.0479	4.7458	0.	125.87
2394	-4.058	4.2504	0.	125.89
2395	-4.2945	4.499	0.	125.99
2396	1.5415	3.2019	0.	126.71
2397	1.8066	2.9746	0.	127.
2398	1.6488	1.7262	0.	126.92
2399	1.8725	1.9887	0.	127.15
2400	-1.8784	4.3662	0.	126.15
2401	-2.1013	4.6372	0.	126.1
2402	-0.46109	1.4247	0.	126.45
2403	-0.22377	1.1689	0.	126.37
2404	-4.2904	4.9952	0.	125.91
2405	-4.5361	5.2447	0.	125.91
2406	-4.7823	4.9958	0.	126.03
2407	-4.537	4.7484	0.	126.02
2408	0.49948	0.92588	0.	126.13
2409	0.75444	0.67989	0.	125.89
2410	0.97826	0.94159	0.	126.15
2411	0.27164	0.67296	0.	125.95
2412	2.3676e-002	0.92065	0.	126.22
2413	2.0653	2.7454	0.	127.2
2414	2.3235	2.5107	0.	127.31
2415	2.0963	2.2514	0.	127.28
2416	-2.5819	2.9438	0.	125.35
2417	-2.8017	2.7374	0.	125.07
2418	-2.9891	2.996	0.	125.19
2419	-3.8536	3.5068	0.	125.57
2420	-3.6389	3.2589	0.	125.29
2421	0.37139	2.8524	0.	126.4
2422	9.5148e-002	3.0652	0.	126.26
2423	0.56835	3.112	0.	126.31
2424	-2.4089	2.6679	0.	125.31
2425	-2.2658	3.1195	0.	125.59
2426	-2.2031	2.8831	0.	125.54
2427	-2.8212	4.9456	0.	125.81
2428	-3.3103	4.9717	0.	125.73
2429	-3.0606	5.2111	0.	125.62
2430	-3.0726	4.7127	0.	125.77
2431	-2.334	4.9095	0.	126.
2432	-2.5702	5.1825	0.	125.79
2433	-3.8002	4.9878	0.	125.78
2434	-4.0439	5.2416	0.	125.72
2435	-3.5524	5.2306	0.	125.61
2436	0.52659	0.42697	0.	125.71
2437	0.78384	0.17542	0.	125.44
2438	1.0155	0.43639	0.	125.69
2439	1.2706	3.422	0.	126.43
2440	0.77678	3.3738	0.	126.23
2441	0.99165	3.6384	0.	126.05
2442	-0.48228	3.4593	0.	126.17
2443	-0.18648	3.2564	0.	126.19
2444	-1.5908	2.1656	0.	125.93
2445	-1.8048	2.4053	0.	125.72
2446	1.4608	-1.5515	0.	125.7
2447	1.7172	-1.7834	0.	126.29
2448	1.6506	-1.3136	0.	125.53
2449	1.919	-1.5297	0.	125.9
2450	1.2394	0.6981	0.	125.95
2451	1.462	0.96467	0.	126.32
2452	-0.79614	3.6484	0.	126.14
2453	-1.1114	3.8734	0.	126.21
2454	-1.3618	1.9331	0.	126.11
2455	-1.1394	1.6875	0.	126.34
2456	-4.0771	3.756	0.	125.76
2457	-4.3062	4.0035	0.	125.96
2458	1.4913	3.6869	0.	126.33
2459	1.7707	3.4712	0.	126.76
2460	2.0358	3.2439	0.	127.05
2461	2.2968	3.0028	0.	127.22
2462	1.6854	1.2281	0.	126.63
2463	1.9065	1.4932	0.	127.02
2464	-1.4077	4.2509	0.	126.24
2465	-1.6242	4.5893	0.	126.3
2466	-0.91236	1.433	0.	126.45
2467	-0.68435	1.1787	0.	126.5
2468	0.29029	0.17525	0.	125.52
2469	4.0652e-002	0.42362	0.	125.88
2470	-4.2897	5.4912	0.	125.72
2471	-4.5367	5.74	0.	125.69
2472	-4.7847	5.4907	0.	125.96
2473	-5.0309	5.2418	0.	126.08
2474	-5.0284	4.7463	0.	126.08
2475	-5.2765	4.9924	0.	125.97
2476	-4.7831	4.4989	0.	126.08
2477	-4.5427	4.2521	0.	126.06
2478	2.555	2.768	0.	127.33
2479	2.8107	2.5325	0.	127.23
2480	2.5811	2.2771	0.	127.43
2481	2.1302	1.7558	0.	127.25
2482	2.3539	2.0179	0.	127.4
2483	-1.8472	4.8603	0.	126.25
2484	-2.0811	5.1443	0.	126.08
2485	-0.44703	0.9229	0.	126.42
2486	-0.20731	0.6713	0.	126.15
2487	-2.6288	2.4615	0.	125.03
2488	-2.8469	2.2382	0.	124.67
2489	-3.0444	2.4978	0.	124.75
2490	0.80127	-0.32708	0.	125.06
2491	0.54754	-7.6301e-002	0.	125.24
2492	1.0502	-7.7031e-002	0.	125.22
2493	0.49983	3.5912	0.	125.99
2494	0.2921	3.3248	0.	126.17
2495	-2.4321	2.1954	0.	125.09
2496	-2.2172	2.4199	0.	125.37
2497	1.2191	-1.3283	0.	125.34
2498	1.2525	-1.797	0.	126.
2499	1.0001	-1.5586	0.	125.36
2500	1.4089	-1.0904	0.	125.16
2501	1.2827	-0.86351	0.	125.04
2502	0.98648	-1.082	0.	124.97
2503	1.509	-2.029	0.	126.58
2504	1.9801	-2.0191	0.	126.86
2505	1.7656	-2.2728	0.	127.27
2506	-2.8097	5.448	0.	125.6
2507	-3.3028	5.47	0.	125.49
2508	-3.0519	5.7131	0.	125.3
2509	-2.3173	5.4173	0.	125.87
2510	-2.5569	5.6905	0.	125.5
2511	-3.7961	5.4844	0.	125.55
2512	-4.0419	5.7377	0.	125.42
2513	-3.547	5.7294	0.	125.28
2514	1.4854	-0.85648	0.	125.11
2515	1.8282	-1.053	0.	125.22
2516	1.2819	0.18394	0.	125.46
2517	1.5053	0.45866	0.	125.79
2518	1.2124	3.9034	0.	125.95
2519	0.7147	3.8558	0.	125.81
2520	0.93449	4.1258	0.	125.47
2521	-0.28686	3.7411	0.	126.05
2522	-0.57599	3.961	0.	126.15
2523	-3.0734	1.9997	0.	124.29
2524	-2.6502	1.9721	0.	124.73
2525	-2.8701	1.7455	0.	124.3
2526	-1.7981	1.9279	0.	125.75
2527	-1.5818	1.6799	0.	126.08
2528	1.0823	-0.60277	0.	124.94
2529	0.78608	-0.82125	0.	124.87
2530	0.55159	-0.57215	0.	124.85
2531	2.0966	-1.2691	0.	125.59
2532	2.3866	-1.5033	0.	126.06
2533	2.1819	-1.7653	0.	126.47
2534	-4.1032	3.2618	0.	125.46
2535	-4.3258	3.509	0.	125.81
2536	1.4156	4.1555	0.	125.76
2537	1.7286	3.9765	0.	126.39
2538	2.008	3.7608	0.	126.82
2539	2.2741	3.4996	0.	127.13
2540	1.7279	0.72523	0.	126.15
2541	1.9468	0.99258	0.	126.65
2542	-0.89128	4.186	0.	126.21
2543	-1.1442	4.4473	0.	126.37
2544	1.5666	4.4161	0.	125.69
2545	1.1377	4.378	0.	125.27
2546	1.3759	4.6785	0.	124.83
2547	-1.3594	1.4342	0.	126.31
2548	-1.1399	1.1818	0.	126.56
2549	0.29786	-0.32137	0.	125.04
2550	5.0296e-002	-7.4428e-002	0.	125.38
2551	2.8413	-3.7646	0.	127.7
2552	3.0691	-3.5089	0.	127.36
2553	2.5853	-3.5123	0.	128.34
2554	2.8091	-3.2553	0.	128.
2555	-4.2889	5.9865	0.	125.39
2556	-4.5383	6.2338	0.	125.31
2557	-4.7844	5.982	0.	125.78
2558	-5.2832	5.4869	0.	126.14
2559	-5.0324	5.7327	0.	126.05
2560	-5.274	4.4955	0.	125.95
2561	-5.03	4.2497	0.	126.15
2562	-5.522	4.7415	0.	125.84
2563	-5.7715	4.9852	0.	125.5
2564	-5.5287	5.2375	0.	126.02
2565	-4.7896	4.0029	0.	126.14
2566	-4.5549	3.7565	0.	126.01
2567	2.7904	3.02	0.	127.19
2568	2.5351	3.2585	0.	127.3
2569	3.0461	2.7845	0.	127.09
2570	3.2979	2.5506	0.	126.64
2571	3.0671	2.2983	0.	127.24
2572	2.3882	1.5222	0.	127.41
2573	2.1679	1.2577	0.	127.03
2574	2.612	1.7843	0.	127.56
2575	2.8374	2.043	0.	127.44
2576	2.2849	-2.7589	0.	128.18
2577	2.505	-2.501	0.	127.89
2578	2.2394	-2.2608	0.	127.42
2579	2.0249	-2.5146	0.	127.83
2580	1.0338	-2.0381	0.	126.14
2581	1.2908	-2.281	0.	126.98
2582	-1.5922	5.0907	0.	126.43
2583	-1.3607	4.7857	0.	126.43
2584	-1.8261	5.3748	0.	126.26
2585	-2.062	5.6593	0.	125.88
2586	-0.68113	0.67479	0.	126.48
2587	-0.9119	0.92749	0.	126.61
2588	-0.44141	0.42319	0.	126.21
2589	-0.19934	0.17394	0.	125.75
2590	-3.5023	2.0144	0.	124.
2591	-3.2971	1.7632	0.	123.83
2592	-3.2709	2.2593	0.	124.36
2593	1.3312	-0.35272	0.	125.1
2594	1.5585	-5.7233e-002	0.	125.26
2595	1.6305	-0.58471	0.	125.
2596	0.21667	3.8047	0.	125.89
2597	8.9402e-003	3.5383	0.	126.08
2598	-6.1791e-002	4.0245	0.	125.9
2599	0.44099	4.0756	0.	125.59
2600	-2.2268	1.9431	0.	125.26
2601	-2.018	1.688	0.	125.59
2602	-2.012	2.1677	0.	125.55
2603	-2.4461	1.714	0.	124.94
2604	0.52817	-1.0637	0.	124.67
2605	0.76747	-1.3123	0.	124.99
2606	-2.3015	5.9325	0.	125.52
2607	-2.544	6.2027	0.	125.03
2608	-2.799	5.9556	0.	125.2
2609	-3.7929	5.9826	0.	125.16
2610	-4.0417	6.2346	0.	124.98
2611	-3.5439	6.2305	0.	124.84
2612	-3.2962	5.9725	0.	125.09
2613	-4.131	2.766	0.	124.95
2614	-4.3509	3.0139	0.	125.45
2615	-3.8885	3.0139	0.	125.17
2616	3.1018	-4.0203	0.	126.75
2617	2.8713	-4.2752	0.	127.33
2618	2.6167	-4.0196	0.	128.12
2619	1.8797	4.2372	0.	126.32
2620	1.971	4.4659	0.	126.37
2621	1.7735	4.6639	0.	125.74
2622	2.0862	4.2551	0.	126.73
2623	2.2651	4.008	0.	127.02
2624	1.7819	0.21748	0.	125.58
2625	1.9993	0.48549	0.	126.03
2626	1.9733	-0.78128	0.	125.11
2627	2.2868	-1.0081	0.	125.19
2628	-0.61463	4.4812	0.	126.25
2629	-0.35092	4.2444	0.	125.99
2630	0.66079	4.3456	0.	125.24
2631	0.89166	4.6216	0.	124.62
2632	-1.8017	1.4399	0.	125.92
2633	-1.5888	1.1864	0.	126.39
2634	0.29368	-0.81458	0.	124.66
2635	5.0217e-002	-0.56885	0.	124.81
2636	2.8764	-1.4812	0.	126.36
2637	2.5768	-1.2423	0.	125.66
2638	2.6611	-1.7418	0.	126.69
2639	-5.7674	4.4895	0.	125.39
2640	-5.5208	4.2452	0.	125.95
2641	-6.0169	4.7331	0.	125.05
2642	-6.0248	5.2288	0.	125.46
2643	-6.2671	4.9715	0.	124.43
2644	-5.782	5.4812	0.	125.98
2645	-5.5332	5.7283	0.	126.35
2646	-5.2768	3.9994	0.	126.15
2647	-5.0369	3.7539	0.	126.28
2648	-4.8022	3.5075	0.	126.15
2649	-4.5735	3.2611	0.	125.8
2650	3.2837	3.0334	0.	126.67
2651	3.0339	3.2685	0.	127.2
2652	3.5355	2.7995	0.	126.23
2653	3.5518	2.318	0.	126.39
2654	3.7818	2.5673	0.	125.35
2655	2.7786	3.507	0.	127.3
2656	2.5311	3.7468	0.	127.33
2657	2.8696	1.551	0.	127.75
2658	2.6499	1.2878	0.	127.56
2659	2.2182	0.75283	0.	126.53
2660	2.4296	1.0233	0.	127.18
2661	3.095	1.8097	0.	127.63
2662	3.321	2.0657	0.	126.99
2663	2.3262	-3.2633	0.	128.63
2664	2.55	-3.0064	0.	128.3
2665	2.0667	-3.0158	0.	128.64
2666	-1.5687	5.6155	0.	126.44
2667	-1.3369	5.3227	0.	126.66
2668	-0.86759	4.7425	0.	126.41
2669	-1.1055	5.0176	0.	126.66
2670	-2.0416	6.1826	0.	125.42
2671	-1.8046	5.9	0.	126.06
2672	-0.91736	0.42628	0.	126.69
2673	-0.6829	0.17488	0.	126.21
2674	-1.1481	0.67898	0.	126.82
2675	-1.3693	0.93393	0.	126.65
2676	-0.44083	-7.437e-002	0.	125.74
2677	-0.19735	-0.32191	0.	125.15
2678	3.3296	-3.7646	0.	126.41
2679	3.56	-3.5043	0.	126.15
2680	3.2934	-3.2534	0.	127.2
2681	0.55466	-2.0421	0.	125.48
2682	0.78135	-1.7996	0.	125.5
2683	0.81253	-2.2844	0.	126.41
2684	-3.9417	2.0182	0.	123.92
2685	-3.7306	1.7664	0.	123.63
2686	-3.7069	2.2671	0.	124.22
2687	-4.1544	2.2681	0.	124.3
2688	-4.3742	2.5175	0.	124.85
2689	-3.9197	2.517	0.	124.59
2690	-3.0938	1.509	0.	123.84
2691	-2.6659	1.4873	0.	124.5
2692	-2.8892	1.2636	0.	123.92
2693	-3.3142	1.2731	0.	123.29
2694	-3.5254	1.5152	0.	123.45
2695	3.5903	-4.0172	0.	125.16
2696	4.0841	-4.0109	0.	123.51
2697	3.8207	-3.7569	0.	124.9
2698	3.8471	-4.2727	0.	123.79
2699	3.358	-4.2766	0.	125.66
2700	2.1892	4.7042	0.	126.78
2701	2.3899	4.4753	0.	127.17
2702	1.8577	-0.28922	0.	125.15
2703	2.0679	-2.1801e-002	0.	125.34
2704	2.1616	-0.52358	0.	124.96
2705	0.39874	4.5659	0.	125.11
2706	0.16254	4.2954	0.	125.59
2707	-2.2372	1.4588	0.	125.27
2708	-2.0313	1.2016	0.	125.82
2709	-2.4639	1.2311	0.	124.9
2710	4.6019e-002	-1.0617	0.	124.35
2711	0.29142	-1.3077	0.	124.54
2712	2.991	-2.4907	0.	127.95
2713	2.7701	-2.7485	0.	128.01
2714	2.722	-2.244	0.	127.57
2715	1.9917	4.9022	0.	126.16
2716	1.5828	4.9262	0.	124.88
2717	1.7902	5.1012	0.	125.27
2718	2.416	4.9353	0.	127.38
2719	2.195	5.1554	0.	126.88
2720	-2.2841	6.4529	0.	124.94
2721	-2.5363	6.716	0.	124.47
2722	-2.7893	6.4652	0.	124.67
2723	-3.7927	6.4825	0.	124.66
2724	-4.2911	6.4819	0.	124.9
2725	-4.0452	6.7335	0.	124.47
2726	-3.5442	6.7325	0.	124.35
2727	-3.2921	6.476	0.	124.59
2728	-4.5454	6.7253	0.	124.75
2729	-4.7861	6.472	0.	125.37
2730	-3.1096	1.0277	0.	123.37
2731	-3.5334	1.02	0.	123.02
2732	-3.3147	0.79714	0.	122.55
2733	-6.0147	4.2391	0.	125.15
2734	-6.2634	4.4817	0.	124.2
2735	-6.048	5.7419	0.	126.36
2736	-6.2765	5.4559	0.	125.15
2737	6.3867	-4.7498	0.	124.38
2738	6.6505	-5.0075	0.	125.16
2739	6.1385	-5.0145	0.	124.43
2740	6.3973	-5.2731	0.	125.49
2741	-5.5241	3.7497	0.	126.35
2742	-5.768	3.9947	0.	125.71
2743	-5.2842	3.5042	0.	126.48
2744	-5.0479	3.2586	0.	126.32
2745	3.5283	3.2797	0.	126.51
2746	3.7743	3.045	0.	125.45
2747	3.2784	3.5148	0.	127.04
2748	3.0345	3.7502	0.	127.49
2749	3.1302	1.3181	0.	128.12
2750	3.3516	1.5787	0.	127.7
2751	2.3608	-3.7673	0.	128.75
2752	2.1042	-3.5165	0.	129.15
2753	-1.1596	0.1792	0.	126.91
2754	-1.3859	0.43409	0.	127.11
2755	-0.92518	-7.2198e-002	0.	126.43
2756	-0.6865	-0.32251	0.	125.54
2757	4.3197	-3.749	0.	123.22
2758	4.5842	-4.0019	0.	122.08
2759	4.3467	-4.2621	0.	122.19
2760	4.0562	-3.495	0.	124.61
2761	3.788	-3.2447	0.	126.1
2762	-2.0251	6.7086	0.	124.75
2763	-1.7767	6.4343	0.	125.49
2764	1.1299	4.9221	0.	124.17
2765	1.3294	5.2241	0.	123.29
2766	1.5904	5.1476	0.	124.62
2767	-5.5137	6.2048	0.	126.51
2768	-5.7992	5.989	0.	126.74
2769	-5.2824	5.9741	0.	126.27
2770	3.2544	-2.7421	0.	127.78
2771	3.5214	-2.9939	0.	127.16
2772	3.0334	-2.9998	0.	127.84
2773	3.3947	-1.4693	0.	127.27
2774	3.078	-1.2242	0.	125.88
2775	3.1592	-1.7245	0.	127.14
2776	-0.19745	-0.81596	0.	124.5
2777	-0.44302	-0.57005	0.	124.95
2778	-2.6871	1.0073	0.	124.32
2779	-2.9148	0.79423	0.	123.53
2780	0.62961	4.8419	0.	124.49
2781	0.85116	5.1157	0.	123.46
2782	0.33221	-2.287	0.	125.57
2783	0.30404	-1.7988	0.	124.84
2784	7.2325e-002	-2.0451	0.	124.69
2785	3.801	2.089	0.	125.73
2786	3.5775	1.8348	0.	127.06
2787	4.9642	2.38	0.	120.05
2788	4.7408	2.153	0.	121.15
2789	5.0038	1.9574	0.	119.52
2790	5.1984	2.2881	0.	119.35
2791	2.5687	4.2282	0.	127.47
2792	2.7871	3.99	0.	127.52
2793	-4.3931	2.0198	0.	124.08
2794	-4.1739	1.7682	0.	123.65
2795	3.6149	-4.532	0.	124.28
2796	3.8697	-4.7862	0.	122.7
2797	4.1097	-4.5238	0.	122.47
2798	3.3804	-4.7887	0.	125.18
2799	3.1275	-4.5315	0.	126.24
2800	-4.8537	2.0218	0.	124.56
2801	-4.6128	2.2692	0.	124.64
2802	-4.6278	1.7724	0.	123.86
2803	2.6166	4.7063	0.	127.76
2804	2.6251	5.1885	0.	128.33
2805	2.8571	4.9527	0.	128.28
2806	2.8347	4.4695	0.	127.83
2807	4.7269	2.5864	0.	121.22
2808	4.5035	2.3594	0.	122.32
2809	4.5008	2.8203	0.	122.27
2810	4.2594	2.5819	0.	123.38
2811	4.976	2.8055	0.	120.03
2812	5.1915	2.4925	0.	119.48
2813	4.275	2.1158	0.	123.62
2814	4.5318	1.8998	0.	122.48
2815	4.0562	1.8635	0.	125.34
2816	4.031	2.3383	0.	124.69
2817	2.5686	1.1031e-002	0.	125.54
2818	2.2853	0.2462	0.	125.8
2819	2.3717	-0.25616	0.	125.15
2820	-0.38412	-2.5402	0.	124.63
2821	-0.12062	-2.7818	0.	125.35
2822	0.1064	-2.5337	0.	125.51
2823	-0.15348	-2.2919	0.	124.63
2824	0.13428	4.7919	0.	125.31
2825	-0.36563	4.7581	0.	126.05
2826	-0.10192	4.5213	0.	125.79
2827	-0.11702	5.0245	0.	125.9
2828	0.37005	5.0581	0.	124.64
2829	-3.7445	1.2622	0.	123.18
2830	-3.9628	1.5163	0.	123.36
2831	-2.2579	0.9738	0.	125.46
2832	-2.0587	0.71094	0.	126.39
2833	-1.8183	0.94803	0.	126.3
2834	-2.4987	0.74714	0.	124.99
2835	-0.19356	-1.3089	0.	124.07
2836	-0.44383	-1.0642	0.	124.09
2837	-0.43622	-1.5574	0.	123.7
2838	5.1848e-002	-1.5549	0.	124.26
2839	-0.17987	-1.8012	0.	124.11
2840	3.2129	-2.2319	0.	127.85
2841	3.4831	-2.4835	0.	127.92
2842	6.3712	-4.2297	0.	123.44
2843	6.1242	-4.493	0.	123.26
2844	6.6371	-4.4881	0.	124.41
2845	-5.5542	6.6777	0.	126.34
2846	-5.7045	6.4653	0.	126.96
2847	-5.2634	6.4509	0.	126.08
2848	-5.7642	6.705	0.	126.8
2849	-5.338	6.9305	0.	125.58
2850	-5.874	7.0021	0.	126.98
2851	-5.5537	7.1712	0.	125.37
2852	2.1541	5.6301	0.	127.14
2853	2.4041	5.4086	0.	127.83
2854	1.9935	5.3544	0.	125.99
2855	-2.2774	6.9717	0.	124.28
2856	-1.7423	6.986	0.	124.54
2857	-2.0373	7.2292	0.	124.11
2858	-2.7885	6.9751	0.	124.15
2859	-2.5409	7.2278	0.	124.01
2860	-3.2936	6.9808	0.	124.11
2861	-3.0446	7.2312	0.	123.98
2862	-3.0414	6.7243	0.	124.36
2863	-3.7967	6.9835	0.	124.15
2864	-3.5485	7.2349	0.	123.97
2865	-4.2995	6.9768	0.	124.31
2866	-4.0537	7.2322	0.	124.
2867	-4.5587	7.2161	0.	124.14
2868	-4.8066	6.957	0.	124.7
2869	6.2374	2.4314	0.	120.5
2870	5.996	2.1621	0.	118.93
2871	5.983	2.6848	0.	119.56
2872	5.7023	2.4116	0.	119.06
2873	6.4946	2.6967	0.	121.85
2874	6.505	2.1844	0.	121.57
2875	6.7495	2.4475	0.	122.97
2876	4.2895	-3.2346	0.	124.46
2877	4.5574	-3.4852	0.	122.74
2878	-1.078	-3.2908	0.	123.9
2879	-0.84675	-3.0403	0.	124.5
2880	-1.1126	-2.7996	0.	124.58
2881	-1.3436	-3.0582	0.	125.3
2882	-1.4045	-6.3287e-002	0.	127.47
2883	-1.1719	-0.31868	0.	126.43
2884	-1.0449	6.0882	0.	127.18
2885	-1.312	5.8534	0.	126.8
2886	-1.0803	5.5605	0.	127.02
2887	-0.82416	5.8082	0.	127.47
2888	3.3903	1.0882	0.	128.64
2889	3.1772	0.82211	0.	128.23
2890	2.9105	1.0549	0.	127.93
2891	3.5298	3.76	0.	127.13
2892	3.7736	3.5236	0.	126.05
2893	-5.5312	3.2551	0.	126.87
2894	-5.7721	3.5002	0.	126.47
2895	6.6091	-3.4576	0.	123.63
2896	6.866	-3.2084	0.	125.37
2897	7.1323	-3.4669	0.	125.66
2898	6.8759	-3.717	0.	124.78
2899	7.1636	-5.0024	0.	125.61
2900	6.9098	-5.2651	0.	125.64
2901	6.9008	-4.7458	0.	125.19
2902	6.6574	-6.0562	0.	126.25
2903	7.1717	-6.0386	0.	125.69
2904	6.9136	-5.7869	0.	125.83
2905	6.9102	-6.3099	0.	125.49
2906	-1.0481	-3.7811	0.	122.36
2907	-0.81401	-3.5312	0.	123.67
2908	-1.3099	-3.5503	0.	123.9
2909	5.5683	1.0851	0.	113.71
2910	5.3159	1.299	0.	116.58
2911	5.5368	1.5918	0.	116.43
2912	5.8001	1.3611	0.	116.15
2913	-5.8104	1.0456	0.	125.57
2914	-5.5695	1.2901	0.	124.43
2915	-5.3393	1.0439	0.	123.49
2916	-5.5757	0.80875	0.	123.2
2917	2.8044	5.9279	0.	130.37
2918	2.3442	5.8969	0.	128.59
2919	2.5942	5.6754	0.	129.28
2920	2.5409	6.1698	0.	130.86
2921	1.0507	5.4177	0.	122.56
2922	1.4865	5.5834	0.	123.1
2923	1.2431	5.7032	0.	121.01
2924	-5.9899	6.2495	0.	127.18
2925	-6.3038	5.9373	0.	126.37
2926	-6.2784	6.1334	0.	127.19
2927	5.0881	-3.9908	0.	121.23
2928	4.822	-3.738	0.	121.6
2929	4.8479	-4.2523	0.	121.32
2930	4.0213	-2.9842	0.	125.95
2931	3.7501	-2.7353	0.	127.3
2932	3.6767	-1.7195	0.	128.14
2933	3.9522	-1.4697	0.	128.21
2934	3.5978	-1.2143	0.	126.82
2935	-0.61525	-2.7896	0.	124.38
2936	-0.64695	-2.2982	0.	123.97
2937	-0.88112	-2.5489	0.	124.46
2938	-0.6894	-0.81829	0.	124.55
2939	-0.9332	-0.569	0.	125.54
2940	-2.7264	0.53406	0.	124.2
2941	-3.0264	0.33539	0.	121.96
2942	-3.1199	0.56369	0.	122.7
2943	-1.8475	0.45195	0.	127.03
2944	-1.6071	0.68904	0.	126.94
2945	-1.6308	0.1916	0.	127.67
2946	-4.9329	-5.2346	0.	121.68
2947	-4.6738	-4.9993	0.	122.23
2948	-4.9143	-4.7266	0.	120.9
2949	-5.1659	-4.9566	0.	119.4
2950	0.5916	5.3318	0.	123.61
2951	0.80773	5.5951	0.	121.86
2952	-0.61146	5.0079	0.	126.57
2953	-0.84932	5.283	0.	126.82
2954	-0.59323	5.5307	0.	127.27
2955	-0.36285	5.2742	0.	126.42
2956	-1.4938	6.7118	0.	125.29
2957	-1.2725	6.3864	0.	126.51
2958	-1.5396	6.1516	0.	126.13
2959	-0.35175	-3.0312	0.	125.11
2960	-0.58274	-3.2807	0.	124.27
2961	0.88431	-3.2652	0.	129.27
2962	0.6245	-3.0204	0.	127.85
2963	0.84842	-2.7731	0.	127.68
2964	1.1063	-3.0198	0.	128.61
2965	1.9097	-4.2683	0.	129.71
2966	1.6545	-4.0147	0.	130.39
2967	2.1353	-4.0186	0.	129.28
2968	1.8787	-3.7678	0.	129.68
2969	2.1933	-5.5472	0.	128.92
2970	2.6759	-5.5589	0.	128.66
2971	2.4407	-5.8133	0.	129.21
2972	2.4283	-5.2969	0.	128.72
2973	1.9479	-5.2825	0.	128.98
2974	1.9569	-5.7955	0.	128.93
2975	1.71	-5.5315	0.	128.92
2976	-4.4221	-4.257	0.	123.88
2977	-4.1723	-4.516	0.	123.69
2978	-4.4229	-4.7638	0.	123.42
2979	-4.6634	-4.4912	0.	122.09
2980	6.2637	1.915	0.	120.
2981	5.7644	1.8751	0.	118.04
2982	6.0278	1.6444	0.	117.78
2983	2.9732	-0.72712	0.	124.99
2984	2.7785	-0.98527	0.	125.18
2985	3.2811	-0.9692	0.	125.43
2986	2.9647	0.55551	0.	127.48
2987	2.7699	0.28265	0.	126.28
2988	2.4867	0.51783	0.	126.53
2989	2.6981	0.78827	0.	127.18
2990	3.8327	1.6093	0.	126.67
2991	3.6117	1.3488	0.	128.22
2992	4.7948	1.7042	0.	120.85
2993	5.0552	1.5012	0.	118.51
2994	5.2761	1.794	0.	118.34
2995	4.2619	3.0513	0.	123.46
2996	4.0196	3.2889	0.	124.99
2997	4.0206	2.8129	0.	124.57
2998	3.053	4.2313	0.	127.88
2999	3.2859	3.9953	0.	127.59
3000	3.0189	6.175	0.	131.35
3001	3.277	5.9502	0.	131.05
3002	3.0566	5.6942	0.	130.21
3003	5.7364	2.9532	0.	119.33
3004	5.2402	2.9931	0.	119.39
3005	5.4937	3.2202	0.	118.41
3006	5.4557	2.6801	0.	118.83
3007	-6.0161	3.7453	0.	125.83
3008	-6.2628	3.9899	0.	124.52
3009	-5.0618	2.7639	0.	126.05
3010	-5.2949	3.0096	0.	126.71
3011	-4.8193	3.0123	0.	125.97
3012	5.8876	-5.2796	0.	124.9
3013	5.6294	-5.0215	0.	123.17
3014	5.876	-4.7576	0.	123.32
3015	-3.2411	-3.8872	0.	125.68
3016	-2.7716	-3.7631	0.	126.52
3017	-3.0259	-3.5695	0.	124.71
3018	-2.9902	-4.0749	0.	126.85
3019	-4.4279	-3.7593	0.	125.99
3020	-4.1859	-4.002	0.	124.81
3021	-4.6619	-3.9915	0.	123.36
3022	-3.4534	-4.2294	0.	125.21
3023	-3.4911	-3.6871	0.	124.28
3024	-3.7103	-3.9741	0.	125.18
3025	3.8867	-5.2985	0.	121.54
3026	4.1278	-5.0379	0.	121.2
3027	3.6352	-5.0428	0.	123.59
3028	1.9844	-6.8128	0.	128.24
3029	1.997	-7.3114	0.	127.7
3030	2.2492	-7.0815	0.	127.21
3031	1.742	-7.0482	0.	128.35
3032	6.629	-7.1285	0.	124.04
3033	6.9474	-7.3272	0.	124.49
3034	7.1821	-7.0619	0.	124.6
3035	6.9111	-6.8268	0.	124.79
3036	-5.0775	2.2696	0.	125.35
3037	-5.3227	2.0226	0.	125.53
3038	-5.0914	1.7765	0.	124.36
3039	-5.3082	2.5156	0.	126.46
3040	-4.8367	2.517	0.	125.43
3041	-7.2574	3.9863	0.	120.46
3042	-7.009	4.2302	0.	121.49
3043	-6.7597	3.9864	0.	122.55
3044	-7.0086	3.7388	0.	121.47
3045	6.2402	2.95	0.	120.92
3046	5.9926	3.2071	0.	119.71
3047	6.4952	3.21	0.	122.46
3048	6.7456	2.958	0.	123.3
3049	3.3063	4.4785	0.	128.13
3050	3.0752	4.7158	0.	128.34
3051	4.7499	3.0394	0.	121.09
3052	4.5092	3.2894	0.	122.46
3053	5.0011	3.2681	0.	119.62
3054	4.313	1.6475	0.	124.2
3055	4.5721	1.4339	0.	122.98
3056	4.0918	1.3864	0.	126.76
3057	3.1557	-0.46338	0.	124.7
3058	2.8666	-0.22509	0.	125.24
3059	2.6698	-0.49229	0.	124.85
3060	6.7657	1.938	0.	123.17
3061	7.2662	1.9545	0.	125.94
3062	7.0225	1.694	0.	125.62
3063	7.0101	2.2011	0.	124.56
3064	6.5243	1.6742	0.	121.67
3065	-3.9209	-4.7866	0.	123.92
3066	-3.6791	-4.5164	0.	124.64
3067	-3.936	-4.261	0.	124.61
3068	1.9338	-4.7721	0.	129.34
3069	1.7016	-5.0209	0.	129.39
3070	2.1829	-5.0322	0.	128.79
3071	1.6829	-4.5149	0.	130.2
3072	2.1638	-4.5222	0.	129.05
3073	-8.9039e-002	-3.2734	0.	126.11
3074	0.13913	-3.0248	0.	126.51
3075	1.9683	-6.3067	0.	128.81
3076	1.7291	-6.5477	0.	129.
3077	2.2225	-6.5737	0.	128.7
3078	2.2043	-6.0616	0.	129.22
3079	1.7181	-6.0409	0.	129.07
3080	-1.5308	7.257	0.	124.27
3081	-1.2015	6.9284	0.	125.42
3082	-1.3254	7.235	0.	124.35
3083	0.3548	5.5475	0.	124.44
3084	0.11876	5.2906	0.	125.23
3085	-3.967	1.0115	0.	123.18
3086	-3.7348	0.74674	0.	122.95
3087	-4.4141	1.02	0.	123.37
3088	-4.1853	1.2656	0.	123.36
3089	-4.182	0.76141	0.	124.
3090	-4.6411	0.77852	0.	123.94
3091	-4.6373	1.2752	0.	123.43
3092	-4.8733	1.0334	0.	123.25
3093	-2.2994	0.48428	0.	125.92
3094	-2.0982	0.21775	0.	127.49
3095	-2.5621	0.26365	0.	125.36
3096	-0.68649	-1.3127	0.	123.72
3097	-0.93805	-1.0658	0.	124.14
3098	-0.67266	-1.8061	0.	123.55
3099	-0.91284	-2.056	0.	123.72
3100	-0.41632	-2.0499	0.	123.97
3101	-0.93286	-1.5615	0.	123.17
3102	3.9338	-1.9761	0.	128.32
3103	3.4411	-1.9747	0.	128.02
3104	3.7113	-2.2264	0.	128.09
3105	6.1063	-3.9729	0.	122.29
3106	6.3557	-3.7125	0.	122.7
3107	6.6224	-3.9719	0.	123.85
3108	5.5953	-3.9805	0.	121.28
3109	5.3514	-4.2451	0.	121.32
3110	5.3289	-3.7268	0.	120.57
3111	5.8395	-3.7156	0.	120.88
3112	5.8592	-4.2361	0.	122.12
3113	-6.1268	6.5778	0.	128.29
3114	1.9081	5.7826	0.	125.6
3115	1.6552	5.8915	0.	122.79
3116	1.7474	5.5069	0.	124.45
3117	2.0601	6.1595	0.	128.02
3118	2.9867	6.6447	0.	130.81
3119	3.2301	6.4246	0.	132.07
3120	2.7554	6.4168	0.	131.82
3121	-6.5407	7.4259	0.	128.53
3122	-6.8967	7.2653	0.	130.64
3123	-6.3872	7.1491	0.	129.43
3124	-6.7345	6.9998	0.	130.24
3125	1.7436	-7.5442	0.	127.96
3126	2.2657	-7.5787	0.	127.3
3127	1.9944	-7.8031	0.	127.96
3128	1.4833	-7.7767	0.	128.37
3129	1.2336	-7.5153	0.	128.45
3130	1.4886	-7.281	0.	128.61
3131	-6.0446	1.2859	0.	127.32
3132	-6.286	1.0348	0.	131.32
3133	-6.0496	0.80546	0.	126.45
3134	7.2424	6.001	0.	129.34
3135	6.7446	6.0002	0.	133.44
3136	6.9949	5.7489	0.	130.07
3137	6.9891	6.2526	0.	130.32
3138	4.2094	-1.7263	0.	128.39
3139	4.1365	-1.2023	0.	128.09
3140	4.4825	-1.3463	0.	126.83
3141	4.4413	-1.6767	0.	127.66
3142	5.3391	0.80689	0.	114.14
3143	5.8196	0.85912	0.	113.28
3144	5.5833	0.5884	0.	111.9
3145	-1.2822	-4.0368	0.	122.01
3146	-1.0241	-4.2703	0.	121.37
3147	-0.78731	-4.0219	0.	122.2
3148	-4.8066	7.437	0.	123.98
3149	-5.0545	7.1779	0.	124.54
3150	-5.1214	7.6525	0.	123.88
3151	-5.2702	7.4186	0.	124.33
3152	-4.3129	7.4715	0.	123.82
3153	-4.5887	7.7087	0.	123.74
3154	-3.8055	7.4836	0.	123.81
3155	-4.0663	7.7303	0.	123.78
3156	-3.2996	7.4853	0.	123.83
3157	-3.5539	7.7371	0.	123.84
3158	-2.797	7.4838	0.	123.84
3159	-3.048	7.7377	0.	123.87
3160	-2.3008	7.4852	0.	123.84
3161	-2.5473	7.7376	0.	123.87
3162	-1.8257	7.5002	0.	123.83
3163	-2.0539	7.7425	0.	123.85
3164	-1.5755	7.7581	0.	123.87
3165	-1.3911	7.491	0.	123.9
3166	-5.1875	-5.4758	0.	118.78
3167	-4.9528	-5.7351	0.	123.49
3168	-4.702	-5.5132	0.	124.8
3169	-7.2602	5.4469	0.	121.43
3170	-7.0111	5.6672	0.	123.01
3171	-7.0134	5.197	0.	122.16
3172	-6.7686	5.4347	0.	123.47
3173	-7.5069	4.2339	0.	119.86
3174	-7.7553	3.9898	0.	119.41
3175	-7.5063	3.74	0.	119.
3176	-7.5075	4.7257	0.	120.35
3177	-7.756	4.4842	0.	120.22
3178	-7.2585	4.4778	0.	120.89
3179	-7.5067	5.215	0.	120.47
3180	-7.7559	4.9773	0.	120.52
3181	-7.2599	4.965	0.	121.2
3182	-7.5507	-7.3416	0.	126.18
3183	-7.7956	-7.5725	0.	126.77
3184	-7.55	-7.83	0.	128.11
3185	-7.317	-7.6052	0.	127.5
3186	-7.5374	-6.8505	0.	126.3
3187	-7.3082	-7.1185	0.	125.56
3188	-7.7893	-7.0797	0.	125.97
3189	-7.3696	-4.3936	0.	128.71
3190	-7.6575	-4.5886	0.	129.2
3191	-7.4224	-4.8784	0.	129.29
3192	-7.148	-4.6745	0.	127.83
3193	-7.5833	-4.0916	0.	128.82
3194	-7.2831	-3.9385	0.	128.56
3195	-7.088	-4.1987	0.	127.33
3196	-7.6473	-3.2258	0.	128.09
3197	-7.7391	-3.7613	0.	128.93
3198	-7.8823	-3.468	0.	128.47
3199	-7.439	-3.6082	0.	128.67
3200	-7.4167	-3.4076	0.	128.76
3201	-7.6412	-2.7144	0.	126.19
3202	-7.4219	-2.9263	0.	128.08
3203	-7.8748	-2.958	0.	127.05
3204	-7.6205	-2.2424	0.	123.37
3205	-7.863	-2.4708	0.	124.55
3206	-7.4139	-2.4579	0.	126.09
3207	-7.8259	-1.9976	0.	121.48
3208	-7.3914	-2.0022	0.	122.72
3209	-7.5046	-1.7788	0.	121.59
3210	-6.1945	7.5919	0.	125.59
3211	-5.8502	7.7751	0.	124.37
3212	-6.041	7.3151	0.	126.46
3213	-5.7206	7.4842	0.	124.85
3214	-4.4435	-3.2754	0.	130.22
3215	-4.66	-3.5048	0.	126.54
3216	-4.2009	-3.5018	0.	126.77
3217	3.1612	-5.56	0.	127.03
3218	2.9252	-5.8209	0.	129.61
3219	2.9113	-5.3035	0.	127.83
3220	2.5179	-7.3488	0.	126.8
3221	2.8199	-7.6401	0.	127.12
3222	2.511	-7.8386	0.	127.75
3223	2.4584	-6.3286	0.	129.12
3224	2.69	-6.0753	0.	130.16
3225	6.3917	-6.3344	0.	126.22
3226	6.1456	-6.0642	0.	127.63
3227	6.4005	-5.8	0.	126.37
3228	7.4157	-4.7434	0.	125.77
3229	7.4065	-4.232	0.	125.84
3230	7.6697	-4.4885	0.	126.
3231	7.1529	-4.4869	0.	125.36
3232	7.6775	-4.9992	0.	125.91
3233	7.4225	-5.2581	0.	125.78
3234	7.6871	-6.0217	0.	125.55
3235	7.4268	-5.7726	0.	125.66
3236	7.4307	-6.2843	0.	125.33
3237	7.4883	-7.7842	0.	125.11
3238	7.2289	-7.5545	0.	124.7
3239	7.731	-7.5274	0.	124.97
3240	7.4635	-7.2892	0.	124.8
3241	6.427	-7.4052	0.	124.1
3242	6.5139	-7.8629	0.	125.19
3243	6.7454	-7.6038	0.	124.56
3244	6.2861	-7.6461	0.	124.6
3245	4.636	-5.5463	0.	118.8
3246	4.1401	-5.5525	0.	119.38
3247	4.3813	-5.2919	0.	119.06
3248	4.3917	-5.8025	0.	115.19
3249	5.8915	-5.8024	0.	127.21
3250	5.6391	-5.5413	0.	124.78
3251	6.1464	-5.5382	0.	125.94
3252	-7.515	-6.3581	0.	128.
3253	-7.7729	-6.5852	0.	126.96
3254	-7.2843	-6.6292	0.	127.18
3255	-5.5413	2.7613	0.	127.11
3256	-5.7794	3.0062	0.	127.51
3257	-6.2646	3.4965	0.	125.5
3258	-6.0203	3.2513	0.	127.11
3259	3.5392	4.2425	0.	127.84
3260	3.7791	4.0046	0.	127.13
3261	3.8708	1.1259	0.	128.29
3262	3.6559	0.85816	0.	129.79
3263	4.8324	1.2309	0.	120.65
3264	5.0866	1.0208	0.	117.08
3265	3.2446	0.31838	0.	127.32
3266	3.4428	0.59204	0.	129.38
3267	7.4609	-0.79347	0.	126.14
3268	7.7206	-1.028	0.	126.82
3269	7.4588	-1.2751	0.	127.93
3270	7.2366	-1.0497	0.	128.01
3271	7.4879	6.2527	0.	127.9
3272	7.4782	6.7555	0.	127.52
3273	7.7351	6.5036	0.	127.11
3274	7.2346	6.5043	0.	128.88
3275	7.4938	5.7496	0.	128.08
3276	7.7417	6.0012	0.	127.4
3277	7.4969	5.2459	0.	128.16
3278	7.7458	5.4984	0.	127.62
3279	7.2464	5.4975	0.	128.81
3280	7.501	3.2254	0.	126.58
3281	7.7501	3.4813	0.	127.14
3282	7.4993	3.731	0.	127.25
3283	7.2488	3.4748	0.	126.16
3284	7.7524	2.9761	0.	126.79
3285	7.5044	2.7197	0.	126.31
3286	7.25	2.9676	0.	125.42
3287	7.5184	1.7088	0.	127.79
3288	7.5109	2.2143	0.	126.68
3289	7.7633	1.9671	0.	127.5
3290	7.2748	1.4483	0.	127.47
3291	7.7682	1.4621	0.	128.67
3292	7.5213	1.2033	0.	129.67
3293	0.65982	-3.5131	0.	129.55
3294	0.91761	-3.7601	0.	131.1
3295	1.1416	-3.5147	0.	130.12
3296	-4.1716	-5.0345	0.	123.65
3297	-4.4429	-5.2778	0.	125.37
3298	-0.70775	7.5318	0.	124.26
3299	-0.41607	7.7152	0.	124.04
3300	-0.83426	7.863	0.	124.03
3301	-0.59588	7.944	0.	124.71
3302	-5.1489	-4.449	0.	119.84
3303	-4.9031	-4.2257	0.	121.57
3304	-6.5168	6.0642	0.	126.62
3305	-6.7749	5.8838	0.	124.7
3306	-6.5323	5.6513	0.	125.16
3307	3.2218	6.9052	0.	130.85
3308	2.7443	6.8905	0.	131.07
3309	3.0051	7.1052	0.	128.24
3310	3.4652	6.685	0.	132.1
3311	3.6994	6.5105	0.	133.27
3312	3.4882	6.1999	0.	131.78
3313	1.8072	6.2684	0.	125.21
3314	1.5819	6.2928	0.	121.56
3315	1.4118	6.0113	0.	120.68
3316	1.7758	6.4694	0.	125.08
3317	2.0066	6.7347	0.	133.42
3318	2.2568	6.4324	0.	130.26
3319	-0.50053	-7.4775	0.	121.54
3320	-0.52639	-7.8963	0.	122.82
3321	-0.74795	-7.6147	0.	120.99
3322	-0.29403	-7.7206	0.	123.17
3323	-0.45796	-7.0802	0.	121.14
3324	-0.69797	-7.147	0.	120.14
3325	-0.22974	-7.314	0.	123.01
3326	-6.7221	6.306	0.	127.1
3327	-6.4153	6.4616	0.	128.29
3328	6.0889	-3.4551	0.	121.28
3329	5.8199	-3.1952	0.	119.24
3330	5.573	-3.4619	0.	120.16
3331	6.3414	-3.1973	0.	122.17
3332	4.4077	-1.9308	0.	127.61
3333	4.2025	-2.2255	0.	127.63
3334	7.4053	-2.2357	0.	128.69
3335	7.6606	-2.4844	0.	128.24
3336	7.1279	-2.4689	0.	128.21
3337	7.3942	-2.7267	0.	127.86
3338	7.1452	-1.983	0.	128.66
3339	7.676	-1.9965	0.	128.54
3340	7.4307	-1.7543	0.	128.66
3341	-1.4368	-1.564	0.	123.25
3342	-1.173	-1.8115	0.	123.33
3343	-1.1844	-1.3145	0.	123.59
3344	-2.553	-3.4506	0.	126.62
3345	-2.5952	-2.9398	0.	126.68
3346	-2.3286	-3.1608	0.	126.85
3347	-2.8072	-3.257	0.	124.8
3348	-2.1365	-0.27821	0.	129.66
3349	-2.3608	-2.8725e-003	0.	126.93
3350	-1.8815	-4.2588e-002	0.	128.13
3351	-5.8547	-4.1074	0.	118.58
3352	-5.631	-4.3925	0.	118.84
3353	-6.1112	-4.3323	0.	120.57
3354	-5.8855	-4.6129	0.	118.64
3355	-6.9683	-2.8824	0.	128.72
3356	-7.1946	-2.6697	0.	127.95
3357	-7.1913	-3.108	0.	128.73
3358	-3.6865	0.2453	0.	122.31
3359	-3.9498	0.4967	0.	123.77
3360	-3.5162	0.52384	0.	122.48
3361	0.1229	5.7844	0.	125.73
3362	-8.038e-002	6.026	0.	128.3
3363	-0.34353	5.784	0.	127.35
3364	-0.11315	5.5275	0.	126.51
3365	0.37421	6.0351	0.	124.85
3366	0.57092	5.8108	0.	122.7
3367	-0.55274	7.2793	0.	125.46
3368	-0.85995	7.0876	0.	125.3
3369	-0.98386	7.3942	0.	124.23
3370	-3.6438	-5.0575	0.	123.23
3371	-3.9406	-5.3127	0.	124.03
3372	1.2372	-6.5205	0.	130.21
3373	1.4788	-6.2819	0.	129.26
3374	1.4866	-6.7831	0.	129.12
3375	0.45745	-7.7161	0.	127.04
3376	0.49345	-7.2099	0.	128.55
3377	0.73155	-7.4782	0.	127.97
3378	0.24556	-7.405	0.	126.1
3379	0.17183	-3.517	0.	127.73
3380	0.40001	-3.2684	0.	128.13
3381	0.43092	-3.7623	0.	130.21
3382	1.2165	-5.0125	0.	130.41
3383	1.4506	-4.7637	0.	130.25
3384	1.4637	-5.27	0.	129.32
3385	-3.402	-4.7873	0.	123.95
3386	-3.2025	-4.4171	0.	126.38
3387	-3.1452	-4.9218	0.	124.73
3388	-3.417	-5.3503	0.	121.54
3389	-3.1444	-5.1472	0.	123.28
3390	-2.293	-3.6563	0.	126.75
3391	-2.0357	-3.8544	0.	126.45
3392	-2.0686	-3.3666	0.	126.97
3393	-1.8047	-3.5877	0.	125.52
3394	-2.5178	-3.9452	0.	128.07
3395	6.7812	1.4302	0.	124.13
3396	7.0294	1.1883	0.	128.2
3397	6.5395	1.1681	0.	122.45
3398	6.2884	1.4036	0.	119.44
3399	3.3388	-0.19277	0.	125.56
3400	3.0498	4.552e-002	0.	126.12
3401	3.5177	8.6637e-002	0.	127.58
3402	3.6205	-0.42724	0.	125.37
3403	3.4636	-0.70546	0.	125.13
3404	4.3509	1.1728	0.	125.53
3405	4.6073	0.95918	0.	124.17
3406	4.1328	0.9058	0.	129.45
3407	4.5157	3.7686	0.	123.37
3408	4.2669	3.527	0.	124.
3409	4.7605	3.5182	0.	121.
3410	3.5482	4.7291	0.	128.36
3411	3.7904	4.9817	0.	128.36
3412	3.5464	5.2218	0.	128.99
3413	3.3171	4.9665	0.	128.57
3414	3.7879	4.4906	0.	128.09
3415	7.4656	7.2578	0.	127.15
3416	7.7254	7.0054	0.	126.75
3417	7.2206	7.0085	0.	128.29
3418	7.2003	7.5132	0.	127.48
3419	7.4584	7.7583	0.	126.86
3420	7.7156	7.5062	0.	126.56
3421	7.4982	4.7414	0.	128.2
3422	7.2488	4.4879	0.	128.5
3423	7.7484	4.4899	0.	127.96
3424	7.4987	4.2363	0.	127.93
3425	7.7476	4.9945	0.	127.84
3426	7.2481	4.9933	0.	128.73
3427	6.0003	3.7244	0.	119.38
3428	6.2476	3.4671	0.	121.26
3429	5.7499	3.4741	0.	118.79
3430	3.5865	8.122	0.	129.16
3431	3.2337	8.0155	0.	126.53
3432	3.1193	8.324	0.	128.29
3433	3.4221	8.4278	0.	128.9
3434	-6.5131	3.2476	0.	125.78
3435	-6.5113	3.7411	0.	124.18
3436	-6.7602	3.4935	0.	123.11
3437	-5.5534	2.2686	0.	126.63
3438	-5.7981	2.0203	0.	127.35
3439	-5.563	1.7777	0.	125.58
3440	-5.7886	2.5128	0.	128.06
3441	-5.5968	-0.11891	0.	118.12
3442	-5.3517	8.8022e-002	0.	121.51
3443	-5.8167	0.10418	0.	122.17
3444	-5.5815	0.33713	0.	121.39
3445	-7.7509	-6.0895	0.	128.77
3446	-7.2541	-6.1393	0.	129.62
3447	-7.4879	-5.8654	0.	129.6
3448	-6.4104	-5.0314	0.	123.25
3449	-6.3723	-4.546	0.	122.42
3450	-6.6435	-4.7526	0.	124.7
3451	-6.1465	-4.8266	0.	120.49
3452	4.8872	-5.7998	0.	119.37
3453	5.1357	-5.5427	0.	121.77
3454	4.8808	-5.2847	0.	120.2
3455	6.3625	-6.8897	0.	124.71
3456	6.0705	-7.1404	0.	124.45
3457	6.2009	-7.4159	0.	124.14
3458	6.1267	-6.5965	0.	126.93
3459	6.6445	-6.588	0.	125.47
3460	2.7569	-7.1146	0.	126.88
3461	2.4873	-6.8424	0.	127.68
3462	3.6491	-5.5567	0.	123.32
3463	3.8985	-5.8105	0.	120.39
3464	3.3977	-5.301	0.	125.38
3465	3.4104	-5.8162	0.	127.34
3466	-4.4817	-2.8099	0.	134.37
3467	-4.2337	-3.0213	0.	130.2
3468	-4.6642	-3.0398	0.	131.04
3469	-3.531	-3.177	0.	121.07
3470	-3.7398	-3.4575	0.	124.7
3471	-3.2759	-3.3694	0.	123.3
3472	0.97293	6.3179	0.	116.79
3473	1.3568	6.4268	0.	117.75
3474	1.0761	6.5645	0.	110.24
3475	1.1867	6.1454	0.	116.95
3476	3.038	-7.902	0.	128.65
3477	3.059	-7.4059	0.	127.12
3478	3.2754	-7.909	0.	128.75
3479	3.377	-7.6439	0.	133.44
3480	-0.26107	7.4626	0.	125.22
3481	2.7974e-002	7.6633	0.	127.88
3482	-0.15017	7.9104	0.	125.67
3483	-6.6871	7.6814	0.	134.92
3484	-6.3515	7.8627	0.	126.1
3485	-0.68801	-6.9538	0.	120.07
3486	-0.46547	-6.674	0.	120.01
3487	-0.21109	-6.9002	0.	123.53
3488	-1.7751	-4.0726	0.	124.52
3489	-1.5191	-4.2883	0.	121.18
3490	-1.544	-3.806	0.	123.59
3491	7.7124	-0.54193	0.	125.22
3492	7.1685	-0.57992	0.	130.36
3493	7.4665	-0.30551	0.	126.58
3494	4.8615	0.74901	0.	120.6
3495	5.1064	0.535	0.	113.81
3496	4.0079	5.7526	0.	129.29
3497	4.025	5.2408	0.	128.2
3498	4.2638	5.4963	0.	128.56
3499	3.781	5.4809	0.	128.83
3500	-6.0387	1.7731	0.	127.94
3501	-6.281	1.5224	0.	130.32
3502	-5.8037	1.5304	0.	126.18
3503	-5.6762	-5.4136	0.	115.87
3504	-5.4302	-5.7527	0.	115.36
3505	-5.4204	-5.1978	0.	116.49
3506	-7.0551	-6.8972	0.	126.41
3507	-7.0745	-7.3821	0.	126.84
3508	-6.8354	-7.1695	0.	129.97
3509	3.66	7.8169	0.	127.76
3510	3.9136	8.2643	0.	131.23
3511	4.0955	8.0132	0.	137.79
3512	3.9688	7.8386	0.	127.24
3513	3.2518	7.1348	0.	129.27
3514	3.7028	6.7602	0.	132.99
3515	3.6337	7.121	0.	130.11
3516	-0.73883	-8.0727	0.	123.34
3517	-0.97281	-8.2752	0.	124.52
3518	-0.96039	-7.7912	0.	121.52
3519	-1.1719	-8.0014	0.	123.25
3520	-0.2883	-8.1237	0.	124.43
3521	-0.5176	-8.3375	0.	124.75
3522	0.18762	-8.0568	0.	125.9
3523	-5.5945e-002	-7.948	0.	124.78
3524	-3.9678e-002	-8.35	0.	125.74
3525	0.6987	-7.99	0.	127.34
3526	0.45383	-8.2456	0.	126.99
3527	0.18866	-7.8682	0.	125.57
3528	1.2225	-8.0134	0.	128.18
3529	0.97172	-8.255	0.	128.1
3530	0.97279	-7.752	0.	128.27
3531	1.734	-8.0356	0.	128.37
3532	1.4806	-8.2714	0.	128.59
3533	2.2397	-8.063	0.	128.42
3534	1.9857	-8.2915	0.	128.78
3535	2.7291	-8.1005	0.	129.3
3536	2.4852	-8.3183	0.	129.11
3537	-7.7526	5.4697	0.	120.27
3538	-7.498	5.7026	0.	120.07
3539	3.9663	6.2996	0.	132.3
3540	4.245	6.0091	0.	129.72
3541	3.7551	5.989	0.	130.78
3542	-5.1956	-6.012	0.	120.11
3543	-5.0031	-6.2069	0.	123.21
3544	-4.7403	-6.0241	0.	128.18
3545	-5.7148	-0.55983	0.	113.15
3546	-5.3855	-0.37438	0.	118.62
3547	-5.8188	-0.33999	0.	118.88
3548	-8.0343	-7.3106	0.	126.55
3549	-8.0352	-7.8045	0.	127.68
3550	-8.2808	-7.5475	0.	127.07
3551	-8.0248	-6.8144	0.	126.62
3552	-8.2759	-7.0506	0.	126.57
3553	-8.0088	-6.3166	0.	127.72
3554	-8.2646	-6.5522	0.	127.19
3555	-7.9887	-5.8164	0.	128.96
3556	-8.2488	-6.0519	0.	128.34
3557	-7.9647	-5.3119	0.	129.61
3558	-8.2296	-5.5478	0.	129.26
3559	-7.7257	-5.5923	0.	129.79
3560	-7.932	-4.8017	0.	129.61
3561	-8.2058	-5.0369	0.	129.57
3562	-7.6969	-5.0915	0.	129.7
3563	-7.8711	-4.2866	0.	129.31
3564	-8.1701	-4.5138	0.	129.43
3565	-8.1036	-3.9701	0.	129.03
3566	-8.1097	-3.2002	0.	127.42
3567	-8.2467	-3.6768	0.	128.56
3568	-8.3356	-3.4353	0.	128.11
3569	-8.0966	-2.7144	0.	125.41
3570	-8.3341	-2.9569	0.	126.68
3571	-8.0684	-2.226	0.	122.67
3572	-8.3225	-2.4691	0.	124.47
3573	-8.0094	-1.7386	0.	119.85
3574	-8.2874	-1.9794	0.	121.85
3575	-7.9681	-1.247	0.	117.9
3576	-7.688	-1.5198	0.	119.95
3577	-8.233	-1.4906	0.	119.53
3578	-7.7029	-0.99808	0.	119.17
3579	-8.2238	-0.99595	0.	118.26
3580	-7.973	-0.74861	0.	117.64
3581	-7.7896	-8.062	0.	129.02
3582	-7.3035	-8.0866	0.	130.73
3583	-7.5377	-8.3146	0.	130.21
3584	-8.2783	-8.0417	0.	128.36
3585	-8.0289	-8.2953	0.	129.18
3586	-8.0031	3.2466	0.	116.65
3587	-7.7542	2.997	0.	116.34
3588	-8.2522	2.998	0.	117.12
3589	-8.0027	2.7482	0.	115.38
3590	-8.0038	3.7439	0.	118.51
3591	-8.2527	3.4964	0.	118.94
3592	-7.7547	3.494	0.	118.09
3593	-8.0044	4.2401	0.	119.77
3594	-8.2533	3.994	0.	120.32
3595	-8.0044	4.7357	0.	120.39
3596	-8.2537	4.4906	0.	121.14
3597	-8.0018	5.232	0.	120.32
3598	-8.2528	4.9875	0.	121.43
3599	-8.2482	5.4855	0.	121.26
3600	-7.9922	5.7321	0.	119.56
3601	2.2628	6.965	0.	135.28
3602	2.4821	7.163	0.	128.7
3603	2.513	6.6626	0.	132.05
3604	3.3072	7.7105	0.	125.15
3605	2.9234	7.877	0.	125.62
3606	3.0807	7.5709	0.	125.88
3607	-6.9801	6.1256	0.	125.19
3608	-7.2489	5.9229	0.	121.65
3609	4.7546	-2.7021	0.	123.6
3610	5.034	-2.9582	0.	120.56
3611	4.525	-2.9709	0.	123.81
3612	4.7929	-3.2215	0.	122.08
3613	6.9084	-1.7417	0.	128.77
3614	6.6888	-1.4878	0.	126.52
3615	7.1939	-1.513	0.	128.77
3616	6.9717	-1.2876	0.	128.84
3617	6.5983	-2.9481	0.	123.92
3618	6.8609	-2.7076	0.	126.98
3619	7.1271	-2.9654	0.	126.63
3620	2.9686	-8.3515	0.	130.12
3621	3.2045	-8.1295	0.	130.24
3622	5.718	-7.3504	0.	125.02
3623	5.5831	-7.8358	0.	126.94
3624	5.3963	-7.583	0.	131.77
3625	5.8483	-7.6259	0.	124.78
3626	7.9823	6.7535	0.	126.34
3627	8.2316	7.0031	0.	125.87
3628	7.9755	7.2539	0.	126.16
3629	8.2376	6.5025	0.	126.09
3630	7.9889	6.252	0.	126.61
3631	7.9965	5.2471	0.	127.3
3632	8.2459	5.4992	0.	126.8
3633	7.9937	5.75	0.	126.94
3634	8.2474	4.9962	0.	127.21
3635	7.9977	4.7431	0.	127.6
3636	8.0016	3.232	0.	127.35
3637	8.2504	3.4867	0.	127.52
3638	7.9997	3.7358	0.	127.55
3639	8.2527	2.9835	0.	127.48
3640	8.0046	2.7281	0.	127.35
3641	8.2617	1.4729	0.	128.59
3642	8.0135	1.2163	0.	129.03
3643	8.0131	1.7205	0.	128.38
3644	7.9804	-0.28455	0.	126.08
3645	8.2394	-3.1099e-002	0.	126.42
3646	7.7345	-4.813e-002	0.	127.47
3647	7.9952	0.21178	0.	127.54
3648	7.9721	-0.77643	0.	125.89
3649	8.2285	-0.52551	0.	125.67
3650	8.2241	-1.0178	0.	125.97
3651	7.9635	-1.2669	0.	126.71
3652	8.18	-3.4867	0.	127.08
3653	7.9207	-3.7348	0.	126.8
3654	7.9186	-3.234	0.	127.36
3655	7.6569	-3.4781	0.	126.75
3656	8.193	-4.9973	0.	126.11
3657	7.9371	-5.2527	0.	125.93
3658	7.9315	-4.7442	0.	126.13
3659	8.2036	-6.0095	0.	125.62
3660	7.9424	-5.7608	0.	125.7
3661	7.9493	-6.2665	0.	125.4
3662	8.2222	-7.0134	0.	125.16
3663	7.9601	-6.7688	0.	125.15
3664	7.975	-7.2685	0.	125.07
3665	7.7074	-7.0303	0.	124.9
3666	7.9989	-8.263	0.	125.61
3667	8.2462	-8.0105	0.	125.41
3668	7.747	-8.023	0.	125.38
3669	7.9897	-7.7662	0.	125.24
3670	6.5122	-8.3248	0.	126.42
3671	6.2711	-8.0956	0.	126.5
3672	6.7595	-8.0746	0.	125.64
3673	-1.9102	-0.54244	0.	129.59
3674	-1.6766	-0.80846	0.	126.47
3675	-1.6552	-0.30682	0.	128.07
3676	-1.4225	-0.56222	0.	127.03
3677	-5.1132	0.31269	0.	122.85
3678	-4.8809	5.3857e-002	0.	125.77
3679	-5.1405	-0.16744	0.	122.11
3680	0.58962	6.2774	0.	122.36
3681	0.88597	6.5225	0.	112.88
3682	0.78634	6.0531	0.	120.19
3683	-3.8146	7.9838	0.	123.8
3684	-4.072	8.2289	0.	123.94
3685	-4.3421	7.9675	0.	123.69
3686	-3.3024	7.9895	0.	123.88
3687	-3.5545	8.2378	0.	124.06
3688	-3.0458	8.2426	0.	124.13
3689	-2.7983	7.9915	0.	123.9
3690	-1.8037	8.0003	0.	123.89
3691	-2.0467	8.2491	0.	124.14
3692	-2.3004	7.9949	0.	123.88
3693	-0.79658	8.0627	0.	124.71
3694	-1.0394	8.2494	0.	124.68
3695	-1.2947	7.9924	0.	123.97
3696	-1.1104	7.7254	0.	124.
3697	-0.55354	8.3577	0.	126.3
3698	-0.32997	8.1393	0.	126.36
3699	0.97721	-5.2598	0.	130.08
3700	0.98371	-5.7606	0.	129.7
3701	0.73589	-5.5066	0.	131.11
3702	1.2244	-5.5173	0.	129.01
3703	0.7478	-6.9835	0.	129.81
3704	0.99151	-6.7548	0.	130.49
3705	0.9859	-7.2517	0.	129.24
3706	1.2409	-7.0174	0.	129.4
3707	-1.1809	-7.0074	0.	120.29
3708	-0.94539	-7.2842	0.	119.58
3709	-0.95246	-6.7584	0.	119.71
3710	6.3024	0.89956	0.	118.8
3711	6.0632	0.63461	0.	112.17
3712	6.0514	1.1351	0.	115.79
3713	7.5156	0.69827	0.	130.78
3714	7.7667	0.9574	0.	130.03
3715	7.2759	0.94333	0.	130.36
3716	3.9389	-0.66865	0.	126.92
3717	4.2543	-0.85916	0.	134.25
3718	3.7821	-0.94688	0.	126.73
3719	3.716	0.3603	0.	129.61
3720	3.9179	0.63802	0.	130.91
3721	5.7547	3.9857	0.	117.17
3722	5.5062	4.2428	0.	111.54
3723	5.5043	3.7354	0.	116.6
3724	5.2594	3.9966	0.	116.74
3725	6.9347	7.7693	0.	127.8
3726	6.9535	8.2686	0.	127.32
3727	6.6403	8.0422	0.	126.87
3728	7.1928	8.0144	0.	127.18
3729	6.7494	3.9793	0.	126.
3730	6.9989	4.2335	0.	127.99
3731	7.2488	3.9818	0.	127.42
3732	6.9983	3.7256	0.	126.34
3733	-7.2574	2.9969	0.	119.68
3734	-7.5053	2.7475	0.	115.84
3735	-7.5058	3.2445	0.	117.82
3736	-6.0266	2.7577	0.	128.46
3737	-6.2689	3.0024	0.	127.38
3738	-7.0234	-6.4104	0.	128.78
3739	-6.7992	-6.6818	0.	127.94
3740	5.8805	-6.3264	0.	128.3
3741	5.639	-6.0603	0.	127.99
3742	-3.3218	-2.8674	0.	118.75
3743	-2.8546	-2.7426	0.	123.02
3744	-3.1243	-2.5542	0.	117.73
3745	-3.0666	-3.0598	0.	121.13
3746	-7.291	-1.7677	0.	122.49
3747	-6.9254	-1.9676	0.	129.54
3748	-7.1848	-2.2177	0.	125.42
3749	-7.4228	-1.2709	0.	121.22
3750	-7.4582	-0.74488	0.	120.79
3751	-7.1813	-0.96545	0.	129.93
3752	-7.125	-1.4836	0.	120.82
3753	-4.2931	-2.5619	0.	138.27
3754	-4.566	-2.3379	0.	139.2
3755	-4.7391	-2.5744	0.	131.33
3756	-3.7824	-2.9673	0.	123.21
3757	-4.0451	-2.7732	0.	134.39
3758	-3.9911	-3.2478	0.	126.79
3759	-3.5883	-2.6995	0.	112.15
3760	3.2616	7.4744	0.	125.95
3761	3.6435	7.4606	0.	126.77
3762	3.9052	-6.3192	0.	120.9
3763	3.6598	-6.07	0.	124.42
3764	4.1501	-6.0605	0.	116.11
3765	2.9822	-6.8665	0.	128.82
3766	3.1935	-6.5972	0.	135.19
3767	2.7125	-6.5943	0.	129.63
3768	2.9441	-6.341	0.	130.64
3769	3.2445	-7.1195	0.	124.27
3770	5.8347	-6.8472	0.	126.65
3771	5.5606	-7.0921	0.	122.81
3772	5.6231	-6.5785	0.	133.11
3773	5.1381	-6.0563	0.	123.22
3774	5.3815	-6.3124	0.	132.78
3775	5.3866	-5.7992	0.	125.6
3776	4.8911	-6.3092	0.	120.04
3777	4.6429	-6.0561	0.	115.67
3778	-7.0705	-7.8617	0.	130.1
3779	-6.8513	-7.6488	0.	128.69
3780	-7.0465	-8.3357	0.	132.34
3781	-6.8202	-8.1137	0.	137.37
3782	-5.936	-5.6085	0.	112.46
3783	-6.1746	-5.3199	0.	120.36
3784	-5.9107	-5.1151	0.	117.58
3785	-6.9875	-5.9241	0.	130.63
3786	-6.7162	-5.7162	0.	131.52
3787	-7.2213	-5.6501	0.	130.63
3788	-6.9516	-5.4397	0.	130.05
3789	-6.7583	-6.1961	0.	131.8
3790	-6.2836	8.4721e-002	0.	127.97
3791	-6.05	0.3357	0.	124.9
3792	-6.0387	-0.1169	0.	123.07
3793	-6.0332	2.2645	0.	128.77
3794	-6.2775	2.0144	0.	129.84
3795	-6.274	2.5083	0.	130.13
3796	-6.762	2.999	0.	124.55
3797	-6.5163	2.7531	0.	129.08
3798	-7.0095	2.7489	0.	123.18
3799	-7.009	3.245	0.	121.88
3800	4.0192	8.7507	0.	130.61
3801	4.2848	8.4554	0.	129.36
3802	3.7492	8.5702	0.	131.07
3803	2.809	8.1855	0.	127.35
3804	2.9714	8.6673	0.	128.81
3805	2.6535	8.3946	0.	129.52
3806	1.4963	8.8582	0.	122.52
3807	1.4675	8.5009	0.	121.73
3808	1.333	8.6323	0.	115.87
3809	1.7267	8.6044	0.	127.28
3810	6.2512	3.98	0.	121.97
3811	6.0025	4.2363	0.	119.63
3812	6.4985	3.7227	0.	123.84
3813	6.5001	4.233	0.	127.01
3814	6.9988	4.7399	0.	129.03
3815	6.7497	4.4872	0.	128.97
3816	6.749	4.9933	0.	129.44
3817	6.9976	5.245	0.	129.38
3818	6.9553	7.2639	0.	128.62
3819	6.722	7.0078	0.	130.32
3820	6.9771	6.7573	0.	129.65
3821	6.6843	7.517	0.	128.99
3822	4.2721	4.994	0.	127.73
3823	4.0301	4.7432	0.	128.1
3824	4.5184	4.2562	0.	125.99
3825	4.765	4.0069	0.	121.19
3826	4.2716	4.0098	0.	125.42
3827	4.6374	0.48014	0.	127.22
3828	4.3893	0.6922	0.	128.05
3829	4.0671	-0.36154	0.	124.23
3830	3.7994	-0.14783	0.	127.36
3831	7.2672	0.43903	0.	134.47
3832	7.496	0.19372	0.	129.64
3833	7.7566	0.45362	0.	129.72
3834	6.5449	0.66855	0.	124.95
3835	6.7877	0.92613	0.	126.5
3836	-3.2209	-5.6972	0.	120.1
3837	-2.7336	-5.6988	0.	124.13
3838	-2.9991	-6.0472	0.	120.74
3839	-2.9483	-5.4941	0.	121.84
3840	-2.2605	-4.1433	0.	127.77
3841	-2.0091	-4.3332	0.	127.05
3842	-2.4853	-4.426	0.	130.9
3843	-2.7364	-4.257	0.	128.38
3844	-2.6946	-4.7206	0.	129.67
3845	-2.9186	-5.0037	0.	125.24
3846	-2.9457	-4.5516	0.	127.16
3847	0.7288	-5.0066	0.	132.56
3848	0.9643	-4.7588	0.	131.94
3849	-3.343e-002	-4.2592	0.	128.21
3850	-5.8908e-002	-3.7659	0.	126.94
3851	0.20018	-4.0111	0.	129.42
3852	-0.29211	-4.015	0.	125.2
3853	0.5033	-6.723	0.	131.75
3854	0.26501	-6.939	0.	127.82
3855	0.9889	-6.2588	0.	130.71
3856	0.74701	-6.4943	0.	132.42
3857	0.74072	-6.0031	0.	131.73
3858	1.2305	-6.0202	0.	129.76
3859	-4.9501	-8.4513	0.	125.07
3860	-5.2103	-8.3611	0.	119.08
3861	-5.0519	-8.0291	0.	118.77
3862	-4.8131	-7.9645	0.	131.27
3863	-4.6739	-8.2502	0.	128.61
3864	-4.1843e-002	8.8201	0.	130.16
3865	0.22715	8.5859	0.	133.32
3866	-0.29603	8.5794	0.	128.92
3867	-7.2466e-002	8.361	0.	128.96
3868	-1.0387	8.7675	0.	125.84
3869	-1.2922	8.5108	0.	124.99
3870	-0.79634	8.5444	0.	126.29
3871	-2.7914	8.4961	0.	124.36
3872	-2.5348	8.7485	0.	124.75
3873	-2.2902	8.4993	0.	124.39
3874	-2.5439	8.245	0.	124.13
3875	-3.2979	8.4908	0.	124.31
3876	-3.0383	8.7444	0.	124.71
3877	-3.8118	8.4829	0.	124.21
3878	-3.5469	8.7384	0.	124.64
3879	-4.3321	8.4709	0.	124.07
3880	-4.06	8.7309	0.	124.53
3881	-4.8562	8.4588	0.	124.02
3882	-4.5758	8.7205	0.	124.43
3883	-4.6022	8.2095	0.	123.82
3884	-5.0925	8.7166	0.	124.55
3885	-5.1574	8.1736	0.	123.84
3886	-5.3782	8.4764	0.	124.51
3887	-6.1034	8.7905	0.	127.89
3888	-6.3823	8.5722	0.	132.12
3889	-5.8882	8.5246	0.	126.1
3890	-6.2004	8.3178	0.	126.72
3891	-3.5008	-5.8939	0.	116.39
3892	-3.7137	-5.6054	0.	122.39
3893	-8.8402e-002	7.2206	0.	126.48
3894	-0.38368	7.0098	0.	127.72
3895	0.17094	6.2767	0.	127.41
3896	-9.5227e-003	6.5117	0.	132.18
3897	-0.29244	6.285	0.	129.26
3898	0.4517	6.5165	0.	126.49
3899	-3.6229	-0.26245	0.	115.81
3900	-3.3863	5.6771e-002	0.	121.12
3901	-3.9015	6.568e-003	0.	124.83
3902	-4.8807	-3.2693	0.	127.45
3903	-5.1167	-3.4601	0.	121.52
3904	-4.894	-3.737	0.	123.93
3905	-5.0747	-2.9986	0.	126.61
3906	-4.9216	-2.8043	0.	128.02
3907	-6.0727	-3.8334	0.	120.22
3908	-6.2907	-3.5652	0.	123.13
3909	-6.3293	-4.0583	0.	122.2
3910	-6.5409	-3.7955	0.	124.44
3911	-5.8201	-3.5915	0.	116.67
3912	-5.6042	-3.8874	0.	118.44
3913	-2.1702	-0.78406	0.	131.04
3914	-2.3937	-0.49924	0.	129.33
3915	-2.6523	-2.4021	0.	129.39
3916	-2.3749	-2.6453	0.	128.56
3917	-1.6883	-1.3122	0.	124.23
3918	-1.9366	-1.0501	0.	128.03
3919	-1.4359	-1.0627	0.	124.59
3920	-1.6799	-1.8172	0.	124.01
3921	-1.9244	-2.0788	0.	127.69
3922	-1.4161	-2.0647	0.	124.11
3923	-1.6506	-2.3219	0.	125.62
3924	-1.9517	-1.5635	0.	122.34
3925	5.5141	-8.3148	0.	129.
3926	5.2614	-8.0637	0.	129.59
3927	5.7781	-8.0887	0.	128.11
3928	-0.75157	-8.54	0.	125.93
3929	-1.0415	-8.7509	0.	126.91
3930	-1.1922	-8.4787	0.	126.92
3931	-0.52307	-8.7989	0.	126.54
3932	-0.26897	-8.5638	0.	126.06
3933	0.98438	-8.7582	0.	128.47
3934	0.72685	-8.5107	0.	127.75
3935	1.2299	-8.5131	0.	128.51
3936	2.2312	-8.5469	0.	129.47
3937	1.9848	-8.7799	0.	129.43
3938	1.7323	-8.5273	0.	129.01
3939	2.7247	-8.5693	0.	129.94
3940	2.4812	-8.7982	0.	129.76
3941	2.9752	-8.8147	0.	129.63
3942	3.2145	-8.5824	0.	130.04
3943	3.6537	-8.1048	0.	130.55
3944	3.4505	-8.3603	0.	130.17
3945	6.5919	-1.9472	0.	128.33
3946	6.8678	-2.2162	0.	128.19
3947	4.9932	-2.4399	0.	121.21
3948	4.686	-2.1612	0.	125.83
3949	4.4808	-2.4559	0.	125.84
3950	6.0724	-2.9374	0.	120.13
3951	6.3263	-2.6826	0.	122.7
3952	5.5508	-2.944	0.	118.47
3953	5.2726	-2.6959	0.	118.15
3954	5.3039	-3.2106	0.	119.41
3955	5.7966	-2.6667	0.	116.05
3956	-7.2	6.3933	0.	123.19
3957	-6.8907	6.5699	0.	128.09
3958	-1.6667	-6.9891	0.	125.79
3959	-1.4266	-7.2397	0.	121.04
3960	-1.4559	-6.7496	0.	121.2
3961	-1.9547	-6.7583	0.	129.95
3962	-1.9093	-7.2222	0.	126.91
3963	-2.11	-7.0226	0.	131.9
3964	-1.1911	-7.5165	0.	120.35
3965	2.5856	7.6838	0.	125.62
3966	2.565	8.1561	0.	128.28
3967	2.7429	7.3777	0.	125.91
3968	1.5192	6.7143	0.	120.55
3969	-8.4918	5.741	0.	122.52
3970	-8.7391	5.9907	0.	124.71
3971	-8.2358	5.9875	0.	120.82
3972	-8.4793	6.2413	0.	123.99
3973	-8.4991	5.241	0.	122.37
3974	-8.7468	5.492	0.	124.
3975	-8.7508	4.9934	0.	123.79
3976	-8.5021	4.7423	0.	122.18
3977	-8.5023	3.7465	0.	120.76
3978	-8.7519	3.9968	0.	123.23
3979	-8.5026	4.2444	0.	121.69
3980	-8.5018	3.2478	0.	119.44
3981	-8.7516	3.498	0.	122.67
3982	-8.7512	2.9988	0.	122.17
3983	-8.5015	2.7487	0.	117.35
3984	2.2314	7.2226	0.	131.53
3985	1.7499	6.9797	0.	128.61
3986	5.753	-8.5585	0.	128.5
3987	5.2395	-8.5457	0.	126.81
3988	5.4967	-8.7934	0.	127.68
3989	6.258	-8.5615	0.	127.53
3990	6.0041	-8.8009	0.	127.76
3991	6.017	-8.3323	0.	127.6
3992	6.7577	-8.55	0.	126.71
3993	6.5064	-8.7972	0.	127.23
3994	7.2552	-8.5319	0.	126.21
3995	7.0058	-8.7832	0.	126.68
3996	7.0051	-8.2998	0.	125.92
3997	7.7525	-8.5174	0.	125.93
3998	7.5037	-8.7693	0.	126.29
3999	7.5006	-8.2774	0.	125.69
4000	8.2507	-8.5084	0.	125.76
4001	8.0018	-8.7598	0.	126.02
4002	-8.5238	-7.7847	0.	127.75
4003	-8.5207	-8.2794	0.	128.75
4004	-8.7689	-8.0262	0.	128.23
4005	-8.5224	-7.2875	0.	127.08
4006	-8.7697	-7.5291	0.	127.42
4007	-8.5157	-6.7883	0.	127.13
4008	-8.7661	-7.0297	0.	127.13
4009	-8.5045	-6.2874	0.	127.81
4010	-8.7586	-6.5292	0.	127.49
4011	-8.4896	-5.7833	0.	128.64
4012	-8.7476	-6.0268	0.	128.21
4013	-8.4706	-5.2728	0.	129.21
4014	-8.7336	-5.5208	0.	128.88
4015	-8.4439	-4.749	0.	129.38
4016	-8.7145	-5.0071	0.	129.24
4017	-8.4025	-4.1973	0.	129.15
4018	-8.6897	-4.4829	0.	129.25
4019	-8.466	-3.6704	0.	128.48
4020	-8.6642	-3.9417	0.	128.89
4021	-8.5599	-3.192	0.	127.37
4022	-8.7826	-3.4502	0.	128.16
4023	-8.56	-2.7115	0.	125.75
4024	-8.7995	-2.9638	0.	127.07
4025	-8.5415	-2.2224	0.	123.66
4026	-8.7933	-2.4724	0.	125.6
4027	-8.511	-1.7314	0.	121.55
4028	-8.7726	-1.9793	0.	123.97
4029	-8.4887	-1.2396	0.	119.92
4030	-8.7475	-1.4867	0.	122.75
4031	-8.7384	-0.9932	0.	122.4
4032	-8.4861	-0.74547	0.	118.32
4033	-4.6985	-8.6806	0.	130.34
4034	-4.4453	-8.9019	0.	132.15
4035	-4.4223	-8.4794	0.	133.82
4036	-4.194	-8.6881	0.	130.84
4037	-4.9379	-8.8899	0.	124.96
4038	-5.1738	-8.8184	0.	121.91
4039	-5.7412	-8.5254	0.	113.63
4040	-5.434	-8.7281	0.	115.95
4041	-5.5418	-8.2563	0.	111.84
4042	-6.2668	-8.5685	0.	121.21
4043	-5.984	-8.7893	0.	116.76
4044	-6.0493	-8.3437	0.	111.64
4045	-6.7791	-8.5752	0.	130.11
4046	-6.5101	-8.8103	0.	126.11
4047	-6.5528	-8.3532	0.	135.25
4048	-7.2807	-8.5637	0.	131.87
4049	-7.0206	-8.8076	0.	131.14
4050	-7.7769	-8.5478	0.	130.38
4051	-7.5221	-8.7962	0.	130.76
4052	-8.2713	-8.533	0.	129.57
4053	-8.0194	-8.7834	0.	130.11
4054	-8.7651	-8.521	0.	129.11
4055	-8.5151	-8.7723	0.	129.58
4056	8.4823	7.7505	0.	125.4
4057	8.4849	8.2494	0.	125.36
4058	8.7362	7.9997	0.	125.1
4059	8.2277	8.0009	0.	125.7
4060	8.4833	7.2517	0.	125.47
4061	8.7356	7.5008	0.	125.12
4062	8.2272	7.5025	0.	125.76
4063	8.4869	6.752	0.	125.62
4064	8.7375	7.0016	0.	125.21
4065	8.741	6.5015	0.	125.42
4066	8.4911	6.2514	0.	125.89
4067	8.4968	5.2483	0.	126.71
4068	8.7466	5.4997	0.	126.23
4069	8.4946	5.7502	0.	126.27
4070	8.498	4.7456	0.	127.12
4071	8.7477	4.9976	0.	126.72
4072	8.4989	4.2429	0.	127.42
4073	8.7486	4.4952	0.	127.17
4074	8.2483	4.4925	0.	127.52
4075	8.4998	3.7405	0.	127.57
4076	8.7493	3.9932	0.	127.48
4077	8.2491	3.9895	0.	127.6
4078	8.5016	3.2383	0.	127.65
4079	8.7504	3.4913	0.	127.66
4080	8.5041	2.7359	0.	127.77
4081	8.7523	2.9897	0.	127.8
4082	8.5067	2.2328	0.	128.
4083	8.7544	2.4873	0.	127.95
4084	8.2561	2.4805	0.	127.64
4085	8.5083	1.7292	0.	128.27
4086	8.7562	1.9842	0.	128.12
4087	8.2597	1.9768	0.	128.06
4088	8.5076	1.2261	0.	128.34
4089	8.7565	1.4814	0.	128.2
4090	8.5038	0.72446	0.	127.9
4091	8.7549	0.97952	0.	127.96
4092	8.2595	0.96945	0.	128.78
4093	8.4962	0.22489	0.	126.94
4094	8.7504	0.47908	0.	127.22
4095	8.252	0.46776	0.	128.07
4096	8.4875	-0.27206	0.	125.99
4097	8.743	-1.9655e-002	0.	126.27
4098	8.4805	-0.76688	0.	125.73
4099	8.7367	-0.51605	0.	125.64
4100	8.4726	-1.261	0.	126.23
4101	8.731	-1.0117	0.	125.79
4102	8.4625	-1.7543	0.	126.94
4103	8.7231	-1.5071	0.	126.37
4104	8.212	-1.5101	0.	126.98
4105	8.4528	-2.2474	0.	127.41
4106	8.7147	-2.0012	0.	126.96
4107	8.1976	-2.0004	0.	127.66
4108	8.4451	-2.7428	0.	127.48
4109	8.7071	-2.4965	0.	127.25
4110	8.1865	-2.4922	0.	127.84
4111	8.4414	-3.2408	0.	127.27
4112	8.7022	-2.9937	0.	127.24
4113	8.18	-2.9881	0.	127.55
4114	8.4415	-3.7407	0.	126.93
4115	8.701	-3.4927	0.	127.04
4116	8.444	-4.242	0.	126.61
4117	8.702	-3.9928	0.	126.78
4118	8.1823	-3.9888	0.	126.66
4119	8.4485	-4.7447	0.	126.33
4120	8.705	-4.4939	0.	126.51
4121	8.187	-4.4917	0.	126.35
4122	8.4538	-5.2489	0.	126.07
4123	8.7092	-4.9967	0.	126.26
4124	8.4591	-5.7529	0.	125.81
4125	8.7138	-5.5	0.	126.
4126	8.1979	-5.5043	0.	125.89
4127	8.4654	-6.256	0.	125.55
4128	8.7184	-6.0029	0.	125.73
4129	8.4732	-6.7576	0.	125.34
4130	8.7244	-6.5047	0.	125.49
4131	8.211	-6.5129	0.	125.34
4132	8.4828	-7.2577	0.	125.27
4133	8.7313	-7.0054	0.	125.33
4134	8.4921	-7.757	0.	125.35
4135	8.7399	-7.5051	0.	125.31
4136	8.2356	-7.5127	0.	125.18
4137	8.498	-8.2559	0.	125.56
4138	8.7464	-8.0045	0.	125.42
4139	8.7497	-8.5037	0.	125.62
4140	8.5006	-8.7545	0.	125.82
4141	6.9899	8.7643	0.	126.74
4142	7.2284	8.5109	0.	126.73
4143	6.7472	8.5317	0.	127.4
4144	8.2345	8.4996	0.	125.59
4145	7.9866	8.7503	0.	125.73
4146	7.7297	8.5028	0.	126.17
4147	7.9773	8.2512	0.	125.93
4148	8.4899	8.7491	0.	125.32
4149	8.7395	8.4991	0.	125.11
4150	6.3899	7.7898	0.	128.05
4151	6.0774	7.9869	0.	125.41
4152	6.434	8.3053	0.	126.94
4153	6.2092	8.29	0.	126.39
4154	4.2146	6.5386	0.	131.31
4155	4.0556	6.8184	0.	140.1
4156	2.2829	7.6408	0.	124.68
4157	-1.7781	-8.2082	0.	129.76
4158	-1.6766	-8.676	0.	129.24
4159	-1.9346	-8.4853	0.	129.11
4160	-1.5779	-8.4431	0.	128.92
4161	-1.8581	-7.716	0.	126.52
4162	-1.5915	-7.97	0.	126.6
4163	-1.9865	-8.0343	0.	131.16
4164	-1.6691	-7.4727	0.	122.25
4165	-1.4025	-7.7267	0.	122.06
4166	-7.7016	6.4698	0.	117.09
4167	-7.9704	6.2442	0.	116.9
4168	-8.2139	6.4979	0.	120.05
4169	5.2278	-2.2039	0.	119.9
4170	5.5185	-2.4186	0.	115.6
4171	6.3129	-2.1731	0.	125.92
4172	6.0505	-2.4119	0.	118.61
4173	6.5888	-2.4421	0.	125.75
4174	4.7193	-8.5363	0.	118.17
4175	4.9837	-8.7827	0.	123.26
4176	4.9868	-8.2946	0.	127.48
4177	4.2044	-8.5456	0.	116.64
4178	3.9639	-8.7975	0.	121.31
4179	3.9079	-8.3151	0.	126.35
4180	3.7048	-8.5705	0.	125.89
4181	4.4691	-8.7809	0.	115.06
4182	-2.1962	-1.8251	0.	125.91
4183	-2.4325	-2.1061	0.	131.08
4184	-2.1552	-2.3493	0.	130.39
4185	-2.2	-1.3014	0.	126.02
4186	-6.0381	-3.3233	0.	119.58
4187	-6.2712	-3.0736	0.	127.2
4188	-6.5059	-3.3181	0.	126.55
4189	-5.5733	-3.3763	0.	116.15
4190	9.1124e-002	6.9754	0.	130.47
4191	0.27124	6.7515	0.	131.02
4192	-0.20415	6.7646	0.	131.87
4193	-4.0923	-6.3461	0.	134.64
4194	-3.7906	-6.1241	0.	123.1
4195	-4.2811	-6.0819	0.	132.76
4196	-4.0035	-5.8356	0.	129.11
4197	0.49883	-6.2386	0.	133.4
4198	0.25792	-6.4715	0.	131.01
4199	0.22356	-4.5061	0.	132.32
4200	0.47714	-4.7551	0.	134.79
4201	0.71264	-4.5072	0.	134.23
4202	0.45717	-4.2579	0.	133.58
4203	-2.4691	-4.9042	0.	130.9
4204	-2.2339	-4.6159	0.	130.1
4205	6.7848	0.42651	0.	132.21
4206	7.0067	0.1772	0.	131.41
4207	7.0276	0.68409	0.	134.05
4208	4.4272	0.20827	0.	133.74
4209	4.2449	-7.1099e-002	0.	130.38
4210	3.9771	0.14261	0.	133.76
4211	4.1791	0.42033	0.	135.
4212	4.7648	4.5011	0.	123.12
4213	4.5166	4.7499	0.	127.55
4214	4.2746	4.4991	0.	127.94
4215	6.451	7.2609	0.	130.71
4216	6.1774	7.4788	0.	121.16
4217	-9.0013	3.7483	0.	125.13
4218	-9.001	3.2489	0.	125.4
4219	-9.2508	3.499	0.	127.95
4220	-9.0014	4.2473	0.	125.15
4221	-9.251	3.9985	0.	127.3
4222	-9.0008	4.7461	0.	125.22
4223	-9.2509	4.4977	0.	126.94
4224	-8.752	4.495	0.	123.61
4225	-8.9985	5.2444	0.	125.41
4226	-9.2501	4.9967	0.	126.8
4227	-8.9941	5.7417	0.	126.19
4228	-9.2477	5.4949	0.	126.97
4229	-8.9898	6.2355	0.	128.28
4230	-9.244	5.9918	0.	127.73
4231	-8.9923	6.7185	0.	130.31
4232	-9.2422	6.4842	0.	129.29
4233	-8.7299	6.4861	0.	127.53
4234	-9.0073	7.1837	0.	130.44
4235	-8.7377	6.9657	0.	131.63
4236	-9.2479	6.9664	0.	129.66
4237	-8.9421	7.6375	0.	132.57
4238	-8.7951	7.4144	0.	131.22
4239	-9.2553	7.4389	0.	128.34
4240	-8.875	8.1555	0.	134.62
4241	-8.719	7.6406	0.	133.75
4242	-9.1563	7.9115	0.	129.44
4243	-8.7282	9.0342	0.	129.87
4244	-8.927	8.7226	0.	134.09
4245	-9.2235	8.9914	0.	130.98
4246	-8.9821	9.2515	0.	130.07
4247	-8.2456	9.0843	0.	120.69
4248	-8.4674	8.8606	0.	129.48
4249	-8.4926	9.3007	0.	124.74
4250	-7.7653	9.0961	0.	117.09
4251	-8.0058	8.8798	0.	112.01
4252	-8.0045	9.3218	0.	117.95
4253	-7.2854	9.0863	0.	123.94
4254	-7.5396	8.8697	0.	115.7
4255	-7.5183	9.32	0.	120.3
4256	-6.8024	9.068	0.	130.3
4257	-7.0694	8.8498	0.	132.94
4258	-7.0314	9.3086	0.	127.08
4259	-6.3138	9.0439	0.	130.27
4260	-6.5416	9.2927	0.	129.64
4261	-6.5927	8.8256	0.	134.45
4262	-5.8187	9.0155	0.	127.28
4263	-6.0475	9.2725	0.	127.91
4264	-5.3178	8.9898	0.	125.52
4265	-5.5491	9.251	0.	126.26
4266	-5.6035	8.7496	0.	125.47
4267	-4.8121	8.9782	0.	124.97
4268	-5.0475	9.2353	0.	125.6
4269	-4.3037	8.9804	0.	124.89
4270	-4.5429	9.2335	0.	125.4
4271	-3.7951	8.9863	0.	124.96
4272	-4.037	9.2372	0.	125.38
4273	-3.2873	8.992	0.	125.04
4274	-3.5315	9.2413	0.	125.42
4275	-2.7817	8.9968	0.	125.1
4276	-3.0263	9.2456	0.	125.47
4277	-2.5234	9.249	0.	125.55
4278	-2.2794	9.0005	0.	125.19
4279	-1.2818	9.0123	0.	125.94
4280	-1.5234	9.2554	0.	125.97
4281	-1.5353	8.7555	0.	125.09
4282	-1.7796	9.0043	0.	125.4
4283	-0.78517	9.0285	0.	127.08
4284	-1.026	9.264	0.	126.55
4285	-0.28867	9.046	0.	128.76
4286	-0.52859	9.2788	0.	127.51
4287	-0.54286	8.8054	0.	127.52
4288	0.19957	9.0566	0.	128.93
4289	-3.1523e-002	9.2893	0.	128.48
4290	0.68566	9.0185	0.	122.09
4291	0.46856	8.8225	0.	132.19
4292	0.45795	9.2913	0.	126.71
4293	1.2031	9.0155	0.	118.86
4294	1.0398	8.7895	0.	112.17
4295	0.71459	8.7807	0.	126.06
4296	0.95363	9.2395	0.	119.51
4297	1.7281	9.0342	0.	125.38
4298	1.4787	9.2839	0.	123.05
4299	2.2346	8.9791	0.	129.16
4300	1.9877	9.2579	0.	127.48
4301	1.9585	8.7804	0.	130.16
4302	2.7664	8.9273	0.	129.45
4303	2.4957	9.2093	0.	128.81
4304	2.4485	8.6547	0.	130.16
4305	3.2974	8.9757	0.	129.12
4306	3.0283	9.1899	0.	128.44
4307	3.2742	8.7711	0.	129.43
4308	3.7962	9.0167	0.	129.02
4309	3.5338	9.2709	0.	128.28
4310	3.5263	8.8362	0.	129.52
4311	4.299	8.9552	0.	125.78
4312	4.0353	9.2406	0.	127.53
4313	4.81	8.8709	0.	118.47
4314	4.543	9.1863	0.	122.98
4315	4.5646	8.66	0.	124.67
4316	5.3084	8.8705	0.	117.98
4317	5.0467	9.1169	0.	117.91
4318	5.7925	8.9539	0.	124.47
4319	5.5912	8.6555	0.	125.92
4320	5.5355	9.1862	0.	121.97
4321	6.2739	9.0041	0.	126.98
4322	6.0227	9.2401	0.	125.84
4323	6.0492	8.7536	0.	126.99
4324	6.7577	9.015	0.	126.6
4325	6.5109	9.2614	0.	125.99
4326	6.515	8.7824	0.	127.27
4327	7.2467	9.0081	0.	126.25
4328	7.0014	9.2591	0.	126.01
4329	7.7422	9.0022	0.	125.81
4330	7.4959	9.2534	0.	125.78
4331	7.4853	8.7547	0.	126.24
4332	8.242	8.9997	0.	125.46
4333	7.9943	9.2505	0.	125.55
4334	8.7438	8.9991	0.	125.14
4335	8.4948	9.2494	0.	125.32
4336	8.9934	8.7492	0.	124.93
4337	8.9963	9.2493	0.	125.07
4338	9.2462	8.9993	0.	124.82
4339	8.9908	8.2494	0.	124.85
4340	9.244	8.4994	0.	124.64
4341	8.9894	7.75	0.	124.82
4342	9.2423	7.9997	0.	124.51
4343	8.9898	7.2508	0.	124.86
4344	9.242	7.5003	0.	124.45
4345	8.9915	6.7511	0.	125.01
4346	9.2428	7.0008	0.	124.51
4347	8.994	6.2509	0.	125.3
4348	9.2446	6.5009	0.	124.75
4349	8.9961	5.7503	0.	125.73
4350	9.2463	6.0006	0.	125.15
4351	8.7441	6.0008	0.	125.77
4352	8.9975	5.249	0.	126.24
4353	9.2477	5.5	0.	125.7
4354	8.9983	4.7472	0.	126.77
4355	9.2483	4.9986	0.	126.32
4356	8.999	4.2456	0.	127.22
4357	9.2489	4.4972	0.	126.93
4358	8.9999	3.7441	0.	127.57
4359	9.2495	3.9961	0.	127.45
4360	9.0011	3.2427	0.	127.81
4361	9.2503	3.4951	0.	127.84
4362	9.0026	2.741	0.	127.97
4363	9.2513	2.994	0.	128.09
4364	9.0039	2.2386	0.	128.07
4365	9.2524	2.4924	0.	128.21
4366	9.0044	1.7364	0.	128.05
4367	9.2531	1.9905	0.	128.17
4368	9.0038	1.2348	0.	127.81
4369	9.2531	1.4891	0.	127.94
4370	9.0015	0.73414	0.	127.28
4371	9.2522	0.98827	0.	127.43
4372	8.9972	0.23454	0.	126.54
4373	9.2497	0.48812	0.	126.7
4374	8.9922	-0.26365	0.	125.91
4375	9.2459	-1.1133e-002	0.	125.95
4376	8.9872	-0.76092	0.	125.7
4377	9.2423	-0.50944	0.	125.5
4378	8.9815	-1.2578	0.	125.93
4379	9.2384	-1.0073	0.	125.5
4380	8.9753	-1.754	0.	126.39
4381	9.2339	-1.5049	0.	125.87
4382	8.969	-2.2503	0.	126.8
4383	9.2292	-2.0017	0.	126.35
4384	8.9641	-2.7475	0.	127.01
4385	9.2245	-2.4994	0.	126.74
4386	8.9618	-3.2456	0.	127.02
4387	9.2221	-2.9973	0.	126.94
4388	8.9615	-3.7447	0.	126.89
4389	9.221	-3.4963	0.	126.96
4390	8.963	-4.2447	0.	126.68
4391	9.2215	-3.9958	0.	126.85
4392	8.9658	-4.7459	0.	126.44
4393	9.2231	-4.4963	0.	126.65
4394	8.9693	-5.2479	0.	126.19
4395	9.2256	-4.9974	0.	126.4
4396	8.973	-5.75	0.	125.92
4397	9.2283	-5.499	0.	126.11
4398	8.9774	-6.2516	0.	125.67
4399	9.2312	-6.0004	0.	125.82
4400	8.9825	-6.7526	0.	125.47
4401	9.2349	-6.5013	0.	125.56
4402	8.9885	-7.2529	0.	125.37
4403	9.239	-7.0018	0.	125.39
4404	8.9942	-7.7527	0.	125.38
4405	9.2437	-7.5018	0.	125.32
4406	8.9981	-8.2523	0.	125.48
4407	9.2475	-8.0016	0.	125.36
4408	9.	-8.7518	0.	125.63
4409	9.2495	-8.5014	0.	125.47
4410	8.7508	-9.0026	0.	125.83
4411	9.0005	-9.2512	0.	125.76
4412	9.2503	-9.001	0.	125.6
4413	8.2517	-9.0059	0.	126.08
4414	8.501	-9.2529	0.	126.03
4415	7.753	-9.0118	0.	126.39
4416	8.002	-9.2562	0.	126.35
4417	7.2543	-9.0206	0.	126.77
4418	7.5031	-9.2617	0.	126.72
4419	6.7545	-9.0305	0.	127.2
4420	7.0037	-9.2691	0.	127.1
4421	6.2524	-9.0365	0.	127.46
4422	6.5029	-9.2758	0.	127.37
4423	5.7477	-9.0357	0.	126.94
4424	6.0002	-9.2779	0.	127.13
4425	5.2409	-9.0303	0.	124.08
4426	5.4957	-9.2749	0.	125.63
4427	4.7335	-9.0272	0.	120.11
4428	4.9905	-9.2705	0.	121.92
4429	4.2286	-9.0328	0.	119.58
4430	4.4859	-9.2711	0.	119.28
4431	3.984	-9.2786	0.	121.23
4432	3.7275	-9.0439	0.	123.66
4433	2.7317	-9.0435	0.	129.45
4434	2.9853	-9.2859	0.	128.57
4435	3.229	-9.0492	0.	127.84
4436	2.2348	-9.0312	0.	129.72
4437	2.487	-9.2787	0.	129.59
4438	1.7376	-9.0189	0.	129.47
4439	1.9896	-9.2683	0.	129.72
4440	1.2396	-9.0114	0.	129.01
4441	1.4915	-9.2606	0.	129.43
4442	1.4851	-8.7663	0.	129.05
4443	0.74038	-9.0128	0.	128.4
4444	0.99312	-9.2576	0.	128.94
4445	0.23664	-9.0249	0.	127.8
4446	0.4919	-9.2626	0.	128.37
4447	0.48285	-8.7653	0.	127.68
4448	-0.27378	-9.0335	0.	127.42
4449	-1.6004e-002	-9.2733	0.	127.91
4450	-1.9684e-002	-8.7984	0.	126.94
4451	-0.81302	-9.0098	0.	127.52
4452	-0.53135	-9.271	0.	127.74
4453	-1.3449	-8.9467	0.	128.05
4454	-1.0705	-9.2376	0.	127.9
4455	-1.8414	-8.9402	0.	127.31
4456	-1.571	-9.1882	0.	127.86
4457	-1.4956	-8.6745	0.	128.04
4458	-2.0995	-8.7496	0.	127.2
4459	-2.064	-9.2284	0.	125.63
4460	-2.3165	-8.9688	0.	123.86
4461	-3.2413	-9.0413	0.	115.62
4462	-3.0127	-8.7578	0.	115.9
4463	-3.0044	-9.2595	0.	116.91
4464	-2.7769	-8.9866	0.	118.85
4465	-3.7157	-9.092	0.	118.93
4466	-3.4728	-8.8447	0.	113.86
4467	-3.4794	-9.3048	0.	116.21
4468	-4.2032	-9.1129	0.	125.52
4469	-3.9519	-8.899	0.	124.65
4470	-3.9681	-9.3307	0.	121.96
4471	-4.6847	-9.1112	0.	126.76
4472	-4.4611	-9.3353	0.	126.31
4473	-5.1571	-9.0351	0.	122.25
4474	-4.9457	-9.3233	0.	124.41
4475	-5.6769	-8.992	0.	118.85
4476	-5.4299	-9.2316	0.	120.19
4477	-6.2274	-9.0311	0.	121.67
4478	-5.9683	-9.263	0.	119.97
4479	-6.7516	-9.0428	0.	127.08
4480	-6.4922	-9.2793	0.	124.59
4481	-7.2619	-9.0401	0.	130.02
4482	-7.0049	-9.2818	0.	128.67
4483	-7.7645	-9.0318	0.	130.49
4484	-7.5099	-9.2771	0.	130.22
4485	-8.0105	-9.2703	0.	130.33
4486	-8.2632	-9.0227	0.	130.12
4487	-9.0133	-8.2677	0.	128.6
4488	-9.2591	-8.5115	0.	128.9
4489	-9.0102	-8.7634	0.	129.27
4490	-9.0147	-7.7705	0.	127.91
4491	-9.2609	-8.0143	0.	128.18
4492	-9.0134	-7.2712	0.	127.47
4493	-9.2609	-7.5153	0.	127.59
4494	-9.009	-6.7706	0.	127.48
4495	-9.2588	-7.0151	0.	127.37
4496	-9.0017	-6.2686	0.	127.89
4497	-9.2543	-6.5141	0.	127.6
4498	-8.9916	-5.7643	0.	128.45
4499	-9.2477	-6.0117	0.	128.11
4500	-8.9775	-5.2551	0.	128.9
4501	-9.2386	-5.5072	0.	128.65
4502	-8.9602	-4.7409	0.	129.1
4503	-9.2263	-4.9981	0.	129.02
4504	-8.9514	-4.2273	0.	128.98
4505	-9.2145	-4.4881	0.	129.11
4506	-8.9809	-3.7215	0.	128.56
4507	-9.2165	-3.9813	0.	128.91
4508	-9.0222	-3.2221	0.	127.86
4509	-9.2559	-3.4808	0.	128.48
4510	-9.0328	-2.7247	0.	126.92
4511	-9.2738	-2.9806	0.	127.86
4512	-9.0244	-2.2293	0.	125.91
4513	-9.2729	-2.4828	0.	127.24
4514	-9.0091	-1.7346	0.	125.17
4515	-9.2628	-1.986	0.	126.9
4516	-8.9972	-1.2403	0.	125.23
4517	-9.2513	-1.4902	0.	127.18
4518	-8.9941	-0.74514	0.	126.91
4519	-9.2458	-0.99441	0.	128.6
4520	-9.0007	2.7494	0.	126.81
4521	-9.2506	2.9994	0.	129.25
4522	-6.5183	2.2582	0.	131.16
4523	-6.7639	2.503	0.	127.65
4524	-6.4986	-0.16607	0.	133.83
4525	-6.7251	-0.42803	0.	136.76
4526	-6.4353	-0.61863	0.	137.74
4527	-6.2537	-0.36768	0.	129.02
4528	-6.4869	-5.9882	0.	132.51
4529	-6.2065	-5.8015	0.	120.01
4530	-6.4452	-5.5128	0.	127.94
4531	-6.3353	-8.1284	0.	125.53
4532	-6.601	-7.9008	0.	135.58
4533	5.1345	-6.5653	0.	129.24
4534	5.349	-6.8234	0.	128.97
4535	3.4558	-6.8502	0.	130.34
4536	3.6692	-6.5825	0.	130.55
4537	3.4238	-6.3333	0.	134.41
4538	-3.851	-2.5054	0.	123.29
4539	-4.1208	-2.3145	0.	139.12
4540	-3.8775	-0.51416	0.	126.72
4541	-4.195	-0.7562	0.	144.5
4542	-4.1562	-0.24514	0.	135.81
4543	-4.4154	-0.47693	0.	138.33
4544	-4.7979	-2.33	0.	134.79
4545	-4.3937	-2.0905	0.	140.44
4546	-4.4656	-1.8457	0.	134.71
4547	-5.1241	-2.7608	0.	125.44
4548	-5.3107	-3.1894	0.	120.72
4549	-6.3202	-2.5982	0.	127.33
4550	-6.5039	-2.8495	0.	129.59
4551	-6.5224	-2.1555	0.	129.88
4552	-6.5708	-2.3974	0.	126.05
4553	-6.7595	-1.6836	0.	127.83
4554	-6.8836	-1.1782	0.	129.31
4555	-6.7215	-2.186	0.	131.64
4556	-5.5371	-0.82844	0.	110.83
4557	-6.1062	-0.80872	0.	124.51
4558	-5.9246	-0.55778	0.	116.17
4559	-4.9907	-0.91395	0.	125.54
4560	-5.2078	-0.643	0.	116.55
4561	-3.3712	-0.68454	0.	112.76
4562	-3.3496	-0.46562	0.	113.8
4563	-2.9142	-0.91178	0.	124.5
4564	-3.1252	-0.61872	0.	117.34
4565	-2.922	-2.2137	0.	124.08
4566	-3.3909	-2.3863	0.	110.28
4567	-4.2344	-1.8428	0.	132.53
4568	-4.2684	-1.3068	0.	136.07
4569	-4.4792	-0.98207	0.	142.11
4570	4.2325	7.8319	0.	134.48
4571	4.4666	8.2043	0.	136.03
4572	3.9523	7.4822	0.	126.12
4573	3.7552	-7.8397	0.	135.1
4574	3.5626	-7.3575	0.	130.37
4575	4.1525	-6.5714	0.	110.72
4576	4.6457	-6.5659	0.	110.26
4577	4.3974	-6.3128	0.	106.32
4578	5.239	-7.3247	0.	129.36
4579	5.0746	-7.8109	0.	134.32
4580	-6.5796	-6.954	0.	131.51
4581	-6.6122	-7.4362	0.	131.61
4582	-6.5341	-6.4674	0.	130.85
4583	-5.8499	-8.0746	0.	109.17
4584	-5.3834	-7.9243	0.	111.4
4585	-4.9195	-7.7641	0.	124.52
4586	-4.4799	-7.7868	0.	139.
4587	-4.452	-7.5929	0.	136.7
4588	-5.69	-5.9477	0.	111.64
4589	-5.2377	-6.2386	0.	118.84
4590	-4.8398	-6.5406	0.	127.17
4591	-6.5219	0.30301	0.	133.3
4592	-6.5247	0.78329	0.	135.08
4593	-6.2883	0.55398	0.	130.22
4594	-6.5225	1.2713	0.	134.32
4595	-6.5199	1.7637	0.	132.21
4596	-7.2232	-0.47542	0.	128.87
4597	-6.9464	-0.69599	0.	137.84
4598	-8.7418	-0.49741	0.	122.81
4599	-9.2464	-0.49761	0.	132.33
4600	-8.2353	-0.49813	0.	117.68
4601	-7.7283	-0.49541	0.	119.27
4602	-8.751	2.4993	0.	121.97
4603	-9.2504	2.4997	0.	132.56
4604	-8.252	2.4989	0.	115.58
4605	-7.2574	2.4994	0.	119.33
4606	-7.7538	2.4986	0.	114.84
4607	6.4989	5.2456	0.	131.33
4608	6.4998	4.7406	0.	129.37
4609	6.4972	5.7486	0.	134.65
4610	6.7476	5.4973	0.	131.27
4611	6.4934	6.2509	0.	136.22
4612	6.4828	6.7538	0.	133.8
4613	6.7379	6.5033	0.	133.12
4614	5.7541	4.4933	0.	113.9
4615	6.2514	4.4893	0.	124.64
4616	5.2583	4.498	0.	112.98
4617	5.0114	4.2518	0.	118.33
4618	4.8823	0.26613	0.	120.4
4619	6.3057	0.40359	0.	118.26
4620	5.8269	0.36389	0.	110.72
4621	5.3506	0.31651	0.	111.46
4622	6.7314	-0.81835	0.	133.15
4623	6.9374	-0.34252	0.	130.44
4624	6.9443	-0.83615	0.	132.22
4625	6.3722	-1.6932	0.	126.07
4626	6.5069	-1.2474	0.	127.1
4627	6.7899	-1.0473	0.	129.4
4628	4.8671	-1.4042	0.	122.57
4629	4.8259	-1.7347	0.	123.41
4630	5.1068	-1.7786	0.	120.98
4631	4.3825	-0.55205	0.	131.54
4632	4.6002	-1.0032	0.	133.08
4633	-2.4892	-5.8832	0.	129.
4634	-2.7546	-6.2316	0.	125.69
4635	-2.5301	-6.4055	0.	128.14
4636	-2.4784	-5.3919	0.	128.8
4637	-2.6931	-5.1872	0.	126.52
4638	-1.7531	-4.5488	0.	123.67
4639	-1.261	-4.5218	0.	120.51
4640	-0.76589	-4.5118	0.	120.97
4641	-0.27039	-4.5076	0.	124.8
4642	-0.52906	-4.2634	0.	121.83
4643	0.48749	-5.2534	0.	133.56
4644	0.4929	-5.7491	0.	133.11
4645	-1.7439	-6.5188	0.	125.36
4646	-2.2901	-6.6078	0.	128.28
4647	-1.2275	-6.5006	0.	120.63
4648	-0.72991	-6.4785	0.	119.65
4649	-0.23475	-6.4613	0.	123.62
4650	1.9625e-002	-6.6876	0.	127.15
4651	-7.0431	7.5208	0.	136.94
4652	-6.8355	7.9321	0.	131.79
4653	-7.2563	7.1127	0.	128.4
4654	-8.2276	8.6561	0.	120.51
4655	-8.6662	8.549	0.	132.76
4656	-7.3236	8.6332	0.	124.71
4657	-6.8597	8.6074	0.	136.7
4658	-7.7801	8.6533	0.	110.1
4659	-8.5255	7.1964	0.	132.46
4660	-8.4754	6.7333	0.	128.91
4661	-9.1653	8.4579	0.	131.11
4662	-4.3407	-8.0725	0.	136.13
4663	-4.2512	-7.6802	0.	138.97
4664	-4.2234	-7.2784	0.	131.98
4665	-4.1827	-6.8336	0.	131.39
4666	-4.3882	-6.6221	0.	133.99
4667	-3.2791	-6.2438	0.	116.88
4668	-2.795	-6.509	0.	124.13
4669	-2.4455	-6.872	0.	130.24
4670	-2.1197	-7.2607	0.	128.52
4671	-3.7091	-8.6517	0.	119.52
4672	-3.2443	-8.5611	0.	114.14
4673	-2.7795	-8.4497	0.	118.46
4674	-2.3266	-8.4593	0.	124.77
4675	-2.5437	-8.6785	0.	121.47
4676	-2.3592	-8.2446	0.	127.35
4677	-2.143	-8.3114	0.	130.7
4678	1.5859	8.2393	0.	129.01
4679	1.935	8.	0.	130.46
4680	1.845	8.3428	0.	134.59
4681	1.2824	8.4709	0.	114.81
4682	0.20064	7.4212	0.	128.89
4683	0.42814	8.3365	0.	132.59
4684	0.30667	7.8644	0.	130.55
4685	0.12853	8.1116	0.	128.36
4686	0.74804	6.7616	0.	116.92
4687	1.2385	6.852	0.	112.59
4688	4.5109	5.2496	0.	128.06
4689	4.5009	5.7528	0.	129.
4690	4.4933	6.2481	0.	128.73
4691	4.5329	6.6995	0.	126.61
4692	5.7162	8.1521	0.	127.4
4693	5.8479	8.4552	0.	128.46
4694	5.8649	7.6759	0.	118.32
4695	8.7507	-9.5014	0.	125.97
4696	9.2503	-9.5006	0.	125.71
4697	8.2513	-9.5031	0.	126.3
4698	7.752	-9.5061	0.	126.68
4699	7.2524	-9.5102	0.	127.05
4700	6.7521	-9.5144	0.	127.27
4701	6.2506	-9.5171	0.	127.03
4702	5.7481	-9.517	0.	125.81
4703	5.2453	-9.5151	0.	123.47
4704	4.743	-9.5143	0.	121.09
4705	4.2414	-9.5168	0.	120.91
4706	3.7406	-9.5211	0.	123.41
4707	3.2403	-9.5231	0.	126.57
4708	3.4841	-9.2864	0.	125.84
4709	2.7406	-9.5211	0.	128.71
4710	2.2418	-9.5158	0.	129.59
4711	1.7435	-9.51	0.	129.68
4712	1.2451	-9.5068	0.	129.37
4713	0.74465	-9.5074	0.	128.91
4714	0.23926	-9.5111	0.	128.48
4715	-0.27357	-9.5108	0.	128.23
4716	-0.78885	-9.4987	0.	128.12
4717	-1.2967	-9.4791	0.	127.71
4718	-1.7936	-9.4764	0.	126.16
4719	-2.2784	-9.4853	0.	123.08
4720	-2.7585	-9.4987	0.	119.38
4721	-2.5309	-9.2257	0.	121.31
4722	-3.2426	-9.523	0.	117.48
4723	-3.7318	-9.5436	0.	119.25
4724	-4.226	-9.5531	0.	122.71
4725	-4.722	-9.5473	0.	123.92
4726	-5.2185	-9.5198	0.	122.37
4727	-5.7213	-9.5026	0.	121.28
4728	-6.2331	-9.5112	0.	122.89
4729	-6.7454	-9.5183	0.	126.18
4730	-7.2528	-9.5188	0.	128.87
4731	-7.7559	-9.5156	0.	130.06
4732	-8.2562	-9.5114	0.	130.24
4733	-8.7551	-9.5074	0.	130.04
4734	-8.5089	-9.2638	0.	130.03
4735	-9.2533	-9.5042	0.	129.93
4736	-9.0063	-9.2583	0.	129.74
4737	-9.5033	-9.2539	0.	129.71
4738	-9.5052	-8.7562	0.	129.16
4739	-9.2563	-9.0081	0.	129.53
4740	-9.5066	-8.2581	0.	128.48
4741	-9.5071	-7.7591	0.	127.86
4742	-9.5063	-7.2593	0.	127.49
4743	-9.504	-6.7587	0.	127.49
4744	-9.5003	-6.2572	0.	127.82
4745	-9.4948	-5.7546	0.	128.31
4746	-9.4874	-5.2501	0.	128.77
4747	-9.4805	-4.7453	0.	129.03
4748	-9.4796	-4.2421	0.	129.04
4749	-9.4916	-3.7405	0.	128.83
4750	-9.5076	-3.2394	0.	128.48
4751	-9.5139	-2.7387	0.	128.18
4752	-9.5113	-2.2395	0.	128.22
4753	-9.5051	-1.7416	0.	128.89
4754	-9.4999	-1.2443	0.	130.55
4755	-9.4981	-0.74688	0.	134.09
4756	-9.4988	-0.24871	0.	136.89
4757	-9.4997	0.25042	0.	138.85
4758	-9.5	0.75013	0.	141.25
4759	-9.5	1.25	0.	141.33
4760	-9.5	1.75	0.	139.23
4761	-9.5001	2.2499	0.	137.58
4762	-9.5003	2.7497	0.	135.07
4763	-9.5005	3.2495	0.	131.81
4764	-9.5006	3.7492	0.	130.11
4765	-9.5006	4.2488	0.	129.09
4766	-9.5003	4.7482	0.	128.52
4767	-9.4992	5.2472	0.	128.35
4768	-9.4975	5.745	0.	128.51
4769	-9.4965	6.2404	0.	128.73
4770	-9.4978	6.732	0.	128.63
4771	-9.4959	7.2216	0.	127.54
4772	-9.4695	7.7129	0.	125.19
4773	-9.4467	8.2139	0.	125.6
4774	-9.4618	8.7268	0.	127.8
4775	-9.4855	9.2403	0.	127.08
4776	-9.2441	9.5004	0.	126.11
4777	-8.7465	9.5181	0.	124.93
4778	-8.2515	9.5383	0.	121.96
4779	-7.7575	9.5457	0.	120.85
4780	-7.2643	9.5423	0.	123.49
4781	-6.7705	9.5334	0.	126.37
4782	-6.2752	9.5214	0.	127.23
4783	-5.7779	9.508	0.	126.88
4784	-5.2789	9.4964	0.	126.35
4785	-4.7783	9.4905	0.	126.03
4786	-3.7734	9.4922	0.	125.84
4787	-4.2762	9.4902	0.	125.89
4788	-3.2705	9.495	0.	125.86
4789	-2.768	9.4979	0.	125.93
4790	-2.2666	9.5002	0.	126.06
4791	-1.7664	9.5028	0.	126.26
4792	-2.0225	9.2517	0.	125.69
4793	-1.2677	9.5071	0.	126.58
4794	-0.76946	9.5143	0.	126.98
4795	-0.27145	9.5222	0.	127.21
4796	0.22686	9.524	0.	126.23
4797	0.72592	9.5122	0.	124.16
4798	1.2292	9.5079	0.	123.44
4799	1.7383	9.5076	0.	125.17
4800	2.2488	9.4881	0.	127.1
4801	2.7576	9.4719	0.	127.77
4802	3.2647	9.4851	0.	127.59
4803	3.7729	9.4947	0.	126.76
4804	4.2793	9.4717	0.	124.76
4805	4.7797	9.4324	0.	122.3
4806	5.2737	9.4326	0.	121.78
4807	5.7658	9.4724	0.	123.37
4808	6.2597	9.4974	0.	124.85
4809	6.7546	9.5055	0.	125.39
4810	7.2506	9.5043	0.	125.53
4811	7.748	9.5017	0.	125.52
4812	8.2471	9.5002	0.	125.41
4813	8.7474	9.4996	0.	125.24
4814	9.2482	9.4995	0.	125.04
4815	9.4981	9.2495	0.	124.8
4816	9.4968	8.7495	0.	124.53
4817	9.4955	8.2497	0.	124.3
4818	9.4949	7.75	0.	124.13
4819	9.4951	7.2503	0.	124.1
4820	9.4959	6.7506	0.	124.25
4821	9.4969	6.2505	0.	124.59
4822	9.4979	5.7502	0.	125.12
4823	9.4986	5.2496	0.	125.78
4824	9.4989	4.7486	0.	126.5
4825	9.4994	4.2478	0.	127.17
4826	9.4999	3.7472	0.	127.72
4827	9.5005	3.2464	0.	128.12
4828	9.5011	2.7454	0.	128.32
4829	9.5016	2.2443	0.	128.31
4830	9.5018	1.7432	0.	128.06
4831	9.5015	1.2425	0.	127.56
4832	9.5005	0.74225	0.	126.86
4833	9.4985	0.24245	0.	126.11
4834	9.4961	-0.25692	0.	125.53
4835	9.4935	-0.75581	0.	125.3
4836	9.4908	-1.2543	0.	125.44
4837	9.4848	-2.2508	0.	126.29
4838	9.4878	-1.7526	0.	125.83
4839	9.4825	-2.7492	0.	126.67
4840	9.4814	-3.248	0.	126.88
4841	9.481	-3.7474	0.	126.93
4842	9.4816	-4.2473	0.	126.83
4843	9.4829	-4.7477	0.	126.61
4844	9.4846	-5.2485	0.	126.32
4845	9.4865	-5.7494	0.	126.01
4846	9.4887	-6.2501	0.	125.71
4847	9.4913	-6.7505	0.	125.48
4848	9.4942	-7.2507	0.	125.33
4849	9.4969	-7.7507	0.	125.29
4850	9.4989	-8.2507	0.	125.34
4851	9.4998	-8.7506	0.	125.44
4852	9.5002	-9.2504	0.	125.54
4853	4.3739	6.9793	0.	134.77
4854	3.9865	7.1792	0.	137.08
4855	5.3809	-5.2833	0.	123.06
4856	5.3687	-4.7646	0.	122.
4857	5.126	-5.0253	0.	121.49
4858	7.4677	8.2567	0.	126.59
4859	7.9985	4.2392	0.	127.69
4860	1.1735	-4.0099	0.	131.5
4861	0.94418	-4.2585	0.	132.41
4862	0.68871	-4.0092	0.	131.75
4863	-1.8395	-3.0965	0.	126.75
4864	-2.1084	-2.8663	0.	128.75
4865	6.7474	3.469	0.	124.17
4866	5.2546	3.4952	0.	118.64
4867	7.6621	-3.982	0.	126.24
4868	7.3983	-3.7253	0.	126.18
4869	7.1418	-3.9755	0.	125.31
4870	2.4564	-2.0038	0.	127.1
4871	7.2354	-6.8108e-002	0.	126.78
4872	7.6821	-5.5117	0.	125.8
4873	1.4278	-4.2614	0.	130.87
4874	1.1984	-4.51	0.	131.79
4875	4.0229	3.7682	0.	126.05
4876	-4.8744	0.54199	0.	123.72
4877	-5.1066	0.79692	0.	123.01
4878	-5.343	0.5618	0.	122.72
4879	7.2505	-8.0452	0.	125.41
4880	4.3679	-4.7755	0.	120.97
4881	4.626	-5.0303	0.	120.44
4882	0.22652	-8.5389	0.	126.83
4883	-3.0444	6.218	0.	124.85
4884	7.1687	-5.5208	0.	125.81
4885	6.6566	-5.5307	0.	125.95
4886	-2.4345	-1.0132	0.	131.68
4887	-4.5941	2.7654	0.	125.35
4888	8.0077	0.71275	0.	128.95
4889	3.1478	-5.0445	0.	126.17
4890	-4.642	0.28316	0.	126.6
4891	-4.4089	0.51988	0.	124.58
4892	4.9206	-1.9252	0.	124.49
4893	-7.0109	4.7171	0.	121.74
4894	-6.7608	4.4763	0.	122.51
4895	-6.6565	-0.88659	0.	138.49
4896	-4.4086	1.5208	0.	123.43
4897	-4.8655	1.5271	0.	123.66
4898	6.2903	8.5318	0.	127.28
4899	4.6104	-4.5125	0.	121.42
4900	-7.0019	-3.7502	0.	127.63
4901	-7.2074	-3.5214	0.	128.68
4902	7.7153	8.005	0.	126.35
4903	7.9726	7.753	0.	126.05
4904	8.2424	6.0009	0.	126.41
4905	5.6153	-4.5007	0.	122.16
4906	5.1113	-4.5065	0.	121.41
4907	7.2549	2.4609	0.	125.31
4908	7.0005	2.7088	0.	124.41
4909	-2.8621	6.498e-002	0.	123.13
4910	-2.618	-0.22391	0.	126.64
4911	3.1744	-6.077	0.	129.88
4912	7.7489	3.9855	0.	127.66
4913	-6.6817	8.3677	0.	128.3
4914	7.9253	-4.2385	0.	126.39
4915	-1.5476	8.2538	0.	124.27
4916	-5.4005	-4.679	0.	118.34
4917	-5.3806	-4.1724	0.	118.7
4918	-6.5952	-4.273	0.	124.16
4919	-6.8664	-4.4796	0.	126.44
4920	-6.8069	-4.0103	0.	126.4
4921	1.4712	-5.7769	0.	129.05
4922	-4.9035	7.9242	0.	123.64
4923	-4.6996	-0.7028	0.	136.6
4924	-6.7637	4.9608	0.	122.81
4925	2.8464	5.4417	0.	129.11
4926	-4.4895	-5.8022	0.	129.54
4927	-4.5769	-6.3578	0.	132.22
4928	-6.6806	-5.2363	0.	126.38
4929	5.0628	-3.474	0.	120.93
4930	-1.7905	8.5025	0.	124.52
4931	5.0098	3.7564	0.	118.8
4932	4.0278	4.2527	0.	127.38
4933	1.3975	-3.7645	0.	130.52
4934	-5.3317	1.5315	0.	124.42
4935	-1.3913	-8.2049	0.	125.64
4936	-3.113	-0.1464	0.	119.38
4937	-3.216	0.33531	0.	121.32
4938	-4.3979	2.1243e-002	0.	128.27
4939	-4.6571	-0.21055	0.	131.13
4940	5.4707	2.1246	0.	118.18
4941	-2.3236e-002	-7.5571	0.	124.63
4942	7.7566	2.4717	0.	126.87
4943	-4.1648	0.25797	0.	126.28
4944	-6.7385	-3.094	0.	128.92
4945	-6.756	-3.5484	0.	127.89
4946	-6.9615	-3.3196	0.	128.94
4947	-1.147	-2.3067	0.	124.2
4948	-1.3814	-2.564	0.	125.73
4949	-2.0348	8.7513	0.	124.83
4950	0.53072	-1.5563	0.	124.86
4951	3.5282	5.7173	0.	130.33
4952	3.3078	5.4612	0.	129.48
4953	-4.2119	-5.556	0.	125.73
4954	-7.4034	6.6705	0.	123.16
4955	-7.4688	6.1906	0.	119.65
4956	-3.959	-3.7445	0.	125.59
4957	7.9313	-2.2451	0.	128.1
4958	7.947	-1.7562	0.	127.7
4959	-7.0941	6.8472	0.	127.98
4960	-6.2367	6.8749	0.	128.45
4961	-6.584	6.7255	0.	129.28
4962	7.6929	-6.5291	0.	125.18
4963	7.4403	-6.7906	0.	124.93
4964	7.1693	-6.5555	0.	125.13
4965	-2.658	-0.72834	0.	130.08
4966	0.36616	-2.7766	0.	126.67
4967	0.59008	-2.5293	0.	126.5
4968	-0.32003	-3.5229	0.	125.28
4969	-0.55323	-3.772	0.	123.54
4970	-2.869	-0.43529	0.	122.91
4971	-6.7545	-2.6487	0.	128.26
4972	-6.9809	-2.4361	0.	127.53
4973	-5.0473	6.7037	0.	125.32
4974	-5.4742	7.9499	0.	123.62
4975	-5.6951	8.2528	0.	124.29
4976	-6.0072	8.0459	0.	124.91
4977	-5.3447	7.659	0.	124.1
4978	-7.4579	-5.3719	0.	129.88
4979	-7.1881	-5.1614	0.	129.3
4980	6.9978	3.217	0.	125.
4981	-0.77638	6.3229	0.	128.04
4982	-0.55559	6.0429	0.	128.33
4983	-0.48707	6.5379	0.	128.96
4984	-7.2574	3.4925	0.	120.02
4985	7.7017	-1.5141	0.	127.83
4986	-5.1015	1.2853	0.	123.47
4987	8.009	2.2245	0.	127.7
4988	1.7124e-002	-7.134	0.	125.38
4989	7.9215	-2.7375	0.	127.91
4990	7.6551	-2.9798	0.	127.53
4991	7.3934	-3.2239	0.	126.92
4992	6.991	-7.8156	0.	125.01
4993	2.6439	-4.528	0.	127.84
4994	2.3894	-4.2724	0.	128.62
4995	2.4128	-4.7823	0.	128.5
4996	2.2623	8.1131	0.	127.41
4997	4.2512	-2.7247	0.	126.05
4998	-0.9802	6.6031	0.	126.64
4999	-5.3574	-3.6722	0.	118.
5000	-1.5755	-3.3177	0.	125.31
5001	-1.6124	-2.8225	0.	126.45
5002	-6.4998	8.1134	0.	123.05
5003	6.8883	-4.2303	0.	124.82
5004	-7.7376	5.9649	0.	119.35
5005	6.0433	-7.8788	0.	125.91
5006	-6.5115	4.2325	0.	123.57
5007	4.8685	-4.7672	0.	120.89
5008	3.4684	-8.8169	0.	128.26
5009	-5.6549	-4.8994	0.	118.14
5010	-5.1347	-3.9491	0.	120.43
5011	2.8949	-4.7873	0.	127.23
5012	-0.69089	6.8181	0.	127.57
5013	2.1724	8.4559	0.	131.11
5014	-6.5136	4.72	0.	123.58
5015	-6.5188	5.1986	0.	124.12
5016	-5.8149	0.56864	0.	124.07
5017	-1.1818	-0.81647	0.	125.13
5018	2.9439	-1.9851	0.	127.48
5019	-2.0759	3.1019	0.	125.7
5020	-5.0322	6.2202	0.	125.84
5021	-4.9167	-0.43185	0.	127.55
5022	1.0695	-2.5273	0.	127.25
5023	-1.8814	-2.5924	0.	128.43
5024	-8.7601	-9.0147	0.	129.74
5025	2.4751	-0.75044	0.	125.04
5026	1.0001	5.8806	0.	120.28
5027	-6.9137	-4.9575	0.	127.84
5028	-2.0114	2.6352	0.	125.61
5029	3.98	-2.4758	0.	127.39
5030	2.6637	-5.0416	0.	127.89
5031	3.0785	5.2059	0.	129.06
5032	-3.4335	3.0093	0.	125.1
5033	-3.6772	2.7648	0.	124.81
5034	-3.2318	2.7565	0.	124.87
5035	-3.4755	2.5121	0.	124.58
5036	1.5475	-2.5248	0.	127.67
5037	1.3274	-2.774	0.	128.19
5038	1.8066	-2.7715	0.	128.29
5039	1.5866	-3.0208	0.	128.81
5040	1.3636	-3.2694	0.	129.47
5041	1.8447	-3.269	0.	129.15
5042	1.6217	-3.5176	0.	129.81
5043	-7.	2.	0.	98.114
5044	-9.	2.	0.	101.52
5045	-7.	0.	0.	101.79
5046	-9.	0.	0.	101.82
5047	-7.5	2.	0.	112.93
5048	-8.	2.	0.	111.49
5049	-8.5	2.	0.	114.75
5050	-7.	1.5	0.	102.72
5051	-7.	1.	0.	102.42
5052	-7.	0.5	0.	104.92
5053	-9.	1.5	0.	106.53
5054	-9.	1.	0.	105.85
5055	-9.	0.5	0.	106.81
5056	-8.5	0.	0.	116.06
5057	-8.	0.	0.	113.96
5058	-7.5	0.	0.	117.03
5059	-8.	1.5	0.	115.07
5060	-7.5	1.5	0.	111.49
5061	-7.5	0.5	0.	113.64
5062	-8.	0.5	0.	116.61
5063	-8.5	0.5	0.	114.28
5064	-8.5	1.5	0.	113.49
5065	-8.5	1.	0.	113.48
5066	-7.5	1.	0.	111.76
5067	-8.	1.	0.	115.86
5068	-7.25	2.	0.	105.47
5069	-7.	1.75	0.	100.41
5070	-8.75	2.	0.	108.08
5071	-9.	1.75	0.	104.02
5072	-7.	0.25	0.	103.33
5073	-7.25	0.	0.	109.26
5074	-9.	0.25	0.	104.31
5075	-8.75	0.	0.	108.88
5076	-7.75	2.	0.	112.21
5077	-7.5	1.75	0.	112.18
5078	-8.25	2.	0.	113.12
5079	-8.	1.75	0.	113.26
5080	-8.5	1.75	0.	114.08
5081	-7.	1.25	0.	102.53
5082	-7.25	1.5	0.	107.1
5083	-7.	0.75	0.	103.64
5084	-7.25	1.	0.	107.09
5085	-7.25	0.5	0.	109.25
5086	-9.	1.25	0.	106.17
5087	-8.75	1.5	0.	110.
5088	-9.	0.75	0.	106.31
5089	-8.75	1.	0.	109.67
5090	-8.75	0.5	0.	110.53
5091	-8.25	0.	0.	115.01
5092	-8.5	0.25	0.	115.13
5093	-7.75	0.	0.	115.5
5094	-8.	0.25	0.	115.27
5095	-7.5	0.25	0.	115.3
5096	-7.75	1.5	0.	113.28
5097	-8.25	1.5	0.	114.28
5098	-8.	1.25	0.	115.46
5099	-7.5	1.25	0.	111.61
5100	-7.75	0.5	0.	115.1
5101	-7.5	0.75	0.	112.69
5102	-8.25	0.5	0.	115.43
5103	-8.	0.75	0.	116.23
5104	-8.5	0.75	0.	113.88
5105	-8.5	1.25	0.	113.48
5106	-8.25	1.	0.	114.67
5107	-7.75	1.	0.	113.81
5108	6.	7.	0.	108.04
5109	5.	7.	0.	75.897
5110	6.	5.	0.	94.196
5111	5.	5.	0.	93.049
5112	5.5	7.	0.	113.28
5113	6.	6.5	0.	105.64
5114	6.	6.	0.	99.257
5115	6.	5.5	0.	99.047
5116	5.	6.5	0.	88.549
5117	5.	6.	0.	92.947
5118	5.	5.5	0.	95.932
5119	5.5	5.	0.	107.06
5120	5.5	6.5	0.	101.83
5121	5.5	6.	0.	99.164
5122	5.5	5.5	0.	101.49
5123	5.75	7.	0.	109.52
5124	6.	6.75	0.	106.7
5125	5.25	7.	0.	94.385
5126	5.	6.75	0.	82.146
5127	6.	5.25	0.	96.616
5128	5.75	5.	0.	100.57
5129	5.	5.25	0.	94.488
5130	5.25	5.	0.	99.998
5131	5.5	6.75	0.	107.48
5132	6.	6.25	0.	102.42
5133	5.75	6.5	0.	103.57
5134	6.	5.75	0.	99.122
5135	5.75	6.	0.	99.208
5136	5.75	5.5	0.	100.23
5137	5.	6.25	0.	90.657
5138	5.25	6.5	0.	95.157
5139	5.	5.75	0.	94.398
5140	5.25	6.	0.	96.035
5141	5.25	5.5	0.	98.636
5142	5.5	5.25	0.	104.22
5143	5.5	6.25	0.	100.46
5144	5.5	5.75	0.	100.32
5145	3.85	-7.08	0.	53.295
5146	4.41	-8.03	0.	107.24
5147	4.95	-7.06	0.	52.343
5148	4.13	-7.555	0.	85.994
5149	4.4	-7.07	0.	120.09
5150	4.68	-7.545	0.	86.522
5151	4.4031	-7.3898	0.	101.6
5152	3.99	-7.3175	0.	68.268
5153	4.125	-7.075	0.	86.19
5154	4.27	-7.7925	0.	95.788
5155	4.545	-7.7875	0.	95.994
5156	4.675	-7.065	0.	85.867
5157	4.815	-7.3025	0.	68.264
5158	4.2666	-7.4724	0.	93.356
5159	4.4016	-7.2299	0.	110.84
5160	4.5416	-7.4674	0.	93.644
5161	-3.64	-6.57	0.	90.671
5162	-3.9	-8.33	0.	78.437
5163	-2.24	-7.68	0.	86.268
5164	-3.705	-7.01	0.	100.2
5165	-3.77	-7.45	0.	100.12
5166	-3.835	-7.89	0.	107.11
5167	-3.29	-6.8475	0.	105.12
5168	-2.94	-7.125	0.	107.56
5169	-2.59	-7.4025	0.	112.43
5170	-3.485	-8.1675	0.	110.32
5171	-3.07	-8.005	0.	109.14
5172	-2.655	-7.8425	0.	116.03
5173	-3.4811	-7.6967	0.	102.5
5174	-3.2979	-7.2503	0.	103.52
5175	-3.001	-7.6328	0.	109.15
5176	-3.6725	-6.79	0.	94.493
5177	-3.465	-6.7087	0.	96.615
5178	-3.8675	-8.11	0.	92.402
5179	-3.6925	-8.2487	0.	93.921
5180	-2.415	-7.5413	0.	97.58
5181	-2.4475	-7.7613	0.	98.937
5182	-3.7375	-7.23	0.	100.05
5183	-3.5014	-7.1301	0.	101.82
5184	-3.8025	-7.67	0.	103.56
5185	-3.6255	-7.5733	0.	101.3
5186	-3.658	-7.7933	0.	104.77
5187	-3.115	-6.9862	0.	106.29
5188	-3.2939	-7.0489	0.	104.19
5189	-2.765	-7.2638	0.	109.98
5190	-3.1189	-7.1876	0.	105.52
5191	-2.7955	-7.5176	0.	110.73
5192	-3.2775	-8.0863	0.	109.71
5193	-3.483	-7.9321	0.	106.36
5194	-2.8625	-7.9237	0.	112.53
5195	-3.0355	-7.8189	0.	109.12
5196	-2.828	-7.7376	0.	112.43
5197	-3.3895	-7.4735	0.	102.99
5198	-3.241	-7.6647	0.	105.78
5199	-3.1494	-7.4415	0.	106.3
5200	-6.22	-7.8	0.	72.025
5201	-4.78	-7.2	0.	73.344
5202	-6.01	-6.25	0.	92.454
5203	-5.74	-7.6	0.	103.51
5204	-5.26	-7.4	0.	106.34
5205	-6.15	-7.2833	0.	100.83
5206	-6.08	-6.7667	0.	99.25
5207	-5.19	-6.8833	0.	99.45
5208	-5.6	-6.5667	0.	95.249
5209	-5.7486	-6.8907	0.	99.734
5210	-5.4643	-7.1103	0.	102.61
5211	-5.7972	-7.2491	0.	98.188
5212	-5.98	-7.7	0.	86.648
5213	-6.185	-7.5417	0.	85.461
5214	-5.02	-7.3	0.	85.75
5215	-4.985	-7.0417	0.	82.436
5216	-6.045	-6.5083	0.	93.756
5217	-5.805	-6.4083	0.	92.103
5218	-5.5	-7.5	0.	104.8
5219	-5.7686	-7.4245	0.	100.81
5220	-5.3621	-7.2552	0.	104.02
5221	-6.115	-7.025	0.	99.87
5222	-5.9736	-7.2662	0.	99.499
5223	-5.9143	-6.8287	0.	99.383
5224	-5.395	-6.725	0.	97.228
5225	-5.3271	-6.9968	0.	100.64
5226	-5.6743	-6.7287	0.	97.445
5227	-5.6064	-7.0005	0.	101.09
5228	-5.7729	-7.0699	0.	98.958
5229	-5.6307	-7.1797	0.	100.32
5230	-3.76	-0.97	0.	84.577
5231	-3.77	-2.11	0.	83.375
5232	-2.77	-1.55	0.	62.337
5233	-3.765	-1.54	0.	104.63
5234	-3.265	-1.26	0.	99.019
5235	-3.27	-1.83	0.	98.882
5236	-3.4335	-1.5434	0.	101.44
5237	-3.7625	-1.255	0.	93.342
5238	-3.5125	-1.115	0.	90.081
5239	-3.7675	-1.825	0.	92.709
5240	-3.52	-1.97	0.	89.469
5241	-3.0175	-1.405	0.	75.556
5242	-3.02	-1.69	0.	75.471
5243	-3.5993	-1.5417	0.	103.02
5244	-3.3493	-1.4017	0.	99.326
5245	-3.3518	-1.6867	0.	99.235
5246	-5.74	-2.75	0.	109.66
5247	-4.74	-1.43	0.	63.516
5248	-6.38	-1.23	0.	60.818
5249	-5.4067	-2.31	0.	92.539
5250	-5.0733	-1.87	0.	98.571
5251	-5.9533	-2.2433	0.	94.666
5252	-6.1667	-1.7367	0.	100.32
5253	-5.2867	-1.3633	0.	114.67
5254	-5.8333	-1.2967	0.	115.03
5255	-5.6477	-2.0222	0.	103.1
5256	-5.7957	-1.6708	0.	101.37
5257	-5.4165	-1.717	0.	103.05
5258	-5.5733	-2.53	0.	99.874
5259	-5.8467	-2.4967	0.	100.63
5260	-4.9067	-1.65	0.	79.059
5261	-5.0133	-1.3967	0.	86.977
5262	-6.2733	-1.4833	0.	80.207
5263	-6.1067	-1.2633	0.	87.45
5264	-5.24	-2.09	0.	95.416
5265	-5.5272	-2.1661	0.	97.808
5266	-5.2449	-1.7935	0.	100.64
5267	-6.06	-1.99	0.	97.373
5268	-5.8005	-2.1328	0.	98.802
5269	-5.9812	-1.7037	0.	100.81
5270	-5.56	-1.33	0.	114.74
5271	-5.3516	-1.5402	0.	108.68
5272	-5.8145	-1.4837	0.	108.14
5273	-5.7217	-1.8465	0.	102.2
5274	-5.5321	-1.8696	0.	102.99
5275	-5.6061	-1.6939	0.	102.1
5276	6.55	-6.e-002	0.	63.729
5277	4.63	-0.24	0.	69.843
5278	5.74	-1.81	0.	105.19
5279	6.07	-0.105	0.	115.28
5280	5.59	-0.15	0.	105.91
5281	5.11	-0.195	0.	115.28
5282	6.3475	-0.4975	0.	102.9
5283	6.145	-0.935	0.	100.09
5284	5.9425	-1.3725	0.	96.809
5285	4.9075	-0.6325	0.	104.08
5286	5.185	-1.025	0.	100.81
5287	5.4625	-1.4175	0.	94.296
5288	5.5625	-1.0288	0.	102.
5289	6.0076	-0.44233	0.	101.64
5290	5.8431	-0.75741	0.	102.33
5291	5.3001	-0.58958	0.	104.03
5292	5.6546	-0.47834	0.	105.68
5293	6.31	-8.25e-002	0.	89.207
5294	6.4488	-0.27875	0.	83.017
5295	4.87	-0.2175	0.	91.045
5296	4.7688	-0.43625	0.	85.538
5297	5.8412	-1.5912	0.	99.638
5298	5.6013	-1.6137	0.	98.473
5299	5.83	-0.1275	0.	110.6
5300	6.0388	-0.27367	0.	108.42
5301	5.35	-0.1725	0.	110.59
5302	5.6223	-0.31417	0.	105.79
5303	5.205	-0.39229	0.	109.55
5304	6.2463	-0.71625	0.	101.49
5305	6.1776	-0.46992	0.	102.24
5306	6.0437	-1.1537	0.	98.383
5307	5.9941	-0.84621	0.	101.19
5308	5.7525	-1.2006	0.	99.386
5309	5.0462	-0.82875	0.	102.42
5310	5.1038	-0.61104	0.	103.98
5311	5.3238	-1.2213	0.	97.537
5312	5.3738	-1.0269	0.	101.39
5313	5.5125	-1.2231	0.	98.145
5314	5.7028	-0.8931	0.	102.16
5315	5.4313	-0.80919	0.	102.95
5316	5.9254	-0.59987	0.	101.93
5317	5.8311	-0.46034	0.	103.62
5318	5.7489	-0.61788	0.	104.
5319	5.4773	-0.53396	0.	104.78
5320	0.63	7.21	0.	57.913
5321	1.75	7.54	0.	61.147
5322	0.9	8.35	0.	101.04
5323	1.0033	7.32	0.	105.36
5324	1.3767	7.43	0.	107.36
5325	0.72	7.59	0.	98.796
5326	0.81	7.97	0.	98.022
5327	1.4667	7.81	0.	90.901
5328	1.1833	8.08	0.	88.272
5329	1.2457	7.6612	0.	101.05
5330	1.0488	7.849	0.	98.745
5331	0.98663	7.5857	0.	97.351
5332	0.81667	7.265	0.	80.859
5333	0.675	7.4	0.	77.847
5334	1.5633	7.485	0.	78.588
5335	1.6083	7.675	0.	70.229
5336	0.855	8.16	0.	96.839
5337	1.0417	8.215	0.	92.991
5338	1.19	7.375	0.	106.25
5339	0.99498	7.4528	0.	101.33
5340	1.3112	7.5456	0.	103.66
5341	0.765	7.78	0.	98.278
5342	0.85331	7.5878	0.	98.04
5343	0.9294	7.9095	0.	98.233
5344	1.325	7.945	0.	89.465
5345	1.3562	7.7356	0.	95.513
5346	1.1161	7.9645	0.	93.49
5347	1.1472	7.7551	0.	99.743
5348	1.1162	7.6234	0.	99.069
5349	1.0177	7.7173	0.	98.008
5350	-8.47	8.27	0.	53.013
5351	-7.92	7.08	0.	110.82
5352	-7.16	8.16	0.	55.556
5353	-8.2867	7.8733	0.	98.722
5354	-8.1033	7.4767	0.	94.704
5355	-8.0333	8.2333	0.	115.32
5356	-7.5967	8.1967	0.	115.77
5357	-7.6667	7.44	0.	91.034
5358	-7.4133	7.8	0.	96.039
5359	-7.9936	7.9375	0.	101.92
5360	-7.8669	7.6618	0.	102.3
5361	-7.6908	7.9119	0.	103.26
5362	-8.3783	8.0717	0.	75.466
5363	-8.2517	8.2517	0.	83.834
5364	-8.0117	7.2783	0.	100.65
5365	-7.7933	7.26	0.	99.292
5366	-7.3783	8.1783	0.	83.173
5367	-7.2867	7.98	0.	73.18
5368	-8.195	7.675	0.	96.567
5369	-8.1401	7.9054	0.	100.24
5370	-7.9851	7.5692	0.	98.386
5371	-7.815	8.215	0.	115.44
5372	-8.0135	8.0854	0.	108.56
5373	-7.6438	8.0543	0.	109.29
5374	-7.54	7.62	0.	93.376
5375	-7.7668	7.5509	0.	96.629
5376	-7.5521	7.856	0.	99.441
5377	-7.9303	7.7996	0.	102.03
5378	-7.8422	7.9247	0.	102.44
5379	-7.7789	7.7868	0.	102.65
5380	5.12	8.24	0.	101.15
5381	4.44	7.43	0.	66.358
5382	5.47	7.25	0.	64.085
5383	4.78	7.835	0.	83.23
5384	5.295	7.745	0.	89.21
5385	4.955	7.34	0.	107.35
5386	5.0102	7.6397	0.	94.066
5387	4.95	8.0375	0.	91.496
5388	5.2075	7.9925	0.	93.263
5389	4.61	7.6325	0.	72.829
5390	4.6975	7.385	0.	86.174
5391	5.3825	7.4975	0.	76.274
5392	5.2125	7.295	0.	85.555
5393	4.8951	7.7374	0.	88.269
5394	5.1526	7.6924	0.	91.379
5395	4.9826	7.4899	0.	100.48
5396	0.	-5.	0.	101.6
5397	-2.	-5.	0.	100.52
5398	0.	-6.	0.	101.14
5399	-2.	-6.	0.	100.4
5400	-0.5	-5.	0.	118.7
5401	-1.	-5.	0.	117.15
5402	-1.5	-5.	0.	117.83
5403	0.	-5.5	0.	106.51
5404	-2.	-5.5	0.	105.23
5405	-1.5	-6.	0.	118.63
5406	-1.	-6.	0.	117.2
5407	-0.5	-6.	0.	118.15
5408	-1.5	-5.5	0.	117.
5409	-1.	-5.5	0.	120.49
5410	-0.5	-5.5	0.	117.23
5411	-0.25	-5.	0.	110.1
5412	0.	-5.25	0.	104.02
5413	-1.75	-5.	0.	109.13
5414	-2.	-5.25	0.	102.85
5415	0.	-5.75	0.	103.8
5416	-0.25	-6.	0.	109.61
5417	-2.	-5.75	0.	102.8
5418	-1.75	-6.	0.	109.46
5419	-0.75	-5.	0.	117.92
5420	-0.5	-5.25	0.	117.95
5421	-1.25	-5.	0.	117.48
5422	-1.	-5.25	0.	118.81
5423	-1.5	-5.25	0.	117.39
5424	-0.25	-5.5	0.	111.86
5425	-1.75	-5.5	0.	111.1
5426	-1.25	-6.	0.	117.91
5427	-1.5	-5.75	0.	117.79
5428	-0.75	-6.	0.	117.67
5429	-1.	-5.75	0.	118.84
5430	-0.5	-5.75	0.	117.67
5431	-1.25	-5.5	0.	118.74
5432	-0.75	-5.5	0.	118.86
