Node Number	X Location (mm)	Y Location (mm)	Z Location (mm)	Equivalent (von-Mises) Stress (MPa)
1	-3.27	5.	0.	155.29
2	-2.2	5.41	0.	178.88
3	-3.09	6.14	0.	136.78
4	5.18	-0.84	0.	165.23
5	6.62	-0.53	0.	172.02
6	5.63	0.56	0.	115.68
7	-0.68	-6.3	0.	146.56
8	-2.08	-6.51	0.	166.65
9	-1.19	-7.62	0.	109.05
10	2.	5.	0.	133.5
11	2.	4.	0.	132.88
12	3.	5.	0.	132.02
13	3.	4.	0.	130.84
14	6.	6.	0.	132.64
15	6.	4.	0.	132.89
16	7.	6.	0.	132.78
17	7.	4.	0.	130.97
18	3.	9.	0.	135.75
19	3.	7.	0.	130.58
20	4.	9.	0.	134.97
21	4.	7.	0.	132.75
22	-2.	8.	0.	135.38
23	-2.	6.	0.	153.07
24	0.	8.	0.	137.13
25	0.	6.	0.	136.93
26	-4.	2.	0.	133.39
27	-4.	1.	0.	133.23
28	-3.	2.	0.	132.1
29	-3.	1.	0.	132.71
30	2.	2.	0.	131.27
31	2.	0.	0.	136.34
32	3.	2.	0.	134.67
33	3.	0.	0.	133.7
34	-9.	2.	0.	138.27
35	-9.	1.	0.	138.19
36	-7.	2.	0.	136.99
37	-7.	1.	0.	137.53
38	-1.	0.	0.	133.59
39	-1.	-2.	0.	133.35
40	1.	0.	0.	138.71
41	1.	-2.	0.	135.15
42	5.	-5.	0.	135.95
43	5.	-6.	0.	136.47
44	7.	-5.	0.	131.75
45	7.	-6.	0.	132.03
46	-5.	-5.	0.	136.22
47	-5.	-7.	0.	134.52
48	-3.	-5.	0.	139.83
49	-3.	-7.	0.	135.89
50	7.	-7.	0.	132.27
51	7.	-9.	0.	127.23
52	8.	-7.	0.	135.55
53	8.	-9.	0.	130.34
54	-2.	-5.	0.	135.37
55	-2.	-6.	0.	131.22
56	0.	-5.	0.	135.37
57	0.	-6.	0.	139.8
58	10.	10.	0.	125.
59	-10.	10.	0.	125.
60	10.	-10.	0.	136.92
61	-10.	-10.	0.	129.82
62	-0.76917	-6.	0.	119.9
63	-2.4948	5.6518	0.	78.461
64	-2.735	5.205	0.	94.314
65	-3.21	5.38	0.	149.53
66	-3.15	5.76	0.	140.54
67	-2.7924	5.8959	0.	91.827
68	5.66	-0.73667	0.	107.72
69	6.14	-0.63333	0.	99.549
70	5.3297	-0.37426	0.	137.83
71	5.4799	9.287e-002	0.	127.13
72	6.29	-0.16667	0.	89.458
73	5.96	0.19667	0.	87.319
74	-1.031	-6.3527	0.	135.52
75	-1.381	-6.4052	0.	92.796
76	-0.85	-6.74	0.	117.63
77	-1.02	-7.18	0.	110.27
78	-1.7833	-6.88	0.	99.339
79	-1.4867	-7.25	0.	93.053
80	2.	4.5	0.	143.11
81	2.5	5.	0.	110.07
82	2.5	4.	0.	109.46
83	3.	4.5	0.	140.46
84	6.	5.5	0.	141.86
85	6.	5.	0.	141.83
86	6.	4.5	0.	141.17
87	6.5	6.	0.	107.92
88	6.5	4.	0.	107.3
89	7.	5.5	0.	141.27
90	7.	5.	0.	141.57
91	7.	4.5	0.	141.04
92	3.	8.5	0.	142.04
93	3.	8.	0.	141.01
94	3.	7.5	0.	139.41
95	3.5	9.	0.	111.03
96	3.5	7.	0.	107.15
97	4.	8.5	0.	142.87
98	4.	8.	0.	142.85
99	4.	7.5	0.	142.45
100	-2.	7.5	0.	143.34
101	-2.	7.	0.	146.09
102	-2.	6.5	0.	147.97
103	-1.5	8.	0.	115.8
104	-1.	8.	0.	120.68
105	-0.5	8.	0.	115.78
106	-1.5	6.	0.	116.46
107	-1.	6.	0.	118.83
108	-0.5	6.	0.	114.55
109	0.	7.5	0.	145.65
110	0.	7.	0.	147.28
111	0.	6.5	0.	146.33
112	-4.	1.5	0.	142.35
113	-3.5	2.	0.	110.54
114	-3.5	1.	0.	110.29
115	-3.	1.5	0.	142.03
116	2.	1.5	0.	143.26
117	2.	1.	0.	146.
118	2.	0.5	0.	146.87
119	2.5	2.	0.	108.93
120	2.5	0.	0.	108.66
121	3.	1.5	0.	144.55
122	3.	1.	0.	144.76
123	3.	0.5	0.	143.23
124	-9.	1.5	0.	148.33
125	-8.5	2.	0.	119.5
126	-8.	2.	0.	124.39
127	-7.5	2.	0.	119.11
128	-8.5	1.	0.	119.94
129	-8.	1.	0.	124.52
130	-7.5	1.	0.	118.81
131	-7.	1.5	0.	145.66
132	-1.	-0.5	0.	142.53
133	-1.	-1.	0.	143.42
134	-1.	-1.5	0.	141.88
135	-0.5	0.	0.	112.75
136	0.	0.	0.	117.63
137	0.5	0.	0.	113.98
138	-0.5	-2.	0.	112.2
139	0.	-2.	0.	117.81
140	0.5	-2.	0.	114.85
141	1.	-0.5	0.	147.91
142	1.	-1.	0.	148.
143	1.	-1.5	0.	145.33
144	5.	-5.5	0.	144.64
145	5.5	-5.	0.	117.18
146	6.	-5.	0.	121.67
147	6.5	-5.	0.	115.91
148	5.5	-6.	0.	118.89
149	6.	-6.	0.	124.48
150	6.5	-6.	0.	117.78
151	7.	-5.5	0.	139.45
152	-5.	-5.5	0.	144.57
153	-5.	-6.	0.	145.27
154	-5.	-6.5	0.	143.82
155	-4.5	-5.	0.	114.9
156	-4.	-5.	0.	119.78
157	-3.5	-5.	0.	116.22
158	-4.5	-7.	0.	112.78
159	-4.	-7.	0.	116.95
160	-3.5	-7.	0.	113.07
161	-3.	-5.5	0.	148.65
162	-3.	-6.	0.	149.5
163	-3.	-6.5	0.	145.93
164	7.	-7.5	0.	138.02
165	7.	-8.	0.	137.92
166	7.	-8.5	0.	137.07
167	7.5	-7.	0.	110.61
168	7.5	-9.	0.	104.34
169	8.	-7.5	0.	143.37
170	8.	-8.	0.	142.57
171	8.	-8.5	0.	140.98
172	-2.	-5.5	0.	142.3
173	-1.5	-5.	0.	110.34
174	-1.	-5.	0.	114.66
175	-0.5	-5.	0.	112.67
176	-1.5836	-6.	0.	102.52
177	-1.1718	-6.	0.	103.58
178	-0.38458	-6.	0.	136.86
179	0.	-5.5	0.	145.17
180	9.5	10.	0.	125.
181	9.	10.	0.	124.95
182	8.5	10.	0.	124.83
183	8.	10.	0.	124.7
184	7.5	10.	0.	124.63
185	7.	10.	0.	124.72
186	6.5	10.	0.	125.04
187	6.	10.	0.	125.68
188	5.5	10.	0.	126.47
189	5.	10.	0.	127.12
190	4.5	10.	0.	125.47
191	4.	10.	0.	120.56
192	3.5	10.	0.	118.71
193	3.	10.	0.	121.3
194	2.5	10.	0.	127.08
195	2.	10.	0.	129.42
196	1.5	10.	0.	129.07
197	1.	10.	0.	127.76
198	0.5	10.	0.	125.48
199	-5.2042e-015	10.	0.	122.67
200	-0.5	10.	0.	120.29
201	-1.	10.	0.	119.18
202	-1.5	10.	0.	119.63
203	-2.	10.	0.	121.31
204	-2.5	10.	0.	123.45
205	-3.	10.	0.	125.19
206	-3.5	10.	0.	126.2
207	-4.	10.	0.	126.63
208	-4.5	10.	0.	126.75
209	-5.	10.	0.	126.7
210	-5.5	10.	0.	126.55
211	-6.	10.	0.	126.35
212	-6.5	10.	0.	126.11
213	-7.	10.	0.	125.86
214	-7.5	10.	0.	125.63
215	-8.	10.	0.	125.41
216	-8.5	10.	0.	125.22
217	-9.	10.	0.	125.08
218	-9.5	10.	0.	125.01
219	10.	9.5	0.	124.99
220	10.	9.	0.	125.09
221	10.	8.5	0.	125.29
222	10.	8.	0.	125.5
223	10.	7.5	0.	125.61
224	10.	7.	0.	125.52
225	10.	6.5	0.	125.19
226	10.	6.	0.	124.77
227	10.	5.5	0.	124.54
228	10.	5.	0.	124.77
229	10.	4.5	0.	125.54
230	10.	4.	0.	126.69
231	10.	3.5	0.	127.87
232	10.	3.	0.	128.73
233	10.	2.5	0.	129.04
234	10.	2.	0.	128.77
235	10.	1.5	0.	128.
236	10.	1.	0.	126.93
237	10.	0.5	0.	125.89
238	10.	-5.2042e-015	0.	125.24
239	10.	-0.5	0.	125.29
240	10.	-1.	0.	126.09
241	10.	-1.5	0.	127.36
242	10.	-2.	0.	128.72
243	10.	-2.5	0.	129.83
244	10.	-3.	0.	130.52
245	10.	-3.5	0.	130.74
246	10.	-4.	0.	130.56
247	10.	-4.5	0.	130.23
248	10.	-5.	0.	130.08
249	10.	-5.5	0.	130.35
250	10.	-6.	0.	130.87
251	10.	-6.5	0.	131.03
252	10.	-7.	0.	130.6
253	10.	-7.5	0.	130.09
254	10.	-8.	0.	130.34
255	10.	-8.5	0.	131.68
256	10.	-9.	0.	133.91
257	10.	-9.5	0.	136.05
258	-10.	9.5	0.	125.
259	-10.	9.	0.	124.85
260	-10.	8.5	0.	124.58
261	-10.	8.	0.	124.27
262	-10.	7.5	0.	123.99
263	-10.	7.	0.	123.79
264	-10.	6.5	0.	123.74
265	-10.	6.	0.	123.88
266	-10.	5.5	0.	124.28
267	-10.	5.	0.	125.02
268	-10.	4.5	0.	126.21
269	-10.	4.	0.	128.
270	-10.	3.5	0.	130.48
271	-10.	3.	0.	133.18
272	-10.	2.5	0.	133.12
273	-10.	2.	0.	128.17
274	-10.	1.5	0.	123.89
275	-10.	1.	0.	129.03
276	-10.	0.5	0.	134.59
277	-10.	-5.2042e-015	0.	135.08
278	-10.	-0.5	0.	132.84
279	-10.	-1.	0.	130.85
280	-10.	-1.5	0.	129.49
281	-10.	-2.	0.	128.62
282	-10.	-2.5	0.	128.01
283	-10.	-3.	0.	127.53
284	-10.	-3.5	0.	127.08
285	-10.	-4.	0.	126.63
286	-10.	-4.5	0.	126.21
287	-10.	-5.	0.	125.88
288	-10.	-5.5	0.	125.73
289	-10.	-6.	0.	125.8
290	-10.	-6.5	0.	126.13
291	-10.	-7.	0.	126.68
292	-10.	-7.5	0.	127.38
293	-10.	-8.	0.	128.12
294	-10.	-8.5	0.	128.81
295	-10.	-9.	0.	129.36
296	-10.	-9.5	0.	129.71
297	-9.5	-10.	0.	129.3
298	-9.	-10.	0.	129.16
299	-8.5	-10.	0.	129.23
300	-8.	-10.	0.	129.37
301	-7.5	-10.	0.	129.42
302	-7.	-10.	0.	129.22
303	-6.5	-10.	0.	128.58
304	-6.	-10.	0.	127.37
305	-5.5	-10.	0.	125.61
306	-5.	-10.	0.	123.6
307	-4.5	-10.	0.	121.83
308	-4.	-10.	0.	120.72
309	-3.5	-10.	0.	120.29
310	-3.	-10.	0.	120.09
311	-2.5	-10.	0.	119.6
312	-2.	-10.	0.	118.79
313	-1.5	-10.	0.	118.34
314	-1.	-10.	0.	119.11
315	-0.5	-10.	0.	121.14
316	5.2042e-015	-10.	0.	123.68
317	0.5	-10.	0.	125.94
318	1.	-10.	0.	127.54
319	1.5	-10.	0.	128.51
320	2.	-10.	0.	128.99
321	2.5	-10.	0.	129.11
322	3.	-10.	0.	128.99
323	3.5	-10.	0.	128.7
324	4.	-10.	0.	128.35
325	4.5	-10.	0.	128.05
326	5.	-10.	0.	127.97
327	5.5	-10.	0.	128.11
328	6.	-10.	0.	128.11
329	6.5	-10.	0.	124.87
330	7.	-10.	0.	115.36
331	7.5	-10.	0.	110.14
332	8.	-10.	0.	117.54
333	8.5	-10.	0.	128.82
334	9.	-10.	0.	133.28
335	9.5	-10.	0.	134.45
336	-1.7305	-6.4576	0.	117.09
337	-5.4595	5.6861	0.	125.55
338	-5.4132	6.209	0.	125.47
339	-6.0263	5.4486	0.	125.46
340	-5.9013	5.9881	0.	125.05
341	-6.	-2.	0.	127.07
342	-5.5	-1.5	0.	126.64
343	-5.5	-2.	0.	126.33
344	-5.9671	6.5347	0.	124.96
345	-6.0597	4.948	0.	126.4
346	-6.058	4.4582	0.	127.69
347	6.0541	-3.0906	0.	118.42
348	-4.5	-2.	0.	123.79
349	-4.	-2.	0.	122.89
350	-4.	-2.5	0.	122.83
351	-4.	-3.	0.	122.24
352	-6.5325	4.9759	0.	125.5
353	-6.5044	5.4841	0.	124.94
354	-6.4621	5.9946	0.	124.67
355	-6.4745	6.5056	0.	124.6
356	3.5823	-3.0068	0.	131.07
357	-5.5	-1.0001	0.	127.41
358	-5.1344	5.8901	0.	125.73
359	-6.	-1.5	0.	127.2
360	-6.5	-3.	0.	128.51
361	-6.5	-2.5	0.	127.7
362	-6.5	-2.	0.	127.17
363	-5.4678	6.6278	0.	125.53
364	2.513	-5.4857	0.	126.23
365	-6.	-2.5	0.	127.41
366	-4.5	-2.5	0.	123.54
367	-5.5552	3.9637	0.	130.39
368	-5.5995	5.3397	0.	126.05
369	-3.5	-1.5	0.	122.16
370	-5.	-1.5	0.	125.46
371	-4.	-1.5	0.	122.7
372	-5.5756	4.4454	0.	128.8
373	2.5211	-6.4845	0.	126.53
374	2.5106	-4.988	0.	127.26
375	-6.5	-1.5	0.	126.99
376	-0.53107	3.4829	0.	124.09
377	-6.5	-3.5	0.	129.45
378	-5.5	-0.50019	0.	128.54
379	3.0699	-2.9873	0.	131.52
380	-0.51052	2.4882	0.	122.56
381	-0.50517	1.9914	0.	120.64
382	-0.54628	3.9832	0.	123.34
383	-6.4961	7.0138	0.	124.69
384	-6.0074	7.0428	0.	125.03
385	-5.5294	7.0887	0.	125.57
386	-5.0937	7.1351	0.	126.24
387	-6.9843	5.9974	0.	124.34
388	-3.5	-2.	0.	122.75
389	-3.5	-2.5	0.	123.15
390	-3.5	-3.	0.	123.15
391	3.6551	-2.4663	0.	130.91
392	-1.7273e-002	2.9924	0.	124.93
393	-6.5	-6.	0.	128.14
394	-4.	-3.5	0.	120.79
395	6.0343	-3.561	0.	117.81
396	6.8716	2.4232	0.	121.83
397	-1.0184	2.9734	0.	123.66
398	-1.0308	3.4693	0.	123.91
399	-4.971	6.2355	0.	126.16
400	-3.5	-1.0001	0.	121.46
401	-5.	-1.0001	0.	126.15
402	-5.1733	5.3645	0.	126.25
403	-6.	-3.	0.	128.19
404	-4.5	-3.	0.	122.98
405	-6.	-1.0001	0.	127.85
406	-7.	-6.5	0.	127.77
407	-7.	-6.	0.	127.46
408	-7.	-5.5	0.	127.72
409	-7.	-4.	0.	129.24
410	-7.	-3.5	0.	128.91
411	-7.	-3.	0.	128.25
412	-7.	-2.5	0.	127.5
413	-7.	-2.	0.	126.79
414	-7.	-1.5	0.	126.21
415	-7.0261	4.4872	0.	124.84
416	4.0871	-3.0754	0.	129.83
417	5.5746	-3.1034	0.	119.47
418	3.0101	-5.4905	0.	126.59
419	-3.	-1.5001	0.	122.61
420	3.0151	-6.9907	0.	127.87
421	2.5211	-6.9868	0.	127.28
422	2.027	-6.9833	0.	126.96
423	2.0122	-4.4874	0.	128.51
424	2.0267	-6.4815	0.	126.15
425	2.0215	-5.9816	0.	125.62
426	-3.	-2.5	0.	124.3
427	3.0129	-5.9893	0.	126.57
428	3.0149	-6.4896	0.	127.2
429	5.0871	-3.1112	0.	122.87
430	4.5908	-3.1068	0.	126.94
431	3.0115	-4.495	0.	129.2
432	-6.5345	3.9785	0.	127.38
433	-7.0248	3.9872	0.	125.12
434	-6.5	-1.0001	0.	127.28
435	-5.5	-3.	0.	126.96
436	-7.	-4.5	0.	129.05
437	-7.	-5.	0.	128.41
438	-5.1193	4.9353	0.	127.76
439	-5.0892	4.4592	0.	129.67
440	-4.5	-1.	0.	124.31
441	-4.	-1.	0.	122.43
442	5.1336	-2.6485	0.	122.37
443	-4.6982	7.1017	0.	127.12
444	-4.9376	6.6955	0.	126.6
445	-1.527	3.448	0.	123.98
446	7.117	1.0255	0.	128.63
447	7.2029	1.4566	0.	127.05
448	-1.01	2.4794	0.	122.88
449	3.6154	-1.9222	0.	130.45
450	1.5258	-7.4855	0.	127.65
451	2.0201	-7.4873	0.	127.75
452	2.5155	-7.49	0.	127.95
453	3.0119	-7.4929	0.	128.28
454	3.5081	-7.4957	0.	128.61
455	7.0186	-3.0078	0.	123.23
456	-3.	-3.	0.	125.02
457	-4.6115	7.5355	0.	126.59
458	-5.069	7.5756	0.	126.04
459	-5.5395	7.5628	0.	125.53
460	-6.0202	7.5372	0.	125.12
461	-6.5087	7.5167	0.	124.83
462	-7.0029	7.5068	0.	124.65
463	-4.	-4.	0.	118.21
464	-0.99951	-3.9997	0.	114.3
465	-3.	-1.0002	0.	122.
466	-2.	-1.0004	0.	127.02
467	2.6153e-003	-2.9989	0.	114.84
468	6.02	-4.0377	0.	116.59
469	-6.	-6.	0.	130.11
470	4.9993	5.0008	0.	129.46
471	-0.56235	4.4865	0.	121.32
472	-7.5119	4.9956	0.	123.88
473	-7.4932	5.9988	0.	124.12
474	-7.5006	7.502	0.	124.55
475	-1.0009e-002	2.4938	0.	123.48
476	1.499	7.4992	0.	127.45
477	-3.5	-3.5	0.	122.61
478	1.514	-3.9897	0.	129.21
479	1.0305	-7.4831	0.	127.45
480	1.5161	-5.4827	0.	125.68
481	1.532	-6.9829	0.	126.95
482	2.0262	-3.4885	0.	131.38
483	2.5517	-2.9861	0.	131.93
484	-2.5	-3.	0.	126.49
485	-2.5	-1.5001	0.	124.05
486	-0.49853	-3.4992	0.	115.81
487	6.5217	-3.5356	0.	119.26
488	7.4596	-2.1526	0.	128.27
489	7.524	-2.5626	0.	127.16
490	7.5077	-3.0191	0.	126.25
491	4.0488	-3.546	0.	130.31
492	5.5449	-3.5734	0.	119.42
493	3.5073	-5.4961	0.	127.01
494	3.5229	-4.0093	0.	130.88
495	-6.0001	-0.50031	0.	129.02
496	-7.5	-7.5	0.	128.74
497	-7.5	-7.	0.	128.09
498	-7.5	-6.5	0.	127.52
499	-7.5	-6.	0.	127.25
500	-7.5	-5.5	0.	127.39
501	-7.5	-5.	0.	127.82
502	-7.5	-4.	0.	128.46
503	-7.5	-3.	0.	127.82
504	-7.5	-2.5	0.	127.12
505	-7.5	-2.	0.	126.29
506	-7.5	-1.5	0.	125.35
507	-7.5	-1.	0.	124.28
508	-7.5	-0.50002	0.	123.09
509	3.0977	-2.4751	0.	130.65
510	3.0881	-1.9648	0.	128.8
511	-6.	-3.5	0.	129.45
512	-4.5	-3.5	0.	121.87
513	-6.5	-5.5	0.	128.52
514	-6.5	-4.	0.	130.19
515	-6.5	-6.5	0.	128.44
516	-7.	-7.	0.	128.52
517	-7.0001	-7.5	0.	129.29
518	-4.7072	5.5852	0.	126.07
519	-1.5142	2.9575	0.	124.08
520	-1.0049	1.9854	0.	121.8
521	-2.0166	3.4196	0.	123.09
522	-5.5001	-5.6531e-004	0.	129.5
523	-3.5001	-0.50017	0.	120.45
524	-5.0381	3.4807	0.	131.79
525	-5.5038	1.4953	0.	127.57
526	-5.5244	2.9833	0.	132.2
527	4.8791	2.0547	0.	128.6
528	4.9327	2.5223	0.	129.19
529	6.5007	7.5	0.	120.43
530	6.268	-2.1528	0.	118.
531	7.3256	1.92	0.	125.98
532	7.6382	1.3928	0.	128.24
533	7.5509	0.91885	0.	129.18
534	7.7054	-1.5867	0.	130.23
535	5.6982	-2.1615	0.	116.24
536	4.1676	-2.2526	0.	130.74
537	4.4972	4.5034	0.	127.25
538	4.4722	3.0214	0.	132.22
539	0.48563	2.9966	0.	127.05
540	-3.7602e-002	3.9913	0.	124.73
541	-4.5471	6.0792	0.	126.94
542	-4.1928	7.421	0.	127.08
543	-2.5254	3.8425	0.	119.19
544	6.8043	1.9324	0.	122.91
545	4.0546	1.0573	0.	133.75
546	5.316	1.9839	0.	123.96
547	6.2943	1.9133	0.	120.21
548	6.6528	1.0196	0.	125.66
549	6.706	1.4565	0.	123.98
550	-1.5484	3.9429	0.	124.23
551	-4.2976	6.9796	0.	128.28
552	-4.439	6.5421	0.	128.43
553	-3.4313	7.8969	0.	125.79
554	0.47188	3.9956	0.	126.76
555	5.1723	-2.1882	0.	121.93
556	6.8099	-1.9609	0.	124.87
557	7.2796	-1.7562	0.	129.87
558	7.0007	7.5	0.	121.77
559	5.4019	2.4845	0.	125.2
560	4.4936	4.0059	0.	128.93
561	4.4858	3.5111	0.	131.16
562	-4.5318	3.4925	0.	130.52
563	-4.5	-0.50011	0.	125.01
564	-4.	-0.50009	0.	122.1
565	-2.4998	3.389	0.	121.21
566	-2.9724	3.3753	0.	119.7
567	-1.5043	1.9787	0.	123.52
568	-1.5075	2.4679	0.	123.97
569	-3.455	3.5369	0.	121.86
570	-2.9923	3.7707	0.	118.77
571	-4.6478	5.0095	0.	128.04
572	-6.5001	-7.	0.	129.25
573	-6.5	-4.5	0.	130.23
574	4.4501	2.0782	0.	131.72
575	4.4546	2.5429	0.	132.2
576	0.49127	2.4972	0.	125.75
577	0.49538	1.9979	0.	123.45
578	3.0792	-1.4574	0.	126.21
579	3.6065	-1.4133	0.	129.65
580	-5.5006	0.49864	0.	129.38
581	-7.	-0.50008	0.	125.83
582	-6.5001	-0.50017	0.	128.18
583	-6.5263	3.4827	0.	128.74
584	-7.0192	3.4894	0.	125.52
585	-5.5078	1.9925	0.	129.
586	-5.5143	2.4887	0.	131.31
587	3.5118	-4.5043	0.	129.77
588	3.5076	-4.9998	0.	128.03
589	5.0524	-3.5767	0.	123.46
590	4.5537	-3.5697	0.	127.75
591	4.5031	-7.499	0.	127.34
592	5.0018	-7.4996	0.	124.84
593	3.5089	-5.9943	0.	127.29
594	3.5102	-6.4939	0.	128.28
595	-1.4998	-3.4999	0.	121.33
596	-0.9994	-3.4997	0.	117.32
597	-2.5	-2.0001	0.	124.77
598	-2.5	-2.5	0.	125.77
599	2.5658	-2.4821	0.	130.93
600	2.5626	-1.9799	0.	128.37
601	1.0133	-3.4932	0.	126.45
602	1.5201	-3.4902	0.	129.87
603	1.532	-6.4807	0.	126.19
604	1.5223	-5.983	0.	125.51
605	4.6429e-003	-7.4828	0.	125.7
606	0.52577	-7.483	0.	126.66
607	0.50656	-3.4963	0.	121.72
608	3.2531e-003	-3.4982	0.	117.6
609	1.5112	-4.9857	0.	126.78
610	-3.	-3.5	0.	125.93
611	-1.9999	-3.5	0.	125.74
612	-2.5	-3.5	0.	127.58
613	4.9976	4.5014	0.	128.81
614	-4.1724	5.493	0.	126.1
615	-6.0001	-6.5	0.	129.71
616	-4.5	-4.	0.	119.99
617	4.0529	1.5494	0.	133.32
618	-7.5	-4.8999e-005	0.	121.71
619	5.5263	-4.0466	0.	118.74
620	-2.	-1.5002	0.	126.23
621	0.50672	-2.9974	0.	118.77
622	-0.5007	0.99668	0.	116.21
623	1.9991	7.4993	0.	127.23
624	-1.4998	-3.9999	0.	118.27
625	-2.0749	-7.6896	0.	127.87
626	1.6351e-002	-7.9889	0.	126.82
627	0.51895	-7.9865	0.	127.56
628	1.0189	-7.9881	0.	127.97
629	1.5169	-7.9892	0.	128.23
630	2.0139	-7.9908	0.	128.35
631	2.5108	-7.9927	0.	128.45
632	3.0081	-7.995	0.	128.52
633	3.5056	-7.997	0.	128.42
634	4.0035	-7.9984	0.	127.9
635	5.0011	-7.9998	0.	124.98
636	5.5006	-7.9999	0.	123.72
637	6.0003	-8.	0.	124.5
638	-7.7942e-004	0.99813	0.	114.66
639	-8.	-7.	0.	127.85
640	-8.	-6.5	0.	127.4
641	-8.	-6.	0.	127.17
642	-8.	-5.5	0.	127.22
643	-8.	-5.	0.	127.46
644	-8.	-4.5	0.	127.75
645	-8.	-4.	0.	127.9
646	-8.	-3.5	0.	127.81
647	-8.	-3.	0.	127.46
648	-8.	-2.5	0.	126.88
649	-8.	-2.	0.	126.06
650	-8.	-1.5	0.	124.98
651	-8.	-1.	0.	123.6
652	-8.	-0.50001	0.	121.83
653	-8.	-1.7678e-005	0.	119.82
654	-2.0436	-8.0915	0.	125.75
655	-3.5208	-8.0097	0.	118.36
656	-4.0125	-8.0044	0.	115.72
657	-6.5003	-8.	0.	130.21
658	-7.0001	-8.	0.	129.7
659	-7.5001	-8.	0.	129.21
660	1.9996	7.9996	0.	128.28
661	1.4996	7.9996	0.	127.45
662	-2.8817	7.4834	0.	125.28
663	-8.005	2.9979	0.	119.3
664	-8.0079	3.497	0.	120.93
665	-8.0106	3.9966	0.	122.23
666	-8.0102	4.4971	0.	123.08
667	-7.9972	5.9995	0.	124.06
668	-7.9976	7.	0.	124.35
669	-7.9999	7.5005	0.	124.51
670	-7.5027	8.0029	0.	124.75
671	-7.0055	8.0072	0.	124.84
672	-6.5103	8.0159	0.	124.99
673	-6.0165	8.0275	0.	125.2
674	-5.5235	8.04	0.	125.49
675	-5.026	8.0362	0.	125.79
676	-4.5163	7.9884	0.	126.09
677	-3.9704	7.8545	0.	126.03
678	5.5011	-7.4999	0.	122.52
679	2.5522	-1.4814	0.	124.79
680	0.49788	1.4985	0.	120.86
681	-0.57332	4.9919	0.	118.05
682	-1.0744	4.4759	0.	122.03
683	-4.084	5.9624	0.	128.59
684	-3.7684	7.3306	0.	126.83
685	-4.6932e-002	4.4922	0.	123.97
686	0.4667	4.4953	0.	127.07
687	0.97899	4.4972	0.	128.27
688	3.9969	4.5042	0.	125.77
689	7.6225	-1.1477	0.	130.85
690	6.5007	7.	0.	117.83
691	4.4988	5.0019	0.	126.87
692	4.4995	5.501	0.	127.69
693	4.9997	5.5005	0.	129.92
694	6.427	2.953	0.	117.94
695	4.9611	3.0099	0.	130.44
696	-5.0033	1.4963	0.	127.06
697	-5.0228	2.9871	0.	132.19
698	-3.5001	-2.8185e-004	0.	118.29
699	-5.0001	-4.6585e-004	0.	128.71
700	-1.0021	1.4904	0.	121.12
701	-1.502	1.4864	0.	123.99
702	-2.0019	1.4838	0.	125.36
703	-3.4987	2.9966	0.	119.05
704	-2.0081	2.9404	0.	124.57
705	-2.5805	4.2966	0.	116.32
706	-4.0687	4.0097	0.	131.21
707	-4.507	-8.0018	0.	117.81
708	-6.0011	-8.0001	0.	130.5
709	-6.	-5.5	0.	129.96
710	-6.	-4.	0.	131.07
711	1.4978	6.9987	0.	127.72
712	1.4956	6.4981	0.	128.59
713	2.494	3.0018	0.	114.24
714	3.9817	3.0182	0.	133.3
715	0.98896	2.9988	0.	129.38
716	4.0484	0.56948	0.	132.4
717	-6.0034	1.4955	0.	127.71
718	-6.0003	-8.1682e-004	0.	130.46
719	-7.5086	2.9956	0.	121.24
720	-6.0219	2.984	0.	132.25
721	4.0053	-5.5012	0.	127.18
722	4.0258	-4.0282	0.	131.11
723	4.0068	-6.9971	0.	129.69
724	6.5122	-4.0231	0.	118.01
725	-2.	-3.	0.	126.65
726	2.0378	-2.9881	0.	132.5
727	-3.0001	-0.50047	0.	121.63
728	-2.0001	-0.50125	0.	127.38
729	6.0006	7.5	0.	122.16
730	5.5004	7.5	0.	125.7
731	5.0003	7.5	0.	129.03
732	1.014	-5.4859	0.	125.77
733	1.0347	-6.9835	0.	127.1
734	-0.49825	-3.999	0.	115.39
735	1.0107	-3.9917	0.	127.86
736	-3.5	-4.0001	0.	121.31
737	-0.469	-8.0056	0.	125.49
738	5.0003	8.	0.	128.32
739	5.5004	8.	0.	124.83
740	6.0005	8.	0.	122.57
741	6.5006	8.	0.	121.71
742	7.0006	8.	0.	122.37
743	7.5005	8.	0.	123.82
744	8.0004	8.	0.	125.01
745	8.0005	7.5	0.	125.95
746	8.0005	6.9998	0.	127.57
747	7.9995	5.4976	0.	128.81
748	7.9977	4.9938	0.	129.48
749	7.939	2.9394	0.	128.94
750	7.9174	2.4139	0.	127.92
751	7.8849	1.855	0.	127.97
752	8.0521	1.3844	0.	128.53
753	7.9104	0.40549	0.	127.76
754	7.9688	-9.0837e-002	0.	125.42
755	8.0301	-0.58355	0.	126.15
756	8.0796	-1.0605	0.	127.81
757	8.109	-1.5173	0.	129.3
758	7.9641	-1.9953	0.	129.41
759	8.0021	-2.5157	0.	128.61
760	8.0035	-3.0123	0.	128.18
761	8.0003	-3.5072	0.	128.25
762	7.9998	-4.0045	0.	128.8
763	-0.48727	-8.4964	0.	122.31
764	-1.9999	-4.0002	0.	125.85
765	-2.5	-4.0003	0.	130.86
766	-2.9999	-4.0002	0.	127.51
767	1.0087	-4.4904	0.	128.63
768	3.3171e-003	-3.9976	0.	120.14
769	5.0929e-002	-6.9798	0.	122.13
770	0.54173	-6.9831	0.	126.52
771	1.0367	-6.4821	0.	127.12
772	1.023	-5.9842	0.	126.56
773	1.9965	6.4987	0.	126.44
774	3.9995	6.0003	0.	123.94
775	4.4997	6.0005	0.	129.42
776	5.0002	7.0001	0.	131.28
777	-1.5009	0.99183	0.	126.46
778	-2.0002	-2.8726e-003	0.	129.38
779	1.524	-2.9916	0.	131.31
780	2.0383	-1.9904	0.	130.26
781	-2.	-2.5	0.	127.38
782	-0.99955	-2.9998	0.	119.71
783	7.9978	-4.5016	0.	128.64
784	4.006	-5.9984	0.	128.81
785	4.0068	-6.4972	0.	130.15
786	4.5043	-6.9988	0.	129.22
787	5.0026	-6.9995	0.	125.41
788	4.5289	-4.043	0.	129.65
789	4.0126	-4.5156	0.	130.96
790	4.0069	-5.007	0.	129.13
791	-6.007	1.9929	0.	130.09
792	-6.013	2.4891	0.	132.29
793	-6.5176	2.9877	0.	130.83
794	-7.0131	2.9921	0.	126.13
795	-6.5002	-4.4783e-004	0.	130.11
796	-6.0016	0.99731	0.	129.29
797	3.0661	-0.96251	0.	123.81
798	3.6054	-0.91826	0.	129.13
799	4.0702	8.7866e-002	0.	130.54
800	0.99297	2.4989	0.	128.7
801	0.99623	1.9992	0.	127.23
802	3.9959	2.0375	0.	133.74
803	3.9748	2.53	0.	133.93
804	0.46659	4.995	0.	129.4
805	0.99048	5.9969	0.	133.03
806	-5.5	-4.	0.	130.16
807	-6.	-5.	0.	131.15
808	-2.5375	-8.0392	0.	128.14
809	-6.0002	-7.	0.	130.69
810	-6.0006	-7.5	0.	131.36
811	-5.0041	-8.0007	0.	123.56
812	-4.1717	5.0028	0.	130.37
813	-4.1278	4.5071	0.	133.21
814	-3.0763	4.1837	0.	117.23
815	-2.003	1.9738	0.	125.5
816	-2.0046	2.4592	0.	125.64
817	-2.501	2.9294	0.	123.85
818	-2.9989	2.9433	0.	120.08
819	-2.5003	-2.0374e-003	0.	126.53
820	-2.0011	0.99032	0.	128.49
821	-5.0014	0.99779	0.	128.25
822	-5.0005	0.49887	0.	129.32
823	-4.5001	-2.8766e-004	0.	126.73
824	-4.0001	-1.7111e-004	0.	121.67
825	-4.5154	2.9951	0.	130.44
826	-5.0069	1.9942	0.	129.36
827	4.9929	4.0022	0.	129.86
828	4.9812	3.5044	0.	130.91
829	5.9355	2.9699	0.	121.76
830	5.5004	7.	0.	127.92
831	4.9999	6.0003	0.	131.84
832	7.0007	7.	0.	121.11
833	7.4281	2.9367	0.	126.18
834	7.9822	3.9738	0.	129.86
835	7.168	-1.3029	0.	133.73
836	7.5527	-0.67613	0.	125.64
837	4.6581	-1.7654	0.	132.25
838	5.1769	-1.7285	0.	122.59
839	3.9993	5.5008	0.	125.58
840	2.9982	5.9998	0.	118.72
841	3.9881	3.5119	0.	131.75
842	3.9941	4.0071	0.	128.88
843	0.98129	3.998	0.	128.61
844	0.98483	3.4985	0.	129.39
845	1.4918	2.9998	0.	128.24
846	1.9939	3.0005	0.	119.77
847	1.9948	5.9985	0.	124.87
848	1.4924	5.9976	0.	130.25
849	0.98295	5.4962	0.	133.86
850	0.97887	4.9965	0.	131.51
851	-3.312	7.3249	0.	124.2
852	-3.8534	6.8771	0.	130.16
853	-3.9737	6.4219	0.	131.07
854	-2.0847	4.3862	0.	124.43
855	-1.5822	4.4472	0.	126.17
856	6.2091	1.4313	0.	118.72
857	4.5844	1.0807	0.	133.12
858	4.5625	0.59782	0.	132.19
859	0.99826	1.4994	0.	125.97
860	2.032	-1.4919	0.	127.33
861	5.5015	-6.9998	0.	121.25
862	-2.9443	7.9592	0.	127.2
863	0.99973	7.9997	0.	129.36
864	-8.0016	8.5012	0.	124.9
865	-7.5028	8.5027	0.	124.97
866	-7.0046	8.5056	0.	125.06
867	-6.5072	8.5111	0.	125.18
868	-6.0094	8.5183	0.	125.33
869	-5.5094	8.5223	0.	125.49
870	-5.0041	8.5127	0.	125.65
871	-4.4928	8.4772	0.	125.79
872	-3.9807	8.4249	0.	125.96
873	-3.4747	8.4343	0.	126.56
874	-2.9759	8.4641	0.	128.35
875	0.99996	8.4998	0.	129.17
876	1.4999	8.4998	0.	127.44
877	1.9998	8.4997	0.	127.77
878	-8.5029	2.9989	0.	120.8
879	-8.5047	3.4986	0.	121.87
880	-8.5067	3.9983	0.	122.77
881	-8.5061	4.4988	0.	123.41
882	-8.5043	4.9994	0.	123.8
883	-8.5015	5.4998	0.	124.02
884	-8.499	5.9999	0.	124.14
885	-8.498	6.4999	0.	124.24
886	-8.4985	6.9999	0.	124.35
887	-8.4997	7.5	0.	124.48
888	-8.5005	8.0002	0.	124.64
889	-8.5008	8.5004	0.	124.82
890	-8.5	-8.	0.	128.53
891	-8.5	-7.5	0.	128.12
892	-8.5	-7.	0.	127.68
893	-8.5	-6.5	0.	127.31
894	-8.5	-6.	0.	127.1
895	-8.5	-5.5	0.	127.08
896	-8.5	-5.	0.	127.21
897	-8.5	-4.5	0.	127.39
898	-8.5	-4.	0.	127.51
899	-8.5	-3.5	0.	127.5
900	-8.5	-3.	0.	127.31
901	-8.5	-2.5	0.	126.92
902	-8.5	-2.	0.	126.32
903	-8.5	-1.5	0.	125.47
904	-8.5	-1.	0.	124.33
905	-8.5	-0.5	0.	122.95
906	-8.5	-5.5834e-006	0.	121.43
907	6.0001	-8.5	0.	125.21
908	5.5003	-8.5	0.	124.98
909	5.0006	-8.4999	0.	125.68
910	4.5011	-8.4996	0.	126.81
911	4.002	-8.499	0.	127.78
912	3.5034	-8.498	0.	128.39
913	3.0051	-8.4966	0.	128.69
914	2.5072	-8.4949	0.	128.78
915	2.0092	-8.4932	0.	128.73
916	1.5113	-8.4928	0.	128.54
917	1.013	-8.4912	0.	128.16
918	0.51329	-8.4913	0.	127.35
919	1.3889e-002	-8.4937	0.	125.94
920	-0.98943	-8.4892	0.	116.02
921	-1.5009	-8.5369	0.	115.61
922	-2.0163	-8.5518	0.	120.89
923	-2.5208	-8.5331	0.	123.88
924	-3.0181	-8.518	0.	122.64
925	-3.5134	-8.5093	0.	119.77
926	-4.0089	-8.5045	0.	118.36
927	-4.5054	-8.502	0.	119.8
928	-5.0031	-8.5009	0.	123.38
929	-5.5017	-8.5004	0.	126.97
930	-6.0011	-8.5002	0.	129.07
931	-6.5006	-8.5001	0.	129.72
932	-7.0003	-8.5	0.	129.69
933	-7.5002	-8.5	0.	129.44
934	-8.0001	-8.5	0.	129.13
935	-8.5	-8.5	0.	128.86
936	0.49919	0.99902	0.	118.3
937	2.5421	-0.98423	0.	120.
938	7.9994	-5.5006	0.	123.63
939	5.0002	8.5	0.	127.03
940	5.5003	8.5	0.	124.51
941	6.0003	8.5	0.	123.04
942	6.5004	8.5	0.	122.63
943	7.0003	8.5	0.	123.02
944	7.5003	8.5	0.	123.85
945	8.0003	8.5	0.	124.64
946	8.5002	8.5	0.	125.13
947	8.5003	8.	0.	125.58
948	8.5004	7.4999	0.	126.33
949	8.5003	6.9998	0.	127.19
950	8.5002	6.4995	0.	127.71
951	8.4999	5.9986	0.	127.62
952	8.4988	5.4963	0.	127.55
953	8.4957	4.9917	0.	127.67
954	8.4909	4.4858	0.	128.06
955	8.4832	3.9777	0.	128.65
956	8.4699	3.4648	0.	129.19
957	8.4532	2.9515	0.	129.09
958	8.4426	2.4376	0.	128.72
959	8.4498	1.9314	0.	128.5
960	8.4975	1.4319	0.	128.31
961	8.4859	0.92927	0.	127.92
962	8.4646	0.43917	0.	126.97
963	8.4844	-5.0473e-002	0.	126.29
964	8.5186	-0.54128	0.	126.29
965	8.5463	-1.0308	0.	127.38
966	8.5465	-1.5226	0.	128.46
967	8.5032	-2.0129	0.	129.03
968	8.4995	-2.5073	0.	129.08
969	8.5007	-3.0062	0.	129.02
970	8.4994	-3.5043	0.	129.07
971	8.4985	-4.0025	0.	129.03
972	8.4981	-4.5011	0.	128.42
973	8.4986	-5.0004	0.	127.21
974	8.4992	-5.5001	0.	126.78
975	8.4996	-6.0001	0.	128.72
976	6.0006	-7.5	0.	122.32
977	5.1793	1.5149	0.	124.68
978	5.7012	1.4565	0.	117.38
979	-1.6307	4.9683	0.	126.56
980	6.0008	-6.9999	0.	120.67
981	7.9997	-6.0002	0.	123.98
982	2.0248	-0.99389	0.	125.3
983	0.99933	0.99959	0.	126.33
984	-3.3934	6.7675	0.	128.41
985	1.4895	5.4974	0.	133.96
986	1.4903	3.4998	0.	130.78
987	3.4923	3.5071	0.	131.8
988	3.4991	5.5005	0.	125.98
989	7.0937	-0.8294	0.	137.24
990	7.4595	3.4595	0.	130.36
991	7.5004	6.4997	0.	130.33
992	5.5003	6.5001	0.	132.51
993	5.4765	3.4931	0.	130.96
994	-4.5088	2.4962	0.	132.66
995	-4.5003	0.4994	0.	130.43
996	-2.5006	0.49599	0.	130.8
997	-2.5028	2.459	0.	128.35
998	-3.6415	4.5366	0.	140.18
999	-5.5014	-7.5001	0.	132.81
1000	-2.6056	-7.4472	0.	136.14
1001	-5.5	-4.5	0.	134.05
1002	0.50009	8.4999	0.	132.44
1003	-2.4837	8.4868	0.	131.47
1004	0.4755	5.4953	0.	134.65
1005	3.4874	2.5145	0.	133.96
1006	1.4948	2.4998	0.	130.48
1007	3.5893	-0.4358	0.	131.18
1008	5.5002	9.	0.	124.55
1009	6.0002	9.	0.	123.76
1010	7.5002	9.	0.	124.17
1011	8.0001	9.	0.	124.61
1012	8.5001	9.	0.	124.92
1013	9.0001	9.	0.	125.1
1014	9.0001	8.5	0.	125.33
1015	9.0002	8.	0.	125.68
1016	9.0002	7.4999	0.	126.13
1017	9.0002	6.9997	0.	126.55
1018	9.	6.4992	0.	126.75
1019	8.9995	5.9979	0.	126.71
1020	8.9983	5.4957	0.	126.64
1021	8.9958	4.9928	0.	126.81
1022	8.9925	4.4886	0.	127.25
1023	8.9869	3.9836	0.	127.89
1024	8.9778	3.4748	0.	128.43
1025	8.9685	2.9677	0.	128.66
1026	8.9662	2.464	0.	128.59
1027	8.9745	1.963	0.	128.39
1028	8.9878	0.95974	0.	127.57
1029	8.9853	0.46616	0.	126.97
1030	8.9943	-2.6735e-002	0.	126.48
1031	9.0112	-0.52102	0.	126.58
1032	9.0243	-1.0171	0.	127.21
1033	9.0232	-1.5152	0.	128.06
1034	9.0083	-2.0107	0.	128.73
1035	9.002	-2.507	0.	129.12
1036	9.0006	-3.0048	0.	129.34
1037	8.9999	-3.5032	0.	129.44
1038	8.9996	-4.0022	0.	129.35
1039	8.9992	-4.5013	0.	129.
1040	8.9996	-5.9999	0.	130.58
1041	8.9998	-6.5	0.	132.38
1042	8.9999	-7.	0.	132.82
1043	9.	-7.5	0.	132.55
1044	9.	-8.	0.	132.97
1045	9.	-8.5	0.	132.36
1046	8.4998	-6.5	0.	133.78
1047	-6.5005	0.49908	0.	133.63
1048	-6.5106	2.4916	0.	134.48
1049	6.0001	-9.	0.	126.59
1050	5.5001	-9.	0.	126.33
1051	5.0003	-8.9999	0.	126.7
1052	4.5006	-8.9998	0.	127.31
1053	4.001	-8.9994	0.	127.97
1054	3.5017	-8.9988	0.	128.5
1055	3.0027	-8.998	0.	128.84
1056	2.5038	-8.9968	0.	128.98
1057	2.005	-8.9955	0.	128.92
1058	1.5062	-8.9946	0.	128.61
1059	1.0073	-8.9942	0.	127.93
1060	0.50782	-8.9947	0.	126.7
1061	7.8722e-003	-8.9955	0.	124.58
1062	-0.49341	-8.9976	0.	121.3
1063	-0.9955	-9.0017	0.	117.96
1064	-1.5003	-9.0207	0.	117.34
1065	-2.0068	-9.0286	0.	119.45
1066	-2.5104	-9.0221	0.	121.19
1067	-3.508	-9.0073	0.	120.22
1068	-4.0056	-9.0036	0.	119.87
1069	-4.5035	-9.0017	0.	121.03
1070	-5.0021	-9.0008	0.	123.45
1071	-5.5012	-9.0003	0.	126.1
1072	-6.0007	-9.0002	0.	128.07
1073	-6.5004	-9.0001	0.	129.12
1074	-7.0002	-9.	0.	129.49
1075	-7.5001	-9.	0.	129.47
1076	-8.0001	-9.	0.	129.29
1077	-8.5	-9.	0.	129.08
1078	-9.	-9.	0.	128.94
1079	-9.	-8.5	0.	128.67
1080	-9.	-8.	0.	128.31
1081	-9.	-7.5	0.	127.9
1082	-9.	-6.5	0.	127.15
1083	-9.	-6.	0.	126.93
1084	-9.	-5.5	0.	126.87
1085	-9.	-5.	0.	126.94
1086	-9.	-4.5	0.	127.08
1087	-9.	-4.	0.	127.23
1088	-9.	-3.5	0.	127.33
1089	-9.	-3.	0.	127.34
1090	-9.	-2.5	0.	127.25
1091	-9.	-2.	0.	127.04
1092	-9.	-1.5	0.	126.72
1093	-9.	-1.	0.	126.29
1094	-9.	-0.5	0.	125.92
1095	-9.	-1.2667e-006	0.	126.05
1096	4.5129	-4.5235	0.	133.25
1097	4.5042	-6.4992	0.	133.
1098	7.4994	-4.5025	0.	130.07
1099	-1.4999	-2.5	0.	129.31
1100	1.5235	-2.4934	0.	134.49
1101	-1.5004	0.49476	0.	131.33
1102	4.4999	6.5003	0.	133.26
1103	5.0001	9.	0.	126.65
1104	-9.0016	2.9995	0.	125.15
1105	-9.0026	3.4993	0.	124.54
1106	-9.0041	3.9992	0.	124.43
1107	-9.0035	4.4995	0.	124.43
1108	-9.0026	4.9998	0.	124.39
1109	-9.001	5.5	0.	124.32
1110	-8.9997	6.0001	0.	124.28
1111	-8.9991	6.5	0.	124.28
1112	-8.9992	6.9999	0.	124.33
1113	-8.9997	7.5	0.	124.43
1114	-9.0002	8.	0.	124.57
1115	-9.0004	8.5001	0.	124.74
1116	-9.0002	9.0001	0.	124.91
1117	-8.5005	9.0003	0.	125.01
1118	-8.001	9.0008	0.	125.1
1119	-7.5018	9.0018	0.	125.2
1120	-7.0029	9.0038	0.	125.31
1121	-6.5041	9.0071	0.	125.42
1122	-6.0042	9.0107	0.	125.54
1123	-5.5024	9.0108	0.	125.64
1124	-4.4924	8.9818	0.	125.77
1125	-3.9889	8.9604	0.	125.94
1126	-3.4887	8.963	0.	126.45
1127	-2.9898	8.9754	0.	127.44
1128	-1.9953	8.997	0.	123.94
1129	-1.4974	8.9993	0.	119.74
1130	-0.99864	8.9999	0.	118.16
1131	-0.49928	9.	0.	120.29
1132	3.5772e-004	9.	0.	124.79
1133	0.50016	9.	0.	128.14
1134	1.	8.9999	0.	127.91
1135	1.5	8.9999	0.	126.89
1136	1.9999	8.9999	0.	127.61
1137	2.4977	6.4993	0.	126.32
1138	0.54595	-6.4833	0.	128.96
1139	0.50483	-4.4944	0.	130.09
1140	-2.5	-4.5011	0.	138.36
1141	-1.6212	-7.7125	0.	119.25
1142	-1.8678	-7.3966	0.	120.56
1143	-2.2211	-7.0845	0.	142.94
1144	-2.	-4.5003	0.	127.11
1145	-1.4998	-4.5	0.	113.21
1146	-0.99939	-4.4997	0.	112.31
1147	2.4106e-003	-4.498	0.	123.68
1148	-0.49856	-4.4992	0.	113.01
1149	0.50503	-4.9935	0.	129.93
1150	0.51966	-5.9875	0.	129.45
1151	0.50829	-5.4921	0.	130.82
1152	2.4994	7.4996	0.	131.03
1153	2.4997	7.9997	0.	133.48
1154	2.4999	8.9999	0.	129.68
1155	4.5001	9.	0.	129.69
1156	4.5001	8.5	0.	132.83
1157	4.5001	8.	0.	134.78
1158	4.5	7.0001	0.	132.42
1159	4.5001	7.5	0.	133.59
1160	3.9996	6.5001	0.	123.28
1161	2.9986	6.4998	0.	120.15
1162	3.4993	6.5	0.	110.55
1163	-1.0002	0.49713	0.	123.59
1164	-0.50018	0.49833	0.	112.93
1165	-2.067e-004	0.49905	0.	113.34
1166	0.99992	0.49977	0.	127.72
1167	0.49979	0.49949	0.	114.51
1168	1.5066	-0.49935	0.	139.04
1169	1.5115	-0.99822	0.	136.6
1170	1.5196	-1.9948	0.	133.08
1171	1.5156	-1.4967	0.	133.79
1172	1.012	-2.4968	0.	126.58
1173	0.50525	-2.4988	0.	115.
1174	2.6587e-003	-2.4994	0.	113.83
1175	-0.9997	-2.4999	0.	122.86
1176	-0.49899	-2.4998	0.	112.7
1177	-1.5	-2.0001	0.	128.82
1178	-1.5002	-2.8062e-003	0.	130.82
1179	-1.5	-0.50132	0.	132.46
1180	-1.5	-1.0006	0.	133.56
1181	-1.5	-1.5003	0.	131.7
1182	7.4997	-5.0015	0.	128.04
1183	7.4998	-6.0002	0.	122.44
1184	7.4996	-5.5006	0.	125.67
1185	6.5003	-6.5	0.	121.58
1186	6.0006	-6.4999	0.	120.37
1187	5.0023	-6.4997	0.	127.13
1188	5.5012	-6.4998	0.	118.86
1189	4.5034	-6.0005	0.	131.72
1190	4.5052	-5.0103	0.	131.45
1191	4.5034	-5.5035	0.	131.12
1192	5.0127	-4.524	0.	126.12
1193	5.5119	-4.5227	0.	116.7
1194	7.0023	-4.5054	0.	123.51
1195	6.5062	-4.5118	0.	115.55
1196	6.0103	-4.5181	0.	116.93
1197	-9.0008	2.4997	0.	127.42
1198	-8.5015	2.4994	0.	118.72
1199	-8.0028	2.4987	0.	119.47
1200	-7.0072	2.4954	0.	127.6
1201	-7.5048	2.4975	0.	118.86
1202	-6.5046	1.995	0.	132.77
1203	-6.501	0.99832	0.	131.99
1204	-6.5021	1.497	0.	131.82
1205	-7.0003	0.49967	0.	127.93
1206	-9.	0.5	0.	127.79
1207	-8.5	0.5	0.	119.14
1208	-8.	0.49999	0.	119.72
1209	-7.5001	0.49994	0.	118.95
1210	7.0001	-6.5	0.	124.28
1211	7.9999	-6.5001	0.	125.88
1212	7.4999	-6.5001	0.	116.13
1213	8.4999	-7.	0.	133.82
1214	8.5	-7.5	0.	135.72
1215	8.5	-8.	0.	136.79
1216	8.5	-9.	0.	131.48
1217	8.5	-8.5	0.	134.36
1218	6.5004	-7.	0.	123.36
1219	6.5003	-7.5	0.	127.71
1220	6.5002	-8.	0.	129.79
1221	6.5001	-8.5	0.	128.47
1222	6.5	-9.	0.	126.68
1223	3.0492	-0.47402	0.	124.64
1224	2.0148	-0.49689	0.	124.8
1225	2.5268	-0.49083	0.	111.49
1226	1.5015	-1.5891e-006	0.	136.2
1227	1.5001	0.49995	0.	139.45
1228	1.4996	0.99991	0.	136.78
1229	1.4976	1.9998	0.	130.43
1230	1.499	1.4999	0.	132.63
1231	1.996	2.5003	0.	120.87
1232	2.9934	2.5046	0.	123.02
1233	2.4958	2.5013	0.	109.95
1234	3.5009	2.0162	0.	134.08
1235	3.5475	4.8583e-002	0.	130.7
1236	3.5276	0.53485	0.	135.1
1237	3.5258	1.0274	0.	137.8
1238	3.5206	1.5213	0.	136.32
1239	-3.6287e-002	5.4955	0.	125.24
1240	-0.56334	5.4959	0.	114.37
1241	-1.1357	5.5012	0.	113.88
1242	-1.7175	5.5262	0.	108.04
1243	-2.453	6.9311	0.	131.14
1244	-2.4687	7.9838	0.	129.95
1245	-2.4485	7.4736	0.	132.19
1246	-1.992	8.4966	0.	125.6
1247	-1.4967	8.4991	0.	116.14
1248	-0.99852	8.4998	0.	116.69
1249	3.319e-004	8.5	0.	126.97
1250	-0.49931	8.4999	0.	116.63
1251	0.49989	7.9998	0.	132.03
1252	0.49958	7.4997	0.	135.11
1253	0.49106	5.9969	0.	134.14
1254	0.49705	6.4987	0.	136.35
1255	0.49887	6.9993	0.	137.25
1256	-5.	-4.5	0.	126.88
1257	-4.5	-4.5	0.	116.09
1258	-4.	-4.5	0.	116.6
1259	-2.9999	-4.5004	0.	130.22
1260	-3.5	-4.5001	0.	117.64
1261	-2.5001	-5.0039	0.	135.98
1262	-2.5013	-5.5129	0.	140.94
1263	-2.5098	-6.042	0.	154.61
1264	-2.5417	-6.633	0.	127.93
1265	-3.0619	-7.524	0.	124.3
1266	-3.525	-7.5066	0.	114.74
1267	-4.0111	-7.5023	0.	113.84
1268	-5.0028	-7.5003	0.	125.
1269	-4.5055	-7.5009	0.	113.92
1270	-5.5	-5.	0.	132.9
1271	-5.5	-5.5	0.	134.61
1272	-5.5	-6.	0.	135.83
1273	-5.5001	-6.5	0.	134.04
1274	-5.5004	-7.	0.	132.09
1275	-3.1462	4.6196	0.	111.31
1276	-2.6455	4.7555	0.	114.61
1277	-2.1412	4.8855	0.	132.46
1278	-2.502	1.978	0.	128.1
1279	-2.501	0.99319	0.	130.02
1280	-2.5014	1.4881	0.	129.
1281	-4.0001	0.4998	0.	122.87
1282	-3.5002	0.49973	0.	112.07
1283	-4.5008	0.9989	0.	129.69
1284	-4.5043	1.9972	0.	130.82
1285	-4.5019	1.4982	0.	130.09
1286	-3.0033	2.4736	0.	121.7
1287	-3.504	2.4933	0.	112.36
1288	5.4932	3.9978	0.	130.36
1289	5.4982	4.4996	0.	132.9
1290	5.4995	5.0001	0.	134.79
1291	5.5	6.0001	0.	132.17
1292	5.4998	5.5002	0.	133.66
1293	6.0003	6.5	0.	122.54
1294	7.0004	6.4999	0.	122.31
1295	6.5004	6.5	0.	110.55
1296	7.5001	5.9992	0.	130.04
1297	7.4997	5.4981	0.	132.9
1298	7.4988	4.9959	0.	134.48
1299	7.4856	3.9786	0.	130.73
1300	7.4955	4.4902	0.	132.62
1301	5.9719	3.4852	0.	122.99
1302	6.4667	3.4769	0.	110.65
1303	6.9619	3.469	0.	120.17
1304	7.0015	-0.34539	0.	119.11
1305	6.8148	0.10836	0.	141.53
1306	6.6391	-0.99352	0.	135.69
1307	6.166	-1.116	0.	110.05
1308	5.17	-1.2721	0.	127.08
1309	5.6749	-1.2062	0.	105.57
1310	4.6779	-0.82032	0.	127.61
1311	5.0824	0.58842	0.	133.92
1312	5.0074	0.14241	0.	130.76
1313	4.7389	-0.29834	0.	134.37
1314	3.4992	5.0012	0.	126.53
1315	3.4963	4.0043	0.	129.9
1316	3.4982	4.5025	0.	128.33
1317	2.9949	3.5031	0.	121.25
1318	1.9943	3.5004	0.	121.93
1319	2.4956	3.5012	0.	110.41
1320	1.4903	3.9993	0.	130.18
1321	1.4893	4.9979	0.	132.64
1322	1.4899	4.4986	0.	130.78
1323	2.9985	5.5001	0.	120.97
1324	2.4973	5.4997	0.	112.35
1325	1.9946	5.4988	0.	124.38
1326	-3.7	4.9908	0.	133.28
1327	-3.5194	6.3055	0.	137.42
1328	-3.6153	5.8658	0.	130.94
1329	-3.6833	5.4336	0.	133.13
1330	-0.95262	-7.9238	0.	117.81
1331	-0.57073	-7.4873	0.	122.43
1332	-0.42517	-6.9329	0.	128.23
1333	7.4388e-002	-6.4826	0.	126.43
1334	-0.3499	-6.4506	0.	110.44
1335	-2.9609	6.5813	0.	111.16
1336	-2.4811	6.3503	0.	130.11
1337	-9.5	-9.	0.	128.99
1338	-9.5	-8.5	0.	128.63
1339	-9.5	-8.	0.	128.17
1340	-9.5	-7.5	0.	127.67
1341	-9.5	-7.	0.	127.19
1342	-9.5	-6.5	0.	126.81
1343	-9.5	-6.	0.	126.56
1344	-9.5	-5.5	0.	126.48
1345	-9.5	-5.	0.	126.55
1346	-9.5	-4.5	0.	126.72
1347	-9.5	-4.	0.	126.96
1348	-9.5	-3.5	0.	127.21
1349	-9.5	-3.	0.	127.45
1350	-9.5	-2.5	0.	127.69
1351	-9.5	-2.	0.	127.95
1352	-9.5	-1.5	0.	128.29
1353	-9.5	-1.	0.	128.78
1354	-9.5	-0.5	0.	129.47
1355	-9.5	-5.0589e-007	0.	130.78
1356	-9.5	0.5	0.	134.3
1357	-9.5	1.	0.	134.22
1358	-9.5	1.5	0.	133.77
1359	-9.5001	1.9999	0.	133.53
1360	-9.5004	2.4998	0.	133.34
1361	-9.5007	2.9998	0.	129.41
1362	-9.5012	3.4997	0.	127.63
1363	-9.502	3.9997	0.	126.5
1364	-9.5016	4.4998	0.	125.62
1365	-9.5012	5.	0.	124.98
1366	-9.5005	5.5001	0.	124.54
1367	-9.4999	6.0001	0.	124.28
1368	-9.4997	6.5	0.	124.17
1369	-9.4997	7.	0.	124.18
1370	-9.4998	7.5	0.	124.28
1371	-9.5001	8.	0.	124.45
1372	-9.5001	8.5	0.	124.64
1373	-9.5001	9.	0.	124.82
1374	-9.5	9.5	0.	124.97
1375	-9.0001	9.5001	0.	125.06
1376	-8.5003	9.5002	0.	125.16
1377	-8.0005	9.5004	0.	125.29
1378	-7.5009	9.501	0.	125.43
1379	-7.0014	9.5019	0.	125.58
1380	-6.5018	9.5034	0.	125.73
1381	-6.0014	9.5047	0.	125.87
1382	-5.5	9.5042	0.	125.98
1383	-4.9975	9.4993	0.	126.03
1384	-4.4955	9.4905	0.	126.02
1385	-3.9947	9.4823	0.	125.95
1386	-3.4955	9.4831	0.	125.86
1387	-2.9964	9.4882	0.	125.61
1388	-2.4974	9.4945	0.	124.71
1389	-1.9981	9.4982	0.	122.95
1390	-1.4988	9.4995	0.	121.07
1391	-0.99928	9.4999	0.	120.42
1392	-0.49959	9.5	0.	121.57
1393	2.2023e-004	9.5	0.	123.85
1394	0.50011	9.5	0.	125.78
1395	1.	9.5	0.	126.69
1396	1.5	9.5	0.	126.88
1397	2.	9.4999	0.	127.24
1398	2.5	9.4999	0.	129.54
1399	3.	9.5	0.	125.52
1400	3.5	9.5	0.	115.29
1401	4.	9.5	0.	124.74
1402	4.5	9.5	0.	128.74
1403	5.0001	9.5	0.	126.04
1404	5.5001	9.5	0.	125.15
1405	6.0001	9.5	0.	124.73
1406	6.5001	9.5	0.	124.5
1407	7.0001	9.5	0.	124.45
1408	7.5001	9.5	0.	124.54
1409	8.0001	9.5	0.	124.69
1410	8.5	9.5	0.	124.85
1411	9.	9.5	0.	124.96
1412	9.5	9.5	0.	125.03
1413	9.5	9.	0.	125.16
1414	9.5001	8.5	0.	125.35
1415	9.5001	8.	0.	125.57
1416	9.5001	7.4999	0.	125.78
1417	9.5	6.9997	0.	125.91
1418	9.4995	5.9984	0.	125.84
1419	9.4988	5.4972	0.	125.84
1420	9.4958	4.494	0.	126.59
1421	9.4925	3.991	0.	127.26
1422	9.4873	3.4863	0.	127.91
1423	9.4839	2.9841	0.	128.33
1424	9.4847	2.4845	0.	128.45
1425	9.4885	1.9841	0.	128.27
1426	9.4916	1.4815	0.	127.85
1427	9.494	0.98273	0.	127.28
1428	9.4945	0.48532	0.	126.7
1429	9.4985	-1.1445e-002	0.	126.35
1430	9.5053	-0.50899	0.	126.42
1431	9.5104	-1.0078	0.	126.95
1432	9.51	-1.5078	0.	127.76
1433	9.5051	-2.0063	0.	128.57
1434	9.5017	-2.5041	0.	129.22
1435	9.5004	-3.0026	0.	129.65
1436	9.4999	-3.5016	0.	129.85
1437	9.4997	-4.001	0.	129.84
1438	9.4996	-4.5006	0.	129.71
1439	9.4995	-5.0003	0.	129.68
1440	9.4996	-5.5	0.	130.01
1441	9.4998	-6.	0.	130.71
1442	9.4999	-6.5	0.	131.35
1443	9.5	-7.	0.	131.51
1444	9.5	-7.5	0.	131.61
1445	9.5	-8.	0.	131.85
1446	9.5	-8.5	0.	132.4
1447	9.5	-9.	0.	133.2
1448	9.5	-9.5	0.	134.11
1449	9.	-9.5	0.	133.18
1450	8.5	-9.5	0.	131.38
1451	8.	-9.5	0.	119.28
1452	7.5	-9.5	0.	105.94
1453	7.	-9.5	0.	116.91
1454	6.5	-9.5	0.	127.16
1455	6.	-9.5	0.	127.74
1456	5.5001	-9.5	0.	127.62
1457	5.0001	-9.5	0.	127.6
1458	4.5002	-9.4999	0.	127.83
1459	4.0004	-9.4997	0.	128.23
1460	3.5007	-9.4995	0.	128.64
1461	3.0011	-9.499	0.	128.95
1462	2.5015	-9.4984	0.	129.08
1463	2.002	-9.4978	0.	128.98
1464	1.5026	-9.4973	0.	128.55
1465	1.0032	-9.4972	0.	127.66
1466	0.50374	-9.4973	0.	126.14
1467	3.5502e-003	-9.4979	0.	123.9
1468	-0.49679	-9.499	0.	121.15
1469	-0.99793	-9.5024	0.	118.87
1470	-1.4999	-9.5095	0.	118.15
1471	-2.0026	-9.5127	0.	118.91
1472	-2.5044	-9.5107	0.	119.96
1473	-3.0048	-9.5071	0.	120.35
1474	-3.5039	-9.504	0.	120.29
1475	-4.5018	-9.501	0.	121.65
1476	-5.0011	-9.5005	0.	123.56
1477	-5.5007	-9.5002	0.	125.71
1478	-6.0004	-9.5001	0.	127.53
1479	-6.5002	-9.5001	0.	128.71
1480	-7.0001	-9.5	0.	129.29
1481	-7.5001	-9.5	0.	129.44
1482	-8.	-9.5	0.	129.35
1483	-8.5	-9.5	0.	129.2
1484	-9.	-9.5	0.	129.11
1485	-9.5	-9.5	0.	129.22
1486	-2.211	5.8268	0.	150.16
1487	2.4988	6.9994	0.	127.23
1488	-4.5655	3.9898	0.	131.32
1489	-6.0333	3.4771	0.	130.79
1490	0.4788	3.4959	0.	127.24
1491	-2.5001	-1.0004	0.	123.87
1492	4.6633	-2.2118	0.	128.19
1493	-4.0053	2.4993	0.	124.24
1494	6.522	-2.5834	0.	120.54
1495	-1.0478	3.9701	0.	123.57
1496	5.6228	-2.6309	0.	118.69
1497	-5.	-3.	0.	124.92
1498	6.5369	-3.0534	0.	120.05
1499	-4.6082	4.4908	0.	130.87
1500	-8.0073	4.9982	0.	123.58
1501	-9.	-7.	0.	127.49
1502	1.0091	-4.9887	0.	127.66
1503	-7.5132	3.4939	0.	122.37
1504	4.624	1.6146	0.	131.16
1505	2.0124	-4.9861	0.	126.93
1506	-5.5	-2.5	0.	126.43
1507	-2.6703e-002	3.4912	0.	125.26
1508	2.4999	8.4998	0.	132.67
1509	-2.0405	3.9004	0.	122.82
1510	-4.0047	3.0038	0.	124.37
1511	-3.	-2.	0.	123.45
1512	1.5122	-4.4882	0.	128.29
1513	0.99552	6.498	0.	131.09
1514	-7.0191	4.9895	0.	124.6
1515	5.7997	1.9487	0.	120.17
1516	-8.	-8.	0.	128.83
1517	4.1517	-2.6455	0.	129.9
1518	3.0096	-4.993	0.	127.62
1519	4.6552	-1.3012	0.	140.61
1520	-3.0003	-9.5032e-004	0.	121.33
1521	8.9873	1.4592	0.	128.07
1522	-4.5	-1.5	0.	123.98
1523	-6.5	-5.	0.	129.37
1524	-7.5165	4.4934	0.	123.62
1525	-7.002	5.4935	0.	124.42
1526	8.0003	6.4995	0.	128.91
1527	-5.	-3.5	0.	125.02
1528	-5.5905	4.9111	0.	127.2
1529	7.999	-5.001	0.	126.46
1530	-4.8992e-002	4.994	0.	123.73
1531	-6.9851	6.5007	0.	124.37
1532	7.9916	4.4839	0.	129.18
1533	5.4467	2.9892	0.	127.36
1534	7.0252	-2.4591	0.	124.61
1535	-0.50226	1.494	0.	118.43
1536	6.9233	2.9443	0.	120.34
1537	-7.492	6.4998	0.	124.23
1538	-8.002	5.499	0.	123.88
1539	-6.	-4.5	0.	131.94
1540	2.5172	-5.985	0.	126.03
1541	0.5063	-3.9951	0.	125.26
1542	5.1109	1.0555	0.	129.71
1543	4.5577	0.15292	0.	130.33
1544	6.7	-1.4756	0.	126.7
1545	-6.5387	4.4747	0.	126.32
1546	8.999	-5.0004	0.	128.63
1547	-0.49861	-2.9994	0.	115.36
1548	0.99802	6.9988	0.	130.59
1549	0.99916	7.4994	0.	129.31
1550	-5.5375	3.4754	0.	131.67
1551	7.39	2.4215	0.	125.37
1552	-2.5002	-0.50106	0.	124.5
1553	7.4623	-0.17355	0.	127.19
1554	2.5226	-3.9901	0.	130.42
1555	2.5372	-3.4885	0.	131.59
1556	2.5133	-4.4897	0.	128.84
1557	2.0446	-2.4876	0.	132.4
1558	-7.5	-3.5	0.	128.29
1559	-2.	-2.0001	0.	126.89
1560	-7.9959	6.4997	0.	124.2
1561	-5.2371e-003	1.9952	0.	121.06
1562	7.5006	7.5	0.	124.33
1563	-6.0448	3.9682	0.	129.2
1564	-7.5021	5.4973	0.	124.02
1565	1.0141	-2.9949	0.	125.67
1566	7.503	-3.5096	0.	126.16
1567	-7.	-1.	0.	125.84
1568	3.5466	-3.5131	0.	131.21
1569	7.0114	-3.5144	0.	122.71
1570	2.0153	-5.4839	0.	125.82
1571	7.0057	-4.0114	0.	122.68
1572	7.9613	3.4553	0.	130.05
1573	-3.0004	0.49878	0.	122.45
1574	4.0054	-7.4976	0.	128.55
1575	-8.0015	8.0012	0.	124.69
1576	4.1372	-1.825	0.	132.56
1577	9.4999	6.4991	0.	125.91
1578	-2.8839	7.0319	0.	123.34
1579	4.6384	-2.656	0.	126.9
1580	3.4878	3.0114	0.	130.52
1581	-4.0029	-9.5021	0.	120.54
1582	9.4973	4.9957	0.	126.08
1583	-7.5166	3.9928	0.	123.14
1584	-1.0008	0.99395	0.	121.46
1585	6.5002	9.	0.	123.54
1586	-5.0591	3.9725	0.	131.1
1587	8.	5.9987	0.	129.05
1588	1.9981	6.999	0.	126.98
1589	3.9983	5.0027	0.	125.77
1590	8.9993	-5.5001	0.	128.95
1591	-3.0321	-8.0185	0.	124.38
1592	-3.0104	-9.0135	0.	121.18
1593	7.5006	6.9999	0.	126.18
1594	3.0446	-3.4943	0.	131.48
1595	-4.0109	3.5096	0.	126.9
1596	5.6954	-1.6822	0.	111.48
1597	9.	-9.	0.	132.74
1598	-6.995	7.0043	0.	124.48
1599	-6.5003	-7.5	0.	130.12
1600	4.1331	-1.3512	0.	132.8
1601	2.0202	-3.9882	0.	130.05
1602	-5.5024	-8.0003	0.	128.93
1603	-5.	-2.5	0.	124.96
1604	-7.0001	-2.233e-004	0.	126.27
1605	-5.	-4.	0.	125.34
1606	-8.	-7.5	0.	128.38
1607	3.5102	-6.9945	0.	128.71
1608	2.4968	5.9993	0.	120.31
1609	5.029	-4.0484	0.	124.29
1610	2.9917	3.0051	0.	120.67
1611	6.0005	7.	0.	121.63
1612	-6.0007	0.49845	0.	130.84
1613	-5.0126	2.4914	0.	131.59
1614	-1.1061	4.9902	0.	116.69
1615	3.4989	6.0002	0.	119.52
1616	-4.9979	9.0021	0.	125.71
1617	7.3269	0.38045	0.	129.1
1618	-2.0006	0.49427	0.	130.52
1619	7.5017	-4.0063	0.	127.25
1620	-3.5656	4.0608	0.	126.14
1621	-1.4998	-3.	0.	124.66
1622	5.0001	6.5002	0.	132.92
1623	-2.4918	8.988	0.	127.37
1624	7.0002	9.	0.	123.75
1625	6.2082	-1.6139	0.	115.47
1626	4.1631	-0.37539	0.	127.72
1627	-7.4961	7.001	0.	124.38
1628	-5.	-2.	0.	125.1
1629	3.0241	-3.9964	0.	130.64
1630	-5.5019	0.99696	0.	128.
1631	-5.5	-3.5	0.	128.02
1632	-2.385e-003	1.4966	0.	117.99
1633	-5.	-0.50021	0.	127.27
1634	4.5022	-7.9993	0.	126.7
1635	7.9977	0.89796	0.	128.39
1636	-7.5	-4.5	0.	128.26
1637	-0.51843	2.9842	0.	123.78
1638	6.3706	2.4345	0.	120.05
1639	5.8798	2.4575	0.	121.57
1640	6.0799	-2.6343	0.	118.05
1641	6.8809	0.67489	0.	129.57
1642	4.1459	-0.86155	0.	131.41
1643	-1.5167	-8.0801	0.	110.91
1644	6.4414	0.44938	0.	125.32
1645	6.1109	0.86897	0.	116.4
1646	5.6144	1.0148	0.	112.9
1647	-3.0025	5.1025	0.	123.99
1648	-3.24	5.19	0.	150.57
1649	-3.2081	4.8098	0.	133.1
1650	-3.485	4.9954	0.	142.88
1651	-2.3474	5.5309	0.	126.81
1652	-2.4675	5.3075	0.	134.53
1653	-1.9588	5.4681	0.	143.46
1654	-2.1706	5.1477	0.	155.25
1655	-3.12	5.95	0.	137.06
1656	-2.9412	6.0179	0.	113.29
1657	-3.3047	6.2227	0.	136.31
1658	-3.0255	6.3607	0.	122.87
1659	5.42	-0.78833	0.	136.25
1660	5.2549	-0.60713	0.	149.12
1661	5.175	-1.056	0.	146.05
1662	4.9289	-0.83016	0.	145.5
1663	6.38	-0.58167	0.	134.04
1664	6.455	-0.34833	0.	128.55
1665	6.8108	-0.4377	0.	145.48
1666	6.6295	-0.76176	0.	153.24
1667	5.5549	0.32643	0.	119.78
1668	5.795	0.37833	0.	99.033
1669	5.3562	0.57421	0.	124.25
1670	5.8704	0.71448	0.	115.12
1671	5.6222	0.78742	0.	113.94
1672	-0.72458	-6.15	0.	132.62
1673	-0.85551	-6.3263	0.	139.44
1674	-0.765	-6.52	0.	129.37
1675	-0.51495	-6.3753	0.	127.22
1676	-2.04	-6.255	0.	148.79
1677	-1.9317	-6.695	0.	129.24
1678	-1.9053	-6.4838	0.	137.04
1679	-2.3109	-6.5715	0.	147.21
1680	-1.105	-7.4	0.	106.82
1681	-1.3383	-7.435	0.	97.409
1682	-1.4056	-7.6662	0.	113.26
1683	-1.0713	-7.7719	0.	112.81
1684	2.	4.75	0.	138.14
1685	2.25	5.	0.	121.48
1686	1.7447	4.999	0.	132.81
1687	1.9973	5.2494	0.	128.91
1688	2.	4.25	0.	137.76
1689	2.25	4.	0.	120.87
1690	1.9971	3.7502	0.	127.36
1691	1.7451	3.9997	0.	131.11
1692	2.75	5.	0.	120.61
1693	3.	4.75	0.	135.89
1694	3.2496	5.0006	0.	128.86
1695	2.9992	5.25	0.	126.48
1696	2.75	4.	0.	119.89
1697	3.	4.25	0.	135.46
1698	3.2481	4.0022	0.	130.05
1699	2.9974	3.7515	0.	126.01
1700	6.	5.75	0.	137.02
1701	6.25	6.	0.	119.85
1702	5.75	6.0001	0.	132.06
1703	6.0002	6.25	0.	127.55
1704	6.	4.25	0.	136.75
1705	6.25	4.	0.	119.63
1706	5.7466	3.9989	0.	131.23
1707	5.986	3.7426	0.	127.88
1708	6.75	6.	0.	119.86
1709	7.	5.75	0.	136.74
1710	7.0002	6.25	0.	127.5
1711	7.25	5.9996	0.	131.02
1712	6.75	4.	0.	118.73
1713	7.	4.25	0.	135.77
1714	7.2428	3.9893	0.	130.49
1715	6.9809	3.7345	0.	125.52
1716	3.	8.75	0.	138.54
1717	3.25	9.	0.	122.74
1718	2.75	8.9999	0.	132.34
1719	3.	9.25	0.	130.59
1720	3.	7.25	0.	134.63
1721	3.25	7.	0.	118.37
1722	2.9993	6.7499	0.	125.34
1723	2.7494	6.9997	0.	128.46
1724	3.75	9.	0.	122.41
1725	4.	8.75	0.	138.62
1726	4.25	9.	0.	131.96
1727	4.	9.25	0.	129.83
1728	3.75	7.	0.	119.55
1729	4.	7.25	0.	137.4
1730	4.25	7.0001	0.	132.25
1731	3.9998	6.7501	0.	127.96
1732	-2.	7.75	0.	139.07
1733	-1.75	8.	0.	125.06
1734	-2.2344	7.9919	0.	132.34
1735	-1.996	8.2483	0.	130.47
1736	-2.	6.25	0.	150.08
1737	-1.75	6.	0.	133.53
1738	-2.1055	5.9134	0.	151.45
1739	-0.25	8.	0.	125.91
1740	0.	7.75	0.	141.08
1741	1.6595e-004	8.25	0.	132.03
1742	0.24994	7.9999	0.	134.16
1743	-0.25	6.	0.	125.26
1744	0.	6.25	0.	141.37
1745	-1.8144e-002	5.7477	0.	131.04
1746	0.24553	5.9985	0.	135.12
1747	-4.	1.75	0.	137.64
1748	-3.75	2.	0.	121.64
1749	-4.2521	1.9986	0.	131.78
1750	-4.0027	2.2496	0.	128.79
1751	-4.	1.25	0.	137.51
1752	-3.75	1.	0.	121.39
1753	-4.0001	0.7499	0.	128.02
1754	-4.2504	0.99945	0.	131.09
1755	-3.25	2.	0.	121.
1756	-3.	1.75	0.	136.83
1757	-2.751	1.989	0.	129.7
1758	-3.0017	2.2368	0.	126.88
1759	-3.25	1.	0.	121.17
1760	-3.	1.25	0.	137.15
1761	-2.7505	0.9966	0.	131.05
1762	-3.0002	0.74939	0.	127.55
1763	2.	1.75	0.	137.08
1764	2.25	2.	0.	119.79
1765	1.7488	1.9999	0.	130.46
1766	1.998	2.2502	0.	126.03
1767	2.	0.25	0.	141.36
1768	2.25	0.	0.	122.01
1769	2.0074	-0.24844	0.	130.53
1770	1.7507	-7.9455e-007	0.	135.85
1771	2.75	2.	0.	121.38
1772	3.	1.75	0.	139.37
1773	2.9967	2.2523	0.	128.78
1774	3.2504	2.0081	0.	133.93
1775	2.75	0.	0.	120.72
1776	3.	0.25	0.	138.17
1777	3.0246	-0.23701	0.	129.14
1778	3.2738	2.4291e-002	0.	131.8
1779	-9.	1.75	0.	143.14
1780	-8.75	2.	0.	128.54
1781	-9.0004	2.2498	0.	132.83
1782	-9.25	2.	0.	135.52
1783	-9.	1.25	0.	143.13
1784	-8.75	1.	0.	128.73
1785	-9.	0.75	0.	132.98
1786	-9.25	1.	0.	135.86
1787	-7.25	2.	0.	127.67
1788	-7.	1.75	0.	141.14
1789	-7.0036	2.2477	0.	132.28
1790	-6.7523	1.9975	0.	134.55
1791	-7.25	1.	0.	127.74
1792	-7.	1.25	0.	141.36
1793	-6.7505	0.99916	0.	134.41
1794	-7.0001	0.74983	0.	132.71
1795	-1.	-0.25	0.	137.83
1796	-0.75	0.	0.	122.69
1797	-1.0001	0.24856	0.	128.56
1798	-1.2501	-1.4031e-003	0.	131.84
1799	-1.	-1.75	0.	137.33
1800	-0.75	-2.	0.	122.28
1801	-0.99985	-2.25	0.	128.07
1802	-1.25	-2.	0.	130.64
1803	0.75	0.	0.	125.8
1804	1.	-0.25	0.	143.06
1805	0.99996	0.24988	0.	133.19
1806	1.2507	-7.9455e-007	0.	137.01
1807	0.75	-2.	0.	124.59
1808	1.	-1.75	0.	140.07
1809	1.2598	-1.9974	0.	133.78
1810	1.006	-2.2484	0.	130.84
1811	5.	-5.25	0.	140.08
1812	5.25	-5.	0.	126.19
1813	4.7526	-5.0052	0.	133.34
1814	5.0064	-4.762	0.	131.01
1815	5.	-5.75	0.	140.35
1816	5.25	-6.	0.	127.25
1817	5.0012	-6.2499	0.	131.79
1818	4.7517	-6.0003	0.	133.77
1819	6.75	-5.	0.	123.47
1820	7.	-5.25	0.	135.44
1821	7.2498	-5.0007	0.	129.63
1822	7.0011	-4.7527	0.	127.61
1823	6.75	-6.	0.	124.34
1824	7.	-5.75	0.	135.37
1825	7.2499	-6.0001	0.	126.64
1826	7.	-6.25	0.	128.11
1827	-5.	-5.25	0.	140.16
1828	-4.75	-5.	0.	125.04
1829	-5.	-4.75	0.	131.51
1830	-5.25	-5.	0.	134.18
1831	-5.	-6.75	0.	138.96
1832	-4.75	-7.	0.	123.19
1833	-5.0014	-7.2502	0.	129.72
1834	-5.2502	-7.	0.	132.91
1835	-3.25	-5.	0.	127.51
1836	-3.	-5.25	0.	143.93
1837	-3.	-4.7502	0.	134.95
1838	-2.7501	-5.0019	0.	137.51
1839	-3.25	-7.	0.	124.11
1840	-3.	-6.75	0.	140.74
1841	-2.8028	-7.2236	0.	135.84
1842	-2.7709	-6.8165	0.	131.59
1843	-3.031	-7.262	0.	130.06
1844	7.	-7.25	0.	134.74
1845	7.25	-7.	0.	120.74
1846	7.	-6.75	0.	128.25
1847	6.7502	-7.	0.	127.38
1848	7.	-8.75	0.	131.92
1849	7.25	-9.	0.	115.42
1850	6.75	-9.	0.	126.59
1851	7.	-9.25	0.	122.02
1852	7.75	-7.	0.	122.49
1853	8.	-7.25	0.	139.21
1854	7.9999	-6.7501	0.	130.7
1855	8.25	-7.	0.	134.37
1856	7.75	-9.	0.	116.97
1857	8.	-8.75	0.	135.44
1858	8.25	-9.	0.	130.49
1859	8.	-9.25	0.	124.75
1860	-2.	-5.25	0.	138.58
1861	-1.75	-5.	0.	122.27
1862	-2.	-4.7502	0.	131.15
1863	-2.2501	-5.0019	0.	135.34
1864	-2.	-5.75	0.	136.67
1865	-1.7918	-6.	0.	116.87
1866	-2.2549	-6.021	0.	142.75
1867	-0.25	-5.	0.	123.68
1868	0.	-5.25	0.	139.95
1869	1.2053e-003	-4.749	0.	129.49
1870	0.25251	-4.9968	0.	132.14
1871	-0.19229	-6.	0.	137.64
1872	0.	-5.75	0.	142.05
1873	0.25983	-5.9937	0.	134.17
1874	3.7194e-002	-6.2413	0.	133.07
1875	9.75	10.	0.	125.
1876	10.	9.75	0.	124.99
1877	-9.75	10.	0.	125.01
1878	-10.	9.75	0.	125.
1879	10.	-9.75	0.	136.49
1880	9.75	-10.	0.	135.68
1881	-10.	-9.75	0.	129.77
1882	-9.75	-10.	0.	129.56
1883	-0.97047	-6.	0.	109.97
1884	-0.57688	-6.	0.	126.32
1885	-2.6436	5.7738	0.	81.892
1886	-2.3529	5.7393	0.	112.53
1887	-2.6903	4.9803	0.	101.94
1888	-3.18	5.57	0.	144.92
1889	-3.4467	5.4068	0.	141.1
1890	-3.3827	5.8129	0.	135.3
1891	-2.6368	6.1231	0.	109.8
1892	5.9	-0.685	0.	103.37
1893	5.6675	-0.97143	0.	106.23
1894	6.153	-0.87469	0.	103.16
1895	5.4048	-0.1407	0.	132.41
1896	5.0343	-0.3363	0.	134.95
1897	5.2436	0.11764	0.	128.06
1898	6.125	1.4999e-002	0.	87.353
1899	6.5524	-2.9152e-002	0.	113.42
1900	6.2007	0.32302	0.	105.27
1901	-1.206	-6.3789	0.	113.95
1902	-1.1014	-6.1763	0.	119.22
1903	-1.4823	-6.2026	0.	97.134
1904	-1.5558	-6.4314	0.	102.06
1905	-0.935	-6.96	0.	113.69
1906	-0.63758	-6.8364	0.	122.08
1907	-0.79537	-7.3336	0.	115.12
1908	-1.635	-7.065	0.	95.604
1909	-2.0022	-6.9823	0.	118.81
1910	-1.6772	-7.3233	0.	105.76
1911	1.7449	4.4993	0.	136.93
1912	2.4986	5.2498	0.	110.99
1913	2.4978	3.7506	0.	109.78
1914	3.2491	4.5013	0.	134.37
1915	6.	5.25	0.	141.84
1916	5.7499	5.5001	0.	137.75
1917	6.	4.75	0.	141.49
1918	5.7497	5.	0.	138.31
1919	5.7491	4.4998	0.	137.02
1920	6.5002	6.25	0.	108.99
1921	6.4834	3.7385	0.	108.75
1922	7.	5.25	0.	141.41
1923	7.2499	5.4991	0.	137.07
1924	7.	4.75	0.	141.3
1925	7.2494	4.9979	0.	138.03
1926	7.2477	4.4951	0.	136.82
1927	3.	8.25	0.	141.51
1928	2.7499	8.4999	0.	137.33
1929	3.	7.75	0.	140.19
1930	2.7499	7.9999	0.	137.24
1931	2.7497	7.4998	0.	135.2
1932	3.5	9.25	0.	112.84
1933	3.4996	6.75	0.	108.62
1934	4.	8.25	0.	142.85
1935	4.25	8.5	0.	137.84
1936	4.	7.75	0.	142.64
1937	4.2501	8.	0.	138.81
1938	4.2501	7.5	0.	138.02
1939	-2.	7.25	0.	144.7
1940	-2.2243	7.4868	0.	137.75
1941	-2.	6.75	0.	147.02
1942	-2.2265	6.9656	0.	138.6
1943	-2.2406	6.4251	0.	138.99
1944	-1.25	8.	0.	118.24
1945	-1.4983	8.2496	0.	115.79
1946	-0.75	8.	0.	118.22
1947	-0.99926	8.2499	0.	118.62
1948	-0.49966	8.25	0.	116.
1949	-1.25	6.	0.	117.59
1950	-1.6088	5.7631	0.	111.77
1951	-0.75	6.	0.	116.67
1952	-1.0679	5.7506	0.	116.28
1953	-0.53167	5.7479	0.	114.32
1954	0.	7.25	0.	146.46
1955	0.24979	7.4998	0.	140.37
1956	0.	6.75	0.	146.8
1957	0.24943	6.9997	0.	142.26
1958	0.24853	6.4993	0.	141.33
1959	-4.2509	1.4991	0.	136.2
1960	-3.502	2.2466	0.	111.28
1961	-3.5001	0.74987	0.	110.98
1962	-2.7507	1.4941	0.	135.5
1963	2.	1.25	0.	144.62
1964	1.7495	1.4999	0.	137.92
1965	2.	0.75	0.	146.43
1966	1.7498	0.99995	0.	141.37
1967	1.75	0.49997	0.	143.13
1968	2.4979	2.2506	0.	109.23
1969	2.5134	-0.24542	0.	109.79
1970	3.	1.25	0.	144.65
1971	3.2603	1.5107	0.	140.43
1972	3.	0.75	0.	143.98
1973	3.2629	1.0137	0.	141.28
1974	3.2638	0.51742	0.	139.16
1975	-9.25	1.5	0.	141.05
1976	-8.25	2.	0.	121.93
1977	-8.5008	2.2497	0.	118.98
1978	-7.75	2.	0.	121.74
1979	-8.0014	2.2493	0.	121.9
1980	-7.5024	2.2487	0.	118.86
1981	-8.25	1.	0.	122.21
1982	-8.5	0.75	0.	119.42
1983	-7.75	1.	0.	121.65
1984	-8.	0.74999	0.	122.08
1985	-7.5	0.74997	0.	118.73
1986	-6.7511	1.4985	0.	138.73
1987	-1.	-0.75	0.	142.96
1988	-1.25	-0.50066	0.	137.49
1989	-1.	-1.25	0.	142.64
1990	-1.25	-1.0003	0.	138.48
1991	-1.25	-1.5001	0.	136.78
1992	-0.25	0.	0.	115.18
1993	-0.50009	0.24916	0.	112.67
1994	0.25	0.	0.	115.8
1995	-1.0335e-004	0.24952	0.	115.43
1996	0.49989	0.24975	0.	114.04
1997	-0.25	-2.	0.	115.
1998	-0.4995	-2.2499	0.	112.27
1999	0.25	-2.	0.	116.32
2000	1.3294e-003	-2.2497	0.	115.78
2001	0.50263	-2.2494	0.	114.8
2002	1.	-0.75	0.	147.95
2003	1.2533	-0.49967	0.	143.46
2004	1.	-1.25	0.	146.66
2005	1.2557	-0.99911	0.	142.28
2006	1.2578	-1.4983	0.	139.55
2007	4.7517	-5.5017	0.	137.87
2008	5.75	-5.	0.	119.4
2009	5.5059	-4.7613	0.	116.82
2010	6.25	-5.	0.	118.77
2011	6.0052	-4.7591	0.	119.27
2012	6.5031	-4.7559	0.	115.61
2013	5.75	-6.	0.	121.68
2014	5.5006	-6.2499	0.	118.71
2015	6.25	-6.	0.	121.13
2016	6.0003	-6.25	0.	122.38
2017	6.5001	-6.25	0.	119.55
2018	7.2498	-5.5003	0.	132.55
2019	-5.	-5.75	0.	144.91
2020	-5.25	-5.5	0.	139.58
2021	-5.	-6.25	0.	144.54
2022	-5.25	-6.	0.	140.55
2023	-5.25	-6.5	0.	138.92
2024	-4.25	-5.	0.	117.34
2025	-4.5	-4.75	0.	115.34
2026	-3.75	-5.	0.	117.99
2027	-4.	-4.75	0.	118.15
2028	-3.5	-4.75	0.	116.8
2029	-4.25	-7.	0.	114.86
2030	-4.5027	-7.2504	0.	113.23
2031	-3.75	-7.	0.	115.
2032	-4.0055	-7.2512	0.	115.36
2033	-3.5125	-7.2533	0.	113.76
2034	-3.	-5.75	0.	149.07
2035	-2.7506	-5.5065	0.	144.76
2036	-3.	-6.25	0.	147.67
2037	-2.7549	-6.021	0.	152.04
2038	-2.7709	-6.5665	0.	136.83
2039	7.	-7.75	0.	137.96
2040	6.7501	-7.5	0.	132.85
2041	7.	-8.25	0.	137.48
2042	6.7501	-8.	0.	133.85
2043	6.75	-8.5	0.	132.76
2044	7.5	-6.75	0.	113.11
2045	7.5	-9.25	0.	104.93
2046	8.	-7.75	0.	142.96
2047	8.25	-7.5	0.	139.53
2048	8.	-8.25	0.	141.77
2049	8.25	-8.	0.	139.68
2050	8.25	-8.5	0.	137.66
2051	-2.2506	-5.5065	0.	141.61
2052	-1.25	-5.	0.	112.5
2053	-1.4999	-4.75	0.	111.67
2054	-0.75	-5.	0.	113.66
2055	-0.9997	-4.7499	0.	113.45
2056	-0.49928	-4.7496	0.	112.7
2057	-1.3777	-6.	0.	103.02
2058	-1.6571	-6.2288	0.	105.72
2059	-0.36724	-6.2253	0.	122.29
2060	0.25414	-5.496	0.	137.96
2061	9.25	10.	0.	124.97
2062	9.5	9.75	0.	125.01
2063	8.75	10.	0.	124.89
2064	9.	9.75	0.	124.95
2065	8.25	10.	0.	124.77
2066	8.5	9.75	0.	124.84
2067	7.75	10.	0.	124.67
2068	8.	9.75	0.	124.7
2069	7.25	10.	0.	124.67
2070	7.5	9.75	0.	124.58
2071	6.75	10.	0.	124.88
2072	7.	9.75	0.	124.58
2073	6.25	10.	0.	125.36
2074	6.5	9.75	0.	124.77
2075	5.75	10.	0.	126.07
2076	6.	9.75	0.	125.2
2077	5.25	10.	0.	126.79
2078	5.5	9.75	0.	125.8
2079	4.75	10.	0.	126.29
2080	5.	9.75	0.	126.57
2081	4.25	10.	0.	122.92
2082	4.5	9.75	0.	127.08
2083	3.75	10.	0.	119.59
2084	4.	9.75	0.	122.44
2085	3.25	10.	0.	119.94
2086	3.5	9.75	0.	116.91
2087	2.75	10.	0.	124.07
2088	3.	9.75	0.	123.16
2089	2.25	10.	0.	128.24
2090	2.5	9.75	0.	128.27
2091	1.75	10.	0.	129.24
2092	2.	9.75	0.	128.29
2093	1.25	10.	0.	128.41
2094	1.5	9.75	0.	127.95
2095	0.75	10.	0.	126.61
2096	1.	9.75	0.	127.2
2097	0.25	10.	0.	124.04
2098	0.50005	9.75	0.	125.58
2099	-0.25	10.	0.	121.45
2100	1.1012e-004	9.75	0.	123.2
2101	-0.75	10.	0.	119.73
2102	-0.49979	9.75	0.	120.88
2103	-1.25	10.	0.	119.4
2104	-0.99964	9.75	0.	119.76
2105	-1.75	10.	0.	120.46
2106	-1.4994	9.7498	0.	120.3
2107	-2.25	10.	0.	122.36
2108	-1.9991	9.7491	0.	122.08
2109	-2.75	10.	0.	124.31
2110	-2.4987	9.7472	0.	124.05
2111	-3.25	10.	0.	125.69
2112	-2.9982	9.7441	0.	125.39
2113	-3.75	10.	0.	126.41
2114	-3.4978	9.7416	0.	126.02
2115	-4.25	10.	0.	126.69
2116	-3.9974	9.7411	0.	126.29
2117	-4.75	10.	0.	126.73
2118	-4.4978	9.7453	0.	126.38
2119	-5.25	10.	0.	126.63
2120	-4.9987	9.7496	0.	126.37
2121	-5.75	10.	0.	126.45
2122	-5.5	9.7521	0.	126.27
2123	-6.25	10.	0.	126.23
2124	-6.0007	9.7524	0.	126.11
2125	-6.75	10.	0.	125.99
2126	-6.5009	9.7517	0.	125.92
2127	-7.25	10.	0.	125.75
2128	-7.0007	9.751	0.	125.72
2129	-7.75	10.	0.	125.52
2130	-7.5005	9.7505	0.	125.53
2131	-8.25	10.	0.	125.32
2132	-8.0003	9.7502	0.	125.35
2133	-8.75	10.	0.	125.15
2134	-8.5001	9.7501	0.	125.19
2135	-9.25	10.	0.	125.04
2136	-9.0001	9.75	0.	125.07
2137	-9.5	9.75	0.	124.99
2138	10.	9.25	0.	125.04
2139	9.75	9.5	0.	125.01
2140	10.	8.75	0.	125.19
2141	9.75	9.	0.	125.12
2142	10.	8.25	0.	125.39
2143	9.75	8.5	0.	125.32
2144	10.	7.75	0.	125.56
2145	9.75	8.	0.	125.53
2146	10.	7.25	0.	125.57
2147	9.75	7.4999	0.	125.7
2148	10.	6.75	0.	125.35
2149	9.75	6.9998	0.	125.71
2150	10.	6.25	0.	124.98
2151	9.7499	6.4996	0.	125.55
2152	10.	5.75	0.	124.66
2153	9.7498	5.9992	0.	125.3
2154	10.	5.25	0.	124.66
2155	9.7494	5.4986	0.	125.19
2156	10.	4.75	0.	125.16
2157	9.7487	4.9978	0.	125.43
2158	10.	4.25	0.	126.12
2159	9.7479	4.497	0.	126.06
2160	10.	3.75	0.	127.28
2161	9.7463	3.9955	0.	126.97
2162	10.	3.25	0.	128.3
2163	9.7437	3.4931	0.	127.89
2164	10.	2.75	0.	128.89
2165	9.742	2.992	0.	128.53
2166	10.	2.25	0.	128.91
2167	9.7424	2.4923	0.	128.75
2168	10.	1.75	0.	128.39
2169	9.7443	1.992	0.	128.52
2170	10.	1.25	0.	127.47
2171	9.7458	1.4908	0.	127.92
2172	10.	0.75	0.	126.41
2173	9.747	0.99136	0.	127.1
2174	10.	0.25	0.	125.56
2175	9.7473	0.49266	0.	126.29
2176	10.	-0.25	0.	125.26
2177	9.7493	-5.7227e-003	0.	125.8
2178	10.	-0.75	0.	125.69
2179	9.7526	-0.5045	0.	125.86
2180	10.	-1.25	0.	126.73
2181	9.7552	-1.0039	0.	126.52
2182	10.	-1.75	0.	128.04
2183	9.755	-1.5039	0.	127.56
2184	10.	-2.25	0.	129.28
2185	9.7526	-2.0032	0.	128.64
2186	10.	-2.75	0.	130.17
2187	9.7509	-2.502	0.	129.53
2188	10.	-3.25	0.	130.63
2189	9.7502	-3.0013	0.	130.08
2190	10.	-3.75	0.	130.65
2191	9.75	-3.5008	0.	130.29
2192	10.	-4.25	0.	130.4
2193	9.7498	-4.0005	0.	130.2
2194	10.	-4.75	0.	130.15
2195	9.7498	-4.5003	0.	129.97
2196	10.	-5.25	0.	130.21
2197	9.7498	-5.0001	0.	129.88
2198	10.	-5.75	0.	130.61
2199	9.7498	-5.5	0.	130.18
2200	10.	-6.25	0.	130.95
2201	9.7499	-6.	0.	130.79
2202	10.	-6.75	0.	130.82
2203	9.75	-6.5	0.	131.19
2204	10.	-7.25	0.	130.35
2205	9.75	-7.	0.	131.05
2206	10.	-7.75	0.	130.22
2207	9.75	-7.5	0.	130.85
2208	10.	-8.25	0.	131.01
2209	9.75	-8.	0.	131.1
2210	10.	-8.75	0.	132.8
2211	9.75	-8.5	0.	132.04
2212	10.	-9.25	0.	134.98
2213	9.75	-9.	0.	133.55
2214	9.75	-9.5	0.	135.07
2215	-10.	9.25	0.	124.92
2216	-9.75	9.5	0.	124.98
2217	-10.	8.75	0.	124.71
2218	-9.7501	9.	0.	124.83
2219	-10.	8.25	0.	124.42
2220	-9.7501	8.5	0.	124.61
2221	-10.	7.75	0.	124.13
2222	-9.75	8.	0.	124.36
2223	-10.	7.25	0.	123.89
2224	-9.7499	7.5	0.	124.13
2225	-10.	6.75	0.	123.77
2226	-9.7498	7.	0.	123.99
2227	-10.	6.25	0.	123.81
2228	-9.7498	6.5	0.	123.95
2229	-10.	5.75	0.	124.08
2230	-9.75	6.	0.	124.08
2231	-10.	5.25	0.	124.65
2232	-9.7503	5.5	0.	124.41
2233	-10.	4.75	0.	125.62
2234	-9.7506	5.	0.	125.
2235	-10.	4.25	0.	127.11
2236	-9.7508	4.4999	0.	125.91
2237	-10.	3.75	0.	129.24
2238	-9.751	3.9998	0.	127.24
2239	-10.	3.25	0.	131.83
2240	-9.7506	3.4998	0.	129.05
2241	-10.	2.75	0.	133.15
2242	-9.7504	2.9999	0.	131.29
2243	-10.	2.25	0.	130.64
2244	-9.7502	2.4999	0.	133.23
2245	-10.	1.75	0.	126.03
2246	-9.75	2.	0.	130.82
2247	-10.	1.25	0.	126.46
2248	-9.75	1.5	0.	128.82
2249	-10.	0.75	0.	131.81
2250	-9.75	1.	0.	131.58
2251	-10.	0.25	0.	134.83
2252	-9.75	0.5	0.	134.44
2253	-10.	-0.25	0.	133.96
2254	-9.75	-2.5295e-007	0.	132.92
2255	-10.	-0.75	0.	131.84
2256	-9.75	-0.5	0.	131.15
2257	-10.	-1.25	0.	130.17
2258	-9.75	-1.	0.	129.81
2259	-10.	-1.75	0.	129.05
2260	-9.75	-1.5	0.	128.89
2261	-10.	-2.25	0.	128.31
2262	-9.75	-2.	0.	128.28
2263	-10.	-2.75	0.	127.77
2264	-9.75	-2.5	0.	127.85
2265	-10.	-3.25	0.	127.3
2266	-9.75	-3.	0.	127.49
2267	-10.	-3.75	0.	126.85
2268	-9.75	-3.5	0.	127.14
2269	-10.	-4.25	0.	126.42
2270	-9.75	-4.	0.	126.79
2271	-10.	-4.75	0.	126.04
2272	-9.75	-4.5	0.	126.47
2273	-10.	-5.25	0.	125.8
2274	-9.75	-5.	0.	126.21
2275	-10.	-5.75	0.	125.76
2276	-9.75	-5.5	0.	126.1
2277	-10.	-6.25	0.	125.97
2278	-9.75	-6.	0.	126.18
2279	-10.	-6.75	0.	126.41
2280	-9.75	-6.5	0.	126.47
2281	-10.	-7.25	0.	127.03
2282	-9.75	-7.	0.	126.94
2283	-10.	-7.75	0.	127.75
2284	-9.75	-7.5	0.	127.52
2285	-10.	-8.25	0.	128.47
2286	-9.75	-8.	0.	128.14
2287	-10.	-8.75	0.	129.09
2288	-9.75	-8.5	0.	128.72
2289	-10.	-9.25	0.	129.54
2290	-9.75	-9.	0.	129.17
2291	-9.75	-9.5	0.	129.47
2292	-9.25	-10.	0.	129.23
2293	-9.5	-9.75	0.	129.26
2294	-8.75	-10.	0.	129.2
2295	-9.	-9.75	0.	129.13
2296	-8.25	-10.	0.	129.3
2297	-8.5	-9.75	0.	129.21
2298	-7.75	-10.	0.	129.4
2299	-8.	-9.75	0.	129.36
2300	-7.25	-10.	0.	129.32
2301	-7.5	-9.75	0.	129.43
2302	-6.75	-10.	0.	128.9
2303	-7.0001	-9.75	0.	129.25
2304	-6.25	-10.	0.	127.97
2305	-6.5001	-9.75	0.	128.65
2306	-5.75	-10.	0.	126.49
2307	-6.0002	-9.7501	0.	127.45
2308	-5.25	-10.	0.	124.6
2309	-5.5003	-9.7501	0.	125.66
2310	-4.75	-10.	0.	122.72
2311	-5.0006	-9.7502	0.	123.58
2312	-4.25	-10.	0.	121.28
2313	-4.5009	-9.7505	0.	121.74
2314	-3.75	-10.	0.	120.5
2315	-4.0014	-9.751	0.	120.63
2316	-3.25	-10.	0.	120.19
2317	-3.502	-9.752	0.	120.29
2318	-2.75	-10.	0.	119.85
2319	-3.0024	-9.7535	0.	120.22
2320	-2.25	-10.	0.	119.2
2321	-2.5022	-9.7554	0.	119.78
2322	-1.75	-10.	0.	118.56
2323	-2.0013	-9.7564	0.	118.84
2324	-1.25	-10.	0.	118.72
2325	-1.5	-9.7547	0.	118.24
2326	-0.75	-10.	0.	120.13
2327	-0.99897	-9.7512	0.	118.99
2328	-0.25	-10.	0.	122.41
2329	-0.49839	-9.7495	0.	121.14
2330	0.25	-10.	0.	124.81
2331	1.7751e-003	-9.749	0.	123.79
2332	0.75	-10.	0.	126.74
2333	0.50187	-9.7487	0.	126.04
2334	1.25	-10.	0.	128.03
2335	1.0016	-9.7486	0.	127.6
2336	1.75	-10.	0.	128.75
2337	1.5013	-9.7486	0.	128.53
2338	2.25	-10.	0.	129.05
2339	2.001	-9.7489	0.	128.98
2340	2.75	-10.	0.	129.05
2341	2.5007	-9.7492	0.	129.1
2342	3.25	-10.	0.	128.85
2343	3.0005	-9.7495	0.	128.97
2344	3.75	-10.	0.	128.52
2345	3.5003	-9.7497	0.	128.67
2346	4.25	-10.	0.	128.2
2347	4.0002	-9.7499	0.	128.29
2348	4.75	-10.	0.	128.01
2349	4.5001	-9.75	0.	127.94
2350	5.25	-10.	0.	128.04
2351	5.0001	-9.75	0.	127.78
2352	5.75	-10.	0.	128.11
2353	5.5	-9.75	0.	127.87
2354	6.25	-10.	0.	126.49
2355	6.	-9.75	0.	127.92
2356	6.75	-10.	0.	120.11
2357	6.5	-9.75	0.	126.02
2358	7.25	-10.	0.	112.75
2359	7.	-9.75	0.	116.07
2360	7.75	-10.	0.	113.84
2361	7.5	-9.75	0.	108.04
2362	8.25	-10.	0.	123.17
2363	8.	-9.75	0.	118.34
2364	8.75	-10.	0.	131.05
2365	8.5	-9.75	0.	130.1
2366	9.25	-10.	0.	133.86
2367	9.	-9.75	0.	133.23
2368	9.5	-9.75	0.	134.27
2369	-5.6804	5.8371	0.	125.3
2370	-5.297	5.7881	0.	125.64
2371	-5.5295	5.5129	0.	125.8
2372	-5.3164	5.5253	0.	125.9
2373	-5.6573	6.0986	0.	125.26
2374	-5.2738	6.0496	0.	125.6
2375	-5.4405	6.4184	0.	125.5
2376	-5.1921	6.2223	0.	125.81
2377	-5.9638	5.7183	0.	125.25
2378	-6.043	5.1983	0.	125.93
2379	-6.2653	5.4664	0.	125.2
2380	-5.8129	5.3942	0.	125.75
2381	-5.9342	6.2614	0.	125.
2382	-6.1817	5.9913	0.	124.86
2383	-5.75	-2.	0.	126.7
2384	-6.	-1.75	0.	127.13
2385	-6.25	-2.	0.	127.12
2386	-6.	-2.25	0.	127.24
2387	-5.5	-1.75	0.	126.49
2388	-5.5	-1.25	0.	127.03
2389	-5.75	-1.5	0.	126.92
2390	-5.25	-1.5	0.	126.05
2391	-5.5	-2.25	0.	126.38
2392	-5.25	-2.	0.	125.71
2393	-6.2208	6.5201	0.	124.78
2394	-5.7174	6.5812	0.	125.25
2395	-5.9873	6.7887	0.	125.
2396	-6.0589	4.7031	0.	127.04
2397	-6.2961	4.9619	0.	125.95
2398	-5.8251	4.9295	0.	126.8
2399	-5.8168	4.4518	0.	128.24
2400	-6.2983	4.4664	0.	127.01
2401	-6.0514	4.2132	0.	128.44
2402	6.0442	-3.3258	0.	118.11
2403	5.8143	-3.097	0.	118.94
2404	6.2955	-3.072	0.	119.24
2405	6.067	-2.8624	0.	118.23
2406	-4.25	-2.	0.	123.34
2407	-4.5	-2.25	0.	123.66
2408	-4.5	-1.75	0.	123.88
2409	-4.75	-2.	0.	124.44
2410	-4.	-2.25	0.	122.86
2411	-4.	-1.75	0.	122.79
2412	-3.75	-2.	0.	122.82
2413	-4.	-2.75	0.	122.54
2414	-4.25	-2.5	0.	123.18
2415	-3.75	-2.5	0.	122.99
2416	-3.75	-3.	0.	122.7
2417	-4.	-3.25	0.	121.52
2418	-4.25	-3.	0.	122.61
2419	-6.5185	5.23	0.	125.22
2420	-6.7758	4.9827	0.	125.05
2421	-6.5356	4.7253	0.	125.91
2422	-6.4833	5.7394	0.	124.8
2423	-6.7532	5.4888	0.	124.68
2424	-6.4683	6.2501	0.	124.63
2425	-6.7232	5.996	0.	124.5
2426	-6.4853	6.7597	0.	124.65
2427	-6.7298	6.5031	0.	124.48
2428	3.3261	-2.9971	0.	131.3
2429	3.6187	-2.7366	0.	130.99
2430	3.8347	-3.0411	0.	130.45
2431	3.5645	-3.26	0.	131.14
2432	-5.5	-0.75012	0.	127.97
2433	-5.25	-1.0001	0.	126.78
2434	-5.75	-1.0001	0.	127.63
2435	-5.0527	6.0628	0.	125.95
2436	-4.9208	5.7376	0.	125.9
2437	-6.25	-1.5	0.	127.09
2438	-6.	-1.25	0.	127.52
2439	-6.5	-2.75	0.	128.11
2440	-6.5	-3.25	0.	128.98
2441	-6.25	-3.	0.	128.35
2442	-6.75	-3.	0.	128.38
2443	-6.5	-2.25	0.	127.44
2444	-6.25	-2.5	0.	127.55
2445	-6.75	-2.5	0.	127.6
2446	-6.5	-1.75	0.	127.08
2447	-6.75	-2.	0.	126.98
2448	-5.4986	6.8583	0.	125.55
2449	-5.2027	6.6617	0.	126.07
2450	2.5118	-5.2368	0.	126.74
2451	2.7615	-5.4881	0.	126.41
2452	2.5151	-5.7354	0.	126.13
2453	2.2641	-5.4848	0.	126.02
2454	-6.	-2.75	0.	127.8
2455	-5.75	-2.5	0.	126.92
2456	-4.5	-2.75	0.	123.26
2457	-4.75	-2.5	0.	124.24
2458	-5.5654	4.2045	0.	129.6
2459	-5.5463	3.7195	0.	131.03
2460	-5.8	3.9659	0.	129.8
2461	-5.3071	3.9681	0.	130.75
2462	-5.3864	5.3521	0.	126.15
2463	-5.595	5.1254	0.	126.62
2464	-3.75	-1.5	0.	122.43
2465	-3.5	-1.75	0.	122.46
2466	-3.5	-1.25	0.	121.81
2467	-3.25	-1.5	0.	122.38
2468	-5.	-1.25	0.	125.8
2469	-4.75	-1.5	0.	124.72
2470	-5.	-1.75	0.	125.28
2471	-4.	-1.25	0.	122.56
2472	-4.25	-1.5	0.	123.34
2473	-5.3324	4.4523	0.	129.23
2474	-5.583	4.6782	0.	128.
2475	2.5211	-6.7356	0.	126.9
2476	2.2739	-6.483	0.	126.34
2477	2.768	-6.487	0.	126.86
2478	2.5191	-6.2348	0.	126.28
2479	2.2615	-4.987	0.	127.1
2480	2.7601	-4.9905	0.	127.44
2481	2.5119	-4.7389	0.	128.05
2482	-6.75	-1.5	0.	126.6
2483	-6.5	-1.25	0.	127.14
2484	-0.53867	3.733	0.	123.72
2485	-0.78093	3.4761	0.	124.
2486	-0.27889	3.4871	0.	124.68
2487	-0.52475	3.2336	0.	123.94
2488	-6.75	-3.5	0.	129.18
2489	-6.25	-3.5	0.	129.45
2490	-6.5	-3.75	0.	129.82
2491	-5.75	-0.50025	0.	128.78
2492	-5.5001	-0.25038	0.	129.02
2493	-5.25	-0.5002	0.	127.9
2494	2.8108	-2.9867	0.	131.73
2495	3.0838	-2.7312	0.	131.09
2496	3.0573	-3.2408	0.	131.5
2497	-0.50784	2.2398	0.	121.6
2498	-0.76026	2.4838	0.	122.71
2499	-0.26026	2.491	0.	123.01
2500	-0.51447	2.7362	0.	123.17
2501	-0.75504	1.9884	0.	121.21
2502	-0.50371	1.7427	0.	119.53
2503	-0.2552	1.9933	0.	120.84
2504	-0.55432	4.2348	0.	122.33
2505	-0.29194	3.9872	0.	124.03
2506	-0.79705	3.9766	0.	123.45
2507	-6.2518	7.0283	0.	124.86
2508	-6.5024	7.2652	0.	124.76
2509	-6.7456	7.0091	0.	124.59
2510	-5.7684	7.0657	0.	125.3
2511	-6.0138	7.29	0.	125.08
2512	-5.3115	7.1119	0.	125.9
2513	-5.5345	7.3257	0.	125.55
2514	-4.8959	7.1184	0.	126.68
2515	-5.0156	6.9153	0.	126.42
2516	-5.0813	7.3554	0.	126.14
2517	-7.2388	5.9981	0.	124.23
2518	-6.9932	5.7455	0.	124.38
2519	-6.9847	6.249	0.	124.35
2520	-3.5	-2.25	0.	122.95
2521	-3.25	-2.	0.	123.1
2522	-3.5	-2.75	0.	123.15
2523	-3.25	-2.5	0.	123.72
2524	-3.25	-3.	0.	124.08
2525	-3.5	-3.25	0.	122.87
2526	3.6352	-2.1942	0.	130.68
2527	3.3764	-2.4707	0.	130.78
2528	3.9113	-2.3595	0.	130.83
2529	3.9034	-2.5559	0.	130.4
2530	-1.3641e-002	2.7431	0.	124.2
2531	0.23418	2.9945	0.	125.99
2532	-2.1988e-002	3.2418	0.	125.09
2533	-0.26785	2.9883	0.	124.36
2534	-6.75	-6.	0.	127.8
2535	-6.25	-6.	0.	129.12
2536	-6.5	-5.75	0.	128.33
2537	-6.5	-6.25	0.	128.29
2538	-4.	-3.75	0.	119.5
2539	-3.75	-3.5	0.	121.69
2540	-4.25	-3.5	0.	121.31
2541	6.0271	-3.7993	0.	117.2
2542	6.278	-3.5483	0.	118.53
2543	5.7896	-3.5672	0.	118.61
2544	6.838	2.1778	0.	122.37
2545	6.8975	2.6837	0.	121.07
2546	7.1308	2.4223	0.	123.6
2547	6.6211	2.4288	0.	120.93
2548	-1.0246	3.2213	0.	123.79
2549	-1.0142	2.7264	0.	123.27
2550	-1.2663	2.9654	0.	123.87
2551	-0.76841	2.9788	0.	123.72
2552	-1.2789	3.4587	0.	123.94
2553	-1.0393	3.7197	0.	123.74
2554	-4.9543	6.4655	0.	126.38
2555	-4.7591	6.1574	0.	126.55
2556	-3.75	-1.	0.	121.94
2557	-3.25	-1.0001	0.	121.73
2558	-3.5	-0.75011	0.	120.95
2559	-4.75	-1.	0.	125.23
2560	-5.	-0.75014	0.	126.71
2561	-5.1463	5.1499	0.	127.
2562	-4.9402	5.4748	0.	126.16
2563	-5.75	-3.	0.	127.58
2564	-6.	-3.25	0.	128.82
2565	-4.5	-3.25	0.	122.42
2566	-4.75	-3.	0.	123.95
2567	-6.25	-1.0001	0.	127.57
2568	-6.	-0.75019	0.	128.44
2569	-7.	-6.25	0.	127.61
2570	-7.25	-6.5	0.	127.64
2571	-6.75	-6.5	0.	128.1
2572	-7.	-6.75	0.	128.14
2573	-7.	-5.75	0.	127.59
2574	-7.25	-6.	0.	127.36
2575	-7.	-5.25	0.	128.07
2576	-7.25	-5.5	0.	127.56
2577	-6.75	-5.5	0.	128.12
2578	-7.	-3.75	0.	129.07
2579	-7.	-4.25	0.	129.15
2580	-7.25	-4.	0.	128.85
2581	-6.75	-4.	0.	129.72
2582	-7.	-3.25	0.	128.58
2583	-7.25	-3.5	0.	128.6
2584	-7.	-2.75	0.	127.87
2585	-7.25	-3.	0.	128.03
2586	-7.	-2.25	0.	127.14
2587	-7.25	-2.5	0.	127.31
2588	-7.	-1.75	0.	126.5
2589	-7.25	-2.	0.	126.54
2590	-7.25	-1.5	0.	125.78
2591	-7.	-1.25	0.	126.03
2592	-7.0254	4.2372	0.	124.98
2593	-7.0226	4.7383	0.	124.72
2594	-7.2713	4.4903	0.	124.23
2595	-6.7824	4.4809	0.	125.58
2596	4.339	-3.0911	0.	128.38
2597	4.068	-3.3107	0.	130.07
2598	4.1194	-2.8604	0.	129.86
2599	5.3308	-3.1073	0.	121.17
2600	5.5597	-3.3384	0.	119.44
2601	5.5987	-2.8671	0.	119.08
2602	3.0115	-5.7399	0.	126.58
2603	3.2587	-5.4933	0.	126.8
2604	3.0098	-5.2418	0.	127.1
2605	-3.	-1.2501	0.	122.3
2606	-2.75	-1.5001	0.	123.33
2607	-3.	-1.75	0.	123.03
2608	2.7681	-6.9887	0.	127.57
2609	3.015	-6.7401	0.	127.53
2610	3.0135	-7.2418	0.	128.08
2611	3.2626	-6.9926	0.	128.29
2612	2.274	-6.985	0.	127.12
2613	2.5183	-7.2384	0.	127.61
2614	2.0269	-6.7324	0.	126.55
2615	2.0236	-7.2353	0.	127.35
2616	1.7795	-6.9831	0.	126.96
2617	2.0123	-4.7368	0.	127.72
2618	1.7622	-4.4878	0.	128.4
2619	2.2627	-4.4886	0.	128.67
2620	2.0162	-4.2378	0.	129.28
2621	2.0241	-6.2315	0.	125.89
2622	1.7793	-6.4811	0.	126.17
2623	1.7719	-5.9823	0.	125.57
2624	2.2694	-5.9833	0.	125.83
2625	2.0184	-5.7328	0.	125.72
2626	-3.	-2.75	0.	124.65
2627	-2.75	-2.5	0.	125.03
2628	-3.	-2.25	0.	123.87
2629	3.0139	-6.2394	0.	126.88
2630	3.2609	-5.9918	0.	126.93
2631	2.765	-5.9872	0.	126.3
2632	3.2626	-6.4917	0.	127.74
2633	4.8389	-3.109	0.	124.9
2634	5.1103	-2.8798	0.	122.61
2635	5.0697	-3.3439	0.	123.16
2636	4.5723	-3.3382	0.	127.34
2637	4.6146	-2.8814	0.	126.92
2638	3.2617	-4.4997	0.	129.49
2639	3.0105	-4.744	0.	128.4
2640	2.7624	-4.4924	0.	129.02
2641	3.0178	-4.2457	0.	129.92
2642	-6.7796	3.9829	0.	126.25
2643	-6.5304	3.7306	0.	128.05
2644	-6.5366	4.2266	0.	126.85
2645	-6.2897	3.9733	0.	128.29
2646	-7.022	3.7383	0.	125.32
2647	-7.2707	3.99	0.	124.13
2648	-6.5	-0.75011	0.	127.73
2649	-6.75	-1.	0.	126.56
2650	-5.25	-3.	0.	125.94
2651	-5.5	-2.75	0.	126.69
2652	-5.5	-3.25	0.	127.49
2653	-7.	-4.75	0.	128.73
2654	-6.75	-4.5	0.	129.64
2655	-7.25	-4.5	0.	128.66
2656	-7.25	-5.	0.	128.11
2657	-6.75	-5.	0.	128.89
2658	-5.1042	4.6972	0.	128.71
2659	-4.8836	4.9724	0.	127.9
2660	-5.3549	4.9232	0.	127.48
2661	-4.8487	4.475	0.	130.27
2662	-5.0741	4.2158	0.	130.38
2663	-4.25	-1.	0.	123.37
2664	-4.5	-0.75007	0.	124.65
2665	-4.5	-1.25	0.	124.14
2666	-4.	-0.75007	0.	122.26
2667	5.1529	-2.4184	0.	122.13
2668	5.3782	-2.6397	0.	120.52
2669	4.886	-2.6523	0.	124.63
2670	-4.8179	6.8986	0.	126.86
2671	-4.6548	7.3186	0.	126.85
2672	-4.4979	7.0406	0.	127.7
2673	-4.6883	6.6188	0.	127.52
2674	-1.5206	3.2027	0.	124.03
2675	-1.7718	3.4338	0.	123.53
2676	-1.5377	3.6955	0.	124.1
2677	7.16	1.241	0.	127.84
2678	7.3339	0.97215	0.	128.9
2679	6.8849	1.0225	0.	127.13
2680	6.9989	0.85017	0.	129.1
2681	7.2643	1.6883	0.	126.51
2682	7.4206	1.4247	0.	127.64
2683	6.9545	1.4565	0.	125.51
2684	-1.0075	2.2324	0.	122.34
2685	-1.2587	2.4736	0.	123.42
2686	3.3518	-1.9435	0.	129.62
2687	3.6109	-1.6677	0.	130.04
2688	3.8763	-1.8736	0.	131.5
2689	1.7729	-7.4864	0.	127.7
2690	1.2781	-7.4843	0.	127.55
2691	1.5289	-7.2342	0.	127.3
2692	1.5214	-7.7373	0.	127.94
2693	2.2678	-7.4887	0.	127.85
2694	2.017	-7.7391	0.	128.05
2695	2.7637	-7.4915	0.	128.12
2696	2.5131	-7.7414	0.	128.2
2697	3.26	-7.4943	0.	128.45
2698	3.01	-7.7439	0.	128.4
2699	3.5068	-7.7463	0.	128.52
2700	3.7568	-7.4966	0.	128.58
2701	3.5092	-7.2451	0.	128.66
2702	7.2631	-3.0134	0.	124.74
2703	6.7777	-3.0306	0.	121.64
2704	7.0219	-2.7334	0.	123.92
2705	7.015	-3.2611	0.	122.97
2706	-2.75	-3.	0.	125.75
2707	-3.	-3.25	0.	125.47
2708	-4.8402	7.5556	0.	126.31
2709	-4.4022	7.4783	0.	126.83
2710	-4.5639	7.762	0.	126.34
2711	-5.3043	7.5692	0.	125.79
2712	-5.0475	7.8059	0.	125.92
2713	-5.7798	7.55	0.	125.33
2714	-5.5315	7.8014	0.	125.51
2715	-6.2644	7.5269	0.	124.97
2716	-6.0183	7.7823	0.	125.16
2717	-6.7558	7.5117	0.	124.74
2718	-6.5095	7.7663	0.	124.91
2719	-7.2517	7.5044	0.	124.6
2720	-7.0042	7.757	0.	124.75
2721	-6.9989	7.2556	0.	124.57
2722	-4.25	-4.	0.	119.06
2723	-3.75	-4.	0.	119.73
2724	-4.	-4.25	0.	117.4
2725	-0.99946	-3.7497	0.	115.81
2726	-1.2496	-3.9998	0.	116.24
2727	-0.74888	-3.9993	0.	114.83
2728	-0.99945	-4.2497	0.	113.3
2729	-3.0001	-0.75033	0.	121.81
2730	-2.7501	-1.0003	0.	122.94
2731	-2.	-1.2503	0.	126.63
2732	-2.	-0.75083	0.	127.2
2733	-1.75	-1.0005	0.	130.29
2734	-2.25	-1.0004	0.	125.45
2735	2.9342e-003	-3.2485	0.	116.22
2736	0.25467	-2.9982	0.	116.76
2737	2.637e-003	-2.7492	0.	114.33
2738	-0.248	-2.9992	0.	115.08
2739	5.7732	-4.0421	0.	117.65
2740	6.2661	-4.0304	0.	117.29
2741	6.0151	-4.2779	0.	116.75
2742	-6.	-6.25	0.	129.91
2743	-6.	-5.75	0.	130.03
2744	-5.75	-6.	0.	132.97
2745	4.9984	4.7511	0.	129.13
2746	4.749	5.0014	0.	128.16
2747	4.9995	5.2507	0.	129.69
2748	5.2494	5.0004	0.	132.12
2749	-0.56784	4.7392	0.	119.68
2750	-0.8184	4.4812	0.	121.66
2751	-0.30464	4.4893	0.	122.64
2752	-7.7596	4.9969	0.	123.73
2753	-7.2655	4.9925	0.	124.24
2754	-7.5142	4.7445	0.	123.75
2755	-7.507	5.2464	0.	123.95
2756	-7.7452	5.9991	0.	124.09
2757	-7.4926	6.2493	0.	124.18
2758	-7.4977	5.748	0.	124.07
2759	-7.7502	7.5012	0.	124.53
2760	-7.5017	7.7524	0.	124.65
2761	-7.4984	7.2515	0.	124.47
2762	0.24063	2.4955	0.	124.61
2763	-7.6229e-003	2.2445	0.	122.27
2764	1.749	7.4993	0.	127.34
2765	1.4993	7.7494	0.	127.45
2766	1.4984	7.249	0.	127.59
2767	1.2491	7.4993	0.	128.38
2768	-3.25	-3.5	0.	124.27
2769	-3.5	-3.75	0.	121.95
2770	1.5171	-3.7399	0.	129.54
2771	1.2623	-3.9907	0.	128.53
2772	1.5131	-4.2389	0.	128.75
2773	1.7671	-3.989	0.	129.63
2774	0.77812	-7.4831	0.	127.05
2775	1.0247	-7.7356	0.	127.71
2776	1.0326	-7.2333	0.	127.28
2777	1.5192	-5.7329	0.	125.59
2778	1.5137	-5.2342	0.	126.23
2779	1.2651	-5.4843	0.	125.73
2780	1.7657	-5.4833	0.	125.75
2781	1.532	-6.7318	0.	126.57
2782	1.2833	-6.9832	0.	127.03
2783	1.7732	-3.4894	0.	130.62
2784	2.032	-3.2383	0.	131.94
2785	2.2817	-3.4885	0.	131.48
2786	2.0232	-3.7384	0.	130.71
2787	2.5588	-2.7341	0.	131.43
2788	2.2947	-2.9871	0.	132.21
2789	2.5444	-3.2373	0.	131.76
2790	-2.5	-2.75	0.	126.13
2791	-2.5	-3.25	0.	127.03
2792	-2.25	-3.	0.	126.57
2793	-2.5	-1.7501	0.	124.41
2794	-2.25	-1.5002	0.	125.14
2795	-2.5	-1.2503	0.	123.96
2796	-0.74897	-3.4995	0.	116.56
2797	-0.24764	-3.4987	0.	116.69
2798	-0.49839	-3.7491	0.	115.6
2799	-0.49857	-3.2493	0.	115.58
2800	6.517	-3.7793	0.	118.64
2801	6.5293	-3.2945	0.	119.66
2802	6.7666	-3.525	0.	120.98
2803	7.4918	-2.3576	0.	127.71
2804	7.3696	-1.9544	0.	129.07
2805	7.7119	-2.074	0.	128.83
2806	7.2424	-2.3059	0.	126.44
2807	7.5158	-2.7908	0.	126.71
2808	7.763	-2.5392	0.	127.88
2809	7.2746	-2.5108	0.	125.88
2810	7.7556	-3.0157	0.	127.22
2811	7.5054	-3.2643	0.	126.21
2812	4.3013	-3.5578	0.	129.03
2813	4.0373	-3.7871	0.	130.71
2814	3.7977	-3.5295	0.	130.76
2815	5.2986	-3.575	0.	121.44
2816	5.5356	-3.81	0.	119.08
2817	3.5075	-5.2479	0.	127.51
2818	3.5081	-5.7452	0.	127.15
2819	3.7563	-5.4986	0.	127.09
2820	3.5173	-4.2568	0.	130.32
2821	3.7744	-4.0187	0.	130.99
2822	3.5347	-3.7612	0.	131.04
2823	3.2735	-4.0028	0.	130.76
2824	-6.2501	-0.50024	0.	128.6
2825	-6.0002	-0.25056	0.	129.74
2826	-7.5	-7.25	0.	128.42
2827	-7.25	-7.5	0.	129.01
2828	-7.5	-7.75	0.	128.98
2829	-7.75	-7.5	0.	128.56
2830	-7.5	-6.75	0.	127.8
2831	-7.25	-7.	0.	128.31
2832	-7.75	-7.	0.	127.97
2833	-7.5	-6.25	0.	127.38
2834	-7.75	-6.5	0.	127.46
2835	-7.5	-5.75	0.	127.32
2836	-7.75	-6.	0.	127.21
2837	-7.5	-5.25	0.	127.6
2838	-7.75	-5.5	0.	127.3
2839	-7.75	-5.	0.	127.64
2840	-7.5	-4.75	0.	128.04
2841	-7.75	-4.	0.	128.18
2842	-7.5	-3.75	0.	128.37
2843	-7.5	-4.25	0.	128.36
2844	-7.5	-2.75	0.	127.47
2845	-7.75	-3.	0.	127.64
2846	-7.5	-3.25	0.	128.05
2847	-7.5	-2.25	0.	126.71
2848	-7.75	-2.5	0.	127.
2849	-7.5	-1.75	0.	125.82
2850	-7.75	-2.	0.	126.17
2851	-7.5	-1.25	0.	124.81
2852	-7.75	-1.5	0.	125.16
2853	-7.5	-0.75002	0.	123.68
2854	-7.75	-1.	0.	123.93
2855	-7.25	-1.	0.	125.06
2856	-7.25	-0.50005	0.	124.45
2857	-7.5	-0.25004	0.	122.39
2858	-7.75	-0.50002	0.	122.45
2859	3.0929	-2.2199	0.	129.72
2860	2.8318	-2.4786	0.	130.79
2861	3.0837	-1.7111	0.	127.5
2862	2.8254	-1.9723	0.	128.58
2863	-6.	-3.75	0.	130.26
2864	-5.75	-3.5	0.	128.73
2865	-4.5	-3.75	0.	120.92
2866	-4.75	-3.5	0.	123.44
2867	-6.25	-5.5	0.	129.24
2868	-6.5	-5.25	0.	128.95
2869	-6.5	-4.25	0.	130.21
2870	-6.25	-4.	0.	130.63
2871	-6.5001	-6.75	0.	128.84
2872	-6.25	-6.5	0.	129.08
2873	-7.0001	-7.25	0.	128.9
2874	-6.7501	-7.	0.	128.88
2875	-7.0001	-7.75	0.	129.49
2876	-6.7502	-7.5	0.	129.7
2877	-4.6272	5.8322	0.	126.5
2878	-4.6775	5.2973	0.	127.04
2879	-4.4398	5.5391	0.	126.08
2880	-1.5108	2.7127	0.	124.02
2881	-1.7611	2.949	0.	124.32
2882	-1.2546	1.9821	0.	122.66
2883	-1.0035	1.7379	0.	121.46
2884	-2.2582	3.4043	0.	122.14
2885	-2.0123	3.18	0.	123.83
2886	-2.0285	3.66	0.	122.95
2887	-5.5004	0.24904	0.	129.44
2888	-5.2501	-5.1558e-004	0.	129.11
2889	-5.7502	-6.9107e-004	0.	129.98
2890	-3.7501	-0.50013	0.	121.27
2891	-3.5001	-0.25022	0.	119.37
2892	-3.2501	-0.50032	0.	121.03
2893	-4.785	3.4866	0.	131.16
2894	-5.0304	3.2339	0.	131.99
2895	-5.2878	3.478	0.	131.73
2896	-5.0486	3.7266	0.	131.45
2897	-5.5058	1.7439	0.	128.28
2898	-5.2536	1.4958	0.	127.32
2899	-5.7536	1.4954	0.	127.64
2900	-5.5029	1.2462	0.	127.78
2901	-5.5194	2.736	0.	131.75
2902	-5.2736	2.9852	0.	132.2
2903	-5.7731	2.9837	0.	132.22
2904	-5.531	3.2294	0.	131.94
2905	4.9059	2.2885	0.	128.89
2906	5.0976	2.0193	0.	126.28
2907	4.6646	2.0664	0.	130.16
2908	4.7516	1.8347	0.	129.88
2909	5.1673	2.5034	0.	127.19
2910	4.6937	2.5326	0.	130.69
2911	4.9469	2.7661	0.	129.81
2912	6.7507	7.5	0.	121.09
2913	6.5007	7.25	0.	119.13
2914	6.2506	7.5	0.	121.29
2915	6.5006	7.75	0.	121.07
2916	5.9831	-2.1572	0.	117.09
2917	6.539	-2.0569	0.	121.43
2918	6.395	-2.3681	0.	119.27
2919	6.2381	-1.8834	0.	116.72
2920	6.174	-2.3936	0.	118.02
2921	7.065	1.9262	0.	124.44
2922	7.6053	1.8875	0.	126.97
2923	7.3578	2.1707	0.	125.67
2924	7.5945	1.1558	0.	128.71
2925	7.7615	1.6239	0.	128.11
2926	7.8452	1.3886	0.	128.38
2927	7.4389	0.64965	0.	129.13
2928	7.7743	0.9084	0.	128.78
2929	7.4925	-1.6715	0.	130.03
2930	7.664	-1.3672	0.	130.53
2931	7.9072	-1.552	0.	129.76
2932	7.8347	-1.791	0.	129.82
2933	5.4352	-2.1749	0.	119.07
2934	5.6605	-2.3962	0.	117.46
2935	5.6968	-1.9218	0.	113.85
2936	4.4154	-2.2322	0.	129.46
2937	4.1596	-2.4491	0.	130.32
2938	4.1524	-2.0388	0.	131.65
2939	4.4954	4.2546	0.	128.08
2940	4.7474	4.5024	0.	128.03
2941	4.247	4.5038	0.	126.51
2942	4.498	4.7526	0.	127.06
2943	4.479	3.2663	0.	131.68
2944	4.4634	2.7822	0.	132.2
2945	4.7167	3.0157	0.	131.33
2946	4.227	3.0198	0.	132.76
2947	0.48845	2.7469	0.	126.39
2948	0.73729	2.9977	0.	128.21
2949	0.48221	3.2463	0.	127.14
2950	0.21714	3.9934	0.	125.74
2951	-4.2267e-002	4.2417	0.	124.35
2952	-3.2152e-002	3.7412	0.	124.99
2953	-4.4931	6.3106	0.	127.68
2954	-4.3156	6.0208	0.	127.76
2955	-4.2452	7.2003	0.	127.68
2956	-4.0816	7.6378	0.	126.55
2957	-3.9806	7.3758	0.	126.95
2958	-2.5126	3.6158	0.	120.2
2959	-2.7588	3.8066	0.	118.96
2960	-2.553	4.0696	0.	117.74
2961	-2.2829	3.8715	0.	121.
2962	6.5493	1.9229	0.	121.56
2963	6.7552	1.6945	0.	123.44
2964	4.0537	1.3034	0.	133.52
2965	4.0515	0.81339	0.	133.07
2966	4.3195	1.069	0.	133.43
2967	3.7902	1.0424	0.	135.77
2968	5.3589	2.2342	0.	124.57
2969	5.2476	1.7494	0.	124.31
2970	5.5578	1.9663	0.	122.05
2971	6.2517	1.6723	0.	119.46
2972	6.047	1.931	0.	120.18
2973	6.3324	2.1739	0.	120.13
2974	6.6794	1.238	0.	124.82
2975	6.7668	0.84724	0.	127.61
2976	6.3818	0.94428	0.	120.98
2977	6.4576	1.4439	0.	121.35
2978	-1.5653	4.1951	0.	125.18
2979	-1.2981	3.9565	0.	123.9
2980	-1.7944	3.9217	0.	123.52
2981	-4.3683	6.7608	0.	128.35
2982	-4.0755	6.9283	0.	129.21
2983	-4.2063	6.482	0.	129.75
2984	-3.7009	7.8757	0.	125.91
2985	-3.3717	7.6109	0.	124.98
2986	-3.1878	7.9281	0.	126.5
2987	-3.453	8.1656	0.	126.17
2988	0.46929	4.2454	0.	126.91
2989	0.72659	3.9968	0.	127.68
2990	0.47534	3.7458	0.	126.99
2991	5.1746	-1.9583	0.	122.22
2992	4.9178	-2.2	0.	125.05
2993	7.0448	-1.8585	0.	127.35
2994	6.9175	-2.21	0.	124.73
2995	6.7549	-1.7182	0.	125.76
2996	7.2238	-1.5295	0.	131.8
2997	7.0006	7.75	0.	122.07
2998	7.0007	7.25	0.	121.43
2999	7.2507	7.5	0.	123.05
3000	5.4243	2.7369	0.	126.27
3001	5.6408	2.471	0.	123.38
3002	4.4897	3.7585	0.	130.04
3003	4.7432	4.004	0.	129.39
3004	4.2438	4.0065	0.	128.9
3005	4.7335	3.5077	0.	131.03
3006	4.237	3.5115	0.	131.45
3007	-4.5236	3.2438	0.	130.48
3008	-4.5487	3.7412	0.	130.92
3009	-4.2714	3.5011	0.	128.71
3010	-4.25	-0.5001	0.	123.55
3011	-4.5	-0.2502	0.	125.86
3012	-4.75	-0.50016	0.	126.14
3013	-4.0001	-0.25013	0.	121.87
3014	-2.7361	3.3821	0.	120.44
3015	-2.5004	3.1592	0.	122.52
3016	-3.2137	3.4561	0.	120.78
3017	-2.9823	3.573	0.	119.23
3018	-2.9857	3.1593	0.	119.88
3019	-1.5059	2.2233	0.	123.74
3020	-1.5032	1.7326	0.	123.76
3021	-1.7537	1.9763	0.	124.51
3022	-1.756	2.4635	0.	124.8
3023	-3.2236	3.6538	0.	120.31
3024	-3.4768	3.2667	0.	120.45
3025	-3.7329	3.5232	0.	124.36
3026	-3.5103	3.7988	0.	123.98
3027	-3.0343	3.9772	0.	117.98
3028	-4.4098	5.0062	0.	129.2
3029	-4.628	4.7502	0.	129.45
3030	-6.2501	-7.	0.	129.97
3031	-6.5002	-7.25	0.	129.68
3032	-6.5	-4.75	0.	129.8
3033	-6.25	-4.5	0.	131.08
3034	4.4523	2.3105	0.	131.96
3035	4.223	2.0578	0.	132.73
3036	4.537	1.8464	0.	131.44
3037	4.2147	2.5364	0.	133.06
3038	0.49333	2.2475	0.	124.59
3039	0.74212	2.4981	0.	127.22
3040	0.49663	1.7482	0.	122.15
3041	0.7458	1.9985	0.	125.33
3042	0.24507	1.9965	0.	122.24
3043	3.3429	-1.4354	0.	127.93
3044	2.8157	-1.4694	0.	125.48
3045	3.0727	-1.21	0.	125.
3046	3.606	-1.1658	0.	129.39
3047	3.8698	-1.3823	0.	131.23
3048	-5.2505	0.49876	0.	129.35
3049	-5.7506	0.49855	0.	130.11
3050	-5.5012	0.7478	0.	128.68
3051	-6.75	-0.50013	0.	127.
3052	-7.	-0.75006	0.	125.83
3053	-7.0001	-0.25015	0.	126.04
3054	-6.5001	-0.25031	0.	129.15
3055	-6.7728	3.486	0.	127.13
3056	-6.522	3.2352	0.	129.78
3057	-6.2798	3.4799	0.	129.76
3058	-7.0161	3.2408	0.	125.82
3059	-7.2662	3.4916	0.	123.94
3060	-5.5111	2.2406	0.	130.15
3061	-5.7574	1.9927	0.	129.54
3062	-5.2574	1.9933	0.	129.18
3063	-5.7636	2.4889	0.	131.8
3064	-5.2634	2.4901	0.	131.45
3065	3.5097	-4.752	0.	128.9
3066	3.7622	-4.51	0.	130.37
3067	3.7572	-5.0034	0.	128.58
3068	3.2586	-4.9964	0.	127.82
3069	4.8031	-3.5732	0.	125.6
3070	5.0407	-3.8126	0.	123.87
3071	4.5413	-3.8063	0.	128.7
3072	4.7524	-7.4993	0.	126.09
3073	4.5037	-7.2489	0.	128.28
3074	4.2542	-7.4983	0.	127.94
3075	4.5026	-7.7491	0.	127.02
3076	5.0015	-7.7497	0.	124.91
3077	5.2514	-7.4997	0.	123.68
3078	5.0022	-7.2496	0.	125.12
3079	3.5096	-6.2441	0.	127.78
3080	3.7575	-5.9964	0.	128.05
3081	3.7585	-6.4956	0.	129.22
3082	3.5102	-6.7442	0.	128.49
3083	-1.2496	-3.4998	0.	119.3
3084	-1.7499	-3.5	0.	123.52
3085	-1.4998	-3.7499	0.	119.78
3086	-1.4998	-3.2499	0.	122.99
3087	-0.99947	-3.2498	0.	118.5
3088	-2.5	-2.25	0.	125.27
3089	-2.75	-2.	0.	124.11
3090	-2.25	-2.0001	0.	125.83
3091	-2.25	-2.5	0.	126.57
3092	2.5642	-2.231	0.	129.64
3093	2.3052	-2.4848	0.	131.66
3094	2.5574	-1.7307	0.	126.57
3095	2.3004	-1.9852	0.	129.31
3096	1.2667	-3.4917	0.	128.16
3097	0.75991	-3.4947	0.	124.06
3098	1.012	-3.7425	0.	127.15
3099	1.0137	-3.244	0.	126.05
3100	1.5221	-3.2409	0.	130.59
3101	1.5272	-6.2318	0.	125.85
3102	1.2844	-6.4814	0.	126.65
3103	1.2727	-5.9836	0.	126.03
3104	0.2652	-7.4829	0.	126.18
3105	1.0497e-002	-7.7358	0.	126.26
3106	2.7786e-002	-7.2313	0.	123.89
3107	-0.28304	-7.485	0.	124.06
3108	0.52236	-7.7348	0.	127.11
3109	0.53375	-7.233	0.	126.58
3110	0.25491	-3.4972	0.	119.63
3111	0.50664	-3.2469	0.	120.24
3112	0.50643	-3.7457	0.	123.49
3113	3.2851e-003	-3.7479	0.	118.86
3114	1.2601	-4.9872	0.	127.22
3115	1.7618	-4.9859	0.	126.86
3116	1.5117	-4.7369	0.	127.53
3117	-2.75	-3.5	0.	126.76
3118	-3.	-3.7501	0.	126.71
3119	-2.2499	-3.5	0.	126.66
3120	-1.9999	-3.25	0.	126.19
3121	-1.9999	-3.7501	0.	125.78
3122	-2.5	-3.7502	0.	129.22
3123	4.9952	4.2518	0.	129.33
3124	5.2479	4.5005	0.	130.84
3125	-4.1282	5.7277	0.	127.32
3126	-4.172	5.2479	0.	128.2
3127	-3.9279	5.4633	0.	129.6
3128	-6.0001	-6.75	0.	130.2
3129	-5.7501	-6.5	0.	131.86
3130	-4.5	-4.25	0.	118.04
3131	-4.75	-4.	0.	122.66
3132	4.0244	1.7934	0.	133.53
3133	3.7867	1.5354	0.	134.79
3134	4.3384	1.582	0.	132.23
3135	-7.75	-3.3338e-005	0.	120.75
3136	-7.5001	0.24995	0.	120.33
3137	-7.2501	-1.3615e-004	0.	123.98
3138	5.5191	-4.2846	0.	117.72
3139	5.2776	-4.0475	0.	121.51
3140	-1.75	-1.5002	0.	128.94
3141	-2.	-1.7501	0.	126.56
3142	0.50599	-2.7481	0.	116.88
3143	0.76041	-2.9962	0.	122.2
3144	-0.25074	0.9974	0.	115.39
3145	-0.50044	0.7475	0.	114.57
3146	-0.50148	1.2453	0.	117.31
3147	-0.75077	0.99531	0.	118.82
3148	1.9993	7.7494	0.	127.75
3149	2.2493	7.4994	0.	129.11
3150	1.9986	7.2492	0.	127.11
3151	-1.7498	-4.	0.	122.05
3152	-1.4998	-4.25	0.	115.74
3153	-2.0593	-7.8905	0.	126.81
3154	-2.3402	-7.5684	0.	131.87
3155	-1.8481	-7.701	0.	123.54
3156	-1.9713	-7.5431	0.	124.19
3157	0.26765	-7.9877	0.	127.19
3158	-0.22633	-7.9972	0.	126.13
3159	1.512e-002	-8.2413	0.	126.38
3160	0.76891	-7.9873	0.	127.77
3161	0.51612	-8.2389	0.	127.45
3162	1.2679	-7.9886	0.	128.1
3163	1.0159	-8.2396	0.	128.06
3164	1.7654	-7.99	0.	128.29
3165	1.5141	-8.241	0.	128.39
3166	2.2623	-7.9918	0.	128.4
3167	2.0115	-8.242	0.	128.54
3168	2.7594	-7.9938	0.	128.49
3169	2.509	-8.2438	0.	128.62
3170	3.2568	-7.996	0.	128.47
3171	3.0066	-8.2458	0.	128.61
3172	3.7545	-7.9977	0.	128.16
3173	3.5045	-8.2475	0.	128.41
3174	4.0028	-8.2487	0.	127.84
3175	4.0044	-7.748	0.	128.23
3176	4.2529	-7.9988	0.	127.3
3177	5.2508	-7.9999	0.	124.35
3178	5.0008	-8.2498	0.	125.33
3179	4.7516	-7.9995	0.	125.84
3180	5.7505	-8.	0.	124.1
3181	5.5008	-7.7499	0.	123.12
3182	5.5004	-8.25	0.	124.35
3183	6.0002	-8.25	0.	124.85
3184	6.0004	-7.75	0.	123.41
3185	6.2502	-8.	0.	127.14
3186	0.24921	0.99858	0.	116.44
3187	-4.9306e-004	0.74859	0.	113.99
3188	-1.5822e-003	1.2474	0.	116.33
3189	-8.	-6.75	0.	127.63
3190	-8.25	-7.	0.	127.77
3191	-8.	-7.25	0.	128.11
3192	-8.	-6.25	0.	127.29
3193	-8.25	-6.5	0.	127.36
3194	-8.	-5.75	0.	127.19
3195	-8.25	-6.	0.	127.14
3196	-8.	-5.25	0.	127.34
3197	-8.25	-5.5	0.	127.15
3198	-8.	-4.75	0.	127.6
3199	-8.25	-5.	0.	127.34
3200	-8.	-4.25	0.	127.82
3201	-8.25	-4.5	0.	127.57
3202	-7.75	-4.5	0.	128.
3203	-8.	-3.75	0.	127.85
3204	-8.25	-4.	0.	127.7
3205	-8.	-3.25	0.	127.64
3206	-8.25	-3.5	0.	127.66
3207	-7.75	-3.5	0.	128.05
3208	-8.	-2.75	0.	127.17
3209	-8.25	-3.	0.	127.39
3210	-8.	-2.25	0.	126.47
3211	-8.25	-2.5	0.	126.9
3212	-8.	-1.75	0.	125.52
3213	-8.25	-2.	0.	126.19
3214	-8.	-1.25	0.	124.29
3215	-8.25	-1.5	0.	125.22
3216	-8.	-0.75001	0.	122.71
3217	-8.25	-1.	0.	123.96
3218	-8.	-0.25001	0.	120.83
3219	-8.25	-0.50001	0.	122.38
3220	-8.25	-1.163e-005	0.	120.61
3221	-8.	0.24999	0.	119.76
3222	-2.2905	-8.0653	0.	126.88
3223	-2.03	-8.3216	0.	123.31
3224	-1.7802	-8.0858	0.	118.3
3225	-3.7666	-8.007	0.	117.02
3226	-3.5171	-8.2595	0.	119.06
3227	-3.5229	-7.7581	0.	116.55
3228	-3.2764	-8.0141	0.	121.37
3229	-4.2597	-8.0031	0.	116.73
3230	-4.0107	-8.2544	0.	117.04
3231	-4.0118	-7.7534	0.	114.78
3232	-6.7502	-8.	0.	129.95
3233	-6.2507	-8.0001	0.	130.35
3234	-6.5004	-8.25	0.	129.96
3235	-6.5003	-7.75	0.	130.16
3236	-7.2501	-8.	0.	129.46
3237	-7.0002	-8.25	0.	129.7
3238	-7.5001	-8.25	0.	129.33
3239	-7.7501	-8.	0.	129.02
3240	1.7496	7.9996	0.	127.86
3241	1.9997	8.2497	0.	128.03
3242	2.2497	7.9996	0.	130.88
3243	1.2497	7.9996	0.	128.4
3244	1.4998	8.2497	0.	127.44
3245	-3.0969	7.4041	0.	124.73
3246	-2.913	7.7213	0.	126.24
3247	-2.6651	7.4785	0.	128.73
3248	-2.8828	7.2577	0.	124.31
3249	-8.0064	3.2475	0.	120.12
3250	-7.7568	2.9968	0.	120.26
3251	-8.254	2.9984	0.	120.04
3252	-8.0039	2.7483	0.	119.38
3253	-8.0092	3.7468	0.	121.58
3254	-8.2563	3.4978	0.	121.39
3255	-7.7605	3.4955	0.	121.64
3256	-8.0104	4.2468	0.	122.65
3257	-8.2586	3.9975	0.	122.49
3258	-7.7636	3.9947	0.	122.68
3259	-8.2582	4.498	0.	123.24
3260	-8.0088	4.7476	0.	123.33
3261	-7.7634	4.4953	0.	123.35
3262	-8.2481	5.9997	0.	124.1
3263	-7.9996	5.7493	0.	123.97
3264	-7.9966	6.2496	0.	124.13
3265	-7.9987	7.2503	0.	124.43
3266	-8.2481	7.	0.	124.35
3267	-7.9967	6.7499	0.	124.27
3268	-7.7469	7.0005	0.	124.36
3269	-8.2498	7.5003	0.	124.5
3270	-8.0007	7.7509	0.	124.6
3271	-7.2541	8.005	0.	124.8
3272	-7.5028	8.2528	0.	124.86
3273	-7.7521	8.0021	0.	124.72
3274	-6.7579	8.0115	0.	124.92
3275	-7.0051	8.2564	0.	124.95
3276	-6.2634	8.0217	0.	125.1
3277	-6.5088	8.2635	0.	125.08
3278	-5.77	8.0337	0.	125.34
3279	-6.013	8.2729	0.	125.27
3280	-5.2747	8.0381	0.	125.64
3281	-5.5164	8.2812	0.	125.49
3282	-4.7712	8.0123	0.	125.94
3283	-5.0151	8.2745	0.	125.72
3284	-4.2434	7.9215	0.	126.06
3285	-4.5046	8.2328	0.	125.94
3286	-3.8694	7.5926	0.	126.43
3287	-3.9756	8.1397	0.	125.99
3288	5.5013	-7.2498	0.	121.88
3289	5.7508	-7.4999	0.	122.4
3290	2.2921	-1.4866	0.	126.04
3291	2.5471	-1.2328	0.	122.39
3292	0.74807	1.4989	0.	123.41
3293	0.49854	1.2488	0.	119.58
3294	0.24775	1.4975	0.	119.4
3295	-0.56833	5.2439	0.	116.21
3296	-0.31116	4.993	0.	120.88
3297	-0.83973	4.9911	0.	117.3
3298	-1.3283	4.4615	0.	124.09
3299	-1.0611	4.223	0.	122.79
3300	-1.0903	4.733	0.	119.34
3301	-4.0289	6.1922	0.	129.82
3302	-3.8497	5.9141	0.	129.76
3303	-3.5402	7.3277	0.	125.51
3304	-3.8109	7.1038	0.	128.49
3305	0.20988	4.4937	0.	125.52
3306	-4.7962e-002	4.7431	0.	123.84
3307	0.72284	4.4962	0.	127.66
3308	0.46664	4.7451	0.	128.23
3309	0.98014	4.2476	0.	128.43
3310	0.97893	4.7468	0.	129.88
3311	1.2344	4.4979	0.	129.51
3312	3.9955	4.2557	0.	127.32
3313	3.7475	4.5034	0.	127.04
3314	3.9976	4.7534	0.	125.76
3315	7.8511	-1.1041	0.	129.33
3316	7.3953	-1.2253	0.	132.25
3317	7.5876	-0.91194	0.	128.21
3318	6.7507	7.	0.	119.44
3319	6.5005	6.75	0.	114.19
3320	6.2506	7.	0.	119.7
3321	4.4991	5.2515	0.	127.27
3322	4.2485	5.0023	0.	126.32
3323	4.7496	5.5008	0.	128.8
3324	4.4996	5.7508	0.	128.55
3325	4.2494	5.5009	0.	126.63
3326	4.9998	5.7504	0.	130.88
3327	5.2498	5.5004	0.	131.78
3328	6.1812	2.9615	0.	119.84
3329	6.4469	3.215	0.	114.29
3330	6.6752	2.9487	0.	119.11
3331	6.3988	2.6938	0.	119.
3332	4.9712	3.2571	0.	130.67
3333	5.2039	2.9996	0.	128.89
3334	-5.0024	1.2471	0.	127.65
3335	-5.0051	1.7453	0.	128.21
3336	-4.7526	1.4973	0.	128.58
3337	-4.7691	2.9911	0.	131.31
3338	-5.0177	2.7393	0.	131.89
3339	-3.7501	-2.2648e-004	0.	119.96
3340	-3.5002	0.24973	0.	115.18
3341	-3.2502	-6.1608e-004	0.	119.79
3342	-5.0003	0.2492	0.	129.01
3343	-4.7501	-3.7675e-004	0.	127.71
3344	-5.0001	-0.25034	0.	127.99
3345	-1.252	1.4884	0.	122.55
3346	-0.75216	1.4922	0.	119.77
3347	-1.0015	1.2422	0.	121.28
3348	-1.752	1.4851	0.	124.67
3349	-1.5014	1.2391	0.	125.22
3350	-2.0025	1.7288	0.	125.43
3351	-2.0015	1.2371	0.	126.91
3352	-2.2517	1.486	0.	127.17
3353	-3.2488	2.97	0.	119.55
3354	-3.5013	2.7449	0.	115.7
3355	-3.7517	3.0002	0.	121.68
3356	-2.0063	2.6998	0.	125.1
3357	-2.2545	2.9349	0.	124.19
3358	-2.8284	4.2401	0.	116.63
3359	-2.3326	4.3414	0.	120.37
3360	-2.613	4.5261	0.	115.4
3361	-4.0983	4.2584	0.	132.18
3362	-4.3171	3.9997	0.	131.25
3363	-4.0398	3.7596	0.	129.06
3364	-3.8172	4.0352	0.	128.61
3365	-4.7555	-8.0013	0.	120.68
3366	-4.5062	-8.2519	0.	118.8
3367	-4.5062	-7.7513	0.	115.87
3368	-6.0008	-7.75	0.	130.93
3369	-6.0011	-8.2501	0.	129.78
3370	-5.7517	-8.0002	0.	129.7
3371	-6.	-5.25	0.	130.55
3372	-5.75	-5.5	0.	132.27
3373	-5.75	-4.	0.	130.6
3374	-6.	-4.25	0.	131.49
3375	1.4967	6.7484	0.	128.15
3376	1.2479	6.9988	0.	129.16
3377	1.7479	6.9989	0.	127.35
3378	1.7461	6.4984	0.	127.51
3379	1.494	6.2478	0.	129.41
3380	1.2456	6.4981	0.	129.84
3381	2.2439	3.0012	0.	117.
3382	2.4949	2.7515	0.	112.09
3383	2.4948	3.2515	0.	112.32
3384	2.7428	3.0034	0.	117.45
3385	3.9782	2.7741	0.	133.61
3386	3.9849	3.2651	0.	132.52
3387	3.7348	3.0148	0.	131.91
3388	0.99097	2.7489	0.	129.03
3389	0.98689	3.2486	0.	129.38
3390	1.2404	2.9993	0.	128.81
3391	4.0593	0.32867	0.	131.47
3392	4.3055	0.58365	0.	132.29
3393	3.788	0.55216	0.	133.74
3394	-6.0052	1.7442	0.	128.89
3395	-6.0025	1.2464	0.	128.5
3396	-6.2528	1.4963	0.	129.76
3397	-6.2502	-6.3233e-004	0.	130.27
3398	-6.0005	0.24882	0.	130.64
3399	-7.2609	2.9939	0.	123.68
3400	-7.5067	2.7465	0.	120.05
3401	-7.5109	3.2448	0.	121.8
3402	-6.0174	2.7366	0.	132.26
3403	-6.2697	2.9859	0.	131.53
3404	-6.0276	3.2305	0.	131.52
3405	4.0056	-5.7498	0.	127.99
3406	4.0061	-5.2541	0.	128.15
3407	4.2543	-5.5023	0.	129.15
3408	4.2774	-4.0356	0.	130.37
3409	4.0192	-4.2719	0.	131.03
3410	4.0068	-6.7472	0.	129.92
3411	4.2556	-6.998	0.	129.45
3412	4.0061	-7.2474	0.	129.12
3413	3.7585	-6.9958	0.	129.2
3414	6.5092	-4.2675	0.	116.78
3415	6.7589	-4.0172	0.	120.34
3416	-2.	-2.75	0.	127.01
3417	-1.7499	-3.	0.	125.63
3418	1.7809	-2.9898	0.	131.9
3419	2.0412	-2.7378	0.	132.44
3420	-3.0002	-0.25071	0.	121.47
3421	-2.7501	-0.50077	0.	123.06
3422	-2.0002	-0.25206	0.	128.37
3423	-1.75	-0.50129	0.	129.91
3424	-2.2501	-0.50116	0.	125.94
3425	5.7505	7.5	0.	123.93
3426	6.0005	7.75	0.	122.36
3427	6.0005	7.25	0.	121.89
3428	5.2504	7.5	0.	127.36
3429	5.5004	7.75	0.	125.26
3430	5.5004	7.25	0.	126.8
3431	5.0003	7.75	0.	128.67
3432	5.0003	7.25	0.	130.15
3433	4.7502	7.5	0.	131.3
3434	1.0185	-5.7351	0.	126.16
3435	0.76115	-5.489	0.	128.3
3436	1.0115	-5.2373	0.	126.71
3437	0.7882	-6.9833	0.	126.81
3438	1.0357	-6.7328	0.	127.11
3439	-0.24747	-3.9983	0.	117.76
3440	-0.49841	-4.2491	0.	114.2
3441	1.0097	-4.2411	0.	128.24
3442	0.75848	-3.9934	0.	126.53
3443	-3.25	-4.0001	0.	124.41
3444	-3.5	-4.2501	0.	119.47
3445	-0.47814	-8.251	0.	123.9
3446	-0.71081	-7.9647	0.	121.56
3447	-0.51987	-7.7464	0.	123.89
3448	5.2503	8.	0.	126.57
3449	5.0002	8.25	0.	127.68
3450	4.7502	8.	0.	131.55
3451	5.7504	8.	0.	123.7
3452	5.5003	8.25	0.	124.67
3453	6.2505	8.	0.	122.13
3454	6.0004	8.25	0.	122.8
3455	6.7506	8.	0.	122.03
3456	6.5005	8.25	0.	122.17
3457	7.2505	8.	0.	123.09
3458	7.0004	8.25	0.	122.69
3459	7.7504	8.	0.	124.41
3460	7.5004	8.25	0.	123.83
3461	7.5005	7.75	0.	124.07
3462	8.0005	7.75	0.	125.48
3463	8.0003	8.25	0.	124.83
3464	8.2503	8.	0.	125.3
3465	8.0005	7.2499	0.	126.76
3466	8.2505	7.4999	0.	126.14
3467	7.7506	7.5	0.	125.14
3468	8.2504	6.9998	0.	127.38
3469	8.0004	6.7497	0.	128.24
3470	7.7505	6.9998	0.	126.87
3471	7.9986	5.2457	0.	129.15
3472	8.2492	5.497	0.	128.18
3473	7.7496	5.4978	0.	130.84
3474	7.9997	5.7481	0.	128.93
3475	8.2467	4.9928	0.	128.58
3476	7.7482	4.9949	0.	131.98
3477	7.9947	4.7389	0.	129.33
3478	7.9282	2.6767	0.	128.43
3479	7.6835	2.9381	0.	127.55
3480	8.1961	2.9455	0.	129.01
3481	7.9501	3.1973	0.	129.49
3482	7.9011	2.1344	0.	127.95
3483	8.18	2.4258	0.	128.32
3484	7.6537	2.4177	0.	126.65
3485	7.9685	1.6197	0.	128.25
3486	8.1674	1.8932	0.	128.23
3487	8.2748	1.4082	0.	128.42
3488	8.0249	1.1412	0.	128.46
3489	7.9396	0.15733	0.	126.59
3490	8.1875	0.42233	0.	127.37
3491	7.6186	0.39297	0.	128.43
3492	7.954	0.65172	0.	128.08
3493	7.9995	-0.3372	0.	125.77
3494	8.2266	-7.0655e-002	0.	125.85
3495	7.7156	-0.13219	0.	126.3
3496	8.0548	-0.82205	0.	126.98
3497	7.7914	-0.62984	0.	125.88
3498	8.2744	-0.56241	0.	126.22
3499	8.0943	-1.2889	0.	128.55
3500	8.313	-1.0457	0.	127.59
3501	8.0365	-1.7563	0.	129.35
3502	8.3277	-1.5199	0.	128.88
3503	7.9831	-2.2555	0.	129.01
3504	8.2336	-2.0041	0.	129.22
3505	8.0028	-2.764	0.	128.4
3506	8.2508	-2.5115	0.	128.85
3507	8.0019	-3.2598	0.	128.22
3508	8.2521	-3.0093	0.	128.6
3509	8.	-3.7559	0.	128.53
3510	8.2499	-3.5058	0.	128.66
3511	7.7517	-3.5084	0.	127.21
3512	7.9988	-4.2531	0.	128.71
3513	8.2491	-4.0035	0.	128.91
3514	7.7508	-4.0054	0.	128.02
3515	-0.23669	-8.4951	0.	124.12
3516	-0.73835	-8.4928	0.	119.16
3517	-0.49034	-8.747	0.	121.8
3518	-2.2499	-4.0002	0.	128.33
3519	-2.	-4.2502	0.	126.43
3520	-2.75	-4.0002	0.	129.16
3521	-2.5	-4.2507	0.	134.61
3522	-2.9999	-4.2503	0.	128.83
3523	0.75674	-4.4924	0.	129.33
3524	1.0089	-4.7395	0.	128.14
3525	1.2604	-4.4893	0.	128.46
3526	2.8638e-003	-4.2478	0.	121.9
3527	0.25481	-3.9964	0.	122.66
3528	0.29633	-6.9815	0.	124.31
3529	-0.18712	-6.9563	0.	125.18
3530	6.2659e-002	-6.7312	0.	124.17
3531	0.54384	-6.7332	0.	127.74
3532	1.0299	-6.2332	0.	126.84
3533	0.79134	-6.4827	0.	128.03
3534	0.77135	-5.9859	0.	128.
3535	1.9956	6.2486	0.	125.65
3536	2.2471	6.499	0.	126.34
3537	1.9973	6.7488	0.	126.71
3538	4.2496	6.0004	0.	126.67
3539	3.9994	5.7506	0.	124.75
3540	3.9996	6.2502	0.	123.57
3541	3.7492	6.0003	0.	121.65
3542	4.7498	6.0004	0.	130.62
3543	4.4998	6.2504	0.	131.33
3544	5.2503	7.0001	0.	129.59
3545	4.7501	7.0001	0.	131.84
3546	5.0002	6.7501	0.	132.1
3547	-1.751	0.99108	0.	127.45
3548	-1.5007	0.7433	0.	128.89
3549	-1.2508	0.99289	0.	123.95
3550	-2.2503	-2.455e-003	0.	127.95
3551	-1.7502	-2.8394e-003	0.	130.1
3552	-2.0004	0.2457	0.	129.95
3553	1.5237	-2.7425	0.	132.9
3554	1.2691	-2.9932	0.	128.49
3555	2.0351	-1.7412	0.	128.79
3556	1.7789	-1.9926	0.	131.67
3557	2.0414	-2.239	0.	131.32
3558	-1.7499	-2.5	0.	128.32
3559	-2.	-2.2501	0.	127.13
3560	-0.99962	-2.7499	0.	121.27
3561	-0.74908	-2.9996	0.	117.53
3562	-1.2497	-2.9999	0.	122.16
3563	8.248	-4.5014	0.	128.53
3564	7.7486	-4.5021	0.	129.35
3565	7.9984	-4.7513	0.	127.54
3566	4.0064	-6.2478	0.	129.47
3567	4.2547	-5.9994	0.	130.26
3568	4.2555	-6.4982	0.	131.56
3569	4.7535	-6.9992	0.	127.31
3570	4.5042	-6.749	0.	131.11
3571	5.2521	-6.9997	0.	123.33
3572	5.0025	-6.7496	0.	126.26
3573	4.5209	-4.2833	0.	131.44
3574	4.7789	-4.0457	0.	126.96
3575	4.0097	-4.7613	0.	130.04
3576	4.2627	-4.5196	0.	132.09
3577	4.256	-5.0087	0.	130.29
3578	-6.01	2.241	0.	131.18
3579	-6.2558	1.9939	0.	131.42
3580	-6.2618	2.4904	0.	133.37
3581	-6.7654	2.9899	0.	128.48
3582	-6.5141	2.7397	0.	132.65
3583	-7.0102	2.7438	0.	126.85
3584	-6.5003	0.24932	0.	131.86
3585	-6.7502	-3.3557e-004	0.	128.18
3586	-6.2513	0.99781	0.	130.64
3587	-6.0011	0.74788	0.	130.06
3588	-5.7517	0.99714	0.	128.64
3589	3.3358	-0.94039	0.	126.47
3590	2.8041	-0.97337	0.	121.85
3591	3.0577	-0.71826	0.	124.2
3592	3.5974	-0.67703	0.	130.14
3593	3.8756	-0.88991	0.	130.27
3594	3.8089	6.8224e-002	0.	130.62
3595	4.314	0.12039	0.	130.43
3596	4.1166	-0.14376	0.	129.12
3597	0.9946	2.2491	0.	127.95
3598	1.2439	2.4994	0.	129.58
3599	0.99724	1.7493	0.	126.6
3600	1.2469	1.9995	0.	128.83
3601	3.9853	2.2837	0.	133.83
3602	3.7484	2.0268	0.	133.91
3603	3.7311	2.5222	0.	133.93
3604	0.72273	4.9958	0.	130.43
3605	0.47104	5.2452	0.	132.02
3606	0.2088	4.9945	0.	126.56
3607	1.2414	5.9972	0.	131.64
3608	0.98672	5.7465	0.	133.44
3609	0.74077	5.9969	0.	133.58
3610	0.993	6.2474	0.	132.05
3611	-5.5	-4.25	0.	132.1
3612	-5.25	-4.	0.	127.75
3613	-5.5	-3.75	0.	129.09
3614	-5.75	-5.	0.	132.02
3615	-6.25	-5.	0.	130.26
3616	-6.	-4.75	0.	131.53
3617	-2.5291	-8.2862	0.	126.
3618	-2.5715	-7.7432	0.	132.13
3619	-2.7848	-8.0289	0.	126.22
3620	-6.0004	-7.25	0.	131.02
3621	-5.7503	-7.	0.	131.39
3622	-5.751	-7.5	0.	132.06
3623	-6.2504	-7.5	0.	130.74
3624	-5.0036	-8.2508	0.	123.46
3625	-5.0034	-7.7505	0.	124.26
3626	-5.2532	-8.0005	0.	126.24
3627	-4.1498	4.7549	0.	131.76
3628	-3.9359	4.9968	0.	131.8
3629	-3.8846	4.5218	0.	136.57
3630	-4.368	4.4989	0.	132.04
3631	-3.1113	4.4017	0.	114.2
3632	-3.321	4.1222	0.	121.68
3633	-2.0038	2.2165	0.	125.57
3634	-2.2525	1.9759	0.	126.8
3635	-2.2537	2.4591	0.	126.97
3636	-2.75	2.9364	0.	121.95
3637	-2.5019	2.6942	0.	126.09
3638	-3.0011	2.7085	0.	120.87
3639	-2.5005	0.24697	0.	128.66
3640	-2.7503	-1.4939e-003	0.	123.93
3641	-2.5002	-0.25155	0.	125.51
3642	-2.251	0.99176	0.	129.24
3643	-2.0009	0.74229	0.	129.5
3644	-5.001	0.74833	0.	128.78
3645	-4.7511	0.99834	0.	128.96
3646	-5.2517	0.99737	0.	128.12
3647	-4.7504	0.49913	0.	129.86
3648	-4.2501	-2.2938e-004	0.	124.19
3649	-4.5002	0.24955	0.	128.58
3650	-4.0001	0.24982	0.	122.24
3651	-4.5121	2.7457	0.	131.55
3652	-4.2601	2.9995	0.	127.4
3653	-4.7556	1.9957	0.	130.08
3654	-5.0097	2.2428	0.	130.47
3655	4.9871	3.7533	0.	130.38
3656	5.243	4.	0.	130.11
3657	5.2289	3.4988	0.	130.92
3658	5.9537	3.2275	0.	122.34
3659	5.6911	2.9796	0.	124.55
3660	5.9076	2.7137	0.	121.65
3661	5.5003	6.7501	0.	130.21
3662	5.7505	7.	0.	124.77
3663	5.25	6.0002	0.	132.
3664	5.	6.2503	0.	132.38
3665	7.0005	6.7499	0.	121.67
3666	7.2506	6.9999	0.	123.64
3667	7.4438	3.1981	0.	128.27
3668	7.1757	2.9405	0.	123.25
3669	7.4091	2.6791	0.	125.77
3670	8.2327	3.9758	0.	129.26
3671	7.7339	3.9762	0.	130.3
3672	7.9869	4.2288	0.	129.52
3673	7.9718	3.7145	0.	129.95
3674	7.1308	-1.0661	0.	135.27
3675	6.934	-1.3892	0.	130.11
3676	7.3232	-0.75276	0.	131.37
3677	7.5075	-0.42484	0.	126.38
3678	4.9175	-1.7469	0.	127.38
3679	4.6607	-1.9886	0.	130.22
3680	4.6566	-1.5333	0.	136.38
3681	4.3976	-1.7952	0.	132.37
3682	5.1734	-1.5003	0.	124.71
3683	5.4361	-1.7053	0.	116.99
3684	3.7492	5.5006	0.	125.74
3685	3.9988	5.2517	0.	125.67
3686	2.9984	6.2498	0.	119.43
3687	2.9983	5.75	0.	119.84
3688	2.7475	5.9996	0.	119.48
3689	3.2485	6.	0.	119.07
3690	3.9911	3.7595	0.	130.31
3691	3.7402	3.5095	0.	131.77
3692	3.7452	4.0057	0.	129.38
3693	0.98306	3.7482	0.	128.99
3694	1.2358	3.9986	0.	129.39
3695	1.2376	3.4991	0.	130.07
3696	0.73181	3.4972	0.	128.31
3697	1.7428	3.0002	0.	124.
3698	1.4911	3.2498	0.	129.51
3699	1.4933	2.7498	0.	129.36
3700	1.995	2.7504	0.	120.26
3701	1.9941	3.2505	0.	120.8
3702	1.7436	5.998	0.	127.56
3703	1.9947	5.7487	0.	124.59
3704	2.2458	5.9989	0.	122.52
3705	1.491	5.7475	0.	132.1
3706	0.98091	5.2463	0.	132.69
3707	1.2362	5.4968	0.	133.91
3708	0.72922	5.4958	0.	134.23
3709	1.2341	4.9972	0.	132.06
3710	-3.3527	7.0462	0.	126.23
3711	-3.098	7.1784	0.	123.77
3712	-3.9136	6.6495	0.	130.59
3713	-3.6234	6.8223	0.	129.21
3714	-3.7466	6.3637	0.	134.23
3715	-1.8335	4.4167	0.	125.27
3716	-2.113	4.6358	0.	128.41
3717	-2.0626	4.1433	0.	123.62
3718	-1.6065	4.7077	0.	126.16
3719	5.9552	1.4439	0.	118.
3720	6.16	1.1502	0.	117.51
3721	4.5735	0.83926	0.	132.63
3722	4.6042	1.3477	0.	132.13
3723	4.8476	1.0681	0.	131.34
3724	4.8225	0.59312	0.	133.05
3725	4.5601	0.37537	0.	131.24
3726	0.9988	1.2495	0.	126.14
3727	1.2486	1.4996	0.	129.28
3728	2.0284	-1.2429	0.	126.31
3729	1.7738	-1.4943	0.	130.56
3730	5.7512	-6.9999	0.	120.93
3731	5.5014	-6.7498	0.	120.05
3732	-2.9601	8.2117	0.	127.77
3733	-2.7065	7.9715	0.	128.57
3734	0.99985	8.2498	0.	129.25
3735	0.74981	7.9998	0.	130.69
3736	0.99945	7.7495	0.	129.33
3737	-7.7522	8.5019	0.	124.93
3738	-8.2512	8.5008	0.	124.86
3739	-8.0013	8.751	0.	125.
3740	-8.0015	8.2512	0.	124.8
3741	-7.2537	8.5041	0.	125.01
3742	-7.5023	8.7523	0.	125.09
3743	-6.7559	8.5083	0.	125.12
3744	-7.0038	8.7547	0.	125.18
3745	-6.2583	8.5147	0.	125.25
3746	-6.5056	8.7591	0.	125.3
3747	-5.7594	8.5203	0.	125.41
3748	-6.0068	8.7645	0.	125.43
3749	-5.2568	8.5175	0.	125.57
3750	-5.5059	8.7666	0.	125.57
3751	-4.7485	8.4949	0.	125.72
3752	-5.001	8.7574	0.	125.68
3753	-4.2367	8.451	0.	125.87
3754	-4.4926	8.7295	0.	125.77
3755	-3.7277	8.4296	0.	126.26
3756	-3.9848	8.6927	0.	125.95
3757	-3.2253	8.4492	0.	127.46
3758	-3.4817	8.6987	0.	126.5
3759	-2.7298	8.4755	0.	129.9
3760	-2.9828	8.7197	0.	127.89
3761	1.2499	8.4998	0.	128.3
3762	0.75002	8.4999	0.	130.77
3763	1.	8.7499	0.	128.53
3764	1.7499	8.4998	0.	127.6
3765	1.4999	8.7498	0.	127.15
3766	1.9999	8.7498	0.	127.68
3767	2.2499	8.4998	0.	130.2
3768	-8.5038	3.2487	0.	121.33
3769	-8.7523	2.9992	0.	122.97
3770	-8.5022	2.7491	0.	119.76
3771	-8.5057	3.7485	0.	122.32
3772	-8.7536	3.4989	0.	123.2
3773	-8.5064	4.2486	0.	123.09
3774	-8.7554	3.9988	0.	123.6
3775	-8.5052	4.7491	0.	123.6
3776	-8.7548	4.4992	0.	123.92
3777	-8.5029	5.2496	0.	123.91
3778	-8.7535	4.9996	0.	124.09
3779	-8.2558	4.9988	0.	123.69
3780	-8.5003	5.7499	0.	124.08
3781	-8.7513	5.4999	0.	124.17
3782	-8.2518	5.4994	0.	123.95
3783	-8.4985	6.2499	0.	124.19
3784	-8.7493	6.	0.	124.21
3785	-8.4983	6.7499	0.	124.3
3786	-8.7486	6.4999	0.	124.26
3787	-8.247	6.4998	0.	124.22
3788	-8.4991	7.25	0.	124.42
3789	-8.7489	6.9999	0.	124.34
3790	-8.5001	7.7501	0.	124.56
3791	-8.7497	7.5	0.	124.45
3792	-8.5006	8.2503	0.	124.73
3793	-8.7503	8.0001	0.	124.61
3794	-8.251	8.0007	0.	124.67
3795	-8.7506	8.5003	0.	124.78
3796	-8.5007	8.7504	0.	124.91
3797	-8.5	-7.75	0.	128.33
3798	-8.5	-8.25	0.	128.7
3799	-8.75	-8.	0.	128.42
3800	-8.25	-8.	0.	128.68
3801	-8.5	-7.25	0.	127.9
3802	-8.75	-7.5	0.	128.01
3803	-8.25	-7.5	0.	128.25
3804	-8.5	-6.75	0.	127.49
3805	-8.75	-7.	0.	127.58
3806	-8.5	-6.25	0.	127.21
3807	-8.75	-6.5	0.	127.23
3808	-8.5	-5.75	0.	127.09
3809	-8.75	-6.	0.	127.02
3810	-8.5	-5.25	0.	127.15
3811	-8.75	-5.5	0.	126.98
3812	-8.5	-4.75	0.	127.3
3813	-8.75	-5.	0.	127.08
3814	-8.5	-4.25	0.	127.45
3815	-8.75	-4.5	0.	127.24
3816	-8.5	-3.75	0.	127.51
3817	-8.75	-4.	0.	127.37
3818	-8.5	-3.25	0.	127.41
3819	-8.75	-3.5	0.	127.41
3820	-8.5	-2.75	0.	127.12
3821	-8.75	-3.	0.	127.33
3822	-8.5	-2.25	0.	126.62
3823	-8.75	-2.5	0.	127.09
3824	-8.5	-1.75	0.	125.89
3825	-8.75	-2.	0.	126.68
3826	-8.5	-1.25	0.	124.9
3827	-8.75	-1.5	0.	126.09
3828	-8.5	-0.75	0.	123.64
3829	-8.75	-1.	0.	125.31
3830	-8.5	-0.25	0.	122.19
3831	-8.75	-0.5	0.	124.43
3832	-8.75	-3.4251e-006	0.	123.74
3833	-8.5	0.25	0.	120.28
3834	5.7502	-8.5	0.	125.09
3835	6.0001	-8.75	0.	125.89
3836	6.2501	-8.5	0.	126.83
3837	5.2504	-8.4999	0.	125.33
3838	5.5002	-8.75	0.	125.66
3839	4.7509	-8.4997	0.	126.25
3840	5.0004	-8.7499	0.	126.19
3841	4.2516	-8.4993	0.	127.3
3842	4.5008	-8.7497	0.	127.06
3843	4.5017	-8.2494	0.	126.76
3844	3.7527	-8.4985	0.	128.09
3845	4.0015	-8.7492	0.	127.88
3846	3.2543	-8.4973	0.	128.54
3847	3.5026	-8.7484	0.	128.45
3848	2.7562	-8.4958	0.	128.74
3849	3.0039	-8.7473	0.	128.76
3850	2.2582	-8.4941	0.	128.76
3851	2.5055	-8.7458	0.	128.88
3852	1.7602	-8.493	0.	128.64
3853	2.0071	-8.7444	0.	128.83
3854	1.2621	-8.492	0.	128.35
3855	1.5087	-8.7437	0.	128.57
3856	0.76312	-8.4912	0.	127.75
3857	1.0101	-8.7427	0.	128.05
3858	0.26359	-8.4925	0.	126.64
3859	0.51056	-8.743	0.	127.02
3860	1.0881e-002	-8.7446	0.	125.26
3861	-1.2452	-8.513	0.	115.76
3862	-0.99247	-8.7454	0.	116.98
3863	-0.97103	-8.2065	0.	116.81
3864	-1.7586	-8.5443	0.	118.25
3865	-1.5006	-8.7788	0.	116.47
3866	-1.5088	-8.3085	0.	113.2
3867	-2.2685	-8.5424	0.	122.37
3868	-2.0116	-8.7902	0.	120.17
3869	-2.7694	-8.5256	0.	123.24
3870	-2.5156	-8.7776	0.	122.53
3871	-3.2657	-8.5136	0.	121.2
3872	-3.0251	-8.2683	0.	123.49
3873	-3.0142	-8.7657	0.	121.91
3874	-3.7611	-8.5069	0.	119.06
3875	-3.5107	-8.7583	0.	119.99
3876	-4.2571	-8.5032	0.	119.07
3877	-4.0072	-8.754	0.	119.12
3878	-4.7543	-8.5014	0.	121.59
3879	-4.5045	-8.7518	0.	120.41
3880	-5.2524	-8.5006	0.	125.17
3881	-5.0026	-8.7508	0.	123.41
3882	-5.7514	-8.5003	0.	128.01
3883	-5.5015	-8.7503	0.	126.53
3884	-5.5021	-8.2503	0.	127.95
3885	-6.2508	-8.5001	0.	129.39
3886	-6.0009	-8.7502	0.	128.57
3887	-6.7504	-8.5001	0.	129.7
3888	-6.5005	-8.7501	0.	129.42
3889	-7.2502	-8.5	0.	129.57
3890	-7.0003	-8.75	0.	129.59
3891	-7.7501	-8.5	0.	129.28
3892	-7.5001	-8.75	0.	129.45
3893	-8.2501	-8.5	0.	129.
3894	-8.0001	-8.75	0.	129.21
3895	-8.0001	-8.25	0.	128.98
3896	-8.5	-8.75	0.	128.97
3897	-8.75	-8.5	0.	128.77
3898	0.74926	0.99931	0.	122.31
3899	0.49949	0.74926	0.	116.4
3900	2.2834	-0.98906	0.	122.59
3901	2.5344	-0.73753	0.	115.74
3902	8.2493	-5.5003	0.	125.2
3903	7.9995	-5.7504	0.	123.77
3904	7.7495	-5.5006	0.	124.63
3905	7.9992	-5.2508	0.	125.03
3906	5.2502	8.5	0.	125.77
3907	5.0001	8.75	0.	126.84
3908	4.7501	8.5	0.	129.91
3909	5.7503	8.5	0.	123.78
3910	5.5002	8.75	0.	124.53
3911	6.2503	8.5	0.	122.83
3912	6.0003	8.75	0.	123.4
3913	6.7503	8.5	0.	122.82
3914	6.5003	8.75	0.	123.08
3915	7.2503	8.5	0.	123.43
3916	7.0003	8.75	0.	123.38
3917	7.7503	8.5	0.	124.24
3918	7.5002	8.75	0.	124.01
3919	8.2502	8.5	0.	124.89
3920	8.0002	8.75	0.	124.62
3921	8.5002	8.25	0.	125.36
3922	8.5002	8.75	0.	125.03
3923	8.7502	8.5	0.	125.23
3924	8.5003	7.75	0.	125.96
3925	8.7502	8.	0.	125.63
3926	8.5004	7.2499	0.	126.76
3927	8.7503	7.4999	0.	126.23
3928	8.5003	6.7496	0.	127.45
3929	8.7503	6.9997	0.	126.87
3930	8.5	6.249	0.	127.66
3931	8.7501	6.4993	0.	127.23
3932	8.2503	6.4995	0.	128.31
3933	8.4993	5.7474	0.	127.58
3934	8.7497	5.9983	0.	127.16
3935	8.2499	5.9986	0.	128.34
3936	8.4973	5.244	0.	127.61
3937	8.7486	5.496	0.	127.09
3938	8.4933	4.7388	0.	127.87
3939	8.7458	4.9923	0.	127.24
3940	8.487	4.2318	0.	128.36
3941	8.7417	4.4872	0.	127.66
3942	8.2412	4.4849	0.	128.62
3943	8.4766	3.7213	0.	128.92
3944	8.7351	3.9807	0.	128.27
3945	8.4616	3.2082	0.	129.14
3946	8.7239	3.4698	0.	128.81
3947	8.2156	3.4601	0.	129.62
3948	8.4479	2.6946	0.	128.9
3949	8.7108	2.9596	0.	128.87
3950	8.4462	2.1845	0.	128.61
3951	8.7044	2.4508	0.	128.66
3952	8.4736	1.6817	0.	128.4
3953	8.7122	1.9472	0.	128.44
3954	8.4917	1.1806	0.	128.11
3955	8.7424	1.4455	0.	128.19
3956	8.4753	0.68422	0.	127.44
3957	8.7369	0.94451	0.	127.74
3958	8.2418	0.91362	0.	128.15
3959	8.4745	0.19435	0.	126.62
3960	8.725	0.45266	0.	126.97
3961	8.5015	-0.29587	0.	126.28
3962	8.7394	-3.8604e-002	0.	126.38
3963	8.5325	-0.78603	0.	126.83
3964	8.7649	-0.53115	0.	126.43
3965	8.5464	-1.2767	0.	127.92
3966	8.7853	-1.024	0.	127.29
3967	8.5249	-1.7677	0.	128.74
3968	8.7848	-1.5189	0.	128.26
3969	8.5013	-2.2601	0.	129.06
3970	8.7557	-2.0118	0.	128.88
3971	8.5001	-2.7568	0.	129.05
3972	8.7507	-2.5072	0.	129.1
3973	8.5001	-3.2552	0.	129.05
3974	8.7507	-3.0055	0.	129.18
3975	8.499	-3.7534	0.	129.05
3976	8.7497	-3.5037	0.	129.25
3977	8.4983	-4.2518	0.	128.72
3978	8.749	-4.0023	0.	129.19
3979	8.4983	-4.7508	0.	127.82
3980	8.7487	-4.5012	0.	128.71
3981	8.4989	-5.2503	0.	126.99
3982	8.2488	-5.0007	0.	126.83
3983	8.7488	-5.0004	0.	127.92
3984	8.4994	-5.7501	0.	127.73
3985	8.7493	-5.5001	0.	127.86
3986	8.2496	-6.0001	0.	126.34
3987	8.7496	-6.	0.	129.64
3988	8.4997	-6.25	0.	131.24
3989	6.0007	-7.25	0.	121.49
3990	6.2504	-7.5	0.	124.97
3991	5.4402	1.4857	0.	121.01
3992	4.9016	1.5647	0.	127.91
3993	5.1451	1.2852	0.	127.18
3994	5.7504	1.7026	0.	118.77
3995	5.6578	1.2357	0.	115.1
3996	-1.6741	5.2473	0.	117.05
3997	-1.886	4.9269	0.	129.13
3998	-1.3684	4.9792	0.	121.51
3999	6.0007	-6.7499	0.	120.5
4000	6.2506	-6.9999	0.	121.99
4001	7.7497	-6.0002	0.	123.19
4002	7.9998	-6.2501	0.	124.88
4003	1.7681	-0.99606	0.	130.94
4004	2.0198	-0.74539	0.	125.01
4005	0.99963	0.74968	0.	127.01
4006	1.2495	0.99975	0.	131.54
4007	-3.4564	6.5365	0.	132.79
4008	-3.1772	6.6744	0.	119.66
4009	1.4894	5.2477	0.	133.27
4010	1.7421	5.4981	0.	129.14
4011	1.7423	3.5001	0.	126.28
4012	1.4903	3.7496	0.	130.44
4013	3.4943	3.7557	0.	130.8
4014	3.2436	3.5051	0.	126.48
4015	3.49	3.2592	0.	131.16
4016	3.4991	5.2508	0.	126.21
4017	3.2488	5.5003	0.	123.36
4018	3.499	5.7503	0.	122.74
4019	7.0476	-0.58739	0.	127.59
4020	6.8664	-0.91146	0.	135.56
4021	7.4726	3.7191	0.	130.5
4022	7.2107	3.4642	0.	125.23
4023	7.7104	3.4574	0.	130.19
4024	7.2504	6.4998	0.	126.26
4025	7.5003	6.2494	0.	130.16
4026	7.7504	6.4996	0.	129.61
4027	7.5005	6.7498	0.	128.25
4028	5.5001	6.2501	0.	132.31
4029	5.7503	6.5001	0.	127.47
4030	5.2502	6.5001	0.	132.71
4031	5.4849	3.7455	0.	130.63
4032	5.7242	3.4892	0.	126.91
4033	5.4616	3.2412	0.	129.16
4034	-4.5065	2.2467	0.	131.69
4035	-4.2571	2.4978	0.	128.4
4036	-4.7607	2.4938	0.	132.12
4037	-4.2502	0.4996	0.	126.59
4038	-4.5005	0.74915	0.	130.01
4039	-2.5008	0.74459	0.	130.38
4040	-2.7505	0.49738	0.	126.58
4041	-2.2506	0.49513	0.	130.66
4042	-2.5024	2.2185	0.	128.18
4043	-2.753	2.4663	0.	124.93
4044	-3.3938	4.5781	0.	125.54
4045	-3.6708	4.7637	0.	136.25
4046	-3.6036	4.2987	0.	133.13
4047	-5.2521	-7.5002	0.	128.83
4048	-5.5009	-7.25	0.	132.4
4049	-5.5019	-7.7502	0.	130.87
4050	-2.4133	-7.2659	0.	139.28
4051	-2.8337	-7.4856	0.	130.13
4052	-5.25	-4.5	0.	130.39
4053	-5.5	-4.75	0.	133.42
4054	-5.75	-4.5	0.	132.98
4055	0.50012	8.7499	0.	130.28
4056	0.25021	8.4999	0.	129.62
4057	0.49999	8.2499	0.	132.16
4058	-2.4762	8.2353	0.	130.65
4059	-2.2379	8.4917	0.	128.48
4060	-2.4877	8.7374	0.	129.41
4061	0.2196	5.4954	0.	129.86
4062	0.48328	5.7461	0.	134.36
4063	3.2404	2.5095	0.	128.41
4064	3.4941	2.2653	0.	133.99
4065	3.4876	2.7629	0.	132.24
4066	1.4962	2.2498	0.	130.41
4067	1.7454	2.5	0.	125.62
4068	3.3192	-0.45491	0.	127.83
4069	3.5684	-0.19361	0.	130.9
4070	3.8762	-0.40559	0.	129.42
4071	5.7502	9.	0.	124.15
4072	5.2501	9.	0.	125.59
4073	5.5001	9.25	0.	124.85
4074	6.0001	9.25	0.	124.24
4075	6.2502	9.	0.	123.65
4076	7.7502	9.	0.	124.39
4077	7.5001	9.25	0.	124.35
4078	7.2502	9.	0.	123.96
4079	8.2501	9.	0.	124.76
4080	8.0001	9.25	0.	124.65
4081	8.7501	9.	0.	125.01
4082	8.5001	9.25	0.	124.88
4083	9.0001	8.75	0.	125.21
4084	9.0001	9.25	0.	125.03
4085	9.2501	9.	0.	125.13
4086	9.0002	8.25	0.	125.5
4087	9.2501	8.5	0.	125.34
4088	9.0002	7.75	0.	125.9
4089	9.2501	8.	0.	125.62
4090	9.0002	7.2498	0.	126.34
4091	9.2502	7.4999	0.	125.95
4092	9.0001	6.7494	0.	126.65
4093	9.2501	6.9997	0.	126.23
4094	8.9998	6.2486	0.	126.73
4095	9.2499	6.4991	0.	126.33
4096	8.9989	5.7468	0.	126.68
4097	9.2495	5.9982	0.	126.27
4098	8.9971	5.2442	0.	126.73
4099	9.2485	5.4964	0.	126.24
4100	8.9941	4.7407	0.	127.03
4101	9.2466	4.9942	0.	126.44
4102	8.9897	4.2361	0.	127.57
4103	9.2441	4.4913	0.	126.92
4104	8.9823	3.7292	0.	128.16
4105	9.2397	3.9873	0.	127.57
4106	8.9732	3.2213	0.	128.55
4107	9.2326	3.4806	0.	128.17
4108	8.9674	2.7159	0.	128.63
4109	9.2262	2.9759	0.	128.5
4110	8.9703	2.2135	0.	128.49
4111	9.2255	2.4743	0.	128.52
4112	9.2315	1.9735	0.	128.33
4113	8.9809	1.7111	0.	128.23
4114	8.9866	0.71295	0.	127.27
4115	9.2409	0.97123	0.	127.42
4116	8.9875	1.2095	0.	127.82
4117	8.9898	0.21971	0.	126.73
4118	9.2399	0.47574	0.	126.84
4119	9.0028	-0.27388	0.	126.53
4120	9.2464	-1.909e-002	0.	126.42
4121	9.0177	-0.76908	0.	126.89
4122	9.2582	-0.51501	0.	126.5
4123	9.0237	-1.2662	0.	127.63
4124	9.2673	-1.0124	0.	127.08
4125	9.0157	-1.7629	0.	128.39
4126	9.2666	-1.5115	0.	127.91
4127	9.0051	-2.2589	0.	128.92
4128	9.2567	-2.0085	0.	128.65
4129	9.0013	-2.7559	0.	129.23
4130	9.2518	-2.5056	0.	129.17
4131	9.0003	-3.254	0.	129.39
4132	9.2505	-3.0037	0.	129.49
4133	8.9997	-3.7527	0.	129.4
4134	9.2499	-3.5024	0.	129.64
4135	8.9994	-4.2517	0.	129.18
4136	9.2496	-4.0016	0.	129.6
4137	9.2494	-4.5009	0.	129.36
4138	8.9991	-4.7508	0.	128.81
4139	8.9997	-6.25	0.	131.48
4140	9.2497	-6.	0.	130.64
4141	8.9995	-5.75	0.	129.76
4142	8.9999	-6.75	0.	132.6
4143	8.7498	-6.5	0.	133.06
4144	9.2499	-6.5	0.	131.86
4145	9.	-7.25	0.	132.69
4146	8.7499	-7.	0.	133.32
4147	9.25	-7.	0.	132.16
4148	9.	-7.75	0.	132.76
4149	8.75	-7.5	0.	134.12
4150	9.25	-7.5	0.	132.08
4151	9.	-8.25	0.	132.66
4152	8.75	-8.	0.	134.88
4153	9.25	-8.	0.	132.41
4154	8.75	-8.5	0.	133.34
4155	9.25	-8.5	0.	132.38
4156	9.	-8.75	0.	132.55
4157	8.2498	-6.5001	0.	129.77
4158	8.4999	-6.75	0.	133.76
4159	-6.5007	0.7487	0.	132.74
4160	-6.7504	0.49938	0.	130.71
4161	-6.2506	0.49877	0.	132.22
4162	-6.7589	2.4935	0.	130.98
4163	-6.5076	2.2433	0.	133.56
4164	5.7501	-9.	0.	126.46
4165	6.25	-9.	0.	126.63
4166	6.	-9.25	0.	127.16
4167	5.2502	-9.	0.	126.51
4168	5.5001	-9.25	0.	126.98
4169	4.7504	-8.9999	0.	127.
4170	5.0002	-9.25	0.	127.15
4171	4.2508	-8.9996	0.	127.64
4172	4.5004	-9.2498	0.	127.57
4173	3.7514	-8.9991	0.	128.24
4174	4.0007	-9.2496	0.	128.1
4175	3.2522	-8.9984	0.	128.67
4176	3.5012	-9.2492	0.	128.57
4177	2.7532	-8.9974	0.	128.91
4178	3.0019	-9.2485	0.	128.89
4179	2.2544	-8.9961	0.	128.95
4180	2.5026	-9.2476	0.	129.03
4181	1.7556	-8.9951	0.	128.76
4182	2.0035	-9.2466	0.	128.95
4183	1.2567	-8.9944	0.	128.27
4184	1.5044	-9.2459	0.	128.58
4185	0.75754	-8.9945	0.	127.32
4186	1.0053	-9.2457	0.	127.8
4187	0.25785	-8.9951	0.	125.64
4188	0.50578	-9.246	0.	126.42
4189	-0.24277	-8.9965	0.	122.94
4190	5.7112e-003	-9.2467	0.	124.23
4191	-0.74445	-8.9996	0.	119.63
4192	-0.4951	-9.2483	0.	121.22
4193	-1.2479	-9.0112	0.	117.65
4194	-0.99672	-9.252	0.	118.41
4195	-1.7536	-9.0247	0.	118.4
4196	-1.5001	-9.2651	0.	117.75
4197	-2.2586	-9.0254	0.	120.32
4198	-2.0047	-9.2707	0.	119.18
4199	-2.5074	-9.2664	0.	120.57
4200	-2.7604	-9.0178	0.	121.18
4201	-3.7568	-9.0054	0.	120.04
4202	-3.5059	-9.2556	0.	120.26
4203	-3.2592	-9.0104	0.	120.7
4204	-4.2545	-9.0027	0.	120.45
4205	-4.0042	-9.2529	0.	120.21
4206	-4.7528	-9.0012	0.	122.24
4207	-4.5026	-9.2513	0.	121.34
4208	-5.2517	-9.0006	0.	124.77
4209	-5.0016	-9.2506	0.	123.5
4210	-5.751	-9.0002	0.	127.08
4211	-5.5009	-9.2503	0.	125.91
4212	-6.2505	-9.0001	0.	128.59
4213	-6.0005	-9.2501	0.	127.8
4214	-6.7503	-9.0001	0.	129.3
4215	-6.5003	-9.2501	0.	128.92
4216	-7.2502	-9.	0.	129.48
4217	-7.0002	-9.25	0.	129.39
4218	-7.7501	-9.	0.	129.38
4219	-7.5001	-9.25	0.	129.46
4220	-8.25	-9.	0.	129.18
4221	-8.	-9.25	0.	129.32
4222	-8.75	-9.	0.	129.01
4223	-8.5	-9.25	0.	129.14
4224	-9.	-8.75	0.	128.81
4225	-9.25	-9.	0.	128.97
4226	-9.	-9.25	0.	129.03
4227	-9.	-8.25	0.	128.49
4228	-9.25	-8.5	0.	128.65
4229	-9.	-7.75	0.	128.11
4230	-9.25	-8.	0.	128.24
4231	-9.25	-7.5	0.	127.78
4232	-9.	-7.25	0.	127.69
4233	-9.	-6.25	0.	127.04
4234	-9.25	-6.5	0.	126.98
4235	-9.	-6.75	0.	127.32
4236	-9.	-5.75	0.	126.9
4237	-9.25	-6.	0.	126.75
4238	-9.	-5.25	0.	126.91
4239	-9.25	-5.5	0.	126.68
4240	-9.	-4.75	0.	127.01
4241	-9.25	-5.	0.	126.75
4242	-9.	-4.25	0.	127.16
4243	-9.25	-4.5	0.	126.9
4244	-9.	-3.75	0.	127.28
4245	-9.25	-4.	0.	127.09
4246	-9.	-3.25	0.	127.33
4247	-9.25	-3.5	0.	127.27
4248	-9.	-2.75	0.	127.29
4249	-9.25	-3.	0.	127.39
4250	-9.	-2.25	0.	127.15
4251	-9.25	-2.5	0.	127.47
4252	-9.	-1.75	0.	126.88
4253	-9.25	-2.	0.	127.5
4254	-9.	-1.25	0.	126.5
4255	-9.25	-1.5	0.	127.5
4256	-9.	-0.75	0.	126.1
4257	-9.25	-1.	0.	127.53
4258	-9.	-0.25	0.	125.99
4259	-9.25	-0.5	0.	127.7
4260	-9.	0.25	0.	126.91
4261	-9.25	-8.863e-007	0.	128.41
4262	4.509	-4.7669	0.	132.29
4263	4.7628	-4.5238	0.	129.61
4264	4.7533	-6.4994	0.	130.01
4265	4.5038	-6.2498	0.	132.29
4266	7.4995	-4.752	0.	128.99
4267	7.2508	-4.504	0.	126.74
4268	7.5006	-4.2544	0.	128.66
4269	-1.2498	-2.5	0.	125.98
4270	-1.4999	-2.2501	0.	129.01
4271	-1.4998	-2.75	0.	126.98
4272	1.5215	-2.2441	0.	133.72
4273	1.2677	-2.4951	0.	130.48
4274	1.784	-2.4905	0.	133.44
4275	-1.2503	0.49594	0.	127.38
4276	-1.5003	0.24598	0.	131.04
4277	-1.7505	0.49451	0.	130.91
4278	4.4999	6.7502	0.	132.81
4279	4.2497	6.5002	0.	128.23
4280	4.75	6.5002	0.	133.09
4281	4.7501	9.	0.	128.17
4282	5.0001	9.25	0.	126.34
4283	-9.0021	3.2494	0.	124.84
4284	-9.0012	2.7496	0.	126.27
4285	-9.2512	2.9996	0.	127.27
4286	-9.0033	3.7493	0.	124.49
4287	-9.2519	3.4995	0.	126.09
4288	-9.0038	4.2494	0.	124.43
4289	-9.2531	3.9994	0.	125.46
4290	-9.0031	4.7497	0.	124.4
4291	-9.2526	4.4997	0.	125.02
4292	-9.0018	5.2499	0.	124.35
4293	-9.2519	4.9999	0.	124.68
4294	-9.0004	5.75	0.	124.3
4295	-9.2508	5.5	0.	124.43
4296	-8.9994	6.25	0.	124.28
4297	-9.2498	6.0001	0.	124.28
4298	-8.9992	6.75	0.	124.3
4299	-9.2494	6.5	0.	124.22
4300	-8.9995	7.25	0.	124.38
4301	-9.2494	7.	0.	124.25
4302	-9.	7.75	0.	124.5
4303	-9.2498	7.5	0.	124.35
4304	-9.0003	8.2501	0.	124.65
4305	-9.2501	8.	0.	124.51
4306	-9.0003	8.7501	0.	124.82
4307	-9.2503	8.5001	0.	124.69
4308	-8.7504	9.0002	0.	124.96
4309	-9.2502	9.0001	0.	124.86
4310	-9.0002	9.2501	0.	124.98
4311	-8.2508	9.0006	0.	125.06
4312	-8.5004	9.2502	0.	125.09
4313	-7.7514	9.0013	0.	125.15
4314	-8.0008	9.2506	0.	125.2
4315	-7.2524	9.0028	0.	125.25
4316	-7.5014	9.2514	0.	125.32
4317	-6.7535	9.0054	0.	125.36
4318	-7.0022	9.2529	0.	125.44
4319	-6.2541	9.0089	0.	125.48
4320	-6.5029	9.2552	0.	125.58
4321	-5.7533	9.0107	0.	125.59
4322	-6.0028	9.2577	0.	125.71
4323	-5.5012	9.2575	0.	125.81
4324	-5.2501	9.0065	0.	125.68
4325	-4.2406	8.9711	0.	125.85
4326	-4.4939	9.2361	0.	125.89
4327	-4.7451	8.9919	0.	125.74
4328	-3.7388	8.9617	0.	126.19
4329	-3.9918	9.2214	0.	125.94
4330	-3.2393	8.9692	0.	126.94
4331	-3.4921	9.223	0.	126.15
4332	-2.9931	9.2318	0.	126.52
4333	-2.7408	8.9817	0.	127.39
4334	-1.7464	8.9982	0.	121.82
4335	-1.9937	8.7468	0.	124.75
4336	-1.9967	9.2476	0.	123.43
4337	-2.2436	8.9925	0.	125.65
4338	-1.248	8.9996	0.	118.89
4339	-1.497	8.7492	0.	117.93
4340	-1.4981	9.2494	0.	120.39
4341	-0.74896	8.9999	0.	119.17
4342	-0.99858	8.7498	0.	117.41
4343	-0.99896	9.2499	0.	119.28
4344	-0.24946	9.	0.	122.53
4345	-0.4993	8.75	0.	118.46
4346	-0.49944	9.25	0.	120.92
4347	0.25026	9.	0.	126.46
4348	3.4481e-004	8.75	0.	125.87
4349	2.8897e-004	9.25	0.	124.3
4350	0.7501	8.9999	0.	128.
4351	0.50013	9.25	0.	126.96
4352	1.25	8.9999	0.	127.38
4353	1.	9.2499	0.	127.3
4354	1.75	8.9999	0.	127.24
4355	1.5	9.2499	0.	126.87
4356	2.2499	8.9999	0.	128.64
4357	2.	9.2499	0.	127.41
4358	2.7481	6.4995	0.	123.13
4359	2.4982	6.7494	0.	126.72
4360	2.4972	6.2493	0.	123.3
4361	0.5328	-6.2354	0.	129.18
4362	0.31017	-6.4829	0.	127.6
4363	0.25362	-4.4962	0.	126.76
4364	0.50493	-4.744	0.	129.95
4365	0.50557	-4.2447	0.	127.67
4366	-2.25	-4.5007	0.	132.61
4367	-2.75	-4.5007	0.	134.15
4368	-2.5001	-4.7525	0.	137.09
4369	-1.7445	-7.5545	0.	119.9
4370	-1.569	-7.8963	0.	115.08
4371	-2.0444	-7.2406	0.	131.74
4372	-2.3814	-6.8588	0.	135.19
4373	-1.7499	-4.5002	0.	120.09
4374	-1.2496	-4.4999	0.	112.7
4375	-0.74898	-4.4995	0.	112.63
4376	-0.24808	-4.4986	0.	118.34
4377	0.50666	-5.2428	0.	130.35
4378	0.75705	-4.9911	0.	128.79
4379	0.51397	-5.7398	0.	130.12
4380	2.4996	7.7496	0.	132.22
4381	2.4991	7.2495	0.	129.12
4382	2.4998	8.2498	0.	133.05
4383	2.5	9.2499	0.	129.58
4384	2.4999	8.7499	0.	131.16
4385	4.5001	8.75	0.	131.25
4386	4.5	9.25	0.	129.18
4387	4.5001	8.25	0.	133.79
4388	4.5001	7.75	0.	134.18
4389	4.5001	7.2501	0.	132.97
4390	3.7495	6.5001	0.	116.72
4391	3.249	6.4999	0.	115.25
4392	3.4991	6.2501	0.	115.03
4393	-0.75021	0.49773	0.	118.22
4394	-1.0005	0.74554	0.	122.5
4395	-0.25019	0.49869	0.	113.09
4396	0.24979	0.49927	0.	113.88
4397	0.74986	0.49963	0.	121.07
4398	1.25	0.49986	0.	133.55
4399	1.509	-0.74878	0.	137.82
4400	1.7607	-0.49812	0.	131.9
4401	1.504	-0.24967	0.	137.52
4402	1.5135	-1.2475	0.	135.18
4403	1.5176	-1.7457	0.	133.41
4404	0.75862	-2.4978	0.	120.73
4405	1.013	-2.7459	0.	126.1
4406	0.25396	-2.4991	0.	114.38
4407	-0.24817	-2.4996	0.	113.23
4408	-0.74934	-2.4999	0.	117.76
4409	-0.4988	-2.7496	0.	114.03
4410	-1.5	-1.7502	0.	130.23
4411	-1.75	-2.0001	0.	127.86
4412	-1.5001	-0.25206	0.	131.61
4413	-1.5	-0.75096	0.	133.
4414	-1.5	-1.2504	0.	132.62
4415	7.4997	-5.251	0.	126.82
4416	7.7493	-5.0012	0.	127.23
4417	7.4997	-5.7504	0.	124.02
4418	7.4999	-6.2501	0.	119.24
4419	6.2504	-6.4999	0.	120.91
4420	6.7502	-6.5	0.	122.77
4421	6.5003	-6.75	0.	122.43
4422	5.7509	-6.4999	0.	119.58
4423	5.2518	-6.4998	0.	122.96
4424	4.5034	-5.752	0.	131.39
4425	4.5043	-5.2569	0.	131.25
4426	5.2623	-4.5233	0.	121.38
4427	5.0208	-4.2862	0.	125.19
4428	5.7611	-4.5204	0.	116.81
4429	6.7542	-4.5086	0.	119.49
4430	7.004	-4.2584	0.	123.08
4431	6.2582	-4.515	0.	116.23
4432	-8.7512	2.4995	0.	123.05
4433	-9.2506	2.4998	0.	130.31
4434	-8.2522	2.499	0.	119.08
4435	-7.7538	2.4981	0.	119.15
4436	-7.256	2.4964	0.	123.2
4437	-6.5034	1.746	0.	132.26
4438	-6.5016	1.2477	0.	131.88
4439	-7.2502	0.49981	0.	123.42
4440	-7.0002	0.24972	0.	127.09
4441	-8.75	0.5	0.	123.43
4442	-9.25	0.5	0.	130.99
4443	-8.25	0.49999	0.	119.41
4444	-7.7501	0.49997	0.	119.32
4445	7.25	-6.5	0.	119.84
4446	7.7499	-6.5001	0.	120.78
4447	8.5	-7.25	0.	134.75
4448	8.5	-7.75	0.	136.24
4449	8.5	-8.25	0.	135.56
4450	8.5	-8.75	0.	132.89
4451	8.5	-9.25	0.	131.41
4452	8.75	-9.	0.	132.11
4453	6.5003	-7.25	0.	125.52
4454	6.5002	-7.75	0.	128.72
4455	6.5001	-8.25	0.	129.11
4456	6.5001	-8.75	0.	127.55
4457	6.5	-9.25	0.	126.89
4458	2.788	-0.48243	0.	117.92
4459	2.2708	-0.49386	0.	117.94
4460	1.5008	0.24997	0.	137.71
4461	1.4999	0.74993	0.	138.12
4462	1.4993	1.2499	0.	134.69
4463	1.4983	1.7498	0.	131.52
4464	2.2459	2.5008	0.	115.31
4465	2.7446	2.5029	0.	116.41
4466	2.9925	2.7548	0.	121.78
4467	3.5107	1.7688	0.	135.16
4468	3.5376	0.29172	0.	132.89
4469	3.5267	0.78114	0.	136.43
4470	3.5232	1.2744	0.	137.05
4471	-0.29981	5.4957	0.	119.75
4472	-4.2639e-002	5.2448	0.	124.46
4473	-0.84953	5.4985	0.	114.1
4474	-1.4266	5.5137	0.	110.89
4475	-1.1209	5.2457	0.	115.26
4476	-1.9642	5.6765	0.	128.83
4477	-2.4508	7.2023	0.	131.61
4478	-2.4671	6.6407	0.	130.56
4479	-2.6685	6.9815	0.	127.17
4480	-2.4586	7.7287	0.	131.06
4481	-1.7444	8.4979	0.	120.81
4482	-1.2476	8.4994	0.	116.36
4483	-0.74892	8.4998	0.	116.6
4484	-0.24949	8.4999	0.	121.76
4485	0.49974	7.7497	0.	133.55
4486	0.49922	7.2495	0.	136.16
4487	0.74937	7.4995	0.	132.19
4488	0.49406	6.2478	0.	135.21
4489	0.49796	6.749	0.	136.79
4490	0.74629	6.4983	0.	133.71
4491	0.74844	6.9991	0.	133.92
4492	-4.75	-4.5	0.	121.44
4493	-5.	-4.25	0.	126.1
4494	-4.25	-4.5	0.	116.3
4495	-3.75	-4.5	0.	117.08
4496	-3.25	-4.5002	0.	123.89
4497	-2.5007	-5.2584	0.	138.44
4498	-2.5055	-5.7774	0.	147.71
4499	-2.5257	-6.3375	0.	141.04
4500	-3.2934	-7.5153	0.	119.49
4501	-3.047	-7.7712	0.	124.31
4502	-3.768	-7.5045	0.	114.25
4503	-4.2583	-7.5016	0.	113.84
4504	-4.7541	-7.5006	0.	119.42
4505	-5.5	-5.25	0.	133.72
4506	-5.5	-5.75	0.	135.21
4507	-5.5	-6.25	0.	134.93
4508	-5.5002	-6.75	0.	133.03
4509	-2.8958	4.6876	0.	112.25
4510	-2.3934	4.8205	0.	123.46
4511	-2.5017	1.7331	0.	128.53
4512	-2.5012	1.2406	0.	129.48
4513	-3.7502	0.49977	0.	117.37
4514	-3.2503	0.49926	0.	117.15
4515	-4.5013	1.2485	0.	129.87
4516	-4.5031	1.7477	0.	130.44
4517	-3.2536	2.4834	0.	116.94
4518	-3.7547	2.4963	0.	118.19
4519	5.4957	4.2487	0.	131.6
4520	5.4988	4.7498	0.	133.82
4521	5.4997	5.2501	0.	134.21
4522	5.4999	5.7501	0.	132.88
4523	6.2503	6.5	0.	116.4
4524	6.0004	6.75	0.	122.05
4525	6.7504	6.5	0.	116.31
4526	7.4999	5.7486	0.	131.45
4527	7.75	5.9989	0.	129.55
4528	7.4992	5.247	0.	133.68
4529	7.4971	4.743	0.	133.54
4530	7.4905	4.2344	0.	131.65
4531	7.7436	4.487	0.	130.88
4532	6.2193	3.4811	0.	116.73
4533	6.7143	3.4729	0.	115.25
4534	6.9426	3.2067	0.	120.21
4535	6.9082	-0.11851	0.	130.02
4536	7.2319	-0.25947	0.	123.03
4537	7.0709	0.24441	0.	135.25
4538	6.6281	0.27887	0.	133.41
4539	6.4025	-1.0548	0.	122.8
4540	6.6695	-1.2346	0.	131.14
4541	5.9205	-1.1611	0.	107.7
4542	6.1871	-1.365	0.	112.76
4543	5.4224	-1.2391	0.	115.94
4544	4.9126	-1.2867	0.	133.24
4545	5.6851	-1.4442	0.	108.49
4546	4.7084	-0.55933	0.	130.74
4547	4.6665	-1.0608	0.	133.85
4548	4.4119	-0.84094	0.	129.46
4549	5.0449	0.36541	0.	132.29
4550	5.0967	0.82194	0.	131.68
4551	4.8732	-7.7965e-002	0.	132.53
4552	4.7825	0.14766	0.	130.52
4553	4.6483	-7.2708e-002	0.	132.33
4554	4.451	-0.33686	0.	131.02
4555	3.4987	4.7518	0.	127.41
4556	3.7488	5.0019	0.	126.15
4557	3.4972	4.2534	0.	129.08
4558	2.7452	3.5021	0.	115.75
4559	2.9933	3.2541	0.	120.9
4560	2.2449	3.5008	0.	116.12
4561	1.4901	4.249	0.	130.44
4562	1.4896	4.7483	0.	131.68
4563	2.7479	5.4999	0.	116.58
4564	2.2459	5.4993	0.	118.19
4565	2.4971	5.7495	0.	116.33
4566	-3.6917	5.2122	0.	133.
4567	-3.5674	6.0857	0.	134.1
4568	-3.6493	5.6497	0.	132.03
4569	-0.76168	-7.7055	0.	119.81
4570	-1.2347	-8.0019	0.	113.75
4571	-0.49795	-7.2101	0.	125.26
4572	-0.38753	-6.6917	0.	119.13
4573	-0.13776	-6.4666	0.	118.24
4574	-2.721	6.4658	0.	120.24
4575	-2.9224	6.8066	0.	117.22
4576	-2.3461	6.0885	0.	140.13
4577	-9.5	-8.75	0.	128.81
4578	-9.5	-9.25	0.	129.11
4579	-9.5	-8.25	0.	128.4
4580	-9.5	-7.75	0.	127.92
4581	-9.5	-7.25	0.	127.43
4582	-9.5	-6.75	0.	127.
4583	-9.25	-7.	0.	127.34
4584	-9.5	-6.25	0.	126.69
4585	-9.5	-5.75	0.	126.52
4586	-9.5	-5.25	0.	126.51
4587	-9.5	-4.75	0.	126.64
4588	-9.5	-4.25	0.	126.84
4589	-9.5	-3.75	0.	127.08
4590	-9.5	-3.25	0.	127.33
4591	-9.5	-2.75	0.	127.57
4592	-9.5	-2.25	0.	127.82
4593	-9.5	-1.75	0.	128.12
4594	-9.5	-1.25	0.	128.53
4595	-9.5	-0.75	0.	129.13
4596	-9.5	-0.25	0.	130.13
4597	-9.5	0.25	0.	132.53
4598	-9.5	0.75	0.	134.2
4599	-9.5	1.25	0.	133.93
4600	-9.5	1.75	0.	133.58
4601	-9.5002	2.2499	0.	133.38
4602	-9.5006	2.7498	0.	131.36
4603	-9.501	3.2497	0.	128.52
4604	-9.5016	3.7497	0.	127.06
4605	-9.5018	4.2497	0.	126.06
4606	-9.5014	4.7499	0.	125.3
4607	-9.5008	5.25	0.	124.76
4608	-9.5002	5.7501	0.	124.41
4609	-9.4998	6.25	0.	124.22
4610	-9.4997	6.75	0.	124.17
4611	-9.4997	7.25	0.	124.23
4612	-9.4999	7.75	0.	124.36
4613	-9.5001	8.25	0.	124.54
4614	-9.5001	8.75	0.	124.73
4615	-9.5001	9.25	0.	124.89
4616	-9.2501	9.5	0.	125.01
4617	-8.7502	9.5001	0.	125.11
4618	-8.2504	9.5003	0.	125.23
4619	-7.7507	9.5007	0.	125.36
4620	-7.2512	9.5015	0.	125.51
4621	-6.7516	9.5027	0.	125.66
4622	-6.2516	9.5041	0.	125.8
4623	-5.7507	9.5045	0.	125.93
4624	-5.2488	9.5018	0.	126.01
4625	-4.7465	9.4949	0.	126.03
4626	-4.9977	9.2507	0.	125.87
4627	-4.2451	9.4864	0.	125.98
4628	-3.7451	9.4827	0.	125.9
4629	-3.246	9.4856	0.	125.73
4630	-2.7469	9.4913	0.	125.15
4631	-2.2478	9.4963	0.	123.83
4632	-2.4946	9.2413	0.	126.03
4633	-1.7485	9.4988	0.	122.
4634	-1.249	9.4997	0.	120.72
4635	-0.74943	9.5	0.	120.97
4636	-0.24968	9.5	0.	122.7
4637	0.25016	9.5	0.	124.81
4638	0.75008	9.5	0.	126.23
4639	1.25	9.5	0.	126.78
4640	1.75	9.4999	0.	127.05
4641	2.25	9.4999	0.	128.36
4642	2.75	9.5	0.	127.45
4643	3.25	9.5	0.	120.16
4644	3.75	9.5	0.	119.76
4645	4.25	9.5	0.	126.66
4646	4.75	9.5	0.	127.36
4647	5.2501	9.5	0.	125.59
4648	5.7501	9.5	0.	124.94
4649	6.2501	9.5	0.	124.61
4650	6.7501	9.5	0.	124.47
4651	6.5001	9.25	0.	124.02
4652	7.2501	9.5	0.	124.49
4653	7.0001	9.25	0.	124.1
4654	7.7501	9.5	0.	124.61
4655	8.2501	9.5	0.	124.77
4656	8.75	9.5	0.	124.9
4657	9.25	9.5	0.	124.99
4658	9.5	9.25	0.	125.09
4659	9.5001	8.75	0.	125.25
4660	9.5001	8.25	0.	125.46
4661	9.5001	7.7499	0.	125.68
4662	9.5001	7.2498	0.	125.84
4663	9.5	6.7494	0.	125.91
4664	9.4992	5.7478	0.	125.84
4665	9.4997	6.2488	0.	125.87
4666	9.4981	5.2464	0.	125.96
4667	9.4942	4.2425	0.	126.92
4668	9.4966	4.7449	0.	126.33
4669	9.4899	3.7386	0.	127.59
4670	9.4856	3.2352	0.	128.12
4671	9.4843	2.7343	0.	128.39
4672	9.4866	2.2343	0.	128.36
4673	9.49	1.7328	0.	128.06
4674	9.4928	1.2321	0.	127.56
4675	9.2394	1.4703	0.	127.96
4676	9.4942	0.73403	0.	126.99
4677	9.4965	0.23694	0.	126.53
4678	9.5019	-0.26022	0.	126.39
4679	9.5079	-0.75838	0.	126.69
4680	9.5102	-1.2578	0.	127.36
4681	9.5076	-1.7571	0.	128.16
4682	9.5034	-2.2552	0.	128.9
4683	9.5011	-2.7533	0.	129.43
4684	9.5002	-3.2521	0.	129.75
4685	9.4998	-3.7513	0.	129.84
4686	9.4996	-4.2508	0.	129.78
4687	9.4995	-4.7504	0.	129.69
4688	9.4996	-5.2501	0.	129.84
4689	9.2493	-5.0003	0.	129.15
4690	9.4997	-5.75	0.	130.36
4691	9.2495	-5.5001	0.	129.48
4692	9.4998	-6.25	0.	131.03
4693	9.4999	-6.75	0.	131.43
4694	9.5	-7.25	0.	131.56
4695	9.5	-7.75	0.	131.73
4696	9.5	-8.25	0.	132.12
4697	9.5	-8.75	0.	132.8
4698	9.5	-9.25	0.	133.65
4699	9.25	-9.	0.	132.97
4700	9.25	-9.5	0.	133.64
4701	8.75	-9.5	0.	132.27
4702	9.	-9.25	0.	132.96
4703	8.25	-9.5	0.	125.26
4704	7.75	-9.5	0.	112.52
4705	7.25	-9.5	0.	111.33
4706	6.75	-9.5	0.	121.98
4707	6.25	-9.5	0.	127.45
4708	5.75	-9.5	0.	127.68
4709	5.2501	-9.5	0.	127.61
4710	4.7502	-9.4999	0.	127.72
4711	4.2503	-9.4998	0.	128.03
4712	3.7506	-9.4996	0.	128.44
4713	3.2509	-9.4992	0.	128.79
4714	2.7513	-9.4987	0.	129.01
4715	2.2518	-9.4981	0.	129.03
4716	1.7523	-9.4975	0.	128.76
4717	1.2529	-9.4972	0.	128.1
4718	0.75349	-9.4973	0.	126.9
4719	0.25365	-9.4976	0.	125.02
4720	-0.24662	-9.4985	0.	122.52
4721	-0.74736	-9.5007	0.	120.01
4722	-1.2489	-9.5059	0.	118.51
4723	-1.7513	-9.5111	0.	118.53
4724	-2.2535	-9.5117	0.	119.43
4725	-2.7546	-9.5089	0.	120.15
4726	-3.2544	-9.5055	0.	120.32
4727	-3.0076	-9.2603	0.	120.77
4728	-3.7534	-9.5031	0.	120.42
4729	-4.7514	-9.5007	0.	122.61
4730	-4.2523	-9.5015	0.	121.1
4731	-5.2509	-9.5004	0.	124.64
4732	-5.7505	-9.5002	0.	126.62
4733	-6.2503	-9.5001	0.	128.12
4734	-6.7502	-9.5	0.	129.
4735	-7.2501	-9.5	0.	129.36
4736	-7.75	-9.5	0.	129.4
4737	-8.25	-9.5	0.	129.27
4738	-8.75	-9.5	0.	129.15
4739	-9.25	-9.5	0.	129.17
4740	2.2485	6.9992	0.	127.1
4741	-4.5868	4.2403	0.	131.09
4742	-4.8123	3.9811	0.	131.21
4743	-5.7854	3.4762	0.	131.23
4744	-6.0391	3.7226	0.	129.99
4745	0.22605	3.4936	0.	126.25
4746	-2.5001	-0.75073	0.	124.18
4747	4.6508	-2.4339	0.	127.54
4748	-4.005	2.7515	0.	124.27
4749	6.5295	-2.8184	0.	120.3
4750	6.7736	-2.5213	0.	122.58
4751	6.301	-2.6088	0.	119.29
4752	5.8514	-2.6326	0.	118.37
4753	-5.	-3.25	0.	124.97
4754	-5.	-2.75	0.	124.94
4755	-8.0047	5.2486	0.	123.73
4756	-7.5149	3.7434	0.	122.75
4757	2.0138	-5.235	0.	126.37
4758	-5.25	-2.5	0.	125.69
4759	-4.0078	3.2567	0.	125.63
4760	0.99677	6.7484	0.	130.84
4761	-7.0106	5.2415	0.	124.51
4762	5.8397	2.2031	0.	120.87
4763	-8.	-7.75	0.	128.6
4764	4.395	-2.6507	0.	128.4
4765	4.3941	-1.3262	0.	136.68
4766	-3.0004	0.24891	0.	121.86
4767	-7.5166	4.2431	0.	123.38
4768	-7.2521	5.4954	0.	124.22
4769	8.0001	6.2491	0.	128.98
4770	-5.	-3.75	0.	125.18
4771	-5.25	-3.5	0.	126.52
4772	-7.2386	6.5002	0.	124.3
4773	-6.9901	6.7525	0.	124.42
4774	-0.25232	1.4953	0.	118.19
4775	-7.7439	6.4997	0.	124.22
4776	-7.4941	6.7504	0.	124.3
4777	-7.7521	5.4982	0.	123.95
4778	5.3627	1.0351	0.	121.29
4779	6.4541	-1.5447	0.	121.08
4780	8.9992	-5.2503	0.	128.78
4781	0.99859	7.2491	0.	129.95
4782	7.3946	0.10345	0.	128.11
4783	2.5299	-3.7393	0.	131.01
4784	2.518	-4.2399	0.	129.63
4785	2.2714	-3.9891	0.	130.23
4786	2.7734	-3.9932	0.	130.53
4787	2.7909	-3.4914	0.	131.53
4788	-3.8111e-003	1.7459	0.	119.52
4789	7.5006	7.2499	0.	125.25
4790	7.2572	-3.512	0.	124.44
4791	7.5024	-3.758	0.	126.7
4792	3.2956	-3.5037	0.	131.34
4793	7.0086	-3.7629	0.	122.69
4794	7.2537	-4.0089	0.	124.96
4795	4.1351	-1.5881	0.	132.66
4796	3.2397	3.0082	0.	125.59
4797	6.7502	9.	0.	123.65
4798	3.0343	-3.7454	0.	131.06
4799	5.9518	-1.648	0.	113.32
4800	-7.2456	7.0027	0.	124.43
4801	4.1395	-1.1064	0.	132.09
4802	-5.	-2.25	0.	125.03
4803	7.1039	0.52767	0.	129.27
4804	4.1545	-0.61847	0.	129.52
4805	6.1252	2.446	0.	120.81
4806	6.6612	0.56213	0.	127.44
4807	6.2761	0.65917	0.	120.81
4808	5.8627	0.9419	0.	114.24
4809	8.	-7.	0.	98.691
4810	7.	-7.	0.	94.364
4811	8.	-9.	0.	94.765
4812	7.	-9.	0.	92.98
4813	7.5	-7.	0.	111.98
4814	8.	-7.5	0.	101.63
4815	8.	-8.	0.	99.533
4816	8.	-8.5	0.	99.558
4817	7.	-7.5	0.	98.608
4818	7.	-8.	0.	96.816
4819	7.	-8.5	0.	97.191
4820	7.5	-9.	0.	107.06
4821	7.5	-7.5	0.	104.88
4822	7.5	-8.	0.	101.57
4823	7.5	-8.5	0.	102.7
4824	7.75	-7.	0.	105.26
4825	8.	-7.25	0.	100.16
4826	7.25	-7.	0.	103.08
4827	7.	-7.25	0.	96.471
4828	8.	-8.75	0.	97.16
4829	7.75	-9.	0.	100.87
4830	7.	-8.75	0.	95.085
4831	7.25	-9.	0.	99.988
4832	7.5	-7.25	0.	108.39
4833	8.	-7.75	0.	100.55
4834	7.75	-7.5	0.	103.17
4835	8.	-8.25	0.	99.514
4836	7.75	-8.	0.	100.55
4837	7.75	-8.5	0.	101.1
4838	7.	-7.75	0.	97.658
4839	7.25	-7.5	0.	101.67
4840	7.	-8.25	0.	96.954
4841	7.25	-8.	0.	99.188
4842	7.25	-8.5	0.	99.908
4843	7.5	-8.75	0.	104.83
4844	7.5	-7.75	0.	103.22
4845	7.5	-8.25	0.	102.13
4846	-3.	-5.	0.	100.97
4847	-5.	-5.	0.	98.648
4848	-3.	-7.	0.	97.467
4849	-5.	-7.	0.	97.661
4850	-3.5	-5.	0.	114.32
4851	-4.	-5.	0.	111.
4852	-4.5	-5.	0.	112.93
4853	-3.	-5.5	0.	105.36
4854	-3.	-6.	0.	103.97
4855	-3.	-6.5	0.	102.92
4856	-5.	-5.5	0.	102.36
4857	-5.	-6.	0.	100.73
4858	-5.	-6.5	0.	101.66
4859	-4.5	-7.	0.	111.31
4860	-4.	-7.	0.	108.85
4861	-3.5	-7.	0.	111.59
4862	-4.	-6.	0.	111.77
4863	-4.	-5.5	0.	112.82
4864	-3.5	-5.5	0.	111.26
4865	-3.5	-6.	0.	109.48
4866	-3.5	-6.5	0.	109.
4867	-4.	-6.5	0.	111.33
4868	-4.5	-6.5	0.	108.86
4869	-4.5	-6.	0.	108.5
4870	-4.5	-5.5	0.	109.85
4871	-3.25	-5.	0.	107.57
4872	-3.	-5.25	0.	103.14
4873	-4.75	-5.	0.	105.71
4874	-5.	-5.25	0.	100.49
4875	-3.	-6.75	0.	100.13
4876	-3.25	-7.	0.	104.46
4877	-5.	-6.75	0.	99.651
4878	-4.75	-7.	0.	104.41
4879	-3.75	-5.	0.	112.66
4880	-3.5	-5.25	0.	112.77
4881	-4.25	-5.	0.	111.97
4882	-4.	-5.25	0.	111.9
4883	-4.5	-5.25	0.	111.37
4884	-3.	-5.75	0.	104.65
4885	-3.25	-5.5	0.	108.3
4886	-3.	-6.25	0.	103.41
4887	-3.25	-6.	0.	106.72
4888	-3.25	-6.5	0.	105.94
4889	-5.	-5.75	0.	101.52
4890	-4.75	-5.5	0.	106.09
4891	-5.	-6.25	0.	101.17
4892	-4.75	-6.	0.	104.61
4893	-4.75	-6.5	0.	105.25
4894	-4.25	-7.	0.	110.08
4895	-4.5	-6.75	0.	110.05
4896	-3.75	-7.	0.	110.22
4897	-4.	-6.75	0.	110.07
4898	-3.5	-6.75	0.	110.28
4899	-4.	-5.75	0.	112.29
4900	-3.75	-6.	0.	110.63
4901	-4.	-6.25	0.	111.55
4902	-4.25	-6.	0.	110.14
4903	-3.75	-5.5	0.	112.03
4904	-4.25	-5.5	0.	111.32
4905	-3.5	-5.75	0.	110.36
4906	-3.5	-6.25	0.	109.22
4907	-3.75	-6.5	0.	110.16
4908	-4.25	-6.5	0.	110.09
4909	-4.5	-6.25	0.	108.67
4910	-4.5	-5.75	0.	109.17
4911	7.	-5.	0.	97.333
4912	5.	-5.	0.	99.371
4913	7.	-6.	0.	95.57
4914	5.	-6.	0.	99.999
4915	6.5	-5.	0.	114.14
4916	6.	-5.	0.	113.76
4917	5.5	-5.	0.	115.73
4918	7.	-5.5	0.	101.44
4919	5.	-5.5	0.	104.68
4920	5.5	-6.	0.	116.82
4921	6.	-6.	0.	115.46
4922	6.5	-6.	0.	115.83
4923	5.5	-5.5	0.	114.92
4924	6.	-5.5	0.	117.66
4925	6.5	-5.5	0.	113.26
4926	6.75	-5.	0.	105.7
4927	7.	-5.25	0.	99.361
4928	5.25	-5.	0.	107.51
4929	5.	-5.25	0.	102.
4930	7.	-5.75	0.	98.458
4931	6.75	-6.	0.	105.65
4932	5.	-5.75	0.	102.32
4933	5.25	-6.	0.	108.36
4934	6.25	-5.	0.	113.94
4935	6.5	-5.25	0.	113.68
4936	5.75	-5.	0.	114.74
4937	6.	-5.25	0.	115.7
4938	5.5	-5.25	0.	115.31
4939	6.75	-5.5	0.	107.33
4940	5.25	-5.5	0.	109.78
4941	5.75	-6.	0.	116.14
4942	5.5	-5.75	0.	115.85
4943	6.25	-6.	0.	115.65
4944	6.	-5.75	0.	116.56
4945	6.5	-5.75	0.	114.53
4946	5.75	-5.5	0.	116.29
4947	6.25	-5.5	0.	115.45
4948	1.	0.	0.	99.545
4949	-1.	0.	0.	96.978
4950	1.	-2.	0.	99.242
4951	-1.	-2.	0.	95.911
4952	0.5	0.	0.	112.7
4953	0.	0.	0.	109.21
4954	-0.5	0.	0.	111.01
4955	1.	-0.5	0.	104.43
4956	1.	-1.	0.	102.58
4957	1.	-1.5	0.	102.99
4958	-1.	-0.5	0.	101.04
4959	-1.	-1.	0.	99.788
4960	-1.	-1.5	0.	100.81
4961	-0.5	-2.	0.	110.63
4962	0.	-2.	0.	109.14
4963	0.5	-2.	0.	112.24
4964	0.	-1.	0.	111.98
4965	0.	-0.5	0.	112.06
4966	0.5	-0.5	0.	110.63
4967	0.5	-1.	0.	109.88
4968	0.5	-1.5	0.	110.28
4969	0.	-1.5	0.	111.95
4970	-0.5	-1.5	0.	108.66
4971	-0.5	-1.	0.	108.12
4972	-0.5	-0.5	0.	108.82
4973	0.75	0.	0.	106.03
4974	1.	-0.25	0.	101.98
4975	-0.75	0.	0.	103.92
4976	-1.	-0.25	0.	99.002
4977	1.	-1.75	0.	101.11
4978	0.75	-2.	0.	105.68
4979	-1.	-1.75	0.	98.342
4980	-0.75	-2.	0.	103.21
4981	0.25	0.	0.	110.95
4982	0.5	-0.25	0.	111.62
4983	-0.25	0.	0.	110.11
4984	0.	-0.25	0.	110.61
4985	-0.5	-0.25	0.	109.88
4986	1.	-0.75	0.	103.48
4987	0.75	-0.5	0.	107.51
4988	1.	-1.25	0.	102.75
4989	0.75	-1.	0.	106.22
4990	0.75	-1.5	0.	106.62
4991	-1.	-0.75	0.	100.38
4992	-0.75	-0.5	0.	104.91
4993	-1.	-1.25	0.	100.26
4994	-0.75	-1.	0.	103.95
4995	-0.75	-1.5	0.	104.72
4996	-0.25	-2.	0.	109.88
4997	-0.5	-1.75	0.	109.62
4998	0.25	-2.	0.	110.69
4999	0.	-1.75	0.	110.53
5000	0.5	-1.75	0.	111.23
5001	0.	-0.75	0.	112.02
5002	0.25	-1.	0.	110.93
5003	0.	-1.25	0.	111.96
5004	-0.25	-1.	0.	110.05
5005	0.25	-0.5	0.	111.33
5006	-0.25	-0.5	0.	110.43
5007	0.5	-0.75	0.	110.25
5008	0.5	-1.25	0.	110.07
5009	0.25	-1.5	0.	111.11
5010	-0.25	-1.5	0.	110.3
5011	-0.5	-1.25	0.	108.38
5012	-0.5	-0.75	0.	108.46
5013	-7.	2.	0.	100.59
5014	-9.	2.	0.	101.32
5015	-7.	1.	0.	100.13
5016	-9.	1.	0.	101.78
5017	-7.5	2.	0.	117.35
5018	-8.	2.	0.	116.15
5019	-8.5	2.	0.	117.79
5020	-7.	1.5	0.	105.44
5021	-9.	1.5	0.	106.63
5022	-8.5	1.	0.	117.96
5023	-8.	1.	0.	116.25
5024	-7.5	1.	0.	117.39
5025	-8.5	1.5	0.	116.91
5026	-8.	1.5	0.	119.54
5027	-7.5	1.5	0.	116.05
5028	-7.25	2.	0.	108.93
5029	-7.	1.75	0.	102.99
5030	-8.75	2.	0.	109.52
5031	-9.	1.75	0.	103.97
5032	-7.	1.25	0.	102.76
5033	-7.25	1.	0.	108.72
5034	-9.	1.25	0.	104.2
5035	-8.75	1.	0.	109.83
5036	-7.75	2.	0.	116.75
5037	-7.5	1.75	0.	116.68
5038	-8.25	2.	0.	116.97
5039	-8.	1.75	0.	117.84
5040	-8.5	1.75	0.	117.33
5041	-7.25	1.5	0.	110.73
5042	-8.75	1.5	0.	111.76
5043	-8.25	1.	0.	117.1
5044	-8.5	1.25	0.	117.41
5045	-7.75	1.	0.	116.81
5046	-8.	1.25	0.	117.89
5047	-7.5	1.25	0.	116.7
5048	-8.25	1.5	0.	118.22
5049	-7.75	1.5	0.	117.79
5050	3.	2.	0.	97.43
5051	2.	2.	0.	96.926
5052	3.	0.	0.	96.885
5053	2.	0.	0.	98.658
5054	2.5	2.	0.	110.83
5055	3.	1.5	0.	102.51
5056	3.	1.	0.	101.4
5057	3.	0.5	0.	101.72
5058	2.	1.5	0.	101.36
5059	2.	1.	0.	101.71
5060	2.	0.5	0.	103.35
5061	2.5	0.	0.	111.81
5062	2.5	1.5	0.	106.68
5063	2.5	1.	0.	105.01
5064	2.5	0.5	0.	106.88
5065	2.75	2.	0.	104.09
5066	3.	1.75	0.	99.965
5067	2.25	2.	0.	103.85
5068	2.	1.75	0.	99.143
5069	3.	0.25	0.	99.303
5070	2.75	0.	0.	104.3
5071	2.	0.25	0.	101.
5072	2.25	0.	0.	105.17
5073	2.5	1.75	0.	108.71
5074	3.	1.25	0.	101.92
5075	2.75	1.5	0.	104.57
5076	3.	0.75	0.	101.51
5077	2.75	1.	0.	103.21
5078	2.75	0.5	0.	104.25
5079	2.	1.25	0.	101.5
5080	2.25	1.5	0.	104.
5081	2.	0.75	0.	102.51
5082	2.25	1.	0.	103.36
5083	2.25	0.5	0.	105.06
5084	2.5	0.25	0.	109.27
5085	2.5	1.25	0.	105.85
5086	2.5	0.75	0.	105.95
5087	-3.	2.	0.	97.201
5088	-4.	2.	0.	98.268
5089	-3.	1.	0.	97.751
5090	-4.	1.	0.	97.513
5091	-3.5	2.	0.	113.03
5092	-3.	1.5	0.	102.56
5093	-4.	1.5	0.	103.05
5094	-3.5	1.	0.	113.05
5095	-3.5	1.5	0.	110.37
5096	-3.25	2.	0.	105.1
5097	-3.	1.75	0.	99.87
5098	-3.75	2.	0.	105.63
5099	-4.	1.75	0.	100.65
5100	-3.	1.25	0.	100.15
5101	-3.25	1.	0.	105.38
5102	-4.	1.25	0.	100.27
5103	-3.75	1.	0.	105.26
5104	-3.5	1.75	0.	111.65
5105	-3.25	1.5	0.	106.44
5106	-3.75	1.5	0.	106.68
5107	-3.5	1.25	0.	111.66
5108	0.	8.	0.	98.946
5109	-2.	8.	0.	98.165
5110	0.	6.	0.	98.925
5111	-2.	6.	0.	105.28
5112	-0.5	8.	0.	114.18
5113	-1.	8.	0.	111.93
5114	-1.5	8.	0.	113.6
5115	0.	7.5	0.	103.65
5116	0.	7.	0.	102.58
5117	0.	6.5	0.	103.85
5118	-2.	7.5	0.	102.23
5119	-2.	7.	0.	102.18
5120	-2.	6.5	0.	105.76
5121	-1.5	6.	0.	115.76
5122	-1.	6.	0.	111.36
5123	-0.5	6.	0.	113.46
5124	-1.	7.5	0.	114.77
5125	-0.5	7.5	0.	111.82
5126	-0.5	6.5	0.	111.67
5127	-1.	6.5	0.	115.09
5128	-1.5	6.5	0.	114.35
5129	-1.5	7.5	0.	111.63
5130	-1.5	7.	0.	112.07
5131	-0.5	7.	0.	111.18
5132	-1.	7.	0.	115.04
5133	-0.25	8.	0.	106.49
5134	0.	7.75	0.	101.28
5135	-1.75	8.	0.	105.8
5136	-2.	7.75	0.	100.18
5137	0.	6.25	0.	101.38
5138	-0.25	6.	0.	106.12
5139	-2.	6.25	0.	105.5
5140	-1.75	6.	0.	110.42
5141	-0.75	8.	0.	113.06
5142	-0.5	7.75	0.	112.97
5143	-1.25	8.	0.	112.77
5144	-1.	7.75	0.	113.33
5145	-1.5	7.75	0.	112.58
5146	0.	7.25	0.	103.07
5147	-0.25	7.5	0.	107.72
5148	0.	6.75	0.	103.18
5149	-0.25	7.	0.	106.88
5150	-0.25	6.5	0.	107.75
5151	-2.	7.25	0.	102.15
5152	-1.75	7.5	0.	106.91
5153	-2.	6.75	0.	103.93
5154	-1.75	7.	0.	107.11
5155	-1.75	6.5	0.	109.99
5156	-1.25	6.	0.	113.56
5157	-1.5	6.25	0.	114.98
5158	-0.75	6.	0.	112.41
5159	-1.	6.25	0.	113.19
5160	-0.5	6.25	0.	112.53
5161	-0.75	7.5	0.	113.28
5162	-1.25	7.5	0.	113.19
5163	-1.	7.25	0.	114.9
5164	-0.5	7.25	0.	111.48
5165	-0.75	6.5	0.	113.37
5166	-0.5	6.75	0.	111.41
5167	-1.25	6.5	0.	114.7
5168	-1.	6.75	0.	115.06
5169	-1.5	6.75	0.	113.21
5170	-1.5	7.25	0.	111.84
5171	-1.25	7.	0.	113.55
5172	-0.75	7.	0.	113.11
5173	4.	9.	0.	97.637
5174	3.	9.	0.	97.263
5175	4.	7.	0.	96.968
5176	3.	7.	0.	94.345
5177	3.5	9.	0.	113.11
5178	4.	8.5	0.	101.33
5179	4.	8.	0.	99.79
5180	4.	7.5	0.	100.57
5181	3.	8.5	0.	101.14
5182	3.	8.	0.	99.025
5183	3.	7.5	0.	99.261
5184	3.5	7.	0.	109.88
5185	3.5	8.5	0.	106.17
5186	3.5	8.	0.	103.03
5187	3.5	7.5	0.	104.57
5188	3.75	9.	0.	105.3
5189	4.	8.75	0.	99.482
5190	3.25	9.	0.	105.1
5191	3.	8.75	0.	99.195
5192	4.	7.25	0.	98.763
5193	3.75	7.	0.	103.37
5194	3.	7.25	0.	96.799
5195	3.25	7.	0.	102.07
5196	3.5	8.75	0.	109.59
5197	4.	8.25	0.	100.52
5198	3.75	8.5	0.	103.68
5199	4.	7.75	0.	100.15
5200	3.75	8.	0.	101.41
5201	3.75	7.5	0.	102.53
5202	3.	8.25	0.	100.03
5203	3.25	8.5	0.	103.58
5204	3.	7.75	0.	99.082
5205	3.25	8.	0.	101.02
5206	3.25	7.5	0.	101.88
5207	3.5	7.25	0.	107.18
5208	3.5	8.25	0.	104.6
5209	3.5	7.75	0.	103.8
5210	7.	6.	0.	95.688
5211	6.	6.	0.	96.703
5212	7.	4.	0.	95.885
5213	6.	4.	0.	95.519
5214	6.5	6.	0.	110.22
5215	7.	5.5	0.	100.17
5216	7.	5.	0.	99.036
5217	7.	4.5	0.	99.88
5218	6.	5.5	0.	100.43
5219	6.	5.	0.	99.21
5220	6.	4.5	0.	100.1
5221	6.5	4.	0.	109.77
5222	6.5	5.5	0.	104.76
5223	6.5	5.	0.	102.49
5224	6.5	4.5	0.	104.47
5225	6.75	6.	0.	102.9
5226	7.	5.75	0.	97.925
5227	6.25	6.	0.	103.41
5228	6.	5.75	0.	98.563
5229	7.	4.25	0.	97.881
5230	6.75	4.	0.	102.78
5231	6.	4.25	0.	97.807
5232	6.25	4.	0.	102.59
5233	6.5	5.75	0.	107.44
5234	7.	5.25	0.	99.565
5235	6.75	5.5	0.	102.41
5236	7.	4.75	0.	99.419
5237	6.75	5.	0.	100.76
5238	6.75	4.5	0.	102.13
5239	6.	5.25	0.	99.78
5240	6.25	5.5	0.	102.54
5241	6.	4.75	0.	99.617
5242	6.25	5.	0.	100.85
5243	6.25	4.5	0.	102.25
5244	6.5	4.25	0.	107.07
5245	6.5	5.25	0.	103.62
5246	6.5	4.75	0.	103.48
5247	3.	5.	0.	95.724
5248	2.	5.	0.	98.987
5249	3.	4.	0.	97.304
5250	2.	4.	0.	97.229
5251	2.5	5.	0.	112.73
5252	3.	4.5	0.	101.79
5253	2.	4.5	0.	103.11
5254	2.5	4.	0.	112.
5255	2.5	4.5	0.	109.85
5256	2.75	5.	0.	104.2
5257	3.	4.75	0.	98.738
5258	2.25	5.	0.	105.84
5259	2.	4.75	0.	101.05
5260	3.	4.25	0.	99.537
5261	2.75	4.	0.	104.65
5262	2.	4.25	0.	100.16
5263	2.25	4.	0.	104.59
5264	2.5	4.75	0.	111.24
5265	2.75	4.5	0.	105.79
5266	2.25	4.5	0.	106.46
5267	2.5	4.25	0.	110.89
5268	-1.19	-7.62	0.	101.37
5269	-0.68	-6.3	0.	68.79
5270	-2.08	-6.51	0.	68.262
5271	-1.02	-7.18	0.	89.552
5272	-0.85	-6.74	0.	93.126
5273	-1.4867	-7.25	0.	87.793
5274	-1.7833	-6.88	0.	93.61
5275	-1.1467	-6.37	0.	100.13
5276	-1.6133	-6.44	0.	102.85
5277	-1.4932	-6.7406	0.	96.769
5278	-1.1695	-6.6921	0.	93.718
5279	-1.2874	-6.9973	0.	96.071
5280	-1.105	-7.4	0.	93.877
5281	-1.3383	-7.435	0.	93.318
5282	-0.765	-6.52	0.	80.932
5283	-0.91333	-6.335	0.	84.359
5284	-1.9317	-6.695	0.	80.313
5285	-1.8467	-6.475	0.	85.314
5286	-0.935	-6.96	0.	91.273
5287	-1.1537	-7.0887	0.	92.692
5288	-1.0097	-6.716	0.	93.366
5289	-1.635	-7.065	0.	90.697
5290	-1.387	-7.1237	0.	91.924
5291	-1.6383	-6.8103	0.	95.047
5292	-1.38	-6.405	0.	101.49
5293	-1.1581	-6.531	0.	96.888
5294	-1.5533	-6.5903	0.	99.689
5295	-1.3313	-6.7164	0.	95.109
5296	-1.3903	-6.869	0.	96.339
5297	-1.2284	-6.8447	0.	94.866
5298	5.63	0.56	0.	105.05
5299	5.18	-0.84	0.	58.468
5300	6.62	-0.53	0.	62.832
5301	5.48	9.3333e-002	0.	96.687
5302	5.33	-0.37333	0.	100.26
5303	5.96	0.19667	0.	90.1
5304	6.29	-0.16667	0.	95.488
5305	5.66	-0.73667	0.	110.44
5306	6.14	-0.63333	0.	111.66
5307	5.9973	-0.33011	0.	102.16
5308	5.6643	-0.40179	0.	99.074
5309	5.7684	-7.8092e-002	0.	100.79
5310	5.555	0.32667	0.	98.654
5311	5.795	0.37833	0.	96.093
5312	5.255	-0.60667	0.	79.218
5313	5.42	-0.78833	0.	84.176
5314	6.455	-0.34833	0.	75.658
5315	6.38	-0.58167	0.	83.6
5316	5.405	-0.14	0.	98.332
5317	5.6242	7.6207e-003	0.	98.598
5318	5.4972	-0.38756	0.	99.641
5319	6.125	1.5e-002	0.	92.711
5320	5.8642	5.9287e-002	0.	95.44
5321	6.1437	-0.24839	0.	98.563
5322	5.9	-0.685	0.	110.92
5323	5.6622	-0.56923	0.	104.74
5324	6.0687	-0.48172	0.	106.54
5325	5.8308	-0.36595	0.	100.51
5326	5.8828	-0.2041	0.	101.36
5327	5.7164	-0.23994	0.	99.896
5328	-3.09	6.14	0.	97.075
5329	-3.27	5.	0.	76.538
5330	-2.2	5.41	0.	67.35
5331	-3.15	5.76	0.	105.12
5332	-3.21	5.38	0.	101.36
5333	-2.7933	5.8967	0.	95.046
5334	-2.4967	5.6533	0.	98.641
5335	-2.735	5.205	0.	118.02
5336	-2.8376	5.4753	0.	107.25
5337	-2.9262	5.7087	0.	104.04
5338	-3.12	5.95	0.	98.13
5339	-2.9417	6.0183	0.	94.139
5340	-3.24	5.19	0.	88.18
5341	-3.0025	5.1025	0.	95.477
5342	-2.3483	5.5317	0.	78.547
5343	-2.4675	5.3075	0.	88.824
5344	-3.18	5.57	0.	103.03
5345	-3.0381	5.7343	0.	104.5
5346	-3.0238	5.4276	0.	104.23
5347	-2.645	5.775	0.	96.804
5348	-2.8598	5.8027	0.	99.488
5349	-2.6671	5.5643	0.	102.57
5350	-2.7863	5.3401	0.	112.21
5351	-2.8819	5.592	0.	105.5
5352	0.	-5.	0.	97.729
5353	-2.	-5.	0.	97.584
5354	0.	-6.	0.	103.6
5355	-2.	-6.	0.	99.075
5356	-0.5	-5.	0.	111.9
5357	-1.	-5.	0.	106.64
5358	-1.5	-5.	0.	108.35
5359	0.	-5.5	0.	107.57
5360	-2.	-5.5	0.	100.36
5361	-1.5	-6.	0.	102.2
5362	-1.	-6.	0.	95.12
5363	-0.5	-6.	0.	124.43
5364	-1.5	-5.5	0.	103.26
5365	-1.	-5.5	0.	105.46
5366	-0.5	-5.5	0.	113.38
5367	-0.25	-5.	0.	104.79
5368	0.	-5.25	0.	102.63
5369	-1.75	-5.	0.	102.87
5370	-2.	-5.25	0.	98.954
5371	0.	-5.75	0.	105.38
5372	-0.25	-6.	0.	113.42
5373	-2.	-5.75	0.	99.659
5374	-1.75	-6.	0.	100.63
5375	-0.75	-5.	0.	109.27
5376	-0.5	-5.25	0.	112.57
5377	-1.25	-5.	0.	107.48
5378	-1.	-5.25	0.	106.04
5379	-1.5	-5.25	0.	105.77
5380	-0.25	-5.5	0.	110.39
5381	-1.75	-5.5	0.	101.78
5382	-1.25	-6.	0.	98.518
5383	-1.5	-5.75	0.	102.72
5384	-0.75	-6.	0.	109.77
5385	-1.	-5.75	0.	100.28
5386	-0.5	-5.75	0.	118.89
5387	-1.25	-5.5	0.	104.21
5388	-0.75	-5.5	0.	109.39
