Node Number	X Location (mm)	Y Location (mm)	Z Location (mm)	Equivalent (von-Mises) Stress (MPa)
1	6.73	-3.93	0.	172.62
2	6.02	-2.55	0.	107.19
3	5.19	-3.85	0.	166.61
4	5.49	2.72	0.	168.64
5	5.97	1.64	0.	116.15
6	6.67	2.6	0.	176.55
7	5.96	7.18	0.	110.12
8	6.34	8.22	0.	167.53
9	5.25	8.04	0.	169.8
10	0.74	5.79	0.	147.35
11	-0.1	5.25	0.	149.05
12	0.79	4.78	0.	153.72
13	-1.55	3.e-002	0.	139.87
14	7.e-002	0.97	0.	154.22
15	-1.55	1.91	0.	143.54
16	-1.62	7.56	0.	174.39
17	-0.11	7.12	0.	157.9
18	-0.48	8.65	0.	121.62
19	-7.17	-8.53	0.	124.75
20	-7.07	-7.5	0.	149.49
21	-8.01	-7.93	0.	148.91
22	-6.55	4.93	0.	107.61
23	-5.51	6.54	0.	170.55
24	-7.43	6.64	0.	161.77
25	-5.31	1.12	0.	159.29
26	-6.87	2.32	0.	128.36
27	-7.13	0.36	0.	144.39
28	4.	-5.	0.	134.04
29	4.	-7.	0.	131.54
30	5.	-5.	0.	133.83
31	5.	-7.	0.	127.67
32	4.	0.	0.	137.57
33	4.	-1.	0.	136.78
34	6.	0.	0.	128.29
35	6.	-1.	0.	127.7
36	7.	-7.	0.	132.42
37	7.	-8.	0.	132.92
38	8.	-7.	0.	134.63
39	8.	-8.	0.	134.21
40	-3.	4.	0.	139.41
41	-3.	3.	0.	141.11
42	-2.	4.	0.	134.1
43	-2.	3.	0.	137.74
44	1.	-1.	0.	136.6
45	1.	-2.	0.	133.32
46	2.	-1.	0.	136.45
47	2.	-2.	0.	137.04
48	0.	-5.	0.	131.02
49	0.	-7.	0.	130.93
50	1.	-5.	0.	131.09
51	1.	-7.	0.	131.43
52	-7.	-5.	0.	127.37
53	-7.	-6.	0.	129.05
54	-6.	-5.	0.	130.8
55	-6.	-6.	0.	131.99
56	-8.	9.	0.	137.32
57	-8.	8.	0.	136.52
58	-7.	9.	0.	132.83
59	-7.	8.	0.	130.02
60	-8.	-1.	0.	137.6
61	-8.	-2.	0.	135.72
62	-6.	-1.	0.	127.77
63	-6.	-2.	0.	131.25
64	10.	10.	0.	125.03
65	-10.	10.	0.	125.08
66	10.	-10.	0.	133.29
67	-10.	-10.	0.	132.3
68	6.4933	-3.47	0.	116.2
69	6.2567	-3.01	0.	110.95
70	6.2167	-3.9033	0.	113.78
71	5.7033	-3.8767	0.	107.18
72	5.7433	-2.9833	0.	99.01
73	5.4667	-3.4167	0.	104.57
74	5.65	2.36	0.	130.33
75	5.81	2.	0.	107.46
76	5.8833	2.68	0.	101.81
77	6.2767	2.64	0.	95.87
78	6.2033	1.96	0.	85.064
79	6.4367	2.28	0.	103.57
80	6.15	7.7	0.	126.42
81	5.605	7.61	0.	75.102
82	5.795	8.13	0.	104.23
83	0.32	5.52	0.	66.223
84	0.765	5.285	0.	148.81
85	0.345	5.015	0.	76.147
86	-1.145	0.265	0.	100.3
87	-0.74	0.5	0.	108.45
88	-0.335	0.735	0.	98.37
89	-1.55	0.5	0.	141.98
90	-1.55	0.97	0.	143.64
91	-1.55	1.44	0.	142.9
92	-0.335	1.205	0.	93.644
93	-0.74	1.44	0.	109.29
94	-1.145	1.675	0.	101.71
95	-1.1167	7.4133	0.	93.291
96	-0.61333	7.2667	0.	107.16
97	-1.24	7.9233	0.	79.825
98	-0.86	8.2867	0.	87.624
99	-0.23333	7.63	0.	138.17
100	-0.35667	8.14	0.	136.06
101	-7.12	-8.015	0.	141.4
102	-7.59	-8.23	0.	69.219
103	-7.54	-7.715	0.	81.998
104	-6.29	5.3325	0.	103.43
105	-6.03	5.735	0.	117.49
106	-5.77	6.1375	0.	110.19
107	-6.77	5.3575	0.	110.45
108	-6.99	5.785	0.	121.51
109	-7.21	6.2125	0.	118.27
110	-5.99	6.565	0.	111.95
111	-6.47	6.59	0.	119.78
112	-6.95	6.615	0.	109.03
113	-5.7	1.42	0.	85.022
114	-6.09	1.72	0.	102.93
115	-6.48	2.02	0.	89.553
116	-5.765	0.93	0.	92.138
117	-6.22	0.74	0.	108.
118	-6.675	0.55	0.	99.706
119	-6.935	1.83	0.	134.04
120	-7.	1.34	0.	137.75
121	-7.065	0.85	0.	137.89
122	4.	-5.5	0.	142.04
123	4.	-6.	0.	141.2
124	4.	-6.5	0.	140.01
125	4.5	-5.	0.	113.25
126	4.5	-7.	0.	105.34
127	5.	-5.5	0.	138.85
128	5.	-6.	0.	138.14
129	5.	-6.5	0.	137.34
130	4.	-0.5	0.	145.54
131	4.5	0.	0.	118.21
132	5.	0.	0.	120.79
133	5.5	0.	0.	113.07
134	4.5	-1.	0.	117.61
135	5.	-1.	0.	119.81
136	5.5	-1.	0.	111.9
137	6.	-0.5	0.	136.95
138	7.	-7.5	0.	142.11
139	7.5	-7.	0.	110.95
140	7.5	-8.	0.	111.1
141	8.	-7.5	0.	144.01
142	-3.	3.5	0.	149.95
143	-2.5	4.	0.	114.65
144	-2.5	3.	0.	119.33
145	-2.	3.5	0.	144.13
146	1.	-1.5	0.	144.23
147	1.5	-1.	0.	114.03
148	1.5	-2.	0.	112.92
149	2.	-1.5	0.	146.26
150	0.	-5.5	0.	139.95
151	0.	-6.	0.	140.26
152	0.	-6.5	0.	139.91
153	0.5	-5.	0.	106.4
154	0.5	-7.	0.	106.58
155	1.	-5.5	0.	139.62
156	1.	-6.	0.	139.96
157	1.	-6.5	0.	139.75
158	-7.	-5.5	0.	136.93
159	-6.5	-5.	0.	107.13
160	-6.5	-6.	0.	108.45
161	-6.	-5.5	0.	140.72
162	-8.	8.5	0.	146.1
163	-7.5	9.	0.	113.11
164	-7.5	8.	0.	113.03
165	-7.	8.5	0.	139.67
166	-8.	-1.5	0.	145.04
167	-7.5	-1.	0.	117.04
168	-7.	-1.	0.	116.73
169	-6.5	-1.	0.	109.52
170	-7.5	-2.	0.	115.18
171	-7.	-2.	0.	118.49
172	-6.5	-2.	0.	112.7
173	-6.	-1.5	0.	138.58
174	9.5	10.	0.	125.12
175	9.	10.	0.	125.55
176	8.5	10.	0.	126.15
177	8.	10.	0.	126.68
178	7.5	10.	0.	126.64
179	7.	10.	0.	125.2
180	6.5	10.	0.	122.62
181	6.	10.	0.	120.79
182	5.5	10.	0.	121.21
183	5.	10.	0.	123.75
184	4.5	10.	0.	126.46
185	4.	10.	0.	127.77
186	3.5	10.	0.	128.
187	3.	10.	0.	127.85
188	2.5	10.	0.	127.77
189	2.	10.	0.	127.81
190	1.5	10.	0.	127.91
191	1.	10.	0.	127.68
192	0.5	10.	0.	126.17
193	-5.2042e-015	10.	0.	122.88
194	-0.5	10.	0.	120.08
195	-1.	10.	0.	120.36
196	-1.5	10.	0.	123.
197	-2.	10.	0.	126.39
198	-2.5	10.	0.	128.32
199	-3.	10.	0.	128.86
200	-3.5	10.	0.	128.51
201	-4.	10.	0.	127.78
202	-4.5	10.	0.	126.89
203	-5.	10.	0.	126.
204	-5.5	10.	0.	125.27
205	-6.	10.	0.	124.83
206	-6.5	10.	0.	123.02
207	-7.	10.	0.	119.01
208	-7.5	10.	0.	117.81
209	-8.	10.	0.	120.34
210	-8.5	10.	0.	125.15
211	-9.	10.	0.	126.42
212	-9.5	10.	0.	125.46
213	10.	9.5	0.	124.8
214	10.	9.	0.	124.03
215	10.	8.5	0.	123.26
216	10.	8.	0.	122.93
217	10.	7.5	0.	123.21
218	10.	7.	0.	124.03
219	10.	6.5	0.	125.15
220	10.	6.	0.	126.26
221	10.	5.5	0.	127.15
222	10.	5.	0.	127.68
223	10.	4.5	0.	127.78
224	10.	4.	0.	127.47
225	10.	3.5	0.	126.86
226	10.	3.	0.	126.23
227	10.	2.5	0.	125.9
228	10.	2.	0.	126.06
229	10.	1.5	0.	126.63
230	10.	1.	0.	127.34
231	10.	0.5	0.	127.94
232	10.	-5.2042e-015	0.	128.34
233	10.	-0.5	0.	128.53
234	10.	-1.	0.	128.54
235	10.	-1.5	0.	128.29
236	10.	-2.	0.	127.75
237	10.	-2.5	0.	127.01
238	10.	-3.	0.	126.35
239	10.	-3.5	0.	126.17
240	10.	-4.	0.	126.71
241	10.	-4.5	0.	127.89
242	10.	-5.	0.	129.32
243	10.	-5.5	0.	130.5
244	10.	-6.	0.	130.9
245	10.	-6.5	0.	130.24
246	10.	-7.	0.	129.01
247	10.	-7.5	0.	128.46
248	10.	-8.	0.	129.43
249	10.	-8.5	0.	131.15
250	10.	-9.	0.	132.52
251	10.	-9.5	0.	133.15
252	-10.	9.5	0.	124.05
253	-10.	9.	0.	122.52
254	-10.	8.5	0.	122.43
255	-10.	8.	0.	123.73
256	-10.	7.5	0.	124.88
257	-10.	7.	0.	124.9
258	-10.	6.5	0.	124.33
259	-10.	6.	0.	124.42
260	-10.	5.5	0.	125.68
261	-10.	5.	0.	127.69
262	-10.	4.5	0.	129.61
263	-10.	4.	0.	130.83
264	-10.	3.5	0.	131.05
265	-10.	3.	0.	130.29
266	-10.	2.5	0.	128.86
267	-10.	2.	0.	127.39
268	-10.	1.5	0.	126.59
269	-10.	1.	0.	126.92
270	-10.	0.5	0.	128.18
271	-10.	-5.2042e-015	0.	129.44
272	-10.	-0.5	0.	129.63
273	-10.	-1.	0.	128.79
274	-10.	-1.5	0.	128.3
275	-10.	-2.	0.	129.3
276	-10.	-2.5	0.	131.11
277	-10.	-3.	0.	132.4
278	-10.	-3.5	0.	132.54
279	-10.	-4.	0.	131.82
280	-10.	-4.5	0.	130.78
281	-10.	-5.	0.	129.92
282	-10.	-5.5	0.	129.56
283	-10.	-6.	0.	129.6
284	-10.	-6.5	0.	129.32
285	-10.	-7.	0.	128.
286	-10.	-7.5	0.	125.95
287	-10.	-8.	0.	125.23
288	-10.	-8.5	0.	126.68
289	-10.	-9.	0.	129.47
290	-10.	-9.5	0.	131.56
291	-9.5	-10.	0.	130.01
292	-9.	-10.	0.	128.51
293	-8.5	-10.	0.	125.16
294	-8.	-10.	0.	119.69
295	-7.5	-10.	0.	115.98
296	-7.	-10.	0.	118.27
297	-6.5	-10.	0.	123.57
298	-6.	-10.	0.	127.17
299	-5.5	-10.	0.	128.05
300	-5.	-10.	0.	128.08
301	-4.5	-10.	0.	127.97
302	-4.	-10.	0.	127.93
303	-3.5	-10.	0.	127.92
304	-3.	-10.	0.	127.88
305	-2.5	-10.	0.	127.72
306	-2.	-10.	0.	127.34
307	-1.5	-10.	0.	126.68
308	-1.	-10.	0.	125.71
309	-0.5	-10.	0.	124.57
310	5.2042e-015	-10.	0.	123.62
311	0.5	-10.	0.	123.23
312	1.	-10.	0.	123.55
313	1.5	-10.	0.	124.33
314	2.	-10.	0.	125.05
315	2.5	-10.	0.	125.29
316	3.	-10.	0.	124.88
317	3.5	-10.	0.	123.98
318	4.	-10.	0.	123.06
319	4.5	-10.	0.	122.61
320	5.	-10.	0.	122.85
321	5.5	-10.	0.	123.46
322	6.	-10.	0.	123.69
323	6.5	-10.	0.	122.93
324	7.	-10.	0.	121.62
325	7.5	-10.	0.	121.38
326	8.	-10.	0.	123.18
327	8.5	-10.	0.	126.21
328	9.	-10.	0.	128.97
329	9.5	-10.	0.	131.12
330	-2.9854	-3.4864	0.	128.72
331	6.5994	4.776	0.	120.87
332	-2.4834	-3.4824	0.	128.34
333	-3.4868	-3.4914	0.	129.08
334	-2.5032	-5.9992	0.	126.64
335	-2.9748	-2.9839	0.	128.77
336	-2.4701	-2.9754	0.	128.1
337	-1.9663	-2.9708	0.	127.31
338	-2.9916	-3.9902	0.	128.46
339	2.5935	2.7872	0.	128.28
340	-2.996	-4.4935	0.	127.96
341	-2.4512	-2.4687	0.	127.81
342	-3.0045	-5.9996	0.	126.66
343	6.2643	5.1313	0.	119.78
344	4.3552	5.5172	0.	125.81
345	3.7895	5.8525	0.	127.35
346	3.8716	4.7483	0.	127.24
347	-2.9632	-2.4844	0.	128.8
348	-3.9896	-3.495	0.	129.35
349	-1.9826	-3.4822	0.	127.98
350	2.6233	3.2336	0.	129.05
351	2.0985	2.3532	0.	127.96
352	2.1266	2.8231	0.	128.8
353	3.1624	6.8784	0.	126.45
354	3.3465	5.2788	0.	127.62
355	-2.5041	-6.4997	0.	126.74
356	-3.0062	-6.5002	0.	126.73
357	4.3923	5.1143	0.	125.52
358	6.8035	5.2895	0.	122.58
359	5.3318	5.1194	0.	120.81
360	4.8586	5.1055	0.	123.29
361	3.0385	3.2229	0.	128.16
362	3.0606	2.7771	0.	127.32
363	-1.938	-2.4529	0.	126.43
364	-3.5	-4.9973	0.	127.35
365	-3.5088	-6.5013	0.	126.83
366	-3.5063	-6.0005	0.	126.72
367	-2.496	-4.493	0.	127.95
368	-3.4737	-2.4933	0.	129.27
369	-3.4708	-2.0016	0.	129.48
370	3.3539	4.7575	0.	127.95
371	3.2938	5.7973	0.	127.61
372	3.2333	6.3227	0.	127.49
373	-1.4836	-3.4886	0.	127.67
374	-4.9791	3.467	0.	129.31
375	-2.9596	-1.4978	0.	129.84
376	-1.5013	-5.9995	0.	127.21
377	2.5046	-5.9988	0.	128.34
378	-3.033	0.81352	0.	126.38
379	2.275	7.1134	0.	126.65
380	2.7231	7.0829	0.	126.18
381	3.6999	6.8861	0.	126.74
382	2.834	3.6815	0.	129.27
383	2.8201	5.2536	0.	127.76
384	1.6193	2.3757	0.	128.02
385	1.6534	2.8573	0.	128.57
386	-0.96961	-3.0037	0.	126.01
387	-3.0067	-7.0004	0.	126.97
388	-4.0144	-7.003	0.	127.16
389	-3.5472	7.4272	0.	126.09
390	-0.8822	-1.6532	0.	121.58
391	-2.4363	-1.9658	0.	127.81
392	-3.4802	-1.0349	0.	130.78
393	3.3943	3.7365	0.	128.31
394	4.3772	4.6799	0.	125.99
395	4.8121	5.5542	0.	123.74
396	5.7482	5.6187	0.	119.09
397	7.1791	5.8325	0.	125.65
398	6.7	5.7373	0.	122.86
399	5.3845	4.65	0.	120.4
400	4.8793	4.6503	0.	123.64
401	3.4861	3.2568	0.	127.38
402	3.5376	2.7838	0.	126.11
403	6.7601	4.4058	0.	121.65
404	-3.5056	-0.10413	0.	130.36
405	-3.4906	-0.56887	0.	131.07
406	-1.9058	-1.9339	0.	125.56
407	-1.3481	-1.8939	0.	123.17
408	-3.6203	6.4312	0.	127.15
409	-3.6145	6.9259	0.	126.79
410	-4.0121	-6.503	0.	127.1
411	-4.0083	-6.002	0.	126.84
412	4.0204	1.8495	0.	124.18
413	-3.0858	5.9862	0.	127.43
414	-3.5911	5.945	0.	127.87
415	-5.3924	2.5957	0.	126.49
416	-0.94099	-2.5163	0.	124.71
417	-1.9992	-4.9967	0.	127.59
418	-3.9952	-0.58374	0.	131.53
419	-3.9821	-2.0052	0.	129.21
420	1.1772	2.8898	0.	127.23
421	2.8342	4.2297	0.	129.23
422	2.8318	4.7467	0.	128.43
423	2.7878	5.7496	0.	127.89
424	2.7451	6.2298	0.	128.05
425	-3.1716	6.9049	0.	127.16
426	-3.1354	6.4542	0.	127.65
427	4.1867	6.893	0.	128.02
428	-0.23154	3.303	0.	120.99
429	0.26349	2.9639	0.	123.02
430	-5.796	2.6111	0.	119.84
431	-3.0317	7.3602	0.	125.92
432	2.0693	1.4055	0.	126.3
433	4.9087	1.7943	0.	123.79
434	-2.5221	0.85773	0.	127.26
435	3.0043	-6.0005	0.	129.81
436	-1.0007	-5.9998	0.	128.73
437	2.0043	-5.9981	0.	129.03
438	-3.0487	1.2471	0.	126.15
439	-2.5042	-7.5	0.	127.43
440	-3.0062	-7.5003	0.	127.24
441	-3.5092	-7.501	0.	127.12
442	-4.0136	-7.5027	0.	127.01
443	-4.5202	-7.5064	0.	126.79
444	-5.0302	-7.5142	0.	126.11
445	2.0556	0.92716	0.	125.66
446	3.8914	-3.1442	0.	124.35
447	3.4476	-2.9992	0.	127.85
448	4.0037	-2.7363	0.	125.51
449	-2.9685	-1.0176	0.	130.79
450	-3.019	0.37191	0.	128.02
451	-0.92277	-1.2123	0.	119.65
452	-2.4413	-1.4698	0.	128.53
453	-4.0932	5.9129	0.	128.34
454	-6.9996	-3.	0.	114.2
455	-4.4953	-3.997	0.	129.
456	-4.505	-5.5018	0.	126.74
457	-4.5204	-7.0066	0.	127.51
458	4.4966	1.3642	0.	123.67
459	-4.4838	3.481	0.	132.43
460	-4.9516	3.0204	0.	130.24
461	-2.534	5.5614	0.	124.8
462	-0.41915	-1.5984	0.	122.6
463	-0.98388	-3.5003	0.	127.15
464	-1.5005	-5.4989	0.	127.47
465	-1.4919	-3.9933	0.	128.44
466	2.5125	-5.4978	0.	128.83
467	2.5821	-3.9852	0.	129.79
468	-0.47009	-3.0184	0.	125.49
469	-1.5018	-6.4997	0.	127.36
470	-2.003	-6.9999	0.	127.32
471	-2.0028	-7.4999	0.	127.75
472	-4.488	-0.13823	0.	133.5
473	-4.9949	-3.4984	0.	128.38
474	-6.499	-3.4999	0.	115.62
475	-4.4918	-1.5165	0.	128.54
476	-4.4903	-2.9985	0.	129.43
477	2.2756	3.7692	0.	130.62
478	2.3011	5.2449	0.	127.98
479	7.5324	1.509	0.	131.02
480	7.526	1.0075	0.	130.54
481	7.501	-0.48435	0.	126.11
482	7.5238	-5.4647	0.	125.31
483	1.8818	7.5927	0.	124.45
484	3.2845	7.4398	0.	124.76
485	4.7452	6.0014	0.	125.15
486	-4.0067	-0.13159	0.	131.88
487	-5.0024	3.9164	0.	129.59
488	1.141	2.3923	0.	128.05
489	0.67627	2.416	0.	127.72
490	-5.014	4.371	0.	130.66
491	-0.65979	3.7123	0.	123.32
492	4.6494	6.9142	0.	130.3
493	4.6856	6.4546	0.	127.38
494	7.4696	6.488	0.	127.76
495	4.2112	7.3616	0.	126.
496	4.6376	7.3721	0.	128.27
497	1.312	7.1458	0.	125.89
498	-2.7593	6.9524	0.	128.53
499	1.7612	6.6621	0.	130.92
500	2.2793	5.7266	0.	128.55
501	2.2519	6.1957	0.	129.53
502	2.3083	4.2591	0.	130.47
503	0.71461	3.4307	0.	122.11
504	1.2093	3.3795	0.	127.05
505	-4.4893	-2.5013	0.	129.12
506	-4.4897	-2.0068	0.	128.42
507	-4.5003	-0.56599	0.	132.12
508	-1.5019	-7.4999	0.	128.26
509	1.5357	-3.4995	0.	123.32
510	-1.4964	-4.4961	0.	128.59
511	-1.4989	-4.9977	0.	128.02
512	1.8141e-002	-3.5104	0.	123.11
513	2.056	-3.4937	0.	126.85
514	2.5926	-3.4816	0.	129.44
515	0.51947	-3.5074	0.	121.06
516	1.0254	-3.5036	0.	121.15
517	-0.42253	-2.0655	0.	123.87
518	-0.44919	-2.5366	0.	125.04
519	-0.6191	2.8145	0.	120.41
520	-4.9499	2.5719	0.	131.87
521	-4.4759	3.0167	0.	133.24
522	-4.4873	2.5534	0.	134.11
523	-3.5499	5.4589	0.	129.28
524	7.5073	-0.9782	0.	127.27
525	7.5527	-2.4229	0.	132.03
526	7.5314	-1.952	0.	131.38
527	7.5165	-1.4675	0.	129.59
528	7.5058	0.51097	0.	128.81
529	4.0103	1.3876	0.	125.71
530	-4.516	-6.5057	0.	127.73
531	-4.5101	-6.004	0.	127.12
532	-5.4967	-3.4992	0.	125.17
533	-4.5011	-4.9998	0.	127.27
534	-4.498	-4.4982	0.	128.34
535	-6.9994	-3.5002	0.	115.56
536	-7.4997	-3.5003	0.	119.14
537	2.5005	-6.9997	0.	128.77
538	2.5534	-4.4918	0.	130.23
539	-4.1074	6.4171	0.	127.17
540	-4.0891	6.9287	0.	127.76
541	-1.9223	-1.4228	0.	125.47
542	-3.0007	-8.074e-002	0.	129.98
543	-2.9859	-0.54832	0.	131.15
544	4.9904	0.90801	0.	119.74
545	7.2157	3.9858	0.	126.7
546	6.7626	3.9912	0.	122.14
547	4.0315	2.7749	0.	124.57
548	4.8891	4.1812	0.	124.77
549	-0.44152	-0.66877	0.	122.4
550	-7.6815	5.4197	0.	127.33
551	4.4941	-2.3467	0.	123.85
552	7.126	-2.8811	0.	131.98
553	6.0358	-4.9212	0.	114.08
554	4.3955	-3.2172	0.	120.65
555	-6.499	-2.9999	0.	115.32
556	-1.0012	-6.4998	0.	128.27
557	2.0117	-5.4968	0.	128.71
558	1.5842	1.4136	0.	125.56
559	1.5643	0.92425	0.	123.86
560	1.5504	0.44561	0.	123.43
561	4.4985	0.91696	0.	122.09
562	6.0167	-5.442	0.	119.81
563	3.0015	-6.5002	0.	128.93
564	-6.1607	2.8271	0.	114.17
565	-4.593	5.8783	0.	128.94
566	-2.5165	0.40885	0.	128.05
567	7.519	2.0067	0.	126.27
568	5.853	3.6485	0.	112.29
569	-5.02	-8.0144	0.	125.29
570	-4.5129	-8.0062	0.	126.39
571	-3.5065	-8.0008	0.	127.25
572	-2.5034	-7.9999	0.	127.67
573	2.5	-7.9999	0.	128.78
574	2.042	0.44588	0.	125.18
575	4.0378	-2.3431	0.	126.51
576	-3.0504	1.6791	0.	126.84
577	-3.4964	7.94	0.	125.66
578	-4.0138	7.954	0.	126.82
579	-4.5162	7.9667	0.	128.02
580	-5.0109	7.9821	0.	127.62
581	-5.5042	8.0003	0.	124.67
582	7.5149	-5.9767	0.	120.79
583	7.369	7.9494	0.	124.57
584	7.9409	7.9885	0.	124.
585	7.9938	7.494	0.	124.59
586	8.0042	6.9966	0.	125.95
587	8.0016	6.5049	0.	126.92
588	8.0329	6.0289	0.	127.03
589	7.9006	5.5336	0.	126.77
590	7.9971	4.995	0.	126.95
591	8.1162	3.9869	0.	128.32
592	8.1204	3.4865	0.	128.35
593	8.0968	2.9877	0.	127.28
594	8.0612	2.4907	0.	125.63
595	8.0329	1.9976	0.	127.1
596	8.0243	1.5014	0.	128.82
597	8.0177	1.0009	0.	129.6
598	8.0142	-1.4763	0.	129.59
599	8.0249	-1.9631	0.	130.55
600	8.0358	-2.4467	0.	130.27
601	8.0313	-2.9318	0.	128.68
602	7.9956	-3.4204	0.	127.1
603	8.0108	-3.9267	0.	127.1
604	8.0263	-4.4436	0.	129.19
605	8.0267	-4.959	0.	129.08
606	8.0178	-5.471	0.	127.18
607	-7.9999	-3.5001	0.	123.87
608	-0.28161	2.1765	0.	122.32
609	1.1021	1.8979	0.	128.24
610	-5.4742	5.209	0.	128.62
611	-5.5156	3.8971	0.	124.15
612	-7.5461	3.9334	0.	124.4
613	-5.4127	2.1899	0.	127.05
614	-4.0536	0.3074	0.	131.15
615	0.27714	4.0185	0.	115.
616	4.8947	-2.7898	0.	122.94
617	-2.9339	7.915	0.	125.15
618	6.2215	5.6543	0.	119.84
619	5.2172	6.0407	0.	121.46
620	7.1056	7.5176	0.	126.08
621	7.0447	6.263	0.	127.
622	0.56196	8.138	0.	126.3
623	1.014	8.1244	0.	124.06
624	1.4727	8.0896	0.	123.43
625	1.9377	8.069	0.	123.67
626	2.41	8.0484	0.	123.86
627	2.8872	8.013	0.	123.91
628	3.3693	7.9618	0.	123.88
629	3.8688	7.9162	0.	123.87
630	0.59802	7.6772	0.	123.81
631	-5.545	-7.5288	0.	124.35
632	7.4422	-3.3381	0.	127.73
633	7.5367	-4.9505	0.	130.43
634	-2.0897	6.1272	0.	127.88
635	3.7325	-3.5753	0.	123.8
636	1.7869	5.2519	0.	126.72
637	1.7559	3.8162	0.	132.02
638	-4.9937	-2.9994	0.	128.97
639	2.0016	-6.4989	0.	128.59
640	2.	-7.9999	0.	128.63
641	0.49987	-8.	0.	117.6
642	-1.0011	-7.9998	0.	128.08
643	0.51794	-4.0043	0.	117.49
644	2.056	-3.992	0.	128.49
645	-1.0001	-5.4995	0.	128.37
646	-0.99142	-3.9993	0.	128.5
647	1.5357	-3.7129e-002	0.	121.51
648	1.5303	-3.0008	0.	120.63
649	2.9728e-002	-3.0211	0.	125.07
650	5.2582e-002	-1.5617	0.	124.6
651	-1.1007	3.6748	0.	124.46
652	-4.0493	2.0736	0.	133.45
653	-3.9895	3.4894	0.	133.49
654	-4.0229	4.9302	0.	133.52
655	7.0439	1.0307	0.	130.37
656	4.5045	-1.9089	0.	121.45
657	3.5693	-2.4991	0.	129.06
658	2.5338	0.45015	0.	128.54
659	3.0319	0.92879	0.	130.32
660	-5.0047	-5.5029	0.	126.36
661	-5.028	-7.0125	0.	128.
662	-6.4992	-3.9999	0.	114.19
663	-4.9965	-3.9985	0.	128.55
664	-8.0002	-4.0002	0.	124.67
665	6.0125	-5.962	0.	124.19
666	3.0001	-8.	0.	128.42
667	3.0121	-5.5011	0.	129.92
668	3.1115	-3.9874	0.	129.82
669	-7.5716	3.4427	0.	125.15
670	-8.0218	0.95329	0.	125.4
671	-7.9917	1.4563	0.	126.37
672	-7.9529	1.9743	0.	126.99
673	-8.0663	3.0106	0.	129.08
674	-8.0537	3.4792	0.	128.32
675	-8.0386	3.9609	0.	128.07
676	-8.0332	4.4493	0.	128.58
677	-8.0463	4.9313	0.	128.82
678	-8.0803	5.3929	0.	128.28
679	-4.5402	7.4514	0.	130.74
680	-2.5332	1.2969	0.	125.87
681	-0.94195	-0.73187	0.	116.44
682	-2.4563	-0.98425	0.	130.54
683	6.3072	3.5954	0.	113.38
684	7.6626	3.4954	0.	130.11
685	4.6219	2.2231	0.	121.2
686	4.4171	3.7232	0.	128.33
687	5.3884	3.6821	0.	121.13
688	4.9085	3.7035	0.	127.87
689	4.5338	2.7447	0.	124.61
690	7.6292	3.0013	0.	128.11
691	7.2082	3.514	0.	130.67
692	6.7556	3.5441	0.	123.94
693	5.4647	0.89987	0.	117.72
694	-2.5027	-4.8019e-002	0.	131.05
695	-2.4799	-0.512	0.	132.11
696	-1.9492	-0.93204	0.	126.75
697	-1.4411	-0.84297	0.	119.75
698	-2.5401	2.1545	0.	124.68
699	-2.5475	1.7291	0.	126.33
700	-4.6037	6.3999	0.	127.93
701	-4.5728	6.9274	0.	130.3
702	-5.0263	7.4707	0.	132.4
703	-5.5118	7.5021	0.	127.25
704	-6.5098	3.2372	0.	111.75
705	-7.0696	3.3616	0.	117.16
706	-7.644	2.9762	0.	128.31
707	-8.0362	0.45791	0.	128.33
708	3.0633	-4.4993	0.	131.33
709	3.0297	-5.0012	0.	131.05
710	3.0005	-7.0001	0.	129.33
711	6.002	-7.4912	0.	126.02
712	6.5141	-5.9648	0.	123.16
713	6.0067	-6.4761	0.	126.28
714	6.0038	-6.9853	0.	126.79
715	-6.9997	-4.0004	0.	116.14
716	-7.5	-4.0007	0.	121.3
717	-8.004	-5.0014	0.	124.21
718	-8.0783	-6.467	0.	125.37
719	-5.0011	-5.0007	0.	127.58
720	-5.4975	-3.9993	0.	125.83
721	-5.9984	-3.9997	0.	119.2
722	-5.0109	-6.0061	0.	128.12
723	4.0076	0.92517	0.	126.81
724	3.0233	0.44533	0.	131.68
725	3.0164	-3.3944e-002	0.	131.68
726	3.5211	-1.9775	0.	131.37
727	4.0126	-1.9215	0.	126.99
728	6.6	1.0934	0.	124.07
729	7.0161	-1.4712	0.	128.82
730	-3.5187	4.9701	0.	131.86
731	-4.0033	4.4463	0.	134.99
732	-3.9947	3.9675	0.	134.51
733	-3.9917	3.0135	0.	135.15
734	-4.0092	2.5424	0.	135.63
735	-3.0419	2.1157	0.	128.78
736	-1.545	5.1485	0.	122.52
737	-1.096	3.1891	0.	122.39
738	1.0394	-4.2686e-002	0.	126.08
739	4.9986e-002	-1.0799	0.	126.38
740	5.1002e-002	-2.0471	0.	126.04
741	3.9994e-002	-2.5324	0.	126.45
742	0.52506	-3.0134	0.	124.08
743	1.0256	-3.0062	0.	121.2
744	3.0066	-1.0066	0.	132.15
745	3.0108	-0.51824	0.	130.99
746	2.03	-3.5482e-002	0.	124.89
747	2.0384	-2.9953	0.	125.74
748	2.5432	-2.9845	0.	130.53
749	3.0206	-1.9895	0.	132.93
750	1.3668e-002	-4.0056	0.	121.21
751	-0.48951	-4.0039	0.	126.79
752	-0.99859	-4.9992	0.	129.04
753	2.0233	-4.9952	0.	129.43
754	2.0405	-4.4931	0.	129.67
755	1.5375	-3.9975	0.	125.89
756	1.025	-4.0014	0.	120.65
757	-1.0012	-6.9998	0.	128.82
758	-1.0012	-7.4998	0.	129.05
759	-0.50068	-7.9999	0.	126.26
760	-3.3863e-004	-8.	0.	120.91
761	2.0006	-6.9995	0.	129.3
762	-4.9982	-0.51659	0.	131.98
763	-5.997	-7.7323e-002	0.	115.09
764	-5.9981	-2.9998	0.	120.69
765	-5.4963	-2.9997	0.	126.55
766	-4.9938	-2.5014	0.	129.13
767	-5.9993	8.014	0.	121.38
768	0.75386	3.9194	0.	119.6
769	1.2506	3.8593	0.	129.26
770	1.7968	4.7735	0.	130.38
771	1.7711	5.7258	0.	130.37
772	1.7584	6.1943	0.	132.84
773	1.2582	6.6707	0.	130.52
774	3.633	-4.0426	0.	127.13
775	4.2602	-3.6508	0.	120.79
776	-2.1866	6.6163	0.	132.53
777	7.5434	-4.4308	0.	132.37
778	-5.5365	-7.0205	0.	127.18
779	-6.0613	-7.5424	0.	123.09
780	-6.0447	-7.0266	0.	124.66
781	0.74015	6.6619	0.	126.9
782	0.77868	7.2094	0.	124.57
783	4.4124	7.8412	0.	125.14
784	1.9705	8.5498	0.	124.09
785	3.9176	8.4405	0.	125.39
786	4.4135	8.4207	0.	127.74
787	6.9891	6.6715	0.	129.43
788	7.035	7.0809	0.	128.66
789	5.0814	6.9327	0.	127.42
790	5.149	6.4931	0.	124.6
791	6.6026	6.2013	0.	123.66
792	5.6834	6.0904	0.	117.63
793	6.1448	6.1473	0.	118.91
794	-2.0551	8.4639	0.	131.93
795	-2.5737	7.5099	0.	125.69
796	-2.3385	7.087	0.	132.18
797	7.0692	-2.4284	0.	131.43
798	7.0336	-1.9566	0.	131.72
799	4.9677	-2.3671	0.	121.18
800	-0.17574	4.1513	0.	122.2
801	-1.0817	5.178	0.	122.3
802	-4.9845	2.7787e-002	0.	134.03
803	-4.5549	0.2646	0.	135.01
804	-4.9926	2.1185	0.	132.65
805	-4.1236	0.73702	0.	129.05
806	-4.1478	1.176	0.	128.42
807	-4.1028	1.6204	0.	129.74
808	-7.5586	4.9482	0.	126.86
809	-7.5435	4.4425	0.	126.32
810	-5.5096	4.7875	0.	127.34
811	-7.045	3.8874	0.	117.11
812	-6.5419	3.8199	0.	113.65
813	0.11626	2.0409	0.	129.2
814	4.3611e-002	-0.11008	0.	130.46
815	0.53836	-6.0666e-002	0.	132.56
816	1.1044	1.4081	0.	125.75
817	1.0503	0.44045	0.	124.45
818	1.0732	0.91948	0.	124.71
819	-1.5812	8.5906	0.	129.79
820	-2.5367	8.5436	0.	128.99
821	-4.5058	8.4764	0.	126.2
822	-5.4816	-8.5291	0.	125.09
823	-4.9965	-8.5135	0.	125.9
824	-4.5012	-8.5059	0.	126.61
825	-2.0015	-8.4998	0.	127.79
826	-1.5012	-8.4998	0.	127.6
827	-1.0008	-8.4999	0.	126.82
828	-3.2773e-004	-8.4999	0.	122.14
829	0.99994	-8.4999	0.	122.31
830	1.5	-8.4999	0.	125.11
831	2.5	-8.5	0.	127.47
832	3.0001	-8.4999	0.	126.78
833	4.5006	-8.499	0.	119.56
834	6.0005	-8.4973	0.	126.61
835	8.0119	-5.9816	0.	124.91
836	-1.7244	6.6973	0.	131.24
837	7.417	8.4934	0.	126.68
838	7.9417	8.4898	0.	124.95
839	8.4643	8.4956	0.	124.38
840	8.4689	7.9976	0.	124.06
841	8.5	7.0014	0.	125.45
842	8.4698	5.5056	0.	127.02
843	8.4994	5.0068	0.	127.27
844	8.5684	2.9858	0.	126.89
845	8.5472	2.4885	0.	126.45
846	8.5296	1.9929	0.	126.83
847	8.5192	1.4955	0.	127.94
848	8.5128	0.99721	0.	128.58
849	8.5075	0.49883	0.	128.55
850	8.5045	1.3955e-003	0.	128.21
851	8.509	-3.9551	0.	127.36
852	8.5156	-4.4616	0.	128.31
853	8.5132	-5.479	0.	128.87
854	-8.029	-3.1675e-002	0.	131.14
855	-8.0812	-6.9244	0.	126.
856	-8.5469	-6.4704	0.	128.39
857	-8.5269	-5.9842	0.	126.04
858	-8.5017	-4.4986	0.	126.31
859	-8.5005	-3.9993	0.	126.9
860	-8.5001	-3.4997	0.	127.59
861	-8.5	-3.0001	0.	129.39
862	-8.5193	-1.9804e-002	0.	132.64
863	-8.4922	1.4799	0.	126.21
864	-8.5188	2.9891	0.	129.38
865	-8.5284	3.9739	0.	129.35
866	-8.5241	4.4638	0.	129.26
867	-8.4647	5.9455	0.	126.04
868	-8.4547	6.9724	0.	130.59
869	-5.927	-8.5665	0.	125.57
870	-8.9814	-7.9783	0.	127.38
871	-9.0269	-6.4802	0.	129.57
872	-9.0185	-5.9863	0.	127.92
873	-9.0019	-4.4974	0.	127.9
874	-9.0002	-3.4994	0.	129.67
875	-9.0001	-3.	0.	131.01
876	-9.0043	-1.0057	0.	131.74
877	-9.0086	-0.50867	0.	133.01
878	-9.0115	-1.1193e-002	0.	131.66
879	-9.0114	0.48766	0.	129.24
880	-9.0057	0.9883	0.	127.51
881	-8.9949	1.4897	0.	127.11
882	-9.0179	3.9833	0.	129.48
883	-9.0032	5.4727	0.	127.22
884	-8.9758	5.9745	0.	126.3
885	-8.9687	6.9828	0.	129.39
886	-8.9825	7.4878	0.	131.27
887	-8.9638	-8.4827	0.	127.95
888	-7.9561	-9.0031	0.	122.
889	-6.4197	-9.024	0.	129.45
890	-5.4681	-9.0242	0.	127.01
891	-4.9853	-9.0121	0.	126.97
892	-4.494	-9.0056	0.	127.22
893	-3.9981	-9.002	0.	127.47
894	-3.4999	-9.0006	0.	127.66
895	-3.0006	-9.0001	0.	127.76
896	-2.5008	-8.9999	0.	127.76
897	-2.0008	-8.9999	0.	127.57
898	-1.0005	-8.9999	0.	126.11
899	1.5	-9.	0.	124.59
900	2.	-9.	0.	125.86
901	2.5	-9.	0.	126.26
902	3.0001	-8.9999	0.	125.65
903	5.5004	-8.9984	0.	123.71
904	6.0002	-8.9985	0.	125.39
905	8.5	-8.9999	0.	128.23
906	9.0026	-6.4952	0.	131.42
907	9.0082	-5.4865	0.	129.72
908	9.009	-4.4772	0.	128.23
909	9.0118	-2.9802	0.	127.69
910	9.0132	-2.4834	0.	128.29
911	9.0036	5.1618e-005	0.	128.2
912	9.0054	0.49835	0.	128.18
913	9.0087	0.99667	0.	127.99
914	9.0135	1.4948	0.	127.48
915	9.0209	1.9925	0.	126.9
916	9.0318	2.4902	0.	126.61
917	9.0438	2.9892	0.	126.83
918	9.0037	5.0033	0.	127.19
919	8.9912	5.5022	0.	126.86
920	8.9985	7.0019	0.	125.13
921	8.9803	8.4986	0.	124.25
922	8.9827	7.9999	0.	124.15
923	0.5328	0.43073	0.	134.89
924	0.65557	1.3872	0.	129.6
925	-6.0776	4.3429	0.	117.31
926	-7.0515	4.4369	0.	120.55
927	-6.5597	4.384	0.	109.26
928	-4.6218	1.6136	0.	131.2
929	-4.7395	1.1461	0.	128.17
930	-0.60419	4.7012	0.	132.46
931	-8.4684	-8.4785	0.	135.26
932	-8.5172	-7.4525	0.	135.9
933	-8.4915	-7.9611	0.	121.9
934	5.505	-1.9625	0.	114.36
935	6.5281	-1.9824	0.	124.88
936	-2.1858	7.7173	0.	123.52
937	-1.8579	7.2524	0.	146.75
938	5.6056	6.562	0.	114.21
939	6.0648	6.6465	0.	115.65
940	6.5347	6.6703	0.	127.4
941	8.4733	8.996	0.	124.98
942	7.961	8.9953	0.	125.83
943	7.4494	9.0036	0.	128.63
944	6.938	9.0282	0.	131.72
945	6.4259	9.0477	0.	125.61
946	5.9171	9.04	0.	114.4
947	5.4175	9.014	0.	120.38
948	4.9266	8.9821	0.	130.63
949	4.4378	8.962	0.	130.81
950	3.9477	8.9673	0.	127.02
951	2.9661	9.0045	0.	125.08
952	1.9887	9.0326	0.	125.1
953	-0.95561	8.969	0.	118.05
954	-1.5123	9.021	0.	127.71
955	-2.0232	9.0015	0.	130.52
956	-2.5192	9.0102	0.	128.89
957	-3.013	8.9918	0.	127.22
958	-3.5068	8.9809	0.	126.32
959	-4.0035	8.9806	0.	125.98
960	-4.5022	8.9848	0.	125.56
961	-5.001	8.992	0.	124.66
962	-5.5	8.9985	0.	123.45
963	4.8961	8.4631	0.	143.66
964	-0.44862	9.0842	0.	117.59
965	0.18774	6.5775	0.	131.64
966	-6.5517	-7.028	0.	128.37
967	-6.9427	-8.9529	0.	125.8
968	7.0726	-4.4352	0.	142.49
969	4.6417	-4.1628	0.	125.5
970	1.2562	6.1999	0.	140.38
971	1.2822	4.3289	0.	138.7
972	-6.4901	7.5365	0.	119.35
973	-5.9995	9.0028	0.	123.48
974	-8.4793	7.4867	0.	136.63
975	-5.4968	-2.5007	0.	129.81
976	-5.4983	-0.51851	0.	129.82
977	-8.5001	-2.5006	0.	133.27
978	-8.5124	-0.51329	0.	136.67
979	1.5001	-7.4997	0.	130.34
980	-0.50067	-7.4999	0.	129.94
981	1.5279	-4.4968	0.	129.76
982	-0.49404	-4.5015	0.	130.33
983	2.5241	-2.4879	0.	134.48
984	2.5137	-0.52051	0.	133.18
985	0.52881	-2.5197	0.	128.86
986	0.5363	-0.55252	0.	134.59
987	-1.5322	2.6624	0.	128.45
988	-1.5473	4.6254	0.	127.85
989	-3.5183	2.5457	0.	137.98
990	-3.5019	4.4785	0.	136.71
991	6.5134	-1.4855	0.	126.32
992	6.4387	0.60058	0.	124.43
993	3.5075	-1.4851	0.	134.77
994	3.5133	0.45134	0.	135.07
995	-5.5237	-6.5131	0.	131.42
996	-5.4989	-4.4997	0.	129.14
997	-7.5964	-6.6174	0.	118.67
998	-7.5008	-4.5018	0.	125.3
999	8.5	-8.4997	0.	132.21
1000	8.5041	-6.4928	0.	132.86
1001	6.5002	-8.4979	0.	129.34
1002	6.5086	-6.4776	0.	127.85
1003	5.5019	-7.4933	0.	126.91
1004	3.5002	-7.5001	0.	130.
1005	3.5667	-4.5237	0.	133.2
1006	-7.538	-4.6523e-002	0.	133.56
1007	-7.1967	2.8705	0.	125.09
1008	-7.9518	6.986	0.	135.4
1009	-5.0522	6.9432	0.	140.55
1010	-2.0309	2.2013	0.	136.19
1011	-1.9898	-0.46536	0.	134.33
1012	7.1713	3.0297	0.	136.84
1013	-8.9993	8.9989	0.	126.57
1014	8.9837	8.9977	0.	124.66
1015	9.	-8.9999	0.	130.46
1016	-8.9623	-8.9871	0.	130.25
1017	6.8184	8.0753	0.	120.28
1018	6.6457	7.6121	0.	133.88
1019	5.4895	7.0148	0.	121.87
1020	4.9248	7.9323	0.	118.98
1021	5.1359	7.4096	0.	138.74
1022	5.3682	8.5238	0.	124.93
1023	6.3805	8.5985	0.	131.41
1024	5.8637	8.5746	0.	101.04
1025	-1.1739	8.5383	0.	119.73
1026	-1.4729	8.2255	0.	127.87
1027	-1.8324	7.9902	0.	135.96
1028	4.5304e-002	8.6109	0.	133.08
1029	0.267	7.1307	0.	127.84
1030	0.18846	7.6404	0.	135.91
1031	-1.3184	7.0817	0.	112.65
1032	-1.2561	6.6484	0.	119.86
1033	-6.5717	-7.5283	0.	123.61
1034	-6.7279	-8.4884	0.	131.02
1035	-6.6242	-8.0222	0.	124.77
1036	6.9384	-3.4185	0.	142.53
1037	6.7219	-2.9507	0.	126.39
1038	6.572	-2.4736	0.	129.79
1039	-8.0321	-7.3762	0.	132.1
1040	-7.0625	-7.0587	0.	113.44
1041	-7.5587	-7.1885	0.	109.88
1042	-7.4803	-9.0154	0.	106.42
1043	4.7614	-3.7136	0.	113.93
1044	5.4666	-2.4292	0.	120.34
1045	5.3141	-2.8549	0.	118.59
1046	4.9563	-3.2349	0.	132.09
1047	5.1276	-4.2606	0.	136.51
1048	6.1137	-4.4081	0.	110.06
1049	6.6044	-4.4301	0.	120.53
1050	1.2602	5.7384	0.	135.25
1051	1.2886	4.7941	0.	132.03
1052	1.2741	5.2676	0.	129.87
1053	-0.13991	4.6665	0.	128.52
1054	0.31418	4.5235	0.	111.48
1055	0.78621	4.3854	0.	114.82
1056	-6.4974	8.0175	0.	121.71
1057	-6.4997	8.5073	0.	125.19
1058	-6.4999	9.0031	0.	126.44
1059	-8.4936	7.9946	0.	135.
1060	-8.4996	8.9994	0.	129.87
1061	-8.4983	8.4979	0.	132.16
1062	-5.498	-2.0026	0.	128.12
1063	-5.4991	-1.5056	0.	127.37
1064	-5.4988	-1.0117	0.	128.28
1065	-8.5004	-2.0014	0.	132.37
1066	-8.5012	-1.503	0.	132.47
1067	1.	-7.4999	0.	121.69
1068	-3.1174e-004	-7.5	0.	121.25
1069	0.49987	-7.5	0.	109.77
1070	0.51162	-4.5017	0.	109.59
1071	8.5871e-003	-4.5022	0.	121.22
1072	2.5121	-1.9942	0.	134.03
1073	2.5058	-1.5004	0.	133.83
1074	2.506	-1.0086	0.	133.14
1075	2.0202	-2.4964	0.	126.92
1076	1.0206	-2.5067	0.	122.27
1077	1.5182	-2.5008	0.	114.39
1078	2.0166	-0.51908	0.	126.29
1079	1.5189	-0.52037	0.	115.15
1080	1.025	-0.52721	0.	126.46
1081	0.52698	-2.0249	0.	129.65
1082	0.52814	-1.0409	0.	131.03
1083	0.52689	-1.5317	0.	130.41
1084	-1.5465	3.1221	0.	127.15
1085	-1.5506	3.6035	0.	129.97
1086	-1.5498	4.1039	0.	130.55
1087	-2.0224	2.6104	0.	130.96
1088	-3.0211	2.5581	0.	131.47
1089	-2.5219	2.5786	0.	119.39
1090	-2.0188	4.5644	0.	122.52
1091	-2.5035	4.5313	0.	115.76
1092	-3.0015	4.5059	0.	127.76
1093	-3.5002	3.0195	0.	137.47
1094	-3.4966	3.9871	0.	136.46
1095	-3.4954	3.5002	0.	136.92
1096	6.5044	-0.9845	0.	125.36
1097	6.4985	-0.48085	0.	124.8
1098	6.4866	4.0185e-002	0.	125.53
1099	3.5045	-0.99859	0.	133.48
1100	3.5088	-2.7872e-002	0.	133.58
1101	3.5063	-0.51303	0.	133.28
1102	-5.9984	-2.5001	0.	122.36
1103	-7.4999	-2.5	0.	115.01
1104	-6.9996	-2.5	0.	114.13
1105	-8.015	-0.51694	0.	131.77
1106	-6.0032	-0.5227	0.	117.98
1107	-6.5054	-0.49698	0.	106.56
1108	-7.0093	-0.51238	0.	112.26
1109	-7.5146	-0.52007	0.	119.09
1110	-7.9808	7.4988	0.	130.28
1111	-7.4838	7.5231	0.	115.87
1112	-6.9857	7.5344	0.	118.22
1113	-5.5091	-6.0068	0.	130.24
1114	-5.503	-5.5026	0.	129.01
1115	-5.5006	-5.0007	0.	128.55
1116	-6.0273	-6.5145	0.	123.81
1117	-7.0544	-6.5461	0.	118.6
1118	-6.5353	-6.5197	0.	113.59
1119	-5.9992	-4.4998	0.	120.32
1120	-6.4996	-4.5	0.	108.62
1121	-7.0003	-4.5006	0.	117.57
1122	-7.5279	-6.0397	0.	122.68
1123	-7.5028	-5.0048	0.	124.98
1124	-7.5085	-5.5135	0.	124.15
1125	1.5004	-6.9995	0.	129.61
1126	1.5011	-6.4991	0.	131.93
1127	1.503	-5.9985	0.	133.37
1128	1.5069	-5.4976	0.	131.68
1129	1.5146	-4.9971	0.	129.38
1130	-0.50067	-6.9999	0.	129.52
1131	-0.50054	-6.4999	0.	131.76
1132	-0.50032	-5.9999	0.	133.42
1133	-0.49837	-5.0003	0.	129.68
1134	-0.49985	-5.5	0.	131.89
1135	8.5001	-7.9995	0.	131.79
1136	8.5002	-7.4988	0.	131.71
1137	8.501	-6.9968	0.	132.03
1138	8.	-8.4999	0.	123.83
1139	7.	-8.4993	0.	122.56
1140	7.5	-8.4998	0.	112.74
1141	8.0057	-6.4908	0.	124.78
1142	7.5073	-6.4883	0.	113.3
1143	7.0084	-6.4842	0.	121.8
1144	6.5004	-7.9964	0.	129.09
1145	6.5029	-6.9877	0.	128.42
1146	6.501	-7.4935	0.	129.06
1147	6.0102	-1.4941	0.	117.72
1148	5.5072	-1.4813	0.	111.33
1149	4.005	-1.4642	0.	127.84
1150	4.5042	-1.4577	0.	117.7
1151	5.005	-1.4654	0.	116.5
1152	4.0045	0.45995	0.	128.44
1153	5.9516	0.4635	0.	117.57
1154	5.4776	0.45417	0.	113.11
1155	4.9898	0.45242	0.	117.69
1156	4.4977	0.45827	0.	118.34
1157	5.5027	-6.9898	0.	126.73
1158	5.5038	-6.4836	0.	128.8
1159	5.5064	-5.9716	0.	129.64
1160	5.5062	-5.447	0.	125.73
1161	5.4824	-4.889	0.	122.69
1162	4.0003	-7.4998	0.	121.15
1163	4.5005	-7.4993	0.	108.3
1164	5.0012	-7.4976	0.	118.49
1165	4.0632	-4.5509	0.	123.97
1166	5.0282	-4.6509	0.	129.94
1167	4.5537	-4.5871	0.	115.79
1168	3.5003	-7.0003	0.	129.46
1169	3.501	-6.5007	0.	132.6
1170	3.5029	-6.0016	0.	134.68
1171	3.5231	-5.01	0.	132.47
1172	3.5081	-5.504	0.	134.03
1173	-7.5638	0.42746	0.	126.81
1174	-7.3617	2.3991	0.	131.81
1175	-7.4414	1.9064	0.	125.75
1176	-7.4941	1.4069	0.	130.63
1177	-7.5387	0.91286	0.	131.08
1178	-5.1545	0.57246	0.	138.6
1179	-7.0321	-4.1006e-002	0.	107.48
1180	-6.4934	4.1936e-002	0.	108.34
1181	-6.071	0.32732	0.	111.57
1182	-6.7236	2.7276	0.	104.28
1183	-6.3089	2.4376	0.	113.99
1184	-5.8625	2.1588	0.	115.1
1185	-5.1038	1.6493	0.	134.23
1186	-5.5169	1.8089	0.	125.15
1187	-7.8897	6.4182	0.	122.28
1188	-7.077	5.0215	0.	122.07
1189	-7.4622	7.0544	0.	130.19
1190	-6.9688	7.0707	0.	109.9
1191	-6.4809	7.0616	0.	116.09
1192	-5.5194	7.0084	0.	134.39
1193	-5.9972	7.0427	0.	114.36
1194	-6.0151	4.8059	0.	123.31
1195	-5.8887	5.2161	0.	119.78
1196	-5.6021	5.5962	0.	126.96
1197	-5.0943	5.8099	0.	134.05
1198	-5.1134	6.3735	0.	125.97
1199	-2.0476	1.7921	0.	127.87
1200	-2.0374	1.3599	0.	131.3
1201	-2.0327	0.91011	0.	133.28
1202	-2.029	0.45376	0.	130.96
1203	-2.0184	-5.4313e-003	0.	133.27
1204	-1.5163	2.2344	0.	120.32
1205	0.26029	1.4497	0.	133.47
1206	-0.1206	1.6322	0.	127.09
1207	-0.53787	1.8525	0.	118.41
1208	-0.96896	2.177	0.	118.35
1209	-1.986e-002	0.40904	0.	128.64
1210	-1.4732	-0.37295	0.	113.59
1211	-0.93851	-0.20182	0.	116.94
1212	-0.5186	0.15464	0.	117.25
1213	6.5975	1.6064	0.	130.17
1214	6.9548	2.0212	0.	138.76
1215	7.0971	2.5359	0.	116.32
1216	5.4156	3.1986	0.	126.7
1217	6.7274	3.0744	0.	132.13
1218	6.2934	3.1212	0.	107.31
1219	5.859	3.1642	0.	102.76
1220	-8.9998	9.4996	0.	125.81
1221	-8.4999	9.4998	0.	128.58
1222	-7.9999	9.4999	0.	125.18
1223	-7.5	9.5	0.	115.46
1224	-7.	9.5003	0.	123.16
1225	-6.4999	9.5011	0.	126.71
1226	-5.9996	9.5009	0.	124.33
1227	-5.4998	9.4989	0.	124.39
1228	-5.0004	9.4956	0.	125.16
1229	-4.501	9.4925	0.	125.94
1230	-4.0024	9.4913	0.	126.51
1231	-3.5045	9.4922	0.	126.96
1232	-3.007	9.4967	0.	127.37
1233	-2.508	9.5028	0.	127.74
1234	-2.0061	9.5023	0.	127.39
1235	-1.4979	9.503	0.	125.62
1236	-0.98908	9.4983	0.	121.22
1237	-0.48441	9.5286	0.	121.39
1238	1.509e-002	9.5363	0.	125.68
1239	0.51207	9.5338	0.	127.57
1240	1.0081	9.5282	0.	126.91
1241	1.5022	9.5229	0.	126.58
1242	1.9968	9.5166	0.	126.39
1243	2.4912	9.5101	0.	126.35
1244	2.9857	9.5026	0.	126.41
1245	3.4803	9.494	0.	126.58
1246	3.9745	9.4862	0.	127.09
1247	4.4682	9.4848	0.	127.36
1248	4.9627	9.4929	0.	125.88
1249	5.4594	9.5063	0.	122.29
1250	5.9602	9.5171	0.	121.07
1251	6.4648	9.5198	0.	124.09
1252	6.9707	9.5127	0.	126.64
1253	7.476	9.5031	0.	126.73
1254	7.9808	9.4982	0.	126.02
1255	8.486	9.4976	0.	125.51
1256	8.9911	9.4983	0.	125.19
1257	9.4957	9.4991	0.	124.87
1258	9.4924	8.999	0.	124.39
1259	9.4911	8.4996	0.	124.04
1260	9.4921	8.0004	0.	123.94
1261	9.4955	7.5009	0.	124.2
1262	9.4987	7.001	0.	124.77
1263	9.4993	6.5007	0.	125.5
1264	9.4984	6.0006	0.	126.2
1265	9.4981	5.501	0.	126.77
1266	9.5028	5.0017	0.	127.16
1267	9.5146	4.5001	0.	127.34
1268	9.5208	3.9983	0.	127.27
1269	9.5242	3.4956	0.	127.01
1270	9.5212	2.9944	0.	126.7
1271	9.5159	2.4945	0.	126.56
1272	9.5108	1.9955	0.	126.73
1273	9.5071	1.4967	0.	127.13
1274	9.5046	0.99781	0.	127.58
1275	9.5029	0.49878	0.	127.93
1276	9.5021	-1.4419e-004	0.	128.15
1277	9.5018	-0.49923	0.	128.28
1278	9.5023	-0.99791	0.	128.34
1279	9.5035	-1.4963	0.	128.29
1280	9.5051	-1.9945	0.	128.07
1281	9.5063	-2.4929	0.	127.69
1282	9.5058	-2.9914	0.	127.32
1283	9.5045	-3.49	0.	127.2
1284	9.504	-3.9892	0.	127.52
1285	9.5042	-4.4895	0.	128.21
1286	9.5047	-4.9911	0.	129.05
1287	9.5038	-5.4935	0.	129.83
1288	9.5025	-5.9956	0.	130.36
1289	9.5013	-6.4972	0.	130.39
1290	9.5004	-6.9986	0.	129.86
1291	9.5001	-7.4992	0.	129.64
1292	9.5	-7.9996	0.	130.1
1293	9.5	-8.4998	0.	130.89
1294	9.5	-8.9999	0.	131.2
1295	9.5	-9.5	0.	131.17
1296	9.	-9.4999	0.	129.35
1297	8.5	-9.4999	0.	126.58
1298	8.	-9.4999	0.	123.07
1299	7.5	-9.4999	0.	120.89
1300	7.	-9.4997	0.	121.54
1301	6.5	-9.4995	0.	123.34
1302	6.0001	-9.4994	0.	124.11
1303	5.5001	-9.4993	0.	123.55
1304	5.0002	-9.4994	0.	122.67
1305	4.5002	-9.4996	0.	122.34
1306	4.0002	-9.4998	0.	122.9
1307	3.5001	-9.4999	0.	124.01
1308	3.0001	-9.4999	0.	125.06
1309	2.5	-9.5	0.	125.52
1310	2.	-9.5	0.	125.24
1311	1.5	-9.5	0.	124.38
1312	0.99995	-9.5	0.	123.43
1313	-0.50014	-9.5	0.	124.56
1314	-1.0002	-9.4999	0.	125.79
1315	-1.5002	-9.4999	0.	126.78
1316	-2.0002	-9.4999	0.	127.4
1317	-2.5002	-9.5	0.	127.73
1318	-3.	-9.5002	0.	127.85
1319	-3.4992	-9.5005	0.	127.85
1320	-3.9976	-9.5016	0.	127.8
1321	-4.4944	-9.5036	0.	127.76
1322	-4.9888	-9.5076	0.	127.8
1323	-5.4804	-9.5133	0.	127.88
1324	-5.9705	-9.5176	0.	127.61
1325	-6.4692	-9.505	0.	125.5
1326	-6.9646	-9.4895	0.	118.35
1327	-7.4647	-9.5019	0.	114.54
1328	-7.9675	-9.5019	0.	119.54
1329	-8.4687	-9.4947	0.	126.14
1330	-8.9747	-9.4925	0.	129.04
1331	-9.4866	-9.4947	0.	129.88
1332	-9.4811	-8.9923	0.	129.27
1333	-9.4856	-8.4934	0.	128.14
1334	-9.4908	-7.9918	0.	126.86
1335	-9.5017	-7.4908	0.	127.88
1336	-9.5106	-6.9901	0.	128.87
1337	-9.5123	-6.4907	0.	129.12
1338	-9.5092	-5.9927	0.	128.83
1339	-9.5054	-5.495	0.	128.67
1340	-9.5027	-4.9969	0.	128.89
1341	-9.5012	-4.4982	0.	129.46
1342	-9.5005	-3.999	0.	130.15
1343	-9.5002	-3.4995	0.	130.8
1344	-9.5001	-2.9999	0.	131.17
1345	-9.5002	-2.5004	0.	130.98
1346	-9.5005	-2.001	0.	130.19
1347	-9.5012	-1.5019	0.	129.8
1348	-9.5025	-1.0031	0.	130.13
1349	-9.5042	-0.5043	0.	130.52
1350	-9.5053	-5.0459e-003	0.	130.01
1351	-9.5051	0.49495	0.	128.86
1352	-9.5023	0.99535	0.	127.87
1353	-9.4979	1.4956	0.	127.56
1354	-9.4946	1.9952	0.	127.96
1355	-9.4962	2.4941	0.	128.7
1356	-9.5031	2.9932	0.	129.4
1357	-9.5086	3.9916	0.	129.6
1358	-9.5063	4.4906	0.	128.98
1359	-9.5057	4.9892	0.	127.97
1360	-9.4982	5.4893	0.	126.85
1361	-9.4893	5.9898	0.	126.1
1362	-9.4836	6.4899	0.	126.19
1363	-9.4847	6.9913	0.	126.88
1364	-9.4905	7.4934	0.	127.2
1365	-9.4955	7.9956	0.	126.46
1366	-9.4982	8.4976	0.	125.39
1367	-9.4994	8.9988	0.	124.73
1368	-9.4998	9.4995	0.	124.89
1369	5.5641	1.3433	0.	124.07
1370	5.3516	1.8542	0.	125.8
1371	5.0239	2.7504	0.	120.2
1372	5.1527	2.2986	0.	130.92
1373	-8.5111	0.97611	0.	126.6
1374	4.4669	3.2374	0.	127.93
1375	-0.65683	3.2531	0.	120.94
1376	9.0508	3.4913	0.	127.22
1377	-9.5078	3.4923	0.	129.74
1378	9.007	-3.9748	0.	127.54
1379	0.57664	0.91707	0.	123.11
1380	-3.0038	8.473	0.	126.65
1381	5.5007	-8.4972	0.	123.65
1382	-8.	-2.5002	0.	125.7
1383	2.3471	7.5747	0.	124.74
1384	6.001	-7.9949	0.	126.73
1385	-0.63394	4.1928	0.	128.01
1386	4.2106	6.4173	0.	127.97
1387	7.5348	7.473	0.	124.97
1388	8.511	-1.4844	0.	129.16
1389	8.5224	-2.4682	0.	129.05
1390	9.0115	-1.9857	0.	128.66
1391	9.0075	-1.4906	0.	128.66
1392	5.0003	1.3559	0.	123.81
1393	-3.0025	-8.5001	0.	127.63
1394	3.5263	1.3962	0.	127.81
1395	-8.5258	5.442	0.	127.82
1396	-8.9877	2.4901	0.	128.62
1397	-3.4721	-1.516	0.	130.03
1398	2.4507	8.5321	0.	124.04
1399	-7.9726	5.8489	0.	129.14
1400	-1.2291e-004	-9.5	0.	123.47
1401	8.9914	7.501	0.	124.47
1402	3.9143	3.74	0.	127.94
1403	-5.5011	8.4989	0.	123.34
1404	7.0273	-5.4589	0.	123.54
1405	-5.4763	3.4529	0.	123.84
1406	7.0219	4.8738	0.	123.46
1407	-2.513	5.0519	0.	121.78
1408	-9.0241	-6.9774	0.	130.95
1409	9.0001	-7.9994	0.	130.51
1410	5.0005	-8.9987	0.	122.02
1411	-8.5332	3.4834	0.	129.43
1412	-8.9675	6.4757	0.	126.78
1413	2.5002	-7.4999	0.	129.36
1414	2.5542	1.3974	0.	127.6
1415	-5.8321	3.0056	0.	119.11
1416	-7.4997	-3.0002	0.	117.63
1417	1.0182	-4.5002	0.	121.7
1418	-5.9437	-9.0375	0.	127.47
1419	9.0033	-0.49759	0.	128.26
1420	8.5085	-5.9864	0.	129.66
1421	3.0336	-2.4779	0.	132.24
1422	-5.0199	-6.5096	0.	129.15
1423	-2.6671	6.5083	0.	129.37
1424	-6.3308	-8.5552	0.	126.48
1425	-2.0028	-6.4996	0.	126.87
1426	2.	-8.4999	0.	127.
1427	-9.0002	-2.5008	0.	131.78
1428	-2.5047	-6.9999	0.	127.06
1429	3.537	1.8602	0.	126.12
1430	8.5187	-2.9611	0.	128.
1431	2.6962	6.6712	0.	127.5
1432	-3.9851	-2.996	0.	129.46
1433	7.5172	7.0039	0.	127.4
1434	-4.5346	2.0859	0.	134.41
1435	-1.5007	-8.9999	0.	127.08
1436	-3.9816	-2.5001	0.	129.32
1437	7.6093	5.983	0.	126.9
1438	-1.6224	6.177	0.	125.
1439	7.0698	-3.9184	0.	127.08
1440	-8.9927	7.9927	0.	130.06
1441	4.0004	-8.4995	0.	121.51
1442	-8.5122	-5.4929	0.	125.01
1443	8.0034	5.3051e-003	0.	127.85
1444	8.0073	-0.98424	0.	128.25
1445	-3.4966	-4.4949	0.	128.06
1446	-3.0023	-5.4985	0.	126.87
1447	0.49984	-8.5	0.	120.75
1448	-3.9973	-4.4966	0.	128.18
1449	4.5007	-7.9989	0.	116.11
1450	4.0003	-8.9996	0.	122.37
1451	4.9498	3.2217	0.	133.57
1452	-2.4992	-4.9961	0.	127.39
1453	3.8794	4.2355	0.	127.81
1454	-8.5279	4.9517	0.	128.79
1455	5.862	4.1412	0.	116.5
1456	2.5225	-3.7955e-002	0.	129.67
1457	0.19933	3.4876	0.	119.81
1458	0.49985	-9.	0.	122.29
1459	-1.5017	-7.9998	0.	128.12
1460	1.0137	8.59	0.	126.08
1461	-8.9851	1.991	0.	127.67
1462	-2.4909	-3.9884	0.	128.31
1463	6.3541	4.4709	0.	118.9
1464	-3.5028	-8.5006	0.	127.43
1465	6.9912	0.5374	0.	127.95
1466	6.9984	-0.47391	0.	123.73
1467	0.27958	6.0366	0.	120.71
1468	-0.1654	5.8206	0.	128.25
1469	-4.0464	7.4415	0.	127.73
1470	1.0103	9.0595	0.	127.
1471	-4.4956	-1.0357	0.	129.98
1472	3.7256	6.3719	0.	127.52
1473	-5.5132	-2.9521e-002	0.	127.45
1474	-3.0434	5.5034	0.	126.78
1475	2.8165	7.5281	0.	124.72
1476	-0.50062	-8.4999	0.	124.88
1477	3.4562	8.985	0.	125.59
1478	-4.9965	-1.511	0.	126.53
1479	-1.4655	-2.9789	0.	126.57
1480	4.1452	-4.0981	0.	120.19
1481	2.0002	-7.4997	0.	129.67
1482	8.518	-1.9755	0.	129.47
1483	-0.43356	-1.1348	0.	121.81
1484	-5.9993	7.5255	0.	120.21
1485	2.9343	8.5067	0.	124.12
1486	-1.4307	-2.4564	0.	125.18
1487	-9.0178	3.4865	0.	129.56
1488	8.5429	4.5011	0.	127.62
1489	8.0706	4.4897	0.	127.58
1490	7.608	4.4652	0.	126.79
1491	-4.0027	-8.5023	0.	127.11
1492	8.5026	6.5042	0.	126.27
1493	-2.0266	5.0982	0.	121.97
1494	-3.9836	-1.5216	0.	129.57
1495	-5.004	8.4876	0.	125.28
1496	1.5954	1.8934	0.	127.1
1497	3.3818e-002	9.0744	0.	132.63
1498	8.5065	-0.98999	0.	128.53
1499	8.5042	-0.49441	0.	128.13
1500	-8.0119	-5.5023	0.	122.57
1501	-8.0309	-5.9992	0.	123.3
1502	3.5002	-8.9998	0.	124.17
1503	5.0011	-7.9976	0.	118.8
1504	-4.0043	-5.5004	0.	126.79
1505	-3.9936	-3.9956	0.	128.92
1506	6.5001	-8.9988	0.	125.14
1507	4.0004	-7.9996	0.	120.37
1508	3.5002	-7.9999	0.	126.24
1509	-2.5014	-5.498	0.	126.89
1510	-4.0006	-4.9985	0.	127.33
1511	0.57633	1.8756	0.	130.65
1512	9.0432	3.9968	0.	127.46
1513	-1.0941	4.1648	0.	128.38
1514	7.4986	1.5228e-002	0.	126.84
1515	-9.0071	2.9883	0.	129.32
1516	-7.9029	2.5288	0.	129.07
1517	-4.9982	-1.0184	0.	129.
1518	0.53344	8.6042	0.	128.25
1519	-0.43496	-0.22446	0.	122.12
1520	9.01	-4.9814	0.	128.97
1521	8.5167	-4.9703	0.	128.88
1522	2.4758	9.0203	0.	124.99
1523	-7.9998	-3.0002	0.	123.97
1524	8.5809	3.4885	0.	127.63
1525	6.2416	1.3078	0.	112.98
1526	2.3126	4.7547	0.	128.84
1527	-5.9979	-3.4996	0.	119.88
1528	-4.492	-3.4977	0.	129.32
1529	6.0165	-2.0021	0.	110.94
1530	3.0002	-7.5	0.	129.52
1531	-3.5099	-7.0014	0.	127.
1532	-9.0154	4.4782	0.	129.12
1533	8.4993	6.0058	0.	126.75
1534	-6.0902	-8.0767	0.	121.14
1535	0.71026	2.9288	0.	125.13
1536	1.4895	8.5717	0.	124.48
1537	0.99075	7.668	0.	122.83
1538	7.045	-4.947	0.	127.94
1539	-5.6168	0.45315	0.	120.76
1540	5.9206	4.6762	0.	118.54
1541	2.543	0.92172	0.	128.03
1542	-3.9885	-1.0515	0.	130.53
1543	7.3505	5.3933	0.	125.39
1544	-8.5043	-1.0068	0.	134.57
1545	7.5	-8.9998	0.	118.88
1546	-0.99538	-4.499	0.	129.38
1547	-5.5338	4.3466	0.	126.46
1548	-8.5453	-6.9584	0.	132.91
1549	8.9968	6.0017	0.	126.44
1550	-2.5021	-8.4999	0.	127.76
1551	0.75327	6.1772	0.	117.69
1552	5.2773	5.5838	0.	120.92
1553	-0.23009	3.7026	0.	121.04
1554	7.6575	3.983	0.	128.39
1555	-4.0552	5.4189	0.	130.79
1556	-5.03	5.3099	0.	131.86
1557	1.4155	7.6171	0.	123.66
1558	-2.9549	-1.9879	0.	129.07
1559	-8.0014	-4.5006	0.	125.24
1560	-9.0046	-4.9953	0.	127.24
1561	0.99993	-9.	0.	123.03
1562	0.99997	-7.9999	0.	121.19
1563	-0.48217	-3.509	0.	125.65
1564	3.4224	8.4736	0.	124.4
1565	2.2402	6.657	0.	128.71
1566	-8.4696	1.9882	0.	127.3
1567	-5.9998	8.5066	0.	121.43
1568	4.4771	1.7938	0.	123.4
1569	3.5191	0.92074	0.	130.68
1570	8.5073	-3.4554	0.	127.07
1571	-9.0008	-3.9987	0.	128.69
1572	7.5733	2.5037	0.	126.64
1573	4.4518	-2.7801	0.	124.65
1574	3.1723	-3.4416	0.	128.62
1575	-6.4992	-2.5	0.	112.95
1576	5.6146	-4.3639	0.	111.09
1577	3.7626	7.4002	0.	125.08
1578	1.7895	4.2941	0.	132.76
1579	-3.5464	2.0902	0.	132.82
1580	6.5295	7.1413	0.	133.46
1581	-3.4794	-2.9913	0.	129.23
1582	-0.88421	-2.0684	0.	123.2
1583	2.5019	-6.4994	0.	128.34
1584	-4.6984	0.67836	0.	134.05
1585	5.5012	-7.9957	0.	123.99
1586	-2.6842e-004	-8.9999	0.	122.99
1587	4.2684	5.9465	0.	126.82
1588	-9.0017	-1.5034	0.	129.68
1589	-2.0021	-5.999	0.	126.74
1590	0.49991	-9.5	0.	123.02
1591	-2.0025	-7.9998	0.	127.91
1592	0.10285	8.1347	0.	128.88
1593	9.0076	-3.4761	0.	127.33
1594	-1.9909	-3.9892	0.	128.3
1595	-3.0165	5.0079	0.	126.27
1596	9.0052	-5.9905	0.	130.75
1597	1.4993	9.0468	0.	125.66
1598	3.55	2.3207	0.	125.4
1599	-3.0048	-8.0002	0.	127.46
1600	-4.9946	-2.0055	0.	127.78
1601	7.016	-5.9711	0.	121.3
1602	7.5202	-3.898	0.	128.96
1603	1.5	-7.9999	0.	126.69
1604	-4.9986	-4.4993	0.	128.66
1605	-3.4923	-3.9929	0.	128.69
1606	-2.0009	-5.4981	0.	127.01
1607	-3.5032	-5.4992	0.	126.86
1608	4.5004	-8.9992	0.	121.42
1609	-9.0102	-5.4916	0.	127.1
1610	6.5491	-4.9386	0.	120.3
1611	3.0164	-2.9526	0.	130.46
1612	0.26271	2.4919	0.	126.06
1613	2.0819	1.877	0.	127.15
1614	-1.0617	2.7056	0.	118.95
1615	2.1815	3.2963	0.	129.86
1616	9.0002	-7.4987	0.	129.16
1617	7.5722	-2.8776	0.	130.5
1618	-0.59733	5.2178	0.	118.13
1619	2.529	-4.9956	0.	129.59
1620	-5.4093	3.0243	0.	125.25
1621	-6.0339	3.8644	0.	116.52
1622	3.3607	4.2391	0.	128.41
1623	-0.54716	2.4313	0.	120.8
1624	-1.9959	-4.4936	0.	128.13
1625	7.4958	4.9413	0.	125.74
1626	8.5708	3.9952	0.	127.84
1627	-2.4444	8.1206	0.	128.37
1628	-1.5021	-6.9998	0.	127.79
1629	3.9065	5.3001	0.	126.93
1630	-4.5236	4.8924	0.	133.13
1631	-4.0048	8.4672	0.	126.11
1632	8.	-8.9999	0.	122.71
1633	8.0035	-0.48941	0.	127.49
1634	-8.5051	-4.9968	0.	125.39
1635	-9.0167	4.9728	0.	128.38
1636	5.3834	4.1679	0.	120.46
1637	3.9748	3.2539	0.	126.97
1638	-9.0072	-7.477	0.	128.51
1639	0.5214	9.069	0.	130.04
1640	7.	-8.9994	0.	121.27
1641	9.0009	-6.9973	0.	130.55
1642	-9.0006	-2.0018	0.	130.86
1643	-8.9973	8.4959	0.	127.14
1644	6.99	3.413e-002	0.	125.5
1645	-0.2572	6.2906	0.	120.37
1646	8.4887	7.4997	0.	124.49
1647	-2.5969	6.0395	0.	127.49
1648	9.0227	4.5033	0.	127.41
1649	8.9999	6.502	0.	125.85
1650	5.7869	5.1589	0.	119.37
1651	9.	-8.4997	0.	131.27
1652	3.0091	-1.4964	0.	132.15
1653	7.0062	-0.97475	0.	125.82
1654	9.0048	-0.99408	0.	128.45
1655	-0.50041	-8.9999	0.	124.59
1656	-8.4597	-8.9897	0.	129.99
1657	4.8961e-002	-0.60121	0.	128.84
1658	4.9999	-1.9226	0.	118.73
1659	3.0405	1.3939	0.	128.47
1660	-4.5503	5.3769	0.	131.91
1661	-8.4391	6.4542	0.	126.3
1662	-5.9923	3.4028	0.	116.7
1663	-1.4139	-1.3509	0.	121.46
1664	1.7003	3.3388	0.	129.68
1665	-8.5203	0.47608	0.	128.73
1666	-2.9995	-4.9963	0.	127.35
1667	-3.4981	8.4598	0.	125.87
1668	5.0007	-8.4981	0.	120.71
1669	6.3117	4.0478	0.	116.72
1670	-8.4661	2.4934	0.	128.66
1671	4.0578	2.3108	0.	123.61
1672	-4.0091	-8.0026	0.	126.94
1673	3.5003	-8.4998	0.	124.64
1674	-2.0487	5.6143	0.	123.86
1675	4.3877	4.2051	0.	127.01
1676	-5.5369	-8.0331	0.	123.75
1677	8.0084	0.50315	0.	128.89
1678	3.0622	2.3203	0.	126.9
1679	3.0515	1.8593	0.	127.26
1680	2.5792	2.3312	0.	127.67
1681	2.5668	1.8633	0.	127.44
1682	5.9649	0.93903	0.	111.24
1683	7.1611	4.4358	0.	124.72
1684	1.8023	7.1294	0.	126.84
1685	7.067	1.5156	0.	130.67
1686	-0.15204	2.9101	0.	122.01
1687	-0.14948	2.5278	0.	123.66
1688	6.5251	-5.4509	0.	120.81
1689	-1.0794	4.671	0.	126.55
1690	-1.5902	5.6509	0.	122.5
1691	6.8981	8.5484	0.	137.4
1692	-5.0153	4.8364	0.	131.89
1693	-1.1682	6.1819	0.	120.94
1694	-4.5086	4.4172	0.	133.32
1695	-4.4965	3.9474	0.	132.58
1696	-0.78832	6.9584	0.	114.26
1697	-3.5744	1.646	0.	129.2
1698	-3.5889	1.2115	0.	127.26
1699	-3.5727	0.77709	0.	127.59
1700	-3.5392	0.33666	0.	128.92
1701	-1.1102	5.6863	0.	119.92
1702	-0.33542	6.739	0.	110.05
1703	-0.80129	6.6109	0.	113.64
1704	-7.5608	6.0017	0.	138.04
1705	-7.3219	5.5465	0.	123.79
1706	-7.5698	-8.5918	0.	108.33
1707	-5.4514	6.0095	0.	142.67
1708	-0.63857	5.7236	0.	124.92
1709	-0.71501	6.1926	0.	119.86
1710	-8.0043	-8.494	0.	125.56
1711	6.6117	-3.7	0.	141.
1712	6.4733	-3.9167	0.	142.47
1713	6.6672	-4.1801	0.	146.21
1714	6.8999	-3.9242	0.	149.35
1715	6.1383	-2.78	0.	106.77
1716	5.8817	-2.7667	0.	100.56
1717	6.296	-2.5118	0.	118.23
1718	5.7433	-2.4896	0.	113.41
1719	6.0182	-2.2761	0.	108.72
1720	5.4467	-3.8633	0.	135.49
1721	5.3283	-3.6333	0.	132.8
1722	4.9757	-3.7818	0.	140.12
1723	5.1588	-4.0553	0.	151.04
1724	5.57	2.54	0.	145.25
1725	5.6867	2.7	0.	134.33
1726	5.4528	2.9593	0.	147.64
1727	5.257	2.7352	0.	143.66
1728	5.89	1.82	0.	107.72
1729	6.0867	1.8	0.	96.323
1730	5.767	1.4917	0.	119.4
1731	6.1058	1.4739	0.	113.19
1732	6.4733	2.62	0.	134.06
1733	6.5533	2.44	0.	135.71
1734	6.8835	2.568	0.	146.21
1735	6.6987	2.8372	0.	154.09
1736	6.055	7.44	0.	115.79
1737	5.7825	7.395	0.	85.212
1738	6.0124	6.9132	0.	112.54
1739	5.7247	7.0974	0.	114.99
1740	6.2447	7.1607	0.	121.26
1741	6.245	7.96	0.	142.57
1742	6.0675	8.175	0.	134.74
1743	6.5792	8.1477	0.	143.36
1744	6.3602	8.4093	0.	149.22
1745	5.4275	7.825	0.	117.93
1746	5.5225	8.085	0.	134.65
1747	5.0874	7.9862	0.	144.21
1748	5.3091	8.2819	0.	146.4
1749	0.53	5.655	0.	104.34
1750	0.7525	5.5375	0.	146.68
1751	1.0001	5.7642	0.	139.91
1752	0.74664	5.9836	0.	132.05
1753	0.11	5.385	0.	105.14
1754	0.1225	5.1325	0.	109.52
1755	-0.11996	4.9582	0.	137.97
1756	-0.1327	5.5353	0.	137.95
1757	-0.34867	5.2339	0.	133.55
1758	0.7775	5.0325	0.	149.36
1759	0.5675	4.8975	0.	113.07
1760	1.0393	4.787	0.	141.37
1761	0.7881	4.5827	0.	133.93
1762	-1.3475	0.1475	0.	119.82
1763	-1.55	0.265	0.	140.16
1764	-1.7842	1.2284e-002	0.	135.74
1765	-1.5116	-0.17147	0.	126.44
1766	-0.1325	0.8525	0.	126.
1767	-0.1325	1.0875	0.	123.87
1768	0.16515	1.2098	0.	143.59
1769	2.507e-002	0.68952	0.	141.09
1770	0.32332	0.94353	0.	138.64
1771	-1.55	1.675	0.	142.48
1772	-1.3475	1.7925	0.	122.4
1773	-1.7988	1.8511	0.	134.72
1774	-1.5331	2.0722	0.	131.79
1775	-1.3683	7.4867	0.	132.23
1776	-1.43	7.7417	0.	126.78
1777	-1.7389	7.4062	0.	160.1
1778	-1.7262	7.7751	0.	154.92
1779	-0.36167	7.1933	0.	132.46
1780	-0.17167	7.375	0.	145.36
1781	7.8501e-002	7.1254	0.	141.43
1782	-0.22271	6.9295	0.	133.88
1783	-0.67	8.4683	0.	102.58
1784	-0.41833	8.395	0.	127.81
1785	-0.71781	8.8095	0.	118.64
1786	-0.46431	8.8671	0.	119.28
1787	-0.21735	8.6304	0.	126.53
1788	-7.145	-8.2725	0.	131.83
1789	-7.38	-8.38	0.	95.072
1790	-7.0564	-8.7414	0.	124.83
1791	-6.9489	-8.5092	0.	125.84
1792	-7.3699	-8.5609	0.	114.67
1793	-7.095	-7.7575	0.	143.49
1794	-7.305	-7.6075	0.	114.58
1795	-6.8209	-7.5141	0.	135.18
1796	-7.0663	-7.2794	0.	131.24
1797	-7.8	-8.08	0.	106.97
1798	-7.775	-7.8225	0.	112.78
1799	-8.2507	-7.9456	0.	135.33
1800	-8.0211	-7.6531	0.	139.55
1801	-8.0071	-8.212	0.	136.72
1802	-6.42	5.1312	0.	103.57
1803	-6.66	5.1438	0.	107.26
1804	-6.5548	4.657	0.	108.08
1805	-6.8135	4.9758	0.	114.52
1806	-6.2825	4.868	0.	115.18
1807	-5.64	6.3387	0.	138.47
1808	-5.75	6.5525	0.	140.42
1809	-5.5147	6.7742	0.	151.99
1810	-5.3117	6.4568	0.	148.16
1811	-7.32	6.4262	0.	138.45
1812	-7.19	6.6275	0.	134.84
1813	-7.6598	6.5291	0.	141.87
1814	-7.4461	6.8472	0.	145.67
1815	-5.505	1.27	0.	122.11
1816	-5.5375	1.025	0.	125.14
1817	-5.0248	1.1331	0.	143.71
1818	-5.2323	0.84623	0.	148.52
1819	-5.2069	1.3846	0.	146.53
1820	-6.675	2.17	0.	108.
1821	-6.9025	2.075	0.	130.16
1822	-7.1158	2.3596	0.	129.22
1823	-6.7968	2.5238	0.	115.62
1824	-6.9025	0.455	0.	122.01
1825	-7.0975	0.605	0.	140.07
1826	-7.3469	0.39373	0.	134.4
1827	-7.0811	0.1595	0.	125.79
1828	4.	-5.25	0.	137.75
1829	4.25	-5.	0.	123.03
1830	4.0316	-4.7755	0.	129.
1831	3.7616	-5.005	0.	132.96
1832	4.	-6.75	0.	135.48
1833	4.25	-7.	0.	117.95
1834	4.0001	-7.2499	0.	126.29
1835	3.7502	-7.0001	0.	130.09
1836	4.75	-5.	0.	122.68
1837	5.	-5.25	0.	135.95
1838	5.2412	-4.9445	0.	127.92
1839	5.0141	-4.8254	0.	131.84
1840	4.75	-7.	0.	116.1
1841	5.	-6.75	0.	132.27
1842	5.2514	-6.9949	0.	126.86
1843	5.0006	-7.2488	0.	123.05
1844	4.	-0.25	0.	141.36
1845	4.25	0.	0.	127.46
1846	3.7544	-1.3936e-002	0.	135.25
1847	4.0022	0.22998	0.	132.99
1848	4.	-0.75	0.	140.97
1849	4.25	-1.	0.	126.79
1850	3.7522	-0.99929	0.	134.8
1851	4.0025	-1.2321	0.	132.3
1852	5.75	0.	0.	120.29
1853	6.	-0.25	0.	132.41
1854	6.2433	2.0092e-002	0.	126.54
1855	5.9758	0.23175	0.	122.91
1856	5.75	-1.	0.	119.49
1857	6.	-0.75	0.	132.15
1858	6.2522	-0.99225	0.	126.15
1859	6.0051	-1.247	0.	122.68
1860	7.	-7.25	0.	137.
1861	7.25	-7.	0.	121.33
1862	7.0042	-6.7421	0.	127.09
1863	6.7515	-6.9938	0.	130.04
1864	7.	-7.75	0.	137.28
1865	7.25	-8.	0.	121.68
1866	7.	-8.2497	0.	127.71
1867	6.7502	-7.9982	0.	130.64
1868	7.75	-7.	0.	122.46
1869	8.	-7.25	0.	139.1
1870	8.2505	-6.9984	0.	132.99
1871	8.0029	-6.7454	0.	129.67
1872	7.75	-8.	0.	122.33
1873	8.	-7.75	0.	138.89
1874	8.25	-7.9997	0.	132.64
1875	8.	-8.2499	0.	128.99
1876	-3.	3.75	0.	144.45
1877	-2.75	4.	0.	126.72
1878	-3.0007	4.253	0.	133.55
1879	-3.2483	3.9935	0.	137.55
1880	-3.	3.25	0.	145.32
1881	-2.75	3.	0.	129.8
1882	-3.0106	2.7791	0.	136.28
1883	-3.2501	3.0097	0.	138.98
1884	-2.25	4.	0.	124.05
1885	-2.	3.75	0.	138.86
1886	-1.7749	4.0519	0.	132.
1887	-2.0094	4.2822	0.	128.28
1888	-2.25	3.	0.	128.
1889	-2.	3.25	0.	140.6
1890	-1.7733	3.061	0.	132.08
1891	-2.0112	2.8052	0.	134.32
1892	1.	-1.25	0.	140.15
1893	1.25	-1.	0.	124.91
1894	1.0125	-0.76361	0.	131.5
1895	0.76407	-1.0204	0.	133.54
1896	1.	-1.75	0.	138.55
1897	1.25	-2.	0.	122.82
1898	1.0103	-2.2534	0.	127.78
1899	0.76349	-2.0124	0.	131.1
1900	1.75	-1.	0.	124.87
1901	2.	-1.25	0.	141.11
1902	2.253	-1.0043	0.	134.43
1903	2.0083	-0.75954	0.	131.36
1904	1.75	-2.	0.	124.66
1905	2.	-1.75	0.	141.42
1906	2.2561	-1.9971	0.	135.15
1907	2.0101	-2.2482	0.	131.94
1908	0.	-5.25	0.	135.23
1909	0.25	-5.	0.	118.26
1910	4.2935e-003	-4.7511	0.	126.07
1911	-0.24919	-5.0001	0.	129.99
1912	0.	-6.75	0.	135.17
1913	0.25	-7.	0.	118.31
1914	-1.5587e-004	-7.25	0.	126.05
1915	-0.25034	-6.9999	0.	129.86
1916	0.75	-5.	0.	118.29
1917	1.	-5.25	0.	135.09
1918	1.2573	-4.9985	0.	129.85
1919	1.0091	-4.7501	0.	126.35
1920	0.75	-7.	0.	118.53
1921	1.	-6.75	0.	135.31
1922	1.	-7.25	0.	126.51
1923	1.2502	-6.9997	0.	130.15
1924	-7.	-5.25	0.	131.93
1925	-6.75	-5.	0.	116.96
1926	-7.0001	-4.7503	0.	122.45
1927	-7.2514	-5.0024	0.	125.84
1928	-7.	-5.75	0.	132.66
1929	-6.75	-6.	0.	118.33
1930	-7.0272	-6.273	0.	123.81
1931	-7.264	-6.0198	0.	125.4
1932	-6.25	-5.	0.	118.66
1933	-6.	-5.25	0.	135.53
1934	-5.7503	-5.0003	0.	129.3
1935	-5.9996	-4.7499	0.	125.52
1936	-6.25	-6.	0.	119.86
1937	-6.	-5.75	0.	136.15
1938	-5.7545	-6.0034	0.	130.84
1939	-6.0136	-6.2573	0.	127.88
1940	-8.	8.75	0.	141.36
1941	-7.75	9.	0.	124.72
1942	-8.2498	8.9997	0.	133.19
1943	-8.	9.25	0.	131.22
1944	-8.	8.25	0.	141.16
1945	-7.75	8.	0.	124.51
1946	-8.2468	7.9973	0.	135.53
1947	-7.9904	7.7494	0.	133.39
1948	-7.25	9.	0.	122.5
1949	-7.	8.75	0.	135.96
1950	-6.75	9.0015	0.	129.39
1951	-7.	9.2501	0.	127.98
1952	-7.25	8.	0.	121.13
1953	-7.	8.25	0.	134.48
1954	-6.7487	8.0088	0.	125.23
1955	-6.9929	7.7672	0.	124.1
1956	-8.	-1.25	0.	141.18
1957	-7.75	-1.	0.	126.91
1958	-8.0075	-0.75847	0.	134.67
1959	-8.2522	-1.0034	0.	135.84
1960	-8.	-1.75	0.	140.18
1961	-7.75	-2.	0.	125.07
1962	-8.2502	-2.0007	0.	133.68
1963	-8.	-2.2501	0.	130.68
1964	-6.25	-1.	0.	118.44
1965	-6.	-1.25	0.	133.04
1966	-5.7494	-1.0058	0.	127.66
1967	-6.0016	-0.76135	0.	122.83
1968	-6.25	-2.	0.	121.54
1969	-6.	-1.75	0.	134.73
1970	-5.749	-2.0013	0.	129.38
1971	-5.9992	-2.2501	0.	126.78
1972	9.75	10.	0.	125.07
1973	10.	9.75	0.	124.92
1974	-9.75	10.	0.	125.27
1975	-10.	9.75	0.	124.56
1976	10.	-9.75	0.	133.22
1977	9.75	-10.	0.	132.21
1978	-10.	-9.75	0.	131.93
1979	-9.75	-10.	0.	131.15
1980	6.375	-3.24	0.	113.3
1981	6.7159	-3.4442	0.	127.18
1982	6.4893	-2.9803	0.	117.63
1983	5.96	-3.89	0.	110.22
1984	6.1652	-4.1557	0.	111.43
1985	5.659	-4.1203	0.	107.97
1986	5.605	-3.2	0.	101.49
1987	5.5287	-2.9191	0.	107.77
1988	5.2115	-3.3258	0.	116.27
1989	5.73	2.18	0.	118.41
1990	5.4013	2.3293	0.	127.78
1991	5.5808	1.9271	0.	114.69
1992	6.08	2.66	0.	98.189
1993	5.8712	2.9221	0.	101.44
1994	6.285	2.8806	0.	99.606
1995	6.32	2.12	0.	92.235
1996	6.4004	1.7832	0.	105.64
1997	6.6957	2.1506	0.	117.41
1998	6.3978	7.656	0.	126.85
1999	5.3704	7.5098	0.	101.99
2000	5.8293	8.3523	0.	101.07
2001	0.29979	5.7783	0.	88.782
2002	1.0195	5.2763	0.	139.23
2003	0.32959	4.7692	0.	89.283
2004	-0.9425	0.3825	0.	104.25
2005	-1.0418	3.1592e-002	0.	108.34
2006	-0.5375	0.6175	0.	103.3
2007	-0.6293	0.32732	0.	112.82
2008	-0.17743	0.57202	0.	112.86
2009	-1.55	0.735	0.	142.76
2010	-1.7895	0.47688	0.	136.46
2011	-1.55	1.205	0.	143.23
2012	-1.7914	0.94006	0.	138.45
2013	-1.7937	1.3999	0.	137.09
2014	-0.5375	1.3225	0.	101.42
2015	-0.2278	1.4186	0.	109.92
2016	-0.9425	1.5575	0.	105.41
2017	-0.63893	1.6462	0.	113.76
2018	-1.057	1.926	0.	109.65
2019	-0.865	7.34	0.	100.18
2020	-1.2175	7.2475	0.	101.02
2021	-0.70083	7.1125	0.	110.24
2022	-1.05	8.105	0.	83.528
2023	-1.3565	8.0744	0.	103.36
2024	-1.017	8.4125	0.	102.85
2025	-0.295	7.885	0.	137.07
2026	-2.2434e-002	7.6352	0.	136.26
2027	-0.12691	8.1374	0.	132.17
2028	-6.8721	-8.0186	0.	132.8
2029	-7.5799	-8.4109	0.	85.775
2030	-7.5494	-7.4517	0.	92.571
2031	-6.16	5.5338	0.	110.28
2032	-6.0893	5.2743	0.	110.77
2033	-5.9	5.9363	0.	113.47
2034	-5.816	5.6656	0.	122.08
2035	-5.6107	6.0735	0.	125.44
2036	-6.88	5.5712	0.	115.8
2037	-6.9235	5.1895	0.	115.13
2038	-7.1	5.9988	0.	119.66
2039	-7.1559	5.6658	0.	122.55
2040	-7.3854	6.1071	0.	127.35
2041	-6.23	6.5775	0.	115.77
2042	-5.9936	6.8039	0.	112.45
2043	-6.71	6.6025	0.	114.35
2044	-6.4754	6.8258	0.	117.87
2045	-6.9594	6.8428	0.	109.
2046	-5.895	1.57	0.	93.866
2047	-5.6085	1.6144	0.	104.72
2048	-6.285	1.87	0.	96.056
2049	-5.9763	1.9394	0.	108.94
2050	-6.3944	2.2288	0.	101.2
2051	-5.9925	0.835	0.	99.993
2052	-5.6909	0.69157	0.	105.41
2053	-6.4475	0.645	0.	103.83
2054	-6.1455	0.53366	0.	109.66
2055	-6.5842	0.29597	0.	103.79
2056	-6.9675	1.585	0.	135.8
2057	-7.1882	1.8682	0.	129.67
2058	-7.0325	1.095	0.	137.81
2059	-7.2471	1.3735	0.	134.16
2060	-7.3019	0.88143	0.	134.4
2061	4.	-5.75	0.	141.61
2062	3.7541	-5.502	0.	138.02
2063	4.	-6.25	0.	140.6
2064	3.7514	-6.0008	0.	137.94
2065	3.7505	-6.5003	0.	136.29
2066	4.5269	-4.7935	0.	114.27
2067	4.5003	-7.2496	0.	106.6
2068	5.	-5.75	0.	138.49
2069	5.2531	-5.4735	0.	132.27
2070	5.	-6.25	0.	137.72
2071	5.2532	-5.9858	0.	133.88
2072	5.2519	-6.4918	0.	133.06
2073	3.7532	-0.50652	0.	139.4
2074	4.75	0.	0.	119.49
2075	4.4989	0.22914	0.	118.15
2076	5.25	0.	0.	116.92
2077	4.9949	0.22621	0.	119.22
2078	5.4888	0.22709	0.	112.95
2079	4.75	-1.	0.	118.69
2080	4.5021	-1.2288	0.	117.54
2081	5.25	-1.	0.	115.83
2082	5.0025	-1.2327	0.	118.13
2083	5.5036	-1.2407	0.	111.48
2084	6.2493	-0.49042	0.	130.87
2085	6.7505	-7.4968	0.	135.56
2086	7.5037	-6.7441	0.	111.94
2087	7.5	-8.2499	0.	111.74
2088	8.2501	-7.4994	0.	137.85
2089	-3.2477	3.5001	0.	143.42
2090	-2.5017	4.2657	0.	114.99
2091	-2.5109	2.7893	0.	119.14
2092	-1.7753	3.5518	0.	137.03
2093	0.76345	-1.5159	0.	137.3
2094	1.5095	-0.76018	0.	114.37
2095	1.5091	-2.2504	0.	113.48
2096	2.2529	-1.5002	0.	140.03
2097	0.	-5.75	0.	140.1
2098	-0.24993	-5.5	0.	135.91
2099	0.	-6.25	0.	140.08
2100	-0.25016	-6.	0.	136.84
2101	-0.25027	-6.5	0.	135.82
2102	0.50581	-4.7509	0.	107.78
2103	0.49993	-7.25	0.	107.96
2104	1.	-5.75	0.	139.78
2105	1.2535	-5.4988	0.	135.64
2106	1.	-6.25	0.	139.84
2107	1.2515	-5.9992	0.	136.66
2108	1.2506	-6.4995	0.	135.83
2109	-7.2542	-5.5068	0.	130.52
2110	-6.4998	-4.75	0.	107.7
2111	-6.5176	-6.2598	0.	110.84
2112	-5.7515	-5.5013	0.	134.85
2113	-8.2491	8.4989	0.	139.11
2114	-7.5	9.25	0.	113.96
2115	-7.4919	7.7615	0.	114.25
2116	-6.7499	8.5037	0.	132.39
2117	-8.2506	-1.5015	0.	138.75
2118	-7.25	-1.	0.	116.85
2119	-7.5073	-0.76003	0.	118.01
2120	-6.75	-1.	0.	113.08
2121	-7.0046	-0.75619	0.	114.45
2122	-6.5027	-0.74849	0.	107.96
2123	-7.25	-2.	0.	116.82
2124	-7.4999	-2.25	0.	114.97
2125	-6.75	-2.	0.	115.58
2126	-6.9998	-2.25	0.	116.27
2127	-6.4996	-2.25	0.	112.69
2128	-5.7496	-1.5028	0.	132.96
2129	9.25	10.	0.	125.33
2130	9.4979	9.7496	0.	124.99
2131	8.75	10.	0.	125.85
2132	8.9955	9.7492	0.	125.37
2133	8.25	10.	0.	126.42
2134	8.493	9.7488	0.	125.83
2135	7.75	10.	0.	126.66
2136	7.9904	9.7491	0.	126.35
2137	7.25	10.	0.	125.91
2138	7.488	9.7515	0.	126.68
2139	6.75	10.	0.	123.88
2140	6.9853	9.7563	0.	125.89
2141	6.25	10.	0.	121.69
2142	6.4824	9.7599	0.	123.3
2143	5.75	10.	0.	121.
2144	5.9801	9.7585	0.	120.89
2145	5.25	10.	0.	122.45
2146	5.4797	9.7531	0.	121.68
2147	4.75	10.	0.	125.08
2148	4.9814	9.7464	0.	124.75
2149	4.25	10.	0.	127.11
2150	4.4841	9.7424	0.	126.9
2151	3.75	10.	0.	127.88
2152	3.9873	9.7431	0.	127.42
2153	3.25	10.	0.	127.92
2154	3.4901	9.747	0.	127.28
2155	2.75	10.	0.	127.81
2156	2.9928	9.7513	0.	127.12
2157	2.25	10.	0.	127.79
2158	2.4956	9.755	0.	127.06
2159	1.75	10.	0.	127.86
2160	1.9984	9.7583	0.	127.1
2161	1.25	10.	0.	127.8
2162	1.5011	9.7615	0.	127.24
2163	0.75	10.	0.	126.92
2164	1.0041	9.7641	0.	127.29
2165	0.25	10.	0.	124.49
2166	0.50604	9.7669	0.	126.85
2167	-0.25	10.	0.	121.43
2168	7.545e-003	9.7681	0.	124.2
2169	-0.75	10.	0.	120.22
2170	-0.4922	9.7643	0.	120.64
2171	-1.25	10.	0.	121.64
2172	-0.99454	9.7492	0.	120.71
2173	-1.75	10.	0.	124.66
2174	-1.4989	9.7515	0.	124.23
2175	-2.25	10.	0.	127.35
2176	-2.003	9.7512	0.	126.85
2177	-2.75	10.	0.	128.59
2178	-2.504	9.7514	0.	128.02
2179	-3.25	10.	0.	128.69
2180	-3.0035	9.7484	0.	128.1
2181	-3.75	10.	0.	128.15
2182	-3.5022	9.7461	0.	127.73
2183	-4.25	10.	0.	127.33
2184	-4.0012	9.7456	0.	127.14
2185	-4.75	10.	0.	126.44
2186	-4.5005	9.7462	0.	126.4
2187	-5.25	10.	0.	125.64
2188	-5.0002	9.7478	0.	125.57
2189	-5.75	10.	0.	125.05
2190	-5.4999	9.7494	0.	124.82
2191	-6.25	10.	0.	123.92
2192	-5.9998	9.7505	0.	124.57
2193	-6.75	10.	0.	120.94
2194	-6.5	9.7506	0.	124.85
2195	-7.25	10.	0.	118.38
2196	-7.	9.7501	0.	120.9
2197	-7.75	10.	0.	119.01
2198	-7.5	9.75	0.	116.52
2199	-8.25	10.	0.	122.65
2200	-8.	9.75	0.	122.53
2201	-8.75	10.	0.	125.78
2202	-8.4999	9.7499	0.	126.85
2203	-9.25	10.	0.	125.94
2204	-8.9999	9.7498	0.	126.11
2205	-9.4999	9.7498	0.	125.17
2206	10.	9.25	0.	124.42
2207	9.7479	9.4996	0.	124.84
2208	10.	8.75	0.	123.64
2209	9.7462	8.9995	0.	124.21
2210	10.	8.25	0.	123.09
2211	9.7456	8.4998	0.	123.65
2212	10.	7.75	0.	123.07
2213	9.7461	8.0002	0.	123.43
2214	10.	7.25	0.	123.62
2215	9.7478	7.5004	0.	123.7
2216	10.	6.75	0.	124.59
2217	9.7493	7.0005	0.	124.4
2218	10.	6.25	0.	125.7
2219	9.7497	6.5004	0.	125.32
2220	10.	5.75	0.	126.7
2221	9.7492	6.0003	0.	126.23
2222	10.	5.25	0.	127.41
2223	9.749	5.5005	0.	126.96
2224	10.	4.75	0.	127.73
2225	9.7514	5.0008	0.	127.42
2226	10.	4.25	0.	127.63
2227	9.7573	4.5001	0.	127.56
2228	10.	3.75	0.	127.17
2229	9.7604	3.9992	0.	127.37
2230	10.	3.25	0.	126.55
2231	9.7621	3.4978	0.	126.94
2232	10.	2.75	0.	126.07
2233	9.7606	2.9972	0.	126.47
2234	10.	2.25	0.	125.98
2235	9.758	2.4973	0.	126.23
2236	10.	1.75	0.	126.35
2237	9.7554	1.9977	0.	126.39
2238	10.	1.25	0.	126.98
2239	9.7535	1.4983	0.	126.88
2240	10.	0.75	0.	127.64
2241	9.7523	0.9989	0.	127.46
2242	10.	0.25	0.	128.14
2243	9.7515	0.49939	0.	127.93
2244	10.	-0.25	0.	128.43
2245	9.7511	-7.2097e-005	0.	128.24
2246	10.	-0.75	0.	128.54
2247	9.7509	-0.49962	0.	128.41
2248	10.	-1.25	0.	128.41
2249	9.7512	-0.99896	0.	128.44
2250	10.	-1.75	0.	128.02
2251	9.7518	-1.4981	0.	128.29
2252	10.	-2.25	0.	127.38
2253	9.7526	-1.9973	0.	127.91
2254	10.	-2.75	0.	126.68
2255	9.7531	-2.4964	0.	127.35
2256	10.	-3.25	0.	126.26
2257	9.7529	-2.9957	0.	126.83
2258	10.	-3.75	0.	126.44
2259	9.7523	-3.495	0.	126.69
2260	10.	-4.25	0.	127.3
2261	9.752	-3.9946	0.	127.12
2262	10.	-4.75	0.	128.61
2263	9.7521	-4.4947	0.	128.05
2264	10.	-5.25	0.	129.91
2265	9.7523	-4.9956	0.	129.18
2266	10.	-5.75	0.	130.7
2267	9.7519	-5.4967	0.	130.16
2268	10.	-6.25	0.	130.57
2269	9.7512	-5.9978	0.	130.63
2270	10.	-6.75	0.	129.63
2271	9.7507	-6.4986	0.	130.31
2272	10.	-7.25	0.	128.74
2273	9.7502	-6.9993	0.	129.43
2274	10.	-7.75	0.	128.94
2275	9.7501	-7.4996	0.	129.05
2276	10.	-8.25	0.	130.29
2277	9.75	-7.9998	0.	129.76
2278	10.	-8.75	0.	131.84
2279	9.75	-8.4999	0.	131.02
2280	10.	-9.25	0.	132.84
2281	9.75	-8.9999	0.	131.86
2282	9.75	-9.5	0.	132.16
2283	-10.	9.25	0.	123.28
2284	-9.7499	9.4998	0.	124.47
2285	-10.	8.75	0.	122.48
2286	-9.7497	8.9994	0.	123.62
2287	-10.	8.25	0.	123.08
2288	-9.7491	8.4988	0.	123.91
2289	-10.	7.75	0.	124.3
2290	-9.7478	7.9978	0.	125.09
2291	-10.	7.25	0.	124.89
2292	-9.7453	7.4967	0.	126.04
2293	-10.	6.75	0.	124.61
2294	-9.7424	6.9956	0.	125.89
2295	-10.	6.25	0.	124.37
2296	-9.7418	6.495	0.	125.26
2297	-10.	5.75	0.	125.05
2298	-9.7446	5.9949	0.	125.26
2299	-10.	5.25	0.	126.68
2300	-9.7491	5.4947	0.	126.26
2301	-10.	4.75	0.	128.65
2302	-9.7528	4.9946	0.	127.82
2303	-10.	4.25	0.	130.22
2304	-9.7531	4.4953	0.	129.29
2305	-10.	3.75	0.	130.94
2306	-9.7543	3.9958	0.	130.22
2307	-10.	3.25	0.	130.67
2308	-9.7539	3.4962	0.	130.4
2309	-10.	2.75	0.	129.57
2310	-9.7515	2.9966	0.	129.84
2311	-10.	2.25	0.	128.13
2312	-9.7481	2.497	0.	128.78
2313	-10.	1.75	0.	126.99
2314	-9.7473	1.9976	0.	127.67
2315	-10.	1.25	0.	126.75
2316	-9.7489	1.4978	0.	127.08
2317	-10.	0.75	0.	127.55
2318	-9.7512	0.99768	0.	127.39
2319	-10.	0.25	0.	128.81
2320	-9.7525	0.49748	0.	128.51
2321	-10.	-0.25	0.	129.53
2322	-9.7527	-2.5229e-003	0.	129.72
2323	-10.	-0.75	0.	129.21
2324	-9.7521	-0.50215	0.	130.07
2325	-10.	-1.25	0.	128.55
2326	-9.7512	-1.0016	0.	129.46
2327	-10.	-1.75	0.	128.8
2328	-9.7506	-1.501	0.	129.05
2329	-10.	-2.25	0.	130.21
2330	-9.7502	-2.0005	0.	129.74
2331	-10.	-2.75	0.	131.75
2332	-9.7501	-2.5002	0.	131.04
2333	-10.	-3.25	0.	132.47
2334	-9.7501	-3.	0.	131.78
2335	-10.	-3.75	0.	132.18
2336	-9.7501	-3.4998	0.	131.66
2337	-10.	-4.25	0.	131.3
2338	-9.7502	-3.9995	0.	130.98
2339	-10.	-4.75	0.	130.35
2340	-9.7506	-4.4991	0.	130.11
2341	-10.	-5.25	0.	129.74
2342	-9.7514	-4.9984	0.	129.41
2343	-10.	-5.75	0.	129.58
2344	-9.7527	-5.4975	0.	129.12
2345	-10.	-6.25	0.	129.46
2346	-9.7546	-5.9963	0.	129.22
2347	-10.	-6.75	0.	128.66
2348	-9.7562	-6.4954	0.	129.22
2349	-10.	-7.25	0.	126.97
2350	-9.7553	-6.995	0.	128.43
2351	-10.	-7.75	0.	125.59
2352	-9.7509	-7.4954	0.	126.91
2353	-10.	-8.25	0.	125.95
2354	-9.7454	-7.9959	0.	126.05
2355	-10.	-8.75	0.	128.07
2356	-9.7428	-8.4967	0.	127.4
2357	-10.	-9.25	0.	130.51
2358	-9.7405	-8.9962	0.	129.36
2359	-9.7433	-9.4974	0.	130.72
2360	-9.25	-10.	0.	129.26
2361	-9.4933	-9.7474	0.	129.94
2362	-8.75	-10.	0.	126.83
2363	-8.9874	-9.7462	0.	128.77
2364	-8.25	-10.	0.	122.42
2365	-8.4844	-9.7474	0.	125.65
2366	-7.75	-10.	0.	117.83
2367	-7.9838	-9.7509	0.	119.6
2368	-7.25	-10.	0.	117.12
2369	-7.4824	-9.751	0.	115.26
2370	-6.75	-10.	0.	120.92
2371	-6.9823	-9.7448	0.	118.29
2372	-6.25	-10.	0.	125.37
2373	-6.4846	-9.7525	0.	124.53
2374	-5.75	-10.	0.	127.61
2375	-5.9852	-9.7588	0.	127.39
2376	-5.25	-10.	0.	128.06
2377	-5.4902	-9.7566	0.	127.96
2378	-4.75	-10.	0.	128.02
2379	-4.9944	-9.7538	0.	127.94
2380	-4.25	-10.	0.	127.95
2381	-4.4972	-9.7518	0.	127.87
2382	-3.75	-10.	0.	127.92
2383	-3.9988	-9.7508	0.	127.86
2384	-3.25	-10.	0.	127.9
2385	-3.4996	-9.7503	0.	127.88
2386	-2.75	-10.	0.	127.8
2387	-3.	-9.7501	0.	127.86
2388	-2.25	-10.	0.	127.53
2389	-2.5001	-9.75	0.	127.72
2390	-1.75	-10.	0.	127.01
2391	-2.0001	-9.75	0.	127.37
2392	-1.25	-10.	0.	126.19
2393	-1.5001	-9.75	0.	126.73
2394	-0.75	-10.	0.	125.14
2395	-1.0001	-9.75	0.	125.75
2396	-0.25	-10.	0.	124.09
2397	-0.50007	-9.75	0.	124.57
2398	0.25	-10.	0.	123.42
2399	-6.1456e-005	-9.75	0.	123.54
2400	0.75	-10.	0.	123.39
2401	0.49995	-9.75	0.	123.12
2402	1.25	-10.	0.	123.94
2403	0.99998	-9.75	0.	123.49
2404	1.75	-10.	0.	124.69
2405	1.5	-9.75	0.	124.35
2406	2.25	-10.	0.	125.17
2407	2.	-9.75	0.	125.14
2408	2.75	-10.	0.	125.08
2409	2.5	-9.75	0.	125.4
2410	3.25	-10.	0.	124.43
2411	3.	-9.75	0.	124.97
2412	3.75	-10.	0.	123.52
2413	3.5001	-9.7499	0.	124.
2414	4.25	-10.	0.	122.83
2415	4.0001	-9.7499	0.	122.98
2416	4.75	-10.	0.	122.73
2417	4.5001	-9.7498	0.	122.47
2418	5.25	-10.	0.	123.15
2419	5.0001	-9.7497	0.	122.76
2420	5.75	-10.	0.	123.57
2421	5.5001	-9.7497	0.	123.51
2422	6.25	-10.	0.	123.31
2423	6.	-9.7497	0.	123.9
2424	6.75	-10.	0.	122.27
2425	6.5	-9.7497	0.	123.13
2426	7.25	-10.	0.	121.5
2427	7.	-9.7498	0.	121.58
2428	7.75	-10.	0.	122.28
2429	7.5	-9.7499	0.	121.13
2430	8.25	-10.	0.	124.7
2431	8.	-9.75	0.	123.13
2432	8.75	-10.	0.	127.59
2433	8.5	-9.75	0.	126.39
2434	9.25	-10.	0.	130.05
2435	9.	-9.75	0.	129.16
2436	9.5	-9.75	0.	131.15
2437	-2.7344	-3.4844	0.	128.53
2438	-3.2361	-3.4889	0.	128.9
2439	-2.9801	-3.2352	0.	128.75
2440	-2.9885	-3.7383	0.	128.59
2441	6.4319	4.9536	0.	120.32
2442	6.6798	4.5909	0.	121.25
2443	6.8107	4.8249	0.	122.17
2444	6.4768	4.6234	0.	119.89
2445	-2.4768	-3.2289	0.	128.22
2446	-2.233	-3.4823	0.	128.16
2447	-2.4871	-3.7354	0.	128.32
2448	-3.7382	-3.4932	0.	129.21
2449	-3.4831	-3.2413	0.	129.15
2450	-3.4896	-3.7421	0.	128.89
2451	-2.7539	-5.9994	0.	126.65
2452	-2.5037	-6.2494	0.	126.69
2453	-2.5023	-5.7486	0.	126.77
2454	-2.2527	-5.9991	0.	126.69
2455	-2.7225	-2.9797	0.	128.44
2456	-2.969	-2.7341	0.	128.78
2457	-3.2271	-2.9876	0.	129.
2458	-2.2182	-2.9731	0.	127.7
2459	-2.4607	-2.7221	0.	127.95
2460	-1.9745	-3.2265	0.	127.64
2461	-1.9522	-2.7118	0.	126.87
2462	-1.7159	-2.9748	0.	126.94
2463	-2.9938	-4.2419	0.	128.21
2464	-2.7413	-3.9893	0.	128.38
2465	-3.242	-3.9915	0.	128.58
2466	2.6084	3.0104	0.	128.66
2467	2.36	2.8051	0.	128.54
2468	2.827	2.7822	0.	127.8
2469	2.5864	2.5592	0.	127.97
2470	-2.746	-4.4933	0.	127.96
2471	-3.2463	-4.4942	0.	128.01
2472	-2.9977	-4.7449	0.	127.66
2473	-2.7072	-2.4765	0.	128.3
2474	-2.1946	-2.4608	0.	127.12
2475	-2.4437	-2.2173	0.	127.81
2476	-3.0054	-6.2499	0.	126.7
2477	-3.2554	-6.0001	0.	126.69
2478	-3.0034	-5.7491	0.	126.76
2479	6.5339	5.2104	0.	121.18
2480	6.2429	5.3928	0.	119.81
2481	6.0924	4.9037	0.	119.16
2482	6.0256	5.1451	0.	119.57
2483	4.3737	5.3157	0.	125.67
2484	4.5837	5.5357	0.	124.78
2485	4.3118	5.7318	0.	126.32
2486	4.1309	5.4086	0.	126.37
2487	3.5416	5.8249	0.	127.48
2488	3.7576	6.1122	0.	127.43
2489	4.029	5.8995	0.	127.08
2490	3.848	5.5763	0.	127.14
2491	3.6127	4.7529	0.	127.6
2492	4.1244	4.7141	0.	126.61
2493	3.8755	4.4919	0.	127.53
2494	3.889	5.0242	0.	127.09
2495	-3.2184	-2.4889	0.	129.03
2496	-2.959	-2.2361	0.	128.93
2497	-3.9874	-3.2455	0.	129.4
2498	-3.9916	-3.7453	0.	129.13
2499	-4.2408	-3.4964	0.	129.34
2500	-1.7331	-3.4854	0.	127.83
2501	-1.9868	-3.7357	0.	128.14
2502	2.8309	3.2283	0.	128.6
2503	2.7287	3.4576	0.	129.16
2504	2.4024	3.265	0.	129.45
2505	2.1125	2.5881	0.	128.38
2506	1.8589	2.3645	0.	127.99
2507	2.0902	2.1151	0.	127.55
2508	2.3389	2.3422	0.	127.81
2509	1.89	2.8402	0.	128.69
2510	2.154	3.0597	0.	129.33
2511	3.1979	6.6006	0.	126.97
2512	2.9427	6.9807	0.	126.31
2513	3.4311	6.8823	0.	126.59
2514	3.2234	7.1591	0.	125.6
2515	2.9293	6.7748	0.	126.97
2516	3.3502	5.0182	0.	127.78
2517	3.3201	5.538	0.	127.61
2518	3.0833	5.2662	0.	127.69
2519	3.6265	5.2894	0.	127.27
2520	-2.7552	-6.5	0.	126.73
2521	-2.2535	-6.4997	0.	126.8
2522	-2.5044	-6.7498	0.	126.9
2523	-3.2575	-6.5008	0.	126.78
2524	-3.0064	-6.7503	0.	126.85
2525	4.6255	5.1099	0.	124.41
2526	4.3847	4.8971	0.	125.75
2527	4.1494	5.2072	0.	126.23
2528	6.7518	5.5134	0.	122.71
2529	6.9127	5.0817	0.	123.02
2530	7.077	5.3414	0.	123.98
2531	5.0952	5.1124	0.	122.05
2532	5.3582	4.8847	0.	120.6
2533	5.3046	5.3516	0.	120.86
2534	5.5594	5.1392	0.	120.09
2535	4.8354	5.3298	0.	123.51
2536	4.869	4.8779	0.	123.46
2537	3.0495	3.	0.	127.74
2538	2.9362	3.4522	0.	128.72
2539	3.2623	3.2398	0.	127.77
2540	3.2991	2.7805	0.	126.71
2541	3.0614	2.5487	0.	127.11
2542	-1.9219	-2.1934	0.	125.99
2543	-1.6844	-2.4546	0.	125.8
2544	-3.4983	-4.7461	0.	127.7
2545	-3.7503	-4.9979	0.	127.34
2546	-3.5016	-5.2482	0.	127.11
2547	-3.2497	-4.9968	0.	127.35
2548	-3.5075	-6.2509	0.	126.78
2549	-3.7605	-6.5021	0.	126.97
2550	-3.5094	-6.7513	0.	126.91
2551	-3.7573	-6.0012	0.	126.78
2552	-3.5048	-5.7498	0.	126.79
2553	-2.4976	-4.7446	0.	127.67
2554	-2.4935	-4.2407	0.	128.13
2555	-2.246	-4.4933	0.	128.04
2556	-3.4722	-2.2475	0.	129.37
2557	-3.7276	-2.4967	0.	129.29
2558	-3.4765	-2.7423	0.	129.25
2559	-3.7264	-2.0034	0.	129.34
2560	-3.4714	-1.7588	0.	129.76
2561	-3.2128	-1.9948	0.	129.28
2562	3.0929	4.7521	0.	128.19
2563	3.3573	4.4983	0.	128.18
2564	3.2636	6.06	0.	127.55
2565	3.0408	5.7735	0.	127.75
2566	2.9892	6.2762	0.	127.77
2567	3.4795	6.3473	0.	127.5
2568	-1.2337	-3.4944	0.	127.41
2569	-1.4878	-3.741	0.	128.05
2570	-1.4746	-3.2337	0.	127.12
2571	-4.7314	3.474	0.	130.87
2572	-4.9654	3.2437	0.	129.78
2573	-4.9908	3.6917	0.	129.45
2574	-5.2277	3.4599	0.	126.57
2575	-2.9641	-1.2577	0.	130.31
2576	-2.7004	-1.4838	0.	129.18
2577	-3.2158	-1.5069	0.	129.93
2578	-2.9572	-1.7429	0.	129.46
2579	-1.251	-5.9996	0.	127.97
2580	-1.5009	-5.7492	0.	127.34
2581	-1.5016	-6.2496	0.	127.28
2582	-1.7517	-5.9992	0.	126.98
2583	2.7544	-5.9997	0.	129.08
2584	2.2544	-5.9985	0.	128.68
2585	2.5086	-5.7483	0.	128.58
2586	2.5032	-6.2491	0.	128.34
2587	-2.7776	0.83563	0.	126.82
2588	-3.0409	1.0303	0.	126.26
2589	-3.026	0.59271	0.	127.2
2590	-3.3029	0.7953	0.	126.98
2591	2.4991	7.0982	0.	126.41
2592	2.3111	7.344	0.	125.69
2593	2.2576	6.8852	0.	127.67
2594	2.0386	7.1214	0.	126.73
2595	2.7096	6.8771	0.	126.84
2596	2.7698	7.3055	0.	125.45
2597	3.9433	6.8895	0.	127.38
2598	3.7128	6.629	0.	127.13
2599	3.7312	7.1432	0.	125.91
2600	3.1142	3.709	0.	128.79
2601	2.8341	3.9556	0.	129.25
2602	2.5548	3.7254	0.	129.95
2603	2.8259	5.0001	0.	128.09
2604	2.8039	5.5016	0.	127.82
2605	2.5606	5.2492	0.	127.86
2606	1.6363	2.6165	0.	128.3
2607	1.3801	2.384	0.	128.04
2608	1.6073	2.1346	0.	127.56
2609	1.4153	2.8736	0.	127.9
2610	1.6769	3.0981	0.	129.12
2611	-0.9553	-2.76	0.	125.36
2612	-0.97674	-3.252	0.	126.58
2613	-0.71985	-3.0111	0.	125.75
2614	-1.2176	-2.9913	0.	126.29
2615	-3.0064	-7.2504	0.	127.1
2616	-2.7557	-7.0002	0.	127.01
2617	-3.2583	-7.0009	0.	126.98
2618	-4.0133	-6.753	0.	127.13
2619	-4.014	-7.2529	0.	127.09
2620	-4.2674	-7.0048	0.	127.33
2621	-3.7622	-7.0022	0.	127.08
2622	-3.5809	7.1765	0.	126.44
2623	-3.2895	7.3937	0.	126.
2624	-3.5218	7.6836	0.	125.87
2625	-3.7968	7.4343	0.	126.9
2626	-1.1152	-1.7735	0.	122.37
2627	-0.90249	-1.4327	0.	120.61
2628	-0.65068	-1.6258	0.	122.08
2629	-0.88321	-1.8608	0.	122.39
2630	-2.171	-1.9499	0.	126.68
2631	-2.4388	-1.7178	0.	128.17
2632	-2.6956	-1.9769	0.	128.44
2633	-3.4854	-0.8019	0.	130.92
2634	-3.2244	-1.0263	0.	130.78
2635	-3.4761	-1.2755	0.	130.4
2636	-3.7344	-1.0432	0.	130.65
2637	3.4402	3.4966	0.	127.84
2638	3.6543	3.7383	0.	128.13
2639	3.3775	3.9878	0.	128.36
2640	4.6282	4.6651	0.	124.81
2641	4.3825	4.4425	0.	126.5
2642	4.7787	5.7778	0.	124.45
2643	5.0447	5.569	0.	122.33
2644	5.9849	5.6365	0.	119.46
2645	5.7158	5.8545	0.	118.36
2646	5.5128	5.6012	0.	120.01
2647	5.7676	5.3888	0.	119.23
2648	6.9396	5.7849	0.	124.25
2649	7.1119	6.0478	0.	126.32
2650	7.3942	5.9078	0.	126.27
2651	7.2648	5.6129	0.	125.52
2652	6.4608	5.6958	0.	121.35
2653	6.6513	5.9693	0.	123.25
2654	5.1319	4.6502	0.	122.02
2655	5.6525	4.6631	0.	119.46
2656	5.384	4.409	0.	120.43
2657	4.8842	4.4157	0.	124.21
2658	3.5118	3.0203	0.	126.74
2659	3.7304	3.2554	0.	127.17
2660	3.7845	2.7794	0.	125.33
2661	3.5438	2.5523	0.	125.75
2662	6.7613	4.1985	0.	121.89
2663	6.5571	4.4383	0.	120.27
2664	6.9606	4.4208	0.	123.18
2665	-3.4981	-0.3365	0.	130.71
2666	-3.7562	-0.11786	0.	131.12
2667	-3.2531	-9.2436e-002	0.	130.17
2668	-3.5224	0.11627	0.	129.63
2669	-3.7429	-0.57631	0.	131.3
2670	-3.2383	-0.5586	0.	131.11
2671	-1.627	-1.9139	0.	124.36
2672	-1.914	-1.6783	0.	125.51
2673	-1.3894	-2.1751	0.	124.17
2674	-1.1162	-1.9811	0.	123.18
2675	-1.381	-1.6224	0.	122.31
2676	-3.6174	6.6785	0.	126.97
2677	-3.6057	6.1881	0.	127.5
2678	-3.3779	6.4427	0.	127.4
2679	-3.8638	6.4241	0.	127.16
2680	-3.393	6.9154	0.	126.97
2681	-3.8518	6.9273	0.	127.27
2682	-4.0102	-6.2525	0.	126.97
2683	-4.2641	-6.5043	0.	127.41
2684	-4.2592	-6.003	0.	126.98
2685	-4.0063	-5.7512	0.	126.82
2686	4.0153	1.6185	0.	124.94
2687	3.7787	1.8548	0.	125.14
2688	4.2488	1.8217	0.	123.79
2689	4.0391	2.0802	0.	123.88
2690	-3.3384	5.9656	0.	127.65
2691	-3.1106	6.2202	0.	127.54
2692	-3.0646	5.7448	0.	127.11
2693	-2.8413	6.0129	0.	127.46
2694	-3.8421	5.929	0.	128.1
2695	-3.5705	5.702	0.	128.57
2696	-5.5942	2.6034	0.	123.17
2697	-5.1711	2.5838	0.	129.17
2698	-5.4025	2.3928	0.	126.77
2699	-5.4009	2.81	0.	125.87
2700	-0.69509	-2.5265	0.	124.87
2701	-1.1858	-2.4863	0.	124.94
2702	-0.9126	-2.2923	0.	123.95
2703	-1.749	-4.9972	0.	127.81
2704	-2.2492	-4.9964	0.	127.49
2705	-2.	-5.2474	0.	127.3
2706	-1.9975	-4.7451	0.	127.86
2707	-4.001	-0.35767	0.	131.7
2708	-4.2478	-0.57487	0.	131.82
2709	-3.9919	-0.81762	0.	131.03
2710	-4.2359	-2.006	0.	128.81
2711	-3.9819	-2.2527	0.	129.26
2712	-3.9829	-1.7634	0.	129.39
2713	1.1591	2.6411	0.	127.64
2714	1.1932	3.1347	0.	127.14
2715	0.94371	2.9093	0.	126.17
2716	2.833	4.4882	0.	128.83
2717	2.5713	4.2444	0.	129.85
2718	3.0975	4.2344	0.	128.82
2719	2.5722	4.7507	0.	128.63
2720	2.7665	5.9897	0.	127.97
2721	2.5336	5.7381	0.	128.22
2722	2.4985	6.2127	0.	128.79
2723	2.7207	6.4505	0.	127.77
2724	-3.1535	6.6796	0.	127.4
2725	-3.1016	7.1325	0.	126.54
2726	-2.9654	6.9286	0.	127.84
2727	-2.9013	6.4813	0.	128.51
2728	4.418	6.9036	0.	129.15
2729	4.199	7.1273	0.	127.
2730	4.1987	6.6551	0.	127.98
2731	-0.44418	3.278	0.	120.97
2732	-1.6101e-002	3.3953	0.	120.39
2733	-0.23081	3.5028	0.	121.02
2734	-0.19179	3.1066	0.	121.5
2735	0.23141	3.2257	0.	121.41
2736	0.48688	2.9463	0.	124.06
2737	0.2631	2.7279	0.	124.54
2738	5.5726e-002	2.937	0.	122.51
2739	-5.9784	2.7191	0.	117.
2740	-5.8293	2.3849	0.	117.47
2741	-5.814	2.8083	0.	119.47
2742	-2.8955	7.1563	0.	127.22
2743	-2.9828	7.6376	0.	125.53
2744	-2.8027	7.435	0.	125.8
2745	2.0624	1.1664	0.	125.97
2746	1.8267	1.4096	0.	125.93
2747	2.3118	1.4015	0.	126.95
2748	2.0756	1.6413	0.	126.72
2749	4.7653	2.0087	0.	122.48
2750	5.1302	1.8243	0.	124.77
2751	4.9545	1.5751	0.	123.77
2752	4.6929	1.7941	0.	123.59
2753	-2.5193	0.63329	0.	127.65
2754	-2.5276	1.0773	0.	126.56
2755	-2.2774	0.88392	0.	130.27
2756	3.0029	-6.2504	0.	129.37
2757	3.0082	-5.7508	0.	129.86
2758	3.2536	-6.0011	0.	132.25
2759	-1.001	-6.2498	0.	128.5
2760	-1.0004	-5.7496	0.	128.55
2761	-0.75053	-5.9998	0.	131.08
2762	2.008	-5.7474	0.	128.87
2763	2.0029	-6.2485	0.	128.81
2764	1.7536	-5.9983	0.	131.2
2765	-3.0496	1.4631	0.	126.49
2766	-2.791	1.272	0.	126.
2767	-3.3188	1.2293	0.	126.71
2768	-2.7552	-7.5002	0.	127.33
2769	-2.2535	-7.5	0.	127.59
2770	-2.5038	-7.75	0.	127.55
2771	-2.5045	-7.2499	0.	127.24
2772	-3.2577	-7.5007	0.	127.18
2773	-3.0055	-7.7503	0.	127.35
2774	-3.7614	-7.5019	0.	127.07
2775	-3.5078	-7.7509	0.	127.18
2776	-3.5096	-7.2512	0.	127.06
2777	-4.2669	-7.5045	0.	126.9
2778	-4.0113	-7.7527	0.	126.97
2779	-4.7752	-7.5103	0.	126.45
2780	-4.5203	-7.2565	0.	127.15
2781	-4.5166	-7.7563	0.	126.59
2782	-5.0251	-7.7643	0.	125.69
2783	-5.2876	-7.5215	0.	125.22
2784	-5.0291	-7.2634	0.	127.05
2785	1.8099	0.9257	0.	124.75
2786	2.0488	0.68652	0.	125.41
2787	2.2993	0.92444	0.	126.84
2788	3.6695	-3.0717	0.	126.1
2789	3.9475	-2.9403	0.	124.92
2790	4.1435	-3.1807	0.	122.47
2791	3.812	-3.3598	0.	124.05
2792	3.5085	-2.7491	0.	128.44
2793	3.31	-3.2204	0.	128.22
2794	3.232	-2.9759	0.	129.15
2795	4.0207	-2.5397	0.	126.01
2796	3.7865	-2.6177	0.	127.28
2797	4.2278	-2.7582	0.	125.08
2798	-2.9772	-0.78295	0.	130.97
2799	-2.7124	-1.0009	0.	130.66
2800	-3.0098	0.14558	0.	129.
2801	-2.7677	0.39038	0.	128.03
2802	-3.2791	0.35428	0.	128.47
2803	-0.93236	-0.97206	0.	118.04
2804	-0.67817	-1.1735	0.	120.72
2805	-1.1684	-1.2816	0.	120.54
2806	-2.1818	-1.4463	0.	127.
2807	-2.4488	-1.227	0.	129.53
2808	-4.1003	6.165	0.	127.74
2809	-4.3431	5.8956	0.	128.64
2810	-4.0742	5.6659	0.	129.55
2811	-6.9995	-3.2501	0.	114.88
2812	-6.7493	-3.	0.	114.75
2813	-6.9996	-2.75	0.	114.15
2814	-7.2496	-3.0001	0.	115.9
2815	-4.4967	-4.2476	0.	128.67
2816	-4.7459	-3.9978	0.	128.78
2817	-4.2444	-3.9963	0.	128.96
2818	-4.4937	-3.7474	0.	129.16
2819	-4.5075	-5.7529	0.	126.93
2820	-4.503	-5.2508	0.	127.
2821	-4.7549	-5.5024	0.	126.55
2822	-4.2546	-5.5011	0.	126.77
2823	-4.5182	-6.7561	0.	127.62
2824	-4.7742	-7.0095	0.	127.75
2825	4.2534	1.3759	0.	124.69
2826	4.4976	1.1406	0.	122.88
2827	4.7485	1.3601	0.	123.71
2828	4.4869	1.579	0.	123.53
2829	-4.4798	3.2488	0.	132.83
2830	-4.2367	3.4852	0.	132.96
2831	-4.4901	3.7142	0.	132.51
2832	-4.9508	2.7962	0.	131.06
2833	-4.7138	3.0186	0.	131.73
2834	-5.1805	3.0223	0.	127.74
2835	-2.5235	5.3066	0.	123.29
2836	-2.7887	5.5324	0.	125.78
2837	-2.5655	5.8004	0.	126.14
2838	-2.2914	5.5878	0.	124.31
2839	-0.42084	-1.832	0.	123.24
2840	-0.18328	-1.5801	0.	123.6
2841	-0.42636	-1.3666	0.	122.21
2842	-0.98765	-3.7498	0.	127.83
2843	-0.73303	-3.5046	0.	126.4
2844	-1.4997	-5.2483	0.	127.75
2845	-1.2503	-5.4992	0.	127.92
2846	-1.7507	-5.4985	0.	127.24
2847	-1.4941	-4.2447	0.	128.51
2848	-1.2417	-3.9963	0.	128.47
2849	-1.7414	-3.9913	0.	128.37
2850	2.2621	-5.4973	0.	128.77
2851	2.7623	-5.4994	0.	129.37
2852	2.5208	-5.2467	0.	129.21
2853	2.5874	-3.7334	0.	129.62
2854	2.5678	-4.2385	0.	130.01
2855	2.3191	-3.9886	0.	129.13
2856	2.8468	-3.9863	0.	129.8
2857	-0.45964	-2.7775	0.	125.26
2858	-0.22018	-3.0198	0.	125.27
2859	-0.47613	-3.2637	0.	125.57
2860	-1.2515	-6.4997	0.	127.81
2861	-1.7523	-6.4997	0.	127.11
2862	-1.5019	-6.7497	0.	127.57
2863	-2.0029	-7.2499	0.	127.53
2864	-2.0029	-6.7498	0.	127.09
2865	-2.2539	-6.9999	0.	127.19
2866	-1.7525	-6.9998	0.	127.55
2867	-1.7523	-7.4999	0.	128.
2868	-2.0026	-7.7499	0.	127.83
2869	-4.2473	-0.13491	0.	132.68
2870	-4.4941	-0.35211	0.	132.81
2871	-4.7362	-5.5222e-002	0.	133.76
2872	-4.5214	6.3182e-002	0.	134.24
2873	-5.2458	-3.4988	0.	126.78
2874	-4.9943	-3.2489	0.	128.67
2875	-4.9957	-3.7484	0.	128.46
2876	-4.7435	-3.498	0.	128.85
2877	-6.7492	-3.5	0.	115.59
2878	-6.499	-3.2499	0.	115.46
2879	-6.4991	-3.7499	0.	114.9
2880	-6.2485	-3.4997	0.	117.74
2881	-4.4908	-1.7617	0.	128.48
2882	-4.4937	-1.2761	0.	129.25
2883	-4.7442	-1.5137	0.	127.53
2884	-4.2377	-1.5191	0.	129.05
2885	-4.4898	-2.7499	0.	129.28
2886	-4.742	-2.999	0.	129.2
2887	-4.2377	-2.9973	0.	129.45
2888	-4.4912	-3.2481	0.	129.38
2889	2.2919	4.0141	0.	130.54
2890	2.0157	3.7927	0.	131.32
2891	2.2285	3.5327	0.	130.24
2892	2.2902	5.4857	0.	128.26
2893	2.044	5.2484	0.	127.34
2894	2.3069	4.9998	0.	128.4
2895	7.5292	1.2583	0.	130.77
2896	7.5257	1.7579	0.	128.61
2897	7.7783	1.5052	0.	129.92
2898	7.2997	1.5123	0.	130.84
2899	7.5159	0.75925	0.	129.67
2900	7.7719	1.0042	0.	130.07
2901	7.285	1.0191	0.	130.45
2902	7.5042	-0.73128	0.	126.68
2903	7.2497	-0.47913	0.	124.92
2904	7.4998	-0.23456	0.	126.47
2905	7.7522	-0.48688	0.	126.8
2906	7.5193	-5.7207	0.	123.05
2907	7.7708	-5.4678	0.	126.22
2908	7.5303	-5.2076	0.	127.87
2909	7.2755	-5.4618	0.	124.4
2910	1.9097	7.8308	0.	124.06
2911	2.1144	7.5837	0.	124.59
2912	1.6486	7.6049	0.	124.05
2913	1.842	7.361	0.	125.64
2914	3.3269	7.7008	0.	124.32
2915	3.0505	7.484	0.	124.73
2916	3.5235	7.42	0.	124.92
2917	4.7154	6.228	0.	126.26
2918	4.9812	6.0211	0.	123.31
2919	4.5068	5.974	0.	125.98
2920	-4.0302	8.7903e-002	0.	131.51
2921	-5.0082	4.1437	0.	130.13
2922	-5.259	3.9067	0.	126.87
2923	-4.7495	3.9319	0.	131.09
2924	0.90861	2.4041	0.	127.87
2925	1.1215	2.1451	0.	128.14
2926	0.6263	2.1458	0.	129.18
2927	0.69326	2.6724	0.	126.43
2928	0.46949	2.454	0.	126.87
2929	-5.2739	4.3588	0.	128.55
2930	-5.0147	4.6037	0.	131.27
2931	-4.7613	4.3941	0.	131.99
2932	-0.88025	3.6936	0.	123.87
2933	-0.65831	3.4827	0.	122.13
2934	-0.64687	3.9525	0.	125.66
2935	-0.44494	3.7074	0.	122.17
2936	4.6675	6.6844	0.	128.83
2937	4.6435	7.1431	0.	129.2
2938	4.8654	6.9234	0.	128.84
2939	4.9173	6.4738	0.	125.97
2940	4.4481	6.4359	0.	127.66
2941	7.7356	6.4964	0.	127.34
2942	7.2572	6.3755	0.	127.37
2943	7.2294	6.5797	0.	128.59
2944	7.4934	6.7459	0.	127.57
2945	7.5395	6.2355	0.	127.33
2946	4.4244	7.3669	0.	127.12
2947	4.3118	7.6014	0.	125.54
2948	3.9869	7.3809	0.	125.54
2949	4.525	7.6066	0.	126.63
2950	4.8867	7.3908	0.	133.37
2951	1.2851	6.9082	0.	128.18
2952	1.0453	7.1776	0.	125.22
2953	1.3637	7.3814	0.	124.76
2954	1.5571	7.1376	0.	126.35
2955	-2.5489	7.0197	0.	130.35
2956	-2.7132	6.7303	0.	128.93
2957	1.7598	6.4282	0.	131.86
2958	1.5097	6.6664	0.	130.67
2959	2.0007	6.6596	0.	129.8
2960	1.7817	6.8958	0.	128.87
2961	2.2656	5.9611	0.	129.04
2962	2.0252	5.7262	0.	129.46
2963	2.0052	6.195	0.	131.18
2964	2.246	6.4263	0.	129.11
2965	2.3105	4.5069	0.	129.65
2966	2.0489	4.2766	0.	131.61
2967	0.96194	3.4051	0.	124.57
2968	0.73424	3.675	0.	120.82
2969	0.45697	3.4591	0.	120.92
2970	0.71244	3.1797	0.	123.62
2971	1.2299	3.6194	0.	128.14
2972	1.4548	3.3592	0.	128.36
2973	-4.4895	-2.2541	0.	128.77
2974	-4.7416	-2.5013	0.	129.13
2975	-4.2355	-2.5007	0.	129.22
2976	-4.7421	-2.0062	0.	128.1
2977	-4.7493	-0.54129	0.	132.04
2978	-4.4979	-0.80085	0.	131.05
2979	-1.2515	-7.4998	0.	128.65
2980	-1.5018	-7.7498	0.	128.19
2981	-1.502	-7.2498	0.	128.03
2982	1.7959	-3.4966	0.	125.07
2983	1.2806	-3.5015	0.	122.23
2984	1.533	-3.2502	0.	121.97
2985	1.5366	-3.7485	0.	124.6
2986	-1.4976	-4.7469	0.	128.31
2987	-1.2459	-4.4975	0.	128.99
2988	-1.7461	-4.4948	0.	128.36
2989	-1.2488	-4.9985	0.	128.53
2990	0.26881	-3.5089	0.	122.07
2991	2.3934e-002	-3.2658	0.	124.09
2992	1.5904e-002	-3.758	0.	122.15
2993	-0.23202	-3.5097	0.	124.38
2994	2.3243	-3.4876	0.	128.14
2995	2.056	-3.7428	0.	127.67
2996	2.0472	-3.2445	0.	126.29
2997	2.5679	-3.233	0.	129.99
2998	2.8825	-3.4616	0.	129.03
2999	0.77246	-3.5055	0.	121.1
3000	0.5187	-3.7558	0.	119.27
3001	0.52227	-3.2604	0.	122.57
3002	1.0255	-3.2549	0.	121.17
3003	1.0252	-3.7525	0.	120.89
3004	-0.43586	-2.3011	0.	124.45
3005	-0.18576	-2.0563	0.	124.96
3006	-0.65337	-2.067	0.	123.53
3007	-0.2046	-2.5345	0.	125.74
3008	-0.63797	3.0338	0.	120.67
3009	-0.84039	2.7601	0.	119.66
3010	-0.58313	2.6229	0.	120.6
3011	-0.38557	2.8623	0.	121.21
3012	-4.7186	2.5626	0.	132.98
3013	-4.9712	2.3452	0.	132.26
3014	-4.4816	2.785	0.	133.67
3015	-4.2338	3.0151	0.	134.19
3016	-4.2483	2.5479	0.	134.87
3017	-4.5109	2.3196	0.	134.26
3018	-3.5343	5.2145	0.	130.57
3019	-3.2966	5.4812	0.	128.03
3020	-3.8025	5.4389	0.	130.03
3021	7.5119	-1.2228	0.	128.42
3022	7.7573	-0.98122	0.	127.75
3023	7.2567	-0.97647	0.	126.54
3024	7.542	-2.1874	0.	131.7
3025	7.7942	-2.4348	0.	131.15
3026	7.311	-2.4257	0.	131.72
3027	7.5624	-2.6503	0.	131.26
3028	7.524	-1.7097	0.	130.48
3029	7.7782	-1.9575	0.	130.96
3030	7.2825	-1.9543	0.	131.54
3031	7.7654	-1.4719	0.	129.58
3032	7.2663	-1.4693	0.	129.2
3033	7.2485	0.52419	0.	128.38
3034	7.5022	0.2631	0.	127.82
3035	7.7571	0.50706	0.	128.85
3036	4.0089	1.1564	0.	126.26
3037	3.7683	1.3919	0.	126.76
3038	-4.513	-6.2548	0.	127.42
3039	-4.768	-6.5076	0.	128.44
3040	-4.7605	-6.005	0.	127.62
3041	-5.4971	-3.7492	0.	125.5
3042	-5.4965	-3.2494	0.	125.86
3043	-5.7473	-3.4994	0.	122.52
3044	-4.4996	-4.749	0.	127.8
3045	-4.7511	-5.0002	0.	127.42
3046	-4.2509	-4.9992	0.	127.3
3047	-4.2477	-4.4974	0.	128.26
3048	-4.7483	-4.4987	0.	128.5
3049	-7.2495	-3.5002	0.	117.34
3050	-6.9995	-3.7503	0.	115.85
3051	-7.7498	-3.5002	0.	121.5
3052	-7.4998	-3.7505	0.	120.21
3053	-7.4997	-3.2502	0.	118.38
3054	2.7505	-6.9999	0.	129.05
3055	2.2505	-6.9996	0.	129.04
3056	2.5004	-7.2498	0.	129.06
3057	2.5012	-6.7496	0.	128.55
3058	2.8083	-4.4956	0.	130.78
3059	2.297	-4.4925	0.	129.95
3060	2.5412	-4.7437	0.	129.91
3061	-4.0982	6.6729	0.	127.46
3062	-4.3555	6.4085	0.	127.55
3063	-4.3309	6.9281	0.	129.03
3064	-4.0677	7.1851	0.	127.74
3065	-1.9357	-1.1774	0.	126.1
3066	-1.6681	-1.3868	0.	123.46
3067	-2.9933	-0.31453	0.	130.56
3068	-2.7517	-6.4379e-002	0.	130.51
3069	-2.7329	-0.53016	0.	131.63
3070	4.7444	0.91249	0.	120.86
3071	5.2275	0.90394	0.	118.64
3072	4.9901	0.68022	0.	118.71
3073	4.9953	1.132	0.	121.77
3074	6.9891	3.9885	0.	124.42
3075	7.212	3.7499	0.	128.68
3076	7.4366	3.9844	0.	127.53
3077	7.1884	4.2108	0.	125.71
3078	6.7591	3.7677	0.	123.02
3079	6.5371	4.0195	0.	119.42
3080	4.2826	2.7598	0.	124.57
3081	4.0031	3.0144	0.	125.76
3082	4.0446	2.5428	0.	124.08
3083	4.8988	3.9423	0.	126.32
3084	5.1363	4.1745	0.	122.62
3085	4.6384	4.1932	0.	125.88
3086	-0.69173	-0.70032	0.	119.4
3087	-0.43754	-0.9018	0.	122.1
3088	-0.43824	-0.44662	0.	122.26
3089	-0.19628	-0.63499	0.	125.62
3090	-7.8809	5.4063	0.	127.79
3091	-7.6201	5.1839	0.	127.08
3092	-7.8271	5.6343	0.	128.22
3093	-7.5017	5.4831	0.	125.5
3094	4.2659	-2.3449	0.	125.17
3095	4.4993	-2.1278	0.	122.65
3096	4.7309	-2.3569	0.	122.49
3097	4.473	-2.5634	0.	124.24
3098	7.2841	-3.1096	0.	129.82
3099	7.0976	-2.6548	0.	131.69
3100	6.924	-2.9159	0.	129.15
3101	7.3491	-2.8794	0.	131.24
3102	6.0262	-5.1816	0.	116.94
3103	6.0747	-4.6646	0.	112.04
3104	5.7591	-4.9051	0.	118.24
3105	6.2924	-4.9299	0.	117.1
3106	4.3279	-3.434	0.	120.63
3107	4.6759	-3.226	0.	126.34
3108	4.4237	-2.9986	0.	122.63
3109	-6.2485	-2.9998	0.	118.
3110	-6.4991	-2.75	0.	114.13
3111	-1.0012	-6.7498	0.	128.54
3112	-0.75085	-6.4999	0.	130.
3113	2.0175	-5.246	0.	129.07
3114	1.7593	-5.4972	0.	130.19
3115	1.5742	1.1689	0.	124.7
3116	1.3443	1.4108	0.	125.65
3117	1.5898	1.6535	0.	126.33
3118	1.5573	0.68493	0.	123.64
3119	1.3188	0.92186	0.	124.28
3120	1.7962	0.44574	0.	124.3
3121	1.543	0.20424	0.	122.47
3122	1.3003	0.44303	0.	123.94
3123	4.2531	0.92107	0.	124.44
3124	4.4981	0.68762	0.	120.21
3125	6.0146	-5.702	0.	122.
3126	5.7615	-5.4445	0.	122.67
3127	6.2709	-5.4465	0.	120.27
3128	3.001	-6.7502	0.	129.13
3129	3.2512	-6.5004	0.	130.74
3130	2.7517	-6.4998	0.	128.63
3131	-6.3353	3.0321	0.	112.91
3132	-6.2348	2.6323	0.	114.02
3133	-5.9964	2.9163	0.	116.64
3134	-4.5983	6.1391	0.	128.41
3135	-4.8436	5.8441	0.	131.49
3136	-4.5716	5.6276	0.	130.41
3137	-2.5096	0.18041	0.	129.54
3138	-2.2727	0.4313	0.	129.49
3139	7.7759	2.0021	0.	126.67
3140	7.2369	2.0139	0.	132.51
3141	7.5462	2.2552	0.	126.4
3142	6.0801	3.622	0.	112.66
3143	5.6207	3.6653	0.	116.69
3144	5.856	3.4064	0.	107.52
3145	5.8575	3.8949	0.	114.38
3146	-4.7665	-8.0103	0.	125.84
3147	-5.0082	-8.264	0.	125.59
3148	-5.2785	-8.0237	0.	124.52
3149	-4.5071	-8.256	0.	126.5
3150	-4.261	-8.0044	0.	126.66
3151	-3.5046	-8.2507	0.	127.34
3152	-3.2556	-8.0005	0.	127.35
3153	-3.7578	-8.0017	0.	127.09
3154	-2.5027	-8.2499	0.	127.72
3155	-2.2529	-7.9999	0.	127.79
3156	-2.7541	-8.0001	0.	127.57
3157	2.25	-7.9999	0.	128.7
3158	2.7501	-8.	0.	128.6
3159	2.5	-8.2499	0.	128.13
3160	2.5001	-7.7499	0.	129.07
3161	2.2879	0.44801	0.	126.86
3162	2.036	0.2052	0.	125.03
3163	3.8036	-2.4211	0.	127.78
3164	4.0252	-2.1323	0.	126.75
3165	-2.7989	1.7041	0.	126.58
3166	-3.0462	1.8974	0.	127.8
3167	-3.3124	1.6625	0.	128.02
3168	-3.7551	7.947	0.	126.24
3169	-3.2152	7.9275	0.	125.4
3170	-3.4973	8.1999	0.	125.76
3171	-4.265	7.9604	0.	127.41
3172	-4.0301	7.6977	0.	127.27
3173	-4.0093	8.2106	0.	126.46
3174	-4.7636	7.9744	0.	127.8
3175	-4.5282	7.7091	0.	129.37
3176	-4.511	8.2216	0.	127.11
3177	-5.2575	7.9912	0.	126.14
3178	-5.0186	7.7264	0.	130.01
3179	-5.0074	8.2349	0.	126.45
3180	-5.508	7.7512	0.	125.95
3181	-5.7518	8.0072	0.	123.02
3182	-5.5027	8.2496	0.	124.
3183	7.7634	-5.9791	0.	122.81
3184	7.5111	-6.2325	0.	117.04
3185	7.2654	-5.9739	0.	121.01
3186	7.6549	7.9689	0.	124.28
3187	7.2373	7.7335	0.	125.26
3188	7.393	8.2214	0.	125.61
3189	7.0937	8.0123	0.	122.37
3190	7.4519	7.7112	0.	124.74
3191	7.9673	7.7413	0.	124.29
3192	7.9413	8.2392	0.	124.47
3193	8.2049	7.9931	0.	124.03
3194	7.999	7.2453	0.	125.27
3195	7.7643	7.4835	0.	124.78
3196	8.2413	7.4969	0.	124.54
3197	8.0029	6.7507	0.	126.43
3198	8.2521	6.999	0.	125.7
3199	7.7607	7.0002	0.	126.67
3200	8.0172	6.2669	0.	126.98
3201	8.2521	6.5045	0.	126.6
3202	7.9668	5.7812	0.	126.9
3203	7.8211	6.0059	0.	126.96
3204	8.2661	6.0173	0.	126.89
3205	7.9488	5.2643	0.	126.86
3206	8.1852	5.5196	0.	126.9
3207	7.755	5.7583	0.	126.83
3208	7.6256	5.4634	0.	126.08
3209	8.2482	5.0009	0.	127.11
3210	8.0338	4.7424	0.	127.26
3211	7.7464	4.9681	0.	126.34
3212	8.1183	3.7367	0.	128.33
3213	8.0934	4.2383	0.	127.95
3214	7.8869	3.985	0.	128.35
3215	8.3435	3.9911	0.	128.08
3216	8.1086	3.2371	0.	127.81
3217	7.8915	3.4909	0.	129.23
3218	8.3507	3.4875	0.	127.99
3219	8.079	2.7392	0.	126.45
3220	7.863	2.9945	0.	127.69
3221	8.3326	2.9868	0.	127.08
3222	8.047	2.2442	0.	126.35
3223	8.3042	2.4896	0.	126.04
3224	7.8173	2.4972	0.	126.13
3225	8.0286	1.7495	0.	127.96
3226	8.2813	1.9953	0.	126.96
3227	8.021	1.2512	0.	129.21
3228	8.2717	1.4985	0.	128.38
3229	8.2652	0.99904	0.	129.09
3230	8.013	0.75201	0.	129.24
3231	8.0196	-1.7197	0.	130.06
3232	8.2626	-1.4803	0.	129.37
3233	8.0108	-1.2303	0.	128.92
3234	8.0304	-2.2049	0.	130.4
3235	8.2714	-1.9693	0.	130.01
3236	8.0336	-2.6892	0.	129.47
3237	8.2791	-2.4575	0.	129.66
3238	8.0135	-3.1761	0.	127.88
3239	8.275	-2.9464	0.	128.34
3240	7.8018	-2.9047	0.	129.59
3241	8.0032	-3.6736	0.	127.09
3242	7.7189	-3.3793	0.	127.4
3243	8.2514	-3.4379	0.	127.09
3244	8.0186	-4.1851	0.	128.14
3245	8.2599	-3.9409	0.	127.23
3246	7.7655	-3.9124	0.	128.03
3247	8.0265	-4.7013	0.	129.13
3248	7.7849	-4.4372	0.	130.78
3249	8.271	-4.4526	0.	128.75
3250	8.0222	-5.215	0.	128.13
3251	7.7817	-4.9548	0.	129.74
3252	8.2717	-4.9647	0.	128.98
3253	8.0149	-5.7263	0.	126.04
3254	8.2655	-5.475	0.	128.02
3255	-8.	-3.7502	0.	124.27
3256	-8.25	-3.4999	0.	125.73
3257	-7.9999	-3.2501	0.	123.91
3258	-8.2677e-002	2.1087	0.	125.75
3259	-0.40974	2.0145	0.	120.35
3260	-0.41439	2.3039	0.	121.56
3261	-0.21555	2.3521	0.	122.99
3262	1.1032	1.653	0.	126.98
3263	1.3487	1.8956	0.	127.67
3264	0.83922	1.8867	0.	129.43
3265	-5.4919	4.9982	0.	127.97
3266	-5.6814	5.2126	0.	124.2
3267	-5.5382	5.4026	0.	127.72
3268	-5.2521	5.2595	0.	130.23
3269	-5.496	3.675	0.	123.99
3270	-5.5247	4.1218	0.	125.3
3271	-5.7748	3.8807	0.	120.33
3272	-7.5588	3.6881	0.	124.78
3273	-7.7923	3.9472	0.	126.24
3274	-7.5448	4.1879	0.	125.36
3275	-7.2956	3.9104	0.	120.75
3276	-5.2026	2.1542	0.	129.83
3277	-5.6376	2.1744	0.	121.07
3278	-5.4648	1.9994	0.	125.99
3279	-4.3042	0.286	0.	133.08
3280	-4.0886	0.52221	0.	130.09
3281	-3.7964	0.32203	0.	130.03
3282	0.5155	3.969	0.	117.15
3283	5.0696e-002	4.0849	0.	118.59
3284	0.29566	4.271	0.	113.11
3285	0.23823	3.7531	0.	117.4
3286	4.9312	-2.5785	0.	122.04
3287	5.1044	-2.8224	0.	120.72
3288	4.9255	-3.0124	0.	127.5
3289	4.6733	-2.7849	0.	123.78
3290	-2.7538	7.7124	0.	125.4
3291	-2.9688	8.194	0.	125.89
3292	-2.6891	8.0178	0.	126.75
3293	6.1832	5.9008	0.	119.37
3294	5.1831	6.2669	0.	123.02
3295	5.4503	6.0655	0.	119.54
3296	5.2472	5.8123	0.	121.19
3297	7.0703	7.2992	0.	127.34
3298	6.8757	7.5649	0.	129.97
3299	7.3202	7.4953	0.	125.52
3300	7.0169	6.4672	0.	128.22
3301	6.8237	6.2321	0.	125.32
3302	0.78797	8.1312	0.	125.18
3303	0.57999	7.9076	0.	125.04
3304	0.5477	8.3711	0.	127.25
3305	0.33241	8.1364	0.	127.56
3306	1.2433	8.107	0.	123.74
3307	1.0138	8.3572	0.	125.06
3308	1.0024	7.8962	0.	123.43
3309	1.7052	8.0793	0.	123.55
3310	1.4811	8.3307	0.	123.95
3311	1.4441	7.8533	0.	123.53
3312	2.1739	8.0587	0.	123.77
3313	1.9541	8.3094	0.	123.88
3314	2.6486	8.0307	0.	123.88
3315	2.3785	7.8116	0.	124.3
3316	2.4303	8.2903	0.	123.95
3317	3.1283	7.9874	0.	123.89
3318	2.8518	7.7706	0.	124.31
3319	2.9108	8.2598	0.	124.01
3320	3.6191	7.939	0.	123.87
3321	3.3958	8.2177	0.	124.14
3322	4.1406	7.8787	0.	124.5
3323	3.8932	8.1784	0.	124.62
3324	3.8157	7.6582	0.	124.47
3325	0.68835	7.4433	0.	124.13
3326	0.39324	7.6588	0.	129.84
3327	0.79438	7.6726	0.	123.31
3328	-5.5408	-7.2747	0.	125.76
3329	-5.8032	-7.5356	0.	123.72
3330	-5.541	-7.7809	0.	124.04
3331	7.1903	-3.3783	0.	135.12
3332	7.4812	-3.6181	0.	128.27
3333	7.5072	-3.1079	0.	129.09
3334	7.5401	-4.6907	0.	131.35
3335	7.2909	-4.9487	0.	129.12
3336	-2.1382	6.3717	0.	130.19
3337	-1.856	6.1521	0.	126.42
3338	-2.3433	6.0834	0.	127.66
3339	-2.0692	5.8707	0.	125.87
3340	3.6828	-3.809	0.	125.43
3341	3.9963	-3.613	0.	122.28
3342	3.4524	-3.5085	0.	126.2
3343	1.7918	5.0127	0.	128.52
3344	1.779	5.4889	0.	128.53
3345	1.5305	5.2598	0.	128.27
3346	1.5032	3.8377	0.	130.61
3347	1.7727	4.0551	0.	132.38
3348	1.7281	3.5775	0.	130.85
3349	-5.245	-2.9996	0.	127.75
3350	-4.9937	-2.7504	0.	129.05
3351	2.0011	-6.7492	0.	128.94
3352	1.7514	-6.499	0.	130.25
3353	2.2517	-6.4992	0.	128.46
3354	2.	-8.2499	0.	127.81
3355	2.0001	-7.7498	0.	129.15
3356	1.75	-7.9999	0.	127.65
3357	0.24977	-8.	0.	119.22
3358	0.49987	-7.75	0.	113.68
3359	0.49985	-8.25	0.	119.17
3360	0.74992	-7.9999	0.	119.36
3361	-1.0011	-7.7498	0.	128.56
3362	-0.75088	-7.9999	0.	127.16
3363	-1.001	-8.2498	0.	127.45
3364	-1.2514	-7.9998	0.	128.1
3365	0.2658	-4.0049	0.	119.3
3366	0.77144	-4.0028	0.	119.04
3367	0.51478	-4.253	0.	113.54
3368	2.0483	-4.2426	0.	129.08
3369	1.7967	-3.9947	0.	127.17
3370	-0.99933	-5.2494	0.	128.7
3371	-0.74996	-5.4998	0.	130.12
3372	-0.74046	-4.0016	0.	127.64
3373	-0.9934	-4.2491	0.	128.94
3374	1.2876	-3.9908e-002	0.	123.75
3375	1.7829	-3.6306e-002	0.	123.18
3376	1.5273	-0.27875	0.	118.33
3377	1.2779	-3.0035	0.	120.89
3378	1.7843	-2.9981	0.	123.16
3379	1.5242	-2.7508	0.	117.51
3380	3.4861e-002	-2.7768	0.	125.75
3381	0.2774	-3.0173	0.	124.56
3382	5.1284e-002	-1.3208	0.	125.48
3383	5.1792e-002	-1.8044	0.	125.32
3384	0.28974	-1.5467	0.	127.5
3385	-1.0983	3.4319	0.	123.42
3386	-1.3257	3.6392	0.	127.21
3387	-1.0974	3.9198	0.	126.41
3388	-4.0293	2.308	0.	134.53
3389	-4.076	1.847	0.	131.58
3390	-4.2919	2.0797	0.	133.93
3391	-3.7978	2.0819	0.	133.12
3392	-3.9921	3.7284	0.	133.99
3393	-3.9906	3.2514	0.	134.31
3394	-3.7424	3.4948	0.	135.2
3395	-3.7708	4.9501	0.	132.68
3396	-4.0131	4.6883	0.	134.26
3397	-4.039	5.1745	0.	132.15
3398	-4.2733	4.9113	0.	133.32
3399	6.8219	1.062	0.	127.21
3400	7.0175	0.78405	0.	129.15
3401	7.0555	1.2732	0.	130.5
3402	4.2586	-1.9152	0.	124.21
3403	4.5044	-1.6833	0.	119.56
3404	4.7522	-1.9158	0.	120.03
3405	3.5452	-2.2383	0.	130.21
3406	3.3015	-2.4885	0.	130.64
3407	2.7785	0.44774	0.	130.1
3408	2.5281	0.2061	0.	129.1
3409	2.5384	0.68593	0.	128.27
3410	3.0276	0.68706	0.	130.98
3411	2.7874	0.92525	0.	129.17
3412	3.2755	0.92477	0.	130.48
3413	3.0362	1.1613	0.	129.39
3414	-5.0029	-5.2518	0.	126.96
3415	-5.0078	-5.7545	0.	127.24
3416	-5.2539	-5.5027	0.	127.68
3417	-5.2823	-7.0165	0.	127.58
3418	-5.0239	-6.7611	0.	128.57
3419	-6.7494	-4.0001	0.	115.16
3420	-6.2488	-3.9998	0.	116.68
3421	-6.4994	-4.25	0.	111.4
3422	-5.247	-3.9989	0.	127.19
3423	-4.9975	-4.2489	0.	128.6
3424	-7.7501	-4.0004	0.	122.97
3425	-8.2503	-3.9998	0.	125.78
3426	-8.0008	-4.2504	0.	124.95
3427	6.2633	-5.9634	0.	123.64
3428	6.0096	-6.2191	0.	125.23
3429	5.7595	-5.9668	0.	126.9
3430	3.0001	-8.25	0.	127.6
3431	3.2502	-7.9999	0.	127.32
3432	3.0002	-7.75	0.	128.97
3433	3.0209	-5.2511	0.	130.48
3434	3.2601	-5.5025	0.	131.97
3435	3.0874	-4.2434	0.	130.58
3436	3.3723	-4.015	0.	128.46
3437	3.1419	-3.7145	0.	129.21
3438	-7.8126	3.4609	0.	126.73
3439	-7.3206	3.4021	0.	121.14
3440	-7.6078	3.2095	0.	126.73
3441	-8.0067	1.2048	0.	125.87
3442	-8.029	0.7056	0.	126.83
3443	-7.7802	0.93308	0.	128.22
3444	-8.2664	0.9647	0.	126.
3445	-7.9723	1.7153	0.	126.66
3446	-8.242	1.4681	0.	126.29
3447	-7.7429	1.4316	0.	128.49
3448	-7.6971	1.9404	0.	126.35
3449	-7.9279	2.2516	0.	128.02
3450	-8.2112	1.9813	0.	127.15
3451	-8.06	3.2449	0.	128.69
3452	-7.8552	2.9934	0.	128.69
3453	-8.2926	2.9999	0.	129.23
3454	-7.9846	2.7697	0.	129.07
3455	-8.0461	3.7201	0.	128.19
3456	-8.2934	3.4813	0.	128.87
3457	-8.0359	4.2051	0.	128.32
3458	-8.2835	3.9674	0.	128.71
3459	-8.0397	4.6903	0.	128.69
3460	-7.7883	4.4459	0.	127.44
3461	-8.2786	4.4565	0.	128.92
3462	-8.0633	5.1621	0.	128.55
3463	-7.8025	4.9397	0.	127.83
3464	-8.2871	4.9415	0.	128.8
3465	-8.303	5.4175	0.	128.05
3466	-8.0264	5.6209	0.	128.71
3467	-4.5565	7.1894	0.	130.48
3468	-4.7833	7.4611	0.	131.53
3469	-4.2933	7.4464	0.	129.22
3470	-2.5403	1.513	0.	126.09
3471	-2.2853	1.3284	0.	128.55
3472	-1.1915	-0.78742	0.	118.03
3473	-0.94023	-0.46684	0.	116.65
3474	-2.4681	-0.74813	0.	131.32
3475	-2.2027	-0.95814	0.	128.63
3476	6.5314	3.5698	0.	118.65
3477	6.3003	3.3583	0.	110.3
3478	6.3094	3.8216	0.	115.03
3479	7.6459	3.2483	0.	129.08
3480	7.4354	3.5047	0.	130.36
3481	7.6601	3.7392	0.	129.24
3482	4.5778	2.4839	0.	122.85
3483	4.8873	2.2608	0.	126.04
3484	4.5495	2.0085	0.	122.28
3485	4.3398	2.267	0.	122.4
3486	4.6628	3.7133	0.	128.08
3487	4.442	3.4803	0.	128.12
3488	4.1657	3.7316	0.	128.14
3489	4.4024	3.9642	0.	127.67
3490	5.1485	3.6928	0.	124.48
3491	5.402	3.4403	0.	123.85
3492	5.3859	3.925	0.	120.78
3493	4.9292	3.4626	0.	130.69
3494	4.7789	2.7476	0.	122.32
3495	4.5004	2.9911	0.	126.25
3496	7.4003	3.0155	0.	132.45
3497	7.6013	2.7525	0.	127.36
3498	6.9819	3.529	0.	127.25
3499	7.1898	3.2718	0.	133.65
3500	6.7415	3.3093	0.	127.98
3501	5.4711	0.67702	0.	115.4
3502	5.5144	1.1216	0.	120.89
3503	5.7148	0.91945	0.	114.48
3504	-2.4913	-0.28001	0.	131.57
3505	-2.2605	-2.6725e-002	0.	132.15
3506	-2.2349	-0.48868	0.	133.17
3507	-1.6952	-0.8875	0.	123.25
3508	-1.9695	-0.6987	0.	130.53
3509	-1.4572	-0.60796	0.	116.63
3510	-1.4275	-1.0969	0.	120.59
3511	-2.5438	1.9418	0.	125.49
3512	-2.791	2.1351	0.	126.71
3513	-2.2855	2.1779	0.	130.28
3514	-2.531	2.3666	0.	122.01
3515	-2.2976	1.7606	0.	127.1
3516	-4.5883	6.6637	0.	129.1
3517	-4.8585	6.3867	0.	126.9
3518	-4.8125	6.9353	0.	135.4
3519	-5.2691	7.4864	0.	129.78
3520	-5.0392	7.207	0.	136.33
3521	-5.5156	7.2553	0.	130.76
3522	-5.7555	7.5138	0.	123.72
3523	-6.7897	3.2994	0.	114.44
3524	-6.5259	3.5286	0.	112.7
3525	-6.6167	2.9824	0.	108.
3526	-6.2511	3.32	0.	114.21
3527	-7.0573	3.6245	0.	117.11
3528	-7.1332	3.116	0.	121.07
3529	-7.4204	2.9234	0.	126.61
3530	-7.7735	2.7525	0.	128.66
3531	-8.0326	0.21312	0.	129.71
3532	-7.8	0.44269	0.	127.55
3533	-8.2782	0.46699	0.	128.52
3534	3.0465	-4.7503	0.	131.19
3535	3.315	-4.5115	0.	132.25
3536	3.2764	-5.0056	0.	131.76
3537	2.7793	-4.9984	0.	130.32
3538	3.2504	-7.0002	0.	129.4
3539	3.0004	-7.2501	0.	129.42
3540	6.0029	-7.2382	0.	126.4
3541	5.752	-7.4923	0.	126.45
3542	6.2515	-7.4924	0.	127.53
3543	6.0015	-7.7431	0.	126.36
3544	6.5113	-6.2212	0.	125.49
3545	6.7651	-5.968	0.	122.22
3546	6.5196	-5.7079	0.	121.98
3547	6.0053	-6.7307	0.	126.53
3548	6.2577	-6.4768	0.	127.04
3549	5.7553	-6.4799	0.	127.54
3550	6.2534	-6.9865	0.	127.61
3551	5.7533	-6.9875	0.	126.76
3552	-7.2498	-4.0005	0.	118.71
3553	-7.	-4.2505	0.	116.83
3554	-7.5004	-4.2512	0.	123.3
3555	-7.7534	-5.0031	0.	124.59
3556	-8.008	-5.2519	0.	123.38
3557	-8.0027	-4.751	0.	124.72
3558	-8.2546	-4.9991	0.	124.8
3559	-8.0798	-6.6957	0.	125.68
3560	-8.3126	-6.4687	0.	126.87
3561	-7.8374	-6.5422	0.	121.99
3562	-8.0546	-6.2331	0.	124.32
3563	-5.2509	-5.0007	0.	128.06
3564	-4.9998	-4.75	0.	128.11
3565	-5.748	-3.9995	0.	122.51
3566	-5.4982	-4.2495	0.	127.49
3567	-5.9988	-4.2497	0.	119.72
3568	-5.9982	-3.7497	0.	119.52
3569	-5.26	-6.0065	0.	129.17
3570	-5.0154	-6.2579	0.	128.63
3571	4.006	0.69256	0.	127.61
3572	3.7633	0.92296	0.	128.74
3573	3.0198	0.20569	0.	131.68
3574	3.2683	0.44833	0.	133.35
3575	3.0136	-0.27609	0.	131.32
3576	3.2626	-3.0908e-002	0.	132.63
3577	2.7695	-3.595e-002	0.	130.67
3578	3.7669	-1.9495	0.	129.18
3579	3.2708	-1.9835	0.	132.14
3580	3.5143	-1.7313	0.	133.05
3581	4.0088	-1.6929	0.	127.41
3582	6.5193	0.84697	0.	124.23
3583	6.5987	1.3499	0.	127.09
3584	6.4208	1.2006	0.	118.48
3585	7.0249	-1.7139	0.	130.26
3586	6.7647	-1.4783	0.	127.57
3587	7.0111	-1.223	0.	127.31
3588	-3.5103	4.7243	0.	134.28
3589	-3.2676	4.989	0.	129.06
3590	-3.999	4.2069	0.	134.75
3591	-3.7526	4.4624	0.	135.84
3592	-4.2559	4.4318	0.	134.16
3593	-3.7456	3.9773	0.	135.48
3594	-4.2456	3.9574	0.	133.54
3595	-4.0005	2.7779	0.	135.39
3596	-3.7459	3.0165	0.	136.3
3597	-3.7637	2.544	0.	136.79
3598	-3.0315	2.3369	0.	130.09
3599	-3.2941	2.1029	0.	130.79
3600	-1.3133	5.1632	0.	122.39
3601	-1.5462	4.8869	0.	125.17
3602	-1.7858	5.1233	0.	122.24
3603	-1.5676	5.3997	0.	122.5
3604	-1.3213	3.1556	0.	124.76
3605	-0.87641	3.2211	0.	121.65
3606	-1.0788	2.9473	0.	120.67
3607	0.7889	-5.1676e-002	0.	129.31
3608	1.0449	0.19888	0.	125.23
3609	1.0322	-0.28495	0.	126.21
3610	0.28906	-1.0604	0.	128.69
3611	-0.19179	-1.1073	0.	124.1
3612	4.9474e-002	-0.84054	0.	127.6
3613	4.5498e-002	-2.2898	0.	126.24
3614	0.28899	-2.036	0.	127.84
3615	0.2844	-2.5261	0.	127.63
3616	0.77532	-3.0098	0.	122.63
3617	0.52694	-2.7666	0.	126.47
3618	1.0231	-2.7565	0.	121.72
3619	3.0087	-0.7624	0.	131.56
3620	2.7563	-1.0076	0.	132.65
3621	3.2555	-1.0026	0.	132.81
3622	3.0079	-1.2515	0.	132.14
3623	2.7623	-0.51938	0.	132.06
3624	3.2585	-0.51564	0.	132.13
3625	2.0233	-0.27728	0.	125.57
3626	2.2763	-3.6719e-002	0.	127.28
3627	2.2908	-2.9899	0.	128.13
3628	2.0293	-2.7459	0.	126.3
3629	2.5337	-2.7362	0.	132.5
3630	2.7798	-2.9685	0.	130.49
3631	2.7663	-1.9919	0.	133.48
3632	3.0271	-2.2337	0.	132.58
3633	3.0148	-1.7429	0.	132.52
3634	-0.23792	-4.0047	0.	123.99
3635	1.1127e-002	-4.2539	0.	121.18
3636	-0.49177	-4.2527	0.	128.56
3637	-0.48584	-3.7564	0.	126.22
3638	-0.74848	-4.9997	0.	129.36
3639	-0.99698	-4.7491	0.	129.21
3640	2.0319	-4.7442	0.	129.55
3641	1.7689	-4.9962	0.	129.41
3642	2.2761	-4.9954	0.	129.51
3643	1.7842	-4.495	0.	129.7
3644	1.2812	-3.9995	0.	123.26
3645	1.5327	-4.2472	0.	127.83
3646	1.0216	-4.2508	0.	121.14
3647	-1.0012	-7.2498	0.	128.93
3648	-0.75095	-6.9999	0.	129.17
3649	-1.2517	-6.9998	0.	128.3
3650	-0.75094	-7.4999	0.	129.48
3651	-0.25051	-7.9999	0.	123.58
3652	-0.50068	-7.7499	0.	128.1
3653	-0.50065	-8.2499	0.	125.56
3654	-3.3318e-004	-8.2499	0.	121.52
3655	-3.2518e-004	-7.75	0.	121.05
3656	1.7505	-6.9995	0.	129.46
3657	2.0004	-7.2496	0.	129.48
3658	-4.9914	-0.2444	0.	133.
3659	-5.2483	-0.51755	0.	130.9
3660	-4.9982	-0.76751	0.	130.48
3661	-6.0001	-0.30001	0.	116.53
3662	-6.2452	-1.7694e-002	0.	111.7
3663	-6.034	0.125	0.	113.33
3664	-5.7551	-5.3422e-002	0.	121.23
3665	-5.7472	-2.9997	0.	123.62
3666	-5.9982	-2.75	0.	121.51
3667	-5.998	-3.2497	0.	120.27
3668	-5.4966	-2.7502	0.	128.18
3669	-5.2453	-2.5011	0.	129.46
3670	-4.9942	-2.2535	0.	128.45
3671	-6.2484	8.0158	0.	121.53
3672	-5.9993	7.7698	0.	120.78
3673	-5.9996	8.2603	0.	121.39
3674	1.0022	3.8894	0.	124.42
3675	0.77003	4.1524	0.	117.09
3676	1.2664	4.0941	0.	133.96
3677	1.5427	4.7838	0.	131.18
3678	2.0547	4.7641	0.	129.61
3679	1.7931	4.5338	0.	131.56
3680	1.7647	5.9601	0.	131.59
3681	1.5156	5.7321	0.	132.78
3682	1.5073	6.1971	0.	136.54
3683	0.99917	6.6663	0.	128.71
3684	1.2572	6.4353	0.	135.39
3685	3.5999	-4.2832	0.	130.16
3686	3.8891	-4.0704	0.	123.64
3687	4.5108	-3.6822	0.	117.27
3688	4.2027	-3.8744	0.	120.43
3689	-2.2626	6.8516	0.	132.25
3690	-1.9555	6.6568	0.	131.79
3691	-2.4269	6.5623	0.	130.92
3692	7.308	-4.433	0.	137.3
3693	7.5318	-4.1644	0.	130.63
3694	-5.7906	-7.0236	0.	125.92
3695	-5.5301	-6.7668	0.	129.29
3696	-6.053	-7.2845	0.	123.86
3697	-6.3165	-7.5353	0.	123.33
3698	-6.0758	-7.8096	0.	122.06
3699	-6.2982	-7.0273	0.	126.38
3700	-6.036	-6.7706	0.	124.22
3701	0.75941	6.9356	0.	125.68
3702	0.46395	6.6197	0.	128.5
3703	0.74671	6.4195	0.	122.29
3704	0.52284	7.1701	0.	126.19
3705	0.88471	7.4387	0.	123.67
3706	4.413	8.1309	0.	126.4
3707	4.6686	7.8867	0.	121.93
3708	1.9796	8.7912	0.	124.59
3709	2.2106	8.5409	0.	124.06
3710	1.73	8.5608	0.	124.28
3711	4.1656	8.4306	0.	126.55
3712	3.9327	8.7039	0.	126.2
3713	3.67	8.4571	0.	124.89
3714	4.4256	8.6914	0.	129.2
3715	4.6548	8.4419	0.	135.64
3716	7.0121	6.8762	0.	129.03
3717	6.7619	6.6709	0.	128.35
3718	7.2761	7.0424	0.	128.03
3719	6.7823	7.1111	0.	131.05
3720	5.1152	6.7129	0.	126.01
3721	5.2854	6.9738	0.	124.54
3722	5.1086	7.1711	0.	133.07
3723	5.3773	6.5275	0.	119.4
3724	6.3737	6.1743	0.	121.28
3725	6.5687	6.4358	0.	125.51
3726	5.9141	6.1188	0.	118.25
3727	5.6445	6.3262	0.	115.89
3728	6.1048	6.3969	0.	117.25
3729	-1.8181	8.5272	0.	130.82
3730	-2.2959	8.5038	0.	130.45
3731	-2.0392	8.7327	0.	131.21
3732	-1.9437	8.227	0.	133.89
3733	-2.2497	8.2922	0.	130.1
3734	-2.4561	7.2984	0.	128.91
3735	-2.3797	7.6136	0.	124.53
3736	-2.0982	7.1697	0.	139.43
3737	7.0514	-2.1925	0.	131.56
3738	6.8206	-2.451	0.	130.6
3739	6.7809	-1.9695	0.	128.28
3740	5.2172	-2.3982	0.	120.7
3741	4.9838	-2.1449	0.	119.94
3742	-0.15783	4.4089	0.	125.3
3743	-0.40484	4.172	0.	125.07
3744	-0.20292	3.9269	0.	121.62
3745	-0.8395	5.1979	0.	120.14
3746	-1.0805	4.9245	0.	124.39
3747	-1.0959	5.4321	0.	121.07
3748	-4.7697	0.14619	0.	134.48
3749	-5.0695	0.30012	0.	136.29
3750	-5.2489	-8.6698e-004	0.	130.74
3751	-4.6266	0.47148	0.	134.47
3752	-5.0482	1.8839	0.	133.43
3753	-4.7636	2.1022	0.	133.52
3754	-4.1357	0.95652	0.	128.73
3755	-4.411	0.70769	0.	131.53
3756	-3.8482	0.75706	0.	128.32
3757	-4.1253	1.3982	0.	129.07
3758	-4.4437	1.1611	0.	128.28
3759	-3.8684	1.1938	0.	127.84
3760	-4.3623	1.617	0.	130.44
3761	-3.8386	1.6332	0.	129.46
3762	-7.5511	4.6953	0.	126.58
3763	-7.3178	4.9848	0.	124.46
3764	-7.2975	4.4397	0.	123.39
3765	-5.7623	4.7967	0.	125.29
3766	-5.5217	4.567	0.	126.9
3767	-5.2624	4.8119	0.	129.6
3768	-6.7935	3.8536	0.	115.38
3769	-7.0483	4.1621	0.	118.78
3770	-6.5508	4.1019	0.	111.45
3771	-6.2879	3.8421	0.	115.08
3772	-2.1696e-003	1.8365	0.	128.08
3773	0.3463	1.9583	0.	129.89
3774	0.18948	2.2664	0.	127.63
3775	0.29099	-8.5373e-002	0.	131.51
3776	1.1875e-002	0.14948	0.	129.5
3777	-0.19567	-0.16727	0.	126.29
3778	4.6286e-002	-0.35564	0.	129.65
3779	0.53558	0.18503	0.	133.64
3780	0.53733	-0.30659	0.	133.57
3781	1.0888	1.1638	0.	125.21
3782	0.87997	1.3976	0.	127.67
3783	1.0618	0.67996	0.	124.57
3784	0.79154	0.43559	0.	129.66
3785	0.82495	0.91827	0.	123.89
3786	-1.5467	8.8058	0.	128.75
3787	-1.3776	8.5644	0.	124.74
3788	-1.5271	8.4081	0.	128.69
3789	-2.5279	8.7769	0.	128.93
3790	-2.7702	8.5083	0.	127.81
3791	-2.4905	8.3321	0.	128.66
3792	-4.504	8.7306	0.	125.88
3793	-4.7549	8.482	0.	125.74
3794	-4.2553	8.4718	0.	126.15
3795	-5.239	-8.5213	0.	125.49
3796	-5.7043	-8.5478	0.	125.33
3797	-5.4748	-8.7766	0.	126.05
3798	-5.5093	-8.2811	0.	124.41
3799	-4.7488	-8.5097	0.	126.25
3800	-4.9909	-8.7628	0.	126.44
3801	-4.4976	-8.7558	0.	126.91
3802	-4.2519	-8.5041	0.	126.86
3803	-1.7514	-8.4998	0.	127.69
3804	-2.0011	-8.7499	0.	127.68
3805	-2.2518	-8.4999	0.	127.78
3806	-2.002	-8.2498	0.	127.85
3807	-1.251	-8.4998	0.	127.21
3808	-1.5009	-8.7499	0.	127.34
3809	-1.5015	-8.2498	0.	127.86
3810	-1.0007	-8.7499	0.	126.47
3811	-0.75073	-8.4999	0.	125.85
3812	0.24975	-8.4999	0.	121.44
3813	-0.25048	-8.4999	0.	123.51
3814	-2.9808e-004	-8.7499	0.	122.56
3815	1.25	-8.4999	0.	123.71
3816	0.74989	-8.5	0.	121.52
3817	0.99993	-8.75	0.	122.67
3818	0.99995	-8.2499	0.	121.74
3819	1.5	-8.7499	0.	124.85
3820	1.75	-8.4999	0.	126.05
3821	1.5	-8.2499	0.	125.89
3822	2.7501	-8.4999	0.	127.12
3823	2.5	-8.75	0.	126.87
3824	2.25	-8.4999	0.	127.23
3825	3.0001	-8.7499	0.	126.22
3826	3.2502	-8.4999	0.	125.71
3827	4.2505	-8.4992	0.	120.53
3828	4.5007	-8.2489	0.	117.84
3829	4.5005	-8.7491	0.	120.49
3830	4.7507	-8.4985	0.	120.12
3831	6.0003	-8.7479	0.	126.
3832	6.2503	-8.4976	0.	127.96
3833	5.7506	-8.4973	0.	125.13
3834	6.0007	-8.2461	0.	126.67
3835	8.0088	-6.2362	0.	124.81
3836	8.2602	-5.984	0.	127.28
3837	-1.7911	6.9749	0.	138.54
3838	-1.4902	6.6729	0.	125.55
3839	-1.6734	6.4372	0.	128.11
3840	7.6794	8.4916	0.	125.81
3841	7.4332	8.7485	0.	127.63
3842	7.1576	8.5209	0.	132.01
3843	8.203	8.4927	0.	124.66
3844	7.9514	8.7425	0.	125.39
3845	8.4666	8.2466	0.	124.22
3846	8.7223	8.4971	0.	124.32
3847	8.4688	8.7458	0.	124.68
3848	8.7258	7.9988	0.	124.1
3849	8.4788	7.7487	0.	124.27
3850	8.7493	7.0016	0.	125.29
3851	8.5013	6.7528	0.	125.86
3852	8.4944	7.2505	0.	124.97
3853	8.4846	5.2562	0.	127.15
3854	8.7305	5.5039	0.	126.94
3855	8.4846	5.7557	0.	126.89
3856	8.7516	5.005	0.	127.23
3857	8.5212	4.7539	0.	127.45
3858	8.5578	2.7371	0.	126.67
3859	8.8061	2.9875	0.	126.86
3860	8.5747	3.2372	0.	127.26
3861	8.5384	2.2407	0.	126.64
3862	8.7895	2.4893	0.	126.53
3863	8.5244	1.7442	0.	127.39
3864	8.7753	1.9927	0.	126.87
3865	8.516	1.2464	0.	128.26
3866	8.7663	1.4951	0.	127.71
3867	8.5101	0.74802	0.	128.57
3868	8.7607	0.99694	0.	128.29
3869	8.506	0.25011	0.	128.38
3870	8.7565	0.49859	0.	128.37
3871	8.258	0.50099	0.	128.72
3872	8.754	7.2356e-004	0.	128.2
3873	8.2539	3.3503e-003	0.	128.03
3874	8.5043	-0.24651	0.	128.17
3875	8.5123	-4.2083	0.	127.83
3876	8.758	-3.965	0.	127.45
3877	8.5082	-3.7053	0.	127.21
3878	8.7623	-4.4694	0.	128.27
3879	8.5161	-4.7159	0.	128.6
3880	8.7607	-5.4827	0.	129.29
3881	8.5109	-5.7327	0.	129.27
3882	8.515	-5.2246	0.	128.88
3883	-8.2741	-2.5739e-002	0.	131.89
3884	-7.7835	-3.9099e-002	0.	132.23
3885	-8.022	-0.27431	0.	131.45
3886	-7.8388	-6.7709	0.	122.28
3887	-8.0567	-7.1503	0.	128.99
3888	-8.3133	-6.9414	0.	129.42
3889	-8.5369	-6.2273	0.	127.21
3890	-8.7869	-6.4753	0.	128.97
3891	-8.5461	-6.7144	0.	130.64
3892	-8.7727	-5.9852	0.	126.97
3893	-8.5195	-5.7386	0.	125.52
3894	-8.2789	-5.9917	0.	124.67
3895	-8.5011	-4.2489	0.	126.6
3896	-8.7518	-4.498	0.	127.1
3897	-8.2515	-4.4996	0.	125.77
3898	-8.5034	-4.7477	0.	125.85
3899	-8.5003	-3.7495	0.	127.24
3900	-8.7506	-3.999	0.	127.8
3901	-8.5	-3.2499	0.	128.49
3902	-8.7501	-3.4996	0.	128.63
3903	-8.7501	-3.0001	0.	130.19
3904	-8.5	-2.7503	0.	131.33
3905	-8.2499	-3.0001	0.	126.68
3906	-8.7654	-1.5498e-002	0.	132.14
3907	-8.5159	-0.26655	0.	134.63
3908	-8.5198	0.22814	0.	130.68
3909	-8.7436	1.4848	0.	126.66
3910	-8.5016	1.228	0.	126.39
3911	-8.4809	1.7341	0.	126.75
3912	-8.526	3.2363	0.	129.4
3913	-8.763	2.9887	0.	129.35
3914	-8.4925	2.7413	0.	129.01
3915	-8.5262	4.2188	0.	129.3
3916	-8.7731	3.9786	0.	129.42
3917	-8.5308	3.7287	0.	129.39
3918	-8.526	4.7077	0.	129.02
3919	-8.7697	4.471	0.	129.19
3920	-8.7203	5.96	0.	126.16
3921	-8.4952	5.6938	0.	126.92
3922	-8.2187	5.8972	0.	127.59
3923	-8.4519	6.1998	0.	126.14
3924	-8.7117	6.9776	0.	129.97
3925	-8.467	7.2295	0.	133.57
3926	-8.2032	6.9792	0.	132.98
3927	-8.4469	6.7133	0.	128.41
3928	-5.9353	-8.802	0.	126.51
3929	-6.1289	-8.5609	0.	126.02
3930	-6.0086	-8.3216	0.	123.33
3931	-8.9726	-8.2305	0.	127.64
3932	-8.7365	-7.9697	0.	124.59
3933	-9.2361	-7.9851	0.	127.12
3934	-8.9943	-7.7276	0.	127.92
3935	-9.0227	-6.2332	0.	128.74
3936	-9.2696	-6.4854	0.	129.35
3937	-9.0255	-6.7288	0.	130.26
3938	-9.2639	-5.9895	0.	128.37
3939	-9.0143	-5.739	0.	127.51
3940	-9.2516	-4.4978	0.	128.68
3941	-9.0032	-4.7464	0.	127.57
3942	-9.0013	-4.248	0.	128.29
3943	-9.0002	-3.2497	0.	130.34
3944	-9.2502	-3.4995	0.	130.23
3945	-9.0005	-3.749	0.	129.18
3946	-9.2501	-3.	0.	131.09
3947	-9.0002	-2.7504	0.	131.39
3948	-9.0064	-0.75718	0.	132.37
3949	-9.2534	-1.0044	0.	130.93
3950	-8.7543	-1.0062	0.	133.15
3951	-9.003	-1.2545	0.	130.71
3952	-9.0101	-0.25993	0.	132.33
3953	-8.7605	-0.51098	0.	134.83
3954	-9.2564	-0.50649	0.	131.77
3955	-9.0115	0.23823	0.	130.45
3956	-9.2584	-8.1194e-003	0.	130.83
3957	-9.0086	0.73798	0.	128.37
3958	-9.2582	0.49131	0.	129.04
3959	-8.7658	0.48187	0.	128.98
3960	-9.0003	1.239	0.	127.3
3961	-9.254	0.99183	0.	127.69
3962	-8.7584	0.9822	0.	127.05
3963	-9.2464	1.4927	0.	127.33
3964	-8.99	1.7403	0.	127.38
3965	-9.2632	3.9874	0.	129.54
3966	-9.0178	3.7349	0.	129.52
3967	-9.0166	4.2308	0.	129.3
3968	-8.9895	5.7236	0.	126.75
3969	-9.2507	5.481	0.	127.04
3970	-8.7645	5.4574	0.	127.52
3971	-9.0099	5.2228	0.	127.8
3972	-9.2326	5.9821	0.	126.2
3973	-8.9716	6.2251	0.	126.53
3974	-8.9756	7.2353	0.	130.32
3975	-9.2267	6.987	0.	128.13
3976	-8.9681	6.7293	0.	128.08
3977	-8.7309	7.4873	0.	133.93
3978	-9.2365	7.4906	0.	129.24
3979	-8.9876	7.7403	0.	130.66
3980	-8.7161	-8.4806	0.	131.59
3981	-8.963	-8.7349	0.	129.09
3982	-9.2247	-8.4881	0.	128.04
3983	-7.7182	-9.0093	0.	114.17
3984	-7.9618	-9.2525	0.	120.74
3985	-8.2079	-8.9964	0.	125.95
3986	-7.9802	-8.7485	0.	123.77
3987	-6.6812	-8.9885	0.	127.39
3988	-6.4445	-9.2645	0.	127.46
3989	-6.1817	-9.0308	0.	128.46
3990	-6.3752	-8.7896	0.	127.93
3991	-5.2267	-9.0182	0.	126.99
3992	-5.4742	-9.2687	0.	127.44
3993	-5.7059	-9.0309	0.	127.24
3994	-4.7397	-9.0089	0.	127.1
3995	-4.987	-9.2599	0.	127.39
3996	-4.2461	-9.0038	0.	127.34
3997	-4.4942	-9.2546	0.	127.49
3998	-3.749	-9.0013	0.	127.56
3999	-3.9979	-9.2518	0.	127.63
4000	-4.0004	-8.7521	0.	127.29
4001	-3.2503	-9.0003	0.	127.71
4002	-3.4996	-9.2505	0.	127.75
4003	-3.5014	-8.7506	0.	127.54
4004	-2.7507	-9.	0.	127.76
4005	-3.0003	-9.2501	0.	127.8
4006	-3.0016	-8.7501	0.	127.7
4007	-2.2508	-8.9999	0.	127.66
4008	-2.5005	-9.25	0.	127.74
4009	-2.5014	-8.7499	0.	127.76
4010	-2.0005	-9.2499	0.	127.49
4011	-1.7507	-8.9999	0.	127.33
4012	-1.0004	-9.2499	0.	125.95
4013	-1.2506	-8.9999	0.	126.6
4014	-0.75047	-8.9999	0.	125.35
4015	1.75	-9.	0.	125.22
4016	1.5	-9.25	0.	124.48
4017	1.25	-9.	0.	123.81
4018	2.25	-9.	0.	126.06
4019	2.	-9.25	0.	125.55
4020	2.	-8.7499	0.	126.43
4021	2.7501	-8.9999	0.	125.95
4022	2.5	-9.25	0.	125.89
4023	3.0001	-9.2499	0.	125.35
4024	3.2502	-8.9999	0.	124.91
4025	5.7503	-8.9984	0.	124.55
4026	5.5003	-9.2488	0.	123.63
4027	5.5006	-8.7478	0.	123.67
4028	5.2504	-8.9986	0.	122.86
4029	6.0001	-9.2489	0.	124.75
4030	6.2501	-8.9987	0.	125.25
4031	8.5	-8.7498	0.	130.21
4032	8.75	-8.9999	0.	129.34
4033	8.5	-9.2499	0.	127.4
4034	8.25	-8.9999	0.	125.47
4035	8.7533	-6.494	0.	132.13
4036	9.2519	-6.4962	0.	130.9
4037	9.0039	-6.2429	0.	131.08
4038	9.0017	-6.7462	0.	130.98
4039	9.256	-5.49	0.	129.77
4040	9.0091	-5.234	0.	129.34
4041	9.0067	-5.7385	0.	130.23
4042	9.2566	-4.4833	0.	128.22
4043	9.008	-4.226	0.	127.89
4044	9.0095	-4.7293	0.	128.6
4045	9.0125	-2.7318	0.	127.99
4046	9.2588	-2.9858	0.	127.5
4047	8.7653	-2.9706	0.	127.85
4048	9.0097	-3.2281	0.	127.51
4049	9.2597	-2.4881	0.	127.99
4050	8.7678	-2.4758	0.	128.67
4051	9.0123	-2.2345	0.	128.47
4052	9.0045	0.2492	0.	128.19
4053	9.2529	-4.6288e-005	0.	128.18
4054	9.0035	-0.24877	0.	128.23
4055	9.0071	0.74751	0.	128.09
4056	9.2542	0.49857	0.	128.06
4057	9.0111	1.2457	0.	127.74
4058	9.2566	0.99724	0.	127.78
4059	9.0172	1.7436	0.	127.19
4060	9.2603	1.4957	0.	127.31
4061	9.0264	2.2413	0.	126.76
4062	9.2659	1.994	0.	126.81
4063	9.0378	2.7397	0.	126.72
4064	9.2739	2.4924	0.	126.59
4065	9.2825	2.9918	0.	126.77
4066	9.0473	3.2403	0.	127.03
4067	8.9975	5.2527	0.	127.02
4068	9.2533	5.0025	0.	127.17
4069	9.0132	4.7533	0.	127.3
4070	9.2447	5.5016	0.	126.82
4071	8.994	5.752	0.	126.65
4072	9.2486	7.0014	0.	124.95
4073	8.9949	7.2514	0.	124.8
4074	8.9992	6.7519	0.	125.49
4075	8.9815	8.2493	0.	124.2
4076	8.982	8.7482	0.	124.46
4077	9.2357	8.4991	0.	124.15
4078	9.2374	8.0001	0.	124.04
4079	8.987	7.7505	0.	124.31
4080	0.25647	0.41989	0.	131.46
4081	0.55472	0.6739	0.	128.92
4082	0.45793	1.4184	0.	131.47
4083	0.61611	1.1521	0.	126.29
4084	0.61595	1.6314	0.	130.05
4085	-6.3186	4.3635	0.	113.21
4086	-6.0464	4.5744	0.	120.31
4087	-5.8057	4.3448	0.	121.85
4088	-6.0558	4.1036	0.	116.88
4089	-6.8056	4.4104	0.	114.83
4090	-7.0643	4.7292	0.	121.2
4091	-4.6807	1.3798	0.	129.6
4092	-4.8628	1.6314	0.	132.68
4093	-4.5782	1.8497	0.	132.76
4094	-4.719	0.91224	0.	131.06
4095	-0.37205	4.6838	0.	130.23
4096	-0.61907	4.447	0.	130.13
4097	-0.60076	4.9595	0.	125.16
4098	-0.84181	4.6861	0.	129.48
4099	-8.48	-8.2198	0.	128.4
4100	-8.464	-8.7341	0.	132.52
4101	-8.2363	-8.4862	0.	130.13
4102	-8.5043	-7.7068	0.	128.73
4103	-8.2746	-7.4144	0.	133.63
4104	-8.5312	-7.2055	0.	134.27
4105	-8.7622	-7.4647	0.	132.18
4106	5.4858	-2.1959	0.	117.33
4107	5.5061	-1.7219	0.	112.82
4108	5.7608	-1.9823	0.	112.58
4109	5.2525	-1.9426	0.	116.46
4110	6.5207	-1.7339	0.	125.58
4111	6.5501	-2.228	0.	127.3
4112	6.2723	-1.9922	0.	117.77
4113	-2.0218	7.4849	0.	134.74
4114	-2.0091	7.8538	0.	129.56
4115	-2.3151	7.9189	0.	125.82
4116	-1.5881	7.167	0.	129.06
4117	5.8352	6.6042	0.	114.73
4118	5.5476	6.7884	0.	117.99
4119	6.2998	6.6584	0.	121.51
4120	6.5321	6.9058	0.	130.36
4121	8.2171	8.9956	0.	125.41
4122	8.7285	8.9969	0.	124.82
4123	8.4796	9.2468	0.	125.24
4124	7.7052	8.9995	0.	127.23
4125	7.9709	9.2467	0.	125.92
4126	7.1937	9.0159	0.	130.13
4127	7.4627	9.2533	0.	127.67
4128	6.682	9.038	0.	128.6
4129	6.9544	9.2704	0.	129.17
4130	6.9181	8.7883	0.	134.42
4131	6.1715	9.0439	0.	119.89
4132	6.4032	8.8231	0.	128.41
4133	6.4454	9.2838	0.	124.81
4134	5.6673	9.027	0.	117.13
4135	5.8904	8.8073	0.	107.67
4136	5.9387	9.2785	0.	117.73
4137	5.1721	8.998	0.	125.49
4138	5.3929	8.7689	0.	122.46
4139	5.4385	9.2601	0.	121.29
4140	4.6822	8.972	0.	130.65
4141	4.9113	8.7226	0.	136.91
4142	4.9446	9.2375	0.	128.23
4143	4.1927	8.9646	0.	128.9
4144	4.453	9.2234	0.	129.08
4145	3.9611	9.2268	0.	127.05
4146	3.7019	8.9761	0.	126.31
4147	2.9759	9.2535	0.	125.74
4148	3.2111	8.9948	0.	125.34
4149	2.9502	8.7556	0.	124.6
4150	2.7209	9.0124	0.	125.04
4151	1.9927	9.2746	0.	125.74
4152	2.2322	9.0265	0.	125.04
4153	1.744	9.0397	0.	125.38
4154	-1.2339	8.995	0.	122.87
4155	-0.70212	9.0266	0.	117.17
4156	-1.0648	8.7536	0.	118.83
4157	-0.97235	9.2337	0.	119.57
4158	-1.7677	9.0113	0.	129.1
4159	-1.5051	9.262	0.	126.66
4160	-2.2712	9.0059	0.	129.68
4161	-2.0147	9.2519	0.	128.95
4162	-2.7661	9.001	0.	128.05
4163	-2.5136	9.2565	0.	128.31
4164	-3.2599	8.9863	0.	126.77
4165	-3.01	9.2443	0.	127.29
4166	-3.0084	8.7324	0.	126.93
4167	-3.7552	8.9807	0.	126.15
4168	-3.5057	9.2365	0.	126.64
4169	-3.5025	8.7203	0.	126.09
4170	-4.2529	8.9827	0.	125.77
4171	-4.003	9.2359	0.	126.24
4172	-4.0042	8.7239	0.	126.05
4173	-4.7516	8.9884	0.	125.11
4174	-4.5016	9.2386	0.	125.75
4175	-5.2505	8.9952	0.	124.05
4176	-5.0007	9.2438	0.	124.91
4177	-5.0025	8.7398	0.	124.97
4178	-5.7497	9.0007	0.	123.46
4179	-5.4999	9.2487	0.	123.91
4180	-5.5006	8.7487	0.	123.39
4181	4.9105	8.1977	0.	130.71
4182	5.1322	8.4935	0.	133.45
4183	-0.46651	9.3064	0.	119.43
4184	-0.2074	9.0793	0.	125.08
4185	0.22737	6.8541	0.	128.71
4186	0.23366	6.3071	0.	126.11
4187	-3.4728e-002	6.4341	0.	125.96
4188	-7.3838e-002	6.6583	0.	120.77
4189	-6.5617	-7.2782	0.	125.71
4190	-6.8071	-7.0434	0.	120.52
4191	-6.5435	-6.7739	0.	120.94
4192	-6.8353	-8.7206	0.	127.77
4193	-7.2115	-8.9841	0.	115.83
4194	-6.9536	-9.2212	0.	121.96
4195	6.8385	-4.4327	0.	131.07
4196	7.0712	-4.1768	0.	134.27
4197	7.0588	-4.6911	0.	135.14
4198	4.7016	-3.9382	0.	119.45
4199	4.8847	-4.2117	0.	130.
4200	4.5977	-4.3749	0.	120.53
4201	4.3935	-4.1304	0.	122.83
4202	1.2582	5.9692	0.	137.51
4203	1.0048	6.1885	0.	128.94
4204	1.2854	4.5615	0.	135.08
4205	1.0342	4.3571	0.	126.49
4206	1.5359	4.3115	0.	135.67
4207	-6.4937	7.777	0.	120.47
4208	-6.7379	7.5354	0.	118.45
4209	-6.4855	7.299	0.	117.69
4210	-6.2447	7.531	0.	119.66
4211	-6.2497	9.0029	0.	124.95
4212	-5.9996	9.2519	0.	123.9
4213	-5.9996	8.7547	0.	122.44
4214	-8.4864	7.7406	0.	135.72
4215	-8.23	7.4927	0.	133.45
4216	-5.4974	-2.2517	0.	128.92
4217	-5.7476	-2.5004	0.	126.03
4218	-5.4986	-0.76508	0.	129.01
4219	-5.7508	-0.5206	0.	123.82
4220	-5.5058	-0.27401	0.	128.64
4221	-8.5002	-2.251	0.	132.77
4222	-8.25	-2.5004	0.	129.42
4223	-8.7502	-2.5007	0.	132.51
4224	-8.2637	-0.51511	0.	134.19
4225	-8.5084	-0.76005	0.	135.54
4226	1.2501	-7.4998	0.	125.96
4227	1.5003	-7.2496	0.	129.94
4228	1.7502	-7.4997	0.	129.99
4229	1.5001	-7.7498	0.	128.51
4230	-0.25049	-7.4999	0.	125.54
4231	-0.50067	-7.2499	0.	129.7
4232	1.5212	-4.747	0.	129.54
4233	1.273	-4.4985	0.	125.66
4234	-0.24273	-4.5019	0.	125.72
4235	-0.49621	-4.7509	0.	129.97
4236	-0.74471	-4.5003	0.	129.84
4237	2.5181	-2.2411	0.	134.22
4238	2.2722	-2.4922	0.	130.62
4239	2.7789	-2.4829	0.	133.34
4240	2.5099	-0.76457	0.	133.11
4241	2.2652	-0.5198	0.	129.66
4242	2.5181	-0.27923	0.	131.41
4243	0.7747	-2.5132	0.	125.5
4244	0.52789	-2.2723	0.	129.19
4245	0.78064	-0.53987	0.	130.49
4246	0.53222	-0.7967	0.	132.76
4247	0.29263	-0.57687	0.	131.71
4248	-1.5393	2.8923	0.	127.71
4249	-1.7773	2.6364	0.	129.59
4250	-1.5242	2.4484	0.	124.23
4251	-1.2969	2.684	0.	123.58
4252	-1.5486	4.3646	0.	129.15
4253	-1.7831	4.5949	0.	125.15
4254	-1.3134	4.6482	0.	127.16
4255	-3.2697	2.5519	0.	134.63
4256	-3.5092	2.7826	0.	137.69
4257	-3.5323	2.3179	0.	135.39
4258	-3.2517	4.4922	0.	132.16
4259	-3.4992	4.2328	0.	136.55
4260	6.5089	-1.235	0.	125.8
4261	6.2618	-1.4898	0.	121.88
4262	6.4626	0.32038	0.	124.94
4263	6.1951	0.53204	0.	120.86
4264	6.7149	0.56899	0.	126.18
4265	6.2018	0.7698	0.	117.71
4266	3.506	-1.2419	0.	134.05
4267	3.7563	-1.4747	0.	131.24
4268	3.2583	-1.4908	0.	133.44
4269	3.511	0.21174	0.	134.27
4270	3.7589	0.45565	0.	131.67
4271	3.5162	0.68604	0.	132.86
4272	-5.5164	-6.26	0.	130.76
4273	-5.7755	-6.5138	0.	127.59
4274	-5.2718	-6.5114	0.	130.27
4275	-5.4998	-4.7502	0.	128.81
4276	-5.7491	-4.4998	0.	124.67
4277	-5.2488	-4.4995	0.	128.89
4278	-7.5776	-6.903	0.	114.16
4279	-7.3254	-6.5817	0.	118.36
4280	-7.5622	-6.3285	0.	120.66
4281	-7.2505	-4.5012	0.	121.37
4282	-7.5018	-4.7533	0.	125.1
4283	-7.7511	-4.5012	0.	125.26
4284	8.5001	-8.2496	0.	131.96
4285	8.25	-8.4998	0.	127.96
4286	8.75	-8.4997	0.	131.73
4287	8.5026	-6.7448	0.	132.4
4288	8.2549	-6.4918	0.	128.77
4289	8.5063	-6.2396	0.	131.26
4290	6.7501	-8.4986	0.	125.88
4291	6.5003	-8.2471	0.	129.17
4292	6.5001	-8.7484	0.	127.23
4293	6.7585	-6.4809	0.	124.76
4294	6.5057	-6.7326	0.	128.08
4295	5.5023	-7.2415	0.	126.78
4296	5.2516	-7.4955	0.	122.66
4297	5.5016	-7.7445	0.	125.45
4298	3.7502	-7.4999	0.	125.51
4299	3.5003	-7.2502	0.	129.7
4300	3.5002	-7.75	0.	128.12
4301	3.2502	-7.5	0.	129.75
4302	3.815	-4.5373	0.	128.52
4303	3.5449	-4.7668	0.	132.78
4304	-7.5263	-0.2833	0.	126.3
4305	-7.5509	0.19047	0.	129.85
4306	-7.2851	-4.3764e-002	0.	120.11
4307	-7.2792	2.6348	0.	128.24
4308	-6.9602	2.799	0.	114.59
4309	-7.9663	7.2424	0.	132.8
4310	-7.9207	6.7021	0.	128.56
4311	-7.707	7.0202	0.	131.88
4312	-5.2858	6.9758	0.	136.85
4313	-5.0828	6.6584	0.	133.
4314	-2.0267	2.4059	0.	133.45
4315	-2.0392	1.9967	0.	131.81
4316	-1.7736	2.2178	0.	128.07
4317	-2.0041	-0.2354	0.	133.62
4318	-1.7315	-0.41915	0.	123.89
4319	7.1342	2.7828	0.	126.28
4320	6.9494	3.052	0.	133.99
4321	-8.7495	8.9991	0.	128.22
4322	-8.9996	9.2492	0.	126.19
4323	-9.2494	8.9988	0.	125.65
4324	-8.9983	8.7474	0.	126.85
4325	8.9874	9.248	0.	124.92
4326	9.238	8.9984	0.	124.53
4327	9.25	-8.9999	0.	130.83
4328	9.	-9.2499	0.	129.91
4329	9.	-8.7498	0.	130.87
4330	-8.9685	-9.2398	0.	129.64
4331	-9.2217	-8.9897	0.	129.76
4332	-8.711	-8.9884	0.	130.1
4333	6.732	7.8437	0.	126.93
4334	6.8582	8.3118	0.	128.61
4335	6.5876	7.3767	0.	133.58
4336	5.3127	7.2122	0.	130.13
4337	5.0303	7.671	0.	128.43
4338	5.6159	8.5492	0.	112.54
4339	6.1221	8.5865	0.	115.61
4340	6.6393	8.5734	0.	133.56
4341	-1.3234	8.3819	0.	123.56
4342	-1.6527	8.1079	0.	131.39
4343	3.9561e-002	8.8426	0.	132.6
4344	0.28937	8.6075	0.	130.65
4345	7.4077e-002	8.3728	0.	130.86
4346	0.22773	7.3855	0.	131.64
4347	0.14566	7.8875	0.	132.34
4348	-1.2872	6.865	0.	116.23
4349	-1.0534	7.02	0.	113.07
4350	-1.2121	6.4151	0.	120.39
4351	-1.0287	6.6296	0.	116.61
4352	-6.598	-7.7753	0.	123.99
4353	-6.676	-8.2553	0.	127.76
4354	-6.5293	-8.5218	0.	128.73
4355	-6.3572	-8.0495	0.	122.92
4356	6.8301	-3.1846	0.	134.44
4357	7.0041	-3.6684	0.	134.71
4358	6.6469	-2.7122	0.	128.05
4359	-7.7954	-7.2823	0.	120.95
4360	-7.3106	-7.1236	0.	110.63
4361	-7.0585	-6.8024	0.	115.98
4362	-7.4725	-9.2587	0.	110.47
4363	-7.5251	-8.8036	0.	107.27
4364	4.8589	-3.4743	0.	122.92
4365	5.3904	-2.6421	0.	119.43
4366	5.1352	-3.0449	0.	125.31
4367	5.0779	-4.4557	0.	133.21
4368	5.3711	-4.3123	0.	123.7
4369	6.3591	-4.4191	0.	114.86
4370	5.8642	-4.386	0.	110.31
4371	6.5768	-4.6844	0.	120.28
4372	1.2671	5.503	0.	132.45
4373	1.2813	5.0308	0.	130.75
4374	8.7135e-002	4.595	0.	119.93
4375	0.5502	4.4544	0.	112.1
4376	-6.4986	8.2624	0.	123.43
4377	-6.4998	8.7552	0.	125.8
4378	-6.2498	8.507	0.	123.29
4379	-6.4999	9.2521	0.	126.54
4380	-8.4959	8.2462	0.	133.56
4381	-8.7432	7.9936	0.	132.52
4382	-8.4989	8.7486	0.	131.
4383	-8.4997	9.2496	0.	129.21
4384	-8.7478	8.4969	0.	129.65
4385	-5.4986	-1.7541	0.	127.69
4386	-5.2463	-2.0041	0.	127.94
4387	-5.499	-1.2586	0.	127.77
4388	-5.2478	-1.5083	0.	126.94
4389	-5.2485	-1.015	0.	128.63
4390	-8.5008	-1.7522	0.	132.38
4391	-8.7505	-2.0016	0.	131.61
4392	-8.5027	-1.2549	0.	133.48
4393	-8.7514	-1.5032	0.	131.07
4394	0.74995	-7.4999	0.	115.59
4395	1.	-7.7499	0.	121.41
4396	0.24978	-7.5	0.	115.37
4397	0.26011	-4.502	0.	115.25
4398	0.7649	-4.501	0.	115.52
4399	2.509	-1.7473	0.	133.9
4400	2.5059	-1.2545	0.	133.47
4401	2.7574	-1.4984	0.	132.99
4402	1.7692	-2.4986	0.	120.57
4403	1.2694	-2.5038	0.	118.24
4404	1.7678	-0.51973	0.	120.62
4405	1.272	-0.52379	0.	120.64
4406	0.52693	-1.7783	0.	130.01
4407	0.52751	-1.2863	0.	130.7
4408	-1.5486	3.3628	0.	128.55
4409	-1.5502	3.8537	0.	130.24
4410	-1.3219	4.1344	0.	129.46
4411	-2.2722	2.5945	0.	124.83
4412	-2.7715	2.5684	0.	125.29
4413	-2.2612	4.5479	0.	119.07
4414	-2.0227	4.8313	0.	122.23
4415	-2.7525	4.5186	0.	121.66
4416	-2.5083	4.7916	0.	118.77
4417	-3.009	4.7569	0.	126.98
4418	-3.4978	3.2598	0.	137.17
4419	-3.496	3.7436	0.	136.67
4420	6.5015	-0.73268	0.	125.03
4421	6.7553	-0.97963	0.	125.58
4422	6.4926	-0.22033	0.	125.11
4423	6.7485	-0.47738	0.	124.26
4424	6.7383	3.7157e-002	0.	125.51
4425	3.5054	-0.75581	0.	133.35
4426	3.5076	-0.27045	0.	133.39
4427	-6.2488	-2.5001	0.	117.62
4428	-7.2497	-2.5	0.	114.55
4429	-7.7499	-2.5001	0.	120.33
4430	-7.4998	-2.7501	0.	116.32
4431	-6.7494	-2.5	0.	113.52
4432	-7.7648	-0.5185	0.	125.26
4433	-6.2543	-0.50984	0.	112.27
4434	-6.7573	-0.50468	0.	109.37
4435	-6.4994	-0.22752	0.	107.42
4436	-7.2619	-0.51623	0.	115.65
4437	-7.0207	-0.27669	0.	109.76
4438	-7.7323	7.5109	0.	122.73
4439	-7.2348	7.5287	0.	117.02
4440	-7.473	7.2887	0.	122.98
4441	-6.9773	7.3025	0.	114.03
4442	-5.506	-5.7547	0.	129.6
4443	-5.5018	-5.2516	0.	128.76
4444	-6.2813	-6.5171	0.	118.41
4445	-6.7948	-6.5329	0.	116.01
4446	-6.2494	-4.4999	0.	114.38
4447	-6.75	-4.5003	0.	113.01
4448	-7.5182	-5.7766	0.	123.38
4449	-7.7794	-6.0195	0.	122.99
4450	-7.5056	-5.2592	0.	124.54
4451	-7.7602	-5.5079	0.	123.35
4452	1.5008	-6.7493	0.	130.75
4453	1.5021	-6.2488	0.	132.63
4454	1.505	-5.748	0.	132.51
4455	1.5108	-5.2474	0.	130.51
4456	-0.50061	-6.7499	0.	130.62
4457	-0.50043	-6.2499	0.	132.58
4458	-0.50009	-5.75	0.	132.65
4459	-0.49911	-5.2501	0.	130.76
4460	8.5002	-7.7491	0.	131.73
4461	8.7501	-7.9994	0.	131.15
4462	8.5006	-7.2478	0.	131.85
4463	8.7502	-7.4988	0.	130.43
4464	8.751	-6.997	0.	131.29
4465	7.75	-8.4999	0.	118.19
4466	8.	-8.7499	0.	123.24
4467	7.25	-8.4996	0.	117.56
4468	7.	-8.7494	0.	121.89
4469	7.5	-8.7498	0.	115.81
4470	7.7565	-6.4896	0.	118.92
4471	7.2579	-6.4862	0.	117.45
4472	7.0122	-6.2277	0.	121.54
4473	6.5007	-7.745	0.	129.04
4474	6.2507	-7.9957	0.	127.91
4475	6.502	-7.2406	0.	128.72
4476	5.7587	-1.4877	0.	114.53
4477	6.0133	-1.7481	0.	114.31
4478	5.2561	-1.4733	0.	113.89
4479	4.2546	-1.461	0.	122.7
4480	4.7546	-1.4615	0.	117.07
4481	5.0025	-1.694	0.	117.61
4482	4.2511	0.45911	0.	123.33
4483	5.7146	0.45884	0.	115.32
4484	5.9583	0.70127	0.	114.4
4485	5.2337	0.4533	0.	115.37
4486	4.7438	0.45535	0.	117.98
4487	5.5033	-6.7367	0.	127.75
4488	5.5051	-6.2276	0.	129.2
4489	5.5063	-5.7093	0.	127.66
4490	5.4943	-5.168	0.	124.19
4491	5.2553	-4.7699	0.	126.03
4492	5.5485	-4.6265	0.	116.85
4493	4.2504	-7.4996	0.	114.6
4494	4.0003	-7.7497	0.	120.72
4495	4.7509	-7.4985	0.	113.24
4496	4.5006	-7.7491	0.	112.2
4497	5.0011	-7.7476	0.	118.62
4498	4.3085	-4.569	0.	119.55
4499	4.1042	-4.3245	0.	122.02
4500	4.791	-4.619	0.	122.45
4501	3.5007	-6.7505	0.	131.01
4502	3.5019	-6.2511	0.	133.62
4503	3.5055	-5.7528	0.	134.33
4504	3.5156	-5.257	0.	133.24
4505	-7.5513	0.67016	0.	128.76
4506	-7.4015	2.1527	0.	128.69
4507	-7.6323	2.464	0.	130.44
4508	-7.4677	1.6567	0.	128.18
4509	-7.5164	1.1599	0.	130.84
4510	-5.3856	0.5128	0.	129.54
4511	-4.9264	0.62541	0.	136.15
4512	-6.7627	4.6533e-004	0.	107.64
4513	-6.2822	0.18463	0.	109.96
4514	-5.8439	0.39024	0.	115.97
4515	-6.5162	2.5826	0.	109.
4516	-6.0857	2.2982	0.	114.47
4517	-5.6897	1.9838	0.	120.
4518	-5.3104	1.7291	0.	129.38
4519	-7.9311	6.1336	0.	125.65
4520	-8.1644	6.4362	0.	124.23
4521	-7.7253	6.2099	0.	130.1
4522	-7.1994	5.284	0.	122.81
4523	-7.2155	7.0625	0.	120.
4524	-6.7249	7.0661	0.	112.89
4525	-6.2391	7.0521	0.	115.08
4526	-5.7583	7.0256	0.	124.26
4527	-5.9982	7.2841	0.	117.27
4528	-5.9519	5.011	0.	121.5
4529	-5.7454	5.4062	0.	123.31
4530	-5.3482	5.703	0.	130.39
4531	-5.5267	5.8029	0.	134.81
4532	-5.1038	6.0917	0.	129.93
4533	-5.0621	5.5599	0.	132.94
4534	-5.2728	5.9097	0.	138.21
4535	-5.2824	6.1915	0.	134.14
4536	-2.0425	1.576	0.	129.54
4537	-2.0351	1.135	0.	132.28
4538	-2.0309	0.68194	0.	132.12
4539	-2.0237	0.22417	0.	132.04
4540	-1.2426	2.2057	0.	118.76
4541	6.9846e-002	1.5409	0.	130.04
4542	0.41831	1.6627	0.	132.05
4543	-0.32923	1.7423	0.	122.66
4544	-0.75341	2.0148	0.	118.36
4545	-1.0153	2.4413	0.	118.6
4546	-0.75806	2.3042	0.	119.53
4547	-0.26923	0.28184	0.	122.83
4548	-1.2059	-0.28738	0.	114.97
4549	-0.72855	-2.3586e-002	0.	117.08
4550	-0.68673	-0.21314	0.	119.51
4551	-0.47678	-3.491e-002	0.	119.68
4552	6.7761	1.8138	0.	134.3
4553	6.4195	1.4571	0.	121.44
4554	6.8322	1.561	0.	130.37
4555	7.0259	2.2785	0.	127.33
4556	7.0109	1.7684	0.	134.67
4557	7.3352	2.5198	0.	121.4
4558	5.6373	3.1814	0.	114.64
4559	5.1827	3.2101	0.	129.81
4560	6.5104	3.0978	0.	119.66
4561	6.0762	3.1427	0.	104.55
4562	-8.7499	9.4997	0.	127.16
4563	-9.2498	9.4995	0.	125.35
4564	-8.2499	9.4998	0.	126.78
4565	-7.75	9.5	0.	120.15
4566	-7.25	9.5002	0.	119.09
4567	-6.75	9.5007	0.	124.89
4568	-6.2498	9.501	0.	125.51
4569	-5.7497	9.4999	0.	124.36
4570	-5.2501	9.4972	0.	124.77
4571	-4.7507	9.494	0.	125.55
4572	-4.2517	9.4919	0.	126.22
4573	-3.7534	9.4917	0.	126.74
4574	-3.2557	9.4944	0.	127.16
4575	-2.7575	9.4997	0.	127.55
4576	-2.257	9.5026	0.	127.55
4577	-1.752	9.5027	0.	126.49
4578	-1.2435	9.5007	0.	123.4
4579	-0.73674	9.5135	0.	121.18
4580	-0.23466	9.5325	0.	123.52
4581	0.26358	9.535	0.	126.6
4582	2.4454e-002	9.3054	0.	129.12
4583	0.76009	9.531	0.	127.23
4584	0.51674	9.3014	0.	128.8
4585	1.2551	9.5256	0.	126.74
4586	1.0092	9.2939	0.	126.95
4587	1.7495	9.5197	0.	126.48
4588	1.5008	9.2849	0.	126.11
4589	2.244	9.5133	0.	126.37
4590	2.7384	9.5063	0.	126.38
4591	2.4835	9.2652	0.	125.67
4592	3.233	9.4983	0.	126.49
4593	3.7274	9.4901	0.	126.83
4594	3.4682	9.2395	0.	126.08
4595	4.2214	9.4855	0.	127.22
4596	4.7155	9.4888	0.	126.6
4597	5.2111	9.4996	0.	124.07
4598	5.7098	9.5117	0.	121.6
4599	6.2125	9.5184	0.	122.55
4600	6.7178	9.5162	0.	125.36
4601	7.2234	9.5079	0.	126.66
4602	7.7284	9.5006	0.	126.37
4603	8.2334	9.4979	0.	125.76
4604	8.7385	9.498	0.	125.35
4605	9.2434	9.4987	0.	125.03
4606	9.4941	9.2491	0.	124.63
4607	9.4918	8.7493	0.	124.22
4608	9.4916	8.25	0.	123.99
4609	9.4938	7.7506	0.	124.07
4610	9.4971	7.251	0.	124.49
4611	9.2434	7.501	0.	124.34
4612	9.499	6.7509	0.	125.13
4613	9.4989	6.2507	0.	125.85
4614	9.2496	6.5014	0.	125.67
4615	9.4982	5.7508	0.	126.49
4616	9.2476	6.0011	0.	126.32
4617	9.5004	5.2513	0.	126.97
4618	9.5087	4.7509	0.	127.25
4619	9.5177	4.2492	0.	127.3
4620	9.2686	4.5017	0.	127.38
4621	9.5225	3.747	0.	127.14
4622	9.282	3.9976	0.	127.36
4623	9.5227	3.245	0.	126.85
4624	9.2875	3.4934	0.	127.12
4625	9.5186	2.7444	0.	126.63
4626	9.5134	2.245	0.	126.65
4627	9.509	1.7461	0.	126.93
4628	9.5058	1.2472	0.	127.35
4629	9.5038	0.74829	0.	127.75
4630	9.5025	0.24932	0.	128.04
4631	9.502	-0.24969	0.	128.22
4632	9.502	-0.74857	0.	128.31
4633	9.2525	-0.49841	0.	128.27
4634	9.5029	-1.2471	0.	128.32
4635	9.2536	-0.996	0.	128.4
4636	9.5043	-1.7454	0.	128.18
4637	9.2555	-1.4934	0.	128.48
4638	9.5057	-2.2437	0.	127.88
4639	9.2583	-1.9901	0.	128.36
4640	9.506	-2.7421	0.	127.5
4641	9.5052	-3.2407	0.	127.26
4642	9.5043	-3.7396	0.	127.36
4643	9.256	-3.483	0.	127.27
4644	9.5041	-4.2393	0.	127.87
4645	9.2555	-3.982	0.	127.53
4646	9.5044	-4.7403	0.	128.63
4647	9.5042	-5.2423	0.	129.44
4648	9.2573	-4.9863	0.	129.01
4649	9.5031	-5.7446	0.	130.1
4650	9.5019	-6.2464	0.	130.38
4651	9.2539	-5.9931	0.	130.56
4652	9.5009	-6.7479	0.	130.12
4653	9.5003	-7.2489	0.	129.74
4654	9.2507	-6.9979	0.	130.2
4655	9.5001	-7.7494	0.	129.86
4656	9.2502	-7.4989	0.	129.4
4657	9.5	-8.2497	0.	130.49
4658	9.25	-7.9995	0.	130.3
4659	9.5	-8.7498	0.	131.05
4660	9.25	-8.4997	0.	131.08
4661	9.5	-9.2499	0.	131.19
4662	9.25	-9.4999	0.	130.26
4663	8.75	-9.4999	0.	127.96
4664	8.25	-9.4999	0.	124.83
4665	7.75	-9.4999	0.	121.98
4666	8.	-9.2499	0.	122.89
4667	7.25	-9.4998	0.	121.21
4668	7.5	-9.2498	0.	119.88
4669	6.75	-9.4996	0.	122.44
4670	7.	-9.2495	0.	121.4
4671	6.25	-9.4994	0.	123.72
4672	6.5	-9.2491	0.	124.24
4673	5.7501	-9.4993	0.	123.83
4674	5.2502	-9.4993	0.	123.11
4675	4.7502	-9.4995	0.	122.5
4676	5.0004	-9.2491	0.	122.34
4677	4.2502	-9.4997	0.	122.62
4678	4.5003	-9.2494	0.	121.88
4679	3.7502	-9.4998	0.	123.45
4680	4.0003	-9.2497	0.	122.63
4681	3.2501	-9.4999	0.	124.53
4682	3.5002	-9.2498	0.	124.09
4683	2.7501	-9.5	0.	125.29
4684	2.25	-9.5	0.	125.38
4685	1.75	-9.5	0.	124.81
4686	1.25	-9.5	0.	123.91
4687	0.99994	-9.25	0.	123.23
4688	0.74993	-9.5	0.	123.23
4689	-0.75016	-9.4999	0.	125.18
4690	-0.25013	-9.5	0.	124.02
4691	-0.50027	-9.2499	0.	124.58
4692	-1.2502	-9.4999	0.	126.29
4693	-1.7502	-9.4999	0.	127.09
4694	-1.5005	-9.2499	0.	126.93
4695	-2.2502	-9.5	0.	127.56
4696	-2.7501	-9.5001	0.	127.79
4697	-3.2496	-9.5003	0.	127.85
4698	-3.7484	-9.501	0.	127.82
4699	-4.246	-9.5026	0.	127.78
4700	-4.7416	-9.5056	0.	127.78
4701	-5.2346	-9.5104	0.	127.84
4702	-5.7255	-9.5154	0.	127.74
4703	-6.2199	-9.5113	0.	126.55
4704	-5.9571	-9.2776	0.	127.54
4705	-6.7169	-9.4973	0.	121.91
4706	-7.2147	-9.4957	0.	116.42
4707	-7.7161	-9.5019	0.	117.02
4708	-8.2181	-9.4983	0.	122.83
4709	-8.7217	-9.4936	0.	127.58
4710	-8.4642	-9.2422	0.	128.06
4711	-9.2307	-9.4936	0.	129.46
4712	-9.4839	-9.2435	0.	129.57
4713	-9.4833	-8.7429	0.	128.7
4714	-9.4882	-8.2426	0.	127.49
4715	-9.4963	-7.7413	0.	127.36
4716	-9.5061	-7.2404	0.	128.37
4717	-9.2544	-7.4839	0.	128.19
4718	-9.5114	-6.7404	0.	128.99
4719	-9.2673	-6.9837	0.	129.91
4720	-9.5108	-6.2417	0.	128.98
4721	-9.5073	-5.7438	0.	128.75
4722	-9.504	-5.2459	0.	128.78
4723	-9.2578	-5.4933	0.	127.89
4724	-9.502	-4.7475	0.	129.18
4725	-9.2536	-4.9961	0.	128.07
4726	-9.5009	-4.2486	0.	129.8
4727	-9.5004	-3.7493	0.	130.47
4728	-9.2506	-3.9988	0.	129.42
4729	-9.5002	-3.2497	0.	130.98
4730	-9.5002	-2.7501	0.	131.07
4731	-9.5003	-2.2507	0.	130.59
4732	-9.2502	-2.5006	0.	131.38
4733	-9.5008	-1.7514	0.	129.99
4734	-9.2505	-2.0014	0.	130.52
4735	-9.5018	-1.2525	0.	129.96
4736	-9.2514	-1.5026	0.	129.74
4737	-9.5034	-0.75371	0.	130.33
4738	-9.5048	-0.25467	0.	130.26
4739	-9.5052	0.24495	0.	129.43
4740	-9.5037	0.74515	0.	128.36
4741	-9.5001	1.2455	0.	127.71
4742	-9.4962	1.7454	0.	127.76
4743	-9.4954	2.2446	0.	128.33
4744	-9.2398	1.9931	0.	127.81
4745	-9.4997	2.7436	0.	129.05
4746	-9.2419	2.4921	0.	128.66
4747	-9.5054	3.2427	0.	129.57
4748	-9.2551	2.9907	0.	129.36
4749	-9.5074	4.2411	0.	129.29
4750	-9.5082	3.7419	0.	129.67
4751	-9.506	4.7399	0.	128.47
4752	-9.2608	4.4844	0.	129.05
4753	-9.502	5.2393	0.	127.41
4754	-9.2612	4.981	0.	128.17
4755	-9.4938	5.7396	0.	126.48
4756	-9.4865	6.2399	0.	126.14
4757	-9.4842	6.7406	0.	126.54
4758	-9.2255	6.4828	0.	126.48
4759	-9.4876	7.2424	0.	127.04
4760	-9.493	7.7445	0.	126.83
4761	-9.4969	8.2466	0.	125.92
4762	-9.2441	7.9941	0.	128.26
4763	-9.4988	8.7482	0.	125.06
4764	-9.2478	8.4967	0.	126.26
4765	-9.4996	9.2492	0.	124.81
4766	5.4578	1.5988	0.	124.71
4767	5.2822	1.3496	0.	123.72
4768	5.7645	1.1412	0.	117.64
4769	5.2521	2.0764	0.	128.24
4770	5.0883	2.5245	0.	125.22
4771	4.9869	2.9861	0.	126.63
4772	-8.5157	0.72609	0.	127.66
4773	4.7084	3.2296	0.	130.73
4774	4.2209	3.2457	0.	127.44
4775	9.047	3.7441	0.	127.34
4776	8.8159	3.4899	0.	127.43
4777	-9.2628	3.4894	0.	129.65
4778	9.0073	-3.7255	0.	127.44
4779	-3.2509	8.4664	0.	126.26
4780	5.501	-8.2464	0.	123.82
4781	5.2507	-8.4977	0.	122.18
4782	-7.9999	-2.7502	0.	124.82
4783	2.5818	7.5514	0.	124.72
4784	5.7511	-7.9953	0.	125.36
4785	-0.86402	4.1788	0.	128.17
4786	3.9681	6.3946	0.	127.74
4787	4.2395	6.1819	0.	127.39
4788	7.526	7.2385	0.	126.18
4789	8.7593	-1.4875	0.	128.91
4790	8.5145	-1.73	0.	129.31
4791	8.5088	-1.2372	0.	128.84
4792	8.5205	-2.7146	0.	128.53
4793	8.5202	-2.2219	0.	129.26
4794	9.0095	-1.7381	0.	128.66
4795	8.7647	-1.9806	0.	129.06
4796	9.0062	-1.2423	0.	128.56
4797	-3.2527	-8.5004	0.	127.53
4798	-2.7523	-8.5	0.	127.7
4799	-3.0036	-8.2502	0.	127.55
4800	3.5317	1.6282	0.	126.96
4801	3.5227	1.1585	0.	129.24
4802	3.2834	1.395	0.	128.13
4803	-8.5268	5.1969	0.	128.3
4804	-8.9864	2.2406	0.	128.14
4805	-8.9974	2.7392	0.	128.97
4806	-8.7269	2.4918	0.	128.64
4807	-3.7279	-1.5188	0.	129.8
4808	2.6925	8.5194	0.	124.08
4809	2.4632	8.7762	0.	124.51
4810	-7.7667	5.9253	0.	133.53
4811	-1.9567e-004	-9.2499	0.	123.23
4812	0.24989	-9.5	0.	123.25
4813	8.74	7.5003	0.	124.48
4814	3.8969	3.9878	0.	127.88
4815	3.9446	3.497	0.	127.45
4816	-5.2526	8.4933	0.	124.31
4817	-5.7505	8.5027	0.	122.38
4818	7.0362	-5.2029	0.	125.73
4819	7.0217	-5.715	0.	122.42
4820	6.7762	-5.4549	0.	122.17
4821	-5.4428	3.2386	0.	124.54
4822	-5.7343	3.4279	0.	120.27
4823	7.2589	4.9076	0.	124.6
4824	7.0915	4.6548	0.	124.09
4825	-2.2698	5.075	0.	121.85
4826	-2.7648	5.0299	0.	124.
4827	-8.7847	-6.9679	0.	131.91
4828	-9.0156	-7.2272	0.	129.72
4829	9.0002	-7.7491	0.	129.83
4830	9.	-8.2495	0.	130.89
4831	4.7505	-8.999	0.	121.71
4832	5.0006	-8.7484	0.	121.36
4833	-8.7755	3.485	0.	129.49
4834	-8.7033	6.465	0.	126.53
4835	2.2502	-7.4998	0.	129.51
4836	2.7502	-7.4999	0.	129.44
4837	2.5486	1.1596	0.	127.81
4838	2.7974	1.3957	0.	128.03
4839	2.5605	1.6303	0.	127.52
4840	-5.6207	3.0149	0.	122.18
4841	-5.9122	3.2042	0.	117.9
4842	-7.7498	-3.0002	0.	120.79
4843	8.7537	-0.496	0.	128.19
4844	9.0041	-0.74584	0.	128.36
4845	8.7569	-5.9884	0.	130.2
4846	3.025	-2.7152	0.	131.34
4847	-2.632	6.2739	0.	128.42
4848	-6.2105	-8.316	0.	123.77
4849	-2.0025	-6.2493	0.	126.81
4850	-9.0004	-2.2513	0.	131.31
4851	3.5435	2.0905	0.	125.75
4852	3.2943	1.8597	0.	126.69
4853	8.513	-3.2083	0.	127.53
4854	2.4682	6.6641	0.	128.1
4855	-3.9834	-2.7481	0.	129.39
4856	-3.7323	-2.9937	0.	129.34
4857	-1.6063	5.9139	0.	123.74
4858	-1.3953	6.1794	0.	122.97
4859	7.295	-3.9082	0.	127.98
4860	-8.995	8.2443	0.	128.6
4861	4.0004	-8.7495	0.	121.94
4862	4.0004	-8.2496	0.	120.92
4863	3.7503	-8.4997	0.	123.07
4864	-8.262	-5.4976	0.	123.79
4865	-8.7612	-5.4923	0.	126.06
4866	-8.5086	-5.2449	0.	125.2
4867	7.751	1.0266e-002	0.	127.34
4868	8.0034	-0.24205	0.	127.67
4869	8.0059	0.25423	0.	128.37
4870	8.2569	-0.98712	0.	128.39
4871	8.0054	-0.73683	0.	127.87
4872	-3.7469	-4.4958	0.	128.12
4873	-3.4944	-4.2439	0.	128.37
4874	-2.7518	-5.4983	0.	126.88
4875	-3.2527	-5.4988	0.	126.86
4876	-3.0009	-5.2474	0.	127.11
4877	0.49984	-8.75	0.	121.52
4878	-3.9954	-4.2461	0.	128.55
4879	-3.999	-4.7476	0.	127.76
4880	4.7509	-7.9982	0.	117.41
4881	4.2506	-7.9993	0.	118.2
4882	3.7503	-8.9997	0.	123.27
4883	4.2504	-8.9994	0.	121.89
4884	-2.5003	-5.2471	0.	127.14
4885	-2.7493	-4.9962	0.	127.37
4886	3.6201	4.2373	0.	128.11
4887	4.1336	4.2203	0.	127.41
4888	-8.7723	4.9623	0.	128.59
4889	5.8913	4.4087	0.	117.52
4890	5.6227	4.1545	0.	118.47
4891	6.0868	4.0945	0.	116.58
4892	-1.5379e-002	3.5951	0.	120.42
4893	0.74989	-9.	0.	122.66
4894	0.24979	-8.9999	0.	122.64
4895	0.49988	-9.25	0.	122.66
4896	-1.7521	-7.9998	0.	128.02
4897	1.012	8.8248	0.	126.53
4898	0.77356	8.5971	0.	127.16
4899	1.2516	8.5809	0.	125.28
4900	-8.7273	1.9896	0.	127.48
4901	-2.2409	-3.9888	0.	128.3
4902	6.1374	4.5735	0.	118.71
4903	6.3329	4.2593	0.	117.81
4904	-3.7527	-8.5015	0.	127.27
4905	6.9906	0.28577	0.	126.72
4906	6.9942	-0.21989	0.	124.6
4907	7.0023	-0.72433	0.	124.76
4908	5.7089e-002	5.9286	0.	124.29
4909	0.51643	6.1069	0.	117.9
4910	-0.2113	6.0556	0.	124.19
4911	-0.40199	5.7721	0.	126.12
4912	1.2548	9.0532	0.	126.33
4913	0.76585	9.0643	0.	128.51
4914	-4.7469	-1.0271	0.	129.48
4915	-4.242	-1.0436	0.	130.25
4916	-5.565	0.21181	0.	124.06
4917	-3.0299	5.2557	0.	126.52
4918	-0.50052	-8.7499	0.	124.73
4919	3.4393	8.7293	0.	124.99
4920	-4.9973	-1.2647	0.	127.75
4921	-4.9955	-1.7582	0.	127.14
4922	-1.4481	-2.7176	0.	125.87
4923	3.1783	8.4901	0.	124.26
4924	-9.0124	3.2374	0.	129.44
4925	8.3068	4.4954	0.	127.6
4926	8.5569	4.2482	0.	127.73
4927	8.7828	4.5022	0.	127.52
4928	7.8393	4.4775	0.	127.18
4929	7.6328	4.2241	0.	127.59
4930	7.5519	4.7033	0.	126.26
4931	7.3846	4.4505	0.	125.75
4932	-4.0059	-8.2524	0.	127.03
4933	8.501	6.255	0.	126.51
4934	8.7513	6.5031	0.	126.06
4935	-2.0377	5.3563	0.	122.91
4936	-3.9861	-1.2866	0.	130.05
4937	1.8386	1.8852	0.	127.12
4938	0.27761	9.0717	0.	131.25
4939	8.5053	-0.7422	0.	128.33
4940	8.7556	-0.99203	0.	128.49
4941	8.2538	-0.49191	0.	127.81
4942	-8.0214	-5.7508	0.	122.92
4943	3.5002	-8.7498	0.	124.4
4944	5.2511	-7.9966	0.	121.39
4945	5.0009	-8.2478	0.	119.75
4946	-4.0024	-5.2495	0.	127.06
4947	-3.7538	-5.4998	0.	126.83
4948	-3.7429	-3.9943	0.	128.81
4949	6.75	-8.9991	0.	123.2
4950	3.7503	-7.9997	0.	123.3
4951	3.5002	-8.2498	0.	125.44
4952	-2.2511	-5.4981	0.	126.95
4953	8.807	3.996	0.	127.65
4954	9.0329	4.2501	0.	127.44
4955	-1.0868	4.4179	0.	127.46
4956	7.2443	2.4679e-002	0.	126.17
4957	-8.1845	2.5111	0.	128.86
4958	0.52742	8.8366	0.	129.12
4959	8.7633	-4.9759	0.	128.93
4960	8.5759	3.7419	0.	127.73
4961	6.1033	1.1234	0.	111.72
4962	-9.016	4.7255	0.	128.75
4963	8.748	6.0038	0.	126.59
4964	-5.8136	-8.0549	0.	122.43
4965	1.4944	8.8093	0.	125.06
4966	1.2031	7.6425	0.	123.24
4967	6.7971	-4.9428	0.	124.11
4968	5.8537	4.9175	0.	118.95
4969	7.4231	5.1673	0.	125.56
4970	7.75	-8.9998	0.	120.77
4971	7.25	-8.9996	0.	120.05
4972	8.9984	6.2518	0.	126.14
4973	-4.3027	5.3979	0.	131.34
4974	-4.7901	5.3434	0.	131.88
4975	-5.0226	5.0731	0.	131.87
4976	-9.0074	-5.2435	0.	127.17
4977	-8.7548	-4.9961	0.	126.32
4978	1.25	-7.9999	0.	123.93
4979	-8.4679	2.2408	0.	127.97
4980	8.7574	-3.4658	0.	127.2
4981	3.0944	-3.1971	0.	129.53
4982	-3.5604	1.8681	0.	131.
4983	-0.25034	-8.9999	0.	123.79
4984	-9.0011	-1.7526	0.	130.26
4985	-2.0015	-5.7486	0.	126.87
4986	-1.9934	-4.2414	0.	128.22
4987	3.8039	2.3158	0.	124.5
4988	3.3061	2.3205	0.	126.15
4989	6.5371	-5.1947	0.	120.53
4990	5.6615e-002	2.5098	0.	124.85
4991	2.3243	1.8701	0.	127.29
4992	1.9409	3.3176	0.	129.77
4993	9.0006	-7.248	0.	129.85
4994	-0.61795	5.4707	0.	121.32
4995	-6.0131	3.6336	0.	116.6
4996	-0.34832	2.4795	0.	122.23
4997	-4.5369	5.1347	0.	132.51
4998	-4.7694	4.8644	0.	132.5
4999	-4.5161	4.6548	0.	133.22
5000	-3.7514	8.4635	0.	125.99
5001	-0.29631	6.5148	0.	115.19
5002	-0.48611	6.2416	0.	119.78
5003	3.046	1.6266	0.	127.86
5004	-1.8194	5.6326	0.	123.17
5005	3.0569	2.0898	0.	127.08
5006	2.8207	2.3257	0.	127.29
5007	2.8092	1.8613	0.	127.35
5008	2.573	2.0972	0.	127.55
5009	-0.15076	2.7189	0.	122.84
5010	-1.3502	5.6686	0.	121.21
5011	-1.1392	5.9341	0.	120.41
5012	-0.94158	6.1872	0.	120.3
5013	-4.5025	4.1823	0.	132.95
5014	-0.56187	6.8487	0.	111.7
5015	-0.7948	6.7846	0.	113.89
5016	-3.5817	1.4288	0.	128.23
5017	-3.5808	0.99432	0.	127.42
5018	-3.556	0.55688	0.	128.25
5019	-0.87439	5.7049	0.	122.42
5020	-0.56835	6.6749	0.	111.46
5021	-0.75815	6.4017	0.	116.74
5022	-7.4413	5.7741	0.	130.91
5023	-7.787	-8.5429	0.	116.92
5024	-0.67679	5.9581	0.	122.28
5025	-7.	9.	0.	97.857
5026	-8.	9.	0.	99.202
5027	-7.	8.	0.	94.721
5028	-8.	8.	0.	102.6
5029	-7.5	9.	0.	115.39
5030	-7.	8.5	0.	101.84
5031	-8.	8.5	0.	105.74
5032	-7.5	8.	0.	114.69
5033	-7.5	8.5	0.	112.16
5034	-7.25	9.	0.	106.6
5035	-7.	8.75	0.	99.837
5036	-7.75	9.	0.	107.24
5037	-8.	8.75	0.	102.46
5038	-7.	8.25	0.	98.232
5039	-7.25	8.	0.	104.69
5040	-8.	8.25	0.	104.16
5041	-7.75	8.	0.	108.63
5042	-7.5	8.75	0.	113.7
5043	-7.25	8.5	0.	106.95
5044	-7.75	8.5	0.	108.94
5045	-7.5	8.25	0.	113.4
5046	-6.	-5.	0.	95.851
5047	-7.	-5.	0.	94.333
5048	-6.	-6.	0.	97.753
5049	-7.	-6.	0.	93.432
5050	-6.5	-5.	0.	109.89
5051	-6.	-5.5	0.	101.62
5052	-7.	-5.5	0.	99.18
5053	-6.5	-6.	0.	111.35
5054	-6.5	-5.5	0.	107.79
5055	-6.25	-5.	0.	102.85
5056	-6.	-5.25	0.	98.726
5057	-6.75	-5.	0.	102.1
5058	-7.	-5.25	0.	96.745
5059	-6.	-5.75	0.	99.679
5060	-6.25	-6.	0.	104.52
5061	-7.	-5.75	0.	96.282
5062	-6.75	-6.	0.	102.37
5063	-6.5	-5.25	0.	108.78
5064	-6.25	-5.5	0.	104.68
5065	-6.75	-5.5	0.	103.45
5066	-6.5	-5.75	0.	109.53
5067	1.	-5.	0.	94.931
5068	0.	-5.	0.	95.18
5069	1.	-7.	0.	95.057
5070	0.	-7.	0.	95.178
5071	0.5	-5.	0.	108.95
5072	1.	-5.5	0.	98.952
5073	1.	-6.	0.	97.91
5074	1.	-6.5	0.	99.073
5075	0.	-5.5	0.	99.052
5076	0.	-6.	0.	97.98
5077	0.	-6.5	0.	99.014
5078	0.5	-7.	0.	109.06
5079	0.5	-5.5	0.	103.35
5080	0.5	-6.	0.	101.21
5081	0.5	-6.5	0.	103.41
5082	0.75	-5.	0.	101.89
5083	1.	-5.25	0.	96.938
5084	0.25	-5.	0.	102.01
5085	0.	-5.25	0.	97.112
5086	1.	-6.75	0.	97.061
5087	0.75	-7.	0.	102.01
5088	0.	-6.75	0.	97.093
5089	0.25	-7.	0.	102.07
5090	0.5	-5.25	0.	106.11
5091	1.	-5.75	0.	98.388
5092	0.75	-5.5	0.	101.1
5093	1.	-6.25	0.	98.449
5094	0.75	-6.	0.	99.558
5095	0.75	-6.5	0.	101.19
5096	0.	-5.75	0.	98.48
5097	0.25	-5.5	0.	101.16
5098	0.	-6.25	0.	98.46
5099	0.25	-6.	0.	99.593
5100	0.25	-6.5	0.	101.16
5101	0.5	-6.75	0.	106.19
5102	0.5	-5.75	0.	102.28
5103	0.5	-6.25	0.	102.31
5104	2.	-1.	0.	100.43
5105	1.	-1.	0.	99.86
5106	2.	-2.	0.	100.44
5107	1.	-2.	0.	98.869
5108	1.5	-1.	0.	115.96
5109	2.	-1.5	0.	105.82
5110	1.	-1.5	0.	104.5
5111	1.5	-2.	0.	115.27
5112	1.5	-1.5	0.	113.08
5113	1.75	-1.	0.	108.18
5114	2.	-1.25	0.	103.12
5115	1.25	-1.	0.	107.87
5116	1.	-1.25	0.	102.17
5117	2.	-1.75	0.	103.12
5118	1.75	-2.	0.	107.84
5119	1.	-1.75	0.	101.67
5120	1.25	-2.	0.	107.06
5121	1.5	-1.25	0.	114.47
5122	1.75	-1.5	0.	109.43
5123	1.25	-1.5	0.	108.77
5124	1.5	-1.75	0.	114.13
5125	-2.	4.	0.	99.373
5126	-3.	4.	0.	102.2
5127	-2.	3.	0.	100.88
5128	-3.	3.	0.	104.25
5129	-2.5	4.	0.	116.81
5130	-2.	3.5	0.	105.26
5131	-3.	3.5	0.	108.56
5132	-2.5	3.	0.	118.96
5133	-2.5	3.5	0.	115.45
5134	-2.25	4.	0.	108.09
5135	-2.	3.75	0.	102.31
5136	-2.75	4.	0.	109.48
5137	-3.	3.75	0.	105.37
5138	-2.	3.25	0.	103.04
5139	-2.25	3.	0.	109.87
5140	-3.	3.25	0.	106.4
5141	-2.75	3.	0.	111.58
5142	-2.5	3.75	0.	116.07
5143	-2.25	3.5	0.	110.33
5144	-2.75	3.5	0.	111.99
5145	-2.5	3.25	0.	117.16
5146	8.	-7.	0.	98.91
5147	7.	-7.	0.	97.309
5148	8.	-8.	0.	98.783
5149	7.	-8.	0.	97.715
5150	7.5	-7.	0.	113.68
5151	8.	-7.5	0.	104.02
5152	7.	-7.5	0.	102.84
5153	7.5	-8.	0.	113.65
5154	7.5	-7.5	0.	111.04
5155	7.75	-7.	0.	106.27
5156	8.	-7.25	0.	101.46
5157	7.25	-7.	0.	105.48
5158	7.	-7.25	0.	100.06
5159	8.	-7.75	0.	101.39
5160	7.75	-8.	0.	106.2
5161	7.	-7.75	0.	100.27
5162	7.25	-8.	0.	105.66
5163	7.5	-7.25	0.	112.31
5164	7.75	-7.5	0.	107.51
5165	7.25	-7.5	0.	106.91
5166	7.5	-7.75	0.	112.3
5167	6.	0.	0.	93.879
5168	4.	0.	0.	100.61
5169	6.	-1.	0.	93.838
5170	4.	-1.	0.	100.39
5171	5.5	0.	0.	111.29
5172	5.	0.	0.	112.35
5173	4.5	0.	0.	115.85
5174	6.	-0.5	0.	98.803
5175	4.	-0.5	0.	105.31
5176	4.5	-1.	0.	115.41
5177	5.	-1.	0.	111.83
5178	5.5	-1.	0.	110.57
5179	4.5	-0.5	0.	114.16
5180	5.	-0.5	0.	115.01
5181	5.5	-0.5	0.	109.69
5182	5.75	0.	0.	102.55
5183	6.	-0.25	0.	96.317
5184	4.25	0.	0.	108.18
5185	4.	-0.25	0.	102.94
5186	6.	-0.75	0.	96.299
5187	5.75	-1.	0.	102.18
5188	4.	-0.75	0.	102.83
5189	4.25	-1.	0.	107.86
5190	5.25	0.	0.	111.82
5191	5.5	-0.25	0.	110.48
5192	4.75	0.	0.	114.1
5193	5.	-0.25	0.	113.67
5194	4.5	-0.25	0.	114.99
5195	5.75	-0.5	0.	104.23
5196	4.25	-0.5	0.	109.73
5197	4.75	-1.	0.	113.62
5198	4.5	-0.75	0.	114.77
5199	5.25	-1.	0.	111.19
5200	5.	-0.75	0.	113.41
5201	5.5	-0.75	0.	110.11
5202	4.75	-0.5	0.	114.59
5203	5.25	-0.5	0.	112.35
5204	5.	-5.	0.	95.628
5205	4.	-5.	0.	98.75
5206	5.	-7.	0.	93.792
5207	4.	-7.	0.	94.418
5208	4.5	-5.	0.	112.74
5209	5.	-5.5	0.	99.068
5210	5.	-6.	0.	97.054
5211	5.	-6.5	0.	97.471
5212	4.	-5.5	0.	101.17
5213	4.	-6.	0.	98.983
5214	4.	-6.5	0.	99.309
5215	4.5	-7.	0.	107.9
5216	4.5	-5.5	0.	105.29
5217	4.5	-6.	0.	101.65
5218	4.5	-6.5	0.	102.9
5219	4.75	-5.	0.	104.07
5220	5.	-5.25	0.	97.326
5221	4.25	-5.	0.	105.68
5222	4.	-5.25	0.	99.959
5223	5.	-6.75	0.	95.631
5224	4.75	-7.	0.	100.81
5225	4.	-6.75	0.	96.859
5226	4.25	-7.	0.	101.1
5227	4.5	-5.25	0.	108.97
5228	5.	-5.75	0.	98.011
5229	4.75	-5.5	0.	102.1
5230	5.	-6.25	0.	97.209
5231	4.75	-6.	0.	99.349
5232	4.75	-6.5	0.	100.14
5233	4.	-5.75	0.	100.03
5234	4.25	-5.5	0.	103.14
5235	4.	-6.25	0.	99.104
5236	4.25	-6.	0.	100.31
5237	4.25	-6.5	0.	101.07
5238	4.5	-6.75	0.	105.35
5239	4.5	-5.75	0.	103.46
5240	4.5	-6.25	0.	102.28
5241	-7.13	0.36	0.	70.81
5242	-5.31	1.12	0.	83.804
5243	-6.87	2.32	0.	89.73
5244	-6.675	0.55	0.	104.46
5245	-6.22	0.74	0.	103.69
5246	-5.765	0.93	0.	113.33
5247	-7.065	0.85	0.	99.571
5248	-7.	1.34	0.	96.298
5249	-6.935	1.83	0.	97.91
5250	-5.7	1.42	0.	107.3
5251	-6.09	1.72	0.	102.46
5252	-6.48	2.02	0.	97.038
5253	-6.6692	1.2603	0.	99.847
5254	-6.5405	1.618	0.	99.464
5255	-6.102	1.3338	0.	105.11
5256	-6.3913	1.0575	0.	102.69
5257	-6.7206	0.89948	0.	96.74
5258	-6.9025	0.455	0.	86.845
5259	-7.0975	0.605	0.	84.518
5260	-5.5375	1.025	0.	95.508
5261	-5.505	1.27	0.	92.232
5262	-6.9025	2.075	0.	92.235
5263	-6.675	2.17	0.	91.886
5264	-6.4475	0.645	0.	104.05
5265	-6.6978	0.72474	0.	100.55
5266	-5.9925	0.835	0.	108.48
5267	-6.3057	0.89876	0.	103.19
5268	-5.9335	1.1319	0.	109.02
5269	-7.0325	1.095	0.	97.921
5270	-6.8928	0.87474	0.	98.146
5271	-6.9675	1.585	0.	97.037
5272	-6.8346	1.3002	0.	98.069
5273	-6.7378	1.724	0.	98.633
5274	-5.895	1.57	0.	104.81
5275	-5.901	1.3769	0.	106.03
5276	-6.285	1.87	0.	99.745
5277	-6.096	1.5269	0.	103.76
5278	-6.5103	1.819	0.	98.201
5279	-6.6048	1.4392	0.	99.654
5280	-6.5302	1.1589	0.	101.25
5281	-6.6949	1.0799	0.	98.28
5282	-6.3213	1.4759	0.	102.23
5283	-6.2467	1.1957	0.	103.83
5284	-6.556	0.9785	0.	99.702
5285	-7.43	6.64	0.	65.056
5286	-6.55	4.93	0.	104.64
5287	-5.51	6.54	0.	71.019
5288	-7.21	6.2125	0.	101.98
5289	-6.99	5.785	0.	100.3
5290	-6.77	5.3575	0.	96.096
5291	-6.95	6.615	0.	115.63
5292	-6.47	6.59	0.	107.55
5293	-5.99	6.565	0.	117.22
5294	-6.29	5.3325	0.	95.323
5295	-6.03	5.735	0.	101.71
5296	-5.77	6.1375	0.	105.83
5297	-6.1668	6.0858	0.	103.47
5298	-6.8747	6.28	0.	102.42
5299	-6.5221	6.2447	0.	106.64
5300	-6.4756	5.6799	0.	102.99
5301	-6.7102	5.9666	0.	102.67
5302	-7.32	6.4262	0.	82.879
5303	-7.19	6.6275	0.	89.706
5304	-6.66	5.1438	0.	99.044
5305	-6.42	5.1312	0.	98.712
5306	-5.75	6.5525	0.	92.825
5307	-5.64	6.3387	0.	87.117
5308	-7.1	5.9988	0.	101.13
5309	-7.0424	6.2462	0.	102.16
5310	-6.88	5.5712	0.	98.135
5311	-6.8501	5.8758	0.	101.47
5312	-6.6228	5.5187	0.	99.53
5313	-6.71	6.6025	0.	111.59
5314	-6.9124	6.4475	0.	108.97
5315	-6.23	6.5775	0.	112.38
5316	-6.4961	6.4174	0.	107.1
5317	-6.0784	6.3254	0.	110.3
5318	-6.16	5.5338	0.	98.494
5319	-6.3828	5.5062	0.	99.155
5320	-5.9	5.9363	0.	103.75
5321	-6.0984	5.9104	0.	102.58
5322	-5.9684	6.1116	0.	104.6
5323	-6.3445	6.1653	0.	104.99
5324	-6.3212	5.8828	0.	103.17
5325	-6.6984	6.2624	0.	104.47
5326	-6.7925	6.1233	0.	102.49
5327	-6.6162	6.1057	0.	104.65
5328	-6.5929	5.8232	0.	102.83
5329	-8.01	-7.93	0.	64.392
5330	-7.17	-8.53	0.	89.496
5331	-7.07	-7.5	0.	71.276
5332	-7.59	-8.23	0.	89.266
5333	-7.54	-7.715	0.	103.63
5334	-7.12	-8.015	0.	99.788
5335	-7.4167	-7.9867	0.	100.41
5336	-7.8	-8.08	0.	71.386
5337	-7.775	-7.8225	0.	78.857
5338	-7.38	-8.38	0.	87.777
5339	-7.145	-8.2725	0.	92.914
5340	-7.305	-7.6075	0.	85.906
5341	-7.095	-7.7575	0.	84.604
5342	-7.5034	-8.1083	0.	93.863
5343	-7.4784	-7.8508	0.	101.24
5344	-7.2684	-8.0008	0.	100.05
5345	-0.48	8.65	0.	102.51
5346	-1.62	7.56	0.	72.946
5347	-0.11	7.12	0.	63.67
5348	-0.86	8.2867	0.	94.251
5349	-1.24	7.9233	0.	98.914
5350	-0.35667	8.14	0.	99.047
5351	-0.23333	7.63	0.	101.56
5352	-1.1167	7.4133	0.	111.43
5353	-0.61333	7.2667	0.	110.21
5354	-0.6773	7.9786	0.	102.56
5355	-0.59177	7.6248	0.	100.35
5356	-0.94091	7.7266	0.	104.67
5357	-0.67	8.4683	0.	96.827
5358	-0.41833	8.395	0.	98.59
5359	-1.43	7.7417	0.	82.53
5360	-1.3683	7.4867	0.	88.745
5361	-0.17167	7.375	0.	82.309
5362	-0.36167	7.1933	0.	86.433
5363	-1.05	8.105	0.	96.515
5364	-0.76865	8.1326	0.	98.39
5365	-1.0905	7.825	0.	101.51
5366	-0.295	7.885	0.	100.11
5367	-0.51698	8.0593	0.	100.65
5368	-0.41255	7.6274	0.	100.95
5369	-0.865	7.34	0.	110.72
5370	-1.0288	7.57	0.	107.66
5371	-0.60255	7.4458	0.	105.26
5372	-0.63454	7.8017	0.	101.44
5373	-0.80911	7.8526	0.	103.52
5374	-0.76634	7.6757	0.	102.42
5375	-1.55	1.91	0.	84.085
5376	-1.55	3.e-002	0.	85.996
5377	7.e-002	0.97	0.	86.437
5378	-1.55	1.44	0.	103.54
5379	-1.55	0.97	0.	98.718
5380	-1.55	0.5	0.	102.19
5381	-1.145	1.675	0.	109.42
5382	-0.74	1.44	0.	108.36
5383	-0.335	1.205	0.	115.33
5384	-1.145	0.265	0.	104.21
5385	-0.74	0.5	0.	109.95
5386	-0.335	0.735	0.	115.51
5387	-1.146	1.3196	0.	103.52
5388	-0.62976	1.0251	0.	110.73
5389	-1.0562	0.84237	0.	105.43
5390	-1.55	1.675	0.	92.947
5391	-1.3475	1.7925	0.	95.74
5392	-1.55	0.265	0.	93.367
5393	-1.3475	0.1475	0.	94.307
5394	-0.1325	1.0875	0.	98.607
5395	-0.1325	0.8525	0.	98.889
5396	-1.55	1.205	0.	101.04
5397	-1.348	1.3798	0.	103.48
5398	-1.55	0.735	0.	100.44
5399	-1.3031	0.90618	0.	102.06
5400	-1.3475	0.3825	0.	103.18
5401	-0.9425	1.5575	0.	108.86
5402	-1.1455	1.4973	0.	106.37
5403	-0.5375	1.3225	0.	111.77
5404	-0.94301	1.3798	0.	105.92
5405	-0.68488	1.2325	0.	109.52
5406	-0.48238	1.115	0.	112.85
5407	-0.9425	0.3825	0.	107.07
5408	-1.1006	0.55368	0.	104.78
5409	-0.5375	0.6175	0.	112.69
5410	-0.8981	0.67118	0.	107.68
5411	-0.48238	0.88004	0.	112.98
5412	-1.1011	1.081	0.	104.47
5413	-0.84298	0.93372	0.	108.05
5414	0.79	4.78	0.	75.747
5415	0.74	5.79	0.	87.332
5416	-0.1	5.25	0.	61.714
5417	0.765	5.285	0.	104.55
5418	0.345	5.015	0.	100.17
5419	0.32	5.52	0.	91.96
5420	0.47639	5.2735	0.	103.27
5421	0.7775	5.0325	0.	88.541
5422	0.5675	4.8975	0.	85.833
5423	0.7525	5.5375	0.	93.745
5424	0.53	5.655	0.	87.694
5425	0.1225	5.1325	0.	74.762
5426	0.11	5.385	0.	70.402
5427	0.62069	5.2793	0.	103.88
5428	0.41069	5.1443	0.	100.73
5429	0.39819	5.3968	0.	96.548
5430	5.25	8.04	0.	56.9
5431	5.96	7.18	0.	105.09
5432	6.34	8.22	0.	57.971
5433	5.605	7.61	0.	83.647
5434	5.795	8.13	0.	118.86
5435	6.15	7.7	0.	94.437
5436	5.8502	7.8136	0.	102.39
5437	5.4275	7.825	0.	67.084
5438	5.5225	8.085	0.	85.515
5439	5.7825	7.395	0.	93.814
5440	6.055	7.44	0.	98.122
5441	6.0675	8.175	0.	88.335
5442	6.245	7.96	0.	75.971
5443	5.7276	7.7118	0.	92.49
5444	5.8226	7.9718	0.	110.45
5445	6.0001	7.7568	0.	98.109
5446	6.67	2.6	0.	50.606
5447	5.49	2.72	0.	45.117
5448	5.97	1.64	0.	106.82
5449	6.2767	2.64	0.	109.75
5450	5.8833	2.68	0.	107.78
5451	6.4367	2.28	0.	87.873
5452	6.2033	1.96	0.	85.377
5453	5.65	2.36	0.	90.803
5454	5.81	2.	0.	90.319
5455	5.9152	2.4131	0.	95.525
5456	6.0257	2.1628	0.	96.448
5457	6.1879	2.3852	0.	97.548
5458	6.4733	2.62	0.	76.78
5459	6.5533	2.44	0.	65.53
5460	5.6867	2.7	0.	76.271
5461	5.57	2.54	0.	67.604
5462	6.0867	1.8	0.	94.441
5463	5.89	1.82	0.	96.21
5464	6.08	2.66	0.	108.66
5465	6.2323	2.5126	0.	103.35
5466	5.8993	2.5465	0.	101.62
5467	6.32	2.12	0.	86.494
5468	6.3123	2.3326	0.	92.433
5469	6.1145	2.0614	0.	90.87
5470	5.73	2.18	0.	90.387
5471	5.7826	2.3865	0.	93.028
5472	5.9179	2.0814	0.	93.177
5473	5.9704	2.288	0.	95.888
5474	6.0515	2.3991	0.	96.395
5475	6.1068	2.274	0.	96.844
5476	5.19	-3.85	0.	59.622
5477	6.73	-3.93	0.	58.025
5478	6.02	-2.55	0.	107.39
5479	5.7033	-3.8767	0.	112.85
5480	6.2167	-3.9033	0.	114.58
5481	5.4667	-3.4167	0.	95.219
5482	5.7433	-2.9833	0.	89.753
5483	6.4933	-3.47	0.	99.06
5484	6.2567	-3.01	0.	92.553
5485	5.9892	-3.2368	0.	100.83
5486	6.1534	-3.5559	0.	100.59
5487	5.7974	-3.5373	0.	100.58
5488	5.4467	-3.8633	0.	84.435
5489	5.3283	-3.6333	0.	75.671
5490	6.4733	-3.9167	0.	85.623
5491	6.6117	-3.7	0.	77.887
5492	5.8817	-2.7667	0.	97.288
5493	6.1383	-2.78	0.	98.466
5494	5.96	-3.89	0.	113.63
5495	5.7504	-3.707	0.	106.54
5496	6.1851	-3.7296	0.	107.51
5497	5.605	-3.2	0.	92.349
5498	5.632	-3.477	0.	97.755
5499	5.8663	-3.11	0.	95.264
5500	6.375	-3.24	0.	95.68
5501	6.3234	-3.5129	0.	99.757
5502	6.123	-3.1234	0.	96.636
5503	6.0713	-3.3963	0.	100.65
5504	5.8933	-3.3871	0.	100.61
5505	5.9754	-3.5466	0.	100.44
5506	-6.	-1.	0.	94.41
5507	-8.	-1.	0.	101.3
5508	-6.	-2.	0.	95.581
5509	-8.	-2.	0.	98.902
5510	-6.5	-1.	0.	108.72
5511	-7.	-1.	0.	109.46
5512	-7.5	-1.	0.	114.8
5513	-6.	-1.5	0.	99.68
5514	-8.	-1.5	0.	104.66
5515	-7.5	-2.	0.	113.74
5516	-7.	-2.	0.	110.61
5517	-6.5	-2.	0.	111.22
5518	-7.5	-1.5	0.	112.82
5519	-7.	-1.5	0.	113.26
5520	-6.5	-1.5	0.	109.01
5521	-6.25	-1.	0.	101.55
5522	-6.	-1.25	0.	97.031
5523	-7.75	-1.	0.	107.99
5524	-8.	-1.25	0.	102.96
5525	-6.	-1.75	0.	97.615
5526	-6.25	-2.	0.	103.34
5527	-8.	-1.75	0.	101.76
5528	-7.75	-2.	0.	106.27
5529	-6.75	-1.	0.	109.06
5530	-6.5	-1.25	0.	108.85
5531	-7.25	-1.	0.	112.13
5532	-7.	-1.25	0.	111.35
5533	-7.5	-1.25	0.	113.79
5534	-6.25	-1.5	0.	104.33
5535	-7.75	-1.5	0.	108.73
5536	-7.25	-2.	0.	112.17
5537	-7.5	-1.75	0.	113.25
5538	-6.75	-2.	0.	110.91
5539	-7.	-1.75	0.	111.93
5540	-6.5	-1.75	0.	110.1
5541	-7.25	-1.5	0.	113.04
5542	-6.75	-1.5	0.	111.13
