Node Number	X Location (mm)	Y Location (mm)	Z Location (mm)	Equivalent (von-Mises) Stress (MPa)
1	7.05	0.91	0.	170.19
2	8.94	1.36	0.	175.51
3	7.6	2.77	0.	119.81
4	4.48	1.72	0.	151.79
5	5.75	1.22	0.	146.17
6	5.55	2.57	0.	132.55
7	0.29	-7.77	0.	154.57
8	1.36	-8.38	0.	135.14
9	1.35	-7.15	0.	142.56
10	-1.51	6.22	0.	163.9
11	-0.44	6.48	0.	170.72
12	-1.21	7.27	0.	114.52
13	-7.14	-0.11	0.	153.09
14	-5.76	-0.75	0.	145.42
15	-5.89	0.76	0.	135.68
16	-6.26	-3.15	0.	107.38
17	-5.6	-1.85	0.	165.05
18	-7.06	-1.93	0.	168.79
19	4.	0.	0.	139.46
20	4.	-1.	0.	138.02
21	6.	0.	0.	139.37
22	6.	-1.	0.	135.82
23	0.	3.	0.	135.08
24	0.	1.	0.	134.11
25	2.	3.	0.	136.92
26	2.	1.	0.	136.58
27	-6.	9.	0.	135.45
28	-6.	7.	0.	131.81
29	-5.	9.	0.	136.2
30	-5.	7.	0.	131.45
31	10.	10.	0.	125.
32	-10.	10.	0.	125.02
33	10.	-10.	0.	125.52
34	-10.	-10.	0.	125.74
35	7.5225	1.0225	0.	113.73
36	7.995	1.135	0.	119.48
37	8.4675	1.2475	0.	111.53
38	7.1875	1.375	0.	138.37
39	7.325	1.84	0.	136.79
40	7.4625	2.305	0.	131.36
41	8.605	1.7125	0.	92.313
42	8.27	2.065	0.	109.53
43	7.935	2.4175	0.	94.082
44	4.9033	1.5533	0.	91.734
45	5.3267	1.3867	0.	96.79
46	4.8367	2.0033	0.	76.91
47	5.1933	2.2867	0.	87.38
48	5.6837	1.6675	0.	141.28
49	5.6171	2.1169	0.	139.61
50	0.64667	-7.9733	0.	82.026
51	1.0033	-8.1767	0.	88.152
52	0.64337	-7.5633	0.	72.874
53	0.99668	-7.3567	0.	92.766
54	1.3567	-7.97	0.	142.4
55	1.3533	-7.56	0.	142.43
56	-0.975	6.35	0.	100.46
57	-1.36	6.745	0.	131.59
58	-0.825	6.875	0.	62.473
59	-6.68	-0.32333	0.	83.595
60	-6.22	-0.53667	0.	92.181
61	-6.7233	0.18	0.	76.242
62	-6.3067	0.47	0.	88.753
63	-5.8033	-0.24667	0.	140.82
64	-5.8467	0.25667	0.	139.15
65	-6.04	-2.7167	0.	110.97
66	-5.82	-2.2833	0.	119.81
67	-6.5267	-2.7433	0.	96.517
68	-6.7933	-2.3367	0.	105.21
69	-6.0867	-1.8767	0.	105.3
70	-6.5733	-1.9033	0.	99.124
71	4.	-0.5	0.	147.39
72	4.5	0.	0.	118.35
73	5.	0.	0.	118.87
74	5.5	0.	0.	115.93
75	4.5	-1.	0.	118.26
76	5.	-1.	0.	122.78
77	5.5	-1.	0.	117.9
78	6.	-0.5	0.	147.01
79	0.	2.5	0.	143.53
80	0.	2.	0.	144.59
81	0.	1.5	0.	143.26
82	0.5	3.	0.	113.99
83	1.	3.	0.	118.85
84	1.5	3.	0.	114.71
85	0.5	1.	0.	112.86
86	1.	1.	0.	117.41
87	1.5	1.	0.	113.41
88	2.	2.5	0.	145.07
89	2.	2.	0.	145.62
90	2.	1.5	0.	145.02
91	-6.	8.5	0.	142.91
92	-6.	8.	0.	142.42
93	-6.	7.5	0.	141.3
94	-5.5	9.	0.	111.62
95	-5.5	7.	0.	107.38
96	-5.	8.5	0.	143.15
97	-5.	8.	0.	142.56
98	-5.	7.5	0.	141.38
99	9.5	10.	0.	125.
100	9.	10.	0.	124.98
101	8.5	10.	0.	124.93
102	8.	10.	0.	124.86
103	7.5	10.	0.	124.79
104	7.	10.	0.	124.73
105	6.5	10.	0.	124.7
106	6.	10.	0.	124.69
107	5.5	10.	0.	124.7
108	5.	10.	0.	124.74
109	4.5	10.	0.	124.8
110	4.	10.	0.	124.88
111	3.5	10.	0.	124.98
112	3.	10.	0.	125.08
113	2.5	10.	0.	125.19
114	2.	10.	0.	125.25
115	1.5	10.	0.	125.21
116	1.	10.	0.	124.99
117	0.5	10.	0.	124.56
118	-5.2042e-015	10.	0.	123.99
119	-0.5	10.	0.	123.54
120	-1.	10.	0.	123.53
121	-1.5	10.	0.	124.1
122	-2.	10.	0.	125.15
123	-2.5	10.	0.	126.38
124	-3.	10.	0.	127.56
125	-3.5	10.	0.	128.46
126	-4.	10.	0.	128.91
127	-4.5	10.	0.	126.77
128	-5.	10.	0.	121.19
129	-5.5	10.	0.	118.79
130	-6.	10.	0.	120.8
131	-6.5	10.	0.	125.96
132	-7.	10.	0.	127.85
133	-7.5	10.	0.	127.38
134	-8.	10.	0.	126.67
135	-8.5	10.	0.	125.98
136	-9.	10.	0.	125.43
137	-9.5	10.	0.	125.08
138	10.	9.5	0.	124.99
139	10.	9.	0.	125.04
140	10.	8.5	0.	125.15
141	10.	8.	0.	125.34
142	10.	7.5	0.	125.59
143	10.	7.	0.	125.93
144	10.	6.5	0.	126.38
145	10.	6.	0.	126.97
146	10.	5.5	0.	127.78
147	10.	5.	0.	128.87
148	10.	4.5	0.	130.25
149	10.	4.	0.	131.78
150	10.	3.5	0.	132.89
151	10.	3.	0.	132.64
152	10.	2.5	0.	129.24
153	10.	2.	0.	122.5
154	10.	1.5	0.	118.36
155	10.	1.	0.	125.96
156	10.	0.5	0.	134.28
157	10.	-5.2042e-015	0.	135.42
158	10.	-0.5	0.	133.25
159	10.	-1.	0.	131.18
160	10.	-1.5	0.	129.77
161	10.	-2.	0.	128.98
162	10.	-2.5	0.	128.56
163	10.	-3.	0.	128.29
164	10.	-3.5	0.	128.06
165	10.	-4.	0.	127.81
166	10.	-4.5	0.	127.52
167	10.	-5.	0.	127.22
168	10.	-5.5	0.	126.91
169	10.	-6.	0.	126.62
170	10.	-6.5	0.	126.36
171	10.	-7.	0.	126.13
172	10.	-7.5	0.	125.94
173	10.	-8.	0.	125.78
174	10.	-8.5	0.	125.67
175	10.	-9.	0.	125.58
176	10.	-9.5	0.	125.54
177	-10.	9.5	0.	124.87
178	-10.	9.	0.	124.26
179	-10.	8.5	0.	123.58
180	-10.	8.	0.	123.19
181	-10.	7.5	0.	123.19
182	-10.	7.	0.	123.56
183	-10.	6.5	0.	124.16
184	-10.	6.	0.	124.85
185	-10.	5.5	0.	125.52
186	-10.	5.	0.	126.14
187	-10.	4.5	0.	126.7
188	-10.	4.	0.	127.22
189	-10.	3.5	0.	127.71
190	-10.	3.	0.	128.13
191	-10.	2.5	0.	128.35
192	-10.	2.	0.	128.24
193	-10.	1.5	0.	127.67
194	-10.	1.	0.	126.69
195	-10.	0.5	0.	125.61
196	-10.	-5.2042e-015	0.	124.9
197	-10.	-0.5	0.	124.71
198	-10.	-1.	0.	124.82
199	-10.	-1.5	0.	124.92
200	-10.	-2.	0.	125.07
201	-10.	-2.5	0.	125.57
202	-10.	-3.	0.	126.48
203	-10.	-3.5	0.	127.53
204	-10.	-4.	0.	128.34
205	-10.	-4.5	0.	128.71
206	-10.	-5.	0.	128.66
207	-10.	-5.5	0.	128.33
208	-10.	-6.	0.	127.87
209	-10.	-6.5	0.	127.38
210	-10.	-7.	0.	126.93
211	-10.	-7.5	0.	126.55
212	-10.	-8.	0.	126.25
213	-10.	-8.5	0.	126.02
214	-10.	-9.	0.	125.86
215	-10.	-9.5	0.	125.77
216	-9.5	-10.	0.	125.71
217	-9.	-10.	0.	125.57
218	-8.5	-10.	0.	125.37
219	-8.	-10.	0.	125.13
220	-7.5	-10.	0.	124.92
221	-7.	-10.	0.	124.75
222	-6.5	-10.	0.	124.65
223	-6.	-10.	0.	124.64
224	-5.5	-10.	0.	124.71
225	-5.	-10.	0.	124.88
226	-4.5	-10.	0.	125.13
227	-4.	-10.	0.	125.45
228	-3.5	-10.	0.	125.86
229	-3.	-10.	0.	126.34
230	-2.5	-10.	0.	126.92
231	-2.	-10.	0.	127.56
232	-1.5	-10.	0.	128.11
233	-1.	-10.	0.	128.14
234	-0.5	-10.	0.	126.77
235	5.2042e-015	-10.	0.	123.16
236	0.5	-10.	0.	118.41
237	1.	-10.	0.	116.37
238	1.5	-10.	0.	119.08
239	2.	-10.	0.	124.1
240	2.5	-10.	0.	127.32
241	3.	-10.	0.	127.94
242	3.5	-10.	0.	127.48
243	4.	-10.	0.	126.81
244	4.5	-10.	0.	126.23
245	5.	-10.	0.	125.81
246	5.5	-10.	0.	125.54
247	6.	-10.	0.	125.4
248	6.5	-10.	0.	125.34
249	7.	-10.	0.	125.35
250	7.5	-10.	0.	125.41
251	8.	-10.	0.	125.48
252	8.5	-10.	0.	125.54
253	9.	-10.	0.	125.58
254	9.5	-10.	0.	125.58
255	-1.5667	-4.7191	0.	127.09
256	-2.665	-4.7216	0.	127.83
257	-1.9973	-4.9142	0.	127.51
258	-1.1177	-4.6325	0.	126.47
259	0.4043	-3.4106	0.	123.79
260	-1.616	-2.8616	0.	126.25
261	-2.9437	-5.1832	0.	127.66
262	4.8076	-5.0013	0.	124.26
263	-0.61961	-3.3413	0.	124.95
264	-0.10604	-3.3748	0.	124.25
265	-1.6811	-3.7897	0.	126.71
266	-1.6489	-3.326	0.	126.45
267	-0.66513	-4.6539	0.	125.68
268	-2.375	-5.1653	0.	127.64
269	0.91062	-3.4337	0.	123.69
270	4.3248	-4.806	0.	124.46
271	-1.102	-2.8738	0.	125.52
272	0.43897	-2.9423	0.	123.62
273	-2.212	-4.3873	0.	127.53
274	-2.6291	-2.8588	0.	127.34
275	-1.0701	-5.0857	0.	126.79
276	-1.4551	-5.1907	0.	127.29
277	4.9039	-4.4667	0.	123.82
278	-0.20995	-4.7454	0.	124.67
279	-3.3635	-5.158	0.	127.59
280	4.8718	-5.5385	0.	124.49
281	4.3074	-5.196	0.	124.7
282	5.4168	-4.4948	0.	123.79
283	0.97459	-2.4844	0.	123.31
284	1.4503	-2.9648	0.	124.12
285	-7.4243e-002	-2.9135	0.	124.03
286	-2.1829	-3.831	0.	127.3
287	-2.1503	-3.3379	0.	127.06
288	5.3836	-5.0026	0.	124.13
289	5.3969	-5.5108	0.	124.36
290	-4.3472	-5.6196	0.	126.07
291	-3.4422	-5.615	0.	127.07
292	-0.27795	-5.2161	0.	125.12
293	0.86769	-3.9003	0.	123.52
294	-1.8453	-5.4142	0.	127.55
295	-2.1129	-2.3829	0.	126.8
296	4.3956	-4.3861	0.	124.09
297	-1.0729	-2.4107	0.	125.39
298	0.46547	-2.4667	0.	123.23
299	-2.7189	-4.2635	0.	127.88
300	4.4576	5.5633	0.	125.7
301	2.8557	-4.3207	0.	125.03
302	0.2718	-4.8293	0.	123.39
303	-4.5947	3.5655	0.	125.22
304	4.9479	-3.9656	0.	123.28
305	-1.5633	-1.9233	0.	126.26
306	-3.2456	-4.7096	0.	127.99
307	-3.0932	-2.8944	0.	127.71
308	4.3535	-5.6193	0.	124.81
309	3.8153	-5.2197	0.	125.14
310	3.33	-4.7731	0.	125.18
311	-3.5421	2.8579	0.	127.47
312	5.4504	-3.9889	0.	123.34
313	5.9372	-4.5008	0.	124.04
314	-3.826	-5.1557	0.	127.34
315	-4.8034	-5.6103	0.	125.19
316	0.98885	-1.9951	0.	122.62
317	1.4752	-2.4842	0.	123.98
318	-5.7239	-6.0439	0.	123.4
319	-2.5763	-5.9018	0.	127.22
320	-2.0877	-1.916	0.	126.87
321	-2.0498	-1.4475	0.	127.07
322	3.8816	-4.3423	0.	124.57
323	-5.0593e-002	-2.441	0.	123.7
324	-2.6785	-3.8095	0.	127.77
325	-2.6463	-3.3357	0.	127.55
326	5.9761	6.0887	0.	124.39
327	4.8995	-6.0407	0.	124.56
328	5.923	-5.0025	0.	124.27
329	5.924	-5.5044	0.	124.44
330	5.4709	6.08	0.	124.63
331	4.4709	6.0452	0.	125.34
332	-4.8461	-6.0803	0.	124.84
333	-5.2881	-6.063	0.	124.08
334	-4.3829	-6.0877	0.	125.57
335	-3.4527	-6.0764	0.	126.58
336	-0.44248	-5.6667	0.	126.38
337	-3.5366	3.8849	0.	128.14
338	2.3403	-4.33	0.	124.63
339	0.81643	-4.3745	0.	123.14
340	-1.3258	-5.6086	0.	127.52
341	-2.6521	-2.3915	0.	127.28
342	-5.0655	3.5821	0.	123.75
343	-5.5355	4.0508	0.	122.55
344	-4.0468	3.9179	0.	126.86
345	2.8921	-3.8687	0.	125.14
346	4.4355	-3.9234	0.	123.66
347	2.9826	6.0065	0.	125.6
348	-1.0462	-1.9393	0.	125.4
349	0.48289	-1.9828	0.	122.59
350	-3.2115	-4.2542	0.	128.2
351	2.5056	6.5088	0.	124.54
352	-5.7642	-6.4817	0.	123.65
353	-2.4571	-6.4079	0.	126.79
354	4.3781	-6.086	0.	124.82
355	3.8312	-5.6697	0.	125.31
356	2.8153	-4.7758	0.	125.16
357	-3.5148	2.3517	0.	127.48
358	-4.5973	3.1583	0.	125.39
359	5.958	-3.9985	0.	123.78
360	6.4535	-4.5022	0.	124.48
361	4.9725	-3.4727	0.	122.57
362	3.471	5.5231	0.	126.73
363	-2.4945	1.916	0.	126.91
364	-2.9391	-0.49283	0.	127.72
365	-1.5377	-1.4502	0.	126.54
366	-3.76	-4.6997	0.	127.97
367	-5.2548	-5.5997	0.	124.11
368	5.9495	-6.5052	0.	124.62
369	5.9865	6.559	0.	124.39
370	6.486	6.0872	0.	124.19
371	6.4721	5.6229	0.	124.22
372	-6.1531	-6.4756	0.	123.43
373	-4.2982	-5.1527	0.	126.78
374	-3.5159	4.3971	0.	128.78
375	-2.0088	-0.96904	0.	127.4
376	4.4281	4.5977	0.	126.25
377	1.947	-2.9505	0.	124.93
378	3.309	-5.2343	0.	125.54
379	0.99508	-1.5006	0.	121.5
380	1.4892	-1.9958	0.	123.49
381	0.17926	-5.3324	0.	123.33
382	-6.1477	-6.0447	0.	123.01
383	1.826	-4.3521	0.	123.91
384	1.3109	-4.3817	0.	123.26
385	-1.7163	-5.8638	0.	127.57
386	-2.0571	-6.1494	0.	127.26
387	-2.6209	-1.9193	0.	127.33
388	-2.5698	-1.4464	0.	127.46
389	-2.9728	1.3998	0.	127.16
390	-5.549	3.5761	0.	122.44
391	-6.0385	3.5598	0.	121.66
392	-6.5247	4.0303	0.	122.24
393	-5.0411	4.0418	0.	123.72
394	-4.5437	4.0025	0.	125.3
395	3.4075	-3.8723	0.	124.95
396	3.9211	-3.89	0.	124.34
397	1.9481	5.9759	0.	124.32
398	-2.9511	0.92236	0.	127.2
399	-2.9246	0.4451	0.	127.31
400	-0.53479	-1.9527	0.	124.33
401	-3.177	-3.7942	0.	128.19
402	-3.1259	-3.3429	0.	127.97
403	5.436	-6.5142	0.	124.53
404	4.9199	-6.5335	0.	124.54
405	6.4465	-5.0022	0.	124.57
406	6.4474	-5.5019	0.	124.66
407	4.981	6.54	0.	124.8
408	5.4824	6.5516	0.	124.58
409	4.4827	6.5305	0.	125.03
410	2.9978	6.5087	0.	124.97
411	3.4918	6.5132	0.	125.2
412	-4.8884	-6.5524	0.	124.66
413	-3.9187	-6.5609	0.	125.75
414	-4.4081	-6.5599	0.	125.24
415	-2.9299	-6.4997	0.	126.46
416	-3.4225	-6.5419	0.	126.15
417	0.74909	-4.8772	0.	122.48
418	-2.2752	-6.9471	0.	126.21
419	-3.0069	-0.96735	0.	127.91
420	-3.4926	1.8538	0.	127.54
421	-6.5306	3.0431	0.	120.78
422	-5.5204	4.5291	0.	122.38
423	2.9253	-3.4046	0.	125.54
424	2.9763	5.5078	0.	126.6
425	-2.5078	2.4051	0.	127.13
426	-2.4766	1.4336	0.	126.97
427	-1.029	-1.4572	0.	125.64
428	4.9116	4.6412	0.	124.83
429	6.4594	-6.5017	0.	124.79
430	6.4926	6.559	0.	124.25
431	6.9908	5.5912	0.	123.93
432	6.439	5.1667	0.	124.47
433	1.501	5.7378	0.	124.2
434	-7.0191	4.0164	0.	122.92
435	-1.5099	-0.96943	0.	127.06
436	3.9434	4.5667	0.	128.07
437	3.4621	5.0323	0.	127.95
438	2.7908	-5.2365	0.	125.6
439	4.4146	4.1055	0.	126.26
440	0.99736	-1.0032	0.	119.89
441	1.5386	5.3083	0.	124.28
442	3.8768	-6.5945	0.	124.98
443	1.2368	-4.8652	0.	122.51
444	-1.4155	-6.2276	0.	127.66
445	-1.8144	-6.5851	0.	126.96
446	-3.0904	-1.443	0.	127.96
447	-3.4687	1.3616	0.	127.5
448	-6.0386	3.0748	0.	120.93
449	-6.5168	4.5224	0.	122.69
450	-4.5171	4.4817	0.	125.33
451	3.4375	-3.4118	0.	125.18
452	3.9482	-3.4247	0.	124.22
453	5.9792	-3.498	0.	123.53
454	6.4806	-3.5008	0.	124.49
455	2.4873	5.487	0.	125.93
456	2.0058	5.4372	0.	125.01
457	-2.5142	2.8967	0.	127.64
458	-2.4388	0.46972	0.	127.51
459	-1.0663e-002	-1.4839	0.	122.79
460	-3.67	-3.7818	0.	128.61
461	-3.6081	-3.3262	0.	128.39
462	-6.1474	-5.6096	0.	122.44
463	5.887	4.724	0.	124.81
464	4.4233	-7.0447	0.	124.48
465	3.9021	-7.0718	0.	124.53
466	5.4513	-7.0115	0.	124.56
467	4.9387	-7.0254	0.	124.5
468	6.4672	-7.0016	0.	124.85
469	5.9598	-7.0049	0.	124.68
470	6.9987	6.5495	0.	124.18
471	6.9964	6.0681	0.	124.03
472	6.9616	5.1226	0.	124.01
473	6.9654	-6.0004	0.	124.99
474	6.969	-6.5003	0.	125.01
475	6.9616	-5.0017	0.	124.96
476	6.9635	-5.501	0.	124.97
477	6.9753	-4.0023	0.	125.06
478	6.9662	-4.5024	0.	124.98
479	5.9927	7.0398	0.	124.43
480	6.4959	7.0402	0.	124.35
481	4.99	7.0253	0.	124.7
482	5.4904	7.0327	0.	124.56
483	3.9956	7.0144	0.	124.89
484	4.4916	7.0202	0.	124.83
485	3.5015	7.0114	0.	124.85
486	2.0457	7.0424	0.	124.17
487	2.524	7.0196	0.	124.42
488	1.1059	7.1167	0.	124.42
489	1.5165	6.1533	0.	123.79
490	1.5741	7.0839	0.	124.12
491	-7.0051	-5.8869	0.	123.24
492	-5.9765	-6.9216	0.	123.79
493	-6.5167	-6.9679	0.	123.77
494	-5.4402	-7.0008	0.	124.14
495	-4.4329	-7.0356	0.	125.04
496	-3.4077	-7.0153	0.	125.79
497	-7.0232	3.5154	0.	122.36
498	6.9836	-3.5019	0.	125.28
499	-7.0131	4.5141	0.	123.51
500	-4.7364	-4.6733	0.	126.73
501	-2.9988	4.8757	0.	130.86
502	-1.4856	-0.48511	0.	127.82
503	2.4716	-2.4642	0.	126.52
504	-4.5112	2.2523	0.	127.01
505	2.7873	-5.701	0.	126.35
506	1.4954	-1.0053	0.	121.23
507	-7.0199	-6.9613	0.	123.99
508	-7.0181	2.5012	0.	121.18
509	-6.9157	1.5083	0.	120.17
510	6.9742	-7.	0.	125.05
511	1.9887	-1.9925	0.	125.09
512	0.99794	-0.50378	0.	117.71
513	-1.4957	1.9655	0.	127.36
514	4.9968	-2.489	0.	120.24
515	-7.0922	-5.3454	0.	122.97
516	-5.2346	-5.1338	0.	124.29
517	-3.9721	-2.8294	0.	128.16
518	-4.2072	-4.2232	0.	128.52
519	-2.5014	4.3704	0.	130.08
520	-3.491	5.4043	0.	129.5
521	0.49764	-0.99868	0.	120.42
522	-1.0085	-0.97344	0.	126.23
523	-1.983	1.4581	0.	127.03
524	-2.0009	2.4313	0.	127.07
525	-1.9966	3.8927	0.	128.7
526	2.9782	5.0124	0.	128.
527	-5.5085	5.0145	0.	121.74
528	-7.0077	5.0109	0.	124.26
529	-3.9865	1.8179	0.	127.93
530	-3.8036	-2.3686	0.	127.91
531	3.3279	-6.1559	0.	126.02
532	3.3759	-7.1071	0.	124.66
533	3.3511	-6.6288	0.	125.56
534	1.7253	-5.2901	0.	123.14
535	-1.061	-6.5261	0.	128.06
536	-1.4701	-6.9505	0.	126.58
537	-3.7033	-1.9002	0.	128.48
538	-3.9334	0.85145	0.	127.58
539	-3.9578	1.3373	0.	128.02
540	-5.5339	2.6279	0.	121.91
541	-6.5097	5.0158	0.	123.13
542	-6.0104	5.0178	0.	121.97
543	-5.0055	5.0004	0.	123.06
544	3.4594	-2.9399	0.	125.81
545	3.9684	-2.9515	0.	124.29
546	5.9914	-2.9977	0.	123.36
547	6.4913	-2.9999	0.	124.81
548	2.5092	4.9892	0.	127.14
549	2.0429	4.9537	0.	125.54
550	-2.0012	3.4071	0.	128.31
551	-2.0024	2.9205	0.	127.68
552	-1.9675	0.97236	0.	127.53
553	-1.9539	0.48681	0.	127.98
554	-0.50435	-0.98385	0.	124.59
555	-3.4828	5.9043	0.	128.95
556	-1.9931	4.3796	0.	128.89
557	-1.4836	4.4024	0.	126.69
558	-4.1614	-3.7606	0.	129.05
559	-4.0897	-3.2962	0.	128.77
560	-5.7011	-5.1362	0.	122.61
561	-6.163	-5.1624	0.	121.6
562	5.8449	4.272	0.	125.03
563	1.9928	-1.4997	0.	124.61
564	3.9349	-7.5544	0.	124.29
565	5.4659	-7.5085	0.	124.64
566	6.4762	-7.5011	0.	124.92
567	7.5278	5.0327	0.	123.3
568	7.5089	5.5486	0.	123.7
569	7.5048	6.0448	0.	123.99
570	7.5023	7.0249	0.	124.42
571	-2.9209	7.3246	0.	127.29
572	-6.8942	1.0452	0.	120.31
573	4.9997	-1.9937	0.	118.47
574	-0.99555	1.9806	0.	129.33
575	-6.9901	1.9957	0.	120.55
576	-7.5133	4.0056	0.	123.82
577	-7.5058	5.006	0.	124.99
578	-1.4161	-7.5748	0.	125.18
579	-1.8717	-7.3754	0.	125.67
580	-2.408	-7.4704	0.	125.7
581	-2.9085	-7.4789	0.	125.69
582	-3.4233	-7.5016	0.	125.54
583	-3.9361	-7.5154	0.	125.28
584	-4.4496	-7.5186	0.	124.94
585	-4.9623	-7.5105	0.	124.59
586	-5.4744	-7.4898	0.	124.27
587	-5.9864	-7.462	0.	124.07
588	-6.4971	-7.4668	0.	124.05
589	-7.0043	-7.4691	0.	124.23
590	-7.5052	-7.471	0.	124.56
591	-7.5144	-6.9599	0.	124.41
592	-7.5229	-6.4426	0.	124.26
593	-7.5283	-5.9239	0.	124.15
594	-7.567	-5.4099	0.	124.26
595	-7.6045	-4.9052	0.	124.72
596	1.1161	6.6473	0.	123.42
597	0.61148	7.6005	0.	127.76
598	1.0886	7.5879	0.	125.91
599	2.0457	7.5409	0.	124.63
600	2.5288	7.5229	0.	124.57
601	3.0163	7.5144	0.	124.64
602	3.5071	7.5104	0.	124.71
603	4.0011	7.5108	0.	124.75
604	4.9957	7.5155	0.	124.65
605	5.4953	7.5196	0.	124.57
606	5.9963	7.5237	0.	124.5
607	6.4981	7.5257	0.	124.46
608	7.0001	7.5218	0.	124.48
609	7.5015	7.5168	0.	124.57
610	7.4935	-3.0025	0.	126.07
611	7.4819	-4.0023	0.	125.59
612	7.481	-6.9992	0.	125.27
613	0.14329	7.5986	0.	130.38
614	2.8041	-6.1734	0.	127.
615	2.8591	-7.6691	0.	123.64
616	-0.25738	-6.2978	0.	128.08
617	4.8771	3.6691	0.	122.06
618	-3.9299	-0.91167	0.	129.83
619	-4.4823	1.7785	0.	128.15
620	-6.4941	2.0463	0.	117.36
621	-7.5001	7.5005	0.	126.16
622	-7.004	5.5076	0.	125.37
623	-3.992	5.4368	0.	127.85
624	-5.5006	5.5054	0.	120.35
625	1.9941	-1.0063	0.	123.94
626	6.9972	-2.5015	0.	126.48
627	5.4971	-2.4946	0.	121.06
628	1.5909	4.4619	0.	122.69
629	2.9745	4.5201	0.	129.85
630	0.57039	4.6139	0.	122.52
631	-1.4699	3.0937e-003	0.	128.57
632	-1.4873	1.4756	0.	127.64
633	0.50043	-0.50023	0.	118.84
634	-0.99332	-0.48563	0.	127.33
635	-2.9911	5.3788	0.	131.1
636	-2.9497	6.8555	0.	126.87
637	-2.4959	4.8638	0.	131.51
638	-0.48283	4.9902	0.	122.99
639	-4.474	-2.8062	0.	128.32
640	-5.2153	-4.6661	0.	124.85
641	-7.1313	-4.8416	0.	122.82
642	6.8576	4.6727	0.	124.61
643	7.725	4.5342	0.	122.48
644	7.2985	4.5896	0.	123.41
645	3.074	2.1693	0.	130.31
646	3.0665	1.7838	0.	129.88
647	3.9123	3.1371	0.	131.12
648	-6.658	-4.76	0.	120.82
649	-6.1795	-4.6987	0.	120.16
650	-5.6975	-4.67	0.	122.15
651	-7.6608	-3.9372	0.	127.37
652	-4.59	-3.2717	0.	129.71
653	-7.704	1.4146	0.	127.85
654	0.69555	6.1809	0.	124.56
655	0.67096	6.6572	0.	123.15
656	1.5293e-002	5.069	0.	126.
657	0.53899	5.1952	0.	126.01
658	-1.4871	4.8849	0.	124.53
659	-2.9686	6.3702	0.	127.28
660	-2.9805	5.8757	0.	129.85
661	3.3953e-003	-0.4961	0.	122.15
662	-1.4684	0.49495	0.	128.81
663	-1.4899	3.4321	0.	128.62
664	-1.4951	2.944	0.	128.1
665	5.2007e-002	4.5573	0.	123.97
666	-0.4628	4.4942	0.	124.64
667	2.0409	4.4737	0.	125.96
668	3.447	3.5786	0.	132.22
669	7.5091	-1.5103	0.	125.23
670	7.5177	-1.0343	0.	123.33
671	5.9971	-2.4975	0.	123.46
672	6.497	-2.499	0.	125.64
673	3.9858	-2.4695	0.	124.69
674	2.4945	-1.5004	0.	127.26
675	-3.4548	6.9003	0.	127.38
676	-4.4941	5.4681	0.	125.41
677	-6.5045	5.5103	0.	123.82
678	-6.0037	5.5099	0.	121.44
679	-7.5006	6.5018	0.	127.02
680	-6.004	2.1008	0.	117.93
681	-4.4527	1.3013	0.	128.78
682	-4.1623	-1.3466	0.	131.4
683	5.8149	3.8244	0.	125.23
684	5.3472	3.7664	0.	121.48
685	-1.002	-7.1951	0.	126.35
686	1.1228	-5.8433	0.	118.91
687	2.828	-6.6483	0.	126.77
688	-7.3137	-2.9911	0.	128.15
689	-0.29395	7.5816	0.	127.46
690	-0.52632	5.4837	0.	121.94
691	-2.4604	6.8296	0.	125.07
692	1.4959	-7.3e-003	0.	117.83
693	-0.991	1.4871	0.	128.95
694	0.55945	4.0722	0.	119.3
695	3.0073	2.5917	0.	131.13
696	5.4997	-1.9965	0.	119.83
697	-7.0001	7.501	0.	127.86
698	-4.885	0.33032	0.	126.87
699	-4.851	-2.3336	0.	126.63
700	0.25546	-6.5067	0.	124.37
701	2.3207	-7.6003	0.	123.48
702	-4.3429	-0.92649	0.	132.01
703	2.2297	-8.0661	0.	124.42
704	2.6486	-8.1208	0.	124.45
705	3.0511	-8.1214	0.	124.4
706	3.4923	-8.0693	0.	124.4
707	3.9779	-8.0408	0.	124.54
708	4.4757	-8.0227	0.	124.65
709	4.977	-8.012	0.	124.73
710	5.4791	-8.0061	0.	124.81
711	5.9814	-8.0027	0.	124.9
712	6.4836	-8.0008	0.	125.01
713	6.9862	-7.9997	0.	125.15
714	7.4887	-7.9993	0.	125.3
715	8.0535	5.0423	0.	123.29
716	8.0207	5.536	0.	123.85
717	8.0101	6.0308	0.	124.21
718	-8.1618	-2.5771	0.	127.16
719	-8.1667	-3.029	0.	128.48
720	-8.1517	-3.4956	0.	128.88
721	-8.1283	-3.9707	0.	128.14
722	-8.1044	-4.4547	0.	126.99
723	-8.0802	-4.9464	0.	126.01
724	-8.0526	-5.4465	0.	125.38
725	-8.0289	-5.9511	0.	125.06
726	-8.017	-6.4593	0.	124.95
727	-8.0094	-6.9686	0.	124.95
728	-8.0037	-7.4765	0.	124.98
729	-7.5	8.0003	0.	125.73
730	-7.	8.0006	0.	128.23
731	-8.0447	1.9589	0.	126.93
732	-8.0191	2.4708	0.	125.58
733	-8.0139	2.9847	0.	124.87
734	-8.0111	3.4947	0.	124.63
735	-8.0088	3.9999	0.	124.7
736	-8.0062	4.5021	0.	124.97
737	-8.004	5.0026	0.	125.39
738	-8.0023	5.5022	0.	125.85
739	-8.0011	6.0016	0.	126.17
740	-8.0005	6.501	0.	126.14
741	-8.0002	7.0006	0.	125.73
742	-8.	8.0002	0.	124.73
743	-1.0034	-7.6629	0.	124.86
744	-1.9513	-7.9624	0.	125.49
745	-2.9445	-7.9793	0.	125.6
746	-3.4483	-7.994	0.	125.45
747	-5.9916	-7.9777	0.	124.28
748	-8.0004	-7.9827	0.	125.03
749	8.6488	2.6662	0.	125.74
750	0.10823	8.0725	0.	127.52
751	0.5869	8.0742	0.	127.69
752	1.5516	8.049	0.	125.6
753	2.0376	8.0332	0.	125.04
754	2.5256	8.0208	0.	124.79
755	3.5092	8.0102	0.	124.71
756	4.5005	8.0076	0.	124.7
757	7.501	8.0113	0.	124.68
758	8.0013	8.0074	0.	124.81
759	8.0316	0.31109	0.	116.38
760	8.0338	-0.56205	0.	120.05
761	8.0202	-1.0334	0.	122.28
762	8.0041	-2.0098	0.	125.51
763	7.9952	-3.003	0.	126.25
764	7.9879	-4.0018	0.	126.03
765	7.9852	-5.0008	0.	125.77
766	7.9872	-6.9992	0.	125.5
767	-7.1537	-4.3551	0.	123.18
768	-4.9933	-2.789	0.	129.68
769	-5.1983	-4.1939	0.	126.3
770	-2.7628	7.7861	0.	128.3
771	-2.2616	8.002	0.	128.82
772	0.15865	7.1218	0.	128.25
773	-1.0004	5.4112	0.	113.86
774	-2.4902	5.3592	0.	133.65
775	3.0085	1.3599	0.	131.76
776	0.5027	-4.5724e-004	0.	116.88
777	-0.98334	4.6244e-003	0.	128.98
778	-0.99547	2.4737	0.	128.91
779	-0.97294	3.9527	0.	128.25
780	1.5371	4.0021	0.	120.47
781	2.9694	4.0313	0.	132.11
782	7.0134	-0.58225	0.	125.54
783	4.4985	-1.9894	0.	120.65
784	2.9916	-1.9845	0.	129.17
785	1.9932	-0.51212	0.	123.67
786	2.4919	-0.51991	0.	127.69
787	2.993	-0.52459	0.	129.9
788	-3.9456	7.442	0.	128.34
789	-3.9846	5.9375	0.	128.45
790	-5.4965	6.0003	0.	117.45
791	-7.0019	6.0054	0.	127.
792	-4.9797	1.7317	0.	128.09
793	-7.7519	-2.5691	0.	127.03
794	4.8918	3.1778	0.	118.37
795	6.2576	3.3829	0.	132.32
796	0.55014	-5.994	0.	119.89
797	2.2768	-6.1851	0.	128.04
798	2.3354	-7.1295	0.	126.89
799	2.3116	-6.6568	0.	129.14
800	1.2216	-6.2868	0.	116.59
801	-0.52435	-7.2934	0.	128.06
802	-0.59296	-8.0891	0.	126.48
803	6.6589	2.8983	0.	134.17
804	5.803	3.4045	0.	125.25
805	-7.9971	-2.1228	0.	128.29
806	-4.7104	-1.4226	0.	136.06
807	-4.9154	0.79555	0.	129.
808	-4.9475	1.2638	0.	130.11
809	-5.9765	1.6117	0.	115.68
810	-4.7795	-0.99147	0.	136.64
811	-4.8256	-0.55459	0.	131.4
812	-7.0007	6.5033	0.	128.27
813	-6.5015	6.0064	0.	125.63
814	-5.9999	6.0049	0.	120.61
815	-4.9925	5.9886	0.	121.15
816	-4.4884	5.967	0.	126.52
817	-3.9653	6.9401	0.	128.84
818	3.4814	0.86423	0.	136.11
819	2.9882	-4.4089e-002	0.	133.61
820	2.9956	-1.4983	0.	130.3
821	3.4922	-1.9816	0.	129.47
822	3.9955	-1.9841	0.	125.57
823	5.9994	-1.9992	0.	124.02
824	6.5007	-2.0012	0.	127.6
825	7.0062	-1.5132	0.	127.98
826	2.9752	3.0621	0.	133.22
827	2.9675	3.5457	0.	133.72
828	2.0185	3.9927	0.	126.26
829	4.9771e-002	4.0377	0.	123.38
830	-0.46204	3.9943	0.	127.43
831	-0.98054	3.4613	0.	129.86
832	-0.99013	2.9677	0.	129.63
833	-0.98455	0.99348	0.	129.79
834	-0.9799	0.49899	0.	130.15
835	6.9121e-003	2.0857e-003	0.	122.41
836	1.9922	-1.5537e-002	0.	124.26
837	2.4891	-3.0362e-002	0.	130.41
838	2.9833	0.43073	0.	136.47
839	2.9881	0.90079	0.	135.32
840	-2.4649	6.3529	0.	128.23
841	-2.4817	5.8589	0.	131.77
842	-1.4923	5.3632	0.	122.88
843	-7.2614e-002	5.5682	0.	129.88
844	0.32914	5.6712	0.	130.03
845	0.27759	6.1408	0.	127.25
846	0.22829	6.635	0.	124.84
847	-0.36444	8.0462	0.	124.57
848	-0.82316	7.9578	0.	115.79
849	-1.3733	8.2186	0.	120.78
850	-1.8161	8.1381	0.	126.53
851	-7.635	-1.0528	0.	139.04
852	-7.1926	-1.035	0.	130.49
853	-7.2969	0.96214	0.	127.51
854	-8.1407	0.44511	0.	127.69
855	-5.173	-3.7197	0.	128.89
856	-5.1169	-3.2484	0.	129.34
857	-7.2387	-3.4233	0.	126.95
858	-7.1853	-3.8806	0.	125.37
859	-5.6964	-4.1924	0.	121.7
860	-6.6752	-4.2793	0.	119.13
861	3.9753	0.84606	0.	133.52
862	4.4602	0.82273	0.	121.55
863	3.5438	1.7535	0.	127.8
864	8.1078	3.5706	0.	118.98
865	7.6818	4.0865	0.	121.3
866	7.2354	4.1492	0.	123.96
867	6.7348	3.7742	0.	129.27
868	6.6997	3.3318	0.	133.68
869	2.1516	-8.5419	0.	129.26
870	2.6019	-8.5757	0.	127.
871	3.0579	-8.5791	0.	125.93
872	3.5245	-8.5549	0.	125.46
873	4.0038	-8.5319	0.	125.23
874	4.4943	-8.5177	0.	125.12
875	4.9905	-8.5094	0.	125.06
876	5.4893	-8.5045	0.	125.04
877	5.9895	-8.5019	0.	125.06
878	6.4899	-8.5006	0.	125.13
879	6.9909	-8.4998	0.	125.22
880	7.4923	-8.4994	0.	125.34
881	7.9938	-8.4992	0.	125.46
882	8.5865	3.092	0.	125.02
883	8.5826	3.5654	0.	123.96
884	8.5896	4.0521	0.	123.53
885	8.5805	4.5459	0.	123.87
886	8.5471	5.0368	0.	124.22
887	8.5234	5.5296	0.	124.53
888	8.5118	6.0225	0.	124.76
889	8.5065	6.5165	0.	124.89
890	8.5038	7.0115	0.	124.96
891	8.5022	7.5076	0.	124.99
892	8.5013	8.0049	0.	124.99
893	-2.0601	7.5971	0.	131.18
894	-3.9292	8.4442	0.	127.94
895	-3.3924	8.4069	0.	126.9
896	-2.8652	8.3594	0.	127.11
897	-2.3783	8.4793	0.	127.
898	-1.906	8.572	0.	125.25
899	-1.4448	8.6144	0.	122.59
900	-0.96703	8.4751	0.	120.03
901	-0.43792	8.5251	0.	122.86
902	6.4459e-002	8.5471	0.	125.73
903	1.0482	8.5462	0.	126.28
904	1.5361	8.535	0.	125.7
905	2.0262	8.5242	0.	125.23
906	2.5181	8.5156	0.	124.95
907	3.0119	8.51	0.	124.82
908	3.5075	8.5076	0.	124.77
909	4.0039	8.5061	0.	124.74
910	4.5015	8.5048	0.	124.72
911	5.0002	8.5048	0.	124.7
912	5.4995	8.5053	0.	124.67
913	5.9994	8.5065	0.	124.65
914	6.4997	8.5074	0.	124.65
915	7.0002	8.5072	0.	124.68
916	7.5006	8.5071	0.	124.75
917	8.0008	8.5047	0.	124.85
918	8.5007	8.503	0.	124.98
919	8.52	0.38837	0.	120.71
920	8.5389	-6.7434e-002	0.	121.81
921	8.5305	-0.54278	0.	122.33
922	8.5045	-2.0083	0.	125.76
923	8.4968	-3.0028	0.	126.55
924	8.4916	-5.0004	0.	126.14
925	8.4924	-5.9998	0.	125.89
926	8.4918	-6.4997	0.	125.8
927	8.4924	-6.9995	0.	125.71
928	8.4925	-7.4994	0.	125.65
929	8.4937	-7.9992	0.	125.6
930	-9.5768e-002	-8.4623	0.	134.98
931	-0.56038	-8.5363	0.	128.28
932	-1.0331	-8.5507	0.	127.25
933	-1.5081	-8.5232	0.	126.38
934	-1.9855	-8.4906	0.	126.12
935	-2.4736	-8.4788	0.	125.94
936	-2.9696	-8.483	0.	125.76
937	-3.4696	-8.4913	0.	125.52
938	-3.9722	-8.4986	0.	125.25
939	-4.4778	-8.5004	0.	124.97
940	-4.9843	-8.4976	0.	124.72
941	-5.4906	-8.4919	0.	124.53
942	-5.9937	-8.4855	0.	124.43
943	-6.4962	-8.4833	0.	124.44
944	-6.9978	-8.4831	0.	124.56
945	-7.4988	-8.4847	0.	124.79
946	-7.9991	-8.4875	0.	125.07
947	-8.4991	-8.4909	0.	125.39
948	-8.4999	-7.9876	0.	125.41
949	-8.5021	-7.4837	0.	125.45
950	-8.5061	-6.9792	0.	125.51
951	-8.5126	-6.4746	0.	125.63
952	-8.5231	-5.9711	0.	125.85
953	-8.5395	-5.4701	0.	126.23
954	-8.559	-4.972	0.	126.78
955	-8.5776	-4.4779	0.	127.46
956	-8.5954	-3.9881	0.	128.08
957	-8.6092	-3.5025	0.	128.26
958	-8.613	-3.0199	0.	127.82
959	-8.5918	-2.5368	0.	127.26
960	-8.5382	-2.0535	0.	127.86
961	-8.5664	-1.0507	0.	130.82
962	-8.5824	-0.54637	0.	129.19
963	-8.5925	-4.2852e-002	0.	127.15
964	-8.5953	0.96747	0.	128.3
965	-8.5733	1.4749	0.	128.25
966	-8.5391	1.9802	0.	127.46
967	-8.5184	2.485	0.	126.58
968	-8.5104	2.9905	0.	125.93
969	-8.5073	3.4953	0.	125.57
970	-8.5055	3.9985	0.	125.45
971	-8.504	4.5002	0.	125.49
972	-8.5026	5.0009	0.	125.62
973	-8.5016	5.501	0.	125.74
974	-8.5008	6.0008	0.	125.75
975	-8.5004	6.5006	0.	125.54
976	-8.5002	7.0004	0.	125.15
977	-8.5001	7.5002	0.	124.71
978	-8.5	8.0001	0.	124.4
979	-8.5	8.5	0.	124.39
980	-8.	8.5001	0.	124.59
981	-7.5	8.5002	0.	125.44
982	-7.	8.5003	0.	127.37
983	-7.5	9.0001	0.	125.36
984	-8.	9.	0.	124.86
985	-8.5	9.	0.	124.72
986	-9.	8.5	0.	124.31
987	-9.	8.	0.	124.25
988	-9.0001	7.5001	0.	124.43
989	-9.0009	5.5004	0.	125.63
990	-9.0015	5.0003	0.	125.78
991	-9.0031	3.9991	0.	126.06
992	-9.0045	3.4977	0.	126.3
993	-9.0072	2.9958	0.	126.64
994	-9.0136	2.4935	0.	127.08
995	-9.0265	1.9907	0.	127.53
996	-9.0442	1.4866	0.	127.76
997	-9.0582	0.98051	0.	127.56
998	-9.0625	0.47546	0.	127.04
999	-9.0598	-2.8233e-002	0.	126.96
1000	-9.0433	-1.0325	0.	128.26
1001	-9.0339	-1.5314	0.	128.05
1002	-9.036	-2.0261	0.	127.32
1003	-9.0564	-2.5182	0.	127.04
1004	-9.0696	-3.0107	0.	127.41
1005	-9.0702	-3.5032	0.	127.81
1006	-9.0626	-3.9963	0.	127.89
1007	-9.0515	-4.4907	0.	127.67
1008	-9.0388	-4.9871	0.	127.28
1009	-9.0263	-5.4854	0.	126.89
1010	-9.0158	-5.9853	0.	126.54
1011	-9.0084	-6.4864	0.	126.27
1012	-9.0038	-6.9882	0.	126.06
1013	-9.0012	-7.4902	0.	125.9
1014	-8.9998	-7.9922	0.	125.77
1015	-8.4991	-8.994	0.	125.37
1016	-7.999	-8.9918	0.	125.11
1017	-7.4987	-8.99	0.	124.86
1018	-6.9982	-8.9891	0.	124.67
1019	-6.4972	-8.9893	0.	124.56
1020	-5.9963	-8.9911	0.	124.55
1021	-5.4941	-8.994	0.	124.63
1022	-4.9905	-8.9971	0.	124.8
1023	-4.487	-8.9981	0.	125.05
1024	-2.9862	-8.9887	0.	126.02
1025	-2.4905	-8.9891	0.	126.41
1026	-1.9978	-8.9996	0.	126.86
1027	-1.0202	-9.0247	0.	128.2
1028	-0.52963	-9.0113	0.	128.9
1029	-3.9076e-002	-8.9661	0.	127.34
1030	0.45928	-8.9021	0.	119.39
1031	1.0184	-8.8343	0.	104.85
1032	1.5738	-8.9612	0.	124.86
1033	2.0741	-9.0176	0.	129.83
1034	2.5591	-9.0434	0.	128.28
1035	4.0105	-9.0229	0.	126.02
1036	4.5022	-9.0137	0.	125.66
1037	5.4958	-9.0031	0.	125.29
1038	5.9951	-9.0013	0.	125.23
1039	6.4949	-9.0004	0.	125.24
1040	6.995	-8.9998	0.	125.29
1041	7.4954	-8.9996	0.	125.37
1042	8.4974	-8.9994	0.	125.55
1043	7.9961	-8.9994	0.	125.47
1044	8.997	-8.4995	0.	125.66
1045	8.9958	-7.9994	0.	125.72
1046	8.9958	-7.4995	0.	125.8
1047	8.995	-6.9997	0.	125.9
1048	8.9953	-6.4998	0.	126.03
1049	8.995	-5.9999	0.	126.17
1050	8.9954	-5.0002	0.	126.51
1051	8.9949	-4.5005	0.	126.68
1052	8.9956	-4.0008	0.	126.85
1053	8.9969	-3.501	0.	126.99
1054	8.9983	-3.0016	0.	127.05
1055	9.0032	-2.004	0.	126.75
1056	9.0075	-1.5078	0.	126.37
1057	9.0142	-1.0135	0.	126.03
1058	9.02	-0.51956	0.	126.08
1059	7.1879	3.7048	0.	125.33
1060	9.0251	-1.6196e-002	0.	127.32
1061	9.0276	0.51822	0.	131.84
1062	9.0675	2.5611	0.	130.2
1063	9.0651	3.0581	0.	129.06
1064	9.0586	3.546	0.	127.36
1065	9.0573	4.0378	0.	126.38
1066	9.0491	4.5335	0.	125.9
1067	9.0326	5.0271	0.	125.71
1068	9.0186	5.5207	0.	125.62
1069	9.0102	6.0156	0.	125.54
1070	9.0056	6.511	0.	125.45
1071	9.0032	7.0075	0.	125.36
1072	9.0018	7.5049	0.	125.26
1073	9.001	8.0031	0.	125.18
1074	4.1293	2.1907	0.	130.24
1075	4.0089	1.7184	0.	123.1
1076	-6.703	-3.7944	0.	117.46
1077	-6.209	-3.7091	0.	112.73
1078	-5.6939	-3.7032	0.	123.84
1079	-7.6482	-6.9331e-002	0.	124.21
1080	7.6448	3.6364	0.	119.6
1081	7.1457	3.264	0.	130.46
1082	-1.2534	7.7934	0.	116.33
1083	-1.6795	7.7399	0.	128.52
1084	8.5004	9.0017	0.	124.95
1085	8.0004	9.0028	0.	124.87
1086	7.5004	9.0041	0.	124.79
1087	7.0002	9.0039	0.	124.74
1088	5.4999	9.0028	0.	124.72
1089	5.0004	9.0034	0.	124.74
1090	4.5012	9.003	0.	124.77
1091	4.0025	9.0036	0.	124.8
1092	3.5044	9.0048	0.	124.84
1093	3.0072	9.0067	0.	124.9
1094	2.5111	9.0104	0.	125.02
1095	2.0164	9.0159	0.	125.21
1096	1.5225	9.0228	0.	125.46
1097	1.0298	9.0295	0.	125.68
1098	0.53506	9.033	0.	125.59
1099	3.6042e-002	9.0285	0.	124.84
1100	-0.46467	9.0169	0.	123.49
1101	-0.96222	9.0113	0.	122.72
1102	-1.4552	9.0456	0.	123.49
1103	-1.9484	9.0333	0.	124.99
1104	-2.4391	8.9844	0.	125.97
1105	-2.9319	8.9355	0.	126.24
1106	-3.4374	8.9395	0.	126.35
1107	-0.1288	6.0681	0.	142.6
1108	-1.9876	5.8415	0.	142.71
1109	2.4893	0.46069	0.	135.22
1110	-0.48769	0.50005	0.	131.78
1111	-0.47312	3.492	0.	132.26
1112	2.4867	3.5161	0.	135.11
1113	6.5389	0.69906	0.	150.59
1114	6.502	-1.514	0.	131.53
1115	3.497	-1.4951	0.	133.74
1116	3.4802	0.4159	0.	139.7
1117	9.2014	1.0068	0.	147.54
1118	-3.9545	8.96	0.	127.68
1119	-7.	9.0002	0.	127.15
1120	-4.4844	6.4687	0.	129.92
1121	-6.5001	6.5034	0.	129.73
1122	-5.25	-1.0332	0.	144.59
1123	-5.2073	-1.4457	0.	148.58
1124	5.8288	2.9746	0.	133.52
1125	6.0509	0.80106	0.	142.55
1126	-0.26202	-7.5735	0.	125.21
1127	9.0003	9.001	0.	125.03
1128	8.998	-8.9995	0.	125.62
1129	-8.9993	-8.9961	0.	125.62
1130	-9.	9.	0.	124.64
1131	-0.71874	7.486	0.	119.48
1132	-0.187	6.5826	0.	122.03
1133	-0.36824	7.0968	0.	139.22
1134	-0.53992	5.9784	0.	124.94
1135	-1.4929	5.8262	0.	123.15
1136	-1.0004	5.8899	0.	103.94
1137	-1.9714	6.354	0.	123.96
1138	-1.9324	6.9224	0.	131.8
1139	1.9937	0.48616	0.	126.32
1140	1.4973	0.49527	0.	114.36
1141	0.99973	0.49821	0.	113.55
1142	6.3006e-003	0.50069	0.	124.08
1143	0.50268	0.49992	0.	113.46
1144	-0.49193	0.99708	0.	131.36
1145	-0.49505	1.4944	0.	133.5
1146	-0.49689	1.9913	0.	135.15
1147	-0.48989	2.9891	0.	131.41
1148	-0.49624	2.4887	0.	133.86
1149	3.1517e-002	3.5184	0.	124.62
1150	0.53122	3.5344	0.	115.29
1151	1.0187	3.5083	0.	115.37
1152	2.0036	3.5022	0.	127.63
1153	1.5136	3.5056	0.	116.08
1154	2.4906	3.0221	0.	134.19
1155	2.4953	0.95445	0.	134.66
1156	2.5142	1.4539	0.	135.22
1157	2.5859	1.9848	0.	135.11
1158	2.5129	2.5199	0.	135.17
1159	6.5029	-1.0299	0.	131.6
1160	6.5006	-0.55706	0.	132.24
1161	6.0004	-1.5024	0.	125.8
1162	5.5003	-1.4987	0.	117.48
1163	5.0002	-1.497	0.	118.36
1164	3.9986	-1.4937	0.	127.82
1165	4.4995	-1.495	0.	118.14
1166	3.498	-1.0064	0.	133.19
1167	3.4912	-4.31e-002	0.	136.34
1168	3.4967	-0.51933	0.	133.89
1169	3.9758	0.41723	0.	132.51
1170	4.4655	0.40763	0.	118.02
1171	5.4111	0.49554	0.	108.32
1172	4.9353	0.39443	0.	113.41
1173	6.6192	1.1008	0.	133.12
1174	6.7274	1.5218	0.	140.66
1175	6.8887	1.9466	0.	134.68
1176	7.1065	2.8229	0.	135.62
1177	7.0222	2.3921	0.	128.07
1178	8.0648	3.0644	0.	117.59
1179	8.2602	2.6341	0.	119.69
1180	8.564	2.3046	0.	120.07
1181	9.169	1.4977	0.	130.84
1182	8.9964	2.0224	0.	140.97
1183	7.0329	0.62203	0.	142.29
1184	8.0062	0.72527	0.	117.61
1185	8.463	0.82056	0.	116.12
1186	-4.4759	8.9801	0.	130.08
1187	-4.4654	8.4743	0.	133.12
1188	-4.4656	7.9737	0.	134.24
1189	-4.4811	6.9715	0.	130.07
1190	-4.473	7.473	0.	132.01
1191	-4.9917	6.4901	0.	121.73
1192	-5.9986	6.502	0.	121.48
1193	-5.4961	6.4987	0.	110.1
1194	-6.5	7.0016	0.	129.64
1195	-6.5	7.5009	0.	132.36
1196	-6.4999	9.0001	0.	129.98
1197	-6.5	8.5002	0.	132.91
1198	-6.5	8.0005	0.	134.33
1199	-6.2327	-0.9692	0.	96.66
1200	-7.2009	-0.60073	0.	132.02
1201	-6.7558	-0.86693	0.	110.68
1202	-7.2426	0.45912	0.	129.34
1203	-6.8359	0.61549	0.	116.81
1204	-5.9482	1.1416	0.	107.44
1205	-6.4545	0.97478	0.	111.74
1206	-5.4024	0.76097	0.	131.34
1207	-5.2942	-0.61548	0.	129.77
1208	-5.3327	-0.16916	0.	131.79
1209	-5.3682	0.29481	0.	127.96
1210	-5.688	-3.215	0.	127.9
1211	-5.5189	-2.7644	0.	126.72
1212	-6.7682	-3.3246	0.	123.46
1213	-6.9262	-2.9022	0.	121.85
1214	-7.4807	-2.0334	0.	120.73
1215	-5.6878	-1.4414	0.	118.03
1216	-6.1714	-1.4209	0.	96.137
1217	-6.6508	-1.4115	0.	101.64
1218	-7.116	-1.4768	0.	132.89
1219	5.0045	2.7127	0.	117.5
1220	5.5503	0.91495	0.	101.81
1221	4.4912	1.2444	0.	126.26
1222	5.0346	1.1484	0.	106.91
1223	6.1683	1.2106	0.	134.93
1224	6.2164	1.6958	0.	132.51
1225	5.8797	2.5787	0.	137.24
1226	0.34272	-8.3427	0.	122.6
1227	0.72209	-8.3267	0.	113.06
1228	1.8368	-7.1329	0.	130.53
1229	1.7132	-8.4905	0.	136.25
1230	1.7913	-8.0265	0.	127.44
1231	1.8314	-7.5801	0.	127.88
1232	9.5002	9.0004	0.	125.08
1233	9.5003	8.5008	0.	125.18
1234	9.5006	8.0015	0.	125.31
1235	9.5011	7.5024	0.	125.49
1236	9.5019	7.0038	0.	125.72
1237	9.5033	6.5059	0.	126.01
1238	9.506	6.0086	0.	126.37
1239	9.5101	5.5112	0.	126.82
1240	9.5166	5.0147	0.	127.39
1241	9.524	4.5174	0.	128.1
1242	9.5282	4.0199	0.	128.93
1243	9.5302	3.5229	0.	129.81
1244	9.532	3.025	0.	130.35
1245	9.5261	2.5211	0.	131.46
1246	9.5197	2.0167	0.	131.26
1247	9.5649	1.5112	0.	129.22
1248	9.5737	1.0015	0.	133.83
1249	9.5272	0.49754	0.	134.62
1250	9.5129	-5.1739e-003	0.	131.26
1251	9.5097	-0.50788	0.	129.81
1252	9.5069	-1.0064	0.	128.88
1253	9.5041	-1.504	0.	128.34
1254	9.5019	-2.0024	0.	128.03
1255	9.5004	-2.5018	0.	127.84
1256	9.4993	-3.0012	0.	127.68
1257	9.4985	-3.5008	0.	127.5
1258	9.4977	-4.0005	0.	127.31
1259	9.4977	-4.5003	0.	127.09
1260	9.4979	-5.0001	0.	126.86
1261	9.4979	-5.5	0.	126.64
1262	9.4978	-6.	0.	126.42
1263	9.4975	-6.4999	0.	126.22
1264	9.4978	-6.9998	0.	126.05
1265	9.4976	-7.4997	0.	125.9
1266	9.4981	-7.9997	0.	125.79
1267	9.4983	-8.4997	0.	125.7
1268	9.4988	-8.9997	0.	125.63
1269	9.4995	-9.4998	0.	125.6
1270	8.9992	-9.4997	0.	125.59
1271	8.4989	-9.4997	0.	125.54
1272	7.9985	-9.4997	0.	125.47
1273	7.4982	-9.4998	0.	125.4
1274	6.998	-9.4999	0.	125.34
1275	6.498	-9.5002	0.	125.32
1276	5.9982	-9.5007	0.	125.35
1277	5.4988	-9.5017	0.	125.47
1278	5.0002	-9.5036	0.	125.71
1279	4.5027	-9.5071	0.	126.07
1280	4.007	-9.5117	0.	126.6
1281	3.5127	-9.5171	0.	127.25
1282	3.0192	-9.5214	0.	127.86
1283	2.5245	-9.5188	0.	127.84
1284	2.0258	-9.5036	0.	125.76
1285	1.5193	-9.4698	0.	119.02
1286	1.0084	-9.417	0.	114.72
1287	0.49686	-9.4486	0.	118.25
1288	-9.2105e-003	-9.4803	0.	124.09
1289	-0.51008	-9.5019	0.	127.41
1290	-1.0088	-9.5097	0.	128.26
1291	-1.5058	-9.5068	0.	127.96
1292	-2.0015	-9.5005	0.	127.38
1293	-2.4976	-9.4958	0.	126.78
1294	-2.995	-9.4946	0.	126.26
1295	-3.4939	-9.4952	0.	125.81
1296	-3.9938	-9.4967	0.	125.42
1297	-4.4941	-9.4988	0.	125.11
1298	-4.9953	-9.4985	0.	124.86
1299	-5.4967	-9.497	0.	124.69
1300	-5.9981	-9.4957	0.	124.61
1301	-6.4987	-9.4949	0.	124.63
1302	-6.9989	-9.4946	0.	124.73
1303	-7.4991	-9.495	0.	124.9
1304	-7.9992	-9.4958	0.	125.13
1305	-8.4993	-9.4969	0.	125.37
1306	-8.9995	-9.498	0.	125.58
1307	-9.4997	-9.499	0.	125.73
1308	-9.4996	-8.9981	0.	125.8
1309	-9.4996	-8.4972	0.	125.91
1310	-9.4998	-7.9964	0.	126.07
1311	-9.5005	-7.4956	0.	126.29
1312	-9.5019	-6.9949	0.	126.55
1313	-9.5043	-6.4944	0.	126.85
1314	-9.5081	-5.9942	0.	127.19
1315	-9.5133	-5.4945	0.	127.53
1316	-9.5195	-4.9954	0.	127.81
1317	-9.5257	-4.4973	0.	127.95
1318	-9.5311	-3.9994	0.	127.87
1319	-9.5342	-3.5018	0.	127.52
1320	-9.5334	-3.0045	0.	127.01
1321	-9.5279	-2.5079	0.	126.56
1322	-9.5203	-2.0111	0.	126.41
1323	-9.5185	-1.5142	0.	126.47
1324	-9.5218	-1.0156	0.	126.45
1325	-9.526	-0.51529	0.	126.27
1326	-9.5291	-1.391e-002	0.	126.21
1327	-9.5299	0.4886	0.	126.52
1328	-9.5276	0.99129	0.	127.05
1329	-9.521	1.4945	0.	127.47
1330	-9.5133	1.9966	0.	127.62
1331	-9.5073	2.4977	0.	127.53
1332	-9.5039	2.9985	0.	127.28
1333	-9.5023	3.4991	0.	126.96
1334	-9.5015	3.9996	0.	126.62
1335	-9.501	4.4999	0.	126.28
1336	-9.5007	5.0001	0.	125.93
1337	-9.5004	5.5001	0.	125.55
1338	-9.5002	6.0001	0.	125.13
1339	-9.5001	6.5001	0.	124.7
1340	-9.5001	7.0001	0.	124.31
1341	-9.5	7.5	0.	124.04
1342	-9.5	8.	0.	123.97
1343	-9.5	8.5	0.	124.13
1344	-9.5	9.	0.	124.47
1345	-9.5	9.5	0.	124.89
1346	-9.	9.5	0.	125.13
1347	-8.5	9.5	0.	125.36
1348	-8.	9.5	0.	125.59
1349	-7.5	9.5	0.	125.91
1350	-7.	9.5001	0.	126.63
1351	-6.4999	9.5	0.	129.23
1352	-5.9995	9.5	0.	125.18
1353	-5.4982	9.4997	0.	115.53
1354	-4.9941	9.4971	0.	125.94
1355	-4.4856	9.4882	0.	129.83
1356	-3.9773	9.4789	0.	127.22
1357	-3.4721	9.4715	0.	126.61
1358	-2.9716	9.4738	0.	126.32
1359	-2.4744	9.4926	0.	125.86
1360	-1.9767	9.5122	0.	125.1
1361	-1.4777	9.5176	0.	124.28
1362	-0.98	9.51	0.	123.81
1363	-0.48237	9.5098	0.	123.97
1364	1.6566e-002	9.5135	0.	124.46
1365	0.51622	9.5158	0.	124.91
1366	1.0146	9.5146	0.	125.13
1367	1.5112	9.5114	0.	125.18
1368	2.0082	9.5081	0.	125.14
1369	2.5057	9.5054	0.	125.06
1370	3.0038	9.5035	0.	124.98
1371	3.5023	9.5024	0.	124.92
1372	4.0014	9.5018	0.	124.86
1373	4.5007	9.5015	0.	124.81
1374	5.0004	9.5017	0.	124.77
1375	5.5001	9.5013	0.	124.74
1376	6.	9.5012	0.	124.73
1377	6.5	9.5014	0.	124.74
1378	7.	9.5017	0.	124.77
1379	7.5002	9.5019	0.	124.81
1380	8.0002	9.5013	0.	124.87
1381	8.5002	9.5008	0.	124.92
1382	9.0002	9.5005	0.	124.98
1383	9.5001	9.5002	0.	125.01
1384	1.3166	-6.7433	0.	111.3
1385	0.75805	-6.4386	0.	115.15
1386	0.44925	-7.0641	0.	126.92
1387	-3.4196	7.3942	0.	127.41
1388	-2.8605	-6.9834	0.	126.03
1389	5.4981	8.0114	0.	124.61
1390	3.9344	4.0837	0.	129.04
1391	8.0035	7.0176	0.	124.63
1392	-3.9235	-7.0339	0.	125.46
1393	-7.327	1.4342	0.	125.54
1394	-7.7125	0.93311	0.	130.68
1395	2.4854	-1.9821	0.	127.12
1396	-2.9942	1.8864	0.	127.19
1397	-3.9544	-8.0055	0.	125.21
1398	-4.9761	-8.0013	0.	124.64
1399	-2.2096	-5.6576	0.	127.49
1400	-3.4152	0.41605	0.	127.26
1401	-4.7408	-1.8743	0.	132.02
1402	3.5017	2.6407	0.	131.37
1403	1.1049	6.1655	0.	123.86
1404	3.4589	4.5476	0.	129.44
1405	5.4174	-6.0159	0.	124.48
1406	3.8341	-4.7826	0.	124.86
1407	-2.6363e-002	-1.966	0.	123.28
1408	-0.51907	-1.4701	0.	124.31
1409	-3.0567e-003	-0.99107	0.	122.35
1410	-0.62701	-6.7435	0.	129.
1411	-4.0179	4.4321	0.	127.19
1412	1.9724	-2.4739	0.	125.15
1413	-1.9913	5.3541	0.	132.9
1414	2.852	-7.1415	0.	125.07
1415	-7.5168	3.5003	0.	123.49
1416	-4.6587	-3.7379	0.	129.2
1417	-1.5094	-9.0145	0.	127.44
1418	5.4902	-2.9917	0.	122.01
1419	4.958	-7.5184	0.	124.54
1420	-6.0302	4.0433	0.	122.06
1421	3.0412	-9.0483	0.	127.33
1422	-6.4547	1.5338	0.	112.92
1423	5.4748	-3.4889	0.	122.76
1424	7.9849	-6.4995	0.	125.54
1425	-2.5087	3.8803	0.	129.11
1426	-3.0449	-5.6044	0.	127.29
1427	7.9862	-4.5013	0.	125.88
1428	-3.4844	-8.9924	0.	125.67
1429	1.0548	4.0584	0.	117.91
1430	-8.9993	-8.4941	0.	125.68
1431	-4.0022	4.9357	0.	127.5
1432	7.986	-5.9998	0.	125.6
1433	-3.0323	3.3767	0.	128.19
1434	-3.2341	-2.4504	0.	127.67
1435	1.0859	5.6828	0.	124.78
1436	6.4654	-4.0015	0.	124.42
1437	-4.9976	5.4916	0.	122.25
1438	-3.4415	0.88666	0.	127.34
1439	1.4936	-1.501	0.	122.55
1440	-3.5195	-2.8854	0.	127.97
1441	-4.0499	2.8211	0.	126.93
1442	4.9874	-2.9808	0.	121.6
1443	8.3398e-002	-7.3179	0.	134.15
1444	3.4739	-2.461	0.	127.08
1445	2.4933	4.0072	0.	131.1
1446	-1.4853	3.9191	0.	128.16
1447	-8.1239	-5.6125e-002	0.	127.74
1448	7.4747	-5.5005	0.	125.32
1449	-4.3987	0.37226	0.	127.09
1450	-5.0197	4.5155	0.	123.53
1451	-6.0201	4.5289	0.	122.17
1452	2.2627	-5.2544	0.	124.89
1453	1.8051	-6.6789	0.	133.65
1454	4.448	-7.5336	0.	124.43
1455	-1.4765	0.98497	0.	128.25
1456	7.9908	-3.5026	0.	126.17
1457	7.4763	-4.5021	0.	125.45
1458	-4.9324	-7.028	0.	124.58
1459	-5.3478	-2.3216	0.	138.47
1460	1.5668	7.5665	0.	124.99
1461	1.7497	-6.221	0.	124.72
1462	-6.5753	-6.4913	0.	123.44
1463	1.706	-5.7627	0.	123.08
1464	0.99929	-3.1473e-003	0.	114.9
1465	-0.15377	-7.9798	0.	125.18
1466	-8.1166	1.4543	0.	128.58
1467	-3.5626	3.3714	0.	127.67
1468	5.9998	9.0034	0.	124.71
1469	6.9995	7.0344	0.	124.34
1470	-3.0118	2.3802	0.	127.33
1471	-3.9194	7.9395	0.	128.62
1472	-8.1144	-0.55698	0.	131.02
1473	-7.2683	-2.5276	0.	136.36
1474	-7.7292	-3.0156	0.	129.76
1475	-6.5668	-6.0551	0.	123.01
1476	-0.48862	3.9923e-003	0.	127.58
1477	-2.4412	-7.9679	0.	125.64
1478	8.4906	-4.5009	0.	126.29
1479	5.9351	-6.0056	0.	124.55
1480	-7.5097	4.5068	0.	124.31
1481	-4.8569	-0.10976	0.	126.93
1482	3.9283	3.5974	0.	130.1
1483	8.0022	7.5123	0.	124.74
1484	2.9489	-2.934	0.	126.3
1485	-3.0005	-6.0319	0.	126.9
1486	-2.3928	7.306	0.	129.67
1487	-3.9127	-6.0881	0.	126.16
1488	4.0042	8.0093	0.	124.71
1489	-9.0005	6.0004	0.	125.42
1490	5.3673	4.226	0.	123.63
1491	-4.0138	2.3144	0.	127.43
1492	2.9951	-1.0095	0.	130.02
1493	7.4848	-7.4992	0.	125.28
1494	7.5031	-2.0057	0.	126.2
1495	8.0387	-0.11746	0.	117.84
1496	8.0107	-1.5206	0.	124.22
1497	-2.127	-2.8583	0.	126.87
1498	-5.7364	-1.0459	0.	115.53
1499	7.5031	6.5355	0.	124.23
1500	-7.5814	-1.5408	0.	140.65
1501	-2.9171	-2.422e-002	0.	127.5
1502	-2.4593	0.9508	0.	127.23
1503	8.9953	-5.5	0.	126.33
1504	8.5187	-1.0267	0.	123.49
1505	-7.5017	6.0032	0.	126.65
1506	-6.1894	-4.216	0.	118.02
1507	7.9992	-2.5064	0.	126.11
1508	-6.5198	2.5452	0.	119.41
1509	-5.0402	2.6654	0.	124.34
1510	7.9888	-7.499	0.	125.47
1511	-5.4794	1.6789	0.	123.57
1512	-3.0097	4.378	0.	129.87
1513	4.3998	-6.5641	0.	124.68
1514	-9.0024	4.4998	0.	125.9
1515	6.2487	2.9672	0.	136.02
1516	5.971	-7.5039	0.	124.77
1517	-6.999	-7.9762	0.	124.42
1518	0.55835	8.5517	0.	126.57
1519	8.0057	6.5247	0.	124.46
1520	2.0237	6.5284	0.	124.02
1521	4.4918	-2.4795	0.	121.72
1522	7.9848	-5.5003	0.	125.67
1523	3.9757	6.0308	0.	125.68
1524	7.487	-3.5027	0.	125.8
1525	-6.6293	-5.23	0.	121.82
1526	5.4179	2.8987	0.	105.5
1527	-2.6939	-5.4621	0.	127.5
1528	-7.651	-0.5644	0.	137.51
1529	-0.97436	4.4426	0.	125.05
1530	7.525	-0.58132	0.	121.41
1531	8.5001	-2.5048	0.	126.33
1532	-4.4634	-8.0074	0.	124.93
1533	-7.0377	-6.4432	0.	123.7
1534	4.9976	-9.0076	0.	125.42
1535	4.9987	8.0097	0.	124.66
1536	1.5645	6.6037	0.	123.6
1537	-3.4717	6.4036	0.	128.1
1538	3.9937	1.28	0.	135.35
1539	-7.0233	3.0093	0.	121.77
1540	6.3764	4.7142	0.	125.1
1541	3.0102	7.0125	0.	124.68
1542	2.2551	-5.7231	0.	125.85
1543	-6.0258	2.5876	0.	119.81
1544	-4.5446	2.7251	0.	126.01
1545	-5.4434	1.2183	0.	132.57
1546	-7.0002	7.0019	0.	128.29
1547	3.9712	2.6969	0.	131.52
1548	4.5823	2.4797	0.	129.18
1549	1.0636	5.1876	0.	124.27
1550	6.4992	8.0158	0.	124.56
1551	3.48	6.0181	0.	125.81
1552	-1.5912	-2.3943	0.	126.18
1553	-9.0001	7.0002	0.	124.75
1554	3.5238	-9.0362	0.	126.54
1555	-3.6142	-1.4179	0.	128.88
1556	-4.2323	-1.8642	0.	129.28
1557	-1.9914	1.9434	0.	126.84
1558	-7.5003	7.0012	0.	126.65
1559	4.4431	5.0825	0.	126.04
1560	-0.58896	-2.8843	0.	124.72
1561	7.4765	-6.4996	0.	125.27
1562	-3.0229	3.8783	0.	128.94
1563	-5.4843	-7.9899	0.	124.41
1564	-8.0001	7.5004	0.	125.16
1565	-0.62578	-7.6786	0.	124.13
1566	4.4048	3.5908	0.	126.25
1567	-7.5183	2.9874	0.	123.39
1568	9.0006	8.502	0.	125.1
1569	8.123	4.5515	0.	122.56
1570	8.4954	-8.4993	0.	125.57
1571	-0.15254	-6.9009	0.	131.19
1572	-1.4956	2.4538	0.	127.58
1573	8.4923	-4.0013	0.	126.43
1574	-8.5989	0.46118	0.	127.55
1575	8.8646	0.93649	0.	132.09
1576	-4.2515	-4.6879	0.	127.65
1577	3.9532	5.0555	0.	127.15
1578	-7.6294	-4.4155	0.	125.75
1579	-3.0268	2.8784	0.	127.66
1580	6.7839	4.2193	0.	126.12
1581	6.9906	-3.002	0.	125.71
1582	-1.9921	4.8685	0.	129.65
1583	-3.3393	7.8844	0.	127.22
1584	2.2942	-4.7935	0.	124.59
1585	0.66437	-5.4224	0.	121.3
1586	4.4795	-2.9657	0.	122.52
1587	-0.7027	-6.1035	0.	128.03
1588	-1.487	-8.0368	0.	125.39
1589	-1.0349	-8.0934	0.	125.17
1590	8.1311	4.062	0.	121.31
1591	8.5104	-1.5175	0.	124.76
1592	-0.49732	-0.48972	0.	125.49
1593	-5.2162	-1.8801	0.	125.61
1594	-7.5034	5.5047	0.	125.83
1595	4.8915	4.1575	0.	123.89
1596	-6.5753	-5.6562	0.	122.52
1597	2.4935	-1.0087	0.	126.99
1598	3.9864	6.5222	0.	125.19
1599	7.498	-2.5052	0.	126.31
1600	7.5262	0.64935	0.	114.07
1601	6.4508	-6.0021	0.	124.73
1602	2.9685	-2.4592	0.	127.51
1603	-3.5024	4.9036	0.	129.33
1604	-7.5176	1.8983	0.	124.96
1605	7.0082	-1.0465	0.	126.86
1606	-8.0562	-1.5768	0.	132.45
1607	0.63636	7.1263	0.	125.74
1608	-5.0671	3.1245	0.	123.86
1609	-6.5302	3.5357	0.	121.64
1610	-5.5084	2.1516	0.	122.13
1611	-3.4933	-0.95394	0.	128.66
1612	7.9911	-7.9991	0.	125.46
1613	5.9983	8.0141	0.	124.58
1614	3.8545	-6.129	0.	125.28
1615	3.4127	-7.5936	0.	124.04
1616	-1.0623	-5.8875	0.	127.69
1617	4.4609	-3.447	0.	123.14
1618	3.964	5.5432	0.	126.34
1619	7.4749	-5.0013	0.	125.37
1620	6.3196	4.2623	0.	126.37
1621	-4.3373	-2.3426	0.	128.05
1622	-3.9834	-8.9984	0.	125.34
1623	8.4938	-3.5023	0.	126.54
1624	2.5039	4.4973	0.	128.67
1625	4.9689	6.0632	0.	124.95
1626	-7.684	0.43397	0.	131.98
1627	-5.7023	-5.5938	0.	123.07
1628	-4.1261	3.3674	0.	126.58
1629	-5.5494	3.1009	0.	122.17
1630	-0.56162	-2.4215	0.	124.51
1631	-9.0531	-0.53095	0.	127.58
1632	1.069	8.0654	0.	126.52
1633	-1.669	-4.2679	0.	126.95
1634	-7.696	-3.473	0.	129.14
1635	-2.515	3.3896	0.	128.33
1636	2.4453	-2.9386	0.	125.82
1637	3.4542	3.1049	0.	132.2
1638	-8.095	-1.0614	0.	135.42
1639	1.8596e-002	-5.8328	0.	124.72
1640	1.7679	-4.8242	0.	123.52
1641	1.4951	-0.50648	0.	119.64
1642	1.1225	4.6369	0.	121.87
1643	-9.0003	6.5003	0.	125.12
1644	6.5942	2.4763	0.	132.77
1645	-4.7651	-5.1394	0.	125.79
1646	3.3119	-5.6939	0.	125.91
1647	6.98	-7.4999	0.	125.09
1648	-3.1661	-1.9351	0.	127.77
1649	-3.9082	0.39651	0.	127.2
1650	6.4999	9.004	0.	124.72
1651	3.504	1.3104	0.	130.34
1652	-3.977	6.4382	0.	129.01
1653	3.0165	8.0141	0.	124.72
1654	9.0005	-2.503	0.	126.99
1655	-3.7116	-4.2407	0.	128.45
1656	0.49194	-1.4918	0.	121.66
1657	4.3865	3.0171	0.	128.05
1658	7.4737	-6.0001	0.	125.29
1659	-6.495	-7.9751	0.	124.28
1660	5.3568	3.3145	0.	117.78
1661	-4.6979	-4.2032	0.	128.07
1662	3.5748	2.1958	0.	127.67
1663	-0.98541	4.9298	0.	121.04
1664	0.69504	5.6986	0.	126.52
1665	7.002	-2.0054	0.	127.55
1666	-4.4239	0.83965	0.	128.14
1667	-7.5183	2.4599	0.	123.68
1668	-8.5448	-1.5567	0.	130.01
1669	6.2799	3.816	0.	128.56
1670	-5.01	2.1999	0.	125.51
1671	3.452	4.0604	0.	131.05
1672	-4.5038	4.9721	0.	125.31
1673	-3.8846	-5.6194	0.	126.69
1674	1.1858	-5.3591	0.	121.34
1675	-7.5005	-7.9786	0.	124.68
1676	7.0003	8.0138	0.	124.59
1677	8.4909	-5.5001	0.	126.01
1678	4.4974	7.5135	0.	124.72
1679	2.4779	5.9957	0.	125.04
1680	-5.3466	-6.5309	0.	124.1
1681	0.94444	-2.958	0.	123.63
1682	5.3976	4.6879	0.	124.42
1683	-1.1354	-3.3245	0.	125.73
1684	-2.5121	-0.97031	0.	127.6
1685	-8.1451	0.94856	0.	129.5
1686	5.986	0.39628	0.	131.52
1687	4.9233	0.78635	0.	111.2
1688	4.9339	5.1157	0.	125.11
1689	4.9531	5.5891	0.	125.08
1690	5.4285	5.1493	0.	124.66
1691	5.4532	5.6123	0.	124.68
1692	5.9294	5.1698	0.	124.59
1693	5.959	5.625	0.	124.44
1694	-3.4072	-3.6914e-002	0.	127.48
1695	-3.425	-0.492	0.	128.
1696	-3.8965	-4.6666e-002	0.	127.48
1697	-3.8976	-0.48574	0.	128.58
1698	-4.3781	-6.9507e-002	0.	127.5
1699	-4.3647	-0.50359	0.	129.52
1700	-2.4358	-9.7572e-003	0.	127.68
1701	-1.955	8.6197e-005	0.	128.06
1702	-2.4608	-0.49062	0.	127.68
1703	-1.9808	-0.48823	0.	127.78
1704	3.3667	-4.3276	0.	124.98
1705	1.3701	-3.9034	0.	123.72
1706	1.4124	-3.4322	0.	124.
1707	1.8702	-3.8891	0.	124.26
1708	1.9141	-3.4208	0.	124.61
1709	2.3786	-3.8741	0.	124.85
1710	2.4129	-3.4087	0.	125.24
1711	-1.1599	-4.21	0.	126.23
1712	-1.1617	-3.773	0.	125.98
1713	-0.66093	-4.2254	0.	125.41
1714	-0.64631	-3.7888	0.	125.18
1715	-0.16723	-4.287	0.	124.5
1716	-0.13829	-3.8307	0.	124.4
1717	0.32477	-4.3418	0.	123.64
1718	0.3649	-3.872	0.	123.79
1719	7.5274	0.26059	0.	116.69
1720	7.5267	-0.15009	0.	119.56
1721	7.0156	0.25081	0.	133.01
1722	7.0127	-0.15356	0.	128.33
1723	6.5057	0.30221	0.	149.
1724	6.5016	-0.11011	0.	136.81
1725	-0.8833	-5.4776	0.	127.02
1726	-0.68736	-5.0884	0.	126.13
1727	6.476	2.0765	0.	131.24
1728	1.5924	4.8776	0.	123.91
1729	6.0525	2.1849	0.	131.32
1730	6.227	2.5668	0.	133.66
1731	7.5938	3.2114	0.	116.35
1732	0.87115	-6.8929	0.	111.31
1733	-1.7015	7.337	0.	136.78
1734	7.2863	0.96625	0.	141.83
1735	7.1188	1.1425	0.	152.86
1736	6.8346	1.0054	0.	151.23
1737	7.0414	0.76601	0.	156.07
1738	8.7037	1.3038	0.	142.64
1739	8.7725	1.5362	0.	133.44
1740	9.0545	1.4288	0.	153.04
1741	8.9023	1.1482	0.	152.85
1742	7.5312	2.5375	0.	124.47
1743	7.7675	2.5938	0.	105.24
1744	7.3533	2.7964	0.	127.19
1745	7.8324	2.9172	0.	117.87
1746	7.5969	2.9907	0.	117.78
1747	4.6917	1.6367	0.	119.87
1748	4.6583	1.8617	0.	114.13
1749	4.3047	1.9554	0.	140.8
1750	4.2445	1.7192	0.	137.42
1751	4.4856	1.4822	0.	138.41
1752	5.5383	1.3033	0.	121.23
1753	5.7168	1.4438	0.	142.08
1754	5.6502	1.0675	0.	123.81
1755	5.9591	1.2153	0.	139.25
1756	5.3717	2.4283	0.	108.42
1757	5.5836	2.3435	0.	134.8
1758	5.7149	2.5743	0.	133.53
1759	5.484	2.7344	0.	118.13
1760	0.46833	-7.8717	0.	116.28
1761	0.46668	-7.6667	0.	113.61
1762	0.31636	-8.0563	0.	138.11
1763	0.1867	-7.544	0.	143.92
1764	6.8114e-002	-7.8749	0.	139.63
1765	1.1817	-8.2783	0.	110.96
1766	1.3583	-8.175	0.	137.38
1767	1.1892	-8.6072	0.	119.03
1768	1.5366	-8.4353	0.	134.66
1769	1.1733	-7.2533	0.	117.17
1770	1.3517	-7.355	0.	141.32
1771	1.5934	-7.1414	0.	135.36
1772	1.3333	-6.9467	0.	126.52
1773	-1.2425	6.285	0.	131.14
1774	-1.435	6.4825	0.	144.25
1775	-1.5015	6.0231	0.	143.32
1776	-1.7407	6.287	0.	142.99
1777	-0.7075	6.415	0.	133.11
1778	-0.6325	6.6775	0.	113.55
1779	-0.3135	6.5313	0.	146.17
1780	-0.48996	6.2292	0.	146.62
1781	-1.285	7.0075	0.	121.43
1782	-1.0175	7.0725	0.	81.916
1783	-1.2317	7.5317	0.	115.01
1784	-0.96437	7.378	0.	115.54
1785	-1.4558	7.3035	0.	124.94
1786	-6.91	-0.21667	0.	117.47
1787	-6.9317	3.5e-002	0.	114.39
1788	-7.3941	-8.9665e-002	0.	138.61
1789	-7.1704	-0.35537	0.	141.92
1790	-7.1913	0.17456	0.	140.87
1791	-5.99	-0.64333	0.	118.16
1792	-5.7817	-0.49833	0.	142.04
1793	-5.5271	-0.68274	0.	136.38
1794	-5.7482	-0.89796	0.	130.34
1795	-6.0983	0.615	0.	111.3
1796	-5.8683	0.50833	0.	136.34
1797	-5.9191	0.95082	0.	121.05
1798	-5.6462	0.76048	0.	132.29
1799	-6.15	-2.9333	0.	106.97
1800	-6.3933	-2.9467	0.	99.187
1801	-6.2345	-3.4296	0.	109.72
1802	-5.974	-3.1825	0.	117.37
1803	-6.5141	-3.2373	0.	114.98
1804	-5.71	-2.0667	0.	139.54
1805	-5.8433	-1.8633	0.	134.79
1806	-5.6439	-1.6457	0.	141.38
1807	-5.4081	-1.865	0.	144.87
1808	-6.9267	-2.1333	0.	134.28
1809	-6.8167	-1.9167	0.	133.07
1810	-7.2704	-1.9817	0.	144.61
1811	-7.088	-1.7034	0.	150.6
1812	4.	-0.25	0.	143.3
1813	4.25	0.	0.	128.55
1814	3.7456	-2.155e-002	0.	137.69
1815	3.9879	0.20861	0.	135.98
1816	4.	-0.75	0.	142.5
1817	4.25	-1.	0.	127.74
1818	3.9993	-1.2468	0.	132.89
1819	3.749	-1.0032	0.	135.2
1820	5.75	0.	0.	127.41
1821	6.	-0.25	0.	143.11
1822	5.993	0.19814	0.	135.36
1823	6.2508	-5.5057e-002	0.	138.01
1824	5.75	-1.	0.	126.52
1825	6.	-0.75	0.	141.26
1826	6.2515	-1.0149	0.	133.32
1827	6.0002	-1.2512	0.	130.79
1828	0.	2.75	0.	139.04
1829	0.25	3.	0.	124.02
1830	-0.24494	2.9946	0.	132.84
1831	1.5759e-002	3.2592	0.	129.82
1832	0.	1.25	0.	138.45
1833	0.25	1.	0.	123.
1834	3.1503e-003	0.75034	0.	129.06
1835	-0.24597	0.99854	0.	132.34
1836	1.75	3.	0.	125.29
1837	2.	2.75	0.	140.74
1838	2.0018	3.2511	0.	132.23
1839	2.2453	3.011	0.	135.17
1840	1.75	1.	0.	124.45
1841	2.	1.25	0.	140.52
1842	1.9968	0.74308	0.	131.4
1843	2.2476	0.97723	0.	135.23
1844	-6.	8.75	0.	138.87
1845	-5.75	9.	0.	122.92
1846	-6.25	9.0001	0.	132.36
1847	-5.9998	9.25	0.	130.29
1848	-6.	7.25	0.	136.29
1849	-5.75	7.	0.	119.16
1850	-5.9993	6.751	0.	126.6
1851	-6.25	7.0008	0.	130.33
1852	-5.25	9.	0.	123.28
1853	-5.	8.75	0.	139.36
1854	-4.7379	8.99	0.	132.77
1855	-4.997	9.2486	0.	131.04
1856	-5.25	7.	0.	119.
1857	-5.	7.25	0.	136.17
1858	-4.7406	6.9858	0.	130.38
1859	-4.9958	6.7451	0.	126.55
1860	9.75	10.	0.	125.
1861	10.	9.75	0.	124.99
1862	-9.75	10.	0.	125.05
1863	-10.	9.75	0.	124.94
1864	10.	-9.75	0.	125.53
1865	9.75	-10.	0.	125.55
1866	-10.	-9.75	0.	125.76
1867	-9.75	-10.	0.	125.73
1868	7.7587	1.0788	0.	116.55
1869	7.5243	0.83593	0.	113.73
1870	8.2312	1.1912	0.	115.35
1871	8.0006	0.93013	0.	118.48
1872	8.4652	1.034	0.	113.
1873	7.2562	1.6075	0.	137.56
1874	6.9575	1.4484	0.	138.9
1875	7.3938	2.0725	0.	133.9
1876	7.1068	1.8933	0.	135.63
1877	7.2424	2.3486	0.	129.22
1878	8.4375	1.8887	0.	100.6
1879	8.8007	1.8674	0.	116.
1880	8.1025	2.2413	0.	101.65
1881	8.417	2.1848	0.	114.77
1882	8.0976	2.5258	0.	106.33
1883	5.115	1.47	0.	94.061
1884	4.969	1.3509	0.	97.655
1885	5.1806	1.2675	0.	101.1
1886	5.015	2.145	0.	81.398
1887	4.7095	2.2415	0.	102.41
1888	5.0989	2.4997	0.	101.08
1889	5.6504	1.8922	0.	140.41
1890	5.9501	1.6817	0.	136.75
1891	5.8348	2.1509	0.	135.24
1892	0.825	-8.075	0.	84.964
1893	0.68438	-8.15	0.	95.507
1894	0.86271	-8.2517	0.	99.353
1895	0.82002	-7.46	0.	82.485
1896	0.54631	-7.3137	0.	98.969
1897	0.93392	-7.1248	0.	100.62
1898	1.355	-7.765	0.	142.39
1899	1.574	-7.9982	0.	134.91
1900	1.5924	-7.57	0.	135.15
1901	-0.98772	6.12	0.	99.911
1902	-1.6462	6.8337	0.	129.48
1903	-0.59662	6.9859	0.	96.963
1904	-6.45	-0.43	0.	87.872
1905	-6.7179	-0.59513	0.	96.076
1906	-6.2264	-0.75293	0.	93.498
1907	-6.515	0.325	0.	82.356
1908	-6.7796	0.39774	0.	95.87
1909	-6.3806	0.72239	0.	99.197
1910	-5.825	5.e-003	0.	139.97
1911	-5.568	-0.20792	0.	136.25
1912	-5.6074	0.27574	0.	133.49
1913	-5.93	-2.5	0.	115.16
1914	-5.7794	-2.7406	0.	117.72
1915	-5.5839	-2.3025	0.	127.13
1916	-6.66	-2.54	0.	100.35
1917	-6.7264	-2.8228	0.	108.08
1918	-7.0308	-2.4321	0.	118.64
1919	-6.33	-1.89	0.	101.78
1920	-6.129	-1.6488	0.	100.43
1921	-6.6121	-1.6574	0.	99.692
1922	3.7484	-0.50966	0.	140.63
1923	4.75	0.	0.	118.57
1924	4.4828	0.20382	0.	118.12
1925	5.25	0.	0.	117.33
1926	4.9677	0.19722	0.	116.11
1927	5.4556	0.24777	0.	112.06
1928	4.75	-1.	0.	120.5
1929	4.4998	-1.2475	0.	118.07
1930	5.25	-1.	0.	120.33
1931	5.0001	-1.2485	0.	120.54
1932	5.5001	-1.2493	0.	117.57
1933	6.2503	-0.52853	0.	139.61
1934	0.	2.25	0.	144.05
1935	-0.24812	2.4944	0.	138.69
1936	0.	1.75	0.	143.92
1937	-0.24845	1.9956	0.	139.87
1938	-0.24753	1.4972	0.	138.37
1939	0.75	3.	0.	116.41
1940	0.51561	3.2672	0.	114.49
1941	1.25	3.	0.	116.77
1942	1.0094	3.2542	0.	117.06
1943	1.5068	3.2528	0.	115.23
1944	0.75	1.	0.	115.13
1945	0.50134	0.74996	0.	113.01
1946	1.25	1.	0.	115.41
1947	0.99986	0.7491	0.	115.43
1948	1.4986	0.74764	0.	113.71
1949	2.	2.25	0.	145.33
1950	2.2564	2.51	0.	140.11
1951	2.	1.75	0.	145.31
1952	2.2929	1.9924	0.	140.36
1953	2.2571	1.4769	0.	140.1
1954	-6.	8.25	0.	142.66
1955	-6.25	8.5001	0.	137.89
1956	-6.	7.75	0.	141.85
1957	-6.25	8.0003	0.	138.37
1958	-6.25	7.5004	0.	136.82
1959	-5.4991	9.2498	0.	113.24
1960	-5.498	6.7493	0.	108.52
1961	-5.	8.25	0.	142.85
1962	-4.7327	8.4871	0.	138.12
1963	-5.	7.75	0.	141.96
1964	-4.7328	7.9869	0.	138.39
1965	-4.7365	7.4865	0.	136.68
1966	9.25	10.	0.	124.99
1967	9.5	9.7501	0.	125.01
1968	8.75	10.	0.	124.95
1969	9.0001	9.7502	0.	124.98
1970	8.25	10.	0.	124.89
1971	8.5001	9.7504	0.	124.92
1972	7.75	10.	0.	124.82
1973	8.0001	9.7507	0.	124.86
1974	7.25	10.	0.	124.76
1975	7.5001	9.751	0.	124.8
1976	6.75	10.	0.	124.72
1977	7.	9.7509	0.	124.75
1978	6.25	10.	0.	124.69
1979	6.5	9.7507	0.	124.72
1980	5.75	10.	0.	124.69
1981	6.	9.7506	0.	124.71
1982	5.25	10.	0.	124.72
1983	5.5001	9.7507	0.	124.72
1984	4.75	10.	0.	124.77
1985	5.0002	9.7508	0.	124.75
1986	4.25	10.	0.	124.84
1987	4.5004	9.7508	0.	124.8
1988	3.75	10.	0.	124.93
1989	4.0007	9.7509	0.	124.87
1990	3.25	10.	0.	125.03
1991	3.5012	9.7512	0.	124.95
1992	2.75	10.	0.	125.13
1993	3.0019	9.7518	0.	125.03
1994	2.25	10.	0.	125.22
1995	2.5029	9.7527	0.	125.12
1996	1.75	10.	0.	125.23
1997	2.0041	9.7541	0.	125.19
1998	1.25	10.	0.	125.1
1999	1.5056	9.7557	0.	125.19
2000	0.75	10.	0.	124.77
2001	1.0073	9.7573	0.	125.06
2002	0.25	10.	0.	124.27
2003	0.50811	9.7579	0.	124.73
2004	-0.25	10.	0.	123.77
2005	8.2828e-003	9.7568	0.	124.22
2006	-0.75	10.	0.	123.54
2007	-0.49119	9.7549	0.	123.75
2008	-1.25	10.	0.	123.81
2009	-0.99	9.755	0.	123.67
2010	-1.75	10.	0.	124.62
2011	-1.4889	9.7588	0.	124.18
2012	-2.25	10.	0.	125.76
2013	-1.9884	9.7561	0.	125.12
2014	-2.75	10.	0.	126.97
2015	-2.4872	9.7463	0.	126.11
2016	-3.25	10.	0.	128.01
2017	-2.9858	9.7369	0.	126.93
2018	-3.75	10.	0.	128.68
2019	-3.486	9.7358	0.	127.52
2020	-4.25	10.	0.	127.83
2021	-3.9887	9.7395	0.	128.04
2022	-4.75	10.	0.	123.86
2023	-4.4928	9.7441	0.	128.27
2024	-5.25	10.	0.	119.93
2025	-4.997	9.7486	0.	123.32
2026	-5.75	10.	0.	119.75
2027	-5.4991	9.7498	0.	117.06
2028	-6.25	10.	0.	123.28
2029	-5.9998	9.75	0.	122.77
2030	-6.75	10.	0.	126.9
2031	-6.4999	9.75	0.	127.57
2032	-7.25	10.	0.	127.61
2033	-7.	9.75	0.	127.22
2034	-7.75	10.	0.	127.03
2035	-7.5	9.75	0.	126.63
2036	-8.25	10.	0.	126.32
2037	-8.	9.75	0.	126.13
2038	-8.75	10.	0.	125.7
2039	-8.5	9.75	0.	125.66
2040	-9.25	10.	0.	125.26
2041	-9.	9.75	0.	125.28
2042	-9.5	9.75	0.	124.98
2043	10.	9.25	0.	125.01
2044	9.75	9.5001	0.	125.
2045	10.	8.75	0.	125.09
2046	9.7501	9.0002	0.	125.06
2047	10.	8.25	0.	125.25
2048	9.7502	8.5004	0.	125.17
2049	10.	7.75	0.	125.46
2050	9.7503	8.0007	0.	125.33
2051	10.	7.25	0.	125.76
2052	9.7505	7.5012	0.	125.54
2053	10.	6.75	0.	126.15
2054	9.7509	7.0019	0.	125.82
2055	10.	6.25	0.	126.68
2056	9.7517	6.5029	0.	126.19
2057	10.	5.75	0.	127.38
2058	9.753	6.0043	0.	126.67
2059	10.	5.25	0.	128.33
2060	9.755	5.5056	0.	127.3
2061	10.	4.75	0.	129.56
2062	9.7583	5.0073	0.	128.13
2063	10.	4.25	0.	131.01
2064	9.762	4.5087	0.	129.17
2065	10.	3.75	0.	132.33
2066	9.7641	4.0099	0.	130.35
2067	10.	3.25	0.	132.76
2068	9.7651	3.5115	0.	131.35
2069	10.	2.75	0.	130.94
2070	9.766	3.0125	0.	131.49
2071	10.	2.25	0.	125.87
2072	9.763	2.5105	0.	130.34
2073	10.	1.75	0.	120.42
2074	9.7598	2.0083	0.	126.83
2075	10.	1.25	0.	122.16
2076	9.7824	1.5056	0.	123.77
2077	10.	0.75	0.	130.12
2078	9.7869	1.0007	0.	129.8
2079	10.	0.25	0.	134.85
2080	9.7636	0.49877	0.	134.44
2081	10.	-0.25	0.	134.34
2082	9.7565	-2.5869e-003	0.	133.34
2083	10.	-0.75	0.	132.22
2084	9.7548	-0.50394	0.	131.52
2085	10.	-1.25	0.	130.47
2086	9.7535	-1.0032	0.	130.02
2087	10.	-1.75	0.	129.37
2088	9.752	-1.502	0.	129.05
2089	10.	-2.25	0.	128.77
2090	9.7509	-2.0012	0.	128.5
2091	10.	-2.75	0.	128.43
2092	9.7502	-2.5009	0.	128.2
2093	10.	-3.25	0.	128.18
2094	9.7497	-3.0006	0.	127.99
2095	10.	-3.75	0.	127.93
2096	9.7492	-3.5004	0.	127.78
2097	10.	-4.25	0.	127.66
2098	9.7489	-4.0003	0.	127.56
2099	10.	-4.75	0.	127.37
2100	9.7489	-4.5001	0.	127.3
2101	10.	-5.25	0.	127.06
2102	9.7489	-5.0001	0.	127.04
2103	10.	-5.75	0.	126.77
2104	9.7489	-5.5	0.	126.77
2105	10.	-6.25	0.	126.49
2106	9.7489	-6.	0.	126.52
2107	10.	-6.75	0.	126.24
2108	9.7488	-6.5	0.	126.29
2109	10.	-7.25	0.	126.03
2110	9.7489	-6.9999	0.	126.09
2111	10.	-7.75	0.	125.86
2112	9.7488	-7.4999	0.	125.92
2113	10.	-8.25	0.	125.72
2114	9.749	-7.9999	0.	125.78
2115	10.	-8.75	0.	125.63
2116	9.7492	-8.4998	0.	125.68
2117	10.	-9.25	0.	125.56
2118	9.7494	-8.9999	0.	125.61
2119	9.7498	-9.4999	0.	125.57
2120	-10.	9.25	0.	124.56
2121	-9.75	9.5	0.	124.88
2122	-10.	8.75	0.	123.92
2123	-9.75	9.	0.	124.36
2124	-10.	8.25	0.	123.39
2125	-9.75	8.5	0.	123.86
2126	-10.	7.75	0.	123.19
2127	-9.75	8.	0.	123.58
2128	-10.	7.25	0.	123.38
2129	-9.75	7.5	0.	123.62
2130	-10.	6.75	0.	123.86
2131	-9.75	7.	0.	123.93
2132	-10.	6.25	0.	124.5
2133	-9.7501	6.5	0.	124.43
2134	-10.	5.75	0.	125.19
2135	-9.7501	6.0001	0.	124.99
2136	-10.	5.25	0.	125.83
2137	-9.7502	5.5001	0.	125.53
2138	-10.	4.75	0.	126.42
2139	-9.7503	5.	0.	126.03
2140	-10.	4.25	0.	126.96
2141	-9.7505	4.4999	0.	126.49
2142	-10.	3.75	0.	127.47
2143	-9.7507	3.9998	0.	126.92
2144	-10.	3.25	0.	127.92
2145	-9.7511	3.4995	0.	127.34
2146	-10.	2.75	0.	128.24
2147	-9.7519	2.9992	0.	127.7
2148	-10.	2.25	0.	128.3
2149	-9.7536	2.4989	0.	127.94
2150	-10.	1.75	0.	127.95
2151	-9.7566	1.9983	0.	127.93
2152	-10.	1.25	0.	127.18
2153	-9.7605	1.4972	0.	127.57
2154	-10.	0.75	0.	126.15
2155	-9.7638	0.99564	0.	126.86
2156	-10.	0.25	0.	125.25
2157	-9.7649	0.4943	0.	126.07
2158	-10.	-0.25	0.	124.8
2159	-9.7645	-6.955e-003	0.	125.55
2160	-10.	-0.75	0.	124.77
2161	-9.763	-0.50765	0.	125.49
2162	-10.	-1.25	0.	124.87
2163	-9.7609	-1.0078	0.	125.64
2164	-10.	-1.75	0.	125.
2165	-9.7593	-1.5071	0.	125.7
2166	-10.	-2.25	0.	125.32
2167	-9.7601	-2.0056	0.	125.74
2168	-10.	-2.75	0.	126.02
2169	-9.764	-2.5039	0.	126.06
2170	-10.	-3.25	0.	127.01
2171	-9.7667	-3.0022	0.	126.74
2172	-10.	-3.75	0.	127.94
2173	-9.7671	-3.5009	0.	127.53
2174	-10.	-4.25	0.	128.53
2175	-9.7655	-3.9997	0.	128.1
2176	-10.	-4.75	0.	128.69
2177	-9.7629	-4.4986	0.	128.33
2178	-10.	-5.25	0.	128.5
2179	-9.7597	-4.9977	0.	128.24
2180	-10.	-5.75	0.	128.1
2181	-9.7566	-5.4973	0.	127.93
2182	-10.	-6.25	0.	127.63
2183	-9.754	-5.9971	0.	127.53
2184	-10.	-6.75	0.	127.16
2185	-9.7522	-6.4972	0.	127.12
2186	-10.	-7.25	0.	126.74
2187	-9.751	-6.9975	0.	126.74
2188	-10.	-7.75	0.	126.4
2189	-9.7503	-7.4978	0.	126.42
2190	-10.	-8.25	0.	126.13
2191	-9.7499	-7.9982	0.	126.16
2192	-10.	-8.75	0.	125.94
2193	-9.7498	-8.4986	0.	125.97
2194	-10.	-9.25	0.	125.82
2195	-9.7498	-8.999	0.	125.83
2196	-9.7498	-9.4995	0.	125.75
2197	-9.25	-10.	0.	125.64
2198	-9.4998	-9.7495	0.	125.72
2199	-8.75	-10.	0.	125.47
2200	-8.9997	-9.749	0.	125.58
2201	-8.25	-10.	0.	125.25
2202	-8.4997	-9.7485	0.	125.37
2203	-7.75	-10.	0.	125.03
2204	-7.9996	-9.7479	0.	125.13
2205	-7.25	-10.	0.	124.83
2206	-7.4995	-9.7475	0.	124.91
2207	-6.75	-10.	0.	124.7
2208	-6.9995	-9.7473	0.	124.74
2209	-6.25	-10.	0.	124.64
2210	-6.4994	-9.7474	0.	124.64
2211	-5.75	-10.	0.	124.68
2212	-5.999	-9.7479	0.	124.63
2213	-5.25	-10.	0.	124.8
2214	-5.4984	-9.7485	0.	124.7
2215	-4.75	-10.	0.	125.
2216	-4.9976	-9.7492	0.	124.87
2217	-4.25	-10.	0.	125.29
2218	-4.497	-9.7494	0.	125.12
2219	-3.75	-10.	0.	125.66
2220	-3.9969	-9.7483	0.	125.44
2221	-3.25	-10.	0.	126.1
2222	-3.4969	-9.7476	0.	125.83
2223	-2.75	-10.	0.	126.63
2224	-2.9975	-9.7473	0.	126.3
2225	-2.25	-10.	0.	127.24
2226	-2.4988	-9.7479	0.	126.85
2227	-1.75	-10.	0.	127.83
2228	-2.0008	-9.7502	0.	127.47
2229	-1.25	-10.	0.	128.13
2230	-1.5029	-9.7534	0.	128.04
2231	-0.75	-10.	0.	127.46
2232	-1.0044	-9.7548	0.	128.2
2233	-0.25	-10.	0.	124.96
2234	-0.50504	-9.7509	0.	127.09
2235	0.25	-10.	0.	120.78
2236	-4.6053e-003	-9.7401	0.	123.62
2237	0.75	-10.	0.	117.39
2238	0.49843	-9.7243	0.	118.32
2239	1.25	-10.	0.	117.72
2240	1.0042	-9.7085	0.	115.54
2241	1.75	-10.	0.	121.59
2242	1.5096	-9.7349	0.	119.03
2243	2.25	-10.	0.	125.71
2244	2.0129	-9.7518	0.	124.93
2245	2.75	-10.	0.	127.63
2246	2.5123	-9.7594	0.	127.58
2247	3.25	-10.	0.	127.71
2248	3.0096	-9.7607	0.	127.9
2249	3.75	-10.	0.	127.15
2250	3.5064	-9.7585	0.	127.36
2251	4.25	-10.	0.	126.52
2252	4.0035	-9.7558	0.	126.71
2253	4.75	-10.	0.	126.02
2254	4.5014	-9.7535	0.	126.15
2255	5.25	-10.	0.	125.68
2256	5.0001	-9.7518	0.	125.76
2257	5.75	-10.	0.	125.47
2258	5.4994	-9.7508	0.	125.51
2259	6.25	-10.	0.	125.37
2260	5.9991	-9.7504	0.	125.37
2261	6.75	-10.	0.	125.35
2262	6.499	-9.7501	0.	125.33
2263	7.25	-10.	0.	125.38
2264	6.999	-9.75	0.	125.35
2265	7.75	-10.	0.	125.44
2266	7.4991	-9.7499	0.	125.4
2267	8.25	-10.	0.	125.51
2268	7.9992	-9.7498	0.	125.47
2269	8.75	-10.	0.	125.56
2270	8.4994	-9.7498	0.	125.54
2271	9.25	-10.	0.	125.58
2272	8.9996	-9.7499	0.	125.59
2273	9.4998	-9.7499	0.	125.59
2274	-1.782	-4.8167	0.	127.3
2275	-1.3422	-4.6758	0.	126.78
2276	-1.5109	-4.9549	0.	127.19
2277	-1.6178	-4.4935	0.	127.02
2278	-2.8044	-4.9524	0.	127.74
2279	-2.52	-4.9434	0.	127.73
2280	-2.4385	-4.5544	0.	127.68
2281	-2.692	-4.4925	0.	127.85
2282	-2.9553	-4.7156	0.	127.91
2283	-2.1862	-5.0397	0.	127.57
2284	-2.1047	-4.6508	0.	127.52
2285	-1.9213	-5.1642	0.	127.53
2286	-0.89143	-4.6432	0.	126.07
2287	-1.0939	-4.8591	0.	126.63
2288	-1.1388	-4.4212	0.	126.35
2289	0.14913	-3.3927	0.	124.02
2290	0.65746	-3.4222	0.	123.74
2291	0.42164	-3.1764	0.	123.7
2292	0.3846	-3.6413	0.	123.79
2293	-1.6324	-3.0938	0.	126.35
2294	-1.359	-2.8677	0.	125.89
2295	-1.8715	-2.86	0.	126.56
2296	-1.6036	-2.628	0.	126.22
2297	-3.1536	-5.1706	0.	127.63
2298	-2.9943	-5.3938	0.	127.47
2299	-2.8188	-5.3227	0.	127.58
2300	4.5662	-4.9036	0.	124.36
2301	4.8558	-4.734	0.	124.04
2302	4.8397	-5.2699	0.	124.37
2303	4.5575	-5.0986	0.	124.48
2304	5.0956	-5.0019	0.	124.2
2305	-0.36283	-3.3581	0.	124.6
2306	-0.60429	-3.1128	0.	124.84
2307	-0.87751	-3.3329	0.	125.34
2308	-0.63296	-3.5651	0.	125.07
2309	-9.0141e-002	-3.1442	0.	124.14
2310	-0.12216	-3.6027	0.	124.33
2311	-1.665	-3.5578	0.	126.58
2312	-1.932	-3.8103	0.	127.01
2313	-1.675	-4.0288	0.	126.83
2314	-1.4214	-3.7813	0.	126.35
2315	-1.8996	-3.3319	0.	126.75
2316	-1.3921	-3.3252	0.	126.09
2317	-0.43754	-4.6997	0.	125.17
2318	-0.66303	-4.4397	0.	125.54
2319	-0.67624	-4.8712	0.	125.91
2320	-2.2923	-5.4114	0.	127.57
2321	-2.5345	-5.3137	0.	127.57
2322	0.88916	-3.667	0.	123.61
2323	0.92753	-3.1958	0.	123.66
2324	1.1615	-3.433	0.	123.85
2325	4.3161	-5.001	0.	124.58
2326	4.3602	-4.596	0.	124.27
2327	4.0794	-4.7943	0.	124.66
2328	-1.0874	-2.6423	0.	125.45
2329	-0.84549	-2.8791	0.	125.12
2330	-1.1187	-3.0992	0.	125.62
2331	0.18236	-2.9279	0.	123.82
2332	0.45222	-2.7045	0.	123.42
2333	0.69171	-2.9501	0.	123.62
2334	-2.1975	-4.1091	0.	127.42
2335	-2.4655	-4.3254	0.	127.7
2336	-1.9405	-4.3276	0.	127.24
2337	-2.8612	-2.8766	0.	127.53
2338	-2.6377	-3.0972	0.	127.45
2339	-2.6406	-2.6251	0.	127.31
2340	-2.3781	-2.8585	0.	127.1
2341	-1.2626	-5.1382	0.	127.04
2342	-0.97668	-5.2816	0.	126.9
2343	-0.87871	-5.087	0.	126.46
2344	-1.6502	-5.3025	0.	127.42
2345	-1.3905	-5.3997	0.	127.41
2346	5.1604	-4.4808	0.	123.8
2347	4.6497	-4.4264	0.	123.95
2348	4.9259	-4.2161	0.	123.55
2349	-0.24395	-4.9808	0.	124.89
2350	3.0924e-002	-4.7874	0.	124.03
2351	-0.18859	-4.5162	0.	124.59
2352	-3.4028	-5.3865	0.	127.33
2353	-3.3045	-4.9338	0.	127.79
2354	-3.5947	-5.1569	0.	127.47
2355	5.1344	-5.5247	0.	124.42
2356	4.6127	-5.5789	0.	124.65
2357	4.8857	-5.7896	0.	124.53
2358	4.3305	-5.4076	0.	124.76
2359	4.0613	-5.2078	0.	124.92
2360	5.4002	-4.7487	0.	123.96
2361	5.4336	-4.2419	0.	123.56
2362	5.677	-4.4978	0.	123.91
2363	0.72003	-2.4756	0.	123.27
2364	0.98172	-2.2397	0.	122.97
2365	1.2249	-2.4843	0.	123.65
2366	0.95952	-2.7212	0.	123.47
2367	1.4627	-2.7245	0.	124.05
2368	1.6987	-2.9577	0.	124.52
2369	1.1974	-2.9614	0.	123.87
2370	1.4314	-3.1985	0.	124.06
2371	-6.2418e-002	-2.6773	0.	123.86
2372	-0.3316	-2.8989	0.	124.38
2373	-2.1666	-3.5844	0.	127.18
2374	-2.4307	-3.8202	0.	127.54
2375	-2.3983	-3.3368	0.	127.3
2376	-2.1386	-3.0981	0.	126.96
2377	5.3902	-5.2567	0.	124.25
2378	5.6533	-5.0026	0.	124.2
2379	5.6605	-5.5076	0.	124.4
2380	5.4071	-5.7634	0.	124.42
2381	-4.5753	-5.6149	0.	125.63
2382	-4.3651	-5.8536	0.	125.82
2383	-4.3227	-5.3861	0.	126.42
2384	-4.1159	-5.6195	0.	126.38
2385	-3.4475	-5.8457	0.	126.82
2386	-3.2435	-5.6097	0.	127.18
2387	-3.6634	-5.6172	0.	126.88
2388	-0.36022	-5.4414	0.	125.75
2389	-4.9344e-002	-5.2743	0.	124.23
2390	-0.48265	-5.1523	0.	125.63
2391	0.84206	-4.1374	0.	123.33
2392	1.1189	-3.9019	0.	123.62
2393	0.6163	-3.8862	0.	123.65
2394	-1.7808	-5.639	0.	127.56
2395	-2.0275	-5.5359	0.	127.52
2396	-2.1003	-2.1494	0.	126.83
2397	-2.3825	-2.3872	0.	127.04
2398	-2.12	-2.6206	0.	126.83
2399	-1.8521	-2.3886	0.	126.49
2400	4.1386	-4.3642	0.	124.33
2401	4.4156	-4.1548	0.	123.87
2402	-1.0595	-2.175	0.	125.39
2403	-1.3321	-2.4025	0.	125.78
2404	-0.81725	-2.4161	0.	124.95
2405	0.20744	-2.4539	0.	123.47
2406	0.47418	-2.2248	0.	122.91
2407	-2.6987	-4.0365	0.	127.82
2408	-2.9652	-4.2588	0.	128.04
2409	4.4643	5.8042	0.	125.52
2410	4.4503	5.3229	0.	125.87
2411	4.2108	5.5532	0.	126.02
2412	4.7053	5.5762	0.	125.39
2413	2.598	-4.3254	0.	124.83
2414	2.8739	-4.0947	0.	125.08
2415	2.8355	-4.5483	0.	125.1
2416	3.1112	-4.3242	0.	125.
2417	0.22553	-5.0809	0.	123.36
2418	0.51044	-4.8533	0.	122.93
2419	0.29828	-4.5856	0.	123.52
2420	-4.8301	3.5738	0.	124.49
2421	-4.596	3.3619	0.	125.31
2422	-4.5692	3.784	0.	125.26
2423	-4.3604	3.4665	0.	125.9
2424	5.1991	-3.9772	0.	123.3
2425	4.6917	-3.9445	0.	123.46
2426	4.9602	-3.7191	0.	122.92
2427	-1.8255	-1.9196	0.	126.56
2428	-1.3047	-1.9313	0.	125.83
2429	-1.5505	-1.6867	0.	126.4
2430	-1.5772	-2.1588	0.	126.22
2431	-3.2286	-4.4819	0.	128.1
2432	-3.5028	-4.7047	0.	127.98
2433	-3.1096	-3.1186	0.	127.84
2434	-3.1637	-2.6724	0.	127.69
2435	-3.3064	-2.8899	0.	127.84
2436	4.3658	-5.8526	0.	124.82
2437	4.0923	-5.6445	0.	125.06
2438	3.8232	-5.4447	0.	125.22
2439	3.5622	-5.227	0.	125.34
2440	3.8247	-5.0011	0.	125.
2441	3.0726	-4.7745	0.	125.17
2442	3.3195	-5.0037	0.	125.36
2443	3.582	-4.7779	0.	125.02
2444	3.3483	-4.5504	0.	125.08
2445	-3.5284	2.6048	0.	127.47
2446	-3.796	2.8395	0.	127.2
2447	-3.5524	3.1147	0.	127.57
2448	-3.2844	2.8682	0.	127.57
2449	5.7042	-3.9937	0.	123.56
2450	5.4626	-3.7389	0.	123.05
2451	5.9301	-4.7517	0.	124.15
2452	5.9476	-4.2496	0.	123.91
2453	6.1954	-4.5015	0.	124.26
2454	-3.793	-4.9277	0.	127.66
2455	-4.0621	-5.1542	0.	127.06
2456	-3.8553	-5.3876	0.	127.02
2457	-4.8248	-5.8453	0.	125.01
2458	-5.0291	-5.605	0.	124.65
2459	-4.7842	-5.3749	0.	125.49
2460	0.73587	-1.989	0.	122.61
2461	0.99197	-1.7478	0.	122.06
2462	1.239	-1.9954	0.	123.06
2463	1.4822	-2.24	0.	123.74
2464	1.7238	-2.479	0.	124.56
2465	-5.506	-6.0535	0.	123.74
2466	-5.744	-6.2628	0.	123.52
2467	-5.9358	-6.0443	0.	123.21
2468	-5.7131	-5.8188	0.	123.23
2469	-2.5167	-6.1548	0.	127.
2470	-2.393	-5.7797	0.	127.35
2471	-2.7884	-5.9669	0.	127.06
2472	-2.6351	-5.6819	0.	127.36
2473	-2.0687	-1.6817	0.	126.97
2474	-2.3543	-1.9176	0.	127.1
2475	-1.7937	-1.4488	0.	126.81
2476	-2.0293	-1.2082	0.	127.24
2477	-2.3098	-1.4469	0.	127.27
2478	3.9014	-4.1161	0.	124.46
2479	3.8578	-4.5624	0.	124.72
2480	3.6242	-4.3349	0.	124.77
2481	-3.8478e-002	-2.2035	0.	123.49
2482	-0.30611	-2.4313	0.	124.11
2483	-2.6624	-3.5726	0.	127.66
2484	-2.9277	-3.8018	0.	127.98
2485	-2.8861	-3.3393	0.	127.76
2486	5.7235	6.0843	0.	124.51
2487	5.9813	6.3239	0.	124.39
2488	6.2311	6.0879	0.	124.29
2489	5.9676	5.8568	0.	124.41
2490	4.6388	-6.0633	0.	124.69
2491	4.9097	-6.2871	0.	124.55
2492	5.1585	-6.0283	0.	124.52
2493	5.9235	-5.2535	0.	124.35
2494	6.1847	-5.0024	0.	124.42
2495	6.1857	-5.5031	0.	124.55
2496	5.9296	-5.755	0.	124.49
2497	5.4766	6.3158	0.	124.6
2498	5.2199	6.0716	0.	124.79
2499	5.462	5.8461	0.	124.65
2500	4.4768	6.2879	0.	125.19
2501	4.2233	6.038	0.	125.51
2502	4.7199	6.0542	0.	125.14
2503	-5.0671	-6.0717	0.	124.46
2504	-4.6145	-6.084	0.	125.21
2505	-4.8673	-6.3163	0.	124.75
2506	-5.2714	-5.8314	0.	124.09
2507	-5.3174	-6.2969	0.	124.09
2508	-4.3955	-6.3238	0.	125.41
2509	-4.1478	-6.0879	0.	125.86
2510	-3.4376	-6.3091	0.	126.36
2511	-3.2266	-6.0542	0.	126.74
2512	-3.6827	-6.0822	0.	126.37
2513	-0.57259	-5.8851	0.	127.21
2514	-0.21194	-5.7497	0.	125.55
2515	-0.66289	-5.5721	0.	126.7
2516	-3.7917	3.9014	0.	127.5
2517	-3.5262	4.141	0.	128.46
2518	-3.5496	3.6281	0.	127.9
2519	-3.2798	3.8816	0.	128.54
2520	2.0832	-4.341	0.	124.27
2521	2.3172	-4.5617	0.	124.61
2522	2.3595	-4.102	0.	124.74
2523	1.0636	-4.3781	0.	123.2
2524	0.78276	-4.6258	0.	122.81
2525	0.5706	-4.3581	0.	123.39
2526	-1.521	-5.7362	0.	127.54
2527	-1.1941	-5.7481	0.	127.61
2528	-1.1045	-5.5431	0.	127.27
2529	-2.6365	-2.1554	0.	127.31
2530	-2.9431	-2.421	0.	127.47
2531	-5.3073	3.5791	0.	123.09
2532	-5.0533	3.8119	0.	123.73
2533	-5.0663	3.3533	0.	123.8
2534	-5.5423	3.8134	0.	122.5
2535	-5.2883	4.0463	0.	123.14
2536	-5.5279	4.2899	0.	122.47
2537	-5.7828	4.047	0.	122.31
2538	-4.2952	3.9602	0.	126.08
2539	-4.0323	4.175	0.	127.02
2540	-4.0864	3.6427	0.	126.72
2541	3.1498	-3.8705	0.	125.05
2542	2.9087	-3.6367	0.	125.34
2543	2.6353	-3.8714	0.	124.99
2544	4.1783	-3.9067	0.	124.
2545	4.4482	-3.6852	0.	123.4
2546	2.9902	6.2576	0.	125.29
2547	2.9795	5.7572	0.	126.1
2548	3.2313	6.0123	0.	125.7
2549	2.7302	6.0011	0.	125.32
2550	-0.7905	-1.946	0.	124.86
2551	-1.0376	-1.6983	0.	125.52
2552	0.22827	-1.9744	0.	122.93
2553	0.48742	-1.7373	0.	122.12
2554	-3.1942	-4.0242	0.	128.2
2555	-3.4616	-4.2474	0.	128.32
2556	2.7517	6.5088	0.	124.76
2557	2.5148	6.7642	0.	124.48
2558	2.2647	6.5186	0.	124.28
2559	2.4917	6.2523	0.	124.79
2560	-5.9586	-6.4787	0.	123.54
2561	-5.8703	-6.7017	0.	123.72
2562	-5.5554	-6.5063	0.	123.87
2563	-2.2571	-6.2786	0.	127.02
2564	-2.6935	-6.4538	0.	126.63
2565	-2.3662	-6.6775	0.	126.5
2566	4.3889	-6.325	0.	124.75
2567	4.1163	-6.1075	0.	125.05
2568	3.8428	-5.8994	0.	125.29
2569	3.5715	-5.6818	0.	125.61
2570	2.803	-5.0061	0.	125.38
2571	2.5547	-4.7846	0.	124.88
2572	-3.5037	2.1028	0.	127.51
2573	-3.2633	2.366	0.	127.4
2574	-3.7643	2.333	0.	127.45
2575	-4.5709	2.9417	0.	125.7
2576	-4.8322	3.1414	0.	124.62
2577	-4.3617	3.2629	0.	125.98
2578	5.9686	-3.7482	0.	123.66
2579	6.2117	-4.	0.	124.1
2580	6.45	-4.7522	0.	124.52
2581	6.7099	-4.5023	0.	124.73
2582	6.4595	-4.2519	0.	124.45
2583	5.2237	-3.4808	0.	122.66
2584	4.98	-3.2268	0.	122.09
2585	4.7167	-3.4599	0.	122.86
2586	3.2236	5.5155	0.	126.66
2587	3.4665	5.2777	0.	127.34
2588	3.4755	5.7706	0.	126.27
2589	3.7175	5.5331	0.	126.53
2590	-2.5011	2.1606	0.	127.02
2591	-2.4856	1.6748	0.	126.94
2592	-2.7443	1.9012	0.	127.05
2593	-2.2429	1.9297	0.	126.88
2594	-2.973	-0.73009	0.	127.82
2595	-2.9281	-0.25852	0.	127.61
2596	-3.1821	-0.49241	0.	127.86
2597	-2.6999	-0.49173	0.	127.7
2598	-1.2833	-1.4537	0.	126.09
2599	-1.5238	-1.2098	0.	126.8
2600	-4.0057	-4.6938	0.	127.81
2601	-3.7358	-4.4702	0.	128.21
2602	-5.2447	-5.3668	0.	124.2
2603	-5.4785	-5.5967	0.	123.59
2604	5.6927	-6.5097	0.	124.57
2605	6.2045	-6.5035	0.	124.7
2606	5.9547	-6.755	0.	124.65
2607	5.9423	-6.2554	0.	124.58
2608	5.7345	6.5553	0.	124.48
2609	6.2396	6.559	0.	124.32
2610	5.9896	6.7994	0.	124.41
2611	6.4791	5.8551	0.	124.21
2612	6.4893	6.3231	0.	124.22
2613	6.7412	6.0776	0.	124.11
2614	6.7315	5.607	0.	124.08
2615	6.4555	5.3948	0.	124.35
2616	6.2156	5.624	0.	124.33
2617	-6.1504	-6.2602	0.	123.22
2618	-6.0648	-6.6986	0.	123.61
2619	-6.3642	-6.4835	0.	123.43
2620	-4.2748	-4.9203	0.	127.21
2621	-4.5316	-5.146	0.	126.28
2622	-3.7669	4.4146	0.	127.98
2623	-3.2628	4.3876	0.	129.32
2624	-3.5091	4.6504	0.	129.05
2625	-1.7594	-0.96924	0.	127.23
2626	-2.2605	-0.96968	0.	127.5
2627	-1.9948	-0.72863	0.	127.59
2628	4.6699	4.6195	0.	125.54
2629	4.1857	4.5822	0.	127.16
2630	4.4213	4.3516	0.	126.25
2631	4.4356	4.8401	0.	126.14
2632	1.9597	-2.7122	0.	125.04
2633	2.1962	-2.9445	0.	125.37
2634	1.9306	-3.1857	0.	124.77
2635	3.0499	-5.2354	0.	125.57
2636	3.3105	-5.4641	0.	125.72
2637	0.99622	-1.2519	0.	120.7
2638	1.2443	-1.5008	0.	122.02
2639	0.74351	-1.4962	0.	121.58
2640	1.7389	-1.9941	0.	124.29
2641	1.4914	-1.7484	0.	123.02
2642	0.42181	-5.3774	0.	122.32
2643	9.8928e-002	-5.5826	0.	124.02
2644	-6.1475	-5.8272	0.	122.73
2645	-6.3572	-6.0499	0.	123.01
2646	1.5684	-4.3669	0.	123.58
2647	1.7969	-4.5881	0.	123.71
2648	1.8481	-4.1206	0.	124.08
2649	1.2738	-4.6234	0.	122.88
2650	1.3405	-4.1425	0.	123.49
2651	-1.8867	-6.0066	0.	127.41
2652	-1.5659	-6.0457	0.	127.61
2653	-1.9358	-6.3672	0.	127.11
2654	-2.1334	-5.9035	0.	127.38
2655	-2.5954	-1.6829	0.	127.4
2656	-2.8935	-1.9272	0.	127.55
2657	-2.8301	-1.4447	0.	127.71
2658	-2.541	-1.2084	0.	127.53
2659	-2.962	1.1611	0.	127.18
2660	-2.7247	1.4167	0.	127.07
2661	-3.2208	1.3807	0.	127.33
2662	-2.9835	1.6431	0.	127.17
2663	-5.7938	3.568	0.	122.05
2664	-5.5492	3.3385	0.	122.3
2665	-6.0385	3.3173	0.	121.29
2666	-6.0343	3.8016	0.	121.86
2667	-6.2843	3.5478	0.	121.65
2668	-6.7719	4.0234	0.	122.58
2669	-6.5207	4.2764	0.	122.47
2670	-6.2774	4.0368	0.	122.15
2671	-6.5274	3.783	0.	121.94
2672	-4.7924	4.0221	0.	124.51
2673	-5.0304	4.2786	0.	123.62
2674	-4.5304	4.2421	0.	125.31
2675	3.6643	-3.8812	0.	124.65
2676	3.4225	-3.6421	0.	125.07
2677	3.3871	-4.1	0.	124.96
2678	3.9347	-3.6573	0.	124.28
2679	1.7246	5.8568	0.	124.26
2680	1.9769	5.7066	0.	124.66
2681	1.7323	6.0646	0.	124.05
2682	1.9859	6.2522	0.	124.17
2683	2.213	5.9858	0.	124.68
2684	-2.9378	0.68373	0.	127.26
2685	-3.1963	0.90451	0.	127.27
2686	-2.7052	0.93658	0.	127.21
2687	-2.6817	0.45741	0.	127.41
2688	-3.1699	0.43058	0.	127.28
2689	-2.9208	0.21044	0.	127.4
2690	-0.28058	-1.9593	0.	123.8
2691	-0.52693	-1.7114	0.	124.32
2692	-0.5482	-2.1871	0.	124.42
2693	-3.1514	-3.5685	0.	128.08
2694	-3.4235	-3.788	0.	128.4
2695	-3.367	-3.3345	0.	128.18
2696	5.1779	-6.5238	0.	124.53
2697	5.4436	-6.7628	0.	124.55
2698	5.4267	-6.265	0.	124.5
2699	4.9293	-6.7794	0.	124.52
2700	4.6598	-6.5488	0.	124.61
2701	6.4469	-5.252	0.	124.62
2702	6.704	-5.0019	0.	124.76
2703	6.7055	-5.5014	0.	124.82
2704	6.4491	-5.752	0.	124.7
2705	5.2317	6.5458	0.	124.69
2706	4.7319	6.5353	0.	124.92
2707	4.9855	6.7826	0.	124.75
2708	4.975	6.3016	0.	124.88
2709	5.4864	6.7922	0.	124.57
2710	4.4872	6.7753	0.	124.93
2711	4.2345	6.5264	0.	125.11
2712	3.2448	6.511	0.	125.08
2713	3.004	6.7606	0.	124.83
2714	3.4966	6.7623	0.	125.02
2715	3.4859	6.2657	0.	125.5
2716	3.7391	6.5177	0.	125.2
2717	-4.6482	-6.5561	0.	124.95
2718	-4.9104	-6.7902	0.	124.62
2719	-5.1175	-6.5416	0.	124.38
2720	-4.1634	-6.5604	0.	125.5
2721	-3.6706	-6.5514	0.	125.95
2722	-3.9211	-6.7974	0.	125.6
2723	-3.9157	-6.3245	0.	125.95
2724	-4.4205	-6.7978	0.	125.14
2725	-3.1762	-6.5208	0.	126.31
2726	-2.8952	-6.7415	0.	126.25
2727	-2.9652	-6.2658	0.	126.68
2728	-3.4151	-6.7786	0.	125.97
2729	0.99296	-4.8712	0.	122.49
2730	0.70673	-5.1498	0.	121.89
2731	-2.0448	-6.7661	0.	126.58
2732	-2.0734	-7.1612	0.	125.94
2733	-2.3416	-7.2088	0.	125.95
2734	-2.5678	-6.9652	0.	126.12
2735	-3.0487	-1.2052	0.	127.94
2736	-3.2501	-0.96064	0.	128.29
2737	-2.7595	-0.96883	0.	127.76
2738	-3.4807	1.6077	0.	127.52
2739	-3.7395	1.8358	0.	127.73
2740	-3.2434	1.8701	0.	127.36
2741	-6.2846	3.0589	0.	120.85
2742	-6.5252	2.7942	0.	120.09
2743	-6.777	3.0262	0.	121.27
2744	-6.5304	3.2894	0.	121.21
2745	-5.5144	4.7718	0.	122.06
2746	-5.2701	4.5223	0.	122.95
2747	-5.7703	4.529	0.	122.27
2748	3.1814	-3.4082	0.	125.36
2749	2.9371	-3.1693	0.	125.92
2750	2.6691	-3.4067	0.	125.39
2751	2.7318	5.4974	0.	126.26
2752	2.9773	5.2601	0.	127.3
2753	-2.511	2.6509	0.	127.38
2754	-2.2543	2.4182	0.	127.1
2755	-2.7598	2.3927	0.	127.23
2756	-2.2298	1.4458	0.	127.
2757	-2.4679	1.1922	0.	127.1
2758	-1.0187	-1.2153	0.	125.94
2759	-0.77402	-1.4637	0.	124.98
2760	4.9016	4.3994	0.	124.36
2761	5.1546	4.6646	0.	124.62
2762	4.9228	4.8785	0.	124.97
2763	6.4633	-6.7517	0.	124.82
2764	6.7142	-6.501	0.	124.9
2765	6.4551	-6.2519	0.	124.76
2766	6.7457	6.5543	0.	124.22
2767	6.4943	6.7996	0.	124.3
2768	6.9936	5.8296	0.	123.98
2769	6.9762	5.3569	0.	123.97
2770	7.2499	5.5699	0.	123.81
2771	6.7003	5.1446	0.	124.24
2772	6.4077	4.9405	0.	124.78
2773	6.1842	5.1682	0.	124.53
2774	1.5198	5.523	0.	124.24
2775	1.5088	5.9455	0.	124.
2776	1.2935	5.7103	0.	124.49
2777	-7.0212	3.7659	0.	122.64
2778	-7.0161	4.2653	0.	123.21
2779	-7.2662	4.011	0.	123.37
2780	-1.4977	-0.72727	0.	127.44
2781	-1.2592	-0.97144	0.	126.65
2782	3.9389	4.3252	0.	128.55
2783	3.7012	4.5571	0.	128.75
2784	3.9483	4.8111	0.	127.61
2785	3.2201	5.0224	0.	127.97
2786	3.4605	4.79	0.	128.7
2787	3.7077	5.0439	0.	127.55
2788	2.789	-5.4687	0.	125.98
2789	2.5267	-5.2455	0.	125.24
2790	4.1745	4.0946	0.	127.65
2791	4.4097	3.8482	0.	126.25
2792	4.653	4.1315	0.	125.07
2793	1.2464	-1.0042	0.	120.55
2794	0.99765	-0.7535	0.	118.8
2795	0.7475	-1.0009	0.	120.15
2796	1.7722	5.3727	0.	124.65
2797	1.3011	5.2479	0.	124.27
2798	1.5655	5.093	0.	124.1
2799	3.8895	-6.8331	0.	124.75
2800	3.614	-6.6117	0.	125.27
2801	4.1383	-6.5793	0.	124.83
2802	3.8656	-6.3618	0.	125.13
2803	1.5024	-4.8447	0.	123.01
2804	1.2113	-5.1122	0.	121.92
2805	-1.615	-6.4063	0.	127.31
2806	-1.2383	-6.3768	0.	127.86
2807	-1.2389	-6.0575	0.	127.67
2808	-1.6423	-6.7678	0.	126.77
2809	-3.3523	-1.4305	0.	128.42
2810	-3.1283	-1.6891	0.	127.87
2811	-3.7133	1.3495	0.	127.76
2812	-3.4551	1.1241	0.	127.42
2813	-6.0322	2.8312	0.	120.37
2814	-5.794	3.0878	0.	121.55
2815	-6.7649	4.5182	0.	123.1
2816	-6.5133	4.7691	0.	122.91
2817	-6.2684	4.5257	0.	122.43
2818	-4.2675	4.4569	0.	126.26
2819	-4.7684	4.4986	0.	124.43
2820	-4.5104	4.7269	0.	125.31
2821	3.6928	-3.4183	0.	124.7
2822	3.4484	-3.1759	0.	125.5
2823	3.9583	-3.1881	0.	124.26
2824	4.2046	-3.4358	0.	123.68
2825	6.2299	-3.4994	0.	124.01
2826	5.9853	-3.2478	0.	123.45
2827	5.727	-3.4934	0.	123.14
2828	6.7321	-3.5013	0.	124.88
2829	6.4859	-3.2504	0.	124.65
2830	6.473	-3.7511	0.	124.46
2831	2.2465	5.4621	0.	125.47
2832	2.4982	5.2381	0.	126.53
2833	2.4826	5.7414	0.	125.48
2834	2.0243	5.1954	0.	125.27
2835	-2.2583	2.9086	0.	127.66
2836	-2.7705	2.8876	0.	127.65
2837	-2.5146	3.1432	0.	127.98
2838	-2.1964	0.47826	0.	127.75
2839	-2.449	0.71026	0.	127.37
2840	-2.4373	0.22998	0.	127.6
2841	-1.8513e-002	-1.7249	0.	123.03
2842	-0.26487	-1.477	0.	123.55
2843	-6.8601e-003	-1.2375	0.	122.57
2844	0.24064	-1.4879	0.	122.22
2845	-3.6391	-3.554	0.	128.5
2846	-3.9157	-3.7712	0.	128.83
2847	-3.6908	-4.0112	0.	128.52
2848	-3.8489	-3.3112	0.	128.58
2849	-3.5638	-3.1058	0.	128.18
2850	-6.1552	-5.386	0.	122.02
2851	-6.3613	-5.6329	0.	122.48
2852	-5.9248	-5.6017	0.	122.75
2853	5.866	4.498	0.	124.92
2854	6.1317	4.7191	0.	124.95
2855	5.6423	4.706	0.	124.61
2856	5.9082	4.9469	0.	124.7
2857	4.1627	-7.0582	0.	124.51
2858	4.681	-7.035	0.	124.49
2859	4.4357	-7.2891	0.	124.46
2860	4.4116	-6.8044	0.	124.58
2861	3.639	-7.0894	0.	124.59
2862	3.9185	-7.3131	0.	124.41
2863	5.195	-7.0184	0.	124.53
2864	5.7055	-7.0082	0.	124.62
2865	5.4586	-7.26	0.	124.6
2866	4.9484	-7.2719	0.	124.52
2867	6.2135	-7.0032	0.	124.76
2868	6.7207	-7.0008	0.	124.95
2869	6.4717	-7.2514	0.	124.88
2870	5.9654	-7.2544	0.	124.72
2871	6.9976	6.3088	0.	124.11
2872	6.9991	6.7919	0.	124.26
2873	7.2509	6.5425	0.	124.21
2874	7.2506	6.0565	0.	124.01
2875	7.2447	5.0777	0.	123.65
2876	6.9096	4.8977	0.	124.31
2877	6.9672	-6.2504	0.	125.
2878	6.9645	-5.7507	0.	124.98
2879	6.7081	-6.0012	0.	124.86
2880	7.2195	-6.0003	0.	125.14
2881	6.9716	-6.7501	0.	125.03
2882	7.2228	-6.4999	0.	125.14
2883	6.9626	-5.2513	0.	124.97
2884	6.9639	-4.752	0.	124.97
2885	7.2182	-5.0015	0.	125.16
2886	7.2191	-5.5007	0.	125.14
2887	6.9708	-4.2523	0.	125.02
2888	6.9794	-3.7521	0.	125.17
2889	7.2286	-4.0023	0.	125.33
2890	6.7204	-4.0019	0.	124.74
2891	7.2212	-4.5022	0.	125.21
2892	6.2443	7.04	0.	124.39
2893	5.7415	7.0362	0.	124.49
2894	5.9945	7.2817	0.	124.47
2895	6.497	7.283	0.	124.41
2896	6.7477	7.0373	0.	124.34
2897	5.2402	7.029	0.	124.63
2898	4.7408	7.0227	0.	124.76
2899	4.9929	7.2704	0.	124.68
2900	5.4929	7.2761	0.	124.56
2901	4.2436	7.0173	0.	124.86
2902	3.7486	7.0129	0.	124.87
2903	3.9983	7.2626	0.	124.82
2904	3.991	6.7683	0.	125.04
2905	4.4945	7.2668	0.	124.77
2906	3.5043	7.2609	0.	124.78
2907	3.2559	7.012	0.	124.77
2908	2.2848	7.031	0.	124.29
2909	1.8099	7.0632	0.	124.14
2910	2.0457	7.2917	0.	124.4
2911	2.0347	6.7854	0.	124.09
2912	2.5264	7.2713	0.	124.49
2913	2.7671	7.0161	0.	124.55
2914	1.34	7.1003	0.	124.27
2915	1.111	6.882	0.	123.92
2916	1.0973	7.3523	0.	125.16
2917	0.87114	7.1215	0.	125.08
2918	1.3107	6.1594	0.	123.82
2919	1.5405	6.3785	0.	123.7
2920	1.5705	7.3252	0.	124.55
2921	1.5693	6.8438	0.	123.86
2922	-7.0486	-5.6161	0.	123.11
2923	-7.2667	-5.9054	0.	123.7
2924	-6.7859	-5.971	0.	123.12
2925	-7.0214	-6.165	0.	123.47
2926	-6.7902	-5.7716	0.	122.88
2927	-6.2466	-6.9447	0.	123.78
2928	-5.7084	-6.9612	0.	123.97
2929	-5.9815	-7.1918	0.	123.93
2930	-6.7683	-6.9646	0.	123.88
2931	-6.5069	-7.2173	0.	123.91
2932	-6.546	-6.7296	0.	123.6
2933	-5.4573	-7.2453	0.	124.21
2934	-5.1863	-7.0144	0.	124.36
2935	-5.3934	-6.7658	0.	124.12
2936	-4.4413	-7.2771	0.	124.99
2937	-4.1782	-7.0348	0.	125.25
2938	-4.6827	-7.0318	0.	124.81
2939	-3.4155	-7.2584	0.	125.66
2940	-3.1341	-6.9993	0.	125.91
2941	-3.6656	-7.0246	0.	125.62
2942	-7.27	3.5079	0.	122.93
2943	-7.0233	3.2624	0.	122.07
2944	-6.7767	3.5256	0.	122.
2945	7.2353	-3.5023	0.	125.54
2946	6.9871	-3.2519	0.	125.49
2947	-7.0104	4.7625	0.	123.88
2948	-7.2614	4.5104	0.	123.91
2949	-4.9759	-4.6697	0.	125.79
2950	-4.4939	-4.6806	0.	127.19
2951	-4.7507	-4.9063	0.	126.26
2952	-4.7172	-4.4382	0.	127.4
2953	-2.9949	5.1272	0.	130.98
2954	-2.7474	4.8697	0.	131.18
2955	-3.0043	4.6269	0.	130.36
2956	-3.2506	4.8896	0.	130.1
2957	-1.4777	-0.24101	0.	128.19
2958	-1.2394	-0.48537	0.	127.57
2959	-1.7332	-0.48667	0.	127.8
2960	2.4785	-2.2231	0.	126.82
2961	2.222	-2.469	0.	125.83
2962	2.7201	-2.4617	0.	127.01
2963	2.4585	-2.7014	0.	126.17
2964	-4.4968	2.0154	0.	127.58
2965	-4.2625	2.2833	0.	127.21
2966	-4.5279	2.4887	0.	126.51
2967	-4.7606	2.2261	0.	126.25
2968	2.7957	-5.9372	0.	126.67
2969	2.5212	-5.712	0.	126.1
2970	3.0496	-5.6975	0.	126.13
2971	1.7447	-1.0058	0.	122.58
2972	1.4945	-1.2531	0.	121.89
2973	1.4952	-0.75587	0.	120.43
2974	-7.0121	-7.2152	0.	124.11
2975	-7.2672	-6.9606	0.	124.2
2976	-7.0288	-6.7022	0.	123.85
2977	-7.0041	2.2484	0.	120.86
2978	-6.7689	2.5232	0.	120.29
2979	-7.0207	2.7553	0.	121.48
2980	-7.2682	2.4806	0.	122.43
2981	-6.905	1.2768	0.	120.23
2982	-6.9529	1.752	0.	120.35
2983	-7.1214	1.4713	0.	122.85
2984	-6.6852	1.5211	0.	116.52
2985	7.2276	-6.9996	0.	125.16
2986	6.9771	-7.2499	0.	125.07
2987	1.9908	-1.7461	0.	124.85
2988	2.237	-1.9873	0.	126.1
2989	1.9805	-2.2332	0.	125.12
2990	0.74919	-0.50201	0.	118.26
2991	0.99861	-0.25346	0.	116.31
2992	1.2465	-0.50513	0.	118.66
2993	-1.2456	1.973	0.	128.34
2994	-1.4915	1.7205	0.	127.49
2995	-1.7436	1.9544	0.	127.1
2996	-1.4957	2.2096	0.	127.46
2997	4.9982	-2.2414	0.	119.35
2998	5.2469	-2.4918	0.	120.64
2999	4.9921	-2.7349	0.	120.92
3000	4.7443	-2.4843	0.	120.97
3001	-7.3296	-5.3777	0.	123.62
3002	-7.1118	-5.0935	0.	122.9
3003	-6.8608	-5.2877	0.	122.4
3004	-5.4678	-5.135	0.	123.45
3005	-5.225	-4.8999	0.	124.57
3006	-4.9998	-5.1366	0.	125.04
3007	-3.8878	-2.599	0.	128.03
3008	-4.0309	-3.0628	0.	128.47
3009	-4.223	-2.8178	0.	128.24
3010	-3.7458	-2.8574	0.	128.07
3011	-4.1843	-3.9919	0.	128.78
3012	-4.2293	-4.4555	0.	128.08
3013	-3.9594	-4.2319	0.	128.48
3014	-4.4526	-4.2132	0.	128.29
3015	-2.2473	4.375	0.	129.49
3016	-2.4987	4.6171	0.	130.79
3017	-2.505	4.1253	0.	129.59
3018	-2.7556	4.3742	0.	129.97
3019	-3.4869	5.6543	0.	129.22
3020	-3.7415	5.4205	0.	128.67
3021	-3.2411	5.3915	0.	130.3
3022	-3.4967	5.1539	0.	129.41
3023	0.49904	-0.74946	0.	119.63
3024	0.24729	-0.99488	0.	121.38
3025	0.49479	-1.2453	0.	121.04
3026	-0.75641	-0.97864	0.	125.41
3027	-1.0009	-0.72954	0.	126.78
3028	-1.9752	1.2152	0.	127.28
3029	-1.7351	1.4668	0.	127.33
3030	-1.9872	1.7007	0.	126.94
3031	-2.0017	2.6759	0.	127.37
3032	-1.9961	2.1873	0.	126.96
3033	-1.7482	2.4425	0.	127.32
3034	-1.9989	3.6499	0.	128.51
3035	-1.9949	4.1361	0.	128.8
3036	-2.2527	3.8865	0.	128.9
3037	-1.741	3.9059	0.	128.43
3038	2.7437	5.0008	0.	127.57
3039	2.9764	4.7663	0.	128.92
3040	-5.7594	5.0161	0.	121.85
3041	-5.257	5.0075	0.	122.4
3042	-5.5045	5.2599	0.	121.04
3043	-6.7587	5.0133	0.	123.69
3044	-7.2568	5.0084	0.	124.62
3045	-7.0058	5.2592	0.	124.82
3046	-3.9721	1.5776	0.	127.97
3047	-4.2344	1.7982	0.	128.04
3048	-4.0001	2.0661	0.	127.68
3049	-3.7535	-2.1344	0.	128.19
3050	-3.5188	-2.4095	0.	127.79
3051	-4.0704	-2.3556	0.	127.98
3052	3.3395	-6.3924	0.	125.79
3053	3.066	-6.1646	0.	126.51
3054	3.5912	-6.1425	0.	125.65
3055	3.3199	-5.9249	0.	125.96
3056	3.3635	-6.868	0.	125.11
3057	3.1139	-7.1243	0.	124.86
3058	3.3943	-7.3503	0.	124.35
3059	3.0895	-6.6385	0.	126.17
3060	1.994	-5.2722	0.	124.01
3061	1.7157	-5.5264	0.	123.11
3062	1.7466	-5.0571	0.	123.33
3063	1.4555	-5.3246	0.	122.23
3064	-1.2656	-6.7383	0.	127.32
3065	-0.84401	-6.6348	0.	128.53
3066	-0.88186	-6.3148	0.	128.04
3067	-1.6709	-7.163	0.	126.12
3068	-1.236	-7.0728	0.	126.46
3069	-3.6588	-1.6591	0.	128.68
3070	-3.9678	-1.8822	0.	128.88
3071	-3.4347	-1.9176	0.	128.12
3072	-3.9456	1.0944	0.	127.8
3073	-3.6874	0.86906	0.	127.46
3074	-3.9208	0.62398	0.	127.39
3075	-4.1786	0.84555	0.	127.86
3076	-4.2052	1.3193	0.	128.4
3077	-5.2871	2.6466	0.	123.12
3078	-5.7799	2.6077	0.	120.85
3079	-5.5212	2.3897	0.	122.01
3080	-5.5417	2.8644	0.	122.04
3081	-6.2601	5.0168	0.	122.55
3082	-6.5071	5.263	0.	123.47
3083	-6.007	5.2638	0.	121.7
3084	-6.0152	4.7734	0.	122.07
3085	-5.0015	5.246	0.	122.65
3086	-5.0126	4.758	0.	123.29
3087	-4.7546	4.9863	0.	124.18
3088	3.7139	-2.9457	0.	125.05
3089	3.4666	-2.7004	0.	126.44
3090	3.2042	-2.9369	0.	126.05
3091	3.9771	-2.7105	0.	124.49
3092	4.2239	-2.9586	0.	123.4
3093	6.2413	-2.9988	0.	124.09
3094	5.9943	-2.7476	0.	123.41
3095	5.7408	-2.9947	0.	122.69
3096	6.4941	-2.7495	0.	125.23
3097	6.7409	-3.001	0.	125.26
3098	2.276	4.9715	0.	126.34
3099	2.5065	4.7433	0.	127.9
3100	2.0419	4.7137	0.	125.75
3101	1.8177	4.9157	0.	124.72
3102	-2.0018	3.1638	0.	127.99
3103	-1.7456	3.4196	0.	128.47
3104	-2.2581	3.3984	0.	128.32
3105	-1.7488	2.9323	0.	127.89
3106	-1.9607	0.72959	0.	127.75
3107	-1.722	0.97866	0.	127.89
3108	-2.2134	0.96158	0.	127.38
3109	-1.7111	0.49088	0.	128.4
3110	-1.9545	0.24345	0.	128.02
3111	-0.51171	-1.227	0.	124.45
3112	-0.2537	-0.98746	0.	123.47
3113	-0.50083	-0.73678	0.	125.04
3114	-3.2316	5.89	0.	129.4
3115	-3.7337	5.9209	0.	128.7
3116	-3.4772	6.1539	0.	128.52
3117	-1.7384	4.391	0.	127.79
3118	-1.9926	4.624	0.	129.27
3119	-1.4853	4.6436	0.	125.61
3120	-1.4844	4.1608	0.	127.43
3121	-1.229	4.4225	0.	125.85
3122	-4.1256	-3.5284	0.	128.91
3123	-4.4101	-3.7493	0.	129.12
3124	-4.3399	-3.284	0.	129.24
3125	-5.9321	-5.1493	0.	122.1
3126	-5.6993	-4.9031	0.	122.38
3127	-5.7017	-5.365	0.	122.84
3128	-6.1713	-4.9305	0.	120.88
3129	-6.3962	-5.1962	0.	121.71
3130	5.8299	4.0482	0.	125.12
3131	5.6061	4.249	0.	124.33
3132	6.0822	4.2671	0.	125.7
3133	1.9935	-1.253	0.	124.27
3134	2.2436	-1.5001	0.	125.94
3135	1.7432	-1.5004	0.	123.58
3136	3.9564	-7.7976	0.	124.41
3137	4.1915	-7.544	0.	124.36
3138	3.6738	-7.574	0.	124.16
3139	5.4725	-7.7573	0.	124.73
3140	5.212	-7.5134	0.	124.59
3141	5.7185	-7.5062	0.	124.71
3142	6.4799	-7.751	0.	124.97
3143	6.2236	-7.5025	0.	124.84
3144	6.7281	-7.5005	0.	125.
3145	7.5184	5.2907	0.	123.5
3146	7.6264	4.7834	0.	122.89
3147	7.4132	4.8112	0.	123.35
3148	7.7907	5.0375	0.	123.29
3149	7.5069	5.7967	0.	123.84
3150	7.7648	5.5423	0.	123.77
3151	7.7575	6.0378	0.	124.1
3152	7.504	6.2902	0.	124.11
3153	7.5019	7.2709	0.	124.49
3154	7.7529	7.0213	0.	124.53
3155	7.2509	7.0296	0.	124.38
3156	7.5027	6.7802	0.	124.33
3157	-2.9353	7.09	0.	127.08
3158	-2.8418	7.5553	0.	127.79
3159	-3.1702	7.3594	0.	127.35
3160	-2.6568	7.3153	0.	128.48
3161	-7.0955	1.0037	0.	123.9
3162	-6.865	0.83035	0.	118.54
3163	-6.6744	1.01	0.	115.99
3164	5.2497	-1.9951	0.	119.13
3165	4.7491	-1.9915	0.	119.54
3166	4.9999	-1.7453	0.	118.41
3167	-0.99327	1.7339	0.	129.14
3168	-0.99551	2.2272	0.	129.12
3169	-0.74622	1.986	0.	132.24
3170	-6.7421	2.021	0.	118.94
3171	-7.2539	1.947	0.	122.75
3172	-7.7611	4.0028	0.	124.26
3173	-7.5151	3.753	0.	123.65
3174	-7.5115	4.2562	0.	124.06
3175	-7.7549	5.0043	0.	125.19
3176	-7.5078	4.7564	0.	124.65
3177	-7.5046	5.2553	0.	125.41
3178	-1.6439	-7.4751	0.	125.42
3179	-1.2091	-7.385	0.	125.76
3180	-1.2098	-7.6188	0.	125.02
3181	-1.4516	-7.8058	0.	125.29
3182	-2.1398	-7.4229	0.	125.68
3183	-1.9115	-7.6689	0.	125.58
3184	-2.6583	-7.4746	0.	125.69
3185	-2.4246	-7.7192	0.	125.67
3186	-3.1659	-7.4902	0.	125.61
3187	-2.9265	-7.7291	0.	125.65
3188	-2.8845	-7.2311	0.	125.86
3189	-3.6797	-7.5085	0.	125.41
3190	-3.4358	-7.7478	0.	125.5
3191	-4.1929	-7.517	0.	125.11
3192	-3.9298	-7.2747	0.	125.37
3193	-3.9453	-7.7605	0.	125.25
3194	-4.7059	-7.5145	0.	124.76
3195	-4.4565	-7.763	0.	124.94
3196	-5.2183	-7.5002	0.	124.43
3197	-4.9692	-7.7559	0.	124.62
3198	-4.9473	-7.2693	0.	124.58
3199	-5.7304	-7.4759	0.	124.17
3200	-5.4793	-7.7398	0.	124.34
3201	-6.2418	-7.4644	0.	124.06
3202	-5.989	-7.7199	0.	124.17
3203	-6.7507	-7.4679	0.	124.14
3204	-6.496	-7.7209	0.	124.17
3205	-7.2548	-7.4701	0.	124.39
3206	-7.0016	-7.7227	0.	124.32
3207	-7.5098	-7.2154	0.	124.48
3208	-7.7545	-7.4737	0.	124.77
3209	-7.5029	-7.7248	0.	124.62
3210	-7.5186	-6.7013	0.	124.34
3211	-7.7619	-6.9643	0.	124.68
3212	-7.5256	-6.1833	0.	124.21
3213	-7.7699	-6.4509	0.	124.61
3214	-7.2803	-6.4429	0.	123.98
3215	-7.5477	-5.6669	0.	124.2
3216	-7.7786	-5.9375	0.	124.61
3217	-7.5858	-5.1576	0.	124.49
3218	-7.8098	-5.4282	0.	124.82
3219	-7.3679	-4.8734	0.	123.77
3220	-7.8424	-4.9258	0.	125.36
3221	-7.6169	-4.6603	0.	125.23
3222	0.89353	6.6523	0.	123.28
3223	1.1105	6.4064	0.	123.63
3224	1.3403	6.6255	0.	123.51
3225	0.85005	7.5942	0.	126.84
3226	0.37739	7.5995	0.	129.06
3227	0.59919	7.8373	0.	127.72
3228	0.62392	7.3634	0.	126.74
3229	1.3277	7.5772	0.	125.45
3230	1.0788	7.8266	0.	126.21
3231	2.2873	7.5319	0.	124.6
3232	2.0417	7.7871	0.	124.83
3233	1.8063	7.5537	0.	124.81
3234	2.7725	7.5186	0.	124.6
3235	2.5272	7.7718	0.	124.68
3236	3.2617	7.5124	0.	124.67
3237	3.0133	7.2634	0.	124.66
3238	3.0164	7.7642	0.	124.68
3239	3.7541	7.5106	0.	124.73
3240	3.5082	7.7603	0.	124.71
3241	4.0026	7.76	0.	124.73
3242	4.2493	7.5121	0.	124.73
3243	5.2455	7.5176	0.	124.61
3244	4.9972	7.7626	0.	124.66
3245	4.7466	7.5145	0.	124.69
3246	5.7458	7.5216	0.	124.53
3247	5.4967	7.7655	0.	124.59
3248	6.2472	7.5247	0.	124.48
3249	5.9973	7.7689	0.	124.54
3250	6.7491	7.5238	0.	124.47
3251	6.4986	7.7708	0.	124.51
3252	7.2508	7.5193	0.	124.52
3253	6.9998	7.2781	0.	124.41
3254	7.0002	7.7678	0.	124.53
3255	7.5012	7.764	0.	124.62
3256	7.7518	7.5146	0.	124.65
3257	7.7443	-3.0027	0.	126.16
3258	7.4902	-3.2526	0.	125.93
3259	7.242	-3.0022	0.	125.89
3260	7.4957	-2.7539	0.	126.19
3261	7.7349	-4.002	0.	125.81
3262	7.4791	-4.2522	0.	125.52
3263	7.4844	-3.7525	0.	125.69
3264	7.7341	-6.9992	0.	125.38
3265	7.4829	-7.2492	0.	125.27
3266	7.4788	-6.7494	0.	125.27
3267	-7.5329e-002	7.5901	0.	128.9
3268	0.12576	7.8355	0.	128.95
3269	0.15097	7.3602	0.	129.22
3270	2.816	-6.4108	0.	126.88
3271	2.5404	-6.1792	0.	127.51
3272	2.5899	-7.6347	0.	123.55
3273	2.7539	-7.8949	0.	124.04
3274	2.9551	-7.8953	0.	124.01
3275	2.8555	-7.4053	0.	124.35
3276	3.1359	-7.6313	0.	123.84
3277	-9.621e-004	-6.4023	0.	126.21
3278	-0.4422	-6.5206	0.	128.51
3279	-0.48004	-6.2006	0.	128.05
3280	-0.11939	-6.0653	0.	126.4
3281	5.1122	3.7177	0.	121.75
3282	4.8845	3.4234	0.	120.2
3283	4.6409	3.63	0.	124.15
3284	4.8843	3.9133	0.	122.97
3285	-4.0461	-1.1291	0.	130.61
3286	-4.1364	-0.91908	0.	130.92
3287	-3.7116	-0.9328	0.	129.24
3288	-3.9137	-0.69871	0.	129.2
3289	-4.4675	1.5399	0.	128.46
3290	-4.731	1.7551	0.	128.12
3291	-6.2491	2.0736	0.	117.62
3292	-6.4744	1.7901	0.	115.13
3293	-6.5069	2.2958	0.	118.38
3294	-7.2501	7.5008	0.	127.01
3295	-7.5001	7.7504	0.	125.94
3296	-7.5002	7.2509	0.	126.41
3297	-7.7501	7.5005	0.	125.66
3298	-6.7543	5.509	0.	124.59
3299	-7.003	5.7565	0.	126.18
3300	-7.2537	5.5062	0.	125.6
3301	-4.243	5.4524	0.	126.63
3302	-3.9883	5.6871	0.	128.15
3303	-3.9971	5.1863	0.	127.67
3304	-5.7521	5.5076	0.	120.89
3305	-5.4985	5.7528	0.	118.9
3306	-5.2491	5.4985	0.	121.29
3307	1.9937	-0.75922	0.	123.8
3308	2.2438	-1.0075	0.	125.46
3309	6.7471	-2.5003	0.	126.06
3310	6.9939	-2.7517	0.	126.09
3311	7.2476	-2.5034	0.	126.39
3312	6.9996	-2.2534	0.	127.01
3313	5.7471	-2.496	0.	122.26
3314	5.4984	-2.2455	0.	120.44
3315	5.4937	-2.7431	0.	121.54
3316	1.8159	4.4678	0.	124.32
3317	1.564	4.232	0.	121.58
3318	1.3567	4.5494	0.	122.26
3319	1.5917	4.6697	0.	123.3
3320	2.972	4.2757	0.	130.98
3321	3.2167	4.5339	0.	129.64
3322	2.7392	4.5087	0.	129.26
3323	0.55469	4.9045	0.	124.26
3324	0.3112	4.5856	0.	123.23
3325	0.56492	4.343	0.	120.91
3326	0.84645	4.6254	0.	122.16
3327	-1.4691	0.24902	0.	128.69
3328	-1.2266	3.8591e-003	0.	128.77
3329	-1.7124	1.59e-003	0.	128.31
3330	-1.2392	1.4814	0.	128.29
3331	-1.4819	1.2303	0.	127.94
3332	0.25191	-0.49817	0.	120.49
3333	0.50157	-0.25034	0.	117.85
3334	-0.98833	-0.2405	0.	128.15
3335	-0.74532	-0.48768	0.	126.4
3336	-2.9858	5.6272	0.	130.47
3337	-2.7407	5.369	0.	132.37
3338	-2.9592	6.6128	0.	127.07
3339	-3.2022	6.8779	0.	127.13
3340	-2.7051	6.8425	0.	125.97
3341	-2.4931	5.1115	0.	132.58
3342	-2.244	4.8662	0.	130.58
3343	-0.23377	5.0296	0.	124.5
3344	-0.47282	4.7422	0.	123.81
3345	-0.50457	5.2369	0.	122.45
3346	-0.73412	4.96	0.	121.98
3347	-4.532	-3.0389	0.	129.01
3348	-4.7336	-2.7976	0.	129.
3349	-4.4057	-2.5744	0.	128.18
3350	-5.4564	-4.668	0.	123.5
3351	-5.2068	-4.43	0.	125.57
3352	-6.8947	-4.8008	0.	121.82
3353	-7.1425	-4.5984	0.	123.
3354	7.078	4.6312	0.	124.01
3355	6.617	4.6935	0.	124.86
3356	6.8207	4.446	0.	125.36
3357	7.5118	4.5619	0.	122.94
3358	7.7034	4.3103	0.	121.89
3359	7.924	4.5428	0.	122.52
3360	7.2669	4.3694	0.	123.68
3361	3.0703	1.9766	0.	130.09
3362	3.0407	2.3805	0.	130.72
3363	2.8299	2.0771	0.	132.71
3364	3.3244	2.1825	0.	128.99
3365	3.0375	1.5718	0.	130.81
3366	3.3051	1.7687	0.	128.83
3367	2.8262	1.8843	0.	132.49
3368	3.9203	3.3672	0.	130.61
3369	3.9418	2.917	0.	131.31
3370	3.6833	3.121	0.	131.65
3371	4.1494	3.0771	0.	129.58
3372	-6.4188	-4.7293	0.	120.48
3373	-6.6666	-4.5197	0.	119.97
3374	-6.6436	-4.995	0.	121.32
3375	-5.9385	-4.6843	0.	121.14
3376	-6.1845	-4.4573	0.	119.09
3377	-5.6969	-4.4312	0.	121.92
3378	-7.8945	-3.954	0.	127.75
3379	-7.4231	-3.9089	0.	126.36
3380	-7.6451	-4.1763	0.	126.56
3381	-7.6784	-3.7051	0.	128.25
3382	-4.8535	-3.26	0.	129.52
3383	-4.6244	-3.5048	0.	129.45
3384	-7.5155	1.4244	0.	126.69
3385	-7.7082	1.1739	0.	129.27
3386	-7.9103	1.4345	0.	128.21
3387	-7.6108	1.6565	0.	126.4
3388	0.68326	6.4191	0.	123.84
3389	0.48657	6.1609	0.	125.89
3390	0.9002	6.1732	0.	124.21
3391	0.6953	5.9398	0.	125.53
3392	0.44962	6.6461	0.	123.98
3393	0.65366	6.8918	0.	124.43
3394	0.27714	5.1321	0.	125.97
3395	3.365e-002	4.8132	0.	124.99
3396	-2.866e-002	5.3186	0.	127.94
3397	0.43406	5.4332	0.	128.02
3398	0.80129	5.1914	0.	125.12
3399	0.61701	5.4469	0.	126.24
3400	-1.4897	5.1241	0.	123.66
3401	-1.7396	4.8767	0.	127.09
3402	-1.2362	4.9073	0.	122.74
3403	-2.9745	6.1229	0.	128.56
3404	-2.7167	6.3616	0.	127.75
3405	-3.2201	6.3869	0.	127.69
3406	-2.7311	5.8673	0.	130.8
3407	5.1537e-003	-0.24701	0.	122.27
3408	1.6926e-004	-0.74359	0.	122.24
3409	-0.24696	-0.49291	0.	123.82
3410	-1.2241	0.49697	0.	129.48
3411	-1.4724	0.73996	0.	128.53
3412	-1.4925	3.1881	0.	128.36
3413	-1.2352	3.4467	0.	129.24
3414	-1.4876	3.6756	0.	128.39
3415	-1.2426	2.9558	0.	128.86
3416	-1.4953	2.6989	0.	127.83
3417	-0.2054	4.5257	0.	124.3
3418	5.0889e-002	4.2975	0.	123.67
3419	-0.46242	4.2443	0.	126.03
3420	-0.71858	4.4684	0.	124.81
3421	2.0297	4.2332	0.	126.1
3422	2.2724	4.4855	0.	127.31
3423	3.2073	3.5621	0.	132.97
3424	3.6877	3.588	0.	131.16
3425	3.4506	3.3417	0.	132.21
3426	3.4495	3.8195	0.	131.63
3427	7.5134	-1.2723	0.	124.28
3428	7.2577	-1.5118	0.	126.61
3429	7.5061	-1.758	0.	125.71
3430	7.7599	-1.5154	0.	124.72
3431	7.769	-1.0338	0.	122.79
3432	7.5214	-0.80779	0.	122.37
3433	7.263	-1.0404	0.	125.09
3434	6.2471	-2.4983	0.	124.55
3435	5.9983	-2.2484	0.	123.74
3436	6.4988	-2.2501	0.	126.62
3437	3.9906	-2.2268	0.	125.13
3438	3.7298	-2.4652	0.	125.88
3439	4.2388	-2.4745	0.	123.2
3440	2.745	-1.4994	0.	128.78
3441	2.4899	-1.7412	0.	127.19
3442	2.494	-1.2545	0.	127.13
3443	-3.71	6.9202	0.	128.11
3444	-3.4372	7.1472	0.	127.4
3445	-3.4632	6.6519	0.	127.74
3446	-4.4912	5.7175	0.	125.97
3447	-4.7458	5.4798	0.	123.83
3448	-4.4989	5.2201	0.	125.36
3449	-6.2541	5.5101	0.	122.63
3450	-6.503	5.7583	0.	124.72
3451	-6.0018	5.7574	0.	121.02
3452	-7.7506	6.5014	0.	126.58
3453	-7.2506	6.5026	0.	127.64
3454	-7.5011	6.2525	0.	126.83
3455	-7.5004	6.7515	0.	126.83
3456	-5.9903	1.8563	0.	116.79
3457	-6.0149	2.3442	0.	118.87
3458	-5.7562	2.1262	0.	120.02
3459	-4.7001	1.2826	0.	129.44
3460	-4.4383	1.0705	0.	128.46
3461	-4.2526	-1.1365	0.	131.7
3462	-4.4363	-1.3846	0.	133.72
3463	-3.8883	-1.3823	0.	130.14
3464	-4.1973	-1.6054	0.	130.34
3465	5.5811	3.7954	0.	123.35
3466	5.8089	3.6145	0.	125.22
3467	6.0474	3.8202	0.	126.89
3468	5.3573	3.9962	0.	122.56
3469	5.352	3.5404	0.	119.62
3470	-1.0027	-7.429	0.	125.6
3471	-0.76316	-7.2443	0.	127.2
3472	-0.81449	-6.9693	0.	127.66
3473	0.83647	-5.9186	0.	119.37
3474	1.1722	-6.065	0.	117.74
3475	1.4144	-5.803	0.	120.99
3476	1.1543	-5.6012	0.	120.12
3477	2.5698	-6.6526	0.	127.95
3478	2.84	-6.8949	0.	125.91
3479	-7.2762	-3.2072	0.	127.54
3480	-7.1199	-2.9466	0.	124.98
3481	-7.291	-2.7594	0.	132.23
3482	-7.5214	-3.0033	0.	128.95
3483	-0.3292	7.8139	0.	126.02
3484	-0.50635	7.5338	0.	123.38
3485	-0.33109	7.3392	0.	133.34
3486	-0.76337	5.4475	0.	117.79
3487	-0.29947	5.526	0.	125.89
3488	-0.53312	5.731	0.	123.31
3489	-2.4626	6.5913	0.	126.61
3490	-2.1964	6.876	0.	128.42
3491	-2.4266	7.0678	0.	127.35
3492	1.7441	-1.1418e-002	0.	121.04
3493	1.4966	0.24399	0.	116.09
3494	1.2476	-5.2236e-003	0.	116.33
3495	1.4955	-0.25689	0.	118.73
3496	-0.98778	1.2403	0.	129.36
3497	-0.74303	1.4907	0.	131.21
3498	0.30461	4.0549	0.	121.32
3499	0.54533	3.8033	0.	117.3
3500	0.80714	4.0653	0.	118.56
3501	2.9912	2.8269	0.	132.16
3502	2.7601	2.5558	0.	133.14
3503	3.2545	2.6162	0.	131.25
3504	5.7496	-1.9978	0.	121.92
3505	5.5	-1.7476	0.	118.65
3506	-7.0001	7.7508	0.	128.05
3507	-6.7501	7.5009	0.	130.1
3508	-7.0002	7.2515	0.	128.08
3509	-4.9002	0.56293	0.	127.92
3510	-5.1266	0.31256	0.	127.38
3511	-4.6418	0.35129	0.	126.98
3512	-4.8709	0.11028	0.	126.89
3513	-4.9221	-2.5613	0.	128.14
3514	-4.7959	-2.1039	0.	129.28
3515	-5.0994	-2.3276	0.	132.54
3516	-4.5941	-2.3381	0.	127.33
3517	0.4028	-6.2504	0.	122.11
3518	0.50676	-6.4727	0.	119.74
3519	0.35236	-6.7854	0.	125.59
3520	5.1461e-002	-6.7038	0.	127.76
3521	2.2752	-7.8332	0.	123.92
3522	2.3281	-7.3649	0.	125.16
3523	2.0761	-7.5902	0.	125.67
3524	-4.5612	-0.95898	0.	134.31
3525	-4.3538	-0.71504	0.	130.76
3526	2.4392	-8.0934	0.	124.43
3527	2.1907	-8.304	0.	126.81
3528	2.0105	-8.0463	0.	125.9
3529	2.8499	-8.1211	0.	124.42
3530	2.6252	-8.3482	0.	125.72
3531	3.2717	-8.0954	0.	124.4
3532	3.0545	-8.3503	0.	125.16
3533	3.7351	-8.055	0.	124.47
3534	3.5084	-8.3121	0.	124.93
3535	3.4525	-7.8315	0.	124.22
3536	4.2268	-8.0317	0.	124.6
3537	3.9908	-8.2863	0.	124.88
3538	4.7263	-8.0174	0.	124.69
3539	4.485	-8.2702	0.	124.88
3540	4.4619	-7.7782	0.	124.54
3541	5.228	-8.0091	0.	124.77
3542	4.9837	-8.2607	0.	124.89
3543	4.9675	-7.7652	0.	124.63
3544	5.7302	-8.0044	0.	124.85
3545	5.4842	-8.2553	0.	124.92
3546	6.2325	-8.0017	0.	124.96
3547	5.9854	-8.2523	0.	124.98
3548	5.9762	-7.7533	0.	124.83
3549	6.7349	-8.0002	0.	125.08
3550	6.4868	-8.2507	0.	125.07
3551	7.2375	-7.9995	0.	125.23
3552	6.9886	-8.2497	0.	125.19
3553	6.9831	-7.7498	0.	125.12
3554	7.4905	-8.2493	0.	125.32
3555	7.4868	-7.7492	0.	125.29
3556	7.7399	-7.9992	0.	125.38
3557	8.0371	5.2891	0.	123.57
3558	8.3003	5.0395	0.	123.76
3559	8.0882	4.7969	0.	122.93
3560	8.0154	5.7834	0.	124.03
3561	8.272	5.5328	0.	124.19
3562	8.261	6.0267	0.	124.48
3563	8.0079	6.2778	0.	124.34
3564	-8.1642	-2.803	0.	127.82
3565	-7.9568	-2.5731	0.	127.09
3566	-8.0794	-2.3499	0.	127.7
3567	-8.3768	-2.5569	0.	127.21
3568	-8.1592	-3.2623	0.	128.68
3569	-8.3898	-3.0244	0.	128.15
3570	-7.9479	-3.0223	0.	129.12
3571	-8.14	-3.7331	0.	128.51
3572	-8.3804	-3.499	0.	128.57
3573	-7.9239	-3.4843	0.	129.
3574	-8.1163	-4.2127	0.	127.57
3575	-8.3618	-3.9794	0.	128.11
3576	-8.0923	-4.7005	0.	126.5
3577	-8.341	-4.4663	0.	127.23
3578	-7.8669	-4.4351	0.	126.37
3579	-8.0664	-5.1965	0.	125.69
3580	-8.3196	-4.9592	0.	126.39
3581	-8.0408	-5.6988	0.	125.22
3582	-8.2961	-5.4583	0.	125.8
3583	-8.0229	-6.2052	0.	125.01
3584	-8.276	-5.9611	0.	125.46
3585	-8.0132	-6.7139	0.	124.95
3586	-8.2648	-6.467	0.	125.29
3587	-8.0065	-7.2226	0.	124.96
3588	-8.2578	-6.9739	0.	125.23
3589	-8.002	-7.7296	0.	125.
3590	-8.2529	-7.4801	0.	125.21
3591	-7.25	8.0004	0.	126.98
3592	-7.75	8.0002	0.	125.23
3593	-7.5	8.2502	0.	125.58
3594	-7.	8.2505	0.	127.8
3595	-6.75	8.0005	0.	131.28
3596	-8.0319	2.2149	0.	126.26
3597	-8.2919	1.9696	0.	127.2
3598	-8.0807	1.7066	0.	127.76
3599	-7.7812	1.9286	0.	125.94
3600	-8.0165	2.7277	0.	125.23
3601	-8.2688	2.4779	0.	126.08
3602	-7.7687	2.4654	0.	124.63
3603	-8.0125	3.2397	0.	124.75
3604	-8.2622	2.9876	0.	125.4
3605	-7.7661	2.986	0.	124.13
3606	-8.0099	3.7473	0.	124.67
3607	-8.2592	3.495	0.	125.1
3608	-7.764	3.4975	0.	124.06
3609	-8.0075	4.251	0.	124.84
3610	-8.2571	3.9992	0.	125.07
3611	-8.0051	4.7523	0.	125.18
3612	-8.2551	4.5012	0.	125.23
3613	-7.758	4.5044	0.	124.64
3614	-8.0032	5.2524	0.	125.62
3615	-8.2533	5.0017	0.	125.5
3616	-8.0017	5.7519	0.	126.01
3617	-8.2519	5.5016	0.	125.79
3618	-7.7529	5.5035	0.	125.84
3619	-8.0008	6.2513	0.	126.15
3620	-8.251	6.0012	0.	125.96
3621	-7.7514	6.0024	0.	126.41
3622	-8.0004	6.7508	0.	125.93
3623	-8.2505	6.5008	0.	125.84
3624	-8.2502	7.0005	0.	125.44
3625	-7.7503	7.0009	0.	126.19
3626	-8.0002	7.2505	0.	125.44
3627	-8.25	8.0001	0.	124.57
3628	-8.	8.2501	0.	124.66
3629	-8.0001	7.7503	0.	124.94
3630	-0.81457	-7.6707	0.	124.49
3631	-1.0191	-7.8781	0.	125.01
3632	-1.9684	-8.2265	0.	125.81
3633	-2.1962	-7.9651	0.	125.57
3634	-1.7191	-7.9996	0.	125.44
3635	-3.1964	-7.9867	0.	125.53
3636	-2.957	-8.2311	0.	125.68
3637	-2.6928	-7.9736	0.	125.62
3638	-3.4589	-8.2427	0.	125.49
3639	-3.7013	-7.9998	0.	125.33
3640	-5.9926	-8.2316	0.	124.35
3641	-5.7379	-7.9838	0.	124.34
3642	-6.2433	-7.9764	0.	124.28
3643	-7.9998	-8.2351	0.	125.05
3644	-8.2502	-7.9851	0.	125.22
3645	-7.7505	-7.9806	0.	124.86
3646	8.6177	2.8791	0.	125.38
3647	8.8581	2.6137	0.	127.97
3648	8.4545	2.6502	0.	122.69
3649	8.6064	2.4854	0.	122.86
3650	0.34757	8.0733	0.	127.6
3651	-0.1281	8.0593	0.	126.04
3652	8.6347e-002	8.3098	0.	126.63
3653	0.57262	8.313	0.	127.13
3654	0.82797	8.0698	0.	127.11
3655	1.7946	8.0411	0.	125.32
3656	1.5439	8.292	0.	125.65
3657	1.5592	7.8077	0.	125.3
3658	1.3103	8.0572	0.	126.06
3659	2.2816	8.027	0.	124.92
3660	2.0319	8.2787	0.	125.14
3661	2.5219	8.2682	0.	124.87
3662	2.7711	8.0174	0.	124.75
3663	3.5083	8.2589	0.	124.74
3664	3.7567	8.0097	0.	124.71
3665	3.2628	8.0121	0.	124.71
3666	4.501	8.2562	0.	124.71
3667	4.2523	8.0084	0.	124.7
3668	4.7496	8.0086	0.	124.68
3669	4.4989	7.7605	0.	124.71
3670	7.7512	8.0093	0.	124.74
3671	7.5008	8.2592	0.	124.71
3672	7.2506	8.0126	0.	124.63
3673	8.2513	8.0062	0.	124.9
3674	8.001	8.2561	0.	124.83
3675	8.0017	7.7599	0.	124.78
3676	8.2758	0.34973	0.	118.5
3677	8.0189	0.51818	0.	116.95
3678	8.0351	9.6814e-002	0.	117.1
3679	7.7795	0.28584	0.	116.46
3680	8.027	-0.79772	0.	121.17
3681	8.2821	-0.55242	0.	121.18
3682	8.0362	-0.33976	0.	118.95
3683	7.7794	-0.57168	0.	120.71
3684	8.0155	-1.277	0.	123.25
3685	8.2695	-1.03	0.	122.88
3686	8.2543	-2.0091	0.	125.63
3687	7.7536	-2.0078	0.	125.85
3688	8.0074	-1.7652	0.	124.86
3689	8.0016	-2.2581	0.	125.81
3690	8.246	-3.0029	0.	126.4
3691	7.993	-3.2528	0.	126.21
3692	7.9972	-2.7547	0.	126.18
3693	7.987	-4.2515	0.	125.96
3694	7.9893	-3.7522	0.	126.1
3695	8.2401	-4.0015	0.	126.23
3696	8.2384	-5.0006	0.	125.95
3697	7.9857	-4.7511	0.	125.83
3698	7.985	-5.2506	0.	125.72
3699	7.73	-5.001	0.	125.57
3700	8.2398	-6.9993	0.	125.61
3701	7.9861	-6.7494	0.	125.52
3702	7.988	-7.2491	0.	125.48
3703	-7.1695	-4.1179	0.	124.27
3704	-6.9144	-4.3172	0.	121.16
3705	-7.3915	-4.3853	0.	124.47
3706	-5.0551	-3.0187	0.	129.5
3707	-5.2561	-2.7767	0.	128.17
3708	-5.1856	-3.9568	0.	127.59
3709	-5.4474	-4.1931	0.	124.
3710	-4.9481	-4.1986	0.	127.18
3711	-2.5122	7.894	0.	128.54
3712	-2.814	8.0727	0.	127.7
3713	-2.5778	7.5461	0.	128.99
3714	-3.0511	7.8353	0.	127.76
3715	-2.0389	8.07	0.	127.66
3716	-2.1609	7.7996	0.	129.99
3717	-2.32	8.2407	0.	127.91
3718	0.19347	6.8784	0.	126.46
3719	-0.10479	7.1093	0.	133.53
3720	0.39751	7.1241	0.	126.98
3721	-1.2463	5.3872	0.	118.19
3722	-1.0004	5.6506	0.	108.84
3723	-0.99292	5.1705	0.	117.45
3724	-2.486	5.6091	0.	132.68
3725	-2.2408	5.3566	0.	133.24
3726	2.9983	1.1303	0.	133.52
3727	2.7614	1.4069	0.	133.49
3728	3.2563	1.3352	0.	131.04
3729	0.25481	8.1424e-004	0.	119.64
3730	0.50269	0.24973	0.	115.17
3731	0.751	-1.8023e-003	0.	115.86
3732	-0.98162	0.25181	0.	129.56
3733	-0.73598	4.3084e-003	0.	128.26
3734	-0.9928	2.7207	0.	129.27
3735	-0.74585	2.4812	0.	131.37
3736	-1.2455	2.4637	0.	128.24
3737	-0.71749	3.9735	0.	127.81
3738	-0.97674	3.707	0.	129.05
3739	-1.2291	3.9359	0.	128.19
3740	-0.97365	4.1976	0.	126.65
3741	1.7778	3.9974	0.	123.36
3742	1.5253	3.7538	0.	118.27
3743	1.296	4.0302	0.	119.15
3744	2.9685	3.7885	0.	132.91
3745	2.7313	4.0192	0.	131.59
3746	3.2107	4.0458	0.	131.57
3747	6.757	-0.56966	0.	128.88
3748	7.2692	-0.58178	0.	123.47
3749	7.0108	-0.81438	0.	126.2
3750	7.013	-0.36791	0.	126.93
3751	4.247	-1.9868	0.	123.11
3752	4.499	-1.7422	0.	119.39
3753	4.4952	-2.2344	0.	121.18
3754	2.9936	-1.7414	0.	129.73
3755	3.2419	-1.983	0.	129.3
3756	2.7385	-1.9833	0.	128.14
3757	2.9801	-2.2218	0.	128.34
3758	2.2426	-0.51601	0.	125.68
3759	1.9927	-0.26383	0.	123.96
3760	1.7442	-0.5093	0.	121.65
3761	2.7425	-0.52225	0.	128.79
3762	2.4905	-0.27513	0.	129.05
3763	2.4927	-0.76428	0.	127.34
3764	2.9906	-0.28434	0.	131.75
3765	3.2449	-0.52196	0.	131.88
3766	2.9941	-0.76707	0.	129.96
3767	-3.9555	7.1911	0.	128.59
3768	-4.2093	7.4575	0.	130.16
3769	-3.6826	7.4181	0.	127.88
3770	-3.9325	7.6907	0.	128.48
3771	-4.2365	5.9522	0.	127.48
3772	-3.9808	6.1879	0.	128.72
3773	-5.7482	6.0026	0.	119.
3774	-5.2445	5.9945	0.	119.27
3775	-5.4963	6.2495	0.	113.78
3776	-7.0013	6.2544	0.	127.63
3777	-6.7517	6.0059	0.	126.3
3778	-7.2518	6.0043	0.	126.82
3779	-4.9636	1.4978	0.	129.09
3780	-5.2296	1.7053	0.	125.81
3781	-4.9949	1.9658	0.	126.8
3782	-7.8745	-2.3459	0.	127.61
3783	-7.5101	-2.5483	0.	131.64
3784	-7.7405	-2.7923	0.	128.37
3785	4.9482	2.9452	0.	117.89
3786	4.6392	3.0975	0.	123.2
3787	5.1243	3.2462	0.	117.95
3788	6.0303	3.3937	0.	128.75
3789	6.4786	3.3573	0.	132.96
3790	6.2531	3.1751	0.	134.17
3791	6.2688	3.5995	0.	130.43
3792	0.6541	-6.2163	0.	117.52
3793	0.60725	-5.7082	0.	120.59
3794	0.28437	-5.9134	0.	122.31
3795	2.2942	-6.421	0.	128.58
3796	2.0132	-6.2031	0.	126.36
3797	2.266	-5.9541	0.	126.95
3798	2.3235	-6.8932	0.	127.99
3799	2.0861	-7.1312	0.	128.7
3800	2.5937	-7.1355	0.	125.98
3801	2.0584	-6.6679	0.	131.32
3802	1.2691	-6.515	0.	113.85
3803	0.98981	-6.3627	0.	115.75
3804	1.4856	-6.2539	0.	120.65
3805	-0.39318	-7.4335	0.	126.58
3806	-0.57507	-7.486	0.	126.07
3807	-0.33844	-7.0972	0.	129.57
3808	-0.57667	-8.3127	0.	127.36
3809	-0.37336	-8.0345	0.	125.8
3810	-0.60937	-7.8838	0.	125.28
3811	-0.81394	-8.0913	0.	125.82
3812	6.6793	3.115	0.	133.92
3813	6.8827	2.8606	0.	134.89
3814	6.4538	2.9328	0.	135.08
3815	6.6265	2.6873	0.	133.43
3816	5.8159	3.1896	0.	129.32
3817	5.5799	3.3595	0.	121.5
3818	-8.2677	-2.0881	0.	128.07
3819	-7.7389	-2.0781	0.	124.45
3820	-8.0266	-1.8498	0.	130.36
3821	-4.7449	-1.207	0.	136.27
3822	-4.9588	-1.4342	0.	142.25
3823	-4.7256	-1.6484	0.	134.02
3824	-4.9314	1.0297	0.	129.53
3825	-5.1589	0.77826	0.	130.16
3826	-4.6696	0.8176	0.	128.57
3827	-5.1954	1.241	0.	131.25
3828	-5.9624	1.3767	0.	111.5
3829	-6.2156	1.5728	0.	114.18
3830	-5.728	1.6453	0.	119.62
3831	-4.8025	-0.77303	0.	133.99
3832	-5.0147	-1.0123	0.	140.55
3833	-5.0599	-0.58503	0.	130.5
3834	-4.8412	-0.33217	0.	129.14
3835	-4.5952	-0.52909	0.	130.44
3836	-6.7504	6.5034	0.	128.98
3837	-7.0005	6.7526	0.	128.28
3838	-6.2507	6.0056	0.	123.12
3839	-6.5008	6.2549	0.	127.68
3840	-5.9993	6.2534	0.	121.01
3841	-4.7405	5.9778	0.	123.83
3842	-4.9921	6.2394	0.	121.41
3843	-4.9951	5.7401	0.	121.69
3844	-4.4864	6.2178	0.	128.22
3845	-4.2232	6.9558	0.	129.46
3846	-3.9711	6.6891	0.	128.91
3847	3.2348	0.88251	0.	135.71
3848	3.7283	0.85514	0.	134.82
3849	3.4808	0.64006	0.	137.88
3850	3.4927	1.0873	0.	133.19
3851	2.7386	-3.7226e-002	0.	131.98
3852	2.9857	0.19332	0.	135.04
3853	3.2397	-4.3595e-002	0.	134.94
3854	3.2463	-1.4967	0.	132.
3855	2.9953	-1.2539	0.	130.16
3856	3.7439	-1.9829	0.	127.51
3857	3.4946	-1.7383	0.	131.6
3858	3.4831	-2.2213	0.	128.27
3859	3.997	-1.7389	0.	126.69
3860	6.25	-2.0002	0.	125.81
3861	5.9999	-1.7508	0.	124.9
3862	6.5013	-1.7576	0.	129.56
3863	6.7513	-2.0033	0.	127.57
3864	6.7541	-1.5136	0.	129.74
3865	7.0072	-1.2799	0.	127.41
3866	7.0041	-1.7593	0.	127.76
3867	2.9713	3.3039	0.	133.46
3868	2.7329	3.0421	0.	133.7
3869	3.2147	3.0835	0.	132.71
3870	2.7271	3.5309	0.	134.39
3871	2.0111	3.7475	0.	126.93
3872	2.2559	3.9999	0.	128.67
3873	-0.20613	4.016	0.	125.4
3874	4.0644e-002	3.7781	0.	123.99
3875	-0.46758	3.7431	0.	129.84
3876	-0.98533	3.2145	0.	129.74
3877	-0.72683	3.4766	0.	131.03
3878	-0.74001	2.9784	0.	130.52
3879	-0.98223	0.74623	0.	129.96
3880	-0.73824	0.99528	0.	130.57
3881	-1.2305	0.98922	0.	129.02
3882	-0.7338	0.49952	0.	130.94
3883	6.6064e-003	0.25139	0.	123.22
3884	-0.24086	3.039e-003	0.	124.98
3885	2.2407	-2.2949e-002	0.	127.32
3886	1.9929	0.23531	0.	125.27
3887	2.4892	0.21517	0.	132.81
3888	2.9857	0.66576	0.	135.89
3889	2.7363	0.44571	0.	135.83
3890	3.2317	0.42331	0.	138.08
3891	2.7417	0.92762	0.	134.98
3892	-2.4733	6.1059	0.	129.98
3893	-2.2181	6.3535	0.	125.99
3894	-2.2347	5.8502	0.	137.2
3895	-1.4926	5.5947	0.	122.85
3896	-1.7418	5.3586	0.	127.87
3897	0.12826	5.6197	0.	129.89
3898	-0.10071	5.8181	0.	136.03
3899	0.30336	5.906	0.	128.56
3900	0.51209	5.6849	0.	128.26
3901	0.25294	6.3879	0.	125.98
3902	7.4396e-002	6.1044	0.	134.85
3903	2.0647e-002	6.6088	0.	123.29
3904	-0.5938	8.002	0.	120.18
3905	-0.40118	8.2856	0.	123.71
3906	-0.89509	8.2164	0.	117.88
3907	-1.0383	7.8756	0.	115.86
3908	-0.77095	7.7219	0.	117.53
3909	-1.5947	8.1783	0.	123.65
3910	-1.409	8.4165	0.	121.68
3911	-1.1702	8.3468	0.	120.38
3912	-1.3133	8.006	0.	118.54
3913	-1.861	8.355	0.	125.89
3914	-1.7478	7.939	0.	127.51
3915	-7.4138	-1.0439	0.	134.76
3916	-7.6082	-1.2968	0.	139.7
3917	-7.643	-0.8086	0.	138.11
3918	-7.865	-1.0571	0.	137.22
3919	-7.1967	-0.81787	0.	131.22
3920	-6.9742	-0.95097	0.	120.52
3921	-7.1543	-1.2559	0.	131.66
3922	-7.2697	0.71063	0.	128.42
3923	-7.3119	1.1982	0.	126.53
3924	-7.5047	0.94763	0.	129.07
3925	-8.1323	0.19449	0.	127.69
3926	-8.3698	0.45314	0.	127.62
3927	-7.9124	0.43954	0.	129.82
3928	-8.1429	0.69684	0.	128.58
3929	-5.145	-3.484	0.	129.11
3930	-5.4334	-3.7114	0.	126.33
3931	-4.9158	-3.7288	0.	129.04
3932	-5.4024	-3.2317	0.	128.6
3933	-7.212	-3.652	0.	126.16
3934	-7.0034	-3.374	0.	125.18
3935	-7.4674	-3.4482	0.	128.04
3936	-6.9442	-3.8375	0.	121.41
3937	-5.6951	-3.9478	0.	122.75
3938	-5.9429	-4.2042	0.	119.85
3939	-6.6891	-4.0368	0.	118.27
3940	-6.4323	-4.2476	0.	118.55
3941	4.2177	0.83439	0.	127.45
3942	3.9755	0.63164	0.	133.01
3943	3.9845	1.063	0.	134.33
3944	4.4628	0.61518	0.	119.78
3945	4.4757	1.0336	0.	123.86
3946	4.6917	0.80454	0.	116.36
3947	3.7763	1.7359	0.	125.42
3948	3.5239	1.532	0.	129.05
3949	3.5593	1.9746	0.	127.71
3950	8.3452	3.568	0.	121.46
3951	7.8763	3.6035	0.	119.24
3952	8.0863	3.3175	0.	118.25
3953	8.1194	3.8163	0.	120.14
3954	7.4586	4.1179	0.	122.63
3955	7.6633	3.8614	0.	120.44
3956	7.9064	4.0743	0.	121.3
3957	7.2116	3.927	0.	124.63
3958	7.0096	4.1843	0.	125.04
3959	6.7172	3.553	0.	131.47
3960	6.9613	3.7395	0.	127.28
3961	6.7593	3.9968	0.	127.69
3962	6.5074	3.7951	0.	128.9
3963	6.9227	3.2979	0.	131.99
3964	2.3768	-8.5588	0.	128.13
3965	2.1129	-8.7798	0.	129.5
3966	1.9324	-8.5162	0.	132.74
3967	2.8299	-8.5774	0.	126.46
3968	2.5805	-8.8095	0.	127.63
3969	3.2912	-8.567	0.	125.69
3970	3.0496	-8.8137	0.	126.62
3971	3.7641	-8.5434	0.	125.34
3972	3.5241	-8.7955	0.	126.
3973	4.249	-8.5248	0.	125.17
3974	4.0072	-8.7774	0.	125.62
3975	4.7424	-8.5136	0.	125.09
3976	4.4983	-8.7657	0.	125.39
3977	5.2399	-8.507	0.	125.05
3978	4.9941	-8.7585	0.	125.24
3979	5.7394	-8.5032	0.	125.05
3980	5.4926	-8.7538	0.	125.16
3981	6.2397	-8.5013	0.	125.1
3982	5.9923	-8.7516	0.	125.15
3983	6.7404	-8.5002	0.	125.17
3984	6.4924	-8.7505	0.	125.18
3985	7.2416	-8.4996	0.	125.28
3986	6.993	-8.7498	0.	125.26
3987	7.7431	-8.4993	0.	125.4
3988	7.4938	-8.7495	0.	125.36
3989	7.9949	-8.7493	0.	125.46
3990	8.2446	-8.4992	0.	125.52
3991	7.9924	-8.2491	0.	125.46
3992	8.5846	3.3287	0.	124.49
3993	8.8258	3.0751	0.	127.04
3994	8.3257	3.0782	0.	121.28
3995	8.5861	3.8087	0.	123.74
3996	8.8206	3.5557	0.	125.66
3997	8.585	4.299	0.	123.7
3998	8.8234	4.045	0.	124.96
3999	8.3603	4.0571	0.	122.42
4000	8.5638	4.7914	0.	124.04
4001	8.8148	4.5397	0.	124.88
4002	8.3517	4.5487	0.	123.21
4003	8.5352	5.2832	0.	124.38
4004	8.7898	5.0319	0.	124.97
4005	8.5176	5.7761	0.	124.64
4006	8.771	5.5251	0.	125.07
4007	8.5092	6.2695	0.	124.82
4008	8.761	6.0191	0.	125.15
4009	8.5052	6.764	0.	124.93
4010	8.7561	6.5137	0.	125.17
4011	8.2561	6.5206	0.	124.68
4012	8.503	7.2596	0.	124.97
4013	8.7535	7.0095	0.	125.16
4014	8.2537	7.0146	0.	124.8
4015	8.5017	7.7563	0.	124.99
4016	8.752	7.5063	0.	125.13
4017	8.2522	7.51	0.	124.87
4018	8.501	8.254	0.	124.98
4019	8.7512	8.004	0.	125.08
4020	-1.8698	7.6685	0.	129.74
4021	-2.2265	7.4516	0.	130.41
4022	-1.8808	7.4671	0.	133.98
4023	-3.6608	8.4255	0.	127.42
4024	-3.9419	8.7021	0.	127.81
4025	-4.1973	8.4592	0.	130.52
4026	-3.9243	8.1918	0.	128.28
4027	-3.1288	8.3831	0.	127.
4028	-3.4149	8.6732	0.	126.62
4029	-3.3658	8.1457	0.	127.06
4030	-2.6218	8.4193	0.	127.05
4031	-2.8986	8.6475	0.	126.67
4032	-2.1421	8.5256	0.	126.12
4033	-2.4087	8.7318	0.	126.48
4034	-1.6754	8.5932	0.	123.92
4035	-1.9272	8.8026	0.	125.12
4036	-1.2059	8.5447	0.	121.29
4037	-1.45	8.83	0.	123.03
4038	-0.70247	8.5001	0.	121.42
4039	-0.96463	8.7432	0.	121.37
4040	-0.18673	8.5361	0.	124.29
4041	-0.45129	8.771	0.	123.17
4042	5.025e-002	8.7878	0.	125.29
4043	0.3114	8.5494	0.	126.15
4044	1.2922	8.5406	0.	125.99
4045	1.039	8.7878	0.	125.98
4046	0.80328	8.5489	0.	126.42
4047	1.0586	8.3058	0.	126.4
4048	1.7812	8.5296	0.	125.46
4049	1.5293	8.7789	0.	125.58
4050	2.2721	8.5199	0.	125.09
4051	2.0213	8.7701	0.	125.22
4052	2.765	8.5128	0.	124.89
4053	2.5146	8.763	0.	124.99
4054	3.2597	8.5088	0.	124.79
4055	3.0096	8.7583	0.	124.86
4056	3.0142	8.262	0.	124.77
4057	3.7557	8.5069	0.	124.75
4058	3.5059	8.7562	0.	124.8
4059	4.2527	8.5054	0.	124.73
4060	4.0032	8.7548	0.	124.77
4061	4.004	8.2577	0.	124.73
4062	4.7508	8.5048	0.	124.71
4063	4.5013	8.7539	0.	124.75
4064	5.2498	8.505	0.	124.68
4065	5.0003	8.7541	0.	124.72
4066	4.9994	8.2572	0.	124.68
4067	5.7495	8.5059	0.	124.66
4068	5.4997	8.7541	0.	124.7
4069	5.4988	8.2583	0.	124.64
4070	6.2496	8.5069	0.	124.65
4071	5.9996	8.7549	0.	124.68
4072	5.9989	8.2603	0.	124.61
4073	6.75	8.5073	0.	124.67
4074	6.4995	8.2616	0.	124.61
4075	6.4998	8.7557	0.	124.68
4076	7.2504	8.5071	0.	124.72
4077	7.0002	8.7556	0.	124.71
4078	7.0002	8.2605	0.	124.64
4079	7.7507	8.5059	0.	124.8
4080	7.5005	8.7556	0.	124.77
4081	8.2507	8.5039	0.	124.91
4082	8.0006	8.7537	0.	124.86
4083	8.5006	8.7524	0.	124.96
4084	8.7507	8.5025	0.	125.04
4085	8.5294	0.16047	0.	121.25
4086	8.7738	0.45329	0.	126.27
4087	8.4915	0.60446	0.	118.41
4088	8.5347	-0.30511	0.	122.06
4089	8.782	-4.1815e-002	0.	124.56
4090	8.2888	-9.2448e-002	0.	119.81
4091	8.7753	-0.53117	0.	124.2
4092	8.5246	-0.78475	0.	122.91
4093	8.7538	-2.0061	0.	126.26
4094	8.5023	-2.2565	0.	126.05
4095	8.5074	-1.7629	0.	125.26
4096	8.7475	-3.0022	0.	126.8
4097	8.4984	-2.7538	0.	126.44
4098	8.4953	-3.2526	0.	126.55
4099	8.7435	-5.0003	0.	126.32
4100	8.4911	-4.7507	0.	126.21
4101	8.4912	-5.2503	0.	126.08
4102	8.4921	-6.2498	0.	125.85
4103	8.7437	-5.9999	0.	126.03
4104	8.2392	-5.9998	0.	125.75
4105	8.4917	-5.75	0.	125.95
4106	8.4921	-6.7496	0.	125.76
4107	8.7435	-6.4997	0.	125.91
4108	8.2383	-6.4996	0.	125.67
4109	8.4925	-7.2494	0.	125.68
4110	8.7437	-6.9996	0.	125.81
4111	8.4931	-7.7493	0.	125.63
4112	8.7441	-7.4995	0.	125.73
4113	8.2406	-7.4992	0.	125.56
4114	8.7447	-7.9993	0.	125.66
4115	8.4946	-8.2492	0.	125.59
4116	8.2424	-7.9992	0.	125.53
4117	-0.32807	-8.4993	0.	131.62
4118	-6.7422e-002	-8.7142	0.	131.12
4119	0.12348	-8.4025	0.	128.65
4120	-0.12477	-8.221	0.	129.96
4121	-0.79675	-8.5435	0.	127.76
4122	-0.545	-8.7738	0.	128.57
4123	-1.2706	-8.537	0.	126.81
4124	-1.0267	-8.7877	0.	127.72
4125	-1.034	-8.3221	0.	126.2
4126	-1.7468	-8.5069	0.	126.25
4127	-1.5087	-8.7689	0.	126.91
4128	-1.4975	-8.28	0.	125.89
4129	-2.2296	-8.4847	0.	126.03
4130	-1.9917	-8.7451	0.	126.49
4131	-2.7216	-8.4809	0.	125.85
4132	-2.4821	-8.7339	0.	126.18
4133	-2.4574	-8.2233	0.	125.79
4134	-3.2196	-8.4872	0.	125.64
4135	-2.9779	-8.7358	0.	125.89
4136	-3.7209	-8.495	0.	125.39
4137	-3.477	-8.7418	0.	125.6
4138	-4.225	-8.4995	0.	125.11
4139	-3.9633	-8.252	0.	125.23
4140	-3.9778	-8.7485	0.	125.3
4141	-4.731	-8.499	0.	124.85
4142	-4.4824	-8.7493	0.	125.01
4143	-4.4706	-8.2539	0.	124.95
4144	-5.2375	-8.4947	0.	124.63
4145	-4.9874	-8.7473	0.	124.76
4146	-4.9802	-8.2495	0.	124.68
4147	-5.7421	-8.4887	0.	124.48
4148	-5.4924	-8.743	0.	124.58
4149	-5.4874	-8.2409	0.	124.47
4150	-6.2449	-8.4844	0.	124.44
4151	-5.995	-8.7383	0.	124.49
4152	-6.747	-8.4832	0.	124.5
4153	-6.4967	-8.7363	0.	124.5
4154	-6.4956	-8.2292	0.	124.36
4155	-7.2483	-8.4839	0.	124.68
4156	-6.998	-8.7361	0.	124.62
4157	-6.9984	-8.2297	0.	124.49
4158	-7.7489	-8.4861	0.	124.93
4159	-7.4987	-8.7374	0.	124.82
4160	-7.4996	-8.2316	0.	124.73
4161	-8.2491	-8.4892	0.	125.23
4162	-7.999	-8.7396	0.	125.09
4163	-8.4995	-8.2393	0.	125.4
4164	-8.4991	-8.7425	0.	125.38
4165	-8.7492	-8.4925	0.	125.54
4166	-8.501	-7.7356	0.	125.43
4167	-8.7499	-7.9899	0.	125.59
4168	-8.5041	-7.2314	0.	125.48
4169	-8.7516	-7.4869	0.	125.67
4170	-8.5093	-6.7269	0.	125.57
4171	-8.755	-6.9837	0.	125.79
4172	-8.5178	-6.2229	0.	125.74
4173	-8.7605	-6.4805	0.	125.95
4174	-8.5313	-5.7206	0.	126.04
4175	-8.7694	-5.9782	0.	126.2
4176	-8.5492	-5.221	0.	126.5
4177	-8.7829	-5.4778	0.	126.56
4178	-8.5683	-4.7249	0.	127.12
4179	-8.7989	-4.9795	0.	127.03
4180	-8.5865	-4.233	0.	127.77
4181	-8.8146	-4.4843	0.	127.56
4182	-8.6023	-3.7453	0.	128.17
4183	-8.829	-3.9922	0.	127.99
4184	-8.6111	-3.2612	0.	128.04
4185	-8.8397	-3.5029	0.	128.04
4186	-8.6024	-2.7783	0.	127.54
4187	-8.8413	-3.0153	0.	127.61
4188	-8.565	-2.2951	0.	127.56
4189	-8.8241	-2.5275	0.	127.15
4190	-8.7871	-2.0398	0.	127.59
4191	-8.5415	-1.8051	0.	128.94
4192	-8.5744	-0.79856	0.	130.
4193	-8.8049	-1.0416	0.	129.54
4194	-8.3307	-1.0561	0.	133.12
4195	-8.5556	-1.3037	0.	130.41
4196	-8.5875	-0.29461	0.	128.16
4197	-8.3484	-0.55167	0.	130.09
4198	-8.8178	-0.53866	0.	128.38
4199	-8.8261	-3.5542e-002	0.	127.05
4200	-8.3582	-4.9488e-002	0.	127.44
4201	-8.5957	0.20916	0.	127.34
4202	-8.5843	1.2212	0.	128.27
4203	-8.8268	0.97399	0.	127.93
4204	-8.5971	0.71432	0.	127.92
4205	-8.3702	0.95801	0.	128.9
4206	-8.5562	1.7276	0.	127.85
4207	-8.8087	1.4807	0.	128.
4208	-8.345	1.4646	0.	128.41
4209	-8.5288	2.2326	0.	127.02
4210	-8.7828	1.9855	0.	127.5
4211	-8.5144	2.7378	0.	126.25
4212	-8.766	2.4893	0.	126.83
4213	-8.5088	3.2429	0.	125.75
4214	-8.7588	2.9931	0.	126.28
4215	-8.5064	3.7469	0.	125.51
4216	-8.7559	3.4965	0.	125.93
4217	-8.5047	4.2494	0.	125.47
4218	-8.7543	3.9988	0.	125.75
4219	-8.5033	4.7506	0.	125.55
4220	-8.7532	4.5	0.	125.7
4221	-8.5021	5.2509	0.	125.68
4222	-8.7521	5.0006	0.	125.7
4223	-8.5012	5.7509	0.	125.75
4224	-8.7512	5.5007	0.	125.69
4225	-8.5006	6.2507	0.	125.65
4226	-8.7507	6.0006	0.	125.58
4227	-8.5003	6.7505	0.	125.34
4228	-8.7504	6.5004	0.	125.33
4229	-8.5001	7.2503	0.	124.93
4230	-8.7502	7.0003	0.	124.95
4231	-8.5001	7.7501	0.	124.55
4232	-8.7501	7.5001	0.	124.57
4233	-8.2501	7.5003	0.	124.93
4234	-8.5	8.2501	0.	124.39
4235	-8.75	8.0001	0.	124.33
4236	-8.25	8.5001	0.	124.49
4237	-8.5	8.75	0.	124.55
4238	-8.75	8.5	0.	124.35
4239	-7.75	8.5001	0.	125.01
4240	-8.	8.7501	0.	124.72
4241	-7.25	8.5002	0.	126.4
4242	-7.5	8.7501	0.	125.39
4243	-7.	8.7503	0.	127.26
4244	-6.75	8.5003	0.	130.13
4245	-7.75	9.0001	0.	125.11
4246	-7.25	9.0001	0.	126.25
4247	-7.5	9.2501	0.	125.63
4248	-8.25	9.	0.	124.79
4249	-8.	9.25	0.	125.23
4250	-8.75	9.	0.	124.68
4251	-8.5	9.25	0.	125.04
4252	-9.	8.25	0.	124.28
4253	-9.	8.75	0.	124.48
4254	-9.25	8.5	0.	124.22
4255	-9.	7.7501	0.	124.34
4256	-9.25	8.	0.	124.11
4257	-9.25	7.5001	0.	124.23
4258	-9.0001	7.2501	0.	124.59
4259	-9.0012	5.2503	0.	125.7
4260	-9.2507	5.5003	0.	125.59
4261	-9.0007	5.7504	0.	125.53
4262	-9.2511	5.0002	0.	125.85
4263	-9.0019	4.7501	0.	125.84
4264	-9.0038	3.7484	0.	126.18
4265	-9.2523	3.9993	0.	126.34
4266	-9.0027	4.2495	0.	125.98
4267	-9.0059	3.2467	0.	126.47
4268	-9.2534	3.4984	0.	126.63
4269	-9.0104	2.7446	0.	126.86
4270	-9.2556	2.9971	0.	126.96
4271	-9.0201	2.2421	0.	127.31
4272	-9.2604	2.4956	0.	127.3
4273	-9.0354	1.7386	0.	127.64
4274	-9.2699	1.9936	0.	127.58
4275	-9.0512	1.2335	0.	127.66
4276	-9.2826	1.4905	0.	127.61
4277	-9.0603	0.72799	0.	127.3
4278	-9.2929	0.9859	0.	127.3
4279	-9.0611	0.22361	0.	127.
4280	-9.2962	0.48203	0.	126.78
4281	-8.8307	0.46832	0.	127.3
4282	-9.2944	-2.1072e-002	0.	126.58
4283	-9.0564	-0.27959	0.	127.27
4284	-9.0386	-1.2819	0.	128.15
4285	-9.2826	-1.0241	0.	127.36
4286	-9.0482	-0.78172	0.	127.92
4287	-9.035	-1.7788	0.	127.68
4288	-9.2762	-1.5228	0.	127.26
4289	-8.7893	-1.544	0.	129.03
4290	-9.0462	-2.2722	0.	127.18
4291	-9.2782	-2.0186	0.	126.87
4292	-9.063	-2.7645	0.	127.22
4293	-9.2921	-2.5131	0.	126.8
4294	-9.0699	-3.257	0.	127.61
4295	-9.3015	-3.0076	0.	127.21
4296	-9.0664	-3.7498	0.	127.85
4297	-9.3022	-3.5025	0.	127.67
4298	-9.0571	-4.2435	0.	127.78
4299	-9.2969	-3.9978	0.	127.88
4300	-9.0452	-4.7389	0.	127.47
4301	-9.2886	-4.494	0.	127.81
4302	-9.0326	-5.2362	0.	127.08
4303	-9.2791	-4.9912	0.	127.54
4304	-9.021	-5.7354	0.	126.71
4305	-9.2698	-5.49	0.	127.21
4306	-9.0121	-6.2358	0.	126.4
4307	-9.2619	-5.9898	0.	126.87
4308	-9.0061	-6.7373	0.	126.16
4309	-9.2564	-6.4904	0.	126.56
4310	-9.0025	-7.2392	0.	125.98
4311	-9.2529	-6.9915	0.	126.3
4312	-9.0005	-7.7412	0.	125.84
4313	-9.2509	-7.4929	0.	126.09
4314	-9.2498	-7.9943	0.	125.92
4315	-8.9996	-8.2432	0.	125.73
4316	-8.249	-8.9929	0.	125.24
4317	-8.7492	-8.995	0.	125.5
4318	-8.4992	-9.2455	0.	125.37
4319	-7.7488	-8.9909	0.	124.98
4320	-7.9991	-9.2438	0.	125.12
4321	-7.2485	-8.9895	0.	124.76
4322	-7.4989	-9.2425	0.	124.88
4323	-6.7477	-8.9892	0.	124.61
4324	-6.9986	-9.2418	0.	124.7
4325	-6.2467	-8.9902	0.	124.55
4326	-6.498	-9.2421	0.	124.59
4327	-5.7452	-8.9926	0.	124.59
4328	-5.9972	-9.2434	0.	124.58
4329	-5.2423	-8.9956	0.	124.72
4330	-5.4954	-9.2455	0.	124.66
4331	-4.7387	-8.9976	0.	124.93
4332	-4.9929	-9.2478	0.	124.83
4333	-4.4905	-9.2484	0.	125.08
4334	-4.2352	-8.9983	0.	125.19
4335	-2.7384	-8.9889	0.	126.22
4336	-2.9906	-9.2416	0.	126.14
4337	-3.2353	-8.9905	0.	125.85
4338	-2.2442	-8.9943	0.	126.64
4339	-2.4941	-9.2425	0.	126.6
4340	-1.9997	-9.25	0.	127.12
4341	-1.7536	-9.007	0.	127.15
4342	-0.77492	-9.018	0.	128.54
4343	-1.0145	-9.2672	0.	128.23
4344	-1.2648	-9.0196	0.	127.82
4345	-0.28435	-8.9887	0.	128.1
4346	-0.51985	-9.2566	0.	128.15
4347	0.2101	-8.9341	0.	123.34
4348	-2.4143e-002	-9.2232	0.	125.71
4349	0.73885	-8.8682	0.	112.07
4350	0.401	-8.6224	0.	120.99
4351	0.47807	-9.1753	0.	118.8
4352	1.2961	-8.8978	0.	114.56
4353	0.87025	-8.5805	0.	108.88
4354	1.0134	-9.1256	0.	109.77
4355	1.824	-8.9894	0.	127.16
4356	1.6435	-8.7259	0.	130.16
4357	1.5466	-9.2155	0.	121.84
4358	2.3166	-9.0305	0.	129.05
4359	2.0499	-9.2606	0.	127.79
4360	2.5418	-9.2811	0.	128.06
4361	2.8002	-9.0459	0.	127.8
4362	4.2564	-9.0183	0.	125.84
4363	4.0088	-9.2673	0.	126.31
4364	3.7672	-9.0295	0.	126.28
4365	4.5025	-9.2604	0.	125.87
4366	4.7499	-9.0107	0.	125.54
4367	5.7455	-9.0022	0.	125.26
4368	5.4973	-9.2524	0.	125.38
4369	5.2467	-9.0054	0.	125.35
4370	6.245	-9.0008	0.	125.23
4371	5.9966	-9.251	0.	125.29
4372	6.7449	-9.0001	0.	125.26
4373	6.4964	-9.2503	0.	125.28
4374	7.2452	-8.9997	0.	125.33
4375	6.9965	-9.2499	0.	125.31
4376	7.7457	-8.9995	0.	125.42
4377	7.4968	-9.2497	0.	125.38
4378	8.2467	-8.9994	0.	125.51
4379	8.7477	-8.9995	0.	125.59
4380	8.4981	-9.2495	0.	125.55
4381	8.4964	-8.7493	0.	125.56
4382	7.9973	-9.2496	0.	125.47
4383	8.9964	-8.2495	0.	125.69
4384	8.9975	-8.7495	0.	125.64
4385	9.2477	-8.4996	0.	125.68
4386	8.7462	-8.4994	0.	125.62
4387	8.9958	-7.7495	0.	125.76
4388	9.2469	-7.9996	0.	125.75
4389	8.9954	-7.2496	0.	125.85
4390	9.2467	-7.4996	0.	125.85
4391	8.9952	-6.7497	0.	125.97
4392	9.2464	-6.9997	0.	125.98
4393	8.9952	-6.2499	0.	126.1
4394	9.2464	-6.4999	0.	126.13
4395	9.2464	-6.	0.	126.3
4396	8.9951	-5.75	0.	126.25
4397	8.9952	-4.7504	0.	126.6
4398	9.2466	-5.0002	0.	126.68
4399	8.9953	-5.2501	0.	126.42
4400	8.9952	-4.2507	0.	126.77
4401	9.2463	-4.5004	0.	126.89
4402	8.7428	-4.5007	0.	126.49
4403	8.9962	-3.7509	0.	126.92
4404	9.2467	-4.0007	0.	127.08
4405	8.7439	-4.001	0.	126.64
4406	8.9976	-3.2513	0.	127.02
4407	9.2477	-3.5009	0.	127.25
4408	8.7453	-3.5017	0.	126.77
4409	9.2488	-3.0014	0.	127.37
4410	8.9994	-2.7523	0.	127.02
4411	9.0054	-1.7559	0.	126.56
4412	9.2525	-2.0032	0.	127.39
4413	9.0019	-2.2535	0.	126.87
4414	9.0109	-1.2606	0.	126.2
4415	9.2558	-1.5059	0.	127.35
4416	8.7589	-1.5127	0.	125.57
4417	9.0171	-0.76651	0.	126.05
4418	9.2606	-1.0099	0.	127.45
4419	8.7665	-1.0201	0.	124.75
4420	9.0226	-0.26788	0.	126.7
4421	9.2649	-0.51372	0.	127.94
4422	7.4163	3.6706	0.	122.46
4423	7.1668	3.4844	0.	127.87
4424	9.0264	0.25101	0.	129.57
4425	9.269	-1.0685e-002	0.	129.28
4426	9.1145	0.76252	0.	139.45
4427	9.2774	0.50788	0.	133.16
4428	8.9461	0.72736	0.	131.82
4429	9.0663	2.8096	0.	129.63
4430	9.0319	2.2918	0.	135.53
4431	9.2968	2.5411	0.	130.82
4432	9.0619	3.3021	0.	128.21
4433	9.2986	3.0416	0.	129.7
4434	9.058	3.7919	0.	126.87
4435	9.2944	3.5344	0.	128.58
4436	9.0532	4.2857	0.	126.14
4437	9.2927	4.0288	0.	127.65
4438	9.0408	4.7803	0.	125.81
4439	9.2865	4.5254	0.	127.
4440	9.0256	5.2739	0.	125.66
4441	9.2746	5.0209	0.	126.55
4442	9.0144	5.7681	0.	125.58
4443	9.2643	5.516	0.	126.22
4444	9.0079	6.2633	0.	125.5
4445	9.2581	6.0121	0.	125.95
4446	9.0044	6.7592	0.	125.4
4447	9.2545	6.5084	0.	125.73
4448	9.0025	7.2562	0.	125.31
4449	9.2525	7.0057	0.	125.54
4450	9.0014	7.754	0.	125.22
4451	9.2514	7.5037	0.	125.38
4452	9.2508	8.0023	0.	125.24
4453	9.0008	8.2525	0.	125.14
4454	4.0691	1.9546	0.	126.49
4455	4.0503	2.4438	0.	130.78
4456	4.3558	2.3352	0.	129.38
4457	3.8521	2.1932	0.	128.93
4458	4.0013	1.4992	0.	129.05
4459	-6.456	-3.7517	0.	114.94
4460	-6.7356	-3.5595	0.	120.46
4461	-5.9515	-3.7062	0.	118.23
4462	-6.1992	-3.9625	0.	115.37
4463	-5.6909	-3.4591	0.	125.85
4464	-7.886	-6.2728e-002	0.	125.94
4465	-7.6496	-0.31686	0.	130.7
4466	-7.6661	0.18232	0.	127.97
4467	7.6193	3.4239	0.	117.94
4468	7.1261	3.0434	0.	132.94
4469	7.3697	3.2377	0.	123.39
4470	-1.4665	7.7667	0.	122.41
4471	-1.6905	7.5385	0.	132.53
4472	8.2504	9.0022	0.	124.91
4473	8.7504	9.0013	0.	124.99
4474	8.5003	9.2513	0.	124.94
4475	7.7504	9.0034	0.	124.83
4476	8.0003	9.252	0.	124.87
4477	7.2503	9.004	0.	124.77
4478	7.5003	9.253	0.	124.8
4479	7.0001	9.2528	0.	124.76
4480	6.75	9.0039	0.	124.73
4481	5.2502	9.0031	0.	124.73
4482	5.5	9.2521	0.	124.73
4483	5.7499	9.0031	0.	124.72
4484	4.7508	9.0032	0.	124.76
4485	5.0004	9.2525	0.	124.75
4486	4.2518	9.0033	0.	124.78
4487	4.501	9.2523	0.	124.79
4488	3.7534	9.0042	0.	124.82
4489	4.0019	9.2527	0.	124.83
4490	3.2558	9.0057	0.	124.87
4491	3.5034	9.2536	0.	124.88
4492	2.7592	9.0086	0.	124.96
4493	3.0055	9.2551	0.	124.94
4494	2.2637	9.0132	0.	125.11
4495	2.5084	9.2579	0.	125.04
4496	1.7694	9.0194	0.	125.33
4497	2.0123	9.262	0.	125.17
4498	1.2762	9.0261	0.	125.57
4499	1.5169	9.2671	0.	125.32
4500	0.78245	9.0312	0.	125.63
4501	1.0222	9.272	0.	125.4
4502	0.28555	9.0307	0.	125.22
4503	0.52564	9.2744	0.	125.25
4504	0.54671	8.7923	0.	126.08
4505	-0.21431	9.0227	0.	124.17
4506	2.6304e-002	9.271	0.	124.65
4507	-0.71345	9.0141	0.	123.1
4508	-0.47352	9.2633	0.	123.73
4509	-1.2087	9.0284	0.	123.1
4510	-0.97111	9.2606	0.	123.27
4511	-1.7018	9.0394	0.	124.24
4512	-1.4665	9.2816	0.	123.88
4513	-2.1938	9.0088	0.	125.48
4514	-1.9626	9.2727	0.	125.04
4515	-2.6855	8.96	0.	126.1
4516	-2.4568	9.2385	0.	125.91
4517	-3.1846	8.9375	0.	126.3
4518	-2.9517	9.2046	0.	126.28
4519	-3.6959	8.9498	0.	127.01
4520	-3.4547	9.2055	0.	126.48
4521	-0.1579	6.3253	0.	131.61
4522	-0.33436	6.0232	0.	132.9
4523	-1.7403	5.8338	0.	132.25
4524	-1.9795	6.0977	0.	132.95
4525	-1.9895	5.5978	0.	137.71
4526	2.2415	0.47343	0.	130.7
4527	2.4923	0.70757	0.	134.9
4528	-0.24069	0.50037	0.	127.86
4529	-0.48981	0.74857	0.	131.52
4530	-0.48816	0.25202	0.	129.67
4531	-0.4815	3.2406	0.	131.77
4532	-0.2208	3.5052	0.	128.36
4533	2.2452	3.5092	0.	131.3
4534	2.4887	3.2691	0.	134.59
4535	2.49	3.7616	0.	133.1
4536	6.2949	0.75006	0.	146.56
4537	6.5791	0.89994	0.	141.56
4538	6.7859	0.66055	0.	145.58
4539	6.5223	0.50063	0.	149.77
4540	6.5025	-1.2719	0.	131.5
4541	6.2512	-1.5082	0.	128.6
4542	3.7478	-1.4944	0.	130.69
4543	3.4975	-1.2507	0.	133.41
4544	3.4857	0.1864	0.	137.97
4545	3.728	0.41656	0.	136.07
4546	9.1852	1.2522	0.	138.72
4547	9.3875	1.0041	0.	140.65
4548	9.033	0.97166	0.	139.1
4549	-4.2152	8.97	0.	128.88
4550	-3.9659	9.2195	0.	127.44
4551	-6.75	9.0001	0.	128.56
4552	-7.	9.2501	0.	126.89
4553	-4.4828	6.7201	0.	129.95
4554	-4.738	6.4794	0.	125.77
4555	-4.2307	6.4535	0.	129.45
4556	-6.2494	6.5027	0.	125.54
4557	-6.5001	6.7525	0.	129.65
4558	-5.2286	-1.2395	0.	146.3
4559	-5.2721	-0.82435	0.	136.93
4560	-5.4932	-1.0396	0.	129.67
4561	-5.4475	-1.4436	0.	132.95
4562	-5.2118	-1.6629	0.	136.7
4563	5.8543	2.7767	0.	135.
4564	6.0387	2.9709	0.	134.58
4565	5.6234	2.9367	0.	119.35
4566	5.8006	0.858	0.	122.08
4567	6.1096	1.0058	0.	138.11
4568	6.0184	0.59867	0.	137.01
4569	-8.931e-002	-7.4457	0.	129.51
4570	-0.2079	-7.7767	0.	124.99
4571	-0.4439	-7.626	0.	124.62
4572	9.2502	9.0007	0.	125.05
4573	9.0002	9.2507	0.	125.
4574	9.0005	8.7515	0.	125.06
4575	9.2484	-8.9996	0.	125.63
4576	8.9986	-9.2496	0.	125.6
4577	-8.9994	-9.247	0.	125.6
4578	-9.2494	-8.9971	0.	125.71
4579	-8.9993	-8.7451	0.	125.65
4580	-9.25	9.	0.	124.55
4581	-9.	9.25	0.	124.89
4582	-0.54349	7.2914	0.	129.24
4583	-0.27762	6.8397	0.	130.
4584	-0.77018	5.9341	0.	114.26
4585	-1.2467	5.858	0.	112.56
4586	-1.9519	6.6382	0.	127.56
4587	-2.1626	7.1142	0.	130.7
4588	-1.8169	7.1297	0.	134.18
4589	1.7455	0.49072	0.	120.31
4590	1.2485	0.49674	0.	113.91
4591	0.7512	0.49906	0.	113.47
4592	0.99951	0.24753	0.	114.22
4593	0.25449	0.5003	0.	118.73
4594	-0.49349	1.2457	0.	132.4
4595	-0.49597	1.7428	0.	134.32
4596	-0.49657	2.24	0.	134.5
4597	-0.49306	2.7389	0.	132.6
4598	0.28137	3.5264	0.	119.92
4599	0.77498	3.5214	0.	115.28
4600	1.2662	3.507	0.	115.67
4601	1.0368	3.7834	0.	116.63
4602	1.7586	3.5039	0.	121.81
4603	2.5017	2.771	0.	134.64
4604	2.5047	1.2042	0.	134.9
4605	2.55	1.7193	0.	135.15
4606	2.5494	2.2524	0.	135.12
4607	6.5017	-0.79347	0.	131.9
4608	6.7556	-1.0382	0.	129.22
4609	6.5011	-0.33359	0.	134.49
4610	5.7504	-1.5005	0.	121.61
4611	5.2502	-1.4978	0.	117.9
4612	4.7498	-1.496	0.	118.23
4613	4.249	-1.4944	0.	122.96
4614	3.4974	-0.76286	0.	133.5
4615	3.2465	-1.008	0.	131.61
4616	3.4939	-0.28121	0.	135.08
4617	4.2206	0.41243	0.	125.14
4618	4.7004	0.40103	0.	115.71
4619	5.1732	0.44498	0.	110.76
4620	5.4807	0.70524	0.	105.
4621	5.6986	0.44591	0.	119.88
4622	5.1672	0.64094	0.	109.58
4623	4.9293	0.59039	0.	112.29
4624	6.6733	1.3113	0.	136.89
4625	6.3937	1.1557	0.	133.92
4626	6.808	1.7342	0.	137.54
4627	6.4719	1.6088	0.	136.56
4628	6.9555	2.1694	0.	131.37
4629	6.6823	2.0116	0.	132.92
4630	7.0644	2.6075	0.	131.75
4631	6.8082	2.4342	0.	130.4
4632	8.1625	2.8493	0.	118.53
4633	7.8293	3.1379	0.	116.64
4634	8.4121	2.4694	0.	119.74
4635	8.7802	2.1635	0.	130.51
4636	9.0827	1.76	0.	135.64
4637	9.3669	1.5044	0.	129.93
4638	9.258	2.0195	0.	135.88
4639	7.2795	0.63569	0.	127.81
4640	7.0242	0.43642	0.	137.52
4641	8.2346	0.77291	0.	116.78
4642	7.7662	0.68731	0.	115.83
4643	8.6638	0.87853	0.	123.89
4644	-4.4706	8.7272	0.	131.59
4645	-4.4807	9.2341	0.	129.93
4646	-4.4655	8.224	0.	133.66
4647	-4.4693	7.7234	0.	133.11
4648	-4.1925	7.9566	0.	131.43
4649	-4.4771	7.2222	0.	131.02
4650	-5.2439	6.4944	0.	115.79
4651	-5.7474	6.5003	0.	115.66
4652	-6.5	7.2512	0.	130.98
4653	-6.7501	7.0018	0.	128.97
4654	-6.5	7.7507	0.	133.33
4655	-6.5	8.7501	0.	131.43
4656	-6.4999	9.2501	0.	129.58
4657	-6.5	8.2503	0.	133.6
4658	-6.4943	-0.91806	0.	103.61
4659	-6.202	-1.195	0.	96.319
4660	-5.9845	-1.0076	0.	105.88
4661	-6.9783	-0.73383	0.	121.31
4662	-7.4259	-0.58256	0.	134.5
4663	-6.7033	-1.1392	0.	106.12
4664	-7.0392	0.53731	0.	123.
4665	-7.4633	0.44655	0.	130.53
4666	-6.6452	0.79513	0.	114.18
4667	-6.2013	1.0582	0.	109.13
4668	-5.6958	1.18	0.	119.91
4669	-6.4546	1.2543	0.	112.26
4670	-5.3853	0.52789	0.	129.51
4671	-5.4229	0.98961	0.	131.69
4672	-5.3134	-0.39232	0.	130.61
4673	-5.3505	6.282e-002	0.	129.87
4674	-5.0948	-0.13946	0.	129.36
4675	-5.6034	-2.9897	0.	127.3
4676	-5.4334	-2.543	0.	132.57
4677	-6.8472	-3.1134	0.	122.63
4678	-7.0972	-2.7149	0.	129.09
4679	-7.3745	-2.2805	0.	128.48
4680	-7.5311	-1.7871	0.	130.42
4681	-5.9296	-1.4312	0.	106.87
4682	-5.7121	-1.2437	0.	116.32
4683	-6.4111	-1.4162	0.	98.887
4684	-6.8834	-1.4441	0.	117.2
4685	-7.3487	-1.5088	0.	136.38
4686	5.2112	2.8057	0.	111.24
4687	4.7934	2.5962	0.	123.26
4688	5.2925	1.0317	0.	104.06
4689	4.7629	1.1964	0.	116.55
4690	4.2424	1.2622	0.	130.2
4691	4.979	0.96737	0.	109.04
4692	6.1923	1.4532	0.	133.58
4693	6.3462	1.8861	0.	131.85
4694	6.1345	1.9403	0.	131.9
4695	5.9661	2.3818	0.	134.12
4696	6.0534	2.5727	0.	135.44
4697	0.5324	-8.3347	0.	117.83
4698	1.8341	-7.3565	0.	129.07
4699	1.821	-6.9059	0.	131.81
4700	1.7523	-8.2585	0.	131.62
4701	1.8114	-7.8033	0.	127.66
4702	9.5003	8.7506	0.	125.13
4703	9.5001	9.2503	0.	125.05
4704	9.5005	8.2511	0.	125.25
4705	9.2505	8.5014	0.	125.14
4706	9.5008	7.7519	0.	125.4
4707	9.5015	7.2531	0.	125.61
4708	9.5026	6.7548	0.	125.86
4709	9.5046	6.2572	0.	126.19
4710	9.508	5.7599	0.	126.59
4711	9.5133	5.263	0.	127.11
4712	9.5203	4.766	0.	127.75
4713	9.5261	4.2686	0.	128.52
4714	9.5292	3.7714	0.	129.37
4715	9.5311	3.2739	0.	130.08
4716	9.529	2.773	0.	130.9
4717	9.5229	2.2689	0.	131.33
4718	9.5423	1.7639	0.	130.14
4719	9.5693	1.2563	0.	131.43
4720	9.5505	0.74951	0.	134.13
4721	9.5201	0.24618	0.	132.92
4722	9.5113	-0.25653	0.	130.53
4723	9.5083	-0.75712	0.	129.34
4724	9.5055	-1.2552	0.	128.61
4725	9.503	-1.7532	0.	128.18
4726	9.5011	-2.2521	0.	127.93
4727	9.4998	-2.7515	0.	127.76
4728	9.2504	-2.5024	0.	127.41
4729	9.4989	-3.251	0.	127.59
4730	9.4981	-3.7507	0.	127.41
4731	9.4977	-4.2504	0.	127.2
4732	9.4978	-4.7502	0.	126.98
4733	9.4979	-5.2501	0.	126.75
4734	9.4978	-5.75	0.	126.53
4735	9.2466	-5.5	0.	126.48
4736	9.4976	-6.2499	0.	126.32
4737	9.4976	-6.7499	0.	126.14
4738	9.4977	-7.2498	0.	125.98
4739	9.4979	-7.7497	0.	125.85
4740	9.4982	-8.2497	0.	125.74
4741	9.4986	-8.7497	0.	125.67
4742	9.4992	-9.2498	0.	125.62
4743	9.2494	-9.4998	0.	125.59
4744	8.749	-9.4997	0.	125.57
4745	8.2487	-9.4997	0.	125.51
4746	7.7483	-9.4997	0.	125.44
4747	7.2481	-9.4998	0.	125.37
4748	6.748	-9.5001	0.	125.33
4749	6.2481	-9.5005	0.	125.33
4750	5.7485	-9.5012	0.	125.41
4751	5.2495	-9.5027	0.	125.59
4752	4.7514	-9.5053	0.	125.89
4753	4.9989	-9.2556	0.	125.56
4754	4.2549	-9.5094	0.	126.34
4755	3.7598	-9.5144	0.	126.92
4756	3.266	-9.5192	0.	127.55
4757	3.5183	-9.2766	0.	126.89
4758	2.7719	-9.5201	0.	127.85
4759	3.0302	-9.2849	0.	127.59
4760	2.2752	-9.5112	0.	126.79
4761	1.7725	-9.4867	0.	122.38
4762	1.2639	-9.4434	0.	116.86
4763	0.75265	-9.4328	0.	116.47
4764	0.24382	-9.4644	0.	121.17
4765	-0.25965	-9.4911	0.	125.74
4766	-0.75945	-9.5058	0.	127.83
4767	-1.2573	-9.5082	0.	128.11
4768	-1.7536	-9.5036	0.	127.67
4769	-1.5076	-9.2607	0.	127.7
4770	-2.2496	-9.4981	0.	127.08
4771	-2.7463	-9.4952	0.	126.52
4772	-3.2444	-9.4949	0.	126.03
4773	-3.7438	-9.496	0.	125.62
4774	-3.4891	-9.2438	0.	125.74
4775	-4.2439	-9.4977	0.	125.27
4776	-3.9886	-9.2475	0.	125.38
4777	-4.7447	-9.4986	0.	124.98
4778	-5.246	-9.4977	0.	124.78
4779	-5.7474	-9.4963	0.	124.65
4780	-6.2484	-9.4953	0.	124.62
4781	-6.7488	-9.4947	0.	124.68
4782	-7.249	-9.4948	0.	124.82
4783	-7.7492	-9.4954	0.	125.02
4784	-8.2493	-9.4964	0.	125.25
4785	-8.7494	-9.4975	0.	125.48
4786	-9.2496	-9.4985	0.	125.66
4787	-9.4996	-9.2486	0.	125.77
4788	-9.4996	-8.7476	0.	125.86
4789	-9.4997	-8.2468	0.	125.99
4790	-9.2495	-8.4957	0.	125.8
4791	-9.5002	-7.746	0.	126.18
4792	-9.5012	-7.2453	0.	126.42
4793	-9.5031	-6.7447	0.	126.7
4794	-9.5062	-6.2443	0.	127.02
4795	-9.5107	-5.7444	0.	127.36
4796	-9.5164	-5.245	0.	127.67
4797	-9.5226	-4.7463	0.	127.88
4798	-9.5284	-4.2483	0.	127.91
4799	-9.5327	-3.7506	0.	127.69
4800	-9.5338	-3.2532	0.	127.26
4801	-9.5307	-2.7562	0.	126.79
4802	-9.5241	-2.2595	0.	126.49
4803	-9.5194	-1.7627	0.	126.44
4804	-9.5202	-1.2649	0.	126.46
4805	-9.5239	-0.76546	0.	126.36
4806	-9.5276	-0.2646	0.	126.24
4807	-9.2896	-0.52312	0.	126.93
4808	-9.5295	0.23734	0.	126.36
4809	-9.5288	0.73994	0.	126.78
4810	-9.5243	1.2429	0.	127.26
4811	-9.5171	1.7455	0.	127.55
4812	-9.5103	2.2472	0.	127.57
4813	-9.5056	2.7481	0.	127.4
4814	-9.5031	3.2488	0.	127.12
4815	-9.5019	3.7493	0.	126.79
4816	-9.5012	4.2497	0.	126.45
4817	-9.5008	4.75	0.	126.1
4818	-9.2517	4.4999	0.	126.09
4819	-9.5006	5.2501	0.	125.74
4820	-9.5003	5.7501	0.	125.34
4821	-9.5002	6.2501	0.	124.92
4822	-9.2504	6.0003	0.	125.28
4823	-9.5001	6.7501	0.	124.51
4824	-9.2502	6.5002	0.	124.91
4825	-9.5	7.2501	0.	124.18
4826	-9.2501	7.0001	0.	124.53
4827	-9.5	7.75	0.	124.01
4828	-9.5	8.25	0.	124.05
4829	-9.5	8.75	0.	124.3
4830	-9.5	9.25	0.	124.68
4831	-9.25	9.5	0.	125.01
4832	-8.75	9.5	0.	125.24
4833	-8.25	9.5	0.	125.47
4834	-7.75	9.5	0.	125.75
4835	-7.25	9.5	0.	126.26
4836	-6.7499	9.5001	0.	127.9
4837	-6.2497	9.5	0.	127.13
4838	-5.7489	9.4998	0.	120.1
4839	-5.2461	9.4984	0.	120.49
4840	-4.7398	9.4927	0.	127.79
4841	-4.2314	9.4836	0.	128.49
4842	-3.7247	9.4752	0.	126.91
4843	-3.2218	9.4727	0.	126.46
4844	-2.723	9.4832	0.	126.09
4845	-2.2256	9.5024	0.	125.48
4846	-1.7272	9.5149	0.	124.69
4847	-1.2289	9.5138	0.	124.04
4848	-0.73119	9.5099	0.	123.89
4849	-0.2329	9.5117	0.	124.21
4850	0.26639	9.5147	0.	124.68
4851	0.76543	9.5152	0.	125.02
4852	1.2629	9.513	0.	125.16
4853	1.7597	9.5098	0.	125.16
4854	2.257	9.5068	0.	125.1
4855	2.7547	9.5045	0.	125.02
4856	3.2531	9.503	0.	124.95
4857	3.7519	9.5021	0.	124.89
4858	4.2511	9.5017	0.	124.83
4859	4.7505	9.5016	0.	124.79
4860	5.2502	9.5015	0.	124.75
4861	5.7501	9.5013	0.	124.74
4862	6.25	9.5013	0.	124.74
4863	5.9999	9.2523	0.	124.72
4864	6.75	9.5016	0.	124.75
4865	6.5	9.2527	0.	124.73
4866	7.2501	9.5018	0.	124.79
4867	7.7502	9.5016	0.	124.84
4868	8.2502	9.5011	0.	124.89
4869	8.7502	9.5006	0.	124.95
4870	9.2501	9.5003	0.	125.
4871	1.5609	-6.7111	0.	122.32
4872	1.0939	-6.8181	0.	110.66
4873	0.8146	-6.6657	0.	113.17
4874	0.26633	-7.191	0.	130.15
4875	0.6602	-6.9785	0.	119.07
4876	-3.3795	7.6393	0.	127.31
4877	5.2484	8.0105	0.	124.64
4878	5.7482	8.0127	0.	124.59
4879	3.9314	3.8406	0.	129.57
4880	3.6932	4.0721	0.	130.04
4881	8.0028	7.265	0.	124.69
4882	8.0046	6.7712	0.	124.55
4883	-7.4223	1.6662	0.	125.24
4884	-7.6982	0.68354	0.	131.26
4885	-7.9288	0.94084	0.	130.08
4886	-3.003	2.1333	0.	127.26
4887	-4.2089	-8.0064	0.	125.07
4888	-4.7198	-8.0044	0.	124.79
4889	-5.2302	-7.9956	0.	124.53
4890	-3.4284	0.65135	0.	127.3
4891	-3.6617	0.40628	0.	127.23
4892	-3.4112	0.18957	0.	127.37
4893	-4.4865	-1.8692	0.	130.63
4894	-4.9785	-1.8772	0.	128.71
4895	3.7365	2.6688	0.	131.44
4896	3.478	2.8728	0.	131.78
4897	3.5383	2.4182	0.	129.5
4898	1.0954	5.9241	0.	124.32
4899	3.4555	4.304	0.	130.24
4900	5.6763	-6.0108	0.	124.51
4901	-0.38977	-6.8222	0.	130.08
4902	-4.01	4.6839	0.	127.34
4903	-1.9917	5.1113	0.	131.27
4904	-7.5175	3.2438	0.	123.44
4905	-4.6783	-3.9706	0.	128.63
4906	5.4825	-3.2403	0.	122.38
4907	5.2388	-2.9863	0.	121.8
4908	4.703	-7.526	0.	124.48
4909	-6.0251	4.2861	0.	122.11
4910	3.2825	-9.0422	0.	126.93
4911	7.9854	-6.2497	0.	125.57
4912	7.7307	-6.4996	0.	125.4
4913	-2.7658	3.8793	0.	129.02
4914	-2.5118	3.635	0.	128.72
4915	-3.0227	-5.8182	0.	127.09
4916	-2.8694	-5.5333	0.	127.39
4917	7.7312	-4.5017	0.	125.67
4918	8.2384	-4.5011	0.	126.09
4919	-3.7339	-8.9954	0.	125.51
4920	1.0887	4.3476	0.	119.89
4921	-3.7523	4.9197	0.	128.42
4922	-4.253	4.9539	0.	126.4
4923	7.9854	-5.7501	0.	125.63
4924	7.7298	-5.9999	0.	125.44
4925	-3.2975	3.374	0.	127.93
4926	-3.0276	3.6275	0.	128.57
4927	-3.0295	3.1276	0.	127.93
4928	-2.7736	3.3832	0.	128.26
4929	-3.3768	-2.6679	0.	127.82
4930	-3.2001	-2.1928	0.	127.72
4931	1.0748	5.4352	0.	124.52
4932	0.89049	5.6907	0.	125.65
4933	-4.0318	2.5678	0.	127.18
4934	-4.2972	2.7731	0.	126.47
4935	-4.088	3.0943	0.	126.76
4936	4.7334	-2.9733	0.	122.06
4937	-3.457e-002	-7.1094	0.	132.61
4938	3.2212	-2.4601	0.	127.29
4939	2.4986	4.2523	0.	129.88
4940	-8.1191	-0.30655	0.	129.36
4941	7.7297	-5.5004	0.	125.49
4942	7.4748	-5.2509	0.	125.34
4943	7.4742	-5.7503	0.	125.3
4944	-4.1534	0.38439	0.	127.15
4945	-4.4113	0.60596	0.	127.61
4946	-4.3884	0.15138	0.	127.29
4947	2.2589	-5.4887	0.	125.37
4948	2.2784	-5.0239	0.	124.74
4949	1.7774	-6.45	0.	129.17
4950	7.7389	-3.5026	0.	125.98
4951	8.2423	-3.5025	0.	126.36
4952	7.4756	-4.7517	0.	125.41
4953	-5.282	-2.1009	0.	131.88
4954	1.7278	-5.9919	0.	123.89
4955	-6.571	-6.2732	0.	123.22
4956	-6.8065	-6.4673	0.	123.57
4957	1.9806	-5.7429	0.	124.46
4958	-8.1309	1.2014	0.	129.04
4959	-3.8444	3.3694	0.	127.12
4960	6.2499	9.0037	0.	124.71
4961	-3.0193	2.6293	0.	127.49
4962	-3.6294	7.912	0.	127.92
4963	-7.8827	-0.56069	0.	134.22
4964	-8.1047	-0.8092	0.	133.18
4965	-7.7126	-3.2443	0.	129.44
4966	-6.571	-5.8557	0.	122.76
4967	-0.49297	-0.24287	0.	126.53
4968	8.4914	-4.2511	0.	126.36
4969	6.193	-6.0038	0.	124.64
4970	-4.6175	-8.9634e-002	0.	127.21
4971	4.1666	3.5941	0.	128.17
4972	2.9587	-2.6966	0.	126.9
4973	2.6971	-2.9363	0.	126.06
4974	-3.8987	-5.8538	0.	126.43
4975	-9.0004	6.2503	0.	125.27
4976	5.1294	4.1918	0.	123.76
4977	5.3824	4.457	0.	124.03
4978	2.7443	-1.0091	0.	128.51
4979	7.7368	-7.4991	0.	125.38
4980	7.2324	-7.4996	0.	125.19
4981	7.5006	-2.2555	0.	126.25
4982	7.2526	-2.0055	0.	126.88
4983	7.7827	-0.13378	0.	118.66
4984	8.2605	-1.5191	0.	124.49
4985	7.7544	6.5301	0.	124.35
4986	-7.8188	-1.5588	0.	136.5
4987	-3.1621	-3.0567e-002	0.	127.49
4988	-2.6765	-1.6989e-002	0.	127.59
4989	8.7431	-5.5001	0.	126.17
4990	8.5145	-1.2721	0.	124.12
4991	-7.5025	5.754	0.	126.24
4992	8.2497	-2.5056	0.	126.22
4993	7.7486	-2.5058	0.	126.21
4994	-6.2728	2.5664	0.	119.6
4995	-4.7924	2.6953	0.	125.17
4996	-5.0536	2.8949	0.	124.1
4997	-5.0251	2.4327	0.	124.92
4998	7.9899	-7.7491	0.	125.47
4999	-5.4614	1.4486	0.	128.06
5000	-5.4939	1.9152	0.	122.84
5001	-3.0163	4.1282	0.	129.4
5002	6.2379	2.767	0.	134.81
5003	-6.747	-7.9757	0.	124.35
5004	-7.2497	-7.9774	0.	124.55
5005	1.7941	6.5661	0.	123.81
5006	4.4857	-2.7226	0.	122.12
5007	8.2378	-5.5002	0.	125.84
5008	3.7278	6.0245	0.	125.74
5009	3.981	6.2765	0.	125.44
5010	3.9699	5.787	0.	126.01
5011	-6.6023	-5.4431	0.	122.17
5012	5.3874	3.1066	0.	111.62
5013	-0.97988	4.6862	0.	123.04
5014	7.5259	-0.3657	0.	120.48
5015	8.7503	-2.5039	0.	126.66
5016	-3.7243	6.4209	0.	128.55
5017	3.7488	1.2952	0.	132.81
5018	-7.2708	2.9983	0.	122.58
5019	6.348	4.4883	0.	125.73
5020	-7.2503	7.0016	0.	127.47
5021	4.1789	2.857	0.	129.76
5022	4.4844	2.7484	0.	128.59
5023	1.093	4.9122	0.	123.07
5024	6.2488	8.015	0.	124.57
5025	6.7497	8.0148	0.	124.58
5026	-9.0002	6.7502	0.	124.93
5027	-3.5538	-1.1859	0.	128.77
5028	-4.2848	-2.1034	0.	128.66
5029	4.1982	5.069	0.	126.59
5030	4.6885	5.0991	0.	125.57
5031	-0.57529	-2.6529	0.	124.62
5032	7.4751	-6.2498	0.	125.28
5033	4.3956	3.304	0.	127.15
5034	-7.5183	2.7237	0.	123.53
5035	8.127	4.3068	0.	121.94
5036	8.493	-3.7518	0.	126.49
5037	3.9586	5.2994	0.	126.74
5038	6.5517	4.2408	0.	126.24
5039	2.031	-4.8088	0.	124.05
5040	0.92508	-5.3907	0.	121.31
5041	4.4702	-3.2063	0.	122.83
5042	-0.88252	-5.9955	0.	127.86
5043	-1.2609	-8.0651	0.	125.28
5044	7.5268	0.45497	0.	115.3
5045	-7.5179	2.1791	0.	124.32
5046	-8.0756	-1.3191	0.	133.89
5047	-8.3005	-1.5667	0.	131.22
5048	-5.3082	3.1127	0.	123.01
5049	-5.2592	2.1758	0.	123.81
5050	-3.4592	-0.72297	0.	128.33
5051	-0.97282	-5.6825	0.	127.36
5052	6.2997	4.0391	0.	127.46
5053	4.961	5.8261	0.	125.02
5054	-1.4144	-4.2389	0.	126.59
5055	2.4291	-3.1736	0.	125.53
5056	1.3575	4.7572	0.	122.88
5057	6.5351	2.2764	0.	131.97
5058	6.4106	2.5215	0.	133.21
5059	-3.9023	0.17492	0.	127.34
5060	5.413	4.9186	0.	124.54
5061	-1.1485	-3.5488	0.	125.86
5062	-2.4865	-0.73047	0.	127.64
5063	6.2458	0.34924	0.	140.25
5064	4.9435	5.3524	0.	125.1
5065	5.1812	5.1325	0.	124.89
5066	5.2032	5.6007	0.	124.88
5067	5.4409	5.3808	0.	124.67
5068	5.679	5.1595	0.	124.62
5069	5.7061	5.6186	0.	124.56
5070	5.9442	5.3974	0.	124.51
5071	-3.4161	-0.26446	0.	127.74
5072	-3.6518	-4.179e-002	0.	127.48
5073	-3.6613	-0.48887	0.	128.29
5074	-3.897	-0.2662	0.	128.03
5075	-4.1373	-5.8087e-002	0.	127.49
5076	-4.1311	-0.49467	0.	129.04
5077	-4.3714	-0.28655	0.	128.51
5078	-2.1954	-4.8355e-003	0.	127.87
5079	-2.4483	-0.25019	0.	127.68
5080	-1.9679	-0.24407	0.	127.92
5081	-2.2208	-0.48942	0.	127.73
5082	1.3912	-3.6678	0.	123.86
5083	1.6202	-3.8963	0.	123.99
5084	1.6633	-3.4265	0.	124.31
5085	1.8922	-3.655	0.	124.44
5086	2.1244	-3.8816	0.	124.55
5087	2.1635	-3.4147	0.	124.93
5088	2.3958	-3.6414	0.	125.04
5089	-1.1608	-3.9915	0.	126.11
5090	-0.91039	-4.2177	0.	125.82
5091	-0.90399	-3.7809	0.	125.58
5092	-0.65362	-4.0071	0.	125.3
5093	-0.41408	-4.2562	0.	124.96
5094	-0.3923	-3.8098	0.	124.79
5095	-0.15276	-4.0588	0.	124.45
5096	7.877e-002	-4.3144	0.	124.07
5097	0.11331	-3.8513	0.	124.09
5098	0.34483	-4.1069	0.	123.71
5099	7.527	5.5249e-002	0.	118.12
5100	7.2715	0.2557	0.	124.81
5101	7.2697	-0.15183	0.	123.94
5102	7.0141	4.8622e-002	0.	130.62
5103	6.7606	0.27651	0.	140.8
5104	6.7571	-0.13184	0.	132.49
5105	6.5036	9.6046e-002	0.	142.85
5106	-0.78533	-5.283	0.	126.58
5107	6.2643	2.1307	0.	131.25
5108	6.1398	2.3758	0.	132.39
5109	2.	3.	0.	99.011
5110	0.	3.	0.	97.593
5111	2.	1.	0.	98.431
5112	0.	1.	0.	97.328
5113	1.5	3.	0.	112.88
5114	1.	3.	0.	110.02
5115	0.5	3.	0.	112.16
5116	2.	2.5	0.	102.88
5117	2.	2.	0.	101.33
5118	2.	1.5	0.	102.77
5119	0.	2.5	0.	101.83
5120	0.	2.	0.	100.45
5121	0.	1.5	0.	101.48
5122	0.5	1.	0.	111.32
5123	1.	1.	0.	109.17
5124	1.5	1.	0.	112.17
5125	1.5	2.	0.	108.91
5126	1.5	1.5	0.	109.58
5127	0.5	1.5	0.	108.96
5128	0.5	2.	0.	108.39
5129	0.5	2.5	0.	109.39
5130	1.5	2.5	0.	109.98
5131	1.	2.5	0.	112.19
5132	1.	1.5	0.	111.73
5133	1.	2.	0.	111.7
5134	1.75	3.	0.	105.87
5135	2.	2.75	0.	100.93
5136	0.25	3.	0.	104.8
5137	0.	2.75	0.	99.696
5138	2.	1.25	0.	100.59
5139	1.75	1.	0.	105.22
5140	0.	1.25	0.	99.393
5141	0.25	1.	0.	104.26
5142	1.25	3.	0.	111.45
5143	1.5	2.75	0.	111.41
5144	0.75	3.	0.	111.09
5145	1.	2.75	0.	111.09
5146	0.5	2.75	0.	110.75
5147	2.	2.25	0.	102.07
5148	1.75	2.5	0.	106.41
5149	2.	1.75	0.	102.01
5150	1.75	2.	0.	105.12
5151	1.75	1.5	0.	106.16
5152	0.	2.25	0.	101.11
5153	0.25	2.5	0.	105.6
5154	0.	1.75	0.	100.93
5155	0.25	2.	0.	104.42
5156	0.25	1.5	0.	105.2
5157	0.75	1.	0.	110.25
5158	0.5	1.25	0.	110.11
5159	1.25	1.	0.	110.67
5160	1.	1.25	0.	110.43
5161	1.5	1.25	0.	110.84
5162	1.5	1.75	0.	109.23
5163	1.5	2.25	0.	109.43
5164	1.25	2.	0.	110.3
5165	1.25	1.5	0.	110.64
5166	0.5	1.75	0.	108.66
5167	0.75	1.5	0.	110.33
5168	0.5	2.25	0.	108.88
5169	0.75	2.	0.	110.04
5170	0.75	2.5	0.	110.78
5171	1.25	2.5	0.	111.08
5172	1.	2.25	0.	111.94
5173	1.	1.75	0.	111.71
5174	6.	0.	0.	102.34
5175	4.	0.	0.	102.75
5176	6.	-1.	0.	99.912
5177	4.	-1.	0.	100.48
5178	5.5	0.	0.	114.04
5179	5.	0.	0.	111.87
5180	4.5	0.	0.	116.16
5181	6.	-0.5	0.	105.48
5182	4.	-0.5	0.	106.33
5183	4.5	-1.	0.	116.48
5184	5.	-1.	0.	114.34
5185	5.5	-1.	0.	115.7
5186	4.5	-0.5	0.	115.2
5187	5.	-0.5	0.	116.75
5188	5.5	-0.5	0.	114.31
5189	5.75	0.	0.	108.14
5190	6.	-0.25	0.	103.9
5191	4.25	0.	0.	109.4
5192	4.	-0.25	0.	104.53
5193	6.	-0.75	0.	102.69
5194	5.75	-1.	0.	107.77
5195	4.	-0.75	0.	103.39
5196	4.25	-1.	0.	108.44
5197	5.25	0.	0.	112.92
5198	5.5	-0.25	0.	114.14
5199	4.75	0.	0.	114.
5200	5.	-0.25	0.	114.3
5201	4.5	-0.25	0.	115.66
5202	5.75	-0.5	0.	109.89
5203	4.25	-0.5	0.	110.76
5204	4.75	-1.	0.	115.41
5205	4.5	-0.75	0.	115.82
5206	5.25	-1.	0.	115.02
5207	5.	-0.75	0.	115.54
5208	5.5	-0.75	0.	114.98
5209	4.75	-0.5	0.	115.97
5210	5.25	-0.5	0.	115.52
5211	-7.06	-1.93	0.	57.766
5212	-6.26	-3.15	0.	105.95
5213	-5.6	-1.85	0.	55.387
5214	-6.7933	-2.3367	0.	93.98
5215	-6.5267	-2.7433	0.	88.538
5216	-6.5733	-1.9033	0.	108.52
5217	-6.0867	-1.8767	0.	107.82
5218	-6.04	-2.7167	0.	90.187
5219	-5.82	-2.2833	0.	95.73
5220	-6.1433	-2.2036	0.	95.703
5221	-6.2959	-2.5042	0.	97.992
5222	-6.4809	-2.2221	0.	96.945
5223	-6.9267	-2.1333	0.	74.397
5224	-6.8167	-1.9167	0.	81.772
5225	-6.3933	-2.9467	0.	95.849
5226	-6.15	-2.9333	0.	96.391
5227	-5.8433	-1.8633	0.	81.281
5228	-5.71	-2.0667	0.	75.183
5229	-6.66	-2.54	0.	91.203
5230	-6.6371	-2.2794	0.	95.335
5231	-6.4113	-2.6238	0.	93.229
5232	-6.33	-1.89	0.	107.95
5233	-6.5271	-2.0627	0.	102.54
5234	-6.115	-2.0401	0.	101.68
5235	-5.93	-2.5	0.	92.875
5236	-6.1679	-2.6104	0.	93.993
5237	-5.9816	-2.2435	0.	95.649
5238	-6.2196	-2.3539	0.	96.802
5239	-6.3121	-2.2129	0.	96.259
5240	-6.3884	-2.3632	0.	97.402
5241	-5.89	0.76	0.	86.45
5242	-7.14	-0.11	0.	72.842
5243	-5.76	-0.75	0.	73.416
5244	-6.3067	0.47	0.	94.5
5245	-6.7233	0.18	0.	97.898
5246	-5.8467	0.25667	0.	97.772
5247	-5.8033	-0.24667	0.	98.108
5248	-6.68	-0.32333	0.	103.11
5249	-6.22	-0.53667	0.	96.65
5250	-6.177	0.15011	0.	96.408
5251	-6.147	-0.19902	0.	94.72
5252	-6.4661	-5.1058e-002	0.	99.456
5253	-6.0983	0.615	0.	88.761
5254	-5.8683	0.50833	0.	90.113
5255	-6.9317	3.5e-002	0.	81.075
5256	-6.91	-0.21667	0.	83.604
5257	-5.7817	-0.49833	0.	84.539
5258	-5.99	-0.64333	0.	83.627
5259	-6.515	0.325	0.	96.125
5260	-6.2418	0.31005	0.	95.402
5261	-6.5947	6.4471e-002	0.	98.295
5262	-5.825	5.e-003	0.	97.799
5263	-6.0118	0.20339	0.	96.983
5264	-5.9752	-0.22285	0.	96.399
5265	-6.45	-0.43	0.	99.676
5266	-6.573	-0.1872	0.	100.77
5267	-6.1835	-0.36785	0.	95.616
5268	-6.162	-2.4459e-002	0.	95.563
5269	-6.3216	4.9524e-002	0.	97.845
5270	-6.3065	-0.12504	0.	97.015
5271	-1.21	7.27	0.	102.37
5272	-1.51	6.22	0.	62.396
5273	-0.44	6.48	0.	59.92
5274	-1.36	6.745	0.	97.933
5275	-0.825	6.875	0.	84.209
5276	-0.975	6.35	0.	115.61
5277	-1.0536	6.6567	0.	102.67
5278	-1.285	7.0075	0.	98.157
5279	-1.0175	7.0725	0.	92.5
5280	-1.435	6.4825	0.	79.944
5281	-1.2425	6.285	0.	88.513
5282	-0.6325	6.6775	0.	68.
5283	-0.7075	6.415	0.	84.4
5284	-1.2068	6.7009	0.	100.08
5285	-0.93932	6.7659	0.	92.807
5286	-1.0143	6.5034	0.	108.81
5287	1.35	-7.15	0.	80.188
5288	0.29	-7.77	0.	70.398
5289	1.36	-8.38	0.	79.153
5290	0.99667	-7.3567	0.	96.469
5291	0.64333	-7.5633	0.	99.673
5292	1.3533	-7.56	0.	100.42
5293	1.3567	-7.97	0.	100.01
5294	0.64667	-7.9733	0.	100.36
5295	1.0033	-8.1767	0.	96.075
5296	1.0815	-7.6238	0.	97.327
5297	0.83581	-7.7667	0.	101.03
5298	1.0837	-7.9081	0.	96.955
5299	1.1733	-7.2533	0.	86.342
5300	1.3517	-7.355	0.	88.179
5301	0.46667	-7.6667	0.	79.122
5302	0.46833	-7.8717	0.	79.164
5303	1.3583	-8.175	0.	87.555
5304	1.1817	-8.2783	0.	85.64
5305	0.82	-7.46	0.	97.954
5306	1.0391	-7.4902	0.	96.83
5307	0.73957	-7.665	0.	99.773
5308	1.355	-7.765	0.	100.05
5309	1.2174	-7.5919	0.	98.827
5310	1.2202	-7.939	0.	98.449
5311	0.825	-8.075	0.	98.052
5312	0.74124	-7.87	0.	100.04
5313	1.0435	-8.0424	0.	96.446
5314	0.95866	-7.6953	0.	99.062
5315	1.0826	-7.7659	0.	97.134
5316	0.95973	-7.8374	0.	98.879
5317	5.55	2.57	0.	92.667
5318	4.48	1.72	0.	69.541
5319	5.75	1.22	0.	70.548
5320	5.1933	2.2867	0.	93.697
5321	4.8367	2.0033	0.	96.64
5322	5.6167	2.12	0.	98.985
5323	5.6833	1.67	0.	100.41
5324	4.9033	1.5533	0.	104.25
5325	5.3267	1.3867	0.	101.62
5326	5.327	2.0062	0.	97.994
5327	5.3733	1.6941	0.	96.402
5328	5.0796	1.8097	0.	99.79
5329	5.3717	2.4283	0.	91.476
5330	5.5833	2.345	0.	93.718
5331	4.6583	1.8617	0.	78.856
5332	4.6917	1.6367	0.	82.173
5333	5.7167	1.445	0.	84.552
5334	5.5383	1.3033	0.	84.906
5335	5.015	2.145	0.	95.101
5336	5.2602	2.1464	0.	95.8
5337	4.9582	1.9065	0.	97.869
5338	5.65	1.895	0.	99.525
5339	5.4719	2.0631	0.	98.372
5340	5.5283	1.682	0.	98.405
5341	5.115	1.47	0.	102.72
5342	4.9915	1.6815	0.	101.42
5343	5.35	1.5404	0.	98.959
5344	5.3502	1.8502	0.	97.191
5345	5.2033	1.908	0.	98.797
5346	5.2265	1.7519	0.	98.017
5347	7.6	2.77	0.	103.
5348	7.05	0.91	0.	71.763
5349	8.94	1.36	0.	79.157
5350	7.4625	2.305	0.	100.46
5351	7.325	1.84	0.	102.99
5352	7.1875	1.375	0.	108.87
5353	7.935	2.4175	0.	99.552
5354	8.27	2.065	0.	106.62
5355	8.605	1.7125	0.	108.71
5356	7.5225	1.0225	0.	116.09
5357	7.995	1.135	0.	110.54
5358	8.4675	1.2475	0.	120.26
5359	7.5576	1.5383	0.	103.67
5360	8.2991	1.5515	0.	110.86
5361	7.9473	1.4852	0.	109.23
5362	7.7412	2.0206	0.	105.45
5363	8.0504	1.8089	0.	106.78
5364	7.5312	2.5375	0.	100.24
5365	7.7675	2.5938	0.	99.863
5366	7.1188	1.1425	0.	90.087
5367	7.2863	0.96625	0.	93.651
5368	8.7725	1.5362	0.	91.66
5369	8.7037	1.3038	0.	97.105
5370	7.3938	2.0725	0.	101.63
5371	7.6018	2.1628	0.	102.92
5372	7.2562	1.6075	0.	105.92
5373	7.4413	1.6891	0.	103.33
5374	7.3725	1.4566	0.	106.27
5375	8.1025	2.2413	0.	103.08
5376	7.8381	2.2191	0.	102.47
5377	8.4375	1.8887	0.	107.62
5378	8.1602	1.937	0.	106.67
5379	8.4521	1.632	0.	109.65
5380	7.7587	1.0788	0.	113.28
5381	7.54	1.2804	0.	109.86
5382	8.2312	1.1912	0.	115.35
5383	7.9711	1.3101	0.	109.89
5384	8.3833	1.3995	0.	115.28
5385	7.7524	1.5117	0.	106.43
5386	7.6494	1.7794	0.	104.53
5387	8.1232	1.5183	0.	109.96
5388	8.1748	1.6802	0.	108.77
5389	7.9988	1.6471	0.	107.99
5390	7.8958	1.9148	0.	106.11
5391	-5.	9.	0.	97.829
5392	-6.	9.	0.	97.843
5393	-5.	7.	0.	95.89
5394	-6.	7.	0.	95.666
5395	-5.5	9.	0.	113.45
5396	-5.	8.5	0.	101.84
5397	-5.	8.	0.	99.928
5398	-5.	7.5	0.	100.26
5399	-6.	8.5	0.	101.58
5400	-6.	8.	0.	99.792
5401	-6.	7.5	0.	100.2
5402	-5.5	7.	0.	109.86
5403	-5.5	8.5	0.	106.69
5404	-5.5	8.	0.	103.54
5405	-5.5	7.5	0.	104.95
5406	-5.25	9.	0.	105.55
5407	-5.	8.75	0.	99.831
5408	-5.75	9.	0.	105.57
5409	-6.	8.75	0.	99.71
5410	-5.	7.25	0.	98.075
5411	-5.25	7.	0.	102.84
5412	-6.	7.25	0.	97.932
5413	-5.75	7.	0.	102.72
5414	-5.5	8.75	0.	110.02
5415	-5.	8.25	0.	100.84
5416	-5.25	8.5	0.	104.19
5417	-5.	7.75	0.	100.05
5418	-5.25	8.	0.	101.73
5419	-5.25	7.5	0.	102.57
5420	-6.	8.25	0.	100.64
5421	-5.75	8.5	0.	104.06
5422	-6.	7.75	0.	99.954
5423	-5.75	8.	0.	101.66
5424	-5.75	7.5	0.	102.54
5425	-5.5	7.25	0.	107.36
5426	-5.5	8.25	0.	105.12
5427	-5.5	7.75	0.	104.24
