Node Number	X Location (mm)	Y Location (mm)	Z Location (mm)	Equivalent (von-Mises) Stress (MPa)
1	-7.71	6.05	0.	145.81
2	-6.68	6.68	0.	175.44
3	-7.74	7.25	0.	153.98
4	-3.62	5.11	0.	150.91
5	-3.83	6.55	0.	136.14
6	-4.97	5.64	0.	185.42
7	-6.56	6.14	0.	181.13
8	-6.08	4.72	0.	124.02
9	-5.09	5.84	0.	183.21
10	4.54	-1.42	0.	125.36
11	5.87	-0.19	0.	165.8
12	4.14	0.34	0.	153.93
13	-5.01	-1.48	0.	146.8
14	-5.09	0.38	0.	135.49
15	-6.66	-0.63	0.	155.3
16	7.66	0.19	0.	128.33
17	7.39	-0.94	0.	163.97
18	8.5	-0.61	0.	179.88
19	-6.	-7.54	0.	149.37
20	-6.11	-6.18	0.	138.81
21	-7.23	-6.96	0.	162.05
22	4.47	-8.49	0.	170.63
23	3.99	-7.56	0.	104.47
24	3.42	-8.44	0.	164.23
25	-4.23	-6.75	0.	152.1
26	-3.38	-7.34	0.	135.7
27	-3.29	-6.31	0.	151.39
28	6.	9.	0.	139.82
29	6.	7.	0.	135.94
30	8.	9.	0.	139.65
31	8.	7.	0.	136.76
32	-4.	1.	0.	136.46
33	-4.	0.	0.	131.75
34	-3.	1.	0.	133.3
35	-3.	0.	0.	133.3
36	0.	-6.	0.	135.52
37	0.	-8.	0.	134.18
38	2.	-6.	0.	135.52
39	2.	-8.	0.	132.21
40	10.	10.	0.	125.15
41	-10.	10.	0.	124.98
42	10.	-10.	0.	125.33
43	-10.	-10.	0.	130.96
44	-7.72	6.45	0.	150.52
45	-7.73	6.85	0.	151.79
46	-7.0333	6.87	0.	75.932
47	-7.3867	7.06	0.	103.46
48	-3.69	5.59	0.	145.15
49	-3.76	6.07	0.	141.79
50	-4.07	5.2867	0.	101.
51	-4.52	5.4633	0.	90.88
52	-4.2087	6.2477	0.	88.942
53	-4.5889	5.9442	0.	72.55
54	-6.4	5.6667	0.	134.64
55	-6.24	5.1933	0.	128.89
56	-6.07	6.04	0.	112.84
57	-5.58	5.94	0.	106.09
58	-5.7509	5.0923	0.	95.804
59	-5.4212	5.4654	0.	87.451
60	4.8725	-1.1125	0.	93.322
61	5.205	-0.805	0.	106.02
62	5.5375	-0.4975	0.	91.654
63	4.44	-0.98	0.	131.89
64	4.34	-0.54	0.	138.04
65	4.24	-0.1	0.	139.77
66	5.4375	-5.75e-002	0.	98.742
67	5.005	7.5e-002	0.	112.63
68	4.5725	0.2075	0.	105.33
69	-5.03	-1.015	0.	144.17
70	-5.05	-0.55	0.	144.55
71	-5.07	-8.5e-002	0.	140.18
72	-5.4225	-1.2675	0.	97.748
73	-5.835	-1.055	0.	108.3
74	-6.2475	-0.8425	0.	90.646
75	-5.4825	0.1275	0.	93.842
76	-5.875	-0.125	0.	104.65
77	-6.2675	-0.3775	0.	86.494
78	7.57	-0.18667	0.	130.57
79	7.48	-0.56333	0.	143.35
80	7.94	-7.6667e-002	0.	85.528
81	8.22	-0.34333	0.	78.008
82	7.76	-0.83	0.	103.55
83	8.13	-0.72	0.	87.001
84	-6.0367	-7.0867	0.	142.95
85	-6.0733	-6.6333	0.	141.04
86	-6.41	-7.3467	0.	97.491
87	-6.82	-7.1533	0.	76.059
88	-6.4833	-6.44	0.	89.828
89	-6.8567	-6.7	0.	69.612
90	4.23	-8.025	0.	115.64
91	3.945	-8.465	0.	102.6
92	3.705	-8.	0.	89.941
93	-3.805	-7.045	0.	63.331
94	-3.76	-6.53	0.	78.853
95	-3.335	-6.825	0.	144.67
96	6.	8.5	0.	146.91
97	6.	8.	0.	147.58
98	6.	7.5	0.	145.71
99	6.5	9.	0.	119.27
100	7.	9.	0.	125.84
101	7.5	9.	0.	119.57
102	6.5	7.	0.	115.97
103	7.	7.	0.	120.73
104	7.5	7.	0.	116.6
105	8.	8.5	0.	148.22
106	8.	8.	0.	149.31
107	8.	7.5	0.	147.42
108	-4.	0.5	0.	144.72
109	-3.5	1.	0.	113.21
110	-3.5	0.	0.	109.5
111	-3.	0.5	0.	142.69
112	0.	-6.5	0.	143.22
113	0.	-7.	0.	143.95
114	0.	-7.5	0.	142.72
115	0.5	-6.	0.	113.79
116	1.	-6.	0.	118.19
117	1.5	-6.	0.	113.76
118	0.5	-8.	0.	111.9
119	1.	-8.	0.	115.81
120	1.5	-8.	0.	111.31
121	2.	-6.5	0.	144.83
122	2.	-7.	0.	145.82
123	2.	-7.5	0.	142.88
124	9.5	10.	0.	125.72
125	9.	10.	0.	127.49
126	8.5	10.	0.	126.86
127	8.	10.	0.	121.97
128	7.5	10.	0.	117.51
129	7.	10.	0.	115.38
130	6.5	10.	0.	117.9
131	6.	10.	0.	122.96
132	5.5	10.	0.	128.74
133	5.	10.	0.	130.3
134	4.5	10.	0.	129.34
135	4.	10.	0.	128.35
136	3.5	10.	0.	127.54
137	3.	10.	0.	127.
138	2.5	10.	0.	126.68
139	2.	10.	0.	126.51
140	1.5	10.	0.	126.46
141	1.	10.	0.	126.49
142	0.5	10.	0.	126.57
143	-5.2042e-015	10.	0.	126.67
144	-0.5	10.	0.	126.75
145	-1.	10.	0.	126.77
146	-1.5	10.	0.	126.66
147	-2.	10.	0.	126.36
148	-2.5	10.	0.	125.85
149	-3.	10.	0.	125.15
150	-3.5	10.	0.	124.36
151	-4.	10.	0.	123.61
152	-4.5	10.	0.	122.98
153	-5.	10.	0.	122.49
154	-5.5	10.	0.	122.08
155	-6.	10.	0.	121.67
156	-6.5	10.	0.	121.35
157	-7.	10.	0.	121.31
158	-7.5	10.	0.	121.72
159	-8.	10.	0.	122.56
160	-8.5	10.	0.	123.57
161	-9.	10.	0.	124.42
162	-9.5	10.	0.	124.91
163	10.	9.5	0.	123.56
164	10.	9.	0.	120.35
165	10.	8.5	0.	118.42
166	10.	8.	0.	118.74
167	10.	7.5	0.	121.09
168	10.	7.	0.	124.71
169	10.	6.5	0.	128.2
170	10.	6.	0.	130.4
171	10.	5.5	0.	131.09
172	10.	5.	0.	130.84
173	10.	4.5	0.	130.26
174	10.	4.	0.	129.72
175	10.	3.5	0.	129.4
176	10.	3.	0.	129.35
177	10.	2.5	0.	129.59
178	10.	2.	0.	130.08
179	10.	1.5	0.	130.47
180	10.	1.	0.	130.16
181	10.	0.5	0.	127.46
182	10.	-5.2042e-015	0.	123.28
183	10.	-0.5	0.	121.04
184	10.	-1.	0.	124.14
185	10.	-1.5	0.	129.17
186	10.	-2.	0.	131.41
187	10.	-2.5	0.	131.34
188	10.	-3.	0.	130.45
189	10.	-3.5	0.	129.54
190	10.	-4.	0.	128.76
191	10.	-4.5	0.	128.13
192	10.	-5.	0.	127.58
193	10.	-5.5	0.	127.08
194	10.	-6.	0.	126.63
195	10.	-6.5	0.	126.23
196	10.	-7.	0.	125.88
197	10.	-7.5	0.	125.62
198	10.	-8.	0.	125.45
199	10.	-8.5	0.	125.35
200	10.	-9.	0.	125.33
201	10.	-9.5	0.	125.33
202	-10.	9.5	0.	125.13
203	-10.	9.	0.	125.81
204	-10.	8.5	0.	126.17
205	-10.	8.	0.	125.18
206	-10.	7.5	0.	122.62
207	-10.	7.	0.	119.77
208	-10.	6.5	0.	118.73
209	-10.	6.	0.	120.35
210	-10.	5.5	0.	123.51
211	-10.	5.	0.	126.59
212	-10.	4.5	0.	128.88
213	-10.	4.	0.	130.4
214	-10.	3.5	0.	131.32
215	-10.	3.	0.	131.72
216	-10.	2.5	0.	131.66
217	-10.	2.	0.	131.17
218	-10.	1.5	0.	130.29
219	-10.	1.	0.	129.11
220	-10.	0.5	0.	127.83
221	-10.	-5.2042e-015	0.	126.76
222	-10.	-0.5	0.	126.26
223	-10.	-1.	0.	126.5
224	-10.	-1.5	0.	127.38
225	-10.	-2.	0.	128.57
226	-10.	-2.5	0.	129.72
227	-10.	-3.	0.	130.6
228	-10.	-3.5	0.	131.11
229	-10.	-4.	0.	131.21
230	-10.	-4.5	0.	130.84
231	-10.	-5.	0.	129.93
232	-10.	-5.5	0.	128.48
233	-10.	-6.	0.	126.72
234	-10.	-6.5	0.	125.28
235	-10.	-7.	0.	124.83
236	-10.	-7.5	0.	125.64
237	-10.	-8.	0.	127.21
238	-10.	-8.5	0.	128.85
239	-10.	-9.	0.	130.07
240	-10.	-9.5	0.	130.75
241	-9.5	-10.	0.	129.62
242	-9.	-10.	0.	128.76
243	-8.5	-10.	0.	127.78
244	-8.	-10.	0.	126.23
245	-7.5	-10.	0.	124.11
246	-7.	-10.	0.	122.08
247	-6.5	-10.	0.	121.22
248	-6.	-10.	0.	122.01
249	-5.5	-10.	0.	123.77
250	-5.	-10.	0.	125.19
251	-4.5	-10.	0.	125.65
252	-4.	-10.	0.	125.66
253	-3.5	-10.	0.	126.18
254	-3.	-10.	0.	127.55
255	-2.5	-10.	0.	129.35
256	-2.	-10.	0.	130.77
257	-1.5	-10.	0.	131.16
258	-1.	-10.	0.	129.97
259	-0.5	-10.	0.	126.88
260	5.2042e-015	-10.	0.	122.41
261	0.5	-10.	0.	118.47
262	1.	-10.	0.	117.2
263	1.5	-10.	0.	119.55
264	2.	-10.	0.	124.49
265	2.5	-10.	0.	128.66
266	3.	-10.	0.	127.3
267	3.5	-10.	0.	120.82
268	4.	-10.	0.	117.16
269	4.5	-10.	0.	121.87
270	5.	-10.	0.	128.97
271	5.5	-10.	0.	131.86
272	6.	-10.	0.	131.31
273	6.5	-10.	0.	129.83
274	7.	-10.	0.	128.6
275	7.5	-10.	0.	127.69
276	8.	-10.	0.	127.03
277	8.5	-10.	0.	126.53
278	9.	-10.	0.	126.11
279	9.5	-10.	0.	125.72
280	-7.0233	6.47	0.	82.492
281	-7.3667	6.26	0.	100.43
282	1.2558	3.9746	0.	126.46
283	1.8371	4.4515	0.	125.91
284	0.69704	3.4861	0.	127.11
285	1.7576	3.9365	0.	126.36
286	1.2013	3.4587	0.	126.93
287	2.3415	4.3896	0.	125.87
288	0.79122	-1.8671	0.	124.61
289	1.3195	4.4891	0.	125.93
290	2.2505	3.8809	0.	126.23
291	1.7016	3.4245	0.	126.8
292	0.79962	4.5221	0.	125.98
293	0.83992	5.0407	0.	125.37
294	1.3766	5.0009	0.	125.41
295	2.4971	4.923	0.	125.56
296	0.23945	4.026	0.	126.8
297	0.31311	5.6368	0.	124.75
298	3.2548	4.149	0.	125.55
299	1.952	5.4821	0.	125.06
300	0.62467	2.4546	0.	127.44
301	2.7324	3.7998	0.	126.01
302	0.48868	-0.74786	0.	124.54
303	-5.444e-002	-2.0167	0.	125.28
304	0.14694	2.9914	0.	127.73
305	5.6244	3.2233	0.	122.52
306	5.0993	3.6557	0.	123.06
307	2.1977	3.3798	0.	126.62
308	1.1347	2.4313	0.	127.32
309	-0.31386	3.5242	0.	127.81
310	3.4895	4.5512	0.	125.57
311	1.6649	2.9151	0.	127.15
312	3.0117	5.0787	0.	125.59
313	0.28079	4.5473	0.	126.07
314	0.30574	5.0775	0.	125.34
315	4.102	4.132	0.	124.84
316	3.6711	4.1065	0.	125.24
317	1.4209	5.5083	0.	124.95
318	1.2691	-1.8113	0.	124.63
319	2.4741	5.4781	0.	125.21
320	0.55184	-0.16366	0.	124.67
321	5.5072	-4.5641	0.	124.9
322	-1.4948	-2.9759	0.	127.76
323	0.96483	-2.9277	0.	124.04
324	6.1064	3.2361	0.	122.62
325	5.5871	3.6704	0.	122.64
326	4.6243	3.6522	0.	123.59
327	1.6132	-1.2216	0.	124.48
328	2.6919	3.3231	0.	126.3
329	5.1494	3.1705	0.	122.51
330	1.1188	1.9175	0.	127.11
331	-1.9935	-3.4661	0.	128.45
332	-0.50801	-1.9978	0.	125.83
333	-0.36019	3.009	0.	128.2
334	4.0326	4.5912	0.	125.41
335	1.4497	-2.8926	0.	124.31
336	2.1672	2.8803	0.	127.03
337	1.6431	2.4063	0.	127.35
338	-0.36413	6.0376	0.	124.45
339	5.0277	-4.5903	0.	124.64
340	6.0008	-5.0251	0.	125.48
341	-1.0018	-2.4874	0.	126.77
342	3.5066	5.0579	0.	125.78
343	-2.0003	-2.9734	0.	127.75
344	-3.4199e-002	-2.4925	0.	125.35
345	-0.51568	-2.4918	0.	126.1
346	-0.23476	4.5562	0.	126.24
347	4.149	3.6604	0.	124.27
348	3.6796	3.6692	0.	124.97
349	0.57405	0.37667	0.	125.15
350	5.9817	-4.0418	0.	125.2
351	5.9996	-4.5365	0.	125.27
352	9.2582e-002	6.1041	0.	124.46
353	0.97248	6.0442	0.	124.52
354	1.4687	6.0123	0.	124.57
355	1.9743	5.9956	0.	124.67
356	2.4805	5.9959	0.	124.84
357	1.5249	-0.72588	0.	124.21
358	1.9363	-0.64132	0.	124.2
359	-0.99586	-2.9813	0.	127.28
360	9.4845e-002	1.9618	0.	127.39
361	-0.77702	5.5627	0.	124.69
362	5.5065	-4.0846	0.	124.69
363	4.6651	3.1671	0.	122.89
364	1.1082	1.4009	0.	126.6
365	0.99322	-3.4472	0.	123.11
366	-0.46668	-1.506	0.	125.54
367	-0.39668	2.4955	0.	128.23
368	1.9304	-2.8676	0.	125.07
369	2.6687	2.8399	0.	126.72
370	2.3523	-0.47438	0.	124.22
371	5.9549	-3.5473	0.	125.32
372	4.5476	-4.5905	0.	124.7
373	5.5128	-5.0477	0.	125.12
374	6.0113	-5.518	0.	125.85
375	-1.9775	-3.9586	0.	129.25
376	-0.99933	-1.9921	0.	126.39
377	-1.3102	3.5545	0.	128.93
378	-0.8654	3.0247	0.	128.78
379	4.0112	5.0648	0.	125.96
380	2.1502	2.3792	0.	127.41
381	5.2449	2.643	0.	121.96
382	5.69	2.8108	0.	122.63
383	6.5213	-5.9976	0.	126.3
384	-9.8449e-003	-2.9809	0.	125.29
385	-0.50212	-2.9846	0.	126.38
386	-4.3012e-003	-0.54923	0.	124.85
387	3.8124e-002	-8.0782e-002	0.	124.94
388	6.9903e-002	0.93408	0.	125.99
389	8.2155e-002	1.4467	0.	126.75
390	5.5575	4.128	0.	122.92
391	6.0545	4.1313	0.	122.16
392	-3.0244	-3.472	0.	126.84
393	-0.74413	4.5615	0.	126.53
394	1.3895	-2.3497	0.	124.69
395	1.9147	-2.2874	0.	125.38
396	4.5757	-4.1689	0.	124.53
397	5.0341	-4.131	0.	124.4
398	4.1757	3.1829	0.	123.72
399	3.6822	3.2134	0.	124.78
400	1.0989	0.87774	0.	125.84
401	1.0932	0.34603	0.	125.04
402	6.4977	-5.0089	0.	125.72
403	6.5097	-5.5041	0.	126.
404	6.493	-4.5121	0.	125.55
405	6.5492	4.1223	0.	121.65
406	0.532	6.5667	0.	124.36
407	1.4967	6.5148	0.	124.3
408	1.992	6.503	0.	124.33
409	2.491	6.5022	0.	124.44
410	1.4805	-3.426	0.	123.46
411	-0.98612	-3.4744	0.	127.96
412	0.50053	-3.4652	0.	123.72
413	-0.48089	-1.015	0.	125.33
414	-0.41833	1.9826	0.	127.85
415	-0.45816	0.46047	0.	125.53
416	5.0371	4.5941	0.	124.45
417	-2.4982	-3.9698	0.	128.16
418	-1.2786	5.5694	0.	124.59
419	-1.2661	4.0653	0.	128.18
420	-4.1252	-3.8394	0.	124.16
421	2.4123	-2.8876	0.	125.98
422	2.1818	-1.5689	0.	125.45
423	5.4673	-3.6023	0.	124.39
424	4.1024	-4.0688	0.	125.05
425	3.1718	2.7969	0.	126.
426	4.7016	2.6773	0.	122.02
427	1.6486	-0.2151	0.	124.31
428	1.6208	1.3844	0.	126.88
429	5.1971	2.1114	0.	121.05
430	6.0801	3.6791	0.	122.32
431	-0.89241	6.5489	0.	124.69
432	-1.3283	6.0593	0.	124.4
433	-3.7293	-4.319	0.	123.96
434	1.0062	-3.9607	0.	121.59
435	-5.9799	-3.1691	0.	119.58
436	2.4973	-0.94361	0.	124.86
437	5.9192	-3.049	0.	125.82
438	6.4567	-3.5049	0.	125.96
439	6.5332	4.5879	0.	121.1
440	4.0851	-4.5483	0.	125.25
441	5.0244	-5.0619	0.	124.7
442	5.5186	-5.535	0.	125.45
443	6.0301	-6.0118	0.	126.36
444	-1.9492	-4.4514	0.	130.24
445	-1.4739	-3.9621	0.	129.53
446	-0.98645	-1.499	0.	126.11
447	-1.4985	-1.988	0.	126.74
448	-1.3674	3.0435	0.	129.28
449	-0.90806	2.5132	0.	128.85
450	4.5179	5.0683	0.	125.99
451	4.004	5.5458	0.	126.41
452	-1.7941	3.584	0.	129.4
453	-3.5232	-3.4213	0.	125.94
454	-3.0169	-2.9656	0.	126.9
455	3.5068	-3.7878	0.	125.93
456	2.9442	-3.3426	0.	126.28
457	2.1399	1.8748	0.	127.65
458	2.6566	2.3481	0.	127.3
459	6.5883	3.2156	0.	122.75
460	5.7048	2.421	0.	122.76
461	6.1397	2.8062	0.	123.12
462	-2.0022	-2.4794	0.	127.13
463	6.5448	-6.4889	0.	126.48
464	3.4949	6.0275	0.	125.7
465	2.9923	6.5099	0.	124.7
466	2.4554	-3.3902	0.	125.59
467	1.9664	-3.4072	0.	124.47
468	6.0286e-003	-3.4761	0.	125.12
469	-0.48978	-3.4782	0.	126.72
470	-0.48929	-0.52521	0.	125.17
471	-0.47347	-3.5805e-002	0.	125.18
472	-0.44641	0.96413	0.	126.24
473	-0.43402	1.4721	0.	127.12
474	5.5365	4.5934	0.	123.41
475	6.0366	4.5958	0.	122.13
476	-1.2445	4.5718	0.	126.98
477	-1.2489	5.0728	0.	125.6
478	-5.5843	-3.7417	0.	120.73
479	2.3144	-2.001	0.	126.13
480	4.5367	-3.782	0.	124.19
481	4.1868	2.7056	0.	123.16
482	3.6785	2.7517	0.	124.73
483	1.61	0.86563	0.	126.07
484	1.606	0.34002	0.	125.07
485	-4.5023	3.2821	0.	120.84
486	-5.9095	2.0395	0.	118.8
487	3.4956	6.5164	0.	125.25
488	-6.8295	-3.125	0.	123.71
489	7.0369	-6.4733	0.	126.27
490	7.0075	-5.4922	0.	126.04
491	6.9979	-4.9955	0.	125.83
492	5.6634	1.9989	0.	122.93
493	-3.5264	-2.9409	0.	126.52
494	-2.2617	3.6284	0.	129.58
495	4.5081	5.5475	0.	126.96
496	-1.4233	2.5338	0.	129.43
497	3.6137	-4.3637	0.	126.06
498	5.8697	-2.5492	0.	126.71
499	7.0176	5.0476	0.	119.84
500	7.0426	4.1021	0.	121.67
501	7.0692	3.1764	0.	122.94
502	7.0733	2.7189	0.	123.62
503	6.9625	-3.4773	0.	125.82
504	6.4283	-2.9933	0.	127.02
505	5.8161	-2.0797	0.	128.11
506	-2.0014	-1.985	0.	126.64
507	7.0635	-6.9533	0.	126.18
508	-6.3871	-2.5326	0.	121.63
509	-7.2979	-4.6642	0.	123.85
510	-7.2581	-3.6331	0.	124.68
511	-6.9247	2.3151	0.	123.78
512	-6.9439	2.7965	0.	123.91
513	-6.4239	2.4163	0.	121.2
514	2.1637	-5.4293e-002	0.	124.51
515	2.1325	1.3661	0.	127.48
516	3.1641	2.3156	0.	126.63
517	4.6957	2.1809	0.	120.77
518	5.4189	-3.1156	0.	123.87
519	3.9775	-3.583	0.	124.98
520	2.8849	-2.8338	0.	126.79
521	2.6217	-1.4145	0.	126.09
522	-4.2121	-4.2879	0.	123.91
523	-4.6923	-4.2708	0.	123.95
524	-5.1714	-4.2573	0.	123.28
525	-4.0638	-3.3814	0.	124.79
526	-5.5315	-3.2326	0.	119.17
527	-1.752	4.0879	0.	129.
528	-2.7585	3.2422	0.	127.5
529	-4.0334	3.2915	0.	121.41
530	-1.773	5.5764	0.	124.46
531	-1.8187	6.0661	0.	124.45
532	-3.8422	-4.7597	0.	122.71
533	-1.4538	-6.9598	0.	126.89
534	-1.9286	-4.9449	0.	131.25
535	6.5214	5.0612	0.	120.42
536	5.0203	5.0658	0.	125.53
537	3.9996	6.0307	0.	126.57
538	-0.44439	7.0439	0.	124.84
539	4.207e-002	7.0495	0.	124.58
540	0.52844	7.0455	0.	124.4
541	1.0161	7.0289	0.	124.27
542	1.5067	7.0147	0.	124.16
543	2.0006	7.0068	0.	124.09
544	2.4977	7.0043	0.	124.08
545	2.9969	7.0068	0.	124.2
546	3.4976	7.0098	0.	124.59
547	-4.9672	2.7551	0.	120.29
548	-3.5168	2.8386	0.	122.82
549	-1.8626	3.0751	0.	129.38
550	-0.93512	2.0032	0.	128.52
551	-0.97194	0.48436	0.	125.7
552	-0.98627	-1.0065	0.	125.86
553	-0.97631	-3.9691	0.	128.9
554	0.51107	-3.97	0.	122.61
555	1.4998	-3.948	0.	122.19
556	3.0038	-3.8659	0.	126.22
557	-0.93186	7.0426	0.	125.26
558	-1.3789	6.5521	0.	125.05
559	-1.4226	7.0439	0.	125.98
560	2.4968	-3.9085	0.	125.48
561	1.9953	-3.9309	0.	123.84
562	1.5816e-002	-3.9748	0.	124.85
563	-0.47994	-3.9738	0.	127.25
564	-0.98058	-1.5255e-002	0.	125.42
565	-0.96312	0.98735	0.	126.61
566	-0.95257	1.4943	0.	127.71
567	-2.3386	3.1324	0.	128.71
568	-2.9856	2.8347	0.	125.46
569	-4.0071	2.834	0.	121.54
570	-4.4879	2.8097	0.	121.
571	3.9988	7.0109	0.	125.43
572	3.9983	6.52	0.	126.23
573	6.0225	5.0663	0.	122.26
574	-3.3099	-4.4654	0.	124.78
575	-1.8684	6.5538	0.	125.72
576	-1.9167	7.0436	0.	127.19
577	-3.1513	3.2894	0.	125.56
578	-1.7362	4.5877	0.	127.76
579	-1.7443	5.0834	0.	125.92
580	-4.5759	-3.3417	0.	122.93
581	-5.6289	-4.2451	0.	121.96
582	-6.0604	-4.2379	0.	120.98
583	2.8248	-2.3475	0.	127.29
584	4.9266	-3.2171	0.	122.97
585	3.6736	2.2763	0.	124.96
586	2.1235	0.8566	0.	126.64
587	2.1012	0.37694	0.	125.44
588	-4.9216	4.5681	0.	129.38
589	-5.4493	2.6553	0.	119.46
590	-6.4404	2.9039	0.	121.37
591	-5.9466	3.0195	0.	119.65
592	-7.3733	1.2495	0.	127.81
593	-6.8196	-2.6037	0.	125.01
594	-7.6995	-2.5892	0.	128.53
595	6.0956	-6.9977	0.	126.82
596	-2.5056	-1.9824	0.	125.99
597	-5.4259	2.1727	0.	119.1
598	-7.6959	-3.0941	0.	127.32
599	-7.686	-3.5987	0.	126.41
600	-7.6983	-4.1011	0.	126.05
601	-7.6979	-4.5707	0.	126.25
602	1.013	-4.9807	0.	116.26
603	-0.97164	-6.9774	0.	129.3
604	7.0052	6.0172	0.	116.4
605	-7.0475	-5.3025	0.	121.43
606	5.6666	-1.6616	0.	126.69
607	3.3962	-0.68559	0.	126.65
608	-7.5387	-5.0768	0.	126.36
609	-5.9256	-2.0978	0.	115.79
610	-1.9569	7.532	0.	127.81
611	-1.4564	7.5339	0.	126.6
612	-0.95978	7.5338	0.	125.76
613	-0.4654	7.5342	0.	125.21
614	2.8465e-002	7.5358	0.	124.84
615	0.52141	7.5314	0.	124.59
616	1.014	7.521	0.	124.39
617	1.5081	7.5127	0.	124.2
618	2.0036	7.5071	0.	124.03
619	2.5008	7.5044	0.	123.87
620	2.9995	7.5048	0.	123.8
621	3.4992	7.5062	0.	123.94
622	3.9996	7.5058	0.	124.5
623	6.9463	-2.9549	0.	126.49
624	7.466	-2.9339	0.	124.89
625	7.4703	-3.464	0.	125.26
626	7.4777	-3.9797	0.	125.5
627	7.4862	-4.4871	0.	125.72
628	7.4967	-4.9891	0.	125.91
629	7.5059	-5.4861	0.	126.07
630	7.5155	-5.9803	0.	126.17
631	7.5281	-6.4666	0.	126.19
632	7.5408	-6.9461	0.	126.13
633	7.539	-7.4128	0.	126.08
634	7.0431	1.8041	0.	125.81
635	7.5149	5.0355	0.	120.93
636	7.5236	4.5534	0.	121.72
637	7.5343	4.0752	0.	122.35
638	7.5445	3.6001	0.	122.87
639	7.5511	3.1275	0.	123.29
640	7.5485	2.6544	0.	123.63
641	7.5351	2.1722	0.	123.82
642	-5.8641	1.5402	0.	117.02
643	-5.178	7.3918	0.	124.46
644	7.5088	5.5231	0.	119.94
645	3.5431	-4.9407	0.	126.39
646	4.5178	-5.5347	0.	123.92
647	4.0179	-5.5094	0.	124.13
648	5.0274	-6.0308	0.	124.99
649	1.5103	-4.462	0.	120.54
650	3.05	-4.3964	0.	126.79
651	-0.96441	-4.4648	0.	130.17
652	0.51617	-4.4758	0.	120.97
653	-1.4384	-6.4525	0.	127.63
654	-1.4433	-4.9525	0.	131.65
655	-1.9984	-1.4897	0.	126.52
656	-1.4914	-0.99907	0.	126.46
657	-1.4584	2.0264	0.	129.31
658	-1.4801	0.49922	0.	125.97
659	-1.9459	2.5666	0.	129.36
660	-4.9468	2.2788	0.	120.79
661	-3.5111	2.3864	0.	121.8
662	4.5028	6.0295	0.	127.71
663	4.5	7.5045	0.	125.93
664	6.5122	5.5399	0.	119.53
665	5.0101	5.5439	0.	127.03
666	-1.9163	-5.4383	0.	131.44
667	-2.4141	-4.9488	0.	129.93
668	-1.9333	-6.9287	0.	125.86
669	-1.4865	-7.4728	0.	128.1
670	-2.3077	6.068	0.	124.84
671	-4.6314	7.5474	0.	122.88
672	-2.4624	7.5245	0.	129.17
673	-2.7117	3.6902	0.	128.99
674	-2.2622	5.5824	0.	124.54
675	-2.2294	4.1198	0.	130.01
676	-4.0371	-2.9117	0.	125.84
677	-5.497	-2.7251	0.	116.97
678	-3.5189	-2.4572	0.	126.7
679	-3.0098	-1.9783	0.	125.28
680	-4.2827	-4.7404	0.	124.07
681	-4.7433	-4.7376	0.	125.76
682	-5.2075	-4.7373	0.	125.57
683	3.3508	-2.7365	0.	127.
684	3.0639	-1.2835	0.	127.03
685	5.3569	-2.6106	0.	122.98
686	3.8945	-3.0874	0.	125.07
687	3.1569	1.8241	0.	127.81
688	4.6815	1.6839	0.	118.75
689	2.7972	-0.2962	0.	124.57
690	2.6416	1.3401	0.	128.44
691	5.634	1.5043	0.	123.29
692	6.107	1.4934	0.	127.36
693	5.1488	1.0898	0.	116.64
694	6.3858	-2.4723	0.	129.29
695	5.5527	-6.5171	0.	127.11
696	7.117	-7.4165	0.	126.05
697	6.1707	-7.4898	0.	126.12
698	-3.8669	-5.1677	0.	120.56
699	-4.9791	3.222	0.	120.5
700	-6.9646	3.2736	0.	124.57
701	-7.4113	1.7314	0.	126.8
702	-7.4339	2.2172	0.	126.18
703	-7.4765	3.1841	0.	126.58
704	-7.5053	3.6644	0.	127.25
705	-6.1861	0.8475	0.	118.2
706	-7.6973	-2.09	0.	129.74
707	-7.7956	0.54367	0.	129.2
708	-7.2596	-2.1169	0.	129.24
709	-6.8345	-2.1282	0.	127.2
710	-6.7935	0.99199	0.	125.65
711	-7.2643	0.79011	0.	129.18
712	-7.5415	4.145	0.	127.41
713	-6.4521	3.3822	0.	121.58
714	-5.4613	3.1299	0.	119.58
715	-4.9826	3.6908	0.	121.68
716	-4.9923	4.1382	0.	125.78
717	-4.3062	-5.1996	0.	124.81
718	-4.7598	-5.21	0.	128.48
719	5.5936	-7.0108	0.	127.76
720	7.4769	-2.3652	0.	123.94
721	2.6341	0.81129	0.	127.75
722	4.1744	1.7466	0.	121.85
723	3.6654	1.7913	0.	125.87
724	4.37	-2.9074	0.	122.94
725	4.865	-2.7423	0.	121.12
726	3.1763	-1.7636	0.	128.46
727	-5.6642	-4.744	0.	123.39
728	-6.1075	-4.7632	0.	120.35
729	-3.5127	-1.9701	0.	125.64
730	-3.5102	-1.4802	0.	122.64
731	-5.0286	-2.8118	0.	119.57
732	-2.2213	4.6079	0.	129.2
733	-3.5934	3.7304	0.	123.15
734	-3.1526	3.7247	0.	126.9
735	-4.142	7.8627	0.	122.15
736	-2.36	6.5535	0.	127.24
737	-1.9785	-7.4391	0.	127.93
738	-3.4217	-4.9708	0.	122.02
739	-1.914	-6.4282	0.	126.67
740	-1.9102	-5.9324	0.	129.83
741	5.5111	5.542	0.	125.69
742	6.012	5.5421	0.	122.71
743	4.5	7.0093	0.	126.94
744	4.5005	6.5179	0.	127.78
745	-3.9896	2.3753	0.	121.53
746	-4.4683	2.3431	0.	121.82
747	-2.4623	2.6466	0.	127.96
748	-1.4753	1.007	0.	127.17
749	-1.4721	1.5159	0.	128.63
750	-1.4897	-0.50249	0.	126.2
751	-1.4861	-3.2772e-003	0.	125.72
752	-3.007	-1.4846	0.	123.33
753	-1.4337	-5.9502	0.	129.73
754	-0.47192	-4.472	0.	128.15
755	2.5234	-4.4269	0.	126.03
756	2.0128	-4.447	0.	123.52
757	4.5212	-6.0279	0.	123.11
758	4.0159	-6.0131	0.	122.16
759	3.5202	-5.4747	0.	125.84
760	6.0525	-1.4528	0.	131.46
761	5.935	-0.90439	0.	136.11
762	7.5048	6.0137	0.	118.65
763	-0.99007	-7.4849	0.	129.25
764	6.5827	-0.47479	0.	127.03
765	4.6538	1.1869	0.	114.96
766	3.5135	-1.1687	0.	128.24
767	-4.0112	4.1992	0.	117.63
768	-2.794	6.0671	0.	126.11
769	5.0003	7.504	0.	128.44
770	0.51686	-4.9815	0.	118.77
771	-7.5829	4.6297	0.	125.38
772	7.5067	1.6916	0.	123.91
773	7.981	1.5795	0.	122.25
774	8.0154	2.0776	0.	123.57
775	8.0302	2.5751	0.	123.93
776	8.0355	3.0703	0.	123.97
777	8.0335	3.5619	0.	123.82
778	8.0265	4.0497	0.	123.57
779	8.0188	4.537	0.	123.31
780	8.0123	5.0259	0.	123.18
781	7.3596	-7.8786	0.	126.1
782	6.7959	-7.9524	0.	126.
783	6.2685	-7.98	0.	125.73
784	5.7514	-7.9927	0.	125.52
785	5.2365	-8.0004	0.	124.65
786	8.2052	-1.5424	0.	119.19
787	8.1239	-1.9828	0.	119.62
788	8.0212	-2.4586	0.	122.34
789	7.9852	-2.961	0.	124.16
790	7.9796	-3.4724	0.	125.05
791	7.9823	-3.9814	0.	125.56
792	7.9881	-4.4864	0.	125.87
793	7.9953	-4.9881	0.	126.06
794	8.0025	-5.4874	0.	126.17
795	8.0097	-5.9831	0.	126.21
796	8.018	-6.4742	0.	126.19
797	8.0192	-6.965	0.	126.13
798	7.9951	-7.4591	0.	126.09
799	7.9327	-7.9511	0.	126.16
800	-6.0745	8.0777	0.	126.86
801	-5.1316	7.9622	0.	124.56
802	-4.6456	7.9888	0.	123.23
803	-3.5608	7.9492	0.	124.98
804	-3.0189	7.9909	0.	127.57
805	-2.4964	8.0111	0.	128.13
806	-1.9843	8.0204	0.	127.53
807	-1.479	8.024	0.	126.73
808	-0.97864	8.0248	0.	126.03
809	-0.48019	8.0247	0.	125.52
810	1.7459e-002	8.0245	0.	125.15
811	1.0094	8.014	0.	124.65
812	1.5061	8.009	0.	124.43
813	2.0035	8.0054	0.	124.2
814	2.5018	8.0041	0.	123.95
815	3.0005	8.0034	0.	123.72
816	3.5	8.0038	0.	123.62
817	4.	8.0032	0.	123.89
818	4.5001	8.0026	0.	125.1
819	5.0001	8.0022	0.	128.32
820	8.0074	5.517	0.	123.4
821	-7.6805	-1.5906	0.	130.22
822	-6.9917	3.7457	0.	126.59
823	-5.4425	4.6691	0.	131.31
824	2.9344	-7.9797	0.	133.64
825	3.0028	-6.4898	0.	128.04
826	5.0459	-6.5254	0.	126.45
827	-6.9818	8.0013	0.	120.01
828	-7.1585	5.1756	0.	121.51
829	-7.6121	-5.5367	0.	128.83
830	-8.0615	-5.0575	0.	128.83
831	-7.9895	2.4168e-002	0.	127.58
832	-7.8758	1.1114	0.	128.92
833	-7.9195	1.6299	0.	128.25
834	-8.0088	3.6022	0.	127.97
835	-8.0359	4.0914	0.	127.75
836	6.3189	-1.9152	0.	132.62
837	3.2737	-0.19644	0.	125.24
838	3.1484	1.321	0.	129.77
839	5.3038	-2.0512	0.	121.64
840	3.8159	-2.599	0.	126.32
841	5.6474	0.96375	0.	124.41
842	-1.5243	-7.9865	0.	130.06
843	-5.2197	-5.2158	0.	129.64
844	-4.0216	-2.435	0.	127.61
845	-5.7519	1.0559	0.	113.51
846	-4.4894	7.1052	0.	121.46
847	-2.4079	-6.8816	0.	123.99
848	-2.5463	-8.1833	0.	131.43
849	-3.8264	-5.5973	0.	115.81
850	-2.398	-5.4336	0.	132.06
851	-1.9988	2.0572	0.	129.95
852	-1.9877	0.50871	0.	126.07
853	-0.96082	-6.471	0.	129.18
854	1.5135	-4.9715	0.	118.51
855	3.0095	-5.9799	0.	128.15
856	3.0201	-5.4608	0.	128.73
857	2.5255	-4.945	0.	127.82
858	2.0171	-4.9594	0.	123.73
859	2.3151e-002	-4.9799	0.	124.59
860	-0.95328	-5.4636	0.	132.37
861	-0.9553	-5.9664	0.	131.
862	-3.0041	-0.98877	0.	121.38
863	-1.9933	-0.49649	0.	127.32
864	-1.9903	5.1854e-003	0.	126.65
865	-1.9872	1.0194	0.	128.43
866	-1.9953	1.5415	0.	130.1
867	-2.5699	2.1113	0.	127.88
868	-3.045	1.9329	0.	123.18
869	-3.9739	1.9152	0.	121.78
870	-4.4442	1.8834	0.	124.33
871	5.0006	7.0086	0.	129.52
872	5.0018	6.5165	0.	130.01
873	5.5057	6.0284	0.	128.3
874	6.0058	6.0254	0.	123.63
875	-2.3859	-6.4	0.	127.67
876	-2.3855	-5.9172	0.	131.69
877	-3.3626	-5.4815	0.	118.89
878	-3.5187	-8.1296	0.	118.11
879	-3.0257	-8.1686	0.	126.03
880	-2.5302	-7.779	0.	131.7
881	-2.4537	-7.352	0.	129.01
882	-2.8505	6.5452	0.	129.66
883	-2.9134	7.0237	0.	131.97
884	-3.4979	7.4744	0.	125.95
885	-3.5916	4.164	0.	123.59
886	-3.1603	4.176	0.	129.25
887	-2.7046	4.6275	0.	132.08
888	-2.7147	5.1053	0.	129.04
889	-4.8708	1.3698	0.	123.
890	-5.3123	1.2299	0.	115.21
891	-5.0028	-2.3347	0.	119.23
892	-4.5173	-2.3996	0.	125.98
893	-4.0111	-1.473	0.	125.47
894	-6.1441	-5.278	0.	118.87
895	-5.0113	-8.0662	0.	133.29
896	-4.9928	-7.5898	0.	132.55
897	6.7115	-1.39e-002	0.	128.85
898	6.0352	0.67331	0.	132.56
899	3.6235	-1.645	0.	129.56
900	3.7253	-2.1196	0.	128.86
901	4.2905	-2.4387	0.	122.12
902	4.783	-2.261	0.	117.99
903	3.6545	1.3015	0.	128.51
904	3.1688	0.30069	0.	127.7
905	7.9101	1.0958	0.	120.12
906	7.4539	1.2269	0.	123.34
907	6.4729	-0.93883	0.	131.36
908	6.4581	-1.4106	0.	135.52
909	7.3143	-1.88	0.	125.49
910	-8.096	5.0658	0.	126.39
911	-7.624	5.1213	0.	120.43
912	-5.717	7.5059	0.	125.89
913	5.1311	-7.5133	0.	128.7
914	5.0762	-7.0214	0.	129.26
915	2.991	-6.9907	0.	131.42
916	4.0187	-6.5194	0.	119.52
917	3.5093	-6.5014	0.	122.07
918	-4.514	-7.6395	0.	130.84
919	-4.289	-5.6719	0.	125.64
920	-4.7486	-5.6893	0.	132.51
921	-5.2307	-6.5919	0.	125.64
922	-5.464	3.6071	0.	120.14
923	-5.4557	4.1061	0.	121.93
924	-7.0944	4.6861	0.	126.54
925	-7.0158	0.37975	0.	129.96
926	-7.3897	0.21601	0.	130.63
927	-6.8093	-1.6857	0.	128.96
928	-7.586	-0.15232	0.	127.49
929	-7.6201	-0.60854	0.	126.26
930	-7.6508	-1.0951	0.	127.65
931	-7.5767	-5.9831	0.	131.14
932	-8.0214	-6.0198	0.	131.7
933	-7.9549	-8.001	0.	132.04
934	8.3864	0.95518	0.	123.04
935	8.462	1.4711	0.	124.08
936	8.4939	1.9948	0.	124.48
937	8.5142	2.5173	0.	124.9
938	8.522	3.0285	0.	125.07
939	8.5228	3.5316	0.	125.11
940	8.5189	4.0289	0.	125.1
941	8.5139	4.5231	0.	125.19
942	8.5093	5.017	0.	125.59
943	-7.9856	8.4715	0.	125.41
944	-7.4898	8.5118	0.	121.58
945	-6.9984	8.5269	0.	121.66
946	-6.5208	8.5725	0.	123.81
947	-6.043	8.5519	0.	125.13
948	-5.5582	8.5128	0.	125.13
949	-5.0765	8.485	0.	124.37
950	-4.5803	8.4706	0.	123.63
951	-4.0741	8.4355	0.	123.73
952	-3.5541	8.4568	0.	124.93
953	-3.0297	8.4847	0.	126.32
954	-2.5115	8.5022	0.	126.97
955	-1.9993	8.5111	0.	126.92
956	-1.4927	8.5156	0.	126.54
957	-0.98981	8.5171	0.	126.11
958	-0.4898	8.5166	0.	125.75
959	9.9038e-003	8.5166	0.	125.47
960	0.50768	8.5125	0.	125.25
961	1.0057	8.5089	0.	125.05
962	1.504	8.5059	0.	124.86
963	2.0025	8.5038	0.	124.64
964	2.5014	8.5026	0.	124.38
965	3.5003	8.5023	0.	123.87
966	4.0002	8.5018	0.	123.89
967	4.5001	8.5014	0.	124.74
968	5.0001	8.5012	0.	127.06
969	-8.4581	-7.9988	0.	129.85
970	-8.4944	-6.0345	0.	129.24
971	-8.5247	-5.541	0.	129.82
972	-8.5388	-5.0473	0.	129.37
973	-8.5575	-4.5502	0.	128.84
974	-8.5705	-4.0499	0.	128.57
975	-8.5784	-3.5494	0.	128.6
976	-8.6003	-2.5453	0.	129.
977	-8.6005	-2.0397	0.	128.85
978	-8.5899	-1.5313	0.	128.17
979	-8.5304	-0.50036	0.	126.73
980	-8.4675	2.2055e-002	0.	127.35
981	-8.3795	0.5383	0.	128.38
982	-8.4065	1.0529	0.	128.87
983	-8.4356	1.5655	0.	128.83
984	-8.4743	2.5667	0.	128.56
985	-8.4909	3.0632	0.	128.55
986	-8.5085	3.5579	0.	128.55
987	-8.5279	4.0512	0.	128.49
988	-8.5487	4.5431	0.	128.56
989	-8.5707	5.0333	0.	129.94
990	-8.6117	6.0031	0.	130.18
991	-8.6173	6.4844	0.	126.8
992	-8.6037	6.9701	0.	128.73
993	-8.5624	7.4651	0.	134.18
994	-8.5032	7.966	0.	134.08
995	-8.4915	8.475	0.	128.72
996	-1.0091	-7.9907	0.	130.8
997	-1.5182	-8.4985	0.	131.51
998	-3.0201	-8.6104	0.	126.12
999	-4.0159	-8.5708	0.	123.31
1000	-4.5146	-8.5608	0.	127.37
1001	-6.5143	-8.4703	0.	115.18
1002	-8.4791	-8.4995	0.	129.61
1003	6.8719	-8.4567	0.	126.54
1004	5.841	-8.4878	0.	126.2
1005	8.6179	-1.531	0.	128.21
1006	8.5807	-2.0093	0.	125.53
1007	8.4877	-3.9883	0.	126.02
1008	8.4908	-4.49	0.	126.24
1009	8.5095	-6.4834	0.	126.24
1010	8.0041	6.0102	0.	124.22
1011	8.5032	6.0068	0.	129.06
1012	-6.4618	3.8488	0.	121.56
1013	-7.9311	-6.509	0.	128.59
1014	-7.8125	-6.9942	0.	125.32
1015	-7.1924	-1.1373	0.	133.36
1016	-7.2002	-0.19736	0.	130.44
1017	-7.1611	-0.65236	0.	124.7
1018	-5.9069	3.9863	0.	117.89
1019	-4.7398	-6.1748	0.	134.59
1020	-4.9179	-7.1197	0.	124.96
1021	3.4984	-7.0042	0.	122.02
1022	4.5464	-7.0303	0.	125.63
1023	4.017	-7.0309	0.	112.82
1024	8.9382	0.81904	0.	129.66
1025	8.9818	1.9397	0.	126.37
1026	9.0026	2.4824	0.	126.41
1027	9.0133	3.512	0.	126.62
1028	9.0119	4.0143	0.	126.75
1029	9.0091	4.5127	0.	126.99
1030	9.0062	5.0097	0.	127.5
1031	9.0038	5.5067	0.	128.47
1032	9.0022	6.0043	0.	130.02
1033	9.	8.5001	0.	127.9
1034	-8.1282	5.5457	0.	134.52
1035	-7.9718	7.9234	0.	130.72
1036	6.8927	-1.4362	0.	139.88
1037	7.3659	0.76948	0.	127.29
1038	3.6484	0.81307	0.	135.91
1039	4.187	-1.9796	0.	126.61
1040	6.3121	9.7958e-002	0.	135.33
1041	-5.6773	-5.7033	0.	134.15
1042	-4.505	-1.9307	0.	133.51
1043	-4.8075	0.93397	0.	128.88
1044	-3.1982	4.6352	0.	138.39
1045	-3.4108	6.9894	0.	135.66
1046	-2.9968	-7.7377	0.	136.28
1047	-2.8577	-5.9098	0.	138.76
1048	8.5016	6.5038	0.	133.74
1049	9.	9.0001	0.	127.15
1050	9.0346	-0.98152	0.	134.86
1051	9.0596	-1.5017	0.	133.19
1052	9.0476	-2.0048	0.	128.94
1053	9.003	-2.9975	0.	126.83
1054	8.9946	-3.495	0.	126.81
1055	8.9927	-3.9942	0.	126.84
1056	8.9939	-4.4943	0.	126.82
1057	8.9964	-4.9945	0.	126.74
1058	9.	-5.4935	0.	126.61
1059	9.0022	-5.9934	0.	126.46
1060	9.0041	-6.4919	0.	126.3
1061	9.0007	-6.9928	0.	126.15
1062	8.9917	-7.4931	0.	126.05
1063	8.9807	-7.992	0.	126.
1064	8.976	-8.4906	0.	126.01
1065	8.9791	-8.991	0.	126.05
1066	8.4658	-8.9826	0.	126.36
1067	7.9507	-8.9709	0.	126.68
1068	7.4348	-8.9627	0.	127.05
1069	6.922	-8.9699	0.	127.51
1070	5.9099	-8.9892	0.	129.27
1071	5.4147	-8.994	0.	131.27
1072	3.4599	-8.9721	0.	126.17
1073	2.9688	-8.9868	0.	140.35
1074	2.4787	-8.9967	0.	130.83
1075	1.987	-9.0002	0.	123.33
1076	1.4926	-9.0006	0.	116.39
1077	0.99596	-9.0003	0.	113.7
1078	0.49756	-9.	0.	116.29
1079	-2.4754e-003	-8.9993	0.	122.87
1080	-0.50372	-8.9986	0.	129.19
1081	-1.0055	-8.9991	0.	131.54
1082	-1.5068	-9.0051	0.	131.71
1083	-2.008	-9.0224	0.	131.04
1084	-2.5084	-9.0527	0.	129.36
1085	-3.0112	-9.0657	0.	126.74
1086	-3.5129	-9.0611	0.	124.7
1087	-4.0129	-9.0491	0.	124.73
1088	-4.5128	-9.04	0.	126.45
1089	-5.0131	-9.0291	0.	127.22
1090	-5.5129	-9.0145	0.	125.29
1091	-6.011	-8.9989	0.	121.27
1092	-6.5061	-8.9915	0.	119.32
1093	-7.0002	-9.0007	0.	121.19
1094	-7.4953	-9.0051	0.	124.85
1095	-8.4904	-9.0001	0.	128.69
1096	-8.9835	-8.4983	0.	129.09
1097	-8.9703	-7.9994	0.	128.67
1098	-8.9547	-7.5029	0.	127.58
1099	-8.9482	-7.0104	0.	126.57
1100	-8.9645	-6.5195	0.	127.16
1101	-8.9908	-6.0254	0.	128.3
1102	-9.0118	-5.529	0.	129.08
1103	-9.0221	-5.0315	0.	129.33
1104	-9.0316	-4.5325	0.	129.29
1105	-9.0396	-4.0324	0.	129.23
1106	-9.0469	-3.5319	0.	129.21
1107	-9.0552	-3.0308	0.	129.19
1108	-9.0627	-2.5281	0.	129.04
1109	-9.0621	-2.023	0.	128.65
1110	-9.0547	-1.515	0.	128.02
1111	-9.039	-1.0047	0.	127.39
1112	-9.0122	-0.49362	0.	127.16
1113	-8.9399	0.52286	0.	128.22
1114	-8.9423	1.0266	0.	128.78
1115	-8.9712	2.0314	0.	129.23
1116	-8.9831	2.5323	0.	129.26
1117	-8.9945	3.0314	0.	129.23
1118	-9.0063	3.5291	0.	129.12
1119	-9.0323	4.5202	0.	128.9
1120	-9.0464	5.0148	0.	129.04
1121	-9.0604	5.5083	0.	128.74
1122	-9.0711	6.0009	0.	127.03
1123	-9.0729	6.4939	0.	125.4
1124	-9.0619	6.9894	0.	126.42
1125	-9.0379	7.487	0.	129.13
1126	-9.0102	7.986	0.	129.74
1127	-8.998	8.4873	0.	128.28
1128	-8.9962	8.9908	0.	126.32
1129	-8.4936	8.9856	0.	125.94
1130	-7.9936	8.9879	0.	124.35
1131	-7.4977	9.0052	0.	122.64
1132	-7.0039	9.0203	0.	122.37
1133	-6.5144	9.0399	0.	123.21
1134	-6.0242	9.0323	0.	123.95
1135	-5.5324	9.012	0.	124.15
1136	-5.0396	8.9926	0.	123.98
1137	-4.5423	8.9793	0.	123.85
1138	-4.0405	8.9669	0.	124.11
1139	-3.5341	8.9726	0.	124.82
1140	-3.0236	8.9864	0.	125.63
1141	-2.5131	8.9983	0.	126.17
1142	-2.005	9.0053	0.	126.36
1143	-1.4994	9.0088	0.	126.3
1144	-0.99644	9.0103	0.	126.14
1145	-0.49538	9.0102	0.	125.97
1146	4.9736e-003	9.0102	0.	125.81
1147	0.50413	9.0076	0.	125.67
1148	1.0032	9.0054	0.	125.54
1149	1.5023	9.0036	0.	125.42
1150	2.0015	9.0023	0.	125.28
1151	2.5009	9.0016	0.	125.13
1152	3.0005	9.0012	0.	124.95
1153	3.5003	9.0014	0.	124.78
1154	4.0002	9.001	0.	124.73
1155	4.5001	9.0008	0.	125.08
1156	5.0001	9.0006	0.	126.99
1157	5.5023	6.517	0.	132.77
1158	-4.4221	1.4313	0.	130.66
1159	-2.5086	1.5427	0.	131.57
1160	-2.4975	-0.49359	0.	129.29
1161	-0.46913	-5.4762	0.	133.64
1162	2.5162	-5.4647	0.	131.69
1163	-0.50613	-8.4969	0.	132.87
1164	2.4699	-8.494	0.	131.59
1165	2.947	-8.4806	0.	128.42
1166	4.9303	-8.9969	0.	139.12
1167	4.5699	-7.5286	0.	132.88
1168	4.8698	-8.4957	0.	122.84
1169	4.7263	-8.0072	0.	137.55
1170	4.4493	-8.9915	0.	123.35
1171	1.9854	-8.4992	0.	122.52
1172	1.4932	-8.4998	0.	112.24
1173	0.99652	-8.4999	0.	112.14
1174	-2.9036e-003	-8.4991	0.	124.58
1175	0.49744	-8.4998	0.	112.73
1176	2.012	-5.4767	0.	125.62
1177	1.5095	-5.4849	0.	114.76
1178	1.009	-5.489	0.	114.51
1179	0.51132	-5.4904	0.	114.89
1180	1.8425e-002	-5.4871	0.	125.68
1181	-2.4946	6.016e-003	0.	128.45
1182	-2.4937	0.50946	0.	129.49
1183	-2.4953	1.0186	0.	130.97
1184	-3.0017	-0.49383	0.	122.21
1185	-4.0157	-0.49559	0.	122.29
1186	-3.5066	-0.4942	0.	111.05
1187	-3.0049	1.4836	0.	123.97
1188	-3.4936	1.4629	0.	113.73
1189	-3.9656	1.4548	0.	123.7
1190	-4.4109	0.98209	0.	133.36
1191	2.5066	-5.9806	0.	131.6
1192	2.4707	-7.9916	0.	129.4
1193	2.4819	-7.4907	0.	135.57
1194	2.4937	-6.991	0.	137.13
1195	2.5013	-6.4889	0.	134.28
1196	-0.50362	-7.9953	0.	131.59
1197	-0.49508	-7.4932	0.	133.57
1198	-0.47618	-5.9812	0.	132.32
1199	-0.48098	-6.4859	0.	133.99
1200	-0.48689	-6.9898	0.	135.13
1201	3.3618	-7.9541	0.	130.37
1202	5.5008	7.0088	0.	132.28
1203	5.5004	7.5043	0.	134.37
1204	5.5002	8.0022	0.	136.06
1205	5.5001	9.0004	0.	130.33
1206	5.5001	8.5012	0.	134.45
1207	8.5	9.	0.	130.99
1208	8.5	8.5001	0.	135.48
1209	8.5	8.0003	0.	137.56
1210	8.5006	7.0019	0.	133.85
1211	8.5001	7.5008	0.	135.75
1212	6.0024	6.5127	0.	125.89
1213	6.5025	6.5101	0.	115.7
1214	7.0024	6.5082	0.	116.12
1215	7.5023	6.5066	0.	116.08
1216	8.0021	6.5051	0.	126.48
1217	-2.8495	-6.3749	0.	129.17
1218	-2.9255	-7.3067	0.	132.81
1219	-2.8776	-6.8464	0.	129.34
1220	-3.4927	-7.6837	0.	103.3
1221	-4.4314	-7.2184	0.	132.
1222	-4.0178	-7.5397	0.	126.76
1223	-4.2667	-6.1761	0.	130.6
1224	-3.3328	-5.9391	0.	111.78
1225	-3.8007	-6.0647	0.	111.21
1226	-3.339	6.53	0.	134.4
1227	-3.2784	6.0641	0.	130.12
1228	-3.1887	5.1083	0.	132.41
1229	-3.2225	5.5888	0.	132.37
1230	-3.7406	4.6166	0.	114.46
1231	-4.7083	4.993	0.	126.26
1232	-4.2514	4.798	0.	115.9
1233	-4.3524	6.6535	0.	122.54
1234	-4.7692	6.3269	0.	135.19
1235	-5.9739	4.4248	0.	109.48
1236	-5.1324	5.1694	0.	147.43
1237	-6.8151	-8.8921e-002	0.	132.27
1238	-6.4224	0.11782	0.	123.84
1239	-6.0267	0.35701	0.	114.1
1240	-5.2079	0.78278	0.	107.37
1241	-5.6222	0.58155	0.	113.17
1242	-4.5387	-1.4398e-002	0.	131.45
1243	-4.5086	-1.4622	0.	129.68
1244	-4.5201	-0.99157	0.	130.39
1245	-4.5304	-0.51039	0.	135.74
1246	-6.738	-1.2042	0.	131.99
1247	-6.3131	-1.3921	0.	120.58
1248	-5.8833	-1.5717	0.	114.09
1249	-5.4446	-1.7389	0.	110.85
1250	-4.9869	-1.8755	0.	118.06
1251	-7.1732	-5.7636	0.	125.1
1252	-6.1534	-5.7654	0.	109.78
1253	-6.6576	-5.905	0.	113.86
1254	-5.6599	-6.1527	0.	133.44
1255	-5.6438	-6.5867	0.	128.72
1256	-5.4931	-7.5425	0.	131.05
1257	-5.4649	-7.0243	0.	127.68
1258	-6.9554	-7.6062	0.	119.4
1259	-6.5466	-7.9015	0.	109.74
1260	-6.0205	-7.9944	0.	116.11
1261	6.1679	-0.38351	0.	125.54
1262	4.6519	-1.8116	0.	109.34
1263	5.0794	-1.5593	0.	120.23
1264	5.4737	-1.2328	0.	120.52
1265	5.9233	0.26104	0.	137.5
1266	5.5179	0.44503	0.	119.39
1267	5.0719	0.5782	0.	114.26
1268	4.0787	-1.5264	0.	133.
1269	3.6726	0.33089	0.	128.4
1270	3.7581	-0.14117	0.	133.19
1271	3.8647	-0.60707	0.	132.06
1272	3.9729	-1.0694	0.	126.93
1273	-6.5947	4.7262	0.	132.82
1274	-6.6942	5.1735	0.	126.55
1275	-6.7752	5.6112	0.	141.98
1276	-5.2002	6.3765	0.	123.65
1277	-5.5952	6.445	0.	118.52
1278	-6.123	6.5582	0.	106.71
1279	-7.665	5.6054	0.	111.18
1280	-7.2002	5.7264	0.	112.24
1281	-6.8874	6.0331	0.	126.93
1282	-7.5739	7.6532	0.	109.82
1283	-6.3861	7.1443	0.	131.98
1284	-6.7999	7.3091	0.	131.93
1285	-7.1806	7.5088	0.	119.47
1286	-8.1574	6.0124	0.	135.5
1287	-8.1152	7.4055	0.	142.79
1288	-8.1617	6.9264	0.	133.66
1289	-8.1687	6.4685	0.	133.63
1290	6.9429	-0.96684	0.	129.98
1291	7.0287	-0.52757	0.	133.3
1292	7.248	0.32855	0.	136.75
1293	7.1402	-0.10075	0.	129.97
1294	7.7889	0.62713	0.	108.66
1295	8.9431	-0.41878	0.	123.81
1296	8.682	0.32447	0.	131.5
1297	8.2079	0.4424	0.	125.24
1298	9.5	9.	0.	123.97
1299	9.5	8.5	0.	124.02
1300	9.5	8.0001	0.	124.67
1301	9.5001	7.5002	0.	125.94
1302	9.5003	7.0005	0.	127.51
1303	9.5006	6.5011	0.	128.92
1304	9.5012	6.002	0.	129.49
1305	9.502	5.5032	0.	129.4
1306	9.5032	5.0046	0.	129.04
1307	9.5045	4.5058	0.	128.67
1308	9.5057	4.0059	0.	128.36
1309	9.5056	3.5021	0.	128.15
1310	9.5031	2.9937	0.	128.07
1311	9.497	2.4797	0.	128.11
1312	9.485	1.9604	0.	128.24
1313	9.4719	1.4465	0.	128.64
1314	9.5032	0.97911	0.	128.94
1315	9.4199	0.49431	0.	129.71
1316	9.0889	0.10102	0.	132.1
1317	9.4927	-0.48108	0.	126.13
1318	9.5093	-0.98429	0.	128.16
1319	9.5242	-1.495	0.	130.23
1320	9.5215	-2.0006	0.	129.96
1321	9.5115	-2.5015	0.	129.18
1322	9.5029	-3.0003	0.	128.63
1323	9.4982	-3.4988	0.	128.2
1324	9.4968	-3.9979	0.	127.84
1325	9.4971	-4.4975	0.	127.5
1326	9.4982	-4.9973	0.	127.18
1327	9.4997	-5.4971	0.	126.87
1328	9.5012	-5.9966	0.	126.58
1329	9.5016	-6.4965	0.	126.31
1330	9.4996	-6.9974	0.	126.08
1331	9.4958	-7.4977	0.	125.91
1332	9.4913	-7.9972	0.	125.79
1333	9.4892	-8.4964	0.	125.74
1334	9.4899	-8.9959	0.	125.72
1335	9.4942	-9.4973	0.	125.72
1336	8.9883	-9.4945	0.	126.1
1337	8.4813	-9.4901	0.	126.49
1338	7.9748	-9.4851	0.	126.95
1339	7.4677	-9.4819	0.	127.53
1340	6.9634	-9.4848	0.	128.33
1341	6.4604	-9.49	0.	129.47
1342	5.9595	-9.494	0.	130.86
1343	5.4616	-9.4969	0.	132.52
1344	4.9665	-9.4981	0.	130.68
1345	4.472	-9.4955	0.	121.55
1346	3.9766	-9.4902	0.	114.31
1347	3.481	-9.4888	0.	120.9
1348	2.9855	-9.4938	0.	130.34
1349	2.4895	-9.4983	0.	129.93
1350	1.993	-9.5002	0.	124.23
1351	1.4956	-9.5005	0.	118.74
1352	0.99741	-9.5003	0.	116.27
1353	0.49835	-9.5	0.	117.92
1354	-1.2964e-003	-9.4997	0.	122.52
1355	-0.50129	-9.4995	0.	127.36
1356	-1.0017	-9.5004	0.	130.4
1357	-1.502	-9.504	0.	131.35
1358	-2.002	-9.5125	0.	130.84
1359	-2.5029	-9.5244	0.	129.31
1360	-3.0048	-9.5306	0.	127.34
1361	-3.5065	-9.5295	0.	125.82
1362	-4.0071	-9.5245	0.	125.48
1363	-4.5074	-9.5198	0.	125.82
1364	-5.0075	-9.5142	0.	125.64
1365	-5.507	-9.5073	0.	124.07
1366	-6.0054	-9.5007	0.	121.87
1367	-6.5027	-9.498	0.	120.78
1368	-7.0001	-9.5001	0.	121.88
1369	-7.4981	-9.502	0.	124.26
1370	-7.9969	-9.5015	0.	126.53
1371	-8.4963	-9.5002	0.	128.02
1372	-9.4981	-9.4992	0.	129.53
1373	-9.4954	-8.9987	0.	129.25
1374	-9.4912	-8.499	0.	128.72
1375	-9.4851	-7.9997	0.	127.92
1376	-9.4789	-7.5018	0.	127.05
1377	-9.4771	-7.0057	0.	126.6
1378	-9.4835	-6.5102	0.	126.83
1379	-9.4948	-6.0135	0.	127.65
1380	-9.5048	-5.5153	0.	128.58
1381	-9.5101	-5.016	0.	129.3
1382	-9.5145	-4.5163	0.	129.75
1383	-9.5184	-4.0163	0.	129.94
1384	-9.5224	-3.5161	0.	129.91
1385	-9.5266	-3.0153	0.	129.67
1386	-9.5299	-2.5134	0.	129.22
1387	-9.5294	-2.01	0.	128.58
1388	-9.5254	-1.5054	0.	127.88
1389	-9.5174	-1.0001	0.	127.34
1390	-9.5041	-0.49473	0.	127.21
1391	-9.4876	9.4516e-003	0.	127.54
1392	-9.4739	0.51099	0.	128.17
1393	-9.4731	1.0108	0.	128.87
1394	-9.479	1.5112	0.	129.48
1395	-9.4855	2.012	0.	129.92
1396	-9.4915	2.5125	0.	130.14
1397	-9.4974	3.0122	0.	130.13
1398	-9.5034	3.5112	0.	129.86
1399	-9.5096	4.0095	0.	129.34
1400	-9.5162	4.5075	0.	128.58
1401	-9.5231	5.0052	0.	127.57
1402	-9.5304	5.5032	0.	126.12
1403	-9.5345	6.0004	0.	124.37
1404	-9.5349	6.4984	0.	123.31
1405	-9.5292	6.9973	0.	123.92
1406	-9.5185	7.4965	0.	125.53
1407	-9.5068	7.9957	0.	126.63
1408	-9.4984	8.9962	0.	125.95
1409	-9.4988	9.4978	0.	125.19
1410	-8.9977	9.4953	0.	124.93
1411	-8.4972	9.4937	0.	124.4
1412	-7.9978	9.4955	0.	123.53
1413	-7.4997	9.5021	0.	122.72
1414	-7.0033	9.5105	0.	122.4
1415	-6.5075	9.5184	0.	122.56
1416	-6.0107	9.5155	0.	122.89
1417	-5.5137	9.5063	0.	123.15
1418	-5.0164	9.4972	0.	123.36
1419	-4.5179	9.4901	0.	123.61
1420	-4.0179	9.4855	0.	124.03
1421	-3.5165	9.4868	0.	124.61
1422	-3.0128	9.4923	0.	125.23
1423	-2.5082	9.4981	0.	125.74
1424	-2.0041	9.5018	0.	126.08
1425	-1.5011	9.5038	0.	126.25
1426	-0.99922	9.5049	0.	126.3
1427	-0.49834	9.5049	0.	126.27
1428	2.0324e-003	9.5047	0.	126.2
1429	0.50185	9.5036	0.	126.13
1430	1.0015	9.5026	0.	126.06
1431	1.5011	9.5018	0.	126.01
1432	2.0008	9.5012	0.	125.99
1433	2.5005	9.5008	0.	126.01
1434	3.0003	9.5006	0.	126.08
1435	3.5002	9.5006	0.	126.2
1436	4.0001	9.5005	0.	126.38
1437	4.5001	9.5004	0.	126.65
1438	5.	9.5003	0.	127.35
1439	5.5	9.5002	0.	130.12
1440	6.	9.5	0.	127.55
1441	6.5	9.5	0.	119.55
1442	7.	9.5	0.	120.51
1443	7.5	9.5	0.	119.33
1444	8.	9.5	0.	126.87
1445	8.5	9.5	0.	129.44
1446	9.	9.5	0.	126.35
1447	9.5	9.5	0.	124.76
1448	8.6016	-1.0579	0.	139.46
1449	7.3467	-1.4067	0.	126.4
1450	7.8123	-1.3643	0.	108.49
1451	8.2023	-1.1348	0.	115.98
1452	-2.4138	7.0378	0.	129.15
1453	-6.3873	1.3524	0.	120.98
1454	2.3868	-2.4201	0.	126.28
1455	-0.81306	3.5385	0.	128.34
1456	7.0572	3.6377	0.	122.32
1457	6.9141	-2.4345	0.	128.27
1458	-4.9138	1.8123	0.	122.03
1459	-8.1066	-1.0482	0.	127.15
1460	-2.5106	-3.4744	0.	127.78
1461	2.9885	5.5282	0.	125.44
1462	8.4894	-7.4809	0.	126.1
1463	4.0366	-5.0128	0.	125.06
1464	-0.77116	4.0511	0.	127.57
1465	-9.019	4.026	0.	128.95
1466	6.4114	-8.9806	0.	128.15
1467	0.61829	-1.3071	0.	124.55
1468	4.1562	1.2591	0.	121.62
1469	4.1385	0.78233	0.	122.21
1470	-7.4788	8.0577	0.	118.2
1471	2.6484	1.8468	0.	128.02
1472	7.9301	-8.4567	0.	126.37
1473	0.74804	4.0033	0.	126.59
1474	-3.5734	3.2815	0.	123.19
1475	-5.2097	-5.6874	0.	133.36
1476	-5.4601	6.918	0.	122.75
1477	-1.011	-8.4954	0.	132.02
1478	-8.0658	-0.53027	0.	126.
1479	-8.5678	-1.0191	0.	127.16
1480	0.3585	-1.9745	0.	124.86
1481	2.0592	-1.0996	0.	124.64
1482	2.0845e-002	-4.4754	0.	124.63
1483	2.9874	6.0143	0.	125.14
1484	-5.204	-6.1489	0.	130.22
1485	3.2717	-2.2446	0.	128.18
1486	-6.4079	-3.1227	0.	121.41
1487	8.5057	-5.9874	0.	126.32
1488	-2.5074	-2.4769	0.	126.78
1489	5.1527	1.5901	0.	119.29
1490	-3.5087	-0.98725	0.	118.24
1491	3.4575	-7.492	0.	128.82
1492	4.6101	0.69185	0.	110.92
1493	8.4637	-7.9781	0.	126.12
1494	-2.2333	5.0952	0.	126.62
1495	-8.0657	4.5809	0.	126.88
1496	6.6057	2.3296	0.	124.63
1497	6.1508	2.3639	0.	124.
1498	0.11625	2.476	0.	127.74
1499	8.4569	-8.4777	0.	126.22
1500	5.5327	-6.0248	0.	126.1
1501	-7.49	-8.5104	0.	126.72
1502	-5.9494	-2.6302	0.	117.88
1503	-3.0396	2.3731	0.	124.09
1504	-7.9917	-9.0028	0.	127.55
1505	2.9722	4.6683	0.	125.68
1506	-2.7466	5.5863	0.	124.76
1507	-8.1298	-3.5705	0.	127.74
1508	7.3991	-8.434	0.	126.47
1509	5.7729e-002	0.42288	0.	125.33
1510	-3.0592	-4.0159	0.	126.38
1511	-7.0145	-8.0429	0.	121.51
1512	0.60966	1.9379	0.	127.14
1513	-7.4542	2.7034	0.	126.11
1514	-4.0113	-1.9534	0.	128.11
1515	-3.9008	6.8895	0.	110.75
1516	1.9192	4.9639	0.	125.47
1517	-4.51	3.7575	0.	121.23
1518	5.6603	-7.5021	0.	126.95
1519	6.3503	-8.4759	0.	126.61
1520	-4.9532	6.8554	0.	128.92
1521	-7.3987	-7.5075	0.	135.29
1522	-4.5108	-8.0854	0.	129.69
1523	9.0005	7.0013	0.	130.78
1524	8.5062	-6.9813	0.	126.16
1525	-8.1458	-2.064	0.	129.29
1526	-8.9967	-9.4994	0.	128.84
1527	7.7162	-1.8821	0.	119.47
1528	-7.4473	-6.4369	0.	133.09
1529	2.6137	0.23813	0.	125.47
1530	1.0472	-0.73131	0.	124.3
1531	5.9707e-002	6.5699	0.	124.43
1532	1.0089	6.5387	0.	124.32
1533	0.88093	5.5513	0.	124.87
1534	-2.5029	-1.4871	0.	125.36
1535	-2.0227	-8.5216	0.	131.2
1536	-8.5984	-3.0483	0.	128.82
1537	-6.8921	1.386	0.	125.12
1538	-7.9443	2.1323	0.	127.78
1539	4.1837	2.2251	0.	122.54
1540	-5.0149	-8.5454	0.	130.59
1541	-6.0185	-8.4929	0.	120.36
1542	-6.5986	0.58718	0.	125.89
1543	6.988	-4.4948	0.	125.67
1544	6.9756	-3.9889	0.	125.62
1545	-5.9497	3.5005	0.	119.05
1546	-3.5186	-8.5936	0.	122.16
1547	-6.4019	1.9088	0.	120.9
1548	-4.0131	-0.98558	0.	121.73
1549	2.7366	-1.8769	0.	127.08
1550	3.1879	3.2607	0.	125.7
1551	-6.0189	-3.7059	0.	120.56
1552	-2.4393	-4.4613	0.	128.85
1553	-1.4876	-3.4693	0.	128.54
1554	-1.4358	-5.4508	0.	131.55
1555	4.5399	4.5986	0.	125.09
1556	-1.5	-2.4825	0.	127.15
1557	8.5286	-2.493	0.	124.62
1558	-8.5936	5.5203	0.	131.88
1559	-2.5091	-2.9742	0.	127.38
1560	3.039	-4.9301	0.	127.89
1561	-2.8979	-4.4994	0.	126.64
1562	-7.2592	-2.611	0.	127.34
1563	-4.6293	-3.8062	0.	123.11
1564	5.0049	6.0292	0.	128.89
1565	-4.7726	-6.6607	0.	123.12
1566	-0.83999	6.0532	0.	124.42
1567	-0.46782	-4.9729	0.	129.97
1568	-2.5201	-8.592	0.	129.74
1569	-4.5387	-2.8687	0.	123.62
1570	6.5869	-6.9769	0.	126.37
1571	6.0532	-6.5043	0.	126.84
1572	-8.4566	2.0711	0.	128.66
1573	1.0809	-0.19239	0.	124.47
1574	2.9386	-0.79904	0.	125.3
1575	-6.1885	7.6076	0.	127.81
1576	8.4885	-3.4859	0.	125.64
1577	9.0113	3.0025	0.	126.52
1578	-0.26852	4.0399	0.	127.11
1579	8.5059	5.5118	0.	126.65
1580	-6.5151	4.293	0.	128.88
1581	-7.471	-8.0152	0.	129.19
1582	3.2128	3.71	0.	125.58
1583	-8.9745	1.7211e-002	0.	127.53
1584	6.6037	2.7694	0.	123.52
1585	-7.2847	-4.1496	0.	124.08
1586	-0.25624	5.5708	0.	124.76
1587	-9.5003	8.4953	0.	126.59
1588	9.0001	8.0003	0.	129.45
1589	4.5353	-5.0551	0.	124.52
1590	0.51621	6.1019	0.	124.48
1591	1.63	1.8956	0.	127.29
1592	-7.9849	3.1161	0.	127.75
1593	4.4468	-3.3698	0.	123.66
1594	-7.035	4.2147	0.	128.41
1595	6.8554	-1.9274	0.	132.41
1596	-1.494	-1.4937	0.	126.54
1597	7.0111	5.5318	0.	118.34
1598	-0.41272	6.5497	0.	124.52
1599	6.5938	1.8789	0.	126.45
1600	9.4665e-003	-1.0017	0.	124.89
1601	-8.1121	-4.5645	0.	127.89
1602	3.4253	-3.2452	0.	126.16
1603	5.522	5.0664	0.	124.26
1604	-7.2377	-1.6282	0.	131.85
1605	-8.0641	-5.5233	0.	130.11
1606	-5.6044	8.0022	0.	125.78
1607	-2.6994	4.1557	0.	131.29
1608	-5.5112	-8.0336	0.	137.97
1609	3.9564	-8.9775	0.	102.47
1610	0.43362	-2.4608	0.	124.75
1611	-0.22523	5.0701	0.	125.39
1612	-4.045	3.7481	0.	120.57
1613	8.4988	-2.9857	0.	125.1
1614	6.4811	-4.0105	0.	125.57
1615	-4.014	-8.0788	0.	119.56
1616	6.5062	6.0233	0.	118.32
1617	1.1621	2.9441	0.	127.24
1618	6.1305	1.9311	0.	125.33
1619	-6.3841	-1.9577	0.	122.84
1620	-6.598	-5.3356	0.	115.11
1621	-8.1501	-2.5673	0.	128.93
1622	-8.1339	-4.0678	0.	127.59
1623	-2.0766	-7.9814	0.	130.65
1624	5.0669	4.1272	0.	123.66
1625	-5.9352	2.5275	0.	119.55
1626	6.5704	3.6653	0.	122.17
1627	-7.0015	-8.5062	0.	120.49
1628	-0.95663	-4.9633	0.	131.71
1629	8.4956	-4.9905	0.	126.34
1630	-2.8824	-5.4419	0.	128.3
1631	-1.4574	-4.4569	0.	130.7
1632	-3.6052	-3.8932	0.	125.05
1633	-5.3839	1.6924	0.	117.71
1634	9.4897e-002	-1.5197	0.	124.98
1635	-0.98706	-0.512	0.	125.59
1636	-5.6798	-5.2329	0.	125.5
1637	-4.0087	7.3378	0.	119.67
1638	-2.4998	-0.99041	0.	126.05
1639	7.0292	4.5729	0.	120.89
1640	-3.506	1.925	0.	119.5
1641	1.1284	-1.271	0.	124.4
1642	2.8178	4.2587	0.	125.79
1643	8.9597	1.3769	0.	126.83
1644	-0.74675	5.0655	0.	125.47
1645	0.19208	3.5075	0.	127.39
1646	-7.8978	-7.4933	0.	131.52
1647	-5.9209	7.0304	0.	117.48
1648	9.0002	7.5007	0.	129.7
1649	-8.9918	-8.9988	0.	129.03
1650	-5.0591	-3.2883	0.	120.66
1651	2.9651	-7.4844	0.	133.02
1652	-7.2625	-3.1174	0.	125.78
1653	-5.5161	-8.5222	0.	128.29
1654	4.5332	-6.5274	0.	122.4
1655	6.6673	-7.4651	0.	126.04
1656	-2.9754	7.5046	0.	130.33
1657	-6.9058	1.8351	0.	124.15
1658	-4.498	4.2939	0.	120.21
1659	9.0226	-2.5011	0.	127.35
1660	-3.013	-2.4702	0.	126.49
1661	9.0012	6.5026	0.	131.2
1662	4.9947	-3.6771	0.	123.89
1663	-8.9565	1.5315	0.	129.1
1664	-5.4681	-2.224	0.	112.87
1665	3.143	0.8063	0.	130.14
1666	-1.9957	-0.99356	0.	127.01
1667	3.4991	5.5428	0.	125.85
1668	6.0851	1.0606	0.	130.26
1669	7.0694	2.2532	0.	124.52
1670	3.5129	-5.9919	0.	124.23
1671	-8.4458	-6.523	0.	126.94
1672	5.3427	-8.4936	0.	127.9
1673	1.0118	-4.4688	0.	119.35
1674	-8.1322	-1.5581	0.	128.73
1675	8.5017	-5.4887	0.	126.36
1676	-7.9809	-8.5033	0.	129.18
1677	-2.9052	-4.9696	0.	126.54
1678	3.0007	8.5023	0.	124.1
1679	1.7456	-1.7474	0.	124.98
1680	0.51486	8.0225	0.	124.88
1681	-8.1466	-3.0692	0.	128.29
1682	5.0237	-5.5438	0.	124.7
1683	-7.9643	2.6276	0.	127.62
1684	0.47565	-2.9601	0.	124.41
1685	0.6567	2.9694	0.	127.41
1686	7.0197	-5.9848	0.	126.21
1687	0.59688	1.4209	0.	126.57
1688	0.58598	0.90035	0.	125.84
1689	-8.425	-7.4995	0.	128.09
1690	-8.4027	-7.0086	0.	126.44
1691	-5.1126	-3.7732	0.	121.77
1692	4.582	4.1281	0.	124.3
1693	0.90085	-2.4009	0.	124.51
1694	-6.5344	-4.7785	0.	119.61
1695	-6.9441	-4.746	0.	121.08
1696	-6.4793	-4.2281	0.	120.91
1697	-6.8843	-4.1996	0.	122.17
1698	-6.4374	-3.6786	0.	121.4
1699	-6.8496	-3.6595	0.	122.88
1700	-4.559	0.50772	0.	135.09
1701	-6.5118	8.1444	0.	125.41
1702	-6.6105	7.7249	0.	128.92
1703	6.8399	0.43797	0.	134.77
1704	6.4325	0.54829	0.	136.24
1705	6.9435	0.88806	0.	132.91
1706	6.5162	0.98896	0.	132.88
1707	7.0092	1.3411	0.	128.4
1708	6.5609	1.4297	0.	129.27
1709	-7.037	-6.2503	0.	125.24
1710	8.4928	-9.9703e-002	0.	141.06
1711	9.5269	-1.5225e-003	0.	127.72
1712	-7.715	6.25	0.	147.1
1713	-7.5383	6.155	0.	122.53
1714	-7.6875	5.8277	0.	127.86
1715	-7.9337	6.0312	0.	139.32
1716	-6.62	6.41	0.	177.48
1717	-6.8567	6.775	0.	125.63
1718	-6.8517	6.575	0.	126.12
1719	-6.4015	6.6191	0.	140.75
1720	-6.533	6.9121	0.	153.39
1721	-7.735	7.05	0.	150.9
1722	-7.5633	7.155	0.	128.25
1723	-7.657	7.4516	0.	131.28
1724	-7.9276	7.3277	0.	147.3
1725	-3.655	5.35	0.	146.47
1726	-3.845	5.1983	0.	125.89
1727	-3.4043	5.1091	0.	140.45
1728	-3.6803	4.8633	0.	132.54
1729	-3.795	6.31	0.	137.59
1730	-4.0193	6.3989	0.	110.63
1731	-3.5845	6.54	0.	133.89
1732	-3.8654	6.7198	0.	122.82
1733	-5.03	5.74	0.	183.98
1734	-4.745	5.5517	0.	137.75
1735	-4.7794	5.7921	0.	128.63
1736	-5.0512	5.4047	0.	165.37
1737	-6.48	5.9033	0.	155.85
1738	-6.315	6.09	0.	146.87
1739	-6.7237	6.0866	0.	153.49
1740	-6.16	4.9567	0.	124.03
1741	-5.9155	4.9061	0.	106.06
1742	-6.0269	4.5724	0.	115.8
1743	-6.3373	4.7231	0.	127.3
1744	-5.335	5.89	0.	143.71
1745	-5.2556	5.6527	0.	132.14
1746	-4.9296	6.0835	0.	158.72
1747	-5.1451	6.1083	0.	153.02
1748	4.7063	-1.2663	0.	108.03
1749	4.49	-1.2	0.	127.47
1750	4.5959	-1.6158	0.	116.66
1751	4.3093	-1.4732	0.	128.58
1752	5.7038	-0.34375	0.	128.31
1753	5.6537	-0.12375	0.	131.64
1754	6.0189	-0.28675	0.	145.56
1755	5.8967	3.5521e-002	0.	151.13
1756	4.19	0.12	0.	145.62
1757	4.3562	0.27375	0.	129.61
1758	3.9063	0.33545	0.	140.37
1759	4.1393	0.56117	0.	137.99
1760	-5.02	-1.2475	0.	144.59
1761	-5.2162	-1.3737	0.	122.1
1762	-4.7593	-1.4711	0.	137.13
1763	-4.9984	-1.6777	0.	132.2
1764	-5.08	0.1475	0.	136.89
1765	-5.2863	0.25375	0.	114.21
1766	-5.1489	0.58139	0.	120.97
1767	-4.8245	0.44386	0.	134.38
1768	-6.4538	-0.73625	0.	122.61
1769	-6.4637	-0.50375	0.	120.83
1770	-6.9106	-0.64118	0.	139.98
1771	-6.7376	-0.35946	0.	143.51
1772	-6.699	-0.91708	0.	143.24
1773	7.615	1.6667e-003	0.	127.2
1774	7.8	5.6667e-002	0.	105.29
1775	7.454	0.25928	0.	131.88
1776	7.7244	0.40857	0.	117.44
1777	7.435	-0.75167	0.	151.09
1778	7.575	-0.885	0.	133.6
1779	7.1665	-0.95342	0.	145.97
1780	7.3684	-1.1733	0.	145.12
1781	8.36	-0.47667	0.	127.01
1782	8.315	-0.665	0.	131.15
1783	8.7216	-0.51439	0.	151.77
1784	8.5508	-0.83393	0.	159.2
1785	-6.0183	-7.3133	0.	144.8
1786	-6.205	-7.4433	0.	123.29
1787	-5.7466	-7.5413	0.	139.03
1788	-6.0102	-7.7672	0.	132.52
1789	-6.0917	-6.4067	0.	138.65
1790	-6.2967	-6.31	0.	113.44
1791	-6.1317	-5.9727	0.	123.76
1792	-5.885	-6.1663	0.	134.91
1793	-7.025	-7.0567	0.	118.23
1794	-7.0433	-6.83	0.	115.6
1795	-7.5212	-6.9771	0.	143.64
1796	-7.3143	-7.2337	0.	148.21
1797	-7.3386	-6.6985	0.	147.22
1798	4.35	-8.2575	0.	136.98
1799	4.2075	-8.4775	0.	135.57
1800	4.6699	-8.4928	0.	146.21
1801	4.4596	-8.7407	0.	146.81
1802	4.11	-7.7925	0.	105.76
1803	3.8475	-7.78	0.	92.224
1804	4.0035	-7.2954	0.	108.33
1805	4.2799	-7.5443	0.	118.46
1806	3.7238	-7.526	0.	116.25
1807	3.6825	-8.4525	0.	131.55
1808	3.5625	-8.22	0.	124.32
1809	3.4399	-8.7061	0.	144.21
1810	3.1835	-8.4603	0.	146.3
1811	3.3909	-8.197	0.	147.27
1812	-4.0175	-6.8975	0.	106.43
1813	-3.995	-6.64	0.	112.64
1814	-4.3307	-6.9842	0.	141.65
1815	-4.2483	-6.463	0.	140.6
1816	-4.5013	-6.7053	0.	137.57
1817	-3.5925	-7.1925	0.	97.188
1818	-3.3575	-7.0825	0.	139.1
1819	-3.1528	-7.3234	0.	132.79
1820	-3.4363	-7.5118	0.	118.83
1821	-3.525	-6.42	0.	113.67
1822	-3.3125	-6.5675	0.	146.1
1823	-3.0697	-6.3424	0.	138.82
1824	-3.3114	-6.1246	0.	131.33
1825	6.	8.75	0.	142.99
1826	6.25	9.	0.	128.85
1827	5.75	9.0002	0.	134.6
1828	6.	9.25	0.	133.64
1829	6.	7.25	0.	140.59
1830	6.25	7.	0.	125.52
1831	5.7504	7.0044	0.	133.7
1832	6.0012	6.7564	0.	130.89
1833	7.75	9.	0.	128.97
1834	8.	8.75	0.	143.61
1835	8.25	9.	0.	134.83
1836	8.	9.25	0.	133.23
1837	7.75	7.	0.	126.28
1838	8.	7.25	0.	141.89
1839	8.2503	7.0009	0.	134.9
1840	8.0011	6.7526	0.	131.6
1841	-4.	0.75	0.	140.37
1842	-3.75	1.	0.	124.49
1843	-3.9828	1.2274	0.	130.03
1844	-4.2055	0.99104	0.	134.35
1845	-4.	0.25	0.	138.03
1846	-3.75	0.	0.	120.36
1847	-4.0079	-0.24779	0.	127.01
1848	-4.2693	-7.1988e-003	0.	131.34
1849	-3.25	1.	0.	122.95
1850	-3.	0.75	0.	137.8
1851	-2.7477	1.0093	0.	131.81
1852	-3.0024	1.2418	0.	128.62
1853	-3.25	0.	0.	121.03
1854	-3.	0.25	0.	137.69
1855	-2.7473	3.008e-003	0.	130.48
1856	-3.0009	-0.24692	0.	127.71
1857	0.	-6.25	0.	139.09
1858	0.25	-6.	0.	124.1
1859	9.2125e-003	-5.7436	0.	130.56
1860	-0.23809	-5.9906	0.	133.54
1861	0.	-7.75	0.	138.21
1862	0.25	-8.	0.	122.56
1863	-1.4518e-003	-8.2496	0.	129.34
1864	-0.25181	-7.9977	0.	132.5
1865	1.75	-6.	0.	124.16
1866	2.	-6.25	0.	139.96
1867	2.006	-5.7384	0.	130.53
1868	2.2533	-5.9903	0.	133.14
1869	1.75	-8.	0.	121.29
1870	2.	-7.75	0.	137.27
1871	1.9927	-8.2496	0.	127.35
1872	2.2353	-7.9958	0.	130.34
1873	9.75	10.	0.	125.43
1874	10.	9.75	0.	124.35
1875	-9.75	10.	0.	124.94
1876	-10.	9.75	0.	125.05
1877	10.	-9.75	0.	125.33
1878	9.75	-10.	0.	125.52
1879	-10.	-9.75	0.	130.86
1880	-9.75	-10.	0.	130.29
1881	-7.725	6.65	0.	151.12
1882	-7.9443	6.4593	0.	142.05
1883	-7.9459	6.8882	0.	142.72
1884	-7.21	6.965	0.	89.452
1885	-6.9166	7.0895	0.	102.97
1886	-7.2836	7.2844	0.	109.97
1887	-3.725	5.83	0.	143.46
1888	-3.4562	5.5894	0.	138.51
1889	-3.5192	6.067	0.	135.75
1890	-4.295	5.375	0.	95.827
1891	-4.1607	5.0423	0.	107.76
1892	-4.6142	5.2282	0.	107.24
1893	-4.3988	6.096	0.	80.147
1894	-4.2805	6.4506	0.	104.3
1895	-4.6791	6.1356	0.	102.24
1896	-6.32	5.43	0.	131.69
1897	-6.5876	5.6389	0.	136.67
1898	-6.4671	5.1834	0.	126.62
1899	-5.825	5.99	0.	109.15
1900	-6.0965	6.2991	0.	109.25
1901	-5.5876	6.1925	0.	111.28
1902	-5.586	5.2788	0.	90.738
1903	-5.5967	4.8807	0.	111.76
1904	-5.2768	5.3174	0.	114.09
1905	5.0388	-0.95875	0.	99.508
1906	4.976	-1.3359	0.	106.15
1907	5.3713	-0.65125	0.	98.59
1908	5.3394	-1.0189	0.	113.17
1909	5.7363	-0.70095	0.	113.48
1910	4.39	-0.76	0.	134.84
1911	4.2064	-1.0247	0.	128.97
1912	4.29	-0.32	0.	138.89
1913	4.1023	-0.57353	0.	134.96
1914	3.999	-0.12059	0.	136.2
1915	5.2213	8.75e-003	0.	105.59
1916	5.4777	0.19377	0.	108.05
1917	4.7888	0.14125	0.	108.93
1918	5.0385	0.3266	0.	113.31
1919	4.5913	0.44968	0.	107.95
1920	-5.04	-0.7825	0.	144.33
1921	-4.7751	-1.0033	0.	137.27
1922	-5.06	-0.3175	0.	142.29
1923	-4.7902	-0.53019	0.	140.15
1924	-4.8043	-4.9699e-002	0.	135.68
1925	-5.6287	-1.1612	0.	102.88
1926	-5.4335	-1.5032	0.	103.85
1927	-6.0413	-0.94875	0.	99.393
1928	-5.8592	-1.3133	0.	111.05
1929	-6.2803	-1.1173	0.	104.82
1930	-5.6788	1.25e-003	0.	99.105
1931	-5.5524	0.35452	0.	103.02
1932	-6.0712	-0.25125	0.	95.512
1933	-5.9509	0.116	0.	109.27
1934	-6.345	-0.12984	0.	104.69
1935	7.525	-0.375	0.	136.83
1936	7.3551	-0.14371	0.	129.39
1937	7.2544	-0.54545	0.	137.32
1938	8.08	-0.21	0.	80.287
1939	8.074	0.18286	0.	104.64
1940	8.2164	-8.8185e-002	0.	112.74
1941	8.3564	-0.22152	0.	108.05
1942	7.945	-0.775	0.	94.817
1943	7.7862	-1.0971	0.	105.46
1944	8.1661	-0.92742	0.	98.881
1945	-6.055	-6.86	0.	141.94
1946	-5.7508	-7.0555	0.	135.23
1947	-5.8586	-6.61	0.	134.8
1948	-6.615	-7.25	0.	86.617
1949	-6.4783	-7.6241	0.	102.67
1950	-6.8877	-7.3798	0.	96.071
1951	-6.67	-6.57	0.	79.231
1952	-6.5704	-6.1725	0.	100.56
1953	-6.9469	-6.4751	0.	96.53
1954	4.4781	-8.0161	0.	121.74
1955	3.9507	-8.7212	0.	101.4
1956	3.5334	-7.977	0.	107.13
1957	-3.9114	-7.2924	0.	91.726
1958	-3.7804	-6.2973	0.	90.989
1959	-3.1063	-6.8357	0.	136.77
1960	6.	8.25	0.	147.24
1961	5.7501	8.5006	0.	140.66
1962	6.	7.75	0.	146.63
1963	5.7501	8.0011	0.	141.81
1964	5.7502	7.5022	0.	140.03
1965	6.75	9.	0.	122.55
1966	6.5	9.25	0.	119.1
1967	7.25	9.	0.	122.7
1968	7.	9.25	0.	123.
1969	7.5	9.25	0.	119.14
1970	6.75	7.	0.	118.34
1971	6.5012	6.755	0.	115.68
1972	7.25	7.	0.	118.66
1973	7.0012	6.7541	0.	118.38
1974	7.5011	6.7533	0.	116.2
1975	8.	8.25	0.	148.76
1976	8.25	8.5001	0.	141.84
1977	8.	7.75	0.	148.36
1978	8.25	8.0001	0.	143.43
1979	8.2501	7.5004	0.	141.58
1980	-4.2795	0.50386	0.	139.9
1981	-3.4968	1.2315	0.	113.32
1982	-3.5033	-0.2471	0.	110.06
1983	-2.7468	0.50473	0.	136.07
1984	0.	-6.75	0.	143.58
1985	-0.24049	-6.4929	0.	138.59
1986	0.	-7.25	0.	143.32
1987	-0.24344	-6.9949	0.	139.54
1988	-0.24754	-7.4966	0.	138.13
1989	0.75	-6.	0.	115.99
1990	0.50566	-5.7452	0.	114.17
1991	1.25	-6.	0.	115.97
1992	1.0045	-5.7445	0.	116.31
1993	1.5048	-5.7424	0.	114.1
1994	0.75	-8.	0.	113.85
1995	0.49872	-8.2499	0.	112.17
1996	1.25	-8.	0.	113.56
1997	0.99826	-8.25	0.	113.94
1998	1.4966	-8.2499	0.	111.61
1999	2.	-6.75	0.	145.32
2000	2.2507	-6.4944	0.	139.55
2001	2.	-7.25	0.	144.35
2002	2.2469	-6.9955	0.	141.48
2003	2.241	-7.4953	0.	139.22
2004	9.25	10.	0.	126.6
2005	9.5	9.75	0.	125.23
2006	8.75	10.	0.	127.17
2007	9.	9.75	0.	126.9
2008	8.25	10.	0.	124.33
2009	8.5	9.75	0.	128.13
2010	7.75	10.	0.	119.61
2011	8.	9.75	0.	124.19
2012	7.25	10.	0.	116.42
2013	7.5	9.75	0.	118.21
2014	6.75	10.	0.	116.61
2015	7.	9.75	0.	117.63
2016	6.25	10.	0.	120.28
2017	6.5	9.75	0.	118.51
2018	5.75	10.	0.	125.74
2019	6.	9.75	0.	124.99
2020	5.25	10.	0.	129.51
2021	5.5	9.7501	0.	129.38
2022	4.75	10.	0.	129.82
2023	5.	9.7501	0.	128.78
2024	4.25	10.	0.	128.84
2025	4.5	9.7502	0.	127.97
2026	3.75	10.	0.	127.95
2027	4.0001	9.7502	0.	127.35
2028	3.25	10.	0.	127.27
2029	3.5001	9.7503	0.	126.86
2030	2.75	10.	0.	126.84
2031	3.0001	9.7503	0.	126.54
2032	2.25	10.	0.	126.59
2033	2.5002	9.7504	0.	126.34
2034	1.75	10.	0.	126.49
2035	2.0004	9.7506	0.	126.25
2036	1.25	10.	0.	126.48
2037	1.5006	9.7509	0.	126.23
2038	0.75	10.	0.	126.53
2039	1.0007	9.7513	0.	126.27
2040	0.25	10.	0.	126.62
2041	0.50092	9.7518	0.	126.35
2042	-0.25	10.	0.	126.71
2043	1.0162e-003	9.7523	0.	126.44
2044	-0.75	10.	0.	126.76
2045	-0.49917	9.7524	0.	126.51
2046	-1.25	10.	0.	126.71
2047	-0.99961	9.7525	0.	126.53
2048	-1.75	10.	0.	126.51
2049	-1.5006	9.7519	0.	126.45
2050	-2.25	10.	0.	126.1
2051	-2.0021	9.7509	0.	126.22
2052	-2.75	10.	0.	125.5
2053	-2.5041	9.749	0.	125.79
2054	-3.25	10.	0.	124.75
2055	-3.0064	9.7461	0.	125.18
2056	-3.75	10.	0.	123.98
2057	-3.5083	9.7434	0.	124.48
2058	-4.25	10.	0.	123.29
2059	-4.009	9.7427	0.	123.82
2060	-4.75	10.	0.	122.74
2061	-4.509	9.7451	0.	123.29
2062	-5.25	10.	0.	122.28
2063	-5.0082	9.7486	0.	122.92
2064	-5.75	10.	0.	121.87
2065	-5.5068	9.7531	0.	122.61
2066	-6.25	10.	0.	121.51
2067	-6.0053	9.7578	0.	122.27
2068	-6.75	10.	0.	121.33
2069	-6.5038	9.7592	0.	121.95
2070	-7.25	10.	0.	121.51
2071	-7.0016	9.7553	0.	121.84
2072	-7.75	10.	0.	122.13
2073	-7.4998	9.7511	0.	122.21
2074	-8.25	10.	0.	123.06
2075	-7.9989	9.7477	0.	123.03
2076	-8.75	10.	0.	123.99
2077	-8.4986	9.7468	0.	123.97
2078	-9.25	10.	0.	124.67
2079	-8.9989	9.7477	0.	124.67
2080	-9.4994	9.7489	0.	125.05
2081	10.	9.25	0.	121.96
2082	9.75	9.5	0.	124.15
2083	10.	8.75	0.	119.39
2084	9.75	9.	0.	122.15
2085	10.	8.25	0.	118.58
2086	9.75	8.5	0.	121.22
2087	10.	7.75	0.	119.91
2088	9.75	8.0001	0.	121.7
2089	10.	7.25	0.	122.9
2090	9.75	7.5001	0.	123.5
2091	10.	6.75	0.	126.46
2092	9.7501	7.0003	0.	126.09
2093	10.	6.25	0.	129.3
2094	9.7503	6.5006	0.	128.55
2095	10.	5.75	0.	130.75
2096	9.7506	6.001	0.	129.94
2097	10.	5.25	0.	130.97
2098	9.751	5.5016	0.	130.25
2099	10.	4.75	0.	130.55
2100	9.7516	5.0023	0.	129.94
2101	10.	4.25	0.	129.99
2102	9.7523	4.5029	0.	129.46
2103	10.	3.75	0.	129.56
2104	9.7528	4.0029	0.	129.04
2105	10.	3.25	0.	129.37
2106	9.7528	3.5011	0.	128.78
2107	10.	2.75	0.	129.47
2108	9.7516	2.9969	0.	128.71
2109	10.	2.25	0.	129.84
2110	9.7485	2.4899	0.	128.85
2111	10.	1.75	0.	130.28
2112	9.7425	1.9802	0.	129.16
2113	10.	1.25	0.	130.32
2114	9.7359	1.4733	0.	129.56
2115	10.	0.75	0.	128.81
2116	9.7516	0.98956	0.	129.55
2117	10.	0.25	0.	125.37
2118	9.7099	0.49716	0.	128.57
2119	10.	-0.25	0.	122.16
2120	9.7634	-7.6124e-004	0.	125.48
2121	10.	-0.75	0.	122.59
2122	9.7463	-0.49054	0.	123.58
2123	10.	-1.25	0.	126.65
2124	9.7547	-0.99215	0.	126.11
2125	10.	-1.75	0.	130.29
2126	9.7621	-1.4975	0.	129.69
2127	10.	-2.25	0.	131.37
2128	9.7607	-2.0003	0.	130.68
2129	10.	-2.75	0.	130.9
2130	9.7558	-2.5008	0.	130.26
2131	10.	-3.25	0.	130.
2132	9.7514	-3.0001	0.	129.54
2133	10.	-3.75	0.	129.15
2134	9.7491	-3.4994	0.	128.87
2135	10.	-4.25	0.	128.45
2136	9.7484	-3.9989	0.	128.3
2137	10.	-4.75	0.	127.85
2138	9.7485	-4.4987	0.	127.81
2139	10.	-5.25	0.	127.33
2140	9.7491	-4.9986	0.	127.38
2141	10.	-5.75	0.	126.86
2142	9.7499	-5.4985	0.	126.98
2143	10.	-6.25	0.	126.43
2144	9.7506	-5.9983	0.	126.61
2145	10.	-6.75	0.	126.06
2146	9.7508	-6.4982	0.	126.27
2147	10.	-7.25	0.	125.75
2148	9.7498	-6.9987	0.	125.98
2149	10.	-7.75	0.	125.53
2150	9.7479	-7.4988	0.	125.76
2151	10.	-8.25	0.	125.4
2152	9.7457	-7.9986	0.	125.62
2153	10.	-8.75	0.	125.34
2154	9.7446	-8.4982	0.	125.54
2155	10.	-9.25	0.	125.33
2156	9.745	-8.9979	0.	125.52
2157	9.7471	-9.4987	0.	125.52
2158	-10.	9.25	0.	125.47
2159	-9.7494	9.4989	0.	125.16
2160	-10.	8.75	0.	125.99
2161	-9.7492	8.9981	0.	125.88
2162	-10.	8.25	0.	125.68
2163	-9.7501	8.4977	0.	126.38
2164	-10.	7.75	0.	123.9
2165	-9.7534	7.9978	0.	125.9
2166	-10.	7.25	0.	121.19
2167	-9.7592	7.4982	0.	124.06
2168	-10.	6.75	0.	119.25
2169	-9.7646	6.9986	0.	121.84
2170	-10.	6.25	0.	119.54
2171	-9.7674	6.4992	0.	121.02
2172	-10.	5.75	0.	121.93
2173	-9.7673	6.0002	0.	122.35
2174	-10.	5.25	0.	125.05
2175	-9.7652	5.5016	0.	124.8
2176	-10.	4.75	0.	127.74
2177	-9.7616	5.0026	0.	127.07
2178	-10.	4.25	0.	129.64
2179	-9.7581	4.5037	0.	128.73
2180	-10.	3.75	0.	130.86
2181	-9.7548	4.0047	0.	129.87
2182	-10.	3.25	0.	131.52
2183	-9.7517	3.5056	0.	130.59
2184	-10.	2.75	0.	131.69
2185	-9.7487	3.0061	0.	130.93
2186	-10.	2.25	0.	131.42
2187	-9.7458	2.5062	0.	130.9
2188	-10.	1.75	0.	130.73
2189	-9.7427	2.006	0.	130.54
2190	-10.	1.25	0.	129.7
2191	-9.7395	1.5056	0.	129.88
2192	-10.	0.75	0.	128.47
2193	-9.7366	1.0054	0.	128.99
2194	-10.	0.25	0.	127.3
2195	-9.737	0.50549	0.	128.
2196	-10.	-0.25	0.	126.51
2197	-9.7438	4.7258e-003	0.	127.15
2198	-10.	-0.75	0.	126.38
2199	-9.752	-0.49736	0.	126.73
2200	-10.	-1.25	0.	126.94
2201	-9.7587	-1.0001	0.	126.92
2202	-10.	-1.75	0.	127.97
2203	-9.7627	-1.5027	0.	127.63
2204	-10.	-2.25	0.	129.15
2205	-9.7647	-2.005	0.	128.57
2206	-10.	-2.75	0.	130.16
2207	-9.7649	-2.5067	0.	129.47
2208	-10.	-3.25	0.	130.85
2209	-9.7633	-3.0076	0.	130.13
2210	-10.	-3.75	0.	131.16
2211	-9.7612	-3.508	0.	130.51
2212	-10.	-4.25	0.	131.02
2213	-9.7592	-4.0081	0.	130.57
2214	-10.	-4.75	0.	130.39
2215	-9.7572	-4.5081	0.	130.29
2216	-10.	-5.25	0.	129.21
2217	-9.7551	-5.008	0.	129.62
2218	-10.	-5.75	0.	127.6
2219	-9.7524	-5.5077	0.	128.52
2220	-10.	-6.25	0.	126.
2221	-9.7474	-6.0068	0.	127.18
2222	-10.	-6.75	0.	125.06
2223	-9.7418	-6.5051	0.	126.05
2224	-10.	-7.25	0.	125.23
2225	-9.7385	-7.0029	0.	125.72
2226	-10.	-7.75	0.	126.42
2227	-9.7395	-7.5009	0.	126.34
2228	-10.	-8.25	0.	128.03
2229	-9.7425	-7.9998	0.	127.56
2230	-10.	-8.75	0.	129.46
2231	-9.7456	-8.4995	0.	128.78
2232	-10.	-9.25	0.	130.41
2233	-9.7477	-8.9994	0.	129.66
2234	-9.749	-9.4996	0.	130.14
2235	-9.25	-10.	0.	129.19
2236	-9.499	-9.7496	0.	129.57
2237	-8.75	-10.	0.	128.27
2238	-8.9984	-9.7497	0.	128.8
2239	-8.25	-10.	0.	127.01
2240	-8.4982	-9.7501	0.	127.9
2241	-7.75	-10.	0.	125.17
2242	-7.9984	-9.7507	0.	126.38
2243	-7.25	-10.	0.	123.09
2244	-7.4991	-9.751	0.	124.18
2245	-6.75	-10.	0.	121.65
2246	-7.	-9.75	0.	121.98
2247	-6.25	-10.	0.	121.61
2248	-6.5014	-9.749	0.	121.
2249	-5.75	-10.	0.	122.89
2250	-6.0027	-9.7503	0.	121.94
2251	-5.25	-10.	0.	124.48
2252	-5.5035	-9.7537	0.	123.92
2253	-4.75	-10.	0.	125.42
2254	-5.0038	-9.7571	0.	125.41
2255	-4.25	-10.	0.	125.65
2256	-4.5037	-9.7599	0.	125.73
2257	-3.75	-10.	0.	125.92
2258	-4.0036	-9.7623	0.	125.57
2259	-3.25	-10.	0.	126.86
2260	-3.5032	-9.7648	0.	126.
2261	-2.75	-10.	0.	128.45
2262	-3.0024	-9.7653	0.	127.44
2263	-2.25	-10.	0.	130.06
2264	-2.5014	-9.7622	0.	129.33
2265	-1.75	-10.	0.	130.96
2266	-2.001	-9.7562	0.	130.8
2267	-1.25	-10.	0.	130.57
2268	-1.501	-9.752	0.	131.25
2269	-0.75	-10.	0.	128.42
2270	-1.0008	-9.7502	0.	130.19
2271	-0.25	-10.	0.	124.64
2272	-0.50065	-9.7498	0.	127.11
2273	0.25	-10.	0.	120.44
2274	-6.4819e-004	-9.7498	0.	122.45
2275	0.75	-10.	0.	117.84
2276	0.49917	-9.75	0.	118.19
2277	1.25	-10.	0.	118.37
2278	0.99871	-9.7502	0.	116.74
2279	1.75	-10.	0.	122.01
2280	1.4978	-9.7502	0.	119.13
2281	2.25	-10.	0.	126.57
2282	1.9965	-9.7501	0.	124.34
2283	2.75	-10.	0.	127.98
2284	2.4948	-9.7491	0.	129.28
2285	3.25	-10.	0.	124.06
2286	2.9927	-9.7469	0.	128.81
2287	3.75	-10.	0.	118.99
2288	3.4905	-9.7444	0.	120.81
2289	4.25	-10.	0.	119.51
2290	3.9883	-9.7451	0.	115.73
2291	4.75	-10.	0.	125.41
2292	4.486	-9.7478	0.	121.67
2293	5.25	-10.	0.	130.41
2294	4.9833	-9.749	0.	129.82
2295	5.75	-10.	0.	131.58
2296	5.4808	-9.7484	0.	132.18
2297	6.25	-10.	0.	130.57
2298	5.9797	-9.747	0.	131.08
2299	6.75	-10.	0.	129.22
2300	6.4802	-9.745	0.	129.65
2301	7.25	-10.	0.	128.14
2302	6.9817	-9.7424	0.	128.47
2303	7.75	-10.	0.	127.36
2304	7.4839	-9.7409	0.	127.61
2305	8.25	-10.	0.	126.78
2306	7.9874	-9.7426	0.	126.99
2307	8.75	-10.	0.	126.32
2308	8.4906	-9.745	0.	126.51
2309	9.25	-10.	0.	125.91
2310	8.9941	-9.7472	0.	126.1
2311	9.4971	-9.7487	0.	125.72
2312	-7.195	6.365	0.	91.452
2313	-6.9554	6.2516	0.	102.94
2314	-7.2834	5.9932	0.	104.16
2315	1.5067	3.9556	0.	126.41
2316	1.2285	3.7167	0.	126.7
2317	1.2877	4.2319	0.	126.2
2318	1.0019	3.989	0.	126.53
2319	1.7974	4.194	0.	126.13
2320	2.0893	4.4205	0.	125.89
2321	1.5783	4.4703	0.	125.92
2322	1.8782	4.7077	0.	125.69
2323	0.94915	3.4724	0.	127.02
2324	0.72254	3.7447	0.	126.85
2325	0.44456	3.4968	0.	127.25
2326	0.67687	3.2277	0.	127.26
2327	2.004	3.9087	0.	126.3
2328	1.7296	3.6805	0.	126.58
2329	1.4514	3.4416	0.	126.86
2330	1.1817	3.2014	0.	127.08
2331	2.296	4.1352	0.	126.05
2332	2.4193	4.6563	0.	125.71
2333	2.5796	4.3241	0.	125.83
2334	1.0302	-1.8392	0.	124.62
2335	0.70476	-1.5871	0.	124.58
2336	0.57486	-1.9208	0.	124.74
2337	0.84603	-2.134	0.	124.56
2338	1.0596	4.5056	0.	125.96
2339	1.3481	4.745	0.	125.67
2340	2.4914	3.8404	0.	126.12
2341	2.2241	3.6304	0.	126.43
2342	1.9496	3.4021	0.	126.71
2343	1.6832	3.1698	0.	126.97
2344	0.81977	4.7814	0.	125.67
2345	0.54021	4.5347	0.	126.02
2346	0.77383	4.2627	0.	126.29
2347	1.1083	5.0208	0.	125.39
2348	0.57283	5.0591	0.	125.36
2349	0.86042	5.296	0.	125.12
2350	1.3988	5.2546	0.	125.18
2351	1.6479	4.9824	0.	125.44
2352	2.7544	5.0008	0.	125.57
2353	2.4856	5.2005	0.	125.38
2354	2.7346	4.7956	0.	125.62
2355	2.2081	4.9434	0.	125.51
2356	0.26012	4.2866	0.	126.43
2357	0.49375	4.0146	0.	126.69
2358	-1.4532e-002	4.0329	0.	126.95
2359	0.21577	3.7667	0.	127.09
2360	0.30942	5.3571	0.	125.04
2361	0.20285	5.8705	0.	124.61
2362	0.59702	5.5941	0.	124.81
2363	2.8435e-002	5.6038	0.	124.75
2364	0.41466	5.8693	0.	124.61
2365	3.3722	4.3501	0.	125.56
2366	3.4629	4.1277	0.	125.4
2367	3.2338	3.9295	0.	125.57
2368	3.0363	4.2038	0.	125.67
2369	1.6865	5.4952	0.	125.
2370	2.2131	5.4801	0.	125.13
2371	1.9632	5.7389	0.	124.86
2372	1.9356	5.223	0.	125.26
2373	0.87967	2.4429	0.	127.38
2374	0.37046	2.4653	0.	127.59
2375	0.61717	2.1963	0.	127.29
2376	0.64069	2.712	0.	127.43
2377	2.7121	3.5615	0.	126.15
2378	2.9726	3.7549	0.	125.79
2379	2.7751	4.0293	0.	125.9
2380	0.52026	-0.45576	0.	124.61
2381	0.24219	-0.64854	0.	124.69
2382	0.55349	-1.0275	0.	124.55
2383	0.76796	-0.73959	0.	124.42
2384	0.24907	-0.87478	0.	124.71
2385	-0.28123	-2.0072	0.	125.55
2386	-4.432e-002	-2.2546	0.	125.31
2387	0.15203	-1.9956	0.	125.07
2388	2.0228e-002	-1.7682	0.	125.13
2389	-0.10663	3.0002	0.	127.97
2390	0.13159	2.7337	0.	127.73
2391	0.16951	3.2494	0.	127.56
2392	0.40182	2.9804	0.	127.57
2393	5.8654	3.2297	0.	122.57
2394	5.6057	3.4468	0.	122.58
2395	5.3869	3.1969	0.	122.51
2396	5.6572	3.0171	0.	122.57
2397	5.3432	3.663	0.	122.85
2398	4.8618	3.654	0.	123.32
2399	5.1244	3.4131	0.	122.78
2400	5.0831	3.8914	0.	123.36
2401	2.4448	3.3514	0.	126.46
2402	2.1825	3.1301	0.	126.83
2403	1.1267	2.1744	0.	127.22
2404	1.3889	2.4188	0.	127.33
2405	1.1484	2.6877	0.	127.28
2406	-0.33703	3.2666	0.	128.01
2407	-0.56346	3.5314	0.	128.08
2408	-0.29119	3.7821	0.	127.46
2409	-6.0888e-002	3.5158	0.	127.6
2410	3.5803	4.3289	0.	125.4
2411	3.7611	4.5712	0.	125.49
2412	3.4981	4.8045	0.	125.67
2413	3.2309	4.6098	0.	125.62
2414	1.9161	2.8977	0.	127.09
2415	1.654	2.6607	0.	127.25
2416	1.4135	2.9296	0.	127.19
2417	3.2592	5.0683	0.	125.68
2418	3.0001	5.3034	0.	125.52
2419	2.9919	4.8735	0.	125.64
2420	0.29326	4.8124	0.	125.7
2421	2.3016e-002	4.5517	0.	126.15
2422	4.0253e-002	5.0738	0.	125.37
2423	3.8865	4.1193	0.	125.04
2424	4.0673	4.3616	0.	125.12
2425	4.1255	3.8962	0.	124.55
2426	4.342	4.13	0.	124.57
2427	3.6753	3.8879	0.	125.1
2428	1.4448	5.7603	0.	124.76
2429	1.1509	5.5298	0.	124.91
2430	1.3293	-2.0805	0.	124.66
2431	1.1988	-1.5412	0.	124.52
2432	1.5074	-1.7794	0.	124.81
2433	2.4773	5.737	0.	125.02
2434	2.7313	5.5032	0.	125.33
2435	0.56294	0.10651	0.	124.91
2436	0.29498	-0.12222	0.	124.81
2437	0.81636	-0.17802	0.	124.57
2438	5.2675	-4.5772	0.	124.77
2439	5.7534	-4.5503	0.	125.08
2440	5.5069	-4.3244	0.	124.8
2441	5.51	-4.8059	0.	125.01
2442	-1.7475	-2.9747	0.	127.76
2443	-1.2453	-2.9786	0.	127.52
2444	-1.4912	-3.2226	0.	128.15
2445	-1.4974	-2.7292	0.	127.46
2446	1.2073	-2.9102	0.	124.18
2447	0.97903	-3.1875	0.	123.57
2448	0.72024	-2.9439	0.	124.23
2449	0.93284	-2.6643	0.	124.28
2450	6.0932	3.4576	0.	122.47
2451	6.3473	3.2258	0.	122.68
2452	6.123	3.0211	0.	122.87
2453	5.5723	3.8992	0.	122.78
2454	5.8336	3.6747	0.	122.48
2455	4.3867	3.6563	0.	123.93
2456	4.6447	3.4097	0.	123.24
2457	4.6032	3.8902	0.	123.95
2458	1.569	-0.97373	0.	124.35
2459	1.8362	-1.1606	0.	124.56
2460	1.3708	-1.2463	0.	124.44
2461	1.6794	-1.4845	0.	124.73
2462	2.6803	3.0815	0.	126.51
2463	2.9399	3.2919	0.	126.
2464	4.9073	3.1688	0.	122.7
2465	5.1972	2.9068	0.	122.23
2466	1.1135	1.6592	0.	126.85
2467	0.86423	1.9277	0.	127.13
2468	1.3744	1.9065	0.	127.2
2469	-1.9969	-3.2198	0.	128.1
2470	-1.9855	-3.7123	0.	128.85
2471	-2.252	-3.4703	0.	128.11
2472	-1.7405	-3.4677	0.	128.49
2473	-0.51184	-2.2448	0.	125.96
2474	-0.48734	-1.7519	0.	125.68
2475	-0.75367	-1.995	0.	126.11
2476	-0.37844	2.7523	0.	128.22
2477	-0.61279	3.0168	0.	128.49
2478	4.0219	4.828	0.	125.68
2479	4.2862	4.5949	0.	125.25
2480	1.6901	-2.8801	0.	124.69
2481	1.4196	-2.6211	0.	124.5
2482	1.4651	-3.1593	0.	123.89
2483	2.418	2.8601	0.	126.87
2484	2.1587	2.6298	0.	127.22
2485	1.8967	2.3928	0.	127.38
2486	1.6365	2.151	0.	127.32
2487	-0.13577	6.0709	0.	124.46
2488	-0.60206	6.0454	0.	124.44
2489	-0.31018	5.8042	0.	124.61
2490	-0.38842	6.2937	0.	124.49
2491	4.7877	-4.5904	0.	124.67
2492	5.0309	-4.3607	0.	124.52
2493	5.0261	-4.8261	0.	124.67
2494	6.0002	-4.7808	0.	125.38
2495	5.7568	-5.0364	0.	125.3
2496	6.006	-5.2715	0.	125.67
2497	6.2492	-5.017	0.	125.6
2498	-0.75872	-2.4896	0.	126.44
2499	-0.99881	-2.7344	0.	127.02
2500	-1.0005	-2.2398	0.	126.58
2501	-1.2509	-2.485	0.	126.96
2502	3.7589	5.0614	0.	125.87
2503	3.5028	5.3004	0.	125.81
2504	-2.0012	-2.7264	0.	127.44
2505	-2.2547	-2.9738	0.	127.57
2506	-0.27494	-2.4922	0.	125.72
2507	-2.2022e-002	-2.7367	0.	125.32
2508	0.19971	-2.4766	0.	125.05
2509	-0.5089	-2.7382	0.	126.24
2510	-0.48944	4.5589	0.	126.39
2511	-0.25164	4.2981	0.	126.68
2512	-0.23	4.8132	0.	125.82
2513	3.9143	3.6648	0.	124.62
2514	4.1624	3.4216	0.	124.
2515	3.6809	3.4413	0.	124.87
2516	3.4462	3.6896	0.	125.28
2517	0.83362	0.36135	0.	125.09
2518	0.31589	0.39978	0.	125.24
2519	0.58001	0.63851	0.	125.49
2520	5.9906	-4.2892	0.	125.23
2521	5.7441	-4.0632	0.	124.94
2522	5.9683	-3.7945	0.	125.26
2523	6.2314	-4.0262	0.	125.38
2524	6.2463	-4.5243	0.	125.41
2525	7.6144e-002	6.337	0.	124.44
2526	0.3044	6.103	0.	124.47
2527	1.2206	6.0283	0.	124.55
2528	0.99069	6.2915	0.	124.42
2529	0.9267	5.7978	0.	124.69
2530	0.74434	6.073	0.	124.5
2531	1.7215	6.0039	0.	124.62
2532	1.4827	6.2635	0.	124.44
2533	2.2274	5.9957	0.	124.75
2534	1.9831	6.2493	0.	124.5
2535	2.4858	6.249	0.	124.64
2536	2.7339	6.0051	0.	124.99
2537	1.7306	-0.6836	0.	124.21
2538	1.5867	-0.47049	0.	124.26
2539	1.286	-0.7286	0.	124.26
2540	2.1443	-0.55785	0.	124.21
2541	1.7924	-0.42821	0.	124.26
2542	1.9977	-0.87044	0.	124.42
2543	-0.74899	-2.9829	0.	126.83
2544	-0.99099	-3.2279	0.	127.62
2545	8.85e-002	1.7043	0.	127.07
2546	-0.16174	1.9722	0.	127.62
2547	0.10555	2.2189	0.	127.56
2548	0.35225	1.9499	0.	127.26
2549	-1.0278	5.5661	0.	124.64
2550	-0.80851	5.808	0.	124.55
2551	-0.51663	5.5668	0.	124.72
2552	-0.76189	5.3141	0.	125.08
2553	5.2703	-4.1078	0.	124.55
2554	5.4869	-3.8435	0.	124.54
2555	4.4204	3.175	0.	123.31
2556	4.6834	2.9222	0.	122.46
2557	1.1035	1.1393	0.	126.22
2558	1.3645	1.3927	0.	126.74
2559	0.85253	1.4109	0.	126.58
2560	1.2369	-3.4366	0.	123.28
2561	0.74688	-3.4562	0.	123.41
2562	0.9997	-3.704	0.	122.35
2563	-0.47378	-1.2605	0.	125.43
2564	-0.72656	-1.5025	0.	125.82
2565	-0.18589	-1.5129	0.	125.26
2566	-0.40751	2.2391	0.	128.04
2567	-0.65237	2.5044	0.	128.54
2568	-0.14022	2.4858	0.	127.98
2569	1.9226	-2.5775	0.	125.23
2570	2.1714	-2.8776	0.	125.53
2571	1.9484	-3.1374	0.	124.77
2572	2.9203	2.8184	0.	126.36
2573	2.6626	2.594	0.	127.01
2574	2.4248	-0.70899	0.	124.54
2575	2.258	-0.26433	0.	124.36
2576	2.5747	-0.38529	0.	124.4
2577	5.7111	-3.5748	0.	124.86
2578	5.9371	-3.2981	0.	125.57
2579	6.2058	-3.5261	0.	125.64
2580	4.5617	-4.3797	0.	124.61
2581	4.3164	-4.5694	0.	124.97
2582	4.5415	-4.8228	0.	124.61
2583	5.2686	-5.0548	0.	124.91
2584	5.5157	-5.2914	0.	125.28
2585	6.2605	-5.511	0.	125.92
2586	5.765	-5.5265	0.	125.65
2587	6.0207	-5.7649	0.	126.1
2588	-2.2379	-3.9642	0.	128.71
2589	-1.9634	-4.205	0.	129.75
2590	-1.7257	-3.9603	0.	129.39
2591	-0.99289	-1.7456	0.	126.25
2592	-1.2489	-1.9901	0.	126.57
2593	-1.2882	3.8099	0.	128.55
2594	-1.3388	3.299	0.	129.1
2595	-1.5522	3.5692	0.	129.17
2596	-1.0616	3.5465	0.	128.64
2597	-1.1164	3.0341	0.	129.03
2598	-0.88673	2.7689	0.	128.81
2599	-0.83923	3.2816	0.	128.56
2600	4.2645	5.0666	0.	125.97
2601	4.0076	5.3053	0.	126.18
2602	2.145	2.127	0.	127.53
2603	2.4034	2.3636	0.	127.36
2604	5.4675	2.7269	0.	122.29
2605	4.9733	2.6601	0.	121.99
2606	5.221	2.3772	0.	121.5
2607	5.4749	2.532	0.	122.36
2608	5.6974	2.6159	0.	122.69
2609	5.9149	2.8085	0.	122.87
2610	6.5155	-5.7508	0.	126.15
2611	6.2757	-6.0047	0.	126.33
2612	6.5331	-6.2432	0.	126.39
2613	6.7705	-5.9912	0.	126.25
2614	-0.25598	-2.9828	0.	125.84
2615	-1.9082e-003	-3.2285	0.	125.21
2616	0.2329	-2.9705	0.	124.85
2617	-0.49595	-3.2314	0.	126.55
2618	1.6911e-002	-0.31501	0.	124.89
2619	-0.24679	-0.53722	0.	125.01
2620	2.5826e-003	-0.77547	0.	124.87
2621	-0.21767	-5.8294e-002	0.	125.06
2622	4.7926e-002	0.17105	0.	125.13
2623	7.6029e-002	1.1904	0.	126.37
2624	-0.18826	0.94911	0.	126.12
2625	6.3816e-002	0.67848	0.	125.66
2626	0.32794	0.91722	0.	125.91
2627	-0.17593	1.4594	0.	126.93
2628	0.33952	1.4338	0.	126.66
2629	5.806	4.1297	0.	122.54
2630	5.547	4.3607	0.	123.17
2631	5.3122	4.1276	0.	123.29
2632	6.3019	4.1268	0.	121.91
2633	6.0673	3.9052	0.	122.24
2634	6.0456	4.3636	0.	122.15
2635	-3.2738	-3.4466	0.	126.39
2636	-3.0206	-3.2188	0.	126.87
2637	-2.7675	-3.4732	0.	127.31
2638	-3.0418	-3.7439	0.	126.61
2639	-0.99431	4.5667	0.	126.75
2640	-0.75764	4.3063	0.	127.05
2641	-0.74544	4.8135	0.	126.
2642	1.6521	-2.3186	0.	125.03
2643	1.1452	-2.3753	0.	124.6
2644	2.1145	-2.1442	0.	125.76
2645	2.1508	-2.3538	0.	125.83
2646	1.8301	-2.0174	0.	125.18
2647	4.8049	-4.1499	0.	124.46
2648	4.3391	-4.1188	0.	124.79
2649	4.5562	-3.9754	0.	124.36
2650	5.0144	-3.904	0.	124.15
2651	3.9289	3.1981	0.	124.25
2652	4.1813	2.9442	0.	123.44
2653	3.6803	2.9826	0.	124.76
2654	3.435	3.2371	0.	125.24
2655	1.096	0.61188	0.	125.44
2656	1.3544	0.87168	0.	125.95
2657	0.84244	0.88905	0.	125.84
2658	1.3496	0.34303	0.	125.05
2659	1.087	7.682e-002	0.	124.76
2660	6.5037	-5.2565	0.	125.86
2661	6.4954	-4.7605	0.	125.63
2662	6.7478	-5.0022	0.	125.77
2663	6.7586	-5.4981	0.	126.02
2664	6.7405	-4.5034	0.	125.61
2665	6.4871	-4.2613	0.	125.56
2666	6.5412	4.3551	0.	121.37
2667	6.7959	4.1122	0.	121.66
2668	6.5598	3.8938	0.	121.91
2669	0.53022	6.8061	0.	124.38
2670	0.29586	6.5683	0.	124.39
2671	0.77046	6.5527	0.	124.34
2672	0.52411	6.3343	0.	124.42
2673	1.7443	6.5089	0.	124.31
2674	1.5017	6.7647	0.	124.23
2675	1.2528	6.5267	0.	124.31
2676	2.2415	6.5026	0.	124.38
2677	1.9963	6.7549	0.	124.21
2678	2.7417	6.5061	0.	124.57
2679	2.4944	6.7532	0.	124.26
2680	1.7235	-3.4166	0.	123.96
2681	1.4902	-3.687	0.	122.82
2682	-0.73795	-3.4763	0.	127.34
2683	-0.98121	-3.7218	0.	128.43
2684	-1.2369	-3.4719	0.	128.25
2685	0.25328	-3.4706	0.	124.42
2686	0.5058	-3.7176	0.	123.16
2687	0.48809	-3.2126	0.	124.06
2688	-0.48509	-0.77012	0.	125.25
2689	-0.73358	-1.0108	0.	125.6
2690	-0.23571	-1.0084	0.	125.11
2691	-0.42617	1.7274	0.	127.48
2692	-0.67673	1.9929	0.	128.18
2693	-0.46582	0.21233	0.	125.35
2694	-0.45229	0.7123	0.	125.88
2695	-0.71505	0.47242	0.	125.61
2696	-0.20022	0.44168	0.	125.43
2697	5.2868	4.5938	0.	123.93
2698	5.0287	4.8299	0.	124.99
2699	4.7885	4.5963	0.	124.77
2700	5.052	4.3606	0.	124.06
2701	-2.5044	-3.7221	0.	127.97
2702	-2.7787	-3.9928	0.	127.27
2703	-2.4688	-4.2155	0.	128.51
2704	-1.3034	5.8144	0.	124.49
2705	-1.2637	5.3211	0.	125.09
2706	-1.5258	5.5729	0.	124.52
2707	-1.2553	4.3186	0.	127.58
2708	-1.509	4.0766	0.	128.59
2709	-1.0186	4.0582	0.	127.87
2710	-4.1687	-4.0636	0.	124.04
2711	-4.0945	-3.6104	0.	124.48
2712	-4.3773	-3.8228	0.	123.64
2713	-3.8652	-3.8663	0.	124.6
2714	2.4339	-3.1389	0.	125.79
2715	2.6486	-2.8607	0.	126.39
2716	2.3996	-2.6539	0.	126.13
2717	2.2481	-1.7849	0.	125.79
2718	2.4017	-1.4917	0.	125.77
2719	2.1205	-1.3342	0.	125.05
2720	1.9637	-1.6581	0.	125.22
2721	5.4431	-3.3589	0.	124.13
2722	5.231	-3.6397	0.	124.14
2723	4.0938	-4.3085	0.	125.15
2724	4.3196	-3.9254	0.	124.62
2725	3.8581	-4.2163	0.	125.55
2726	4.04	-3.8259	0.	125.01
2727	3.4252	2.7743	0.	125.37
2728	3.168	2.5563	0.	126.31
2729	3.1798	3.0288	0.	125.85
2730	4.4442	2.6914	0.	122.59
2731	4.6986	2.4291	0.	121.39
2732	1.6273	6.246e-002	0.	124.69
2733	1.9061	-0.1347	0.	124.41
2734	1.3647	-0.20375	0.	124.39
2735	1.6154	1.125	0.	126.47
2736	1.8766	1.3753	0.	127.18
2737	1.6254	1.64	0.	127.09
2738	5.4303	2.0551	0.	121.99
2739	4.9464	2.1462	0.	120.9
2740	5.1749	1.8507	0.	120.16
2741	6.3252	3.6722	0.	122.24
2742	-0.91213	6.7958	0.	124.97
2743	-1.1357	6.5505	0.	124.87
2744	-0.8662	6.3011	0.	124.55
2745	-0.65256	6.5493	0.	124.61
2746	-1.5735	6.0627	0.	124.42
2747	-1.3536	6.3057	0.	124.72
2748	-1.0841	6.0563	0.	124.41
2749	-3.9707	-4.3035	0.	123.93
2750	-3.7857	-4.5393	0.	123.33
2751	-3.5196	-4.3922	0.	124.37
2752	-3.6672	-4.1061	0.	124.5
2753	0.75863	-3.9654	0.	122.09
2754	1.253	-3.9544	0.	121.88
2755	1.009	-4.2148	0.	120.47
2756	-5.7557	-3.2008	0.	119.37
2757	-6.1939	-3.1459	0.	120.49
2758	-5.9647	-2.8997	0.	118.73
2759	-5.9994	-3.4375	0.	120.07
2760	2.5595	-1.1791	0.	125.47
2761	2.2782	-1.0216	0.	124.75
2762	2.718	-0.87132	0.	125.08
2763	5.8945	-2.7991	0.	126.26
2764	6.1737	-3.0211	0.	126.42
2765	5.6691	-3.0823	0.	124.84
2766	6.7096	-3.4911	0.	125.89
2767	6.4425	-3.2491	0.	126.49
2768	6.4689	-3.7577	0.	125.76
2769	6.2849	4.5919	0.	121.61
2770	6.5273	4.8245	0.	120.76
2771	6.7812	4.5804	0.	120.99
2772	3.8494	-4.456	0.	125.65
2773	4.0608	-4.7805	0.	125.15
2774	4.7799	-5.0585	0.	124.61
2775	5.0241	-5.3029	0.	124.7
2776	5.5256	-5.7799	0.	125.78
2777	5.2712	-5.5394	0.	125.08
2778	5.7814	-6.0183	0.	126.23
2779	6.0416	-6.258	0.	126.6
2780	-1.9389	-4.6981	0.	130.75
2781	-2.1943	-4.4563	0.	129.54
2782	-1.7033	-4.4542	0.	130.47
2783	-1.2251	-3.9656	0.	129.21
2784	-1.4808	-3.7157	0.	129.04
2785	-1.4657	-4.2095	0.	130.12
2786	-0.98636	-1.2528	0.	125.98
2787	-1.2402	-1.4964	0.	126.32
2788	-1.75	-1.9865	0.	126.69
2789	-1.4992	-2.2353	0.	126.95
2790	-1.4962	-1.7409	0.	126.64
2791	-1.3953	2.7887	0.	129.35
2792	-1.615	3.0593	0.	129.33
2793	-1.1657	2.5235	0.	129.14
2794	-0.92159	2.2582	0.	128.68
2795	4.513	5.3079	0.	126.47
2796	4.7691	5.067	0.	125.76
2797	4.5289	4.8335	0.	125.54
2798	4.256	5.5466	0.	126.68
2799	4.0018	5.7882	0.	126.49
2800	3.7515	5.5443	0.	126.13
2801	-2.0279	3.6062	0.	129.49
2802	-1.773	3.8359	0.	129.2
2803	-1.8283	3.3295	0.	129.39
2804	-3.5248	-3.1811	0.	126.23
2805	-3.7935	-3.4013	0.	125.36
2806	-3.5642	-3.6572	0.	125.49
2807	-3.2716	-2.9532	0.	126.71
2808	-2.763	-2.9699	0.	127.14
2809	-3.0149	-2.7179	0.	126.7
2810	3.5603	-4.0758	0.	125.99
2811	3.7422	-3.6854	0.	125.45
2812	3.2553	-3.8268	0.	126.07
2813	3.466	-3.5165	0.	126.04
2814	2.6998	-3.3664	0.	125.94
2815	2.9146	-3.0882	0.	126.54
2816	2.974	-3.6043	0.	126.25
2817	3.1847	-3.2939	0.	126.22
2818	2.1362	1.6205	0.	127.57
2819	2.3941	1.8608	0.	127.83
2820	1.8849	1.8852	0.	127.47
2821	2.9103	2.3319	0.	126.96
2822	2.6525	2.0974	0.	127.66
2823	6.8287	3.196	0.	122.85
2824	6.596	2.9925	0.	123.13
2825	6.5793	3.4404	0.	122.46
2826	5.6841	2.21	0.	122.85
2827	5.9278	2.3924	0.	123.38
2828	6.1452	2.585	0.	123.56
2829	6.3717	2.7878	0.	123.32
2830	-2.0018	-2.2322	0.	126.88
2831	-2.2548	-2.4782	0.	126.96
2832	-1.7511	-2.4809	0.	127.14
2833	6.7909	-6.4811	0.	126.37
2834	6.5659	-6.7329	0.	126.42
2835	6.299	-6.4966	0.	126.66
2836	3.4952	6.272	0.	125.47
2837	3.7472	6.0291	0.	126.13
2838	3.2411	6.0209	0.	125.42
2839	3.497	5.7852	0.	125.77
2840	3.2439	6.5132	0.	124.98
2841	2.9946	6.7584	0.	124.45
2842	2.9898	6.2621	0.	124.92
2843	2.2109	-3.3987	0.	125.03
2844	2.4761	-3.6493	0.	125.54
2845	1.9808	-3.669	0.	124.15
2846	-0.24188	-3.4772	0.	125.92
2847	1.0922e-002	-3.7255	0.	124.98
2848	-0.48486	-3.726	0.	126.98
2849	-0.48138	-0.28051	0.	125.17
2850	-0.73817	-0.51861	0.	125.38
2851	-0.72703	-2.553e-002	0.	125.3
2852	-0.44022	1.2181	0.	126.68
2853	-0.70477	0.97574	0.	126.42
2854	-0.69329	1.4832	0.	127.41
2855	5.7866	4.5946	0.	122.77
2856	5.5293	4.8299	0.	123.84
2857	6.0295	4.8311	0.	122.19
2858	-1.2467	4.8223	0.	126.29
2859	-1.4903	4.5798	0.	127.37
2860	-1.4966	5.0781	0.	125.76
2861	-0.99783	5.0692	0.	125.54
2862	-5.5579	-3.4871	0.	119.95
2863	-5.6066	-3.9934	0.	121.34
2864	-5.8016	-3.7238	0.	120.64
2865	-5.3485	-3.7575	0.	121.25
2866	2.3506	-2.2106	0.	126.2
2867	2.5255	-1.939	0.	126.61
2868	4.4918	-3.5759	0.	123.92
2869	4.7657	-3.7295	0.	124.04
2870	3.9327	2.7286	0.	123.95
2871	4.1853	2.4653	0.	122.85
2872	3.676	2.514	0.	124.85
2873	1.608	0.60283	0.	125.57
2874	1.8667	0.86111	0.	126.35
2875	1.8536	0.35848	0.	125.25
2876	-4.2678	3.2868	0.	121.12
2877	-4.4951	3.0459	0.	120.92
2878	-4.7407	3.252	0.	120.67
2879	-4.5061	3.5198	0.	121.03
2880	-5.6677	2.1061	0.	118.95
2881	-5.8868	1.7898	0.	117.91
2882	-6.1557	1.9741	0.	119.85
2883	-5.9223	2.2835	0.	119.18
2884	3.4966	6.7631	0.	124.92
2885	3.747	6.5182	0.	125.74
2886	-6.8246	-2.8644	0.	124.36
2887	-6.6187	-3.1238	0.	122.56
2888	-7.046	-3.1212	0.	124.74
2889	-6.8396	-3.3922	0.	123.29
2890	7.0502	-6.7133	0.	126.22
2891	7.2825	-6.47	0.	126.23
2892	7.0283	-6.2291	0.	126.24
2893	7.0027	-5.2438	0.	125.93
2894	7.2567	-5.4891	0.	126.05
2895	7.0136	-5.7385	0.	126.12
2896	7.2473	-4.9923	0.	125.87
2897	6.993	-4.7451	0.	125.75
2898	5.6487	1.7516	0.	123.11
2899	5.897	1.965	0.	124.13
2900	-3.7817	-2.9263	0.	126.18
2901	-3.5227	-2.699	0.	126.61
2902	-2.3001	3.3804	0.	129.14
2903	-2.4867	3.6593	0.	129.28
2904	-2.2456	3.8741	0.	129.79
2905	4.5055	5.7885	0.	127.33
2906	4.7591	5.5457	0.	126.99
2907	-1.4408	2.2801	0.	129.37
2908	-1.6846	2.5502	0.	129.39
2909	3.5784	-4.6522	0.	126.22
2910	3.3318	-4.3801	0.	126.42
2911	5.8429	-2.3145	0.	127.41
2912	5.6133	-2.5799	0.	124.85
2913	6.1277	-2.5108	0.	127.99
2914	6.7695	5.0544	0.	120.12
2915	7.2663	5.0415	0.	120.38
2916	7.0143	5.2897	0.	119.09
2917	7.0234	4.8102	0.	120.36
2918	7.2885	4.0886	0.	122.01
2919	7.0499	3.8699	0.	122.
2920	7.0359	4.3375	0.	121.28
2921	7.0713	2.9476	0.	123.28
2922	7.3102	3.1519	0.	123.12
2923	7.0632	3.407	0.	122.63
2924	7.3109	2.6866	0.	123.63
2925	6.8385	2.7441	0.	123.57
2926	7.0714	2.486	0.	124.07
2927	6.9544	-3.2161	0.	126.15
2928	7.2164	-3.4706	0.	125.54
2929	6.969	-3.7331	0.	125.72
2930	6.6873	-2.9741	0.	126.75
2931	6.407	-2.7328	0.	128.15
2932	5.7414	-1.8707	0.	127.4
2933	6.0675	-1.9974	0.	130.35
2934	5.56	-2.0654	0.	124.87
2935	-2.2535	-1.9837	0.	126.31
2936	-1.9999	-1.7374	0.	126.58
2937	7.3022	-6.9497	0.	126.15
2938	7.0903	-7.1849	0.	126.12
2939	6.8252	-6.9651	0.	126.27
2940	-6.6034	-2.5682	0.	123.31
2941	-6.3975	-2.8276	0.	121.51
2942	-6.1683	-2.5814	0.	119.75
2943	-6.3856	-2.2451	0.	122.23
2944	-7.4979	-4.6175	0.	125.05
2945	-7.4183	-4.8705	0.	125.1
2946	-7.2913	-4.4069	0.	123.96
2947	-7.121	-4.7051	0.	122.46
2948	-7.472	-3.6159	0.	125.54
2949	-7.2714	-3.8914	0.	124.38
2950	-7.2603	-3.3752	0.	125.23
2951	-7.0539	-3.6463	0.	123.78
2952	-6.9343	2.5558	0.	123.84
2953	-6.6743	2.3657	0.	122.49
2954	-7.1793	2.2662	0.	124.98
2955	-6.9152	2.0751	0.	123.96
2956	-6.6921	2.8502	0.	122.64
2957	-6.9542	3.0351	0.	124.24
2958	-7.1991	2.7499	0.	125.01
2959	-6.4321	2.6601	0.	121.28
2960	-6.4129	2.1625	0.	121.05
2961	-6.1795	2.4719	0.	120.38
2962	2.1324	0.16132	0.	124.97
2963	2.3887	9.1918e-002	0.	124.99
2964	2.128	1.1114	0.	127.06
2965	2.3871	1.3531	0.	127.96
2966	3.4188	2.2959	0.	125.79
2967	3.1605	2.0698	0.	127.22
2968	4.6886	1.9324	0.	119.76
2969	4.4397	2.203	0.	121.65
2970	5.1728	-3.1663	0.	123.42
2971	5.3879	-2.8631	0.	123.42
2972	3.936	-3.3352	0.	125.02
2973	4.2122	-3.4764	0.	124.32
2974	2.8549	-2.5906	0.	127.04
2975	3.1179	-2.7851	0.	126.9
2976	2.8428	-1.349	0.	126.56
2977	2.6791	-1.6457	0.	126.59
2978	-4.4522	-4.2794	0.	123.93
2979	-4.2474	-4.5142	0.	123.99
2980	-4.9319	-4.2641	0.	123.61
2981	-4.7178	-4.5042	0.	124.85
2982	-4.6608	-4.0385	0.	123.53
2983	-5.4002	-4.2512	0.	122.61
2984	-5.1895	-4.4973	0.	124.42
2985	-5.142	-4.0152	0.	122.53
2986	-4.3199	-3.3615	0.	123.86
2987	-4.0504	-3.1465	0.	125.31
2988	-5.5143	-2.9788	0.	118.07
2989	-5.2953	-3.2605	0.	119.91
2990	-1.7441	4.3378	0.	128.37
2991	-1.9907	4.1038	0.	129.5
2992	-2.5485	3.1873	0.	128.1
2993	-2.872	3.0385	0.	126.48
2994	-2.9549	3.2658	0.	126.53
2995	-2.7351	3.4662	0.	128.24
2996	-4.0203	3.0628	0.	121.47
2997	-3.8034	3.2865	0.	122.3
2998	-4.0392	3.5198	0.	120.99
2999	-1.7958	5.8212	0.	124.45
3000	-1.7586	5.3299	0.	125.18
3001	-2.0176	5.5794	0.	124.49
3002	-1.8436	6.3099	0.	125.08
3003	-2.0632	6.0671	0.	124.64
3004	-4.0624	-4.75	0.	123.39
3005	-3.8546	-4.9637	0.	121.63
3006	-3.6319	-4.8652	0.	122.35
3007	-1.2127	-6.9686	0.	128.1
3008	-1.4461	-6.7061	0.	127.26
3009	-1.6936	-6.9442	0.	126.38
3010	-1.4702	-7.2163	0.	127.49
3011	-1.686	-4.9487	0.	131.45
3012	-1.9225	-5.1916	0.	131.34
3013	-2.1713	-4.9469	0.	130.59
3014	6.2719	5.0637	0.	121.34
3015	6.5168	5.3006	0.	119.97
3016	5.0152	5.3048	0.	126.28
3017	5.2711	5.0661	0.	124.89
3018	3.999	6.2753	0.	126.4
3019	4.2512	6.0301	0.	127.14
3020	-0.20116	7.0467	0.	124.71
3021	-0.68812	7.0433	0.	125.05
3022	-0.4549	7.2891	0.	125.02
3023	-0.42855	6.7968	0.	124.68
3024	0.28526	7.0475	0.	124.49
3025	3.5268e-002	7.2926	0.	124.71
3026	5.0888e-002	6.8097	0.	124.5
3027	0.77225	7.0372	0.	124.34
3028	0.52493	7.2884	0.	124.5
3029	1.2614	7.0218	0.	124.22
3030	1.015	7.2749	0.	124.33
3031	1.0125	6.7838	0.	124.29
3032	1.7536	7.0108	0.	124.13
3033	1.5074	7.2637	0.	124.18
3034	2.2491	7.0055	0.	124.08
3035	2.0021	7.2569	0.	124.06
3036	2.7473	7.0055	0.	124.14
3037	2.4993	7.2543	0.	123.98
3038	3.2473	7.0083	0.	124.39
3039	2.9982	7.2558	0.	124.
3040	3.7482	7.0103	0.	125.01
3041	3.4984	7.258	0.	124.26
3042	-4.7276	2.7824	0.	120.64
3043	-5.2083	2.7052	0.	119.87
3044	-4.957	2.517	0.	120.54
3045	-4.9732	2.9886	0.	120.4
3046	-3.2512	2.8366	0.	124.14
3047	-3.762	2.8363	0.	122.18
3048	-3.5139	2.6125	0.	122.31
3049	-3.5451	3.06	0.	123.01
3050	-2.1006	3.1037	0.	129.04
3051	-1.9043	2.8208	0.	129.37
3052	-0.94384	1.7488	0.	128.11
3053	-1.1968	2.0148	0.	128.92
3054	-0.97626	0.23455	0.	125.56
3055	-0.96753	0.73586	0.	126.15
3056	-1.226	0.49179	0.	125.83
3057	-1.2388	-1.0028	0.	126.16
3058	-0.98666	-0.75927	0.	125.72
3059	-0.72812	-3.9715	0.	128.07
3060	-0.97036	-4.2169	0.	129.53
3061	0.26345	-3.9724	0.	123.72
3062	0.51362	-4.2229	0.	121.79
3063	1.7475	-3.9394	0.	123.01
3064	1.5051	-4.205	0.	121.36
3065	2.7503	-3.8872	0.	125.85
3066	3.0269	-4.1312	0.	126.5
3067	-1.1773	7.0433	0.	125.62
3068	-0.94582	7.2882	0.	125.51
3069	-1.4008	6.798	0.	125.51
3070	-1.6237	6.553	0.	125.38
3071	-1.6697	7.0438	0.	126.59
3072	-1.4395	7.2889	0.	126.28
3073	2.246	-3.9197	0.	124.66
3074	2.5101	-4.1677	0.	125.76
3075	2.0041	-4.189	0.	123.68
3076	-0.23206	-3.9743	0.	126.05
3077	1.8331e-002	-4.2251	0.	124.73
3078	-0.47593	-4.2229	0.	127.7
3079	-1.2333	-9.2661e-003	0.	125.57
3080	-0.98382	-0.26363	0.	125.5
3081	-0.95784	1.2408	0.	127.16
3082	-1.2192	0.9972	0.	126.89
3083	-1.2123	1.5051	0.	128.17
3084	-2.4004	2.8895	0.	128.34
3085	-3.0684	3.0621	0.	125.51
3086	-2.724	2.7406	0.	126.71
3087	-3.0126	2.6039	0.	124.77
3088	-4.2475	2.8219	0.	121.27
3089	-3.9984	2.6047	0.	121.54
3090	-4.4781	2.5764	0.	121.41
3091	3.9986	6.7655	0.	125.83
3092	3.9992	7.2583	0.	124.97
3093	4.2494	7.0101	0.	126.19
3094	4.2494	6.519	0.	127.01
3095	6.0173	5.3042	0.	122.48
3096	5.7722	5.0664	0.	123.26
3097	-3.3658	-4.7181	0.	123.4
3098	-3.1845	-4.2406	0.	125.58
3099	-3.1039	-4.4824	0.	125.71
3100	-1.8926	6.7987	0.	126.45
3101	-2.1142	6.5536	0.	126.48
3102	-1.9368	7.2878	0.	127.5
3103	-2.1653	7.0407	0.	128.17
3104	-3.1519	3.5071	0.	126.23
3105	-3.3624	3.2854	0.	124.37
3106	-1.7402	4.8356	0.	126.83
3107	-1.9787	4.5978	0.	128.48
3108	-1.9888	5.0893	0.	126.27
3109	-4.6026	-3.5739	0.	123.02
3110	-4.5573	-3.1052	0.	123.28
3111	-4.8175	-3.315	0.	121.8
3112	-5.8447	-4.2415	0.	121.47
3113	-5.6466	-4.4945	0.	122.67
3114	-6.084	-4.5006	0.	120.66
3115	-6.0396	-3.9719	0.	120.77
3116	-6.2699	-4.233	0.	120.94
3117	2.6058	-2.3838	0.	126.78
3118	3.0483	-2.296	0.	127.73
3119	2.7807	-2.1122	0.	127.18
3120	4.8958	-2.9797	0.	122.04
3121	4.6867	-3.2934	0.	123.31
3122	4.9607	-3.4471	0.	123.43
3123	3.6695	2.0338	0.	125.42
3124	3.9286	2.2507	0.	123.75
3125	2.1123	0.61677	0.	126.04
3126	2.3788	0.83394	0.	127.19
3127	2.3574	0.30754	0.	125.46
3128	-4.957	4.3531	0.	127.56
3129	-5.1821	4.6186	0.	130.3
3130	-4.815	4.7805	0.	127.6
3131	-4.7098	4.431	0.	124.78
3132	-5.4376	2.414	0.	119.28
3133	-5.4553	2.8926	0.	119.52
3134	-5.6922	2.5914	0.	119.5
3135	-6.1935	2.9617	0.	120.51
3136	-6.4462	3.143	0.	121.47
3137	-5.7039	3.0747	0.	119.62
3138	-5.9481	3.26	0.	119.35
3139	-5.9409	2.7735	0.	119.6
3140	-7.3923	1.4905	0.	127.3
3141	-7.3188	1.0198	0.	128.5
3142	-7.6246	1.1805	0.	128.36
3143	-7.1327	1.3178	0.	126.46
3144	-6.827	-2.3659	0.	126.1
3145	-7.0394	-2.6074	0.	126.17
3146	-7.6977	-2.8417	0.	127.93
3147	-7.6984	-2.3396	0.	129.14
3148	-7.4793	-2.6001	0.	127.94
3149	-7.9248	-2.5783	0.	128.73
3150	6.1331	-7.2437	0.	126.47
3151	5.8446	-7.0042	0.	127.29
3152	6.3413	-6.9873	0.	126.59
3153	6.0744	-6.751	0.	126.83
3154	-2.7577	-1.9804	0.	125.63
3155	-2.5065	-2.2297	0.	126.38
3156	-2.5043	-1.7347	0.	125.68
3157	-5.1864	2.2258	0.	119.94
3158	-5.4049	1.9325	0.	118.4
3159	-7.691	-3.3464	0.	126.87
3160	-7.4792	-3.1057	0.	126.55
3161	-7.9213	-3.0817	0.	127.81
3162	-7.6922	-3.8499	0.	126.23
3163	-7.9079	-3.5846	0.	127.07
3164	-7.6981	-4.3359	0.	126.15
3165	-7.4915	-4.1254	0.	125.07
3166	-7.9161	-4.0845	0.	126.82
3167	-7.6183	-4.8238	0.	126.3
3168	-7.905	-4.5676	0.	127.07
3169	0.76492	-4.9811	0.	117.47
3170	1.2633	-4.9761	0.	117.34
3171	1.011	-5.2349	0.	115.38
3172	1.0124	-4.7247	0.	117.8
3173	-0.98085	-7.2312	0.	129.27
3174	-0.96623	-6.7242	0.	129.24
3175	-0.72926	-6.9836	0.	132.22
3176	7.255	6.0155	0.	117.5
3177	7.0038	6.2627	0.	116.25
3178	7.0082	5.7745	0.	117.37
3179	6.7557	6.0203	0.	117.34
3180	-7.2931	-5.1897	0.	123.89
3181	-7.1104	-5.533	0.	123.26
3182	-6.8228	-5.319	0.	118.25
3183	-6.9958	-5.0242	0.	121.24
3184	5.8596	-1.5572	0.	129.07
3185	5.4852	-1.8564	0.	124.17
3186	5.5702	-1.4472	0.	123.59
3187	3.4549	-0.92715	0.	127.44
3188	3.335	-0.44101	0.	125.94
3189	3.6305	-0.64633	0.	129.34
3190	3.1674	-0.74231	0.	125.98
3191	-7.5754	-5.3068	0.	127.59
3192	-7.8001	-5.0672	0.	127.59
3193	-5.9045	-1.8347	0.	114.92
3194	-5.9375	-2.364	0.	116.83
3195	-6.1549	-2.0277	0.	119.31
3196	-5.6969	-2.1609	0.	114.28
3197	-1.7066	7.5329	0.	127.2
3198	-2.2097	7.5282	0.	128.48
3199	-1.9706	7.7762	0.	127.67
3200	-1.2081	7.5338	0.	126.18
3201	-1.4677	7.7789	0.	126.66
3202	-0.71259	7.534	0.	125.48
3203	-0.96921	7.7793	0.	125.9
3204	-0.21847	7.535	0.	125.03
3205	-0.4728	7.7794	0.	125.36
3206	0.27494	7.5336	0.	124.72
3207	2.2962e-002	7.7801	0.	125.
3208	0.76771	7.5262	0.	124.49
3209	0.51814	7.7769	0.	124.73
3210	1.2611	7.5168	0.	124.29
3211	1.0117	7.7675	0.	124.52
3212	1.7559	7.5099	0.	124.11
3213	1.5071	7.7608	0.	124.32
3214	2.2522	7.5058	0.	123.95
3215	2.0035	7.7563	0.	124.11
3216	2.7502	7.5046	0.	123.84
3217	2.5013	7.7543	0.	123.91
3218	3.2493	7.5055	0.	123.87
3219	3.	7.7541	0.	123.76
3220	3.7494	7.506	0.	124.22
3221	3.4996	7.755	0.	123.78
3222	4.2498	7.5051	0.	125.21
3223	3.9998	7.7545	0.	124.2
3224	7.2061	-2.9444	0.	125.69
3225	6.9302	-2.6947	0.	127.37
3226	7.4681	-3.199	0.	125.07
3227	7.4714	-2.6495	0.	124.41
3228	7.7256	-2.9475	0.	124.52
3229	7.474	-3.7218	0.	125.38
3230	7.7249	-3.4682	0.	125.16
3231	7.4819	-4.2334	0.	125.61
3232	7.73	-3.9805	0.	125.53
3233	7.2266	-3.9843	0.	125.56
3234	7.4914	-4.7381	0.	125.81
3235	7.7371	-4.4867	0.	125.79
3236	7.2371	-4.4909	0.	125.69
3237	7.5013	-5.2376	0.	125.99
3238	7.746	-4.9886	0.	125.99
3239	7.5107	-5.7332	0.	126.12
3240	7.7542	-5.4867	0.	126.12
3241	7.5218	-6.2235	0.	126.18
3242	7.7626	-5.9817	0.	126.19
3243	7.2676	-5.9826	0.	126.19
3244	7.5344	-6.7063	0.	126.16
3245	7.7731	-6.4704	0.	126.19
3246	7.5399	-7.1795	0.	126.1
3247	7.78	-6.9555	0.	126.13
3248	7.328	-7.4147	0.	126.06
3249	7.4493	-7.6457	0.	126.09
3250	7.7671	-7.436	0.	126.09
3251	7.2749	1.7478	0.	124.86
3252	6.8185	1.8415	0.	126.12
3253	7.0563	2.0286	0.	125.16
3254	7.0262	1.5726	0.	127.1
3255	7.5192	4.7944	0.	121.32
3256	7.5119	5.2793	0.	120.43
3257	7.7636	5.0307	0.	122.05
3258	7.529	4.3143	0.	122.03
3259	7.7712	4.5452	0.	122.51
3260	7.2764	4.5631	0.	121.3
3261	7.5394	3.8376	0.	122.61
3262	7.7804	4.0624	0.	122.96
3263	7.5478	3.3638	0.	123.08
3264	7.789	3.581	0.	123.34
3265	7.3008	3.6189	0.	122.6
3266	7.5498	2.891	0.	123.46
3267	7.7933	3.0989	0.	123.63
3268	7.5418	2.4133	0.	123.72
3269	7.7893	2.6148	0.	123.78
3270	7.5209	1.9319	0.	123.86
3271	7.7753	2.1249	0.	123.7
3272	7.3023	2.2127	0.	124.17
3273	-5.808	1.298	0.	115.26
3274	-6.1257	1.4463	0.	118.99
3275	-5.624	1.6163	0.	117.35
3276	-4.9047	7.4696	0.	123.67
3277	-5.1548	7.677	0.	124.51
3278	-5.4475	7.4488	0.	125.17
3279	-5.3191	7.1549	0.	123.57
3280	-5.0656	7.1236	0.	126.67
3281	7.5068	5.7684	0.	119.29
3282	7.7581	5.52	0.	121.66
3283	7.2599	5.5274	0.	119.13
3284	3.5317	-5.2077	0.	126.11
3285	3.7899	-4.9767	0.	125.72
3286	3.2911	-4.9354	0.	127.14
3287	4.2679	-5.5221	0.	124.02
3288	4.5195	-5.7813	0.	123.51
3289	4.5266	-5.2949	0.	124.22
3290	4.7708	-5.5393	0.	124.31
3291	4.0169	-5.7612	0.	123.14
3292	3.7691	-5.4921	0.	124.98
3293	4.0273	-5.2611	0.	124.59
3294	4.7743	-6.0294	0.	124.05
3295	5.0366	-6.2781	0.	125.72
3296	5.28	-6.0278	0.	125.54
3297	5.0256	-5.7873	0.	124.84
3298	1.7616	-4.4545	0.	122.02
3299	1.5119	-4.7168	0.	119.52
3300	1.2611	-4.4654	0.	119.92
3301	2.7867	-4.4116	0.	126.41
3302	3.0445	-4.6632	0.	127.34
3303	-0.71816	-4.4684	0.	129.16
3304	-0.96052	-4.714	0.	130.94
3305	-1.2109	-4.4608	0.	130.43
3306	0.51652	-4.7286	0.	119.87
3307	0.26851	-4.4756	0.	122.79
3308	0.764	-4.4723	0.	120.14
3309	-1.6762	-6.4403	0.	127.15
3310	-1.436	-6.2013	0.	128.67
3311	-1.1996	-6.4617	0.	128.41
3312	-1.4396	-5.2016	0.	131.6
3313	-1.2	-4.9579	0.	131.68
3314	-1.4504	-4.7047	0.	131.18
3315	-2.2507	-1.4884	0.	125.94
3316	-1.7462	-1.4917	0.	126.53
3317	-1.9971	-1.2416	0.	126.77
3318	-1.4906	-0.75078	0.	126.33
3319	-1.4927	-1.2464	0.	126.5
3320	-1.7436	-0.99632	0.	126.74
3321	-1.4652	1.7712	0.	128.97
3322	-1.7286	2.0418	0.	129.63
3323	-1.4777	0.75313	0.	126.57
3324	-1.4831	0.24797	0.	125.85
3325	-1.7339	0.50396	0.	126.02
3326	-2.2041	2.6066	0.	128.66
3327	-1.9724	2.3119	0.	129.65
3328	-4.7076	2.311	0.	121.3
3329	-4.9303	2.0456	0.	121.4
3330	-3.7504	2.3809	0.	121.66
3331	-3.2754	2.3798	0.	122.94
3332	-3.5085	2.1557	0.	120.65
3333	4.5017	6.2737	0.	127.75
3334	4.7538	6.0294	0.	128.3
3335	4.5	7.2569	0.	126.43
3336	4.7502	7.5043	0.	127.18
3337	4.5001	7.7535	0.	125.51
3338	6.2621	5.541	0.	121.12
3339	6.7616	5.5358	0.	118.92
3340	6.5092	5.7816	0.	118.92
3341	5.2606	5.5429	0.	126.35
3342	5.0075	5.7865	0.	127.96
3343	-1.9133	-5.6854	0.	130.63
3344	-2.1572	-5.4359	0.	131.74
3345	-1.6761	-5.4445	0.	131.49
3346	-2.406	-5.1912	0.	130.99
3347	-2.4267	-4.7051	0.	129.39
3348	-2.6596	-4.9592	0.	128.23
3349	-1.9559	-7.1839	0.	126.89
3350	-1.9237	-6.6784	0.	126.26
3351	-2.1706	-6.9051	0.	124.92
3352	-1.7325	-7.4559	0.	128.01
3353	-1.2383	-7.4788	0.	128.67
3354	-1.5054	-7.7297	0.	129.07
3355	-2.2849	5.8252	0.	124.67
3356	-2.3339	6.3107	0.	126.03
3357	-2.5508	6.0675	0.	125.47
3358	-4.3867	7.705	0.	122.5
3359	-4.6385	7.7681	0.	123.05
3360	-4.5604	7.3263	0.	122.15
3361	-2.4794	7.7678	0.	128.64
3362	-2.4381	7.2812	0.	129.15
3363	-2.7189	7.5145	0.	129.74
3364	-2.9321	3.7075	0.	127.94
3365	-2.7055	3.9229	0.	130.13
3366	-2.2478	5.3388	0.	125.56
3367	-2.5044	5.5844	0.	124.64
3368	-2.2254	4.3638	0.	129.59
3369	-2.4644	4.1377	0.	130.64
3370	-4.0294	-2.6734	0.	126.72
3371	-4.2879	-2.8902	0.	124.73
3372	-5.2628	-2.7684	0.	118.25
3373	-5.7232	-2.6777	0.	117.4
3374	-5.4826	-2.4746	0.	114.92
3375	-3.5158	-2.2136	0.	126.16
3376	-3.7703	-2.4461	0.	127.15
3377	-3.266	-2.4637	0.	126.59
3378	-3.2613	-1.9742	0.	125.45
3379	-3.0084	-1.7315	0.	124.3
3380	-3.0114	-2.2243	0.	125.88
3381	-4.513	-4.739	0.	124.91
3382	-4.2945	-4.97	0.	124.43
3383	-4.9754	-4.7374	0.	125.65
3384	-4.7516	-4.9738	0.	127.12
3385	-5.4359	-4.7407	0.	124.47
3386	-5.2136	-4.9765	0.	127.6
3387	3.5833	-2.6678	0.	126.66
3388	3.3112	-2.4906	0.	127.59
3389	3.388	-2.9909	0.	126.58
3390	3.1201	-1.5235	0.	127.73
3391	3.2887	-1.2261	0.	127.63
3392	3.0013	-1.0413	0.	126.16
3393	5.111	-2.6765	0.	122.04
3394	5.3303	-2.3309	0.	122.3
3395	4.1322	-2.9974	0.	124.01
3396	3.8552	-2.8432	0.	125.7
3397	3.6599	-3.1663	0.	125.61
3398	3.4111	1.8077	0.	126.83
3399	3.1527	1.5725	0.	128.79
3400	2.9026	1.8354	0.	127.91
3401	4.428	1.7153	0.	120.29
3402	4.6677	1.4354	0.	116.85
3403	4.9171	1.637	0.	118.99
3404	3.0354	-0.24632	0.	124.9
3405	2.7054	-2.9034e-002	0.	125.02
3406	2.8679	-0.54762	0.	124.93
3407	2.6379	1.0757	0.	128.09
3408	2.895	1.3305	0.	129.1
3409	2.645	1.5934	0.	128.23
3410	5.8705	1.4989	0.	125.32
3411	5.6407	1.234	0.	123.84
3412	5.3934	1.5472	0.	121.28
3413	6.1187	1.7123	0.	126.34
3414	6.096	1.277	0.	128.81
3415	6.3339	1.4616	0.	128.3
3416	4.9013	1.1383	0.	115.74
3417	5.3981	1.0268	0.	120.51
3418	5.1104	0.83398	0.	115.44
3419	5.1508	1.3399	0.	117.96
3420	6.3524	-2.1937	0.	130.95
3421	6.65	-2.4534	0.	128.76
3422	5.5731	-6.764	0.	127.44
3423	5.2993	-6.5213	0.	126.78
3424	5.5427	-6.2709	0.	126.61
3425	5.8029	-6.5107	0.	126.97
3426	7.2383	-7.6476	0.	126.08
3427	6.8922	-7.4408	0.	126.05
3428	6.2196	-7.7349	0.	125.92
3429	5.9155	-7.4959	0.	126.53
3430	6.419	-7.4774	0.	126.08
3431	-4.0866	-5.1837	0.	122.68
3432	-3.6443	-5.0693	0.	121.27
3433	-3.8467	-5.3825	0.	118.17
3434	-5.2202	3.176	0.	120.04
3435	-4.9809	3.4564	0.	121.09
3436	-7.2206	3.2289	0.	125.57
3437	-6.7083	3.3279	0.	123.07
3438	-6.9781	3.5097	0.	125.58
3439	-7.4226	1.9743	0.	126.49
3440	-7.6654	1.6807	0.	127.52
3441	-7.1585	1.7833	0.	125.47
3442	-7.4441	2.4603	0.	126.15
3443	-7.6891	2.1748	0.	126.98
3444	-7.4909	3.4242	0.	126.91
3445	-7.4654	2.9437	0.	126.35
3446	-7.7307	3.1501	0.	127.17
3447	-7.5234	3.9047	0.	127.33
3448	-7.2485	3.705	0.	126.92
3449	-7.757	3.6333	0.	127.61
3450	-5.969	0.95171	0.	115.85
3451	-6.1064	0.60225	0.	116.14
3452	-6.2867	1.1	0.	119.59
3453	-6.3923	0.71734	0.	122.04
3454	-7.4784	-2.1035	0.	129.48
3455	-7.6889	-1.8403	0.	129.98
3456	-7.9216	-2.077	0.	129.51
3457	-7.5299	0.66689	0.	129.18
3458	-7.8925	0.28392	0.	128.38
3459	-7.8357	0.82755	0.	129.06
3460	-7.5926	0.37984	0.	129.92
3461	-8.0875	0.54099	0.	128.79
3462	-7.047	-2.1225	0.	128.21
3463	-7.2594	-2.3639	0.	128.29
3464	-7.2486	-1.8725	0.	130.54
3465	-6.8219	-1.9069	0.	128.08
3466	-6.6093	-2.0429	0.	125.02
3467	-7.0289	0.89105	0.	127.4
3468	-6.5904	1.1722	0.	123.31
3469	-6.8428	1.189	0.	125.38
3470	-6.6961	0.78958	0.	125.77
3471	-7.14	0.58493	0.	129.56
3472	-7.5622	4.3873	0.	126.39
3473	-7.7887	4.1182	0.	127.58
3474	-7.2882	4.1799	0.	127.91
3475	-6.4569	3.6155	0.	121.56
3476	-6.2009	3.4413	0.	120.31
3477	-5.4627	3.3685	0.	119.86
3478	-4.9875	3.9145	0.	123.72
3479	-5.2233	3.649	0.	120.91
3480	-4.7463	3.7242	0.	121.45
3481	-5.224	4.1221	0.	123.8
3482	-4.7451	4.216	0.	122.97
3483	-4.533	-5.2048	0.	126.63
3484	-4.2976	-5.4358	0.	125.21
3485	-4.9898	-5.2129	0.	129.03
3486	-4.7542	-5.4497	0.	130.49
3487	5.3349	-7.0161	0.	128.51
3488	5.627	-7.2565	0.	127.35
3489	7.7491	-2.4119	0.	123.12
3490	7.3956	-2.1226	0.	124.68
3491	7.1955	-2.3998	0.	126.1
3492	7.5965	-2.1236	0.	121.7
3493	2.6239	0.52471	0.	126.6
3494	2.8886	0.80879	0.	128.94
3495	3.9199	1.7689	0.	123.86
3496	4.1653	1.5029	0.	121.72
3497	4.1791	1.9859	0.	122.19
3498	3.6599	1.5464	0.	127.19
3499	4.6175	-2.8249	0.	122.02
3500	4.3302	-2.6731	0.	122.53
3501	4.4084	-3.1386	0.	123.3
3502	4.824	-2.5017	0.	119.55
3503	3.3999	-1.7043	0.	129.01
3504	3.224	-2.0041	0.	128.31
3505	2.9564	-1.8203	0.	127.77
3506	-5.8859	-4.7536	0.	121.87
3507	-5.672	-4.9884	0.	124.42
3508	-6.1258	-5.0206	0.	119.6
3509	-6.321	-4.7709	0.	119.98
3510	-3.5114	-1.7252	0.	124.13
3511	-3.762	-1.9618	0.	126.87
3512	-3.2586	-1.4824	0.	122.97
3513	-3.7606	-1.4766	0.	124.04
3514	-3.5094	-1.2337	0.	120.43
3515	-5.0157	-2.5732	0.	119.38
3516	-4.7837	-2.8402	0.	121.59
3517	-5.0438	-3.0501	0.	120.11
3518	-2.463	4.6177	0.	130.64
3519	-2.2273	4.8516	0.	127.9
3520	-3.373	3.7276	0.	125.02
3521	-3.5925	3.9472	0.	123.36
3522	-3.5834	3.5059	0.	123.17
3523	-3.8192	3.7392	0.	121.86
3524	-3.1564	3.9504	0.	128.07
3525	-4.3938	7.9258	0.	122.68
3526	-3.8514	7.906	0.	123.56
3527	-4.1081	8.1491	0.	122.94
3528	-4.0754	7.6003	0.	120.9
3529	-2.6053	6.5494	0.	128.45
3530	-2.3869	6.7957	0.	128.18
3531	-2.2161	-7.3955	0.	128.46
3532	-2.0276	-7.7102	0.	129.27
3533	-3.3921	-5.2261	0.	120.42
3534	-3.1634	-4.9702	0.	124.27
3535	-1.9121	-6.1803	0.	128.24
3536	-2.15	-6.4141	0.	127.16
3537	-1.672	-5.9413	0.	129.78
3538	-2.1479	-5.9248	0.	130.76
3539	5.7616	5.5421	0.	124.2
3540	5.5084	5.7852	0.	126.99
3541	5.5165	5.3042	0.	124.97
3542	6.0089	5.7838	0.	123.16
3543	4.5003	6.7636	0.	127.36
3544	4.7503	7.0089	0.	128.23
3545	4.7512	6.5172	0.	128.9
3546	-4.229	2.3592	0.	121.68
3547	-3.9818	2.1453	0.	121.65
3548	-4.4563	2.1132	0.	123.07
3549	-2.5161	2.3789	0.	127.92
3550	-1.4737	1.2615	0.	127.9
3551	-1.7312	1.0132	0.	127.8
3552	-1.7337	1.5287	0.	129.36
3553	-1.4879	-0.25289	0.	125.96
3554	-1.7415	-0.49949	0.	126.76
3555	-1.2384	-0.50725	0.	125.89
3556	-1.7382	9.541e-004	0.	126.19
3557	-3.0055	-1.2367	0.	122.34
3558	-2.7549	-1.4858	0.	124.35
3559	-1.1945	-5.9583	0.	130.36
3560	-1.4348	-5.7005	0.	130.63
3561	-0.22554	-4.4737	0.	126.39
3562	-0.46987	-4.7225	0.	129.06
3563	2.2681	-4.437	0.	124.77
3564	2.5244	-4.6859	0.	126.92
3565	2.015	-4.7032	0.	123.62
3566	4.2686	-6.0205	0.	122.63
3567	4.5272	-6.2777	0.	122.74
3568	4.0173	-6.2662	0.	120.84
3569	3.7644	-6.0025	0.	123.19
3570	3.2702	-5.4678	0.	127.28
3571	3.5166	-5.7333	0.	125.03
3572	5.9938	-1.1786	0.	133.75
3573	6.1857	-1.684	0.	132.02
3574	6.2553	-1.4317	0.	133.49
3575	6.2039	-0.92161	0.	133.65
3576	6.0514	-0.64395	0.	130.32
3577	5.7044	-1.0686	0.	128.31
3578	7.7545	6.012	0.	121.43
3579	7.5035	6.2601	0.	117.36
3580	-0.99956	-7.7378	0.	130.01
3581	-0.74257	-7.489	0.	131.39
3582	6.6471	-0.24434	0.	127.92
3583	6.5278	-0.70681	0.	129.14
3584	6.3753	-0.42915	0.	126.22
3585	6.8057	-0.50118	0.	130.16
3586	4.405	1.223	0.	118.25
3587	4.632	0.93936	0.	112.92
3588	3.5685	-1.4068	0.	128.88
3589	3.7432	-1.119	0.	127.57
3590	-3.8014	4.1816	0.	120.59
3591	-3.8759	4.4079	0.	115.96
3592	-4.0281	3.9737	0.	119.1
3593	-4.2546	4.2466	0.	118.87
3594	-2.8223	6.3062	0.	127.86
3595	-3.0362	6.0656	0.	128.1
3596	-2.7703	5.8267	0.	125.4
3597	5.0002	7.7531	0.	128.38
3598	5.0004	7.2563	0.	128.97
3599	5.2503	7.5042	0.	131.39
3600	0.27001	-4.9807	0.	121.67
3601	0.51409	-5.2359	0.	116.83
3602	-7.6034	4.8755	0.	122.89
3603	-7.3386	4.6579	0.	125.95
3604	-7.8243	4.6053	0.	126.12
3605	7.7439	1.6355	0.	123.07
3606	7.4803	1.4593	0.	123.61
3607	7.9982	1.8285	0.	122.91
3608	7.9455	1.3376	0.	121.18
3609	8.2215	1.5253	0.	123.16
3610	8.0228	2.3263	0.	123.75
3611	8.2547	2.0362	0.	124.02
3612	8.0329	2.8227	0.	123.95
3613	8.2722	2.5462	0.	124.42
3614	8.0345	3.3161	0.	123.9
3615	8.2787	3.0494	0.	124.52
3616	8.03	3.8058	0.	123.69
3617	8.2782	3.5468	0.	124.46
3618	8.0227	4.2934	0.	123.44
3619	8.2727	4.0393	0.	124.33
3620	8.0155	4.7814	0.	123.24
3621	8.2664	4.5301	0.	124.25
3622	8.0098	5.2714	0.	123.28
3623	8.2608	5.0214	0.	124.38
3624	7.0778	-7.9155	0.	126.05
3625	7.6461	-7.9149	0.	126.13
3626	7.3794	-8.1563	0.	126.29
3627	6.5322	-7.9662	0.	125.86
3628	6.8339	-8.2046	0.	126.27
3629	6.7316	-7.7088	0.	126.02
3630	6.0099	-7.9864	0.	125.62
3631	6.3094	-8.2279	0.	126.16
3632	5.4939	-7.9966	0.	125.07
3633	5.7962	-8.2403	0.	125.85
3634	5.7058	-7.7474	0.	126.23
3635	5.1838	-7.7568	0.	126.65
3636	4.9814	-8.0038	0.	131.1
3637	5.2896	-8.247	0.	126.19
3638	8.1646	-1.7626	0.	119.38
3639	8.4115	-1.5367	0.	123.7
3640	8.0088	-1.4533	0.	113.76
3641	8.2037	-1.3386	0.	117.51
3642	8.0726	-2.2207	0.	120.97
3643	8.3523	-1.996	0.	122.57
3644	7.9201	-1.9324	0.	119.48
3645	8.0032	-2.7098	0.	123.25
3646	8.2749	-2.4758	0.	123.47
3647	7.9824	-3.2167	0.	124.61
3648	8.242	-2.9734	0.	124.63
3649	7.981	-3.7269	0.	125.31
3650	8.2341	-3.4791	0.	125.35
3651	7.9852	-4.2339	0.	125.71
3652	8.235	-3.9849	0.	125.79
3653	7.9917	-4.7373	0.	125.96
3654	8.2395	-4.4882	0.	126.05
3655	7.9989	-5.2378	0.	126.12
3656	8.2455	-4.9893	0.	126.2
3657	8.0061	-5.7353	0.	126.19
3658	8.2521	-5.488	0.	126.27
3659	8.0139	-6.2286	0.	126.2
3660	8.2577	-5.9852	0.	126.27
3661	8.0186	-6.7196	0.	126.16
3662	8.2637	-6.4788	0.	126.22
3663	8.0072	-7.212	0.	126.11
3664	8.2627	-6.9731	0.	126.14
3665	7.9639	-7.7051	0.	126.13
3666	8.2423	-7.47	0.	126.1
3667	7.9314	-8.2039	0.	126.27
3668	8.1982	-7.9646	0.	126.14
3669	-6.0587	8.3148	0.	125.99
3670	-6.1315	7.8426	0.	127.33
3671	-5.8395	8.0399	0.	126.32
3672	-6.2932	8.111	0.	126.13
3673	-4.8886	7.9755	0.	123.89
3674	-5.1041	8.2236	0.	124.46
3675	-5.368	7.9822	0.	125.17
3676	-4.613	8.2297	0.	123.43
3677	-3.2899	7.97	0.	126.28
3678	-3.5294	7.7118	0.	125.46
3679	-3.5574	8.203	0.	124.95
3680	-2.7576	8.001	0.	127.84
3681	-3.0243	8.2378	0.	126.95
3682	-2.9971	7.7477	0.	128.95
3683	-2.2403	8.0158	0.	127.83
3684	-2.5039	8.2567	0.	127.55
3685	-1.7316	8.0222	0.	127.13
3686	-1.9918	8.2657	0.	127.22
3687	-1.2288	8.0244	0.	126.38
3688	-1.4858	8.2698	0.	126.63
3689	-0.72942	8.0247	0.	125.77
3690	-0.98423	8.2709	0.	126.07
3691	-0.23137	8.0246	0.	125.33
3692	-0.485	8.2706	0.	125.63
3693	1.3682e-002	8.2705	0.	125.31
3694	0.26616	8.0235	0.	125.02
3695	1.2578	8.0115	0.	124.54
3696	1.0075	8.2615	0.	124.85
3697	0.76212	8.0183	0.	124.77
3698	1.7548	8.0072	0.	124.32
3699	1.505	8.2575	0.	124.65
3700	2.2526	8.0048	0.	124.08
3701	2.003	8.2546	0.	124.42
3702	2.7512	8.0037	0.	123.84
3703	2.5016	8.2534	0.	124.17
3704	3.2503	8.0036	0.	123.67
3705	3.0006	8.2529	0.	123.91
3706	3.75	8.0035	0.	123.76
3707	3.5002	8.2531	0.	123.74
3708	4.25	8.0029	0.	124.49
3709	4.0001	8.2525	0.	123.89
3710	4.7501	8.0024	0.	126.71
3711	4.5001	8.252	0.	124.92
3712	5.0001	8.2517	0.	127.69
3713	5.2502	8.0022	0.	132.19
3714	8.0058	5.7636	0.	123.8
3715	8.2567	5.5144	0.	125.02
3716	-7.6656	-1.3429	0.	128.92
3717	-7.4591	-1.6094	0.	131.02
3718	-7.9064	-1.5744	0.	129.47
3719	-6.7267	3.7973	0.	124.07
3720	-7.0133	3.9802	0.	127.49
3721	-5.4491	4.3876	0.	126.56
3722	-5.7082	4.547	0.	120.28
3723	-5.2874	4.9193	0.	139.22
3724	2.9407	-8.2302	0.	130.58
3725	2.7025	-7.9856	0.	131.48
3726	3.1481	-7.9669	0.	131.8
3727	2.9497	-7.7321	0.	133.23
3728	3.0062	-6.2349	0.	128.1
3729	2.9969	-6.7403	0.	129.73
3730	3.256	-6.4956	0.	125.06
3731	2.7521	-6.4893	0.	131.13
3732	5.061	-6.7734	0.	127.85
3733	4.7895	-6.5264	0.	124.42
3734	-6.9901	8.2641	0.	120.82
3735	-7.0812	7.7551	0.	119.67
3736	-7.2303	8.0295	0.	119.02
3737	-6.7468	8.0728	0.	122.71
3738	-6.7961	7.8631	0.	124.45
3739	-7.3912	5.1485	0.	120.89
3740	-7.1264	4.9309	0.	123.98
3741	-6.9264	5.1746	0.	124.02
3742	-7.1793	5.451	0.	116.87
3743	-7.5944	-5.7599	0.	129.98
3744	-7.3927	-5.6501	0.	126.96
3745	-7.8381	-5.53	0.	129.46
3746	-8.3002	-5.0524	0.	129.1
3747	-8.0868	-4.811	0.	128.36
3748	-8.0628	-5.2904	0.	129.47
3749	-7.7877	-6.4076e-002	0.	127.53
3750	-8.2285	2.3111e-002	0.	127.46
3751	-8.0276	-0.25305	0.	126.78
3752	-7.8977	1.3707	0.	128.58
3753	-8.1412	1.0822	0.	128.89
3754	-8.1775	1.5977	0.	128.54
3755	-7.9319	1.8811	0.	128.01
3756	-8.0224	3.8468	0.	127.86
3757	-8.2586	3.5801	0.	128.26
3758	-7.9969	3.3592	0.	127.86
3759	-8.2819	4.0713	0.	128.12
3760	-8.0508	4.3362	0.	127.31
3761	6.3885	-1.6629	0.	134.07
3762	6.5872	-1.9213	0.	132.46
3763	3.2213	5.2124e-002	0.	126.45
3764	3.5159	-0.16881	0.	129.21
3765	3.4015	1.3113	0.	129.12
3766	3.1457	1.0636	0.	129.94
3767	5.0434	-2.1561	0.	119.75
3768	5.1916	-1.8052	0.	120.9
3769	3.7706	-2.3593	0.	127.59
3770	4.0532	-2.5189	0.	124.22
3771	5.8413	0.81853	0.	128.48
3772	5.5827	0.70439	0.	121.86
3773	5.8662	1.0122	0.	127.32
3774	-1.2667	-7.9886	0.	130.43
3775	-1.5212	-8.2425	0.	130.78
3776	-1.8004	-7.984	0.	130.35
3777	-5.2147	-5.4516	0.	131.5
3778	-5.4497	-5.2243	0.	127.53
3779	-4.2694	-2.4173	0.	126.77
3780	-4.0165	-2.1942	0.	127.84
3781	-5.5321	1.1429	0.	114.27
3782	-5.6871	0.81873	0.	113.29
3783	-4.4209	6.8794	0.	121.94
3784	-4.7213	6.9803	0.	125.14
3785	-4.2491	7.2215	0.	120.47
3786	-2.3969	-6.6408	0.	125.78
3787	-2.4308	-7.1168	0.	126.47
3788	-2.6428	-6.864	0.	126.65
3789	-2.786	-8.176	0.	128.7
3790	-2.5383	-7.9812	0.	131.55
3791	-2.5332	-8.3876	0.	130.58
3792	-2.3115	-8.0823	0.	131.02
3793	-3.5945	-5.5394	0.	117.16
3794	-4.0577	-5.6346	0.	120.71
3795	-3.8136	-5.831	0.	113.4
3796	-2.3917	-5.6754	0.	131.85
3797	-2.6402	-5.4377	0.	130.15
3798	-1.9971	1.7994	0.	130.02
3799	-2.2844	2.0843	0.	128.91
3800	-1.989	0.25695	0.	126.35
3801	-1.9874	0.76406	0.	127.25
3802	-2.2407	0.50908	0.	127.78
3803	-0.95806	-6.2187	0.	130.08
3804	-0.7209	-6.4784	0.	131.57
3805	1.7653	-4.9654	0.	121.11
3806	1.5115	-5.2282	0.	116.63
3807	3.0148	-5.7204	0.	128.43
3808	2.7581	-5.9803	0.	129.88
3809	3.2612	-5.9859	0.	126.19
3810	2.7681	-5.4627	0.	130.19
3811	3.0295	-5.1954	0.	128.3
3812	2.2713	-4.9522	0.	125.77
3813	2.5208	-5.2048	0.	129.75
3814	2.7822	-4.9375	0.	127.85
3815	2.0146	-5.218	0.	124.66
3816	2.0788e-002	-5.2335	0.	125.12
3817	2.1998e-002	-4.7277	0.	124.6
3818	-0.22234	-4.9764	0.	127.27
3819	-0.95429	-5.715	0.	131.67
3820	-0.71121	-5.4699	0.	132.99
3821	-1.1945	-5.4572	0.	131.96
3822	-0.95495	-5.2134	0.	132.04
3823	-0.71574	-5.9738	0.	131.66
3824	-3.0029	-0.7413	0.	121.75
3825	-3.2564	-0.98801	0.	119.77
3826	-2.7519	-0.98959	0.	123.71
3827	-1.9918	-0.24565	0.	126.98
3828	-2.2454	-0.49504	0.	128.3
3829	-1.9945	-0.74503	0.	127.17
3830	-2.2424	5.6007e-003	0.	127.54
3831	-1.9913	1.2805	0.	129.26
3832	-2.2412	1.019	0.	129.7
3833	-2.252	1.5421	0.	130.82
3834	-2.8074	2.0221	0.	125.53
3835	-2.5393	1.827	0.	129.72
3836	-2.8048	2.2422	0.	125.98
3837	-3.0249	1.7083	0.	123.55
3838	-3.0423	2.153	0.	123.63
3839	-3.2755	1.929	0.	121.32
3840	-4.2091	1.8993	0.	123.04
3841	-3.9697	1.685	0.	122.71
3842	-3.7399	1.9201	0.	120.62
3843	-4.4332	1.6573	0.	127.48
3844	-4.679	1.8479	0.	123.16
3845	5.0012	6.7625	0.	129.76
3846	5.2507	7.0087	0.	130.9
3847	5.252	6.5167	0.	131.37
3848	5.0033	6.2728	0.	129.44
3849	5.7558	6.0269	0.	125.95
3850	5.504	6.2727	0.	130.53
3851	5.2553	6.0288	0.	128.57
3852	6.0041	6.2691	0.	124.74
3853	6.256	6.0244	0.	120.97
3854	-2.3857	-6.1586	0.	129.65
3855	-2.6177	-6.3875	0.	128.38
3856	-2.6216	-5.9135	0.	135.15
3857	-3.3477	-5.7103	0.	115.21
3858	-3.1225	-5.4617	0.	123.59
3859	-3.2722	-8.1491	0.	122.05
3860	-3.5057	-7.9066	0.	110.67
3861	-3.5187	-8.3616	0.	120.13
3862	-3.7663	-8.1042	0.	118.68
3863	-3.0229	-8.3895	0.	126.06
3864	-3.0113	-7.9532	0.	131.14
3865	-2.492	-7.5655	0.	130.32
3866	-2.7635	-7.7584	0.	133.87
3867	-2.3034	-7.8802	0.	131.17
3868	-2.6896	-7.3294	0.	130.89
3869	-2.882	6.7845	0.	130.78
3870	-3.0948	6.5376	0.	132.02
3871	-3.1621	7.0066	0.	133.71
3872	-2.6636	7.0308	0.	130.55
3873	-2.9444	7.2642	0.	131.13
3874	-3.4543	7.2319	0.	130.79
3875	-3.7533	7.4061	0.	122.8
3876	-3.2366	7.4895	0.	128.11
3877	-3.3759	4.17	0.	126.41
3878	-3.6661	4.3903	0.	119.
3879	-3.1792	4.4056	0.	133.81
3880	-2.9298	4.1658	0.	130.24
3881	-2.7097	4.8664	0.	130.53
3882	-2.9514	4.6313	0.	135.13
3883	-2.702	4.3916	0.	131.66
3884	-2.9517	5.1068	0.	130.69
3885	-2.474	5.1003	0.	127.83
3886	-2.7306	5.3458	0.	126.86
3887	-5.0916	1.2999	0.	119.1
3888	-4.8392	1.1519	0.	125.91
3889	-4.6465	1.4005	0.	126.77
3890	-4.8923	1.5911	0.	122.49
3891	-5.2601	1.0064	0.	111.26
3892	-5.3481	1.4612	0.	116.45
3893	-4.76	-2.3671	0.	122.6
3894	-4.9948	-2.1051	0.	118.58
3895	-5.2355	-2.2794	0.	115.99
3896	-4.5111	-2.1651	0.	129.73
3897	-4.528	-2.6341	0.	124.8
3898	-4.2598	-1.4676	0.	127.56
3899	-4.0112	-1.7132	0.	126.77
3900	-4.0121	-1.2293	0.	123.59
3901	-6.1488	-5.5217	0.	114.25
3902	-6.3711	-5.3068	0.	116.92
3903	-5.912	-5.2555	0.	122.18
3904	-5.0021	-7.828	0.	132.91
3905	-4.761	-8.0758	0.	131.47
3906	-5.0131	-8.3058	0.	131.93
3907	-5.2613	-8.0499	0.	135.54
3908	-4.7534	-7.6146	0.	131.69
3909	-4.9553	-7.3547	0.	128.58
3910	-5.243	-7.5661	0.	131.76
3911	6.5118	4.2029e-002	0.	132.03
3912	6.9259	-5.7325e-002	0.	129.41
3913	6.7757	0.21204	0.	131.72
3914	5.9792	0.46718	0.	135.01
3915	6.0601	0.86696	0.	131.4
3916	6.2338	0.6108	0.	134.34
3917	3.6744	-1.8823	0.	129.19
3918	3.8511	-1.5857	0.	131.27
3919	3.9562	-2.0496	0.	127.68
3920	3.4985	-2.1821	0.	128.51
3921	4.5367	-2.3499	0.	120.04
3922	4.2388	-2.2091	0.	124.34
3923	4.7174	-2.0363	0.	113.66
3924	3.6514	1.0573	0.	132.19
3925	3.9054	1.2803	0.	125.06
3926	3.4207	0.31579	0.	128.02
3927	2.8913	0.26941	0.	126.58
3928	3.1559	0.55349	0.	128.9
3929	7.682	1.1613	0.	121.71
3930	8.1483	1.0255	0.	121.53
3931	7.8495	0.86145	0.	114.35
3932	7.4099	0.9982	0.	125.25
3933	7.2316	1.284	0.	125.86
3934	6.4655	-1.1747	0.	133.38
3935	6.7079	-0.95283	0.	130.59
3936	6.6754	-1.4234	0.	137.65
3937	7.3305	-1.6433	0.	125.83
3938	7.5152	-1.881	0.	122.46
3939	7.0848	-1.9037	0.	128.93
3940	-7.86	5.0935	0.	123.4
3941	-8.3333	5.0495	0.	128.15
3942	-8.1121	5.3057	0.	130.43
3943	-8.0808	4.8233	0.	126.62
3944	-7.6445	5.3634	0.	115.6
3945	-5.9527	7.5567	0.	126.85
3946	-5.6607	7.7541	0.	125.83
3947	-5.8189	7.2682	0.	121.62
3948	5.1037	-7.2673	0.	128.97
3949	4.8505	-7.5209	0.	130.75
3950	5.3957	-7.5077	0.	127.82
3951	4.8113	-7.0258	0.	127.37
3952	3.2447	-6.9975	0.	126.68
3953	2.7424	-6.9909	0.	134.26
3954	2.978	-7.2376	0.	132.2
3955	3.764	-6.5104	0.	120.77
3956	4.0179	-6.7751	0.	116.16
3957	4.276	-6.5234	0.	120.94
3958	3.5038	-6.7528	0.	122.02
3959	3.5111	-6.2466	0.	123.15
3960	-4.4727	-7.4289	0.	131.36
3961	-4.2659	-7.5896	0.	128.59
3962	-4.5124	-7.8624	0.	130.25
3963	-4.5188	-5.6806	0.	129.04
3964	-4.2778	-5.924	0.	128.1
3965	-4.7442	-5.932	0.	133.46
3966	-4.9791	-5.6883	0.	132.9
3967	-5.4372	-6.5893	0.	127.16
3968	-5.3478	-6.8081	0.	126.65
3969	-5.2173	-6.3704	0.	127.87
3970	-5.0016	-6.6263	0.	124.36
3971	-5.4598	3.8566	0.	121.01
3972	-5.7069	3.5538	0.	119.59
3973	-5.6813	4.0462	0.	119.88
3974	-6.8445	4.7061	0.	129.67
3975	-7.0647	4.4504	0.	127.44
3976	-7.2027	0.29788	0.	130.27
3977	-6.9154	0.14541	0.	131.11
3978	-6.8072	0.48346	0.	127.91
3979	-7.4878	3.1847e-002	0.	129.05
3980	-7.2949	9.329e-003	0.	130.5
3981	-6.7736	-1.4449	0.	130.47
3982	-7.0235	-1.6569	0.	130.38
3983	-6.5967	-1.8217	0.	125.9
3984	-7.603	-0.38043	0.	126.85
3985	-7.3931	-0.17484	0.	128.96
3986	-7.6354	-0.85183	0.	126.93
3987	-7.3906	-0.63045	0.	125.46
3988	-7.8429	-0.56941	0.	126.13
3989	-7.4216	-1.1162	0.	130.5
3990	-7.8787	-1.0717	0.	127.4
3991	-7.7991	-6.0014	0.	131.4
3992	-7.375	-5.8733	0.	128.1
3993	-7.512	-6.21	0.	132.08
3994	-8.2579	-6.0271	0.	130.47
3995	-7.9763	-6.2644	0.	130.08
3996	-8.0428	-5.7716	0.	130.9
3997	-8.2065	-7.9999	0.	130.94
3998	-7.7129	-8.0081	0.	130.58
3999	-7.9264	-7.7471	0.	131.72
4000	-7.9679	-8.2522	0.	130.61
4001	8.4242	1.2131	0.	123.55
4002	8.6623	0.88711	0.	126.33
4003	8.2972	0.69879	0.	124.08
4004	8.4779	1.7329	0.	124.28
4005	8.7109	1.424	0.	125.45
4006	8.504	2.256	0.	124.69
4007	8.7379	1.9672	0.	125.43
4008	8.5181	2.7729	0.	124.99
4009	8.7584	2.4998	0.	125.65
4010	8.5224	3.2801	0.	125.09
4011	8.7666	3.0155	0.	125.8
4012	8.5209	3.7802	0.	125.1
4013	8.768	3.5218	0.	125.86
4014	8.5164	4.276	0.	125.14
4015	8.7654	4.0216	0.	125.93
4016	8.5116	4.77	0.	125.39
4017	8.7615	4.5179	0.	126.09
4018	8.7578	5.0133	0.	126.54
4019	8.5076	5.2644	0.	126.12
4020	-7.7377	8.4916	0.	123.49
4021	-8.2386	8.4732	0.	127.06
4022	-7.9787	8.1975	0.	128.
4023	-7.9896	8.7297	0.	124.87
4024	-7.2441	8.5194	0.	121.6
4025	-7.4938	8.7585	0.	122.1
4026	-7.4843	8.2847	0.	119.88
4027	-6.7596	8.5497	0.	122.73
4028	-7.0011	8.7736	0.	122.01
4029	-6.2819	8.5622	0.	124.47
4030	-6.5176	8.8062	0.	123.51
4031	-6.5163	8.3584	0.	124.61
4032	-5.8006	8.5324	0.	125.13
4033	-6.0336	8.7921	0.	124.54
4034	-5.3173	8.4989	0.	124.75
4035	-5.5453	8.7624	0.	124.64
4036	-5.5813	8.2575	0.	125.45
4037	-4.8284	8.4778	0.	124.
4038	-5.058	8.7388	0.	124.17
4039	-4.3272	8.4531	0.	123.68
4040	-4.5613	8.725	0.	123.74
4041	-3.8141	8.4462	0.	124.33
4042	-4.0573	8.7012	0.	123.92
4043	-3.2919	8.4707	0.	125.62
4044	-3.5441	8.7147	0.	124.87
4045	-2.7706	8.4934	0.	126.64
4046	-3.0266	8.7356	0.	125.97
4047	-2.2554	8.5066	0.	126.94
4048	-2.5123	8.7503	0.	126.57
4049	-1.746	8.5133	0.	126.73
4050	-2.0021	8.7582	0.	126.64
4051	-1.2413	8.5163	0.	126.32
4052	-1.4961	8.7622	0.	126.42
4053	-0.73981	8.5168	0.	125.93
4054	-0.99313	8.7637	0.	126.13
4055	-0.23995	8.5166	0.	125.61
4056	-0.49259	8.7634	0.	125.86
4057	0.25879	8.5145	0.	125.36
4058	7.4387e-003	8.7634	0.	125.64
4059	0.75668	8.5107	0.	125.15
4060	0.5059	8.76	0.	125.46
4061	0.51127	8.2675	0.	125.06
4062	1.2548	8.5074	0.	124.95
4063	1.0044	8.7571	0.	125.3
4064	1.7532	8.5048	0.	124.75
4065	1.5031	8.7548	0.	125.14
4066	2.2519	8.5032	0.	124.51
4067	2.002	8.7531	0.	124.96
4068	2.5012	8.7521	0.	124.75
4069	2.7511	8.5025	0.	124.24
4070	3.7502	8.502	0.	123.88
4071	3.5003	8.7519	0.	124.32
4072	3.2505	8.5023	0.	123.99
4073	4.2501	8.5016	0.	124.31
4074	4.0002	8.7514	0.	124.3
4075	4.7501	8.5013	0.	125.9
4076	4.5001	8.7511	0.	124.9
4077	5.0001	8.7509	0.	127.02
4078	5.2501	8.5012	0.	130.73
4079	-8.4686	-8.2492	0.	129.73
4080	-8.7142	-7.9991	0.	129.26
4081	-8.4416	-7.7492	0.	128.96
4082	-8.5096	-5.7877	0.	129.53
4083	-8.7426	-6.0299	0.	128.77
4084	-8.4701	-6.2788	0.	128.08
4085	-8.5318	-5.2941	0.	129.59
4086	-8.7682	-5.535	0.	129.45
4087	-8.2944	-5.5322	0.	129.96
4088	-8.5482	-4.7987	0.	129.11
4089	-8.7805	-5.0394	0.	129.35
4090	-8.564	-4.3	0.	128.7
4091	-8.7945	-4.5413	0.	129.07
4092	-8.3348	-4.5573	0.	128.36
4093	-8.5745	-3.7997	0.	128.58
4094	-8.805	-4.0412	0.	128.9
4095	-8.3522	-4.0589	0.	128.08
4096	-8.8126	-3.5407	0.	128.91
4097	-8.3541	-3.5599	0.	128.17
4098	-8.5884	-3.2988	0.	128.71
4099	-8.6004	-2.2925	0.	128.92
4100	-8.8315	-2.5367	0.	129.02
4101	-8.5993	-2.7968	0.	128.91
4102	-8.3752	-2.5563	0.	128.97
4103	-8.5952	-1.7855	0.	128.51
4104	-8.8313	-2.0314	0.	128.75
4105	-8.3732	-2.0519	0.	129.07
4106	-8.8223	-1.5231	0.	128.09
4107	-8.5788	-1.2752	0.	127.66
4108	-8.3611	-1.5447	0.	128.45
4109	-8.499	-0.23915	0.	127.04
4110	-8.7713	-0.49699	0.	126.95
4111	-8.2981	-0.51532	0.	126.37
4112	-8.5491	-0.75973	0.	126.94
4113	-8.4235	0.28018	0.	127.86
4114	-8.721	1.9633e-002	0.	127.44
4115	-8.393	0.79562	0.	128.62
4116	-8.6597	0.53058	0.	128.3
4117	-8.421	1.3092	0.	128.85
4118	-8.6744	1.0398	0.	128.82
4119	-8.4461	1.8183	0.	128.74
4120	-8.696	1.5485	0.	128.96
4121	-8.4826	2.8149	0.	128.55
4122	-8.7287	2.5495	0.	128.91
4123	-8.4654	2.3189	0.	128.61
4124	-8.2193	2.5971	0.	128.09
4125	-8.4997	3.3105	0.	128.55
4126	-8.7427	3.0473	0.	128.89
4127	-8.2379	3.0896	0.	128.15
4128	-8.5182	3.8046	0.	128.52
4129	-8.7574	3.5435	0.	128.83
4130	-8.5383	4.2972	0.	128.53
4131	-8.7735	4.0386	0.	128.72
4132	-8.5597	4.7882	0.	129.25
4133	-8.7905	4.5316	0.	128.73
4134	-8.3072	4.562	0.	127.72
4135	-8.8085	5.024	0.	129.49
4136	-8.5822	5.2768	0.	130.91
4137	-8.6145	6.2437	0.	128.45
4138	-8.8414	6.002	0.	128.6
4139	-8.3846	6.0077	0.	132.83
4140	-8.6027	5.7617	0.	131.01
4141	-8.6105	6.7273	0.	127.71
4142	-8.8451	6.4892	0.	126.09
4143	-8.393	6.4765	0.	130.19
4144	-8.583	7.2176	0.	131.42
4145	-8.8328	6.9797	0.	127.57
4146	-8.3827	6.9482	0.	131.16
4147	-8.5328	7.7155	0.	134.07
4148	-8.8001	7.4761	0.	131.66
4149	-8.3388	7.4353	0.	138.46
4150	-8.4974	8.2205	0.	131.39
4151	-8.2375	7.9447	0.	132.24
4152	-8.7567	7.976	0.	131.89
4153	-8.7448	8.4811	0.	128.49
4154	-8.4925	8.7303	0.	127.33
4155	-0.75634	-7.993	0.	131.19
4156	-1.0101	-8.243	0.	131.4
4157	-1.5125	-8.7518	0.	131.61
4158	-1.2646	-8.4969	0.	131.77
4159	-1.7704	-8.51	0.	131.35
4160	-3.0157	-8.8381	0.	126.43
4161	-3.2694	-8.602	0.	124.13
4162	-2.7701	-8.6012	0.	127.93
4163	-4.2652	-8.5658	0.	125.34
4164	-4.0144	-8.8099	0.	124.02
4165	-3.7672	-8.5822	0.	122.71
4166	-4.0149	-8.3248	0.	121.41
4167	-4.5137	-8.8004	0.	126.9
4168	-4.5127	-8.3231	0.	128.52
4169	-4.7647	-8.5531	0.	128.96
4170	-6.5102	-8.7309	0.	117.25
4171	-6.5305	-8.1859	0.	112.41
4172	-6.2664	-8.4816	0.	117.7
4173	-6.7579	-8.4882	0.	117.8
4174	-8.4848	-8.7498	0.	129.15
4175	-8.7313	-8.4989	0.	129.35
4176	-8.23	-8.5014	0.	129.39
4177	6.8969	-8.7133	0.	127.03
4178	7.1355	-8.4454	0.	126.51
4179	6.6111	-8.4663	0.	126.57
4180	5.8754	-8.7385	0.	127.72
4181	6.0956	-8.4818	0.	126.4
4182	5.5918	-8.4907	0.	127.03
4183	8.5993	-1.7701	0.	126.86
4184	8.8387	-1.5164	0.	130.65
4185	8.6097	-1.2944	0.	133.78
4186	8.8142	-2.0071	0.	127.23
4187	8.5546	-2.2512	0.	125.07
4188	8.4893	-4.2392	0.	126.13
4189	8.7402	-3.9913	0.	126.43
4190	8.4881	-3.7371	0.	125.83
4191	8.7424	-4.4922	0.	126.53
4192	8.4932	-4.7403	0.	126.29
4193	8.7568	-6.4877	0.	126.27
4194	8.5076	-6.2354	0.	126.28
4195	8.5078	-6.7324	0.	126.2
4196	8.2537	6.0085	0.	126.63
4197	8.0031	6.2577	0.	125.33
4198	8.7527	6.0055	0.	129.53
4199	8.5024	6.2553	0.	131.4
4200	8.5046	5.7593	0.	127.85
4201	-6.1843	3.9176	0.	119.7
4202	-6.4884	4.0709	0.	125.2
4203	-7.8718	-6.7516	0.	126.83
4204	-7.6892	-6.473	0.	130.77
4205	-8.1885	-6.516	0.	127.74
4206	-7.8551	-7.2437	0.	128.36
4207	-8.1076	-7.0014	0.	125.86
4208	-7.1768	-0.89483	0.	128.94
4209	-6.9652	-1.1707	0.	132.48
4210	-7.215	-1.3827	0.	132.53
4211	-7.1807	-0.42486	0.	127.47
4212	-7.0076	-0.14314	0.	131.25
4213	-5.9404	4.2055	0.	113.64
4214	-5.9283	3.7434	0.	118.46
4215	-4.5032	-6.1754	0.	132.34
4216	-4.9719	-6.1619	0.	132.39
4217	-4.7562	-6.4177	0.	128.73
4218	-4.6747	-7.169	0.	128.33
4219	-5.1914	-7.072	0.	126.31
4220	-4.8452	-6.8902	0.	123.98
4221	3.7577	-7.0176	0.	117.24
4222	3.478	-7.2481	0.	125.41
4223	4.2817	-7.0306	0.	119.16
4224	4.5582	-7.2794	0.	129.23
4225	4.5398	-6.7788	0.	123.98
4226	8.8101	0.57175	0.	130.57
4227	9.2207	0.89908	0.	129.3
4228	9.179	0.65668	0.	129.67
4229	8.949	1.098	0.	128.24
4230	8.9922	2.211	0.	126.39
4231	9.2334	1.9501	0.	127.31
4232	8.9708	1.6583	0.	126.6
4233	9.2498	2.4811	0.	127.26
4234	9.0069	2.7425	0.	126.46
4235	9.0126	3.7631	0.	126.68
4236	9.2594	3.5071	0.	127.39
4237	9.0123	3.2573	0.	126.57
4238	9.0105	4.2635	0.	126.87
4239	9.2588	4.0101	0.	127.55
4240	9.0077	4.7612	0.	127.25
4241	9.2568	4.5092	0.	127.83
4242	9.005	5.2582	0.	127.98
4243	9.2547	5.0071	0.	128.27
4244	9.003	5.7555	0.	129.24
4245	9.2529	5.5049	0.	128.93
4246	8.7549	5.5092	0.	127.56
4247	9.2517	6.0031	0.	129.75
4248	9.0017	6.2534	0.	130.6
4249	9.	8.7501	0.	127.52
4250	8.75	8.5001	0.	131.66
4251	9.25	8.5001	0.	125.95
4252	9.	8.2502	0.	128.67
4253	-7.8966	5.5756	0.	122.66
4254	-8.1428	5.779	0.	134.77
4255	-8.3609	5.533	0.	133.11
4256	-7.7728	7.7883	0.	120.23
4257	-8.0435	7.6644	0.	136.35
4258	-7.7253	7.9905	0.	124.39
4259	6.9178	-1.2015	0.	134.61
4260	7.1197	-1.4214	0.	132.82
4261	6.8741	-1.6818	0.	136.14
4262	7.3069	0.54901	0.	131.92
4263	7.5774	0.69831	0.	117.77
4264	7.1547	0.82877	0.	130.01
4265	3.6605	0.57198	0.	131.93
4266	3.8935	0.7977	0.	128.8
4267	3.3957	0.80968	0.	132.98
4268	4.4195	-1.8956	0.	117.87
4269	4.1328	-1.753	0.	129.69
4270	6.24	-0.14278	0.	130.05
4271	6.1177	0.1795	0.	135.97
4272	6.3723	0.32312	0.	135.66
4273	-5.9154	-5.7343	0.	121.85
4274	-5.6686	-5.928	0.	133.51
4275	-5.4435	-5.6953	0.	133.64
4276	-5.6785	-5.4681	0.	129.81
4277	-4.5068	-1.6964	0.	131.36
4278	-4.7459	-1.9031	0.	125.57
4279	-4.2581	-1.9421	0.	130.77
4280	-4.6092	0.95803	0.	131.07
4281	-5.0077	0.85838	0.	118.07
4282	-4.6833	0.72085	0.	131.64
4283	-3.1934	4.8717	0.	134.97
4284	-3.4694	4.6259	0.	126.3
4285	-3.3749	6.7597	0.	134.69
4286	-3.6558	6.9395	0.	123.15
4287	-2.9612	-7.5222	0.	134.15
4288	-3.2447	-7.7107	0.	119.69
4289	-2.8536	-6.1424	0.	133.57
4290	-3.0952	-5.9245	0.	125.
4291	-2.87	-5.6759	0.	133.51
4292	8.5011	6.7528	0.	133.74
4293	8.2519	6.5045	0.	130.03
4294	8.7514	6.5032	0.	132.45
4295	8.75	9.	0.	129.06
4296	9.25	9.	0.	125.56
4297	9.	9.25	0.	126.75
4298	9.0471	-1.2416	0.	133.88
4299	8.9889	-0.70015	0.	128.74
4300	9.2719	-0.9829	0.	131.48
4301	8.8181	-1.0197	0.	136.8
4302	9.0536	-1.7533	0.	131.05
4303	9.2919	-1.4984	0.	131.7
4304	9.2846	-2.0027	0.	129.45
4305	9.0351	-2.2529	0.	128.14
4306	8.9988	-3.2462	0.	126.82
4307	9.253	-2.9989	0.	127.73
4308	8.7509	-2.9916	0.	125.97
4309	9.0128	-2.7493	0.	127.09
4310	8.9936	-3.7446	0.	126.82
4311	9.2464	-3.4969	0.	127.5
4312	8.7415	-3.4904	0.	126.22
4313	8.9933	-4.2443	0.	126.83
4314	9.2448	-3.996	0.	127.34
4315	8.9951	-4.7444	0.	126.78
4316	9.2455	-4.4959	0.	127.16
4317	8.9982	-5.244	0.	126.67
4318	9.2473	-4.9959	0.	126.96
4319	8.746	-4.9925	0.	126.54
4320	9.0011	-5.7435	0.	126.54
4321	9.2499	-5.4953	0.	126.74
4322	8.7508	-5.4911	0.	126.49
4323	9.0032	-6.2427	0.	126.38
4324	9.2517	-5.995	0.	126.52
4325	8.7539	-5.9904	0.	126.39
4326	9.0024	-6.7424	0.	126.23
4327	9.2528	-6.4942	0.	126.31
4328	8.9962	-7.243	0.	126.1
4329	9.2501	-6.9951	0.	126.12
4330	8.7534	-6.9871	0.	126.15
4331	8.9862	-7.7425	0.	126.02
4332	9.2437	-7.4954	0.	125.98
4333	8.7406	-7.487	0.	126.07
4334	8.9783	-8.2413	0.	126.
4335	9.236	-7.9946	0.	125.9
4336	8.7222	-7.9851	0.	126.06
4337	8.9775	-8.7408	0.	126.03
4338	9.2326	-8.4935	0.	125.87
4339	8.7164	-8.4841	0.	126.11
4340	8.7224	-8.9868	0.	126.21
4341	9.2345	-8.9934	0.	125.89
4342	8.9837	-9.2427	0.	126.08
4343	8.2083	-8.9768	0.	126.52
4344	8.4735	-9.2363	0.	126.43
4345	8.4613	-8.7301	0.	126.29
4346	7.6928	-8.9668	0.	126.86
4347	7.9628	-9.228	0.	126.81
4348	7.9404	-8.7138	0.	126.53
4349	7.1784	-8.9663	0.	127.28
4350	7.4513	-9.2223	0.	127.29
4351	7.417	-8.6983	0.	126.76
4352	6.9427	-9.2274	0.	127.92
4353	6.6667	-8.9753	0.	127.83
4354	5.6623	-8.9916	0.	130.26
4355	5.9347	-9.2416	0.	130.06
4356	6.1606	-8.9849	0.	128.7
4357	5.1725	-8.9955	0.	135.15
4358	5.4381	-9.2454	0.	131.86
4359	5.3787	-8.7438	0.	129.56
4360	3.2143	-8.9795	0.	132.73
4361	3.4704	-9.2305	0.	123.38
4362	3.7081	-8.9748	0.	114.01
4363	2.7238	-8.9917	0.	135.54
4364	2.9579	-8.7337	0.	134.14
4365	2.9772	-9.2403	0.	135.3
4366	2.2329	-8.9984	0.	127.08
4367	2.4743	-8.7453	0.	131.2
4368	2.4841	-9.2475	0.	130.34
4369	1.7398	-9.0004	0.	119.85
4370	1.9862	-8.7497	0.	122.91
4371	1.99	-9.2502	0.	123.76
4372	1.2443	-9.0005	0.	115.01
4373	1.4929	-8.7502	0.	114.31
4374	1.4941	-9.2505	0.	117.55
4375	0.74676	-9.0002	0.	114.96
4376	0.99624	-8.7501	0.	112.91
4377	0.99669	-9.2503	0.	114.99
4378	0.24754	-8.9996	0.	119.57
4379	0.4975	-8.7499	0.	114.51
4380	0.49795	-9.25	0.	117.1
4381	-0.2531	-8.999	0.	126.02
4382	-2.6895e-003	-8.7492	0.	123.7
4383	-1.8859e-003	-9.2495	0.	122.68
4384	-0.75462	-8.9989	0.	130.35
4385	-0.50492	-8.7478	0.	131.03
4386	-0.50251	-9.2491	0.	128.27
4387	-1.2562	-9.0021	0.	131.62
4388	-1.0036	-9.2498	0.	130.97
4389	-1.0083	-8.7472	0.	131.78
4390	-1.7574	-9.0138	0.	131.37
4391	-1.5044	-9.2546	0.	131.53
4392	-2.2582	-9.0375	0.	130.2
4393	-2.005	-9.2674	0.	130.94
4394	-2.0154	-8.772	0.	131.12
4395	-2.7598	-9.0592	0.	128.05
4396	-2.5057	-9.2885	0.	129.33
4397	-2.5142	-8.8223	0.	129.55
4398	-3.2621	-9.0634	0.	125.72
4399	-3.008	-9.2982	0.	127.04
4400	-3.7629	-9.0551	0.	124.71
4401	-3.5097	-9.2953	0.	125.26
4402	-3.5158	-8.8273	0.	123.43
4403	-4.2629	-9.0445	0.	125.59
4404	-4.01	-9.2868	0.	125.1
4405	-4.763	-9.0345	0.	126.83
4406	-4.5101	-9.2799	0.	126.14
4407	-5.263	-9.0218	0.	126.25
4408	-5.0103	-9.2716	0.	126.43
4409	-5.014	-8.7873	0.	128.91
4410	-5.762	-9.0067	0.	123.28
4411	-5.51	-9.2609	0.	124.68
4412	-5.5145	-8.7684	0.	126.78
4413	-6.2586	-8.9952	0.	120.28
4414	-6.0082	-9.2498	0.	121.56
4415	-6.0148	-8.7459	0.	120.79
4416	-6.7531	-8.9961	0.	120.25
4417	-6.5044	-9.2448	0.	120.05
4418	-7.2477	-9.0029	0.	123.02
4419	-7.0001	-9.2504	0.	121.53
4420	-7.0009	-8.7534	0.	120.83
4421	-7.4967	-9.2536	0.	124.55
4422	-7.4926	-8.7578	0.	125.78
4423	-7.7435	-9.004	0.	126.2
4424	-8.4934	-9.2502	0.	128.35
4425	-8.241	-9.0015	0.	128.12
4426	-8.7411	-8.9995	0.	128.86
4427	-8.9769	-8.2488	0.	128.88
4428	-9.2374	-8.4987	0.	128.9
4429	-8.9877	-8.7486	0.	129.06
4430	-8.9625	-7.7511	0.	128.13
4431	-9.2277	-7.9995	0.	128.3
4432	-8.9514	-7.2567	0.	127.07
4433	-9.2168	-7.5023	0.	127.32
4434	-8.6898	-7.5012	0.	127.83
4435	-8.9564	-6.765	0.	126.86
4436	-9.2126	-7.0081	0.	126.59
4437	-8.6754	-7.0095	0.	126.5
4438	-8.9777	-6.2724	0.	127.73
4439	-9.224	-6.5148	0.	126.99
4440	-8.7052	-6.5213	0.	127.05
4441	-9.0013	-5.7772	0.	128.69
4442	-9.2428	-6.0195	0.	127.97
4443	-9.017	-5.2802	0.	129.2
4444	-9.2583	-5.5222	0.	128.83
4445	-9.0269	-4.782	0.	129.31
4446	-9.2661	-5.0237	0.	129.31
4447	-9.0356	-4.2825	0.	129.26
4448	-9.273	-4.5244	0.	129.52
4449	-9.0432	-3.7822	0.	129.22
4450	-9.279	-4.0244	0.	129.58
4451	-9.051	-3.2813	0.	129.2
4452	-9.2846	-3.524	0.	129.56
4453	-9.059	-2.7794	0.	129.11
4454	-9.2909	-3.023	0.	129.43
4455	-8.8268	-3.0395	0.	129.
4456	-9.0624	-2.2755	0.	128.84
4457	-9.2963	-2.5208	0.	129.13
4458	-9.0584	-1.769	0.	128.34
4459	-9.2957	-2.0165	0.	128.61
4460	-9.0469	-1.2598	0.	127.71
4461	-9.29	-1.5102	0.	127.95
4462	-9.0256	-0.74918	0.	127.27
4463	-9.2782	-1.0024	0.	127.37
4464	-8.8034	-1.0119	0.	127.27
4465	-9.2581	-0.49417	0.	127.18
4466	-8.9933	-0.23821	0.	127.34
4467	-8.9411	0.77474	0.	128.5
4468	-9.2069	0.51692	0.	128.19
4469	-8.9572	0.27004	0.	127.87
4470	-9.2077	1.0187	0.	128.82
4471	-8.9494	1.279	0.	128.94
4472	-8.9772	2.2818	0.	129.25
4473	-9.2283	2.0217	0.	129.57
4474	-8.7139	2.0512	0.	128.94
4475	-8.9638	1.7814	0.	129.16
4476	-8.9888	2.7818	0.	129.25
4477	-9.2373	2.5224	0.	129.7
4478	-9.0004	3.2802	0.	129.17
4479	-9.246	3.0218	0.	129.68
4480	-9.2549	3.5202	0.	129.49
4481	-9.0127	3.7776	0.	129.03
4482	-9.0393	4.7675	0.	128.97
4483	-9.2742	4.5138	0.	128.74
4484	-9.0256	4.2731	0.	128.93
4485	-9.0534	5.2615	0.	128.89
4486	-9.2848	5.01	0.	128.3
4487	-9.0657	5.7546	0.	127.88
4488	-9.2954	5.5057	0.	127.42
4489	-8.827	5.5143	0.	130.31
4490	-9.072	6.2474	0.	126.19
4491	-9.3028	6.0007	0.	125.7
4492	-9.0674	6.7416	0.	125.88
4493	-9.3039	6.4962	0.	124.35
4494	-9.0499	7.2382	0.	127.77
4495	-9.2955	6.9933	0.	125.17
4496	-9.0241	7.7365	0.	129.42
4497	-9.2782	7.4918	0.	127.33
4498	-9.0041	8.2366	0.	129.
4499	-9.2585	7.9908	0.	128.18
4500	-8.9971	8.739	0.	127.3
4501	-9.2491	8.4913	0.	127.44
4502	-8.7449	8.9882	0.	126.13
4503	-9.2473	8.9935	0.	126.14
4504	-8.9969	9.2431	0.	125.63
4505	-8.2436	8.9867	0.	125.15
4506	-8.4954	9.2396	0.	125.17
4507	-7.7456	8.9965	0.	123.49
4508	-7.9957	9.2417	0.	123.93
4509	-7.2508	9.0127	0.	122.5
4510	-7.4987	9.2536	0.	122.68
4511	-6.7591	9.0301	0.	122.79
4512	-7.0036	9.2654	0.	122.38
4513	-6.2693	9.0361	0.	123.58
4514	-6.511	9.2792	0.	122.88
4515	-5.7783	9.0221	0.	124.05
4516	-6.0174	9.2739	0.	123.42
4517	-5.286	9.0023	0.	124.06
4518	-5.523	9.2592	0.	123.65
4519	-4.791	8.9859	0.	123.91
4520	-5.028	9.2449	0.	123.67
4521	-4.2914	8.9731	0.	123.98
4522	-4.5301	9.2347	0.	123.73
4523	-3.7873	8.9698	0.	124.46
4524	-4.0292	9.2262	0.	124.07
4525	-3.2789	8.9795	0.	125.22
4526	-3.5253	9.2297	0.	124.71
4527	-2.7684	8.9924	0.	125.9
4528	-3.0182	9.2394	0.	125.43
4529	-2.2591	9.0018	0.	126.26
4530	-2.5107	9.2482	0.	125.96
4531	-1.7522	9.0071	0.	126.33
4532	-2.0045	9.2536	0.	126.22
4533	-1.2479	9.0096	0.	126.22
4534	-1.5003	9.2563	0.	126.28
4535	-0.74591	9.0102	0.	126.06
4536	-0.99783	9.2576	0.	126.22
4537	-0.2452	9.0102	0.	125.89
4538	-0.49686	9.2575	0.	126.12
4539	0.25455	9.0089	0.	125.74
4540	3.503e-003	9.2575	0.	126.01
4541	0.75366	9.0065	0.	125.61
4542	0.50299	9.2556	0.	125.9
4543	1.2527	9.0045	0.	125.48
4544	1.0023	9.254	0.	125.8
4545	1.7519	9.003	0.	125.35
4546	1.5017	9.2527	0.	125.71
4547	2.2512	9.002	0.	125.21
4548	2.0011	9.2518	0.	125.64
4549	2.7507	9.0014	0.	125.04
4550	2.5007	9.2512	0.	125.57
4551	3.2504	9.0013	0.	124.86
4552	3.0004	9.2509	0.	125.51
4553	3.0006	8.7518	0.	124.52
4554	3.7502	9.0012	0.	124.75
4555	3.5002	9.251	0.	125.48
4556	4.2501	9.0009	0.	124.9
4557	4.0001	9.2507	0.	125.54
4558	4.7501	9.0007	0.	126.03
4559	4.5001	9.2506	0.	125.85
4560	5.2501	9.0005	0.	128.65
4561	5.0001	9.2504	0.	127.15
4562	5.5015	6.7629	0.	132.46
4563	5.7523	6.5149	0.	129.24
4564	-4.1938	1.443	0.	127.05
4565	-4.4165	1.2067	0.	131.97
4566	-2.502	1.2806	0.	131.2
4567	-2.7568	1.5132	0.	127.72
4568	-2.4961	-0.24379	0.	128.84
4569	-2.7496	-0.49371	0.	125.68
4570	-2.4986	-0.742	0.	127.67
4571	-0.22535	-5.4816	0.	129.6
4572	-0.47266	-5.7287	0.	132.91
4573	-0.46848	-5.2245	0.	131.8
4574	2.2641	-5.4707	0.	128.59
4575	2.5114	-5.7227	0.	131.59
4576	-0.25451	-8.498	0.	128.65
4577	-0.50487	-8.2461	0.	132.18
4578	-0.75858	-8.4961	0.	132.43
4579	2.7084	-8.4873	0.	129.94
4580	2.2277	-8.4966	0.	127.01
4581	2.4703	-8.2428	0.	130.33
4582	4.9001	-8.7463	0.	130.63
4583	4.6898	-8.9942	0.	130.81
4584	4.9484	-9.2475	0.	134.86
4585	4.6481	-7.7679	0.	135.08
4586	4.7981	-8.2514	0.	129.94
4587	5.1063	-8.4946	0.	125.32
4588	4.4606	-9.2435	0.	122.34
4589	4.2028	-8.9845	0.	112.53
4590	1.7393	-8.4995	0.	117.33
4591	1.2449	-8.4999	0.	112.15
4592	0.74698	-8.4999	0.	112.4
4593	0.24727	-8.4995	0.	118.61
4594	1.7608	-5.4808	0.	120.16
4595	1.2592	-5.487	0.	114.59
4596	0.76015	-5.4897	0.	114.65
4597	0.26487	-5.4888	0.	120.24
4598	-2.4942	0.25774	0.	128.95
4599	-2.4945	0.76403	0.	130.2
4600	-3.2542	-0.49402	0.	116.52
4601	-3.7612	-0.49489	0.	116.55
4602	-4.2731	-0.50299	0.	128.98
4603	-4.0144	-0.74059	0.	122.01
4604	-3.5077	-0.74072	0.	114.63
4605	-3.2493	1.4733	0.	118.76
4606	-3.7296	1.4589	0.	118.64
4607	-3.4998	1.6939	0.	116.61
4608	-4.485	0.7449	0.	134.09
4609	2.504	-6.2347	0.	132.91
4610	2.4763	-7.7411	0.	132.46
4611	2.4878	-7.2408	0.	136.35
4612	2.7235	-7.4875	0.	134.29
4613	2.4975	-6.7399	0.	135.71
4614	-0.49935	-7.7443	0.	132.55
4615	-0.49098	-7.2415	0.	134.34
4616	-0.47858	-6.2335	0.	133.12
4617	-0.48393	-6.7378	0.	134.54
4618	3.4097	-7.7231	0.	129.59
4619	5.5006	7.2566	0.	133.3
4620	5.5003	7.7533	0.	135.2
4621	5.5002	8.2517	0.	135.24
4622	5.5001	8.7508	0.	132.36
4623	5.5001	9.2503	0.	130.19
4624	8.5	8.7501	0.	133.2
4625	8.5	9.25	0.	130.19
4626	8.5	8.2502	0.	136.5
4627	8.5001	7.7505	0.	136.64
4628	8.75	8.0003	0.	133.5
4629	8.5003	7.2513	0.	134.77
4630	8.7505	7.0016	0.	132.32
4631	8.7502	7.5007	0.	132.71
4632	6.2524	6.5114	0.	120.76
4633	6.7524	6.5092	0.	115.88
4634	6.5043	6.2667	0.	117.01
4635	7.2523	6.5074	0.	116.07
4636	7.7522	6.5058	0.	121.25
4637	-2.8636	-6.6107	0.	129.06
4638	-2.9016	-7.0766	0.	130.96
4639	-3.7552	-7.6117	0.	114.31
4640	-4.2246	-7.3791	0.	128.91
4641	-4.0159	-7.8093	0.	123.05
4642	-4.0337	-6.1204	0.	120.85
4643	-3.5667	-6.0019	0.	110.34
4644	-3.3087	6.297	0.	132.13
4645	-3.2505	5.8264	0.	131.24
4646	-3.2056	5.3485	0.	132.11
4647	-2.9845	5.5876	0.	128.54
4648	-3.996	4.7073	0.	114.73
4649	-4.4799	4.8955	0.	121.
4650	-4.9204	5.0812	0.	135.87
4651	-4.3747	4.5459	0.	118.03
4652	-4.5608	6.4902	0.	128.76
4653	-4.1266	6.7715	0.	116.34
4654	-4.8612	6.5912	0.	131.81
4655	-6.2445	4.3589	0.	118.96
4656	-6.6188	1.4452e-002	0.	127.86
4657	-6.2246	0.23741	0.	118.87
4658	-6.5105	0.3525	0.	124.79
4659	-5.8245	0.46928	0.	113.6
4660	-5.415	0.68216	0.	110.02
4661	-4.5346	-0.26239	0.	133.53
4662	-4.5489	0.24666	0.	133.24
4663	-4.5143	-1.2269	0.	129.94
4664	-4.5253	-0.75098	0.	133.06
4665	-4.2666	-0.98857	0.	126.04
4666	-6.5256	-1.2982	0.	126.21
4667	-6.0982	-1.4819	0.	117.22
4668	-6.3486	-1.6749	0.	121.68
4669	-5.664	-1.6553	0.	112.45
4670	-5.2157	-1.8072	0.	114.14
4671	-5.4563	-1.9815	0.	111.79
4672	-6.9154	-5.8343	0.	119.47
4673	-7.1051	-6.0069	0.	125.13
4674	-6.4055	-5.8352	0.	111.28
4675	-6.6278	-5.6203	0.	114.4
4676	-6.8473	-6.0776	0.	119.5
4677	-5.6519	-6.3697	0.	130.92
4678	-5.4319	-6.1508	0.	131.81
4679	-5.5543	-6.8055	0.	128.16
4680	-5.479	-7.2834	0.	129.18
4681	-5.5022	-7.788	0.	134.19
4682	-6.751	-7.7539	0.	114.49
4683	-6.9849	-7.8245	0.	120.43
4684	-7.177	-7.5569	0.	127.14
4685	-6.2835	-7.948	0.	112.31
4686	-6.7805	-7.9722	0.	115.61
4687	-6.0195	-8.2437	0.	118.1
4688	-5.7658	-8.014	0.	126.76
4689	4.8656	-1.6854	0.	114.66
4690	5.2766	-1.3961	0.	120.29
4691	5.7206	0.35304	0.	128.38
4692	5.2949	0.51162	0.	116.7
4693	4.841	0.63503	0.	112.57
4694	4.0258	-1.2979	0.	129.9
4695	3.7153	9.4859e-002	0.	130.66
4696	3.8114	-0.37412	0.	132.59
4697	3.9188	-0.83821	0.	129.49
4698	-6.6445	4.9498	0.	129.62
4699	-6.5549	4.5096	0.	130.57
4700	-6.7347	5.3924	0.	134.26
4701	-6.9877	5.6688	0.	127.11
4702	-6.8313	5.8222	0.	134.42
4703	-5.3977	6.4108	0.	121.07
4704	-5.0767	6.616	0.	126.18
4705	-5.8591	6.5016	0.	112.45
4706	-5.5276	6.6815	0.	120.58
4707	-6.0219	6.7943	0.	112.05
4708	-7.4326	5.6659	0.	111.21
4709	-7.0438	5.8797	0.	119.55
4710	-7.3773	7.581	0.	114.22
4711	-7.5264	7.8554	0.	113.97
4712	-6.593	7.2267	0.	131.32
4713	-6.2873	7.3759	0.	129.67
4714	-6.1535	7.0873	0.	124.53
4715	-6.9902	7.4089	0.	125.67
4716	-6.7052	7.517	0.	130.39
4717	-8.163	6.2404	0.	134.37
4718	-8.1385	7.1659	0.	137.96
4719	-8.1652	6.6974	0.	133.65
4720	6.9858	-0.7472	0.	131.38
4721	7.0845	-0.31416	0.	131.57
4722	7.1941	0.1139	0.	133.23
4723	7.0439	0.38326	0.	135.75
4724	7.9984	0.53477	0.	116.7
4725	9.016	-0.15888	0.	127.84
4726	9.2179	-0.44993	0.	124.81
4727	8.7179	-0.25924	0.	131.89
4728	8.4449	0.38343	0.	128.32
4729	8.8854	0.21274	0.	131.73
4730	8.5874	0.11238	0.	136.17
4731	9.5	8.75	0.	123.99
4732	9.5	9.25	0.	124.37
4733	9.5	8.2501	0.	124.34
4734	9.5001	7.7502	0.	125.3
4735	9.25	8.0002	0.	127.06
4736	9.5002	7.2504	0.	126.72
4737	9.2501	7.5005	0.	127.82
4738	9.5004	6.7508	0.	128.21
4739	9.2504	7.0009	0.	129.15
4740	9.5009	6.2516	0.	129.2
4741	9.2509	6.5019	0.	130.06
4742	9.5016	5.7526	0.	129.44
4743	9.5026	5.2539	0.	129.22
4744	9.5039	4.7552	0.	128.86
4745	9.5051	4.2558	0.	128.51
4746	9.5056	3.754	0.	128.26
4747	9.5043	3.2479	0.	128.11
4748	9.5001	2.7367	0.	128.09
4749	9.2572	2.9981	0.	127.3
4750	9.491	2.2201	0.	128.17
4751	9.4785	1.7035	0.	128.44
4752	9.4876	1.2128	0.	128.79
4753	9.2158	1.4117	0.	127.73
4754	9.4616	0.73671	0.	129.32
4755	9.2544	0.29766	0.	130.9
4756	9.4734	0.2464	0.	128.71
4757	9.3079	4.9747e-002	0.	129.91
4758	9.501	-0.73268	0.	127.11
4759	9.5098	-0.2413	0.	126.9
4760	9.5168	-1.2396	0.	129.18
4761	9.5228	-1.7478	0.	130.09
4762	9.5165	-2.2511	0.	129.57
4763	9.5072	-2.7509	0.	128.91
4764	9.2671	-2.5013	0.	128.26
4765	9.5005	-3.2495	0.	128.41
4766	9.4975	-3.7483	0.	128.02
4767	9.4969	-4.2477	0.	127.67
4768	9.4976	-4.7474	0.	127.34
4769	9.499	-5.2472	0.	127.03
4770	9.5005	-5.7468	0.	126.73
4771	9.5014	-6.2465	0.	126.45
4772	9.5006	-6.7469	0.	126.2
4773	9.4977	-7.2475	0.	126.
4774	9.4935	-7.7474	0.	125.85
4775	9.4903	-8.2468	0.	125.76
4776	9.4896	-8.7461	0.	125.73
4777	9.4921	-9.2466	0.	125.72
4778	9.2412	-9.4959	0.	125.91
4779	8.7348	-9.4923	0.	126.29
4780	8.228	-9.4876	0.	126.72
4781	7.7213	-9.4835	0.	127.24
4782	7.2155	-9.4834	0.	127.93
4783	6.7119	-9.4874	0.	128.9
4784	6.2099	-9.492	0.	130.16
4785	6.4359	-9.2353	0.	128.8
4786	5.7105	-9.4954	0.	131.69
4787	5.2141	-9.4975	0.	131.58
4788	4.7193	-9.4968	0.	126.09
4789	4.2243	-9.4929	0.	117.88
4790	3.7288	-9.4895	0.	117.55
4791	3.9665	-9.2339	0.	108.38
4792	3.2333	-9.4913	0.	125.59
4793	2.7375	-9.496	0.	130.09
4794	2.2412	-9.4992	0.	127.07
4795	1.7443	-9.5003	0.	121.48
4796	1.2465	-9.5004	0.	117.5
4797	0.74788	-9.5002	0.	117.09
4798	0.24853	-9.4998	0.	120.22
4799	-0.25129	-9.4996	0.	124.94
4800	-0.75149	-9.5	0.	128.88
4801	-1.2519	-9.5022	0.	130.88
4802	-1.752	-9.5083	0.	131.09
4803	-2.2525	-9.5184	0.	130.08
4804	-2.7539	-9.5275	0.	128.33
4805	-3.2556	-9.5301	0.	126.58
4806	-3.7568	-9.527	0.	125.65
4807	-4.2573	-9.5222	0.	125.65
4808	-4.7575	-9.517	0.	125.73
4809	-5.2573	-9.5108	0.	124.85
4810	-5.7562	-9.504	0.	122.97
4811	-6.2541	-9.4993	0.	121.32
4812	-6.7514	-9.4991	0.	121.33
4813	-7.2491	-9.5011	0.	123.07
4814	-7.7475	-9.5018	0.	125.39
4815	-8.2466	-9.5008	0.	127.27
4816	-7.9943	-9.2522	0.	127.04
4817	-8.7465	-9.4998	0.	128.43
4818	-9.4967	-9.249	0.	129.39
4819	-9.2474	-9.4993	0.	129.18
4820	-9.4933	-8.7489	0.	128.98
4821	-9.2436	-8.9988	0.	129.14
4822	-9.4882	-8.2494	0.	128.32
4823	-9.482	-7.7507	0.	127.49
4824	-9.478	-7.2538	0.	126.83
4825	-9.4803	-6.758	0.	126.71
4826	-9.4891	-6.2619	0.	127.24
4827	-9.4998	-5.7644	0.	128.12
4828	-9.5074	-5.2657	0.	128.94
4829	-9.5123	-4.7661	0.	129.52
4830	-9.5164	-4.2663	0.	129.84
4831	-9.5204	-3.7662	0.	129.92
4832	-9.5245	-3.2657	0.	129.79
4833	-9.5282	-2.7644	0.	129.44
4834	-9.5296	-2.2617	0.	128.9
4835	-9.5274	-1.7577	0.	128.23
4836	-9.5214	-1.2528	0.	127.61
4837	-9.5108	-0.74742	0.	127.27
4838	-9.4958	-0.24264	0.	127.37
4839	-9.4808	0.26022	0.	127.85
4840	-9.231	1.3331e-002	0.	127.53
4841	-9.4735	0.76091	0.	128.52
4842	-9.476	1.261	0.	129.17
4843	-9.4822	1.7616	0.	129.7
4844	-9.2177	1.5213	0.	129.29
4845	-9.4885	2.2622	0.	130.03
4846	-9.4945	2.7624	0.	130.14
4847	-9.5004	3.2617	0.	130.
4848	-9.5065	3.7603	0.	129.6
4849	-9.5129	4.2585	0.	128.96
4850	-9.2643	4.0178	0.	129.14
4851	-9.5197	4.7563	0.	128.07
4852	-9.5268	5.2542	0.	126.84
4853	-9.5325	5.7518	0.	125.24
4854	-9.5347	6.2494	0.	123.83
4855	-9.532	6.7478	0.	123.61
4856	-9.5238	7.2469	0.	124.72
4857	-9.5126	7.7461	0.	126.08
4858	-9.5035	8.2455	0.	126.61
4859	-9.4986	9.247	0.	125.57
4860	-9.4993	8.7458	0.	126.27
4861	-9.2482	9.4966	0.	125.06
4862	-8.7475	9.4945	0.	124.66
4863	-8.2475	9.4946	0.	123.96
4864	-7.7487	9.4988	0.	123.12
4865	-7.2515	9.5063	0.	122.56
4866	-6.7554	9.5145	0.	122.48
4867	-6.2591	9.517	0.	122.72
4868	-5.7622	9.5109	0.	123.02
4869	-5.265	9.5018	0.	123.26
4870	-4.7672	9.4937	0.	123.48
4871	-4.2679	9.4878	0.	123.82
4872	-3.7672	9.4861	0.	124.32
4873	-3.2647	9.4895	0.	124.92
4874	-2.7605	9.4952	0.	125.49
4875	-2.2562	9.4999	0.	125.91
4876	-1.7526	9.5028	0.	126.17
4877	-1.2502	9.5044	0.	126.28
4878	-0.74878	9.5049	0.	126.28
4879	-0.24815	9.5048	0.	126.24
4880	0.25194	9.5041	0.	126.16
4881	0.75167	9.5031	0.	126.09
4882	1.2513	9.5022	0.	126.03
4883	1.7509	9.5015	0.	126.
4884	2.2506	9.501	0.	126.
4885	2.7504	9.5007	0.	126.04
4886	3.2502	9.5006	0.	126.14
4887	3.7501	9.5005	0.	126.29
4888	4.2501	9.5004	0.	126.51
4889	4.7501	9.5003	0.	127.
4890	5.25	9.5002	0.	128.69
4891	5.75	9.5001	0.	128.69
4892	6.25	9.5	0.	123.49
4893	6.75	9.5	0.	119.93
4894	7.25	9.5	0.	119.82
4895	7.75	9.5	0.	123.04
4896	8.25	9.5	0.	128.01
4897	8.75	9.5	0.	127.85
4898	9.25	9.5	0.	125.56
4899	8.4019	-1.0964	0.	127.55
4900	7.5795	-1.3855	0.	117.13
4901	8.0073	-1.2495	0.	111.95
4902	7.7643	-1.6232	0.	113.97
4903	-6.6397	1.3692	0.	123.05
4904	-6.3946	1.6306	0.	120.94
4905	-0.79211	3.7948	0.	127.96
4906	6.8138	3.6515	0.	122.25
4907	6.8848	-2.1809	0.	130.33
4908	-5.1489	1.7524	0.	119.87
4909	-8.0862	-0.78923	0.	126.57
4910	-8.3372	-1.0336	0.	127.15
4911	-8.1194	-1.3032	0.	127.94
4912	-2.5098	-3.2243	0.	127.58
4913	2.9879	5.7713	0.	125.29
4914	3.2438	5.5355	0.	125.65
4915	8.4765	-7.7295	0.	126.11
4916	8.4978	-7.2311	0.	126.13
4917	4.286	-5.0339	0.	124.79
4918	-0.51984	4.0455	0.	127.34
4919	6.3808	-8.7283	0.	127.38
4920	0.3566	-1.4134	0.	124.76
4921	0.87335	-1.2891	0.	124.48
4922	4.1474	1.0207	0.	121.85
4923	4.3743	0.73709	0.	116.32
4924	8.1935	-8.4672	0.	126.29
4925	7.6646	-8.4454	0.	126.42
4926	-5.2068	-5.9182	0.	131.75
4927	-5.2066	6.8867	0.	125.82
4928	-5.6905	6.9742	0.	119.95
4929	0.39606	-2.2176	0.	124.81
4930	0.2267	-1.7471	0.	124.92
4931	-6.4227	-3.4006	0.	121.4
4932	8.5037	-5.738	0.	126.34
4933	-2.5082	-2.7256	0.	127.08
4934	-2.7602	-2.4736	0.	126.63
4935	-3.7609	-0.98641	0.	119.96
4936	3.2113	-7.4882	0.	130.86
4937	8.4603	-8.2279	0.	126.17
4938	6.3782	2.3468	0.	124.31
4939	6.6047	2.5495	0.	124.07
4940	6.5998	2.1043	0.	125.54
4941	6.8376	2.2914	0.	124.57
4942	6.1406	2.1475	0.	124.66
4943	-7.4805	-8.2628	0.	127.95
4944	-7.2457	-8.5083	0.	123.6
4945	-7.7354	-8.5069	0.	127.94
4946	-7.9863	-8.7531	0.	128.37
4947	2.895	4.4635	0.	125.74
4948	-8.1319	-3.8191	0.	127.66
4949	-8.1382	-3.3198	0.	128.02
4950	-2.9786	-4.2576	0.	126.51
4951	-3.3322	-3.9545	0.	125.71
4952	-7.2427	-8.029	0.	125.34
4953	-7.008	-8.2745	0.	120.99
4954	0.60327	1.6794	0.	126.85
4955	-7.7093	2.6655	0.	126.87
4956	-3.9548	7.1137	0.	115.19
4957	-4.2775	3.7528	0.	120.9
4958	-4.504	4.0257	0.	120.69
4959	-7.4348	-7.7613	0.	132.21
4960	-7.6483	-7.5004	0.	133.27
4961	-4.2624	-8.0821	0.	124.61
4962	9.0003	7.251	0.	130.24
4963	9.0009	6.752	0.	130.98
4964	-8.148	-2.3157	0.	129.11
4965	-8.139	-1.8111	0.	129.
4966	-8.9943	-9.2491	0.	128.93
4967	-7.2422	-6.3436	0.	128.89
4968	1.0641	-0.46185	0.	124.38
4969	1.0878	-1.0012	0.	124.35
4970	-0.17651	6.5598	0.	124.47
4971	-2.5013	-1.2387	0.	125.7
4972	-2.2714	-8.5568	0.	130.46
4973	-2.0497	-8.2515	0.	130.92
4974	-8.3725	-3.0587	0.	128.56
4975	-6.8989	1.6106	0.	124.64
4976	-8.2004	2.1017	0.	128.22
4977	-7.9543	2.3799	0.	127.7
4978	-5.2655	-8.5338	0.	129.39
4979	-5.7673	-8.5075	0.	124.32
4980	6.9818	-4.2419	0.	125.64
4981	6.7283	-3.9997	0.	125.6
4982	-6.6538	1.8719	0.	122.52
4983	3.2004	3.4853	0.	125.64
4984	-6.2282	-3.6923	0.	120.98
4985	-2.6686	-4.4804	0.	127.74
4986	4.5609	4.3634	0.	124.7
4987	8.5137	-2.7394	0.	124.86
4988	8.7756	-2.4971	0.	125.98
4989	-2.9016	-4.7345	0.	126.58
4990	-7.2608	-2.8642	0.	126.56
4991	-4.8709	-3.7897	0.	122.44
4992	-0.71223	-4.9681	0.	130.83
4993	6.6271	-7.221	0.	126.2
4994	-6.3995	7.6663	0.	128.34
4995	8.4936	-3.2358	0.	125.37
4996	-6.775	4.2539	0.	128.55
4997	-7.0845	-4.1746	0.	123.12
4998	-0.24074	5.3205	0.	125.07
4999	9.0001	7.7505	0.	129.57
5000	-7.9746	2.8719	0.	127.68
5001	6.3622	1.905	0.	125.88
5002	6.5773	1.6543	0.	127.86
5003	5.2182e-002	-1.2607	0.	124.93
5004	-8.123	-4.3162	0.	127.74
5005	-5.5137	-8.2779	0.	133.12
5006	0.45464	-2.7104	0.	124.58
5007	0.66723	-2.4308	0.	124.63
5008	-0.48599	5.0678	0.	125.43
5009	0.90939	2.9567	0.	127.33
5010	-6.5662	-5.057	0.	117.36
5011	-8.1484	-2.8182	0.	128.61
5012	4.8244	4.1277	0.	123.98
5013	8.4986	-5.2396	0.	126.35
5014	-2.8938	-5.2057	0.	127.41
5015	-2.2477	-0.99199	0.	126.52
5016	-8.1614	-7.4964	0.	129.79
5017	-5.0858	-3.5308	0.	121.22
5018	6.3006	1.0248	0.	131.54
5019	-8.4242	-6.7658	0.	126.67
5020	0.59143	1.1606	0.	126.2
5021	-8.4138	-7.2541	0.	127.25
5022	-6.7393	-4.7622	0.	120.34
5023	-6.5069	-4.5033	0.	120.26
5024	-6.9142	-4.4728	0.	121.62
5025	-6.6818	-4.2138	0.	121.53
5026	-6.4584	-3.9534	0.	121.15
5027	-6.867	-3.9295	0.	122.52
5028	-6.6435	-3.669	0.	122.14
5029	-6.5612	7.9347	0.	127.16
5030	6.6362	0.49313	0.	135.5
5031	6.8917	0.66302	0.	133.82
5032	6.4743	0.76862	0.	134.56
5033	6.7298	0.93851	0.	132.85
5034	6.9764	1.1146	0.	130.65
5035	6.5385	1.2093	0.	131.07
5036	6.7851	1.3854	0.	128.82
5037	-3.	1.	0.	99.201
5038	-4.	1.	0.	99.932
5039	-3.	0.	0.	96.791
5040	-4.	0.	0.	98.76
5041	-3.5	1.	0.	114.77
5042	-3.	0.5	0.	103.23
5043	-4.	0.5	0.	104.62
5044	-3.5	0.	0.	112.95
5045	-3.5	0.5	0.	111.46
5046	-3.25	1.	0.	106.98
5047	-3.	0.75	0.	101.2
5048	-3.75	1.	0.	107.32
5049	-4.	0.75	0.	102.26
5050	-3.	0.25	0.	99.999
5051	-3.25	0.	0.	104.84
5052	-4.	0.25	0.	101.67
5053	-3.75	0.	0.	105.85
5054	-3.5	0.75	0.	113.08
5055	-3.25	0.5	0.	107.32
5056	-3.75	0.5	0.	108.02
5057	-3.5	0.25	0.	112.14
5058	8.	9.	0.	99.88
5059	6.	9.	0.	99.364
5060	8.	7.	0.	100.13
5061	6.	7.	0.	99.182
5062	7.5	9.	0.	117.5
5063	7.	9.	0.	116.06
5064	6.5	9.	0.	117.39
5065	8.	8.5	0.	105.31
5066	8.	8.	0.	103.94
5067	8.	7.5	0.	104.57
5068	6.	8.5	0.	104.7
5069	6.	8.	0.	103.02
5070	6.	7.5	0.	103.68
5071	6.5	7.	0.	113.92
5072	7.	7.	0.	112.03
5073	7.5	7.	0.	114.34
5074	7.5	8.	0.	113.08
5075	7.5	7.5	0.	112.96
5076	6.5	7.5	0.	112.39
5077	6.5	8.	0.	112.5
5078	6.5	8.5	0.	114.16
5079	7.5	8.5	0.	114.56
5080	7.	8.5	0.	117.87
5081	7.	7.5	0.	115.54
5082	7.	8.	0.	116.47
5083	7.75	9.	0.	108.59
5084	8.	8.75	0.	102.59
5085	6.25	9.	0.	108.26
5086	6.	8.75	0.	102.02
5087	8.	7.25	0.	102.35
5088	7.75	7.	0.	107.19
5089	6.	7.25	0.	101.42
5090	6.25	7.	0.	106.5
5091	7.25	9.	0.	116.77
5092	7.5	8.75	0.	115.98
5093	6.75	9.	0.	116.71
5094	7.	8.75	0.	116.93
5095	6.5	8.75	0.	115.73
5096	8.	8.25	0.	104.59
5097	7.75	8.5	0.	109.91
5098	8.	7.75	0.	104.23
5099	7.75	8.	0.	108.5
5100	7.75	7.5	0.	108.76
5101	6.	8.25	0.	103.82
5102	6.25	8.5	0.	109.4
5103	6.	7.75	0.	103.31
5104	6.25	8.	0.	107.75
5105	6.25	7.5	0.	108.02
5106	6.75	7.	0.	112.97
5107	6.5	7.25	0.	113.13
5108	7.25	7.	0.	113.19
5109	7.	7.25	0.	113.76
5110	7.5	7.25	0.	113.62
5111	7.5	7.75	0.	113.01
5112	7.5	8.25	0.	113.8
5113	7.25	8.	0.	114.77
5114	7.25	7.5	0.	114.25
5115	6.5	7.75	0.	112.43
5116	6.75	7.5	0.	113.96
5117	6.5	8.25	0.	113.31
5118	6.75	8.	0.	114.48
5119	6.75	8.5	0.	115.98
5120	7.25	8.5	0.	116.18
5121	7.	8.25	0.	117.17
5122	7.	7.75	0.	116.
5123	-3.29	-6.31	0.	75.107
5124	-4.23	-6.75	0.	61.174
5125	-3.38	-7.34	0.	88.83
5126	-3.76	-6.53	0.	102.49
5127	-3.335	-6.825	0.	101.65
5128	-3.805	-7.045	0.	91.529
5129	-3.6333	-6.8001	0.	101.31
5130	-3.525	-6.42	0.	87.081
5131	-3.3125	-6.5675	0.	87.263
5132	-3.995	-6.64	0.	76.771
5133	-4.0175	-6.8975	0.	71.034
5134	-3.3575	-7.0825	0.	93.395
5135	-3.5925	-7.1925	0.	88.567
5136	-3.6966	-6.665	0.	101.08
5137	-3.4841	-6.8125	0.	101.44
5138	-3.7191	-6.9225	0.	95.495
5139	3.42	-8.44	0.	57.583
5140	4.47	-8.49	0.	53.205
5141	3.99	-7.56	0.	108.4
5142	3.945	-8.465	0.	121.38
5143	3.705	-8.	0.	84.865
5144	4.23	-8.025	0.	88.912
5145	3.9601	-8.1632	0.	102.39
5146	3.6825	-8.4525	0.	88.431
5147	3.5625	-8.22	0.	68.954
5148	4.2075	-8.4775	0.	87.216
5149	4.35	-8.2575	0.	70.355
5150	3.8475	-7.78	0.	96.115
5151	4.11	-7.7925	0.	97.53
5152	3.9525	-8.3141	0.	111.86
5153	3.8325	-8.0816	0.	93.091
5154	4.095	-8.0941	0.	95.257
5155	-7.23	-6.96	0.	68.8
5156	-6.	-7.54	0.	72.838
5157	-6.11	-6.18	0.	87.184
5158	-6.82	-7.1533	0.	103.39
5159	-6.41	-7.3467	0.	100.57
5160	-6.8567	-6.7	0.	97.369
5161	-6.4833	-6.44	0.	94.03
5162	-6.0367	-7.0867	0.	100.81
5163	-6.0733	-6.6333	0.	100.04
5164	-6.3688	-6.7284	0.	98.065
5165	-6.3434	-7.0428	0.	97.592
5166	-6.6278	-6.9087	0.	101.55
5167	-7.025	-7.0567	0.	80.148
5168	-7.0433	-6.83	0.	77.147
5169	-6.205	-7.4433	0.	85.089
5170	-6.0183	-7.3133	0.	85.396
5171	-6.2967	-6.31	0.	88.606
5172	-6.0917	-6.4067	0.	91.324
5173	-6.615	-7.25	0.	101.88
5174	-6.7239	-7.031	0.	101.85
5175	-6.3767	-7.1948	0.	99.006
5176	-6.67	-6.57	0.	95.595
5177	-6.7422	-6.8044	0.	98.886
5178	-6.4261	-6.5842	0.	95.974
5179	-6.055	-6.86	0.	100.25
5180	-6.19	-7.0648	0.	99.196
5181	-6.2211	-6.6808	0.	98.983
5182	-6.3561	-6.8856	0.	97.81
5183	-6.4983	-6.8186	0.	99.676
5184	-6.4856	-6.9758	0.	99.445
5185	8.5	-0.61	0.	62.114
5186	7.66	0.19	0.	100.89
5187	7.39	-0.94	0.	58.439
5188	8.22	-0.34333	0.	91.884
5189	7.94	-7.6667e-002	0.	90.472
5190	8.13	-0.72	0.	109.05
5191	7.76	-0.83	0.	107.67
5192	7.57	-0.18667	0.	99.076
5193	7.48	-0.56333	0.	100.05
5194	8.0007	-0.48999	0.	101.99
5195	7.8067	-0.30435	0.	100.22
5196	7.7441	-0.5661	0.	98.721
5197	8.36	-0.47667	0.	71.535
5198	8.315	-0.665	0.	79.761
5199	7.8	5.6667e-002	0.	93.821
5200	7.615	1.6667e-003	0.	97.198
5201	7.575	-0.885	0.	82.373
5202	7.435	-0.75167	0.	78.847
5203	8.08	-0.21	0.	91.087
5204	8.1103	-0.41666	0.	96.497
5205	7.8733	-0.19051	0.	95.325
5206	7.945	-0.775	0.	108.26
5207	8.0653	-0.605	0.	104.98
5208	7.7521	-0.69805	0.	103.16
5209	7.525	-0.375	0.	99.38
5210	7.6883	-0.24551	0.	99.492
5211	7.6121	-0.56472	0.	99.353
5212	7.9037	-0.39717	0.	100.96
5213	7.8724	-0.52805	0.	100.22
5214	7.7754	-0.43523	0.	99.419
5215	-6.66	-0.63	0.	82.039
5216	-5.01	-1.48	0.	78.402
5217	-5.09	0.38	0.	85.45
5218	-6.2475	-0.8425	0.	111.18
5219	-5.835	-1.055	0.	105.77
5220	-5.4225	-1.2675	0.	105.8
5221	-6.2675	-0.3775	0.	109.92
5222	-5.875	-0.125	0.	103.95
5223	-5.4825	0.1275	0.	101.02
5224	-5.03	-1.015	0.	102.79
5225	-5.05	-0.55	0.	99.143
5226	-5.07	-8.5e-002	0.	101.72
5227	-5.509	-0.88986	0.	101.23
5228	-5.3866	-0.18928	0.	99.96
5229	-5.3882	-0.53242	0.	102.38
5230	-5.9293	-0.63079	0.	108.13
5231	-5.674	-0.37747	0.	103.46
5232	-6.4538	-0.73625	0.	93.142
5233	-6.4637	-0.50375	0.	92.639
5234	-5.2162	-1.3737	0.	90.788
5235	-5.02	-1.2475	0.	89.409
5236	-5.2863	0.25375	0.	91.704
5237	-5.08	0.1475	0.	92.001
5238	-6.0413	-0.94875	0.	108.42
5239	-6.0884	-0.73664	0.	109.48
5240	-5.6287	-1.1612	0.	105.76
5241	-5.672	-0.97243	0.	103.48
5242	-5.4657	-1.0787	0.	103.46
5243	-6.0712	-0.25125	0.	106.85
5244	-6.0984	-0.50414	0.	108.78
5245	-5.6788	1.25e-003	0.	102.45
5246	-5.7745	-0.25124	0.	103.71
5247	-5.4345	-3.0892e-002	0.	100.4
5248	-5.04	-0.7825	0.	100.94
5249	-5.2695	-0.95243	0.	101.99
5250	-5.06	-0.3175	0.	100.4
5251	-5.2191	-0.54121	0.	100.76
5252	-5.2283	-0.13714	0.	100.8
5253	-5.4486	-0.71114	0.	101.8
5254	-5.7191	-0.76032	0.	104.62
5255	-5.3874	-0.36085	0.	101.16
5256	-5.5303	-0.28338	0.	101.69
5257	-5.5311	-0.45495	0.	102.91
5258	-5.8016	-0.50413	0.	105.75
5259	4.14	0.34	0.	72.288
5260	4.54	-1.42	0.	96.31
5261	5.87	-0.19	0.	79.405
5262	4.24	-0.1	0.	100.19
5263	4.34	-0.54	0.	99.749
5264	4.44	-0.98	0.	98.82
5265	4.5725	0.2075	0.	106.68
5266	5.005	7.5e-002	0.	107.72
5267	5.4375	-5.75e-002	0.	116.72
5268	4.8725	-1.1125	0.	98.889
5269	5.205	-0.805	0.	105.36
5270	5.5375	-0.4975	0.	108.36
5271	4.6783	-0.78787	0.	101.52
5272	4.7006	-0.23116	0.	101.07
5273	4.9484	-0.5233	0.	104.27
5274	5.2314	-0.27711	0.	107.25
5275	4.19	0.12	0.	85.998
5276	4.3562	0.27375	0.	89.168
5277	4.49	-1.2	0.	95.916
5278	4.7063	-1.2663	0.	96.153
5279	5.6537	-0.12375	0.	95.403
5280	5.7038	-0.34375	0.	91.627
5281	4.29	-0.32	0.	99.962
5282	4.4062	5.375e-002	0.	103.37
5283	4.39	-0.76	0.	99.17
5284	4.5091	-0.66393	0.	100.62
5285	4.5203	-0.38558	0.	100.41
5286	4.5591	-0.88393	0.	100.1
5287	4.7888	0.14125	0.	107.16
5288	4.6365	-1.1828e-002	0.	103.83
5289	5.2213	8.75e-003	0.	112.16
5290	4.8528	-7.8078e-002	0.	104.39
5291	5.1182	-0.10106	0.	107.45
5292	5.3344	-0.16731	0.	111.79
5293	5.0388	-0.95875	0.	102.12
5294	4.7754	-0.95018	0.	100.17
5295	5.3713	-0.65125	0.	106.77
5296	5.0767	-0.66415	0.	104.81
5297	5.3844	-0.38731	0.	107.64
5298	4.8133	-0.65558	0.	102.89
5299	4.8245	-0.37723	0.	102.66
5300	5.0899	-0.40021	0.	105.74
5301	-5.09	5.84	0.	75.57
5302	-6.56	6.14	0.	66.249
5303	-6.08	4.72	0.	111.71
5304	-5.58	5.94	0.	116.52
5305	-6.07	6.04	0.	118.22
5306	-5.42	5.4667	0.	103.1
5307	-5.75	5.0933	0.	96.704
5308	-6.4	5.6667	0.	104.43
5309	-6.24	5.1933	0.	98.19
5310	-6.0603	5.6992	0.	103.72
5311	-5.7204	5.6299	0.	106.25
5312	-5.9493	5.3709	0.	107.3
5313	-5.335	5.89	0.	93.939
5314	-5.255	5.6533	0.	87.12
5315	-6.315	6.09	0.	91.734
5316	-6.48	5.9033	0.	85.151
5317	-5.915	4.9067	0.	102.92
5318	-6.16	4.9567	0.	103.22
5319	-5.825	5.99	0.	117.24
5320	-5.6502	5.7849	0.	111.24
5321	-6.0652	5.8696	0.	110.9
5322	-5.585	5.28	0.	99.623
5323	-5.5702	5.5483	0.	104.41
5324	-5.8496	5.2321	0.	102.
5325	-6.32	5.43	0.	101.2
5326	-6.2302	5.6829	0.	104.07
5327	-6.0947	5.2821	0.	102.67
5328	-5.8903	5.6645	0.	104.9
5329	-6.0048	5.5351	0.	105.51
5330	-5.8348	5.5004	0.	106.69
5331	-4.97	5.64	0.	81.833
5332	-3.62	5.11	0.	72.388
5333	-3.83	6.55	0.	97.487
5334	-4.52	5.4633	0.	109.8
5335	-4.07	5.2867	0.	106.68
5336	-4.59	5.9433	0.	102.25
5337	-4.21	6.2467	0.	97.987
5338	-3.69	5.59	0.	101.6
5339	-3.76	6.07	0.	99.386
5340	-4.0683	5.9478	0.	101.94
5341	-4.0198	5.6149	0.	99.085
5342	-4.3319	5.7374	0.	103.45
5343	-4.745	5.5517	0.	93.003
5344	-4.78	5.7917	0.	88.813
5345	-3.845	5.1983	0.	88.429
5346	-3.655	5.35	0.	86.098
5347	-4.02	6.3983	0.	96.168
5348	-3.795	6.31	0.	96.509
5349	-4.295	5.375	0.	108.11
5350	-4.426	5.6004	0.	106.32
5351	-4.0449	5.4508	0.	102.83
5352	-4.4	6.095	0.	99.923
5353	-4.461	5.8404	0.	102.5
5354	-4.1392	6.0972	0.	99.928
5355	-3.725	5.83	0.	100.34
5356	-3.8549	5.6024	0.	100.33
5357	-3.9142	6.0089	0.	100.53
5358	-4.044	5.7813	0.	100.51
5359	-4.2001	5.8426	0.	102.63
5360	-4.1759	5.6761	0.	101.21
5361	-7.74	7.25	0.	82.248
5362	-7.71	6.05	0.	83.916
5363	-6.68	6.68	0.	75.831
5364	-7.73	6.85	0.	107.66
5365	-7.72	6.45	0.	105.55
5366	-7.3867	7.06	0.	104.04
5367	-7.0333	6.87	0.	110.95
5368	-7.3667	6.26	0.	101.95
5369	-7.0233	6.47	0.	110.42
5370	-7.4606	6.7971	0.	105.09
5371	-7.4543	6.5193	0.	104.74
5372	-7.2157	6.6652	0.	112.13
5373	-7.735	7.05	0.	92.881
5374	-7.5633	7.155	0.	90.886
5375	-7.715	6.25	0.	92.108
5376	-7.5383	6.155	0.	90.596
5377	-6.8567	6.775	0.	85.706
5378	-6.8517	6.575	0.	83.874
5379	-7.725	6.65	0.	106.43
5380	-7.5953	6.8235	0.	106.36
5381	-7.5872	6.4846	0.	105.13
5382	-7.21	6.965	0.	107.29
5383	-7.4237	6.9285	0.	104.43
5384	-7.1245	6.7676	0.	110.55
5385	-7.195	6.365	0.	106.15
5386	-7.4105	6.3896	0.	103.26
5387	-7.1195	6.5676	0.	110.62
5388	-7.4575	6.6582	0.	104.87
5389	-7.3382	6.7311	0.	108.45
5390	-7.335	6.5922	0.	108.21
5391	2.	-6.	0.	97.93
5392	0.	-6.	0.	97.725
5393	2.	-8.	0.	96.388
5394	0.	-8.	0.	96.989
5395	1.5	-6.	0.	111.89
5396	1.	-6.	0.	109.37
5397	0.5	-6.	0.	111.85
5398	2.	-6.5	0.	102.35
5399	2.	-7.	0.	100.99
5400	2.	-7.5	0.	101.21
5401	0.	-6.5	0.	101.72
5402	0.	-7.	0.	100.13
5403	0.	-7.5	0.	101.2
5404	0.5	-8.	0.	110.47
5405	1.	-8.	0.	107.71
5406	1.5	-8.	0.	109.91
5407	1.	-6.5	0.	111.6
5408	1.5	-6.5	0.	109.4
5409	1.5	-7.5	0.	108.14
5410	1.	-7.5	0.	110.55
5411	0.5	-7.5	0.	108.22
5412	0.5	-6.5	0.	108.98
5413	0.5	-7.	0.	107.81
5414	1.5	-7.	0.	108.22
5415	1.	-7.	0.	110.93
5416	1.75	-6.	0.	104.84
5417	2.	-6.25	0.	100.13
5418	0.25	-6.	0.	104.71
5419	0.	-6.25	0.	99.707
5420	2.	-7.75	0.	98.784
5421	1.75	-8.	0.	103.09
5422	0.	-7.75	0.	99.082
5423	0.25	-8.	0.	103.66
5424	1.25	-6.	0.	110.63
5425	1.5	-6.25	0.	110.61
5426	0.75	-6.	0.	110.61
5427	1.	-6.25	0.	110.47
5428	0.5	-6.25	0.	110.39
5429	2.	-6.75	0.	101.66
5430	1.75	-6.5	0.	105.86
5431	2.	-7.25	0.	101.07
5432	1.75	-7.	0.	104.61
5433	1.75	-7.5	0.	104.66
5434	0.	-6.75	0.	100.89
5435	0.25	-6.5	0.	105.33
5436	0.	-7.25	0.	100.63
5437	0.25	-7.	0.	103.97
5438	0.25	-7.5	0.	104.7
5439	0.75	-8.	0.	109.09
5440	0.5	-7.75	0.	109.31
5441	1.25	-8.	0.	108.81
5442	1.	-7.75	0.	109.11
5443	1.5	-7.75	0.	108.99
5444	1.25	-6.5	0.	110.49
5445	0.75	-6.5	0.	110.28
5446	1.	-6.75	0.	111.27
5447	1.5	-6.75	0.	108.8
5448	1.25	-7.5	0.	109.34
5449	1.5	-7.25	0.	108.17
5450	0.75	-7.5	0.	109.38
5451	1.	-7.25	0.	110.74
5452	0.5	-7.25	0.	108.
5453	0.5	-6.75	0.	108.38
5454	0.75	-7.	0.	109.37
5455	1.25	-7.	0.	109.58
