Node Number	X Location (mm)	Y Location (mm)	Z Location (mm)	Equivalent (von-Mises) Stress (MPa)
1	5.12	-3.94	0.	173.38
2	6.15	-3.94	0.	161.55
3	5.64	-3.04	0.	95.711
4	6.1	2.2	0.	118.58
5	5.86	1.01	0.	144.87
6	7.01	1.4	0.	174.82
7	7.13	4.67	0.	123.64
8	6.91	3.57	0.	156.71
9	7.98	3.93	0.	158.38
10	7.e-002	-5.96	0.	153.85
11	1.23	-5.37	0.	164.56
12	0.14	-4.66	0.	143.12
13	-1.37	4.3	0.	113.53
14	-0.89	5.79	0.	164.76
15	-2.42	5.46	0.	176.2
16	1.46	4.4	0.	175.8
17	0.82	5.59	0.	110.84
18	0.12	4.44	0.	178.89
19	-7.08	8.24	0.	166.64
20	-8.21	8.32	0.	172.6
21	-7.72	7.3	0.	103.69
22	-8.03	-2.59	0.	105.9
23	-7.39	-1.65	0.	166.28
24	-8.52	-1.56	0.	169.54
25	-7.72	-4.62	0.	163.27
26	-7.06	-6.49	0.	115.08
27	-5.77	-4.99	0.	172.75
28	6.	-5.	0.	125.64
29	6.	-6.	0.	129.72
30	8.	-5.	0.	136.82
31	8.	-6.	0.	136.9
32	4.	8.	0.	139.15
33	4.	6.	0.	136.42
34	6.	8.	0.	136.15
35	6.	6.	0.	137.09
36	5.	0.	0.	137.62
37	5.	-2.	0.	131.66
38	7.	0.	0.	128.65
39	7.	-2.	0.	133.33
40	-1.	-1.	0.	133.71
41	-1.	-3.	0.	131.28
42	0.	-1.	0.	130.59
43	0.	-3.	0.	131.95
44	-2.	-6.	0.	130.45
45	-2.	-8.	0.	132.54
46	-1.	-6.	0.	131.08
47	-1.	-8.	0.	130.57
48	-3.	0.	0.	134.1
49	-3.	-2.	0.	133.28
50	-2.	0.	0.	133.27
51	-2.	-2.	0.	134.91
52	-8.	6.	0.	127.44
53	-8.	4.	0.	131.99
54	-7.	6.	0.	126.8
55	-7.	4.	0.	129.07
56	-7.	3.	0.	129.61
57	-7.	2.	0.	129.04
58	-6.	3.	0.	135.1
59	-6.	2.	0.	135.25
60	-6.	-8.	0.	130.99
61	-6.	-9.	0.	128.46
62	-5.	-8.	0.	133.25
63	-5.	-9.	0.	133.13
64	10.	10.	0.	125.02
65	-10.	10.	0.	125.1
66	10.	-10.	0.	128.46
67	-10.	-10.	0.	130.01
68	5.635	-3.94	0.	99.476
69	5.38	-3.49	0.	99.34
70	5.895	-3.49	0.	96.291
71	6.02	1.8033	0.	127.81
72	5.94	1.4067	0.	134.99
73	6.4033	1.9333	0.	81.926
74	6.7067	1.6667	0.	71.872
75	6.2433	1.14	0.	96.291
76	6.6267	1.27	0.	73.584
77	7.02	4.12	0.	139.3
78	7.555	4.3	0.	59.054
79	7.445	3.75	0.	94.924
80	0.45667	-5.7633	0.	96.146
81	0.84333	-5.5667	0.	76.997
82	9.3333e-002	-5.5267	0.	148.5
83	0.11667	-5.0933	0.	144.05
84	0.86667	-5.1333	0.	71.101
85	0.50333	-4.8967	0.	92.178
86	-1.21	4.7967	0.	125.21
87	-1.05	5.2933	0.	133.41
88	-1.72	4.6867	0.	91.248
89	-2.07	5.0733	0.	85.192
90	-1.4	5.68	0.	111.83
91	-1.91	5.57	0.	100.77
92	1.2467	4.7967	0.	123.81
93	1.0333	5.1933	0.	106.56
94	1.0133	4.4133	0.	107.86
95	0.56667	4.4267	0.	105.51
96	0.58667	5.2067	0.	99.551
97	0.35333	4.8233	0.	111.59
98	-7.645	8.28	0.	110.73
99	-7.4	7.77	0.	84.994
100	-7.965	7.81	0.	109.93
101	-7.71	-2.12	0.	93.275
102	-8.275	-2.075	0.	107.33
103	-7.955	-1.605	0.	109.84
104	-7.555	-5.0875	0.	132.84
105	-7.39	-5.555	0.	132.68
106	-7.225	-6.0225	0.	124.53
107	-7.2325	-4.7125	0.	110.59
108	-6.745	-4.805	0.	118.19
109	-6.2575	-4.8975	0.	105.75
110	-6.7375	-6.115	0.	96.168
111	-6.415	-5.74	0.	109.65
112	-6.0925	-5.365	0.	99.016
113	6.	-5.5	0.	135.02
114	6.5	-5.	0.	116.1
115	7.	-5.	0.	125.21
116	7.5	-5.	0.	119.08
117	6.5	-6.	0.	114.56
118	7.	-6.	0.	121.3
119	7.5	-6.	0.	117.34
120	8.	-5.5	0.	145.68
121	4.	7.5	0.	147.13
122	4.	7.	0.	148.03
123	4.	6.5	0.	146.39
124	4.5	8.	0.	116.26
125	5.	8.	0.	120.92
126	5.5	8.	0.	115.96
127	4.5	6.	0.	114.9
128	5.	6.	0.	119.47
129	5.5	6.	0.	115.34
130	6.	7.5	0.	144.48
131	6.	7.	0.	145.45
132	6.	6.5	0.	144.32
133	5.	-0.5	0.	144.22
134	5.	-1.	0.	144.14
135	5.	-1.5	0.	142.32
136	5.5	0.	0.	113.43
137	6.	0.	0.	110.2
138	6.5	0.	0.	103.81
139	5.5	-2.	0.	107.69
140	6.	-2.	0.	110.55
141	6.5	-2.	0.	110.47
142	7.	-0.5	0.	139.4
143	7.	-1.	0.	141.07
144	7.	-1.5	0.	140.64
145	-1.	-1.5	0.	141.99
146	-1.	-2.	0.	143.33
147	-1.	-2.5	0.	143.42
148	-0.5	-1.	0.	106.38
149	-0.5	-3.	0.	107.17
150	0.	-1.5	0.	139.33
151	0.	-2.	0.	139.51
152	0.	-2.5	0.	138.46
153	-2.	-6.5	0.	140.68
154	-2.	-7.	0.	141.88
155	-2.	-7.5	0.	141.59
156	-1.5	-6.	0.	104.94
157	-1.5	-8.	0.	107.41
158	-1.	-6.5	0.	145.23
159	-1.	-7.	0.	144.12
160	-1.	-7.5	0.	141.24
161	-3.	-0.5	0.	143.
162	-3.	-1.	0.	143.08
163	-3.	-1.5	0.	142.4
164	-2.5	0.	0.	109.48
165	-2.5	-2.	0.	108.3
166	-2.	-0.5	0.	144.19
167	-2.	-1.	0.	144.18
168	-2.	-1.5	0.	142.89
169	-8.	5.5	0.	137.8
170	-8.	5.	0.	139.32
171	-8.	4.5	0.	139.98
172	-7.5	6.	0.	103.48
173	-7.5	4.	0.	107.73
174	-7.	5.5	0.	136.71
175	-7.	5.	0.	136.84
176	-7.	4.5	0.	136.02
177	-7.	2.5	0.	137.35
178	-6.5	3.	0.	112.13
179	-6.5	2.	0.	110.35
180	-6.	2.5	0.	144.48
181	-6.	-8.5	0.	138.25
182	-5.5	-8.	0.	111.72
183	-5.5	-9.	0.	108.75
184	-5.	-8.5	0.	142.83
185	9.5	10.	0.	125.09
186	9.	10.	0.	125.38
187	8.5	10.	0.	125.76
188	8.	10.	0.	126.05
189	7.5	10.	0.	126.03
190	7.	10.	0.	125.37
191	6.5	10.	0.	123.82
192	6.	10.	0.	121.72
193	5.5	10.	0.	120.02
194	5.	10.	0.	119.53
195	4.5	10.	0.	120.61
196	4.	10.	0.	122.9
197	3.5	10.	0.	125.48
198	3.	10.	0.	127.28
199	2.5	10.	0.	127.96
200	2.	10.	0.	127.81
201	1.5	10.	0.	127.24
202	1.	10.	0.	126.55
203	0.5	10.	0.	125.87
204	-5.2042e-015	10.	0.	125.28
205	-0.5	10.	0.	124.83
206	-1.	10.	0.	124.58
207	-1.5	10.	0.	124.55
208	-2.	10.	0.	124.77
209	-2.5	10.	0.	125.19
210	-3.	10.	0.	125.74
211	-3.5	10.	0.	126.33
212	-4.	10.	0.	126.9
213	-4.5	10.	0.	127.41
214	-5.	10.	0.	127.87
215	-5.5	10.	0.	128.14
216	-6.	10.	0.	127.68
217	-6.5	10.	0.	125.51
218	-7.	10.	0.	121.82
219	-7.5	10.	0.	119.16
220	-8.	10.	0.	119.4
221	-8.5	10.	0.	122.15
222	-9.	10.	0.	124.67
223	-9.5	10.	0.	125.19
224	10.	9.5	0.	124.85
225	10.	9.	0.	124.28
226	10.	8.5	0.	123.68
227	10.	8.	0.	123.37
228	10.	7.5	0.	123.57
229	10.	7.	0.	124.39
230	10.	6.5	0.	125.72
231	10.	6.	0.	127.14
232	10.	5.5	0.	127.91
233	10.	5.	0.	127.45
234	10.	4.5	0.	126.28
235	10.	4.	0.	126.37
236	10.	3.5	0.	128.56
237	10.	3.	0.	131.29
238	10.	2.5	0.	132.8
239	10.	2.	0.	132.7
240	10.	1.5	0.	131.91
241	10.	1.	0.	131.09
242	10.	0.5	0.	130.37
243	10.	-5.2042e-015	0.	129.62
244	10.	-0.5	0.	128.95
245	10.	-1.	0.	128.63
246	10.	-1.5	0.	128.88
247	10.	-2.	0.	129.65
248	10.	-2.5	0.	130.66
249	10.	-3.	0.	131.53
250	10.	-3.5	0.	131.9
251	10.	-4.	0.	131.37
252	10.	-4.5	0.	129.73
253	10.	-5.	0.	127.61
254	10.	-5.5	0.	126.46
255	10.	-6.	0.	127.23
256	10.	-6.5	0.	129.03
257	10.	-7.	0.	130.41
258	10.	-7.5	0.	130.74
259	10.	-8.	0.	130.32
260	10.	-8.5	0.	129.64
261	10.	-9.	0.	129.01
262	10.	-9.5	0.	128.6
263	-10.	9.5	0.	124.42
264	-10.	9.	0.	122.85
265	-10.	8.5	0.	120.72
266	-10.	8.	0.	120.84
267	-10.	7.5	0.	124.26
268	-10.	7.	0.	128.7
269	-10.	6.5	0.	130.88
270	-10.	6.	0.	130.3
271	-10.	5.5	0.	128.57
272	-10.	5.	0.	127.35
273	-10.	4.5	0.	127.19
274	-10.	4.	0.	127.88
275	-10.	3.5	0.	128.56
276	-10.	3.	0.	128.67
277	-10.	2.5	0.	128.39
278	-10.	2.	0.	128.35
279	-10.	1.5	0.	128.89
280	-10.	1.	0.	130.02
281	-10.	0.5	0.	131.65
282	-10.	-5.2042e-015	0.	133.42
283	-10.	-0.5	0.	134.05
284	-10.	-1.	0.	130.81
285	-10.	-1.5	0.	126.34
286	-10.	-2.	0.	124.76
287	-10.	-2.5	0.	129.43
288	-10.	-3.	0.	134.22
289	-10.	-3.5	0.	134.88
290	-10.	-4.	0.	132.12
291	-10.	-4.5	0.	128.1
292	-10.	-5.	0.	125.13
293	-10.	-5.5	0.	124.42
294	-10.	-6.	0.	125.7
295	-10.	-6.5	0.	127.75
296	-10.	-7.	0.	129.53
297	-10.	-7.5	0.	130.49
298	-10.	-8.	0.	130.7
299	-10.	-8.5	0.	130.51
300	-10.	-9.	0.	130.25
301	-10.	-9.5	0.	130.06
302	-9.5	-10.	0.	129.15
303	-9.	-10.	0.	128.18
304	-8.5	-10.	0.	127.29
305	-8.	-10.	0.	126.74
306	-7.5	-10.	0.	126.73
307	-7.	-10.	0.	127.18
308	-6.5	-10.	0.	125.11
309	-6.	-10.	0.	117.34
310	-5.5	-10.	0.	113.26
311	-5.	-10.	0.	120.54
312	-4.5	-10.	0.	130.41
313	-4.	-10.	0.	133.07
314	-3.5	-10.	0.	131.88
315	-3.	-10.	0.	129.53
316	-2.5	-10.	0.	126.1
317	-2.	-10.	0.	122.36
318	-1.5	-10.	0.	120.15
319	-1.	-10.	0.	120.53
320	-0.5	-10.	0.	122.58
321	5.2042e-015	-10.	0.	124.55
322	0.5	-10.	0.	125.76
323	1.	-10.	0.	126.43
324	1.5	-10.	0.	126.88
325	2.	-10.	0.	127.24
326	2.5	-10.	0.	127.46
327	3.	-10.	0.	127.45
328	3.5	-10.	0.	127.18
329	4.	-10.	0.	126.62
330	4.5	-10.	0.	125.81
331	5.	-10.	0.	124.85
332	5.5	-10.	0.	123.86
333	6.	-10.	0.	123.03
334	6.5	-10.	0.	122.54
335	7.	-10.	0.	122.54
336	7.5	-10.	0.	123.07
337	8.	-10.	0.	124.05
338	8.5	-10.	0.	125.3
339	9.	-10.	0.	126.6
340	9.5	-10.	0.	127.74
341	2.4776	1.4692	0.	129.87
342	1.9743	0.98628	0.	128.86
343	1.4627	1.4895	0.	127.3
344	2.8773	-3.4399	0.	132.06
345	1.9742	-1.977	0.	128.4
346	2.9886	-0.99151	0.	129.76
347	0.95296	1.4977	0.	125.82
348	-4.0398	4.3285	0.	128.28
349	2.9798	1.4582	0.	130.41
350	1.4692	0.99309	0.	127.68
351	1.9792	0.49251	0.	128.95
352	3.0162	2.4104	0.	130.67
353	0.43295	2.0058	0.	124.43
354	2.4827	-1.4836	0.	129.08
355	3.7486	3.2168	0.	127.88
356	0.94955	1.9945	0.	125.17
357	-2.4896	2.519	0.	123.63
358	-3.5472	3.87	0.	129.52
359	-3.5111	3.4248	0.	129.22
360	1.4705	1.9849	0.	126.96
361	2.4828	0.48847	0.	129.74
362	2.4862	-4.0107e-003	0.	129.49
363	2.4683	-1.976	0.	129.61
364	2.4443	-2.4648	0.	130.38
365	2.4885	-0.9913	0.	128.94
366	2.4883	-0.49713	0.	129.15
367	-2.0041	2.5527	0.	122.29
368	-4.6057	6.4933	0.	128.16
369	-4.7488	5.0182	0.	126.55
370	-0.56823	2.025	0.	124.36
371	-6.9977e-002	2.0169	0.	124.47
372	-4.343	7.0411	0.	128.22
373	3.9061	3.6429	0.	125.91
374	2.4084	-2.9531	0.	131.28
375	3.0781	2.8997	0.	130.87
376	1.4767	0.49717	0.	128.11
377	-4.1657	6.5842	0.	128.65
378	3.4837	1.4656	0.	130.33
379	-4.528	4.5047	0.	127.69
380	0.44739	1.5054	0.	124.73
381	-5.3687e-002	1.5114	0.	124.17
382	-0.54796	1.5153	0.	124.02
383	0.96479	0.99932	0.	126.32
384	-4.0742	-3.8279	0.	130.46
385	-3.1696	4.3236	0.	130.09
386	-4.9895	-0.44564	0.	127.81
387	3.491	-0.99312	0.	130.77
388	1.4776	-1.9741	0.	127.63
389	-6.3622	-2.6567	0.	123.65
390	2.3689	-3.441	0.	132.3
391	1.9465	-2.4649	0.	129.06
392	3.982	-6.9357	0.	127.79
393	-1.9651	7.0386	0.	119.61
394	-2.9827	2.9778	0.	126.71
395	-4.5454	-3.3439	0.	131.89
396	-4.0182	-4.2246	0.	129.49
397	-6.4805	9.7243e-002	0.	123.74
398	-4.04	3.8981	0.	129.38
399	-2.9877	2.4921	0.	125.67
400	-3.9974	2.4766	0.	128.88
401	2.5162	2.4572	0.	130.93
402	0.95988	2.4875	0.	123.99
403	3.9621	2.0614	0.	128.51
404	4.4878	4.0221	0.	121.17
405	4.4009	3.5446	0.	123.96
406	2.9834	0.97537	0.	130.59
407	2.9821	-1.4843	0.	130.17
408	1.9845	-1.4844	0.	128.13
409	-5.0192	-2.806	0.	129.27
410	-5.0082	-1.4069	0.	126.17
411	-1.0519	2.0304	0.	123.64
412	3.6707	-5.8629	0.	127.82
413	3.3834	-3.4381	0.	131.61
414	-4.4867	6.0437	0.	127.46
415	-3.8406	7.1146	0.	128.7
416	-5.496	-0.89588	0.	125.93
417	-5.5363	-2.3045	0.	125.06
418	0.43754	2.5019	0.	123.83
419	-1.5249	2.566	0.	122.27
420	-1.0492	2.5585	0.	123.98
421	0.22417	-3.9096	0.	116.44
422	-0.5665	2.5406	0.	125.48
423	-6.8619e-002	2.5205	0.	125.15
424	-5.5297	-1.8411	0.	124.44
425	-5.5079	-1.3698	0.	124.78
426	-2.9352	7.2747	0.	127.29
427	-3.3715	7.1878	0.	128.65
428	-4.3647	5.5842	0.	126.42
429	-4.2251	5.1326	0.	126.22
430	3.3365	-3.9245	0.	130.83
431	3.297	-4.413	0.	130.24
432	-4.9366	-6.1088	0.	128.03
433	-1.531	2.0344	0.	122.7
434	-2.0133	2.0306	0.	122.22
435	-5.0177	-1.8772	0.	126.38
436	-2.9949	1.998	0.	124.89
437	-3.9799	-6.0669	0.	127.85
438	1.9869	-0.9899	0.	128.29
439	1.9867	-0.49545	0.	128.64
440	2.9692	-1.9755	0.	130.99
441	2.9474	-2.465	0.	131.75
442	2.9863	0.48662	0.	130.61
443	-4.9728	5.991	0.	127.6
444	-5.0341	6.4579	0.	128.45
445	-6.5461	7.4884	0.	131.48
446	4.2645	3.0738	0.	126.49
447	4.1228	2.5895	0.	127.84
448	2.0058	2.4741	0.	129.62
449	-4.0183	3.4345	0.	129.61
450	-5.4839	6.1178e-002	0.	127.53
451	-3.9617	-5.1189	0.	127.16
452	-3.9597	-4.6536	0.	128.07
453	-5.0423	-3.2683	0.	131.18
454	-5.5299	-3.1987	0.	128.64
455	3.4491	3.9104	0.	127.77
456	3.9751	4.0544	0.	124.27
457	-2.9962	3.4537	0.	128.18
458	2.336	5.7234	0.	132.8
459	1.9018	-2.9496	0.	130.1
460	0.80097	-3.9686	0.	120.12
461	3.2701	-5.8584	0.	128.24
462	3.2705	-4.9014	0.	129.36
463	-6.7748	-2.5238	0.	126.88
464	-5.3831	-6.0633	0.	128.71
465	-5.5314	-7.2308	0.	118.76
466	4.0108	-6.4214	0.	127.36
467	-2.7165	4.4355	0.	131.13
468	0.98077	-1.9692	0.	128.24
469	4.1563	-5.4215	0.	127.73
470	6.9998	-6.9998	0.	116.82
471	6.9982	7.0011	0.	127.24
472	0.46246	1.0043	0.	124.84
473	-3.6238e-002	1.0072	0.	123.69
474	-0.53282	1.0092	0.	123.58
475	2.9601	7.0214	0.	131.91
476	-6.0355	7.5002	0.	127.8
477	-4.958	7.4814	0.	127.19
478	-4.4363	7.5255	0.	127.35
479	-3.4529	7.6292	0.	127.39
480	-2.9955	7.6576	0.	126.47
481	-1.4965	7.5535	0.	120.67
482	-1.0042	7.573	0.	122.24
483	6.9992	-7.4997	0.	118.77
484	3.9815	-7.4511	0.	127.84
485	1.4863	-7.5125	0.	125.8
486	0.99867	-7.5493	0.	122.97
487	-3.4984	-7.0225	0.	130.04
488	3.9864	1.5055	0.	129.19
489	-1.4902	7.0743	0.	118.04
490	3.7364	-4.9062	0.	129.67
491	-5.4245	-6.4753	0.	125.9
492	-3.9889	-6.5501	0.	129.03
493	-4.5209	-2.8673	0.	130.82
494	-4.0356	-3.3946	0.	130.89
495	-4.4926	-0.46723	0.	129.03
496	-3.4897	-6.5337	0.	129.1
497	-3.4673	-5.0638	0.	127.29
498	1.4531	-2.459	0.	127.93
499	1.4826	1.3697e-003	0.	128.46
500	1.4861	-1.483	0.	127.62
501	0.9748	0.50153	0.	126.95
502	3.4936	-0.49909	0.	130.89
503	4.9087	3.4442	0.	122.77
504	2.5733	2.972	0.	132.37
505	0.98208	2.9755	0.	121.72
506	3.2277	3.3897	0.	129.99
507	-7.4847	0.11057	0.	119.34
508	-6.4845	0.56824	0.	121.49
509	-4.4276	-4.2791	0.	130.86
510	-6.0788	-3.5616	0.	124.34
511	4.4936	-6.9635	0.	127.2
512	2.9191	4.474	0.	128.66
513	-6.6293	-3.9016	0.	115.75
514	-2.479	3.0235	0.	124.31
515	1.9224	7.0767	0.	127.01
516	-3.6147e-002	7.0936	0.	127.06
517	7.4989	7.4962	0.	125.3
518	7.4972	6.9949	0.	124.41
519	7.4944	6.4953	0.	123.6
520	2.797	-4.9111	0.	129.48
521	2.8333	-5.9053	0.	128.76
522	1.8246	-3.9243	0.	133.64
523	1.4646	-7.0071	0.	127.05
524	1.9518	-6.9724	0.	129.77
525	0.44179	7.0781	0.	124.96
526	0.92653	7.0818	0.	123.36
527	1.8551	5.7491	0.	132.
528	-5.9541	-7.2159	0.	121.11
529	-5.9048	-6.8215	0.	122.9
530	-2.4931	4.0075	0.	127.
531	-2.4763	3.5244	0.	125.64
532	-6.5616	-3.4618	0.	119.97
533	-6.4759	-3.0442	0.	123.51
534	6.0279	4.5967	0.	122.52
535	3.437	4.4705	0.	127.27
536	4.5666	-5.954	0.	125.43
537	4.5196	-6.4573	0.	126.56
538	-5.1062	-3.7244	0.	133.24
539	-5.5958	-3.6395	0.	130.17
540	-4.4647	-5.1591	0.	126.36
541	-4.4306	-4.706	0.	128.76
542	-4.4948	1.5019	0.	131.31
543	-5.4859	0.54388	0.	128.22
544	-7.4891	0.57408	0.	120.66
545	-6.9863	0.57414	0.	120.45
546	-4.5064	2.9714	0.	129.87
547	-4.5151	3.4594	0.	130.2
548	1.5124	2.9712	0.	126.82
549	2.0476	2.9768	0.	131.49
550	4.7799	2.956	0.	126.12
551	-6.0466	7.0025	0.	131.33
552	-5.4745	5.9814	0.	128.27
553	3.4749	-1.978	0.	132.54
554	3.4569	-2.4679	0.	133.4
555	7.4716	-3.4713	0.	120.84
556	0.47391	0.50442	0.	124.95
557	-2.4053e-002	0.50509	0.	122.63
558	1.4885	-0.98946	0.	127.94
559	1.4861	-0.49367	0.	128.45
560	1.4013	-2.9419	0.	128.39
561	-3.4733	-5.5562	0.	127.61
562	-3.481	-6.0452	0.	128.12
563	-4.4907	2.4414e-002	0.	130.29
564	-2.9997	1.5004	0.	124.18
565	-3.4966	1.4966	0.	127.73
566	-3.5273	-3.4704	0.	128.37
567	-3.0159	-3.4952	0.	125.13
568	-4.5105	-1.9193	0.	128.29
569	-4.5147	-2.3928	0.	129.53
570	-2.0162	1.5136	0.	121.69
571	-4.4853	-6.5642	0.	128.56
572	-4.9656	-6.5555	0.	127.32
573	3.8247	-3.9275	0.	129.43
574	3.7733	-4.4174	0.	130.28
575	-3.8641	5.661	0.	126.65
576	-3.7061	5.1976	0.	125.27
577	-3.2244	6.7595	0.	130.38
578	-1.0049	7.099	0.	121.62
579	-6.9794	-0.35195	0.	123.9
580	-6.0413	-1.8082	0.	121.98
581	4.4912	1.4873	0.	126.74
582	6.9993	7.4997	0.	127.52
583	-2.9998	-7.5091	0.	130.61
584	0.95926	-6.5704	0.	121.08
585	2.3378	5.3433	0.	132.18
586	5.5002	5.0425	0.	117.96
587	-5.0797	-5.6656	0.	127.85
588	0.99288	3.4563	0.	116.83
589	0.98754	-1.4806	0.	127.79
590	-4.0016	-1.4671	0.	129.66
591	-1.983	6.5474	0.	117.81
592	7.9908	5.4794	0.	125.51
593	-6.6104	-2.1723	0.	120.03
594	-5.3044e-002	3.0199	0.	127.12
595	7.9895	5.9847	0.	124.2
596	7.9936	6.4901	0.	123.8
597	7.9963	6.9922	0.	123.9
598	7.9982	7.4946	0.	124.37
599	-3.5013	-7.5145	0.	130.52
600	0.51136	-7.5877	0.	121.83
601	4.3959	-3.4502	0.	129.26
602	-5.9056	4.9693	0.	126.49
603	-5.4922	4.4365	0.	126.99
604	-3.5011	-8.0094	0.	130.33
605	2.8224e-002	-7.6168	0.	124.44
606	7.9998	-7.4999	0.	124.02
607	7.9997	-7.9999	0.	123.74
608	7.4994	-7.9999	0.	121.52
609	6.9988	-7.9996	0.	120.31
610	6.4975	-7.9989	0.	120.58
611	5.9957	-7.9971	0.	122.07
612	5.4933	-7.994	0.	123.98
613	4.9903	-7.9874	0.	125.59
614	4.4873	-7.9765	0.	126.75
615	3.9848	-7.965	0.	127.57
616	3.4837	-7.9591	0.	128.15
617	2.984	-7.9634	0.	128.44
618	2.4861	-7.9745	0.	128.26
619	1.9915	-7.9912	0.	127.38
620	1.4989	-8.0124	0.	125.88
621	1.0103	-8.0363	0.	124.38
622	0.52677	-8.057	0.	124.09
623	7.4744	-3.9661	0.	118.25
624	8.0378	2.3779	0.	127.3
625	7.9982	0.98836	0.	130.16
626	7.9966	-0.49712	0.	130.8
627	7.9988	-0.99628	0.	130.4
628	7.9867	-3.4838	0.	125.48
629	2.9742	7.5132	0.	130.89
630	-6.0589	8.0022	0.	125.22
631	-5.5197	7.9952	0.	125.46
632	-4.9937	7.9977	0.	125.99
633	-4.4799	8.0203	0.	126.38
634	-3.9762	8.0522	0.	126.63
635	-3.4806	8.0829	0.	126.48
636	-2.988	8.0826	0.	125.75
637	-2.4969	8.0333	0.	124.37
638	-2.0007	8.0278	0.	122.92
639	-1.5023	8.0401	0.	122.34
640	-1.0062	8.0538	0.	122.96
641	-0.51096	8.0622	0.	124.02
642	-1.6965e-002	8.0643	0.	124.65
643	0.47682	8.0616	0.	124.75
644	0.97214	8.0561	0.	124.85
645	1.4707	8.0478	0.	125.46
646	1.9736	8.0348	0.	126.69
647	2.4785	8.0194	0.	128.46
648	7.4996	7.9977	0.	126.22
649	7.9993	7.9966	0.	125.04
650	-7.4848	-7.9856	0.	122.91
651	-7.9925	-7.996	0.	125.69
652	-0.52125	0.50485	0.	122.08
653	-2.4957	-3.4987	0.	123.5
654	2.3094	-4.4281	0.	133.
655	-5.194e-002	6.6013	0.	131.64
656	1.8955	6.6152	0.	128.3
657	-8.0027	-7.5024	0.	127.84
658	-1.9837	3.0829	0.	121.16
659	-0.54096	3.0554	0.	128.52
660	0.48537	3.4757	0.	119.61
661	-7.9891	0.10701	0.	118.78
662	4.9988	-6.9811	0.	126.85
663	4.6125	-5.4485	0.	125.53
664	5.0748	-5.4671	0.	121.56
665	-6.153	-3.9988	0.	122.07
666	-5.0009	2.4902	0.	129.57
667	2.3566	4.9254	0.	127.97
668	0.47835	-6.6735	0.	113.22
669	7.5344	2.3092	0.	122.73
670	5.0411	1.9196	0.	124.76
671	5.5112	3.7305	0.	118.52
672	5.4127	3.2969	0.	122.6
673	7.4878	2.7792	0.	116.44
674	8.0009	-1.4939	0.	129.74
675	7.9992	-2.9848	0.	128.08
676	-1.9667	-4.0008	0.	124.19
677	0.98164	3.6614e-003	0.	127.99
678	0.96452	-2.4441	0.	127.52
679	-2.9912	-6.5201	0.	129.53
680	-2.9715	-5.0274	0.	127.01
681	-3.9951	1.003	0.	131.6
682	-4.0174	-2.9179	0.	131.32
683	-1.0285	1.0071	0.	124.58
684	-5.4859	-6.8634	0.	122.85
685	-4.0025	-7.0336	0.	130.54
686	6.8948	-3.3755	0.	117.34
687	-3.5271	6.2143	0.	130.67
688	-1.4857	6.5972	0.	112.82
689	6.5535	4.6117	0.	131.16
690	-6.5452	-1.7586	0.	123.29
691	-6.5043	-1.2996	0.	125.17
692	-6.9807	-0.80984	0.	128.96
693	7.4913	5.5018	0.	119.43
694	-1.0003	6.6343	0.	121.64
695	-3.0381	6.3316	0.	133.24
696	-3.3794	5.755	0.	127.41
697	-3.2164	5.2912	0.	126.72
698	4.3015	-3.936	0.	129.95
699	4.2387	-4.4298	0.	131.59
700	6.9718	-3.9366	0.	115.89
701	-4.002	-8.0118	0.	130.68
702	-4.5158	-7.0435	0.	129.84
703	-5.0579	-7.0471	0.	124.39
704	-6.9382	-7.5496	0.	120.32
705	-2.0136	1.0053	0.	120.86
706	-3.0064	-2.9892	0.	123.55
707	-3.0011	1.001	0.	123.32
708	-3.4976	1.0004	0.	129.34
709	-3.9944	0.50768	0.	132.4
710	-3.9941	1.2211e-002	0.	131.69
711	-1.9668	-5.0005	0.	118.51
712	-2.9754	-5.5285	0.	128.16
713	-2.9838	-6.0255	0.	128.86
714	0.9362	-2.9075	0.	127.46
715	0.9862	-0.49257	0.	128.72
716	0.48291	4.5353e-003	0.	125.98
717	-1.4867e-002	3.7421e-003	0.	120.88
718	-0.89912	-4.0212	0.	122.4
719	7.0403	-2.9301	0.	122.59
720	7.5053	-2.969	0.	125.8
721	8.0037	-1.9903	0.	130.3
722	7.9938	1.4174e-003	0.	132.65
723	7.987	0.49965	0.	133.88
724	3.9852	-1.9836	0.	134.38
725	3.9928	0.49196	0.	133.36
726	-5.9859	5.9886	0.	129.37
727	6.9738	2.7028	0.	117.26
728	5.9849	3.6729	0.	119.59
729	5.9261	3.1986	0.	120.89
730	5.308	2.8315	0.	127.8
731	5.1504	2.38	0.	127.83
732	7.6486	1.8985	0.	126.
733	-2.6589e-002	-6.7872	0.	123.83
734	-0.9141	-4.5237	0.	122.07
735	2.4068	4.4632	0.	130.73
736	-5.0049	2.9799	0.	130.96
737	-5.0085	3.4726	0.	131.48
738	-7.9995	2.0133	0.	123.56
739	-7.9981	1.5254	0.	124.53
740	-7.4936	1.0519	0.	122.72
741	-6.9915	1.0477	0.	119.45
742	-5.9891	1.037	0.	123.85
743	-5.4898	1.0291	0.	129.85
744	-4.9942	1.5086	0.	132.14
745	-4.9974	1.9992	0.	131.
746	-4.8799	-4.6943	0.	129.93
747	-5.682	-4.0825	0.	131.45
748	5.1076	-4.9587	0.	122.75
749	5.0438	-5.9735	0.	124.24
750	5.0166	-6.4773	0.	126.54
751	5.9999	-6.9971	0.	121.51
752	2.9077	6.0424	0.	132.99
753	2.8349	5.5124	0.	132.27
754	3.4193	4.9899	0.	129.18
755	3.949	5.0029	0.	124.22
756	6.0072	5.062	0.	126.34
757	6.5135	5.0776	0.	134.96
758	6.9959	5.5419	0.	123.82
759	6.9955	6.0184	0.	125.11
760	-6.639	7.0139	0.	130.65
761	-8.4935	8.7574e-002	0.	121.89
762	-8.4966	0.55941	0.	123.24
763	-8.4982	1.0388	0.	124.35
764	-8.4993	1.5245	0.	124.76
765	-8.5	2.0147	0.	124.36
766	-8.5001	2.5083	0.	124.37
767	-6.9543	-2.9029	0.	122.99
768	-8.1505e-003	3.5111	0.	130.61
769	-0.49036	3.5658	0.	135.95
770	-1.9234	4.1384	0.	118.8
771	-8.1178	-6.5758	0.	130.61
772	-8.0654	-7.0305	0.	130.63
773	-6.3858	-7.1859	0.	122.52
774	-6.2979	-6.7915	0.	121.7
775	1.3617	5.7077	0.	130.38
776	1.8705	6.1693	0.	131.01
777	-9.4163e-002	6.1301	0.	134.3
778	0.89741	6.5922	0.	121.23
779	1.4281	-6.488	0.	129.77
780	1.9105	-6.4551	0.	132.91
781	1.7812	-4.4484	0.	136.16
782	2.3178	-5.4246	0.	128.47
783	2.3195	-4.9257	0.	129.95
784	-2.4961	-3.0001	0.	120.15
785	-0.51236	2.7587e-003	0.	118.41
786	4.4874	0.98602	0.	130.03
787	-7.5871	-3.6931	0.	117.7
788	-8.0675	-3.6252	0.	123.45
789	-8.5494	-3.5874	0.	128.93
790	-8.5602	-4.0838	0.	131.35
791	-8.5489	-4.5849	0.	129.82
792	-8.5022	-5.0879	0.	126.59
793	-8.4366	-5.596	0.	129.41
794	-8.3716	-6.1319	0.	130.59
795	-8.5386	-7.0465	0.	130.36
796	-8.5005	-8.0079	0.	127.71
797	8.5958	4.5911	0.	134.62
798	8.5263	5.0204	0.	132.96
799	8.4987	5.4954	0.	129.78
800	8.4919	5.9884	0.	126.67
801	8.4931	6.4886	0.	125.06
802	8.4961	6.9925	0.	124.39
803	8.4978	7.4942	0.	124.35
804	8.499	7.9962	0.	124.61
805	2.9847	8.0091	0.	131.15
806	7.9849	-3.9843	0.	124.87
807	5.8417e-002	-8.0636	0.	125.27
808	-3.0002	-8.0058	0.	130.94
809	7.9997	-8.4999	0.	123.77
810	7.4993	-8.4998	0.	122.21
811	6.9984	-8.4994	0.	121.36
812	5.494	-8.4947	0.	123.84
813	4.9919	-8.4886	0.	125.22
814	4.4903	-8.4825	0.	126.36
815	3.9891	-8.4762	0.	127.21
816	3.4893	-8.4736	0.	127.76
817	2.9912	-8.4758	0.	127.98
818	2.494	-8.4836	0.	127.8
819	1.9979	-8.4953	0.	127.17
820	1.5032	-8.51	0.	126.26
821	1.0106	-8.5246	0.	125.51
822	0.51826	-8.5334	0.	125.42
823	2.2844e-002	-8.5215	0.	126.35
824	-3.	-8.5034	0.	130.96
825	-3.5005	-8.5055	0.	130.38
826	-4.0007	-8.507	0.	129.4
827	8.4913	2.8764	0.	135.16
828	8.5275	2.4093	0.	130.89
829	8.5547	1.9369	0.	128.91
830	8.5472	1.4584	0.	128.28
831	8.5155	0.97749	0.	129.91
832	8.4997	0.49106	0.	131.41
833	8.4969	-2.0509e-003	0.	131.29
834	8.4973	-0.4988	0.	130.35
835	8.4987	-0.99696	0.	129.62
836	8.5008	-1.4956	0.	129.47
837	8.5021	-1.9941	0.	129.71
838	8.5021	-2.493	0.	129.88
839	8.4985	-2.9923	0.	129.39
840	8.4929	-3.4919	0.	129.02
841	8.4912	-3.9922	0.	130.19
842	8.4999	-6.9999	0.	129.36
843	8.4999	-7.4999	0.	127.12
844	8.4999	-8.	0.	126.04
845	8.4999	-8.5	0.	125.55
846	6.9998	7.9994	0.	128.73
847	-6.0438	8.5079	0.	126.23
848	-5.5231	8.5004	0.	125.58
849	-5.0077	8.5027	0.	125.56
850	-3.4924	8.5505	0.	125.96
851	-2.4961	8.5291	0.	124.64
852	-1.503	8.5288	0.	123.49
853	-1.0056	8.5381	0.	123.72
854	-0.50806	8.5445	0.	124.25
855	-1.0685e-002	8.5469	0.	124.68
856	0.48694	8.5455	0.	124.94
857	0.98547	8.5408	0.	125.21
858	1.4854	8.5333	0.	125.77
859	2.4892	8.5135	0.	128.45
860	2.9918	8.5065	0.	130.93
861	6.9999	8.4993	0.	129.2
862	7.4999	8.4986	0.	126.85
863	7.9997	8.498	0.	125.54
864	8.4996	8.4977	0.	124.93
865	-6.9944	-8.5122	0.	121.98
866	-7.4938	-8.4982	0.	123.35
867	-7.995	-8.4977	0.	125.18
868	-8.4978	-8.5029	0.	126.97
869	-1.0176	0.50371	0.	124.78
870	-1.9769	-3.5034	0.	125.61
871	-7.9998	2.5078	0.	121.46
872	-8.5002	3.0046	0.	126.21
873	-5.9709	4.4762	0.	125.33
874	-7.4574	-7.4406	0.	123.04
875	8.9577	3.7235	0.	130.81
876	1.8531	-5.9341	0.	134.24
877	1.8084	-5.4266	0.	127.21
878	0.39746	5.9805	0.	124.75
879	1.3699	6.1525	0.	125.07
880	-6.8099	-7.107	0.	115.12
881	-7.6182	-6.9707	0.	128.41
882	-7.2086	-6.9828	0.	119.81
883	-1.4494	3.71	0.	115.49
884	-0.96829	3.6344	0.	127.91
885	8.5864	4.1988	0.	127.64
886	8.4842	3.7989	0.	130.7
887	-8.3543	6.9114	0.	130.61
888	-7.7655	6.8455	0.	105.02
889	-5.9966	3.9818	0.	125.04
890	-8.	3.0041	0.	121.64
891	-8.4498	6.4526	0.	130.98
892	6.4999	8.5	0.	132.44
893	6.4975	5.5449	0.	133.41
894	3.4099	5.5025	0.	133.7
895	3.4948	8.5022	0.	134.29
896	8.4999	-6.4997	0.	133.48
897	8.4938	-4.4941	0.	134.1
898	5.5098	-6.4902	0.	128.01
899	-5.3172	-4.6225	0.	140.19
900	-8.0958	-4.1153	0.	136.69
901	-5.4938	1.5154	0.	133.35
902	-7.4973	1.5304	0.	126.42
903	-5.504	3.4791	0.	133.61
904	1.9866	3.9523	0.	142.13
905	-0.4108	4.0663	0.	141.94
906	5.8735	2.6825	0.	124.18
907	-8.5001	3.5022	0.	130.88
908	-6.5604	6.5157	0.	131.86
909	4.4953	0.49007	0.	136.04
910	4.5003	-2.486	0.	138.29
911	7.474	0.50398	0.	136.14
912	7.513	-2.4767	0.	131.53
913	-1.4599	-3.5079	0.	129.54
914	0.48808	-0.49418	0.	129.36
915	-2.4783	-5.5104	0.	128.65
916	-2.499	-8.5015	0.	131.5
917	-0.47399	-8.4764	0.	128.38
918	-3.4974	0.50287	0.	133.17
919	-1.5131	0.5025	0.	128.73
920	-1.0096	1.8607e-003	0.	123.37
921	-1.9894	-3.0032	0.	124.69
922	-6.4538	-7.6022	0.	125.38
923	-4.5079	-7.5274	0.	133.27
924	-6.9978	-9.0063	0.	124.67
925	-7.4974	-9.001	0.	124.63
926	-7.9973	-8.9993	0.	125.66
927	-8.4983	-9.0012	0.	126.92
928	-8.9992	-9.0011	0.	128.13
929	-9.	-8.5046	0.	128.3
930	-9.0035	-8.0088	0.	128.79
931	-9.0118	-7.5172	0.	129.47
932	-9.0202	-7.0297	0.	129.91
933	-8.9518	-6.0576	0.	129.08
934	-8.9631	-5.5638	0.	127.66
935	-8.9965	-5.0631	0.	127.14
936	-9.023	-4.5599	0.	128.37
937	-9.034	-4.056	0.	130.62
938	-9.0319	-3.553	0.	131.9
939	-9.0253	-3.0466	0.	134.48
940	-9.0142	-2.5173	0.	134.16
941	-9.1766	-1.991	0.	130.11
942	-8.9801	-0.89755	0.	136.02
943	-8.9921	-0.42228	0.	128.97
944	-8.9967	5.6054e-002	0.	126.62
945	-8.9987	0.53886	0.	126.15
946	-8.9996	1.0258	0.	126.21
947	-9.0001	1.5165	0.	126.2
948	-9.0002	3.5013	0.	129.64
949	-9.0001	4.0003	0.	129.86
950	-8.9999	4.4992	0.	129.42
951	-8.9991	4.9973	0.	129.78
952	-8.9962	5.493	0.	129.34
953	-8.9854	5.9837	0.	130.37
954	-8.9163	6.9594	0.	133.4
955	-8.8932	7.4509	0.	131.38
956	-8.888	7.9882	0.	125.84
957	-8.9946	8.5317	0.	128.79
958	-9.0154	9.0336	0.	131.87
959	-8.5287	9.0778	0.	132.17
960	-8.0362	9.1068	0.	118.7
961	-7.5364	9.1044	0.	113.3
962	-7.032	9.0767	0.	127.08
963	-6.5277	9.0355	0.	133.32
964	-6.0228	9.0113	0.	128.92
965	-5.5161	9.0029	0.	126.41
966	-5.009	9.0033	0.	125.88
967	-4.5039	9.0094	0.	125.91
968	-4.0003	9.0192	0.	125.96
969	-3.498	9.0284	0.	125.83
970	-2.9971	9.0277	0.	125.47
971	-2.4981	9.0195	0.	124.97
972	-2.0003	9.016	0.	124.51
973	-1.5025	9.019	0.	124.29
974	-1.0041	9.0244	0.	124.37
975	-0.50528	9.0287	0.	124.65
976	-6.1558e-003	9.0304	0.	124.97
977	0.49327	9.0295	0.	125.26
978	0.99317	9.0262	0.	125.58
979	1.4937	9.0209	0.	126.04
980	1.9945	9.0145	0.	126.76
981	2.4953	9.0087	0.	127.83
982	2.9961	9.0044	0.	129.23
983	3.4972	9.0017	0.	129.46
984	3.9981	9.0005	0.	125.83
985	4.4989	9.0001	0.	120.96
986	4.9994	9.	0.	118.58
987	5.4997	9.	0.	120.19
988	5.9999	9.	0.	124.51
989	6.5	8.9999	0.	127.95
990	7.	8.9995	0.	127.8
991	7.5	8.9991	0.	126.51
992	7.9999	8.9989	0.	125.63
993	8.4998	8.9987	0.	125.15
994	8.9998	8.9986	0.	124.88
995	8.9995	8.4977	0.	124.66
996	8.999	7.9962	0.	124.51
997	8.998	7.4948	0.	124.55
998	8.9963	6.9924	0.	124.94
999	8.9947	6.4919	0.	125.86
1000	8.9963	5.9963	0.	127.46
1001	9.0056	5.5111	0.	129.46
1002	9.0276	5.0372	0.	130.9
1003	9.0511	4.5727	0.	129.63
1004	9.0349	4.1269	0.	128.31
1005	8.9424	3.3385	0.	132.79
1006	8.9895	2.9098	0.	133.97
1007	9.0172	2.4393	0.	132.2
1008	9.0323	1.957	0.	130.6
1009	9.0295	1.4697	0.	129.96
1010	9.015	0.98067	0.	130.2
1011	8.9999	-4.0344e-003	0.	130.52
1012	8.9988	-0.50049	0.	129.97
1013	9.0001	-1.4972	0.	129.47
1014	9.001	-1.9967	0.	129.74
1015	9.0007	-2.4965	0.	130.03
1016	8.9988	-2.9963	0.	130.2
1017	8.9962	-3.4962	0.	130.54
1018	8.9951	-3.9962	0.	131.46
1019	8.9961	-4.4967	0.	132.02
1020	8.9978	-4.9976	0.	130.74
1021	8.9992	-5.4985	0.	128.89
1022	8.9997	-5.9992	0.	130.26
1023	8.9999	-6.4996	0.	131.22
1024	8.9999	-7.4999	0.	128.82
1025	8.9999	-8.	0.	127.77
1026	8.9999	-8.5	0.	127.16
1027	8.9999	-9.	0.	126.82
1028	8.4999	-9.	0.	125.37
1029	7.9996	-8.9999	0.	123.9
1030	7.4992	-8.9998	0.	122.69
1031	6.9986	-8.9995	0.	122.04
1032	6.4978	-8.9989	0.	122.09
1033	5.9964	-8.9974	0.	122.77
1034	5.4954	-8.9956	0.	123.83
1035	4.9943	-8.9916	0.	125.
1036	4.4935	-8.9883	0.	126.05
1037	3.9932	-8.9852	0.	126.89
1038	2.995	-8.9866	0.	127.67
1039	2.4974	-8.9906	0.	127.57
1040	2.0005	-8.9977	0.	127.17
1041	1.5042	-9.0067	0.	126.62
1042	1.0073	-9.0147	0.	126.14
1043	0.50943	-9.0174	0.	125.92
1044	9.591e-003	-9.0098	0.	125.84
1045	-0.48974	-8.9941	0.	124.39
1046	-0.99008	-8.9925	0.	119.59
1047	-1.4934	-8.9967	0.	116.91
1048	-1.9964	-8.9993	0.	121.34
1049	-2.4982	-9.0008	0.	127.69
1050	-2.9994	-9.0019	0.	130.32
1051	-3.4999	-9.0032	0.	130.82
1052	-4.0002	-9.004	0.	131.02
1053	4.6909	-4.4443	0.	139.52
1054	-2.9077	5.868	0.	138.24
1055	-0.52359	6.1938	0.	146.06
1056	6.9937	5.0976	0.	124.
1057	6.4403	3.1743	0.	130.2
1058	-6.9863	-1.2686	0.	139.31
1059	-8.9416	-1.3574	0.	144.6
1060	-8.5336	8.6285	0.	149.52
1061	-8.0681	8.6861	0.	118.8
1062	-7.0621	8.6309	0.	138.49
1063	-7.5742	8.6775	0.	101.38
1064	-6.6365	7.9916	0.	121.06
1065	-7.2144	7.0437	0.	118.93
1066	-6.9958	7.5552	0.	136.5
1067	-8.4969	8.2036	0.	123.57
1068	-8.4611	-1.2358	0.	128.89
1069	-7.4649	-1.2286	0.	123.99
1070	-7.9618	-1.2119	0.	97.963
1071	-7.0244	-1.7459	0.	115.35
1072	-7.468	-2.7196	0.	125.98
1073	-7.1645	-2.2549	0.	134.71
1074	-8.823	-1.8	0.	124.89
1075	7.9716	3.3546	0.	132.7
1076	6.9563	3.1774	0.	113.91
1077	7.4687	3.2681	0.	106.75
1078	6.4638	3.6468	0.	119.46
1079	6.5222	4.1315	0.	126.66
1080	8.18	4.4378	0.	135.74
1081	8.0315	4.974	0.	132.9
1082	7.491	5.0029	0.	111.01
1083	-0.73959	4.6766	0.	127.87
1084	-0.56587	5.1817	0.	139.32
1085	-0.38701	5.711	0.	130.18
1086	-2.4402	5.98	0.	133.73
1087	-1.9532	6.0582	0.	111.99
1088	-0.97224	6.1853	0.	122.86
1089	-1.4588	6.1314	0.	108.74
1090	-2.5143	4.957	0.	142.97
1091	-2.2155	4.551	0.	121.54
1092	5.0728	-2.9967	0.	128.81
1093	4.8985	-3.4632	0.	140.71
1094	4.7522	-3.9456	0.	122.71
1095	6.1574	-2.976	0.	118.3
1096	6.5074	-3.9504	0.	111.43
1097	6.3677	-3.4469	0.	128.03
1098	5.1384	-4.4501	0.	125.73
1099	5.6004	-4.4546	0.	104.07
1100	-4.5003	-9.003	0.	131.33
1101	-4.5006	-8.5066	0.	131.25
1102	-4.5015	-8.0149	0.	132.12
1103	-6.4982	-9.0075	0.	126.3
1104	-6.4867	-8.0447	0.	123.73
1105	-6.4954	-8.5176	0.	125.4
1106	-1.5022	-0.49989	0.	135.62
1107	-1.5059	1.0312e-003	0.	129.94
1108	-1.9965	-2.5013	0.	124.57
1109	-3.0019	-2.4909	0.	123.58
1110	-2.4985	-2.4997	0.	111.79
1111	-2.0082	0.50191	0.	121.92
1112	-2.504	0.50091	0.	111.79
1113	-3.0005	0.50086	0.	124.07
1114	-3.5023	-1.9788	0.	131.38
1115	-3.5003	-1.4852	0.	133.9
1116	-3.4986	-0.98974	0.	135.7
1117	-3.4971	4.8753e-003	0.	132.56
1118	-3.4976	-0.49263	0.	134.39
1119	-1.9972	-8.4998	0.	122.24
1120	-1.4932	-8.4974	0.	109.8
1121	-0.96444	-5.508	0.	118.85
1122	-1.4755	-5.5022	0.	107.16
1123	-1.9791	-5.502	0.	118.72
1124	0.49597	-2.9254	0.	126.24
1125	0.482	-2.459	0.	130.99
1126	0.4874	-1.9767	0.	132.55
1127	0.49188	-1.4864	0.	131.07
1128	0.4932	-0.99185	0.	128.77
1129	0.14338	-3.4586	0.	123.47
1130	-0.9356	-3.5146	0.	120.58
1131	-0.40591	-3.5096	0.	111.28
1132	-9.2104e-003	-0.49718	0.	120.66
1133	-0.50619	-0.49866	0.	110.07
1134	-1.0043	-0.49928	0.	123.22
1135	-1.4868	-3.0052	0.	130.9
1136	-1.4969	-2.5017	0.	135.83
1137	-1.4995	-2.0005	0.	137.37
1138	-1.5005	-1.	0.	137.34
1139	-1.5	-1.5001	0.	138.73
1140	7.5047	-1.9876	0.	130.91
1141	7.5007	-1.4945	0.	132.8
1142	7.4992	-0.99707	0.	134.12
1143	7.4978	-0.49947	0.	132.71
1144	7.4936	-4.1334e-004	0.	132.65
1145	4.4958	-1.992	0.	134.93
1146	4.4965	-1.4951	0.	135.25
1147	4.4979	-0.9978	0.	136.87
1148	4.4976	-4.2844e-003	0.	135.11
1149	4.4984	-0.50052	0.	135.99
1150	-5.9773	-7.6095	0.	121.81
1151	-5.0072	-7.5404	0.	124.41
1152	-5.4949	-7.594	0.	111.71
1153	-6.5027	6.0031	0.	129.54
1154	-6.4961	3.9947	0.	122.41
1155	-6.4823	4.4937	0.	127.67
1156	-6.4634	4.9921	0.	129.99
1157	-6.4736	5.4933	0.	129.49
1158	-8.	3.5018	0.	122.88
1159	-7.4999	3.5012	0.	113.51
1160	-7.9799	6.4197	0.	116.01
1161	-7.0753	6.5078	0.	116.75
1162	-7.537	6.4362	0.	102.78
1163	-8.5	4.0005	0.	130.75
1164	-8.4997	4.4988	0.	132.35
1165	-8.4874	5.9756	0.	129.18
1166	-8.4962	5.4898	0.	131.48
1167	-8.4989	4.9959	0.	133.47
1168	-0.41914	-7.917	0.	127.57
1169	-0.5014	-7.3896	0.	131.58
1170	-2.4996	-8.0029	0.	131.2
1171	-2.4993	-7.5047	0.	133.72
1172	-2.4893	-6.0108	0.	129.12
1173	-2.4949	-6.5097	0.	132.97
1174	-2.4978	-7.0072	0.	135.18
1175	7.0248	-2.4648	0.	125.27
1176	6.5385	-2.4614	0.	113.61
1177	6.0522	-2.4877	0.	107.64
1178	5.0311	-2.5023	0.	124.28
1179	5.5524	-2.5114	0.	102.48
1180	6.9715	0.45162	0.	119.96
1181	6.4837	0.39628	0.	99.909
1182	6.0158	0.36615	0.	103.81
1183	5.5402	0.49451	0.	123.31
1184	5.0045	0.4873	0.	130.14
1185	6.4998	8.0002	0.	131.63
1186	6.4972	6.0207	0.	130.21
1187	6.4977	6.5082	0.	132.88
1188	6.4988	7.0032	0.	134.57
1189	6.4994	7.5009	0.	133.4
1190	5.9987	5.5315	0.	128.21
1191	5.4955	5.5201	0.	115.5
1192	3.9526	5.503	0.	127.33
1193	4.4771	5.5042	0.	115.01
1194	4.9892	5.5097	0.	115.18
1195	3.9974	8.5005	0.	128.61
1196	5.9999	8.5	0.	126.55
1197	5.4997	8.5	0.	116.58
1198	4.9995	8.5001	0.	117.06
1199	4.4989	8.5001	0.	117.3
1200	3.4456	6.009	0.	134.
1201	3.4682	6.5098	0.	136.09
1202	3.4919	8.0031	0.	133.66
1203	3.4871	7.5048	0.	136.56
1204	3.4798	7.0078	0.	138.04
1205	8.4998	-5.9994	0.	132.47
1206	8.4994	-5.4987	0.	132.27
1207	8.4978	-4.9968	0.	133.22
1208	8.	-6.4999	0.	126.85
1209	7.5	-6.5	0.	117.05
1210	6.0038	-6.4975	0.	121.97
1211	6.5012	-6.4992	0.	114.65
1212	7.0004	-6.4998	0.	116.59
1213	7.9916	-4.4901	0.	126.72
1214	7.4911	-4.4818	0.	117.9
1215	6.9988	-4.4733	0.	119.
1216	5.5222	-5.9876	0.	125.15
1217	5.5617	-4.9711	0.	117.94
1218	5.5382	-5.4822	0.	122.98
1219	-5.7558	-4.5328	0.	136.67
1220	-6.2165	-4.4466	0.	114.4
1221	-6.6905	-4.3524	0.	114.28
1222	-7.1663	-4.2548	0.	110.68
1223	-7.6354	-4.1675	0.	119.31
1224	-7.6408	-6.5133	0.	131.69
1225	-7.7842	-6.0604	0.	127.44
1226	-7.9106	-5.5822	0.	132.98
1227	-8.0992	-4.607	0.	128.83
1228	-8.0201	-5.0972	0.	138.86
1229	-5.4149	-5.088	0.	123.01
1230	-5.6234	-5.535	0.	142.22
1231	-6.6652	-6.6929	0.	118.25
1232	-6.3259	-6.3671	0.	119.43
1233	-5.9127	-5.9883	0.	123.79
1234	-5.994	1.5184	0.	124.97
1235	-6.996	1.5246	0.	120.04
1236	-6.4948	1.5214	0.	111.65
1237	-7.4993	2.0153	0.	125.16
1238	-7.4998	3.0035	0.	120.17
1239	-7.4996	2.5073	0.	123.87
1240	-7.	3.4997	0.	121.08
1241	-6.0014	3.4896	0.	125.79
1242	-6.5002	3.4965	0.	116.76
1243	-5.5027	2.9882	0.	133.22
1244	-5.5009	2.4955	0.	132.37
1245	1.8919	5.3472	0.	132.11
1246	1.9118	4.4379	0.	124.12
1247	-0.28826	4.5532	0.	123.65
1248	0.12389	5.4834	0.	129.27
1249	-9.9079e-002	5.02	0.	141.97
1250	1.4991	3.9317	0.	134.71
1251	1.0101	3.9347	0.	109.38
1252	5.4701e-002	3.988	0.	140.46
1253	0.52916	3.9522	0.	110.99
1254	-0.41348	-5.0458	0.	126.5
1255	1.3619	-5.9372	0.	135.31
1256	0.91427	-6.071	0.	122.03
1257	-1.1298e-002	-6.3553	0.	123.54
1258	0.46197	-6.2199	0.	107.87
1259	0.17588	-4.2913	0.	110.15
1260	1.4499	-4.8853	0.	137.09
1261	1.056	-4.6892	0.	130.22
1262	0.63931	-4.4556	0.	115.92
1263	7.424	1.0444	0.	135.76
1264	6.877	0.88636	0.	117.88
1265	5.9691	0.68941	0.	100.63
1266	6.4059	0.77823	0.	99.112
1267	5.4494	0.97263	0.	122.8
1268	5.4702	1.423	0.	124.89
1269	5.6221	2.2729	0.	130.9
1270	5.5334	1.8553	0.	124.19
1271	8.9999	-9.5	0.	126.65
1272	8.4998	-9.5	0.	125.31
1273	7.9997	-9.4999	0.	124.01
1274	7.4995	-9.4998	0.	122.98
1275	6.9992	-9.4996	0.	122.42
1276	6.4986	-9.4992	0.	122.43
1277	5.998	-9.4984	0.	122.97
1278	5.4974	-9.4974	0.	123.86
1279	4.9969	-9.4955	0.	124.89
1280	4.4967	-9.4942	0.	125.88
1281	3.9967	-9.4927	0.	126.69
1282	3.4971	-9.4932	0.	127.24
1283	2.9979	-9.494	0.	127.51
1284	2.499	-9.496	0.	127.48
1285	2.0012	-9.4991	0.	127.22
1286	1.5028	-9.5031	0.	126.82
1287	1.0037	-9.5066	0.	126.38
1288	0.50366	-9.5075	0.	125.85
1289	3.4432e-003	-9.5042	0.	124.9
1290	-0.49621	-9.4987	0.	122.87
1291	-0.99598	-9.4968	0.	120.29
1292	-1.4965	-9.4979	0.	119.47
1293	-1.9976	-9.4993	0.	122.09
1294	-2.4986	-9.5002	0.	126.31
1295	-2.9992	-9.501	0.	129.67
1296	-3.4996	-9.5016	0.	131.57
1297	-4.	-9.5016	0.	132.56
1298	-4.5002	-9.5012	0.	132.58
1299	-5.0001	-9.5003	0.	122.26
1300	-5.4999	-9.5001	0.	109.5
1301	-5.9995	-9.5008	0.	118.6
1302	-6.4992	-9.5029	0.	127.22
1303	-6.9991	-9.5027	0.	126.61
1304	-7.499	-9.5008	0.	126.15
1305	-7.9989	-9.5001	0.	126.4
1306	-8.4991	-9.5002	0.	127.16
1307	-8.9995	-9.5004	0.	128.14
1308	-9.4999	-9.5004	0.	129.17
1309	-9.4999	-9.001	0.	129.24
1310	-9.5006	-8.5026	0.	129.39
1311	-9.5027	-8.0055	0.	129.56
1312	-9.508	-7.0128	0.	129.34
1313	-9.5001	-6.5171	0.	128.67
1314	-9.4834	-6.0237	0.	127.73
1315	-9.4848	-5.5295	0.	127.02
1316	-9.4969	-5.0326	0.	127.17
1317	-9.5089	-4.5314	0.	128.71
1318	-9.5149	-4.0286	0.	130.74
1319	-9.5148	-3.5256	0.	132.41
1320	-9.5129	-3.0225	0.	132.96
1321	-9.521	-2.5227	0.	132.12
1322	-9.5619	-2.0352	0.	128.97
1323	-9.444	-1.5298	0.	128.58
1324	-9.4834	-0.97949	0.	133.64
1325	-9.4951	-0.47101	0.	131.77
1326	-9.4987	2.5049e-002	0.	130.12
1327	-9.4999	0.51861	0.	129.05
1328	-9.5003	1.0128	0.	128.35
1329	-9.5004	1.5082	0.	127.87
1330	-9.5004	2.005	0.	127.65
1331	-9.5003	2.5031	0.	127.83
1332	-9.5002	3.0018	0.	128.34
1333	-9.5002	3.501	0.	128.76
1334	-9.5001	4.0003	0.	128.7
1335	-9.4999	4.4997	0.	128.63
1336	-9.4995	4.9988	0.	128.73
1337	-9.4976	5.4972	0.	129.18
1338	-9.4913	5.9942	0.	129.84
1339	-9.4782	6.4904	0.	130.41
1340	-9.461	6.9864	0.	129.8
1341	-9.4493	7.4859	0.	127.66
1342	-9.4528	7.9924	0.	125.22
1343	-9.4874	8.5024	0.	125.42
1344	-9.5042	9.0087	0.	126.08
1345	-9.5055	9.5067	0.	125.59
1346	-9.0112	9.5194	0.	126.69
1347	-8.5156	9.5371	0.	125.38
1348	-8.0168	9.549	0.	120.96
1349	-7.5151	9.5482	0.	119.89
1350	-7.0127	9.5362	0.	124.29
1351	-6.5107	9.5193	0.	127.29
1352	-6.0092	9.5074	0.	127.47
1353	-5.5076	9.5024	0.	126.86
1354	-5.0051	9.502	0.	126.6
1355	-4.5031	9.5047	0.	126.46
1356	-4.0014	9.5091	0.	126.27
1357	-3.4999	9.5128	0.	125.98
1358	-2.9992	9.5135	0.	125.61
1359	-2.4993	9.51	0.	125.21
1360	-2.0003	9.5085	0.	124.89
1361	-1.5014	9.5096	0.	124.72
1362	-1.0022	9.512	0.	124.75
1363	-0.50265	9.514	0.	124.95
1364	-2.867e-003	9.5148	0.	125.25
1365	0.49717	9.5144	0.	125.62
1366	0.9974	9.5128	0.	126.03
1367	1.4978	9.5102	0.	126.45
1368	1.9981	9.5071	0.	126.86
1369	2.4984	9.5044	0.	127.16
1370	2.9986	9.5023	0.	127.18
1371	3.4989	9.501	0.	126.32
1372	3.9992	9.5003	0.	124.38
1373	4.4994	9.5001	0.	122.03
1374	4.9996	9.5	0.	120.82
1375	5.4998	9.5	0.	121.46
1376	5.9999	9.5	0.	123.35
1377	6.5	9.4999	0.	125.03
1378	7.	9.4998	0.	125.77
1379	7.5	9.4996	0.	125.77
1380	8.	9.4994	0.	125.57
1381	8.4999	9.4994	0.	125.36
1382	8.9999	9.4994	0.	125.15
1383	9.4999	9.4996	0.	124.92
1384	9.4998	8.9992	0.	124.6
1385	9.4996	8.4985	0.	124.36
1386	9.4993	7.9978	0.	124.28
1387	9.4987	7.4968	0.	124.48
1388	9.4979	6.9961	0.	125.05
1389	9.4987	6.4989	0.	125.98
1390	9.4997	6.002	0.	127.14
1391	9.5048	5.5086	0.	128.2
1392	9.5146	5.0197	0.	128.61
1393	9.5215	4.5316	0.	128.34
1394	9.5044	4.0364	0.	128.4
1395	9.4246	3.5108	0.	130.14
1396	9.4876	2.9777	0.	131.71
1397	9.5073	2.4756	0.	131.91
1398	9.515	1.9797	0.	131.48
1399	9.5142	1.4844	0.	130.97
1400	9.5081	0.98895	0.	130.66
1401	9.5036	0.4935	0.	130.41
1402	9.5008	-3.2085e-003	0.	130.06
1403	9.4997	-0.50098	0.	129.66
1404	9.4998	-0.99955	0.	129.41
1405	9.5	-1.4988	0.	129.48
1406	9.5004	-1.9986	0.	129.82
1407	9.5002	-2.4985	0.	130.27
1408	9.4994	-2.9985	0.	130.66
1409	9.4983	-3.4985	0.	130.92
1410	9.4978	-3.9984	0.	130.95
1411	9.4981	-4.4985	0.	130.46
1412	9.4988	-4.9988	0.	129.39
1413	9.4994	-5.4991	0.	128.73
1414	9.4997	-5.9994	0.	128.99
1415	9.4999	-6.4997	0.	129.73
1416	9.5	-6.9998	0.	129.9
1417	9.5	-7.4999	0.	129.55
1418	9.5	-8.	0.	129.01
1419	9.5	-8.5	0.	128.49
1420	9.5	-9.	0.	128.08
1421	9.5	-9.5	0.	127.83
1422	6.4425	2.7132	0.	113.36
1423	7.2813	1.7352	0.	121.12
1424	6.9941	2.1537	0.	127.69
1425	6.4709	2.2981	0.	109.7
1426	8.9999	-6.9998	0.	130.34
1427	1.8613	-4.948	0.	132.73
1428	-0.87899	4.165	0.	134.75
1429	-1.5286	1.5168	0.	122.98
1430	-4.0038	-7.5215	0.	131.4
1431	3.4617	1.9138	0.	129.88
1432	-2.5061	1.5088	0.	121.64
1433	3.9459	-2.9588	0.	134.36
1434	3.996	-0.49984	0.	132.19
1435	-9.0003	3.003	0.	128.09
1436	2.4411	7.0511	0.	129.23
1437	-6.0069	-3.1382	0.	125.21
1438	5.0488	3.973	0.	118.86
1439	2.4622	7.5328	0.	128.59
1440	-2.5408e-002	7.5795	0.	125.28
1441	-4.4983	8.5155	0.	125.86
1442	1.9821	1.9759	0.	128.91
1443	-4.5243	3.9599	0.	129.42
1444	4.4857	-2.9729	0.	135.11
1445	-2.7666	5.3934	0.	121.72
1446	3.9913	-1.4902	0.	132.56
1447	-6.0887	-2.299	0.	123.36
1448	-6.9824	-8.0227	0.	121.78
1449	0.98825	-0.98733	0.	128.38
1450	-4.5031	-5.622	0.	126.92
1451	8.085	1.9193	0.	125.32
1452	4.652	-4.945	0.	129.15
1453	2.941	6.5375	0.	132.17
1454	4.9888	1.4507	0.	122.37
1455	-5.4845	6.984	0.	129.08
1456	-8.529	-2.6418	0.	133.36
1457	-3.5187	4.7145	0.	127.44
1458	-6.488	-0.83478	0.	128.33
1459	-6.0292	6.4973	0.	131.26
1460	-2.9969	-7.0148	0.	130.85
1461	3.9945	-0.99529	0.	132.44
1462	1.271	-4.3068	0.	132.73
1463	0.48215	-7.1292	0.	118.98
1464	-8.5129	-7.5211	0.	129.05
1465	-5.0214	-2.3436	0.	127.56
1466	2.9143	-2.9528	0.	132.07
1467	-0.38535	-4.5685	0.	129.42
1468	-2.9954	4.8476	0.	129.35
1469	6.4983	-7.4989	0.	119.31
1470	6.4972	-8.4985	0.	121.49
1471	-4.0055	-1.9519	0.	130.25
1472	-4.8783	5.5077	0.	126.68
1473	0.97766	-7.0629	0.	121.32
1474	-7.9959	1.0461	0.	123.51
1475	-4.9875	4.1754e-002	0.	129.07
1476	3.9584	4.5098	0.	123.62
1477	-8.0363	-3.1292	0.	114.07
1478	-0.51831	7.1059	0.	126.3
1479	8.9993	-0.99852	0.	129.53
1480	4.6384	2.4767	0.	127.33
1481	-3.9796	-5.5908	0.	126.98
1482	5.0048	4.5165	0.	116.84
1483	-5.487	-0.41826	0.	126.86
1484	-4.8953	6.9331	0.	128.29
1485	2.9812	1.9343	0.	130.4
1486	-2.5223	6.5126	0.	127.87
1487	2.4489	-6.9475	0.	130.18
1488	-5.9392	5.4761	0.	127.28
1489	4.0994	-5.9207	0.	126.95
1490	2.0749	3.4725	0.	135.58
1491	3.4875	0.98058	0.	131.16
1492	4.4871	-7.4692	0.	127.13
1493	1.4483	7.566	0.	125.09
1494	2.8385	-3.9282	0.	131.87
1495	-5.9822	8.1446e-002	0.	125.64
1496	-3.5127	-2.9641	0.	129.39
1497	6.575	-2.9057	0.	118.17
1498	-1.9556	3.6173	0.	119.28
1499	5.5149	4.5718	0.	117.84
1500	-5.5088	6.4843	0.	129.55
1501	-2.3949	7.0057	0.	123.93
1502	5.4948	-7.4924	0.	124.4
1503	-5.0189	4.4715	0.	127.69
1504	-3.9952	-0.4822	0.	130.48
1505	-3.4972	2.9592	0.	128.32
1506	-2.5063	1.0039	0.	118.94
1507	-2.9859	-4.5189	0.	126.12
1508	1.9832	-9.3864e-004	0.	128.9
1509	-1.962	-4.501	0.	121.27
1510	3.4925	-4.9872e-003	0.	131.4
1511	-4.087	4.7436	0.	126.81
1512	-8.649	-2.2233	0.	136.45
1513	-5.5017	3.9649	0.	128.96
1514	-4.9911	1.0188	0.	131.71
1515	-5.9931	-0.86402	0.	125.92
1516	-3.4942	1.9901	0.	127.34
1517	-4.5001	2.4826	0.	129.61
1518	-3.9959	1.9888	0.	129.2
1519	-1.4558	-5.0054	0.	114.81
1520	6.4998	-6.999	0.	117.61
1521	-7.9927	0.57424	0.	121.37
1522	-2.5232	7.5104	0.	124.59
1523	6.9969	6.5072	0.	125.79
1524	8.0675	1.4557	0.	125.95
1525	2.8899	4.9772	0.	130.18
1526	1.3171	-3.4161	0.	128.74
1527	7.4995	-7.4999	0.	120.62
1528	2.9895	-0.49803	0.	129.87
1529	-9.0004	2.5058	0.	126.58
1530	1.7845	4.9264	0.	139.08
1531	-4.8186	-4.2591	0.	133.66
1532	2.4543	4.0025	0.	132.67
1533	7.6246	1.49	0.	120.52
1534	2.9733	-7.4447	0.	129.
1535	-8.396	7.7984	0.	141.95
1536	-4.997	-0.92699	0.	126.75
1537	-4.5043	-1.4383	0.	127.82
1538	-7.0468	-3.3417	0.	119.9
1539	-6.4817	-0.36984	0.	126.
1540	-8.5341	-3.0992	0.	128.17
1541	-0.93725	-5.0192	0.	118.62
1542	-5.9531	-2.7325	0.	124.84
1543	3.2571	-5.3854	0.	128.46
1544	1.9728	1.4805	0.	128.78
1545	-1.9971	7.5347	0.	121.63
1546	8.0054	-2.4864	0.	130.17
1547	4.4741	5.0087	0.	117.88
1548	-8.3077	7.3663	0.	131.84
1549	7.9924	2.8492	0.	127.4
1550	-2.4896	-4.0018	0.	124.3
1551	2.3312	-3.9327	0.	133.25
1552	-6.4899	1.0438	0.	118.34
1553	2.4076	-6.4348	0.	130.96
1554	3.4691	-6.9049	0.	128.55
1555	-3.5059	-2.469	0.	132.56
1556	-4.0046	2.9592	0.	129.23
1557	-3.9955	1.4975	0.	130.18
1558	-4.9624	-5.1623	0.	127.88
1559	0.89501	6.1133	0.	115.29
1560	7.9999	-6.9999	0.	124.79
1561	-7.5381	-3.2127	0.	117.69
1562	-5.4044	5.4624	0.	126.9
1563	3.5003	2.3259	0.	129.65
1564	2.9887	-5.0535e-003	0.	130.3
1565	-2.472	-5.009	0.	124.61
1566	-3.933	7.5798	0.	127.58
1567	-5.5062	-2.7558	0.	126.97
1568	1.3223	-3.8737	0.	130.63
1569	4.196	-4.9252	0.	130.66
1570	3.8888	-3.4423	0.	131.13
1571	4.9802	0.97117	0.	126.63
1572	-0.98268	-8.4881	0.	120.9
1573	-4.9885	0.5301	0.	130.4
1574	-3.5787	-4.014	0.	128.18
1575	1.9865	8.5239	0.	126.8
1576	1.4202	7.0877	0.	124.7
1577	1.4895	2.4802	0.	126.67
1578	3.4771	-7.437	0.	128.48
1579	-4.0082	6.1237	0.	128.05
1580	-5.2295	-4.1681	0.	136.02
1581	-5.8626	-6.4295	0.	123.93
1582	5.9957	-8.497	0.	122.46
1583	5.997	-7.4967	0.	121.72
1584	-1.4399	-4.0085	0.	123.9
1585	-8.5479	-6.5889	0.	130.74
1586	8.4627	3.3437	0.	140.85
1587	4.4856	4.5131	0.	119.27
1588	-9.5062	-7.5093	0.	129.61
1589	-5.9849	-0.39231	0.	126.33
1590	2.9158	3.9927	0.	130.4
1591	3.6128	2.7584	0.	129.13
1592	-8.9586	6.4727	0.	132.01
1593	-5.4981	2.0038	0.	132.12
1594	3.9742	-2.4741	0.	135.73
1595	-3.0202	-4.007	0.	125.87
1596	3.9887	0.99192	0.	131.42
1597	-0.51449	7.5814	0.	124.41
1598	2.4868	1.9601	0.	130.15
1599	-1.5212	1.0077	0.	124.43
1600	3.7075	-5.3906	0.	128.46
1601	2.957	-6.9226	0.	129.41
1602	3.995	-4.327e-003	0.	133.25
1603	4.5248	1.9883	0.	126.56
1604	-3.9978	-0.97455	0.	130.39
1605	-5.9849	0.55805	0.	124.71
1606	9.0041	0.48959	0.	130.64
1607	-9.0055	-6.5434	0.	129.74
1608	2.809	-4.4188	0.	131.12
1609	-9.0004	2.0105	0.	126.14
1610	2.9186	-6.4065	0.	129.35
1611	1.9772	-7.4833	0.	128.18
1612	1.8531	-3.4326	0.	131.68
1613	-1.0397	1.517	0.	123.85
1614	-5.4964	7.4873	0.	127.43
1615	4.99	5.0185	0.	115.25
1616	-1.5911e-002	-7.224	0.	123.79
1617	6.0254	4.1365	0.	117.4
1618	2.3508	-5.927	0.	129.48
1619	-3.5964	4.2909	0.	129.01
1620	0.42274	6.5548	0.	123.98
1621	-0.32388	-4.0488	0.	125.27
1622	0.95264	7.5695	0.	124.4
1623	4.9919	-7.4832	0.	126.17
1624	-4.4914	0.51753	0.	131.51
1625	0.46171	2.9917	0.	122.42
1626	-5.0111	3.9692	0.	129.86
1627	-2.4771	-4.5058	0.	123.97
1628	-4.4971	1.9929	0.	130.17
1629	5.5003	-6.9908	0.	125.52
1630	7.4998	-6.9999	0.	119.48
1631	-2.993	8.5501	0.	125.46
1632	-7.1083	-3.796	0.	114.01
1633	-4.5982	-3.846	0.	132.59
1634	2.479	0.97947	0.	129.82
1635	1.3942	6.6154	0.	124.14
1636	3.4937	-8.9845	0.	127.44
1637	-3.6917	6.6658	0.	129.65
1638	-4.0101	-2.4342	0.	131.15
1639	-3.4929	2.4787	0.	127.58
1640	-0.5232	6.6395	0.	131.21
1641	0.72894	-3.3865	0.	125.51
1642	1.5222	3.4544	0.	128.22
1643	3.4845	-1.4863	0.	131.4
1644	2.6539	3.5279	0.	133.28
1645	3.4262	-2.954	0.	132.88
1646	3.49	0.48852	0.	131.71
1647	2.7967	-5.4062	0.	128.15
1648	-6.0106	-1.3368	0.	124.35
1649	3.4668	-6.3358	0.	128.24
1650	-1.4414	-4.5079	0.	119.84
1651	-2.	8.5243	0.	123.84
1652	7.4932	5.9996	0.	122.4
1653	-3.9937	8.5344	0.	126.07
1654	-4.4929	1.0102	0.	131.88
1655	1.9531	7.5528	0.	126.62
1656	-6.9823	0.10824	0.	121.68
1657	-2.501	2.0157	0.	122.95
1658	-4.4749	-6.0881	0.	127.69
1659	-5.3208	4.909	0.	126.5
1660	5.5428	4.1374	0.	117.71
1661	-3.4879	-4.5577	0.	127.42
1662	0.46215	7.5728	0.	124.75
1663	-4.4975	-0.95298	0.	128.12
1664	-2.8031	6.8969	0.	128.42
1665	-3.04	3.9092	0.	130.07
1666	2.473	-7.4613	0.	129.07
1667	6.5231	-4.4765	0.	126.72
1668	6.0636	-4.4689	0.	116.26
1669	-6.5594	8.5365	0.	135.87
1670	-7.4808	-0.34372	0.	118.32
1671	-7.4757	-0.79095	0.	118.24
1672	-7.9841	-0.34848	0.	115.04
1673	-7.9752	-0.7903	0.	107.59
1674	-8.4884	-0.37504	0.	120.89
1675	-8.4779	-0.82215	0.	121.37
1676	-1.0188	3.0949	0.	124.76
1677	-1.4962	3.1198	0.	121.08
1678	2.4184	6.5846	0.	130.55
1679	2.3949	6.1273	0.	131.88
1680	-0.44039	-5.5146	0.	130.59
1681	-0.47057	-5.9748	0.	133.52
1682	-0.50526	-6.4391	0.	139.15
1683	-0.51181	-6.9063	0.	135.27
1684	1.4702	5.3013	0.	130.19
1685	7.7739	4.6159	0.	126.98
1686	5.3775	-3.94	0.	134.86
1687	5.25	-3.715	0.	129.79
1688	4.9361	-3.9428	0.	147.76
1689	5.1292	-4.1951	0.	149.26
1690	5.8925	-3.94	0.	128.89
1691	6.0225	-3.715	0.	122.12
1692	6.3287	-3.9452	0.	136.16
1693	6.1068	-4.2044	0.	138.52
1694	5.51	-3.265	0.	91.964
1695	5.7675	-3.265	0.	90.933
1696	5.3564	-3.0183	0.	112.09
1697	5.8987	-3.008	0.	106.82
1698	5.5962	-2.7757	0.	98.865
1699	6.06	2.0017	0.	121.67
1700	6.2517	2.0667	0.	97.995
1701	5.9868	2.4412	0.	120.95
1702	5.8611	2.2364	0.	123.77
1703	6.2854	2.2491	0.	112.59
1704	5.9	1.2083	0.	137.97
1705	6.0517	1.075	0.	120.46
1706	5.9145	0.84971	0.	122.59
1707	5.6547	0.99131	0.	132.32
1708	6.8583	1.5333	0.	122.46
1709	6.8183	1.335	0.	123.74
1710	7.217	1.2222	0.	155.04
1711	7.1457	1.5676	0.	147.69
1712	7.075	4.395	0.	130.22
1713	7.3425	4.485	0.	87.086
1714	6.8417	4.6409	0.	126.45
1715	7.0619	4.8838	0.	123.57
1716	7.3105	4.8365	0.	115.93
1717	6.965	3.845	0.	144.76
1718	7.1775	3.66	0.	124.54
1719	6.9331	3.3737	0.	135.03
1720	6.6869	3.6084	0.	136.6
1721	7.7675	4.115	0.	106.75
1722	7.7125	3.84	0.	123.62
1723	8.2321	3.8645	0.	144.46
1724	7.9758	3.6423	0.	144.64
1725	8.08	4.1839	0.	146.77
1726	0.26333	-5.8617	0.	124.54
1727	8.1667e-002	-5.7433	0.	149.93
1728	2.9351e-002	-6.1577	0.	138.32
1729	-0.20028	-5.9674	0.	142.42
1730	1.0367	-5.4683	0.	120.07
1731	1.0483	-5.2517	0.	117.63
1732	1.5192	-5.3983	0.	145.84
1733	1.296	-5.6536	0.	149.48
1734	1.34	-5.1276	0.	150.44
1735	0.12833	-4.8767	0.	142.12
1736	0.32167	-4.7783	0.	116.63
1737	0.15794	-4.4756	0.	126.09
1738	-0.12267	-4.6142	0.	134.85
1739	-1.29	4.5483	0.	118.09
1740	-1.545	4.4933	0.	99.88
1741	-1.6467	4.2192	0.	115.25
1742	-1.4097	4.005	0.	114.11
1743	-1.1245	4.2325	0.	123.8
1744	-0.97	5.5417	0.	146.76
1745	-1.145	5.735	0.	138.12
1746	-0.6385	5.7505	0.	146.72
1747	-0.93112	5.9877	0.	143.59
1748	-2.245	5.2667	0.	128.36
1749	-2.165	5.515	0.	137.04
1750	-2.4301	5.72	0.	154.42
1751	-2.5933	5.4267	0.	148.89
1752	1.3533	4.5983	0.	146.08
1753	1.2367	4.4067	0.	140.77
1754	1.6859	4.419	0.	149.46
1755	1.4796	4.1659	0.	155.1
1756	0.92667	5.3917	0.	105.52
1757	0.70333	5.3983	0.	102.38
1758	1.0909	5.6488	0.	120.27
1759	0.60873	5.7853	0.	117.28
1760	0.8575	5.8516	0.	112.69
1761	0.34333	4.4333	0.	140.83
1762	0.23667	4.6317	0.	141.13
1763	-8.413e-002	4.4966	0.	151.02
1764	8.7351e-002	4.214	0.	159.38
1765	-7.3625	8.26	0.	136.46
1766	-7.24	8.005	0.	121.16
1767	-7.071	8.4354	0.	151.81
1768	-6.8583	8.1158	0.	143.68
1769	-7.9275	8.3	0.	140.41
1770	-8.0875	8.065	0.	135.61
1771	-8.139	8.503	0.	144.85
1772	-8.3534	8.2618	0.	147.48
1773	-7.56	7.535	0.	88.435
1774	-7.8425	7.555	0.	101.81
1775	-7.7428	7.0727	0.	104.03
1776	-7.4672	7.1719	0.	111.
1777	-8.0139	7.3332	0.	117.41
1778	-7.87	-2.355	0.	93.184
1779	-8.1525	-2.3325	0.	101.67
1780	-7.749	-2.6548	0.	115.47
1781	-8.2795	-2.6159	0.	119.4
1782	-8.0331	-2.8596	0.	109.64
1783	-7.55	-1.885	0.	124.21
1784	-7.6725	-1.6275	0.	136.27
1785	-7.4275	-1.4393	0.	144.34
1786	-7.2072	-1.698	0.	140.56
1787	-8.3975	-1.8175	0.	133.92
1788	-8.2375	-1.5825	0.	138.26
1789	-8.4906	-1.3979	0.	148.27
1790	-8.6715	-1.68	0.	146.89
1791	-7.6375	-4.8538	0.	146.01
1792	-7.4763	-4.6663	0.	136.74
1793	-7.6777	-4.3938	0.	141.14
1794	-7.9096	-4.6135	0.	145.23
1795	-7.1425	-6.2562	0.	118.56
1796	-6.8987	-6.3025	0.	103.54
1797	-7.1343	-6.7364	0.	117.18
1798	-7.3504	-6.5016	0.	122.99
1799	-6.8626	-6.5914	0.	115.93
1800	-6.0138	-4.9437	0.	138.11
1801	-5.9313	-5.1775	0.	134.22
1802	-5.7629	-4.7614	0.	154.22
1803	-5.5925	-5.039	0.	147.82
1804	6.	-5.25	0.	129.81
1805	6.25	-5.	0.	120.29
1806	5.7808	-4.9855	0.	120.87
1807	6.0318	-4.7344	0.	120.83
1808	6.	-5.75	0.	132.2
1809	6.25	-6.	0.	121.71
1810	6.0019	-6.2487	0.	125.83
1811	5.7611	-5.9938	0.	127.22
1812	7.75	-5.	0.	127.56
1813	8.	-5.25	0.	141.08
1814	8.2489	-4.9984	0.	134.69
1815	7.9958	-4.745	0.	131.76
1816	7.75	-6.	0.	126.74
1817	8.	-5.75	0.	141.08
1818	8.2499	-5.9997	0.	134.32
1819	8.	-6.25	0.	131.85
1820	4.	7.75	0.	142.84
1821	4.25	8.	0.	127.12
1822	3.9987	8.2502	0.	133.84
1823	3.746	8.0015	0.	135.97
1824	4.	6.25	0.	141.21
1825	4.25	6.	0.	125.23
1826	3.9763	5.7515	0.	131.86
1827	3.7228	6.0045	0.	134.81
1828	5.75	8.	0.	125.52
1829	6.	7.75	0.	140.06
1830	6.2499	8.0001	0.	133.53
1831	5.9999	8.25	0.	131.33
1832	5.75	6.	0.	125.66
1833	6.	6.25	0.	140.43
1834	6.2486	6.0103	0.	133.28
1835	5.9994	5.7658	0.	132.59
1836	5.	-0.25	0.	140.71
1837	5.25	0.	0.	124.89
1838	4.7488	-2.1422e-003	0.	136.09
1839	5.0023	0.24365	0.	133.88
1840	5.	-1.75	0.	136.86
1841	5.25	-2.	0.	119.36
1842	4.7479	-1.996	0.	133.
1843	5.0155	-2.2511	0.	127.86
1844	6.75	0.	0.	116.
1845	7.	-0.25	0.	133.9
1846	7.2468	-2.0667e-004	0.	130.35
1847	6.9857	0.22581	0.	124.22
1848	6.75	-2.	0.	121.36
1849	7.	-1.75	0.	136.77
1850	7.2524	-1.9938	0.	131.79
1851	7.0124	-2.2324	0.	129.28
1852	-1.	-1.25	0.	137.58
1853	-0.75	-1.	0.	119.57
1854	-1.0022	-0.74964	0.	128.41
1855	-1.2502	-1.	0.	135.13
1856	-1.	-2.75	0.	137.19
1857	-0.75	-3.	0.	118.87
1858	-0.9678	-3.2573	0.	125.9
1859	-1.2434	-3.0026	0.	130.66
1860	-0.25	-1.	0.	118.02
1861	0.	-1.25	0.	134.69
1862	0.2466	-0.99592	0.	129.31
1863	-4.6052e-003	-0.74859	0.	125.57
1864	-0.25	-3.	0.	119.1
1865	0.	-2.75	0.	134.89
1866	0.24798	-2.9627	0.	128.62
1867	7.1692e-002	-3.2293	0.	127.66
1868	-2.	-6.25	0.	135.27
1869	-1.75	-6.	0.	117.28
1870	-1.9896	-5.751	0.	124.52
1871	-2.2446	-6.0054	0.	129.36
1872	-2.	-7.75	0.	136.79
1873	-1.75	-8.	0.	119.52
1874	-1.9986	-8.2499	0.	127.35
1875	-2.2498	-8.0015	0.	131.47
1876	-1.25	-6.	0.	117.69
1877	-1.	-6.25	0.	138.
1878	-0.98222	-5.754	0.	124.94
1879	-0.73528	-5.9874	0.	131.66
1880	-1.25	-8.	0.	118.63
1881	-1.	-7.75	0.	135.71
1882	-0.70957	-7.9585	0.	128.72
1883	-0.99134	-8.2441	0.	125.71
1884	-3.	-0.25	0.	138.29
1885	-2.75	0.	0.	121.34
1886	-3.0003	0.25043	0.	129.04
1887	-3.2486	2.4377e-003	0.	132.96
1888	-3.	-1.75	0.	137.6
1889	-2.75	-2.	0.	120.34
1890	-3.0009	-2.2455	0.	128.38
1891	-3.2511	-1.9894	0.	131.97
1892	-2.25	0.	0.	120.98
1893	-2.	-0.25	0.	138.52
1894	-1.753	5.1559e-004	0.	131.12
1895	-2.0041	0.25096	0.	127.56
1896	-2.25	-2.	0.	121.1
1897	-2.	-1.75	0.	138.6
1898	-1.9983	-2.2507	0.	129.7
1899	-1.7497	-2.0002	0.	135.74
1900	-8.	5.75	0.	132.42
1901	-7.75	6.	0.	115.13
1902	-7.9899	6.2098	0.	121.67
1903	-8.2437	5.9878	0.	127.92
1904	-8.	4.25	0.	135.76
1905	-7.75	4.	0.	119.32
1906	-8.	3.7509	0.	127.41
1907	-8.25	4.0002	0.	131.07
1908	-7.25	6.	0.	114.8
1909	-7.	5.75	0.	131.56
1910	-6.7513	6.0016	0.	127.88
1911	-7.0377	6.2539	0.	121.7
1912	-7.25	4.	0.	117.72
1913	-7.	4.25	0.	132.12
1914	-6.748	3.9973	0.	125.17
1915	-7.	3.7499	0.	125.04
1916	-7.	2.75	0.	133.03
1917	-6.75	3.	0.	120.34
1918	-7.2499	3.0018	0.	124.29
1919	-7.	3.2499	0.	125.32
1920	-7.	2.25	0.	132.97
1921	-6.75	2.	0.	119.37
1922	-6.998	1.7623	0.	124.54
1923	-7.2497	2.0077	0.	126.81
1924	-6.25	3.	0.	123.25
1925	-6.	2.75	0.	139.61
1926	-6.0007	3.2448	0.	130.43
1927	-5.7514	2.9941	0.	133.87
1928	-6.25	2.	0.	122.44
1929	-6.	2.25	0.	139.61
1930	-5.997	1.7592	0.	130.07
1931	-5.749	2.0019	0.	133.32
1932	-6.	-8.25	0.	134.28
1933	-5.75	-8.	0.	120.86
1934	-6.2434	-8.0223	0.	126.99
1935	-5.9886	-7.8048	0.	126.38
1936	-6.	-8.75	0.	133.16
1937	-5.75	-9.	0.	118.34
1938	-6.2491	-9.0038	0.	127.06
1939	-5.9997	-9.2504	0.	123.51
1940	-5.25	-8.	0.	122.15
1941	-5.	-8.25	0.	137.87
1942	-4.7508	-8.0075	0.	132.39
1943	-5.0036	-7.7702	0.	128.81
1944	-5.25	-9.	0.	120.63
1945	-5.	-8.75	0.	137.75
1946	-4.7501	-9.0015	0.	131.85
1947	-5.	-9.2501	0.	127.64
1948	9.75	10.	0.	125.05
1949	10.	9.75	0.	124.94
1950	-9.75	10.	0.	125.14
1951	-10.	9.75	0.	124.76
1952	10.	-9.75	0.	128.53
1953	9.75	-10.	0.	128.1
1954	-10.	-9.75	0.	130.04
1955	-9.75	-10.	0.	129.58
1956	5.6177	-4.1973	0.	100.36
1957	5.1393	-3.4766	0.	114.08
1958	6.1314	-3.4684	0.	106.37
1959	5.98	1.605	0.	131.35
1960	5.7767	1.8293	0.	125.44
1961	5.7051	1.4148	0.	129.58
1962	6.555	1.8	0.	75.799
1963	6.4371	2.1157	0.	94.452
1964	6.8504	1.9102	0.	98.643
1965	6.435	1.205	0.	84.891
1966	6.3246	0.95912	0.	97.091
1967	6.7518	1.0782	0.	94.827
1968	6.7711	4.1258	0.	131.92
1969	7.6645	4.458	0.	89.644
1970	7.4568	3.509	0.	97.85
1971	0.65	-5.665	0.	86.414
1972	0.45932	-5.9916	0.	100.78
1973	0.8788	-5.8189	0.	98.056
1974	0.105	-5.31	0.	146.22
1975	-0.17353	-5.5206	0.	139.5
1976	-0.14841	-5.0696	0.	135.03
1977	0.685	-5.015	0.	81.207
1978	0.96135	-4.9113	0.	99.688
1979	0.57132	-4.6761	0.	102.32
1980	-1.13	5.045	0.	129.23
1981	-0.9748	4.7366	0.	126.
1982	-0.80793	5.2375	0.	135.07
1983	-1.895	4.88	0.	87.417
1984	-1.9678	4.6188	0.	105.67
1985	-2.2921	5.0152	0.	112.35
1986	-1.655	5.625	0.	106.13
1987	-1.4294	5.9057	0.	109.92
1988	-1.9316	5.8141	0.	104.99
1989	1.14	4.995	0.	114.74
1990	1.5156	4.8615	0.	128.7
1991	1.2517	5.2473	0.	116.79
1992	0.79	4.42	0.	106.22
1993	1.0117	4.174	0.	107.89
1994	0.54791	4.1895	0.	107.14
1995	0.47	5.015	0.	104.69
1996	0.35528	5.345	0.	113.1
1997	0.12713	4.9217	0.	123.81
1998	-7.6096	8.4788	0.	104.57
1999	-7.1979	7.6626	0.	106.02
2000	-8.1805	7.8042	0.	121.23
2001	-7.4372	-2.1875	0.	108.73
2002	-8.462	-2.1491	0.	117.92
2003	-7.9584	-1.4085	0.	102.75
2004	-7.4725	-5.3212	0.	132.63
2005	-7.7876	-5.0924	0.	135.04
2006	-7.3075	-5.7888	0.	128.46
2007	-7.6503	-5.5686	0.	132.68
2008	-7.5046	-6.0415	0.	125.28
2009	-6.9887	-4.7587	0.	114.35
2010	-7.1994	-4.4836	0.	110.46
2011	-6.5012	-4.8513	0.	111.81
2012	-6.7178	-4.5787	0.	116.14
2013	-6.237	-4.6721	0.	108.99
2014	-6.5763	-5.9275	0.	102.76
2015	-6.5317	-6.241	0.	107.07
2016	-6.2537	-5.5525	0.	103.89
2017	-6.1638	-5.8641	0.	116.61
2018	-5.8579	-5.45	0.	119.37
2019	5.7691	-5.4911	0.	128.98
2020	6.75	-5.	0.	120.65
2021	6.5115	-4.7382	0.	121.37
2022	7.25	-5.	0.	122.14
2023	6.9994	-4.7367	0.	122.
2024	7.4955	-4.7409	0.	118.32
2025	6.75	-6.	0.	117.91
2026	6.5006	-6.2496	0.	114.46
2027	7.25	-6.	0.	119.29
2028	7.0002	-6.2499	0.	118.91
2029	7.5	-6.25	0.	117.06
2030	8.2497	-5.4993	0.	138.96
2031	4.	7.25	0.	147.57
2032	3.7436	7.5024	0.	141.83
2033	4.	6.75	0.	147.2
2034	3.7399	7.0039	0.	143.03
2035	3.7341	6.5049	0.	141.23
2036	4.75	8.	0.	118.59
2037	4.4994	8.2501	0.	116.58
2038	5.25	8.	0.	118.44
2039	4.9997	8.25	0.	118.93
2040	5.4998	8.25	0.	116.08
2041	4.75	6.	0.	117.18
2042	4.4885	5.7521	0.	114.78
2043	5.25	6.	0.	117.4
2044	4.9946	5.7549	0.	117.27
2045	5.4978	5.7601	0.	115.27
2046	6.	7.25	0.	144.95
2047	6.2497	7.5005	0.	138.93
2048	6.	6.75	0.	144.88
2049	6.2494	7.0016	0.	140.
2050	6.2489	6.5041	0.	138.59
2051	5.	-0.75	0.	144.17
2052	4.7492	-0.50026	0.	140.09
2053	5.	-1.25	0.	143.23
2054	4.749	-0.9989	0.	140.5
2055	4.7482	-1.4976	0.	138.78
2056	5.75	0.	0.	111.78
2057	5.5201	0.24726	0.	118.33
2058	6.25	0.	0.	106.95
2059	6.0079	0.18308	0.	106.93
2060	6.4919	0.19814	0.	101.81
2061	5.75	-2.	0.	109.09
2062	5.5262	-2.2557	0.	104.99
2063	6.25	-2.	0.	110.5
2064	6.0261	-2.2439	0.	109.05
2065	6.5193	-2.2307	0.	111.89
2066	7.	-0.75	0.	140.23
2067	7.2489	-0.49973	0.	136.05
2068	7.	-1.25	0.	140.85
2069	7.2496	-0.99854	0.	137.59
2070	7.2503	-1.4972	0.	136.71
2071	-1.	-1.75	0.	142.65
2072	-1.25	-1.5001	0.	140.33
2073	-1.	-2.25	0.	143.37
2074	-1.2497	-2.0002	0.	140.34
2075	-1.2485	-2.5008	0.	139.61
2076	-0.50309	-0.74933	0.	108.01
2077	-0.45295	-3.2548	0.	109.
2078	0.	-1.75	0.	139.41
2079	0.24594	-1.4932	0.	135.19
2080	0.	-2.25	0.	138.98
2081	0.2437	-1.9883	0.	136.03
2082	0.241	-2.4795	0.	134.72
2083	-2.	-6.75	0.	141.27
2084	-2.2474	-6.5049	0.	136.81
2085	-2.	-7.25	0.	141.73
2086	-2.2489	-7.0036	0.	138.53
2087	-2.2497	-7.5024	0.	137.64
2088	-1.4877	-5.7511	0.	105.79
2089	-1.4966	-8.2487	0.	108.39
2090	-1.	-6.75	0.	144.67
2091	-0.75263	-6.4695	0.	142.18
2092	-1.	-7.25	0.	142.67
2093	-0.7559	-6.9531	0.	139.66
2094	-0.7507	-7.4448	0.	136.4
2095	-3.	-0.75	0.	143.03
2096	-3.2488	-0.49631	0.	138.69
2097	-3.	-1.25	0.	142.73
2098	-3.2493	-0.99487	0.	139.38
2099	-3.2501	-1.4926	0.	138.14
2100	-2.502	0.25045	0.	110.42
2101	-2.4993	-2.2498	0.	109.82
2102	-2.	-0.75	0.	144.18
2103	-1.7511	-0.49994	0.	139.89
2104	-2.	-1.25	0.	143.52
2105	-1.7502	-1.	0.	140.76
2106	-1.75	-1.5001	0.	140.77
2107	-8.	5.25	0.	138.56
2108	-8.2481	5.4949	0.	134.64
2109	-8.	4.75	0.	139.65
2110	-8.2495	4.9979	0.	136.39
2111	-8.2499	4.4994	0.	136.16
2112	-7.5185	6.2181	0.	102.94
2113	-7.5	3.7506	0.	110.39
2114	-7.	5.25	0.	136.76
2115	-6.7368	5.4966	0.	133.09
2116	-7.	4.75	0.	136.42
2117	-6.7317	4.996	0.	133.41
2118	-6.7412	4.4969	0.	131.83
2119	-7.2498	2.5036	0.	130.58
2120	-6.5001	3.2482	0.	114.27
2121	-6.4974	1.7607	0.	110.81
2122	-5.7504	2.4977	0.	138.41
2123	-6.2477	-8.5088	0.	131.81
2124	-5.4975	-7.797	0.	111.53
2125	-5.4999	-9.2501	0.	108.95
2126	-4.7503	-8.5033	0.	137.03
2127	9.25	10.	0.	125.23
2128	9.5	9.7498	0.	125.
2129	8.75	10.	0.	125.57
2130	9.	9.7497	0.	125.27
2131	8.25	10.	0.	125.9
2132	8.5	9.7497	0.	125.56
2133	7.75	10.	0.	126.04
2134	8.	9.7497	0.	125.81
2135	7.25	10.	0.	125.7
2136	7.5	9.7498	0.	125.9
2137	6.75	10.	0.	124.58
2138	7.	9.7499	0.	125.56
2139	6.25	10.	0.	122.75
2140	6.5	9.75	0.	124.4
2141	5.75	10.	0.	120.86
2142	6.	9.75	0.	122.49
2143	5.25	10.	0.	119.77
2144	5.4999	9.75	0.	120.7
2145	4.75	10.	0.	120.06
2146	4.9998	9.75	0.	120.13
2147	4.25	10.	0.	121.73
2148	4.4997	9.75	0.	121.27
2149	3.75	10.	0.	124.17
2150	3.9996	9.7502	0.	123.58
2151	3.25	10.	0.	126.37
2152	3.4994	9.7505	0.	125.87
2153	2.75	10.	0.	127.62
2154	2.9993	9.7511	0.	127.22
2155	2.25	10.	0.	127.88
2156	2.4992	9.7522	0.	127.56
2157	1.75	10.	0.	127.52
2158	1.9991	9.7536	0.	127.33
2159	1.25	10.	0.	126.89
2160	1.4989	9.7551	0.	126.84
2161	0.75	10.	0.	126.21
2162	0.9987	9.7564	0.	126.28
2163	0.25	10.	0.	125.58
2164	0.49859	9.7572	0.	125.74
2165	-0.25	10.	0.	125.06
2166	-1.4335e-003	9.7574	0.	125.27
2167	-0.75	10.	0.	124.71
2168	-0.50133	9.757	0.	124.89
2169	-1.25	10.	0.	124.56
2170	-1.0011	9.756	0.	124.66
2171	-1.75	10.	0.	124.66
2172	-1.5007	9.7548	0.	124.64
2173	-2.25	10.	0.	124.98
2174	-2.0002	9.7543	0.	124.83
2175	-2.75	10.	0.	125.47
2176	-2.4997	9.755	0.	125.2
2177	-3.25	10.	0.	126.04
2178	-2.9996	9.7567	0.	125.67
2179	-3.75	10.	0.	126.61
2180	-3.5	9.7564	0.	126.16
2181	-4.25	10.	0.	127.15
2182	-4.0007	9.7545	0.	126.58
2183	-4.75	10.	0.	127.64
2184	-4.5016	9.7523	0.	126.93
2185	-5.25	10.	0.	128.01
2186	-5.0026	9.751	0.	127.23
2187	-5.75	10.	0.	127.91
2188	-5.5038	9.7512	0.	127.5
2189	-6.25	10.	0.	126.59
2190	-6.0046	9.7537	0.	127.57
2191	-6.75	10.	0.	123.61
2192	-6.5054	9.7596	0.	126.35
2193	-7.25	10.	0.	120.44
2194	-7.0064	9.7681	0.	122.94
2195	-7.75	10.	0.	119.28
2196	-7.5076	9.7741	0.	119.45
2197	-8.25	10.	0.	120.73
2198	-8.0084	9.7745	0.	120.09
2199	-8.75	10.	0.	123.39
2200	-8.5078	9.7686	0.	123.7
2201	-9.25	10.	0.	124.93
2202	-9.0056	9.7597	0.	125.67
2203	-9.5027	9.7534	0.	125.39
2204	10.	9.25	0.	124.57
2205	9.75	9.4998	0.	124.88
2206	10.	8.75	0.	123.98
2207	9.7499	8.9996	0.	124.44
2208	10.	8.25	0.	123.52
2209	9.7498	8.4993	0.	124.02
2210	10.	7.75	0.	123.47
2211	9.7497	7.9989	0.	123.82
2212	10.	7.25	0.	123.98
2213	9.7494	7.4984	0.	124.02
2214	10.	6.75	0.	125.06
2215	9.749	6.998	0.	124.72
2216	10.	6.25	0.	126.43
2217	9.7494	6.4994	0.	125.85
2218	10.	5.75	0.	127.53
2219	9.7499	6.001	0.	127.14
2220	10.	5.25	0.	127.68
2221	9.7524	5.5043	0.	128.05
2222	10.	4.75	0.	126.87
2223	9.7573	5.0099	0.	128.03
2224	10.	4.25	0.	126.32
2225	9.7607	4.5158	0.	127.31
2226	10.	3.75	0.	127.47
2227	9.7522	4.0182	0.	127.38
2228	10.	3.25	0.	129.92
2229	9.7123	3.5054	0.	129.34
2230	10.	2.75	0.	132.04
2231	9.7438	2.9888	0.	131.49
2232	10.	2.25	0.	132.75
2233	9.7537	2.4878	0.	132.35
2234	10.	1.75	0.	132.3
2235	9.7575	1.9899	0.	132.09
2236	10.	1.25	0.	131.5
2237	9.7571	1.4922	0.	131.44
2238	10.	0.75	0.	130.73
2239	9.7541	0.99448	0.	130.88
2240	10.	0.25	0.	129.99
2241	9.7518	0.49675	0.	130.39
2242	10.	-0.25	0.	129.29
2243	9.7504	-1.6042e-003	0.	129.84
2244	10.	-0.75	0.	128.79
2245	9.7499	-0.50049	0.	129.3
2246	10.	-1.25	0.	128.76
2247	9.7499	-0.99978	0.	129.02
2248	10.	-1.75	0.	129.27
2249	9.75	-1.4994	0.	129.18
2250	10.	-2.25	0.	130.16
2251	9.7502	-1.9993	0.	129.73
2252	10.	-2.75	0.	131.1
2253	9.7501	-2.4993	0.	130.46
2254	10.	-3.25	0.	131.72
2255	9.7497	-2.9993	0.	131.1
2256	10.	-3.75	0.	131.64
2257	9.7492	-3.4992	0.	131.41
2258	10.	-4.25	0.	130.55
2259	9.7489	-3.9992	0.	131.16
2260	10.	-4.75	0.	128.67
2261	9.7491	-4.4992	0.	130.09
2262	10.	-5.25	0.	127.04
2263	9.7494	-4.9994	0.	128.5
2264	10.	-5.75	0.	126.84
2265	9.7497	-5.4996	0.	127.59
2266	10.	-6.25	0.	128.13
2267	9.7499	-5.9997	0.	128.11
2268	10.	-6.75	0.	129.72
2269	9.7499	-6.4998	0.	129.38
2270	10.	-7.25	0.	130.57
2271	9.75	-6.9999	0.	130.16
2272	10.	-7.75	0.	130.53
2273	9.75	-7.5	0.	130.15
2274	10.	-8.25	0.	129.98
2275	9.75	-8.	0.	129.66
2276	10.	-8.75	0.	129.32
2277	9.75	-8.5	0.	129.06
2278	10.	-9.25	0.	128.81
2279	9.75	-9.	0.	128.55
2280	9.75	-9.5	0.	128.21
2281	-10.	9.25	0.	123.64
2282	-9.7527	9.5034	0.	125.01
2283	-10.	8.75	0.	121.78
2284	-9.7521	9.0044	0.	124.46
2285	-10.	8.25	0.	120.78
2286	-9.7437	8.5012	0.	123.06
2287	-10.	7.75	0.	122.55
2288	-9.7264	7.9962	0.	123.02
2289	-10.	7.25	0.	126.48
2290	-9.7247	7.493	0.	125.93
2291	-10.	6.75	0.	129.79
2292	-9.7305	6.9932	0.	129.23
2293	-10.	6.25	0.	130.59
2294	-9.7391	6.4952	0.	130.64
2295	-10.	5.75	0.	129.43
2296	-9.7456	5.9971	0.	130.06
2297	-10.	5.25	0.	127.96
2298	-9.7488	5.4986	0.	128.87
2299	-10.	4.75	0.	127.27
2300	-9.7497	4.9994	0.	128.04
2301	-10.	4.25	0.	127.53
2302	-9.75	4.4999	0.	127.91
2303	-10.	3.75	0.	128.22
2304	-9.75	4.0002	0.	128.29
2305	-10.	3.25	0.	128.62
2306	-9.7501	3.5005	0.	128.66
2307	-10.	2.75	0.	128.53
2308	-9.7501	3.0009	0.	128.5
2309	-10.	2.25	0.	128.37
2310	-9.7502	2.5016	0.	128.11
2311	-10.	1.75	0.	128.62
2312	-9.7502	2.0025	0.	128.
2313	-10.	1.25	0.	129.45
2314	-9.7502	1.5041	0.	128.38
2315	-10.	0.75	0.	130.84
2316	-9.7501	1.0064	0.	129.18
2317	-10.	0.25	0.	132.53
2318	-9.7499	0.5093	0.	130.34
2319	-10.	-0.25	0.	133.73
2320	-9.7493	1.2525e-002	0.	131.76
2321	-10.	-0.75	0.	132.43
2322	-9.7475	-0.48551	0.	132.91
2323	-10.	-1.25	0.	128.58
2324	-9.7417	-0.98975	0.	132.21
2325	-10.	-1.75	0.	125.55
2326	-9.722	-1.5149	0.	127.43
2327	-10.	-2.25	0.	127.1
2328	-9.7809	-2.0176	0.	126.85
2329	-10.	-2.75	0.	131.82
2330	-9.7605	-2.5114	0.	130.75
2331	-10.	-3.25	0.	134.55
2332	-9.7565	-3.0112	0.	133.58
2333	-10.	-3.75	0.	133.5
2334	-9.7574	-3.5128	0.	133.64
2335	-10.	-4.25	0.	130.11
2336	-9.7575	-4.0143	0.	131.41
2337	-10.	-4.75	0.	126.61
2338	-9.7545	-4.5157	0.	128.39
2339	-10.	-5.25	0.	124.77
2340	-9.7485	-5.0163	0.	126.15
2341	-10.	-5.75	0.	125.06
2342	-9.7424	-5.5147	0.	125.72
2343	-10.	-6.25	0.	126.72
2344	-9.7417	-6.0118	0.	126.71
2345	-10.	-6.75	0.	128.64
2346	-9.75	-6.5085	0.	128.2
2347	-10.	-7.25	0.	130.01
2348	-9.754	-7.0064	0.	129.43
2349	-10.	-7.75	0.	130.59
2350	-9.7531	-7.5047	0.	130.05
2351	-10.	-8.25	0.	130.6
2352	-9.7513	-8.0027	0.	130.13
2353	-10.	-8.75	0.	130.38
2354	-9.7503	-8.5013	0.	129.95
2355	-10.	-9.25	0.	130.15
2356	-9.7499	-9.0005	0.	129.74
2357	-9.7499	-9.5002	0.	129.62
2358	-9.25	-10.	0.	128.66
2359	-9.4999	-9.7502	0.	129.16
2360	-8.75	-10.	0.	127.73
2361	-8.9997	-9.7502	0.	128.16
2362	-8.25	-10.	0.	127.02
2363	-8.4995	-9.7501	0.	127.22
2364	-7.75	-10.	0.	126.74
2365	-7.9995	-9.75	0.	126.57
2366	-7.25	-10.	0.	126.95
2367	-7.4995	-9.7504	0.	126.44
2368	-6.75	-10.	0.	126.14
2369	-6.9996	-9.7513	0.	126.88
2370	-6.25	-10.	0.	121.22
2371	-6.4996	-9.7515	0.	126.16
2372	-5.75	-10.	0.	115.29
2373	-5.9997	-9.7504	0.	117.93
2374	-5.25	-10.	0.	116.89
2375	-5.4999	-9.7501	0.	111.37
2376	-4.75	-10.	0.	125.47
2377	-5.	-9.7501	0.	121.33
2378	-4.25	-10.	0.	131.74
2379	-4.5001	-9.7506	0.	131.49
2380	-3.75	-10.	0.	132.47
2381	-4.	-9.7508	0.	132.81
2382	-3.25	-10.	0.	130.7
2383	-3.4998	-9.7508	0.	131.72
2384	-2.75	-10.	0.	127.82
2385	-2.9996	-9.7505	0.	129.6
2386	-2.25	-10.	0.	124.23
2387	-2.4993	-9.7501	0.	126.2
2388	-1.75	-10.	0.	121.26
2389	-1.9988	-9.7497	0.	122.22
2390	-1.25	-10.	0.	120.34
2391	-1.4983	-9.749	0.	119.81
2392	-0.75	-10.	0.	121.55
2393	-0.99799	-9.7484	0.	120.41
2394	-0.25	-10.	0.	123.57
2395	-0.49811	-9.7494	0.	122.72
2396	0.25	-10.	0.	125.16
2397	1.7216e-003	-9.7521	0.	124.73
2398	0.75	-10.	0.	126.1
2399	0.50183	-9.7537	0.	125.81
2400	1.25	-10.	0.	126.65
2401	1.0019	-9.7533	0.	126.4
2402	1.75	-10.	0.	127.06
2403	1.5014	-9.7516	0.	126.85
2404	2.25	-10.	0.	127.35
2405	2.0006	-9.7495	0.	127.23
2406	2.75	-10.	0.	127.46
2407	2.4995	-9.748	0.	127.47
2408	3.25	-10.	0.	127.32
2409	2.9989	-9.747	0.	127.48
2410	3.75	-10.	0.	126.9
2411	3.4986	-9.7466	0.	127.21
2412	4.25	-10.	0.	126.22
2413	3.9984	-9.7464	0.	126.65
2414	4.75	-10.	0.	125.33
2415	4.4984	-9.7471	0.	125.84
2416	5.25	-10.	0.	124.36
2417	4.9985	-9.7477	0.	124.87
2418	5.75	-10.	0.	123.44
2419	5.4987	-9.7487	0.	123.86
2420	6.25	-10.	0.	122.78
2421	5.999	-9.7492	0.	123.
2422	6.75	-10.	0.	122.54
2423	6.4993	-9.7496	0.	122.49
2424	7.25	-10.	0.	122.81
2425	6.9996	-9.7498	0.	122.48
2426	7.75	-10.	0.	123.56
2427	7.4998	-9.7499	0.	123.03
2428	8.25	-10.	0.	124.68
2429	7.9998	-9.75	0.	124.03
2430	8.75	-10.	0.	125.95
2431	8.4999	-9.75	0.	125.3
2432	9.25	-10.	0.	127.17
2433	9.	-9.75	0.	126.63
2434	9.5	-9.75	0.	127.78
2435	2.7287	1.4637	0.	130.14
2436	2.2252	1.4748	0.	129.33
2437	2.4822	1.7146	0.	130.01
2438	2.4783	1.2243	0.	129.85
2439	1.7218	0.98969	0.	128.27
2440	1.9768	0.7394	0.	128.9
2441	1.9736	1.2334	0.	128.82
2442	2.2266	0.98288	0.	129.34
2443	1.2078	1.4936	0.	126.56
2444	1.466	1.2413	0.	127.49
2445	1.4666	1.7372	0.	127.13
2446	1.7178	1.485	0.	128.04
2447	2.6231	-3.4405	0.	132.18
2448	3.1303	-3.439	0.	131.83
2449	2.8958	-3.1964	0.	132.06
2450	2.8579	-3.6841	0.	131.96
2451	2.2213	-1.9765	0.	129.01
2452	1.7259	-1.9755	0.	128.01
2453	1.9604	-2.2209	0.	128.73
2454	1.9793	-1.7307	0.	128.26
2455	2.7385	-0.9914	0.	129.35
2456	3.2398	-0.99232	0.	130.26
2457	2.9853	-1.2379	0.	129.96
2458	2.989	-0.74477	0.	129.81
2459	0.95126	1.7461	0.	125.5
2460	0.70018	1.5016	0.	125.27
2461	0.95888	1.2485	0.	126.07
2462	-4.2839	4.4166	0.	127.98
2463	-4.0399	4.1133	0.	128.83
2464	-4.0634	4.536	0.	127.54
2465	-3.8181	4.3097	0.	128.64
2466	3.2317	1.4619	0.	130.37
2467	2.9816	1.2168	0.	130.5
2468	2.9805	1.6963	0.	130.41
2469	1.473	0.74513	0.	127.9
2470	1.217	0.99621	0.	127.
2471	2.231	0.49049	0.	129.35
2472	1.728	0.49484	0.	128.53
2473	1.9812	0.24579	0.	128.93
2474	3.0471	2.655	0.	130.76
2475	2.7662	2.4338	0.	130.8
2476	2.9987	2.1723	0.	130.53
2477	3.2582	2.3681	0.	130.16
2478	0.69125	2.0002	0.	124.8
2479	0.18148	2.0113	0.	124.45
2480	0.44017	1.7556	0.	124.58
2481	0.43524	2.2538	0.	124.13
2482	2.4755	-1.7298	0.	129.35
2483	2.4856	-1.2375	0.	129.01
2484	2.7324	-1.484	0.	129.62
2485	2.2336	-1.484	0.	128.61
2486	3.8273	3.4299	0.	126.89
2487	4.0066	3.1453	0.	127.18
2488	3.4882	3.3032	0.	128.93
2489	3.6807	2.9876	0.	128.51
2490	1.21	1.9897	0.	126.06
2491	0.95472	2.241	0.	124.58
2492	-2.2469	2.5359	0.	122.96
2493	-2.7386	2.5056	0.	124.65
2494	-2.4843	2.7713	0.	123.97
2495	-2.4953	2.2674	0.	123.29
2496	-3.5291	3.6474	0.	129.37
2497	-3.7936	3.8841	0.	129.45
2498	-3.5718	4.0805	0.	129.26
2499	-3.2936	3.8896	0.	129.79
2500	-3.7647	3.4297	0.	129.42
2501	-3.2536	3.4393	0.	128.7
2502	-3.5041	3.192	0.	128.77
2503	1.7263	1.9804	0.	127.93
2504	1.48	2.2325	0.	126.81
2505	2.4845	0.24223	0.	129.62
2506	2.7345	0.48754	0.	130.18
2507	2.4809	0.73397	0.	129.78
2508	2.4872	-0.25057	0.	129.32
2509	2.2347	-2.4747e-003	0.	129.2
2510	2.7374	-4.5321e-003	0.	129.9
2511	2.4563	-2.2204	0.	130.
2512	2.7188	-1.9757	0.	130.3
2513	2.4263	-2.7089	0.	130.83
2514	2.1954	-2.4649	0.	129.72
2515	2.6959	-2.4649	0.	131.07
2516	2.4884	-0.74421	0.	129.04
2517	2.2377	-0.9906	0.	128.61
2518	2.2375	-0.49629	0.	128.89
2519	2.7389	-0.49758	0.	129.51
2520	-1.7645	2.5594	0.	122.28
2521	-2.0087	2.2916	0.	122.26
2522	-1.9939	2.8178	0.	121.72
2523	-4.3857	6.5388	0.	128.4
2524	-4.5462	6.2685	0.	127.81
2525	-4.8199	6.4756	0.	128.31
2526	-4.7505	6.7132	0.	128.23
2527	-4.6384	4.7615	0.	127.12
2528	-4.487	5.0754	0.	126.38
2529	-4.8135	5.263	0.	126.61
2530	-5.0348	4.9636	0.	126.52
2531	-0.3191	2.021	0.	124.42
2532	-0.55809	1.7701	0.	124.19
2533	-0.81005	2.0277	0.	124.
2534	-0.56737	2.2828	0.	124.92
2535	-6.1832e-002	1.7641	0.	124.32
2536	-6.9298e-002	2.2687	0.	124.81
2537	-4.2543	6.8126	0.	128.44
2538	-4.0918	7.0778	0.	128.46
2539	-4.3896	7.2833	0.	127.79
2540	-4.6191	6.9871	0.	128.26
2541	4.1535	3.5938	0.	124.93
2542	3.6776	3.7767	0.	126.83
2543	3.9406	3.8487	0.	125.09
2544	2.3887	-3.197	0.	131.79
2545	2.1551	-2.9514	0.	130.69
2546	2.6614	-2.9529	0.	131.67
2547	2.8257	2.9358	0.	131.62
2548	3.1529	3.1447	0.	130.43
2549	3.3454	2.8291	0.	130.
2550	1.4796	0.24927	0.	128.29
2551	1.2258	0.49935	0.	127.53
2552	-4.0869	6.354	0.	128.34
2553	-3.9287	6.625	0.	129.15
2554	3.735	1.4855	0.	129.75
2555	3.4727	1.6897	0.	130.1
2556	3.4856	1.2231	0.	130.74
2557	-4.5261	4.2323	0.	128.55
2558	-4.7734	4.4881	0.	127.69
2559	-4.3075	4.6242	0.	127.25
2560	0.19685	1.5084	0.	124.45
2561	0.45493	1.2549	0.	124.79
2562	-0.30082	1.5133	0.	124.09
2563	-4.4962e-002	1.2593	0.	123.93
2564	-0.54039	1.2622	0.	123.8
2565	-0.79382	1.5161	0.	123.94
2566	0.71363	1.0018	0.	125.58
2567	0.9698	0.75043	0.	126.63
2568	-4.0462	-4.0263	0.	129.97
2569	-4.0549	-3.6113	0.	130.67
2570	-3.8265	-3.921	0.	129.32
2571	-4.3362	-3.837	0.	131.52
2572	-2.9431	4.3796	0.	130.58
2573	-3.3441	4.5191	0.	128.76
2574	-3.383	4.3073	0.	129.55
2575	-3.1048	4.1164	0.	130.07
2576	-4.7411	-0.45644	0.	128.42
2577	-4.9885	-0.20194	0.	128.44
2578	-5.2383	-0.43195	0.	127.33
2579	-4.9932	-0.68632	0.	127.28
2580	3.4923	-0.74611	0.	130.83
2581	3.7427	-0.9942	0.	131.6
2582	3.4877	-1.2397	0.	131.09
2583	1.2292	-1.9716	0.	127.93
2584	1.4654	-2.2165	0.	127.78
2585	1.4819	-1.7286	0.	127.62
2586	-6.5685	-2.5903	0.	125.26
2587	-6.419	-2.8505	0.	123.57
2588	-6.2255	-2.4779	0.	123.5
2589	-6.1576	-2.6946	0.	124.24
2590	2.35	-3.6868	0.	132.77
2591	2.111	-3.4368	0.	131.99
2592	1.9242	-2.7073	0.	129.58
2593	1.6998	-2.4619	0.	128.5
2594	3.9964	-6.6786	0.	127.57
2595	3.9817	-7.1934	0.	127.81
2596	4.2378	-6.9496	0.	127.49
2597	3.7255	-6.9203	0.	128.17
2598	-1.7277	7.0565	0.	118.79
2599	-1.9741	6.793	0.	118.7
2600	-2.18	7.0222	0.	121.77
2601	-1.9811	7.2866	0.	120.62
2602	-2.9852	2.735	0.	126.19
2603	-2.9894	3.2158	0.	127.44
2604	-2.7309	3.0006	0.	125.5
2605	-3.2399	2.9685	0.	127.51
2606	-4.7938	-3.3061	0.	131.53
2607	-4.5332	-3.1056	0.	131.35
2608	-4.2905	-3.3692	0.	131.39
2609	-4.5718	-3.5949	0.	132.24
2610	-3.989	-4.4391	0.	128.78
2611	-4.2229	-4.2518	0.	130.17
2612	-3.7985	-4.1193	0.	128.84
2613	-6.4825	0.33274	0.	122.61
2614	-6.2313	8.9345e-002	0.	124.68
2615	-6.4811	-0.1363	0.	124.87
2616	-6.7314	0.10274	0.	122.7
2617	-4.0292	3.6663	0.	129.5
2618	-4.2821	3.929	0.	129.4
2619	-2.9913	2.245	0.	125.28
2620	-3.2403	2.4854	0.	126.62
2621	-4.2488	2.4796	0.	129.25
2622	-3.9967	2.2327	0.	129.04
2623	-4.001	2.7179	0.	129.06
2624	-3.7452	2.4777	0.	128.23
2625	2.261	2.4656	0.	130.27
2626	2.5447	2.7146	0.	131.65
2627	2.5015	2.2086	0.	130.54
2628	0.69871	2.4947	0.	123.9
2629	0.97098	2.7315	0.	122.86
2630	1.2247	2.4838	0.	125.32
2631	4.0425	2.3254	0.	128.17
2632	3.9742	1.7834	0.	128.84
2633	3.7119	1.9876	0.	129.19
2634	3.7312	2.1936	0.	129.08
2635	4.2435	2.0248	0.	127.53
2636	4.4444	3.7834	0.	122.56
2637	4.2314	4.0383	0.	122.71
2638	4.7683	3.9976	0.	120.
2639	4.4867	4.2676	0.	120.21
2640	4.3327	3.3092	0.	125.22
2641	4.6548	3.4944	0.	123.35
2642	2.9848	0.731	0.	130.6
2643	3.2354	0.97798	0.	130.87
2644	2.7312	0.97742	0.	130.21
2645	2.9757	-1.7299	0.	130.58
2646	3.2333	-1.4853	0.	130.78
2647	1.9857	-1.2371	0.	128.21
2648	1.7353	-1.4837	0.	127.88
2649	-5.0307	-3.0372	0.	130.22
2650	-4.7701	-2.8366	0.	130.04
2651	-5.0203	-2.5748	0.	128.41
2652	-5.2627	-2.7809	0.	128.12
2653	-5.2581	-1.3883	0.	125.47
2654	-5.013	-1.642	0.	126.27
2655	-5.0026	-1.1669	0.	126.46
2656	-4.7563	-1.4226	0.	126.99
2657	-1.0505	2.2944	0.	123.81
2658	-1.2914	2.0324	0.	123.17
2659	-1.0458	1.7737	0.	123.75
2660	3.4704	-5.8607	0.	128.03
2661	3.8851	-5.8918	0.	127.39
2662	3.6891	-5.6267	0.	128.14
2663	3.5687	-6.0994	0.	128.03
2664	3.3599	-3.6813	0.	131.22
2665	3.6361	-3.4402	0.	131.37
2666	3.4048	-3.196	0.	132.24
2667	-4.4257	5.814	0.	126.94
2668	-4.7298	6.0173	0.	127.53
2669	-4.2475	6.0837	0.	127.75
2670	-3.6061	7.1512	0.	128.67
2671	-3.8868	7.3472	0.	128.14
2672	-3.7662	6.8902	0.	129.18
2673	-5.502	-1.1328	0.	125.35
2674	-5.4915	-0.65707	0.	126.39
2675	-5.7445	-0.87995	0.	125.92
2676	-5.2465	-0.91144	0.	126.34
2677	-5.533	-2.0728	0.	124.74
2678	-5.8125	-2.3018	0.	124.2
2679	-5.2788	-2.3241	0.	126.31
2680	-5.5212	-2.5301	0.	126.01
2681	0.18446	2.5112	0.	124.49
2682	0.44962	2.7468	0.	123.12
2683	-1.2871	2.5623	0.	123.12
2684	-1.528	2.3002	0.	122.48
2685	-1.5106	2.8429	0.	121.67
2686	-0.80785	2.5496	0.	124.73
2687	-1.034	2.8267	0.	124.35
2688	0.51257	-3.9391	0.	117.97
2689	0.18378	-3.6841	0.	119.95
2690	0.20002	-4.1004	0.	113.26
2691	-4.9857e-002	-3.9792	0.	120.84
2692	-0.31756	2.5305	0.	125.32
2693	-0.55373	2.798	0.	127.
2694	-6.0832e-002	2.7702	0.	126.13
2695	-5.5188	-1.6055	0.	124.61
2696	-5.2737	-1.8591	0.	125.41
2697	-5.7855	-1.8247	0.	123.21
2698	-5.7592	-1.3533	0.	124.56
2699	-3.1533	7.2312	0.	127.96
2700	-2.9654	7.4662	0.	126.88
2701	-2.7292	7.3925	0.	125.94
2702	-2.8691	7.0858	0.	127.85
2703	-3.4122	7.4085	0.	128.02
2704	-3.298	6.9736	0.	129.52
2705	-4.2949	5.3584	0.	126.32
2706	-4.1144	5.6226	0.	126.53
2707	-4.6215	5.546	0.	126.55
2708	-3.9656	5.1651	0.	125.74
2709	-4.1561	4.9381	0.	126.51
2710	3.3168	-4.1687	0.	130.53
2711	3.5806	-3.926	0.	130.13
2712	3.0875	-3.9263	0.	131.35
2713	3.2838	-4.6572	0.	129.8
2714	3.5352	-4.4152	0.	130.26
2715	3.053	-4.4159	0.	130.68
2716	-5.1598	-6.0861	0.	128.35
2717	-4.9511	-6.3322	0.	127.67
2718	-5.0081	-5.8872	0.	127.93
2719	-4.7057	-6.0985	0.	127.86
2720	-1.7721	2.0325	0.	122.46
2721	-1.5298	1.7756	0.	122.84
2722	-2.0147	1.7721	0.	121.95
2723	-2.2572	2.0231	0.	122.58
2724	-4.7641	-1.8982	0.	127.33
2725	-5.0196	-2.1104	0.	126.96
2726	-2.9973	1.7492	0.	124.54
2727	-3.2445	1.9941	0.	126.12
2728	-2.748	2.0068	0.	123.92
2729	-3.9844	-6.3085	0.	128.44
2730	-3.7304	-6.0561	0.	127.99
2731	-3.9798	-5.8289	0.	127.42
2732	-4.2274	-6.0775	0.	127.77
2733	1.9868	-0.74267	0.	128.46
2734	1.7377	-0.98968	0.	128.12
2735	1.7364	-0.49456	0.	128.54
2736	1.9849	-0.24819	0.	128.77
2737	2.9583	-2.2202	0.	131.37
2738	3.2221	-1.9767	0.	131.77
2739	3.2022	-2.4664	0.	132.57
2740	2.9309	-2.7089	0.	131.91
2741	2.9875	0.24078	0.	130.46
2742	3.2381	0.48757	0.	131.16
2743	-5.0035	6.2245	0.	128.03
2744	-5.2237	5.9862	0.	127.93
2745	-4.9255	5.7494	0.	127.14
2746	-4.9647	6.6955	0.	128.37
2747	-5.2715	6.4711	0.	129.
2748	-6.2908	7.4943	0.	129.63
2749	-6.5926	7.2511	0.	131.
2750	-6.5913	7.74	0.	126.15
2751	-6.771	7.5218	0.	133.86
2752	4.1937	2.8316	0.	127.16
2753	4.5222	3.0149	0.	126.3
2754	4.3806	2.5331	0.	127.58
2755	3.8678	2.674	0.	128.48
2756	2.0267	2.7255	0.	130.55
2757	1.994	2.225	0.	129.26
2758	1.7476	2.4771	0.	128.14
2759	-4.2667	3.4469	0.	129.91
2760	-4.0115	3.1969	0.	129.42
2761	-5.4849	0.30253	0.	127.88
2762	-5.2357	5.1466e-002	0.	128.3
2763	-5.4855	-0.17854	0.	127.2
2764	-5.733	7.1312e-002	0.	126.59
2765	-3.9607	-4.8863	0.	127.61
2766	-3.7145	-5.0914	0.	127.22
2767	-4.2132	-5.139	0.	126.76
2768	-3.9707	-5.3549	0.	127.07
2769	-4.1951	-4.6798	0.	128.41
2770	-3.7238	-4.6057	0.	127.74
2771	-5.2861	-3.2335	0.	129.9
2772	-5.0742	-3.4964	0.	132.21
2773	-5.5628	-3.4191	0.	129.4
2774	-5.7684	-3.1684	0.	126.92
2775	-5.518	-2.9772	0.	127.8
2776	3.7121	3.9824	0.	126.01
2777	3.3384	3.65	0.	128.88
2778	3.443	4.1904	0.	127.52
2779	3.1825	3.9515	0.	129.08
2780	3.9667	4.2821	0.	123.94
2781	-2.7362	3.4891	0.	126.9
2782	-3.0181	3.6815	0.	129.13
2783	2.0956	5.7363	0.	132.39
2784	2.3369	5.5334	0.	132.48
2785	2.5855	5.6179	0.	132.53
2786	2.3655	5.9253	0.	132.34
2787	1.6516	-2.9458	0.	129.25
2788	1.8775	-3.1911	0.	130.89
2789	0.72014	-4.2121	0.	117.95
2790	1.036	-4.1377	0.	126.41
2791	1.0616	-3.9212	0.	125.37
2792	0.76496	-3.6775	0.	122.81
2793	3.0517	-5.8818	0.	128.5
2794	3.2636	-5.6219	0.	128.35
2795	3.3684	-6.0971	0.	128.24
2796	3.5034	-4.9038	0.	129.51
2797	3.0337	-4.9062	0.	129.42
2798	3.2638	-5.1434	0.	128.91
2799	-6.6926	-2.3481	0.	123.41
2800	-6.8645	-2.7134	0.	124.91
2801	-6.9696	-2.3894	0.	130.79
2802	-5.4038	-6.2693	0.	127.3
2803	-5.2314	-5.8644	0.	128.23
2804	-5.6479	-6.0258	0.	126.17
2805	-5.7427	-7.2233	0.	119.88
2806	-5.5086	-7.0471	0.	120.8
2807	-5.2946	-7.139	0.	121.49
2808	-5.5132	-7.4124	0.	115.24
2809	4.2652	-6.4394	0.	126.96
2810	4.0551	-6.1711	0.	127.15
2811	3.7388	-6.3786	0.	127.8
2812	-2.6048	4.2215	0.	129.06
2813	-2.466	4.4932	0.	126.32
2814	-2.856	4.6415	0.	130.14
2815	0.98415	-1.7249	0.	128.01
2816	0.97264	-2.2066	0.	127.88
2817	0.73408	-1.9729	0.	130.4
2818	4.3844	-5.435	0.	126.62
2819	4.1279	-5.6711	0.	127.34
2820	4.1761	-5.1734	0.	129.19
2821	3.9319	-5.406	0.	128.09
2822	6.9995	-7.2498	0.	117.79
2823	7.0001	-6.7498	0.	116.69
2824	6.7498	-6.9994	0.	117.19
2825	7.2498	-6.9999	0.	118.13
2826	7.2477	6.998	0.	125.82
2827	6.9987	7.2504	0.	127.38
2828	6.7485	7.0021	0.	130.9
2829	6.9975	6.7541	0.	126.51
2830	0.21311	1.0058	0.	124.27
2831	0.46819	0.75438	0.	124.9
2832	-0.28453	1.0082	0.	123.64
2833	-3.0146e-002	0.75616	0.	123.16
2834	-0.52703	0.75701	0.	122.83
2835	-0.78064	1.0081	0.	124.08
2836	2.9672	7.2673	0.	131.4
2837	3.2199	7.0146	0.	134.97
2838	2.7006	7.0363	0.	130.56
2839	2.9506	6.7795	0.	132.04
2840	-6.0411	7.2513	0.	129.55
2841	-6.0472	7.7512	0.	126.49
2842	-5.7659	7.4937	0.	127.61
2843	-4.6971	7.5034	0.	127.26
2844	-4.9758	7.7396	0.	126.59
2845	-4.9266	7.2073	0.	127.74
2846	-5.2272	7.4844	0.	127.31
2847	-4.4581	7.7729	0.	126.86
2848	-4.1846	7.5526	0.	127.46
2849	-3.2242	7.6434	0.	126.93
2850	-3.4667	7.8561	0.	126.94
2851	-3.6929	7.6045	0.	127.48
2852	-2.9917	7.8701	0.	126.11
2853	-2.7594	7.584	0.	125.53
2854	-1.2504	7.5633	0.	121.45
2855	-1.4934	7.3139	0.	119.35
2856	-1.4994	7.7968	0.	121.51
2857	-1.7468	7.5441	0.	121.14
2858	-1.0045	7.336	0.	121.92
2859	-1.0052	7.8134	0.	122.6
2860	-0.75936	7.5772	0.	123.32
2861	6.999	-7.7497	0.	119.54
2862	6.7487	-7.4993	0.	119.03
2863	7.2493	-7.4998	0.	119.69
2864	3.9831	-7.708	0.	127.71
2865	4.2343	-7.4602	0.	127.49
2866	3.7293	-7.444	0.	128.16
2867	1.2425	-7.5309	0.	124.38
2868	1.4755	-7.2598	0.	126.42
2869	1.4926	-7.7624	0.	125.84
2870	1.7318	-7.4979	0.	126.99
2871	0.75502	-7.5685	0.	122.39
2872	1.0045	-7.7928	0.	123.67
2873	0.98817	-7.3061	0.	122.13
2874	-3.494	-6.7781	0.	129.57
2875	-3.4998	-7.2685	0.	130.28
2876	-3.7504	-7.0281	0.	130.29
2877	-3.2476	-7.0186	0.	130.44
2878	4.2388	1.4964	0.	127.96
2879	3.9876	1.2487	0.	130.3
2880	-1.2475	7.0866	0.	119.81
2881	-1.4879	6.8358	0.	115.43
2882	3.7548	-4.6618	0.	129.97
2883	3.9662	-4.9157	0.	130.16
2884	3.7219	-5.1484	0.	129.06
2885	-5.1951	-6.5154	0.	126.59
2886	-5.4552	-6.6693	0.	124.37
2887	-5.6435	-6.4524	0.	124.89
2888	-3.7393	-6.5419	0.	129.07
2889	-4.2371	-6.5571	0.	128.79
2890	-3.9957	-6.7919	0.	129.78
2891	-4.5178	-2.63	0.	130.17
2892	-4.2692	-2.8926	0.	131.07
2893	-3.7815	-3.4325	0.	129.63
2894	-4.0265	-3.1562	0.	131.1
2895	-4.4917	-0.22141	0.	129.66
2896	-4.2439	-0.47472	0.	129.76
2897	-4.4951	-0.71011	0.	128.58
2898	-3.4853	-6.2894	0.	128.61
2899	-3.2404	-6.5269	0.	129.31
2900	-3.4703	-5.31	0.	127.45
2901	-3.2194	-5.0456	0.	127.15
2902	-3.4776	-4.8107	0.	127.35
2903	1.4272	-2.7004	0.	128.16
2904	1.2088	-2.4515	0.	127.72
2905	1.4844	-0.24615	0.	128.46
2906	1.2321	2.5155e-003	0.	128.22
2907	1.7329	2.1553e-004	0.	128.68
2908	1.4873	-1.2362	0.	127.78
2909	1.2368	-1.4818	0.	127.7
2910	0.72436	0.50298	0.	125.95
2911	0.97822	0.25259	0.	127.47
2912	3.7448	-0.49947	0.	131.54
2913	3.4931	-0.25204	0.	131.14
2914	3.2416	-0.49856	0.	130.38
2915	4.8443	3.2001	0.	124.44
2916	5.1607	3.3705	0.	122.66
2917	4.9788	3.7086	0.	120.81
2918	2.3104	2.9744	0.	131.92
2919	2.6136	3.2499	0.	132.81
2920	1.2473	2.9733	0.	124.26
2921	0.98748	3.2159	0.	119.26
2922	0.72189	2.9836	0.	122.04
2923	2.9408	3.4588	0.	131.63
2924	-7.4869	0.34233	0.	120.
2925	-7.7369	0.10879	0.	119.04
2926	-7.2335	0.10941	0.	120.51
2927	-7.4827	-0.11657	0.	118.83
2928	-6.7354	0.57119	0.	120.96
2929	-6.4872	0.80604	0.	119.91
2930	-6.2347	0.56315	0.	123.09
2931	-4.4291	-4.4925	0.	129.81
2932	-4.6231	-4.2691	0.	132.26
2933	-4.5129	-4.0625	0.	131.72
2934	-6.3202	-3.5117	0.	122.13
2935	-5.8373	-3.6006	0.	127.26
2936	-6.1159	-3.7802	0.	123.2
2937	-6.0429	-3.3499	0.	124.77
2938	4.5066	-6.7104	0.	126.88
2939	4.7462	-6.9723	0.	127.02
2940	4.4904	-7.2164	0.	127.16
2941	3.1781	4.4722	0.	127.96
2942	2.663	4.4686	0.	129.69
2943	2.9045	4.7256	0.	129.4
2944	2.9175	4.2333	0.	129.53
2945	-6.5954	-3.6817	0.	117.85
2946	-6.3912	-3.9502	0.	118.84
2947	-6.6599	-4.127	0.	114.99
2948	-6.8688	-3.8488	0.	114.79
2949	-2.4777	3.2739	0.	124.97
2950	-2.2314	3.0532	0.	122.73
2951	1.909	6.846	0.	127.65
2952	2.1818	7.0639	0.	128.12
2953	1.6713	7.0822	0.	125.86
2954	1.9378	7.3147	0.	126.82
2955	0.20282	7.0858	0.	126.01
2956	-4.4043e-002	6.8475	0.	129.33
2957	-3.0777e-002	7.3366	0.	126.17
2958	-0.27723	7.0997	0.	126.67
2959	7.498	7.2456	0.	124.85
2960	7.2491	7.498	0.	126.41
2961	7.7486	7.4954	0.	124.83
2962	7.4992	7.7469	0.	125.76
2963	7.4958	6.7451	0.	124.
2964	7.7467	6.9935	0.	124.15
2965	7.744	6.4927	0.	123.7
2966	7.2456	6.5012	0.	124.68
2967	7.4938	6.2474	0.	122.99
2968	2.5582	-4.9184	0.	129.71
2969	2.803	-4.6649	0.	130.3
2970	2.7968	-5.1586	0.	128.81
2971	2.8759	-6.1559	0.	129.05
2972	2.592	-5.9162	0.	129.12
2973	2.815	-5.6557	0.	128.45
2974	1.8029	-4.1864	0.	134.89
2975	2.0779	-3.9285	0.	133.44
2976	1.5734	-3.899	0.	132.12
2977	1.8389	-3.6784	0.	132.66
2978	1.7082	-6.9898	0.	128.4
2979	1.4463	-6.7476	0.	128.4
2980	1.2211	-7.035	0.	124.18
2981	1.9311	-6.7137	0.	131.34
2982	2.2003	-6.9599	0.	129.96
2983	1.9645	-7.2279	0.	128.97
2984	0.68416	7.0799	0.	124.16
2985	0.43227	6.8165	0.	124.44
2986	0.45197	7.3254	0.	124.85
2987	0.91197	6.837	0.	122.29
2988	1.1734	7.0848	0.	124.03
2989	0.93959	7.3256	0.	123.88
2990	1.6084	5.7284	0.	131.15
2991	1.8628	5.9592	0.	131.5
2992	1.8735	5.5482	0.	132.04
2993	-5.9294	-7.0187	0.	121.99
2994	-6.1699	-7.2009	0.	121.82
2995	-5.9657	-7.4127	0.	121.44
2996	-5.6953	-6.8424	0.	122.84
2997	-6.1014	-6.8065	0.	122.29
2998	-5.8837	-6.6255	0.	123.4
2999	-2.4847	3.7659	0.	126.32
3000	-2.2083	4.073	0.	122.88
3001	-2.7666	3.9583	0.	128.52
3002	-2.2159	3.5709	0.	122.46
3003	-6.5187	-3.253	0.	121.74
3004	-6.8042	-3.4017	0.	119.85
3005	-6.7151	-2.9736	0.	123.22
3006	-6.2414	-3.0912	0.	124.35
3007	6.2907	4.6042	0.	126.81
3008	6.0175	4.8294	0.	124.39
3009	5.7714	4.5842	0.	120.18
3010	6.0266	4.3666	0.	119.93
3011	3.4281	4.7302	0.	128.22
3012	3.6977	4.4901	0.	125.44
3013	4.5431	-6.2056	0.	125.99
3014	4.5895	-5.7012	0.	125.47
3015	4.8052	-5.9637	0.	124.83
3016	4.333	-5.9373	0.	126.19
3017	4.7681	-6.4673	0.	126.55
3018	-5.351	-3.682	0.	131.69
3019	-5.1678	-3.9462	0.	134.63
3020	-4.8522	-3.7852	0.	132.9
3021	-5.6389	-3.861	0.	130.8
3022	-4.4476	-4.9326	0.	127.55
3023	-4.4839	-5.3906	0.	126.63
3024	-4.7136	-5.1607	0.	127.11
3025	-4.6552	-4.7002	0.	129.33
3026	-4.7445	1.5052	0.	131.73
3027	-4.2452	1.4997	0.	130.75
3028	-4.496	1.7474	0.	130.74
3029	-4.4939	1.256	0.	131.6
3030	-5.4878	0.78649	0.	129.03
3031	-5.2372	0.53699	0.	129.31
3032	-5.7354	0.55096	0.	126.47
3033	-7.2377	0.57411	0.	120.55
3034	-7.4913	0.81298	0.	121.69
3035	-7.7409	0.57416	0.	121.
3036	-6.9889	0.81094	0.	119.95
3037	-6.9843	0.34119	0.	121.06
3038	-4.5108	3.2154	0.	130.03
3039	-4.7557	2.9757	0.	130.41
3040	-4.5033	2.727	0.	129.74
3041	-4.2555	2.9653	0.	129.55
3042	-4.7618	3.466	0.	130.84
3043	-4.5197	3.7096	0.	129.81
3044	1.78	2.974	0.	129.15
3045	1.501	2.7257	0.	126.74
3046	1.5173	3.2128	0.	127.49
3047	2.0613	3.2246	0.	133.53
3048	5.0439	2.8937	0.	126.95
3049	4.7092	2.7164	0.	126.72
3050	-6.3428	7.0082	0.	130.98
3051	-5.7656	6.9932	0.	130.2
3052	-6.0379	6.7499	0.	131.28
3053	-5.7302	5.985	0.	128.82
3054	-5.4917	6.2329	0.	128.9
3055	-5.4394	5.7219	0.	127.58
3056	3.4659	-2.2229	0.	132.97
3057	3.73	-1.9808	0.	133.46
3058	3.4797	-1.7321	0.	131.97
3059	3.7155	-2.471	0.	134.56
3060	3.4415	-2.7109	0.	133.14
3061	7.473	-3.7187	0.	119.51
3062	7.7291	-3.4776	0.	123.14
3063	7.1832	-3.4234	0.	119.02
3064	7.4885	-3.2202	0.	123.3
3065	0.22493	0.50476	0.	123.79
3066	0.47841	0.25448	0.	125.46
3067	-0.27265	0.50497	0.	122.35
3068	-1.946e-002	0.25442	0.	121.75
3069	1.4873	-0.74156	0.	128.2
3070	1.2384	-0.98839	0.	128.16
3071	1.2362	-0.49312	0.	128.59
3072	1.1688	-2.9247	0.	127.92
3073	1.3592	-3.179	0.	128.56
3074	-3.4772	-5.8007	0.	127.86
3075	-3.2243	-5.5424	0.	127.88
3076	-3.7265	-5.5735	0.	127.29
3077	-3.2324	-6.0353	0.	128.49
3078	-4.2424	1.8312e-002	0.	130.99
3079	-4.7391	3.3084e-002	0.	129.68
3080	-4.4911	0.27097	0.	130.9
3081	-3.2482	1.4985	0.	125.96
3082	-3.0004	1.2507	0.	123.74
3083	-2.7529	1.5046	0.	122.91
3084	-3.4971	1.2485	0.	128.53
3085	-3.4954	1.7434	0.	127.54
3086	-3.7461	1.4971	0.	128.96
3087	-3.2716	-3.4828	0.	126.75
3088	-3.52	-3.2173	0.	128.87
3089	-3.553	-3.7422	0.	128.27
3090	-2.7558	-3.497	0.	124.31
3091	-3.0112	-3.2422	0.	124.33
3092	-3.018	-3.7511	0.	125.5
3093	-4.5126	-2.156	0.	128.91
3094	-4.258	-1.9356	0.	129.27
3095	-4.5074	-1.6788	0.	128.06
3096	-4.768	-2.3682	0.	128.54
3097	-4.2624	-2.4135	0.	130.34
3098	-2.0149	1.2595	0.	121.27
3099	-1.7724	1.5152	0.	122.34
3100	-2.2611	1.5112	0.	121.66
3101	-4.7254	-6.5598	0.	127.93
3102	-4.5006	-6.8039	0.	129.2
3103	-4.4801	-6.3262	0.	128.12
3104	-5.0118	-6.8013	0.	125.85
3105	3.799	-4.1724	0.	129.85
3106	4.0631	-3.9317	0.	129.68
3107	3.8568	-3.6849	0.	130.27
3108	4.006	-4.4236	0.	130.93
3109	-3.7851	5.4293	0.	125.94
3110	-3.6218	5.708	0.	127.02
3111	-3.9362	5.8924	0.	127.34
3112	-3.4613	5.2444	0.	125.98
3113	-3.6124	4.9561	0.	126.34
3114	-3.1313	6.5456	0.	131.81
3115	-3.4581	6.7127	0.	130.01
3116	-3.0138	6.8282	0.	129.39
3117	-1.0026	6.8666	0.	121.6
3118	-0.76159	7.1024	0.	123.96
3119	-6.9801	-0.5809	0.	126.42
3120	-6.7306	-0.36089	0.	124.93
3121	-6.9809	-0.12185	0.	122.78
3122	-7.2301	-0.34784	0.	121.11
3123	-6.2932	-1.7834	0.	122.62
3124	-6.065	-2.0536	0.	122.65
3125	-6.0259	-1.5725	0.	123.15
3126	4.4893	1.2367	0.	128.37
3127	4.74	1.469	0.	124.55
3128	4.508	1.7378	0.	126.64
3129	6.9995	7.7495	0.	128.12
3130	6.7493	7.5003	0.	130.45
3131	-3.2505	-7.5118	0.	130.56
3132	-3.	-7.7575	0.	130.77
3133	-2.7496	-7.5069	0.	132.15
3134	-2.9983	-7.262	0.	130.73
3135	0.71881	-6.6219	0.	117.03
3136	1.1937	-6.5292	0.	125.42
3137	0.93677	-6.3207	0.	121.53
3138	0.96846	-6.8167	0.	121.17
3139	2.3472	5.1343	0.	130.06
3140	2.5863	5.4279	0.	132.22
3141	2.1148	5.3452	0.	132.14
3142	5.7537	5.0523	0.	122.14
3143	5.4979	5.2813	0.	116.73
3144	5.5076	4.8072	0.	117.89
3145	5.2451	5.0305	0.	116.58
3146	-5.3515	-5.6003	0.	134.88
3147	-4.7914	-5.6438	0.	127.38
3148	-5.021	-5.4139	0.	127.82
3149	0.73912	3.466	0.	118.02
3150	1.0015	3.6955	0.	113.1
3151	1.2576	3.4553	0.	122.49
3152	0.73971	-1.4835	0.	129.42
3153	0.98789	-1.234	0.	128.08
3154	-3.7509	-1.4762	0.	131.77
3155	-4.0035	-1.7095	0.	129.95
3156	-4.2529	-1.4527	0.	128.74
3157	-3.9997	-1.2208	0.	130.02
3158	-1.7344	6.5723	0.	115.19
3159	-1.9681	6.3028	0.	114.9
3160	-2.2527	6.53	0.	122.84
3161	7.9901	5.732	0.	124.84
3162	7.7411	5.4906	0.	122.44
3163	8.2448	5.4874	0.	127.63
3164	8.0111	5.2267	0.	129.19
3165	-6.5778	-1.9654	0.	121.59
3166	-6.8874	-2.2136	0.	127.32
3167	-6.3495	-2.2357	0.	121.68
3168	-0.297	3.0376	0.	127.8
3169	-3.0597e-002	3.2655	0.	128.84
3170	0.20433	3.0058	0.	124.76
3171	7.9915	6.2374	0.	123.99
3172	8.2407	5.9865	0.	125.44
3173	7.7413	5.9921	0.	123.29
3174	7.9949	6.7411	0.	123.85
3175	8.2434	6.4894	0.	124.43
3176	7.9972	7.2434	0.	124.13
3177	8.2462	6.9923	0.	124.15
3178	7.9988	7.7456	0.	124.7
3179	8.248	7.4944	0.	124.36
3180	-3.5012	-7.762	0.	130.42
3181	-3.7526	-7.518	0.	130.96
3182	0.26979	-7.6023	0.	123.13
3183	0.51906	-7.8224	0.	122.96
3184	0.49675	-7.3585	0.	120.41
3185	4.3487	-3.6931	0.	129.5
3186	4.6472	-3.4567	0.	134.98
3187	4.4408	-3.2115	0.	132.13
3188	4.1424	-3.4462	0.	130.16
3189	-5.9383	4.7227	0.	125.91
3190	-6.1845	4.9807	0.	128.23
3191	-5.9224	5.2227	0.	126.88
3192	-5.6132	4.9391	0.	126.49
3193	-5.7315	4.4563	0.	126.16
3194	-5.2555	4.454	0.	127.34
3195	-5.4969	4.2007	0.	127.97
3196	-5.4065	4.6727	0.	126.74
3197	-3.7516	-8.0106	0.	130.5
3198	-3.2506	-8.0076	0.	130.63
3199	-3.5008	-8.2574	0.	130.35
3200	4.3321e-002	-7.8402	0.	124.85
3201	-0.19546	-7.7669	0.	126.
3202	6.1565e-003	-7.4204	0.	124.11
3203	7.9998	-7.7499	0.	123.88
3204	8.2499	-7.4999	0.	125.57
3205	7.7497	-7.4999	0.	122.32
3206	7.9999	-7.2499	0.	124.4
3207	7.7496	-7.9999	0.	122.63
3208	7.9997	-8.2499	0.	123.75
3209	8.2498	-7.9999	0.	124.89
3210	7.2491	-7.9997	0.	120.91
3211	7.4994	-8.2498	0.	121.87
3212	7.4995	-7.7499	0.	121.07
3213	6.7482	-7.9992	0.	120.44
3214	6.9986	-8.2495	0.	120.83
3215	6.2466	-7.998	0.	121.32
3216	6.4979	-7.7489	0.	119.94
3217	6.4974	-8.2487	0.	121.03
3218	5.7445	-7.9955	0.	123.02
3219	5.9957	-8.2471	0.	122.26
3220	5.9964	-7.7469	0.	121.89
3221	5.2418	-7.9907	0.	124.78
3222	5.4936	-8.2443	0.	123.91
3223	5.494	-7.7432	0.	124.18
3224	4.7388	-7.9819	0.	126.17
3225	4.9911	-8.238	0.	125.4
3226	4.9911	-7.7353	0.	125.88
3227	4.236	-7.9707	0.	127.16
3228	4.4888	-8.2295	0.	126.55
3229	4.4872	-7.7229	0.	126.94
3230	3.7342	-7.9621	0.	127.86
3231	3.9869	-8.2206	0.	127.39
3232	3.2339	-7.9613	0.	128.3
3233	3.4865	-8.2164	0.	127.96
3234	3.4804	-7.698	0.	128.32
3235	2.735	-7.9689	0.	128.35
3236	2.9876	-8.2196	0.	128.21
3237	2.9787	-7.7041	0.	128.72
3238	2.2388	-7.9828	0.	127.82
3239	2.49	-8.229	0.	128.03
3240	2.4796	-7.7179	0.	128.67
3241	1.7452	-8.0018	0.	126.63
3242	1.9947	-8.2432	0.	127.28
3243	1.9843	-7.7373	0.	127.78
3244	1.2546	-8.0243	0.	125.13
3245	1.5011	-8.2612	0.	126.07
3246	0.76851	-8.0466	0.	124.23
3247	1.0104	-8.2804	0.	124.95
3248	0.29259	-8.0603	0.	124.67
3249	0.52252	-8.2952	0.	124.75
3250	7.2231	-3.9514	0.	117.05
3251	7.7297	-3.9752	0.	121.55
3252	7.4827	-4.2239	0.	118.06
3253	7.7861	2.3435	0.	125.
3254	8.2826	2.3936	0.	129.09
3255	8.0614	2.1486	0.	126.3
3256	8.0151	2.6135	0.	127.34
3257	7.9926	0.744	0.	131.99
3258	8.2568	0.98292	0.	130.01
3259	7.7111	1.0164	0.	132.8
3260	8.0329	1.2221	0.	128.03
3261	7.9977	-0.7467	0.	130.6
3262	7.9952	-0.24785	0.	131.72
3263	8.2469	-0.49796	0.	130.57
3264	7.7472	-0.49829	0.	131.75
3265	7.9999	-1.2451	0.	130.07
3266	8.2488	-0.99662	0.	130.01
3267	7.749	-0.99667	0.	132.26
3268	7.9929	-3.2343	0.	126.78
3269	7.9858	-3.7341	0.	125.16
3270	8.2398	-3.4878	0.	127.24
3271	2.9794	7.7611	0.	131.02
3272	3.2307	7.509	0.	133.7
3273	2.7182	7.523	0.	129.74
3274	-5.7893	7.9987	0.	125.34
3275	-6.0513	8.255	0.	125.69
3276	-6.3477	7.9969	0.	123.03
3277	-5.2567	7.9965	0.	125.72
3278	-5.5214	8.2478	0.	125.51
3279	-5.508	7.7413	0.	126.44
3280	-4.7368	8.009	0.	126.18
3281	-5.0007	8.2502	0.	125.77
3282	-4.2281	8.0362	0.	126.51
3283	-4.4891	8.2679	0.	126.12
3284	-3.7284	8.0675	0.	126.56
3285	-3.9546	7.816	0.	127.1
3286	-3.9849	8.2933	0.	126.35
3287	-3.2343	8.0828	0.	126.12
3288	-3.4865	8.3167	0.	126.22
3289	-2.7424	8.058	0.	125.06
3290	-2.9905	8.3163	0.	125.61
3291	-2.2488	8.0306	0.	123.65
3292	-2.4965	8.2812	0.	124.51
3293	-2.51	7.7719	0.	124.48
3294	-1.7515	8.0339	0.	122.63
3295	-1.9989	7.7812	0.	122.28
3296	-2.0003	8.276	0.	123.38
3297	-1.2542	8.047	0.	122.65
3298	-1.5027	8.2844	0.	122.92
3299	-0.75857	8.058	0.	123.49
3300	-1.0059	8.296	0.	123.34
3301	-0.26396	8.0633	0.	124.34
3302	-0.50951	8.3034	0.	124.13
3303	-0.51272	7.8218	0.	124.22
3304	0.22993	8.063	0.	124.7
3305	-1.3825e-002	8.3056	0.	124.67
3306	-2.1186e-002	7.8219	0.	124.96
3307	0.72448	8.0589	0.	124.8
3308	0.48188	8.3035	0.	124.84
3309	0.46949	7.8172	0.	124.75
3310	1.2214	8.052	0.	125.15
3311	0.9788	8.2985	0.	125.03
3312	0.96239	7.8128	0.	124.62
3313	1.7221	8.0413	0.	126.07
3314	1.478	8.2905	0.	125.61
3315	1.4595	7.8069	0.	125.27
3316	2.226	8.0271	0.	127.57
3317	1.98	8.2794	0.	126.74
3318	1.9633	7.7938	0.	126.66
3319	2.7316	8.0142	0.	129.8
3320	2.4838	8.2665	0.	128.45
3321	2.4703	7.7761	0.	128.52
3322	7.7494	7.9971	0.	125.63
3323	7.2497	7.9985	0.	127.47
3324	7.4997	8.2481	0.	126.53
3325	8.2491	7.9964	0.	124.83
3326	7.9995	8.2473	0.	125.29
3327	-7.7387	-7.9908	0.	124.3
3328	-7.4893	-8.2419	0.	123.12
3329	-7.4711	-7.7131	0.	122.96
3330	-7.2336	-8.0041	0.	122.34
3331	-7.9976	-7.7492	0.	126.76
3332	-8.2465	-8.002	0.	126.7
3333	-7.9938	-8.2468	0.	125.43
3334	-0.5168	0.2538	0.	120.24
3335	-0.76944	0.50428	0.	123.42
3336	-2.4959	-3.2494	0.	121.82
3337	-2.2363	-3.5011	0.	124.55
3338	-2.4927	-3.7503	0.	123.9
3339	2.0453	-4.4383	0.	134.57
3340	2.3145	-4.6769	0.	131.47
3341	2.3203	-4.1804	0.	133.12
3342	2.5592	-4.4234	0.	132.06
3343	-7.3051e-002	6.3657	0.	132.92
3344	0.1854	6.5781	0.	127.78
3345	-0.28757	6.6204	0.	131.33
3346	1.883	6.3923	0.	129.65
3347	1.6449	6.6153	0.	126.21
3348	2.1569	6.5999	0.	129.41
3349	-8.034	-7.2665	0.	129.23
3350	-7.73	-7.4715	0.	125.44
3351	-8.2578	-7.5118	0.	128.44
3352	-1.9697	3.3501	0.	120.21
3353	-1.7399	3.1014	0.	121.11
3354	-0.51566	3.3106	0.	132.23
3355	-0.77989	3.0752	0.	126.62
3356	0.23861	3.4934	0.	125.1
3357	0.50726	3.714	0.	115.29
3358	0.47354	3.2337	0.	120.98
3359	-8.2413	9.7294e-002	0.	120.31
3360	-7.9909	0.34063	0.	120.07
3361	-7.9866	-0.12073	0.	116.91
3362	5.0077	-6.7292	0.	126.69
3363	4.9953	-7.2322	0.	126.51
3364	5.2495	-6.986	0.	126.18
3365	4.8436	-5.4578	0.	123.54
3366	4.6322	-5.1967	0.	127.32
3367	5.0912	-5.2129	0.	122.09
3368	5.0593	-5.7203	0.	122.88
3369	5.3065	-5.4747	0.	122.24
3370	-5.9175	-4.0406	0.	126.76
3371	-6.1848	-4.2227	0.	118.23
3372	-5.0029	2.735	0.	130.27
3373	-4.9992	2.2447	0.	130.28
3374	-5.2509	2.4928	0.	130.97
3375	-4.7505	2.4864	0.	129.59
3376	2.3817	4.6943	0.	129.27
3377	2.6232	4.9513	0.	129.05
3378	2.0706	4.9259	0.	133.52
3379	0.22588	-6.7304	0.	118.44
3380	0.47016	-6.4467	0.	110.42
3381	0.48025	-6.9013	0.	116.1
3382	7.5111	2.5442	0.	119.57
3383	7.5915	2.1038	0.	124.35
3384	7.2643	2.2314	0.	124.93
3385	5.0957	2.1498	0.	126.28
3386	5.2872	1.8874	0.	124.47
3387	5.015	1.6852	0.	123.53
3388	4.7829	1.9539	0.	125.65
3389	5.4619	3.5137	0.	120.55
3390	5.748	3.7017	0.	119.05
3391	5.28	3.8518	0.	118.67
3392	5.527	3.934	0.	118.11
3393	5.6694	3.2478	0.	121.74
3394	5.3603	3.0642	0.	125.18
3395	7.2308	2.741	0.	116.55
3396	7.4782	3.0236	0.	111.51
3397	7.7401	2.8142	0.	121.84
3398	8.0023	-1.7421	0.	130.02
3399	8.2509	-1.4947	0.	129.6
3400	7.7508	-1.4942	0.	131.25
3401	7.7523	-2.9769	0.	126.91
3402	8.2488	-2.9886	0.	128.73
3403	8.0023	-2.7356	0.	129.12
3404	-1.9718	-3.7521	0.	124.89
3405	-1.9644	-4.2509	0.	122.73
3406	-2.2282	-4.0013	0.	124.25
3407	-1.7033	-4.0047	0.	124.02
3408	0.98392	-0.24445	0.	128.36
3409	0.73228	4.0983e-003	0.	126.98
3410	0.95036	-2.6758	0.	127.49
3411	0.72326	-2.4515	0.	129.23
3412	-2.9875	-6.2728	0.	129.19
3413	-2.743	-6.5149	0.	131.23
3414	-2.994	-6.7675	0.	130.19
3415	-2.9734	-5.278	0.	127.58
3416	-2.9787	-4.7732	0.	126.57
3417	-2.7218	-5.0182	0.	125.8
3418	-3.7463	1.0017	0.	130.46
3419	-3.9947	0.75535	0.	132.
3420	-3.9953	1.2502	0.	130.89
3421	-4.244	1.0066	0.	131.74
3422	-3.765	-2.941	0.	130.35
3423	-4.0138	-2.6761	0.	131.23
3424	-1.023	0.75541	0.	124.67
3425	-1.2748	1.0074	0.	124.5
3426	-1.0341	1.262	0.	124.21
3427	-5.2719	-6.9552	0.	123.57
3428	-4.2592	-7.0386	0.	130.18
3429	-4.0032	-7.2776	0.	130.96
3430	6.9333	-3.6561	0.	116.48
3431	6.9675	-3.1528	0.	119.94
3432	6.6313	-3.4112	0.	122.68
3433	6.7349	-3.1406	0.	117.71
3434	-3.2826	6.2729	0.	131.93
3435	-3.4532	5.9846	0.	129.02
3436	-3.7676	6.169	0.	129.36
3437	-3.6094	6.44	0.	130.16
3438	-1.243	6.6157	0.	117.16
3439	-1.4722	6.3643	0.	110.74
3440	6.5335	4.8446	0.	132.83
3441	6.5379	4.3716	0.	128.83
3442	-6.5247	-1.5291	0.	124.21
3443	-6.7848	-1.7523	0.	119.2
3444	-6.7453	-1.2841	0.	132.18
3445	-6.4961	-1.0672	0.	126.7
3446	-6.2574	-1.3182	0.	124.75
3447	-6.9835	-1.0392	0.	133.91
3448	-6.7343	-0.82231	0.	128.58
3449	-7.2282	-0.8004	0.	123.55
3450	7.2436	5.5219	0.	121.52
3451	7.4911	5.2524	0.	115.14
3452	7.4923	5.7507	0.	120.91
3453	-0.98629	6.4098	0.	122.05
3454	-0.76177	6.6369	0.	126.39
3455	-2.9729	6.0998	0.	135.63
3456	-2.7802	6.4221	0.	130.48
3457	-3.2979	5.5231	0.	127.04
3458	-3.1436	5.8115	0.	132.78
3459	-2.9915	5.3423	0.	124.14
3460	-3.1059	5.0694	0.	127.95
3461	4.2701	-4.1829	0.	130.76
3462	4.5269	-3.9408	0.	126.28
3463	4.4648	-4.4371	0.	135.5
3464	4.2173	-4.6775	0.	131.1
3465	6.7396	-3.9435	0.	113.61
3466	6.9853	-4.205	0.	117.38
3467	-4.0014	-8.2594	0.	130.04
3468	-4.2518	-8.0134	0.	131.4
3469	-4.0029	-7.7666	0.	131.04
3470	-4.7869	-7.0453	0.	127.11
3471	-4.5119	-7.2855	0.	131.54
3472	-5.0325	-7.2937	0.	124.37
3473	-7.1978	-7.4951	0.	121.65
3474	-6.8741	-7.3283	0.	117.68
3475	-6.696	-7.5759	0.	122.8
3476	-6.9603	-7.7861	0.	121.04
3477	-2.0109	0.75363	0.	121.36
3478	-2.26	1.0046	0.	119.88
3479	-1.7674	1.0065	0.	122.64
3480	-2.7513	-2.9947	0.	121.8
3481	-3.0042	-2.7401	0.	123.52
3482	-3.2596	-2.9766	0.	126.46
3483	-3.2493	1.0007	0.	126.33
3484	-3.0008	0.75095	0.	123.66
3485	-2.7537	1.0025	0.	121.1
3486	-3.4975	0.75164	0.	131.25
3487	-3.9942	0.25995	0.	132.04
3488	-3.7459	0.50528	0.	132.77
3489	-4.2429	0.5126	0.	131.95
3490	-3.7456	8.5431e-003	0.	132.12
3491	-3.9947	-0.235	0.	131.08
3492	-1.973	-5.2512	0.	118.55
3493	-1.9644	-4.7507	0.	119.87
3494	-1.7113	-5.0029	0.	116.6
3495	-2.2194	-5.0048	0.	121.55
3496	-2.9796	-5.777	0.	128.51
3497	-2.7269	-5.5195	0.	128.38
3498	-2.7365	-6.0181	0.	128.99
3499	0.71608	-2.9164	0.	126.85
3500	0.83257	-3.147	0.	126.48
3501	0.73714	-0.49337	0.	129.03
3502	0.98722	-0.73995	0.	128.55
3503	0.23402	4.1387e-003	0.	123.43
3504	0.48549	-0.24482	0.	127.67
3505	-0.26361	3.2504e-003	0.	119.6
3506	-1.2039e-002	-0.24672	0.	120.74
3507	-0.90661	-4.2725	0.	122.21
3508	-0.91736	-3.7679	0.	121.48
3509	-1.1695	-4.0148	0.	123.15
3510	-0.6115	-4.035	0.	123.59
3511	7.2728	-2.9495	0.	124.18
3512	7.0325	-2.6974	0.	123.92
3513	6.8076	-2.9179	0.	120.38
3514	7.5092	-2.7228	0.	128.65
3515	8.2529	-1.9922	0.	130.01
3516	7.7542	-1.989	0.	130.61
3517	8.0046	-2.2384	0.	130.23
3518	7.9904	0.25053	0.	133.25
3519	8.2454	-3.1675e-004	0.	131.97
3520	7.7437	5.0204e-004	0.	132.64
3521	8.2433	0.49535	0.	132.64
3522	7.7305	0.50182	0.	135.
3523	4.2405	-1.9878	0.	134.65
3524	3.9883	-1.7369	0.	133.47
3525	3.9797	-2.2288	0.	135.04
3526	4.244	0.49102	0.	134.68
3527	3.9908	0.74194	0.	132.39
3528	3.9939	0.24382	0.	133.3
3529	3.7414	0.49024	0.	132.53
3530	-6.2443	5.9959	0.	129.45
3531	-6.0076	6.2429	0.	130.31
3532	-5.9626	5.7323	0.	128.32
3533	6.965	2.9401	0.	115.49
3534	6.7082	2.708	0.	115.28
3535	6.984	2.4283	0.	122.45
3536	5.9555	3.4358	0.	120.21
3537	6.2243	3.6599	0.	119.5
3538	6.0051	3.9047	0.	118.44
3539	5.8998	2.9405	0.	122.5
3540	6.1832	3.1864	0.	125.37
3541	5.2292	2.6057	0.	127.78
3542	5.5908	2.757	0.	125.92
3543	5.3863	2.3264	0.	129.36
3544	4.8944	2.4283	0.	127.58
3545	7.465	1.8168	0.	123.55
3546	7.8668	1.9089	0.	125.66
3547	7.6366	1.6942	0.	123.14
3548	-1.8944e-002	-6.5713	0.	123.62
3549	-2.125e-002	-7.0056	0.	123.79
3550	-0.2692	-6.8468	0.	129.54
3551	-0.64972	-4.5461	0.	125.74
3552	-0.92568	-4.7715	0.	120.32
3553	-1.1777	-4.5158	0.	120.95
3554	2.1593	4.4505	0.	127.35
3555	2.4306	4.2328	0.	131.68
3556	-5.0067	3.2262	0.	131.22
3557	-5.2538	2.9841	0.	132.09
3558	-5.2562	3.4758	0.	132.53
3559	-5.0098	3.7209	0.	130.67
3560	-7.9988	1.7694	0.	124.05
3561	-8.2497	2.014	0.	123.96
3562	-7.9997	2.2605	0.	122.5
3563	-7.7494	2.0143	0.	124.35
3564	-8.2487	1.5249	0.	124.64
3565	-7.7477	1.5279	0.	125.46
3566	-7.997	1.2858	0.	124.02
3567	-7.2425	1.0498	0.	121.08
3568	-7.4954	1.2911	0.	124.56
3569	-7.7447	1.049	0.	123.11
3570	-6.9937	1.2861	0.	119.73
3571	-6.7407	1.0458	0.	118.86
3572	-5.7394	1.033	0.	126.84
3573	-5.9916	1.2777	0.	124.37
3574	-6.2395	1.0404	0.	121.06
3575	-5.987	0.79751	0.	124.27
3576	-5.4918	1.2723	0.	131.6
3577	-5.2404	1.0239	0.	130.78
3578	-4.9958	1.7539	0.	131.57
3579	-5.244	1.512	0.	132.74
3580	-4.9926	1.2637	0.	131.93
3581	-5.2478	2.0015	0.	131.56
3582	-4.7473	1.996	0.	130.58
3583	-5.0986	-4.6584	0.	135.03
3584	-4.8492	-4.4767	0.	131.77
3585	-4.9211	-4.9283	0.	128.88
3586	-5.7189	-4.3076	0.	134.02
3587	-5.4557	-4.1253	0.	133.68
3588	5.123	-4.7044	0.	124.12
3589	5.3346	-4.9649	0.	120.3
3590	4.8798	-4.9518	0.	125.93
3591	5.0302	-6.2254	0.	125.38
3592	5.283	-5.9806	0.	124.67
3593	5.2632	-6.4837	0.	127.27
3594	6.0019	-6.7473	0.	121.73
3595	6.2499	-6.9981	0.	119.56
3596	5.9984	-7.2469	0.	121.61
3597	5.7501	-6.994	0.	123.51
3598	2.8713	5.7774	0.	132.63
3599	3.1767	6.0257	0.	133.5
3600	2.9244	6.29	0.	132.58
3601	2.6513	6.0848	0.	132.43
3602	3.1224	5.5075	0.	132.96
3603	2.8624	5.2448	0.	131.2
3604	3.6841	4.9964	0.	126.69
3605	3.4146	5.2462	0.	131.42
3606	3.1546	4.9836	0.	129.67
3607	3.9508	5.2529	0.	125.76
3608	3.9537	4.7563	0.	123.92
3609	4.2115	5.0058	0.	121.05
3610	6.2604	5.0698	0.	130.62
3611	6.0029	5.2968	0.	127.21
3612	6.5055	5.3112	0.	134.18
3613	6.7536	5.0876	0.	129.45
3614	6.9957	5.7802	0.	124.44
3615	6.7467	5.5434	0.	128.59
3616	6.9948	5.3198	0.	123.79
3617	6.7463	6.0195	0.	127.66
3618	6.9962	6.2628	0.	125.45
3619	7.2443	6.009	0.	123.73
3620	-6.5997	6.7648	0.	131.25
3621	-6.9267	7.0288	0.	124.59
3622	-8.4951	0.32349	0.	122.56
3623	-8.7451	7.1814e-002	0.	124.25
3624	-8.491	-0.14373	0.	121.38
3625	-8.4974	0.79908	0.	123.8
3626	-8.7477	0.54913	0.	124.69
3627	-8.2446	0.56682	0.	122.3
3628	-8.4987	1.2816	0.	124.56
3629	-8.7489	1.0323	0.	125.28
3630	-8.247	1.0424	0.	123.93
3631	-8.4996	1.7696	0.	124.56
3632	-8.7497	1.5205	0.	125.48
3633	-8.5001	2.2615	0.	124.36
3634	-8.7502	2.0126	0.	125.25
3635	-8.25	2.5081	0.	122.91
3636	-8.5002	2.7564	0.	125.28
3637	-8.7503	2.5071	0.	125.47
3638	-7.2112	-2.8113	0.	124.36
3639	-7.0006	-3.1223	0.	121.42
3640	-0.24926	3.5384	0.	133.16
3641	2.3275e-002	3.7495	0.	135.47
3642	-0.72932	3.6001	0.	131.8
3643	-0.45058	3.816	0.	138.89
3644	-2.0695	4.3447	0.	120.15
3645	-1.9395	3.8779	0.	119.04
3646	-8.0916	-6.8032	0.	130.62
3647	-8.2447	-6.3539	0.	130.59
3648	-7.8793	-6.5445	0.	131.15
3649	-8.3328	-6.5824	0.	130.68
3650	-8.302	-7.0385	0.	130.49
3651	-7.8418	-7.0006	0.	129.49
3652	-6.3418	-6.9887	0.	122.11
3653	-6.5978	-7.1465	0.	118.78
3654	-6.4198	-7.3941	0.	123.92
3655	-6.4816	-6.7422	0.	119.97
3656	-6.3119	-6.5793	0.	120.5
3657	1.3658	5.9301	0.	127.72
3658	1.4159	5.5045	0.	130.27
3659	1.6202	6.1609	0.	128.
3660	2.1327	6.1483	0.	131.43
3661	0.15165	6.0553	0.	129.46
3662	-0.30888	6.162	0.	140.04
3663	-0.24058	5.9205	0.	132.14
3664	0.89621	6.3527	0.	118.26
3665	0.66007	6.5735	0.	122.58
3666	1.1458	6.6038	0.	122.67
3667	1.6693	-6.4715	0.	131.3
3668	1.395	-6.2126	0.	132.51
3669	1.8818	-6.1946	0.	133.5
3670	2.159	-6.4449	0.	131.92
3671	1.6156	-4.6668	0.	136.59
3672	1.8213	-4.6982	0.	134.32
3673	1.5261	-4.3776	0.	134.4
3674	2.3187	-5.1751	0.	129.19
3675	2.0631	-5.4256	0.	127.83
3676	2.3343	-5.6758	0.	128.96
3677	2.5573	-5.4154	0.	128.31
3678	2.0904	-4.9368	0.	131.32
3679	-2.2428	-3.0017	0.	122.39
3680	-2.4973	-2.7499	0.	115.97
3681	-0.76097	2.3097e-003	0.	120.86
3682	-0.50927	-0.24795	0.	114.23
3683	4.4913	0.73805	0.	133.02
3684	4.7338	0.97859	0.	128.31
3685	4.2381	0.98897	0.	130.7
3686	-7.8273	-3.6591	0.	120.5
3687	-7.6113	-3.9303	0.	118.44
3688	-7.5626	-3.4529	0.	117.69
3689	-7.3477	-3.7446	0.	115.81
3690	-8.3085	-3.6063	0.	126.08
3691	-8.0816	-3.8702	0.	130.04
3692	-8.0519	-3.3772	0.	118.74
3693	-8.5548	-3.8356	0.	130.13
3694	-8.7907	-3.5702	0.	130.42
3695	-8.5418	-3.3433	0.	128.54
3696	-8.5545	-4.3344	0.	130.56
3697	-8.328	-4.0996	0.	133.89
3698	-8.7971	-4.0699	0.	130.98
3699	-8.5256	-4.8364	0.	128.15
3700	-8.786	-4.5724	0.	129.09
3701	-8.324	-4.5959	0.	129.31
3702	-8.4694	-5.3419	0.	127.98
3703	-8.7494	-5.0755	0.	126.85
3704	-8.2612	-5.0926	0.	132.71
3705	-8.4041	-5.8639	0.	129.99
3706	-8.6999	-5.5799	0.	128.53
3707	-8.1736	-5.5891	0.	131.16
3708	-8.6617	-6.0947	0.	129.83
3709	-8.0779	-6.0962	0.	129.
3710	-8.4597	-6.3604	0.	130.66
3711	-8.7794	-7.0381	0.	130.13
3712	-8.5257	-7.2838	0.	129.7
3713	-8.5432	-6.8177	0.	130.55
3714	-8.4992	-8.2554	0.	127.34
3715	-8.752	-8.0084	0.	128.25
3716	-8.5067	-7.7645	0.	128.38
3717	8.5611	4.8058	0.	133.74
3718	8.5911	4.395	0.	131.06
3719	8.8235	4.5819	0.	132.12
3720	8.3879	4.5145	0.	135.17
3721	8.5125	5.2579	0.	131.36
3722	8.777	5.0288	0.	131.91
3723	8.2789	4.9972	0.	132.88
3724	8.4953	5.7419	0.	128.22
3725	8.7522	5.5032	0.	129.6
3726	8.4925	6.2385	0.	125.86
3727	8.7441	5.9924	0.	127.06
3728	8.4946	6.7406	0.	124.72
3729	8.7439	6.4903	0.	125.46
3730	8.497	7.2433	0.	124.37
3731	8.7462	6.9925	0.	124.66
3732	8.4984	7.7452	0.	124.48
3733	8.7479	7.4945	0.	124.45
3734	8.4993	8.2469	0.	124.77
3735	8.749	7.9962	0.	124.56
3736	2.9882	8.2578	0.	131.03
3737	3.2383	8.0061	0.	132.4
3738	8.238	-3.9882	0.	127.53
3739	7.9882	-4.2372	0.	125.77
3740	4.063e-002	-8.2925	0.	125.8
3741	-0.18036	-7.9903	0.	126.42
3742	-3.0001	-8.2546	0.	130.94
3743	-2.7499	-8.0044	0.	131.07
3744	7.7495	-8.4999	0.	122.99
3745	8.2498	-8.4999	0.	124.66
3746	7.9996	-8.7499	0.	123.83
3747	7.2488	-8.4996	0.	121.78
3748	7.4992	-8.7498	0.	122.45
3749	6.9985	-8.7495	0.	121.7
3750	6.7478	-8.499	0.	121.42
3751	5.2429	-8.4916	0.	124.53
3752	5.4947	-8.7452	0.	123.84
3753	5.7448	-8.4959	0.	123.15
3754	4.7411	-8.4855	0.	125.79
3755	4.9931	-8.7401	0.	125.11
3756	4.2397	-8.4793	0.	126.78
3757	4.4919	-8.7354	0.	126.2
3758	3.7392	-8.4749	0.	127.48
3759	3.9911	-8.7307	0.	127.05
3760	3.2403	-8.4747	0.	127.87
3761	3.4915	-8.729	0.	127.6
3762	2.7426	-8.4797	0.	127.89
3763	2.9931	-8.7312	0.	127.83
3764	2.246	-8.4895	0.	127.48
3765	2.4957	-8.7371	0.	127.69
3766	1.7506	-8.5027	0.	126.71
3767	1.9992	-8.7465	0.	127.17
3768	1.2569	-8.5173	0.	125.88
3769	1.5037	-8.7583	0.	126.44
3770	0.76443	-8.529	0.	125.47
3771	1.0089	-8.7696	0.	125.82
3772	0.27055	-8.5274	0.	125.89
3773	0.51384	-8.7754	0.	125.67
3774	-0.22557	-8.4989	0.	127.36
3775	1.6217e-002	-8.7656	0.	126.1
3776	-3.2502	-8.5044	0.	130.67
3777	-2.7495	-8.5025	0.	131.21
3778	-2.9997	-8.7526	0.	130.63
3779	-3.7506	-8.5062	0.	129.89
3780	-3.5002	-8.7543	0.	130.6
3781	-4.0004	-8.7555	0.	130.2
3782	-4.2507	-8.5068	0.	130.32
3783	8.5094	2.6428	0.	133.01
3784	8.7404	2.8931	0.	134.54
3785	8.2419	2.8628	0.	131.26
3786	8.477	3.11	0.	137.89
3787	8.5411	2.1731	0.	129.9
3788	8.7723	2.4243	0.	131.53
3789	8.5509	1.6976	0.	128.59
3790	8.7935	1.9469	0.	129.75
3791	8.3199	1.9281	0.	127.12
3792	8.5313	1.2179	0.	129.09
3793	8.7883	1.464	0.	129.12
3794	8.3073	1.4571	0.	127.11
3795	8.5076	0.73427	0.	130.66
3796	8.7653	0.97908	0.	130.05
3797	8.4983	0.2445	0.	131.35
3798	8.7519	0.49032	0.	131.02
3799	8.4971	-0.25043	0.	130.82
3800	8.7484	-3.0427e-003	0.	130.9
3801	8.498	-0.74788	0.	129.99
3802	8.748	-0.49965	0.	130.16
3803	8.4997	-1.2463	0.	129.55
3804	8.749	-0.99774	0.	129.58
3805	8.5014	-1.7448	0.	129.59
3806	8.7505	-1.4964	0.	129.47
3807	8.5021	-2.2435	0.	129.8
3808	8.7516	-1.9954	0.	129.72
3809	8.5003	-2.7427	0.	129.63
3810	8.7514	-2.4947	0.	129.96
3811	8.2538	-2.4897	0.	130.02
3812	8.4957	-3.2421	0.	129.2
3813	8.7486	-2.9943	0.	129.79
3814	8.4921	-3.742	0.	129.6
3815	8.7446	-3.494	0.	129.77
3816	8.4925	-4.2431	0.	132.14
3817	8.7431	-3.9942	0.	130.82
3818	8.4999	-7.2499	0.	128.24
3819	8.4999	-6.7498	0.	131.41
3820	8.7499	-6.9998	0.	129.84
3821	8.2499	-6.9999	0.	127.07
3822	8.4999	-7.7499	0.	126.58
3823	8.7499	-7.4999	0.	127.97
3824	8.4999	-8.25	0.	125.8
3825	8.7499	-8.	0.	126.91
3826	8.7499	-8.5	0.	126.35
3827	8.4999	-8.75	0.	125.46
3828	6.9998	8.2493	0.	128.96
3829	6.7498	7.9998	0.	130.18
3830	-5.7834	8.5042	0.	125.9
3831	-6.0333	8.7596	0.	127.56
3832	-6.3016	8.5222	0.	130.99
3833	-5.2654	8.5016	0.	125.57
3834	-5.5196	8.7517	0.	125.99
3835	-5.0084	8.753	0.	125.72
3836	-4.753	8.5091	0.	125.71
3837	-3.4952	8.7894	0.	125.9
3838	-3.2427	8.5503	0.	125.71
3839	-3.743	8.5424	0.	126.01
3840	-2.4971	8.7743	0.	124.8
3841	-2.7445	8.5396	0.	125.05
3842	-2.2481	8.5267	0.	124.24
3843	-1.2543	8.5335	0.	123.6
3844	-1.5028	8.7739	0.	123.89
3845	-1.7515	8.5265	0.	123.66
3846	-0.75681	8.5413	0.	123.98
3847	-1.0048	8.7812	0.	124.05
3848	-0.25937	8.5457	0.	124.46
3849	-0.50667	8.7866	0.	124.45
3850	0.23813	8.5462	0.	124.81
3851	-8.4204e-003	8.7887	0.	124.83
3852	0.73621	8.5431	0.	125.07
3853	0.4901	8.7875	0.	125.1
3854	1.2354	8.537	0.	125.49
3855	0.98932	8.7835	0.	125.4
3856	1.4895	8.7771	0.	125.91
3857	1.7359	8.5286	0.	126.28
3858	2.7405	8.51	0.	129.68
3859	2.4923	8.7611	0.	128.14
3860	2.2379	8.5187	0.	127.62
3861	3.2433	8.5043	0.	132.58
3862	2.994	8.7554	0.	130.08
3863	7.2499	8.4989	0.	128.02
3864	6.7499	8.4997	0.	130.8
3865	7.	8.7494	0.	128.5
3866	7.7498	8.4983	0.	126.19
3867	7.4999	8.7488	0.	126.68
3868	8.2497	8.4979	0.	125.24
3869	7.9998	8.7485	0.	125.58
3870	8.4997	8.7482	0.	125.04
3871	8.7495	8.4977	0.	124.8
3872	-7.2441	-8.5052	0.	122.66
3873	-6.9961	-8.7593	0.	123.32
3874	-6.7449	-8.5149	0.	123.69
3875	-6.9884	-8.2674	0.	121.87
3876	-7.7444	-8.498	0.	124.27
3877	-7.4956	-8.7496	0.	123.99
3878	-8.2464	-8.5003	0.	126.08
3879	-7.9962	-8.7485	0.	125.42
3880	-8.4981	-8.752	0.	126.94
3881	-8.7489	-8.5037	0.	127.64
3882	-1.2654	0.5031	0.	126.73
3883	-1.0136	0.25278	0.	124.05
3884	-1.7184	-3.5056	0.	127.54
3885	-1.9832	-3.2533	0.	125.13
3886	-7.9999	2.756	0.	121.52
3887	-7.7497	2.5076	0.	122.65
3888	-8.2501	3.0043	0.	123.92
3889	-8.5002	3.2534	0.	128.54
3890	-8.7502	3.0038	0.	127.14
3891	-5.9837	4.229	0.	125.18
3892	-6.2266	4.485	0.	126.46
3893	-7.5378	-7.2056	0.	125.71
3894	-7.333	-7.2117	0.	121.42
3895	8.721	3.7612	0.	130.72
3896	8.9963	3.9252	0.	129.54
3897	8.9501	3.531	0.	131.79
3898	9.1912	3.6172	0.	130.47
3899	1.8307	-5.6803	0.	130.66
3900	1.6075	-5.9357	0.	134.6
3901	2.1019	-5.9306	0.	131.85
3902	1.8349	-5.1873	0.	129.87
3903	0.26068	5.732	0.	126.84
3904	0.64623	6.0469	0.	119.78
3905	0.4101	6.2677	0.	124.25
3906	1.1325	6.1329	0.	120.11
3907	1.3821	6.384	0.	124.59
3908	-7.0093	-7.0449	0.	117.28
3909	-6.7376	-6.9	0.	116.63
3910	-7.4134	-6.9767	0.	124.11
3911	-7.6295	-6.742	0.	129.97
3912	-1.2088	3.6722	0.	121.65
3913	-1.7025	3.6637	0.	117.25
3914	-1.4728	3.4149	0.	118.26
3915	-0.92364	3.8997	0.	131.3
3916	-0.99355	3.3647	0.	126.26
3917	8.5353	3.9989	0.	128.98
3918	8.8107	4.1628	0.	127.93
3919	8.3832	4.3183	0.	131.59
3920	8.4734	3.5713	0.	135.69
3921	-8.0599	6.8784	0.	117.75
3922	-8.4021	6.682	0.	130.79
3923	-8.6353	6.9354	0.	131.95
3924	-8.331	7.1389	0.	131.16
3925	-7.49	6.9446	0.	111.91
3926	-7.8727	6.6326	0.	110.45
3927	-7.6512	6.6408	0.	103.89
3928	-6.2463	3.9882	0.	123.7
3929	-5.999	3.7357	0.	125.39
3930	-5.7491	3.9734	0.	127.
3931	-8.	3.253	0.	122.22
3932	-7.7499	3.0038	0.	120.89
3933	-8.2148	6.4361	0.	123.41
3934	-8.4686	6.2141	0.	130.05
3935	-8.7042	6.4626	0.	131.49
3936	6.4999	8.7499	0.	130.19
3937	6.4999	8.2501	0.	131.97
3938	6.2499	8.5	0.	129.43
3939	6.4973	5.7828	0.	131.73
3940	6.2481	5.5382	0.	130.77
3941	3.6812	5.5028	0.	130.41
3942	3.4277	5.7558	0.	133.81
3943	3.496	8.752	0.	131.87
3944	3.7461	8.5013	0.	131.35
3945	3.4934	8.2526	0.	133.92
3946	8.7499	-6.4997	0.	132.33
3947	8.4999	-6.2496	0.	132.92
3948	8.2499	-6.4998	0.	130.09
3949	8.7449	-4.4954	0.	133.04
3950	8.4958	-4.7455	0.	133.6
3951	8.2427	-4.4921	0.	130.35
3952	5.7568	-6.4938	0.	124.95
3953	5.516	-6.2389	0.	126.52
3954	5.5051	-6.7405	0.	126.76
3955	-5.5365	-4.5777	0.	137.89
3956	-5.3661	-4.8553	0.	131.27
3957	-5.2733	-4.3953	0.	137.98
3958	-7.8656	-4.1414	0.	127.58
3959	-8.0975	-4.3611	0.	132.38
3960	-5.7439	1.5169	0.	129.09
3961	-5.4959	1.7596	0.	132.7
3962	-7.2467	1.5275	0.	123.17
3963	-7.4983	1.7729	0.	125.74
3964	-5.7527	3.4843	0.	129.65
3965	-5.5034	3.2336	0.	133.36
3966	-5.5028	3.722	0.	131.28
3967	1.9492	4.1951	0.	132.86
3968	1.7429	3.942	0.	137.86
3969	2.0308	3.7124	0.	138.79
3970	2.2205	3.9774	0.	137.37
3971	-0.34953	4.3098	0.	132.35
3972	-0.17805	4.0271	0.	140.51
3973	-0.64489	4.1156	0.	138.34
3974	5.7478	2.4777	0.	127.29
3975	6.158	2.6978	0.	118.07
3976	-8.7502	3.5017	0.	130.24
3977	-8.2501	3.502	0.	126.83
3978	-8.5001	3.7513	0.	130.78
3979	-6.5315	6.2594	0.	130.64
3980	-6.8178	6.5117	0.	124.3
3981	-6.2948	6.5065	0.	131.56
3982	4.4964	0.2429	0.	135.51
3983	4.7499	0.48869	0.	133.01
3984	4.498	-2.239	0.	136.54
3985	4.7657	-2.4941	0.	131.28
3986	4.493	-2.7294	0.	136.67
3987	4.2372	-2.48	0.	136.99
3988	7.4838	0.25179	0.	134.33
3989	7.2227	0.4778	0.	128.05
3990	7.449	0.77417	0.	135.69
3991	7.5089	-2.2322	0.	131.17
3992	7.2689	-2.4707	0.	128.32
3993	7.7592	-2.4816	0.	130.83
3994	-1.1977	-3.5112	0.	125.02
3995	-1.4733	-3.2566	0.	130.15
3996	-1.4499	-3.7582	0.	126.7
3997	0.49064	-0.74301	0.	129.03
3998	0.23944	-0.49568	0.	124.96
3999	-2.2287	-5.5062	0.	123.62
4000	-2.4838	-5.7606	0.	128.86
4001	-2.4752	-5.2597	0.	126.63
4002	-2.4986	-8.7512	0.	129.6
4003	-2.2481	-8.5007	0.	126.81
4004	-2.4993	-8.2522	0.	131.31
4005	-0.48186	-8.7352	0.	126.38
4006	-0.44656	-8.1967	0.	127.93
4007	-0.72833	-8.4822	0.	124.57
4008	-3.2489	0.50186	0.	128.56
4009	-3.4972	0.25387	0.	132.83
4010	-1.5095	0.25177	0.	129.27
4011	-1.7606	0.50221	0.	125.25
4012	-1.5172	0.75511	0.	126.57
4013	-1.2577	1.4459e-003	0.	126.65
4014	-1.0069	-0.24871	0.	123.26
4015	-1.993	-2.7523	0.	124.61
4016	-1.7381	-3.0042	0.	127.8
4017	-6.4703	-7.8234	0.	124.49
4018	-6.2156	-7.6059	0.	123.48
4019	-4.5047	-7.7712	0.	132.64
4020	-4.7576	-7.5339	0.	128.8
4021	-4.2559	-7.5245	0.	132.32
4022	-7.2476	-9.0036	0.	124.65
4023	-6.748	-9.0069	0.	125.48
4024	-6.9984	-9.2545	0.	125.63
4025	-7.7474	-9.0001	0.	125.14
4026	-7.4982	-9.2509	0.	125.39
4027	-8.2478	-9.0002	0.	126.28
4028	-7.9981	-9.2497	0.	126.03
4029	-8.7487	-9.0012	0.	127.52
4030	-8.4987	-9.2507	0.	127.04
4031	-8.9996	-8.7529	0.	128.22
4032	-8.9993	-9.2507	0.	128.14
4033	-9.2495	-9.0011	0.	128.69
4034	-9.0018	-8.2567	0.	128.55
4035	-9.2503	-8.5036	0.	128.85
4036	-9.0077	-7.763	0.	129.13
4037	-9.2531	-8.0072	0.	129.17
4038	-9.016	-7.2734	0.	129.69
4039	-8.7624	-7.5192	0.	129.26
4040	-9.259	-7.5133	0.	129.54
4041	-9.2641	-7.0212	0.	129.63
4042	-9.0128	-6.7865	0.	129.83
4043	-8.9574	-5.8107	0.	128.37
4044	-9.2176	-6.0406	0.	128.4
4045	-8.9786	-6.3005	0.	129.41
4046	-8.9798	-5.3134	0.	127.38
4047	-9.2239	-5.5466	0.	127.34
4048	-9.0098	-4.8115	0.	127.74
4049	-9.2467	-5.0479	0.	127.15
4050	-9.0285	-4.3079	0.	129.49
4051	-9.266	-4.5456	0.	128.54
4052	-9.033	-3.8045	0.	131.25
4053	-9.2745	-4.0423	0.	130.68
4054	-9.0286	-3.2998	0.	133.17
4055	-9.2733	-3.5393	0.	132.15
4056	-9.0197	-2.782	0.	134.28
4057	-9.2691	-3.0346	0.	133.71
4058	-8.7797	-3.0729	0.	131.28
4059	-9.0954	-2.2541	0.	132.07
4060	-9.2676	-2.52	0.	133.14
4061	-8.7716	-2.5796	0.	133.71
4062	-8.8316	-2.3703	0.	135.25
4063	-8.9998	-1.8955	0.	127.4
4064	-9.3692	-2.0131	0.	129.53
4065	-9.3103	-1.7604	0.	129.28
4066	-8.9861	-0.65991	0.	132.49
4067	-8.9608	-1.1275	0.	139.95
4068	-9.2317	-0.93852	0.	134.75
4069	-8.729	-0.85985	0.	128.57
4070	-8.9944	-0.18311	0.	127.79
4071	-9.2436	-0.44665	0.	130.35
4072	-8.7403	-0.39866	0.	124.93
4073	-8.9977	0.29746	0.	126.38
4074	-9.2477	4.0552e-002	0.	128.36
4075	-8.9992	0.78233	0.	126.18
4076	-9.2493	0.52873	0.	127.6
4077	-8.9999	1.2711	0.	126.21
4078	-9.25	1.0193	0.	127.28
4079	-9.2503	1.5124	0.	127.03
4080	-9.0003	1.7635	0.	126.17
4081	-9.0001	3.7508	0.	129.75
4082	-9.2502	3.5011	0.	129.2
4083	-9.0002	3.2521	0.	128.86
4084	-9.	4.2498	0.	129.64
4085	-8.75	4.0004	0.	130.3
4086	-9.2501	4.0003	0.	129.28
4087	-8.9995	4.7482	0.	129.6
4088	-8.7498	4.499	0.	130.88
4089	-9.2499	4.4995	0.	129.02
4090	-8.9977	5.2452	0.	129.56
4091	-8.749	4.9966	0.	131.63
4092	-9.2493	4.9981	0.	129.26
4093	-8.9908	5.7384	0.	129.86
4094	-8.7462	5.4914	0.	130.4
4095	-9.2469	5.4951	0.	129.26
4096	-8.7364	5.9797	0.	129.77
4097	-9.2383	5.989	0.	130.1
4098	-8.972	6.2282	0.	131.18
4099	-8.9048	7.2051	0.	132.37
4100	-9.1887	6.9729	0.	131.59
4101	-8.9375	6.7161	0.	132.68
4102	-8.8906	7.7195	0.	128.55
4103	-9.1713	7.4684	0.	129.52
4104	-8.6005	7.4086	0.	131.58
4105	-8.9413	8.2599	0.	127.2
4106	-8.6924	8.0959	0.	124.51
4107	-9.1704	7.9903	0.	125.5
4108	-8.642	7.8933	0.	133.89
4109	-9.005	8.7826	0.	130.27
4110	-8.7641	8.5801	0.	139.05
4111	-9.241	8.517	0.	127.09
4112	-8.772	9.0557	0.	131.89
4113	-9.2598	9.0211	0.	128.96
4114	-9.0133	9.2765	0.	129.27
4115	-8.2825	9.0923	0.	125.41
4116	-8.5312	8.8531	0.	140.59
4117	-8.5222	9.3075	0.	128.74
4118	-7.7863	9.1056	0.	115.54
4119	-8.0522	8.8964	0.	118.44
4120	-8.0265	9.3279	0.	119.77
4121	-7.2842	9.0906	0.	120.09
4122	-7.5553	8.891	0.	107.31
4123	-7.5258	9.3263	0.	116.58
4124	-6.7798	9.0561	0.	130.1
4125	-7.047	8.8538	0.	132.7
4126	-7.0224	9.3065	0.	125.63
4127	-6.2752	9.0234	0.	131.08
4128	-6.5192	9.2774	0.	130.3
4129	-6.5435	8.786	0.	134.34
4130	-5.7694	9.0071	0.	127.66
4131	-6.016	9.2594	0.	128.2
4132	-5.2626	9.0031	0.	126.14
4133	-5.5118	9.2526	0.	126.63
4134	-4.7564	9.0063	0.	125.9
4135	-5.0071	9.2527	0.	126.24
4136	-4.2521	9.0143	0.	125.94
4137	-4.5035	9.257	0.	126.19
4138	-4.5011	8.7625	0.	125.89
4139	-3.7492	9.0238	0.	125.9
4140	-4.0009	9.2641	0.	126.12
4141	-3.997	8.7768	0.	126.02
4142	-3.2475	9.0281	0.	125.65
4143	-3.4989	9.2706	0.	125.91
4144	-2.7476	9.0236	0.	125.22
4145	-2.9981	9.2706	0.	125.54
4146	-2.995	8.7889	0.	125.47
4147	-2.2492	9.0177	0.	124.74
4148	-2.4987	9.2647	0.	125.09
4149	-1.7514	9.0175	0.	124.4
4150	-2.0003	9.2622	0.	124.7
4151	-2.0002	8.7701	0.	124.17
4152	-1.2533	9.0217	0.	124.33
4153	-1.5019	9.2643	0.	124.51
4154	-0.75467	9.0265	0.	124.51
4155	-1.0031	9.2682	0.	124.56
4156	-0.25572	9.0295	0.	124.81
4157	-0.50397	9.2713	0.	124.8
4158	0.24356	9.0299	0.	125.12
4159	-4.5114e-003	9.2726	0.	125.11
4160	0.74322	9.0279	0.	125.42
4161	0.49522	9.272	0.	125.44
4162	1.2434	9.0236	0.	125.81
4163	0.99529	9.2695	0.	125.8
4164	1.7441	9.0177	0.	126.4
4165	1.4957	9.2656	0.	126.25
4166	2.2449	9.0116	0.	127.29
4167	1.9963	9.2608	0.	126.81
4168	1.9905	8.7692	0.	126.78
4169	2.7457	9.0066	0.	128.52
4170	2.4968	9.2566	0.	127.49
4171	3.2466	9.0031	0.	129.32
4172	2.9974	9.2533	0.	128.2
4173	3.7477	9.0011	0.	127.63
4174	3.498	9.2513	0.	127.89
4175	4.2485	9.0003	0.	123.38
4176	3.9978	8.7505	0.	127.19
4177	3.9986	9.2504	0.	125.08
4178	4.7492	9.0001	0.	119.72
4179	4.4989	8.7501	0.	119.13
4180	4.4992	9.2501	0.	121.48
4181	5.2495	9.	0.	119.33
4182	4.9994	8.75	0.	117.81
4183	4.9995	9.25	0.	119.69
4184	5.7498	9.	0.	122.34
4185	5.4997	8.75	0.	118.38
4186	5.4998	9.25	0.	120.81
4187	6.2499	9.	0.	126.23
4188	5.9999	8.75	0.	125.51
4189	5.9999	9.25	0.	123.92
4190	6.75	8.9997	0.	127.86
4191	6.5	9.2499	0.	126.48
4192	7.25	8.9993	0.	127.15
4193	7.	9.2496	0.	126.79
4194	7.7499	8.999	0.	126.07
4195	7.5	9.2493	0.	126.14
4196	8.2499	8.9988	0.	125.39
4197	7.9999	9.2492	0.	125.6
4198	8.7498	8.9987	0.	125.02
4199	8.4999	9.2491	0.	125.26
4200	8.9996	8.7482	0.	124.77
4201	8.9998	9.249	0.	125.02
4202	9.2498	8.9989	0.	124.74
4203	8.9992	8.247	0.	124.59
4204	9.2496	8.4981	0.	124.51
4205	8.9985	7.7455	0.	124.53
4206	9.2491	7.997	0.	124.4
4207	8.9972	7.2436	0.	124.74
4208	9.2484	7.4958	0.	124.51
4209	8.9955	6.7422	0.	125.4
4210	9.2471	6.9943	0.	124.99
4211	8.9955	6.2441	0.	126.66
4212	9.2467	6.4954	0.	125.92
4213	9.001	5.7537	0.	128.46
4214	9.248	5.9991	0.	127.3
4215	9.0166	5.2742	0.	130.17
4216	9.2552	5.5098	0.	128.83
4217	9.0394	4.8049	0.	130.26
4218	9.2711	5.0285	0.	129.75
4219	9.043	4.3498	0.	128.96
4220	9.2863	4.5521	0.	128.98
4221	9.2697	4.0816	0.	128.35
4222	8.9659	3.1241	0.	133.36
4223	9.1835	3.4247	0.	131.46
4224	8.7026	3.3411	0.	136.8
4225	9.0033	2.6745	0.	133.08
4226	9.2385	2.9437	0.	132.84
4227	9.0247	2.1982	0.	131.39
4228	9.2623	2.4575	0.	132.05
4229	9.0309	1.7134	0.	130.28
4230	9.2736	1.9684	0.	131.04
4231	9.0223	1.2252	0.	130.08
4232	9.2719	1.4771	0.	130.47
4233	9.2616	0.98481	0.	130.43
4234	9.0096	0.73513	0.	130.42
4235	8.9993	-0.25226	0.	130.24
4236	9.2503	-3.6214e-003	0.	130.29
4237	9.002	0.24278	0.	130.58
4238	9.2493	-0.50073	0.	129.81
4239	8.999	-0.7495	0.	129.75
4240	9.0006	-1.747	0.	129.6
4241	9.2501	-1.498	0.	129.47
4242	8.9997	-1.2479	0.	129.5
4243	9.0009	-2.2466	0.	129.88
4244	9.2507	-1.9976	0.	129.78
4245	8.9997	-2.7464	0.	130.11
4246	9.2504	-2.4975	0.	130.15
4247	8.9975	-3.2462	0.	130.37
4248	9.2491	-2.9974	0.	130.43
4249	8.9957	-3.7462	0.	131.
4250	9.2473	-3.4973	0.	130.73
4251	8.9956	-4.2464	0.	131.73
4252	9.2465	-3.9973	0.	131.2
4253	8.9969	-4.7471	0.	131.38
4254	9.2471	-4.4976	0.	131.24
4255	8.9985	-5.248	0.	129.8
4256	8.7478	-4.9972	0.	131.97
4257	9.2483	-4.9982	0.	130.06
4258	8.9994	-5.7489	0.	129.56
4259	8.7493	-5.4986	0.	130.57
4260	9.2493	-5.4988	0.	128.8
4261	8.9998	-6.2494	0.	130.74
4262	8.7498	-5.9993	0.	131.36
4263	9.2497	-5.9993	0.	129.63
4264	9.2499	-6.4996	0.	130.47
4265	8.9999	-6.7497	0.	130.77
4266	8.9999	-7.7499	0.	128.3
4267	9.25	-7.4999	0.	129.19
4268	8.9999	-7.2499	0.	129.58
4269	8.9999	-8.25	0.	127.46
4270	9.25	-8.	0.	128.39
4271	8.9999	-8.75	0.	126.99
4272	9.25	-8.5	0.	127.82
4273	8.7499	-9.	0.	126.09
4274	8.9999	-9.25	0.	126.74
4275	9.25	-9.	0.	127.45
4276	8.2497	-8.9999	0.	124.63
4277	8.4998	-9.25	0.	125.34
4278	7.7494	-8.9998	0.	123.29
4279	7.9996	-9.2499	0.	123.95
4280	7.2489	-8.9996	0.	122.37
4281	7.4994	-9.2498	0.	122.84
4282	6.7482	-8.9992	0.	122.06
4283	6.9989	-9.2495	0.	122.23
4284	6.2471	-8.9981	0.	122.43
4285	6.4982	-9.249	0.	122.26
4286	6.4975	-8.7487	0.	121.79
4287	5.7459	-8.9965	0.	123.3
4288	5.9972	-9.2479	0.	122.87
4289	5.9961	-8.7472	0.	122.61
4290	5.2448	-8.9936	0.	124.42
4291	5.4964	-9.2465	0.	123.84
4292	4.7439	-8.99	0.	125.53
4293	4.9956	-9.2436	0.	124.94
4294	4.2434	-8.9867	0.	126.47
4295	4.4951	-9.2413	0.	125.96
4296	3.995	-9.2389	0.	126.79
4297	3.7434	-8.9848	0.	127.16
4298	2.7462	-8.9886	0.	127.62
4299	2.9964	-9.2403	0.	127.59
4300	3.2443	-8.9855	0.	127.56
4301	2.2489	-8.9942	0.	127.37
4302	2.4982	-9.2433	0.	127.53
4303	1.7524	-9.0022	0.	126.89
4304	2.0008	-9.2484	0.	127.2
4305	1.2557	-9.0107	0.	126.38
4306	1.5035	-9.2549	0.	126.72
4307	0.75834	-9.016	0.	126.03
4308	1.0055	-9.2607	0.	126.26
4309	0.25951	-9.0136	0.	125.88
4310	0.50655	-9.2624	0.	125.89
4311	-0.24008	-9.002	0.	125.11
4312	6.5171e-003	-9.257	0.	125.37
4313	-0.73991	-8.9933	0.	121.98
4314	-0.49298	-9.2464	0.	123.63
4315	-1.2417	-8.9946	0.	118.22
4316	-0.99303	-9.2447	0.	119.93
4317	-0.98638	-8.7403	0.	120.21
4318	-1.7449	-8.998	0.	119.1
4319	-1.4933	-8.747	0.	113.35
4320	-1.495	-9.2473	0.	118.19
4321	-2.2473	-9.	0.	124.51
4322	-1.9968	-8.7495	0.	121.76
4323	-1.997	-9.2493	0.	121.71
4324	-2.7488	-9.0013	0.	129.
4325	-2.4984	-9.2505	0.	127.
4326	-3.2496	-9.0026	0.	130.57
4327	-2.9993	-9.2514	0.	129.99
4328	-3.75	-9.0036	0.	130.92
4329	-3.4998	-9.2524	0.	131.19
4330	-4.2502	-9.0035	0.	131.17
4331	-4.0001	-9.2528	0.	131.79
4332	4.7216	-4.1949	0.	130.82
4333	4.9147	-4.4472	0.	132.25
4334	4.6715	-4.6946	0.	134.27
4335	-2.674	5.924	0.	135.38
4336	-2.8372	5.6307	0.	129.56
4337	-0.4553	5.9524	0.	137.76
4338	-0.74791	6.1896	0.	133.76
4339	-0.5234	6.4167	0.	138.58
4340	7.2423	5.0503	0.	116.67
4341	6.6983	3.1758	0.	121.2
4342	6.452	3.4105	0.	124.41
4343	6.4414	2.9437	0.	121.61
4344	-7.2256	-1.2486	0.	130.61
4345	-7.0053	-1.5073	0.	126.84
4346	-8.7013	-1.2966	0.	134.8
4347	-8.8823	-1.5787	0.	134.18
4348	-9.1928	-1.4436	0.	136.48
4349	-8.3009	8.6573	0.	132.96
4350	-8.5153	8.416	0.	135.92
4351	-7.8211	8.6818	0.	108.66
4352	-7.3181	8.6542	0.	119.76
4353	-6.8107	8.5837	0.	136.14
4354	-6.8162	7.7734	0.	128.48
4355	-6.5979	8.264	0.	127.94
4356	-7.1051	7.2994	0.	127.62
4357	-7.1449	6.7757	0.	117.66
4358	-8.4464	8.001	0.	132.53
4359	-8.2114	-1.2239	0.	112.48
4360	-8.4695	-1.029	0.	124.89
4361	-7.7134	-1.2202	0.	110.63
4362	-7.4703	-1.0098	0.	120.98
4363	-7.9685	-1.0011	0.	102.73
4364	-7.0944	-2.0004	0.	124.77
4365	-7.3162	-2.4873	0.	130.1
4366	-7.5031	-2.9662	0.	121.83
4367	-8.736	-2.0116	0.	130.49
4368	7.7201	3.3113	0.	119.7
4369	7.982	3.1019	0.	129.99
4370	8.2171	3.3491	0.	136.39
4371	7.2125	3.2227	0.	109.13
4372	6.493	3.8891	0.	122.84
4373	6.2738	4.134	0.	122.
4374	8.1057	4.7059	0.	134.16
4375	7.977	4.5269	0.	131.09
4376	7.7612	4.9885	0.	121.92
4377	7.9027	4.795	0.	129.93
4378	7.6324	4.8094	0.	118.98
4379	-0.65273	4.9292	0.	133.48
4380	-0.51393	4.6149	0.	125.72
4381	-0.80929	4.4208	0.	131.15
4382	-0.47644	5.4463	0.	134.48
4383	-0.33247	5.1009	0.	140.63
4384	-0.13156	5.5972	0.	129.68
4385	-2.1967	6.0191	0.	122.81
4386	-2.4812	6.2463	0.	130.76
4387	-1.706	6.0948	0.	110.28
4388	-1.2155	6.1584	0.	115.2
4389	-2.3649	4.754	0.	132.22
4390	-2.6404	5.1752	0.	132.1
4391	-2.7548	4.9023	0.	135.91
4392	4.9857	-3.2299	0.	134.65
4393	5.0519	-2.7495	0.	126.53
4394	4.7792	-2.9848	0.	131.91
4395	4.8254	-3.7044	0.	131.52
4396	6.2625	-3.2114	0.	122.93
4397	6.1048	-2.7319	0.	112.93
4398	6.3662	-2.9409	0.	118.1
4399	6.4376	-3.6986	0.	119.56
4400	6.5152	-4.2134	0.	118.66
4401	5.3694	-4.4524	0.	114.4
4402	5.581	-4.7128	0.	110.94
4403	5.832	-4.4617	0.	109.35
4404	-4.5005	-8.7548	0.	131.25
4405	-4.5002	-9.2521	0.	131.92
4406	-4.5011	-8.2608	0.	131.66
4407	-6.4968	-8.7626	0.	125.84
4408	-6.4987	-9.2552	0.	126.71
4409	-6.491	-8.2811	0.	124.55
4410	-6.7346	-8.0337	0.	122.75
4411	-1.5041	-0.24943	0.	132.75
4412	-1.2533	-0.49958	0.	129.29
4413	-1.5013	-0.74996	0.	136.48
4414	-2.2475	-2.5005	0.	118.05
4415	-1.7467	-2.5015	0.	130.08
4416	-2.7502	-2.4953	0.	117.51
4417	-3.2539	-2.48	0.	128.02
4418	-2.2561	0.50141	0.	116.74
4419	-2.7522	0.50088	0.	117.81
4420	-2.5052	0.75238	0.	115.37
4421	-3.5013	-1.732	0.	132.62
4422	-3.7539	-1.9653	0.	130.81
4423	-3.5041	-2.2239	0.	131.94
4424	-3.4995	-1.2375	0.	134.78
4425	-3.4981	-0.74119	0.	135.03
4426	-3.7482	-0.98215	0.	133.04
4427	-3.4973	-0.24388	0.	133.45
4428	-3.7464	-0.48742	0.	132.42
4429	-1.7452	-8.4986	0.	115.9
4430	-1.2379	-8.4927	0.	115.22
4431	-1.22	-5.5051	0.	112.91
4432	-0.95084	-5.2636	0.	118.73
4433	-0.70241	-5.5113	0.	124.66
4434	-1.7273	-5.5021	0.	112.79
4435	-1.4656	-5.2538	0.	110.97
4436	0.48898	-2.6922	0.	128.6
4437	0.61245	-3.1559	0.	125.87
4438	0.4847	-2.2179	0.	131.76
4439	0.48964	-1.7316	0.	131.8
4440	0.49254	-1.2391	0.	129.89
4441	0.74072	-0.98959	0.	128.57
4442	-0.13126	-3.4841	0.	117.34
4443	0.43616	-3.4225	0.	124.24
4444	-0.67075	-3.5121	0.	115.63
4445	-0.36489	-3.7792	0.	118.25
4446	-0.2577	-0.49792	0.	115.21
4447	-0.75525	-0.49897	0.	116.51
4448	-1.4919	-2.7535	0.	133.34
4449	-1.4982	-2.2511	0.	136.59
4450	-1.4997	-1.7503	0.	137.98
4451	-1.5002	-1.2501	0.	137.96
4452	7.5027	-1.7411	0.	131.82
4453	7.5	-1.2458	0.	133.45
4454	7.4985	-0.74827	0.	133.41
4455	7.4957	-0.24994	0.	132.64
4456	4.4962	-1.7435	0.	135.05
4457	4.4972	-1.2465	0.	136.05
4458	4.2439	-1.4927	0.	133.9
4459	4.4981	-0.74916	0.	136.42
4460	4.2462	-0.99654	0.	134.65
4461	4.498	-0.2524	0.	135.52
4462	4.2463	-4.3057e-003	0.	134.18
4463	4.2472	-0.50018	0.	134.08
4464	-5.7361	-7.6018	0.	116.62
4465	-5.2511	-7.5672	0.	117.89
4466	-6.4882	5.7482	0.	129.5
4467	-6.4892	4.2442	0.	125.02
4468	-6.4981	3.7456	0.	119.55
4469	-6.4729	4.7429	0.	128.81
4470	-6.4685	5.2427	0.	129.73
4471	-6.2064	5.4847	0.	128.38
4472	-7.75	3.5015	0.	117.96
4473	-7.4999	3.2523	0.	116.8
4474	-7.25	3.5005	0.	116.95
4475	-7.7584	6.4279	0.	109.36
4476	-7.3061	6.472	0.	109.66
4477	-8.4999	4.2496	0.	131.53
4478	-8.4993	4.7473	0.	132.9
4479	-8.4918	5.7327	0.	130.3
4480	-8.4976	5.2428	0.	132.47
4481	-0.46027	-7.6533	0.	129.57
4482	-0.25865	-7.3068	0.	127.67
4483	-0.5066	-7.1479	0.	133.4
4484	-2.4995	-7.7538	0.	132.43
4485	-2.4986	-7.256	0.	134.43
4486	-2.4921	-6.2603	0.	131.02
4487	-2.4963	-6.7585	0.	134.05
4488	-2.7473	-7.011	0.	133.01
4489	6.7817	-2.4631	0.	119.36
4490	6.2954	-2.4746	0.	110.46
4491	6.5568	-2.6836	0.	115.86
4492	5.8023	-2.4996	0.	104.97
4493	5.2917	-2.5068	0.	113.33
4494	6.7276	0.42395	0.	109.92
4495	6.9242	0.66899	0.	118.77
4496	6.2498	0.38122	0.	101.72
4497	6.4448	0.58726	0.	99.48
4498	5.778	0.43033	0.	113.48
4499	5.9924	0.52778	0.	102.11
4500	5.2723	0.49091	0.	126.3
4501	5.7546	0.59196	0.	111.59
4502	5.4948	0.73357	0.	122.44
4503	4.9923	0.72923	0.	128.35
4504	6.4996	7.7506	0.	132.49
4505	6.4975	6.2645	0.	131.52
4506	6.4983	6.7557	0.	133.71
4507	6.7473	6.5077	0.	129.3
4508	6.4991	7.2521	0.	133.97
4509	5.7471	5.5258	0.	121.8
4510	5.2424	5.5149	0.	115.31
4511	4.2148	5.5036	0.	121.14
4512	4.7332	5.507	0.	115.06
4513	4.4756	5.2565	0.	116.44
4514	4.9896	5.2641	0.	115.2
4515	4.2481	8.5003	0.	122.91
4516	5.7498	8.5	0.	121.51
4517	5.2496	8.5	0.	116.76
4518	4.7492	8.5001	0.	117.12
4519	3.4569	6.2594	0.	135.02
4520	3.474	6.7588	0.	137.06
4521	3.2046	6.5237	0.	134.12
4522	3.4895	7.754	0.	135.08
4523	3.4834	7.2563	0.	137.29
4524	8.4996	-5.749	0.	132.33
4525	8.4986	-5.2477	0.	132.7
4526	7.75	-6.4999	0.	121.92
4527	7.9999	-6.7499	0.	125.8
4528	7.2502	-6.4999	0.	116.8
4529	7.4999	-6.7499	0.	118.27
4530	6.2525	-6.4984	0.	118.26
4531	6.7508	-6.4995	0.	115.6
4532	6.5005	-6.7491	0.	116.13
4533	7.7413	-4.4859	0.	122.28
4534	7.245	-4.4775	0.	118.44
4535	6.761	-4.4749	0.	122.77
4536	5.5302	-5.7349	0.	124.03
4537	5.5499	-5.2266	0.	120.42
4538	-5.9862	-4.4897	0.	125.48
4539	-6.4535	-4.3995	0.	114.2
4540	-6.9284	-4.3036	0.	112.47
4541	-7.4008	-4.2112	0.	114.72
4542	-7.1373	-4.0254	0.	112.31
4543	-7.7125	-6.2868	0.	129.54
4544	-7.8474	-5.8213	0.	130.18
4545	-7.9653	-5.3397	0.	135.88
4546	-8.0597	-4.8521	0.	133.68
4547	-5.5192	-5.3115	0.	132.44
4548	-5.1887	-5.1251	0.	125.39
4549	-5.768	-5.7617	0.	132.99
4550	-6.4956	-6.53	0.	118.75
4551	-6.1193	-6.1777	0.	121.54
4552	-6.0942	-6.3983	0.	121.66
4553	-5.8876	-6.2089	0.	123.84
4554	-6.2444	1.5199	0.	118.21
4555	-6.7454	1.523	0.	115.73
4556	-6.4923	1.2826	0.	114.99
4557	-7.4995	2.2613	0.	124.5
4558	-7.4997	2.7554	0.	122.
4559	-6.7501	3.4981	0.	118.67
4560	-6.2508	3.493	0.	121.07
4561	-5.5018	2.7418	0.	132.77
4562	-5.4995	2.2496	0.	132.22
4563	1.8382	5.1368	0.	135.58
4564	1.681	5.3242	0.	131.11
4565	1.8482	4.6821	0.	131.39
4566	-0.19367	4.7866	0.	132.75
4567	1.2407e-002	5.2517	0.	135.52
4568	1.2546	3.9332	0.	121.89
4569	1.5107	3.6931	0.	131.39
4570	0.76964	3.9435	0.	109.9
4571	0.29193	3.9701	0.	125.66
4572	-0.39942	-4.8072	0.	127.88
4573	-0.67537	-5.0325	0.	122.53
4574	-0.42694	-5.2802	0.	128.54
4575	1.1381	-6.0041	0.	128.51
4576	0.68812	-6.1455	0.	114.83
4577	0.22534	-6.2876	0.	115.14
4578	-0.25828	-6.3972	0.	131.16
4579	0.40759	-4.3734	0.	112.35
4580	-7.4002e-002	-4.1701	0.	117.61
4581	1.253	-4.7872	0.	133.35
4582	1.6556	-4.9166	0.	134.83
4583	0.84767	-4.5724	0.	122.97
4584	1.1635	-4.498	0.	131.44
4585	7.1505	0.96536	0.	126.14
4586	7.5243	1.2672	0.	127.86
4587	6.6414	0.8323	0.	108.38
4588	6.1875	0.73382	0.	99.386
4589	5.4598	1.1978	0.	123.5
4590	5.2148	0.9719	0.	124.7
4591	5.5018	1.6391	0.	124.52
4592	5.2295	1.4368	0.	123.57
4593	5.5778	2.0641	0.	127.48
4594	8.7499	-9.5	0.	125.98
4595	9.25	-9.5	0.	127.24
4596	8.2498	-9.4999	0.	124.66
4597	7.7496	-9.4999	0.	123.5
4598	7.2493	-9.4997	0.	122.7
4599	6.7489	-9.4994	0.	122.43
4600	6.2483	-9.4988	0.	122.7
4601	5.7477	-9.4979	0.	123.41
4602	5.2472	-9.4964	0.	124.37
4603	4.7468	-9.4949	0.	125.38
4604	4.2467	-9.4935	0.	126.28
4605	3.7469	-9.4929	0.	126.96
4606	3.2475	-9.4936	0.	127.37
4607	3.4954	-9.2388	0.	127.34
4608	2.7484	-9.495	0.	127.49
4609	2.2501	-9.4975	0.	127.35
4610	1.752	-9.5011	0.	127.02
4611	1.2533	-9.5049	0.	126.6
4612	0.7537	-9.5071	0.	126.12
4613	0.25355	-9.5059	0.	125.38
4614	-0.24638	-9.5015	0.	123.89
4615	-0.74609	-9.4978	0.	121.58
4616	-1.2462	-9.4974	0.	119.88
4617	-1.7471	-9.4986	0.	120.78
4618	-2.2481	-9.4998	0.	124.2
4619	-2.7489	-9.5006	0.	127.99
4620	-3.2494	-9.5013	0.	130.62
4621	-3.7498	-9.5016	0.	132.06
4622	-4.2501	-9.5014	0.	132.56
4623	-4.7501	-9.5008	0.	127.35
4624	-5.25	-9.5002	0.	115.81
4625	-5.7497	-9.5005	0.	113.98
4626	-6.2493	-9.5019	0.	122.86
4627	-6.7491	-9.5028	0.	126.9
4628	-7.2491	-9.5018	0.	126.37
4629	-7.749	-9.5005	0.	126.27
4630	-8.249	-9.5002	0.	126.78
4631	-8.7493	-9.5003	0.	127.65
4632	-9.2497	-9.5004	0.	128.66
4633	-9.4999	-9.2507	0.	129.21
4634	-9.5002	-8.7518	0.	129.32
4635	-9.5016	-8.254	0.	129.48
4636	-9.5044	-7.7574	0.	129.59
4637	-9.504	-6.7649	0.	129.
4638	-9.5071	-7.261	0.	129.48
4639	-9.4917	-6.2704	0.	128.2
4640	-9.2528	-6.5302	0.	129.21
4641	-9.4841	-5.7766	0.	127.37
4642	-9.4908	-5.281	0.	127.09
4643	-9.5029	-4.782	0.	127.94
4644	-9.5119	-4.28	0.	129.73
4645	-9.5149	-3.7771	0.	131.57
4646	-9.5139	-3.2741	0.	132.66
4647	-9.517	-2.7726	0.	132.53
4648	-9.5414	-2.279	0.	130.53
4649	-9.5029	-1.7825	0.	128.7
4650	-9.4637	-1.2546	0.	131.09
4651	-9.4892	-0.72525	0.	132.68
4652	-9.4969	-0.22298	0.	130.94
4653	-9.4993	0.27183	0.	129.59
4654	-9.5001	0.76568	0.	128.7
4655	-9.5004	1.2605	0.	128.11
4656	-9.5004	1.7566	0.	127.76
4657	-9.5004	2.2541	0.	127.74
4658	-9.2504	2.0077	0.	126.89
4659	-9.5003	2.7525	0.	128.08
4660	-9.2504	2.5045	0.	127.2
4661	-9.5002	3.2514	0.	128.55
4662	-9.2503	3.0024	0.	128.21
4663	-9.5001	3.7506	0.	128.73
4664	-9.5	4.25	0.	128.66
4665	-9.4997	4.7493	0.	128.68
4666	-9.4985	5.248	0.	128.96
4667	-9.4944	5.7457	0.	129.51
4668	-9.4847	6.2423	0.	130.12
4669	-9.4696	6.7384	0.	130.09
4670	-9.2184	6.4816	0.	131.2
4671	-9.4552	7.2362	0.	128.73
4672	-9.4511	7.7392	0.	126.43
4673	-9.4701	8.2474	0.	125.29
4674	-9.4958	8.7556	0.	125.75
4675	-9.5048	9.2577	0.	125.83
4676	-9.2583	9.5131	0.	126.13
4677	-8.7634	9.5282	0.	126.
4678	-8.2662	9.5431	0.	123.16
4679	-7.766	9.5486	0.	120.31
4680	-7.2639	9.5422	0.	122.04
4681	-6.7617	9.5277	0.	125.77
4682	-6.26	9.5134	0.	127.35
4683	-5.7584	9.5049	0.	127.16
4684	-5.2564	9.5022	0.	126.73
4685	-4.7541	9.5034	0.	126.53
4686	-4.2523	9.5069	0.	126.37
4687	-3.7506	9.5109	0.	126.13
4688	-3.2496	9.5131	0.	125.8
4689	-2.7493	9.5117	0.	125.41
4690	-2.2498	9.5092	0.	125.05
4691	-1.7509	9.5091	0.	124.8
4692	-1.2518	9.5108	0.	124.74
4693	-0.75244	9.513	0.	124.85
4694	-0.25276	9.5144	0.	125.1
4695	0.24715	9.5146	0.	125.44
4696	0.74729	9.5136	0.	125.82
4697	1.2476	9.5115	0.	126.24
4698	1.748	9.5087	0.	126.65
4699	2.2483	9.5058	0.	127.01
4700	2.7485	9.5033	0.	127.16
4701	3.2487	9.5016	0.	126.74
4702	3.749	9.5006	0.	125.34
4703	4.2493	9.5002	0.	123.19
4704	4.7495	9.5	0.	121.4
4705	5.2497	9.5	0.	121.11
4706	5.7499	9.5	0.	122.4
4707	6.2499	9.5	0.	124.19
4708	6.75	9.4998	0.	125.39
4709	7.25	9.4997	0.	125.76
4710	7.75	9.4995	0.	125.67
4711	8.25	9.4994	0.	125.47
4712	8.7499	9.4994	0.	125.26
4713	9.2499	9.4995	0.	125.04
4714	9.4999	9.2494	0.	124.76
4715	9.4997	8.7489	0.	124.48
4716	9.4995	8.2481	0.	124.32
4717	9.499	7.7473	0.	124.38
4718	9.4983	7.2465	0.	124.76
4719	9.4983	6.7475	0.	125.52
4720	9.4992	6.2504	0.	126.56
4721	9.5023	5.7553	0.	127.67
4722	9.5097	5.2641	0.	128.4
4723	9.518	4.7756	0.	128.47
4724	9.5129	4.284	0.	128.36
4725	9.4645	3.7736	0.	129.26
4726	9.4561	3.2443	0.	130.93
4727	9.4975	2.7267	0.	131.81
4728	9.5112	2.2277	0.	131.69
4729	9.5146	1.7321	0.	131.23
4730	9.5112	1.2367	0.	130.82
4731	9.5058	0.74122	0.	130.54
4732	9.5022	0.24514	0.	130.24
4733	9.2538	0.49154	0.	130.53
4734	9.5003	-0.25209	0.	129.86
4735	9.4997	-0.75027	0.	129.53
4736	9.4999	-1.2492	0.	129.44
4737	9.2495	-0.99903	0.	129.47
4738	9.5002	-1.7487	0.	129.65
4739	9.5003	-2.2485	0.	130.04
4740	9.4998	-2.7485	0.	130.46
4741	9.4988	-3.2485	0.	130.79
4742	9.4981	-3.7484	0.	130.93
4743	9.498	-4.2485	0.	130.7
4744	9.4985	-4.7486	0.	129.93
4745	9.4991	-5.2489	0.	129.05
4746	9.4996	-5.7493	0.	128.85
4747	9.4998	-6.2496	0.	129.36
4748	9.4999	-6.7498	0.	129.82
4749	9.5	-7.2499	0.	129.73
4750	9.2499	-6.9998	0.	130.12
4751	9.5	-7.7499	0.	129.28
4752	9.5	-8.25	0.	128.75
4753	9.5	-8.75	0.	128.29
4754	9.5	-9.25	0.	127.96
4755	6.4567	2.5057	0.	111.52
4756	7.1377	1.9445	0.	123.96
4757	7.453	1.6126	0.	120.7
4758	6.7325	2.2259	0.	118.68
4759	-1.5249	1.2623	0.	123.71
4760	-1.2842	1.5169	0.	123.42
4761	3.2215	1.9241	0.	130.14
4762	3.481	2.1198	0.	129.76
4763	-2.5062	1.2563	0.	120.29
4764	-2.5036	1.7622	0.	122.29
4765	4.2158	-2.9659	0.	134.73
4766	3.9174	-3.2005	0.	132.74
4767	3.9601	-2.7165	0.	135.03
4768	3.6861	-2.9564	0.	133.61
4769	3.9952	-0.74756	0.	132.32
4770	3.9955	-0.25209	0.	132.72
4771	-9.0003	2.7544	0.	127.33
4772	2.4517	7.292	0.	128.91
4773	2.4298	6.8179	0.	129.89
4774	-5.98	-2.9353	0.	125.02
4775	5.0268	4.2447	0.	117.84
4776	5.2958	4.0552	0.	118.28
4777	2.2077	7.5428	0.	127.61
4778	-0.26995	7.5805	0.	124.84
4779	0.21837	7.5762	0.	125.01
4780	-4.246	8.5249	0.	125.96
4781	1.9775	1.7282	0.	128.85
4782	2.2345	1.968	0.	129.53
4783	-4.7677	3.9645	0.	129.64
4784	3.9929	-1.2427	0.	132.5
4785	3.7379	-1.4883	0.	131.98
4786	-6.0209	-2.5158	0.	124.09
4787	-4.2414	-5.6064	0.	126.95
4788	-4.489	-5.8551	0.	127.3
4789	8.0763	1.6875	0.	125.62
4790	4.424	-4.9351	0.	129.87
4791	2.6797	6.5611	0.	131.36
4792	4.9845	1.2109	0.	124.43
4793	-5.1899	6.9585	0.	128.68
4794	-5.4967	6.7342	0.	129.31
4795	-5.4905	7.2356	0.	128.25
4796	-8.589	-2.4326	0.	134.87
4797	-8.5316	-2.8705	0.	130.73
4798	-3.257	4.781	0.	128.38
4799	-3.8028	4.729	0.	127.12
4800	-3.5575	4.5027	0.	128.22
4801	-6.2405	-0.8494	0.	127.12
4802	-6.4848	-0.60231	0.	127.16
4803	-5.769	6.4908	0.	130.4
4804	1.2967	-4.0903	0.	131.68
4805	0.72991	-7.0961	0.	120.11
4806	0.23312	-7.1766	0.	121.37
4807	3.1702	-2.9534	0.	132.47
4808	-0.35461	-4.3087	0.	126.98
4809	6.4991	-7.249	0.	118.46
4810	6.2476	-7.4978	0.	120.51
4811	6.2465	-8.4977	0.	121.97
4812	-4.0078	-2.1931	0.	130.69
4813	-5.1413	5.4851	0.	126.79
4814	-7.9943	0.81018	0.	122.44
4815	-4.988	0.28593	0.	129.73
4816	4.222	4.5114	0.	121.44
4817	-8.2852	-3.1142	0.	120.97
4818	-7.7872	-3.171	0.	115.75
4819	-0.5164	7.3437	0.	125.35
4820	-0.52076	6.8727	0.	128.75
4821	4.5816	2.2325	0.	126.94
4822	5.2599	4.5441	0.	117.34
4823	4.7452	4.5148	0.	118.04
4824	4.9974	4.7675	0.	116.04
4825	-5.7359	-0.40529	0.	126.6
4826	2.734	1.9472	0.	130.28
4827	-2.4586	6.7592	0.	125.9
4828	-2.6627	6.7047	0.	128.13
4829	2.4282	-6.6911	0.	130.56
4830	2.7029	-6.935	0.	129.79
4831	2.461	-7.2044	0.	129.62
4832	-5.6718	5.4692	0.	127.09
4833	1.7986	3.4634	0.	131.84
4834	2.3644	3.5002	0.	134.39
4835	3.7381	0.98625	0.	131.28
4836	3.4887	0.73455	0.	131.43
4837	4.7395	-7.4762	0.	126.65
4838	1.4343	7.3269	0.	124.89
4839	1.2005	7.5678	0.	124.74
4840	1.7007	7.5594	0.	125.85
4841	2.5848	-3.9305	0.	132.56
4842	2.8237	-4.1735	0.	131.49
4843	-5.9835	-0.15543	0.	125.99
4844	-5.9835	0.31975	0.	125.17
4845	-3.5093	-2.7165	0.	130.97
4846	5.5289	4.3546	0.	117.77
4847	-2.459	7.2581	0.	124.26
4848	-2.599	6.9513	0.	126.17
4849	5.7459	-7.4946	0.	123.06
4850	5.2434	-7.4878	0.	125.28
4851	5.4976	-7.2416	0.	124.96
4852	-5.015	4.2203	0.	128.77
4853	-5.1698	4.6902	0.	127.09
4854	-3.9965	-0.72838	0.	130.44
4855	-3.7509	2.9592	0.	128.77
4856	-3.4951	2.719	0.	127.95
4857	-3.003	-4.263	0.	126.
4858	-2.7315	-4.5124	0.	125.05
4859	-3.2369	-4.5383	0.	126.77
4860	-2.2195	-4.5034	0.	122.62
4861	-1.7017	-4.5044	0.	120.53
4862	3.2406	-5.0203e-003	0.	130.85
4863	3.7438	-4.6571e-003	0.	132.32
4864	3.4913	0.24177	0.	131.55
4865	-5.2564	3.9671	0.	129.4
4866	-4.9898	0.77445	0.	131.06
4867	-4.742	1.0145	0.	131.8
4868	-5.989	-0.62816	0.	126.12
4869	-6.0018	-1.1004	0.	125.13
4870	-3.7451	1.9895	0.	128.27
4871	-3.4936	2.2344	0.	127.46
4872	-4.4986	2.2378	0.	129.89
4873	-3.9957	1.7431	0.	129.69
4874	-4.2465	1.9909	0.	129.68
4875	-1.1965	-5.0123	0.	116.68
4876	-1.4486	-4.7566	0.	117.31
4877	-2.2601	7.5225	0.	123.11
4878	7.8461	1.4729	0.	123.16
4879	1.3197	-3.6449	0.	129.68
4880	1.5851	-3.4243	0.	130.21
4881	1.023	-3.4013	0.	127.11
4882	7.4997	-7.2499	0.	120.05
4883	2.9891	-0.25154	0.	130.08
4884	-9.0004	2.2581	0.	126.36
4885	1.6274	5.1138	0.	134.58
4886	-5.024	-4.2136	0.	134.82
4887	-4.7084	-4.0525	0.	133.12
4888	2.6851	3.9976	0.	131.53
4889	2.5541	3.7652	0.	132.96
4890	3.2252	-7.4408	0.	128.74
4891	2.9651	-7.1836	0.	129.21
4892	2.7232	-7.453	0.	129.03
4893	-8.3519	7.5824	0.	136.87
4894	-4.7472	-0.93999	0.	127.44
4895	-4.5009	-1.1956	0.	127.97
4896	-7.2925	-3.2772	0.	118.71
4897	-7.0775	-3.5688	0.	116.95
4898	-6.2333	-0.38107	0.	126.16
4899	-5.7296	-2.7442	0.	125.9
4900	3.4823	-5.388	0.	128.46
4901	3.0269	-5.3958	0.	128.3
4902	4.4798	4.7609	0.	118.57
4903	4.7321	5.0136	0.	116.54
4904	-2.7549	-4.0044	0.	125.09
4905	-2.4833	-4.2538	0.	124.14
4906	2.6631	-6.4206	0.	130.15
4907	2.3792	-6.1809	0.	130.21
4908	3.4731	-7.1709	0.	128.52
4909	3.213	-6.9137	0.	128.98
4910	3.4679	-6.6204	0.	128.39
4911	-3.758	-2.4516	0.	131.84
4912	7.7499	-6.9999	0.	122.14
4913	-5.3626	5.1857	0.	126.7
4914	3.5565	2.5422	0.	129.39
4915	-2.4746	-4.7574	0.	124.29
4916	-4.74	0.52381	0.	130.95
4917	-3.2995	-4.0105	0.	127.03
4918	-3.5333	-4.2858	0.	127.8
4919	1.4072	6.8516	0.	124.42
4920	-1.4407	-4.2582	0.	121.86
4921	-8.7767	-6.5662	0.	130.24
4922	2.7849	3.7603	0.	131.83
4923	2.9378	-6.6645	0.	129.38
4924	-4.2477	-0.96377	0.	129.26
4925	3.1927	-6.3711	0.	128.8
4926	2.2251	-7.4723	0.	128.63
4927	5.7841	4.137	0.	117.55
4928	0.7074	7.5711	0.	124.57
4929	-4.4922	0.76384	0.	131.7
4930	6.2933	-4.4727	0.	121.03
4931	-7.4782	-0.56734	0.	118.25
4932	-7.7324	-0.3461	0.	116.63
4933	-7.7255	-0.79063	0.	112.74
4934	-7.9796	-0.56939	0.	111.31
4935	-8.2362	-0.36176	0.	117.91
4936	-8.2266	-0.80622	0.	114.24
4937	-8.4832	-0.59859	0.	121.06
4938	-1.2575	3.1074	0.	122.92
4939	2.4066	6.3559	0.	131.21
4940	-0.45548	-5.7447	0.	131.82
4941	-0.48791	-6.207	0.	136.02
4942	-0.50853	-6.6727	0.	137.21
4943	-6.	3.	0.	100.47
4944	-7.	3.	0.	94.016
4945	-6.	2.	0.	98.583
4946	-7.	2.	0.	95.841
4947	-6.5	3.	0.	113.8
4948	-6.	2.5	0.	104.4
4949	-7.	2.5	0.	100.28
4950	-6.5	2.	0.	112.51
4951	-6.5	2.5	0.	110.24
4952	-6.25	3.	0.	107.11
4953	-6.	2.75	0.	102.43
4954	-6.75	3.	0.	103.88
4955	-7.	2.75	0.	97.111
4956	-6.	2.25	0.	101.48
4957	-6.25	2.	0.	105.51
4958	-7.	2.25	0.	98.043
4959	-6.75	2.	0.	104.17
4960	-6.5	2.75	0.	111.98
4961	-6.25	2.5	0.	107.3
4962	-6.75	2.5	0.	105.22
4963	-6.5	2.25	0.	111.32
4964	-7.	6.	0.	93.369
4965	-8.	6.	0.	92.338
4966	-7.	4.	0.	92.33
4967	-8.	4.	0.	96.391
4968	-7.5	6.	0.	105.24
4969	-7.	5.5	0.	96.809
4970	-7.	5.	0.	95.863
4971	-7.	4.5	0.	97.101
4972	-8.	5.5	0.	97.258
4973	-8.	5.	0.	97.171
4974	-8.	4.5	0.	99.083
4975	-7.5	4.	0.	109.3
4976	-7.5	5.5	0.	100.96
4977	-7.5	5.	0.	99.636
4978	-7.5	4.5	0.	102.54
4979	-7.25	6.	0.	99.278
4980	-7.	5.75	0.	95.087
4981	-7.75	6.	0.	98.759
4982	-8.	5.75	0.	94.795
4983	-7.	4.25	0.	94.702
4984	-7.25	4.	0.	100.74
4985	-8.	4.25	0.	97.735
4986	-7.75	4.	0.	102.77
4987	-7.5	5.75	0.	103.07
4988	-7.	5.25	0.	96.294
4989	-7.25	5.5	0.	98.852
4990	-7.	4.75	0.	96.431
4991	-7.25	5.	0.	97.747
4992	-7.25	4.5	0.	99.758
4993	-8.	5.25	0.	97.187
4994	-7.75	5.5	0.	99.087
4995	-8.	4.75	0.	98.095
4996	-7.75	5.	0.	98.401
4997	-7.75	4.5	0.	100.74
4998	-7.5	4.25	0.	105.87
4999	-7.5	5.25	0.	100.3
5000	-7.5	4.75	0.	101.08
5001	-2.	0.	0.	97.158
5002	-3.	0.	0.	97.453
5003	-2.	-2.	0.	97.746
5004	-3.	-2.	0.	96.654
5005	-2.5	0.	0.	111.47
5006	-2.	-0.5	0.	101.75
5007	-2.	-1.	0.	100.72
5008	-2.	-1.5	0.	101.64
5009	-3.	-0.5	0.	101.41
5010	-3.	-1.	0.	99.999
5011	-3.	-1.5	0.	100.7
5012	-2.5	-2.	0.	111.06
5013	-2.5	-0.5	0.	106.22
5014	-2.5	-1.	0.	103.62
5015	-2.5	-1.5	0.	105.39
5016	-2.25	0.	0.	104.28
5017	-2.	-0.25	0.	99.45
5018	-2.75	0.	0.	104.42
5019	-3.	-0.25	0.	99.429
5020	-2.	-1.75	0.	99.69
5021	-2.25	-2.	0.	104.35
5022	-3.	-1.75	0.	98.673
5023	-2.75	-2.	0.	103.8
5024	-2.5	-0.25	0.	108.81
5025	-2.	-0.75	0.	101.2
5026	-2.25	-0.5	0.	103.95
5027	-2.	-1.25	0.	101.13
5028	-2.25	-1.	0.	102.17
5029	-2.25	-1.5	0.	103.46
5030	-3.	-0.75	0.	100.67
5031	-2.75	-0.5	0.	103.77
5032	-3.	-1.25	0.	100.31
5033	-2.75	-1.	0.	101.81
5034	-2.75	-1.5	0.	102.99
5035	-2.5	-1.75	0.	108.18
5036	-2.5	-0.75	0.	104.92
5037	-2.5	-1.25	0.	104.5
5038	-1.	-6.	0.	96.056
5039	-2.	-6.	0.	94.488
5040	-1.	-8.	0.	95.337
5041	-2.	-8.	0.	96.095
5042	-1.5	-6.	0.	108.79
5043	-1.	-6.5	0.	101.47
5044	-1.	-7.	0.	100.09
5045	-1.	-7.5	0.	99.838
5046	-2.	-6.5	0.	99.756
5047	-2.	-7.	0.	99.425
5048	-2.	-7.5	0.	100.54
5049	-1.5	-8.	0.	109.68
5050	-1.5	-6.5	0.	104.74
5051	-1.5	-7.	0.	103.15
5052	-1.5	-7.5	0.	104.9
5053	-1.25	-6.	0.	102.39
5054	-1.	-6.25	0.	98.753
5055	-1.75	-6.	0.	101.6
5056	-2.	-6.25	0.	97.122
5057	-1.	-7.75	0.	97.587
5058	-1.25	-8.	0.	102.47
5059	-2.	-7.75	0.	98.313
5060	-1.75	-8.	0.	102.84
5061	-1.5	-6.25	0.	106.7
5062	-1.	-6.75	0.	100.77
5063	-1.25	-6.5	0.	103.07
5064	-1.	-7.25	0.	99.935
5065	-1.25	-7.	0.	101.62
5066	-1.25	-7.5	0.	102.34
5067	-2.	-6.75	0.	99.542
5068	-1.75	-6.5	0.	102.21
5069	-2.	-7.25	0.	99.936
5070	-1.75	-7.	0.	101.28
5071	-1.75	-7.5	0.	102.68
5072	-1.5	-7.75	0.	107.24
5073	-1.5	-6.75	0.	103.94
5074	-1.5	-7.25	0.	104.02
5075	0.	-1.	0.	94.569
5076	-1.	-1.	0.	96.897
5077	0.	-3.	0.	94.236
5078	-1.	-3.	0.	97.24
5079	-0.5	-1.	0.	109.4
5080	0.	-1.5	0.	98.597
5081	0.	-2.	0.	97.641
5082	0.	-2.5	0.	98.629
5083	-1.	-1.5	0.	100.71
5084	-1.	-2.	0.	99.817
5085	-1.	-2.5	0.	100.94
5086	-0.5	-3.	0.	109.66
5087	-0.5	-1.5	0.	103.65
5088	-0.5	-2.	0.	101.81
5089	-0.5	-2.5	0.	104.33
5090	-0.25	-1.	0.	101.93
5091	0.	-1.25	0.	96.579
5092	-0.75	-1.	0.	103.09
5093	-1.	-1.25	0.	98.799
5094	0.	-2.75	0.	96.424
5095	-0.25	-3.	0.	101.91
5096	-1.	-2.75	0.	99.086
5097	-0.75	-3.	0.	103.4
5098	-0.5	-1.25	0.	106.48
5099	0.	-1.75	0.	98.075
5100	-0.25	-1.5	0.	101.07
5101	0.	-2.25	0.	98.088
5102	-0.25	-2.	0.	99.723
5103	-0.25	-2.5	0.	101.44
5104	-1.	-1.75	0.	100.22
5105	-0.75	-1.5	0.	102.12
5106	-1.	-2.25	0.	100.36
5107	-0.75	-2.	0.	100.81
5108	-0.75	-2.5	0.	102.6
5109	-0.5	-2.75	0.	106.96
5110	-0.5	-1.75	0.	102.73
5111	-0.5	-2.25	0.	103.06
5112	7.	0.	0.	94.432
5113	5.	0.	0.	100.33
5114	7.	-2.	0.	96.389
5115	5.	-2.	0.	96.445
5116	6.5	0.	0.	102.82
5117	6.	0.	0.	102.38
5118	5.5	0.	0.	110.73
5119	7.	-0.5	0.	97.999
5120	7.	-1.	0.	97.613
5121	7.	-1.5	0.	99.551
5122	5.	-0.5	0.	102.18
5123	5.	-1.	0.	99.744
5124	5.	-1.5	0.	100.25
5125	5.5	-2.	0.	105.84
5126	6.	-2.	0.	103.25
5127	6.5	-2.	0.	108.29
5128	6.5	-1.	0.	103.65
5129	6.5	-1.5	0.	105.1
5130	5.5	-1.5	0.	104.95
5131	5.5	-1.	0.	105.17
5132	5.5	-0.5	0.	106.82
5133	6.5	-0.5	0.	103.06
5134	6.	-0.5	0.	106.
5135	6.	-1.5	0.	106.43
5136	6.	-1.	0.	106.45
5137	6.75	0.	0.	98.595
5138	7.	-0.25	0.	96.214
5139	5.25	0.	0.	105.39
5140	5.	-0.25	0.	101.24
5141	7.	-1.75	0.	97.961
5142	6.75	-2.	0.	102.24
5143	5.	-1.75	0.	98.348
5144	5.25	-2.	0.	101.1
5145	6.25	0.	0.	102.57
5146	6.5	-0.25	0.	102.91
5147	5.75	0.	0.	106.55
5148	6.	-0.25	0.	104.17
5149	5.5	-0.25	0.	108.74
5150	7.	-0.75	0.	97.791
5151	6.75	-0.5	0.	100.53
5152	7.	-1.25	0.	98.562
5153	6.75	-1.	0.	100.63
5154	6.75	-1.5	0.	102.3
5155	5.	-0.75	0.	100.94
5156	5.25	-0.5	0.	104.47
5157	5.	-1.25	0.	99.984
5158	5.25	-1.	0.	102.45
5159	5.25	-1.5	0.	102.6
5160	5.75	-2.	0.	104.54
5161	5.5	-1.75	0.	105.36
5162	6.25	-2.	0.	105.77
5163	6.	-1.75	0.	104.83
5164	6.5	-1.75	0.	106.66
5165	6.5	-1.25	0.	104.37
5166	6.5	-0.75	0.	103.35
5167	6.25	-1.	0.	105.04
5168	6.25	-1.5	0.	105.76
5169	5.5	-1.25	0.	105.06
5170	5.75	-1.5	0.	105.69
5171	5.5	-0.75	0.	105.99
5172	5.75	-1.	0.	105.81
5173	5.75	-0.5	0.	106.4
5174	6.25	-0.5	0.	104.53
5175	6.	-0.75	0.	106.22
5176	6.	-1.25	0.	106.44
5177	6.	8.	0.	98.731
5178	4.	8.	0.	99.576
5179	6.	6.	0.	98.428
5180	4.	6.	0.	99.529
5181	5.5	8.	0.	113.72
5182	5.	8.	0.	111.85
5183	4.5	8.	0.	114.54
5184	6.	7.5	0.	102.67
5185	6.	7.	0.	101.32
5186	6.	6.5	0.	102.67
5187	4.	7.5	0.	104.47
5188	4.	7.	0.	102.96
5189	4.	6.5	0.	103.81
5190	4.5	6.	0.	113.2
5191	5.	6.	0.	110.87
5192	5.5	6.	0.	113.25
5193	5.	7.5	0.	114.19
5194	5.5	7.5	0.	111.01
5195	5.5	6.5	0.	110.81
5196	5.	6.5	0.	113.68
5197	4.5	6.5	0.	111.27
5198	4.5	7.5	0.	111.88
5199	4.5	7.	0.	110.87
5200	5.5	7.	0.	110.09
5201	5.	7.	0.	113.73
5202	5.75	8.	0.	106.15
5203	6.	7.75	0.	100.69
5204	4.25	8.	0.	106.97
5205	4.	7.75	0.	102.01
5206	6.	6.25	0.	100.53
5207	5.75	6.	0.	105.75
5208	4.	6.25	0.	101.66
5209	4.25	6.	0.	106.31
5210	5.25	8.	0.	112.78
5211	5.5	7.75	0.	112.34
5212	4.75	8.	0.	113.19
5213	5.	7.75	0.	113.
5214	4.5	7.75	0.	113.17
5215	6.	7.25	0.	101.96
5216	5.75	7.5	0.	106.82
5217	6.	6.75	0.	101.96
5218	5.75	7.	0.	105.7
5219	5.75	6.5	0.	106.73
5220	4.	7.25	0.	103.69
5221	4.25	7.5	0.	108.16
5222	4.	6.75	0.	103.35
5223	4.25	7.	0.	106.91
5224	4.25	6.5	0.	107.53
5225	4.75	6.	0.	112.03
5226	4.5	6.25	0.	112.21
5227	5.25	6.	0.	112.06
5228	5.	6.25	0.	112.26
5229	5.5	6.25	0.	112.
5230	5.25	7.5	0.	112.59
5231	4.75	7.5	0.	113.02
5232	5.	7.25	0.	113.96
5233	5.5	7.25	0.	110.54
5234	5.25	6.5	0.	112.24
5235	5.5	6.75	0.	110.44
5236	4.75	6.5	0.	112.47
5237	5.	6.75	0.	113.71
5238	4.5	6.75	0.	111.06
5239	4.5	7.25	0.	111.37
5240	4.75	7.	0.	112.3
5241	5.25	7.	0.	111.91
5242	8.	-5.	0.	100.52
5243	6.	-5.	0.	91.534
5244	8.	-6.	0.	99.863
5245	6.	-6.	0.	95.138
5246	7.5	-5.	0.	116.82
5247	7.	-5.	0.	115.23
5248	6.5	-5.	0.	114.08
5249	8.	-5.5	0.	105.31
5250	6.	-5.5	0.	98.646
5251	6.5	-6.	0.	112.74
5252	7.	-6.	0.	113.29
5253	7.5	-6.	0.	115.94
5254	6.5	-5.5	0.	111.46
5255	7.	-5.5	0.	117.18
5256	7.5	-5.5	0.	115.18
5257	7.75	-5.	0.	108.63
5258	8.	-5.25	0.	102.9
5259	6.25	-5.	0.	102.78
5260	6.	-5.25	0.	95.043
5261	8.	-5.75	0.	102.57
5262	7.75	-6.	0.	107.86
5263	6.	-5.75	0.	96.854
5264	6.25	-6.	0.	103.89
5265	7.25	-5.	0.	116.03
5266	7.5	-5.25	0.	115.98
5267	6.75	-5.	0.	114.65
5268	7.	-5.25	0.	116.2
5269	6.5	-5.25	0.	112.76
5270	7.75	-5.5	0.	110.23
5271	6.25	-5.5	0.	105.03
5272	6.75	-6.	0.	113.01
5273	6.5	-5.75	0.	112.08
5274	7.25	-6.	0.	114.61
5275	7.	-5.75	0.	115.23
5276	7.5	-5.75	0.	115.54
5277	6.75	-5.5	0.	114.32
5278	7.25	-5.5	0.	116.18
5279	-5.77	-4.99	0.	74.303
5280	-7.72	-4.62	0.	64.258
5281	-7.06	-6.49	0.	103.78
5282	-6.2575	-4.8975	0.	114.9
5283	-6.745	-4.805	0.	108.62
5284	-7.2325	-4.7125	0.	115.02
5285	-6.0925	-5.365	0.	106.36
5286	-6.415	-5.74	0.	103.05
5287	-6.7375	-6.115	0.	95.872
5288	-7.555	-5.0875	0.	103.95
5289	-7.39	-5.555	0.	100.96
5290	-7.225	-6.0225	0.	98.311
5291	-6.6981	-5.5448	0.	102.83
5292	-7.0258	-5.0707	0.	103.32
5293	-6.933	-5.8238	0.	103.29
5294	-7.0371	-5.4717	0.	102.23
5295	-6.5175	-5.2102	0.	107.24
5296	-6.0138	-4.9437	0.	92.35
5297	-5.9313	-5.1775	0.	88.337
5298	-7.4763	-4.6663	0.	89.353
5299	-7.6375	-4.8538	0.	83.899
5300	-6.8987	-6.3025	0.	98.498
5301	-7.1425	-6.2562	0.	99.433
5302	-6.5012	-4.8513	0.	111.75
5303	-6.3875	-5.0539	0.	110.97
5304	-6.9887	-4.7587	0.	111.82
5305	-6.8854	-4.9379	0.	105.95
5306	-7.1291	-4.8916	0.	109.16
5307	-6.2537	-5.5525	0.	104.66
5308	-6.305	-5.2876	0.	106.69
5309	-6.5763	-5.9275	0.	99.452
5310	-6.5565	-5.6424	0.	102.94
5311	-6.8353	-5.9694	0.	99.572
5312	-7.4725	-5.3212	0.	102.45
5313	-7.2904	-5.0791	0.	103.63
5314	-7.3075	-5.7888	0.	99.536
5315	-7.2136	-5.5134	0.	101.58
5316	-7.079	-5.9231	0.	100.74
5317	-6.8155	-5.6843	0.	103.04
5318	-6.8676	-5.5083	0.	102.52
5319	-6.6078	-5.3775	0.	105.01
5320	-7.0314	-5.2712	0.	102.75
5321	-6.7716	-5.1405	0.	105.16
5322	-6.9851	-5.6477	0.	102.76
5323	-8.52	-1.56	0.	56.947
5324	-8.03	-2.59	0.	107.27
5325	-7.39	-1.65	0.	54.235
5326	-8.275	-2.075	0.	89.937
5327	-7.955	-1.605	0.	118.77
5328	-7.71	-2.12	0.	83.512
5329	-7.9799	-1.9332	0.	101.18
5330	-8.3975	-1.8175	0.	72.808
5331	-8.2375	-1.5825	0.	87.807
5332	-8.1525	-2.3325	0.	97.364
5333	-7.87	-2.355	0.	94.755
5334	-7.6725	-1.6275	0.	85.554
5335	-7.55	-1.885	0.	66.978
5336	-8.1274	-2.0041	0.	95.218
5337	-7.9674	-1.7691	0.	109.95
5338	-7.8449	-2.0266	0.	91.912
5339	-7.72	7.3	0.	106.58
5340	-7.08	8.24	0.	55.467
5341	-8.21	8.32	0.	56.648
5342	-7.4	7.77	0.	83.862
5343	-7.965	7.81	0.	89.537
5344	-7.645	8.28	0.	120.64
5345	-7.6701	7.9534	0.	101.95
5346	-7.56	7.535	0.	94.665
5347	-7.8425	7.555	0.	96.863
5348	-7.24	8.005	0.	67.457
5349	-7.3625	8.26	0.	86.822
5350	-8.0875	8.065	0.	72.43
5351	-7.9275	8.3	0.	88.578
5352	-7.5351	7.8617	0.	92.445
5353	-7.8176	7.8817	0.	95.398
5354	-7.6576	8.1167	0.	111.27
5355	0.12	4.44	0.	55.786
5356	1.46	4.4	0.	52.625
5357	0.82	5.59	0.	111.37
5358	0.56667	4.4267	0.	115.49
5359	1.0133	4.4133	0.	115.11
5360	0.35333	4.8233	0.	95.608
5361	0.58667	5.2067	0.	91.424
5362	1.2467	4.7967	0.	96.751
5363	1.0333	5.1933	0.	92.025
5364	0.80463	4.9904	0.	101.32
5365	0.95262	4.7152	0.	100.95
5366	0.6428	4.7245	0.	101.4
5367	0.34333	4.4333	0.	84.06
5368	0.23667	4.6317	0.	73.748
5369	1.2367	4.4067	0.	83.088
5370	1.3533	4.5983	0.	73.73
5371	0.70333	5.3983	0.	99.933
5372	0.92667	5.3917	0.	99.964
5373	0.79	4.42	0.	115.18
5374	0.60473	4.5756	0.	108.28
5375	0.98297	4.5643	0.	107.92
5376	0.47	5.015	0.	93.362
5377	0.49807	4.7739	0.	98.295
5378	0.69565	5.0985	0.	96.285
5379	1.14	4.995	0.	94.299
5380	1.0996	4.7559	0.	98.728
5381	0.91898	5.0919	0.	96.601
5382	0.87863	4.8528	0.	101.03
5383	0.72372	4.8574	0.	101.24
5384	0.79771	4.7198	0.	101.03
5385	-2.42	5.46	0.	64.97
5386	-1.37	4.3	0.	103.86
5387	-0.89	5.79	0.	62.074
5388	-2.07	5.0733	0.	97.58
5389	-1.72	4.6867	0.	91.385
5390	-1.91	5.57	0.	112.69
5391	-1.4	5.68	0.	112.31
5392	-1.21	4.7967	0.	96.398
5393	-1.05	5.2933	0.	101.82
5394	-1.5161	4.9791	0.	100.83
5395	-1.7588	5.2473	0.	103.03
5396	-1.4051	5.3236	0.	99.916
5397	-2.245	5.2667	0.	78.267
5398	-2.165	5.515	0.	85.634
5399	-1.545	4.4933	0.	96.415
5400	-1.29	4.5483	0.	98.553
5401	-1.145	5.735	0.	86.93
5402	-0.97	5.5417	0.	81.824
5403	-1.895	4.88	0.	94.427
5404	-1.9144	5.1603	0.	100.07
5405	-1.618	4.8329	0.	96.095
5406	-1.655	5.625	0.	112.39
5407	-1.8344	5.4086	0.	107.51
5408	-1.4025	5.5018	0.	106.08
5409	-1.13	5.045	0.	98.942
5410	-1.363	4.8879	0.	98.499
5411	-1.2275	5.3085	0.	100.85
5412	-1.6375	5.1132	0.	101.82
5413	-1.4606	5.1513	0.	100.33
5414	-1.582	5.2855	0.	101.35
5415	0.14	-4.66	0.	85.462
5416	7.e-002	-5.96	0.	77.783
5417	1.23	-5.37	0.	71.222
5418	0.11667	-5.0933	0.	101.98
5419	9.3333e-002	-5.5267	0.	102.97
5420	0.50333	-4.8967	0.	96.349
5421	0.86667	-5.1333	0.	100.84
5422	0.45667	-5.7633	0.	100.07
5423	0.84333	-5.5667	0.	103.89
5424	0.65254	-5.3386	0.	103.73
5425	0.40036	-5.173	0.	100.05
5426	0.38549	-5.4757	0.	99.571
5427	0.12833	-4.8767	0.	91.276
5428	0.32167	-4.7783	0.	88.752
5429	8.1667e-002	-5.7433	0.	88.366
5430	0.26333	-5.8617	0.	86.958
5431	1.0483	-5.2517	0.	79.692
5432	1.0367	-5.4683	0.	81.02
5433	0.105	-5.31	0.	102.33
5434	0.25851	-5.1332	0.	100.97
5435	0.23941	-5.5012	0.	101.25
5436	0.685	-5.015	0.	98.458
5437	0.45184	-5.0348	0.	98.133
5438	0.75961	-5.236	0.	101.67
5439	0.65	-5.665	0.	101.83
5440	0.42108	-5.6195	0.	99.752
5441	0.74794	-5.4526	0.	103.15
5442	0.52645	-5.2558	0.	101.77
5443	0.51902	-5.4071	0.	101.53
5444	0.39292	-5.3243	0.	99.804
5445	7.98	3.93	0.	63.721
5446	7.13	4.67	0.	98.805
5447	6.91	3.57	0.	64.394
5448	7.555	4.3	0.	86.109
5449	7.445	3.75	0.	111.85
5450	7.02	4.12	0.	99.234
5451	7.3398	4.0568	0.	102.88
5452	7.7675	4.115	0.	70.129
5453	7.7125	3.84	0.	83.549
5454	7.3425	4.485	0.	91.366
5455	7.075	4.395	0.	96.847
5456	7.1775	3.66	0.	87.131
5457	6.965	3.845	0.	81.343
5458	7.4474	4.1784	0.	93.743
5459	7.3924	3.9034	0.	106.82
5460	7.1799	4.0884	0.	100.88
5461	7.01	1.4	0.	60.922
5462	6.1	2.2	0.	95.359
5463	5.86	1.01	0.	56.709
5464	6.7067	1.6667	0.	88.113
5465	6.4033	1.9333	0.	84.854
5466	6.6267	1.27	0.	101.39
5467	6.2433	1.14	0.	98.095
5468	6.02	1.8033	0.	93.474
5469	5.94	1.4067	0.	93.421
5470	6.2172	1.4151	0.	91.366
5471	6.4813	1.5057	0.	95.281
5472	6.2709	1.6902	0.	93.701
5473	6.8583	1.5333	0.	69.439
5474	6.8183	1.335	0.	76.685
5475	6.2517	2.0667	0.	88.512
5476	6.06	2.0017	0.	91.95
5477	6.0517	1.075	0.	76.531
5478	5.9	1.2083	0.	74.477
5479	6.555	1.8	0.	86.371
5480	6.594	1.5862	0.	91.301
5481	6.3371	1.8118	0.	89.27
5482	6.435	1.205	0.	99.625
5483	6.554	1.3878	0.	97.835
5484	6.2303	1.2776	0.	94.695
5485	5.98	1.605	0.	93.312
5486	6.1455	1.7468	0.	93.417
5487	6.0786	1.4109	0.	92.373
5488	6.3493	1.4604	0.	93.221
5489	6.2441	1.5527	0.	92.514
5490	6.3761	1.5979	0.	94.371
5491	5.64	-3.04	0.	101.71
5492	5.12	-3.94	0.	51.051
5493	6.15	-3.94	0.	48.085
5494	5.38	-3.49	0.	83.543
5495	5.895	-3.49	0.	80.541
5496	5.635	-3.94	0.	117.2
5497	5.6368	-3.6402	0.	98.066
5498	5.51	-3.265	0.	91.861
5499	5.7675	-3.265	0.	90.455
5500	5.25	-3.715	0.	65.871
5501	5.3775	-3.94	0.	83.542
5502	6.0225	-3.715	0.	62.793
5503	5.8925	-3.94	0.	82.032
5504	5.5084	-3.5651	0.	90.376
5505	5.7659	-3.5651	0.	88.835
5506	5.6359	-3.7901	0.	107.62
5507	-5.	-8.	0.	99.219
5508	-6.	-8.	0.	95.349
5509	-5.	-9.	0.	97.289
5510	-6.	-9.	0.	95.61
5511	-5.5	-8.	0.	112.42
5512	-5.	-8.5	0.	103.05
5513	-6.	-8.5	0.	100.48
5514	-5.5	-9.	0.	111.15
5515	-5.5	-8.5	0.	109.32
5516	-5.25	-8.	0.	105.8
5517	-5.	-8.25	0.	101.13
5518	-5.75	-8.	0.	103.85
5519	-6.	-8.25	0.	97.89
5520	-5.	-8.75	0.	100.16
5521	-5.25	-9.	0.	104.2
5522	-6.	-8.75	0.	98.036
5523	-5.75	-9.	0.	103.38
5524	-5.5	-8.25	0.	110.83
5525	-5.25	-8.5	0.	106.16
5526	-5.75	-8.5	0.	104.87
5527	-5.5	-8.75	0.	110.19
