Node Number	X Location (mm)	Y Location (mm)	Z Location (mm)	Equivalent (von-Mises) Stress (MPa)
1	4.5	-6.37	0.	156.64
2	6.15	-7.5	0.	135.08
3	6.3	-5.5	0.	148.68
4	-1.5	-7.52	0.	107.5
5	-2.	-8.63	0.	165.66
6	-0.79	-8.51	0.	178.1
7	-6.99	5.2	0.	132.69
8	-8.42	4.31	0.	175.54
9	-6.93	3.52	0.	135.78
10	6.	7.	0.	135.84
11	6.	6.	0.	134.01
12	8.	7.	0.	134.22
13	8.	6.	0.	131.5
14	8.	-5.	0.	136.8
15	8.	-6.	0.	132.42
16	9.	-5.	0.	133.42
17	9.	-6.	0.	133.55
18	5.	4.	0.	134.03
19	5.	2.	0.	134.08
20	6.	4.	0.	135.63
21	6.	2.	0.	135.42
22	7.	4.	0.	135.42
23	7.	2.	0.	137.83
24	9.	4.	0.	137.63
25	9.	2.	0.	137.26
26	-1.	-1.	0.	130.54
27	-1.	-3.	0.	131.95
28	0.	-1.	0.	132.19
29	0.	-3.	0.	132.29
30	-2.	8.	0.	133.82
31	-2.	6.	0.	133.37
32	-1.	8.	0.	132.98
33	-1.	6.	0.	133.54
34	-3.	-5.	0.	138.04
35	-3.	-6.	0.	138.54
36	-1.	-5.	0.	132.56
37	-1.	-6.	0.	130.1
38	0.	4.	0.	135.23
39	0.	3.	0.	133.39
40	2.	4.	0.	136.79
41	2.	3.	0.	136.15
42	-6.	-7.	0.	133.88
43	-6.	-8.	0.	128.64
44	-5.	-7.	0.	138.31
45	-5.	-8.	0.	136.02
46	-8.	2.	0.	128.52
47	-8.	0.	0.	126.23
48	-6.	2.	0.	136.1
49	-6.	0.	0.	136.75
50	-9.	-1.	0.	142.62
51	-9.	-2.	0.	140.84
52	-7.	-1.	0.	121.17
53	-7.	-2.	0.	124.36
54	-8.	-4.	0.	131.
55	-8.	-6.	0.	135.6
56	-6.	-4.	0.	133.88
57	-6.	-6.	0.	133.95
58	10.	10.	0.	124.97
59	-10.	10.	0.	124.99
60	10.	-10.	0.	127.24
61	-10.	-10.	0.	128.6
62	4.9125	-6.6525	0.	87.881
63	5.325	-6.935	0.	106.19
64	5.7375	-7.2175	0.	93.996
65	4.95	-6.1525	0.	93.178
66	5.4	-5.935	0.	109.29
67	5.85	-5.7175	0.	100.61
68	6.1875	-7.	0.	142.03
69	6.225	-6.5	0.	143.94
70	6.2625	-6.	0.	143.2
71	-1.6667	-7.89	0.	109.41
72	-1.8333	-8.26	0.	127.24
73	-1.2633	-7.85	0.	89.098
74	-1.0267	-8.18	0.	106.94
75	-1.5967	-8.59	0.	104.17
76	-1.1933	-8.55	0.	91.908
77	-7.3475	4.9775	0.	95.632
78	-7.705	4.755	0.	101.15
79	-8.0625	4.5325	0.	77.774
80	-6.975	4.78	0.	138.37
81	-6.96	4.36	0.	139.11
82	-6.945	3.94	0.	137.47
83	-8.0475	4.1125	0.	78.163
84	-7.675	3.915	0.	102.91
85	-7.3025	3.7175	0.	93.68
86	6.	6.5	0.	143.18
87	6.5	7.	0.	116.67
88	7.	7.	0.	121.68
89	7.5	7.	0.	116.36
90	6.5	6.	0.	117.01
91	7.	6.	0.	120.91
92	7.5	6.	0.	114.26
93	8.	6.5	0.	141.51
94	8.	-5.5	0.	143.52
95	8.5	-5.	0.	112.38
96	8.5	-6.	0.	110.7
97	9.	-5.5	0.	144.
98	5.	3.5	0.	142.65
99	5.	3.	0.	142.71
100	5.	2.5	0.	142.66
101	5.5	4.	0.	109.42
102	5.5	2.	0.	109.03
103	6.	3.5	0.	142.64
104	6.	3.	0.	143.9
105	6.	2.5	0.	143.08
106	7.	3.5	0.	144.2
107	7.	3.	0.	146.95
108	7.	2.5	0.	145.46
109	7.5	4.	0.	112.58
110	8.	4.	0.	118.42
111	8.5	4.	0.	116.04
112	7.5	2.	0.	114.6
113	8.	2.	0.	119.04
114	8.5	2.	0.	115.23
115	9.	3.5	0.	148.81
116	9.	3.	0.	150.43
117	9.	2.5	0.	148.52
118	-1.	-1.5	0.	139.88
119	-1.	-2.	0.	140.17
120	-1.	-2.5	0.	139.59
121	-0.5	-1.	0.	106.8
122	-0.5	-3.	0.	107.83
123	0.	-1.5	0.	140.89
124	0.	-2.	0.	141.63
125	0.	-2.5	0.	141.69
126	-2.	7.5	0.	142.34
127	-2.	7.	0.	142.67
128	-2.	6.5	0.	142.31
129	-1.5	8.	0.	109.1
130	-1.5	6.	0.	108.97
131	-1.	7.5	0.	141.53
132	-1.	7.	0.	141.8
133	-1.	6.5	0.	141.53
134	-3.	-5.5	0.	146.75
135	-2.5	-5.	0.	118.57
136	-2.	-5.	0.	122.15
137	-1.5	-5.	0.	115.06
138	-2.5	-6.	0.	118.41
139	-2.	-6.	0.	120.21
140	-1.5	-6.	0.	112.86
141	-1.	-5.5	0.	139.8
142	0.	3.5	0.	142.49
143	0.5	4.	0.	117.2
144	1.	4.	0.	122.81
145	1.5	4.	0.	117.84
146	0.5	3.	0.	116.15
147	1.	3.	0.	121.83
148	1.5	3.	0.	117.11
149	2.	3.5	0.	144.82
150	-6.	-7.5	0.	138.91
151	-5.5	-7.	0.	115.2
152	-5.5	-8.	0.	110.76
153	-5.	-7.5	0.	146.45
154	-8.	1.5	0.	138.34
155	-8.	1.	0.	139.03
156	-8.	0.5	0.	136.67
157	-7.5	2.	0.	106.81
158	-7.	2.	0.	112.5
159	-6.5	2.	0.	112.23
160	-7.5	0.	0.	106.6
161	-7.	0.	0.	114.74
162	-6.5	0.	0.	114.41
163	-6.	1.5	0.	144.41
164	-6.	1.	0.	145.49
165	-6.	0.5	0.	144.59
166	-9.	-1.5	0.	151.28
167	-8.5	-1.	0.	121.34
168	-8.	-1.	0.	119.4
169	-7.5	-1.	0.	107.47
170	-8.5	-2.	0.	118.37
171	-8.	-2.	0.	118.43
172	-7.5	-2.	0.	109.03
173	-7.	-1.5	0.	131.3
174	-8.	-4.5	0.	142.08
175	-8.	-5.	0.	144.64
176	-8.	-5.5	0.	144.3
177	-7.5	-4.	0.	109.67
178	-7.	-4.	0.	115.06
179	-6.5	-4.	0.	112.43
180	-7.5	-6.	0.	114.51
181	-7.	-6.	0.	119.64
182	-6.5	-6.	0.	114.6
183	-6.	-4.5	0.	142.54
184	-6.	-5.	0.	142.94
185	-6.	-5.5	0.	140.89
186	9.5	10.	0.	124.92
187	9.	10.	0.	124.48
188	8.5	10.	0.	123.74
189	8.	10.	0.	122.96
190	7.5	10.	0.	122.4
191	7.	10.	0.	122.29
192	6.5	10.	0.	122.72
193	6.	10.	0.	123.6
194	5.5	10.	0.	124.69
195	5.	10.	0.	125.7
196	4.5	10.	0.	126.47
197	4.	10.	0.	126.96
198	3.5	10.	0.	127.23
199	3.	10.	0.	127.37
200	2.5	10.	0.	127.45
201	2.	10.	0.	127.51
202	1.5	10.	0.	127.55
203	1.	10.	0.	127.51
204	0.5	10.	0.	127.21
205	-5.2042e-015	10.	0.	126.4
206	-0.5	10.	0.	125.03
207	-1.	10.	0.	123.61
208	-1.5	10.	0.	123.05
209	-2.	10.	0.	123.75
210	-2.5	10.	0.	125.27
211	-3.	10.	0.	126.66
212	-3.5	10.	0.	127.35
213	-4.	10.	0.	127.41
214	-4.5	10.	0.	127.08
215	-5.	10.	0.	126.56
216	-5.5	10.	0.	125.99
217	-6.	10.	0.	125.44
218	-6.5	10.	0.	124.98
219	-7.	10.	0.	124.65
220	-7.5	10.	0.	124.49
221	-8.	10.	0.	124.5
222	-8.5	10.	0.	124.64
223	-9.	10.	0.	124.84
224	-9.5	10.	0.	124.97
225	10.	9.5	0.	125.1
226	10.	9.	0.	125.87
227	10.	8.5	0.	126.79
228	10.	8.	0.	127.12
229	10.	7.5	0.	126.5
230	10.	7.	0.	125.61
231	10.	6.5	0.	126.04
232	10.	6.	0.	128.96
233	10.	5.5	0.	133.72
234	10.	5.	0.	138.62
235	10.	4.5	0.	140.17
236	10.	4.	0.	136.14
237	10.	3.5	0.	130.91
238	10.	3.	0.	129.63
239	10.	2.5	0.	129.51
240	10.	2.	0.	133.58
241	10.	1.5	0.	137.05
242	10.	1.	0.	136.02
243	10.	0.5	0.	132.69
244	10.	-5.2042e-015	0.	129.92
245	10.	-0.5	0.	128.06
246	10.	-1.	0.	126.94
247	10.	-1.5	0.	126.36
248	10.	-2.	0.	126.22
249	10.	-2.5	0.	126.47
250	10.	-3.	0.	127.2
251	10.	-3.5	0.	128.61
252	10.	-4.	0.	130.6
253	10.	-4.5	0.	130.59
254	10.	-5.	0.	126.07
255	10.	-5.5	0.	121.2
256	10.	-6.	0.	124.04
257	10.	-6.5	0.	127.51
258	10.	-7.	0.	127.51
259	10.	-7.5	0.	126.22
260	10.	-8.	0.	125.86
261	10.	-8.5	0.	126.2
262	10.	-9.	0.	126.71
263	10.	-9.5	0.	127.1
264	-10.	9.5	0.	125.03
265	-10.	9.	0.	125.34
266	-10.	8.5	0.	125.89
267	-10.	8.	0.	126.68
268	-10.	7.5	0.	127.73
269	-10.	7.	0.	128.98
270	-10.	6.5	0.	130.17
271	-10.	6.	0.	130.69
272	-10.	5.5	0.	129.58
273	-10.	5.	0.	126.8
274	-10.	4.5	0.	124.42
275	-10.	4.	0.	126.71
276	-10.	3.5	0.	131.68
277	-10.	3.	0.	134.9
278	-10.	2.5	0.	135.02
279	-10.	2.	0.	132.98
280	-10.	1.5	0.	130.96
281	-10.	1.	0.	130.84
282	-10.	0.5	0.	133.37
283	-10.	-5.2042e-015	0.	137.86
284	-10.	-0.5	0.	140.14
285	-10.	-1.	0.	136.72
286	-10.	-1.5	0.	132.77
287	-10.	-2.	0.	137.64
288	-10.	-2.5	0.	142.53
289	-10.	-3.	0.	141.72
290	-10.	-3.5	0.	137.16
291	-10.	-4.	0.	132.1
292	-10.	-4.5	0.	127.97
293	-10.	-5.	0.	125.8
294	-10.	-5.5	0.	125.74
295	-10.	-6.	0.	127.31
296	-10.	-6.5	0.	129.19
297	-10.	-7.	0.	130.29
298	-10.	-7.5	0.	130.35
299	-10.	-8.	0.	129.85
300	-10.	-8.5	0.	129.29
301	-10.	-9.	0.	128.88
302	-10.	-9.5	0.	128.67
303	-9.5	-10.	0.	127.82
304	-9.	-10.	0.	126.83
305	-8.5	-10.	0.	125.78
306	-8.	-10.	0.	124.79
307	-7.5	-10.	0.	123.85
308	-7.	-10.	0.	122.76
309	-6.5	-10.	0.	121.34
310	-6.	-10.	0.	120.16
311	-5.5	-10.	0.	120.59
312	-5.	-10.	0.	123.23
313	-4.5	-10.	0.	126.96
314	-4.	-10.	0.	130.12
315	-3.5	-10.	0.	132.18
316	-3.	-10.	0.	132.56
317	-2.5	-10.	0.	128.42
318	-2.	-10.	0.	118.8
319	-1.5	-10.	0.	111.84
320	-1.	-10.	0.	116.18
321	-0.5	-10.	0.	126.41
322	5.2042e-015	-10.	0.	132.14
323	0.5	-10.	0.	133.56
324	1.	-10.	0.	132.96
325	1.5	-10.	0.	132.21
326	2.	-10.	0.	131.61
327	2.5	-10.	0.	130.97
328	3.	-10.	0.	130.06
329	3.5	-10.	0.	128.63
330	4.	-10.	0.	126.56
331	4.5	-10.	0.	124.02
332	5.	-10.	0.	121.56
333	5.5	-10.	0.	120.04
334	6.	-10.	0.	120.06
335	6.5	-10.	0.	121.45
336	7.	-10.	0.	123.32
337	7.5	-10.	0.	124.8
338	8.	-10.	0.	125.6
339	8.5	-10.	0.	125.93
340	9.	-10.	0.	126.13
341	9.5	-10.	0.	126.48
342	3.5676	-1.9047	0.	126.71
343	4.0342	-1.9084	0.	125.88
344	5.4717	-2.4888	0.	122.76
345	4.513	-1.9311	0.	124.89
346	4.9987	-1.9609	0.	123.9
347	4.4964	-2.4059	0.	124.72
348	4.0217	-1.4432	0.	126.14
349	5.4985	-1.4922	0.	123.36
350	5.9657	-2.5244	0.	122.43
351	4.9511	-2.9265	0.	123.28
352	4.5134	-1.4528	0.	125.19
353	5.0048	-1.4719	0.	124.2
354	4.4647	-2.8775	0.	124.71
355	3.9797	-2.8261	0.	126.1
356	5.9943	-1.5072	0.	122.74
357	5.9841	-2.0132	0.	122.62
358	-2.9989	1.4987	0.	127.8
359	5.5013	-0.99373	0.	123.59
360	-3.4913	3.4854	0.	127.88
361	-3.4991	0.99859	0.	128.56
362	2.5436	-2.0608	0.	127.91
363	-3.9891	3.9683	0.	128.26
364	3.0011	1.793e-003	0.	128.9
365	-2.4993	1.4993	0.	127.2
366	-2.9994	0.99919	0.	128.14
367	-3.5	-2.	0.	128.97
368	-2.9944	3.4921	0.	126.66
369	5.9366	-3.0425	0.	122.05
370	-4.	-2.	0.	129.8
371	5.398	-3.474	0.	121.33
372	-2.9979	1.9976	0.	127.53
373	-2.9951	2.9941	0.	126.86
374	-2.9964	2.4958	0.	127.21
375	4.5081	-0.96917	0.	125.6
376	5.0048	-0.98068	0.	124.52
377	3.0111	-1.0048	0.	127.75
378	3.0035	-0.49933	0.	128.27
379	2.9516	-3.6712	0.	129.41
380	2.9739	-3.1594	0.	128.64
381	3.9399	-3.2964	0.	126.61
382	6.4911	-1.5155	0.	122.36
383	6.4806	-2.0254	0.	122.45
384	-3.4922	2.9889	0.	128.14
385	6.4963	-1.0092	0.	122.34
386	-2.4987	1.9987	0.	126.79
387	3.	6.5	0.	126.92
388	5.5017	-0.49543	0.	123.76
389	-3.5	-1.5	0.	129.05
390	2.4586	-4.1366	0.	130.2
391	2.5145	-2.5858	0.	128.45
392	4.8566	-3.8654	0.	122.71
393	3.4312	-3.7258	0.	128.71
394	-4.5374	6.4383	0.	127.43
395	-3.9875	3.475	0.	128.84
396	-4.	-1.5	0.	129.7
397	-1.9996	1.4996	0.	126.57
398	-2.4996	0.99957	0.	127.64
399	1.9684	-4.604	0.	129.8
400	2.0235	-2.0472	0.	128.27
401	2.9392	-4.1794	0.	130.06
402	2.4388	-7.1022	0.	128.2
403	-3.	-2.	0.	127.96
404	-3.5	-2.5	0.	129.2
405	3.	0.50147	0.	129.59
406	-3.4927	3.9809	0.	127.83
407	1.4777	-5.0679	0.	128.5
408	3.5	6.	0.	128.82
409	6.4396	-3.0626	0.	122.77
410	-4.	-2.5	0.	130.36
411	-4.5	-2.	0.	129.9
412	-4.9839	4.4213	0.	126.47
413	1.5	6.5	0.	123.83
414	3.5	6.5	0.	127.4
415	1.9566	-7.0655	0.	128.26
416	1.4707	-7.0242	0.	128.6
417	-3.4965	1.9953	0.	128.44
418	-3.4942	2.4921	0.	128.37
419	-3.4999	-2.7637e-004	0.	129.21
420	1.4757	-6.0524	0.	127.84
421	6.0001	-0.50149	0.	123.06
422	6.4986	-0.5052	0.	122.47
423	-4.5084	5.4326	0.	127.65
424	-2.4978	2.4978	0.	126.26
425	2.0005	0.49744	0.	127.37
426	2.5002	0.49909	0.	128.65
427	2.	6.5	0.	124.76
428	4.5042	-0.48049	0.	126.11
429	5.0033	-0.48732	0.	124.82
430	2.5128	-1.0182	0.	127.95
431	2.5047	-0.50789	0.	128.26
432	-3.5	-0.50012	0.	129.39
433	2.4683	-3.6246	0.	129.89
434	2.4867	-3.1086	0.	129.22
435	4.3841	-3.8202	0.	125.4
436	3.9087	-3.7764	0.	127.44
437	1.965	-5.5997	0.	128.16
438	1.9621	-6.0903	0.	127.72
439	1.5	7.	0.	124.18
440	6.9882	-1.5184	0.	122.17
441	6.9795	-2.0272	0.	122.46
442	6.9943	-1.0117	0.	121.93
443	-4.5445	6.9488	0.	126.97
444	-4.0318	6.9625	0.	127.37
445	-5.0658	6.9332	0.	126.71
446	3.	7.	0.	126.16
447	-4.0287	6.4576	0.	127.75
448	-3.9997	4.9579	0.	128.19
449	-3.9974	1.4955	0.	129.21
450	-3.9888	2.9815	0.	129.48
451	-4.	-1.	0.	129.88
452	-3.9995	0.49882	0.	129.27
453	0.98388	-6.9785	0.	129.29
454	-4.9923	4.9102	0.	126.54
455	-6.0945	7.0919	0.	124.61
456	-1.9992	1.9993	0.	126.3
457	1.5002	0.99855	0.	124.33
458	3.	6.	0.	128.24
459	4.0015	1.1766e-002	0.	128.19
460	5.5013	3.1331e-003	0.	123.75
461	2.0212	-1.534	0.	128.01
462	2.0019	-5.4158e-003	0.	127.95
463	1.0003	0.99869	0.	122.58
464	-1.9997	0.99976	0.	126.8
465	-2.9999	-1.7844e-004	0.	129.
466	-3.	-1.5	0.	128.35
467	1.9713	-4.098	0.	130.39
468	2.01	-2.5609	0.	128.92
469	4.8175	-4.3218	0.	122.84
470	2.4538	-5.1478	0.	129.32
471	2.442	-6.615	0.	127.46
472	2.9358	-4.6866	0.	130.35
473	-3.	-2.5	0.	127.77
474	-2.4998	0.49976	0.	128.25
475	1.5009	0.49666	0.	126.02
476	3.5002	0.50442	0.	129.95
477	2.9998	1.0009	0.	130.26
478	-1.4997	1.4998	0.	125.86
479	-5.6237	6.9127	0.	126.14
480	-1.9978	3.498	0.	124.
481	-2.9953	3.9896	0.	126.85
482	-3.4961	4.4769	0.	128.2
483	1.4784	-4.5688	0.	129.58
484	0.9852	-5.529	0.	127.25
485	3.5	5.5	0.	130.64
486	6.999	-4.0145e-003	0.	121.91
487	6.9508	-3.052	0.	123.64
488	-3.5222	6.9749	0.	128.22
489	-4.5	-1.5	0.	129.83
490	-4.5	-2.5	0.	130.78
491	1.5139	-2.0347	0.	128.82
492	-2.5	-2.	0.	127.44
493	5.2783	-4.3615	0.	118.77
494	1.0002	1.4992	0.	120.41
495	-4.9797	3.9358	0.	127.58
496	-4.4837	3.4628	0.	129.55
497	0.5	7.	0.	125.37
498	1.	6.5	0.	123.72
499	1.5	6.	0.	123.43
500	5.8902	-3.5776	0.	121.1
501	4.	6.5	0.	127.37
502	3.5	7.	0.	126.64
503	2.4373	-7.5865	0.	129.16
504	1.9473	-7.551	0.	128.87
505	1.4548	-7.5104	0.	128.84
506	0.96639	-7.46	0.	129.17
507	-4.019	5.9555	0.	128.17
508	-4.0088	5.4558	0.	128.32
509	-3.995	1.992	0.	129.58
510	-3.9917	2.487	0.	129.76
511	-4.	-0.50018	0.	129.95
512	-3.9998	-5.7006e-004	0.	129.69
513	0.98532	-6.016	0.	127.79
514	6.0005	-4.8459e-004	0.	123.34
515	6.4997	-2.8766e-003	0.	122.98
516	-5.0024	5.4071	0.	127.24
517	-5.0223	5.905	0.	127.65
518	-6.5664	7.0917	0.	122.75
519	-7.0445	7.0627	0.	120.8
520	-1.9982	2.9985	0.	124.77
521	2.0002	0.99855	0.	126.62
522	2.5	0.99954	0.	128.78
523	2.5	6.	0.	126.91
524	2.	6.	0.	125.04
525	4.5021	1.221e-002	0.	126.76
526	5.002	8.0541e-003	0.	124.99
527	2.0127	-1.0219	0.	128.09
528	2.0068	-0.51376	0.	128.18
529	0.50047	0.99878	0.	121.65
530	-0.99961	0.99964	0.	123.61
531	-1.4997	0.99978	0.	125.4
532	-3.	-0.50009	0.	129.12
533	1.9798	-3.5885	0.	130.4
534	3.8877	-4.262	0.	128.69
535	2.453	-5.643	0.	128.31
536	2.4483	-6.1285	0.	127.53
537	-3.5	-3.	0.	129.73
538	4.	7.	0.	126.89
539	6.4079	-3.5961	0.	122.95
540	1.	6.	0.	123.06
541	1.	5.5	0.	121.81
542	5.3196e-002	-7.6964	0.	130.03
543	-4.8319e-006	7.	0.	127.99
544	1.	1.9997	0.	118.04
545	1.	5.	0.	119.71
546	4.	3.0001	0.	130.74
547	1.0076	-2.0216	0.	130.3
548	-5.	-2.5	0.	130.02
549	-7.5249	7.0165	0.	120.01
550	-7.0379	7.5416	0.	121.98
551	-6.5459	7.554	0.	123.12
552	-5.5548	7.4685	0.	125.47
553	-4.0282	7.4687	0.	127.16
554	-3.5205	7.478	0.	128.12
555	7.493	-1.0118	0.	121.78
556	4.	6.	0.	128.74
557	4.	5.5	0.	130.64
558	0.98539	-5.0369	0.	127.69
559	0.49999	6.5	0.	124.87
560	-1.9983	3.9979	0.	123.71
561	-4.4857	2.9729	0.	130.89
562	-4.5	-1.0001	0.	130.38
563	0.49732	-6.9289	0.	130.49
564	-4.	-3.5	0.	132.07
565	-7.4949	6.5234	0.	117.6
566	-0.99969	1.4997	0.	125.02
567	1.5	5.5	0.	122.72
568	5.7869	-4.1525	0.	118.53
569	3.5	3.5	0.	129.19
570	3.5	5.	0.	132.06
571	3.4999	1.0024	0.	131.02
572	4.0006	0.50692	0.	129.47
573	4.5	6.5	0.	127.07
574	0.49999	7.5	0.	126.02
575	0.99999	7.5	0.	124.93
576	1.5	7.5	0.	124.64
577	2.	7.5	0.	124.85
578	2.5	7.5	0.	125.33
579	3.	7.5	0.	125.88
580	3.5	7.5	0.	126.41
581	4.	7.5	0.	126.97
582	1.0013	0.49682	0.	124.73
583	-3.	-3.	0.	127.76
584	1.4809	-4.0663	0.	130.65
585	3.3926	-7.6444	0.	130.93
586	3.4118	-4.7252	0.	130.73
587	2.9135	-7.1333	0.	128.54
588	-0.38064	-7.6702	0.	131.34
589	2.9411	-5.6866	0.	128.73
590	4.3378	-4.7679	0.	128.13
591	3.8463	-7.6635	0.	131.55
592	4.2627	-7.6609	0.	130.16
593	1.4872	-3.5603	0.	131.08
594	1.4965	-3.052	0.	130.49
595	-2.5	-3.	0.	126.13
596	-2.5	-3.5	0.	125.09
597	-0.99952	0.4996	0.	122.26
598	0.50126	0.49735	0.	123.04
599	1.5106	-1.0189	0.	128.36
600	1.5067	-0.51337	0.	128.28
601	4.5	7.5	0.	127.79
602	4.5	7.	0.	127.09
603	-4.4999	-4.0001	0.	132.2
604	-4.5	-3.5001	0.	132.66
605	4.501	0.50729	0.	127.63
606	3.5	2.0005	0.	131.32
607	3.4999	1.5012	0.	131.62
608	6.371	-4.1489	0.	122.58
609	2.5	5.5	0.	128.36
610	3.5	4.5	0.	132.05
611	2.	1.4994	0.	126.02
612	-0.49962	1.4995	0.	123.7
613	3.5371e-004	1.4993	0.	121.86
614	-1.499	2.9993	0.	124.52
615	-6.5527	6.6398	0.	122.89
616	-7.0201	6.5915	0.	119.51
617	-5.4918	5.3708	0.	127.35
618	-5.5103	5.8633	0.	127.97
619	6.5	0.49835	0.	124.34
620	6.9996	0.49772	0.	122.7
621	-4.4998	-4.5003	0.	130.95
622	-4.4995	-5.0005	0.	129.45
623	-3.	-3.5	0.	127.8
624	-3.5	-3.5	0.	130.54
625	0.49475	-6.4616	0.	129.44
626	0.49202	-5.9862	0.	127.56
627	-4.4999	-0.50029	0.	130.8
628	-4.4998	-8.8547e-004	0.	130.5
629	-4.4939	1.9885	0.	131.
630	-4.4898	2.4814	0.	131.47
631	-2.4989	4.4945	0.	125.96
632	-1.9994	4.4977	0.	123.51
633	-3.5139	5.9721	0.	128.99
634	-3.5079	5.4727	0.	129.25
635	-1.6011e-005	7.5	0.	127.89
636	4.8003	-5.1819	0.	124.34
637	-4.9998	-4.5002	0.	130.55
638	0.91395	-7.9487	0.	128.56
639	1.4204	-7.9987	0.	129.05
640	2.4359	-8.0676	0.	129.9
641	3.907	-8.1111	0.	130.17
642	4.4041	-8.0685	0.	127.89
643	5.4477	-8.0107	0.	115.7
644	0.49999	5.5	0.	123.61
645	0.49999	5.	0.	121.84
646	-3.0131	6.4848	0.	129.86
647	-1.4991	3.9991	0.	123.16
648	0.49089	-5.0137	0.	126.41
649	-3.5281	-7.4778	0.	130.
650	-3.1035	-7.5348	0.	128.2
651	7.4626	-3.5361	0.	125.31
652	-4.9996	-5.0003	0.	129.58
653	0.49996	8.	0.	126.77
654	0.99997	8.	0.	125.7
655	2.	8.	0.	125.2
656	2.5	8.	0.	125.47
657	6.5	8.	0.	120.3
658	7.	8.	0.	118.28
659	-3.0137	7.486	0.	129.6
660	-7.9653	6.4307	0.	119.68
661	-8.0154	7.4796	0.	122.17
662	-7.0265	8.0258	0.	122.93
663	-6.5282	8.0295	0.	123.62
664	-6.0273	8.0158	0.	124.47
665	-5.5278	7.9873	0.	125.25
666	-5.0276	7.973	0.	125.87
667	-4.0206	7.976	0.	127.15
668	-3.5162	7.982	0.	128.19
669	-3.9941	-7.497	0.	130.77
670	-7.4997	-8.	0.	121.02
671	-7.9998	-8.	0.	122.88
672	-7.9999	-7.5	0.	122.44
673	-7.4998	-7.5	0.	118.99
674	-3.388	-7.9695	0.	127.38
675	-2.6921	-7.7198	0.	126.41
676	3.4198	-5.229	0.	131.2
677	1.0037	-2.5275	0.	130.47
678	0.98767	-4.0409	0.	130.8
679	-1.9999	-6.6588e-005	0.	128.61
680	1.0032	-7.1358e-003	0.	127.09
681	-5.	-3.	0.	132.05
682	-5.5	-2.5	0.	127.62
683	7.9996	0.99861	0.	116.09
684	7.9959	-0.5075	0.	121.34
685	7.9927	-1.0109	0.	122.1
686	7.553	-7.5092	0.	127.41
687	8.0374	-7.5073	0.	124.03
688	8.0247	-8.006	0.	125.68
689	7.5314	-8.006	0.	128.04
690	2.9999	2.0003	0.	131.49
691	0.50011	1.9997	0.	118.85
692	-0.9996	1.9997	0.	126.51
693	-5.9661	3.9148	0.	124.74
694	-6.0273	6.264	0.	127.3
695	7.5	5.	0.	115.28
696	7.4997	0.99865	0.	118.72
697	2.3862e-002	-7.3156	0.	131.84
698	8.0446e-003	-6.8889	0.	131.76
699	-4.9995	0.49761	0.	131.43
700	-5.	-1.0001	0.	130.45
701	-1.5003	4.9993	0.	120.01
702	-0.15535	-8.008	0.	128.9
703	-1.0001	4.9998	0.	124.31
704	-3.8331e-005	5.5	0.	127.43
705	-3.3489e-005	6.	0.	127.33
706	-3.0098	5.9849	0.	130.44
707	-3.0059	5.4853	0.	130.48
708	-2.5013	4.9938	0.	127.81
709	-2.0007	4.9976	0.	122.85
710	-4.9941	1.9864	0.	133.02
711	-5.	-0.50048	0.	132.08
712	-4.9998	-1.1881e-003	0.	132.09
713	-5.6042e-003	-4.9998	0.	125.64
714	-5.1073e-003	-4.5057	0.	126.15
715	-0.50221	-4.0019	0.	120.87
716	-4.3352e-004	-6.4367	0.	130.34
717	-4.1137e-003	-5.9686	0.	127.55
718	-3.9974	-6.0014	0.	133.66
719	-3.4918	-7.0013	0.	133.02
720	-2.9528	-7.0422	0.	128.63
721	-3.	-4.	0.	127.85
722	6.9999	0.99877	0.	124.53
723	6.0003	0.99988	0.	124.26
724	7.	5.	0.	119.14
725	6.5	5.	0.	123.91
726	-3.9975	-6.9982	0.	134.67
727	-5.984	5.3235	0.	127.98
728	-6.5035	6.1912	0.	124.86
729	-6.9637	6.1338	0.	118.14
730	-5.9719	3.4432	0.	127.74
731	-0.99937	2.9996	0.	125.65
732	-0.99959	2.4997	0.	127.08
733	1.5118e-004	1.9997	0.	122.47
734	2.4999	2.	0.	130.37
735	3.	3.	0.	129.79
736	3.	4.5	0.	132.42
737	2.5	5.	0.	130.61
738	-1.8129e-005	5.	0.	126.7
739	-0.50005	4.9999	0.	129.19
740	-0.99948	3.9996	0.	124.84
741	7.0335	-8.0014	0.	130.83
742	7.0713	-7.5073	0.	130.41
743	7.1265	-5.531	0.	131.02
744	6.197	-4.6631	0.	119.54
745	7.9899	-4.0134	0.	123.91
746	7.0439	-4.5553	0.	132.28
747	7.101	-5.0432	0.	134.19
748	7.1288	-6.0228	0.	129.87
749	7.5703	-7.0115	0.	127.
750	8.0456	-7.0073	0.	121.84
751	5.	5.	0.	127.42
752	4.	4.5	0.	132.95
753	4.	2.0007	0.	131.85
754	4.5005	1.0041	0.	129.42
755	-6.	-2.5	0.	124.24
756	-6.	-2.	0.	122.6
757	-4.9999	-4.0001	0.	132.39
758	-4.9999	-3.5001	0.	133.27
759	-5.5	-3.	0.	130.11
760	6.	8.	0.	124.92
761	5.	7.5	0.	129.39
762	5.	6.	0.	128.3
763	5.	5.5	0.	129.21
764	5.5	5.	0.	124.09
765	6.	5.	0.	124.36
766	1.0074	-1.0137	0.	129.25
767	1.0056	-0.51068	0.	128.83
768	1.6167e-003	-2.2997e-003	0.	120.43
769	-0.99961	-3.0051e-004	0.	120.8
770	-1.4998	-1.1719e-004	0.	126.48
771	-2.	-0.50003	0.	129.61
772	-2.	-1.	0.	129.32
773	-2.	-3.	0.	126.2
774	-2.0001	-3.5	0.	124.44
775	-1.5006	-4.	0.	121.36
776	-1.0014	-4.0005	0.	120.82
777	-4.1222e-003	-4.0079	0.	124.59
778	0.49204	-4.0214	0.	129.33
779	0.99192	-3.5376	0.	132.07
780	0.99803	-3.0333	0.	131.62
781	4.2362	-7.265	0.	131.89
782	4.3582	-5.26	0.	129.68
783	3.4045	-6.6923	0.	127.11
784	3.4318	-5.7275	0.	129.55
785	3.4313	-6.212	0.	127.62
786	-2.4663	-6.9054	0.	123.95
787	-0.45581	-7.3029	0.	130.96
788	-0.48815	-6.8857	0.	130.53
789	-6.	-1.5	0.	121.17
790	-7.4999	-7.	0.	117.35
791	0.81847	-8.4397	0.	128.81
792	1.3896	-8.4879	0.	129.66
793	2.4389	-8.5473	0.	130.39
794	4.456	-8.5319	0.	125.81
795	6.5004	-8.4837	0.	123.12
796	7.5149	-8.5028	0.	127.31
797	-3.954	-7.9952	0.	129.85
798	-7.9999	-7.	0.	123.05
799	-5.5	-1.0001	0.	128.57
800	8.	5.	0.	116.46
801	-7.2463e-005	8.	0.	128.73
802	-7.0168	8.5157	0.	123.72
803	-6.0146	8.5086	0.	124.71
804	-4.0131	8.4831	0.	127.13
805	-3.5112	8.4864	0.	128.25
806	-3.0086	8.4904	0.	129.9
807	-1.5058e-004	8.5	0.	129.14
808	0.49993	8.5	0.	127.41
809	0.99997	8.5	0.	126.32
810	6.5	8.5	0.	121.88
811	-8.4407	6.3197	0.	123.53
812	-8.5083	7.9834	0.	123.95
813	8.4979	-4.1907e-003	0.	121.48
814	8.4855	-2.5116	0.	123.47
815	8.4854	-3.0102	0.	123.09
816	8.4942	-4.0054	0.	120.
817	-8.4999	-8.	0.	125.29
818	-8.4999	-7.5	0.	126.04
819	-6.9996	-8.0001	0.	121.32
820	-3.9615	-8.4977	0.	130.15
821	8.5278	-7.0037	0.	118.8
822	8.5249	-7.5046	0.	122.18
823	-4.9994	-5.5003	0.	127.87
824	-4.4983	-6.0007	0.	131.67
825	-7.9639	2.9862	0.	116.33
826	-0.99092	-6.9244	0.	119.03
827	3.9265	-5.7688	0.	134.39
828	3.9417	-6.2686	0.	126.73
829	3.8811	-6.7445	0.	129.59
830	-6.9999	-7.	0.	116.06
831	-4.9992	-6.0003	0.	127.8
832	0.35344	-8.9384	0.	130.67
833	0.87712	-8.9556	0.	130.68
834	2.4478	-9.028	0.	130.73
835	3.4672	-9.0463	0.	129.34
836	3.974	-9.0407	0.	127.49
837	4.4788	-9.0197	0.	124.71
838	5.485	-8.9873	0.	118.7
839	6.4971	-8.9889	0.	121.91
840	7.5059	-9.0008	0.	126.05
841	8.0062	-9.0023	0.	126.09
842	8.5051	-9.0022	0.	125.87
843	0.49476	-3.5202	0.	132.88
844	-1.5003	-3.5	0.	126.72
845	-1.4999	-0.50006	0.	130.13
846	0.50383	-0.50648	0.	129.89
847	5.5	5.5	0.	130.45
848	5.5	7.5	0.	132.16
849	8.5	7.5	0.	131.61
850	8.5	5.5	0.	127.39
851	-5.5	-3.5001	0.	134.03
852	-8.5	-3.5	0.	128.61
853	-8.9999	-8.5	0.	126.88
854	-9.	-4.	0.	130.92
855	-9.	-3.5	0.	130.93
856	-9.	-3.	0.	130.06
857	-6.5	-2.5	0.	122.06
858	8.9983	-3.1725e-003	0.	124.21
859	8.9971	-0.50425	0.	124.42
860	8.9911	-2.5062	0.	124.41
861	8.9918	-3.0048	0.	124.04
862	7.5195	-4.5244	0.	133.93
863	6.6625	-5.0756	0.	137.63
864	6.5216	-7.9865	0.	131.9
865	-0.49993	4.4999	0.	130.86
866	2.5	4.5	0.	134.2
867	2.5	2.5	0.	133.42
868	-0.49976	2.4998	0.	129.66
869	-6.498	2.9849	0.	125.16
870	-6.4662	5.7336	0.	130.14
871	-2.496	-9.073	0.	137.25
872	-2.9834	-9.046	0.	130.63
873	-3.4791	-9.0161	0.	130.2
874	-3.9802	-9.002	0.	130.23
875	-4.4854	-8.9989	0.	128.62
876	-4.9908	-8.999	0.	122.89
877	-5.4948	-8.9996	0.	117.92
878	-5.9973	-8.9998	0.	119.07
879	-6.4986	-9.	0.	122.55
880	-6.9992	-9.	0.	123.56
881	-7.4996	-9.	0.	123.71
882	-8.9999	-9.	0.	126.81
883	-6.4988	-8.5001	0.	125.68
884	-4.4781	-8.4981	0.	132.31
885	6.5	4.5	0.	133.07
886	6.5001	1.4996	0.	136.06
887	-8.9997	0.49967	0.	129.51
888	-8.9988	1.0002	0.	130.13
889	-8.9958	1.5028	0.	130.09
890	-8.9863	2.0101	0.	131.38
891	-8.9726	2.5144	0.	132.85
892	-8.9311	3.5094	0.	135.37
893	-8.8232	4.0019	0.	132.47
894	-9.0357	4.5083	0.	126.49
895	-9.0926	4.9651	0.	132.73
896	-9.0328	5.4191	0.	130.63
897	-8.9247	5.8814	0.	128.72
898	-8.9496	6.3955	0.	126.48
899	-8.9775	6.9267	0.	125.54
900	-8.9932	7.4567	0.	125.15
901	-9.0018	7.9787	0.	125.03
902	-9.0024	8.9972	0.	124.95
903	-8.5047	8.999	0.	124.58
904	-8.0073	9.0003	0.	124.3
905	-7.5092	9.0047	0.	124.21
906	-7.0095	9.0088	0.	124.33
907	-6.5086	9.0086	0.	124.63
908	-6.0069	9.0047	0.	125.03
909	-5.5059	8.998	0.	125.46
910	-5.006	8.9925	0.	125.89
911	-4.5067	8.9898	0.	126.35
912	-4.0078	8.9893	0.	126.93
913	-3.5069	8.991	0.	127.71
914	-3.0057	8.9934	0.	128.58
915	-2.5042	8.9958	0.	127.94
916	-2.0028	8.998	0.	123.45
917	-1.5017	8.9993	0.	120.19
918	-1.0008	8.9998	0.	123.17
919	-0.50038	8.9999	0.	127.53
920	-1.8636e-004	9.	0.	128.16
921	0.49991	9.	0.	127.32
922	2.	9.	0.	126.17
923	2.5	9.	0.	126.19
924	3.	9.	0.	126.3
925	3.5	9.	0.	126.45
926	4.	9.	0.	126.61
927	4.5	9.	0.	126.69
928	5.	9.	0.	126.5
929	5.5	9.	0.	125.75
930	6.	9.	0.	124.38
931	6.5	9.	0.	122.95
932	8.5	9.	0.	125.01
933	9.	9.	0.	125.68
934	9.	8.5	0.	126.88
935	9.	8.	0.	128.4
936	9.	7.5	0.	129.17
937	9.	7.	0.	128.01
938	9.	6.5	0.	126.32
939	8.9995	0.99894	0.	124.3
940	-3.4999	-4.5002	0.	135.32
941	-3.4907	-6.5054	0.	137.52
942	-0.49854	-6.4373	0.	131.14
943	-8.9999	-1.8265e-004	0.	130.43
944	-6.	-1.0001	0.	123.45
945	-5.5	-0.50033	0.	133.87
946	-5.4904	2.4778	0.	136.38
947	-8.4774	2.5172	0.	130.8
948	-2.5057	8.4943	0.	131.93
949	-2.5034	5.4934	0.	131.85
950	-0.5001	5.4999	0.	131.32
951	-0.50031	8.5	0.	131.24
952	-0.50009	8.	0.	130.46
953	-0.50002	7.5	0.	132.48
954	-0.50001	7.	0.	133.97
955	-0.50004	6.	0.	129.96
956	-0.50001	6.5	0.	132.34
957	-1.0003	5.4998	0.	124.08
958	-2.0016	5.498	0.	123.56
959	-1.5006	5.4994	0.	111.99
960	-2.5049	5.9933	0.	131.57
961	-2.5063	6.4931	0.	133.7
962	-2.5069	6.993	0.	135.39
963	-2.5061	7.9935	0.	131.3
964	-2.5069	7.4931	0.	133.77
965	-1.0006	8.4999	0.	123.44
966	-1.5014	8.4995	0.	112.03
967	-2.003	8.498	0.	124.07
968	-7.986	2.4933	0.	118.13
969	-7.4948	2.478	0.	105.33
970	-7.0017	2.5028	0.	108.18
971	-5.9954	2.4842	0.	128.74
972	-6.502	2.4957	0.	113.92
973	-5.496	1.9885	0.	134.58
974	-5.4985	1.4941	0.	135.85
975	-5.4995	0.99681	0.	137.2
976	-5.4999	-1.0009e-003	0.	133.64
977	-5.4998	0.49829	0.	135.69
978	-6.	-0.50011	0.	126.95
979	-6.5	-0.50002	0.	117.16
980	-8.4999	-1.3806e-004	0.	126.
981	-8.4998	0.4999	0.	129.64
982	-8.4917	2.008	0.	129.79
983	-8.4972	1.5026	0.	131.2
984	-8.4992	1.0007	0.	132.22
985	-0.50192	-5.9696	0.	128.47
986	-0.50326	-5.4876	0.	127.28
987	-0.99794	-6.4601	0.	120.47
988	-1.4952	-6.4761	0.	111.29
989	-2.9886	-6.5063	0.	129.66
990	-2.4901	-6.4705	0.	118.97
991	-3.4972	-6.0026	0.	135.52
992	-3.4997	-5.0005	0.	133.83
993	-3.4992	-5.5011	0.	133.76
994	-3.	-4.5001	0.	128.88
995	-2.5001	-4.5	0.	119.19
996	-2.0003	-4.5	0.	118.78
997	-1.0016	-4.5001	0.	123.04
998	-1.5008	-4.5001	0.	116.42
999	8.9998	1.4995	0.	126.33
1000	8.4998	1.4994	0.	115.16
1001	7.9998	1.4994	0.	115.09
1002	7.	1.4995	0.	127.7
1003	7.4999	1.4994	0.	115.62
1004	7.	4.5	0.	123.99
1005	9.	4.5	0.	128.02
1006	8.5	4.5	0.	116.49
1007	8.	4.5	0.	114.83
1008	7.5	4.5	0.	113.31
1009	-4.4981	-6.9999	0.	136.34
1010	-4.4811	-7.9991	0.	132.09
1011	-4.4936	-7.5	0.	133.94
1012	-4.9897	-8.4992	0.	124.84
1013	-5.9977	-8.5	0.	119.33
1014	-5.4953	-8.4999	0.	112.
1015	-6.4996	-8.0001	0.	124.83
1016	-6.5	-7.	0.	120.46
1017	-6.4999	-7.5	0.	123.21
1018	-4.9992	-6.5002	0.	129.06
1019	-5.4997	-6.5	0.	120.04
1020	-2.9847e-003	-3.5068	0.	123.45
1021	-1.0007	-3.5004	0.	121.72
1022	-0.50151	-3.5018	0.	111.48
1023	-1.5001	-3.	0.	127.21
1024	-1.5	-2.5	0.	131.12
1025	-1.5	-2.	0.	133.1
1026	-1.5	-1.	0.	129.83
1027	-1.5	-1.5	0.	131.67
1028	-0.99974	-0.50017	0.	120.98
1029	1.998e-003	-0.5024	0.	121.71
1030	-0.49924	-0.5006	0.	109.65
1031	0.50408	-1.0078	0.	129.79
1032	0.49873	-3.0167	0.	132.43
1033	0.50185	-2.5136	0.	133.45
1034	0.50384	-2.0114	0.	134.9
1035	0.50454	-1.5095	0.	133.01
1036	5.5	6.	0.	130.44
1037	5.5	7.	0.	130.21
1038	5.5	6.5	0.	129.79
1039	6.	7.5	0.	126.5
1040	6.5	7.5	0.	117.13
1041	7.	7.5	0.	117.52
1042	8.	7.5	0.	125.47
1043	7.5	7.5	0.	116.71
1044	8.5	7.	0.	129.91
1045	8.5	6.	0.	128.1
1046	8.5	6.5	0.	128.67
1047	6.	5.5	0.	125.26
1048	6.5	5.5	0.	117.84
1049	7.	5.5	0.	117.21
1050	7.5	5.5	0.	113.85
1051	8.	5.5	0.	120.54
1052	-5.4999	-4.0001	0.	132.87
1053	-5.4999	-4.5001	0.	133.54
1054	-5.4998	-5.0001	0.	134.09
1055	-5.4996	-6.0001	0.	125.7
1056	-5.4997	-5.5001	0.	131.36
1057	-5.9999	-6.5	0.	126.04
1058	-6.5	-6.5	0.	118.7
1059	-7.	-6.5	0.	115.64
1060	-8.	-6.5	0.	125.46
1061	-7.5	-6.5	0.	114.69
1062	-8.5	-6.	0.	132.7
1063	-8.5	-5.5	0.	134.75
1064	-8.5	-5.	0.	135.91
1065	-8.5	-4.	0.	130.03
1066	-8.5	-4.5	0.	133.4
1067	-8.	-3.5	0.	119.29
1068	-6.	-3.5	0.	125.16
1069	-6.5	-3.5	0.	113.12
1070	-7.	-3.5	0.	111.04
1071	-7.5	-3.5	0.	109.29
1072	-9.	-0.50008	0.	132.69
1073	-8.5	-0.50006	0.	123.65
1074	-8.	-0.50002	0.	116.94
1075	-7.	-0.5	0.	112.24
1076	-7.5	-0.5	0.	105.84
1077	-6.5	-1.	0.	119.51
1078	-6.5	-2.	0.	121.08
1079	-6.5	-1.5	0.	120.29
1080	-7.	-2.5	0.	115.07
1081	-9.	-2.5	0.	130.58
1082	-8.5	-2.5	0.	118.22
1083	-8.	-2.5	0.	114.21
1084	-7.5	-2.5	0.	109.1
1085	6.0001	1.4999	0.	125.78
1086	5.0002	1.5012	0.	124.49
1087	5.5002	1.5005	0.	113.01
1088	4.5	2.001	0.	132.29
1089	4.5	2.5005	0.	134.27
1090	4.5	3.0002	0.	135.55
1091	4.5	4.	0.	132.84
1092	4.5	3.5001	0.	134.06
1093	5.	4.5	0.	125.89
1094	5.5	4.5	0.	114.23
1095	6.5	4.	0.	132.66
1096	6.5	3.5	0.	139.3
1097	6.5	1.9998	0.	134.79
1098	6.5	2.5	0.	139.96
1099	6.5	3.	0.	142.82
1100	9.0105	-6.5003	0.	122.41
1101	8.0404	-6.5055	0.	121.09
1102	8.5205	-6.5015	0.	112.13
1103	7.5674	-6.0145	0.	131.13
1104	7.5473	-5.019	0.	133.54
1105	7.5612	-5.5158	0.	133.58
1106	8.0056	-4.5083	0.	125.76
1107	8.9995	-4.5009	0.	123.07
1108	8.5004	-4.5031	0.	113.84
1109	6.6986	-5.5407	0.	133.22
1110	6.6918	-6.0219	0.	135.51
1111	6.6703	-6.513	0.	136.62
1112	6.5956	-7.5	0.	135.09
1113	6.6409	-7.0071	0.	131.62
1114	5.9668	-7.9303	0.	108.2
1115	4.3415	-6.8535	0.	135.55
1116	4.7528	-7.0957	0.	124.07
1117	4.4152	-5.7932	0.	133.54
1118	4.876	-5.6427	0.	119.54
1119	6.2213	-5.1173	0.	113.62
1120	5.7732	-5.2419	0.	112.63
1121	5.3213	-5.4229	0.	114.32
1122	2.4066e-005	4.5	0.	126.81
1123	0.50001	4.5	0.	118.19
1124	1.	4.5	0.	118.87
1125	2.	4.5	0.	127.63
1126	1.5	4.5	0.	118.37
1127	2.5	4.	0.	132.46
1128	2.5	3.	0.	131.94
1129	2.5	3.5	0.	131.72
1130	2.	2.4999	0.	126.88
1131	1.5	2.4999	0.	117.48
1132	1.	2.4999	0.	117.49
1133	1.4413e-004	2.4998	0.	124.03
1134	0.50006	2.4999	0.	116.21
1135	-0.49972	2.9998	0.	128.69
1136	-0.49979	3.9999	0.	128.64
1137	-0.49973	3.4999	0.	128.2
1138	-7.4446	3.3205	0.	106.96
1139	-7.8791	3.4672	0.	111.06
1140	-8.6744	4.7897	0.	134.38
1141	-8.3025	4.9734	0.	130.56
1142	-6.8951	5.6912	0.	121.71
1143	-7.2732	5.6032	0.	103.4
1144	-6.4778	5.2714	0.	130.47
1145	-6.4734	4.8196	0.	126.16
1146	-6.4634	3.4597	0.	127.73
1147	-6.456	3.9204	0.	125.57
1148	-6.4632	4.3708	0.	129.68
1149	-0.56268	-8.121	0.	141.49
1150	-0.80203	-7.7549	0.	127.95
1151	-0.95456	-7.3665	0.	123.5
1152	-2.4497	-8.621	0.	120.56
1153	-2.3336	-8.1992	0.	132.75
1154	-2.0357	-7.3875	0.	125.77
1155	-2.1801	-7.7984	0.	126.5
1156	9.5	9.	0.	125.91
1157	9.5	8.5	0.	126.72
1158	9.5	8.	0.	127.37
1159	9.5	7.5	0.	127.54
1160	9.5	7.	0.	127.21
1161	9.5	6.5	0.	127.48
1162	9.5	6.	0.	128.86
1163	9.5	5.5	0.	130.92
1164	9.5	5.	0.	133.04
1165	9.5	4.5	0.	136.92
1166	9.5	4.	0.	137.09
1167	9.5	3.5	0.	138.51
1168	9.5	3.	0.	139.78
1169	9.5	2.5	0.	137.95
1170	9.5	1.9999	0.	135.41
1171	9.4999	1.4997	0.	134.82
1172	9.4997	0.99946	0.	130.6
1173	9.4994	0.49888	0.	128.64
1174	9.499	-1.5954e-003	0.	127.45
1175	9.4983	-0.50229	0.	126.61
1176	9.4976	-1.0029	0.	126.06
1177	9.4968	-1.503	0.	125.75
1178	9.4961	-2.0029	0.	125.62
1179	9.4959	-2.5025	0.	125.65
1180	9.4963	-3.0018	0.	125.8
1181	9.4973	-3.5011	0.	126.06
1182	9.4985	-4.0006	0.	126.93
1183	9.4996	-4.5003	0.	130.18
1184	9.5	-5.0001	0.	130.29
1185	9.5001	-5.5	0.	129.97
1186	9.5011	-5.9998	0.	129.03
1187	9.5046	-6.4999	0.	128.65
1188	9.5074	-7.0006	0.	125.46
1189	9.5069	-7.5011	0.	124.93
1190	9.505	-8.0013	0.	125.28
1191	9.5031	-8.5011	0.	125.75
1192	9.5017	-9.0008	0.	126.15
1193	9.5007	-9.5005	0.	126.4
1194	9.0015	-9.5008	0.	126.08
1195	8.5021	-9.5011	0.	125.94
1196	8.0024	-9.501	0.	125.75
1197	7.5019	-9.4999	0.	125.1
1198	7.0004	-9.4976	0.	123.65
1199	6.4985	-9.4945	0.	121.52
1200	5.996	-9.4926	0.	119.81
1201	5.4948	-9.4946	0.	119.73
1202	4.9936	-9.4998	0.	121.49
1203	4.4917	-9.5095	0.	124.18
1204	3.9881	-9.5183	0.	126.82
1205	3.4829	-9.521	0.	128.84
1206	2.9779	-9.519	0.	130.15
1207	2.4711	-9.5125	0.	130.93
1208	1.9623	-9.5021	0.	131.42
1209	1.4505	-9.4902	0.	131.86
1210	0.94072	-9.4779	0.	132.38
1211	0.43393	-9.4743	0.	133.28
1212	-6.6856e-002	-9.4888	0.	133.34
1213	-0.56085	-9.5045	0.	126.79
1214	-1.0472	-9.5197	0.	115.22
1215	-1.5303	-9.5323	0.	109.18
1216	-2.0152	-9.5386	0.	119.68
1217	-2.5045	-9.5349	0.	130.73
1218	-2.998	-9.5231	0.	132.85
1219	-3.4943	-9.5101	0.	131.7
1220	-3.993	-9.5024	0.	130.15
1221	-4.4934	-9.4996	0.	127.2
1222	-4.995	-9.4993	0.	123.13
1223	-5.4968	-9.4996	0.	120.04
1224	-5.9981	-9.4998	0.	119.88
1225	-6.4989	-9.4999	0.	121.51
1226	-6.9994	-9.5	0.	122.97
1227	-7.4997	-9.5	0.	123.87
1228	-7.9998	-9.5	0.	124.71
1229	-8.4999	-9.5	0.	125.72
1230	-9.	-9.5	0.	126.82
1231	-9.5	-9.5	0.	127.86
1232	-9.5	-9.	0.	127.99
1233	-9.5	-8.5	0.	128.23
1234	-9.5	-8.	0.	128.63
1235	-9.5	-7.5	0.	129.19
1236	-9.5	-7.	0.	129.69
1237	-9.5	-6.5	0.	129.78
1238	-9.5	-6.	0.	129.29
1239	-9.5	-5.5	0.	128.94
1240	-9.5	-5.	0.	129.14
1241	-9.5	-4.5	0.	130.14
1242	-9.5	-4.	0.	131.79
1243	-9.5	-3.5	0.	133.76
1244	-9.5	-3.	0.	135.74
1245	-9.5	-2.5	0.	139.54
1246	-9.5	-2.	0.	139.6
1247	-9.5	-1.5	0.	139.6
1248	-9.5	-1.	0.	139.58
1249	-9.5	-0.50005	0.	139.22
1250	-9.5	-1.1201e-004	0.	134.56
1251	-9.4996	0.50026	0.	132.36
1252	-9.4989	1.0024	0.	131.37
1253	-9.4966	1.5037	0.	131.41
1254	-9.4913	2.0059	0.	132.2
1255	-9.4819	2.5077	0.	133.18
1256	-9.4686	3.0068	0.	133.61
1257	-9.4541	3.5043	0.	132.5
1258	-9.4081	3.9967	0.	130.1
1259	-9.4968	4.4863	0.	128.1
1260	-9.5319	4.9809	0.	128.87
1261	-9.513	5.4706	0.	129.88
1262	-9.476	5.9561	0.	129.13
1263	-9.4743	6.4522	0.	128.23
1264	-9.4854	6.9609	0.	127.34
1265	-9.4941	7.4735	0.	126.62
1266	-9.4989	7.9848	0.	126.04
1267	-9.5007	8.4928	0.	125.6
1268	-9.5009	8.9972	0.	125.29
1269	-9.5005	9.4991	0.	125.05
1270	-9.0013	9.4992	0.	124.88
1271	-8.5024	9.4999	0.	124.7
1272	-8.0034	9.5007	0.	124.58
1273	-7.5041	9.5024	0.	124.57
1274	-7.0045	9.5036	0.	124.7
1275	-6.5037	9.5038	0.	124.96
1276	-6.0028	9.502	0.	125.31
1277	-5.5022	9.4992	0.	125.71
1278	-5.0023	9.4968	0.	126.11
1279	-4.5027	9.4954	0.	126.48
1280	-4.0031	9.495	0.	126.79
1281	-3.5032	9.4956	0.	127.
1282	-3.0028	9.4966	0.	126.91
1283	-2.5023	9.4978	0.	126.02
1284	-2.0016	9.4987	0.	124.37
1285	-1.5011	9.4994	0.	123.35
1286	-1.0006	9.4997	0.	124.24
1287	-0.50034	9.4999	0.	125.82
1288	-1.8109e-004	9.5	0.	126.72
1289	0.49991	9.5	0.	126.89
1290	0.99996	9.5	0.	126.86
1291	1.5	9.5	0.	126.81
1292	2.	9.5	0.	126.78
1293	2.5	9.5	0.	126.75
1294	3.	9.5	0.	126.72
1295	3.5	9.5	0.	126.66
1296	4.	9.5	0.	126.52
1297	4.5	9.5	0.	126.26
1298	5.	9.5	0.	125.79
1299	5.5	9.5	0.	125.07
1300	6.	9.5	0.	124.18
1301	6.5	9.5	0.	123.38
1302	7.	9.5	0.	122.97
1303	7.5	9.5	0.	123.09
1304	8.	9.5	0.	123.62
1305	8.5	9.5	0.	124.27
1306	9.	9.5	0.	124.8
1307	-2.0218	-9.0797	0.	125.48
1308	-1.5629	-9.0632	0.	102.12
1309	-1.109	-9.0372	0.	110.23
1310	-0.64629	-9.0086	0.	133.6
1311	9.0156	-7.0016	0.	121.48
1312	-1.9987	2.4989	0.	125.68
1313	-4.4962	4.9376	0.	127.41
1314	4.4237	-3.3486	0.	124.89
1315	7.0114	-8.4968	0.	127.66
1316	2.9352	-6.1641	0.	127.16
1317	-6.0882	6.6916	0.	125.45
1318	7.4961	-0.50793	0.	121.24
1319	7.5757	-6.5135	0.	130.1
1320	9.0149	-7.5025	0.	122.93
1321	-5.5	-1.5001	0.	125.91
1322	1.5	5.	0.	121.4
1323	7.4983	-4.7742e-003	0.	120.59
1324	6.5257e-004	0.99891	0.	121.45
1325	1.1338e-003	0.49806	0.	121.03
1326	-2.4999	-1.2637e-004	0.	128.91
1327	-2.4968	2.9967	0.	125.67
1328	-3.0113	7.9879	0.	129.93
1329	1.5	8.	0.	125.21
1330	2.5309	-1.5395	0.	127.77
1331	-4.9838	2.9652	0.	132.39
1332	1.009	-1.5182	0.	129.31
1333	-2.	-1.5	0.	128.52
1334	-3.0142	6.9849	0.	130.19
1335	-6.0508	7.533	0.	124.42
1336	0.50025	1.4993	0.	120.34
1337	1.5035	-8.3849e-003	0.	127.46
1338	6.9667	-2.5384	0.	122.88
1339	7.5	8.	0.	119.83
1340	-1.4994	1.9996	0.	126.18
1341	5.9984	-1.0032	0.	122.88
1342	-3.4996	0.4992	0.	128.86
1343	7.9783	-3.5182	0.	123.53
1344	1.	7.	0.	124.28
1345	5.1348	-7.3862	0.	115.94
1346	6.9972	-0.50727	0.	121.79
1347	-5.	-1.5001	0.	128.8
1348	6.9376	-3.5658	0.	125.08
1349	1.5001	1.4993	0.	122.55
1350	3.0133	-2.6395	0.	127.91
1351	-7.9997	-8.5	0.	123.74
1352	3.4959	-2.7512	0.	127.2
1353	6.	4.5	0.	125.77
1354	4.	8.	0.	127.04
1355	2.	1.9997	0.	125.82
1356	-8.0117	8.4981	0.	123.79
1357	7.5	8.5	0.	121.51
1358	9.	6.	0.	127.67
1359	-3.9995	-5.0006	0.	131.09
1360	7.4642	-3.0344	0.	123.78
1361	-5.5454	6.3698	0.	127.37
1362	-1.4499e-005	6.5	0.	127.14
1363	-3.5	-4.0001	0.	132.08
1364	4.0106	-0.96607	0.	126.6
1365	-2.5	-1.	0.	128.73
1366	7.0024	-8.9958	0.	124.81
1367	8.9966	-4.0021	0.	122.36
1368	-2.9997	0.49951	0.	128.59
1369	5.9905	-8.9835	0.	118.87
1370	4.3535	-4.2911	0.	126.34
1371	-4.4849	3.9533	0.	128.21
1372	8.4881	-2.011	0.	123.55
1373	7.9989	0.49687	0.	118.48
1374	5.	6.5	0.	126.5
1375	-4.4986	0.99634	0.	129.97
1376	7.4809	-2.0228	0.	122.59
1377	-8.9999	-8.	0.	127.24
1378	2.5	6.5	0.	125.95
1379	1.5	8.5	0.	125.79
1380	-5.4839	2.9617	0.	132.56
1381	-0.50331	-4.9962	0.	126.69
1382	-4.5189	5.9365	0.	127.71
1383	2.9999	2.5002	0.	131.33
1384	-4.4969	1.493	0.	130.34
1385	4.9813	-2.4444	0.	123.6
1386	7.9759	-3.0205	0.	123.27
1387	8.5102	-8.5034	0.	125.45
1388	4.5	6.	0.	128.25
1389	-3.9998	-4.5003	0.	132.6
1390	3.9493	-8.5687	0.	128.68
1391	-4.4889	4.4445	0.	127.47
1392	-8.5073	8.4931	0.	124.32
1393	4.	4.	0.	131.67
1394	-1.4996	4.4991	0.	122.68
1395	-8.0027	6.9567	0.	121.01
1396	-3.0017	4.986	0.	129.21
1397	1.9318	-9.0092	0.	130.85
1398	8.999	0.4977	0.	124.05
1399	-7.	-3.	0.	111.95
1400	-8.	-3.	0.	115.18
1401	4.5	8.5	0.	127.38
1402	3.	5.	0.	131.91
1403	7.	9.	0.	122.24
1404	-9.	-5.	0.	131.02
1405	3.5	3.0001	0.	129.35
1406	-2.8466	-8.1178	0.	124.
1407	7.4792	-4.0329	0.	128.49
1408	3.5	8.5	0.	126.4
1409	-8.4999	-7.	0.	128.38
1410	8.9937	-1.5064	0.	124.58
1411	-2.5167	-7.2984	0.	125.52
1412	-5.049	7.4544	0.	126.15
1413	-5.0144	8.4849	0.	125.81
1414	5.5008	0.50202	0.	123.14
1415	4.	2.5004	0.	130.8
1416	-1.4987	3.499	0.	123.49
1417	-4.5251	7.9717	0.	126.44
1418	5.2289	-4.8827	0.	117.28
1419	3.5	8.	0.	126.39
1420	5.5005	1.0012	0.	120.78
1421	-8.3559	5.737	0.	124.18
1422	9.0108	-8.0027	0.	124.35
1423	-0.49915	0.49902	0.	120.29
1424	-3.498	1.497	0.	128.44
1425	4.5	5.5	0.	129.93
1426	3.8278	-7.2023	0.	132.86
1427	4.	1.5019	0.	132.28
1428	7.9891	-1.5137	0.	122.59
1429	5.	8.	0.	128.96
1430	5.4897	-1.9894	0.	123.1
1431	-8.5019	7.4545	0.	123.55
1432	9.5	9.5	0.	125.18
1433	-2.4964	3.4956	0.	125.26
1434	4.9574	-8.4738	0.	121.54
1435	3.	3.5	0.	128.37
1436	-9.	-6.5	0.	131.26
1437	8.9934	-3.5036	0.	123.33
1438	5.5531	-7.6048	0.	116.5
1439	-1.9998	0.49983	0.	127.4
1440	8.4938	-1.0082	0.	123.06
1441	8.0137	-8.504	0.	126.27
1442	6.4638	-2.5397	0.	122.59
1443	-5.9696	4.3849	0.	124.51
1444	-3.4453	-8.5094	0.	127.58
1445	-6.	-3.	0.	124.52
1446	2.9304	-8.0933	0.	130.39
1447	-0.9992	3.4995	0.	123.67
1448	-4.5382	7.4604	0.	126.61
1449	-5.4765	3.443	0.	129.13
1450	4.	3.5001	0.	130.32
1451	4.9805	-8.9942	0.	121.28
1452	8.5	8.	0.	128.02
1453	3.	8.	0.	125.88
1454	-2.5	-0.50006	0.	129.18
1455	1.9214	-8.5211	0.	130.12
1456	8.	8.	0.	124.2
1457	2.	5.	0.	126.15
1458	7.1018	-7.0119	0.	129.59
1459	-4.4979	-6.5003	0.	137.1
1460	-2.5	-1.5	0.	128.09
1461	0.99995	9.	0.	126.65
1462	9.0068	-8.5023	0.	125.33
1463	-7.6362	5.4343	0.	115.21
1464	-7.4102	6.0476	0.	114.13
1465	-7.5217	8.0099	0.	122.7
1466	7.9977	-5.2621e-003	0.	120.19
1467	4.5	8.	0.	127.9
1468	-4.5147	8.4817	0.	126.38
1469	-8.4999	-8.5	0.	125.3
1470	-8.4999	-9.	0.	125.54
1471	6.	8.5	0.	124.54
1472	2.9572	-9.0406	0.	130.32
1473	7.9842	-2.0167	0.	122.9
1474	-3.9987	0.99727	0.	129.08
1475	1.4739	-6.5385	0.	128.19
1476	1.4758	-5.5617	0.	127.88
1477	5.9846	-8.4691	0.	117.07
1478	0.98565	-4.5408	0.	129.
1479	3.	5.5	0.	130.03
1480	5.5	8.	0.	128.72
1481	4.0214	-2.3669	0.	125.85
1482	4.5863	-7.4872	0.	128.28
1483	5.	7.	0.	128.01
1484	2.	7.	0.	124.68
1485	3.4462	-8.5763	0.	130.04
1486	0.49095	-4.5195	0.	127.62
1487	-5.519e-003	-5.4884	0.	124.85
1488	-0.99981	4.4997	0.	125.57
1489	-5.	-2.	0.	128.71
1490	3.5108	-0.97938	0.	127.34
1491	-3.9931	4.4623	0.	128.05
1492	-7.4996	-8.5	0.	122.86
1493	8.4875	-3.5086	0.	122.18
1494	0.49998	6.	0.	124.38
1495	0.24139	-8.366	0.	127.6
1496	-2.	-2.	0.	128.42
1497	4.5002	1.5022	0.	133.15
1498	4.0043	-0.47986	0.	127.27
1499	7.4992	0.49714	0.	119.81
1500	3.0345	-1.5255	0.	127.43
1501	2.5016	-3.3604e-003	0.	128.51
1502	-8.0149	7.9905	0.	123.07
1503	4.9084	-3.3995	0.	122.95
1504	-1.9868	-6.9357	0.	117.06
1505	-5.483	4.8856	0.	125.83
1506	-3.9999	-4.0001	0.	132.78
1507	4.5	5.	0.	131.56
1508	3.4183	-8.1094	0.	130.72
1509	-8.9481	3.0229	0.	134.06
1510	-7.5066	2.9229	0.	105.38
1511	-4.5	-3.	0.	131.97
1512	-5.5146	8.4945	0.	125.28
1513	3.5283	-1.4624	0.	126.92
1514	2.5	8.5	0.	125.77
1515	-0.30232	-8.5076	0.	118.02
1516	-4.9988	0.99538	0.	131.94
1517	5.0011	0.50496	0.	124.84
1518	-3.	-1.	0.	128.84
1519	7.4724	-2.5291	0.	123.03
1520	2.9376	-5.1879	0.	129.97
1521	-8.5	-6.5	0.	133.01
1522	1.9588	-6.5777	0.	127.8
1523	1.9663	-5.1042	0.	128.95
1524	1.9936	-3.0766	0.	129.79
1525	-0.50317	-4.5005	0.	127.08
1526	3.8806	-4.755	0.	130.2
1527	8.4987	0.49697	0.	120.08
1528	-2.0003	-4.	0.	121.
1529	-5.0454	6.418	0.	127.36
1530	-3.9989	-5.501	0.	130.15
1531	-9.0033	8.4902	0.	124.99
1532	1.9303	-8.036	0.	129.46
1533	-2.9979	4.4873	0.	127.68
1534	8.9955	-1.0056	0.	124.53
1535	-5.5	-2.	0.	125.92
1536	-2.5	-2.5	0.	126.84
1537	3.504	-0.48749	0.	127.99
1538	9.0037	-9.0016	0.	125.86
1539	0.50298	-4.9482e-003	0.	125.43
1540	1.5	1.9997	0.	120.61
1541	-4.9803	3.4511	0.	129.82
1542	3.	4.	0.	130.6
1543	9.	5.	0.	127.72
1544	-9.	-5.5	0.	130.59
1545	8.	8.5	0.	123.91
1546	7.5	9.	0.	122.64
1547	-2.9393	-8.5706	0.	126.98
1548	6.606	-4.6176	0.	126.68
1549	-5.9765	4.854	0.	125.46
1550	4.	5.	0.	132.44
1551	1.4068	-8.9846	0.	130.8
1552	8.5177	-8.0044	0.	124.3
1553	5.5	8.5	0.	126.79
1554	1.5	9.	0.	126.29
1555	3.3796	-7.1649	0.	129.72
1556	7.4874	-1.5172	0.	122.21
1557	-8.4826	6.9068	0.	123.27
1558	-7.0348	3.0364	0.	103.1
1559	-8.4458	3.0482	0.	128.13
1560	-1.492	-6.969	0.	108.49
1561	3.8955	-5.258	0.	132.68
1562	6.5001	0.99909	0.	128.01
1563	8.	9.	0.	123.81
1564	-0.15717	-8.9817	0.	134.89
1565	-5.9917	5.7978	0.	129.25
1566	-4.9973	1.4917	0.	131.83
1567	-9.	-7.	0.	129.88
1568	-7.5268	7.5125	0.	121.55
1569	7.9788	-2.52	0.	123.1
1570	0.9852	-6.4981	0.	128.72
1571	2.9999	1.5006	0.	130.88
1572	-1.4997	0.49975	0.	125.31
1573	3.5595	-2.3149	0.	126.79
1574	4.913	-7.8951	0.	122.1
1575	3.4157	-4.2223	0.	129.71
1576	5.3193	-3.9228	0.	120.37
1577	8.5	5.	0.	121.6
1578	2.9429	-8.5658	0.	130.45
1579	-4.	-3.	0.	131.21
1580	8.496	-0.50634	0.	122.45
1581	-6.5166	8.5161	0.	124.15
1582	4.5	4.5	0.	134.42
1583	2.9176	-7.6149	0.	129.8
1584	-7.8561	5.9141	0.	117.32
1585	-7.9997	-9.	0.	124.4
1586	4.	8.5	0.	126.87
1587	-7.5	-3.	0.	110.68
1588	3.4576	-3.2327	0.	127.84
1589	3.5013	7.7739e-003	0.	128.87
1590	8.4911	-1.5099	0.	123.41
1591	5.7425	-4.7265	0.	113.68
1592	5.0006	1.0029	0.	124.08
1593	-9.	-6.	0.	131.19
1594	-9.	-4.5	0.	130.5
1595	-0.49962	1.9996	0.	125.89
1596	-0.49892	-1.1849e-003	0.	117.21
1597	7.1202	-6.5168	0.	131.4
1598	-5.9876	2.9667	0.	129.14
1599	-8.5835	5.3588	0.	131.89
1600	-4.9895	2.4772	0.	133.7
1601	-3.9955	-6.5009	0.	136.36
1602	-6.5	-3.	0.	117.64
1603	-8.5	-3.	0.	122.77
1604	9.	5.5	0.	128.45
1605	-8.9999	-7.5	0.	128.19
1606	-6.9992	-8.5	0.	123.48
1607	-6.9998	-7.5	0.	117.69
1608	-2.	-2.5	0.	127.03
1609	-2.5001	-4.	0.	123.
1610	5.4665	-8.4808	0.	116.57
1611	8.4994	0.99821	0.	118.28
1612	-3.5193	6.4727	0.	128.56
1613	-4.499	-5.5007	0.	129.28
1614	2.4999	1.4998	0.	129.14
1615	8.9922	-2.0066	0.	124.55
1616	4.7767	-4.7579	0.	123.45
1617	2.	8.5	0.	125.65
1618	4.0003	1.0043	0.	131.16
1619	6.0005	0.49989	0.	123.78
1620	-3.5013	4.974	0.	128.85
1621	-4.4994	0.49793	0.	130.1
1622	2.9223	-6.6468	0.	127.27
1623	1.5065	-2.5431	0.	129.57
1624	1.5147	-1.5275	0.	128.45
1625	3.5	4.	0.	130.4
1626	8.5	8.5	0.	126.06
1627	7.	8.5	0.	120.61
1628	2.	5.5	0.	125.52
1629	6.9513	-4.07	0.	127.91
1630	-1.4992	2.4994	0.	125.79
1631	3.5	2.5003	0.	130.47
1632	3.	8.5	0.	126.04
1633	-7.5151	8.5066	0.	123.57
1634	0.49071	-5.5032	0.	126.3
1635	5.	8.5	0.	127.62
1636	-2.4971	3.9947	0.	125.31
1637	-0.49936	0.99912	0.	122.11
1638	-5.4739	3.9233	0.	126.37
1639	-3.5	-1.0001	0.	129.28
1640	2.4537	-4.6433	0.	130.01
1641	3.0997	-2.0864	0.	127.39
1642	2.5	7.	0.	125.45
1643	5.4428	-2.9832	0.	122.23
1644	0.49031	-7.391	0.	130.08
1645	0.43469	-7.8645	0.	128.43
1646	-1.9911	-6.4683	0.	115.75
1647	-5.4765	4.4052	0.	125.15
1648	-8.3799	3.637	0.	134.59
1649	-8.0167	5.2589	0.	118.7
1650	4.7063	-6.5113	0.	122.18
1651	4.725	-6.2613	0.	124.5
1652	4.2208	-6.3193	0.	141.65
1653	4.4207	-6.6118	0.	145.84
1654	4.4576	-6.0816	0.	144.69
1655	5.9437	-7.3587	0.	113.91
1656	6.1687	-7.25	0.	137.66
1657	6.3728	-7.5	0.	133.93
1658	6.0584	-7.7151	0.	121.04
1659	6.075	-5.6087	0.	124.55
1660	6.2812	-5.75	0.	144.85
1661	6.4993	-5.5204	0.	139.73
1662	6.2606	-5.3086	0.	130.93
1663	-1.5833	-7.705	0.	106.1
1664	-1.3817	-7.685	0.	95.204
1665	-1.2273	-7.4433	0.	114.92
1666	-1.7678	-7.4538	0.	116.29
1667	-1.496	-7.2445	0.	107.59
1668	-1.9167	-8.445	0.	142.75
1669	-1.7983	-8.61	0.	134.11
1670	-2.2249	-8.6255	0.	142.47
1671	-2.0109	-8.8549	0.	145.49
1672	-0.90833	-8.345	0.	137.35
1673	-0.99167	-8.53	0.	133.26
1674	-0.71815	-8.7593	0.	155.68
1675	-0.54616	-8.5088	0.	147.81
1676	-7.1687	5.0887	0.	113.91
1677	-6.9825	4.99	0.	134.64
1678	-6.9426	5.4456	0.	127.03
1679	-7.1316	5.4016	0.	117.42
1680	-6.7339	5.2357	0.	130.75
1681	-8.2413	4.4212	0.	126.6
1682	-8.2337	4.2112	0.	126.85
1683	-8.6216	4.156	0.	153.75
1684	-8.5472	4.5499	0.	154.65
1685	-6.9375	3.73	0.	135.6
1686	-7.1162	3.6187	0.	114.55
1687	-6.6967	3.4899	0.	130.54
1688	-6.9824	3.2782	0.	119.14
1689	6.	6.75	0.	139.27
1690	6.25	7.	0.	125.8
1691	5.75	7.	0.	132.69
1692	6.	7.25	0.	131.14
1693	6.	6.25	0.	138.43
1694	6.25	6.	0.	125.16
1695	5.75	6.	0.	131.88
1696	6.	5.75	0.	129.62
1697	7.75	7.	0.	124.86
1698	8.	6.75	0.	137.67
1699	8.	7.25	0.	129.82
1700	8.25	7.	0.	131.77
1701	7.75	6.	0.	122.55
1702	8.	6.25	0.	136.31
1703	8.25	6.	0.	129.36
1704	8.	5.75	0.	126.
1705	8.	-5.25	0.	139.87
1706	8.25	-5.	0.	124.2
1707	7.7736	-5.0095	0.	134.8
1708	8.0028	-4.7541	0.	131.23
1709	8.	-5.75	0.	137.69
1710	8.25	-6.	0.	121.22
1711	8.0202	-6.2527	0.	126.75
1712	7.7837	-6.0072	0.	131.4
1713	8.75	-5.	0.	122.61
1714	9.	-5.25	0.	138.54
1715	8.9998	-4.7505	0.	128.23
1716	9.25	-5.0001	0.	131.51
1717	8.75	-6.	0.	121.83
1718	9.	-5.75	0.	138.58
1719	9.0052	-6.2502	0.	127.93
1720	9.2505	-5.9999	0.	130.89
1721	5.	3.75	0.	138.1
1722	5.25	4.	0.	121.27
1723	4.75	4.	0.	133.11
1724	5.	4.25	0.	129.92
1725	5.	2.25	0.	138.11
1726	5.25	2.	0.	121.09
1727	5.0001	1.7506	0.	129.23
1728	4.75	2.0005	0.	132.8
1729	5.75	4.	0.	122.
1730	6.	3.75	0.	138.78
1731	6.25	4.	0.	133.72
1732	6.	4.25	0.	130.62
1733	5.75	2.	0.	121.76
1734	6.	2.25	0.	138.95
1735	6.0001	1.75	0.	130.52
1736	6.25	1.9999	0.	134.74
1737	7.	3.75	0.	139.5
1738	7.25	4.	0.	123.55
1739	7.	4.25	0.	129.64
1740	6.75	4.	0.	133.56
1741	7.	2.25	0.	141.35
1742	7.25	2.	0.	125.7
1743	7.	1.7497	0.	132.7
1744	6.75	1.9999	0.	135.92
1745	8.75	4.	0.	126.41
1746	9.	3.75	0.	143.07
1747	9.	4.25	0.	132.81
1748	9.25	4.	0.	137.01
1749	8.75	2.	0.	125.81
1750	9.	2.25	0.	142.71
1751	8.9999	1.7497	0.	131.77
1752	9.25	1.9999	0.	135.92
1753	-1.	-1.25	0.	134.98
1754	-0.75	-1.	0.	118.25
1755	-1.25	-1.	0.	129.84
1756	-0.99987	-0.75008	0.	125.72
1757	-1.	-2.75	0.	135.42
1758	-0.75	-3.	0.	119.34
1759	-1.0003	-3.2502	0.	126.8
1760	-1.25	-3.	0.	129.14
1761	-0.25	-1.	0.	119.01
1762	0.	-1.25	0.	136.26
1763	9.9901e-004	-0.7512	0.	126.91
1764	0.25204	-1.0039	0.	130.59
1765	-0.25	-3.	0.	119.64
1766	0.	-2.75	0.	136.79
1767	-1.4924e-003	-3.2534	0.	127.83
1768	0.24936	-3.0084	0.	132.04
1769	-2.	7.75	0.	137.82
1770	-1.75	8.	0.	120.98
1771	-2.2531	7.9968	0.	132.19
1772	-2.0015	8.249	0.	128.91
1773	-2.	6.25	0.	137.58
1774	-1.75	6.	0.	120.69
1775	-2.0008	5.749	0.	128.43
1776	-2.2525	5.9966	0.	132.12
1777	-1.25	8.	0.	120.56
1778	-1.	7.75	0.	137.
1779	-0.75004	8.	0.	131.37
1780	-1.0003	8.2499	0.	128.18
1781	-1.25	6.	0.	120.74
1782	-1.	6.25	0.	137.25
1783	-0.75002	6.	0.	131.4
1784	-1.0001	5.7499	0.	128.77
1785	-3.	-5.25	0.	142.19
1786	-2.75	-5.	0.	127.88
1787	-3.2499	-5.0002	0.	135.6
1788	-3.	-4.75	0.	133.44
1789	-3.	-5.75	0.	142.46
1790	-2.75	-6.	0.	128.06
1791	-2.9943	-6.2532	0.	134.08
1792	-3.2486	-6.0013	0.	136.73
1793	-1.25	-5.	0.	123.34
1794	-1.	-5.25	0.	135.92
1795	-1.0008	-4.7501	0.	127.78
1796	-0.75166	-4.9981	0.	129.25
1797	-1.25	-6.	0.	121.23
1798	-1.	-5.75	0.	134.81
1799	-0.75096	-5.9848	0.	128.96
1800	-0.99897	-6.2301	0.	125.26
1801	0.	3.75	0.	138.62
1802	0.25	4.	0.	125.76
1803	1.2033e-005	4.25	0.	130.99
1804	-0.24989	3.9999	0.	131.61
1805	0.	3.25	0.	137.75
1806	0.25	3.	0.	124.41
1807	7.2067e-005	2.7499	0.	128.69
1808	-0.24986	2.9999	0.	130.7
1809	1.75	4.	0.	126.89
1810	2.	3.75	0.	140.59
1811	2.	4.25	0.	132.19
1812	2.25	4.	0.	134.29
1813	1.75	3.	0.	126.23
1814	2.	3.25	0.	140.27
1815	2.25	3.	0.	133.7
1816	2.	2.75	0.	131.49
1817	-6.	-7.25	0.	135.9
1818	-5.75	-7.	0.	123.89
1819	-6.25	-7.	0.	126.74
1820	-5.9999	-6.75	0.	129.93
1821	-6.	-7.75	0.	133.59
1822	-5.75	-8.	0.	119.45
1823	-5.9988	-8.25	0.	123.98
1824	-6.2498	-8.	0.	126.44
1825	-5.25	-7.	0.	126.33
1826	-5.	-7.25	0.	142.19
1827	-4.7491	-7.	0.	137.08
1828	-4.9996	-6.7501	0.	133.67
1829	-5.25	-8.	0.	123.05
1830	-5.	-7.75	0.	140.96
1831	-4.7405	-7.9996	0.	133.61
1832	-4.9948	-8.2496	0.	130.39
1833	-8.	1.75	0.	133.24
1834	-7.75	2.	0.	117.31
1835	-7.993	2.2466	0.	123.27
1836	-8.2459	2.004	0.	128.77
1837	-8.	0.25	0.	131.2
1838	-7.75	0.	0.	116.06
1839	-8.25	-6.9031e-005	0.	125.53
1840	-8.	-0.25001	0.	121.51
1841	-6.25	2.	0.	123.67
1842	-6.	1.75	0.	140.06
1843	-5.9977	2.2421	0.	132.39
1844	-5.748	1.9943	0.	135.02
1845	-6.25	0.	0.	124.97
1846	-6.	0.25	0.	140.43
1847	-5.75	-5.0047e-004	0.	134.84
1848	-6.	-0.25005	0.	131.84
1849	-9.	-1.25	0.	146.79
1850	-8.75	-1.	0.	131.5
1851	-9.	-0.75004	0.	137.65
1852	-9.25	-1.	0.	140.77
1853	-9.	-1.75	0.	145.91
1854	-8.75	-2.	0.	129.25
1855	-9.	-2.25	0.	135.69
1856	-9.25	-2.	0.	139.86
1857	-7.25	-1.	0.	114.08
1858	-7.	-1.25	0.	126.04
1859	-7.	-0.75	0.	116.64
1860	-6.75	-1.	0.	119.8
1861	-7.25	-2.	0.	116.3
1862	-7.	-1.75	0.	127.63
1863	-6.75	-2.	0.	122.4
1864	-7.	-2.25	0.	119.69
1865	-8.	-4.25	0.	136.31
1866	-7.75	-4.	0.	119.96
1867	-8.25	-4.	0.	130.01
1868	-8.	-3.75	0.	125.11
1869	-8.	-5.75	0.	139.72
1870	-7.75	-6.	0.	124.54
1871	-8.	-6.25	0.	130.5
1872	-8.25	-6.	0.	133.77
1873	-6.25	-4.	0.	122.7
1874	-6.	-4.25	0.	138.02
1875	-5.75	-4.	0.	133.04
1876	-6.	-3.75	0.	129.49
1877	-6.25	-6.	0.	123.56
1878	-6.	-5.75	0.	136.99
1879	-5.7498	-6.	0.	129.21
1880	-5.9999	-6.25	0.	129.94
1881	9.75	10.	0.	124.95
1882	10.	9.75	0.	125.04
1883	-9.75	10.	0.	124.98
1884	-10.	9.75	0.	125.01
1885	10.	-9.75	0.	127.17
1886	9.75	-10.	0.	126.86
1887	-10.	-9.75	0.	128.64
1888	-9.75	-10.	0.	128.21
1889	5.1188	-6.7937	0.	96.966
1890	4.8326	-6.8741	0.	105.46
1891	5.5312	-7.0763	0.	99.951
1892	5.2299	-7.1606	0.	110.97
1893	5.6453	-7.4111	0.	104.76
1894	5.175	-6.0437	0.	101.15
1895	4.913	-5.8976	0.	105.53
1896	5.625	-5.8263	0.	104.84
1897	5.3606	-5.679	0.	111.68
1898	5.8116	-5.4797	0.	106.26
1899	6.2063	-6.75	0.	142.93
1900	6.4142	-7.0035	0.	136.76
1901	6.2438	-6.25	0.	143.56
1902	6.4477	-6.5065	0.	140.27
1903	6.4771	-6.011	0.	139.32
1904	-1.75	-8.075	0.	118.07
1905	-1.9234	-7.8442	0.	116.17
1906	-2.0835	-8.2296	0.	127.4
1907	-1.145	-8.015	0.	96.824
1908	-1.0327	-7.8025	0.	107.17
1909	-0.79467	-8.1505	0.	120.19
1910	-1.395	-8.57	0.	97.516
1911	-1.5798	-8.8266	0.	102.49
1912	-1.1511	-8.7936	0.	99.361
1913	-7.5262	4.8663	0.	98.22
1914	-7.4918	5.2059	0.	104.81
1915	-7.8837	4.6438	0.	89.282
1916	-7.8609	5.0069	0.	109.68
1917	-8.1825	4.7529	0.	103.68
1918	-6.9675	4.57	0.	138.65
1919	-6.7242	4.7998	0.	132.22
1920	-6.9525	4.15	0.	138.23
1921	-6.7116	4.3654	0.	134.39
1922	-6.7005	3.9302	0.	131.5
1923	-7.8612	4.0137	0.	90.349
1924	-8.2137	3.8747	0.	106.17
1925	-7.4887	3.8162	0.	98.182
1926	-7.777	3.6911	0.	106.81
1927	-7.3736	3.519	0.	99.893
1928	5.75	6.5	0.	136.47
1929	6.75	7.	0.	119.16
1930	6.5	7.25	0.	116.75
1931	7.25	7.	0.	119.01
1932	7.	7.25	0.	119.56
1933	7.5	7.25	0.	116.4
1934	6.75	6.	0.	118.95
1935	6.5	5.75	0.	117.33
1936	7.25	6.	0.	117.56
1937	7.	5.75	0.	119.03
1938	7.5	5.75	0.	113.91
1939	8.25	6.5	0.	135.08
1940	7.7806	-5.5079	0.	138.53
1941	8.5002	-4.7515	0.	112.93
1942	8.5102	-6.2508	0.	111.22
1943	9.2501	-5.5	0.	136.98
1944	5.	3.25	0.	142.67
1945	4.75	3.5001	0.	138.34
1946	5.	2.75	0.	142.68
1947	4.75	3.0001	0.	139.12
1948	4.75	2.5002	0.	138.45
1949	5.5	4.25	0.	111.66
1950	5.5001	1.7502	0.	110.84
1951	6.	3.25	0.	143.26
1952	6.25	3.5	0.	140.95
1953	6.	2.75	0.	143.48
1954	6.25	3.	0.	143.36
1955	6.25	2.5	0.	141.5
1956	7.	3.25	0.	145.57
1957	6.75	3.5	0.	141.72
1958	7.	2.75	0.	146.2
1959	6.75	3.	0.	144.88
1960	6.75	2.5	0.	142.69
1961	7.75	4.	0.	115.49
1962	7.5	4.25	0.	112.79
1963	8.25	4.	0.	117.22
1964	8.	4.25	0.	116.59
1965	8.5	4.25	0.	116.14
1966	7.75	2.	0.	116.82
1967	7.4999	1.7497	0.	114.96
1968	8.25	2.	0.	117.13
1969	7.9999	1.7497	0.	117.02
1970	8.4999	1.7497	0.	115.04
1971	9.	3.25	0.	149.62
1972	9.25	3.5	0.	143.66
1973	9.	2.75	0.	149.47
1974	9.25	3.	0.	145.1
1975	9.25	2.5	0.	143.23
1976	-1.	-1.75	0.	140.02
1977	-1.25	-1.5	0.	135.77
1978	-1.	-2.25	0.	139.87
1979	-1.25	-2.	0.	136.63
1980	-1.25	-2.5	0.	135.34
1981	-0.49962	-0.7503	0.	108.
1982	-0.50076	-3.2509	0.	109.43
1983	0.	-1.75	0.	141.26
1984	0.25227	-1.5047	0.	136.94
1985	0.	-2.25	0.	141.65
1986	0.25192	-2.0057	0.	138.27
1987	0.25092	-2.5068	0.	137.56
1988	-2.	7.25	0.	142.49
1989	-2.2534	7.4966	0.	138.04
1990	-2.	6.75	0.	142.48
1991	-2.2534	6.9965	0.	139.03
1992	-2.2532	6.4965	0.	137.99
1993	-1.5007	8.2497	0.	110.33
1994	-1.5003	5.7497	0.	110.24
1995	-1.	7.25	0.	141.66
1996	-0.75001	7.5	0.	137.
1997	-1.	6.75	0.	141.66
1998	-0.75	7.	0.	137.88
1999	-0.75	6.5	0.	136.92
2000	-3.2496	-5.5005	0.	140.24
2001	-2.25	-5.	0.	120.35
2002	-2.5	-4.75	0.	118.75
2003	-1.75	-5.	0.	118.6
2004	-2.0001	-4.75	0.	120.43
2005	-1.5004	-4.75	0.	115.57
2006	-2.25	-6.	0.	119.29
2007	-2.495	-6.2353	0.	118.6
2008	-1.75	-6.	0.	116.51
2009	-1.9956	-6.2342	0.	117.95
2010	-1.4976	-6.2381	0.	111.98
2011	-0.75163	-5.4938	0.	133.52
2012	-0.24986	3.4999	0.	135.33
2013	0.75	4.	0.	119.99
2014	0.5	4.25	0.	117.57
2015	1.25	4.	0.	120.31
2016	1.	4.25	0.	120.81
2017	1.5	4.25	0.	117.97
2018	0.75	3.	0.	118.97
2019	0.50003	2.7499	0.	116.06
2020	1.25	3.	0.	119.45
2021	1.	2.7499	0.	119.63
2022	1.5	2.7499	0.	117.16
2023	2.25	3.5	0.	138.25
2024	-6.2499	-7.5	0.	131.02
2025	-5.4998	-6.75	0.	117.4
2026	-5.4977	-8.2499	0.	111.2
2027	-4.7468	-7.5	0.	140.17
2028	-8.	1.25	0.	138.68
2029	-8.2486	1.5013	0.	134.76
2030	-8.	0.75	0.	137.84
2031	-8.2496	1.0003	0.	135.62
2032	-8.2499	0.49995	0.	133.15
2033	-7.25	2.	0.	109.64
2034	-7.4974	2.239	0.	105.95
2035	-6.75	2.	0.	112.34
2036	-7.0009	2.2514	0.	110.29
2037	-6.501	2.2479	0.	112.98
2038	-7.25	0.	0.	110.66
2039	-7.5	-0.25	0.	106.1
2040	-6.75	0.	0.	114.57
2041	-7.	-0.25	0.	113.44
2042	-6.5	-0.25001	0.	115.59
2043	-6.	1.25	0.	144.94
2044	-5.7493	1.497	0.	140.12
2045	-6.	0.75	0.	145.03
2046	-5.7497	0.99841	0.	141.34
2047	-5.7499	0.49915	0.	140.14
2048	-9.25	-1.5	0.	145.44
2049	-8.25	-1.	0.	120.35
2050	-8.5	-0.75003	0.	122.35
2051	-7.75	-1.	0.	113.41
2052	-8.	-0.75001	0.	118.11
2053	-7.5	-0.75	0.	106.55
2054	-8.25	-2.	0.	118.38
2055	-8.5	-2.25	0.	118.19
2056	-7.75	-2.	0.	113.71
2057	-8.	-2.25	0.	116.28
2058	-7.5	-2.25	0.	108.91
2059	-6.75	-1.5	0.	125.78
2060	-8.	-4.75	0.	143.35
2061	-8.25	-4.5	0.	137.73
2062	-8.	-5.25	0.	144.46
2063	-8.25	-5.	0.	140.27
2064	-8.25	-5.5	0.	139.52
2065	-7.25	-4.	0.	112.35
2066	-7.5	-3.75	0.	109.32
2067	-6.75	-4.	0.	113.74
2068	-7.	-3.75	0.	113.
2069	-6.5	-3.75	0.	112.66
2070	-7.25	-6.	0.	117.07
2071	-7.5	-6.25	0.	114.41
2072	-6.75	-6.	0.	117.12
2073	-7.	-6.25	0.	117.57
2074	-6.5	-6.25	0.	116.49
2075	-6.	-4.75	0.	142.73
2076	-5.7499	-4.5001	0.	138.04
2077	-6.	-5.25	0.	141.9
2078	-5.7499	-5.0001	0.	138.51
2079	-5.7499	-5.5001	0.	136.11
2080	9.25	10.	0.	124.7
2081	9.5	9.75	0.	125.05
2082	8.75	10.	0.	124.11
2083	9.	9.75	0.	124.63
2084	8.25	10.	0.	123.35
2085	8.5	9.75	0.	124.
2086	7.75	10.	0.	122.68
2087	8.	9.75	0.	123.29
2088	7.25	10.	0.	122.34
2089	7.5	9.75	0.	122.74
2090	6.75	10.	0.	122.5
2091	7.	9.75	0.	122.62
2092	6.25	10.	0.	123.16
2093	6.5	9.75	0.	123.04
2094	5.75	10.	0.	124.14
2095	6.	9.75	0.	123.88
2096	5.25	10.	0.	125.19
2097	5.5	9.75	0.	124.87
2098	4.75	10.	0.	126.08
2099	5.	9.75	0.	125.74
2100	4.25	10.	0.	126.71
2101	4.5	9.75	0.	126.36
2102	3.75	10.	0.	127.1
2103	4.	9.75	0.	126.74
2104	3.25	10.	0.	127.3
2105	3.5	9.75	0.	126.95
2106	2.75	10.	0.	127.41
2107	3.	9.75	0.	127.05
2108	2.25	10.	0.	127.48
2109	2.5	9.75	0.	127.1
2110	1.75	10.	0.	127.53
2111	2.	9.75	0.	127.14
2112	1.25	10.	0.	127.53
2113	1.5	9.75	0.	127.18
2114	0.75	10.	0.	127.36
2115	0.99998	9.75	0.	127.18
2116	0.25	10.	0.	126.8
2117	0.49995	9.75	0.	127.05
2118	-0.25	10.	0.	125.71
2119	-9.0547e-005	9.75	0.	126.55
2120	-0.75	10.	0.	124.31
2121	-0.50017	9.75	0.	125.41
2122	-1.25	10.	0.	123.33
2123	-1.0003	9.7499	0.	123.91
2124	-1.75	10.	0.	123.4
2125	-1.5005	9.7497	0.	123.19
2126	-2.25	10.	0.	124.5
2127	-2.0008	9.7493	0.	124.04
2128	-2.75	10.	0.	125.96
2129	-2.5011	9.7489	0.	125.63
2130	-3.25	10.	0.	127.
2131	-3.0014	9.7483	0.	126.78
2132	-3.75	10.	0.	127.38
2133	-3.5016	9.7478	0.	127.17
2134	-4.25	10.	0.	127.24
2135	-4.0016	9.7475	0.	127.1
2136	-4.75	10.	0.	126.82
2137	-4.5013	9.7477	0.	126.78
2138	-5.25	10.	0.	126.28
2139	-5.0011	9.7484	0.	126.34
2140	-5.75	10.	0.	125.71
2141	-5.5011	9.7496	0.	125.85
2142	-6.25	10.	0.	125.21
2143	-6.0014	9.751	0.	125.37
2144	-6.75	10.	0.	124.81
2145	-6.5019	9.7519	0.	124.97
2146	-7.25	10.	0.	124.57
2147	-7.0022	9.7518	0.	124.67
2148	-7.75	10.	0.	124.5
2149	-7.5021	9.7512	0.	124.53
2150	-8.25	10.	0.	124.57
2151	-8.0017	9.7503	0.	124.54
2152	-8.75	10.	0.	124.74
2153	-8.5012	9.7499	0.	124.67
2154	-9.25	10.	0.	124.9
2155	-9.0007	9.7496	0.	124.86
2156	-9.5002	9.7496	0.	125.01
2157	10.	9.25	0.	125.49
2158	9.75	9.5	0.	125.14
2159	10.	8.75	0.	126.33
2160	9.75	9.	0.	125.89
2161	10.	8.25	0.	126.95
2162	9.75	8.5	0.	126.75
2163	10.	7.75	0.	126.81
2164	9.75	8.	0.	127.25
2165	10.	7.25	0.	126.06
2166	9.75	7.5	0.	127.02
2167	10.	6.75	0.	125.82
2168	9.75	7.	0.	126.41
2169	10.	6.25	0.	127.5
2170	9.75	6.5	0.	126.75
2171	10.	5.75	0.	131.34
2172	9.75	6.	0.	128.89
2173	10.	5.25	0.	136.17
2174	9.75	5.5	0.	132.29
2175	10.	4.75	0.	139.4
2176	9.75	5.	0.	135.8
2177	10.	4.25	0.	138.16
2178	9.75	4.5	0.	138.54
2179	10.	3.75	0.	133.53
2180	9.75	4.	0.	136.59
2181	10.	3.25	0.	130.27
2182	9.75	3.5	0.	134.71
2183	10.	2.75	0.	129.57
2184	9.75	3.	0.	134.7
2185	10.	2.25	0.	131.54
2186	9.75	2.5	0.	133.73
2187	10.	1.75	0.	135.31
2188	9.75	1.9999	0.	134.48
2189	10.	1.25	0.	136.53
2190	9.7499	1.4998	0.	135.93
2191	10.	0.75	0.	134.35
2192	9.7499	0.99973	0.	133.29
2193	10.	0.25	0.	131.3
2194	9.7497	0.49944	0.	130.65
2195	10.	-0.25	0.	128.99
2196	9.7495	-7.9768e-004	0.	128.68
2197	10.	-0.75	0.	127.5
2198	9.7492	-0.50115	0.	127.33
2199	10.	-1.25	0.	126.65
2200	9.7488	-1.0014	0.	126.5
2201	10.	-1.75	0.	126.29
2202	9.7484	-1.5015	0.	126.05
2203	10.	-2.25	0.	126.34
2204	9.748	-2.0014	0.	125.92
2205	10.	-2.75	0.	126.83
2206	9.748	-2.5012	0.	126.06
2207	10.	-3.25	0.	127.91
2208	9.7482	-3.0009	0.	126.5
2209	10.	-3.75	0.	129.61
2210	9.7486	-3.5006	0.	127.33
2211	10.	-4.25	0.	130.6
2212	9.7493	-4.0003	0.	128.76
2213	10.	-4.75	0.	128.33
2214	9.7498	-4.5002	0.	130.38
2215	10.	-5.25	0.	123.63
2216	9.75	-5.0001	0.	128.14
2217	10.	-5.75	0.	122.62
2218	9.7501	-5.5	0.	125.57
2219	10.	-6.25	0.	125.78
2220	9.7505	-5.9999	0.	126.52
2221	10.	-6.75	0.	127.51
2222	9.7523	-6.4999	0.	128.08
2223	10.	-7.25	0.	126.86
2224	9.7537	-7.0003	0.	126.48
2225	10.	-7.75	0.	126.04
2226	9.7534	-7.5006	0.	125.58
2227	10.	-8.25	0.	126.03
2228	9.7525	-8.0006	0.	125.57
2229	10.	-8.75	0.	126.45
2230	9.7516	-8.5006	0.	125.97
2231	10.	-9.25	0.	126.91
2232	9.7509	-9.0004	0.	126.43
2233	9.7504	-9.5002	0.	126.75
2234	-10.	9.25	0.	125.18
2235	-9.7502	9.4996	0.	125.04
2236	-10.	8.75	0.	125.61
2237	-9.7504	8.9986	0.	125.31
2238	-10.	8.25	0.	126.29
2239	-9.7504	8.4964	0.	125.75
2240	-10.	7.75	0.	127.2
2241	-9.7495	7.9924	0.	126.36
2242	-10.	7.25	0.	128.35
2243	-9.747	7.4868	0.	127.17
2244	-10.	6.75	0.	129.58
2245	-9.7427	6.9804	0.	128.16
2246	-10.	6.25	0.	130.43
2247	-9.7371	6.4761	0.	129.2
2248	-10.	5.75	0.	130.13
2249	-9.738	5.978	0.	129.91
2250	-10.	5.25	0.	128.19
2251	-9.7565	5.4853	0.	129.72
2252	-10.	4.75	0.	125.61
2253	-9.7659	4.9905	0.	127.83
2254	-10.	4.25	0.	125.57
2255	-9.7484	4.4932	0.	126.26
2256	-10.	3.75	0.	129.2
2257	-9.7041	3.9984	0.	128.37
2258	-10.	3.25	0.	133.29
2259	-9.7271	3.5022	0.	132.06
2260	-10.	2.75	0.	134.96
2261	-9.7343	3.0034	0.	134.25
2262	-10.	2.25	0.	134.
2263	-9.7409	2.5039	0.	134.1
2264	-10.	1.75	0.	131.97
2265	-9.7456	2.003	0.	132.58
2266	-10.	1.25	0.	130.9
2267	-9.7483	1.5018	0.	131.18
2268	-10.	0.75	0.	132.1
2269	-9.7494	1.0012	0.	131.11
2270	-10.	0.25	0.	135.61
2271	-9.7498	0.50013	0.	132.84
2272	-10.	-0.25	0.	139.
2273	-9.75	-5.6004e-005	0.	136.18
2274	-10.	-0.75	0.	138.43
2275	-9.75	-0.50002	0.	139.66
2276	-10.	-1.25	0.	134.74
2277	-9.75	-1.	0.	138.12
2278	-10.	-1.75	0.	135.2
2279	-9.75	-1.5	0.	136.18
2280	-10.	-2.25	0.	140.08
2281	-9.75	-2.	0.	138.58
2282	-10.	-2.75	0.	142.12
2283	-9.75	-2.5	0.	141.02
2284	-10.	-3.25	0.	139.44
2285	-9.75	-3.	0.	138.71
2286	-10.	-3.75	0.	134.63
2287	-9.75	-3.5	0.	135.43
2288	-10.	-4.25	0.	130.03
2289	-9.75	-4.	0.	131.91
2290	-10.	-4.75	0.	126.88
2291	-9.75	-4.5	0.	129.04
2292	-10.	-5.25	0.	125.77
2293	-9.75	-5.	0.	127.47
2294	-10.	-5.75	0.	126.53
2295	-9.75	-5.5	0.	127.34
2296	-10.	-6.25	0.	128.25
2297	-9.75	-6.	0.	128.29
2298	-10.	-6.75	0.	129.74
2299	-9.75	-6.5	0.	129.49
2300	-10.	-7.25	0.	130.32
2301	-9.75	-7.	0.	129.99
2302	-10.	-7.75	0.	130.1
2303	-9.75	-7.5	0.	129.76
2304	-10.	-8.25	0.	129.57
2305	-9.75	-8.	0.	129.24
2306	-10.	-8.75	0.	129.09
2307	-9.75	-8.5	0.	128.76
2308	-10.	-9.25	0.	128.78
2309	-9.75	-9.	0.	128.43
2310	-9.75	-9.5	0.	128.26
2311	-9.25	-10.	0.	127.33
2312	-9.5	-9.75	0.	127.84
2313	-8.75	-10.	0.	126.31
2314	-9.	-9.75	0.	126.83
2315	-8.25	-10.	0.	125.29
2316	-8.5	-9.75	0.	125.75
2317	-7.75	-10.	0.	124.32
2318	-7.9999	-9.75	0.	124.75
2319	-7.25	-10.	0.	123.31
2320	-7.4998	-9.75	0.	123.86
2321	-6.75	-10.	0.	122.05
2322	-6.9997	-9.75	0.	122.87
2323	-6.25	-10.	0.	120.75
2324	-6.4995	-9.75	0.	121.43
2325	-5.75	-10.	0.	120.37
2326	-5.9991	-9.7499	0.	120.02
2327	-5.25	-10.	0.	121.91
2328	-5.4984	-9.7498	0.	120.31
2329	-4.75	-10.	0.	125.09
2330	-4.9975	-9.7497	0.	123.17
2331	-4.25	-10.	0.	128.54
2332	-4.4967	-9.7498	0.	127.07
2333	-3.75	-10.	0.	131.15
2334	-3.9965	-9.7512	0.	130.13
2335	-3.25	-10.	0.	132.37
2336	-3.4972	-9.755	0.	131.94
2337	-2.75	-10.	0.	130.49
2338	-2.999	-9.7615	0.	132.7
2339	-2.25	-10.	0.	123.6
2340	-2.5022	-9.7674	0.	129.57
2341	-1.75	-10.	0.	115.31
2342	-2.0076	-9.7693	0.	119.18
2343	-1.25	-10.	0.	114.01
2344	-1.5151	-9.7661	0.	110.5
2345	-0.75	-10.	0.	121.28
2346	-1.0236	-9.7599	0.	115.64
2347	-0.25	-10.	0.	129.27
2348	-0.53042	-9.7522	0.	126.57
2349	0.25	-10.	0.	132.85
2350	-3.3428e-002	-9.7444	0.	132.74
2351	0.75	-10.	0.	133.26
2352	0.46697	-9.7371	0.	133.41
2353	1.25	-10.	0.	132.58
2354	0.97036	-9.739	0.	132.67
2355	1.75	-10.	0.	131.91
2356	1.4752	-9.7451	0.	132.03
2357	2.25	-10.	0.	131.29
2358	1.9811	-9.7511	0.	131.51
2359	2.75	-10.	0.	130.51
2360	2.4855	-9.7562	0.	130.95
2361	3.25	-10.	0.	129.35
2362	2.989	-9.7595	0.	130.11
2363	3.75	-10.	0.	127.6
2364	3.4914	-9.7605	0.	128.74
2365	4.25	-10.	0.	125.29
2366	3.9941	-9.7591	0.	126.69
2367	4.75	-10.	0.	122.79
2368	4.4959	-9.7548	0.	124.1
2369	5.25	-10.	0.	120.8
2370	4.9968	-9.7499	0.	121.52
2371	5.75	-10.	0.	120.05
2372	5.4974	-9.7473	0.	119.88
2373	6.25	-10.	0.	120.75
2374	5.998	-9.7463	0.	119.93
2375	6.75	-10.	0.	122.38
2376	6.4992	-9.7473	0.	121.48
2377	7.25	-10.	0.	124.06
2378	7.0002	-9.7488	0.	123.48
2379	7.75	-10.	0.	125.2
2380	7.5009	-9.75	0.	124.95
2381	8.25	-10.	0.	125.76
2382	8.0012	-9.7505	0.	125.67
2383	8.75	-10.	0.	126.03
2384	8.5011	-9.7505	0.	125.93
2385	9.25	-10.	0.	126.31
2386	9.0007	-9.7504	0.	126.1
2387	9.5004	-9.7502	0.	126.44
2388	3.8009	-1.9065	0.	126.29
2389	3.548	-1.6836	0.	126.81
2390	3.5635	-2.1098	0.	126.75
2391	3.3337	-1.9955	0.	127.05
2392	4.2736	-1.9197	0.	125.39
2393	4.028	-1.6758	0.	126.01
2394	4.0278	-2.1376	0.	125.87
2395	5.7187	-2.5066	0.	122.59
2396	5.2265	-2.4666	0.	123.18
2397	5.4807	-2.2391	0.	122.93
2398	5.4572	-2.736	0.	122.49
2399	4.7559	-1.946	0.	124.39
2400	4.5047	-2.1685	0.	124.81
2401	4.5132	-1.6919	0.	125.04
2402	5.0017	-1.7164	0.	124.05
2403	4.99	-2.2026	0.	123.75
2404	5.2442	-1.9752	0.	123.5
2405	4.4805	-2.6417	0.	124.72
2406	4.7389	-2.4252	0.	124.16
2407	4.2589	-2.3864	0.	125.29
2408	4.2676	-1.448	0.	125.66
2409	4.0162	-1.2046	0.	126.37
2410	3.775	-1.4528	0.	126.53
2411	5.2517	-1.4821	0.	123.78
2412	5.7464	-1.4997	0.	123.05
2413	5.4999	-1.243	0.	123.47
2414	5.4941	-1.7408	0.	123.23
2415	5.9749	-2.2688	0.	122.53
2416	5.9512	-2.7834	0.	122.24
2417	6.2148	-2.532	0.	122.51
2418	4.7079	-2.902	0.	123.99
2419	4.9662	-2.6855	0.	123.44
2420	4.9297	-3.163	0.	123.11
2421	5.1969	-2.9549	0.	122.75
2422	4.7591	-1.4623	0.	124.69
2423	4.5108	-1.211	0.	125.39
2424	5.0048	-1.2263	0.	124.36
2425	4.2222	-2.8518	0.	125.4
2426	4.4442	-3.1131	0.	124.8
2427	3.9598	-3.0613	0.	126.36
2428	3.7378	-2.7886	0.	126.65
2429	4.0006	-2.5965	0.	125.97
2430	5.9892	-1.7602	0.	122.68
2431	6.2427	-1.5114	0.	122.55
2432	5.9964	-1.2552	0.	122.81
2433	6.2324	-2.0193	0.	122.53
2434	5.7369	-2.0013	0.	122.86
2435	-2.7491	1.499	0.	127.5
2436	-2.9992	1.2489	0.	127.97
2437	-2.9984	1.7481	0.	127.66
2438	-3.2485	1.4978	0.	128.12
2439	5.253	-0.9872	0.	124.05
2440	5.5015	-0.74458	0.	123.67
2441	5.7499	-0.99849	0.	123.23
2442	-3.2429	3.4888	0.	127.27
2443	-3.4918	3.2372	0.	128.01
2444	-3.7394	3.4802	0.	128.36
2445	-3.492	3.7331	0.	127.85
2446	-3.2493	0.99889	0.	128.35
2447	-3.4994	0.74889	0.	128.71
2448	-3.4986	1.2478	0.	128.5
2449	-3.7489	0.99793	0.	128.82
2450	2.5291	-2.3233	0.	128.18
2451	2.2836	-2.054	0.	128.09
2452	2.5372	-1.8002	0.	127.84
2453	2.8216	-2.0736	0.	127.65
2454	-3.9883	3.7217	0.	128.55
2455	-3.7409	3.9746	0.	128.05
2456	-4.237	3.9608	0.	128.23
2457	-3.9911	4.2153	0.	128.16
2458	3.0023	-0.24877	0.	128.59
2459	3.0005	0.25163	0.	129.24
2460	2.7514	-7.8369e-004	0.	128.71
2461	3.2512	4.7834e-003	0.	128.89
2462	-2.499	1.749	0.	127.
2463	-2.2495	1.4995	0.	126.88
2464	-2.4995	1.2495	0.	127.42
2465	-2.7495	0.99938	0.	127.89
2466	-2.9995	0.74935	0.	128.36
2467	-3.75	-2.	0.	129.38
2468	-3.5	-1.75	0.	129.01
2469	-3.25	-2.	0.	128.46
2470	-3.5	-2.25	0.	129.08
2471	-2.9947	3.2431	0.	126.76
2472	-2.9948	3.7408	0.	126.75
2473	-2.7454	3.4939	0.	125.96
2474	6.1881	-3.0525	0.	122.41
2475	5.9134	-3.31	0.	121.57
2476	5.6897	-3.0128	0.	122.13
2477	-4.	-1.75	0.	129.75
2478	-4.	-2.25	0.	130.08
2479	-4.25	-2.	0.	129.85
2480	5.6441	-3.5258	0.	121.21
2481	5.1532	-3.4368	0.	122.14
2482	5.3586	-3.6984	0.	120.85
2483	5.4204	-3.2286	0.	121.78
2484	-2.9972	2.2467	0.	127.37
2485	-2.7483	1.9981	0.	127.16
2486	-3.2472	1.9964	0.	127.98
2487	-2.9958	2.7449	0.	127.03
2488	-3.2436	2.9915	0.	127.5
2489	-2.746	2.9954	0.	126.26
2490	-3.2453	2.494	0.	127.79
2491	-2.7471	2.4968	0.	126.73
2492	4.7565	-0.97492	0.	125.06
2493	4.5062	-0.72483	0.	125.85
2494	4.2594	-0.96762	0.	126.1
2495	5.0041	-0.734	0.	124.67
2496	3.0073	-0.75206	0.	128.01
2497	2.762	-1.0115	0.	127.85
2498	3.261	-0.99208	0.	127.55
2499	3.0228	-1.2651	0.	127.59
2500	2.7541	-0.50361	0.	128.26
2501	3.2538	-0.49341	0.	128.13
2502	2.9628	-3.4153	0.	129.02
2503	3.1914	-3.6985	0.	129.06
2504	2.9454	-3.9253	0.	129.73
2505	2.71	-3.6479	0.	129.65
2506	2.7303	-3.134	0.	128.93
2507	2.9936	-2.8995	0.	128.27
2508	3.2158	-3.1961	0.	128.24
2509	3.9243	-3.5364	0.	127.02
2510	4.1818	-3.3225	0.	125.75
2511	3.6988	-3.2646	0.	127.22
2512	6.4858	-1.7705	0.	122.4
2513	6.4937	-1.2623	0.	122.35
2514	6.7396	-1.517	0.	122.27
2515	6.73	-2.0263	0.	122.45
2516	6.4722	-2.2826	0.	122.52
2517	-3.4932	2.7405	0.	128.26
2518	-3.7405	2.9852	0.	128.81
2519	6.4975	-0.75718	0.	122.4
2520	6.7453	-1.0104	0.	122.14
2521	6.2473	-1.0062	0.	122.61
2522	-2.4982	2.2482	0.	126.52
2523	-2.2489	1.999	0.	126.54
2524	3.25	6.5	0.	127.16
2525	3.	6.75	0.	126.54
2526	3.	6.25	0.	127.58
2527	2.75	6.5	0.	126.43
2528	5.7509	-0.49846	0.	123.41
2529	5.2525	-0.49137	0.	124.29
2530	5.5015	-0.24615	0.	123.76
2531	-3.75	-1.5	0.	129.37
2532	-3.25	-1.5	0.	128.7
2533	-3.5	-1.25	0.	129.17
2534	2.6989	-4.158	0.	130.13
2535	2.4634	-3.8806	0.	130.04
2536	2.2149	-4.1173	0.	130.29
2537	2.4561	-4.39	0.	130.1
2538	2.5006	-2.8472	0.	128.84
2539	2.2623	-2.5734	0.	128.69
2540	2.7639	-2.6127	0.	128.18
2541	4.6203	-3.8428	0.	124.06
2542	4.837	-4.0936	0.	122.77
2543	4.8825	-3.6325	0.	122.83
2544	5.0879	-3.8941	0.	121.54
2545	3.67	-3.7511	0.	128.07
2546	3.4235	-3.974	0.	129.21
2547	3.4444	-3.4792	0.	128.27
2548	-4.5409	6.6936	0.	127.2
2549	-4.2831	6.4479	0.	127.59
2550	-4.5281	6.1874	0.	127.57
2551	-4.7914	6.4282	0.	127.39
2552	-3.9882	3.2282	0.	129.16
2553	-4.2356	3.4689	0.	129.19
2554	-4.	-1.25	0.	129.79
2555	-4.25	-1.5	0.	129.76
2556	-1.9994	1.7495	0.	126.43
2557	-1.9996	1.2497	0.	126.68
2558	-1.7496	1.4997	0.	126.21
2559	-2.2497	0.99967	0.	127.22
2560	-2.4997	0.74967	0.	127.94
2561	1.9698	-4.351	0.	130.09
2562	1.7234	-4.5864	0.	129.69
2563	1.9674	-4.8541	0.	129.37
2564	2.211	-4.6237	0.	129.9
2565	2.0224	-1.7906	0.	128.13
2566	2.0168	-2.304	0.	128.59
2567	1.7687	-2.041	0.	128.54
2568	2.9375	-4.433	0.	130.2
2569	3.1775	-4.2008	0.	129.88
2570	2.1977	-7.0839	0.	128.23
2571	2.4404	-6.8586	0.	127.83
2572	2.4381	-7.3443	0.	128.68
2573	2.6761	-7.1178	0.	128.37
2574	-3.	-1.75	0.	128.15
2575	-3.	-2.25	0.	127.86
2576	-2.75	-2.	0.	127.7
2577	-3.75	-2.5	0.	129.77
2578	-3.25	-2.5	0.	128.48
2579	-3.5	-2.75	0.	129.46
2580	2.7501	0.50028	0.	129.12
2581	3.2501	0.50295	0.	129.76
2582	2.9999	0.7512	0.	129.92
2583	-3.244	3.9852	0.	127.34
2584	-3.4944	4.2289	0.	128.02
2585	1.4781	-4.8184	0.	129.04
2586	1.2315	-5.0524	0.	128.1
2587	1.4768	-5.3148	0.	128.19
2588	1.722	-5.0861	0.	128.72
2589	3.5	6.25	0.	128.11
2590	3.25	6.	0.	128.52
2591	3.5	5.75	0.	129.73
2592	3.75	6.	0.	128.78
2593	6.6952	-3.0573	0.	123.21
2594	6.4238	-3.3293	0.	122.86
2595	6.4517	-2.8011	0.	122.68
2596	-4.25	-2.5	0.	130.56
2597	-4.	-2.75	0.	130.78
2598	-4.5	-1.75	0.	129.86
2599	-4.5	-2.25	0.	130.34
2600	-4.75	-2.	0.	129.3
2601	-4.9881	4.6657	0.	126.5
2602	-4.9818	4.1785	0.	127.02
2603	-4.7364	4.4329	0.	126.97
2604	-5.2302	4.4132	0.	125.81
2605	1.75	6.5	0.	124.29
2606	1.5	6.75	0.	124.
2607	1.25	6.5	0.	123.77
2608	1.5	6.25	0.	123.63
2609	3.75	6.5	0.	127.38
2610	3.5	6.75	0.	127.02
2611	1.7136	-7.0449	0.	128.43
2612	1.952	-7.3082	0.	128.57
2613	1.9577	-6.8216	0.	128.03
2614	1.2273	-7.0014	0.	128.94
2615	1.4627	-7.2673	0.	128.72
2616	1.4723	-6.7814	0.	128.39
2617	-3.4953	2.2437	0.	128.41
2618	-3.7457	1.9936	0.	129.01
2619	-3.4972	1.7461	0.	128.44
2620	-3.743	2.4896	0.	129.07
2621	-3.4999	-0.2502	0.	129.3
2622	-3.2499	-2.274e-004	0.	129.11
2623	-3.7498	-4.2321e-004	0.	129.45
2624	-3.4997	0.24946	0.	129.04
2625	1.7189	-6.0713	0.	127.78
2626	1.2305	-6.0342	0.	127.82
2627	1.4748	-6.2954	0.	128.02
2628	1.4758	-5.807	0.	127.86
2629	6.2494	-0.50335	0.	122.76
2630	6.0003	-0.25099	0.	123.2
2631	5.9993	-0.75237	0.	122.97
2632	6.4992	-0.25404	0.	122.72
2633	6.7479	-0.50624	0.	122.13
2634	-4.2586	5.4442	0.	127.98
2635	-4.7554	5.4199	0.	127.44
2636	-4.5023	5.1851	0.	127.53
2637	-4.5136	5.6845	0.	127.68
2638	-2.2482	2.4983	0.	125.97
2639	-2.4973	2.7472	0.	125.96
2640	2.2504	0.49827	0.	128.01
2641	2.0012	0.24601	0.	127.66
2642	1.7507	0.49705	0.	126.69
2643	2.0003	0.74799	0.	126.99
2644	2.5001	0.74931	0.	128.71
2645	2.5009	0.24786	0.	128.58
2646	2.	6.25	0.	124.9
2647	2.25	6.5	0.	125.35
2648	2.	6.75	0.	124.72
2649	4.7538	-0.48391	0.	125.47
2650	4.5032	-0.23414	0.	126.43
2651	4.2543	-0.48018	0.	126.69
2652	5.0027	-0.23963	0.	124.9
2653	2.5088	-0.76302	0.	128.1
2654	2.2628	-1.02	0.	128.02
2655	2.5219	-1.2788	0.	127.86
2656	2.2558	-0.51083	0.	128.22
2657	2.5032	-0.25563	0.	128.38
2658	-3.75	-0.50015	0.	129.67
2659	-3.25	-0.5001	0.	129.26
2660	-3.5	-0.75009	0.	129.34
2661	2.4775	-3.3666	0.	129.56
2662	2.224	-3.6066	0.	130.15
2663	2.2401	-3.0926	0.	129.51
2664	4.1464	-3.7983	0.	126.42
2665	4.4039	-3.5844	0.	125.15
2666	4.3688	-4.0557	0.	125.87
2667	3.8982	-4.0192	0.	128.07
2668	1.9635	-5.845	0.	127.94
2669	2.209	-5.6214	0.	128.24
2670	1.7204	-5.5807	0.	128.02
2671	1.9657	-5.352	0.	128.56
2672	2.2052	-6.1094	0.	127.63
2673	1.9604	-6.334	0.	127.76
2674	1.5	7.25	0.	124.41
2675	1.25	7.	0.	124.23
2676	1.75	7.	0.	124.43
2677	6.9838	-1.7728	0.	122.32
2678	6.9913	-1.265	0.	122.05
2679	7.2378	-1.5178	0.	122.19
2680	6.9731	-2.2828	0.	122.67
2681	7.2302	-2.025	0.	122.52
2682	7.2437	-1.0117	0.	121.86
2683	6.9958	-0.75947	0.	121.86
2684	-4.2881	6.9557	0.	127.17
2685	-4.8052	6.941	0.	126.84
2686	-4.5413	7.2046	0.	126.79
2687	-4.0303	6.71	0.	127.56
2688	-3.777	6.9687	0.	127.79
2689	-4.03	7.2156	0.	127.26
2690	-5.3447	6.923	0.	126.42
2691	-5.0574	7.1938	0.	126.43
2692	-5.0556	6.6756	0.	127.03
2693	3.25	7.	0.	126.4
2694	3.	7.25	0.	126.02
2695	2.75	7.	0.	125.81
2696	-4.0239	6.2065	0.	127.96
2697	-3.774	6.4651	0.	128.16
2698	-4.0043	5.2069	0.	128.25
2699	-4.248	4.9477	0.	127.8
2700	-3.9964	4.7101	0.	128.12
2701	-3.7505	4.9659	0.	128.52
2702	-3.9962	1.7438	0.	129.4
2703	-4.2472	1.4943	0.	129.78
2704	-3.7477	1.4963	0.	128.83
2705	-3.9981	1.2464	0.	129.14
2706	-3.9903	2.7342	0.	129.61
2707	-4.2373	2.9772	0.	130.18
2708	-4.	-0.75011	0.	129.92
2709	-4.25	-1.0001	0.	130.13
2710	-3.75	-1.0001	0.	129.58
2711	-3.9997	0.24912	0.	129.48
2712	-3.7496	0.49901	0.	129.07
2713	-3.9991	0.74804	0.	129.17
2714	-4.2495	0.49837	0.	129.69
2715	0.97513	-7.2193	0.	129.23
2716	0.7406	-6.9537	0.	129.89
2717	0.98454	-6.7383	0.	129.
2718	-4.9974	5.1587	0.	126.89
2719	-4.7442	4.9239	0.	126.98
2720	-5.2376	4.8979	0.	126.18
2721	-5.8591	7.0023	0.	125.38
2722	-6.3304	7.0918	0.	123.68
2723	-6.0913	6.8918	0.	125.03
2724	-6.0727	7.3125	0.	124.52
2725	-1.9989	2.2491	0.	125.99
2726	-1.7493	1.9995	0.	126.24
2727	1.2503	0.99862	0.	123.45
2728	1.5006	0.7476	0.	125.18
2729	1.7502	0.99855	0.	125.48
2730	1.5002	1.2489	0.	123.44
2731	2.75	6.	0.	127.57
2732	3.	5.75	0.	129.13
2733	4.2518	1.1988e-002	0.	127.47
2734	4.0011	0.25934	0.	128.83
2735	4.0029	-0.23405	0.	127.73
2736	3.7514	9.7697e-003	0.	128.53
2737	5.7509	1.3242e-003	0.	123.55
2738	5.2517	5.5936e-003	0.	124.37
2739	5.5011	0.25258	0.	123.45
2740	2.017	-1.2779	0.	128.05
2741	2.2761	-1.5368	0.	127.89
2742	1.768	-1.5308	0.	128.23
2743	2.0044	-0.25959	0.	128.06
2744	1.7527	-6.9004e-003	0.	127.7
2745	2.2518	-4.3881e-003	0.	128.23
2746	1.0002	1.249	0.	121.49
2747	0.7504	0.99873	0.	122.11
2748	1.0008	0.74775	0.	123.65
2749	-1.7497	0.99977	0.	126.1
2750	-1.9998	0.74979	0.	127.1
2751	-2.9999	-0.25013	0.	129.06
2752	-2.7499	-1.524e-004	0.	128.95
2753	-2.9998	0.24967	0.	128.79
2754	-2.75	-1.5	0.	128.22
2755	-3.	-1.25	0.	128.59
2756	1.9755	-3.8433	0.	130.39
2757	1.7261	-4.0821	0.	130.52
2758	2.0018	-2.8187	0.	129.36
2759	1.7583	-2.552	0.	129.24
2760	5.0479	-4.3417	0.	120.8
2761	4.5855	-4.3065	0.	124.59
2762	4.7971	-4.5398	0.	123.14
2763	2.4534	-5.3954	0.	128.82
2764	2.6957	-5.1679	0.	129.65
2765	2.2101	-5.126	0.	129.14
2766	2.4538	-4.8956	0.	129.66
2767	2.4451	-6.3717	0.	127.49
2768	2.2004	-6.5963	0.	127.63
2769	2.6821	-6.6309	0.	127.36
2770	3.1738	-4.7059	0.	130.54
2771	2.9367	-4.9372	0.	130.16
2772	2.6947	-4.6649	0.	130.18
2773	-3.	-2.75	0.	127.76
2774	-2.75	-2.5	0.	127.3
2775	-2.4999	0.24982	0.	128.57
2776	-2.7497	0.49963	0.	128.42
2777	-2.2498	0.49979	0.	127.82
2778	1.2511	0.49674	0.	125.37
2779	1.5022	0.24414	0.	126.74
2780	3.5	0.75342	0.	130.48
2781	3.7504	0.50567	0.	129.7
2782	3.5007	0.2561	0.	129.41
2783	2.7499	1.0002	0.	129.52
2784	3.2499	1.0017	0.	130.63
2785	2.9999	1.2508	0.	130.57
2786	-1.4997	1.2498	0.	125.63
2787	-1.2497	1.4997	0.	125.44
2788	-1.4996	1.7497	0.	126.02
2789	-5.5892	7.1906	0.	125.8
2790	-5.8559	6.8021	0.	125.79
2791	-5.5845	6.6412	0.	126.75
2792	-1.998	3.2483	0.	124.38
2793	-1.9981	3.748	0.	123.85
2794	-1.7483	3.4985	0.	123.74
2795	-2.2471	3.4968	0.	124.63
2796	-2.9966	4.2384	0.	127.27
2797	-2.7462	3.9921	0.	126.08
2798	-3.7446	4.4696	0.	128.13
2799	-3.247	4.4821	0.	127.94
2800	-3.4987	4.7254	0.	128.52
2801	1.4796	-4.3176	0.	130.12
2802	1.232	-4.5548	0.	129.29
2803	0.98526	-5.7725	0.	127.52
2804	0.9853	-5.283	0.	127.47
2805	1.2305	-5.5453	0.	127.57
2806	0.73796	-5.5161	0.	126.77
2807	3.75	5.5	0.	130.63
2808	3.5	5.25	0.	131.35
2809	3.25	5.5	0.	130.33
2810	6.7493	-3.4455e-003	0.	122.45
2811	6.9993	0.24685	0.	122.3
2812	7.2486	-4.3944e-003	0.	121.25
2813	6.9981	-0.25564	0.	121.85
2814	6.9587	-2.7952	0.	123.26
2815	6.9442	-3.3089	0.	124.36
2816	7.2075	-3.0432	0.	123.71
2817	-3.5213	7.2265	0.	128.17
2818	-3.2682	6.9799	0.	129.2
2819	-3.5207	6.7238	0.	128.39
2820	-4.5	-1.25	0.	130.1
2821	-4.75	-1.5	0.	129.31
2822	-4.75	-2.5	0.	130.4
2823	-4.5	-2.75	0.	131.37
2824	1.2608	-2.0282	0.	129.56
2825	1.5102	-2.2889	0.	129.19
2826	1.5143	-1.7811	0.	128.64
2827	-2.5	-1.75	0.	127.76
2828	-2.25	-2.	0.	127.93
2829	-2.5	-2.25	0.	127.14
2830	5.5326	-4.257	0.	118.62
2831	5.2536	-4.6221	0.	118.02
2832	5.2988	-4.1421	0.	119.57
2833	1.0001	1.7495	0.	119.23
2834	0.75021	1.4993	0.	120.36
2835	1.2501	1.4992	0.	121.46
2836	-4.7323	3.9446	0.	127.89
2837	-4.98	3.6935	0.	128.7
2838	-5.2268	3.9296	0.	126.97
2839	-4.4847	3.2178	0.	130.22
2840	-4.4843	3.708	0.	128.88
2841	-4.732	3.4569	0.	129.68
2842	0.25	7.	0.	126.68
2843	0.49999	6.75	0.	125.12
2844	0.49999	7.25	0.	125.69
2845	0.75	7.	0.	124.83
2846	1.	6.25	0.	123.39
2847	0.74999	6.5	0.	124.3
2848	1.	6.75	0.	124.
2849	1.75	6.	0.	124.24
2850	1.25	6.	0.	123.24
2851	1.5	5.75	0.	123.08
2852	6.1491	-3.5868	0.	122.02
2853	5.8385	-3.865	0.	119.81
2854	4.	6.75	0.	127.13
2855	4.	6.25	0.	128.05
2856	4.25	6.5	0.	127.22
2857	3.75	7.	0.	126.77
2858	3.5	7.25	0.	126.53
2859	2.1923	-7.5687	0.	129.01
2860	2.4366	-7.827	0.	129.53
2861	2.6775	-7.6007	0.	129.48
2862	1.7011	-7.5307	0.	128.85
2863	1.9388	-7.7935	0.	129.16
2864	1.2106	-7.4852	0.	129.01
2865	1.4376	-7.7545	0.	128.94
2866	0.94017	-7.7044	0.	128.87
2867	0.72835	-7.4255	0.	129.62
2868	-4.0139	5.7056	0.	128.24
2869	-3.7665	5.9638	0.	128.58
2870	-4.269	5.946	0.	127.94
2871	-3.7584	5.4643	0.	128.78
2872	-3.9933	2.2395	0.	129.67
2873	-4.2444	1.9903	0.	130.29
2874	-4.2408	2.4842	0.	130.61
2875	-3.9999	-0.25038	0.	129.82
2876	-4.2499	-0.50024	0.	130.37
2877	-4.2498	-7.2777e-004	0.	130.1
2878	0.73867	-6.0011	0.	127.67
2879	0.98526	-6.2571	0.	128.25
2880	6.2501	-1.6806e-003	0.	123.16
2881	6.0005	0.2497	0.	123.56
2882	6.4998	0.24774	0.	123.66
2883	-5.0123	5.656	0.	127.45
2884	-5.2471	5.3889	0.	127.29
2885	-5.2663	5.8841	0.	127.81
2886	-4.7706	5.9207	0.	127.68
2887	-5.0338	6.1615	0.	127.51
2888	-6.8055	7.0772	0.	121.77
2889	-6.5562	7.3228	0.	122.93
2890	-6.5595	6.8658	0.	122.82
2891	-7.2847	7.0396	0.	120.4
2892	-7.0412	7.3022	0.	121.39
2893	-7.0323	6.8271	0.	120.15
2894	-1.7486	2.9989	0.	124.64
2895	-1.9984	2.7487	0.	125.22
2896	-2.2475	2.9976	0.	125.22
2897	2.2501	0.99904	0.	127.7
2898	2.0001	1.249	0.	126.32
2899	2.5	1.2497	0.	128.96
2900	2.25	6.	0.	125.97
2901	2.5	5.75	0.	127.63
2902	2.5	6.25	0.	126.43
2903	2.	5.75	0.	125.28
2904	4.7521	1.0132e-002	0.	125.87
2905	4.5016	0.25975	0.	127.19
2906	5.0016	0.25651	0.	124.91
2907	2.0098	-0.76782	0.	128.13
2908	1.7616	-1.0204	0.	128.22
2909	1.7567	-0.51357	0.	128.23
2910	0.50087	0.74806	0.	122.34
2911	0.25056	0.99884	0.	121.55
2912	0.50036	1.249	0.	120.99
2913	-1.2497	0.99971	0.	124.5
2914	-0.99965	1.2497	0.	124.31
2915	-0.99957	0.74962	0.	122.93
2916	-0.74949	0.99938	0.	122.85
2917	-1.4997	0.74977	0.	125.36
2918	-2.75	-0.50008	0.	129.15
2919	-3.	-0.75006	0.	128.98
2920	1.7335	-3.5744	0.	130.74
2921	1.9867	-3.3326	0.	130.09
2922	4.1206	-4.2766	0.	127.51
2923	3.8841	-4.5085	0.	129.45
2924	3.6517	-4.2422	0.	129.2
2925	2.4506	-5.8858	0.	127.92
2926	2.697	-5.6648	0.	128.52
2927	2.6917	-6.1463	0.	127.35
2928	-3.25	-3.	0.	128.75
2929	-3.5	-3.25	0.	130.13
2930	-3.75	-3.	0.	130.47
2931	4.	7.25	0.	126.93
2932	4.25	7.	0.	126.99
2933	6.3895	-3.8725	0.	122.75
2934	6.6728	-3.581	0.	124.01
2935	1.	5.75	0.	122.44
2936	0.74999	6.	0.	123.71
2937	1.	5.25	0.	120.76
2938	1.25	5.5	0.	122.26
2939	0.74999	5.5	0.	122.7
2940	-0.16372	-7.6833	0.	130.68
2941	3.8529e-002	-7.506	0.	130.93
2942	-5.1074e-002	-7.8522	0.	129.45
2943	0.24394	-7.7804	0.	129.23
2944	-1.0421e-005	7.25	0.	127.94
2945	-0.25	7.	0.	130.98
2946	-9.6653e-006	6.75	0.	127.56
2947	0.75007	1.9997	0.	118.43
2948	1.	2.2498	0.	117.76
2949	1.25	1.9997	0.	119.3
2950	0.75	5.	0.	120.75
2951	1.	4.75	0.	119.28
2952	1.25	5.	0.	120.53
2953	4.25	3.0002	0.	133.14
2954	3.75	3.0001	0.	130.04
2955	4.	2.7502	0.	130.77
2956	4.	3.2501	0.	130.53
2957	1.0056	-2.2746	0.	130.39
2958	0.75571	-2.0165	0.	132.6
2959	1.0083	-1.7699	0.	129.8
2960	-5.	-2.75	0.	131.04
2961	-5.25	-2.5	0.	128.82
2962	-5.	-2.25	0.	129.37
2963	-7.5099	6.77	0.	118.81
2964	-7.7638	6.9866	0.	120.5
2965	-7.5258	7.2645	0.	120.78
2966	-6.7919	7.5478	0.	122.55
2967	-7.0322	7.7837	0.	122.45
2968	-7.2824	7.527	0.	121.76
2969	-6.5371	7.7917	0.	123.37
2970	-6.2984	7.5435	0.	123.77
2971	-5.5413	7.7279	0.	125.36
2972	-5.8028	7.5008	0.	124.94
2973	-5.3019	7.4615	0.	125.8
2974	-3.7744	7.4734	0.	127.64
2975	-4.0244	7.7224	0.	127.15
2976	-4.2832	7.4645	0.	126.88
2977	-3.2671	7.482	0.	128.86
2978	-3.5184	7.73	0.	128.15
2979	7.7429	-1.0114	0.	121.94
2980	7.4946	-0.75988	0.	121.51
2981	7.4902	-1.2645	0.	121.99
2982	4.	5.75	0.	129.69
2983	4.25	6.	0.	128.49
2984	4.25	5.5	0.	130.28
2985	4.	5.25	0.	131.54
2986	0.73814	-5.0253	0.	127.05
2987	0.98552	-4.7888	0.	128.35
2988	0.24999	6.5	0.	126.
2989	0.49999	6.25	0.	124.62
2990	-1.9989	4.2478	0.	123.61
2991	-1.7487	3.9985	0.	123.43
2992	-2.2477	3.9963	0.	124.51
2993	-4.4878	2.7271	0.	131.17
2994	-4.7348	2.969	0.	131.63
2995	-4.5	-0.75018	0.	130.59
2996	-4.75	-1.0001	0.	130.41
2997	0.49603	-6.6952	0.	129.96
2998	0.25268	-6.9089	0.	131.12
2999	0.49381	-7.1599	0.	130.28
3000	-4.25	-3.5	0.	132.37
3001	-3.75	-3.5	0.	131.31
3002	-3.9999	-3.7501	0.	132.43
3003	-4.	-3.25	0.	131.64
3004	-7.2575	6.5575	0.	118.54
3005	-7.7301	6.4771	0.	118.62
3006	-7.4525	6.2855	0.	115.86
3007	-0.74965	1.4996	0.	124.35
3008	-0.99964	1.7497	0.	125.76
3009	1.5	5.25	0.	122.06
3010	1.75	5.5	0.	124.12
3011	6.079	-4.1507	0.	120.53
3012	5.5531	-4.0376	0.	119.44
3013	5.7647	-4.4395	0.	116.1
3014	3.5	3.2501	0.	129.27
3015	3.25	3.5	0.	128.78
3016	3.75	3.5	0.	129.76
3017	3.5	3.75	0.	129.79
3018	3.5	4.75	0.	132.05
3019	3.25	5.	0.	131.98
3020	3.75	5.	0.	132.25
3021	3.4999	1.2518	0.	131.32
3022	3.7501	1.0034	0.	131.08
3023	4.2508	0.5071	0.	128.54
3024	4.0004	0.75561	0.	130.31
3025	4.5	6.75	0.	127.08
3026	4.75	6.5	0.	126.79
3027	4.5	6.25	0.	127.66
3028	0.74999	7.5	0.	125.48
3029	0.24999	7.5	0.	126.95
3030	0.49997	7.75	0.	126.39
3031	1.25	7.5	0.	124.79
3032	0.99998	7.75	0.	125.31
3033	0.99999	7.25	0.	124.61
3034	1.75	7.5	0.	124.74
3035	1.5	7.75	0.	124.93
3036	2.25	7.5	0.	125.09
3037	2.	7.75	0.	125.02
3038	2.	7.25	0.	124.76
3039	2.75	7.5	0.	125.6
3040	2.5	7.75	0.	125.4
3041	2.5	7.25	0.	125.39
3042	3.25	7.5	0.	126.14
3043	3.	7.75	0.	125.88
3044	3.75	7.5	0.	126.69
3045	3.5	7.75	0.	126.4
3046	4.25	7.5	0.	127.38
3047	4.	7.75	0.	127.
3048	0.7513	0.49708	0.	123.87
3049	1.0023	0.24484	0.	125.91
3050	-2.75	-3.	0.	126.95
3051	-3.	-3.25	0.	127.78
3052	1.484	-3.8133	0.	130.87
3053	1.2343	-4.0536	0.	130.72
3054	3.6194	-7.6539	0.	131.23
3055	3.4055	-7.8769	0.	130.82
3056	3.3861	-7.4046	0.	130.32
3057	3.1551	-7.6296	0.	130.36
3058	3.4158	-4.9771	0.	130.96
3059	3.6462	-4.7401	0.	130.46
3060	3.4138	-4.4737	0.	130.22
3061	3.1465	-7.1491	0.	129.13
3062	2.9155	-7.3741	0.	129.17
3063	2.9179	-6.8901	0.	127.9
3064	-0.26799	-7.8391	0.	130.09
3065	-0.41823	-7.4866	0.	131.13
3066	-0.59133	-7.7126	0.	129.62
3067	3.1865	-5.707	0.	129.14
3068	2.9381	-5.9254	0.	127.94
3069	2.9394	-5.4373	0.	129.35
3070	4.348	-5.0139	0.	128.9
3071	4.3457	-4.5295	0.	127.23
3072	4.1092	-4.7615	0.	129.16
3073	4.5573	-4.7629	0.	125.79
3074	4.0545	-7.6622	0.	130.84
3075	3.8766	-7.8873	0.	130.86
3076	3.837	-7.4329	0.	132.2
3077	4.3334	-7.8647	0.	129.03
3078	4.2494	-7.4629	0.	131.02
3079	4.4245	-7.574	0.	129.22
3080	1.4918	-3.3062	0.	130.79
3081	1.2396	-3.549	0.	131.57
3082	1.2472	-3.0427	0.	131.06
3083	1.745	-3.0643	0.	130.14
3084	1.5015	-2.7976	0.	130.03
3085	-2.5	-3.25	0.	125.61
3086	-2.25	-3.	0.	126.16
3087	-2.5	-2.75	0.	126.48
3088	-2.75	-3.5	0.	126.44
3089	-2.2501	-3.5	0.	124.75
3090	-2.5001	-3.75	0.	124.05
3091	-0.99957	0.24965	0.	121.52
3092	-0.74934	0.49931	0.	121.27
3093	-1.2496	0.49967	0.	123.79
3094	0.2512	0.4977	0.	122.03
3095	0.50212	0.2462	0.	124.23
3096	1.5086	-0.76612	0.	128.32
3097	1.259	-1.0163	0.	128.8
3098	1.5127	-1.2732	0.	128.4
3099	1.2561	-0.51203	0.	128.55
3100	1.5051	-0.26088	0.	127.87
3101	4.5	7.25	0.	127.44
3102	4.75	7.5	0.	128.59
3103	4.5	7.75	0.	127.84
3104	4.75	7.	0.	127.55
3105	-4.4999	-3.7501	0.	132.43
3106	-4.4998	-4.2502	0.	131.57
3107	-4.7499	-4.0001	0.	132.3
3108	-4.2499	-4.0001	0.	132.49
3109	-4.75	-3.5001	0.	132.96
3110	-4.5	-3.25	0.	132.32
3111	4.5008	0.75568	0.	128.52
3112	4.7511	0.50613	0.	126.23
3113	3.4999	1.7508	0.	131.47
3114	3.2499	2.0004	0.	131.4
3115	3.75	2.0006	0.	131.59
3116	3.5	2.2504	0.	130.89
3117	3.75	1.5015	0.	131.95
3118	3.2499	1.5009	0.	131.25
3119	6.284	-4.406	0.	121.04
3120	6.4885	-4.3833	0.	124.61
3121	6.6611	-4.1094	0.	125.24
3122	2.5	5.25	0.	129.48
3123	2.75	5.5	0.	129.19
3124	2.25	5.5	0.	126.94
3125	3.25	4.5	0.	132.24
3126	3.75	4.5	0.	132.5
3127	3.5	4.25	0.	131.22
3128	1.75	1.4994	0.	124.28
3129	2.	1.7496	0.	125.91
3130	2.2499	1.4996	0.	127.58
3131	-0.24963	1.4994	0.	122.78
3132	-0.49962	1.7495	0.	124.8
3133	-0.49949	1.2493	0.	122.9
3134	2.5245e-004	1.7495	0.	122.16
3135	5.0314e-004	1.2491	0.	121.66
3136	0.2503	1.4993	0.	121.1
3137	-1.2492	2.9995	0.	125.08
3138	-1.4988	3.2491	0.	124.
3139	-1.4991	2.7493	0.	125.15
3140	-6.7864	6.6156	0.	121.2
3141	-6.5281	6.4155	0.	123.87
3142	-6.3204	6.6657	0.	124.17
3143	-6.9919	6.3626	0.	118.81
3144	-5.5011	5.617	0.	127.66
3145	-5.7379	5.3471	0.	127.67
3146	-5.4874	5.1282	0.	126.59
3147	-5.5279	6.1166	0.	127.67
3148	-5.751	5.8305	0.	128.61
3149	6.7498	0.49804	0.	123.51
3150	6.5001	0.74872	0.	126.17
3151	6.2502	0.49912	0.	124.06
3152	6.9997	0.74824	0.	123.6
3153	7.2494	0.49743	0.	121.25
3154	-4.4996	-4.7504	0.	130.19
3155	-4.7498	-4.5003	0.	130.75
3156	-4.2498	-4.5003	0.	131.77
3157	-4.7496	-5.0004	0.	129.51
3158	-4.2495	-5.0005	0.	130.27
3159	-4.4992	-5.2506	0.	129.37
3160	-3.25	-3.5	0.	129.17
3161	-3.	-3.75	0.	127.82
3162	-3.5	-3.75	0.	131.31
3163	0.49339	-6.2239	0.	128.5
3164	0.24716	-6.4492	0.	129.88
3165	0.73998	-6.4798	0.	129.07
3166	0.24395	-5.9774	0.	127.55
3167	0.49137	-5.7447	0.	126.93
3168	-4.4999	-0.25059	0.	130.65
3169	-4.7499	-0.50038	0.	131.43
3170	-4.7498	-1.0368e-003	0.	131.3
3171	-4.4996	0.24852	0.	130.3
3172	-4.4919	2.235	0.	131.23
3173	-4.744	1.9874	0.	132.01
3174	-4.4954	1.7408	0.	130.67
3175	-4.7396	2.4793	0.	132.58
3176	-2.2492	4.4961	0.	124.73
3177	-2.5001	4.7441	0.	126.88
3178	-2.7484	4.4909	0.	126.82
3179	-2.498	4.2446	0.	125.63
3180	-2.0001	4.7477	0.	123.18
3181	-1.7495	4.4984	0.	123.09
3182	-3.5109	5.7224	0.	129.12
3183	-3.2618	5.9785	0.	129.71
3184	-3.5166	6.2224	0.	128.77
3185	-3.2569	5.479	0.	129.86
3186	-3.5046	5.2233	0.	129.04
3187	-4.4237e-005	7.75	0.	128.31
3188	-0.25002	7.5	0.	130.18
3189	4.5792	-5.2209	0.	127.
3190	4.8381	-5.4123	0.	121.91
3191	5.0146	-5.0323	0.	120.8
3192	4.7885	-4.9699	0.	123.89
3193	-4.9997	-4.7502	0.	130.06
3194	-4.9998	-4.2502	0.	131.46
3195	-5.2498	-4.5002	0.	132.04
3196	1.1672	-7.9737	0.	128.81
3197	0.86621	-8.1942	0.	128.68
3198	0.67432	-7.9066	0.	128.49
3199	1.405	-8.2433	0.	129.35
3200	1.6753	-8.0173	0.	129.25
3201	2.4374	-8.3074	0.	130.14
3202	2.6832	-8.0805	0.	130.14
3203	2.1831	-8.0518	0.	129.68
3204	4.1555	-8.0898	0.	129.02
3205	3.9281	-8.3399	0.	129.43
3206	3.6626	-8.1102	0.	130.44
3207	4.43	-8.3002	0.	126.85
3208	4.6585	-7.9818	0.	124.99
3209	5.7072	-7.9705	0.	111.84
3210	5.5004	-7.8078	0.	116.03
3211	5.1803	-7.9529	0.	118.9
3212	5.4571	-8.2457	0.	116.12
3213	0.49999	5.25	0.	122.72
3214	0.24998	5.5	0.	125.51
3215	0.49999	5.75	0.	123.99
3216	0.24999	5.	0.	124.26
3217	0.5	4.75	0.	120.02
3218	-3.0115	6.2348	0.	130.15
3219	-2.7597	6.4889	0.	131.77
3220	-3.0137	6.7348	0.	130.02
3221	-3.2662	6.4787	0.	129.21
3222	-1.2493	3.9993	0.	124.
3223	-1.4994	4.2491	0.	122.92
3224	-1.4989	3.749	0.	123.32
3225	0.24264	-5.0067	0.	126.02
3226	0.49092	-4.7666	0.	127.01
3227	0.4908	-5.2584	0.	126.35
3228	-3.3158	-7.5063	0.	129.09
3229	-3.7611	-7.4874	0.	130.37
3230	-3.458	-7.7236	0.	128.68
3231	-3.5099	-7.2395	0.	131.5
3232	-3.2457	-7.7522	0.	127.78
3233	-2.8978	-7.6273	0.	127.3
3234	-3.0281	-7.2885	0.	128.41
3235	7.7204	-3.5271	0.	124.42
3236	7.2001	-3.5509	0.	125.19
3237	7.4634	-3.2852	0.	124.55
3238	7.4709	-3.7845	0.	126.9
3239	-4.9995	-5.2503	0.	128.73
3240	-5.2497	-5.0002	0.	131.83
3241	0.74997	8.	0.	126.23
3242	0.24994	8.	0.	127.75
3243	0.49994	8.25	0.	127.09
3244	0.99997	8.25	0.	126.01
3245	1.25	8.	0.	125.45
3246	2.25	8.	0.	125.33
3247	1.75	8.	0.	125.21
3248	2.	8.25	0.	125.43
3249	2.75	8.	0.	125.68
3250	2.5	8.25	0.	125.62
3251	6.75	8.	0.	119.26
3252	6.25	8.	0.	122.61
3253	6.5	8.25	0.	121.09
3254	6.5	7.75	0.	118.71
3255	7.	7.75	0.	117.89
3256	7.25	8.	0.	119.03
3257	7.	8.25	0.	119.44
3258	-2.7603	7.4896	0.	131.67
3259	-3.0125	7.7369	0.	129.76
3260	-3.0139	7.2354	0.	129.89
3261	-8.203	6.3752	0.	121.6
3262	-7.984	6.6937	0.	120.34
3263	-7.9107	6.1724	0.	118.49
3264	-8.009	7.2182	0.	121.59
3265	-8.2587	7.4671	0.	122.86
3266	-8.0151	7.7351	0.	122.62
3267	-7.7711	7.496	0.	121.85
3268	-6.7774	8.0276	0.	123.27
3269	-7.0216	8.2707	0.	123.32
3270	-7.2741	8.0178	0.	122.81
3271	-6.2778	8.0226	0.	124.05
3272	-6.5224	8.2728	0.	123.88
3273	-5.7776	8.0015	0.	124.86
3274	-6.0209	8.2622	0.	124.59
3275	-6.0391	7.7744	0.	124.45
3276	-5.2777	7.9801	0.	125.56
3277	-5.5212	8.2409	0.	125.27
3278	-5.0383	7.7137	0.	126.01
3279	-5.021	8.2289	0.	125.84
3280	-4.7764	7.9724	0.	126.16
3281	-3.7684	7.979	0.	127.67
3282	-4.0169	8.2296	0.	127.14
3283	-4.2729	7.9739	0.	126.8
3284	-3.5137	8.2342	0.	128.22
3285	-3.2638	7.9849	0.	129.06
3286	-3.9958	-7.2476	0.	132.71
3287	-3.9741	-7.7461	0.	130.31
3288	-4.2439	-7.4985	0.	132.34
3289	-7.7498	-8.	0.	121.94
3290	-7.4998	-7.75	0.	120.
3291	-7.2497	-8.	0.	121.16
3292	-7.4996	-8.25	0.	121.94
3293	-7.9999	-7.75	0.	122.65
3294	-8.2498	-8.	0.	124.08
3295	-7.9998	-8.25	0.	123.31
3296	-7.7499	-7.5	0.	120.71
3297	-7.9999	-7.25	0.	122.73
3298	-8.2499	-7.5	0.	124.24
3299	-7.4999	-7.25	0.	118.16
3300	-7.2498	-7.5	0.	118.32
3301	-3.671	-7.9823	0.	128.61
3302	-3.1173	-8.0436	0.	125.68
3303	-3.4167	-8.2394	0.	127.46
3304	-2.4361	-7.7591	0.	126.44
3305	-2.7694	-7.9188	0.	125.19
3306	-2.6044	-7.5091	0.	125.95
3307	3.4258	-5.4782	0.	130.36
3308	3.1787	-5.2085	0.	130.59
3309	3.6576	-5.2435	0.	131.93
3310	1.0009	-2.7804	0.	131.04
3311	0.75277	-2.5205	0.	131.95
3312	1.2551	-2.5353	0.	130.02
3313	0.73985	-4.0311	0.	130.06
3314	0.98979	-3.7892	0.	131.43
3315	0.98666	-4.2908	0.	129.9
3316	-1.7499	-9.1887e-005	0.	127.54
3317	-1.9999	-0.25005	0.	129.11
3318	-2.2499	-9.6477e-005	0.	128.76
3319	-1.9999	0.24988	0.	128.
3320	1.0044	-0.25891	0.	127.96
3321	1.2534	-7.7603e-003	0.	127.27
3322	0.75309	-6.042e-003	0.	126.24
3323	-5.	-3.2501	0.	132.66
3324	-5.25	-3.	0.	131.07
3325	-4.75	-3.	0.	132.01
3326	-5.75	-2.5	0.	125.92
3327	-5.5	-2.75	0.	128.86
3328	-5.5	-2.25	0.	126.76
3329	7.7496	0.99863	0.	117.38
3330	7.9997	1.249	0.	115.58
3331	7.9992	0.74774	0.	117.28
3332	8.2495	0.99841	0.	117.15
3333	7.9943	-0.7592	0.	121.72
3334	7.746	-0.50772	0.	121.29
3335	7.9968	-0.25638	0.	120.77
3336	8.246	-0.50692	0.	121.9
3337	7.9909	-1.2623	0.	122.35
3338	8.2433	-1.0095	0.	122.58
3339	7.7952	-7.5082	0.	125.72
3340	7.5422	-7.7576	0.	127.71
3341	7.3121	-7.5082	0.	128.91
3342	7.5616	-7.2604	0.	127.2
3343	8.0311	-7.7566	0.	124.85
3344	8.0415	-7.2573	0.	122.93
3345	8.2812	-7.506	0.	123.1
3346	7.778	-8.006	0.	126.86
3347	8.0192	-8.255	0.	125.97
3348	8.2712	-8.0052	0.	124.99
3349	7.2825	-8.0037	0.	129.42
3350	7.5232	-8.2544	0.	127.67
3351	2.7499	2.0001	0.	130.92
3352	2.9999	2.2502	0.	131.4
3353	2.9999	1.7504	0.	131.18
3354	0.25013	1.9997	0.	120.66
3355	0.50008	2.2498	0.	117.53
3356	0.50018	1.7495	0.	119.6
3357	-0.99959	2.2497	0.	126.79
3358	-1.2495	1.9996	0.	126.34
3359	-0.74961	1.9996	0.	126.19
3360	-5.969	3.679	0.	126.22
3361	-6.211	3.9176	0.	125.12
3362	-5.9678	4.1499	0.	124.61
3363	-5.72	3.919	0.	125.55
3364	-6.2654	6.2276	0.	126.07
3365	-6.0578	6.4778	0.	126.38
3366	-5.7864	6.3169	0.	127.33
3367	-6.0095	6.0309	0.	128.27
3368	7.25	5.	0.	117.2
3369	7.75	5.	0.	115.86
3370	7.5	4.75	0.	114.3
3371	7.5	5.25	0.	114.56
3372	7.2498	0.99871	0.	121.62
3373	7.4998	1.249	0.	117.17
3374	7.4994	0.7479	0.	119.26
3375	1.5954e-002	-7.1022	0.	131.79
3376	-0.21598	-7.3092	0.	131.39
3377	0.25708	-7.3533	0.	130.96
3378	3.8055e-003	-6.6628	0.	131.04
3379	-0.24005	-6.8873	0.	131.14
3380	-4.9997	0.24821	0.	131.76
3381	-5.2497	0.49795	0.	133.55
3382	-4.9992	0.74649	0.	131.68
3383	-4.7495	0.49777	0.	130.76
3384	-5.	-0.75029	0.	131.26
3385	-5.25	-1.0001	0.	129.49
3386	-5.	-1.2501	0.	129.62
3387	-1.2502	4.9995	0.	122.11
3388	-1.7505	4.9984	0.	121.39
3389	-1.5005	5.2493	0.	116.
3390	-1.5	4.7492	0.	121.34
3391	-0.35901	-8.0645	0.	135.19
3392	4.3024e-002	-8.187	0.	128.19
3393	-0.7501	4.9999	0.	126.74
3394	-1.0002	5.2498	0.	124.15
3395	-0.99997	4.7497	0.	124.92
3396	-3.591e-005	5.75	0.	127.37
3397	-2.823e-005	5.25	0.	127.05
3398	-0.25007	5.5	0.	129.36
3399	-0.25004	6.	0.	128.64
3400	-2.3994e-005	6.25	0.	127.23
3401	0.24997	6.	0.	125.85
3402	-3.0078	5.7351	0.	130.45
3403	-2.7574	5.9891	0.	131.
3404	-2.7546	5.4893	0.	131.15
3405	-3.0038	5.2356	0.	129.84
3406	-2.251	4.9957	0.	125.33
3407	-2.5024	5.2436	0.	129.82
3408	-2.7515	4.9899	0.	128.5
3409	-2.0011	5.2478	0.	123.17
3410	-5.2451	1.9874	0.	133.8
3411	-4.9957	1.7391	0.	132.42
3412	-4.9918	2.2318	0.	133.35
3413	-4.9999	-0.25083	0.	132.08
3414	-5.25	-0.5004	0.	132.95
3415	-5.2499	-1.0945e-003	0.	132.86
3416	-5.3557e-003	-4.7528	0.	125.89
3417	-0.25446	-4.998	0.	126.16
3418	-5.5616e-003	-5.2441	0.	125.23
3419	-4.6147e-003	-4.2568	0.	125.37
3420	0.24292	-4.5126	0.	126.88
3421	-0.25414	-4.5031	0.	126.58
3422	-0.7518	-4.0012	0.	120.79
3423	-0.25316	-4.0049	0.	122.65
3424	-0.50186	-3.7519	0.	116.17
3425	-0.50269	-4.2512	0.	123.97
3426	-2.2736e-003	-6.2027	0.	128.94
3427	-0.24949	-6.437	0.	130.73
3428	-0.25301	-5.9691	0.	127.99
3429	-4.8164e-003	-5.7285	0.	126.19
3430	-4.2478	-6.0011	0.	132.65
3431	-3.7473	-6.002	0.	134.57
3432	-3.9981	-5.7512	0.	131.89
3433	-3.9964	-6.2512	0.	135.
3434	-3.2223	-7.0217	0.	130.82
3435	-3.7446	-6.9997	0.	133.83
3436	-3.4913	-6.7533	0.	135.26
3437	-2.7096	-6.9738	0.	126.27
3438	-2.9707	-6.7742	0.	129.14
3439	-2.7348	-7.1703	0.	127.07
3440	-3.	-4.25	0.	128.36
3441	-3.25	-4.	0.	129.96
3442	-2.7501	-4.	0.	125.42
3443	6.9999	1.2491	0.	126.08
3444	6.75	0.99893	0.	126.24
3445	6.0002	1.2499	0.	124.96
3446	5.7504	1.0005	0.	122.5
3447	6.2502	0.99949	0.	126.11
3448	6.0004	0.74989	0.	124.01
3449	6.75	5.	0.	121.43
3450	7.	4.75	0.	121.54
3451	7.	5.25	0.	118.16
3452	6.25	5.	0.	124.09
3453	6.5	4.75	0.	128.49
3454	6.5	5.25	0.	120.87
3455	-4.2478	-6.999	0.	135.49
3456	-3.9965	-6.7495	0.	135.52
3457	-6.2309	5.2974	0.	129.21
3458	-5.9802	5.0887	0.	126.71
3459	-5.9879	5.5606	0.	128.6
3460	-6.7336	6.1625	0.	121.5
3461	-6.4848	5.9624	0.	127.49
3462	-6.9294	5.9125	0.	119.85
3463	-7.1869	6.0907	0.	116.1
3464	-6.2177	3.4515	0.	127.74
3465	-5.7242	3.4431	0.	128.43
3466	-5.9798	3.205	0.	128.43
3467	-0.99948	2.7497	0.	126.36
3468	-0.74954	2.9997	0.	127.17
3469	-0.99929	3.2495	0.	124.65
3470	-0.74968	2.4998	0.	128.35
3471	-1.2494	2.4995	0.	126.43
3472	1.4766e-004	2.2498	0.	123.24
3473	-0.24973	1.9996	0.	124.17
3474	2.4999	2.25	0.	131.89
3475	2.2499	1.9998	0.	128.09
3476	2.4999	1.7499	0.	129.75
3477	2.75	3.	0.	130.86
3478	3.	2.7501	0.	130.55
3479	3.25	3.0001	0.	129.57
3480	3.	3.25	0.	129.08
3481	2.75	4.5	0.	133.3
3482	3.	4.75	0.	132.16
3483	3.	4.25	0.	131.5
3484	2.5	4.75	0.	132.4
3485	2.75	5.	0.	131.24
3486	2.25	5.	0.	128.37
3487	-0.25004	5.	0.	127.94
3488	2.9684e-006	4.75	0.	126.74
3489	-0.49999	4.7499	0.	130.01
3490	-0.50008	5.2499	0.	130.25
3491	-0.74964	3.9997	0.	126.74
3492	-0.99934	3.7495	0.	124.25
3493	-0.99964	4.2496	0.	125.2
3494	7.0524	-7.7544	0.	130.59
3495	6.7775	-7.9939	0.	131.21
3496	7.0225	-8.2491	0.	129.23
3497	6.8334	-7.5037	0.	132.75
3498	7.0865	-7.2596	0.	129.99
3499	7.1137	-5.2871	0.	132.54
3500	7.1276	-5.7769	0.	130.44
3501	7.3439	-5.5234	0.	132.3
3502	6.9126	-5.5359	0.	132.1
3503	6.2091	-4.8902	0.	116.51
3504	6.4015	-4.6404	0.	123.11
3505	5.9697	-4.6948	0.	116.53
3506	8.242	-4.0094	0.	121.94
3507	7.9978	-4.2608	0.	124.79
3508	7.9841	-3.7658	0.	123.71
3509	7.7346	-4.0231	0.	126.18
3510	7.0724	-4.7993	0.	133.22
3511	7.2817	-4.5399	0.	133.06
3512	6.8249	-4.5865	0.	129.44
3513	6.9976	-4.3126	0.	130.1
3514	6.8817	-5.0594	0.	135.8
3515	7.3241	-5.0311	0.	133.86
3516	7.3481	-6.0186	0.	130.5
3517	6.9103	-6.0224	0.	132.66
3518	7.1245	-6.2698	0.	130.62
3519	7.8079	-7.0094	0.	124.42
3520	7.573	-6.7625	0.	128.54
3521	7.336	-7.0117	0.	128.28
3522	8.2867	-7.0055	0.	120.29
3523	8.043	-6.7564	0.	121.45
3524	5.	5.25	0.	128.31
3525	5.25	5.	0.	125.68
3526	5.	4.75	0.	126.64
3527	4.75	5.	0.	129.49
3528	4.	4.25	0.	132.3
3529	4.	4.75	0.	132.69
3530	4.25	4.5	0.	133.68
3531	4.25	2.0009	0.	132.07
3532	4.	2.2505	0.	131.32
3533	4.	1.7513	0.	132.06
3534	4.5003	1.2531	0.	131.28
3535	4.7505	1.0035	0.	126.74
3536	4.2504	1.0042	0.	130.28
3537	-6.	-2.25	0.	123.41
3538	-6.25	-2.5	0.	123.14
3539	-6.	-2.75	0.	124.37
3540	-6.	-1.75	0.	121.86
3541	-6.25	-2.	0.	121.83
3542	-5.75	-2.	0.	124.25
3543	-4.9999	-3.7501	0.	132.82
3544	-5.2499	-4.0001	0.	132.63
3545	-5.2499	-3.5001	0.	133.63
3546	-5.5	-3.2501	0.	132.07
3547	-5.75	-3.	0.	127.32
3548	6.	7.75	0.	125.7
3549	6.	8.25	0.	124.73
3550	5.75	8.	0.	126.82
3551	5.25	7.5	0.	130.76
3552	5.	7.75	0.	129.17
3553	5.	7.25	0.	128.69
3554	5.	5.75	0.	128.75
3555	5.25	6.	0.	129.37
3556	5.	6.25	0.	127.39
3557	4.75	6.	0.	128.27
3558	5.25	5.5	0.	129.8
3559	4.75	5.5	0.	129.57
3560	5.75	5.	0.	124.19
3561	5.5	5.25	0.	127.26
3562	5.5	4.75	0.	119.15
3563	6.	5.25	0.	124.81
3564	6.	4.75	0.	125.03
3565	1.0065	-0.76219	0.	129.04
3566	0.75573	-1.0107	0.	129.52
3567	1.0082	-1.2659	0.	129.28
3568	0.75471	-0.50858	0.	129.34
3569	1.8074e-003	-0.25235	0.	121.04
3570	1.3753e-003	0.24788	0.	120.73
3571	0.2523	-3.624e-003	0.	122.93
3572	-0.24865	-1.7423e-003	0.	118.79
3573	-1.2497	-2.0885e-004	0.	123.64
3574	-0.99967	-0.25023	0.	120.86
3575	-0.74927	-7.4268e-004	0.	118.97
3576	-1.4999	-0.25009	0.	128.3
3577	-1.4997	0.24982	0.	125.89
3578	-2.	-0.75003	0.	129.46
3579	-1.7499	-0.50005	0.	129.85
3580	-2.25	-0.50005	0.	129.39
3581	-1.75	-1.	0.	129.58
3582	-2.	-1.25	0.	128.92
3583	-2.25	-1.	0.	129.03
3584	-2.0001	-3.25	0.	125.31
3585	-1.7501	-3.	0.	126.7
3586	-2.	-2.75	0.	126.61
3587	-1.7502	-3.5	0.	125.53
3588	-2.0002	-3.75	0.	122.72
3589	-1.251	-4.0002	0.	121.08
3590	-1.5004	-3.75	0.	124.03
3591	-1.5007	-4.25	0.	118.89
3592	-1.7504	-4.	0.	121.11
3593	-1.0015	-4.2503	0.	121.93
3594	-1.001	-3.7504	0.	121.26
3595	0.24396	-4.0147	0.	126.96
3596	-3.5535e-003	-3.7574	0.	123.99
3597	0.4934	-3.7708	0.	131.1
3598	0.4915	-4.2704	0.	128.47
3599	0.99497	-3.2855	0.	131.84
3600	0.74334	-3.5289	0.	132.46
3601	0.74838	-3.025	0.	132.02
3602	4.2888	-7.0593	0.	133.71
3603	4.032	-7.2336	0.	132.34
3604	4.4112	-7.3761	0.	130.07
3605	4.3867	-5.5266	0.	131.6
3606	4.1269	-5.259	0.	131.16
3607	3.4179	-6.4522	0.	127.34
3608	3.6428	-6.7184	0.	128.32
3609	3.392	-6.9286	0.	128.41
3610	3.1634	-6.6696	0.	127.18
3611	3.4316	-5.9697	0.	128.57
3612	3.6792	-5.7481	0.	131.97
3613	3.6865	-6.2403	0.	127.16
3614	3.1833	-6.1881	0.	127.39
3615	-2.4782	-6.688	0.	121.46
3616	-2.4915	-7.1019	0.	124.73
3617	-2.2266	-6.9206	0.	120.39
3618	-0.47198	-7.0943	0.	130.74
3619	-0.70519	-7.3347	0.	127.17
3620	-0.73953	-6.905	0.	124.77
3621	-0.49334	-6.6615	0.	130.83
3622	-6.	-1.25	0.	122.28
3623	-6.25	-1.5	0.	120.72
3624	-5.75	-1.5	0.	123.53
3625	-7.7499	-7.	0.	120.19
3626	-7.2499	-7.	0.	116.67
3627	-7.4999	-6.75	0.	116.01
3628	1.104	-8.4638	0.	129.23
3629	0.8478	-8.6977	0.	129.74
3630	0.52993	-8.4029	0.	128.2
3631	1.6555	-8.5045	0.	129.89
3632	1.3982	-8.7363	0.	130.23
3633	2.4433	-8.7876	0.	130.56
3634	2.1801	-8.5342	0.	130.25
3635	2.6909	-8.5566	0.	130.42
3636	4.4674	-8.7758	0.	125.26
3637	4.2026	-8.5503	0.	127.24
3638	4.7067	-8.5028	0.	123.67
3639	6.4987	-8.7363	0.	122.51
3640	6.511	-8.2351	0.	127.48
3641	6.7559	-8.4903	0.	125.37
3642	6.2425	-8.4764	0.	120.09
3643	7.5104	-8.7518	0.	126.68
3644	7.2631	-8.4998	0.	127.48
3645	7.7643	-8.5034	0.	126.79
3646	-3.9578	-8.2464	0.	129.99
3647	-4.2175	-7.9971	0.	130.97
3648	-7.9999	-6.75	0.	124.23
3649	-8.2499	-7.	0.	125.71
3650	-5.75	-1.0001	0.	125.99
3651	-5.5	-0.75022	0.	131.21
3652	-5.5	-1.2501	0.	127.23
3653	8.	4.75	0.	115.64
3654	8.	5.25	0.	118.5
3655	8.25	5.	0.	118.96
3656	-1.1152e-004	8.25	0.	128.93
3657	-0.25008	8.	0.	129.6
3658	-7.0131	8.7622	0.	124.02
3659	-6.7667	8.5159	0.	123.93
3660	-7.266	8.5112	0.	123.64
3661	-6.0107	8.7567	0.	124.87
3662	-5.7646	8.5016	0.	125.
3663	-6.2656	8.5124	0.	124.43
3664	-3.7622	8.4848	0.	127.69
3665	-4.0104	8.7362	0.	127.03
3666	-4.2639	8.4824	0.	126.75
3667	-3.2599	8.4884	0.	129.07
3668	-3.5091	8.7387	0.	127.98
3669	-3.0071	8.7419	0.	129.24
3670	-2.7571	8.4924	0.	130.9
3671	-3.01	8.2391	0.	129.91
3672	0.24989	8.5	0.	128.27
3673	-1.6847e-004	8.75	0.	128.65
3674	-0.25023	8.5	0.	130.18
3675	0.74995	8.5	0.	126.87
3676	0.49992	8.75	0.	127.36
3677	1.25	8.5	0.	126.05
3678	0.99996	8.75	0.	126.49
3679	6.5	8.75	0.	122.41
3680	6.25	8.5	0.	123.21
3681	6.75	8.5	0.	121.23
3682	-8.6952	6.3576	0.	125.
3683	-8.3983	6.0283	0.	123.85
3684	-8.4616	6.6132	0.	123.4
3685	-8.755	7.981	0.	124.49
3686	-8.5078	8.2382	0.	124.13
3687	-8.5051	7.719	0.	123.75
3688	-8.2616	7.987	0.	123.51
3689	8.7481	-3.6816e-003	0.	122.84
3690	8.2478	-4.7264e-003	0.	120.83
3691	8.4983	0.24639	0.	120.78
3692	8.497	-0.25527	0.	121.96
3693	8.4854	-2.7609	0.	123.28
3694	8.7383	-2.5089	0.	123.94
3695	8.4868	-2.2613	0.	123.51
3696	8.2321	-2.5158	0.	123.28
3697	8.7386	-3.0075	0.	123.56
3698	8.2306	-3.0153	0.	123.18
3699	8.4864	-3.2594	0.	122.64
3700	8.4973	-4.2542	0.	116.92
3701	8.7454	-4.0037	0.	121.16
3702	8.4908	-3.757	0.	121.09
3703	-8.4999	-7.75	0.	125.66
3704	-8.7499	-8.	0.	126.27
3705	-8.4999	-8.25	0.	125.29
3706	-8.4999	-7.25	0.	127.21
3707	-8.7499	-7.5	0.	127.11
3708	-6.7496	-8.0001	0.	123.06
3709	-6.9994	-8.2501	0.	122.4
3710	-6.9997	-7.75	0.	119.5
3711	-3.9708	-8.7498	0.	130.18
3712	-4.2198	-8.4979	0.	131.21
3713	-3.7034	-8.5035	0.	128.86
3714	8.5263	-7.2541	0.	120.49
3715	8.5241	-6.7526	0.	115.46
3716	8.7717	-7.0026	0.	120.12
3717	8.7699	-7.5036	0.	122.54
3718	8.5213	-7.7545	0.	123.24
3719	-4.9993	-5.7503	0.	127.82
3720	-5.2496	-5.5002	0.	129.58
3721	-4.7492	-5.5005	0.	128.58
3722	-4.7487	-6.0005	0.	129.73
3723	-4.4981	-6.2505	0.	134.37
3724	-4.4986	-5.7507	0.	130.47
3725	-7.9749	2.7398	0.	117.2
3726	-7.9215	3.2267	0.	113.69
3727	-7.7352	2.9546	0.	110.85
3728	-8.2048	3.0172	0.	122.22
3729	-0.99443	-6.6923	0.	119.68
3730	-0.97274	-7.1455	0.	121.25
3731	-1.2415	-6.9467	0.	113.65
3732	3.9341	-6.0187	0.	130.51
3733	4.1709	-5.781	0.	133.81
3734	3.911	-5.5134	0.	133.48
3735	3.9114	-6.5066	0.	128.02
3736	4.1113	-6.799	0.	132.45
3737	3.8544	-6.9734	0.	131.15
3738	-6.7499	-7.	0.	118.24
3739	-7.	-6.75	0.	115.82
3740	-6.9999	-7.25	0.	116.87
3741	-4.9992	-6.2502	0.	128.39
3742	-5.2494	-6.0002	0.	126.72
3743	0.61528	-8.947	0.	130.67
3744	0.39368	-9.2063	0.	131.96
3745	0.29741	-8.6522	0.	129.11
3746	9.8132e-002	-8.96	0.	132.77
3747	0.90892	-9.2168	0.	131.53
3748	1.142	-8.9701	0.	130.74
3749	2.4594	-9.2702	0.	130.83
3750	2.1898	-9.0186	0.	130.79
3751	2.7025	-9.0343	0.	130.52
3752	3.7206	-9.0435	0.	128.42
3753	3.475	-9.2837	0.	129.09
3754	3.2122	-9.0435	0.	129.83
3755	3.4567	-8.8113	0.	129.69
3756	4.2264	-9.0302	0.	126.1
3757	3.9811	-9.2795	0.	127.16
3758	3.9616	-8.8047	0.	128.09
3759	4.4853	-9.2646	0.	124.44
3760	4.7297	-9.007	0.	122.99
3761	5.4899	-9.2409	0.	119.22
3762	5.7377	-8.9854	0.	118.78
3763	5.2328	-8.9908	0.	119.99
3764	5.4758	-8.734	0.	117.64
3765	6.4978	-9.2417	0.	121.71
3766	6.7497	-8.9923	0.	123.36
3767	6.2438	-8.9862	0.	120.39
3768	7.756	-9.0015	0.	126.07
3769	7.5039	-9.2504	0.	125.58
3770	7.2541	-8.9983	0.	125.43
3771	8.2556	-9.0023	0.	125.98
3772	8.0043	-9.2517	0.	125.92
3773	8.0099	-8.7532	0.	126.18
3774	8.5036	-9.2517	0.	125.9
3775	8.5077	-8.7528	0.	125.66
3776	8.7544	-9.0019	0.	125.86
3777	0.24589	-3.5135	0.	128.13
3778	0.49674	-3.2685	0.	132.61
3779	-1.2505	-3.5002	0.	124.13
3780	-1.5002	-3.25	0.	126.92
3781	-1.4999	-0.75004	0.	129.94
3782	-1.2498	-0.50011	0.	125.5
3783	0.25291	-0.50444	0.	125.73
3784	0.50395	-0.75712	0.	129.81
3785	0.5034	-0.25572	0.	127.66
3786	5.5	5.75	0.	130.38
3787	5.75	5.5	0.	127.77
3788	5.5	7.25	0.	131.12
3789	5.75	7.5	0.	129.26
3790	5.5	7.75	0.	130.43
3791	8.75	7.5	0.	130.38
3792	8.25	7.5	0.	128.49
3793	8.5	7.25	0.	130.71
3794	8.5	7.75	0.	129.81
3795	8.5	5.75	0.	127.7
3796	8.25	5.5	0.	123.83
3797	8.5	5.25	0.	124.5
3798	8.75	5.5	0.	127.89
3799	-5.4999	-3.7501	0.	133.4
3800	-5.75	-3.5	0.	129.54
3801	-8.75	-3.5	0.	129.74
3802	-8.5	-3.75	0.	129.29
3803	-8.25	-3.5	0.	123.81
3804	-8.5	-3.25	0.	125.69
3805	-8.9999	-8.75	0.	126.85
3806	-9.25	-8.5	0.	127.56
3807	-8.9999	-8.25	0.	127.06
3808	-8.7499	-8.5	0.	126.09
3809	-9.	-3.75	0.	130.92
3810	-8.75	-4.	0.	130.48
3811	-9.25	-4.	0.	131.36
3812	-9.	-4.25	0.	130.7
3813	-9.	-3.25	0.	130.49
3814	-9.25	-3.5	0.	132.34
3815	-9.	-2.75	0.	130.31
3816	-9.25	-3.	0.	132.9
3817	-8.75	-3.	0.	126.39
3818	-6.5	-2.25	0.	121.54
3819	-6.75	-2.5	0.	118.47
3820	-6.5	-2.75	0.	119.85
3821	8.9977	-0.25371	0.	124.31
3822	9.2486	-2.384e-003	0.	125.83
3823	8.9986	0.24727	0.	124.13
3824	9.2477	-0.50327	0.	125.51
3825	8.9963	-0.75491	0.	124.47
3826	8.7466	-0.50529	0.	123.43
3827	8.9914	-2.7555	0.	124.22
3828	9.2435	-2.5043	0.	125.03
3829	8.9916	-2.2564	0.	124.48
3830	9.244	-3.0033	0.	124.92
3831	8.9926	-3.2542	0.	123.69
3832	7.5334	-4.7717	0.	133.71
3833	7.7626	-4.5164	0.	129.75
3834	7.4993	-4.2787	0.	131.21
3835	6.6806	-5.3082	0.	134.96
3836	6.4419	-5.0964	0.	125.48
3837	6.6343	-4.8466	0.	132.14
3838	6.5586	-7.7432	0.	133.17
3839	6.2442	-7.9584	0.	119.98
3840	-0.24995	4.5	0.	128.79
3841	-0.49986	4.2499	0.	129.67
3842	-0.74987	4.4998	0.	128.2
3843	2.25	4.5	0.	130.85
3844	2.5	4.25	0.	133.26
3845	2.5	2.75	0.	132.6
3846	2.25	2.5	0.	130.09
3847	2.7499	2.5001	0.	132.36
3848	-0.24981	2.4998	0.	126.78
3849	-0.49974	2.7498	0.	129.11
3850	-0.49969	2.2497	0.	127.77
3851	-6.5	2.7403	0.	119.54
3852	-6.4807	3.2223	0.	126.23
3853	-6.7664	3.0106	0.	113.96
3854	-6.2428	2.9758	0.	127.02
3855	-6.6807	5.7124	0.	125.83
3856	-6.472	5.5025	0.	130.14
3857	-6.229	5.7657	0.	129.66
3858	-2.7397	-9.0595	0.	133.92
3859	-2.4729	-8.847	0.	128.66
3860	-2.5002	-9.304	0.	133.95
3861	-2.2589	-9.0764	0.	130.87
3862	-3.2312	-9.031	0.	130.41
3863	-2.9907	-9.2845	0.	131.72
3864	-2.9613	-8.8083	0.	128.78
3865	-3.7296	-9.009	0.	130.22
3866	-3.4867	-9.2631	0.	130.95
3867	-3.4622	-8.7627	0.	128.88
3868	-4.2328	-9.0004	0.	129.42
3869	-3.9866	-9.2522	0.	130.19
3870	-4.7381	-8.999	0.	125.75
3871	-4.4817	-8.7485	0.	130.46
3872	-4.4894	-9.2493	0.	127.91
3873	-5.2428	-8.9993	0.	120.39
3874	-4.9903	-8.7491	0.	123.83
3875	-4.9929	-9.2492	0.	123.
3876	-5.7461	-8.9997	0.	118.47
3877	-5.4951	-8.7497	0.	114.96
3878	-5.4958	-9.2496	0.	118.98
3879	-6.2479	-8.9999	0.	120.81
3880	-5.9975	-8.7499	0.	119.18
3881	-5.9977	-9.2498	0.	119.47
3882	-6.7489	-9.	0.	123.05
3883	-6.4987	-8.75	0.	124.11
3884	-6.4988	-9.2499	0.	122.03
3885	-7.2494	-9.	0.	123.63
3886	-6.9993	-9.25	0.	123.27
3887	-6.9992	-8.75	0.	123.52
3888	-7.4996	-9.25	0.	123.79
3889	-7.4996	-8.75	0.	123.28
3890	-7.7497	-9.	0.	124.06
3891	-8.9999	-9.25	0.	126.81
3892	-9.25	-9.	0.	127.4
3893	-8.7499	-9.	0.	126.17
3894	-6.2482	-8.5	0.	122.47
3895	-6.4992	-8.2501	0.	125.19
3896	-6.749	-8.5001	0.	124.57
3897	-4.4796	-8.2486	0.	132.15
3898	-4.7339	-8.4987	0.	128.49
3899	6.75	4.5	0.	128.31
3900	6.5	4.25	0.	132.81
3901	6.25	4.5	0.	129.25
3902	6.75	1.4995	0.	131.73
3903	6.2501	1.4998	0.	130.79
3904	6.5001	1.7497	0.	135.37
3905	6.5001	1.2493	0.	132.03
3906	-8.9993	0.74994	0.	129.81
3907	-8.9998	0.24975	0.	129.96
3908	-8.7497	0.49979	0.	129.55
3909	-9.2496	0.49997	0.	130.93
3910	-8.9973	1.2515	0.	130.1
3911	-8.749	1.0004	0.	131.17
3912	-9.2489	1.0013	0.	130.75
3913	-8.9911	1.7564	0.	130.73
3914	-8.7465	1.5027	0.	130.63
3915	-9.2462	1.5032	0.	130.75
3916	-8.9795	2.2623	0.	132.11
3917	-8.739	2.0091	0.	130.59
3918	-9.2388	2.008	0.	131.79
3919	-8.725	2.5158	0.	131.82
3920	-9.2272	2.5111	0.	133.01
3921	-8.9604	2.7686	0.	133.44
3922	-8.8771	3.7557	0.	133.83
3923	-9.1926	3.5069	0.	133.93
3924	-8.9396	3.2661	0.	134.67
3925	-8.6555	3.5732	0.	134.73
3926	-8.9294	4.2551	0.	129.09
3927	-9.1157	3.9993	0.	131.2
3928	-8.6015	3.8194	0.	132.92
3929	-9.0642	4.7367	0.	129.55
3930	-8.8551	4.649	0.	130.35
3931	-9.2663	4.4973	0.	127.26
3932	-9.0627	5.1921	0.	131.66
3933	-8.8835	4.8774	0.	133.56
3934	-9.3123	4.973	0.	130.8
3935	-8.9787	5.6503	0.	129.67
3936	-9.2729	5.4449	0.	130.25
3937	-8.8082	5.389	0.	131.25
3938	-8.9371	6.1384	0.	127.6
3939	-9.2003	5.9187	0.	128.92
3940	-8.6403	5.8092	0.	126.43
3941	-8.9636	6.6611	0.	126.01
3942	-9.2119	6.4239	0.	127.35
3943	-8.9854	7.1917	0.	125.35
3944	-9.2314	6.9438	0.	126.44
3945	-8.73	6.9167	0.	124.41
3946	-8.9975	7.7177	0.	125.09
3947	-9.2436	7.4651	0.	125.88
3948	-8.7476	7.4556	0.	124.35
3949	-9.2504	7.9817	0.	125.53
3950	-9.0025	8.2345	0.	125.01
3951	-8.7536	8.9981	0.	124.76
3952	-9.2516	8.9972	0.	125.12
3953	-9.0019	9.2482	0.	124.91
3954	-9.0029	8.7437	0.	124.97
3955	-8.256	8.9997	0.	124.44
3956	-8.5036	9.2494	0.	124.64
3957	-8.506	8.746	0.	124.45
3958	-7.7583	9.0025	0.	124.25
3959	-8.0054	9.2505	0.	124.44
3960	-8.0095	8.7492	0.	124.05
3961	-7.2594	9.0068	0.	124.27
3962	-7.5067	9.2536	0.	124.39
3963	-7.5122	8.7557	0.	123.89
3964	-6.759	9.0087	0.	124.48
3965	-7.007	9.2562	0.	124.51
3966	-6.2577	9.0067	0.	124.83
3967	-6.5062	9.2562	0.	124.79
3968	-6.5126	8.7623	0.	124.39
3969	-5.7564	9.0014	0.	125.24
3970	-6.0048	9.2534	0.	125.17
3971	-5.256	8.9952	0.	125.67
3972	-5.5041	9.2486	0.	125.58
3973	-5.5103	8.7462	0.	125.37
3974	-4.7564	8.9911	0.	126.12
3975	-5.0042	9.2446	0.	126.
3976	-5.0102	8.7387	0.	125.85
3977	-4.2573	8.9895	0.	126.64
3978	-4.5047	9.2426	0.	126.41
3979	-4.5107	8.7357	0.	126.36
3980	-3.7573	8.9901	0.	127.32
3981	-4.0055	9.2422	0.	126.86
3982	-3.2563	8.9922	0.	128.14
3983	-3.505	9.2433	0.	127.35
3984	-2.7549	8.9946	0.	128.25
3985	-3.0042	9.245	0.	127.75
3986	-2.2535	8.9969	0.	125.7
3987	-2.5049	8.7451	0.	129.94
3988	-2.5032	9.2468	0.	126.97
3989	-1.7522	8.9986	0.	121.78
3990	-2.0029	8.748	0.	123.73
3991	-2.0022	9.2483	0.	123.9
3992	-1.2512	8.9995	0.	121.64
3993	-1.5015	8.7494	0.	116.11
3994	-1.5014	9.2493	0.	121.77
3995	-0.75059	8.9998	0.	125.35
3996	-1.0007	8.7498	0.	123.27
3997	-1.0007	9.2498	0.	123.69
3998	-0.25028	8.9999	0.	127.84
3999	-0.50035	8.7499	0.	129.39
4000	-0.50036	9.2499	0.	126.67
4001	0.24986	9.	0.	127.73
4002	-1.8373e-004	9.25	0.	127.44
4003	0.49991	9.25	0.	127.11
4004	0.74993	9.	0.	126.98
4005	2.25	9.	0.	126.18
4006	2.	9.25	0.	126.47
4007	1.75	9.	0.	126.23
4008	2.	8.75	0.	125.91
4009	2.75	9.	0.	126.25
4010	2.5	9.25	0.	126.47
4011	2.5	8.75	0.	125.98
4012	3.25	9.	0.	126.37
4013	3.	9.25	0.	126.51
4014	3.	8.75	0.	126.17
4015	3.75	9.	0.	126.53
4016	3.5	9.25	0.	126.55
4017	3.5	8.75	0.	126.42
4018	4.25	9.	0.	126.65
4019	4.	9.25	0.	126.56
4020	4.	8.75	0.	126.74
4021	4.75	9.	0.	126.6
4022	4.5	9.25	0.	126.47
4023	4.5	8.75	0.	127.04
4024	5.25	9.	0.	126.12
4025	5.	9.25	0.	126.14
4026	5.	8.75	0.	127.06
4027	5.75	9.	0.	125.06
4028	5.5	9.25	0.	125.4
4029	5.5	8.75	0.	126.26
4030	6.25	9.	0.	123.66
4031	6.	9.25	0.	124.28
4032	6.	8.75	0.	124.46
4033	6.5	9.25	0.	123.16
4034	6.75	9.	0.	122.59
4035	8.75	9.	0.	125.34
4036	8.5	9.25	0.	124.64
4037	8.25	9.	0.	124.41
4038	8.5	8.75	0.	125.53
4039	9.	8.75	0.	126.28
4040	9.25	9.	0.	125.8
4041	9.	9.25	0.	125.24
4042	9.	8.25	0.	127.64
4043	9.25	8.5	0.	126.8
4044	8.75	8.5	0.	126.47
4045	9.	7.75	0.	128.78
4046	9.25	8.	0.	127.88
4047	8.75	8.	0.	128.2
4048	9.	7.25	0.	128.59
4049	9.25	7.5	0.	128.36
4050	9.	6.75	0.	127.15
4051	8.75	7.	0.	128.95
4052	9.25	7.	0.	127.61
4053	8.75	6.5	0.	127.49
4054	9.25	6.5	0.	126.89
4055	9.	6.25	0.	126.98
4056	8.9997	1.2492	0.	125.3
4057	9.2496	0.9992	0.	127.44
4058	8.9993	0.74832	0.	124.17
4059	8.7495	0.99858	0.	121.28
4060	-3.4998	-4.7503	0.	134.5
4061	-3.2499	-4.5001	0.	132.04
4062	-3.4999	-4.2501	0.	133.69
4063	-3.7498	-4.5002	0.	133.94
4064	-3.2397	-6.5058	0.	133.54
4065	-3.4939	-6.254	0.	136.45
4066	-3.7431	-6.5031	0.	136.93
4067	-0.50023	-6.2034	0.	129.75
4068	-0.74824	-6.4487	0.	125.73
4069	-8.7499	-1.6035e-004	0.	128.21
4070	-8.9999	-0.25013	0.	131.55
4071	-9.2499	-1.4733e-004	0.	132.49
4072	-6.	-0.75008	0.	125.17
4073	-6.25	-1.	0.	121.48
4074	-5.5	-0.25066	0.	133.7
4075	-5.75	-0.50022	0.	130.33
4076	-5.7429	2.481	0.	132.51
4077	-5.4932	2.2332	0.	135.42
4078	-5.4871	2.7198	0.	134.45
4079	-5.2399	2.4775	0.	135.03
4080	-8.2317	2.5052	0.	124.41
4081	-8.4845	2.2626	0.	130.25
4082	-8.4616	2.7827	0.	129.47
4083	-2.5059	8.2439	0.	131.58
4084	-2.2543	8.4962	0.	127.94
4085	-2.2525	5.4957	0.	127.65
4086	-2.5042	5.7433	0.	131.67
4087	-0.50007	5.75	0.	130.59
4088	-0.75019	5.4999	0.	127.67
4089	-0.5002	8.25	0.	130.81
4090	-0.75047	8.4999	0.	127.29
4091	-0.50005	7.75	0.	131.45
4092	-0.50001	7.25	0.	133.21
4093	-0.50001	6.75	0.	133.13
4094	-0.50002	6.25	0.	131.13
4095	-0.25001	6.5	0.	129.72
4096	-1.2505	5.4996	0.	117.87
4097	-1.7511	5.4987	0.	117.61
4098	-2.5056	6.2432	0.	132.62
4099	-2.5066	6.743	0.	134.53
4100	-2.5069	7.2431	0.	134.56
4101	-2.7605	6.9889	0.	132.79
4102	-2.5065	7.7433	0.	132.52
4103	-2.7587	7.9907	0.	130.62
4104	-1.251	8.4997	0.	117.57
4105	-1.7522	8.4988	0.	117.9
4106	-7.7404	2.4856	0.	111.73
4107	-7.2483	2.4904	0.	106.75
4108	-7.5007	2.7004	0.	105.36
4109	-6.7519	2.4993	0.	111.02
4110	-7.0183	2.7696	0.	105.59
4111	-6.2487	2.49	0.	121.2
4112	-5.9915	2.7255	0.	128.94
4113	-5.4973	1.7413	0.	135.19
4114	-5.499	1.2454	0.	136.52
4115	-5.2479	1.4929	0.	133.83
4116	-5.4996	0.74755	0.	136.43
4117	-5.2491	0.99609	0.	134.57
4118	-5.4999	0.24864	0.	134.64
4119	-6.25	-0.50006	0.	121.98
4120	-6.75	-0.50001	0.	114.52
4121	-6.5	-0.75002	0.	118.28
4122	-8.4998	0.24988	0.	127.77
4123	-8.4999	-0.2501	0.	124.76
4124	-8.4995	0.75028	0.	130.93
4125	-8.4945	1.7553	0.	130.45
4126	-8.4982	1.2516	0.	131.71
4127	-0.50259	-5.7286	0.	127.84
4128	-0.50328	-5.2419	0.	126.94
4129	-0.25439	-5.488	0.	126.06
4130	-1.2466	-6.4681	0.	115.87
4131	-1.4936	-6.7226	0.	109.88
4132	-1.7432	-6.4722	0.	113.51
4133	-2.7394	-6.4884	0.	124.25
4134	-2.2406	-6.4694	0.	117.34
4135	-3.4982	-5.7518	0.	134.6
4136	-3.4995	-5.2508	0.	133.77
4137	-3.7496	-5.0005	0.	132.46
4138	-3.7491	-5.5011	0.	131.95
4139	-2.7501	-4.5	0.	123.99
4140	-2.2502	-4.5	0.	118.95
4141	-2.5001	-4.25	0.	121.1
4142	-1.7505	-4.5	0.	117.56
4143	-2.0003	-4.25	0.	119.88
4144	-1.2512	-4.5001	0.	119.7
4145	-0.7524	-4.5003	0.	124.95
4146	8.7498	1.4994	0.	120.71
4147	9.2498	1.4996	0.	130.5
4148	8.2498	1.4994	0.	115.09
4149	8.4996	1.2488	0.	116.72
4150	7.7499	1.4994	0.	115.32
4151	7.2499	1.4994	0.	121.63
4152	7.25	4.5	0.	118.65
4153	8.75	4.5	0.	122.18
4154	9.25	4.5	0.	132.41
4155	9.	4.75	0.	127.86
4156	8.25	4.5	0.	115.62
4157	8.5	4.75	0.	119.05
4158	7.75	4.5	0.	114.05
4159	-4.4959	-7.2499	0.	135.11
4160	-4.498	-6.7501	0.	136.68
4161	-4.4873	-7.7496	0.	132.99
4162	-5.2425	-8.4995	0.	118.35
4163	-5.7465	-8.4999	0.	115.56
4164	-6.4997	-7.75	0.	124.
4165	-6.4999	-7.25	0.	121.82
4166	-6.5	-6.75	0.	119.52
4167	-6.7499	-7.5	0.	120.43
4168	-5.2494	-6.5001	0.	124.32
4169	-4.7486	-6.5003	0.	133.04
4170	-5.4997	-6.2501	0.	122.82
4171	-5.7498	-6.5	0.	122.74
4172	-0.25225	-3.5043	0.	117.25
4173	-0.7511	-3.5011	0.	116.48
4174	-1.5	-2.75	0.	129.15
4175	-1.5	-2.25	0.	132.09
4176	-1.75	-2.5	0.	129.05
4177	-1.5	-1.75	0.	132.37
4178	-1.75	-2.	0.	130.76
4179	-1.5	-1.25	0.	130.73
4180	-1.75	-1.5	0.	130.09
4181	-0.74949	-0.50039	0.	115.16
4182	-0.24862	-0.5015	0.	115.56
4183	-0.49908	-0.25089	0.	113.43
4184	0.50431	-1.2586	0.	131.38
4185	0.50029	-2.7652	0.	132.91
4186	0.50284	-2.2625	0.	134.17
4187	0.50419	-1.7604	0.	133.94
4188	0.75675	-1.5138	0.	131.14
4189	5.5	6.25	0.	130.08
4190	5.5	6.75	0.	129.96
4191	5.25	7.	0.	129.1
4192	5.25	6.5	0.	128.14
4193	6.25	7.5	0.	121.78
4194	6.75	7.5	0.	117.29
4195	7.25	7.5	0.	117.09
4196	7.75	7.5	0.	121.05
4197	8.	7.75	0.	124.82
4198	7.5	7.75	0.	118.27
4199	8.5	6.75	0.	129.25
4200	8.5	6.25	0.	128.35
4201	8.75	6.	0.	127.88
4202	6.25	5.5	0.	121.5
4203	6.75	5.5	0.	117.49
4204	7.25	5.5	0.	115.51
4205	7.75	5.5	0.	117.19
4206	-5.4999	-4.2501	0.	133.17
4207	-5.4998	-4.7501	0.	133.81
4208	-5.4998	-5.2501	0.	132.71
4209	-5.4997	-5.7501	0.	128.51
4210	-6.2499	-6.5	0.	122.2
4211	-6.75	-6.5	0.	117.08
4212	-7.25	-6.5	0.	115.12
4213	-7.75	-6.5	0.	120.03
4214	-8.25	-6.5	0.	129.15
4215	-8.5	-5.75	0.	133.69
4216	-8.5	-6.25	0.	132.81
4217	-8.75	-6.	0.	131.94
4218	-8.5	-5.25	0.	135.32
4219	-8.75	-5.5	0.	132.65
4220	-8.5	-4.75	0.	134.65
4221	-8.75	-5.	0.	133.47
4222	-8.5	-4.25	0.	131.68
4223	-8.75	-4.5	0.	131.93
4224	-7.75	-3.5	0.	114.29
4225	-8.	-3.25	0.	117.22
4226	-6.25	-3.5	0.	119.08
4227	-6.	-3.25	0.	124.82
4228	-6.75	-3.5	0.	112.05
4229	-6.5	-3.25	0.	115.38
4230	-7.25	-3.5	0.	110.15
4231	-7.	-3.25	0.	111.48
4232	-7.5	-3.25	0.	109.98
4233	-8.75	-0.50007	0.	128.08
4234	-9.25	-0.50006	0.	135.89
4235	-8.25	-0.50004	0.	120.15
4236	-7.75	-0.50001	0.	111.37
4237	-7.25	-0.5	0.	109.03
4238	-6.5	-1.25	0.	119.84
4239	-6.5	-1.75	0.	120.63
4240	-7.25	-2.5	0.	112.08
4241	-7.	-2.75	0.	113.5
4242	-8.75	-2.5	0.	124.35
4243	-9.25	-2.5	0.	135.
4244	-8.25	-2.5	0.	116.19
4245	-8.5	-2.75	0.	120.5
4246	-7.75	-2.5	0.	111.64
4247	-8.	-2.75	0.	114.68
4248	-7.5	-2.75	0.	109.88
4249	5.7502	1.5002	0.	119.27
4250	5.2502	1.5008	0.	118.62
4251	4.7502	1.5017	0.	128.76
4252	5.0004	1.252	0.	124.26
4253	5.5004	1.2508	0.	116.89
4254	4.5	2.2508	0.	133.25
4255	4.5001	1.7516	0.	132.68
4256	4.5	2.7503	0.	134.9
4257	4.25	2.5004	0.	132.52
4258	4.5	3.2502	0.	134.79
4259	4.5	3.7501	0.	133.43
4260	4.25	4.	0.	132.25
4261	4.5	4.25	0.	133.58
4262	4.25	3.5001	0.	132.18
4263	5.25	4.5	0.	119.87
4264	4.75	4.5	0.	130.12
4265	5.75	4.5	0.	119.88
4266	6.5	3.75	0.	135.97
4267	6.5	3.25	0.	141.05
4268	6.5	2.2499	0.	137.36
4269	6.5	2.75	0.	141.39
4270	8.7655	-6.5009	0.	117.17
4271	9.2575	-6.5001	0.	125.47
4272	9.013	-6.751	0.	121.91
4273	8.2804	-6.5035	0.	116.51
4274	7.8081	-6.5095	0.	125.56
4275	7.5643	-5.7651	0.	132.36
4276	7.5716	-6.264	0.	130.51
4277	7.5542	-5.2674	0.	133.52
4278	8.253	-4.5057	0.	119.71
4279	8.75	-4.502	0.	118.35
4280	9.2495	-4.5006	0.	126.58
4281	8.9981	-4.2515	0.	122.7
4282	6.6952	-5.7813	0.	134.23
4283	6.6811	-6.2675	0.	136.04
4284	6.6556	-6.7601	0.	134.12
4285	6.8953	-6.5149	0.	134.01
4286	6.6182	-7.2535	0.	133.21
4287	6.8713	-7.0095	0.	130.55
4288	5.7599	-7.7675	0.	112.24
4289	5.9757	-8.1997	0.	112.63
4290	4.5471	-6.9746	0.	129.57
4291	4.9438	-7.2409	0.	119.89
4292	4.6696	-7.2914	0.	126.07
4293	4.6456	-5.718	0.	126.47
4294	5.0986	-5.5328	0.	116.81
4295	5.9973	-5.1796	0.	112.74
4296	5.5472	-5.3324	0.	113.46
4297	5.7579	-4.9842	0.	113.09
4298	5.2751	-5.1528	0.	115.79
4299	0.25001	4.5	0.	122.45
4300	0.75	4.5	0.	118.5
4301	1.25	4.5	0.	118.6
4302	1.75	4.5	0.	122.97
4303	2.	4.75	0.	126.88
4304	1.5	4.75	0.	119.88
4305	2.5	3.75	0.	132.05
4306	2.75	4.	0.	131.52
4307	2.5	3.25	0.	131.8
4308	2.75	3.5	0.	130.04
4309	1.75	2.4999	0.	122.15
4310	2.	2.2498	0.	126.34
4311	1.25	2.4999	0.	117.47
4312	1.5	2.2498	0.	119.04
4313	0.75004	2.4999	0.	116.83
4314	0.2501	2.4998	0.	120.09
4315	-0.49972	3.2499	0.	128.42
4316	-0.49976	3.7499	0.	128.39
4317	-0.74946	3.4997	0.	125.93
4318	-7.6619	3.3939	0.	108.97
4319	-7.4756	3.1217	0.	106.12
4320	-7.2397	3.1784	0.	104.89
4321	-8.1295	3.5521	0.	122.75
4322	-8.4884	4.8815	0.	131.99
4323	-8.629	5.0742	0.	133.07
4324	-8.443	5.1661	0.	131.03
4325	-8.1596	5.1161	0.	124.54
4326	-7.0842	5.6472	0.	112.31
4327	-7.4547	5.5187	0.	109.19
4328	-7.3417	5.8254	0.	108.76
4329	-6.4756	5.0455	0.	128.21
4330	-6.4683	4.5952	0.	127.91
4331	-6.2249	4.8368	0.	125.79
4332	-6.4597	3.6901	0.	126.5
4333	-6.4596	4.1456	0.	127.62
4334	-6.2164	4.3779	0.	127.09
4335	-0.68235	-7.9379	0.	134.63
4336	-0.4325	-8.3143	0.	129.66
4337	-0.87829	-7.5607	0.	125.7
4338	-2.3917	-8.4101	0.	126.38
4339	-2.6945	-8.5958	0.	123.69
4340	-2.2569	-7.9988	0.	129.57
4341	-2.5901	-8.1585	0.	128.36
4342	-2.1079	-7.593	0.	126.08
4343	-2.2762	-7.343	0.	125.58
4344	-2.0112	-7.1616	0.	121.39
4345	9.5	8.75	0.	126.31
4346	9.5	9.25	0.	125.54
4347	9.5	8.25	0.	127.04
4348	9.5	7.75	0.	127.45
4349	9.5	7.25	0.	127.38
4350	9.5	6.75	0.	127.34
4351	9.5	6.25	0.	128.16
4352	9.5	5.75	0.	129.89
4353	9.25	6.	0.	128.26
4354	9.5	5.25	0.	131.98
4355	9.25	5.5	0.	129.68
4356	9.5	4.75	0.	134.96
4357	9.25	5.	0.	130.38
4358	9.5	4.25	0.	136.94
4359	9.5	3.75	0.	137.77
4360	9.5	3.25	0.	139.14
4361	9.5	2.75	0.	138.86
4362	9.5	2.2499	0.	136.63
4363	9.4999	1.7498	0.	135.07
4364	9.4998	1.2496	0.	132.7
4365	9.4996	0.74917	0.	129.62
4366	9.4992	0.24864	0.	128.05
4367	9.2492	0.49829	0.	126.34
4368	9.4987	-0.25194	0.	127.03
4369	9.498	-0.75259	0.	126.34
4370	9.4972	-1.2529	0.	125.9
4371	9.2465	-1.0042	0.	125.3
4372	9.4965	-1.7529	0.	125.68
4373	9.2453	-1.5047	0.	125.16
4374	9.496	-2.2527	0.	125.63
4375	9.2441	-2.0047	0.	125.08
4376	9.4961	-2.7521	0.	125.72
4377	9.4968	-3.2515	0.	125.92
4378	9.4979	-3.7509	0.	126.49
4379	9.2454	-3.5024	0.	124.69
4380	9.499	-4.2505	0.	128.54
4381	9.2476	-4.0014	0.	124.64
4382	9.4998	-4.7502	0.	130.19
4383	9.5	-5.25	0.	130.1
4384	9.5006	-5.7499	0.	129.45
4385	9.5028	-6.2498	0.	128.81
4386	9.506	-6.7502	0.	127.05
4387	9.5071	-7.2508	0.	125.19
4388	9.2615	-7.0011	0.	123.47
4389	9.5059	-7.7512	0.	125.11
4390	9.2609	-7.5018	0.	123.93
4391	9.504	-8.2512	0.	125.51
4392	9.2579	-8.002	0.	124.81
4393	9.5024	-8.751	0.	125.95
4394	9.2549	-8.5017	0.	125.54
4395	9.5012	-9.2506	0.	126.27
4396	9.2527	-9.0012	0.	126.
4397	9.2511	-9.5006	0.	126.24
4398	8.7518	-9.501	0.	126.01
4399	9.0026	-9.2512	0.	125.97
4400	8.2523	-9.501	0.	125.84
4401	7.7521	-9.5005	0.	125.42
4402	7.2511	-9.4988	0.	124.38
4403	6.7495	-9.496	0.	122.58
4404	7.0014	-9.2467	0.	124.23
4405	6.2472	-9.4936	0.	120.66
4406	5.7454	-9.4936	0.	119.77
4407	5.9932	-9.2381	0.	119.34
4408	5.2442	-9.4972	0.	120.61
4409	4.7427	-9.5047	0.	122.83
4410	4.9871	-9.247	0.	121.38
4411	4.2399	-9.5139	0.	125.5
4412	3.7355	-9.5197	0.	127.83
4413	3.2304	-9.52	0.	129.5
4414	2.7245	-9.5157	0.	130.54
4415	2.9676	-9.2798	0.	130.24
4416	2.2167	-9.5073	0.	131.18
4417	1.7064	-9.4962	0.	131.64
4418	1.947	-9.2557	0.	131.13
4419	1.1956	-9.4841	0.	132.12
4420	1.4286	-9.2374	0.	131.33
4421	0.68733	-9.4761	0.	132.83
4422	0.18354	-9.4815	0.	133.3
4423	-0.31385	-9.4967	0.	130.03
4424	-0.11201	-9.2352	0.	134.08
4425	-0.80401	-9.5121	0.	120.99
4426	-0.60357	-9.2566	0.	130.17
4427	-1.2887	-9.526	0.	112.09
4428	-1.0781	-9.2785	0.	112.65
4429	-1.7727	-9.5354	0.	114.4
4430	-1.5466	-9.2977	0.	105.65
4431	-2.2598	-9.5367	0.	125.17
4432	-2.0185	-9.3092	0.	122.46
4433	-2.7512	-9.529	0.	131.77
4434	-3.2461	-9.5166	0.	132.27
4435	-3.7437	-9.5063	0.	130.92
4436	-4.2432	-9.501	0.	128.67
4437	-4.7442	-9.4995	0.	125.16
4438	-5.2459	-9.4994	0.	121.58
4439	-5.7474	-9.4997	0.	119.96
4440	-6.2485	-9.4999	0.	120.7
4441	-6.7492	-9.4999	0.	122.24
4442	-7.2496	-9.5	0.	123.42
4443	-7.7498	-9.5	0.	124.29
4444	-8.2499	-9.5	0.	125.22
4445	-7.9998	-9.25	0.	124.56
4446	-8.7499	-9.5	0.	126.27
4447	-8.4999	-9.25	0.	125.63
4448	-9.25	-9.5	0.	127.34
4449	-9.5	-9.25	0.	127.92
4450	-9.5	-8.75	0.	128.11
4451	-9.5	-8.25	0.	128.43
4452	-9.5	-7.75	0.	128.91
4453	-9.25	-8.	0.	127.94
4454	-9.5	-7.25	0.	129.44
4455	-9.25	-7.5	0.	128.69
4456	-9.5	-6.75	0.	129.73
4457	-9.25	-7.	0.	129.78
4458	-9.5	-6.25	0.	129.53
4459	-9.25	-6.5	0.	130.52
4460	-9.5	-5.75	0.	129.11
4461	-9.25	-6.	0.	130.24
4462	-9.5	-5.25	0.	129.03
4463	-9.25	-5.5	0.	129.76
4464	-9.5	-4.75	0.	129.64
4465	-9.25	-5.	0.	130.08
4466	-9.5	-4.25	0.	130.96
4467	-9.25	-4.5	0.	130.32
4468	-9.5	-3.75	0.	132.77
4469	-9.5	-3.25	0.	134.74
4470	-9.5	-2.75	0.	137.61
4471	-9.5	-2.25	0.	139.51
4472	-9.5	-1.75	0.	139.55
4473	-9.5	-1.25	0.	139.54
4474	-9.5	-0.75003	0.	139.32
4475	-9.5	-0.25008	0.	136.87
4476	-9.4998	0.25007	0.	133.46
4477	-9.4992	0.75131	0.	131.86
4478	-9.4977	1.253	0.	131.38
4479	-9.4939	1.7548	0.	131.81
4480	-9.4866	2.2568	0.	132.69
4481	-9.4752	2.7573	0.	133.39
4482	-9.4614	3.2556	0.	133.04
4483	-9.2084	3.0149	0.	133.83
4484	-9.4311	3.7505	0.	131.3
4485	-9.4525	4.2415	0.	129.06
4486	-9.5144	4.7336	0.	128.48
4487	-9.5224	5.2257	0.	129.37
4488	-9.4945	5.7133	0.	129.5
4489	-9.4751	6.2042	0.	128.68
4490	-9.4798	6.7066	0.	127.78
4491	-9.4897	7.2172	0.	126.98
4492	-9.4965	7.7292	0.	126.33
4493	-9.4998	8.2388	0.	125.82
4494	-9.5008	8.745	0.	125.45
4495	-9.252	8.4915	0.	125.3
4496	-9.5007	9.2481	0.	125.17
4497	-9.2509	9.4991	0.	124.96
4498	-8.7519	9.4995	0.	124.79
4499	-8.2529	9.5003	0.	124.64
4500	-7.7538	9.5015	0.	124.57
4501	-7.2543	9.503	0.	124.63
4502	-6.7541	9.5037	0.	124.83
4503	-6.2532	9.5029	0.	125.14
4504	-5.7525	9.5006	0.	125.51
4505	-5.2522	9.498	0.	125.91
4506	-4.7525	9.4961	0.	126.3
4507	-4.2529	9.4952	0.	126.64
4508	-3.7532	9.4953	0.	126.89
4509	-3.253	9.4961	0.	126.95
4510	-2.7525	9.4972	0.	126.46
4511	-2.2519	9.4982	0.	125.19
4512	-1.7513	9.499	0.	123.85
4513	-1.2508	9.4996	0.	123.78
4514	-0.75048	9.4998	0.	125.02
4515	-0.25026	9.4999	0.	126.26
4516	0.24986	9.5	0.	126.8
4517	0.74993	9.5	0.	126.88
4518	1.25	9.5	0.	126.84
4519	0.99996	9.25	0.	126.75
4520	1.75	9.5	0.	126.79
4521	1.5	9.25	0.	126.55
4522	2.25	9.5	0.	126.76
4523	2.75	9.5	0.	126.74
4524	3.25	9.5	0.	126.69
4525	3.75	9.5	0.	126.59
4526	4.25	9.5	0.	126.39
4527	4.75	9.5	0.	126.02
4528	5.25	9.5	0.	125.43
4529	5.75	9.5	0.	124.62
4530	6.25	9.5	0.	123.78
4531	6.75	9.5	0.	123.17
4532	7.25	9.5	0.	123.02
4533	7.	9.25	0.	122.6
4534	7.75	9.5	0.	123.35
4535	7.5	9.25	0.	122.86
4536	8.25	9.5	0.	123.95
4537	8.	9.25	0.	123.72
4538	8.75	9.5	0.	124.54
4539	9.25	9.5	0.	124.99
4540	-1.7923	-9.0715	0.	113.6
4541	-1.3359	-9.0502	0.	105.81
4542	-0.87762	-9.0229	0.	121.78
4543	-0.40173	-8.9951	0.	134.03
4544	9.0153	-7.252	0.	122.2
4545	-1.7489	2.4991	0.	125.73
4546	-4.4926	4.691	0.	127.44
4547	4.666	-3.3741	0.	123.92
4548	7.0069	-8.7463	0.	126.24
4549	2.9288	-6.4054	0.	127.21
4550	7.4972	-0.25635	0.	120.91
4551	7.2466	-0.5076	0.	121.51
4552	7.3479	-6.5151	0.	130.72
4553	9.0129	-7.7526	0.	123.64
4554	-5.25	-1.5001	0.	127.35
4555	-5.5	-1.7501	0.	125.9
4556	1.75	5.	0.	123.77
4557	7.748	-5.0182e-003	0.	120.39
4558	7.4987	0.24618	0.	120.19
4559	8.932e-004	0.74848	0.	121.24
4560	-0.24935	0.99902	0.	121.78
4561	-0.24901	0.49854	0.	120.66
4562	-2.4999	-0.2501	0.	129.04
4563	-2.4966	3.2462	0.	125.46
4564	1.5	8.25	0.	125.5
4565	2.7827	-1.5325	0.	127.6
4566	-5.2338	2.9634	0.	132.46
4567	-4.982	3.2081	0.	131.1
4568	-4.9866	2.7212	0.	133.04
4569	1.2619	-1.5229	0.	128.88
4570	-2.25	-1.5	0.	128.31
4571	-2.	-1.75	0.	128.47
4572	6.7153	-2.5391	0.	122.73
4573	7.2195	-2.5337	0.	122.96
4574	7.5	8.25	0.	120.67
4575	7.75	8.	0.	122.01
4576	-1.4993	2.2495	0.	125.98
4577	-3.2496	0.49935	0.	128.72
4578	7.9771	-3.2693	0.	123.4
4579	8.2329	-3.5134	0.	122.85
4580	5.3439	-7.4955	0.	116.15
4581	5.0239	-7.6407	0.	119.01
4582	-5.	-1.75	0.	128.75
4583	6.9444	-3.8179	0.	126.49
4584	1.5	1.7495	0.	121.57
4585	3.2546	-2.6953	0.	127.55
4586	3.0565	-2.363	0.	127.65
4587	-8.2498	-8.5	0.	124.52
4588	-7.7497	-8.5	0.	123.3
4589	-7.9997	-8.75	0.	124.07
4590	3.5277	-2.533	0.	126.99
4591	3.4768	-2.992	0.	127.52
4592	3.75	8.	0.	126.71
4593	4.25	8.	0.	127.47
4594	4.	8.25	0.	126.95
4595	1.75	1.9997	0.	123.21
4596	-8.2595	8.4956	0.	124.05
4597	-8.0133	8.2443	0.	123.43
4598	-7.7634	8.5024	0.	123.68
4599	7.75	8.5	0.	122.71
4600	7.5	8.75	0.	122.08
4601	7.25	8.5	0.	121.04
4602	9.	5.75	0.	128.06
4603	-3.9997	-4.7505	0.	131.83
4604	-3.9992	-5.2508	0.	130.62
4605	7.72	-3.0274	0.	123.53
4606	7.4683	-2.7817	0.	123.41
4607	-5.2954	6.3939	0.	127.36
4608	-3.7499	-4.0001	0.	132.42
4609	3.7607	-0.97272	0.	126.97
4610	4.0075	-0.72297	0.	126.93
4611	-2.5	-0.75004	0.	128.95
4612	-2.5	-1.25	0.	128.41
4613	-2.75	-1.	0.	128.78
4614	8.995	-3.7529	0.	122.84
4615	5.9875	-8.7263	0.	117.97
4616	-4.4869	4.1989	0.	127.84
4617	8.2362	-2.0139	0.	123.22
4618	8.4896	-1.7604	0.	123.48
4619	8.7401	-2.0088	0.	124.05
4620	7.9983	0.2458	0.	119.34
4621	7.7491	0.497	0.	119.13
4622	8.2488	0.49692	0.	119.27
4623	5.	6.75	0.	127.25
4624	-4.4978	1.2447	0.	130.15
4625	-4.2487	0.99681	0.	129.52
4626	-4.7487	0.99586	0.	130.95
4627	-4.499	0.74713	0.	130.04
4628	7.7325	-2.0198	0.	122.74
4629	7.4767	-2.276	0.	122.81
4630	7.4841	-1.77	0.	122.4
4631	-8.9999	-7.75	0.	127.72
4632	2.5	6.75	0.	125.7
4633	1.5	8.75	0.	126.03
4634	1.75	8.5	0.	125.72
4635	-5.4802	3.2023	0.	130.83
4636	-5.7357	2.9642	0.	130.85
4637	-0.50324	-4.7483	0.	126.83
4638	3.25	2.5002	0.	130.9
4639	-4.7471	1.4924	0.	131.08
4640	7.9773	-2.7702	0.	123.18
4641	8.2619	-8.5037	0.	125.86
4642	8.7585	-8.5029	0.	125.39
4643	8.514	-8.2539	0.	124.87
4644	4.5	5.75	0.	129.09
4645	-3.9999	-4.2502	0.	132.68
4646	3.6977	-8.5725	0.	129.36
4647	-4.241	4.4534	0.	127.76
4648	-8.7553	8.4917	0.	124.65
4649	4.	3.75	0.	130.99
4650	3.75	4.	0.	131.04
4651	-1.2497	4.4994	0.	124.12
4652	-8.2426	6.9317	0.	122.14
4653	-2.9998	4.7366	0.	128.44
4654	-3.2515	4.98	0.	129.02
4655	1.9266	-8.7651	0.	130.48
4656	1.6693	-8.9969	0.	130.82
4657	8.7489	0.49734	0.	122.06
4658	-7.25	-3.	0.	111.31
4659	-6.75	-3.	0.	114.74
4660	-7.75	-3.	0.	112.92
4661	-8.25	-3.	0.	118.92
4662	4.5	8.25	0.	127.64
4663	4.25	8.5	0.	127.12
4664	4.75	8.5	0.	127.49
4665	3.	5.25	0.	130.97
4666	7.25	9.	0.	122.44
4667	7.	8.75	0.	121.42
4668	-9.	-5.25	0.	130.8
4669	-9.	-4.75	0.	130.76
4670	3.5	2.7502	0.	129.9
4671	-2.893	-8.3442	0.	125.42
4672	7.2152	-4.0514	0.	128.17
4673	3.5	8.25	0.	126.4
4674	3.75	8.5	0.	126.64
4675	3.25	8.5	0.	126.22
4676	-8.5	-6.75	0.	130.69
4677	-8.75	-7.	0.	129.12
4678	8.9946	-1.256	0.	124.55
4679	8.7424	-1.5081	0.	123.99
4680	8.9929	-1.7565	0.	124.56
4681	-4.7936	7.4574	0.	126.38
4682	-4.7646	8.4833	0.	126.09
4683	-5.2645	8.4897	0.	125.55
4684	5.5007	0.7516	0.	121.96
4685	5.251	0.50349	0.	123.99
4686	5.7507	0.50096	0.	123.46
4687	3.75	2.5003	0.	130.63
4688	-1.249	3.4992	0.	123.57
4689	-4.5316	7.716	0.	126.53
4690	-4.5199	8.2267	0.	126.41
4691	5.4857	-4.8046	0.	115.43
4692	5.0028	-4.8203	0.	120.36
4693	3.25	8.	0.	126.14
4694	5.2505	1.002	0.	122.41
4695	-8.106	5.8255	0.	120.74
4696	-8.4697	5.5479	0.	128.03
4697	-8.1863	5.4979	0.	121.44
4698	9.0088	-8.2525	0.	124.84
4699	8.7643	-8.0035	0.	124.32
4700	-0.49904	0.24892	0.	118.75
4701	-0.49926	0.74907	0.	121.2
4702	4.5	5.25	0.	130.74
4703	3.6037	-7.1836	0.	131.29
4704	4.2501	1.502	0.	132.7
4705	4.0001	1.2531	0.	131.72
4706	7.9866	-1.7652	0.	122.74
4707	7.7382	-1.5155	0.	122.4
4708	8.2401	-1.5118	0.	123.
4709	4.75	8.	0.	128.43
4710	5.25	8.	0.	128.83
4711	5.	8.25	0.	128.29
4712	-8.4923	7.1806	0.	123.41
4713	-2.4967	3.7451	0.	125.29
4714	4.969	-8.734	0.	121.4
4715	4.9352	-8.1845	0.	121.82
4716	5.212	-8.4773	0.	119.05
4717	3.	3.75	0.	129.48
4718	-8.75	-6.5	0.	132.11
4719	-9.	-6.75	0.	130.57
4720	-9.	-6.25	0.	131.22
4721	8.7405	-3.5061	0.	122.75
4722	-1.7497	0.49979	0.	126.35
4723	8.7446	-1.0069	0.	123.8
4724	8.4949	-0.75726	0.	122.76
4725	8.4924	-1.259	0.	123.24
4726	-5.973	4.6195	0.	124.97
4727	-5.723	4.3951	0.	124.82
4728	-3.1923	-8.54	0.	127.27
4729	-6.25	-3.	0.	121.06
4730	3.1743	-8.1013	0.	130.55
4731	2.9366	-8.3296	0.	130.42
4732	2.924	-7.8541	0.	130.09
4733	-5.2284	3.447	0.	129.46
4734	-5.4752	3.6831	0.	127.74
4735	8.25	8.	0.	126.11
4736	8.5	8.25	0.	127.04
4737	3.	8.25	0.	125.96
4738	1.9258	-8.2785	0.	129.79
4739	8.	8.25	0.	124.05
4740	2.	5.25	0.	125.83
4741	7.111	-6.7644	0.	130.48
4742	-4.2467	-6.5006	0.	136.72
4743	1.25	9.	0.	126.47
4744	9.0052	-8.752	0.	125.59
4745	-7.7462	5.6742	0.	116.23
4746	-7.8264	5.3466	0.	116.93
4747	-7.6332	5.9809	0.	115.65
4748	-7.7683	8.0002	0.	122.88
4749	-7.5243	7.7612	0.	122.12
4750	-7.5184	8.2583	0.	123.13
4751	-8.4999	-8.75	0.	125.42
4752	-8.2498	-9.	0.	124.97
4753	5.75	8.5	0.	125.66
4754	2.95	-8.8032	0.	130.38
4755	7.9815	-2.2683	0.	123.
4756	1.7163	-6.5581	0.	128.
4757	1.2296	-6.5183	0.	128.45
4758	5.7256	-8.4749	0.	116.78
4759	0.7383	-4.5301	0.	128.31
4760	5.5	8.25	0.	127.75
4761	3.7904	-2.3409	0.	126.32
4762	4.7496	-7.6912	0.	125.19
4763	2.25	7.	0.	125.07
4764	3.4322	-8.3428	0.	130.38
4765	3.1945	-8.5711	0.	130.25
4766	0.2426	-5.4958	0.	125.57
4767	-5.25	-2.	0.	127.31
4768	3.5196	-1.2209	0.	127.13
4769	3.5074	-0.73343	0.	127.66
4770	-7.2494	-8.5	0.	123.17
4771	-3.0462e-002	-8.4368	0.	122.77
4772	0.33804	-8.1152	0.	127.99
4773	-2.	-2.25	0.	127.73
4774	3.7541	-0.48368	0.	127.63
4775	3.2814	-1.494	0.	127.17
4776	3.0671	-1.8059	0.	127.41
4777	-1.7394	-6.9524	0.	112.75
4778	-1.989	-6.702	0.	116.38
4779	-5.7297	4.8698	0.	125.64
4780	-5.4797	4.6454	0.	125.48
4781	4.25	5.	0.	131.99
4782	4.5	4.75	0.	132.99
4783	-8.697	3.0355	0.	131.1
4784	-7.2707	2.9796	0.	104.18
4785	-4.25	-3.	0.	131.59
4786	2.25	8.5	0.	125.71
4787	2.75	8.5	0.	125.9
4788	-0.22974	-8.7447	0.	126.31
4789	-4.998	1.2436	0.	131.88
4790	5.0009	0.75392	0.	124.45
4791	-3.25	-1.	0.	129.06
4792	7.7256	-2.5245	0.	123.06
4793	3.8881	-5.0065	0.	131.44
4794	8.4991	0.74759	0.	119.18
4795	-2.2502	-4.	0.	121.95
4796	-4.2489	-5.5009	0.	129.72
4797	-2.25	-2.5	0.	126.93
4798	3.5026	-0.23986	0.	128.43
4799	3.25	4.	0.	130.5
4800	8.75	5.	0.	124.63
4801	9.	5.25	0.	128.08
4802	-9.	-5.75	0.	130.88
4803	8.	8.75	0.	123.86
4804	8.25	8.5	0.	124.99
4805	7.75	9.	0.	123.23
4806	5.25	8.5	0.	127.2
4807	-8.4128	3.3426	0.	131.29
4808	-9.	-7.25	0.	129.04
4809	2.7499	1.5002	0.	130.01
4810	3.3296	-2.2006	0.	127.09
4811	-5.4752	4.1642	0.	125.75
4812	0.4625	-7.6278	0.	129.25
4813	-7.	-1.	0.	89.109
4814	-9.	-1.	0.	104.57
4815	-7.	-2.	0.	90.717
4816	-9.	-2.	0.	103.43
4817	-7.5	-1.	0.	106.8
4818	-8.	-1.	0.	111.47
4819	-8.5	-1.	0.	118.61
4820	-7.	-1.5	0.	94.775
4821	-9.	-1.5	0.	109.05
4822	-8.5	-2.	0.	116.71
4823	-8.	-2.	0.	110.79
4824	-7.5	-2.	0.	108.08
4825	-8.5	-1.5	0.	116.19
4826	-8.	-1.5	0.	114.12
4827	-7.5	-1.5	0.	106.35
4828	-7.25	-1.	0.	97.948
4829	-7.	-1.25	0.	91.917
4830	-8.75	-1.	0.	111.52
4831	-9.	-1.25	0.	106.8
4832	-7.	-1.75	0.	92.722
4833	-7.25	-2.	0.	99.363
4834	-9.	-1.75	0.	106.23
4835	-8.75	-2.	0.	110.02
4836	-7.75	-1.	0.	109.12
4837	-7.5	-1.25	0.	106.57
4838	-8.25	-1.	0.	115.04
4839	-8.	-1.25	0.	112.78
4840	-8.5	-1.25	0.	117.37
4841	-7.25	-1.5	0.	100.54
4842	-8.75	-1.5	0.	112.61
4843	-8.25	-2.	0.	113.74
4844	-8.5	-1.75	0.	116.41
4845	-7.75	-2.	0.	109.43
4846	-8.	-1.75	0.	112.44
4847	-7.5	-1.75	0.	107.2
4848	-8.25	-1.5	0.	115.14
4849	-7.75	-1.5	0.	110.23
4850	-6.	2.	0.	98.876
4851	-8.	2.	0.	93.63
4852	-6.	0.	0.	98.921
4853	-8.	0.	0.	91.575
4854	-6.5	2.	0.	110.22
4855	-7.	2.	0.	104.74
4856	-7.5	2.	0.	105.65
4857	-6.	1.5	0.	102.24
4858	-6.	1.	0.	100.93
4859	-6.	0.5	0.	102.57
4860	-8.	1.5	0.	97.66
4861	-8.	1.	0.	96.35
4862	-8.	0.5	0.	96.697
4863	-7.5	0.	0.	105.55
4864	-7.	0.	0.	106.39
4865	-6.5	0.	0.	111.85
4866	-6.5	1.	0.	107.04
4867	-6.5	0.5	0.	108.35
4868	-7.5	0.5	0.	104.01
4869	-7.5	1.	0.	103.69
4870	-7.5	1.5	0.	104.19
4871	-6.5	1.5	0.	107.6
4872	-7.	1.5	0.	107.75
4873	-7.	0.5	0.	108.47
4874	-7.	1.	0.	107.98
4875	-6.25	2.	0.	104.45
4876	-6.	1.75	0.	100.55
4877	-7.75	2.	0.	99.599
4878	-8.	1.75	0.	95.639
4879	-6.	0.25	0.	100.74
4880	-6.25	0.	0.	105.28
4881	-8.	0.25	0.	94.123
4882	-7.75	0.	0.	98.527
4883	-6.75	2.	0.	107.48
4884	-6.5	1.75	0.	108.87
4885	-7.25	2.	0.	105.19
4886	-7.	1.75	0.	106.23
4887	-7.5	1.75	0.	104.9
4888	-6.	1.25	0.	101.56
4889	-6.25	1.5	0.	104.91
4890	-6.	0.75	0.	101.73
4891	-6.25	1.	0.	103.98
4892	-6.25	0.5	0.	105.44
4893	-8.	1.25	0.	96.983
4894	-7.75	1.5	0.	100.92
4895	-8.	0.75	0.	96.498
4896	-7.75	1.	0.	100.01
4897	-7.75	0.5	0.	100.35
4898	-7.25	0.	0.	105.97
4899	-7.5	0.25	0.	104.76
4900	-6.75	0.	0.	109.12
4901	-7.	0.25	0.	107.41
4902	-6.5	0.25	0.	110.07
4903	-6.5	0.75	0.	107.69
4904	-6.5	1.25	0.	107.32
4905	-6.75	1.	0.	107.51
4906	-6.75	0.5	0.	108.39
4907	-7.5	0.75	0.	103.84
4908	-7.25	0.5	0.	106.24
4909	-7.5	1.25	0.	103.93
4910	-7.25	1.	0.	105.83
4911	-7.25	1.5	0.	105.97
4912	-6.75	1.5	0.	107.67
4913	-7.	1.25	0.	107.86
4914	-7.	0.75	0.	108.22
4915	-5.	-7.	0.	102.68
4916	-6.	-7.	0.	95.91
4917	-5.	-8.	0.	98.987
4918	-6.	-8.	0.	96.532
4919	-5.5	-7.	0.	116.54
4920	-5.	-7.5	0.	106.01
4921	-6.	-7.5	0.	101.49
4922	-5.5	-8.	0.	113.24
4923	-5.5	-7.5	0.	112.
4924	-5.25	-7.	0.	109.58
4925	-5.	-7.25	0.	104.34
4926	-5.75	-7.	0.	106.16
4927	-6.	-7.25	0.	98.657
4928	-5.	-7.75	0.	102.49
4929	-5.25	-8.	0.	106.09
4930	-6.	-7.75	0.	98.994
4931	-5.75	-8.	0.	104.88
4932	-5.5	-7.25	0.	114.22
4933	-5.25	-7.5	0.	108.98
4934	-5.75	-7.5	0.	106.71
4935	-5.5	-7.75	0.	112.56
4936	2.	4.	0.	99.936
4937	0.	4.	0.	98.392
4938	2.	3.	0.	99.6
4939	0.	3.	0.	98.015
4940	1.5	4.	0.	116.47
4941	1.	4.	0.	114.72
4942	0.5	4.	0.	115.79
4943	2.	3.5	0.	104.74
4944	0.	3.5	0.	103.05
4945	0.5	3.	0.	114.91
4946	1.	3.	0.	114.11
4947	1.5	3.	0.	115.99
4948	0.5	3.5	0.	113.83
4949	1.	3.5	0.	117.5
4950	1.5	3.5	0.	114.71
4951	1.75	4.	0.	108.16
4952	2.	3.75	0.	102.31
4953	0.25	4.	0.	107.04
4954	0.	3.75	0.	100.69
4955	2.	3.25	0.	102.14
4956	1.75	3.	0.	107.76
4957	0.	3.25	0.	100.51
4958	0.25	3.	0.	106.43
4959	1.25	4.	0.	115.59
4960	1.5	3.75	0.	115.57
4961	0.75	4.	0.	115.25
4962	1.	3.75	0.	116.11
4963	0.5	3.75	0.	114.79
4964	1.75	3.5	0.	109.71
4965	0.25	3.5	0.	108.43
4966	0.75	3.	0.	114.51
4967	0.5	3.25	0.	114.36
4968	1.25	3.	0.	115.05
4969	1.	3.25	0.	115.8
4970	1.5	3.25	0.	115.33
4971	0.75	3.5	0.	115.67
4972	1.25	3.5	0.	116.11
4973	-1.	-5.	0.	96.027
4974	-3.	-5.	0.	100.93
4975	-1.	-6.	0.	96.178
4976	-3.	-6.	0.	101.53
4977	-1.5	-5.	0.	113.74
4978	-2.	-5.	0.	113.83
4979	-2.5	-5.	0.	116.72
4980	-1.	-5.5	0.	100.95
4981	-3.	-5.5	0.	106.07
4982	-2.5	-6.	0.	116.54
4983	-2.	-6.	0.	112.57
4984	-1.5	-6.	0.	111.75
4985	-2.5	-5.5	0.	115.09
4986	-2.	-5.5	0.	116.26
4987	-1.5	-5.5	0.	111.52
4988	-1.25	-5.	0.	104.83
4989	-1.	-5.25	0.	98.458
4990	-2.75	-5.	0.	108.77
4991	-3.	-5.25	0.	103.48
4992	-1.	-5.75	0.	98.543
4993	-1.25	-6.	0.	103.95
4994	-3.	-5.75	0.	103.78
4995	-2.75	-6.	0.	108.98
4996	-1.75	-5.	0.	113.78
4997	-1.5	-5.25	0.	112.62
4998	-2.25	-5.	0.	115.27
4999	-2.	-5.25	0.	115.04
5000	-2.5	-5.25	0.	115.88
5001	-1.25	-5.5	0.	106.22
5002	-2.75	-5.5	0.	110.57
5003	-2.25	-6.	0.	114.55
5004	-2.5	-5.75	0.	115.8
5005	-1.75	-6.	0.	112.15
5006	-2.	-5.75	0.	114.41
5007	-1.5	-5.75	0.	111.62
5008	-2.25	-5.5	0.	115.67
5009	-1.75	-5.5	0.	113.89
5010	-1.	8.	0.	96.579
5011	-2.	8.	0.	96.844
5012	-1.	6.	0.	96.368
5013	-2.	6.	0.	96.912
5014	-1.5	8.	0.	110.97
5015	-1.	7.5	0.	100.49
5016	-1.	7.	0.	99.372
5017	-1.	6.5	0.	100.51
5018	-2.	7.5	0.	101.
5019	-2.	7.	0.	99.884
5020	-2.	6.5	0.	100.92
5021	-1.5	6.	0.	110.98
5022	-1.5	7.5	0.	105.4
5023	-1.5	7.	0.	103.16
5024	-1.5	6.5	0.	105.36
5025	-1.25	8.	0.	103.72
5026	-1.	7.75	0.	98.53
5027	-1.75	8.	0.	103.85
5028	-2.	7.75	0.	98.917
5029	-1.	6.25	0.	98.435
5030	-1.25	6.	0.	103.61
5031	-2.	6.25	0.	98.916
5032	-1.75	6.	0.	103.89
5033	-1.5	7.75	0.	108.14
5034	-1.	7.25	0.	99.884
5035	-1.25	7.5	0.	102.89
5036	-1.	6.75	0.	99.897
5037	-1.25	7.	0.	101.26
5038	-1.25	6.5	0.	102.88
5039	-2.	7.25	0.	100.4
5040	-1.75	7.5	0.	103.15
5041	-2.	6.75	0.	100.36
5042	-1.75	7.	0.	101.52
5043	-1.75	6.5	0.	103.09
5044	-1.5	6.25	0.	108.12
5045	-1.5	7.25	0.	104.28
5046	-1.5	6.75	0.	104.26
5047	0.	-1.	0.	95.174
5048	-1.	-1.	0.	95.485
5049	0.	-3.	0.	97.098
5050	-1.	-3.	0.	94.435
5051	-0.5	-1.	0.	109.24
5052	0.	-1.5	0.	99.806
5053	0.	-2.	0.	98.964
5054	0.	-2.5	0.	100.21
5055	-1.	-1.5	0.	99.137
5056	-1.	-2.	0.	98.182
5057	-1.	-2.5	0.	99.268
5058	-0.5	-3.	0.	109.99
5059	-0.5	-1.5	0.	103.9
5060	-0.5	-2.	0.	101.91
5061	-0.5	-2.5	0.	104.25
5062	-0.25	-1.	0.	102.15
5063	0.	-1.25	0.	97.486
5064	-0.75	-1.	0.	102.32
5065	-1.	-1.25	0.	97.31
5066	0.	-2.75	0.	98.654
5067	-0.25	-3.	0.	103.5
5068	-1.	-2.75	0.	96.843
5069	-0.75	-3.	0.	102.15
5070	-0.5	-1.25	0.	106.52
5071	0.	-1.75	0.	99.35
5072	-0.25	-1.5	0.	101.81
5073	0.	-2.25	0.	99.553
5074	-0.25	-2.	0.	100.44
5075	-0.25	-2.5	0.	102.18
5076	-1.	-1.75	0.	98.614
5077	-0.75	-1.5	0.	101.47
5078	-1.	-2.25	0.	98.681
5079	-0.75	-2.	0.	100.05
5080	-0.75	-2.5	0.	101.71
5081	-0.5	-2.75	0.	107.07
5082	-0.5	-1.75	0.	102.9
5083	-0.5	-2.25	0.	103.08
5084	9.	4.	0.	101.1
5085	7.	4.	0.	97.604
5086	9.	2.	0.	99.996
5087	7.	2.	0.	99.441
5088	8.5	4.	0.	113.7
5089	8.	4.	0.	110.13
5090	7.5	4.	0.	111.62
5091	9.	3.5	0.	104.87
5092	9.	3.	0.	103.83
5093	9.	2.5	0.	104.61
5094	7.	3.5	0.	102.72
5095	7.	3.	0.	102.29
5096	7.	2.5	0.	103.61
5097	7.5	2.	0.	113.12
5098	8.	2.	0.	110.61
5099	8.5	2.	0.	113.33
5100	8.	3.5	0.	112.84
5101	8.5	3.5	0.	111.54
5102	8.5	2.5	0.	111.43
5103	8.	2.5	0.	113.17
5104	7.5	2.5	0.	110.36
5105	7.5	3.5	0.	109.61
5106	7.5	3.	0.	109.28
5107	8.5	3.	0.	110.93
5108	8.	3.	0.	112.9
5109	8.75	4.	0.	107.33
5110	9.	3.75	0.	102.98
5111	7.25	4.	0.	104.56
5112	7.	3.75	0.	100.14
5113	9.	2.25	0.	102.3
5114	8.75	2.	0.	106.6
5115	7.	2.25	0.	101.5
5116	7.25	2.	0.	106.21
5117	8.25	4.	0.	111.92
5118	8.5	3.75	0.	112.59
5119	7.75	4.	0.	110.87
5120	8.	3.75	0.	111.47
5121	7.5	3.75	0.	110.6
5122	9.	3.25	0.	104.34
5123	8.75	3.5	0.	108.2
5124	9.	2.75	0.	104.21
5125	8.75	3.	0.	107.38
5126	8.75	2.5	0.	108.01
5127	7.	3.25	0.	102.47
5128	7.25	3.5	0.	106.15
5129	7.	2.75	0.	102.91
5130	7.25	3.	0.	105.78
5131	7.25	2.5	0.	106.97
5132	7.75	2.	0.	111.86
5133	7.5	2.25	0.	111.72
5134	8.25	2.	0.	111.97
5135	8.	2.25	0.	111.87
5136	8.5	2.25	0.	112.34
5137	8.25	3.5	0.	112.19
5138	7.75	3.5	0.	111.22
5139	8.	3.25	0.	112.86
5140	8.5	3.25	0.	111.24
5141	8.25	2.5	0.	112.29
5142	8.5	2.75	0.	111.18
5143	7.75	2.5	0.	111.76
5144	8.	2.75	0.	113.03
5145	7.5	2.75	0.	109.8
5146	7.5	3.25	0.	109.42
5147	7.75	3.	0.	111.09
5148	8.25	3.	0.	111.91
5149	6.	4.	0.	97.524
5150	5.	4.	0.	97.952
5151	6.	2.	0.	98.317
5152	5.	2.	0.	97.142
5153	5.5	4.	0.	112.06
5154	6.	3.5	0.	101.62
5155	6.	3.	0.	100.71
5156	6.	2.5	0.	101.77
5157	5.	3.5	0.	100.72
5158	5.	3.	0.	99.371
5159	5.	2.5	0.	100.7
5160	5.5	2.	0.	111.8
5161	5.5	3.5	0.	105.35
5162	5.5	3.	0.	102.86
5163	5.5	2.5	0.	105.32
5164	5.75	4.	0.	104.73
5165	6.	3.75	0.	99.555
5166	5.25	4.	0.	104.95
5167	5.	3.75	0.	99.332
5168	6.	2.25	0.	100.03
5169	5.75	2.	0.	105.01
5170	5.	2.25	0.	98.91
5171	5.25	2.	0.	104.41
5172	5.5	3.75	0.	108.68
5173	6.	3.25	0.	101.12
5174	5.75	3.5	0.	103.44
5175	6.	2.75	0.	101.19
5176	5.75	3.	0.	101.79
5177	5.75	2.5	0.	103.49
5178	5.	3.25	0.	100.01
5179	5.25	3.5	0.	102.98
5180	5.	2.75	0.	100.
5181	5.25	3.	0.	101.12
5182	5.25	2.5	0.	102.96
5183	5.5	2.25	0.	108.53
5184	5.5	3.25	0.	104.1
5185	5.5	2.75	0.	104.09
5186	9.	-5.	0.	99.04
5187	8.	-5.	0.	99.426
5188	9.	-6.	0.	97.813
5189	8.	-6.	0.	98.219
5190	8.5	-5.	0.	114.63
5191	9.	-5.5	0.	103.58
5192	8.	-5.5	0.	104.18
5193	8.5	-6.	0.	113.44
5194	8.5	-5.5	0.	111.56
5195	8.75	-5.	0.	106.82
5196	9.	-5.25	0.	101.31
5197	8.25	-5.	0.	107.
5198	8.	-5.25	0.	101.78
5199	9.	-5.75	0.	100.69
5200	8.75	-6.	0.	105.6
5201	8.	-5.75	0.	101.18
5202	8.25	-6.	0.	105.82
5203	8.5	-5.25	0.	113.06
5204	8.75	-5.5	0.	107.55
5205	8.25	-5.5	0.	107.84
5206	8.5	-5.75	0.	112.44
5207	8.	7.	0.	98.097
5208	6.	7.	0.	98.468
5209	8.	6.	0.	96.403
5210	6.	6.	0.	98.963
5211	7.5	7.	0.	114.52
5212	7.	7.	0.	113.39
5213	6.5	7.	0.	115.14
5214	8.	6.5	0.	102.23
5215	6.	6.5	0.	103.59
5216	6.5	6.	0.	114.98
5217	7.	6.	0.	112.92
5218	7.5	6.	0.	113.1
5219	6.5	6.5	0.	113.62
5220	7.	6.5	0.	116.21
5221	7.5	6.5	0.	112.54
5222	7.75	7.	0.	106.26
5223	8.	6.75	0.	100.15
5224	6.25	7.	0.	106.75
5225	6.	6.75	0.	101.
5226	8.	6.25	0.	99.295
5227	7.75	6.	0.	104.73
5228	6.	6.25	0.	101.25
5229	6.25	6.	0.	106.94
5230	7.25	7.	0.	113.95
5231	7.5	6.75	0.	113.51
5232	6.75	7.	0.	114.26
5233	7.	6.75	0.	114.79
5234	6.5	6.75	0.	114.36
5235	7.75	6.5	0.	107.37
5236	6.25	6.5	0.	108.59
5237	6.75	6.	0.	113.95
5238	6.5	6.25	0.	114.29
5239	7.25	6.	0.	113.
5240	7.	6.25	0.	114.56
5241	7.5	6.25	0.	112.8
5242	6.75	6.5	0.	114.92
5243	7.25	6.5	0.	114.38
5244	-6.93	3.52	0.	75.065
5245	-6.99	5.2	0.	82.399
5246	-8.42	4.31	0.	74.369
5247	-6.945	3.94	0.	98.58
5248	-6.96	4.36	0.	96.865
5249	-6.975	4.78	0.	98.401
5250	-7.3025	3.7175	0.	98.485
5251	-7.675	3.915	0.	101.68
5252	-8.0475	4.1125	0.	108.92
5253	-7.3475	4.9775	0.	98.675
5254	-7.705	4.755	0.	101.85
5255	-8.0625	4.5325	0.	106.55
5256	-7.8404	4.3306	0.	107.48
5257	-7.2204	4.1577	0.	96.862
5258	-7.5592	4.1982	0.	100.83
5259	-7.2706	4.6023	0.	98.248
5260	-7.576	4.4922	0.	101.03
5261	-6.9375	3.73	0.	85.342
5262	-7.1163	3.6188	0.	85.261
5263	-6.9825	4.99	0.	88.793
5264	-7.1687	5.0887	0.	88.935
5265	-8.2338	4.2112	0.	87.213
5266	-8.2413	4.4212	0.	85.843
5267	-6.9525	4.15	0.	97.684
5268	-7.0827	4.0488	0.	97.698
5269	-6.9675	4.57	0.	97.607
5270	-7.0902	4.2588	0.	96.86
5271	-7.1228	4.6911	0.	98.301
5272	-7.4887	3.8163	0.	100.06
5273	-7.2615	3.9376	0.	97.591
5274	-7.8612	4.0138	0.	105.19
5275	-7.6171	4.0566	0.	101.24
5276	-7.9439	4.2216	0.	107.81
5277	-7.5262	4.8663	0.	100.23
5278	-7.3091	4.7899	0.	98.406
5279	-7.8837	4.6438	0.	104.1
5280	-7.6405	4.6236	0.	101.43
5281	-7.9514	4.4316	0.	106.66
5282	-7.6998	4.2644	0.	104.07
5283	-7.7082	4.4114	0.	104.18
5284	-7.3898	4.1779	0.	98.836
5285	-7.2455	4.38	0.	97.55
5286	-7.5676	4.3452	0.	100.91
5287	-7.4233	4.5473	0.	99.635
5288	-0.79	-8.51	0.	49.588
5289	-1.5	-7.52	0.	105.76
5290	-2.	-8.63	0.	48.216
5291	-1.0267	-8.18	0.	90.1
5292	-1.2633	-7.85	0.	85.841
5293	-1.1933	-8.55	0.	109.97
5294	-1.5967	-8.59	0.	108.87
5295	-1.6667	-7.89	0.	90.048
5296	-1.8333	-8.26	0.	92.704
5297	-1.2826	-8.2862	0.	98.149
5298	-1.4464	-8.0559	0.	96.562
5299	-1.5615	-8.3149	0.	95.919
5300	-0.90833	-8.345	0.	66.769
5301	-0.99167	-8.53	0.	77.032
5302	-1.3817	-7.685	0.	94.291
5303	-1.5833	-7.705	0.	95.792
5304	-1.7983	-8.61	0.	78.274
5305	-1.9167	-8.445	0.	70.04
5306	-1.145	-8.015	0.	87.848
5307	-1.1546	-8.2331	0.	93.897
5308	-1.3548	-7.953	0.	91.157
5309	-1.395	-8.57	0.	109.31
5310	-1.2379	-8.4181	0.	103.77
5311	-1.5791	-8.4525	0.	102.35
5312	-1.75	-8.075	0.	91.227
5313	-1.5565	-7.973	0.	93.171
5314	-1.6974	-8.2875	0.	94.202
5315	-1.3645	-8.1711	0.	97.207
5316	-1.4221	-8.3005	0.	96.881
5317	-1.504	-8.1854	0.	96.145
5318	6.3	-5.5	0.	77.851
5319	4.5	-6.37	0.	85.283
5320	6.15	-7.5	0.	87.69
5321	5.85	-5.7175	0.	107.51
5322	5.4	-5.935	0.	105.6
5323	4.95	-6.1525	0.	114.15
5324	6.2625	-6.	0.	103.15
5325	6.225	-6.5	0.	99.187
5326	6.1875	-7.	0.	102.23
5327	4.9125	-6.6525	0.	111.28
5328	5.325	-6.935	0.	104.52
5329	5.7375	-7.2175	0.	102.72
5330	5.8375	-6.0551	0.	100.95
5331	5.7755	-6.8816	0.	101.89
5332	5.7754	-6.4661	0.	103.85
5333	5.2923	-6.4297	0.	107.31
5334	6.075	-5.6087	0.	91.635
5335	6.2812	-5.75	0.	89.578
5336	4.725	-6.2613	0.	96.504
5337	4.7063	-6.5113	0.	95.215
5338	6.1687	-7.25	0.	93.47
5339	5.9437	-7.3587	0.	93.672
5340	5.625	-5.8263	0.	106.52
5341	5.8437	-5.8863	0.	104.14
5342	5.175	-6.0437	0.	109.82
5343	5.6187	-5.9951	0.	103.25
5344	5.3461	-6.1823	0.	106.4
5345	5.1211	-6.2911	0.	110.51
5346	6.2438	-6.25	0.	101.15
5347	6.05	-6.0276	0.	102.03
5348	6.2063	-6.75	0.	100.64
5349	6.0002	-6.483	0.	101.51
5350	5.9815	-6.9408	0.	102.01
5351	5.1188	-6.7937	0.	107.84
5352	5.1024	-6.5411	0.	109.09
5353	5.5312	-7.0763	0.	103.6
5354	5.5503	-6.9083	0.	103.16
5355	5.3086	-6.6823	0.	105.88
5356	5.7565	-7.0496	0.	102.19
5357	5.8065	-6.2606	0.	102.4
5358	5.7755	-6.6738	0.	102.87
5359	5.5339	-6.4479	0.	105.55
5360	-6.	-4.	0.	97.784
5361	-8.	-4.	0.	95.201
5362	-6.	-6.	0.	95.545
5363	-8.	-6.	0.	98.283
5364	-6.5	-4.	0.	110.49
5365	-7.	-4.	0.	107.1
5366	-7.5	-4.	0.	108.66
5367	-6.	-4.5	0.	101.1
5368	-6.	-5.	0.	99.563
5369	-6.	-5.5	0.	100.67
5370	-8.	-4.5	0.	100.49
5371	-8.	-5.	0.	100.36
5372	-8.	-5.5	0.	102.16
5373	-7.5	-6.	0.	112.3
5374	-7.	-6.	0.	110.25
5375	-6.5	-6.	0.	112.52
5376	-7.	-5.	0.	110.77
5377	-6.5	-5.	0.	107.55
5378	-6.5	-5.5	0.	108.82
5379	-7.	-5.5	0.	111.89
5380	-7.5	-5.5	0.	109.39
5381	-7.5	-5.	0.	107.83
5382	-7.5	-4.5	0.	107.5
5383	-7.	-4.5	0.	110.17
5384	-6.5	-4.5	0.	108.12
5385	-6.25	-4.	0.	104.07
5386	-6.	-4.25	0.	99.432
5387	-7.75	-4.	0.	101.89
5388	-8.	-4.25	0.	97.837
5389	-6.	-5.75	0.	98.074
5390	-6.25	-6.	0.	103.93
5391	-8.	-5.75	0.	100.21
5392	-7.75	-6.	0.	105.21
5393	-6.75	-4.	0.	108.8
5394	-6.5	-4.25	0.	109.28
5395	-7.25	-4.	0.	107.88
5396	-7.	-4.25	0.	108.62
5397	-7.5	-4.25	0.	108.05
5398	-6.	-4.75	0.	100.3
5399	-6.25	-4.5	0.	104.59
5400	-6.	-5.25	0.	100.08
5401	-6.25	-5.	0.	103.55
5402	-6.25	-5.5	0.	104.73
5403	-8.	-4.75	0.	100.4
5404	-7.75	-4.5	0.	103.99
5405	-8.	-5.25	0.	101.23
5406	-7.75	-5.	0.	104.09
5407	-7.75	-5.5	0.	105.75
5408	-7.25	-6.	0.	111.27
5409	-7.5	-5.75	0.	110.81
5410	-6.75	-6.	0.	111.38
5411	-7.	-5.75	0.	111.05
5412	-6.5	-5.75	0.	110.64
5413	-6.75	-5.	0.	109.16
5414	-7.	-5.25	0.	111.33
5415	-7.25	-5.	0.	109.3
5416	-7.	-4.75	0.	110.46
5417	-6.5	-5.25	0.	108.17
5418	-6.5	-4.75	0.	107.82
5419	-6.75	-5.5	0.	110.33
5420	-7.25	-5.5	0.	110.62
5421	-7.5	-5.25	0.	108.6
5422	-7.5	-4.75	0.	107.66
5423	-7.25	-4.5	0.	108.83
5424	-6.75	-4.5	0.	109.14
