Node Number	X Location (mm)	Y Location (mm)	Z Location (mm)	Equivalent (von-Mises) Stress (MPa)
1	-7.	5.	0.	130.76
2	-7.	3.	0.	130.74
3	-6.	5.	0.	131.17
4	-6.	3.	0.	130.5
5	4.	-7.	0.	134.07
6	4.	-8.	0.	133.52
7	6.	-7.	0.	133.67
8	6.	-8.	0.	133.05
9	7.	-1.	0.	130.79
10	7.	-2.	0.	133.47
11	9.	-1.	0.	138.13
12	9.	-2.	0.	138.05
13	3.	0.	0.	133.62
14	3.	-1.	0.	133.17
15	4.	0.	0.	134.55
16	4.	-1.	0.	133.48
17	-7.	-5.	0.	130.36
18	-7.	-7.	0.	130.19
19	-6.	-5.	0.	130.5
20	-6.	-7.	0.	130.37
21	6.	2.	0.	136.05
22	6.	1.	0.	136.37
23	8.	2.	0.	133.7
24	8.	1.	0.	131.79
25	10.	10.	0.	125.
26	-10.	10.	0.	124.99
27	10.	-10.	0.	126.48
28	-10.	-10.	0.	127.07
29	-7.	4.5	0.	139.75
30	-7.	4.	0.	140.1
31	-7.	3.5	0.	139.64
32	-6.5	5.	0.	106.67
33	-6.5	3.	0.	106.38
34	-6.	4.5	0.	139.65
35	-6.	4.	0.	139.94
36	-6.	3.5	0.	139.45
37	4.	-7.5	0.	142.28
38	4.5	-7.	0.	115.77
39	5.	-7.	0.	120.69
40	5.5	-7.	0.	115.52
41	4.5	-8.	0.	115.32
42	5.	-8.	0.	120.16
43	5.5	-8.	0.	115.15
44	6.	-7.5	0.	141.8
45	7.	-1.5	0.	140.54
46	7.5	-1.	0.	114.06
47	8.	-1.	0.	121.35
48	8.5	-1.	0.	118.71
49	7.5	-2.	0.	115.73
50	8.	-2.	0.	122.01
51	8.5	-2.	0.	118.29
52	9.	-1.5	0.	148.08
53	3.	-0.5	0.	142.75
54	3.5	0.	0.	111.28
55	3.5	-1.	0.	110.89
56	4.	-0.5	0.	143.69
57	-7.	-5.5	0.	139.28
58	-7.	-6.	0.	139.66
59	-7.	-6.5	0.	139.21
60	-6.5	-5.	0.	106.17
61	-6.5	-7.	0.	106.04
62	-6.	-5.5	0.	139.21
63	-6.	-6.	0.	139.57
64	-6.	-6.5	0.	139.15
65	6.	1.5	0.	144.88
66	6.5	2.	0.	116.82
67	7.	2.	0.	121.46
68	7.5	2.	0.	116.04
69	6.5	1.	0.	117.7
70	7.	1.	0.	120.89
71	7.5	1.	0.	114.12
72	8.	1.5	0.	141.51
73	9.5	10.	0.	125.
74	9.	10.	0.	124.99
75	8.5	10.	0.	124.96
76	8.	10.	0.	124.93
77	7.5	10.	0.	124.91
78	7.	10.	0.	124.9
79	6.5	10.	0.	124.91
80	6.	10.	0.	124.94
81	5.5	10.	0.	124.99
82	5.	10.	0.	125.06
83	4.5	10.	0.	125.14
84	4.	10.	0.	125.22
85	3.5	10.	0.	125.31
86	3.	10.	0.	125.4
87	2.5	10.	0.	125.48
88	2.	10.	0.	125.56
89	1.5	10.	0.	125.63
90	1.	10.	0.	125.69
91	0.5	10.	0.	125.74
92	-5.2042e-015	10.	0.	125.77
93	-0.5	10.	0.	125.8
94	-1.	10.	0.	125.8
95	-1.5	10.	0.	125.78
96	-2.	10.	0.	125.74
97	-2.5	10.	0.	125.66
98	-3.	10.	0.	125.54
99	-3.5	10.	0.	125.38
100	-4.	10.	0.	125.19
101	-4.5	10.	0.	124.96
102	-5.	10.	0.	124.73
103	-5.5	10.	0.	124.52
104	-6.	10.	0.	124.37
105	-6.5	10.	0.	124.29
106	-7.	10.	0.	124.31
107	-7.5	10.	0.	124.41
108	-8.	10.	0.	124.56
109	-8.5	10.	0.	124.74
110	-9.	10.	0.	124.9
111	-9.5	10.	0.	124.99
112	10.	9.5	0.	125.
113	10.	9.	0.	125.02
114	10.	8.5	0.	125.08
115	10.	8.	0.	125.16
116	10.	7.5	0.	125.28
117	10.	7.	0.	125.45
118	10.	6.5	0.	125.69
119	10.	6.	0.	126.02
120	10.	5.5	0.	126.46
121	10.	5.	0.	127.04
122	10.	4.5	0.	127.72
123	10.	4.	0.	128.4
124	10.	3.5	0.	128.79
125	10.	3.	0.	128.47
126	10.	2.5	0.	127.19
127	10.	2.	0.	125.68
128	10.	1.5	0.	125.5
129	10.	1.	0.	127.82
130	10.	0.5	0.	131.91
131	10.	-5.2042e-015	0.	135.96
132	10.	-0.5	0.	136.39
133	10.	-1.	0.	131.07
134	10.	-1.5	0.	125.89
135	10.	-2.	0.	130.02
136	10.	-2.5	0.	134.9
137	10.	-3.	0.	135.
138	10.	-3.5	0.	132.45
139	10.	-4.	0.	130.16
140	10.	-4.5	0.	128.52
141	10.	-5.	0.	127.35
142	10.	-5.5	0.	126.47
143	10.	-6.	0.	125.76
144	10.	-6.5	0.	125.2
145	10.	-7.	0.	124.86
146	10.	-7.5	0.	124.8
147	10.	-8.	0.	125.04
148	10.	-8.5	0.	125.48
149	10.	-9.	0.	125.97
150	10.	-9.5	0.	126.34
151	-10.	9.5	0.	125.01
152	-10.	9.	0.	125.19
153	-10.	8.5	0.	125.53
154	-10.	8.	0.	125.93
155	-10.	7.5	0.	126.33
156	-10.	7.	0.	126.63
157	-10.	6.5	0.	126.7
158	-10.	6.	0.	126.43
159	-10.	5.5	0.	125.81
160	-10.	5.	0.	124.98
161	-10.	4.5	0.	124.27
162	-10.	4.	0.	123.96
163	-10.	3.5	0.	124.18
164	-10.	3.	0.	124.83
165	-10.	2.5	0.	125.61
166	-10.	2.	0.	126.23
167	-10.	1.5	0.	126.53
168	-10.	1.	0.	126.54
169	-10.	0.5	0.	126.38
170	-10.	-5.2042e-015	0.	126.16
171	-10.	-0.5	0.	125.99
172	-10.	-1.	0.	125.91
173	-10.	-1.5	0.	125.94
174	-10.	-2.	0.	126.06
175	-10.	-2.5	0.	126.22
176	-10.	-3.	0.	126.34
177	-10.	-3.5	0.	126.28
178	-10.	-4.	0.	125.94
179	-10.	-4.5	0.	125.29
180	-10.	-5.	0.	124.47
181	-10.	-5.5	0.	123.8
182	-10.	-6.	0.	123.56
183	-10.	-6.5	0.	123.88
184	-10.	-7.	0.	124.64
185	-10.	-7.5	0.	125.54
186	-10.	-8.	0.	126.31
187	-10.	-8.5	0.	126.79
188	-10.	-9.	0.	127.
189	-10.	-9.5	0.	127.06
190	-9.5	-10.	0.	126.34
191	-9.	-10.	0.	125.61
192	-8.5	-10.	0.	124.76
193	-8.	-10.	0.	123.72
194	-7.5	-10.	0.	122.59
195	-7.	-10.	0.	121.69
196	-6.5	-10.	0.	121.4
197	-6.	-10.	0.	121.9
198	-5.5	-10.	0.	122.99
199	-5.	-10.	0.	124.26
200	-4.5	-10.	0.	125.37
201	-4.	-10.	0.	126.15
202	-3.5	-10.	0.	126.64
203	-3.	-10.	0.	126.9
204	-2.5	-10.	0.	127.04
205	-2.	-10.	0.	127.11
206	-1.5	-10.	0.	127.16
207	-1.	-10.	0.	127.22
208	-0.5	-10.	0.	127.31
209	5.2042e-015	-10.	0.	127.46
210	0.5	-10.	0.	127.67
211	1.	-10.	0.	127.95
212	1.5	-10.	0.	128.28
213	2.	-10.	0.	128.55
214	2.5	-10.	0.	128.49
215	3.	-10.	0.	127.58
216	3.5	-10.	0.	125.3
217	4.	-10.	0.	121.84
218	4.5	-10.	0.	118.59
219	5.	-10.	0.	117.21
220	5.5	-10.	0.	118.4
221	6.	-10.	0.	121.45
222	6.5	-10.	0.	124.73
223	7.	-10.	0.	126.84
224	7.5	-10.	0.	127.58
225	8.	-10.	0.	127.48
226	8.5	-10.	0.	127.07
227	9.	-10.	0.	126.63
228	9.5	-10.	0.	126.37
229	-3.	-1.	0.	125.84
230	-2.5	-0.5	0.	125.98
231	-0.50004	3.4997	0.	125.69
232	-3.	-1.5	0.	125.94
233	-3.5	-1.	0.	125.55
234	-3.	-0.5	0.	125.82
235	-1.5	-3.	0.	126.69
236	-1.	-4.	0.	126.79
237	-1.5	-3.5	0.	126.72
238	-2.	-2.5	0.	126.51
239	-1.	-3.5	0.	126.82
240	-2.5	-2.	0.	126.26
241	-0.50002	2.9998	0.	125.79
242	-2.3695e-005	3.4998	0.	125.74
243	-2.5	-4.9591e-006	0.	125.98
244	-2.5	-1.5	0.	126.13
245	-1.	3.9997	0.	125.58
246	-0.50004	3.9998	0.	125.62
247	0.49998	3.9999	0.	125.67
248	-3.5	-1.5	0.	125.65
249	-0.5	-4.	0.	126.92
250	-4.	-1.	0.	125.13
251	-2.	-0.5	0.	126.06
252	-1.	3.4997	0.	125.64
253	-3.5	-0.5	0.	125.55
254	-1.5	-2.5	0.	126.6
255	-1.5	1.4999	0.	125.97
256	-1.5	3.9998	0.	125.54
257	-1.5	-4.	0.	126.68
258	-2.	-3.	0.	126.6
259	-1.	-3.	0.	126.79
260	-1.	1.9998	0.	125.92
261	0.99999	3.9999	0.	125.66
262	-2.	0.99996	0.	126.02
263	-1.5	4.4998	0.	125.53
264	-2.5	-2.5	0.	126.41
265	-0.5	-3.5	0.	126.95
266	-0.50001	2.4998	0.	125.9
267	0.49998	3.4999	0.	125.75
268	-4.	-1.5	0.	125.23
269	-3.	-2.	0.	126.09
270	5.8265e-011	-4.	0.	127.04
271	-1.5841e-005	2.9999	0.	125.85
272	-3.	-2.584e-006	0.	125.87
273	-4.5	-1.	0.	124.59
274	-2.	-1.5	0.	126.24
275	-2.	-9.0704e-006	0.	126.02
276	-1.	2.9998	0.	125.74
277	-1.	4.4998	0.	125.55
278	-0.50003	4.4998	0.	125.57
279	0.49997	4.4999	0.	125.61
280	0.99998	4.4999	0.	125.61
281	1.5	4.5	0.	125.6
282	1.7099e-011	-4.5	0.	126.97
283	-1.	-4.5	0.	126.72
284	-4.	-0.5	0.	125.16
285	-1.5	-2.	0.	126.46
286	-1.5	0.99994	0.	126.
287	-1.5	-0.50001	0.	126.08
288	2.	4.5	0.	125.59
289	-1.5	1.9999	0.	125.9
290	-1.5	3.4998	0.	125.6
291	-1.5	-4.5	0.	126.6
292	-2.	-3.5	0.	126.64
293	-1.	-2.5	0.	126.7
294	1.5	4.	0.	125.63
295	-2.	1.4999	0.	126.
296	-2.	3.9998	0.	125.51
297	-2.	4.4998	0.	125.52
298	-1.5	4.9998	0.	125.56
299	-2.5	-3.	0.	126.53
300	-0.5	-3.	0.	126.92
301	-0.50001	1.9999	0.	125.98
302	0.99999	3.4999	0.	125.73
303	-2.5	0.99997	0.	126.05
304	-4.5	-1.5	0.	124.67
305	-3.5	-2.	0.	125.83
306	-3.	-2.5	0.	126.28
307	0.5	-4.	0.	127.11
308	1.	-4.5	0.	127.08
309	4.5186e-010	-3.5	0.	127.08
310	-7.4785e-006	2.4999	0.	125.97
311	0.49999	2.9999	0.	125.88
312	-3.	0.49999	0.	125.96
313	-5.	-1.	0.	123.96
314	-4.5	-0.5	0.	124.62
315	-3.5	-1.4113e-006	0.	125.65
316	1.	-5.	0.	127.05
317	-1.5	-1.5	0.	126.31
318	-1.5	0.49997	0.	126.01
319	-1.5	-1.4795e-005	0.	126.03
320	3.	4.5	0.	125.67
321	-1.5	2.9998	0.	125.69
322	-0.50002	4.9998	0.	125.55
323	0.49998	4.9999	0.	125.57
324	2.	5.	0.	125.57
325	2.5	5.	0.	125.59
326	3.	5.	0.	125.61
327	3.5	5.	0.	125.62
328	-1.1139e-012	-5.	0.	126.87
329	-2.	-4.	0.	126.6
330	-1.	-2.	0.	126.54
331	-1.	0.99993	0.	126.
332	-1.	-0.50001	0.	126.07
333	2.	4.	0.	125.58
334	-2.	1.9999	0.	125.93
335	-2.	3.4998	0.	125.57
336	-2.	4.9999	0.	125.6
337	-2.5	-3.5	0.	126.59
338	-0.5	-2.5	0.	126.82
339	-0.5	1.4999	0.	126.03
340	1.5	3.5	0.	125.66
341	-2.5	1.5	0.	126.06
342	-2.5	3.9999	0.	125.5
343	5.	5.5	0.	124.8
344	-5.	-1.5	0.	124.01
345	-4.	-2.	0.	125.43
346	-3.	-3.	0.	126.46
347	1.	-4.	0.	127.09
348	1.5	-4.5	0.	126.99
349	2.5966e-009	-3.	0.	127.06
350	-1.0076e-006	1.9999	0.	126.08
351	1.	3.	0.	125.85
352	-3.	0.99999	0.	126.08
353	-5.5	-1.	0.	123.35
354	-5.	-0.5	0.	123.98
355	-4.	-6.3195e-007	0.	125.3
356	4.	5.	0.	125.57
357	-3.5	-2.5	0.	126.08
358	0.5	-3.5	0.	127.17
359	0.5	2.4999	0.	126.03
360	-3.5	0.5	0.	125.83
361	1.5	-5.	0.	127.09
362	1.	-5.5	0.	126.98
363	-2.	-4.5	0.	126.5
364	-1.	-1.	0.	126.2
365	-1.	-1.5	0.	126.37
366	-1.	-1.7551e-005	0.	126.01
367	3.	4.	0.	125.64
368	2.5	4.	0.	125.57
369	-2.	2.9998	0.	125.68
370	-2.	5.4999	0.	125.7
371	-1.5	5.4999	0.	125.62
372	-0.50002	5.4999	0.	125.55
373	0.99998	5.5	0.	125.54
374	1.5	5.5	0.	125.54
375	2.	5.5	0.	125.54
376	2.5	5.5	0.	125.54
377	3.	5.5	0.	125.52
378	3.5	5.5	0.	125.48
379	4.	5.5	0.	125.37
380	4.5	5.5	0.	125.16
381	-7.1455e-012	-5.5	0.	126.75
382	-1.	-5.5	0.	126.52
383	-1.5	-5.5	0.	126.39
384	-2.	-5.5	0.	126.26
385	-2.5	-4.	0.	126.56
386	-0.5	-2.	0.	126.64
387	-0.5	0.99994	0.	126.04
388	-0.5	-0.50001	0.	126.05
389	2.	3.5	0.	125.55
390	-2.5	4.4999	0.	125.54
391	-2.5	1.9999	0.	126.
392	-2.5	3.4999	0.	125.56
393	5.5	5.5	0.	124.33
394	-5.5	-1.5	0.	123.35
395	-2.5	-5.5	0.	126.14
396	-3.	-3.5	0.	126.58
397	1.5	-4.	0.	126.9
398	1.1852e-008	-2.5	0.	126.97
399	2.205e-006	1.4999	0.	126.14
400	1.5	3.	0.	125.74
401	-3.	1.5	0.	126.16
402	-3.	3.9999	0.	125.52
403	-5.5	-0.5	0.	123.33
404	-4.5	-2.7039e-007	0.	124.76
405	4.5	5.	0.	125.39
406	3.5	4.	0.	125.83
407	-4.	-2.5	0.	125.74
408	-3.5	-3.	0.	126.36
409	1.	-3.5	0.	127.15
410	0.5	-3.	0.	127.19
411	0.5	1.9999	0.	126.19
412	1.	2.5	0.	126.03
413	2.	-4.5	0.	126.73
414	-3.5	0.99999	0.	126.06
415	-4.	0.5	0.	125.56
416	4.	4.5	0.	125.82
417	1.5	-5.5	0.	127.11
418	1.	-6.	0.	126.81
419	-2.5	-4.5	0.	126.45
420	-0.5	-1.5	0.	126.42
421	-0.5	-1.987e-005	0.	125.99
422	3.	3.5	0.	125.49
423	2.5	3.5	0.	125.46
424	-2.5	4.9999	0.	125.67
425	-2.5	5.4999	0.	125.83
426	-2.5	2.9999	0.	125.7
427	-2.	5.9999	0.	125.78
428	-1.5	5.9999	0.	125.67
429	-0.50001	5.9999	0.	125.56
430	-1.5126e-005	5.9999	0.	125.53
431	0.49998	5.9999	0.	125.52
432	0.99999	6.	0.	125.51
433	1.5	6.	0.	125.5
434	2.5	6.	0.	125.47
435	3.5	6.	0.	125.37
436	4.	6.	0.	125.24
437	4.5	6.	0.	125.03
438	6.	5.5	0.	123.82
439	-6.	-1.5	0.	122.84
440	-6.	-1.	0.	122.88
441	0.5	-6.	0.	126.72
442	-9.8034e-012	-6.	0.	126.64
443	-0.5	-6.	0.	126.55
444	-1.	-6.	0.	126.45
445	-1.5	-6.	0.	126.34
446	-2.	-6.	0.	126.21
447	-3.	-6.	0.	125.97
448	-5.	-2.	0.	124.13
449	-3.	-5.5	0.	126.05
450	-3.	-4.	0.	126.59
451	2.	-4.	0.	126.48
452	4.3216e-008	-2.	0.	126.77
453	2.9319e-006	0.99996	0.	126.13
454	7.4465e-007	-0.50001	0.	126.01
455	2.	3.	0.	125.52
456	-3.	4.4999	0.	125.6
457	-3.	5.9999	0.	126.18
458	-3.	2.	0.	126.14
459	-3.	3.4999	0.	125.6
460	-6.	-0.5	0.	122.83
461	5.	5.	0.	124.99
462	3.5	3.5	0.	125.73
463	-4.5	-2.5	0.	125.19
464	-3.5	-3.5	0.	126.6
465	1.5	-3.5	0.	126.92
466	0.5	-2.5	0.	127.15
467	0.5	1.5	0.	126.31
468	1.5	2.5	0.	125.91
469	2.5	-4.5	0.	126.25
470	5.	-4.5	0.	122.38
471	-3.5	1.5	0.	126.27
472	-3.5	4.	0.	125.61
473	-4.5	0.5	0.	125.06
474	6.	6.5	0.	124.25
475	6.5	5.	0.	122.98
476	-4.	-3.	0.	126.15
477	1.	-3.	0.	127.25
478	1.	2.	0.	126.28
479	5.	-4.	0.	123.5
480	1.5	-6.	0.	126.98
481	1.	-6.5	0.	126.6
482	2.	-5.	0.	127.04
483	-3.5	6.5	0.	126.45
484	-4.	1.	0.	125.93
485	4.	4.	0.	126.08
486	-3.5	-6.	0.	125.92
487	-6.5	-2.	0.	122.38
488	-6.	-2.	0.	122.67
489	-3.	-4.5	0.	126.46
490	3.	-4.	0.	124.96
491	3.181e-007	-1.	0.	126.2
492	1.4857e-007	-1.5	0.	126.49
493	1.4021e-006	-1.3844e-005	0.	125.98
494	2.5	3.	0.	125.27
495	4.5	-4.	0.	123.32
496	3.5	-4.	0.	124.14
497	-3.	5.4999	0.	126.04
498	-3.	2.9999	0.	125.79
499	-6.	-1.4148e-008	0.	122.66
500	-5.5	-4.4252e-008	0.	123.29
501	5.5	5.	0.	124.36
502	-3.	6.5	0.	126.2
503	-2.5	6.4999	0.	125.99
504	-2.	6.4999	0.	125.82
505	-1.5	6.4999	0.	125.7
506	-0.50001	6.4999	0.	125.56
507	-9.4731e-006	6.4999	0.	125.52
508	0.49999	6.5	0.	125.5
509	0.99999	6.5	0.	125.48
510	1.5	6.5	0.	125.47
511	2.	6.5	0.	125.45
512	2.5	6.5	0.	125.42
513	3.	6.5	0.	125.37
514	3.5	6.5	0.	125.28
515	4.	6.5	0.	125.15
516	4.5	6.5	0.	124.97
517	5.5	6.5	0.	124.48
518	6.5	6.	0.	123.79
519	6.5	5.5	0.	123.43
520	-6.5	-1.5	0.	122.61
521	-6.5	-1.	0.	122.69
522	-6.5	-0.5	0.	122.62
523	-6.5	-5.2543e-009	0.	122.39
524	0.5	-6.5	0.	126.57
525	-1.0428e-011	-6.5	0.	126.54
526	-0.5	-6.5	0.	126.5
527	-1.	-6.5	0.	126.43
528	-1.5	-6.5	0.	126.35
529	-2.	-6.5	0.	126.25
530	-3.	-6.5	0.	126.07
531	3.5	3.	0.	125.35
532	-5.	-2.5	0.	124.37
533	-3.5	-5.5	0.	126.03
534	-3.5	-4.	0.	126.7
535	2.	-3.5	0.	126.37
536	0.5	-2.	0.	126.97
537	0.5	0.99997	0.	126.32
538	0.5	-0.5	0.	125.99
539	2.	2.5	0.	125.57
540	3.5	-3.5	0.	123.69
541	3.	-4.5	0.	125.51
542	5.5	-4.5	0.	122.76
543	-3.5	4.5	0.	125.74
544	-3.5	6.	0.	126.51
545	-3.5	2.	0.	126.36
546	-3.5	3.5	0.	125.71
547	-5.	0.5	0.	124.28
548	5.	4.5	0.	125.36
549	6.5	6.5	0.	124.09
550	6.5	4.5	0.	122.42
551	-4.5	-3.	0.	125.71
552	-4.	-3.5	0.	126.59
553	1.5	-3.	0.	127.09
554	1.	-2.5	0.	127.34
555	1.	1.5	0.	126.53
556	1.5	2.	0.	126.23
557	5.5	-4.	0.	123.95
558	1.5	-6.5	0.	126.67
559	1.	-7.	0.	126.43
560	2.	-5.5	0.	127.29
561	2.5	-5.	0.	126.82
562	5.	-5.	0.	121.
563	-4.5	7.	0.	126.12
564	-4.	6.5	0.	126.68
565	-4.	1.5	0.	126.35
566	-4.	4.	0.	125.84
567	-4.5	1.	0.	125.55
568	4.5	4.	0.	126.25
569	-4.	-6.	0.	126.
570	-6.5	0.5	0.	121.95
571	-6.5	-2.5	0.	121.92
572	5.	-3.5	0.	124.45
573	-7.	-2.	0.	122.57
574	3.5	2.5	0.	124.62
575	4.	3.5	0.	126.22
576	-5.5	-2.5	0.	123.32
577	-6.	-2.5	0.	122.36
578	-3.5	-4.5	0.	126.59
579	3.	-3.5	0.	124.44
580	0.5	-1.	0.	126.23
581	0.5	-1.5	0.	126.63
582	0.5	-8.9856e-006	0.	126.
583	2.5	2.5	0.	125.05
584	4.5	-3.5	0.	123.82
585	3.5	-4.5	0.	124.51
586	6.	-4.5	0.	123.41
587	-3.5	5.	0.	126.05
588	-3.5	5.5	0.	126.36
589	-3.5	2.5	0.	126.25
590	-3.5	3.	0.	125.98
591	-6.	0.5	0.	122.35
592	-5.5	0.5	0.	123.27
593	5.5	4.5	0.	124.55
594	-3.5	7.	0.	126.25
595	-3.	7.	0.	126.11
596	-2.5	7.	0.	125.95
597	-2.	7.	0.	125.81
598	-1.5	7.	0.	125.7
599	-1.	7.	0.	125.62
600	-0.5	7.	0.	125.56
601	0.49999	7.	0.	125.49
602	1.5	7.	0.	125.44
603	2.5	7.	0.	125.38
604	3.	7.	0.	125.32
605	3.5	7.	0.	125.23
606	4.5	7.	0.	124.96
607	5.	7.	0.	124.78
608	5.5	7.	0.	124.6
609	7.	6.5	0.	124.06
610	6.	7.	0.	124.44
611	6.5	7.	0.	124.33
612	7.	6.	0.	123.72
613	7.	5.	0.	122.73
614	7.	4.5	0.	121.97
615	-7.	-1.5	0.	122.75
616	-7.	-1.	0.	122.81
617	-7.	-0.5	0.	122.77
618	-7.	-2.3845e-009	0.	122.6
619	0.5	-7.	0.	126.49
620	-8.8309e-012	-7.	0.	126.52
621	-0.5	-7.	0.	126.51
622	-1.	-7.	0.	126.48
623	-1.5	-7.	0.	126.43
624	-2.	-7.	0.	126.37
625	-2.5	-7.	0.	126.32
626	-3.	-7.	0.	126.3
627	7.	4.	0.	120.92
628	-5.	-3.	0.	124.83
629	-4.	-4.	0.	126.9
630	2.	-3.	0.	126.5
631	1.	-2.	0.	127.28
632	1.	0.99998	0.	126.65
633	1.	-0.5	0.	125.97
634	2.	2.	0.	125.83
635	3.5	-3.	0.	122.95
636	7.	-4.5	0.	123.64
637	6.	-4.	0.	124.29
638	1.5	-7.	0.	126.35
639	2.	-6.	0.	127.28
640	4.5	-5.	0.	121.66
641	3.	-5.	0.	126.21
642	5.5	-5.	0.	121.57
643	-5.	7.	0.	125.47
644	-4.	6.	0.	126.92
645	-4.	2.	0.	126.66
646	-4.	3.5	0.	125.97
647	-5.	1.	0.	124.72
648	6.5	4.	0.	121.69
649	5.	4.	0.	126.02
650	-3.5	-7.	0.	126.36
651	-4.	-6.5	0.	126.16
652	-7.	0.5	0.	122.29
653	-6.5	1.	0.	121.13
654	-6.5	-3.	0.	121.09
655	-4.5	-3.5	0.	126.41
656	1.5	-2.5	0.	127.42
657	1.5	1.5	0.	126.7
658	5.5	-3.5	0.	125.15
659	5.	-3.	0.	125.22
660	2.5	-5.5	0.	127.42
661	7.	-5.	0.	124.52
662	-7.	-2.5	0.	122.24
663	-4.5	6.5	0.	126.74
664	-4.5	1.5	0.	126.25
665	3.5	2.	0.	123.53
666	4.	3.	0.	126.05
667	4.5	3.5	0.	126.82
668	7.	7.	0.	124.32
669	-6.5	7.	0.	122.06
670	7.	3.5	0.	119.41
671	-4.5	-6.	0.	126.49
672	-4.5	4.	0.	126.48
673	-6.	-3.	0.	121.84
674	-4.	-4.5	0.	126.88
675	3.	-3.	0.	123.85
676	1.	-1.	0.	126.34
677	1.	-1.5	0.	126.91
678	1.	-5.3684e-006	0.	126.12
679	3.	2.	0.	123.91
680	2.5	2.	0.	124.96
681	4.5	-3.	0.	124.17
682	6.5	-4.	0.	124.04
683	7.	-4.	0.	123.08
684	2.	-6.5	0.	126.89
685	2.	-7.	0.	126.32
686	3.5	-5.	0.	125.
687	6.	-5.	0.	122.88
688	-5.5	7.	0.	124.24
689	-6.	7.	0.	122.78
690	-4.	5.5	0.	126.84
691	-4.	3.	0.	126.35
692	-5.5	1.	0.	123.35
693	5.5	4.	0.	125.05
694	-4.	-7.	0.	126.58
695	-7.	1.	0.	121.79
696	-5.	4.	0.	128.17
697	5.	-6.	0.	117.01
698	-5.	-6.	0.	128.05
699	7.	3.	0.	117.45
700	-7.5	7.5	0.	124.06
701	-7.	7.5	0.	123.34
702	-6.5	7.5	0.	123.06
703	-6.	7.5	0.	123.45
704	-5.5	7.5	0.	124.28
705	-5.	7.5	0.	125.11
706	-4.5	7.5	0.	125.67
707	-4.	7.5	0.	125.94
708	-3.5	7.5	0.	126.
709	-3.	7.5	0.	125.95
710	-2.5	7.5	0.	125.86
711	-2.	7.5	0.	125.76
712	-1.5	7.5	0.	125.67
713	-1.	7.5	0.	125.6
714	-0.5	7.5	0.	125.55
715	-3.2292e-006	7.5	0.	125.51
716	0.49999	7.5	0.	125.48
717	0.99999	7.5	0.	125.45
718	1.5	7.5	0.	125.42
719	2.	7.5	0.	125.39
720	2.5	7.5	0.	125.35
721	3.	7.5	0.	125.29
722	3.5	7.5	0.	125.21
723	4.	7.5	0.	125.11
724	4.5	7.5	0.	124.99
725	5.	7.5	0.	124.85
726	5.5	7.5	0.	124.71
727	6.	7.5	0.	124.6
728	6.5	7.5	0.	124.53
729	7.	7.5	0.	124.53
730	7.5	7.5	0.	124.6
731	7.5	7.	0.	124.42
732	7.5	6.5	0.	124.18
733	7.5	6.	0.	123.87
734	7.5	5.5	0.	123.48
735	7.5	5.	0.	122.98
736	7.5	4.5	0.	122.34
737	7.5	4.	0.	121.51
738	7.5	3.5	0.	120.43
739	5.	3.5	0.	127.06
740	6.5	3.5	0.	120.75
741	4.5	3.	0.	127.17
742	4.	2.5	0.	125.39
743	4.	2.	0.	124.37
744	-5.	1.5	0.	125.6
745	-4.5	3.5	0.	126.6
746	-4.5	2.	0.	126.96
747	-4.5	6.	0.	127.36
748	-4.5	4.5	0.	126.67
749	-5.	6.5	0.	126.25
750	-6.5	6.5	0.	120.39
751	-7.	7.	0.	122.65
752	-7.5	7.	0.	124.
753	-6.5	1.5	0.	119.64
754	-7.5	-2.5	0.	123.09
755	-7.5	-2.	0.	123.14
756	-7.5	-1.5	0.	123.19
757	-7.5	-1.	0.	123.22
758	-7.5	-0.5	0.	123.22
759	-7.5	-1.1051e-009	0.	123.19
760	-7.5	0.5	0.	123.17
761	-7.5	1.	0.	123.26
762	7.5	-4.	0.	122.02
763	7.5	-4.5	0.	123.28
764	7.5	-5.	0.	124.49
765	7.5	-5.5	0.	125.59
766	7.5	-6.	0.	126.34
767	7.5	-7.5	0.	125.12
768	5.5	-5.5	0.	120.24
769	7.	-5.5	0.	125.75
770	3.	-5.5	0.	127.2
771	4.5	-5.5	0.	120.44
772	2.5	-6.	0.	127.79
773	5.5	-3.	0.	126.18
774	7.5	-3.5	0.	120.64
775	5.	-2.5	0.	125.9
776	2.	1.5	0.	126.49
777	3.5	1.5	0.	122.07
778	1.5	0.99999	0.	127.13
779	1.5	-2.	0.	127.7
780	1.5	-0.5	0.	126.13
781	3.5	-2.5	0.	121.67
782	2.	-2.5	0.	127.04
783	-4.5	-4.	0.	127.11
784	-4.5	-5.5	0.	126.65
785	-5.	-3.5	0.	125.7
786	-6.5	-3.5	0.	119.58
787	-7.	-3.	0.	121.71
788	-7.5	-3.	0.	123.15
789	-4.5	-6.5	0.	126.64
790	2.5	-7.5	0.	125.99
791	2.	-7.5	0.	126.09
792	1.5	-7.5	0.	126.29
793	1.	-7.5	0.	126.44
794	0.5	-7.5	0.	126.54
795	-6.5735e-012	-7.5	0.	126.59
796	-0.5	-7.5	0.	126.6
797	-1.	-7.5	0.	126.59
798	-1.5	-7.5	0.	126.57
799	-2.	-7.5	0.	126.54
800	-2.5	-7.5	0.	126.53
801	-3.	-7.5	0.	126.57
802	-3.5	-7.5	0.	126.68
803	-4.	-7.5	0.	126.94
804	-4.5	-7.	0.	127.02
805	-7.	-3.5	0.	120.94
806	-7.5	-3.5	0.	123.54
807	-6.	-3.5	0.	121.08
808	-4.5	-5.	0.	127.02
809	-4.5	-4.5	0.	127.39
810	3.	-2.5	0.	123.13
811	1.5	-1.	0.	126.64
812	1.5	-1.5	0.	127.49
813	1.5	0.49999	0.	127.09
814	1.5	-3.182e-006	0.	126.42
815	2.5	1.5	0.	125.25
816	4.5	-2.5	0.	124.61
817	6.5	-3.5	0.	124.92
818	7.	-3.5	0.	122.91
819	5.5	-2.5	0.	126.59
820	2.5	-7.	0.	126.46
821	3.5	-5.5	0.	125.88
822	6.5	-5.5	0.	124.92
823	6.	-5.5	0.	122.74
824	7.5	-7.	0.	125.47
825	7.5	-6.5	0.	126.3
826	-7.5	1.5	0.	123.7
827	-7.	1.5	0.	121.06
828	-7.	6.5	0.	121.73
829	-7.5	6.5	0.	124.28
830	-5.5	6.5	0.	124.53
831	-6.	6.5	0.	121.89
832	-4.5	5.5	0.	127.55
833	-4.5	3.	0.	126.94
834	-5.5	1.5	0.	123.76
835	4.5	2.5	0.	126.89
836	4.5	2.	0.	126.02
837	5.5	3.5	0.	126.08
838	-5.	-5.5	0.	127.59
839	4.5	-6.	0.	118.88
840	-5.	4.5	0.	127.76
841	6.5	3.	0.	119.51
842	5.5	-1.	0.	126.37
843	4.	1.5	0.	123.45
844	4.5	1.5	0.	125.99
845	7.5	-1.2553e-012	0.	114.88
846	7.5	3.	0.	118.98
847	2.5	-8.	0.	126.67
848	2.	-8.	0.	126.58
849	1.5	-8.	0.	126.63
850	1.	-8.	0.	126.69
851	0.5	-8.	0.	126.74
852	-4.4569e-012	-8.	0.	126.76
853	-0.5	-8.	0.	126.76
854	-1.	-8.	0.	126.75
855	-2.	-8.	0.	126.73
856	-2.5	-8.	0.	126.74
857	-3.	-8.	0.	126.78
858	-3.5	-8.	0.	126.87
859	-4.	-8.	0.	127.01
860	-4.5	-8.	0.	127.14
861	-8.	-6.5	0.	127.43
862	-8.	-6.	0.	127.92
863	-8.	-3.5	0.	125.3
864	-8.	-3.	0.	124.45
865	-8.	-2.5	0.	124.04
866	-8.	-2.	0.	123.87
867	-8.	-1.5	0.	123.81
868	-8.	-1.	0.	123.81
869	-8.	-0.5	0.	123.84
870	-8.	-5.7406e-010	0.	123.93
871	-8.	0.5	0.	124.13
872	-8.	1.	0.	124.58
873	-8.	1.5	0.	125.47
874	-8.	3.5	0.	127.78
875	-8.	4.	0.	128.3
876	-8.	6.5	0.	125.96
877	-8.	7.	0.	125.17
878	-8.	7.5	0.	124.83
879	-8.	8.	0.	124.72
880	-7.5	8.	0.	124.24
881	-7.	8.	0.	123.83
882	-6.5	8.	0.	123.7
883	-6.	8.	0.	123.93
884	-5.5	8.	0.	124.42
885	-5.	8.	0.	124.96
886	-4.5	8.	0.	125.39
887	-4.	8.	0.	125.65
888	-3.5	8.	0.	125.76
889	-3.	8.	0.	125.77
890	-2.5	8.	0.	125.74
891	-2.	8.	0.	125.69
892	-1.5	8.	0.	125.63
893	-1.	8.	0.	125.58
894	-0.5	8.	0.	125.54
895	-1.7224e-006	8.	0.	125.51
896	0.5	8.	0.	125.48
897	1.	8.	0.	125.45
898	1.5	8.	0.	125.42
899	2.	8.	0.	125.38
900	2.5	8.	0.	125.34
901	3.	8.	0.	125.28
902	3.5	8.	0.	125.21
903	4.5	8.	0.	125.02
904	5.	8.	0.	124.92
905	5.5	8.	0.	124.82
906	6.	8.	0.	124.74
907	7.	8.	0.	124.69
908	7.5	8.	0.	124.74
909	8.	8.	0.	124.83
910	8.	7.5	0.	124.73
911	8.	7.	0.	124.6
912	8.	6.5	0.	124.44
913	8.	6.	0.	124.23
914	8.	5.5	0.	123.97
915	8.	5.	0.	123.67
916	8.	4.5	0.	123.37
917	8.	4.	0.	123.14
918	8.	3.5	0.	123.13
919	7.	-7.5	0.	124.93
920	8.	-3.	0.	117.78
921	8.	-3.5	0.	119.92
922	8.	-4.	0.	121.79
923	8.	-4.5	0.	123.3
924	8.	-5.	0.	124.49
925	8.	-5.5	0.	125.36
926	8.	-6.	0.	125.79
927	8.	-6.5	0.	125.69
928	8.	-7.	0.	125.3
929	8.	-7.5	0.	125.17
930	8.	-8.	0.	125.68
931	7.5	-8.	0.	125.85
932	-5.	-6.5	0.	127.57
933	-5.	-8.	0.	127.04
934	-8.	-8.	0.	126.63
935	-8.	-5.5	0.	127.45
936	-8.	-4.	0.	126.75
937	-6.5	-4.	0.	116.56
938	-5.	-4.	0.	127.11
939	3.5	-2.	0.	119.12
940	2.	-2.	0.	128.08
941	2.	-0.5	0.	126.17
942	2.	1.	0.	127.66
943	3.5	1.	0.	119.56
944	5.	-2.	0.	126.85
945	6.	-1.5	0.	124.56
946	7.5	-3.	0.	119.08
947	6.	-3.	0.	127.14
948	3.	-7.5	0.	125.69
949	3.	-6.	0.	128.44
950	5.5	-6.	0.	118.67
951	7.	-6.	0.	127.21
952	-6.5	2.	0.	116.66
953	-8.	2.	0.	126.96
954	-8.	4.5	0.	127.88
955	-8.	6.	0.	127.34
956	-6.5	6.	0.	117.24
957	-5.	6.	0.	127.56
958	-5.	3.5	0.	127.66
959	-5.	2.	0.	127.03
960	5.	1.5	0.	127.46
961	5.	3.	0.	128.46
962	5.	-0.5	0.	128.19
963	5.5	-0.5	0.	127.92
964	6.	-2.2418e-010	0.	127.13
965	6.	3.	0.	124.25
966	5.5	3.	0.	128.19
967	5.	2.5	0.	129.14
968	5.	2.	0.	128.21
969	-6.	2.	0.	120.04
970	-5.5	2.	0.	125.32
971	-5.	2.5	0.	128.17
972	-5.	3.	0.	128.1
973	-5.	5.5	0.	128.54
974	-5.5	6.	0.	125.98
975	-6.	6.	0.	120.73
976	-7.	6.	0.	120.53
977	-7.5	6.	0.	125.75
978	-8.	5.5	0.	128.47
979	-8.	5.	0.	128.37
980	-8.	2.5	0.	128.17
981	-7.5	2.	0.	125.31
982	-7.	2.	0.	120.06
983	7.	-7.	0.	126.5
984	7.	-6.5	0.	127.8
985	6.	-6.	0.	123.04
986	4.	-6.	0.	123.55
987	3.5	-6.	0.	127.69
988	3.	-6.5	0.	128.83
989	3.	-7.	0.	127.38
990	6.	-2.5	0.	127.81
991	7.	-3.	0.	123.19
992	7.	-1.3201e-011	0.	117.08
993	6.5	-9.8082e-011	0.	122.1
994	6.	-1.	0.	125.81
995	4.5	-2.	0.	126.09
996	5.	-1.5	0.	127.74
997	5.	-1.	0.	127.94
998	5.	0.5	0.	133.01
999	4.5	1.	0.	128.09
1000	4.	1.	0.	122.93
1001	3.	1.	0.	122.4
1002	2.5	1.	0.	126.72
1003	2.	0.5	0.	128.35
1004	2.	-1.7493e-006	0.	127.49
1005	2.	-1.	0.	127.66
1006	2.	-1.5	0.	128.66
1007	3.	-2.	0.	122.28
1008	-5.	-5.	0.	128.08
1009	-5.	-4.5	0.	128.2
1010	-6.	-4.	0.	120.03
1011	-7.	-4.	0.	119.88
1012	-7.5	-4.	0.	125.1
1013	-8.	-4.5	0.	127.93
1014	-8.	-5.	0.	127.88
1015	-8.	-7.5	0.	127.85
1016	-7.5	-8.	0.	124.88
1017	-6.	-8.	0.	119.79
1018	-5.5	-8.	0.	125.18
1019	-5.	-7.5	0.	128.14
1020	-5.	-7.	0.	128.03
1021	7.	-8.	0.	126.77
1022	8.	3.	0.	123.48
1023	8.5	8.	0.	124.94
1024	8.5	7.5	0.	124.91
1025	8.5	7.	0.	124.86
1026	8.5	6.5	0.	124.79
1027	8.5	6.	0.	124.71
1028	8.5	5.5	0.	124.63
1029	8.5	5.	0.	124.59
1030	8.5	4.5	0.	124.64
1031	8.5	4.	0.	124.96
1032	8.5	3.5	0.	125.78
1033	8.5	3.	0.	127.66
1034	-8.	8.5	0.	124.7
1035	-7.5	8.5	0.	124.41
1036	-7.	8.5	0.	124.19
1037	-6.5	8.5	0.	124.13
1038	-6.	8.5	0.	124.27
1039	-5.5	8.5	0.	124.57
1040	-5.	8.5	0.	124.91
1041	-4.5	8.5	0.	125.22
1042	-4.	8.5	0.	125.43
1043	-3.5	8.5	0.	125.56
1044	-3.	8.5	0.	125.62
1045	-2.5	8.5	0.	125.63
1046	-2.	8.5	0.	125.62
1047	-1.5	8.5	0.	125.6
1048	-1.	8.5	0.	125.57
1049	-0.5	8.5	0.	125.55
1050	-1.0409e-006	8.5	0.	125.52
1051	0.5	8.5	0.	125.5
1052	1.	8.5	0.	125.47
1053	1.5	8.5	0.	125.43
1054	2.	8.5	0.	125.39
1055	2.5	8.5	0.	125.35
1056	3.	8.5	0.	125.29
1057	3.5	8.5	0.	125.22
1058	4.	8.5	0.	125.15
1059	4.5	8.5	0.	125.07
1060	5.	8.5	0.	124.98
1061	5.5	8.5	0.	124.91
1062	6.	8.5	0.	124.85
1063	6.5	8.5	0.	124.81
1064	7.	8.5	0.	124.81
1065	7.5	8.5	0.	124.83
1066	8.	8.5	0.	124.89
1067	8.5	8.5	0.	124.96
1068	-8.5	-8.	0.	126.61
1069	-8.5	-7.5	0.	126.96
1070	-8.5	-7.	0.	126.69
1071	-8.5	-6.5	0.	126.37
1072	-8.5	-6.	0.	126.24
1073	-8.5	-5.5	0.	126.37
1074	-8.5	-5.	0.	126.67
1075	-8.5	-4.5	0.	126.95
1076	-8.5	-4.	0.	126.6
1077	-8.5	-3.	0.	125.23
1078	-8.5	-2.5	0.	124.8
1079	-8.5	-2.	0.	124.57
1080	-8.5	-1.5	0.	124.47
1081	-8.5	-1.	0.	124.45
1082	-8.5	-0.5	0.	124.5
1083	-8.5	-2.9259e-010	0.	124.64
1084	-8.5	0.5	0.	124.91
1085	-8.5	1.	0.	125.38
1086	-8.5	1.5	0.	126.07
1087	-8.5	2.	0.	126.81
1088	-8.5	2.5	0.	127.19
1089	-8.5	3.	0.	126.95
1090	-8.5	3.5	0.	126.68
1091	-8.5	4.5	0.	126.77
1092	-8.5	5.	0.	127.13
1093	-8.5	5.5	0.	127.44
1094	-8.5	6.	0.	127.12
1095	-8.5	6.5	0.	126.43
1096	-8.5	7.	0.	125.8
1097	-8.5	7.5	0.	125.38
1098	-8.5	8.	0.	125.14
1099	-8.5	8.5	0.	125.
1100	3.	-8.	0.	127.48
1101	8.	-8.5	0.	126.49
1102	7.	-8.5	0.	128.32
1103	3.	-8.5	0.	129.02
1104	2.5	-8.5	0.	127.91
1105	2.	-8.5	0.	127.43
1106	1.5	-8.5	0.	127.22
1107	1.	-8.5	0.	127.11
1108	0.5	-8.5	0.	127.04
1109	-2.9364e-012	-8.5	0.	126.99
1110	-0.5	-8.5	0.	126.95
1111	-1.	-8.5	0.	126.92
1112	-1.5	-8.5	0.	126.9
1113	-2.5	-8.5	0.	126.89
1114	-3.	-8.5	0.	126.89
1115	-3.5	-8.5	0.	126.87
1116	-4.	-8.5	0.	126.79
1117	-4.5	-8.5	0.	126.49
1118	-5.	-8.5	0.	125.63
1119	-5.5	-8.5	0.	123.6
1120	-6.	-8.5	0.	120.75
1121	-6.5	-8.5	0.	119.19
1122	-7.	-8.5	0.	120.57
1123	-7.5	-8.5	0.	123.25
1124	-8.	-8.5	0.	125.15
1125	-8.5	-8.5	0.	125.9
1126	8.5	-3.	0.	120.07
1127	8.5	-3.5	0.	121.56
1128	8.5	-4.5	0.	124.06
1129	8.5	-5.	0.	124.91
1130	8.5	-5.5	0.	125.44
1131	8.5	-6.	0.	125.64
1132	8.5	-6.5	0.	125.55
1133	8.5	-7.	0.	125.35
1134	8.5	-7.5	0.	125.34
1135	8.5	-8.	0.	125.65
1136	8.5	-8.5	0.	126.18
1137	9.	-3.5	0.	125.
1138	9.	-4.	0.	125.21
1139	9.	-4.5	0.	125.52
1140	9.	-5.	0.	125.73
1141	9.	-5.5	0.	125.81
1142	9.	-6.	0.	125.74
1143	9.	-6.5	0.	125.58
1144	9.	-7.	0.	125.43
1145	9.	-7.5	0.	125.42
1146	9.	-8.	0.	125.62
1147	9.	-8.5	0.	125.96
1148	8.5	-9.	0.	126.67
1149	8.	-9.	0.	127.12
1150	7.	-9.	0.	128.07
1151	4.	-9.	0.	122.61
1152	3.5	-9.	0.	127.42
1153	3.	-9.	0.	128.79
1154	2.5	-9.	0.	128.5
1155	2.	-9.	0.	128.12
1156	1.5	-9.	0.	127.79
1157	1.	-9.	0.	127.54
1158	0.5	-9.	0.	127.36
1159	-1.5	-9.	0.	127.03
1160	-2.	-9.	0.	127.01
1161	-2.5	-9.	0.	126.98
1162	-3.	-9.	0.	126.92
1163	-3.5	-9.	0.	126.78
1164	-4.	-9.	0.	126.48
1165	-4.5	-9.	0.	125.88
1166	-5.	-9.	0.	124.79
1167	-7.5	-9.	0.	122.77
1168	-8.	-9.	0.	124.26
1169	-8.5	-9.	0.	125.26
1170	-9.	-8.	0.	126.36
1171	-9.	-7.5	0.	126.32
1172	-9.	-7.	0.	126.01
1173	-9.	-6.5	0.	125.64
1174	-9.	-6.	0.	125.49
1175	-9.	-5.5	0.	125.6
1176	-9.	-4.5	0.	126.21
1177	-9.	-4.	0.	126.21
1178	-9.	-3.5	0.	125.96
1179	-9.	-3.	0.	125.63
1180	-9.	-2.5	0.	125.35
1181	-9.	-2.	0.	125.17
1182	-9.	-1.5	0.	125.07
1183	-9.	-1.	0.	125.06
1184	-9.	-0.5	0.	125.11
1185	-9.	-1.4802e-010	0.	125.25
1186	-9.	0.5	0.	125.47
1187	-9.	1.	0.	125.78
1188	-9.	1.5	0.	126.15
1189	-9.	2.	0.	126.44
1190	-9.	2.5	0.	126.47
1191	-9.	3.	0.	126.22
1192	-9.	3.5	0.	125.92
1193	-9.	4.	0.	125.83
1194	-9.	4.5	0.	125.99
1195	-9.	5.	0.	126.36
1196	-9.	5.5	0.	126.66
1197	-9.	6.	0.	126.66
1198	-9.	7.	0.	126.04
1199	-9.	7.5	0.	125.71
1200	-9.	8.	0.	125.45
1201	-9.	8.5	0.	125.24
1202	-8.5	9.	0.	124.89
1203	-8.	9.	0.	124.7
1204	-7.5	9.	0.	124.52
1205	-7.	9.	0.	124.4
1206	-6.5	9.	0.	124.38
1207	-6.	9.	0.	124.48
1208	-5.5	9.	0.	124.66
1209	-5.	9.	0.	124.89
1210	-4.5	9.	0.	125.11
1211	-4.	9.	0.	125.29
1212	-3.5	9.	0.	125.42
1213	-3.	9.	0.	125.5
1214	-2.5	9.	0.	125.56
1215	-2.	9.	0.	125.58
1216	-1.5	9.	0.	125.59
1217	-1.	9.	0.	125.59
1218	-0.5	9.	0.	125.58
1219	-5.2473e-007	9.	0.	125.56
1220	0.5	9.	0.	125.54
1221	1.	9.	0.	125.51
1222	1.5	9.	0.	125.47
1223	2.	9.	0.	125.42
1224	2.5	9.	0.	125.37
1225	3.	9.	0.	125.31
1226	3.5	9.	0.	125.25
1227	5.5	9.	0.	124.97
1228	6.	9.	0.	124.93
1229	6.5	9.	0.	124.9
1230	7.	9.	0.	124.89
1231	7.5	9.	0.	124.9
1232	8.	9.	0.	124.93
1233	8.5	9.	0.	124.97
1234	-5.5	-7.5	0.	129.03
1235	-7.5	-7.5	0.	128.82
1236	-7.5	-4.5	0.	128.99
1237	-5.5	-4.5	0.	129.17
1238	2.5	-1.5	0.	130.48
1239	2.5	0.5	0.	130.4
1240	4.5	0.5	0.	132.81
1241	4.5	-1.5	0.	130.05
1242	6.5	-0.5	0.	126.89
1243	9.	8.5	0.	125.03
1244	9.	8.	0.	125.06
1245	9.	7.5	0.	125.08
1246	9.	7.	0.	125.12
1247	9.	6.5	0.	125.17
1248	9.	5.5	0.	125.35
1249	9.	5.	0.	125.51
1250	9.	4.5	0.	125.8
1251	9.	4.	0.	126.32
1252	9.	3.5	0.	127.23
1253	9.	3.	0.	128.55
1254	9.	2.5	0.	129.21
1255	9.	2.	0.	127.95
1256	9.	1.5	0.	126.15
1257	9.	1.	0.	127.45
1258	9.	0.5	0.	128.34
1259	9.	3.6518e-013	0.	127.9
1260	9.	-3.	0.	125.3
1261	6.5	-2.5	0.	130.23
1262	3.5	-8.5	0.	130.93
1263	3.5	-6.5	0.	131.17
1264	6.5	-6.5	0.	130.37
1265	6.5	-8.5	0.	130.37
1266	-7.5	2.5	0.	129.24
1267	-7.5	5.5	0.	129.57
1268	-5.5	5.5	0.	129.69
1269	-5.5	2.5	0.	129.18
1270	5.5	2.5	0.	132.11
1271	8.5	2.5	0.	131.3
1272	8.5	0.5	0.	127.9
1273	5.5	0.5	0.	134.77
1274	9.	-9.	0.	126.31
1275	-9.	9.	0.	125.07
1276	9.	9.	0.	125.01
1277	-6.	-7.5	0.	120.47
1278	-7.	-7.5	0.	120.27
1279	-6.5	-7.5	0.	108.82
1280	-7.5	-7.	0.	128.63
1281	-7.5	-6.5	0.	131.02
1282	-7.5	-6.	0.	132.72
1283	-7.5	-5.	0.	128.71
1284	-7.5	-5.5	0.	131.08
1285	-7.	-4.5	0.	120.49
1286	-6.	-4.5	0.	120.65
1287	-6.5	-4.5	0.	108.99
1288	-5.5	-5.	0.	128.78
1289	-5.5	-7.	0.	128.7
1290	-5.5	-6.5	0.	131.13
1291	-5.5	-6.	0.	132.78
1292	-5.5	-5.5	0.	131.17
1293	2.5	-1.	0.	129.81
1294	2.5	-7.9927e-007	0.	129.66
1295	2.5	-0.5	0.	129.71
1296	3.	0.5	0.	123.38
1297	4.	0.5	0.	124.16
1298	3.5	0.5	0.	113.14
1299	4.5	-1.0197e-008	0.	132.13
1300	4.5	-1.	0.	130.25
1301	4.5	-0.5	0.	131.17
1302	3.	-1.5	0.	123.05
1303	3.5	-1.5	0.	112.7
1304	4.	-1.5	0.	122.95
1305	7.	-0.5	0.	120.34
1306	7.5	-0.5	0.	113.57
1307	8.	-0.5	0.	116.9
1308	9.	-0.5	0.	128.42
1309	8.5	-0.5	0.	118.6
1310	9.	-2.5	0.	127.31
1311	8.5	-2.5	0.	117.67
1312	8.	-2.5	0.	117.47
1313	7.	-2.5	0.	124.59
1314	7.5	-2.5	0.	116.15
1315	6.5	-2.	0.	128.35
1316	6.5	-1.	0.	127.
1317	6.5	-1.5	0.	127.42
1318	3.5	-8.	0.	129.66
1319	3.5	-7.	0.	129.67
1320	3.5	-7.5	0.	129.01
1321	4.	-6.5	0.	124.94
1322	4.5	-6.5	0.	115.99
1323	5.	-6.5	0.	116.46
1324	6.	-6.5	0.	124.5
1325	5.5	-6.5	0.	115.77
1326	6.5	-7.	0.	128.93
1327	6.5	-7.5	0.	128.4
1328	6.	-8.5	0.	123.79
1329	4.	-8.5	0.	124.2
1330	4.5	-8.5	0.	115.19
1331	5.	-8.5	0.	115.61
1332	5.5	-8.5	0.	115.02
1333	-7.5	3.	0.	128.98
1334	-7.5	3.5	0.	131.46
1335	-7.5	4.	0.	133.15
1336	-7.5	5.	0.	129.25
1337	-7.5	4.5	0.	131.5
1338	-7.	5.5	0.	120.99
1339	-6.	5.5	0.	121.31
1340	-6.5	5.5	0.	109.53
1341	-5.5	4.5	0.	131.52
1342	-5.5	4.	0.	133.03
1343	-5.5	3.	0.	128.9
1344	-5.5	3.5	0.	131.29
1345	-6.	2.5	0.	120.64
1346	-7.	2.5	0.	120.76
1347	-6.5	2.5	0.	109.13
1348	6.	2.5	0.	126.16
1349	6.5	2.5	0.	116.87
1350	7.	2.5	0.	117.1
1351	8.	2.5	0.	124.83
1352	7.5	2.5	0.	116.2
1353	8.5	1.	0.	128.13
1354	8.5	1.5	0.	128.58
1355	8.	0.5	0.	120.98
1356	7.5	0.5	0.	113.61
1357	7.	0.5	0.	116.52
1358	6.	0.5	0.	127.7
1359	6.5	0.5	0.	117.95
1360	5.5	2.	0.	131.11
1361	5.5	1.5	0.	131.34
1362	5.5	1.	0.	133.19
1363	9.	-9.5	0.	126.55
1364	8.5	-9.5	0.	126.97
1365	8.	-9.5	0.	127.41
1366	7.5	-9.5	0.	127.64
1367	7.	-9.5	0.	127.17
1368	6.5	-9.5	0.	125.18
1369	6.	-9.5	0.	121.65
1370	5.5	-9.5	0.	118.14
1371	5.	-9.5	0.	116.75
1372	4.5	-9.5	0.	118.34
1373	4.	-9.5	0.	122.04
1374	3.5	-9.5	0.	125.75
1375	3.	-9.5	0.	127.91
1376	2.5	-9.5	0.	128.54
1377	2.	-9.5	0.	128.46
1378	1.5	-9.5	0.	128.16
1379	1.	-9.5	0.	127.85
1380	0.5	-9.5	0.	127.59
1381	-9.4368e-013	-9.5	0.	127.4
1382	-0.5	-9.5	0.	127.26
1383	-1.	-9.5	0.	127.18
1384	-1.5	-9.5	0.	127.12
1385	-2.	-9.5	0.	127.08
1386	-2.5	-9.5	0.	127.02
1387	-3.	-9.5	0.	126.91
1388	-3.5	-9.5	0.	126.68
1389	-4.	-9.5	0.	126.24
1390	-4.5	-9.5	0.	125.49
1391	-5.	-9.5	0.	124.38
1392	-5.5	-9.5	0.	123.02
1393	-6.	-9.5	0.	121.79
1394	-6.5	-9.5	0.	121.22
1395	-7.	-9.5	0.	121.58
1396	-7.5	-9.5	0.	122.62
1397	-8.	-9.5	0.	123.84
1398	-8.5	-9.5	0.	124.88
1399	-9.	-9.5	0.	125.68
1400	-9.5	-9.5	0.	126.35
1401	-9.5	-9.	0.	126.36
1402	-9.5	-8.5	0.	126.33
1403	-9.5	-8.	0.	126.16
1404	-9.5	-7.5	0.	125.83
1405	-9.5	-7.	0.	125.39
1406	-9.5	-6.5	0.	125.
1407	-9.5	-6.	0.	124.83
1408	-9.5	-5.5	0.	124.94
1409	-9.5	-5.	0.	125.27
1410	-9.5	-4.5	0.	125.64
1411	-9.5	-4.	0.	125.89
1412	-9.5	-3.	0.	125.9
1413	-9.5	-2.5	0.	125.78
1414	-9.5	-2.	0.	125.66
1415	-9.5	-1.5	0.	125.58
1416	-9.5	-1.	0.	125.57
1417	-9.5	-0.5	0.	125.63
1418	-9.5	-7.3112e-011	0.	125.75
1419	-9.5	0.5	0.	125.91
1420	-9.5	1.	0.	126.08
1421	-9.5	1.5	0.	126.18
1422	-9.5	2.	0.	126.14
1423	-9.5	2.5	0.	125.92
1424	-9.5	3.	0.	125.58
1425	-9.5	3.5	0.	125.28
1426	-9.5	4.	0.	125.18
1427	-9.5	4.5	0.	125.34
1428	-9.5	5.	0.	125.7
1429	-9.5	5.5	0.	126.09
1430	-9.5	6.	0.	126.32
1431	-9.5	6.5	0.	126.35
1432	-9.5	7.	0.	126.21
1433	-9.5	7.5	0.	125.97
1434	-9.5	8.	0.	125.7
1435	-9.5	8.5	0.	125.44
1436	-9.5	9.	0.	125.21
1437	-9.5	9.5	0.	125.04
1438	-9.	9.5	0.	124.93
1439	-8.5	9.5	0.	124.8
1440	-8.	9.5	0.	124.66
1441	-7.5	9.5	0.	124.54
1442	-7.	9.5	0.	124.47
1443	-6.5	9.5	0.	124.46
1444	-6.	9.5	0.	124.53
1445	-5.5	9.5	0.	124.66
1446	-5.	9.5	0.	124.84
1447	-4.5	9.5	0.	125.02
1448	-4.	9.5	0.	125.2
1449	-3.5	9.5	0.	125.35
1450	-3.	9.5	0.	125.47
1451	-2.5	9.5	0.	125.55
1452	-2.	9.5	0.	125.61
1453	-1.5	9.5	0.	125.65
1454	-1.	9.5	0.	125.66
1455	-0.5	9.5	0.	125.66
1456	-2.7561e-007	9.5	0.	125.64
1457	0.5	9.5	0.	125.62
1458	1.	9.5	0.	125.58
1459	1.5	9.5	0.	125.53
1460	2.	9.5	0.	125.48
1461	2.5	9.5	0.	125.42
1462	3.	9.5	0.	125.35
1463	3.5	9.5	0.	125.28
1464	4.	9.5	0.	125.2
1465	4.5	9.5	0.	125.13
1466	5.	9.5	0.	125.06
1467	5.5	9.5	0.	125.01
1468	6.	9.5	0.	124.96
1469	6.5	9.5	0.	124.93
1470	7.	9.5	0.	124.92
1471	7.5	9.5	0.	124.92
1472	8.	9.5	0.	124.94
1473	8.5	9.5	0.	124.96
1474	9.	9.5	0.	124.99
1475	9.5	9.5	0.	125.01
1476	9.5	9.	0.	125.04
1477	9.5	8.5	0.	125.08
1478	9.5	8.	0.	125.14
1479	9.5	7.5	0.	125.23
1480	9.5	7.	0.	125.34
1481	9.5	6.5	0.	125.5
1482	9.5	6.	0.	125.71
1483	9.5	5.5	0.	125.99
1484	9.5	4.5	0.	126.79
1485	9.5	4.	0.	127.29
1486	9.5	3.5	0.	127.79
1487	9.5	3.	0.	128.1
1488	9.5	2.5	0.	127.91
1489	9.5	2.	0.	127.23
1490	9.5	1.5	0.	127.13
1491	9.5	1.	0.	128.17
1492	9.5	0.5	0.	129.94
1493	9.5	8.6619e-013	0.	131.76
1494	9.5	-0.5	0.	135.32
1495	9.5	-1.	0.	135.18
1496	9.5	-1.5	0.	134.65
1497	9.5	-2.	0.	134.42
1498	9.5	-2.5	0.	134.28
1499	9.5	-3.	0.	130.46
1500	9.5	-3.5	0.	128.87
1501	9.5	-4.	0.	127.93
1502	9.5	-4.5	0.	127.23
1503	9.5	-5.	0.	126.69
1504	9.5	-5.5	0.	126.25
1505	9.5	-6.	0.	125.86
1506	9.5	-6.5	0.	125.54
1507	9.5	-7.	0.	125.35
1508	9.5	-7.5	0.	125.32
1509	9.5	-8.	0.	125.47
1510	9.5	-8.5	0.	125.75
1511	9.5	-9.	0.	126.05
1512	9.5	-9.5	0.	126.28
1513	-5.	5.	0.	128.32
1514	7.5	-8.5	0.	127.08
1515	-4.5	5.	0.	127.1
1516	6.5	-4.5	0.	123.78
1517	-4.	5.	0.	126.46
1518	2.5	-3.	0.	125.32
1519	7.5	-9.	0.	127.64
1520	-2.	-5.	0.	126.37
1521	3.	6.	0.	125.44
1522	8.5	2.	0.	129.81
1523	-9.	-8.5	0.	126.15
1524	-4.5	-7.5	0.	127.4
1525	-6.	-9.	0.	121.41
1526	-3.2119e-005	3.9998	0.	125.65
1527	-7.	-8.	0.	119.61
1528	5.5	-9.	0.	117.3
1529	5.	-4.3032e-009	0.	131.4
1530	6.	-2.	0.	126.46
1531	-0.5	-4.5	0.	126.85
1532	0.5	-5.5	0.	126.86
1533	6.5	8.	0.	124.69
1534	-1.	-5.	0.	126.62
1535	5.5	-1.5	0.	125.97
1536	-2.	2.4999	0.	125.81
1537	4.5	4.5	0.	125.75
1538	-2.5	0.49999	0.	126.01
1539	8.	-3.8376e-013	0.	117.49
1540	6.	5.	0.	123.61
1541	-0.5	-5.5	0.	126.64
1542	-5.5	-3.5	0.	123.81
1543	-8.	3.	0.	128.16
1544	-1.8773e-012	-9.	0.	127.22
1545	4.	-4.5	0.	123.43
1546	3.	1.5	0.	123.16
1547	3.	2.5	0.	124.6
1548	6.	3.5	0.	123.59
1549	-5.	-1.7493e-007	0.	124.06
1550	5.	-9.	0.	115.5
1551	-5.5	5.	0.	129.13
1552	4.5	9.	0.	125.11
1553	4.	8.	0.	125.12
1554	-1.	6.4999	0.	125.62
1555	-2.0338e-005	5.4999	0.	125.54
1556	-1.	4.9998	0.	125.55
1557	-2.6085e-005	4.9999	0.	125.56
1558	-1.	5.4999	0.	125.57
1559	-5.5	-3.	0.	123.41
1560	2.5	-6.5	0.	127.48
1561	-9.	-5.	0.	125.94
1562	-0.5	-5.	0.	126.75
1563	-6.2735e-006	7.	0.	125.52
1564	6.5	-6.	0.	126.82
1565	4.	-5.	0.	123.27
1566	-1.	5.9999	0.	125.6
1567	6.	6.	0.	124.04
1568	9.	6.	0.	125.24
1569	-6.5	-8.	0.	116.29
1570	0.5	-5.	0.	126.97
1571	-3.5	-5.	0.	126.31
1572	-2.	-1.	0.	126.13
1573	-0.5	-1.	0.	126.2
1574	-0.5	0.49996	0.	126.01
1575	0.99998	4.9999	0.	125.57
1576	-3.1125e-005	4.4998	0.	125.59
1577	-3.	2.4999	0.	126.01
1578	2.5	4.5	0.	125.61
1579	2.	6.	0.	125.49
1580	5.	1.	0.	130.69
1581	2.	7.	0.	125.41
1582	-1.	0.49996	0.	126.
1583	5.	6.	0.	124.74
1584	-2.5	-1.	0.	126.03
1585	-8.	-7.	0.	127.84
1586	4.	-3.	0.	123.19
1587	2.5	-2.5	0.	125.54
1588	2.3043e-006	0.49997	0.	126.05
1589	6.5	-3.	0.	126.81
1590	6.	4.5	0.	123.44
1591	-2.	-2.	0.	126.38
1592	5.	6.5	0.	124.74
1593	6.	4.	0.	123.38
1594	6.5	-5.	0.	124.06
1595	-6.	1.	0.	121.83
1596	-6.5	-9.	0.	120.58
1597	6.5	-8.	0.	129.11
1598	-1.	1.4999	0.	125.98
1599	-2.	-8.5	0.	126.89
1600	-2.	0.49998	0.	126.02
1601	-4.	2.5	0.	126.66
1602	9.5	5.	0.	126.35
1603	2.5	-3.5	0.	125.47
1604	-3.	4.9999	0.	125.81
1605	-2.5	-5.	0.	126.28
1606	5.5	-1.4484e-009	0.	130.53
1607	-2.5	5.9999	0.	125.95
1608	-4.5	-2.	0.	124.86
1609	3.5	4.5	0.	125.76
1610	-0.5	-9.	0.	127.13
1611	-5.5	-9.	0.	123.15
1612	-9.	-9.	0.	125.88
1613	-2.5	2.4999	0.	125.87
1614	4.	-2.	0.	121.93
1615	-9.5	-3.5	0.	125.96
1616	-9.	6.5	0.	126.4
1617	4.5	-4.5	0.	122.61
1618	-7.	-9.	0.	121.21
1619	0.99999	7.	0.	125.46
1620	0.49998	5.4999	0.	125.54
1621	-4.	-5.5	0.	126.15
1622	6.	-9.	0.	122.22
1623	2.5	-2.	0.	126.88
1624	-1.5	-1.	0.	126.18
1625	4.	-3.5	0.	123.49
1626	6.	-3.5	0.	125.57
1627	4.	7.	0.	125.12
1628	-5.5	-2.	0.	123.33
1629	6.	-0.5	0.	126.97
1630	-2.5	-6.5	0.	126.15
1631	0.5	0.49998	0.	126.18
1632	-1.	2.4998	0.	125.84
1633	4.	-5.5	0.	123.25
1634	5.	9.	0.	125.04
1635	4.5	-9.	0.	117.49
1636	-5.5	-4.	0.	125.36
1637	3.	3.	0.	125.14
1638	6.5	-9.	0.	126.85
1639	8.5	2.7367e-013	0.	122.76
1640	4.	9.	0.	125.18
1641	-1.	-9.	0.	127.07
1642	-4.	7.	0.	126.31
1643	0.5	-4.5	0.	127.05
1644	5.5	-2.	0.	126.22
1645	-2.5	-6.	0.	126.08
1646	-1.5	-5.	0.	126.49
1647	-6.	1.5	0.	121.08
1648	-4.5	2.5	0.	127.27
1649	-8.5	4.	0.	126.6
1650	-3.	-5.	0.	126.25
1651	4.	-2.5	0.	122.63
1652	5.	-5.5	0.	119.21
1653	-8.5	-3.5	0.	125.89
1654	2.5	-4.	0.	125.8
1655	1.5	5.	0.	125.57
1656	8.5	-4.	0.	122.93
1657	-1.5	2.4998	0.	125.81
1658	-4.	-5.	0.	126.55
1659	1.	0.49999	0.	126.47
1660	-4.	4.5	0.	126.02
1661	-1.5	-8.	0.	126.73
1662	7.	5.5	0.	123.29
1663	-3.5	-6.5	0.	126.05
1664	4.	-4.	0.	123.55
1665	5.5	6.	0.	124.39
1666	-7.	4.75	0.	135.01
1667	-6.75	5.	0.	118.27
1668	-7.25	5.	0.	129.64
1669	-7.	5.25	0.	125.84
1670	-7.	3.25	0.	134.94
1671	-6.75	3.	0.	118.1
1672	-7.25	3.	0.	129.48
1673	-7.	2.75	0.	125.71
1674	-6.25	5.	0.	118.45
1675	-6.	4.75	0.	135.14
1676	-6.	5.25	0.	126.2
1677	-5.75	5.	0.	129.78
1678	-6.25	3.	0.	117.99
1679	-6.	3.25	0.	134.72
1680	-5.75	3.	0.	129.33
1681	-6.	2.75	0.	125.53
1682	4.	-7.25	0.	137.98
1683	4.25	-7.	0.	124.52
1684	3.75	-7.	0.	131.54
1685	4.	-6.75	0.	129.49
1686	4.	-7.75	0.	137.72
1687	4.25	-8.	0.	124.05
1688	3.75	-8.	0.	131.25
1689	4.	-8.25	0.	128.84
1690	5.75	-7.	0.	124.19
1691	6.	-7.25	0.	137.53
1692	6.	-6.75	0.	129.07
1693	6.25	-7.	0.	130.97
1694	5.75	-8.	0.	123.74
1695	6.	-7.75	0.	137.24
1696	6.	-8.25	0.	128.4
1697	6.25	-8.	0.	130.74
1698	7.	-1.25	0.	135.46
1699	7.25	-1.	0.	122.1
1700	7.	-0.75	0.	125.54
1701	6.75	-1.	0.	128.48
1702	7.	-1.75	0.	136.78
1703	7.25	-2.	0.	124.16
1704	7.	-2.25	0.	129.
1705	6.75	-2.	0.	130.6
1706	8.75	-1.	0.	128.08
1707	9.	-1.25	0.	142.97
1708	9.	-0.75	0.	133.27
1709	9.25	-1.	0.	136.32
1710	8.75	-2.	0.	127.81
1711	9.	-1.75	0.	142.91
1712	9.	-2.25	0.	132.66
1713	9.25	-2.	0.	135.86
1714	3.	-0.25	0.	137.93
1715	3.25	0.	0.	122.1
1716	2.75	-3.9964e-007	0.	131.29
1717	3.	0.25	0.	128.47
1718	3.	-0.75	0.	137.73
1719	3.25	-1.	0.	121.71
1720	2.75	-1.	0.	131.14
1721	3.	-1.25	0.	128.08
1722	3.75	0.	0.	122.58
1723	4.	-0.25	0.	138.89
1724	4.	0.25	0.	129.32
1725	4.25	-5.0983e-009	0.	133.01
1726	3.75	-1.	0.	121.87
1727	4.	-0.75	0.	138.35
1728	4.25	-1.	0.	131.47
1729	4.	-1.25	0.	128.19
1730	-7.	-5.25	0.	134.57
1731	-6.75	-5.	0.	117.82
1732	-7.25	-5.	0.	129.17
1733	-7.	-4.75	0.	125.38
1734	-7.	-6.75	0.	134.45
1735	-6.75	-7.	0.	117.67
1736	-7.	-7.25	0.	125.19
1737	-7.25	-7.	0.	129.04
1738	-6.25	-5.	0.	117.88
1739	-6.	-5.25	0.	134.59
1740	-6.	-4.75	0.	125.53
1741	-5.75	-5.	0.	129.27
1742	-6.25	-7.	0.	117.75
1743	-6.	-6.75	0.	134.5
1744	-6.	-7.25	0.	125.38
1745	-5.75	-7.	0.	129.16
1746	6.	1.75	0.	140.25
1747	6.25	2.	0.	126.04
1748	6.	2.25	0.	131.08
1749	5.75	2.	0.	133.21
1750	6.	1.25	0.	140.47
1751	6.25	1.	0.	126.65
1752	6.	0.75	0.	132.02
1753	5.75	1.	0.	134.5
1754	7.75	2.	0.	124.47
1755	8.	1.75	0.	137.43
1756	8.	2.25	0.	129.24
1757	8.25	2.	0.	131.45
1758	7.75	1.	0.	122.62
1759	8.	1.25	0.	136.45
1760	8.25	1.	0.	129.54
1761	8.	0.75	0.	126.36
1762	9.75	10.	0.	125.
1763	10.	9.75	0.	125.
1764	-9.75	10.	0.	124.99
1765	-10.	9.75	0.	125.
1766	10.	-9.75	0.	126.41
1767	9.75	-10.	0.	126.42
1768	-10.	-9.75	0.	127.06
1769	-9.75	-10.	0.	126.7
1770	-7.	4.25	0.	139.92
1771	-7.25	4.5	0.	135.62
1772	-7.	3.75	0.	139.87
1773	-7.25	4.	0.	136.62
1774	-7.25	3.5	0.	135.54
1775	-6.5	5.25	0.	107.87
1776	-6.5	2.75	0.	107.53
1777	-6.	4.25	0.	139.79
1778	-5.75	4.5	0.	135.58
1779	-6.	3.75	0.	139.69
1780	-5.75	4.	0.	136.48
1781	-5.75	3.5	0.	135.36
1782	3.75	-7.5	0.	135.63
1783	4.75	-7.	0.	118.22
1784	4.5	-6.75	0.	115.75
1785	5.25	-7.	0.	118.09
1786	5.	-6.75	0.	118.55
1787	5.5	-6.75	0.	115.51
1788	4.75	-8.	0.	117.72
1789	4.5	-8.25	0.	115.14
1790	5.25	-8.	0.	117.64
1791	5.	-8.25	0.	117.86
1792	5.5	-8.25	0.	114.97
1793	6.25	-7.5	0.	135.09
1794	6.75	-1.5	0.	133.96
1795	7.75	-1.	0.	117.68
1796	7.5	-0.75	0.	113.67
1797	8.25	-1.	0.	120.01
1798	8.	-0.75	0.	119.09
1799	8.5	-0.75	0.	118.55
1800	7.75	-2.	0.	118.86
1801	7.5	-2.25	0.	115.79
1802	8.25	-2.	0.	120.13
1803	8.	-2.25	0.	119.7
1804	8.5	-2.25	0.	117.85
1805	9.25	-1.5	0.	141.36
1806	2.75	-0.5	0.	136.21
1807	3.5	0.25	0.	112.02
1808	3.5	-1.25	0.	111.62
1809	4.25	-0.5	0.	137.41
1810	-7.	-5.75	0.	139.46
1811	-7.25	-5.5	0.	135.17
1812	-7.	-6.25	0.	139.43
1813	-7.25	-6.	0.	136.19
1814	-7.25	-6.5	0.	135.11
1815	-6.5	-4.75	0.	107.36
1816	-6.5	-7.25	0.	107.21
1817	-6.	-5.75	0.	139.38
1818	-5.75	-5.5	0.	135.18
1819	-6.	-6.25	0.	139.36
1820	-5.75	-6.	0.	136.17
1821	-5.75	-6.5	0.	135.13
1822	5.75	1.5	0.	138.1
1823	6.75	2.	0.	119.12
1824	6.5	2.25	0.	116.72
1825	7.25	2.	0.	118.74
1826	7.	2.25	0.	119.25
1827	7.5	2.25	0.	115.99
1828	6.75	1.	0.	119.27
1829	6.5	0.75	0.	117.72
1830	7.25	1.	0.	117.48
1831	7.	0.75	0.	118.67
1832	7.5	0.75	0.	113.73
1833	8.25	1.5	0.	135.03
1834	9.25	10.	0.	124.99
1835	9.5	9.75	0.	125.
1836	8.75	10.	0.	124.97
1837	9.	9.75	0.	124.99
1838	8.25	10.	0.	124.95
1839	8.5	9.75	0.	124.96
1840	7.75	10.	0.	124.92
1841	8.	9.75	0.	124.94
1842	7.25	10.	0.	124.9
1843	7.5	9.75	0.	124.92
1844	6.75	10.	0.	124.9
1845	7.	9.75	0.	124.91
1846	6.25	10.	0.	124.92
1847	6.5	9.75	0.	124.92
1848	5.75	10.	0.	124.97
1849	6.	9.75	0.	124.95
1850	5.25	10.	0.	125.02
1851	5.5	9.75	0.	125.
1852	4.75	10.	0.	125.1
1853	5.	9.75	0.	125.06
1854	4.25	10.	0.	125.18
1855	4.5	9.75	0.	125.13
1856	3.75	10.	0.	125.27
1857	4.	9.75	0.	125.21
1858	3.25	10.	0.	125.36
1859	3.5	9.75	0.	125.29
1860	2.75	10.	0.	125.44
1861	3.	9.75	0.	125.37
1862	2.25	10.	0.	125.52
1863	2.5	9.75	0.	125.45
1864	1.75	10.	0.	125.6
1865	2.	9.75	0.	125.52
1866	1.25	10.	0.	125.66
1867	1.5	9.75	0.	125.58
1868	0.75	10.	0.	125.71
1869	1.	9.75	0.	125.64
1870	0.25	10.	0.	125.76
1871	0.5	9.75	0.	125.68
1872	-0.25	10.	0.	125.79
1873	-1.378e-007	9.75	0.	125.71
1874	-0.75	10.	0.	125.8
1875	-0.5	9.75	0.	125.73
1876	-1.25	10.	0.	125.79
1877	-1.	9.75	0.	125.73
1878	-1.75	10.	0.	125.76
1879	-1.5	9.75	0.	125.71
1880	-2.25	10.	0.	125.7
1881	-2.	9.75	0.	125.67
1882	-2.75	10.	0.	125.6
1883	-2.5	9.75	0.	125.6
1884	-3.25	10.	0.	125.46
1885	-3.	9.75	0.	125.5
1886	-3.75	10.	0.	125.28
1887	-3.5	9.75	0.	125.36
1888	-4.25	10.	0.	125.07
1889	-4.	9.75	0.	125.19
1890	-4.75	10.	0.	124.85
1891	-4.5	9.75	0.	124.99
1892	-5.25	10.	0.	124.63
1893	-5.	9.75	0.	124.78
1894	-5.75	10.	0.	124.45
1895	-5.5	9.75	0.	124.59
1896	-6.25	10.	0.	124.33
1897	-6.	9.75	0.	124.45
1898	-6.75	10.	0.	124.3
1899	-6.5	9.75	0.	124.38
1900	-7.25	10.	0.	124.36
1901	-7.	9.75	0.	124.39
1902	-7.75	10.	0.	124.49
1903	-7.5	9.75	0.	124.48
1904	-8.25	10.	0.	124.65
1905	-8.	9.75	0.	124.61
1906	-8.75	10.	0.	124.82
1907	-8.5	9.75	0.	124.77
1908	-9.25	10.	0.	124.94
1909	-9.	9.75	0.	124.91
1910	-9.5	9.75	0.	125.01
1911	10.	9.25	0.	125.01
1912	9.75	9.5	0.	125.
1913	10.	8.75	0.	125.05
1914	9.75	9.	0.	125.03
1915	10.	8.25	0.	125.12
1916	9.75	8.5	0.	125.08
1917	10.	7.75	0.	125.22
1918	9.75	8.	0.	125.15
1919	10.	7.25	0.	125.37
1920	9.75	7.5	0.	125.25
1921	10.	6.75	0.	125.57
1922	9.75	7.	0.	125.4
1923	10.	6.25	0.	125.85
1924	9.75	6.5	0.	125.59
1925	10.	5.75	0.	126.24
1926	9.75	6.	0.	125.86
1927	10.	5.25	0.	126.75
1928	9.75	5.5	0.	126.23
1929	10.	4.75	0.	127.38
1930	9.75	5.	0.	126.7
1931	10.	4.25	0.	128.06
1932	9.75	4.5	0.	127.26
1933	10.	3.75	0.	128.6
1934	9.75	4.	0.	127.84
1935	10.	3.25	0.	128.63
1936	9.75	3.5	0.	128.29
1937	10.	2.75	0.	127.83
1938	9.75	3.	0.	128.28
1939	10.	2.25	0.	126.43
1940	9.75	2.5	0.	127.55
1941	10.	1.75	0.	125.59
1942	9.75	2.	0.	126.45
1943	10.	1.25	0.	126.66
1944	9.75	1.5	0.	126.31
1945	10.	0.75	0.	129.86
1946	9.75	1.	0.	127.98
1947	10.	0.25	0.	133.93
1948	9.75	0.5	0.	130.9
1949	10.	-0.25	0.	136.18
1950	9.75	4.3049e-013	0.	133.84
1951	10.	-0.75	0.	133.73
1952	9.75	-0.5	0.	135.85
1953	10.	-1.25	0.	128.48
1954	9.75	-1.	0.	133.08
1955	10.	-1.75	0.	127.95
1956	9.75	-1.5	0.	130.26
1957	10.	-2.25	0.	132.46
1958	9.75	-2.	0.	132.19
1959	10.	-2.75	0.	134.95
1960	9.75	-2.5	0.	134.58
1961	10.	-3.25	0.	133.72
1962	9.75	-3.	0.	132.72
1963	10.	-3.75	0.	131.3
1964	9.75	-3.5	0.	130.65
1965	10.	-4.25	0.	129.34
1966	9.75	-4.	0.	129.04
1967	10.	-4.75	0.	127.93
1968	9.75	-4.5	0.	127.87
1969	10.	-5.25	0.	126.91
1970	9.75	-5.	0.	127.02
1971	10.	-5.75	0.	126.11
1972	9.75	-5.5	0.	126.36
1973	10.	-6.25	0.	125.48
1974	9.75	-6.	0.	125.81
1975	10.	-6.75	0.	125.03
1976	9.75	-6.5	0.	125.37
1977	10.	-7.25	0.	124.83
1978	9.75	-7.	0.	125.1
1979	10.	-7.75	0.	124.92
1980	9.75	-7.5	0.	125.06
1981	10.	-8.25	0.	125.26
1982	9.75	-8.	0.	125.26
1983	10.	-8.75	0.	125.72
1984	9.75	-8.5	0.	125.61
1985	10.	-9.25	0.	126.15
1986	9.75	-9.	0.	126.01
1987	9.75	-9.5	0.	126.31
1988	-10.	9.25	0.	125.1
1989	-9.75	9.5	0.	125.02
1990	-10.	8.75	0.	125.36
1991	-9.75	9.	0.	125.2
1992	-10.	8.25	0.	125.73
1993	-9.75	8.5	0.	125.48
1994	-10.	7.75	0.	126.13
1995	-9.75	8.	0.	125.81
1996	-10.	7.25	0.	126.48
1997	-9.75	7.5	0.	126.15
1998	-10.	6.75	0.	126.66
1999	-9.75	7.	0.	126.42
2000	-10.	6.25	0.	126.56
2001	-9.75	6.5	0.	126.52
2002	-10.	5.75	0.	126.12
2003	-9.75	6.	0.	126.38
2004	-10.	5.25	0.	125.39
2005	-9.75	5.5	0.	125.95
2006	-10.	4.75	0.	124.62
2007	-9.75	5.	0.	125.34
2008	-10.	4.25	0.	124.11
2009	-9.75	4.5	0.	124.8
2010	-10.	3.75	0.	124.07
2011	-9.75	4.	0.	124.57
2012	-10.	3.25	0.	124.51
2013	-9.75	3.5	0.	124.73
2014	-10.	2.75	0.	125.22
2015	-9.75	3.	0.	125.2
2016	-10.	2.25	0.	125.92
2017	-9.75	2.5	0.	125.77
2018	-10.	1.75	0.	126.38
2019	-9.75	2.	0.	126.18
2020	-10.	1.25	0.	126.54
2021	-9.75	1.5	0.	126.35
2022	-10.	0.75	0.	126.46
2023	-9.75	1.	0.	126.31
2024	-10.	0.25	0.	126.27
2025	-9.75	0.5	0.	126.14
2026	-10.	-0.25	0.	126.08
2027	-9.75	-3.6559e-011	0.	125.96
2028	-10.	-0.75	0.	125.95
2029	-9.75	-0.5	0.	125.81
2030	-10.	-1.25	0.	125.93
2031	-9.75	-1.	0.	125.74
2032	-10.	-1.75	0.	126.
2033	-9.75	-1.5	0.	125.76
2034	-10.	-2.25	0.	126.14
2035	-9.75	-2.	0.	125.86
2036	-10.	-2.75	0.	126.28
2037	-9.75	-2.5	0.	126.
2038	-10.	-3.25	0.	126.31
2039	-9.75	-3.	0.	126.12
2040	-10.	-3.75	0.	126.11
2041	-9.75	-3.5	0.	126.12
2042	-10.	-4.25	0.	125.61
2043	-9.75	-4.	0.	125.91
2044	-10.	-4.75	0.	124.88
2045	-9.75	-4.5	0.	125.46
2046	-10.	-5.25	0.	124.14
2047	-9.75	-5.	0.	124.87
2048	-10.	-5.75	0.	123.68
2049	-9.75	-5.5	0.	124.37
2050	-10.	-6.25	0.	123.72
2051	-9.75	-6.	0.	124.2
2052	-10.	-6.75	0.	124.26
2053	-9.75	-6.5	0.	124.44
2054	-10.	-7.25	0.	125.09
2055	-9.75	-7.	0.	125.01
2056	-10.	-7.75	0.	125.93
2057	-9.75	-7.5	0.	125.69
2058	-10.	-8.25	0.	126.55
2059	-9.75	-8.	0.	126.24
2060	-10.	-8.75	0.	126.89
2061	-9.75	-8.5	0.	126.56
2062	-10.	-9.25	0.	127.03
2063	-9.75	-9.	0.	126.68
2064	-9.75	-9.5	0.	126.71
2065	-9.25	-10.	0.	125.98
2066	-9.5	-9.75	0.	126.35
2067	-8.75	-10.	0.	125.18
2068	-9.	-9.75	0.	125.64
2069	-8.25	-10.	0.	124.24
2070	-8.5	-9.75	0.	124.82
2071	-7.75	-10.	0.	123.16
2072	-8.	-9.75	0.	123.78
2073	-7.25	-10.	0.	122.14
2074	-7.5	-9.75	0.	122.61
2075	-6.75	-10.	0.	121.54
2076	-7.	-9.75	0.	121.63
2077	-6.25	-10.	0.	121.65
2078	-6.5	-9.75	0.	121.31
2079	-5.75	-10.	0.	122.44
2080	-6.	-9.75	0.	121.84
2081	-5.25	-10.	0.	123.63
2082	-5.5	-9.75	0.	123.
2083	-4.75	-10.	0.	124.82
2084	-5.	-9.75	0.	124.32
2085	-4.25	-10.	0.	125.76
2086	-4.5	-9.75	0.	125.43
2087	-3.75	-10.	0.	126.4
2088	-4.	-9.75	0.	126.2
2089	-3.25	-10.	0.	126.77
2090	-3.5	-9.75	0.	126.66
2091	-2.75	-10.	0.	126.97
2092	-3.	-9.75	0.	126.91
2093	-2.25	-10.	0.	127.07
2094	-2.5	-9.75	0.	127.03
2095	-1.75	-10.	0.	127.13
2096	-2.	-9.75	0.	127.09
2097	-1.25	-10.	0.	127.19
2098	-1.5	-9.75	0.	127.14
2099	-0.75	-10.	0.	127.26
2100	-1.	-9.75	0.	127.2
2101	-0.25	-10.	0.	127.39
2102	-0.5	-9.75	0.	127.29
2103	0.25	-10.	0.	127.56
2104	-4.6924e-013	-9.75	0.	127.43
2105	0.75	-10.	0.	127.81
2106	0.5	-9.75	0.	127.63
2107	1.25	-10.	0.	128.12
2108	1.	-9.75	0.	127.9
2109	1.75	-10.	0.	128.42
2110	1.5	-9.75	0.	128.22
2111	2.25	-10.	0.	128.52
2112	2.	-9.75	0.	128.5
2113	2.75	-10.	0.	128.04
2114	2.5	-9.75	0.	128.52
2115	3.25	-10.	0.	126.44
2116	3.	-9.75	0.	127.75
2117	3.75	-10.	0.	123.57
2118	3.5	-9.75	0.	125.52
2119	4.25	-10.	0.	120.22
2120	4.	-9.75	0.	121.93
2121	4.75	-10.	0.	117.9
2122	4.5	-9.75	0.	118.46
2123	5.25	-10.	0.	117.8
2124	5.	-9.75	0.	116.98
2125	5.75	-10.	0.	119.93
2126	5.5	-9.75	0.	118.27
2127	6.25	-10.	0.	123.09
2128	6.	-9.75	0.	121.55
2129	6.75	-10.	0.	125.78
2130	6.5	-9.75	0.	124.95
2131	7.25	-10.	0.	127.21
2132	7.	-9.75	0.	127.01
2133	7.75	-10.	0.	127.53
2134	7.5	-9.75	0.	127.61
2135	8.25	-10.	0.	127.27
2136	8.	-9.75	0.	127.45
2137	8.75	-10.	0.	126.85
2138	8.5	-9.75	0.	127.02
2139	9.25	-10.	0.	126.5
2140	9.	-9.75	0.	126.59
2141	9.5	-9.75	0.	126.32
2142	-3.	-1.25	0.	125.89
2143	-3.25	-1.	0.	125.7
2144	-3.	-0.75	0.	125.83
2145	-2.75	-1.	0.	125.93
2146	-2.75	-0.5	0.	125.9
2147	-2.5	-0.25	0.	125.98
2148	-2.25	-0.5	0.	126.02
2149	-2.5	-0.75	0.	126.
2150	-0.50003	3.2498	0.	125.74
2151	-0.25003	3.4998	0.	125.71
2152	-0.50004	3.7497	0.	125.66
2153	-0.75004	3.4997	0.	125.67
2154	-2.75	-1.5	0.	126.03
2155	-3.25	-1.5	0.	125.79
2156	-3.	-1.75	0.	126.02
2157	-3.5	-1.25	0.	125.6
2158	-3.75	-1.	0.	125.34
2159	-3.5	-0.75	0.	125.55
2160	-3.25	-0.5	0.	125.69
2161	-3.	-0.25	0.	125.84
2162	-1.5	-3.25	0.	126.7
2163	-1.5	-2.75	0.	126.64
2164	-1.75	-3.	0.	126.65
2165	-1.25	-3.	0.	126.74
2166	-1.	-3.75	0.	126.81
2167	-0.75	-4.	0.	126.86
2168	-1.25	-4.	0.	126.74
2169	-1.	-4.25	0.	126.76
2170	-1.25	-3.5	0.	126.77
2171	-1.5	-3.75	0.	126.7
2172	-1.75	-3.5	0.	126.68
2173	-1.75	-2.5	0.	126.55
2174	-2.	-2.75	0.	126.56
2175	-2.25	-2.5	0.	126.46
2176	-2.	-2.25	0.	126.44
2177	-1.	-3.25	0.	126.81
2178	-0.75	-3.5	0.	126.89
2179	-2.5	-1.75	0.	126.2
2180	-2.5	-2.25	0.	126.34
2181	-2.75	-2.	0.	126.18
2182	-2.25	-2.	0.	126.32
2183	-0.50002	2.7498	0.	125.84
2184	-0.25002	2.9998	0.	125.82
2185	-0.75003	2.9998	0.	125.76
2186	0.24998	3.4999	0.	125.75
2187	-1.9768e-005	3.2498	0.	125.79
2188	-2.7907e-005	3.7498	0.	125.69
2189	-2.75	-3.7715e-006	0.	125.92
2190	-2.25	-7.0148e-006	0.	126.
2191	-2.5	0.24999	0.	126.
2192	-2.25	-1.5	0.	126.18
2193	-2.5	-1.25	0.	126.08
2194	-0.75004	3.9997	0.	125.6
2195	-1.	3.7497	0.	125.61
2196	-1.25	3.9998	0.	125.56
2197	-1.	4.2498	0.	125.56
2198	-0.50004	4.2498	0.	125.6
2199	-0.25004	3.9998	0.	125.63
2200	0.74998	3.9999	0.	125.66
2201	0.49998	3.7499	0.	125.71
2202	0.49998	4.2499	0.	125.64
2203	0.24997	3.9999	0.	125.66
2204	-3.75	-1.5	0.	125.44
2205	-3.5	-1.75	0.	125.74
2206	-0.5	-3.75	0.	126.94
2207	-0.25	-4.	0.	126.98
2208	-0.5	-4.25	0.	126.88
2209	-4.	-1.25	0.	125.18
2210	-4.25	-1.	0.	124.86
2211	-4.	-0.75	0.	125.15
2212	-2.	-0.25001	0.	126.04
2213	-1.75	-0.5	0.	126.07
2214	-2.	-0.75	0.	126.09
2215	-1.	3.2497	0.	125.69
2216	-1.25	3.4997	0.	125.62
2217	-3.75	-0.5	0.	125.36
2218	-3.5	-0.25	0.	125.6
2219	-1.5	-2.25	0.	126.53
2220	-1.25	-2.5	0.	126.65
2221	-1.5	1.2499	0.	125.98
2222	-1.5	1.7499	0.	125.94
2223	-1.75	1.4999	0.	125.98
2224	-1.25	1.4999	0.	125.97
2225	-1.5	4.2498	0.	125.53
2226	-1.5	3.7498	0.	125.57
2227	-1.75	3.9998	0.	125.52
2228	-1.5	-4.25	0.	126.64
2229	-1.75	-4.	0.	126.64
2230	-2.	-3.25	0.	126.62
2231	-2.25	-3.	0.	126.57
2232	-1.	-2.75	0.	126.74
2233	-0.75	-3.	0.	126.86
2234	-1.25	1.9998	0.	125.91
2235	-0.75001	1.9999	0.	125.95
2236	-1.	1.7499	0.	125.95
2237	-1.	2.2498	0.	125.88
2238	0.99998	4.2499	0.	125.63
2239	1.25	4.	0.	125.64
2240	0.99999	3.7499	0.	125.7
2241	-1.75	0.99995	0.	126.01
2242	-2.	1.2499	0.	126.01
2243	-2.25	0.99997	0.	126.04
2244	-2.	0.74997	0.	126.02
2245	-1.25	4.4998	0.	125.54
2246	-1.75	4.4998	0.	125.53
2247	-1.5	4.7498	0.	125.55
2248	-2.5	-2.75	0.	126.47
2249	-2.75	-2.5	0.	126.35
2250	-0.5	-3.25	0.	126.94
2251	-0.25	-3.5	0.	127.01
2252	-0.50001	2.2499	0.	125.94
2253	-0.25001	2.4999	0.	125.93
2254	-0.75002	2.4998	0.	125.87
2255	0.74999	3.4999	0.	125.74
2256	0.49999	3.2499	0.	125.82
2257	-4.25	-1.5	0.	124.95
2258	-4.	-1.75	0.	125.33
2259	-3.25	-2.	0.	125.96
2260	-3.	-2.25	0.	126.19
2261	3.7682e-011	-4.25	0.	127.
2262	0.25	-4.	0.	127.08
2263	2.5506e-010	-3.75	0.	127.06
2264	-1.166e-005	2.7499	0.	125.91
2265	0.24999	2.9999	0.	125.86
2266	-3.	0.25	0.	125.92
2267	-3.25	-1.9977e-006	0.	125.76
2268	-4.5	-1.25	0.	124.63
2269	-4.75	-1.	0.	124.28
2270	-4.5	-0.75	0.	124.6
2271	-1.75	-1.5	0.	126.28
2272	-2.	-1.25	0.	126.19
2273	-2.	-1.75	0.	126.31
2274	-1.75	-1.1932e-005	0.	126.03
2275	-2.	0.24998	0.	126.02
2276	-1.25	2.9998	0.	125.72
2277	-1.	2.7498	0.	125.79
2278	-0.75003	4.4998	0.	125.56
2279	-1.	4.7498	0.	125.55
2280	-0.50003	4.7498	0.	125.56
2281	-0.25003	4.4998	0.	125.58
2282	0.74998	4.4999	0.	125.61
2283	0.49998	4.7499	0.	125.59
2284	0.24997	4.4999	0.	125.6
2285	1.25	4.5	0.	125.6
2286	0.99998	4.7499	0.	125.59
2287	1.75	4.5	0.	125.6
2288	1.5	4.25	0.	125.61
2289	1.5	4.75	0.	125.59
2290	7.9924e-012	-4.75	0.	126.92
2291	-0.25	-4.5	0.	126.91
2292	0.25	-4.5	0.	127.01
2293	-1.25	-4.5	0.	126.66
2294	-0.75	-4.5	0.	126.78
2295	-1.	-4.75	0.	126.67
2296	-4.25	-0.5	0.	124.89
2297	-4.	-0.25	0.	125.23
2298	-1.5	-1.75	0.	126.39
2299	-1.25	-2.	0.	126.5
2300	-1.75	-2.	0.	126.42
2301	-1.5	0.74995	0.	126.
2302	-1.25	0.99993	0.	126.
2303	-1.5	-0.25001	0.	126.05
2304	-1.25	-0.50001	0.	126.08
2305	-1.5	-0.75	0.	126.13
2306	2.	4.75	0.	125.58
2307	2.	4.25	0.	125.59
2308	2.25	4.5	0.	125.6
2309	-1.75	1.9999	0.	125.92
2310	-1.5	2.2498	0.	125.86
2311	-1.5	3.2498	0.	125.65
2312	-1.75	3.4998	0.	125.58
2313	-1.75	-4.5	0.	126.55
2314	-1.5	-4.75	0.	126.54
2315	-2.	-3.75	0.	126.62
2316	-2.25	-3.5	0.	126.62
2317	-1.	-2.25	0.	126.62
2318	-0.75	-2.5	0.	126.76
2319	1.75	4.	0.	125.6
2320	1.5	3.75	0.	125.64
2321	-2.	1.7499	0.	125.96
2322	-2.25	1.4999	0.	126.03
2323	-2.	4.2498	0.	125.51
2324	-2.	3.7498	0.	125.54
2325	-2.25	3.9998	0.	125.5
2326	-2.	4.7498	0.	125.56
2327	-2.25	4.4999	0.	125.53
2328	-1.75	4.9998	0.	125.58
2329	-1.5	5.2499	0.	125.59
2330	-1.25	4.9998	0.	125.56
2331	-2.5	-3.25	0.	126.56
2332	-2.75	-3.	0.	126.5
2333	-0.5	-2.75	0.	126.87
2334	-0.25	-3.	0.	126.99
2335	-0.5	1.7499	0.	126.01
2336	-0.25	1.9999	0.	126.03
2337	1.25	3.5	0.	125.7
2338	0.99999	3.25	0.	125.79
2339	-2.5	1.25	0.	126.06
2340	-2.75	0.99998	0.	126.07
2341	-2.5	0.74998	0.	126.03
2342	-4.75	-1.5	0.	124.34
2343	-4.5	-1.75	0.	124.76
2344	-3.75	-2.	0.	125.63
2345	-3.5	-2.25	0.	125.95
2346	-3.	-2.75	0.	126.37
2347	-3.25	-2.5	0.	126.18
2348	0.75	-4.	0.	127.1
2349	0.5	-3.75	0.	127.14
2350	0.5	-4.25	0.	127.08
2351	1.	-4.75	0.	127.06
2352	1.	-4.25	0.	127.08
2353	1.25	-4.5	0.	127.03
2354	0.75	-4.5	0.	127.06
2355	1.5242e-009	-3.25	0.	127.07
2356	0.25	-3.5	0.	127.12
2357	-4.243e-006	2.2499	0.	126.02
2358	0.24999	2.4999	0.	126.
2359	0.74999	2.9999	0.	125.86
2360	0.49999	2.7499	0.	125.95
2361	-3.	0.74999	0.	126.02
2362	-3.25	0.49999	0.	125.9
2363	-2.75	0.49999	0.	125.99
2364	-5.	-1.25	0.	123.99
2365	-5.25	-1.	0.	123.66
2366	-5.	-0.75	0.	123.97
2367	-4.75	-0.5	0.	124.3
2368	-4.5	-0.25	0.	124.69
2369	-3.75	-1.0216e-006	0.	125.47
2370	-3.5	0.25	0.	125.74
2371	1.25	-5.	0.	127.07
2372	1.	-5.25	0.	127.01
2373	0.75	-5.	0.	127.01
2374	-1.25	-1.5	0.	126.34
2375	-1.5	-1.25	0.	126.25
2376	-1.5	0.24998	0.	126.02
2377	-1.25	0.49997	0.	126.
2378	-1.75	0.49997	0.	126.01
2379	-1.25	-1.6173e-005	0.	126.02
2380	3.	4.75	0.	125.64
2381	3.	4.25	0.	125.65
2382	2.75	4.5	0.	125.64
2383	3.25	4.5	0.	125.71
2384	-1.75	2.9998	0.	125.69
2385	-1.5	2.7498	0.	125.75
2386	-0.50002	5.2499	0.	125.55
2387	-0.75002	4.9998	0.	125.55
2388	-0.25002	4.9999	0.	125.56
2389	0.24998	4.9999	0.	125.56
2390	0.74998	4.9999	0.	125.57
2391	0.49998	5.2499	0.	125.55
2392	2.25	5.	0.	125.58
2393	2.	5.25	0.	125.56
2394	1.75	5.	0.	125.57
2395	2.75	5.	0.	125.6
2396	2.5	5.25	0.	125.56
2397	2.5	4.75	0.	125.6
2398	3.25	5.	0.	125.62
2399	3.	5.25	0.	125.57
2400	3.75	5.	0.	125.6
2401	3.5	5.25	0.	125.55
2402	3.5	4.75	0.	125.69
2403	-4.1297e-012	-5.25	0.	126.81
2404	-0.25	-5.	0.	126.81
2405	0.25	-5.	0.	126.92
2406	-2.	-4.25	0.	126.55
2407	-2.25	-4.	0.	126.58
2408	-1.	-1.75	0.	126.45
2409	-0.75	-2.	0.	126.59
2410	-0.75	0.99994	0.	126.02
2411	-1.	0.74995	0.	126.
2412	-1.	1.2499	0.	125.99
2413	-1.	-0.75	0.	126.14
2414	-1.	-0.25001	0.	126.04
2415	-0.75	-0.50001	0.	126.06
2416	2.25	4.	0.	125.58
2417	2.	3.75	0.	125.57
2418	-2.25	1.9999	0.	125.96
2419	-2.	2.2499	0.	125.87
2420	-2.	3.2498	0.	125.62
2421	-2.25	3.4998	0.	125.56
2422	-2.	5.2499	0.	125.65
2423	-2.25	4.9999	0.	125.63
2424	-2.5	-3.75	0.	126.58
2425	-2.75	-3.5	0.	126.59
2426	-0.5	-2.25	0.	126.73
2427	-0.25	-2.5	0.	126.89
2428	-0.5	1.2499	0.	126.03
2429	-0.25	1.4999	0.	126.09
2430	-0.75	1.4999	0.	126.01
2431	1.75	3.5	0.	125.61
2432	1.5	3.25	0.	125.7
2433	-2.5	1.7499	0.	126.03
2434	-2.75	1.5	0.	126.11
2435	-2.5	4.2499	0.	125.52
2436	-2.5	3.7499	0.	125.53
2437	-2.75	3.9999	0.	125.51
2438	4.75	5.5	0.	124.98
2439	5.25	5.5	0.	124.57
2440	5.	5.25	0.	124.9
2441	5.	5.75	0.	124.77
2442	-5.25	-1.5	0.	123.68
2443	-5.	-1.75	0.	124.07
2444	-4.	-2.25	0.	125.59
2445	-4.25	-2.	0.	125.14
2446	-3.	-3.25	0.	126.52
2447	-3.25	-3.	0.	126.41
2448	1.25	-4.	0.	127.
2449	1.	-3.75	0.	127.12
2450	1.5	-4.75	0.	127.04
2451	1.5	-4.25	0.	126.94
2452	1.75	-4.5	0.	126.86
2453	7.2244e-009	-2.75	0.	127.02
2454	0.25	-3.	0.	127.13
2455	5.9872e-007	1.7499	0.	126.11
2456	0.25	1.9999	0.	126.14
2457	1.25	3.	0.	125.79
2458	1.	2.75	0.	125.94
2459	-3.	1.25	0.	126.12
2460	-3.25	0.99999	0.	126.07
2461	-5.5	-1.25	0.	123.35
2462	-5.5	-0.75	0.	123.34
2463	-5.75	-1.	0.	123.12
2464	-5.25	-0.5	0.	123.65
2465	-5.	-0.25	0.	124.02
2466	-4.25	-4.5117e-007	0.	125.03
2467	-4.	0.25	0.	125.43
2468	4.	5.25	0.	125.47
2469	4.25	5.	0.	125.48
2470	4.	4.75	0.	125.7
2471	-3.75	-2.5	0.	125.91
2472	-3.5	-2.75	0.	126.22
2473	0.75	-3.5	0.	127.16
2474	0.5	-3.25	0.	127.18
2475	0.5	2.2499	0.	126.11
2476	0.75	2.4999	0.	126.03
2477	-3.5	0.74999	0.	125.95
2478	-3.75	0.5	0.	125.7
2479	1.5	-5.25	0.	127.1
2480	1.75	-5.	0.	127.06
2481	1.25	-5.5	0.	127.05
2482	1.	-5.75	0.	126.9
2483	0.75	-5.5	0.	126.92
2484	-2.25	-4.5	0.	126.47
2485	-2.	-4.75	0.	126.43
2486	-1.	-1.25	0.	126.28
2487	-0.75	-1.	0.	126.2
2488	-1.25	-1.	0.	126.19
2489	-0.75	-1.5	0.	126.39
2490	-0.75	-1.8711e-005	0.	126.
2491	-1.	0.24997	0.	126.01
2492	2.75	4.	0.	125.61
2493	3.25	4.	0.	125.74
2494	3.	3.75	0.	125.57
2495	2.5	3.75	0.	125.52
2496	2.5	4.25	0.	125.59
2497	-2.25	2.9999	0.	125.69
2498	-2.	2.7498	0.	125.75
2499	-1.75	5.4999	0.	125.66
2500	-2.25	5.4999	0.	125.76
2501	-2.	5.7499	0.	125.74
2502	-1.5	5.7499	0.	125.65
2503	-1.25	5.4999	0.	125.6
2504	-0.50002	5.7499	0.	125.56
2505	-0.25002	5.4999	0.	125.55
2506	-0.75002	5.4999	0.	125.56
2507	1.25	5.5	0.	125.54
2508	0.99999	5.75	0.	125.52
2509	0.99998	5.2499	0.	125.55
2510	0.74998	5.4999	0.	125.54
2511	1.75	5.5	0.	125.54
2512	1.5	5.75	0.	125.52
2513	1.5	5.25	0.	125.55
2514	2.25	5.5	0.	125.54
2515	2.	5.75	0.	125.52
2516	2.75	5.5	0.	125.53
2517	2.5	5.75	0.	125.51
2518	3.25	5.5	0.	125.5
2519	3.	5.75	0.	125.48
2520	3.75	5.5	0.	125.43
2521	3.5	5.75	0.	125.42
2522	4.25	5.5	0.	125.27
2523	4.	5.75	0.	125.31
2524	4.5	5.25	0.	125.27
2525	4.5	5.75	0.	125.09
2526	-8.4745e-012	-5.75	0.	126.69
2527	0.25	-5.5	0.	126.81
2528	-0.25	-5.5	0.	126.7
2529	-1.25	-5.5	0.	126.45
2530	-1.	-5.75	0.	126.48
2531	-1.	-5.25	0.	126.57
2532	-0.75	-5.5	0.	126.58
2533	-1.75	-5.5	0.	126.32
2534	-1.5	-5.75	0.	126.36
2535	-1.5	-5.25	0.	126.44
2536	-2.25	-5.5	0.	126.2
2537	-2.	-5.75	0.	126.23
2538	-2.	-5.25	0.	126.31
2539	-2.5	-4.25	0.	126.5
2540	-2.75	-4.	0.	126.58
2541	-0.5	-1.75	0.	126.53
2542	-0.25	-2.	0.	126.71
2543	-0.25	0.99995	0.	126.08
2544	-0.5	0.74995	0.	126.02
2545	-0.5	-0.25001	0.	126.02
2546	-0.25	-0.50001	0.	126.03
2547	-0.5	-0.75001	0.	126.12
2548	2.25	3.5	0.	125.51
2549	2.	3.25	0.	125.54
2550	-2.5	4.7499	0.	125.61
2551	-2.75	4.4999	0.	125.57
2552	-2.75	1.9999	0.	126.07
2553	-2.5	2.2499	0.	125.94
2554	-2.5	3.2499	0.	125.63
2555	-2.75	3.4999	0.	125.58
2556	5.75	5.5	0.	124.08
2557	5.5	5.25	0.	124.35
2558	5.5	5.75	0.	124.36
2559	-5.75	-1.5	0.	123.09
2560	-5.5	-1.75	0.	123.34
2561	-2.75	-5.5	0.	126.09
2562	-2.5	-5.25	0.	126.21
2563	-2.5	-5.75	0.	126.11
2564	-3.	-3.75	0.	126.59
2565	-3.25	-3.5	0.	126.59
2566	1.75	-4.	0.	126.69
2567	1.5	-3.75	0.	126.91
2568	2.7534e-008	-2.25	0.	126.87
2569	0.25	-2.5	0.	127.06
2570	2.5685e-006	1.2499	0.	126.14
2571	0.25	1.4999	0.	126.23
2572	1.75	3.	0.	125.63
2573	1.5	2.75	0.	125.82
2574	-3.	1.75	0.	126.15
2575	-3.25	1.5	0.	126.21
2576	-3.	4.2499	0.	125.56
2577	-3.	3.7499	0.	125.56
2578	-3.25	3.9999	0.	125.56
2579	-5.75	-0.5	0.	123.08
2580	-5.5	-0.25	0.	123.31
2581	-4.5	0.25	0.	124.91
2582	-4.75	-2.2266e-007	0.	124.41
2583	4.75	5.	0.	125.19
2584	4.5	4.75	0.	125.57
2585	3.5	3.75	0.	125.78
2586	3.75	4.	0.	125.95
2587	3.5	4.25	0.	125.79
2588	-4.25	-2.5	0.	125.47
2589	-4.	-2.75	0.	125.95
2590	-3.5	-3.25	0.	126.48
2591	-3.75	-3.	0.	126.26
2592	1.25	-3.5	0.	127.03
2593	1.	-3.25	0.	127.2
2594	0.5	-2.75	0.	127.17
2595	0.75	-3.	0.	127.22
2596	0.5	1.75	0.	126.25
2597	0.75	2.	0.	126.24
2598	1.25	2.5	0.	125.97
2599	1.	2.25	0.	126.16
2600	2.	-4.25	0.	126.6
2601	2.25	-4.5	0.	126.49
2602	2.	-4.75	0.	126.89
2603	-3.5	1.25	0.	126.17
2604	-3.75	0.99999	0.	126.
2605	-4.25	0.5	0.	125.31
2606	-4.	0.75	0.	125.75
2607	4.	4.25	0.	125.95
2608	4.25	4.5	0.	125.79
2609	3.75	4.5	0.	125.79
2610	1.5	-5.75	0.	127.05
2611	1.75	-5.5	0.	127.2
2612	0.75	-6.	0.	126.77
2613	1.25	-6.	0.	126.9
2614	1.	-6.25	0.	126.71
2615	-2.75	-4.5	0.	126.45
2616	-2.5	-4.75	0.	126.36
2617	-0.25	-1.5	0.	126.45
2618	-0.5	-1.25	0.	126.31
2619	-0.25	-1.6857e-005	0.	125.99
2620	-0.5	0.24997	0.	126.
2621	2.75	3.5	0.	125.47
2622	3.25	3.5	0.	125.61
2623	3.	3.25	0.	125.31
2624	2.5	3.25	0.	125.36
2625	-2.5	5.2499	0.	125.75
2626	-2.75	4.9999	0.	125.74
2627	-2.75	5.4999	0.	125.93
2628	-2.5	5.7499	0.	125.89
2629	-2.75	2.9999	0.	125.75
2630	-2.5	2.7499	0.	125.79
2631	-1.75	5.9999	0.	125.73
2632	-2.	6.2499	0.	125.8
2633	-2.25	5.9999	0.	125.86
2634	-1.5	6.2499	0.	125.69
2635	-1.25	5.9999	0.	125.64
2636	-0.25001	5.9999	0.	125.55
2637	-0.50001	6.2499	0.	125.56
2638	-0.75001	5.9999	0.	125.58
2639	0.24998	5.9999	0.	125.53
2640	-1.2299e-005	6.2499	0.	125.53
2641	-1.7732e-005	5.7499	0.	125.54
2642	0.74999	5.9999	0.	125.51
2643	0.49999	6.2499	0.	125.51
2644	0.49998	5.7499	0.	125.53
2645	1.25	6.	0.	125.51
2646	0.99999	6.25	0.	125.5
2647	1.5	6.25	0.	125.49
2648	1.75	6.	0.	125.5
2649	2.5	6.25	0.	125.45
2650	2.75	6.	0.	125.46
2651	2.25	6.	0.	125.48
2652	3.75	6.	0.	125.3
2653	3.5	6.25	0.	125.32
2654	3.25	6.	0.	125.4
2655	4.25	6.	0.	125.13
2656	4.	6.25	0.	125.2
2657	4.5	6.25	0.	125.
2658	4.75	6.	0.	124.88
2659	6.25	5.5	0.	123.63
2660	6.	5.25	0.	123.72
2661	6.	5.75	0.	123.93
2662	-6.	-1.25	0.	122.86
2663	-6.	-1.75	0.	122.75
2664	-6.25	-1.5	0.	122.72
2665	-6.	-0.75	0.	122.86
2666	-6.25	-1.	0.	122.79
2667	0.25	-6.	0.	126.68
2668	0.5	-6.25	0.	126.64
2669	0.5	-5.75	0.	126.79
2670	-0.25	-6.	0.	126.59
2671	-1.0116e-011	-6.25	0.	126.59
2672	-0.75	-6.	0.	126.5
2673	-0.5	-6.25	0.	126.53
2674	-0.5	-5.75	0.	126.6
2675	-1.25	-6.	0.	126.39
2676	-1.	-6.25	0.	126.44
2677	-1.75	-6.	0.	126.27
2678	-1.5	-6.25	0.	126.34
2679	-2.	-6.25	0.	126.23
2680	-2.25	-6.	0.	126.15
2681	-3.	-5.75	0.	126.01
2682	-3.25	-6.	0.	125.94
2683	-3.	-6.25	0.	126.02
2684	-2.75	-6.	0.	126.03
2685	-5.	-2.25	0.	124.25
2686	-4.75	-2.	0.	124.49
2687	-5.25	-2.	0.	123.73
2688	-3.25	-5.5	0.	126.04
2689	-3.	-5.25	0.	126.15
2690	-3.	-4.25	0.	126.53
2691	-3.25	-4.	0.	126.64
2692	2.	-3.75	0.	126.42
2693	2.25	-4.	0.	126.14
2694	9.5894e-008	-1.75	0.	126.63
2695	0.25	-2.	0.	126.87
2696	0.25	0.99997	0.	126.22
2697	2.6181e-006	0.74997	0.	126.09
2698	5.3138e-007	-0.75	0.	126.11
2699	1.0734e-006	-0.25001	0.	126.
2700	0.25	-0.50001	0.	126.
2701	2.25	3.	0.	125.4
2702	2.	2.75	0.	125.55
2703	-3.25	4.4999	0.	125.67
2704	-3.	4.7499	0.	125.7
2705	-3.	5.7499	0.	126.11
2706	-3.	6.25	0.	126.19
2707	-3.25	6.	0.	126.35
2708	-2.75	5.9999	0.	126.07
2709	-3.25	2.	0.	126.25
2710	-3.	2.25	0.	126.07
2711	-3.	3.2499	0.	125.69
2712	-3.25	3.4999	0.	125.65
2713	-6.	-0.25	0.	122.74
2714	-6.25	-0.5	0.	122.72
2715	5.25	5.	0.	124.68
2716	5.	4.75	0.	125.18
2717	3.5	3.25	0.	125.54
2718	3.75	3.5	0.	125.98
2719	-4.75	-2.5	0.	124.78
2720	-4.5	-2.75	0.	125.45
2721	-4.5	-2.25	0.	125.03
2722	-3.5	-3.75	0.	126.65
2723	-3.75	-3.5	0.	126.59
2724	1.75	-3.5	0.	126.64
2725	1.5	-3.25	0.	127.01
2726	0.5	-2.25	0.	127.06
2727	0.75	-2.5	0.	127.25
2728	0.5	1.25	0.	126.32
2729	0.75	1.5	0.	126.42
2730	1.75	2.5	0.	125.74
2731	1.5	2.25	0.	126.07
2732	2.75	-4.5	0.	125.88
2733	2.5	-4.75	0.	126.53
2734	2.5	-4.25	0.	126.03
2735	5.	-4.25	0.	122.94
2736	5.25	-4.5	0.	122.57
2737	5.	-4.75	0.	121.69
2738	4.75	-4.5	0.	122.49
2739	-3.5	1.75	0.	126.31
2740	-3.75	1.5	0.	126.31
2741	-3.5	4.25	0.	125.67
2742	-3.5	3.75	0.	125.66
2743	-3.75	4.	0.	125.72
2744	-4.75	0.5	0.	124.67
2745	-4.5	0.75	0.	125.31
2746	5.75	6.5	0.	124.37
2747	6.25	6.5	0.	124.17
2748	6.	6.75	0.	124.34
2749	6.	6.25	0.	124.15
2750	6.5	5.25	0.	123.2
2751	6.5	4.75	0.	122.7
2752	6.75	5.	0.	122.85
2753	6.25	5.	0.	123.3
2754	-4.25	-3.	0.	125.93
2755	-4.	-3.25	0.	126.37
2756	1.25	-3.	0.	127.17
2757	1.	-2.75	0.	127.3
2758	1.	1.75	0.	126.41
2759	1.25	2.	0.	126.25
2760	4.75	-4.	0.	123.41
2761	5.25	-4.	0.	123.72
2762	5.	-3.75	0.	123.97
2763	1.5	-6.25	0.	126.82
2764	1.75	-6.	0.	127.13
2765	0.75	-6.5	0.	126.58
2766	1.25	-6.5	0.	126.63
2767	1.	-6.75	0.	126.51
2768	2.	-5.25	0.	127.16
2769	2.25	-5.	0.	126.93
2770	-3.25	6.5	0.	126.33
2771	-3.5	6.25	0.	126.48
2772	-3.75	6.5	0.	126.57
2773	-3.5	6.75	0.	126.35
2774	-4.	1.25	0.	126.14
2775	-4.25	1.	0.	125.74
2776	4.25	4.	0.	126.17
2777	4.	3.75	0.	126.15
2778	-3.5	-5.75	0.	125.97
2779	-3.75	-6.	0.	125.96
2780	-3.5	-6.25	0.	125.98
2781	-6.25	-2.	0.	122.52
2782	-6.5	-1.75	0.	122.5
2783	-6.5	-2.25	0.	122.15
2784	-6.75	-2.	0.	122.47
2785	-6.	-2.25	0.	122.51
2786	-5.75	-2.	0.	123.
2787	-3.25	-4.5	0.	126.52
2788	-3.	-4.75	0.	126.35
2789	3.25	-4.	0.	124.55
2790	3.	-4.25	0.	125.23
2791	3.	-3.75	0.	124.7
2792	2.75	-4.	0.	125.38
2793	2.3334e-007	-1.25	0.	126.35
2794	0.25	-1.	0.	126.22
2795	-0.25	-1.	0.	126.2
2796	0.25	-1.5	0.	126.56
2797	0.25	-1.1415e-005	0.	125.99
2798	1.8532e-006	0.24998	0.	126.02
2799	2.5	2.75	0.	125.16
2800	2.75	3.	0.	125.2
2801	4.5	-3.75	0.	123.57
2802	4.5	-4.25	0.	122.97
2803	4.25	-4.	0.	123.43
2804	3.5	-3.75	0.	123.91
2805	3.5	-4.25	0.	124.32
2806	3.75	-4.	0.	123.84
2807	-3.25	5.5	0.	126.2
2808	-3.	5.2499	0.	125.92
2809	-3.25	2.9999	0.	125.89
2810	-3.	2.7499	0.	125.9
2811	-5.75	-2.92e-008	0.	122.98
2812	-6.25	-9.7013e-009	0.	122.52
2813	-6.	0.25	0.	122.5
2814	-5.5	0.25	0.	123.28
2815	-5.25	-1.0959e-007	0.	123.68
2816	5.5	4.75	0.	124.46
2817	5.75	5.	0.	123.99
2818	-2.75	6.5	0.	126.1
2819	-3.	6.75	0.	126.16
2820	-2.25	6.4999	0.	125.91
2821	-2.5	6.75	0.	125.97
2822	-2.5	6.2499	0.	125.97
2823	-1.75	6.4999	0.	125.76
2824	-2.	6.7499	0.	125.82
2825	-1.5	6.7499	0.	125.7
2826	-1.25	6.4999	0.	125.66
2827	-0.25001	6.4999	0.	125.54
2828	-0.50001	6.7499	0.	125.56
2829	-0.75001	6.4999	0.	125.59
2830	0.24999	6.4999	0.	125.51
2831	-7.8733e-006	6.7499	0.	125.52
2832	0.74999	6.5	0.	125.49
2833	0.49999	6.75	0.	125.49
2834	1.25	6.5	0.	125.48
2835	0.99999	6.75	0.	125.47
2836	1.75	6.5	0.	125.46
2837	1.5	6.75	0.	125.45
2838	2.25	6.5	0.	125.43
2839	2.	6.25	0.	125.47
2840	2.	6.75	0.	125.43
2841	2.75	6.5	0.	125.39
2842	2.5	6.75	0.	125.4
2843	3.25	6.5	0.	125.33
2844	3.	6.75	0.	125.34
2845	3.	6.25	0.	125.4
2846	3.75	6.5	0.	125.22
2847	3.5	6.75	0.	125.26
2848	4.25	6.5	0.	125.06
2849	4.	6.75	0.	125.14
2850	4.5	6.75	0.	124.97
2851	4.75	6.5	0.	124.86
2852	5.5	6.75	0.	124.54
2853	5.25	6.5	0.	124.61
2854	5.5	6.25	0.	124.44
2855	6.5	5.75	0.	123.61
2856	6.5	6.25	0.	123.94
2857	6.75	6.	0.	123.76
2858	6.25	6.	0.	123.92
2859	6.75	5.5	0.	123.36
2860	-6.5	-1.25	0.	122.65
2861	-6.75	-1.5	0.	122.68
2862	-6.5	-0.75	0.	122.65
2863	-6.75	-1.	0.	122.75
2864	-6.5	-0.25	0.	122.51
2865	-6.75	-0.5	0.	122.69
2866	-6.5	0.25	0.	122.17
2867	-6.75	-3.8194e-009	0.	122.5
2868	0.25	-6.5	0.	126.56
2869	0.5	-6.75	0.	126.53
2870	-0.25	-6.5	0.	126.52
2871	-9.6296e-012	-6.75	0.	126.53
2872	-0.75	-6.5	0.	126.47
2873	-0.5	-6.75	0.	126.51
2874	-1.25	-6.5	0.	126.39
2875	-1.	-6.75	0.	126.46
2876	-1.75	-6.5	0.	126.3
2877	-1.5	-6.75	0.	126.39
2878	-2.	-6.75	0.	126.31
2879	-2.25	-6.5	0.	126.2
2880	-3.	-6.75	0.	126.18
2881	-2.75	-6.5	0.	126.11
2882	-3.25	-6.5	0.	126.06
2883	3.5	2.75	0.	124.98
2884	3.75	3.	0.	125.7
2885	3.25	3.	0.	125.25
2886	-5.25	-2.5	0.	123.84
2887	-5.	-2.75	0.	124.6
2888	-3.5	-5.25	0.	126.17
2889	-3.75	-5.5	0.	126.09
2890	-3.5	-4.25	0.	126.64
2891	-3.75	-4.	0.	126.8
2892	2.	-3.25	0.	126.43
2893	2.25	-3.5	0.	125.92
2894	0.5	-1.75	0.	126.8
2895	0.75	-2.	0.	127.13
2896	0.75	0.99998	0.	126.48
2897	0.5	0.74998	0.	126.25
2898	0.5	-0.75	0.	126.11
2899	0.5	-0.25001	0.	125.99
2900	0.75	-0.5	0.	125.98
2901	2.25	2.5	0.	125.31
2902	2.	2.25	0.	125.7
2903	3.25	-3.5	0.	124.06
2904	3.5	-3.25	0.	123.32
2905	3.75	-3.5	0.	123.59
2906	3.25	-4.5	0.	125.01
2907	3.	-4.75	0.	125.86
2908	5.5	-4.25	0.	123.36
2909	5.75	-4.5	0.	123.09
2910	5.5	-4.75	0.	122.16
2911	-3.5	4.75	0.	125.89
2912	-3.75	4.5	0.	125.88
2913	-3.5	5.75	0.	126.43
2914	-3.75	6.	0.	126.72
2915	-3.5	2.25	0.	126.3
2916	-3.75	2.	0.	126.51
2917	-3.5	3.25	0.	125.85
2918	-3.75	3.5	0.	125.84
2919	-5.25	0.5	0.	123.77
2920	-5.	0.75	0.	124.5
2921	-5.	0.25	0.	124.17
2922	5.25	4.5	0.	124.96
2923	5.	4.25	0.	125.69
2924	4.75	4.5	0.	125.56
2925	6.75	6.5	0.	124.07
2926	6.5	6.75	0.	124.21
2927	6.75	4.5	0.	122.19
2928	6.5	4.25	0.	122.06
2929	6.25	4.5	0.	122.93
2930	-4.75	-3.	0.	125.27
2931	-4.5	-3.25	0.	126.06
2932	-4.	-3.75	0.	126.74
2933	-4.25	-3.5	0.	126.5
2934	1.75	-3.	0.	126.8
2935	1.5	-2.75	0.	127.26
2936	1.	-2.25	0.	127.31
2937	1.25	-2.5	0.	127.38
2938	1.	1.25	0.	126.59
2939	1.25	1.5	0.	126.62
2940	1.75	2.	0.	126.03
2941	1.5	1.75	0.	126.46
2942	5.75	-4.	0.	124.12
2943	5.5	-3.75	0.	124.55
2944	1.5	-6.75	0.	126.51
2945	1.75	-6.5	0.	126.78
2946	0.75	-7.	0.	126.46
2947	1.25	-7.	0.	126.39
2948	1.	-7.25	0.	126.43
2949	2.	-5.75	0.	127.28
2950	2.25	-5.5	0.	127.35
2951	2.75	-5.	0.	126.51
2952	2.5	-5.25	0.	127.12
2953	4.75	-5.	0.	121.33
2954	5.25	-5.	0.	121.27
2955	5.	-5.25	0.	120.1
2956	-4.75	7.	0.	125.8
2957	-4.5	6.75	0.	126.43
2958	-4.5	7.25	0.	125.9
2959	-4.25	7.	0.	126.21
2960	-4.	6.25	0.	126.8
2961	-4.25	6.5	0.	126.71
2962	-4.	6.75	0.	126.5
2963	-4.	1.75	0.	126.5
2964	-4.25	1.5	0.	126.3
2965	-4.	3.75	0.	125.91
2966	-4.25	4.	0.	126.16
2967	-4.	4.25	0.	125.93
2968	-4.75	1.	0.	125.14
2969	-4.5	1.25	0.	125.9
2970	4.75	4.	0.	126.13
2971	4.5	3.75	0.	126.53
2972	4.5	4.25	0.	126.
2973	-4.	-6.25	0.	126.08
2974	-4.25	-6.	0.	126.25
2975	-4.	-5.75	0.	126.08
2976	-6.25	0.5	0.	122.15
2977	-6.75	0.5	0.	122.12
2978	-6.5	0.75	0.	121.54
2979	-6.25	-2.5	0.	122.14
2980	-6.5	-2.75	0.	121.51
2981	-6.75	-2.5	0.	122.08
2982	4.75	-3.5	0.	124.13
2983	5.25	-3.5	0.	124.8
2984	5.	-3.25	0.	124.83
2985	-7.	-1.75	0.	122.66
2986	-7.	-2.25	0.	122.4
2987	-7.25	-2.	0.	122.85
2988	3.5	2.25	0.	124.07
2989	3.75	2.5	0.	125.
2990	3.25	2.5	0.	124.61
2991	4.	3.25	0.	126.14
2992	4.25	3.5	0.	126.52
2993	-5.75	-2.5	0.	122.84
2994	-5.5	-2.75	0.	123.37
2995	-5.5	-2.25	0.	123.33
2996	-6.	-2.75	0.	122.1
2997	-3.75	-4.5	0.	126.73
2998	-3.5	-4.75	0.	126.45
2999	3.	-3.25	0.	124.14
3000	2.75	-3.5	0.	124.95
3001	0.5	-1.25	0.	126.43
3002	0.75	-1.	0.	126.29
3003	0.75	-1.5	0.	126.77
3004	0.75	-7.177e-006	0.	126.06
3005	0.5	0.24999	0.	126.09
3006	2.5	2.25	0.	125.
3007	2.75	2.5	0.	124.82
3008	4.5	-3.25	0.	123.99
3009	4.25	-3.5	0.	123.66
3010	3.5	-4.75	0.	124.75
3011	3.75	-4.5	0.	123.97
3012	6.	-4.25	0.	123.85
3013	6.	-4.75	0.	123.15
3014	6.25	-4.5	0.	123.6
3015	-3.5	5.25	0.	126.2
3016	-3.75	5.	0.	126.25
3017	-3.25	4.9999	0.	125.93
3018	-3.75	5.5	0.	126.6
3019	-3.5	2.75	0.	126.12
3020	-3.25	2.5	0.	126.13
3021	-3.75	2.5	0.	126.45
3022	-3.75	3.	0.	126.16
3023	-5.75	0.5	0.	122.81
3024	-6.	0.75	0.	122.09
3025	-5.5	0.75	0.	123.31
3026	5.5	4.25	0.	124.8
3027	5.75	4.5	0.	124.
3028	-3.25	7.	0.	126.18
3029	-3.5	7.25	0.	126.13
3030	-3.75	7.	0.	126.28
3031	-2.75	7.	0.	126.03
3032	-3.	7.25	0.	126.03
3033	-2.25	7.	0.	125.88
3034	-2.5	7.25	0.	125.9
3035	-1.75	7.	0.	125.75
3036	-2.	7.25	0.	125.78
3037	-1.25	7.	0.	125.66
3038	-1.5	7.25	0.	125.68
3039	-0.75	7.	0.	125.59
3040	-1.	7.25	0.	125.61
3041	-1.	6.7499	0.	125.62
3042	-0.5	7.25	0.	125.55
3043	-0.25001	7.	0.	125.54
3044	0.49999	7.25	0.	125.48
3045	0.24999	7.	0.	125.5
3046	0.74999	7.	0.	125.47
3047	1.5	7.25	0.	125.43
3048	1.75	7.	0.	125.43
3049	1.25	7.	0.	125.45
3050	2.75	7.	0.	125.35
3051	2.5	7.25	0.	125.36
3052	2.25	7.	0.	125.39
3053	3.25	7.	0.	125.28
3054	3.	7.25	0.	125.3
3055	3.5	7.25	0.	125.22
3056	3.75	7.	0.	125.18
3057	4.75	7.	0.	124.87
3058	4.5	7.25	0.	124.98
3059	4.25	7.	0.	125.04
3060	5.25	7.	0.	124.69
3061	5.	7.25	0.	124.82
3062	5.	6.75	0.	124.76
3063	5.75	7.	0.	124.52
3064	5.5	7.25	0.	124.66
3065	7.	6.25	0.	123.89
3066	7.	6.75	0.	124.19
3067	7.25	6.5	0.	124.12
3068	6.25	7.	0.	124.38
3069	6.	7.25	0.	124.52
3070	6.75	7.	0.	124.33
3071	6.5	7.25	0.	124.43
3072	7.25	6.	0.	123.8
3073	7.	5.75	0.	123.51
3074	7.	4.75	0.	122.35
3075	7.25	5.	0.	122.85
3076	7.	5.25	0.	123.01
3077	7.	4.25	0.	121.45
3078	7.25	4.5	0.	122.16
3079	-7.	-1.25	0.	122.78
3080	-7.25	-1.5	0.	122.97
3081	-7.	-0.75	0.	122.79
3082	-7.25	-1.	0.	123.02
3083	-7.	-0.25	0.	122.68
3084	-7.25	-0.5	0.	122.99
3085	-7.	0.25	0.	122.45
3086	-7.25	-1.7448e-009	0.	122.89
3087	0.25	-7.	0.	126.5
3088	0.5	-7.25	0.	126.51
3089	-0.25	-7.	0.	126.52
3090	-7.7022e-012	-7.25	0.	126.55
3091	-0.75	-7.	0.	126.5
3092	-0.5	-7.25	0.	126.56
3093	-1.25	-7.	0.	126.46
3094	-1.	-7.25	0.	126.54
3095	-1.75	-7.	0.	126.4
3096	-1.5	-7.25	0.	126.5
3097	-2.25	-7.	0.	126.34
3098	-2.	-7.25	0.	126.46
3099	-2.75	-7.	0.	126.31
3100	-2.5	-7.25	0.	126.42
3101	-2.5	-6.75	0.	126.23
3102	-3.25	-7.	0.	126.33
3103	-3.	-7.25	0.	126.43
3104	6.75	4.	0.	121.3
3105	7.	3.75	0.	120.17
3106	7.25	4.	0.	121.21
3107	-5.	-3.25	0.	125.26
3108	-5.25	-3.	0.	124.12
3109	-4.	-4.25	0.	126.89
3110	-4.25	-4.	0.	127.
3111	2.	-2.75	0.	126.77
3112	2.25	-3.	0.	125.91
3113	1.	-1.75	0.	127.1
3114	1.25	-2.	0.	127.49
3115	1.25	0.99999	0.	126.89
3116	1.	0.74999	0.	126.56
3117	1.	-0.75	0.	126.16
3118	1.	-0.25	0.	126.04
3119	1.25	-0.5	0.	126.05
3120	2.25	2.	0.	125.39
3121	2.	1.75	0.	126.16
3122	3.25	-3.	0.	123.4
3123	3.5	-2.75	0.	122.31
3124	3.75	-3.	0.	123.07
3125	7.	-4.75	0.	124.08
3126	7.	-4.25	0.	123.36
3127	7.25	-4.5	0.	123.46
3128	6.75	-4.5	0.	123.71
3129	6.25	-4.	0.	124.17
3130	6.	-3.75	0.	124.93
3131	1.75	-7.	0.	126.34
3132	1.5	-7.25	0.	126.32
3133	2.	-6.25	0.	127.09
3134	2.25	-6.	0.	127.54
3135	4.5	-5.25	0.	121.05
3136	4.25	-5.	0.	122.46
3137	4.5	-4.75	0.	122.14
3138	3.25	-5.	0.	125.61
3139	3.	-5.25	0.	126.71
3140	5.75	-5.	0.	122.22
3141	5.5	-5.25	0.	120.9
3142	-5.25	7.	0.	124.86
3143	-5.	7.25	0.	125.29
3144	-5.	6.75	0.	125.86
3145	-4.	5.75	0.	126.88
3146	-4.25	6.	0.	127.14
3147	-4.25	2.	0.	126.81
3148	-4.	2.25	0.	126.66
3149	-4.	3.25	0.	126.16
3150	-4.25	3.5	0.	126.29
3151	-5.25	1.	0.	124.04
3152	-5.	1.25	0.	125.16
3153	6.5	3.75	0.	121.22
3154	6.25	4.	0.	122.53
3155	5.25	4.	0.	125.53
3156	5.	3.75	0.	126.54
3157	-3.75	-7.	0.	126.47
3158	-3.5	-7.25	0.	126.52
3159	-3.5	-6.75	0.	126.2
3160	-4.	-6.75	0.	126.37
3161	-4.25	-6.5	0.	126.4
3162	-3.75	-6.5	0.	126.11
3163	-7.	0.75	0.	122.04
3164	-7.25	0.5	0.	122.73
3165	-6.75	1.	0.	121.46
3166	-6.5	1.25	0.	120.39
3167	-6.25	1.	0.	121.48
3168	-6.25	-3.	0.	121.47
3169	-6.5	-3.25	0.	120.33
3170	-6.75	-3.	0.	121.4
3171	-4.5	-3.75	0.	126.76
3172	-4.75	-3.5	0.	126.06
3173	1.5	-2.25	0.	127.56
3174	1.75	-2.5	0.	127.23
3175	1.75	1.5	0.	126.6
3176	1.5	1.25	0.	126.92
3177	5.5	-3.25	0.	125.66
3178	5.75	-3.5	0.	125.36
3179	4.75	-3.	0.	124.69
3180	5.25	-3.	0.	125.7
3181	5.	-2.75	0.	125.56
3182	2.75	-5.5	0.	127.31
3183	2.5	-5.75	0.	127.61
3184	7.25	-5.	0.	124.5
3185	7.	-5.25	0.	125.13
3186	6.75	-5.	0.	124.29
3187	-7.25	-2.5	0.	122.66
3188	-7.	-2.75	0.	121.97
3189	-4.5	6.25	0.	127.05
3190	-4.75	6.5	0.	126.5
3191	-4.75	1.5	0.	125.92
3192	-4.5	1.75	0.	126.61
3193	3.25	2.	0.	123.72
3194	3.75	2.	0.	123.95
3195	3.5	1.75	0.	122.8
3196	4.25	3.	0.	126.61
3197	4.	2.75	0.	125.72
3198	4.75	3.5	0.	126.94
3199	4.5	3.25	0.	126.99
3200	7.	7.25	0.	124.43
3201	7.25	7.	0.	124.37
3202	-6.25	7.	0.	122.42
3203	-6.5	7.25	0.	122.56
3204	-6.5	6.75	0.	121.23
3205	-6.75	7.	0.	122.35
3206	7.	3.25	0.	118.43
3207	7.25	3.5	0.	119.91
3208	6.75	3.5	0.	120.07
3209	-4.75	-6.	0.	127.27
3210	-4.5	-5.75	0.	126.57
3211	-4.5	-6.25	0.	126.57
3212	-4.75	4.	0.	127.32
3213	-4.5	3.75	0.	126.54
3214	-4.5	4.25	0.	126.57
3215	-6.	-3.25	0.	121.46
3216	-5.75	-3.	0.	122.63
3217	-4.25	-4.5	0.	127.14
3218	-4.	-4.75	0.	126.71
3219	3.	-2.75	0.	123.49
3220	2.75	-3.	0.	124.58
3221	1.	-1.25	0.	126.63
3222	1.25	-1.	0.	126.49
3223	1.25	-1.5	0.	127.2
3224	1.25	-4.2752e-006	0.	126.27
3225	1.	0.24999	0.	126.29
3226	2.75	2.	0.	124.43
3227	3.	1.75	0.	123.53
3228	3.	2.25	0.	124.25
3229	2.5	1.75	0.	125.1
3230	4.5	-2.75	0.	124.39
3231	4.25	-3.	0.	123.68
3232	6.75	-4.	0.	123.56
3233	6.5	-3.75	0.	124.48
3234	6.5	-4.25	0.	123.91
3235	7.25	-4.	0.	122.54
3236	7.	-3.75	0.	122.99
3237	2.	-6.75	0.	126.61
3238	2.25	-6.5	0.	127.18
3239	2.	-7.25	0.	126.21
3240	2.25	-7.	0.	126.39
3241	3.5	-5.25	0.	125.44
3242	3.75	-5.	0.	124.13
3243	6.	-5.25	0.	122.81
3244	6.25	-5.	0.	123.47
3245	-5.75	7.	0.	123.51
3246	-5.5	7.25	0.	124.26
3247	-5.5	6.75	0.	124.38
3248	-6.	7.25	0.	123.12
3249	-6.	6.75	0.	122.33
3250	-4.25	5.5	0.	127.2
3251	-4.	5.25	0.	126.65
3252	-4.25	3.	0.	126.65
3253	-4.	2.75	0.	126.5
3254	-5.5	1.25	0.	123.56
3255	-5.75	1.	0.	122.59
3256	5.5	3.75	0.	125.56
3257	5.75	4.	0.	124.21
3258	-4.	-7.25	0.	126.76
3259	-4.25	-7.	0.	126.8
3260	-7.25	1.	0.	122.53
3261	-7.	1.25	0.	121.42
3262	-5.	4.25	0.	127.97
3263	-5.	3.75	0.	127.92
3264	-5.25	4.	0.	130.6
3265	4.75	-6.	0.	117.93
3266	5.25	-6.	0.	117.82
3267	5.	-6.25	0.	116.73
3268	5.	-5.75	0.	118.11
3269	-5.	-5.75	0.	127.82
3270	-5.	-6.25	0.	127.81
3271	-5.25	-6.	0.	130.41
3272	6.75	3.	0.	118.47
3273	7.25	3.	0.	118.2
3274	7.	2.75	0.	117.27
3275	-7.25	7.5	0.	123.7
3276	-7.5	7.25	0.	124.03
3277	-7.75	7.5	0.	124.45
3278	-7.5	7.75	0.	124.15
3279	-6.75	7.5	0.	123.2
3280	-7.	7.25	0.	122.99
3281	-7.	7.75	0.	123.59
3282	-6.25	7.5	0.	123.26
3283	-6.5	7.75	0.	123.38
3284	-5.75	7.5	0.	123.87
3285	-6.	7.75	0.	123.69
3286	-5.25	7.5	0.	124.69
3287	-5.5	7.75	0.	124.35
3288	-4.75	7.5	0.	125.39
3289	-5.	7.75	0.	125.04
3290	-4.25	7.5	0.	125.81
3291	-4.5	7.75	0.	125.53
3292	-3.75	7.5	0.	125.97
3293	-4.	7.75	0.	125.79
3294	-4.	7.25	0.	126.12
3295	-3.25	7.5	0.	125.98
3296	-3.5	7.75	0.	125.88
3297	-2.75	7.5	0.	125.9
3298	-3.	7.75	0.	125.86
3299	-2.25	7.5	0.	125.81
3300	-2.5	7.75	0.	125.8
3301	-1.75	7.5	0.	125.71
3302	-2.	7.75	0.	125.72
3303	-1.25	7.5	0.	125.64
3304	-1.5	7.75	0.	125.65
3305	-0.75	7.5	0.	125.57
3306	-1.	7.75	0.	125.59
3307	-0.25	7.5	0.	125.53
3308	-0.5	7.75	0.	125.54
3309	0.25	7.5	0.	125.49
3310	-2.4758e-006	7.75	0.	125.51
3311	-4.7513e-006	7.25	0.	125.51
3312	0.74999	7.5	0.	125.46
3313	0.5	7.75	0.	125.48
3314	1.25	7.5	0.	125.44
3315	1.	7.75	0.	125.45
3316	0.99999	7.25	0.	125.46
3317	1.75	7.5	0.	125.41
3318	1.5	7.75	0.	125.42
3319	2.25	7.5	0.	125.37
3320	2.	7.75	0.	125.39
3321	2.	7.25	0.	125.4
3322	2.75	7.5	0.	125.32
3323	2.5	7.75	0.	125.34
3324	3.25	7.5	0.	125.25
3325	3.	7.75	0.	125.29
3326	3.75	7.5	0.	125.16
3327	3.5	7.75	0.	125.21
3328	4.25	7.5	0.	125.05
3329	4.	7.75	0.	125.12
3330	4.	7.25	0.	125.11
3331	4.75	7.5	0.	124.92
3332	4.5	7.75	0.	125.01
3333	5.25	7.5	0.	124.78
3334	5.	7.75	0.	124.88
3335	5.75	7.5	0.	124.66
3336	5.5	7.75	0.	124.77
3337	6.25	7.5	0.	124.57
3338	6.	7.75	0.	124.67
3339	6.75	7.5	0.	124.53
3340	6.5	7.75	0.	124.61
3341	7.25	7.5	0.	124.56
3342	7.	7.75	0.	124.61
3343	7.5	7.25	0.	124.51
3344	7.5	7.75	0.	124.67
3345	7.75	7.5	0.	124.67
3346	7.5	6.75	0.	124.3
3347	7.75	7.	0.	124.51
3348	7.5	6.25	0.	124.02
3349	7.75	6.5	0.	124.31
3350	7.5	5.75	0.	123.68
3351	7.75	6.	0.	124.05
3352	7.5	5.25	0.	123.23
3353	7.75	5.5	0.	123.72
3354	7.25	5.5	0.	123.38
3355	7.5	4.75	0.	122.66
3356	7.75	5.	0.	123.33
3357	7.5	4.25	0.	121.93
3358	7.75	4.5	0.	122.86
3359	7.5	3.75	0.	120.97
3360	7.75	4.	0.	122.33
3361	7.5	3.25	0.	119.7
3362	7.75	3.5	0.	121.78
3363	5.25	3.5	0.	126.57
3364	5.	3.25	0.	127.76
3365	6.5	3.25	0.	120.13
3366	6.25	3.5	0.	122.17
3367	4.5	2.75	0.	127.03
3368	4.75	3.	0.	127.81
3369	4.	2.25	0.	124.88
3370	4.25	2.5	0.	126.14
3371	4.25	2.	0.	125.19
3372	4.	1.75	0.	123.91
3373	-5.25	1.5	0.	124.68
3374	-5.	1.75	0.	126.31
3375	-4.5	3.25	0.	126.77
3376	-4.75	3.5	0.	127.13
3377	-4.75	2.	0.	127.
3378	-4.5	2.25	0.	127.12
3379	-4.5	5.75	0.	127.45
3380	-4.75	6.	0.	127.46
3381	-4.75	4.5	0.	127.21
3382	-4.5	4.75	0.	126.89
3383	-4.25	4.5	0.	126.35
3384	-5.25	6.5	0.	125.39
3385	-5.	6.25	0.	126.91
3386	-6.75	6.5	0.	121.05
3387	-6.25	6.5	0.	121.13
3388	-6.5	6.25	0.	118.81
3389	-7.25	7.	0.	123.32
3390	-7.	6.75	0.	122.19
3391	-7.5	6.75	0.	124.14
3392	-7.75	7.	0.	124.59
3393	-6.75	1.5	0.	120.34
3394	-6.5	1.75	0.	118.15
3395	-6.25	1.5	0.	120.35
3396	-7.5	-2.25	0.	123.11
3397	-7.5	-2.75	0.	123.12
3398	-7.75	-2.5	0.	123.56
3399	-7.5	-1.75	0.	123.17
3400	-7.75	-2.	0.	123.5
3401	-7.5	-1.25	0.	123.21
3402	-7.75	-1.5	0.	123.5
3403	-7.5	-0.75	0.	123.22
3404	-7.75	-1.	0.	123.52
3405	-7.5	-0.25	0.	123.2
3406	-7.75	-0.5	0.	123.53
3407	-7.5	0.25	0.	123.18
3408	-7.75	-8.3956e-010	0.	123.56
3409	-7.5	0.75	0.	123.21
3410	-7.75	0.5	0.	123.65
3411	-7.5	1.25	0.	123.48
3412	-7.75	1.	0.	123.92
3413	7.5	-4.25	0.	122.65
3414	7.5	-3.75	0.	121.33
3415	7.75	-4.	0.	121.9
3416	7.5	-4.75	0.	123.88
3417	7.75	-4.5	0.	123.29
3418	7.5	-5.25	0.	125.04
3419	7.75	-5.	0.	124.49
3420	7.5	-5.75	0.	125.96
3421	7.25	-5.5	0.	125.67
3422	7.75	-5.5	0.	125.47
3423	7.5	-6.25	0.	126.32
3424	7.75	-6.	0.	126.06
3425	7.25	-6.	0.	126.77
3426	7.5	-7.25	0.	125.29
3427	7.25	-7.5	0.	125.02
3428	7.75	-7.5	0.	125.14
3429	7.5	-7.75	0.	125.48
3430	5.75	-5.5	0.	121.49
3431	5.5	-5.75	0.	119.45
3432	5.25	-5.5	0.	119.72
3433	6.75	-5.5	0.	125.33
3434	7.	-5.75	0.	126.48
3435	3.25	-5.5	0.	126.54
3436	3.	-5.75	0.	127.82
3437	4.5	-5.75	0.	119.66
3438	4.25	-5.5	0.	121.84
3439	4.75	-5.5	0.	119.82
3440	2.75	-6.	0.	128.11
3441	2.5	-6.25	0.	127.63
3442	5.5	-2.75	0.	126.38
3443	5.75	-3.	0.	126.65
3444	7.25	-3.5	0.	121.77
3445	7.75	-3.5	0.	120.27
3446	7.5	-3.25	0.	119.86
3447	4.75	-2.5	0.	125.25
3448	5.25	-2.5	0.	126.25
3449	5.	-2.25	0.	126.38
3450	2.25	1.5	0.	125.87
3451	2.	1.25	0.	127.08
3452	3.75	1.5	0.	122.75
3453	3.5	1.25	0.	120.81
3454	3.25	1.5	0.	122.61
3455	1.5	0.74999	0.	127.11
3456	1.75	0.99999	0.	127.4
3457	1.5	-1.75	0.	127.59
3458	1.75	-2.	0.	127.89
3459	1.5	-0.75	0.	126.38
3460	1.5	-0.25	0.	126.27
3461	1.75	-0.5	0.	126.14
3462	3.25	-2.5	0.	122.39
3463	3.5	-2.25	0.	120.4
3464	3.75	-2.5	0.	122.15
3465	2.	-2.25	0.	127.56
3466	2.25	-2.5	0.	126.29
3467	-4.5	-4.25	0.	127.25
3468	-4.75	-4.	0.	127.11
3469	-4.5	-5.25	0.	126.83
3470	-4.75	-5.5	0.	127.12
3471	-4.25	-5.5	0.	126.4
3472	-5.	-3.75	0.	126.41
3473	-5.25	-3.5	0.	124.76
3474	-6.75	-3.5	0.	120.25
3475	-6.25	-3.5	0.	120.32
3476	-6.5	-3.75	0.	118.07
3477	-7.25	-3.	0.	122.43
3478	-7.	-3.25	0.	121.32
3479	-7.5	-3.25	0.	123.34
3480	-7.75	-3.	0.	123.8
3481	-4.5	-6.75	0.	126.83
3482	-4.75	-6.5	0.	127.11
3483	2.25	-7.5	0.	126.04
3484	2.5	-7.25	0.	126.22
3485	2.5	-7.75	0.	126.32
3486	2.75	-7.5	0.	125.84
3487	1.75	-7.5	0.	126.19
3488	2.	-7.75	0.	126.34
3489	1.25	-7.5	0.	126.37
3490	1.5	-7.75	0.	126.46
3491	0.75	-7.5	0.	126.49
3492	1.	-7.75	0.	126.57
3493	0.25	-7.5	0.	126.56
3494	0.5	-7.75	0.	126.64
3495	-0.25	-7.5	0.	126.59
3496	-5.5152e-012	-7.75	0.	126.67
3497	-0.75	-7.5	0.	126.6
3498	-0.5	-7.75	0.	126.68
3499	-1.25	-7.5	0.	126.58
3500	-1.	-7.75	0.	126.67
3501	-1.75	-7.5	0.	126.55
3502	-1.5	-7.75	0.	126.65
3503	-2.25	-7.5	0.	126.54
3504	-2.	-7.75	0.	126.63
3505	-2.75	-7.5	0.	126.55
3506	-2.5	-7.75	0.	126.63
3507	-3.25	-7.5	0.	126.62
3508	-3.	-7.75	0.	126.67
3509	-3.75	-7.5	0.	126.81
3510	-3.5	-7.75	0.	126.77
3511	-4.	-7.75	0.	126.97
3512	-4.25	-7.5	0.	127.17
3513	-4.75	-7.	0.	127.53
3514	-4.5	-7.25	0.	127.21
3515	-7.25	-3.5	0.	122.24
3516	-7.	-3.75	0.	120.4
3517	-7.75	-3.5	0.	124.42
3518	-7.5	-3.75	0.	124.32
3519	-6.	-3.75	0.	120.55
3520	-5.75	-3.5	0.	122.45
3521	-4.5	-4.75	0.	127.21
3522	-4.75	-5.	0.	127.55
3523	-4.25	-5.	0.	126.79
3524	-4.75	-4.5	0.	127.8
3525	3.	-2.25	0.	122.7
3526	2.75	-2.5	0.	124.33
3527	1.5	-1.25	0.	127.06
3528	1.75	-1.	0.	127.15
3529	1.75	-1.5	0.	128.07
3530	1.5	0.25	0.	126.75
3531	1.75	0.5	0.	127.72
3532	1.25	0.49999	0.	126.78
3533	1.75	-2.4656e-006	0.	126.96
3534	2.5	1.25	0.	125.98
3535	2.75	1.5	0.	124.2
3536	4.5	-2.25	0.	125.35
3537	4.25	-2.5	0.	123.62
3538	6.75	-3.5	0.	123.91
3539	6.5	-3.25	0.	125.86
3540	6.25	-3.5	0.	125.24
3541	7.	-3.25	0.	123.05
3542	5.75	-2.5	0.	127.2
3543	5.5	-2.25	0.	126.41
3544	2.75	-7.	0.	126.92
3545	2.5	-6.75	0.	126.96
3546	3.5	-5.75	0.	126.79
3547	3.75	-5.5	0.	124.56
3548	6.25	-5.5	0.	123.83
3549	6.5	-5.75	0.	125.87
3550	6.5	-5.25	0.	124.49
3551	6.	-5.75	0.	122.89
3552	7.5	-6.75	0.	125.89
3553	7.75	-7.	0.	125.39
3554	7.25	-7.	0.	125.99
3555	7.75	-6.5	0.	126.
3556	7.25	-6.5	0.	127.05
3557	-7.25	1.5	0.	122.38
3558	-7.75	1.5	0.	124.58
3559	-7.5	1.75	0.	124.5
3560	-7.	1.75	0.	120.55
3561	-7.25	6.5	0.	123.
3562	-7.	6.25	0.	121.12
3563	-7.75	6.5	0.	125.12
3564	-7.5	6.25	0.	125.01
3565	-5.75	6.5	0.	123.21
3566	-5.5	6.25	0.	125.25
3567	-6.	6.25	0.	121.3
3568	-4.75	5.5	0.	128.04
3569	-4.5	5.25	0.	127.32
3570	-4.75	3.	0.	127.52
3571	-4.5	2.75	0.	127.11
3572	-5.5	1.75	0.	124.53
3573	-5.75	1.5	0.	122.42
3574	4.5	2.25	0.	126.45
3575	4.75	2.5	0.	128.01
3576	4.5	1.75	0.	126.
3577	4.75	2.	0.	127.11
3578	5.5	3.25	0.	127.13
3579	5.75	3.5	0.	124.83
3580	-5.	-5.25	0.	127.83
3581	-5.25	-5.5	0.	129.37
3582	4.25	-6.	0.	121.21
3583	4.5	-6.25	0.	117.43
3584	-5.25	4.5	0.	129.63
3585	-5.	4.75	0.	128.04
3586	6.25	3.	0.	121.88
3587	6.5	2.75	0.	118.19
3588	5.5	-0.75	0.	127.15
3589	5.75	-1.	0.	126.09
3590	5.25	-1.	0.	127.16
3591	5.5	-1.25	0.	126.17
3592	4.25	1.5	0.	124.72
3593	4.	1.25	0.	123.19
3594	4.75	1.5	0.	126.72
3595	4.5	1.25	0.	127.04
3596	7.25	-7.2281e-012	0.	115.97
3597	7.5	-0.25	0.	114.22
3598	7.5	0.25	0.	114.24
3599	7.75	-8.1951e-013	0.	116.17
3600	7.75	3.	0.	121.23
3601	7.5	2.75	0.	117.59
3602	2.25	-8.	0.	126.63
3603	2.75	-8.	0.	127.07
3604	2.5	-8.25	0.	127.29
3605	1.75	-8.	0.	126.61
3606	2.	-8.25	0.	127.01
3607	1.25	-8.	0.	126.66
3608	1.5	-8.25	0.	126.92
3609	0.75	-8.	0.	126.72
3610	1.	-8.25	0.	126.9
3611	0.25	-8.	0.	126.75
3612	0.5	-8.25	0.	126.89
3613	-0.25	-8.	0.	126.76
3614	-3.6967e-012	-8.25	0.	126.87
3615	-0.75	-8.	0.	126.75
3616	-0.5	-8.25	0.	126.85
3617	-1.	-8.25	0.	126.83
3618	-1.25	-8.	0.	126.74
3619	-2.25	-8.	0.	126.73
3620	-2.	-8.25	0.	126.81
3621	-1.75	-8.	0.	126.73
3622	-2.75	-8.	0.	126.76
3623	-2.5	-8.25	0.	126.81
3624	-3.25	-8.	0.	126.82
3625	-3.	-8.25	0.	126.83
3626	-3.75	-8.	0.	126.94
3627	-3.5	-8.25	0.	126.87
3628	-4.25	-8.	0.	127.08
3629	-4.	-8.25	0.	126.9
3630	-4.75	-8.	0.	127.09
3631	-4.5	-8.25	0.	126.82
3632	-4.5	-7.75	0.	127.27
3633	-8.	-6.25	0.	127.67
3634	-8.25	-6.5	0.	126.9
3635	-7.75	-6.5	0.	129.21
3636	-8.	-6.75	0.	127.63
3637	-8.	-5.75	0.	127.68
3638	-8.25	-6.	0.	127.08
3639	-7.75	-6.	0.	130.32
3640	-8.	-3.25	0.	124.88
3641	-8.	-3.75	0.	126.03
3642	-8.25	-3.5	0.	125.59
3643	-8.	-2.75	0.	124.24
3644	-8.25	-3.	0.	124.84
3645	-8.	-2.25	0.	123.95
3646	-8.25	-2.5	0.	124.42
3647	-8.	-1.75	0.	123.84
3648	-8.25	-2.	0.	124.22
3649	-8.	-1.25	0.	123.81
3650	-8.25	-1.5	0.	124.14
3651	-8.	-0.75	0.	123.83
3652	-8.25	-1.	0.	124.13
3653	-8.	-0.25	0.	123.89
3654	-8.25	-0.5	0.	124.17
3655	-8.	0.25	0.	124.03
3656	-8.25	-4.3332e-010	0.	124.29
3657	-8.	0.75	0.	124.36
3658	-8.25	0.5	0.	124.52
3659	-8.	1.25	0.	125.03
3660	-8.25	1.	0.	124.98
3661	-8.	1.75	0.	126.22
3662	-8.25	1.5	0.	125.77
3663	-8.	3.75	0.	128.04
3664	-8.25	3.5	0.	127.23
3665	-7.75	3.5	0.	129.6
3666	-8.	3.25	0.	127.97
3667	-8.	4.25	0.	128.09
3668	-7.75	4.	0.	130.73
3669	-8.25	4.	0.	127.45
3670	-8.	6.75	0.	125.56
3671	-8.	6.25	0.	126.65
3672	-8.25	6.5	0.	126.19
3673	-8.	7.25	0.	125.
3674	-8.25	7.	0.	125.48
3675	-8.	7.75	0.	124.78
3676	-8.25	7.5	0.	125.11
3677	-7.75	8.	0.	124.48
3678	-8.	8.25	0.	124.71
3679	-8.25	8.	0.	124.93
3680	-7.25	8.	0.	124.04
3681	-7.5	8.25	0.	124.32
3682	-6.75	8.	0.	123.77
3683	-7.	8.25	0.	124.01
3684	-6.25	8.	0.	123.82
3685	-6.5	8.25	0.	123.92
3686	-5.75	8.	0.	124.18
3687	-6.	8.25	0.	124.1
3688	-5.25	8.	0.	124.69
3689	-5.5	8.25	0.	124.49
3690	-4.75	8.	0.	125.18
3691	-5.	8.25	0.	124.94
3692	-4.25	8.	0.	125.52
3693	-4.5	8.25	0.	125.3
3694	-3.75	8.	0.	125.7
3695	-4.	8.25	0.	125.54
3696	-3.25	8.	0.	125.77
3697	-3.5	8.25	0.	125.66
3698	-2.75	8.	0.	125.76
3699	-3.	8.25	0.	125.7
3700	-2.25	8.	0.	125.71
3701	-2.5	8.25	0.	125.68
3702	-1.75	8.	0.	125.66
3703	-2.	8.25	0.	125.65
3704	-1.25	8.	0.	125.61
3705	-1.5	8.25	0.	125.61
3706	-0.75	8.	0.	125.56
3707	-1.	8.25	0.	125.58
3708	-0.25	8.	0.	125.52
3709	-0.5	8.25	0.	125.54
3710	0.25	8.	0.	125.49
3711	-1.3817e-006	8.25	0.	125.51
3712	0.75	8.	0.	125.46
3713	0.5	8.25	0.	125.49
3714	1.25	8.	0.	125.43
3715	1.	8.25	0.	125.46
3716	1.75	8.	0.	125.4
3717	1.5	8.25	0.	125.43
3718	2.25	8.	0.	125.36
3719	2.	8.25	0.	125.39
3720	2.75	8.	0.	125.31
3721	2.5	8.25	0.	125.34
3722	3.25	8.	0.	125.25
3723	3.	8.25	0.	125.29
3724	3.5	8.25	0.	125.22
3725	3.75	8.	0.	125.17
3726	4.75	8.	0.	124.97
3727	4.5	8.25	0.	125.05
3728	4.25	8.	0.	125.07
3729	5.25	8.	0.	124.87
3730	5.	8.25	0.	124.95
3731	5.75	8.	0.	124.78
3732	5.5	8.25	0.	124.86
3733	6.	8.25	0.	124.79
3734	6.25	8.	0.	124.72
3735	7.25	8.	0.	124.71
3736	7.	8.25	0.	124.75
3737	6.75	8.	0.	124.69
3738	7.75	8.	0.	124.78
3739	7.5	8.25	0.	124.79
3740	8.	7.75	0.	124.78
3741	8.25	8.	0.	124.88
3742	8.	8.25	0.	124.86
3743	8.	7.25	0.	124.67
3744	8.25	7.5	0.	124.82
3745	8.	6.75	0.	124.52
3746	8.25	7.	0.	124.73
3747	8.	6.25	0.	124.33
3748	8.25	6.5	0.	124.61
3749	8.	5.75	0.	124.1
3750	8.25	6.	0.	124.47
3751	8.	5.25	0.	123.82
3752	8.25	5.5	0.	124.3
3753	8.	4.75	0.	123.52
3754	8.25	5.	0.	124.13
3755	8.	4.25	0.	123.26
3756	8.25	4.5	0.	124.01
3757	8.	3.75	0.	123.13
3758	8.25	4.	0.	124.05
3759	8.	3.25	0.	123.3
3760	8.25	3.5	0.	124.46
3761	7.	-7.25	0.	125.71
3762	7.	-7.75	0.	125.84
3763	6.75	-7.5	0.	126.66
3764	8.	-3.25	0.	118.85
3765	7.75	-3.	0.	118.41
3766	8.25	-3.	0.	118.9
3767	8.	-2.75	0.	117.62
3768	8.	-3.75	0.	120.85
3769	8.25	-3.5	0.	120.73
3770	8.	-4.25	0.	122.54
3771	8.25	-4.	0.	122.35
3772	8.	-4.75	0.	123.89
3773	8.25	-4.5	0.	123.68
3774	8.	-5.25	0.	124.93
3775	8.25	-5.	0.	124.7
3776	8.	-5.75	0.	125.57
3777	8.25	-5.5	0.	125.4
3778	8.	-6.25	0.	125.74
3779	8.25	-6.	0.	125.71
3780	8.	-6.75	0.	125.5
3781	8.25	-6.5	0.	125.62
3782	8.	-7.25	0.	125.23
3783	8.25	-7.	0.	125.33
3784	8.	-7.75	0.	125.42
3785	8.25	-7.5	0.	125.25
3786	7.75	-8.	0.	125.76
3787	8.	-8.25	0.	126.08
3788	8.25	-8.	0.	125.66
3789	7.25	-8.	0.	126.31
3790	7.5	-8.25	0.	126.46
3791	-5.	-6.75	0.	127.8
3792	-5.25	-6.5	0.	129.33
3793	-5.25	-8.	0.	126.1
3794	-5.	-7.75	0.	127.59
3795	-5.	-8.25	0.	126.34
3796	-8.	-7.75	0.	127.24
3797	-7.75	-8.	0.	125.74
3798	-8.25	-8.	0.	126.62
3799	-8.	-8.25	0.	125.89
3800	-8.	-5.25	0.	127.66
3801	-8.25	-5.5	0.	126.91
3802	-7.75	-5.5	0.	129.25
3803	-7.75	-4.	0.	125.92
3804	-8.	-4.25	0.	127.34
3805	-8.25	-4.	0.	126.67
3806	-6.25	-4.	0.	118.26
3807	-6.75	-4.	0.	118.19
3808	-6.5	-4.25	0.	112.78
3809	-5.	-4.25	0.	127.66
3810	-5.25	-4.	0.	126.23
3811	3.25	-2.	0.	120.68
3812	3.5	-1.75	0.	115.91
3813	3.75	-2.	0.	120.51
3814	2.	-1.75	0.	128.37
3815	2.25	-2.	0.	127.47
3816	2.	-0.25	0.	126.82
3817	2.	-0.75	0.	126.91
3818	2.25	-0.5	0.	127.93
3819	2.25	1.	0.	127.18
3820	2.	0.75	0.	128.
3821	3.75	1.	0.	121.23
3822	3.25	1.	0.	120.96
3823	3.5	0.75	0.	116.35
3824	4.75	-2.	0.	126.46
3825	5.	-1.75	0.	127.29
3826	5.25	-2.	0.	126.53
3827	6.	-1.25	0.	125.17
3828	6.25	-1.5	0.	125.98
3829	6.	-1.75	0.	125.5
3830	5.75	-1.5	0.	125.26
3831	7.25	-3.	0.	121.13
3832	7.5	-2.75	0.	117.61
3833	6.	-2.75	0.	127.47
3834	6.25	-3.	0.	126.96
3835	6.	-3.25	0.	126.36
3836	3.	-7.25	0.	126.53
3837	3.	-7.75	0.	126.58
3838	3.25	-7.5	0.	127.34
3839	3.25	-6.	0.	128.06
3840	3.	-6.25	0.	128.63
3841	5.75	-6.	0.	120.85
3842	5.5	-6.25	0.	117.22
3843	7.	-6.25	0.	127.5
3844	6.75	-6.	0.	127.
3845	-6.25	2.	0.	118.31
3846	-6.75	2.	0.	118.33
3847	-6.5	2.25	0.	112.89
3848	-8.	2.25	0.	127.56
3849	-7.75	2.	0.	126.13
3850	-8.25	2.	0.	126.88
3851	-8.	4.75	0.	128.13
3852	-8.25	4.5	0.	127.33
3853	-7.75	4.5	0.	129.68
3854	-7.75	6.	0.	126.54
3855	-8.	5.75	0.	127.91
3856	-8.25	6.	0.	127.23
3857	-6.25	6.	0.	118.95
3858	-6.75	6.	0.	118.85
3859	-6.5	5.75	0.	113.38
3860	-5.	5.75	0.	128.05
3861	-5.25	6.	0.	126.76
3862	-5.	3.25	0.	127.88
3863	-5.25	3.5	0.	129.46
3864	-5.25	2.	0.	126.17
3865	-5.	2.25	0.	127.6
3866	5.	1.75	0.	127.83
3867	5.25	1.5	0.	129.39
3868	5.	1.25	0.	129.07
3869	5.25	3.	0.	128.31
3870	5.	2.75	0.	128.79
3871	5.25	-0.5	0.	128.05
3872	5.	-0.75	0.	128.06
3873	4.75	-0.5	0.	129.67
3874	5.	-0.25	0.	129.78
3875	5.5	-0.25	0.	129.22
3876	5.75	-0.5	0.	127.44
3877	6.25	-1.6113e-010	0.	124.59
3878	6.	0.25	0.	127.4
3879	5.75	-8.3629e-010	0.	128.83
3880	6.	-0.25	0.	127.04
3881	5.75	3.	0.	126.21
3882	6.	2.75	0.	125.19
3883	6.	3.25	0.	123.92
3884	5.5	2.75	0.	130.14
3885	5.	2.25	0.	128.67
3886	5.25	2.5	0.	130.61
3887	5.25	2.	0.	129.66
3888	-5.75	2.	0.	122.67
3889	-6.	2.25	0.	120.31
3890	-6.	1.75	0.	120.55
3891	-5.5	2.25	0.	127.24
3892	-5.	2.75	0.	128.13
3893	-5.25	2.5	0.	128.66
3894	-4.75	2.5	0.	127.72
3895	-5.25	3.	0.	128.5
3896	-5.25	5.5	0.	129.1
3897	-5.	5.25	0.	128.43
3898	-5.75	6.	0.	123.35
3899	-5.5	5.75	0.	127.83
3900	-6.	5.75	0.	120.99
3901	-7.25	6.	0.	123.14
3902	-7.	5.75	0.	120.73
3903	-7.5	5.75	0.	127.65
3904	-8.	5.25	0.	128.42
3905	-8.25	5.5	0.	127.95
3906	-7.75	5.5	0.	129.
3907	-8.25	5.	0.	127.75
3908	-7.75	5.	0.	128.81
3909	-8.25	2.5	0.	127.68
3910	-7.75	2.5	0.	128.69
3911	-8.	2.75	0.	128.16
3912	-7.25	2.	0.	122.69
3913	-7.5	2.25	0.	127.28
3914	-7.	2.25	0.	120.38
3915	7.	-6.75	0.	127.14
3916	6.75	-7.	0.	127.71
3917	6.75	-6.5	0.	129.07
3918	6.	-6.25	0.	123.76
3919	6.25	-6.	0.	124.92
3920	3.75	-6.	0.	125.62
3921	4.	-6.25	0.	124.24
3922	4.	-5.75	0.	123.4
3923	3.5	-6.25	0.	129.43
3924	3.	-6.75	0.	128.1
3925	3.25	-6.5	0.	129.99
3926	2.75	-6.5	0.	128.15
3927	3.25	-7.	0.	128.52
3928	6.25	-2.5	0.	129.01
3929	6.	-2.25	0.	127.13
3930	7.	-2.75	0.	123.88
3931	6.75	-3.	0.	124.99
3932	6.75	-5.5642e-011	0.	119.55
3933	7.	-0.25	0.	118.7
3934	7.	0.25	0.	116.79
3935	6.5	-0.25	0.	124.5
3936	6.5	0.25	0.	120.02
3937	6.25	-1.	0.	126.4
3938	6.	-0.75	0.	126.38
3939	4.5	-1.75	0.	128.06
3940	4.25	-2.	0.	124.01
3941	5.	-1.25	0.	127.84
3942	4.75	-1.5	0.	128.88
3943	5.25	-1.5	0.	126.86
3944	4.75	-1.	0.	129.09
3945	4.75	0.5	0.	132.9
3946	5.25	0.5	0.	133.88
3947	5.	0.25	0.	132.2
3948	5.	0.75	0.	131.85
3949	4.25	1.	0.	125.51
3950	4.5	0.75	0.	130.44
3951	4.75	1.	0.	129.38
3952	4.	0.75	0.	123.52
3953	2.75	1.	0.	124.55
3954	3.	0.75	0.	122.86
3955	3.	1.25	0.	122.77
3956	2.5	0.75	0.	128.55
3957	2.	0.25	0.	127.92
3958	2.25	0.5	0.	129.36
3959	2.25	-1.2743e-006	0.	128.57
3960	2.	-1.25	0.	128.16
3961	2.25	-1.	0.	128.74
3962	2.25	-1.5	0.	129.56
3963	3.	-1.75	0.	122.63
3964	2.75	-2.	0.	124.58
3965	-5.	-4.75	0.	128.14
3966	-5.25	-5.	0.	128.43
3967	-5.25	-4.5	0.	128.67
3968	-6.	-4.25	0.	120.31
3969	-5.75	-4.	0.	122.69
3970	-7.25	-4.	0.	122.49
3971	-7.	-4.25	0.	120.15
3972	-7.5	-4.25	0.	127.04
3973	-8.	-4.75	0.	127.9
3974	-8.25	-4.5	0.	127.44
3975	-7.75	-4.5	0.	128.44
3976	-8.25	-5.	0.	127.28
3977	-7.75	-5.	0.	128.3
3978	-8.25	-7.5	0.	127.4
3979	-7.75	-7.5	0.	128.32
3980	-8.	-7.25	0.	127.84
3981	-7.5	-8.25	0.	124.06
3982	-7.5	-7.75	0.	126.85
3983	-7.25	-8.	0.	122.24
3984	-5.75	-8.	0.	122.48
3985	-6.	-8.25	0.	120.26
3986	-6.	-7.75	0.	120.09
3987	-6.25	-8.	0.	118.01
3988	-5.5	-8.25	0.	124.39
3989	-5.5	-7.75	0.	127.1
3990	-5.	-7.25	0.	128.08
3991	-5.25	-7.5	0.	128.57
3992	-4.75	-7.5	0.	127.77
3993	-5.25	-7.	0.	128.36
3994	7.	-8.25	0.	127.54
3995	6.75	-8.	0.	127.94
3996	8.25	3.	0.	125.57
3997	8.	2.75	0.	124.14
3998	8.5	7.75	0.	124.92
3999	8.5	8.25	0.	124.95
4000	8.75	8.	0.	125.
4001	8.5	7.25	0.	124.88
4002	8.75	7.5	0.	124.99
4003	8.5	6.75	0.	124.82
4004	8.75	7.	0.	124.99
4005	8.5	6.25	0.	124.75
4006	8.75	6.5	0.	124.98
4007	8.5	5.75	0.	124.67
4008	8.75	6.	0.	124.98
4009	8.5	5.25	0.	124.61
4010	8.75	5.5	0.	124.99
4011	8.5	4.75	0.	124.61
4012	8.75	5.	0.	125.05
4013	8.5	4.25	0.	124.8
4014	8.75	4.5	0.	125.22
4015	8.5	3.75	0.	125.37
4016	8.75	4.	0.	125.64
4017	8.5	3.25	0.	126.72
4018	8.75	3.5	0.	126.5
4019	8.75	3.	0.	128.1
4020	8.5	2.75	0.	129.47
4021	-7.75	8.5	0.	124.56
4022	-8.25	8.5	0.	124.85
4023	-8.	8.75	0.	124.7
4024	-7.25	8.5	0.	124.3
4025	-7.5	8.75	0.	124.46
4026	-6.75	8.5	0.	124.16
4027	-7.	8.75	0.	124.29
4028	-6.25	8.5	0.	124.2
4029	-6.5	8.75	0.	124.25
4030	-5.75	8.5	0.	124.42
4031	-6.	8.75	0.	124.37
4032	-5.25	8.5	0.	124.74
4033	-5.5	8.75	0.	124.61
4034	-4.75	8.5	0.	125.06
4035	-5.	8.75	0.	124.9
4036	-4.25	8.5	0.	125.33
4037	-4.5	8.75	0.	125.16
4038	-3.75	8.5	0.	125.5
4039	-4.	8.75	0.	125.36
4040	-3.25	8.5	0.	125.59
4041	-3.5	8.75	0.	125.49
4042	-2.75	8.5	0.	125.62
4043	-3.	8.75	0.	125.56
4044	-2.25	8.5	0.	125.62
4045	-2.5	8.75	0.	125.59
4046	-1.75	8.5	0.	125.61
4047	-2.	8.75	0.	125.6
4048	-1.25	8.5	0.	125.58
4049	-1.5	8.75	0.	125.59
4050	-0.75	8.5	0.	125.56
4051	-1.	8.75	0.	125.58
4052	-0.25	8.5	0.	125.53
4053	-0.5	8.75	0.	125.56
4054	0.25	8.5	0.	125.51
4055	-7.8283e-007	8.75	0.	125.54
4056	0.75	8.5	0.	125.48
4057	0.5	8.75	0.	125.52
4058	1.25	8.5	0.	125.45
4059	1.	8.75	0.	125.49
4060	1.75	8.5	0.	125.41
4061	1.5	8.75	0.	125.45
4062	2.25	8.5	0.	125.37
4063	2.	8.75	0.	125.41
4064	2.75	8.5	0.	125.32
4065	2.5	8.75	0.	125.36
4066	3.25	8.5	0.	125.26
4067	3.	8.75	0.	125.3
4068	3.75	8.5	0.	125.19
4069	3.5	8.75	0.	125.24
4070	4.25	8.5	0.	125.11
4071	4.	8.25	0.	125.14
4072	4.	8.75	0.	125.16
4073	4.75	8.5	0.	125.03
4074	4.5	8.75	0.	125.09
4075	5.25	8.5	0.	124.95
4076	5.	8.75	0.	125.01
4077	5.75	8.5	0.	124.88
4078	5.5	8.75	0.	124.94
4079	6.25	8.5	0.	124.83
4080	6.	8.75	0.	124.89
4081	6.75	8.5	0.	124.81
4082	6.5	8.75	0.	124.85
4083	6.5	8.25	0.	124.75
4084	7.25	8.5	0.	124.82
4085	7.	8.75	0.	124.85
4086	7.75	8.5	0.	124.86
4087	7.5	8.75	0.	124.87
4088	8.25	8.5	0.	124.93
4089	8.	8.75	0.	124.91
4090	8.5	8.75	0.	124.96
4091	8.75	8.5	0.	125.
4092	-8.5	-7.75	0.	126.79
4093	-8.5	-8.25	0.	126.25
4094	-8.75	-8.	0.	126.48
4095	-8.5	-7.25	0.	126.82
4096	-8.75	-7.5	0.	126.64
4097	-8.5	-6.75	0.	126.53
4098	-8.75	-7.	0.	126.35
4099	-8.25	-7.	0.	127.26
4100	-8.5	-6.25	0.	126.31
4101	-8.75	-6.5	0.	126.01
4102	-8.5	-5.75	0.	126.3
4103	-8.75	-6.	0.	125.86
4104	-8.5	-5.25	0.	126.52
4105	-8.75	-5.5	0.	125.98
4106	-8.5	-4.75	0.	126.81
4107	-8.75	-5.	0.	126.3
4108	-8.5	-4.25	0.	126.77
4109	-8.75	-4.5	0.	126.58
4110	-8.75	-4.	0.	126.4
4111	-8.5	-3.75	0.	126.24
4112	-8.5	-2.75	0.	125.02
4113	-8.75	-3.	0.	125.43
4114	-8.5	-3.25	0.	125.56
4115	-8.5	-2.25	0.	124.69
4116	-8.75	-2.5	0.	125.08
4117	-8.5	-1.75	0.	124.52
4118	-8.75	-2.	0.	124.87
4119	-8.5	-1.25	0.	124.46
4120	-8.75	-1.5	0.	124.77
4121	-8.5	-0.75	0.	124.48
4122	-8.75	-1.	0.	124.75
4123	-8.5	-0.25	0.	124.57
4124	-8.75	-0.5	0.	124.81
4125	-8.5	0.25	0.	124.78
4126	-8.75	-2.203e-010	0.	124.94
4127	-8.5	0.75	0.	125.14
4128	-8.75	0.5	0.	125.19
4129	-8.5	1.25	0.	125.72
4130	-8.75	1.	0.	125.58
4131	-8.5	1.75	0.	126.44
4132	-8.75	1.5	0.	126.11
4133	-8.5	2.25	0.	127.
4134	-8.75	2.	0.	126.63
4135	-8.5	2.75	0.	127.07
4136	-8.75	2.5	0.	126.83
4137	-8.5	3.25	0.	126.82
4138	-8.75	3.	0.	126.59
4139	-8.25	3.	0.	127.56
4140	-8.75	3.5	0.	126.3
4141	-8.5	3.75	0.	126.64
4142	-8.5	4.75	0.	126.95
4143	-8.75	4.5	0.	126.38
4144	-8.5	4.25	0.	126.68
4145	-8.5	5.25	0.	127.28
4146	-8.75	5.	0.	126.75
4147	-8.5	5.75	0.	127.28
4148	-8.75	5.5	0.	127.05
4149	-8.5	6.25	0.	126.77
4150	-8.75	6.	0.	126.89
4151	-8.5	6.75	0.	126.11
4152	-8.75	6.5	0.	126.41
4153	-8.5	7.25	0.	125.59
4154	-8.75	7.	0.	125.92
4155	-8.5	7.75	0.	125.26
4156	-8.75	7.5	0.	125.55
4157	-8.5	8.25	0.	125.07
4158	-8.75	8.	0.	125.29
4159	-8.75	8.5	0.	125.12
4160	-8.5	8.75	0.	124.94
4161	3.	-8.25	0.	128.24
4162	3.25	-8.	0.	128.56
4163	8.25	-8.5	0.	126.33
4164	8.	-8.75	0.	126.81
4165	7.75	-8.5	0.	126.78
4166	7.	-8.75	0.	128.19
4167	6.75	-8.5	0.	129.33
4168	7.25	-8.5	0.	127.7
4169	2.75	-8.5	0.	128.46
4170	3.	-8.75	0.	128.9
4171	3.25	-8.5	0.	129.97
4172	2.25	-8.5	0.	127.67
4173	2.5	-8.75	0.	128.2
4174	1.75	-8.5	0.	127.33
4175	2.	-8.75	0.	127.77
4176	1.25	-8.5	0.	127.17
4177	1.5	-8.75	0.	127.5
4178	0.75	-8.5	0.	127.08
4179	1.	-8.75	0.	127.33
4180	0.25	-8.5	0.	127.02
4181	0.5	-8.75	0.	127.2
4182	-0.25	-8.5	0.	126.97
4183	-2.4069e-012	-8.75	0.	127.11
4184	-0.75	-8.5	0.	126.93
4185	-0.5	-8.75	0.	127.04
4186	-1.25	-8.5	0.	126.91
4187	-1.	-8.75	0.	127.
4188	-1.5	-8.75	0.	126.97
4189	-1.75	-8.5	0.	126.89
4190	-1.5	-8.25	0.	126.82
4191	-2.75	-8.5	0.	126.89
4192	-2.5	-8.75	0.	126.93
4193	-2.25	-8.5	0.	126.89
4194	-3.25	-8.5	0.	126.88
4195	-3.	-8.75	0.	126.9
4196	-3.75	-8.5	0.	126.83
4197	-3.5	-8.75	0.	126.83
4198	-4.25	-8.5	0.	126.64
4199	-4.	-8.75	0.	126.63
4200	-4.75	-8.5	0.	126.06
4201	-4.5	-8.75	0.	126.18
4202	-5.25	-8.5	0.	124.61
4203	-5.	-8.75	0.	125.21
4204	-5.75	-8.5	0.	122.17
4205	-5.5	-8.75	0.	123.37
4206	-6.25	-8.5	0.	119.97
4207	-6.	-8.75	0.	121.08
4208	-6.75	-8.5	0.	119.87
4209	-6.5	-8.25	0.	117.74
4210	-6.5	-8.75	0.	119.88
4211	-7.25	-8.5	0.	121.91
4212	-7.	-8.25	0.	120.08
4213	-7.	-8.75	0.	120.89
4214	-7.75	-8.5	0.	124.2
4215	-7.5	-8.75	0.	123.01
4216	-8.25	-8.5	0.	125.52
4217	-8.	-8.75	0.	124.7
4218	-8.5	-8.75	0.	125.58
4219	-8.75	-8.5	0.	126.02
4220	8.5	-3.25	0.	120.82
4221	8.75	-3.	0.	122.68
4222	8.5	-2.75	0.	118.87
4223	8.75	-3.5	0.	123.28
4224	8.5	-3.75	0.	122.25
4225	8.5	-4.75	0.	124.49
4226	8.75	-4.5	0.	124.79
4227	8.5	-4.25	0.	123.5
4228	8.5	-5.25	0.	125.17
4229	8.75	-5.	0.	125.32
4230	8.5	-5.75	0.	125.54
4231	8.75	-5.5	0.	125.62
4232	8.5	-6.25	0.	125.59
4233	8.75	-6.	0.	125.69
4234	8.5	-6.75	0.	125.45
4235	8.75	-6.5	0.	125.56
4236	8.5	-7.25	0.	125.34
4237	8.75	-7.	0.	125.39
4238	8.5	-7.75	0.	125.49
4239	8.75	-7.5	0.	125.38
4240	8.5	-8.25	0.	125.92
4241	8.75	-8.	0.	125.64
4242	8.75	-8.5	0.	126.07
4243	8.5	-8.75	0.	126.42
4244	9.	-3.75	0.	125.1
4245	9.	-3.25	0.	125.15
4246	9.25	-3.5	0.	126.93
4247	9.	-4.25	0.	125.37
4248	9.25	-4.	0.	126.57
4249	8.75	-4.	0.	124.07
4250	9.	-4.75	0.	125.63
4251	9.25	-4.5	0.	126.37
4252	9.	-5.25	0.	125.77
4253	9.25	-5.	0.	126.21
4254	9.	-5.75	0.	125.77
4255	9.25	-5.5	0.	126.03
4256	9.	-6.25	0.	125.66
4257	9.25	-6.	0.	125.8
4258	9.	-6.75	0.	125.5
4259	9.25	-6.5	0.	125.56
4260	9.	-7.25	0.	125.42
4261	9.25	-7.	0.	125.39
4262	9.	-7.75	0.	125.52
4263	9.25	-7.5	0.	125.37
4264	9.	-8.25	0.	125.79
4265	9.25	-8.	0.	125.55
4266	9.	-8.75	0.	126.14
4267	9.25	-8.5	0.	125.86
4268	8.25	-9.	0.	126.89
4269	8.75	-9.	0.	126.49
4270	8.5	-9.25	0.	126.82
4271	8.	-9.25	0.	127.26
4272	7.75	-9.	0.	127.38
4273	7.	-9.25	0.	127.62
4274	7.25	-9.	0.	127.85
4275	6.75	-9.	0.	127.45
4276	3.75	-9.	0.	125.01
4277	4.	-8.75	0.	123.39
4278	4.	-9.25	0.	122.32
4279	4.25	-9.	0.	120.05
4280	3.25	-9.	0.	128.09
4281	3.5	-8.75	0.	129.17
4282	3.5	-9.25	0.	126.58
4283	2.75	-9.	0.	128.65
4284	3.	-9.25	0.	128.35
4285	2.25	-9.	0.	128.31
4286	2.5	-9.25	0.	128.52
4287	1.75	-9.	0.	127.95
4288	2.	-9.25	0.	128.29
4289	1.25	-9.	0.	127.66
4290	1.5	-9.25	0.	127.97
4291	0.75	-9.	0.	127.45
4292	1.	-9.25	0.	127.69
4293	0.5	-9.25	0.	127.47
4294	0.25	-9.	0.	127.29
4295	-1.75	-9.	0.	127.02
4296	-1.5	-9.25	0.	127.08
4297	-1.25	-9.	0.	127.05
4298	-2.25	-9.	0.	126.99
4299	-2.	-9.25	0.	127.05
4300	-2.	-8.75	0.	126.95
4301	-2.75	-9.	0.	126.95
4302	-2.5	-9.25	0.	127.
4303	-3.25	-9.	0.	126.85
4304	-3.	-9.25	0.	126.91
4305	-3.75	-9.	0.	126.63
4306	-3.5	-9.25	0.	126.73
4307	-4.25	-9.	0.	126.18
4308	-4.	-9.25	0.	126.36
4309	-4.75	-9.	0.	125.33
4310	-4.5	-9.25	0.	125.68
4311	-5.	-9.25	0.	124.58
4312	-5.25	-9.	0.	123.97
4313	-7.75	-9.	0.	123.52
4314	-7.5	-9.25	0.	122.7
4315	-7.25	-9.	0.	121.99
4316	-8.25	-9.	0.	124.76
4317	-8.	-9.25	0.	124.05
4318	-8.5	-9.25	0.	125.07
4319	-8.75	-9.	0.	125.57
4320	-9.	-7.75	0.	126.34
4321	-9.25	-8.	0.	126.26
4322	-9.	-8.25	0.	126.25
4323	-9.	-7.25	0.	126.16
4324	-9.25	-7.5	0.	126.07
4325	-9.	-6.75	0.	125.82
4326	-9.25	-7.	0.	125.7
4327	-9.	-6.25	0.	125.56
4328	-9.25	-6.5	0.	125.32
4329	-9.	-5.75	0.	125.55
4330	-9.25	-6.	0.	125.16
4331	-9.25	-5.5	0.	125.27
4332	-9.	-5.25	0.	125.77
4333	-9.	-4.25	0.	126.21
4334	-9.25	-4.5	0.	125.92
4335	-9.	-4.75	0.	126.07
4336	-9.	-3.75	0.	126.08
4337	-9.25	-4.	0.	126.05
4338	-9.	-3.25	0.	125.79
4339	-9.25	-3.5	0.	125.96
4340	-8.75	-3.5	0.	125.92
4341	-9.	-2.75	0.	125.49
4342	-9.25	-3.	0.	125.76
4343	-9.	-2.25	0.	125.26
4344	-9.25	-2.5	0.	125.56
4345	-9.	-1.75	0.	125.12
4346	-9.25	-2.	0.	125.41
4347	-9.	-1.25	0.	125.06
4348	-9.25	-1.5	0.	125.33
4349	-9.	-0.75	0.	125.08
4350	-9.25	-1.	0.	125.31
4351	-9.	-0.25	0.	125.18
4352	-9.25	-0.5	0.	125.37
4353	-9.	0.25	0.	125.36
4354	-9.25	-1.1056e-010	0.	125.5
4355	-9.	0.75	0.	125.63
4356	-9.25	0.5	0.	125.69
4357	-9.	1.25	0.	125.97
4358	-9.25	1.	0.	125.93
4359	-9.	1.75	0.	126.29
4360	-9.25	1.5	0.	126.17
4361	-9.	2.25	0.	126.45
4362	-9.25	2.	0.	126.29
4363	-9.	2.75	0.	126.35
4364	-9.25	2.5	0.	126.2
4365	-9.	3.25	0.	126.07
4366	-9.25	3.	0.	125.9
4367	-9.	3.75	0.	125.87
4368	-9.25	3.5	0.	125.6
4369	-9.	4.25	0.	125.91
4370	-9.25	4.	0.	125.5
4371	-8.75	4.	0.	126.21
4372	-9.	4.75	0.	126.18
4373	-9.25	4.5	0.	125.67
4374	-9.	5.25	0.	126.51
4375	-9.25	5.	0.	126.03
4376	-9.	5.75	0.	126.66
4377	-9.25	5.5	0.	126.37
4378	-9.25	6.	0.	126.49
4379	-9.	6.25	0.	126.53
4380	-9.	7.25	0.	125.88
4381	-9.25	7.	0.	126.12
4382	-9.	6.75	0.	126.22
4383	-9.	7.75	0.	125.58
4384	-9.25	7.5	0.	125.84
4385	-9.	8.25	0.	125.35
4386	-9.25	8.	0.	125.57
4387	-9.	8.75	0.	125.16
4388	-9.25	8.5	0.	125.34
4389	-8.25	9.	0.	124.8
4390	-8.75	9.	0.	124.98
4391	-8.5	9.25	0.	124.85
4392	-7.75	9.	0.	124.61
4393	-8.	9.25	0.	124.68
4394	-7.25	9.	0.	124.46
4395	-7.5	9.25	0.	124.53
4396	-6.75	9.	0.	124.39
4397	-7.	9.25	0.	124.44
4398	-6.25	9.	0.	124.43
4399	-6.5	9.25	0.	124.42
4400	-5.75	9.	0.	124.57
4401	-6.	9.25	0.	124.5
4402	-5.25	9.	0.	124.77
4403	-5.5	9.25	0.	124.66
4404	-4.75	9.	0.	125.
4405	-5.	9.25	0.	124.86
4406	-4.25	9.	0.	125.2
4407	-4.5	9.25	0.	125.06
4408	-3.75	9.	0.	125.35
4409	-4.	9.25	0.	125.24
4410	-3.25	9.	0.	125.46
4411	-3.5	9.25	0.	125.38
4412	-2.75	9.	0.	125.53
4413	-3.	9.25	0.	125.48
4414	-2.25	9.	0.	125.57
4415	-2.5	9.25	0.	125.55
4416	-1.75	9.	0.	125.59
4417	-2.	9.25	0.	125.6
4418	-1.25	9.	0.	125.59
4419	-1.5	9.25	0.	125.62
4420	-0.75	9.	0.	125.59
4421	-1.	9.25	0.	125.63
4422	-0.25	9.	0.	125.57
4423	-0.5	9.25	0.	125.62
4424	0.25	9.	0.	125.55
4425	-4.0017e-007	9.25	0.	125.6
4426	0.75	9.	0.	125.52
4427	0.5	9.25	0.	125.58
4428	1.25	9.	0.	125.49
4429	1.	9.25	0.	125.54
4430	1.75	9.	0.	125.45
4431	1.5	9.25	0.	125.5
4432	2.25	9.	0.	125.4
4433	2.	9.25	0.	125.45
4434	2.75	9.	0.	125.34
4435	2.5	9.25	0.	125.39
4436	3.25	9.	0.	125.28
4437	3.	9.25	0.	125.33
4438	3.5	9.25	0.	125.26
4439	3.75	9.	0.	125.21
4440	5.75	9.	0.	124.95
4441	5.5	9.25	0.	124.99
4442	5.25	9.	0.	125.01
4443	6.25	9.	0.	124.91
4444	6.	9.25	0.	124.94
4445	6.75	9.	0.	124.89
4446	6.5	9.25	0.	124.91
4447	7.25	9.	0.	124.89
4448	7.	9.25	0.	124.9
4449	7.75	9.	0.	124.91
4450	7.5	9.25	0.	124.91
4451	8.25	9.	0.	124.95
4452	8.	9.25	0.	124.93
4453	8.75	9.	0.	124.99
4454	8.5	9.25	0.	124.97
4455	-5.75	-7.5	0.	124.69
4456	-5.5	-7.25	0.	128.83
4457	-7.25	-7.5	0.	124.49
4458	-7.5	-7.25	0.	128.69
4459	-7.5	-4.75	0.	128.82
4460	-7.25	-4.5	0.	124.68
4461	-5.75	-4.5	0.	124.85
4462	-5.5	-4.75	0.	128.94
4463	-5.5	-4.25	0.	127.26
4464	2.5	-1.25	0.	130.1
4465	2.75	-1.5	0.	126.71
4466	2.5	-1.75	0.	128.68
4467	2.5	0.25	0.	129.98
4468	2.75	0.5	0.	126.83
4469	4.25	0.5	0.	128.43
4470	4.5	0.25	0.	132.44
4471	4.5	-1.25	0.	130.1
4472	4.25	-1.5	0.	126.43
4473	6.75	-0.5	0.	123.5
4474	6.5	-0.75	0.	126.89
4475	6.25	-0.5	0.	126.91
4476	9.	8.25	0.	125.04
4477	9.	8.75	0.	125.02
4478	9.25	8.5	0.	125.06
4479	9.	7.75	0.	125.07
4480	9.25	8.	0.	125.1
4481	9.	7.25	0.	125.1
4482	9.25	7.5	0.	125.16
4483	9.	6.75	0.	125.15
4484	9.25	7.	0.	125.23
4485	9.25	6.5	0.	125.34
4486	9.	6.25	0.	125.21
4487	9.	5.25	0.	125.43
4488	9.25	5.5	0.	125.67
4489	9.	5.75	0.	125.29
4490	9.	4.75	0.	125.66
4491	9.25	5.	0.	125.93
4492	9.	4.25	0.	126.06
4493	9.25	4.5	0.	126.3
4494	9.	3.75	0.	126.78
4495	9.25	4.	0.	126.81
4496	9.	3.25	0.	127.89
4497	9.25	3.5	0.	127.51
4498	9.	2.75	0.	128.88
4499	9.25	3.	0.	128.32
4500	9.	2.25	0.	128.58
4501	8.75	2.5	0.	130.24
4502	9.25	2.5	0.	128.56
4503	9.	1.75	0.	127.03
4504	9.25	2.	0.	127.59
4505	8.75	2.	0.	128.88
4506	9.	1.25	0.	126.78
4507	8.75	1.5	0.	127.35
4508	9.25	1.5	0.	126.63
4509	9.	0.75	0.	127.89
4510	8.75	1.	0.	127.79
4511	9.25	1.	0.	127.81
4512	9.	0.25	0.	128.12
4513	8.75	0.5	0.	128.1
4514	9.25	0.5	0.	129.14
4515	9.	-0.25	0.	128.16
4516	9.25	6.1569e-013	0.	129.83
4517	8.75	3.1943e-013	0.	125.3
4518	9.	-2.75	0.	126.29
4519	9.25	-3.	0.	127.88
4520	6.75	-2.5	0.	127.35
4521	6.5	-2.25	0.	129.23
4522	6.5	-2.75	0.	128.52
4523	3.5	-8.25	0.	130.24
4524	3.75	-8.5	0.	127.5
4525	3.5	-6.75	0.	130.36
4526	3.75	-6.5	0.	128.
4527	6.25	-6.5	0.	127.38
4528	6.5	-6.75	0.	129.59
4529	6.5	-6.25	0.	128.59
4530	6.25	-8.5	0.	127.02
4531	6.5	-8.25	0.	129.68
4532	6.5	-8.75	0.	128.6
4533	-7.5	2.75	0.	129.08
4534	-7.25	2.5	0.	124.94
4535	-7.5	5.25	0.	129.37
4536	-7.25	5.5	0.	125.23
4537	-5.75	5.5	0.	125.45
4538	-5.5	5.25	0.	129.37
4539	-5.5	2.75	0.	129.
4540	-5.75	2.5	0.	124.85
4541	5.75	2.5	0.	129.06
4542	5.5	2.25	0.	131.55
4543	8.25	2.5	0.	128.01
4544	8.5	2.25	0.	130.5
4545	8.5	0.75	0.	127.97
4546	8.25	0.5	0.	124.32
4547	8.5	0.25	0.	125.33
4548	5.75	0.5	0.	131.19
4549	5.5	0.75	0.	133.92
4550	5.5	0.25	0.	132.64
4551	9.	-9.25	0.	126.43
4552	9.25	-9.	0.	126.18
4553	-9.25	9.	0.	125.14
4554	-9.	9.25	0.	125.
4555	9.	9.25	0.	125.
4556	9.25	9.	0.	125.02
4557	-6.25	-7.5	0.	114.51
4558	-6.75	-7.5	0.	114.41
4559	-7.	-7.75	0.	119.9
4560	-6.5	-7.75	0.	112.55
4561	-7.5	-6.75	0.	129.8
4562	-7.75	-7.	0.	128.23
4563	-7.5	-6.25	0.	131.86
4564	-7.5	-5.75	0.	131.89
4565	-7.5	-5.25	0.	129.87
4566	-6.75	-4.5	0.	114.6
4567	-6.25	-4.5	0.	114.68
4568	-5.5	-5.25	0.	129.95
4569	-5.5	-6.75	0.	129.89
4570	-5.5	-6.25	0.	131.94
4571	-5.5	-5.75	0.	131.96
4572	2.5	-0.75	0.	129.74
4573	2.5	-0.25	0.	129.66
4574	3.25	0.5	0.	118.16
4575	3.75	0.5	0.	118.54
4576	4.5	-0.25	0.	131.62
4577	4.75	-7.2499e-009	0.	131.75
4578	4.5	-0.75	0.	130.69
4579	3.25	-1.5	0.	117.78
4580	3.75	-1.5	0.	117.74
4581	4.	-1.75	0.	122.42
4582	7.25	-0.5	0.	116.95
4583	7.75	-0.5	0.	115.22
4584	8.25	-0.5	0.	117.73
4585	8.	-0.25	0.	117.18
4586	8.75	-0.5	0.	123.46
4587	9.25	-0.5	0.	131.82
4588	8.5	-0.25	0.	120.68
4589	8.75	-2.5	0.	122.46
4590	9.25	-2.5	0.	130.73
4591	8.25	-2.5	0.	117.56
4592	7.75	-2.5	0.	116.79
4593	7.25	-2.5	0.	120.34
4594	6.5	-1.75	0.	127.84
4595	6.25	-2.	0.	127.4
4596	6.5	-1.25	0.	127.17
4597	3.5	-7.75	0.	129.29
4598	3.5	-7.25	0.	129.3
4599	4.25	-6.5	0.	120.43
4600	4.75	-6.5	0.	116.21
4601	5.25	-6.5	0.	116.1
4602	5.75	-6.5	0.	120.1
4603	6.5	-7.25	0.	128.63
4604	6.5	-7.75	0.	128.72
4605	5.75	-8.5	0.	119.38
4606	6.	-8.75	0.	122.99
4607	4.25	-8.5	0.	119.67
4608	4.75	-8.5	0.	115.39
4609	4.5	-8.75	0.	116.34
4610	5.25	-8.5	0.	115.3
4611	5.	-8.75	0.	115.54
4612	5.5	-8.75	0.	116.16
4613	-7.5	3.25	0.	130.2
4614	-7.75	3.	0.	128.57
4615	-7.5	3.75	0.	132.29
4616	-7.5	4.25	0.	132.31
4617	-7.5	4.75	0.	130.35
4618	-6.75	5.5	0.	115.11
4619	-6.25	5.5	0.	115.28
4620	-5.5	4.25	0.	132.26
4621	-5.5	4.75	0.	130.31
4622	-5.5	3.75	0.	132.15
4623	-5.5	3.25	0.	130.08
4624	-6.25	2.5	0.	114.75
4625	-6.75	2.5	0.	114.81
4626	6.25	2.5	0.	121.49
4627	6.75	2.5	0.	116.97
4628	7.25	2.5	0.	116.63
4629	7.75	2.5	0.	120.48
4630	8.5	1.25	0.	128.31
4631	8.5	1.75	0.	129.15
4632	7.75	0.5	0.	117.29
4633	8.	0.25	0.	119.22
4634	7.25	0.5	0.	115.05
4635	6.75	0.5	0.	117.21
4636	6.25	0.5	0.	122.77
4637	5.5	1.75	0.	131.19
4638	5.5	1.25	0.	132.22
4639	5.25	1.	0.	131.92
4640	8.75	-9.5	0.	126.76
4641	9.25	-9.5	0.	126.42
4642	8.25	-9.5	0.	127.19
4643	7.75	-9.5	0.	127.53
4644	7.25	-9.5	0.	127.41
4645	7.5	-9.25	0.	127.64
4646	6.75	-9.5	0.	126.17
4647	6.25	-9.5	0.	123.41
4648	6.5	-9.25	0.	126.01
4649	5.75	-9.5	0.	119.89
4650	6.	-9.25	0.	121.93
4651	5.25	-9.5	0.	117.45
4652	5.5	-9.25	0.	117.72
4653	4.75	-9.5	0.	117.54
4654	5.	-9.25	0.	116.12
4655	4.25	-9.5	0.	120.19
4656	4.5	-9.25	0.	117.91
4657	3.75	-9.5	0.	123.89
4658	3.25	-9.5	0.	126.83
4659	2.75	-9.5	0.	128.23
4660	2.25	-9.5	0.	128.5
4661	1.75	-9.5	0.	128.31
4662	1.25	-9.5	0.	128.
4663	0.75	-9.5	0.	127.72
4664	0.25	-9.5	0.	127.49
4665	-0.25	-9.5	0.	127.33
4666	-1.4105e-012	-9.25	0.	127.31
4667	-0.75	-9.5	0.	127.22
4668	-0.5	-9.25	0.	127.2
4669	-1.25	-9.5	0.	127.15
4670	-1.	-9.25	0.	127.13
4671	-1.75	-9.5	0.	127.1
4672	-2.25	-9.5	0.	127.05
4673	-2.75	-9.5	0.	126.97
4674	-3.25	-9.5	0.	126.79
4675	-3.75	-9.5	0.	126.46
4676	-4.25	-9.5	0.	125.86
4677	-4.75	-9.5	0.	124.94
4678	-5.25	-9.5	0.	123.7
4679	-5.75	-9.5	0.	122.4
4680	-5.5	-9.25	0.	123.08
4681	-6.25	-9.5	0.	121.5
4682	-6.	-9.25	0.	121.6
4683	-6.75	-9.5	0.	121.4
4684	-6.5	-9.25	0.	120.9
4685	-7.25	-9.5	0.	122.1
4686	-7.	-9.25	0.	121.4
4687	-7.75	-9.5	0.	123.23
4688	-8.25	-9.5	0.	124.36
4689	-8.75	-9.5	0.	125.28
4690	-9.25	-9.5	0.	126.02
4691	-9.	-9.25	0.	125.78
4692	-9.5	-9.25	0.	126.36
4693	-9.5	-8.75	0.	126.35
4694	-9.25	-9.	0.	126.12
4695	-9.5	-8.25	0.	126.24
4696	-9.25	-8.5	0.	126.24
4697	-9.5	-7.75	0.	126.
4698	-9.5	-7.25	0.	125.61
4699	-9.5	-6.75	0.	125.2
4700	-9.5	-6.25	0.	124.92
4701	-9.5	-5.75	0.	124.89
4702	-9.5	-5.25	0.	125.1
4703	-9.5	-4.75	0.	125.45
4704	-9.25	-5.	0.	125.6
4705	-9.5	-4.25	0.	125.76
4706	-9.5	-3.75	0.	125.93
4707	-9.5	-2.75	0.	125.84
4708	-9.5	-3.25	0.	125.93
4709	-9.5	-2.25	0.	125.72
4710	-9.5	-1.75	0.	125.62
4711	-9.5	-1.25	0.	125.57
4712	-9.5	-0.75	0.	125.6
4713	-9.5	-0.25	0.	125.69
4714	-9.5	0.25	0.	125.83
4715	-9.5	0.75	0.	125.99
4716	-9.5	1.25	0.	126.13
4717	-9.5	1.75	0.	126.16
4718	-9.5	2.25	0.	126.03
4719	-9.5	2.75	0.	125.75
4720	-9.5	3.25	0.	125.43
4721	-9.5	3.75	0.	125.23
4722	-9.5	4.25	0.	125.26
4723	-9.5	4.75	0.	125.52
4724	-9.5	5.25	0.	125.89
4725	-9.5	5.75	0.	126.2
4726	-9.5	6.25	0.	126.34
4727	-9.5	6.75	0.	126.28
4728	-9.25	6.5	0.	126.37
4729	-9.5	7.25	0.	126.09
4730	-9.5	7.75	0.	125.83
4731	-9.5	8.25	0.	125.57
4732	-9.5	8.75	0.	125.32
4733	-9.5	9.25	0.	125.13
4734	-9.25	9.5	0.	124.98
4735	-8.75	9.5	0.	124.86
4736	-8.25	9.5	0.	124.73
4737	-7.75	9.5	0.	124.6
4738	-7.25	9.5	0.	124.51
4739	-6.75	9.5	0.	124.47
4740	-6.25	9.5	0.	124.5
4741	-5.75	9.5	0.	124.6
4742	-5.25	9.5	0.	124.75
4743	-4.75	9.5	0.	124.93
4744	-4.25	9.5	0.	125.11
4745	-3.75	9.5	0.	125.27
4746	-3.25	9.5	0.	125.41
4747	-2.75	9.5	0.	125.51
4748	-2.25	9.5	0.	125.58
4749	-1.75	9.5	0.	125.63
4750	-1.25	9.5	0.	125.65
4751	-0.75	9.5	0.	125.66
4752	-0.25	9.5	0.	125.65
4753	0.25	9.5	0.	125.63
4754	0.75	9.5	0.	125.6
4755	1.25	9.5	0.	125.56
4756	1.75	9.5	0.	125.51
4757	2.25	9.5	0.	125.45
4758	2.75	9.5	0.	125.38
4759	3.25	9.5	0.	125.31
4760	3.75	9.5	0.	125.24
4761	4.25	9.5	0.	125.17
4762	4.	9.25	0.	125.19
4763	4.75	9.5	0.	125.1
4764	4.5	9.25	0.	125.12
4765	5.25	9.5	0.	125.04
4766	5.	9.25	0.	125.05
4767	5.75	9.5	0.	124.98
4768	6.25	9.5	0.	124.95
4769	6.75	9.5	0.	124.93
4770	7.25	9.5	0.	124.92
4771	7.75	9.5	0.	124.93
4772	8.25	9.5	0.	124.95
4773	8.75	9.5	0.	124.98
4774	9.25	9.5	0.	125.
4775	9.5	9.25	0.	125.02
4776	9.5	8.75	0.	125.06
4777	9.5	8.25	0.	125.11
4778	9.5	7.75	0.	125.18
4779	9.5	7.25	0.	125.28
4780	9.5	6.75	0.	125.42
4781	9.5	6.25	0.	125.61
4782	9.5	5.75	0.	125.85
4783	9.25	6.	0.	125.48
4784	9.5	5.25	0.	126.17
4785	9.5	4.25	0.	127.04
4786	9.5	4.75	0.	126.57
4787	9.5	3.75	0.	127.54
4788	9.5	3.25	0.	127.94
4789	9.5	2.75	0.	128.
4790	9.5	2.25	0.	127.57
4791	9.5	1.75	0.	127.17
4792	9.5	1.25	0.	127.64
4793	9.5	0.75	0.	129.05
4794	9.5	0.25	0.	130.84
4795	9.5	-0.25	0.	133.52
4796	9.5	-0.75	0.	135.19
4797	9.5	-1.25	0.	134.86
4798	9.5	-1.75	0.	134.47
4799	9.5	-2.25	0.	134.3
4800	9.5	-2.75	0.	132.35
4801	9.5	-3.25	0.	129.66
4802	9.5	-3.75	0.	128.4
4803	9.5	-4.25	0.	127.58
4804	9.5	-4.75	0.	126.96
4805	9.5	-5.25	0.	126.47
4806	9.5	-5.75	0.	126.05
4807	9.5	-6.25	0.	125.7
4808	9.5	-6.75	0.	125.45
4809	9.5	-7.25	0.	125.33
4810	9.5	-7.75	0.	125.4
4811	9.5	-8.25	0.	125.61
4812	9.5	-8.75	0.	125.9
4813	9.5	-9.25	0.	126.17
4814	-4.75	5.	0.	127.71
4815	-5.25	5.	0.	128.72
4816	7.5	-8.75	0.	127.36
4817	-4.25	5.	0.	126.78
4818	6.5	-4.75	0.	123.92
4819	-4.	4.75	0.	126.24
4820	2.5	-2.75	0.	125.43
4821	2.5	-3.25	0.	125.39
4822	-2.25	-5.	0.	126.33
4823	-1.75	-5.	0.	126.43
4824	-9.	-8.75	0.	126.01
4825	-6.25	-9.	0.	120.99
4826	-5.75	-9.	0.	122.28
4827	-3.1622e-005	4.2498	0.	125.62
4828	-6.75	-8.	0.	117.91
4829	5.25	-9.	0.	116.39
4830	5.75	-9.	0.	119.76
4831	5.25	-2.8758e-009	0.	130.95
4832	5.75	-2.	0.	126.34
4833	-0.5	-4.75	0.	126.8
4834	0.5	-5.25	0.	126.92
4835	-0.75	-5.	0.	126.68
4836	-1.25	-5.	0.	126.55
4837	5.5	-1.75	0.	126.09
4838	-2.25	2.4999	0.	125.84
4839	-1.75	2.4998	0.	125.81
4840	-2.25	0.49998	0.	126.02
4841	8.25	-5.5045e-014	0.	120.08
4842	6.	4.75	0.	123.53
4843	-0.5	-5.25	0.	126.69
4844	-5.5	-3.25	0.	123.61
4845	-5.5	-3.75	0.	124.58
4846	-0.25	-9.	0.	127.18
4847	4.	-4.75	0.	123.35
4848	4.25	-4.5	0.	123.02
4849	4.	-4.25	0.	123.49
4850	3.	2.75	0.	124.87
4851	6.	3.75	0.	123.48
4852	4.75	-9.	0.	116.48
4853	4.75	9.	0.	125.07
4854	4.25	9.	0.	125.14
4855	-1.	6.2499	0.	125.61
4856	-2.3211e-005	5.2499	0.	125.55
4857	0.24998	5.4999	0.	125.54
4858	-1.	5.2498	0.	125.56
4859	-2.8605e-005	4.7499	0.	125.58
4860	-1.	5.7499	0.	125.59
4861	4.	-5.25	0.	123.26
4862	5.75	6.	0.	124.21
4863	0.5	-4.75	0.	127.01
4864	-3.25	-5.	0.	126.28
4865	-3.75	-5.	0.	126.43
4866	-2.25	-1.	0.	126.08
4867	-1.75	-1.	0.	126.15
4868	-0.75	0.49996	0.	126.
4869	-0.25	0.49997	0.	126.03
4870	1.25	5.	0.	125.57
4871	-2.75	2.4999	0.	125.94
4872	5.	6.25	0.	124.74
4873	5.25	6.	0.	124.56
4874	4.	-3.25	0.	123.34
4875	4.	-2.75	0.	122.91
4876	2.5	-2.25	0.	126.21
4877	0.25	0.49998	0.	126.12
4878	6.	4.25	0.	123.41
4879	-6.	1.25	0.	121.46
4880	-6.75	-9.	0.	120.89
4881	-4.25	2.5	0.	126.96
4882	2.5	-3.75	0.	125.63
4883	-2.75	-5.	0.	126.26
4884	-0.75	-9.	0.	127.1
4885	4.	-2.25	0.	122.28
4886	-4.	-5.25	0.	126.35
4887	6.25	-9.	0.	124.53
4888	4.	-3.75	0.	123.52
4889	-2.5	-6.25	0.	126.12
4890	0.75	0.49999	0.	126.33
4891	-1.25	2.4998	0.	125.82
4892	-6.	-5.	0.	94.606
4893	-7.	-5.	0.	94.622
4894	-6.	-7.	0.	94.522
4895	-7.	-7.	0.	94.545
4896	-6.5	-5.	0.	108.44
4897	-6.	-5.5	0.	98.678
4898	-6.	-6.	0.	97.644
4899	-6.	-6.5	0.	98.631
4900	-7.	-5.5	0.	98.648
4901	-7.	-6.	0.	97.637
4902	-7.	-6.5	0.	98.592
4903	-6.5	-7.	0.	108.33
4904	-6.5	-5.5	0.	103.06
4905	-6.5	-6.	0.	100.94
4906	-6.5	-6.5	0.	103.01
4907	-6.25	-5.	0.	101.47
4908	-6.	-5.25	0.	96.639
4909	-6.75	-5.	0.	101.48
4910	-7.	-5.25	0.	96.632
4911	-6.	-6.75	0.	96.574
4912	-6.25	-7.	0.	101.38
4913	-7.	-6.75	0.	96.566
4914	-6.75	-7.	0.	101.39
4915	-6.5	-5.25	0.	105.71
4916	-6.	-5.75	0.	98.121
4917	-6.25	-5.5	0.	100.82
4918	-6.	-6.25	0.	98.097
4919	-6.25	-6.	0.	99.292
4920	-6.25	-6.5	0.	100.77
4921	-7.	-5.75	0.	98.106
4922	-6.75	-5.5	0.	100.81
4923	-7.	-6.25	0.	98.078
4924	-6.75	-6.	0.	99.289
4925	-6.75	-6.5	0.	100.76
4926	-6.5	-6.75	0.	105.63
4927	-6.5	-5.75	0.	102.
4928	-6.5	-6.25	0.	101.98
4929	4.	0.	0.	98.896
4930	3.	0.	0.	98.016
4931	4.	-1.	0.	98.264
4932	3.	-1.	0.	98.057
4933	3.5	0.	0.	113.99
4934	4.	-0.5	0.	103.79
4935	3.	-0.5	0.	103.25
4936	3.5	-1.	0.	113.63
4937	3.5	-0.5	0.	111.14
4938	3.75	0.	0.	106.42
4939	4.	-0.25	0.	101.34
4940	3.25	0.	0.	105.99
4941	3.	-0.25	0.	100.62
4942	4.	-0.75	0.	101.02
4943	3.75	-1.	0.	105.93
4944	3.	-0.75	0.	100.64
4945	3.25	-1.	0.	105.83
4946	3.5	-0.25	0.	112.52
4947	3.75	-0.5	0.	107.44
4948	3.25	-0.5	0.	107.17
4949	3.5	-0.75	0.	112.34
4950	9.	-1.	0.	101.77
4951	7.	-1.	0.	96.013
4952	9.	-2.	0.	101.15
4953	7.	-2.	0.	97.216
4954	8.5	-1.	0.	116.78
4955	8.	-1.	0.	113.53
4956	7.5	-1.	0.	113.05
4957	9.	-1.5	0.	106.43
4958	7.	-1.5	0.	101.64
4959	7.5	-2.	0.	114.3
4960	8.	-2.	0.	113.93
4961	8.5	-2.	0.	116.6
4962	7.5	-1.5	0.	112.41
4963	8.	-1.5	0.	116.95
4964	8.5	-1.5	0.	115.62
4965	8.75	-1.	0.	109.23
4966	9.	-1.25	0.	104.09
4967	7.25	-1.	0.	104.51
4968	7.	-1.25	0.	98.799
4969	9.	-1.75	0.	103.78
4970	8.75	-2.	0.	108.83
4971	7.	-1.75	0.	99.401
4972	7.25	-2.	0.	105.71
4973	8.25	-1.	0.	115.15
4974	8.5	-1.25	0.	116.17
4975	7.75	-1.	0.	113.28
4976	8.	-1.25	0.	115.23
4977	7.5	-1.25	0.	112.72
4978	8.75	-1.5	0.	111.02
4979	7.25	-1.5	0.	107.01
4980	7.75	-2.	0.	114.12
4981	7.5	-1.75	0.	113.34
4982	8.25	-2.	0.	115.26
4983	8.	-1.75	0.	115.43
4984	8.5	-1.75	0.	116.08
4985	7.75	-1.5	0.	114.68
4986	8.25	-1.5	0.	116.28
4987	6.	-7.	0.	97.605
4988	4.	-7.	0.	97.995
4989	6.	-8.	0.	97.596
4990	4.	-8.	0.	97.865
4991	5.5	-7.	0.	114.
4992	5.	-7.	0.	112.67
4993	4.5	-7.	0.	114.2
4994	6.	-7.5	0.	102.44
4995	4.	-7.5	0.	102.77
4996	4.5	-8.	0.	113.85
4997	5.	-8.	0.	112.33
4998	5.5	-8.	0.	113.67
4999	4.5	-7.5	0.	112.71
5000	5.	-7.5	0.	115.63
5001	5.5	-7.5	0.	112.52
5002	5.75	-7.	0.	105.76
5003	6.	-7.25	0.	99.999
5004	4.25	-7.	0.	106.06
5005	4.	-7.25	0.	100.36
5006	6.	-7.75	0.	99.996
5007	5.75	-8.	0.	105.6
5008	4.	-7.75	0.	100.3
5009	4.25	-8.	0.	105.82
5010	5.25	-7.	0.	113.34
5011	5.5	-7.25	0.	113.24
5012	4.75	-7.	0.	113.44
5013	5.	-7.25	0.	114.15
5014	4.5	-7.25	0.	113.44
5015	5.75	-7.5	0.	107.47
5016	4.25	-7.5	0.	107.73
5017	4.75	-8.	0.	113.09
5018	4.5	-7.75	0.	113.27
5019	5.25	-8.	0.	113.
5020	5.	-7.75	0.	113.98
5021	5.5	-7.75	0.	113.08
5022	4.75	-7.5	0.	114.17
5023	5.25	-7.5	0.	114.08
5024	-6.	5.	0.	94.901
5025	-7.	5.	0.	95.059
5026	-6.	3.	0.	94.787
5027	-7.	3.	0.	94.78
5028	-6.5	5.	0.	108.87
5029	-6.	4.5	0.	99.029
5030	-6.	4.	0.	97.917
5031	-6.	3.5	0.	98.844
5032	-7.	4.5	0.	98.994
5033	-7.	4.	0.	97.968
5034	-7.	3.5	0.	98.93
5035	-6.5	3.	0.	108.62
5036	-6.5	4.5	0.	103.44
5037	-6.5	4.	0.	101.27
5038	-6.5	3.5	0.	103.32
5039	-6.25	5.	0.	101.83
5040	-6.	4.75	0.	96.962
5041	-6.75	5.	0.	101.91
5042	-7.	4.75	0.	97.024
5043	-6.	3.25	0.	96.813
5044	-6.25	3.	0.	101.66
5045	-7.	3.25	0.	96.852
5046	-6.75	3.	0.	101.65
5047	-6.5	4.75	0.	106.11
5048	-6.	4.25	0.	98.433
5049	-6.25	4.5	0.	101.19
5050	-6.	3.75	0.	98.34
5051	-6.25	4.	0.	99.593
5052	-6.25	3.5	0.	101.03
5053	-7.	4.25	0.	98.443
5054	-6.75	4.5	0.	101.17
5055	-7.	3.75	0.	98.412
5056	-6.75	4.	0.	99.618
5057	-6.75	3.5	0.	101.08
5058	-6.5	3.25	0.	105.92
5059	-6.5	4.25	0.	102.35
5060	-6.5	3.75	0.	102.29
5061	8.	2.	0.	97.981
5062	6.	2.	0.	99.124
5063	8.	1.	0.	96.418
5064	6.	1.	0.	100.35
5065	7.5	2.	0.	114.3
5066	7.	2.	0.	113.36
5067	6.5	2.	0.	115.37
5068	8.	1.5	0.	102.15
5069	6.	1.5	0.	104.59
5070	6.5	1.	0.	115.74
5071	7.	1.	0.	113.02
5072	7.5	1.	0.	113.12
5073	6.5	1.5	0.	114.23
5074	7.	1.5	0.	116.35
5075	7.5	1.5	0.	112.49
5076	7.75	2.	0.	106.09
5077	8.	1.75	0.	100.05
5078	6.25	2.	0.	107.21
5079	6.	1.75	0.	101.84
5080	8.	1.25	0.	99.262
5081	7.75	1.	0.	104.74
5082	6.	1.25	0.	102.46
5083	6.25	1.	0.	108.
5084	7.25	2.	0.	113.83
5085	7.5	1.75	0.	113.38
5086	6.75	2.	0.	114.37
5087	7.	1.75	0.	114.85
5088	6.5	1.75	0.	114.78
5089	7.75	1.5	0.	107.31
5090	6.25	1.5	0.	109.4
5091	6.75	1.	0.	114.37
5092	6.5	1.25	0.	114.96
5093	7.25	1.	0.	113.06
5094	7.	1.25	0.	114.68
5095	7.5	1.25	0.	112.79
5096	6.75	1.5	0.	115.29
5097	7.25	1.5	0.	114.42
