Node Number	X Location (mm)	Y Location (mm)	Z Location (mm)	Equivalent (von-Mises) Stress (MPa)
1	7.	-7.	0.	135.63
2	7.	-8.	0.	133.27
3	8.	-7.	0.	135.69
4	8.	-8.	0.	134.9
5	5.	8.	0.	141.68
6	5.	6.	0.	138.35
7	7.	8.	0.	137.61
8	7.	6.	0.	134.
9	4.	-4.	0.	136.47
10	4.	-5.	0.	138.4
11	6.	-4.	0.	135.55
12	6.	-5.	0.	136.67
13	6.	0.	0.	132.24
14	6.	-1.	0.	133.97
15	7.	0.	0.	136.57
16	7.	-1.	0.	134.87
17	1.	2.	0.	127.44
18	1.	1.	0.	132.16
19	2.	2.	0.	131.35
20	2.	1.	0.	132.79
21	-6.	3.	0.	133.36
22	-6.	1.	0.	135.8
23	-5.	3.	0.	130.1
24	-5.	1.	0.	137.91
25	-1.	2.	0.	136.11
26	-1.	0.	0.	138.1
27	0.	2.	0.	136.75
28	0.	0.	0.	132.59
29	-5.	9.	0.	139.51
30	-5.	7.	0.	136.1
31	-3.	9.	0.	139.89
32	-3.	7.	0.	136.82
33	-4.	0.	0.	140.41
34	-4.	-2.	0.	135.63
35	-2.	0.	0.	140.92
36	-2.	-2.	0.	135.55
37	-6.	-6.	0.	133.14
38	-6.	-7.	0.	133.26
39	-5.	-6.	0.	133.19
40	-5.	-7.	0.	131.98
41	5.	5.	0.	138.1
42	5.	4.	0.	137.07
43	7.	5.	0.	132.83
44	7.	4.	0.	135.13
45	-9.	4.	0.	133.79
46	-9.	2.	0.	133.54
47	-8.	4.	0.	135.4
48	-8.	2.	0.	134.21
49	0.	5.	0.	136.49
50	0.	3.	0.	136.46
51	2.	5.	0.	138.64
52	2.	3.	0.	133.03
53	8.	2.	0.	134.38
54	8.	0.	0.	135.02
55	9.	2.	0.	136.11
56	9.	0.	0.	135.8
57	0.	-7.	0.	133.32
58	0.	-9.	0.	130.15
59	2.	-7.	0.	134.62
60	2.	-9.	0.	130.54
61	2.	7.	0.	132.28
62	2.	6.	0.	137.07
63	4.	7.	0.	143.68
64	4.	6.	0.	149.25
65	10.	10.	0.	125.04
66	-10.	10.	0.	125.01
67	10.	-10.	0.	131.75
68	-10.	-10.	0.	127.81
69	7.	-7.5	0.	143.47
70	7.5	-7.	0.	113.18
71	7.5	-8.	0.	111.77
72	8.	-7.5	0.	144.84
73	5.	7.5	0.	151.39
74	5.	7.	0.	150.19
75	5.	6.5	0.	145.95
76	5.5	8.	0.	117.3
77	6.	8.	0.	121.08
78	6.5	8.	0.	115.82
79	5.5	6.	0.	112.1
80	6.	6.	0.	113.98
81	6.5	6.	0.	110.92
82	7.	7.5	0.	145.71
83	7.	7.	0.	146.39
84	7.	6.5	0.	144.83
85	4.	-4.5	0.	145.92
86	4.5	-4.	0.	119.17
87	5.	-4.	0.	123.91
88	5.5	-4.	0.	118.07
89	4.5	-5.	0.	119.67
90	5.	-5.	0.	124.77
91	5.5	-5.	0.	119.22
92	6.	-4.5	0.	144.22
93	6.	-0.5	0.	142.27
94	6.5	0.	0.	111.01
95	6.5	-1.	0.	112.15
96	7.	-0.5	0.	146.71
97	1.	1.5	0.	138.6
98	1.5	2.	0.	106.52
99	1.5	1.	0.	108.38
100	2.	1.5	0.	141.91
101	-6.	2.5	0.	142.68
102	-6.	2.	0.	144.11
103	-6.	1.5	0.	144.69
104	-5.5	3.	0.	107.13
105	-5.5	1.	0.	111.35
106	-5.	2.5	0.	140.34
107	-5.	2.	0.	142.17
108	-5.	1.5	0.	143.87
109	-1.	1.5	0.	146.12
110	-1.	1.	0.	148.03
111	-1.	0.5	0.	148.67
112	-0.5	2.	0.	113.5
113	-0.5	0.	0.	109.62
114	0.	1.5	0.	139.54
115	0.	1.	0.	142.27
116	0.	0.5	0.	143.31
117	-5.	8.5	0.	146.77
118	-5.	8.	0.	147.47
119	-5.	7.5	0.	145.74
120	-4.5	9.	0.	119.44
121	-4.	9.	0.	125.9
122	-3.5	9.	0.	119.48
123	-4.5	7.	0.	115.69
124	-4.	7.	0.	120.47
125	-3.5	7.	0.	116.19
126	-3.	8.5	0.	147.09
127	-3.	8.	0.	147.91
128	-3.	7.5	0.	146.36
129	-4.	-0.5	0.	146.81
130	-4.	-1.	0.	146.86
131	-4.	-1.5	0.	145.
132	-3.5	0.	0.	117.01
133	-3.	0.	0.	121.61
134	-2.5	0.	0.	117.33
135	-3.5	-2.	0.	115.49
136	-3.	-2.	0.	120.
137	-2.5	-2.	0.	115.59
138	-2.	-0.5	0.	150.23
139	-2.	-1.	0.	149.6
140	-2.	-1.5	0.	146.06
141	-6.	-6.5	0.	142.5
142	-5.5	-6.	0.	110.93
143	-5.5	-7.	0.	110.38
144	-5.	-6.5	0.	141.65
145	5.	4.5	0.	146.51
146	5.5	5.	0.	114.55
147	6.	5.	0.	115.86
148	6.5	5.	0.	112.22
149	5.5	4.	0.	116.34
150	6.	4.	0.	120.48
151	6.5	4.	0.	115.39
152	7.	4.5	0.	142.71
153	-9.	3.5	0.	144.32
154	-9.	3.	0.	145.07
155	-9.	2.5	0.	144.16
156	-8.5	4.	0.	109.7
157	-8.5	2.	0.	108.84
158	-8.	3.5	0.	144.56
159	-8.	3.	0.	144.55
160	-8.	2.5	0.	143.43
161	0.	4.5	0.	144.68
162	0.	4.	0.	145.22
163	0.	3.5	0.	143.18
164	0.5	5.	0.	115.71
165	1.	5.	0.	121.82
166	1.5	5.	0.	117.64
167	0.5	3.	0.	118.72
168	1.	3.	0.	119.84
169	1.5	3.	0.	111.65
170	2.	4.5	0.	144.24
171	2.	4.	0.	145.12
172	2.	3.5	0.	143.84
173	8.	1.5	0.	143.6
174	8.	1.	0.	145.46
175	8.	0.5	0.	145.77
176	8.5	2.	0.	110.69
177	8.5	0.	0.	109.63
178	9.	1.5	0.	146.6
179	9.	1.	0.	147.48
180	9.	0.5	0.	146.58
181	0.	-7.5	0.	140.89
182	0.	-8.	0.	141.64
183	0.	-8.5	0.	140.14
184	0.5	-7.	0.	111.24
185	1.	-7.	0.	115.91
186	1.5	-7.	0.	112.18
187	0.5	-9.	0.	108.53
188	1.	-9.	0.	111.83
189	1.5	-9.	0.	108.68
190	2.	-7.5	0.	142.23
191	2.	-8.	0.	142.57
192	2.	-8.5	0.	140.75
193	2.	6.5	0.	141.69
194	2.5	7.	0.	118.51
195	3.	7.	0.	125.81
196	3.5	7.	0.	122.24
197	2.5	6.	0.	123.21
198	3.	6.	0.	131.45
199	3.5	6.	0.	127.18
200	4.	6.5	0.	154.62
201	9.5	10.	0.	125.16
202	9.	10.	0.	125.6
203	8.5	10.	0.	125.87
204	8.	10.	0.	125.43
205	7.5	10.	0.	123.98
206	7.	10.	0.	121.85
207	6.5	10.	0.	120.
208	6.	10.	0.	119.29
209	5.5	10.	0.	120.04
210	5.	10.	0.	121.78
211	4.5	10.	0.	123.58
212	4.	10.	0.	124.54
213	3.5	10.	0.	124.58
214	3.	10.	0.	124.25
215	2.5	10.	0.	124.08
216	2.	10.	0.	124.23
217	1.5	10.	0.	124.65
218	1.	10.	0.	125.21
219	0.5	10.	0.	125.82
220	-5.2042e-015	10.	0.	126.52
221	-0.5	10.	0.	127.36
222	-1.	10.	0.	128.44
223	-1.5	10.	0.	129.66
224	-2.	10.	0.	130.8
225	-2.5	10.	0.	129.35
226	-3.	10.	0.	123.59
227	-3.5	10.	0.	118.48
228	-4.	10.	0.	116.
229	-4.5	10.	0.	118.34
230	-5.	10.	0.	123.28
231	-5.5	10.	0.	128.88
232	-6.	10.	0.	130.29
233	-6.5	10.	0.	129.15
234	-7.	10.	0.	127.97
235	-7.5	10.	0.	126.95
236	-8.	10.	0.	126.2
237	-8.5	10.	0.	125.65
238	-9.	10.	0.	125.26
239	-9.5	10.	0.	125.04
240	10.	9.5	0.	124.7
241	10.	9.	0.	123.68
242	10.	8.5	0.	122.45
243	10.	8.	0.	121.34
244	10.	7.5	0.	120.64
245	10.	7.	0.	120.6
246	10.	6.5	0.	121.2
247	10.	6.	0.	122.2
248	10.	5.5	0.	123.28
249	10.	5.	0.	124.38
250	10.	4.5	0.	125.76
251	10.	4.	0.	127.87
252	10.	3.5	0.	131.09
253	10.	3.	0.	135.31
254	10.	2.5	0.	137.91
255	10.	2.	0.	136.57
256	10.	1.5	0.	134.04
257	10.	1.	0.	133.91
258	10.	0.5	0.	132.9
259	10.	-5.2042e-015	0.	134.73
260	10.	-0.5	0.	136.19
261	10.	-1.	0.	134.64
262	10.	-1.5	0.	132.04
263	10.	-2.	0.	130.44
264	10.	-2.5	0.	129.51
265	10.	-3.	0.	128.85
266	10.	-3.5	0.	128.35
267	10.	-4.	0.	128.11
268	10.	-4.5	0.	128.24
269	10.	-5.	0.	128.74
270	10.	-5.5	0.	129.36
271	10.	-6.	0.	129.59
272	10.	-6.5	0.	128.97
273	10.	-7.	0.	127.81
274	10.	-7.5	0.	127.26
275	10.	-8.	0.	128.16
276	10.	-8.5	0.	129.78
277	10.	-9.	0.	131.07
278	10.	-9.5	0.	131.62
279	-10.	9.5	0.	124.94
280	-10.	9.	0.	124.53
281	-10.	8.5	0.	124.
282	-10.	8.	0.	123.62
283	-10.	7.5	0.	123.58
284	-10.	7.	0.	123.96
285	-10.	6.5	0.	124.85
286	-10.	6.	0.	126.41
287	-10.	5.5	0.	128.91
288	-10.	5.	0.	132.36
289	-10.	4.5	0.	134.32
290	-10.	4.	0.	132.54
291	-10.	3.5	0.	129.76
292	-10.	3.	0.	129.58
293	-10.	2.5	0.	128.85
294	-10.	2.	0.	131.04
295	-10.	1.5	0.	132.71
296	-10.	1.	0.	131.12
297	-10.	0.5	0.	128.38
298	-10.	-5.2042e-015	0.	126.76
299	-10.	-0.5	0.	126.09
300	-10.	-1.	0.	125.96
301	-10.	-1.5	0.	126.12
302	-10.	-2.	0.	126.41
303	-10.	-2.5	0.	126.77
304	-10.	-3.	0.	127.12
305	-10.	-3.5	0.	127.4
306	-10.	-4.	0.	127.56
307	-10.	-4.5	0.	127.55
308	-10.	-5.	0.	127.4
309	-10.	-5.5	0.	127.15
310	-10.	-6.	0.	126.91
311	-10.	-6.5	0.	126.78
312	-10.	-7.	0.	126.8
313	-10.	-7.5	0.	126.97
314	-10.	-8.	0.	127.22
315	-10.	-8.5	0.	127.47
316	-10.	-9.	0.	127.66
317	-10.	-9.5	0.	127.78
318	-9.5	-10.	0.	127.52
319	-9.	-10.	0.	127.32
320	-8.5	-10.	0.	127.11
321	-8.	-10.	0.	126.76
322	-7.5	-10.	0.	126.19
323	-7.	-10.	0.	125.36
324	-6.5	-10.	0.	124.35
325	-6.	-10.	0.	123.46
326	-5.5	-10.	0.	123.06
327	-5.	-10.	0.	123.33
328	-4.5	-10.	0.	124.16
329	-4.	-10.	0.	125.24
330	-3.5	-10.	0.	126.36
331	-3.	-10.	0.	127.45
332	-2.5	-10.	0.	128.61
333	-2.	-10.	0.	129.97
334	-1.5	-10.	0.	131.43
335	-1.	-10.	0.	132.49
336	-0.5	-10.	0.	129.72
337	5.2042e-015	-10.	0.	119.68
338	0.5	-10.	0.	109.28
339	1.	-10.	0.	105.41
340	1.5	-10.	0.	109.4
341	2.	-10.	0.	119.9
342	2.5	-10.	0.	129.99
343	3.	-10.	0.	132.72
344	3.5	-10.	0.	131.61
345	4.	-10.	0.	130.17
346	4.5	-10.	0.	129.
347	5.	-10.	0.	128.18
348	5.5	-10.	0.	127.47
349	6.	-10.	0.	126.38
350	6.5	-10.	0.	124.56
351	7.	-10.	0.	122.51
352	7.5	-10.	0.	121.78
353	8.	-10.	0.	123.23
354	8.5	-10.	0.	125.93
355	9.	-10.	0.	128.33
356	9.5	-10.	0.	130.07
357	0.50106	-4.	0.	122.39
358	1.1062e-003	-4.	0.	123.38
359	-1.9998	-4.9999	0.	124.79
360	0.50172	-3.5	0.	123.22
361	1.5025	-2.4999	0.	124.32
362	1.0005	-4.5	0.	120.76
363	1.0009	-4.	0.	122.05
364	2.5014	-1.4995	0.	125.29
365	-2.4998	-4.9999	0.	124.3
366	-2.4997	-4.4999	0.	123.36
367	-6.5	-3.	0.	127.16
368	0.50057	-4.5	0.	121.26
369	1.5019	-3.	0.	124.15
370	3.5004	-0.99974	0.	125.68
371	-2.9997	-4.4999	0.	123.23
372	-0.49891	-3.9999	0.	124.52
373	-2.9997	-3.9999	0.	121.56
374	-6.5	-1.5	0.	125.65
375	-1.9999	-5.4999	0.	125.38
376	-1.4997	-4.9999	0.	125.27
377	2.0019	-2.4998	0.	125.38
378	2.5014	-1.9997	0.	125.93
379	-2.5	-6.5	0.	125.08
380	3.0007	-0.99961	0.	125.61
381	0.50249	-3.	0.	123.6
382	1.003	-2.4999	0.	123.65
383	1.5028	-1.9998	0.	124.18
384	1.5004	-4.5	0.	121.41
385	1.0002	-5.	0.	119.13
386	-7.	-3.5	0.	127.43
387	2.0019	-1.4996	0.	124.5
388	-2.5	4.	0.	125.92
389	1.7499e-003	-3.5	0.	124.07
390	-6.5	-3.5	0.	127.18
391	-2.4999	-5.4999	0.	124.85
392	-1.4995	-4.4999	0.	124.82
393	-6.5	-2.5	0.	126.82
394	6.1504e-004	-4.5	0.	122.59
395	-0.49938	-4.4999	0.	124.02
396	1.5008	-4.	0.	122.54
397	-3.	4.5	0.	124.78
398	-2.5	4.5	0.	126.06
399	-7.	-3.	0.	127.12
400	-7.	-2.	0.	126.28
401	-7.	-1.5	0.	126.
402	3.5005	-1.4998	0.	125.84
403	4.0002	-0.49987	0.	125.49
404	-5.5	-4.	0.	125.52
405	-2.9998	-4.9999	0.	124.32
406	-2.4995	-3.9999	0.	122.06
407	-0.99901	-3.9999	0.	125.19
408	-3.4998	-4.	0.	122.46
409	-6.	-1.5	0.	125.54
410	-6.	-3.	0.	127.48
411	0.50028	-5.	0.	119.9
412	-0.9997	-4.9999	0.	125.16
413	2.0014	-2.9999	0.	125.36
414	3.001	-1.9997	0.	126.51
415	-3.5	5.	0.	122.34
416	-4.	5.	0.	121.01
417	-3.	4.	0.	125.16
418	-2.5	-7.	0.	125.18
419	-3.	-6.5	0.	124.71
420	-2.	4.5	0.	127.12
421	2.501	-0.99953	0.	124.86
422	0.50313	-2.5	0.	123.45
423	1.0033	-1.9999	0.	123.5
424	4.	1.5	0.	128.19
425	-3.4998	-4.5	0.	123.95
426	-5.5	-3.5	0.	127.12
427	-1.4999	-5.4999	0.	126.
428	2.5013	-2.4998	0.	126.62
429	5.0004	-7.0009	0.	123.06
430	4.5004	-7.0005	0.	123.86
431	2.0003	-4.5	0.	122.96
432	1.5002	-5.	0.	120.22
433	-3.5	4.5	0.	123.61
434	-7.	-1.	0.	126.17
435	-7.	-4.	0.	127.74
436	4.5	1.5	0.	126.89
437	3.5003	-0.49977	0.	126.
438	1.5025	-1.4997	0.	123.89
439	-5.5	-1.	0.	125.19
440	-3.5	2.	0.	123.09
441	-2.5	3.5	0.	126.13
442	-2.	4.	0.	126.65
443	2.4151e-003	-3.	0.	124.37
444	-0.49836	-3.4999	0.	125.26
445	-2.9996	-3.5	0.	119.34
446	1.0001	-5.5	0.	116.93
447	-7.	6.	0.	127.65
448	-6.5	5.5	0.	128.77
449	-4.	5.5	0.	119.12
450	4.	1.	0.	127.39
451	4.0003	-1.4999	0.	125.49
452	4.0001	1.0086e-004	0.	126.09
453	-6.5	-4.	0.	127.04
454	-5.	-4.	0.	125.56
455	-3.	-6.	0.	124.75
456	-2.9999	-5.5	0.	124.78
457	-1.9993	-3.9999	0.	123.52
458	-1.4992	-3.9999	0.	124.85
459	-4.5	-4.	0.	125.35
460	-3.9999	-4.	0.	124.13
461	-6.	-2.5	0.	127.31
462	-2.	-7.	0.	125.65
463	-0.49968	-5.	0.	124.
464	4.5	2.	0.	127.36
465	5.	2.	0.	124.6
466	2.0006	-4.	0.	123.8
467	4.0004	-1.9999	0.	125.55
468	3.5006	-1.9998	0.	126.36
469	-2.5	5.	0.	126.71
470	-5.5	5.	0.	123.68
471	-7.	7.	0.	125.72
472	-7.	6.5	0.	126.78
473	-6.	-1.	0.	124.7
474	-5.	5.	0.	121.8
475	-3.	3.5	0.	125.37
476	-3.	-7.	0.	125.05
477	-2.	5.	0.	128.32
478	-1.	7.	0.	126.36
479	-0.5	7.	0.	124.19
480	5.5	2.	0.	121.8
481	2.0015	-0.99955	0.	123.79
482	0.50343	-2.	0.	122.95
483	5.0008	-6.5008	0.	122.21
484	-4.	6.	0.	116.8
485	5.0009	-6.0007	0.	120.63
486	5.	-3.	0.	119.84
487	-7.	5.5	0.	128.58
488	1.	-6.	0.	113.97
489	-0.49785	-2.9999	0.	125.82
490	-2.	3.5	0.	127.04
491	2.9236e-003	-2.5	0.	123.98
492	3.1993e-003	-2.	0.	122.86
493	-2.5	3.	0.	126.33
494	-4.	2.	0.	126.49
495	-5.	-1.	0.	128.32
496	1.5019	-0.99964	0.	123.33
497	3.0005	-0.49966	0.	126.02
498	6.	3.	0.	117.4
499	6.	2.5	0.	119.37
500	6.	2.	0.	120.28
501	5.	1.5	0.	125.07
502	1.003	-1.4998	0.	123.48
503	-1.	7.5	0.	124.82
504	-0.5	7.5	0.	123.45
505	2.8744e-011	7.5	0.	122.52
506	3.3458e-011	7.	0.	121.98
507	-1.	6.5	0.	128.43
508	-7.5	-4.5	0.	128.39
509	-7.5	-4.	0.	127.95
510	-7.5	-3.5	0.	127.54
511	-7.5	-3.	0.	127.15
512	-7.5	-2.5	0.	126.75
513	-7.5	-2.	0.	126.4
514	-7.5	-1.5	0.	126.21
515	-7.5	-1.	0.	126.32
516	-7.5	-0.5	0.	126.8
517	-7.5	-3.7374e-009	0.	127.56
518	-6.	5.	0.	126.25
519	-6.5	5.	0.	128.71
520	-1.5	4.	0.	127.35
521	-3.	2.5	0.	124.09
522	-3.	2.	0.	122.44
523	-3.	1.5	0.	120.2
524	-3.5	1.5	0.	121.74
525	-3.5	4.	0.	124.73
526	-3.5	2.5	0.	124.23
527	-5.5	4.5	0.	121.42
528	-4.	4.5	0.	122.75
529	-5.5	-0.5	0.	123.84
530	-7.	-0.5	0.	127.13
531	-6.5	6.	0.	128.83
532	-7.5	6.	0.	125.98
533	-7.5	6.5	0.	125.36
534	-7.5	7.	0.	124.67
535	-7.5	7.5	0.	124.
536	-7.	7.5	0.	124.64
537	-6.5	7.5	0.	126.08
538	-4.5	5.5	0.	119.91
539	-6.	5.5	0.	127.82
540	-2.	5.5	0.	129.95
541	-3.5	5.5	0.	120.97
542	-1.5	7.5	0.	126.72
543	1.5001	-5.5	0.	118.81
544	2.0002	-5.	0.	122.76
545	4.5007	-6.5005	0.	123.46
546	4.0003	-7.0002	0.	125.82
547	5.0001	-7.5007	0.	123.73
548	4.5001	-7.5004	0.	124.26
549	4.0001	-7.5002	0.	125.44
550	3.5001	-7.5001	0.	127.02
551	3.0009	-2.4998	0.	127.56
552	4.5002	-2.5	0.	123.43
553	2.5003	-4.5	0.	124.97
554	2.501	-2.9999	0.	127.05
555	7.499	-4.4998	0.	125.06
556	5.5	2.5	0.	120.95
557	-0.99985	-5.5	0.	126.1
558	0.50013	-5.5	0.	118.24
559	-1.4999	-6.	0.	126.69
560	-5.5	-3.	0.	128.22
561	-5.5	-1.5	0.	126.39
562	-3.4998	-3.5	0.	120.78
563	-5.	-3.5	0.	127.26
564	-0.99858	-3.4999	0.	126.13
565	-2.4994	-3.4999	0.	120.48
566	-3.4999	-5.	0.	125.07
567	-7.	-4.5	0.	128.27
568	-5.5	-4.5	0.	123.44
569	-7.5	-5.	0.	128.68
570	-7.5	-6.5	0.	126.86
571	-3.5	-6.5	0.	124.77
572	-1.5	-7.5	0.	126.27
573	-2.	-7.5	0.	125.65
574	-2.5	-7.5	0.	125.48
575	-3.	-7.5	0.	125.61
576	4.5	1.	0.	126.8
577	4.5002	-1.9999	0.	124.82
578	4.5001	-0.49994	0.	125.14
579	5.0001	-2.5	0.	122.41
580	7.5	-2.9998	0.	127.21
581	5.5001	-7.5011	0.	124.18
582	4.	2.5	0.	130.93
583	-1.5	4.5	0.	128.14
584	-1.5	6.	0.	131.23
585	3.5	1.5	0.	129.1
586	3.5002	1.8063e-004	0.	126.71
587	3.5001	1.0001	0.	127.89
588	-1.5	5.5	0.	130.86
589	-1.5	5.	0.	129.46
590	3.5	2.	0.	131.16
591	3.5	2.5	0.	132.89
592	3.5	3.	0.	132.79
593	5.5005	-6.5013	0.	123.75
594	5.5003	-7.0012	0.	123.86
595	7.	-2.4999	0.	125.5
596	7.5	-2.4999	0.	127.
597	4.5002	-1.4999	0.	125.43
598	4.5001	5.2227e-005	0.	125.73
599	-3.5	-7.	0.	125.29
600	-7.5	-7.5	0.	127.67
601	-7.5	-5.5	0.	128.42
602	-7.5	-6.	0.	127.48
603	-6.5	-4.5	0.	127.04
604	-4.5	-4.5	0.	125.18
605	-3.5	-6.	0.	124.98
606	-3.4999	-5.5	0.	125.44
607	-1.4989	-3.4999	0.	125.59
608	-3.9999	-3.5	0.	123.83
609	-5.5	-2.5	0.	128.44
610	-1.5	-7.	0.	126.47
611	1.4206e-004	-5.5	0.	121.62
612	-0.49984	-5.5	0.	124.71
613	4.5	2.5	0.	128.38
614	5.	2.5	0.	124.68
615	3.5	4.	0.	129.27
616	7.4982	-5.	0.	125.03
617	6.	-2.4999	0.	123.04
618	7.4996	-3.9997	0.	125.84
619	7.4999	-3.4998	0.	126.93
620	2.5004	-4.	0.	125.6
621	3.5006	-2.4999	0.	127.3
622	3.5003	-7.0001	0.	128.08
623	3.5004	-6.5001	0.	129.86
624	4.0006	-6.5002	0.	126.62
625	2.0001	-5.5	0.	123.07
626	2.5002	-5.	0.	125.72
627	2.5002	-5.5	0.	127.62
628	-1.5	7.	0.	128.46
629	-2.5	5.5	0.	127.99
630	-5.5	5.5	0.	125.7
631	-5.	5.5	0.	122.68
632	-6.5	7.	0.	127.29
633	-6.5	6.5	0.	128.44
634	-6.5	-0.5	0.	126.1
635	-6.	-0.5	0.	124.15
636	-4.5	4.5	0.	121.81
637	-5.	4.5	0.	120.86
638	-3.5	3.	0.	125.03
639	-3.5	3.5	0.	125.33
640	-3.5	1.	0.	120.3
641	3.	4.	0.	130.17
642	-1.	4.	0.	129.1
643	-5.	-1.5	0.	128.56
644	3.0001	-7.5	0.	128.75
645	0.50005	-6.	0.	116.19
646	5.5005	-6.001	0.	122.64
647	4.5001	-3.	0.	121.65
648	-3.5	6.	0.	119.34
649	-6.	7.5	0.	128.54
650	-4.	2.5	0.	126.06
651	-6.	4.5	0.	124.67
652	-6.5	4.5	0.	128.78
653	-7.5	0.5	0.	128.35
654	3.4252e-011	6.5	0.	122.05
655	0.50315	-1.5	0.	122.6
656	5.5	1.5	0.	122.62
657	6.	1.5	0.	120.37
658	2.5007	-0.49959	0.	124.87
659	2.001	-0.4996	0.	122.8
660	1.5012	-0.49967	0.	121.9
661	-5.	-0.5	0.	127.05
662	-4.	1.5	0.	126.17
663	4.9999	-8.0006	0.	124.8
664	4.5	-8.0003	0.	125.05
665	4.	-8.0002	0.	125.79
666	3.5	-8.0001	0.	126.92
667	3.	-8.	0.	128.91
668	5.4999	-8.0008	0.	125.21
669	-2.	8.	0.	128.83
670	-1.5	8.	0.	125.48
671	-1.	8.	0.	123.97
672	-0.5	8.	0.	123.29
673	2.1708e-011	8.	0.	123.15
674	0.5	8.	0.	123.65
675	2.5	8.	0.	120.32
676	3.	8.	0.	120.53
677	-7.5	8.	0.	123.63
678	-7.	8.	0.	123.94
679	-6.5	8.	0.	125.15
680	-8.	6.	0.	124.23
681	-8.	6.5	0.	124.3
682	-8.	7.	0.	124.09
683	-8.	7.5	0.	123.81
684	-8.	8.	0.	123.71
685	4.	4.5	0.	130.13
686	7.4977	-6.0003	0.	122.57
687	8.	-2.9999	0.	127.25
688	7.9999	-3.4999	0.	126.73
689	7.9995	-3.9999	0.	125.97
690	7.9989	-4.5	0.	125.4
691	7.9982	-5.0001	0.	125.33
692	7.9977	-5.5001	0.	125.36
693	1.0022	-0.99979	0.	123.91
694	6.5	3.	0.	119.75
695	6.5	2.5	0.	121.16
696	6.5	2.	0.	121.29
697	6.5	1.5	0.	120.56
698	-2.5	2.5	0.	125.93
699	-2.5	2.	0.	124.53
700	-2.5	1.5	0.	122.68
701	2.989e-003	-1.5001	0.	121.38
702	0.5	7.5	0.	122.53
703	0.5	7.	0.	120.6
704	0.5	6.5	0.	118.8
705	3.5	4.5	0.	128.28
706	-1.5	3.5	0.	127.42
707	3.	1.5001	0.	129.12
708	3.0003	2.622e-004	0.	127.25
709	-1.	4.5	0.	129.56
710	-1.	6.	0.	130.68
711	3.	3.5	0.	131.8
712	6.	-7.5012	0.	125.09
713	8.	-2.	0.	127.68
714	6.5	-1.9999	0.	120.57
715	5.0001	-2.	0.	124.99
716	5.0001	-0.49997	0.	124.97
717	5.	1.	0.	126.21
718	-4.	-6.5	0.	124.9
719	-7.	-6.5	0.	126.67
720	-7.	-5.	0.	129.19
721	-5.5	-5.	0.	120.2
722	-3.9999	-5.	0.	126.34
723	1.	8.	0.	124.87
724	-0.49749	-2.	0.	124.11
725	-0.99825	-2.9999	0.	127.56
726	-3.4998	-3.	0.	118.85
727	-5.	-3.	0.	129.22
728	1.5001	-6.	0.	116.88
729	-1.	-7.5	0.	127.42
730	-0.99993	-6.	0.	127.57
731	-1.	-8.	0.	128.17
732	-1.5	-8.	0.	126.6
733	-2.	-8.	0.	126.11
734	-2.5	-8.	0.	126.01
735	-3.	-8.	0.	126.14
736	-3.5	-8.	0.	126.46
737	-4.	-8.	0.	126.83
738	-5.5	-8.	0.	118.63
739	-7.	-8.	0.	127.9
740	-7.5	-8.	0.	127.67
741	-8.	-8.	0.	127.43
742	-8.	-7.5	0.	127.28
743	-8.	-7.	0.	126.96
744	-8.	-6.5	0.	126.85
745	-8.	-6.	0.	127.25
746	-8.	-5.5	0.	127.81
747	-8.	-5.	0.	128.14
748	-8.	-4.5	0.	128.1
749	-8.	-4.	0.	127.85
750	-8.	-3.5	0.	127.51
751	-8.	-3.	0.	127.14
752	-8.	-2.5	0.	126.79
753	-8.	-2.	0.	126.48
754	-8.	-1.5	0.	126.25
755	-8.	-0.5	0.	125.98
756	-8.	-4.7297e-009	0.	125.61
757	-8.	0.5	0.	124.78
758	-7.5	5.5	0.	126.76
759	-7.	5.	0.	130.11
760	5.5	3.	0.	119.63
761	4.	3.	0.	132.06
762	6.9992	-4.4997	0.	125.27
763	7.	-2.9998	0.	127.38
764	3.0002	-4.5	0.	126.57
765	3.0007	-2.9999	0.	128.92
766	4.5008	-6.0004	0.	122.54
767	3.0003	-6.0001	0.	132.61
768	-2.	7.5	0.	129.37
769	-2.	6.	0.	131.64
770	-4.5	6.	0.	118.61
771	-6.	6.	0.	129.53
772	-7.	2.5	0.	133.09
773	-5.5	-7.2077e-008	0.	121.37
774	-7.	-2.9961e-008	0.	129.13
775	-5.5	4.	0.	117.91
776	-4.	4.	0.	124.71
777	-2.	3.	0.	128.33
778	-2.	2.5	0.	129.37
779	-2.	2.	0.	128.87
780	-4.	3.	0.	126.43
781	-4.	3.5	0.	126.25
782	-4.5	4.	0.	123.65
783	-5.	4.	0.	119.67
784	-7.	1.	0.	132.87
785	-7.	0.5	0.	131.37
786	-6.5	-6.8405e-008	0.	128.4
787	-6.	-7.7152e-008	0.	123.79
788	-6.	4.	0.	122.95
789	-7.	3.	0.	133.94
790	-6.	7.	0.	129.8
791	-6.	6.5	0.	130.5
792	-5.5	6.	0.	128.44
793	-5.	6.	0.	123.73
794	-2.5	6.	0.	130.31
795	-2.	7.	0.	131.08
796	3.0002	-5.0001	0.	128.84
797	3.0003	-5.5001	0.	131.47
798	4.0006	-6.0002	0.	127.51
799	4.0002	-3.	0.	125.83
800	3.5004	-2.9999	0.	129.2
801	3.0003	-4.	0.	128.17
802	6.9999	-3.4997	0.	128.24
803	6.	-2.9999	0.	123.99
804	6.9981	-5.5003	0.	127.73
805	6.9986	-5.	0.	126.77
806	7.	3.	0.	125.43
807	8.	3.5	0.	126.89
808	4.	4.	0.	130.64
809	4.	3.5	0.	132.05
810	4.5	3.	0.	130.33
811	7.5	3.	0.	128.98
812	7.	2.5	0.	125.74
813	7.	2.	0.	125.2
814	-7.	4.5	0.	131.78
815	-7.5	5.	0.	128.78
816	-8.	5.	0.	123.2
817	-8.	1.	0.	123.47
818	-7.5	1.	0.	129.71
819	-7.	1.5	0.	133.57
820	-7.	2.	0.	134.03
821	6.2684e-005	-6.	0.	121.83
822	-0.49993	-6.	0.	126.71
823	-0.99996	-6.5	0.	128.49
824	-0.99999	-7.	0.	128.06
825	3.0002	-7.	0.	130.35
826	3.0002	-6.5001	0.	132.11
827	2.0001	-6.	0.	123.59
828	-5.	-2.	0.	129.79
829	-5.	-2.5	0.	130.39
830	-4.4999	-3.	0.	128.64
831	-3.9999	-3.	0.	124.16
832	-1.4987	-2.9999	0.	127.63
833	-0.99808	-2.	0.	127.44
834	2.	8.	0.	122.89
835	1.5	8.	0.	125.27
836	1.	7.5	0.	124.3
837	1.	7.	0.	121.64
838	-4.	-6.	0.	126.21
839	-3.9999	-5.5	0.	127.08
840	-4.5	-5.	0.	126.37
841	-6.5	-5.	0.	128.07
842	-7.	-6.	0.	128.38
843	-7.	-7.	0.	127.85
844	-7.	-7.5	0.	128.65
845	-6.	-8.	0.	121.94
846	-4.5	-8.	0.	125.74
847	-4.	-7.	0.	126.4
848	5.5	1.	0.	124.44
849	5.	2.6196e-005	0.	126.39
850	5.0001	-0.99996	0.	126.11
851	5.0001	-1.5	0.	126.51
852	6.	-2.	0.	122.4
853	7.	-1.9999	0.	123.78
854	7.5	-1.9999	0.	127.65
855	6.9983	-6.0006	0.	126.61
856	3.	3.	0.	134.49
857	3.	2.	0.	133.02
858	3.	2.5	0.	135.67
859	2.2042e-011	6.	0.	123.21
860	-0.5	6.	0.	128.67
861	-1.	5.	0.	131.04
862	2.0005	2.9642e-004	0.	121.55
863	2.5004	3.0477e-004	0.	126.15
864	3.0001	1.0001	0.	128.57
865	-1.	3.5	0.	127.51
866	3.	4.5	0.	127.79
867	1.	6.5	0.	117.89
868	-0.49751	-1.5001	0.	121.96
869	-0.99823	-1.5001	0.	125.92
870	-2.	1.5	0.	128.
871	7.	1.5	0.	124.42
872	0.50236	-0.99993	0.	123.62
873	7.9979	-6.0001	0.	124.95
874	-1.5	3.	0.	129.06
875	4.	5.	0.	134.39
876	-8.	8.5	0.	123.97
877	-7.5	8.5	0.	123.79
878	-6.5	8.5	0.	124.73
879	-8.5	6.	0.	123.39
880	-8.5	6.5	0.	123.89
881	-8.5	7.	0.	123.95
882	-8.5	7.5	0.	123.89
883	8.5	8.	0.	127.66
884	8.5	7.5	0.	127.67
885	8.5	7.	0.	128.1
886	8.5	6.5	0.	129.1
887	8.5	6.	0.	130.24
888	8.5	5.5	0.	130.52
889	8.5	5.	0.	129.08
890	8.5	4.5	0.	127.21
891	8.5	4.	0.	125.9
892	8.5	3.5	0.	124.57
893	8.5	3.	0.	121.33
894	-2.	8.5	0.	127.34
895	-1.	8.5	0.	123.88
896	-0.5	8.5	0.	123.65
897	1.4774e-011	8.5	0.	123.8
898	0.5	8.5	0.	124.23
899	1.	8.5	0.	124.68
900	2.5	8.5	0.	121.94
901	3.	8.5	0.	122.35
902	3.5	8.5	0.	125.14
903	8.	8.5	0.	130.17
904	8.5	8.5	0.	127.65
905	-8.5	-8.	0.	127.3
906	-8.5	-7.5	0.	127.16
907	-8.5	-7.	0.	126.99
908	-8.5	-6.5	0.	126.96
909	-8.5	-6.	0.	127.17
910	-8.5	-5.5	0.	127.5
911	-8.5	-5.	0.	127.74
912	-8.5	-4.5	0.	127.77
913	-8.5	-4.	0.	127.63
914	-8.5	-3.5	0.	127.39
915	-8.5	-3.	0.	127.1
916	-8.5	-2.5	0.	126.8
917	-8.5	-1.5	0.	126.25
918	-8.5	-1.	0.	125.95
919	-8.5	-0.5	0.	125.47
920	-8.5	-2.3365e-009	0.	124.5
921	-8.5	0.5	0.	122.67
922	-8.5	1.	0.	119.28
923	-1.	-8.5	0.	128.44
924	-1.5	-8.5	0.	127.63
925	-2.	-8.5	0.	127.07
926	-2.5	-8.5	0.	126.77
927	-3.	-8.5	0.	126.58
928	-3.5	-8.5	0.	126.39
929	-4.	-8.5	0.	125.88
930	-4.5	-8.5	0.	124.42
931	-5.	-8.5	0.	122.22
932	-5.5	-8.5	0.	121.15
933	-6.	-8.5	0.	122.6
934	-7.	-8.5	0.	126.64
935	-7.5	-8.5	0.	127.18
936	-8.	-8.5	0.	127.3
937	-8.5	-8.5	0.	127.31
938	6.	-8.0009	0.	126.74
939	6.	-8.5005	0.	127.91
940	5.4999	-8.5005	0.	126.57
941	4.9999	-8.5004	0.	126.11
942	3.9999	-8.5001	0.	126.84
943	3.5	-8.5001	0.	127.77
944	3.	-8.5	0.	128.87
945	8.5	-2.	0.	126.81
946	8.5	-2.5	0.	127.48
947	8.5	-3.	0.	127.45
948	8.4998	-3.5	0.	127.07
949	8.4996	-4.0001	0.	126.61
950	8.4991	-4.5001	0.	126.36
951	8.4986	-5.0001	0.	126.55
952	8.4983	-5.5001	0.	127.29
953	8.4983	-6.	0.	129.13
954	-4.	1.	0.	127.4
955	-5.	-6.1579e-008	0.	126.78
956	3.5	5.	0.	128.43
957	0.5	6.	0.	117.69
958	1.5006	2.3779e-004	0.	118.6
959	1.0013	-0.49981	0.	124.01
960	2.2453e-003	-1.	0.	120.05
961	3.5	8.	0.	123.98
962	4.	8.5	0.	129.91
963	8.5	-0.99999	0.	120.61
964	8.	-1.5	0.	127.13
965	6.5	1.	0.	118.48
966	7.	1.	0.	124.49
967	8.	-0.99999	0.	124.73
968	4.	8.	0.	130.78
969	-2.	0.99998	0.	128.56
970	-0.49811	-1.0001	0.	118.77
971	1.0007	1.3516e-004	0.	122.7
972	2.5002	0.5002	0.	129.86
973	-0.5	5.5	0.	133.38
974	2.5	2.5	0.	139.23
975	8.5	-8.5	0.	132.15
976	6.5	-8.5004	0.	130.02
977	6.4995	-6.5012	0.	132.3
978	8.4988	-6.5	0.	133.11
979	7.5	-1.5	0.	131.09
980	5.5001	-1.5	0.	129.23
981	5.5	0.50001	0.	128.58
982	-4.5	-7.5	0.	129.31
983	-6.5	-7.5	0.	130.36
984	-6.5	-5.5	0.	131.35
985	-4.5	-5.5	0.	129.73
986	1.5	7.5	0.	127.95
987	1.	6.	0.	116.8
988	3.	5.	0.	126.77
989	-1.4988	-2.4999	0.	131.76
990	-4.5	-2.5	0.	132.86
991	9.	-2.	0.	127.39
992	9.	-2.5	0.	127.9
993	8.9999	-3.5001	0.	127.64
994	8.9997	-4.0001	0.	127.39
995	8.9993	-4.5001	0.	127.35
996	8.999	-5.0001	0.	127.69
997	8.9989	-5.5001	0.	128.56
998	8.9989	-6.	0.	130.
999	8.9991	-6.4999	0.	130.99
1000	8.9995	-6.9999	0.	130.26
1001	8.9998	-7.5	0.	128.85
1002	8.9999	-8.	0.	130.11
1003	9.	-9.	0.	129.89
1004	8.5	-9.	0.	128.06
1005	8.	-9.	0.	122.86
1006	7.5	-9.	0.	119.24
1007	7.	-9.0001	0.	121.91
1008	5.5	-9.0003	0.	127.29
1009	4.9999	-9.0002	0.	127.24
1010	4.4999	-9.0001	0.	127.59
1011	4.	-9.0001	0.	128.34
1012	3.5	-9.	0.	129.31
1013	3.	-9.	0.	130.46
1014	2.5001	-6.5	0.	133.52
1015	-0.49997	-6.5	0.	130.53
1016	-7.5	1.5	0.	133.36
1017	-7.5	4.5	0.	133.4
1018	-1.	-9.	0.	130.17
1019	-1.5	-9.	0.	129.19
1020	-2.	-9.	0.	128.37
1021	-2.5	-9.	0.	127.63
1022	-3.	-9.	0.	126.99
1023	-3.5	-9.	0.	126.32
1024	-4.	-9.	0.	125.42
1025	-4.5	-9.	0.	124.15
1026	-5.	-9.	0.	122.84
1027	-5.5	-9.	0.	122.33
1028	-6.	-9.	0.	123.08
1029	-6.5	-9.	0.	124.56
1030	-7.	-9.	0.	125.86
1031	-7.5	-9.	0.	126.65
1032	-8.	-9.	0.	127.04
1033	-8.5	-9.	0.	127.23
1034	-9.	-9.	0.	127.34
1035	-9.	-8.5	0.	127.32
1036	-9.	-8.	0.	127.25
1037	-9.	-7.5	0.	127.14
1038	-9.	-7.	0.	127.03
1039	-9.	-6.5	0.	127.02
1040	-9.	-6.	0.	127.14
1041	-9.	-5.5	0.	127.33
1042	-9.	-5.	0.	127.48
1043	-9.	-4.5	0.	127.53
1044	-9.	-4.	0.	127.45
1045	-9.	-3.5	0.	127.28
1046	-9.	-3.	0.	127.05
1047	-9.	-2.5	0.	126.79
1048	-9.	-2.	0.	126.54
1049	-9.	-1.5	0.	126.29
1050	-9.	-1.	0.	126.01
1051	-9.	-0.5	0.	125.6
1052	-9.	-5.8211e-010	0.	124.89
1053	-9.	0.5	0.	123.74
1054	-9.	1.	0.	122.25
1055	9.	-1.	0.	124.28
1056	-1.5	9.	0.	125.19
1057	-1.	9.	0.	124.67
1058	-0.5	9.	0.	124.56
1059	9.0959e-012	9.	0.	124.62
1060	0.5	9.	0.	124.74
1061	1.5	9.	0.	124.4
1062	2.	9.	0.	123.71
1063	2.5	9.	0.	123.21
1064	3.5	9.	0.	125.23
1065	4.	9.	0.	127.74
1066	4.5	9.	0.	128.88
1067	5.	9.	0.	125.68
1068	5.5	9.	0.	120.93
1069	6.	9.	0.	118.61
1070	6.5	9.	0.	120.37
1071	7.	9.	0.	124.89
1072	7.5	9.	0.	128.46
1073	8.	9.	0.	128.3
1074	8.5	9.	0.	126.85
1075	9.	9.	0.	125.61
1076	9.	8.5	0.	125.76
1077	9.	8.	0.	125.68
1078	9.	3.5	0.	125.75
1079	9.	3.	0.	124.75
1080	7.5	2.5	0.	130.79
1081	4.5	3.5	0.	134.
1082	7.5	3.5	0.	131.28
1083	6.4991	-5.5005	0.	132.72
1084	6.4999	-3.4997	0.	131.09
1085	3.5003	-3.5	0.	132.99
1086	3.5004	-5.5001	0.	135.04
1087	-2.5	6.5	0.	134.43
1088	-2.	9.	0.	127.2
1089	-9.	5.	0.	122.39
1090	-9.	5.5	0.	123.4
1091	-9.	6.	0.	124.01
1092	-9.	6.5	0.	124.21
1093	-9.	7.	0.	124.17
1094	-9.	7.5	0.	124.09
1095	-9.	8.	0.	124.11
1096	-9.	8.5	0.	124.32
1097	-9.	9.	0.	124.69
1098	-8.5	9.	0.	124.69
1099	-8.	9.	0.	124.63
1100	-7.5	9.	0.	124.55
1101	-7.	9.	0.	124.59
1102	-6.5	9.	0.	125.03
1103	-6.	9.	0.	126.99
1104	-5.5	6.5	0.	132.88
1105	-6.5	0.5	0.	133.44
1106	-4.5	0.5	0.	138.97
1107	-4.5	3.5	0.	127.78
1108	4.5	8.5	0.	135.06
1109	4.5	5.5	0.	149.59
1110	7.5	5.5	0.	139.42
1111	7.5	8.5	0.	133.39
1112	0.5013	-0.49991	0.	127.61
1113	-1.5	2.5	0.	133.47
1114	-1.	3.	0.	126.91
1115	-1.	2.5	0.	127.33
1116	-0.5	2.5	0.	119.77
1117	0.50051	6.5215e-005	0.	128.86
1118	0.50017	0.50002	0.	134.3
1119	1.2142e-003	-0.50001	0.	121.14
1120	-0.49899	-0.50008	0.	111.69
1121	-1.5	2.	0.	133.53
1122	-1.5	1.5	0.	135.27
1123	-1.5	0.99999	0.	139.1
1124	7.5	8.	0.	132.86
1125	7.5	7.5	0.	135.46
1126	7.5	7.	0.	137.05
1127	7.5	6.	0.	135.9
1128	7.5	6.5	0.	135.65
1129	4.5	8.	0.	136.81
1130	4.5	7.5	0.	143.54
1131	6.5	8.5	0.	116.78
1132	6.	8.5	0.	117.29
1133	5.5	8.5	0.	117.9
1134	5.	8.5	0.	129.4
1135	-4.5	3.	0.	128.14
1136	-4.5	2.5	0.	130.85
1137	-4.5	2.	0.	133.58
1138	-4.5	1.	0.	133.41
1139	-4.5	1.5	0.	133.63
1140	-5.	0.5	0.	128.15
1141	-6.	0.5	0.	125.24
1142	-5.5	0.5	0.	114.1
1143	-6.5	1.	0.	133.99
1144	-6.5	1.5	0.	136.55
1145	-6.5	2.	0.	137.78
1146	-6.5	3.	0.	132.6
1147	-6.5	2.5	0.	135.61
1148	-6.	3.5	0.	123.19
1149	-5.	3.5	0.	120.13
1150	-5.5	3.5	0.	110.13
1151	-5.5	7.	0.	132.44
1152	-5.5	7.5	0.	134.39
1153	-5.5	8.	0.	136.
1154	-5.5	9.	0.	130.4
1155	-5.5	8.5	0.	134.3
1156	-2.5	9.	0.	130.6
1157	-2.5	8.5	0.	134.68
1158	-2.5	8.	0.	136.53
1159	-2.5	7.	0.	133.63
1160	-2.5	7.5	0.	135.15
1161	-5.	6.5	0.	125.98
1162	-4.5	6.5	0.	115.75
1163	-4.	6.5	0.	116.07
1164	-3.5	6.5	0.	116.26
1165	-3.	6.5	0.	126.99
1166	3.5002	-5.0001	0.	132.43
1167	3.5002	-4.	0.	132.01
1168	3.5001	-4.5	0.	131.33
1169	4.0002	-3.5	0.	127.17
1170	4.5001	-3.5	0.	118.87
1171	5.	-3.5	0.	119.35
1172	6.	-3.4999	0.	125.96
1173	5.5	-3.5	0.	118.04
1174	6.4998	-3.9997	0.	130.03
1175	6.4993	-5.0001	0.	130.61
1176	6.4996	-4.4998	0.	129.79
1177	5.9998	-5.5006	0.	128.16
1178	5.5003	-5.5005	0.	119.55
1179	5.0005	-5.5004	0.	120.31
1180	4.0004	-5.5001	0.	129.16
1181	4.5005	-5.5002	0.	119.78
1182	5.	5.5	0.	130.59
1183	5.5	5.5	0.	111.34
1184	6.	5.5	0.	111.55
1185	7.	5.5	0.	125.13
1186	6.5	5.5	0.	109.51
1187	7.5	5.	0.	134.19
1188	7.5	4.	0.	129.76
1189	7.5	4.5	0.	130.49
1190	7.	3.5	0.	126.11
1191	6.5	3.5	0.	116.22
1192	6.	3.5	0.	116.58
1193	5.	3.5	0.	127.03
1194	5.5	3.5	0.	116.62
1195	4.5	5.	0.	139.85
1196	4.5	4.5	0.	134.14
1197	4.5	4.	0.	133.01
1198	8.	2.5	0.	124.61
1199	9.	2.5	0.	125.45
1200	8.5	2.5	0.	113.31
1201	9.	-0.5	0.	124.63
1202	8.	-0.49999	0.	123.58
1203	8.5	-0.5	0.	112.31
1204	7.5	2.	0.	129.55
1205	7.5	1.5	0.	132.28
1206	7.5	1.	0.	135.47
1207	7.5	0.5	0.	137.65
1208	-9.	4.5	0.	123.18
1209	-8.	4.5	0.	124.48
1210	-8.5	4.5	0.	112.01
1211	-7.5	4.	0.	133.66
1212	-7.5	3.5	0.	136.55
1213	-7.5	3.	0.	137.96
1214	-7.5	2.	0.	133.05
1215	-7.5	2.5	0.	135.94
1216	-9.	1.5	0.	122.78
1217	-8.5	1.5	0.	111.52
1218	-8.	1.5	0.	123.96
1219	2.4594e-005	-6.5	0.	123.66
1220	0.50002	-6.5	0.	112.35
1221	1.	-6.5	0.	112.36
1222	2.0001	-6.5	0.	125.25
1223	1.5	-6.5	0.	113.08
1224	2.5001	-7.	0.	131.68
1225	2.5	-7.5	0.	133.19
1226	2.5	-8.	0.	134.1
1227	2.5	-9.	0.	130.86
1228	2.5	-8.5	0.	132.15
1229	-0.5	-9.	0.	130.46
1230	-0.5	-8.5	0.	131.55
1231	-0.49999	-7.	0.	129.41
1232	-0.5	-7.5	0.	131.86
1233	-0.5	-8.	0.	133.18
1234	-4.5	-2.	0.	132.26
1235	-4.5	-1.5	0.	134.11
1236	-4.5	-1.	0.	135.99
1237	-4.5	-5.4159e-008	0.	133.79
1238	-4.5	-0.5	0.	135.06
1239	-4.	0.5	0.	130.28
1240	-3.5	0.5	0.	117.31
1241	-3.	0.5	0.	116.8
1242	-2.	0.49998	0.	130.02
1243	-2.5	0.49999	0.	117.3
1244	-1.4999	-7.6715e-005	0.	138.32
1245	-1.4996	-0.50012	0.	140.38
1246	-1.4992	-1.0001	0.	137.45
1247	-1.499	-2.	0.	131.38
1248	-1.4991	-1.5001	0.	133.77
1249	-1.9993	-2.5	0.	125.54
1250	-2.4996	-2.5	0.	115.49
1251	-2.9998	-2.5	0.	115.68
1252	-3.9999	-2.5	0.	125.96
1253	-3.4999	-2.5	0.	115.58
1254	4.	5.5	0.	139.47
1255	3.5	5.5	0.	127.19
1256	3.	5.5	0.	127.15
1257	2.5	5.5	0.	127.45
1258	1.5	6.	0.	122.21
1259	1.5	7.	0.	126.26
1260	1.5	6.5	0.	124.32
1261	2.	7.5	0.	123.61
1262	2.5	7.5	0.	117.94
1263	3.	7.5	0.	120.57
1264	4.	7.5	0.	132.2
1265	3.5	7.5	0.	121.59
1266	4.5	6.	0.	143.5
1267	4.5	6.5	0.	143.83
1268	4.5	7.	0.	145.12
1269	2.5	2.	0.	134.58
1270	2.5001	1.0001	0.	129.47
1271	2.5	1.5001	0.	130.97
1272	2.0002	0.50016	0.	122.23
1273	1.0003	0.50006	0.	122.42
1274	1.5003	0.50012	0.	111.08
1275	0.50003	1.	0.	135.14
1276	0.5	2.	0.	127.2
1277	0.5	1.5	0.	133.22
1278	-0.5	3.	0.	126.63
1279	-0.5	3.5	0.	132.24
1280	-0.5	4.	0.	135.09
1281	-0.5	5.	0.	132.63
1282	-0.5	4.5	0.	134.43
1283	-4.2886e-010	5.5	0.	126.11
1284	0.5	5.5	0.	115.56
1285	1.	5.5	0.	117.13
1286	2.	5.5	0.	130.45
1287	1.5	5.5	0.	121.1
1288	2.5	5.	0.	128.96
1289	2.5	4.5	0.	133.42
1290	2.5	4.	0.	135.65
1291	2.5	3.	0.	135.33
1292	2.5	3.5	0.	134.89
1293	6.5069e-008	2.5	0.	129.33
1294	0.5	2.5	0.	125.38
1295	1.	2.5	0.	117.27
1296	1.5	2.5	0.	106.73
1297	2.	2.5	0.	123.61
1298	8.	-8.5	0.	124.19
1299	7.	-8.5001	0.	122.94
1300	7.5	-8.5	0.	113.18
1301	6.5	-8.0006	0.	129.62
1302	6.5	-7.5008	0.	129.67
1303	6.9993	-6.5004	0.	126.37
1304	7.9988	-6.5	0.	125.74
1305	7.4991	-6.5001	0.	115.4
1306	8.5	-8.	0.	131.82
1307	8.4999	-7.5	0.	132.
1308	8.4996	-7.	0.	132.39
1309	7.5	-0.99998	0.	131.94
1310	7.5	-0.49999	0.	134.65
1311	7.	-1.5	0.	124.12
1312	6.	-1.5	0.	123.71
1313	6.5	-1.5	0.	113.96
1314	5.5	-0.99998	0.	128.52
1315	5.5	1.1289e-005	0.	128.6
1316	5.5	-0.49998	0.	128.84
1317	6.	0.5	0.	121.49
1318	7.	0.5	0.	125.21
1319	6.5	0.5	0.	112.48
1320	-5.	-7.5	0.	122.05
1321	-6.	-7.5	0.	122.96
1322	-5.5	-7.5	0.	112.14
1323	-6.5	-7.	0.	129.63
1324	-6.5	-6.	0.	130.38
1325	-6.5	-6.5	0.	129.82
1326	-6.	-5.5	0.	123.59
1327	-5.	-5.5	0.	123.38
1328	-5.5	-5.5	0.	113.08
1329	-4.5	-7.	0.	128.75
1330	-4.5	-6.5	0.	128.6
1331	-4.5	-6.	0.	128.57
1332	9.5	9.	0.	124.52
1333	9.5	8.	0.	123.73
1334	9.5	7.5	0.	123.52
1335	9.5	7.	0.	123.65
1336	9.5	6.5	0.	124.14
1337	9.5	6.	0.	124.83
1338	9.5	5.5	0.	125.48
1339	9.5	5.	0.	126.02
1340	9.5	4.5	0.	126.63
1341	9.5	4.	0.	127.5
1342	9.5	3.5	0.	128.7
1343	9.5	3.	0.	130.67
1344	9.5	2.5	0.	135.01
1345	9.5	2.	0.	135.85
1346	9.5	1.5	0.	138.71
1347	9.5	1.	0.	140.23
1348	9.5	0.5	0.	138.35
1349	9.5	1.0298e-007	0.	135.06
1350	9.5	-0.5	0.	134.31
1351	9.5	-1.	0.	130.46
1352	9.5	-1.5	0.	129.36
1353	9.5	-2.	0.	129.05
1354	9.5	-2.5	0.	128.77
1355	9.5	-3.	0.	128.46
1356	9.4999	-3.5001	0.	128.17
1357	9.4998	-4.0001	0.	128.
1358	9.4997	-4.5001	0.	128.07
1359	9.4995	-5.0001	0.	128.39
1360	9.4995	-5.5	0.	128.93
1361	9.4995	-6.	0.	129.44
1362	9.4996	-6.5	0.	129.54
1363	9.4997	-6.9999	0.	129.06
1364	9.4999	-7.5	0.	128.83
1365	9.5	-8.	0.	129.23
1366	9.5	-9.	0.	130.21
1367	9.5	-9.5	0.	130.14
1368	9.	-9.5	0.	128.73
1369	8.5	-9.5	0.	126.33
1370	8.	-9.5	0.	123.14
1371	7.5	-9.5	0.	121.28
1372	7.	-9.5001	0.	122.36
1373	6.5	-9.5001	0.	124.86
1374	6.	-9.5002	0.	126.67
1375	5.5	-9.5001	0.	127.46
1376	5.	-9.5001	0.	127.94
1377	4.5	-9.5001	0.	128.61
1378	4.	-9.5	0.	129.64
1379	3.5	-9.5	0.	130.95
1380	3.	-9.5	0.	132.13
1381	2.5	-9.5	0.	132.
1382	2.	-9.5	0.	121.06
1383	1.5	-9.5	0.	108.07
1384	1.	-9.5	0.	106.85
1385	0.5	-9.5	0.	107.95
1386	-3.3212e-008	-9.5	0.	120.8
1387	-0.5	-9.5	0.	131.7
1388	-1.	-9.5	0.	131.89
1389	-1.5	-9.5	0.	130.79
1390	-2.	-9.5	0.	129.5
1391	-2.5	-9.5	0.	128.34
1392	-3.	-9.5	0.	127.32
1393	-3.5	-9.5	0.	126.33
1394	-4.	-9.5	0.	125.27
1395	-4.5	-9.5	0.	124.14
1396	-5.	-9.5	0.	123.21
1397	-5.5	-9.5	0.	122.9
1398	-6.	-9.5	0.	123.37
1399	-6.5	-9.5	0.	124.39
1400	-7.	-9.5	0.	125.47
1401	-7.5	-9.5	0.	126.31
1402	-8.	-9.5	0.	126.84
1403	-8.5	-9.5	0.	127.14
1404	-9.	-9.5	0.	127.33
1405	-9.5	-9.5	0.	127.51
1406	-9.5	-9.	0.	127.45
1407	-9.5	-8.5	0.	127.36
1408	-9.5	-8.	0.	127.24
1409	-9.5	-7.5	0.	127.1
1410	-9.5	-7.	0.	127.01
1411	-9.5	-6.5	0.	127.
1412	-9.5	-6.	0.	127.09
1413	-9.5	-5.5	0.	127.23
1414	-9.5	-5.	0.	127.36
1415	-9.5	-4.5	0.	127.42
1416	-9.5	-4.	0.	127.38
1417	-9.5	-3.5	0.	127.25
1418	-9.5	-3.	0.	127.03
1419	-9.5	-2.5	0.	126.78
1420	-9.5	-2.	0.	126.52
1421	-9.5	-1.5	0.	126.3
1422	-9.5	-1.	0.	126.15
1423	-9.5	-0.5	0.	126.08
1424	-9.5	-2.5175e-010	0.	126.16
1425	-9.5	0.5	0.	126.45
1426	-9.5	1.	0.	127.63
1427	-9.5	1.5	0.	131.46
1428	-9.5	2.	0.	132.15
1429	-9.5	2.5	0.	135.14
1430	-9.5	3.	0.	136.95
1431	-9.5	3.5	0.	135.48
1432	-9.5	4.	0.	132.85
1433	-9.5	4.5	0.	132.12
1434	-9.5	5.	0.	128.05
1435	-9.5	5.5	0.	126.41
1436	-9.5	6.	0.	125.53
1437	-9.5	6.5	0.	124.85
1438	-9.5	7.	0.	124.37
1439	-9.5	7.5	0.	124.12
1440	-9.5	8.	0.	124.11
1441	-9.5	8.5	0.	124.29
1442	-9.5	9.	0.	124.6
1443	-9.5	9.5	0.	124.92
1444	-9.	9.5	0.	125.1
1445	-8.5	9.5	0.	125.29
1446	-8.	9.5	0.	125.52
1447	-7.5	9.5	0.	125.79
1448	-7.	9.5	0.	126.11
1449	-6.5	9.5	0.	126.53
1450	-6.	9.5	0.	127.36
1451	-5.5	9.5	0.	130.22
1452	-5.	9.5	0.	127.64
1453	-4.5	9.5	0.	119.86
1454	-4.	9.5	0.	120.98
1455	-3.5	9.5	0.	119.97
1456	-3.	9.5	0.	127.91
1457	-2.5	9.5	0.	130.48
1458	-2.	9.5	0.	127.63
1459	-1.5	9.5	0.	126.79
1460	-1.	9.5	0.	126.33
1461	-0.5	9.5	0.	125.95
1462	4.3127e-012	9.5	0.	125.62
1463	0.5	9.5	0.	125.32
1464	1.	9.5	0.	125.
1465	1.5	9.5	0.	124.62
1466	2.	9.5	0.	124.24
1467	2.5	9.5	0.	124.02
1468	3.	9.5	0.	124.17
1469	3.5	9.5	0.	124.7
1470	4.	9.5	0.	125.26
1471	4.5	9.5	0.	125.
1472	5.	9.5	0.	123.55
1473	5.5	9.5	0.	121.56
1474	6.	9.5	0.	120.59
1475	6.5	9.5	0.	121.43
1476	7.	9.5	0.	123.46
1477	7.5	9.5	0.	125.2
1478	8.	9.5	0.	125.91
1479	8.5	9.5	0.	125.8
1480	9.	9.5	0.	125.41
1481	9.5	9.5	0.	124.91
1482	-1.	5.5	0.	131.85
1483	-8.5	8.5	0.	124.18
1484	4.0001	0.50007	0.	126.79
1485	2.002	-1.9997	0.	125.03
1486	7.4979	-5.5002	0.	124.87
1487	-6.	-5.	0.	123.42
1488	5.	3.	0.	125.2
1489	4.0003	-0.99985	0.	125.36
1490	9.	-1.5	0.	126.11
1491	-2.	-6.5	0.	125.79
1492	2.	8.5	0.	123.14
1493	5.5	-2.5	0.	122.53
1494	-8.5	5.5	0.	122.09
1495	-2.4995	-3.	0.	118.63
1496	-1.9991	-2.9999	0.	123.61
1497	-3.	5.	0.	124.52
1498	-6.	8.	0.	128.33
1499	4.4999	-8.5002	0.	126.27
1500	-0.99867	-1.0001	0.	125.44
1501	-6.	-4.5	0.	124.84
1502	-1.5	8.5	0.	124.92
1503	-7.5	-7.	0.	127.06
1504	-6.	-3.5	0.	127.01
1505	8.	3.	0.	125.
1506	-6.5	4.	0.	129.64
1507	-1.5	0.49997	0.	141.74
1508	7.5	2.7642e-006	0.	134.6
1509	9.5	-8.5	0.	129.97
1510	6.4999	-7.001	0.	130.08
1511	8.	5.5	0.	134.53
1512	9.	6.	0.	127.4
1513	8.	7.5	0.	130.01
1514	-1.5	6.5	0.	130.31
1515	1.5013	-3.5	0.	123.54
1516	-5.	-8.	0.	121.38
1517	3.5004	-6.0001	0.	131.95
1518	3.0002	0.50018	0.	128.4
1519	-6.5	-2.	0.	126.23
1520	9.	4.5	0.	126.8
1521	5.5	-3.	0.	120.8
1522	-4.4999	-3.5	0.	126.36
1523	1.0015	-3.5	0.	123.01
1524	6.5	-2.4999	0.	123.84
1525	-6.5	-8.5	0.	125.05
1526	-7.	3.5	0.	133.43
1527	-0.9982	-2.4999	0.	128.36
1528	3.0005	-3.5	0.	129.5
1529	-2.4999	-6.	0.	125.04
1530	4.5	0.50004	0.	126.54
1531	8.	4.	0.	127.17
1532	-6.	8.5	0.	127.05
1533	-2.9997	-3.	0.	116.65
1534	9.	7.5	0.	125.61
1535	8.	8.	0.	130.34
1536	9.	5.5	0.	127.75
1537	8.	6.	0.	133.72
1538	6.	-6.5014	0.	127.63
1539	9.	5.	0.	127.42
1540	8.	4.5	0.	127.54
1541	8.	5.	0.	131.57
1542	9.	6.5	0.	126.6
1543	9.	7.	0.	125.91
1544	8.	6.5	0.	131.65
1545	8.	7.	0.	131.02
1546	-5.	-4.5	0.	124.11
1547	-6.	-4.	0.	126.07
1548	3.5001	0.50013	0.	127.41
1549	-2.	6.5	0.	132.28
1550	-3.	1.	0.	117.59
1551	9.	4.	0.	126.33
1552	-8.5	8.	0.	123.92
1553	-7.	-5.5	0.	129.6
1554	3.2557e-004	-5.	0.	121.93
1555	2.5002	-6.	0.	130.01
1556	7.	8.5	0.	127.4
1557	-4.	-7.5	0.	127.38
1558	-1.9992	-3.4999	0.	123.27
1559	4.	2.	0.	129.49
1560	-6.5	3.5	0.	133.
1561	-1.9999	-6.	0.	125.74
1562	-3.	3.	0.	125.08
1563	1.	9.	0.	124.75
1564	9.5	8.5	0.	124.13
1565	-3.	6.	0.	125.14
1566	-7.	8.5	0.	123.85
1567	-0.99927	-0.50011	0.	126.12
1568	5.9998	-6.001	0.	127.65
1569	6.	-9.0003	0.	127.51
1570	3.5	3.5	0.	131.28
1571	2.001	-3.5	0.	124.78
1572	-1.5	-6.5	0.	126.89
1573	-8.5	5.	0.	119.28
1574	8.	-2.4999	0.	127.49
1575	3.	9.	0.	123.6
1576	5.5001	-2.	0.	125.03
1577	6.0001	-7.0013	0.	126.42
1578	4.0003	-2.4999	0.	125.56
1579	-6.	-2.	0.	126.55
1580	-8.	-1.	0.	126.12
1581	-0.5	6.5	0.	125.75
1582	-1.9996	-4.4999	0.	124.11
1583	-3.9999	-4.5	0.	125.01
1584	6.	1.	0.	120.13
1585	-2.5	0.99999	0.	120.65
1586	5.	0.50002	0.	127.07
1587	-7.	4.	0.	132.87
1588	9.	-8.5	0.	130.78
1589	6.5	-9.0003	0.	126.31
1590	-5.	-5.	0.	122.79
1591	9.	-3.	0.	127.89
1592	6.9996	-3.9997	0.	127.02
1593	6.5	-2.9998	0.	126.88
1594	-6.5	-8.	0.	126.63
1595	-5.5	-2.	0.	127.57
1596	4.5002	-0.99992	0.	125.19
1597	8.5	-1.5	0.	124.79
1598	1.5	8.5	0.	124.4
1599	-0.49761	-2.5	0.	125.56
1600	2.5007	-3.5	0.	126.72
1601	-8.5	-2.	0.	126.52
1602	-3.	5.5	0.	124.6
1603	-3.5	-7.5	0.	126.15
1604	-8.	5.5	0.	123.84
1605	-6.5	-1.	0.	125.47
1606	-4.5	5.	0.	120.88
1607	-0.9994	-4.4999	0.	124.86
1608	3.0009	-1.4997	0.	125.84
1609	-7.	-2.5	0.	126.72
1610	1.0021	-3.	0.	123.54
1611	6.4991	-6.0009	0.	130.69
1612	7.	-7.25	0.	139.27
1613	7.25	-7.	0.	124.
1614	6.9997	-6.7502	0.	130.97
1615	6.75	-7.0005	0.	132.53
1616	7.	-7.75	0.	138.14
1617	7.25	-8.	0.	122.21
1618	7.	-8.2501	0.	128.08
1619	6.75	-8.0003	0.	131.08
1620	7.75	-7.	0.	124.07
1621	8.	-7.25	0.	140.03
1622	7.9994	-6.75	0.	130.69
1623	8.2498	-7.	0.	133.7
1624	7.75	-8.	0.	123.01
1625	8.	-7.75	0.	139.63
1626	8.	-8.25	0.	129.52
1627	8.25	-8.	0.	132.99
1628	5.	7.75	0.	146.31
1629	5.25	8.	0.	128.97
1630	4.75	8.	0.	138.67
1631	5.	8.25	0.	135.5
1632	5.	6.25	0.	141.93
1633	5.25	6.	0.	124.84
1634	5.	5.75	0.	134.34
1635	4.75	6.	0.	140.7
1636	6.75	8.	0.	126.14
1637	7.	7.75	0.	141.4
1638	7.25	8.	0.	134.84
1639	7.	8.25	0.	132.47
1640	6.75	6.	0.	122.15
1641	7.	6.25	0.	139.29
1642	7.25	6.	0.	134.64
1643	7.	5.75	0.	129.49
1644	4.	-4.25	0.	141.03
1645	4.25	-4.	0.	127.47
1646	3.7501	-4.	0.	133.9
1647	4.0001	-3.75	0.	131.8
1648	4.	-4.75	0.	141.94
1649	4.25	-5.	0.	128.59
1650	3.7501	-5.	0.	135.11
1651	4.0002	-5.2501	0.	133.76
1652	5.75	-4.	0.	126.42
1653	6.	-4.25	0.	139.67
1654	6.	-3.75	0.	130.74
1655	6.2499	-3.9999	0.	132.44
1656	5.75	-5.	0.	127.51
1657	6.	-4.75	0.	140.23
1658	6.2496	-5.	0.	133.33
1659	5.9999	-5.2503	0.	132.39
1660	6.	-0.25	0.	137.01
1661	6.25	0.	0.	121.31
1662	5.75	5.6446e-006	0.	130.06
1663	6.	0.25	0.	126.84
1664	6.	-0.75	0.	137.82
1665	6.25	-1.	0.	122.67
1666	6.	-1.25	0.	128.81
1667	5.75	-0.99999	0.	130.86
1668	6.75	0.	0.	123.43
1669	7.	-0.25	0.	141.4
1670	7.	0.25	0.	130.86
1671	7.25	1.3821e-006	0.	135.2
1672	6.75	-1.	0.	123.26
1673	7.	-0.75	0.	140.64
1674	7.25	-0.99999	0.	132.96
1675	7.	-1.25	0.	129.46
1676	1.	1.75	0.	132.75
1677	1.25	2.	0.	116.77
1678	0.75	2.	0.	126.73
1679	1.	2.25	0.	122.27
1680	1.	1.25	0.	135.15
1681	1.25	1.	0.	119.87
1682	1.0001	0.75003	0.	127.26
1683	0.75002	1.	0.	133.37
1684	1.75	2.	0.	118.76
1685	2.	1.75	0.	136.52
1686	2.25	2.	0.	132.74
1687	2.	2.25	0.	127.4
1688	1.75	1.	0.	120.18
1689	2.	1.25	0.	137.08
1690	2.25	1.0001	0.	130.75
1691	2.0001	0.75008	0.	127.46
1692	-6.	2.75	0.	137.73
1693	-5.75	3.	0.	119.79
1694	-6.25	3.	0.	132.58
1695	-6.	3.25	0.	128.23
1696	-6.	1.25	0.	139.99
1697	-5.75	1.	0.	123.09
1698	-6.	0.75	0.	130.48
1699	-6.25	1.	0.	134.51
1700	-5.25	3.	0.	118.22
1701	-5.	2.75	0.	134.97
1702	-4.75	3.	0.	128.73
1703	-5.	3.25	0.	125.08
1704	-5.25	1.	0.	124.06
1705	-5.	1.25	0.	140.61
1706	-4.75	1.	0.	135.42
1707	-5.	0.75	0.	132.96
1708	-1.	1.75	0.	140.91
1709	-0.75	2.	0.	124.3
1710	-1.	2.25	0.	131.71
1711	-1.25	2.	0.	134.52
1712	-1.	0.25	0.	143.14
1713	-0.75	0.	0.	123.39
1714	-1.2499	-3.8358e-005	0.	137.76
1715	-0.99964	-0.25005	0.	132.08
1716	-0.25	2.	0.	124.31
1717	0.	1.75	0.	137.59
1718	0.25	2.	0.	131.55
1719	3.2534e-008	2.25	0.	132.97
1720	-0.25	0.	0.	120.72
1721	0.	0.25	0.	137.73
1722	0.25025	3.2607e-005	0.	130.27
1723	6.0708e-004	-0.25001	0.	126.82
1724	-5.	8.75	0.	142.79
1725	-4.75	9.	0.	128.8
1726	-5.25	9.	0.	134.49
1727	-5.	9.25	0.	133.53
1728	-5.	7.25	0.	140.68
1729	-4.75	7.	0.	125.45
1730	-5.25	7.	0.	133.86
1731	-5.	6.75	0.	131.01
1732	-3.25	9.	0.	129.
1733	-3.	8.75	0.	143.13
1734	-2.75	9.	0.	134.76
1735	-3.	9.25	0.	133.85
1736	-3.25	7.	0.	126.05
1737	-3.	7.25	0.	141.35
1738	-2.75	7.	0.	134.84
1739	-3.	6.75	0.	131.88
1740	-4.	-0.25	0.	143.32
1741	-3.75	0.	0.	128.1
1742	-4.25	-2.7079e-008	0.	136.8
1743	-4.	0.25	0.	135.29
1744	-4.	-1.75	0.	140.08
1745	-3.75	-2.	0.	125.11
1746	-4.25	-2.	0.	133.56
1747	-4.	-2.25	0.	130.78
1748	-2.25	0.	0.	128.58
1749	-2.	-0.25	0.	145.35
1750	-2.	0.24999	0.	135.45
1751	-1.7499	-3.8358e-005	0.	139.22
1752	-2.25	-2.	0.	125.14
1753	-2.	-1.75	0.	140.58
1754	-1.7495	-2.	0.	133.05
1755	-1.9997	-2.25	0.	130.53
1756	-6.	-6.25	0.	137.6
1757	-5.75	-6.	0.	121.71
1758	-6.25	-6.	0.	131.43
1759	-6.	-5.75	0.	128.34
1760	-6.	-6.75	0.	137.62
1761	-5.75	-7.	0.	121.46
1762	-6.	-7.25	0.	128.08
1763	-6.25	-7.	0.	131.09
1764	-5.25	-6.	0.	121.68
1765	-5.	-6.25	0.	137.14
1766	-5.	-5.75	0.	128.26
1767	-4.75	-6.	0.	130.53
1768	-5.25	-7.	0.	120.86
1769	-5.	-6.75	0.	136.59
1770	-5.	-7.25	0.	126.99
1771	-4.75	-7.	0.	130.02
1772	5.	4.75	0.	142.21
1773	5.25	5.	0.	126.07
1774	5.	5.25	0.	134.24
1775	4.75	5.	0.	138.83
1776	5.	4.25	0.	141.57
1777	5.25	4.	0.	126.26
1778	5.	3.75	0.	132.02
1779	4.75	4.	0.	134.66
1780	6.75	5.	0.	122.3
1781	7.	4.75	0.	137.67
1782	7.	5.25	0.	128.91
1783	7.25	5.	0.	133.28
1784	6.75	4.	0.	124.77
1785	7.	4.25	0.	138.69
1786	7.25	4.	0.	132.1
1787	7.	3.75	0.	130.59
1788	-9.	3.75	0.	138.83
1789	-8.75	4.	0.	121.33
1790	-9.	4.25	0.	128.46
1791	-9.25	4.	0.	132.93
1792	-9.	2.25	0.	138.63
1793	-8.75	2.	0.	120.77
1794	-9.	1.75	0.	128.12
1795	-9.25	2.	0.	132.45
1796	-8.25	4.	0.	122.09
1797	-8.	3.75	0.	139.72
1798	-8.	4.25	0.	129.88
1799	-7.75	4.	0.	134.11
1800	-8.25	2.	0.	121.04
1801	-8.	2.25	0.	138.51
1802	-7.75	2.	0.	133.24
1803	-8.	1.75	0.	129.05
1804	0.	4.75	0.	140.32
1805	0.25	5.	0.	125.55
1806	-0.25	5.	0.	134.19
1807	-2.1443e-010	5.25	0.	131.27
1808	0.	3.25	0.	139.42
1809	0.25	3.	0.	126.79
1810	-0.25	3.	0.	130.95
1811	3.2534e-008	2.75	0.	132.85
1812	1.75	5.	0.	127.37
1813	2.	4.75	0.	141.04
1814	2.	5.25	0.	134.5
1815	2.25	5.	0.	133.33
1816	1.75	3.	0.	122.07
1817	2.	3.25	0.	138.29
1818	2.25	3.	0.	133.86
1819	2.	2.75	0.	128.23
1820	8.	1.75	0.	138.7
1821	8.25	2.	0.	122.05
1822	8.	2.25	0.	129.45
1823	7.75	2.	0.	131.59
1824	8.	0.25	0.	140.12
1825	8.25	0.	0.	121.87
1826	8.	-0.25	0.	129.28
1827	7.75	1.3821e-006	0.	134.34
1828	8.75	2.	0.	122.96
1829	9.	1.75	0.	141.11
1830	9.	2.25	0.	130.75
1831	9.25	2.	0.	135.59
1832	8.75	0.	0.	122.3
1833	9.	0.25	0.	140.95
1834	9.	-0.25	0.	130.16
1835	9.25	5.149e-008	0.	135.02
1836	0.	-7.25	0.	136.84
1837	0.25	-7.	0.	121.73
1838	1.2297e-005	-6.75	0.	128.45
1839	-0.25	-7.	0.	130.98
1840	0.	-8.75	0.	134.97
1841	0.25	-9.	0.	118.98
1842	-0.25	-9.	0.	129.94
1843	-1.6606e-008	-9.25	0.	125.43
1844	1.75	-7.	0.	122.85
1845	2.	-7.25	0.	138.19
1846	2.	-6.75	0.	129.89
1847	2.25	-7.	0.	132.8
1848	1.75	-9.	0.	119.25
1849	2.	-8.75	0.	135.48
1850	2.25	-9.	0.	130.33
1851	2.	-9.25	0.	125.75
1852	2.	6.75	0.	136.82
1853	2.25	7.	0.	125.08
1854	1.75	7.	0.	128.98
1855	2.	7.25	0.	127.94
1856	2.	6.25	0.	138.98
1857	2.25	6.	0.	129.45
1858	1.75	6.	0.	129.21
1859	2.	5.75	0.	133.7
1860	3.75	7.	0.	132.62
1861	4.	6.75	0.	148.94
1862	4.	7.25	0.	137.93
1863	4.25	7.	0.	143.99
1864	3.75	6.	0.	137.7
1865	4.	6.25	0.	151.68
1866	4.	5.75	0.	144.3
1867	4.25	6.	0.	146.13
1868	9.75	10.	0.	125.1
1869	10.	9.75	0.	124.87
1870	-9.75	10.	0.	125.03
1871	-10.	9.75	0.	124.98
1872	10.	-9.75	0.	131.68
1873	9.75	-10.	0.	130.91
1874	-10.	-9.75	0.	127.8
1875	-9.75	-10.	0.	127.67
1876	6.75	-7.5004	0.	136.55
1877	7.4996	-6.7501	0.	114.09
1878	7.5	-8.25	0.	112.29
1879	8.2499	-7.5	0.	138.4
1880	5.	7.25	0.	150.79
1881	4.75	7.5	0.	147.46
1882	5.	6.75	0.	148.05
1883	4.75	7.	0.	147.64
1884	4.75	6.5	0.	144.87
1885	5.75	8.	0.	119.19
1886	5.5	8.25	0.	117.42
1887	6.25	8.	0.	118.45
1888	6.	8.25	0.	119.13
1889	6.5	8.25	0.	116.11
1890	5.75	6.	0.	113.01
1891	5.5	5.75	0.	111.61
1892	6.25	6.	0.	112.42
1893	6.	5.75	0.	112.76
1894	6.5	5.75	0.	110.12
1895	7.	7.25	0.	146.05
1896	7.25	7.5	0.	140.58
1897	7.	6.75	0.	145.6
1898	7.25	7.	0.	141.72
1899	7.25	6.5	0.	140.24
1900	3.7501	-4.5	0.	138.61
1901	4.75	-4.	0.	121.52
1902	4.5	-3.75	0.	118.91
1903	5.25	-4.	0.	120.97
1904	5.	-3.75	0.	121.6
1905	5.5	-3.75	0.	117.91
1906	4.75	-5.	0.	122.2
1907	4.5002	-5.2501	0.	119.58
1908	5.25	-5.	0.	121.98
1909	5.0002	-5.2502	0.	122.5
1910	5.5001	-5.2502	0.	119.25
1911	6.2498	-4.4999	0.	136.99
1912	5.75	-0.49999	0.	135.53
1913	6.5	0.25	0.	111.53
1914	6.5	-1.25	0.	112.88
1915	7.25	-0.5	0.	140.65
1916	0.75	1.5	0.	135.83
1917	1.5	2.25	0.	106.55
1918	1.5001	0.75006	0.	109.53
1919	2.25	1.5	0.	136.43
1920	-6.	2.25	0.	143.38
1921	-6.25	2.5	0.	139.13
1922	-6.	1.75	0.	144.39
1923	-6.25	2.	0.	140.94
1924	-6.25	1.5	0.	140.62
1925	-5.5	3.25	0.	108.42
1926	-5.5	0.75	0.	112.46
1927	-5.	2.25	0.	141.24
1928	-4.75	2.5	0.	135.58
1929	-5.	1.75	0.	143.01
1930	-4.75	2.	0.	137.87
1931	-4.75	1.5	0.	138.72
1932	-1.	1.25	0.	147.07
1933	-1.25	1.5	0.	140.68
1934	-1.	0.75	0.	148.35
1935	-1.25	0.99999	0.	143.55
1936	-1.25	0.49999	0.	145.18
1937	-0.5	2.25	0.	116.4
1938	-0.4995	-0.25004	0.	110.39
1939	0.	1.25	0.	140.88
1940	0.25	1.5	0.	136.33
1941	0.	0.75	0.	142.78
1942	0.25002	1.	0.	138.69
1943	0.25009	0.50001	0.	138.8
1944	-5.	8.25	0.	147.11
1945	-5.25	8.5	0.	140.52
1946	-5.	7.75	0.	146.59
1947	-5.25	8.	0.	141.73
1948	-5.25	7.5	0.	140.06
1949	-4.25	9.	0.	122.67
1950	-4.5	9.25	0.	119.36
1951	-3.75	9.	0.	122.69
1952	-4.	9.25	0.	123.28
1953	-3.5	9.25	0.	119.44
1954	-4.25	7.	0.	118.07
1955	-4.5	6.75	0.	115.56
1956	-3.75	7.	0.	118.32
1957	-4.	6.75	0.	118.22
1958	-3.5	6.75	0.	116.07
1959	-3.	8.25	0.	147.49
1960	-2.75	8.5	0.	140.87
1961	-3.	7.75	0.	147.12
1962	-2.75	8.	0.	142.21
1963	-2.75	7.5	0.	140.75
1964	-4.	-0.75	0.	146.83
1965	-4.25	-0.5	0.	140.92
1966	-4.	-1.25	0.	145.92
1967	-4.25	-1.	0.	141.42
1968	-4.25	-1.5	0.	139.55
1969	-3.25	0.	0.	119.31
1970	-3.5	0.25	0.	116.97
1971	-2.75	0.	0.	119.46
1972	-3.	0.25	0.	119.13
1973	-2.5	0.25	0.	117.1
1974	-3.25	-2.	0.	117.74
1975	-3.4999	-2.25	0.	115.38
1976	-2.75	-2.	0.	117.79
1977	-2.9999	-2.25	0.	117.8
1978	-2.4998	-2.25	0.	115.38
1979	-2.	-0.75	0.	149.91
1980	-1.7498	-0.50006	0.	145.28
1981	-2.	-1.25	0.	147.82
1982	-1.7496	-1.0001	0.	143.51
1983	-1.7496	-1.5	0.	139.9
1984	-6.25	-6.5	0.	136.14
1985	-5.5	-5.75	0.	111.83
1986	-5.5	-7.25	0.	111.07
1987	-4.75	-6.5	0.	135.1
1988	4.75	4.5	0.	140.32
1989	5.75	5.	0.	115.14
1990	5.5	5.25	0.	112.88
1991	6.25	5.	0.	113.98
1992	6.	5.25	0.	113.7
1993	6.5	5.25	0.	110.8
1994	5.75	4.	0.	118.4
1995	5.5	3.75	0.	116.33
1996	6.25	4.	0.	117.93
1997	6.	3.75	0.	118.49
1998	6.5	3.75	0.	115.66
1999	7.25	4.5	0.	136.59
2000	-9.	3.25	0.	144.69
2001	-9.25	3.5	0.	139.9
2002	-9.	2.75	0.	144.61
2003	-9.25	3.	0.	141.01
2004	-9.25	2.5	0.	139.65
2005	-8.5	4.25	0.	110.62
2006	-8.5	1.75	0.	109.94
2007	-8.	3.25	0.	144.54
2008	-7.75	3.5	0.	140.55
2009	-8.	2.75	0.	143.98
2010	-7.75	3.	0.	141.25
2011	-7.75	2.5	0.	139.67
2012	0.	4.25	0.	144.94
2013	-0.25	4.5	0.	139.55
2014	0.	3.75	0.	144.19
2015	-0.25	4.	0.	140.15
2016	-0.25	3.5	0.	137.7
2017	0.75	5.	0.	118.77
2018	0.5	5.25	0.	115.42
2019	1.25	5.	0.	119.73
2020	1.	5.25	0.	119.39
2021	1.5	5.25	0.	119.19
2022	0.75	3.	0.	119.26
2023	0.5	2.75	0.	121.88
2024	1.25	3.	0.	115.73
2025	1.	2.75	0.	118.46
2026	1.5	2.75	0.	109.04
2027	2.	4.25	0.	144.67
2028	2.25	4.5	0.	138.82
2029	2.	3.75	0.	144.47
2030	2.25	4.	0.	140.38
2031	2.25	3.5	0.	139.36
2032	8.	1.25	0.	144.52
2033	7.75	1.5	0.	137.92
2034	8.	0.75	0.	145.61
2035	7.75	1.	0.	140.45
2036	7.75	0.5	0.	141.69
2037	8.5	2.25	0.	111.76
2038	8.5	-0.25	0.	110.72
2039	9.	1.25	0.	147.03
2040	9.25	1.5	0.	142.65
2041	9.	0.75	0.	147.02
2042	9.25	1.	0.	143.85
2043	9.25	0.5	0.	142.46
2044	0.	-7.75	0.	141.26
2045	-0.25	-7.5	0.	136.37
2046	0.	-8.25	0.	140.88
2047	-0.25	-8.	0.	137.41
2048	-0.25	-8.5	0.	135.84
2049	0.75	-7.	0.	113.57
2050	0.50001	-6.75	0.	111.61
2051	1.25	-7.	0.	114.04
2052	1.	-6.75	0.	114.09
2053	1.5	-6.75	0.	112.47
2054	0.75	-9.	0.	110.16
2055	0.5	-9.25	0.	108.14
2056	1.25	-9.	0.	110.24
2057	1.	-9.25	0.	109.3
2058	1.5	-9.25	0.	108.27
2059	2.	-7.75	0.	142.4
2060	2.25	-7.5	0.	137.7
2061	2.	-8.25	0.	141.65
2062	2.25	-8.	0.	138.33
2063	2.25	-8.5	0.	136.44
2064	1.75	6.5	0.	132.98
2065	2.75	7.	0.	122.14
2066	2.5	7.25	0.	118.11
2067	3.25	7.	0.	124.
2068	3.	7.25	0.	123.16
2069	3.5	7.25	0.	121.78
2070	2.75	6.	0.	127.33
2071	2.5	5.75	0.	125.18
2072	3.25	6.	0.	129.31
2073	3.	5.75	0.	129.25
2074	3.5	5.75	0.	127.04
2075	4.25	6.5	0.	149.2
2076	9.25	10.	0.	125.38
2077	9.5	9.75	0.	125.03
2078	8.75	10.	0.	125.73
2079	9.	9.75	0.	125.5
2080	8.25	10.	0.	125.65
2081	8.5	9.75	0.	125.83
2082	7.75	10.	0.	124.7
2083	8.	9.75	0.	125.66
2084	7.25	10.	0.	122.9
2085	7.5	9.75	0.	124.57
2086	6.75	10.	0.	120.9
2087	7.	9.75	0.	122.61
2088	6.25	10.	0.	119.64
2089	6.5	9.75	0.	120.67
2090	5.75	10.	0.	119.66
2091	6.	9.75	0.	119.9
2092	5.25	10.	0.	120.89
2093	5.5	9.75	0.	120.75
2094	4.75	10.	0.	122.67
2095	5.	9.75	0.	122.63
2096	4.25	10.	0.	124.06
2097	4.5	9.75	0.	124.28
2098	3.75	10.	0.	124.56
2099	4.	9.75	0.	124.9
2100	3.25	10.	0.	124.42
2101	3.5	9.75	0.	124.64
2102	2.75	10.	0.	124.17
2103	3.	9.75	0.	124.21
2104	2.25	10.	0.	124.16
2105	2.5	9.75	0.	124.05
2106	1.75	10.	0.	124.44
2107	2.	9.75	0.	124.23
2108	1.25	10.	0.	124.93
2109	1.5	9.75	0.	124.64
2110	0.75	10.	0.	125.52
2111	1.	9.75	0.	125.1
2112	0.25	10.	0.	126.17
2113	0.5	9.75	0.	125.57
2114	-0.25	10.	0.	126.94
2115	2.1537e-012	9.75	0.	126.06
2116	-0.75	10.	0.	127.9
2117	-0.5	9.75	0.	126.65
2118	-1.25	10.	0.	129.05
2119	-1.	9.75	0.	127.37
2120	-1.75	10.	0.	130.23
2121	-1.5	9.75	0.	128.2
2122	-2.25	10.	0.	130.07
2123	-2.	9.75	0.	129.17
2124	-2.75	10.	0.	126.37
2125	-2.5	9.75	0.	129.87
2126	-3.25	10.	0.	120.89
2127	-3.	9.75	0.	125.49
2128	-3.75	10.	0.	117.21
2129	-3.5	9.75	0.	119.03
2130	-4.25	10.	0.	117.15
2131	-4.	9.75	0.	118.2
2132	-4.75	10.	0.	120.67
2133	-4.5	9.75	0.	118.91
2134	-5.25	10.	0.	125.98
2135	-5.	9.75	0.	125.21
2136	-5.75	10.	0.	129.58
2137	-5.5	9.75	0.	129.51
2138	-6.25	10.	0.	129.72
2139	-6.	9.75	0.	128.78
2140	-6.75	10.	0.	128.56
2141	-6.5	9.75	0.	127.82
2142	-7.25	10.	0.	127.46
2143	-7.	9.75	0.	127.03
2144	-7.75	10.	0.	126.58
2145	-7.5	9.75	0.	126.36
2146	-8.25	10.	0.	125.92
2147	-8.	9.75	0.	125.86
2148	-8.75	10.	0.	125.46
2149	-8.5	9.75	0.	125.47
2150	-9.25	10.	0.	125.15
2151	-9.	9.75	0.	125.18
2152	-9.5	9.75	0.	124.98
2153	10.	9.25	0.	124.19
2154	9.75	9.5	0.	124.8
2155	10.	8.75	0.	123.07
2156	9.75	9.	0.	124.1
2157	10.	8.25	0.	121.9
2158	9.75	8.5	0.	123.29
2159	10.	7.75	0.	120.99
2160	9.75	8.	0.	122.54
2161	10.	7.25	0.	120.62
2162	9.75	7.5	0.	122.08
2163	10.	6.75	0.	120.9
2164	9.75	7.	0.	122.12
2165	10.	6.25	0.	121.7
2166	9.75	6.5	0.	122.67
2167	10.	5.75	0.	122.74
2168	9.75	6.	0.	123.51
2169	10.	5.25	0.	123.83
2170	9.75	5.5	0.	124.38
2171	10.	4.75	0.	125.07
2172	9.75	5.	0.	125.2
2173	10.	4.25	0.	126.82
2174	9.75	4.5	0.	126.19
2175	10.	3.75	0.	129.48
2176	9.75	4.	0.	127.68
2177	10.	3.25	0.	133.2
2178	9.75	3.5	0.	129.88
2179	10.	2.75	0.	136.61
2180	9.75	3.	0.	132.96
2181	10.	2.25	0.	137.24
2182	9.75	2.5	0.	136.44
2183	10.	1.75	0.	135.31
2184	9.75	2.	0.	136.21
2185	10.	1.25	0.	133.97
2186	9.75	1.5	0.	136.37
2187	10.	0.75	0.	133.4
2188	9.75	1.	0.	137.07
2189	10.	0.25	0.	133.81
2190	9.75	0.5	0.	135.61
2191	10.	-0.25	0.	135.46
2192	9.75	5.149e-008	0.	134.89
2193	10.	-0.75	0.	135.42
2194	9.75	-0.5	0.	135.24
2195	10.	-1.25	0.	133.34
2196	9.75	-1.	0.	132.54
2197	10.	-1.75	0.	131.24
2198	9.75	-1.5	0.	130.69
2199	10.	-2.25	0.	129.97
2200	9.75	-2.	0.	129.74
2201	10.	-2.75	0.	129.18
2202	9.75	-2.5	0.	129.14
2203	10.	-3.25	0.	128.6
2204	9.75	-3.	0.	128.65
2205	10.	-3.75	0.	128.23
2206	9.75	-3.5	0.	128.26
2207	10.	-4.25	0.	128.17
2208	9.7499	-4.	0.	128.06
2209	10.	-4.75	0.	128.49
2210	9.7498	-4.5	0.	128.15
2211	10.	-5.25	0.	129.05
2212	9.7498	-5.	0.	128.57
2213	10.	-5.75	0.	129.48
2214	9.7497	-5.5	0.	129.14
2215	10.	-6.25	0.	129.28
2216	9.7497	-6.	0.	129.52
2217	10.	-6.75	0.	128.39
2218	9.7498	-6.5	0.	129.25
2219	10.	-7.25	0.	127.54
2220	9.7499	-7.	0.	128.44
2221	10.	-7.75	0.	127.71
2222	9.7499	-7.5	0.	128.05
2223	10.	-8.25	0.	128.97
2224	9.75	-8.	0.	128.69
2225	10.	-8.75	0.	130.42
2226	9.75	-8.5	0.	129.87
2227	10.	-9.25	0.	131.34
2228	9.75	-9.	0.	130.64
2229	9.75	-9.5	0.	130.88
2230	-10.	9.25	0.	124.74
2231	-9.75	9.5	0.	124.93
2232	-10.	8.75	0.	124.27
2233	-9.75	9.	0.	124.56
2234	-10.	8.25	0.	123.81
2235	-9.75	8.5	0.	124.15
2236	-10.	7.75	0.	123.6
2237	-9.75	8.	0.	123.87
2238	-10.	7.25	0.	123.77
2239	-9.75	7.5	0.	123.85
2240	-10.	6.75	0.	124.4
2241	-9.75	7.	0.	124.16
2242	-10.	6.25	0.	125.63
2243	-9.75	6.5	0.	124.84
2244	-10.	5.75	0.	127.66
2245	-9.75	6.	0.	125.96
2246	-10.	5.25	0.	130.63
2247	-9.75	5.5	0.	127.65
2248	-10.	4.75	0.	133.34
2249	-9.75	5.	0.	130.18
2250	-10.	4.25	0.	133.43
2251	-9.75	4.5	0.	133.21
2252	-10.	3.75	0.	131.15
2253	-9.75	4.	0.	132.69
2254	-10.	3.25	0.	129.67
2255	-9.75	3.5	0.	132.62
2256	-10.	2.75	0.	129.22
2257	-9.75	3.	0.	133.27
2258	-10.	2.25	0.	129.95
2259	-9.75	2.5	0.	131.99
2260	-10.	1.75	0.	131.87
2261	-9.75	2.	0.	131.59
2262	-10.	1.25	0.	131.91
2263	-9.75	1.5	0.	132.07
2264	-10.	0.75	0.	129.75
2265	-9.75	1.	0.	129.36
2266	-10.	0.25	0.	127.57
2267	-9.75	0.5	0.	127.41
2268	-10.	-0.25	0.	126.42
2269	-9.75	-1.2588e-010	0.	126.46
2270	-10.	-0.75	0.	126.03
2271	-9.75	-0.5	0.	126.09
2272	-10.	-1.25	0.	126.04
2273	-9.75	-1.	0.	126.06
2274	-10.	-1.75	0.	126.26
2275	-9.75	-1.5	0.	126.21
2276	-10.	-2.25	0.	126.59
2277	-9.75	-2.	0.	126.47
2278	-10.	-2.75	0.	126.94
2279	-9.75	-2.5	0.	126.77
2280	-10.	-3.25	0.	127.26
2281	-9.75	-3.	0.	127.07
2282	-10.	-3.75	0.	127.48
2283	-9.75	-3.5	0.	127.32
2284	-10.	-4.25	0.	127.56
2285	-9.75	-4.	0.	127.47
2286	-10.	-4.75	0.	127.48
2287	-9.75	-4.5	0.	127.49
2288	-10.	-5.25	0.	127.28
2289	-9.75	-5.	0.	127.38
2290	-10.	-5.75	0.	127.03
2291	-9.75	-5.5	0.	127.19
2292	-10.	-6.25	0.	126.84
2293	-9.75	-6.	0.	127.
2294	-10.	-6.75	0.	126.79
2295	-9.75	-6.5	0.	126.89
2296	-10.	-7.25	0.	126.89
2297	-9.75	-7.	0.	126.91
2298	-10.	-7.75	0.	127.1
2299	-9.75	-7.5	0.	127.04
2300	-10.	-8.25	0.	127.34
2301	-9.75	-8.	0.	127.23
2302	-10.	-8.75	0.	127.56
2303	-9.75	-8.5	0.	127.41
2304	-10.	-9.25	0.	127.72
2305	-9.75	-9.	0.	127.56
2306	-9.75	-9.5	0.	127.64
2307	-9.25	-10.	0.	127.42
2308	-9.5	-9.75	0.	127.52
2309	-8.75	-10.	0.	127.21
2310	-9.	-9.75	0.	127.33
2311	-8.25	-10.	0.	126.93
2312	-8.5	-9.75	0.	127.12
2313	-7.75	-10.	0.	126.48
2314	-8.	-9.75	0.	126.8
2315	-7.25	-10.	0.	125.78
2316	-7.5	-9.75	0.	126.25
2317	-6.75	-10.	0.	124.85
2318	-7.	-9.75	0.	125.41
2319	-6.25	-10.	0.	123.9
2320	-6.5	-9.75	0.	124.37
2321	-5.75	-10.	0.	123.26
2322	-6.	-9.75	0.	123.42
2323	-5.25	-10.	0.	123.19
2324	-5.5	-9.75	0.	122.98
2325	-4.75	-10.	0.	123.74
2326	-5.	-9.75	0.	123.27
2327	-4.25	-10.	0.	124.7
2328	-4.5	-9.75	0.	124.15
2329	-3.75	-10.	0.	125.8
2330	-4.	-9.75	0.	125.26
2331	-3.25	-10.	0.	126.9
2332	-3.5	-9.75	0.	126.34
2333	-2.75	-10.	0.	128.03
2334	-3.	-9.75	0.	127.38
2335	-2.25	-10.	0.	129.29
2336	-2.5	-9.75	0.	128.47
2337	-1.75	-10.	0.	130.7
2338	-2.	-9.75	0.	129.73
2339	-1.25	-10.	0.	131.96
2340	-1.5	-9.75	0.	131.1
2341	-0.75	-10.	0.	131.1
2342	-1.	-9.75	0.	132.18
2343	-0.25	-10.	0.	124.69
2344	-0.5	-9.75	0.	130.71
2345	0.25	-10.	0.	114.47
2346	-1.6606e-008	-9.75	0.	120.19
2347	0.75	-10.	0.	107.34
2348	0.5	-9.75	0.	108.61
2349	1.25	-10.	0.	107.4
2350	1.	-9.75	0.	106.12
2351	1.75	-10.	0.	114.65
2352	1.5	-9.75	0.	108.73
2353	2.25	-10.	0.	124.94
2354	2.	-9.75	0.	120.44
2355	2.75	-10.	0.	131.35
2356	2.5	-9.75	0.	130.99
2357	3.25	-10.	0.	132.16
2358	3.	-9.75	0.	132.41
2359	3.75	-10.	0.	130.89
2360	3.5	-9.75	0.	131.27
2361	4.25	-10.	0.	129.58
2362	4.	-9.75	0.	129.91
2363	4.75	-10.	0.	128.59
2364	4.5	-9.75	0.	128.8
2365	5.25	-10.	0.	127.82
2366	5.	-9.7501	0.	128.06
2367	5.75	-10.	0.	126.92
2368	5.5	-9.7501	0.	127.46
2369	6.25	-10.	0.	125.47
2370	6.	-9.7501	0.	126.53
2371	6.75	-10.	0.	123.53
2372	6.5	-9.7501	0.	124.71
2373	7.25	-10.	0.	122.14
2374	7.	-9.75	0.	122.43
2375	7.75	-10.	0.	122.51
2376	7.5	-9.75	0.	121.53
2377	8.25	-10.	0.	124.58
2378	8.	-9.75	0.	123.19
2379	8.75	-10.	0.	127.13
2380	8.5	-9.75	0.	126.13
2381	9.25	-10.	0.	129.2
2382	9.	-9.75	0.	128.53
2383	9.5	-9.75	0.	130.1
2384	0.25108	-4.	0.	122.88
2385	0.50139	-3.75	0.	122.8
2386	0.751	-4.	0.	122.22
2387	0.50082	-4.25	0.	121.83
2388	-0.2489	-3.9999	0.	123.95
2389	1.4281e-003	-3.75	0.	123.72
2390	8.6062e-004	-4.25	0.	122.98
2391	-2.2498	-4.9999	0.	124.54
2392	-1.9998	-5.2499	0.	125.08
2393	-1.7498	-4.9999	0.	125.03
2394	-1.9997	-4.7499	0.	124.45
2395	0.5021	-3.25	0.	123.41
2396	0.25174	-3.5	0.	123.64
2397	0.75162	-3.5	0.	123.11
2398	1.5022	-2.7499	0.	124.24
2399	1.7522	-2.4999	0.	124.85
2400	1.2528	-2.4999	0.	123.99
2401	1.5027	-2.2498	0.	124.25
2402	1.0007	-4.25	0.	121.4
2403	0.75053	-4.5	0.	121.01
2404	1.2504	-4.5	0.	121.08
2405	1.0004	-4.75	0.	119.94
2406	1.2509	-4.	0.	122.29
2407	1.0012	-3.75	0.	122.53
2408	2.5014	-1.7496	0.	125.61
2409	2.2517	-1.4996	0.	124.89
2410	2.5012	-1.2495	0.	125.08
2411	2.7511	-1.4996	0.	125.56
2412	-2.4997	-4.7499	0.	123.83
2413	-2.4998	-5.2499	0.	124.57
2414	-2.7498	-4.9999	0.	124.31
2415	-2.7497	-4.4999	0.	123.29
2416	-2.4996	-4.2499	0.	122.71
2417	-2.2496	-4.4999	0.	123.73
2418	-6.5	-3.25	0.	127.17
2419	-6.5	-2.75	0.	126.99
2420	-6.75	-3.	0.	127.14
2421	-6.25	-3.	0.	127.32
2422	0.25059	-4.5	0.	121.92
2423	0.50043	-4.75	0.	120.58
2424	1.7516	-2.9999	0.	124.76
2425	1.5016	-3.25	0.	123.85
2426	1.252	-3.	0.	123.85
2427	3.2505	-0.99967	0.	125.64
2428	3.5005	-1.2497	0.	125.76
2429	3.5004	-0.74975	0.	125.84
2430	3.7503	-0.99979	0.	125.52
2431	-2.9997	-4.2499	0.	122.39
2432	-2.9998	-4.7499	0.	123.77
2433	-3.2498	-4.4999	0.	123.58
2434	-0.49915	-4.2499	0.	124.27
2435	-0.74896	-3.9999	0.	124.85
2436	-0.49864	-3.7499	0.	124.89
2437	-2.7496	-3.9999	0.	121.8
2438	-3.2498	-4.	0.	122.
2439	-2.9997	-3.7499	0.	120.45
2440	-6.75	-1.5	0.	125.83
2441	-6.25	-1.5	0.	125.6
2442	-6.5	-1.75	0.	125.94
2443	-6.5	-1.25	0.	125.56
2444	-2.2499	-5.4999	0.	125.11
2445	-1.7499	-5.4999	0.	125.69
2446	-1.9999	-5.75	0.	125.56
2447	-1.4996	-4.7499	0.	125.05
2448	-1.2497	-4.9999	0.	125.21
2449	-1.4998	-5.2499	0.	125.64
2450	2.0017	-2.7499	0.	125.37
2451	2.2516	-2.4998	0.	126.
2452	2.002	-2.2498	0.	125.2
2453	2.7512	-1.9997	0.	126.22
2454	2.5014	-2.2498	0.	126.27
2455	2.2517	-1.9997	0.	125.48
2456	-2.5	-6.75	0.	125.13
2457	-2.75	-6.5	0.	124.89
2458	-2.25	-6.5	0.	125.43
2459	-2.5	-6.25	0.	125.06
2460	2.7509	-0.99957	0.	125.24
2461	3.0006	-0.74963	0.	125.82
2462	3.0008	-1.2496	0.	125.72
2463	0.50281	-2.75	0.	123.52
2464	0.25245	-3.	0.	123.98
2465	0.75232	-3.	0.	123.57
2466	0.75306	-2.5	0.	123.55
2467	1.0031	-2.2499	0.	123.57
2468	1.0026	-2.75	0.	123.6
2469	1.253	-1.9998	0.	123.84
2470	1.5026	-1.7497	0.	124.03
2471	1.7524	-1.9997	0.	124.6
2472	1.5006	-4.25	0.	121.97
2473	1.7504	-4.5	0.	122.18
2474	1.5003	-4.75	0.	120.81
2475	0.75026	-5.	0.	119.5
2476	1.2502	-5.	0.	119.67
2477	1.0002	-5.25	0.	118.03
2478	-6.75	-3.5	0.	127.31
2479	-7.	-3.25	0.	127.27
2480	-7.	-3.75	0.	127.58
2481	-7.25	-3.5	0.	127.49
2482	1.7522	-1.4996	0.	124.19
2483	2.0017	-1.2496	0.	124.14
2484	2.002	-1.7496	0.	124.76
2485	-2.5	4.25	0.	125.98
2486	-2.75	4.	0.	125.54
2487	-2.5	3.75	0.	126.02
2488	-2.25	4.	0.	126.28
2489	2.0825e-003	-3.25	0.	124.22
2490	-0.24831	-3.4999	0.	124.67
2491	-6.5	-3.75	0.	127.11
2492	-6.25	-3.5	0.	127.1
2493	-2.7499	-5.5	0.	124.81
2494	-2.4999	-5.75	0.	124.94
2495	-1.4993	-4.2499	0.	124.83
2496	-1.7495	-4.4999	0.	124.46
2497	-1.2494	-4.4999	0.	124.84
2498	-6.25	-2.5	0.	127.07
2499	-6.5	-2.25	0.	126.53
2500	-6.75	-2.5	0.	126.77
2501	-0.24938	-4.5	0.	123.3
2502	4.7031e-004	-4.75	0.	122.26
2503	-0.49953	-4.7499	0.	124.01
2504	-0.74939	-4.4999	0.	124.44
2505	1.7507	-4.	0.	123.17
2506	1.501	-3.75	0.	123.04
2507	-2.75	4.5	0.	125.42
2508	-3.	4.25	0.	124.97
2509	-3.25	4.5	0.	124.19
2510	-3.	4.75	0.	124.65
2511	-2.25	4.5	0.	126.59
2512	-2.5	4.75	0.	126.38
2513	-7.25	-3.	0.	127.13
2514	-7.	-2.75	0.	126.92
2515	-7.	-1.75	0.	126.14
2516	-7.25	-2.	0.	126.34
2517	-6.75	-2.	0.	126.25
2518	-7.	-2.25	0.	126.5
2519	-7.	-1.25	0.	126.08
2520	-7.25	-1.5	0.	126.1
2521	3.7504	-1.4998	0.	125.67
2522	3.5006	-1.7498	0.	126.1
2523	3.2507	-1.4997	0.	125.84
2524	3.7502	-0.49982	0.	125.74
2525	4.0001	-0.24989	0.	125.79
2526	4.2501	-0.49991	0.	125.32
2527	4.0002	-0.74986	0.	125.43
2528	-5.5	-3.75	0.	126.32
2529	-5.25	-4.	0.	125.53
2530	-5.5	-4.25	0.	124.48
2531	-5.75	-4.	0.	125.79
2532	-2.9999	-5.2499	0.	124.55
2533	-3.2499	-4.9999	0.	124.69
2534	-2.2494	-3.9999	0.	122.79
2535	-2.4995	-3.7499	0.	121.27
2536	-1.2491	-3.9999	0.	125.02
2537	-0.9988	-3.7499	0.	125.66
2538	-0.99921	-4.2499	0.	125.03
2539	-3.4998	-4.25	0.	123.21
2540	-3.7499	-4.	0.	123.29
2541	-3.4998	-3.75	0.	121.62
2542	-6.	-1.25	0.	125.12
2543	-5.75	-1.5	0.	125.97
2544	-6.	-1.75	0.	126.04
2545	-6.	-2.75	0.	127.39
2546	-5.75	-3.	0.	127.85
2547	-6.	-3.25	0.	127.24
2548	0.50021	-5.25	0.	119.07
2549	0.25031	-5.	0.	120.91
2550	-0.74969	-4.9999	0.	124.58
2551	-0.99978	-5.2499	0.	125.63
2552	-0.99955	-4.7499	0.	125.01
2553	2.2512	-2.9999	0.	126.2
2554	2.0012	-3.25	0.	125.07
2555	3.2508	-1.9998	0.	126.43
2556	3.0009	-2.2498	0.	127.03
2557	3.0009	-1.7497	0.	126.17
2558	-3.75	5.	0.	121.67
2559	-3.5	4.75	0.	122.98
2560	-3.5	5.25	0.	121.66
2561	-3.25	5.	0.	123.43
2562	-4.	5.25	0.	120.07
2563	-4.	4.75	0.	121.88
2564	-4.25	5.	0.	120.94
2565	-3.	3.75	0.	125.27
2566	-3.25	4.	0.	124.95
2567	-2.25	-7.	0.	125.41
2568	-2.75	-7.	0.	125.11
2569	-2.5	-7.25	0.	125.33
2570	-3.	-6.25	0.	124.73
2571	-3.	-6.75	0.	124.88
2572	-3.25	-6.5	0.	124.74
2573	-2.	4.25	0.	126.88
2574	-2.	4.75	0.	127.72
2575	-1.75	4.5	0.	127.63
2576	2.2513	-0.99954	0.	124.33
2577	2.5009	-0.74956	0.	124.86
2578	0.50328	-2.25	0.	123.2
2579	0.25303	-2.5	0.	123.71
2580	0.75334	-1.9999	0.	123.22
2581	1.0031	-1.7499	0.	123.49
2582	4.25	1.5	0.	127.54
2583	4.	1.25	0.	127.79
2584	3.75	1.5	0.	128.64
2585	4.	1.75	0.	128.84
2586	-3.4998	-4.75	0.	124.51
2587	-3.7499	-4.5	0.	124.48
2588	-5.5	-3.25	0.	127.67
2589	-5.25	-3.5	0.	127.18
2590	-5.75	-3.5	0.	127.06
2591	-1.2499	-5.5	0.	126.05
2592	-1.4999	-5.75	0.	126.34
2593	2.7511	-2.4998	0.	127.09
2594	2.5012	-2.7499	0.	126.83
2595	4.7504	-7.0007	0.	123.46
2596	5.0006	-6.7509	0.	122.64
2597	5.0003	-7.2508	0.	123.4
2598	5.2504	-7.0011	0.	123.46
2599	4.5006	-6.7505	0.	123.66
2600	4.2504	-7.0003	0.	124.84
2601	4.5003	-7.2504	0.	124.06
2602	2.0005	-4.25	0.	123.38
2603	2.0003	-4.75	0.	122.86
2604	2.2503	-4.5	0.	123.97
2605	1.5002	-5.25	0.	119.52
2606	1.7502	-5.	0.	121.49
2607	-3.5	4.25	0.	124.17
2608	-3.75	4.5	0.	123.17
2609	-7.25	-1.	0.	126.24
2610	-7.	-0.75	0.	126.65
2611	-6.75	-1.	0.	125.82
2612	-6.75	-4.	0.	127.39
2613	-7.25	-4.	0.	127.85
2614	-7.	-4.25	0.	128.
2615	4.5	1.75	0.	127.13
2616	4.75	1.5	0.	125.98
2617	4.5	1.25	0.	126.84
2618	3.2504	-0.49972	0.	126.01
2619	3.5002	-0.24979	0.	126.35
2620	1.5022	-1.2497	0.	123.61
2621	1.2527	-1.4998	0.	123.69
2622	-5.75	-1.	0.	124.94
2623	-5.25	-1.	0.	126.76
2624	-5.5	-0.75	0.	124.51
2625	-5.5	-1.25	0.	125.79
2626	-3.75	2.	0.	124.79
2627	-3.25	2.	0.	122.76
2628	-3.5	1.75	0.	122.41
2629	-3.5	2.25	0.	123.66
2630	-2.75	3.5	0.	125.75
2631	-2.25	3.5	0.	126.59
2632	-2.5	3.25	0.	126.23
2633	-2.	3.75	0.	126.85
2634	-1.75	4.	0.	127.
2635	-0.24772	-3.	0.	125.1
2636	2.6693e-003	-2.75	0.	124.17
2637	-0.4981	-3.2499	0.	125.54
2638	-0.74847	-3.4999	0.	125.69
2639	-3.2497	-3.5	0.	120.04
2640	-2.7495	-3.4999	0.	119.89
2641	-2.9996	-3.25	0.	117.99
2642	1.0001	-5.75	0.	115.45
2643	1.2501	-5.5	0.	117.85
2644	0.75011	-5.5	0.	117.57
2645	-7.	6.25	0.	127.21
2646	-7.	5.75	0.	128.11
2647	-6.75	6.	0.	128.24
2648	-7.25	6.	0.	126.81
2649	-6.75	5.5	0.	128.68
2650	-6.5	5.25	0.	128.74
2651	-6.5	5.75	0.	128.8
2652	-6.25	5.5	0.	128.29
2653	-4.	5.75	0.	117.96
2654	-4.25	5.5	0.	119.51
2655	-3.75	5.5	0.	120.03
2656	4.25	1.	0.	127.09
2657	3.75	1.0001	0.	127.64
2658	4.0001	0.75006	0.	127.09
2659	4.0004	-1.7499	0.	125.52
2660	4.2503	-1.4999	0.	125.46
2661	4.0003	-1.2499	0.	125.43
2662	3.7501	1.4075e-004	0.	126.4
2663	4.2501	7.6545e-005	0.	125.91
2664	4.0001	0.25009	0.	126.44
2665	-6.5	-4.25	0.	127.04
2666	-6.25	-4.	0.	126.55
2667	-4.75	-4.	0.	125.45
2668	-5.	-3.75	0.	126.41
2669	-5.	-4.25	0.	124.83
2670	-2.9999	-5.75	0.	124.77
2671	-3.25	-6.	0.	124.87
2672	-2.7499	-6.	0.	124.9
2673	-3.2499	-5.5	0.	125.11
2674	-1.7493	-3.9999	0.	124.18
2675	-1.9993	-3.7499	0.	123.4
2676	-1.9995	-4.2499	0.	123.82
2677	-1.499	-3.7499	0.	125.22
2678	-4.2499	-4.	0.	124.74
2679	-4.5	-4.25	0.	125.27
2680	-4.4999	-3.75	0.	125.86
2681	-3.9999	-3.75	0.	123.98
2682	-3.9999	-4.25	0.	124.57
2683	-5.75	-2.5	0.	127.87
2684	-6.	-2.25	0.	126.93
2685	-2.	-7.25	0.	125.65
2686	-1.75	-7.	0.	126.06
2687	-2.	-6.75	0.	125.72
2688	-0.49976	-5.25	0.	124.35
2689	-0.24968	-5.	0.	122.97
2690	4.75	2.	0.	125.98
2691	4.5	2.25	0.	127.87
2692	4.25	2.	0.	128.42
2693	5.25	2.	0.	123.2
2694	5.	1.75	0.	124.83
2695	5.	2.25	0.	124.64
2696	2.2505	-4.	0.	124.7
2697	2.0008	-3.75	0.	124.29
2698	3.7505	-1.9998	0.	125.96
2699	4.2503	-1.9999	0.	125.18
2700	4.0004	-2.2499	0.	125.55
2701	3.5006	-2.2498	0.	126.83
2702	-2.25	5.	0.	127.52
2703	-2.5	5.25	0.	127.35
2704	-2.75	5.	0.	125.61
2705	-5.25	5.	0.	122.74
2706	-5.75	5.	0.	124.96
2707	-5.5	4.75	0.	122.55
2708	-5.5	5.25	0.	124.69
2709	-7.	6.75	0.	126.25
2710	-7.25	7.	0.	125.19
2711	-7.	7.25	0.	125.18
2712	-6.75	7.	0.	126.5
2713	-7.25	6.5	0.	126.07
2714	-6.75	6.5	0.	127.61
2715	-6.	-0.75	0.	124.42
2716	-6.25	-1.	0.	125.09
2717	-5.	5.25	0.	122.24
2718	-5.	4.75	0.	121.33
2719	-4.75	5.	0.	121.34
2720	-3.25	3.5	0.	125.35
2721	-3.	3.25	0.	125.22
2722	-3.	-7.25	0.	125.33
2723	-3.25	-7.	0.	125.17
2724	-2.	5.25	0.	129.14
2725	-1.75	5.	0.	128.89
2726	-0.75	7.	0.	125.27
2727	-1.	7.25	0.	125.59
2728	-1.	6.75	0.	127.39
2729	-1.25	7.	0.	127.41
2730	-0.5	7.25	0.	123.82
2731	-0.25	7.	0.	123.08
2732	-0.5	6.75	0.	124.96
2733	5.75	2.	0.	121.04
2734	5.5	2.25	0.	121.37
2735	5.5	1.75	0.	122.21
2736	1.7517	-0.9996	0.	123.56
2737	2.0012	-0.74958	0.	123.3
2738	0.25331	-2.	0.	122.9
2739	0.50329	-1.75	0.	122.78
2740	5.0008	-6.2508	0.	121.42
2741	4.7507	-6.5007	0.	122.83
2742	5.2506	-6.5011	0.	122.97
2743	-3.75	6.	0.	118.04
2744	-4.25	6.	0.	117.68
2745	-4.	6.25	0.	116.43
2746	5.2507	-6.0008	0.	121.61
2747	4.7509	-6.0005	0.	121.56
2748	5.0007	-5.7505	0.	120.46
2749	5.0001	-2.75	0.	121.12
2750	4.7501	-3.	0.	120.72
2751	5.	-3.25	0.	119.58
2752	5.25	-3.	0.	120.3
2753	-7.25	5.5	0.	127.67
2754	-7.	5.25	0.	129.35
2755	0.75005	-6.	0.	115.04
2756	1.25	-6.	0.	115.38
2757	1.	-6.25	0.	113.16
2758	-0.74805	-2.9999	0.	126.69
2759	-0.49773	-2.7499	0.	125.69
2760	-1.75	3.5	0.	127.23
2761	-2.	3.25	0.	127.69
2762	3.0614e-003	-2.25	0.	123.42
2763	-0.24734	-2.5	0.	124.77
2764	3.0942e-003	-1.75	0.	122.12
2765	-0.24715	-2.	0.	123.49
2766	-2.5	2.75	0.	126.12
2767	-2.25	3.	0.	127.33
2768	-2.75	3.	0.	125.71
2769	-4.	2.25	0.	126.28
2770	-4.	1.75	0.	126.33
2771	-4.25	2.	0.	130.03
2772	-5.	-1.25	0.	128.44
2773	-5.	-0.75	0.	127.68
2774	-4.75	-1.	0.	132.16
2775	1.5016	-0.74966	0.	122.62
2776	1.2521	-0.99972	0.	123.62
2777	2.7506	-0.49963	0.	125.44
2778	3.0004	-0.2497	0.	126.64
2779	6.	2.75	0.	118.39
2780	6.25	3.	0.	118.55
2781	5.75	3.	0.	118.49
2782	6.	3.25	0.	116.98
2783	6.	2.25	0.	119.82
2784	5.75	2.5	0.	120.15
2785	6.25	2.5	0.	120.25
2786	6.	1.75	0.	120.32
2787	6.25	2.	0.	120.78
2788	5.25	1.5	0.	123.84
2789	5.	1.25	0.	125.64
2790	0.75306	-1.4999	0.	123.04
2791	1.0026	-1.2498	0.	123.7
2792	-0.75	7.5	0.	124.13
2793	-1.25	7.5	0.	125.76
2794	-1.	7.75	0.	124.39
2795	-0.25	7.5	0.	122.98
2796	-0.5	7.75	0.	123.37
2797	3.1101e-011	7.25	0.	122.25
2798	2.5226e-011	7.75	0.	122.83
2799	0.25	7.5	0.	122.52
2800	3.3855e-011	6.75	0.	122.01
2801	0.25	7.	0.	121.28
2802	-1.	6.25	0.	129.55
2803	-1.25	6.5	0.	129.37
2804	-0.75	6.5	0.	127.08
2805	-7.5	-4.25	0.	128.17
2806	-7.25	-4.5	0.	128.33
2807	-7.5	-4.75	0.	128.53
2808	-7.75	-4.5	0.	128.24
2809	-7.5	-3.75	0.	127.75
2810	-7.75	-4.	0.	127.9
2811	-7.5	-3.25	0.	127.35
2812	-7.75	-3.5	0.	127.52
2813	-7.5	-2.75	0.	126.95
2814	-7.75	-3.	0.	127.15
2815	-7.5	-2.25	0.	126.58
2816	-7.75	-2.5	0.	126.77
2817	-7.25	-2.5	0.	126.73
2818	-7.5	-1.75	0.	126.31
2819	-7.75	-2.	0.	126.44
2820	-7.5	-1.25	0.	126.26
2821	-7.75	-1.5	0.	126.23
2822	-7.5	-0.75	0.	126.56
2823	-7.75	-1.	0.	126.22
2824	-7.5	-0.25	0.	127.18
2825	-7.25	-0.5	0.	126.96
2826	-7.75	-0.5	0.	126.39
2827	-7.5	0.25	0.	127.95
2828	-7.75	-4.2335e-009	0.	126.59
2829	-7.25	-1.6849e-008	0.	128.34
2830	-6.25	5.	0.	127.48
2831	-6.	5.25	0.	127.03
2832	-6.	4.75	0.	125.45
2833	-6.5	4.75	0.	128.74
2834	-6.75	5.	0.	129.41
2835	-1.5	4.25	0.	127.74
2836	-1.25	4.	0.	128.22
2837	-1.5	3.75	0.	127.38
2838	-3.	2.25	0.	123.26
2839	-3.25	2.5	0.	124.16
2840	-2.75	2.5	0.	125.01
2841	-3.	2.75	0.	124.58
2842	-3.	1.75	0.	121.32
2843	-2.75	2.	0.	123.48
2844	-3.25	1.5	0.	120.95
2845	-2.75	1.5	0.	121.42
2846	-3.	1.25	0.	118.89
2847	-3.5	1.25	0.	121.01
2848	-3.75	1.5	0.	123.95
2849	-3.5	3.75	0.	125.03
2850	-3.75	4.	0.	124.72
2851	-3.5	2.75	0.	124.63
2852	-3.75	2.5	0.	125.15
2853	-5.25	4.5	0.	121.13
2854	-5.75	4.5	0.	123.04
2855	-5.5	4.25	0.	119.67
2856	-4.25	4.5	0.	122.27
2857	-4.	4.25	0.	123.73
2858	-5.75	-0.5	0.	123.99
2859	-5.25	-0.5	0.	125.43
2860	-5.5	-0.25	0.	122.6
2861	-6.75	-0.5	0.	126.61
2862	-7.	-0.25	0.	128.13
2863	-6.5	6.25	0.	128.63
2864	-6.25	6.	0.	129.18
2865	-7.5	6.25	0.	125.67
2866	-7.75	6.	0.	125.11
2867	-7.5	5.75	0.	126.37
2868	-7.5	6.75	0.	125.02
2869	-7.75	6.5	0.	124.83
2870	-7.5	7.25	0.	124.34
2871	-7.75	7.	0.	124.38
2872	-7.25	7.5	0.	124.32
2873	-7.5	7.75	0.	123.82
2874	-7.75	7.5	0.	123.9
2875	-6.75	7.5	0.	125.36
2876	-7.	7.75	0.	124.29
2877	-6.5	7.25	0.	126.68
2878	-6.25	7.5	0.	127.31
2879	-6.5	7.75	0.	125.61
2880	-4.75	5.5	0.	121.29
2881	-4.5	5.75	0.	119.26
2882	-4.5	5.25	0.	120.4
2883	-5.75	5.5	0.	126.75
2884	-6.	5.75	0.	128.67
2885	-1.75	5.5	0.	130.41
2886	-2.25	5.5	0.	128.97
2887	-2.	5.75	0.	130.79
2888	-3.5	5.75	0.	120.15
2889	-3.25	5.5	0.	122.78
2890	-1.5	7.25	0.	127.58
2891	-1.5	7.75	0.	126.1
2892	-1.75	7.5	0.	128.04
2893	1.7501	-5.5	0.	120.93
2894	1.5001	-5.75	0.	117.84
2895	2.0002	-5.25	0.	122.91
2896	2.2502	-5.	0.	124.24
2897	4.2506	-6.5003	0.	125.04
2898	4.5007	-6.2504	0.	122.99
2899	4.0002	-7.2502	0.	125.63
2900	3.7503	-7.0002	0.	126.95
2901	4.0004	-6.7502	0.	126.22
2902	4.7501	-7.5006	0.	123.99
2903	5.2501	-7.5009	0.	123.95
2904	5.	-7.7506	0.	124.27
2905	4.2501	-7.5003	0.	124.85
2906	4.5	-7.7504	0.	124.66
2907	3.7501	-7.5001	0.	126.23
2908	4.	-7.7502	0.	125.61
2909	3.5002	-7.2501	0.	127.55
2910	3.2501	-7.5001	0.	127.89
2911	3.5001	-7.7501	0.	126.97
2912	3.2507	-2.4999	0.	127.43
2913	3.0008	-2.7499	0.	128.24
2914	4.5002	-2.2499	0.	124.13
2915	4.7501	-2.5	0.	122.9
2916	4.5001	-2.75	0.	122.54
2917	4.2503	-2.4999	0.	124.49
2918	2.5004	-4.25	0.	125.28
2919	2.5002	-4.75	0.	125.35
2920	2.7502	-4.5	0.	125.77
2921	2.7509	-2.9999	0.	127.98
2922	2.5009	-3.2499	0.	126.88
2923	7.4986	-4.7499	0.	125.04
2924	7.4993	-4.2497	0.	125.45
2925	7.7489	-4.4999	0.	125.23
2926	7.2491	-4.4997	0.	125.16
2927	5.25	2.5	0.	122.81
2928	5.5	2.75	0.	120.28
2929	-0.74985	-5.5	0.	125.4
2930	-0.99989	-5.75	0.	126.83
2931	0.25013	-5.5	0.	119.93
2932	0.50009	-5.75	0.	117.21
2933	-1.2499	-6.	0.	127.13
2934	-1.7499	-6.	0.	126.21
2935	-1.5	-6.25	0.	126.79
2936	-5.5	-2.75	0.	128.33
2937	-5.25	-3.	0.	128.71
2938	-5.25	-1.5	0.	127.48
2939	-5.5	-1.75	0.	126.98
2940	-3.7498	-3.5	0.	122.3
2941	-3.4998	-3.25	0.	119.81
2942	-5.	-3.25	0.	128.24
2943	-4.75	-3.5	0.	126.81
2944	-1.2487	-3.4999	0.	125.86
2945	-0.99842	-3.2499	0.	126.84
2946	-2.4994	-3.2499	0.	119.55
2947	-2.2493	-3.4999	0.	121.87
2948	-3.4999	-5.25	0.	125.25
2949	-3.7499	-5.	0.	125.7
2950	-6.75	-4.5	0.	127.66
2951	-7.	-4.75	0.	128.73
2952	-5.5	-4.75	0.	121.82
2953	-5.75	-4.5	0.	124.13
2954	-5.25	-4.5	0.	123.76
2955	-7.5	-5.25	0.	128.55
2956	-7.25	-5.	0.	128.93
2957	-7.75	-5.	0.	128.41
2958	-7.5	-6.25	0.	127.17
2959	-7.25	-6.5	0.	126.76
2960	-7.75	-6.5	0.	126.85
2961	-7.5	-6.75	0.	126.96
2962	-3.5	-6.75	0.	125.03
2963	-3.5	-6.25	0.	124.87
2964	-3.75	-6.5	0.	124.83
2965	-1.75	-7.5	0.	125.96
2966	-1.5	-7.25	0.	126.37
2967	-1.25	-7.5	0.	126.84
2968	-1.5	-7.75	0.	126.43
2969	-2.25	-7.5	0.	125.56
2970	-2.	-7.75	0.	125.88
2971	-2.75	-7.5	0.	125.54
2972	-2.5	-7.75	0.	125.75
2973	-3.	-7.75	0.	125.87
2974	-3.25	-7.5	0.	125.88
2975	4.75	1.	0.	126.5
2976	4.5	0.75003	0.	126.67
2977	4.5002	-1.7499	0.	125.12
2978	4.7502	-1.9999	0.	124.89
2979	4.5001	-0.24994	0.	125.44
2980	4.7501	-0.49995	0.	125.06
2981	4.5001	-0.74993	0.	125.16
2982	5.0001	-2.25	0.	123.7
2983	5.2501	-2.5	0.	122.45
2984	7.5	-2.7498	0.	127.11
2985	7.4999	-3.2498	0.	127.07
2986	7.75	-2.9999	0.	127.23
2987	7.25	-2.9998	0.	127.3
2988	5.5002	-7.2512	0.	124.02
2989	5.5	-7.7509	0.	124.69
2990	5.75	-7.5012	0.	124.63
2991	3.75	2.5	0.	131.9
2992	4.25	2.5	0.	129.65
2993	4.	2.75	0.	131.5
2994	4.	2.25	0.	130.21
2995	-1.5	4.75	0.	128.8
2996	-1.25	4.5	0.	128.85
2997	-1.5	5.75	0.	131.05
2998	-1.25	6.	0.	130.95
2999	-1.75	6.	0.	131.43
3000	-1.5	6.25	0.	130.77
3001	3.5	1.2501	0.	128.5
3002	3.5	1.75	0.	130.13
3003	3.25	1.5001	0.	129.1
3004	3.2502	2.2142e-004	0.	126.98
3005	3.5002	0.25016	0.	127.06
3006	3.2501	1.0001	0.	128.23
3007	3.5001	0.75011	0.	127.65
3008	-1.5	5.25	0.	130.16
3009	-1.25	5.5	0.	131.35
3010	-1.25	5.	0.	130.25
3011	3.5	2.25	0.	132.02
3012	3.25	2.	0.	132.08
3013	3.75	2.	0.	130.32
3014	3.5	2.75	0.	132.84
3015	3.25	2.5	0.	134.27
3016	3.75	3.	0.	132.43
3017	3.25	3.	0.	133.64
3018	3.5	3.25	0.	132.03
3019	5.5004	-6.7513	0.	123.8
3020	5.5005	-6.2511	0.	123.18
3021	5.7503	-6.5013	0.	125.68
3022	5.7502	-7.0013	0.	125.14
3023	7.25	-2.4999	0.	126.25
3024	7.	-2.7498	0.	126.44
3025	7.	-2.2499	0.	124.64
3026	6.75	-2.4999	0.	124.65
3027	7.5	-2.2499	0.	127.33
3028	7.75	-2.4999	0.	127.25
3029	4.7502	-1.4999	0.	125.97
3030	4.5002	-1.2499	0.	125.31
3031	4.7501	3.9212e-005	0.	126.06
3032	4.5001	0.25005	0.	126.14
3033	-3.75	-7.	0.	125.85
3034	-3.5	-7.25	0.	125.72
3035	-7.5	-7.75	0.	127.67
3036	-7.75	-7.5	0.	127.48
3037	-7.25	-7.5	0.	128.16
3038	-7.5	-7.25	0.	127.37
3039	-7.5	-5.75	0.	127.95
3040	-7.75	-5.5	0.	128.12
3041	-7.25	-5.5	0.	129.01
3042	-7.75	-6.	0.	127.36
3043	-7.25	-6.	0.	127.93
3044	-6.5	-4.75	0.	127.55
3045	-6.25	-4.5	0.	125.94
3046	-4.5	-4.75	0.	125.78
3047	-4.75	-4.5	0.	124.64
3048	-4.2499	-4.5	0.	125.1
3049	-3.4999	-5.75	0.	125.21
3050	-3.75	-6.	0.	125.59
3051	-3.7499	-5.5	0.	126.26
3052	-1.4988	-3.2499	0.	126.61
3053	-1.749	-3.4999	0.	124.43
3054	-3.9999	-3.25	0.	123.99
3055	-4.2499	-3.5	0.	125.09
3056	-5.25	-2.5	0.	129.41
3057	-5.5	-2.25	0.	128.
3058	-1.25	-7.	0.	127.27
3059	-1.5	-6.75	0.	126.68
3060	-0.24985	-5.5	0.	123.17
3061	1.0237e-004	-5.75	0.	121.72
3062	2.3382e-004	-5.25	0.	121.77
3063	-0.49989	-5.75	0.	125.71
3064	4.75	2.5	0.	126.53
3065	4.5	2.75	0.	129.36
3066	5.	2.75	0.	124.94
3067	3.25	4.	0.	129.71
3068	3.5	4.25	0.	128.77
3069	3.75	4.	0.	129.95
3070	3.5	3.75	0.	130.27
3071	7.7482	-5.	0.	125.18
3072	7.2484	-5.	0.	125.9
3073	7.498	-5.2501	0.	124.95
3074	6.	-2.7499	0.	123.51
3075	6.	-2.2499	0.	122.72
3076	5.75	-2.4999	0.	122.78
3077	6.25	-2.4999	0.	123.43
3078	7.4997	-3.7497	0.	126.38
3079	7.7496	-3.9998	0.	125.91
3080	7.2496	-3.9997	0.	126.43
3081	7.7499	-3.4998	0.	126.83
3082	7.2499	-3.4997	0.	127.58
3083	2.7504	-4.	0.	126.88
3084	2.5006	-3.75	0.	126.16
3085	3.5005	-2.7499	0.	128.25
3086	3.7505	-2.4999	0.	126.43
3087	3.5003	-6.7501	0.	128.96
3088	3.2502	-7.0001	0.	129.21
3089	3.7505	-6.5002	0.	128.24
3090	3.2503	-6.5001	0.	130.98
3091	3.5004	-6.2501	0.	130.9
3092	4.0006	-6.2502	0.	127.06
3093	2.2501	-5.5	0.	125.34
3094	2.0001	-5.75	0.	123.32
3095	2.5002	-5.25	0.	126.66
3096	2.7502	-5.0001	0.	127.28
3097	2.7502	-5.5001	0.	129.54
3098	2.5002	-5.75	0.	128.8
3099	-1.75	7.	0.	129.77
3100	-1.5	6.75	0.	129.38
3101	-2.5	5.75	0.	129.15
3102	-2.75	5.5	0.	126.29
3103	-5.25	5.5	0.	124.18
3104	-5.5	5.75	0.	127.07
3105	-5.	5.75	0.	123.2
3106	-6.5	6.75	0.	127.86
3107	-6.25	7.	0.	128.55
3108	-6.25	6.5	0.	129.47
3109	-6.25	-0.5	0.	125.12
3110	-6.5	-0.25	0.	127.24
3111	-6.5	-0.75	0.	125.78
3112	-6.	-0.25	0.	123.96
3113	-4.75	4.5	0.	121.34
3114	-4.5	4.25	0.	122.73
3115	-4.5	4.75	0.	121.35
3116	-5.	4.25	0.	120.27
3117	-3.5	3.25	0.	125.18
3118	-3.75	3.	0.	125.73
3119	-3.25	3.	0.	125.06
3120	-3.75	3.5	0.	125.79
3121	-3.75	1.	0.	123.84
3122	-3.5	0.75	0.	118.8
3123	-3.25	1.	0.	118.9
3124	3.	3.75	0.	130.98
3125	3.	4.25	0.	128.98
3126	2.75	4.	0.	132.9
3127	-1.	4.25	0.	129.33
3128	-1.	3.75	0.	128.3
3129	-0.75	4.	0.	132.09
3130	-5.	-1.75	0.	129.17
3131	-4.75	-1.5	0.	131.32
3132	3.	-7.75	0.	128.83
3133	3.0001	-7.25	0.	129.55
3134	2.7501	-7.5	0.	130.96
3135	0.25006	-6.	0.	119.
3136	0.50004	-6.25	0.	114.27
3137	5.5004	-5.7507	0.	121.09
3138	5.7502	-6.001	0.	125.13
3139	4.2502	-3.	0.	123.73
3140	4.5001	-3.25	0.	120.26
3141	-3.5	6.25	0.	117.8
3142	-3.25	6.	0.	122.23
3143	-6.	7.25	0.	129.17
3144	-5.75	7.5	0.	131.45
3145	-6.	7.75	0.	128.44
3146	-4.	2.75	0.	126.25
3147	-4.25	2.5	0.	128.44
3148	-6.25	4.5	0.	126.72
3149	-6.	4.25	0.	123.8
3150	-6.75	4.5	0.	130.27
3151	-6.5	4.25	0.	129.2
3152	-7.75	0.5	0.	126.56
3153	-7.25	0.5	0.	129.85
3154	-7.5	0.75	0.	129.03
3155	0.25	6.5	0.	120.42
3156	2.8147e-011	6.25	0.	122.61
3157	-0.25	6.5	0.	123.89
3158	0.25307	-1.5	0.	121.99
3159	0.50275	-1.2499	0.	123.11
3160	5.75	1.5	0.	121.5
3161	5.5	1.25	0.	123.53
3162	6.25	1.5	0.	120.47
3163	6.	1.25	0.	120.24
3164	2.2508	-0.4996	0.	123.83
3165	2.5006	-0.24964	0.	125.51
3166	1.7511	-0.49964	0.	122.35
3167	2.0007	-0.24965	0.	122.17
3168	1.5009	-0.24972	0.	120.25
3169	1.2513	-0.49974	0.	122.95
3170	-5.	-0.25	0.	126.91
3171	-4.75	-0.5	0.	131.04
3172	-4.	1.25	0.	126.77
3173	-4.25	1.5	0.	129.9
3174	4.7499	-8.0004	0.	124.92
3175	5.2499	-8.0007	0.	125.
3176	4.9999	-8.2505	0.	125.45
3177	4.25	-8.0002	0.	125.42
3178	4.4999	-8.2503	0.	125.66
3179	3.75	-8.0001	0.	126.35
3180	4.	-8.2501	0.	126.31
3181	3.25	-8.0001	0.	127.91
3182	3.5	-8.2501	0.	127.34
3183	3.	-8.25	0.	128.89
3184	2.75	-8.	0.	131.5
3185	5.75	-8.0008	0.	125.98
3186	5.4999	-8.2507	0.	125.89
3187	-1.75	8.	0.	127.15
3188	-2.	7.75	0.	129.1
3189	-2.	8.25	0.	128.09
3190	-2.25	8.	0.	132.68
3191	-1.25	8.	0.	124.72
3192	-1.5	8.25	0.	125.2
3193	-0.75	8.	0.	123.63
3194	-1.	8.25	0.	123.92
3195	-0.25	8.	0.	123.22
3196	-0.5	8.25	0.	123.47
3197	0.25	8.	0.	123.4
3198	1.8241e-011	8.25	0.	123.47
3199	0.5	7.75	0.	123.09
3200	0.75	8.	0.	124.26
3201	0.5	8.25	0.	123.94
3202	2.75	8.	0.	120.41
3203	2.25	8.	0.	121.6
3204	2.5	8.25	0.	121.13
3205	2.5	7.75	0.	119.13
3206	3.	8.25	0.	121.44
3207	3.25	8.	0.	122.24
3208	3.	7.75	0.	120.54
3209	-7.25	8.	0.	123.78
3210	-7.75	8.	0.	123.67
3211	-7.5	8.25	0.	123.71
3212	-6.75	8.	0.	124.54
3213	-7.	8.25	0.	123.89
3214	-6.5	8.25	0.	124.94
3215	-6.25	8.	0.	126.74
3216	-8.	6.25	0.	124.27
3217	-8.25	6.	0.	123.81
3218	-8.	5.75	0.	124.03
3219	-8.	6.75	0.	124.19
3220	-8.25	6.5	0.	124.09
3221	-8.	7.25	0.	123.95
3222	-8.25	7.	0.	124.02
3223	-8.	7.75	0.	123.75
3224	-8.25	7.5	0.	123.85
3225	-8.	8.25	0.	123.83
3226	-8.25	8.	0.	123.81
3227	3.75	4.5	0.	129.2
3228	4.	4.25	0.	130.38
3229	4.	4.75	0.	132.25
3230	4.25	4.5	0.	132.12
3231	7.248	-6.0005	0.	124.55
3232	7.7478	-6.0002	0.	123.73
3233	7.4984	-6.2502	0.	118.98
3234	7.4978	-5.7502	0.	123.72
3235	7.9999	-3.2499	0.	126.99
3236	8.25	-2.9999	0.	127.35
3237	8.	-2.7499	0.	127.37
3238	7.9997	-3.7499	0.	126.35
3239	8.2498	-3.5	0.	126.9
3240	7.9992	-4.25	0.	125.68
3241	8.2495	-4.	0.	126.29
3242	7.9986	-4.75	0.	125.36
3243	8.249	-4.5001	0.	125.88
3244	7.998	-5.2501	0.	125.34
3245	8.2484	-5.0001	0.	125.94
3246	7.9978	-5.7501	0.	125.15
3247	8.248	-5.5001	0.	126.32
3248	7.7478	-5.5001	0.	125.11
3249	0.7523	-0.99986	0.	123.76
3250	1.0018	-0.7498	0.	123.96
3251	6.5	2.75	0.	120.44
3252	6.75	3.	0.	122.57
3253	6.5	3.25	0.	117.99
3254	6.5	2.25	0.	121.22
3255	6.75	2.5	0.	123.44
3256	6.5	1.75	0.	120.93
3257	6.75	2.	0.	123.25
3258	6.75	1.5	0.	122.49
3259	6.5	1.25	0.	119.52
3260	-2.5	2.25	0.	125.22
3261	-2.25	2.5	0.	127.65
3262	-2.5	1.75	0.	123.6
3263	-2.25	2.	0.	126.7
3264	-2.25	1.5	0.	125.33
3265	-2.5	1.25	0.	121.66
3266	-0.24726	-1.5001	0.	121.66
3267	2.6172e-003	-1.2501	0.	120.71
3268	0.5	7.25	0.	121.56
3269	0.75	7.5	0.	123.41
3270	0.5	6.75	0.	119.69
3271	0.75	7.	0.	121.11
3272	0.75	6.5	0.	118.32
3273	0.5	6.25	0.	118.23
3274	3.25	4.5	0.	128.02
3275	3.5	4.75	0.	128.35
3276	-1.25	3.5	0.	127.46
3277	-1.5	3.25	0.	128.24
3278	3.	1.7501	0.	131.06
3279	3.0001	1.2501	0.	128.84
3280	2.75	1.5001	0.	130.04
3281	2.7504	2.8349e-004	0.	126.69
3282	3.0002	0.25022	0.	127.82
3283	-1.	4.75	0.	130.3
3284	-0.75	4.5	0.	131.99
3285	-0.75	6.	0.	129.66
3286	-1.	5.75	0.	131.26
3287	3.	3.25	0.	133.14
3288	2.75	3.5	0.	133.34
3289	3.25	3.5	0.	131.54
3290	6.	-7.751	0.	125.92
3291	6.25	-7.501	0.	127.38
3292	6.	-7.2512	0.	125.75
3293	7.75	-1.9999	0.	127.66
3294	8.25	-2.	0.	127.25
3295	8.	-1.75	0.	127.4
3296	8.	-2.2499	0.	127.58
3297	6.25	-1.9999	0.	121.47
3298	6.75	-1.9999	0.	122.15
3299	6.5	-1.75	0.	117.26
3300	6.5	-2.2499	0.	122.21
3301	5.0001	-1.75	0.	125.75
3302	5.2501	-2.	0.	124.98
3303	5.0001	-0.24997	0.	125.68
3304	5.0001	-0.74997	0.	125.54
3305	5.25	-0.49998	0.	126.9
3306	5.25	1.	0.	125.32
3307	5.	0.75002	0.	126.64
3308	-4.	-6.25	0.	125.55
3309	-4.	-6.75	0.	125.65
3310	-4.25	-6.5	0.	126.75
3311	-7.	-6.25	0.	127.52
3312	-7.	-6.75	0.	127.25
3313	-6.75	-6.5	0.	128.24
3314	-6.75	-5.	0.	128.62
3315	-7.	-5.25	0.	129.39
3316	-5.5	-5.25	0.	116.64
3317	-5.75	-5.	0.	121.78
3318	-5.25	-5.	0.	121.47
3319	-3.9999	-5.25	0.	126.71
3320	-4.2499	-5.	0.	126.35
3321	-3.9999	-4.75	0.	125.68
3322	1.25	8.	0.	125.07
3323	1.	7.75	0.	124.58
3324	1.	8.25	0.	124.77
3325	-0.74779	-2.	0.	125.78
3326	-0.4975	-1.7501	0.	123.04
3327	-0.49755	-2.25	0.	124.83
3328	-1.2485	-2.9999	0.	127.58
3329	-0.99822	-2.7499	0.	127.95
3330	-3.7498	-3.	0.	121.5
3331	-3.4998	-2.75	0.	117.22
3332	-3.2497	-3.	0.	117.72
3333	-5.	-2.75	0.	129.79
3334	-4.75	-3.	0.	128.91
3335	1.7501	-6.	0.	120.22
3336	1.5	-6.25	0.	114.98
3337	-1.	-7.75	0.	127.79
3338	-0.99999	-7.25	0.	127.74
3339	-0.75	-7.5	0.	129.63
3340	-0.74993	-6.	0.	127.13
3341	-0.99995	-6.25	0.	128.02
3342	-1.25	-8.	0.	127.39
3343	-1.	-8.25	0.	128.3
3344	-0.75	-8.	0.	130.68
3345	-1.75	-8.	0.	126.36
3346	-1.5	-8.25	0.	127.11
3347	-2.25	-8.	0.	126.06
3348	-2.	-8.25	0.	126.59
3349	-2.75	-8.	0.	126.08
3350	-2.5	-8.25	0.	126.39
3351	-3.25	-8.	0.	126.3
3352	-3.	-8.25	0.	126.36
3353	-3.75	-8.	0.	126.64
3354	-3.5	-8.25	0.	126.43
3355	-3.5	-7.75	0.	126.3
3356	-4.25	-8.	0.	126.28
3357	-4.	-8.25	0.	126.36
3358	-4.	-7.75	0.	127.1
3359	-5.75	-8.	0.	120.26
3360	-5.5	-8.25	0.	119.89
3361	-5.5	-7.75	0.	115.39
3362	-5.25	-8.	0.	119.98
3363	-7.25	-8.	0.	127.78
3364	-7.	-7.75	0.	128.27
3365	-7.	-8.25	0.	127.27
3366	-6.75	-8.	0.	127.25
3367	-7.75	-8.	0.	127.55
3368	-7.5	-8.25	0.	127.42
3369	-8.	-7.75	0.	127.36
3370	-8.25	-8.	0.	127.37
3371	-8.	-8.25	0.	127.36
3372	-8.	-7.25	0.	127.12
3373	-8.25	-7.5	0.	127.22
3374	-8.	-6.75	0.	126.91
3375	-8.25	-7.	0.	126.97
3376	-7.75	-7.	0.	127.01
3377	-8.	-6.25	0.	127.05
3378	-8.25	-6.5	0.	126.91
3379	-8.	-5.75	0.	127.53
3380	-8.25	-6.	0.	127.21
3381	-8.	-5.25	0.	127.98
3382	-8.25	-5.5	0.	127.66
3383	-8.	-4.75	0.	128.12
3384	-8.25	-5.	0.	127.94
3385	-8.	-4.25	0.	127.97
3386	-8.25	-4.5	0.	127.94
3387	-8.	-3.75	0.	127.68
3388	-8.25	-4.	0.	127.74
3389	-8.	-3.25	0.	127.33
3390	-8.25	-3.5	0.	127.45
3391	-8.	-2.75	0.	126.97
3392	-8.25	-3.	0.	127.12
3393	-8.	-2.25	0.	126.63
3394	-8.25	-2.5	0.	126.79
3395	-8.	-1.75	0.	126.37
3396	-8.25	-2.	0.	126.5
3397	-8.25	-1.5	0.	126.25
3398	-8.	-1.25	0.	126.18
3399	-8.	-0.25	0.	125.8
3400	-8.25	-0.5	0.	125.72
3401	-8.	-0.75	0.	126.05
3402	-8.	0.25	0.	125.19
3403	-8.25	-3.5331e-009	0.	125.06
3404	-8.	0.75	0.	124.12
3405	-8.25	0.5	0.	123.72
3406	-7.5	5.25	0.	127.77
3407	-7.75	5.5	0.	125.3
3408	-7.	4.75	0.	130.94
3409	-7.25	5.	0.	129.43
3410	5.5	3.25	0.	118.12
3411	5.25	3.	0.	122.41
3412	4.	3.25	0.	132.05
3413	4.25	3.	0.	131.19
3414	6.9989	-4.7498	0.	126.02
3415	6.7494	-4.4998	0.	127.53
3416	6.9994	-4.2497	0.	126.14
3417	6.9999	-3.2497	0.	127.81
3418	6.75	-2.9998	0.	127.11
3419	3.0002	-4.75	0.	127.7
3420	3.0002	-4.25	0.	127.36
3421	3.2502	-4.5	0.	128.95
3422	3.2506	-2.9999	0.	129.05
3423	3.0006	-3.2499	0.	129.2
3424	4.2507	-6.0003	0.	125.02
3425	4.5006	-5.7503	0.	121.16
3426	3.0003	-5.7501	0.	132.04
3427	3.0003	-6.2501	0.	132.36
3428	3.2504	-6.0001	0.	132.28
3429	2.7502	-6.0001	0.	131.3
3430	-2.	7.25	0.	130.22
3431	-2.25	7.5	0.	132.25
3432	-2.25	6.	0.	130.97
3433	-2.	6.25	0.	131.96
3434	-4.75	6.	0.	121.16
3435	-4.5	6.25	0.	117.18
3436	-6.	6.25	0.	130.01
3437	-5.75	6.	0.	128.97
3438	-7.	2.75	0.	133.51
3439	-7.	2.25	0.	133.56
3440	-6.75	2.5	0.	134.34
3441	-7.25	2.5	0.	134.51
3442	-5.75	-7.4615e-008	0.	122.55
3443	-5.25	-6.6828e-008	0.	124.04
3444	-5.5	0.25	0.	117.73
3445	-7.	0.25	0.	130.25
3446	-6.75	-4.9183e-008	0.	128.75
3447	-5.25	4.	0.	118.76
3448	-5.75	4.	0.	120.4
3449	-5.5	3.75	0.	114.02
3450	-4.	3.75	0.	125.48
3451	-4.25	4.	0.	124.17
3452	-2.	2.75	0.	128.84
3453	-1.75	3.	0.	128.69
3454	-2.	2.25	0.	129.1
3455	-1.75	2.5	0.	131.41
3456	-2.	1.75	0.	128.43
3457	-1.75	2.	0.	131.2
3458	-4.	3.25	0.	126.34
3459	-4.25	3.	0.	127.29
3460	-4.25	3.5	0.	126.99
3461	-4.75	4.	0.	121.66
3462	-4.5	3.75	0.	125.71
3463	-5.	3.75	0.	119.87
3464	-7.	0.75	0.	132.12
3465	-7.25	1.	0.	131.28
3466	-7.	1.25	0.	133.22
3467	-6.75	1.	0.	133.43
3468	-6.75	0.5	0.	132.38
3469	-6.25	-7.2778e-008	0.	126.09
3470	-6.5	0.25	0.	130.92
3471	-6.	0.25	0.	124.47
3472	-6.	3.75	0.	123.03
3473	-6.25	4.	0.	126.29
3474	-6.75	3.	0.	133.27
3475	-7.25	3.	0.	135.95
3476	-7.	3.25	0.	133.68
3477	-6.	6.75	0.	130.14
3478	-5.75	7.	0.	131.12
3479	-5.75	6.5	0.	131.67
3480	-5.25	6.	0.	126.07
3481	-5.5	6.25	0.	130.66
3482	-5.	6.25	0.	124.84
3483	-2.5	6.25	0.	132.36
3484	-2.75	6.	0.	127.72
3485	-2.25	7.	0.	132.35
3486	-2.	6.75	0.	131.67
3487	3.0002	-5.2501	0.	130.15
3488	3.2502	-5.0001	0.	130.63
3489	3.2503	-5.5001	0.	133.25
3490	4.0005	-5.7502	0.	128.32
3491	3.7505	-6.0002	0.	129.72
3492	3.7503	-2.9999	0.	127.51
3493	4.0002	-3.25	0.	126.49
3494	4.0003	-2.7499	0.	125.69
3495	3.5004	-3.25	0.	131.09
3496	3.2502	-4.	0.	130.08
3497	3.0004	-3.75	0.	128.83
3498	6.7499	-3.4997	0.	129.64
3499	6.9997	-3.7497	0.	127.62
3500	6.	-3.2499	0.	124.97
3501	5.75	-2.9999	0.	122.39
3502	6.25	-2.9999	0.	125.42
3503	6.9984	-5.2502	0.	127.24
3504	6.9982	-5.7505	0.	127.15
3505	6.7486	-5.5004	0.	130.21
3506	7.248	-5.5002	0.	126.29
3507	6.749	-5.	0.	128.68
3508	7.25	3.	0.	127.2
3509	7.	2.75	0.	125.56
3510	7.	3.25	0.	125.75
3511	8.25	3.5	0.	125.71
3512	7.75	3.5	0.	129.06
3513	8.	3.25	0.	125.92
3514	8.	3.75	0.	127.02
3515	4.	3.75	0.	131.33
3516	4.25	4.	0.	131.82
3517	4.25	3.5	0.	133.01
3518	3.75	3.5	0.	131.66
3519	4.5	3.25	0.	132.16
3520	4.75	3.	0.	127.76
3521	7.5	2.75	0.	129.88
3522	7.5	3.25	0.	130.12
3523	7.75	3.	0.	126.98
3524	7.	2.25	0.	125.45
3525	7.25	2.5	0.	128.25
3526	7.	1.75	0.	124.81
3527	7.25	2.	0.	127.38
3528	-7.25	4.5	0.	132.56
3529	-7.	4.25	0.	132.32
3530	-7.75	5.	0.	125.98
3531	-7.5	4.75	0.	131.09
3532	-8.	4.75	0.	123.79
3533	-8.25	5.	0.	121.21
3534	-8.	5.25	0.	123.5
3535	-7.75	1.	0.	126.59
3536	-8.25	1.	0.	121.34
3537	-8.	1.25	0.	123.68
3538	-7.5	1.25	0.	131.54
3539	-7.	1.75	0.	133.8
3540	-7.25	1.5	0.	133.45
3541	-6.75	1.5	0.	135.04
3542	-6.75	2.	0.	135.91
3543	-7.25	2.	0.	133.54
3544	-0.24993	-6.	0.	124.27
3545	4.3639e-005	-6.25	0.	122.73
3546	-0.49995	-6.25	0.	128.62
3547	-0.99998	-6.75	0.	128.27
3548	-0.74997	-6.5	0.	129.49
3549	-1.25	-6.5	0.	127.69
3550	-0.74999	-7.	0.	128.74
3551	3.0002	-6.75	0.	131.22
3552	2.7501	-7.	0.	131.01
3553	2.7502	-6.5	0.	132.81
3554	2.0001	-6.25	0.	124.39
3555	2.2501	-6.	0.	126.79
3556	-5.	-2.25	0.	130.08
3557	-4.75	-2.	0.	131.02
3558	-5.25	-2.	0.	128.68
3559	-4.75	-2.5	0.	131.6
3560	-4.2499	-3.	0.	126.39
3561	-4.5	-2.75	0.	130.74
3562	-4.4999	-3.25	0.	127.5
3563	-3.9999	-2.75	0.	125.05
3564	-1.4987	-2.7499	0.	129.68
3565	-1.7489	-2.9999	0.	125.62
3566	-0.99815	-1.7501	0.	126.67
3567	-1.2485	-2.	0.	129.41
3568	-0.99814	-2.25	0.	127.89
3569	1.75	8.	0.	124.08
3570	2.	7.75	0.	123.24
3571	2.	8.25	0.	123.01
3572	1.5	7.75	0.	126.6
3573	1.5	8.25	0.	124.83
3574	1.	7.25	0.	122.96
3575	1.25	7.5	0.	126.12
3576	1.	6.75	0.	119.76
3577	1.25	7.	0.	123.93
3578	-4.	-5.75	0.	126.64
3579	-4.25	-6.	0.	127.39
3580	-4.2499	-5.5	0.	128.39
3581	-4.5	-5.25	0.	128.05
3582	-4.75	-5.	0.	124.58
3583	-6.5	-5.25	0.	129.71
3584	-6.25	-5.	0.	125.74
3585	-6.75	-6.	0.	129.37
3586	-7.	-5.75	0.	128.99
3587	-7.	-7.25	0.	128.24
3588	-6.75	-7.	0.	128.74
3589	-7.25	-7.	0.	127.46
3590	-6.75	-7.5	0.	129.49
3591	-6.	-8.25	0.	122.26
3592	-6.	-7.75	0.	122.42
3593	-6.25	-8.	0.	124.28
3594	-4.5	-8.25	0.	125.08
3595	-4.5	-7.75	0.	127.52
3596	-4.75	-8.	0.	123.56
3597	-4.25	-7.	0.	127.57
3598	-4.	-7.25	0.	126.89
3599	5.5	0.75001	0.	126.51
3600	5.75	1.	0.	122.28
3601	5.25	1.8743e-005	0.	127.49
3602	5.	0.25002	0.	126.73
3603	5.0001	-1.25	0.	126.31
3604	5.2501	-0.99997	0.	127.31
3605	4.7501	-0.99994	0.	125.65
3606	5.2501	-1.5	0.	127.85
3607	6.	-1.75	0.	123.04
3608	5.75	-2.	0.	123.7
3609	7.25	-1.9999	0.	125.72
3610	7.	-1.7499	0.	123.92
3611	7.5	-1.7499	0.	129.36
3612	6.9988	-6.2505	0.	126.45
3613	6.7487	-6.0007	0.	128.64
3614	3.	2.75	0.	135.07
3615	2.75	3.	0.	134.9
3616	3.	2.25	0.	134.33
3617	2.75	2.	0.	133.77
3618	2.75	2.5	0.	137.43
3619	-0.25	6.	0.	125.93
3620	0.25	6.	0.	120.44
3621	-2.0341e-010	5.75	0.	124.63
3622	-0.5	5.75	0.	131.02
3623	-0.5	6.25	0.	127.2
3624	-0.75	5.	0.	131.84
3625	-1.	5.25	0.	131.44
3626	2.2505	3.006e-004	0.	123.84
3627	1.7506	2.6711e-004	0.	120.04
3628	2.0004	0.25023	0.	121.85
3629	2.5003	0.25025	0.	128.01
3630	2.7501	1.0001	0.	129.02
3631	3.0001	0.75015	0.	128.49
3632	-1.	3.25	0.	127.2
3633	-0.75	3.5	0.	129.83
3634	3.	4.75	0.	127.27
3635	2.75	4.5	0.	130.57
3636	1.	6.25	0.	117.33
3637	1.25	6.5	0.	121.09
3638	-0.74787	-1.5001	0.	123.93
3639	-0.49781	-1.2501	0.	120.37
3640	-1.2487	-1.5001	0.	129.83
3641	-0.99845	-1.2501	0.	125.67
3642	-2.	1.25	0.	128.27
3643	-1.75	1.5	0.	131.62
3644	7.	1.25	0.	124.44
3645	7.25	1.5	0.	128.34
3646	0.2523	-0.99999	0.	121.84
3647	0.50183	-0.74992	0.	125.61
3648	8.2481	-6.0001	0.	127.04
3649	7.9983	-6.2501	0.	125.32
3650	-1.5	2.75	0.	131.25
3651	-1.25	3.	0.	127.98
3652	3.75	5.	0.	131.41
3653	4.25	5.	0.	137.05
3654	4.	5.25	0.	136.88
3655	-7.75	8.5	0.	123.88
3656	-8.	8.75	0.	124.3
3657	-8.25	8.5	0.	124.08
3658	-7.5	8.75	0.	124.17
3659	-7.25	8.5	0.	123.82
3660	-6.5	8.75	0.	124.87
3661	-6.25	8.5	0.	125.89
3662	-6.75	8.5	0.	124.29
3663	-8.5	6.25	0.	123.64
3664	-8.75	6.	0.	123.7
3665	-8.5	5.75	0.	122.74
3666	-8.5	6.75	0.	123.92
3667	-8.75	6.5	0.	124.05
3668	-8.5	7.25	0.	123.92
3669	-8.75	7.	0.	124.06
3670	-8.75	7.5	0.	123.99
3671	-8.5	7.75	0.	123.9
3672	8.5	7.75	0.	127.66
3673	8.5	8.25	0.	127.65
3674	8.75	8.	0.	126.67
3675	8.25	8.	0.	129.
3676	8.5	7.25	0.	127.88
3677	8.25	7.5	0.	128.83
3678	8.75	7.5	0.	126.63
3679	8.5	6.75	0.	128.6
3680	8.75	7.	0.	127.
3681	8.25	7.	0.	129.56
3682	8.5	6.25	0.	129.67
3683	8.75	6.5	0.	127.85
3684	8.25	6.5	0.	130.38
3685	8.5	5.75	0.	130.37
3686	8.75	6.	0.	128.82
3687	8.25	6.	0.	131.98
3688	8.5	5.25	0.	129.8
3689	8.25	5.5	0.	132.52
3690	8.75	5.5	0.	129.13
3691	8.5	4.75	0.	128.14
3692	8.75	5.	0.	128.25
3693	8.25	5.	0.	130.32
3694	8.5	4.25	0.	126.55
3695	8.75	4.5	0.	127.
3696	8.25	4.5	0.	127.37
3697	8.5	3.75	0.	125.23
3698	8.25	4.	0.	126.53
3699	8.75	4.	0.	126.11
3700	8.5	3.25	0.	122.95
3701	8.75	3.5	0.	125.15
3702	8.75	3.	0.	123.
3703	8.5	2.75	0.	117.32
3704	8.25	3.	0.	123.11
3705	-2.	8.75	0.	127.26
3706	-2.25	8.5	0.	130.98
3707	-1.75	8.5	0.	126.13
3708	-0.75	8.5	0.	123.76
3709	-1.	8.75	0.	124.27
3710	-1.25	8.5	0.	124.4
3711	-0.25	8.5	0.	123.72
3712	-0.5	8.75	0.	124.1
3713	0.25	8.5	0.	124.02
3714	1.1935e-011	8.75	0.	124.21
3715	0.75	8.5	0.	124.45
3716	0.5	8.75	0.	124.49
3717	1.	8.75	0.	124.71
3718	1.25	8.5	0.	124.54
3719	2.75	8.5	0.	122.14
3720	2.5	8.75	0.	122.57
3721	2.25	8.5	0.	122.54
3722	3.25	8.5	0.	123.74
3723	3.	8.75	0.	122.98
3724	3.5	8.25	0.	124.56
3725	3.75	8.5	0.	127.52
3726	3.5	8.75	0.	125.18
3727	8.25	8.5	0.	128.91
3728	8.	8.75	0.	129.23
3729	7.75	8.5	0.	131.76
3730	8.	8.25	0.	130.25
3731	8.5	8.75	0.	127.25
3732	8.75	8.5	0.	126.7
3733	-8.5	-7.75	0.	127.23
3734	-8.5	-8.25	0.	127.31
3735	-8.75	-8.	0.	127.28
3736	-8.5	-7.25	0.	127.07
3737	-8.75	-7.5	0.	127.15
3738	-8.5	-6.75	0.	126.97
3739	-8.75	-7.	0.	127.01
3740	-8.5	-6.25	0.	127.06
3741	-8.75	-6.5	0.	126.99
3742	-8.5	-5.75	0.	127.34
3743	-8.75	-6.	0.	127.16
3744	-8.5	-5.25	0.	127.62
3745	-8.75	-5.5	0.	127.42
3746	-8.5	-4.75	0.	127.75
3747	-8.75	-5.	0.	127.61
3748	-8.5	-4.25	0.	127.7
3749	-8.75	-4.5	0.	127.65
3750	-8.5	-3.75	0.	127.51
3751	-8.75	-4.	0.	127.54
3752	-8.5	-3.25	0.	127.25
3753	-8.75	-3.5	0.	127.33
3754	-8.5	-2.75	0.	126.95
3755	-8.75	-3.	0.	127.07
3756	-8.75	-2.5	0.	126.8
3757	-8.5	-2.25	0.	126.66
3758	-8.5	-1.25	0.	126.1
3759	-8.75	-1.5	0.	126.27
3760	-8.5	-1.75	0.	126.39
3761	-8.5	-0.75	0.	125.71
3762	-8.75	-1.	0.	125.98
3763	-8.25	-1.	0.	126.04
3764	-8.5	-0.25	0.	124.98
3765	-8.75	-0.5	0.	125.53
3766	-8.5	0.25	0.	123.59
3767	-8.75	-1.4593e-009	0.	124.69
3768	-8.5	0.75	0.	120.98
3769	-8.75	0.5	0.	123.19
3770	-8.75	1.	0.	120.73
3771	-8.5	1.25	0.	115.4
3772	-1.25	-8.5	0.	128.03
3773	-1.	-8.75	0.	129.3
3774	-0.75	-8.5	0.	129.99
3775	-1.75	-8.5	0.	127.35
3776	-1.5	-8.75	0.	128.41
3777	-2.25	-8.5	0.	126.92
3778	-2.	-8.75	0.	127.72
3779	-2.75	-8.5	0.	126.68
3780	-2.5	-8.75	0.	127.2
3781	-3.25	-8.5	0.	126.49
3782	-3.	-8.75	0.	126.78
3783	-3.75	-8.5	0.	126.14
3784	-3.5	-8.75	0.	126.36
3785	-4.25	-8.5	0.	125.15
3786	-4.	-8.75	0.	125.65
3787	-4.75	-8.5	0.	123.32
3788	-4.5	-8.75	0.	124.28
3789	-5.25	-8.5	0.	121.68
3790	-5.	-8.75	0.	122.53
3791	-5.	-8.25	0.	121.79
3792	-5.75	-8.5	0.	121.87
3793	-5.5	-8.75	0.	121.74
3794	-6.	-8.75	0.	122.84
3795	-6.25	-8.5	0.	123.82
3796	-7.25	-8.5	0.	126.91
3797	-7.	-8.75	0.	126.25
3798	-6.75	-8.5	0.	125.84
3799	-7.75	-8.5	0.	127.24
3800	-7.5	-8.75	0.	126.91
3801	-8.25	-8.5	0.	127.3
3802	-8.	-8.75	0.	127.17
3803	-8.5	-8.75	0.	127.27
3804	-8.75	-8.5	0.	127.32
3805	6.	-8.2507	0.	127.32
3806	6.25	-8.0008	0.	128.18
3807	5.75	-8.5005	0.	127.24
3808	6.25	-8.5005	0.	128.95
3809	6.	-8.7504	0.	127.7
3810	5.2499	-8.5004	0.	126.34
3811	5.4999	-8.7504	0.	126.93
3812	4.9999	-8.7503	0.	126.67
3813	4.7499	-8.5003	0.	126.19
3814	3.75	-8.5001	0.	127.31
3815	4.	-8.7501	0.	127.59
3816	4.2499	-8.5002	0.	126.55
3817	3.25	-8.5	0.	128.32
3818	3.5	-8.7501	0.	128.54
3819	3.	-8.75	0.	129.66
3820	2.75	-8.5	0.	130.5
3821	8.5	-2.25	0.	127.15
3822	8.75	-2.	0.	127.1
3823	8.5	-1.75	0.	125.8
3824	8.5	-2.75	0.	127.46
3825	8.75	-2.5	0.	127.69
3826	8.25	-2.5	0.	127.48
3827	8.4999	-3.25	0.	127.26
3828	8.75	-3.	0.	127.67
3829	8.4997	-3.75	0.	126.84
3830	8.7499	-3.5	0.	127.36
3831	8.4993	-4.2501	0.	126.48
3832	8.7496	-4.0001	0.	127.
3833	8.4988	-4.7501	0.	126.45
3834	8.7492	-4.5001	0.	126.85
3835	8.4985	-5.2501	0.	126.92
3836	8.7488	-5.0001	0.	127.12
3837	8.4983	-5.7501	0.	128.21
3838	8.7486	-5.5001	0.	127.92
3839	8.4986	-6.25	0.	131.12
3840	8.7486	-6.	0.	129.56
3841	-4.25	1.	0.	130.39
3842	-4.	0.75	0.	128.8
3843	-5.	0.25	0.	127.4
3844	-4.75	-5.7869e-008	0.	130.28
3845	3.25	5.	0.	127.58
3846	3.5	5.25	0.	127.8
3847	0.75	6.	0.	117.22
3848	0.5	5.75	0.	116.62
3849	1.2506	1.8648e-004	0.	120.62
3850	1.5005	0.25018	0.	114.84
3851	1.001	-0.24983	0.	123.34
3852	0.75132	-0.49986	0.	125.8
3853	-0.24793	-1.0001	0.	119.38
3854	1.7297e-003	-0.75003	0.	120.55
3855	3.75	8.	0.	127.38
3856	3.5	7.75	0.	122.78
3857	4.	8.25	0.	130.33
3858	4.	8.75	0.	128.81
3859	4.25	8.5	0.	132.44
3860	8.25	-0.99999	0.	122.63
3861	8.75	-1.	0.	122.4
3862	8.5	-0.75	0.	116.46
3863	8.5	-1.25	0.	122.7
3864	8.	-1.25	0.	125.91
3865	7.75	-1.5	0.	129.1
3866	8.25	-1.5	0.	125.95
3867	6.75	1.	0.	121.47
3868	6.5	0.75	0.	115.48
3869	6.25	1.	0.	119.29
3870	7.25	1.	0.	129.97
3871	7.	0.75	0.	124.81
3872	8.	-0.74999	0.	124.14
3873	7.75	-0.99998	0.	128.33
3874	4.25	8.	0.	133.78
3875	4.	7.75	0.	131.49
3876	-1.75	0.99999	0.	133.82
3877	-2.	0.74998	0.	129.27
3878	-2.25	0.99999	0.	124.59
3879	-0.49855	-0.7501	0.	115.23
3880	-0.74839	-1.0001	0.	122.08
3881	0.75058	1.0019e-004	0.	125.78
3882	1.0005	0.2501	0.	122.54
3883	2.5001	0.75015	0.	129.64
3884	2.2502	0.50018	0.	125.99
3885	2.7502	0.50019	0.	129.12
3886	-0.5	5.25	0.	132.96
3887	-0.25	5.5	0.	129.66
3888	-0.75	5.5	0.	132.6
3889	2.5	2.25	0.	136.83
3890	2.5	2.75	0.	137.2
3891	2.25	2.5	0.	131.42
3892	8.5	-8.75	0.	130.1
3893	8.25	-8.5	0.	128.1
3894	8.5	-8.25	0.	131.94
3895	8.75	-8.5	0.	131.45
3896	6.75	-8.5003	0.	126.42
3897	6.5	-8.2505	0.	129.77
3898	6.5	-8.7503	0.	128.16
3899	6.7494	-6.5008	0.	129.3
3900	6.4997	-6.7511	0.	131.13
3901	6.2497	-6.5013	0.	129.96
3902	6.4993	-6.251	0.	131.49
3903	8.749	-6.4999	0.	132.04
3904	8.2488	-6.5	0.	129.37
3905	8.4992	-6.75	0.	132.71
3906	7.5	-1.25	0.	131.45
3907	7.25	-1.5	0.	127.55
3908	5.75	-1.5	0.	126.39
3909	5.5001	-1.25	0.	128.82
3910	5.5001	-1.75	0.	127.12
3911	5.5	0.25001	0.	128.55
3912	5.75	0.50001	0.	124.97
3913	5.25	0.50001	0.	127.81
3914	-4.75	-7.5	0.	125.63
3915	-4.5	-7.25	0.	128.98
3916	-4.25	-7.5	0.	128.33
3917	-6.25	-7.5	0.	126.6
3918	-6.5	-7.25	0.	129.95
3919	-6.5	-7.75	0.	128.49
3920	-6.5	-5.75	0.	130.81
3921	-6.25	-5.5	0.	127.42
3922	-6.75	-5.5	0.	130.47
3923	-4.75	-5.5	0.	126.5
3924	-4.5	-5.75	0.	129.1
3925	1.5	7.25	0.	127.02
3926	1.75	7.5	0.	125.74
3927	1.25	6.	0.	119.5
3928	1.	5.75	0.	116.93
3929	3.	5.25	0.	126.93
3930	2.75	5.	0.	127.85
3931	-1.4989	-2.25	0.	131.5
3932	-1.749	-2.4999	0.	128.57
3933	-1.2485	-2.4999	0.	130.04
3934	-4.5	-2.25	0.	132.49
3935	-4.2499	-2.5	0.	129.34
3936	9.	-2.25	0.	127.65
3937	9.25	-2.	0.	128.22
3938	9.	-1.75	0.	126.75
3939	9.25	-2.5	0.	128.34
3940	9.	-2.75	0.	127.9
3941	8.9998	-3.7501	0.	127.51
3942	9.2499	-3.5001	0.	127.9
3943	8.9999	-3.25	0.	127.76
3944	8.9995	-4.2501	0.	127.37
3945	9.2497	-4.0001	0.	127.7
3946	8.9992	-4.7501	0.	127.52
3947	9.2495	-4.5001	0.	127.71
3948	8.999	-5.2501	0.	128.12
3949	9.2493	-5.0001	0.	128.04
3950	8.9989	-5.75	0.	129.28
3951	9.2492	-5.5001	0.	128.74
3952	8.999	-6.25	0.	130.49
3953	9.2492	-6.	0.	129.72
3954	8.9993	-6.7499	0.	130.62
3955	9.2494	-6.4999	0.	130.26
3956	8.9997	-7.2499	0.	129.55
3957	8.7496	-6.9999	0.	131.32
3958	9.2496	-6.9999	0.	129.66
3959	8.9999	-7.75	0.	129.47
3960	8.7499	-7.5	0.	130.42
3961	9.2499	-7.5	0.	128.84
3962	8.7499	-8.	0.	130.96
3963	9.2499	-8.	0.	129.67
3964	9.	-8.25	0.	130.44
3965	8.75	-9.	0.	128.97
3966	9.25	-9.	0.	130.05
3967	9.	-9.25	0.	129.31
3968	9.	-8.75	0.	130.33
3969	8.25	-9.	0.	125.45
3970	8.5	-9.25	0.	127.19
3971	7.75	-9.	0.	121.03
3972	8.	-8.75	0.	123.49
3973	8.	-9.25	0.	122.99
3974	7.25	-9.0001	0.	120.55
3975	7.5	-8.75	0.	116.21
3976	7.5	-9.25	0.	120.26
3977	7.	-8.7501	0.	122.4
3978	7.	-9.2501	0.	122.13
3979	6.75	-9.0002	0.	124.1
3980	5.2499	-9.0003	0.	127.26
3981	5.5	-9.2502	0.	127.37
3982	5.75	-9.0003	0.	127.4
3983	4.7499	-9.0002	0.	127.41
3984	5.	-9.2502	0.	127.59
3985	4.25	-9.0001	0.	127.96
3986	4.5	-9.2501	0.	128.1
3987	4.4999	-8.7502	0.	126.93
3988	3.75	-9.0001	0.	128.82
3989	4.	-9.2501	0.	128.99
3990	3.25	-9.	0.	129.89
3991	3.5	-9.25	0.	130.12
3992	2.75	-9.	0.	130.66
3993	3.	-9.25	0.	131.29
3994	2.2501	-6.5	0.	129.33
3995	2.5001	-6.75	0.	132.56
3996	2.5002	-6.25	0.	131.76
3997	-0.24997	-6.5	0.	127.02
3998	-0.49998	-6.75	0.	129.92
3999	-7.5	1.75	0.	133.16
4000	-7.75	1.5	0.	128.6
4001	-7.75	4.5	0.	128.86
4002	-7.5	4.25	0.	133.5
4003	-1.25	-9.	0.	129.68
4004	-0.75	-9.	0.	130.32
4005	-1.	-9.25	0.	131.02
4006	-1.75	-9.	0.	128.78
4007	-1.5	-9.25	0.	129.98
4008	-2.25	-9.	0.	128.
4009	-2.	-9.25	0.	128.93
4010	-2.75	-9.	0.	127.31
4011	-2.5	-9.25	0.	127.98
4012	-3.25	-9.	0.	126.66
4013	-3.	-9.25	0.	127.15
4014	-3.75	-9.	0.	125.87
4015	-3.5	-9.25	0.	126.33
4016	-4.25	-9.	0.	124.79
4017	-4.	-9.25	0.	125.34
4018	-4.75	-9.	0.	123.5
4019	-4.5	-9.25	0.	124.15
4020	-5.25	-9.	0.	122.59
4021	-5.	-9.25	0.	123.03
4022	-5.75	-9.	0.	122.71
4023	-5.5	-9.25	0.	122.62
4024	-6.25	-9.	0.	123.82
4025	-6.	-9.25	0.	123.23
4026	-6.75	-9.	0.	125.21
4027	-6.5	-9.25	0.	124.47
4028	-6.5	-8.75	0.	124.8
4029	-7.25	-9.	0.	126.25
4030	-7.	-9.25	0.	125.66
4031	-7.75	-9.	0.	126.85
4032	-7.5	-9.25	0.	126.48
4033	-8.25	-9.	0.	127.14
4034	-8.	-9.25	0.	126.94
4035	-8.75	-9.	0.	127.28
4036	-8.5	-9.25	0.	127.19
4037	-9.	-8.75	0.	127.33
4038	-9.	-9.25	0.	127.33
4039	-9.25	-9.	0.	127.4
4040	-9.	-8.25	0.	127.29
4041	-9.25	-8.5	0.	127.34
4042	-9.	-7.75	0.	127.2
4043	-9.25	-8.	0.	127.24
4044	-9.	-7.25	0.	127.08
4045	-9.25	-7.5	0.	127.12
4046	-9.	-6.75	0.	127.03
4047	-9.25	-7.	0.	127.02
4048	-9.	-6.25	0.	127.08
4049	-9.25	-6.5	0.	127.01
4050	-9.	-5.75	0.	127.24
4051	-9.25	-6.	0.	127.12
4052	-9.	-5.25	0.	127.41
4053	-9.25	-5.5	0.	127.28
4054	-9.	-4.75	0.	127.51
4055	-9.25	-5.	0.	127.42
4056	-9.	-4.25	0.	127.49
4057	-9.25	-4.5	0.	127.48
4058	-9.	-3.75	0.	127.36
4059	-9.25	-4.	0.	127.42
4060	-9.	-3.25	0.	127.16
4061	-9.25	-3.5	0.	127.26
4062	-9.	-2.75	0.	126.92
4063	-9.25	-3.	0.	127.04
4064	-9.	-2.25	0.	126.67
4065	-9.25	-2.5	0.	126.78
4066	-9.	-1.75	0.	126.42
4067	-9.25	-2.	0.	126.53
4068	-8.75	-2.	0.	126.53
4069	-9.	-1.25	0.	126.15
4070	-9.25	-1.5	0.	126.3
4071	-9.	-0.75	0.	125.81
4072	-9.25	-1.	0.	126.08
4073	-9.	-0.25	0.	125.24
4074	-9.25	-0.5	0.	125.84
4075	-9.	0.25	0.	124.31
4076	-9.25	-4.1693e-010	0.	125.52
4077	-9.	0.75	0.	122.99
4078	-9.25	0.5	0.	125.09
4079	-9.	1.25	0.	122.49
4080	-9.25	1.	0.	124.94
4081	9.	-0.75	0.	124.42
4082	9.25	-1.	0.	127.37
4083	9.	-1.25	0.	125.19
4084	-1.25	9.	0.	124.93
4085	-1.75	9.	0.	126.19
4086	-1.5	9.25	0.	125.97
4087	-1.5	8.75	0.	125.05
4088	-0.75	9.	0.	124.61
4089	-1.	9.25	0.	125.49
4090	-0.25	9.	0.	124.59
4091	-0.5	9.25	0.	125.25
4092	0.25	9.	0.	124.68
4093	6.7043e-012	9.25	0.	125.11
4094	0.5	9.25	0.	125.03
4095	0.75	9.	0.	124.74
4096	1.75	9.	0.	124.06
4097	1.5	9.25	0.	124.51
4098	1.25	9.	0.	124.58
4099	1.5	8.75	0.	124.4
4100	2.25	9.	0.	123.46
4101	2.	9.25	0.	123.97
4102	2.	8.75	0.	123.43
4103	2.5	9.25	0.	123.61
4104	2.75	9.	0.	123.4
4105	3.75	9.	0.	126.48
4106	3.5	9.25	0.	124.97
4107	3.25	9.	0.	124.42
4108	4.25	9.	0.	128.28
4109	4.	9.25	0.	126.5
4110	4.75	9.	0.	127.26
4111	4.5	8.75	0.	131.96
4112	4.5	9.25	0.	126.93
4113	5.25	9.	0.	123.3
4114	5.	8.75	0.	127.51
4115	5.	9.25	0.	124.6
4116	5.75	9.	0.	119.72
4117	5.5	8.75	0.	119.41
4118	5.5	9.25	0.	121.23
4119	6.25	9.	0.	119.44
4120	6.	8.75	0.	117.93
4121	6.	9.25	0.	119.59
4122	6.75	9.	0.	122.62
4123	6.5	8.75	0.	118.57
4124	6.5	9.25	0.	120.88
4125	7.25	9.	0.	126.67
4126	7.	9.25	0.	124.16
4127	7.	8.75	0.	126.12
4128	7.75	9.	0.	128.36
4129	7.5	8.75	0.	130.92
4130	7.5	9.25	0.	126.82
4131	8.25	9.	0.	127.57
4132	8.	9.25	0.	127.1
4133	8.75	9.	0.	126.23
4134	8.5	9.25	0.	126.32
4135	9.	8.75	0.	125.68
4136	9.25	9.	0.	125.06
4137	9.	9.25	0.	125.51
4138	9.	8.25	0.	125.72
4139	9.25	8.5	0.	124.94
4140	9.25	8.	0.	124.7
4141	9.	7.75	0.	125.64
4142	9.	3.25	0.	125.25
4143	9.25	3.5	0.	127.23
4144	9.	3.75	0.	126.04
4145	9.	2.75	0.	125.08
4146	9.25	3.	0.	127.71
4147	7.75	2.5	0.	127.66
4148	7.5	2.25	0.	130.11
4149	4.75	3.5	0.	130.45
4150	4.5	3.75	0.	133.44
4151	7.5	3.75	0.	130.45
4152	7.25	3.5	0.	128.64
4153	6.4992	-5.2503	0.	131.58
4154	6.2495	-5.5005	0.	130.39
4155	6.4991	-5.7507	0.	131.69
4156	6.2499	-3.4998	0.	128.45
4157	6.4998	-3.7497	0.	130.49
4158	6.4999	-3.2498	0.	128.98
4159	3.5002	-3.75	0.	132.43
4160	3.7502	-3.5	0.	130.02
4161	3.2504	-3.5	0.	131.23
4162	3.5003	-5.2501	0.	133.67
4163	3.7504	-5.5001	0.	132.05
4164	3.5004	-5.7501	0.	133.49
4165	-2.5	6.75	0.	133.97
4166	-2.75	6.5	0.	130.64
4167	-2.25	6.5	0.	133.34
4168	-2.25	9.	0.	128.89
4169	-2.	9.25	0.	127.39
4170	-9.	5.25	0.	122.89
4171	-9.	4.75	0.	122.76
4172	-9.25	5.	0.	125.22
4173	-8.75	5.	0.	120.8
4174	-9.	5.75	0.	123.7
4175	-9.25	5.5	0.	124.9
4176	-8.75	5.5	0.	122.74
4177	-9.	6.25	0.	124.11
4178	-9.25	6.	0.	124.77
4179	-9.	6.75	0.	124.19
4180	-9.25	6.5	0.	124.53
4181	-9.	7.25	0.	124.13
4182	-9.25	7.	0.	124.27
4183	-9.	7.75	0.	124.1
4184	-9.25	7.5	0.	124.1
4185	-9.	8.25	0.	124.22
4186	-9.25	8.	0.	124.11
4187	-8.75	8.	0.	124.02
4188	-9.	8.75	0.	124.51
4189	-9.25	8.5	0.	124.31
4190	-8.75	8.5	0.	124.25
4191	-8.75	9.	0.	124.69
4192	-9.25	9.	0.	124.64
4193	-9.	9.25	0.	124.9
4194	-8.25	9.	0.	124.66
4195	-8.5	9.25	0.	124.99
4196	-8.5	8.75	0.	124.44
4197	-7.75	9.	0.	124.59
4198	-8.	9.25	0.	125.07
4199	-7.25	9.	0.	124.57
4200	-7.5	9.25	0.	125.16
4201	-6.75	9.	0.	124.81
4202	-7.	9.25	0.	125.34
4203	-7.	8.75	0.	124.22
4204	-6.25	9.	0.	126.
4205	-6.5	9.25	0.	125.76
4206	-5.75	9.	0.	128.69
4207	-6.	9.25	0.	127.16
4208	-6.	8.75	0.	127.01
4209	-5.5	6.75	0.	132.6
4210	-5.25	6.5	0.	129.35
4211	-6.25	0.5	0.	129.27
4212	-6.5	0.75	0.	133.68
4213	-4.5	0.75	0.	136.16
4214	-4.75	0.5	0.	133.54
4215	-4.5	0.25	0.	136.33
4216	-4.25	0.5	0.	134.59
4217	-4.5	3.25	0.	127.92
4218	-4.75	3.5	0.	123.89
4219	4.5	8.25	0.	135.88
4220	4.75	8.5	0.	132.11
4221	4.75	5.5	0.	140.07
4222	4.5	5.25	0.	144.65
4223	4.25	5.5	0.	144.44
4224	4.5	5.75	0.	146.47
4225	7.5	5.75	0.	137.58
4226	7.25	5.5	0.	132.28
4227	7.5	5.25	0.	136.71
4228	7.75	5.5	0.	136.96
4229	7.5	8.25	0.	133.08
4230	7.25	8.5	0.	130.32
4231	0.5009	-0.24992	0.	128.19
4232	0.25126	-0.49996	0.	124.31
4233	-1.25	2.5	0.	130.37
4234	-1.5	2.25	0.	133.43
4235	-1.	2.75	0.	127.1
4236	-0.75	3.	0.	126.74
4237	-0.75	2.5	0.	123.26
4238	-0.5	2.75	0.	123.12
4239	-0.25	2.5	0.	124.21
4240	0.50034	0.25004	0.	131.55
4241	0.75021	0.50004	0.	128.26
4242	0.5001	0.75001	0.	134.72
4243	-0.24889	-0.50005	0.	116.28
4244	-0.74913	-0.50009	0.	118.78
4245	-1.5	1.75	0.	134.4
4246	-1.5	1.25	0.	137.17
4247	-1.5	0.74998	0.	140.42
4248	7.5	7.75	0.	134.12
4249	7.75	8.	0.	131.6
4250	7.5	7.25	0.	136.25
4251	7.75	7.5	0.	132.72
4252	7.5	6.75	0.	136.35
4253	7.75	7.	0.	134.03
4254	7.5	6.25	0.	135.74
4255	7.75	6.	0.	134.81
4256	7.75	6.5	0.	133.65
4257	4.5	7.75	0.	140.12
4258	4.25	7.5	0.	137.72
4259	4.5	7.25	0.	144.31
4260	6.25	8.5	0.	116.98
4261	6.75	8.5	0.	122.04
4262	5.75	8.5	0.	117.54
4263	5.25	8.5	0.	123.62
4264	-4.5	2.75	0.	129.48
4265	-4.5	2.25	0.	132.19
4266	-4.5	1.75	0.	133.58
4267	-4.5	1.25	0.	133.5
4268	-5.25	0.5	0.	120.95
4269	-5.75	0.5	0.	119.52
4270	-6.5	1.25	0.	135.24
4271	-6.5	1.75	0.	137.16
4272	-6.5	2.25	0.	136.68
4273	-6.5	2.75	0.	134.09
4274	-6.5	3.25	0.	132.76
4275	-5.75	3.5	0.	116.53
4276	-6.25	3.5	0.	128.03
4277	-5.25	3.5	0.	114.99
4278	-5.5	7.25	0.	133.39
4279	-5.5	7.75	0.	135.18
4280	-5.5	8.25	0.	135.13
4281	-5.75	8.	0.	132.17
4282	-5.5	8.75	0.	132.32
4283	-5.5	9.25	0.	130.27
4284	-5.75	8.5	0.	130.65
4285	-2.5	8.75	0.	132.61
4286	-2.5	9.25	0.	130.5
4287	-2.5	8.25	0.	135.58
4288	-2.5	7.75	0.	135.83
4289	-2.5	7.25	0.	134.37
4290	-4.75	6.5	0.	120.83
4291	-4.25	6.5	0.	115.88
4292	-3.75	6.5	0.	116.14
4293	-3.25	6.5	0.	121.59
4294	-3.	6.25	0.	126.05
4295	3.5001	-4.75	0.	131.84
4296	3.5001	-4.25	0.	131.64
4297	4.2501	-3.5	0.	122.98
4298	4.7501	-3.5	0.	119.09
4299	5.25	-3.5	0.	118.67
4300	5.75	-3.4999	0.	121.98
4301	5.5	-3.25	0.	119.42
4302	6.4997	-4.2498	0.	129.88
4303	6.7497	-3.9997	0.	128.52
4304	6.4994	-4.75	0.	130.17
4305	5.75	-5.5005	0.	123.81
4306	5.9998	-5.7508	0.	127.89
4307	5.2504	-5.5004	0.	119.9
4308	4.7505	-5.5003	0.	120.02
4309	4.2505	-5.5002	0.	124.44
4310	5.25	5.5	0.	120.95
4311	5.75	5.5	0.	111.43
4312	6.25	5.5	0.	110.52
4313	6.75	5.5	0.	117.32
4314	7.5	4.75	0.	132.29
4315	7.75	5.	0.	132.84
4316	7.5	4.25	0.	130.09
4317	7.75	4.	0.	128.46
4318	7.75	4.5	0.	129.
4319	6.75	3.5	0.	121.12
4320	6.25	3.5	0.	116.37
4321	5.75	3.5	0.	116.57
4322	5.25	3.5	0.	121.79
4323	5.	3.25	0.	126.1
4324	4.5	4.75	0.	136.93
4325	4.5	4.25	0.	133.55
4326	8.25	2.5	0.	118.8
4327	8.	2.75	0.	124.76
4328	8.75	2.5	0.	119.24
4329	9.25	2.5	0.	130.16
4330	8.75	-0.5	0.	118.32
4331	9.25	-0.5	0.	129.41
4332	8.25	-0.5	0.	117.81
4333	7.75	-0.49999	0.	129.06
4334	7.5	1.75	0.	130.91
4335	7.5	1.25	0.	133.84
4336	7.5	0.75	0.	136.55
4337	7.25	0.5	0.	131.41
4338	7.5	0.25	0.	136.03
4339	-8.75	4.5	0.	117.46
4340	-9.25	4.5	0.	127.59
4341	-8.25	4.5	0.	118.12
4342	-8.5	4.75	0.	115.64
4343	-7.5	3.75	0.	135.07
4344	-7.25	4.	0.	133.26
4345	-7.5	3.25	0.	137.25
4346	-7.25	3.5	0.	134.97
4347	-7.5	2.75	0.	136.93
4348	-7.5	2.25	0.	134.48
4349	-8.75	1.5	0.	117.01
4350	-9.25	1.5	0.	127.06
4351	-8.25	1.5	0.	117.61
4352	0.25002	-6.5	0.	117.96
4353	0.75002	-6.5	0.	112.3
4354	1.25	-6.5	0.	112.67
4355	1.7501	-6.5	0.	119.11
4356	2.5001	-7.25	0.	132.4
4357	2.5	-7.75	0.	133.64
4358	2.5	-8.25	0.	133.12
4359	2.5	-8.75	0.	131.47
4360	2.5	-9.25	0.	131.38
4361	-0.5	-8.75	0.	130.97
4362	-0.5	-9.25	0.	131.04
4363	-0.5	-8.25	0.	132.36
4364	-0.49999	-7.25	0.	130.61
4365	-0.5	-7.75	0.	132.51
4366	-4.5	-1.75	0.	133.16
4367	-4.5	-1.25	0.	135.04
4368	-4.5	-0.75	0.	135.5
4369	-4.5	-0.25	0.	134.4
4370	-3.75	0.5	0.	123.75
4371	-3.25	0.5	0.	117.01
4372	-2.75	0.5	0.	117.
4373	-3.	0.75	0.	117.17
4374	-2.25	0.49999	0.	123.61
4375	-1.75	0.49998	0.	135.85
4376	-2.5	0.74999	0.	118.97
4377	-1.4997	-0.2501	0.	139.25
4378	-1.4999	0.24995	0.	139.91
4379	-1.4994	-0.75011	0.	138.91
4380	-1.2494	-0.50011	0.	133.22
4381	-1.4992	-1.2501	0.	135.59
4382	-1.249	-1.0001	0.	131.44
4383	-1.4991	-1.75	0.	132.56
4384	-2.2495	-2.5	0.	120.48
4385	-1.9992	-2.7499	0.	124.56
4386	-2.7497	-2.5	0.	115.55
4387	-2.4995	-2.75	0.	117.05
4388	-3.2498	-2.5	0.	115.6
4389	-2.9997	-2.75	0.	116.15
4390	-3.7499	-2.5	0.	120.74
4391	3.75	5.5	0.	133.3
4392	3.25	5.5	0.	127.14
4393	2.75	5.5	0.	127.23
4394	2.25	5.5	0.	128.76
4395	2.5	5.25	0.	128.15
4396	1.5	6.25	0.	123.24
4397	1.5	5.75	0.	121.57
4398	1.5	6.75	0.	125.27
4399	2.25	7.5	0.	120.74
4400	2.75	7.5	0.	119.24
4401	3.25	7.5	0.	121.07
4402	3.75	7.5	0.	126.88
4403	4.5	6.25	0.	143.62
4404	4.5	6.75	0.	144.42
4405	2.5	1.75	0.	132.74
4406	2.5	1.2501	0.	130.19
4407	1.7503	0.50014	0.	116.54
4408	1.2503	0.50009	0.	116.63
4409	0.50002	1.25	0.	134.08
4410	0.5	1.75	0.	130.19
4411	0.5	2.25	0.	126.23
4412	-0.5	3.25	0.	129.42
4413	-0.5	3.75	0.	133.64
4414	-0.5	4.25	0.	134.75
4415	-0.5	4.75	0.	133.5
4416	0.25	5.5	0.	120.8
4417	0.75	5.5	0.	116.3
4418	1.25	5.5	0.	119.02
4419	1.75	5.5	0.	125.58
4420	2.5	4.75	0.	131.17
4421	2.5	4.25	0.	134.52
4422	2.5	3.75	0.	135.26
4423	2.5	3.25	0.	135.07
4424	0.25	2.5	0.	127.08
4425	0.75	2.5	0.	121.05
4426	1.25	2.5	0.	111.97
4427	1.75	2.5	0.	115.14
4428	7.75	-8.5	0.	118.59
4429	7.25	-8.5001	0.	117.96
4430	6.5	-7.7507	0.	129.63
4431	6.5	-7.2509	0.	129.85
4432	7.2492	-6.5003	0.	120.76
4433	7.749	-6.5001	0.	120.45
4434	8.4999	-7.75	0.	131.89
4435	8.4998	-7.25	0.	132.17
4436	7.5	-0.74999	0.	133.27
4437	7.5	-0.24999	0.	134.54
4438	6.75	-1.5	0.	118.93
4439	6.25	-1.5	0.	118.76
4440	5.5	-0.74998	0.	128.66
4441	5.5	-0.24999	0.	128.7
4442	6.25	0.5	0.	116.89
4443	6.	0.75	0.	120.77
4444	6.75	0.5	0.	118.74
4445	-5.25	-7.5	0.	116.99
4446	-5.	-7.75	0.	121.69
4447	-5.75	-7.5	0.	117.45
4448	-6.5	-6.75	0.	129.7
4449	-6.5	-6.25	0.	130.07
4450	-5.75	-5.5	0.	118.21
4451	-6.	-5.25	0.	123.48
4452	-5.25	-5.5	0.	118.13
4453	-5.	-5.25	0.	123.06
4454	-4.5	-6.75	0.	128.65
4455	-4.5	-6.25	0.	128.56
4456	9.5	9.25	0.	124.71
4457	9.5	8.75	0.	124.33
4458	9.5	7.75	0.	123.62
4459	9.5	8.25	0.	123.93
4460	9.5	7.25	0.	123.58
4461	9.25	7.5	0.	124.56
4462	9.5	6.75	0.	123.89
4463	9.25	7.	0.	124.78
4464	9.5	6.25	0.	124.48
4465	9.25	6.5	0.	125.37
4466	9.5	5.75	0.	125.15
4467	9.25	6.	0.	126.11
4468	9.5	5.25	0.	125.75
4469	9.25	5.5	0.	126.61
4470	9.5	4.75	0.	126.32
4471	9.25	5.	0.	126.72
4472	9.5	4.25	0.	127.06
4473	9.25	4.5	0.	126.71
4474	9.5	3.75	0.	128.1
4475	9.25	4.	0.	126.91
4476	9.5	3.25	0.	129.68
4477	9.5	2.75	0.	132.83
4478	9.5	2.25	0.	135.39
4479	9.5	1.75	0.	137.26
4480	9.5	1.25	0.	139.46
4481	9.5	0.75	0.	139.28
4482	9.5	0.25	0.	136.67
4483	9.5	-0.25	0.	134.65
4484	9.5	-0.75	0.	132.38
4485	9.5	-1.25	0.	129.91
4486	9.5	-1.75	0.	129.2
4487	9.25	-1.5	0.	127.74
4488	9.5	-2.25	0.	128.91
4489	9.5	-2.75	0.	128.61
4490	9.4999	-3.25	0.	128.31
4491	9.25	-3.	0.	128.17
4492	9.4999	-3.7501	0.	128.09
4493	9.4997	-4.2501	0.	128.03
4494	9.4996	-4.7501	0.	128.23
4495	9.4995	-5.2501	0.	128.66
4496	9.4995	-5.75	0.	129.18
4497	9.4995	-6.25	0.	129.49
4498	9.4997	-6.7499	0.	129.3
4499	9.4998	-7.2499	0.	128.94
4500	9.4999	-7.75	0.	129.03
4501	9.5	-8.25	0.	129.6
4502	9.5	-9.25	0.	130.17
4503	9.5	-8.75	0.	130.09
4504	9.25	-9.5	0.	129.43
4505	8.75	-9.5	0.	127.53
4506	8.25	-9.5	0.	124.73
4507	7.75	-9.5	0.	122.21
4508	7.25	-9.5	0.	121.82
4509	6.75	-9.5001	0.	123.61
4510	6.25	-9.5002	0.	125.76
4511	6.5	-9.2502	0.	125.58
4512	5.75	-9.5002	0.	127.07
4513	6.	-9.2502	0.	127.09
4514	5.25	-9.5001	0.	127.7
4515	4.75	-9.5001	0.	128.28
4516	4.25	-9.5001	0.	129.13
4517	3.75	-9.5	0.	130.29
4518	3.25	-9.5	0.	131.54
4519	2.75	-9.5	0.	132.06
4520	2.25	-9.5	0.	126.47
4521	1.75	-9.5	0.	114.54
4522	1.25	-9.5	0.	107.46
4523	0.75	-9.5	0.	107.39
4524	0.25	-9.5	0.	114.35
4525	-0.25	-9.5	0.	126.19
4526	-0.75	-9.5	0.	131.79
4527	-1.25	-9.5	0.	131.34
4528	-1.75	-9.5	0.	130.14
4529	-2.25	-9.5	0.	128.92
4530	-2.75	-9.5	0.	127.83
4531	-3.25	-9.5	0.	126.83
4532	-3.75	-9.5	0.	125.8
4533	-4.25	-9.5	0.	124.71
4534	-4.75	-9.5	0.	123.68
4535	-5.25	-9.5	0.	123.06
4536	-5.75	-9.5	0.	123.14
4537	-6.25	-9.5	0.	123.88
4538	-6.75	-9.5	0.	124.93
4539	-7.25	-9.5	0.	125.89
4540	-7.75	-9.5	0.	126.57
4541	-8.25	-9.5	0.	126.99
4542	-8.75	-9.5	0.	127.24
4543	-9.25	-9.5	0.	127.42
4544	-9.5	-9.25	0.	127.48
4545	-9.5	-8.75	0.	127.41
4546	-9.5	-8.25	0.	127.3
4547	-9.5	-7.75	0.	127.17
4548	-9.5	-7.25	0.	127.06
4549	-9.5	-6.75	0.	127.01
4550	-9.5	-6.25	0.	127.05
4551	-9.5	-5.75	0.	127.16
4552	-9.5	-5.25	0.	127.3
4553	-9.5	-4.75	0.	127.39
4554	-9.5	-4.25	0.	127.4
4555	-9.5	-3.75	0.	127.31
4556	-9.5	-3.25	0.	127.14
4557	-9.5	-2.75	0.	126.9
4558	-9.5	-2.25	0.	126.65
4559	-9.5	-1.75	0.	126.41
4560	-9.5	-1.25	0.	126.23
4561	-9.5	-0.75	0.	126.12
4562	-9.5	-0.25	0.	126.12
4563	-9.5	0.25	0.	126.3
4564	-9.5	0.75	0.	127.04
4565	-9.5	1.25	0.	129.54
4566	-9.5	1.75	0.	131.78
4567	-9.5	2.25	0.	133.62
4568	-9.5	2.75	0.	136.04
4569	-9.5	3.25	0.	136.21
4570	-9.5	3.75	0.	134.14
4571	-9.5	4.25	0.	132.44
4572	-9.5	4.75	0.	130.08
4573	-9.5	5.25	0.	127.23
4574	-9.5	5.75	0.	125.97
4575	-9.5	6.25	0.	125.18
4576	-9.5	6.75	0.	124.61
4577	-9.5	7.25	0.	124.25
4578	-9.5	7.75	0.	124.12
4579	-9.5	8.25	0.	124.2
4580	-9.5	8.75	0.	124.44
4581	-9.5	9.25	0.	124.76
4582	-9.25	9.5	0.	125.01
4583	-8.75	9.5	0.	125.2
4584	-8.25	9.5	0.	125.41
4585	-7.75	9.5	0.	125.65
4586	-7.25	9.5	0.	125.95
4587	-6.75	9.5	0.	126.32
4588	-6.25	9.5	0.	126.94
4589	-5.75	9.5	0.	128.75
4590	-5.25	9.5	0.	128.79
4591	-4.75	9.5	0.	123.69
4592	-4.25	9.5	0.	120.31
4593	-3.75	9.5	0.	120.37
4594	-3.25	9.5	0.	123.88
4595	-2.75	9.5	0.	129.06
4596	-2.25	9.5	0.	129.01
4597	-1.75	9.5	0.	127.2
4598	-1.25	9.5	0.	126.56
4599	-0.75	9.5	0.	126.14
4600	-0.25	9.5	0.	125.78
4601	0.25	9.5	0.	125.47
4602	0.75	9.5	0.	125.16
4603	1.25	9.5	0.	124.81
4604	1.	9.25	0.	124.87
4605	1.75	9.5	0.	124.43
4606	2.25	9.5	0.	124.13
4607	2.75	9.5	0.	124.1
4608	3.25	9.5	0.	124.44
4609	3.	9.25	0.	123.89
4610	3.75	9.5	0.	124.98
4611	4.25	9.5	0.	125.12
4612	4.75	9.5	0.	124.27
4613	5.25	9.5	0.	122.55
4614	5.75	9.5	0.	121.05
4615	6.25	9.5	0.	120.99
4616	6.75	9.5	0.	122.44
4617	7.25	9.5	0.	124.33
4618	7.75	9.5	0.	125.55
4619	8.25	9.5	0.	125.85
4620	8.75	9.5	0.	125.6
4621	9.25	9.5	0.	125.16
4622	-8.5	8.25	0.	124.05
4623	4.2501	0.50006	0.	126.67
4624	3.7501	0.5001	0.	127.1
4625	-6.	-4.75	0.	124.13
4626	4.2502	-0.99989	0.	125.27
4627	8.75	-1.5	0.	125.44
4628	-1.9999	-6.25	0.	125.76
4629	-1.75	-6.5	0.	126.34
4630	1.75	8.5	0.	123.77
4631	5.5	-2.75	0.	121.67
4632	5.5	-2.25	0.	123.78
4633	-8.5	5.25	0.	120.68
4634	-8.25	5.5	0.	122.96
4635	-2.2493	-2.9999	0.	121.11
4636	-2.7496	-3.	0.	117.6
4637	-1.9992	-3.2499	0.	123.44
4638	-3.	5.25	0.	124.55
4639	-6.	8.25	0.	127.69
4640	-0.99897	-0.75012	0.	125.75
4641	-6.	-4.25	0.	125.45
4642	-6.	-3.75	0.	126.54
4643	-6.5	3.75	0.	131.32
4644	-6.75	4.	0.	131.24
4645	9.25	-8.5	0.	130.37
4646	6.25	-7.0011	0.	128.24
4647	8.	5.75	0.	134.11
4648	8.	5.25	0.	133.03
4649	9.	5.75	0.	127.58
4650	9.	6.25	0.	127.
4651	8.	7.75	0.	130.17
4652	8.	7.25	0.	130.51
4653	-1.75	6.5	0.	131.3
4654	1.2514	-3.5	0.	123.27
4655	1.7512	-3.5	0.	124.16
4656	3.2501	0.50016	0.	127.9
4657	-6.25	-2.	0.	126.39
4658	9.	4.75	0.	127.11
4659	9.	4.25	0.	126.56
4660	1.0018	-3.25	0.	123.28
4661	6.5	-2.7498	0.	125.36
4662	-6.5	-8.25	0.	125.83
4663	-6.75	3.5	0.	133.19
4664	-7.	3.75	0.	133.14
4665	-0.74791	-2.5	0.	126.96
4666	2.7506	-3.5	0.	128.11
4667	-2.2499	-6.	0.	125.39
4668	4.75	0.50003	0.	126.81
4669	8.	4.25	0.	127.35
4670	9.	7.25	0.	125.75
4671	9.	5.25	0.	127.58
4672	8.	6.25	0.	132.68
4673	5.9999	-6.2512	0.	127.63
4674	6.	-6.7513	0.	127.02
4675	8.	4.75	0.	129.55
4676	9.	6.75	0.	126.25
4677	8.	6.75	0.	131.33
4678	-5.	-4.75	0.	123.45
4679	-2.75	0.99999	0.	119.07
4680	-3.75	-7.5	0.	126.76
4681	-3.	5.75	0.	124.86
4682	6.2495	-6.0009	0.	129.17
4683	6.25	-9.0003	0.	126.9
4684	2.2509	-3.5	0.	125.75
4685	-5.75	-2.	0.	127.06
4686	2.	-7.	0.	96.945
4687	0.	-7.	0.	95.689
4688	2.	-9.	0.	95.472
4689	0.	-9.	0.	95.226
4690	1.5	-7.	0.	110.19
4691	1.	-7.	0.	107.27
4692	0.5	-7.	0.	109.56
4693	2.	-7.5	0.	100.74
4694	2.	-8.	0.	98.918
4695	2.	-8.5	0.	99.499
4696	0.	-7.5	0.	99.927
4697	0.	-8.	0.	98.348
4698	0.	-8.5	0.	99.108
4699	0.5	-9.	0.	107.
4700	1.	-9.	0.	104.24
4701	1.5	-9.	0.	107.16
4702	1.5	-8.	0.	105.87
4703	1.5	-8.5	0.	105.82
4704	0.5	-8.5	0.	105.58
4705	0.5	-8.	0.	105.52
4706	0.5	-7.5	0.	106.75
4707	1.5	-7.5	0.	107.26
4708	1.	-7.5	0.	109.29
4709	1.	-8.5	0.	107.68
4710	1.	-8.	0.	108.41
4711	1.75	-7.	0.	103.48
4712	2.	-7.25	0.	98.832
4713	0.25	-7.	0.	102.54
4714	0.	-7.25	0.	97.794
4715	2.	-8.75	0.	97.48
4716	1.75	-9.	0.	101.27
4717	0.	-8.75	0.	97.161
4718	0.25	-9.	0.	101.07
4719	1.25	-7.	0.	108.73
4720	1.5	-7.25	0.	108.69
4721	0.75	-7.	0.	108.41
4722	1.	-7.25	0.	108.26
4723	0.5	-7.25	0.	108.13
4724	2.	-7.75	0.	99.805
4725	1.75	-7.5	0.	103.98
4726	2.	-8.25	0.	99.185
4727	1.75	-8.	0.	102.39
4728	1.75	-8.5	0.	102.65
4729	0.	-7.75	0.	99.11
4730	0.25	-7.5	0.	103.32
4731	0.	-8.25	0.	98.702
4732	0.25	-8.	0.	101.93
4733	0.25	-8.5	0.	102.34
4734	0.75	-9.	0.	105.62
4735	0.5	-8.75	0.	106.27
4736	1.25	-9.	0.	105.7
4737	1.	-8.75	0.	105.95
4738	1.5	-8.75	0.	106.46
4739	1.5	-8.25	0.	105.84
4740	1.5	-7.75	0.	106.56
4741	1.25	-8.	0.	107.14
4742	1.25	-8.5	0.	106.75
4743	0.5	-8.25	0.	105.54
4744	0.75	-8.5	0.	106.63
4745	0.5	-7.75	0.	106.13
4746	0.75	-8.	0.	106.96
4747	0.75	-7.5	0.	108.
4748	1.25	-7.5	0.	108.26
4749	1.	-7.75	0.	108.85
4750	1.	-8.25	0.	108.05
4751	9.	2.	0.	99.353
4752	8.	2.	0.	97.276
4753	9.	0.	0.	98.695
4754	8.	0.	0.	98.088
4755	8.5	2.	0.	112.8
4756	9.	1.5	0.	103.82
4757	9.	1.	0.	103.
4758	9.	0.5	0.	103.6
4759	8.	1.5	0.	101.98
4760	8.	1.	0.	101.68
4761	8.	0.5	0.	103.01
4762	8.5	0.	0.	112.53
4763	8.5	1.5	0.	107.79
4764	8.5	1.	0.	105.95
4765	8.5	0.5	0.	107.83
4766	8.75	2.	0.	106.03
4767	9.	1.75	0.	101.58
4768	8.25	2.	0.	104.99
4769	8.	1.75	0.	99.628
4770	9.	0.25	0.	101.14
4771	8.75	0.	0.	105.56
4772	8.	0.25	0.	100.55
4773	8.25	0.	0.	105.27
4774	8.5	1.75	0.	110.24
4775	9.	1.25	0.	103.37
4776	8.75	1.5	0.	105.76
4777	9.	0.75	0.	103.27
4778	8.75	1.	0.	104.48
4779	8.75	0.5	0.	105.67
4780	8.	1.25	0.	101.79
4781	8.25	1.5	0.	104.84
4782	8.	0.75	0.	102.31
4783	8.25	1.	0.	103.82
4784	8.25	0.5	0.	105.37
4785	8.5	0.25	0.	110.12
4786	8.5	1.25	0.	106.87
4787	8.5	0.75	0.	106.89
4788	2.	5.	0.	98.383
4789	0.	5.	0.	98.651
4790	2.	3.	0.	97.663
4791	0.	3.	0.	97.958
4792	1.5	5.	0.	115.19
4793	1.	5.	0.	112.12
4794	0.5	5.	0.	113.57
4795	2.	4.5	0.	103.03
4796	2.	4.	0.	101.14
4797	2.	3.5	0.	101.79
4798	0.	4.5	0.	102.84
4799	0.	4.	0.	101.35
4800	0.	3.5	0.	102.62
4801	0.5	3.	0.	115.31
4802	1.	3.	0.	110.58
4803	1.5	3.	0.	109.95
4804	1.	4.	0.	113.13
4805	1.5	4.	0.	109.5
4806	1.5	3.5	0.	109.3
4807	1.	3.5	0.	113.03
4808	0.5	3.5	0.	111.12
4809	0.5	4.	0.	109.98
4810	0.5	4.5	0.	110.92
4811	1.	4.5	0.	114.03
4812	1.5	4.5	0.	111.23
4813	1.75	5.	0.	106.66
4814	2.	4.75	0.	100.68
4815	0.25	5.	0.	106.03
4816	0.	4.75	0.	100.74
4817	2.	3.25	0.	99.721
4818	1.75	3.	0.	103.78
4819	0.	3.25	0.	100.25
4820	0.25	3.	0.	106.52
4821	1.25	5.	0.	113.65
4822	1.5	4.75	0.	113.18
4823	0.75	5.	0.	112.84
4824	1.	4.75	0.	113.05
4825	0.5	4.75	0.	112.22
4826	2.	4.25	0.	102.05
4827	1.75	4.5	0.	107.11
4828	2.	3.75	0.	101.43
4829	1.75	4.	0.	105.31
4830	1.75	3.5	0.	105.54
4831	0.	4.25	0.	102.05
4832	0.25	4.5	0.	106.86
4833	0.	3.75	0.	101.94
4834	0.25	4.	0.	105.66
4835	0.25	3.5	0.	106.85
4836	0.75	3.	0.	112.94
4837	0.5	3.25	0.	113.19
4838	1.25	3.	0.	110.26
4839	1.	3.25	0.	111.79
4840	1.5	3.25	0.	109.6
4841	1.25	4.	0.	111.31
4842	1.	3.75	0.	113.07
4843	0.75	4.	0.	111.55
4844	1.	4.25	0.	113.57
4845	1.5	3.75	0.	109.38
4846	1.5	4.25	0.	110.35
4847	1.25	3.5	0.	111.16
4848	0.75	3.5	0.	112.06
4849	0.5	3.75	0.	110.53
4850	0.5	4.25	0.	110.44
4851	0.75	4.5	0.	112.46
4852	1.25	4.5	0.	112.6
4853	-8.	4.	0.	97.9
4854	-9.	4.	0.	97.787
4855	-8.	2.	0.	97.301
4856	-9.	2.	0.	97.246
4857	-8.5	4.	0.	111.96
4858	-8.	3.5	0.	102.48
4859	-8.	3.	0.	101.24
4860	-8.	2.5	0.	101.88
4861	-9.	3.5	0.	102.07
4862	-9.	3.	0.	101.17
4863	-9.	2.5	0.	101.77
4864	-8.5	2.	0.	111.39
4865	-8.5	3.5	0.	106.85
4866	-8.5	3.	0.	104.62
4867	-8.5	2.5	0.	106.35
4868	-8.25	4.	0.	104.88
4869	-8.	3.75	0.	100.18
4870	-8.75	4.	0.	104.83
4871	-9.	3.75	0.	99.925
4872	-8.	2.25	0.	99.591
4873	-8.25	2.	0.	104.3
4874	-9.	2.25	0.	99.507
4875	-8.75	2.	0.	104.27
4876	-8.5	3.75	0.	109.35
4877	-8.	3.25	0.	101.82
4878	-8.25	3.5	0.	104.62
4879	-8.	2.75	0.	101.51
4880	-8.25	3.	0.	102.93
4881	-8.25	2.5	0.	104.07
4882	-9.	3.25	0.	101.59
4883	-8.75	3.5	0.	104.41
4884	-9.	2.75	0.	101.44
4885	-8.75	3.	0.	102.9
4886	-8.75	2.5	0.	104.02
4887	-8.5	2.25	0.	108.82
4888	-8.5	3.25	0.	105.73
4889	-8.5	2.75	0.	105.49
4890	7.	5.	0.	98.473
4891	5.	5.	0.	101.82
4892	7.	4.	0.	97.721
4893	5.	4.	0.	99.527
4894	6.5	5.	0.	111.01
4895	6.	5.	0.	109.3
4896	5.5	5.	0.	113.09
4897	7.	4.5	0.	102.69
4898	5.	4.5	0.	105.28
4899	5.5	4.	0.	114.7
4900	6.	4.	0.	112.14
4901	6.5	4.	0.	113.68
4902	5.5	4.5	0.	112.89
4903	6.	4.5	0.	114.02
4904	6.5	4.5	0.	111.29
4905	6.75	5.	0.	104.73
4906	7.	4.75	0.	100.57
4907	5.25	5.	0.	107.42
4908	5.	4.75	0.	103.54
4909	7.	4.25	0.	100.19
4910	6.75	4.	0.	105.63
4911	5.	4.25	0.	102.39
4912	5.25	4.	0.	107.05
4913	6.25	5.	0.	110.13
4914	6.5	4.75	0.	111.14
4915	5.75	5.	0.	111.17
4916	6.	4.75	0.	111.66
4917	5.5	4.75	0.	112.97
4918	6.75	4.5	0.	106.98
4919	5.25	4.5	0.	109.08
4920	5.75	4.	0.	113.42
4921	5.5	4.25	0.	113.77
4922	6.25	4.	0.	112.91
4923	6.	4.25	0.	113.08
4924	6.5	4.25	0.	112.46
4925	5.75	4.5	0.	113.45
4926	6.25	4.5	0.	112.65
4927	-5.	-6.	0.	97.358
4928	-6.	-6.	0.	98.277
4929	-5.	-7.	0.	97.441
4930	-6.	-7.	0.	97.598
4931	-5.5	-6.	0.	113.31
4932	-5.	-6.5	0.	102.56
4933	-6.	-6.5	0.	103.05
4934	-5.5	-7.	0.	112.92
4935	-5.5	-6.5	0.	110.45
4936	-5.25	-6.	0.	105.31
4937	-5.	-6.25	0.	99.948
4938	-5.75	-6.	0.	105.78
4939	-6.	-6.25	0.	100.65
4940	-5.	-6.75	0.	99.994
4941	-5.25	-7.	0.	105.17
4942	-6.	-6.75	0.	100.31
4943	-5.75	-7.	0.	105.24
4944	-5.5	-6.25	0.	111.83
4945	-5.25	-6.5	0.	106.48
4946	-5.75	-6.5	0.	106.72
4947	-5.5	-6.75	0.	111.63
4948	-2.	0.	0.	101.67
4949	-4.	0.	0.	100.15
4950	-2.	-2.	0.	98.816
4951	-4.	-2.	0.	98.811
4952	-2.5	0.	0.	115.38
4953	-3.	0.	0.	112.45
4954	-3.5	0.	0.	115.02
4955	-2.	-0.5	0.	106.1
4956	-2.	-1.	0.	103.82
4957	-2.	-1.5	0.	103.68
4958	-4.	-0.5	0.	104.38
4959	-4.	-1.	0.	102.39
4960	-4.	-1.5	0.	103.12
4961	-3.5	-2.	0.	113.15
4962	-3.	-2.	0.	111.03
4963	-2.5	-2.	0.	113.23
4964	-3.	-1.	0.	114.69
4965	-3.	-1.5	0.	114.22
4966	-3.5	-1.5	0.	111.31
4967	-3.5	-1.	0.	111.08
4968	-3.5	-0.5	0.	112.3
4969	-3.	-0.5	0.	115.2
4970	-2.5	-0.5	0.	113.11
4971	-2.5	-1.	0.	111.92
4972	-2.5	-1.5	0.	111.78
4973	-2.25	0.	0.	108.44
4974	-2.	-0.25	0.	103.88
4975	-3.75	0.	0.	107.48
4976	-4.	-0.25	0.	102.25
4977	-2.	-1.75	0.	101.24
4978	-2.25	-2.	0.	105.97
4979	-4.	-1.75	0.	100.96
4980	-3.75	-2.	0.	105.92
4981	-2.75	0.	0.	113.91
4982	-2.5	-0.25	0.	114.2
4983	-3.25	0.	0.	113.74
4984	-3.	-0.25	0.	113.8
4985	-3.5	-0.25	0.	113.62
4986	-2.	-0.75	0.	104.94
4987	-2.25	-0.5	0.	109.58
4988	-2.	-1.25	0.	103.72
4989	-2.25	-1.	0.	107.87
4990	-2.25	-1.5	0.	107.72
4991	-4.	-0.75	0.	103.35
4992	-3.75	-0.5	0.	108.31
4993	-4.	-1.25	0.	102.72
4994	-3.75	-1.	0.	106.73
4995	-3.75	-1.5	0.	107.21
4996	-3.25	-2.	0.	112.09
4997	-3.5	-1.75	0.	112.2
4998	-2.75	-2.	0.	112.13
4999	-3.	-1.75	0.	112.61
5000	-2.5	-1.75	0.	112.48
5001	-3.	-1.25	0.	114.45
5002	-3.25	-1.	0.	112.88
5003	-3.	-0.75	0.	114.94
5004	-2.75	-1.	0.	113.3
5005	-3.25	-1.5	0.	112.76
5006	-2.75	-1.5	0.	113.
5007	-3.5	-1.25	0.	111.18
5008	-3.5	-0.75	0.	111.67
5009	-3.25	-0.5	0.	113.73
5010	-2.75	-0.5	0.	114.14
5011	-2.5	-0.75	0.	112.51
5012	-2.5	-1.25	0.	111.85
5013	-3.	9.	0.	99.581
5014	-5.	9.	0.	99.489
5015	-3.	7.	0.	99.783
5016	-5.	7.	0.	99.095
5017	-3.5	9.	0.	117.45
5018	-4.	9.	0.	116.
5019	-4.5	9.	0.	117.35
5020	-3.	8.5	0.	104.78
5021	-3.	8.	0.	103.17
5022	-3.	7.5	0.	104.02
5023	-5.	8.5	0.	104.54
5024	-5.	8.	0.	102.86
5025	-5.	7.5	0.	103.58
5026	-4.5	7.	0.	113.83
5027	-4.	7.	0.	111.85
5028	-3.5	7.	0.	114.21
5029	-3.5	8.	0.	112.4
5030	-3.5	7.5	0.	112.4
5031	-4.5	7.5	0.	112.13
5032	-4.5	8.	0.	112.21
5033	-4.5	8.5	0.	113.94
5034	-3.5	8.5	0.	114.08
5035	-4.	8.5	0.	117.55
5036	-4.	7.5	0.	115.15
5037	-4.	8.	0.	116.01
5038	-3.25	9.	0.	108.41
5039	-3.	8.75	0.	102.16
5040	-4.75	9.	0.	108.31
5041	-5.	8.75	0.	102.
5042	-3.	7.25	0.	101.89
5043	-3.25	7.	0.	106.94
5044	-5.	7.25	0.	101.32
5045	-4.75	7.	0.	106.41
5046	-3.75	9.	0.	116.72
5047	-3.5	8.75	0.	115.73
5048	-4.25	9.	0.	116.66
5049	-4.	8.75	0.	116.75
5050	-4.5	8.75	0.	115.6
5051	-3.	8.25	0.	103.93
5052	-3.25	8.5	0.	109.4
5053	-3.	7.75	0.	103.55
5054	-3.25	8.	0.	107.78
5055	-3.25	7.5	0.	108.2
5056	-5.	8.25	0.	103.65
5057	-4.75	8.5	0.	109.21
5058	-5.	7.75	0.	103.17
5059	-4.75	8.	0.	107.53
5060	-4.75	7.5	0.	107.84
5061	-4.25	7.	0.	112.84
5062	-4.5	7.25	0.	112.96
5063	-3.75	7.	0.	113.03
5064	-4.	7.25	0.	113.48
5065	-3.5	7.25	0.	113.28
5066	-3.5	7.75	0.	112.39
5067	-3.5	8.25	0.	113.22
5068	-3.75	8.	0.	114.2
5069	-3.75	7.5	0.	113.77
5070	-4.5	7.75	0.	112.16
5071	-4.25	7.5	0.	113.64
5072	-4.5	8.25	0.	113.06
5073	-4.25	8.	0.	114.1
5074	-4.25	8.5	0.	115.71
5075	-3.75	8.5	0.	115.78
5076	-4.	8.25	0.	116.78
5077	-4.	7.75	0.	115.58
5078	0.	2.	0.	96.613
5079	-1.	2.	0.	100.66
5080	0.	0.	0.	96.835
5081	-1.	0.	0.	99.639
5082	-0.5	2.	0.	114.43
5083	0.	1.5	0.	101.1
5084	0.	1.	0.	100.29
5085	0.	0.5	0.	101.5
5086	-1.	1.5	0.	103.41
5087	-1.	1.	0.	103.03
5088	-1.	0.5	0.	104.66
5089	-0.5	0.	0.	112.41
5090	-0.5	1.5	0.	107.47
5091	-0.5	1.	0.	105.23
5092	-0.5	0.5	0.	107.61
5093	-0.25	2.	0.	105.42
5094	0.	1.75	0.	98.813
5095	-0.75	2.	0.	107.49
5096	-1.	1.75	0.	102.03
5097	0.	0.25	0.	99.167
5098	-0.25	0.	0.	104.59
5099	-1.	0.25	0.	102.15
5100	-0.75	0.	0.	105.97
5101	-0.5	1.75	0.	110.91
5102	0.	1.25	0.	100.6
5103	-0.25	1.5	0.	104.22
5104	0.	0.75	0.	100.84
5105	-0.25	1.	0.	102.75
5106	-0.25	0.5	0.	104.51
5107	-1.	1.25	0.	103.19
5108	-0.75	1.5	0.	105.38
5109	-1.	0.75	0.	103.83
5110	-0.75	1.	0.	104.13
5111	-0.75	0.5	0.	106.08
5112	-0.5	0.25	0.	109.95
5113	-0.5	1.25	0.	106.34
5114	-0.5	0.75	0.	106.41
5115	-5.	3.	0.	95.174
5116	-6.	3.	0.	96.476
5117	-5.	1.	0.	98.698
5118	-6.	1.	0.	98.742
5119	-5.5	3.	0.	109.85
5120	-5.	2.5	0.	99.461
5121	-5.	2.	0.	99.563
5122	-5.	1.5	0.	102.11
5123	-6.	2.5	0.	101.14
5124	-6.	2.	0.	100.8
5125	-6.	1.5	0.	102.53
5126	-5.5	1.	0.	113.37
5127	-5.5	2.5	0.	104.87
5128	-5.5	2.	0.	103.67
5129	-5.5	1.5	0.	106.97
5130	-5.25	3.	0.	102.47
5131	-5.	2.75	0.	97.317
5132	-5.75	3.	0.	103.11
5133	-6.	2.75	0.	98.805
5134	-5.	1.25	0.	100.39
5135	-5.25	1.	0.	105.95
5136	-6.	1.25	0.	100.63
5137	-5.75	1.	0.	106.01
5138	-5.5	2.75	0.	107.31
5139	-5.	2.25	0.	99.464
5140	-5.25	2.5	0.	102.13
5141	-5.	1.75	0.	100.8
5142	-5.25	2.	0.	101.61
5143	-5.25	1.5	0.	104.46
5144	-6.	2.25	0.	100.93
5145	-5.75	2.5	0.	102.97
5146	-6.	1.75	0.	101.63
5147	-5.75	2.	0.	102.23
5148	-5.75	1.5	0.	104.68
5149	-5.5	1.25	0.	110.12
5150	-5.5	2.25	0.	104.27
5151	-5.5	1.75	0.	105.32
5152	2.	2.	0.	98.198
5153	1.	2.	0.	93.977
5154	2.	1.	0.	96.303
5155	1.	1.	0.	97.138
5156	1.5	2.	0.	109.28
5157	2.	1.5	0.	101.91
5158	1.	1.5	0.	100.55
5159	1.5	1.	0.	111.38
5160	1.5	1.5	0.	107.77
5161	1.75	2.	0.	103.73
5162	2.	1.75	0.	100.05
5163	1.25	2.	0.	101.62
5164	1.	1.75	0.	97.239
5165	2.	1.25	0.	99.103
5166	1.75	1.	0.	103.8
5167	1.	1.25	0.	98.838
5168	1.25	1.	0.	104.23
5169	1.5	1.75	0.	108.5
5170	1.75	1.5	0.	104.82
5171	1.25	1.5	0.	104.11
5172	1.5	1.25	0.	109.51
5173	7.	0.	0.	99.789
5174	6.	0.	0.	97.608
5175	7.	-1.	0.	100.32
5176	6.	-1.	0.	97.775
5177	6.5	0.	0.	114.14
5178	7.	-0.5	0.	105.4
5179	6.	-0.5	0.	103.14
5180	6.5	-1.	0.	114.63
5181	6.5	-0.5	0.	111.93
5182	6.75	0.	0.	106.94
5183	7.	-0.25	0.	102.59
5184	6.25	0.	0.	105.86
5185	6.	-0.25	0.	100.36
5186	7.	-0.75	0.	102.85
5187	6.75	-1.	0.	107.46
5188	6.	-0.75	0.	100.44
5189	6.25	-1.	0.	106.18
5190	6.5	-0.25	0.	112.97
5191	6.75	-0.5	0.	108.65
5192	6.25	-0.5	0.	107.5
5193	6.5	-0.75	0.	113.24
5194	6.	-4.	0.	99.112
5195	4.	-4.	0.	100.53
5196	6.	-5.	0.	99.847
5197	4.	-5.	0.	100.63
5198	5.5	-4.	0.	116.4
5199	5.	-4.	0.	115.52
5200	4.5	-4.	0.	117.05
5201	6.	-4.5	0.	104.49
5202	4.	-4.5	0.	105.51
5203	4.5	-5.	0.	117.66
5204	5.	-5.	0.	116.04
5205	5.5	-5.	0.	117.13
5206	4.5	-4.5	0.	116.07
5207	5.	-4.5	0.	118.99
5208	5.5	-4.5	0.	115.4
5209	5.75	-4.	0.	107.72
5210	6.	-4.25	0.	101.77
5211	4.25	-4.	0.	108.76
5212	4.	-4.25	0.	103.
5213	6.	-4.75	0.	102.14
5214	5.75	-5.	0.	108.44
5215	4.	-4.75	0.	103.05
5216	4.25	-5.	0.	109.09
5217	5.25	-4.	0.	115.95
5218	5.5	-4.25	0.	115.88
5219	4.75	-4.	0.	116.28
5220	5.	-4.25	0.	117.25
5221	4.5	-4.25	0.	116.54
5222	5.75	-4.5	0.	109.93
5223	4.25	-4.5	0.	110.78
5224	4.75	-5.	0.	116.85
5225	4.5	-4.75	0.	116.84
5226	5.25	-5.	0.	116.58
5227	5.	-4.75	0.	117.51
5228	5.5	-4.75	0.	116.25
5229	4.75	-4.5	0.	117.53
5230	5.25	-4.5	0.	117.2
5231	7.	8.	0.	98.976
5232	5.	8.	0.	101.69
5233	7.	6.	0.	98.412
5234	5.	6.	0.	101.22
5235	6.5	8.	0.	113.82
5236	6.	8.	0.	112.02
5237	5.5	8.	0.	115.5
5238	7.	7.5	0.	103.13
5239	7.	7.	0.	101.37
5240	7.	6.5	0.	102.04
5241	5.	7.5	0.	106.65
5242	5.	7.	0.	104.25
5243	5.	6.5	0.	104.22
5244	5.5	6.	0.	110.73
5245	6.	6.	0.	106.76
5246	6.5	6.	0.	109.36
5247	6.	7.5	0.	113.68
5248	6.5	7.5	0.	110.58
5249	6.5	6.5	0.	108.32
5250	6.	6.5	0.	110.41
5251	5.5	6.5	0.	109.15
5252	5.5	7.5	0.	112.38
5253	5.5	7.	0.	109.98
5254	6.5	7.	0.	108.79
5255	6.	7.	0.	111.95
5256	6.75	8.	0.	106.3
5257	7.	7.75	0.	101.04
5258	5.25	8.	0.	108.51
5259	5.	7.75	0.	104.16
5260	7.	6.25	0.	100.22
5261	6.75	6.	0.	103.84
5262	5.	6.25	0.	102.7
5263	5.25	6.	0.	105.92
5264	6.25	8.	0.	112.92
5265	6.5	7.75	0.	112.17
5266	5.75	8.	0.	113.76
5267	6.	7.75	0.	112.83
5268	5.5	7.75	0.	113.9
5269	7.	7.25	0.	102.23
5270	6.75	7.5	0.	106.83
5271	7.	6.75	0.	101.68
5272	6.75	7.	0.	105.07
5273	6.75	6.5	0.	105.18
5274	5.	7.25	0.	105.43
5275	5.25	7.5	0.	109.5
5276	5.	6.75	0.	104.19
5277	5.25	7.	0.	107.11
5278	5.25	6.5	0.	106.67
5279	5.75	6.	0.	108.73
5280	5.5	6.25	0.	109.92
5281	6.25	6.	0.	108.05
5282	6.	6.25	0.	108.57
5283	6.5	6.25	0.	108.81
5284	6.25	7.5	0.	112.1
5285	5.75	7.5	0.	113.01
5286	6.	7.25	0.	112.81
5287	6.5	7.25	0.	109.68
5288	6.25	6.5	0.	109.37
5289	6.5	6.75	0.	108.55
5290	5.75	6.5	0.	109.78
5291	6.	6.75	0.	111.18
5292	5.5	6.75	0.	109.55
5293	5.5	7.25	0.	111.17
5294	5.75	7.	0.	110.95
5295	6.25	7.	0.	110.36
5296	8.	-7.	0.	99.899
5297	7.	-7.	0.	99.037
5298	8.	-8.	0.	99.109
5299	7.	-8.	0.	98.434
5300	7.5	-7.	0.	115.37
5301	8.	-7.5	0.	104.75
5302	7.	-7.5	0.	103.96
5303	7.5	-8.	0.	114.31
5304	7.5	-7.5	0.	112.18
5305	7.75	-7.	0.	107.61
5306	8.	-7.25	0.	102.32
5307	7.25	-7.	0.	107.17
5308	7.	-7.25	0.	101.48
5309	8.	-7.75	0.	101.92
5310	7.75	-8.	0.	106.69
5311	7.	-7.75	0.	101.18
5312	7.25	-8.	0.	106.36
5313	7.5	-7.25	0.	113.73
5314	7.75	-7.5	0.	108.44
5315	7.25	-7.5	0.	108.04
5316	7.5	-7.75	0.	113.19
5317	4.	7.	0.	105.99
5318	2.	7.	0.	98.298
5319	4.	6.	0.	108.2
5320	2.	6.	0.	98.28
5321	3.5	7.	0.	121.36
5322	3.	7.	0.	118.16
5323	2.5	7.	0.	117.03
5324	4.	6.5	0.	112.2
5325	2.	6.5	0.	103.25
5326	2.5	6.	0.	120.82
5327	3.	6.	0.	121.56
5328	3.5	6.	0.	124.7
5329	2.5	6.5	0.	117.06
5330	3.	6.5	0.	123.05
5331	3.5	6.5	0.	121.56
5332	3.75	7.	0.	113.65
5333	4.	6.75	0.	109.07
5334	2.25	7.	0.	107.64
5335	2.	6.75	0.	100.74
5336	4.	6.25	0.	110.17
5337	3.75	6.	0.	116.38
5338	2.	6.25	0.	100.7
5339	2.25	6.	0.	109.46
5340	3.25	7.	0.	119.75
5341	3.5	6.75	0.	121.43
5342	2.75	7.	0.	117.59
5343	3.	6.75	0.	120.59
5344	2.5	6.75	0.	117.03
5345	3.75	6.5	0.	116.86
5346	2.25	6.5	0.	110.13
5347	2.75	6.	0.	121.19
5348	2.5	6.25	0.	118.93
5349	3.25	6.	0.	123.13
5350	3.	6.25	0.	122.3
5351	3.5	6.25	0.	123.11
5352	2.75	6.5	0.	120.04
5353	3.25	6.5	0.	122.3
