Node Number	X Location (mm)	Y Location (mm)	Z Location (mm)	Equivalent (von-Mises) Stress (MPa)
1	4.61	5.33	0.	144.21
2	4.52	4.02	0.	152.57
3	5.69	4.6	0.	161.95
4	6.73	0.82	0.	154.21
5	5.75	0.37	0.	149.01
6	6.64	-0.25	0.	140.8
7	6.42	-5.52	0.	172.78
8	5.88	-4.67	0.	105.39
9	5.42	-5.56	0.	171.56
10	0.56	1.65	0.	155.58
11	0.58	0.43	0.	144.21
12	1.62	1.06	0.	163.66
13	-0.65	2.28	0.	161.08
14	-1.12	3.54	0.	110.28
15	-1.98	2.5	0.	175.28
16	-0.97	1.23	0.	103.29
17	-2.02	4.e-002	0.	173.67
18	-0.47	-0.27	0.	163.24
19	-7.55	-5.15	0.	123.15
20	-7.13	-3.87	0.	174.93
21	-8.44	-4.15	0.	178.21
22	-5.48	6.75	0.	154.5
23	-5.8	8.08	0.	127.93
24	-6.79	7.14	0.	167.69
25	-7.96	1.08	0.	138.52
26	-8.89	0.33	0.	172.97
27	-7.78	-0.1	0.	157.3
28	7.	7.	0.	137.82
29	7.	5.	0.	134.97
30	9.	7.	0.	137.62
31	9.	5.	0.	137.1
32	8.	1.	0.	135.2
33	8.	-1.	0.	136.
34	9.	1.	0.	132.47
35	9.	-1.	0.	133.18
36	5.	3.	0.	128.32
37	5.	2.	0.	133.84
38	6.	3.	0.	132.63
39	6.	2.	0.	130.11
40	-1.	-6.	0.	130.83
41	-1.	-7.	0.	133.01
42	1.	-6.	0.	133.74
43	1.	-7.	0.	134.36
44	-1.	7.	0.	129.82
45	-1.	5.	0.	127.07
46	0.	7.	0.	131.53
47	0.	5.	0.	128.93
48	-1.	-2.	0.	125.56
49	-1.	-4.	0.	126.54
50	0.	-2.	0.	127.72
51	0.	-4.	0.	126.14
52	-7.	5.	0.	133.24
53	-7.	3.	0.	134.89
54	-5.	5.	0.	135.56
55	-5.	3.	0.	135.54
56	-6.	-1.	0.	130.61
57	-6.	-3.	0.	130.41
58	-5.	-1.	0.	132.19
59	-5.	-3.	0.	129.47
60	-6.	-4.	0.	126.74
61	-6.	-6.	0.	132.85
62	-5.	-4.	0.	126.46
63	-5.	-6.	0.	132.09
64	10.	10.	0.	124.92
65	-10.	10.	0.	125.02
66	10.	-10.	0.	127.08
67	-10.	-10.	0.	129.06
68	4.58	4.8933	0.	145.85
69	4.55	4.4567	0.	149.24
70	4.97	5.0867	0.	91.421
71	5.33	4.8433	0.	73.909
72	4.91	4.2133	0.	96.768
73	5.3	4.4067	0.	78.12
74	6.24	0.595	0.	79.284
75	6.685	0.285	0.	147.71
76	6.195	6.e-002	0.	67.262
77	6.15	-5.095	0.	97.68
78	5.92	-5.54	0.	100.59
79	5.65	-5.115	0.	111.9
80	0.56667	1.2433	0.	153.32
81	0.57333	0.83667	0.	148.31
82	0.91333	1.4533	0.	98.415
83	1.2667	1.2567	0.	76.967
84	0.92667	0.64	0.	94.73
85	1.2733	0.85	0.	75.03
86	-0.80667	2.7	0.	130.38
87	-0.96333	3.12	0.	120.11
88	-1.0933	2.3533	0.	104.23
89	-1.5367	2.4267	0.	91.97
90	-1.4067	3.1933	0.	87.488
91	-1.6933	2.8467	0.	91.332
92	-1.32	0.83333	0.	86.914
93	-1.67	0.43667	0.	81.009
94	-0.80333	0.73	0.	118.84
95	-0.63667	0.23	0.	127.55
96	-1.5033	-6.3333e-002	0.	105.34
97	-0.98667	-0.16667	0.	110.05
98	-7.41	-4.7233	0.	127.2
99	-7.27	-4.2967	0.	137.72
100	-7.8467	-4.8167	0.	88.215
101	-8.1433	-4.4833	0.	88.181
102	-7.5667	-3.9633	0.	113.8
103	-8.0033	-4.0567	0.	104.89
104	-5.5867	7.1933	0.	139.14
105	-5.6933	7.6367	0.	132.68
106	-5.9167	6.88	0.	101.05
107	-6.3533	7.01	0.	89.301
108	-6.13	7.7667	0.	85.132
109	-6.46	7.4533	0.	77.237
110	-8.2721	0.82831	0.	92.145
111	-8.581	0.57915	0.	57.883
112	-7.9	0.68667	0.	138.18
113	-7.84	0.29333	0.	146.95
114	-8.52	0.18667	0.	86.596
115	-8.15	4.3333e-002	0.	104.13
116	7.	6.5	0.	147.59
117	7.	6.	0.	149.34
118	7.	5.5	0.	146.8
119	7.5	7.	0.	116.22
120	8.	7.	0.	120.75
121	8.5	7.	0.	116.51
122	7.5	5.	0.	114.77
123	8.	5.	0.	119.07
124	8.5	5.	0.	115.12
125	9.	6.5	0.	148.62
126	9.	6.	0.	150.34
127	9.	5.5	0.	148.36
128	8.	0.5	0.	139.66
129	8.	0.	0.	140.96
130	8.	-0.5	0.	143.94
131	8.5	1.	0.	108.56
132	8.5	-1.	0.	109.6
133	9.	0.5	0.	143.28
134	9.	0.	0.	144.15
135	9.	-0.5	0.	143.72
136	5.	2.5	0.	140.4
137	5.5	3.	0.	110.17
138	5.5	2.	0.	108.79
139	6.	2.5	0.	139.68
140	-1.	-6.5	0.	140.62
141	-0.5	-6.	0.	112.55
142	0.	-6.	0.	118.29
143	0.5	-6.	0.	114.94
144	-0.5	-7.	0.	114.65
145	0.	-7.	0.	119.85
146	0.5	-7.	0.	115.25
147	1.	-6.5	0.	142.55
148	-1.	6.5	0.	138.27
149	-1.	6.	0.	137.85
150	-1.	5.5	0.	136.07
151	-0.5	7.	0.	105.94
152	-0.5	5.	0.	104.47
153	0.	6.5	0.	139.23
154	0.	6.	0.	139.12
155	0.	5.5	0.	138.46
156	-1.	-2.5	0.	134.69
157	-1.	-3.	0.	135.78
158	-1.	-3.5	0.	135.82
159	-0.5	-2.	0.	103.24
160	-0.5	-4.	0.	102.11
161	0.	-2.5	0.	136.65
162	0.	-3.	0.	136.46
163	0.	-3.5	0.	135.36
164	-7.	4.5	0.	142.48
165	-7.	4.	0.	143.49
166	-7.	3.5	0.	142.39
167	-6.5	5.	0.	110.47
168	-6.	5.	0.	113.88
169	-5.5	5.	0.	111.88
170	-6.5	3.	0.	112.57
171	-6.	3.	0.	117.35
172	-5.5	3.	0.	113.24
173	-5.	4.5	0.	144.86
174	-5.	4.	0.	145.92
175	-5.	3.5	0.	144.55
176	-6.	-1.5	0.	140.72
177	-6.	-2.	0.	141.63
178	-6.	-2.5	0.	141.82
179	-5.5	-1.	0.	106.62
180	-5.5	-3.	0.	103.52
181	-5.	-1.5	0.	141.38
182	-5.	-2.	0.	141.86
183	-5.	-2.5	0.	140.79
184	-6.	-4.5	0.	136.35
185	-6.	-5.	0.	140.55
186	-6.	-5.5	0.	142.63
187	-5.5	-4.	0.	100.04
188	-5.5	-6.	0.	107.89
189	-5.	-4.5	0.	138.28
190	-5.	-5.	0.	139.6
191	-5.	-5.5	0.	140.15
192	9.5	10.	0.	124.75
193	9.	10.	0.	123.82
194	8.5	10.	0.	122.8
195	8.	10.	0.	122.27
196	7.5	10.	0.	122.4
197	7.	10.	0.	123.09
198	6.5	10.	0.	124.05
199	6.	10.	0.	125.01
200	5.5	10.	0.	125.76
201	5.	10.	0.	126.3
202	4.5	10.	0.	126.69
203	4.	10.	0.	126.99
204	3.5	10.	0.	127.21
205	3.	10.	0.	127.35
206	2.5	10.	0.	127.34
207	2.	10.	0.	127.13
208	1.5	10.	0.	126.68
209	1.	10.	0.	126.
210	0.5	10.	0.	125.22
211	-5.2042e-015	10.	0.	124.55
212	-0.5	10.	0.	124.24
213	-1.	10.	0.	124.39
214	-1.5	10.	0.	124.93
215	-2.	10.	0.	125.63
216	-2.5	10.	0.	126.28
217	-3.	10.	0.	126.72
218	-3.5	10.	0.	126.85
219	-4.	10.	0.	126.53
220	-4.5	10.	0.	125.51
221	-5.	10.	0.	123.74
222	-5.5	10.	0.	121.79
223	-6.	10.	0.	120.77
224	-6.5	10.	0.	121.04
225	-7.	10.	0.	122.44
226	-7.5	10.	0.	123.98
227	-8.	10.	0.	124.98
228	-8.5	10.	0.	125.35
229	-9.	10.	0.	125.29
230	-9.5	10.	0.	125.09
231	10.	9.5	0.	125.4
232	10.	9.	0.	127.71
233	10.	8.5	0.	131.39
234	10.	8.	0.	135.62
235	10.	7.5	0.	137.33
236	10.	7.	0.	134.14
237	10.	6.5	0.	129.86
238	10.	6.	0.	129.22
239	10.	5.5	0.	129.15
240	10.	5.	0.	132.96
241	10.	4.5	0.	136.18
242	10.	4.	0.	135.15
243	10.	3.5	0.	132.22
244	10.	3.	0.	130.46
245	10.	2.5	0.	130.5
246	10.	2.	0.	132.14
247	10.	1.5	0.	132.83
248	10.	1.	0.	130.21
249	10.	0.5	0.	127.29
250	10.	-5.2042e-015	0.	127.78
251	10.	-0.5	0.	128.55
252	10.	-1.	0.	132.19
253	10.	-1.5	0.	134.83
254	10.	-2.	0.	133.42
255	10.	-2.5	0.	130.42
256	10.	-3.	0.	128.17
257	10.	-3.5	0.	126.59
258	10.	-4.	0.	125.39
259	10.	-4.5	0.	124.49
260	10.	-5.	0.	123.97
261	10.	-5.5	0.	123.94
262	10.	-6.	0.	124.36
263	10.	-6.5	0.	125.06
264	10.	-7.	0.	125.78
265	10.	-7.5	0.	126.36
266	10.	-8.	0.	126.74
267	10.	-8.5	0.	126.95
268	10.	-9.	0.	127.04
269	10.	-9.5	0.	127.07
270	-10.	9.5	0.	124.83
271	-10.	9.	0.	124.34
272	-10.	8.5	0.	123.88
273	-10.	8.	0.	123.62
274	-10.	7.5	0.	123.77
275	-10.	7.	0.	124.41
276	-10.	6.5	0.	125.28
277	-10.	6.	0.	125.95
278	-10.	5.5	0.	126.05
279	-10.	5.	0.	125.65
280	-10.	4.5	0.	125.21
281	-10.	4.	0.	125.35
282	-10.	3.5	0.	126.49
283	-10.	3.	0.	128.78
284	-10.	2.5	0.	131.94
285	-10.	1.9999	0.	135.12
286	-10.	1.4999	0.	135.86
287	-10.	0.9999	0.	129.79
288	-10.	0.4999	0.	125.18
289	-10.	-6.9581e-005	0.	128.12
290	-10.	-0.50006	0.	135.55
291	-10.	-1.	0.	137.31
292	-10.	-1.5	0.	135.7
293	-10.	-2.	0.	134.62
294	-10.	-2.5	0.	134.19
295	-10.	-3.	0.	132.81
296	-10.	-3.5	0.	129.07
297	-10.	-4.	0.	123.89
298	-10.	-4.5	0.	122.68
299	-10.	-5.	0.	126.15
300	-10.	-5.5	0.	130.23
301	-10.	-6.	0.	132.15
302	-10.	-6.5	0.	132.26
303	-10.	-7.	0.	131.58
304	-10.	-7.5	0.	130.8
305	-10.	-8.	0.	130.15
306	-10.	-8.5	0.	129.66
307	-10.	-9.	0.	129.32
308	-10.	-9.5	0.	129.12
309	-9.5	-10.	0.	128.38
310	-9.	-10.	0.	127.5
311	-8.5	-10.	0.	126.54
312	-8.	-10.	0.	125.61
313	-7.5	-10.	0.	124.78
314	-7.	-10.	0.	124.1
315	-6.5	-10.	0.	123.64
316	-6.	-10.	0.	123.47
317	-5.5	-10.	0.	123.63
318	-5.	-10.	0.	124.12
319	-4.5	-10.	0.	124.82
320	-4.	-10.	0.	125.57
321	-3.5	-10.	0.	126.16
322	-3.	-10.	0.	126.42
323	-2.5	-10.	0.	126.19
324	-2.	-10.	0.	125.39
325	-1.5	-10.	0.	124.07
326	-1.	-10.	0.	122.56
327	-0.5	-10.	0.	121.36
328	5.2042e-015	-10.	0.	120.97
329	0.5	-10.	0.	121.59
330	1.	-10.	0.	122.99
331	1.5	-10.	0.	124.68
332	2.	-10.	0.	126.16
333	2.5	-10.	0.	127.12
334	3.	-10.	0.	127.51
335	3.5	-10.	0.	127.42
336	4.	-10.	0.	126.99
337	4.5	-10.	0.	126.36
338	5.	-10.	0.	125.69
339	5.5	-10.	0.	125.13
340	6.	-10.	0.	124.8
341	6.5	-10.	0.	124.74
342	7.	-10.	0.	124.91
343	7.5	-10.	0.	125.22
344	8.	-10.	0.	125.58
345	8.5	-10.	0.	125.94
346	9.	-10.	0.	126.29
347	9.5	-10.	0.	126.67
348	2.9108	-2.9833	0.	129.29
349	2.9151	-3.4807	0.	129.2
350	3.3602	-2.4926	0.	129.72
351	2.8895	-2.4844	0.	129.51
352	3.3271	-1.9973	0.	129.95
353	3.7862	-2.0133	0.	129.65
354	2.9104	-3.9725	0.	129.1
355	3.382	-2.9949	0.	129.61
356	4.2481	-2.0458	0.	128.91
357	3.8274	-2.5175	0.	129.47
358	2.4379	-3.485	0.	128.64
359	2.4318	-2.9867	0.	128.67
360	2.862	-1.9914	0.	129.88
361	3.7549	-1.5088	0.	129.84
362	3.2948	-1.4891	0.	130.22
363	2.9224	-4.4529	0.	128.89
364	3.3852	-3.4924	0.	129.56
365	4.7025	-2.0846	0.	127.59
366	4.2927	-2.549	0.	128.65
367	3.853	-3.0198	0.	129.53
368	4.2093	-1.5379	0.	129.28
369	2.4453	-3.9845	0.	128.85
370	2.4161	-2.4891	0.	128.97
371	2.8341	-1.4908	0.	130.33
372	3.2697	-0.97871	0.	130.33
373	1.9509	-2.9962	0.	127.85
374	3.3297	-4.4609	0.	128.64
375	5.6046	-2.1715	0.	123.71
376	4.3239	-3.0513	0.	128.82
377	4.1948	-1.0295	0.	129.22
378	2.0572	6.4719	0.	127.65
379	-3.6408	1.5228	0.	132.77
380	1.5134	3.5461	0.	126.75
381	6.0268	-1.775	0.	121.86
382	2.4772	-4.485	0.	129.13
383	1.9595	-3.4949	0.	127.85
384	3.4956	-7.0075	0.	128.
385	3.2574	-0.46908	0.	130.09
386	3.7307	-0.4872	0.	128.86
387	1.4689	-3.0038	0.	127.17
388	-2.5226	6.0438	0.	128.25
389	-2.5895	3.5225	0.	133.14
390	2.8104	-0.98033	0.	130.83
391	4.7531	-2.5852	0.	127.14
392	3.8561	-3.5196	0.	129.74
393	4.6676	-1.5831	0.	128.32
394	1.9398	-2.499	0.	128.26
395	2.3934	-1.9918	0.	129.46
396	2.3704	-1.4993	0.	129.98
397	2.0379	5.4848	0.	127.5
398	3.1132	-4.9522	0.	128.09
399	3.0137	-6.4971	0.	127.17
400	-3.5003	-4.9967	0.	129.33
401	-3.0008	-4.9949	0.	129.4
402	-3.8739	1.0662	0.	130.
403	-2.9863	5.9749	0.	129.72
404	-3.5107	3.9485	0.	132.36
405	3.5093	-6.5059	0.	127.77
406	3.654	-5.0022	0.	127.23
407	-3.3674	0.98834	0.	132.61
408	2.5225	4.4931	0.	128.44
409	2.0097	4.0248	0.	128.66
410	2.0043	3.5442	0.	129.09
411	2.5345	4.9783	0.	127.8
412	2.5745	6.4519	0.	128.17
413	6.0486	-2.1866	0.	122.56
414	6.6031	-2.5769	0.	123.31
415	4.6386	7.1159	0.	123.37
416	2.561	5.9563	0.	128.21
417	2.5102	4.0092	0.	129.84
418	3.5369	-6.0028	0.	127.24
419	-2.9039	5.433	0.	130.36
420	-2.9998	-6.4995	0.	127.45
421	-3.0174	-3.4684	0.	130.33
422	-3.0002	-5.4967	0.	128.59
423	-2.9999	-5.9985	0.	127.84
424	3.0352	-5.9905	0.	127.2
425	3.0669	-5.4781	0.	127.52
426	2.0184	4.5089	0.	128.16
427	2.0279	4.9956	0.	127.72
428	-3.0072	-3.9821	0.	130.33
429	1.9224	-2.0052	0.	128.86
430	-4.4306	1.0108	0.	125.76
431	-4.9538	0.99579	0.	121.07
432	5.1258	-1.6381	0.	126.48
433	3.833	-4.016	0.	129.57
434	5.2105	-2.6198	0.	125.1
435	5.668	-2.6367	0.	123.28
436	-3.0351	3.9402	0.	132.61
437	-3.017	4.4178	0.	132.27
438	2.3473	-0.99522	0.	130.61
439	2.4756	3.0414	0.	132.49
440	1.9942	3.0673	0.	129.56
441	-2.1937	3.4984	0.	132.22
442	3.7469	1.7173e-002	0.	127.8
443	1.3855	-9.813e-002	0.	123.01
444	1.4026	-0.57273	0.	124.41
445	-3.0327	6.9874	0.	127.71
446	3.0005	-7.0012	0.	127.61
447	5.1124	7.0739	0.	123.32
448	7.6645	-4.4683	0.	126.37
449	7.6613	-3.9848	0.	126.7
450	7.6342	-3.4962	0.	125.76
451	1.9665	-3.9945	0.	128.33
452	-5.9671	0.97274	0.	117.07
453	-6.0165	1.9798	0.	115.03
454	-4.0016	3.9636	0.	133.24
455	-4.0003	-4.9984	0.	130.07
456	1.9899	-4.4954	0.	129.19
457	-1.9988	6.0551	0.	128.11
458	0.98124	-3.0088	0.	127.41
459	6.4882	-2.0123	0.	122.66
460	7.599	-3.0092	0.	124.73
461	7.076	-2.5305	0.	124.43
462	-3.4998	-7.5001	0.	127.62
463	-7.4875	-7.4894	0.	124.74
464	1.4744	-3.5014	0.	127.
465	-6.4592	0.94143	0.	119.55
466	6.0705	-1.3364	0.	119.67
467	5.1325	6.5691	0.	120.55
468	-3.0099	3.4487	0.	132.17
469	-3.2245	1.4383	0.	134.98
470	7.4692	-6.9224	0.	127.9
471	7.633	-4.9508	0.	125.05
472	4.0026	-6.5168	0.	128.74
473	5.9526	-7.0148	0.	119.63
474	4.4835	-7.0209	0.	128.35
475	5.6054	6.5621	0.	124.31
476	4.6183	7.5823	0.	124.7
477	-3.482	5.9506	0.	131.81
478	-3.5033	4.444	0.	132.7
479	-4.05	1.5446	0.	130.35
480	-5.4883	1.4869	0.	117.8
481	-3.4912	3.4485	0.	131.65
482	-3.5757	1.9831	0.	133.09
483	-6.9835	-7.5037	0.	124.59
484	-7.462	-6.9914	0.	124.54
485	-3.9991	-7.5003	0.	127.01
486	-5.4928	-7.5036	0.	120.75
487	-3.5	-5.4976	0.	128.71
488	-3.4995	-6.9999	0.	128.05
489	-3.5016	-4.4945	0.	130.27
490	-3.5745	-2.527	0.	131.74
491	2.5422	-4.9819	0.	129.05
492	-2.5	-6.4991	0.	126.67
493	-2.9997	-6.9997	0.	127.54
494	-2.9999	-7.4999	0.	127.75
495	2.5143	-6.4939	0.	126.94
496	7.6577	-6.4246	0.	128.45
497	7.4823	-7.4618	0.	126.56
498	6.9736	-7.4788	0.	125.19
499	6.4697	-7.4972	0.	123.11
500	5.9709	-7.5092	0.	121.97
501	5.4748	-7.5157	0.	123.05
502	4.4847	-7.5158	0.	127.16
503	3.9889	-7.5115	0.	127.92
504	3.4928	-7.5069	0.	128.09
505	2.9961	-7.5028	0.	128.15
506	-2.5143	6.5174	0.	127.88
507	-4.0957	7.4564	0.	126.17
508	-3.0526	7.4889	0.	127.13
509	1.5414	6.4849	0.	127.64
510	2.0633	6.97	0.	127.82
511	2.0626	7.4708	0.	127.87
512	-2.4394	5.6089	0.	128.49
513	-2.5561	-2.4103	0.	128.86
514	-2.5013	-4.9934	0.	129.8
515	-2.5199	-3.4617	0.	128.91
516	1.4172	-1.051	0.	127.31
517	1.4593	-2.5102	0.	127.75
518	-3.5286	-1.6505	0.	132.5
519	-5.4478	0.48708	0.	116.64
520	-3.8703	0.50019	0.	128.91
521	-3.0172	-1.2644	0.	134.
522	4.6627	-1.0797	0.	129.01
523	4.2075	-0.52432	0.	128.08
524	4.1633	-5.0326	0.	126.77
525	4.3306	-3.5519	0.	129.52
526	7.173	-3.5123	0.	125.84
527	4.7918	-3.0847	0.	127.18
528	6.6613	-3.0627	0.	123.37
529	2.7905	-0.4702	0.	131.37
530	1.4751	2.6444	0.	124.55
531	3.4407	2.5153	0.	133.08
532	3.2618	3.5486e-002	0.	129.41
533	3.7774	0.51806	0.	127.59
534	-7.5449	-2.5083	0.	119.8
535	-7.5148	-2.0162	0.	121.03
536	-8.0637	-1.9795	0.	119.44
537	-8.021	-3.0518	0.	117.83
538	3.2745	0.53679	0.	128.61
539	3.3002	1.0335	0.	128.5
540	2.4316	2.5546	0.	133.49
541	1.9462	2.5927	0.	130.93
542	1.8625	-0.52002	0.	129.59
543	2.3252	-0.487	0.	131.59
544	-2.5726	3.9343	0.	132.99
545	6.1916	-3.1001	0.	122.02
546	5.718	-3.1153	0.	122.26
547	5.2556	-3.1108	0.	124.67
548	7.2104	-3.9824	0.	127.52
549	4.2526	-4.5439	0.	129.14
550	5.131	-1.1429	0.	127.77
551	5.6021	-1.2227	0.	123.96
552	-3.2842	0.48349	0.	130.1
553	-4.4102	0.49939	0.	125.39
554	-4.9364	0.4938	0.	120.35
555	-3.5019	-1.1556	0.	133.16
556	1.4467	-2.0201	0.	128.45
557	-2.5037	-4.4873	0.	130.
558	1.5145	4.5183	0.	128.23
559	1.5212	5.0071	0.	127.93
560	-2.4361	5.2156	0.	128.81
561	-2.4924	4.8051	0.	129.96
562	1.5449	7.4807	0.	128.33
563	-2.5345	7.4995	0.	127.6
564	-2.5238	7.0056	0.	127.67
565	2.4986	-7.5003	0.	128.48
566	2.5046	-6.9972	0.	127.46
567	-2.4999	-6.9996	0.	127.08
568	2.5446	-5.483	0.	128.51
569	-2.5005	-5.4964	0.	128.84
570	-2.5001	-5.9981	0.	127.41
571	7.4476	3.0088	0.	122.54
572	3.3968	2.0211	0.	131.62
573	3.3463	1.5272	0.	130.12
574	-3.4993	-6.4994	0.	128.34
575	-3.4996	-5.9984	0.	128.38
576	-4.4978	-7.5008	0.	125.2
577	-6.4851	-7.5074	0.	123.58
578	-5.9888	-7.5061	0.	121.65
579	-4.9873	1.4963	0.	121.96
580	-4.4973	1.5093	0.	126.74
581	-3.4792	4.9414	0.	132.86
582	-3.4568	5.4435	0.	132.74
583	5.5686	7.5479	0.	127.04
584	5.5865	7.055	0.	125.78
585	5.464	-7.0227	0.	121.95
586	4.0339	-6.018	0.	128.
587	7.6509	-5.443	0.	124.36
588	6.9394	-6.9739	0.	126.29
589	-2.7662	1.3397	0.	137.03
590	-7.0458	-2.5089	0.	125.96
591	3.0126	3.9919	0.	131.38
592	2.9974	3.5084	0.	133.58
593	3.0744	5.9257	0.	129.4
594	4.6424	6.6426	0.	121.43
595	4.1376	6.7428	0.	125.24
596	6.0962	-0.86283	0.	115.6
597	-4.0203	-1.5705	0.	132.4
598	0.97435	-2.5174	0.	127.64
599	-1.97	5.5988	0.	127.43
600	1.027	6.4931	0.	128.16
601	6.9265	2.6057	0.	124.55
602	-4.0011	-4.4983	0.	130.56
603	-5.5064	1.9891	0.	116.89
604	-6.5769	6.0495	0.	114.56
605	-2.4374	3.1564	0.	134.24
606	3.5336	4.4584	0.	129.37
607	5.1822	6.0151	0.	115.25
608	0.97673	2.4215	0.	116.7
609	-4.0098	6.4377	0.	131.24
610	1.4799	-4.0005	0.	127.34
611	0.93896	-0.18326	0.	113.34
612	0.93633	-0.62348	0.	122.26
613	7.4671	3.5288	0.	121.32
614	-7.9951	-7.4638	0.	125.13
615	-6.9466	8.1181	0.	129.96
616	-7.444	7.9353	0.	129.83
617	-6.5009	1.4439	0.	120.33
618	-8.0024	3.4969	0.	127.56
619	-8.0018	3.9994	0.	128.92
620	-8.0306	6.4964	0.	130.52
621	-8.0525	7.4861	0.	125.72
622	-7.9982	7.9804	0.	127.13
623	-4.1493	7.9779	0.	126.98
624	-3.5966	7.9833	0.	126.65
625	-3.0618	7.9892	0.	126.86
626	-2.542	7.9962	0.	127.22
627	1.5382	7.9817	0.	128.11
628	2.0514	7.9743	0.	127.7
629	2.5667	7.9656	0.	127.29
630	3.0836	7.9582	0.	126.81
631	3.5935	7.9692	0.	126.22
632	4.0868	8.0323	0.	125.68
633	4.5778	8.0525	0.	125.5
634	5.064	8.0481	0.	126.02
635	5.5495	8.0378	0.	127.3
636	7.5081	8.0034	0.	119.36
637	8.0046	8.0014	0.	117.05
638	8.0049	4.0068	0.	115.59
639	7.98	3.503	0.	118.28
640	7.5626	-2.5165	0.	124.4
641	8.0487	-2.5074	0.	122.98
642	8.0735	-3.0016	0.	124.13
643	8.099	-3.4944	0.	125.2
644	8.1168	-3.9871	0.	125.73
645	8.1214	-4.48	0.	125.45
646	8.114	-4.9719	0.	124.66
647	8.1154	-5.4647	0.	124.83
648	8.1131	-5.963	0.	126.05
649	8.0817	-6.4669	0.	127.19
650	8.0122	-6.9677	0.	127.37
651	7.9933	-7.4739	0.	126.85
652	7.993	-7.9823	0.	126.3
653	7.4894	-7.9793	0.	125.81
654	6.9864	-7.9866	0.	124.85
655	6.4841	-7.997	0.	123.77
656	5.9834	-8.0054	0.	123.29
657	5.4841	-8.0104	0.	123.9
658	4.9859	-8.0123	0.	125.25
659	3.991	-8.0086	0.	127.51
660	3.4936	-8.0057	0.	128.03
661	2.9957	-8.003	0.	128.37
662	2.4975	-8.0011	0.	128.74
663	0.49993	-7.9999	0.	118.51
664	-5.2577e-005	-8.	0.	116.42
665	-3.0001	-8.	0.	127.69
666	-3.4999	-8.0001	0.	127.18
667	-4.4988	-8.0008	0.	124.81
668	-5.4958	-8.003	0.	122.1
669	-6.4926	-8.0049	0.	123.24
670	-6.9926	-8.0015	0.	124.09
671	-7.4946	-7.9897	0.	124.71
672	-6.9279	-6.5086	0.	127.44
673	2.778	3.7906e-002	0.	131.38
674	-8.1851	-6.4467	0.	123.93
675	6.7063	-3.5411	0.	124.25
676	4.6642	-5.0557	0.	126.
677	4.8087	-3.5843	0.	128.25
678	-2.9758	-0.73536	0.	135.95
679	6.5385	-1.4767	0.	121.03
680	7.4059	2.4457	0.	124.26
681	7.0261	-2.0291	0.	125.2
682	-7.9034	-1.4542	0.	118.89
683	-6.9561	-1.5341	0.	127.15
684	0.98485	-3.5048	0.	126.32
685	0.94329	-1.0823	0.	127.24
686	-0.50077	-4.9992	0.	110.76
687	-2.0365	-2.4464	0.	126.79
688	-2.0121	-0.93666	0.	128.45
689	-0.49608	7.9988	0.	117.71
690	-2.0076	6.5277	0.	127.73
691	2.0112	-6.4947	0.	126.54
692	1.9987	-8.0001	0.	129.12
693	-2.0001	-6.4989	0.	125.64
694	-2.0023	-4.9921	0.	130.12
695	3.9582	2.5078	0.	130.71
696	-3.9999	-5.4986	0.	129.18
697	-3.9983	-7.0001	0.	128.3
698	-4.0418	2.0108	0.	131.93
699	-6.5375	1.9549	0.	119.15
700	-8.0024	4.4989	0.	129.58
701	5.9322	-6.5214	0.	114.31
702	4.4918	-6.5268	0.	130.54
703	7.1059	-4.8956	0.	126.79
704	7.2741	-6.4261	0.	130.25
705	3.4795	3.0094	0.	135.39
706	0.54737	3.0412	0.	121.3
707	-6.9036	0.40442	0.	121.82
708	-7.8181	-0.96928	0.	119.08
709	-7.3746	-1.0355	0.	126.49
710	-6.8833	-7.1883e-002	0.	126.94
711	-6.997	1.3746	0.	126.42
712	0.53612	2.549	0.	120.81
713	4.6408	6.1678	0.	119.05
714	3.5863	5.8803	0.	131.52
715	3.5185	3.9807	0.	134.08
716	3.505	3.4981	0.	136.88
717	-6.7218	-3.0158	0.	135.3
718	-2.8788	2.9215	0.	130.56
719	-3.0201	2.3949	0.	131.28
720	-2.6785	1.8007	0.	138.85
721	-7.6051	7.4502	0.	125.89
722	-7.0239	6.3444	0.	130.24
723	-5.5086	5.9274	0.	113.58
724	-4.5078	6.411	0.	132.37
725	6.8589	-6.4766	0.	128.95
726	7.2374	-5.939	0.	129.43
727	7.1903	-5.4319	0.	125.44
728	4.5732	-5.5402	0.	127.41
729	4.5177	-6.0328	0.	130.02
730	4.976	-6.533	0.	129.38
731	5.456	-6.5314	0.	120.87
732	7.0154	8.0085	0.	124.59
733	6.5241	8.0165	0.	128.77
734	6.0487	7.5332	0.	130.11
735	-7.064	5.9394	0.	127.26
736	-7.5332	5.9863	0.	133.53
737	-8.006	4.9973	0.	131.55
738	-8.006	3.0006	0.	127.31
739	-8.0121	2.5036	0.	126.08
740	-7.0885	1.9077	0.	127.25
741	-3.9775	5.4459	0.	135.33
742	-4.9982	5.9192	0.	129.39
743	-5.0066	1.9974	0.	122.99
744	-4.5184	2.0052	0.	129.17
745	-4.0124	2.4904	0.	132.71
746	-5.9822	-7.0069	0.	120.83
747	-4.4965	-7.0006	0.	126.76
748	-3.9993	-5.999	0.	129.39
749	-4.0036	-3.9989	0.	132.57
750	-4.024	-3.011	0.	133.55
751	3.9931	3.0084	0.	133.82
752	3.8726	1.5132	0.	130.55
753	6.944	3.072	0.	126.97
754	6.9199	3.5996	0.	128.49
755	6.9585	2.1904	0.	125.52
756	-2.0003	-5.9977	0.	127.47
757	2.0194	-5.9928	0.	128.48
758	2.0252	-5.4919	0.	130.15
759	1.0032	-5.0012	0.	125.45
760	-2.	-6.9995	0.	127.33
761	-2.0001	-7.4998	0.	128.82
762	-1.0001	-8.	0.	122.88
763	0.99979	-7.9998	0.	123.53
764	1.4996	-7.9996	0.	128.05
765	2.0003	-7.4989	0.	129.54
766	2.0051	-6.9966	0.	128.09
767	-1.0029	8.0004	0.	120.82
768	-2.0221	7.5053	0.	128.34
769	1.0301	6.9895	0.	128.77
770	1.0631e-002	7.9962	0.	121.54
771	1.0105	4.5216	0.	128.99
772	-1.0213	-1.0586	0.	108.59
773	-1.5187	-1.0071	0.	116.34
774	-2.0288	-1.434	0.	127.88
775	-2.0087	-3.9799	0.	129.01
776	-1.5023	-4.9941	0.	127.27
777	0.96589	-2.0315	0.	128.8
778	2.8325e-005	-5.0004	0.	112.6
779	0.98816	-4.0031	0.	126.32
780	-6.4164	-4.5182e-002	0.	122.23
781	-6.9175	-1.0411	0.	130.4
782	-3.9924	-1.0769	0.	132.31
783	-3.9581	-0.56564	0.	131.61
784	-4.9416	-9.7729e-003	0.	120.09
785	7.9985	1.9669	0.	122.56
786	7.5175	1.9059	0.	128.89
787	8.0294	-2.0105	0.	122.1
788	7.0867	1.7665	0.	129.63
789	7.0294	-1.5272	0.	126.51
790	6.5675	-0.9887	0.	117.47
791	7.0487	-1.0372	0.	128.65
792	-2.7652	0.30006	0.	130.35
793	-2.9029	-0.20889	0.	131.52
794	-0.52051	-1.0865	0.	113.91
795	0.45816	-0.63958	0.	126.17
796	0.47283	-0.21425	0.	124.04
797	5.1579	-0.64015	0.	130.15
798	5.6312	-0.73091	0.	125.54
799	5.4906	1.4093	0.	116.87
800	4.7188	-6.6919e-002	0.	124.68
801	4.8301	0.95621	0.	126.38
802	4.7663	0.44137	0.	124.08
803	4.7576	-4.5728	0.	130.44
804	6.7566	-4.0105	0.	127.67
805	5.2877	-3.6091	0.	124.22
806	6.2327	-3.5803	0.	120.64
807	5.7579	-3.6085	0.	120.51
808	-2.1144	3.8875	0.	129.71
809	0.5071	4.0332	0.	126.7
810	4.5669e-003	3.5696	0.	123.77
811	-7.1731e-003	4.046	0.	122.9
812	-8.2021	-5.5411	0.	125.73
813	6.6945	4.0808	0.	130.06
814	1.8344	-1.8904e-002	0.	131.31
815	2.2998	2.269e-002	0.	133.9
816	2.3697	2.0626	0.	135.42
817	2.766	0.54373	0.	129.35
818	2.7659	1.0441	0.	128.92
819	2.818	1.5402	0.	130.25
820	-7.8047	-6.4621	0.	122.69
821	-7.3872	-6.5161	0.	124.08
822	-6.9125	-5.9841	0.	129.74
823	-8.6326	-5.4546	0.	131.09
824	-8.633	-5.9712	0.	128.11
825	-8.5996	-6.4745	0.	126.39
826	-8.5272	-6.9711	0.	126.03
827	-8.5031	-7.4746	0.	126.21
828	-8.499	-7.9831	0.	126.4
829	8.4987	4.	0.	117.59
830	8.4866	3.4973	0.	119.18
831	8.4777	2.9933	0.	120.14
832	8.4799	2.4899	0.	120.11
833	8.4959	1.9885	0.	118.26
834	8.5215	-2.003	0.	119.27
835	8.5349	-2.5013	0.	122.23
836	8.5512	-2.9982	0.	123.96
837	8.5704	-3.4938	0.	124.97
838	8.5823	-3.9899	0.	125.33
839	8.5867	-4.4871	0.	125.14
840	8.585	-4.984	0.	124.83
841	8.5817	-5.4812	0.	124.95
842	8.5737	-5.9809	0.	125.64
843	8.5502	-6.485	0.	126.39
844	8.5179	-6.9865	0.	126.74
845	8.4965	-7.9904	0.	126.42
846	8.4965	-8.4927	0.	126.2
847	7.995	-8.4887	0.	125.92
848	7.4939	-8.4885	0.	125.45
849	6.9929	-8.4922	0.	124.81
850	6.4918	-8.4979	0.	124.22
851	5.9909	-8.5031	0.	124.04
852	5.4907	-8.5066	0.	124.48
853	4.9912	-8.5082	0.	125.39
854	4.4922	-8.5077	0.	126.41
855	3.9938	-8.5061	0.	127.27
856	3.4954	-8.5042	0.	127.86
857	2.9967	-8.5025	0.	128.21
858	2.4977	-8.5012	0.	128.3
859	1.9987	-8.5004	0.	127.85
860	1.4993	-8.5	0.	126.16
861	0.99966	-8.4999	0.	123.1
862	0.49983	-8.4999	0.	119.92
863	-9.2411e-005	-8.5	0.	118.5
864	-0.50007	-8.5	0.	119.62
865	-1.0001	-8.5	0.	122.57
866	-1.5001	-8.5	0.	125.49
867	-2.0001	-8.5	0.	127.11
868	-2.5001	-8.5	0.	127.52
869	-3.0001	-8.5	0.	127.33
870	-3.5001	-8.5001	0.	126.79
871	-3.9999	-8.5003	0.	125.91
872	-4.4994	-8.5006	0.	124.75
873	-5.4978	-8.5022	0.	122.87
874	-6.4965	-8.503	0.	123.31
875	-6.9967	-8.5004	0.	123.98
876	-7.4975	-8.4934	0.	124.7
877	-7.998	-8.4905	0.	125.51
878	-8.4986	-8.4899	0.	126.49
879	-8.2438	-0.84579	0.	113.41
880	-8.4714	-3.1321	0.	127.42
881	-8.5339	-2.6209	0.	124.49
882	-8.5596	-2.1392	0.	122.64
883	-8.5038	-1.7124	0.	120.95
884	-8.7381	-1.1437	0.	122.21
885	8.5025	8.0005	0.	119.12
886	-8.412	1.3733	0.	120.15
887	-8.4783	1.9518	0.	121.61
888	-8.4988	2.4809	0.	125.16
889	-8.5026	2.992	0.	125.98
890	-8.5018	3.4949	0.	126.56
891	-8.5016	3.998	0.	127.22
892	-8.5021	4.4989	0.	128.3
893	-8.5041	4.9989	0.	129.66
894	-8.5084	5.4987	0.	130.77
895	-8.5147	5.9983	0.	130.52
896	-8.5244	6.4965	0.	128.89
897	-8.5372	6.9948	0.	126.83
898	-8.53	7.4949	0.	125.86
899	-8.5097	7.9934	0.	126.07
900	-8.5031	8.4931	0.	126.32
901	-7.9984	8.4856	0.	127.71
902	-7.4967	8.4908	0.	129.17
903	-7.0084	8.5598	0.	128.2
904	-6.5199	8.6363	0.	121.23
905	-4.7299	8.5501	0.	129.71
906	-4.1412	8.4961	0.	127.74
907	-3.5896	8.4877	0.	126.84
908	-3.0604	8.4907	0.	126.64
909	-2.5395	8.4947	0.	126.65
910	9.0924e-003	8.4961	0.	122.94
911	1.0216	8.4894	0.	127.13
912	1.5283	8.485	0.	127.46
913	2.0352	8.4799	0.	127.31
914	3.0474	8.4756	0.	126.64
915	3.5497	8.4881	0.	126.26
916	4.0488	8.5157	0.	125.95
917	5.042	8.533	0.	126.22
918	6.0235	8.5195	0.	127.29
919	6.5165	8.5125	0.	126.5
920	7.0108	8.507	0.	124.04
921	7.5067	8.5034	0.	121.06
922	8.5013	9.0005	0.	122.44
923	7.0065	9.0049	0.	123.91
924	6.51	9.0084	0.	125.36
925	6.0145	9.0129	0.	126.1
926	5.5196	9.0177	0.	126.22
927	5.0228	9.0202	0.	126.11
928	4.5245	9.0177	0.	126.07
929	3.5246	8.9951	0.	126.37
930	3.0247	8.9868	0.	126.59
931	2.5233	8.9849	0.	126.79
932	2.0209	8.9866	0.	126.89
933	1.5178	8.9894	0.	126.82
934	0.51041	8.9947	0.	125.36
935	6.2915e-003	8.9968	0.	124.06
936	-0.49823	8.9981	0.	123.34
937	-2.5293	8.9949	0.	126.16
938	-3.0414	8.9926	0.	126.32
939	-3.5536	8.992	0.	126.59
940	-4.0616	9.0017	0.	127.18
941	-4.5319	9.0422	0.	127.58
942	-4.975	9.0395	0.	128.09
943	-8.5034	8.9956	0.	125.96
944	-9.0204	6.9979	0.	126.3
945	-9.0091	5.999	0.	128.43
946	-9.0051	5.4994	0.	128.65
947	-9.0026	4.9994	0.	128.15
948	-8.9991	2.9881	0.	126.79
949	-8.9913	2.4767	0.	126.84
950	-8.9686	1.9593	0.	127.97
951	-8.6605	-0.71464	0.	121.47
952	-8.9208	1.4449	0.	130.31
953	-9.0808	-0.60294	0.	131.44
954	-9.1201	-1.0603	0.	128.16
955	-8.9928	-1.5537	0.	125.46
956	-9.0354	-2.1122	0.	126.83
957	-9.0676	-2.6938	0.	129.77
958	-8.9003	-3.2396	0.	133.61
959	-9.2479	-3.3999	0.	134.66
960	-9.1939	-3.893	0.	131.35
961	-9.1317	-4.4059	0.	129.92
962	-9.0681	-4.9252	0.	132.42
963	-9.0745	-5.4497	0.	132.67
964	-9.0762	-5.9715	0.	130.17
965	-9.0567	-6.4831	0.	128.7
966	-9.025	-6.9872	0.	127.96
967	-9.0067	-7.4884	0.	127.73
968	-8.9992	-8.4931	0.	127.61
969	-9.0007	-7.99	0.	127.66
970	-8.499	-8.9939	0.	126.53
971	-7.9989	-8.9944	0.	125.57
972	-7.4988	-8.996	0.	124.73
973	-6.9986	-8.9998	0.	124.02
974	-6.4984	-9.0015	0.	123.47
975	-5.9986	-9.0018	0.	123.19
976	-5.4988	-9.0015	0.	123.32
977	-4.9994	-9.0008	0.	123.89
978	-4.4997	-9.0004	0.	124.78
979	-3.5001	-9.0001	0.	126.46
980	-3.0001	-9.	0.	126.88
981	-2.5001	-9.	0.	126.83
982	-2.0001	-9.	0.	126.13
983	-1.5	-9.	0.	124.61
984	-1.	-9.	0.	122.5
985	-0.50005	-9.	0.	120.62
986	0.99974	-9.	0.	122.97
987	1.4995	-9.0001	0.	125.25
988	1.9991	-9.0004	0.	126.88
989	3.4972	-9.0027	0.	127.64
990	3.9962	-9.0039	0.	127.11
991	4.4954	-9.0048	0.	126.36
992	4.9949	-9.0049	0.	125.55
993	5.9955	-9.0018	0.	124.49
994	6.496	-8.9988	0.	124.52
995	6.9964	-8.9958	0.	124.85
996	7.4967	-8.9937	0.	125.29
997	7.9969	-8.9932	0.	125.71
998	2.2922	1.5593	0.	134.05
999	6.2752	4.0511	0.	135.46
1000	-7.7769	-6.0071	0.	119.94
1001	-7.2768	-5.681	0.	124.8
1002	-0.53064	4.0546	0.	118.18
1003	-1.5531	4.1834	0.	118.63
1004	6.2893	-4.0684	0.	119.67
1005	5.3054	-4.1116	0.	126.48
1006	5.2863	0.89631	0.	130.09
1007	5.2033	-0.12736	0.	129.97
1008	8.998	-8.4967	0.	126.38
1009	8.9988	-7.996	0.	126.42
1010	9.0137	-6.9958	0.	126.26
1011	9.0303	-6.4946	0.	125.9
1012	9.0444	-5.9925	0.	125.39
1013	9.0524	-5.4907	0.	124.99
1014	9.0555	-4.9913	0.	124.91
1015	9.0526	-3.9936	0.	125.36
1016	9.0433	-3.4952	0.	125.36
1017	9.0326	-2.9971	0.	124.93
1018	9.0225	-2.4988	0.	124.02
1019	-2.4374	-0.33424	0.	144.04
1020	7.0741	-0.56768	0.	140.66
1021	7.0979	1.3127	0.	141.13
1022	9.014	-1.9998	0.	122.75
1023	7.5254	-1.5258	0.	131.13
1024	8.988	2.9965	0.	123.04
1025	8.9899	2.496	0.	122.59
1026	8.9962	1.996	0.	121.63
1027	7.5541	1.4052	0.	137.08
1028	-4.4603	-0.52869	0.	131.03
1029	-6.4269	-0.53492	0.	129.62
1030	0.49819	-4.502	0.	124.23
1031	-1.5035	-4.4914	0.	129.14
1032	-1.5244	-1.4891	0.	122.41
1033	0.50525	4.5233	0.	130.3
1034	-1.5127	4.6344	0.	124.45
1035	0.51879	7.4932	0.	130.25
1036	1.5007	-7.4989	0.	131.59
1037	-1.5001	-7.4998	0.	130.68
1038	1.5126	-5.4977	0.	132.48
1039	-1.5011	-5.4966	0.	129.6
1040	6.3978	3.5543	0.	135.67
1041	4.3996	1.4962	0.	132.45
1042	-4.5051	-3.5039	0.	135.9
1043	-4.4971	-6.5001	0.	130.52
1044	-6.458	-6.5129	0.	130.19
1045	-6.3618	-3.4969	0.	139.86
1046	-4.5101	2.4973	0.	133.62
1047	-4.4885	5.4489	0.	137.86
1048	-7.5215	5.4886	0.	135.02
1049	8.9975	3.9987	0.	123.65
1050	9.0013	8.0002	0.	124.73
1051	6.635	4.5455	0.	132.72
1052	6.5307	7.5195	0.	133.3
1053	4.989	-6.0439	0.	139.13
1054	6.8114	-5.9779	0.	139.87
1055	-4.9996	6.3773	0.	138.65
1056	-7.2587	6.9387	0.	130.67
1057	-2.5646	2.2551	0.	135.36
1058	-0.36746	1.7233	0.	140.65
1059	-6.7543	-3.4724	0.	150.03
1060	-8.8119	-3.7718	0.	144.68
1061	4.0243	3.5033	0.	142.55
1062	4.0954	5.8162	0.	135.03
1063	9.592e-002	2.156	0.	139.25
1064	9.0007	9.0002	0.	124.34
1065	8.9984	-8.9975	0.	126.33
1066	-8.9991	-8.9956	0.	127.55
1067	-9.0023	8.9981	0.	125.36
1068	-1.0101	-0.60377	0.	104.47
1069	-1.9821	-0.44497	0.	132.57
1070	-1.505	-0.53064	0.	109.62
1071	-2.3208	0.16402	0.	125.1
1072	-2.0726	0.6125	0.	140.13
1073	-1.4484	1.4331	0.	106.57
1074	-1.7719	1.0312	0.	117.33
1075	-0.40821	1.2492	0.	128.54
1076	-1.8444e-002	-0.12245	0.	128.12
1077	-0.23643	0.32471	0.	142.29
1078	-0.33924	0.78085	0.	125.09
1079	6.5969	-0.54934	0.	107.67
1080	5.68	-0.21113	0.	128.57
1081	6.1341	-0.38854	0.	116.27
1082	5.7058	0.91426	0.	126.4
1083	6.6237	1.2129	0.	111.18
1084	6.148	1.064	0.	113.98
1085	7.0953	-0.11417	0.	134.87
1086	7.1293	0.84413	0.	137.3
1087	9.0068	-1.5	0.	123.16
1088	8.0177	-1.5097	0.	123.68
1089	8.5117	-1.502	0.	112.05
1090	9.0017	1.4971	0.	122.27
1091	8.0203	1.47	0.	124.63
1092	-4.5125	-3.0087	0.	132.9
1093	-4.5196	-2.5152	0.	134.47
1094	-4.5192	-2.0224	0.	136.39
1095	-4.5093	-1.5289	0.	134.69
1096	-4.4902	-1.0319	0.	131.34
1097	-6.369	-3.0267	0.	137.59
1098	-6.5201	-2.5401	0.	133.08
1099	-6.5001	-2.0246	0.	133.64
1100	-6.4551	-1.0269	0.	130.44
1101	-6.478	-1.5235	0.	132.74
1102	0.49448	-4.0027	0.	125.02
1103	0.49163	-3.5043	0.	128.52
1104	0.4902	-3.0077	0.	130.75
1105	0.48587	-2.5152	0.	129.92
1106	0.48159	-2.0303	0.	128.99
1107	-1.157e-003	-4.5006	0.	115.03
1108	-1.002	-4.4971	0.	117.57
1109	-0.50096	-4.4994	0.	104.56
1110	-1.9191e-002	-1.5488	0.	120.2
1111	-0.51688	-1.5408	0.	105.53
1112	-1.5056	-3.9877	0.	128.
1113	-1.5092	-3.4834	0.	129.29
1114	-1.5143	-2.9791	0.	130.23
1115	-1.5211	-1.9789	0.	124.06
1116	-1.5183	-2.4764	0.	127.65
1117	-2.7037e-003	4.5234	0.	121.12
1118	-1.017	4.5583	0.	116.76
1119	-0.51148	4.5302	0.	107.17
1120	9.3281e-003	7.4973	0.	122.12
1121	-0.49723	7.4995	0.	109.46
1122	-1.0025	7.5013	0.	120.77
1123	1.0003	-7.4996	0.	125.08
1124	0.50005	-7.4999	0.	115.6
1125	-1.3715e-005	-7.5	0.	115.81
1126	-1.0001	-7.4999	0.	124.18
1127	-0.50003	-7.5	0.	115.13
1128	1.0053	-5.5001	0.	125.48
1129	0.50191	-5.5004	0.	115.16
1130	4.2473e-004	-5.5	0.	113.41
1131	-0.50041	-5.4994	0.	111.37
1132	-1.0009	-5.4982	0.	120.73
1133	6.491	2.0994	0.	124.3
1134	6.4652	2.568	0.	128.37
1135	6.455	3.0561	0.	131.65
1136	4.4521	1.9994	0.	131.39
1137	4.5025	3.0097	0.	128.85
1138	4.4783	2.5027	0.	129.89
1139	7.5295	-1.0274	0.	134.16
1140	7.5396	-0.53825	0.	137.88
1141	7.5495	-5.3436e-002	0.	136.72
1142	7.562	0.91826	0.	134.96
1143	7.5579	0.43183	0.	133.31
1144	-4.5021	-4.0013	0.	131.94
1145	-4.4991	-5.9997	0.	130.02
1146	-4.4998	-5.4996	0.	132.32
1147	-4.5001	-4.9996	0.	133.65
1148	-4.5009	-4.4999	0.	131.9
1149	-5.9791	-6.5062	0.	121.46
1150	-5.4905	-6.502	0.	110.68
1151	-4.9951	-6.5007	0.	122.39
1152	-6.4536	-6.0258	0.	132.26
1153	-6.5756	-5.5181	0.	135.14
1154	-6.391	-3.9777	0.	132.34
1155	-6.4321	-4.4675	0.	132.4
1156	-6.4874	-4.971	0.	137.41
1157	-5.9466	-3.5003	0.	116.47
1158	-5.4847	-3.5002	0.	99.047
1159	-4.9979	-3.5012	0.	118.37
1160	-5.9515	-0.51621	0.	117.99
1161	-4.9638	-0.51025	0.	122.08
1162	-5.464	-0.509	0.	108.26
1163	-4.4988	2.9902	0.	133.22
1164	-4.4981	3.4848	0.	135.7
1165	-4.4995	3.9811	0.	137.78
1166	-4.4981	4.4769	0.	136.68
1167	-4.4927	4.9673	0.	135.34
1168	-5.0078	2.4975	0.	125.18
1169	-5.5085	2.4939	0.	113.82
1170	-6.0134	2.4863	0.	113.66
1171	-7.0274	2.4711	0.	126.17
1172	-6.5227	2.4746	0.	114.65
1173	-4.998	5.4585	0.	127.39
1174	-5.509	5.4687	0.	111.04
1175	-6.021	5.4899	0.	108.4
1176	-6.5264	5.5071	0.	110.36
1177	-7.0243	5.4835	0.	125.62
1178	-7.5057	3.0021	0.	129.58
1179	-7.5019	3.5004	0.	132.48
1180	-7.5012	3.9996	0.	134.41
1181	-7.5069	4.9947	0.	132.73
1182	-7.5019	4.4983	0.	133.29
1183	0.50729	5.0125	0.	129.43
1184	0.50899	5.5047	0.	130.97
1185	0.51113	6.0002	0.	132.74
1186	0.51329	6.4974	0.	131.5
1187	0.51559	6.9949	0.	129.15
1188	-1.4887	5.0897	0.	125.21
1189	-1.4859	5.557	0.	129.92
1190	-1.4956	6.0347	0.	131.59
1191	-1.5056	7.0101	0.	128.63
1192	-1.5019	6.5194	0.	130.31
1193	1.5099	-5.9968	0.	130.74
1194	1.5034	-6.9976	0.	129.99
1195	1.5065	-6.4968	0.	129.48
1196	-1.5003	-5.9983	0.	128.57
1197	-1.5001	-6.4991	0.	128.08
1198	-1.5001	-6.9995	0.	128.93
1199	6.0421	1.5335	0.	118.36
1200	4.9312	1.4709	0.	128.02
1201	5.4691	3.4654	0.	112.63
1202	5.0232	3.4221	0.	113.4
1203	9.0006	4.4997	0.	125.93
1204	8.5036	4.5011	0.	114.69
1205	7.0728	4.5372	0.	122.77
1206	7.532	4.518	0.	114.48
1207	8.0122	4.5059	0.	114.46
1208	7.0159	7.5073	0.	126.57
1209	9.0009	7.5001	0.	126.85
1210	8.5017	7.5003	0.	116.09
1211	8.0033	7.5007	0.	116.16
1212	7.5075	7.5023	0.	116.28
1213	6.5907	5.0238	0.	133.92
1214	6.5461	5.5137	0.	139.49
1215	6.5388	6.014	0.	140.23
1216	6.532	7.02	0.	133.52
1217	6.5359	6.5181	0.	136.98
1218	5.0334	-5.5547	0.	121.55
1219	5.2973	-4.6066	0.	133.85
1220	5.1629	-5.0773	0.	138.98
1221	6.7596	-5.4795	0.	120.06
1222	6.6057	-5.004	0.	140.28
1223	6.3786	-6.0102	0.	123.39
1224	5.453	-6.043	0.	123.28
1225	5.9205	-6.0284	0.	101.22
1226	-5.2795	8.0994	0.	132.61
1227	-5.0255	6.8377	0.	125.42
1228	-5.0999	7.2922	0.	131.98
1229	-5.2102	7.7138	0.	127.71
1230	-5.4914	6.3672	0.	116.83
1231	-6.8765	6.7368	0.	138.62
1232	-6.4426	6.5472	0.	109.65
1233	-5.9763	6.4326	0.	102.07
1234	-7.1412	7.4397	0.	125.75
1235	-5.8903	8.4282	0.	106.34
1236	-6.4146	8.1749	0.	120.92
1237	-6.7538	7.7658	0.	132.51
1238	-2.0845	3.0094	0.	141.69
1239	-1.6305	3.7496	0.	121.19
1240	-1.7837	3.3594	0.	122.28
1241	-2.1197	2.1191	0.	142.86
1242	-1.6799	2.0127	0.	109.2
1243	-1.2503	1.8878	0.	98.56
1244	-6.8557	-4.3956	0.	142.94
1245	-7.0801	-5.3039	0.	138.06
1246	-6.9529	-4.8569	0.	132.53
1247	-0.5339	3.579	0.	125.36
1248	-0.32389	2.2006	0.	135.39
1249	-0.37259	2.6686	0.	135.67
1250	-0.45934	3.1218	0.	125.46
1251	-8.4267	-3.6475	0.	134.47
1252	-7.1556	-3.4491	0.	128.71
1253	-7.5781	-3.4894	0.	109.74
1254	-8.0092	-3.5592	0.	114.99
1255	-7.7495	-5.5173	0.	111.75
1256	-8.7261	-4.3111	0.	126.15
1257	-8.5441	-4.8706	0.	140.58
1258	-8.1033	-5.1468	0.	125.02
1259	4.0409	4.4519	0.	133.24
1260	4.0827	5.3633	0.	134.08
1261	4.0631	4.9107	0.	131.83
1262	5.8275	4.0333	0.	132.11
1263	4.567	3.5413	0.	121.65
1264	4.9898	3.8119	0.	111.75
1265	5.4026	3.9361	0.	118.47
1266	5.8208	5.0722	0.	135.46
1267	5.4481	5.2789	0.	123.26
1268	5.0496	5.5349	0.	111.95
1269	4.593	5.7198	0.	115.64
1270	8.8211e-002	1.2499	0.	136.15
1271	0.12133	0.80297	0.	134.24
1272	0.18897	0.3359	0.	139.68
1273	1.7757	0.49956	0.	135.26
1274	0.55269	0.10161	0.	118.82
1275	0.94716	0.23551	0.	109.26
1276	0.52954	2.0774	0.	120.56
1277	0.94127	1.9283	0.	112.58
1278	1.7913	1.6095	0.	137.56
1279	1.3469	1.7464	0.	126.45
1280	-8.9906	0.61051	0.	150.8
1281	-7.981	1.5299	0.	113.68
1282	-8.8466	0.96556	0.	131.85
1283	-7.4746	1.2291	0.	134.77
1284	-7.4197	0.79081	0.	128.11
1285	-7.3383	-9.4565e-002	0.	129.89
1286	-7.3714	0.35092	0.	130.45
1287	9.5003	9.0001	0.	126.61
1288	9.5004	8.5001	0.	128.19
1289	9.5005	8.0001	0.	130.49
1290	9.5004	7.5	0.	134.93
1291	9.5001	7.	0.	135.56
1292	9.5	6.5	0.	137.88
1293	9.5	6.	0.	139.33
1294	9.5	5.5	0.	137.58
1295	9.5	4.9999	0.	134.9
1296	9.4999	4.4996	0.	134.28
1297	9.4984	3.9991	0.	130.07
1298	9.4961	3.4986	0.	128.26
1299	9.4948	2.9986	0.	127.42
1300	9.4956	2.4986	0.	127.13
1301	9.498	1.9988	0.	127.88
1302	9.5002	1.4991	0.	131.28
1303	9.5002	0.99953	0.	131.68
1304	9.5	0.49986	0.	134.05
1305	9.5	-3.1519e-005	0.	135.88
1306	9.5001	-0.49995	0.	134.61
1307	9.5007	-0.99974	0.	132.67
1308	9.5034	-1.4995	0.	132.21
1309	9.5069	-1.9991	0.	128.63
1310	9.5111	-2.4985	0.	127.36
1311	9.5159	-2.9978	0.	126.71
1312	9.521	-3.497	0.	126.1
1313	9.5256	-3.9966	0.	125.53
1314	9.5272	-4.4964	0.	125.04
1315	9.5273	-4.9965	0.	124.75
1316	9.5256	-5.4966	0.	124.76
1317	9.5211	-5.9978	0.	125.05
1318	9.5145	-6.4988	0.	125.49
1319	9.5073	-6.9992	0.	125.93
1320	9.5022	-7.4991	0.	126.26
1321	9.4998	-7.9988	0.	126.47
1322	9.4992	-8.4987	0.	126.58
1323	9.4992	-8.999	0.	126.64
1324	9.4995	-9.4994	0.	126.66
1325	8.9991	-9.4986	0.	126.3
1326	8.4987	-9.4975	0.	125.96
1327	7.9986	-9.4969	0.	125.61
1328	7.4986	-9.4972	0.	125.23
1329	6.9986	-9.4981	0.	124.89
1330	6.4984	-9.4994	0.	124.68
1331	5.9982	-9.5008	0.	124.72
1332	5.4979	-9.5018	0.	125.06
1333	4.9978	-9.5023	0.	125.65
1334	4.4979	-9.5023	0.	126.36
1335	3.9982	-9.5019	0.	127.02
1336	3.4986	-9.5014	0.	127.48
1337	2.999	-9.5009	0.	127.61
1338	2.4993	-9.5005	0.	127.26
1339	1.9996	-9.5002	0.	126.33
1340	1.4997	-9.5001	0.	124.81
1341	0.99985	-9.5	0.	122.98
1342	0.49992	-9.5	0.	121.42
1343	-4.7478e-005	-9.5	0.	120.73
1344	-0.50003	-9.5	0.	121.19
1345	-1.	-9.5	0.	122.54
1346	-1.5	-9.5	0.	124.19
1347	-2.	-9.5	0.	125.56
1348	-2.5	-9.5	0.	126.35
1349	-3.	-9.5	0.	126.54
1350	-3.5	-9.5001	0.	126.24
1351	-4.	-9.5001	0.	125.6
1352	-4.4999	-9.5002	0.	124.81
1353	-4.9997	-9.5004	0.	124.07
1354	-5.4994	-9.5008	0.	123.56
1355	-5.9993	-9.5008	0.	123.4
1356	-6.4994	-9.5007	0.	123.6
1357	-6.9995	-9.4998	0.	124.08
1358	-7.4996	-9.4979	0.	124.76
1359	-7.9996	-9.4975	0.	125.6
1360	-8.4995	-9.4971	0.	126.54
1361	-8.9995	-9.4977	0.	127.51
1362	-9.4997	-9.499	0.	128.42
1363	-9.4995	-8.9982	0.	128.53
1364	-9.4997	-8.4973	0.	128.72
1365	-9.5008	-7.9965	0.	128.98
1366	-9.5046	-7.496	0.	129.32
1367	-9.5135	-6.9948	0.	129.75
1368	-9.5261	-6.4914	0.	130.27
1369	-9.5344	-5.9838	0.	130.81
1370	-9.536	-5.4746	0.	130.79
1371	-9.5406	-4.9678	0.	129.59
1372	-9.5648	-4.465	0.	127.41
1373	-9.5935	-3.9707	0.	128.34
1374	-9.617	-3.4986	0.	131.03
1375	-9.5157	-3.0185	0.	132.11
1376	-9.544	-2.5268	0.	131.39
1377	-9.5154	-2.0439	0.	130.94
1378	-9.5106	-1.5383	0.	131.19
1379	-9.5396	-1.0302	0.	132.44
1380	-9.5187	-0.51182	0.	135.7
1381	-9.4084	4.1797e-002	0.	135.73
1382	-9.4798	1.9811	0.	131.17
1383	-9.4928	2.4862	0.	129.56
1384	-9.4981	2.992	0.	128.14
1385	-9.4998	3.4957	0.	127.15
1386	-9.5004	3.9981	0.	126.63
1387	-9.5006	4.4993	0.	126.61
1388	-9.5012	4.9997	0.	126.84
1389	-9.5025	5.4997	0.	127.
1390	-9.5045	5.9995	0.	126.81
1391	-9.507	6.4993	0.	126.23
1392	-9.5093	6.9993	0.	125.52
1393	-9.5079	7.4998	0.	125.
1394	-9.5049	7.9999	0.	124.78
1395	-9.5024	8.4994	0.	124.79
1396	-9.5013	8.9995	0.	124.86
1397	-9.0014	9.4991	0.	125.18
1398	-8.5028	9.4982	0.	125.33
1399	-8.0056	9.4989	0.	125.34
1400	-7.5102	9.5043	0.	124.98
1401	-7.0149	9.5144	0.	123.89
1402	-6.514	9.5103	0.	122.21
1403	-6.0108	9.4754	0.	121.48
1404	-5.5047	9.4906	0.	122.99
1405	-5.003	9.5142	0.	124.9
1406	-4.5107	9.5178	0.	126.01
1407	-4.0193	9.5039	0.	126.24
1408	-3.5217	9.4968	0.	126.27
1409	-3.0189	9.4959	0.	126.17
1410	-2.5149	9.4969	0.	125.95
1411	-2.0106	9.4977	0.	125.56
1412	-1.5064	9.4986	0.	125.03
1413	-1.0027	9.4989	0.	124.55
1414	-0.49941	9.4987	0.	124.4
1415	3.0294e-003	9.4981	0.	124.73
1416	0.50513	9.497	0.	125.36
1417	1.007	9.4958	0.	126.01
1418	1.5084	9.4945	0.	126.47
1419	2.0095	9.4933	0.	126.72
1420	2.5101	9.4929	0.	126.81
1421	3.0103	9.4942	0.	126.77
1422	3.5101	9.4982	0.	126.64
1423	4.01	9.5038	0.	126.47
1424	4.5105	9.508	0.	126.26
1425	5.0103	9.5095	0.	126.04
1426	5.5091	9.5086	0.	125.74
1427	6.0071	9.5065	0.	125.29
1428	6.5051	9.5044	0.	124.61
1429	7.0034	9.5026	0.	123.77
1430	7.5021	9.5014	0.	123.04
1431	8.0012	9.5007	0.	122.79
1432	8.5007	9.5003	0.	123.2
1433	9.0004	9.5001	0.	124.13
1434	9.5002	9.5001	0.	125.3
1435	-7.7777	-0.51256	0.	119.61
1436	-8.9868	-0.15786	0.	138.64
1437	-8.589	-0.26948	0.	119.88
1438	-8.1901	-0.40006	0.	107.84
1439	5.5836	-1.6988	0.	123.74
1440	3.921	2.0098	0.	130.92
1441	-3.5327	-2.9924	0.	131.91
1442	-2.5375	-2.9383	0.	128.56
1443	-7.0255	9.0343	0.	125.57
1444	-4.0423	-2.5272	0.	132.49
1445	6.0601	7.0372	0.	129.89
1446	-1.9694	5.1542	0.	127.21
1447	1.0145	8.9922	0.	126.36
1448	2.5476	5.4656	0.	127.93
1449	3.6313	6.8663	0.	127.32
1450	-4.5424	6.9016	0.	128.02
1451	-3.9941	3.4675	0.	132.11
1452	2.2579	0.53764	0.	133.84
1453	8.4975	-8.9949	0.	126.05
1454	-7.5213	2.5098	0.	130.65
1455	-7.9953	-6.9121	0.	124.35
1456	7.1164	0.35982	0.	135.23
1457	-3.3923	-9.1729e-002	0.	130.56
1458	-4.6099	7.4092	0.	124.9
1459	6.1916	4.5423	0.	128.39
1460	4.1698	7.1757	0.	124.95
1461	7.5044	9.0027	0.	122.38
1462	1.3502	0.3762	0.	124.19
1463	-3.4612	2.9519	0.	131.12
1464	-4.9974	-8.0017	0.	123.11
1465	9.0011	8.5003	0.	124.37
1466	1.0308	7.4878	0.	129.11
1467	-2.0001	-7.9999	0.	128.4
1468	-6.0253	5.9715	0.	103.6
1469	-6.9621	-7.0065	0.	125.8
1470	1.0732	2.9545	0.	121.61
1471	-7.0029	-2.0246	0.	126.13
1472	4.0255	9.0084	0.	126.17
1473	4.3315	0.99193	0.	128.48
1474	2.5864	7.4572	0.	127.58
1475	-2.5559e-002	-1.0915	0.	125.42
1476	6.4419	-6.9998	0.	122.23
1477	0.99645	-4.5022	0.	126.24
1478	1.0246	3.5141	0.	124.73
1479	-6.8891	-0.55268	0.	131.67
1480	-7.5384	1.6441	0.	131.05
1481	5.495	-9.0039	0.	124.85
1482	1.0187	5.5043	0.	128.2
1483	2.9317	2.5301	0.	133.87
1484	0.49985	-9.	0.	120.87
1485	4.276	0.48619	0.	125.72
1486	-3.5127	6.4611	0.	129.86
1487	-5.9945	1.4734	0.	116.87
1488	-5.3106	8.5222	0.	132.69
1489	1.0143	5.0122	0.	128.82
1490	5.8067	-4.1224	0.	115.
1491	-6.4274	0.44378	0.	119.35
1492	-2.4926	-0.84348	0.	136.62
1493	7.0878	4.0741	0.	124.38
1494	0.51884	7.9926	0.	126.92
1495	-2.0242	8.0004	0.	127.44
1496	8.5061	1.4911	0.	111.24
1497	-3.0897	-2.3761	0.	130.64
1498	-5.9937	-8.0045	0.	122.31
1499	-2.0191	8.997	0.	125.75
1500	0.95429	-1.5526	0.	129.31
1501	-1.5132	8.4992	0.	124.87
1502	-5.9418	0.47051	0.	116.64
1503	-1.0042	8.9985	0.	123.78
1504	-8.0213	5.9969	0.	133.12
1505	0.52309	3.537	0.	124.36
1506	9.2192e-002	1.6954	0.	143.65
1507	4.086	-5.5218	0.	126.03
1508	-4.4932	5.9287	0.	135.78
1509	3.5824	-5.4992	0.	126.88
1510	-4.047	6.9442	0.	127.5
1511	2.196	1.0511	0.	126.97
1512	-5.4891	-7.0035	0.	118.01
1513	2.9979	-9.0017	0.	127.88
1514	1.5355	3.0885	0.	125.96
1515	-2.1964e-002	-0.62738	0.	139.14
1516	4.4884	-8.0114	0.	126.6
1517	-2.5434	-1.8804	0.	130.09
1518	-3.5702	-2.0711	0.	131.97
1519	6.3981	-4.5519	0.	130.33
1520	3.0422	4.9564	0.	128.14
1521	1.4308	-1.5341	0.	128.67
1522	-9.5006	9.4997	0.	124.97
1523	5.0918	7.5634	0.	125.16
1524	-3.5144	-3.489	0.	132.09
1525	-4.4257	-1.6967e-002	0.	126.9
1526	-7.6391	6.9971	0.	127.28
1527	2.8794	2.0365	0.	133.02
1528	-5.4691	8.9869	0.	122.76
1529	-3.9859	4.954	0.	134.52
1530	-2.0009	-5.4957	0.	129.38
1531	-1.5113	8.9982	0.	124.87
1532	9.0032	-7.4955	0.	126.41
1533	2.0176	-4.9936	0.	130.12
1534	-2.0466	4.2907	0.	128.81
1535	2.4985	-9.0009	0.	127.69
1536	2.498	3.5261	0.	131.32
1537	-6.7811	-3.9338	0.	133.45
1538	-3.9896	2.9759	0.	132.37
1539	6.4021	-6.5045	0.	121.2
1540	3.5684	5.4044	0.	130.7
1541	4.1203	6.2765	0.	127.25
1542	-5.4447	-1.2906e-002	0.	114.54
1543	-9.001	3.997	0.	126.84
1544	-1.0016	-4.9972	0.	117.99
1545	-6.9419	0.88148	0.	123.91
1546	5.2521	0.38946	0.	119.33
1547	-8.0128	2.0107	0.	123.29
1548	3.6063	6.3637	0.	129.54
1549	3.7674	-4.5114	0.	128.49
1550	4.8	-4.0815	0.	130.82
1551	-1.0512	4.0777	0.	111.64
1552	-0.51063	-0.64631	0.	122.98
1553	7.8151e-002	2.623	0.	124.01
1554	-3.1237	1.9083	0.	135.37
1555	-1.5102	7.5048	0.	129.25
1556	-7.9969	-7.9811	0.	125.4
1557	-1.0189	-1.524	0.	114.39
1558	1.4938	-4.5001	0.	128.25
1559	-7.5683	-3.0034	0.	116.41
1560	-3.5118	2.4624	0.	132.02
1561	3.0576	5.4389	0.	128.9
1562	2.0479	5.9767	0.	127.53
1563	2.5853	6.9525	0.	127.89
1564	-2.5339	4.3662	0.	131.34
1565	7.5343	-2.0207	0.	126.01
1566	-3.9068	-3.7975e-002	0.	129.74
1567	-1.5124	8.0014	0.	125.97
1568	1.8713	2.1146	0.	133.18
1569	-3.9983	-6.4994	0.	129.38
1570	1.8833	-1.0183	0.	129.13
1571	0.47037	-1.5576	0.	131.22
1572	7.9567	2.4756	0.	121.51
1573	1.5283	5.4973	0.	127.6
1574	-2.51	0.76119	0.	134.28
1575	-9.0172	7.4983	0.	125.59
1576	-8.2016	-5.9869	0.	123.12
1577	4.2357	-1.9953e-002	0.	126.35
1578	1.5108	4.0295	0.	127.8
1579	-9.0039	8.4977	0.	125.49
1580	-4.9986	-8.5013	0.	123.59
1581	-4.9955	-7.5019	0.	122.45
1582	-5.9966	-8.503	0.	122.83
1583	-2.0145	7.0133	0.	128.22
1584	-3.9999	-9.0002	0.	125.71
1585	-7.3619	-6.0731	0.	122.49
1586	-2.5001	-8.	0.	128.07
1587	-2.5092	-3.9771	0.	129.48
1588	-3.5057	-3.9913	0.	131.36
1589	4.5471	8.5312	0.	125.89
1590	-3.5417	6.9692	0.	127.81
1591	6.0722	6.5381	0.	129.84
1592	3.7353	-0.99934	0.	129.66
1593	-7.5123	9.0046	0.	127.07
1594	-2.0266	-2.9575	0.	127.7
1595	-8.04	-2.5353	0.	119.48
1596	6.1898	5.0096	0.	136.28
1597	5.5332	8.5275	0.	126.85
1598	3.1105	6.9244	0.	127.93
1599	-9.0015	4.4986	0.	127.38
1600	-0.50005	-8.	0.	118.13
1601	8.0039	8.5015	0.	119.68
1602	-2.0048	-4.4866	0.	130.01
1603	4.0254	3.9844	0.	138.72
1604	4.98	-7.5176	0.	125.35
1605	-8.3414	-1.2968	0.	118.26
1606	-3.014	6.4861	0.	128.66
1607	1.9013	-1.5155	0.	129.24
1608	-2.3913	2.6732	0.	122.55
1609	-8.067	6.9896	0.	126.95
1610	1.023	5.9976	0.	128.54
1611	1.5075	-4.9989	0.	129.65
1612	-9.0155	6.498	0.	127.46
1613	-8.9259e-005	-9.	0.	119.94
1614	-9.0007	3.4939	0.	126.66
1615	3.9915	-7.0143	0.	128.49
1616	-0.49712	8.4981	0.	121.32
1617	-4.9937	-7.0016	0.	121.58
1618	3.5511	4.9324	0.	128.56
1619	4.1547	7.5864	0.	125.24
1620	0.46122	-1.0941	0.	129.26
1621	1.3625	2.2096	0.	123.39
1622	-7.1227	-2.9852	0.	126.72
1623	8.0027	9.0013	0.	121.7
1624	2.9724	3.0212	0.	134.17
1625	5.1577	-2.1286	0.	125.68
1626	-8.0054	8.9946	0.	126.72
1627	-6.0417	8.9215	0.	117.54
1628	1.5457	6.9815	0.	127.97
1629	3.1219	7.4386	0.	127.19
1630	6.0366	8.0269	0.	128.9
1631	7.1281	-3.0265	0.	124.59
1632	7.2368	-4.4343	0.	128.5
1633	1.0278	7.9879	0.	128.36
1634	-7.4377	-1.5228	0.	122.81
1635	-9.0086	7.9974	0.	125.46
1636	-7.3407	-0.55431	0.	137.15
1637	-2.0261	8.498	0.	126.33
1638	-2.0027	4.7187	0.	127.37
1639	-5.9361	-2.5366e-002	0.	116.46
1640	1.0116	4.0246	0.	127.56
1641	-1.5001	-7.9999	0.	127.3
1642	-3.5746	7.4767	0.	126.65
1643	3.3685	-3.9821	0.	129.3
1644	-8.0145	5.4956	0.	133.26
1645	-6.4718	-7.0096	0.	125.23
1646	-3.9981	4.46	0.	133.39
1647	-4.0413	-2.0484	0.	132.87
1648	-2.0343	-1.9372	0.	127.17
1649	6.8349	-4.4593	0.	129.15
1650	-7.5568	2.0544	0.	127.72
1651	-4.011	-3.502	0.	134.2
1652	-2.0166	-3.4693	0.	127.92
1653	4.3382e-002	3.0935	0.	124.04
1654	0.50098	-5.0012	0.	119.19
1655	7.5242	4.0262	0.	118.34
1656	8.9916	3.4971	0.	123.2
1657	9.0562	-4.4918	0.	125.13
1658	4.3073	-4.0495	0.	130.08
1659	-6.5447	9.0571	0.	121.9
1660	1.5353	5.9899	0.	127.48
1661	2.5289	-5.9885	0.	127.49
1662	4.6855	-0.57557	0.	128.7
1663	-4.7302	7.9595	0.	128.44
1664	-3.0401	-2.9404	0.	130.23
1665	8.5026	8.5008	0.	120.99
1666	2.543	8.4755	0.	127.
1667	-1.0044	8.4992	0.	122.5
1668	3.0276	4.4748	0.	128.94
1669	-3.4589	-0.63356	0.	132.74
1670	0.51522	8.4932	0.	125.56
1671	-3.9885	5.9402	0.	134.24
1672	3.0913	6.4191	0.	128.87
1673	8.5012	-7.4873	0.	126.67
1674	-2.5	-7.4998	0.	127.95
1675	6.1319	-2.6246	0.	122.54
1676	7.9613	2.9911	0.	120.11
1677	-3.043	-1.7977	0.	131.91
1678	-5.4638	0.98622	0.	117.63
1679	-2.9793	4.9048	0.	131.47
1680	-3.0029	-4.4895	0.	130.
1681	-3.9994	-8.0004	0.	126.28
1682	4.9751	-7.0244	0.	126.21
1683	3.6901	7.4107	0.	126.28
1684	5.6433	6.0876	0.	125.34
1685	6.0829	6.0308	0.	132.48
1686	5.6294	5.633	0.	127.39
1687	6.0628	5.4931	0.	135.65
1688	-2.237	1.2541	0.	132.68
1689	-7.5078	6.5145	0.	133.59
1690	-2.9352	0.90093	0.	133.49
1691	-2.5235	-1.3578	0.	132.59
1692	7.6661	-5.9371	0.	126.95
1693	3.8202	1.0158	0.	128.83
1694	5.9244	3.5136	0.	125.14
1695	6.5586	1.6513	0.	122.74
1696	-0.8158	1.7707	0.	105.34
1697	-9.4707	0.53768	0.	129.89
1698	-9.4333	1.0034	0.	138.26
1699	-9.4578	1.4821	0.	133.68
1700	-2.2416	1.717	0.	134.9
1701	-1.8182	1.6121	0.	121.86
1702	4.595	5.1117	0.	143.87
1703	4.79	5.2083	0.	116.88
1704	4.3464	5.3466	0.	137.83
1705	4.6015	5.5249	0.	129.4
1706	4.535	4.2383	0.	149.51
1707	4.715	4.1167	0.	124.23
1708	4.5435	3.7806	0.	136.79
1709	4.2727	4.0022	0.	144.52
1710	5.51	4.7217	0.	117.46
1711	5.495	4.5033	0.	119.65
1712	5.7587	4.3167	0.	146.53
1713	5.7554	4.8361	0.	148.36
1714	5.9408	4.5712	0.	145.08
1715	6.485	0.7075	0.	115.49
1716	6.7075	0.5525	0.	148.85
1717	6.6769	1.0164	0.	132.38
1718	6.9297	0.83206	0.	144.33
1719	5.995	0.4825	0.	111.91
1720	5.9725	0.215	0.	105.65
1721	5.715	7.9435e-002	0.	138.27
1722	5.7279	0.64213	0.	136.91
1723	5.501	0.37973	0.	134.13
1724	6.6625	1.75e-002	0.	143.19
1725	6.4175	-9.5e-002	0.	101.24
1726	6.6184	-0.39967	0.	123.77
1727	6.8676	-0.18208	0.	136.09
1728	6.285	-5.3075	0.	128.55
1729	6.17	-5.53	0.	135.11
1730	6.5898	-5.4997	0.	146.12
1731	6.3993	-5.7651	0.	147.69
1732	6.015	-4.8825	0.	94.724
1733	5.765	-4.8925	0.	103.55
1734	5.5886	-4.6383	0.	119.41
1735	5.8434	-4.3962	0.	109.91
1736	6.1391	-4.611	0.	117.52
1737	5.67	-5.55	0.	134.79
1738	5.535	-5.3375	0.	135.14
1739	5.2267	-5.5574	0.	146.06
1740	5.4365	-5.8015	0.	147.21
1741	0.56333	1.4467	0.	153.19
1742	0.73667	1.5517	0.	126.48
1743	0.54477	1.8637	0.	137.57
1744	0.3261	1.6727	0.	148.35
1745	0.57667	0.63333	0.	144.92
1746	0.75333	0.535	0.	118.7
1747	0.38449	0.38295	0.	140.6
1748	0.56635	0.2658	0.	130.98
1749	1.4433	1.1583	0.	119.84
1750	1.4467	0.955	0.	118.99
1751	1.6979	0.77978	0.	149.07
1752	1.7056	1.3347	0.	150.18
1753	1.908	1.0555	0.	145.28
1754	-0.72833	2.49	0.	142.63
1755	-0.87167	2.3167	0.	132.51
1756	-0.48694	2.2403	0.	147.43
1757	-0.7329	2.0253	0.	133.1
1758	-1.0417	3.33	0.	113.73
1759	-1.2633	3.3667	0.	96.465
1760	-1.3752	3.6448	0.	114.95
1761	-0.82695	3.5595	0.	117.28
1762	-1.0856	3.8089	0.	110.66
1763	-1.7583	2.4633	0.	132.18
1764	-1.8367	2.6733	0.	130.72
1765	-2.0498	2.3096	0.	158.75
1766	-2.1856	2.5866	0.	148.88
1767	-1.145	1.0317	0.	93.082
1768	-0.88667	0.98	0.	109.91
1769	-1.2092	1.3315	0.	104.63
1770	-0.68911	1.2396	0.	115.48
1771	-0.8929	1.5003	0.	104.03
1772	-1.845	0.23833	0.	125.68
1773	-1.7617	-1.1667e-002	0.	138.11
1774	-2.0011	-0.20249	0.	152.27
1775	-2.1704	0.10201	0.	149.24
1776	-0.55333	-2.e-002	0.	143.34
1777	-0.72833	-0.21833	0.	136.35
1778	-0.24422	-0.19622	0.	145.06
1779	-0.49031	-0.45815	0.	142.8
1780	-7.48	-4.9367	0.	122.74
1781	-7.6983	-4.9833	0.	102.32
1782	-7.315	-5.227	0.	129.89
1783	-7.6498	-5.3336	0.	116.25
1784	-7.2	-4.0833	0.	153.49
1785	-7.3483	-3.9167	0.	144.09
1786	-7.1428	-3.6595	0.	151.69
1787	-6.9556	-3.9019	0.	153.27
1788	-8.2917	-4.3167	0.	131.57
1789	-8.2217	-4.1033	0.	140.07
1790	-8.4333	-3.8987	0.	155.66
1791	-8.5831	-4.2306	0.	152.08
1792	-5.5333	6.9717	0.	145.08
1793	-5.6983	6.815	0.	127.63
1794	-5.2527	6.7938	0.	138.84
1795	-5.4857	6.5586	0.	135.53
1796	-5.7467	7.8583	0.	128.61
1797	-5.965	7.9233	0.	104.12
1798	-5.5398	8.0897	0.	129.21
1799	-5.8452	8.2541	0.	116.22
1800	-6.5717	7.075	0.	127.05
1801	-6.625	7.2967	0.	121.48
1802	-6.8332	6.9384	0.	152.54
1803	-6.9656	7.2899	0.	146.53
1804	-8.116	0.95415	0.	114.51
1805	-7.93	0.88333	0.	136.5
1806	-7.9705	1.305	0.	125.29
1807	-7.7173	1.1546	0.	135.8
1808	-8.7355	0.45458	0.	114.83
1809	-8.705	0.25833	0.	128.54
1810	-8.9403	0.47025	0.	161.63
1811	-9.1492	0.1859	0.	154.07
1812	-8.9384	8.6072e-002	0.	155.21
1813	-7.81	9.6667e-002	0.	150.48
1814	-7.965	-2.8333e-002	0.	130.57
1815	-7.5591	-9.7282e-002	0.	142.37
1816	-7.7789	-0.30628	0.	138.25
1817	7.	6.75	0.	142.44
1818	7.25	7.	0.	126.53
1819	7.0079	7.2536	0.	132.16
1820	6.766	7.01	0.	135.23
1821	7.	5.25	0.	140.59
1822	7.25	5.	0.	124.38
1823	7.0364	4.7686	0.	128.86
1824	6.7953	5.0119	0.	133.97
1825	8.75	7.	0.	126.62
1826	9.	6.75	0.	142.93
1827	9.0004	7.25	0.	132.22
1828	9.25	7.	0.	136.19
1829	8.75	5.	0.	125.68
1830	9.	5.25	0.	142.54
1831	9.0003	4.7498	0.	131.49
1832	9.25	4.9999	0.	135.59
1833	8.	0.75	0.	137.05
1834	8.25	1.	0.	121.32
1835	8.0101	1.235	0.	129.84
1836	7.781	0.95913	0.	134.81
1837	8.	-0.75	0.	139.7
1838	8.25	-1.	0.	122.31
1839	8.0089	-1.2548	0.	129.76
1840	7.7647	-1.0137	0.	134.56
1841	8.75	1.	0.	120.11
1842	9.	0.75	0.	137.69
1843	9.0009	1.2486	0.	127.33
1844	9.2501	0.99976	0.	131.7
1845	8.75	-1.	0.	120.99
1846	9.	-0.75	0.	138.25
1847	9.0034	-1.25	0.	128.14
1848	9.2503	-0.99987	0.	132.57
1849	5.	2.75	0.	134.08
1850	5.25	3.	0.	118.92
1851	4.7512	3.0049	0.	127.95
1852	5.0116	3.2111	0.	120.85
1853	5.	2.25	0.	136.92
1854	5.25	2.	0.	120.92
1855	4.7261	1.9997	0.	132.4
1856	4.9656	1.7354	0.	130.92
1857	5.75	3.	0.	121.07
1858	6.	2.75	0.	135.97
1859	6.2275	3.0281	0.	131.96
1860	5.9622	3.2568	0.	128.84
1861	5.75	2.	0.	119.09
1862	6.	2.25	0.	134.59
1863	6.2455	2.0497	0.	126.69
1864	6.021	1.7668	0.	124.23
1865	-1.	-6.25	0.	135.56
1866	-0.75	-6.	0.	121.39
1867	-1.0004	-5.7491	0.	125.75
1868	-1.2502	-5.9992	0.	129.34
1869	-1.	-6.75	0.	136.62
1870	-0.75	-7.	0.	123.41
1871	-1.	-7.25	0.	128.57
1872	-1.25	-6.9998	0.	130.66
1873	0.75	-6.	0.	123.99
1874	1.	-6.25	0.	137.99
1875	1.0027	-5.75	0.	129.59
1876	1.2549	-5.9984	0.	131.94
1877	0.75	-7.	0.	124.4
1878	1.	-6.75	0.	138.25
1879	1.0002	-7.2498	0.	129.69
1880	1.2517	-6.9988	0.	131.84
1881	-1.	6.75	0.	133.8
1882	-0.75	7.	0.	117.42
1883	-1.0012	7.2507	0.	125.25
1884	-1.2528	7.0051	0.	128.88
1885	-1.	5.25	0.	131.28
1886	-0.75	5.	0.	115.32
1887	-1.0085	4.7792	0.	121.88
1888	-1.2444	5.0449	0.	125.67
1889	-0.25	7.	0.	118.23
1890	0.	6.75	0.	135.1
1891	4.6641e-003	7.2486	0.	126.77
1892	0.25779	6.9974	0.	129.97
1893	-0.25	5.	0.	116.31
1894	0.	5.25	0.	133.5
1895	-1.3519e-003	4.7617	0.	125.
1896	0.25364	5.0063	0.	128.87
1897	-1.	-2.25	0.	129.82
1898	-0.75	-2.	0.	113.93
1899	-1.2605	-1.9895	0.	124.27
1900	-1.0094	-1.762	0.	119.94
1901	-1.	-3.75	0.	130.99
1902	-0.75	-4.	0.	113.96
1903	-1.001	-4.2486	0.	122.
1904	-1.2528	-3.9939	0.	126.95
1905	-0.25	-2.	0.	115.12
1906	0.	-2.25	0.	132.02
1907	0.24079	-2.0152	0.	128.08
1908	-9.5954e-003	-1.7744	0.	123.92
1909	-0.25	-4.	0.	113.7
1910	0.	-3.75	0.	130.48
1911	0.24724	-4.0013	0.	125.13
1912	-5.7848e-004	-4.2503	0.	120.53
1913	-7.	4.75	0.	137.69
1914	-6.75	5.	0.	121.49
1915	-7.0121	5.2417	0.	129.39
1916	-7.2534	4.9973	0.	132.66
1917	-7.	3.25	0.	138.37
1918	-6.75	3.	0.	123.18
1919	-7.0137	2.7355	0.	130.48
1920	-7.2528	3.001	0.	131.83
1921	-5.25	5.	0.	123.32
1922	-5.	4.75	0.	140.04
1923	-4.7463	4.9836	0.	135.12
1924	-4.999	5.2293	0.	131.43
1925	-5.25	3.	0.	123.87
1926	-5.	3.25	0.	139.79
1927	-4.7494	2.9951	0.	133.98
1928	-5.0039	2.7487	0.	130.33
1929	-6.	-1.25	0.	135.43
1930	-5.75	-1.	0.	118.19
1931	-6.2276	-1.0135	0.	130.17
1932	-5.9757	-0.75811	0.	124.26
1933	-6.	-2.75	0.	135.99
1934	-5.75	-3.	0.	116.74
1935	-6.1845	-3.0134	0.	133.74
1936	-5.9733	-3.2502	0.	123.18
1937	-5.25	-1.	0.	118.98
1938	-5.	-1.25	0.	136.54
1939	-4.7451	-1.0159	0.	131.38
1940	-4.9819	-0.75512	0.	127.08
1941	-5.25	-3.	0.	116.25
1942	-5.	-2.75	0.	134.94
1943	-4.7562	-3.0044	0.	130.8
1944	-4.999	-3.2506	0.	123.76
1945	-6.	-4.25	0.	131.17
1946	-5.75	-4.	0.	113.05
1947	-6.1955	-3.9888	0.	129.26
1948	-5.9733	-3.7502	0.	121.4
1949	-6.	-5.75	0.	137.56
1950	-5.75	-6.	0.	119.94
1951	-5.9895	-6.2531	0.	127.09
1952	-6.2268	-6.0129	0.	132.09
1953	-5.25	-4.	0.	113.06
1954	-5.	-4.25	0.	132.26
1955	-4.751	-4.0006	0.	128.89
1956	-4.999	-3.7506	0.	122.23
1957	-5.25	-6.	0.	119.51
1958	-5.	-5.75	0.	135.85
1959	-4.7496	-5.9999	0.	130.68
1960	-4.9976	-6.2504	0.	127.2
1961	9.75	10.	0.	124.83
1962	10.	9.75	0.	125.16
1963	-9.75	10.	0.	125.06
1964	-10.	9.75	0.	124.92
1965	10.	-9.75	0.	127.08
1966	9.75	-10.	0.	126.87
1967	-10.	-9.75	0.	129.09
1968	-9.75	-10.	0.	128.72
1969	4.565	4.675	0.	147.5
1970	4.3216	4.902	0.	138.72
1971	4.2955	4.4543	0.	141.22
1972	5.15	4.965	0.	82.461
1973	5.0098	5.3108	0.	100.18
1974	5.389	5.0611	0.	97.506
1975	5.105	4.31	0.	87.304
1976	4.9499	4.0126	0.	102.74
1977	5.3513	4.1714	0.	97.121
1978	6.194	0.82951	0.	92.537
1979	6.9007	0.32241	0.	141.28
1980	6.1645	-0.16427	0.	87.617
1981	6.3779	-5.0495	0.	112.9
1982	5.9202	-5.7842	0.	99.517
1983	5.4064	-5.0962	0.	119.94
1984	0.57	1.04	0.	150.77
1985	0.32744	1.2466	0.	144.72
1986	0.34733	0.81982	0.	141.2
1987	1.09	1.355	0.	87.412
1988	0.9273	1.6908	0.	104.11
1989	1.3068	1.5015	0.	100.35
1990	1.1	0.745	0.	84.637
1991	0.93692	0.43775	0.	100.73
1992	1.3118	0.6131	0.	98.554
1993	-0.885	2.91	0.	125.12
1994	-0.58963	2.6843	0.	131.28
1995	-0.71134	3.1209	0.	121.7
1996	-1.315	2.39	0.	97.713
1997	-1.1718	2.1206	0.	101.09
1998	-1.6083	2.2197	0.	99.013
1999	-1.55	3.02	0.	88.421
2000	-1.5952	3.2764	0.	103.98
2001	-1.8889	2.928	0.	114.47
2002	-1.495	0.635	0.	83.441
2003	-1.5459	0.93224	0.	101.14
2004	-1.8713	0.52459	0.	109.08
2005	-0.72	0.48	0.	123.07
2006	-0.57129	0.75543	0.	121.27
2007	-0.43655	0.27736	0.	133.59
2008	-1.245	-0.115	0.	107.57
2009	-1.5042	-0.29699	0.	106.49
2010	-0.99839	-0.38522	0.	106.97
2011	-7.34	-4.51	0.	132.3
2012	-7.1815	-4.7901	0.	128.7
2013	-7.0628	-4.3461	0.	138.86
2014	-7.995	-4.65	0.	86.919
2015	-7.975	-4.9817	0.	105.05
2016	-8.3437	-4.677	0.	112.66
2017	-7.785	-4.01	0.	109.09
2018	-7.5724	-3.7263	0.	111.29
2019	-8.0063	-3.8079	0.	108.33
2020	-5.64	7.415	0.	135.85
2021	-5.3433	7.2428	0.	135.01
2022	-5.4518	7.6752	0.	129.56
2023	-6.135	6.945	0.	94.992
2024	-5.9465	6.6563	0.	101.02
2025	-6.398	6.7786	0.	97.714
2026	-6.295	7.61	0.	80.027
2027	-6.2723	7.9708	0.	101.76
2028	-6.6069	7.6096	0.	103.82
2029	-8.4266	0.70373	0.	73.612
2030	-8.342	1.1008	0.	105.41
2031	-8.5594	0.89693	0.	111.33
2032	-8.7858	0.59483	0.	103.18
2033	-7.87	0.49	0.	142.47
2034	-7.6598	0.73874	0.	132.58
2035	-7.6057	0.32213	0.	138.39
2036	-8.335	0.115	0.	95.231
2037	-8.5545	-4.1404e-002	0.	101.3
2038	-8.17	-0.17837	0.	105.11
2039	7.	6.25	0.	148.46
2040	6.7679	6.5091	0.	142.28
2041	7.	5.75	0.	148.07
2042	6.7694	6.007	0.	144.79
2043	6.7731	5.5068	0.	143.14
2044	7.75	7.	0.	118.47
2045	7.5038	7.2511	0.	116.08
2046	8.25	7.	0.	118.62
2047	8.0017	7.2504	0.	118.4
2048	8.5009	7.2501	0.	116.13
2049	7.75	5.	0.	116.91
2050	7.516	4.759	0.	114.45
2051	8.25	5.	0.	117.08
2052	8.0061	4.753	0.	116.71
2053	8.5018	4.7506	0.	114.74
2054	9.	6.25	0.	149.48
2055	9.25	6.5	0.	143.25
2056	9.	5.75	0.	149.35
2057	9.25	6.	0.	144.83
2058	9.25	5.5	0.	142.97
2059	8.	0.25	0.	140.27
2060	7.779	0.46591	0.	136.44
2061	8.	-0.25	0.	142.43
2062	7.7747	-2.6718e-002	0.	138.82
2063	7.7698	-0.51913	0.	140.9
2064	8.5031	1.2455	0.	109.68
2065	8.5058	-1.251	0.	110.59
2066	9.	0.25	0.	143.71
2067	9.25	0.49993	0.	138.66
2068	9.	-0.25	0.	143.93
2069	9.25	-1.576e-005	0.	140.01
2070	9.25	-0.49998	0.	139.16
2071	4.7392	2.5014	0.	135.12
2072	5.4845	3.2327	0.	111.21
2073	5.4953	1.7047	0.	112.66
2074	6.2326	2.534	0.	134.01
2075	-1.2501	-6.4995	0.	134.33
2076	-0.25	-6.	0.	115.39
2077	-0.50021	-5.7497	0.	111.84
2078	0.25	-6.	0.	116.6
2079	2.1236e-004	-5.75	0.	115.82
2080	0.50095	-5.7502	0.	114.96
2081	-0.25	-7.	0.	117.24
2082	-0.50002	-7.25	0.	114.76
2083	0.25	-7.	0.	117.54
2084	-6.8577e-006	-7.25	0.	117.8
2085	0.50003	-7.25	0.	115.3
2086	1.2533	-6.4984	0.	136.
2087	-1.	6.25	0.	138.06
2088	-1.251	6.5097	0.	134.28
2089	-1.	5.75	0.	136.96
2090	-1.2478	6.0174	0.	134.72
2091	-1.2429	5.5285	0.	132.99
2092	-0.49861	7.2498	0.	107.48
2093	-0.50574	4.7651	0.	105.62
2094	0.	6.25	0.	139.17
2095	0.25664	6.4987	0.	135.36
2096	0.	5.75	0.	138.78
2097	0.25556	6.0001	0.	135.93
2098	0.25449	5.5024	0.	134.71
2099	-1.	-2.75	0.	135.23
2100	-1.2592	-2.4882	0.	131.16
2101	-1.	-3.25	0.	135.8
2102	-1.2572	-2.9896	0.	133.
2103	-1.2546	-3.4917	0.	132.55
2104	-0.50844	-1.7704	0.	104.18
2105	-0.50048	-4.2497	0.	103.13
2106	0.	-2.75	0.	136.55
2107	0.24294	-2.5076	0.	133.28
2108	0.	-3.25	0.	135.91
2109	0.2451	-3.0039	0.	133.6
2110	0.24582	-3.5021	0.	131.93
2111	-7.	4.25	0.	142.98
2112	-7.251	4.4991	0.	137.88
2113	-7.	3.75	0.	142.94
2114	-7.2506	3.9998	0.	138.95
2115	-7.251	3.5002	0.	137.43
2116	-6.25	5.	0.	112.16
2117	-6.5132	5.2536	0.	110.32
2118	-5.75	5.	0.	112.86
2119	-6.0105	5.2449	0.	111.11
2120	-5.5045	5.2344	0.	111.37
2121	-6.25	3.	0.	114.96
2122	-6.5113	2.7373	0.	113.44
2123	-5.75	3.	0.	115.29
2124	-6.0067	2.7431	0.	115.45
2125	-5.5043	2.747	0.	113.34
2126	-5.	4.25	0.	145.38
2127	-4.749	4.4885	0.	140.77
2128	-5.	3.75	0.	145.23
2129	-4.7498	3.9906	0.	141.85
2130	-4.7491	3.4924	0.	140.12
2131	-6.	-1.75	0.	141.17
2132	-6.239	-1.5117	0.	136.73
2133	-6.	-2.25	0.	141.72
2134	-6.25	-2.0123	0.	137.63
2135	-6.2601	-2.52	0.	137.44
2136	-5.482	-0.7545	0.	107.18
2137	-5.4924	-3.2501	0.	101.04
2138	-5.	-1.75	0.	141.61
2139	-4.7546	-1.5144	0.	138.03
2140	-5.	-2.25	0.	141.32
2141	-4.7596	-2.0112	0.	139.12
2142	-4.7598	-2.5076	0.	137.62
2143	-6.	-4.75	0.	138.44
2144	-6.2161	-4.4837	0.	134.35
2145	-6.	-5.25	0.	141.59
2146	-6.2437	-4.9855	0.	138.98
2147	-6.2878	-5.509	0.	138.88
2148	-5.4924	-3.7501	0.	99.405
2149	-5.4953	-6.251	0.	109.07
2150	-5.	-4.75	0.	138.94
2151	-4.7504	-4.5	0.	135.09
2152	-5.	-5.25	0.	139.87
2153	-4.7501	-4.9998	0.	136.62
2154	-4.7499	-5.4998	0.	136.23
2155	9.25	10.	0.	124.28
2156	9.5001	9.75	0.	125.02
2157	8.75	10.	0.	123.3
2158	9.0002	9.7501	0.	123.97
2159	8.25	10.	0.	122.53
2160	8.5004	9.7502	0.	122.99
2161	7.75	10.	0.	122.33
2162	8.0006	9.7503	0.	122.52
2163	7.25	10.	0.	122.74
2164	7.5011	9.7507	0.	122.71
2165	6.75	10.	0.	123.57
2166	7.0017	9.7513	0.	123.42
2167	6.25	10.	0.	124.53
2168	6.5025	9.7522	0.	124.32
2169	5.75	10.	0.	125.38
2170	6.0035	9.7533	0.	125.14
2171	5.25	10.	0.	126.03
2172	5.5046	9.7543	0.	125.75
2173	4.75	10.	0.	126.5
2174	5.0052	9.7548	0.	126.17
2175	4.25	10.	0.	126.84
2176	4.5052	9.754	0.	126.48
2177	3.75	10.	0.	127.1
2178	4.005	9.7519	0.	126.73
2179	3.25	10.	0.	127.28
2180	3.505	9.7491	0.	126.93
2181	2.75	10.	0.	127.34
2182	3.0051	9.7471	0.	127.06
2183	2.25	10.	0.	127.24
2184	2.5051	9.7465	0.	127.07
2185	1.75	10.	0.	126.91
2186	2.0047	9.7467	0.	126.92
2187	1.25	10.	0.	126.34
2188	1.5042	9.7473	0.	126.57
2189	0.75	10.	0.	125.61
2190	1.0035	9.7479	0.	126.
2191	0.25	10.	0.	124.88
2192	0.50256	9.7485	0.	125.29
2193	-0.25	10.	0.	124.39
2194	1.5147e-003	9.749	0.	124.64
2195	-0.75	10.	0.	124.31
2196	-0.4997	9.7494	0.	124.32
2197	-1.25	10.	0.	124.66
2198	-1.0013	9.7494	0.	124.47
2199	-1.75	10.	0.	125.28
2200	-1.5032	9.7493	0.	124.98
2201	-2.25	10.	0.	125.95
2202	-2.0053	9.7489	0.	125.59
2203	-2.75	10.	0.	126.5
2204	-2.5075	9.7485	0.	126.11
2205	-3.25	10.	0.	126.79
2206	-3.0094	9.7479	0.	126.45
2207	-3.75	10.	0.	126.69
2208	-3.5108	9.7484	0.	126.56
2209	-4.25	10.	0.	126.02
2210	-4.0097	9.7519	0.	126.38
2211	-4.75	10.	0.	124.61
2212	-4.5054	9.7589	0.	125.75
2213	-5.25	10.	0.	122.75
2214	-5.0015	9.7571	0.	124.29
2215	-5.75	10.	0.	121.27
2216	-5.5024	9.7453	0.	122.35
2217	-6.25	10.	0.	120.9
2218	-6.0054	9.7377	0.	121.1
2219	-6.75	10.	0.	121.73
2220	-6.507	9.7551	0.	121.6
2221	-7.25	10.	0.	123.2
2222	-7.0074	9.7572	0.	123.14
2223	-7.75	10.	0.	124.48
2224	-7.5051	9.7522	0.	124.47
2225	-8.25	10.	0.	125.16
2226	-8.0028	9.7494	0.	125.16
2227	-8.75	10.	0.	125.32
2228	-8.5014	9.7491	0.	125.34
2229	-9.25	10.	0.	125.19
2230	-9.0007	9.7495	0.	125.24
2231	-9.5003	9.7499	0.	125.03
2232	10.	9.25	0.	126.56
2233	9.7501	9.5	0.	125.35
2234	10.	8.75	0.	129.55
2235	9.7501	9.	0.	127.15
2236	10.	8.25	0.	133.51
2237	9.7502	8.5	0.	129.77
2238	10.	7.75	0.	136.47
2239	9.7503	8.	0.	133.02
2240	10.	7.25	0.	135.73
2241	9.7502	7.5	0.	136.12
2242	10.	6.75	0.	132.
2243	9.75	7.	0.	134.84
2244	10.	6.25	0.	129.54
2245	9.75	6.5	0.	133.87
2246	10.	5.75	0.	129.18
2247	9.75	6.	0.	134.27
2248	10.	5.25	0.	131.05
2249	9.75	5.5	0.	133.36
2250	10.	4.75	0.	134.57
2251	9.75	4.9999	0.	133.92
2252	10.	4.25	0.	135.67
2253	9.7499	4.4998	0.	135.22
2254	10.	3.75	0.	133.69
2255	9.7492	3.9995	0.	132.59
2256	10.	3.25	0.	131.34
2257	9.7481	3.4993	0.	130.23
2258	10.	2.75	0.	130.48
2259	9.7474	2.9993	0.	128.93
2260	10.	2.25	0.	131.32
2261	9.7478	2.4993	0.	128.81
2262	10.	1.75	0.	132.48
2263	9.749	1.9994	0.	130.
2264	10.	1.25	0.	131.52
2265	9.7501	1.4995	0.	132.05
2266	10.	0.75	0.	128.75
2267	9.7501	0.99976	0.	130.93
2268	10.	0.25	0.	127.54
2269	9.75	0.49993	0.	130.66
2270	10.	-0.25	0.	128.16
2271	9.75	-1.576e-005	0.	131.83
2272	10.	-0.75	0.	130.37
2273	9.75	-0.49998	0.	131.58
2274	10.	-1.25	0.	133.51
2275	9.7503	-0.99987	0.	132.42
2276	10.	-1.75	0.	134.12
2277	9.7517	-1.4997	0.	133.51
2278	10.	-2.25	0.	131.92
2279	9.7535	-1.9996	0.	131.01
2280	10.	-2.75	0.	129.3
2281	9.7555	-2.4993	0.	128.88
2282	10.	-3.25	0.	127.38
2283	9.758	-2.9989	0.	127.43
2284	10.	-3.75	0.	125.99
2285	9.7605	-3.4985	0.	126.35
2286	10.	-4.25	0.	124.94
2287	9.7628	-3.9983	0.	125.46
2288	10.	-4.75	0.	124.23
2289	9.7636	-4.4982	0.	124.77
2290	10.	-5.25	0.	123.96
2291	9.7636	-4.9982	0.	124.36
2292	10.	-5.75	0.	124.15
2293	9.7628	-5.4983	0.	124.35
2294	10.	-6.25	0.	124.71
2295	9.7605	-5.9989	0.	124.71
2296	10.	-6.75	0.	125.42
2297	9.7573	-6.4994	0.	125.27
2298	10.	-7.25	0.	126.07
2299	9.7537	-6.9996	0.	125.85
2300	10.	-7.75	0.	126.55
2301	9.7511	-7.4995	0.	126.31
2302	10.	-8.25	0.	126.84
2303	9.7499	-7.9994	0.	126.6
2304	10.	-8.75	0.	126.99
2305	9.7496	-8.4994	0.	126.77
2306	10.	-9.25	0.	127.06
2307	9.7496	-8.9995	0.	126.84
2308	9.7498	-9.4997	0.	126.87
2309	-10.	9.25	0.	124.58
2310	-9.7503	9.4999	0.	124.9
2311	-10.	8.75	0.	124.11
2312	-9.7506	8.9997	0.	124.6
2313	-10.	8.25	0.	123.75
2314	-9.7512	8.4997	0.	124.33
2315	-10.	7.75	0.	123.7
2316	-9.7525	7.9999	0.	124.2
2317	-10.	7.25	0.	124.09
2318	-9.754	7.4999	0.	124.38
2319	-10.	6.75	0.	124.84
2320	-9.7546	6.9996	0.	124.96
2321	-10.	6.25	0.	125.62
2322	-9.7535	6.4996	0.	125.76
2323	-10.	5.75	0.	126.
2324	-9.7522	5.9997	0.	126.38
2325	-10.	5.25	0.	125.85
2326	-9.7512	5.4998	0.	126.53
2327	-10.	4.75	0.	125.43
2328	-9.7506	4.9998	0.	126.25
2329	-10.	4.25	0.	125.28
2330	-9.7503	4.4997	0.	125.91
2331	-10.	3.75	0.	125.92
2332	-9.7502	3.9991	0.	125.99
2333	-10.	3.25	0.	127.64
2334	-9.7499	3.4979	0.	126.81
2335	-10.	2.75	0.	130.36
2336	-9.7491	2.996	0.	128.45
2337	-10.	2.25	0.	133.53
2338	-9.7464	2.4931	0.	130.73
2339	-10.	1.7499	0.	135.49
2340	-9.7399	1.9905	0.	133.13
2341	-10.	1.2499	0.	132.82
2342	-9.7289	1.491	0.	134.77
2343	-10.	0.7499	0.	127.48
2344	-9.7167	1.0016	0.	133.99
2345	-10.	0.24992	0.	126.64
2346	-9.7353	0.51879	0.	127.46
2347	-10.	-0.25007	0.	131.84
2348	-9.7042	2.0863e-002	0.	131.83
2349	-10.	-0.75006	0.	136.43
2350	-9.7593	-0.50594	0.	135.61
2351	-10.	-1.25	0.	136.5
2352	-9.7698	-1.0151	0.	134.87
2353	-10.	-1.75	0.	135.16
2354	-9.7553	-1.5192	0.	133.44
2355	-10.	-2.25	0.	134.41
2356	-9.7577	-2.022	0.	132.78
2357	-10.	-2.75	0.	133.5
2358	-9.772	-2.5134	0.	132.79
2359	-10.	-3.25	0.	130.94
2360	-9.7578	-3.0092	0.	132.45
2361	-10.	-3.75	0.	126.48
2362	-9.8085	-3.4993	0.	130.03
2363	-10.	-4.25	0.	123.29
2364	-9.7968	-3.9853	0.	126.1
2365	-10.	-4.75	0.	124.42
2366	-9.7824	-4.4825	0.	125.04
2367	-10.	-5.25	0.	128.19
2368	-9.7703	-4.9839	0.	127.85
2369	-10.	-5.75	0.	131.19
2370	-9.768	-5.4873	0.	130.5
2371	-10.	-6.25	0.	132.21
2372	-9.7672	-5.9919	0.	131.48
2373	-10.	-6.75	0.	131.92
2374	-9.7631	-6.4957	0.	131.27
2375	-10.	-7.25	0.	131.19
2376	-9.7567	-6.9974	0.	130.67
2377	-10.	-7.75	0.	130.48
2378	-9.7523	-7.498	0.	130.06
2379	-10.	-8.25	0.	129.9
2380	-9.7504	-7.9983	0.	129.57
2381	-10.	-8.75	0.	129.49
2382	-9.7498	-8.4987	0.	129.19
2383	-10.	-9.25	0.	129.22
2384	-9.7498	-8.9991	0.	128.93
2385	-9.7498	-9.4995	0.	128.77
2386	-9.25	-10.	0.	127.94
2387	-9.4998	-9.7495	0.	128.4
2388	-8.75	-10.	0.	127.02
2389	-8.9997	-9.7489	0.	127.5
2390	-8.25	-10.	0.	126.08
2391	-8.4998	-9.7485	0.	126.54
2392	-7.75	-10.	0.	125.19
2393	-7.9998	-9.7487	0.	125.6
2394	-7.25	-10.	0.	124.44
2395	-7.4998	-9.749	0.	124.77
2396	-6.75	-10.	0.	123.87
2397	-6.9998	-9.7499	0.	124.09
2398	-6.25	-10.	0.	123.56
2399	-6.4997	-9.7503	0.	123.62
2400	-5.75	-10.	0.	123.55
2401	-5.9997	-9.7504	0.	123.44
2402	-5.25	-10.	0.	123.88
2403	-5.4997	-9.7504	0.	123.6
2404	-4.75	-10.	0.	124.47
2405	-4.9999	-9.7502	0.	124.09
2406	-4.25	-10.	0.	125.19
2407	-4.5	-9.7501	0.	124.81
2408	-3.75	-10.	0.	125.86
2409	-4.	-9.7501	0.	125.58
2410	-3.25	-10.	0.	126.29
2411	-3.5	-9.75	0.	126.2
2412	-2.75	-10.	0.	126.31
2413	-3.	-9.75	0.	126.48
2414	-2.25	-10.	0.	125.79
2415	-2.5	-9.75	0.	126.27
2416	-1.75	-10.	0.	124.73
2417	-2.	-9.75	0.	125.47
2418	-1.25	-10.	0.	123.31
2419	-1.5	-9.75	0.	124.13
2420	-0.75	-10.	0.	121.96
2421	-1.	-9.75	0.	122.55
2422	-0.25	-10.	0.	121.17
2423	-0.50002	-9.75	0.	121.27
2424	0.25	-10.	0.	121.28
2425	-2.3739e-005	-9.75	0.	120.85
2426	0.75	-10.	0.	122.29
2427	0.49996	-9.75	0.	121.5
2428	1.25	-10.	0.	123.84
2429	0.99992	-9.75	0.	122.98
2430	1.75	-10.	0.	125.42
2431	1.4999	-9.7501	0.	124.74
2432	2.25	-10.	0.	126.64
2433	1.9998	-9.7501	0.	126.24
2434	2.75	-10.	0.	127.31
2435	2.4997	-9.7502	0.	127.19
2436	3.25	-10.	0.	127.46
2437	2.9995	-9.7504	0.	127.56
2438	3.75	-10.	0.	127.2
2439	3.4993	-9.7507	0.	127.45
2440	4.25	-10.	0.	126.67
2441	3.9991	-9.751	0.	127.
2442	4.75	-10.	0.	126.02
2443	4.4989	-9.7512	0.	126.36
2444	5.25	-10.	0.	125.41
2445	4.9989	-9.7512	0.	125.67
2446	5.75	-10.	0.	124.96
2447	5.499	-9.7509	0.	125.1
2448	6.25	-10.	0.	124.77
2449	5.9991	-9.7504	0.	124.76
2450	6.75	-10.	0.	124.82
2451	6.4992	-9.7497	0.	124.71
2452	7.25	-10.	0.	125.06
2453	6.9993	-9.749	0.	124.9
2454	7.75	-10.	0.	125.4
2455	7.4993	-9.7486	0.	125.22
2456	8.25	-10.	0.	125.76
2457	7.9993	-9.7485	0.	125.59
2458	8.75	-10.	0.	126.12
2459	8.4993	-9.7488	0.	125.95
2460	9.25	-10.	0.	126.48
2461	8.9996	-9.7493	0.	126.3
2462	9.4998	-9.7497	0.	126.66
2463	2.9129	-3.232	0.	129.25
2464	2.9001	-2.7338	0.	129.4
2465	3.1464	-2.9891	0.	129.45
2466	2.6713	-2.985	0.	128.98
2467	2.9127	-3.7266	0.	129.15
2468	2.6765	-3.4829	0.	128.92
2469	3.1501	-3.4866	0.	129.38
2470	3.1248	-2.4885	0.	129.61
2471	3.3437	-2.245	0.	129.83
2472	3.3711	-2.7437	0.	129.66
2473	3.5938	-2.5051	0.	129.59
2474	2.8757	-2.2379	0.	129.69
2475	2.6528	-2.4867	0.	129.24
2476	3.5567	-2.0053	0.	129.8
2477	3.0946	-1.9943	0.	129.91
2478	3.311	-1.7432	0.	130.09
2479	4.0172	-2.0295	0.	129.28
2480	3.8068	-2.2654	0.	129.56
2481	3.7705	-1.7611	0.	129.75
2482	2.9164	-4.2127	0.	128.99
2483	2.6778	-3.9785	0.	128.98
2484	3.1395	-3.9773	0.	129.2
2485	3.3836	-3.2436	0.	129.58
2486	3.6175	-3.0073	0.	129.57
2487	4.4753	-2.0652	0.	128.25
2488	4.2704	-2.2974	0.	128.78
2489	4.2287	-1.7918	0.	129.09
2490	4.06	-2.5332	0.	129.06
2491	3.8402	-2.7686	0.	129.5
2492	2.4348	-3.2359	0.	128.65
2493	2.4416	-3.7348	0.	128.74
2494	2.1987	-3.49	0.	128.24
2495	2.424	-2.7379	0.	128.82
2496	2.1914	-2.9914	0.	128.26
2497	2.8481	-1.7411	0.	130.1
2498	2.6277	-1.9916	0.	129.67
2499	3.5248	-1.4989	0.	130.03
2500	3.9821	-1.5234	0.	129.56
2501	3.7451	-1.2541	0.	129.75
2502	3.0645	-1.4899	0.	130.27
2503	3.2822	-1.2339	0.	130.28
2504	3.126	-4.4569	0.	128.76
2505	2.6998	-4.4689	0.	129.01
2506	3.0178	-4.7025	0.	128.49
2507	3.6206	-3.506	0.	129.65
2508	3.3768	-3.7372	0.	129.43
2509	4.7278	-2.3349	0.	127.37
2510	4.685	-1.8338	0.	127.96
2511	4.9301	-2.1066	0.	126.63
2512	4.3083	-2.8001	0.	128.74
2513	4.5229	-2.5671	0.	127.89
2514	4.0885	-3.0355	0.	129.17
2515	3.8546	-3.2697	0.	129.63
2516	4.2021	-1.2837	0.	129.25
2517	4.4385	-1.5605	0.	128.8
2518	2.4612	-4.2347	0.	128.99
2519	2.2059	-3.9895	0.	128.59
2520	2.1779	-2.494	0.	128.62
2521	2.4048	-2.2404	0.	129.22
2522	2.8223	-1.2355	0.	130.58
2523	2.6023	-1.495	0.	130.15
2524	3.2635	-0.72389	0.	130.21
2525	3.04	-0.97952	0.	130.58
2526	3.5025	-0.98902	0.	129.99
2527	1.9552	-3.2456	0.	127.85
2528	1.7099	-3.	0.	127.51
2529	1.9453	-2.7476	0.	128.06
2530	3.2214	-4.7065	0.	128.36
2531	3.5486	-4.4862	0.	128.57
2532	3.3491	-4.2215	0.	128.97
2533	5.8266	-2.1791	0.	123.13
2534	5.6363	-2.4041	0.	123.49
2535	5.5941	-1.9352	0.	123.72
2536	5.3812	-2.1501	0.	124.69
2537	4.3273	-3.3016	0.	129.17
2538	4.5578	-3.068	0.	128.
2539	4.4288	-1.0546	0.	129.12
2540	4.2011	-0.77691	0.	128.65
2541	3.9651	-1.0144	0.	129.44
2542	2.3158	6.4619	0.	127.91
2543	1.7993	6.4784	0.	127.65
2544	2.0603	6.721	0.	127.73
2545	2.0526	6.2243	0.	127.59
2546	-3.7574	1.2945	0.	131.38
2547	-3.4326	1.4806	0.	133.87
2548	-3.8454	1.5337	0.	131.56
2549	-3.6082	1.753	0.	132.93
2550	1.7589	3.5452	0.	127.92
2551	1.269	3.5301	0.	125.73
2552	1.5245	3.3173	0.	126.35
2553	1.5121	3.7878	0.	127.27
2554	6.0377	-1.9808	0.	122.21
2555	6.2575	-1.8936	0.	122.26
2556	6.0487	-1.5557	0.	120.76
2557	5.8052	-1.7369	0.	122.8
2558	2.2335	-4.4902	0.	129.16
2559	2.5097	-4.7334	0.	129.09
2560	1.963	-3.7447	0.	128.09
2561	1.7169	-3.4982	0.	127.42
2562	3.5024	-6.7567	0.	127.88
2563	3.248	-7.0044	0.	127.81
2564	3.4942	-7.2572	0.	128.04
2565	3.7435	-7.0109	0.	128.25
2566	3.494	-0.47814	0.	129.48
2567	3.0239	-0.46964	0.	130.73
2568	3.2596	-0.2168	0.	129.75
2569	3.7388	-0.23502	0.	128.32
2570	3.9691	-0.50576	0.	128.47
2571	3.733	-0.74327	0.	129.26
2572	1.2251	-3.0063	0.	127.29
2573	1.4716	-3.2526	0.	127.08
2574	1.4641	-2.757	0.	127.46
2575	-2.7544	6.0093	0.	128.98
2576	-2.2607	6.0494	0.	128.18
2577	-2.5184	6.2806	0.	128.06
2578	-2.481	5.8263	0.	128.36
2579	-2.3916	3.5105	0.	132.66
2580	-2.7997	3.4856	0.	132.65
2581	-2.581	3.7284	0.	133.05
2582	-2.5134	3.3394	0.	133.67
2583	2.5788	-0.98777	0.	130.72
2584	2.8004	-0.72527	0.	131.1
2585	4.9818	-2.6025	0.	126.12
2586	4.7724	-2.835	0.	127.16
2587	3.8445	-3.7678	0.	129.65
2588	4.0933	-3.5357	0.	129.63
2589	4.8967	-1.6106	0.	127.4
2590	4.6652	-1.3314	0.	128.67
2591	1.9311	-2.2521	0.	128.56
2592	1.6995	-2.5046	0.	128.01
2593	2.3819	-1.7455	0.	129.72
2594	2.1579	-1.9985	0.	129.16
2595	2.3589	-1.2473	0.	130.3
2596	2.1358	-1.5074	0.	129.61
2597	2.0329	5.2402	0.	127.61
2598	2.2928	5.4752	0.	127.72
2599	2.0429	5.7308	0.	127.52
2600	1.7831	5.4911	0.	127.55
2601	3.3836	-4.9772	0.	127.66
2602	3.09	-5.2152	0.	127.8
2603	2.8277	-4.9671	0.	128.57
2604	3.2615	-6.5015	0.	127.47
2605	3.0244	-6.2438	0.	127.19
2606	3.0071	-6.7492	0.	127.39
2607	2.764	-6.4955	0.	127.06
2608	-3.2506	-4.9958	0.	129.37
2609	-3.7503	-4.9975	0.	129.7
2610	-3.5002	-5.2471	0.	129.02
2611	-3.501	-4.7456	0.	129.8
2612	-3.0005	-5.2458	0.	128.99
2613	-2.751	-4.9942	0.	129.6
2614	-3.0018	-4.7422	0.	129.7
2615	-3.6207	1.0273	0.	131.3
2616	-4.1522	1.0385	0.	127.87
2617	-3.9619	1.3054	0.	130.17
2618	-3.8721	0.78319	0.	129.45
2619	-2.9451	5.704	0.	130.03
2620	-3.2342	5.9628	0.	130.76
2621	-3.0002	6.2305	0.	129.19
2622	-3.2729	3.9444	0.	132.48
2623	-3.7561	3.956	0.	132.8
2624	-3.507	4.1962	0.	132.52
2625	-3.5009	3.6985	0.	132.
2626	3.5231	-6.2544	0.	127.5
2627	3.7559	-6.5114	0.	128.25
2628	3.9086	-5.0174	0.	127.
2629	3.6182	-5.2507	0.	127.05
2630	3.7107	-4.7568	0.	127.86
2631	-3.2959	1.2133	0.	133.79
2632	-3.3258	0.73591	0.	131.35
2633	-3.1513	0.94463	0.	133.05
2634	2.5285	4.7357	0.	128.12
2635	2.5163	4.2512	0.	129.14
2636	2.2704	4.501	0.	128.3
2637	2.775	4.484	0.	128.69
2638	2.007	3.7845	0.	128.87
2639	2.2599	4.017	0.	129.25
2640	2.014	4.2668	0.	128.41
2641	1.7602	4.0271	0.	128.23
2642	1.9993	3.3058	0.	129.32
2643	2.2512	3.5352	0.	130.2
2644	2.2812	4.9869	0.	127.76
2645	2.5411	5.2219	0.	127.86
2646	2.7884	4.9673	0.	127.97
2647	2.5677	6.2041	0.	128.19
2648	2.5799	6.7022	0.	128.03
2649	2.8329	6.4355	0.	128.52
2650	6.2684	-2.0994	0.	122.61
2651	6.0902	-2.4056	0.	122.55
2652	6.5456	-2.2946	0.	122.98
2653	6.8396	-2.5537	0.	123.87
2654	6.6322	-2.8198	0.	123.34
2655	6.3675	-2.6007	0.	122.92
2656	4.8755	7.0949	0.	123.34
2657	4.6284	7.3491	0.	124.04
2658	4.6405	6.8793	0.	122.4
2659	4.4042	7.1458	0.	124.16
2660	2.8177	5.941	0.	128.8
2661	2.5543	5.7109	0.	128.07
2662	2.3045	5.9665	0.	127.87
2663	2.7614	4.0006	0.	130.61
2664	2.5041	3.7676	0.	130.58
2665	3.286	-5.9966	0.	127.22
2666	3.7854	-6.0104	0.	127.62
2667	3.5596	-5.751	0.	127.06
2668	-2.6716	5.5209	0.	129.42
2669	-2.67	5.3243	0.	129.58
2670	-3.1803	5.4383	0.	131.55
2671	-2.9416	5.1689	0.	130.91
2672	-2.9999	-6.249	0.	127.64
2673	-2.7499	-6.4993	0.	127.06
2674	-2.9998	-6.7496	0.	127.49
2675	-3.2496	-6.4995	0.	127.89
2676	-3.0123	-3.7252	0.	130.33
2677	-2.7686	-3.465	0.	129.62
2678	-3.2659	-3.4787	0.	131.21
2679	-3.0288	-3.2044	0.	130.28
2680	-3.0001	-5.7476	0.	128.21
2681	-3.2501	-5.4971	0.	128.64
2682	-2.7504	-5.4966	0.	128.71
2683	-2.75	-5.9983	0.	127.63
2684	-3.2498	-5.9984	0.	128.11
2685	3.051	-5.7343	0.	127.36
2686	2.7821	-5.9895	0.	127.34
2687	2.8057	-5.4806	0.	128.01
2688	3.3246	-5.4886	0.	127.2
2689	2.0232	4.7523	0.	127.94
2690	1.7665	4.5136	0.	128.2
2691	1.7746	5.0013	0.	127.82
2692	-2.7582	-3.9796	0.	129.91
2693	-3.2564	-3.9867	0.	130.84
2694	-3.005	-4.2358	0.	130.17
2695	1.6845	-2.0127	0.	128.66
2696	1.9118	-1.7603	0.	129.05
2697	-4.6922	1.0033	0.	123.41
2698	-4.4204	0.75509	0.	125.57
2699	-4.4639	1.2601	0.	126.24
2700	-4.9451	0.74479	0.	120.7
2701	-4.9705	1.246	0.	121.5
2702	-5.2088	0.99101	0.	119.34
2703	5.1284	-1.3905	0.	127.12
2704	5.3547	-1.6685	0.	125.11
2705	5.1418	-1.8834	0.	126.08
2706	3.8002	-4.2637	0.	129.03
2707	3.6007	-3.9991	0.	129.44
2708	4.0701	-4.0328	0.	129.82
2709	5.4392	-2.6283	0.	124.19
2710	5.233	-2.8653	0.	124.88
2711	5.1841	-2.3742	0.	125.39
2712	5.693	-2.876	0.	122.77
2713	5.9	-2.6306	0.	122.91
2714	-3.026	4.179	0.	132.43
2715	-3.0225	3.6945	0.	132.38
2716	-2.8038	3.9373	0.	132.79
2717	-3.2602	4.4309	0.	132.48
2718	-2.7755	4.392	0.	131.8
2719	-2.9982	4.6613	0.	131.87
2720	2.3363	-0.74111	0.	131.1
2721	2.1153	-1.0068	0.	129.87
2722	2.2349	3.0544	0.	131.03
2723	2.4536	2.798	0.	132.99
2724	2.4868	3.2838	0.	131.9
2725	2.724	3.0313	0.	133.33
2726	1.9702	2.83	0.	130.24
2727	1.7648	3.0779	0.	127.76
2728	-2.3155	3.3274	0.	133.16
2729	-2.154	3.693	0.	130.96
2730	-1.9887	3.4289	0.	127.25
2731	3.5044	2.6329e-002	0.	128.6
2732	3.7621	0.26762	0.	127.69
2733	3.9913	-1.3902e-003	0.	127.07
2734	1.3941	-0.33543	0.	123.69
2735	1.1622	-0.14069	0.	118.05
2736	1.61	-5.8517e-002	0.	127.15
2737	1.3679	0.13904	0.	123.57
2738	1.4099	-0.81184	0.	125.86
2739	1.6326	-0.54638	0.	126.99
2740	1.1695	-0.5981	0.	123.28
2741	-3.0426	7.2381	0.	127.42
2742	-2.7782	6.9965	0.	127.69
2743	-3.2872	6.9783	0.	127.76
2744	-3.0233	6.7367	0.	128.18
2745	2.9983	-7.252	0.	127.88
2746	2.7525	-6.9992	0.	127.54
2747	5.1225	6.8215	0.	121.93
2748	5.3494	7.0645	0.	124.54
2749	5.1021	7.3187	0.	124.24
2750	7.6629	-4.2265	0.	126.53
2751	7.6487	-4.7096	0.	125.7
2752	7.8929	-4.4742	0.	125.91
2753	7.4507	-4.4513	0.	127.43
2754	7.6478	-3.7405	0.	126.22
2755	7.4359	-3.9836	0.	127.11
2756	7.8891	-3.9859	0.	126.21
2757	7.6166	-3.2527	0.	125.24
2758	7.4036	-3.5043	0.	125.79
2759	7.8666	-3.4953	0.	125.48
2760	1.9782	-4.2449	0.	128.76
2761	1.7232	-3.9975	0.	127.84
2762	-6.2132	0.95708	0.	118.31
2763	-5.9808	1.2231	0.	116.96
2764	-5.9545	0.72163	0.	116.85
2765	-5.7154	0.97948	0.	117.35
2766	-5.7614	1.9844	0.	115.93
2767	-6.277	1.9674	0.	117.05
2768	-6.0149	2.233	0.	114.33
2769	-6.0055	1.7266	0.	115.94
2770	-4.2505	3.9724	0.	135.51
2771	-3.9978	3.7155	0.	132.67
2772	-3.9998	4.2118	0.	133.31
2773	-4.0007	-4.7483	0.	130.31
2774	-4.0001	-5.2485	0.	129.63
2775	-4.2502	-4.999	0.	131.86
2776	2.0037	-4.7445	0.	129.65
2777	1.7418	-4.4978	0.	128.72
2778	-1.9844	5.827	0.	127.77
2779	-2.0032	6.2914	0.	127.92
2780	-1.7472	6.0449	0.	129.85
2781	0.9778	-2.7631	0.	127.53
2782	0.98305	-3.2568	0.	126.87
2783	0.73572	-3.0083	0.	129.08
2784	6.5134	-1.7445	0.	121.84
2785	6.7571	-2.0207	0.	123.93
2786	7.5808	-2.7629	0.	124.56
2787	7.8363	-3.0054	0.	124.43
2788	7.3636	-3.0178	0.	124.66
2789	7.3193	-2.5235	0.	124.41
2790	7.051	-2.2798	0.	124.81
2791	7.102	-2.7785	0.	124.51
2792	-3.7495	-7.5002	0.	127.31
2793	-3.4996	-7.25	0.	127.84
2794	-3.2498	-7.5	0.	127.68
2795	-3.4998	-7.7501	0.	127.4
2796	-7.2355	-7.4966	0.	124.66
2797	-7.4748	-7.2404	0.	124.64
2798	-7.7413	-7.4766	0.	124.94
2799	-7.491	-7.7395	0.	124.73
2800	1.4771	-3.7509	0.	127.17
2801	1.2296	-3.5031	0.	126.66
2802	-6.4801	1.1926	0.	119.92
2803	-6.4433	0.6926	0.	119.44
2804	-6.7006	0.91145	0.	121.73
2805	5.8363	-1.2795	0.	121.8
2806	6.0833	-1.0996	0.	117.61
2807	6.3045	-1.4065	0.	120.33
2808	5.369	6.5656	0.	122.41
2809	4.8875	6.6058	0.	120.97
2810	5.1574	6.2921	0.	117.89
2811	-3.2506	3.4486	0.	131.91
2812	-2.9444	3.1851	0.	131.36
2813	-2.9953	1.389	0.	136.
2814	-3.1741	1.6733	0.	135.17
2815	7.5634	-6.6735	0.	128.17
2816	7.4758	-7.1921	0.	127.23
2817	7.2043	-6.9482	0.	127.09
2818	7.7407	-6.9451	0.	127.63
2819	7.3716	-6.6743	0.	129.08
2820	7.6419	-5.1969	0.	124.69
2821	7.8735	-4.9613	0.	124.85
2822	7.3694	-4.9232	0.	125.91
2823	4.0183	-6.2674	0.	128.36
2824	4.2472	-6.5218	0.	129.63
2825	3.997	-6.7656	0.	128.61
2826	5.9618	-7.262	0.	120.8
2827	5.7083	-7.0187	0.	120.77
2828	5.9424	-6.7681	0.	116.97
2829	6.1972	-7.0073	0.	120.91
2830	4.4841	-7.2683	0.	127.75
2831	4.4877	-6.7739	0.	129.45
2832	4.2375	-7.0176	0.	128.42
2833	4.7293	-7.0227	0.	127.27
2834	5.5959	6.8086	0.	125.04
2835	5.8388	6.5501	0.	127.07
2836	5.6244	6.3249	0.	124.82
2837	4.598	7.8174	0.	125.1
2838	4.855	7.5729	0.	124.93
2839	4.3865	7.5844	0.	124.97
2840	-3.4694	5.697	0.	132.27
2841	-3.4974	6.2058	0.	130.83
2842	-3.7352	5.9454	0.	133.02
2843	-3.4913	4.6927	0.	132.78
2844	-3.7507	4.452	0.	133.04
2845	-4.2736	1.527	0.	128.54
2846	-4.0459	1.7777	0.	131.14
2847	-5.2378	1.4916	0.	119.88
2848	-5.4974	1.738	0.	117.34
2849	-5.7414	1.4801	0.	117.33
2850	-5.476	1.2366	0.	117.71
2851	-3.7426	3.458	0.	131.88
2852	-3.4762	3.2002	0.	131.39
2853	-3.8088	1.997	0.	132.51
2854	-3.3497	1.9457	0.	134.23
2855	-3.5438	2.2227	0.	132.55
2856	-6.7343	-7.5056	0.	124.08
2857	-6.9881	-7.7526	0.	124.34
2858	-6.9728	-7.2551	0.	125.19
2859	-7.4246	-6.7537	0.	124.31
2860	-7.7287	-6.9517	0.	124.44
2861	-7.2121	-6.9989	0.	125.17
2862	-4.2485	-7.5006	0.	126.1
2863	-3.9987	-7.2502	0.	127.65
2864	-3.9993	-7.7504	0.	126.64
2865	-5.7408	-7.5049	0.	121.19
2866	-5.4943	-7.7533	0.	121.42
2867	-5.491	-7.2536	0.	119.38
2868	-5.2442	-7.5028	0.	121.59
2869	-3.4998	-5.748	0.	128.54
2870	-3.75	-5.4981	0.	128.94
2871	-3.2496	-6.9998	0.	127.8
2872	-3.4994	-6.7497	0.	128.19
2873	-3.7489	-7.	0.	128.17
2874	-3.7513	-4.4964	0.	130.42
2875	-3.5037	-4.2429	0.	130.82
2876	-3.2523	-4.492	0.	130.14
2877	-3.5536	-2.7597	0.	131.82
2878	-3.8084	-2.5271	0.	132.11
2879	-3.3321	-2.4515	0.	131.19
2880	-3.5723	-2.2991	0.	131.85
2881	2.5434	-5.2325	0.	128.78
2882	2.2799	-4.9878	0.	129.58
2883	-2.5	-6.7494	0.	126.87
2884	-2.5001	-6.2486	0.	127.04
2885	-2.25	-6.499	0.	126.15
2886	-2.9998	-7.2498	0.	127.64
2887	-2.7498	-6.9996	0.	127.31
2888	-3.	-7.75	0.	127.72
2889	-2.75	-7.4999	0.	127.85
2890	2.5094	-6.7455	0.	127.2
2891	2.2628	-6.4943	0.	126.74
2892	2.5216	-6.2412	0.	127.21
2893	7.8697	-6.4458	0.	127.82
2894	7.4659	-6.4254	0.	129.35
2895	7.6619	-6.1809	0.	127.69
2896	7.2279	-7.4703	0.	125.88
2897	7.7378	-7.4678	0.	126.71
2898	7.4859	-7.7206	0.	126.18
2899	6.7216	-7.488	0.	124.15
2900	6.9565	-7.2264	0.	125.74
2901	6.98	-7.7327	0.	125.02
2902	6.2203	-7.5032	0.	122.54
2903	6.4769	-7.7471	0.	123.44
2904	6.4558	-7.2485	0.	122.67
2905	5.7229	-7.5124	0.	122.51
2906	5.9772	-7.7573	0.	122.63
2907	5.4694	-7.2692	0.	122.5
2908	5.4795	-7.7631	0.	123.47
2909	5.2274	-7.5167	0.	124.2
2910	4.2368	-7.5136	0.	127.53
2911	4.4866	-7.7636	0.	126.88
2912	4.7324	-7.5167	0.	126.25
2913	3.7408	-7.5092	0.	128.
2914	3.9899	-7.7601	0.	127.71
2915	3.9902	-7.2629	0.	128.2
2916	3.2444	-7.5048	0.	128.12
2917	3.4932	-7.7563	0.	128.06
2918	2.7473	-7.5016	0.	128.32
2919	2.9959	-7.7529	0.	128.26
2920	-2.519	6.7615	0.	127.78
2921	-2.261	6.5225	0.	127.8
2922	-2.7642	6.5017	0.	128.27
2923	-4.1225	7.7171	0.	126.57
2924	-4.3528	7.4328	0.	125.53
2925	-4.0714	7.2003	0.	126.83
2926	-3.8351	7.4666	0.	126.41
2927	-2.7936	7.4942	0.	127.36
2928	-3.0572	7.739	0.	126.99
2929	-3.3136	7.4828	0.	126.89
2930	1.2842	6.489	0.	127.9
2931	1.5436	6.7332	0.	127.8
2932	1.5384	6.2374	0.	127.56
2933	2.0629	7.2204	0.	127.84
2934	2.3243	6.9612	0.	127.85
2935	1.8045	6.9758	0.	127.89
2936	1.8037	7.4758	0.	128.1
2937	2.057	7.7226	0.	127.79
2938	2.3245	7.464	0.	127.72
2939	-2.4377	5.4122	0.	128.64
2940	-2.2047	5.6038	0.	127.96
2941	-2.2963	-2.4284	0.	127.82
2942	-2.5468	-2.6743	0.	128.71
2943	-2.8229	-2.3932	0.	129.75
2944	-2.5497	-2.1453	0.	129.47
2945	-2.5025	-4.7404	0.	129.9
2946	-2.5009	-5.2449	0.	129.32
2947	-2.2518	-4.9928	0.	129.96
2948	-2.5287	-3.2	0.	128.73
2949	-2.5146	-3.7194	0.	129.2
2950	-2.2682	-3.4655	0.	128.42
2951	1.1802	-1.0666	0.	127.25
2952	1.424	-1.2925	0.	127.99
2953	1.6502	-1.0346	0.	128.22
2954	1.453	-2.2651	0.	128.1
2955	1.2168	-2.5138	0.	127.7
2956	-3.5153	-1.403	0.	132.82
2957	-3.7744	-1.6105	0.	132.45
2958	-3.5494	-1.8608	0.	132.23
2959	-3.2858	-1.7241	0.	132.2
2960	-5.1921	0.49044	0.	118.49
2961	-5.6948	0.4788	0.	116.64
2962	-5.4463	0.23708	0.	115.58
2963	-5.4558	0.73665	0.	117.13
2964	-3.5772	0.49184	0.	129.5
2965	-4.1403	0.49979	0.	127.15
2966	-3.8886	0.23111	0.	129.32
2967	-3.2596	-1.21	0.	133.57
2968	-2.9965	-0.9999	0.	134.96
2969	-3.0301	-1.5311	0.	132.95
2970	-2.7704	-1.3111	0.	133.28
2971	4.8969	-1.1113	0.	128.38
2972	4.6741	-0.82761	0.	128.86
2973	4.2216	-0.27214	0.	127.21
2974	4.4465	-0.54994	0.	128.39
2975	4.2079	-4.7883	0.	127.95
2976	4.4138	-5.0442	0.	126.36
2977	4.1247	-5.2772	0.	126.39
2978	4.5696	-3.5681	0.	128.88
2979	4.3189	-3.8007	0.	129.8
2980	7.1917	-3.7474	0.	126.68
2981	6.9396	-3.5267	0.	125.04
2982	7.1505	-3.2694	0.	125.21
2983	5.0237	-3.0977	0.	125.92
2984	4.8002	-3.3345	0.	127.71
2985	6.4265	-3.0814	0.	122.69
2986	6.6838	-3.3019	0.	123.81
2987	6.8947	-3.0446	0.	123.98
2988	2.5578	-0.4786	0.	131.48
2989	2.7842	-0.21615	0.	131.37
2990	1.7106	2.6185	0.	127.74
2991	1.2742	2.7994	0.	123.05
2992	1.5053	2.8665	0.	125.25
2993	1.4188	2.427	0.	123.95
2994	3.4187	2.2682	0.	132.35
2995	3.6994	2.5115	0.	131.89
2996	3.4601	2.7623	0.	134.23
2997	3.1862	2.5227	0.	133.48
2998	3.2682	0.28614	0.	129.01
2999	3.0199	3.6696e-002	0.	130.39
3000	3.526	0.52742	0.	128.1
3001	4.0267	0.50213	0.	126.65
3002	3.7988	0.76693	0.	128.21
3003	-7.5298	-2.2623	0.	120.41
3004	-7.2953	-2.5086	0.	122.87
3005	-7.5566	-2.7559	0.	118.09
3006	-7.7925	-2.5218	0.	119.63
3007	-7.7893	-1.9978	0.	120.23
3008	-7.2588	-2.0204	0.	123.58
3009	-7.4763	-1.7695	0.	121.91
3010	-7.9835	-1.7169	0.	119.16
3011	-8.3117	-2.0594	0.	121.04
3012	-8.2838	-1.8459	0.	120.19
3013	-8.0519	-2.2574	0.	119.46
3014	-8.2462	-3.092	0.	122.62
3015	-8.0151	-3.3055	0.	116.39
3016	-7.7947	-3.0276	0.	117.02
3017	-8.0305	-2.7935	0.	118.64
3018	3.2874	0.78514	0.	128.55
3019	3.0203	0.54026	0.	128.98
3020	3.3232	1.2804	0.	129.31
3021	3.0331	1.0388	0.	128.71
3022	3.5602	1.0246	0.	128.66
3023	2.1889	2.5737	0.	132.2
3024	2.4006	2.3086	0.	134.45
3025	2.6816	2.5423	0.	133.68
3026	1.9088	2.3537	0.	132.05
3027	2.0939	-0.50351	0.	130.58
3028	1.8484	-0.26946	0.	130.44
3029	1.8729	-0.76918	0.	129.36
3030	2.3125	-0.23216	0.	132.74
3031	-2.3435	3.9109	0.	131.34
3032	-2.5533	4.1503	0.	132.16
3033	5.9548	-3.1077	0.	122.13
3034	6.2122	-3.3402	0.	121.33
3035	6.1617	-2.8623	0.	122.28
3036	5.4868	-3.113	0.	123.46
3037	5.738	-3.3619	0.	121.38
3038	5.2717	-3.3599	0.	124.44
3039	6.9835	-3.9965	0.	127.58
3040	7.2236	-4.2083	0.	128.
3041	4.5051	-4.5584	0.	129.79
3042	4.01	-4.5277	0.	128.82
3043	4.2799	-4.2967	0.	129.6
3044	5.3666	-1.1828	0.	125.86
3045	5.1445	-0.89151	0.	128.96
3046	5.6166	-0.97681	0.	124.75
3047	5.5929	-1.4608	0.	123.84
3048	-3.0247	0.39178	0.	130.21
3049	-3.3382	0.19588	0.	130.31
3050	-3.1097	0.69221	0.	131.79
3051	-4.6733	0.4966	0.	122.87
3052	-4.418	0.24121	0.	126.14
3053	-4.939	0.24201	0.	120.2
3054	-3.7472	-1.1162	0.	132.73
3055	-3.4804	-0.89457	0.	132.95
3056	1.2063	-2.0258	0.	128.63
3057	1.4387	-1.7771	0.	128.56
3058	-2.5065	-4.2322	0.	129.74
3059	-2.2542	-4.4869	0.	130.
3060	-2.7533	-4.4884	0.	130.
3061	1.5179	4.7627	0.	128.08
3062	1.2625	4.52	0.	128.61
3063	1.5127	4.2739	0.	128.02
3064	1.2678	5.0096	0.	128.37
3065	1.5248	5.2522	0.	127.77
3066	-2.4642	5.0104	0.	129.38
3067	-2.2027	5.1849	0.	128.01
3068	-2.5132	4.5857	0.	130.65
3069	-2.2476	4.7619	0.	128.67
3070	-2.7359	4.855	0.	130.71
3071	1.5416	7.7312	0.	128.22
3072	1.2879	7.4843	0.	128.72
3073	1.5453	7.2311	0.	128.15
3074	-2.5292	7.2525	0.	127.64
3075	-2.5383	7.7478	0.	127.41
3076	-2.2783	7.5024	0.	127.97
3077	-2.2691	7.0094	0.	127.95
3078	2.5016	-7.2488	0.	127.97
3079	2.498	-7.7507	0.	128.61
3080	2.2494	-7.4996	0.	129.01
3081	2.2548	-6.9969	0.	127.78
3082	-2.25	-6.9996	0.	127.2
3083	-2.5	-7.2497	0.	127.51
3084	2.2849	-5.4875	0.	129.33
3085	2.5368	-5.7358	0.	128.
3086	-2.5003	-5.7473	0.	128.13
3087	-2.2507	-5.4961	0.	129.11
3088	-2.2502	-5.9979	0.	127.44
3089	7.4574	3.2688	0.	121.92
3090	7.4268	2.7272	0.	123.4
3091	7.1958	3.0404	0.	124.75
3092	7.7045	2.9999	0.	121.32
3093	3.3715	1.7742	0.	130.87
3094	3.6589	2.0154	0.	131.27
3095	3.1381	2.0288	0.	132.32
3096	3.6094	1.5202	0.	130.33
3097	3.0821	1.5337	0.	130.18
3098	-3.4994	-6.2489	0.	128.36
3099	-3.7488	-6.4994	0.	128.85
3100	-3.7494	-5.9987	0.	128.89
3101	-4.4983	-7.7508	0.	125.
3102	-4.4972	-7.2507	0.	125.97
3103	-4.7466	-7.5014	0.	123.82
3104	-6.237	-7.5068	0.	122.61
3105	-6.4889	-7.7562	0.	123.41
3106	-6.4784	-7.2585	0.	124.4
3107	-5.9855	-7.2565	0.	121.23
3108	-5.9913	-7.7553	0.	121.98
3109	-4.7423	1.5028	0.	124.34
3110	-4.9969	1.7468	0.	122.46
3111	-4.5079	1.7573	0.	127.95
3112	-3.468	5.1925	0.	132.8
3113	-3.7326	4.9477	0.	133.69
3114	-3.2293	4.9231	0.	132.16
3115	-3.7171	5.4447	0.	134.03
3116	5.5775	7.3015	0.	126.4
3117	5.5591	7.7929	0.	127.16
3118	5.8086	7.5405	0.	128.58
3119	5.3302	7.5557	0.	126.1
3120	5.8233	7.0461	0.	127.83
3121	5.46	-6.7771	0.	121.38
3122	5.2195	-7.0235	0.	124.08
3123	4.2758	-6.0254	0.	129.
3124	4.06	-5.7699	0.	127.01
3125	7.8831	-5.4538	0.	124.59
3126	7.4206	-5.4374	0.	124.89
3127	7.6585	-5.69	0.	125.65
3128	6.8992	-6.7253	0.	127.61
3129	6.6907	-6.9869	0.	124.26
3130	-2.7223	1.5702	0.	137.92
3131	-2.5016	1.2969	0.	134.85
3132	-2.8507	1.1203	0.	135.25
3133	-6.783	-2.5245	0.	129.52
3134	-7.0243	-2.2667	0.	126.04
3135	-7.0842	-2.747	0.	126.3
3136	3.005	3.7502	0.	132.48
3137	3.2656	3.9863	0.	132.72
3138	3.0201	4.2334	0.	130.16
3139	3.2512	3.5033	0.	135.22
3140	2.7477	3.5172	0.	132.45
3141	2.9849	3.2648	0.	133.87
3142	3.3303	5.903	0.	130.45
3143	3.066	5.6823	0.	129.15
3144	3.0828	6.1724	0.	129.13
3145	4.39	6.6927	0.	123.33
3146	4.6416	6.4052	0.	120.22
3147	3.8844	6.8045	0.	126.28
3148	4.1537	6.9593	0.	125.09
3149	4.1289	6.5097	0.	126.24
3150	6.3318	-0.92576	0.	116.31
3151	5.8637	-0.79687	0.	120.56
3152	6.1151	-0.62568	0.	115.85
3153	-4.0064	-1.3237	0.	132.35
3154	-4.2648	-1.5497	0.	133.53
3155	-4.0308	-1.8094	0.	132.63
3156	0.97012	-2.2745	0.	128.22
3157	0.73011	-2.5163	0.	128.77
3158	-1.7279	5.5779	0.	128.65
3159	-1.9697	5.3765	0.	127.32
3160	1.0286	6.7413	0.	128.46
3161	0.77016	6.4953	0.	129.82
3162	1.025	6.2454	0.	128.35
3163	7.1662	2.5257	0.	124.41
3164	6.9353	2.8389	0.	125.76
3165	6.9425	2.3981	0.	125.03
3166	6.6959	2.5869	0.	126.46
3167	-4.0024	-4.2486	0.	131.56
3168	-4.251	-4.4991	0.	131.22
3169	-5.2565	1.9932	0.	119.93
3170	-5.5075	2.2415	0.	115.35
3171	-6.8004	6.1969	0.	122.39
3172	-6.8204	5.9945	0.	120.88
3173	-6.5516	5.7783	0.	112.44
3174	-6.5097	6.2984	0.	112.05
3175	-6.3011	6.0105	0.	109.06
3176	-2.6581	3.0389	0.	132.38
3177	-2.2609	3.0829	0.	137.85
3178	3.526	4.2195	0.	131.7
3179	3.7872	4.4551	0.	131.29
3180	3.5423	4.6954	0.	128.95
3181	3.2806	4.4666	0.	129.15
3182	4.9115	6.0915	0.	117.01
3183	5.1159	5.775	0.	113.51
3184	5.4128	6.0514	0.	120.28
3185	5.4058	5.8241	0.	121.29
3186	0.75643	2.4852	0.	118.72
3187	0.959	2.1749	0.	114.53
3188	1.025	2.688	0.	119.15
3189	1.1696	2.3156	0.	119.97
3190	-4.2588	6.4243	0.	131.79
3191	-3.7613	6.4494	0.	130.54
3192	-4.0284	6.691	0.	129.36
3193	-3.9991	6.189	0.	132.72
3194	1.234	-4.0018	0.	126.83
3195	1.4868	-4.2503	0.	127.79
3196	0.93764	-0.40337	0.	117.79
3197	0.7059	-0.19875	0.	118.53
3198	0.94306	2.6127e-002	0.	111.15
3199	0.93981	-0.85287	0.	124.74
3200	0.69725	-0.63153	0.	124.16
3201	7.7236	3.5159	0.	119.78
3202	7.1935	3.5642	0.	124.89
3203	7.4956	3.7775	0.	119.82
3204	-8.2491	-7.4692	0.	125.67
3205	-7.9952	-7.188	0.	124.74
3206	-7.996	-7.7225	0.	125.26
3207	-7.1953	8.0267	0.	129.86
3208	-6.9775	8.339	0.	129.08
3209	-6.6806	8.1465	0.	125.42
3210	-6.8502	7.942	0.	131.18
3211	-7.7211	7.9578	0.	128.48
3212	-7.5245	7.6928	0.	127.84
3213	-7.4704	8.213	0.	129.49
3214	-7.2926	7.6875	0.	127.65
3215	-6.5192	1.6994	0.	119.71
3216	-6.749	1.4092	0.	123.37
3217	-6.2477	1.4586	0.	118.59
3218	-8.0021	3.7482	0.	128.24
3219	-8.0042	3.2488	0.	127.43
3220	-8.2521	3.4959	0.	127.06
3221	-7.7522	3.4987	0.	130.
3222	-8.0021	4.2491	0.	129.25
3223	-8.2517	3.9987	0.	128.07
3224	-7.7515	3.9995	0.	131.66
3225	-8.2775	6.4965	0.	129.7
3226	-8.0259	6.2466	0.	131.8
3227	-8.0488	6.743	0.	128.73
3228	-7.7692	6.5055	0.	132.05
3229	-8.0254	7.7332	0.	126.42
3230	-7.8288	7.4682	0.	125.8
3231	-8.2912	7.4905	0.	125.78
3232	-8.0597	7.2378	0.	126.32
3233	-8.254	7.9869	0.	126.6
3234	-7.9983	8.233	0.	127.42
3235	-3.873	7.9806	0.	126.81
3236	-4.1453	8.237	0.	127.36
3237	-4.4398	7.9687	0.	127.71
3238	-3.3292	7.9862	0.	126.75
3239	-3.5931	8.2355	0.	126.74
3240	-3.5856	7.73	0.	126.65
3241	-2.8019	7.9927	0.	127.04
3242	-3.0611	8.24	0.	126.75
3243	-2.5408	8.2455	0.	126.93
3244	-2.2831	7.9983	0.	127.32
3245	1.7948	7.978	0.	127.9
3246	1.5333	8.2334	0.	127.79
3247	1.283	7.9848	0.	128.23
3248	2.309	7.97	0.	127.49
3249	2.0433	8.2271	0.	127.5
3250	2.8251	7.9619	0.	127.05
3251	2.5765	7.7114	0.	127.43
3252	2.5548	8.2205	0.	127.14
3253	3.3385	7.9637	0.	126.52
3254	3.0655	8.2169	0.	126.73
3255	3.1027	7.6984	0.	127.
3256	3.8401	8.0007	0.	125.95
3257	3.5716	8.2287	0.	126.24
3258	3.6418	7.6899	0.	126.25
3259	4.3323	8.0424	0.	125.59
3260	4.0678	8.274	0.	125.82
3261	4.1207	7.8094	0.	125.46
3262	4.8209	8.0503	0.	125.76
3263	4.5624	8.2919	0.	125.7
3264	5.3068	8.043	0.	126.66
3265	5.053	8.2906	0.	126.12
3266	5.0779	7.8058	0.	125.59
3267	5.5414	8.2827	0.	127.07
3268	5.7931	8.0324	0.	128.09
3269	7.7564	8.0024	0.	118.17
3270	7.2618	8.006	0.	121.97
3271	7.5074	8.2534	0.	120.2
3272	7.5078	7.7528	0.	117.82
3273	8.2535	8.001	0.	118.05
3274	8.0039	7.7511	0.	116.59
3275	8.0043	8.2515	0.	118.36
3276	7.9925	3.7549	0.	116.93
3277	8.2518	4.0034	0.	116.55
3278	8.0085	4.2564	0.	115.01
3279	7.7645	4.0165	0.	116.93
3280	8.2333	3.5002	0.	118.72
3281	7.9707	3.247	0.	119.19
3282	7.8056	-2.512	0.	123.69
3283	7.5484	-2.2686	0.	125.2
3284	8.0611	-2.7545	0.	123.55
3285	8.039	-2.259	0.	122.53
3286	8.2918	-2.5044	0.	122.6
3287	8.0863	-3.248	0.	124.66
3288	8.3124	-2.9999	0.	124.04
3289	8.1079	-3.7407	0.	125.46
3290	8.3347	-3.4941	0.	125.08
3291	8.1191	-4.2335	0.	125.59
3292	8.3496	-3.9885	0.	125.53
3293	8.1177	-4.7259	0.	125.05
3294	8.354	-4.4835	0.	125.3
3295	8.1147	-5.2183	0.	124.74
3296	8.3495	-4.9779	0.	124.75
3297	8.1142	-5.7138	0.	125.43
3298	8.3485	-5.4729	0.	124.89
3299	8.0974	-6.2149	0.	126.62
3300	8.3434	-5.9719	0.	125.84
3301	7.8896	-5.95	0.	126.5
3302	8.0469	-6.7173	0.	127.28
3303	8.316	-6.4759	0.	126.79
3304	8.0027	-7.2208	0.	127.11
3305	8.265	-6.9771	0.	127.06
3306	7.9931	-7.7281	0.	126.57
3307	8.2472	-7.4806	0.	126.76
3308	7.7412	-7.9808	0.	126.05
3309	8.2447	-7.9864	0.	126.36
3310	7.994	-8.2355	0.	126.11
3311	7.2379	-7.9829	0.	125.33
3312	7.4917	-8.2339	0.	125.63
3313	6.7352	-7.9918	0.	124.31
3314	6.9896	-8.2394	0.	124.83
3315	6.2337	-8.0012	0.	123.53
3316	6.4879	-8.2475	0.	123.99
3317	5.7337	-8.0079	0.	123.59
3318	5.9872	-8.2542	0.	123.67
3319	5.235	-8.0114	0.	124.57
3320	5.4874	-8.2585	0.	124.19
3321	4.9885	-8.2602	0.	125.32
3322	4.7372	-8.0118	0.	125.93
3323	4.983	-7.765	0.	125.3
3324	3.7423	-8.0072	0.	127.77
3325	3.9924	-8.2573	0.	127.39
3326	4.2397	-8.01	0.	127.06
3327	3.2447	-8.0043	0.	128.2
3328	3.4945	-8.2549	0.	127.94
3329	2.7466	-8.002	0.	128.55
3330	2.9962	-8.2527	0.	128.29
3331	2.2481	-8.0006	0.	128.93
3332	2.4976	-8.2511	0.	128.52
3333	0.24994	-7.9999	0.	117.44
3334	0.74986	-7.9998	0.	121.02
3335	0.49988	-8.2499	0.	119.21
3336	0.49999	-7.7499	0.	117.05
3337	-7.2494e-005	-8.25	0.	117.46
3338	-3.3146e-005	-7.75	0.	116.11
3339	-0.25005	-8.	0.	117.25
3340	-3.25	-8.0001	0.	127.44
3341	-3.0001	-8.25	0.	127.51
3342	-2.7501	-8.	0.	127.88
3343	-3.5	-8.2501	0.	126.99
3344	-3.7497	-8.0003	0.	126.73
3345	-4.4991	-8.2507	0.	124.78
3346	-4.7481	-8.0013	0.	123.96
3347	-4.2491	-8.0006	0.	125.54
3348	-5.4968	-8.2526	0.	122.49
3349	-5.2466	-8.0024	0.	122.6
3350	-5.7448	-8.0038	0.	122.2
3351	-6.7426	-8.0032	0.	123.67
3352	-6.4946	-8.2539	0.	123.27
3353	-6.2432	-8.0047	0.	122.78
3354	-7.2436	-7.9956	0.	124.4
3355	-6.9947	-8.251	0.	124.04
3356	-7.496	-8.2416	0.	124.7
3357	-7.7457	-7.9854	0.	125.06
3358	-7.1576	-6.5124	0.	125.76
3359	-6.9202	-6.2463	0.	128.58
3360	-6.693	-6.5108	0.	128.79
3361	-6.945	-6.7575	0.	126.61
3362	2.5389	3.0298e-002	0.	132.63
3363	2.772	0.29082	0.	130.35
3364	-7.9949	-6.4544	0.	123.3
3365	-8.3923	-6.4606	0.	125.16
3366	-8.0902	-6.6794	0.	124.14
3367	-8.1933	-6.2168	0.	123.52
3368	6.7315	-3.7758	0.	125.96
3369	6.4695	-3.5607	0.	122.45
3370	4.6187	-5.298	0.	126.62
3371	4.7109	-4.8143	0.	128.18
3372	4.9135	-5.0665	0.	132.48
3373	5.0482	-3.5967	0.	126.23
3374	4.8044	-3.8329	0.	129.53
3375	-2.9393	-0.47212	0.	133.69
3376	-2.7342	-0.78942	0.	136.25
3377	-3.2174	-0.68446	0.	134.34
3378	6.784	-1.5019	0.	123.77
3379	6.553	-1.2327	0.	119.22
3380	7.1822	2.3181	0.	124.88
3381	7.4617	2.1758	0.	126.56
3382	7.6813	2.4606	0.	122.87
3383	7.0277	-1.7781	0.	125.84
3384	7.2802	-2.0249	0.	125.6
3385	-7.8607	-1.2118	0.	118.96
3386	-8.1224	-1.3755	0.	118.57
3387	-7.6705	-1.4885	0.	120.85
3388	-6.9368	-1.2876	0.	128.77
3389	-6.7171	-1.5288	0.	129.94
3390	-6.9795	-1.7793	0.	126.64
3391	-7.1969	-1.5285	0.	124.98
3392	0.98651	-3.7539	0.	126.31
3393	0.73824	-3.5045	0.	127.4
3394	0.94879	-1.3175	0.	128.26
3395	0.70225	-1.0882	0.	128.23
3396	-0.25037	-4.9998	0.	111.67
3397	-0.50086	-4.7493	0.	107.66
3398	-0.50059	-5.2493	0.	111.06
3399	-0.75119	-4.9982	0.	114.35
3400	-1.7774	-2.4614	0.	127.19
3401	-2.0315	-2.7019	0.	127.24
3402	-2.0354	-2.1918	0.	126.97
3403	-1.7654	-0.97186	0.	122.36
3404	-2.0204	-1.1853	0.	128.15
3405	-1.9971	-0.69082	0.	130.42
3406	-2.2523	-0.89007	0.	132.5
3407	-0.74947	7.9996	0.	119.22
3408	-0.24273	7.9975	0.	119.59
3409	-0.49666	7.7492	0.	113.58
3410	-0.4966	8.2485	0.	119.51
3411	-1.7548	6.5235	0.	129.01
3412	-2.0111	6.7705	0.	127.97
3413	2.0153	-6.2437	0.	127.5
3414	2.0082	-6.7456	0.	127.31
3415	1.7589	-6.4957	0.	128.01
3416	1.7492	-7.9998	0.	128.58
3417	1.9995	-7.7495	0.	129.33
3418	1.9987	-8.2502	0.	128.49
3419	-2.0002	-6.2483	0.	126.54
3420	-2.0001	-6.7492	0.	126.47
3421	-1.7501	-6.499	0.	126.85
3422	-1.7523	-4.9931	0.	128.7
3423	-2.0016	-5.2439	0.	129.74
3424	-2.0035	-4.7393	0.	130.06
3425	3.9756	2.7581	0.	132.25
3426	4.2183	2.5053	0.	130.29
3427	3.9396	2.2588	0.	130.81
3428	-3.9996	-5.7488	0.	129.28
3429	-4.2499	-5.4991	0.	130.74
3430	-4.2474	-7.0003	0.	127.52
3431	-3.9983	-6.7498	0.	128.83
3432	-4.2801	2.008	0.	130.54
3433	-4.0271	2.2506	0.	132.31
3434	-6.813	1.9313	0.	123.18
3435	-6.5301	2.2147	0.	116.89
3436	-8.0042	4.7481	0.	130.56
3437	-8.2522	4.4989	0.	128.94
3438	-7.7521	4.4986	0.	131.43
3439	5.6941	-6.5264	0.	117.49
3440	5.9263	-6.2749	0.	107.76
3441	6.1672	-6.513	0.	117.66
3442	4.5048	-6.2798	0.	130.25
3443	4.7339	-6.5299	0.	129.93
3444	7.1481	-5.1637	0.	126.03
3445	6.8558	-4.9498	0.	133.53
3446	7.1714	-4.6649	0.	127.62
3447	6.9704	-4.6774	0.	127.9
3448	7.0665	-6.4514	0.	129.57
3449	7.2558	-6.1826	0.	129.8
3450	3.4923	3.2538	0.	136.12
3451	3.7363	3.0089	0.	134.58
3452	3.226	3.0153	0.	134.78
3453	0.54175	2.7951	0.	121.05
3454	0.81029	2.9979	0.	121.42
3455	0.53523	3.2891	0.	122.83
3456	0.29538	3.0673	0.	122.67
3457	-6.8935	0.16627	0.	124.35
3458	-7.1375	0.37767	0.	126.13
3459	-6.6655	0.4241	0.	120.57
3460	-6.9228	0.64295	0.	122.85
3461	-7.5964	-1.0024	0.	122.77
3462	-8.0309	-0.90754	0.	116.19
3463	-7.7979	-0.74092	0.	119.22
3464	-7.1461	-1.0383	0.	128.42
3465	-7.4062	-1.2792	0.	124.64
3466	-7.3577	-0.79492	0.	131.79
3467	-6.6498	-5.8533e-002	0.	124.55
3468	-7.1108	-8.3224e-002	0.	128.34
3469	-6.8862	-0.31228	0.	129.29
3470	-7.0428	1.6411	0.	126.76
3471	-7.2358	1.3018	0.	130.59
3472	-6.9695	1.128	0.	125.13
3473	0.53283	2.3132	0.	120.63
3474	0.30714	2.586	0.	122.4
3475	4.6169	5.9438	0.	117.25
3476	4.3805	6.2222	0.	123.15
3477	3.8409	5.8483	0.	133.21
3478	3.5774	5.6423	0.	131.09
3479	3.5963	6.122	0.	130.52
3480	3.5118	3.7394	0.	135.45
3481	3.772	3.9825	0.	136.35
3482	3.7647	3.5007	0.	139.66
3483	-6.738	-3.2441	0.	142.62
3484	-6.5454	-3.0213	0.	136.39
3485	-6.621	-2.7779	0.	134.16
3486	-6.9222	-3.0005	0.	130.98
3487	-2.9494	2.6582	0.	130.9
3488	-3.17	2.9367	0.	130.83
3489	-2.635	2.7974	0.	126.49
3490	-2.7923	2.325	0.	133.25
3491	-3.0719	2.1516	0.	133.31
3492	-3.2659	2.4286	0.	131.64
3493	-2.6215	2.0279	0.	136.98
3494	-2.9011	1.8545	0.	137.1
3495	-2.4601	1.7589	0.	136.83
3496	-7.3731	7.445	0.	125.71
3497	-7.6221	7.2237	0.	126.53
3498	-7.044	6.1419	0.	128.74
3499	-6.9502	6.5406	0.	134.41
3500	-7.2658	6.4294	0.	131.83
3501	-5.2534	5.9233	0.	121.43
3502	-5.5088	5.6981	0.	112.29
3503	-5.5	6.1473	0.	115.03
3504	-5.767	5.9494	0.	108.57
3505	-4.7537	6.3941	0.	135.48
3506	-4.5251	6.6563	0.	130.17
3507	-4.5005	6.1698	0.	134.05
3508	6.8352	-6.2273	0.	134.33
3509	6.6305	-6.4906	0.	125.06
3510	7.2139	-5.6854	0.	127.4
3511	7.0244	-5.9584	0.	134.59
3512	7.4518	-5.938	0.	128.18
3513	6.9749	-5.4557	0.	122.68
3514	4.5454	-5.7865	0.	128.69
3515	4.8033	-5.5475	0.	124.42
3516	4.3296	-5.531	0.	126.71
3517	4.7534	-6.0383	0.	134.52
3518	5.216	-6.5322	0.	125.11
3519	4.9825	-6.2885	0.	134.19
3520	4.9755	-6.7787	0.	127.79
3521	5.4545	-6.2872	0.	121.95
3522	6.7697	8.0125	0.	126.67
3523	7.0131	8.2578	0.	124.31
3524	7.0156	7.7579	0.	125.56
3525	6.5203	8.2645	0.	127.63
3526	6.5274	7.768	0.	131.03
3527	6.2804	8.0217	0.	128.82
3528	6.2897	7.5263	0.	131.68
3529	6.0544	7.2852	0.	129.99
3530	6.0426	7.78	0.	129.5
3531	-7.2986	5.9629	0.	130.39
3532	-7.0441	5.7114	0.	126.41
3533	-7.5273	5.7375	0.	134.26
3534	-7.7772	5.9916	0.	133.32
3535	-7.5205	6.2504	0.	133.54
3536	-8.2551	4.9981	0.	130.61
3537	-7.7565	4.996	0.	132.14
3538	-8.0103	5.2464	0.	132.4
3539	-8.009	2.7521	0.	126.69
3540	-8.2543	2.9963	0.	126.64
3541	-7.7558	3.0013	0.	128.44
3542	-8.2555	2.4922	0.	125.6
3543	-7.7667	2.5067	0.	128.33
3544	-8.0125	2.2572	0.	124.67
3545	-7.058	2.1894	0.	126.69
3546	-7.3135	1.7759	0.	129.14
3547	-7.3227	1.981	0.	127.48
3548	-4.233	5.4474	0.	136.58
3549	-3.9817	5.1999	0.	134.92
3550	-3.983	5.6931	0.	134.76
3551	-4.9989	6.1482	0.	133.99
3552	-4.9981	5.6888	0.	128.36
3553	-4.7457	5.9239	0.	132.57
3554	-4.7625	2.0013	0.	126.07
3555	-5.0072	2.2474	0.	124.06
3556	-4.5142	2.2512	0.	131.39
3557	-4.2612	2.4938	0.	133.14
3558	-4.001	2.7332	0.	132.53
3559	-3.7621	2.4764	0.	132.36
3560	-5.9806	-6.7565	0.	121.1
3561	-5.7357	-7.0052	0.	119.39
3562	-6.227	-7.0082	0.	123.03
3563	-4.4968	-6.7504	0.	128.64
3564	-4.7451	-7.0011	0.	124.17
3565	-4.2492	-5.9994	0.	129.7
3566	-3.9988	-6.2492	0.	129.38
3567	-4.2528	-4.0001	0.	132.24
3568	-3.7547	-3.9951	0.	131.96
3569	-4.0073	-3.7504	0.	133.38
3570	-4.2682	-3.0099	0.	133.22
3571	-3.7783	-3.0017	0.	132.73
3572	-4.0331	-2.7691	0.	133.02
3573	-4.0175	-3.2565	0.	133.87
3574	4.0087	3.2558	0.	138.16
3575	4.2478	3.0091	0.	131.33
3576	4.1361	1.5047	0.	131.49
3577	3.8968	1.7615	0.	130.74
3578	3.8464	1.2645	0.	129.68
3579	6.9319	3.3358	0.	127.7
3580	6.6995	3.0641	0.	129.28
3581	6.8072	3.8402	0.	129.25
3582	6.6588	3.5769	0.	132.06
3583	7.0039	3.8369	0.	126.41
3584	7.0226	1.9785	0.	127.56
3585	6.7247	2.1449	0.	124.91
3586	-1.7503	-5.998	0.	128.01
3587	-2.0006	-5.7467	0.	128.42
3588	2.0223	-5.7423	0.	129.31
3589	1.7646	-5.9948	0.	129.6
3590	2.2742	-5.9907	0.	127.98
3591	1.7689	-5.4948	0.	131.31
3592	2.0214	-5.2427	0.	130.13
3593	1.0043	-5.2506	0.	125.45
3594	0.99984	-4.7517	0.	125.84
3595	1.2554	-5.	0.	127.55
3596	0.7521	-5.0012	0.	122.3
3597	-2.	-7.2497	0.	128.07
3598	-1.75	-6.9995	0.	128.13
3599	-1.7501	-7.4998	0.	129.74
3600	-2.0001	-7.7499	0.	128.6
3601	-2.25	-7.4998	0.	128.38
3602	-1.0001	-8.25	0.	122.72
3603	-1.0001	-7.75	0.	123.52
3604	-0.75006	-8.	0.	120.5
3605	-1.2501	-7.9999	0.	125.08
3606	1.2497	-7.9997	0.	125.78
3607	0.99973	-8.2499	0.	123.31
3608	1.0001	-7.7497	0.	124.29
3609	1.4994	-8.2498	0.	127.1
3610	1.5001	-7.7493	0.	129.82
3611	2.0027	-7.2477	0.	128.81
3612	1.7505	-7.4989	0.	130.55
3613	1.7542	-6.9971	0.	129.04
3614	-1.0027	7.7509	0.	120.76
3615	-1.2576	8.0009	0.	123.39
3616	-1.0036	8.2498	0.	121.65
3617	-2.0231	7.7528	0.	127.89
3618	-1.7661	7.5051	0.	128.78
3619	-2.0183	7.2593	0.	128.28
3620	0.77284	6.9922	0.	128.96
3621	1.0305	7.2387	0.	128.94
3622	1.2879	6.9855	0.	128.37
3623	9.8615e-003	8.2462	0.	122.23
3624	9.9794e-003	7.7468	0.	121.8
3625	0.26474	7.9944	0.	124.23
3626	0.7579	4.5224	0.	129.63
3627	1.0124	4.7669	0.	128.9
3628	1.0111	4.2731	0.	128.27
3629	-1.27	-1.0328	0.	112.26
3630	-0.7709	-1.0726	0.	111.25
3631	-1.0157	-0.8312	0.	106.44
3632	-1.0201	-1.2913	0.	111.48
3633	-1.5215	-1.2481	0.	119.37
3634	-1.5118	-0.76885	0.	112.98
3635	-1.7766	-1.4615	0.	125.11
3636	-2.0315	-1.6856	0.	127.52
3637	-2.2761	-1.3959	0.	130.23
3638	-1.7571	-3.9838	0.	128.5
3639	-2.259	-3.9785	0.	129.24
3640	-2.0067	-4.2332	0.	129.5
3641	-2.0126	-3.7246	0.	128.46
3642	-1.5029	-4.7428	0.	128.21
3643	-1.5017	-5.2453	0.	128.43
3644	-1.2519	-4.9956	0.	122.62
3645	0.72374	-2.0309	0.	128.89
3646	0.96009	-1.7921	0.	129.05
3647	-5.6432e-004	-4.7505	0.	113.78
3648	2.2653e-004	-5.2502	0.	112.99
3649	0.2505	-5.0008	0.	115.86
3650	0.74132	-4.0029	0.	125.66
3651	0.99231	-4.2526	0.	126.27
3652	-6.4216	-0.29005	0.	125.91
3653	-6.4219	0.1993	0.	120.78
3654	-6.1762	-3.5274e-002	0.	119.34
3655	-6.6863	-1.034	0.	130.41
3656	-6.9033	-0.79688	0.	131.03
3657	-3.9753	-0.82125	0.	131.96
3658	-4.2413	-1.0544	0.	131.83
3659	-4.2092	-0.54716	0.	131.3
3660	-3.9324	-0.30181	0.	130.67
3661	-3.7085	-0.5996	0.	132.17
3662	-4.9527	-0.26001	0.	121.03
3663	-4.6836	-1.337e-002	0.	123.49
3664	-5.1932	-1.134e-002	0.	117.29
3665	7.758	1.9364	0.	125.7
3666	8.2472	1.9777	0.	120.4
3667	8.0094	1.7185	0.	123.52
3668	7.9776	2.2213	0.	122.02
3669	7.3021	1.8362	0.	129.19
3670	7.5358	1.6555	0.	132.97
3671	8.2754	-2.0068	0.	120.66
3672	8.0236	-1.7601	0.	122.84
3673	7.7818	-2.0156	0.	124.05
3674	7.0923	1.5396	0.	135.35
3675	6.8226	1.7089	0.	126.18
3676	7.0391	-1.2822	0.	127.55
3677	7.2774	-1.5265	0.	128.78
3678	6.8081	-1.0129	0.	123.05
3679	6.5822	-0.76902	0.	112.5
3680	7.0614	-0.80242	0.	134.63
3681	7.2891	-1.0323	0.	131.37
3682	-2.834	4.5588e-002	0.	130.88
3683	-2.543	0.23204	0.	127.63
3684	-2.6376	0.53063	0.	132.25
3685	-2.6701	-0.27156	0.	137.73
3686	-3.1476	-0.15031	0.	131.02
3687	-0.51869	-1.3137	0.	109.7
3688	-0.27303	-1.089	0.	119.44
3689	-0.51557	-0.86643	0.	118.29
3690	0.4655	-0.42691	0.	125.09
3691	0.2181	-0.63348	0.	132.61
3692	0.45969	-0.86685	0.	127.67
3693	0.22719	-0.16835	0.	125.99
3694	0.51276	-5.632e-002	0.	121.38
3695	5.3945	-0.68553	0.	127.82
3696	5.1806	-0.38376	0.	129.93
3697	4.9217	-0.60786	0.	129.42
3698	5.6556	-0.47102	0.	127.03
3699	5.3884	1.1528	0.	123.18
3700	5.5982	1.1618	0.	121.6
3701	5.7664	1.4714	0.	117.49
3702	5.2109	1.4401	0.	122.14
3703	4.7426	0.18722	0.	124.34
3704	4.961	-9.7142e-002	0.	127.28
3705	4.4772	-4.3436e-002	0.	125.51
3706	4.7021	-0.32125	0.	126.68
3707	4.7982	0.69879	0.	125.19
3708	5.0582	0.92626	0.	128.24
3709	4.8806	1.2135	0.	127.17
3710	4.5808	0.97407	0.	127.42
3711	4.5212	0.46378	0.	124.89
3712	5.0092	0.41541	0.	121.66
3713	5.0275	-4.5897	0.	132.1
3714	4.7788	-4.3272	0.	130.62
3715	6.523	-4.0395	0.	123.64
3716	6.7958	-4.2349	0.	128.4
3717	5.5228	-3.6088	0.	122.36
3718	5.2966	-3.8603	0.	125.33
3719	5.9953	-3.5944	0.	120.55
3720	6.261	-3.8243	0.	120.11
3721	5.7823	-3.8654	0.	117.75
3722	-1.8724	3.8186	0.	125.43
3723	-2.0805	4.0891	0.	129.26
3724	0.24997	4.0396	0.	124.8
3725	0.50618	4.2782	0.	128.49
3726	0.5151	3.7851	0.	125.53
3727	0.75936	4.0289	0.	127.12
3728	-1.3031e-003	3.8078	0.	123.33
3729	-0.26466	3.5743	0.	124.52
3730	0.26383	3.5533	0.	124.07
3731	2.3974e-002	3.3315	0.	123.9
3732	-0.26891	4.0503	0.	120.34
3733	-4.9384e-003	4.2847	0.	121.99
3734	-8.4173	-5.4979	0.	128.37
3735	-7.9758	-5.5292	0.	118.71
3736	-8.1527	-5.344	0.	125.33
3737	-8.2019	-5.764	0.	124.4
3738	6.4849	4.066	0.	132.76
3739	6.6648	4.3132	0.	131.36
3740	6.8912	4.0775	0.	127.22
3741	2.0671	1.8926e-003	0.	132.57
3742	1.805	0.24033	0.	133.25
3743	2.2788	0.28017	0.	133.79
3744	2.331	1.8109	0.	134.66
3745	2.6246	2.0495	0.	134.21
3746	2.1205	2.0886	0.	134.27
3747	2.7659	0.79392	0.	129.12
3748	2.5119	0.54068	0.	131.58
3749	2.7919	1.2922	0.	129.57
3750	2.4809	1.0476	0.	127.93
3751	2.5551	1.5497	0.	132.12
3752	2.8487	1.7883	0.	131.62
3753	-7.5959	-6.4891	0.	123.38
3754	-7.7908	-6.2346	0.	121.31
3755	-7.9	-6.6871	0.	123.52
3756	-7.3746	-6.2946	0.	123.28
3757	-7.0947	-5.8326	0.	127.22
3758	-6.683	-6.0049	0.	130.99
3759	-6.744	-5.7511	0.	132.35
3760	-7.1372	-6.0286	0.	126.11
3761	-8.6328	-5.7129	0.	129.59
3762	-8.8536	-5.4522	0.	131.87
3763	-8.5884	-5.1626	0.	135.82
3764	-8.6163	-6.2228	0.	127.25
3765	-8.8546	-5.9714	0.	129.14
3766	-8.4173	-5.979	0.	125.61
3767	-8.5634	-6.7228	0.	126.21
3768	-8.8281	-6.4788	0.	127.55
3769	-8.5151	-7.2228	0.	126.12
3770	-8.7761	-6.9791	0.	127.
3771	-8.2612	-6.9416	0.	125.19
3772	-8.501	-7.7289	0.	126.31
3773	-8.7549	-7.4815	0.	126.97
3774	-8.4988	-8.2365	0.	126.45
3775	-8.7498	-7.9866	0.	127.03
3776	-8.2479	-7.9821	0.	125.9
3777	8.4926	3.7486	0.	118.38
3778	8.7481	3.9993	0.	120.61
3779	8.5011	4.2505	0.	116.14
3780	8.4822	3.2453	0.	119.66
3781	8.7391	3.4972	0.	121.19
3782	8.4788	2.7416	0.	120.12
3783	8.7328	2.9949	0.	121.59
3784	8.2195	2.9922	0.	120.12
3785	8.4879	2.2392	0.	119.19
3786	8.7349	2.4929	0.	121.35
3787	8.2183	2.4827	0.	120.81
3788	8.7461	1.9922	0.	119.92
3789	8.501	1.7398	0.	114.75
3790	8.5282	-2.2522	0.	120.75
3791	8.7678	-2.0014	0.	120.98
3792	8.5166	-1.7525	0.	115.65
3793	8.5431	-2.7498	0.	123.09
3794	8.7787	-2.5	0.	123.12
3795	8.5608	-3.246	0.	124.46
3796	8.7919	-2.9977	0.	124.44
3797	8.5763	-3.7418	0.	125.15
3798	8.8068	-3.4945	0.	125.16
3799	8.5845	-4.2385	0.	125.24
3800	8.8175	-3.9917	0.	125.35
3801	8.5858	-4.7355	0.	124.99
3802	8.8214	-4.4895	0.	125.14
3803	8.5833	-5.2326	0.	124.89
3804	8.8202	-4.9876	0.	124.87
3805	8.5777	-5.731	0.	125.29
3806	8.8171	-5.4859	0.	124.97
3807	8.562	-6.2329	0.	126.01
3808	8.8091	-5.9867	0.	125.51
3809	8.5341	-6.7357	0.	126.56
3810	8.7903	-6.4898	0.	126.14
3811	8.7658	-6.9911	0.	126.5
3812	8.5096	-7.2369	0.	126.7
3813	8.4965	-8.2416	0.	126.31
3814	8.7476	-7.9932	0.	126.42
3815	8.4988	-7.7389	0.	126.55
3816	8.2457	-8.4907	0.	126.06
3817	8.7473	-8.4947	0.	126.29
3818	8.497	-8.7438	0.	126.12
3819	7.7444	-8.4886	0.	125.69
3820	7.9959	-8.7409	0.	125.82
3821	7.2434	-8.4903	0.	125.13
3822	7.4953	-8.7411	0.	125.37
3823	6.7423	-8.495	0.	124.51
3824	6.9947	-8.744	0.	124.83
3825	6.2414	-8.5005	0.	124.13
3826	6.4939	-8.7483	0.	124.37
3827	5.7408	-8.5049	0.	124.26
3828	5.9932	-8.7524	0.	124.26
3829	5.2409	-8.5074	0.	124.93
3830	5.4928	-8.7553	0.	124.67
3831	4.7417	-8.5079	0.	125.9
3832	4.9931	-8.7565	0.	125.47
3833	4.243	-8.5069	0.	126.84
3834	4.4938	-8.7563	0.	126.39
3835	4.4903	-8.2596	0.	126.51
3836	3.7446	-8.5051	0.	127.56
3837	3.995	-8.755	0.	127.19
3838	3.246	-8.5033	0.	128.03
3839	3.4963	-8.7534	0.	127.75
3840	2.7472	-8.5018	0.	128.25
3841	2.9973	-8.7521	0.	128.04
3842	2.2482	-8.5008	0.	128.07
3843	2.4981	-8.7511	0.	128.
3844	1.749	-8.5002	0.	127.
3845	1.9989	-8.7504	0.	127.36
3846	1.2495	-8.5	0.	124.63
3847	1.4994	-8.7501	0.	125.7
3848	0.74975	-8.4999	0.	121.51
3849	0.9997	-8.75	0.	123.03
3850	0.24987	-8.5	0.	119.2
3851	0.49984	-8.75	0.	120.4
3852	-0.25008	-8.5	0.	119.05
3853	-9.0835e-005	-8.75	0.	119.22
3854	-0.75006	-8.5	0.	121.1
3855	-0.50006	-8.75	0.	120.12
3856	-0.50006	-8.25	0.	118.88
3857	-1.2501	-8.5	0.	124.03
3858	-1.0001	-8.75	0.	122.53
3859	-1.7501	-8.5	0.	126.3
3860	-1.5001	-8.75	0.	125.05
3861	-1.5001	-8.2499	0.	126.39
3862	-2.2501	-8.5	0.	127.31
3863	-2.0001	-8.75	0.	126.62
3864	-2.0001	-8.2499	0.	127.76
3865	-2.7501	-8.5	0.	127.42
3866	-2.5001	-8.75	0.	127.17
3867	-2.5001	-8.25	0.	127.79
3868	-3.2501	-8.5001	0.	127.06
3869	-3.0001	-8.75	0.	127.11
3870	-3.75	-8.5002	0.	126.35
3871	-3.5001	-8.7501	0.	126.63
3872	-4.2496	-8.5005	0.	125.33
3873	-3.9999	-8.7503	0.	125.81
3874	-3.9996	-8.2503	0.	126.09
3875	-4.4996	-8.7505	0.	124.76
3876	-4.749	-8.501	0.	124.17
3877	-5.4983	-8.7518	0.	123.09
3878	-5.2482	-8.5018	0.	123.23
3879	-5.7472	-8.5026	0.	122.85
3880	-6.7466	-8.5017	0.	123.64
3881	-6.4975	-8.7523	0.	123.39
3882	-6.2466	-8.503	0.	123.07
3883	-7.2471	-8.4969	0.	124.34
3884	-6.9977	-8.7501	0.	124.
3885	-7.7478	-8.492	0.	125.11
3886	-7.4982	-8.7447	0.	124.71
3887	-8.2483	-8.4902	0.	126.
3888	-7.9985	-8.7424	0.	125.54
3889	-7.9974	-8.2358	0.	125.46
3890	-8.7489	-8.4915	0.	127.05
3891	-8.4988	-8.7419	0.	126.51
3892	-8.4521	-0.78021	0.	117.35
3893	-8.2169	-0.62293	0.	110.56
3894	-8.2926	-1.0713	0.	115.84
3895	-8.5027	-2.8765	0.	125.94
3896	-8.6859	-3.1859	0.	130.47
3897	-8.4491	-3.3898	0.	130.86
3898	-8.5468	-2.3801	0.	123.56
3899	-8.8007	-2.6574	0.	127.12
3900	-8.287	-2.5781	0.	121.99
3901	-8.5317	-1.9258	0.	121.79
3902	-8.7975	-2.1257	0.	124.73
3903	-8.7483	-1.633	0.	123.19
3904	-8.4226	-1.5046	0.	119.6
3905	-8.6993	-0.92915	0.	121.82
3906	-8.9291	-1.102	0.	125.18
3907	-8.8655	-1.3487	0.	123.83
3908	-8.5398	-1.2202	0.	120.22
3909	8.7519	8.0004	0.	121.92
3910	8.5021	7.7504	0.	117.6
3911	8.5025	8.2507	0.	120.06
3912	-8.4452	1.6626	0.	120.8
3913	-8.6664	1.4091	0.	125.21
3914	-8.1965	1.4516	0.	116.43
3915	-8.4886	2.2164	0.	123.38
3916	-8.7235	1.9556	0.	124.78
3917	-8.2456	1.9813	0.	122.36
3918	-8.5007	2.7365	0.	125.57
3919	-8.7451	2.4788	0.	125.99
3920	-8.5022	3.2434	0.	126.27
3921	-8.7508	2.99	0.	126.39
3922	-8.5017	3.7464	0.	126.89
3923	-8.7512	3.4944	0.	126.61
3924	-8.5019	4.2484	0.	127.76
3925	-8.7513	3.9975	0.	127.03
3926	-8.5031	4.7489	0.	128.98
3927	-8.7518	4.4988	0.	127.84
3928	-8.5063	5.2488	0.	130.21
3929	-8.7534	4.9992	0.	128.91
3930	-8.5115	5.7485	0.	130.64
3931	-8.7567	5.4991	0.	129.71
3932	-8.2615	5.4972	0.	132.01
3933	-8.5196	6.2474	0.	129.7
3934	-8.7619	5.9986	0.	129.47
3935	-8.268	5.9976	0.	131.82
3936	-8.5308	6.7457	0.	127.85
3937	-8.77	6.4973	0.	128.17
3938	-8.5336	7.2449	0.	126.34
3939	-8.7788	6.9964	0.	126.56
3940	-8.3021	6.9922	0.	126.88
3941	-8.5199	7.7441	0.	125.96
3942	-8.7736	7.4966	0.	125.72
3943	-8.5064	8.2433	0.	126.2
3944	-8.7592	7.9954	0.	125.77
3945	-8.2507	8.4894	0.	127.01
3946	-8.5032	8.7444	0.	126.14
3947	-8.7535	8.4954	0.	125.91
3948	-7.7476	8.4882	0.	128.43
3949	-8.0019	8.7401	0.	127.21
3950	-7.2526	8.5253	0.	128.67
3951	-7.5045	8.7477	0.	128.11
3952	-6.7642	8.5981	0.	124.7
3953	-7.017	8.797	0.	126.88
3954	-6.4672	8.4056	0.	121.03
3955	-6.2808	8.7789	0.	119.26
3956	-6.5323	8.8467	0.	121.54
3957	-4.4356	8.5231	0.	128.72
3958	-4.6309	8.7961	0.	128.64
3959	-4.8524	8.7948	0.	128.89
3960	-5.0202	8.5361	0.	131.12
3961	-4.7301	8.2548	0.	129.06
3962	-3.8654	8.4919	0.	127.29
3963	-4.1014	8.7489	0.	127.46
3964	-3.325	8.4892	0.	126.74
3965	-3.5716	8.7399	0.	126.72
3966	-2.8	8.4927	0.	126.64
3967	-3.0509	8.7416	0.	126.48
3968	-2.5344	8.7448	0.	126.41
3969	-2.2828	8.4964	0.	126.49
3970	7.692e-003	8.7464	0.	123.5
3971	-0.24401	8.4971	0.	122.12
3972	0.26216	8.4946	0.	124.25
3973	1.275	8.4872	0.	127.29
3974	1.0181	8.7408	0.	126.75
3975	1.0247	8.2386	0.	127.74
3976	0.76842	8.4913	0.	126.34
3977	1.7818	8.4824	0.	127.38
3978	1.5231	8.7372	0.	127.14
3979	2.0281	8.7332	0.	127.1
3980	2.2891	8.4777	0.	127.15
3981	3.2985	8.4818	0.	126.45
3982	3.036	8.7312	0.	126.62
3983	2.7952	8.4755	0.	126.82
3984	3.7992	8.5019	0.	126.1
3985	3.5372	8.7416	0.	126.31
3986	4.0372	8.762	0.	126.06
3987	4.298	8.5235	0.	125.92
3988	5.0324	8.7766	0.	126.17
3989	4.7945	8.5321	0.	126.06
3990	5.2876	8.5303	0.	126.53
3991	6.27	8.516	0.	126.89
3992	6.019	8.7662	0.	126.69
3993	5.7784	8.5235	0.	127.07
3994	6.0301	8.2732	0.	128.09
3995	6.7637	8.5098	0.	125.27
3996	6.5132	8.7605	0.	125.93
3997	7.2588	8.5052	0.	122.54
3998	7.0087	8.756	0.	123.97
3999	7.5055	8.7531	0.	121.71
4000	7.7553	8.5025	0.	120.35
4001	8.751	9.0004	0.	123.39
4002	8.501	9.2504	0.	122.82
4003	8.252	9.0009	0.	122.06
4004	8.5019	8.7506	0.	121.71
4005	6.7582	9.0067	0.	124.63
4006	7.0049	9.2538	0.	123.83
4007	7.2554	9.0038	0.	123.14
4008	6.2623	9.0107	0.	125.73
4009	6.5075	9.2564	0.	124.98
4010	5.7671	9.0153	0.	126.16
4011	6.0108	9.2597	0.	125.69
4012	5.2712	9.0189	0.	126.17
4013	5.5143	9.2631	0.	125.98
4014	5.5264	8.7726	0.	126.53
4015	4.7736	9.019	0.	126.09
4016	5.0166	9.2649	0.	126.08
4017	4.5175	9.2629	0.	126.17
4018	4.275	9.013	0.	126.12
4019	4.5358	8.7745	0.	125.98
4020	3.2747	8.991	0.	126.48
4021	3.5174	9.2467	0.	126.5
4022	3.7751	9.0018	0.	126.27
4023	2.774	8.9859	0.	126.69
4024	3.0175	9.2405	0.	126.68
4025	2.2721	8.9858	0.	126.84
4026	2.5167	9.2389	0.	126.8
4027	2.5332	8.7302	0.	126.89
4028	1.7694	8.988	0.	126.85
4029	2.0152	9.24	0.	126.81
4030	1.5131	9.242	0.	126.64
4031	1.2662	8.9908	0.	126.59
4032	0.25835	8.9957	0.	124.71
4033	0.50777	9.2459	0.	125.36
4034	0.76247	8.9934	0.	125.86
4035	0.51282	8.7439	0.	125.46
4036	-0.24597	8.9975	0.	123.7
4037	4.6605e-003	9.2474	0.	124.39
4038	-0.49882	9.2484	0.	123.87
4039	-0.75121	8.9983	0.	123.56
4040	-0.49768	8.7481	0.	122.33
4041	-2.7854	8.9937	0.	126.24
4042	-2.5221	9.2459	0.	126.06
4043	-2.2742	8.996	0.	125.95
4044	-3.2975	8.9923	0.	126.46
4045	-3.0301	9.2442	0.	126.25
4046	-3.8076	8.9969	0.	126.88
4047	-3.5377	9.2444	0.	126.43
4048	-4.2967	9.022	0.	127.38
4049	-4.0405	9.2528	0.	126.71
4050	-4.7535	9.0408	0.	127.82
4051	-4.5213	9.28	0.	126.79
4052	-4.989	9.2768	0.	126.48
4053	-5.222	9.0132	0.	125.41
4054	-8.7529	8.9968	0.	125.66
4055	-8.5031	9.2469	0.	125.64
4056	-8.2544	8.9951	0.	126.34
4057	-9.2648	6.9986	0.	125.91
4058	-9.0188	7.2481	0.	125.94
4059	-9.0179	6.7479	0.	126.88
4060	-9.0071	5.7492	0.	128.54
4061	-9.2568	5.9992	0.	127.62
4062	-9.0123	6.2485	0.	127.94
4063	-9.0038	5.2494	0.	128.4
4064	-9.2538	5.4995	0.	127.83
4065	-9.2519	4.9996	0.	127.5
4066	-9.002	4.749	0.	127.77
4067	-8.9952	2.7324	0.	126.81
4068	-9.2486	2.99	0.	127.47
4069	-8.9999	3.241	0.	126.72
4070	-8.9799	2.218	0.	127.4
4071	-9.242	2.4814	0.	128.2
4072	-8.9447	1.7021	0.	129.13
4073	-9.2242	1.9702	0.	129.56
4074	-8.8706	-0.65879	0.	126.44
4075	-8.6247	-0.49206	0.	120.64
4076	-8.8837	1.2052	0.	131.07
4077	-9.1893	1.4635	0.	131.96
4078	-9.1004	-0.83162	0.	129.79
4079	-9.2997	-0.55738	0.	133.52
4080	-9.0338	-0.3804	0.	135.01
4081	-9.0565	-1.307	0.	126.8
4082	-9.3298	-1.0452	0.	130.29
4083	-9.0141	-1.8329	0.	126.14
4084	-9.2517	-1.546	0.	128.32
4085	-9.0515	-2.403	0.	128.3
4086	-9.2754	-2.0781	0.	128.89
4087	-8.9839	-2.9667	0.	131.69
4088	-9.2916	-2.8562	0.	130.93
4089	-9.3058	-2.6103	0.	130.58
4090	-9.0741	-3.3197	0.	134.09
4091	-8.8561	-3.5057	0.	138.99
4092	-9.2209	-3.6465	0.	132.95
4093	-9.4325	-3.4493	0.	132.84
4094	-9.3818	-3.2092	0.	133.37
4095	-9.1628	-4.1495	0.	130.53
4096	-9.0029	-3.8324	0.	137.96
4097	-9.3937	-3.9319	0.	129.82
4098	-9.0999	-4.6656	0.	131.12
4099	-8.9289	-4.3585	0.	127.94
4100	-9.3482	-4.4355	0.	128.66
4101	-9.0713	-5.1875	0.	132.51
4102	-8.8061	-4.8979	0.	136.37
4103	-9.3044	-4.9465	0.	131.
4104	-9.0754	-5.7106	0.	131.42
4105	-9.3053	-5.4622	0.	131.72
4106	-9.0665	-6.2273	0.	129.44
4107	-9.3053	-5.9777	0.	130.49
4108	-9.0409	-6.7351	0.	128.33
4109	-9.2914	-6.4872	0.	129.49
4110	-9.0159	-7.2378	0.	127.85
4111	-9.2693	-6.991	0.	128.86
4112	-9.0037	-7.7392	0.	127.7
4113	-9.2557	-7.4922	0.	128.53
4114	-8.9999	-8.2416	0.	127.63
4115	-8.9992	-8.7443	0.	127.58
4116	-9.2494	-8.4952	0.	128.16
4117	-9.2507	-7.9933	0.	128.32
4118	-8.2489	-8.9941	0.	126.05
4119	-8.749	-8.9947	0.	127.04
4120	-8.4992	-9.2455	0.	126.53
4121	-7.7489	-8.9952	0.	125.15
4122	-7.9992	-9.2459	0.	125.58
4123	-7.2487	-8.9979	0.	124.37
4124	-7.4992	-9.247	0.	124.74
4125	-6.7485	-9.0007	0.	123.74
4126	-6.9991	-9.2498	0.	124.05
4127	-6.2485	-9.0017	0.	123.33
4128	-6.4989	-9.2511	0.	123.53
4129	-5.7487	-9.0016	0.	123.25
4130	-5.999	-9.2513	0.	123.3
4131	-5.9976	-8.7524	0.	123.01
4132	-5.2491	-9.0011	0.	123.61
4133	-5.4991	-9.2511	0.	123.44
4134	-4.7495	-9.0006	0.	124.34
4135	-4.9996	-9.2506	0.	123.98
4136	-4.999	-8.7511	0.	123.74
4137	-4.4998	-9.2503	0.	124.79
4138	-4.2498	-9.0003	0.	125.24
4139	-3.2501	-9.0001	0.	126.67
4140	-3.5	-9.2501	0.	126.35
4141	-3.75	-9.0002	0.	126.08
4142	-2.7501	-9.	0.	126.86
4143	-3.	-9.25	0.	126.71
4144	-2.2501	-9.	0.	126.48
4145	-2.5	-9.25	0.	126.59
4146	-1.7501	-9.	0.	125.37
4147	-2.	-9.25	0.	125.85
4148	-1.25	-9.	0.	123.56
4149	-1.5	-9.25	0.	124.4
4150	-0.75005	-9.	0.	121.56
4151	-1.	-9.25	0.	122.52
4152	-0.50004	-9.25	0.	120.9
4153	-0.25007	-9.	0.	120.28
4154	1.2496	-9.0001	0.	124.11
4155	0.99979	-9.25	0.	122.97
4156	0.74979	-9.	0.	121.92
4157	1.7493	-9.0003	0.	126.06
4158	1.4996	-9.2501	0.	125.03
4159	1.9993	-9.2503	0.	126.6
4160	2.2488	-9.0007	0.	127.29
4161	3.7467	-9.0033	0.	127.38
4162	3.4979	-9.252	0.	127.56
4163	3.2475	-9.0022	0.	127.76
4164	4.2458	-9.0044	0.	126.74
4165	3.9972	-9.2529	0.	127.06
4166	4.7452	-9.0049	0.	125.95
4167	4.4966	-9.2536	0.	126.36
4168	4.9964	-9.2536	0.	125.6
4169	5.245	-9.0044	0.	125.2
4170	6.2458	-9.0003	0.	124.5
4171	5.9968	-9.2513	0.	124.61
4172	5.7453	-9.0028	0.	124.67
4173	6.7462	-8.9973	0.	124.68
4174	6.4972	-9.2491	0.	124.6
4175	7.2466	-8.9948	0.	125.07
4176	6.9975	-9.2469	0.	124.87
4177	7.7468	-8.9935	0.	125.5
4178	7.4976	-9.2455	0.	125.26
4179	7.9977	-9.245	0.	125.66
4180	8.2472	-8.9941	0.	125.88
4181	2.0417	1.5844	0.	135.69
4182	2.2441	1.3052	0.	130.42
4183	6.3365	3.8027	0.	135.51
4184	6.0513	4.0422	0.	133.58
4185	6.2334	4.2967	0.	131.78
4186	-7.7632	-5.7622	0.	115.79
4187	-7.9892	-5.997	0.	121.51
4188	-7.5694	-6.0401	0.	121.18
4189	-7.1785	-5.4925	0.	131.33
4190	-7.5132	-5.5991	0.	117.89
4191	-7.3194	-5.8771	0.	123.6
4192	-0.52106	4.2924	0.	112.65
4193	-0.53227	3.8168	0.	121.69
4194	-0.7909	4.0661	0.	114.87
4195	-1.5329	4.4089	0.	121.54
4196	-1.5918	3.9665	0.	119.88
4197	-1.7998	4.237	0.	123.71
4198	-1.3021	4.1306	0.	114.86
4199	6.048	-4.0954	0.	117.16
4200	6.3437	-4.3102	0.	125.
4201	5.3013	-4.3591	0.	130.15
4202	5.5561	-4.117	0.	120.7
4203	5.0527	-4.0965	0.	128.6
4204	5.4961	0.90528	0.	127.78
4205	5.2692	0.64288	0.	124.57
4206	5.4416	-0.16925	0.	129.06
4207	5.2277	0.13105	0.	124.43
4208	8.9984	-8.2464	0.	126.4
4209	8.9982	-8.7471	0.	126.36
4210	9.2486	-8.4977	0.	126.48
4211	9.2493	-7.9974	0.	126.44
4212	9.001	-7.7457	0.	126.42
4213	9.022	-6.7452	0.	126.08
4214	9.2605	-6.9975	0.	126.09
4215	9.0085	-7.2456	0.	126.34
4216	9.0374	-6.2436	0.	125.64
4217	9.2724	-6.4967	0.	125.69
4218	9.0484	-5.7416	0.	125.19
4219	9.2828	-5.9952	0.	125.22
4220	9.054	-5.241	0.	124.95
4221	9.289	-5.4936	0.	124.87
4222	9.2914	-4.9939	0.	124.83
4223	9.0558	-4.7415	0.	125.02
4224	9.048	-3.7444	0.	125.36
4225	9.2891	-3.9951	0.	125.45
4226	9.0544	-4.2427	0.	125.25
4227	9.0379	-3.2461	0.	125.14
4228	9.2822	-3.4961	0.	125.73
4229	9.0275	-2.7479	0.	124.48
4230	9.2742	-2.9974	0.	125.82
4231	9.0182	-2.2493	0.	123.39
4232	9.2668	-2.4986	0.	125.69
4233	-2.2098	-0.38961	0.	137.51
4234	-2.3791	-8.5109e-002	0.	134.03
4235	-2.465	-0.58886	0.	140.14
4236	6.8355	-0.55851	0.	123.96
4237	7.0847	-0.34092	0.	137.43
4238	7.3069	-0.55297	0.	139.06
4239	7.326	1.3589	0.	138.94
4240	6.8608	1.2628	0.	126.07
4241	7.1136	1.0784	0.	138.73
4242	9.0104	-1.7499	0.	122.93
4243	9.2604	-1.9994	0.	125.69
4244	7.7716	-1.5177	0.	127.32
4245	7.5274	-1.2766	0.	132.62
4246	7.5298	-1.7732	0.	128.56
4247	8.9889	2.7462	0.	122.81
4248	9.2414	2.9975	0.	125.23
4249	8.9898	3.2468	0.	123.12
4250	8.9931	2.246	0.	122.1
4251	9.2427	2.4973	0.	124.86
4252	8.999	1.7466	0.	121.92
4253	9.2471	1.9974	0.	124.75
4254	7.7872	1.4376	0.	130.75
4255	7.558	1.1617	0.	135.96
4256	-4.4753	-0.78028	0.	131.17
4257	-4.7121	-0.51947	0.	126.47
4258	-4.443	-0.27283	0.	128.96
4259	-6.441	-0.78093	0.	130.01
4260	-6.1892	-0.52557	0.	123.73
4261	-6.658	-0.5438	0.	130.63
4262	0.49634	-4.2523	0.	124.6
4263	0.24852	-4.5013	0.	119.52
4264	0.74732	-4.5021	0.	125.21
4265	0.49959	-4.7516	0.	121.71
4266	-1.2528	-4.4943	0.	123.32
4267	-1.5046	-4.2396	0.	128.54
4268	-1.7542	-4.489	0.	129.57
4269	-1.5228	-1.734	0.	123.22
4270	-1.2716	-1.5065	0.	118.18
4271	0.25127	4.5234	0.	125.67
4272	0.50627	4.7679	0.	129.82
4273	-1.2649	4.5964	0.	120.37
4274	-1.5007	4.8621	0.	124.81
4275	-1.7577	4.6766	0.	125.89
4276	0.26406	7.4952	0.	126.13
4277	0.51719	7.244	0.	129.67
4278	0.77481	7.4905	0.	129.67
4279	0.51881	7.7429	0.	128.58
4280	1.2505	-7.4993	0.	128.27
4281	1.502	-7.2483	0.	130.73
4282	-1.2501	-7.4999	0.	127.37
4283	-1.5001	-7.2497	0.	129.75
4284	-1.5001	-7.7499	0.	128.98
4285	1.2589	-5.4989	0.	128.94
4286	1.5112	-5.7472	0.	131.55
4287	1.5101	-5.2483	0.	131.06
4288	-1.251	-5.4974	0.	125.09
4289	-1.5007	-5.7474	0.	129.03
4290	-1.751	-5.4961	0.	129.48
4291	6.4264	3.3052	0.	133.55
4292	6.1611	3.5339	0.	130.39
4293	4.4258	1.7478	0.	131.87
4294	4.6654	1.4835	0.	130.21
4295	4.3655	1.244	0.	130.45
4296	-4.5088	-3.2563	0.	134.36
4297	-4.5036	-3.7526	0.	133.87
4298	-4.7515	-3.5025	0.	127.13
4299	-4.258	-3.5029	0.	135.04
4300	-4.4981	-6.2499	0.	130.23
4301	-4.7461	-6.5004	0.	126.4
4302	-4.2477	-6.4998	0.	129.93
4303	-6.2186	-6.5095	0.	125.76
4304	-6.4558	-6.2694	0.	131.19
4305	-6.4649	-6.7612	0.	127.71
4306	-6.558	-3.4846	0.	144.89
4307	-6.3654	-3.2618	0.	138.72
4308	-6.3764	-3.7373	0.	135.96
4309	-6.1542	-3.4986	0.	128.14
4310	-4.5044	2.7437	0.	133.36
4311	-4.7589	2.4974	0.	129.32
4312	-4.4906	5.2081	0.	136.55
4313	-4.7433	5.4537	0.	132.58
4314	-4.4908	5.6888	0.	136.8
4315	-7.2729	5.486	0.	130.29
4316	-7.5142	5.2416	0.	133.82
4317	-7.768	5.4921	0.	134.13
4318	8.9991	4.2492	0.	124.77
4319	9.248	3.9989	0.	126.85
4320	8.9945	3.7479	0.	123.42
4321	9.0011	7.7501	0.	125.77
4322	9.2509	8.0001	0.	127.6
4323	9.0012	8.2502	0.	124.54
4324	6.8539	4.5413	0.	127.7
4325	6.6128	4.7846	0.	133.13
4326	6.4133	4.5439	0.	130.5
4327	6.7733	7.5134	0.	129.86
4328	6.5314	7.2698	0.	133.35
4329	5.0112	-5.7993	0.	129.99
4330	5.221	-6.0434	0.	130.73
4331	6.7855	-5.7287	0.	129.53
4332	6.595	-5.9941	0.	131.1
4333	-5.0125	6.6075	0.	131.74
4334	-5.2455	6.3722	0.	127.06
4335	-7.0676	6.8377	0.	134.02
4336	-7.1999	7.1892	0.	127.56
4337	-7.4489	6.9679	0.	128.91
4338	-7.3832	6.7266	0.	131.97
4339	-2.3421	2.1871	0.	138.78
4340	-2.4779	2.4642	0.	128.6
4341	-0.38783	1.4862	0.	134.37
4342	-0.34567	1.962	0.	137.74
4343	-0.13763	1.7094	0.	142.03
4344	-0.59163	1.747	0.	122.88
4345	-6.9549	-3.4607	0.	138.85
4346	-6.7677	-3.7031	0.	141.25
4347	-8.6193	-3.7096	0.	138.87
4348	-8.769	-4.0414	0.	134.87
4349	4.2957	3.5223	0.	132.07
4350	4.0249	3.7438	0.	140.3
4351	4.0891	5.5898	0.	134.37
4352	4.3442	5.768	0.	125.13
4353	4.1079	6.0464	0.	131.13
4354	-0.11398	2.1783	0.	137.08
4355	0.31273	2.1167	0.	129.64
4356	9.4056e-002	1.9257	0.	141.36
4357	8.7036e-002	2.3895	0.	131.51
4358	9.2505	9.0001	0.	125.48
4359	9.0005	9.2502	0.	124.23
4360	9.0009	8.7502	0.	124.35
4361	9.2488	-8.9982	0.	126.49
4362	8.9987	-9.2481	0.	126.32
4363	8.7479	-8.9962	0.	126.19
4364	-8.9993	-9.2466	0.	127.53
4365	-9.2493	-8.9969	0.	128.04
4366	-9.2518	8.9988	0.	125.11
4367	-9.0019	9.2486	0.	125.27
4368	-9.0031	8.7479	0.	125.43
4369	-1.2575	-0.56721	0.	107.
4370	-0.76037	-0.62504	0.	113.34
4371	-1.7436	-0.48781	0.	120.85
4372	-2.1967	0.38826	0.	132.3
4373	-1.9222	0.82183	0.	128.6
4374	-2.2913	0.68685	0.	136.93
4375	-1.6101	1.2321	0.	111.93
4376	-1.3494	1.6604	0.	102.53
4377	-1.6333	1.5226	0.	114.09
4378	-2.0044	1.1426	0.	124.99
4379	-0.37373	1.015	0.	126.76
4380	-0.16	1.2496	0.	132.33
4381	-0.12744	0.10113	0.	134.93
4382	8.5264e-002	0.10673	0.	133.55
4383	-2.0204e-002	-0.37491	0.	133.45
4384	-0.28784	0.55278	0.	133.68
4385	-2.3728e-002	0.33031	0.	140.97
4386	-0.10896	0.79191	0.	129.66
4387	6.3655	-0.46894	0.	111.14
4388	5.9071	-0.29983	0.	122.34
4389	5.9269	0.98914	0.	120.07
4390	6.3859	1.1384	0.	111.49
4391	6.5912	1.4321	0.	116.91
4392	6.0951	1.2988	0.	116.16
4393	7.3224	-8.3801e-002	0.	135.77
4394	7.1059	0.12283	0.	134.95
4395	7.3457	0.88119	0.	136.1
4396	7.1229	0.60197	0.	136.04
4397	8.7592	-1.501	0.	117.47
4398	9.2551	-1.4997	0.	127.63
4399	8.2647	-1.5058	0.	117.75
4400	9.251	1.4981	0.	126.73
4401	8.7539	1.4941	0.	116.61
4402	8.2632	1.4805	0.	117.8
4403	-4.516	-2.762	0.	133.65
4404	-4.5194	-2.2688	0.	135.42
4405	-4.2809	-2.5212	0.	133.47
4406	-4.5142	-1.7756	0.	135.53
4407	-4.2802	-2.0354	0.	134.63
4408	-4.4997	-1.2804	0.	132.99
4409	-6.4446	-2.7834	0.	135.26
4410	-6.5101	-2.2824	0.	133.35
4411	-6.4891	-1.7741	0.	133.17
4412	-6.7515	-2.0246	0.	129.88
4413	-6.4666	-1.2752	0.	131.56
4414	0.49306	-3.7535	0.	126.74
4415	0.49092	-3.256	0.	129.62
4416	0.48804	-2.7615	0.	130.32
4417	0.48373	-2.2728	0.	129.43
4418	0.47598	-1.794	0.	130.05
4419	-0.25106	-4.5	0.	109.72
4420	-0.75147	-4.4983	0.	110.92
4421	-1.0018	-4.7472	0.	117.73
4422	-0.26803	-1.5448	0.	112.59
4423	-2.2375e-002	-1.3202	0.	122.77
4424	0.22559	-1.5532	0.	125.69
4425	-0.76787	-1.5324	0.	109.93
4426	-1.5074	-3.7356	0.	128.62
4427	-1.5118	-3.2313	0.	129.75
4428	-1.7629	-3.4763	0.	128.6
4429	-1.5163	-2.7278	0.	128.93
4430	-1.7705	-2.9683	0.	128.96
4431	-1.5197	-2.2277	0.	125.82
4432	-1.7777	-1.958	0.	125.61
4433	-0.25709	4.5268	0.	113.89
4434	-0.76426	4.5443	0.	111.89
4435	-1.0341	4.318	0.	114.19
4436	-0.24395	7.4984	0.	115.65
4437	-0.74986	7.5004	0.	114.95
4438	-1.2563	7.5031	0.	124.96
4439	0.7502	-7.4998	0.	120.31
4440	0.25002	-7.4999	0.	115.68
4441	-0.25002	-7.5	0.	115.45
4442	-0.75004	-7.5	0.	119.62
4443	-0.50004	-7.75	0.	116.63
4444	0.75361	-5.5003	0.	120.27
4445	0.25117	-5.5002	0.	114.28
4446	0.50144	-5.2508	0.	117.18
4447	-0.24999	-5.4997	0.	112.38
4448	-0.75065	-5.4988	0.	116.04
4449	-1.0012	-5.2477	0.	119.32
4450	6.4781	2.3337	0.	126.32
4451	6.5248	1.8754	0.	123.5
4452	6.4601	2.8121	0.	129.98
4453	4.4652	2.2511	0.	130.62
4454	4.1866	2.0046	0.	131.15
4455	4.4904	2.7562	0.	129.32
4456	4.5348	3.2755	0.	125.24
4457	7.5345	-0.78281	0.	135.91
4458	7.5445	-0.29584	0.	137.29
4459	7.5537	0.1892	0.	134.87
4460	7.5599	0.67504	0.	134.12
4461	7.3372	0.39582	0.	134.21
4462	-4.5015	-4.2506	0.	131.87
4463	-4.4995	-5.7496	0.	131.15
4464	-4.5	-5.2496	0.	132.98
4465	-4.5005	-4.7498	0.	132.77
4466	-5.7348	-6.5041	0.	115.94
4467	-5.2428	-6.5013	0.	116.42
4468	-5.4898	-6.7527	0.	114.34
4469	-4.9944	-6.7512	0.	121.96
4470	-6.5146	-5.7719	0.	133.66
4471	-6.5315	-5.2445	0.	136.27
4472	-6.8278	-5.411	0.	136.54
4473	-6.4115	-4.2226	0.	132.35
4474	-6.5861	-3.9557	0.	132.81
4475	-6.4597	-4.7192	0.	134.85
4476	-6.6439	-4.4315	0.	137.65
4477	-6.7201	-4.9139	0.	134.96
4478	-5.7157	-3.5002	0.	107.71
4479	-5.2413	-3.5007	0.	108.64
4480	-5.7077	-0.51261	0.	112.98
4481	-5.9438	-0.27079	0.	117.18
4482	-5.2139	-0.50962	0.	115.07
4483	-5.4543	-0.26095	0.	111.4
4484	-4.4984	3.2375	0.	134.43
4485	-4.2442	2.9831	0.	132.79
4486	-4.4988	3.733	0.	136.73
4487	-4.2461	3.4762	0.	133.89
4488	-4.4988	4.229	0.	137.23
4489	-4.4954	4.7221	0.	135.98
4490	-4.2481	4.4684	0.	135.03
4491	-4.2393	4.9606	0.	134.93
4492	-5.2582	2.4957	0.	119.46
4493	-5.761	2.4901	0.	113.69
4494	-6.268	2.4804	0.	114.09
4495	-6.7751	2.4728	0.	120.36
4496	-7.2744	2.4904	0.	128.35
4497	-5.2535	5.4636	0.	119.15
4498	-5.765	5.4793	0.	109.72
4499	-6.2737	5.4985	0.	109.38
4500	-6.0232	5.7307	0.	105.99
4501	-6.7753	5.4953	0.	117.95
4502	-7.5038	3.2512	0.	131.01
4503	-7.5135	2.7559	0.	130.05
4504	-7.5016	3.75	0.	133.43
4505	-7.5016	4.2489	0.	133.84
4506	-7.5044	4.7465	0.	132.97
4507	0.50814	5.2586	0.	130.18
4508	0.76082	5.0124	0.	129.12
4509	0.51006	5.7525	0.	131.84
4510	0.76386	5.5045	0.	129.57
4511	0.51221	6.2488	0.	132.11
4512	0.76709	5.9989	0.	130.64
4513	0.51444	6.7461	0.	130.3
4514	-1.4873	5.3234	0.	127.54
4515	-1.7291	5.122	0.	126.2
4516	-1.4907	5.7959	0.	130.74
4517	-1.4987	6.277	0.	130.94
4518	-1.5038	6.7648	0.	129.45
4519	-1.5079	7.2575	0.	128.9
4520	-1.7601	7.0117	0.	128.43
4521	1.5082	-6.2468	0.	130.07
4522	1.5049	-6.7472	0.	129.7
4523	-1.5002	-6.2487	0.	128.28
4524	-1.5001	-6.7493	0.	128.46
4525	6.3004	1.5924	0.	119.95
4526	5.2461	3.4437	0.	113.01
4527	5.4359	3.7007	0.	115.53
4528	5.6967	3.4895	0.	118.61
4529	4.7951	3.4817	0.	117.
4530	5.0065	3.617	0.	112.53
4531	8.7521	4.5004	0.	120.27
4532	9.2502	4.4997	0.	130.03
4533	8.2579	4.5035	0.	114.54
4534	7.3024	4.5276	0.	118.56
4535	7.0803	4.3056	0.	123.57
4536	7.7721	4.512	0.	114.44
4537	7.5281	4.2721	0.	116.41
4538	7.2617	7.5048	0.	121.39
4539	8.7513	7.5002	0.	121.43
4540	9.2506	7.5	0.	130.81
4541	8.2525	7.5005	0.	116.09
4542	7.7554	7.5015	0.	116.18
4543	6.5684	5.2687	0.	136.67
4544	6.3902	5.0167	0.	135.07
4545	6.5425	5.7639	0.	139.86
4546	6.3045	5.5034	0.	137.57
4547	6.5374	6.2661	0.	138.6
4548	6.3109	6.0224	0.	136.35
4549	6.534	6.7691	0.	135.22
4550	6.296	7.0286	0.	131.71
4551	6.304	6.5281	0.	133.38
4552	5.0981	-5.316	0.	129.99
4553	5.2301	-4.842	0.	136.24
4554	6.6826	-5.2418	0.	129.94
4555	6.5019	-4.778	0.	135.09
4556	6.1495	-6.0193	0.	111.9
4557	6.3904	-6.2574	0.	122.16
4558	5.6867	-6.0357	0.	111.78
4559	-5.2448	7.9066	0.	130.12
4560	-5.2951	8.3108	0.	132.48
4561	-5.0049	8.0295	0.	130.52
4562	-5.0627	7.065	0.	128.48
4563	-4.7839	6.8696	0.	126.66
4564	-5.155	7.503	0.	129.84
4565	-4.8549	7.3507	0.	128.43
4566	-4.9702	7.8367	0.	128.05
4567	-5.7338	6.3999	0.	109.03
4568	-6.6595	6.642	0.	123.99
4569	-6.2094	6.4899	0.	105.79
4570	-6.0008	6.202	0.	102.78
4571	-6.9475	7.6028	0.	128.61
4572	-6.1524	8.3015	0.	113.4
4573	-5.6005	8.4752	0.	119.42
4574	-5.966	8.6748	0.	111.92
4575	-6.5842	7.9704	0.	126.63
4576	-1.9341	3.1844	0.	131.96
4577	-2.2379	2.8413	0.	131.92
4578	-1.7071	3.5545	0.	121.71
4579	-1.8998	2.0659	0.	125.87
4580	-2.1807	1.918	0.	138.86
4581	-1.4651	1.9502	0.	103.78
4582	-1.749	1.8124	0.	115.48
4583	-1.0331	1.8292	0.	101.92
4584	-6.9043	-4.6263	0.	137.71
4585	-6.8184	-4.1647	0.	137.98
4586	-7.0165	-5.0804	0.	135.2
4587	-0.49662	3.3504	0.	125.39
4588	-0.34824	2.4346	0.	135.1
4589	-0.41596	2.8952	0.	130.54
4590	-0.14722	2.6458	0.	129.82
4591	-0.20798	3.1076	0.	124.69
4592	-8.2179	-3.6033	0.	124.66
4593	-7.3668	-3.4692	0.	118.83
4594	-7.1391	-3.2171	0.	127.49
4595	-7.7936	-3.5243	0.	112.24
4596	-7.5732	-3.2464	0.	113.05
4597	-7.9264	-5.332	0.	118.29
4598	-8.6351	-4.5908	0.	133.05
4599	-8.3237	-5.0087	0.	132.75
4600	4.052	4.6813	0.	132.54
4601	4.0332	4.2181	0.	135.81
4602	4.0729	5.137	0.	132.86
4603	3.8255	5.3838	0.	132.39
4604	3.8071	4.9215	0.	130.18
4605	5.6151	3.9847	0.	124.95
4606	5.8759	3.7734	0.	128.61
4607	4.7784	3.6766	0.	116.16
4608	5.1962	3.874	0.	115.02
4609	5.6344	5.1756	0.	129.23
4610	6.0053	5.0409	0.	135.72
4611	5.9418	5.2826	0.	135.54
4612	5.2488	5.4069	0.	117.5
4613	5.5387	5.456	0.	125.31
4614	4.8213	5.6274	0.	113.25
4615	0.10477	1.0265	0.	135.18
4616	9.0201e-002	1.4727	0.	139.52
4617	0.15515	0.56944	0.	136.9
4618	0.37083	0.21875	0.	128.18
4619	2.0168	0.5186	0.	134.43
4620	1.563	0.43788	0.	129.54
4621	0.74993	0.16856	0.	113.26
4622	1.1487	0.30586	0.	116.62
4623	0.7354	2.0029	0.	116.16
4624	1.1441	1.8373	0.	119.45
4625	1.5691	1.6779	0.	131.79
4626	1.8313	1.862	0.	135.33
4627	1.3547	1.978	0.	124.9
4628	-8.9186	0.78803	0.	141.32
4629	-9.2306	0.57409	0.	140.11
4630	-7.7597	1.587	0.	122.3
4631	-7.9969	1.7703	0.	118.42
4632	-9.14	0.98446	0.	134.84
4633	-7.4471	1.01	0.	131.35
4634	-7.5065	1.4366	0.	132.77
4635	-7.3955	0.57087	0.	129.26
4636	-7.1808	0.83615	0.	126.
4637	-7.3548	0.12818	0.	129.93
4638	-7.3395	-0.32444	0.	133.17
4639	9.5003	8.7501	0.	127.4
4640	9.5002	9.2501	0.	125.95
4641	9.5005	8.2501	0.	129.34
4642	9.2507	8.5002	0.	126.28
4643	9.5005	7.75	0.	132.69
4644	9.5002	7.25	0.	135.19
4645	9.5	6.75	0.	136.69
4646	9.5	6.25	0.	138.6
4647	9.5	5.75	0.	138.45
4648	9.5	5.2499	0.	136.2
4649	9.4999	4.7498	0.	134.54
4650	9.4991	4.2494	0.	132.16
4651	9.4973	3.7488	0.	129.16
4652	9.4955	3.2486	0.	127.83
4653	9.2438	3.4978	0.	125.73
4654	9.4952	2.7486	0.	127.27
4655	9.4968	2.2487	0.	127.5
4656	9.4991	1.7489	0.	129.57
4657	9.5002	1.2493	0.	131.45
4658	9.5001	0.74969	0.	132.82
4659	9.5	0.24991	0.	134.96
4660	9.5	-0.24999	0.	135.24
4661	9.5004	-0.74985	0.	133.61
4662	9.502	-1.2496	0.	132.4
4663	9.5051	-1.7493	0.	130.41
4664	9.509	-2.2488	0.	127.99
4665	9.5135	-2.7482	0.	127.03
4666	9.5185	-3.2474	0.	126.4
4667	9.5233	-3.7468	0.	125.82
4668	9.5264	-4.2465	0.	125.29
4669	9.5272	-4.7465	0.	124.9
4670	9.2917	-4.4941	0.	125.09
4671	9.5264	-5.2465	0.	124.75
4672	9.5233	-5.7472	0.	124.9
4673	9.5178	-6.2483	0.	125.27
4674	9.5109	-6.749	0.	125.71
4675	9.5047	-7.2491	0.	126.09
4676	9.501	-7.7489	0.	126.36
4677	9.2527	-7.4973	0.	126.33
4678	9.4995	-8.2488	0.	126.52
4679	9.4992	-8.7488	0.	126.61
4680	9.4994	-9.2492	0.	126.65
4681	9.2493	-9.499	0.	126.48
4682	8.7489	-9.4981	0.	126.13
4683	8.2486	-9.4972	0.	125.79
4684	8.4981	-9.2462	0.	126.01
4685	7.7486	-9.497	0.	125.42
4686	7.2486	-9.4976	0.	125.06
4687	6.7485	-9.4988	0.	124.79
4688	6.2483	-9.5001	0.	124.7
4689	5.748	-9.5013	0.	124.89
4690	5.2479	-9.502	0.	125.36
4691	5.4965	-9.2528	0.	124.96
4692	4.7478	-9.5023	0.	126.01
4693	4.248	-9.5021	0.	126.69
4694	3.7484	-9.5016	0.	127.25
4695	3.2488	-9.5011	0.	127.54
4696	2.7492	-9.5007	0.	127.43
4697	2.9985	-9.2513	0.	127.74
4698	2.2494	-9.5004	0.	126.8
4699	2.4989	-9.2507	0.	127.48
4700	1.7496	-9.5002	0.	125.57
4701	1.2498	-9.5001	0.	123.89
4702	0.74988	-9.5	0.	122.2
4703	0.24993	-9.5	0.	121.07
4704	0.49988	-9.25	0.	121.15
4705	-0.25004	-9.5	0.	120.96
4706	-6.8369e-005	-9.25	0.	120.34
4707	-0.75003	-9.5	0.	121.86
4708	-1.25	-9.5	0.	123.37
4709	-1.75	-9.5	0.	124.88
4710	-2.25	-9.5	0.	125.96
4711	-2.75	-9.5	0.	126.45
4712	-3.25	-9.5	0.	126.39
4713	-3.75	-9.5001	0.	125.92
4714	-4.2499	-9.5002	0.	125.2
4715	-4.	-9.2502	0.	125.65
4716	-4.7498	-9.5003	0.	124.44
4717	-5.2496	-9.5006	0.	123.81
4718	-5.7494	-9.5008	0.	123.48
4719	-6.2494	-9.5007	0.	123.5
4720	-6.7495	-9.5002	0.	123.84
4721	-7.2496	-9.4989	0.	124.42
4722	-7.7496	-9.4977	0.	125.18
4723	-8.2495	-9.4973	0.	126.07
4724	-8.7495	-9.4974	0.	127.02
4725	-9.2496	-9.4983	0.	127.96
4726	-9.4996	-9.2486	0.	128.47
4727	-9.4996	-8.7478	0.	128.63
4728	-9.5002	-8.2469	0.	128.85
4729	-9.5027	-7.7463	0.	129.15
4730	-9.5091	-7.2454	0.	129.53
4731	-9.5198	-6.7431	0.	130.01
4732	-9.5302	-6.2376	0.	130.54
4733	-9.5352	-5.7292	0.	130.79
4734	-9.5383	-5.2212	0.	130.19
4735	-9.5527	-4.7164	0.	128.49
4736	-9.5792	-4.2179	0.	127.85
4737	-9.6053	-3.7347	0.	129.68
4738	-9.5663	-3.2586	0.	131.56
4739	-9.5299	-2.7727	0.	131.75
4740	-9.5297	-2.2854	0.	131.17
4741	-9.513	-1.7911	0.	131.06
4742	-9.5251	-1.2842	0.	131.81
4743	-9.5291	-0.77099	0.	134.05
4744	-9.4635	-0.23501	0.	135.6
4745	-9.1976	-5.803e-002	0.	136.86
4746	-9.4395	0.28974	0.	132.42
4747	-9.4863	2.2336	0.	130.36
4748	-9.4688	1.7316	0.	132.41
4749	-9.4955	2.7391	0.	128.85
4750	-9.499	3.2439	0.	127.64
4751	-9.5001	3.7469	0.	126.89
4752	-9.2503	3.4948	0.	126.9
4753	-9.5005	4.2487	0.	126.62
4754	-9.2507	3.9975	0.	126.74
4755	-9.5009	4.7495	0.	126.72
4756	-9.251	4.499	0.	126.99
4757	-9.5019	5.2497	0.	126.92
4758	-9.5035	5.7496	0.	126.9
4759	-9.5057	6.2494	0.	126.52
4760	-9.5081	6.7493	0.	125.87
4761	-9.2612	6.4986	0.	126.84
4762	-9.5086	7.2495	0.	125.26
4763	-9.5064	7.7498	0.	124.89
4764	-9.2626	7.499	0.	125.29
4765	-9.5037	8.2496	0.	124.79
4766	-9.2568	7.9987	0.	125.12
4767	-9.5018	8.7495	0.	124.82
4768	-9.2531	8.4985	0.	125.14
4769	-9.501	9.2496	0.	124.91
4770	-8.7521	9.4986	0.	125.25
4771	-9.251	9.4994	0.	125.08
4772	-8.2542	9.4985	0.	125.33
4773	-7.7579	9.5016	0.	125.15
4774	-8.0055	9.2468	0.	126.03
4775	-7.2625	9.5094	0.	124.43
4776	-7.5112	9.2545	0.	126.02
4777	-6.7644	9.5124	0.	123.04
4778	-7.0202	9.2744	0.	124.72
4779	-6.2624	9.4928	0.	121.82
4780	-6.5294	9.2837	0.	122.04
4781	-5.7578	9.483	0.	122.22
4782	-6.0262	9.1984	0.	119.51
4783	-5.2539	9.5024	0.	123.94
4784	-5.4869	9.2388	0.	122.85
4785	-4.7569	9.516	0.	125.45
4786	-4.265	9.5108	0.	126.12
4787	-3.7705	9.5003	0.	126.25
4788	-3.2703	9.4963	0.	126.22
4789	-2.7669	9.4964	0.	126.06
4790	-2.2628	9.4973	0.	125.76
4791	-1.7585	9.4981	0.	125.3
4792	-2.0149	9.2474	0.	125.66
4793	-1.2545	9.4987	0.	124.79
4794	-1.5088	9.2484	0.	124.95
4795	-0.75104	9.4988	0.	124.47
4796	-1.0034	9.2487	0.	124.16
4797	-0.24819	9.4984	0.	124.56
4798	0.25408	9.4976	0.	125.04
4799	0.75606	9.4964	0.	125.68
4800	1.2577	9.4952	0.	126.24
4801	1.0108	9.244	0.	126.18
4802	1.7589	9.4939	0.	126.59
4803	2.2598	9.4931	0.	126.76
4804	2.7602	9.4936	0.	126.79
4805	3.2602	9.4962	0.	126.71
4806	3.7601	9.501	0.	126.56
4807	4.2603	9.5059	0.	126.37
4808	4.0178	9.2561	0.	126.32
4809	4.7604	9.5088	0.	126.15
4810	5.2597	9.5091	0.	125.89
4811	5.7581	9.5076	0.	125.52
4812	6.2561	9.5055	0.	124.95
4813	6.7542	9.5035	0.	124.19
4814	7.2527	9.502	0.	123.4
4815	7.7517	9.501	0.	122.91
4816	7.5032	9.252	0.	122.7
4817	8.251	9.5005	0.	122.99
4818	8.002	9.251	0.	122.24
4819	8.7505	9.5002	0.	123.66
4820	9.2503	9.5001	0.	124.72
4821	-7.9839	-0.45631	0.	113.24
4822	-7.5592	-0.53343	0.	128.08
4823	-8.7879	-0.21367	0.	129.14
4824	-8.3895	-0.33477	0.	113.75
4825	-3.5235	-3.2407	0.	132.
4826	-3.2864	-2.9664	0.	131.07
4827	-2.282	-2.9479	0.	128.13
4828	-2.7888	-2.9393	0.	129.4
4829	-7.2689	9.0194	0.	126.31
4830	-6.7851	9.0457	0.	123.73
4831	-4.0418	-2.2878	0.	132.68
4832	6.0661	6.7877	0.	129.86
4833	-1.9861	4.9365	0.	127.29
4834	2.8026	5.4522	0.	128.42
4835	3.6188	6.615	0.	128.43
4836	3.3709	6.8954	0.	127.62
4837	3.6607	7.1385	0.	126.8
4838	-4.5761	7.1554	0.	126.41
4839	-4.2947	6.9229	0.	127.74
4840	-3.9918	3.2217	0.	132.24
4841	2.2269	0.79435	0.	130.31
4842	-7.5391	2.2821	0.	129.17
4843	-3.6495	-6.4852e-002	0.	130.14
4844	-3.4256	-0.36264	0.	131.65
4845	-4.6701	7.6843	0.	126.64
4846	6.1907	4.7759	0.	132.1
4847	4.1622	7.3811	0.	125.09
4848	3.93	7.2932	0.	125.62
4849	7.7535	9.002	0.	122.03
4850	-3.7254	2.9639	0.	131.74
4851	-3.4865	2.7071	0.	131.56
4852	-4.998	-8.2515	0.	123.35
4853	-4.9964	-7.7518	0.	122.78
4854	8.7518	8.5005	0.	122.68
4855	1.0293	7.7378	0.	128.73
4856	-2.2501	-7.9999	0.	128.23
4857	-1.7501	-7.9999	0.	127.84
4858	-6.7169	-7.008	0.	125.51
4859	1.0489	3.2343	0.	123.16
4860	1.3044	3.0215	0.	123.78
4861	4.3038	0.73906	0.	127.09
4862	4.0759	1.0039	0.	128.65
4863	2.5858	7.2049	0.	127.73
4864	2.8541	7.4479	0.	127.38
4865	-2.3762e-002	-0.85942	0.	132.2
4866	0.21783	-1.0928	0.	127.3
4867	6.422	-6.7522	0.	121.69
4868	1.2451	-4.5011	0.	127.24
4869	0.77386	3.5256	0.	124.53
4870	1.0181	3.7693	0.	126.14
4871	-7.1149	-0.5535	0.	134.36
4872	-7.5476	1.8493	0.	129.38
4873	1.0165	5.2583	0.	128.51
4874	1.2735	5.5008	0.	127.9
4875	1.0209	5.751	0.	128.37
4876	2.9056	2.2833	0.	133.44
4877	2.952	2.7756	0.	134.02
4878	0.24988	-9.	0.	120.41
4879	4.2559	0.23312	0.	126.03
4880	-3.5272	6.7151	0.	128.84
4881	-3.2634	6.4736	0.	129.26
4882	-5.3898	8.7546	0.	127.7
4883	-6.1846	0.45715	0.	117.99
4884	-2.508	-1.1006	0.	134.6
4885	7.306	4.0502	0.	121.34
4886	0.77333	7.9902	0.	127.63
4887	0.51703	8.2429	0.	126.24
4888	-1.7683	8.0009	0.	126.7
4889	-2.0251	8.2492	0.	126.88
4890	-3.3299	-2.2236	0.	131.3
4891	-3.0649	-2.6582	0.	130.43
4892	-3.0663	-2.0869	0.	131.27
4893	-5.9951	-8.2537	0.	122.57
4894	-1.7652	8.9976	0.	125.31
4895	-2.0226	8.7475	0.	126.04
4896	1.1925	-1.5434	0.	128.99
4897	0.71233	-1.5551	0.	130.26
4898	-1.5123	8.7487	0.	124.87
4899	-1.5128	8.2503	0.	125.42
4900	-1.7697	8.4986	0.	125.6
4901	-1.2588	8.4992	0.	123.68
4902	-5.9389	0.22257	0.	116.55
4903	-1.2577	8.9984	0.	124.32
4904	-1.0043	8.7489	0.	123.14
4905	-8.0179	5.7462	0.	133.17
4906	3.8342	-5.5105	0.	126.45
4907	-4.2408	5.9345	0.	135.
4908	-3.7944	6.9567	0.	127.65
4909	-5.2414	-7.0025	0.	119.77
4910	2.7482	-9.0013	0.	127.79
4911	-0.2663	-0.63684	0.	129.74
4912	-2.2889	-1.9088	0.	128.63
4913	-2.7932	-1.839	0.	131.
4914	-2.5335	-1.6191	0.	131.34
4915	-3.8057	-2.0598	0.	132.42
4916	6.6165	-4.5056	0.	129.66
4917	3.0499	5.1977	0.	128.52
4918	3.2966	4.9444	0.	128.35
4919	3.0349	4.7156	0.	128.54
4920	1.666	-1.5248	0.	128.95
4921	-3.51	-3.7402	0.	131.72
4922	-3.7627	-3.4955	0.	133.14
4923	-4.1663	-2.7471e-002	0.	128.31
4924	-7.8531	6.9933	0.	127.1
4925	-7.5734	6.7558	0.	130.39
4926	-5.7554	8.9542	0.	120.08
4927	-3.992	4.707	0.	133.95
4928	8.7522	-7.4914	0.	126.54
4929	1.7626	-4.9962	0.	129.88
4930	-2.2902	4.3285	0.	130.07
4931	-2.0246	4.5047	0.	128.09
4932	3.313	5.4217	0.	129.8
4933	3.5597	5.1684	0.	129.62
4934	3.8633	6.3201	0.	128.37
4935	-5.6904	-1.9136e-002	0.	115.47
4936	-9.0012	4.2478	0.	127.11
4937	-9.0008	3.7455	0.	126.75
4938	-7.7848	2.0326	0.	125.47
4939	3.3488	6.3914	0.	129.19
4940	4.5537	-4.0655	0.	130.44
4941	6.0766e-002	2.8582	0.	124.01
4942	-1.5113	7.7531	0.	127.6
4943	1.5007	-4.7495	0.	128.95
4944	-7.3455	-2.9943	0.	121.53
4945	1.7916	5.9833	0.	127.51
4946	2.8479	6.9385	0.	127.91
4947	1.6169	2.1621	0.	128.27
4948	1.8923	-1.2669	0.	129.18
4949	0.4658	-1.3259	0.	130.22
4950	7.959	2.7333	0.	120.8
4951	1.5318	5.7436	0.	127.54
4952	-2.3735	1.0076	0.	133.44
4953	-2.7226	0.83106	0.	133.88
4954	-9.0129	7.7479	0.	125.53
4955	1.2612	4.027	0.	127.68
4956	-9.0062	8.2475	0.	125.48
4957	-4.9946	-7.2518	0.	122.01
4958	-2.5	-7.7499	0.	128.01
4959	-3.5581	7.223	0.	127.23
4960	6.0776	6.2844	0.	131.16
4961	-7.7589	8.9996	0.	126.89
4962	-2.0216	-3.2134	0.	127.81
4963	6.1263	5.2513	0.	135.81
4964	3.1162	7.1815	0.	127.56
4965	3.1009	6.6718	0.	128.4
4966	8.0033	8.7514	0.	120.69
4967	8.2533	8.5012	0.	120.32
4968	4.9776	-7.271	0.	125.78
4969	1.2792	5.9938	0.	128.01
4970	-0.75076	8.4987	0.	121.9
4971	3.9224	7.4986	0.	125.76
4972	-6.2932	8.9893	0.	119.67
4973	3.406	7.4247	0.	126.73
4974	7.0359	-4.4468	0.	128.82
4975	5.8631	6.0592	0.	128.9
4976	5.6364	5.8603	0.	126.36
4977	6.0729	5.7619	0.	134.06
4978	5.8461	5.5631	0.	131.5
4979	-2.2393	1.4855	0.	133.78
4980	-2.0276	1.4331	0.	127.24
4981	-9.452	0.77052	0.	134.01
4982	-9.4456	1.2427	0.	135.93
4983	-2.0299	1.6645	0.	128.37
4984	-5.	-1.	0.	95.634
4985	-6.	-1.	0.	95.243
4986	-5.	-3.	0.	93.889
4987	-6.	-3.	0.	96.242
4988	-5.5	-1.	0.	108.95
4989	-5.	-1.5	0.	100.07
4990	-5.	-2.	0.	99.058
4991	-5.	-2.5	0.	99.383
4992	-6.	-1.5	0.	99.489
4993	-6.	-2.	0.	98.725
4994	-6.	-2.5	0.	99.668
4995	-5.5	-3.	0.	106.26
4996	-5.5	-1.5	0.	104.06
4997	-5.5	-2.	0.	101.99
4998	-5.5	-2.5	0.	103.36
4999	-5.25	-1.	0.	102.25
5000	-5.	-1.25	0.	97.849
5001	-5.75	-1.	0.	102.05
5002	-6.	-1.25	0.	97.364
5003	-5.	-2.75	0.	96.634
5004	-5.25	-3.	0.	100.05
5005	-6.	-2.75	0.	97.941
5006	-5.75	-3.	0.	101.23
5007	-5.5	-1.25	0.	106.45
5008	-5.	-1.75	0.	99.527
5009	-5.25	-1.5	0.	102.01
5010	-5.	-2.25	0.	99.19
5011	-5.25	-2.	0.	100.52
5012	-5.25	-2.5	0.	101.35
5013	-6.	-1.75	0.	99.076
5014	-5.75	-1.5	0.	101.72
5015	-6.	-2.25	0.	99.175
5016	-5.75	-2.	0.	100.36
5017	-5.75	-2.5	0.	101.49
5018	-5.5	-2.75	0.	104.76
5019	-5.5	-1.75	0.	103.02
5020	-5.5	-2.25	0.	102.67
5021	-5.	5.	0.	98.874
5022	-7.	5.	0.	97.219
5023	-5.	3.	0.	97.959
5024	-7.	3.	0.	96.744
5025	-5.5	5.	0.	110.02
5026	-6.	5.	0.	106.15
5027	-6.5	5.	0.	108.98
5028	-5.	4.5	0.	102.47
5029	-5.	4.	0.	101.22
5030	-5.	3.5	0.	102.41
5031	-7.	4.5	0.	100.74
5032	-7.	4.	0.	99.624
5033	-7.	3.5	0.	100.98
5034	-6.5	3.	0.	111.03
5035	-6.	3.	0.	108.72
5036	-5.5	3.	0.	111.48
5037	-6.	4.	0.	110.29
5038	-5.5	4.	0.	107.98
5039	-5.5	3.5	0.	108.92
5040	-6.	3.5	0.	110.93
5041	-6.5	3.5	0.	108.24
5042	-6.5	4.	0.	107.14
5043	-6.5	4.5	0.	107.4
5044	-6.	4.5	0.	109.72
5045	-5.5	4.5	0.	108.34
5046	-5.25	5.	0.	104.38
5047	-5.	4.75	0.	100.67
5048	-6.75	5.	0.	103.05
5049	-7.	4.75	0.	98.977
5050	-5.	3.25	0.	100.17
5051	-5.25	3.	0.	104.64
5052	-7.	3.25	0.	98.849
5053	-6.75	3.	0.	103.8
5054	-5.75	5.	0.	108.08
5055	-5.5	4.75	0.	109.15
5056	-6.25	5.	0.	107.56
5057	-6.	4.75	0.	107.92
5058	-6.5	4.75	0.	108.16
5059	-5.	4.25	0.	101.83
5060	-5.25	4.5	0.	105.4
5061	-5.	3.75	0.	101.79
5062	-5.25	4.	0.	104.6
5063	-5.25	3.5	0.	105.65
5064	-7.	4.25	0.	100.16
5065	-6.75	4.5	0.	104.06
5066	-7.	3.75	0.	100.28
5067	-6.75	4.	0.	103.38
5068	-6.75	3.5	0.	104.59
5069	-6.25	3.	0.	109.87
5070	-6.5	3.25	0.	109.6
5071	-5.75	3.	0.	110.1
5072	-6.	3.25	0.	109.81
5073	-5.5	3.25	0.	110.17
5074	-5.75	4.	0.	109.14
5075	-6.	3.75	0.	110.61
5076	-6.25	4.	0.	108.71
5077	-6.	4.25	0.	110.
5078	-5.5	3.75	0.	108.45
5079	-5.5	4.25	0.	108.15
5080	-5.75	3.5	0.	109.91
5081	-6.25	3.5	0.	109.57
5082	-6.5	3.75	0.	107.68
5083	-6.5	4.25	0.	107.26
5084	-6.25	4.5	0.	108.56
5085	-5.75	4.5	0.	109.02
5086	0.	-2.	0.	94.222
5087	-1.	-2.	0.	90.295
5088	0.	-4.	0.	90.936
5089	-1.	-4.	0.	92.727
5090	-0.5	-2.	0.	105.17
5091	0.	-2.5	0.	96.522
5092	0.	-3.	0.	95.16
5093	0.	-3.5	0.	95.719
5094	-1.	-2.5	0.	95.473
5095	-1.	-3.	0.	94.854
5096	-1.	-3.5	0.	95.992
5097	-0.5	-4.	0.	104.77
5098	-0.5	-2.5	0.	100.01
5099	-0.5	-3.	0.	97.926
5100	-0.5	-3.5	0.	99.802
5101	-0.25	-2.	0.	99.646
5102	0.	-2.25	0.	95.37
5103	-0.75	-2.	0.	97.694
5104	-1.	-2.25	0.	92.877
5105	0.	-3.75	0.	93.323
5106	-0.25	-4.	0.	97.808
5107	-1.	-3.75	0.	94.358
5108	-0.75	-4.	0.	98.71
5109	-0.5	-2.25	0.	102.55
5110	0.	-2.75	0.	95.811
5111	-0.25	-2.5	0.	98.22
5112	0.	-3.25	0.	95.408
5113	-0.25	-3.	0.	96.542
5114	-0.25	-3.5	0.	97.723
5115	-1.	-2.75	0.	95.127
5116	-0.75	-2.5	0.	97.706
5117	-1.	-3.25	0.	95.387
5118	-0.75	-3.	0.	96.389
5119	-0.75	-3.5	0.	97.851
5120	-0.5	-3.75	0.	102.24
5121	-0.5	-2.75	0.	98.966
5122	-0.5	-3.25	0.	98.864
5123	0.	7.	0.	94.573
5124	-1.	7.	0.	94.538
5125	0.	5.	0.	94.886
5126	-1.	5.	0.	91.799
5127	-0.5	7.	0.	108.44
5128	0.	6.5	0.	98.607
5129	0.	6.	0.	97.139
5130	0.	5.5	0.	97.893
5131	-1.	6.5	0.	97.928
5132	-1.	6.	0.	96.394
5133	-1.	5.5	0.	96.635
5134	-0.5	5.	0.	106.67
5135	-0.5	6.5	0.	102.49
5136	-0.5	6.	0.	99.897
5137	-0.5	5.5	0.	101.57
5138	-0.25	7.	0.	101.44
5139	0.	6.75	0.	96.583
5140	-0.75	7.	0.	101.44
5141	-1.	6.75	0.	96.23
5142	0.	5.25	0.	96.389
5143	-0.25	5.	0.	100.73
5144	-1.	5.25	0.	94.213
5145	-0.75	5.	0.	99.191
5146	-0.5	6.75	0.	105.42
5147	0.	6.25	0.	97.839
5148	-0.25	6.5	0.	100.49
5149	0.	5.75	0.	97.481
5150	-0.25	6.	0.	98.517
5151	-0.25	5.5	0.	99.688
5152	-1.	6.25	0.	97.121
5153	-0.75	6.5	0.	100.15
5154	-1.	5.75	0.	96.475
5155	-0.75	6.	0.	98.144
5156	-0.75	5.5	0.	99.067
5157	-0.5	5.25	0.	104.08
5158	-0.5	6.25	0.	101.19
5159	-0.5	5.75	0.	100.73
5160	1.	-6.	0.	98.41
5161	-1.	-6.	0.	96.137
5162	1.	-7.	0.	97.896
5163	-1.	-7.	0.	97.066
5164	0.5	-6.	0.	113.44
5165	0.	-6.	0.	110.89
5166	-0.5	-6.	0.	111.59
5167	1.	-6.5	0.	102.89
5168	-1.	-6.5	0.	101.41
5169	-0.5	-7.	0.	113.11
5170	0.	-7.	0.	111.86
5171	0.5	-7.	0.	113.79
5172	-0.5	-6.5	0.	111.15
5173	-6.8932e-017	-6.5	0.	114.52
5174	0.5	-6.5	0.	112.26
5175	0.75	-6.	0.	105.88
5176	1.	-6.25	0.	100.63
5177	-0.75	-6.	0.	103.84
5178	-1.	-6.25	0.	98.756
5179	1.	-6.75	0.	100.37
5180	0.75	-7.	0.	105.8
5181	-1.	-6.75	0.	99.218
5182	-0.75	-7.	0.	105.04
5183	0.25	-6.	0.	112.16
5184	0.5	-6.25	0.	112.83
5185	-0.25	-6.	0.	111.23
5186	-3.4466e-017	-6.25	0.	112.69
5187	-0.5	-6.25	0.	111.35
5188	0.75	-6.5	0.	107.56
5189	-0.75	-6.5	0.	106.27
5190	-0.25	-7.	0.	112.48
5191	-0.5	-6.75	0.	112.11
5192	0.25	-7.	0.	112.83
5193	-3.4466e-017	-6.75	0.	113.18
5194	0.5	-6.75	0.	113.01
5195	-0.25	-6.5	0.	112.83
5196	0.25	-6.5	0.	113.39
5197	6.	3.	0.	99.012
5198	5.	3.	0.	93.94
5199	6.	2.	0.	94.526
5200	5.	2.	0.	98.818
5201	5.5	3.	0.	111.43
5202	6.	2.5	0.	101.31
5203	5.	2.5	0.	101.6
5204	5.5	2.	0.	112.08
5205	5.5	2.5	0.	109.09
5206	5.75	3.	0.	105.2
5207	6.	2.75	0.	100.16
5208	5.25	3.	0.	102.67
5209	5.	2.75	0.	97.75
5210	6.	2.25	0.	97.895
5211	5.75	2.	0.	103.27
5212	5.	2.25	0.	100.21
5213	5.25	2.	0.	105.42
5214	5.5	2.75	0.	110.22
5215	5.75	2.5	0.	105.18
5216	5.25	2.5	0.	105.31
5217	5.5	2.25	0.	110.53
5218	9.	1.	0.	96.872
5219	8.	1.	0.	96.962
5220	9.	-1.	0.	97.784
5221	8.	-1.	0.	97.65
5222	8.5	1.	0.	110.81
5223	9.	0.5	0.	100.67
5224	9.	0.	0.	100.12
5225	9.	-0.5	0.	101.35
5226	8.	0.5	0.	100.12
5227	8.	0.	0.	99.379
5228	8.	-0.5	0.	102.08
5229	8.5	-1.	0.	111.86
5230	8.5	0.5	0.	104.83
5231	8.5	0.	0.	103.04
5232	8.5	-0.5	0.	106.13
5233	8.75	1.	0.	103.79
5234	9.	0.75	0.	98.764
5235	8.25	1.	0.	103.82
5236	8.	0.75	0.	98.523
5237	9.	-0.75	0.	99.566
5238	8.75	-1.	0.	104.78
5239	8.	-0.75	0.	99.85
5240	8.25	-1.	0.	104.69
5241	8.5	0.75	0.	107.78
5242	9.	0.25	0.	100.38
5243	8.75	0.5	0.	102.7
5244	9.	-0.25	0.	100.71
5245	8.75	0.	0.	101.58
5246	8.75	-0.5	0.	103.69
5247	8.	0.25	0.	99.647
5248	8.25	0.5	0.	102.41
5249	8.	-0.25	0.	100.68
5250	8.25	0.	0.	101.2
5251	8.25	-0.5	0.	104.06
5252	8.5	-0.75	0.	108.95
5253	8.5	0.25	0.	103.93
5254	8.5	-0.25	0.	104.58
5255	9.	7.	0.	100.49
5256	7.	7.	0.	99.552
5257	9.	5.	0.	99.772
5258	7.	5.	0.	98.835
5259	8.5	7.	0.	114.26
5260	8.	7.	0.	111.83
5261	7.5	7.	0.	114.18
5262	9.	6.5	0.	105.05
5263	9.	6.	0.	104.08
5264	9.	5.5	0.	104.73
5265	7.	6.5	0.	104.55
5266	7.	6.	0.	103.62
5267	7.	5.5	0.	104.03
5268	7.5	5.	0.	112.8
5269	8.	5.	0.	110.63
5270	8.5	5.	0.	113.35
5271	8.	6.5	0.	114.83
5272	8.5	6.5	0.	112.52
5273	8.5	5.5	0.	111.97
5274	8.	5.5	0.	114.07
5275	7.5	5.5	0.	111.39
5276	7.5	6.5	0.	112.23
5277	7.5	6.	0.	111.42
5278	8.5	6.	0.	111.87
5279	8.	6.	0.	114.61
5280	8.75	7.	0.	107.31
5281	9.	6.75	0.	102.77
5282	7.25	7.	0.	106.8
5283	7.	6.75	0.	102.04
5284	9.	5.25	0.	102.25
5285	8.75	5.	0.	106.5
5286	7.	5.25	0.	101.42
5287	7.25	5.	0.	105.76
5288	8.25	7.	0.	113.04
5289	8.5	6.75	0.	113.35
5290	7.75	7.	0.	113.01
5291	8.	6.75	0.	113.32
5292	7.5	6.75	0.	113.17
5293	9.	6.25	0.	104.55
5294	8.75	6.5	0.	108.78
5295	9.	5.75	0.	104.38
5296	8.75	6.	0.	107.97
5297	8.75	5.5	0.	108.34
5298	7.	6.25	0.	104.06
5299	7.25	6.5	0.	108.38
5300	7.	5.75	0.	103.8
5301	7.25	6.	0.	107.52
5302	7.25	5.5	0.	107.7
5303	7.75	5.	0.	111.71
5304	7.5	5.25	0.	112.06
5305	8.25	5.	0.	111.99
5306	8.	5.25	0.	112.32
5307	8.5	5.25	0.	112.62
5308	8.25	6.5	0.	113.67
5309	7.75	6.5	0.	113.52
5310	8.	6.25	0.	114.72
5311	8.5	6.25	0.	112.19
5312	8.25	5.5	0.	113.01
5313	8.5	5.75	0.	111.92
5314	7.75	5.5	0.	112.72
5315	8.	5.75	0.	114.34
5316	7.5	5.75	0.	111.39
5317	7.5	6.25	0.	111.82
5318	7.75	6.	0.	113.02
5319	8.25	6.	0.	113.24
5320	-7.78	-0.1	0.	67.627
5321	-7.96	1.08	0.	95.078
5322	-8.89	0.33	0.	70.526
5323	-7.84	0.29333	0.	102.43
5324	-7.9	0.68667	0.	101.81
5325	-8.15	4.3333e-002	0.	105.21
5326	-8.52	0.18667	0.	109.54
5327	-8.27	0.83	0.	94.36
5328	-8.58	0.58	0.	99.231
5329	-8.1113	0.31077	0.	99.933
5330	-8.1514	0.58622	0.	101.67
5331	-8.3671	0.41132	0.	104.51
5332	-7.81	9.6667e-002	0.	83.95
5333	-7.965	-2.8333e-002	0.	85.08
5334	-7.93	0.88333	0.	95.515
5335	-8.115	0.955	0.	92.485
5336	-8.705	0.25833	0.	84.13
5337	-8.735	0.455	0.	78.893
5338	-7.87	0.49	0.	101.95
5339	-7.9756	0.30205	0.	101.18
5340	-8.0257	0.63644	0.	101.61
5341	-8.335	0.115	0.	107.25
5342	-8.1306	0.17705	0.	102.52
5343	-8.4436	0.29899	0.	106.4
5344	-8.425	0.705	0.	96.658
5345	-8.2107	0.70811	0.	97.973
5346	-8.4736	0.49566	0.	101.35
5347	-8.1313	0.4485	0.	100.78
5348	-8.2392	0.36105	0.	102.1
5349	-8.2593	0.49877	0.	102.96
5350	-6.79	7.14	0.	66.112
5351	-5.48	6.75	0.	61.813
5352	-5.8	8.08	0.	98.907
5353	-6.3533	7.01	0.	106.96
5354	-5.9167	6.88	0.	104.27
5355	-6.46	7.4533	0.	94.18
5356	-6.13	7.7667	0.	90.75
5357	-5.5867	7.1933	0.	98.906
5358	-5.6933	7.6367	0.	96.96
5359	-5.9717	7.4983	0.	99.066
5360	-5.8977	7.1908	0.	96.432
5361	-6.2006	7.2809	0.	100.37
5362	-6.5717	7.075	0.	82.428
5363	-6.625	7.2967	0.	76.227
5364	-5.6983	6.815	0.	82.314
5365	-5.5333	6.9717	0.	79.88
5366	-5.965	7.9233	0.	93.144
5367	-5.7467	7.8583	0.	95.473
5368	-6.135	6.945	0.	105.45
5369	-6.277	7.1455	0.	103.2
5370	-5.9072	7.0354	0.	100.32
5371	-6.295	7.61	0.	92.411
5372	-6.3303	7.3671	0.	96.975
5373	-6.0509	7.6325	0.	94.895
5374	-5.64	7.415	0.	97.788
5375	-5.7422	7.192	0.	97.66
5376	-5.8325	7.5675	0.	97.86
5377	-5.9347	7.3445	0.	97.735
5378	-6.0862	7.3896	0.	99.622
5379	-6.0492	7.2358	0.	98.327
5380	-8.44	-4.15	0.	66.384
5381	-7.55	-5.15	0.	107.92
5382	-7.13	-3.87	0.	60.107
5383	-8.1433	-4.4833	0.	97.486
5384	-7.8467	-4.8167	0.	93.017
5385	-8.0033	-4.0567	0.	115.37
5386	-7.5667	-3.9633	0.	114.39
5387	-7.41	-4.7233	0.	99.265
5388	-7.27	-4.2967	0.	103.21
5389	-7.6704	-4.5658	0.	104.21
5390	-7.8762	-4.3345	0.	105.23
5391	-7.5733	-4.2698	0.	102.16
5392	-8.2917	-4.3167	0.	78.229
5393	-8.2217	-4.1033	0.	87.098
5394	-7.6983	-4.9833	0.	98.831
5395	-7.48	-4.9367	0.	101.27
5396	-7.3483	-3.9167	0.	86.985
5397	-7.2	-4.0833	0.	81.497
5398	-7.995	-4.65	0.	95.158
5399	-8.0098	-4.4089	0.	101.07
5400	-7.7586	-4.6912	0.	98.609
5401	-7.785	-4.01	0.	114.75
5402	-7.9398	-4.1956	0.	109.92
5403	-7.57	-4.1165	0.	108.25
5404	-7.34	-4.51	0.	101.07
5405	-7.5402	-4.6445	0.	101.59
5406	-7.4217	-4.2832	0.	102.65
5407	-7.7733	-4.4501	0.	104.61
5408	-7.6219	-4.4178	0.	103.15
5409	-7.7248	-4.3021	0.	103.58
5410	-0.47	-0.27	0.	59.909
5411	-0.97	1.23	0.	99.977
5412	-2.02	4.e-002	0.	65.935
5413	-0.63667	0.23	0.	98.89
5414	-0.80333	0.73	0.	92.156
5415	-0.98667	-0.16667	0.	110.19
5416	-1.5033	-6.3333e-002	0.	111.72
5417	-1.32	0.83333	0.	87.393
5418	-1.67	0.43667	0.	95.777
5419	-1.1109	0.54067	0.	97.649
5420	-0.99535	0.19384	0.	97.312
5421	-1.3537	0.26551	0.	100.27
5422	-0.55333	-2.e-002	0.	79.31
5423	-0.72833	-0.21833	0.	84.864
5424	-0.88667	0.98	0.	94.604
5425	-1.145	1.0317	0.	92.54
5426	-1.7617	-1.1667e-002	0.	85.871
5427	-1.845	0.23833	0.	78.103
5428	-0.72	0.48	0.	95.411
5429	-0.81601	0.21192	0.	98.082
5430	-0.95713	0.63533	0.	94.832
5431	-1.245	-0.115	0.	110.85
5432	-0.99101	1.3587e-002	0.	103.7
5433	-1.4285	0.10109	0.	105.7
5434	-1.495	0.635	0.	91.513
5435	-1.2155	0.687	0.	92.511
5436	-1.5119	0.35109	0.	97.793
5437	-1.0531	0.36725	0.	97.434
5438	-1.2323	0.40309	0.	98.841
5439	-1.1745	0.22967	0.	98.657
5440	-1.98	2.5	0.	62.193
5441	-0.65	2.28	0.	55.505
5442	-1.12	3.54	0.	102.69
5443	-1.5367	2.4267	0.	109.4
5444	-1.0933	2.3533	0.	107.35
5445	-1.6933	2.8467	0.	94.169
5446	-1.4067	3.1933	0.	88.748
5447	-0.80667	2.7	0.	96.725
5448	-0.96333	3.12	0.	92.405
5449	-1.22	2.9506	0.	98.115
5450	-1.1113	2.6593	0.	96.092
5451	-1.4188	2.7101	0.	99.489
5452	-1.7583	2.4633	0.	82.745
5453	-1.8367	2.6733	0.	75.124
5454	-0.87167	2.3167	0.	81.3
5455	-0.72833	2.49	0.	76.08
5456	-1.2633	3.3667	0.	94.277
5457	-1.0417	3.33	0.	95.493
5458	-1.315	2.39	0.	108.22
5459	-1.4777	2.5684	0.	104.08
5460	-1.1023	2.5063	0.	101.7
5461	-1.55	3.02	0.	91.399
5462	-1.5561	2.7784	0.	96.608
5463	-1.3133	3.072	0.	93.43
5464	-0.885	2.91	0.	94.419
5465	-0.95897	2.6796	0.	96.384
5466	-1.0916	3.0353	0.	95.13
5467	-1.1656	2.8049	0.	97.066
5468	-1.3194	2.8304	0.	98.7
5469	-1.265	2.6847	0.	97.695
5470	1.62	1.06	0.	71.279
5471	0.56	1.65	0.	82.381
5472	0.58	0.43	0.	85.608
5473	1.2667	1.2567	0.	104.91
5474	0.91333	1.4533	0.	101.61
5475	1.2733	0.85	0.	102.67
5476	0.92667	0.64	0.	98.238
5477	0.56667	1.2433	0.	106.07
5478	0.57333	0.83667	0.	104.37
5479	1.0824	1.0494	0.	105.18
5480	0.83734	1.1865	0.	102.11
5481	0.84194	0.90393	0.	101.34
5482	1.4433	1.1583	0.	81.608
5483	1.4467	0.955	0.	80.395
5484	0.73667	1.5517	0.	89.888
5485	0.56333	1.4467	0.	91.982
5486	0.75333	0.535	0.	89.79
5487	0.57667	0.63333	0.	92.639
5488	1.09	1.355	0.	103.11
5489	1.1745	1.153	0.	104.41
5490	0.87534	1.3199	0.	101.8
5491	1.1	0.745	0.	100.29
5492	1.1779	0.9497	0.	103.24
5493	0.8843	0.77197	0.	99.716
5494	0.57	1.04	0.	105.08
5495	0.702	1.2149	0.	104.05
5496	0.70764	0.8703	0.	102.82
5497	0.95986	1.118	0.	103.53
5498	0.96216	0.97667	0.	103.12
5499	0.83964	1.0452	0.	101.72
5500	5.42	-5.56	0.	51.243
5501	6.42	-5.52	0.	51.315
5502	5.88	-4.67	0.	107.68
5503	5.92	-5.54	0.	120.63
5504	5.65	-5.115	0.	87.278
5505	6.15	-5.095	0.	84.301
5506	5.9065	-5.2501	0.	102.07
5507	5.67	-5.55	0.	85.728
5508	5.535	-5.3375	0.	68.26
5509	6.17	-5.53	0.	85.14
5510	6.285	-5.3075	0.	65.912
5511	5.765	-4.8925	0.	96.342
5512	6.015	-4.8825	0.	95.223
5513	5.9133	-5.3951	0.	111.34
5514	5.7783	-5.1826	0.	94.201
5515	6.0283	-5.1726	0.	92.678
5516	6.64	-0.25	0.	89.33
5517	6.73	0.82	0.	77.403
5518	5.75	0.37	0.	61.787
5519	6.685	0.285	0.	103.7
5520	6.195	6.e-002	0.	92.158
5521	6.24	0.595	0.	103.02
5522	6.3736	0.31348	0.	101.8
5523	6.6625	1.75e-002	0.	94.586
5524	6.4175	-9.5e-002	0.	89.109
5525	6.7075	0.5525	0.	89.489
5526	6.485	0.7075	0.	88.568
5527	5.9725	0.215	0.	71.846
5528	5.995	0.4825	0.	77.631
5529	6.5293	0.29924	0.	102.73
5530	6.2843	0.18674	0.	96.122
5531	6.3068	0.45424	0.	101.63
5532	5.69	4.6	0.	71.596
5533	4.61	5.33	0.	86.563
5534	4.52	4.02	0.	79.554
5535	5.33	4.8433	0.	100.34
5536	4.97	5.0867	0.	96.942
5537	5.3	4.4067	0.	103.61
5538	4.91	4.2133	0.	100.68
5539	4.58	4.8933	0.	102.8
5540	4.55	4.4567	0.	104.44
5541	4.8649	4.809	0.	100.35
5542	4.8439	4.5054	0.	99.862
5543	5.114	4.6395	0.	103.37
5544	5.51	4.7217	0.	79.993
5545	5.495	4.5033	0.	81.965
5546	4.79	5.2083	0.	89.685
5547	4.595	5.1117	0.	92.259
5548	4.715	4.1167	0.	88.172
5549	4.535	4.2383	0.	90.096
5550	5.15	4.965	0.	98.514
5551	5.222	4.7414	0.	101.28
5552	4.9174	4.9478	0.	98.589
5553	5.105	4.31	0.	101.99
5554	5.207	4.5231	0.	102.89
5555	4.877	4.3594	0.	100.19
5556	4.565	4.675	0.	103.47
5557	4.7224	4.8512	0.	101.51
5558	4.697	4.481	0.	102.12
5559	4.8544	4.6572	0.	100.1
5560	4.9894	4.7243	0.	101.74
5561	4.9789	4.5725	0.	101.52
5562	-5.	-4.	0.	92.831
5563	-6.	-4.	0.	92.001
5564	-5.	-6.	0.	95.608
5565	-6.	-6.	0.	96.831
5566	-5.5	-4.	0.	103.61
5567	-5.	-4.5	0.	96.748
5568	-5.	-5.	0.	97.046
5569	-5.	-5.5	0.	99.199
5570	-6.	-4.5	0.	96.641
5571	-6.	-5.	0.	97.951
5572	-6.	-5.5	0.	100.51
5573	-5.5	-6.	0.	110.02
5574	-5.5	-4.5	0.	99.978
5575	-5.5	-5.	0.	100.08
5576	-5.5	-5.5	0.	103.9
5577	-5.25	-4.	0.	98.197
5578	-5.	-4.25	0.	94.779
5579	-5.75	-4.	0.	97.785
5580	-6.	-4.25	0.	94.316
5581	-5.	-5.75	0.	97.398
5582	-5.25	-6.	0.	102.76
5583	-6.	-5.75	0.	98.656
5584	-5.75	-6.	0.	103.37
5585	-5.5	-4.25	0.	101.75
5586	-5.	-4.75	0.	96.877
5587	-5.25	-4.5	0.	98.347
5588	-5.	-5.25	0.	98.093
5589	-5.25	-5.	0.	98.56
5590	-5.25	-5.5	0.	101.49
5591	-6.	-4.75	0.	97.237
5592	-5.75	-4.5	0.	98.283
5593	-6.	-5.25	0.	99.211
5594	-5.75	-5.	0.	99.012
5595	-5.75	-5.5	0.	102.15
5596	-5.5	-5.75	0.	106.93
5597	-5.5	-4.75	0.	100.03
5598	-5.5	-5.25	0.	101.99
