Node Number	X Location (mm)	Y Location (mm)	Z Location (mm)	Equivalent (von-Mises) Stress (MPa)
1	8.37	-0.76	0.	158.18
2	8.13	0.8	0.	130.12
3	6.9	-0.2	0.	160.25
4	-0.3	-2.35	0.	160.39
5	1.61	-1.91	0.	172.38
6	0.27	-0.47	0.	116.8
7	-8.26	-4.13	0.	168.44
8	-7.13	-5.22	0.	124.16
9	-6.75	-3.7	0.	161.42
10	5.	8.	0.	136.75
11	5.	7.	0.	136.14
12	7.	8.	0.	136.76
13	7.	7.	0.	135.93
14	1.	4.	0.	132.12
15	1.	3.	0.	131.73
16	2.	4.	0.	133.35
17	2.	3.	0.	132.35
18	-8.	9.	0.	139.62
19	-8.	7.	0.	136.95
20	-6.	9.	0.	140.03
21	-6.	7.	0.	136.57
22	10.	10.	0.	125.03
23	-10.	10.	0.	125.15
24	10.	-10.	0.	125.19
25	-10.	-10.	0.	126.03
26	8.29	-0.24	0.	143.08
27	8.21	0.28	0.	141.01
28	7.88	-0.57333	0.	104.94
29	7.39	-0.38667	0.	92.544
30	7.72	0.46667	0.	88.633
31	7.31	0.13333	0.	75.534
32	0.1775	-2.24	0.	107.81
33	0.655	-2.13	0.	114.92
34	1.1325	-2.02	0.	99.232
35	-0.1575	-1.88	0.	136.65
36	-1.5e-002	-1.41	0.	134.69
37	0.1275	-0.94	0.	126.85
38	1.275	-1.55	0.	92.275
39	0.94	-1.19	0.	106.58
40	0.605	-0.83	0.	92.57
41	-7.8833	-4.4933	0.	79.812
42	-7.5067	-4.8567	0.	87.249
43	-7.7567	-3.9867	0.	104.11
44	-7.2533	-3.8433	0.	107.99
45	-7.0033	-4.7133	0.	134.88
46	-6.8767	-4.2067	0.	138.53
47	5.	7.5	0.	144.87
48	5.5	8.	0.	118.75
49	6.	8.	0.	124.24
50	6.5	8.	0.	118.81
51	5.5	7.	0.	118.41
52	6.	7.	0.	123.57
53	6.5	7.	0.	118.28
54	7.	7.5	0.	144.88
55	1.	3.5	0.	141.06
56	1.5	4.	0.	110.49
57	1.5	3.	0.	110.08
58	2.	3.5	0.	142.24
59	-8.	8.5	0.	148.24
60	-8.	8.	0.	149.34
61	-8.	7.5	0.	147.47
62	-7.5	9.	0.	119.72
63	-7.	9.	0.	126.01
64	-6.5	9.	0.	119.46
65	-7.5	7.	0.	116.81
66	-7.	7.	0.	121.16
67	-6.5	7.	0.	116.47
68	-6.	8.5	0.	147.21
69	-6.	8.	0.	147.99
70	-6.	7.5	0.	146.27
71	9.5	10.	0.	125.14
72	9.	10.	0.	125.55
73	8.5	10.	0.	125.87
74	8.	10.	0.	125.68
75	7.5	10.	0.	124.66
76	7.	10.	0.	123.01
77	6.5	10.	0.	121.5
78	6.	10.	0.	120.91
79	5.5	10.	0.	121.59
80	5.	10.	0.	123.21
81	4.5	10.	0.	125.
82	4.	10.	0.	126.17
83	3.5	10.	0.	126.53
84	3.	10.	0.	126.38
85	2.5	10.	0.	126.05
86	2.	10.	0.	125.72
87	1.5	10.	0.	125.46
88	1.	10.	0.	125.31
89	0.5	10.	0.	125.24
90	-5.2042e-015	10.	0.	125.26
91	-0.5	10.	0.	125.34
92	-1.	10.	0.	125.48
93	-1.5	10.	0.	125.67
94	-2.	10.	0.	125.94
95	-2.5	10.	0.	126.3
96	-3.	10.	0.	126.8
97	-3.5	10.	0.	127.47
98	-4.	10.	0.	128.4
99	-4.5	10.	0.	129.48
100	-5.	10.	0.	130.5
101	-5.5	10.	0.	128.96
102	-6.	10.	0.	123.16
103	-6.5	10.	0.	118.04
104	-7.	10.	0.	115.48
105	-7.5	10.	0.	117.58
106	-8.	10.	0.	122.01
107	-8.5	10.	0.	126.87
108	-9.	10.	0.	127.48
109	-9.5	10.	0.	125.72
110	10.	9.5	0.	124.75
111	10.	9.	0.	123.86
112	10.	8.5	0.	122.87
113	10.	8.	0.	122.18
114	10.	7.5	0.	122.11
115	10.	7.	0.	122.76
116	10.	6.5	0.	123.91
117	10.	6.	0.	125.14
118	10.	5.5	0.	126.15
119	10.	5.	0.	126.86
120	10.	4.5	0.	127.37
121	10.	4.	0.	127.86
122	10.	3.5	0.	128.53
123	10.	3.	0.	129.52
124	10.	2.5	0.	130.77
125	10.	2.	0.	131.73
126	10.	1.5	0.	131.16
127	10.	1.	0.	127.77
128	10.	0.5	0.	122.75
129	10.	-5.2042e-015	0.	119.37
130	10.	-0.5	0.	121.02
131	10.	-1.	0.	126.53
132	10.	-1.5	0.	130.99
133	10.	-2.	0.	131.76
134	10.	-2.5	0.	130.4
135	10.	-3.	0.	128.63
136	10.	-3.5	0.	127.21
137	10.	-4.	0.	126.24
138	10.	-4.5	0.	125.64
139	10.	-5.	0.	125.3
140	10.	-5.5	0.	125.13
141	10.	-6.	0.	125.06
142	10.	-6.5	0.	125.04
143	10.	-7.	0.	125.06
144	10.	-7.5	0.	125.09
145	10.	-8.	0.	125.12
146	10.	-8.5	0.	125.15
147	10.	-9.	0.	125.17
148	10.	-9.5	0.	125.18
149	-10.	9.5	0.	123.57
150	-10.	9.	0.	120.35
151	-10.	8.5	0.	118.37
152	-10.	8.	0.	118.6
153	-10.	7.5	0.	120.82
154	-10.	7.	0.	124.3
155	-10.	6.5	0.	127.63
156	-10.	6.	0.	129.64
157	-10.	5.5	0.	130.09
158	-10.	5.	0.	129.55
159	-10.	4.5	0.	128.62
160	-10.	4.	0.	127.65
161	-10.	3.5	0.	126.82
162	-10.	3.	0.	126.16
163	-10.	2.5	0.	125.67
164	-10.	2.	0.	125.34
165	-10.	1.5	0.	125.16
166	-10.	1.	0.	125.14
167	-10.	0.5	0.	125.29
168	-10.	-5.2042e-015	0.	125.65
169	-10.	-0.5	0.	126.27
170	-10.	-1.	0.	127.17
171	-10.	-1.5	0.	128.31
172	-10.	-2.	0.	129.45
173	-10.	-2.5	0.	129.97
174	-10.	-3.	0.	128.7
175	-10.	-3.5	0.	125.13
176	-10.	-4.	0.	121.3
177	-10.	-4.5	0.	120.99
178	-10.	-5.	0.	123.98
179	-10.	-5.5	0.	127.61
180	-10.	-6.	0.	129.56
181	-10.	-6.5	0.	129.83
182	-10.	-7.	0.	129.16
183	-10.	-7.5	0.	128.24
184	-10.	-8.	0.	127.41
185	-10.	-8.5	0.	126.77
186	-10.	-9.	0.	126.35
187	-10.	-9.5	0.	126.11
188	-9.5	-10.	0.	125.76
189	-9.	-10.	0.	125.26
190	-8.5	-10.	0.	124.71
191	-8.	-10.	0.	124.25
192	-7.5	-10.	0.	124.
193	-7.	-10.	0.	123.98
194	-6.5	-10.	0.	124.19
195	-6.	-10.	0.	124.54
196	-5.5	-10.	0.	124.96
197	-5.	-10.	0.	125.36
198	-4.5	-10.	0.	125.67
199	-4.	-10.	0.	125.86
200	-3.5	-10.	0.	125.94
201	-3.	-10.	0.	125.9
202	-2.5	-10.	0.	125.78
203	-2.	-10.	0.	125.6
204	-1.5	-10.	0.	125.38
205	-1.	-10.	0.	125.16
206	-0.5	-10.	0.	124.96
207	5.2042e-015	-10.	0.	124.79
208	0.5	-10.	0.	124.67
209	1.	-10.	0.	124.61
210	1.5	-10.	0.	124.6
211	2.	-10.	0.	124.64
212	2.5	-10.	0.	124.71
213	3.	-10.	0.	124.8
214	3.5	-10.	0.	124.89
215	4.	-10.	0.	124.97
216	4.5	-10.	0.	125.04
217	5.	-10.	0.	125.09
218	5.5	-10.	0.	125.12
219	6.	-10.	0.	125.14
220	6.5	-10.	0.	125.14
221	7.	-10.	0.	125.13
222	7.5	-10.	0.	125.13
223	8.	-10.	0.	125.12
224	8.5	-10.	0.	125.12
225	9.	-10.	0.	125.13
226	9.5	-10.	0.	125.15
227	-4.1057	0.64741	0.	126.31
228	-4.0771	1.0936	0.	126.32
229	-4.0226	2.0346	0.	126.25
230	-3.6834	0.61734	0.	126.74
231	-3.5443	1.5337	0.	126.79
232	-4.5127	2.5244	0.	125.74
233	-3.1125	0.99741	0.	127.33
234	-4.0035	3.0103	0.	126.2
235	-4.0103	2.5205	0.	126.2
236	-4.5414	1.5639	0.	125.78
237	-4.5247	2.0428	0.	125.75
238	-4.561	1.0929	0.	125.8
239	-4.0576	-0.3406	0.	126.3
240	-3.5167	2.0156	0.	126.68
241	-4.5057	3.0155	0.	125.78
242	-4.0006	3.5055	0.	126.3
243	-3.2419	0.51556	0.	127.18
244	-3.6698	-0.89174	0.	126.34
245	-4.1378	-0.84046	0.	126.3
246	-4.5693	-0.33386	0.	125.96
247	-3.4989	3.4997	0.	126.47
248	-3.0376	1.4857	0.	127.25
249	-2.6259	0.90427	0.	127.84
250	4.5467	-4.2823	0.	126.89
251	-3.5002	3.002	0.	126.46
252	-3.5046	2.5065	0.	126.54
253	4.479	-5.1088	0.	126.43
254	5.0615	-3.9515	0.	126.55
255	-5.0063	3.0157	0.	125.23
256	-5.0365	1.5586	0.	125.24
257	-5.0234	2.0414	0.	125.22
258	-5.0494	1.0817	0.	125.25
259	-3.4297	5.7381e-002	0.	126.85
260	-3.5705	-0.41486	0.	126.54
261	-4.6267	-0.82166	0.	126.12
262	-5.0828	-0.34124	0.	125.47
263	-5.0587	0.13268	0.	125.35
264	-3.34	-4.8476	0.	126.5
265	-2.9972	3.4936	0.	126.46
266	-3.0064	1.9824	0.	127.02
267	4.934	-4.9437	0.	126.24
268	5.0942	-3.4645	0.	126.71
269	-3.7247	-1.3698	0.	126.29
270	-2.7517	0.39689	0.	127.69
271	-3.2322	-0.96507	0.	126.3
272	-2.5218	1.4191	0.	127.66
273	-3.8526	-5.3561	0.	126.68
274	1.0977	-5.1933	0.	122.42
275	-3.3191	-4.3293	0.	126.49
276	4.1066	-4.2242	0.	127.27
277	-5.0028	3.509	0.	125.34
278	-3.9998	4.0028	0.	126.52
279	-5.1249	-0.81959	0.	125.73
280	-4.1944	-1.3332	0.	126.45
281	-2.8461	-4.8581	0.	126.67
282	-3.4992	4.4996	0.	126.77
283	-2.9998	4.9997	0.	126.58
284	-2.5	5.4997	0.	126.1
285	5.5145	3.513	0.	125.
286	3.2751	-5.3314	0.	126.21
287	-2.9991	4.4978	0.	126.54
288	-2.9983	3.9962	0.	126.47
289	-2.9966	2.9892	0.	126.56
290	-2.9978	2.4851	0.	126.76
291	-2.8807	-5.3767	0.	126.56
292	2.4907	-5.605	0.	125.12
293	2.0537	-5.5926	0.	124.43
294	3.4814	-5.7077	0.	125.98
295	2.8916	-5.5321	0.	125.7
296	4.5364	-5.5502	0.	126.14
297	3.9678	-5.5537	0.	126.22
298	5.4904	-5.4878	0.	125.64
299	4.998	-5.4939	0.	125.95
300	5.5073	-4.48	0.	125.85
301	5.4778	-4.979	0.	125.76
302	5.5491	-3.5074	0.	126.15
303	5.5369	-3.9903	0.	125.95
304	-5.5122	2.5265	0.	124.64
305	-5.5062	3.0155	0.	124.6
306	-5.5217	2.0407	0.	124.68
307	-5.5433	1.0764	0.	124.71
308	-3.276	-1.4146	0.	126.09
309	-2.9403	-6.8726e-002	0.	127.21
310	-3.1104	-0.52067	0.	126.69
311	4.6949	-3.3871	0.	127.06
312	-2.8389	-1.0561	0.	126.22
313	-1.9641	1.3344	0.	127.97
314	-5.5668	0.1249	0.	124.73
315	-5.5904	-0.34929	0.	124.81
316	5.5327	-3.0332	0.	126.54
317	-3.7449	-1.847	0.	126.36
318	2.0943	-5.1693	0.	124.68
319	3.4988	-4.7826	0.	126.93
320	-2.4962	3.4882	0.	126.31
321	-2.4938	1.9419	0.	127.26
322	4.1495	0.53344	0.	127.2
323	3.3059	-3.2729e-002	0.	127.29
324	6.013	3.5221	0.	124.16
325	-3.8254	-4.8327	0.	126.31
326	-1.864	-5.3839	0.	126.01
327	-3.3026	-3.8181	0.	126.55
328	1.5887	-5.0509	0.	123.4
329	3.7011	-4.2677	0.	127.47
330	4.6196	-2.9495	0.	127.1
331	-5.5029	3.5088	0.	124.6
332	-4.5006	4.0051	0.	126.21
333	-2.0001	5.4998	0.	125.88
334	5.9936	-5.4962	0.	125.28
335	-2.6916	-0.67703	0.	126.72
336	3.6285	0.49907	0.	127.47
337	-5.6248	-0.82527	0.	125.03
338	-6.0908	-0.35746	0.	124.01
339	-4.2276	-1.817	0.	126.7
340	-2.3435	-4.8647	0.	126.71
341	-2.8222	-4.3431	0.	126.86
342	4.0289	-3.8148	0.	127.54
343	-3.9995	4.5015	0.	126.87
344	5.507	4.0084	0.	124.31
345	-3.4995	4.9998	0.	126.96
346	-2.9999	5.4999	0.	126.48
347	-2.5001	5.9999	0.	125.78
348	5.5278	3.0203	0.	125.86
349	-6.0681	0.11734	0.	124.08
350	6.0114	-3.051	0.	125.7
351	-3.7559	-2.3261	0.	126.48
352	2.5917	-5.1408	0.	125.65
353	3.0544	-4.9383	0.	126.5
354	-2.4992	4.4979	0.	126.27
355	-2.4977	3.9932	0.	126.26
356	-2.4917	2.464	0.	126.83
357	-4.3332	-5.343	0.	126.84
358	-2.917	-5.8971	0.	126.54
359	-1.9009	-5.9003	0.	125.79
360	-0.86048	-5.8964	0.	124.4
361	0.15691	-5.8832	0.	123.11
362	1.5849	-6.059	0.	123.82
363	1.1277	-6.0385	0.	123.37
364	2.0606	-6.0681	0.	124.4
365	3.5485	-6.1041	0.	125.72
366	3.0635	-5.9975	0.	125.51
367	4.5125	-6.0299	0.	125.87
368	4.0193	-6.0528	0.	125.87
369	5.0068	-6.008	0.	125.75
370	6.0064	-4.5046	0.	125.23
371	5.993	-4.9978	0.	125.26
372	6.0235	-3.5298	0.	125.33
373	6.0205	-4.0149	0.	125.22
374	-6.0105	2.523	0.	124.14
375	-6.0055	3.0139	0.	124.01
376	-6.0283	1.5533	0.	124.25
377	-6.0187	2.0375	0.	124.22
378	-6.0519	0.59367	0.	124.16
379	-6.0399	1.0727	0.	124.22
380	3.7696	1.1589e-003	0.	126.83
381	-2.1639	0.79464	0.	128.35
382	5.5512	2.5288	0.	126.9
383	6.0073	4.0147	0.	123.51
384	-1.3448	-5.3845	0.	125.29
385	0.19389	-5.347	0.	122.41
386	-3.2619	-1.87	0.	126.05
387	-3.2856	-3.3181	0.	126.57
388	1.9947	-4.7755	0.	124.63
389	3.3031	-4.3851	0.	127.41
390	4.5389	-2.5049	0.	126.95
391	-6.0027	3.508	0.	123.84
392	-1.9957	3.4854	0.	126.05
393	-1.98	1.916	0.	127.31
394	5.9976	-5.9977	0.	125.29
395	3.8848	-0.55219	0.	126.13
396	-2.4988	-0.24461	0.	127.49
397	-6.5652	0.10798	0.	123.5
398	-2.5069	-1.287	0.	125.93
399	3.0626	0.4695	0.	127.59
400	-6.1216	-0.8354	0.	124.
401	-4.3096	-4.8193	0.	126.15
402	-4.2493	-2.3031	0.	126.92
403	-5.1685	-1.3028	0.	126.24
404	-1.8296	-4.8684	0.	126.45
405	0.81406	-4.8015	0.	121.29
406	-2.8051	-3.8304	0.	127.03
407	1.346	-4.5791	0.	122.31
408	3.5714	-3.8692	0.	127.9
409	4.177	-2.9306	0.	127.22
410	3.3614	-0.5279	0.	126.63
411	-4.5	4.5027	0.	126.69
412	-1.5001	5.5001	0.	125.81
413	5.0072	4.0039	0.	125.28
414	5.5032	4.5053	0.	123.7
415	-3.4998	5.5	0.	127.02
416	-3.	5.9999	0.	126.17
417	-2.5002	6.5	0.	125.32
418	5.0782	2.0181	0.	128.16
419	-4.9255	-6.3932	0.	128.07
420	5.9788	-2.5795	0.	126.54
421	6.4929	-3.0515	0.	124.35
422	4.5875	1.5091	0.	128.28
423	4.3352	-1.1652	0.	125.96
424	4.9447	-2.0914	0.	127.23
425	-1.0004	6.0001	0.	125.44
426	-3.9996	5.0007	0.	127.29
427	6.0036	4.509	0.	122.85
428	3.8758	-3.3955	0.	127.73
429	-2.3218	-4.3499	0.	127.17
430	-3.7838	-3.3022	0.	126.41
431	-0.29927	-5.37	0.	123.17
432	-3.2587	-2.3385	0.	126.21
433	-3.2695	-2.8238	0.	126.44
434	2.8695	-4.5208	0.	126.93
435	4.4539	-2.0562	0.	126.61
436	4.3781	-1.6057	0.	126.21
437	-5.5013	4.0049	0.	124.69
438	-1.9992	4.4978	0.	126.03
439	-1.9979	3.9933	0.	125.99
440	-1.9878	2.4545	0.	126.74
441	5.0282	3.0094	0.	126.5
442	6.044	2.5487	0.	125.97
443	6.5249	2.5632	0.	124.46
444	6.5064	4.0158	0.	123.05
445	6.51	3.5265	0.	123.35
446	-4.8596	-5.857	0.	128.04
447	-4.8159	-5.3271	0.	127.22
448	-4.4317	-6.4036	0.	127.62
449	-3.4487	-6.4154	0.	126.87
450	-3.9398	-6.4107	0.	127.21
451	-2.9481	-6.4166	0.	126.54
452	-1.9334	-6.4172	0.	125.71
453	-0.90827	-6.4156	0.	124.58
454	0.1024	-6.4127	0.	123.63
455	1.5543	-6.5338	0.	123.98
456	1.0694	-6.4986	0.	123.66
457	2.0445	-6.5422	0.	124.39
458	3.032	-6.5217	0.	125.21
459	4.5114	-6.5215	0.	125.64
460	4.0185	-6.5367	0.	125.61
461	5.0067	-6.509	0.	125.58
462	6.0001	-6.4996	0.	125.28
463	6.498	-6.0001	0.	125.04
464	6.5055	-4.5133	0.	124.59
465	6.4988	-5.0057	0.	124.79
466	6.5067	-3.5382	0.	124.27
467	6.5107	-4.023	0.	124.39
468	-1.0007	6.5	0.	125.02
469	-0.50098	6.5	0.	124.82
470	-1.5005	6.5	0.	125.1
471	-6.5023	3.5063	0.	123.25
472	-6.5011	4.0036	0.	122.82
473	-6.5087	2.5193	0.	123.77
474	-6.5048	3.012	0.	123.56
475	-6.5153	2.0314	0.	123.89
476	-6.5484	0.58563	0.	123.71
477	-6.5358	1.0654	0.	123.85
478	-1.4109	1.434	0.	127.64
479	2.7796	-0.16628	0.	127.76
480	-2.2156	0.23713	0.	128.29
481	2.6133	0.23927	0.	127.47
482	-2.3224	-0.93418	0.	126.5
483	2.5081	0.62696	0.	126.73
484	-4.2665	-2.7927	0.	126.9
485	-5.6635	-1.3065	0.	125.51
486	-2.7643	-1.8516	0.	125.8
487	1.8034	-4.3829	0.	124.25
488	4.0723	-2.4877	0.	126.76
489	3.7827	-1.0741	0.	125.65
490	-5.0004	4.5026	0.	126.09
491	-1.2737e-003	6.5	0.	124.41
492	-1.4998	4.9996	0.	125.95
493	-1.4958	3.4878	0.	125.7
494	-1.4668	1.9476	0.	127.05
495	5.0032	4.5025	0.	125.02
496	-3.0001	6.5	0.	125.63
497	4.5142	3.5016	0.	126.37
498	5.5926	2.0416	0.	128.03
499	-1.8994	-0.15008	0.	128.48
500	-4.7949	-4.8065	0.	126.1
501	4.8908	-1.6468	0.	127.07
502	5.4309	-2.1149	0.	127.78
503	-0.90443	1.4823	0.	126.74
504	-1.0002	5.5003	0.	125.85
505	-3.9998	5.5004	0.	127.65
506	-2.3051	-3.8368	0.	127.63
507	2.9162	-0.595	0.	127.28
508	0.7301	-4.2522	0.	119.58
509	1.1994	-4.1129	0.	121.01
510	-1.9733	-1.2228	0.	126.09
511	4.3857	-0.77015	0.	125.9
512	-4.2798	-3.2885	0.	126.54
513	-6.6476	-1.3259	0.	122.47
514	-0.26799	-4.8453	0.	122.61
515	-2.7683	-2.8213	0.	126.63
516	2.7015	-4.0885	0.	127.58
517	3.9661	-2.0316	0.	126.09
518	3.865	-1.5612	0.	125.58
519	-5.5006	4.5031	0.	124.97
520	0.4985	6.5	0.	123.82
521	-1.4993	4.4978	0.	125.89
522	-1.4982	3.9943	0.	125.72
523	-1.4838	2.4627	0.	126.47
524	6.9757	2.0818	0.	122.8
525	4.5031	4.5005	0.	126.38
526	-3.5001	6.5	0.	126.23
527	1.9976	7.0001	0.	123.7
528	4.5259	3.0027	0.	126.93
529	6.5532	2.1006	0.	125.53
530	6.0959	2.0647	0.	127.3
531	-2.1402	-0.52207	0.	127.47
532	-1.8156	-0.79132	0.	127.28
533	7.0057	3.0319	0.	122.53
534	7.0048	4.0137	0.	122.96
535	-5.3455	-5.8277	0.	128.92
536	-4.9905	-6.9207	0.	127.52
537	-3.4765	-6.9341	0.	126.82
538	-3.9758	-6.933	0.	127.12
539	-2.9708	-6.9334	0.	126.49
540	-1.449	-6.9347	0.	125.22
541	-1.9565	-6.9329	0.	125.69
542	-0.94361	-6.9378	0.	124.75
543	0.54747	-6.9622	0.	123.89
544	5.6983e-002	-6.9451	0.	124.02
545	1.5327	-7.0184	0.	124.14
546	1.0397	-6.9951	0.	123.94
547	2.0306	-7.0271	0.	124.43
548	3.0193	-7.0197	0.	125.04
549	4.5082	-7.0148	0.	125.46
550	4.0123	-7.024	0.	125.4
551	5.0053	-7.0075	0.	125.44
552	6.0011	-7.0006	0.	125.26
553	6.9991	-6.0008	0.	124.85
554	7.0044	-4.5095	0.	124.05
555	7.0011	-5.0051	0.	124.4
556	6.9978	-3.5279	0.	123.12
557	7.0054	-4.0143	0.	123.61
558	6.9974	-2.6674	0.	122.31
559	6.9619	-3.0704	0.	122.82
560	0.99755	7.	0.	123.49
561	1.4975	7.0001	0.	123.41
562	-1.7078e-003	7.	0.	124.22
563	0.49794	7.	0.	123.82
564	-1.0009	7.	0.	124.7
565	-0.50126	7.	0.	124.53
566	-2.0004	7.	0.	124.78
567	-1.5006	7.	0.	124.77
568	-3.0002	7.	0.	124.98
569	-7.0004	4.5015	0.	121.69
570	-7.0002	5.0008	0.	120.6
571	-7.002	3.5053	0.	123.
572	-7.0072	2.5159	0.	123.62
573	-7.004	3.0099	0.	123.38
574	-7.0199	1.5385	0.	123.76
575	-7.0126	2.0261	0.	123.75
576	-7.0435	0.57521	0.	123.46
577	-7.031	1.0566	0.	123.66
578	-7.0788	-0.37911	0.	122.68
579	-7.0593	9.7122e-002	0.	123.13
580	-7.1035	-0.85319	0.	122.05
581	-5.7537	-4.7837	0.	127.5
582	-6.0255	-7.0956	0.	125.74
583	-0.50028	5.5004	0.	125.91
584	-4.4999	5.5007	0.	128.21
585	6.5017	5.0058	0.	122.25
586	3.5	5.4997	0.	128.87
587	3.2963	-3.0063	0.	128.31
588	2.4576	-0.7201	0.	128.43
589	-6.5062	-7.0854	0.	123.9
590	-1.6255	0.26368	0.	129.14
591	-7.0001	5.5004	0.	119.03
592	1.0768	-3.6501	0.	119.27
593	-1.269	0.92848	0.	128.25
594	2.2782	-0.27312	0.	128.46
595	4.3545	-0.36217	0.	126.04
596	7.1369	-2.2577	0.	121.16
597	5.9017	-2.1227	0.	127.77
598	4.0126	3.5	0.	126.74
599	-0.96116	1.9795	0.	126.53
600	-0.99594	3.4951	0.	125.31
601	-0.99991	4.9996	0.	126.08
602	-7.4022e-004	6.0001	0.	124.85
603	1.4989	6.	0.	122.68
604	-3.9999	6.0002	0.	127.72
605	-6.5002	5.0009	0.	121.5
606	3.2281	-1.0208	0.	125.86
607	3.6121	-2.5049	0.	126.86
608	2.9949	-3.531	0.	128.78
609	1.6487	-3.9378	0.	123.92
610	-2.2889	-3.3257	0.	127.77
611	-2.2242	-1.7214	0.	125.49
612	0.23048	-4.2973	0.	119.93
613	-1.301	-4.3532	0.	126.56
614	-5.7016	-1.7914	0.	126.48
615	-7.1339	-1.3247	0.	121.18
616	-1.6083	-0.45131	0.	128.54
617	-4.7844	-3.7874	0.	126.03
618	-4.7753	-3.2809	0.	127.06
619	-6.198	-1.8036	0.	124.71
620	-6.6929	-1.8194	0.	121.96
621	-0.27752	-4.3253	0.	122.13
622	-2.2429	-2.2902	0.	126.15
623	-2.2674	-2.8136	0.	127.2
624	2.1002	-3.7772	0.	126.89
625	2.5447	-3.6521	0.	128.55
626	3.4873	-2.0418	0.	125.77
627	3.3604	-1.5548	0.	125.2
628	2.9985	7.	0.	125.16
629	4.5011	5.0003	0.	126.85
630	-6.0002	5.0011	0.	123.51
631	-5.5003	5.0018	0.	125.59
632	-4.	6.5001	0.	127.25
633	0.4991	6.	0.	123.98
634	-0.9994	4.4987	0.	125.94
635	-0.99821	3.9964	0.	125.54
636	-0.99188	2.9845	0.	125.6
637	-0.98313	2.4819	0.	126.12
638	0.99259	1.0454	0.	119.51
639	4.0029	4.4996	0.	127.46
640	1.999	6.	0.	123.62
641	2.0032	1.0621	0.	123.71
642	2.5333	1.0556	0.	126.23
643	4.0352	2.5011	0.	127.94
644	4.023	3.001	0.	127.23
645	6.3281	-2.1022	0.	126.83
646	6.718	-2.1382	0.	124.48
647	6.7749	1.6311	0.	126.17
648	6.1972	1.5901	0.	128.86
649	4.8407	-0.34045	0.	125.86
650	4.7543	0.10043	0.	126.13
651	1.7883	-0.35397	0.	126.95
652	-0.7875	0.97583	0.	126.92
653	-1.4209	-0.87438	0.	127.72
654	-1.1111	0.43331	0.	129.05
655	-7.0002	-7.0457	0.	121.83
656	7.4241	2.0077	0.	119.26
657	7.478	2.5158	0.	120.58
658	7.5021	4.5046	0.	123.94
659	0.79677	-3.2232	0.	114.58
660	1.9577	-0.81964	0.	129.51
661	-7.	6.0002	0.	116.95
662	-7.5903	-0.86873	0.	121.9
663	-7.5689	-0.39514	0.	122.59
664	-7.5514	8.207e-002	0.	123.09
665	-7.5367	0.5617	0.	123.45
666	-7.5255	1.0449	0.	123.69
667	-7.5166	1.5312	0.	123.81
668	-7.5102	2.0207	0.	123.82
669	-7.506	2.5131	0.	123.73
670	-7.5033	3.0079	0.	123.51
671	-7.5017	3.5046	0.	123.18
672	-7.5009	4.0029	0.	122.72
673	-7.5005	4.5018	0.	122.1
674	-7.5002	5.001	0.	121.3
675	-7.5001	5.5006	0.	120.29
676	-7.6169	-1.3373	0.	120.99
677	-5.2568	-2.775	0.	128.88
678	-5.2856	-4.2881	0.	125.5
679	-7.2751	-2.3697	0.	116.84
680	-5.7321	-2.2819	0.	128.18
681	0.21812	-3.7751	0.	117.88
682	-1.2934	-3.8411	0.	128.14
683	-1.787	-3.331	0.	128.93
684	-1.6679	-1.824	0.	125.68
685	2.8476	-3.0916	0.	129.46
686	1.4931	-3.4764	0.	123.25
687	2.6861	-1.1606	0.	126.45
688	3.1563	-2.558	0.	127.56
689	3.4995	5.9999	0.	128.59
690	-4.0001	7.5	0.	125.12
691	-3.5001	7.5	0.	124.55
692	-3.0002	7.5	0.	124.39
693	-2.5003	7.5	0.	124.42
694	-2.0004	7.5	0.	124.51
695	-1.5007	7.5	0.	124.57
696	-1.0009	7.5	0.	124.55
697	-0.50133	7.5	0.	124.43
698	-1.7861e-003	7.5	0.	124.21
699	0.49778	7.5001	0.	123.94
700	0.99749	7.5001	0.	123.7
701	1.4974	7.5001	0.	123.61
702	1.9976	7.5001	0.	123.73
703	2.498	7.5	0.	124.05
704	2.9984	7.5	0.	124.54
705	3.4989	7.5	0.	125.3
706	5.5003	5.5015	0.	122.11
707	4.0001	5.4999	0.	128.94
708	6.5008	5.5032	0.	121.54
709	7.0015	5.0043	0.	123.47
710	7.5012	5.0028	0.	124.84
711	-5.	5.5007	0.	128.22
712	-6.5001	5.5005	0.	120.49
713	-4.5	7.5	0.	126.54
714	-4.4999	6.0004	0.	128.86
715	-3.1449e-004	5.5003	0.	125.65
716	-0.49995	5.0005	0.	126.42
717	-0.46749	2.0001	0.	125.92
718	-0.49663	3.4978	0.	125.11
719	4.7804e-002	1.5333	0.	123.51
720	3.5009	4.9995	0.	128.82
721	1.4996	5.5	0.	121.56
722	2.9999	5.4997	0.	127.97
723	3.04	1.5124	0.	127.96
724	1.4998	1.5341	0.	119.94
725	3.5104	3.5002	0.	126.96
726	-6.4796	-6.6235	0.	124.61
727	7.2606	-1.3314	0.	119.78
728	7.6554	-1.9005	0.	116.19
729	7.5796	-2.3922	0.	119.04
730	7.4494	-2.921	0.	121.08
731	7.4913	-3.4745	0.	122.25
732	7.5012	-3.991	0.	123.1
733	7.5027	-4.4974	0.	123.73
734	7.5014	-4.9997	0.	124.19
735	7.5002	-5.5002	0.	124.52
736	7.4997	-6.0001	0.	124.75
737	7.4996	-6.5	0.	124.9
738	7.4997	-6.9999	0.	125.
739	7.4998	-7.4999	0.	125.06
740	6.9999	-7.5	0.	125.1
741	6.5003	-7.5002	0.	125.16
742	6.0008	-7.5008	0.	125.23
743	5.5018	-7.5023	0.	125.29
744	5.0032	-7.5053	0.	125.32
745	4.505	-7.5097	0.	125.31
746	4.0072	-7.5147	0.	125.25
747	3.5099	-7.5167	0.	125.12
748	3.0112	-7.5142	0.	124.93
749	2.5142	-7.5158	0.	124.71
750	2.0178	-7.5173	0.	124.48
751	1.519	-7.511	0.	124.28
752	1.0216	-7.4973	0.	124.17
753	0.52594	-7.4797	0.	124.16
754	-0.4663	-7.4588	0.	124.54
755	-0.96697	-7.4547	0.	124.89
756	-1.4676	-7.4494	0.	125.28
757	-2.9856	-7.4476	0.	126.38
758	-3.4886	-7.448	0.	126.66
759	-3.9939	-7.4505	0.	126.86
760	-4.4958	-7.4517	0.	126.94
761	-5.0011	-7.4505	0.	126.8
762	-5.5035	-7.4703	0.	126.24
763	-6.0014	-7.5381	0.	125.18
764	-6.5073	-7.5482	0.	123.8
765	-7.0061	-7.5311	0.	122.57
766	-7.5026	-7.5085	0.	122.1
767	-7.5013	-6.9991	0.	120.93
768	-5.7714	-5.2794	0.	129.43
769	-6.0005	-6.684	0.	126.86
770	7.2119	-1.8	0.	119.89
771	5.8641	-1.6661	0.	129.22
772	5.6927	1.09	0.	129.36
773	5.3723	-1.2194	0.	127.96
774	1.4939	1.0485	0.	121.09
775	-0.61835	0.5112	0.	127.33
776	0.53663	1.0923	0.	119.69
777	-1.0472	-1.4094	0.	127.91
778	5.2073	0.58404	0.	127.12
779	-1.0912	-0.59387	0.	129.13
780	-1.018	-1.0149	0.	128.55
781	9.1879e-002	1.0608	0.	121.66
782	-0.34625	0.98649	0.	124.53
783	1.5049	0.57161	0.	122.42
784	5.273	0.13033	0.	126.
785	5.3298	-0.31806	0.	125.62
786	5.3625	-0.7698	0.	126.93
787	6.2468	1.1209	0.	130.96
788	6.3219	-1.6672	0.	128.8
789	6.7701	-1.7093	0.	125.81
790	-5.8316	-5.7696	0.	130.07
791	-7.4899	-6.4907	0.	118.87
792	-6.981	-6.5617	0.	120.89
793	3.5289	2.5042	0.	128.38
794	3.5201	3.0028	0.	127.49
795	2.0078	1.5371	0.	122.64
796	2.5284	1.5308	0.	126.12
797	1.9997	5.4999	0.	123.23
798	3.5027	4.4994	0.	128.32
799	0.5273	1.5514	0.	121.55
800	1.0111	1.5406	0.	119.86
801	-0.48517	2.4988	0.	125.99
802	-0.49945	4.5006	0.	126.37
803	-0.49845	3.9997	0.	125.6
804	0.49963	5.5002	0.	124.43
805	-4.5	6.5002	0.	128.8
806	-6.0001	5.5006	0.	123.77
807	7.0007	5.5025	0.	123.92
808	7.5007	5.5016	0.	126.13
809	4.5002	5.5002	0.	127.7
810	3.4989	7.	0.	126.24
811	3.4991	6.5	0.	127.73
812	3.016	-2.0973	0.	126.04
813	2.8667	-1.6263	0.	124.7
814	1.9431	-3.3283	0.	127.99
815	2.3932	-3.2058	0.	130.02
816	-1.7652	-2.8233	0.	128.52
817	-0.27714	-3.8096	0.	121.76
818	-6.2318	-2.2954	0.	126.19
819	-6.7409	-2.3213	0.	121.22
820	-5.2814	-3.7827	0.	126.22
821	-5.2697	-3.2814	0.	128.32
822	1.3254	-0.42228	0.	123.29
823	-7.6511	-1.8	0.	119.72
824	-7.7247	-2.6429	0.	116.45
825	-7.7028	-3.0709	0.	114.04
826	1.3127	-3.0201	0.	121.59
827	-1.1484	-1.8626	0.	125.86
828	-0.89891	-1.9456e-002	0.	130.24
829	7.9242	1.9881	0.	118.1
830	7.9675	2.4919	0.	120.41
831	7.9896	2.9981	0.	121.87
832	7.9983	3.5012	0.	122.92
833	8.0012	4.5019	0.	124.7
834	8.0009	5.0014	0.	125.74
835	-8.0129	-5.8226	0.	122.16
836	-7.9966	-6.4017	0.	121.36
837	-7.9981	-6.9641	0.	121.95
838	-8.0003	-7.4896	0.	122.7
839	-7.5	6.0003	0.	118.99
840	-8.0748	-0.89073	0.	122.51
841	-8.0575	-0.41359	0.	123.01
842	-8.0419	6.5077e-002	0.	123.41
843	-8.0298	0.54812	0.	123.72
844	-8.0204	1.0345	0.	123.93
845	-8.0133	1.5238	0.	124.05
846	-8.0081	2.0157	0.	124.09
847	-8.0047	2.51	0.	124.05
848	-8.0013	3.5033	0.	123.74
849	-8.0007	4.002	0.	123.5
850	-8.0002	5.0006	0.	123.17
851	-8.0001	5.5004	0.	123.41
852	7.71	-1.4336	0.	110.97
853	8.115	-1.9782	0.	117.43
854	8.0553	-2.4639	0.	119.45
855	7.9965	-2.9625	0.	120.97
856	7.9944	-3.4704	0.	122.23
857	7.9994	-3.983	0.	123.13
858	8.0011	-4.4914	0.	123.77
859	8.0009	-4.9953	0.	124.22
860	8.0003	-5.4981	0.	124.53
861	8.	-5.9989	0.	124.75
862	7.9999	-6.4994	0.	124.89
863	7.9998	-6.9998	0.	124.98
864	7.9999	-7.4999	0.	125.04
865	7.9999	-7.9999	0.	125.08
866	7.4999	-8.	0.	125.09
867	7.	-8.	0.	125.12
868	6.5002	-8.0002	0.	125.16
869	6.0005	-8.0006	0.	125.2
870	5.5011	-8.0017	0.	125.23
871	5.0018	-8.0035	0.	125.24
872	4.5028	-8.0061	0.	125.21
873	4.0043	-8.0093	0.	125.13
874	3.505	-8.0094	0.	125.02
875	2.5087	-8.0111	0.	124.7
876	2.0102	-8.0112	0.	124.53
877	1.5102	-8.0069	0.	124.4
878	1.0111	-7.9991	0.	124.34
879	0.51274	-7.9894	0.	124.36
880	1.4818e-002	-7.9813	0.	124.49
881	-0.483	-7.9739	0.	124.71
882	-0.9813	-7.9673	0.	124.99
883	-1.4828	-7.9638	0.	125.32
884	-1.9846	-7.9606	0.	125.66
885	-2.4865	-7.9587	0.	125.98
886	-2.991	-7.9593	0.	126.25
887	-3.4955	-7.9613	0.	126.45
888	-3.9973	-7.9633	0.	126.54
889	-5.0001	-7.974	0.	126.21
890	-5.4978	-7.9894	0.	125.66
891	-5.9979	-8.02	0.	124.82
892	-6.5022	-8.0278	0.	123.88
893	-7.0033	-8.0226	0.	123.12
894	-7.5028	-8.0097	0.	122.88
895	-8.0012	-7.9997	0.	123.28
896	3.9992	7.5	0.	126.
897	-5.	8.	0.	128.73
898	-4.5	8.	0.	125.53
899	-4.	8.	0.	124.32
900	-3.5001	8.	0.	124.04
901	-3.0001	8.	0.	124.11
902	-2.5002	8.	0.	124.29
903	-2.0003	8.	0.	124.46
904	-1.5005	8.	0.	124.56
905	0.49817	8.0001	0.	124.16
906	0.99794	8.0001	0.	123.99
907	1.4979	8.	0.	123.9
908	1.998	8.	0.	123.94
909	2.4982	8.	0.	124.16
910	2.9986	7.9999	0.	124.63
911	3.4989	7.9999	0.	125.48
912	-0.43122	4.6531e-002	0.	129.03
913	5.7268	0.62333	0.	128.41
914	5.8614	-1.2145	0.	130.08
915	-8.0971	-1.3625	0.	121.98
916	-6.1962	-4.8034	0.	128.42
917	-6.4089	-6.1704	0.	127.65
918	7.31	1.4689	0.	119.4
919	3.0086	3.5022	0.	126.75
920	3.0306	2.0108	0.	128.81
921	1.5001	5.	0.	119.02
922	3.0008	4.9996	0.	129.01
923	1.5052	2.0231	0.	117.56
924	2.4021e-002	2.0189	0.	125.46
925	2.6112e-003	3.5034	0.	124.87
926	5.4634e-005	5.0008	0.	126.85
927	-5.	7.5	0.	129.02
928	-5.	6.0004	0.	129.94
929	8.0002	6.0005	0.	128.63
930	5.5	6.0007	0.	120.86
931	3.9996	6.	0.	129.85
932	2.1805	-1.2649	0.	129.
933	2.7028	-2.6427	0.	129.95
934	0.24482	-3.2602	0.	113.92
935	-1.2816	-3.3347	0.	130.56
936	-7.2394	-2.9083	0.	111.72
937	-5.751	-2.7793	0.	130.87
938	-5.7646	-3.2829	0.	130.93
939	-6.247	-2.7896	0.	130.08
940	-6.7465	-2.82	0.	121.78
941	-0.26915	-3.304	0.	121.92
942	-1.2246	-2.3407	0.	128.97
943	-1.2633	-2.8341	0.	131.12
944	2.2473	-2.7531	0.	132.53
945	2.5566	-2.184	0.	126.91
946	2.3926	-1.7202	0.	126.29
947	3.9993	7.	0.	128.11
948	3.9994	6.5	0.	129.92
949	7.0003	6.0013	0.	124.69
950	7.5003	6.0009	0.	128.36
951	-5.5	6.0003	0.	129.19
952	-5.	7.0001	0.	130.31
953	0.50006	5.0006	0.	125.89
954	1.2316e-003	4.0019	0.	126.49
955	1.1622e-002	2.5108	0.	126.58
956	0.5159	2.0296	0.	124.07
957	1.0092	2.027	0.	119.88
958	3.0023	4.4998	0.	129.4
959	2.0002	4.9999	0.	122.52
960	2.0144	2.0228	0.	121.8
961	2.5233	2.0188	0.	127.28
962	3.0214	2.5076	0.	129.25
963	7.8558	1.5218	0.	113.54
964	-7.4693	-5.9966	0.	115.73
965	-6.9261	-6.0971	0.	119.75
966	-6.3249	-5.7154	0.	131.21
967	-6.2416	-5.259	0.	130.72
968	-8.1658	-2.759	0.	122.61
969	-8.1246	-1.8322	0.	121.57
970	6.8067	-1.2479	0.	127.8
971	6.699	0.67363	0.	133.18
972	6.2329	0.65709	0.	131.57
973	5.8588	-0.75797	0.	128.45
974	5.8267	-0.29466	0.	126.27
975	1.0453	4.1229e-002	0.	119.63
976	0.95084	0.56062	0.	118.12
977	0.3993	0.64453	0.	117.84
978	-0.12766	0.55324	0.	122.52
979	8.4412	1.951	0.	122.19
980	8.496	3.4946	0.	124.01
981	8.5005	4.4997	0.	125.39
982	8.5005	5.0003	0.	126.15
983	8.5003	5.5003	0.	126.93
984	8.5	7.0001	0.	126.23
985	3.9993	7.9999	0.	127.38
986	-8.4439	-5.4791	0.	128.83
987	-8.4942	-6.4557	0.	124.74
988	-8.495	-6.9687	0.	124.06
989	-8.4977	-7.4827	0.	124.01
990	-8.4998	-7.9945	0.	124.2
991	-8.	6.0002	0.	124.26
992	-0.72049	-0.45641	0.	129.88
993	-8.5574	-0.91956	0.	123.64
994	-8.5438	-0.43713	0.	123.81
995	-8.5322	4.7687e-002	0.	124.
996	-8.5228	0.53507	0.	124.18
997	-8.5155	1.0251	0.	124.32
998	-8.506	2.0109	0.	124.5
999	-8.5036	2.5069	0.	124.53
1000	-8.5019	3.0042	0.	124.54
1001	-8.501	3.5024	0.	124.54
1002	-8.5005	4.0014	0.	124.58
1003	-8.5003	4.5008	0.	124.73
1004	-8.5001	5.0004	0.	125.22
1005	-8.5001	5.5002	0.	126.35
1006	-8.5	6.0001	0.	128.85
1007	8.	-8.5	0.	125.1
1008	7.5	-8.5	0.	125.11
1009	7.	-8.5	0.	125.13
1010	6.5001	-8.5001	0.	125.15
1011	6.0003	-8.5005	0.	125.17
1012	5.5006	-8.5011	0.	125.18
1013	5.001	-8.5021	0.	125.17
1014	4.5015	-8.5036	0.	125.13
1015	4.0023	-8.5056	0.	125.06
1016	3.5024	-8.5054	0.	124.96
1017	3.003	-8.5054	0.	124.83
1018	2.5049	-8.5076	0.	124.7
1019	2.0056	-8.5072	0.	124.58
1020	1.5052	-8.5044	0.	124.49
1021	0.50567	-8.4945	0.	124.51
1022	6.7554e-003	-8.489	0.	124.63
1023	-0.49214	-8.4839	0.	124.82
1024	-0.99123	-8.4791	0.	125.07
1025	-1.9924	-8.4731	0.	125.64
1026	-2.4932	-8.4703	0.	125.9
1027	-2.9959	-8.4707	0.	126.11
1028	-3.4966	-8.4716	0.	126.24
1029	-3.999	-8.4752	0.	126.25
1030	-4.4988	-8.4785	0.	126.12
1031	-4.9989	-8.4859	0.	125.81
1032	-5.4975	-8.4963	0.	125.3
1033	-5.9976	-8.5119	0.	124.65
1034	-6.4996	-8.5183	0.	123.99
1035	-7.0014	-8.5154	0.	123.52
1036	-7.5018	-8.5084	0.	123.4
1037	-8.0013	-8.5013	0.	123.72
1038	-8.5004	-8.4993	0.	124.42
1039	8.5826	-2.0066	0.	122.89
1040	8.5435	-2.4863	0.	122.14
1041	8.5119	-2.9784	0.	122.52
1042	8.5007	-3.4793	0.	123.15
1043	8.4997	-3.9843	0.	123.73
1044	8.5003	-4.49	0.	124.16
1045	8.5004	-4.9944	0.	124.47
1046	8.4999	-7.4998	0.	125.04
1047	8.4999	-7.9999	0.	125.08
1048	8.5	-8.4999	0.	125.1
1049	8.	8.	0.	127.61
1050	-5.	8.5	0.	127.34
1051	-4.5	8.5	0.	125.02
1052	-4.	8.5	0.	124.15
1053	-3.5	8.5	0.	124.1
1054	-3.0001	8.5	0.	124.29
1055	-2.5001	8.5	0.	124.5
1056	-2.0002	8.5	0.	124.66
1057	-1.5003	8.5	0.	124.75
1058	-1.0005	8.5001	0.	124.76
1059	-0.50073	8.5001	0.	124.71
1060	-9.8447e-004	8.5001	0.	124.6
1061	0.49882	8.5001	0.	124.48
1062	0.99865	8.5001	0.	124.36
1063	1.4985	8.5	0.	124.3
1064	1.9986	8.5	0.	124.33
1065	2.4987	8.5	0.	124.54
1066	2.9989	8.4999	0.	125.07
1067	3.4992	8.4999	0.	126.21
1068	3.9994	8.4999	0.	128.46
1069	8.	8.5	0.	128.65
1070	8.5	8.5	0.	126.4
1071	-8.5738	-1.3987	0.	123.63
1072	-0.28772	-0.4116	0.	130.09
1073	-8.1617	-3.2198	0.	124.27
1074	0.49067	0.15734	0.	110.99
1075	4.6882e-002	6.848e-002	0.	121.35
1076	6.3459	-0.26944	0.	126.1
1077	-8.6127	-3.3409	0.	134.16
1078	-8.6087	-3.8321	0.	142.62
1079	-4.5	9.	0.	125.24
1080	-4.	9.	0.	124.86
1081	-3.5	9.	0.	124.85
1082	-3.	9.	0.	124.96
1083	-2.5001	9.	0.	125.04
1084	-2.0001	9.	0.	125.08
1085	-1.5002	9.	0.	125.08
1086	-1.0003	9.0001	0.	125.04
1087	-0.5004	9.0001	0.	124.98
1088	-5.4666e-004	9.0001	0.	124.9
1089	0.49932	9.0001	0.	124.83
1090	0.99921	9.0001	0.	124.77
1091	1.4992	9.	0.	124.76
1092	1.9992	9.	0.	124.82
1093	2.4992	9.	0.	125.01
1094	2.9993	8.9999	0.	125.45
1095	3.4994	8.9999	0.	126.29
1096	3.9996	8.9999	0.	127.65
1097	4.4997	9.	0.	128.1
1098	4.9998	9.	0.	125.34
1099	5.4999	9.	0.	121.76
1100	5.9999	9.	0.	120.32
1101	6.5	9.	0.	121.73
1102	7.	9.	0.	125.3
1103	7.5	9.	0.	128.08
1104	8.	9.	0.	127.66
1105	8.5	9.	0.	126.27
1106	9.	8.5	0.	125.11
1107	9.	8.	0.	124.8
1108	9.	7.	0.	125.27
1109	9.	6.5	0.	126.
1110	9.0001	6.0001	0.	126.46
1111	9.0002	5.5001	0.	126.5
1112	9.0002	4.9998	0.	126.31
1113	9.	4.4987	0.	126.04
1114	8.9986	3.996	0.	125.77
1115	8.9953	3.4914	0.	125.54
1116	8.9886	2.9849	0.	125.4
1117	8.9772	2.4736	0.	125.61
1118	8.9618	1.9559	0.	126.96
1119	8.963	1.4369	0.	131.35
1120	9.0244	0.92668	0.	131.52
1121	9.0832	0.41375	0.	129.37
1122	9.1212	-7.9119e-002	0.	127.53
1123	9.1393	-0.57822	0.	129.67
1124	9.0557	-2.0078	0.	127.31
1125	9.0314	-2.4964	0.	125.37
1126	9.0003	-3.9885	0.	124.7
1127	9.	-4.4918	0.	124.78
1128	9.	-4.995	0.	124.85
1129	9.	-5.4971	0.	124.91
1130	9.	-5.9987	0.	124.95
1131	8.9999	-6.4994	0.	125.
1132	8.9999	-6.9997	0.	125.03
1133	8.9999	-7.4999	0.	125.06
1134	8.9999	-7.9999	0.	125.09
1135	9.	-8.4999	0.	125.1
1136	8.5	-9.	0.	125.11
1137	8.	-9.	0.	125.11
1138	7.5	-9.	0.	125.12
1139	7.	-9.	0.	125.13
1140	6.5001	-9.0001	0.	125.15
1141	5.5003	-9.0006	0.	125.15
1142	5.0005	-9.0012	0.	125.13
1143	4.5008	-9.002	0.	125.08
1144	3.5013	-9.0034	0.	124.92
1145	3.0016	-9.0033	0.	124.81
1146	2.5021	-9.004	0.	124.7
1147	2.0026	-9.0043	0.	124.61
1148	1.5023	-9.0027	0.	124.55
1149	1.0021	-9.0004	0.	124.55
1150	0.50228	-8.9972	0.	124.6
1151	2.6991e-003	-8.9939	0.	124.72
1152	-0.49681	-8.9907	0.	124.9
1153	-0.99644	-8.9877	0.	125.12
1154	-1.4964	-8.9852	0.	125.37
1155	-1.9967	-8.9832	0.	125.62
1156	-2.4973	-8.9815	0.	125.84
1157	-2.9975	-8.9809	0.	126.
1158	-3.4985	-8.982	0.	126.07
1159	-3.9985	-8.9837	0.	126.04
1160	-4.998	-8.9907	0.	125.55
1161	-5.4977	-8.9984	0.	125.1
1162	-5.998	-9.0068	0.	124.58
1163	-6.4992	-9.0109	0.	124.1
1164	-7.501	-9.006	0.	123.74
1165	-8.001	-9.0017	0.	124.03
1166	-8.5005	-9.0005	0.	124.58
1167	-9.	-8.4983	0.	125.3
1168	-8.9986	-7.991	0.	125.35
1169	-8.9975	-7.4875	0.	125.52
1170	-8.995	-6.9797	0.	125.92
1171	-8.9933	-6.474	0.	126.85
1172	-8.9836	-5.9672	0.	128.34
1173	-8.936	-5.4579	0.	130.52
1174	-8.8587	-4.9487	0.	130.8
1175	-9.0576	-3.9182	0.	127.46
1176	-9.0659	-3.4122	0.	132.53
1177	-9.0739	-2.9068	0.	130.05
1178	-9.0697	-2.412	0.	127.64
1179	-9.0599	-1.9229	0.	126.12
1180	-9.0495	-1.4351	0.	125.33
1181	-9.0392	-0.9474	0.	124.95
1182	-9.03	-0.45877	0.	124.78
1183	-9.0221	3.1307e-002	0.	124.72
1184	-9.0157	0.52299	0.	124.72
1185	-9.0106	1.0162	0.	124.76
1186	-9.0067	1.511	0.	124.83
1187	-9.0041	2.0072	0.	124.93
1188	-9.0025	2.5046	0.	125.06
1189	-9.0014	3.0028	0.	125.22
1190	-9.0007	3.5016	0.	125.42
1191	-9.0004	4.0009	0.	125.7
1192	-9.0002	4.5005	0.	126.11
1193	-9.0001	5.0003	0.	126.78
1194	-9.	5.5002	0.	127.9
1195	-9.	6.0001	0.	129.58
1196	-9.	6.5	0.	130.86
1197	-9.	7.	0.	130.52
1198	-9.	7.5	0.	129.51
1199	-9.	8.	0.	129.34
1200	-9.	8.5	0.	127.84
1201	-6.8225	-5.6539	0.	128.45
1202	2.5166	2.511	0.	130.64
1203	2.5015	4.4999	0.	131.02
1204	0.50804	2.5163	0.	128.41
1205	0.50043	4.5012	0.	129.45
1206	-5.	9.	0.	127.17
1207	-5.5	6.5002	0.	133.54
1208	-8.5	6.5001	0.	133.6
1209	7.5	8.5	0.	132.21
1210	7.5001	6.5004	0.	132.28
1211	4.4996	6.5001	0.	132.89
1212	4.4996	8.4999	0.	132.09
1213	2.1116	-2.289	0.	135.66
1214	9.	9.	0.	125.28
1215	9.	-9.	0.	125.12
1216	-9.0002	-8.9998	0.	125.28
1217	-9.	9.	0.	127.14
1218	-0.76549	-2.8358	0.	138.04
1219	-6.2563	-3.2829	0.	139.77
1220	-6.2812	-3.788	0.	127.09
1221	-6.3412	-4.3309	0.	133.91
1222	-6.6967	-5.2226	0.	135.18
1223	-6.5961	-4.7778	0.	128.83
1224	-7.337	-5.5312	0.	104.65
1225	-7.8394	-5.2608	0.	122.54
1226	-8.5445	-4.3868	0.	124.82
1227	-8.2985	-4.9092	0.	136.09
1228	-6.7483	-3.2934	0.	124.52
1229	-7.2474	-3.3963	0.	106.55
1230	-7.7212	-3.531	0.	110.51
1231	-8.1763	-3.6815	0.	130.36
1232	7.7787	-0.98913	0.	111.14
1233	6.8447	-0.75348	0.	134.13
1234	7.3152	-0.85844	0.	113.86
1235	7.0727	0.50655	0.	127.1
1236	7.909	1.1204	0.	104.12
1237	7.3712	0.94038	0.	121.31
1238	8.5529	0.86767	0.	137.89
1239	8.6386	0.35521	0.	129.81
1240	8.7225	-0.63011	0.	132.12
1241	8.6963	-0.14572	0.	139.26
1242	2.5091	3.0053	0.	129.89
1243	2.505	3.5021	0.	129.59
1244	2.5026	4.0007	0.	129.9
1245	2.0098	2.5111	0.	122.68
1246	1.0053	2.5138	0.	121.38
1247	1.5076	2.5125	0.	111.38
1248	2.0007	4.5	0.	123.36
1249	1.5003	4.5	0.	112.35
1250	1.0003	4.5004	0.	122.34
1251	0.50342	3.0081	0.	127.89
1252	0.50081	4.0021	0.	128.59
1253	0.50164	3.5038	0.	128.26
1254	-5.5	9.	0.	130.52
1255	-5.5	8.5	0.	134.74
1256	-5.5	7.0001	0.	133.06
1257	-5.5	7.5	0.	134.85
1258	-5.5	8.	0.	136.47
1259	-6.	6.5001	0.	126.6
1260	-6.5	6.5001	0.	116.34
1261	-8.	6.5001	0.	126.57
1262	-7.5	6.5001	0.	116.38
1263	-7.	6.5001	0.	116.51
1264	-8.5	7.	0.	133.71
1265	-8.5	9.	0.	131.02
1266	-8.5	8.5	0.	135.44
1267	-8.5	8.	0.	137.52
1268	-8.5	7.5	0.	135.7
1269	7.5	8.	0.	130.94
1270	7.5	7.0002	0.	131.15
1271	7.5	7.5001	0.	130.47
1272	7.0001	6.5006	0.	126.45
1273	6.5001	6.5005	0.	118.08
1274	6.	6.5004	0.	118.93
1275	4.9998	6.5002	0.	126.9
1276	7.	8.5	0.	127.23
1277	6.5	8.5	0.	118.93
1278	6.	8.5	0.	119.82
1279	5.4999	8.5	0.	118.93
1280	4.9998	8.5	0.	127.24
1281	4.4996	8.	0.	130.77
1282	4.4996	7.5	0.	130.47
1283	4.4996	7.	0.	131.37
1284	0.6808	-0.24695	0.	114.47
1285	0.96517	-0.6026	0.	117.12
1286	1.9547	-1.8215	0.	122.56
1287	1.7035	-1.3771	0.	141.53
1288	1.4062	-0.91504	0.	121.94
1289	-0.45487	-0.8822	0.	127.15
1290	-0.53559	-1.3902	0.	132.49
1291	-0.64653	-1.868	0.	136.37
1292	-0.73853	-2.3477	0.	128.54
1293	1.6675	-2.4033	0.	134.99
1294	-0.27237	-2.8131	0.	122.93
1295	0.2231	-2.7476	0.	109.93
1296	0.71925	-2.6621	0.	112.81
1297	1.2017	-2.5311	0.	115.55
1298	9.5	9.	0.	124.5
1299	9.5	8.5	0.	124.12
1300	9.5	8.	0.	123.83
1301	9.5	7.5	0.	123.86
1302	9.5	7.	0.	124.29
1303	9.5	6.	0.	125.65
1304	9.5001	5.4999	0.	126.15
1305	9.5	4.9995	0.	126.47
1306	9.4997	4.4983	0.	126.69
1307	9.4989	3.9969	0.	126.9
1308	9.4965	3.4938	0.	127.18
1309	9.4931	2.9901	0.	127.6
1310	9.4877	2.4842	0.	128.2
1311	9.4824	1.9768	0.	129.07
1312	9.4878	1.4718	0.	129.58
1313	9.512	0.96671	0.	129.14
1314	9.5378	0.4654	0.	126.88
1315	9.5559	-3.1475e-002	0.	125.37
1316	9.5655	-0.53432	0.	126.2
1317	9.558	-1.0278	0.	129.16
1318	9.5433	-1.5165	0.	130.12
1319	9.5303	-2.0127	0.	129.22
1320	9.5173	-2.5059	0.	127.86
1321	9.5077	-2.9984	0.	126.87
1322	9.5031	-3.4973	0.	126.17
1323	9.5005	-3.9951	0.	125.69
1324	9.4999	-4.4958	0.	125.38
1325	9.4999	-4.9972	0.	125.19
1326	9.4999	-5.4983	0.	125.1
1327	9.4999	-5.999	0.	125.05
1328	9.4999	-6.4995	0.	125.05
1329	9.4999	-6.9997	0.	125.06
1330	9.5	-7.4999	0.	125.08
1331	9.5	-7.9999	0.	125.1
1332	9.5	-8.4999	0.	125.12
1333	9.5	-9.	0.	125.14
1334	9.5	-9.5	0.	125.15
1335	9.	-9.5	0.	125.13
1336	8.5	-9.5	0.	125.12
1337	8.	-9.5	0.	125.12
1338	7.5	-9.5	0.	125.12
1339	7.	-9.5	0.	125.13
1340	6.5	-9.5001	0.	125.14
1341	6.0001	-9.5001	0.	125.14
1342	5.5001	-9.5003	0.	125.13
1343	5.0002	-9.5006	0.	125.1
1344	4.5003	-9.5009	0.	125.05
1345	4.0004	-9.5011	0.	124.98
1346	3.5005	-9.5014	0.	124.9
1347	3.0007	-9.5016	0.	124.8
1348	2.5008	-9.5018	0.	124.71
1349	2.001	-9.5021	0.	124.63
1350	1.5008	-9.5013	0.	124.59
1351	1.0007	-9.5002	0.	124.6
1352	0.50072	-9.4988	0.	124.66
1353	8.3169e-004	-9.4972	0.	124.77
1354	-0.49899	-9.4956	0.	124.94
1355	-0.99883	-9.4942	0.	125.15
1356	-1.4988	-9.4929	0.	125.38
1357	-1.9989	-9.4918	0.	125.6
1358	-2.499	-9.491	0.	125.79
1359	-2.9988	-9.4905	0.	125.93
1360	-3.4988	-9.491	0.	125.97
1361	-3.9987	-9.4919	0.	125.91
1362	-4.4985	-9.4934	0.	125.72
1363	-4.9984	-9.4956	0.	125.4
1364	-5.4983	-9.4992	0.	125.
1365	-5.9987	-9.503	0.	124.55
1366	-6.4994	-9.5051	0.	124.16
1367	-7.0001	-9.5049	0.	123.93
1368	-7.5005	-9.503	0.	123.94
1369	-8.0006	-9.5012	0.	124.2
1370	-8.5004	-9.5003	0.	124.68
1371	-9.0002	-9.5001	0.	125.27
1372	-9.5001	-9.5	0.	125.8
1373	-9.5	-8.9997	0.	125.94
1374	-9.4995	-8.4971	0.	126.16
1375	-9.499	-7.9956	0.	126.5
1376	-9.4982	-7.4919	0.	126.94
1377	-9.4965	-6.9879	0.	127.46
1378	-9.4943	-6.4852	0.	128.01
1379	-9.4868	-5.9795	0.	128.43
1380	-9.4622	-5.4773	0.	128.41
1381	-9.4291	-4.9804	0.	127.68
1382	-9.0052	-4.4448	0.	128.18
1383	-9.5256	-3.9706	0.	125.68
1384	-9.5335	-3.4584	0.	127.88
1385	-9.5371	-2.9562	0.	128.86
1386	-9.5354	-2.4573	0.	128.41
1387	-9.5301	-1.9625	0.	127.63
1388	-9.5251	-1.4681	0.	126.85
1389	-9.5201	-0.97381	0.	126.19
1390	-9.5155	-0.47927	0.	125.69
1391	-9.5115	1.585e-002	0.	125.35
1392	-9.5082	0.5117	0.	125.16
1393	-9.5056	1.0083	0.	125.09
1394	-9.5036	1.5057	0.	125.12
1395	-9.5022	2.0038	0.	125.26
1396	-9.5014	2.5024	0.	125.49
1397	-9.5008	3.0015	0.	125.81
1398	-9.5004	3.5009	0.	126.24
1399	-9.5002	4.0005	0.	126.75
1400	-9.5001	4.5003	0.	127.35
1401	-9.5001	5.0002	0.	127.99
1402	-9.5	5.5001	0.	128.57
1403	-9.5	6.	0.	128.85
1404	-9.5	6.5	0.	128.44
1405	-9.5	7.	0.	127.15
1406	-9.5	7.5	0.	125.69
1407	-9.5	8.	0.	124.51
1408	-9.5	8.5	0.	123.94
1409	-9.5	9.	0.	123.94
1410	-9.5	9.5	0.	124.76
1411	-9.	9.5	0.	126.36
1412	-8.5	9.5	0.	129.47
1413	-8.	9.5	0.	126.9
1414	-7.5	9.5	0.	119.43
1415	-7.	9.5	0.	120.65
1416	-6.5	9.5	0.	119.7
1417	-6.	9.5	0.	127.73
1418	-5.5	9.5	0.	130.3
1419	-5.	9.5	0.	127.5
1420	-4.5	9.5	0.	126.76
1421	-4.	9.5	0.	126.42
1422	-3.5	9.5	0.	126.16
1423	-3.	9.5	0.	125.94
1424	-2.5	9.5	0.	125.75
1425	-2.	9.5	0.	125.58
1426	-1.5001	9.5	0.	125.44
1427	-1.0001	9.5	0.	125.32
1428	-0.50018	9.5	0.	125.23
1429	-2.4022e-004	9.5	0.	125.16
1430	0.4997	9.5	0.	125.13
1431	0.99965	9.5	0.	125.14
1432	1.4996	9.5	0.	125.2
1433	1.9996	9.5	0.	125.32
1434	2.4996	9.5	0.	125.51
1435	2.9997	9.5	0.	125.75
1436	3.4997	9.5	0.	126.02
1437	3.9998	9.5	0.	126.18
1438	4.4998	9.5	0.	125.68
1439	4.9999	9.5	0.	124.31
1440	5.4999	9.5	0.	122.67
1441	6.	9.5	0.	121.93
1442	6.5	9.5	0.	122.6
1443	7.	9.5	0.	124.18
1444	7.5	9.5	0.	125.5
1445	8.	9.5	0.	125.93
1446	8.5	9.5	0.	125.71
1447	9.	9.5	0.	125.33
1448	9.5	9.5	0.	124.9
1449	-1.7244	0.80341	0.	128.59
1450	1.0056	-8.4997	0.	124.46
1451	-3.4077	-5.8914	0.	126.78
1452	-3.3685	-5.3696	0.	126.63
1453	-4.3784	-5.8733	0.	127.43
1454	4.2514	6.7352e-002	0.	126.48
1455	3.5433	2.0042	0.	128.65
1456	4.0677	1.5047	0.	128.33
1457	-3.5	6.	0.	126.8
1458	8.0001	6.5003	0.	129.31
1459	5.4899	-2.5687	0.	127.13
1460	5.0692	-2.9961	0.	126.95
1461	-4.4757	-6.928	0.	127.38
1462	-6.5006	4.5023	0.	122.25
1463	-5.7828	-3.7879	0.	128.09
1464	-8.5067	-5.9668	0.	126.82
1465	-1.9997	4.9988	0.	126.03
1466	8.3906	1.3948	0.	124.91
1467	8.0005	5.5009	0.	127.06
1468	1.7864	-2.8794	0.	129.59
1469	2.542	-6.0587	0.	124.97
1470	-5.2985	-5.3071	0.	128.01
1471	5.5	-5.9975	0.	125.54
1472	5.1555	1.0527	0.	128.21
1473	6.5036	4.5102	0.	122.72
1474	8.5	7.5	0.	125.52
1475	-7.7117	-2.2397	0.	118.45
1476	-7.0004	-9.0096	0.	123.78
1477	-8.0028	3.0064	0.	123.93
1478	4.0011	-9.003	0.	125.01
1479	7.4957	3.0143	0.	121.66
1480	-0.5011	8.0001	0.	124.5
1481	-6.5	6.0002	0.	119.14
1482	6.9997	-7.	0.	125.05
1483	4.4998	6.0001	0.	129.44
1484	-1.4913	2.975	0.	125.96
1485	-4.4991	-7.9666	0.	126.49
1486	5.0003	5.5008	0.	125.03
1487	-4.5638	0.61878	0.	125.83
1488	1.6023	-5.5752	0.	123.64
1489	-2.0004	6.5	0.	125.17
1490	2.2561	-4.2258	0.	126.27
1491	-4.29	-3.7934	0.	126.02
1492	6.0002	-9.0003	0.	125.15
1493	7.5028	4.0076	0.	123.22
1494	0.999	6.0001	0.	122.97
1495	6.9992	2.5526	0.	122.44
1496	-2.858	-1.4399	0.	125.88
1497	4.5293	-3.7941	0.	127.12
1498	8.5002	6.0002	0.	127.48
1499	-5.2354	-2.2808	0.	128.16
1500	6.497	-2.5425	0.	124.87
1501	-5.7927	-4.2911	0.	124.8
1502	8.4863	2.9866	0.	123.28
1503	-1.0008	8.0001	0.	124.58
1504	-3.5982	1.0649	0.	126.82
1505	-0.49232	2.9965	0.	125.38
1506	-3.968	0.18693	0.	126.42
1507	-4.7145	-1.7977	0.	127.
1508	-1.8003	-3.8414	0.	128.22
1509	-5.0011	4.0054	0.	125.6
1510	-2.411	-5.8988	0.	126.24
1511	-2.0002	5.9999	0.	125.57
1512	-5.0136	2.5288	0.	125.2
1513	6.4993	-6.4999	0.	125.11
1514	8.4999	-6.9996	0.	125.
1515	1.4982	6.5	0.	123.18
1516	5.049	2.5137	0.	127.37
1517	8.5	-5.9984	0.	124.83
1518	8.4694	2.474	0.	122.61
1519	-2.4941	2.9772	0.	126.5
1520	-3.7963	-3.8063	0.	126.21
1521	-1.9726	-7.447	0.	125.68
1522	-2.4759	-7.4453	0.	126.05
1523	3.6623	-5.1812	0.	126.52
1524	-1.5003	6.0001	0.	125.49
1525	6.3535	-0.74352	0.	135.11
1526	3.0048	4.0009	0.	128.22
1527	2.4984	6.5	0.	124.81
1528	6.497	-5.5015	0.	124.94
1529	-1.3143	-4.8686	0.	125.68
1530	0.67124	-3.751	0.	117.2
1531	8.5002	-5.497	0.	124.68
1532	-3.8093	-4.3173	0.	126.13
1533	6.5003	6.0019	0.	120.47
1534	-0.5006	6.0001	0.	125.29
1535	-1.4151	-6.415	0.	125.17
1536	4.6819	0.5587	0.	126.98
1537	2.4998	5.4999	0.	125.99
1538	-1.4379e-003	8.0001	0.	124.35
1539	-3.769	-2.8114	0.	126.53
1540	3.0157	3.0045	0.	128.2
1541	-0.79714	-4.8619	0.	124.31
1542	3.4352	-3.4463	0.	128.26
1543	4.4829	-4.6991	0.	126.69
1544	9.0035	-3.4894	0.	124.64
1545	6.2697	0.19383	0.	128.27
1546	4.0977	1.0144	0.	127.88
1547	-6.1572	-1.3195	0.	124.17
1548	7.5016	3.511	0.	122.51
1549	8.	7.5001	0.	126.12
1550	9.	7.5	0.	124.75
1551	-3.5001	7.	0.	125.39
1552	8.4994	3.9979	0.	124.69
1553	-6.0006	4.5024	0.	123.53
1554	-5.5001	5.501	0.	126.8
1555	-5.	6.5002	0.	130.99
1556	3.9761	-4.6445	0.	127.01
1557	5.5032	-7.0031	0.	125.36
1558	-0.3508	-5.8933	0.	123.65
1559	2.4991	6.	0.	125.35
1560	-2.4405	-6.4161	0.	126.16
1561	-4.7913	-4.2991	0.	125.48
1562	-8.61	-2.3565	0.	125.38
1563	8.4999	-6.4992	0.	124.93
1564	5.6515	1.5647	0.	129.05
1565	2.1213	0.16326	0.	126.82
1566	-1.4904	-8.4742	0.	125.35
1567	3.0534	1.007	0.	127.6
1568	6.0235	3.0345	0.	124.94
1569	-5.5545	0.60034	0.	124.71
1570	8.	7.0001	0.	127.96
1571	5.0153	3.5068	0.	125.77
1572	4.6277	1.0305	0.	127.83
1573	-5.206	-1.7918	0.	127.07
1574	5.503	-6.5022	0.	125.44
1575	-8.5103	1.5177	0.	124.43
1576	4.5429	2.5038	0.	127.66
1577	3.1321	-3.9692	0.	128.02
1578	-2.4997	4.999	0.	126.25
1579	-7.174	-1.7865	0.	119.9
1580	5.3869	-1.6636	0.	128.15
1581	-7.0011	4.0033	0.	122.46
1582	6.0002	6.0013	0.	119.
1583	4.0066	3.9998	0.	126.88
1584	2.4981	7.	0.	124.31
1585	0.59088	-6.4253	0.	123.5
1586	3.1512e-002	-7.4659	0.	124.29
1587	-1.8133	-4.354	0.	127.21
1588	5.0012	5.0016	0.	124.92
1589	9.5	6.5	0.	124.98
1590	3.5605	1.5026	0.	128.4
1591	-4.5	7.0001	0.	127.77
1592	-5.0002	5.0016	0.	126.92
1593	6.5001	-7.0001	0.	125.15
1594	5.5014	5.0032	0.	123.01
1595	4.5074	4.0013	0.	126.19
1596	3.737	-2.9555	0.	127.55
1597	-2.3752	-5.3812	0.	126.4
1598	6.8368	1.1222	0.	127.76
1599	4.0524	2.0027	0.	128.38
1600	-1.7307	-2.3165	0.	126.56
1601	5.0115	-2.54	0.	127.16
1602	-6.0001	6.0003	0.	124.51
1603	1.	5.0003	0.	121.66
1604	-0.77608	-3.3292	0.	129.37
1605	-4.7412	-2.2891	0.	127.52
1606	8.0008	4.0021	0.	123.81
1607	6.712	0.25132	0.	133.55
1608	0.99839	6.5001	0.	123.28
1609	-8.1585	-2.2974	0.	121.58
1610	3.5169	-7.0282	0.	125.26
1611	-4.0461	1.5602	0.	126.3
1612	-6.6134	-0.84692	0.	122.88
1613	5.0122	-4.418	0.	126.4
1614	-0.78819	-4.3448	0.	124.78
1615	5.4999	6.5003	0.	118.3
1616	2.5408	-6.5367	0.	124.83
1617	6.0016	5.0051	0.	121.99
1618	-0.39611	-6.4114	0.	124.02
1619	8.5	8.	0.	125.77
1620	-0.42134	1.5005	0.	125.27
1621	5.1177	1.5342	0.	128.54
1622	6.5152	3.0414	0.	123.77
1623	-2.7515	-2.3237	0.	126.09
1624	4.0012	4.9998	0.	128.16
1625	-1.9923	2.9731	0.	126.3
1626	2.9988	6.5	0.	126.15
1627	-0.43621	-6.9338	0.	124.31
1628	6.3315	-1.2108	0.	132.54
1629	4.5651	2.007	0.	128.2
1630	-1.5316	-1.3774	0.	126.22
1631	7.0058	3.5225	0.	122.73
1632	-2.5003	7.	0.	124.82
1633	3.5258	-6.5475	0.	125.46
1634	-5.5324	1.5575	0.	124.71
1635	5.8103e-003	3.0056	0.	126.
1636	5.1047e-004	4.5012	0.	127.5
1637	6.9994	-6.5002	0.	124.98
1638	2.5006	4.9998	0.	127.5
1639	-3.4988	3.9995	0.	126.58
1640	6.9992	-5.5022	0.	124.67
1641	5.7758	0.16277	0.	125.8
1642	7.003	4.5083	0.	123.19
1643	3.5781	1.0021	0.	127.96
1644	0.24998	-4.821	0.	121.34
1645	2.527	-7.026	0.	124.75
1646	4.2832	-3.3572	0.	127.36
1647	-8.6197	-2.8446	0.	128.3
1648	9.0123	-2.9919	0.	124.72
1649	1.6048	0.1048	0.	124.65
1650	4.9999	6.0004	0.	125.46
1651	-4.4984	-8.9867	0.	125.87
1652	-0.8225	-5.3796	0.	124.27
1653	1.9983	6.5001	0.	123.73
1654	-1.3098	-0.18831	0.	129.33
1655	-2.4623	-6.9316	0.	126.11
1656	-4.2996	-4.3058	0.	125.81
1657	2.4328	-4.6643	0.	125.95
1658	-4.6771	-1.3118	0.	126.48
1659	-5.2805	-4.7957	0.	126.29
1660	0.99959	5.5001	0.	122.45
1661	8.5001	6.5002	0.	127.28
1662	-4.0001	7.0001	0.	126.26
1663	-6.5865	-0.36852	0.	123.22
1664	-4.5022	3.51	0.	125.92
1665	-8.5927	-1.8771	0.	124.05
1666	-0.78369	-3.8328	0.	126.12
1667	-5.0562	0.60688	0.	125.28
1668	6.0006	5.5028	0.	120.7
1669	2.9993	5.9999	0.	127.1
1670	0.65856	-5.8428	0.	122.92
1671	-8.0004	4.5013	0.	123.27
1672	-4.7609	-2.7842	0.	127.67
1673	-4.4998	5.0017	0.	127.39
1674	3.0067	-8.0099	0.	124.87
1675	3.506	3.9999	0.	127.36
1676	-6.0014	4.0048	0.	123.67
1677	-2.7868	-3.3238	0.	127.
1678	-1.3812	-5.8994	0.	125.17
1679	-6.5246	1.5474	0.	123.91
1680	-4.5369	0.14607	0.	125.9
1681	4.0547	-5.1	0.	126.58
1682	-5.4222	-6.354	0.	128.52
1683	2.0262	0.60658	0.	125.09
1684	-5.9105	-6.2465	0.	128.64
1685	1.1657	-5.6062	0.	123.
1686	4.8649	-1.2095	0.	126.68
1687	4.8671	-0.77573	0.	126.18
1688	-3.8945	-5.8836	0.	127.05
1689	-5.5446	-6.9078	0.	127.24
1690	8.1765	-1.5168	0.	115.61
1691	8.2369	-1.0904	0.	110.06
1692	8.6343	-1.5436	0.	126.48
1693	8.6854	-1.0794	0.	145.42
1694	9.0888	-1.5332	0.	132.26
1695	9.1199	-1.0567	0.	133.41
1696	-9.4937	-4.4791	0.	125.15
1697	0.65615	-5.324	0.	122.2
1698	8.33	-0.5	0.	148.89
1699	8.125	-0.66667	0.	131.39
1700	8.5463	-0.69506	0.	143.6
1701	8.3035	-0.92522	0.	133.9
1702	8.17	0.54	0.	134.31
1703	7.925	0.63333	0.	107.69
1704	8.0195	0.96019	0.	116.1
1705	8.3414	0.83383	0.	132.89
1706	7.145	-0.29333	0.	125.22
1707	7.105	-3.3333e-002	0.	117.78
1708	6.623	-0.23472	0.	143.14
1709	6.8724	-0.47674	0.	146.53
1710	6.806	2.5662e-002	0.	146.67
1711	-6.125e-002	-2.295	0.	133.98
1712	-0.22875	-2.115	0.	146.77
1713	-0.51927	-2.3488	0.	143.68
1714	-0.28619	-2.5816	0.	141.57
1715	1.3713	-1.965	0.	134.87
1716	1.4425	-1.73	0.	130.97
1717	1.7823	-1.8657	0.	147.42
1718	1.6387	-2.1566	0.	153.28
1719	0.19875	-0.705	0.	120.79
1720	0.4375	-0.65	0.	102.86
1721	-8.8613e-003	-0.4408	0.	122.91
1722	0.15844	-0.20076	0.	118.82
1723	0.4754	-0.35848	0.	114.8
1724	-8.0717	-4.3117	0.	123.69
1725	-8.0083	-4.0583	0.	134.77
1726	-8.4022	-4.2584	0.	146.36
1727	-8.2181	-3.9057	0.	148.23
1728	-7.3183	-5.0383	0.	103.26
1729	-7.0667	-4.9667	0.	128.06
1730	-6.9133	-5.2213	0.	128.47
1731	-7.2335	-5.3756	0.	113.26
1732	-7.0017	-3.7717	0.	134.57
1733	-6.8133	-3.9533	0.	148.04
1734	-6.5156	-3.744	0.	143.22
1735	-6.7491	-3.4967	0.	142.79
1736	5.	7.75	0.	140.59
1737	5.25	8.	0.	127.32
1738	4.9999	8.25	0.	131.97
1739	4.7498	8.	0.	133.42
1740	5.	7.25	0.	140.31
1741	5.25	7.	0.	126.9
1742	4.9999	6.7501	0.	131.5
1743	4.7498	7.	0.	133.42
1744	6.75	8.	0.	127.35
1745	7.	7.75	0.	140.6
1746	7.25	8.	0.	133.51
1747	7.	8.25	0.	131.98
1748	6.75	7.	0.	126.74
1749	7.	7.25	0.	140.22
1750	7.25	7.0001	0.	133.2
1751	7.0001	6.7503	0.	131.17
1752	1.	3.75	0.	136.35
1753	1.25	4.	0.	120.96
1754	1.0001	4.2502	0.	127.21
1755	0.75041	4.001	0.	130.02
1756	1.	3.25	0.	136.14
1757	1.25	3.	0.	120.57
1758	1.0027	2.7569	0.	126.53
1759	0.75171	3.004	0.	129.44
1760	1.75	4.	0.	121.56
1761	2.	3.75	0.	137.55
1762	2.2513	4.0003	0.	131.28
1763	2.0003	4.25	0.	128.32
1764	1.75	3.	0.	120.92
1765	2.	3.25	0.	137.1
1766	2.2546	3.0027	0.	130.78
1767	2.0049	2.7555	0.	127.49
1768	-8.	8.75	0.	143.6
1769	-7.75	9.	0.	129.03
1770	-8.25	9.	0.	134.84
1771	-8.	9.25	0.	133.23
1772	-8.	7.25	0.	142.01
1773	-7.75	7.	0.	126.47
1774	-8.	6.75	0.	131.74
1775	-8.25	7.	0.	134.92
1776	-6.25	9.	0.	129.06
1777	-6.	8.75	0.	143.25
1778	-5.75	9.	0.	134.8
1779	-6.	9.25	0.	133.83
1780	-6.25	7.	0.	126.08
1781	-6.	7.25	0.	141.19
1782	-5.75	7.	0.	134.41
1783	-6.	6.7501	0.	131.56
1784	9.75	10.	0.	125.09
1785	10.	9.75	0.	124.89
1786	-9.75	10.	0.	125.43
1787	-10.	9.75	0.	124.36
1788	10.	-9.75	0.	125.18
1789	9.75	-10.	0.	125.17
1790	-10.	-9.75	0.	126.07
1791	-9.75	-10.	0.	125.9
1792	8.25	2.e-002	0.	142.02
1793	8.4931	-0.19286	0.	140.78
1794	8.4243	0.31761	0.	135.21
1795	7.635	-0.48	0.	98.725
1796	7.8294	-0.78123	0.	107.18
1797	7.3526	-0.62256	0.	101.65
1798	7.515	0.3	0.	81.931
1799	7.5456	0.70352	0.	104.08
1800	7.1914	0.31994	0.	100.77
1801	0.41625	-2.185	0.	111.31
1802	0.2003	-2.4938	0.	108.67
1803	0.89375	-2.075	0.	106.92
1804	0.68713	-2.3961	0.	113.72
1805	1.1671	-2.2756	0.	106.2
1806	-8.625e-002	-1.645	0.	135.61
1807	-0.40201	-1.874	0.	135.88
1808	5.625e-002	-1.175	0.	130.63
1809	-0.27529	-1.4001	0.	133.45
1810	-0.16368	-0.9111	0.	126.34
1811	1.1075	-1.37	0.	98.922
1812	1.4893	-1.4636	0.	115.96
1813	0.7725	-1.01	0.	99.428
1814	1.1731	-1.0525	0.	114.2
1815	0.78509	-0.7163	0.	104.26
1816	-7.695	-4.675	0.	82.988
1817	-8.0909	-4.7013	0.	107.15
1818	-7.673	-5.0587	0.	103.8
1819	-7.505	-3.915	0.	105.96
1820	-7.7389	-3.7589	0.	106.13
1821	-7.2504	-3.6198	0.	106.83
1822	-6.94	-4.46	0.	136.68
1823	-6.7997	-4.7455	0.	131.45
1824	-6.6089	-4.2688	0.	135.55
1825	4.7498	7.5	0.	137.65
1826	5.75	8.	0.	121.48
1827	5.5	8.25	0.	118.69
1828	6.25	8.	0.	121.51
1829	6.	8.25	0.	121.99
1830	6.5	8.25	0.	118.72
1831	5.75	7.	0.	120.97
1832	5.5	6.7502	0.	118.24
1833	6.25	7.	0.	120.9
1834	6.	6.7502	0.	121.22
1835	6.5	6.7503	0.	118.05
1836	7.25	7.5	0.	137.66
1837	0.75082	3.5019	0.	134.65
1838	1.5001	4.25	0.	111.23
1839	1.5038	2.7562	0.	110.55
1840	2.2525	3.5011	0.	135.9
1841	-8.	8.25	0.	148.78
1842	-8.25	8.5	0.	141.83
1843	-8.	7.75	0.	148.39
1844	-8.25	8.	0.	143.42
1845	-8.25	7.5	0.	141.58
1846	-7.25	9.	0.	122.87
1847	-7.5	9.25	0.	119.26
1848	-6.75	9.	0.	122.73
1849	-7.	9.25	0.	123.15
1850	-6.5	9.25	0.	119.27
1851	-7.25	7.	0.	118.98
1852	-7.5	6.7501	0.	116.45
1853	-6.75	7.	0.	118.81
1854	-7.	6.75	0.	118.79
1855	-6.5	6.75	0.	116.25
1856	-6.	8.25	0.	147.59
1857	-5.75	8.5	0.	140.96
1858	-6.	7.75	0.	147.12
1859	-5.75	8.	0.	142.22
1860	-5.75	7.5	0.	140.55
1861	9.25	10.	0.	125.34
1862	9.5	9.75	0.	125.02
1863	8.75	10.	0.	125.71
1864	9.	9.75	0.	125.44
1865	8.25	10.	0.	125.78
1866	8.5	9.75	0.	125.79
1867	7.75	10.	0.	125.17
1868	8.	9.75	0.	125.81
1869	7.25	10.	0.	123.83
1870	7.5	9.75	0.	125.07
1871	6.75	10.	0.	122.24
1872	7.	9.75	0.	123.57
1873	6.25	10.	0.	121.2
1874	6.5	9.75	0.	122.02
1875	5.75	10.	0.	121.25
1876	6.	9.75	0.	121.4
1877	5.25	10.	0.	122.39
1878	5.5	9.75	0.	122.1
1879	4.75	10.	0.	124.09
1880	4.9999	9.75	0.	123.73
1881	4.25	10.	0.	125.58
1882	4.4999	9.75	0.	125.32
1883	3.75	10.	0.	126.35
1884	3.9999	9.75	0.	126.17
1885	3.25	10.	0.	126.46
1886	3.4999	9.75	0.	126.28
1887	2.75	10.	0.	126.21
1888	2.9998	9.75	0.	126.06
1889	2.25	10.	0.	125.88
1890	2.4998	9.75	0.	125.77
1891	1.75	10.	0.	125.59
1892	1.9998	9.75	0.	125.52
1893	1.25	10.	0.	125.38
1894	1.4998	9.75	0.	125.33
1895	0.75	10.	0.	125.27
1896	0.99983	9.75	0.	125.22
1897	0.25	10.	0.	125.25
1898	0.49985	9.75	0.	125.18
1899	-0.25	10.	0.	125.3
1900	-1.2011e-004	9.75	0.	125.21
1901	-0.75	10.	0.	125.41
1902	-0.50009	9.75	0.	125.28
1903	-1.25	10.	0.	125.58
1904	-1.0001	9.75	0.	125.4
1905	-1.75	10.	0.	125.81
1906	-1.5	9.75	0.	125.56
1907	-2.25	10.	0.	126.12
1908	-2.	9.75	0.	125.76
1909	-2.75	10.	0.	126.55
1910	-2.5	9.75	0.	126.02
1911	-3.25	10.	0.	127.13
1912	-3.	9.75	0.	126.36
1913	-3.75	10.	0.	127.94
1914	-3.5	9.75	0.	126.81
1915	-4.25	10.	0.	128.94
1916	-4.	9.75	0.	127.4
1917	-4.75	10.	0.	129.99
1918	-4.5	9.75	0.	128.1
1919	-5.25	10.	0.	129.73
1920	-5.	9.75	0.	128.96
1921	-5.75	10.	0.	125.95
1922	-5.5	9.75	0.	129.58
1923	-6.25	10.	0.	120.45
1924	-6.	9.75	0.	125.18
1925	-6.75	10.	0.	116.73
1926	-6.5	9.75	0.	118.66
1927	-7.25	10.	0.	116.51
1928	-7.	9.75	0.	117.75
1929	-7.75	10.	0.	119.66
1930	-7.5	9.75	0.	118.3
1931	-8.25	10.	0.	124.36
1932	-8.	9.75	0.	124.23
1933	-8.75	10.	0.	127.18
1934	-8.5	9.75	0.	128.15
1935	-9.25	10.	0.	126.59
1936	-9.	9.75	0.	126.91
1937	-9.5	9.75	0.	125.23
1938	10.	9.25	0.	124.31
1939	9.75	9.5	0.	124.83
1940	10.	8.75	0.	123.37
1941	9.75	9.	0.	124.18
1942	10.	8.25	0.	122.52
1943	9.75	8.5	0.	123.49
1944	10.	7.75	0.	122.14
1945	9.75	8.	0.	123.
1946	10.	7.25	0.	122.44
1947	9.75	7.5	0.	122.99
1948	10.	6.75	0.	123.34
1949	9.75	7.	0.	123.53
1950	10.	6.25	0.	124.53
1951	9.75	6.5	0.	124.44
1952	10.	5.75	0.	125.65
1953	9.75	6.	0.	125.39
1954	10.	5.25	0.	126.51
1955	9.75	5.5	0.	126.15
1956	10.	4.75	0.	127.11
1957	9.75	4.9998	0.	126.67
1958	10.	4.25	0.	127.61
1959	9.7499	4.4991	0.	127.03
1960	10.	3.75	0.	128.2
1961	9.7494	3.9985	0.	127.38
1962	10.	3.25	0.	129.03
1963	9.7483	3.4969	0.	127.86
1964	10.	2.75	0.	130.15
1965	9.7466	2.995	0.	128.56
1966	10.	2.25	0.	131.25
1967	9.7438	2.4921	0.	129.48
1968	10.	1.75	0.	131.45
1969	9.7412	1.9884	0.	130.4
1970	10.	1.25	0.	129.47
1971	9.7439	1.4859	0.	130.37
1972	10.	0.75	0.	125.26
1973	9.756	0.98336	0.	128.43
1974	10.	0.25	0.	121.06
1975	9.7689	0.4827	0.	124.79
1976	10.	-0.25	0.	120.19
1977	9.7779	-1.5738e-002	0.	122.37
1978	10.	-0.75	0.	123.78
1979	9.7827	-0.51716	0.	123.59
1980	10.	-1.25	0.	128.76
1981	9.779	-1.0139	0.	127.81
1982	10.	-1.75	0.	131.38
1983	9.7716	-1.5083	0.	130.55
1984	10.	-2.25	0.	131.08
1985	9.7651	-2.0064	0.	130.49
1986	10.	-2.75	0.	129.51
1987	9.7586	-2.503	0.	129.13
1988	10.	-3.25	0.	127.92
1989	9.7538	-2.9992	0.	127.75
1990	10.	-3.75	0.	126.73
1991	9.7516	-3.4987	0.	126.68
1992	10.	-4.25	0.	125.94
1993	9.7502	-3.9976	0.	125.96
1994	10.	-4.75	0.	125.47
1995	9.75	-4.4979	0.	125.51
1996	10.	-5.25	0.	125.22
1997	9.7499	-4.9986	0.	125.25
1998	10.	-5.75	0.	125.09
1999	9.7499	-5.4992	0.	125.11
2000	10.	-6.25	0.	125.05
2001	9.75	-5.9995	0.	125.05
2002	10.	-6.75	0.	125.05
2003	9.75	-6.4997	0.	125.04
2004	10.	-7.25	0.	125.07
2005	9.75	-6.9999	0.	125.06
2006	10.	-7.75	0.	125.1
2007	9.75	-7.4999	0.	125.08
2008	10.	-8.25	0.	125.13
2009	9.75	-8.	0.	125.11
2010	10.	-8.75	0.	125.16
2011	9.75	-8.5	0.	125.13
2012	10.	-9.25	0.	125.17
2013	9.75	-9.	0.	125.15
2014	9.75	-9.5	0.	125.16
2015	-10.	9.25	0.	121.96
2016	-9.75	9.5	0.	124.15
2017	-10.	8.75	0.	119.36
2018	-9.75	9.	0.	122.14
2019	-10.	8.25	0.	118.48
2020	-9.75	8.5	0.	121.15
2021	-10.	7.75	0.	119.71
2022	-9.75	8.	0.	121.55
2023	-10.	7.25	0.	122.56
2024	-9.75	7.5	0.	123.24
2025	-10.	6.75	0.	125.97
2026	-9.75	7.	0.	125.71
2027	-10.	6.25	0.	128.63
2028	-9.75	6.5	0.	128.02
2029	-10.	5.75	0.	129.87
2030	-9.75	6.	0.	129.24
2031	-10.	5.25	0.	129.82
2032	-9.75	5.5	0.	129.33
2033	-10.	4.75	0.	129.08
2034	-9.75	5.0001	0.	128.77
2035	-10.	4.25	0.	128.14
2036	-9.7501	4.5001	0.	127.98
2037	-10.	3.75	0.	127.24
2038	-9.7501	4.0003	0.	127.2
2039	-10.	3.25	0.	126.49
2040	-9.7502	3.5004	0.	126.53
2041	-10.	2.75	0.	125.91
2042	-9.7504	3.0007	0.	125.99
2043	-10.	2.25	0.	125.5
2044	-9.7507	2.5012	0.	125.58
2045	-10.	1.75	0.	125.25
2046	-9.7511	2.0019	0.	125.3
2047	-10.	1.25	0.	125.15
2048	-9.7518	1.5028	0.	125.14
2049	-10.	0.75	0.	125.21
2050	-9.7528	1.0042	0.	125.11
2051	-10.	0.25	0.	125.47
2052	-9.7541	0.50585	0.	125.22
2053	-10.	-0.25	0.	125.96
2054	-9.7557	7.9252e-003	0.	125.5
2055	-10.	-0.75	0.	126.72
2056	-9.7577	-0.48963	0.	125.98
2057	-10.	-1.25	0.	127.74
2058	-9.76	-0.9869	0.	126.68
2059	-10.	-1.75	0.	128.88
2060	-9.7625	-1.484	0.	127.58
2061	-10.	-2.25	0.	129.71
2062	-9.765	-1.9813	0.	128.54
2063	-10.	-2.75	0.	129.34
2064	-9.7677	-2.4786	0.	129.19
2065	-10.	-3.25	0.	126.91
2066	-9.7685	-2.9781	0.	128.77
2067	-10.	-3.75	0.	123.21
2068	-9.7668	-3.4792	0.	126.49
2069	-10.	-4.25	0.	121.14
2070	-9.7628	-3.9853	0.	123.48
2071	-10.	-4.75	0.	122.48
2072	-9.7468	-4.4895	0.	123.06
2073	-10.	-5.25	0.	125.8
2074	-9.7146	-4.9902	0.	125.82
2075	-10.	-5.75	0.	128.59
2076	-9.7311	-5.4886	0.	128.
2077	-10.	-6.25	0.	129.7
2078	-9.7434	-5.9898	0.	128.99
2079	-10.	-6.75	0.	129.5
2080	-9.7472	-6.4926	0.	128.92
2081	-10.	-7.25	0.	128.7
2082	-9.7483	-6.994	0.	128.31
2083	-10.	-7.75	0.	127.82
2084	-9.7491	-7.4959	0.	127.59
2085	-10.	-8.25	0.	127.09
2086	-9.7495	-7.9978	0.	126.95
2087	-10.	-8.75	0.	126.56
2088	-9.7498	-8.4985	0.	126.47
2089	-10.	-9.25	0.	126.23
2090	-9.75	-8.9999	0.	126.14
2091	-9.75	-9.5	0.	125.96
2092	-9.25	-10.	0.	125.51
2093	-9.5	-9.75	0.	125.78
2094	-8.75	-10.	0.	124.99
2095	-9.0001	-9.75	0.	125.26
2096	-8.25	-10.	0.	124.48
2097	-8.5002	-9.7502	0.	124.7
2098	-7.75	-10.	0.	124.13
2099	-8.0003	-9.7506	0.	124.23
2100	-7.25	-10.	0.	123.99
2101	-7.5003	-9.7515	0.	123.97
2102	-6.75	-10.	0.	124.08
2103	-7.0001	-9.7524	0.	123.96
2104	-6.25	-10.	0.	124.37
2105	-6.4997	-9.7525	0.	124.18
2106	-5.75	-10.	0.	124.75
2107	-5.9993	-9.7515	0.	124.55
2108	-5.25	-10.	0.	125.16
2109	-5.4992	-9.7496	0.	124.98
2110	-4.75	-10.	0.	125.51
2111	-4.9992	-9.7478	0.	125.38
2112	-4.25	-10.	0.	125.76
2113	-4.4993	-9.7467	0.	125.69
2114	-3.75	-10.	0.	125.9
2115	-3.9993	-9.7459	0.	125.88
2116	-3.25	-10.	0.	125.92
2117	-3.4994	-9.7455	0.	125.95
2118	-2.75	-10.	0.	125.84
2119	-2.9994	-9.7453	0.	125.91
2120	-2.25	-10.	0.	125.69
2121	-2.4995	-9.7455	0.	125.79
2122	-1.75	-10.	0.	125.49
2123	-1.9994	-9.7459	0.	125.6
2124	-1.25	-10.	0.	125.27
2125	-1.4994	-9.7464	0.	125.38
2126	-0.75	-10.	0.	125.06
2127	-0.99941	-9.7471	0.	125.16
2128	-0.25	-10.	0.	124.87
2129	-0.49949	-9.7478	0.	124.95
2130	0.25	-10.	0.	124.73
2131	4.1584e-004	-9.7486	0.	124.78
2132	0.75	-10.	0.	124.64
2133	0.50036	-9.7494	0.	124.66
2134	1.25	-10.	0.	124.61
2135	1.0004	-9.7501	0.	124.6
2136	1.75	-10.	0.	124.62
2137	1.5004	-9.7506	0.	124.6
2138	2.25	-10.	0.	124.67
2139	2.0005	-9.751	0.	124.64
2140	2.75	-10.	0.	124.75
2141	2.5004	-9.7509	0.	124.71
2142	3.25	-10.	0.	124.84
2143	3.0003	-9.7508	0.	124.8
2144	3.75	-10.	0.	124.93
2145	3.5003	-9.7507	0.	124.89
2146	4.25	-10.	0.	125.01
2147	4.0002	-9.7506	0.	124.98
2148	4.75	-10.	0.	125.07
2149	4.5001	-9.7504	0.	125.05
2150	5.25	-10.	0.	125.11
2151	5.0001	-9.7503	0.	125.1
2152	5.75	-10.	0.	125.13
2153	5.5001	-9.7502	0.	125.13
2154	6.25	-10.	0.	125.14
2155	6.	-9.7501	0.	125.14
2156	6.75	-10.	0.	125.14
2157	6.5	-9.75	0.	125.14
2158	7.25	-10.	0.	125.13
2159	7.	-9.75	0.	125.13
2160	7.75	-10.	0.	125.12
2161	7.5	-9.75	0.	125.12
2162	8.25	-10.	0.	125.12
2163	8.	-9.75	0.	125.12
2164	8.75	-10.	0.	125.12
2165	8.5	-9.75	0.	125.12
2166	9.25	-10.	0.	125.14
2167	9.	-9.75	0.	125.13
2168	9.5	-9.75	0.	125.15
2169	-4.0914	0.8705	0.	126.32
2170	-3.8945	0.63238	0.	126.52
2171	-4.3347	0.6331	0.	126.07
2172	-4.0369	0.41717	0.	126.37
2173	-4.3191	1.0932	0.	126.06
2174	-3.8377	1.0792	0.	126.57
2175	-4.0616	1.3269	0.	126.31
2176	-4.0164	2.2776	0.	126.22
2177	-4.2736	2.0387	0.	126.
2178	-3.7696	2.0251	0.	126.46
2179	-4.0343	1.7974	0.	126.27
2180	-3.4627	0.56645	0.	126.96
2181	-3.6408	0.84111	0.	126.78
2182	-3.8257	0.40214	0.	126.58
2183	-3.5305	1.7746	0.	126.74
2184	-3.2909	1.5097	0.	127.02
2185	-3.5712	1.2993	0.	126.81
2186	-3.7952	1.5469	0.	126.55
2187	-4.2615	2.5225	0.	125.97
2188	-4.5187	2.2836	0.	125.75
2189	-4.5092	2.77	0.	125.76
2190	-4.7631	2.5266	0.	125.47
2191	-3.1772	0.75649	0.	127.26
2192	-3.0751	1.2415	0.	127.29
2193	-2.8692	0.95084	0.	127.59
2194	-3.3554	1.0311	0.	127.08
2195	-4.0069	2.7654	0.	126.2
2196	-4.2546	3.0129	0.	125.99
2197	-4.0021	3.2579	0.	126.25
2198	-3.7519	3.0062	0.	126.33
2199	-3.7575	2.5135	0.	126.37
2200	-4.5331	1.8034	0.	125.76
2201	-4.5512	1.3284	0.	125.79
2202	-4.789	1.5613	0.	125.51
2203	-4.2938	1.5621	0.	126.04
2204	-4.7741	2.0421	0.	125.48
2205	-4.8052	1.0873	0.	125.53
2206	-4.5624	0.85583	0.	125.81
2207	-4.0977	-0.59053	0.	126.3
2208	-4.3135	-0.33723	0.	126.13
2209	-3.8141	-0.37773	0.	126.42
2210	-4.0128	-7.6839e-002	0.	126.36
2211	-3.5107	2.261	0.	126.61
2212	-3.2616	1.999	0.	126.85
2213	-4.756	3.0156	0.	125.51
2214	-4.504	3.2628	0.	125.85
2215	-3.7497	3.5026	0.	126.38
2216	-4.0002	3.7542	0.	126.41
2217	-4.2514	3.5077	0.	126.11
2218	-3.3358	0.28647	0.	127.02
2219	-2.9968	0.45622	0.	127.43
2220	-3.9038	-0.8661	0.	126.32
2221	-3.6202	-0.6533	0.	126.44
2222	-3.6973	-1.1308	0.	126.31
2223	-3.451	-0.92841	0.	126.32
2224	-4.3822	-0.83106	0.	126.21
2225	-4.1661	-1.0868	0.	126.37
2226	-4.598	-0.57776	0.	126.04
2227	-4.8261	-0.33755	0.	125.72
2228	-4.5531	-9.3895e-002	0.	125.93
2229	-3.4996	3.2508	0.	126.46
2230	-3.2481	3.4967	0.	126.46
2231	-3.4989	3.7496	0.	126.52
2232	-3.022	1.734	0.	127.14
2233	-2.7797	1.4524	0.	127.46
2234	-2.6888	0.65058	0.	127.76
2235	-2.5739	1.1617	0.	127.75
2236	-2.3949	0.84946	0.	128.1
2237	4.3267	-4.2533	0.	127.08
2238	4.538	-4.0382	0.	127.01
2239	4.5148	-4.4907	0.	126.79
2240	4.7794	-4.3502	0.	126.65
2241	-3.5024	2.7542	0.	126.5
2242	-3.2484	2.9956	0.	126.51
2243	-3.2512	2.4958	0.	126.65
2244	4.7065	-5.0263	0.	126.34
2245	4.5077	-5.3295	0.	126.28
2246	4.481	-4.904	0.	126.56
2247	4.2668	-5.1044	0.	126.51
2248	5.0778	-3.708	0.	126.63
2249	5.2992	-3.9709	0.	126.25
2250	4.7954	-3.8728	0.	126.83
2251	5.0369	-4.1847	0.	126.47
2252	-5.0046	3.2623	0.	125.29
2253	-5.2562	3.0156	0.	124.92
2254	-5.0099	2.7723	0.	125.22
2255	-5.03	1.8	0.	125.23
2256	-5.043	1.3202	0.	125.25
2257	-5.2845	1.558	0.	124.97
2258	-5.2726	2.0411	0.	124.95
2259	-5.0185	2.2851	0.	125.21
2260	-5.2964	1.0791	0.	124.98
2261	-5.0528	0.84431	0.	125.27
2262	-3.5001	-0.17874	0.	126.69
2263	-3.185	-5.6726e-003	0.	127.03
2264	-3.6989	0.12215	0.	126.64
2265	-3.3404	-0.46777	0.	126.61
2266	-4.8758	-0.82063	0.	125.93
2267	-4.6519	-1.0667	0.	126.3
2268	-5.0707	-0.10428	0.	125.41
2269	-5.1039	-0.58042	0.	125.6
2270	-5.3366	-0.34527	0.	125.14
2271	-5.3127	0.12879	0.	125.04
2272	-5.0574	0.36978	0.	125.32
2273	-4.7978	0.13937	0.	125.62
2274	-3.3295	-4.5885	0.	126.49
2275	-3.0931	-4.8529	0.	126.58
2276	-3.5827	-4.8402	0.	126.41
2277	-3.3542	-5.1086	0.	126.56
2278	-2.9977	3.7449	0.	126.47
2279	-2.9969	3.2414	0.	126.51
2280	-2.7467	3.4909	0.	126.39
2281	-3.0021	2.2337	0.	126.89
2282	-2.7501	1.9621	0.	127.14
2283	4.966	-5.2188	0.	126.09
2284	5.2059	-4.9613	0.	126.
2285	4.7085	-4.8214	0.	126.47
2286	4.9731	-4.6808	0.	126.32
2287	5.3216	-3.486	0.	126.43
2288	4.8946	-3.4258	0.	126.88
2289	5.0817	-3.2303	0.	126.83
2290	-3.9595	-1.3515	0.	126.37
2291	-3.5003	-1.3922	0.	126.19
2292	-3.7348	-1.6084	0.	126.33
2293	-2.846	0.16408	0.	127.45
2294	-2.4836	0.31701	0.	127.99
2295	-3.2541	-1.1899	0.	126.19
2296	-3.1713	-0.74287	0.	126.49
2297	-3.0355	-1.0106	0.	126.26
2298	-2.243	1.3768	0.	127.82
2299	-2.5078	1.6805	0.	127.46
2300	-3.839	-5.0944	0.	126.5
2301	-4.0929	-5.3495	0.	126.76
2302	-3.6105	-5.3628	0.	126.66
2303	-3.8735	-5.6199	0.	126.87
2304	1.3432	-5.1221	0.	122.91
2305	0.95587	-4.9974	0.	121.86
2306	1.1317	-5.3998	0.	122.71
2307	0.87692	-5.2587	0.	122.31
2308	-3.3108	-4.0737	0.	126.52
2309	-3.0706	-4.3362	0.	126.67
2310	-3.5642	-4.3233	0.	126.31
2311	3.9039	-4.2459	0.	127.37
2312	4.0678	-4.0195	0.	127.41
2313	4.0414	-4.4343	0.	127.14
2314	-5.2528	3.5089	0.	124.97
2315	-5.002	3.7572	0.	125.47
2316	-4.7525	3.5095	0.	125.63
2317	-4.2502	4.0039	0.	126.37
2318	-3.9996	4.2521	0.	126.69
2319	-3.7493	4.0011	0.	126.55
2320	-5.3749	-0.82243	0.	125.38
2321	-5.1467	-1.0612	0.	125.98
2322	-4.211	-1.5751	0.	126.57
2323	-4.4357	-1.3225	0.	126.46
2324	-2.8634	-5.1174	0.	126.62
2325	-2.5948	-4.8614	0.	126.69
2326	-2.8342	-4.6006	0.	126.76
2327	-3.2491	4.4987	0.	126.66
2328	-3.7493	4.5005	0.	126.82
2329	-3.4993	4.7497	0.	126.86
2330	-3.499	4.2495	0.	126.68
2331	-2.9994	4.7487	0.	126.56
2332	-3.2496	4.9997	0.	126.77
2333	-2.9999	5.2498	0.	126.53
2334	-2.7497	4.9993	0.	126.41
2335	-2.25	5.4998	0.	125.99
2336	-2.75	5.4998	0.	126.29
2337	-2.5001	5.7498	0.	125.94
2338	-2.4998	5.2493	0.	126.18
2339	5.7637	3.5175	0.	124.58
2340	5.5108	3.7607	0.	124.65
2341	5.5211	3.2666	0.	125.43
2342	5.2649	3.5099	0.	125.38
2343	3.3782	-5.5196	0.	126.1
2344	3.0834	-5.4318	0.	125.95
2345	3.1647	-5.1349	0.	126.36
2346	3.4687	-5.2563	0.	126.37
2347	-2.9987	4.247	0.	126.51
2348	-2.7491	4.4978	0.	126.41
2349	-2.748	3.9947	0.	126.37
2350	-3.2486	3.9979	0.	126.53
2351	-2.9972	2.7372	0.	126.66
2352	-2.7453	2.9832	0.	126.53
2353	-2.7448	2.4745	0.	126.8
2354	-2.8989	-5.6369	0.	126.55
2355	-3.1246	-5.3731	0.	126.6
2356	-2.6279	-5.3789	0.	126.48
2357	2.2722	-5.5988	0.	124.77
2358	2.6912	-5.5686	0.	125.41
2359	2.5412	-5.3729	0.	125.39
2360	2.5164	-5.8318	0.	125.05
2361	2.074	-5.381	0.	124.55
2362	2.0571	-5.8303	0.	124.41
2363	1.828	-5.5839	0.	124.03
2364	3.7246	-5.6307	0.	126.1
2365	3.5149	-5.9059	0.	125.85
2366	3.2724	-5.8526	0.	125.74
2367	2.7416	-5.3365	0.	125.68
2368	2.9775	-5.7648	0.	125.6
2369	4.2521	-5.552	0.	126.18
2370	4.7672	-5.5221	0.	126.04
2371	4.5244	-5.79	0.	126.
2372	3.9936	-5.8033	0.	126.05
2373	3.8151	-5.3675	0.	126.37
2374	4.0112	-5.3269	0.	126.4
2375	5.2442	-5.4909	0.	125.8
2376	5.4841	-5.2334	0.	125.7
2377	5.742	-5.492	0.	125.46
2378	5.4952	-5.7426	0.	125.59
2379	5.0024	-5.751	0.	125.85
2380	5.4926	-4.7295	0.	125.8
2381	5.5221	-4.2351	0.	125.9
2382	5.7569	-4.4923	0.	125.54
2383	5.2598	-4.449	0.	126.12
2384	5.7354	-4.9884	0.	125.51
2385	5.543	-3.7488	0.	126.05
2386	5.5409	-3.2703	0.	126.35
2387	5.7863	-3.5186	0.	125.74
2388	5.7787	-4.0026	0.	125.58
2389	-5.5092	2.771	0.	124.62
2390	-5.517	2.2836	0.	124.66
2391	-5.7614	2.5248	0.	124.39
2392	-5.2629	2.5277	0.	124.92
2393	-5.5045	3.2621	0.	124.6
2394	-5.7559	3.0147	0.	124.3
2395	-5.7702	2.0391	0.	124.45
2396	-5.5271	1.7991	0.	124.7
2397	-5.7916	1.0745	0.	124.47
2398	-5.5489	0.83835	0.	124.71
2399	-5.5379	1.3169	0.	124.71
2400	-3.2689	-1.6423	0.	126.07
2401	-3.067	-1.4273	0.	125.99
2402	-3.0254	-0.2947	0.	126.95
2403	-2.7195	-0.15667	0.	127.35
2404	-2.901	-0.59885	0.	126.71
2405	4.6573	-3.1683	0.	127.08
2406	4.6121	-3.5906	0.	127.09
2407	4.4891	-3.3721	0.	127.21
2408	-2.7652	-0.86658	0.	126.47
2409	-2.6729	-1.1715	0.	126.07
2410	-2.8484	-1.248	0.	126.05
2411	-2.064	1.0645	0.	128.16
2412	-1.9721	1.6252	0.	127.64
2413	-1.6875	1.3842	0.	127.81
2414	-1.8443	1.0689	0.	128.28
2415	-5.5786	-0.1122	0.	124.77
2416	-5.8174	0.12112	0.	124.4
2417	-5.5606	0.36262	0.	124.72
2418	-5.6076	-0.58728	0.	124.92
2419	-5.8406	-0.35338	0.	124.41
2420	5.7721	-3.0421	0.	126.12
2421	5.5113	-2.8009	0.	126.84
2422	5.3009	-3.0146	0.	126.74
2423	-3.9863	-1.832	0.	126.53
2424	-3.7504	-2.0866	0.	126.42
2425	-3.5034	-1.8585	0.	126.21
2426	1.8415	-5.1101	0.	124.04
2427	2.343	-5.1551	0.	125.17
2428	2.0445	-4.9724	0.	124.65
2429	3.2766	-4.8605	0.	126.72
2430	3.401	-4.5839	0.	127.17
2431	3.5806	-4.9819	0.	126.73
2432	3.7375	-4.7135	0.	126.97
2433	-2.4969	3.7407	0.	126.29
2434	-2.2459	3.4868	0.	126.18
2435	-2.4951	3.2327	0.	126.41
2436	-2.4928	2.203	0.	127.05
2437	-2.2369	1.929	0.	127.28
2438	3.889	0.51626	0.	127.34
2439	4.2005	0.3004	0.	126.84
2440	4.4157	0.54607	0.	127.09
2441	4.1236	0.77391	0.	127.54
2442	3.5377	-1.5785e-002	0.	127.06
2443	3.1842	0.21839	0.	127.44
2444	3.3337	-0.28031	0.	126.96
2445	3.0427	-9.9505e-002	0.	127.52
2446	6.0101	3.7684	0.	123.83
2447	6.2615	3.5243	0.	123.75
2448	6.0182	3.2783	0.	124.55
2449	-4.0675	-4.826	0.	126.23
2450	-3.8174	-4.575	0.	126.22
2451	-1.8825	-5.6421	0.	125.9
2452	-1.6044	-5.3842	0.	125.65
2453	-1.8468	-5.1262	0.	126.23
2454	-2.1196	-5.3825	0.	126.2
2455	-3.2941	-3.5681	0.	126.56
2456	-3.0539	-3.8243	0.	126.79
2457	-3.5495	-3.8122	0.	126.38
2458	1.7917	-4.9132	0.	124.02
2459	1.4674	-4.815	0.	122.86
2460	1.5955	-5.313	0.	123.52
2461	3.5021	-4.3264	0.	127.43
2462	3.6362	-4.0684	0.	127.68
2463	3.8386	-4.4561	0.	127.24
2464	4.5793	-2.7272	0.	127.03
2465	4.3983	-2.9401	0.	127.16
2466	4.8444	-2.9728	0.	127.02
2467	-5.7528	3.5084	0.	124.22
2468	-5.5021	3.7569	0.	124.65
2469	-4.5003	4.2539	0.	126.45
2470	-4.7509	4.0052	0.	125.9
2471	-4.5014	3.7575	0.	126.07
2472	-1.7501	5.5	0.	125.84
2473	-1.9999	5.2493	0.	125.95
2474	-2.0002	5.7499	0.	125.73
2475	5.9933	-5.247	0.	125.27
2476	5.9956	-5.747	0.	125.28
2477	6.2453	-5.4989	0.	125.11
2478	-2.5952	-0.46082	0.	127.11
2479	-2.507	-0.80561	0.	126.61
2480	3.699	0.25012	0.	127.15
2481	3.3455	0.48429	0.	127.53
2482	3.6033	0.75061	0.	127.72
2483	-5.8732	-0.83033	0.	124.51
2484	-5.6441	-1.0659	0.	125.27
2485	-6.0794	-0.12006	0.	124.04
2486	-6.1062	-0.59643	0.	124.01
2487	-6.3386	-0.36299	0.	123.61
2488	-4.2385	-2.06	0.	126.81
2489	-4.471	-1.8074	0.	126.85
2490	-2.0865	-4.8666	0.	126.58
2491	-2.3326	-4.6073	0.	126.94
2492	-2.3593	-5.1229	0.	126.55
2493	-2.8137	-4.0868	0.	126.94
2494	-2.572	-4.3465	0.	127.02
2495	3.8001	-3.842	0.	127.72
2496	3.9523	-3.6052	0.	127.63
2497	4.2791	-3.8044	0.	127.33
2498	-4.2497	4.5021	0.	126.78
2499	-3.9995	4.7511	0.	127.08
2500	5.7571	4.0116	0.	123.91
2501	5.2571	4.0062	0.	124.8
2502	5.5051	4.2569	0.	124.01
2503	-3.4997	5.2499	0.	126.99
2504	-3.7496	5.0003	0.	127.12
2505	-3.2499	5.4999	0.	126.75
2506	-3.	5.7499	0.	126.33
2507	-2.7501	5.9999	0.	125.97
2508	-2.5002	6.2499	0.	125.55
2509	-2.2502	5.9999	0.	125.68
2510	5.5395	2.7746	0.	126.38
2511	5.278	3.0149	0.	126.18
2512	5.7756	3.0274	0.	125.4
2513	-6.06	0.35551	0.	124.12
2514	-6.3166	0.11266	0.	123.79
2515	6.0175	-3.2904	0.	125.51
2516	5.9951	-2.8152	0.	126.12
2517	6.2522	-3.0512	0.	125.03
2518	-4.0026	-2.3146	0.	126.7
2519	-3.5073	-2.3323	0.	126.35
2520	-3.7624	-2.5688	0.	126.5
2521	2.823	-5.0396	0.	126.08
2522	2.5122	-4.9026	0.	125.8
2523	2.9619	-4.7296	0.	126.72
2524	-2.4985	4.2455	0.	126.27
2525	-2.2492	4.4978	0.	126.15
2526	-2.4994	4.7484	0.	126.26
2527	-2.2478	3.9932	0.	126.12
2528	-2.2398	2.4593	0.	126.79
2529	-2.4929	2.7206	0.	126.67
2530	-4.3214	-5.0811	0.	126.49
2531	-4.5745	-5.335	0.	127.03
2532	-4.3558	-5.6081	0.	127.14
2533	-2.9325	-6.1569	0.	126.54
2534	-3.1623	-5.8943	0.	126.66
2535	-2.664	-5.898	0.	126.39
2536	-1.9172	-6.1587	0.	125.75
2537	-2.156	-5.8995	0.	126.02
2538	-1.641	-5.8998	0.	125.48
2539	-0.88437	-6.156	0.	124.49
2540	-0.60564	-5.8948	0.	124.02
2541	-0.84149	-5.638	0.	124.33
2542	-1.1208	-5.8979	0.	124.78
2543	0.1754	-5.6151	0.	122.76
2544	0.12966	-6.1479	0.	123.37
2545	-9.6945e-002	-5.8882	0.	123.38
2546	0.40774	-5.863	0.	123.01
2547	1.3563	-6.0488	0.	123.59
2548	1.8227	-6.0635	0.	124.11
2549	1.5696	-6.2964	0.	123.9
2550	1.5936	-5.8171	0.	123.73
2551	1.0986	-6.2686	0.	123.51
2552	0.89315	-5.9407	0.	123.14
2553	1.1467	-5.8223	0.	123.19
2554	2.0525	-6.3051	0.	124.39
2555	2.3013	-6.0634	0.	124.69
2556	3.306	-6.0508	0.	125.61
2557	3.7839	-6.0785	0.	125.8
2558	3.5372	-6.3258	0.	125.59
2559	3.0477	-6.2596	0.	125.36
2560	2.8028	-6.0281	0.	125.24
2561	4.2659	-6.0413	0.	125.87
2562	4.7596	-6.0189	0.	125.81
2563	4.512	-6.2757	0.	125.76
2564	4.0189	-6.2948	0.	125.74
2565	5.0068	-6.2585	0.	125.66
2566	5.2534	-6.0027	0.	125.64
2567	5.9997	-4.7512	0.	125.24
2568	6.0134	-4.2597	0.	125.22
2569	6.256	-4.5089	0.	124.91
2570	6.2459	-5.0017	0.	125.02
2571	6.022	-3.7723	0.	125.27
2572	6.2651	-3.534	0.	124.8
2573	6.2656	-4.0189	0.	124.8
2574	-6.008	2.7685	0.	124.07
2575	-6.0146	2.2803	0.	124.18
2576	-6.2596	2.5212	0.	123.95
2577	-6.0041	3.2609	0.	123.92
2578	-6.2552	3.0129	0.	123.78
2579	-6.0235	1.7954	0.	124.23
2580	-6.0341	1.313	0.	124.24
2581	-5.7804	1.5554	0.	124.48
2582	-6.2764	1.5503	0.	124.08
2583	-6.267	2.0345	0.	124.05
2584	-6.0459	0.83318	0.	124.19
2585	-6.3001	0.58965	0.	123.94
2586	-5.8032	0.597	0.	124.44
2587	-6.2878	1.0691	0.	124.04
2588	3.8272	-0.27552	0.	126.48
2589	4.0105	3.4256e-002	0.	126.66
2590	-2.1897	0.51589	0.	128.32
2591	-1.9441	0.79903	0.	128.47
2592	5.7976	2.5388	0.	126.43
2593	5.5719	2.2852	0.	127.46
2594	5.3001	2.5213	0.	127.13
2595	6.0054	4.2619	0.	123.18
2596	6.2568	4.0153	0.	123.28
2597	-1.3296	-5.1265	0.	125.49
2598	-1.0836	-5.382	0.	124.78
2599	-1.363	-5.6419	0.	125.23
2600	-5.2691e-002	-5.3585	0.	122.79
2601	0.22193	-5.084	0.	121.88
2602	0.42502	-5.3355	0.	122.31
2603	-3.2603	-2.1043	0.	126.13
2604	-3.0131	-1.8608	0.	125.92
2605	-3.5347	-3.3102	0.	126.49
2606	-3.2775	-3.071	0.	126.51
2607	-3.0362	-3.3209	0.	126.78
2608	1.899	-4.5792	0.	124.44
2609	2.2137	-4.7199	0.	125.29
2610	3.0863	-4.453	0.	127.17
2611	3.2176	-4.1771	0.	127.71
2612	4.4964	-2.2805	0.	126.78
2613	4.3056	-2.4963	0.	126.85
2614	4.7752	-2.5224	0.	127.06
2615	-6.2525	3.5071	0.	123.54
2616	-6.002	3.7564	0.	123.75
2617	-1.9968	3.7394	0.	126.02
2618	-1.7457	3.4866	0.	125.87
2619	-1.994	3.2292	0.	126.17
2620	-1.9839	2.1853	0.	127.02
2621	-1.7234	1.9318	0.	127.18
2622	5.9989	-6.2487	0.	125.28
2623	6.2478	-5.9989	0.	125.17
2624	5.7488	-5.9976	0.	125.41
2625	3.6231	-0.54005	0.	126.38
2626	3.8338	-0.81316	0.	125.89
2627	4.1353	-0.66117	0.	126.01
2628	4.1197	-0.45718	0.	126.08
2629	-2.3572	-3.7386e-003	0.	127.89
2630	-2.3195	-0.38334	0.	127.48
2631	-6.5568	0.34681	0.	123.61
2632	-6.8122	0.10255	0.	123.32
2633	-6.5758	-0.13027	0.	123.36
2634	-2.4147	-1.1106	0.	126.21
2635	-2.3656	-1.5042	0.	125.71
2636	-2.6824	-1.3634	0.	125.91
2637	2.8379	0.35439	0.	127.53
2638	2.7853	0.54823	0.	127.16
2639	3.058	0.73823	0.	127.59
2640	-6.1394	-1.0775	0.	124.09
2641	-6.3675	-0.84116	0.	123.44
2642	-4.5523	-4.8129	0.	126.13
2643	-4.3046	-4.5625	0.	125.98
2644	-4.2579	-2.5479	0.	126.91
2645	-4.4953	-2.2961	0.	127.22
2646	-5.416	-1.3046	0.	125.87
2647	-5.1872	-1.5473	0.	126.65
2648	-4.9228	-1.3073	0.	126.36
2649	-1.572	-4.8685	0.	126.06
2650	-1.8215	-4.6112	0.	126.83
2651	1.08	-4.6903	0.	121.79
2652	0.77208	-4.5268	0.	120.43
2653	0.53202	-4.8112	0.	121.31
2654	0.7351	-5.0628	0.	121.75
2655	-2.5551	-3.8336	0.	127.33
2656	-2.796	-3.5771	0.	127.01
2657	1.5747	-4.481	0.	123.28
2658	1.2727	-4.346	0.	121.66
2659	3.5033	-3.6577	0.	128.08
2660	3.3517	-3.9192	0.	127.96
2661	4.1247	-2.7092	0.	126.99
2662	3.957	-2.9431	0.	127.39
2663	4.2301	-3.1439	0.	127.29
2664	3.1388	-0.56145	0.	126.96
2665	3.2948	-0.77433	0.	126.25
2666	-4.7502	4.5027	0.	126.39
2667	-4.4999	4.7522	0.	127.04
2668	-1.5	5.2499	0.	125.88
2669	-1.2502	5.5002	0.	125.83
2670	-1.5002	5.7501	0.	125.65
2671	5.0052	4.2532	0.	125.15
2672	5.0113	3.7553	0.	125.52
2673	4.7573	4.0026	0.	125.73
2674	5.7534	4.5072	0.	123.27
2675	5.2532	4.5039	0.	124.36
2676	5.5023	4.7542	0.	123.36
2677	-3.7498	5.5002	0.	127.33
2678	-3.4999	5.75	0.	126.91
2679	-3.0001	6.2499	0.	125.9
2680	-3.25	6.	0.	126.49
2681	-2.7502	6.5	0.	125.48
2682	-2.2503	6.5	0.	125.24
2683	-2.5003	6.75	0.	125.07
2684	5.3354	2.0298	0.	128.09
2685	5.0636	2.2659	0.	127.77
2686	5.098	1.7761	0.	128.35
2687	4.8216	2.0126	0.	128.18
2688	-4.8925	-6.1251	0.	128.05
2689	-4.6786	-6.3984	0.	127.85
2690	-4.958	-6.657	0.	127.8
2691	-5.1738	-6.3736	0.	128.3
2692	5.9403	-2.3511	0.	127.16
2693	5.7343	-2.5741	0.	126.83
2694	6.2379	-2.561	0.	125.7
2695	6.4998	-3.2949	0.	124.31
2696	6.7274	-3.061	0.	123.59
2697	6.4949	-2.797	0.	124.61
2698	4.3276	1.5069	0.	128.3
2699	4.6076	1.2698	0.	128.05
2700	4.8526	1.5217	0.	128.41
2701	4.5763	1.7581	0.	128.24
2702	4.3566	-1.3855	0.	126.08
2703	4.0589	-1.1197	0.	125.8
2704	4.3605	-0.9677	0.	125.93
2705	4.6001	-1.1873	0.	126.32
2706	4.6993	-2.0738	0.	126.92
2707	4.9178	-1.8691	0.	127.15
2708	5.1878	-2.1032	0.	127.5
2709	4.9781	-2.3157	0.	127.2
2710	-1.0006	6.2501	0.	125.23
2711	-1.0003	5.7502	0.	125.64
2712	-1.2504	6.0001	0.	125.46
2713	-0.75053	6.0001	0.	125.36
2714	-3.9997	5.2505	0.	127.47
2715	-4.2497	5.0012	0.	127.34
2716	6.2536	4.5096	0.	122.78
2717	6.0026	4.7571	0.	122.42
2718	3.6555	-3.4209	0.	127.99
2719	3.8064	-3.1755	0.	127.64
2720	4.0795	-3.3764	0.	127.54
2721	-2.3134	-4.0933	0.	127.4
2722	-2.0676	-4.3519	0.	127.19
2723	-4.0318	-3.2953	0.	126.48
2724	-3.79	-3.5542	0.	126.31
2725	-3.7764	-3.0568	0.	126.47
2726	-0.28363	-5.1077	0.	122.89
2727	-0.32504	-5.6316	0.	123.41
2728	-0.56088	-5.3748	0.	123.72
2729	-3.2641	-2.5812	0.	126.33
2730	-3.0051	-2.3311	0.	126.15
2731	-3.0189	-2.8226	0.	126.54
2732	-3.5192	-2.8176	0.	126.48
2733	2.7855	-4.3047	0.	127.25
2734	2.6512	-4.5926	0.	126.44
2735	4.416	-1.8309	0.	126.41
2736	4.21	-2.0439	0.	126.35
2737	4.6345	-1.6263	0.	126.64
2738	4.1216	-1.5835	0.	125.9
2739	-5.5009	4.254	0.	124.83
2740	-5.2512	4.0051	0.	125.14
2741	-5.7513	4.0048	0.	124.18
2742	-1.9986	4.2455	0.	126.01
2743	-1.7492	4.4978	0.	125.96
2744	-1.9994	4.7483	0.	126.03
2745	-1.748	3.9938	0.	125.86
2746	-1.7358	2.4586	0.	126.6
2747	-1.99	2.7138	0.	126.52
2748	4.777	3.0061	0.	126.72
2749	5.0386	2.7616	0.	126.94
2750	5.0217	3.2581	0.	126.13
2751	6.2845	2.556	0.	125.21
2752	6.0699	2.3067	0.	126.64
2753	6.0338	2.7916	0.	125.46
2754	6.5391	2.3319	0.	124.99
2755	6.7621	2.5579	0.	123.45
2756	6.5201	2.8023	0.	124.11
2757	6.5082	3.7711	0.	123.2
2758	6.7556	4.0147	0.	123.
2759	6.505	4.263	0.	122.88
2760	6.5126	3.2839	0.	123.56
2761	6.7579	3.5245	0.	123.04
2762	-4.8378	-5.5921	0.	127.63
2763	-5.1025	-5.8423	0.	128.48
2764	-4.619	-5.8651	0.	127.74
2765	-4.8054	-5.0668	0.	126.66
2766	-5.0572	-5.3171	0.	127.61
2767	-4.1858	-6.4071	0.	127.42
2768	-4.4051	-6.1384	0.	127.53
2769	-4.4537	-6.6658	0.	127.5
2770	-3.6943	-6.413	0.	127.04
2771	-3.1984	-6.416	0.	126.7
2772	-3.4626	-6.6747	0.	126.84
2773	-3.4282	-6.1534	0.	126.83
2774	-3.9578	-6.6718	0.	127.17
2775	-3.9172	-6.1471	0.	127.13
2776	-2.9595	-6.675	0.	126.51
2777	-2.6943	-6.4163	0.	126.35
2778	-1.945	-6.675	0.	125.7
2779	-1.6742	-6.4161	0.	125.44
2780	-2.187	-6.4166	0.	125.94
2781	-0.92594	-6.6767	0.	124.66
2782	-1.1617	-6.4153	0.	124.87
2783	-0.65219	-6.4135	0.	124.3
2784	7.9694e-002	-6.6789	0.	123.82
2785	0.34664	-6.419	0.	123.57
2786	-0.14685	-6.412	0.	123.83
2787	1.3118	-6.5162	0.	123.82
2788	1.7994	-6.538	0.	124.19
2789	1.5435	-6.7761	0.	124.06
2790	1.0546	-6.7469	0.	123.8
2791	0.83013	-6.4619	0.	123.58
2792	2.0375	-6.7846	0.	124.41
2793	2.2926	-6.5394	0.	124.61
2794	3.0256	-6.7707	0.	125.12
2795	2.7864	-6.5292	0.	125.02
2796	3.2789	-6.5346	0.	125.33
2797	4.2649	-6.5291	0.	125.62
2798	4.7591	-6.5153	0.	125.61
2799	4.5098	-6.7681	0.	125.55
2800	4.0154	-6.7803	0.	125.5
2801	3.7722	-6.5421	0.	125.54
2802	5.006	-6.7583	0.	125.51
2803	5.2549	-6.5056	0.	125.51
2804	6.0006	-6.7501	0.	125.27
2805	6.2497	-6.4997	0.	125.19
2806	5.7516	-6.5009	0.	125.36
2807	6.7485	-6.0004	0.	124.95
2808	6.4986	-6.25	0.	125.08
2809	6.4975	-5.7508	0.	124.99
2810	6.5022	-4.7595	0.	124.69
2811	6.5081	-4.2681	0.	124.49
2812	6.755	-4.5114	0.	124.32
2813	6.75	-5.0054	0.	124.59
2814	6.4979	-5.2536	0.	124.86
2815	6.5087	-3.7806	0.	124.33
2816	6.7522	-3.533	0.	123.69
2817	6.7581	-4.0186	0.	124.
2818	-0.75084	6.5	0.	124.92
2819	-1.2506	6.5	0.	125.06
2820	-1.0008	6.75	0.	124.86
2821	-0.25113	6.5	0.	124.61
2822	-0.50112	6.75	0.	124.67
2823	-0.50079	6.2501	0.	125.05
2824	-1.5006	6.75	0.	124.93
2825	-1.7504	6.5	0.	125.14
2826	-1.5004	6.25	0.	125.29
2827	-6.5017	3.7549	0.	123.04
2828	-6.5035	3.2591	0.	123.4
2829	-6.7521	3.5058	0.	123.12
2830	-6.5009	4.2529	0.	122.54
2831	-6.7511	4.0034	0.	122.64
2832	-6.2512	4.0042	0.	123.24
2833	-6.5068	2.7656	0.	123.67
2834	-6.512	2.2754	0.	123.83
2835	-6.7579	2.5176	0.	123.7
2836	-6.7544	3.011	0.	123.47
2837	-6.764	2.0288	0.	123.82
2838	-6.52	1.7894	0.	123.9
2839	-6.5421	0.82552	0.	123.78
2840	-6.796	0.58042	0.	123.58
2841	-6.7834	1.061	0.	123.76
2842	-6.5302	1.3064	0.	123.88
2843	-1.4388	1.6908	0.	127.34
2844	-1.1577	1.4581	0.	127.19
2845	-1.34	1.1812	0.	127.95
2846	2.6965	3.6492e-002	0.	127.61
2847	2.8479	-0.38064	0.	127.51
2848	2.5289	-0.2197	0.	128.1
2849	-2.0575	4.3524e-002	0.	128.38
2850	-1.9205	0.2504	0.	128.71
2851	2.5607	0.43311	0.	127.1
2852	2.3673	0.20126	0.	127.14
2853	-2.1479	-1.0785	0.	126.29
2854	-2.2313	-0.72812	0.	126.98
2855	2.5207	0.8413	0.	126.48
2856	2.2672	0.61677	0.	125.91
2857	-4.2732	-3.0406	0.	126.72
2858	-4.0177	-2.8021	0.	126.71
2859	-4.5137	-2.7885	0.	127.29
2860	-5.6826	-1.5489	0.	125.99
2861	-5.9103	-1.313	0.	124.84
2862	-2.4943	-1.7865	0.	125.64
2863	-2.8111	-1.6458	0.	125.84
2864	-2.7579	-2.0876	0.	125.94
2865	1.726	-4.1604	0.	124.08
2866	2.0298	-4.3043	0.	125.26
2867	4.0192	-2.2597	0.	126.42
2868	3.8422	-2.4963	0.	126.81
2869	3.8239	-1.3176	0.	125.62
2870	3.5054	-1.0474	0.	125.76
2871	-5.2505	4.5028	0.	125.53
2872	-5.0008	4.254	0.	125.84
2873	-5.0003	4.7521	0.	126.5
2874	0.24861	6.5	0.	124.12
2875	-1.4907e-003	6.75	0.	124.32
2876	-1.007e-003	6.25	0.	124.63
2877	-1.4996	4.7487	0.	125.92
2878	-1.2499	4.9996	0.	126.01
2879	-1.7498	4.9992	0.	125.99
2880	-1.497	3.7411	0.	125.71
2881	-1.2458	3.4915	0.	125.5
2882	-1.4935	3.2314	0.	125.83
2883	-1.4753	2.2052	0.	126.76
2884	-1.214	1.9636	0.	126.79
2885	4.7531	4.5015	0.	125.7
2886	5.0022	4.752	0.	124.97
2887	-3.2501	6.5	0.	125.93
2888	-3.0002	6.75	0.	125.3
2889	4.52	3.2522	0.	126.65
2890	4.2634	3.5008	0.	126.56
2891	4.7647	3.5042	0.	126.07
2892	4.5108	3.7515	0.	126.28
2893	5.8442	2.0531	0.	127.66
2894	5.6221	1.8031	0.	128.54
2895	-2.0198	-0.33608	0.	127.97
2896	-1.7624	5.6796e-002	0.	128.81
2897	-1.7538	-0.3007	0.	128.51
2898	-4.7931	-4.5528	0.	125.79
2899	-5.0377	-4.8011	0.	126.19
2900	5.1389	-1.6552	0.	127.61
2901	4.8779	-1.4281	0.	126.87
2902	5.6663	-2.1188	0.	127.77
2903	5.4604	-2.3418	0.	127.45
2904	5.4089	-1.8893	0.	127.96
2905	-0.9328	1.7309	0.	126.63
2906	-0.84597	1.229	0.	126.83
2907	-0.66288	1.4914	0.	126.
2908	-0.75024	5.5004	0.	125.88
2909	-1.	5.25	0.	125.96
2910	-4.2499	5.5005	0.	127.93
2911	-3.9999	5.7503	0.	127.68
2912	-2.297	-3.5812	0.	127.7
2913	-2.0527	-3.8391	0.	127.93
2914	2.6869	-0.65755	0.	127.86
2915	3.0722	-0.80788	0.	126.57
2916	0.96477	-4.1825	0.	120.29
2917	0.48029	-4.2747	0.	119.74
2918	0.70067	-4.0016	0.	118.39
2919	1.1381	-3.8815	0.	120.14
2920	1.4241	-4.0254	0.	122.46
2921	-1.8945	-1.007	0.	126.68
2922	-2.0988	-1.4721	0.	125.79
2923	-1.7524	-1.3001	0.	126.15
2924	4.3701	-0.56616	0.	125.97
2925	4.6264	-0.77294	0.	126.04
2926	-4.5276	-3.2847	0.	126.8
2927	-4.2849	-3.541	0.	126.28
2928	-6.8908	-1.3253	0.	121.82
2929	-6.6703	-1.5726	0.	122.21
2930	-6.4024	-1.3227	0.	123.32
2931	-6.6305	-1.0864	0.	122.67
2932	-0.27275	-4.5853	0.	122.36
2933	-0.53256	-4.8536	0.	123.46
2934	-9.0071e-003	-4.8332	0.	121.97
2935	-2.5178	-2.8175	0.	126.91
2936	-2.7599	-2.5725	0.	126.36
2937	-2.7776	-3.0726	0.	126.81
2938	2.6231	-3.8703	0.	128.06
2939	2.4788	-4.1571	0.	126.92
2940	2.9168	-4.0288	0.	127.8
2941	3.9156	-1.7964	0.	125.83
2942	3.7267	-2.0367	0.	125.93
2943	3.6127	-1.558	0.	125.39
2944	-5.5004	4.7524	0.	125.28
2945	-5.7506	4.5028	0.	124.25
2946	0.49822	6.75	0.	123.82
2947	0.4988	6.25	0.	123.9
2948	0.74845	6.5	0.	123.55
2949	-1.4987	4.2461	0.	125.8
2950	-1.2493	4.4983	0.	125.91
2951	-1.2482	3.9954	0.	125.63
2952	-1.2334	2.4723	0.	126.29
2953	-1.4876	2.7188	0.	126.22
2954	6.7645	2.0912	0.	124.16
2955	6.8753	1.8564	0.	124.48
2956	7.1999	2.0447	0.	121.03
2957	6.9875	2.3172	0.	122.61
2958	4.5021	4.7504	0.	126.61
2959	4.253	4.5	0.	126.92
2960	4.5053	4.2509	0.	126.28
2961	-3.75	6.5001	0.	126.74
2962	-3.5	6.25	0.	126.52
2963	-3.5001	6.75	0.	125.81
2964	1.7476	7.0001	0.	123.55
2965	1.9976	7.2501	0.	123.71
2966	2.2478	7.0001	0.	124.
2967	1.9979	6.7501	0.	123.71
2968	4.2744	3.0019	0.	127.08
2969	4.5344	2.7532	0.	127.3
2970	6.3246	2.0826	0.	126.41
2971	6.6641	1.8658	0.	125.84
2972	6.1465	1.8274	0.	128.08
2973	-1.9779	-0.65669	0.	127.38
2974	-1.712	-0.62131	0.	127.91
2975	-1.6182	-0.83285	0.	127.5
2976	7.2507	3.0231	0.	122.09
2977	7.0024	2.7923	0.	122.48
2978	6.7604	3.0367	0.	123.15
2979	7.0057	3.2772	0.	122.63
2980	7.2538	4.0106	0.	123.09
2981	7.0053	3.7681	0.	122.85
2982	7.0039	4.261	0.	123.08
2983	-5.5885	-5.7986	0.	129.49
2984	-5.322	-5.5674	0.	128.46
2985	-5.3838	-6.0908	0.	128.71
2986	-4.9958	-7.1856	0.	127.16
2987	-4.7331	-6.9244	0.	127.45
2988	-5.2675	-6.9143	0.	127.38
2989	-3.7262	-6.9335	0.	126.97
2990	-3.2237	-6.9337	0.	126.65
2991	-3.4826	-7.191	0.	126.74
2992	-3.9849	-7.1918	0.	126.99
2993	-4.2258	-6.9305	0.	127.25
2994	-2.9782	-7.1905	0.	126.43
2995	-2.7166	-6.9325	0.	126.3
2996	-1.7028	-6.9338	0.	125.46
2997	-1.1963	-6.9362	0.	124.98
2998	-1.4583	-7.192	0.	125.25
2999	-1.432	-6.6748	0.	125.19
3000	-1.9646	-7.1899	0.	125.68
3001	-2.2094	-6.9323	0.	125.9
3002	-0.95529	-7.1963	0.	124.82
3003	-0.68991	-6.9358	0.	124.53
3004	0.30223	-6.9536	0.	123.95
3005	0.7936	-6.9787	0.	123.91
3006	0.53671	-7.221	0.	124.02
3007	0.56917	-6.6937	0.	123.69
3008	4.4248e-002	-7.2055	0.	124.15
3009	-0.18962	-6.9394	0.	124.16
3010	1.2862	-7.0068	0.	124.04
3011	1.7816	-7.0228	0.	124.28
3012	1.5258	-7.2647	0.	124.21
3013	1.0307	-7.2462	0.	124.05
3014	2.0242	-7.2722	0.	124.45
3015	2.2788	-7.0266	0.	124.59
3016	3.0153	-7.2669	0.	124.98
3017	3.2681	-7.0239	0.	125.15
3018	2.7731	-7.0228	0.	124.89
3019	4.2603	-7.0194	0.	125.43
3020	4.7567	-7.0112	0.	125.45
3021	4.5066	-7.2623	0.	125.38
3022	4.0098	-7.2693	0.	125.32
3023	3.7646	-7.0261	0.	125.33
3024	5.0042	-7.2564	0.	125.38
3025	5.2542	-7.0053	0.	125.4
3026	6.001	-7.2507	0.	125.24
3027	5.7521	-7.0019	0.	125.31
3028	6.2506	-7.0004	0.	125.2
3029	7.2494	-6.0004	0.	124.8
3030	6.9993	-6.2505	0.	124.92
3031	6.9992	-5.7515	0.	124.76
3032	7.0028	-4.7573	0.	124.23
3033	7.0049	-4.2619	0.	123.83
3034	7.2536	-4.5034	0.	123.89
3035	7.2513	-5.0024	0.	124.3
3036	7.0002	-5.2537	0.	124.53
3037	7.0016	-3.7711	0.	123.36
3038	6.9799	-3.2992	0.	122.97
3039	7.2445	-3.5012	0.	122.69
3040	7.2533	-4.0026	0.	123.36
3041	6.9797	-2.8689	0.	122.56
3042	7.0672	-2.4625	0.	121.73
3043	7.2234	-2.7942	0.	121.69
3044	6.7472	-2.6049	0.	123.59
3045	7.2057	-2.9957	0.	121.95
3046	1.2475	7.0001	0.	123.45
3047	0.74775	7.	0.	123.66
3048	0.99752	7.2501	0.	123.6
3049	0.99797	6.75	0.	123.39
3050	1.4975	7.2501	0.	123.51
3051	1.4979	6.7501	0.	123.29
3052	0.24812	7.	0.	124.02
3053	-0.25148	7.	0.	124.37
3054	-1.7469e-003	7.25	0.	124.21
3055	0.49786	7.25	0.	123.88
3056	-0.75108	7.	0.	124.62
3057	-1.2508	7.	0.	124.73
3058	-1.0009	7.25	0.	124.63
3059	-0.5013	7.25	0.	124.48
3060	-1.7505	7.	0.	124.77
3061	-2.0004	7.25	0.	124.64
3062	-2.0004	6.75	0.	124.98
3063	-2.2503	7.	0.	124.8
3064	-1.5006	7.25	0.	124.67
3065	-3.0002	7.25	0.	124.68
3066	-3.2501	7.	0.	125.18
3067	-2.7502	7.	0.	124.9
3068	-7.0003	4.7511	0.	121.15
3069	-7.2505	4.5016	0.	121.89
3070	-6.7505	4.5019	0.	121.97
3071	-7.0008	4.2524	0.	122.08
3072	-7.0001	5.2506	0.	119.82
3073	-6.7502	5.0008	0.	121.05
3074	-7.2502	5.0009	0.	120.95
3075	-7.003	3.2576	0.	123.19
3076	-7.2518	3.505	0.	123.09
3077	-7.0015	3.7543	0.	122.73
3078	-7.0056	2.7629	0.	123.5
3079	-7.0099	2.271	0.	123.69
3080	-7.2566	2.5145	0.	123.67
3081	-7.2537	3.0089	0.	123.45
3082	-7.0163	1.7823	0.	123.75
3083	-7.0255	1.2976	0.	123.71
3084	-7.2683	1.5348	0.	123.79
3085	-6.7722	1.5429	0.	123.84
3086	-7.2614	2.0234	0.	123.79
3087	-7.0373	0.8159	0.	123.56
3088	-7.0514	0.33616	0.	123.29
3089	-7.2901	0.56845	0.	123.45
3090	-7.2783	1.0507	0.	123.68
3091	-7.069	-0.14099	0.	122.91
3092	-7.0912	-0.61615	0.	122.37
3093	-7.3238	-0.38712	0.	122.63
3094	-6.8326	-0.37381	0.	122.95
3095	-7.3053	8.9596e-002	0.	123.11
3096	-7.1187	-1.0889	0.	121.62
3097	-7.3469	-0.86096	0.	121.98
3098	-6.8585	-0.85006	0.	122.47
3099	-5.7626	-5.0315	0.	128.46
3100	-5.9749	-4.7935	0.	127.96
3101	-5.7732	-4.5374	0.	126.13
3102	-5.5171	-4.7897	0.	126.89
3103	-6.2659	-7.0905	0.	124.82
3104	-6.0134	-7.3169	0.	125.46
3105	-6.013	-6.8898	0.	126.3
3106	-5.785	-7.0017	0.	126.49
3107	-0.2503	5.5004	0.	125.78
3108	-0.50011	5.2505	0.	126.16
3109	-0.50044	5.7503	0.	125.6
3110	-4.75	5.5007	0.	128.21
3111	-4.4999	5.7506	0.	128.53
3112	-4.4999	5.2512	0.	127.8
3113	6.5012	5.2545	0.	121.9
3114	6.7516	5.005	0.	122.86
3115	6.5027	4.758	0.	122.49
3116	6.2517	5.0054	0.	122.12
3117	3.4997	5.7498	0.	128.73
3118	3.7501	5.4998	0.	128.9
3119	3.5005	5.2496	0.	128.84
3120	3.25	5.4997	0.	128.42
3121	3.072	-3.0489	0.	128.88
3122	3.2263	-2.7822	0.	127.93
3123	3.3657	-3.2263	0.	128.28
3124	3.5167	-2.9809	0.	127.93
3125	2.3679	-0.49661	0.	128.43
3126	2.2076	-0.76987	0.	128.95
3127	2.5719	-0.94033	0.	127.43
3128	-6.7532	-7.0655	0.	122.86
3129	-6.4929	-6.8544	0.	124.25
3130	-6.5068	-7.3168	0.	123.85
3131	-1.3683	0.34849	0.	129.09
3132	-1.6749	0.53355	0.	128.86
3133	-1.4676	3.7681e-002	0.	129.23
3134	-7.	5.7503	0.	117.99
3135	-7.2501	5.5005	0.	119.65
3136	-6.7501	5.5004	0.	119.75
3137	0.93678	-3.4366	0.	116.93
3138	1.285	-3.5632	0.	121.26
3139	0.87402	-3.7006	0.	118.22
3140	-1.0283	0.95215	0.	127.59
3141	-1.1901	0.68089	0.	128.65
3142	-1.4967	0.86595	0.	128.42
3143	2.0332	-0.31354	0.	127.69
3144	2.1998	-5.4929e-002	0.	127.64
3145	4.5976	-0.35131	0.	125.95
3146	4.303	-0.14741	0.	126.26
3147	6.9275	-2.1979	0.	122.82
3148	7.3583	-2.3249	0.	120.09
3149	7.1744	-2.0288	0.	120.52
3150	6.1149	-2.1125	0.	127.3
3151	5.8829	-1.8944	0.	128.49
3152	4.0178	3.2505	0.	126.98
3153	3.7615	3.5001	0.	126.85
3154	4.0096	3.7499	0.	126.81
3155	-0.97215	2.2307	0.	126.32
3156	-0.71433	1.9898	0.	126.22
3157	-0.99708	3.7458	0.	125.43
3158	-0.99391	3.2398	0.	125.45
3159	-0.74629	3.4965	0.	125.21
3160	-0.99965	4.7492	0.	126.01
3161	-0.74993	5.0001	0.	126.25
3162	0.24918	6.	0.	124.41
3163	-5.2735e-004	5.7502	0.	125.25
3164	-0.25067	6.0001	0.	125.07
3165	1.749	6.	0.	123.15
3166	1.4993	5.75	0.	122.12
3167	1.249	6.	0.	122.82
3168	1.4986	6.25	0.	122.93
3169	-4.	6.2502	0.	127.48
3170	-4.2499	6.0003	0.	128.29
3171	-3.75	6.0001	0.	127.26
3172	-6.2502	5.001	0.	122.5
3173	-6.5001	5.2507	0.	120.99
3174	-6.5004	4.7516	0.	121.88
3175	3.2942	-1.2878	0.	125.53
3176	2.9571	-1.0907	0.	126.15
3177	3.5497	-2.2733	0.	126.31
3178	3.3842	-2.5314	0.	127.21
3179	3.6746	-2.7302	0.	127.2
3180	2.7698	-3.5916	0.	128.66
3181	2.9213	-3.3113	0.	129.12
3182	3.215	-3.4886	0.	128.52
3183	3.0635	-3.7501	0.	128.4
3184	1.8745	-3.8575	0.	125.4
3185	1.5709	-3.7071	0.	123.58
3186	-2.2781	-3.0697	0.	127.48
3187	-2.0379	-3.3284	0.	128.35
3188	-2.5379	-3.3247	0.	127.38
3189	-2.2336	-2.0058	0.	125.82
3190	-1.9461	-1.7727	0.	125.58
3191	-2.352e-002	-4.3113	0.	121.02
3192	0.2243	-4.0362	0.	118.9
3193	0.24023	-4.5591	0.	120.63
3194	-1.2972	-4.0972	0.	127.35
3195	-1.3077	-4.6109	0.	126.12
3196	-1.5572	-4.3536	0.	126.89
3197	-1.0446	-4.349	0.	125.67
3198	-5.9498	-1.7975	0.	125.59
3199	-5.7169	-2.0366	0.	127.33
3200	-5.4538	-1.7916	0.	126.77
3201	-7.3754	-1.331	0.	121.08
3202	-7.1539	-1.5556	0.	120.54
3203	-1.5146	-0.66284	0.	128.13
3204	-1.4591	-0.31981	0.	128.93
3205	-4.7799	-3.5342	0.	126.54
3206	-5.0329	-3.7851	0.	126.12
3207	-4.5372	-3.7904	0.	126.02
3208	-4.7878	-4.0433	0.	125.75
3209	-5.0225	-3.2811	0.	127.69
3210	-4.7681	-3.0326	0.	127.36
3211	-6.4454	-1.8115	0.	123.33
3212	-6.2149	-2.0495	0.	125.45
3213	-6.1776	-1.5616	0.	124.44
3214	-6.7169	-2.0703	0.	121.58
3215	-6.9334	-1.8029	0.	120.92
3216	-0.27733	-4.0675	0.	121.94
3217	-0.53285	-4.335	0.	123.45
3218	-2.2551	-2.5519	0.	126.67
3219	-1.9868	-2.3034	0.	126.35
3220	-2.4972	-2.307	0.	126.12
3221	-2.0163	-2.8185	0.	127.86
3222	2.3225	-3.7147	0.	127.72
3223	2.0217	-3.5527	0.	127.44
3224	2.1782	-4.0015	0.	126.58
3225	2.4689	-3.4289	0.	129.28
3226	3.4238	-1.7983	0.	125.48
3227	3.2517	-2.0695	0.	125.91
3228	3.1136	-1.5906	0.	124.95
3229	2.9984	7.25	0.	124.85
3230	3.2487	7.	0.	125.7
3231	2.7483	7.	0.	124.73
3232	2.9986	6.75	0.	125.65
3233	4.5006	5.2503	0.	127.28
3234	4.7511	5.0009	0.	125.89
3235	4.2511	5.0001	0.	127.51
3236	-5.7503	5.0014	0.	124.55
3237	-6.0002	5.2509	0.	123.64
3238	-6.0004	4.7518	0.	123.52
3239	-5.5002	5.2514	0.	126.19
3240	-5.2502	5.0017	0.	126.25
3241	-4.25	6.5002	0.	128.02
3242	-4.	6.7501	0.	126.75
3243	0.49937	5.7501	0.	124.2
3244	0.74905	6.	0.	123.47
3245	-0.99881	4.2476	0.	125.74
3246	-0.74943	4.4997	0.	126.15
3247	-0.74833	3.9981	0.	125.57
3248	-0.9875	2.7332	0.	125.86
3249	-1.2416	2.9798	0.	125.78
3250	-0.7421	2.9905	0.	125.49
3251	-0.73415	2.4903	0.	126.05
3252	1.2432	1.0469	0.	120.3
3253	0.76461	1.0688	0.	119.59
3254	1.0019	1.293	0.	119.69
3255	0.97172	0.80299	0.	118.82
3256	3.7528	4.4995	0.	127.89
3257	4.0048	4.2497	0.	127.17
3258	4.0021	4.7497	0.	127.81
3259	1.9993	5.75	0.	123.42
3260	2.249	6.	0.	124.49
3261	1.9986	6.25	0.	123.68
3262	2.2683	1.0589	0.	124.97
3263	1.7485	1.0553	0.	122.39
3264	2.0055	1.2996	0.	123.17
3265	2.0147	0.83435	0.	124.4
3266	2.5309	1.2932	0.	126.17
3267	2.7933	1.0313	0.	126.91
3268	4.0291	2.7511	0.	127.59
3269	3.7821	2.5027	0.	128.16
3270	4.2891	2.5024	0.	127.8
3271	4.0438	2.2519	0.	128.16
3272	3.7716	3.0019	0.	127.36
3273	6.523	-2.1202	0.	125.65
3274	6.325	-1.8847	0.	127.82
3275	6.4125	-2.3224	0.	125.85
3276	6.744	-1.9237	0.	125.14
3277	6.6075	-2.3403	0.	124.67
3278	6.4861	1.6106	0.	127.5
3279	7.0425	1.55	0.	122.77
3280	6.8059	1.3766	0.	126.96
3281	6.222	1.3555	0.	129.91
3282	5.9244	1.5774	0.	128.95
3283	4.7975	-0.12001	0.	125.99
3284	5.0853	-0.32926	0.	125.74
3285	4.8539	-0.55809	0.	126.02
3286	5.0136	0.11538	0.	126.06
3287	4.5028	8.3892e-002	0.	126.31
3288	4.7181	0.32957	0.	126.55
3289	1.873	-0.58681	0.	128.22
3290	1.5568	-0.38813	0.	125.12
3291	1.6965	-0.12459	0.	125.79
3292	-0.70293	0.74351	0.	127.13
3293	-0.56688	0.98116	0.	125.73
3294	-1.2561	-0.73412	0.	128.42
3295	-1.2194	-0.94465	0.	128.14
3296	-1.4762	-1.1259	0.	126.97
3297	-0.86473	0.47225	0.	128.19
3298	-1.005	0.20693	0.	129.65
3299	-7.0031	-7.2884	0.	122.2
3300	-7.2507	-7.0224	0.	121.37
3301	-6.9906	-6.8037	0.	121.36
3302	7.451	2.2617	0.	119.92
3303	7.6741	1.9979	0.	118.65
3304	7.367	1.7383	0.	119.31
3305	7.7227	2.5038	0.	120.48
3306	7.4868	2.765	0.	121.12
3307	7.2386	2.5342	0.	121.51
3308	7.5017	4.7537	0.	124.39
3309	7.7517	4.5032	0.	124.32
3310	7.5024	4.2561	0.	123.58
3311	7.2526	4.5064	0.	123.57
3312	1.0547	-3.1216	0.	118.05
3313	0.5208	-3.2417	0.	114.18
3314	0.75801	-2.9427	0.	113.67
3315	0.734	-3.4871	0.	115.88
3316	2.0691	-1.0423	0.	129.18
3317	1.6819	-0.86734	0.	125.68
3318	-7.25	6.0002	0.	117.95
3319	-7.	6.2501	0.	116.72
3320	-6.75	6.0002	0.	118.02
3321	-7.5796	-0.63193	0.	122.25
3322	-7.6036	-1.103	0.	121.45
3323	-7.8325	-0.87973	0.	122.21
3324	-7.5602	-0.15654	0.	122.84
3325	-7.8132	-0.40436	0.	122.8
3326	-7.5441	0.32189	0.	123.27
3327	-7.7967	7.3574e-002	0.	123.25
3328	-7.5311	0.80328	0.	123.57
3329	-7.7833	0.55491	0.	123.58
3330	-7.521	1.288	0.	123.75
3331	-7.7729	1.0397	0.	123.81
3332	-7.5134	1.7759	0.	123.82
3333	-7.7649	1.5275	0.	123.93
3334	-7.5081	2.2669	0.	123.77
3335	-7.7592	2.0182	0.	123.96
3336	-7.5046	2.7605	0.	123.62
3337	-7.7553	2.5115	0.	123.89
3338	-7.5025	3.2563	0.	123.35
3339	-7.753	3.0071	0.	123.72
3340	-7.5013	3.7538	0.	122.95
3341	-7.7515	3.504	0.	123.46
3342	-7.5007	4.2524	0.	122.41
3343	-7.7508	4.0025	0.	123.11
3344	-7.251	4.0031	0.	122.59
3345	-7.5004	4.7514	0.	121.7
3346	-7.7504	4.5015	0.	122.69
3347	-7.5002	5.2508	0.	120.8
3348	-7.7502	5.0008	0.	122.23
3349	-7.5001	5.7504	0.	119.64
3350	-7.7501	5.5005	0.	121.85
3351	-7.634	-1.5687	0.	120.35
3352	-7.857	-1.3499	0.	121.48
3353	-5.2632	-3.0282	0.	128.6
3354	-5.5039	-2.7771	0.	129.87
3355	-5.2461	-2.5279	0.	128.52
3356	-5.0088	-2.7796	0.	128.28
3357	-5.2835	-4.0354	0.	125.85
3358	-5.5391	-4.2896	0.	125.14
3359	-5.0384	-4.2936	0.	125.49
3360	-5.283	-4.5419	0.	125.88
3361	-7.008	-2.3455	0.	119.01
3362	-7.4999	-2.5063	0.	116.6
3363	-7.2572	-2.639	0.	114.27
3364	-7.4934	-2.3047	0.	117.62
3365	-7.2245	-2.0781	0.	118.37
3366	-5.982	-2.2886	0.	127.17
3367	-5.7416	-2.5306	0.	129.52
3368	-5.4838	-2.2813	0.	128.16
3369	-2.9509e-002	-3.7924	0.	119.81
3370	0.23147	-3.5177	0.	115.9
3371	0.44468	-3.7631	0.	117.52
3372	-1.2875	-3.5879	0.	129.34
3373	-1.5468	-3.8412	0.	128.17
3374	-1.0385	-3.837	0.	127.12
3375	-1.7761	-3.0771	0.	128.71
3376	-1.5343	-3.3329	0.	129.74
3377	-1.7936	-3.5862	0.	128.57
3378	-1.4081	-1.8433	0.	125.76
3379	-1.6993	-2.0703	0.	126.11
3380	-1.5998	-1.6007	0.	125.94
3381	2.6204	-3.1487	0.	129.73
3382	2.7752	-2.8671	0.	129.7
3383	1.7181	-3.4023	0.	125.61
3384	1.4029	-3.2482	0.	122.41
3385	2.7764	-1.3935	0.	125.56
3386	2.4333	-1.2127	0.	127.72
3387	3.0862	-2.3277	0.	126.8
3388	2.9296	-2.6004	0.	128.75
3389	3.4993	6.25	0.	128.16
3390	3.7495	5.9999	0.	129.22
3391	3.2494	5.9999	0.	127.84
3392	-3.7501	7.5	0.	124.84
3393	-4.25	7.5	0.	125.83
3394	-4.	7.75	0.	124.72
3395	-4.0001	7.2501	0.	125.69
3396	-3.2501	7.5	0.	124.47
3397	-3.5001	7.75	0.	124.29
3398	-3.5001	7.25	0.	124.97
3399	-2.7502	7.5	0.	124.41
3400	-3.0001	7.75	0.	124.25
3401	-2.2503	7.5	0.	124.47
3402	-2.5002	7.75	0.	124.36
3403	-2.5003	7.25	0.	124.62
3404	-1.7505	7.5	0.	124.54
3405	-2.0004	7.75	0.	124.48
3406	-1.2508	7.5	0.	124.56
3407	-1.5006	7.75	0.	124.56
3408	-0.75114	7.5	0.	124.49
3409	-1.0009	7.75	0.	124.56
3410	-0.25156	7.5	0.	124.32
3411	-0.50122	7.7501	0.	124.47
3412	0.248	7.5001	0.	124.07
3413	-1.612e-003	7.7501	0.	124.28
3414	0.74764	7.5001	0.	123.82
3415	0.49798	7.7501	0.	124.05
3416	1.2475	7.5001	0.	123.66
3417	0.99772	7.7501	0.	123.85
3418	1.7475	7.5001	0.	123.67
3419	1.4977	7.7501	0.	123.75
3420	2.2478	7.5	0.	123.89
3421	1.9978	7.75	0.	123.83
3422	2.7482	7.5	0.	124.29
3423	2.4981	7.75	0.	124.1
3424	2.4981	7.25	0.	124.18
3425	3.2486	7.5	0.	124.92
3426	2.9985	7.75	0.	124.58
3427	3.4989	7.25	0.	125.77
3428	3.749	7.5	0.	125.65
3429	3.4989	7.75	0.	125.39
3430	5.5002	5.7511	0.	121.49
3431	5.2503	5.5011	0.	123.57
3432	5.5008	5.2523	0.	122.56
3433	5.7505	5.5021	0.	121.4
3434	4.2502	5.5	0.	128.32
3435	3.9999	5.7499	0.	129.39
3436	4.0006	5.2498	0.	128.55
3437	6.7508	5.5028	0.	122.73
3438	6.5005	5.7525	0.	121.01
3439	6.2507	5.503	0.	121.12
3440	7.2514	5.0036	0.	124.15
3441	7.0011	5.2534	0.	123.69
3442	7.0023	4.7563	0.	123.33
3443	7.5009	5.2522	0.	125.48
3444	7.7511	5.0021	0.	125.29
3445	-5.	5.7505	0.	129.08
3446	-5.2501	5.5008	0.	127.5
3447	-5.0001	5.2511	0.	127.57
3448	-6.2501	5.5006	0.	122.13
3449	-6.5001	5.7504	0.	119.81
3450	-4.5	7.75	0.	126.03
3451	-4.75	7.5	0.	127.78
3452	-4.5	7.2501	0.	127.15
3453	-4.5	6.2503	0.	128.82
3454	-4.75	6.0004	0.	129.4
3455	0.24966	5.5003	0.	125.04
3456	-1.2993e-004	5.2506	0.	126.25
3457	-0.4997	4.7506	0.	126.39
3458	-0.24995	5.0007	0.	126.63
3459	-0.47633	2.2494	0.	125.95
3460	-0.22173	2.0095	0.	125.68
3461	-0.44441	1.7503	0.	125.59
3462	-0.49754	3.7488	0.	125.35
3463	-0.24701	3.5006	0.	124.99
3464	-0.49448	3.2472	0.	125.24
3465	6.9841e-002	1.297	0.	122.58
3466	0.28755	1.5423	0.	122.52
3467	3.5913e-002	1.7761	0.	124.48
3468	-0.18677	1.5169	0.	124.38
3469	3.5018	4.7495	0.	128.57
3470	3.2509	4.9996	0.	128.91
3471	3.7511	4.9997	0.	128.49
3472	1.7496	5.5	0.	122.39
3473	1.4998	5.25	0.	120.29
3474	1.2496	5.5001	0.	122.
3475	3.0004	5.2497	0.	128.49
3476	2.7499	5.4998	0.	126.98
3477	2.9996	5.7498	0.	127.53
3478	2.7842	1.5216	0.	127.04
3479	3.0353	1.7616	0.	128.38
3480	3.0467	1.2597	0.	127.78
3481	3.3003	1.5075	0.	128.18
3482	1.4968	1.2913	0.	120.51
3483	1.7538	1.5356	0.	121.28
3484	1.2555	1.5373	0.	119.9
3485	1.5025	1.7786	0.	118.75
3486	3.5153	3.2515	0.	127.22
3487	3.2595	3.5012	0.	126.85
3488	3.5082	3.75	0.	127.16
3489	-6.2401	-6.6537	0.	125.73
3490	-6.7303	-6.5926	0.	122.75
3491	-6.4442	-6.3969	0.	126.13
3492	7.2363	-1.5657	0.	119.82
3493	7.4853	-1.3825	0.	115.32
3494	7.0337	-1.2897	0.	123.79
3495	7.2879	-1.0949	0.	116.82
3496	7.6175	-2.1463	0.	117.62
3497	7.4336	-1.8502	0.	118.02
3498	7.6827	-1.6671	0.	113.58
3499	7.8852	-1.9393	0.	116.77
3500	7.5145	-2.6566	0.	120.06
3501	7.8175	-2.428	0.	119.23
3502	7.4704	-3.1977	0.	121.67
3503	7.723	-2.9417	0.	121.02
3504	7.4962	-3.7327	0.	122.68
3505	7.7428	-3.4724	0.	122.24
3506	7.5019	-4.2442	0.	123.42
3507	7.7503	-3.987	0.	123.11
3508	7.502	-4.7485	0.	123.96
3509	7.7519	-4.4944	0.	123.75
3510	7.5008	-5.2499	0.	124.36
3511	7.7511	-4.9975	0.	124.21
3512	7.5	-5.7501	0.	124.64
3513	7.7503	-5.4992	0.	124.53
3514	7.2497	-5.5012	0.	124.59
3515	7.4997	-6.25	0.	124.82
3516	7.7499	-5.9995	0.	124.75
3517	7.4997	-6.7499	0.	124.95
3518	7.7497	-6.4997	0.	124.89
3519	7.2495	-6.5001	0.	124.94
3520	7.4998	-7.2499	0.	125.03
3521	7.7498	-6.9998	0.	124.99
3522	7.2497	-7.	0.	125.03
3523	7.2499	-7.4999	0.	125.08
3524	7.7498	-7.4999	0.	125.05
3525	7.4999	-7.7499	0.	125.07
3526	6.7501	-7.5001	0.	125.13
3527	7.	-7.75	0.	125.11
3528	6.9998	-7.25	0.	125.08
3529	6.2505	-7.5005	0.	125.19
3530	6.5002	-7.7502	0.	125.16
3531	6.5002	-7.2502	0.	125.15
3532	5.7513	-7.5015	0.	125.26
3533	6.0007	-7.7507	0.	125.21
3534	5.2525	-7.5038	0.	125.31
3535	5.5014	-7.752	0.	125.26
3536	5.5025	-7.2527	0.	125.32
3537	4.7541	-7.5075	0.	125.32
3538	5.0025	-7.7544	0.	125.28
3539	4.2561	-7.5122	0.	125.28
3540	4.5039	-7.7579	0.	125.26
3541	3.7585	-7.5157	0.	125.18
3542	4.0058	-7.762	0.	125.19
3543	3.2606	-7.5155	0.	125.02
3544	3.5074	-7.763	0.	125.07
3545	3.5134	-7.2725	0.	125.19
3546	2.7627	-7.515	0.	124.82
3547	3.009	-7.762	0.	124.9
3548	2.266	-7.5165	0.	124.59
3549	2.5114	-7.7635	0.	124.7
3550	2.5206	-7.2709	0.	124.73
3551	1.7684	-7.5141	0.	124.38
3552	2.014	-7.7642	0.	124.5
3553	1.2703	-7.5041	0.	124.22
3554	1.5146	-7.7589	0.	124.34
3555	0.77376	-7.4885	0.	124.16
3556	1.0163	-7.7482	0.	124.25
3557	0.51934	-7.7346	0.	124.26
3558	0.27873	-7.4728	0.	124.22
3559	-0.71664	-7.4568	0.	124.71
3560	-0.47465	-7.7163	0.	124.62
3561	-0.2174	-7.4623	0.	124.41
3562	-0.45126	-7.1963	0.	124.43
3563	-1.2173	-7.452	0.	125.08
3564	-0.97413	-7.711	0.	124.94
3565	-1.4752	-7.7066	0.	125.3
3566	-1.7201	-7.4482	0.	125.48
3567	-3.2371	-7.4478	0.	126.52
3568	-2.9883	-7.7035	0.	126.32
3569	-2.7307	-7.4465	0.	126.22
3570	-3.7413	-7.4493	0.	126.76
3571	-3.4921	-7.7047	0.	126.55
3572	-4.2448	-7.4511	0.	126.9
3573	-3.9956	-7.7069	0.	126.7
3574	-4.7484	-7.4511	0.	126.87
3575	-4.4858	-7.1898	0.	127.16
3576	-4.4974	-7.7092	0.	126.71
3577	-5.2523	-7.4604	0.	126.52
3578	-5.0006	-7.7122	0.	126.5
3579	-5.7525	-7.5042	0.	125.71
3580	-5.5007	-7.7299	0.	125.95
3581	-5.5241	-7.1891	0.	126.74
3582	-6.2543	-7.5432	0.	124.49
3583	-5.9996	-7.7791	0.	125.
3584	-6.7567	-7.5397	0.	123.19
3585	-6.5047	-7.788	0.	123.84
3586	-7.2543	-7.5198	0.	122.34
3587	-7.0047	-7.7768	0.	122.85
3588	-7.502	-7.2538	0.	121.52
3589	-7.7515	-7.499	0.	122.4
3590	-7.5027	-7.7591	0.	122.49
3591	-7.4956	-6.7449	0.	119.9
3592	-7.7497	-6.9816	0.	121.44
3593	-5.8015	-5.5245	0.	129.74
3594	-6.0065	-5.2692	0.	130.08
3595	-5.535	-5.2933	0.	128.72
3596	-5.9555	-6.4653	0.	127.75
3597	-5.7725	-6.7959	0.	127.05
3598	6.991	-1.7547	0.	122.84
3599	6.093	-1.6666	0.	129.
3600	5.8628	-1.4403	0.	129.65
3601	5.6255	-1.6649	0.	128.68
3602	5.9698	1.1054	0.	130.15
3603	5.7098	0.85668	0.	128.88
3604	5.4241	1.0714	0.	128.79
3605	5.6721	1.3273	0.	129.2
3606	5.3674	-0.99461	0.	127.44
3607	5.6169	-1.217	0.	129.02
3608	5.3796	-1.4415	0.	128.05
3609	5.1186	-1.2144	0.	127.32
3610	1.4994	0.81003	0.	121.75
3611	-0.52479	0.27887	0.	128.17
3612	-0.37301	0.53222	0.	124.92
3613	0.31425	1.0766	0.	120.66
3614	0.53197	1.3219	0.	120.62
3615	0.46796	0.86842	0.	118.76
3616	-1.0326	-1.2122	0.	128.22
3617	-1.0978	-1.636	0.	126.88
3618	-0.79138	-1.3998	0.	130.17
3619	-1.2894	-1.3934	0.	127.06
3620	5.2401	0.35719	0.	126.56
3621	5.4671	0.60369	0.	127.77
3622	5.1814	0.81838	0.	127.66
3623	4.9446	0.57137	0.	127.05
3624	-1.0546	-0.8044	0.	128.84
3625	-0.90587	-0.52514	0.	129.49
3626	-1.2005	-0.39109	0.	129.22
3627	-0.73645	-0.94856	0.	127.85
3628	-0.12719	1.0236	0.	123.09
3629	0.24559	0.85267	0.	119.75
3630	-0.23696	0.76986	0.	123.52
3631	-0.3838	1.2435	0.	124.9
3632	1.2279	0.56612	0.	120.27
3633	1.5548	0.3382	0.	123.53
3634	1.7655	0.58909	0.	123.75
3635	5.3014	-9.3866e-002	0.	125.8
3636	5.5244	0.14655	0.	125.9
3637	5.3462	-0.54393	0.	126.27
3638	5.5783	-0.30636	0.	125.94
3639	5.6107	-0.76389	0.	127.69
3640	5.1148	-0.77276	0.	126.55
3641	6.2399	0.88897	0.	131.25
3642	6.5418	1.1215	0.	129.32
3643	6.546	-1.6883	0.	127.29
3644	6.3267	-1.439	0.	130.66
3645	6.7884	-1.4786	0.	126.8
3646	-6.0782	-5.7425	0.	130.63
3647	-5.871	-6.0081	0.	129.35
3648	-7.2354	-6.5262	0.	119.87
3649	-7.7432	-6.4462	0.	120.1
3650	-7.4796	-6.2436	0.	117.3
3651	-6.9535	-6.3294	0.	120.3
3652	3.5245	2.7535	0.	127.93
3653	3.2752	2.5059	0.	128.82
3654	3.5361	2.2542	0.	128.52
3655	3.2679	3.0037	0.	127.84
3656	2.2681	1.5339	0.	124.37
3657	2.0111	1.7799	0.	122.21
3658	2.5259	1.7748	0.	126.69
3659	1.9999	5.2499	0.	122.86
3660	2.2497	5.4999	0.	124.61
3661	3.2525	4.4996	0.	128.86
3662	3.5043	4.2497	0.	127.84
3663	0.76922	1.546	0.	120.7
3664	0.5216	1.7905	0.	122.81
3665	1.0102	1.7838	0.	119.87
3666	-0.23678	2.5048	0.	126.29
3667	-0.48875	2.7476	0.	125.69
3668	-0.49895	4.2502	0.	125.98
3669	-0.24947	4.5009	0.	126.93
3670	-0.24861	4.0008	0.	126.04
3671	0.49985	5.2504	0.	125.16
3672	0.74961	5.5002	0.	123.44
3673	-4.75	6.5002	0.	129.89
3674	-4.5	6.7502	0.	128.28
3675	-5.7501	5.5008	0.	125.28
3676	-6.0001	5.7505	0.	124.14
3677	7.2507	5.5021	0.	125.03
3678	7.0005	5.7519	0.	124.3
3679	7.5005	5.7513	0.	127.25
3680	7.7506	5.5013	0.	126.59
3681	4.5	5.7502	0.	128.57
3682	4.7502	5.5005	0.	126.37
3683	3.499	6.75	0.	126.99
3684	3.7491	7.	0.	127.18
3685	3.7492	6.5	0.	128.83
3686	3.2489	6.5	0.	126.94
3687	2.9414	-1.8618	0.	125.36
3688	2.7863	-2.1407	0.	126.47
3689	2.6297	-1.6733	0.	125.49
3690	2.1682	-3.267	0.	128.99
3691	1.8648	-3.1038	0.	128.78
3692	2.3203	-2.9794	0.	131.27
3693	-1.5143	-2.8287	0.	129.82
3694	-1.7479	-2.5699	0.	127.53
3695	-0.27314	-3.5568	0.	121.82
3696	-0.53041	-3.8212	0.	123.94
3697	-6.4864	-2.3083	0.	123.7
3698	-6.2394	-2.5425	0.	128.13
3699	-6.7437	-2.5706	0.	121.47
3700	-5.2755	-3.532	0.	127.27
3701	-5.5321	-3.7853	0.	127.15
3702	-5.5172	-3.2821	0.	129.62
3703	1.1853	-0.19053	0.	121.46
3704	1.1453	-0.51244	0.	120.17
3705	1.3658	-0.66866	0.	122.59
3706	-7.8878	-1.8161	0.	120.64
3707	-7.6814	-2.0199	0.	119.08
3708	-7.4125	-1.7933	0.	119.8
3709	-7.7137	-2.8569	0.	115.23
3710	-7.9452	-2.7009	0.	119.52
3711	-7.7182	-2.4413	0.	117.45
3712	-7.4711	-2.9896	0.	112.74
3713	-7.9323	-3.1453	0.	119.14
3714	-7.712	-3.301	0.	112.27
3715	1.2572	-2.7756	0.	118.56
3716	1.5495	-2.9497	0.	125.58
3717	-1.1865	-2.1016	0.	127.38
3718	-0.89744	-1.8653	0.	131.1
3719	-0.66507	1.3538e-002	0.	129.6
3720	-0.8097	-0.23793	0.	130.06
3721	-1.1044	-0.10389	0.	129.78
3722	7.9458	2.24	0.	119.25
3723	7.89	1.755	0.	115.81
3724	8.1827	1.9696	0.	120.13
3725	7.9785	2.745	0.	121.14
3726	8.2185	2.483	0.	121.51
3727	7.9939	3.2496	0.	122.39
3728	7.7427	3.0062	0.	121.76
3729	8.238	2.9924	0.	122.57
3730	8.2472	3.4979	0.	123.46
3731	7.7499	3.5061	0.	122.71
3732	7.9996	3.7516	0.	123.36
3733	8.0011	4.7516	0.	125.22
3734	8.2509	4.5008	0.	125.05
3735	8.001	4.252	0.	124.26
3736	8.2507	5.0008	0.	125.94
3737	8.0007	5.2512	0.	126.4
3738	-8.0047	-6.1122	0.	121.75
3739	-7.7411	-5.9096	0.	118.9
3740	-8.2284	-5.6509	0.	125.48
3741	-7.9261	-5.5417	0.	122.32
3742	-8.2598	-5.8947	0.	124.48
3743	-7.9973	-6.6829	0.	121.65
3744	-8.2454	-6.4287	0.	123.05
3745	-7.9992	-7.2269	0.	122.32
3746	-8.2465	-6.9664	0.	123.
3747	-8.0008	-7.7447	0.	122.99
3748	-8.249	-7.4861	0.	123.35
3749	-7.75	6.0002	0.	121.62
3750	-7.5	6.2502	0.	117.68
3751	-8.0661	-0.65216	0.	122.76
3752	-8.0859	-1.1266	0.	122.24
3753	-8.3161	-0.90515	0.	123.08
3754	-8.0497	-0.17426	0.	123.21
3755	-8.3007	-0.42536	0.	123.41
3756	-8.0359	0.3066	0.	123.56
3757	-8.2871	5.6382e-002	0.	123.71
3758	-8.0251	0.79132	0.	123.82
3759	-8.2763	0.54159	0.	123.95
3760	-8.0168	1.2792	0.	123.99
3761	-8.2679	1.0298	0.	124.13
3762	-8.0107	1.7698	0.	124.07
3763	-8.2618	1.5208	0.	124.24
3764	-8.0064	2.2629	0.	124.07
3765	-8.2571	2.0133	0.	124.3
3766	-8.2542	2.5085	0.	124.29
3767	-8.0038	2.7582	0.	123.99
3768	-8.001	3.7527	0.	123.62
3769	-8.2512	3.5029	0.	124.14
3770	-8.002	3.2548	0.	123.84
3771	-8.2506	4.0017	0.	124.04
3772	-8.0006	4.2516	0.	123.39
3773	-8.0001	5.2505	0.	123.29
3774	-8.2502	5.0005	0.	124.19
3775	-8.0003	4.7509	0.	123.22
3776	-8.0001	5.7503	0.	123.83
3777	-8.2501	5.5003	0.	124.88
3778	7.7444	-1.2114	0.	110.96
3779	7.9433	-1.4752	0.	113.15
3780	8.0852	-2.2211	0.	118.44
3781	8.3488	-1.9924	0.	120.15
3782	8.1457	-1.7475	0.	116.49
3783	8.0259	-2.7132	0.	120.21
3784	8.2994	-2.4751	0.	120.79
3785	7.9955	-3.2165	0.	121.6
3786	8.2542	-2.9705	0.	121.74
3787	7.9969	-3.7267	0.	122.68
3788	8.2476	-3.4749	0.	122.69
3789	8.0003	-4.2372	0.	123.45
3790	8.2496	-3.9837	0.	123.43
3791	8.001	-4.7434	0.	123.99
3792	8.2507	-4.4907	0.	123.96
3793	8.0006	-5.2467	0.	124.38
3794	8.2506	-4.9949	0.	124.34
3795	8.0002	-5.7485	0.	124.64
3796	8.2503	-5.4975	0.	124.61
3797	7.9999	-6.2492	0.	124.82
3798	8.25	-5.9987	0.	124.79
3799	7.9998	-6.7496	0.	124.93
3800	8.2499	-6.4993	0.	124.91
3801	7.9998	-7.2498	0.	125.01
3802	8.2498	-6.9997	0.	124.99
3803	7.9999	-7.7499	0.	125.06
3804	8.2499	-7.4999	0.	125.04
3805	7.7499	-7.9999	0.	125.08
3806	7.9999	-8.2499	0.	125.09
3807	8.2499	-7.9999	0.	125.08
3808	7.25	-8.	0.	125.11
3809	7.5	-8.25	0.	125.1
3810	6.7501	-8.0001	0.	125.14
3811	7.	-8.25	0.	125.12
3812	6.2504	-8.0004	0.	125.18
3813	6.5002	-8.2502	0.	125.16
3814	5.7508	-8.0012	0.	125.21
3815	6.0004	-8.2506	0.	125.19
3816	5.2514	-8.0026	0.	125.23
3817	5.5008	-8.2514	0.	125.21
3818	4.7523	-8.0048	0.	125.22
3819	5.0014	-8.2528	0.	125.2
3820	4.2536	-8.0077	0.	125.17
3821	4.5022	-8.2549	0.	125.17
3822	3.7546	-8.0093	0.	125.08
3823	4.0033	-8.2574	0.	125.1
3824	3.5037	-8.2574	0.	124.99
3825	3.2559	-8.0096	0.	124.94
3826	2.2594	-8.0112	0.	124.61
3827	2.5068	-8.2594	0.	124.7
3828	2.7577	-8.0105	0.	124.78
3829	1.7602	-8.009	0.	124.46
3830	2.0079	-8.2592	0.	124.55
3831	1.2606	-8.003	0.	124.37
3832	1.5077	-8.2556	0.	124.44
3833	0.76191	-7.9942	0.	124.35
3834	1.0083	-8.2494	0.	124.4
3835	0.26378	-7.9853	0.	124.42
3836	0.5092	-8.242	0.	124.43
3837	-0.23409	-7.9776	0.	124.6
3838	1.0787e-002	-8.2351	0.	124.56
3839	2.3165e-002	-7.7236	0.	124.39
3840	-0.73215	-7.9706	0.	124.85
3841	-0.48757	-8.2289	0.	124.76
3842	-1.2321	-7.9655	0.	125.16
3843	-0.98626	-8.2232	0.	125.03
3844	-1.7337	-7.9622	0.	125.49
3845	-1.4866	-8.219	0.	125.34
3846	-2.2355	-7.9597	0.	125.82
3847	-1.9885	-8.2169	0.	125.65
3848	-1.9786	-7.7038	0.	125.67
3849	-2.7388	-7.959	0.	126.11
3850	-2.4898	-8.2145	0.	125.94
3851	-2.4812	-7.702	0.	126.01
3852	-3.2433	-7.9603	0.	126.35
3853	-2.9935	-8.215	0.	126.18
3854	-3.7464	-7.9623	0.	126.49
3855	-3.4961	-8.2165	0.	126.34
3856	-3.9982	-8.2193	0.	126.4
3857	-4.2482	-7.965	0.	126.51
3858	-5.249	-7.9817	0.	125.93
3859	-4.9995	-8.2299	0.	126.01
3860	-4.7496	-7.9703	0.	126.35
3861	-5.7478	-8.0047	0.	125.24
3862	-5.4977	-8.2429	0.	125.48
3863	-6.25	-8.0239	0.	124.35
3864	-5.9978	-8.266	0.	124.74
3865	-6.7527	-8.0252	0.	123.5
3866	-6.5009	-8.273	0.	123.94
3867	-7.253	-8.0161	0.	123.
3868	-7.0023	-8.269	0.	123.32
3869	-7.752	-8.0047	0.	123.08
3870	-7.5023	-8.2591	0.	123.14
3871	-8.2505	-7.9971	0.	123.74
3872	-8.0013	-8.2505	0.	123.5
3873	3.9992	7.25	0.	127.05
3874	3.9993	7.75	0.	126.68
3875	4.2494	7.5	0.	128.23
3876	-4.75	8.	0.	127.13
3877	-5.	7.75	0.	128.88
3878	-5.	8.25	0.	128.04
3879	-5.25	8.	0.	132.6
3880	-4.25	8.	0.	124.92
3881	-4.5	8.25	0.	125.27
3882	-3.7501	8.	0.	124.18
3883	-4.	8.25	0.	124.23
3884	-3.2501	8.	0.	124.07
3885	-3.5001	8.25	0.	124.07
3886	-2.7501	8.	0.	124.2
3887	-3.0001	8.25	0.	124.2
3888	-2.2503	8.	0.	124.37
3889	-2.5002	8.25	0.	124.4
3890	-1.7504	8.	0.	124.51
3891	-2.0003	8.25	0.	124.56
3892	-1.5004	8.25	0.	124.66
3893	-1.2506	8.	0.	124.57
3894	0.74806	8.0001	0.	124.08
3895	0.4985	8.2501	0.	124.32
3896	0.24837	8.0001	0.	124.26
3897	1.2479	8.0001	0.	123.94
3898	0.9983	8.2501	0.	124.18
3899	1.7479	8.	0.	123.92
3900	1.4982	8.25	0.	124.1
3901	2.2481	8.	0.	124.05
3902	1.9983	8.25	0.	124.14
3903	2.7484	8.	0.	124.39
3904	2.4985	8.25	0.	124.35
3905	3.2488	7.9999	0.	125.05
3906	2.9987	8.2499	0.	124.85
3907	3.7491	7.9999	0.	126.43
3908	3.499	8.2499	0.	125.85
3909	-0.35947	-0.18254	0.	129.51
3910	-0.19217	5.7505e-002	0.	125.17
3911	5.9799	0.64021	0.	129.99
3912	5.7513	0.39305	0.	127.1
3913	5.8601	-0.98623	0.	129.25
3914	6.0964	-1.2126	0.	131.29
3915	-8.1109	-1.5974	0.	121.77
3916	-8.3354	-1.3806	0.	122.8
3917	-6.2189	-5.0312	0.	129.54
3918	-6.2687	-4.5672	0.	131.16
3919	-6.3961	-4.7906	0.	128.57
3920	-6.6675	-6.1338	0.	123.69
3921	-6.3669	-5.9429	0.	129.42
3922	-6.1597	-6.2085	0.	128.14
3923	7.5829	1.4954	0.	116.39
3924	7.3406	1.2046	0.	120.31
3925	2.7568	3.5021	0.	128.16
3926	3.0067	3.7515	0.	127.48
3927	3.0122	3.2534	0.	127.47
3928	2.777	2.0148	0.	128.04
3929	3.026	2.2592	0.	129.03
3930	3.287	2.0075	0.	128.73
3931	1.7501	4.9999	0.	120.74
3932	1.5002	4.75	0.	115.68
3933	1.25	5.0001	0.	120.31
3934	3.0015	4.7497	0.	129.2
3935	2.7507	4.9997	0.	128.25
3936	1.2572	2.025	0.	118.7
3937	1.7598	2.0229	0.	119.65
3938	1.5064	2.2678	0.	114.47
3939	1.7822e-002	2.2648	0.	126.02
3940	0.26996	2.0243	0.	124.75
3941	1.9214e-003	3.7527	0.	125.67
3942	0.25213	3.5036	0.	126.56
3943	4.2108e-003	3.2545	0.	125.43
3944	0.25006	5.0007	0.	126.37
3945	2.8255e-004	4.751	0.	127.18
3946	-5.	7.25	0.	129.66
3947	-5.25	7.5	0.	131.92
3948	-5.25	6.0003	0.	129.55
3949	-5.	6.2503	0.	130.46
3950	7.7503	6.0007	0.	128.48
3951	8.0002	6.2504	0.	128.97
3952	8.0004	5.7507	0.	127.85
3953	8.2502	6.0004	0.	128.05
3954	5.7501	6.001	0.	119.91
3955	5.5	6.2505	0.	119.58
3956	5.25	6.0006	0.	123.16
3957	3.9995	6.25	0.	129.88
3958	4.2497	6.0001	0.	129.64
3959	2.2865	-1.4926	0.	127.6
3960	1.942	-1.321	0.	135.06
3961	2.4751	-2.6979	0.	131.22
3962	2.6297	-2.4134	0.	128.41
3963	-1.2161e-002	-3.2821	0.	117.89
3964	0.23396	-3.0039	0.	111.9
3965	-1.2725	-3.0844	0.	130.82
3966	-1.0289	-3.3319	0.	129.93
3967	-6.993	-2.8641	0.	116.7
3968	-7.2434	-3.1523	0.	109.04
3969	-5.7578	-3.0311	0.	130.87
3970	-5.999	-2.7844	0.	130.43
3971	-6.0105	-3.2829	0.	135.3
3972	-5.7737	-3.5354	0.	129.49
3973	-6.4967	-2.8048	0.	125.9
3974	-6.2516	-3.0362	0.	134.85
3975	-6.7474	-3.0567	0.	123.02
3976	-0.27076	-3.0586	0.	122.34
3977	-0.52261	-3.3166	0.	125.62
3978	-1.2439	-2.5874	0.	130.03
3979	-0.98154	-2.3442	0.	128.73
3980	-1.4776	-2.3286	0.	127.76
3981	-1.0144	-2.835	0.	134.52
3982	2.1795	-2.521	0.	134.
3983	2.0169	-2.8162	0.	131.
3984	2.4746	-1.9521	0.	126.58
3985	2.3341	-2.2365	0.	131.25
3986	2.1736	-1.7708	0.	124.37
3987	3.9993	6.75	0.	129.01
3988	4.2494	7.	0.	129.74
3989	4.2495	6.5	0.	131.39
3990	7.2503	6.0011	0.	126.52
3991	7.0002	6.2509	0.	125.56
3992	6.7503	6.0016	0.	122.58
3993	7.5002	6.2507	0.	130.31
3994	-5.5	6.2502	0.	131.36
3995	-5.5001	5.7507	0.	128.
3996	-5.75	6.0003	0.	126.84
3997	-5.25	7.0001	0.	131.68
3998	-5.	6.7501	0.	130.64
3999	-4.75	7.0001	0.	129.04
4000	0.50024	4.7509	0.	127.66
4001	0.75005	5.0005	0.	123.77
4002	0.25102	4.002	0.	127.53
4003	8.7103e-004	4.2516	0.	126.99
4004	0.25983	2.5136	0.	127.48
4005	8.7162e-003	2.7582	0.	126.29
4006	0.76256	2.0283	0.	121.97
4007	0.51197	2.273	0.	126.23
4008	1.0073	2.2704	0.	120.61
4009	2.7519	4.4999	0.	130.2
4010	3.0036	4.2504	0.	128.81
4011	2.0005	4.7499	0.	122.91
4012	2.2504	4.9999	0.	125.
4013	2.2689	2.0208	0.	124.53
4014	2.0121	2.2669	0.	122.21
4015	2.52	2.2649	0.	128.95
4016	2.769	2.5093	0.	129.93
4017	3.0186	2.7561	0.	128.72
4018	7.8824	1.3211	0.	108.82
4019	8.1232	1.4583	0.	119.02
4020	-7.1977	-6.0468	0.	117.67
4021	-7.4031	-5.7639	0.	110.18
4022	-6.8743	-5.8755	0.	124.03
4023	-6.2833	-5.4872	0.	130.93
4024	-6.5737	-5.6846	0.	129.66
4025	-6.4692	-5.2408	0.	132.95
4026	-8.1637	-2.9894	0.	123.42
4027	-8.1622	-2.5282	0.	122.09
4028	-8.3927	-2.8018	0.	125.45
4029	-8.1416	-2.0648	0.	121.57
4030	-8.3587	-1.8546	0.	122.81
4031	6.8257	-1.0007	0.	130.94
4032	6.5691	-1.2293	0.	130.12
4033	6.466	0.66536	0.	132.35
4034	6.8859	0.59009	0.	129.92
4035	6.7679	0.89791	0.	130.44
4036	6.7055	0.46248	0.	133.35
4037	6.2513	0.42546	0.	129.84
4038	5.8428	-0.52632	0.	127.35
4039	6.1062	-0.75075	0.	131.77
4040	6.0863	-0.28205	0.	126.16
4041	5.8012	-6.5946e-002	0.	126.02
4042	0.99805	0.30093	0.	118.87
4043	0.76796	9.9283e-002	0.	115.27
4044	0.86302	-0.10286	0.	117.04
4045	1.325	7.3016e-002	0.	122.14
4046	0.67507	0.60258	0.	117.95
4047	0.13582	0.59888	0.	120.16
4048	0.44499	0.40093	0.	114.41
4049	-4.039e-002	0.31086	0.	121.91
4050	8.7015	1.9535	0.	124.57
4051	8.4159	1.6729	0.	123.46
4052	8.4553	2.2125	0.	122.4
4053	8.7457	3.493	0.	124.77
4054	8.4912	3.2406	0.	123.64
4055	8.4977	3.7463	0.	124.35
4056	8.5005	4.75	0.	125.77
4057	8.7502	4.4992	0.	125.72
4058	8.4999	4.2488	0.	125.04
4059	8.5004	5.2503	0.	126.54
4060	8.7504	5.	0.	126.23
4061	8.7502	5.5002	0.	126.72
4062	8.2504	5.5006	0.	127.
4063	8.5002	5.7503	0.	127.2
4064	8.75	7.	0.	125.75
4065	8.5	7.25	0.	125.87
4066	8.25	7.0001	0.	127.1
4067	8.5001	6.7501	0.	126.75
4068	3.9993	8.2499	0.	127.91
4069	4.2494	8.	0.	129.07
4070	-8.6899	-5.4685	0.	129.66
4071	-8.3712	-5.1941	0.	132.43
4072	-8.4753	-5.7229	0.	127.82
4073	-8.4946	-6.7122	0.	124.4
4074	-8.7437	-6.4648	0.	125.79
4075	-8.5004	-6.2113	0.	125.78
4076	-8.4964	-7.2257	0.	124.04
4077	-8.745	-6.9742	0.	124.99
4078	-8.4988	-7.7386	0.	124.11
4079	-8.7476	-7.4851	0.	124.76
4080	-8.5001	-8.2469	0.	124.31
4081	-8.7492	-7.9928	0.	124.78
4082	-8.25	6.0002	0.	126.54
4083	-8.	6.2501	0.	125.4
4084	-0.50411	-0.43401	0.	129.98
4085	-0.58768	-0.6693	0.	128.5
4086	-8.5506	-0.67835	0.	123.73
4087	-8.5656	-1.1591	0.	123.64
4088	-8.7983	-0.93348	0.	124.3
4089	-8.538	-0.19472	0.	123.91
4090	-8.7869	-0.44795	0.	124.3
4091	-8.5275	0.29138	0.	124.09
4092	-8.7771	3.9497e-002	0.	124.36
4093	-8.5191	0.78007	0.	124.25
4094	-8.7692	0.52903	0.	124.45
4095	-8.763	1.0207	0.	124.54
4096	-8.5129	1.2714	0.	124.38
4097	-8.5048	2.2589	0.	124.52
4098	-8.7551	2.009	0.	124.71
4099	-8.5082	1.7643	0.	124.46
4100	-8.5027	2.7556	0.	124.54
4101	-8.753	2.5058	0.	124.8
4102	-8.5015	3.2533	0.	124.54
4103	-8.7516	3.0035	0.	124.88
4104	-8.2523	3.0053	0.	124.24
4105	-8.5008	3.7519	0.	124.56
4106	-8.7509	3.502	0.	124.98
4107	-8.5004	4.2511	0.	124.65
4108	-8.7505	4.0012	0.	125.14
4109	-8.5002	4.7506	0.	124.98
4110	-8.7502	4.5006	0.	125.42
4111	-8.2503	4.501	0.	124.
4112	-8.5001	5.2503	0.	125.79
4113	-8.7501	5.0003	0.	126.
4114	-8.5001	5.7502	0.	127.6
4115	-8.7501	5.5002	0.	127.12
4116	-8.75	6.0001	0.	129.2
4117	-8.5	6.2501	0.	131.22
4118	7.75	-8.5	0.	125.1
4119	8.25	-8.5	0.	125.1
4120	8.	-8.75	0.	125.11
4121	7.25	-8.5	0.	125.12
4122	7.5	-8.75	0.	125.12
4123	6.7501	-8.5001	0.	125.14
4124	7.	-8.75	0.	125.13
4125	6.2502	-8.5003	0.	125.16
4126	6.5001	-8.7501	0.	125.15
4127	5.7504	-8.5008	0.	125.18
4128	6.0003	-8.7504	0.	125.16
4129	5.2508	-8.5016	0.	125.18
4130	5.5004	-8.7509	0.	125.17
4131	4.7512	-8.5029	0.	125.15
4132	5.0007	-8.7517	0.	125.15
4133	4.2519	-8.5046	0.	125.09
4134	4.5011	-8.7528	0.	125.11
4135	3.7523	-8.5055	0.	125.01
4136	4.0017	-8.7543	0.	125.03
4137	3.2527	-8.5054	0.	124.89
4138	3.5019	-8.7544	0.	124.94
4139	2.754	-8.5065	0.	124.76
4140	3.0023	-8.7543	0.	124.82
4141	3.0049	-8.2576	0.	124.85
4142	2.2553	-8.5074	0.	124.64
4143	2.5035	-8.7558	0.	124.7
4144	1.7554	-8.5058	0.	124.53
4145	2.0041	-8.7557	0.	124.59
4146	1.5037	-8.7535	0.	124.52
4147	1.2554	-8.502	0.	124.48
4148	0.25621	-8.4918	0.	124.57
4149	0.50398	-8.7459	0.	124.55
4150	0.75562	-8.4971	0.	124.48
4151	-0.24269	-8.4865	0.	124.72
4152	4.7272e-003	-8.7415	0.	124.67
4153	-0.74168	-8.4815	0.	124.95
4154	-0.49448	-8.7373	0.	124.86
4155	-0.99383	-8.7334	0.	125.1
4156	-1.2408	-8.4767	0.	125.21
4157	-2.2428	-8.4717	0.	125.77
4158	-1.9946	-8.7281	0.	125.63
4159	-1.7414	-8.4737	0.	125.5
4160	-2.7445	-8.4705	0.	126.01
4161	-2.4952	-8.7259	0.	125.87
4162	-3.2462	-8.4712	0.	126.18
4163	-2.9967	-8.7258	0.	126.06
4164	-3.7478	-8.4734	0.	126.25
4165	-3.4976	-8.7268	0.	126.16
4166	-4.2489	-8.4768	0.	126.19
4167	-3.9988	-8.7295	0.	126.15
4168	-4.7488	-8.4822	0.	125.96
4169	-4.4989	-8.2226	0.	126.3
4170	-4.4986	-8.7326	0.	125.99
4171	-5.2482	-8.4911	0.	125.55
4172	-4.9984	-8.7383	0.	125.68
4173	-5.7476	-8.5041	0.	124.98
4174	-5.4976	-8.7473	0.	125.2
4175	-6.2486	-8.5151	0.	124.32
4176	-5.9978	-8.7594	0.	124.62
4177	-6.7505	-8.5169	0.	123.75
4178	-6.4994	-8.7646	0.	124.05
4179	-7.2516	-8.5119	0.	123.46
4180	-7.0009	-8.7625	0.	123.65
4181	-7.7516	-8.5049	0.	123.56
4182	-7.5014	-8.7572	0.	123.57
4183	-8.2509	-8.5003	0.	124.07
4184	-8.0012	-8.7515	0.	123.87
4185	-8.5005	-8.7499	0.	124.5
4186	-8.7502	-8.4988	0.	124.86
4187	8.563	-2.2464	0.	122.51
4188	8.8191	-2.0072	0.	125.1
4189	8.6084	-1.7751	0.	124.66
4190	8.5277	-2.7324	0.	122.33
4191	8.7874	-2.4913	0.	123.76
4192	8.5063	-3.2289	0.	122.83
4193	8.7621	-2.9852	0.	123.62
4194	8.5002	-3.7318	0.	123.44
4195	8.7521	-3.4844	0.	123.89
4196	8.5	-4.2371	0.	123.94
4197	8.75	-3.9864	0.	124.21
4198	8.5003	-4.7422	0.	124.32
4199	8.7501	-4.4909	0.	124.47
4200	8.7502	-4.9947	0.	124.66
4201	8.5003	-5.2457	0.	124.58
4202	8.4999	-7.7499	0.	125.06
4203	8.7499	-7.4998	0.	125.05
4204	8.4999	-7.2497	0.	125.02
4205	8.4999	-8.2499	0.	125.09
4206	8.7499	-7.9999	0.	125.08
4207	8.75	-8.4999	0.	125.1
4208	8.5	-8.75	0.	125.1
4209	8.	8.25	0.	128.12
4210	7.75	8.	0.	129.27
4211	8.	7.75	0.	126.85
4212	8.25	8.	0.	126.69
4213	-4.75	8.5	0.	126.18
4214	-5.	8.75	0.	127.25
4215	-5.25	8.5	0.	131.01
4216	-4.25	8.5	0.	124.58
4217	-4.5	8.75	0.	125.12
4218	-3.75	8.5	0.	124.13
4219	-4.	8.75	0.	124.5
4220	-3.2501	8.5	0.	124.2
4221	-3.5	8.75	0.	124.48
4222	-2.7501	8.5	0.	124.4
4223	-3.0001	8.75	0.	124.62
4224	-2.2502	8.5	0.	124.58
4225	-2.5001	8.75	0.	124.77
4226	-1.7503	8.5	0.	124.71
4227	-2.0002	8.75	0.	124.87
4228	-1.2504	8.5001	0.	124.76
4229	-1.5002	8.75	0.	124.92
4230	-0.75061	8.5001	0.	124.74
4231	-1.0004	8.7501	0.	124.9
4232	-1.0006	8.2501	0.	124.67
4233	-0.25086	8.5001	0.	124.66
4234	-0.50056	8.7501	0.	124.84
4235	-0.50091	8.2501	0.	124.61
4236	0.24892	8.5001	0.	124.54
4237	-7.6557e-004	8.7501	0.	124.75
4238	-1.2112e-003	8.2501	0.	124.48
4239	0.74873	8.5001	0.	124.42
4240	0.49907	8.7501	0.	124.65
4241	1.2486	8.5001	0.	124.33
4242	0.99893	8.7501	0.	124.57
4243	1.7486	8.5	0.	124.32
4244	1.4989	8.75	0.	124.53
4245	2.2486	8.5	0.	124.44
4246	1.9989	8.75	0.	124.58
4247	2.7488	8.4999	0.	124.81
4248	2.499	8.75	0.	124.78
4249	3.249	8.4999	0.	125.64
4250	2.9991	8.7499	0.	125.26
4251	3.7493	8.4999	0.	127.34
4252	3.4993	8.7499	0.	126.25
4253	3.9995	8.7499	0.	128.05
4254	4.2495	8.4999	0.	130.26
4255	8.25	8.5	0.	127.52
4256	8.	8.75	0.	128.15
4257	7.75	8.5	0.	130.41
4258	8.5	8.75	0.	126.34
4259	8.75	8.5	0.	125.76
4260	8.5	8.25	0.	126.08
4261	-8.8117	-1.4169	0.	124.48
4262	-8.5833	-1.6379	0.	123.84
4263	-0.37129	-0.6469	0.	128.6
4264	-8.3872	-3.2804	0.	129.16
4265	-8.169	-3.4506	0.	127.21
4266	0.26878	0.11291	0.	116.05
4267	0.58573	-4.4807e-002	0.	112.65
4268	6.3497	-0.50648	0.	130.54
4269	6.3078	-3.7801e-002	0.	127.02
4270	-8.6107	-3.5865	0.	138.09
4271	-8.8393	-3.3766	0.	133.28
4272	-8.6162	-3.0928	0.	131.22
4273	-8.8332	-3.8751	0.	135.
4274	-8.5766	-4.1095	0.	133.
4275	-8.3925	-3.7568	0.	135.33
4276	-4.25	9.	0.	125.05
4277	-4.75	9.	0.	126.2
4278	-4.5	9.25	0.	125.99
4279	-3.75	9.	0.	124.86
4280	-4.	9.25	0.	125.63
4281	-3.25	9.	0.	124.91
4282	-3.5	9.25	0.	125.51
4283	-2.75	9.	0.	125.
4284	-3.	9.25	0.	125.45
4285	-2.2501	9.	0.	125.06
4286	-2.5	9.25	0.	125.39
4287	-1.7501	9.	0.	125.08
4288	-2.0001	9.25	0.	125.33
4289	-1.2502	9.	0.	125.06
4290	-1.5001	9.25	0.	125.26
4291	-0.75034	9.0001	0.	125.01
4292	-1.0002	9.25	0.	125.18
4293	-0.25047	9.0001	0.	124.94
4294	-0.50029	9.2501	0.	125.1
4295	0.24939	9.0001	0.	124.87
4296	-3.9344e-004	9.2501	0.	125.03
4297	0.74927	9.0001	0.	124.8
4298	0.49951	9.2501	0.	124.98
4299	1.2492	9.	0.	124.77
4300	0.99943	9.25	0.	124.96
4301	1.7492	9.	0.	124.79
4302	1.4994	9.25	0.	124.98
4303	2.2492	9.	0.	124.92
4304	1.9994	9.25	0.	125.07
4305	2.7493	8.9999	0.	125.23
4306	2.4994	9.25	0.	125.26
4307	3.2494	8.9999	0.	125.87
4308	2.9995	9.25	0.	125.6
4309	3.7495	8.9999	0.	126.97
4310	3.4996	9.2499	0.	126.16
4311	4.2496	8.9999	0.	127.86
4312	3.9997	9.25	0.	126.92
4313	4.7498	9.	0.	126.71
4314	4.4997	8.7499	0.	130.09
4315	4.4998	9.25	0.	126.89
4316	5.2499	9.	0.	123.55
4317	4.9998	8.75	0.	126.28
4318	4.9999	9.25	0.	124.82
4319	5.7499	9.	0.	121.01
4320	5.4999	8.75	0.	120.34
4321	5.4999	9.25	0.	122.21
4322	6.25	9.	0.	120.99
4323	5.9999	8.75	0.	120.06
4324	6.	9.25	0.	121.12
4325	6.75	9.	0.	123.51
4326	6.5	8.75	0.	120.33
4327	6.5	9.25	0.	122.15
4328	7.25	9.	0.	126.68
4329	7.	8.75	0.	126.25
4330	7.	9.25	0.	124.73
4331	7.75	9.	0.	127.85
4332	7.5	8.75	0.	130.14
4333	7.5	9.25	0.	126.78
4334	8.25	9.	0.	126.96
4335	8.	9.25	0.	126.8
4336	8.75	9.	0.	125.78
4337	8.5	9.25	0.	125.99
4338	9.	8.25	0.	124.96
4339	9.	8.75	0.	125.2
4340	9.25	8.5	0.	124.62
4341	9.25	8.	0.	124.32
4342	9.	7.75	0.	124.77
4343	8.75	8.	0.	125.28
4344	9.	6.75	0.	125.63
4345	9.25	7.	0.	124.78
4346	9.	7.25	0.	125.
4347	9.0001	6.2501	0.	126.23
4348	9.25	6.5	0.	125.49
4349	8.7501	6.5001	0.	126.64
4350	9.0001	5.7501	0.	126.48
4351	9.2501	6.	0.	126.05
4352	8.7501	6.0002	0.	126.97
4353	9.0002	5.2499	0.	126.41
4354	9.2501	5.5	0.	126.33
4355	9.0001	4.7492	0.	126.18
4356	9.2501	4.9996	0.	126.39
4357	8.9993	4.2474	0.	125.91
4358	9.2498	4.4985	0.	126.37
4359	8.997	3.7437	0.	125.66
4360	9.2488	3.9964	0.	126.34
4361	8.749	3.997	0.	125.23
4362	8.9919	3.2382	0.	125.47
4363	9.2459	3.4926	0.	126.36
4364	8.9829	2.7292	0.	125.5
4365	9.2408	2.9875	0.	126.5
4366	8.7375	2.9858	0.	124.34
4367	8.9695	2.2147	0.	126.29
4368	9.2324	2.4789	0.	126.91
4369	8.7233	2.4738	0.	124.11
4370	8.9624	1.6964	0.	129.14
4371	9.2221	1.9664	0.	128.02
4372	8.9937	1.1818	0.	131.39
4373	9.2254	1.4544	0.	130.46
4374	8.6768	1.4159	0.	127.96
4375	9.0538	0.67021	0.	130.43
4376	8.7887	0.89717	0.	134.69
4377	9.2682	0.9467	0.	130.32
4378	9.1022	0.16732	0.	128.42
4379	8.8609	0.38448	0.	129.52
4380	9.3105	0.43957	0.	128.12
4381	9.1302	-0.32867	0.	128.53
4382	8.9088	-0.11242	0.	133.39
4383	9.3385	-5.5297e-002	0.	126.44
4384	8.9309	-0.60416	0.	130.83
4385	9.3524	-0.55627	0.	127.92
4386	9.1296	-0.81743	0.	131.52
4387	9.0435	-2.2521	0.	126.34
4388	9.293	-2.0103	0.	128.26
4389	9.0723	-1.7705	0.	129.77
4390	9.2743	-2.5012	0.	126.61
4391	9.0218	-2.7441	0.	125.04
4392	9.0001	-4.2401	0.	124.74
4393	9.2504	-3.9918	0.	125.19
4394	9.0019	-3.7389	0.	124.67
4395	9.	-4.7434	0.	124.81
4396	9.2499	-4.4938	0.	125.08
4397	9.	-5.246	0.	124.88
4398	9.2499	-4.9961	0.	125.02
4399	9.	-5.7479	0.	124.93
4400	9.2499	-5.4977	0.	125.
4401	8.7501	-5.497	0.	124.79
4402	8.9999	-6.249	0.	124.97
4403	9.2499	-5.9988	0.	125.
4404	8.75	-5.9985	0.	124.89
4405	8.9999	-6.7496	0.	125.01
4406	9.2499	-6.4994	0.	125.02
4407	8.7499	-6.4993	0.	124.96
4408	8.9999	-7.2498	0.	125.05
4409	9.2499	-6.9997	0.	125.04
4410	8.7499	-6.9997	0.	125.01
4411	8.9999	-7.7499	0.	125.07
4412	9.2499	-7.4999	0.	125.07
4413	9.	-8.2499	0.	125.1
4414	9.25	-7.9999	0.	125.09
4415	9.	-8.7499	0.	125.11
4416	9.25	-8.4999	0.	125.11
4417	8.25	-9.	0.	125.11
4418	8.75	-9.	0.	125.11
4419	8.5	-9.25	0.	125.11
4420	7.75	-9.	0.	125.12
4421	8.	-9.25	0.	125.12
4422	7.25	-9.	0.	125.13
4423	7.5	-9.25	0.	125.12
4424	6.7501	-9.0001	0.	125.14
4425	7.	-9.25	0.	125.13
4426	6.5001	-9.2501	0.	125.14
4427	6.2501	-9.0002	0.	125.15
4428	5.2504	-9.0009	0.	125.14
4429	5.5002	-9.2505	0.	125.14
4430	5.7502	-9.0005	0.	125.15
4431	4.7506	-9.0016	0.	125.1
4432	5.0004	-9.2509	0.	125.11
4433	4.5005	-9.2514	0.	125.07
4434	4.2509	-9.0025	0.	125.05
4435	3.2514	-9.0033	0.	124.86
4436	3.5009	-9.2524	0.	124.91
4437	3.7512	-9.0032	0.	124.96
4438	2.7518	-9.0037	0.	124.76
4439	3.0011	-9.2524	0.	124.81
4440	2.2523	-9.0042	0.	124.66
4441	2.5015	-9.2529	0.	124.71
4442	1.7524	-9.0035	0.	124.58
4443	2.0018	-9.2532	0.	124.62
4444	1.2522	-9.0015	0.	124.55
4445	1.5015	-9.252	0.	124.57
4446	0.7522	-8.9988	0.	124.57
4447	1.0014	-9.2503	0.	124.57
4448	1.0038	-8.75	0.	124.5
4449	0.25249	-8.9956	0.	124.66
4450	0.5015	-9.248	0.	124.63
4451	-0.24706	-8.9923	0.	124.81
4452	1.7654e-003	-9.2456	0.	124.75
4453	-0.74663	-8.9892	0.	125.01
4454	-0.4979	-9.2432	0.	124.92
4455	-1.2464	-8.9865	0.	125.25
4456	-0.99763	-9.2409	0.	125.14
4457	-1.7466	-8.9842	0.	125.5
4458	-1.4976	-9.2391	0.	125.38
4459	-1.4934	-8.7297	0.	125.36
4460	-2.247	-8.9823	0.	125.73
4461	-1.9978	-9.2375	0.	125.61
4462	-2.7474	-8.9812	0.	125.92
4463	-2.4982	-9.2362	0.	125.82
4464	-3.248	-8.9815	0.	126.04
4465	-2.9981	-9.2357	0.	125.96
4466	-3.7485	-8.9829	0.	126.06
4467	-3.4987	-9.2365	0.	126.02
4468	-3.9986	-9.2378	0.	125.97
4469	-4.2484	-8.9852	0.	125.95
4470	-5.2478	-8.9945	0.	125.32
4471	-4.9982	-9.2431	0.	125.48
4472	-4.7482	-8.9887	0.	125.71
4473	-5.7479	-9.0026	0.	124.84
4474	-5.498	-9.2488	0.	125.05
4475	-6.2486	-9.0089	0.	124.34
4476	-5.9983	-9.2549	0.	124.57
4477	-6.4993	-9.258	0.	124.13
4478	-6.7498	-9.0103	0.	123.94
4479	-7.751	-9.0039	0.	123.88
4480	-7.5007	-9.2545	0.	123.84
4481	-7.2507	-9.0078	0.	123.76
4482	-8.2508	-9.0011	0.	124.3
4483	-8.0008	-9.2515	0.	124.11
4484	-8.7504	-9.0001	0.	124.93
4485	-8.5004	-9.2504	0.	124.63
4486	-8.9993	-8.2447	0.	125.33
4487	-9.0001	-8.749	0.	125.29
4488	-9.2497	-8.4977	0.	125.73
4489	-8.998	-7.7392	0.	125.43
4490	-9.2488	-7.9933	0.	125.93
4491	-8.9962	-7.2336	0.	125.72
4492	-9.2478	-7.4897	0.	126.22
4493	-8.9941	-6.7269	0.	126.38
4494	-9.2458	-6.9838	0.	126.69
4495	-8.9884	-6.2206	0.	127.59
4496	-9.2438	-6.4796	0.	127.43
4497	-8.9598	-5.7125	0.	129.43
4498	-9.2352	-5.9734	0.	128.38
4499	-8.7451	-5.967	0.	127.57
4500	-8.8973	-5.2033	0.	130.63
4501	-9.1991	-5.4676	0.	129.46
4502	-8.5786	-4.9289	0.	133.24
4503	-9.1439	-4.9645	0.	129.24
4504	-8.9319	-4.6967	0.	129.46
4505	-9.0618	-3.6652	0.	129.95
4506	-9.0314	-4.1815	0.	127.71
4507	-9.2916	-3.9444	0.	126.54
4508	-9.0699	-3.1595	0.	131.28
4509	-9.2997	-3.4353	0.	130.2
4510	-9.0718	-2.6594	0.	128.84
4511	-9.3055	-2.9315	0.	129.45
4512	-8.8468	-2.8757	0.	129.15
4513	-9.0648	-2.1675	0.	126.88
4514	-9.3025	-2.4346	0.	128.02
4515	-8.8398	-2.3843	0.	126.5
4516	-9.0547	-1.679	0.	125.73
4517	-9.295	-1.9427	0.	126.88
4518	-8.8263	-1.9	0.	125.08
4519	-9.0443	-1.1912	0.	125.14
4520	-9.2873	-1.4516	0.	126.09
4521	-9.0346	-0.70309	0.	124.87
4522	-9.2796	-0.9606	0.	125.57
4523	-9.026	-0.21373	0.	124.75
4524	-9.2727	-0.46902	0.	125.24
4525	-9.0189	0.27715	0.	124.72
4526	-9.2668	2.3579e-002	0.	125.04
4527	-9.0131	0.76961	0.	124.74
4528	-9.2619	0.51734	0.	124.94
4529	-9.0086	1.2636	0.	124.79
4530	-9.2581	1.0123	0.	124.92
4531	-9.0054	1.7591	0.	124.88
4532	-9.2552	1.5083	0.	124.98
4533	-8.7585	1.5143	0.	124.63
4534	-9.0033	2.2559	0.	124.99
4535	-9.2532	2.0055	0.	125.09
4536	-9.0019	2.7537	0.	125.14
4537	-9.2519	2.5035	0.	125.27
4538	-9.0011	3.2522	0.	125.32
4539	-9.2511	3.0021	0.	125.52
4540	-9.0006	3.7513	0.	125.56
4541	-9.2506	3.5013	0.	125.83
4542	-9.0003	4.2507	0.	125.9
4543	-9.2503	4.0007	0.	126.23
4544	-9.0001	4.7504	0.	126.44
4545	-9.2502	4.5004	0.	126.73
4546	-9.0001	5.2502	0.	127.34
4547	-9.2501	5.0002	0.	127.38
4548	-9.	5.7501	0.	128.74
4549	-9.25	5.5001	0.	128.24
4550	-9.	6.2501	0.	130.21
4551	-9.25	6.0001	0.	129.21
4552	-9.	6.75	0.	130.68
4553	-8.75	6.5	0.	132.21
4554	-9.25	6.5	0.	129.64
4555	-9.	7.25	0.	130.02
4556	-8.75	7.	0.	132.12
4557	-9.25	7.	0.	128.84
4558	-9.	7.75	0.	129.43
4559	-8.75	7.5	0.	132.59
4560	-9.25	7.5	0.	127.6
4561	-9.	8.25	0.	128.59
4562	-8.75	8.	0.	133.43
4563	-9.25	8.	0.	126.93
4564	-9.	8.75	0.	127.48
4565	-8.75	8.5	0.	131.61
4566	-9.25	8.5	0.	125.88
4567	-6.7596	-5.4382	0.	131.43
4568	-7.0797	-5.5925	0.	116.2
4569	2.5129	2.7581	0.	130.22
4570	2.2632	2.511	0.	126.6
4571	2.502	4.2503	0.	130.42
4572	2.2511	4.4999	0.	127.13
4573	2.501	4.7499	0.	129.25
4574	0.75667	2.5151	0.	124.82
4575	0.50573	2.7622	0.	128.11
4576	0.75035	4.5008	0.	125.84
4577	0.50062	4.2516	0.	128.97
4578	0.25047	4.5012	0.	128.46
4579	-5.25	9.	0.	128.84
4580	-5.	9.25	0.	127.32
4581	-5.5	6.7501	0.	133.23
4582	-5.75	6.5001	0.	129.99
4583	-5.25	6.5002	0.	132.24
4584	-8.25	6.5001	0.	130.
4585	-8.5	6.75	0.	133.6
4586	7.5	8.25	0.	131.51
4587	7.25	8.5	0.	129.66
4588	7.5001	6.7503	0.	131.65
4589	7.2501	6.5005	0.	129.29
4590	7.7501	6.5004	0.	130.78
4591	4.7497	6.5001	0.	129.83
4592	4.4996	6.7501	0.	132.06
4593	4.4997	6.2501	0.	131.16
4594	4.7497	8.5	0.	129.6
4595	4.4996	8.25	0.	131.37
4596	2.0332	-2.0552	0.	128.77
4597	1.8895	-2.3461	0.	134.88
4598	9.25	9.	0.	124.89
4599	9.	9.25	0.	125.31
4600	9.25	-9.	0.	125.13
4601	9.	-9.25	0.	125.12
4602	-9.0002	-9.2499	0.	125.27
4603	-9.2501	-8.9998	0.	125.61
4604	-8.75	9.	0.	129.07
4605	-9.25	9.	0.	125.54
4606	-9.	9.25	0.	126.75
4607	-0.75201	-2.5917	0.	133.
4608	-0.51893	-2.8245	0.	130.14
4609	-0.77078	-3.0825	0.	133.67
4610	-6.2687	-3.5355	0.	133.09
4611	-6.5023	-3.2882	0.	131.56
4612	-6.3112	-4.0594	0.	130.33
4613	-6.032	-3.7879	0.	127.54
4614	-6.4686	-4.5543	0.	131.32
4615	-6.0669	-4.311	0.	129.35
4616	-6.6464	-5.0002	0.	131.85
4617	-7.5882	-5.396	0.	113.54
4618	-8.0689	-5.085	0.	129.27
4619	-8.4215	-4.648	0.	129.94
4620	-8.7748	-4.4158	0.	126.38
4621	-6.9978	-3.3449	0.	115.05
4622	-7.4843	-3.4637	0.	108.49
4623	-7.9487	-3.6063	0.	120.21
4624	7.547	-0.92379	0.	112.38
4625	8.0078	-1.0398	0.	109.88
4626	7.08	-0.80596	0.	123.95
4627	6.5991	-0.7485	0.	134.27
4628	7.222	0.72347	0.	124.03
4629	6.8924	0.37894	0.	129.99
4630	7.6401	1.0304	0.	112.64
4631	8.1498	1.2576	0.	114.28
4632	7.104	1.0313	0.	124.52
4633	8.5957	0.61144	0.	133.66
4634	8.4717	1.1312	0.	131.05
4635	8.6675	0.10474	0.	134.52
4636	8.7094	-0.38792	0.	135.43
4637	8.704	-0.85474	0.	138.09
4638	2.5071	3.2537	0.	129.71
4639	2.7624	3.0049	0.	129.04
4640	2.5038	3.7514	0.	129.72
4641	2.7537	4.0008	0.	129.06
4642	1.7587	2.5118	0.	116.93
4643	1.2565	2.5131	0.	116.29
4644	1.7505	4.5	0.	117.75
4645	1.2503	4.5002	0.	117.24
4646	1.0002	4.7503	0.	121.98
4647	0.50253	3.2559	0.	128.06
4648	0.25462	3.0068	0.	126.95
4649	0.50123	3.7529	0.	128.41
4650	-5.5	8.75	0.	132.6
4651	-5.5	9.25	0.	130.37
4652	-5.5	8.25	0.	135.58
4653	-5.5	7.2501	0.	133.93
4654	-5.5	7.75	0.	135.65
4655	-6.25	6.5001	0.	121.44
4656	-6.	6.2502	0.	125.54
4657	-6.75	6.5001	0.	116.4
4658	-6.5	6.2502	0.	117.73
4659	-7.75	6.5001	0.	121.44
4660	-7.25	6.5001	0.	116.42
4661	-8.5	7.25	0.	134.68
4662	-8.5	8.75	0.	133.19
4663	-8.5	9.25	0.	130.22
4664	-8.5	8.25	0.	136.46
4665	-8.5	7.75	0.	136.6
4666	7.5	7.7501	0.	130.67
4667	7.5	7.2501	0.	130.77
4668	7.75	7.0002	0.	129.55
4669	7.75	7.5001	0.	128.29
4670	6.7501	6.5005	0.	122.23
4671	6.25	6.5005	0.	118.49
4672	6.5002	6.2512	0.	119.27
4673	6.0001	6.2509	0.	118.96
4674	5.75	6.5004	0.	118.6
4675	5.2499	6.5002	0.	122.57
4676	4.9999	6.2503	0.	126.17
4677	6.75	8.5	0.	123.05
4678	6.25	8.5	0.	119.35
4679	5.7499	8.5	0.	119.34
4680	5.2499	8.5	0.	123.04
4681	4.4996	7.75	0.	130.59
4682	4.4996	7.25	0.	130.88
4683	0.82298	-0.42477	0.	115.69
4684	1.1857	-0.75882	0.	119.44
4685	1.8291	-1.5993	0.	131.79
4686	1.5548	-1.1461	0.	131.74
4687	-0.49523	-1.1362	0.	129.8
4688	-0.59106	-1.6291	0.	134.38
4689	-0.69253	-2.1079	0.	132.3
4690	1.4346	-2.4672	0.	125.23
4691	1.727	-2.6413	0.	132.27
4692	-2.4639e-002	-2.7804	0.	116.17
4693	0.47117	-2.7049	0.	111.35
4694	0.96049	-2.5966	0.	114.05
4695	9.5	8.75	0.	124.31
4696	9.5	9.25	0.	124.7
4697	9.5	8.25	0.	123.98
4698	9.5	7.75	0.	123.85
4699	9.5	7.25	0.	124.08
4700	9.25	7.5	0.	124.3
4701	9.5	6.75	0.	124.63
4702	9.5	5.75	0.	125.9
4703	9.5	6.25	0.	125.31
4704	9.5	5.2497	0.	126.31
4705	9.4999	4.7489	0.	126.58
4706	9.4993	4.2476	0.	126.8
4707	9.4977	3.7454	0.	127.04
4708	9.4948	3.242	0.	127.39
4709	9.4904	2.7371	0.	127.9
4710	9.485	2.2305	0.	128.64
4711	9.4851	1.7243	0.	129.32
4712	9.4999	1.2193	0.	129.35
4713	9.5249	0.71606	0.	128.
4714	9.5469	0.21696	0.	126.1
4715	9.5607	-0.2829	0.	125.75
4716	9.5618	-0.78104	0.	127.67
4717	9.5507	-1.2721	0.	129.62
4718	9.339	-1.0422	0.	131.28
4719	9.5368	-1.7646	0.	129.66
4720	9.316	-1.5249	0.	131.17
4721	9.5238	-2.2593	0.	128.54
4722	9.5125	-2.7522	0.	127.37
4723	9.5054	-3.2479	0.	126.52
4724	9.26	-2.9951	0.	125.8
4725	9.5018	-3.7462	0.	125.93
4726	9.2533	-3.4934	0.	125.4
4727	9.5002	-4.2455	0.	125.53
4728	9.4999	-4.7465	0.	125.29
4729	9.4999	-5.2477	0.	125.14
4730	9.4999	-5.7487	0.	125.07
4731	9.4999	-6.2492	0.	125.05
4732	9.4999	-6.7496	0.	125.05
4733	9.5	-7.2498	0.	125.07
4734	9.5	-7.7499	0.	125.09
4735	9.5	-8.2499	0.	125.11
4736	9.5	-8.75	0.	125.13
4737	9.5	-9.25	0.	125.14
4738	9.25	-9.5	0.	125.14
4739	8.75	-9.5	0.	125.12
4740	8.25	-9.5	0.	125.12
4741	7.75	-9.5	0.	125.12
4742	7.25	-9.5	0.	125.13
4743	6.75	-9.5	0.	125.14
4744	6.2501	-9.5001	0.	125.14
4745	5.7501	-9.5002	0.	125.14
4746	6.0001	-9.2502	0.	125.15
4747	5.2502	-9.5004	0.	125.12
4748	4.7503	-9.5007	0.	125.08
4749	4.2503	-9.501	0.	125.02
4750	3.7504	-9.5013	0.	124.94
4751	4.0007	-9.252	0.	125.
4752	3.2506	-9.5015	0.	124.85
4753	2.7508	-9.5017	0.	124.75
4754	2.2509	-9.502	0.	124.67
4755	1.7509	-9.5017	0.	124.61
4756	1.2508	-9.5007	0.	124.59
4757	0.75072	-9.4995	0.	124.63
4758	0.25077	-9.498	0.	124.71
4759	-0.24908	-9.4964	0.	124.86
4760	-0.74891	-9.4949	0.	125.05
4761	-1.2488	-9.4935	0.	125.27
4762	-1.7488	-9.4924	0.	125.49
4763	-2.2489	-9.4914	0.	125.7
4764	-2.7489	-9.4908	0.	125.86
4765	-3.2488	-9.4908	0.	125.95
4766	-3.7487	-9.4914	0.	125.94
4767	-4.2486	-9.4926	0.	125.81
4768	-4.7484	-9.4945	0.	125.56
4769	-4.4985	-9.2401	0.	125.79
4770	-5.2484	-9.4974	0.	125.2
4771	-5.7485	-9.5011	0.	124.77
4772	-6.249	-9.504	0.	124.36
4773	-6.7497	-9.505	0.	124.05
4774	-7.2503	-9.5039	0.	123.93
4775	-7.0003	-9.2572	0.	123.86
4776	-7.7506	-9.5021	0.	124.07
4777	-8.2505	-9.5008	0.	124.44
4778	-8.7503	-9.5002	0.	124.97
4779	-9.2501	-9.5001	0.	125.53
4780	-9.5	-9.2499	0.	125.87
4781	-9.4998	-8.7484	0.	126.05
4782	-9.4993	-8.2464	0.	126.33
4783	-9.4986	-7.7437	0.	126.72
4784	-9.4974	-7.2399	0.	127.2
4785	-9.4954	-6.7365	0.	127.73
4786	-9.4905	-6.2324	0.	128.21
4787	-9.4745	-5.7284	0.	128.41
4788	-9.4456	-5.2288	0.	128.04
4789	-9.4614	-4.7297	0.	126.41
4790	-9.2494	-4.4619	0.	126.66
4791	-9.5296	-3.7145	0.	126.77
4792	-9.5096	-4.2248	0.	125.39
4793	-9.5353	-3.2073	0.	128.36
4794	-9.5362	-2.7067	0.	128.63
4795	-9.5327	-2.2099	0.	128.02
4796	-9.5276	-1.7153	0.	127.24
4797	-9.5226	-1.2209	0.	126.52
4798	-9.5178	-0.72654	0.	125.94
4799	-9.5135	-0.23171	0.	125.52
4800	-9.5099	0.26378	0.	125.25
4801	-9.5069	0.76001	0.	125.12
4802	-9.5046	1.257	0.	125.1
4803	-9.5029	1.7547	0.	125.19
4804	-9.5018	2.2531	0.	125.37
4805	-9.5011	2.7519	0.	125.65
4806	-9.5006	3.2512	0.	126.02
4807	-9.5003	3.7507	0.	126.49
4808	-9.5002	4.2504	0.	127.05
4809	-9.5001	4.7502	0.	127.67
4810	-9.5	5.2501	0.	128.28
4811	-9.5	5.7501	0.	128.71
4812	-9.5	6.25	0.	128.64
4813	-9.5	6.75	0.	127.79
4814	-9.5	7.25	0.	126.42
4815	-9.5	7.75	0.	125.1
4816	-9.5	8.25	0.	124.22
4817	-9.5	8.75	0.	123.93
4818	-9.5	9.25	0.	124.35
4819	-9.25	9.5	0.	125.56
4820	-8.75	9.5	0.	127.87
4821	-8.25	9.5	0.	128.04
4822	-7.75	9.5	0.	123.1
4823	-7.25	9.5	0.	119.93
4824	-6.75	9.5	0.	120.07
4825	-6.25	9.5	0.	123.66
4826	-5.75	9.5	0.	128.87
4827	-5.25	9.5	0.	128.86
4828	-4.75	9.5	0.	127.13
4829	-4.25	9.5	0.	126.59
4830	-3.75	9.5	0.	126.29
4831	-3.25	9.5	0.	126.05
4832	-2.75	9.5	0.	125.84
4833	-2.25	9.5	0.	125.66
4834	-1.7501	9.5	0.	125.51
4835	-1.2501	9.5	0.	125.38
4836	-0.75015	9.5	0.	125.27
4837	-0.25021	9.5	0.	125.19
4838	0.24973	9.5	0.	125.14
4839	0.74967	9.5	0.	125.13
4840	1.2496	9.5	0.	125.17
4841	1.7496	9.5	0.	125.26
4842	2.2496	9.5	0.	125.42
4843	2.7496	9.5	0.	125.63
4844	3.2497	9.5	0.	125.89
4845	3.7497	9.5	0.	126.1
4846	4.2498	9.5	0.	125.92
4847	4.7499	9.5	0.	124.99
4848	5.2499	9.5	0.	123.48
4849	5.7499	9.5	0.	122.28
4850	6.25	9.5	0.	122.25
4851	6.75	9.5	0.	123.39
4852	7.25	9.5	0.	124.84
4853	7.75	9.5	0.	125.71
4854	8.25	9.5	0.	125.82
4855	8.75	9.5	0.	125.52
4856	9.25	9.5	0.	125.12
4857	-3.3881	-5.6305	0.	126.7
4858	-3.6511	-5.8875	0.	126.92
4859	-4.1365	-5.8784	0.	127.24
4860	3.5519	1.7534	0.	128.52
4861	3.7979	2.0034	0.	128.51
4862	4.0827	1.2596	0.	128.1
4863	3.8141	1.5037	0.	128.36
4864	4.0601	1.7537	0.	128.35
4865	8.0001	6.7502	0.	128.63
4866	8.2501	6.5002	0.	128.3
4867	5.2507	-2.5544	0.	127.15
4868	5.0404	-2.7681	0.	127.05
4869	-6.2506	4.5024	0.	122.89
4870	-5.7877	-4.0395	0.	126.41
4871	-2.2497	4.9989	0.	126.14
4872	2.5414	-6.2977	0.	124.9
4873	-5.2895	-5.0514	0.	127.14
4874	5.5015	-6.2498	0.	125.49
4875	4.8916	1.0416	0.	128.02
4876	5.1366	1.2935	0.	128.38
4877	6.7533	4.5092	0.	122.96
4878	8.25	7.5	0.	125.82
4879	8.75	7.5	0.	125.13
4880	8.5	7.75	0.	125.64
4881	-7.9351	-2.2686	0.	120.01
4882	7.4987	3.2626	0.	122.09
4883	-0.75094	8.0001	0.	124.54
4884	-0.25127	8.0001	0.	124.43
4885	-6.25	6.0003	0.	121.82
4886	6.7499	-7.0001	0.	125.1
4887	6.9996	-6.7501	0.	125.02
4888	4.7499	6.0003	0.	127.44
4889	-1.7418	2.974	0.	126.13
4890	5.0007	5.2512	0.	124.97
4891	5.0001	5.7506	0.	125.24
4892	-4.81	0.61283	0.	125.56
4893	-4.5503	0.38242	0.	125.86
4894	1.384	-5.5907	0.	123.32
4895	-2.0003	6.25	0.	125.37
4896	2.3445	-4.4451	0.	126.11
4897	-4.0431	-3.7998	0.	126.11
4898	-4.2948	-4.0496	0.	125.91
4899	7.5022	3.7593	0.	122.87
4900	7.7518	4.0048	0.	123.52
4901	0.9987	6.2501	0.	123.13
4902	0.9993	5.7501	0.	122.71
4903	4.4062	-3.5756	0.	127.24
4904	8.5001	6.2502	0.	127.38
4905	-5.2207	-2.0363	0.	127.61
4906	-4.9883	-2.2849	0.	127.84
4907	8.4779	2.7303	0.	122.95
4908	-0.24326	3.0011	0.	125.69
4909	-4.2525	0.1665	0.	126.16
4910	-4.9602	-1.7948	0.	127.03
4911	-4.7279	-2.0434	0.	127.26
4912	-4.6958	-1.5548	0.	126.74
4913	-1.8068	-4.0977	0.	127.72
4914	-2.4258	-6.1574	0.	126.2
4915	-2.3931	-5.64	0.	126.32
4916	-1.7503	6.	0.	125.53
4917	6.4997	-6.75	0.	125.13
4918	6.7494	-6.5	0.	125.04
4919	8.4999	-6.7494	0.	124.96
4920	1.2483	6.5	0.	123.23
4921	1.7483	6.5001	0.	123.45
4922	4.7959	2.5088	0.	127.51
4923	8.5001	-5.7477	0.	124.76
4924	8.5	-6.2488	0.	124.88
4925	-2.2432	2.9752	0.	126.4
4926	-3.8028	-4.0618	0.	126.17
4927	-2.2242	-7.4462	0.	125.86
4928	-2.4691	-7.1885	0.	126.08
4929	3.8585	-5.1406	0.	126.55
4930	6.3425	-0.97715	0.	133.72
4931	3.2554	4.0004	0.	127.79
4932	2.4988	6.25	0.	125.08
4933	2.4983	6.75	0.	124.56
4934	2.7486	6.5	0.	125.48
4935	2.2484	6.5	0.	124.27
4936	6.7481	-5.5018	0.	124.8
4937	-1.0557	-4.8652	0.	125.
4938	-4.0545	-4.3115	0.	125.97
4939	6.2502	6.0016	0.	119.72
4940	-1.3981	-6.1572	0.	125.17
4941	4.6548	0.7946	0.	127.4
4942	2.4995	5.75	0.	125.67
4943	2.5002	5.2499	0.	126.74
4944	-0.79266	-4.6033	0.	124.55
4945	-0.80982	-5.1207	0.	124.29
4946	4.2295	-4.6718	0.	126.85
4947	9.0079	-3.2406	0.	124.68
4948	6.4908	0.22258	0.	130.84
4949	6.0227	0.1783	0.	127.
4950	4.3627	1.0224	0.	127.85
4951	3.8379	1.0083	0.	127.92
4952	7.2537	3.5168	0.	122.62
4953	8.	7.2501	0.	127.03
4954	-3.7501	7.	0.	125.83
4955	8.2501	4.	0.	124.25
4956	-6.001	4.2536	0.	123.6
4957	4.0154	-4.8722	0.	126.8
4958	5.5031	-6.7526	0.	125.4
4959	-0.37346	-6.1523	0.	123.84
4960	2.7492	5.9999	0.	126.22
4961	-2.4514	-6.6738	0.	126.14
4962	-4.5454	-4.3024	0.	125.65
4963	-8.3843	-2.327	0.	123.48
4964	-8.6148	-2.6006	0.	126.84
4965	-8.6014	-2.1168	0.	124.71
4966	5.3846	1.5494	0.	128.79
4967	1.8631	0.13403	0.	125.73
4968	2.0738	0.38492	0.	125.96
4969	3.3157	1.0046	0.	127.78
4970	6.2694	3.038	0.	124.35
4971	-5.3054	0.60361	0.	125.
4972	4.554	2.2554	0.	127.93
4973	6.0004	5.752	0.	119.85
4974	4.257	4.0005	0.	126.53
4975	3.7563	3.9998	0.	127.12
4976	0.62472	-6.134	0.	123.21
4977	5.2513	5.0024	0.	123.97
4978	3.5693	1.2524	0.	128.18
4979	-4.25	7.0001	0.	127.01
4980	-4.75	5.0016	0.	127.15
4981	5.7515	5.0041	0.	122.5
4982	4.3087	2.0049	0.	128.29
4983	0.99981	5.2502	0.	122.05
4984	-0.77988	-3.581	0.	127.74
4985	-4.7511	-2.5367	0.	127.6
4986	3.5214	-6.7879	0.	125.36
4987	-6.6	-0.60772	0.	123.05
4988	-0.78594	-4.0888	0.	125.45
4989	2.5339	-6.7813	0.	124.79
4990	6.0011	5.254	0.	121.35
4991	-0.41616	-6.6726	0.	124.17
4992	2.9991	6.25	0.	126.62
4993	0.91213	-5.7245	0.	122.96
4994	0.65736	-5.5834	0.	122.56
4995	-5.6663	-6.3003	0.	128.58
4996	-5.4834	-6.6309	0.	127.88
4997	4.866	-0.99259	0.	126.43
4998	8.2067	-1.3036	0.	112.65
4999	8.4054	-1.5302	0.	121.04
5000	8.4612	-1.0849	0.	127.32
5001	8.6599	-1.3115	0.	135.86
5002	8.8616	-1.5384	0.	129.29
5003	8.9027	-1.068	0.	139.21
5004	9.1044	-1.2949	0.	132.76
5005	2.	4.	0.	97.679
5006	1.	4.	0.	97.241
5007	2.	3.	0.	97.774
5008	1.	3.	0.	96.739
5009	1.5	4.	0.	112.84
5010	2.	3.5	0.	102.8
5011	1.	3.5	0.	102.16
5012	1.5	3.	0.	112.4
5013	1.5	3.5	0.	110.06
5014	1.75	4.	0.	105.24
5015	2.	3.75	0.	100.23
5016	1.25	4.	0.	105.02
5017	1.	3.75	0.	99.69
5018	2.	3.25	0.	100.28
5019	1.75	3.	0.	105.07
5020	1.	3.25	0.	99.435
5021	1.25	3.	0.	104.55
5022	1.5	3.75	0.	111.41
5023	1.75	3.5	0.	106.41
5024	1.25	3.5	0.	106.09
5025	1.5	3.25	0.	111.18
5026	7.	8.	0.	99.782
5027	5.	8.	0.	99.71
5028	7.	7.	0.	99.745
5029	5.	7.	0.	99.892
5030	6.5	8.	0.	117.03
5031	6.	8.	0.	115.79
5032	5.5	8.	0.	117.03
5033	7.	7.5	0.	104.76
5034	5.	7.5	0.	104.8
5035	5.5	7.	0.	116.66
5036	6.	7.	0.	115.34
5037	6.5	7.	0.	116.56
5038	5.5	7.5	0.	115.5
5039	6.	7.5	0.	118.77
5040	6.5	7.5	0.	115.48
5041	6.75	8.	0.	108.36
5042	7.	7.75	0.	102.25
5043	5.25	8.	0.	108.32
5044	5.	7.75	0.	102.23
5045	7.	7.25	0.	102.23
5046	6.75	7.	0.	108.12
5047	5.	7.25	0.	102.32
5048	5.25	7.	0.	108.24
5049	6.25	8.	0.	116.41
5050	6.5	7.75	0.	116.24
5051	5.75	8.	0.	116.41
5052	6.	7.75	0.	117.27
5053	5.5	7.75	0.	116.24
5054	6.75	7.5	0.	110.11
5055	5.25	7.5	0.	110.14
5056	5.75	7.	0.	116.
5057	5.5	7.25	0.	116.06
5058	6.25	7.	0.	115.95
5059	6.	7.25	0.	117.05
5060	6.5	7.25	0.	116.
5061	5.75	7.5	0.	117.14
5062	6.25	7.5	0.	117.13
5063	-6.75	-3.7	0.	64.566
5064	-8.26	-4.13	0.	69.723
5065	-7.13	-5.22	0.	100.28
5066	-7.2533	-3.8433	0.	109.25
5067	-7.7567	-3.9867	0.	111.39
5068	-6.8767	-4.2067	0.	101.85
5069	-7.0033	-4.7133	0.	98.575
5070	-7.8833	-4.4933	0.	99.007
5071	-7.5067	-4.8567	0.	93.519
5072	-7.5835	-4.2991	0.	103.78
5073	-7.2343	-4.1997	0.	99.729
5074	-7.3222	-4.5512	0.	101.64
5075	-7.0017	-3.7717	0.	86.371
5076	-6.8133	-3.9533	0.	82.85
5077	-8.0083	-4.0583	0.	86.9
5078	-8.0717	-4.3117	0.	81.002
5079	-7.0667	-4.9667	0.	97.375
5080	-7.3183	-5.0383	0.	95.34
5081	-7.505	-3.915	0.	110.2
5082	-7.2438	-4.0215	0.	104.47
5083	-7.6701	-4.1429	0.	107.19
5084	-6.94	-4.46	0.	100.05
5085	-7.0555	-4.2032	0.	100.78
5086	-7.1628	-4.6323	0.	99.982
5087	-7.695	-4.675	0.	96.202
5088	-7.7334	-4.3962	0.	101.13
5089	-7.4144	-4.7039	0.	97.556
5090	-7.4089	-4.2494	0.	101.67
5091	-7.4528	-4.4252	0.	102.62
5092	-7.2783	-4.3754	0.	100.67
5093	0.27	-0.47	0.	100.13
5094	-0.3	-2.35	0.	65.55
5095	1.61	-1.91	0.	75.017
5096	0.1275	-0.94	0.	97.93
5097	-1.5e-002	-1.41	0.	99.737
5098	-0.1575	-1.88	0.	103.55
5099	0.605	-0.83	0.	95.634
5100	0.94	-1.19	0.	102.6
5101	1.275	-1.55	0.	106.14
5102	0.1775	-2.24	0.	113.49
5103	0.655	-2.13	0.	107.43
5104	1.1325	-2.02	0.	113.43
5105	0.66913	-1.394	0.	102.19
5106	0.36611	-1.8766	0.	102.08
5107	0.33734	-1.4792	0.	101.41
5108	0.4247	-1.1261	0.	101.86
5109	0.86218	-1.7192	0.	106.86
5110	0.19875	-0.705	0.	97.413
5111	0.4375	-0.65	0.	96.547
5112	-0.22875	-2.115	0.	84.339
5113	-6.125e-002	-2.295	0.	89.218
5114	1.4425	-1.73	0.	88.302
5115	1.3713	-1.965	0.	91.671
5116	5.625e-002	-1.175	0.	98.732
5117	0.2761	-1.033	0.	99.837
5118	-8.625e-002	-1.645	0.	101.64
5119	0.16117	-1.4446	0.	100.56
5120	0.10431	-1.8783	0.	102.81
5121	0.7725	-1.01	0.	99.113
5122	0.51485	-0.97804	0.	98.728
5123	1.1075	-1.37	0.	104.32
5124	0.80457	-1.292	0.	102.39
5125	1.0686	-1.6346	0.	106.37
5126	0.41625	-2.185	0.	110.45
5127	0.27181	-2.0583	0.	107.78
5128	0.89375	-2.075	0.	110.41
5129	0.51056	-2.0033	0.	104.74
5130	0.99734	-1.8696	0.	110.02
5131	0.50324	-1.4366	0.	101.78
5132	0.54692	-1.26	0.	102.01
5133	0.76565	-1.5566	0.	104.5
5134	0.35173	-1.6779	0.	101.73
5135	0.61414	-1.7979	0.	104.36
5136	0.38102	-1.3027	0.	101.63
5137	6.9	-0.2	0.	73.965
5138	8.37	-0.76	0.	71.14
5139	8.13	0.8	0.	95.495
5140	7.39	-0.38667	0.	108.92
5141	7.88	-0.57333	0.	106.49
5142	7.31	0.13333	0.	99.796
5143	7.72	0.46667	0.	95.421
5144	8.29	-0.24	0.	102.91
5145	8.21	0.28	0.	100.42
5146	7.8763	0.14403	0.	101.4
5147	7.9318	-0.21668	0.	100.04
5148	7.5919	-8.7223e-002	0.	104.53
5149	7.145	-0.29333	0.	87.164
5150	7.105	-3.3333e-002	0.	82.8
5151	8.125	-0.66667	0.	87.86
5152	8.33	-0.5	0.	86.222
5153	7.925	0.63333	0.	93.766
5154	8.17	0.54	0.	95.823
5155	7.635	-0.48	0.	107.58
5156	7.4909	-0.23694	0.	106.27
5157	7.9059	-0.39501	0.	103.23
5158	7.515	0.3	0.	97.503
5159	7.4509	2.3055e-002	0.	101.8
5160	7.7982	0.30535	0.	98.376
5161	8.25	2.e-002	0.	101.51
5162	8.1109	-0.22834	0.	101.47
5163	8.0432	0.21202	0.	100.81
5164	7.904	-3.6325e-002	0.	100.72
5165	7.7341	2.8405e-002	0.	102.87
5166	7.7618	-0.15195	0.	102.2
5167	-6.	9.	0.	99.515
5168	-8.	9.	0.	99.95
5169	-6.	7.	0.	99.647
5170	-8.	7.	0.	100.12
5171	-6.5	9.	0.	117.53
5172	-7.	9.	0.	116.17
5173	-7.5	9.	0.	117.58
5174	-6.	8.5	0.	104.92
5175	-6.	8.	0.	103.31
5176	-6.	7.5	0.	104.06
5177	-8.	8.5	0.	105.35
5178	-8.	8.	0.	103.99
5179	-8.	7.5	0.	104.65
5180	-7.5	7.	0.	114.54
5181	-7.	7.	0.	112.32
5182	-6.5	7.	0.	114.34
5183	-6.5	8.	0.	112.78
5184	-6.5	7.5	0.	112.74
5185	-7.5	7.5	0.	113.12
5186	-7.5	8.	0.	113.21
5187	-7.5	8.5	0.	114.66
5188	-6.5	8.5	0.	114.36
5189	-7.	8.5	0.	118.04
5190	-7.	7.5	0.	115.8
5191	-7.	8.	0.	116.69
5192	-6.25	9.	0.	108.41
5193	-6.	8.75	0.	102.2
5194	-7.75	9.	0.	108.66
5195	-8.	8.75	0.	102.64
5196	-6.	7.25	0.	101.84
5197	-6.25	7.	0.	106.94
5198	-8.	7.25	0.	102.38
5199	-7.75	7.	0.	107.28
5200	-6.75	9.	0.	116.84
5201	-6.5	8.75	0.	115.9
5202	-7.25	9.	0.	116.87
5203	-7.	8.75	0.	117.07
5204	-7.5	8.75	0.	116.07
5205	-6.	8.25	0.	104.07
5206	-6.25	8.5	0.	109.61
5207	-6.	7.75	0.	103.65
5208	-6.25	8.	0.	108.04
5209	-6.25	7.5	0.	108.39
5210	-8.	8.25	0.	104.63
5211	-7.75	8.5	0.	109.98
5212	-8.	7.75	0.	104.29
5213	-7.75	8.	0.	108.59
5214	-7.75	7.5	0.	108.88
5215	-7.25	7.	0.	113.43
5216	-7.5	7.25	0.	113.8
5217	-6.75	7.	0.	113.33
5218	-7.	7.25	0.	114.05
5219	-6.5	7.25	0.	113.51
5220	-6.5	7.75	0.	112.74
5221	-6.5	8.25	0.	113.55
5222	-6.75	8.	0.	114.73
5223	-6.75	7.5	0.	114.27
5224	-7.5	7.75	0.	113.16
5225	-7.25	7.5	0.	114.46
5226	-7.5	8.25	0.	113.92
5227	-7.25	8.	0.	114.94
5228	-7.25	8.5	0.	116.32
5229	-6.75	8.5	0.	116.16
5230	-7.	8.25	0.	117.36
5231	-7.	7.75	0.	116.25
