Node Number	X Location (mm)	Y Location (mm)	Z Location (mm)	Equivalent (von-Mises) Stress (MPa)
1	2.	6.	0.	135.24
2	2.	5.	0.	136.64
3	4.	6.	0.	135.75
4	4.	5.	0.	135.98
5	7.	-5.	0.	131.73
6	7.	-6.	0.	135.39
7	8.	-5.	0.	132.1
8	8.	-6.	0.	134.37
9	6.	-1.	0.	132.79
10	6.	-3.	0.	136.52
11	8.	-1.	0.	137.45
12	8.	-3.	0.	137.24
13	-8.	2.	0.	136.7
14	-8.	1.	0.	134.63
15	-7.	2.	0.	132.87
16	-7.	1.	0.	129.1
17	1.	0.	0.	131.57
18	1.	-1.	0.	134.04
19	3.	0.	0.	135.51
20	3.	-1.	0.	136.14
21	-7.	5.	0.	133.66
22	-7.	3.	0.	133.2
23	-5.	5.	0.	136.31
24	-5.	3.	0.	137.07
25	-1.	7.	0.	137.67
26	-1.	6.	0.	136.02
27	1.	7.	0.	137.61
28	1.	6.	0.	135.55
29	0.	3.	0.	135.54
30	0.	2.	0.	136.57
31	2.	3.	0.	131.85
32	2.	2.	0.	130.15
33	4.	-4.	0.	138.11
34	4.	-6.	0.	134.8
35	6.	-4.	0.	138.
36	6.	-6.	0.	133.64
37	10.	10.	0.	125.
38	-10.	10.	0.	124.99
39	10.	-10.	0.	130.66
40	-10.	-10.	0.	124.08
41	2.	5.5	0.	145.99
42	2.5	6.	0.	116.78
43	3.	6.	0.	122.
44	3.5	6.	0.	116.79
45	2.5	5.	0.	118.39
46	3.	5.	0.	124.02
47	3.5	5.	0.	118.79
48	4.	5.5	0.	144.31
49	7.	-5.5	0.	142.1
50	7.5	-5.	0.	108.17
51	7.5	-6.	0.	111.34
52	8.	-5.5	0.	143.39
53	6.	-1.5	0.	141.49
54	6.	-2.	0.	142.76
55	6.	-2.5	0.	141.86
56	6.5	-1.	0.	113.15
57	7.	-1.	0.	118.18
58	7.5	-1.	0.	114.49
59	6.5	-3.	0.	117.74
60	7.	-3.	0.	122.08
61	7.5	-3.	0.	116.29
62	8.	-1.5	0.	146.75
63	8.	-2.	0.	148.27
64	8.	-2.5	0.	147.05
65	-8.	1.5	0.	144.59
66	-7.5	2.	0.	114.5
67	-7.5	1.	0.	110.47
68	-7.	1.5	0.	138.71
69	1.	-0.5	0.	141.36
70	1.5	0.	0.	114.17
71	2.	0.	0.	120.8
72	2.5	0.	0.	117.47
73	1.5	-1.	0.	116.32
74	2.	-1.	0.	121.78
75	2.5	-1.	0.	116.86
76	3.	-0.5	0.	144.1
77	-7.	4.5	0.	142.26
78	-7.	4.	0.	142.96
79	-7.	3.5	0.	140.98
80	-6.5	5.	0.	113.19
81	-6.	5.	0.	117.85
82	-5.5	5.	0.	113.84
83	-6.5	3.	0.	115.43
84	-6.	3.	0.	120.71
85	-5.5	3.	0.	115.63
86	-5.	4.5	0.	145.18
87	-5.	4.	0.	146.6
88	-5.	3.5	0.	145.63
89	-1.	6.5	0.	145.61
90	-0.5	7.	0.	118.4
91	0.	7.	0.	123.84
92	0.5	7.	0.	119.08
93	-0.5	6.	0.	117.69
94	0.	6.	0.	121.83
95	0.5	6.	0.	115.95
96	1.	6.5	0.	147.16
97	0.	2.5	0.	144.35
98	0.5	3.	0.	116.77
99	1.	3.	0.	121.56
100	1.5	3.	0.	115.62
101	0.5	2.	0.	117.71
102	1.	2.	0.	120.79
103	1.5	2.	0.	113.69
104	2.	2.5	0.	139.11
105	4.	-4.5	0.	145.33
106	4.	-5.	0.	145.7
107	4.	-5.5	0.	143.89
108	4.5	-4.	0.	117.71
109	5.	-4.	0.	123.95
110	5.5	-4.	0.	119.11
111	4.5	-6.	0.	112.91
112	5.	-6.	0.	117.04
113	5.5	-6.	0.	112.68
114	6.	-4.5	0.	144.38
115	6.	-5.	0.	143.8
116	6.	-5.5	0.	140.26
117	9.5	10.	0.	125.01
118	9.	10.	0.	125.08
119	8.5	10.	0.	125.19
120	8.	10.	0.	125.32
121	7.5	10.	0.	125.45
122	7.	10.	0.	125.54
123	6.5	10.	0.	125.57
124	6.	10.	0.	125.52
125	5.5	10.	0.	125.35
126	5.	10.	0.	125.08
127	4.5	10.	0.	124.74
128	4.	10.	0.	124.38
129	3.5	10.	0.	124.08
130	3.	10.	0.	123.87
131	2.5	10.	0.	123.71
132	2.	10.	0.	123.52
133	1.5	10.	0.	123.24
134	1.	10.	0.	122.93
135	0.5	10.	0.	122.76
136	-5.2042e-015	10.	0.	122.93
137	-0.5	10.	0.	123.52
138	-1.	10.	0.	124.43
139	-1.5	10.	0.	125.41
140	-2.	10.	0.	126.19
141	-2.5	10.	0.	126.59
142	-3.	10.	0.	126.61
143	-3.5	10.	0.	126.31
144	-4.	10.	0.	125.82
145	-4.5	10.	0.	125.25
146	-5.	10.	0.	124.71
147	-5.5	10.	0.	124.26
148	-6.	10.	0.	123.97
149	-6.5	10.	0.	123.86
150	-7.	10.	0.	123.91
151	-7.5	10.	0.	124.1
152	-8.	10.	0.	124.36
153	-8.5	10.	0.	124.63
154	-9.	10.	0.	124.86
155	-9.5	10.	0.	124.99
156	10.	9.5	0.	124.99
157	10.	9.	0.	124.86
158	10.	8.5	0.	124.63
159	10.	8.	0.	124.36
160	10.	7.5	0.	124.1
161	10.	7.	0.	123.88
162	10.	6.5	0.	123.74
163	10.	6.	0.	123.69
164	10.	5.5	0.	123.78
165	10.	5.	0.	124.
166	10.	4.5	0.	124.37
167	10.	4.	0.	124.88
168	10.	3.5	0.	125.55
169	10.	3.	0.	126.38
170	10.	2.5	0.	127.39
171	10.	2.	0.	128.61
172	10.	1.5	0.	130.01
173	10.	1.	0.	131.46
174	10.	0.5	0.	132.65
175	10.	-5.2042e-015	0.	133.02
176	10.	-0.5	0.	132.1
177	10.	-1.	0.	130.18
178	10.	-1.5	0.	128.4
179	10.	-2.	0.	127.96
180	10.	-2.5	0.	129.19
181	10.	-3.	0.	131.6
182	10.	-3.5	0.	133.82
183	10.	-4.	0.	134.45
184	10.	-4.5	0.	133.09
185	10.	-5.	0.	130.76
186	10.	-5.5	0.	129.2
187	10.	-6.	0.	129.47
188	10.	-6.5	0.	130.78
189	10.	-7.	0.	131.86
190	10.	-7.5	0.	132.15
191	10.	-8.	0.	131.88
192	10.	-8.5	0.	131.43
193	10.	-9.	0.	131.02
194	10.	-9.5	0.	130.75
195	-10.	9.5	0.	125.01
196	-10.	9.	0.	125.26
197	-10.	8.5	0.	125.72
198	-10.	8.	0.	126.27
199	-10.	7.5	0.	126.78
200	-10.	7.	0.	127.13
201	-10.	6.5	0.	127.14
202	-10.	6.	0.	126.72
203	-10.	5.5	0.	125.92
204	-10.	5.	0.	125.
205	-10.	4.5	0.	124.44
206	-10.	4.	0.	124.58
207	-10.	3.5	0.	125.43
208	-10.	3.	0.	126.42
209	-10.	2.5	0.	126.77
210	-10.	2.	0.	126.41
211	-10.	1.5	0.	126.23
212	-10.	1.	0.	127.06
213	-10.	0.5	0.	128.29
214	-10.	-5.2042e-015	0.	128.95
215	-10.	-0.5	0.	128.68
216	-10.	-1.	0.	127.88
217	-10.	-1.5	0.	126.96
218	-10.	-2.	0.	126.15
219	-10.	-2.5	0.	125.51
220	-10.	-3.	0.	125.04
221	-10.	-3.5	0.	124.71
222	-10.	-4.	0.	124.47
223	-10.	-4.5	0.	124.31
224	-10.	-5.	0.	124.2
225	-10.	-5.5	0.	124.14
226	-10.	-6.	0.	124.1
227	-10.	-6.5	0.	124.07
228	-10.	-7.	0.	124.06
229	-10.	-7.5	0.	124.06
230	-10.	-8.	0.	124.07
231	-10.	-8.5	0.	124.07
232	-10.	-9.	0.	124.07
233	-10.	-9.5	0.	124.08
234	-9.5	-10.	0.	124.21
235	-9.	-10.	0.	124.34
236	-8.5	-10.	0.	124.47
237	-8.	-10.	0.	124.6
238	-7.5	-10.	0.	124.74
239	-7.	-10.	0.	124.87
240	-6.5	-10.	0.	125.
241	-6.	-10.	0.	125.14
242	-5.5	-10.	0.	125.28
243	-5.	-10.	0.	125.42
244	-4.5	-10.	0.	125.57
245	-4.	-10.	0.	125.71
246	-3.5	-10.	0.	125.86
247	-3.	-10.	0.	126.02
248	-2.5	-10.	0.	126.17
249	-2.	-10.	0.	126.32
250	-1.5	-10.	0.	126.47
251	-1.	-10.	0.	126.61
252	-0.5	-10.	0.	126.73
253	5.2042e-015	-10.	0.	126.81
254	0.5	-10.	0.	126.82
255	1.	-10.	0.	126.71
256	1.5	-10.	0.	126.44
257	2.	-10.	0.	125.94
258	2.5	-10.	0.	125.19
259	3.	-10.	0.	124.18
260	3.5	-10.	0.	123.01
261	4.	-10.	0.	121.84
262	4.5	-10.	0.	120.88
263	5.	-10.	0.	120.32
264	5.5	-10.	0.	120.25
265	6.	-10.	0.	120.66
266	6.5	-10.	0.	121.44
267	7.	-10.	0.	122.5
268	7.5	-10.	0.	123.77
269	8.	-10.	0.	125.19
270	8.5	-10.	0.	126.7
271	9.	-10.	0.	128.2
272	9.5	-10.	0.	129.57
273	-3.5	-3.5	0.	125.95
274	-2.5	-4.	0.	126.21
275	-4.	-2.5	0.	125.86
276	-3.5	-3.	0.	126.09
277	-3.	-3.5	0.	126.21
278	-3.5	-4.	0.	125.82
279	-4.	-3.5	0.	125.64
280	-4.	-4.5	0.	125.51
281	-2.	-4.	0.	126.32
282	-1.5	-4.5	0.	126.05
283	-4.5	-2.5	0.	125.41
284	-3.5	-2.5	0.	126.26
285	-3.	-3.	0.	126.4
286	-2.5	-3.5	0.	126.44
287	-3.5	-4.5	0.	125.72
288	-4.5	-4.	0.	125.29
289	-4.5	-3.5	0.	125.31
290	-1.5	-4.	0.	126.34
291	-1.	-4.5	0.	125.92
292	-4.5	-2.	0.	125.51
293	-4.	-1.5	0.	126.19
294	-3.	-2.5	0.	126.61
295	-5.	-5.	0.	125.09
296	-2.5	-3.	0.	126.67
297	-2.	-3.5	0.	126.6
298	-1.	-4.	0.	126.24
299	-4.5	-1.5	0.	125.63
300	-3.5	-1.5	0.	126.68
301	-0.5	-5.	0.	125.51
302	-1.5	-5.	0.	125.86
303	-2.5	-5.	0.	125.88
304	-3.5	-5.	0.	125.65
305	-4.	-5.	0.	125.48
306	-4.5	-5.	0.	125.29
307	-5.	-4.	0.	125.01
308	-5.	-3.5	0.	124.97
309	-5.	-3.	0.	124.95
310	-5.	-2.	0.	124.96
311	-3.	-0.5	0.	127.84
312	-3.	-2.	0.	126.82
313	-2.5	-2.5	0.	126.9
314	-2.	-3.	0.	126.9
315	0.5	-5.5	0.	125.16
316	-0.5	-4.	0.	125.99
317	-9.1014e-009	-4.5	0.	125.29
318	0.5	-5.	0.	124.93
319	-1.5	-3.5	0.	126.7
320	-5.	-1.5	0.	125.03
321	-4.	-1.	0.	126.41
322	-3.5	-0.5	0.	127.33
323	-3.	-1.5	0.	127.08
324	-0.5	-5.5	0.	125.51
325	-1.5	-5.5	0.	125.78
326	-2.5	-5.5	0.	125.8
327	-3.5	-5.5	0.	125.61
328	-4.5	-5.5	0.	125.3
329	-5.5	-5.	0.	124.9
330	-5.5	-4.	0.	124.74
331	-5.5	-3.5	0.	124.65
332	-5.5	-3.	0.	124.55
333	-5.5	-2.	0.	124.39
334	-2.5	-0.5	0.	128.17
335	-2.5	-2.	0.	127.12
336	-2.	-2.5	0.	127.16
337	1.	-5.5	0.	125.1
338	0.5	-6.	0.	125.54
339	-2.5	-1.5472e-010	0.	128.77
340	-2.5871e-009	-4.	0.	125.56
341	0.5	-4.5	0.	124.88
342	1.	-5.	0.	124.73
343	-1.	-3.5	0.	126.69
344	-1.5	-3.	0.	127.09
345	-6.	-6.	0.	124.89
346	-3.	0.5	0.	128.95
347	-5.5	-1.5	0.	124.38
348	-4.5	-1.	0.	125.78
349	-4.	-0.5	0.	126.66
350	-3.5	-1.2028e-010	0.	127.77
351	-2.5	-1.	0.	127.7
352	-2.5	-1.5	0.	127.37
353	-0.5	-6.	0.	125.65
354	-1.5	-6.	0.	125.79
355	-2.	-6.	0.	125.8
356	-2.5	-6.	0.	125.77
357	-3.5	-6.	0.	125.6
358	-4.5	-6.	0.	125.33
359	-5.	-6.	0.	125.18
360	-5.5	-6.	0.	125.03
361	-6.	-5.	0.	124.74
362	-6.	-4.	0.	124.51
363	-6.	-3.5	0.	124.36
364	-6.	-3.	0.	124.19
365	-6.	-2.	0.	123.82
366	-2.	-0.5	0.	128.29
367	-2.	-2.	0.	127.36
368	6.	2.5	0.	124.98
369	5.5	2.5	0.	125.71
370	1.	-6.	0.	125.63
371	-2.5	0.5	0.	129.39
372	0.5	-4.	0.	125.01
373	1.	-4.5	0.	124.55
374	1.5	-5.	0.	124.77
375	-0.5	-3.5	0.	126.5
376	-1.5	-2.5	0.	127.41
377	-6.	-6.5	0.	124.95
378	-6.5	-6.	0.	124.77
379	-3.	1.	0.	129.52
380	-2.	-1.559e-010	0.	129.01
381	-1.	-3.	0.	127.21
382	6.	3.	0.	125.66
383	-6.	-1.5	0.	123.67
384	-5.	-1.	0.	125.12
385	-4.5	-0.5	0.	125.91
386	-4.	-9.1889e-011	0.	126.96
387	-3.5	0.5	0.	128.33
388	5.	2.	0.	126.18
389	-2.	-1.	0.	127.8
390	-2.	-1.5	0.	127.54
391	5.5	2.	0.	125.37
392	6.5	3.	0.	125.
393	6.5	2.	0.	123.38
394	5.	2.5	0.	126.09
395	0.49999	-6.5	0.	125.96
396	-0.5	-6.5	0.	125.86
397	-1.5	-6.5	0.	125.86
398	-2.5	-6.5	0.	125.8
399	-3.5	-6.5	0.	125.62
400	-4.5	-6.5	0.	125.36
401	-5.	-6.5	0.	125.22
402	-5.5	-6.5	0.	125.08
403	-6.5	-5.5	0.	124.7
404	-6.5	-5.	0.	124.61
405	-6.5	-4.	0.	124.34
406	-6.5	-3.5	0.	124.15
407	-6.5	-3.	0.	123.92
408	1.	-4.	0.	124.52
409	1.5	-4.5	0.	124.54
410	1.5	-5.5	0.	125.26
411	-2.1175e-009	-3.5	0.	126.05
412	-1.5	-2.	0.	127.59
413	6.5	4.	0.	125.65
414	6.5	5.5	0.	125.03
415	6.5	1.5	0.	122.25
416	-6.5	-6.5	0.	124.83
417	-1.5	-0.5	0.	128.14
418	-3.	1.5	0.	129.96
419	-2.	0.5	0.	129.79
420	-0.5	-3.	0.	127.17
421	-1.	-2.5	0.	127.66
422	6.	3.5	0.	126.23
423	-6.5	-1.5	0.	122.96
424	-5.5	-1.	0.	124.44
425	5.5	3.	0.	126.33
426	-4.5	-6.2812e-011	0.	125.97
427	-4.	0.5	0.	127.36
428	-3.5	1.	0.	129.05
429	5.	1.5	0.	126.7
430	4.5	2.	0.	126.43
431	4.5	2.5	0.	125.79
432	-6.	7.	0.	119.89
433	1.4999	-7.	0.	127.03
434	6.5	7.	0.	125.79
435	-5.	-0.5	0.	125.17
436	-2.5	1.5	0.	129.93
437	-2.5	3.	0.	129.3
438	1.5	-4.	0.	124.41
439	1.5	-6.	0.	125.94
440	1.5	-6.5	0.	126.6
441	1.	-3.5	0.	124.51
442	-1.5	-1.5	0.	127.63
443	6.5	6.	0.	125.17
444	6.5	6.5	0.	125.5
445	6.5	4.5	0.	125.51
446	6.5	5.	0.	125.2
447	5.5	1.5	0.	125.26
448	7.	6.	0.	124.97
449	7.	5.5	0.	124.88
450	7.	5.	0.	124.96
451	7.	4.	0.	125.16
452	7.	3.5	0.	125.01
453	7.	3.	0.	124.59
454	7.	2.	0.	123.
455	7.	1.5	0.	121.77
456	7.	1.	0.	120.13
457	0.49998	-7.	0.	126.34
458	-0.50001	-7.	0.	126.09
459	-1.5	-7.	0.	125.98
460	-2.5	-7.	0.	125.85
461	-3.5	-7.	0.	125.65
462	-4.5	-7.	0.	125.4
463	-5.5	-7.	0.	125.13
464	-6.	-7.	0.	125.
465	-6.5	-7.	0.	124.88
466	-7.	-6.	0.	124.67
467	-7.	-5.5	0.	124.6
468	-7.	-5.	0.	124.51
469	-7.	-4.5	0.	124.4
470	-7.	-4.	0.	124.24
471	-7.	-3.	0.	123.78
472	-7.	-2.5	0.	123.45
473	-7.	-2.	0.	123.01
474	-1.5	-1.4741e-010	0.	129.03
475	-5.5	7.	0.	120.97
476	-3.	4.5	0.	130.3
477	-3.	2.	0.	130.19
478	-3.	3.5	0.	129.66
479	-2.	2.5	0.	128.9
480	2.	-3.	0.	123.62
481	2.	-4.5	0.	125.05
482	2.	-5.5	0.	125.77
483	-7.0709e-010	-3.	0.	126.77
484	1.5	-3.	0.	123.37
485	-1.	-2.	0.	127.88
486	6.	4.	0.	126.48
487	6.	5.5	0.	125.27
488	6.5	1.	0.	120.84
489	-7.	-1.5	0.	122.46
490	-6.	-1.	0.	123.64
491	5.	3.	0.	126.58
492	-3.	6.5	0.	128.89
493	-4.5	0.5	0.	126.01
494	-4.	1.	0.	128.07
495	-1.	-0.5	0.	127.62
496	4.5	1.5	0.	127.67
497	4.	2.	0.	126.
498	-3.5	6.5	0.	129.03
499	4.	2.5	0.	124.76
500	-0.5	-2.5	0.	127.88
501	5.	1.	0.	127.38
502	5.5	3.5	0.	127.11
503	-2.	4.	0.	129.96
504	-2.5	4.5	0.	130.6
505	-6.5	7.	0.	120.52
506	-7.	-7.	0.	124.77
507	1.9999	-7.	0.	127.64
508	-3.5	1.5	0.	129.93
509	7.	7.	0.	125.38
510	6.	7.	0.	126.43
511	-5.	-3.2819e-011	0.	125.04
512	-5.5	-0.5	0.	124.55
513	-6.	6.5	0.	117.81
514	-3.5	4.	0.	130.22
515	-1.5	0.5	0.	130.18
516	-4.5	7.	0.	125.59
517	-3.	5.	0.	130.76
518	-3.	3.	0.	129.85
519	-2.	1.5	0.	130.12
520	-2.	3.	0.	128.91
521	2.	-4.	0.	125.05
522	2.	-6.	0.	126.6
523	1.9999	-6.5	0.	127.33
524	1.	-3.	0.	124.42
525	-1.	-1.5	0.	127.74
526	6.	6.	0.	125.51
527	6.	6.5	0.	126.07
528	6.	5.	0.	125.65
529	-3.	5.5	0.	130.67
530	-6.5	-1.	0.	122.64
531	4.5	3.	0.	125.99
532	-3.	7.	0.	128.38
533	-1.	-1.293e-010	0.	128.69
534	2.	-2.	0.	118.81
535	4.9993	-7.0001	0.	114.53
536	3.	-5.	0.	129.23
537	-1.	0.5	0.	130.37
538	-4.	4.	0.	131.98
539	-6.	6.	0.	115.08
540	-5.5	-5.3421e-012	0.	124.46
541	7.	2.4528e-012	0.	115.15
542	5.5	7.5	0.	126.95
543	6.	7.5	0.	126.4
544	6.5	7.5	0.	125.89
545	7.5	7.5	0.	125.21
546	7.5	7.	0.	125.11
547	7.5	6.5	0.	124.97
548	7.5	6.	0.	124.85
549	7.5	5.5	0.	124.8
550	7.5	5.	0.	124.85
551	7.5	4.5	0.	124.93
552	7.5	4.	0.	124.96
553	7.5	3.5	0.	124.85
554	7.5	2.	0.	123.33
555	7.5	1.5	0.	122.4
556	7.5	1.	0.	121.23
557	7.5	0.5	0.	119.8
558	-5.	0.5	0.	124.56
559	-5.	1.	0.	123.9
560	-4.	1.5	0.	129.32
561	3.	7.5	0.	120.79
562	4.9991	-7.5001	0.	116.93
563	2.4997	-7.5	0.	127.66
564	1.9998	-7.5	0.	127.49
565	1.4999	-7.5	0.	127.16
566	0.99993	-7.5	0.	126.85
567	0.49996	-7.5	0.	126.61
568	-2.3005e-005	-7.5	0.	126.43
569	-0.50001	-7.5	0.	126.3
570	-1.	-7.5	0.	126.2
571	-1.5	-7.5	0.	126.11
572	-2.	-7.5	0.	126.02
573	-2.5	-7.5	0.	125.92
574	-3.	-7.5	0.	125.82
575	-3.5	-7.5	0.	125.7
576	-4.	-7.5	0.	125.57
577	-4.5	-7.5	0.	125.44
578	-5.	-7.5	0.	125.31
579	-5.5	-7.5	0.	125.17
580	-6.	-7.5	0.	125.04
581	-6.5	-7.5	0.	124.92
582	-7.	-7.5	0.	124.8
583	-7.5	-7.5	0.	124.68
584	-7.5	-7.	0.	124.66
585	-7.5	-6.5	0.	124.63
586	-7.5	-6.	0.	124.59
587	-7.5	-5.5	0.	124.53
588	-7.5	-5.	0.	124.46
589	-7.5	-4.5	0.	124.36
590	-7.5	-3.5	0.	124.06
591	-7.5	-3.	0.	123.82
592	-7.5	-2.5	0.	123.5
593	-7.5	-2.	0.	123.07
594	-7.5	-1.5	0.	122.49
595	-7.5	-1.	0.	121.65
596	-7.5	-0.5	0.	120.33
597	7.4996	-7.5	0.	123.2
598	6.5	0.5	0.	119.08
599	-7.5	7.5	0.	124.14
600	-7.	7.5	0.	122.82
601	-6.5	7.5	0.	121.73
602	-5.5	7.5	0.	122.08
603	-5.	7.5	0.	123.49
604	-4.5	7.5	0.	125.09
605	-4.	7.5	0.	126.42
606	-3.5	7.5	0.	127.38
607	-3.	7.5	0.	128.16
608	-2.5	5.	0.	131.16
609	-2.5	6.5	0.	128.77
610	-2.	4.5	0.	130.76
611	5.	3.5	0.	127.66
612	5.5	4.	0.	127.68
613	5.5	7.	0.	127.33
614	5.5	5.5	0.	125.74
615	3.5	7.5	0.	121.55
616	5.	7.5	0.	127.18
617	4.5	1.	0.	128.93
618	-0.5	-2.	0.	128.35
619	-0.5	-0.5	0.	126.85
620	1.5	-2.5	0.	122.03
621	-1.1154e-010	-2.5	0.	127.78
622	4.5	-2.	0.	125.14
623	5.	0.5	0.	128.03
624	2.4998	-7.	0.	128.37
625	2.5	-5.5	0.	126.92
626	4.4991	-7.5	0.	118.5
627	2.9995	-7.5	0.	127.25
628	2.5	-4.5	0.	126.46
629	2.5	-2.5	0.	123.49
630	2.5	-3.	0.	125.5
631	3.5	2.5	0.	123.48
632	4.	3.	0.	124.58
633	-1.5	4.	0.	129.61
634	-1.5	2.5	0.	128.58
635	-6.5	6.5	0.	118.99
636	-7.	7.	0.	122.41
637	-3.5	3.5	0.	130.28
638	-3.5	2.	0.	130.75
639	-3.5	6.	0.	130.27
640	-3.5	4.5	0.	130.53
641	-5.5	6.5	0.	119.57
642	-4.	6.5	0.	128.61
643	-4.5	6.5	0.	126.77
644	-5.	6.5	0.	123.31
645	-3.5	5.	0.	130.94
646	-3.5	5.5	0.	131.08
647	-3.5	2.5	0.	131.07
648	-3.5	3.	0.	130.66
649	-7.5	6.5	0.	125.4
650	-1.5	2.	0.	129.55
651	-1.5	1.5	0.	130.8
652	-1.5	3.5	0.	129.33
653	-1.5	3.	0.	128.64
654	1.9433e-011	4.5	0.	120.23
655	3.5	3.5	0.	123.21
656	2.5	-3.5	0.	126.62
657	2.5	-4.	0.	126.64
658	3.9992	-7.5	0.	122.06
659	2.5	-6.	0.	127.69
660	2.4999	-6.5	0.	128.44
661	0.5	-2.5	0.	126.64
662	1.	-2.5	0.	124.33
663	-0.5	-1.5	0.	128.11
664	4.5	0.5	0.	129.44
665	4.	7.5	0.	124.02
666	5.5	6.5	0.	127.05
667	5.5	5.	0.	126.43
668	4.5	3.5	0.	127.05
669	-1.5	4.5	0.	129.82
670	-1.	4.5	0.	127.21
671	-2.5	5.5	0.	130.99
672	-2.5	7.	0.	128.71
673	4.5	-1.	0.	126.81
674	5.5	0.5	0.	125.81
675	5.9992	-7.5001	0.	121.31
676	6.9995	-7.5	0.	123.42
677	-6.5	-0.5	0.	122.55
678	1.2855e-011	5.	0.	117.57
679	-4.	4.5	0.	131.5
680	-6.5	6.	0.	117.05
681	0.5	4.	0.	119.25
682	3.	-5.5	0.	128.8
683	2.5	-2.	0.	121.11
684	3.5	4.	0.	122.2
685	6.5	4.6543e-012	0.	116.96
686	5.4994	-7.0001	0.	116.91
687	3.5	2.	0.	125.04
688	-0.5	-1.0852e-010	0.	127.86
689	3.5	-2.5	0.	127.92
690	4.	-2.5	0.	126.26
691	-5.	1.5	0.	123.66
692	7.5	-1.6679e-012	0.	118.08
693	-8.	7.	0.	125.88
694	-8.	7.5	0.	125.21
695	-8.	8.	0.	124.87
696	-7.	8.	0.	123.3
697	-6.5	8.	0.	122.67
698	-6.	8.	0.	122.52
699	-5.5	8.	0.	122.96
700	-5.	8.	0.	123.86
701	-4.5	8.	0.	124.96
702	-4.	8.	0.	126.
703	-3.	8.	0.	127.82
704	-2.5	8.	0.	128.85
705	1.9208e-011	8.	0.	119.92
706	2.5	8.	0.	124.22
707	3.5	8.	0.	122.89
708	4.	8.	0.	124.1
709	4.5	8.	0.	125.46
710	5.	8.	0.	126.23
711	5.5	8.	0.	126.36
712	6.	8.	0.	126.13
713	6.5	8.	0.	125.8
714	7.	8.	0.	125.5
715	7.5	8.	0.	125.26
716	8.	8.	0.	125.06
717	8.	7.5	0.	125.
718	8.	7.	0.	124.91
719	8.	6.5	0.	124.82
720	8.	6.	0.	124.76
721	8.	5.	0.	124.81
722	8.	4.	0.	124.96
723	8.	3.5	0.	124.95
724	8.	3.	0.	124.82
725	8.	2.5	0.	124.58
726	8.	2.	0.	124.24
727	8.	1.5	0.	123.88
728	8.	1.	0.	123.6
729	8.	0.5	0.	123.69
730	-7.5	5.1701e-012	0.	117.82
731	7.9997	-7.5	0.	124.99
732	7.9997	-8.	0.	125.23
733	7.4996	-8.	0.	123.74
734	6.9995	-8.	0.	122.94
735	6.4993	-8.	0.	122.13
736	5.9992	-8.	0.	120.66
737	5.499	-8.0001	0.	119.07
738	4.9991	-8.0001	0.	118.5
739	4.499	-8.0001	0.	119.56
740	3.9991	-8.	0.	121.83
741	3.4993	-8.	0.	124.24
742	2.9995	-8.	0.	125.94
743	2.4996	-8.	0.	126.8
744	1.9997	-8.	0.	127.07
745	1.4998	-8.	0.	127.06
746	0.9999	-8.	0.	126.92
747	0.49994	-8.	0.	126.76
748	-3.8452e-005	-8.	0.	126.61
749	-0.50002	-8.	0.	126.47
750	-1.	-8.	0.	126.35
751	-1.5	-8.	0.	126.23
752	-2.	-8.	0.	126.12
753	-2.5	-8.	0.	126.
754	-3.	-8.	0.	125.88
755	-4.	-8.	0.	125.62
756	-4.5	-8.	0.	125.48
757	-5.	-8.	0.	125.34
758	-5.5	-8.	0.	125.21
759	-6.	-8.	0.	125.08
760	-6.5	-8.	0.	124.95
761	-7.	-8.	0.	124.83
762	-7.5	-8.	0.	124.7
763	-8.	-8.	0.	124.58
764	-8.	-7.5	0.	124.57
765	-8.	-7.	0.	124.56
766	-8.	-6.5	0.	124.54
767	-8.	-6.	0.	124.52
768	-8.	-5.5	0.	124.48
769	-8.	-5.	0.	124.44
770	-8.	-4.5	0.	124.38
771	-8.	-4.	0.	124.3
772	-8.	-3.5	0.	124.18
773	-8.	-3.	0.	124.02
774	-8.	-2.5	0.	123.8
775	-8.	-1.5	0.	123.17
776	-8.	-1.	0.	122.74
777	-5.5	0.5	0.	123.66
778	-5.5	1.	0.	121.9
779	-5.5	1.5	0.	120.03
780	-8.	4.	0.	127.71
781	4.5	-2.5	0.	123.6
782	2.5	7.5	0.	122.76
783	0.5	4.5	0.	119.34
784	-5.5	6.	0.	117.82
785	-4.	6.	0.	130.64
786	-4.	3.5	0.	131.53
787	-4.	2.	0.	131.15
788	-8.	4.5	0.	127.85
789	-8.	6.	0.	128.67
790	-1.	1.	0.	132.05
791	-1.	2.5	0.	128.11
792	-1.	4.	0.	128.85
793	3.	2.5	0.	122.27
794	3.	-4.5	0.	128.82
795	3.	-3.	0.	128.4
796	4.4994	-7.	0.	116.9
797	2.9997	-7.	0.	128.97
798	4.	-0.5	0.	127.19
799	4.	-2.	0.	127.2
800	1.5	-2.	0.	120.11
801	2.3972e-011	-2.	0.	128.99
802	3.8887e-011	-0.5	0.	125.69
803	-0.5	0.5	0.	129.78
804	3.5	1.5	0.	127.51
805	4.	1.	0.	130.27
806	3.5	7.	0.	119.83
807	5.	7.	0.	128.41
808	5.	5.5	0.	126.12
809	5.	4.	0.	129.09
810	1.	4.	0.	119.42
811	3.	4.	0.	121.54
812	-0.5	5.	0.	120.69
813	-2.	5.	0.	131.87
814	-2.	6.5	0.	128.51
815	-2.	8.	0.	130.05
816	0.5	8.	0.	121.37
817	2.	8.	0.	126.81
818	5.	1.3394e-011	0.	128.68
819	7.4997	-7.	0.	121.17
820	-6.	8.0166e-012	0.	124.38
821	-7.	9.0353e-012	0.	119.64
822	-6.5	1.1409e-011	0.	123.37
823	-6.	1.	0.	121.94
824	6.4995	-7.0001	0.	126.85
825	6.	7.1948e-012	0.	122.29
826	5.5	9.7764e-012	0.	127.26
827	1.	8.	0.	125.27
828	-2.	7.	0.	129.8
829	-2.	6.	0.	130.64
830	-2.	5.5	0.	132.26
831	-1.5	5.	0.	130.97
832	1.5	4.	0.	121.95
833	4.	4.	0.	125.85
834	4.5	4.	0.	129.13
835	5.	5.	0.	128.12
836	5.	6.	0.	127.57
837	5.	6.5	0.	128.86
838	4.	7.	0.	124.3
839	4.	6.416e-011	0.	129.72
840	4.	0.5	0.	131.27
841	3.5	1.	0.	130.17
842	0.5	1.	0.	123.01
843	0.5	-2.	0.	128.33
844	1.	-2.	0.	124.4
845	3.	-2.	0.	125.64
846	3.5	-2.	0.	128.54
847	4.	-1.	0.	127.73
848	2.9999	-6.	0.	129.61
849	2.9998	-6.5	0.	130.05
850	3.4996	-7.	0.	127.78
851	3.9995	-7.	0.	122.66
852	3.5	-3.	0.	129.75
853	3.	-4.	0.	129.56
854	2.5	1.	0.	122.
855	3.	2.	0.	124.52
856	3.	3.	0.	123.25
857	3.	3.5	0.	123.53
858	2.5	4.	0.	123.03
859	2.	4.	0.	123.48
860	2.057e-011	4.	0.	122.67
861	-0.5	4.	0.	126.9
862	-1.	3.5	0.	129.89
863	-1.	3.	0.	129.14
864	-1.	2.	0.	130.51
865	-1.	1.5	0.	132.42
866	-0.5	1.	0.	131.91
867	1.9024e-011	1.	0.	128.41
868	-7.	6.	0.	122.53
869	-7.5	6.	0.	127.51
870	-8.	5.5	0.	129.68
871	-8.	5.	0.	129.04
872	-5.	2.	0.	124.4
873	-4.5	2.	0.	129.74
874	-4.	2.5	0.	132.47
875	-4.	3.	0.	132.24
876	-4.	5.	0.	132.11
877	-4.	5.5	0.	132.17
878	-4.5	6.	0.	129.26
879	-5.	6.	0.	123.9
880	0.5	5.	0.	118.04
881	2.5	7.	0.	120.1
882	-8.	3.5	0.	126.58
883	-6.	1.5	0.	118.38
884	-8.	3.0259e-012	0.	121.91
885	8.	-2.6926e-011	0.	124.38
886	1.	4.5	0.	122.07
887	2.	7.5	0.	127.19
888	7.5	-4.	0.	115.01
889	4.5	-3.	0.	121.88
890	-5.5	2.	0.	118.54
891	7.9998	-7.	0.	124.33
892	8.	-4.	0.	122.75
893	-8.	8.5	0.	124.71
894	-7.5	8.5	0.	124.22
895	-7.	8.5	0.	123.73
896	-6.5	8.5	0.	123.39
897	-6.	8.5	0.	123.35
898	-5.5	8.5	0.	123.65
899	-5.	8.5	0.	124.24
900	-4.5	8.5	0.	124.98
901	-4.	8.5	0.	125.75
902	-3.5	8.5	0.	126.48
903	-3.	8.5	0.	127.21
904	-2.5	8.5	0.	127.92
905	-2.	8.5	0.	128.31
906	-1.5	8.5	0.	127.61
907	-1.	8.5	0.	125.5
908	-0.5	8.5	0.	122.97
909	1.8815e-011	8.5	0.	121.73
910	0.5	8.5	0.	122.49
911	1.	8.5	0.	124.44
912	1.5	8.5	0.	125.85
913	2.	8.5	0.	125.71
914	2.5	8.5	0.	124.62
915	3.	8.5	0.	123.78
916	3.5	8.5	0.	123.73
917	4.	8.5	0.	124.31
918	4.5	8.5	0.	125.07
919	5.5	8.5	0.	125.83
920	6.	8.5	0.	125.79
921	6.5	8.5	0.	125.62
922	7.	8.5	0.	125.44
923	7.5	8.5	0.	125.26
924	8.5	8.5	0.	124.97
925	8.5	8.	0.	124.9
926	8.5	7.5	0.	124.82
927	8.5	7.	0.	124.74
928	8.5	6.5	0.	124.69
929	8.5	6.	0.	124.67
930	8.5	5.5	0.	124.7
931	8.5	5.	0.	124.79
932	8.5	4.5	0.	124.93
933	8.5	4.	0.	125.08
934	8.5	3.5	0.	125.21
935	8.5	3.	0.	125.3
936	8.5	2.5	0.	125.37
937	8.5	2.	0.	125.45
938	8.5	1.5	0.	125.66
939	8.5	1.	0.	126.19
940	8.5	0.5	0.	127.38
941	8.5	-5.4646e-011	0.	129.96
942	8.5	-4.	0.	132.09
943	8.4999	-7.	0.	129.24
944	8.4998	-7.5	0.	127.73
945	8.4998	-8.	0.	127.19
946	8.4998	-8.5	0.	126.93
947	7.9997	-8.5	0.	125.27
948	7.4996	-8.5	0.	123.83
949	6.9995	-8.5	0.	122.69
950	5.9992	-8.5	0.	120.52
951	4.9991	-8.5	0.	119.43
952	4.4991	-8.5	0.	120.23
953	3.9992	-8.5	0.	121.79
954	3.4993	-8.5	0.	123.58
955	2.9995	-8.5	0.	125.08
956	2.4996	-8.5	0.	126.08
957	1.9998	-8.5	0.	126.62
958	1.4998	-8.5	0.	126.85
959	0.9999	-8.5	0.	126.88
960	0.49994	-8.5	0.	126.83
961	-3.9665e-005	-8.5	0.	126.72
962	-0.50002	-8.5	0.	126.6
963	-1.	-8.5	0.	126.47
964	-1.5	-8.5	0.	126.34
965	-2.	-8.5	0.	126.2
966	-2.5	-8.5	0.	126.07
967	-3.	-8.5	0.	125.93
968	-3.5	-8.5	0.	125.79
969	-4.	-8.5	0.	125.66
970	-4.5	-8.5	0.	125.52
971	-5.	-8.5	0.	125.38
972	-5.5	-8.5	0.	125.24
973	-6.	-8.5	0.	125.1
974	-6.5	-8.5	0.	124.97
975	-7.	-8.5	0.	124.84
976	-7.5	-8.5	0.	124.72
977	-8.	-8.5	0.	124.59
978	-8.5	-8.5	0.	124.47
979	-8.5	-8.	0.	124.46
980	-8.5	-7.5	0.	124.46
981	-8.5	-7.	0.	124.45
982	-8.5	-6.5	0.	124.45
983	-8.5	-6.	0.	124.44
984	-8.5	-5.5	0.	124.44
985	-8.5	-4.5	0.	124.42
986	-8.5	-4.	0.	124.41
987	-8.5	-3.5	0.	124.38
988	-8.5	-3.	0.	124.34
989	-8.5	-2.5	0.	124.29
990	-8.5	-2.	0.	124.24
991	-8.5	-1.5	0.	124.23
992	-8.5	-1.	0.	124.4
993	-8.5	-0.5	0.	125.01
994	-8.5	1.6052e-012	0.	126.91
995	-8.5	3.	0.	129.22
996	-8.5	3.5	0.	127.11
997	-8.5	4.	0.	126.55
998	-8.5	4.5	0.	126.83
999	-8.5	5.	0.	127.55
1000	-8.5	5.5	0.	128.22
1001	-8.5	6.	0.	128.06
1002	-8.5	6.5	0.	127.31
1003	-8.5	7.	0.	126.48
1004	-8.5	7.5	0.	125.84
1005	-8.5	8.	0.	125.4
1006	-8.5	8.5	0.	125.11
1007	-9.	-8.	0.	124.34
1008	-9.	-7.5	0.	124.34
1009	-9.	-7.	0.	124.34
1010	-9.	-6.5	0.	124.35
1011	-9.	-6.	0.	124.36
1012	-9.	-5.5	0.	124.38
1013	-9.	-5.	0.	124.41
1014	-9.	-4.5	0.	124.45
1015	-9.	-3.5	0.	124.59
1016	-9.	-3.	0.	124.7
1017	-9.	-2.5	0.	124.83
1018	-9.	-1.	0.	125.82
1019	-9.	-0.5	0.	126.75
1020	-9.	7.8085e-013	0.	128.26
1021	-9.	0.5	0.	129.41
1022	-9.	1.	0.	129.08
1023	-9.	1.5	0.	128.2
1024	-9.	2.	0.	129.87
1025	-9.	2.5	0.	130.46
1026	-9.	3.	0.	129.05
1027	-9.	3.5	0.	127.26
1028	-9.	4.5	0.	126.33
1029	-9.	5.	0.	126.78
1030	-9.	6.	0.	127.34
1031	-9.	6.5	0.	127.06
1032	-9.	7.	0.	126.61
1033	-9.	7.5	0.	126.15
1034	-9.	8.	0.	125.75
1035	-9.	8.5	0.	125.42
1036	-9.	-8.5	0.	124.34
1037	-8.5	-9.	0.	124.47
1038	-8.	-9.	0.	124.6
1039	-7.5	-9.	0.	124.73
1040	-7.	-9.	0.	124.86
1041	-6.5	-9.	0.	124.99
1042	-6.	-9.	0.	125.12
1043	-5.5	-9.	0.	125.26
1044	-5.	-9.	0.	125.4
1045	-4.5	-9.	0.	125.54
1046	-4.	-9.	0.	125.69
1047	-3.5	-9.	0.	125.83
1048	-3.	-9.	0.	125.98
1049	-2.5	-9.	0.	126.12
1050	-2.	-9.	0.	126.27
1051	-1.5	-9.	0.	126.41
1052	-1.	-9.	0.	126.55
1053	-0.50001	-9.	0.	126.67
1054	-2.4684e-005	-9.	0.	126.78
1055	0.49996	-9.	0.	126.83
1056	0.99993	-9.	0.	126.8
1057	1.4999	-9.	0.	126.63
1058	1.9998	-9.	0.	126.25
1059	2.4997	-9.	0.	125.57
1060	3.4995	-9.	0.	123.23
1061	3.9994	-9.	0.	121.81
1062	4.4993	-9.	0.	120.62
1063	4.9993	-9.	0.	119.96
1064	5.4993	-9.	0.	119.98
1065	5.9994	-9.	0.	120.57
1066	6.4995	-9.	0.	121.48
1067	6.9996	-9.	0.	122.57
1068	7.4997	-9.	0.	123.81
1069	7.9998	-9.	0.	125.24
1070	8.4999	-9.	0.	126.79
1071	8.9999	-8.5	0.	128.57
1072	8.9999	-8.	0.	128.96
1073	8.9999	-7.5	0.	129.68
1074	8.9999	-7.	0.	130.86
1075	9.	-5.5	0.	129.52
1076	9.	-5.	0.	131.39
1077	9.	-4.5	0.	133.32
1078	9.	-4.	0.	134.41
1079	9.	-3.5	0.	134.85
1080	9.	-3.	0.	134.27
1081	9.	-2.5	0.	133.4
1082	9.	-2.	0.	133.63
1083	9.	-1.5	0.	132.88
1084	9.	-1.	0.	133.23
1085	9.	-0.5	0.	133.11
1086	9.	-1.2336e-010	0.	131.58
1087	9.	0.5	0.	129.61
1088	9.	1.	0.	128.21
1089	9.	1.5	0.	127.3
1090	9.	2.	0.	126.68
1091	9.	2.5	0.	126.22
1092	9.	3.	0.	125.83
1093	9.	3.5	0.	125.49
1094	9.	4.5	0.	124.92
1095	9.	5.	0.	124.71
1096	9.	5.5	0.	124.57
1097	9.	6.5	0.	124.5
1098	9.	7.	0.	124.55
1099	9.	7.5	0.	124.63
1100	9.	8.	0.	124.73
1101	9.	8.5	0.	124.84
1102	8.5	9.	0.	125.05
1103	8.	9.	0.	125.16
1104	7.5	9.	0.	125.27
1105	7.	9.	0.	125.37
1106	6.5	9.	0.	125.46
1107	6.	9.	0.	125.5
1108	5.5	9.	0.	125.45
1109	5.	9.	0.	125.25
1110	4.5	9.	0.	124.88
1111	4.	9.	0.	124.45
1112	3.5	9.	0.	124.14
1113	3.	9.	0.	124.14
1114	2.5	9.	0.	124.46
1115	2.	9.	0.	124.81
1116	1.	9.	0.	124.02
1117	0.5	9.	0.	123.18
1118	-0.5	9.	0.	123.7
1119	-1.	9.	0.	125.05
1120	-1.5	9.	0.	126.3
1121	-2.	9.	0.	126.9
1122	-2.5	9.	0.	126.9
1123	-3.	9.	0.	126.56
1124	-3.5	9.	0.	126.11
1125	-4.	9.	0.	125.59
1126	-4.5	9.	0.	125.06
1127	-5.	9.	0.	124.55
1128	-5.5	9.	0.	124.15
1129	-6.	9.	0.	123.92
1130	-7.5	9.	0.	124.31
1131	-8.	9.	0.	124.61
1132	-8.5	9.	0.	124.89
1133	-4.5	5.5	0.	133.72
1134	-4.5	2.5	0.	134.27
1135	-6.	2.	0.	116.9
1136	-8.	3.	0.	126.55
1137	-7.5	5.5	0.	131.52
1138	-0.5	1.5	0.	135.06
1139	-0.5	3.5	0.	131.63
1140	2.5	3.5	0.	127.09
1141	2.5	1.5	0.	126.53
1142	3.5	-3.5	0.	133.79
1143	5.	-3.	0.	121.13
1144	7.	-4.	0.	117.14
1145	3.4998	-6.5	0.	131.98
1146	3.5	-1.5	0.	131.69
1147	0.5	-1.5	0.	131.56
1148	0.5	0.5	0.	128.1
1149	3.5	0.5	0.	133.89
1150	2.	7.	0.	125.84
1151	4.5	6.5	0.	131.69
1152	4.5	4.5	0.	132.81
1153	1.5	4.5	0.	127.94
1154	1.	5.	0.	122.76
1155	-1.5	5.5	0.	134.26
1156	-1.5	7.5	0.	133.75
1157	1.5	7.5	0.	132.42
1158	5.5	-0.5	0.	130.65
1159	8.5	-0.5	0.	134.66
1160	8.5	-3.5	0.	135.68
1161	8.5	-4.5	0.	133.17
1162	8.4999	-6.5	0.	132.81
1163	6.4997	-6.5	0.	134.4
1164	-6.5	0.5	0.	126.28
1165	-8.5	0.5	0.	131.14
1166	-9.	9.	0.	125.13
1167	9.	9.	0.	124.95
1168	8.9999	-9.	0.	128.35
1169	-9.	-9.	0.	124.34
1170	-4.5	5.	0.	133.26
1171	-4.5	4.5	0.	135.84
1172	-4.5	4.	0.	137.53
1173	-4.5	3.	0.	133.74
1174	-4.5	3.5	0.	136.02
1175	-5.	2.5	0.	126.88
1176	-5.5	2.5	0.	115.86
1177	-6.	2.5	0.	116.6
1178	-6.5	2.5	0.	119.12
1179	-7.5	3.	0.	125.26
1180	-7.5	3.5	0.	130.49
1181	-7.5	4.	0.	133.11
1182	-7.5	5.	0.	130.65
1183	-7.5	4.5	0.	132.19
1184	-7.	5.5	0.	124.2
1185	-5.	5.5	0.	126.07
1186	-5.5	5.5	0.	114.41
1187	-6.	5.5	0.	113.86
1188	-6.5	5.5	0.	113.63
1189	-0.5	3.	0.	131.04
1190	-0.5	2.5	0.	131.31
1191	1.3146e-011	3.5	0.	125.48
1192	0.5	3.5	0.	116.83
1193	1.	3.5	0.	117.83
1194	2.	3.5	0.	123.71
1195	1.5	3.5	0.	116.75
1196	2.5	3.	0.	125.91
1197	2.5	2.	0.	125.81
1198	2.5	2.5	0.	125.46
1199	2.	1.5	0.	120.13
1200	1.5	1.5	0.	113.32
1201	1.2804e-011	1.5	0.	128.42
1202	0.5	1.5	0.	118.34
1203	1.	1.5	0.	116.63
1204	4.	-3.5	0.	128.56
1205	4.5	-3.5	0.	118.52
1206	5.	-3.5	0.	120.16
1207	5.5	-3.5	0.	123.12
1208	6.5	-4.	0.	125.07
1209	6.5	-4.5	0.	133.
1210	5.9997	-6.5	0.	125.09
1211	5.4997	-6.5	0.	113.57
1212	4.9997	-6.5	0.	113.32
1213	3.9997	-6.5	0.	124.7
1214	4.4997	-6.5	0.	113.53
1215	3.4999	-6.	0.	131.4
1216	3.5	-5.5	0.	133.89
1217	3.5	-5.	0.	135.79
1218	3.5	-4.	0.	132.58
1219	3.5	-4.5	0.	134.71
1220	3.	-1.5	0.	126.7
1221	2.5	-1.5	0.	117.46
1222	2.	-1.5	0.	117.74
1223	1.	-1.5	0.	125.44
1224	1.5	-1.5	0.	116.78
1225	0.5	-1.	0.	129.58
1226	0.5	-3.9517e-011	0.	128.09
1227	0.5	-0.5	0.	128.33
1228	1.	0.5	0.	120.99
1229	1.5	0.5	0.	113.66
1230	2.	0.5	0.	116.54
1231	3.	0.5	0.	127.21
1232	2.5	0.5	0.	117.85
1233	3.5	1.6219e-010	0.	132.34
1234	3.5	-1.	0.	130.31
1235	3.5	-0.5	0.	130.68
1236	2.	6.5	0.	124.89
1237	2.5	6.5	0.	116.6
1238	3.	6.5	0.	117.33
1239	4.	6.5	0.	125.94
1240	3.5	6.5	0.	116.9
1241	4.5	6.	0.	130.33
1242	4.5	5.	0.	131.36
1243	4.5	5.5	0.	130.26
1244	4.	4.5	0.	127.2
1245	3.5	4.5	0.	119.21
1246	3.	4.5	0.	120.31
1247	2.	4.5	0.	125.87
1248	2.5	4.5	0.	119.13
1249	1.5	5.	0.	129.53
1250	1.5	5.5	0.	133.37
1251	1.	5.5	0.	123.6
1252	0.5	5.5	0.	115.53
1253	6.1437e-012	5.5	0.	117.05
1254	-1.	5.5	0.	126.9
1255	-0.5	5.5	0.	117.55
1256	-1.5	6.	0.	133.08
1257	-1.5	7.	0.	132.19
1258	-1.5	6.5	0.	131.94
1259	-1.	7.5	0.	128.05
1260	-0.5	7.5	0.	118.9
1261	1.0704e-011	7.5	0.	119.6
1262	1.	7.5	0.	127.32
1263	0.5	7.5	0.	119.01
1264	1.5	7.	0.	132.77
1265	1.5	6.	0.	134.31
1266	1.5	6.5	0.	134.77
1267	5.5	-3.	0.	125.02
1268	5.5	-2.5	0.	129.67
1269	5.5	-2.	0.	132.06
1270	5.5	-1.	0.	129.61
1271	5.5	-1.5	0.	131.08
1272	6.	-0.5	0.	123.61
1273	6.5	-0.5	0.	113.47
1274	7.	-0.5	0.	114.
1275	8.	-0.5	0.	126.78
1276	7.5	-0.5	0.	114.79
1277	8.5	-1.	0.	134.48
1278	8.5	-1.5	0.	137.33
1279	8.5	-2.	0.	139.18
1280	8.5	-3.	0.	135.41
1281	8.5	-2.5	0.	137.48
1282	8.	-3.5	0.	126.33
1283	7.5	-3.5	0.	115.18
1284	7.	-3.5	0.	117.47
1285	6.	-3.5	0.	129.68
1286	6.5	-3.5	0.	121.91
1287	7.	-4.5	0.	119.47
1288	8.	-4.5	0.	122.06
1289	7.5	-4.5	0.	109.76
1290	8.5	-5.	0.	131.9
1291	8.5	-6.	0.	131.8
1292	8.5	-5.5	0.	131.32
1293	6.9998	-6.5	0.	125.86
1294	7.4998	-6.5	0.	114.3
1295	6.4999	-6.	0.	132.44
1296	6.5	-5.	0.	135.3
1297	6.5	-5.5	0.	134.83
1298	-8.	2.5	0.	127.68
1299	-7.	2.5	0.	125.25
1300	-7.5	2.5	0.	119.34
1301	-6.5	2.	0.	120.9
1302	-6.5	1.	0.	125.
1303	-7.	0.5	0.	119.85
1304	-8.	0.5	0.	123.51
1305	-7.5	0.5	0.	111.64
1306	-8.5	2.	0.	133.02
1307	-8.5	1.5	0.	131.84
1308	-8.5	1.	0.	130.93
1309	-9.	9.5	0.	124.91
1310	-8.5	9.5	0.	124.72
1311	-8.	9.5	0.	124.51
1312	-7.5	9.5	0.	124.3
1313	-7.	9.5	0.	124.15
1314	-6.5	9.5	0.	124.1
1315	-6.	9.5	0.	124.18
1316	-5.5	9.5	0.	124.4
1317	-5.	9.5	0.	124.74
1318	-4.5	9.5	0.	125.16
1319	-4.	9.5	0.	125.58
1320	-3.	9.5	0.	126.21
1321	-2.5	9.5	0.	126.28
1322	-2.	9.5	0.	126.07
1323	-1.5	9.5	0.	125.54
1324	-1.	9.5	0.	124.76
1325	-0.5	9.5	0.	123.97
1326	7.7806e-012	9.5	0.	123.46
1327	0.5	9.5	0.	123.39
1328	1.	9.5	0.	123.63
1329	1.5	9.5	0.	123.92
1330	2.	9.5	0.	124.07
1331	2.5	9.5	0.	124.1
1332	3.	9.5	0.	124.12
1333	3.5	9.5	0.	124.24
1334	4.	9.5	0.	124.48
1335	4.5	9.5	0.	124.78
1336	5.	9.5	0.	125.06
1337	5.5	9.5	0.	125.26
1338	6.	9.5	0.	125.37
1339	6.5	9.5	0.	125.4
1340	7.	9.5	0.	125.38
1341	7.5	9.5	0.	125.31
1342	8.	9.5	0.	125.23
1343	8.5	9.5	0.	125.14
1344	9.5	9.5	0.	124.97
1345	9.5	9.	0.	124.85
1346	9.5	8.5	0.	124.71
1347	9.5	8.	0.	124.55
1348	9.5	7.5	0.	124.4
1349	9.5	7.	0.	124.28
1350	9.5	6.5	0.	124.21
1351	9.5	6.	0.	124.21
1352	9.5	5.5	0.	124.3
1353	9.5	5.	0.	124.48
1354	9.5	4.5	0.	124.77
1355	9.5	4.	0.	125.16
1356	9.5	3.5	0.	125.65
1357	9.5	3.	0.	126.24
1358	9.5	2.5	0.	126.95
1359	9.5	2.	0.	127.78
1360	9.5	1.5	0.	128.72
1361	9.5	1.	0.	129.77
1362	9.5	-9.6353e-011	0.	131.7
1363	9.5	-0.5	0.	131.99
1364	9.5	-1.	0.	131.57
1365	9.5	-1.5	0.	131.2
1366	9.5	-2.	0.	131.21
1367	9.5	-2.5	0.	131.78
1368	9.5	-3.	0.	132.69
1369	9.5	-3.5	0.	133.55
1370	9.5	-4.	0.	133.58
1371	9.5	-4.5	0.	132.74
1372	9.5	-5.	0.	131.33
1373	9.5	-5.5	0.	130.4
1374	9.5	-6.	0.	130.41
1375	9.5	-6.5	0.	130.94
1376	9.5	-7.	0.	131.05
1377	9.5	-7.5	0.	130.78
1378	9.5	-8.	0.	130.4
1379	9.5	-8.5	0.	130.06
1380	9.5	-9.	0.	129.79
1381	9.5	-9.5	0.	129.62
1382	9.	-9.5	0.	128.23
1383	8.4999	-9.5	0.	126.72
1384	7.9999	-9.5	0.	125.21
1385	7.4998	-9.5	0.	123.78
1386	6.9998	-9.5	0.	122.52
1387	6.4997	-9.5	0.	121.45
1388	5.9997	-9.5	0.	120.63
1389	5.4997	-9.5	0.	120.19
1390	4.9997	-9.5	0.	120.24
1391	4.4997	-9.5	0.	120.82
1392	3.9997	-9.5	0.	121.83
1393	3.4998	-9.5	0.	123.06
1394	2.9998	-9.5	0.	124.27
1395	2.4999	-9.5	0.	125.28
1396	1.9999	-9.5	0.	126.02
1397	1.4999	-9.5	0.	126.49
1398	0.99996	-9.5	0.	126.73
1399	0.49998	-9.5	0.	126.82
1400	-1.3547e-005	-9.5	0.	126.8
1401	-0.50001	-9.5	0.	126.72
1402	-1.	-9.5	0.	126.6
1403	-1.5	-9.5	0.	126.46
1404	-2.	-9.5	0.	126.31
1405	-2.5	-9.5	0.	126.16
1406	-3.	-9.5	0.	126.01
1407	-3.5	-9.5	0.	125.86
1408	-4.	-9.5	0.	125.71
1409	-4.5	-9.5	0.	125.56
1410	-5.	-9.5	0.	125.42
1411	-5.5	-9.5	0.	125.27
1412	-6.	-9.5	0.	125.14
1413	-6.5	-9.5	0.	125.
1414	-7.	-9.5	0.	124.87
1415	-7.5	-9.5	0.	124.73
1416	-8.	-9.5	0.	124.6
1417	-8.5	-9.5	0.	124.47
1418	-9.	-9.5	0.	124.34
1419	-9.5	-9.5	0.	124.21
1420	-9.5	-9.	0.	124.21
1421	-9.5	-8.5	0.	124.2
1422	-9.5	-8.	0.	124.2
1423	-9.5	-7.5	0.	124.2
1424	-9.5	-7.	0.	124.21
1425	-9.5	-6.5	0.	124.22
1426	-9.5	-6.	0.	124.25
1427	-9.5	-5.5	0.	124.28
1428	-9.5	-5.	0.	124.34
1429	-9.5	-4.5	0.	124.43
1430	-9.5	-3.5	0.	124.73
1431	-9.5	-3.	0.	124.97
1432	-9.5	-2.5	0.	125.29
1433	-9.5	-2.	0.	125.71
1434	-9.5	-1.5	0.	126.23
1435	-9.5	-1.	0.	126.87
1436	-9.5	-0.5	0.	127.58
1437	-9.5	3.077e-013	0.	128.19
1438	-9.5	0.5	0.	128.37
1439	-9.5	1.	0.	127.95
1440	-9.5	1.5	0.	127.73
1441	-9.5	2.	0.	127.89
1442	-9.5	2.5	0.	128.04
1443	-9.5	3.	0.	127.48
1444	-9.5	3.5	0.	126.6
1445	-9.5	4.	0.	125.96
1446	-9.5	4.5	0.	125.81
1447	-9.5	5.	0.	126.07
1448	-9.5	5.5	0.	126.48
1449	-9.5	6.	0.	126.78
1450	-9.5	6.5	0.	126.85
1451	-9.5	7.	0.	126.68
1452	-9.5	7.5	0.	126.38
1453	-9.5	8.	0.	126.
1454	-9.5	8.5	0.	125.63
1455	-9.5	9.	0.	125.31
1456	-9.5	9.5	0.	125.06
1457	-3.	-4.	0.	126.04
1458	-5.	-7.	0.	125.26
1459	-5.	-4.5	0.	125.05
1460	-7.	-0.5	0.	120.8
1461	-6.5	-2.	0.	123.31
1462	9.	4.	0.	125.18
1463	0.99998	-6.5	0.	126.18
1464	-6.	-2.5	0.	124.
1465	-4.5	-4.5	0.	125.28
1466	8.	5.5	0.	124.76
1467	-3.5	7.	0.	128.01
1468	1.5	9.	0.	124.72
1469	4.5	7.	0.	128.11
1470	-3.	-1.	0.	127.41
1471	2.9996	-9.	0.	124.55
1472	-3.5	-1.	0.	126.97
1473	-6.5	9.	0.	123.89
1474	-1.5	-1.	0.	127.71
1475	2.5	-5.	0.	126.48
1476	-6.5	1.5	0.	123.36
1477	4.	-3.	0.	126.46
1478	2.	-3.5	0.	124.72
1479	6.	0.5	0.	122.41
1480	-7.	9.	0.	124.04
1481	-8.	-0.5	0.	122.29
1482	4.5	7.5	0.	126.28
1483	-2.5	6.	0.	129.8
1484	-2.5	2.5	0.	129.44
1485	9.	6.	0.	124.5
1486	-3.	2.5	0.	130.12
1487	-2.	7.5	0.	130.88
1488	-1.5	8.	0.	129.91
1489	4.639e-011	-1.	0.	127.62
1490	-6.5	-2.5	0.	123.64
1491	-7.5	-4.	0.	124.23
1492	2.	-2.5	0.	121.56
1493	-5.	7.	0.	123.23
1494	6.	2.	0.	124.29
1495	-4.5	-3.	0.	125.35
1496	8.	8.5	0.	125.11
1497	-8.5	2.5	0.	133.78
1498	5.	-2.5	0.	123.26
1499	6.4994	-8.5	0.	121.63
1500	-2.	3.5	0.	129.34
1501	-5.5	-5.5	0.	124.97
1502	-5.5	-2.5	0.	124.46
1503	-2.5	4.	0.	129.92
1504	-2.5	7.5	0.	129.14
1505	-4.	7.	0.	127.21
1506	-3.	-6.5	0.	125.72
1507	3.3581e-011	-1.5	0.	129.27
1508	-3.5	9.5	0.	125.96
1509	-9.5	-4.	0.	124.56
1510	-2.	1.	0.	130.26
1511	-0.5	2.	0.	132.87
1512	7.5	2.5	0.	124.04
1513	-9.	4.	0.	126.39
1514	8.9999	-6.5	0.	131.59
1515	-6.	-4.5	0.	124.64
1516	5.5	4.5	0.	127.49
1517	3.	8.	0.	122.76
1518	-3.5	-8.	0.	125.75
1519	-9.1978e-008	-5.	0.	125.22
1520	6.	4.5	0.	126.24
1521	0.5	-3.5	0.	125.31
1522	9.	9.5	0.	125.05
1523	5.	-0.5	0.	128.8
1524	3.4994	-7.5	0.	125.43
1525	-1.2378e-005	-7.	0.	126.18
1526	-1.457e-006	-6.	0.	125.57
1527	-4.	-2.	0.	126.01
1528	7.	0.5	0.	117.93
1529	7.9999	-6.5	0.	124.8
1530	-4.	-4.	0.	125.57
1531	-1.	-5.	0.	125.73
1532	1.4261e-011	9.	0.	122.96
1533	5.	-1.5	0.	126.55
1534	4.	-1.5	0.	128.09
1535	3.	-3.5	0.	129.78
1536	-3.	4.	0.	129.84
1537	-1.	-6.5	0.	125.86
1538	-1.	-1.	0.	127.45
1539	-3.	-4.5	0.	125.9
1540	-4.	-3.	0.	125.74
1541	-9.	-2.	0.	125.02
1542	-3.5	-2.	0.	126.45
1543	-7.5	7.	0.	124.48
1544	-8.	6.5	0.	127.04
1545	6.	1.	0.	122.93
1546	-3.	6.	0.	129.87
1547	2.6017e-011	-7.3033e-011	0.	127.23
1548	5.	-2.	0.	125.82
1549	-2.	-5.5	0.	125.82
1550	-2.5	2.	0.	129.73
1551	5.5	1.	0.	125.37
1552	-6.	7.5	0.	121.4
1553	1.5	1.	0.	114.84
1554	6.4994	-7.5	0.	123.41
1555	5.	-1.	0.	127.86
1556	3.5	3.	0.	123.15
1557	-3.	-5.5	0.	125.73
1558	-8.	-2.	0.	123.52
1559	-4.	-6.	0.	125.47
1560	-4.5	1.5	0.	127.28
1561	7.	2.5	0.	123.93
1562	3.	-2.5	0.	126.56
1563	-3.	-6.	0.	125.7
1564	-1.	-6.	0.	125.73
1565	-4.	-6.5	0.	125.5
1566	-2.5	-4.5	0.	126.02
1567	5.4992	-8.5	0.	119.62
1568	5.4992	-7.5001	0.	118.25
1569	-1.	-5.5	0.	125.67
1570	-3.5	8.	0.	126.92
1571	7.	4.5	0.	125.11
1572	8.	4.5	0.	124.9
1573	-4.5	1.	0.	126.29
1574	-1.	5.	0.	126.31
1575	-7.	-1.	0.	121.73
1576	-1.	8.	0.	126.23
1577	5.	8.5	0.	125.62
1578	7.	7.5	0.	125.49
1579	4.	3.5	0.	125.11
1580	-9.	5.5	0.	127.23
1581	3.	1.	0.	126.89
1582	4.5	3.1546e-011	0.	128.78
1583	-5.	-5.5	0.	125.13
1584	-6.5	-4.5	0.	124.49
1585	-6.	-5.5	0.	124.82
1586	-7.	-3.5	0.	124.04
1587	-0.5	-4.5	0.	125.66
1588	4.	1.5	0.	128.04
1589	0.5	-3.	0.	125.81
1590	0.99996	-7.	0.	126.61
1591	-2.	-5.	0.	125.91
1592	-5.	-2.5	0.	124.94
1593	-4.	-5.5	0.	125.47
1594	3.	7.	0.	118.11
1595	-0.5	8.	0.	121.78
1596	6.9996	-7.	0.	124.08
1597	9.5	0.5	0.	130.84
1598	-0.5	-1.	0.	127.17
1599	-2.	-7.	0.	125.92
1600	-9.	-1.5	0.	125.31
1601	2.2048e-011	0.5	0.	128.6
1602	-9.	-4.	0.	124.51
1603	-7.	-6.5	0.	124.73
1604	-2.	-4.5	0.	126.08
1605	-7.5	8.	0.	124.12
1606	-6.	-0.5	0.	123.86
1607	9.	-6.	0.	130.73
1608	2.	1.	0.	117.05
1609	1.	1.	0.	117.5
1610	-6.	0.5	0.	124.18
1611	5.	4.5	0.	129.64
1612	6.5	3.5	0.	125.47
1613	1.5	8.	0.	128.03
1614	5.9995	-7.	0.	122.77
1615	1.5	-3.5	0.	124.12
1616	-5.2126e-006	-6.5	0.	125.87
1617	6.	1.5	0.	123.61
1618	3.	1.5	0.	126.53
1619	-3.	-7.	0.	125.76
1620	-1.	-7.	0.	126.03
1621	-2.5	1.	0.	129.83
1622	6.5	2.5	0.	124.28
1623	-7.	6.5	0.	122.24
1624	-2.	2.	0.	129.48
1625	-8.5	-5.	0.	124.43
1626	4.5	-0.5	0.	127.71
1627	-0.5	4.5	0.	123.46
1628	5.5	6.	0.	126.11
1629	4.5	-1.5	0.	126.25
1630	-1.5	1.	0.	130.99
1631	-2.	-6.5	0.	125.84
1632	2.	-5.	0.	125.24
1633	-2.5	3.5	0.	129.46
1634	7.5	3.	0.	124.55
1635	-3.	-5.	0.	125.79
1636	-4.	-7.	0.	125.53
1637	7.	6.5	0.	125.17
1638	-3.	-1.4259e-010	0.	128.37
1639	-4.3755e-007	-5.5	0.	125.33
1640	-5.5	-4.5	0.	124.83
1641	2.	5.75	0.	140.45
1642	2.25	6.	0.	125.65
1643	2.	6.25	0.	130.06
1644	1.75	6.	0.	134.38
1645	2.	5.25	0.	141.12
1646	2.25	5.	0.	127.14
1647	2.	4.75	0.	131.22
1648	1.75	5.	0.	132.55
1649	3.75	6.	0.	125.87
1650	4.	5.75	0.	139.8
1651	4.	6.25	0.	130.81
1652	4.25	6.	0.	132.68
1653	3.75	5.	0.	126.99
1654	4.	5.25	0.	139.96
1655	4.25	5.	0.	133.35
1656	4.	4.75	0.	131.57
1657	7.	-5.25	0.	136.65
1658	7.25	-5.	0.	119.66
1659	7.	-4.75	0.	125.57
1660	6.75	-5.	0.	133.06
1661	7.	-5.75	0.	138.45
1662	7.25	-6.	0.	122.97
1663	6.9999	-6.25	0.	130.56
1664	6.75	-6.	0.	133.6
1665	7.75	-5.	0.	119.91
1666	8.	-5.25	0.	137.58
1667	8.	-4.75	0.	127.01
1668	8.25	-5.	0.	131.64
1669	7.75	-6.	0.	122.5
1670	8.	-5.75	0.	138.66
1671	8.25	-6.	0.	132.74
1672	7.9999	-6.25	0.	129.55
1673	6.	-1.25	0.	136.9
1674	6.25	-1.	0.	122.49
1675	5.75	-1.	0.	130.85
1676	6.	-0.75	0.	128.18
1677	6.	-2.75	0.	138.81
1678	6.25	-3.	0.	126.38
1679	5.75	-3.	0.	130.29
1680	6.	-3.25	0.	133.05
1681	7.75	-1.	0.	125.47
1682	8.	-1.25	0.	141.85
1683	8.	-0.75	0.	132.08
1684	8.25	-1.	0.	135.53
1685	7.75	-3.	0.	126.3
1686	8.	-2.75	0.	141.92
1687	8.25	-3.	0.	135.92
1688	8.	-3.25	0.	131.76
1689	-8.	1.75	0.	140.43
1690	-7.75	2.	0.	125.16
1691	-8.	2.25	0.	132.18
1692	-8.25	2.	0.	134.59
1693	-8.	1.25	0.	139.34
1694	-7.75	1.	0.	122.2
1695	-8.	0.75	0.	129.04
1696	-8.25	1.	0.	132.38
1697	-7.25	2.	0.	123.1
1698	-7.	1.75	0.	135.36
1699	-7.	2.25	0.	129.03
1700	-6.75	2.	0.	126.45
1701	-7.25	1.	0.	119.5
1702	-7.	1.25	0.	133.7
1703	-6.75	1.	0.	126.77
1704	-7.	0.75	0.	124.46
1705	1.	-0.25	0.	136.27
1706	1.25	0.	0.	122.56
1707	0.75	-1.9758e-011	0.	129.41
1708	1.	0.25	0.	126.26
1709	1.	-0.75	0.	137.5
1710	1.25	-1.	0.	124.74
1711	1.	-1.25	0.	129.72
1712	0.75	-1.	0.	131.52
1713	2.75	0.	0.	126.13
1714	3.	-0.25	0.	139.65
1715	3.	0.25	0.	131.34
1716	3.25	8.1096e-011	0.	133.63
1717	2.75	-1.	0.	126.04
1718	3.	-0.75	0.	139.86
1719	3.	-1.25	0.	131.4
1720	3.25	-1.	0.	132.87
1721	-7.	4.75	0.	137.73
1722	-6.75	5.	0.	122.94
1723	-7.25	5.	0.	131.79
1724	-7.	5.25	0.	128.9
1725	-7.	3.25	0.	136.72
1726	-6.75	3.	0.	123.66
1727	-7.25	3.	0.	128.62
1728	-7.	2.75	0.	129.18
1729	-5.25	5.	0.	124.57
1730	-5.	4.75	0.	140.49
1731	-4.75	5.	0.	134.37
1732	-5.	5.25	0.	131.16
1733	-5.25	3.	0.	125.82
1734	-5.	3.25	0.	141.09
1735	-4.75	3.	0.	135.01
1736	-5.	2.75	0.	131.95
1737	-1.	6.75	0.	141.41
1738	-0.75	7.	0.	127.6
1739	-1.25	7.	0.	134.57
1740	-1.	7.25	0.	132.83
1741	-1.	6.25	0.	140.66
1742	-0.75	6.	0.	126.52
1743	-1.	5.75	0.	131.44
1744	-1.25	6.	0.	134.23
1745	0.75	7.	0.	128.
1746	1.	6.75	0.	142.24
1747	1.	7.25	0.	132.44
1748	1.25	7.	0.	134.76
1749	0.75	6.	0.	125.4
1750	1.	6.25	0.	141.16
1751	1.	5.75	0.	129.57
1752	1.25	6.	0.	134.43
1753	0.	2.75	0.	139.72
1754	0.25	3.	0.	125.75
1755	-0.25	3.	0.	132.91
1756	6.5732e-012	3.25	0.	130.49
1757	0.	2.25	0.	140.28
1758	0.25	2.	0.	126.73
1759	6.4019e-012	1.75	0.	132.48
1760	-0.25	2.	0.	134.43
1761	1.75	3.	0.	123.3
1762	2.	2.75	0.	135.27
1763	2.	3.25	0.	127.76
1764	2.25	3.	0.	128.56
1765	1.75	2.	0.	121.58
1766	2.	2.25	0.	134.43
1767	2.25	2.	0.	127.61
1768	2.	1.75	0.	125.12
1769	4.	-4.25	0.	141.43
1770	4.25	-4.	0.	127.3
1771	4.	-3.75	0.	133.31
1772	3.75	-4.	0.	134.98
1773	4.	-5.75	0.	139.09
1774	4.25	-6.	0.	123.37
1775	3.9999	-6.25	0.	129.72
1776	3.75	-6.	0.	132.68
1777	5.75	-4.	0.	127.82
1778	6.	-4.25	0.	140.84
1779	6.25	-4.	0.	130.93
1780	6.	-3.75	0.	133.79
1781	5.75	-6.	0.	122.66
1782	6.	-5.75	0.	136.66
1783	5.9999	-6.25	0.	129.32
1784	6.25	-6.	0.	132.75
1785	9.75	10.	0.	125.01
1786	10.	9.75	0.	125.
1787	-9.75	10.	0.	124.99
1788	-10.	9.75	0.	125.
1789	10.	-9.75	0.	130.7
1790	9.75	-10.	0.	130.11
1791	-10.	-9.75	0.	124.08
1792	-9.75	-10.	0.	124.14
1793	1.75	5.5	0.	139.67
1794	2.75	6.	0.	119.38
1795	2.5	6.25	0.	116.54
1796	3.25	6.	0.	119.38
1797	3.	6.25	0.	119.63
1798	3.5	6.25	0.	116.71
1799	2.75	5.	0.	121.19
1800	2.5	4.75	0.	118.64
1801	3.25	5.	0.	121.39
1802	3.	4.75	0.	122.14
1803	3.5	4.75	0.	118.87
1804	4.25	5.5	0.	137.27
1805	6.75	-5.5	0.	138.44
1806	7.5	-4.75	0.	108.81
1807	7.4999	-6.25	0.	112.66
1808	8.25	-5.5	0.	137.34
1809	6.	-1.75	0.	142.11
1810	5.75	-1.5	0.	136.27
1811	6.	-2.25	0.	142.3
1812	5.75	-2.	0.	137.4
1813	5.75	-2.5	0.	135.75
1814	6.75	-1.	0.	115.66
1815	6.5	-0.75	0.	113.14
1816	7.25	-1.	0.	116.33
1817	7.	-0.75	0.	116.04
1818	7.5	-0.75	0.	114.47
1819	6.75	-3.	0.	119.91
1820	6.5	-3.25	0.	119.68
1821	7.25	-3.	0.	119.18
1822	7.	-3.25	0.	119.69
1823	7.5	-3.25	0.	115.53
1824	8.	-1.75	0.	147.5
1825	8.25	-1.5	0.	142.03
1826	8.	-2.25	0.	147.65
1827	8.25	-2.	0.	143.72
1828	8.25	-2.5	0.	142.26
1829	-8.25	1.5	0.	138.2
1830	-7.5	2.25	0.	116.71
1831	-7.5	0.75	0.	110.86
1832	-6.75	1.5	0.	131.01
1833	0.75	-0.5	0.	134.83
1834	1.75	0.	0.	117.46
1835	1.5	0.25	0.	113.79
1836	2.25	0.	0.	119.12
1837	2.	0.25	0.	118.64
1838	2.5	0.25	0.	117.57
1839	1.75	-1.	0.	119.04
1840	1.5	-1.25	0.	116.41
1841	2.25	-1.	0.	119.31
1842	2.	-1.25	0.	119.72
1843	2.5	-1.25	0.	117.01
1844	3.25	-0.5	0.	137.38
1845	-7.	4.25	0.	142.6
1846	-7.25	4.5	0.	137.22
1847	-7.	3.75	0.	141.97
1848	-7.25	4.	0.	138.04
1849	-7.25	3.5	0.	135.72
1850	-6.25	5.	0.	115.51
1851	-6.5	5.25	0.	113.25
1852	-5.75	5.	0.	115.84
1853	-6.	5.25	0.	115.81
1854	-5.5	5.25	0.	113.95
1855	-6.25	3.	0.	118.07
1856	-6.5	2.75	0.	117.13
1857	-5.75	3.	0.	118.17
1858	-6.	2.75	0.	118.59
1859	-5.5	2.75	0.	115.54
1860	-5.	4.25	0.	145.88
1861	-4.75	4.5	0.	140.5
1862	-5.	3.75	0.	146.11
1863	-4.75	4.	0.	142.06
1864	-4.75	3.5	0.	140.82
1865	-1.25	6.5	0.	138.76
1866	-0.25	7.	0.	121.11
1867	-0.5	7.25	0.	118.51
1868	0.25	7.	0.	121.44
1869	5.3518e-012	7.25	0.	121.69
1870	0.5	7.25	0.	118.94
1871	-0.25	6.	0.	119.74
1872	-0.5	5.75	0.	117.52
1873	0.25	6.	0.	118.86
1874	3.0718e-012	5.75	0.	119.4
1875	0.5	5.75	0.	115.57
1876	1.25	6.5	0.	140.95
1877	-0.25	2.5	0.	137.82
1878	0.75	3.	0.	119.15
1879	0.5	3.25	0.	116.64
1880	1.25	3.	0.	118.58
1881	1.	3.25	0.	119.66
1882	1.5	3.25	0.	116.06
1883	0.75	2.	0.	119.23
1884	0.5	1.75	0.	117.92
1885	1.25	2.	0.	117.22
1886	1.	1.75	0.	118.68
1887	1.5	1.75	0.	113.36
1888	2.25	2.5	0.	132.27
1889	4.	-4.75	0.	145.51
1890	3.75	-4.5	0.	140.
1891	4.	-5.25	0.	144.79
1892	3.75	-5.	0.	140.74
1893	3.75	-5.5	0.	138.88
1894	4.75	-4.	0.	120.83
1895	4.5	-3.75	0.	117.88
1896	5.25	-4.	0.	121.52
1897	5.	-3.75	0.	121.98
1898	5.5	-3.75	0.	120.95
1899	4.75	-6.	0.	114.97
1900	4.4999	-6.25	0.	113.06
1901	5.25	-6.	0.	114.86
1902	4.9999	-6.25	0.	115.14
1903	5.4998	-6.25	0.	112.98
1904	6.	-4.75	0.	144.08
1905	6.25	-4.5	0.	138.68
1906	6.	-5.25	0.	142.01
1907	6.25	-5.	0.	139.54
1908	6.25	-5.5	0.	137.52
1909	9.25	10.	0.	125.04
1910	9.5	9.75	0.	124.99
1911	8.75	10.	0.	125.13
1912	9.	9.75	0.	125.06
1913	8.25	10.	0.	125.26
1914	8.5	9.75	0.	125.16
1915	7.75	10.	0.	125.38
1916	8.	9.75	0.	125.27
1917	7.25	10.	0.	125.49
1918	7.5	9.75	0.	125.38
1919	6.75	10.	0.	125.55
1920	7.	9.75	0.	125.46
1921	6.25	10.	0.	125.54
1922	6.5	9.75	0.	125.49
1923	5.75	10.	0.	125.43
1924	6.	9.75	0.	125.44
1925	5.25	10.	0.	125.22
1926	5.5	9.75	0.	125.31
1927	4.75	10.	0.	124.91
1928	5.	9.75	0.	125.07
1929	4.25	10.	0.	124.56
1930	4.5	9.75	0.	124.76
1931	3.75	10.	0.	124.23
1932	4.	9.75	0.	124.43
1933	3.25	10.	0.	123.98
1934	3.5	9.75	0.	124.16
1935	2.75	10.	0.	123.79
1936	3.	9.75	0.	123.99
1937	2.25	10.	0.	123.61
1938	2.5	9.75	0.	123.9
1939	1.75	10.	0.	123.38
1940	2.	9.75	0.	123.79
1941	1.25	10.	0.	123.08
1942	1.5	9.75	0.	123.57
1943	0.75	10.	0.	122.84
1944	1.	9.75	0.	123.27
1945	0.25	10.	0.	122.84
1946	0.5	9.75	0.	123.07
1947	-0.25	10.	0.	123.22
1948	3.8877e-012	9.75	0.	123.19
1949	-0.75	10.	0.	123.97
1950	-0.5	9.75	0.	123.74
1951	-1.25	10.	0.	124.92
1952	-1.	9.75	0.	124.59
1953	-1.75	10.	0.	125.8
1954	-1.5	9.75	0.	125.47
1955	-2.25	10.	0.	126.39
1956	-2.	9.75	0.	126.13
1957	-2.75	10.	0.	126.6
1958	-2.5	9.75	0.	126.43
1959	-3.25	10.	0.	126.46
1960	-3.	9.75	0.	126.41
1961	-3.75	10.	0.	126.06
1962	-3.5	9.75	0.	126.13
1963	-4.25	10.	0.	125.54
1964	-4.	9.75	0.	125.7
1965	-4.75	10.	0.	124.98
1966	-4.5	9.75	0.	125.2
1967	-5.25	10.	0.	124.48
1968	-5.	9.75	0.	124.72
1969	-5.75	10.	0.	124.12
1970	-5.5	9.75	0.	124.33
1971	-6.25	10.	0.	123.92
1972	-6.	9.75	0.	124.07
1973	-6.75	10.	0.	123.89
1974	-6.5	9.75	0.	123.98
1975	-7.25	10.	0.	124.01
1976	-7.	9.75	0.	124.03
1977	-7.75	10.	0.	124.23
1978	-7.5	9.75	0.	124.2
1979	-8.25	10.	0.	124.49
1980	-8.	9.75	0.	124.43
1981	-8.75	10.	0.	124.75
1982	-8.5	9.75	0.	124.67
1983	-9.25	10.	0.	124.92
1984	-9.	9.75	0.	124.88
1985	-9.5	9.75	0.	125.02
1986	10.	9.25	0.	124.92
1987	9.75	9.5	0.	124.98
1988	10.	8.75	0.	124.74
1989	9.75	9.	0.	124.86
1990	10.	8.25	0.	124.49
1991	9.75	8.5	0.	124.67
1992	10.	7.75	0.	124.23
1993	9.75	8.	0.	124.46
1994	10.	7.25	0.	123.99
1995	9.75	7.5	0.	124.25
1996	10.	6.75	0.	123.81
1997	9.75	7.	0.	124.08
1998	10.	6.25	0.	123.72
1999	9.75	6.5	0.	123.97
2000	10.	5.75	0.	123.74
2001	9.75	6.	0.	123.95
2002	10.	5.25	0.	123.89
2003	9.75	5.5	0.	124.04
2004	10.	4.75	0.	124.18
2005	9.75	5.	0.	124.24
2006	10.	4.25	0.	124.62
2007	9.75	4.5	0.	124.57
2008	10.	3.75	0.	125.22
2009	9.75	4.	0.	125.02
2010	10.	3.25	0.	125.96
2011	9.75	3.5	0.	125.6
2012	10.	2.75	0.	126.89
2013	9.75	3.	0.	126.31
2014	10.	2.25	0.	128.
2015	9.75	2.5	0.	127.17
2016	10.	1.75	0.	129.31
2017	9.75	2.	0.	128.19
2018	10.	1.25	0.	130.74
2019	9.75	1.5	0.	129.36
2020	10.	0.75	0.	132.06
2021	9.75	1.	0.	130.61
2022	10.	0.25	0.	132.83
2023	9.75	0.5	0.	131.74
2024	10.	-0.25	0.	132.56
2025	9.75	-4.8179e-011	0.	132.36
2026	10.	-0.75	0.	131.14
2027	9.75	-0.5	0.	132.04
2028	10.	-1.25	0.	129.29
2029	9.75	-1.	0.	130.88
2030	10.	-1.75	0.	128.18
2031	9.75	-1.5	0.	129.8
2032	10.	-2.25	0.	128.58
2033	9.75	-2.	0.	129.59
2034	10.	-2.75	0.	130.39
2035	9.75	-2.5	0.	130.48
2036	10.	-3.25	0.	132.71
2037	9.75	-3.	0.	132.14
2038	10.	-3.75	0.	134.14
2039	9.75	-3.5	0.	133.68
2040	10.	-4.25	0.	133.77
2041	9.75	-4.	0.	134.02
2042	10.	-4.75	0.	131.92
2043	9.75	-4.5	0.	132.91
2044	10.	-5.25	0.	129.98
2045	9.75	-5.	0.	131.04
2046	10.	-5.75	0.	129.33
2047	9.75	-5.5	0.	129.8
2048	10.	-6.25	0.	130.12
2049	9.75	-6.	0.	129.94
2050	10.	-6.75	0.	131.32
2051	9.75	-6.5	0.	130.86
2052	10.	-7.25	0.	132.
2053	9.75	-7.	0.	131.46
2054	10.	-7.75	0.	132.01
2055	9.75	-7.5	0.	131.47
2056	10.	-8.25	0.	131.66
2057	9.75	-8.	0.	131.14
2058	10.	-8.75	0.	131.23
2059	9.75	-8.5	0.	130.75
2060	10.	-9.25	0.	130.88
2061	9.75	-9.	0.	130.41
2062	9.75	-9.5	0.	130.19
2063	-10.	9.25	0.	125.13
2064	-9.75	9.5	0.	125.03
2065	-10.	8.75	0.	125.49
2066	-9.75	9.	0.	125.28
2067	-10.	8.25	0.	125.99
2068	-9.75	8.5	0.	125.68
2069	-10.	7.75	0.	126.53
2070	-9.75	8.	0.	126.14
2071	-10.	7.25	0.	126.96
2072	-9.75	7.5	0.	126.58
2073	-10.	6.75	0.	127.14
2074	-9.75	7.	0.	126.91
2075	-10.	6.25	0.	126.93
2076	-9.75	6.5	0.	126.99
2077	-10.	5.75	0.	126.32
2078	-9.75	6.	0.	126.75
2079	-10.	5.25	0.	125.46
2080	-9.75	5.5	0.	126.2
2081	-10.	4.75	0.	124.72
2082	-9.75	5.	0.	125.54
2083	-10.	4.25	0.	124.51
2084	-9.75	4.5	0.	125.12
2085	-10.	3.75	0.	125.01
2086	-9.75	4.	0.	125.27
2087	-10.	3.25	0.	125.92
2088	-9.75	3.5	0.	126.01
2089	-10.	2.75	0.	126.59
2090	-9.75	3.	0.	126.95
2091	-10.	2.25	0.	126.59
2092	-9.75	2.5	0.	127.4
2093	-10.	1.75	0.	126.32
2094	-9.75	2.	0.	127.15
2095	-10.	1.25	0.	126.64
2096	-9.75	1.5	0.	126.98
2097	-10.	0.75	0.	127.68
2098	-9.75	1.	0.	127.5
2099	-10.	0.25	0.	128.62
2100	-9.75	0.5	0.	128.33
2101	-10.	-0.25	0.	128.81
2102	-9.75	1.5125e-013	0.	128.57
2103	-10.	-0.75	0.	128.28
2104	-9.75	-0.5	0.	128.13
2105	-10.	-1.25	0.	127.42
2106	-9.75	-1.	0.	127.37
2107	-10.	-1.75	0.	126.55
2108	-9.75	-1.5	0.	126.59
2109	-10.	-2.25	0.	125.83
2110	-9.75	-2.	0.	125.93
2111	-10.	-2.75	0.	125.28
2112	-9.75	-2.5	0.	125.4
2113	-10.	-3.25	0.	124.87
2114	-9.75	-3.	0.	125.01
2115	-10.	-3.75	0.	124.59
2116	-9.75	-3.5	0.	124.72
2117	-10.	-4.25	0.	124.39
2118	-9.75	-4.	0.	124.51
2119	-10.	-4.75	0.	124.26
2120	-9.75	-4.5	0.	124.37
2121	-10.	-5.25	0.	124.17
2122	-9.75	-5.	0.	124.27
2123	-10.	-5.75	0.	124.12
2124	-9.75	-5.5	0.	124.21
2125	-10.	-6.25	0.	124.09
2126	-9.75	-6.	0.	124.17
2127	-10.	-6.75	0.	124.07
2128	-9.75	-6.5	0.	124.15
2129	-10.	-7.25	0.	124.06
2130	-9.75	-7.	0.	124.14
2131	-10.	-7.75	0.	124.06
2132	-9.75	-7.5	0.	124.13
2133	-10.	-8.25	0.	124.07
2134	-9.75	-8.	0.	124.13
2135	-10.	-8.75	0.	124.07
2136	-9.75	-8.5	0.	124.14
2137	-10.	-9.25	0.	124.08
2138	-9.75	-9.	0.	124.14
2139	-9.75	-9.5	0.	124.14
2140	-9.25	-10.	0.	124.27
2141	-9.5	-9.75	0.	124.21
2142	-8.75	-10.	0.	124.41
2143	-9.	-9.75	0.	124.34
2144	-8.25	-10.	0.	124.54
2145	-8.5	-9.75	0.	124.47
2146	-7.75	-10.	0.	124.67
2147	-8.	-9.75	0.	124.6
2148	-7.25	-10.	0.	124.8
2149	-7.5	-9.75	0.	124.73
2150	-6.75	-10.	0.	124.94
2151	-7.	-9.75	0.	124.87
2152	-6.25	-10.	0.	125.07
2153	-6.5	-9.75	0.	125.
2154	-5.75	-10.	0.	125.21
2155	-6.	-9.75	0.	125.14
2156	-5.25	-10.	0.	125.35
2157	-5.5	-9.75	0.	125.28
2158	-4.75	-10.	0.	125.49
2159	-5.	-9.75	0.	125.42
2160	-4.25	-10.	0.	125.64
2161	-4.5	-9.75	0.	125.56
2162	-3.75	-10.	0.	125.79
2163	-4.	-9.75	0.	125.71
2164	-3.25	-10.	0.	125.94
2165	-3.5	-9.75	0.	125.86
2166	-2.75	-10.	0.	126.09
2167	-3.	-9.75	0.	126.01
2168	-2.25	-10.	0.	126.25
2169	-2.5	-9.75	0.	126.16
2170	-1.75	-10.	0.	126.4
2171	-2.	-9.75	0.	126.32
2172	-1.25	-10.	0.	126.54
2173	-1.5	-9.75	0.	126.46
2174	-0.75	-10.	0.	126.67
2175	-1.	-9.75	0.	126.6
2176	-0.25	-10.	0.	126.77
2177	-0.5	-9.75	0.	126.72
2178	0.25	-10.	0.	126.81
2179	-6.7736e-006	-9.75	0.	126.81
2180	0.75	-10.	0.	126.76
2181	0.49999	-9.75	0.	126.82
2182	1.25	-10.	0.	126.57
2183	0.99998	-9.75	0.	126.72
2184	1.75	-10.	0.	126.19
2185	1.5	-9.75	0.	126.46
2186	2.25	-10.	0.	125.57
2187	2.	-9.75	0.	125.98
2188	2.75	-10.	0.	124.68
2189	2.4999	-9.75	0.	125.23
2190	3.25	-10.	0.	123.59
2191	2.9999	-9.75	0.	124.22
2192	3.75	-10.	0.	122.42
2193	3.4999	-9.75	0.	123.03
2194	4.25	-10.	0.	121.36
2195	3.9999	-9.75	0.	121.83
2196	4.75	-10.	0.	120.6
2197	4.4998	-9.75	0.	120.85
2198	5.25	-10.	0.	120.29
2199	4.9998	-9.75	0.	120.28
2200	5.75	-10.	0.	120.46
2201	5.4998	-9.75	0.	120.22
2202	6.25	-10.	0.	121.05
2203	5.9998	-9.75	0.	120.65
2204	6.75	-10.	0.	121.97
2205	6.4999	-9.75	0.	121.45
2206	7.25	-10.	0.	123.14
2207	6.9999	-9.75	0.	122.51
2208	7.75	-10.	0.	124.48
2209	7.4999	-9.75	0.	123.78
2210	8.25	-10.	0.	125.95
2211	7.9999	-9.75	0.	125.2
2212	8.75	-10.	0.	127.45
2213	8.5	-9.75	0.	126.71
2214	9.25	-10.	0.	128.88
2215	9.	-9.75	0.	128.21
2216	9.5	-9.75	0.	129.59
2217	-3.5	-3.25	0.	126.02
2218	-3.25	-3.5	0.	126.08
2219	-3.5	-3.75	0.	125.88
2220	-3.75	-3.5	0.	125.79
2221	-2.25	-4.	0.	126.26
2222	-2.5	-3.75	0.	126.32
2223	-2.75	-4.	0.	126.12
2224	-2.5	-4.25	0.	126.11
2225	-4.25	-2.5	0.	125.63
2226	-3.75	-2.5	0.	126.06
2227	-4.	-2.25	0.	125.93
2228	-4.	-2.75	0.	125.8
2229	-3.5	-2.75	0.	126.17
2230	-3.25	-3.	0.	126.25
2231	-3.75	-3.	0.	125.91
2232	-3.	-3.25	0.	126.31
2233	-2.75	-3.5	0.	126.32
2234	-3.	-3.75	0.	126.13
2235	-3.5	-4.25	0.	125.77
2236	-3.25	-4.	0.	125.93
2237	-3.75	-4.	0.	125.69
2238	-4.25	-3.5	0.	125.48
2239	-4.	-3.75	0.	125.6
2240	-4.	-3.25	0.	125.69
2241	-3.75	-4.5	0.	125.62
2242	-4.	-4.75	0.	125.5
2243	-4.25	-4.5	0.	125.4
2244	-4.	-4.25	0.	125.54
2245	-1.75	-4.	0.	126.33
2246	-2.	-3.75	0.	126.46
2247	-2.	-4.25	0.	126.2
2248	-1.5	-4.25	0.	126.19
2249	-1.25	-4.5	0.	125.98
2250	-1.5	-4.75	0.	125.96
2251	-1.75	-4.5	0.	126.06
2252	-4.5	-2.25	0.	125.46
2253	-4.5	-2.75	0.	125.38
2254	-4.75	-2.5	0.	125.18
2255	-3.25	-2.5	0.	126.43
2256	-3.5	-2.25	0.	126.35
2257	-3.	-2.75	0.	126.5
2258	-2.75	-3.	0.	126.54
2259	-2.5	-3.25	0.	126.55
2260	-2.25	-3.5	0.	126.52
2261	-3.5	-4.75	0.	125.69
2262	-3.25	-4.5	0.	125.81
2263	-4.5	-3.75	0.	125.3
2264	-4.75	-4.	0.	125.15
2265	-4.5	-4.25	0.	125.29
2266	-4.25	-4.	0.	125.43
2267	-4.75	-3.5	0.	125.14
2268	-4.5	-3.25	0.	125.33
2269	-1.25	-4.	0.	126.29
2270	-1.5	-3.75	0.	126.52
2271	-1.	-4.25	0.	126.08
2272	-1.	-4.75	0.	125.82
2273	-0.75	-4.5	0.	125.79
2274	-4.5	-1.75	0.	125.57
2275	-4.75	-2.	0.	125.23
2276	-4.25	-2.	0.	125.76
2277	-4.25	-1.5	0.	125.91
2278	-3.75	-1.5	0.	126.44
2279	-4.	-1.25	0.	126.3
2280	-4.	-1.75	0.	126.1
2281	-3.	-2.25	0.	126.71
2282	-2.75	-2.5	0.	126.75
2283	-4.75	-5.	0.	125.19
2284	-5.25	-5.	0.	125.
2285	-5.	-4.75	0.	125.07
2286	-5.	-5.25	0.	125.11
2287	-2.5	-2.75	0.	126.79
2288	-2.25	-3.	0.	126.79
2289	-2.	-3.25	0.	126.75
2290	-1.75	-3.5	0.	126.65
2291	-0.75	-4.	0.	126.12
2292	-1.	-3.75	0.	126.47
2293	-4.75	-1.5	0.	125.33
2294	-4.5	-1.25	0.	125.71
2295	-3.25	-1.5	0.	126.88
2296	-3.5	-1.25	0.	126.83
2297	-3.5	-1.75	0.	126.57
2298	-0.5	-5.25	0.	125.51
2299	-0.25	-5.	0.	125.36
2300	-0.75	-5.	0.	125.62
2301	-0.5	-4.75	0.	125.58
2302	-1.5	-5.25	0.	125.82
2303	-1.25	-5.	0.	125.8
2304	-1.75	-5.	0.	125.89
2305	-2.5	-5.25	0.	125.84
2306	-2.5	-4.75	0.	125.95
2307	-2.25	-5.	0.	125.89
2308	-2.75	-5.	0.	125.83
2309	-3.75	-5.	0.	125.57
2310	-3.5	-5.25	0.	125.63
2311	-3.25	-5.	0.	125.72
2312	-4.25	-5.	0.	125.38
2313	-4.	-5.25	0.	125.47
2314	-4.5	-5.25	0.	125.3
2315	-4.5	-4.75	0.	125.29
2316	-5.	-3.75	0.	124.99
2317	-5.25	-4.	0.	124.88
2318	-5.	-4.25	0.	125.03
2319	-5.	-3.25	0.	124.96
2320	-5.25	-3.5	0.	124.81
2321	-5.25	-3.	0.	124.75
2322	-4.75	-3.	0.	125.15
2323	-5.	-2.75	0.	124.94
2324	-5.	-1.75	0.	124.99
2325	-5.25	-2.	0.	124.68
2326	-5.	-2.25	0.	124.95
2327	-3.25	-0.5	0.	127.59
2328	-2.75	-0.5	0.	128.01
2329	-3.	-0.75	0.	127.63
2330	-3.	-0.25	0.	128.11
2331	-3.	-1.75	0.	126.95
2332	-2.75	-2.	0.	126.97
2333	-3.25	-2.	0.	126.64
2334	-2.5	-2.25	0.	127.01
2335	-2.25	-2.5	0.	127.03
2336	-2.	-2.75	0.	127.03
2337	-1.75	-3.	0.	126.99
2338	0.5	-5.25	0.	125.04
2339	0.75	-5.5	0.	125.13
2340	0.5	-5.75	0.	125.35
2341	0.25	-5.5	0.	125.24
2342	-0.25	-4.	0.	125.78
2343	-0.5	-3.75	0.	126.25
2344	-0.5	-4.25	0.	125.83
2345	-5.8443e-009	-4.25	0.	125.43
2346	0.25	-4.5	0.	125.08
2347	-5.054e-008	-4.75	0.	125.25
2348	-0.25	-4.5	0.	125.48
2349	0.5	-4.75	0.	124.9
2350	0.75	-5.	0.	124.83
2351	0.25	-5.	0.	125.07
2352	-1.25	-3.5	0.	126.7
2353	-1.5	-3.25	0.	126.9
2354	-5.25	-1.5	0.	124.7
2355	-5.	-1.25	0.	125.07
2356	-4.25	-1.	0.	126.1
2357	-4.	-0.75	0.	126.54
2358	-3.75	-1.	0.	126.69
2359	-3.75	-0.5	0.	127.
2360	-3.5	-0.25	0.	127.55
2361	-3.5	-0.75	0.	127.15
2362	-2.75	-1.5	0.	127.22
2363	-3.	-1.25	0.	127.25
2364	-0.5	-5.75	0.	125.58
2365	-0.75	-5.5	0.	125.59
2366	-0.25	-5.5	0.	125.42
2367	-1.5	-5.75	0.	125.78
2368	-1.75	-5.5	0.	125.8
2369	-1.25	-5.5	0.	125.73
2370	-2.5	-5.75	0.	125.79
2371	-2.25	-5.5	0.	125.81
2372	-2.75	-5.5	0.	125.76
2373	-3.5	-5.75	0.	125.61
2374	-3.25	-5.5	0.	125.67
2375	-3.75	-5.5	0.	125.54
2376	-4.5	-5.75	0.	125.32
2377	-4.75	-5.5	0.	125.22
2378	-4.25	-5.5	0.	125.39
2379	-5.75	-5.	0.	124.82
2380	-5.5	-5.25	0.	124.94
2381	-5.5	-4.75	0.	124.87
2382	-5.5	-3.75	0.	124.7
2383	-5.75	-4.	0.	124.63
2384	-5.5	-4.25	0.	124.79
2385	-5.5	-3.25	0.	124.6
2386	-5.75	-3.5	0.	124.5
2387	-5.75	-3.	0.	124.37
2388	-5.5	-2.75	0.	124.5
2389	-5.5	-1.75	0.	124.38
2390	-5.75	-2.	0.	124.1
2391	-5.5	-2.25	0.	124.42
2392	-2.5	-0.25	0.	128.47
2393	-2.5	-0.75	0.	127.93
2394	-2.25	-0.5	0.	128.23
2395	-2.5	-1.75	0.	127.24
2396	-2.25	-2.	0.	127.24
2397	-2.	-2.25	0.	127.26
2398	-1.75	-2.5	0.	127.29
2399	1.	-5.25	0.	124.91
2400	1.	-5.75	0.	125.37
2401	1.25	-5.5	0.	125.18
2402	0.75	-6.	0.	125.58
2403	0.5	-6.25	0.	125.75
2404	0.25	-6.	0.	125.55
2405	-2.5	0.25	0.	129.08
2406	-2.25	-1.5531e-010	0.	128.89
2407	-2.75	-1.4866e-010	0.	128.57
2408	0.25	-4.	0.	125.29
2409	-2.3523e-009	-3.75	0.	125.8
2410	0.5	-4.25	0.	124.94
2411	0.75	-4.5	0.	124.71
2412	1.	-4.75	0.	124.64
2413	1.25	-5.	0.	124.75
2414	-0.75	-3.5	0.	126.6
2415	-1.	-3.25	0.	126.95
2416	-1.5	-2.75	0.	127.25
2417	-1.25	-3.	0.	127.15
2418	-5.75	-6.	0.	124.96
2419	-6.	-6.25	0.	124.92
2420	-6.25	-6.	0.	124.83
2421	-6.	-5.75	0.	124.86
2422	-2.75	0.5	0.	129.17
2423	-3.	0.75	0.	129.23
2424	-3.25	0.5	0.	128.64
2425	-3.	0.25	0.	128.66
2426	-5.75	-1.5	0.	124.02
2427	-5.5	-1.25	0.	124.41
2428	-4.75	-1.	0.	125.45
2429	-4.5	-0.75	0.	125.84
2430	-4.25	-0.5	0.	126.28
2431	-4.	-0.25	0.	126.81
2432	-3.75	-1.0609e-010	0.	127.36
2433	-3.5	0.25	0.	128.05
2434	-3.25	-1.3144e-010	0.	128.07
2435	-2.5	-1.25	0.	127.53
2436	-2.25	-1.	0.	127.75
2437	-2.75	-1.	0.	127.55
2438	-2.25	-1.5	0.	127.45
2439	-0.5	-6.25	0.	125.75
2440	-0.25	-6.	0.	125.61
2441	-0.75	-6.	0.	125.69
2442	-1.75	-6.	0.	125.8
2443	-1.5	-6.25	0.	125.83
2444	-1.25	-6.	0.	125.76
2445	-2.25	-6.	0.	125.79
2446	-2.	-5.75	0.	125.81
2447	-2.	-6.25	0.	125.82
2448	-2.5	-6.25	0.	125.79
2449	-2.75	-6.	0.	125.74
2450	-3.5	-6.25	0.	125.61
2451	-3.75	-6.	0.	125.54
2452	-3.25	-6.	0.	125.65
2453	-4.75	-6.	0.	125.25
2454	-4.5	-6.25	0.	125.34
2455	-4.25	-6.	0.	125.4
2456	-5.25	-6.	0.	125.1
2457	-5.	-6.25	0.	125.2
2458	-5.	-5.75	0.	125.16
2459	-5.5	-6.25	0.	125.06
2460	-5.5	-5.75	0.	125.
2461	-6.25	-5.	0.	124.67
2462	-6.	-4.75	0.	124.69
2463	-6.	-5.25	0.	124.78
2464	-6.	-3.75	0.	124.44
2465	-6.25	-4.	0.	124.42
2466	-6.	-4.25	0.	124.57
2467	-6.	-3.25	0.	124.28
2468	-6.25	-3.5	0.	124.26
2469	-6.25	-3.	0.	124.05
2470	-6.	-2.75	0.	124.1
2471	-6.	-1.75	0.	123.74
2472	-6.25	-2.	0.	123.56
2473	-6.	-2.25	0.	123.91
2474	-2.	-0.25	0.	128.65
2475	-2.	-0.75	0.	128.04
2476	-1.75	-0.5	0.	128.21
2477	-2.	-1.75	0.	127.45
2478	-1.75	-2.	0.	127.47
2479	5.75	2.5	0.	125.35
2480	6.	2.75	0.	125.32
2481	6.	2.25	0.	124.63
2482	6.25	2.5	0.	124.63
2483	5.5	2.25	0.	125.54
2484	5.25	2.5	0.	125.9
2485	5.5	2.75	0.	126.02
2486	1.25	-6.	0.	125.79
2487	0.99999	-6.25	0.	125.9
2488	-2.25	0.5	0.	129.59
2489	-2.5	0.75	0.	129.61
2490	0.75	-4.	0.	124.77
2491	0.5	-3.75	0.	125.16
2492	1.	-4.25	0.	124.54
2493	1.25	-4.5	0.	124.54
2494	1.5	-4.75	0.	124.65
2495	1.5	-5.25	0.	125.02
2496	1.75	-5.	0.	125.01
2497	-0.25	-3.5	0.	126.27
2498	-0.5	-3.25	0.	126.83
2499	-1.5	-2.25	0.	127.5
2500	-1.25	-2.5	0.	127.54
2501	-5.75	-6.5	0.	125.02
2502	-6.25	-6.5	0.	124.89
2503	-6.	-6.75	0.	124.98
2504	-6.5	-5.75	0.	124.74
2505	-6.5	-6.25	0.	124.8
2506	-6.75	-6.	0.	124.72
2507	-3.	1.25	0.	129.74
2508	-3.25	1.	0.	129.28
2509	-2.75	1.	0.	129.67
2510	-2.	0.25	0.	129.4
2511	-1.75	-1.5166e-010	0.	129.02
2512	-0.75	-3.	0.	127.19
2513	-1.	-2.75	0.	127.44
2514	6.25	3.	0.	125.33
2515	6.	3.25	0.	125.94
2516	5.75	3.	0.	125.99
2517	-6.25	-1.5	0.	123.31
2518	-6.	-1.25	0.	123.65
2519	-5.25	-1.	0.	124.78
2520	-5.	-0.75	0.	125.15
2521	-4.5	-0.25	0.	125.94
2522	-4.75	-0.5	0.	125.54
2523	-4.25	-7.7351e-011	0.	126.46
2524	-4.	0.25	0.	127.16
2525	-3.75	0.5	0.	127.85
2526	-3.5	0.75	0.	128.69
2527	5.25	2.	0.	125.77
2528	5.	2.25	0.	126.13
2529	5.	1.75	0.	126.44
2530	4.75	2.	0.	126.31
2531	-2.	-1.25	0.	127.67
2532	-1.75	-1.	0.	127.76
2533	-1.75	-1.5	0.	127.58
2534	5.5	1.75	0.	125.31
2535	5.75	2.	0.	124.83
2536	6.75	3.	0.	124.79
2537	6.5	3.25	0.	125.23
2538	6.5	2.75	0.	124.64
2539	6.5	1.75	0.	122.81
2540	6.75	2.	0.	123.19
2541	6.25	2.	0.	123.83
2542	6.5	2.25	0.	123.83
2543	4.75	2.5	0.	125.94
2544	5.	2.75	0.	126.33
2545	0.49999	-6.75	0.	126.15
2546	0.74999	-6.5	0.	126.07
2547	0.24999	-6.5	0.	125.92
2548	-0.5	-6.75	0.	125.97
2549	-0.75	-6.5	0.	125.86
2550	-0.25	-6.5	0.	125.87
2551	-1.5	-6.75	0.	125.92
2552	-1.25	-6.5	0.	125.86
2553	-1.75	-6.5	0.	125.85
2554	-2.5	-6.75	0.	125.82
2555	-2.75	-6.5	0.	125.76
2556	-2.25	-6.5	0.	125.82
2557	-3.5	-6.75	0.	125.63
2558	-3.25	-6.5	0.	125.67
2559	-3.75	-6.5	0.	125.56
2560	-4.75	-6.5	0.	125.29
2561	-4.5	-6.75	0.	125.38
2562	-4.25	-6.5	0.	125.43
2563	-5.25	-6.5	0.	125.15
2564	-5.	-6.75	0.	125.24
2565	-5.5	-6.75	0.	125.11
2566	-6.5	-5.25	0.	124.65
2567	-6.75	-5.5	0.	124.65
2568	-6.25	-5.5	0.	124.76
2569	-6.75	-5.	0.	124.56
2570	-6.5	-4.75	0.	124.55
2571	-6.5	-3.75	0.	124.24
2572	-6.75	-4.	0.	124.29
2573	-6.5	-4.25	0.	124.41
2574	-6.5	-3.25	0.	124.03
2575	-6.75	-3.5	0.	124.1
2576	-6.75	-3.	0.	123.85
2577	-6.5	-2.75	0.	123.78
2578	1.25	-4.	0.	124.47
2579	1.	-3.75	0.	124.51
2580	1.5	-4.25	0.	124.47
2581	1.75	-4.5	0.	124.79
2582	1.5	-5.75	0.	125.6
2583	1.75	-5.5	0.	125.52
2584	-1.4123e-009	-3.25	0.	126.41
2585	0.25	-3.5	0.	125.68
2586	-1.5	-1.75	0.	127.61
2587	-1.25	-2.	0.	127.74
2588	6.5	4.25	0.	125.58
2589	6.75	4.	0.	125.4
2590	6.25	4.	0.	126.06
2591	6.5	3.75	0.	125.56
2592	6.5	5.75	0.	125.1
2593	6.5	5.25	0.	125.12
2594	6.75	5.5	0.	124.96
2595	6.25	5.5	0.	125.15
2596	6.75	1.5	0.	122.
2597	6.5	1.25	0.	121.55
2598	6.25	1.5	0.	122.93
2599	-6.5	-6.75	0.	124.86
2600	-6.75	-6.5	0.	124.78
2601	-1.5	-0.25	0.	128.58
2602	-1.25	-0.5	0.	127.88
2603	-1.5	-0.75	0.	127.92
2604	-2.75	1.5	0.	129.95
2605	-3.	1.75	0.	130.08
2606	-3.25	1.5	0.	129.94
2607	-1.75	0.5	0.	129.98
2608	-2.	0.75	0.	130.02
2609	-0.25	-3.	0.	126.97
2610	-0.5	-2.75	0.	127.53
2611	-1.	-2.25	0.	127.77
2612	-0.75	-2.5	0.	127.77
2613	6.	3.75	0.	126.36
2614	5.75	3.5	0.	126.67
2615	6.25	3.5	0.	125.85
2616	-6.75	-1.5	0.	122.71
2617	-6.5	-1.25	0.	122.8
2618	-6.5	-1.75	0.	123.13
2619	-5.75	-1.	0.	124.04
2620	-5.5	-0.75	0.	124.49
2621	5.25	3.	0.	126.45
2622	5.5	3.25	0.	126.72
2623	-4.5	0.25	0.	125.99
2624	-4.75	-4.7816e-011	0.	125.5
2625	-4.25	0.5	0.	126.69
2626	-4.	0.75	0.	127.72
2627	-3.75	1.	0.	128.56
2628	-3.5	1.25	0.	129.49
2629	5.25	1.5	0.	125.98
2630	4.75	1.5	0.	127.19
2631	5.	1.25	0.	127.04
2632	4.5	2.25	0.	126.11
2633	4.5	1.75	0.	127.05
2634	4.25	2.	0.	126.21
2635	4.25	2.5	0.	125.27
2636	4.5	2.75	0.	125.89
2637	-5.75	7.	0.	120.42
2638	-6.25	7.	0.	120.2
2639	-6.	6.75	0.	118.85
2640	-6.	7.25	0.	120.65
2641	1.5	-6.75	0.	126.82
2642	1.7499	-7.	0.	127.34
2643	1.4999	-7.25	0.	127.1
2644	1.25	-7.	0.	126.82
2645	6.5	6.75	0.	125.65
2646	6.75	7.	0.	125.59
2647	6.25	7.	0.	126.11
2648	6.5	7.25	0.	125.84
2649	-5.	-0.25	0.	125.1
2650	-5.25	-0.5	0.	124.86
2651	-2.25	1.5	0.	130.03
2652	-2.5	1.75	0.	129.83
2653	-2.5	1.25	0.	129.88
2654	-2.75	3.	0.	129.58
2655	-2.25	3.	0.	129.11
2656	-2.5	2.75	0.	129.37
2657	-2.5	3.25	0.	129.38
2658	1.75	-4.	0.	124.73
2659	1.5	-3.75	0.	124.27
2660	1.5	-6.25	0.	126.27
2661	1.75	-6.	0.	126.27
2662	1.75	-6.5	0.	126.97
2663	1.25	-6.5	0.	126.39
2664	1.	-3.25	0.	124.46
2665	0.75	-3.5	0.	124.91
2666	1.25	-3.5	0.	124.31
2667	-1.25	-1.5	0.	127.68
2668	-1.5	-1.25	0.	127.67
2669	6.5	6.25	0.	125.33
2670	6.75	6.	0.	125.07
2671	6.25	6.	0.	125.34
2672	6.25	6.5	0.	125.78
2673	6.75	6.5	0.	125.34
2674	6.5	4.75	0.	125.35
2675	6.25	4.5	0.	125.87
2676	6.75	4.5	0.	125.31
2677	6.75	5.	0.	125.08
2678	6.25	5.	0.	125.43
2679	5.5	1.25	0.	125.31
2680	5.75	1.5	0.	124.43
2681	7.	5.75	0.	124.92
2682	7.25	6.	0.	124.91
2683	7.	6.25	0.	125.07
2684	7.	5.25	0.	124.92
2685	7.25	5.5	0.	124.84
2686	7.25	5.	0.	124.9
2687	7.	4.75	0.	125.03
2688	7.	3.75	0.	125.08
2689	7.25	4.	0.	125.06
2690	7.	4.25	0.	125.13
2691	7.	3.25	0.	124.8
2692	7.25	3.5	0.	124.93
2693	6.75	3.5	0.	125.24
2694	7.	2.75	0.	124.26
2695	7.25	3.	0.	124.57
2696	7.	1.75	0.	122.38
2697	7.25	2.	0.	123.16
2698	7.	2.25	0.	123.46
2699	7.	1.25	0.	120.95
2700	7.25	1.5	0.	122.08
2701	6.75	1.	0.	120.48
2702	7.25	1.	0.	120.67
2703	7.	0.75	0.	119.03
2704	0.49997	-7.25	0.	126.47
2705	0.24998	-7.	0.	126.26
2706	0.74997	-7.	0.	126.47
2707	-0.50001	-7.25	0.	126.19
2708	-0.25001	-7.	0.	126.13
2709	-0.75	-7.	0.	126.06
2710	-1.5	-7.25	0.	126.04
2711	-1.75	-7.	0.	125.95
2712	-1.25	-7.	0.	126.
2713	-2.5	-7.25	0.	125.89
2714	-2.25	-7.	0.	125.89
2715	-2.75	-7.	0.	125.81
2716	-3.5	-7.25	0.	125.68
2717	-3.25	-7.	0.	125.71
2718	-3.75	-7.	0.	125.59
2719	-4.5	-7.25	0.	125.42
2720	-4.75	-7.	0.	125.33
2721	-4.25	-7.	0.	125.46
2722	-5.75	-7.	0.	125.07
2723	-5.5	-7.25	0.	125.15
2724	-5.25	-7.	0.	125.2
2725	-6.25	-7.	0.	124.94
2726	-6.	-7.25	0.	125.02
2727	-6.75	-7.	0.	124.82
2728	-6.5	-7.25	0.	124.9
2729	-7.	-5.75	0.	124.64
2730	-7.25	-6.	0.	124.63
2731	-7.	-6.25	0.	124.7
2732	-7.	-5.25	0.	124.56
2733	-7.25	-5.5	0.	124.57
2734	-7.	-4.75	0.	124.46
2735	-7.25	-5.	0.	124.49
2736	-7.	-4.25	0.	124.32
2737	-7.25	-4.5	0.	124.38
2738	-6.75	-4.5	0.	124.44
2739	-7.25	-4.	0.	124.24
2740	-7.	-3.75	0.	124.14
2741	-7.	-2.75	0.	123.61
2742	-7.25	-3.	0.	123.8
2743	-7.	-3.25	0.	123.91
2744	-7.	-2.25	0.	123.23
2745	-7.25	-2.5	0.	123.47
2746	-6.75	-2.5	0.	123.54
2747	-7.	-1.75	0.	122.74
2748	-7.25	-2.	0.	123.04
2749	-6.75	-2.	0.	123.16
2750	-1.5	0.25	0.	129.61
2751	-1.25	-1.3835e-010	0.	128.86
2752	-5.5	7.25	0.	121.52
2753	-5.5	6.75	0.	120.27
2754	-5.25	7.	0.	122.1
2755	-2.75	4.5	0.	130.45
2756	-3.	4.75	0.	130.53
2757	-3.25	4.5	0.	130.41
2758	-3.	4.25	0.	130.06
2759	-3.25	2.	0.	130.47
2760	-3.	2.25	0.	130.15
2761	-2.75	2.	0.	129.96
2762	-3.	3.25	0.	129.76
2763	-3.25	3.5	0.	129.97
2764	-3.	3.75	0.	129.75
2765	-2.75	3.5	0.	129.56
2766	-2.	2.75	0.	128.91
2767	-1.75	2.5	0.	128.74
2768	-2.25	2.5	0.	129.17
2769	-2.	2.25	0.	129.19
2770	1.75	-3.	0.	123.49
2771	2.25	-3.	0.	124.55
2772	2.	-3.25	0.	124.17
2773	2.	-2.75	0.	122.59
2774	2.	-4.25	0.	125.05
2775	2.25	-4.5	0.	125.75
2776	2.	-4.75	0.	125.15
2777	2.	-5.75	0.	126.18
2778	2.25	-5.5	0.	126.35
2779	2.	-5.25	0.	125.51
2780	-4.0931e-010	-2.75	0.	127.27
2781	0.25	-3.	0.	126.29
2782	1.25	-3.	0.	123.89
2783	1.5	-2.75	0.	122.7
2784	1.5	-3.25	0.	123.75
2785	-1.	-1.75	0.	127.81
2786	-0.75	-2.	0.	128.12
2787	5.75	4.	0.	127.08
2788	6.	4.25	0.	126.36
2789	6.	5.75	0.	125.39
2790	6.	5.25	0.	125.46
2791	5.75	5.5	0.	125.5
2792	6.5	0.75	0.	119.96
2793	6.25	1.	0.	121.88
2794	-7.25	-1.5	0.	122.48
2795	-7.	-1.25	0.	122.1
2796	-6.25	-1.	0.	123.14
2797	-6.	-0.75	0.	123.75
2798	4.75	3.	0.	126.29
2799	5.	3.25	0.	127.12
2800	-3.25	6.5	0.	128.96
2801	-3.	6.75	0.	128.63
2802	-2.75	6.5	0.	128.83
2803	-3.	6.25	0.	129.38
2804	-4.75	0.5	0.	125.29
2805	-4.5	0.75	0.	126.15
2806	-4.	1.25	0.	128.69
2807	-4.25	1.	0.	127.18
2808	-1.	-0.25	0.	128.15
2809	-0.75	-0.5	0.	127.23
2810	-1.	-0.75	0.	127.54
2811	4.5	1.25	0.	128.3
2812	4.25	1.5	0.	127.85
2813	4.	2.25	0.	125.38
2814	3.75	2.	0.	125.52
2815	4.	1.75	0.	127.02
2816	-3.5	6.25	0.	129.65
2817	-3.75	6.5	0.	128.81
2818	-3.5	6.75	0.	128.52
2819	3.75	2.5	0.	124.12
2820	4.	2.75	0.	124.67
2821	-0.5	-2.25	0.	128.12
2822	-0.25	-2.5	0.	127.83
2823	4.75	1.	0.	128.15
2824	5.	0.75	0.	127.71
2825	5.25	1.	0.	126.37
2826	5.25	3.5	0.	127.38
2827	5.5	3.75	0.	127.39
2828	-2.	4.25	0.	130.36
2829	-1.75	4.	0.	129.78
2830	-2.	3.75	0.	129.65
2831	-2.25	4.	0.	129.94
2832	-2.5	4.75	0.	130.88
2833	-2.25	4.5	0.	130.68
2834	-2.5	4.25	0.	130.26
2835	-6.5	7.25	0.	121.12
2836	-6.5	6.75	0.	119.75
2837	-6.75	7.	0.	121.46
2838	-7.	-7.25	0.	124.78
2839	-7.25	-7.	0.	124.71
2840	-7.	-6.75	0.	124.75
2841	1.9999	-6.75	0.	127.49
2842	1.9998	-7.25	0.	127.56
2843	2.2498	-7.	0.	128.01
2844	-3.75	1.5	0.	129.62
2845	-3.5	1.75	0.	130.34
2846	7.25	7.	0.	125.24
2847	7.	7.25	0.	125.44
2848	7.	6.75	0.	125.27
2849	6.	6.75	0.	126.25
2850	6.	7.25	0.	126.42
2851	5.75	7.	0.	126.88
2852	-5.25	-1.9081e-011	0.	124.75
2853	-5.	0.25	0.	124.8
2854	-5.5	-0.25	0.	124.5
2855	-5.75	-0.5	0.	124.2
2856	-6.	6.25	0.	116.44
2857	-6.25	6.5	0.	118.38
2858	-5.75	6.5	0.	118.67
2859	-3.75	4.	0.	131.1
2860	-3.5	3.75	0.	130.25
2861	-3.5	4.25	0.	130.37
2862	-3.25	4.	0.	130.03
2863	-1.25	0.5	0.	130.27
2864	-1.5	0.75	0.	130.59
2865	-4.5	7.25	0.	125.34
2866	-4.5	6.75	0.	126.18
2867	-4.75	7.	0.	124.41
2868	-4.25	7.	0.	126.4
2869	-3.	5.25	0.	130.72
2870	-2.75	5.	0.	130.96
2871	-3.25	5.	0.	130.85
2872	-3.25	3.	0.	130.26
2873	-3.	2.75	0.	129.98
2874	-1.75	1.5	0.	130.46
2875	-2.	1.25	0.	130.19
2876	-2.	1.75	0.	129.8
2877	-1.75	3.	0.	128.78
2878	-2.	3.25	0.	129.13
2879	2.25	-4.	0.	125.84
2880	2.	-3.75	0.	124.88
2881	2.	-6.25	0.	126.96
2882	2.25	-6.	0.	127.14
2883	2.2499	-6.5	0.	127.89
2884	1.	-2.75	0.	124.37
2885	0.75	-3.	0.	125.11
2886	-0.75	-1.5	0.	127.92
2887	-1.	-1.25	0.	127.59
2888	6.	6.25	0.	125.79
2889	5.75	6.	0.	125.81
2890	5.75	6.5	0.	126.56
2891	5.75	5.	0.	126.04
2892	6.	4.75	0.	125.94
2893	-3.25	5.5	0.	130.87
2894	-2.75	5.5	0.	130.83
2895	-3.	5.75	0.	130.27
2896	-6.5	-0.75	0.	122.59
2897	-6.75	-1.	0.	122.19
2898	4.25	3.	0.	125.29
2899	4.5	3.25	0.	126.52
2900	-3.	7.25	0.	128.27
2901	-2.75	7.	0.	128.54
2902	-3.25	7.	0.	128.19
2903	-1.	0.25	0.	129.53
2904	-0.75	-1.1891e-010	0.	128.27
2905	2.25	-2.	0.	119.92
2906	1.75	-2.	0.	119.43
2907	2.	-1.75	0.	118.27
2908	2.	-2.25	0.	120.18
2909	4.9992	-7.2501	0.	115.73
2910	5.2494	-7.0001	0.	115.69
2911	4.7494	-7.	0.	115.68
2912	4.9995	-6.75	0.	113.91
2913	3.	-5.25	0.	129.02
2914	3.	-4.75	0.	129.02
2915	3.25	-5.	0.	132.51
2916	2.75	-5.	0.	127.85
2917	-1.	0.75	0.	131.21
2918	-0.75	0.5	0.	130.07
2919	-4.	4.25	0.	131.74
2920	-4.	3.75	0.	131.75
2921	-4.25	4.	0.	134.75
2922	-6.25	6.	0.	116.03
2923	-5.75	6.	0.	116.41
2924	-6.	5.75	0.	114.46
2925	-5.5	0.25	0.	124.06
2926	-5.75	1.3372e-012	0.	124.42
2927	6.75	3.5535e-012	0.	116.01
2928	7.25	3.9244e-013	0.	116.58
2929	7.	-0.25	0.	114.56
2930	7.	0.25	0.	116.54
2931	5.75	7.5	0.	126.68
2932	5.5	7.25	0.	127.14
2933	5.25	7.5	0.	127.06
2934	5.5	7.75	0.	126.65
2935	6.25	7.5	0.	126.15
2936	6.	7.75	0.	126.27
2937	6.5	7.75	0.	125.85
2938	6.75	7.5	0.	125.69
2939	7.5	7.25	0.	125.16
2940	7.5	7.75	0.	125.23
2941	7.75	7.5	0.	125.1
2942	7.25	7.5	0.	125.35
2943	7.5	6.75	0.	125.04
2944	7.75	7.	0.	125.01
2945	7.5	6.25	0.	124.91
2946	7.75	6.5	0.	124.89
2947	7.25	6.5	0.	125.07
2948	7.5	5.75	0.	124.82
2949	7.75	6.	0.	124.8
2950	7.5	5.25	0.	124.83
2951	7.75	5.5	0.	124.78
2952	7.5	4.75	0.	124.89
2953	7.75	5.	0.	124.83
2954	7.5	4.25	0.	124.95
2955	7.25	4.5	0.	125.02
2956	7.75	4.5	0.	124.92
2957	7.5	3.75	0.	124.9
2958	7.75	4.	0.	124.96
2959	7.75	3.5	0.	124.9
2960	7.5	3.25	0.	124.7
2961	7.5	1.75	0.	122.86
2962	7.75	2.	0.	123.78
2963	7.5	2.25	0.	123.69
2964	7.5	1.25	0.	121.81
2965	7.75	1.5	0.	123.13
2966	7.5	0.75	0.	120.51
2967	7.75	1.	0.	122.41
2968	7.5	0.25	0.	118.93
2969	7.75	0.5	0.	121.74
2970	7.25	0.5	0.	118.85
2971	-5.	0.75	0.	124.23
2972	-5.25	0.5	0.	124.11
2973	-5.	1.25	0.	123.77
2974	-5.25	1.	0.	122.9
2975	-4.75	1.	0.	125.1
2976	-4.	1.75	0.	130.24
2977	-4.25	1.5	0.	128.29
2978	3.25	7.5	0.	121.16
2979	2.75	7.5	0.	121.76
2980	3.	7.75	0.	121.78
2981	3.	7.25	0.	119.45
2982	4.7491	-7.5001	0.	117.7
2983	4.9991	-7.7501	0.	117.72
2984	5.2491	-7.5001	0.	117.58
2985	2.2497	-7.5	0.	127.57
2986	2.4997	-7.25	0.	128.02
2987	2.7496	-7.5	0.	127.45
2988	2.4997	-7.75	0.	127.23
2989	1.7498	-7.5	0.	127.32
2990	1.9998	-7.75	0.	127.28
2991	1.2499	-7.5	0.	127.01
2992	1.4999	-7.75	0.	127.11
2993	0.74994	-7.5	0.	126.73
2994	0.99991	-7.75	0.	126.89
2995	0.99994	-7.25	0.	126.73
2996	0.24997	-7.5	0.	126.52
2997	0.49995	-7.75	0.	126.69
2998	-0.25002	-7.5	0.	126.37
2999	-3.0729e-005	-7.75	0.	126.52
3000	-1.7692e-005	-7.25	0.	126.31
3001	-0.75001	-7.5	0.	126.25
3002	-0.50002	-7.75	0.	126.39
3003	-1.25	-7.5	0.	126.15
3004	-1.	-7.75	0.	126.27
3005	-1.	-7.25	0.	126.11
3006	-1.75	-7.5	0.	126.06
3007	-1.5	-7.75	0.	126.17
3008	-2.25	-7.5	0.	125.97
3009	-2.	-7.75	0.	126.07
3010	-2.	-7.25	0.	125.97
3011	-2.75	-7.5	0.	125.87
3012	-2.5	-7.75	0.	125.96
3013	-3.25	-7.5	0.	125.76
3014	-3.	-7.75	0.	125.85
3015	-3.	-7.25	0.	125.79
3016	-3.75	-7.5	0.	125.64
3017	-3.5	-7.75	0.	125.72
3018	-4.25	-7.5	0.	125.51
3019	-4.	-7.75	0.	125.59
3020	-4.	-7.25	0.	125.55
3021	-4.75	-7.5	0.	125.37
3022	-4.5	-7.75	0.	125.46
3023	-5.25	-7.5	0.	125.24
3024	-5.	-7.75	0.	125.33
3025	-5.	-7.25	0.	125.29
3026	-5.75	-7.5	0.	125.11
3027	-5.5	-7.75	0.	125.19
3028	-6.25	-7.5	0.	124.98
3029	-6.	-7.75	0.	125.06
3030	-6.75	-7.5	0.	124.86
3031	-6.5	-7.75	0.	124.93
3032	-7.25	-7.5	0.	124.74
3033	-7.	-7.75	0.	124.81
3034	-7.5	-7.25	0.	124.67
3035	-7.5	-7.75	0.	124.69
3036	-7.75	-7.5	0.	124.63
3037	-7.5	-6.75	0.	124.64
3038	-7.75	-7.	0.	124.61
3039	-7.5	-6.25	0.	124.61
3040	-7.75	-6.5	0.	124.58
3041	-7.25	-6.5	0.	124.68
3042	-7.5	-5.75	0.	124.56
3043	-7.75	-6.	0.	124.55
3044	-7.5	-5.25	0.	124.5
3045	-7.75	-5.5	0.	124.51
3046	-7.5	-4.75	0.	124.41
3047	-7.75	-5.	0.	124.45
3048	-7.75	-4.5	0.	124.37
3049	-7.5	-4.25	0.	124.3
3050	-7.5	-3.25	0.	123.94
3051	-7.75	-3.5	0.	124.12
3052	-7.5	-3.75	0.	124.14
3053	-7.25	-3.5	0.	124.05
3054	-7.5	-2.75	0.	123.66
3055	-7.75	-3.	0.	123.92
3056	-7.5	-2.25	0.	123.29
3057	-7.75	-2.5	0.	123.65
3058	-7.5	-1.75	0.	122.78
3059	-7.75	-2.	0.	123.3
3060	-7.5	-1.25	0.	122.07
3061	-7.75	-1.5	0.	122.83
3062	-7.5	-0.75	0.	120.99
3063	-7.75	-1.	0.	122.2
3064	-7.25	-1.	0.	121.69
3065	-7.5	-0.25	0.	119.07
3066	-7.25	-0.5	0.	120.55
3067	-7.75	-0.5	0.	121.3
3068	7.2496	-7.5	0.	123.31
3069	7.7497	-7.5	0.	124.09
3070	7.4996	-7.75	0.	123.47
3071	7.4997	-7.25	0.	122.18
3072	6.5	0.25	0.	118.02
3073	6.25	0.5	0.	120.74
3074	6.75	0.5	0.	118.49
3075	-7.25	7.5	0.	123.48
3076	-7.75	7.5	0.	124.67
3077	-7.5	7.25	0.	124.31
3078	-7.5	7.75	0.	124.13
3079	-6.75	7.5	0.	122.27
3080	-7.	7.25	0.	122.61
3081	-7.	7.75	0.	123.06
3082	-6.5	7.75	0.	122.2
3083	-6.25	7.5	0.	121.56
3084	-5.25	7.5	0.	122.78
3085	-5.5	7.75	0.	122.52
3086	-5.75	7.5	0.	121.74
3087	-4.75	7.5	0.	124.29
3088	-5.	7.75	0.	123.68
3089	-5.	7.25	0.	123.36
3090	-4.25	7.5	0.	125.76
3091	-4.5	7.75	0.	125.02
3092	-3.75	7.5	0.	126.9
3093	-4.	7.75	0.	126.21
3094	-4.	7.25	0.	126.81
3095	-3.25	7.5	0.	127.77
3096	-3.5	7.25	0.	127.7
3097	-3.5	7.75	0.	127.15
3098	-3.	7.75	0.	127.99
3099	-2.75	7.5	0.	128.65
3100	-2.5	5.25	0.	131.07
3101	-2.25	5.	0.	131.51
3102	-2.5	6.75	0.	128.74
3103	-2.25	6.5	0.	128.64
3104	-2.5	6.25	0.	129.28
3105	-1.75	4.5	0.	130.29
3106	-2.	4.75	0.	131.31
3107	4.75	3.5	0.	127.35
3108	5.	3.75	0.	128.37
3109	5.25	4.	0.	128.38
3110	5.5	4.25	0.	127.58
3111	5.5	6.75	0.	127.19
3112	5.25	7.	0.	127.87
3113	5.5	5.25	0.	126.08
3114	5.25	5.5	0.	125.93
3115	5.5	5.75	0.	125.92
3116	3.75	7.5	0.	122.78
3117	3.5	7.75	0.	122.22
3118	3.5	7.25	0.	120.68
3119	5.	7.75	0.	126.7
3120	5.	7.25	0.	127.79
3121	4.75	7.5	0.	126.72
3122	4.5	0.75	0.	129.18
3123	4.25	1.	0.	129.59
3124	-0.5	-1.75	0.	128.23
3125	-0.25	-2.	0.	128.67
3126	-0.5	-0.25	0.	127.35
3127	-0.25	-0.5	0.	126.27
3128	-0.5	-0.75	0.	127.01
3129	1.25	-2.5	0.	123.17
3130	1.5	-2.25	0.	121.07
3131	1.75	-2.5	0.	121.78
3132	0.25	-2.5	0.	127.21
3133	-4.3786e-011	-2.25	0.	128.38
3134	4.5	-2.25	0.	124.36
3135	4.25	-2.	0.	126.16
3136	4.75	-2.	0.	125.47
3137	4.5	-1.75	0.	125.69
3138	4.75	0.5	0.	128.73
3139	5.25	0.5	0.	126.92
3140	5.	0.25	0.	128.35
3141	2.4998	-6.75	0.	128.41
3142	2.7497	-7.	0.	128.67
3143	2.5	-5.75	0.	127.31
3144	2.75	-5.5	0.	127.86
3145	2.5	-5.25	0.	126.7
3146	4.2492	-7.5	0.	120.27
3147	4.4991	-7.7501	0.	119.03
3148	4.4993	-7.25	0.	117.69
3149	2.9995	-7.75	0.	126.6
3150	2.9996	-7.25	0.	128.11
3151	3.2495	-7.5	0.	126.34
3152	2.5	-4.25	0.	126.55
3153	2.75	-4.5	0.	127.64
3154	2.5	-4.75	0.	126.47
3155	2.5	-2.75	0.	124.49
3156	2.5	-2.25	0.	122.3
3157	2.25	-2.5	0.	122.51
3158	2.75	-2.5	0.	125.01
3159	2.5	-3.25	0.	126.05
3160	2.75	-3.	0.	126.94
3161	3.5	2.25	0.	124.25
3162	3.25	2.5	0.	122.87
3163	3.5	2.75	0.	123.31
3164	3.75	3.	0.	123.87
3165	4.	3.25	0.	124.84
3166	-1.5	3.75	0.	129.47
3167	-1.5	4.25	0.	129.71
3168	-1.25	4.	0.	129.23
3169	-1.5	2.25	0.	129.06
3170	-1.5	2.75	0.	128.61
3171	-1.25	2.5	0.	128.34
3172	-6.5	6.25	0.	118.02
3173	-6.75	6.5	0.	120.61
3174	-7.25	7.	0.	123.44
3175	-7.	6.75	0.	122.32
3176	-3.5	3.25	0.	130.47
3177	-3.75	3.5	0.	130.91
3178	-3.5	2.25	0.	130.91
3179	-3.75	2.	0.	130.95
3180	-3.5	5.75	0.	130.67
3181	-3.75	6.	0.	130.45
3182	-3.25	6.	0.	130.07
3183	-3.5	4.75	0.	130.73
3184	-3.75	4.5	0.	131.01
3185	-5.25	6.5	0.	121.44
3186	-5.5	6.25	0.	118.69
3187	-4.25	6.5	0.	127.68
3188	-4.	6.25	0.	129.62
3189	-4.	6.75	0.	127.91
3190	-4.75	6.5	0.	125.03
3191	-4.5	6.25	0.	128.01
3192	-5.	6.25	0.	123.6
3193	-5.	6.75	0.	123.27
3194	-3.5	5.25	0.	131.01
3195	-3.75	5.	0.	131.53
3196	-3.75	5.5	0.	131.62
3197	-3.5	2.75	0.	130.86
3198	-3.75	2.5	0.	131.77
3199	-3.25	2.5	0.	130.59
3200	-3.75	3.	0.	131.45
3201	-7.5	6.25	0.	126.45
3202	-7.5	6.75	0.	124.94
3203	-7.75	6.5	0.	126.21
3204	-7.25	6.5	0.	123.82
3205	-1.5	1.75	0.	130.17
3206	-1.25	2.	0.	130.03
3207	-1.75	2.	0.	129.51
3208	-1.25	1.5	0.	131.61
3209	-1.5	1.25	0.	130.89
3210	-1.5	3.25	0.	128.98
3211	-1.25	3.5	0.	129.61
3212	-1.75	3.5	0.	129.34
3213	-1.25	3.	0.	128.89
3214	1.6144e-011	4.75	0.	118.9
3215	0.25	4.5	0.	119.78
3216	2.0002e-011	4.25	0.	121.45
3217	-0.25	4.5	0.	121.83
3218	3.5	3.75	0.	122.7
3219	3.25	3.5	0.	123.36
3220	3.5	3.25	0.	123.18
3221	3.75	3.5	0.	124.16
3222	2.5	-3.75	0.	126.62
3223	2.25	-3.5	0.	125.66
3224	2.75	-3.5	0.	128.19
3225	2.75	-4.	0.	128.1
3226	3.9992	-7.75	0.	121.94
3227	3.9994	-7.25	0.	122.35
3228	3.7493	-7.5	0.	123.75
3229	2.4999	-6.25	0.	128.07
3230	2.7499	-6.	0.	128.65
3231	2.7499	-6.5	0.	129.25
3232	0.75	-2.5	0.	125.49
3233	0.5	-2.25	0.	127.49
3234	0.5	-2.75	0.	126.22
3235	1.	-2.25	0.	124.36
3236	-0.25	-1.5	0.	128.69
3237	-0.5	-1.25	0.	127.64
3238	4.25	0.5	0.	130.35
3239	4.5	0.25	0.	129.11
3240	4.	7.75	0.	124.06
3241	4.	7.25	0.	124.15
3242	4.25	7.5	0.	125.15
3243	5.25	6.5	0.	127.95
3244	5.5	6.25	0.	126.58
3245	5.25	5.	0.	127.28
3246	5.5	4.75	0.	126.96
3247	4.5	3.75	0.	128.09
3248	4.25	3.5	0.	126.08
3249	-1.25	4.5	0.	128.51
3250	-1.5	4.75	0.	130.39
3251	-1.	4.25	0.	128.03
3252	-1.	4.75	0.	126.75
3253	-0.75	4.5	0.	125.32
3254	-2.25	5.5	0.	131.62
3255	-2.5	5.75	0.	130.39
3256	-2.25	7.	0.	129.26
3257	-2.5	7.25	0.	128.92
3258	4.25	-1.	0.	127.27
3259	4.75	-1.	0.	127.34
3260	4.5	-0.75	0.	127.26
3261	4.5	-1.25	0.	126.53
3262	5.5	0.25	0.	126.53
3263	5.75	0.5	0.	124.11
3264	5.5	0.75	0.	125.59
3265	5.9992	-7.7501	0.	120.98
3266	6.2493	-7.5001	0.	122.36
3267	5.7492	-7.5001	0.	119.78
3268	5.9994	-7.2501	0.	122.03
3269	6.9995	-7.75	0.	123.18
3270	6.7495	-7.5	0.	123.41
3271	6.9996	-7.25	0.	123.74
3272	-6.5	-0.25	0.	122.96
3273	-6.75	-0.5	0.	121.67
3274	-6.25	-0.5	0.	123.2
3275	-0.25	5.	0.	119.11
3276	0.25	5.	0.	117.79
3277	9.4995e-012	5.25	0.	117.3
3278	-4.	4.75	0.	131.81
3279	-4.25	4.5	0.	133.65
3280	-6.75	6.	0.	119.78
3281	-6.5	5.75	0.	115.34
3282	0.5	4.25	0.	119.29
3283	0.75	4.	0.	119.3
3284	0.25	4.	0.	120.96
3285	0.5	3.75	0.	118.03
3286	3.	-5.75	0.	129.2
3287	3.25	-5.5	0.	131.33
3288	2.75	-2.	0.	123.36
3289	2.5	-1.75	0.	119.28
3290	3.25	4.	0.	121.85
3291	3.75	4.	0.	124.02
3292	3.5	4.25	0.	120.7
3293	6.25	5.9245e-012	0.	119.61
3294	6.5	-0.25	0.	115.21
3295	5.4995	-6.7501	0.	115.24
3296	5.4993	-7.2501	0.	117.57
3297	5.7494	-7.0001	0.	119.83
3298	3.5	1.75	0.	126.27
3299	3.25	2.	0.	124.78
3300	-0.5	0.25	0.	128.82
3301	-0.25	-9.0777e-011	0.	127.54
3302	3.75	-2.5	0.	127.09
3303	3.5	-2.25	0.	128.23
3304	3.5	-2.75	0.	128.83
3305	3.25	-2.5	0.	127.24
3306	4.25	-2.5	0.	124.92
3307	4.	-2.25	0.	126.72
3308	4.	-2.75	0.	126.35
3309	-5.25	1.5	0.	121.84
3310	-5.	1.75	0.	124.02
3311	-4.75	1.5	0.	125.47
3312	7.75	-1.4297e-011	0.	121.22
3313	7.5	-0.25	0.	116.43
3314	-8.	7.25	0.	125.54
3315	-8.25	7.	0.	126.18
3316	-7.75	7.	0.	125.18
3317	-8.	6.75	0.	126.46
3318	-8.	7.75	0.	125.04
3319	-8.25	7.5	0.	125.52
3320	-8.	8.25	0.	124.79
3321	-8.25	8.	0.	125.14
3322	-7.75	8.	0.	124.49
3323	-6.75	8.	0.	122.98
3324	-7.	8.25	0.	123.51
3325	-7.25	8.	0.	123.71
3326	-6.25	8.	0.	122.59
3327	-6.5	8.25	0.	123.03
3328	-5.75	8.	0.	122.74
3329	-6.	8.25	0.	122.93
3330	-6.	7.75	0.	121.96
3331	-5.25	8.	0.	123.41
3332	-5.5	8.25	0.	123.3
3333	-4.75	8.	0.	124.41
3334	-5.	8.25	0.	124.05
3335	-4.25	8.	0.	125.48
3336	-4.5	8.25	0.	124.97
3337	-4.	8.25	0.	125.87
3338	-3.75	8.	0.	126.46
3339	-2.75	8.	0.	128.33
3340	-3.	8.25	0.	127.52
3341	-3.25	8.	0.	127.37
3342	-2.25	8.	0.	129.44
3343	-2.5	8.25	0.	128.38
3344	-2.5	7.75	0.	129.
3345	0.25	8.	0.	120.63
3346	1.9011e-011	8.25	0.	120.83
3347	1.4956e-011	7.75	0.	119.75
3348	-0.25	8.	0.	120.83
3349	2.5	7.75	0.	123.49
3350	2.25	8.	0.	125.52
3351	2.5	8.25	0.	124.42
3352	2.75	8.	0.	123.49
3353	3.75	8.	0.	123.49
3354	3.5	8.25	0.	123.31
3355	3.25	8.	0.	122.82
3356	4.25	8.	0.	124.78
3357	4.	8.25	0.	124.21
3358	4.75	8.	0.	125.84
3359	4.5	8.25	0.	125.26
3360	4.5	7.75	0.	125.87
3361	5.25	8.	0.	126.29
3362	5.	8.25	0.	125.92
3363	5.75	8.	0.	126.24
3364	5.5	8.25	0.	126.09
3365	6.25	8.	0.	125.96
3366	6.	8.25	0.	125.96
3367	6.75	8.	0.	125.65
3368	6.5	8.25	0.	125.71
3369	7.25	8.	0.	125.38
3370	7.	8.25	0.	125.47
3371	7.	7.75	0.	125.5
3372	7.75	8.	0.	125.16
3373	7.5	8.25	0.	125.26
3374	8.	7.75	0.	125.03
3375	8.25	8.	0.	124.98
3376	8.	8.25	0.	125.09
3377	8.	7.25	0.	124.96
3378	8.25	7.5	0.	124.91
3379	8.	6.75	0.	124.87
3380	8.25	7.	0.	124.83
3381	8.	6.25	0.	124.79
3382	8.25	6.5	0.	124.75
3383	8.25	6.	0.	124.71
3384	8.	5.75	0.	124.76
3385	8.25	5.	0.	124.8
3386	8.	5.25	0.	124.79
3387	8.	4.75	0.	124.86
3388	8.	3.75	0.	124.96
3389	8.25	4.	0.	125.02
3390	8.	4.25	0.	124.93
3391	8.	3.25	0.	124.89
3392	8.25	3.5	0.	125.08
3393	8.	2.75	0.	124.7
3394	8.25	3.	0.	125.06
3395	7.75	3.	0.	124.69
3396	8.	2.25	0.	124.41
3397	8.25	2.5	0.	124.98
3398	7.75	2.5	0.	124.31
3399	8.	1.75	0.	124.06
3400	8.25	2.	0.	124.85
3401	8.	1.25	0.	123.74
3402	8.25	1.5	0.	124.77
3403	8.	0.75	0.	123.64
3404	8.25	1.	0.	124.9
3405	8.	0.25	0.	124.03
3406	8.25	0.5	0.	125.53
3407	-7.25	7.1027e-012	0.	118.7
3408	-7.75	4.098e-012	0.	119.84
3409	-7.5	0.25	0.	114.73
3410	7.9997	-7.75	0.	125.11
3411	7.9998	-7.25	0.	124.66
3412	8.2498	-7.5	0.	126.36
3413	7.7497	-8.	0.	124.48
3414	8.2498	-8.	0.	126.21
3415	7.9997	-8.25	0.	125.25
3416	7.2495	-8.	0.	123.34
3417	7.4996	-8.25	0.	123.78
3418	6.7494	-8.	0.	122.54
3419	6.9995	-8.25	0.	122.81
3420	6.2493	-8.	0.	121.4
3421	6.4994	-8.25	0.	121.88
3422	6.4994	-7.75	0.	122.77
3423	5.7491	-8.	0.	119.86
3424	5.9992	-8.25	0.	120.59
3425	5.249	-8.0001	0.	118.78
3426	5.4991	-8.25	0.	119.34
3427	5.4991	-7.7501	0.	118.66
3428	4.749	-8.0001	0.	119.03
3429	4.9991	-8.2501	0.	118.97
3430	4.2491	-8.	0.	120.69
3431	4.499	-8.2501	0.	119.9
3432	3.7492	-8.	0.	123.03
3433	3.9991	-8.25	0.	121.81
3434	3.2494	-8.	0.	125.09
3435	3.4993	-8.25	0.	123.91
3436	3.4993	-7.75	0.	124.83
3437	2.7495	-8.	0.	126.37
3438	2.9995	-8.25	0.	125.51
3439	2.2497	-8.	0.	126.93
3440	2.4996	-8.25	0.	126.44
3441	1.7498	-8.	0.	127.06
3442	1.9998	-8.25	0.	126.85
3443	1.2499	-8.	0.	126.99
3444	1.4998	-8.25	0.	126.95
3445	0.74992	-8.	0.	126.84
3446	0.9999	-8.25	0.	126.9
3447	0.24995	-8.	0.	126.69
3448	0.49994	-8.25	0.	126.79
3449	-0.25003	-8.	0.	126.54
3450	-3.9059e-005	-8.25	0.	126.67
3451	-0.75002	-8.	0.	126.41
3452	-0.50002	-8.25	0.	126.54
3453	-1.25	-8.	0.	126.29
3454	-1.	-8.25	0.	126.41
3455	-1.75	-8.	0.	126.17
3456	-1.5	-8.25	0.	126.28
3457	-2.25	-8.	0.	126.06
3458	-2.	-8.25	0.	126.16
3459	-2.75	-8.	0.	125.94
3460	-2.5	-8.25	0.	126.03
3461	-3.	-8.25	0.	125.9
3462	-3.25	-8.	0.	125.81
3463	-4.25	-8.	0.	125.55
3464	-4.	-8.25	0.	125.64
3465	-3.75	-8.	0.	125.68
3466	-4.75	-8.	0.	125.41
3467	-4.5	-8.25	0.	125.5
3468	-5.25	-8.	0.	125.28
3469	-5.	-8.25	0.	125.36
3470	-5.75	-8.	0.	125.14
3471	-5.5	-8.25	0.	125.22
3472	-6.25	-8.	0.	125.01
3473	-6.	-8.25	0.	125.09
3474	-6.75	-8.	0.	124.89
3475	-6.5	-8.25	0.	124.96
3476	-7.25	-8.	0.	124.76
3477	-7.	-8.25	0.	124.83
3478	-7.75	-8.	0.	124.64
3479	-7.5	-8.25	0.	124.71
3480	-8.	-7.75	0.	124.58
3481	-8.	-8.25	0.	124.59
3482	-8.25	-8.	0.	124.52
3483	-8.	-7.25	0.	124.56
3484	-8.25	-7.5	0.	124.51
3485	-8.	-6.75	0.	124.55
3486	-8.25	-7.	0.	124.5
3487	-8.	-6.25	0.	124.53
3488	-8.25	-6.5	0.	124.49
3489	-8.	-5.75	0.	124.5
3490	-8.25	-6.	0.	124.48
3491	-8.	-5.25	0.	124.46
3492	-8.25	-5.5	0.	124.46
3493	-8.	-4.75	0.	124.41
3494	-8.25	-5.	0.	124.44
3495	-8.	-4.25	0.	124.34
3496	-8.25	-4.5	0.	124.4
3497	-8.	-3.75	0.	124.24
3498	-8.25	-4.	0.	124.35
3499	-7.75	-4.	0.	124.27
3500	-8.	-3.25	0.	124.1
3501	-8.25	-3.5	0.	124.28
3502	-8.	-2.75	0.	123.91
3503	-8.25	-3.	0.	124.18
3504	-8.25	-2.5	0.	124.05
3505	-8.	-2.25	0.	123.66
3506	-8.	-1.25	0.	122.95
3507	-8.25	-1.5	0.	123.7
3508	-8.	-1.75	0.	123.34
3509	-8.25	-1.	0.	123.57
3510	-8.	-0.75	0.	122.51
3511	-5.5	0.75	0.	122.78
3512	-5.75	0.5	0.	123.92
3513	-5.5	1.25	0.	120.96
3514	-5.75	1.	0.	121.91
3515	-5.75	1.5	0.	119.18
3516	-5.5	1.75	0.	119.27
3517	-8.	4.25	0.	127.78
3518	-8.	3.75	0.	127.14
3519	-8.25	4.	0.	127.13
3520	-7.75	4.	0.	130.41
3521	4.5	-2.75	0.	122.73
3522	4.75	-2.5	0.	123.4
3523	2.5	7.25	0.	121.43
3524	2.25	7.5	0.	124.97
3525	0.5	4.75	0.	118.69
3526	0.75	4.5	0.	120.7
3527	-5.25	6.	0.	120.86
3528	-5.5	5.75	0.	116.11
3529	-4.	5.75	0.	131.4
3530	-4.25	6.	0.	129.93
3531	-4.	3.25	0.	131.88
3532	-4.25	3.5	0.	133.76
3533	-4.25	2.	0.	130.43
3534	-4.	2.25	0.	131.81
3535	-8.	4.75	0.	128.44
3536	-8.25	4.5	0.	127.34
3537	-7.75	4.5	0.	130.01
3538	-7.75	6.	0.	128.08
3539	-8.	5.75	0.	129.17
3540	-8.25	6.	0.	128.36
3541	-8.	6.25	0.	127.85
3542	-1.	1.25	0.	132.23
3543	-0.75	1.	0.	131.97
3544	-1.25	1.	0.	131.52
3545	-1.	2.75	0.	128.62
3546	-1.	2.25	0.	129.3
3547	-0.75	2.5	0.	129.71
3548	-0.75	4.	0.	127.85
3549	-1.	3.75	0.	129.37
3550	3.	2.25	0.	123.39
3551	3.	2.75	0.	122.75
3552	2.75	2.5	0.	123.86
3553	3.	-4.25	0.	129.19
3554	3.25	-4.5	0.	131.75
3555	3.25	-3.	0.	129.06
3556	3.	-3.25	0.	129.08
3557	3.	-2.75	0.	127.47
3558	4.2495	-7.	0.	119.78
3559	4.4996	-6.75	0.	115.21
3560	2.9998	-6.75	0.	129.51
3561	3.2496	-7.	0.	128.36
3562	4.	-0.25	0.	128.45
3563	4.	-0.75	0.	127.46
3564	3.75	-0.5	0.	128.93
3565	4.25	-0.5	0.	127.45
3566	3.75	-2.	0.	127.86
3567	4.	-1.75	0.	127.63
3568	1.25	-2.	0.	122.25
3569	1.5	-1.75	0.	118.44
3570	0.25	-2.	0.	128.65
3571	2.8776e-011	-1.75	0.	129.13
3572	0.25	-0.5	0.	127.
3573	4.2638e-011	-0.75	0.	126.65
3574	3.2452e-011	-0.25	0.	126.45
3575	-0.5	0.75	0.	130.84
3576	-0.25	0.5	0.	129.19
3577	3.5	1.25	0.	128.84
3578	3.75	1.5	0.	127.77
3579	3.25	1.5	0.	127.02
3580	4.	0.75	0.	130.76
3581	3.75	1.	0.	130.2
3582	4.	1.25	0.	129.15
3583	3.75	7.	0.	122.06
3584	3.5	6.75	0.	118.36
3585	3.25	7.	0.	118.94
3586	5.	6.75	0.	128.63
3587	4.75	7.	0.	128.25
3588	5.	5.25	0.	127.12
3589	5.	5.75	0.	126.84
3590	4.75	5.5	0.	128.19
3591	4.75	4.	0.	129.1
3592	5.	4.25	0.	129.36
3593	1.25	4.	0.	120.61
3594	1.	4.25	0.	120.73
3595	1.	3.75	0.	118.61
3596	3.	3.75	0.	122.53
3597	2.75	4.	0.	122.24
3598	3.	4.25	0.	120.92
3599	-0.5	5.25	0.	119.12
3600	-0.75	5.	0.	123.49
3601	-0.5	4.75	0.	122.07
3602	-2.	5.25	0.	132.06
3603	-1.75	5.	0.	131.41
3604	-2.	6.75	0.	129.15
3605	-2.	6.25	0.	129.57
3606	-1.75	6.5	0.	130.22
3607	-2.	8.25	0.	129.18
3608	-2.	7.75	0.	130.46
3609	-1.75	8.	0.	129.96
3610	0.75	8.	0.	123.32
3611	0.5	8.25	0.	121.93
3612	0.5	7.75	0.	120.19
3613	2.	7.75	0.	126.99
3614	2.	8.25	0.	126.26
3615	1.75	8.	0.	127.41
3616	5.25	1.1585e-011	0.	127.96
3617	5.	-0.25	0.	128.73
3618	4.75	2.247e-011	0.	128.73
3619	7.7498	-7.	0.	122.73
3620	7.4998	-6.75	0.	117.73
3621	7.2497	-7.	0.	122.61
3622	-6.25	9.7128e-012	0.	123.87
3623	-6.	-0.25	0.	124.12
3624	-6.	0.25	0.	124.28
3625	-6.75	1.0222e-011	0.	121.5
3626	-7.	0.25	0.	119.72
3627	-7.	-0.25	0.	120.21
3628	-6.5	0.25	0.	124.82
3629	-6.	1.25	0.	120.16
3630	-6.25	1.	0.	123.45
3631	-6.	0.75	0.	123.06
3632	6.4996	-6.7501	0.	130.62
3633	6.4995	-7.2501	0.	125.13
3634	6.7496	-7.0001	0.	125.44
3635	6.2495	-7.0001	0.	124.78
3636	5.75	8.4856e-012	0.	124.77
3637	6.	-0.25	0.	122.94
3638	6.	0.25	0.	122.34
3639	5.5	-0.25	0.	128.95
3640	1.	8.25	0.	124.85
3641	1.	7.75	0.	126.28
3642	1.25	8.	0.	126.64
3643	-1.75	7.	0.	130.99
3644	-2.	7.25	0.	130.34
3645	-2.	5.75	0.	131.44
3646	-1.75	6.	0.	131.85
3647	-2.25	6.	0.	130.22
3648	-1.75	5.5	0.	133.25
3649	-1.5	5.25	0.	132.61
3650	-1.25	5.	0.	128.64
3651	1.75	4.	0.	122.68
3652	1.5	4.25	0.	124.93
3653	1.5	3.75	0.	119.35
3654	4.25	4.	0.	127.48
3655	4.	4.25	0.	126.51
3656	4.	3.75	0.	125.48
3657	4.5	4.25	0.	130.96
3658	4.75	5.	0.	129.74
3659	5.	4.75	0.	128.87
3660	5.	6.25	0.	128.21
3661	4.75	6.	0.	128.94
3662	5.25	6.	0.	126.84
3663	4.75	6.5	0.	130.26
3664	4.	6.75	0.	125.1
3665	4.25	7.	0.	126.2
3666	4.	0.25	0.	130.49
3667	3.75	1.1318e-010	0.	131.02
3668	4.25	4.7853e-011	0.	129.25
3669	3.75	0.5	0.	132.56
3670	3.5	0.75	0.	132.02
3671	3.25	1.	0.	128.53
3672	0.25	1.	0.	125.68
3673	0.5	0.75	0.	125.56
3674	0.5	1.25	0.	120.68
3675	0.75	1.	0.	120.21
3676	0.75	-2.	0.	126.36
3677	0.5	-1.75	0.	129.94
3678	1.	-1.75	0.	124.91
3679	3.25	-2.	0.	127.09
3680	3.	-1.75	0.	126.17
3681	3.	-2.25	0.	126.1
3682	3.5	-1.75	0.	130.1
3683	3.75	-1.	0.	129.02
3684	4.	-1.25	0.	127.91
3685	2.9999	-6.25	0.	129.82
3686	3.2499	-6.	0.	130.51
3687	3.2498	-6.5	0.	130.99
3688	3.7496	-7.	0.	125.21
3689	3.4997	-6.75	0.	129.88
3690	3.4995	-7.25	0.	126.61
3691	3.9996	-6.75	0.	123.66
3692	3.5	-3.25	0.	131.76
3693	3.75	-3.	0.	128.1
3694	3.25	-4.	0.	131.07
3695	3.	-3.75	0.	129.66
3696	2.5	1.25	0.	124.26
3697	2.5	0.75	0.	119.92
3698	2.75	1.	0.	124.42
3699	2.25	1.	0.	119.48
3700	2.75	2.	0.	125.16
3701	3.	1.75	0.	125.52
3702	3.	3.25	0.	123.38
3703	2.75	3.	0.	124.57
3704	3.25	3.	0.	123.2
3705	2.75	3.5	0.	125.28
3706	2.25	4.	0.	123.25
3707	2.5	3.75	0.	125.04
3708	2.5	4.25	0.	121.08
3709	2.	3.75	0.	123.59
3710	2.	4.25	0.	124.67
3711	-0.25	4.	0.	124.76
3712	1.6858e-011	3.75	0.	124.06
3713	-0.5	3.75	0.	129.25
3714	-0.5	4.25	0.	125.18
3715	-1.	3.25	0.	129.51
3716	-0.75	3.5	0.	130.74
3717	-0.75	3.	0.	130.09
3718	-1.	1.75	0.	131.46
3719	-0.75	2.	0.	131.68
3720	-0.75	1.5	0.	133.73
3721	-0.25	1.	0.	130.16
3722	-0.5	1.25	0.	133.48
3723	1.5914e-011	1.25	0.	128.41
3724	2.0536e-011	0.75	0.	128.5
3725	-7.25	6.	0.	125.01
3726	-7.	5.75	0.	123.34
3727	-7.	6.25	0.	122.38
3728	-7.5	5.75	0.	129.51
3729	-8.	5.25	0.	129.36
3730	-8.25	5.5	0.	128.95
3731	-7.75	5.5	0.	130.58
3732	-8.25	5.	0.	128.3
3733	-7.75	5.	0.	129.84
3734	-4.75	2.	0.	127.06
3735	-5.25	2.	0.	121.46
3736	-5.	2.25	0.	125.62
3737	-4.5	2.25	0.	132.
3738	-4.5	1.75	0.	128.51
3739	-4.	2.75	0.	132.35
3740	-4.25	2.5	0.	133.34
3741	-4.25	3.	0.	132.99
3742	-4.	5.25	0.	132.13
3743	-4.25	5.	0.	132.69
3744	-4.25	5.5	0.	132.92
3745	-4.75	6.	0.	126.57
3746	-4.5	5.75	0.	131.49
3747	-5.	5.75	0.	124.97
3748	0.75	5.	0.	120.4
3749	0.5	5.25	0.	116.78
3750	2.25	7.	0.	122.96
3751	2.5	6.75	0.	118.34
3752	2.75	7.	0.	119.07
3753	-8.25	3.5	0.	126.84
3754	-8.	3.25	0.	126.55
3755	-7.75	3.5	0.	128.49
3756	-6.	1.75	0.	117.63
3757	-6.25	1.5	0.	120.85
3758	-8.25	2.3155e-012	0.	124.4
3759	-8.	0.25	0.	122.68
3760	-8.	-0.25	0.	122.09
3761	8.25	-4.0786e-011	0.	127.16
3762	8.	-0.25	0.	125.56
3763	1.25	4.5	0.	124.94
3764	1.	4.75	0.	122.4
3765	2.	7.25	0.	126.5
3766	1.75	7.5	0.	129.79
3767	7.75	-4.	0.	118.86
3768	7.25	-4.	0.	116.07
3769	7.5	-3.75	0.	115.08
3770	7.5	-4.25	0.	112.37
3771	4.75	-3.	0.	121.45
3772	4.5	-3.25	0.	120.19
3773	4.25	-3.	0.	124.16
3774	-5.75	2.	0.	117.69
3775	-5.5	2.25	0.	117.19
3776	8.2498	-7.	0.	126.78
3777	7.9998	-6.75	0.	124.54
3778	8.25	-4.	0.	127.41
3779	8.	-3.75	0.	124.49
3780	8.	-4.25	0.	122.34
3781	-7.75	8.5	0.	124.46
3782	-8.25	8.5	0.	124.91
3783	-8.	8.75	0.	124.66
3784	-7.25	8.5	0.	123.97
3785	-7.5	8.75	0.	124.26
3786	-7.5	8.25	0.	124.17
3787	-6.75	8.5	0.	123.56
3788	-7.	8.75	0.	123.89
3789	-6.25	8.5	0.	123.37
3790	-6.5	8.75	0.	123.64
3791	-5.75	8.5	0.	123.5
3792	-6.	8.75	0.	123.63
3793	-5.25	8.5	0.	123.95
3794	-5.5	8.75	0.	123.9
3795	-4.75	8.5	0.	124.61
3796	-5.	8.75	0.	124.4
3797	-4.25	8.5	0.	125.36
3798	-4.5	8.75	0.	125.02
3799	-3.75	8.5	0.	126.11
3800	-4.	8.75	0.	125.67
3801	-3.25	8.5	0.	126.85
3802	-3.5	8.75	0.	126.29
3803	-3.5	8.25	0.	126.7
3804	-2.75	8.5	0.	127.56
3805	-3.	8.75	0.	126.89
3806	-2.25	8.5	0.	128.11
3807	-2.5	8.75	0.	127.41
3808	-1.75	8.5	0.	127.95
3809	-2.	8.75	0.	127.6
3810	-1.25	8.5	0.	126.56
3811	-1.5	8.75	0.	126.95
3812	-1.5	8.25	0.	128.76
3813	-0.75	8.5	0.	124.24
3814	-1.	8.75	0.	125.27
3815	-1.	8.25	0.	125.86
3816	-0.25	8.5	0.	122.34
3817	-0.5	8.75	0.	123.33
3818	-0.5	8.25	0.	122.37
3819	0.25	8.5	0.	122.1
3820	1.6538e-011	8.75	0.	122.35
3821	0.75	8.5	0.	123.46
3822	0.5	8.75	0.	122.83
3823	1.25	8.5	0.	125.15
3824	1.	8.75	0.	124.23
3825	1.75	8.5	0.	125.78
3826	1.5	8.75	0.	125.28
3827	1.5	8.25	0.	126.94
3828	2.25	8.5	0.	125.17
3829	2.	8.75	0.	125.26
3830	2.75	8.5	0.	124.2
3831	2.5	8.75	0.	124.54
3832	3.25	8.5	0.	123.75
3833	3.	8.75	0.	123.96
3834	3.	8.25	0.	123.27
3835	3.75	8.5	0.	124.02
3836	3.5	8.75	0.	123.93
3837	4.25	8.5	0.	124.69
3838	4.	8.75	0.	124.38
3839	4.5	8.75	0.	124.98
3840	4.75	8.5	0.	125.34
3841	5.75	8.5	0.	125.81
3842	5.5	8.75	0.	125.64
3843	5.25	8.5	0.	125.72
3844	6.25	8.5	0.	125.7
3845	6.	8.75	0.	125.64
3846	6.75	8.5	0.	125.53
3847	6.5	8.75	0.	125.54
3848	7.25	8.5	0.	125.35
3849	7.	8.75	0.	125.4
3850	7.5	8.75	0.	125.26
3851	7.75	8.5	0.	125.19
3852	8.5	8.25	0.	124.93
3853	8.75	8.5	0.	124.91
3854	8.5	8.75	0.	125.01
3855	8.25	8.5	0.	125.04
3856	8.5	7.75	0.	124.86
3857	8.75	8.	0.	124.81
3858	8.5	7.25	0.	124.78
3859	8.75	7.5	0.	124.72
3860	8.5	6.75	0.	124.71
3861	8.75	7.	0.	124.65
3862	8.5	6.25	0.	124.68
3863	8.75	6.5	0.	124.59
3864	8.5	5.75	0.	124.68
3865	8.75	6.	0.	124.58
3866	8.5	5.25	0.	124.75
3867	8.75	5.5	0.	124.64
3868	8.25	5.5	0.	124.73
3869	8.5	4.75	0.	124.86
3870	8.75	5.	0.	124.75
3871	8.5	4.25	0.	125.
3872	8.75	4.5	0.	124.92
3873	8.25	4.5	0.	124.91
3874	8.5	3.75	0.	125.14
3875	8.75	4.	0.	125.13
3876	8.5	3.25	0.	125.25
3877	8.75	3.5	0.	125.35
3878	8.5	2.75	0.	125.34
3879	8.75	3.	0.	125.57
3880	8.5	2.25	0.	125.41
3881	8.75	2.5	0.	125.79
3882	8.5	1.75	0.	125.55
3883	8.75	2.	0.	126.07
3884	8.5	1.25	0.	125.92
3885	8.75	1.5	0.	126.48
3886	8.5	0.75	0.	126.78
3887	8.75	1.	0.	127.2
3888	8.5	0.25	0.	128.67
3889	8.75	0.5	0.	128.49
3890	8.75	-8.9003e-011	0.	130.75
3891	8.5	-0.25	0.	132.3
3892	8.75	-4.	0.	133.24
3893	8.5	-3.75	0.	133.88
3894	8.5	-4.25	0.	132.63
3895	8.4998	-7.25	0.	128.48
3896	8.7499	-7.	0.	130.04
3897	8.4999	-6.75	0.	131.02
3898	8.4998	-7.75	0.	127.46
3899	8.7499	-7.5	0.	128.7
3900	8.4998	-8.25	0.	127.06
3901	8.7499	-8.	0.	128.08
3902	8.2498	-8.5	0.	126.1
3903	8.4998	-8.75	0.	126.86
3904	8.7499	-8.5	0.	127.75
3905	7.7497	-8.5	0.	124.55
3906	7.9998	-8.75	0.	125.25
3907	7.2496	-8.5	0.	123.26
3908	7.4997	-8.75	0.	123.82
3909	6.9996	-8.75	0.	122.63
3910	6.7495	-8.5	0.	122.16
3911	5.9993	-8.75	0.	120.54
3912	6.2493	-8.5	0.	121.08
3913	5.7492	-8.5	0.	120.07
3914	4.7491	-8.5	0.	119.83
3915	4.9992	-8.75	0.	119.7
3916	5.2491	-8.5	0.	119.52
3917	4.2491	-8.5	0.	121.01
3918	4.4992	-8.75	0.	120.42
3919	3.7493	-8.5	0.	122.69
3920	3.9993	-8.75	0.	121.8
3921	3.2494	-8.5	0.	124.33
3922	3.4994	-8.75	0.	123.4
3923	2.7496	-8.5	0.	125.58
3924	2.9996	-8.75	0.	124.81
3925	2.2497	-8.5	0.	126.35
3926	2.4997	-8.75	0.	125.83
3927	1.7498	-8.5	0.	126.73
3928	1.9998	-8.75	0.	126.44
3929	1.2499	-8.5	0.	126.86
3930	1.4999	-8.75	0.	126.74
3931	0.74992	-8.5	0.	126.85
3932	0.99991	-8.75	0.	126.84
3933	0.24995	-8.5	0.	126.77
3934	0.49995	-8.75	0.	126.83
3935	-0.25003	-8.5	0.	126.66
3936	-3.2175e-005	-8.75	0.	126.75
3937	-0.75002	-8.5	0.	126.53
3938	-0.50002	-8.75	0.	126.64
3939	-1.25	-8.5	0.	126.4
3940	-1.	-8.75	0.	126.51
3941	-1.75	-8.5	0.	126.27
3942	-1.5	-8.75	0.	126.37
3943	-2.25	-8.5	0.	126.14
3944	-2.	-8.75	0.	126.24
3945	-2.75	-8.5	0.	126.
3946	-2.5	-8.75	0.	126.1
3947	-3.25	-8.5	0.	125.86
3948	-3.	-8.75	0.	125.96
3949	-3.75	-8.5	0.	125.73
3950	-3.5	-8.75	0.	125.81
3951	-3.5	-8.25	0.	125.77
3952	-4.25	-8.5	0.	125.59
3953	-4.	-8.75	0.	125.67
3954	-4.75	-8.5	0.	125.45
3955	-4.5	-8.75	0.	125.53
3956	-5.25	-8.5	0.	125.31
3957	-5.	-8.75	0.	125.39
3958	-5.75	-8.5	0.	125.17
3959	-5.5	-8.75	0.	125.25
3960	-6.25	-8.5	0.	125.04
3961	-6.	-8.75	0.	125.11
3962	-6.75	-8.5	0.	124.91
3963	-6.5	-8.75	0.	124.98
3964	-7.25	-8.5	0.	124.78
3965	-7.	-8.75	0.	124.85
3966	-7.75	-8.5	0.	124.66
3967	-7.5	-8.75	0.	124.72
3968	-8.25	-8.5	0.	124.53
3969	-8.	-8.75	0.	124.6
3970	-8.5	-8.25	0.	124.46
3971	-8.75	-8.5	0.	124.4
3972	-8.5	-8.75	0.	124.47
3973	-8.5	-7.75	0.	124.46
3974	-8.75	-8.	0.	124.4
3975	-8.5	-7.25	0.	124.45
3976	-8.75	-7.5	0.	124.4
3977	-8.5	-6.75	0.	124.45
3978	-8.75	-7.	0.	124.4
3979	-8.5	-6.25	0.	124.45
3980	-8.75	-6.5	0.	124.4
3981	-8.5	-5.75	0.	124.44
3982	-8.75	-6.	0.	124.4
3983	-8.75	-5.5	0.	124.41
3984	-8.5	-5.25	0.	124.44
3985	-8.5	-4.25	0.	124.42
3986	-8.75	-4.5	0.	124.44
3987	-8.5	-4.75	0.	124.43
3988	-8.5	-3.75	0.	124.4
3989	-8.75	-4.	0.	124.46
3990	-8.5	-3.25	0.	124.36
3991	-8.75	-3.5	0.	124.49
3992	-8.5	-2.75	0.	124.32
3993	-8.75	-3.	0.	124.52
3994	-8.5	-2.25	0.	124.26
3995	-8.75	-2.5	0.	124.56
3996	-8.5	-1.75	0.	124.23
3997	-8.75	-2.	0.	124.63
3998	-8.25	-2.	0.	123.88
3999	-8.5	-1.25	0.	124.31
4000	-8.75	-1.5	0.	124.77
4001	-8.5	-0.75	0.	124.71
4002	-8.75	-1.	0.	125.11
4003	-8.5	-0.25	0.	125.96
4004	-8.75	-0.5	0.	125.88
4005	-8.25	-0.5	0.	123.65
4006	-8.75	1.193e-012	0.	127.58
4007	-8.5	0.25	0.	129.02
4008	-8.5	3.25	0.	128.16
4009	-8.75	3.	0.	129.13
4010	-8.25	3.	0.	127.88
4011	-8.5	2.75	0.	131.49
4012	-8.5	3.75	0.	126.83
4013	-8.75	3.5	0.	127.18
4014	-8.5	4.25	0.	126.69
4015	-8.75	4.	0.	126.47
4016	-8.5	4.75	0.	127.19
4017	-8.75	4.5	0.	126.58
4018	-8.5	5.25	0.	127.89
4019	-8.75	5.	0.	127.16
4020	-8.5	5.75	0.	128.14
4021	-8.75	5.5	0.	127.73
4022	-8.5	6.25	0.	127.68
4023	-8.75	6.	0.	127.7
4024	-8.5	6.75	0.	126.89
4025	-8.75	6.5	0.	127.19
4026	-8.25	6.5	0.	127.17
4027	-8.5	7.25	0.	126.16
4028	-8.75	7.	0.	126.55
4029	-8.5	7.75	0.	125.62
4030	-8.75	7.5	0.	126.
4031	-8.5	8.25	0.	125.26
4032	-8.75	8.	0.	125.58
4033	-8.75	8.5	0.	125.27
4034	-8.5	8.75	0.	125.
4035	-9.	-7.75	0.	124.34
4036	-9.	-8.25	0.	124.34
4037	-9.25	-8.	0.	124.27
4038	-9.	-7.25	0.	124.34
4039	-9.25	-7.5	0.	124.27
4040	-9.	-6.75	0.	124.34
4041	-9.25	-7.	0.	124.27
4042	-9.	-6.25	0.	124.35
4043	-9.25	-6.5	0.	124.28
4044	-9.	-5.75	0.	124.37
4045	-9.25	-6.	0.	124.3
4046	-9.	-5.25	0.	124.39
4047	-9.25	-5.5	0.	124.33
4048	-9.	-4.75	0.	124.43
4049	-9.25	-5.	0.	124.38
4050	-8.75	-5.	0.	124.42
4051	-9.25	-4.5	0.	124.44
4052	-9.	-4.25	0.	124.48
4053	-9.	-3.25	0.	124.64
4054	-9.25	-3.5	0.	124.66
4055	-9.	-3.75	0.	124.55
4056	-9.	-2.75	0.	124.76
4057	-9.25	-3.	0.	124.83
4058	-9.25	-2.5	0.	125.06
4059	-9.	-2.25	0.	124.93
4060	-9.	-0.75	0.	126.29
4061	-9.25	-1.	0.	126.34
4062	-9.	-1.25	0.	125.57
4063	-9.	-0.25	0.	127.51
4064	-9.25	-0.5	0.	127.17
4065	-9.	0.25	0.	128.83
4066	-9.25	5.4427e-013	0.	128.23
4067	-9.	0.75	0.	129.24
4068	-8.75	0.5	0.	130.26
4069	-9.25	0.5	0.	128.89
4070	-9.	1.25	0.	128.64
4071	-8.75	1.	0.	130.01
4072	-9.25	1.	0.	128.52
4073	-9.	1.75	0.	129.03
4074	-8.75	1.5	0.	130.02
4075	-9.25	1.5	0.	127.97
4076	-9.	2.25	0.	130.16
4077	-8.75	2.	0.	131.44
4078	-9.25	2.	0.	128.88
4079	-9.	2.75	0.	129.75
4080	-9.25	2.5	0.	129.25
4081	-8.75	2.5	0.	132.11
4082	-9.	3.25	0.	128.15
4083	-9.25	3.	0.	128.26
4084	-9.25	3.5	0.	126.93
4085	-9.	3.75	0.	126.82
4086	-9.	4.75	0.	126.55
4087	-9.25	4.5	0.	126.07
4088	-9.	4.25	0.	126.36
4089	-9.25	5.	0.	126.42
4090	-9.	5.25	0.	127.
4091	-9.	6.25	0.	127.2
4092	-9.25	6.	0.	127.06
4093	-9.	5.75	0.	127.28
4094	-9.	6.75	0.	126.84
4095	-9.25	6.5	0.	126.96
4096	-9.	7.25	0.	126.38
4097	-9.25	7.	0.	126.65
4098	-9.	7.75	0.	125.95
4099	-9.25	7.5	0.	126.26
4100	-9.	8.25	0.	125.58
4101	-9.25	8.	0.	125.88
4102	-9.	8.75	0.	125.28
4103	-9.25	8.5	0.	125.52
4104	-9.	-8.75	0.	124.34
4105	-9.25	-8.5	0.	124.27
4106	-8.25	-9.	0.	124.53
4107	-8.75	-9.	0.	124.4
4108	-8.5	-9.25	0.	124.47
4109	-7.75	-9.	0.	124.66
4110	-8.	-9.25	0.	124.6
4111	-7.25	-9.	0.	124.79
4112	-7.5	-9.25	0.	124.73
4113	-6.75	-9.	0.	124.92
4114	-7.	-9.25	0.	124.86
4115	-6.25	-9.	0.	125.06
4116	-6.5	-9.25	0.	124.99
4117	-5.75	-9.	0.	125.19
4118	-6.	-9.25	0.	125.13
4119	-5.25	-9.	0.	125.33
4120	-5.5	-9.25	0.	125.27
4121	-4.75	-9.	0.	125.47
4122	-5.	-9.25	0.	125.41
4123	-4.25	-9.	0.	125.62
4124	-4.5	-9.25	0.	125.55
4125	-3.75	-9.	0.	125.76
4126	-4.	-9.25	0.	125.7
4127	-3.25	-9.	0.	125.91
4128	-3.5	-9.25	0.	125.84
4129	-2.75	-9.	0.	126.05
4130	-3.	-9.25	0.	125.99
4131	-2.25	-9.	0.	126.2
4132	-2.5	-9.25	0.	126.14
4133	-1.75	-9.	0.	126.34
4134	-2.	-9.25	0.	126.29
4135	-1.25	-9.	0.	126.48
4136	-1.5	-9.25	0.	126.43
4137	-0.75001	-9.	0.	126.61
4138	-1.	-9.25	0.	126.57
4139	-0.25002	-9.	0.	126.73
4140	-0.50001	-9.25	0.	126.7
4141	0.24997	-9.	0.	126.8
4142	-1.9116e-005	-9.25	0.	126.79
4143	0.74994	-9.	0.	126.82
4144	0.49997	-9.25	0.	126.83
4145	1.2499	-9.	0.	126.72
4146	0.99994	-9.25	0.	126.77
4147	1.7498	-9.	0.	126.44
4148	1.4999	-9.25	0.	126.56
4149	2.2498	-9.	0.	125.91
4150	1.9999	-9.25	0.	126.13
4151	2.4998	-9.25	0.	125.43
4152	2.7497	-9.	0.	125.06
4153	3.7494	-9.	0.	122.52
4154	3.4996	-9.25	0.	123.15
4155	3.2496	-9.	0.	123.89
4156	4.2494	-9.	0.	121.21
4157	3.9996	-9.25	0.	121.82
4158	4.7493	-9.	0.	120.29
4159	4.4995	-9.25	0.	120.72
4160	5.2493	-9.	0.	119.97
4161	4.9995	-9.25	0.	120.1
4162	5.7494	-9.	0.	120.27
4163	5.4995	-9.25	0.	120.09
4164	5.4993	-8.75	0.	119.8
4165	6.2495	-9.	0.	121.02
4166	5.9996	-9.25	0.	120.6
4167	6.7496	-9.	0.	122.02
4168	6.4996	-9.25	0.	121.46
4169	6.4995	-8.75	0.	121.56
4170	7.2497	-9.	0.	123.19
4171	6.9997	-9.25	0.	122.54
4172	7.7498	-9.	0.	124.52
4173	7.4998	-9.25	0.	123.8
4174	8.2498	-9.	0.	126.02
4175	7.9998	-9.25	0.	125.22
4176	8.7499	-9.	0.	127.57
4177	8.4999	-9.25	0.	126.76
4178	8.9999	-8.25	0.	128.77
4179	8.9999	-8.75	0.	128.46
4180	9.2499	-8.5	0.	129.31
4181	8.9999	-7.75	0.	129.32
4182	9.2499	-8.	0.	129.68
4183	8.9999	-7.25	0.	130.27
4184	9.2499	-7.5	0.	130.23
4185	9.2499	-7.	0.	130.96
4186	8.9999	-6.75	0.	131.22
4187	9.	-5.25	0.	130.44
4188	8.75	-5.5	0.	130.41
4189	9.25	-5.5	0.	129.96
4190	9.	-5.75	0.	130.11
4191	9.	-4.75	0.	132.35
4192	8.75	-5.	0.	131.64
4193	9.25	-5.	0.	131.36
4194	9.	-4.25	0.	133.86
4195	8.75	-4.5	0.	133.24
4196	9.25	-4.5	0.	133.03
4197	9.	-3.75	0.	134.62
4198	9.25	-4.	0.	133.99
4199	9.	-3.25	0.	134.56
4200	8.75	-3.5	0.	135.25
4201	9.25	-3.5	0.	134.2
4202	9.	-2.75	0.	133.83
4203	8.75	-3.	0.	134.84
4204	9.25	-3.	0.	133.48
4205	9.	-2.25	0.	133.51
4206	8.75	-2.5	0.	135.42
4207	9.25	-2.5	0.	132.59
4208	9.	-1.75	0.	133.25
4209	8.75	-2.	0.	136.4
4210	9.25	-2.	0.	132.42
4211	9.	-1.25	0.	133.05
4212	8.75	-1.5	0.	135.09
4213	9.25	-1.5	0.	132.04
4214	9.	-0.75	0.	133.17
4215	8.75	-1.	0.	133.85
4216	9.25	-1.	0.	132.4
4217	9.	-0.25	0.	132.34
4218	8.75	-0.5	0.	133.86
4219	9.25	-0.5	0.	132.55
4220	9.	0.25	0.	130.59
4221	9.25	-1.0986e-010	0.	131.63
4222	9.	0.75	0.	128.91
4223	9.25	0.5	0.	130.22
4224	9.	1.25	0.	127.76
4225	9.25	1.	0.	128.99
4226	9.	1.75	0.	126.99
4227	9.25	1.5	0.	128.01
4228	9.	2.25	0.	126.45
4229	9.25	2.	0.	127.23
4230	9.	2.75	0.	126.02
4231	9.25	2.5	0.	126.58
4232	9.	3.25	0.	125.66
4233	9.25	3.	0.	126.04
4234	9.25	3.5	0.	125.57
4235	9.	3.75	0.	125.33
4236	9.	4.75	0.	124.82
4237	9.25	4.5	0.	124.85
4238	9.	4.25	0.	125.05
4239	9.	5.25	0.	124.64
4240	9.25	5.	0.	124.6
4241	9.25	5.5	0.	124.43
4242	9.	5.75	0.	124.54
4243	9.	6.75	0.	124.52
4244	9.25	6.5	0.	124.35
4245	9.	6.25	0.	124.5
4246	9.	7.25	0.	124.59
4247	9.25	7.	0.	124.41
4248	9.	7.75	0.	124.68
4249	9.25	7.5	0.	124.52
4250	9.	8.25	0.	124.78
4251	9.25	8.	0.	124.64
4252	9.	8.75	0.	124.89
4253	9.25	8.5	0.	124.77
4254	8.25	9.	0.	125.11
4255	8.75	9.	0.	125.
4256	8.5	9.25	0.	125.09
4257	7.75	9.	0.	125.21
4258	8.	9.25	0.	125.19
4259	8.	8.75	0.	125.14
4260	7.25	9.	0.	125.32
4261	7.5	9.25	0.	125.29
4262	6.75	9.	0.	125.41
4263	7.	9.25	0.	125.37
4264	6.25	9.	0.	125.48
4265	6.5	9.25	0.	125.43
4266	5.75	9.	0.	125.47
4267	6.	9.25	0.	125.44
4268	5.25	9.	0.	125.35
4269	5.5	9.25	0.	125.35
4270	4.75	9.	0.	125.06
4271	5.	9.25	0.	125.15
4272	5.	8.75	0.	125.43
4273	4.25	9.	0.	124.66
4274	4.5	9.25	0.	124.83
4275	3.75	9.	0.	124.29
4276	4.	9.25	0.	124.46
4277	3.25	9.	0.	124.14
4278	3.5	9.25	0.	124.19
4279	2.75	9.	0.	124.3
4280	3.	9.25	0.	124.13
4281	2.25	9.	0.	124.63
4282	2.5	9.25	0.	124.28
4283	2.	9.25	0.	124.44
4284	1.75	9.	0.	124.76
4285	0.75	9.	0.	123.6
4286	1.	9.25	0.	123.82
4287	1.25	9.	0.	124.37
4288	0.5	9.25	0.	123.29
4289	0.25	9.	0.	123.07
4290	-0.75	9.	0.	124.37
4291	-0.5	9.25	0.	123.83
4292	-0.25	9.	0.	123.32
4293	-1.25	9.	0.	125.67
4294	-1.	9.25	0.	124.9
4295	-1.75	9.	0.	126.6
4296	-1.5	9.25	0.	125.92
4297	-2.25	9.	0.	126.89
4298	-2.	9.25	0.	126.49
4299	-2.75	9.	0.	126.73
4300	-2.5	9.25	0.	126.59
4301	-3.25	9.	0.	126.33
4302	-3.	9.25	0.	126.39
4303	-3.75	9.	0.	125.85
4304	-3.5	9.25	0.	126.03
4305	-4.25	9.	0.	125.33
4306	-4.	9.25	0.	125.59
4307	-4.75	9.	0.	124.81
4308	-4.5	9.25	0.	125.11
4309	-5.25	9.	0.	124.35
4310	-5.	9.25	0.	124.65
4311	-5.75	9.	0.	124.03
4312	-5.5	9.25	0.	124.27
4313	-6.	9.25	0.	124.05
4314	-6.25	9.	0.	123.9
4315	-7.75	9.	0.	124.46
4316	-7.5	9.25	0.	124.31
4317	-7.25	9.	0.	124.18
4318	-8.25	9.	0.	124.75
4319	-8.	9.25	0.	124.56
4320	-8.75	9.	0.	125.01
4321	-8.5	9.25	0.	124.81
4322	-4.5	5.25	0.	133.44
4323	-4.75	5.5	0.	129.81
4324	-4.5	2.75	0.	133.95
4325	-4.75	2.5	0.	130.49
4326	-6.	2.25	0.	116.73
4327	-6.25	2.	0.	118.89
4328	-7.75	3.	0.	125.88
4329	-8.	2.75	0.	127.08
4330	-7.5	5.25	0.	131.03
4331	-7.25	5.5	0.	127.79
4332	-0.25	1.5	0.	131.7
4333	-0.5	1.75	0.	133.9
4334	-0.5	3.25	0.	131.27
4335	-0.25	3.5	0.	128.46
4336	2.25	3.5	0.	125.33
4337	2.5	3.25	0.	126.42
4338	2.5	1.75	0.	126.12
4339	2.25	1.5	0.	123.23
4340	2.75	1.5	0.	126.52
4341	3.75	-3.5	0.	131.1
4342	3.5	-3.75	0.	133.11
4343	3.25	-3.5	0.	131.76
4344	5.	-3.25	0.	120.61
4345	5.25	-3.	0.	123.04
4346	5.	-2.75	0.	122.19
4347	6.75	-4.	0.	121.06
4348	7.	-3.75	0.	117.26
4349	7.	-4.25	0.	118.3
4350	3.7498	-6.5	0.	128.26
4351	3.4999	-6.25	0.	131.64
4352	3.25	-1.5	0.	129.14
4353	3.5	-1.25	0.	130.93
4354	3.75	-1.5	0.	129.87
4355	0.75	-1.5	0.	128.45
4356	0.5	-1.25	0.	130.51
4357	0.25	-1.5	0.	130.41
4358	0.5	0.25	0.	128.04
4359	0.75	0.5	0.	124.42
4360	0.25	0.5	0.	128.33
4361	3.25	0.5	0.	130.5
4362	3.5	0.25	0.	133.04
4363	2.	6.75	0.	125.36
4364	1.75	7.	0.	129.3
4365	4.25	6.5	0.	128.74
4366	4.5	6.25	0.	130.95
4367	4.5	6.75	0.	129.89
4368	4.5	4.75	0.	132.01
4369	4.25	4.5	0.	129.94
4370	4.75	4.5	0.	131.21
4371	1.75	4.5	0.	126.77
4372	1.5	4.75	0.	128.66
4373	1.25	5.	0.	126.14
4374	1.	5.25	0.	123.18
4375	-1.25	5.5	0.	130.53
4376	-1.5	5.75	0.	133.61
4377	-1.5	7.25	0.	132.91
4378	-1.25	7.5	0.	130.83
4379	-1.75	7.5	0.	132.3
4380	-1.5	7.75	0.	131.82
4381	1.25	7.5	0.	129.79
4382	1.5	7.25	0.	132.53
4383	1.5	7.75	0.	130.22
4384	5.5	-0.75	0.	130.07
4385	5.75	-0.5	0.	127.07
4386	5.25	-0.5	0.	129.71
4387	8.25	-0.5	0.	130.63
4388	8.5	-0.75	0.	134.52
4389	8.5	-3.25	0.	135.5
4390	8.25	-3.5	0.	130.92
4391	8.25	-4.5	0.	127.58
4392	8.5	-4.75	0.	132.5
4393	8.4999	-6.25	0.	132.26
4394	8.7499	-6.5	0.	132.19
4395	8.2499	-6.5	0.	128.75
4396	6.2497	-6.5	0.	129.63
4397	6.7498	-6.5	0.	130.
4398	6.4998	-6.25	0.	133.37
4399	-6.5	0.75	0.	125.58
4400	-6.75	0.5	0.	123.03
4401	-6.25	0.5	0.	125.22
4402	-8.25	0.5	0.	127.25
4403	-8.5	0.75	0.	130.99
4404	-9.	9.25	0.	125.02
4405	-9.25	9.	0.	125.22
4406	9.25	9.	0.	124.9
4407	9.	9.25	0.	125.
4408	9.2499	-9.	0.	129.07
4409	8.9999	-9.25	0.	128.29
4410	-9.	-9.25	0.	124.34
4411	-9.25	-9.	0.	124.27
4412	-4.5	4.75	0.	134.52
4413	-4.5	4.25	0.	136.67
4414	-4.5	3.75	0.	136.77
4415	-4.5	3.25	0.	134.85
4416	-5.25	2.5	0.	121.34
4417	-5.75	2.5	0.	116.19
4418	-6.25	2.5	0.	117.78
4419	-6.75	2.5	0.	122.
4420	-6.5	2.25	0.	119.95
4421	-7.5	3.25	0.	127.84
4422	-7.5	2.75	0.	122.25
4423	-7.5	3.75	0.	131.79
4424	-7.5	4.25	0.	132.64
4425	-7.5	4.75	0.	131.39
4426	-6.75	5.5	0.	118.87
4427	-5.25	5.5	0.	120.2
4428	-5.75	5.5	0.	114.09
4429	-6.25	5.5	0.	113.7
4430	-0.5	2.75	0.	131.14
4431	-0.5	2.25	0.	132.06
4432	0.25	3.5	0.	121.13
4433	0.75	3.5	0.	117.3
4434	1.25	3.5	0.	117.25
4435	1.75	3.5	0.	120.18
4436	2.5	2.75	0.	125.65
4437	2.5	2.25	0.	125.6
4438	1.75	1.5	0.	116.71
4439	2.	1.25	0.	118.58
4440	1.25	1.5	0.	114.96
4441	1.5	1.25	0.	114.07
4442	0.25	1.5	0.	123.32
4443	0.75	1.5	0.	117.46
4444	1.	1.25	0.	117.06
4445	4.25	-3.5	0.	123.49
4446	4.	-3.25	0.	127.49
4447	4.75	-3.5	0.	119.27
4448	5.25	-3.5	0.	121.53
4449	5.5	-3.25	0.	123.99
4450	5.75	-3.5	0.	126.2
4451	6.5	-4.25	0.	129.01
4452	6.5	-3.75	0.	123.41
4453	6.75	-4.5	0.	126.02
4454	6.5	-4.75	0.	134.14
4455	5.7497	-6.5	0.	119.29
4456	5.9996	-6.75	0.	123.9
4457	5.2497	-6.5	0.	113.41
4458	4.7497	-6.5	0.	113.38
4459	4.2497	-6.5	0.	119.08
4460	3.5	-5.75	0.	132.62
4461	3.5	-5.25	0.	134.83
4462	3.5	-4.75	0.	135.23
4463	3.5	-4.25	0.	133.62
4464	2.75	-1.5	0.	122.05
4465	2.25	-1.5	0.	117.57
4466	1.75	-1.5	0.	117.23
4467	1.25	-1.5	0.	121.07
4468	0.5	-0.75	0.	128.91
4469	0.25	-1.	0.	128.59
4470	0.5	-0.25	0.	128.17
4471	0.25	-5.6275e-011	0.	127.66
4472	1.25	0.5	0.	117.32
4473	1.	0.75	0.	119.24
4474	1.75	0.5	0.	115.09
4475	1.5	0.75	0.	114.25
4476	2.25	0.5	0.	117.18
4477	2.	0.75	0.	116.79
4478	2.75	0.5	0.	122.47
4479	3.	0.75	0.	127.04
4480	3.5	-0.25	0.	131.47
4481	3.5	-0.75	0.	130.47
4482	2.25	6.5	0.	120.7
4483	1.75	6.5	0.	129.77
4484	2.75	6.5	0.	116.94
4485	3.25	6.5	0.	117.09
4486	3.	6.75	0.	117.71
4487	3.75	6.5	0.	121.39
4488	4.5	5.75	0.	130.26
4489	4.5	5.25	0.	130.78
4490	3.75	4.5	0.	123.17
4491	3.25	4.5	0.	119.73
4492	2.75	4.5	0.	119.69
4493	2.25	4.5	0.	122.48
4494	1.5	5.25	0.	131.4
4495	1.25	5.5	0.	128.38
4496	1.5	5.75	0.	133.74
4497	0.75	5.5	0.	119.55
4498	0.25	5.5	0.	116.27
4499	-0.25	5.5	0.	117.29
4500	-0.75	5.5	0.	122.18
4501	-1.	5.25	0.	126.58
4502	-1.5	6.25	0.	132.47
4503	-1.5	6.75	0.	132.02
4504	-0.75	7.5	0.	123.45
4505	-1.	7.75	0.	127.13
4506	-0.25	7.5	0.	119.23
4507	-0.5	7.75	0.	120.34
4508	0.25	7.5	0.	119.29
4509	0.75	7.5	0.	123.13
4510	1.5	6.75	0.	133.71
4511	1.5	6.25	0.	134.41
4512	5.5	-2.75	0.	127.32
4513	5.5	-2.25	0.	130.85
4514	5.25	-2.5	0.	126.4
4515	5.5	-1.75	0.	131.55
4516	5.25	-2.	0.	128.93
4517	5.5	-1.25	0.	130.32
4518	5.25	-1.	0.	128.73
4519	5.25	-1.5	0.	128.81
4520	6.25	-0.5	0.	118.49
4521	6.75	-0.5	0.	113.69
4522	7.25	-0.5	0.	114.35
4523	7.75	-0.5	0.	120.75
4524	8.5	-1.25	0.	135.87
4525	8.5	-1.75	0.	138.24
4526	8.5	-2.25	0.	138.32
4527	8.5	-2.75	0.	136.41
4528	7.75	-3.5	0.	120.74
4529	7.25	-3.5	0.	116.3
4530	6.75	-3.5	0.	119.59
4531	6.25	-3.5	0.	125.56
4532	7.25	-4.5	0.	114.59
4533	7.75	-4.5	0.	115.82
4534	8.5	-5.25	0.	131.57
4535	8.5	-5.75	0.	131.52
4536	8.75	-6.	0.	131.26
4537	7.2498	-6.5	0.	119.98
4538	6.9997	-6.75	0.	124.92
4539	7.7499	-6.5	0.	119.44
4540	6.5	-5.75	0.	133.61
4541	6.5	-5.25	0.	135.01
4542	-7.75	2.5	0.	123.29
4543	-8.25	2.5	0.	130.69
4544	-7.25	2.5	0.	121.98
4545	-6.5	1.75	0.	122.12
4546	-6.5	1.25	0.	124.17
4547	-7.25	0.5	0.	115.63
4548	-7.75	0.5	0.	117.5
4549	-8.5	1.75	0.	132.41
4550	-8.5	2.25	0.	133.34
4551	-8.5	1.25	0.	131.37
4552	-8.75	9.5	0.	124.81
4553	-9.25	9.5	0.	124.98
4554	-8.25	9.5	0.	124.61
4555	-7.75	9.5	0.	124.4
4556	-7.25	9.5	0.	124.23
4557	-6.75	9.5	0.	124.13
4558	-7.	9.25	0.	124.1
4559	-6.25	9.5	0.	124.14
4560	-6.5	9.25	0.	123.99
4561	-5.75	9.5	0.	124.29
4562	-5.25	9.5	0.	124.57
4563	-4.75	9.5	0.	124.95
4564	-4.25	9.5	0.	125.37
4565	-3.75	9.5	0.	125.77
4566	-2.75	9.5	0.	126.25
4567	-3.25	9.5	0.	126.09
4568	-2.25	9.5	0.	126.18
4569	-1.75	9.5	0.	125.8
4570	-1.25	9.5	0.	125.15
4571	-0.75	9.5	0.	124.36
4572	-0.25	9.5	0.	123.71
4573	0.25	9.5	0.	123.43
4574	1.1021e-011	9.25	0.	123.21
4575	0.75	9.5	0.	123.51
4576	1.25	9.5	0.	123.77
4577	1.75	9.5	0.	123.99
4578	1.5	9.25	0.	124.32
4579	2.25	9.5	0.	124.08
4580	2.75	9.5	0.	124.11
4581	3.25	9.5	0.	124.18
4582	3.75	9.5	0.	124.36
4583	4.25	9.5	0.	124.63
4584	4.75	9.5	0.	124.92
4585	5.25	9.5	0.	125.16
4586	5.75	9.5	0.	125.31
4587	6.25	9.5	0.	125.39
4588	6.75	9.5	0.	125.39
4589	7.25	9.5	0.	125.34
4590	7.75	9.5	0.	125.27
4591	8.25	9.5	0.	125.18
4592	8.75	9.5	0.	125.09
4593	9.5	9.25	0.	124.91
4594	9.25	9.5	0.	125.01
4595	9.5	8.75	0.	124.78
4596	9.5	8.25	0.	124.63
4597	9.5	7.75	0.	124.48
4598	9.5	7.25	0.	124.34
4599	9.5	6.75	0.	124.24
4600	9.5	6.25	0.	124.21
4601	9.5	5.75	0.	124.25
4602	9.25	6.	0.	124.36
4603	9.5	5.25	0.	124.39
4604	9.5	4.75	0.	124.63
4605	9.5	4.25	0.	124.97
4606	9.5	3.75	0.	125.41
4607	9.25	4.	0.	125.17
4608	9.5	3.25	0.	125.95
4609	9.5	2.75	0.	126.6
4610	9.5	2.25	0.	127.36
4611	9.5	1.75	0.	128.25
4612	9.5	1.25	0.	129.25
4613	9.5	0.75	0.	130.31
4614	9.5	-0.25	0.	131.84
4615	9.5	0.25	0.	131.27
4616	9.5	-0.75	0.	131.78
4617	9.5	-1.25	0.	131.39
4618	9.5	-1.75	0.	131.2
4619	9.5	-2.25	0.	131.49
4620	9.5	-2.75	0.	132.24
4621	9.5	-3.25	0.	133.12
4622	9.5	-3.75	0.	133.56
4623	9.5	-4.25	0.	133.16
4624	9.5	-4.75	0.	132.03
4625	9.5	-5.25	0.	130.86
4626	9.5	-5.75	0.	130.4
4627	9.5	-6.25	0.	130.68
4628	9.25	-6.	0.	130.57
4629	9.5	-6.75	0.	131.
4630	9.25	-6.5	0.	131.27
4631	9.5	-7.25	0.	130.92
4632	9.5	-7.75	0.	130.59
4633	9.5	-8.25	0.	130.23
4634	9.5	-8.75	0.	129.93
4635	9.5	-9.25	0.	129.71
4636	9.25	-9.5	0.	128.93
4637	8.7499	-9.5	0.	127.48
4638	8.2499	-9.5	0.	125.96
4639	7.7499	-9.5	0.	124.49
4640	7.2498	-9.5	0.	123.15
4641	6.7498	-9.5	0.	121.98
4642	6.2497	-9.5	0.	121.04
4643	5.7497	-9.5	0.	120.41
4644	5.2497	-9.5	0.	120.21
4645	4.7497	-9.5	0.	120.53
4646	4.2497	-9.5	0.	121.32
4647	3.7497	-9.5	0.	122.45
4648	3.2498	-9.5	0.	123.66
4649	2.7498	-9.5	0.	124.77
4650	2.9997	-9.25	0.	124.41
4651	2.2499	-9.5	0.	125.65
4652	1.7499	-9.5	0.	126.25
4653	1.2499	-9.5	0.	126.61
4654	0.74997	-9.5	0.	126.78
4655	0.24998	-9.5	0.	126.81
4656	-0.25001	-9.5	0.	126.76
4657	-0.75001	-9.5	0.	126.66
4658	-1.25	-9.5	0.	126.53
4659	-1.75	-9.5	0.	126.38
4660	-2.25	-9.5	0.	126.23
4661	-2.75	-9.5	0.	126.08
4662	-3.25	-9.5	0.	125.93
4663	-3.75	-9.5	0.	125.78
4664	-4.25	-9.5	0.	125.63
4665	-4.75	-9.5	0.	125.49
4666	-5.25	-9.5	0.	125.35
4667	-5.75	-9.5	0.	125.21
4668	-6.25	-9.5	0.	125.07
4669	-6.75	-9.5	0.	124.93
4670	-7.25	-9.5	0.	124.8
4671	-7.75	-9.5	0.	124.67
4672	-8.25	-9.5	0.	124.54
4673	-8.75	-9.5	0.	124.41
4674	-9.25	-9.5	0.	124.27
4675	-9.5	-9.25	0.	124.21
4676	-9.5	-8.75	0.	124.21
4677	-9.5	-8.25	0.	124.2
4678	-9.5	-7.75	0.	124.2
4679	-9.5	-7.25	0.	124.21
4680	-9.5	-6.75	0.	124.22
4681	-9.5	-6.25	0.	124.23
4682	-9.5	-5.75	0.	124.27
4683	-9.5	-5.25	0.	124.31
4684	-9.5	-4.75	0.	124.39
4685	-9.5	-4.25	0.	124.49
4686	-9.5	-3.25	0.	124.85
4687	-9.5	-3.75	0.	124.64
4688	-9.5	-2.75	0.	125.13
4689	-9.5	-2.25	0.	125.5
4690	-9.5	-1.75	0.	125.97
4691	-9.25	-2.	0.	125.36
4692	-9.5	-1.25	0.	126.55
4693	-9.25	-1.5	0.	125.77
4694	-9.5	-0.75	0.	127.22
4695	-9.5	-0.25	0.	127.89
4696	-9.5	0.25	0.	128.28
4697	-9.5	0.75	0.	128.16
4698	-9.5	1.25	0.	127.84
4699	-9.5	1.75	0.	127.81
4700	-9.5	2.25	0.	127.96
4701	-9.5	2.75	0.	127.76
4702	-9.5	3.25	0.	127.04
4703	-9.5	3.75	0.	126.28
4704	-9.5	4.25	0.	125.88
4705	-9.25	4.	0.	126.17
4706	-9.5	4.75	0.	125.94
4707	-9.5	5.25	0.	126.28
4708	-9.5	5.75	0.	126.63
4709	-9.25	5.5	0.	126.86
4710	-9.5	6.25	0.	126.81
4711	-9.5	6.75	0.	126.77
4712	-9.5	7.25	0.	126.53
4713	-9.5	7.75	0.	126.19
4714	-9.5	8.25	0.	125.82
4715	-9.5	8.75	0.	125.47
4716	-9.5	9.25	0.	125.18
4717	-3.	-4.25	0.	125.97
4718	-4.75	-4.5	0.	125.17
4719	-5.25	-4.5	0.	124.94
4720	-7.	-0.75	0.	121.26
4721	-6.5	-2.25	0.	123.47
4722	0.99997	-6.75	0.	126.39
4723	-6.25	-2.5	0.	123.82
4724	-5.75	-2.5	0.	124.23
4725	-3.75	7.	0.	127.61
4726	4.5	7.25	0.	127.19
4727	-3.25	-1.	0.	127.19
4728	-6.75	9.	0.	123.97
4729	-1.25	-1.	0.	127.58
4730	2.25	-5.	0.	125.86
4731	1.75	-3.5	0.	124.42
4732	6.	0.75	0.	122.66
4733	-2.75	6.	0.	129.83
4734	-2.75	2.5	0.	129.78
4735	-2.5	2.25	0.	129.58
4736	-2.25	7.5	0.	130.01
4737	-1.25	8.	0.	128.06
4738	3.9985e-011	-1.25	0.	128.44
4739	-0.25	-1.	0.	127.39
4740	6.	1.75	0.	123.95
4741	-4.25	-3.	0.	125.54
4742	5.	-2.25	0.	124.54
4743	-2.25	3.5	0.	129.4
4744	-5.25	-5.5	0.	125.05
4745	-5.75	-5.5	0.	124.9
4746	-5.25	-2.5	0.	124.7
4747	-2.75	4.	0.	129.88
4748	-2.5	3.75	0.	129.69
4749	-3.	-6.25	0.	125.71
4750	-3.	-6.75	0.	125.74
4751	-9.25	-4.	0.	124.54
4752	-2.25	1.	0.	130.04
4753	-1.75	1.	0.	130.62
4754	7.25	2.5	0.	123.98
4755	7.5	2.75	0.	124.3
4756	9.	-6.25	0.	131.16
4757	-6.25	-4.5	0.	124.56
4758	-5.75	-4.5	0.	124.73
4759	5.75	4.5	0.	126.86
4760	5.25	4.5	0.	128.56
4761	-2.6476e-007	-5.25	0.	125.27
4762	0.5	-3.25	0.	125.56
4763	5.	-0.75	0.	128.32
4764	4.75	-0.5	0.	128.26
4765	-8.7953e-006	-6.75	0.	126.03
4766	-3.3348e-006	-6.25	0.	125.72
4767	-9.4725e-007	-5.75	0.	125.45
4768	-3.75	-2.	0.	126.23
4769	-1.	-5.25	0.	125.7
4770	5.	-1.75	0.	126.18
4771	5.	-1.25	0.	127.21
4772	4.75	-1.5	0.	126.4
4773	4.25	-1.5	0.	127.17
4774	-1.	-6.25	0.	125.8
4775	-1.	-6.75	0.	125.95
4776	-0.75	-1.	0.	127.31
4777	-2.75	-4.5	0.	125.96
4778	-3.	-4.75	0.	125.84
4779	-9.	-1.75	0.	125.17
4780	5.75	1.	0.	124.15
4781	6.	1.25	0.	123.26
4782	2.4033e-011	0.25	0.	127.91
4783	-2.	-5.25	0.	125.86
4784	-2.25	2.	0.	129.6
4785	1.75	1.	0.	115.94
4786	1.25	1.	0.	116.16
4787	-3.	-5.75	0.	125.72
4788	-3.	-5.25	0.	125.76
4789	-4.	-6.25	0.	125.48
4790	-4.	-5.75	0.	125.47
4791	-4.5	1.25	0.	126.78
4792	6.75	2.5	0.	124.1
4793	-1.	-5.75	0.	125.7
4794	-4.	-6.75	0.	125.51
4795	-2.25	-4.5	0.	126.05
4796	-0.75	8.	0.	124.
4797	3.	1.25	0.	126.71
4798	4.5	-0.25	0.	128.24
4799	-2.	-4.75	0.	125.99
4800	-2.	-6.75	0.	125.88
4801	2.	3.	0.	96.344
4802	0.	3.	0.	98.865
4803	2.	2.	0.	95.297
4804	0.	2.	0.	100.17
4805	1.5	3.	0.	113.64
4806	1.	3.	0.	113.17
4807	0.5	3.	0.	115.13
4808	2.	2.5	0.	100.66
4809	0.	2.5	0.	104.44
4810	0.5	2.	0.	115.64
4811	1.	2.	0.	112.68
4812	1.5	2.	0.	112.33
4813	0.5	2.5	0.	113.98
4814	1.	2.5	0.	115.97
4815	1.5	2.5	0.	111.63
4816	1.75	3.	0.	104.94
4817	2.	2.75	0.	98.479
4818	0.25	3.	0.	106.96
4819	0.	2.75	0.	101.63
4820	2.	2.25	0.	97.957
4821	1.75	2.	0.	103.79
4822	0.	2.25	0.	102.29
4823	0.25	2.	0.	107.86
4824	1.25	3.	0.	113.4
4825	1.5	2.75	0.	112.62
4826	0.75	3.	0.	114.15
4827	1.	2.75	0.	114.57
4828	0.5	2.75	0.	114.54
4829	1.75	2.5	0.	106.13
4830	0.25	2.5	0.	109.2
4831	0.75	2.	0.	114.16
4832	0.5	2.25	0.	114.79
4833	1.25	2.	0.	112.5
4834	1.	2.25	0.	114.32
4835	1.5	2.25	0.	111.97
4836	0.75	2.5	0.	114.98
4837	1.25	2.5	0.	113.8
4838	1.	7.	0.	101.12
4839	-1.	7.	0.	100.01
4840	1.	6.	0.	99.429
4841	-1.	6.	0.	100.4
4842	0.5	7.	0.	117.25
4843	0.	7.	0.	115.58
4844	-0.5	7.	0.	116.98
4845	1.	6.5	0.	105.63
4846	-1.	6.5	0.	105.1
4847	-0.5	6.	0.	116.2
4848	0.	6.	0.	114.34
4849	0.5	6.	0.	115.45
4850	-0.5	6.5	0.	115.25
4851	-6.8932e-017	6.5	0.	118.2
4852	0.5	6.5	0.	115.31
4853	0.75	7.	0.	109.15
4854	1.	6.75	0.	103.36
4855	-0.75	7.	0.	108.44
4856	-1.	6.75	0.	102.53
4857	1.	6.25	0.	102.51
4858	0.75	6.	0.	107.41
4859	-1.	6.25	0.	102.73
4860	-0.75	6.	0.	108.26
4861	0.25	7.	0.	116.41
4862	0.5	6.75	0.	116.27
4863	-0.25	7.	0.	116.28
4864	-3.4466e-017	6.75	0.	116.88
4865	-0.5	6.75	0.	116.1
4866	0.75	6.5	0.	110.46
4867	-0.75	6.5	0.	110.16
4868	-0.25	6.	0.	115.26
4869	-0.5	6.25	0.	115.7
4870	0.25	6.	0.	114.88
4871	-3.4466e-017	6.25	0.	116.26
4872	0.5	6.25	0.	115.35
4873	-0.25	6.5	0.	116.72
4874	0.25	6.5	0.	116.76
4875	-5.	5.	0.	98.405
4876	-7.	5.	0.	97.086
4877	-5.	3.	0.	99.163
4878	-7.	3.	0.	95.727
4879	-5.5	5.	0.	112.16
4880	-6.	5.	0.	109.26
4881	-6.5	5.	0.	111.19
4882	-5.	4.5	0.	103.03
4883	-5.	4.	0.	102.
4884	-5.	3.5	0.	103.41
4885	-7.	4.5	0.	100.97
4886	-7.	4.	0.	99.586
4887	-7.	3.5	0.	100.62
4888	-6.5	3.	0.	112.88
4889	-6.	3.	0.	111.11
4890	-5.5	3.	0.	113.42
4891	-6.	4.	0.	112.19
4892	-5.5	4.	0.	109.59
4893	-5.5	3.5	0.	110.72
4894	-6.	3.5	0.	112.99
4895	-6.5	3.5	0.	109.45
4896	-6.5	4.	0.	108.3
4897	-6.5	4.5	0.	108.89
4898	-6.	4.5	0.	112.
4899	-5.5	4.5	0.	110.01
4900	-5.25	5.	0.	105.21
4901	-5.	4.75	0.	100.7
4902	-6.75	5.	0.	104.07
4903	-7.	4.75	0.	99.017
4904	-5.	3.25	0.	101.27
4905	-5.25	3.	0.	106.22
4906	-7.	3.25	0.	98.149
4907	-6.75	3.	0.	104.21
4908	-5.75	5.	0.	110.71
4909	-5.5	4.75	0.	111.06
4910	-6.25	5.	0.	110.23
4911	-6.	4.75	0.	110.62
4912	-6.5	4.75	0.	110.02
4913	-5.	4.25	0.	102.48
4914	-5.25	4.5	0.	106.51
4915	-5.	3.75	0.	102.67
4916	-5.25	4.	0.	105.79
4917	-5.25	3.5	0.	107.05
4918	-7.	4.25	0.	100.24
4919	-6.75	4.5	0.	104.92
4920	-7.	3.75	0.	100.07
4921	-6.75	4.	0.	103.94
4922	-6.75	3.5	0.	105.02
4923	-6.25	3.	0.	111.99
4924	-6.5	3.25	0.	111.14
4925	-5.75	3.	0.	112.26
4926	-6.	3.25	0.	112.04
4927	-5.5	3.25	0.	112.04
4928	-5.75	4.	0.	110.89
4929	-6.	3.75	0.	112.59
4930	-6.25	4.	0.	110.25
4931	-6.	4.25	0.	112.1
4932	-5.5	3.75	0.	110.14
4933	-5.5	4.25	0.	109.79
4934	-5.75	3.5	0.	111.84
4935	-6.25	3.5	0.	111.2
4936	-6.5	3.75	0.	108.86
4937	-6.5	4.25	0.	108.59
4938	-6.25	4.5	0.	110.44
4939	-5.75	4.5	0.	111.
4940	3.	0.	0.	99.984
4941	1.	0.	0.	96.448
4942	3.	-1.	0.	98.745
4943	1.	-1.	0.	97.956
4944	2.5	0.	0.	115.43
4945	2.	0.	0.	112.9
4946	1.5	0.	0.	113.05
4947	3.	-0.5	0.	104.21
4948	1.	-0.5	0.	102.11
4949	1.5	-1.	0.	114.49
4950	2.	-1.	0.	113.52
4951	2.5	-1.	0.	115.43
4952	1.5	-0.5	0.	112.49
4953	2.	-0.5	0.	116.31
4954	2.5	-0.5	0.	114.01
4955	2.75	0.	0.	107.67
4956	3.	-0.25	0.	102.08
4957	1.25	0.	0.	104.73
4958	1.	-0.25	0.	99.258
4959	3.	-0.75	0.	101.45
4960	2.75	-1.	0.	107.03
4961	1.	-0.75	0.	100.02
4962	1.25	-1.	0.	106.17
4963	2.25	0.	0.	114.16
4964	2.5	-0.25	0.	114.7
4965	1.75	0.	0.	112.96
4966	2.	-0.25	0.	114.6
4967	1.5	-0.25	0.	112.76
4968	2.75	-0.5	0.	109.1
4969	1.25	-0.5	0.	107.29
4970	1.75	-1.	0.	114.01
4971	1.5	-0.75	0.	113.48
4972	2.25	-1.	0.	114.47
4973	2.	-0.75	0.	114.91
4974	2.5	-0.75	0.	114.69
4975	1.75	-0.5	0.	114.4
4976	2.25	-0.5	0.	115.16
4977	-7.	2.	0.	95.884
4978	-8.	2.	0.	101.12
4979	-7.	1.	0.	96.224
4980	-8.	1.	0.	98.26
4981	-7.5	2.	0.	115.61
4982	-7.	1.5	0.	101.26
4983	-8.	1.5	0.	104.85
4984	-7.5	1.	0.	112.71
4985	-7.5	1.5	0.	111.28
4986	-7.25	2.	0.	105.7
4987	-7.	1.75	0.	98.535
4988	-7.75	2.	0.	108.33
4989	-8.	1.75	0.	102.98
4990	-7.	1.25	0.	98.726
4991	-7.25	1.	0.	104.46
4992	-8.	1.25	0.	101.54
4993	-7.75	1.	0.	105.46
4994	-7.5	1.75	0.	113.4
4995	-7.25	1.5	0.	106.24
4996	-7.75	1.5	0.	108.04
4997	-7.5	1.25	0.	111.94
4998	8.	-1.	0.	99.147
4999	6.	-1.	0.	96.718
5000	8.	-3.	0.	99.91
5001	6.	-3.	0.	97.152
5002	7.5	-1.	0.	112.75
5003	7.	-1.	0.	109.56
5004	6.5	-1.	0.	111.12
5005	8.	-1.5	0.	104.03
5006	8.	-2.	0.	103.07
5007	8.	-2.5	0.	104.25
5008	6.	-1.5	0.	100.66
5009	6.	-2.	0.	99.712
5010	6.	-2.5	0.	101.54
5011	6.5	-3.	0.	114.73
5012	7.	-3.	0.	112.12
5013	7.5	-3.	0.	113.81
5014	7.5	-2.	0.	110.56
5015	7.5	-2.5	0.	111.6
5016	6.5	-2.5	0.	110.68
5017	6.5	-2.	0.	108.92
5018	6.5	-1.5	0.	109.07
5019	7.5	-1.5	0.	110.84
5020	7.	-1.5	0.	112.55
5021	7.	-2.5	0.	114.04
5022	7.	-2.	0.	113.04
5023	7.75	-1.	0.	105.87
5024	8.	-1.25	0.	101.58
5025	6.25	-1.	0.	103.86
5026	6.	-1.25	0.	98.676
5027	8.	-2.75	0.	102.08
5028	7.75	-3.	0.	106.8
5029	6.	-2.75	0.	99.308
5030	6.25	-3.	0.	105.82
5031	7.25	-1.	0.	111.15
5032	7.5	-1.25	0.	111.76
5033	6.75	-1.	0.	110.34
5034	7.	-1.25	0.	111.04
5035	6.5	-1.25	0.	110.07
5036	8.	-1.75	0.	103.52
5037	7.75	-1.5	0.	107.42
5038	8.	-2.25	0.	103.63
5039	7.75	-2.	0.	106.81
5040	7.75	-2.5	0.	107.91
5041	6.	-1.75	0.	100.14
5042	6.25	-1.5	0.	104.85
5043	6.	-2.25	0.	100.58
5044	6.25	-2.	0.	104.31
5045	6.25	-2.5	0.	106.09
5046	6.75	-3.	0.	113.42
5047	6.5	-2.75	0.	112.68
5048	7.25	-3.	0.	112.96
5049	7.	-2.75	0.	113.06
5050	7.5	-2.75	0.	112.68
5051	7.5	-2.25	0.	111.07
5052	7.5	-1.75	0.	110.69
5053	7.25	-2.	0.	111.8
5054	7.25	-2.5	0.	112.81
5055	6.5	-2.25	0.	109.79
5056	6.75	-2.5	0.	112.34
5057	6.5	-1.75	0.	108.98
5058	6.75	-2.	0.	110.98
5059	6.75	-1.5	0.	110.8
5060	7.25	-1.5	0.	111.69
5061	7.	-1.75	0.	112.79
5062	7.	-2.25	0.	113.54
5063	8.	-5.	0.	97.774
5064	7.	-5.	0.	97.28
5065	8.	-6.	0.	98.714
5066	7.	-6.	0.	98.872
5067	7.5	-5.	0.	111.81
5068	8.	-5.5	0.	103.
5069	7.	-5.5	0.	103.18
5070	7.5	-6.	0.	114.08
5071	7.5	-5.5	0.	110.06
5072	7.75	-5.	0.	104.78
5073	8.	-5.25	0.	100.38
5074	7.25	-5.	0.	104.54
5075	7.	-5.25	0.	100.21
5076	8.	-5.75	0.	100.85
5077	7.75	-6.	0.	106.37
5078	7.	-5.75	0.	101.
5079	7.25	-6.	0.	106.45
5080	7.5	-5.25	0.	110.88
5081	7.75	-5.5	0.	106.51
5082	7.25	-5.5	0.	106.58
5083	7.5	-5.75	0.	112.03
5084	4.	6.	0.	98.819
5085	2.	6.	0.	99.888
5086	4.	5.	0.	99.956
5087	2.	5.	0.	99.548
5088	3.5	6.	0.	115.74
5089	3.	6.	0.	114.31
5090	2.5	6.	0.	115.66
5091	4.	5.5	0.	104.32
5092	2.	5.5	0.	105.05
5093	2.5	5.	0.	116.85
5094	3.	5.	0.	115.56
5095	3.5	5.	0.	116.73
5096	2.5	5.5	0.	115.09
5097	3.	5.5	0.	118.09
5098	3.5	5.5	0.	114.84
5099	3.75	6.	0.	107.24
5100	4.	5.75	0.	101.55
5101	2.25	6.	0.	107.74
5102	2.	5.75	0.	102.45
5103	4.	5.25	0.	102.12
5104	3.75	5.	0.	108.3
5105	2.	5.25	0.	102.27
5106	2.25	5.	0.	108.16
5107	3.25	6.	0.	115.02
5108	3.5	5.75	0.	115.26
5109	2.75	6.	0.	114.98
5110	3.	5.75	0.	116.19
5111	2.5	5.75	0.	115.35
5112	3.75	5.5	0.	109.57
5113	2.25	5.5	0.	110.06
5114	2.75	5.	0.	116.2
5115	2.5	5.25	0.	115.95
5116	3.25	5.	0.	116.14
5117	3.	5.25	0.	116.82
5118	3.5	5.25	0.	115.77
5119	2.75	5.5	0.	116.59
5120	3.25	5.5	0.	116.46
5121	6.	-4.	0.	98.144
5122	4.	-4.	0.	99.505
5123	6.	-6.	0.	97.36
5124	4.	-6.	0.	97.426
5125	5.5	-4.	0.	115.97
5126	5.	-4.	0.	113.49
5127	4.5	-4.	0.	114.99
5128	6.	-4.5	0.	102.89
5129	6.	-5.	0.	100.47
5130	6.	-5.5	0.	100.66
5131	4.	-4.5	0.	103.42
5132	4.	-5.	0.	101.46
5133	4.	-5.5	0.	102.1
5134	4.5	-6.	0.	111.36
5135	5.	-6.	0.	108.71
5136	5.5	-6.	0.	110.82
5137	5.	-5.	0.	112.62
5138	5.	-4.5	0.	114.55
5139	5.5	-4.5	0.	111.58
5140	5.5	-5.	0.	108.9
5141	5.5	-5.5	0.	108.46
5142	5.	-5.5	0.	111.64
5143	4.5	-5.5	0.	109.46
5144	4.5	-5.	0.	109.61
5145	4.5	-4.5	0.	111.51
5146	5.75	-4.	0.	106.94
5147	6.	-4.25	0.	100.48
5148	4.25	-4.	0.	107.16
5149	4.	-4.25	0.	101.45
5150	6.	-5.75	0.	98.983
5151	5.75	-6.	0.	104.02
5152	4.	-5.75	0.	99.752
5153	4.25	-6.	0.	104.33
5154	5.25	-4.	0.	114.72
5155	5.5	-4.25	0.	113.75
5156	4.75	-4.	0.	114.23
5157	5.	-4.25	0.	114.
5158	4.5	-4.25	0.	113.23
5159	6.	-4.75	0.	101.64
5160	5.75	-4.5	0.	107.21
5161	6.	-5.25	0.	100.5
5162	5.75	-5.	0.	104.68
5163	5.75	-5.5	0.	104.54
5164	4.	-4.75	0.	102.4
5165	4.25	-4.5	0.	107.44
5166	4.	-5.25	0.	101.75
5167	4.25	-5.	0.	105.53
5168	4.25	-5.5	0.	105.77
5169	4.75	-6.	0.	110.03
5170	4.5	-5.75	0.	110.38
5171	5.25	-6.	0.	109.76
5172	5.	-5.75	0.	110.15
5173	5.5	-5.75	0.	109.62
5174	5.	-4.75	0.	113.58
5175	5.25	-5.	0.	110.75
5176	5.	-5.25	0.	112.12
5177	4.75	-5.	0.	111.11
5178	5.25	-4.5	0.	113.03
5179	4.75	-4.5	0.	113.
5180	5.5	-4.75	0.	110.22
5181	5.5	-5.25	0.	108.65
5182	5.25	-5.5	0.	110.04
5183	4.75	-5.5	0.	110.54
5184	4.5	-5.25	0.	109.52
5185	4.5	-4.75	0.	110.55
