Node Number	X Location (mm)	Y Location (mm)	Z Location (mm)	Equivalent (von-Mises) Stress (MPa)
1	4.89	7.65	0.	165.81
2	6.54	7.26	0.	149.68
3	6.05	8.89	0.	117.81
4	5.16	-0.26	0.	166.22
5	6.	-1.68	0.	105.16
6	6.81	-0.25	0.	162.57
7	7.7	-8.33	0.	112.89
8	8.36	-6.8	0.	169.18
9	6.7	-6.99	0.	171.91
10	-0.91	0.99	0.	158.1
11	-2.52	0.43	0.	175.3
12	-1.24	-0.68	0.	129.63
13	0.15	-6.73	0.	164.75
14	-0.25	-5.71	0.	105.78
15	-0.93	-6.57	0.	167.99
16	1.12	4.45	0.	114.09
17	1.76	5.89	0.	175.26
18	0.2	5.73	0.	179.57
19	-7.51	-3.13	0.	168.4
20	-6.87	-4.49	0.	106.79
21	-6.01	-3.25	0.	164.57
22	-6.94	-2.01	0.	144.83
23	-5.54	-1.87	0.	163.86
24	-6.37	-0.73	0.	107.45
25	-6.9	7.22	0.	161.72
26	-8.07	8.32	0.	132.71
27	-8.45	6.76	0.	168.76
28	6.	-3.	0.	128.67
29	6.	-5.	0.	132.77
30	8.	-3.	0.	135.09
31	8.	-5.	0.	129.32
32	6.	6.	0.	127.41
33	6.	4.	0.	132.99
34	8.	6.	0.	138.71
35	8.	4.	0.	136.91
36	4.	3.	0.	141.26
37	4.	2.	0.	139.66
38	6.	3.	0.	131.54
39	6.	2.	0.	125.61
40	-1.	-2.	0.	129.9
41	-1.	-4.	0.	128.38
42	0.	-2.	0.	132.75
43	0.	-4.	0.	128.23
44	-3.	3.	0.	136.48
45	-3.	2.	0.	140.2
46	-2.	3.	0.	130.98
47	-2.	2.	0.	130.
48	-3.	9.	0.	140.23
49	-3.	7.	0.	138.7
50	-1.	9.	0.	140.35
51	-1.	7.	0.	140.99
52	-7.	5.	0.	134.35
53	-7.	3.	0.	133.37
54	-5.	5.	0.	140.58
55	-5.	3.	0.	137.53
56	-8.	-6.	0.	129.4
57	-8.	-8.	0.	129.71
58	-7.	-6.	0.	126.14
59	-7.	-8.	0.	128.6
60	-9.	0.	0.	134.6
61	-9.	-2.	0.	135.17
62	-8.	0.	0.	133.39
63	-8.	-2.	0.	138.43
64	10.	10.	0.	125.01
65	-10.	10.	0.	124.99
66	10.	-10.	0.	134.41
67	-10.	-10.	0.	130.59
68	5.3025	7.5525	0.	104.95
69	5.715	7.455	0.	118.02
70	6.1275	7.3575	0.	108.05
71	5.18	7.96	0.	107.82
72	5.47	8.27	0.	113.81
73	5.76	8.58	0.	98.847
74	6.4175	7.6675	0.	133.42
75	6.295	8.075	0.	133.46
76	6.1725	8.4825	0.	127.12
77	5.44	-0.73333	0.	106.45
78	5.72	-1.2067	0.	101.03
79	5.71	-0.25667	0.	106.03
80	6.26	-0.25333	0.	108.19
81	6.27	-1.2033	0.	105.41
82	6.54	-0.72667	0.	107.67
83	7.92	-7.82	0.	117.35
84	8.14	-7.31	0.	122.52
85	7.45	-7.995	0.	88.326
86	7.2	-7.66	0.	104.94
87	6.95	-7.325	0.	103.15
88	7.945	-6.8475	0.	102.35
89	7.53	-6.895	0.	111.6
90	7.115	-6.9425	0.	93.432
91	-1.3125	0.85	0.	106.16
92	-1.715	0.71	0.	112.42
93	-2.1175	0.57	0.	90.378
94	-0.9925	0.57249	0.	143.63
95	-1.075	0.15499	0.	139.53
96	-1.1575	-0.26251	0.	130.81
97	-2.2	0.15247	0.	83.739
98	-1.88	-0.12503	0.	102.12
99	-1.56	-0.40251	0.	93.858
100	-5.e-002	-6.22	0.	119.57
101	-0.39	-6.65	0.	100.85
102	-0.59	-6.14	0.	81.194
103	1.3333	4.93	0.	122.56
104	1.5467	5.41	0.	129.16
105	0.81333	4.8767	0.	100.02
106	0.50667	5.3033	0.	100.98
107	1.24	5.8367	0.	113.81
108	0.72	5.7833	0.	113.15
109	-7.2967	-3.5833	0.	121.67
110	-7.0833	-4.0367	0.	111.59
111	-7.01	-3.17	0.	112.85
112	-6.51	-3.21	0.	102.99
113	-6.5833	-4.0767	0.	95.034
114	-6.2967	-3.6633	0.	98.698
115	-6.4733	-1.9633	0.	105.81
116	-6.0067	-1.9167	0.	110.28
117	-6.75	-1.5833	0.	120.15
118	-6.56	-1.1567	0.	117.04
119	-5.8167	-1.49	0.	107.52
120	-6.0933	-1.11	0.	105.98
121	-7.29	7.5867	0.	74.603
122	-7.68	7.9533	0.	91.739
123	-7.4167	7.0667	0.	98.818
124	-7.9333	6.9133	0.	111.14
125	-8.1967	7.8	0.	139.87
126	-8.3233	7.28	0.	142.34
127	6.	-3.5	0.	137.93
128	6.	-4.	0.	140.69
129	6.	-4.5	0.	140.85
130	6.5	-3.	0.	108.43
131	7.	-3.	0.	115.08
132	7.5	-3.	0.	113.68
133	6.5	-5.	0.	110.94
134	7.	-5.	0.	112.27
135	7.5	-5.	0.	106.66
136	8.	-3.5	0.	143.17
137	8.	-4.	0.	143.12
138	8.	-4.5	0.	140.45
139	6.	5.5	0.	136.73
140	6.	5.	0.	138.77
141	6.	4.5	0.	138.36
142	6.5	6.	0.	111.64
143	7.	6.	0.	121.07
144	7.5	6.	0.	118.05
145	6.5	4.	0.	114.64
146	7.	4.	0.	120.02
147	7.5	4.	0.	115.44
148	8.	5.5	0.	147.43
149	8.	5.	0.	148.31
150	8.	4.5	0.	146.63
151	4.	2.5	0.	149.23
152	4.5	3.	0.	121.78
153	5.	3.	0.	126.04
154	5.5	3.	0.	118.24
155	4.5	2.	0.	121.05
156	5.	2.	0.	122.19
157	5.5	2.	0.	113.09
158	6.	2.5	0.	135.4
159	-1.	-2.5	0.	136.44
160	-1.	-3.	0.	137.33
161	-1.	-3.5	0.	137.1
162	-0.5	-2.	0.	107.36
163	-0.5	-4.	0.	103.53
164	0.	-2.5	0.	141.01
165	0.	-3.	0.	140.35
166	0.	-3.5	0.	139.15
167	-3.	2.5	0.	148.01
168	-2.5	3.	0.	111.26
169	-2.5	2.	0.	114.07
170	-2.	2.5	0.	138.71
171	-3.	8.5	0.	147.5
172	-3.	8.	0.	148.41
173	-3.	7.5	0.	147.09
174	-2.5	9.	0.	120.7
175	-2.	9.	0.	127.26
176	-1.5	9.	0.	120.93
177	-2.5	7.	0.	117.2
178	-2.	7.	0.	122.61
179	-1.5	7.	0.	119.56
180	-1.	8.5	0.	148.49
181	-1.	8.	0.	150.28
182	-1.	7.5	0.	149.88
183	-7.	4.5	0.	141.71
184	-7.	4.	0.	143.07
185	-7.	3.5	0.	141.96
186	-6.5	5.	0.	115.38
187	-6.	5.	0.	122.08
188	-5.5	5.	0.	118.48
189	-6.5	3.	0.	112.96
190	-6.	3.	0.	118.32
191	-5.5	3.	0.	115.12
192	-5.	4.5	0.	148.84
193	-5.	4.	0.	149.5
194	-5.	3.5	0.	147.59
195	-8.	-6.5	0.	138.98
196	-8.	-7.	0.	139.34
197	-8.	-7.5	0.	138.87
198	-7.5	-6.	0.	104.16
199	-7.5	-8.	0.	104.73
200	-7.	-6.5	0.	135.32
201	-7.	-7.	0.	136.73
202	-7.	-7.5	0.	136.93
203	-9.	-0.5	0.	145.42
204	-9.	-1.	0.	146.27
205	-9.	-1.5	0.	145.79
206	-8.5	0.	0.	109.35
207	-8.5	-2.	0.	111.19
208	-8.	-0.5	0.	142.33
209	-8.	-1.	0.	141.54
210	-8.	-1.5	0.	139.51
211	9.5	10.	0.	125.07
212	9.	10.	0.	125.17
213	8.5	10.	0.	125.24
214	8.	10.	0.	125.27
215	7.5	10.	0.	125.08
216	7.	10.	0.	123.97
217	6.5	10.	0.	120.78
218	6.	10.	0.	119.35
219	5.5	10.	0.	120.19
220	5.	10.	0.	123.8
221	4.5	10.	0.	127.16
222	4.	10.	0.	128.7
223	3.5	10.	0.	128.98
224	3.	10.	0.	128.61
225	2.5	10.	0.	128.09
226	2.	10.	0.	127.74
227	1.5	10.	0.	127.77
228	1.	10.	0.	128.36
229	0.5	10.	0.	129.47
230	-5.2042e-015	10.	0.	130.8
231	-0.5	10.	0.	129.7
232	-1.	10.	0.	124.29
233	-1.5	10.	0.	119.33
234	-2.	10.	0.	116.99
235	-2.5	10.	0.	119.52
236	-3.	10.	0.	124.74
237	-3.5	10.	0.	130.54
238	-4.	10.	0.	131.95
239	-4.5	10.	0.	130.79
240	-5.	10.	0.	129.53
241	-5.5	10.	0.	128.22
242	-6.	10.	0.	126.66
243	-6.5	10.	0.	124.45
244	-7.	10.	0.	121.89
245	-7.5	10.	0.	119.9
246	-8.	10.	0.	119.74
247	-8.5	10.	0.	121.27
248	-9.	10.	0.	123.45
249	-9.5	10.	0.	124.75
250	10.	9.5	0.	124.85
251	10.	9.	0.	124.76
252	10.	8.5	0.	125.16
253	10.	8.	0.	126.17
254	10.	7.5	0.	127.56
255	10.	7.	0.	128.63
256	10.	6.5	0.	128.6
257	10.	6.	0.	127.44
258	10.	5.5	0.	126.12
259	10.	5.	0.	125.82
260	10.	4.5	0.	126.97
261	10.	4.	0.	129.26
262	10.	3.5	0.	131.57
263	10.	3.	0.	132.88
264	10.	2.5	0.	132.99
265	10.	2.	0.	132.36
266	10.	1.5	0.	131.39
267	10.	1.	0.	130.26
268	10.	0.5	0.	129.11
269	10.	-5.2042e-015	0.	128.27
270	10.	-0.5	0.	128.18
271	10.	-1.	0.	129.02
272	10.	-1.5	0.	130.43
273	10.	-2.	0.	131.53
274	10.	-2.5	0.	131.43
275	10.	-3.	0.	130.17
276	10.	-3.5	0.	128.88
277	10.	-4.	0.	128.94
278	10.	-4.5	0.	130.86
279	10.	-5.	0.	134.16
280	10.	-5.5	0.	136.91
281	10.	-6.	0.	136.51
282	10.	-6.5	0.	132.08
283	10.	-7.	0.	126.67
284	10.	-7.5	0.	125.24
285	10.	-8.	0.	127.73
286	10.	-8.5	0.	131.12
287	10.	-9.	0.	133.38
288	10.	-9.5	0.	134.24
289	-10.	9.5	0.	125.31
290	-10.	9.	0.	126.
291	-10.	8.5	0.	124.7
292	-10.	8.	0.	121.45
293	-10.	7.5	0.	119.22
294	-10.	7.	0.	121.82
295	-10.	6.5	0.	128.68
296	-10.	6.	0.	133.04
297	-10.	5.5	0.	133.38
298	-10.	5.	0.	130.63
299	-10.	4.5	0.	127.74
300	-10.	4.	0.	125.93
301	-10.	3.5	0.	125.49
302	-10.	3.	0.	126.25
303	-10.	2.5	0.	127.85
304	-10.	2.	0.	130.02
305	-10.	1.5	0.	132.84
306	-10.	1.	0.	136.32
307	-10.	0.5	0.	138.14
308	-10.	-5.2042e-015	0.	136.05
309	-10.	-0.5	0.	132.88
310	-10.	-1.	0.	132.31
311	-10.	-1.5	0.	131.22
312	-10.	-2.	0.	132.96
313	-10.	-2.5	0.	133.55
314	-10.	-3.	0.	130.98
315	-10.	-3.5	0.	127.96
316	-10.	-4.	0.	127.49
317	-10.	-4.5	0.	128.88
318	-10.	-5.	0.	130.39
319	-10.	-5.5	0.	130.65
320	-10.	-6.	0.	129.5
321	-10.	-6.5	0.	127.85
322	-10.	-7.	0.	126.86
323	-10.	-7.5	0.	126.99
324	-10.	-8.	0.	128.16
325	-10.	-8.5	0.	129.52
326	-10.	-9.	0.	130.36
327	-10.	-9.5	0.	130.58
328	-9.5	-10.	0.	128.45
329	-9.	-10.	0.	125.95
330	-8.5	-10.	0.	122.75
331	-8.	-10.	0.	119.49
332	-7.5	-10.	0.	117.93
333	-7.	-10.	0.	119.08
334	-6.5	-10.	0.	121.93
335	-6.	-10.	0.	124.64
336	-5.5	-10.	0.	126.39
337	-5.	-10.	0.	127.31
338	-4.5	-10.	0.	127.76
339	-4.	-10.	0.	127.94
340	-3.5	-10.	0.	127.89
341	-3.	-10.	0.	127.6
342	-2.5	-10.	0.	126.98
343	-2.	-10.	0.	126.01
344	-1.5	-10.	0.	124.81
345	-1.	-10.	0.	123.71
346	-0.5	-10.	0.	123.18
347	5.2042e-015	-10.	0.	123.5
348	0.5	-10.	0.	124.58
349	1.	-10.	0.	125.99
350	1.5	-10.	0.	127.29
351	2.	-10.	0.	128.23
352	2.5	-10.	0.	128.79
353	3.	-10.	0.	129.05
354	3.5	-10.	0.	129.1
355	4.	-10.	0.	128.99
356	4.5	-10.	0.	128.72
357	5.	-10.	0.	128.16
358	5.5	-10.	0.	127.
359	6.	-10.	0.	124.78
360	6.5	-10.	0.	121.19
361	7.	-10.	0.	117.07
362	7.4999	-10.	0.	115.
363	8.	-10.	0.	116.85
364	8.5	-10.	0.	121.74
365	9.	-10.	0.	126.6
366	9.5	-10.	0.	130.55
367	2.9879	-3.5663	0.	129.75
368	-3.4925	-5.5119	0.	128.77
369	3.484	-4.0709	0.	129.15
370	-3.4627	-6.0016	0.	127.89
371	2.9692	-6.0388	0.	128.55
372	2.9652	-5.5455	0.	129.05
373	2.9688	-4.5603	0.	129.57
374	3.0474	-2.0567	0.	130.31
375	3.0251	-2.56	0.	130.35
376	3.0036	-3.0657	0.	130.04
377	3.0425	-1.566	0.	129.83
378	-3.9952	-5.0566	0.	129.58
379	-3.9924	-4.5666	0.	129.54
380	-3.9888	-5.542	0.	129.01
381	3.4726	-6.5318	0.	128.37
382	2.0802	-2.e-002	0.	129.66
383	3.492	-3.5792	0.	129.46
384	2.5189	-2.5447	0.	130.13
385	2.628	-1.0247	0.	129.53
386	3.4784	-4.561	0.	129.15
387	3.4712	-6.0354	0.	128.84
388	1.5576	0.47514	0.	128.61
389	3.9911	-4.0756	0.	128.66
390	-4.4765	-6.5303	0.	127.22
391	-3.9607	-6.5088	0.	127.39
392	1.9979	-3.0427	0.	129.93
393	-3.0098	-5.4743	0.	128.74
394	2.0702	0.47654	0.	129.88
395	3.2178	-1.0673	0.	128.77
396	2.977	-6.5363	0.	128.17
397	-3.3306	-2.4829	0.	128.43
398	2.4568	-5.5539	0.	129.15
399	2.4538	-5.0585	0.	129.88
400	2.47	-4.0617	0.	130.08
401	3.4734	-1.5311	0.	129.79
402	3.5832	-2.0499	0.	130.88
403	3.5266	-2.5849	0.	130.75
404	3.5041	-3.0858	0.	130.08
405	2.5381	-2.0381	0.	130.19
406	2.5665	-1.531	0.	129.96
407	-3.5063	-4.0281	0.	128.88
408	-3.508	-4.526	0.	129.33
409	3.4724	-5.5421	0.	129.17
410	-3.3158	-2.0089	0.	129.09
411	3.9989	5.4102	0.	126.37
412	2.6271	-0.52004	0.	129.43
413	2.6076	-1.5724e-002	0.	130.01
414	-4.9936	0.66675	0.	125.68
415	-4.0087	-3.5806	0.	129.03
416	3.5407	5.3902	0.	127.6
417	-5.5055	1.0597	0.	121.02
418	-3.3091	-0.97488	0.	132.23
419	3.0865	4.89	0.	130.33
420	-2.4784	-3.0025	0.	126.33
421	-3.9579	-6.9978	0.	127.01
422	-4.4714	-7.017	0.	126.69
423	-4.9815	-7.0284	0.	126.15
424	-5.4897	-7.0314	0.	125.69
425	-5.9998	1.5121	0.	117.3
426	1.9818	-3.5516	0.	130.08
427	3.9111	-1.3864	0.	129.67
428	1.962	-6.0616	0.	127.89
429	3.4802	-7.0311	0.	128.02
430	2.9874	-7.036	0.	128.08
431	-3.4284	-6.489	0.	127.23
432	-3.4318	-6.9846	0.	127.09
433	-2.5007	4.9985	0.	120.13
434	2.083	-1.0154	0.	130.13
435	-3.0249	-4.9823	0.	129.48
436	-3.0062	-3.5001	0.	127.79
437	-2.9039	-2.5092	0.	127.09
438	-3.3182	-1.5128	0.	130.38
439	2.0761	2.4514	0.	129.5
440	-4.9836	-6.5454	0.	126.69
441	3.9867	-4.562	0.	128.88
442	-4.4812	-6.05	0.	128.17
443	-4.4829	-5.571	0.	129.27
444	-4.4775	-5.091	0.	130.04
445	-4.471	-4.6085	0.	130.01
446	-4.4754	-4.1281	0.	129.22
447	-3.8852	-1.0601	0.	130.77
448	-3.5179	-2.964	0.	128.6
449	-3.7252	-2.5108	0.	129.56
450	-4.0538	-0.585	0.	130.57
451	1.0353	-1.7366e-002	0.	127.81
452	4.4614	-6.5397	0.	128.54
453	-4.5474	0.92491	0.	129.15
454	-2.4598	-5.917	0.	127.16
455	4.9578	-7.0476	0.	126.15
456	1.0482	0.97074	0.	127.75
457	1.06	1.4621	0.	128.19
458	-3.7667	-2.0414	0.	129.87
459	-3.8098	-1.5531	0.	130.35
460	-4.9462	-4.1843	0.	129.71
461	3.9784	-5.5417	0.	129.61
462	-4.982	-6.0665	0.	127.84
463	-4.9732	-5.5909	0.	129.28
464	-4.96	-5.118	0.	130.52
465	-4.9483	-4.651	0.	130.78
466	2.0523	1.4678	0.	130.16
467	-2.8603	-2.02	0.	127.71
468	-3.0138	-3.999	0.	128.65
469	-3.021	-4.4921	0.	129.38
470	2.0555	-1.5185	0.	130.45
471	0.513	-9.3317e-003	0.	126.51
472	-2.0033	5.0003	0.	119.09
473	-2.8522	-6.4681	0.	126.72
474	-2.9044	-6.9673	0.	126.99
475	1.9981	-7.0526	0.	128.01
476	1.9813	-6.5573	0.	127.41
477	4.0032	-3.1156	0.	129.92
478	4.016	-2.6485	0.	131.04
479	4.0154	-1.8223	0.	131.47
480	4.0468	-2.2223	0.	131.73
481	3.1309	-7.7886e-004	0.	129.75
482	3.1711	-0.51653	0.	128.63
483	1.6022	2.4393	0.	127.81
484	1.1309	2.4258	0.	126.86
485	1.9644	-4.0592	0.	130.57
486	1.9462	-5.5646	0.	129.41
487	1.9419	-5.0662	0.	130.68
488	-4.5691	-0.69075	0.	130.3
489	-4.2351	-0.1091	0.	129.67
490	-1.4417e-002	7.1736e-003	0.	126.15
491	-2.0192	5.5064	0.	117.99
492	4.0313	4.9602	0.	125.67
493	-0.13883	2.9154	0.	127.03
494	-2.8423	-0.69485	0.	132.72
495	-6.002	2.0093	0.	114.99
496	-1.9843	-2.9999	0.	126.67
497	-0.14676	2.4999	0.	127.6
498	-0.47957	4.6107	0.	131.32
499	-1.9438e-002	4.6448	0.	131.83
500	-5.9949	-7.0269	0.	126.21
501	-2.9359	-7.471	0.	127.65
502	-3.447	-7.4833	0.	127.32
503	-3.9621	-7.4933	0.	127.02
504	-4.4725	-7.5074	0.	126.63
505	-4.9813	-7.5165	0.	126.15
506	-5.4891	-7.5191	0.	125.86
507	-2.104	-5.3539	0.	129.75
508	-2.022	-5.7562	0.	128.16
509	-6.496	1.4948	0.	118.22
510	-5.0334	1.0821	0.	125.18
511	4.0254	5.8356	0.	128.03
512	4.4629	5.5992	0.	125.62
513	3.5724	5.8677	0.	128.86
514	3.6453	6.3552	0.	131.09
515	-5.5059	1.5364	0.	119.96
516	4.5109	5.0303	0.	123.68
517	0.36378	7.0031	0.	124.44
518	0.89369	7.4579	0.	118.84
519	-3.5485	-0.47195	0.	131.6
520	-4.4058	-1.1549	0.	130.15
521	-4.0509	-3.0877	0.	129.89
522	-4.1486	-2.6064	0.	131.07
523	-4.5008	-3.6493	0.	128.97
524	4.4948	-4.5594	0.	128.94
525	-5.4885	-6.5486	0.	126.02
526	-5.4009	-4.2362	0.	131.01
527	2.5565	2.4626	0.	131.18
528	3.0956	0.50054	0.	131.82
529	-2.4353	-2.5114	0.	125.75
530	-2.7431	-1.1205	0.	130.33
531	-2.5465	-4.9439	0.	129.98
532	-2.5028	-3.4927	0.	127.28
533	1.5097	-2.5239	0.	130.4
534	1.0325	-0.51162	0.	129.24
535	-0.97027	4.5492	0.	126.85
536	-2.4229	-7.4587	0.	128.28
537	5.5062	-7.5497	0.	124.21
538	3.4919	-7.5288	0.	127.95
539	2.997	-7.5316	0.	128.24
540	3.0554	5.3686	0.	128.83
541	2.8429	7.428	0.	128.86
542	4.3936	-1.3338	0.	131.04
543	7.5508	-1.4658	0.	122.49
544	-5.4577	7.5485	0.	121.59
545	2.6474	4.8349	0.	132.83
546	2.0962	2.9396	0.	130.19
547	0.27883	2.9103	0.	126.34
548	1.4527	-6.0757	0.	127.58
549	-4.8766	0.23061	0.	127.28
550	-5.4677	0.58005	0.	122.11
551	-5.9904	1.0088	0.	118.63
552	-6.483	0.97645	0.	119.04
553	-6.4565	0.43701	0.	118.41
554	1.4255	-5.0772	0.	131.68
555	0.7097	2.8986	0.	125.27
556	1.159	2.9155	0.	125.17
557	1.6234	2.9292	0.	127.36
558	-0.39537	4.1513	0.	131.17
559	-0.28235	3.7109	0.	129.62
560	2.6054	3.9126	0.	135.83
561	2.6275	4.3803	0.	135.34
562	-5.9608	7.5633	0.	121.34
563	-5.4632	6.5409	0.	123.48
564	3.6521	3.5054e-002	0.	129.13
565	3.7104	-0.4574	0.	126.79
566	5.0819	1.0867	0.	117.33
567	4.5781	1.0625	0.	124.02
568	4.4641	-1.7834	0.	132.26
569	4.504	-2.2244	0.	132.07
570	4.5059	-2.6702	0.	130.91
571	4.5021	-3.128	0.	129.3
572	3.1714	6.3754	0.	131.6
573	1.5081	-7.0682	0.	128.47
574	1.4857	-6.5722	0.	126.38
575	-2.2621	-6.4378	0.	125.61
576	-2.3944	-6.9618	0.	127.15
577	-1.4711	4.4925	0.	123.04
578	-0.57449	3.0549	0.	126.99
579	-0.73024	3.5761	0.	128.84
580	1.4401	-4.5695	0.	131.82
581	0.50575	-0.50379	0.	127.94
582	-3.2482e-002	-0.49028	0.	126.26
583	1.5403	-1.5142	0.	131.25
584	-2.5178	-3.9809	0.	128.52
585	-2.3564	-1.5378	0.	126.34
586	-2.3976	-2.0201	0.	125.56
587	7.4762	1.534	0.	123.75
588	3.605	0.52779	0.	131.52
589	2.5468	1.9713	0.	131.51
590	2.5485	1.4778	0.	132.22
591	2.5885	3.4352	0.	134.59
592	2.5728	2.9495	0.	132.31
593	4.042	4.4744	0.	126.25
594	3.5638	4.4415	0.	130.2
595	-5.4689	-5.5993	0.	128.54
596	-5.4487	-5.1366	0.	130.08
597	-4.4819	6.519	0.	130.07
598	-4.973	6.5282	0.	126.26
599	-3.0063	5.5029	0.	124.93
600	-3.5013	5.0025	0.	128.73
601	-3.5021	5.5043	0.	130.3
602	4.4907	-5.0493	0.	129.92
603	4.4836	-5.5439	0.	130.54
604	-5.4261	-3.8006	0.	128.6
605	-4.2185	-2.1191	0.	130.98
606	-3.9073	0.48711	0.	130.09
607	-3.7488	4.1525e-003	0.	129.24
608	0.54278	0.98287	0.	127.6
609	0.55252	1.4782	0.	128.97
610	5.4299	-6.5592	0.	127.7
611	5.4431	-7.0574	0.	124.25
612	3.3257	7.4069	0.	129.38
613	3.4065	7.9258	0.	127.15
614	2.9091	7.942	0.	126.63
615	2.4108	7.9496	0.	125.24
616	1.9162	7.9542	0.	122.93
617	1.4256	7.9608	0.	120.75
618	0.93796	7.9742	0.	120.42
619	0.45177	7.9929	0.	122.97
620	5.0032	5.0371	0.	123.7
621	-7.4386	6.0344	0.	120.46
622	4.8538	-1.3378	0.	129.67
623	7.5554	-0.97045	0.	120.98
624	5.6763	0.66688	0.	108.34
625	2.519	5.2935	0.	129.97
626	0.82682	6.9271	0.	116.25
627	-1.7813	-6.1328	0.	125.66
628	-1.5321	5.5179	0.	119.28
629	-3.9841	7.5153	0.	128.8
630	1.0061	-2.5161	0.	130.99
631	-2.002	-3.4887	0.	127.2
632	-2.3152	-1.0933	0.	126.62
633	5.5805	1.1128	0.	111.62
634	-5.9929	-6.5419	0.	125.48
635	-5.5026	2.0198	0.	118.31
636	-4.0004	4.5019	0.	132.61
637	-6.4615	6.0601	0.	124.94
638	4.9995	-4.5512	0.	129.35
639	1.8937e-002	0.50261	0.	125.94
640	7.0405	-5.9745	0.	108.18
641	4.1159	6.2931	0.	130.69
642	4.5747	6.1601	0.	128.79
643	-5.0093	1.5301	0.	125.35
644	-4.5151	1.4827	0.	130.82
645	-6.9927	1.4862	0.	121.38
646	-7.9956	4.0007	0.	127.01
647	-7.9983	3.501	0.	127.07
648	-7.4901	1.4851	0.	123.71
649	-7.9917	1.4895	0.	123.67
650	7.5227	-5.9498	0.	104.49
651	-6.5132	8.0564	0.	132.39
652	-5.983	8.0505	0.	125.62
653	-5.4744	8.041	0.	123.09
654	-4.9767	8.0303	0.	122.85
655	-4.4814	8.0216	0.	124.47
656	-5.9945	-7.5165	0.	126.
657	6.1475	-8.0668	0.	126.9
658	5.5584	-8.0396	0.	125.93
659	5.0193	-8.0325	0.	126.23
660	4.505	-8.0277	0.	126.98
661	4.0005	-8.0247	0.	127.65
662	3.5007	-8.024	0.	128.15
663	3.0034	-8.0261	0.	128.5
664	2.5069	-8.0311	0.	128.79
665	2.0117	-8.0386	0.	129.11
666	1.5165	-8.0478	0.	129.45
667	1.022	-8.0574	0.	128.94
668	0.52644	-8.0641	0.	125.74
669	2.9355e-002	-8.0622	0.	120.06
670	-0.46895	-8.0479	0.	118.01
671	-0.96638	-8.0257	0.	122.19
672	-1.4625	-7.9982	0.	126.92
673	-1.9574	-7.9731	0.	128.59
674	-2.4557	-7.9709	0.	128.46
675	-2.9592	-7.9762	0.	127.97
676	-3.4633	-7.9851	0.	127.61
677	-3.9714	-7.9919	0.	127.26
678	-4.4775	-8.0022	0.	126.9
679	-4.9836	-8.009	0.	126.56
680	-5.4892	-8.0113	0.	126.35
681	7.9601	8.0615	0.	122.61
682	7.516	-1.97	0.	120.27
683	7.9983	2.508	0.	122.88
684	7.9921	2.0101	0.	123.85
685	7.9772	1.5073	0.	125.85
686	7.951	0.99215	0.	128.08
687	8.0857	-3.7335e-002	0.	125.66
688	8.0751	-0.50883	0.	122.88
689	8.0494	-0.99235	0.	123.22
690	8.0337	-1.487	0.	124.37
691	7.4984	2.5164	0.	118.26
692	4.5243	4.5074	0.	122.92
693	2.2295	4.834	0.	134.8
694	2.1107	3.4252	0.	132.28
695	6.2509	0.73128	0.	109.12
696	-1.0127	5.045	0.	124.29
697	0.94449	-6.0995	0.	126.31
698	-0.44952	-7.5717	0.	111.97
699	-5.9713e-002	7.5129	0.	129.47
700	-0.58175	2.502	0.	125.86
701	-1.055	2.4821	0.	123.06
702	-2.491	3.9968	0.	117.77
703	-0.88534	4.0576	0.	128.88
704	0.98202	-3.539	0.	130.23
705	-0.43917	-1.017	0.	124.07
706	1.0312	-1.0085	0.	131.26
707	-1.6678	-5.4237	0.	129.9
708	-2.0714	-4.9172	0.	130.61
709	6.9313	1.098	0.	122.89
710	3.0675	0.99598	0.	133.98
711	3.0394	2.4746	0.	132.04
712	-4.	4.001	0.	134.02
713	-5.4765	6.0286	0.	123.3
714	-3.9949	6.0094	0.	134.71
715	-6.4995	1.9987	0.	116.6
716	-7.9897	4.5002	0.	125.58
717	-7.9315	5.9845	0.	116.06
718	5.0006	5.5589	0.	124.17
719	-7.9798	-4.5684	0.	124.67
720	-3.0696	-0.29545	0.	133.53
721	3.5975e-002	2.0436	0.	130.04
722	3.7283	6.8642	0.	132.34
723	-1.0485	5.5386	0.	122.57
724	6.55	-6.0167	0.	118.53
725	5.8648	-6.5899	0.	127.78
726	5.9129	-7.0619	0.	124.05
727	3.8791	7.8863	0.	127.87
728	3.8102	7.3815	0.	130.24
729	4.1999	6.8079	0.	134.83
730	4.6572	6.6879	0.	132.46
731	7.4493	7.113	0.	122.42
732	4.118e-002	0.99988	0.	129.71
733	4.0766e-002	1.5085	0.	131.85
734	4.99	-5.5462	0.	132.2
735	5.4847	-6.0596	0.	130.78
736	5.1164	6.5837	0.	127.31
737	5.0499	6.0756	0.	126.03
738	-7.9573	5.4953	0.	122.56
739	-7.9995	3.0009	0.	127.92
740	-7.9989	2.4984	0.	127.98
741	-6.9981	1.9952	0.	121.58
742	-4.	5.0037	0.	133.44
743	-3.9983	5.5063	0.	134.69
744	-4.9831	6.0196	0.	128.4
745	-4.5048	1.9982	0.	132.64
746	-4.002	2.4994	0.	135.06
747	-5.9859	-6.0625	0.	125.68
748	-5.969	-5.5903	0.	126.33
749	4.0398	3.9805	0.	127.81
750	3.5588	3.9569	0.	133.49
751	3.0513	2.964	0.	134.17
752	3.0452	1.4904	0.	135.
753	4.0721	1.0399	0.	130.08
754	6.0389	1.1589	0.	112.13
755	6.4708	1.1574	0.	117.43
756	6.9807	1.5668	0.	121.7
757	6.9948	2.0415	0.	118.92
758	-1.9332	-2.0104	0.	124.05
759	-2.0424	-4.4507	0.	130.27
760	-1.5987	-4.9358	0.	129.48
761	1.025	-1.5089	0.	132.49
762	8.2034e-003	-0.99469	0.	126.42
763	0.96089	-4.0564	0.	131.05
764	-2.9971	3.9999	0.	122.7
765	-3.4992	4.0008	0.	129.61
766	-4.0005	3.0009	0.	135.19
767	-4.0085	1.9977	0.	136.25
768	-4.0184	1.4929	0.	135.67
769	-3.0694	1.0885	0.	135.52
770	-1.073	2.995	0.	126.18
771	-1.1541	3.4755	0.	128.49
772	-1.4156	3.9356	0.	126.23
773	-1.9722	3.9843	0.	120.41
774	-1.0779	1.9321	0.	121.69
775	-3.9857	7.0144	0.	130.87
776	-3.99	6.5123	0.	133.32
777	-3.5009	6.0061	0.	132.44
778	-3.0072	6.0044	0.	126.19
779	-1.0652	6.0314	0.	125.16
780	-9.9629e-002	7.0292	0.	133.47
781	-6.9607	0.44406	0.	122.61
782	-7.4829	0.97639	0.	124.39
783	-1.8512	-6.8625	0.	127.13
784	-0.9421	-7.5387	0.	122.47
785	4.5137e-002	-7.5917	0.	118.02
786	0.53702	-7.5883	0.	129.58
787	1.0231	-7.0881	0.	130.14
788	0.99857	-6.5951	0.	126.97
789	0.28595	6.5552	0.	129.3
790	-0.14656	6.5569	0.	139.95
791	-0.60393	6.0539	0.	133.39
792	2.6179	5.8499	0.	131.52
793	2.2885	6.9163	0.	131.67
794	1.8006	6.9141	0.	125.23
795	4.9997	-3.1165	0.	128.39
796	4.9936	-2.6575	0.	129.73
797	5.1426	0.63112	0.	120.
798	4.6257	0.59482	0.	129.35
799	4.1686	7.6446e-002	0.	128.31
800	7.612	-0.48415	0.	123.07
801	7.361	0.56012	0.	130.85
802	6.8231	0.64138	0.	122.34
803	7.0243	-1.9214	0.	117.36
804	4.9359	-1.765	0.	130.58
805	4.98	-2.2065	0.	131.54
806	-5.9547	6.5591	0.	123.98
807	2.1256	3.9063	0.	135.53
808	2.1585	4.3772	0.	135.15
809	8.8191e-002	4.2234	0.	130.47
810	1.6344	3.4214	0.	127.22
811	0.70434	3.3834	0.	122.98
812	1.164	3.4114	0.	123.03
813	-1.1211	-4.9643	0.	122.98
814	-1.2111	-5.4085	0.	126.11
815	0.89299	-5.6016	0.	130.9
816	0.90186	-5.0933	0.	132.79
817	-5.9391	-5.1289	0.	128.05
818	-5.8886	-4.6855	0.	128.07
819	-5.2682	-0.36204	0.	127.3
820	5.0116	4.5181	0.	122.02
821	6.9985	2.5238	0.	115.47
822	4.0458	8.3974	0.	128.74
823	3.4769	8.4327	0.	126.81
824	2.9592	8.4532	0.	125.87
825	2.4521	8.4615	0.	124.8
826	1.9543	8.4687	0.	123.41
827	1.4594	8.4751	0.	122.17
828	0.96648	8.4842	0.	121.94
829	0.4743	8.4947	0.	123.5
830	-1.7738e-002	8.5019	0.	127.04
831	-8.4281	5.9562	0.	125.42
832	-8.4591	5.4829	0.	125.12
833	-8.4782	4.9942	0.	125.1
834	-8.4892	4.4983	0.	125.25
835	-8.4949	3.9998	0.	125.61
836	-8.4978	3.5005	0.	126.18
837	-8.499	3.0002	0.	126.74
838	-8.4978	2.4977	0.	126.9
839	-8.4958	1.9947	0.	125.75
840	-8.4939	1.4939	0.	123.36
841	8.0131	-1.9872	0.	125.38
842	7.9511	7.0609	0.	124.74
843	-5.9943	-8.0097	0.	126.72
844	4.5252	3.9985	0.	122.45
845	7.5	3.0097	0.	116.9
846	-7.0465	8.5194	0.	125.76
847	-5.996	8.5333	0.	127.41
848	-5.486	8.5303	0.	124.77
849	-4.984	8.5242	0.	123.79
850	-8.4764	-4.0665	0.	125.11
851	-8.4285	-3.5869	0.	120.52
852	-8.4312	-3.0847	0.	123.04
853	6.3875	-8.5266	0.	125.59
854	5.9735	-8.5555	0.	126.77
855	5.5129	-8.5281	0.	127.13
856	5.0134	-8.5226	0.	127.29
857	4.5083	-8.5202	0.	127.68
858	4.0053	-8.5184	0.	128.11
859	3.5046	-8.5181	0.	128.48
860	3.0058	-8.5198	0.	128.74
861	2.5077	-8.5242	0.	128.9
862	2.0107	-8.5292	0.	128.9
863	1.5135	-8.5355	0.	128.53
864	1.0159	-8.5413	0.	127.3
865	0.5175	-8.5443	0.	124.71
866	1.8215e-002	-8.5414	0.	121.74
867	-0.48186	-8.5312	0.	120.77
868	-0.98123	-8.5167	0.	122.67
869	-1.4795	-8.5002	0.	125.49
870	-1.977	-8.4864	0.	127.29
871	-2.4754	-8.4816	0.	127.9
872	-2.9758	-8.4829	0.	127.95
873	-3.4778	-8.4872	0.	127.79
874	-3.9808	-8.4926	0.	127.55
875	-4.4836	-8.4997	0.	127.28
876	-4.9873	-8.5044	0.	127.03
877	-5.4912	-8.5063	0.	126.89
878	-5.9949	-8.5054	0.	127.03
879	8.0071	-5.9404	0.	113.3
880	8.	3.0055	0.	123.48
881	8.4776	8.032	0.	124.35
882	8.4653	7.0332	0.	129.15
883	8.4998	3.0025	0.	129.44
884	8.4978	2.5031	0.	127.21
885	8.4921	2.0021	0.	126.86
886	8.481	1.4981	0.	127.48
887	8.4683	0.99042	0.	128.15
888	8.4735	0.48691	0.	127.71
889	8.5295	-9.1282e-003	0.	126.34
890	8.5444	-0.50605	0.	125.13
891	8.5353	-0.99945	0.	125.37
892	8.524	-1.4965	0.	127.15
893	8.5107	-1.9948	0.	129.96
894	8.4985	-5.9586	0.	129.64
895	7.1026	8.6259	0.	126.37
896	7.538	8.6171	0.	124.31
897	8.0007	8.5555	0.	123.61
898	8.4956	8.5267	0.	124.13
899	-6.4518	7.591	0.	131.1
900	8.4439	-8.0169	0.	126.43
901	8.5634	-8.5161	0.	128.37
902	-6.9393	-5.0282	0.	109.85
903	0.37303	-5.1162	0.	127.1
904	-0.63926	-5.0432	0.	109.99
905	1.1482	3.9149	0.	117.34
906	1.6391	3.9158	0.	130.31
907	-6.4455	6.5907	0.	133.42
908	5.4714	-2.1765	0.	124.47
909	5.968	-2.1579	0.	109.09
910	4.9905	9.0974	0.	128.85
911	4.5046	9.0376	0.	129.93
912	4.0031	8.9644	0.	128.74
913	3.4959	8.9573	0.	127.1
914	1.9789	8.9805	0.	124.72
915	0.98428	8.991	0.	123.93
916	0.48766	8.9966	0.	124.68
917	7.0234	9.0765	0.	127.15
918	7.5233	9.0693	0.	125.23
919	8.0127	9.0408	0.	124.34
920	8.9964	8.5113	0.	125.
921	8.9811	7.5163	0.	127.32
922	8.9963	5.506	0.	132.
923	9.0001	3.5009	0.	132.74
924	8.9996	3.001	0.	131.36
925	8.9978	2.5007	0.	129.79
926	8.9933	1.9993	0.	129.02
927	8.9874	1.4977	0.	128.83
928	8.9834	0.99633	0.	128.68
929	8.9913	0.49733	0.	128.18
930	9.0128	-1.4968e-003	0.	127.37
931	9.0004	-2.997	0.	132.41
932	8.9933	-6.0032	0.	137.83
933	9.0921	-7.0393	0.	130.44
934	9.0455	-7.5184	0.	129.2
935	9.0005	-8.0096	0.	130.74
936	9.0215	-8.5049	0.	130.46
937	8.5227	-8.9915	0.	126.1
938	8.0224	-8.938	0.	116.43
939	6.9428	-8.9373	0.	119.14
940	6.4586	-9.001	0.	123.81
941	5.4997	-9.0197	0.	127.35
942	5.0058	-9.0153	0.	127.9
943	4.5061	-9.0131	0.	128.28
944	4.0049	-9.0122	0.	128.58
945	3.5047	-9.012	0.	128.8
946	3.0053	-9.0133	0.	128.91
947	2.5064	-9.016	0.	128.87
948	2.0078	-9.0195	0.	128.56
949	1.5092	-9.0233	0.	127.82
950	1.0101	-9.0267	0.	126.45
951	0.51032	-9.0278	0.	124.53
952	1.0375e-002	-9.0256	0.	122.79
953	-0.49041	-9.019	0.	122.25
954	-0.99051	-9.0102	0.	123.25
955	-1.4899	-9.0009	0.	124.98
956	-1.9885	-8.9932	0.	126.48
957	-3.9887	-8.9946	0.	127.77
958	-4.4897	-8.999	0.	127.58
959	-4.9916	-9.0018	0.	127.29
960	-5.4938	-9.0031	0.	126.88
961	-5.996	-9.003	0.	126.16
962	-6.4979	-9.0017	0.	123.76
963	-6.9989	-9.0007	0.	118.12
964	-7.4994	-9.0002	0.	114.79
965	-7.9997	-9.0001	0.	118.64
966	-8.4999	-9.	0.	124.8
967	-8.9963	1.4975	0.	125.53
968	-8.997	1.9975	0.	126.64
969	-8.9979	3.5001	0.	126.29
970	-8.9957	4.0001	0.	126.08
971	-8.9913	4.5	0.	126.32
972	-8.9833	4.9987	0.	127.26
973	-8.9675	5.4955	0.	129.45
974	-8.9295	5.9789	0.	134.39
975	-9.2425	6.517	0.	134.71
976	-9.1904	6.9774	0.	131.1
977	-9.1359	7.4573	0.	129.28
978	-9.0661	7.9525	0.	130.75
979	8.9636	-6.5478	0.	139.35
980	7.2494	8.702e-002	0.	138.88
981	4.6745	0.12221	0.	137.3
982	-8.481	8.6578	0.	135.82
983	-0.166	6.0889	0.	150.61
984	0.54684	-7.1152	0.	142.28
985	-1.3834	-7.0099	0.	137.61
986	-7.4472	-2.3374	0.	135.89
987	-8.9999	-8.5001	0.	128.88
988	-9.	-8.0001	0.	129.06
989	-9.	-7.5003	0.	128.92
990	-9.	-7.0009	0.	129.66
991	-8.9998	-6.502	0.	129.53
992	-8.9991	-6.0043	0.	130.34
993	-8.9976	-5.5086	0.	130.77
994	-8.9814	-4.0324	0.	125.39
995	-8.961	-3.5393	0.	123.74
996	-8.9512	-3.0375	0.	122.6
997	-7.4731	0.47007	0.	128.29
998	-8.9962	0.99792	0.	123.94
999	-0.59198	6.5386	0.	142.52
1000	-3.4973	6.5072	0.	135.81
1001	-8.6343e-003	9.0006	0.	127.25
1002	-8.4951	9.0668	0.	126.37
1003	-7.9977	9.0653	0.	118.8
1004	-7.507	9.0277	0.	118.63
1005	-7.0119	9.0152	0.	125.81
1006	-6.5077	9.017	0.	127.46
1007	-6.0003	9.0196	0.	127.1
1008	-5.4931	9.0193	0.	125.84
1009	-4.9905	9.0163	0.	125.14
1010	-4.4909	9.0123	0.	125.39
1011	-3.9931	9.0081	0.	127.45
1012	-1.5256	1.6526	0.	120.61
1013	-1.5638	3.4526	0.	128.93
1014	-3.5234	1.5217	0.	140.15
1015	-3.4997	3.5008	0.	134.19
1016	0.51217	-1.5034	0.	134.11
1017	-1.5502	-4.4593	0.	130.28
1018	-1.4505	-1.545	0.	122.38
1019	6.4948	1.5905	0.	121.79
1020	6.9996	3.0127	0.	114.71
1021	3.5433	1.5045	0.	138.31
1022	3.5463	3.4681	0.	138.57
1023	-6.4701	-5.5599	0.	123.05
1024	-6.4974	-8.5033	0.	127.43
1025	-8.4999	-8.5001	0.	128.91
1026	-8.4939	-5.5138	0.	131.68
1027	-4.5009	2.5014	0.	136.3
1028	-7.4994	2.4985	0.	130.09
1029	-7.462	5.5181	0.	126.24
1030	5.0134	4.0068	0.	121.03
1031	8.4716	6.5237	0.	135.15
1032	8.5002	3.5017	0.	134.24
1033	5.576	6.5092	0.	122.37
1034	8.5016	-2.4952	0.	134.36
1035	8.5052	-5.4766	0.	131.34
1036	5.4999	-5.5489	0.	134.04
1037	5.4821	-2.6274	0.	126.68
1038	-7.9194	-2.7367	0.	142.57
1039	-0.46722	1.4939	0.	138.81
1040	-0.95775	-1.2226	0.	123.44
1041	6.9506	6.8005	0.	126.04
1042	4.293	7.3677	0.	134.72
1043	6.2473	-6.5671	0.	132.77
1044	9.0017	9.0084	0.	124.82
1045	9.0153	-9.0016	0.	128.94
1046	-8.9999	-9.	0.	127.65
1047	-8.99	9.0127	0.	129.98
1048	8.1375	-8.459	0.	127.83
1049	5.435	-1.7278	0.	125.88
1050	5.282	-1.2968	0.	122.32
1051	4.75	-0.36896	0.	119.57
1052	4.924	-0.88452	0.	137.04
1053	5.1814	0.17659	0.	127.56
1054	6.7662	0.18179	0.	125.19
1055	6.2445	0.22092	0.	103.57
1056	5.7086	0.20555	0.	102.56
1057	-6.9308	6.6439	0.	127.91
1058	-7.4203	6.5536	0.	115.14
1059	-8.3955	6.3992	0.	123.61
1060	-7.9133	6.4606	0.	111.86
1061	-8.7214	7.3774	0.	142.84
1062	-8.5221	8.2819	0.	135.43
1063	-8.629	7.8538	0.	131.8
1064	-6.9177	7.6338	0.	133.43
1065	-7.1027	8.0368	0.	121.42
1066	-7.549	8.5266	0.	121.91
1067	-8.0157	8.6373	0.	107.96
1068	2.0113	5.3677	0.	144.7
1069	1.6701	4.4065	0.	135.45
1070	1.8081	4.8891	0.	131.66
1071	0.58043	4.3137	0.	127.51
1072	0.39936	4.729	0.	125.36
1073	-0.12593	5.6054	0.	125.75
1074	3.5713e-002	5.104	0.	142.36
1075	0.25533	6.1451	0.	134.91
1076	0.70978	6.3581	0.	114.17
1077	1.7506	6.3955	0.	129.18
1078	1.2478	6.3738	0.	109.45
1079	6.8173e-002	-7.1367	0.	118.2
1080	-0.91564	-7.0539	0.	129.36
1081	-0.42432	-7.1037	0.	100.88
1082	-1.3966	-6.4853	0.	118.2
1083	-0.7754	-5.546	0.	121.5
1084	-1.0542	-6.0154	0.	138.41
1085	0.53462	-6.6323	0.	121.87
1086	0.43755	-6.1408	0.	134.93
1087	0.31962	-5.6427	0.	132.36
1088	-7.9205	-2.3654	0.	136.8
1089	-8.9513	-2.5232	0.	123.48
1090	-8.392	-2.5431	0.	118.71
1091	-7.9858	0.48784	0.	123.12
1092	-8.494	0.49623	0.	111.81
1093	-8.9973	0.49882	0.	124.21
1094	-7.5642	-1.4446	0.	132.74
1095	-7.4798	-0.52113	0.	131.91
1096	-7.4709	-3.2036e-002	0.	128.96
1097	-1.0524	6.5201	0.	128.55
1098	-1.5298	6.5113	0.	117.79
1099	-2.0176	6.5064	0.	117.19
1100	-3.0038	6.5039	0.	128.58
1101	-2.5097	6.504	0.	117.1
1102	-1.5554	2.0509	0.	122.28
1103	-1.5325	2.5037	0.	126.
1104	-1.5422	2.9831	0.	127.41
1105	-2.0218	1.485	0.	118.8
1106	-3.0319	1.5288	0.	133.66
1107	-2.5418	1.4931	0.	117.79
1108	-2.0119	3.4889	0.	120.85
1109	-2.501	3.4977	0.	112.16
1110	-2.9995	3.4999	0.	124.57
1111	-3.5088	2.0074	0.	138.67
1112	-3.5006	3.0013	0.	135.04
1113	-3.5022	2.5022	0.	136.53
1114	0.46929	-4.046	0.	129.97
1115	0.48926	-3.5248	0.	132.31
1116	0.49767	-3.0141	0.	134.66
1117	0.50306	-2.5083	0.	133.7
1118	0.50756	-2.0051	0.	132.75
1119	-1.0555	-4.4848	0.	120.57
1120	-0.56121	-4.5233	0.	105.68
1121	-2.5646e-003	-1.4984	0.	124.96
1122	-0.53915	-1.4779	0.	114.29
1123	-1.0032	-1.5926	0.	119.98
1124	-1.5157	-3.9791	0.	128.31
1125	-1.501	-3.4923	0.	129.61
1126	-1.4916	-3.0005	0.	130.65
1127	-1.4683	-2.022	0.	123.5
1128	-1.4804	-2.5086	0.	128.72
1129	6.4976	2.0448	0.	120.67
1130	6.4982	2.521	0.	119.97
1131	6.4992	3.0102	0.	118.53
1132	3.5251	1.9936	0.	137.13
1133	3.5291	2.9793	0.	136.66
1134	3.5218	2.4866	0.	136.23
1135	-6.49	-6.0388	0.	124.04
1136	-6.4976	-8.0057	0.	126.94
1137	-6.4979	-7.5097	0.	128.98
1138	-6.4981	-7.0156	0.	130.11
1139	-6.4966	-6.5245	0.	127.97
1140	-7.9997	-8.5001	0.	119.53
1141	-7.4995	-8.5002	0.	107.56
1142	-6.9988	-8.5009	0.	118.88
1143	-7.9871	-5.5159	0.	121.03
1144	-6.9733	-5.5245	0.	115.65
1145	-7.4795	-5.5156	0.	106.76
1146	-8.5	-8.0002	0.	128.97
1147	-8.5	-7.5005	0.	131.64
1148	-8.4983	-6.0064	0.	130.56
1149	-8.4996	-6.5027	0.	131.96
1150	-8.4999	-7.0011	0.	133.46
1151	-4.5001	3.001	0.	135.82
1152	-4.5	3.5006	0.	138.3
1153	-4.5	4.0008	0.	140.15
1154	-4.5	4.5018	0.	138.49
1155	-4.4991	5.0041	0.	136.67
1156	-5.0005	2.5071	0.	127.36
1157	-5.5011	2.5087	0.	115.09
1158	-6.0011	2.5038	0.	114.09
1159	-6.9999	2.4988	0.	123.55
1160	-6.5004	2.4991	0.	113.37
1161	-4.9921	5.5102	0.	130.9
1162	-5.4889	5.5145	0.	119.5
1163	-5.9852	5.5211	0.	119.05
1164	-6.4798	5.5283	0.	118.01
1165	-6.9713	5.5307	0.	124.62
1166	-7.4996	2.9999	0.	129.6
1167	-7.4973	4.0009	0.	133.02
1168	-7.4836	5.0072	0.	127.07
1169	-7.4935	4.502	0.	131.
1170	-0.50941	8.5034	0.	135.31
1171	-0.53227	7.5131	0.	138.26
1172	-0.51795	8.0068	0.	137.98
1173	-3.4937	7.0074	0.	133.91
1174	-3.4962	9.0042	0.	131.07
1175	-3.4946	8.5058	0.	134.73
1176	-3.4931	8.0069	0.	136.7
1177	-3.4925	7.5073	0.	135.72
1178	6.0126	1.5802	0.	116.2
1179	5.5267	1.5594	0.	111.17
1180	4.0393	1.5182	0.	129.97
1181	4.5362	1.5312	0.	120.53
1182	5.0341	1.5438	0.	117.54
1183	4.0283	3.4871	0.	130.33
1184	5.5041	3.5022	0.	121.98
1185	5.0088	3.5015	0.	121.35
1186	4.5166	3.4971	0.	120.89
1187	8.4894	6.0131	0.	135.13
1188	8.5001	4.0013	0.	134.31
1189	8.4998	4.5013	0.	136.83
1190	8.4991	5.0026	0.	138.83
1191	8.4972	5.5056	0.	137.37
1192	8.0003	3.5028	0.	126.21
1193	7.5002	3.5045	0.	114.87
1194	6.4999	3.5044	0.	117.74
1195	6.9999	3.5057	0.	115.32
1196	6.0357	6.4582	0.	115.31
1197	7.9532	6.5367	0.	127.45
1198	7.4067	6.5659	0.	120.14
1199	6.9519	6.4116	0.	118.83
1200	6.497	6.4255	0.	112.25
1201	5.5055	4.0059	0.	123.39
1202	5.5043	4.5117	0.	127.37
1203	5.5295	6.0223	0.	124.22
1204	5.5057	5.5235	0.	127.09
1205	5.5019	5.0186	0.	128.83
1206	8.5001	-2.9965	0.	133.52
1207	8.5001	-3.497	0.	134.66
1208	8.5004	-3.9963	0.	135.58
1209	8.5027	-4.9882	0.	130.44
1210	8.5009	-4.4942	0.	133.2
1211	8.0073	-5.4717	0.	117.99
1212	7.5103	-5.4763	0.	105.29
1213	6.0083	-5.5462	0.	125.37
1214	6.5125	-5.5143	0.	112.61
1215	7.0133	-5.4897	0.	108.11
1216	5.9687	-2.596	0.	118.3
1217	7.9968	-2.4916	0.	126.37
1218	7.4798	-2.4789	0.	115.11
1219	6.9242	-2.4451	0.	114.09
1220	6.4456	-2.5933	0.	108.05
1221	5.4972	-3.081	0.	126.36
1222	5.5024	-3.5519	0.	130.8
1223	5.5021	-4.0377	0.	132.87
1224	5.5009	-4.532	0.	132.13
1225	5.5006	-5.0356	0.	132.43
1226	-5.8882	-3.8413	0.	136.62
1227	-6.3632	-4.6276	0.	122.66
1228	-6.2059	-4.2143	0.	119.1
1229	-7.549	-4.1119	0.	123.34
1230	-7.9373	-3.1692	0.	120.52
1231	-7.8508	-3.6791	0.	132.79
1232	-6.0191	-2.8112	0.	124.55
1233	-6.4983	-2.7923	0.	101.16
1234	-6.9816	-2.7698	0.	108.76
1235	-7.4576	-2.7465	0.	133.6
1236	-5.8367	-0.52487	0.	123.
1237	-5.1884	-1.8101	0.	126.21
1238	-5.5952	-0.94608	0.	126.64
1239	-5.5599	-2.3409	0.	135.03
1240	-6.9665	-2.3704	0.	118.3
1241	-6.4865	-2.3749	0.	102.2
1242	-6.0165	-2.3625	0.	113.35
1243	-7.1579	-1.4726	0.	133.26
1244	-2.6266	0.95539	0.	135.46
1245	-2.1771	1.0097	0.	115.88
1246	-0.95267	1.4324	0.	121.87
1247	-1.3919	1.2716	0.	115.33
1248	-0.84363	-0.8533	0.	130.1
1249	-0.61432	-0.4694	0.	125.72
1250	-0.54507	4.9359e-002	0.	130.88
1251	-0.44925	1.0051	0.	131.51
1252	6.4812	9.0795	0.	131.83
1253	6.9776	7.2066	0.	120.39
1254	6.9191	7.6607	0.	127.92
1255	6.6517	8.5762	0.	125.93
1256	4.3759	7.9366	0.	124.94
1257	4.5562	8.5889	0.	132.46
1258	5.7971	9.1092	0.	115.63
1259	5.4237	9.1844	0.	124.89
1260	5.0813	8.6172	0.	127.64
1261	6.5137	6.8484	0.	117.18
1262	4.7462	7.1973	0.	140.86
1263	5.1978	7.0745	0.	122.82
1264	5.6383	6.9848	0.	116.79
1265	6.0757	6.91	0.	110.6
1266	-1.3872	-1.0866	0.	108.34
1267	-1.8552	-0.90793	0.	121.75
1268	-2.2924	-0.53603	0.	124.93
1269	-2.8606	0.28369	0.	124.02
1270	-2.6052	-0.11121	0.	143.31
1271	6.3373	-7.0228	0.	116.5
1272	6.501	-7.476	0.	138.73
1273	9.5005	9.0028	0.	125.1
1274	9.4981	8.5039	0.	125.5
1275	9.4946	8.005	0.	126.31
1276	9.4914	7.5062	0.	127.51
1277	9.4903	7.0068	0.	128.79
1278	9.4917	6.5064	0.	129.61
1279	9.4949	6.0052	0.	129.59
1280	9.4974	5.5037	0.	129.44
1281	9.499	5.0023	0.	129.49
1282	9.4997	4.5013	0.	130.
1283	9.4999	4.0007	0.	130.79
1284	9.5	3.5005	0.	131.54
1285	9.4997	3.0003	0.	131.6
1286	9.4984	2.4999	0.	131.17
1287	9.4962	1.9992	0.	130.6
1288	9.494	1.499	0.	130.05
1289	9.4933	0.99918	0.	129.46
1290	9.497	0.49984	0.	128.82
1291	9.5052	4.3196e-004	0.	128.3
1292	9.51	-0.49982	0.	128.19
1293	9.5098	-0.99999	0.	128.71
1294	9.5068	-1.4997	0.	129.74
1295	9.5037	-1.9993	0.	130.81
1296	9.5014	-2.4988	0.	131.34
1297	9.5004	-2.9983	0.	131.1
1298	9.5003	-3.4978	0.	130.79
1299	9.5005	-3.9972	0.	130.9
1300	9.501	-4.4965	0.	131.72
1301	9.5012	-4.997	0.	133.09
1302	9.4997	-5.5003	0.	134.77
1303	9.4946	-6.0065	0.	135.43
1304	9.5275	-7.0122	0.	129.7
1305	9.5219	-7.5118	0.	128.99
1306	9.5073	-8.007	0.	129.83
1307	9.5088	-8.5035	0.	130.64
1308	9.5074	-9.0022	0.	130.82
1309	9.5028	-9.5007	0.	130.68
1310	9.0051	-9.4992	0.	127.29
1311	8.504	-9.4897	0.	122.6
1312	7.9973	-9.4578	0.	116.48
1313	6.9913	-9.4591	0.	117.22
1314	6.4914	-9.4944	0.	121.82
1315	5.9952	-9.508	0.	125.22
1316	5.499	-9.5095	0.	127.12
1317	5.0014	-9.508	0.	128.12
1318	4.5027	-9.5066	0.	128.62
1319	4.0028	-9.5061	0.	128.89
1320	3.5028	-9.5061	0.	129.02
1321	3.0031	-9.5067	0.	129.01
1322	2.5036	-9.508	0.	128.81
1323	2.0042	-9.5098	0.	128.32
1324	1.5047	-9.5116	0.	127.42
1325	1.0049	-9.513	0.	126.09
1326	0.50486	-9.5134	0.	124.56
1327	4.757e-003	-9.5124	0.	123.34
1328	-0.49594	-9.5091	0.	122.97
1329	-0.99625	-9.5049	0.	123.59
1330	-1.4961	-9.5007	0.	124.83
1331	-1.9956	-9.4971	0.	126.11
1332	-2.4951	-9.4952	0.	127.08
1333	-2.9948	-9.4948	0.	127.64
1334	-3.4946	-9.4955	0.	127.89
1335	-3.9946	-9.4972	0.	127.9
1336	-4.4951	-9.4992	0.	127.72
1337	-4.9958	-9.5005	0.	127.33
1338	-5.4968	-9.5013	0.	126.56
1339	-5.9978	-9.5013	0.	125.04
1340	-6.4986	-9.5009	0.	122.25
1341	-6.9993	-9.5004	0.	118.86
1342	-7.4996	-9.5001	0.	117.28
1343	-7.9998	-9.5	0.	119.29
1344	-8.4999	-9.5	0.	123.11
1345	-8.9999	-9.5	0.	126.37
1346	-9.5	-9.5	0.	128.58
1347	-9.5	-9.	0.	128.85
1348	-9.5	-8.5	0.	128.93
1349	-9.5	-8.0001	0.	128.59
1350	-9.5	-7.5002	0.	128.4
1351	-9.5	-7.0005	0.	128.49
1352	-9.4999	-6.501	0.	128.94
1353	-9.4997	-6.0021	0.	129.53
1354	-9.4992	-5.5039	0.	129.93
1355	-9.4985	-5.0064	0.	129.5
1356	-9.4962	-4.5094	0.	128.41
1357	-9.4904	-4.0125	0.	127.29
1358	-9.482	-3.515	0.	126.81
1359	-9.4768	-3.0151	0.	128.23
1360	-9.4795	-2.5116	0.	133.16
1361	-9.4945	-2.0059	0.	134.08
1362	-9.4993	-1.5018	0.	137.14
1363	-9.4999	-1.0006	0.	138.96
1364	-9.5	-0.50016	0.	137.58
1365	-9.4998	-7.5008e-005	0.	135.22
1366	-9.4989	0.49974	0.	134.63
1367	-9.4984	0.99942	0.	130.75
1368	-9.4983	1.4991	0.	129.31
1369	-9.4985	1.9991	0.	128.48
1370	-9.4988	2.4994	0.	127.68
1371	-9.4993	2.9999	0.	126.96
1372	-9.4988	3.5003	0.	126.58
1373	-9.4974	4.0007	0.	126.76
1374	-9.495	4.5021	0.	127.62
1375	-9.4904	5.0059	0.	129.11
1376	-9.4803	5.5194	0.	131.07
1377	-9.4567	6.0644	0.	133.66
1378	-9.6061	6.5373	0.	130.67
1379	-9.5931	7.0084	0.	127.09
1380	-9.5647	7.4952	0.	125.95
1381	-9.5273	7.9927	0.	126.97
1382	-9.4894	8.4949	0.	127.98
1383	-9.4923	8.999	0.	127.29
1384	-9.498	9.5013	0.	125.66
1385	-8.9979	9.5099	0.	125.45
1386	-8.4986	9.5271	0.	123.63
1387	-7.9976	9.5274	0.	120.92
1388	-7.4994	9.5158	0.	121.47
1389	-7.0019	9.5091	0.	123.7
1390	-6.5021	9.5086	0.	125.64
1391	-6.0002	9.5091	0.	126.37
1392	-5.4971	9.5091	0.	126.72
1393	-4.9957	9.508	0.	127.01
1394	-4.4956	9.5062	0.	127.44
1395	-3.9965	9.5042	0.	128.34
1396	-3.4978	9.5023	0.	131.27
1397	-2.999	9.5006	0.	128.69
1398	-2.4997	9.5001	0.	121.
1399	-1.9999	9.5	0.	122.14
1400	-1.5002	9.5	0.	120.93
1401	-1.0008	9.5003	0.	128.46
1402	-0.50182	9.5007	0.	131.01
1403	-3.2147e-003	9.5002	0.	127.9
1404	0.49538	9.4984	0.	126.81
1405	0.99405	9.4959	0.	126.35
1406	1.4929	9.4934	0.	126.26
1407	1.9923	9.4906	0.	126.44
1408	2.4928	9.4876	0.	126.77
1409	2.9948	9.4836	0.	127.11
1410	3.497	9.4806	0.	127.46
1411	3.9966	9.4878	0.	127.73
1412	4.4937	9.5168	0.	127.59
1413	4.9903	9.5482	0.	126.15
1414	5.4976	9.5612	0.	122.84
1415	6.046	9.4692	0.	117.21
1416	6.5362	9.549	0.	125.07
1417	7.0168	9.5374	0.	125.64
1418	7.5125	9.5326	0.	124.92
1419	8.0087	9.5209	0.	124.74
1420	8.505	9.5107	0.	124.76
1421	9.0024	9.5048	0.	124.92
1422	9.501	9.5017	0.	125.
1423	8.4618	-6.4184	0.	138.36
1424	7.9868	-6.3994	0.	105.27
1425	7.5296	-6.4219	0.	105.72
1426	7.081	-6.4571	0.	105.89
1427	6.6445	-6.5009	0.	125.42
1428	1.0253	-7.5735	0.	131.77
1429	8.9873	8.015	0.	125.7
1430	7.914	0.44163	0.	129.22
1431	-3.9727	-6.0263	0.	128.14
1432	-5.4808	-6.0702	0.	126.92
1433	9.0234	-0.50135	0.	126.94
1434	-3.499	4.5012	0.	128.18
1435	0.18474	3.791	0.	128.88
1436	-0.55662	7.023	0.	138.75
1437	2.0906	-0.52037	0.	129.77
1438	-5.4566	7.0473	0.	121.65
1439	-8.4926	0.99391	0.	119.58
1440	8.5769	-7.4731	0.	139.09
1441	2.2278	6.3961	0.	142.18
1442	-4.739	-0.23422	0.	129.42
1443	2.5841	0.48435	0.	131.06
1444	1.5246	-2.0189	0.	130.93
1445	-3.0182	0.6846	0.	133.22
1446	7.4351	1.0419	0.	126.78
1447	-0.16285	3.3221	0.	127.91
1448	2.4595	-4.5612	0.	130.16
1449	2.6976	6.3834	0.	134.09
1450	-4.4892	6.0137	0.	133.43
1451	6.0263	-6.1108	0.	128.
1452	-4.8995	-1.2576	0.	129.61
1453	-5.5804	-3.3632	0.	120.88
1454	-2.9962	4.4998	0.	123.05
1455	-4.7565	-1.7238	0.	130.98
1456	8.4667	7.5365	0.	125.73
1457	-4.9671	7.0331	0.	124.03
1458	1.4799	8.985	0.	124.06
1459	-2.9872	-8.9893	0.	127.78
1460	-8.9953	-5.016	0.	129.79
1461	-7.9776	4.9991	0.	124.78
1462	-8.4889	-5.028	0.	128.51
1463	-8.4875	-4.5478	0.	127.02
1464	3.092	4.4081	0.	133.2
1465	3.9895	-7.5301	0.	127.47
1466	-2.0191	-3.9733	0.	128.74
1467	-8.9982	2.9991	0.	126.76
1468	0.51399	-1.0021	0.	130.26
1469	4.9962	-7.5418	0.	125.42
1470	6.7232	-7.9585	0.	122.14
1471	-1.4269	-5.7938	0.	131.51
1472	6.8192	8.1185	0.	128.41
1473	7.4921	2.0254	0.	120.62
1474	8.9906	6.0103	0.	132.44
1475	0.41524	7.4927	0.	123.1
1476	-5.3711	-1.3683	0.	139.89
1477	2.0325	-2.0259	0.	130.41
1478	1.5598	-2.0917e-002	0.	128.91
1479	1.4274	-5.5787	0.	130.17
1480	2.7697	6.9061	0.	132.54
1481	-4.3905	0.38644	0.	129.1
1482	7.0204	-0.94686	0.	130.38
1483	-3.9936	-4.0736	0.	129.12
1484	-2.4906	4.4958	0.	119.62
1485	8.979	7.0168	0.	129.9
1486	-7.9996	-4.1243	0.	124.89
1487	-8.9912	-4.5255	0.	127.81
1488	2.5018	-7.5374	0.	128.47
1489	6.6894	-1.3551	0.	115.56
1490	3.4745	-5.052	0.	129.24
1491	2.4847	-3.5582	0.	129.95
1492	2.4796	-6.5454	0.	127.86
1493	-6.4347	-5.0847	0.	118.04
1494	1.0422	0.47734	0.	127.32
1495	3.0977	5.8633	0.	129.24
1496	-2.947	-5.9729	0.	127.51
1497	-5.5519	-2.8272	0.	139.22
1498	4.4732	-6.0415	0.	129.95
1499	0.24974	2.4736	0.	127.53
1500	0.9958	-3.0257	0.	130.91
1501	6.001	3.5015	0.	125.33
1502	9.0022	-4.9927	0.	132.42
1503	-7.4988	3.5002	0.	131.76
1504	-7.0376	-1.0433	0.	125.81
1505	4.2443	-0.40577	0.	126.96
1506	4.4968	-4.0753	0.	128.31
1507	-1.7917	1.1102	0.	114.66
1508	5.0013	-3.5846	0.	127.93
1509	-4.476	7.5236	0.	125.26
1510	1.3084	6.9086	0.	116.6
1511	3.5702	1.0166	0.	134.1
1512	4.9962	-5.0466	0.	131.2
1513	9.0023	-2.4973	0.	132.64
1514	-5.8219	-4.2682	0.	128.3
1515	-6.5219	8.5312	0.	129.51
1516	-5.0833	-2.7704	0.	136.02
1517	-5.1178	-2.2859	0.	143.82
1518	-2.5144	6.0048	0.	119.62
1519	1.5748	1.9506	0.	128.42
1520	-2.5098	5.5017	0.	120.1
1521	-4.2941	-1.6337	0.	129.74
1522	-7.4965	1.993	0.	125.76
1523	2.1577	5.8724	0.	129.72
1524	-7.4329	-1.8788	0.	122.11
1525	6.0189	-7.5537	0.	123.41
1526	-1.9798	4.4896	0.	119.93
1527	-7.4565	-5.0306	0.	116.67
1528	0.25758	3.3539	0.	126.38
1529	-6.94	-0.58614	0.	127.82
1530	9.0149	-1.4988	0.	128.95
1531	3.9743	-7.0329	0.	127.78
1532	2.0145	-2.5341	0.	130.11
1533	0.93098	-4.576	0.	132.06
1534	-4.4874	8.5169	0.	124.55
1535	7.1658	-0.41479	0.	118.73
1536	3.9828	-5.051	0.	129.38
1537	2.0615	0.97271	0.	130.19
1538	-3.2859	0.13274	0.	130.2
1539	-4.5519	-3.1708	0.	130.53
1540	2.4922	-7.0422	0.	128.03
1541	-7.9957	1.9937	0.	126.19
1542	-3.4873	-8.9914	0.	127.87
1543	3.969	-6.5344	0.	128.51
1544	1.5547	-1.0143	0.	130.72
1545	1.5143	-7.5588	0.	129.67
1546	-6.9798	0.96849	0.	122.13
1547	1.5568	0.96887	0.	128.7
1548	0.67191	2.3881	0.	127.13
1549	-0.57186	5.5655	0.	128.36
1550	8.7089	-6.9914	0.	126.99
1551	3.0378	1.9823	0.	133.84
1552	1.496	-3.0344	0.	130.06
1553	1.4619	-4.058	0.	130.92
1554	-5.0519	-3.2508	0.	129.68
1555	-1.4323	-7.4957	0.	130.68
1556	4.954	-6.5475	0.	128.29
1557	8.9996	4.5018	0.	132.13
1558	9.0006	-3.9957	0.	131.76
1559	-2.8316	-1.5462	0.	129.16
1560	7.3793	8.1716	0.	122.93
1561	-5.0854	-0.81044	0.	130.91
1562	7.4284	7.6334	0.	120.26
1563	-5.9483	7.0667	0.	122.77
1564	0.66208	3.8568	0.	121.77
1565	1.016	-2.0117	0.	132.03
1566	-7.9759	-5.0371	0.	123.16
1567	3.7923	-0.93789	0.	127.92
1568	2.4665	-6.0494	0.	128.3
1569	-3.9878	8.0134	0.	128.36
1570	3.0817	3.9315	0.	135.81
1571	-0.48745	0.52898	0.	132.98
1572	6.4511	-2.2083	0.	112.89
1573	-2.4871	-8.9895	0.	127.39
1574	-4.4951	5.5083	0.	137.81
1575	2.9847	8.967	0.	126.19
1576	5.0004	-4.0636	0.	128.86
1577	7.101	-1.4482	0.	120.08
1578	-7.9873	0.98689	0.	121.78
1579	2.5675	0.98091	0.	132.04
1580	-5.9699	6.0417	0.	122.4
1581	-0.50476	9.0017	0.	131.31
1582	-2.5384	-5.4241	0.	129.12
1583	-1.959	-2.5084	0.	124.98
1584	4.4986	-3.597	0.	128.43
1585	7.6781	-1.199e-002	0.	126.23
1586	-4.6727	-2.2056	0.	133.46
1587	-2.0246	6.0082	0.	116.76
1588	-4.4772	7.0223	0.	127.14
1589	-0.52344	1.9899	0.	128.72
1590	1.9505	-4.5641	0.	130.96
1591	1.0872	1.9449	0.	127.9
1592	0.52913	0.48701	0.	126.44
1593	1.5597	-0.51669	0.	129.74
1594	2.0619	1.9597	0.	129.77
1595	-2.9997	5.0004	0.	123.83
1596	3.067	3.4495	0.	136.3
1597	4.3543	-0.86055	0.	125.95
1598	-3.507	-5.019	0.	129.35
1599	9.4953	-6.5116	0.	133.14
1600	-8.9981	2.4982	0.	127.01
1601	-7.4519	-4.5561	0.	123.55
1602	9.022	-1.0007	0.	127.46
1603	-3.4676e-002	8.005	0.	128.45
1604	2.501	-3.0524	0.	129.97
1605	-0.14855	-5.1401	0.	111.57
1606	4.9762	-6.047	0.	130.91
1607	-1.9205	-7.4425	0.	130.41
1608	-5.4189	-4.6819	0.	131.22
1609	0.58071	1.9566	0.	128.59
1610	-2.98	-2.9998	0.	127.25
1611	-5.9571	0.49368	0.	118.55
1612	-4.6144	-2.6894	0.	134.15
1613	3.9952	-3.593	0.	128.98
1614	1.3737	7.4388	0.	119.33
1615	3.5547	4.9162	0.	128.2
1616	7.9465	7.5743	0.	122.94
1617	6.5361	-1.7924	0.	119.8
1618	3.9726	-6.0375	0.	129.28
1619	-6.4344	7.1047	0.	121.35
1620	9.0013	-4.4944	0.	131.31
1621	9.	4.0012	0.	132.7
1622	-8.9538	8.4818	0.	132.84
1623	9.0003	-3.4967	0.	131.53
1624	-4.	3.5011	0.	134.65
1625	8.9987	5.0034	0.	132.59
1626	9.0076	-1.998	0.	131.1
1627	-1.54	6.0165	0.	118.72
1628	-3.4427	0.58175	0.	129.23
1629	-0.50795	5.0841	0.	127.89
1630	2.4787	8.9743	0.	125.48
1631	4.4911	-7.5351	0.	126.66
1632	9.0016	-5.4934	0.	134.25
1633	8.9827	6.5144	0.	132.05
1634	-3.9905	8.5112	0.	127.16
1635	8.505	9.0205	0.	124.41
1636	5.9752	-9.0282	0.	126.16
1637	-1.8981	-1.4933	0.	121.49
1638	-4.979	-3.7154	0.	127.77
1639	1.4809	-3.5461	0.	130.21
1640	-5.0031	2.0145	0.	125.66
1641	2.9776	-4.0633	0.	129.62
1642	3.2489	6.8898	0.	131.62
1643	-3.5096	-3.5133	0.	128.51
1644	-2.5327	-4.465	0.	129.71
1645	-4.9684	7.5336	0.	122.71
1646	2.0066	-7.5464	0.	128.87
1647	1.86	7.4338	0.	123.46
1648	2.3509	7.4325	0.	127.24
1649	-7.0825e-002	-4.5636	0.	115.1
1650	0.42492	-4.5789	0.	129.
1651	-8.7983	6.9023	0.	132.87
1652	2.965	-5.0535	0.	129.42
1653	1.5597	1.4608	0.	128.75
1654	4.1161	0.55901	0.	131.04
1655	-1.5065	5.0117	0.	120.71
1656	7.4672	-8.8144	0.	109.09
1657	-6.9504	6.071	0.	124.55
1658	4.4698	-7.0389	0.	127.19
1659	-4.0068	0.98754	0.	132.78
1660	-3.5202	1.0493	0.	135.19
1661	-6.9411	-8.1408e-002	0.	122.95
1662	-6.4152	-0.15124	0.	114.68
1663	-5.9023	-2.1371e-002	0.	117.63
1664	-5.3847	0.10236	0.	124.53
1665	-8.848	6.4381	0.	148.11
1666	7.1511	-8.3192	0.	118.49
1667	6.7805	-8.4709	0.	122.5
1668	-7.5209	-0.99463	0.	134.28
1669	5.4925	8.8346	0.	123.02
1670	4.7897	8.2348	0.	140.03
1671	7.4902	-9.4053	0.	113.89
1672	5.0963	7.6013	0.	134.61
1673	5.035	7.805	0.	135.8
1674	4.633	7.7933	0.	145.36
1675	4.8181	7.4237	0.	153.11
1676	6.3337	7.3088	0.	128.76
1677	6.4788	7.4637	0.	140.24
1678	6.7588	7.2333	0.	134.22
1679	6.5269	7.0542	0.	133.36
1680	5.905	8.735	0.	106.41
1681	6.1112	8.6862	0.	121.52
1682	6.2656	8.9847	0.	124.53
1683	5.9235	8.9996	0.	115.71
1684	5.3	-0.49667	0.	133.86
1685	5.435	-0.25833	0.	135.27
1686	4.955	-0.31448	0.	142.66
1687	5.1707	-4.1707e-002	0.	146.38
1688	5.86	-1.4433	0.	100.18
1689	6.135	-1.4417	0.	102.97
1690	5.984	-1.9189	0.	106.81
1691	5.7175	-1.7039	0.	115.09
1692	6.268	-1.7362	0.	112.18
1693	6.535	-0.25167	0.	134.7
1694	6.675	-0.48833	0.	132.66
1695	6.7881	-3.4107e-002	0.	143.26
1696	6.9879	-0.3324	0.	140.34
1697	7.81	-8.075	0.	112.79
1698	7.575	-8.1625	0.	97.765
1699	7.9187	-8.3945	0.	119.87
1700	7.5836	-8.5722	0.	109.96
1701	8.25	-7.055	0.	144.
1702	8.1525	-6.8238	0.	135.27
1703	8.4109	-6.6092	0.	153.63
1704	8.5344	-6.8957	0.	147.7
1705	6.825	-7.1575	0.	133.88
1706	6.9075	-6.9662	0.	131.45
1707	6.5186	-7.0064	0.	143.92
1708	6.6722	-6.7455	0.	148.47
1709	-1.1113	0.92	0.	132.12
1710	-0.95125	0.78124	0.	149.33
1711	-0.93133	1.2112	0.	139.82
1712	-0.67963	0.99754	0.	143.86
1713	-2.3187	0.5	0.	131.98
1714	-2.36	0.29124	0.	128.52
1715	-2.5733	0.6927	0.	155.04
1716	-2.6903	0.35684	0.	149.61
1717	-1.1988	-0.47125	0.	128.65
1718	-1.4	-0.54126	0.	110.74
1719	-1.0418	-0.76665	0.	129.16
1720	-1.3136	-0.88331	0.	118.26
1721	5.e-002	-6.475	0.	137.41
1722	-0.12	-6.69	0.	131.74
1723	0.10909	-6.9333	0.	141.12
1724	0.34231	-6.6811	0.	142.62
1725	-0.15	-5.965	0.	109.8
1726	-0.42	-5.925	0.	86.181
1727	-0.5127	-5.628	0.	113.
1728	3.4808e-002	-5.6764	0.	118.73
1729	-0.19928	-5.425	0.	108.34
1730	-0.66	-6.61	0.	132.03
1731	-0.76	-6.355	0.	119.08
1732	-0.92282	-6.8119	0.	148.17
1733	-1.1633	-6.5276	0.	143.04
1734	1.2267	4.69	0.	116.33
1735	0.96667	4.6633	0.	104.19
1736	1.1341	4.1825	0.	115.34
1737	1.395	4.4282	0.	124.43
1738	0.85021	4.3819	0.	120.26
1739	1.6533	5.65	0.	148.91
1740	1.5	5.8633	0.	143.98
1741	1.7553	6.1427	0.	152.02
1742	1.9588	5.8812	0.	151.82
1743	0.35333	5.5167	0.	138.04
1744	0.46	5.7567	0.	145.16
1745	3.7037e-002	5.6677	0.	152.5
1746	0.22767	5.9375	0.	156.33
1747	-7.4033	-3.3567	0.	142.22
1748	-7.26	-3.15	0.	140.01
1749	-7.7236	-3.1496	0.	144.03
1750	-7.4838	-2.9382	0.	150.6
1751	-6.9767	-4.2633	0.	107.35
1752	-6.7267	-4.2833	0.	98.141
1753	-6.9046	-4.7591	0.	108.
1754	-6.6166	-4.5588	0.	114.24
1755	-7.1609	-4.523	0.	114.81
1756	-6.26	-3.23	0.	132.82
1757	-6.1533	-3.4567	0.	129.29
1758	-6.0145	-3.0306	0.	144.13
1759	-5.7952	-3.3066	0.	142.64
1760	-6.7067	-1.9867	0.	125.08
1761	-6.845	-1.7967	0.	131.37
1762	-6.9532	-2.1902	0.	131.48
1763	-7.1865	-1.9444	0.	133.18
1764	-5.7733	-1.8933	0.	136.5
1765	-5.6783	-1.68	0.	134.43
1766	-5.3642	-1.8401	0.	144.97
1767	-5.55	-2.1054	0.	149.17
1768	-6.465	-0.94333	0.	111.4
1769	-6.2317	-0.92	0.	105.38
1770	-6.1034	-0.62743	0.	114.96
1771	-6.655	-0.65807	0.	117.55
1772	-6.3926	-0.44062	0.	110.93
1773	-7.095	7.4033	0.	118.03
1774	-7.1583	7.1433	0.	129.05
1775	-6.9154	6.932	0.	143.66
1776	-6.9088	7.4269	0.	147.06
1777	-6.6672	7.1623	0.	141.48
1778	-7.875	8.1367	0.	110.34
1779	-8.1333	8.06	0.	134.65
1780	-8.2961	8.3009	0.	132.65
1781	-8.0428	8.4787	0.	119.41
1782	-8.1917	6.8367	0.	139.81
1783	-8.3867	7.02	0.	153.54
1784	-8.4228	6.5796	0.	145.87
1785	-8.6242	6.8312	0.	149.57
1786	6.	-3.25	0.	133.03
1787	6.25	-3.	0.	118.1
1788	5.9843	-2.798	0.	123.43
1789	5.7486	-3.0405	0.	126.98
1790	6.	-4.75	0.	136.62
1791	6.25	-5.	0.	121.37
1792	6.0041	-5.2731	0.	129.04
1793	5.7503	-5.0178	0.	132.32
1794	7.75	-3.	0.	123.84
1795	8.	-3.25	0.	138.93
1796	8.25	-2.9983	0.	133.98
1797	7.9984	-2.7458	0.	130.71
1798	7.75	-5.	0.	117.67
1799	8.	-4.75	0.	134.69
1800	8.2514	-4.9941	0.	129.4
1801	8.0036	-5.2359	0.	123.59
1802	6.	5.75	0.	131.75
1803	6.25	6.	0.	119.04
1804	6.0178	6.2291	0.	121.34
1805	5.7647	6.0112	0.	125.29
1806	6.	4.25	0.	135.29
1807	6.25	4.	0.	123.1
1808	5.7527	4.003	0.	127.74
1809	6.0005	3.7507	0.	129.11
1810	7.75	6.	0.	127.8
1811	8.	5.75	0.	142.81
1812	8.2447	6.0066	0.	136.54
1813	7.9766	6.2684	0.	133.07
1814	7.75	4.	0.	125.69
1815	8.	4.25	0.	141.54
1816	8.25	4.0006	0.	135.2
1817	8.0002	3.7514	0.	131.54
1818	4.	2.75	0.	145.02
1819	4.25	3.	0.	131.05
1820	3.7645	2.9896	0.	138.63
1821	4.0142	3.2435	0.	135.78
1822	4.	2.25	0.	144.28
1823	4.25	2.	0.	130.
1824	3.7626	1.9968	0.	138.07
1825	4.0196	1.7591	0.	134.8
1826	5.75	3.	0.	124.2
1827	6.	2.75	0.	133.09
1828	6.2496	3.0051	0.	124.66
1829	6.0005	3.2507	0.	128.39
1830	5.75	2.	0.	119.09
1831	6.	2.25	0.	130.34
1832	6.2488	2.0224	0.	122.79
1833	6.0063	1.7901	0.	120.9
1834	-1.	-2.25	0.	132.8
1835	-0.75	-2.	0.	118.03
1836	-1.0016	-1.7963	0.	124.92
1837	-1.2342	-2.011	0.	126.25
1838	-1.	-3.75	0.	132.54
1839	-0.75	-4.	0.	115.61
1840	-1.0277	-4.2424	0.	124.41
1841	-1.2579	-3.9896	0.	128.02
1842	-0.25	-2.	0.	119.59
1843	0.	-2.25	0.	136.68
1844	0.25378	-2.0025	0.	132.48
1845	-1.2823e-003	-1.7492	0.	128.83
1846	-0.25	-4.	0.	115.49
1847	0.	-3.75	0.	133.44
1848	0.23464	-4.023	0.	128.66
1849	-3.5412e-002	-4.2818	0.	121.57
1850	-3.	2.75	0.	142.
1851	-2.75	3.	0.	123.54
1852	-2.9998	3.2499	0.	130.5
1853	-3.2503	3.0007	0.	135.34
1854	-3.	2.25	0.	143.95
1855	-2.75	2.	0.	126.78
1856	-3.0159	1.7644	0.	136.91
1857	-3.2544	2.0037	0.	139.19
1858	-2.25	3.	0.	120.78
1859	-2.	2.75	0.	134.6
1860	-1.7711	2.9916	0.	128.92
1861	-2.0059	3.2444	0.	125.89
1862	-2.25	2.	0.	121.59
1863	-2.	2.25	0.	133.97
1864	-1.7777	2.0254	0.	125.57
1865	-2.0109	1.7425	0.	124.37
1866	-3.	8.75	0.	143.51
1867	-2.75	9.	0.	129.8
1868	-3.2481	9.0021	0.	135.18
1869	-2.9995	9.2503	0.	134.41
1870	-3.	7.25	0.	142.62
1871	-2.75	7.	0.	127.45
1872	-3.0019	6.7519	0.	133.61
1873	-3.2469	7.0037	0.	135.93
1874	-1.25	9.	0.	130.
1875	-1.	8.75	0.	144.08
1876	-1.0004	9.2501	0.	134.37
1877	-0.75238	9.0008	0.	135.36
1878	-1.25	7.	0.	129.81
1879	-1.	7.25	0.	145.24
1880	-1.0262	6.7601	0.	134.73
1881	-0.77831	7.0115	0.	139.58
1882	-7.	4.75	0.	137.67
1883	-6.75	5.	0.	124.25
1884	-6.9857	5.2654	0.	129.45
1885	-7.2418	5.0036	0.	130.24
1886	-7.	3.25	0.	137.41
1887	-6.75	3.	0.	122.68
1888	-6.9999	2.7494	0.	128.43
1889	-7.2498	3.	0.	131.1
1890	-5.25	5.	0.	128.97
1891	-5.	4.75	0.	144.48
1892	-4.7495	5.0021	0.	138.26
1893	-4.9961	5.2551	0.	135.72
1894	-5.25	3.	0.	125.86
1895	-5.	3.25	0.	142.34
1896	-4.75	3.0005	0.	136.27
1897	-5.0002	2.7536	0.	132.42
1898	-8.	-6.25	0.	134.01
1899	-7.75	-6.	0.	116.4
1900	-7.9935	-5.7579	0.	125.18
1901	-8.2491	-6.0032	0.	129.67
1902	-8.	-7.75	0.	134.05
1903	-7.75	-8.	0.	116.77
1904	-7.9999	-8.2501	0.	124.57
1905	-8.25	-8.0001	0.	128.96
1906	-7.25	-6.	0.	114.72
1907	-7.	-6.25	0.	130.44
1908	-6.745	-6.0194	0.	124.6
1909	-6.9866	-5.7623	0.	120.86
1910	-7.25	-8.	0.	116.2
1911	-7.	-7.75	0.	132.5
1912	-6.7488	-8.0029	0.	127.42
1913	-6.9994	-8.2505	0.	123.7
1914	-9.	-0.25	0.	139.79
1915	-8.75	0.	0.	121.57
1916	-8.9987	0.24941	0.	129.38
1917	-9.2499	-3.7504e-005	0.	134.54
1918	-9.	-1.75	0.	140.24
1919	-8.75	-2.	0.	122.68
1920	-8.9757	-2.2616	0.	129.3
1921	-9.2473	-2.003	0.	134.24
1922	-8.25	0.	0.	120.91
1923	-8.	-0.25	0.	137.6
1924	-7.9929	0.24392	0.	128.21
1925	-7.7355	-1.6018e-002	0.	130.74
1926	-8.25	-2.	0.	124.07
1927	-8.	-1.75	0.	138.53
1928	-7.9602	-2.1827	0.	137.54
1929	-7.7165	-1.9394	0.	129.99
1930	9.75	10.	0.	125.04
1931	10.	9.75	0.	124.93
1932	-9.75	10.	0.	124.87
1933	-10.	9.75	0.	125.15
1934	10.	-9.75	0.	134.32
1935	9.75	-10.	0.	132.48
1936	-10.	-9.75	0.	130.59
1937	-9.75	-10.	0.	129.52
1938	5.5087	7.5037	0.	111.42
1939	5.2501	7.3135	0.	113.01
1940	5.9212	7.4062	0.	113.02
1941	5.6767	7.2199	0.	117.32
1942	6.1016	7.1337	0.	109.21
1943	5.325	8.115	0.	110.53
1944	4.9848	8.0974	0.	123.19
1945	5.615	8.425	0.	106.2
1946	5.2756	8.4436	0.	120.64
1947	5.6263	8.7073	0.	110.34
1948	6.3562	7.8713	0.	133.42
1949	6.6683	7.6641	0.	130.39
1950	6.2337	8.2788	0.	130.18
1951	6.5571	8.0968	0.	130.85
1952	6.4121	8.5293	0.	126.13
1953	5.58	-0.97	0.	103.44
1954	5.182	-0.80893	0.	119.94
1955	5.501	-1.2517	0.	110.76
1956	5.985	-0.255	0.	106.92
1957	5.7093	-2.5559e-002	0.	103.72
1958	6.2522	-1.6208e-002	0.	105.5
1959	6.405	-0.965	0.	106.4
1960	6.4797	-1.2792	0.	109.42
1961	6.7802	-0.83677	0.	117.26
1962	8.03	-7.565	0.	119.83
1963	8.182	-7.9185	0.	120.66
1964	8.3585	-7.3915	0.	129.65
1965	7.325	-7.8275	0.	96.238
1966	7.3006	-8.1571	0.	102.24
1967	7.075	-7.4925	0.	103.08
1968	6.9616	-7.8092	0.	113.28
1969	6.7255	-7.4005	0.	118.39
1970	7.7375	-6.8713	0.	106.83
1971	7.9659	-6.6235	0.	103.4
1972	7.3225	-6.9187	0.	102.21
1973	7.5298	-6.6584	0.	108.52
1974	7.098	-6.6998	0.	98.263
1975	-1.5137	0.78	0.	109.18
1976	-1.3522	1.0608	0.	110.4
1977	-1.9162	0.64	0.	101.24
1978	-1.7534	0.91012	0.	113.33
1979	-2.1473	0.78987	0.	101.77
1980	-1.0338	0.36374	0.	141.56
1981	-0.73998	0.55074	0.	138.01
1982	-1.1163	-5.376e-002	0.	134.96
1983	-0.81003	0.10217	0.	135.07
1984	-0.88591	-0.36595	0.	127.55
1985	-2.04	1.3721e-002	0.	92.202
1986	-2.4026	2.063e-002	0.	112.74
1987	-1.72	-0.26377	0.	97.648
1988	-2.0862	-0.33053	0.	113.41
1989	-1.7076	-0.65522	0.	107.08
1990	0.19377	-6.1804	0.	123.6
1991	-0.40716	-6.8768	0.	98.914
1992	-0.8221	-6.0777	0.	104.49
1993	1.44	5.17	0.	125.68
1994	1.5707	4.9096	0.	126.15
1995	1.779	5.3888	0.	134.99
1996	0.66	5.09	0.	100.11
1997	0.60635	4.8028	0.	111.7
1998	0.27119	5.2037	0.	119.75
1999	0.98	5.81	0.	113.15
2000	1.2439	6.1053	0.	111.11
2001	0.71489	6.0707	0.	112.52
2002	-7.19	-3.81	0.	116.49
2003	-7.5737	-3.6312	0.	125.29
2004	-7.3162	-4.0743	0.	116.41
2005	-6.76	-3.19	0.	107.72
2006	-6.9958	-2.9699	0.	110.45
2007	-6.5041	-3.0011	0.	101.21
2008	-6.44	-3.87	0.	96.433
2009	-6.3946	-4.1455	0.	106.13
2010	-6.0924	-3.7523	0.	116.04
2011	-6.24	-1.94	0.	107.97
2012	-6.4799	-2.1691	0.	103.87
2013	-6.0116	-2.1396	0.	111.59
2014	-6.655	-1.37	0.	118.55
2015	-6.9539	-1.528	0.	126.18
2016	-6.7988	-1.1	0.	120.91
2017	-5.955	-1.3	0.	106.6
2018	-5.5939	-1.4291	0.	122.62
2019	-5.8443	-1.028	0.	115.66
2020	-7.485	7.77	0.	83.096
2021	-7.1038	7.6102	0.	103.19
2022	-7.3913	7.9951	0.	106.16
2023	-7.6145	8.24	0.	106.02
2024	-7.675	6.99	0.	104.93
2025	-7.4185	6.8101	0.	105.59
2026	-7.9233	6.687	0.	110.86
2027	-8.26	7.54	0.	141.07
2028	-8.4128	7.8269	0.	135.38
2029	-8.5224	7.3287	0.	141.88
2030	6.	-3.75	0.	139.31
2031	5.7512	-3.526	0.	134.36
2032	6.	-4.25	0.	140.76
2033	5.7511	-4.0188	0.	136.77
2034	5.7504	-4.516	0.	136.48
2035	6.75	-3.	0.	111.75
2036	6.4728	-2.7967	0.	108.02
2037	7.25	-3.	0.	114.37
2038	6.9621	-2.7225	0.	114.53
2039	7.4899	-2.7395	0.	114.24
2040	6.75	-5.	0.	111.6
2041	6.5062	-5.2572	0.	111.68
2042	7.25	-5.	0.	109.45
2043	7.0067	-5.2449	0.	110.15
2044	7.5051	-5.2382	0.	105.83
2045	8.	-3.75	0.	143.14
2046	8.2501	-3.4985	0.	138.91
2047	8.	-4.25	0.	141.78
2048	8.2502	-3.9981	0.	139.35
2049	8.2505	-4.4971	0.	136.82
2050	6.	5.25	0.	137.73
2051	5.7528	5.5118	0.	131.9
2052	6.	4.75	0.	138.55
2053	5.7509	5.0093	0.	133.79
2054	5.7522	4.5059	0.	132.85
2055	6.75	6.	0.	116.36
2056	6.4985	6.2127	0.	111.7
2057	7.25	6.	0.	119.56
2058	6.9759	6.2058	0.	119.91
2059	7.4533	6.2829	0.	118.9
2060	6.75	4.	0.	117.32
2061	6.5	3.7522	0.	116.03
2062	7.25	4.	0.	117.73
2063	7.	3.7528	0.	117.6
2064	7.5001	3.7523	0.	114.97
2065	8.	5.25	0.	147.86
2066	8.2486	5.5028	0.	142.39
2067	8.	4.75	0.	147.46
2068	8.2496	5.0013	0.	143.57
2069	8.2499	4.5007	0.	141.72
2070	3.7609	2.4933	0.	142.71
2071	4.75	3.	0.	123.9
2072	4.5083	3.2485	0.	121.16
2073	5.25	3.	0.	122.14
2074	5.0044	3.2508	0.	123.63
2075	5.502	3.2511	0.	119.96
2076	4.75	2.	0.	121.6
2077	4.5181	1.7656	0.	120.72
2078	5.25	2.	0.	117.61
2079	5.0171	1.7719	0.	119.83
2080	5.5133	1.7797	0.	111.99
2081	6.2491	2.5105	0.	127.65
2082	-1.	-2.75	0.	136.88
2083	-1.2402	-2.5043	0.	132.57
2084	-1.	-3.25	0.	137.2
2085	-1.2458	-3.0003	0.	133.98
2086	-1.2505	-3.4961	0.	133.35
2087	-0.51957	-1.739	0.	110.61
2088	-0.5306	-4.2617	0.	104.4
2089	0.	-2.75	0.	140.68
2090	0.25153	-2.5041	0.	137.35
2091	0.	-3.25	0.	139.75
2092	0.24884	-3.0071	0.	137.5
2093	0.24463	-3.5124	0.	135.73
2094	-3.2511	2.5011	0.	142.26
2095	-2.5005	3.2488	0.	111.49
2096	-2.5209	1.7466	0.	115.75
2097	-1.7662	2.5019	0.	132.33
2098	-3.	8.25	0.	147.94
2099	-3.2473	8.5029	0.	141.1
2100	-3.	7.75	0.	147.74
2101	-3.2465	8.0035	0.	142.55
2102	-3.2462	7.5037	0.	141.39
2103	-2.25	9.	0.	123.98
2104	-2.4999	9.25	0.	120.58
2105	-1.75	9.	0.	124.09
2106	-2.	9.25	0.	124.55
2107	-1.5001	9.25	0.	120.65
2108	-2.25	7.	0.	119.89
2109	-2.5049	6.752	0.	116.97
2110	-1.75	7.	0.	121.07
2111	-2.0088	6.7532	0.	119.84
2112	-1.5149	6.7556	0.	118.53
2113	-1.	8.25	0.	149.37
2114	-0.75471	8.5017	0.	141.89
2115	-1.	7.75	0.	150.07
2116	-0.75897	8.0034	0.	144.12
2117	-0.76613	7.5066	0.	144.06
2118	-7.	4.25	0.	142.38
2119	-7.2468	4.501	0.	136.34
2120	-7.	3.75	0.	142.5
2121	-7.2487	4.0004	0.	138.04
2122	-7.2494	3.5001	0.	136.85
2123	-6.25	5.	0.	118.73
2124	-6.4899	5.2641	0.	116.49
2125	-5.75	5.	0.	120.28
2126	-5.9926	5.2605	0.	120.51
2127	-5.4944	5.2572	0.	118.79
2128	-6.25	3.	0.	115.63
2129	-6.5002	2.7496	0.	112.99
2130	-5.75	3.	0.	116.71
2131	-6.0006	2.7519	0.	116.15
2132	-5.5006	2.7543	0.	114.96
2133	-5.	4.25	0.	149.16
2134	-4.75	4.5009	0.	143.66
2135	-5.	3.75	0.	148.54
2136	-4.75	4.0004	0.	144.82
2137	-4.75	3.5003	0.	142.94
2138	-8.	-6.75	0.	139.16
2139	-8.2498	-6.5013	0.	135.46
2140	-8.	-7.25	0.	139.1
2141	-8.2499	-7.0006	0.	136.4
2142	-8.25	-7.5003	0.	135.25
2143	-7.4897	-5.7578	0.	105.26
2144	-7.4997	-8.2501	0.	105.91
2145	-7.	-6.75	0.	136.02
2146	-6.7483	-6.5122	0.	131.63
2147	-7.	-7.25	0.	136.82
2148	-6.749	-7.0078	0.	133.41
2149	-6.749	-7.5048	0.	132.94
2150	-9.	-0.75	0.	145.84
2151	-9.25	-0.50008	0.	141.49
2152	-9.	-1.25	0.	146.02
2153	-9.25	-1.0003	0.	142.61
2154	-9.2497	-1.5009	0.	141.46
2155	-8.497	0.24812	0.	110.35
2156	-8.446	-2.2716	0.	114.69
2157	-8.	-0.75	0.	141.92
2158	-7.7399	-0.51057	0.	137.11
2159	-8.	-1.25	0.	140.5
2160	-7.7604	-0.99732	0.	137.91
2161	-7.7821	-1.4723	0.	136.1
2162	9.25	10.	0.	125.12
2163	9.5005	9.7509	0.	125.03
2164	8.75	10.	0.	125.21
2165	9.0012	9.7524	0.	125.04
2166	8.25	10.	0.	125.26
2167	8.5025	9.7553	0.	125.
2168	7.75	10.	0.	125.18
2169	8.0044	9.7605	0.	125.
2170	7.25	10.	0.	124.52
2171	7.5063	9.7663	0.	125.
2172	6.75	10.	0.	122.34
2173	7.0084	9.7687	0.	124.79
2174	6.25	10.	0.	120.04
2175	6.5181	9.7745	0.	122.83
2176	5.75	10.	0.	119.77
2177	6.023	9.7346	0.	118.18
2178	5.25	10.	0.	121.93
2179	5.4988	9.7806	0.	121.38
2180	4.75	10.	0.	125.45
2181	4.9952	9.7741	0.	124.91
2182	4.25	10.	0.	127.93
2183	4.4968	9.7584	0.	127.35
2184	3.75	10.	0.	128.84
2185	3.9983	9.7439	0.	128.2
2186	3.25	10.	0.	128.8
2187	3.4985	9.7403	0.	128.21
2188	2.75	10.	0.	128.35
2189	2.9974	9.7418	0.	127.85
2190	2.25	10.	0.	127.92
2191	2.4964	9.7438	0.	127.43
2192	1.75	10.	0.	127.75
2193	1.9961	9.7453	0.	127.09
2194	1.25	10.	0.	128.06
2195	1.4965	9.7467	0.	127.01
2196	0.75	10.	0.	128.91
2197	0.99703	9.7479	0.	127.35
2198	0.25	10.	0.	130.13
2199	0.49769	9.7492	0.	128.12
2200	-0.25	10.	0.	130.25
2201	-1.6074e-003	9.7501	0.	129.31
2202	-0.75	10.	0.	126.91
2203	-0.50091	9.7504	0.	130.32
2204	-1.25	10.	0.	121.68
2205	-1.0004	9.7501	0.	126.15
2206	-1.75	10.	0.	118.14
2207	-1.5001	9.75	0.	119.96
2208	-2.25	10.	0.	118.23
2209	-2.	9.75	0.	119.3
2210	-2.75	10.	0.	121.99
2211	-2.4999	9.75	0.	120.08
2212	-3.25	10.	0.	127.54
2213	-2.9995	9.7503	0.	126.47
2214	-3.75	10.	0.	131.24
2215	-3.4989	9.7511	0.	130.85
2216	-4.25	10.	0.	131.37
2217	-3.9982	9.7521	0.	130.1
2218	-4.75	10.	0.	130.15
2219	-4.4978	9.7531	0.	129.08
2220	-5.25	10.	0.	128.87
2221	-4.9978	9.754	0.	128.25
2222	-5.75	10.	0.	127.44
2223	-5.4986	9.7546	0.	127.45
2224	-6.25	10.	0.	125.54
2225	-6.0001	9.7545	0.	126.49
2226	-6.75	10.	0.	123.14
2227	-6.5011	9.7543	0.	125.01
2228	-7.25	10.	0.	120.87
2229	-7.0009	9.7546	0.	122.73
2230	-7.75	10.	0.	119.82
2231	-7.4997	9.7579	0.	120.63
2232	-8.25	10.	0.	120.49
2233	-7.9988	9.7637	0.	120.28
2234	-8.75	10.	0.	122.34
2235	-8.4993	9.7636	0.	122.4
2236	-9.25	10.	0.	124.09
2237	-8.999	9.755	0.	124.43
2238	-9.499	9.7506	0.	125.2
2239	10.	9.25	0.	124.81
2240	9.7505	9.5009	0.	124.93
2241	10.	8.75	0.	124.96
2242	9.7503	9.0014	0.	124.93
2243	10.	8.25	0.	125.66
2244	9.7491	8.5019	0.	125.33
2245	10.	7.75	0.	126.86
2246	9.7473	8.0025	0.	126.24
2247	10.	7.25	0.	128.09
2248	9.7457	7.5031	0.	127.53
2249	10.	6.75	0.	128.61
2250	9.7452	7.0034	0.	128.71
2251	10.	6.25	0.	128.02
2252	9.7459	6.5032	0.	129.1
2253	10.	5.75	0.	126.78
2254	9.7474	6.0026	0.	128.52
2255	10.	5.25	0.	125.97
2256	9.7487	5.5018	0.	127.77
2257	10.	4.75	0.	126.39
2258	9.7495	5.0011	0.	127.65
2259	10.	4.25	0.	128.11
2260	9.7498	4.5006	0.	128.48
2261	10.	3.75	0.	130.41
2262	9.75	4.0004	0.	130.02
2263	10.	3.25	0.	132.22
2264	9.75	3.5002	0.	131.55
2265	10.	2.75	0.	132.94
2266	9.7498	3.0001	0.	132.24
2267	10.	2.25	0.	132.68
2268	9.7492	2.4999	0.	132.08
2269	10.	1.75	0.	131.88
2270	9.7481	1.9996	0.	131.48
2271	10.	1.25	0.	130.82
2272	9.747	1.4995	0.	130.72
2273	10.	0.75	0.	129.68
2274	9.7467	0.99959	0.	129.86
2275	10.	0.25	0.	128.69
2276	9.7485	0.49992	0.	128.96
2277	10.	-0.25	0.	128.22
2278	9.7526	2.1598e-004	0.	128.28
2279	10.	-0.75	0.	128.6
2280	9.755	-0.49991	0.	128.18
2281	10.	-1.25	0.	129.73
2282	9.7549	-0.99999	0.	128.86
2283	10.	-1.75	0.	130.98
2284	9.7534	-1.4999	0.	130.08
2285	10.	-2.25	0.	131.48
2286	9.7518	-1.9997	0.	131.17
2287	10.	-2.75	0.	130.8
2288	9.7507	-2.4994	0.	131.39
2289	10.	-3.25	0.	129.53
2290	9.7502	-2.9992	0.	130.63
2291	10.	-3.75	0.	128.91
2292	9.7501	-3.4989	0.	129.83
2293	10.	-4.25	0.	129.9
2294	9.7503	-3.9986	0.	129.92
2295	10.	-4.75	0.	132.51
2296	9.7505	-4.4983	0.	131.28
2297	10.	-5.25	0.	135.54
2298	9.7506	-4.9985	0.	133.61
2299	10.	-5.75	0.	136.71
2300	9.7499	-5.5001	0.	135.84
2301	10.	-6.25	0.	134.29
2302	9.7473	-6.0033	0.	135.96
2303	10.	-6.75	0.	129.37
2304	9.7476	-6.5058	0.	132.56
2305	10.	-7.25	0.	125.95
2306	9.7638	-7.0061	0.	128.16
2307	10.	-7.75	0.	126.48
2308	9.7609	-7.5059	0.	127.11
2309	10.	-8.25	0.	129.43
2310	9.7537	-8.0035	0.	128.77
2311	10.	-8.75	0.	132.25
2312	9.7544	-8.5018	0.	130.87
2313	10.	-9.25	0.	133.81
2314	9.7537	-9.0011	0.	132.1
2315	9.7514	-9.5003	0.	132.46
2316	-10.	9.25	0.	125.66
2317	-9.749	9.5006	0.	125.48
2318	-10.	8.75	0.	125.35
2319	-9.7462	8.9995	0.	126.64
2320	-10.	8.25	0.	123.08
2321	-9.7447	8.4974	0.	126.34
2322	-10.	7.75	0.	120.34
2323	-9.7637	7.9963	0.	124.2
2324	-10.	7.25	0.	120.52
2325	-9.7823	7.4976	0.	122.58
2326	-10.	6.75	0.	125.25
2327	-9.7966	7.0042	0.	124.43
2328	-10.	6.25	0.	130.86
2329	-9.803	6.5186	0.	129.63
2330	-10.	5.75	0.	133.21
2331	-9.7283	6.0322	0.	133.34
2332	-10.	5.25	0.	132.01
2333	-9.7401	5.5097	0.	132.22
2334	-10.	4.75	0.	129.19
2335	-9.7452	5.0029	0.	129.86
2336	-10.	4.25	0.	126.83
2337	-9.7475	4.501	0.	127.67
2338	-10.	3.75	0.	125.71
2339	-9.7487	4.0004	0.	126.34
2340	-10.	3.25	0.	125.87
2341	-9.7494	3.5001	0.	126.03
2342	-10.	2.75	0.	127.05
2343	-9.7497	2.9999	0.	126.6
2344	-10.	2.25	0.	128.93
2345	-9.7494	2.4997	0.	127.76
2346	-10.	1.75	0.	131.43
2347	-9.7492	1.9995	0.	129.24
2348	-10.	1.25	0.	134.58
2349	-9.7491	1.4996	0.	131.06
2350	-10.	0.75	0.	137.23
2351	-9.7492	0.99971	0.	133.52
2352	-10.	0.25	0.	137.09
2353	-9.7495	0.49987	0.	136.37
2354	-10.	-0.25	0.	134.46
2355	-9.7499	-3.7504e-005	0.	135.63
2356	-10.	-0.75	0.	132.59
2357	-9.75	-0.50008	0.	135.22
2358	-10.	-1.25	0.	131.77
2359	-9.75	-1.0003	0.	135.64
2360	-10.	-1.75	0.	132.09
2361	-9.7497	-1.5009	0.	134.17
2362	-10.	-2.25	0.	133.25
2363	-9.7473	-2.003	0.	133.52
2364	-10.	-2.75	0.	132.26
2365	-9.7398	-2.5058	0.	133.33
2366	-10.	-3.25	0.	129.47
2367	-9.7384	-3.0075	0.	129.58
2368	-10.	-3.75	0.	127.73
2369	-9.741	-3.5075	0.	127.38
2370	-10.	-4.25	0.	128.19
2371	-9.7452	-4.0063	0.	127.39
2372	-10.	-4.75	0.	129.64
2373	-9.7481	-4.5047	0.	128.64
2374	-10.	-5.25	0.	130.52
2375	-9.7492	-5.0032	0.	129.94
2376	-10.	-5.75	0.	130.08
2377	-9.7496	-5.5019	0.	130.29
2378	-10.	-6.25	0.	128.68
2379	-9.7498	-6.0011	0.	129.52
2380	-10.	-6.75	0.	127.35
2381	-9.75	-6.5005	0.	128.39
2382	-10.	-7.25	0.	126.92
2383	-9.75	-7.0002	0.	127.67
2384	-10.	-7.75	0.	127.58
2385	-9.75	-7.5001	0.	127.7
2386	-10.	-8.25	0.	128.84
2387	-9.75	-8.	0.	128.37
2388	-10.	-8.75	0.	129.94
2389	-9.75	-8.5	0.	129.22
2390	-10.	-9.25	0.	130.47
2391	-9.75	-9.	0.	129.6
2392	-9.75	-9.5	0.	129.58
2393	-9.25	-10.	0.	127.2
2394	-9.5	-9.75	0.	128.51
2395	-8.75	-10.	0.	124.35
2396	-9.	-9.75	0.	126.16
2397	-8.25	-10.	0.	121.12
2398	-8.4999	-9.75	0.	122.93
2399	-7.75	-10.	0.	118.71
2400	-7.9999	-9.75	0.	119.39
2401	-7.25	-10.	0.	118.51
2402	-7.4998	-9.7501	0.	117.61
2403	-6.75	-10.	0.	120.5
2404	-6.9997	-9.7502	0.	118.96
2405	-6.25	-10.	0.	123.28
2406	-6.4993	-9.7504	0.	122.08
2407	-5.75	-10.	0.	125.51
2408	-5.9989	-9.7507	0.	124.84
2409	-5.25	-10.	0.	126.85
2410	-5.4984	-9.7506	0.	126.47
2411	-4.75	-10.	0.	127.54
2412	-4.9979	-9.7502	0.	127.32
2413	-4.25	-10.	0.	127.85
2414	-4.4975	-9.7496	0.	127.74
2415	-3.75	-10.	0.	127.92
2416	-3.9973	-9.7486	0.	127.92
2417	-3.25	-10.	0.	127.75
2418	-3.4973	-9.7478	0.	127.89
2419	-2.75	-10.	0.	127.29
2420	-2.9974	-9.7474	0.	127.62
2421	-2.25	-10.	0.	126.49
2422	-2.4976	-9.7476	0.	127.03
2423	-1.75	-10.	0.	125.41
2424	-1.9978	-9.7486	0.	126.06
2425	-1.25	-10.	0.	124.26
2426	-1.498	-9.7503	0.	124.82
2427	-0.75	-10.	0.	123.44
2428	-0.99813	-9.7525	0.	123.65
2429	-0.25	-10.	0.	123.34
2430	-0.49797	-9.7546	0.	123.07
2431	0.25	-10.	0.	124.04
2432	2.3785e-003	-9.7562	0.	123.42
2433	0.75	-10.	0.	125.28
2434	0.50243	-9.7567	0.	124.57
2435	1.25	-10.	0.	126.64
2436	1.0025	-9.7565	0.	126.04
2437	1.75	-10.	0.	127.76
2438	1.5024	-9.7558	0.	127.35
2439	2.25	-10.	0.	128.51
2440	2.0021	-9.7549	0.	128.27
2441	2.75	-10.	0.	128.92
2442	2.5018	-9.754	0.	128.8
2443	3.25	-10.	0.	129.07
2444	3.0015	-9.7534	0.	129.03
2445	3.75	-10.	0.	129.04
2446	3.5014	-9.753	0.	129.06
2447	4.25	-10.	0.	128.86
2448	4.0014	-9.753	0.	128.94
2449	4.75	-10.	0.	128.44
2450	4.5013	-9.7533	0.	128.67
2451	5.25	-10.	0.	127.58
2452	5.0007	-9.754	0.	128.14
2453	5.75	-10.	0.	125.89
2454	5.4995	-9.7548	0.	127.06
2455	6.25	-10.	0.	122.98
2456	5.9976	-9.754	0.	125.
2457	6.75	-10.	0.	119.12
2458	6.4957	-9.7472	0.	121.49
2459	7.25	-10.	0.	116.03
2460	6.9956	-9.7296	0.	117.13
2461	7.75	-10.	0.	115.92
2462	7.495	-9.7026	0.	114.44
2463	8.25	-10.	0.	119.29
2464	7.9986	-9.7289	0.	116.66
2465	8.75	-10.	0.	124.17
2466	8.502	-9.7449	0.	122.16
2467	9.25	-10.	0.	128.58
2468	9.0025	-9.7496	0.	126.95
2469	9.5014	-9.7503	0.	130.62
2470	2.9958	-3.316	0.	129.9
2471	3.24	-3.5728	0.	129.6
2472	2.7363	-3.5623	0.	129.85
2473	2.9827	-3.8148	0.	129.68
2474	-3.4776	-5.7567	0.	128.33
2475	-3.7407	-5.527	0.	128.89
2476	-3.2512	-5.4931	0.	128.75
2477	-3.4998	-5.2655	0.	129.06
2478	3.488	-3.825	0.	129.31
2479	3.4812	-4.316	0.	129.15
2480	3.7376	-4.0732	0.	128.91
2481	3.2308	-4.0671	0.	129.38
2482	-3.4456	-6.2453	0.	127.56
2483	-3.7177	-6.0139	0.	128.02
2484	-3.2049	-5.9873	0.	127.7
2485	2.9672	-5.7921	0.	128.8
2486	3.2202	-6.0371	0.	128.69
2487	2.9731	-6.2875	0.	128.36
2488	2.7179	-6.0441	0.	128.42
2489	2.711	-5.5497	0.	129.1
2490	3.2188	-5.5438	0.	129.11
2491	2.9651	-5.2995	0.	129.24
2492	3.2236	-4.5607	0.	129.36
2493	2.7142	-4.5607	0.	129.87
2494	2.9732	-4.3118	0.	129.6
2495	2.9669	-4.8069	0.	129.5
2496	3.0362	-2.3083	0.	130.33
2497	3.0449	-1.8113	0.	130.07
2498	3.3153	-2.0533	0.	130.6
2499	2.7928	-2.0474	0.	130.25
2500	3.0143	-2.8128	0.	130.2
2501	2.772	-2.5523	0.	130.24
2502	3.2758	-2.5725	0.	130.55
2503	3.2539	-3.0757	0.	130.06
2504	2.7523	-3.059	0.	130.01
2505	3.1302	-1.3166	0.	129.3
2506	3.2579	-1.5485	0.	129.81
2507	2.8045	-1.5485	0.	129.9
2508	-3.9938	-4.8116	0.	129.56
2509	-3.992	-5.2993	0.	129.29
2510	-4.2364	-5.0738	0.	129.81
2511	-3.7511	-5.0378	0.	129.46
2512	-3.7502	-4.5463	0.	129.43
2513	-4.2317	-4.5875	0.	129.77
2514	-3.993	-4.3201	0.	129.33
2515	-4.2359	-5.5565	0.	129.14
2516	-3.9808	-5.7841	0.	128.58
2517	3.4719	-6.2836	0.	128.6
2518	3.2248	-6.5341	0.	128.27
2519	3.4764	-6.7815	0.	128.2
2520	3.7208	-6.5331	0.	128.44
2521	2.0752	0.22827	0.	129.77
2522	2.3439	-1.7862e-002	0.	129.84
2523	2.0854	-0.27019	0.	129.71
2524	1.82	-2.0458e-002	0.	129.28
2525	3.4981	-3.3325	0.	129.77
2526	3.7436	-3.5861	0.	129.22
2527	2.5285	-2.2914	0.	130.16
2528	2.2667	-2.5394	0.	130.12
2529	2.51	-2.7985	0.	130.05
2530	2.9229	-1.046	0.	129.15
2531	2.5972	-1.2778	0.	129.74
2532	2.6275	-0.77236	0.	129.48
2533	2.3555	-1.02	0.	129.83
2534	3.7326	-4.5615	0.	129.02
2535	3.4764	-4.8065	0.	129.2
2536	3.4718	-5.7888	0.	129.
2537	3.7219	-6.0364	0.	129.05
2538	1.8139	0.47584	0.	129.24
2539	1.5587	0.22711	0.	128.75
2540	1.2999	0.47624	0.	127.96
2541	1.5572	0.722	0.	128.65
2542	3.9889	-4.3188	0.	128.77
2543	4.244	-4.0755	0.	128.48
2544	3.9932	-3.8343	0.	128.82
2545	-4.2186	-6.5196	0.	127.3
2546	-4.4739	-6.7736	0.	126.95
2547	-4.7301	-6.5379	0.	126.95
2548	-4.4789	-6.2902	0.	127.69
2549	-3.9593	-6.7533	0.	127.2
2550	-3.6945	-6.4989	0.	127.31
2551	-3.9667	-6.2676	0.	127.77
2552	1.9898	-3.2971	0.	130.
2553	2.0062	-2.7884	0.	130.02
2554	1.7469	-3.0385	0.	129.99
2555	2.2494	-3.0475	0.	129.95
2556	-3.0174	-5.2283	0.	129.11
2557	-2.9784	-5.7236	0.	128.12
2558	-2.7741	-5.4492	0.	128.93
2559	2.3272	0.48045	0.	130.47
2560	2.0659	0.72463	0.	130.03
2561	3.3456	-1.2992	0.	129.28
2562	3.1945	-0.7919	0.	128.7
2563	3.5051	-1.0026	0.	128.34
2564	2.9822	-6.7861	0.	128.12
2565	2.7283	-6.5408	0.	128.01
2566	-3.3232	-2.2459	0.	128.76
2567	-3.1173	-2.496	0.	127.76
2568	-3.4243	-2.7235	0.	128.52
2569	-3.5279	-2.4968	0.	128.99
2570	2.4553	-5.3062	0.	129.51
2571	2.2015	-5.5593	0.	129.28
2572	2.4616	-5.8017	0.	128.72
2573	2.1978	-5.0624	0.	130.28
2574	2.4567	-4.8098	0.	130.02
2575	2.7094	-5.056	0.	129.65
2576	2.2172	-4.0605	0.	130.32
2577	2.4648	-4.3114	0.	130.12
2578	2.4774	-3.8099	0.	130.01
2579	2.7238	-4.0625	0.	129.85
2580	3.5283	-1.7905	0.	130.33
2581	3.6922	-1.4587	0.	129.73
2582	3.5549	-2.3174	0.	130.81
2583	3.7993	-1.9361	0.	131.18
2584	3.815	-2.1361	0.	131.31
2585	3.5154	-2.8354	0.	130.41
2586	3.7713	-2.6167	0.	130.89
2587	3.7537	-3.1007	0.	130.
2588	2.5523	-1.7846	0.	130.08
2589	2.2853	-2.032	0.	130.3
2590	2.311	-1.5248	0.	130.2
2591	-3.5071	-4.277	0.	129.1
2592	-3.26	-4.0136	0.	128.76
2593	-3.7499	-4.0508	0.	129.
2594	-3.508	-3.7707	0.	128.7
2595	-3.2645	-4.509	0.	129.35
2596	-3.5075	-4.7725	0.	129.34
2597	3.7254	-5.5419	0.	129.39
2598	3.4734	-5.2971	0.	129.21
2599	-3.317	-1.7608	0.	129.73
2600	-3.5413	-2.0252	0.	129.48
2601	-3.0881	-2.0144	0.	128.4
2602	3.7698	5.4002	0.	126.98
2603	4.0151	5.1852	0.	126.02
2604	4.0121	5.6229	0.	127.2
2605	4.2309	5.5047	0.	125.99
2606	2.6173	-0.26788	0.	129.72
2607	2.8991	-0.51829	0.	129.03
2608	2.3588	-0.52021	0.	129.6
2609	2.8693	-8.2517e-003	0.	129.88
2610	2.5958	0.23431	0.	130.53
2611	-4.7705	0.79583	0.	127.41
2612	-5.0135	0.87445	0.	125.43
2613	-4.9351	0.44868	0.	126.48
2614	-5.2306	0.6234	0.	123.89
2615	-4.0298	-3.3341	0.	129.46
2616	-4.2548	-3.615	0.	129.
2617	-4.0012	-3.8271	0.	129.08
2618	-3.7592	-3.547	0.	128.77
2619	3.5565	5.6289	0.	128.23
2620	3.298	5.3794	0.	128.22
2621	3.5477	5.1532	0.	127.9
2622	-5.2695	1.0709	0.	123.1
2623	-5.5057	1.298	0.	120.49
2624	-5.4866	0.81987	0.	121.56
2625	-5.748	1.0342	0.	119.82
2626	-3.3137	-1.2438	0.	131.3
2627	-3.5972	-1.0175	0.	131.5
2628	-3.0757	-0.83487	0.	132.47
2629	-3.4288	-0.72342	0.	131.91
2630	-3.0261	-1.0477	0.	131.26
2631	3.071	5.1293	0.	129.57
2632	2.867	4.8625	0.	131.58
2633	3.0893	4.649	0.	131.76
2634	3.3206	4.9031	0.	129.26
2635	-2.2314	-3.0012	0.	126.5
2636	-2.4569	-2.757	0.	126.04
2637	-2.4906	-3.2476	0.	126.8
2638	-2.7292	-3.0011	0.	126.79
2639	-4.2146	-7.0074	0.	126.85
2640	-3.6948	-6.9912	0.	127.05
2641	-3.96	-7.2455	0.	127.02
2642	-4.7264	-7.0227	0.	126.42
2643	-4.4719	-7.2622	0.	126.66
2644	-5.2356	-7.0299	0.	125.92
2645	-4.9826	-6.7869	0.	126.42
2646	-4.9814	-7.2724	0.	126.15
2647	-5.7423	-7.0292	0.	125.95
2648	-5.4894	-7.2753	0.	125.78
2649	-5.4891	-6.79	0.	125.86
2650	-6.0009	1.7607	0.	116.14
2651	-6.2479	1.5035	0.	117.75
2652	-5.7528	1.5242	0.	118.62
2653	-5.9951	1.2604	0.	117.97
2654	1.9731	-3.8054	0.	130.32
2655	2.2333	-3.5549	0.	130.01
2656	1.7314	-3.5488	0.	130.15
2657	3.9632	-1.6044	0.	130.57
2658	4.1523	-1.3601	0.	130.35
2659	3.8517	-1.1622	0.	128.79
2660	1.9717	-6.3095	0.	127.65
2661	1.9541	-5.8131	0.	128.65
2662	1.7074	-6.0687	0.	127.73
2663	2.2143	-6.0555	0.	128.09
2664	3.2338	-7.0335	0.	128.05
2665	3.4861	-7.28	0.	127.99
2666	3.7273	-7.032	0.	127.9
2667	2.9922	-7.2838	0.	128.16
2668	2.7398	-7.0391	0.	128.06
2669	-3.4301	-6.7368	0.	127.16
2670	-3.1403	-6.4786	0.	126.97
2671	-3.1681	-6.9759	0.	127.04
2672	-3.4394	-7.234	0.	127.21
2673	-2.252	4.9994	0.	119.61
2674	-2.4957	4.7472	0.	119.87
2675	-2.5053	5.2501	0.	120.1
2676	-2.7502	4.9995	0.	121.98
2677	2.0692	-1.267	0.	130.29
2678	2.0868	-0.76788	0.	129.95
2679	1.8188	-1.0149	0.	130.42
2680	-3.0229	-4.7372	0.	129.43
2681	-2.7857	-4.9631	0.	129.73
2682	-3.266	-5.0007	0.	129.41
2683	-3.01	-3.7495	0.	128.22
2684	-2.7545	-3.4964	0.	127.53
2685	-2.9931	-3.2499	0.	127.52
2686	-3.2579	-3.5067	0.	128.15
2687	-2.8821	-2.2646	0.	127.4
2688	-2.6696	-2.5103	0.	126.42
2689	-2.942	-2.7545	0.	127.17
2690	-3.564	-1.533	0.	130.36
2691	-3.0749	-1.5295	0.	129.76
2692	1.8392	2.4453	0.	128.66
2693	2.3163	2.457	0.	130.34
2694	2.0861	2.6955	0.	129.85
2695	2.069	2.2056	0.	129.64
2696	-4.9828	-6.306	0.	127.26
2697	-5.236	-6.547	0.	126.36
2698	4.2408	-4.5607	0.	128.91
2699	3.9848	-4.8065	0.	129.13
2700	-4.4821	-5.8105	0.	128.72
2701	-4.7316	-6.0583	0.	128.
2702	-4.227	-6.0382	0.	128.15
2703	-4.4802	-5.331	0.	129.65
2704	-4.7281	-5.581	0.	129.28
2705	-4.4743	-4.8497	0.	130.02
2706	-4.7188	-5.1045	0.	130.28
2707	-4.4732	-4.3683	0.	129.62
2708	-4.7097	-4.6297	0.	130.39
2709	-4.7108	-4.1562	0.	129.47
2710	-4.4881	-3.8887	0.	129.1
2711	-4.2345	-4.1008	0.	129.17
2712	-3.9695	-0.82255	0.	130.67
2713	-3.8475	-1.3066	0.	130.55
2714	-4.1455	-1.1075	0.	130.46
2715	-3.6216	-2.7374	0.	129.08
2716	-3.7844	-3.0258	0.	129.25
2717	-3.249	-2.9819	0.	127.93
2718	-3.5138	-3.2387	0.	128.56
2719	-3.7459	-2.2761	0.	129.71
2720	-3.9369	-2.5586	0.	130.31
2721	-4.3115	-0.63787	0.	130.43
2722	-4.1444	-0.34705	0.	130.12
2723	-3.8011	-0.52847	0.	131.08
2724	0.77416	-1.3349e-002	0.	127.16
2725	1.0339	-0.26449	0.	128.52
2726	1.2975	-1.9141e-002	0.	128.36
2727	1.0388	0.22999	0.	127.56
2728	4.4673	-6.2906	0.	129.25
2729	4.2152	-6.537	0.	128.52
2730	4.7077	-6.5436	0.	128.41
2731	4.4656	-6.7893	0.	127.87
2732	-4.7904	1.0035	0.	127.16
2733	-4.5312	1.2038	0.	129.98
2734	-4.469	0.65567	0.	129.12
2735	-4.2771	0.95623	0.	130.96
2736	-2.2409	-5.8366	0.	127.66
2737	-2.361	-6.1774	0.	126.38
2738	-2.7034	-5.945	0.	127.33
2739	-2.4991	-5.6706	0.	128.14
2740	5.2004	-7.0525	0.	125.19
2741	4.977	-7.2947	0.	125.78
2742	4.9559	-6.7976	0.	127.22
2743	4.7138	-7.0433	0.	126.67
2744	1.0541	1.2164	0.	127.97
2745	0.79547	0.97681	0.	127.68
2746	1.0452	0.72404	0.	127.53
2747	1.3025	0.96981	0.	128.22
2748	0.80626	1.4701	0.	128.58
2749	1.0736	1.7035	0.	128.05
2750	1.3098	1.4614	0.	128.47
2751	-3.7882	-1.7973	0.	130.11
2752	-3.9926	-2.0803	0.	130.42
2753	-4.0519	-1.5934	0.	130.04
2754	-4.9472	-4.4176	0.	130.24
2755	-5.1735	-4.2102	0.	130.36
2756	-4.9626	-3.9498	0.	128.73
2757	4.231	-5.5428	0.	130.08
2758	3.9806	-5.2963	0.	129.49
2759	3.9755	-5.7896	0.	129.44
2760	-4.9776	-5.8287	0.	128.56
2761	-5.2314	-6.0683	0.	127.38
2762	-4.9666	-5.3544	0.	129.9
2763	-5.2211	-5.5951	0.	128.91
2764	-4.9541	-4.8845	0.	130.65
2765	-5.2044	-5.1273	0.	130.29
2766	-5.1836	-4.6664	0.	130.99
2767	2.3004	1.4728	0.	131.19
2768	2.0569	1.2203	0.	130.17
2769	2.0571	1.7138	0.	129.96
2770	1.806	1.4643	0.	129.46
2771	-2.629	-2.02	0.	126.63
2772	-2.846	-1.7831	0.	128.43
2773	-3.0174	-4.2455	0.	129.01
2774	-2.7658	-3.99	0.	128.58
2775	-2.7768	-4.4785	0.	129.55
2776	1.7979	-1.5163	0.	130.85
2777	2.044	-1.7722	0.	130.43
2778	0.24929	-1.0791e-003	0.	126.32
2779	0.50937	-0.25656	0.	127.21
2780	0.52106	0.23884	0.	126.47
2781	-2.0113	5.2533	0.	118.54
2782	-1.9916	4.7449	0.	119.51
2783	-1.7549	5.006	0.	119.9
2784	-2.8783	-6.7177	0.	126.86
2785	-2.5572	-6.453	0.	126.16
2786	-2.8996	-6.2205	0.	127.11
2787	-2.9201	-7.2191	0.	127.32
2788	-2.6494	-6.9645	0.	127.07
2789	1.9897	-6.805	0.	127.71
2790	1.7531	-7.0604	0.	128.24
2791	2.2451	-7.0474	0.	128.02
2792	2.0023	-7.2995	0.	128.44
2793	1.7335	-6.5648	0.	126.89
2794	2.2304	-6.5514	0.	127.63
2795	4.0096	-2.882	0.	130.48
2796	4.2526	-3.1218	0.	129.61
2797	3.9992	-3.3543	0.	129.45
2798	4.0314	-2.4354	0.	131.38
2799	4.2609	-2.6594	0.	130.97
2800	4.0311	-2.0223	0.	131.6
2801	4.2398	-1.8029	0.	131.86
2802	4.2754	-2.2233	0.	131.9
2803	3.151	-0.25866	0.	129.19
2804	3.1133	0.24988	0.	130.78
2805	3.3915	1.7138e-002	0.	129.44
2806	3.4407	-0.48696	0.	127.71
2807	1.3666	2.4326	0.	127.33
2808	1.6128	2.6843	0.	127.59
2809	1.5885	2.195	0.	128.12
2810	1.145	2.6706	0.	126.01
2811	0.90142	2.407	0.	126.99
2812	1.1091	2.1854	0.	127.38
2813	1.7132	-4.0586	0.	130.74
2814	1.9574	-4.3117	0.	130.76
2815	1.944	-5.3154	0.	130.04
2816	1.6868	-5.5716	0.	129.79
2817	1.6837	-5.0717	0.	131.18
2818	1.9462	-4.8151	0.	130.82
2819	-4.4875	-0.92281	0.	130.22
2820	-4.654	-0.46249	0.	129.85
2821	-4.8273	-0.7506	0.	130.59
2822	-3.9919	-5.2475e-002	0.	129.45
2823	-4.487	-0.17166	0.	129.54
2824	-4.3128	0.13867	0.	129.38
2825	-2.3449e-002	-0.24155	0.	126.19
2826	2.2603e-003	0.25489	0.	126.03
2827	-0.27974	2.8266e-002	0.	128.48
2828	-1.7757	5.5122	0.	118.62
2829	-2.2645	5.5041	0.	119.03
2830	-2.0219	5.7573	0.	117.37
2831	4.2711	4.9952	0.	124.67
2832	4.0367	4.7173	0.	125.95
2833	3.793	4.9382	0.	126.94
2834	-0.14279	2.7076	0.	127.31
2835	7.0003e-002	2.9129	0.	126.68
2836	-0.35666	2.9852	0.	127.01
2837	-0.15084	3.1187	0.	127.47
2838	-2.7927	-0.90769	0.	131.52
2839	-2.956	-0.49515	0.	133.06
2840	-2.5674	-0.61544	0.	128.82
2841	-5.7523	2.0145	0.	116.61
2842	-6.2508	2.004	0.	115.76
2843	-6.0016	2.2565	0.	114.53
2844	-1.9931	-3.2443	0.	126.94
2845	-1.7379	-3.0002	0.	128.66
2846	-1.9716	-2.7542	0.	125.83
2847	-0.36425	2.501	0.	126.73
2848	-5.5392e-002	2.2717	0.	128.82
2849	5.149e-002	2.4867	0.	127.56
2850	-0.24951	4.6277	0.	131.57
2851	-0.72492	4.58	0.	129.08
2852	-0.43747	4.381	0.	131.23
2853	-0.49376	4.8474	0.	129.56
2854	3.4376e-002	4.4341	0.	131.13
2855	0.18996	4.6869	0.	128.58
2856	8.1379e-003	4.8744	0.	137.07
2857	-5.9939	-6.7844	0.	125.84
2858	-5.9947	-7.2717	0.	126.11
2859	-6.2465	-7.0213	0.	128.16
2860	-3.1914	-7.4772	0.	127.49
2861	-2.6794	-7.4648	0.	127.97
2862	-2.9475	-7.7236	0.	127.81
2863	-3.7045	-7.4883	0.	127.17
2864	-3.4551	-7.7342	0.	127.47
2865	-4.2173	-7.5004	0.	126.83
2866	-3.9667	-7.7426	0.	127.14
2867	-4.7269	-7.5119	0.	126.39
2868	-4.475	-7.7548	0.	126.76
2869	-5.2352	-7.5178	0.	126.01
2870	-4.9824	-7.7627	0.	126.35
2871	-5.7418	-7.5178	0.	125.93
2872	-5.4891	-7.7652	0.	126.1
2873	-2.063	-5.5551	0.	128.95
2874	-1.8859	-5.3888	0.	129.82
2875	-2.0877	-5.1356	0.	130.17
2876	-2.3212	-5.389	0.	129.43
2877	-1.9017	-5.9445	0.	126.89
2878	-1.8449	-5.59	0.	129.02
2879	-6.4895	1.2356	0.	118.63
2880	-6.7444	1.4905	0.	119.8
2881	-6.4978	1.7467	0.	117.41
2882	-5.0214	1.3061	0.	125.26
2883	4.2442	5.7174	0.	126.82
2884	3.7989	5.8517	0.	128.44
2885	4.0706	6.0643	0.	129.35
2886	4.4869	5.3147	0.	124.65
2887	4.5188	5.8796	0.	127.2
2888	4.7318	5.579	0.	124.89
2889	3.6088	6.1114	0.	129.97
2890	3.3351	5.8655	0.	129.05
2891	3.4084	6.3653	0.	131.35
2892	3.8806	6.3241	0.	130.88
2893	3.6868	6.6097	0.	131.71
2894	-5.5042	1.7781	0.	119.13
2895	-5.2576	1.5332	0.	122.65
2896	4.7571	5.0337	0.	123.68
2897	4.5176	4.7689	0.	123.29
2898	0.5953	6.9651	0.	120.32
2899	0.13208	7.0161	0.	128.95
2900	0.32487	6.7791	0.	126.85
2901	0.38951	7.2479	0.	123.75
2902	0.91582	7.716	0.	119.63
2903	0.86025	7.1925	0.	117.54
2904	0.65446	7.4753	0.	120.96
2905	1.1337	7.4483	0.	119.07
2906	-3.6487	-0.2339	0.	130.42
2907	-3.309	-0.3837	0.	132.56
2908	-4.6527	-1.2062	0.	129.88
2909	-4.35	-1.3943	0.	129.94
2910	-4.0998	-2.8471	0.	130.48
2911	-4.3014	-3.1292	0.	130.2
2912	-4.1836	-2.3628	0.	131.02
2913	-4.3815	-2.6479	0.	132.6
2914	-4.5264	-3.4101	0.	129.75
2915	-4.7399	-3.6824	0.	128.37
2916	4.4928	-4.8044	0.	129.43
2917	4.7471	-4.5553	0.	129.15
2918	4.4958	-4.3173	0.	128.62
2919	-5.7407	-6.5453	0.	125.75
2920	-5.4847	-6.3094	0.	126.47
2921	-5.4135	-4.0184	0.	129.77
2922	-5.6114	-4.2522	0.	129.65
2923	-5.4099	-4.459	0.	131.11
2924	2.5516	2.217	0.	131.34
2925	2.5647	2.706	0.	131.74
2926	2.7979	2.4686	0.	131.61
2927	3.3503	0.51417	0.	131.66
2928	3.0815	0.74826	0.	132.89
2929	2.8399	0.49245	0.	131.43
2930	-2.4165	-2.2658	0.	125.65
2931	-2.1972	-2.5099	0.	125.36
2932	-2.5291	-1.1069	0.	128.47
2933	-2.7874	-1.3333	0.	129.74
2934	-2.309	-4.9306	0.	130.29
2935	-2.5424	-5.184	0.	129.55
2936	-2.5396	-4.7045	0.	129.84
2937	-2.5103	-3.7368	0.	127.9
2938	-2.2524	-3.4907	0.	127.24
2939	1.2579	-2.52	0.	130.69
2940	1.5172	-2.2714	0.	130.66
2941	1.7621	-2.529	0.	130.25
2942	1.5029	-2.7792	0.	130.23
2943	0.76915	-0.50771	0.	128.59
2944	1.0319	-0.76005	0.	130.25
2945	1.2961	-0.51416	0.	129.49
2946	-1.2207	4.5209	0.	124.94
2947	-0.99148	4.7971	0.	125.56
2948	-0.92781	4.3034	0.	127.85
2949	-2.4086	-7.2102	0.	127.71
2950	-2.4393	-7.7148	0.	128.37
2951	-2.1717	-7.4506	0.	129.35
2952	5.4746	-7.3036	0.	124.21
2953	5.5323	-7.7947	0.	125.06
2954	5.2512	-7.5458	0.	124.81
2955	5.7625	-7.5517	0.	123.79
2956	3.2445	-7.5302	0.	128.1
2957	3.4963	-7.7764	0.	128.05
2958	3.7407	-7.5295	0.	127.71
2959	3.0002	-7.7788	0.	128.37
2960	2.7494	-7.5345	0.	128.35
2961	2.7872	5.3311	0.	129.39
2962	3.0766	5.616	0.	129.03
2963	3.0843	7.4174	0.	129.11
2964	2.876	7.685	0.	127.75
2965	2.8063	7.167	0.	130.69
2966	2.5969	7.4302	0.	128.03
2967	4.4289	-1.5586	0.	131.64
2968	4.6237	-1.3358	0.	130.35
2969	4.374	-1.0972	0.	128.47
2970	7.5531	-1.2181	0.	121.71
2971	7.5334	-1.7179	0.	121.38
2972	7.7922	-1.4764	0.	123.42
2973	7.3259	-1.457	0.	121.25
2974	-5.7093	7.5559	0.	121.45
2975	-5.466	7.7947	0.	122.34
2976	-5.4572	7.2979	0.	121.61
2977	-5.213	7.541	0.	122.15
2978	2.6375	4.6076	0.	134.08
2979	2.5832	5.0642	0.	131.38
2980	2.4385	4.8345	0.	133.81
2981	1.8598	2.9344	0.	128.78
2982	2.3345	2.9446	0.	131.25
2983	2.1035	3.1824	0.	131.24
2984	0.49426	2.9045	0.	125.8
2985	0.26429	2.6919	0.	126.93
2986	0.26821	3.1321	0.	126.36
2987	1.4692	-6.324	0.	126.97
2988	1.1986	-6.0876	0.	126.92
2989	1.4401	-5.8272	0.	128.87
2990	-4.8078	-1.8045e-003	0.	128.35
2991	-4.6335	0.30853	0.	128.18
2992	-5.1306	0.16649	0.	125.89
2993	-5.7124	0.53687	0.	120.33
2994	-5.4262	0.34121	0.	123.32
2995	-6.2367	0.9926	0.	118.83
2996	-5.9738	0.75122	0.	118.59
2997	-6.4698	0.70673	0.	118.72
2998	-6.7314	0.97247	0.	120.58
2999	-6.7086	0.44054	0.	120.51
3000	-6.2068	0.46535	0.	118.48
3001	-6.4358	0.14289	0.	116.54
3002	1.4328	-4.8233	0.	131.74
3003	1.1637	-5.0852	0.	132.23
3004	1.4265	-5.3279	0.	130.92
3005	0.93433	2.907	0.	125.21
3006	0.70702	3.141	0.	124.12
3007	0.6908	2.6434	0.	126.2
3008	1.3912	2.9223	0.	126.26
3009	1.1615	3.1634	0.	124.1
3010	1.6289	3.1753	0.	127.28
3011	-0.33886	3.9311	0.	130.38
3012	-0.64035	4.1044	0.	130.02
3013	-0.15359	4.1873	0.	130.81
3014	-0.5063	3.6435	0.	129.23
3015	-4.8807e-002	3.751	0.	129.24
3016	-0.2226	3.5165	0.	128.76
3017	2.6164	4.1464	0.	135.58
3018	2.5969	3.6739	0.	135.21
3019	2.3655	3.9094	0.	135.67
3020	2.8435	3.922	0.	135.82
3021	2.393	4.3788	0.	135.24
3022	2.8598	4.3942	0.	134.27
3023	-5.9719	7.8069	0.	123.46
3024	-6.2063	7.5772	0.	126.15
3025	-5.9546	7.315	0.	122.02
3026	-5.2181	6.5346	0.	124.87
3027	-5.4698	6.2847	0.	123.38
3028	-5.7089	6.55	0.	123.73
3029	-5.4599	6.7941	0.	122.55
3030	3.6813	-0.21117	0.	127.95
3031	3.6286	0.28142	0.	130.32
3032	3.9104	5.575e-002	0.	128.71
3033	3.9773	-0.43159	0.	126.87
3034	3.7513	-0.69764	0.	127.35
3035	4.83	1.0746	0.	120.62
3036	5.3312	1.0997	0.	114.47
3037	5.1122	0.85889	0.	118.64
3038	5.058	1.3152	0.	117.42
3039	4.3251	1.0512	0.	127.01
3040	4.6019	0.82867	0.	126.69
3041	4.5572	1.2969	0.	122.28
3042	4.484	-2.0039	0.	132.15
3043	4.7	-1.7742	0.	131.42
3044	4.5049	-2.4473	0.	131.48
3045	4.742	-2.2154	0.	131.8
3046	4.504	-2.8991	0.	130.1
3047	4.7498	-2.6639	0.	130.32
3048	4.7509	-3.1222	0.	128.84
3049	4.5003	-3.3625	0.	128.86
3050	2.9345	6.3794	0.	132.85
3051	3.1346	6.1194	0.	130.42
3052	3.2102	6.6326	0.	131.61
3053	1.4969	-6.8202	0.	127.42
3054	1.2656	-7.0781	0.	129.3
3055	1.5112	-7.3135	0.	129.07
3056	1.2422	-6.5836	0.	126.67
3057	-2.3282	-6.6998	0.	126.37
3058	-2.0217	-6.2853	0.	125.62
3059	-2.0566	-6.6502	0.	126.34
3060	-2.1228	-6.9121	0.	127.13
3061	-1.4434	4.2141	0.	124.62
3062	-1.7255	4.4911	0.	121.48
3063	-1.4888	4.7521	0.	121.87
3064	-0.65236	3.3155	0.	127.91
3065	-0.57812	2.7785	0.	126.42
3066	-0.82376	3.025	0.	126.58
3067	-0.36867	3.1885	0.	127.45
3068	-0.80779	3.8168	0.	128.86
3069	-0.94215	3.5258	0.	128.67
3070	1.1855	-4.5728	0.	131.94
3071	1.451	-4.3137	0.	131.36
3072	1.6953	-4.5668	0.	131.39
3073	0.23663	-0.49704	0.	127.1
3074	0.50987	-0.75295	0.	129.09
3075	-1.2139e-002	-0.74249	0.	126.33
3076	-0.3234	-0.47984	0.	125.97
3077	1.2826	-1.5115	0.	131.87
3078	1.5325	-1.7665	0.	131.09
3079	1.5475	-1.2642	0.	130.98
3080	-2.2684	-3.9771	0.	128.63
3081	-2.5252	-4.223	0.	129.12
3082	-2.377	-1.779	0.	125.95
3083	-2.3358	-1.3156	0.	126.48
3084	-2.594	-1.542	0.	127.75
3085	-2.1272	-1.5156	0.	123.91
3086	-2.1654	-2.0152	0.	124.8
3087	7.7267	1.5207	0.	124.79
3088	7.2284	1.5504	0.	122.71
3089	7.4557	1.2879	0.	125.26
3090	7.4842	1.7797	0.	122.18
3091	3.5876	0.7722	0.	132.8
3092	3.8606	0.5434	0.	131.28
3093	2.5476	1.7246	0.	131.86
3094	2.7923	1.9768	0.	132.67
3095	2.3043	1.9655	0.	130.64
3096	2.7969	1.4841	0.	133.61
3097	2.558	1.2294	0.	132.12
3098	2.5806	3.1923	0.	133.45
3099	2.3496	3.4302	0.	133.43
3100	2.8278	3.4423	0.	135.45
3101	2.8121	2.9567	0.	133.24
3102	3.8029	4.4579	0.	128.22
3103	4.2832	4.4909	0.	124.58
3104	4.0409	4.2274	0.	127.01
3105	3.5613	4.1992	0.	131.84
3106	3.3279	4.4248	0.	131.69
3107	3.5593	4.6789	0.	129.19
3108	-5.4588	-5.368	0.	129.31
3109	-5.7189	-5.5948	0.	127.44
3110	-5.4749	-5.8347	0.	127.73
3111	-5.6939	-5.1328	0.	129.06
3112	-5.4338	-4.9092	0.	130.64
3113	-4.7274	6.5236	0.	128.16
3114	-4.236	6.5156	0.	131.69
3115	-4.4855	6.2663	0.	131.74
3116	-4.4795	6.7706	0.	128.59
3117	-4.978	6.2739	0.	127.31
3118	-4.97	6.7807	0.	125.13
3119	-3.2542	5.5036	0.	127.61
3120	-3.0067	5.7536	0.	125.54
3121	-2.7581	5.5023	0.	122.51
3122	-3.003	5.2517	0.	124.37
3123	-3.5017	5.2534	0.	129.5
3124	-3.7507	5.0031	0.	131.09
3125	-3.5002	4.7518	0.	128.45
3126	-3.2505	5.0015	0.	126.28
3127	-3.7502	5.5053	0.	132.49
3128	-3.5015	5.7552	0.	131.36
3129	4.4871	-5.2966	0.	130.23
3130	4.7434	-5.048	0.	130.56
3131	4.2368	-5.0502	0.	129.65
3132	4.7368	-5.5451	0.	131.37
3133	4.4784	-5.7927	0.	130.25
3134	-5.6572	-3.8209	0.	132.5
3135	-5.5032	-3.5819	0.	124.65
3136	-5.2026	-3.758	0.	128.17
3137	-4.2563	-1.8764	0.	130.36
3138	-4.4456	-2.1623	0.	132.21
3139	-3.8281	0.24563	0.	129.65
3140	-4.1489	0.43677	0.	129.59
3141	-3.675	0.53443	0.	129.64
3142	-3.9571	0.73733	0.	131.42
3143	-3.5173	6.8448e-002	0.	129.71
3144	0.54765	1.2305	0.	128.29
3145	0.29198	0.99138	0.	128.65
3146	0.53595	0.73494	0.	127.02
3147	0.29664	1.4934	0.	130.41
3148	0.56661	1.7174	0.	128.78
3149	5.4365	-6.8083	0.	125.96
3150	5.6473	-6.5746	0.	127.73
3151	5.4573	-6.3094	0.	129.23
3152	5.1919	-6.5534	0.	127.99
3153	5.678	-7.0596	0.	124.14
3154	3.3661	7.6663	0.	128.26
3155	3.5679	7.3942	0.	129.8
3156	3.2873	7.1483	0.	130.5
3157	3.1578	7.9339	0.	126.88
3158	3.6428	7.906	0.	127.5
3159	3.4417	8.1792	0.	126.98
3160	2.6599	7.9458	0.	125.93
3161	2.9341	8.1976	0.	126.25
3162	2.1635	7.9519	0.	124.08
3163	2.4314	8.2055	0.	125.02
3164	2.3809	7.6911	0.	126.24
3165	1.6709	7.9575	0.	121.84
3166	1.9352	8.2114	0.	123.17
3167	1.8881	7.694	0.	123.19
3168	1.1818	7.9675	0.	120.58
3169	1.4425	8.2179	0.	121.45
3170	1.3996	7.6998	0.	120.03
3171	0.69486	7.9835	0.	121.7
3172	0.95222	8.2292	0.	121.18
3173	0.46304	8.2438	0.	123.24
3174	0.4335	7.7428	0.	123.03
3175	0.20855	7.999	0.	125.71
3176	5.0019	5.298	0.	123.93
3177	5.0074	4.7776	0.	122.86
3178	5.2525	5.0278	0.	126.26
3179	-7.6851	6.0095	0.	118.04
3180	-7.4503	5.7763	0.	123.31
3181	-7.4294	6.294	0.	117.8
3182	-7.1945	6.0527	0.	122.5
3183	4.8948	-1.5514	0.	130.11
3184	5.0679	-1.3173	0.	125.98
3185	4.8889	-1.1112	0.	133.34
3186	7.8024	-0.9814	0.	122.09
3187	7.5837	-0.7273	0.	121.96
3188	7.2879	-0.95866	0.	125.57
3189	5.6284	0.88985	0.	109.97
3190	5.9636	0.69908	0.	108.53
3191	5.4094	0.649	0.	114.16
3192	5.6924	0.43621	0.	105.42
3193	2.3743	5.0638	0.	132.36
3194	2.5685	5.5717	0.	130.68
3195	2.2652	5.3306	0.	137.33
3196	0.7683	6.6426	0.	115.16
3197	1.0676	6.9179	0.	116.33
3198	-1.589	-6.3091	0.	121.87
3199	-1.6041	-5.9633	0.	128.55
3200	-1.2903	5.5282	0.	120.92
3201	-1.5361	5.7672	0.	119.
3202	-1.5193	5.2648	0.	119.99
3203	-3.9849	7.2648	0.	129.83
3204	-3.7383	7.5113	0.	132.25
3205	-4.2301	7.5194	0.	127.03
3206	-3.986	7.7643	0.	128.58
3207	0.75459	-2.5122	0.	132.34
3208	1.001	-2.7709	0.	130.95
3209	1.011	-2.2639	0.	131.51
3210	-1.7515	-3.4905	0.	128.4
3211	-2.0105	-3.731	0.	127.97
3212	-2.0852	-1.0006	0.	124.15
3213	-2.3038	-0.81466	0.	125.77
3214	5.8097	1.1358	0.	111.85
3215	5.5536	1.3361	0.	111.37
3216	-5.9894	-6.3022	0.	125.57
3217	-6.2447	-6.5332	0.	126.7
3218	-5.5019	2.2643	0.	116.7
3219	-5.2529	2.0172	0.	121.98
3220	-4.0002	4.2514	0.	133.32
3221	-4.0002	4.7528	0.	133.02
3222	-4.2502	4.5018	0.	135.54
3223	-3.7497	4.5015	0.	130.39
3224	-6.4535	6.3254	0.	129.05
3225	-6.4707	5.7942	0.	121.47
3226	-6.2157	6.0509	0.	123.55
3227	-6.7059	6.0655	0.	124.69
3228	5.2502	-4.5416	0.	130.73
3229	4.9978	-4.7989	0.	130.27
3230	5.	-4.3074	0.	129.1
3231	3.0058e-002	0.75124	0.	127.8
3232	-0.23426	0.5158	0.	129.45
3233	0.27403	0.49481	0.	126.19
3234	7.2816	-5.9621	0.	106.33
3235	6.7953	-5.9956	0.	113.3
3236	7.0269	-5.7321	0.	108.13
3237	7.0607	-6.2158	0.	107.02
3238	4.3453	6.2266	0.	129.72
3239	4.1579	6.5505	0.	132.75
3240	4.6159	6.424	0.	130.62
3241	4.8123	6.1178	0.	127.4
3242	-4.7622	1.5064	0.	128.08
3243	-5.0062	1.7723	0.	125.49
3244	-4.5099	1.7404	0.	131.72
3245	-4.2667	1.4878	0.	133.24
3246	-7.2414	1.4857	0.	122.54
3247	-6.9954	1.7407	0.	121.48
3248	-6.9863	1.2274	0.	121.75
3249	-7.9969	3.7509	0.	127.04
3250	-7.9926	4.2504	0.	126.3
3251	-8.2453	4.0003	0.	126.31
3252	-7.7464	4.0008	0.	130.01
3253	-7.9989	3.251	0.	127.49
3254	-8.248	3.5007	0.	126.62
3255	-7.7486	3.5006	0.	129.41
3256	-7.7409	1.4873	0.	123.68
3257	-7.4865	1.2307	0.	124.05
3258	-7.4933	1.7391	0.	124.73
3259	-8.2428	1.4917	0.	123.5
3260	-7.9937	1.7416	0.	124.93
3261	-7.9895	1.2382	0.	122.72
3262	7.7649	-5.9451	0.	108.82
3263	7.5165	-5.7131	0.	104.89
3264	7.5262	-6.1858	0.	105.07
3265	-6.2481	8.0535	0.	128.99
3266	-6.4825	7.8237	0.	131.54
3267	-6.8079	8.0466	0.	126.86
3268	-6.5175	8.2938	0.	130.93
3269	-5.7287	8.0457	0.	124.35
3270	-5.9895	8.2919	0.	126.5
3271	-5.2256	8.0356	0.	122.97
3272	-5.4802	8.2857	0.	123.92
3273	-4.729	8.0259	0.	123.66
3274	-4.9804	8.2772	0.	123.31
3275	-4.9726	7.7819	0.	122.78
3276	-4.4787	7.7726	0.	124.87
3277	-4.4844	8.2692	0.	124.51
3278	-4.2346	8.0175	0.	126.41
3279	-5.9944	-7.7631	0.	126.36
3280	-6.2462	-7.5131	0.	127.48
3281	5.853	-8.0532	0.	126.41
3282	6.2675	-8.2967	0.	126.24
3283	6.0605	-8.3111	0.	126.83
3284	6.4354	-8.0126	0.	124.47
3285	6.0832	-7.8102	0.	125.12
3286	5.2889	-8.036	0.	126.08
3287	5.5356	-8.2838	0.	126.53
3288	4.7621	-8.0301	0.	126.61
3289	5.0164	-8.2775	0.	126.76
3290	5.0078	-7.7871	0.	125.82
3291	4.2527	-8.0262	0.	127.32
3292	4.5066	-8.2739	0.	127.33
3293	4.498	-7.7814	0.	126.82
3294	3.7506	-8.0244	0.	127.9
3295	4.0029	-8.2715	0.	127.88
3296	3.995	-7.7774	0.	127.56
3297	3.252	-8.0251	0.	128.32
3298	3.5027	-8.2711	0.	128.31
3299	2.7552	-8.0286	0.	128.65
3300	3.0046	-8.273	0.	128.62
3301	2.2593	-8.0349	0.	128.95
3302	2.5073	-8.2777	0.	128.84
3303	2.5044	-7.7843	0.	128.63
3304	1.7641	-8.0432	0.	129.28
3305	2.0112	-8.2839	0.	129.01
3306	2.0091	-7.7925	0.	128.99
3307	1.2693	-8.0526	0.	129.19
3308	1.515	-8.2916	0.	128.99
3309	1.5154	-7.8033	0.	129.56
3310	0.77423	-8.0607	0.	127.33
3311	1.019	-8.2994	0.	128.12
3312	1.0236	-7.8154	0.	130.35
3313	0.2779	-8.0631	0.	122.9
3314	0.53173	-7.8262	0.	127.65
3315	0.52197	-8.3042	0.	125.22
3316	-0.2198	-8.0551	0.	119.
3317	3.7246e-002	-7.827	0.	119.
3318	2.3785e-002	-8.3018	0.	120.9
3319	-0.71767	-8.0368	0.	120.08
3320	-0.45924	-7.8098	0.	114.99
3321	-0.4754	-8.2896	0.	119.39
3322	-1.2145	-8.0119	0.	124.55
3323	-0.95424	-7.7822	0.	122.3
3324	-0.97381	-8.2712	0.	122.42
3325	-1.71	-7.9856	0.	127.74
3326	-1.471	-8.2492	0.	126.2
3327	-1.4474	-7.7469	0.	128.79
3328	-2.2065	-7.972	0.	128.52
3329	-1.9672	-8.2298	0.	127.94
3330	-1.939	-7.7078	0.	129.5
3331	-2.7074	-7.9735	0.	128.21
3332	-2.4656	-8.2263	0.	128.18
3333	-3.2112	-7.9806	0.	127.79
3334	-2.9675	-8.2295	0.	127.96
3335	-3.7173	-7.9885	0.	127.44
3336	-3.4705	-8.2361	0.	127.7
3337	-4.2244	-7.9971	0.	127.08
3338	-3.9761	-8.2423	0.	127.41
3339	-4.7305	-8.0056	0.	126.73
3340	-4.4806	-8.251	0.	127.09
3341	-5.2364	-8.0102	0.	126.45
3342	-4.9854	-8.2567	0.	126.8
3343	-5.7417	-8.0105	0.	126.53
3344	-5.4902	-8.2588	0.	126.62
3345	8.2188	8.0468	0.	123.48
3346	7.9804	8.3085	0.	123.1
3347	7.6697	8.1166	0.	122.76
3348	7.9533	7.8179	0.	122.76
3349	7.2702	-1.9457	0.	118.74
3350	7.7646	-1.9786	0.	122.81
3351	7.4979	-2.2244	0.	117.68
3352	7.9952	2.259	0.	123.36
3353	7.7483	2.5122	0.	120.56
3354	7.9991	2.7567	0.	123.17
3355	8.248	2.5056	0.	125.05
3356	7.9846	1.7587	0.	124.85
3357	8.2421	2.0061	0.	125.36
3358	7.7421	2.0177	0.	122.23
3359	7.9641	1.2497	0.	126.96
3360	8.2291	1.5027	0.	126.66
3361	8.2096	0.99128	0.	128.11
3362	7.9325	0.71689	0.	128.64
3363	7.693	1.017	0.	127.41
3364	8.0804	-0.27308	0.	124.25
3365	8.3076	-2.3231e-002	0.	125.99
3366	7.9998	0.20215	0.	127.43
3367	7.8819	-2.4662e-002	0.	125.93
3368	8.0622	-0.75059	0.	123.02
3369	7.8435	-0.49649	0.	122.96
3370	8.3098	-0.50744	0.	124.
3371	8.0416	-1.2397	0.	123.78
3372	8.2923	-0.9959	0.	124.29
3373	8.0234	-1.7371	0.	124.87
3374	8.2789	-1.4918	0.	125.76
3375	7.2484	2.5201	0.	116.84
3376	7.4992	2.763	0.	117.56
3377	7.4953	2.2709	0.	119.43
3378	4.768	4.5128	0.	122.46
3379	4.5247	4.253	0.	122.67
3380	2.194	4.6056	0.	134.96
3381	2.0188	4.8616	0.	133.19
3382	2.1181	3.6657	0.	133.9
3383	1.8726	3.4233	0.	129.74
3384	6.1449	0.94508	0.	110.58
3385	6.3608	0.94432	0.	113.27
3386	6.537	0.68633	0.	115.65
3387	6.2477	0.4761	0.	106.32
3388	-1.0306	5.2918	0.	123.43
3389	-0.76032	5.0645	0.	126.08
3390	-1.2596	5.0284	0.	122.5
3391	0.97153	-6.3473	0.	126.55
3392	0.91874	-5.8505	0.	128.57
3393	0.69102	-6.1201	0.	130.62
3394	-0.69581	-7.5552	0.	117.16
3395	-0.20219	-7.5817	0.	114.78
3396	-0.43692	-7.3377	0.	106.39
3397	-7.9671e-002	7.271	0.	131.46
3398	-0.29599	7.513	0.	133.86
3399	0.17776	7.5028	0.	126.28
3400	-4.7194e-002	7.759	0.	128.96
3401	-0.81839	2.4921	0.	124.46
3402	-0.55259	2.246	0.	127.28
3403	-1.064	2.7385	0.	124.6
3404	-1.0665	2.2071	0.	122.34
3405	-1.2938	2.4929	0.	124.5
3406	-2.744	3.9984	0.	120.22
3407	-2.2316	3.9905	0.	119.07
3408	-2.496	3.7473	0.	114.97
3409	-2.4908	4.2463	0.	118.7
3410	-1.1505	3.9966	0.	127.55
3411	0.97145	-3.7977	0.	130.64
3412	0.73564	-3.5319	0.	131.25
3413	0.98891	-3.2824	0.	130.57
3414	1.2315	-3.5426	0.	130.22
3415	-0.21548	-1.0059	0.	125.17
3416	-0.48916	-1.2475	0.	119.13
3417	-0.6414	-0.93516	0.	127.05
3418	-0.52674	-0.74321	0.	124.87
3419	1.0281	-1.2587	0.	131.87
3420	0.77259	-1.0053	0.	130.75
3421	1.2929	-1.0114	0.	130.99
3422	-1.6332	-5.1797	0.	129.69
3423	-1.4394	-5.4161	0.	127.99
3424	-1.5473	-5.6088	0.	130.7
3425	-2.0569	-4.684	0.	130.43
3426	-1.8351	-4.9265	0.	130.05
3427	6.7011	1.1277	0.	120.14
3428	6.956	1.3324	0.	122.29
3429	6.8772	0.86969	0.	122.6
3430	7.1832	1.0699	0.	124.83
3431	3.0563	1.2432	0.	134.48
3432	3.3189	1.0063	0.	134.03
3433	2.8175	0.98844	0.	133.
3434	3.0454	2.7193	0.	133.1
3435	3.2806	2.4806	0.	134.13
3436	3.0386	2.2284	0.	132.93
3437	-3.7496	4.0009	0.	131.8
3438	-4.25	4.0009	0.	137.08
3439	-4.	3.7511	0.	134.33
3440	-5.2298	6.0241	0.	125.85
3441	-5.4827	5.7715	0.	121.4
3442	-5.7232	6.0351	0.	122.79
3443	-3.9966	5.7579	0.	134.7
3444	-3.9925	6.2609	0.	134.01
3445	-3.7479	6.0078	0.	133.57
3446	-4.242	6.0116	0.	134.07
3447	-6.7488	1.9969	0.	119.09
3448	-6.5	2.2489	0.	114.99
3449	-8.2394	4.4993	0.	125.41
3450	-7.7416	4.5011	0.	128.26
3451	-7.9836	4.7497	0.	125.17
3452	-7.9444	5.7399	0.	119.31
3453	-8.1798	5.9703	0.	120.62
3454	-7.9224	6.2226	0.	113.84
3455	5.0252	5.8172	0.	125.09
3456	5.2531	5.5412	0.	125.61
3457	-8.2336	-4.5581	0.	125.84
3458	-7.9897	-4.3464	0.	124.76
3459	-7.9778	-4.8028	0.	123.91
3460	-7.7158	-4.5622	0.	124.06
3461	-2.8374	-0.20333	0.	138.25
3462	-3.1777	-8.1355e-002	0.	131.83
3463	3.837e-002	1.776	0.	130.92
3464	0.14286	2.2586	0.	128.78
3465	-0.24373	2.0168	0.	129.34
3466	0.30834	2.0001	0.	129.3
3467	3.7692	7.1229	0.	131.28
3468	3.9641	6.8361	0.	133.58
3469	3.4886	6.877	0.	131.98
3470	-1.0568	5.785	0.	123.86
3471	-0.81016	5.5521	0.	125.46
3472	6.5313	-5.7655	0.	115.56
3473	6.5973	-6.2588	0.	121.92
3474	6.2882	-6.0638	0.	123.14
3475	5.8888	-6.8259	0.	125.88
3476	6.056	-6.5785	0.	130.25
3477	5.9455	-6.3504	0.	127.84
3478	6.1251	-7.0423	0.	120.22
3479	5.9659	-7.3078	0.	123.63
3480	3.8446	7.6339	0.	129.04
3481	3.9624	8.1419	0.	128.29
3482	4.1275	7.9114	0.	126.37
3483	4.0516	7.3746	0.	132.44
3484	4.4285	6.7479	0.	133.6
3485	4.2465	7.0878	0.	134.67
3486	4.8868	6.6358	0.	129.88
3487	4.7017	6.9426	0.	136.62
3488	7.7002	7.0869	0.	123.58
3489	7.428	6.8394	0.	121.24
3490	7.2135	7.1598	0.	121.4
3491	7.4389	7.3732	0.	121.3
3492	4.0973e-002	1.2542	0.	130.75
3493	-0.20404	1.0025	0.	130.57
3494	-0.21323	1.5012	0.	135.25
3495	5.2449	-5.5475	0.	133.1
3496	4.9931	-5.2964	0.	131.69
3497	4.9831	-5.7966	0.	131.54
3498	5.4923	-5.8043	0.	132.39
3499	5.7555	-6.0852	0.	129.39
3500	5.2304	-6.0533	0.	130.84
3501	5.0832	6.3296	0.	126.66
3502	5.3462	6.5464	0.	124.78
3503	5.1571	6.8291	0.	125.06
3504	5.2897	6.049	0.	125.12
3505	-8.2082	5.4891	0.	123.8
3506	-7.7097	5.5067	0.	124.27
3507	-7.9675	5.2472	0.	123.66
3508	-7.9992	2.7497	0.	127.94
3509	-8.2492	3.0005	0.	127.33
3510	-7.7496	3.0004	0.	128.76
3511	-8.2483	2.4981	0.	127.43
3512	-7.7491	2.4984	0.	129.01
3513	-7.9973	2.2461	0.	127.08
3514	-6.999	2.247	0.	122.55
3515	-7.2473	1.9941	0.	123.67
3516	-3.9992	5.255	0.	134.05
3517	-4.2496	5.0039	0.	135.06
3518	-4.2467	5.5073	0.	136.24
3519	-4.9876	5.7649	0.	129.63
3520	-4.7362	6.0166	0.	130.91
3521	-4.2566	1.998	0.	134.44
3522	-4.5028	2.2498	0.	134.46
3523	-4.7539	2.0064	0.	129.14
3524	-4.0013	2.7501	0.	135.11
3525	-4.0053	2.2485	0.	135.64
3526	-4.2515	2.5004	0.	135.66
3527	-3.7521	2.5008	0.	135.79
3528	-5.9774	-5.8264	0.	126.
3529	-6.2379	-6.0506	0.	124.86
3530	-5.7333	-6.0663	0.	126.3
3531	-5.954	-5.3596	0.	127.18
3532	-6.2195	-5.5751	0.	124.67
3533	3.7993	3.9687	0.	130.64
3534	4.2825	3.9895	0.	125.13
3535	4.034	3.7338	0.	129.05
3536	3.5526	3.7125	0.	136.03
3537	3.3203	3.9442	0.	134.64
3538	3.2902	2.9716	0.	135.41
3539	3.0592	3.2067	0.	135.23
3540	3.2943	1.4974	0.	136.64
3541	3.0415	1.7363	0.	134.41
3542	4.0557	1.2791	0.	130.02
3543	3.8212	1.0283	0.	132.09
3544	4.0941	0.79946	0.	130.56
3545	6.2549	1.1581	0.	114.72
3546	6.0257	1.3696	0.	114.16
3547	6.4828	1.3739	0.	119.61
3548	6.9878	1.8042	0.	120.3
3549	6.7378	1.5787	0.	121.74
3550	6.9967	2.2827	0.	117.19
3551	6.7462	2.0432	0.	119.79
3552	7.2435	2.0335	0.	119.76
3553	-1.7008	-2.0162	0.	123.76
3554	-1.9461	-2.2594	0.	124.51
3555	-1.9156	-1.7518	0.	122.77
3556	-1.7963	-4.455	0.	130.27
3557	-2.0307	-4.212	0.	129.5
3558	-2.2875	-4.4579	0.	129.99
3559	-1.3599	-4.95	0.	126.23
3560	-1.5744	-4.6976	0.	129.88
3561	0.76856	-1.5062	0.	133.28
3562	1.0205	-1.7603	0.	132.25
3563	2.8194e-003	-1.2465	0.	125.67
3564	0.2611	-0.9984	0.	128.34
3565	0.71509	-4.0512	0.	130.51
3566	0.94593	-4.3162	0.	131.55
3567	1.2114	-4.0572	0.	130.98
3568	-3.2481	4.0003	0.	126.15
3569	-2.9983	3.7499	0.	123.61
3570	-2.9967	4.2499	0.	122.87
3571	-3.4995	3.7508	0.	131.89
3572	-3.4991	4.251	0.	128.89
3573	-3.7505	3.0011	0.	135.11
3574	-4.2503	3.001	0.	135.51
3575	-4.0003	3.251	0.	134.92
3576	-4.0135	1.7453	0.	135.95
3577	-3.7586	2.0025	0.	137.46
3578	-3.7709	1.5073	0.	137.89
3579	-4.0126	1.2402	0.	134.21
3580	-3.0506	1.3086	0.	134.58
3581	-2.848	1.0219	0.	135.31
3582	-3.0438	0.88653	0.	134.31
3583	-3.2948	1.0689	0.	135.35
3584	-1.1135	3.2352	0.	127.33
3585	-1.3076	2.9891	0.	126.78
3586	-1.2848	3.7055	0.	127.36
3587	-1.3589	3.464	0.	128.7
3588	-1.6939	3.9599	0.	123.31
3589	-1.4897	3.6941	0.	127.58
3590	-1.992	3.7366	0.	120.6
3591	-1.976	4.2369	0.	120.16
3592	-1.3018	1.7924	0.	121.01
3593	-1.3166	1.9915	0.	121.93
3594	-1.0153	1.6823	0.	121.7
3595	-0.80068	1.961	0.	125.2
3596	-3.9878	6.7633	0.	132.08
3597	-3.7397	7.0109	0.	132.38
3598	-4.2314	7.0183	0.	129.
3599	-3.7437	6.5097	0.	134.55
3600	-3.254	6.0053	0.	129.3
3601	-3.4991	6.2567	0.	134.12
3602	-3.0055	6.2541	0.	127.35
3603	-2.7608	6.0046	0.	122.9
3604	-0.83458	6.0426	0.	129.25
3605	-1.0588	6.2758	0.	126.81
3606	-1.3026	6.024	0.	121.94
3607	-0.1231	6.7931	0.	136.69
3608	-0.32812	7.0261	0.	136.09
3609	-7.2169	0.45707	0.	125.43
3610	-6.9702	0.70627	0.	122.35
3611	-6.9509	0.18133	0.	122.75
3612	-7.478	0.72323	0.	126.33
3613	-7.2314	0.97244	0.	123.25
3614	-7.7351	0.98164	0.	123.08
3615	-1.6173	-6.9362	0.	132.34
3616	-1.6239	-6.6739	0.	122.51
3617	-1.8859	-7.1525	0.	128.74
3618	-0.92887	-7.2963	0.	125.83
3619	-1.1872	-7.5172	0.	126.54
3620	0.29108	-7.59	0.	123.78
3621	5.6655e-002	-7.3642	0.	117.9
3622	0.54193	-7.3518	0.	135.83
3623	0.78114	-7.5809	0.	130.62
3624	1.0108	-6.8416	0.	128.53
3625	0.78496	-7.1016	0.	136.15
3626	1.0242	-7.3308	0.	130.91
3627	0.76659	-6.6137	0.	124.34
3628	6.9693e-002	6.5561	0.	134.61
3629	0.27064	6.3501	0.	131.87
3630	0.49787	6.4566	0.	121.73
3631	-0.15628	6.3229	0.	145.14
3632	-0.36927	6.5478	0.	141.23
3633	-0.38497	6.0714	0.	141.94
3634	-0.59796	6.2962	0.	137.88
3635	-0.5879	5.8097	0.	130.83
3636	2.6578	6.1167	0.	132.78
3637	2.8578	5.8566	0.	130.38
3638	2.3878	5.8612	0.	130.58
3639	2.0445	6.9152	0.	128.4
3640	2.2582	6.6562	0.	136.88
3641	2.5291	6.9112	0.	132.05
3642	2.3197	7.1744	0.	129.45
3643	1.7756	6.6548	0.	127.1
3644	1.5545	6.9114	0.	120.9
3645	1.8303	7.174	0.	124.32
3646	4.9967	-2.887	0.	129.05
3647	5.2484	-3.0987	0.	127.37
3648	5.0005	-3.3505	0.	128.15
3649	4.9868	-2.432	0.	130.63
3650	5.2379	-2.6425	0.	128.2
3651	4.8842	0.61297	0.	124.53
3652	5.162	0.40385	0.	123.67
3653	4.6501	0.35851	0.	133.22
3654	4.3709	0.57692	0.	130.13
3655	4.4215	9.9328e-002	0.	132.78
3656	4.2064	-0.16466	0.	127.61
3657	4.1423	0.31773	0.	129.65
3658	7.3889	-0.44947	0.	120.81
3659	7.645	-0.24807	0.	124.61
3660	7.0921	0.60075	0.	126.54
3661	7.3052	0.32357	0.	134.72
3662	7.6375	0.50088	0.	129.99
3663	7.3981	0.80099	0.	128.81
3664	6.7947	0.41158	0.	123.64
3665	6.9742	-2.1833	0.	115.7
3666	7.0627	-1.6848	0.	118.7
3667	6.7802	-1.8569	0.	118.53
3668	4.9579	-1.9858	0.	131.05
3669	5.1855	-1.7464	0.	128.23
3670	5.2257	-2.1915	0.	128.
3671	-6.2001	6.5749	0.	128.65
3672	-5.9515	6.8129	0.	123.35
3673	-5.9623	6.3004	0.	123.15
3674	2.142	4.1418	0.	135.33
3675	1.8823	3.911	0.	132.87
3676	1.9143	4.3919	0.	135.29
3677	0.33431	4.2686	0.	128.96
3678	0.13647	4.0072	0.	129.67
3679	1.3992	3.4164	0.	125.11
3680	1.6368	3.6686	0.	128.73
3681	0.93415	3.3974	0.	122.97
3682	0.48096	3.3687	0.	124.67
3683	0.68321	3.6201	0.	122.34
3684	1.1561	3.6631	0.	120.18
3685	-1.1661	-5.1864	0.	124.55
3686	-0.88019	-5.0037	0.	116.44
3687	-1.0883	-4.7246	0.	121.73
3688	-0.99324	-5.4772	0.	123.68
3689	-1.319	-5.6012	0.	128.77
3690	0.89743	-5.3474	0.	131.83
3691	0.6063	-5.6221	0.	131.62
3692	1.1602	-5.5901	0.	130.53
3693	0.63745	-5.1047	0.	129.93
3694	0.91642	-4.8346	0.	132.41
3695	-5.9138	-4.9072	0.	128.05
3696	-6.1869	-5.1068	0.	123.04
3697	-6.1259	-4.6565	0.	125.36
3698	-5.8552	-4.4768	0.	128.17
3699	-5.6537	-4.6837	0.	129.64
3700	-5.5525	-0.44345	0.	125.09
3701	-5.0036	-0.29813	0.	128.35
3702	-5.1768	-0.58624	0.	129.1
3703	-5.3264	-0.12984	0.	125.92
3704	5.0125	4.2625	0.	121.52
3705	5.258	4.5149	0.	124.66
3706	6.999	2.7683	0.	115.08
3707	6.7483	2.5224	0.	117.71
3708	3.7614	8.4151	0.	127.77
3709	4.0245	8.6809	0.	128.73
3710	4.2109	8.167	0.	126.81
3711	4.301	8.4932	0.	130.58
3712	3.2181	8.443	0.	126.34
3713	3.4864	8.695	0.	126.95
3714	2.7056	8.4573	0.	125.33
3715	2.9719	8.7101	0.	126.02
3716	2.2032	8.4651	0.	124.11
3717	2.4654	8.7179	0.	125.14
3718	1.7068	8.4719	0.	122.79
3719	1.9666	8.7246	0.	124.06
3720	1.2129	8.4796	0.	122.06
3721	1.4697	8.7301	0.	123.11
3722	0.72039	8.4894	0.	122.72
3723	0.97538	8.7376	0.	122.93
3724	0.22828	8.4983	0.	125.27
3725	0.48098	8.7456	0.	124.09
3726	-1.3186e-002	8.7513	0.	127.14
3727	-0.26357	8.5027	0.	131.15
3728	-2.6207e-002	8.2535	0.	127.75
3729	-8.4436	5.7196	0.	125.25
3730	-8.6788	5.9675	0.	129.88
3731	-8.4118	6.1777	0.	124.36
3732	-8.4686	5.2386	0.	125.1
3733	-8.7133	5.4892	0.	127.28
3734	-8.4837	4.7462	0.	125.17
3735	-8.7307	4.9964	0.	126.18
3736	-8.2279	4.9967	0.	124.92
3737	-8.4921	4.2491	0.	125.42
3738	-8.7402	4.4991	0.	125.78
3739	-8.4963	3.7502	0.	125.89
3740	-8.7453	4.	0.	125.84
3741	-8.4984	3.2503	0.	126.45
3742	-8.7478	3.5003	0.	126.23
3743	-8.4984	2.7489	0.	126.82
3744	-8.7486	2.9996	0.	126.75
3745	-8.4968	2.2462	0.	126.32
3746	-8.7479	2.498	0.	126.95
3747	-8.4948	1.7443	0.	124.56
3748	-8.7464	1.9961	0.	126.19
3749	-8.2457	1.9942	0.	125.96
3750	-8.7451	1.4957	0.	124.43
3751	-8.4932	1.2439	0.	121.47
3752	8.2619	-1.991	0.	127.67
3753	8.005	-2.2394	0.	125.86
3754	8.2082	7.047	0.	126.94
3755	7.9521	6.7988	0.	126.07
3756	7.9488	7.3176	0.	123.82
3757	-5.9946	-8.2575	0.	126.87
3758	-6.2459	-8.0077	0.	126.83
3759	4.7693	4.0027	0.	121.72
3760	4.5209	3.7478	0.	121.66
3761	7.75	3.0076	0.	120.18
3762	7.2498	3.0112	0.	115.78
3763	7.5001	3.2571	0.	115.88
3764	-7.0292	8.7673	0.	125.78
3765	-7.0746	8.2781	0.	123.57
3766	-7.2977	8.523	0.	123.77
3767	-6.7842	8.5253	0.	127.63
3768	-5.741	8.5318	0.	126.09
3769	-5.9981	8.7764	0.	127.25
3770	-6.2589	8.5322	0.	128.44
3771	-5.235	8.5273	0.	124.28
3772	-5.4895	8.7748	0.	125.3
3773	-4.9872	8.7702	0.	124.46
3774	-4.7357	8.5206	0.	124.17
3775	-8.4524	-3.8267	0.	122.8
3776	-8.7289	-4.0495	0.	125.24
3777	-8.482	-4.3072	0.	126.06
3778	-8.238	-4.0954	0.	125.
3779	-8.4298	-3.3358	0.	121.75
3780	-8.6947	-3.5631	0.	122.11
3781	-8.1396	-3.633	0.	126.66
3782	-8.6912	-3.0611	0.	122.8
3783	-8.4116	-2.8139	0.	120.82
3784	-8.1842	-3.127	0.	121.75
3785	6.1805	-8.541	0.	126.18
3786	6.4231	-8.7638	0.	124.7
3787	6.584	-8.4987	0.	124.04
3788	5.7432	-8.5418	0.	126.95
3789	5.9743	-8.7919	0.	126.46
3790	5.2632	-8.5253	0.	127.21
3791	5.5063	-8.7739	0.	127.24
3792	4.7609	-8.5214	0.	127.49
3793	5.0096	-8.769	0.	127.6
3794	4.2568	-8.5193	0.	127.9
3795	4.5072	-8.7667	0.	127.98
3796	3.755	-8.5182	0.	128.3
3797	4.0051	-8.7653	0.	128.35
3798	3.2552	-8.519	0.	128.61
3799	3.5047	-8.7651	0.	128.64
3800	2.7567	-8.522	0.	128.82
3801	3.0055	-8.7666	0.	128.83
3802	2.2592	-8.5267	0.	128.9
3803	2.507	-8.7701	0.	128.88
3804	1.7621	-8.5323	0.	128.72
3805	2.0093	-8.7743	0.	128.73
3806	1.2647	-8.5384	0.	127.91
3807	1.5114	-8.7794	0.	128.18
3808	0.76672	-8.5428	0.	126.
3809	1.013	-8.784	0.	126.87
3810	0.26786	-8.5428	0.	123.22
3811	0.51391	-8.786	0.	124.62
3812	-0.23182	-8.5363	0.	121.25
3813	1.4295e-002	-8.7835	0.	122.26
3814	-0.73154	-8.524	0.	121.72
3815	-0.48613	-8.7751	0.	121.51
3816	-1.2304	-8.5085	0.	124.08
3817	-0.98587	-8.7635	0.	122.96
3818	-1.7283	-8.4933	0.	126.39
3819	-1.4847	-8.7505	0.	125.23
3820	-2.2262	-8.484	0.	127.6
3821	-1.9828	-8.7398	0.	126.89
3822	-2.7256	-8.4823	0.	127.93
3823	-2.4812	-8.7356	0.	127.65
3824	-3.2268	-8.485	0.	127.87
3825	-2.9815	-8.7361	0.	127.87
3826	-3.7293	-8.4899	0.	127.67
3827	-3.4825	-8.7393	0.	127.83
3828	-4.2322	-8.4962	0.	127.42
3829	-3.9847	-8.7436	0.	127.66
3830	-4.7355	-8.502	0.	127.16
3831	-4.4867	-8.7493	0.	127.43
3832	-5.2393	-8.5053	0.	126.96
3833	-4.9895	-8.7531	0.	127.16
3834	-5.7431	-8.5058	0.	126.96
3835	-5.4925	-8.7547	0.	126.89
3836	-5.9955	-8.7542	0.	126.59
3837	-6.2462	-8.5043	0.	127.22
3838	8.2528	-5.9495	0.	121.43
3839	8.0072	-5.7061	0.	115.59
3840	7.9969	-6.1699	0.	109.28
3841	8.2499	3.004	0.	126.45
3842	8.0001	3.2542	0.	124.82
3843	8.4866	8.2793	0.	124.23
3844	8.7325	8.0235	0.	125.02
3845	8.4722	7.7842	0.	125.03
3846	8.4685	6.7784	0.	132.14
3847	8.466	7.2849	0.	127.43
3848	8.7222	7.025	0.	129.5
3849	8.4988	2.7528	0.	128.32
3850	8.7497	3.0017	0.	130.39
3851	8.5	3.2521	0.	131.84
3852	8.4949	2.2526	0.	127.03
3853	8.7478	2.5019	0.	128.5
3854	8.4865	1.7501	0.	127.17
3855	8.7427	2.0007	0.	127.94
3856	8.4746	1.2443	0.	127.82
3857	8.7342	1.4979	0.	128.16
3858	8.4709	0.73866	0.	127.93
3859	8.7258	0.99337	0.	128.41
3860	8.5015	0.23889	0.	127.02
3861	8.7324	0.49212	0.	127.94
3862	8.1938	0.46427	0.	128.46
3863	8.537	-0.25759	0.	125.72
3864	8.7711	-5.3125e-003	0.	126.85
3865	8.5399	-0.75275	0.	125.24
3866	8.7839	-0.5037	0.	126.03
3867	8.5296	-1.248	0.	126.25
3868	8.7786	-1.0001	0.	126.41
3869	8.5174	-1.7456	0.	128.55
3870	8.7694	-1.4976	0.	128.04
3871	8.5062	-2.245	0.	132.15
3872	8.7592	-1.9964	0.	130.52
3873	8.7459	-5.9809	0.	133.71
3874	8.5019	-5.7176	0.	130.48
3875	8.4801	-6.1885	0.	133.94
3876	7.3203	8.6215	0.	125.34
3877	7.063	8.8512	0.	126.75
3878	6.8771	8.6011	0.	126.15
3879	7.241	8.3988	0.	124.64
3880	7.7693	8.5863	0.	123.96
3881	7.5307	8.8432	0.	124.77
3882	7.4586	8.3944	0.	123.61
3883	8.2482	8.5411	0.	123.87
3884	8.0067	8.7982	0.	123.97
3885	8.746	8.519	0.	124.56
3886	8.5003	8.7736	0.	124.27
3887	-6.6847	7.6124	0.	131.22
3888	-6.4431	7.3478	0.	125.88
3889	8.5036	-8.2665	0.	127.38
3890	8.7222	-8.0133	0.	128.58
3891	8.2907	-8.238	0.	127.08
3892	8.5104	-7.745	0.	132.73
3893	8.7924	-8.5105	0.	129.4
3894	8.543	-8.7538	0.	127.23
3895	8.3504	-8.4875	0.	128.09
3896	-6.9563	-5.2764	0.	112.74
3897	-6.687	-5.0564	0.	113.67
3898	-7.1979	-5.0294	0.	113.25
3899	0.34632	-5.3795	0.	129.71
3900	0.11224	-5.1281	0.	119.31
3901	0.39898	-4.8475	0.	128.04
3902	-0.70733	-5.2946	0.	115.71
3903	-0.60023	-4.7833	0.	107.81
3904	-0.39391	-5.0916	0.	110.72
3905	1.3937	3.9153	0.	123.77
3906	0.90516	3.8858	0.	119.37
3907	1.6546	4.1611	0.	132.8
3908	-6.6882	6.6173	0.	130.29
3909	-6.44	6.8477	0.	127.11
3910	5.7197	-2.1672	0.	116.52
3911	5.4768	-2.402	0.	125.56
3912	5.4532	-1.9522	0.	125.15
3913	5.9683	-2.377	0.	113.68
3914	6.2096	-2.1831	0.	110.92
3915	4.7476	9.0675	0.	129.38
3916	5.2071	9.1409	0.	126.87
3917	5.0359	8.8573	0.	128.23
3918	4.9904	9.3228	0.	127.5
3919	4.2539	9.001	0.	129.32
3920	4.5304	8.8133	0.	131.2
3921	4.4992	9.2772	0.	128.76
3922	3.7495	8.9609	0.	127.91
3923	3.9998	9.2261	0.	128.23
3924	3.4964	9.2189	0.	127.28
3925	3.2403	8.9621	0.	126.64
3926	1.9856	9.2356	0.	125.58
3927	1.7294	8.9828	0.	124.39
3928	2.2288	8.9774	0.	125.1
3929	0.73597	8.9938	0.	124.3
3930	0.98917	9.2434	0.	125.13
3931	1.2321	8.988	0.	123.99
3932	0.23951	8.9986	0.	125.96
3933	0.49152	9.2475	0.	125.73
3934	7.2734	9.0729	0.	126.19
3935	6.7523	9.078	0.	129.45
3936	7.0201	9.3069	0.	126.39
3937	7.768	9.0551	0.	124.78
3938	7.5179	9.3009	0.	125.07
3939	8.0107	9.2809	0.	124.54
3940	8.2589	9.0307	0.	124.37
3941	8.9991	8.7598	0.	124.91
3942	9.2473	8.5076	0.	125.25
3943	8.9919	8.2631	0.	125.35
3944	9.2363	7.5113	0.	127.41
3945	8.9842	7.7657	0.	126.51
3946	8.7239	7.5264	0.	126.51
3947	8.9801	7.2666	0.	128.61
3948	8.7467	5.5058	0.	134.67
3949	9.2469	5.5048	0.	130.72
3950	8.9935	5.7581	0.	132.22
3951	8.9975	5.2547	0.	132.3
3952	8.9998	3.2509	0.	132.05
3953	8.7501	3.5013	0.	133.47
3954	9.25	3.5007	0.	132.14
3955	9.	3.7511	0.	132.71
3956	8.9987	2.7509	0.	130.57
3957	9.2496	3.0006	0.	131.48
3958	8.9955	2.25	0.	129.4
3959	9.2481	2.5003	0.	130.48
3960	8.9903	1.7485	0.	128.92
3961	9.2447	1.9993	0.	129.81
3962	8.9854	1.247	0.	128.75
3963	9.2407	1.4983	0.	129.44
3964	8.9873	0.74683	0.	128.43
3965	9.2384	0.99776	0.	129.07
3966	9.002	0.24792	0.	127.77
3967	9.2441	0.49859	0.	128.5
3968	9.259	-5.3243e-004	0.	127.83
3969	9.0181	-0.25142	0.	127.15
3970	8.7502	-2.9967	0.	132.96
3971	9.2504	-2.9976	0.	131.75
3972	9.0014	-2.7471	0.	132.52
3973	9.0004	-3.2468	0.	131.97
3974	8.9785	-6.2755	0.	138.41
3975	9.244	-6.0049	0.	136.61
3976	8.9975	-5.7483	0.	136.02
3977	9.0688	-7.2788	0.	129.76
3978	9.0278	-6.7935	0.	134.8
3979	9.3098	-7.0257	0.	130.06
3980	8.9005	-7.0153	0.	128.66
3981	9.023	-7.764	0.	129.96
3982	9.2837	-7.5151	0.	129.09
3983	8.8112	-7.4957	0.	134.12
3984	9.011	-8.2572	0.	130.6
3985	9.2539	-8.0083	0.	130.29
3986	9.0184	-8.7532	0.	129.7
3987	9.2651	-8.5042	0.	130.55
3988	8.2725	-8.9647	0.	121.22
3989	8.769	-8.9965	0.	127.51
3990	8.5133	-9.2406	0.	124.34
3991	8.0799	-8.6985	0.	122.1
3992	8.0098	-9.1979	0.	116.4
3993	7.7448	-8.8762	0.	112.37
3994	6.7007	-8.9692	0.	121.47
3995	6.967	-9.1982	0.	118.16
3996	7.205	-8.8759	0.	114.09
3997	6.8617	-8.7041	0.	120.81
3998	6.475	-9.2477	0.	122.81
3999	6.2169	-9.0146	0.	124.98
4000	5.2527	-9.0175	0.	127.62
4001	5.4994	-9.2646	0.	127.23
4002	5.7375	-9.024	0.	126.75
4003	4.7559	-9.0142	0.	128.09
4004	5.0036	-9.2617	0.	128.01
4005	4.2555	-9.0127	0.	128.43
4006	4.5044	-9.2599	0.	128.45
4007	3.7548	-9.0121	0.	128.69
4008	4.0038	-9.2592	0.	128.73
4009	3.255	-9.0127	0.	128.86
4010	3.5037	-9.259	0.	128.91
4011	2.7558	-9.0147	0.	128.89
4012	3.0042	-9.26	0.	128.96
4013	2.2571	-9.0177	0.	128.71
4014	2.505	-9.262	0.	128.84
4015	1.7585	-9.0214	0.	128.19
4016	2.006	-9.2646	0.	128.44
4017	1.2597	-9.025	0.	127.13
4018	1.507	-9.2675	0.	127.62
4019	0.76023	-9.0272	0.	125.49
4020	1.0075	-9.2698	0.	126.27
4021	0.26035	-9.0267	0.	123.66
4022	0.50759	-9.2706	0.	124.54
4023	-0.24002	-9.0223	0.	122.52
4024	7.5662e-003	-9.269	0.	123.06
4025	-0.74046	-9.0146	0.	122.75
4026	-0.49317	-9.264	0.	122.61
4027	-1.2402	-9.0055	0.	124.11
4028	-0.99338	-9.2576	0.	123.42
4029	-1.7392	-8.997	0.	125.73
4030	-1.493	-9.2508	0.	124.9
4031	-1.9921	-9.2452	0.	126.3
4032	-2.2378	-8.9913	0.	126.94
4033	-4.2392	-8.9968	0.	127.67
4034	-3.9917	-9.2459	0.	127.84
4035	-3.738	-8.993	0.	127.82
4036	-4.7406	-9.0004	0.	127.44
4037	-4.4924	-9.2491	0.	127.65
4038	-5.2427	-9.0025	0.	127.09
4039	-4.9937	-9.2512	0.	127.31
4040	-5.7449	-9.0031	0.	126.52
4041	-5.4953	-9.2522	0.	126.72
4042	-6.2469	-9.0024	0.	124.95
4043	-5.9969	-9.2522	0.	125.6
4044	-6.7484	-9.0012	0.	120.94
4045	-6.4976	-8.7525	0.	125.6
4046	-6.4982	-9.2513	0.	123.
4047	-7.2492	-9.0004	0.	116.42
4048	-6.9989	-8.7508	0.	118.46
4049	-6.9991	-9.2505	0.	118.48
4050	-7.7496	-9.0001	0.	116.69
4051	-7.4995	-8.7502	0.	111.17
4052	-7.4995	-9.2502	0.	116.04
4053	-8.2498	-9.	0.	121.71
4054	-7.9997	-8.7501	0.	119.05
4055	-7.9998	-9.2501	0.	118.96
4056	-8.4999	-8.7501	0.	126.85
4057	-8.7499	-9.	0.	126.22
4058	-8.4999	-9.25	0.	123.95
4059	-8.9966	1.7475	0.	126.08
4060	-8.9962	1.2477	0.	124.73
4061	-9.2473	1.4983	0.	127.42
4062	-9.2477	1.9983	0.	127.56
4063	-8.9975	2.2479	0.	126.83
4064	-8.9968	3.7501	0.	126.18
4065	-9.2484	3.5002	0.	126.43
4066	-8.9981	3.2496	0.	126.52
4067	-8.9935	4.25	0.	126.19
4068	-9.2465	4.0004	0.	126.42
4069	-8.9873	4.7493	0.	126.79
4070	-9.2431	4.501	0.	126.97
4071	-8.9754	5.2471	0.	128.35
4072	-9.2368	5.0023	0.	128.18
4073	-8.9485	5.7372	0.	131.91
4074	-9.2239	5.5074	0.	130.25
4075	-9.1931	6.0217	0.	133.95
4076	-8.8888	6.2085	0.	141.13
4077	-9.2165	6.7472	0.	132.88
4078	-9.3496	6.2907	0.	134.14
4079	-9.4243	6.5271	0.	132.68
4080	-9.0453	6.4775	0.	141.3
4081	-9.1632	7.2174	0.	130.13
4082	-9.3918	6.9929	0.	129.08
4083	-8.9944	6.9399	0.	131.91
4084	-9.101	7.7049	0.	130.
4085	-8.9287	7.4173	0.	136.06
4086	-9.3503	7.4763	0.	127.6
4087	-8.8476	7.9032	0.	131.2
4088	-9.2967	7.9726	0.	128.86
4089	-9.01	8.2171	0.	131.78
4090	8.7127	-6.4831	0.	138.22
4091	8.8362	-6.7696	0.	132.97
4092	9.2294	-6.5297	0.	136.2
4093	7.0078	0.1344	0.	131.09
4094	7.2076	-0.16389	0.	128.39
4095	7.4638	3.7515e-002	0.	132.5
4096	4.7122	-0.12337	0.	128.11
4097	4.9279	0.1494	0.	131.36
4098	-8.488	8.8623	0.	131.06
4099	-8.5016	8.4699	0.	135.33
4100	-8.2483	8.6476	0.	121.81
4101	-8.7174	8.5698	0.	134.14
4102	-0.14596	5.8471	0.	137.65
4103	4.4666e-002	6.117	0.	141.86
4104	0.30751	-7.1259	0.	129.48
4105	0.54073	-6.8737	0.	131.63
4106	-1.1495	-7.0319	0.	132.83
4107	-1.39	-6.7476	0.	127.57
4108	-1.4079	-7.2528	0.	134.
4109	-7.6838	-2.3514	0.	136.33
4110	-7.4524	-2.542	0.	134.66
4111	-7.2068	-2.3539	0.	126.22
4112	-7.44	-2.1081	0.	128.72
4113	-9.	-8.2501	0.	128.97
4114	-8.7499	-8.5001	0.	128.88
4115	-8.9999	-8.75	0.	128.26
4116	-9.25	-8.5	0.	128.9
4117	-9.	-7.7502	0.	128.99
4118	-8.75	-8.0002	0.	129.02
4119	-9.25	-8.0001	0.	128.83
4120	-9.	-7.2506	0.	129.29
4121	-8.75	-7.5004	0.	130.26
4122	-9.25	-7.5003	0.	128.66
4123	-8.9999	-6.7514	0.	129.59
4124	-8.7499	-7.001	0.	131.56
4125	-9.25	-7.0007	0.	129.08
4126	-8.9994	-6.2531	0.	129.93
4127	-8.7497	-6.5023	0.	130.73
4128	-9.2498	-6.5015	0.	129.23
4129	-8.9983	-5.7565	0.	130.55
4130	-8.7487	-6.0053	0.	130.45
4131	-9.2494	-6.0032	0.	129.93
4132	-8.7457	-5.5112	0.	131.21
4133	-9.2484	-5.5063	0.	130.35
4134	-8.9964	-5.2623	0.	130.27
4135	-8.9712	-3.7859	0.	124.55
4136	-9.2359	-4.0225	0.	126.33
4137	-8.9863	-4.279	0.	126.6
4138	-8.9561	-3.2884	0.	123.14
4139	-9.2215	-3.5272	0.	125.27
4140	-8.9513	-2.7804	0.	122.99
4141	-9.214	-3.0263	0.	125.4
4142	-7.7294	0.47896	0.	125.62
4143	-7.472	0.21902	0.	128.59
4144	-8.9968	0.74837	0.	124.06
4145	-9.2473	0.99867	0.	127.34
4146	-8.7444	0.99591	0.	121.72
4147	-0.82218	6.5294	0.	135.49
4148	-0.5743	6.7808	0.	140.59
4149	-3.2506	6.5055	0.	132.12
4150	-3.4955	6.7573	0.	134.8
4151	-5.9245e-003	9.2504	0.	127.56
4152	-0.2567	9.0011	0.	129.28
4153	-8.2464	9.066	0.	122.56
4154	-8.7425	9.0397	0.	128.13
4155	-8.4969	9.2969	0.	124.97
4156	-7.7524	9.0465	0.	118.55
4157	-8.0067	8.8513	0.	113.37
4158	-7.9977	9.2963	0.	119.84
4159	-7.2594	9.0215	0.	122.21
4160	-7.528	8.7772	0.	120.15
4161	-7.5032	9.2718	0.	120.03
4162	-6.7598	9.0161	0.	126.63
4163	-7.0069	9.2622	0.	124.74
4164	-6.254	9.0183	0.	127.27
4165	-6.5049	9.2628	0.	126.55
4166	-6.5148	8.7741	0.	128.48
4167	-5.7467	9.0194	0.	126.47
4168	-6.0003	9.2643	0.	126.74
4169	-5.2418	9.0178	0.	125.49
4170	-5.4951	9.2642	0.	126.27
4171	-4.7407	9.0143	0.	125.26
4172	-4.9931	9.2622	0.	126.06
4173	-4.242	9.0102	0.	126.41
4174	-4.4933	9.2593	0.	126.4
4175	-4.4892	8.7646	0.	124.96
4176	-3.7447	9.0062	0.	129.26
4177	-3.9948	9.2562	0.	127.87
4178	-3.9918	8.7597	0.	127.29
4179	-1.5405	1.8518	0.	121.4
4180	-1.7737	1.5688	0.	119.44
4181	-1.4588	1.4621	0.	117.93
4182	-1.553	3.2179	0.	128.13
4183	-1.7878	3.4707	0.	124.85
4184	-3.2777	1.5252	0.	136.88
4185	-3.5161	1.7645	0.	139.36
4186	-3.5218	1.2855	0.	137.65
4187	-3.2496	3.5003	0.	129.31
4188	-3.5002	3.251	0.	134.58
4189	-3.7499	3.5009	0.	134.4
4190	0.50987	-1.7542	0.	133.38
4191	0.2548	-1.5009	0.	129.5
4192	0.51308	-1.2528	0.	132.17
4193	-1.3028	-4.4721	0.	125.38
4194	-1.5329	-4.2192	0.	129.26
4195	-1.2268	-1.5688	0.	121.
4196	-1.4594	-1.7835	0.	122.88
4197	-1.4188	-1.3158	0.	115.33
4198	-1.6743	-1.5191	0.	121.81
4199	6.4962	1.8176	0.	121.18
4200	6.2537	1.5854	0.	118.84
4201	6.7494	3.0114	0.	116.61
4202	6.9998	3.2592	0.	114.98
4203	3.5342	1.7491	0.	137.63
4204	3.7913	1.5114	0.	134.09
4205	3.5568	1.2606	0.	136.19
4206	3.5377	3.2237	0.	137.56
4207	3.7873	3.4776	0.	134.39
4208	3.3067	3.4588	0.	137.42
4209	-6.48	-5.7994	0.	123.53
4210	-6.7217	-5.5422	0.	119.14
4211	-6.4524	-5.3223	0.	120.53
4212	-6.4975	-8.2545	0.	127.16
4213	-6.7481	-8.5021	0.	123.1
4214	-8.2498	-8.5001	0.	124.16
4215	-8.4999	-8.2502	0.	128.91
4216	-8.2405	-5.5148	0.	126.32
4217	-8.4961	-5.7601	0.	131.08
4218	-8.4914	-5.2709	0.	130.09
4219	-4.5005	2.7512	0.	136.
4220	-4.7507	2.5043	0.	131.76
4221	-7.2496	2.4986	0.	126.74
4222	-7.4995	2.7492	0.	129.79
4223	-7.4979	2.2457	0.	127.92
4224	-7.2167	5.5244	0.	125.33
4225	-7.4728	5.2627	0.	126.55
4226	5.0111	3.7542	0.	121.16
4227	5.2595	4.0064	0.	122.2
4228	8.4805	6.2684	0.	135.07
4229	8.2124	6.5302	0.	131.22
4230	8.7271	6.519	0.	133.56
4231	8.5001	3.7515	0.	134.23
4232	8.2503	3.5023	0.	130.14
4233	5.8058	6.4837	0.	118.64
4234	5.5528	6.2658	0.	123.22
4235	5.6072	6.747	0.	119.56
4236	8.5008	-2.7459	0.	133.88
4237	8.2492	-2.4934	0.	130.31
4238	8.752	-2.4963	0.	133.48
4239	8.504	-5.2324	0.	130.86
4240	8.2562	-5.4741	0.	124.53
4241	8.7534	-5.485	0.	132.79
4242	5.7541	-5.5475	0.	129.69
4243	5.5002	-5.2922	0.	133.16
4244	5.7254	-2.6117	0.	122.2
4245	5.4896	-2.8542	0.	126.49
4246	-7.9199	-2.5511	0.	139.41
4247	-8.1557	-2.6399	0.	130.56
4248	-7.9283	-2.953	0.	131.14
4249	-7.6885	-2.7416	0.	137.66
4250	-0.70995	1.4631	0.	130.14
4251	-0.45824	1.2495	0.	134.8
4252	-0.49533	1.7419	0.	133.73
4253	-0.74845	-1.3503	0.	118.72
4254	-0.98047	-1.4076	0.	121.71
4255	-0.90069	-1.038	0.	126.57
4256	-1.1725	-1.1546	0.	115.79
4257	7.1786	6.6832	0.	123.01
4258	6.9513	6.6061	0.	122.41
4259	6.9641	7.0035	0.	123.
4260	6.7322	6.8244	0.	121.13
4261	4.3345	7.6521	0.	129.63
4262	4.5196	7.2825	0.	137.56
4263	6.2923	-6.7949	0.	124.34
4264	6.4459	-6.534	0.	128.62
4265	6.1368	-6.3389	0.	130.37
4266	9.2511	9.0056	0.	124.96
4267	9.0021	9.2566	0.	124.87
4268	8.7534	9.0144	0.	124.61
4269	9.2614	-9.0019	0.	129.88
4270	9.0102	-9.2504	0.	128.12
4271	-8.9999	-9.25	0.	127.01
4272	-9.25	-9.	0.	128.25
4273	-9.2412	9.0059	0.	128.62
4274	-8.994	9.2613	0.	127.71
4275	-8.9719	8.7472	0.	131.38
4276	5.3585	-1.5123	0.	124.06
4277	5.103	-1.0906	0.	129.67
4278	4.837	-0.62674	0.	128.21
4279	4.4971	-0.38737	0.	123.19
4280	4.6391	-0.87253	0.	131.48
4281	5.445	0.19107	0.	114.84
4282	6.5053	0.20135	0.	113.88
4283	5.9765	0.21323	0.	103.04
4284	-7.1755	6.5987	0.	121.5
4285	-6.9406	6.3575	0.	126.22
4286	-7.6668	6.5071	0.	113.41
4287	-8.1544	6.4299	0.	116.86
4288	-8.6218	6.4187	0.	135.11
4289	-8.6752	7.6156	0.	137.31
4290	-8.7599	7.1398	0.	137.65
4291	-8.5756	8.0679	0.	133.48
4292	-8.738	8.3818	0.	134.12
4293	-7.0102	7.8353	0.	127.23
4294	-7.7823	8.582	0.	114.61
4295	1.9097	5.1284	0.	138.14
4296	2.0845	5.62	0.	137.07
4297	1.7391	4.6478	0.	133.5
4298	0.48989	4.5214	0.	126.41
4299	0.62125	4.0852	0.	124.64
4300	0.21754	4.9165	0.	133.86
4301	-4.5106e-002	5.3547	0.	133.88
4302	-0.34889	5.5854	0.	126.97
4303	-0.23612	5.094	0.	134.99
4304	0.48256	6.2516	0.	124.26
4305	0.97879	6.366	0.	111.63
4306	1.4992	6.3847	0.	119.14
4307	1.9892	6.3958	0.	135.17
4308	1.2781	6.6412	0.	113.01
4309	-0.17807	-7.1202	0.	108.39
4310	-0.66998	-7.0788	0.	115.
4311	-1.2254	-6.2503	0.	128.15
4312	-0.9148	-5.7807	0.	129.82
4313	-1.2405	-5.9046	0.	134.92
4314	0.48608	-6.3865	0.	128.13
4315	0.37858	-5.8918	0.	133.56
4316	-8.1562	-2.4542	0.	127.39
4317	-8.6717	-2.5332	0.	120.84
4318	-9.2154	-2.5174	0.	128.25
4319	-8.2399	0.49204	0.	117.34
4320	-7.9865	0.73737	0.	122.42
4321	-8.7456	0.49752	0.	117.86
4322	-8.4933	0.74507	0.	115.7
4323	-9.2481	0.49928	0.	129.37
4324	-7.3611	-1.4586	0.	132.99
4325	-7.4986	-1.6617	0.	127.4
4326	-7.5426	-1.2196	0.	133.46
4327	-7.4754	-0.27659	0.	130.41
4328	-7.2099	-0.55364	0.	129.82
4329	-7.5004	-0.75788	0.	133.09
4330	-7.206	-5.6722e-002	0.	125.94
4331	-1.2911	6.5157	0.	123.12
4332	-1.7737	6.5088	0.	117.48
4333	-1.5349	6.2639	0.	118.25
4334	-2.2637	6.5052	0.	117.12
4335	-2.0211	6.2573	0.	116.96
4336	-2.7567	6.5039	0.	122.81
4337	-2.5121	6.2544	0.	118.35
4338	-1.5439	2.2773	0.	124.13
4339	-1.5374	2.7434	0.	126.68
4340	-2.2818	1.489	0.	118.22
4341	-2.0995	1.2474	0.	117.32
4342	-1.9068	1.2976	0.	116.62
4343	-2.7868	1.511	0.	125.49
4344	-2.5842	1.2243	0.	126.6
4345	-2.2564	3.4933	0.	116.39
4346	-2.7503	3.4988	0.	118.28
4347	-3.5055	2.2548	0.	137.56
4348	-3.5014	2.7518	0.	135.76
4349	0.47927	-3.7854	0.	131.11
4350	0.4471	-4.3125	0.	129.46
4351	0.49347	-3.2694	0.	133.47
4352	0.50037	-2.7612	0.	134.17
4353	0.74674	-3.0199	0.	132.78
4354	0.50531	-2.2567	0.	133.21
4355	0.76177	-2.0084	0.	132.39
4356	-0.80834	-4.5041	0.	113.03
4357	-0.31602	-4.5434	0.	110.32
4358	-0.27086	-1.4881	0.	119.26
4359	-0.77116	-1.5352	0.	116.96
4360	-1.5084	-3.7357	0.	128.93
4361	-1.7674	-3.9762	0.	128.52
4362	-1.4963	-3.2464	0.	130.12
4363	-1.486	-2.7546	0.	129.66
4364	-1.4744	-2.2653	0.	126.1
4365	-1.7197	-2.5085	0.	126.81
4366	6.4979	2.2829	0.	120.3
4367	6.4987	2.7656	0.	119.22
4368	6.4996	3.2573	0.	118.07
4369	3.5235	2.2401	0.	136.64
4370	3.2815	1.9879	0.	135.48
4371	3.5254	2.7329	0.	136.41
4372	-6.4933	-6.2816	0.	125.98
4373	-6.4977	-7.7577	0.	127.94
4374	-6.498	-7.2626	0.	129.53
4375	-6.4973	-6.77	0.	129.03
4376	-7.7496	-8.5002	0.	113.41
4377	-7.2492	-8.5006	0.	113.08
4378	-7.7333	-5.5157	0.	113.65
4379	-7.9815	-5.2765	0.	122.07
4380	-7.2264	-5.5201	0.	111.15
4381	-7.468	-5.2731	0.	111.69
4382	-8.5	-7.7503	0.	130.28
4383	-8.4999	-7.2508	0.	132.54
4384	-8.4989	-6.2545	0.	131.24
4385	-8.4997	-6.7519	0.	132.7
4386	-4.5	3.2508	0.	137.03
4387	-4.5	3.7507	0.	139.21
4388	-4.25	3.5008	0.	136.46
4389	-4.5	4.2513	0.	139.31
4390	-4.4995	4.7529	0.	137.55
4391	-4.4971	5.2562	0.	137.18
4392	-5.2508	2.5079	0.	121.18
4393	-5.0018	2.2608	0.	126.49
4394	-5.7511	2.5063	0.	114.56
4395	-6.2508	2.5015	0.	113.69
4396	-6.7501	2.4989	0.	118.43
4397	-5.2405	5.5124	0.	125.16
4398	-4.7436	5.5093	0.	134.29
4399	-5.7371	5.5178	0.	119.2
4400	-6.2325	5.5247	0.	118.44
4401	-5.9776	5.7814	0.	120.71
4402	-6.7256	5.5295	0.	121.27
4403	-6.9608	5.8009	0.	124.59
4404	-7.4992	3.25	0.	130.65
4405	-7.4954	4.2515	0.	132.
4406	-7.4981	3.7505	0.	132.38
4407	-7.4886	4.7546	0.	129.02
4408	-7.7306	5.0032	0.	125.91
4409	-0.51368	8.2551	0.	136.62
4410	-0.50709	8.7525	0.	133.29
4411	-0.52511	7.76	0.	138.1
4412	-0.54444	7.268	0.	138.47
4413	-0.27631	8.0059	0.	133.21
4414	-3.4931	7.2574	0.	134.79
4415	-3.4954	8.755	0.	132.88
4416	-3.497	9.2532	0.	131.12
4417	-3.4938	8.2564	0.	135.69
4418	-3.7425	8.5085	0.	130.92
4419	-3.4928	7.7571	0.	136.18
4420	-3.7405	8.0102	0.	132.53
4421	5.7696	1.5698	0.	113.68
4422	5.2804	1.5516	0.	114.34
4423	4.2877	1.5247	0.	125.17
4424	4.7852	1.5375	0.	119.02
4425	4.2725	3.4921	0.	125.57
4426	5.2564	3.5019	0.	121.59
4427	5.5048	3.7541	0.	122.62
4428	5.7526	3.5019	0.	123.46
4429	4.7627	3.4993	0.	121.09
4430	8.4933	5.7594	0.	136.22
4431	8.74	6.0117	0.	133.79
4432	8.4999	4.2513	0.	135.54
4433	8.75	4.0012	0.	133.5
4434	8.4995	4.752	0.	137.82
4435	8.7497	4.5016	0.	134.47
4436	8.4981	5.2541	0.	138.09
4437	8.7489	5.003	0.	135.71
4438	7.7503	3.5037	0.	120.51
4439	7.2501	3.5051	0.	115.06
4440	6.7499	3.505	0.	116.46
4441	6.2505	3.5029	0.	121.36
4442	6.2663	6.4419	0.	113.77
4443	6.0557	6.6841	0.	112.94
4444	7.6799	6.5513	0.	123.72
4445	7.1793	6.4888	0.	119.31
4446	6.7244	6.4186	0.	115.44
4447	6.5053	6.6369	0.	114.65
4448	5.5049	4.2588	0.	125.36
4449	5.5031	4.7651	0.	128.08
4450	5.5176	5.7729	0.	125.62
4451	5.5038	5.271	0.	127.94
4452	8.5001	-3.2468	0.	134.05
4453	8.5003	-3.7467	0.	135.11
4454	8.7502	-3.4969	0.	133.08
4455	8.5007	-4.2452	0.	134.38
4456	8.7505	-3.996	0.	133.67
4457	8.5018	-4.7412	0.	131.78
4458	8.7525	-4.9905	0.	131.43
4459	8.7511	-4.4943	0.	132.24
4460	7.7588	-5.474	0.	111.63
4461	7.2618	-5.483	0.	106.69
4462	6.2604	-5.5303	0.	118.89
4463	6.0173	-5.8285	0.	126.68
4464	6.7629	-5.502	0.	110.32
4465	6.2072	-2.5947	0.	113.17
4466	7.7383	-2.4853	0.	120.66
4467	7.202	-2.462	0.	114.49
4468	6.6849	-2.5192	0.	111.01
4469	6.6876	-2.3267	0.	113.35
4470	6.4484	-2.4008	0.	110.45
4471	5.4998	-3.3165	0.	128.55
4472	5.5023	-3.7948	0.	131.83
4473	5.2519	-3.5683	0.	129.34
4474	5.5015	-4.2848	0.	132.49
4475	5.2513	-4.0506	0.	130.86
4476	5.5007	-4.7838	0.	132.24
4477	5.2484	-5.0411	0.	131.81
4478	-6.047	-4.0278	0.	127.84
4479	-5.7343	-3.6023	0.	128.68
4480	-5.8551	-4.0548	0.	132.42
4481	-6.2845	-4.421	0.	120.85
4482	-6.3989	-4.8561	0.	120.35
4483	-6.0139	-4.2413	0.	123.69
4484	-7.6999	-3.8955	0.	128.
4485	-7.7743	-4.1181	0.	124.05
4486	-7.5004	-4.334	0.	123.43
4487	-7.894	-3.4242	0.	126.57
4488	-7.9252	-3.9017	0.	128.83
4489	-6.2587	-2.8017	0.	112.83
4490	-6.0178	-2.5868	0.	118.9
4491	-5.7855	-2.8192	0.	131.04
4492	-6.74	-2.781	0.	104.92
4493	-6.4924	-2.5836	0.	101.67
4494	-7.2196	-2.7581	0.	120.02
4495	-6.9741	-2.5701	0.	113.52
4496	-5.716	-0.73547	0.	124.79
4497	-5.8695	-0.27312	0.	120.3
4498	-4.9724	-1.767	0.	128.56
4499	-5.2797	-1.5892	0.	133.02
4500	-5.1531	-2.048	0.	134.81
4501	-5.4832	-1.1572	0.	133.26
4502	-5.3403	-0.87826	0.	128.76
4503	-5.7882	-2.3517	0.	123.88
4504	-5.5559	-2.584	0.	137.08
4505	-5.3389	-2.3134	0.	139.24
4506	-6.7265	-2.3726	0.	110.23
4507	-6.2515	-2.3687	0.	107.75
4508	-7.0977	-1.258	0.	129.52
4509	-7.2954	-1.6757	0.	127.64
4510	-2.4019	0.98257	0.	125.46
4511	-2.8224	0.82	0.	133.96
4512	-1.9844	1.06	0.	115.1
4513	-1.1723	1.352	0.	118.07
4514	-1.5918	1.1909	0.	114.97
4515	-0.72898	-0.66135	0.	127.8
4516	-0.57969	-0.21002	0.	128.28
4517	-0.51626	0.28917	0.	131.9
4518	-0.46835	0.76703	0.	132.09
4519	6.5665	8.8278	0.	128.79
4520	6.2636	9.2743	0.	124.48
4521	6.5087	9.3142	0.	128.43
4522	6.9484	7.4336	0.	124.02
4523	6.8691	7.8896	0.	128.14
4524	7.1738	7.647	0.	124.03
4525	6.7354	8.3474	0.	127.17
4526	4.5828	8.0857	0.	132.33
4527	4.8187	8.603	0.	130.
4528	4.6729	8.4118	0.	136.22
4529	5.6104	9.1468	0.	120.26
4530	5.9215	9.2892	0.	116.08
4531	5.6448	8.9719	0.	119.24
4532	5.4607	9.3728	0.	123.84
4533	5.4581	9.0095	0.	123.89
4534	5.2869	8.7259	0.	125.24
4535	4.9355	8.426	0.	133.83
4536	6.2947	6.8792	0.	113.8
4537	4.972	7.1359	0.	131.76
4538	5.4181	7.0297	0.	119.62
4539	5.857	6.9474	0.	113.65
4540	-1.6212	-0.99728	0.	114.82
4541	-2.0738	-0.72198	0.	123.3
4542	-1.8766	-1.2006	0.	121.57
4543	-2.4488	-0.32362	0.	134.11
4544	-2.7329	8.6238e-002	0.	133.21
4545	-2.9394	0.48414	0.	128.06
4546	-3.0732	0.20821	0.	126.98
4547	6.4191	-7.2494	0.	127.5
4548	6.6121	-7.7172	0.	130.41
4549	6.2599	-7.5148	0.	131.05
4550	9.4993	8.7533	0.	125.3
4551	9.5008	9.2522	0.	125.05
4552	9.4964	8.2544	0.	125.9
4553	9.493	7.7556	0.	126.91
4554	9.241	8.01	0.	126.
4555	9.4909	7.2565	0.	128.15
4556	9.491	6.7566	0.	129.2
4557	9.2347	7.0118	0.	129.34
4558	9.4933	6.2558	0.	129.6
4559	9.2372	6.5104	0.	130.82
4560	9.4962	5.7544	0.	129.51
4561	9.2428	6.0077	0.	131.02
4562	9.4982	5.253	0.	129.46
4563	9.4993	4.7518	0.	129.74
4564	9.2488	5.0029	0.	131.04
4565	9.4998	4.251	0.	130.39
4566	9.2496	4.5016	0.	131.06
4567	9.4999	3.7506	0.	131.17
4568	9.2499	4.001	0.	131.74
4569	9.4998	3.2504	0.	131.57
4570	9.499	2.7501	0.	131.39
4571	9.4973	2.2496	0.	130.89
4572	9.4951	1.7491	0.	130.33
4573	9.4937	1.2491	0.	129.75
4574	9.4952	0.74951	0.	129.14
4575	9.5011	0.25014	0.	128.56
4576	9.5076	-0.24969	0.	128.24
4577	9.5099	-0.7499	0.	128.45
4578	9.2667	-0.50058	0.	127.57
4579	9.5083	-1.2499	0.	129.22
4580	9.2659	-1.0004	0.	128.08
4581	9.5052	-1.7495	0.	130.27
4582	9.2609	-1.4993	0.	129.34
4583	9.5025	-2.2491	0.	131.07
4584	9.2557	-1.9986	0.	130.95
4585	9.5009	-2.7486	0.	131.22
4586	9.2519	-2.4981	0.	131.99
4587	9.5004	-3.2481	0.	130.94
4588	9.5004	-3.7475	0.	130.84
4589	9.2503	-3.4973	0.	131.16
4590	9.5007	-4.2469	0.	131.3
4591	9.2506	-3.9964	0.	131.33
4592	9.5011	-4.7468	0.	132.4
4593	9.2511	-4.4955	0.	131.51
4594	9.5004	-5.2486	0.	133.93
4595	9.2517	-4.9949	0.	132.75
4596	9.4971	-5.7534	0.	135.08
4597	9.2506	-5.4968	0.	134.51
4598	9.4949	-6.2591	0.	134.26
4599	9.5247	-7.262	0.	129.32
4600	9.5114	-6.7619	0.	131.41
4601	9.5146	-7.7594	0.	129.41
4602	9.5081	-8.2553	0.	130.23
4603	9.5081	-8.7529	0.	130.73
4604	9.5051	-9.2514	0.	130.75
4605	9.2539	-9.4999	0.	128.99
4606	8.7545	-9.4945	0.	124.94
4607	8.2506	-9.4738	0.	119.54
4608	7.7437	-9.4315	0.	115.17
4609	6.7413	-9.4768	0.	119.52
4610	7.2407	-9.4322	0.	115.55
4611	6.2433	-9.5012	0.	123.51
4612	5.7471	-9.5088	0.	126.17
4613	5.9852	-9.2681	0.	125.69
4614	5.2502	-9.5088	0.	127.62
4615	4.7521	-9.5073	0.	128.37
4616	4.2527	-9.5064	0.	128.75
4617	3.7528	-9.5061	0.	128.95
4618	3.2529	-9.5064	0.	129.02
4619	2.7533	-9.5074	0.	128.91
4620	2.2539	-9.5089	0.	128.56
4621	1.7545	-9.5107	0.	127.87
4622	1.2548	-9.5123	0.	126.75
4623	0.7549	-9.5132	0.	125.33
4624	0.25481	-9.5129	0.	123.95
4625	-0.24559	-9.5107	0.	123.15
4626	-0.7461	-9.507	0.	123.28
4627	-1.2462	-9.5028	0.	124.21
4628	-1.7458	-9.4989	0.	125.47
4629	-2.2453	-9.4962	0.	126.59
4630	-2.7449	-9.495	0.	127.36
4631	-2.4911	-9.2423	0.	127.23
4632	-3.2447	-9.4952	0.	127.77
4633	-2.991	-9.242	0.	127.71
4634	-3.7446	-9.4964	0.	127.89
4635	-3.4909	-9.2435	0.	127.88
4636	-4.2449	-9.4982	0.	127.81
4637	-4.7454	-9.4998	0.	127.53
4638	-5.2463	-9.5009	0.	126.94
4639	-5.7473	-9.5013	0.	125.8
4640	-6.2482	-9.5011	0.	123.64
4641	-6.749	-9.5006	0.	120.55
4642	-7.2495	-9.5002	0.	118.07
4643	-7.7497	-9.5001	0.	118.28
4644	-8.2499	-9.5	0.	121.2
4645	-8.7499	-9.5	0.	124.74
4646	-9.25	-9.5	0.	127.48
4647	-9.5	-9.25	0.	128.71
4648	-9.5	-8.75	0.	128.89
4649	-9.5	-8.2501	0.	128.76
4650	-9.5	-7.7501	0.	128.5
4651	-9.5	-7.2503	0.	128.44
4652	-9.5	-6.7508	0.	128.71
4653	-9.4998	-6.2516	0.	129.24
4654	-9.4994	-5.753	0.	129.73
4655	-9.4988	-5.2551	0.	129.72
4656	-9.4973	-4.7579	0.	128.96
4657	-9.2469	-5.0112	0.	129.64
4658	-9.4933	-4.261	0.	127.85
4659	-9.2437	-4.5175	0.	128.11
4660	-9.4862	-3.7638	0.	127.04
4661	-9.4794	-3.265	0.	127.5
4662	-9.4782	-2.7633	0.	130.69
4663	-9.487	-2.2588	0.	133.58
4664	-9.4969	-1.7539	0.	135.59
4665	-9.4996	-1.2512	0.	138.05
4666	-9.4999	-0.75036	0.	138.26
4667	-9.4999	-0.25012	0.	136.37
4668	-9.4994	0.24983	0.	134.89
4669	-9.4987	0.74958	0.	132.68
4670	-9.4983	1.2493	0.	130.03
4671	-9.4984	1.7491	0.	128.89
4672	-9.4987	2.2492	0.	128.08
4673	-9.4991	2.7496	0.	127.32
4674	-9.2485	2.4988	0.	127.34
4675	-9.4991	3.2501	0.	126.77
4676	-9.2488	2.9995	0.	126.86
4677	-9.4981	3.7505	0.	126.66
4678	-9.4962	4.2514	0.	127.19
4679	-9.4927	4.754	0.	128.36
4680	-9.4853	5.2626	0.	130.09
4681	-9.4685	5.7919	0.	132.33
4682	-9.5314	6.3009	0.	132.14
4683	-9.5996	6.7729	0.	128.88
4684	-9.5789	7.2518	0.	126.49
4685	-9.546	7.7439	0.	126.45
4686	-9.5084	8.2438	0.	127.48
4687	-9.4909	8.7469	0.	127.63
4688	-9.2216	8.4883	0.	130.4
4689	-9.4952	9.2501	0.	126.47
4690	-9.248	9.5056	0.	125.55
4691	-8.7483	9.5185	0.	124.54
4692	-8.2481	9.5273	0.	122.26
4693	-7.7485	9.5216	0.	121.15
4694	-7.2507	9.5125	0.	122.57
4695	-6.752	9.5089	0.	124.66
4696	-6.2512	9.5088	0.	126.
4697	-5.7487	9.5091	0.	126.54
4698	-5.2464	9.5086	0.	126.86
4699	-4.7456	9.5071	0.	127.23
4700	-4.246	9.5052	0.	127.89
4701	-3.7471	9.5033	0.	129.77
4702	-3.2484	9.5014	0.	129.84
4703	-2.7494	9.5003	0.	124.79
4704	-2.2498	9.5	0.	121.47
4705	-1.75	9.5	0.	121.44
4706	-1.2505	9.5001	0.	124.64
4707	-0.75131	9.5005	0.	129.6
4708	-0.25252	9.5004	0.	129.41
4709	-0.50329	9.2512	0.	131.12
4710	0.24608	9.4993	0.	127.35
4711	0.74471	9.4971	0.	126.58
4712	1.2435	9.4946	0.	126.31
4713	1.7426	9.492	0.	126.35
4714	1.4864	9.2392	0.	125.16
4715	2.2426	9.4891	0.	126.61
4716	2.7438	9.4856	0.	126.94
4717	2.4858	9.2309	0.	126.12
4718	3.2459	9.4821	0.	127.28
4719	2.9897	9.2253	0.	126.64
4720	3.7468	9.4842	0.	127.59
4721	4.2451	9.5023	0.	127.65
4722	4.742	9.5325	0.	126.86
4723	5.244	9.5547	0.	124.49
4724	5.7718	9.5152	0.	119.8
4725	6.2911	9.5091	0.	121.13
4726	6.7765	9.5432	0.	125.33
4727	7.2646	9.535	0.	125.27
4728	7.7606	9.5267	0.	124.83
4729	8.2569	9.5158	0.	124.75
4730	8.7537	9.5077	0.	124.84
4731	8.505	9.2656	0.	124.58
4732	9.2517	9.5033	0.	124.96
4733	8.2243	-6.4089	0.	121.72
4734	7.7582	-6.4107	0.	105.44
4735	7.3053	-6.4395	0.	105.69
4736	6.8627	-6.479	0.	115.6
4737	1.2698	-7.5661	0.	130.71
4738	7.796	0.21482	0.	127.69
4739	9.0227	-0.75104	0.	127.2
4740	-3.2476	4.5005	0.	125.61
4741	0.22116	3.5725	0.	127.62
4742	0.42341	3.8239	0.	125.32
4743	1.8251	-0.51853	0.	129.75
4744	-5.2119	7.0402	0.	122.84
4745	-5.7025	7.057	0.	122.21
4746	-8.24	0.9904	0.	120.64
4747	8.6429	-7.2322	0.	132.96
4748	2.4627	6.3897	0.	138.07
4749	2.1927	6.1342	0.	135.6
4750	2.5758	0.73263	0.	131.54
4751	1.7786	-2.0224	0.	130.67
4752	1.2703	-2.0153	0.	131.48
4753	-3.2304	0.63317	0.	131.18
4754	4.7368e-002	3.338	0.	127.14
4755	2.205	-4.5626	0.	130.56
4756	2.7336	6.6448	0.	133.29
4757	-4.4921	5.761	0.	135.62
4758	-4.828	-1.4907	0.	130.26
4759	-5.1353	-1.3129	0.	134.7
4760	-4.9924	-1.034	0.	130.24
4761	-5.5661	-3.0952	0.	129.71
4762	-5.3161	-3.307	0.	125.2
4763	-2.7434	4.4978	0.	121.33
4764	-2.998	4.7501	0.	123.43
4765	-4.5253	-1.6787	0.	130.35
4766	-4.7146	-1.9647	0.	132.21
4767	8.2066	7.5554	0.	124.33
4768	-4.7221	7.0277	0.	125.58
4769	-4.9677	7.2834	0.	123.36
4770	-3.2372	-8.9903	0.	127.82
4771	-2.7371	-8.9894	0.	127.58
4772	-8.7421	-5.022	0.	129.14
4773	-8.9933	-4.7708	0.	128.8
4774	-8.4882	-4.7879	0.	127.76
4775	-8.2324	-5.0326	0.	125.83
4776	-8.7393	-4.5367	0.	127.41
4777	3.0869	4.1698	0.	134.5
4778	3.9819	-7.2815	0.	127.62
4779	4.2403	-7.5326	0.	127.06
4780	-8.9982	2.7487	0.	126.88
4781	4.7436	-7.5385	0.	126.04
4782	6.9372	-8.1388	0.	120.21
4783	6.7519	-8.2147	0.	122.29
4784	7.0993	8.1451	0.	125.67
4785	8.9867	6.2623	0.	132.24
4786	2.0235	-2.28	0.	130.26
4787	1.5597	-0.2688	0.	129.32
4788	3.0093	6.8979	0.	132.07
4789	6.8549	-1.151	0.	122.95
4790	7.0931	-0.68083	0.	124.45
4791	7.0607	-1.1976	0.	125.21
4792	-2.2352	4.4927	0.	119.77
4793	8.9809	6.7656	0.	130.97
4794	2.497	-7.2898	0.	128.25
4795	2.2542	-7.5419	0.	128.67
4796	6.8952	-1.4017	0.	117.76
4797	6.6127	-1.5738	0.	117.62
4798	3.7286	-5.0515	0.	129.31
4799	3.2197	-5.0528	0.	129.33
4800	2.4929	-3.3053	0.	129.96
4801	2.4859	-6.7938	0.	127.94
4802	2.4731	-6.2974	0.	128.08
4803	0.78568	0.48218	0.	126.88
4804	-5.3176	-2.7988	0.	137.59
4805	4.7247	-6.0443	0.	130.43
4806	4.2229	-6.0395	0.	129.61
4807	0.46082	2.4309	0.	127.32
4808	1.2459	-3.0301	0.	130.49
4809	9.0018	-4.7436	0.	131.86
4810	9.0019	-5.2431	0.	133.33
4811	-6.9888	-0.81473	0.	126.8
4812	-7.2792	-1.019	0.	130.04
4813	4.2993	-0.63316	0.	126.39
4814	4.7486	-4.0694	0.	128.58
4815	4.4977	-3.8362	0.	128.36
4816	5.0009	-3.8241	0.	128.39
4817	4.75	-3.5908	0.	128.17
4818	-4.4766	7.2729	0.	126.19
4819	-4.7222	7.5286	0.	123.99
4820	1.3411	7.1737	0.	117.95
4821	9.005	-2.2476	0.	131.86
4822	-5.1005	-2.5282	0.	139.76
4823	-5.0676	-3.0106	0.	132.83
4824	-4.8488	-2.7299	0.	135.04
4825	-4.8952	-2.2457	0.	138.6
4826	-2.5121	5.7533	0.	119.84
4827	-2.2695	6.0065	0.	118.17
4828	1.331	1.9478	0.	128.16
4829	1.8183	1.9552	0.	129.1
4830	1.5673	1.7057	0.	128.59
4831	-7.7461	1.9934	0.	125.96
4832	-7.7162	-5.0339	0.	119.74
4833	-7.4542	-4.7933	0.	120.06
4834	-6.9406	-0.33377	0.	125.38
4835	9.0184	-1.2498	0.	128.2
4836	9.0113	-1.7484	0.	130.02
4837	3.9716	-6.7837	0.	128.14
4838	4.222	-7.0359	0.	127.48
4839	0.67795	-4.5774	0.	130.52
4840	-4.2389	8.5141	0.	125.85
4841	1.8092	0.97079	0.	129.44
4842	2.3145	0.97681	0.	131.11
4843	-3.3643	0.35725	0.	129.68
4844	-4.8019	-3.2108	0.	130.09
4845	-4.5831	-2.9301	0.	132.33
4846	3.9708	-6.286	0.	128.89
4847	1.5572	-0.76552	0.	130.23
4848	1.7605	-7.5526	0.	129.27
4849	1.5582	1.2149	0.	128.72
4850	0.62631	2.1724	0.	127.86
4851	-0.5399	5.3248	0.	128.08
4852	1.4884	-3.2903	0.	130.14
4853	1.4714	-3.802	0.	130.56
4854	-5.0154	-3.4831	0.	128.7
4855	-1.6764	-7.4691	0.	130.51
4856	4.9651	-6.2973	0.	129.6
4857	8.9998	4.2515	0.	132.41
4858	8.9991	4.7526	0.	132.36
4859	9.001	-4.245	0.	131.53
4860	9.0005	-3.7462	0.	131.64
4861	7.4039	7.9025	0.	121.58
4862	7.6875	7.6039	0.	121.58
4863	-6.1913	7.0857	0.	122.02
4864	4.0733	-0.89922	0.	126.91
4865	-3.9892	8.2623	0.	127.76
4866	3.0744	3.6905	0.	136.05
4867	6.4936	-2.0004	0.	116.26
4868	2.7317	8.9707	0.	125.83
4869	4.2469	-3.595	0.	128.71
4870	-4.6435	-2.4475	0.	133.78
4871	-1.7823	6.0124	0.	117.73
4872	0.83396	1.9508	0.	128.24
4873	-0.10969	-4.8518	0.	113.22
4874	-5.9297	0.23616	0.	118.08
4875	1.6169	7.4363	0.	121.39
4876	-3.4814	0.8155	0.	132.18
4877	4.4804	-7.287	0.	126.92
4878	2.1055	7.4332	0.	125.34
4879	0.17705	-4.5712	0.	122.
4880	-8.8232	6.6702	0.	139.98
4881	7.3092	-8.5668	0.	113.65
4882	7.4787	-9.1098	0.	111.41
4883	-3.7635	1.0184	0.	133.97
4884	-6.6781	-0.11633	0.	118.79
4885	-6.1588	-8.6308e-002	0.	116.08
4886	-5.6435	4.0496e-002	0.	121.07
4887	6.9658	-8.395	0.	120.47
4888	-7.	-6.	0.	91.158
4889	-8.	-6.	0.	95.016
4890	-7.	-8.	0.	93.167
4891	-8.	-8.	0.	94.044
4892	-7.5	-6.	0.	106.35
4893	-7.	-6.5	0.	96.079
4894	-7.	-7.	0.	95.701
4895	-7.	-7.5	0.	97.061
4896	-8.	-6.5	0.	98.166
4897	-8.	-7.	0.	97.165
4898	-8.	-7.5	0.	98.145
4899	-7.5	-8.	0.	107.21
4900	-7.5	-6.5	0.	101.36
4901	-7.5	-7.	0.	99.543
4902	-7.5	-7.5	0.	101.78
4903	-7.25	-6.	0.	98.717
4904	-7.	-6.25	0.	93.614
4905	-7.75	-6.	0.	100.63
4906	-8.	-6.25	0.	96.588
4907	-7.	-7.75	0.	95.111
4908	-7.25	-8.	0.	100.14
4909	-8.	-7.75	0.	96.091
4910	-7.75	-8.	0.	100.57
4911	-7.5	-6.25	0.	103.81
4912	-7.	-6.75	0.	95.847
4913	-7.25	-6.5	0.	98.684
4914	-7.	-7.25	0.	96.339
4915	-7.25	-7.	0.	97.62
4916	-7.25	-7.5	0.	99.366
4917	-8.	-6.75	0.	97.637
4918	-7.75	-6.5	0.	99.721
4919	-8.	-7.25	0.	97.625
4920	-7.75	-7.	0.	98.354
4921	-7.75	-7.5	0.	99.913
4922	-7.5	-7.75	0.	104.45
4923	-7.5	-6.75	0.	100.45
4924	-7.5	-7.25	0.	100.66
4925	-5.	5.	0.	101.58
4926	-7.	5.	0.	96.257
4927	-5.	3.	0.	99.988
4928	-7.	3.	0.	96.576
4929	-5.5	5.	0.	115.6
4930	-6.	5.	0.	112.22
4931	-6.5	5.	0.	113.08
4932	-5.	4.5	0.	105.58
4933	-5.	4.	0.	103.86
4934	-5.	3.5	0.	104.56
4935	-7.	4.5	0.	101.1
4936	-7.	4.	0.	99.804
4937	-7.	3.5	0.	100.91
4938	-6.5	3.	0.	111.2
4939	-6.	3.	0.	109.71
4940	-5.5	3.	0.	113.07
4941	-6.	4.	0.	113.17
4942	-5.5	4.	0.	111.15
4943	-5.5	3.5	0.	111.25
4944	-6.	3.5	0.	112.73
4945	-6.5	3.5	0.	109.15
4946	-6.5	4.	0.	108.78
4947	-6.5	4.5	0.	109.99
4948	-6.	4.5	0.	114.07
4949	-5.5	4.5	0.	112.58
4950	-5.25	5.	0.	108.5
4951	-5.	4.75	0.	103.57
4952	-6.75	5.	0.	104.59
4953	-7.	4.75	0.	98.651
4954	-5.	3.25	0.	102.27
4955	-5.25	3.	0.	106.46
4956	-7.	3.25	0.	98.729
4957	-6.75	3.	0.	103.82
4958	-5.75	5.	0.	113.91
4959	-5.5	4.75	0.	114.06
4960	-6.25	5.	0.	112.64
4961	-6.	4.75	0.	113.13
4962	-6.5	4.75	0.	111.51
4963	-5.	4.25	0.	104.69
4964	-5.25	4.5	0.	109.06
4965	-5.	3.75	0.	104.18
4966	-5.25	4.	0.	107.51
4967	-5.25	3.5	0.	107.9
4968	-7.	4.25	0.	100.41
4969	-6.75	4.5	0.	105.53
4970	-7.	3.75	0.	100.32
4971	-6.75	4.	0.	104.29
4972	-6.75	3.5	0.	105.01
4973	-6.25	3.	0.	110.45
4974	-6.5	3.25	0.	110.15
4975	-5.75	3.	0.	111.39
4976	-6.	3.25	0.	111.2
4977	-5.5	3.25	0.	112.13
4978	-5.75	4.	0.	112.16
4979	-6.	3.75	0.	112.94
4980	-6.25	4.	0.	110.97
4981	-6.	4.25	0.	113.62
4982	-5.5	3.75	0.	111.2
4983	-5.5	4.25	0.	111.86
4984	-5.75	3.5	0.	111.98
4985	-6.25	3.5	0.	110.93
4986	-6.5	3.75	0.	108.95
4987	-6.5	4.25	0.	109.37
4988	-6.25	4.5	0.	112.01
4989	-5.75	4.5	0.	113.31
4990	-1.	9.	0.	100.51
4991	-3.	9.	0.	100.2
4992	-1.	7.	0.	102.84
4993	-3.	7.	0.	100.17
4994	-1.5	9.	0.	118.36
4995	-2.	9.	0.	117.01
4996	-2.5	9.	0.	118.24
4997	-1.	8.5	0.	105.78
4998	-1.	8.	0.	104.79
4999	-1.	7.5	0.	106.36
5000	-3.	8.5	0.	105.24
5001	-3.	8.	0.	103.71
5002	-3.	7.5	0.	104.76
5003	-2.5	7.	0.	115.39
5004	-2.	7.	0.	113.54
5005	-1.5	7.	0.	116.64
5006	-1.5	8.	0.	114.25
5007	-1.5	7.5	0.	114.73
5008	-2.5	7.5	0.	113.59
5009	-2.5	8.	0.	113.48
5010	-2.5	8.5	0.	115.04
5011	-1.5	8.5	0.	115.45
5012	-2.	8.5	0.	118.86
5013	-2.	7.5	0.	117.01
5014	-2.	8.	0.	117.65
5015	-1.25	9.	0.	109.34
5016	-1.	8.75	0.	103.13
5017	-2.75	9.	0.	109.12
5018	-3.	8.75	0.	102.7
5019	-1.	7.25	0.	104.6
5020	-1.25	7.	0.	109.66
5021	-3.	7.25	0.	102.45
5022	-2.75	7.	0.	107.72
5023	-1.75	9.	0.	117.68
5024	-1.5	8.75	0.	116.87
5025	-2.25	9.	0.	117.61
5026	-2.	8.75	0.	117.91
5027	-2.5	8.75	0.	116.6
5028	-1.	8.25	0.	105.25
5029	-1.25	8.5	0.	110.59
5030	-1.	7.75	0.	105.54
5031	-1.25	8.	0.	109.52
5032	-1.25	7.5	0.	110.54
5033	-3.	8.25	0.	104.43
5034	-2.75	8.5	0.	110.11
5035	-3.	7.75	0.	104.19
5036	-2.75	8.	0.	108.59
5037	-2.75	7.5	0.	109.16
5038	-2.25	7.	0.	114.47
5039	-2.5	7.25	0.	114.46
5040	-1.75	7.	0.	115.09
5041	-2.	7.25	0.	115.26
5042	-1.5	7.25	0.	115.65
5043	-1.5	7.75	0.	114.48
5044	-1.5	8.25	0.	114.84
5045	-1.75	8.	0.	115.95
5046	-1.75	7.5	0.	115.87
5047	-2.5	7.75	0.	113.51
5048	-2.25	7.5	0.	115.29
5049	-2.5	8.25	0.	114.24
5050	-2.25	8.	0.	115.56
5051	-2.25	8.5	0.	116.92
5052	-1.75	8.5	0.	117.13
5053	-2.	8.25	0.	118.26
5054	-2.	7.75	0.	117.33
5055	-2.	3.	0.	96.746
5056	-3.	3.	0.	99.998
5057	-2.	2.	0.	95.241
5058	-3.	2.	0.	103.69
5059	-2.5	3.	0.	113.66
5060	-2.	2.5	0.	101.19
5061	-3.	2.5	0.	106.76
5062	-2.5	2.	0.	115.31
5063	-2.5	2.5	0.	111.91
5064	-2.25	3.	0.	105.19
5065	-2.	2.75	0.	98.955
5066	-2.75	3.	0.	106.81
5067	-3.	2.75	0.	103.37
5068	-2.	2.25	0.	98.179
5069	-2.25	2.	0.	105.26
5070	-3.	2.25	0.	105.22
5071	-2.75	2.	0.	109.47
5072	-2.5	2.75	0.	112.72
5073	-2.25	2.5	0.	106.51
5074	-2.75	2.5	0.	109.32
5075	-2.5	2.25	0.	113.57
5076	0.	-2.	0.	97.398
5077	-1.	-2.	0.	92.665
5078	0.	-4.	0.	93.265
5079	-1.	-4.	0.	93.306
5080	-0.5	-2.	0.	109.48
5081	0.	-2.5	0.	99.739
5082	0.	-3.	0.	97.903
5083	0.	-3.5	0.	98.222
5084	-1.	-2.5	0.	97.265
5085	-1.	-3.	0.	96.222
5086	-1.	-3.5	0.	97.07
5087	-0.5	-4.	0.	106.45
5088	-0.5	-2.5	0.	103.
5089	-0.5	-3.	0.	100.18
5090	-0.5	-3.5	0.	101.73
5091	-0.25	-2.	0.	103.37
5092	0.	-2.25	0.	98.565
5093	-0.75	-2.	0.	101.
5094	-1.	-2.25	0.	94.95
5095	0.	-3.75	0.	95.74
5096	-0.25	-4.	0.	99.819
5097	-1.	-3.75	0.	95.187
5098	-0.75	-4.	0.	99.847
5099	-0.5	-2.25	0.	106.2
5100	0.	-2.75	0.	98.788
5101	-0.25	-2.5	0.	101.3
5102	0.	-3.25	0.	98.032
5103	-0.25	-3.	0.	99.041
5104	-0.25	-3.5	0.	99.942
5105	-1.	-2.75	0.	96.695
5106	-0.75	-2.5	0.	100.08
5107	-1.	-3.25	0.	96.603
5108	-0.75	-3.	0.	98.2
5109	-0.75	-3.5	0.	99.358
5110	-0.5	-3.75	0.	104.05
5111	-0.5	-2.75	0.	101.59
5112	-0.5	-3.25	0.	100.95
5113	6.	3.	0.	94.39
5114	4.	3.	0.	102.83
5115	6.	2.	0.	93.207
5116	4.	2.	0.	103.3
5117	5.5	3.	0.	115.61
5118	5.	3.	0.	116.31
5119	4.5	3.	0.	119.11
5120	6.	2.5	0.	98.735
5121	4.	2.5	0.	108.02
5122	4.5	2.	0.	118.28
5123	5.	2.	0.	114.04
5124	5.5	2.	0.	111.4
5125	4.5	2.5	0.	117.44
5126	5.	2.5	0.	118.28
5127	5.5	2.5	0.	111.95
5128	5.75	3.	0.	104.91
5129	6.	2.75	0.	96.51
5130	4.25	3.	0.	110.91
5131	4.	2.75	0.	105.4
5132	6.	2.25	0.	95.932
5133	5.75	2.	0.	102.29
5134	4.	2.25	0.	105.64
5135	4.25	2.	0.	110.75
5136	5.25	3.	0.	115.96
5137	5.5	2.75	0.	113.76
5138	4.75	3.	0.	117.71
5139	5.	2.75	0.	117.29
5140	4.5	2.75	0.	118.25
5141	5.75	2.5	0.	105.31
5142	4.25	2.5	0.	112.72
5143	4.75	2.	0.	116.15
5144	4.5	2.25	0.	117.84
5145	5.25	2.	0.	112.71
5146	5.	2.25	0.	116.15
5147	5.5	2.25	0.	111.66
5148	4.75	2.5	0.	117.85
5149	5.25	2.5	0.	115.11
5150	8.	6.	0.	100.58
5151	6.	6.	0.	92.243
5152	8.	4.	0.	99.41
5153	6.	4.	0.	94.871
5154	7.5	6.	0.	114.97
5155	7.	6.	0.	110.8
5156	6.5	6.	0.	109.18
5157	8.	5.5	0.	104.77
5158	8.	5.	0.	103.18
5159	8.	4.5	0.	103.98
5160	6.	5.5	0.	97.496
5161	6.	5.	0.	97.093
5162	6.	4.5	0.	99.039
5163	6.5	4.	0.	112.09
5164	7.	4.	0.	110.46
5165	7.5	4.	0.	113.1
5166	7.	5.	0.	112.07
5167	6.5	5.	0.	106.8
5168	6.5	5.5	0.	107.03
5169	7.	5.5	0.	112.41
5170	7.5	5.5	0.	111.73
5171	7.5	5.	0.	110.47
5172	7.5	4.5	0.	111.
5173	7.	4.5	0.	112.6
5174	6.5	4.5	0.	108.38
5175	7.75	6.	0.	107.68
5176	8.	5.75	0.	102.67
5177	6.25	6.	0.	100.67
5178	6.	5.75	0.	94.843
5179	8.	4.25	0.	101.69
5180	7.75	4.	0.	106.19
5181	6.	4.25	0.	96.921
5182	6.25	4.	0.	103.37
5183	7.25	6.	0.	112.88
5184	7.5	5.75	0.	113.32
5185	6.75	6.	0.	109.98
5186	7.	5.75	0.	111.59
5187	6.5	5.75	0.	108.09
5188	8.	5.25	0.	103.95
5189	7.75	5.5	0.	108.23
5190	8.	4.75	0.	103.55
5191	7.75	5.	0.	106.82
5192	7.75	4.5	0.	107.48
5193	6.	5.25	0.	97.243
5194	6.25	5.5	0.	102.25
5195	6.	4.75	0.	98.014
5196	6.25	5.	0.	101.94
5197	6.25	4.5	0.	103.68
5198	6.75	4.	0.	111.27
5199	6.5	4.25	0.	110.21
5200	7.25	4.	0.	111.78
5201	7.	4.25	0.	111.52
5202	7.5	4.25	0.	112.02
5203	6.75	5.	0.	109.43
5204	7.	5.25	0.	112.24
5205	7.25	5.	0.	111.27
5206	7.	4.75	0.	112.33
5207	6.5	5.25	0.	106.89
5208	6.5	4.75	0.	107.56
5209	6.75	5.5	0.	109.71
5210	7.25	5.5	0.	112.05
5211	7.5	5.25	0.	111.09
5212	7.5	4.75	0.	110.73
5213	7.25	4.5	0.	111.79
5214	6.75	4.5	0.	110.47
5215	8.	-3.	0.	98.338
5216	6.	-3.	0.	92.285
5217	8.	-5.	0.	93.802
5218	6.	-5.	0.	97.038
5219	7.5	-3.	0.	110.97
5220	7.	-3.	0.	106.97
5221	6.5	-3.	0.	106.95
5222	8.	-3.5	0.	101.37
5223	8.	-4.	0.	99.185
5224	8.	-4.5	0.	99.148
5225	6.	-3.5	0.	97.891
5226	6.	-4.	0.	97.683
5227	6.	-4.5	0.	99.721
5228	6.5	-5.	0.	108.81
5229	7.	-5.	0.	104.52
5230	7.5	-5.	0.	105.9
5231	7.	-4.	0.	107.98
5232	6.5	-4.	0.	104.87
5233	6.5	-3.5	0.	105.12
5234	7.	-3.5	0.	108.72
5235	7.5	-3.5	0.	107.52
5236	7.5	-4.	0.	105.71
5237	7.5	-4.5	0.	105.17
5238	7.	-4.5	0.	107.56
5239	6.5	-4.5	0.	105.98
5240	7.75	-3.	0.	104.56
5241	8.	-3.25	0.	99.846
5242	6.25	-3.	0.	99.566
5243	6.	-3.25	0.	95.068
5244	8.	-4.75	0.	96.469
5245	7.75	-5.	0.	99.812
5246	6.	-4.75	0.	98.374
5247	6.25	-5.	0.	102.84
5248	7.25	-3.	0.	108.97
5249	7.5	-3.25	0.	109.22
5250	6.75	-3.	0.	106.96
5251	7.	-3.25	0.	107.84
5252	6.5	-3.25	0.	106.01
5253	8.	-3.75	0.	100.25
5254	7.75	-3.5	0.	104.42
5255	8.	-4.25	0.	99.146
5256	7.75	-4.	0.	102.44
5257	7.75	-4.5	0.	102.15
5258	6.	-3.75	0.	97.76
5259	6.25	-3.5	0.	101.5
5260	6.	-4.25	0.	98.675
5261	6.25	-4.	0.	101.27
5262	6.25	-4.5	0.	102.83
5263	6.75	-5.	0.	106.66
5264	6.5	-4.75	0.	107.37
5265	7.25	-5.	0.	105.2
5266	7.	-4.75	0.	106.02
5267	7.5	-4.75	0.	105.51
5268	6.75	-4.	0.	106.42
5269	7.	-3.75	0.	108.35
5270	7.25	-4.	0.	106.84
5271	7.	-4.25	0.	107.77
5272	6.5	-3.75	0.	104.99
5273	6.5	-4.25	0.	105.42
5274	6.75	-3.5	0.	106.91
5275	7.25	-3.5	0.	108.1
5276	7.5	-3.75	0.	106.61
5277	7.5	-4.25	0.	105.44
5278	7.25	-4.5	0.	106.36
5279	6.75	-4.5	0.	106.76
5280	-8.45	6.76	0.	67.792
5281	-6.9	7.22	0.	71.841
5282	-8.07	8.32	0.	101.82
5283	-7.9333	6.9133	0.	110.97
5284	-7.4167	7.0667	0.	111.86
5285	-8.3233	7.28	0.	104.51
5286	-8.1967	7.8	0.	101.55
5287	-7.29	7.5867	0.	99.828
5288	-7.68	7.9533	0.	95.275
5289	-7.9554	7.2776	0.	101.77
5290	-7.8675	7.6383	0.	103.86
5291	-7.597	7.384	0.	105.1
5292	-8.1917	6.8367	0.	88.749
5293	-8.3867	7.02	0.	85.696
5294	-7.1583	7.1433	0.	88.143
5295	-7.095	7.4033	0.	82.054
5296	-8.1333	8.06	0.	99.227
5297	-7.875	8.1367	0.	96.763
5298	-7.675	6.99	0.	111.29
5299	-7.9444	7.0955	0.	106.35
5300	-7.5068	7.2253	0.	108.11
5301	-8.26	7.54	0.	102.88
5302	-8.1394	7.2788	0.	103.14
5303	-8.0321	7.7191	0.	102.56
5304	-7.485	7.77	0.	97.375
5305	-7.4435	7.4853	0.	102.11
5306	-7.7738	7.7958	0.	99.559
5307	-7.9115	7.4579	0.	102.81
5308	-7.7762	7.3308	0.	103.36
5309	-7.7323	7.5111	0.	104.39
5310	-6.37	-0.73	0.	100.94
5311	-6.94	-2.01	0.	67.945
5312	-5.54	-1.87	0.	79.979
5313	-6.56	-1.1567	0.	92.275
5314	-6.75	-1.5833	0.	102.03
5315	-6.0933	-1.11	0.	97.478
5316	-5.8167	-1.49	0.	101.47
5317	-6.4733	-1.9633	0.	110.45
5318	-6.0067	-1.9167	0.	111.65
5319	-6.3592	-1.5241	0.	98.632
5320	-6.465	-0.94333	0.	95.808
5321	-6.2317	-0.92	0.	98.274
5322	-6.845	-1.7967	0.	84.802
5323	-6.7067	-1.9867	0.	88.987
5324	-5.6783	-1.68	0.	89.954
5325	-5.7733	-1.8933	0.	95.136
5326	-6.655	-1.37	0.	97.12
5327	-6.4596	-1.3404	0.	95.428
5328	-6.5546	-1.5537	0.	100.33
5329	-5.955	-1.3	0.	99.448
5330	-6.2263	-1.3171	0.	98.02
5331	-5.9117	-1.7033	0.	106.44
5332	-6.24	-1.94	0.	111.04
5333	-6.4163	-1.7437	0.	104.53
5334	-6.183	-1.7204	0.	105.11
5335	-6.01	-3.25	0.	59.369
5336	-7.51	-3.13	0.	58.882
5337	-6.87	-4.49	0.	104.81
5338	-6.51	-3.21	0.	109.2
5339	-7.01	-3.17	0.	112.26
5340	-6.2967	-3.6633	0.	94.271
5341	-6.5833	-4.0767	0.	88.834
5342	-7.2967	-3.5833	0.	98.202
5343	-7.0833	-4.0367	0.	91.361
5344	-6.8136	-3.8237	0.	99.068
5345	-6.9616	-3.5093	0.	98.144
5346	-6.6147	-3.537	0.	98.784
5347	-6.26	-3.23	0.	82.6
5348	-6.1533	-3.4567	0.	75.109
5349	-7.26	-3.15	0.	85.112
5350	-7.4033	-3.3567	0.	78.136
5351	-6.7267	-4.2833	0.	95.556
5352	-6.9767	-4.2633	0.	96.49
5353	-6.76	-3.19	0.	110.6
5354	-6.5624	-3.3735	0.	103.79
5355	-6.9858	-3.3396	0.	105.15
5356	-6.44	-3.87	0.	91.485
5357	-6.4557	-3.6002	0.	96.391
5358	-6.6985	-3.9502	0.	93.937
5359	-7.19	-3.81	0.	94.664
5360	-7.1291	-3.5463	0.	98.127
5361	-6.9485	-3.9302	0.	95.144
5362	-6.8876	-3.6665	0.	98.556
5363	-6.7142	-3.6804	0.	98.848
5364	-6.7882	-3.5231	0.	98.362
5365	0.2	5.73	0.	65.157
5366	1.12	4.45	0.	111.82
5367	1.76	5.89	0.	59.587
5368	0.50667	5.3033	0.	100.68
5369	0.81333	4.8767	0.	94.499
5370	0.72	5.7833	0.	117.97
5371	1.24	5.8367	0.	116.75
5372	1.3333	4.93	0.	97.494
5373	1.5467	5.41	0.	102.61
5374	0.83553	5.443	0.	105.74
5375	1.1962	5.48	0.	103.54
5376	1.0482	5.147	0.	105.37
5377	0.35333	5.5167	0.	80.784
5378	0.46	5.7567	0.	89.265
5379	0.96667	4.6633	0.	101.81
5380	1.2267	4.69	0.	102.93
5381	1.5	5.8633	0.	87.843
5382	1.6533	5.65	0.	80.77
5383	0.66	5.09	0.	97.494
5384	0.6711	5.3731	0.	103.05
5385	0.93079	5.0118	0.	99.927
5386	0.98	5.81	0.	117.23
5387	0.77776	5.6131	0.	111.62
5388	1.2181	5.6583	0.	110.09
5389	1.44	5.17	0.	99.908
5390	1.1908	5.0385	0.	101.33
5391	1.3714	5.445	0.	103.02
5392	1.0159	5.4615	0.	104.52
5393	0.94189	5.295	0.	105.47
5394	1.1222	5.3135	0.	104.41
5395	-0.93	-6.57	0.	53.585
5396	0.15	-6.73	0.	56.359
5397	-0.25	-5.71	0.	103.58
5398	-0.39	-6.65	0.	117.04
5399	-0.59	-6.14	0.	81.871
5400	-5.e-002	-6.22	0.	91.843
5401	-0.34333	-6.3368	0.	100.51
5402	-0.66	-6.61	0.	83.303
5403	-0.76	-6.355	0.	64.818
5404	-0.12	-6.69	0.	86.664
5405	5.e-002	-6.475	0.	73.838
5406	-0.42	-5.925	0.	92.208
5407	-0.15	-5.965	0.	96.213
5408	-0.36667	-6.4934	0.	108.64
5409	-0.46667	-6.2384	0.	90.682
5410	-0.19667	-6.2784	0.	95.864
5411	-1.24	-0.68	0.	94.622
5412	-0.91	0.99	0.	69.448
5413	-2.52	0.43	0.	77.489
5414	-1.1575	-0.2625	0.	100.28
5415	-1.075	0.155	0.	99.651
5416	-0.9925	0.5725	0.	103.96
5417	-1.56	-0.4025	0.	97.312
5418	-1.88	-0.125	0.	102.15
5419	-2.2	0.1525	0.	106.16
5420	-1.3125	0.85	0.	110.43
5421	-1.715	0.71	0.	105.57
5422	-2.1175	0.57	0.	113.75
5423	-1.2945	0.54689	0.	100.26
5424	-1.8495	0.2068	0.	106.
5425	-1.586	0.42967	0.	105.48
5426	-1.4871	-6.1494e-002	0.	101.96
5427	-1.3577	0.24008	0.	102.87
5428	-1.1988	-0.47125	0.	95.405
5429	-1.4	-0.54125	0.	94.18
5430	-0.95125	0.78125	0.	86.083
5431	-1.1113	0.92	0.	89.199
5432	-2.36	0.29125	0.	87.871
5433	-2.3187	0.5	0.	91.938
5434	-1.1163	-5.375e-002	0.	99.875
5435	-1.3223	-0.162	0.	101.06
5436	-1.0338	0.36375	0.	101.79
5437	-1.2163	0.19754	0.	101.25
5438	-1.1435	0.5597	0.	102.11
5439	-1.72	-0.26375	0.	99.733
5440	-1.5235	-0.232	0.	99.593
5441	-2.04	1.375e-002	0.	104.11
5442	-1.8648	4.0899e-002	0.	104.04
5443	-2.0248	0.17965	0.	105.92
5444	-1.5137	0.78	0.	107.94
5445	-1.3035	0.69845	0.	105.3
5446	-1.9162	0.64	0.	109.61
5447	-1.6505	0.56984	0.	105.52
5448	-1.9835	0.3884	0.	109.61
5449	-1.4402	0.48828	0.	102.85
5450	-1.3261	0.39349	0.	101.54
5451	-1.7178	0.31823	0.	105.65
5452	-1.6683	7.2652e-002	0.	103.9
5453	-1.4718	0.33487	0.	104.16
5454	-1.4224	8.9292e-002	0.	102.41
5455	6.7	-6.99	0.	56.847
5456	7.7	-8.33	0.	104.02
5457	8.36	-6.8	0.	60.577
5458	6.95	-7.325	0.	93.206
5459	7.2	-7.66	0.	94.94
5460	7.45	-7.995	0.	90.538
5461	7.115	-6.9425	0.	111.1
5462	7.53	-6.895	0.	101.78
5463	7.945	-6.8475	0.	108.
5464	7.92	-7.82	0.	93.652
5465	8.14	-7.31	0.	101.69
5466	7.2206	-7.2151	0.	99.908
5467	7.4058	-7.4531	0.	96.843
5468	7.6587	-7.6376	0.	99.421
5469	7.5205	-7.1868	0.	100.95
5470	7.8281	-7.2446	0.	97.8
5471	6.825	-7.1575	0.	72.475
5472	6.9075	-6.9662	0.	81.571
5473	7.575	-8.1625	0.	96.083
5474	7.81	-8.075	0.	97.026
5475	8.1525	-6.8238	0.	83.884
5476	8.25	-7.055	0.	80.642
5477	7.075	-7.4925	0.	94.028
5478	7.0853	-7.27	0.	96.38
5479	7.325	-7.8275	0.	92.69
5480	7.3029	-7.5566	0.	95.887
5481	7.5543	-7.8163	0.	94.94
5482	7.3225	-6.9187	0.	106.41
5483	7.1678	-7.0788	0.	105.28
5484	7.7375	-6.8713	0.	104.89
5485	7.5253	-7.0409	0.	101.36
5486	7.8866	-7.046	0.	102.89
5487	8.03	-7.565	0.	97.637
5488	7.7893	-7.7288	0.	96.506
5489	7.9841	-7.2773	0.	99.703
5490	7.3132	-7.3341	0.	98.27
5491	7.3706	-7.2009	0.	100.35
5492	7.5322	-7.5454	0.	98.131
5493	7.4632	-7.3199	0.	98.881
5494	7.7434	-7.4411	0.	98.576
5495	7.6743	-7.2157	0.	99.355
5496	6.81	-0.25	0.	58.062
5497	5.16	-0.26	0.	58.709
5498	6.	-1.68	0.	105.64
5499	6.26	-0.25333	0.	109.32
5500	5.71	-0.25667	0.	109.95
5501	6.54	-0.72667	0.	94.186
5502	6.27	-1.2033	0.	88.822
5503	5.44	-0.73333	0.	95.363
5504	5.72	-1.2067	0.	89.245
5505	6.1796	-0.61901	0.	96.746
5506	5.9923	-0.94964	0.	98.327
5507	5.7981	-0.62131	0.	97.767
5508	6.535	-0.25167	0.	82.924
5509	6.675	-0.48833	0.	75.371
5510	5.435	-0.25833	0.	83.119
5511	5.3	-0.49667	0.	75.862
5512	6.135	-1.4417	0.	95.908
5513	5.86	-1.4433	0.	96.193
5514	5.985	-0.255	0.	109.51
5515	6.2198	-0.43617	0.	102.96
5516	5.754	-0.43899	0.	103.7
5517	6.405	-0.965	0.	91.355
5518	6.3598	-0.67284	0.	95.385
5519	6.1312	-1.0765	0.	93.505
5520	5.58	-0.97	0.	92.236
5521	5.619	-0.67732	0.	96.467
5522	5.8562	-1.0782	0.	93.762
5523	6.0859	-0.78432	0.	97.483
5524	5.9888	-0.62016	0.	97.153
5525	5.8952	-0.78547	0.	97.986
5526	6.05	8.89	0.	100.41
5527	4.89	7.65	0.	81.575
5528	6.54	7.26	0.	70.337
5529	5.76	8.58	0.	100.9
5530	5.47	8.27	0.	106.58
5531	5.18	7.96	0.	113.33
5532	6.1725	8.4825	0.	98.405
5533	6.295	8.075	0.	100.5
5534	6.4175	7.6675	0.	99.706
5535	5.3025	7.5525	0.	118.3
5536	5.715	7.455	0.	110.73
5537	6.1275	7.3575	0.	108.29
5538	5.9329	7.7455	0.	104.
5539	5.5808	7.9431	0.	108.22
5540	5.9181	8.2578	0.	104.13
5541	5.905	8.735	0.	99.505
5542	6.1112	8.6862	0.	98.252
5543	5.035	7.805	0.	95.858
5544	5.0963	7.6013	0.	98.301
5545	6.4788	7.4637	0.	84.897
5546	6.3337	7.3088	0.	89.211
5547	5.615	8.425	0.	103.74
5548	5.839	8.4189	0.	102.47
5549	5.325	8.115	0.	109.93
5550	5.5254	8.1065	0.	107.4
5551	5.3804	7.9515	0.	110.72
5552	6.2337	8.2788	0.	99.356
5553	6.0453	8.3701	0.	101.22
5554	6.3562	7.8713	0.	100.1
5555	6.1139	7.9102	0.	102.25
5556	6.1065	8.1664	0.	102.31
5557	6.2725	7.5125	0.	103.94
5558	5.5087	7.5037	0.	114.51
5559	5.4417	7.7478	0.	113.19
5560	5.9212	7.4062	0.	109.49
5561	5.8239	7.6002	0.	107.36
5562	6.0302	7.5515	0.	106.13
5563	5.7568	7.8443	0.	106.03
5564	5.7494	8.1004	0.	106.14
5565	-8.	0.	0.	96.197
5566	-9.	0.	0.	98.709
5567	-8.	-2.	0.	97.597
5568	-9.	-2.	0.	99.18
5569	-8.5	0.	0.	111.71
5570	-8.	-0.5	0.	101.
5571	-8.	-1.	0.	99.586
5572	-8.	-1.5	0.	100.54
5573	-9.	-0.5	0.	102.74
5574	-9.	-1.	0.	101.94
5575	-9.	-1.5	0.	102.96
5576	-8.5	-2.	0.	113.83
5577	-8.5	-0.5	0.	106.56
5578	-8.5	-1.	0.	104.29
5579	-8.5	-1.5	0.	106.77
5580	-8.25	0.	0.	103.9
5581	-8.	-0.25	0.	98.595
5582	-8.75	0.	0.	105.17
5583	-9.	-0.25	0.	100.73
5584	-8.	-1.75	0.	99.041
5585	-8.25	-2.	0.	105.6
5586	-9.	-1.75	0.	101.06
5587	-8.75	-2.	0.	106.44
5588	-8.5	-0.25	0.	109.09
5589	-8.	-0.75	0.	100.25
5590	-8.25	-0.5	0.	103.74
5591	-8.	-1.25	0.	99.972
5592	-8.25	-1.	0.	101.94
5593	-8.25	-1.5	0.	103.57
5594	-9.	-0.75	0.	102.32
5595	-8.75	-0.5	0.	104.61
5596	-9.	-1.25	0.	102.42
5597	-8.75	-1.	0.	103.12
5598	-8.75	-1.5	0.	104.8
5599	-8.5	-1.75	0.	110.25
5600	-8.5	-0.75	0.	105.42
5601	-8.5	-1.25	0.	105.52
