Node Number	X Location (mm)	Y Location (mm)	Z Location (mm)	Equivalent (von-Mises) Stress (MPa)
1	-8.	4.	0.	132.29
2	-8.	2.	0.	134.41
3	-6.	4.	0.	135.51
4	-6.	2.	0.	134.55
5	3.	-4.	0.	132.26
6	3.	-5.	0.	132.1
7	4.	-4.	0.	128.44
8	4.	-5.	0.	123.9
9	-4.	8.	0.	134.6
10	-4.	7.	0.	136.67
11	-3.	8.	0.	132.28
12	-3.	7.	0.	131.29
13	1.	-6.	0.	139.2
14	1.	-8.	0.	133.52
15	2.	-6.	0.	140.54
16	2.	-8.	0.	137.41
17	-7.	-1.	0.	128.91
18	-7.	-3.	0.	130.72
19	-6.	-1.	0.	129.85
20	-6.	-3.	0.	133.36
21	-5.	-3.	0.	140.01
22	-5.	-4.	0.	137.51
23	-3.	-3.	0.	138.75
24	-3.	-4.	0.	136.09
25	-1.	3.	0.	139.74
26	-1.	1.	0.	135.84
27	1.	3.	0.	137.64
28	1.	1.	0.	137.04
29	-4.	5.	0.	138.23
30	-4.	4.	0.	138.33
31	-2.	5.	0.	137.1
32	-2.	4.	0.	141.32
33	-1.	-4.	0.	134.42
34	-1.	-6.	0.	138.38
35	0.	-4.	0.	134.04
36	0.	-6.	0.	138.91
37	-7.	9.	0.	135.6
38	-7.	8.	0.	137.
39	-5.	9.	0.	140.17
40	-5.	8.	0.	139.96
41	6.	5.	0.	127.31
42	6.	3.	0.	130.37
43	7.	5.	0.	130.97
44	7.	3.	0.	130.37
45	8.	-1.	0.	133.61
46	8.	-3.	0.	135.1
47	9.	-1.	0.	135.3
48	9.	-3.	0.	135.36
49	8.	7.	0.	134.44
50	8.	5.	0.	138.47
51	9.	7.	0.	134.69
52	9.	5.	0.	135.74
53	3.	-6.	0.	133.28
54	3.	-8.	0.	137.16
55	5.	-6.	0.	138.74
56	5.	-8.	0.	136.89
57	6.	7.	0.	132.36
58	6.	6.	0.	127.43
59	7.	7.	0.	135.09
60	7.	6.	0.	130.93
61	-5.	-7.	0.	134.38
62	-5.	-9.	0.	133.81
63	-3.	-7.	0.	135.36
64	-3.	-9.	0.	134.2
65	4.	1.	0.	136.03
66	4.	-1.	0.	136.07
67	6.	1.	0.	134.27
68	6.	-1.	0.	134.43
69	-9.	7.	0.	140.07
70	-9.	6.	0.	139.14
71	-7.	7.	0.	135.85
72	-7.	6.	0.	130.19
73	6.	-6.	0.	140.6
74	6.	-7.	0.	139.71
75	8.	-6.	0.	136.51
76	8.	-7.	0.	136.63
77	-9.	-5.	0.	139.67
78	-9.	-7.	0.	139.23
79	-7.	-5.	0.	137.02
80	-7.	-7.	0.	137.81
81	10.	10.	0.	124.95
82	-10.	10.	0.	124.98
83	10.	-10.	0.	131.39
84	-10.	-10.	0.	128.54
85	-8.	3.5	0.	142.56
86	-8.	3.	0.	144.64
87	-8.	2.5	0.	143.89
88	-7.5	4.	0.	110.7
89	-7.	4.	0.	116.23
90	-6.5	4.	0.	113.4
91	-7.5	2.	0.	112.92
92	-7.	2.	0.	116.52
93	-6.5	2.	0.	112.02
94	-6.	3.5	0.	144.55
95	-6.	3.	0.	145.65
96	-6.	2.5	0.	144.
97	3.	-4.5	0.	141.43
98	3.5	-4.	0.	108.02
99	3.5	-5.	0.	105.41
100	4.	-4.5	0.	135.52
101	-4.	7.5	0.	147.37
102	-3.5	8.	0.	109.87
103	-3.5	7.	0.	111.31
104	-3.	7.5	0.	141.18
105	1.	-6.5	0.	148.77
106	1.	-7.	0.	147.08
107	1.	-7.5	0.	144.59
108	1.5	-6.	0.	112.63
109	1.5	-8.	0.	110.4
110	2.	-6.5	0.	146.42
111	2.	-7.	0.	146.28
112	2.	-7.5	0.	144.7
113	-7.	-1.5	0.	138.25
114	-7.	-2.	0.	139.
115	-7.	-2.5	0.	138.45
116	-6.5	-1.	0.	105.52
117	-6.5	-3.	0.	106.77
118	-6.	-1.5	0.	141.5
119	-6.	-2.	0.	144.13
120	-6.	-2.5	0.	144.86
121	-5.	-3.5	0.	149.53
122	-4.5	-3.	0.	119.76
123	-4.	-3.	0.	124.53
124	-3.5	-3.	0.	119.18
125	-4.5	-4.	0.	118.31
126	-4.	-4.	0.	122.42
127	-3.5	-4.	0.	117.35
128	-3.	-3.5	0.	146.7
129	-1.	2.5	0.	147.07
130	-1.	2.	0.	147.01
131	-1.	1.5	0.	145.15
132	-0.5	3.	0.	116.41
133	0.	3.	0.	120.13
134	0.5	3.	0.	115.3
135	-0.5	1.	0.	114.7
136	0.	1.	0.	119.17
137	0.5	1.	0.	114.92
138	1.	2.5	0.	146.78
139	1.	2.	0.	147.94
140	1.	1.5	0.	146.46
141	-4.	4.5	0.	147.66
142	-3.5	5.	0.	118.98
143	-3.	5.	0.	124.41
144	-2.5	5.	0.	120.03
145	-3.5	4.	0.	119.36
146	-3.	4.	0.	125.21
147	-2.5	4.	0.	120.87
148	-2.	4.5	0.	147.74
149	-1.	-4.5	0.	145.7
150	-1.	-5.	0.	147.68
151	-1.	-5.5	0.	147.97
152	-0.5	-4.	0.	109.69
153	-0.5	-6.	0.	111.99
154	0.	-4.5	0.	145.08
155	0.	-5.	0.	147.84
156	0.	-5.5	0.	149.05
157	-7.	8.5	0.	143.8
158	-6.5	9.	0.	121.77
159	-6.	9.	0.	129.07
160	-5.5	9.	0.	122.74
161	-6.5	8.	0.	122.79
162	-6.	8.	0.	129.24
163	-5.5	8.	0.	122.71
164	-5.	8.5	0.	150.31
165	6.	4.5	0.	137.83
166	6.	4.	0.	138.28
167	6.	3.5	0.	137.64
168	6.5	5.	0.	101.99
169	6.5	3.	0.	106.64
170	7.	4.5	0.	142.65
171	7.	4.	0.	142.13
172	7.	3.5	0.	140.49
173	8.	-1.5	0.	144.47
174	8.	-2.	0.	145.42
175	8.	-2.5	0.	144.62
176	8.5	-1.	0.	109.3
177	8.5	-3.	0.	110.21
178	9.	-1.5	0.	145.84
179	9.	-2.	0.	146.93
180	9.	-2.5	0.	146.23
181	8.	6.5	0.	142.55
182	8.	6.	0.	147.22
183	8.	5.5	0.	149.68
184	8.5	7.	0.	109.68
185	8.5	5.	0.	111.4
186	9.	6.5	0.	145.45
187	9.	6.	0.	146.74
188	9.	5.5	0.	146.27
189	3.	-6.5	0.	144.12
190	3.	-7.	0.	146.79
191	3.	-7.5	0.	145.29
192	3.5	-6.	0.	108.07
193	4.	-6.	0.	114.48
194	4.5	-6.	0.	114.64
195	3.5	-8.	0.	113.68
196	4.	-8.	0.	117.73
197	4.5	-8.	0.	114.02
198	5.	-6.5	0.	143.38
199	5.	-7.	0.	146.69
200	5.	-7.5	0.	147.37
201	6.	6.5	0.	140.03
202	6.5	7.	0.	109.99
203	6.5	6.	0.	103.92
204	7.	6.5	0.	142.76
205	-5.	-7.5	0.	144.38
206	-5.	-8.	0.	145.86
207	-5.	-8.5	0.	144.38
208	-4.5	-7.	0.	111.39
209	-4.	-7.	0.	115.54
210	-3.5	-7.	0.	111.94
211	-4.5	-9.	0.	111.53
212	-4.	-9.	0.	114.89
213	-3.5	-9.	0.	111.67
214	-3.	-7.5	0.	144.47
215	-3.	-8.	0.	145.47
216	-3.	-8.5	0.	144.18
217	4.	0.5	0.	145.42
218	4.	0.	0.	146.52
219	4.	-0.5	0.	145.04
220	4.5	1.	0.	115.06
221	5.	1.	0.	118.53
222	5.5	1.	0.	112.72
223	4.5	-1.	0.	112.99
224	5.	-1.	0.	117.57
225	5.5	-1.	0.	113.66
226	6.	0.5	0.	143.14
227	6.	0.	0.	145.12
228	6.	-0.5	0.	144.23
229	-9.	6.5	0.	149.51
230	-8.5	7.	0.	120.6
231	-8.	7.	0.	126.58
232	-7.5	7.	0.	120.74
233	-8.5	6.	0.	120.45
234	-8.	6.	0.	122.79
235	-7.5	6.	0.	114.88
236	-7.	6.5	0.	140.88
237	6.	-6.5	0.	147.94
238	6.5	-6.	0.	119.79
239	7.	-6.	0.	124.11
240	7.5	-6.	0.	118.36
241	6.5	-7.	0.	118.38
242	7.	-7.	0.	123.32
243	7.5	-7.	0.	118.2
244	8.	-6.5	0.	145.77
245	-9.	-5.5	0.	150.82
246	-9.	-6.	0.	152.53
247	-9.	-6.5	0.	150.53
248	-8.5	-5.	0.	117.99
249	-8.	-5.	0.	121.47
250	-7.5	-5.	0.	115.79
251	-8.5	-7.	0.	116.75
252	-8.	-7.	0.	120.65
253	-7.5	-7.	0.	115.91
254	-7.	-5.5	0.	147.38
255	-7.	-6.	0.	149.22
256	-7.	-6.5	0.	147.76
257	9.5	10.	0.	124.86
258	9.	10.	0.	124.32
259	8.5	10.	0.	123.7
260	8.	10.	0.	123.28
261	7.5	10.	0.	123.11
262	7.	10.	0.	123.16
263	6.5	10.	0.	123.46
264	6.	10.	0.	123.99
265	5.5	10.	0.	124.68
266	5.	10.	0.	125.38
267	4.5	10.	0.	125.93
268	4.	10.	0.	126.27
269	3.5	10.	0.	126.44
270	3.	10.	0.	126.48
271	2.5	10.	0.	126.45
272	2.	10.	0.	126.37
273	1.5	10.	0.	126.29
274	1.	10.	0.	126.23
275	0.5	10.	0.	126.2
276	-5.2042e-015	10.	0.	126.2
277	-0.5	10.	0.	126.24
278	-1.	10.	0.	126.27
279	-1.5	10.	0.	126.2
280	-2.	10.	0.	125.85
281	-2.5	10.	0.	125.17
282	-3.	10.	0.	124.66
283	-3.5	10.	0.	125.15
284	-4.	10.	0.	127.11
285	-4.5	10.	0.	127.92
286	-5.	10.	0.	124.84
287	-5.5	10.	0.	121.02
288	-6.	10.	0.	118.72
289	-6.5	10.	0.	119.86
290	-7.	10.	0.	122.8
291	-7.5	10.	0.	125.97
292	-8.	10.	0.	126.38
293	-8.5	10.	0.	125.43
294	-9.	10.	0.	125.11
295	-9.5	10.	0.	125.03
296	10.	9.5	0.	125.21
297	10.	9.	0.	126.64
298	10.	8.5	0.	129.22
299	10.	8.	0.	132.7
300	10.	7.5	0.	134.63
301	10.	7.	0.	132.98
302	10.	6.5	0.	130.65
303	10.	6.	0.	131.17
304	10.	5.5	0.	130.98
305	10.	5.	0.	133.33
306	10.	4.5	0.	134.79
307	10.	4.	0.	132.89
308	10.	3.5	0.	129.99
309	10.	3.	0.	128.38
310	10.	2.5	0.	127.73
311	10.	2.	0.	127.44
312	10.	1.5	0.	127.34
313	10.	1.	0.	127.73
314	10.	0.5	0.	129.21
315	10.	-5.2042e-015	0.	132.07
316	10.	-0.5	0.	134.01
317	10.	-1.	0.	132.98
318	10.	-1.5	0.	131.55
319	10.	-2.	0.	133.03
320	10.	-2.5	0.	133.81
321	10.	-3.	0.	137.11
322	10.	-3.5	0.	139.38
323	10.	-4.	0.	137.78
324	10.	-4.5	0.	134.48
325	10.	-5.	0.	131.44
326	10.	-5.5	0.	128.32
327	10.	-6.	0.	125.43
328	10.	-6.5	0.	124.06
329	10.	-7.	0.	125.06
330	10.	-7.5	0.	127.41
331	10.	-8.	0.	129.56
332	10.	-8.5	0.	130.76
333	10.	-9.	0.	131.24
334	10.	-9.5	0.	131.37
335	-10.	9.5	0.	124.92
336	-10.	9.	0.	125.49
337	-10.	8.5	0.	127.47
338	-10.	8.	0.	130.62
339	-10.	7.5	0.	131.71
340	-10.	7.	0.	128.46
341	-10.	6.5	0.	126.13
342	-10.	6.	0.	132.96
343	-10.	5.5	0.	139.33
344	-10.	5.	0.	139.45
345	-10.	4.5	0.	135.65
346	-10.	4.	0.	131.3
347	-10.	3.5	0.	127.89
348	-10.	3.	0.	126.48
349	-10.	2.5	0.	127.26
350	-10.	2.	0.	129.63
351	-10.	1.5	0.	132.22
352	-10.	1.	0.	133.74
353	-10.	0.5	0.	133.79
354	-10.	-5.2042e-015	0.	132.75
355	-10.	-0.5	0.	131.14
356	-10.	-1.	0.	129.48
357	-10.	-1.5	0.	128.25
358	-10.	-2.	0.	127.9
359	-10.	-2.5	0.	128.76
360	-10.	-3.	0.	130.98
361	-10.	-3.5	0.	134.51
362	-10.	-4.	0.	138.71
363	-10.	-4.5	0.	140.4
364	-10.	-5.	0.	137.08
365	-10.	-5.5	0.	132.62
366	-10.	-6.	0.	131.85
367	-10.	-6.5	0.	131.62
368	-10.	-7.	0.	135.31
369	-10.	-7.5	0.	138.31
370	-10.	-8.	0.	136.89
371	-10.	-8.5	0.	133.33
372	-10.	-9.	0.	130.57
373	-10.	-9.5	0.	129.02
374	-9.5	-10.	0.	127.78
375	-9.	-10.	0.	125.93
376	-8.5	-10.	0.	124.31
377	-8.	-10.	0.	123.9
378	-7.5	-10.	0.	125.1
379	-7.	-10.	0.	127.73
380	-6.5	-10.	0.	131.04
381	-6.	-10.	0.	133.89
382	-5.5	-10.	0.	132.35
383	-5.	-10.	0.	122.76
384	-4.5	-10.	0.	112.36
385	-4.	-10.	0.	108.48
386	-3.5	-10.	0.	112.66
387	-3.	-10.	0.	123.57
388	-2.5	-10.	0.	134.07
389	-2.	-10.	0.	137.01
390	-1.5	-10.	0.	136.
391	-1.	-10.	0.	134.57
392	-0.5	-10.	0.	133.05
393	5.2042e-015	-10.	0.	131.19
394	0.5	-10.	0.	128.65
395	1.	-10.	0.	125.93
396	1.5	-10.	0.	124.41
397	2.	-10.	0.	124.38
398	2.5	-10.	0.	124.13
399	3.	-10.	0.	122.07
400	3.5	-10.	0.	119.19
401	4.	-10.	0.	117.71
402	4.5	-10.	0.	118.85
403	5.	-10.	0.	121.85
404	5.5	-10.	0.	124.8
405	6.	-10.	0.	126.2
406	6.5	-10.	0.	126.18
407	7.	-10.	0.	125.77
408	7.5	-10.	0.	125.8
409	8.	-10.	0.	126.47
410	8.5	-10.	0.	127.56
411	9.	-10.	0.	128.78
412	9.5	-10.	0.	130.04
413	2.5	6.	0.	125.97
414	2.	6.	0.	125.44
415	2.5	6.5	0.	125.6
416	3.	6.	0.	126.34
417	2.5	5.5	0.	126.58
418	3.	5.5	0.	126.87
419	3.	5.	0.	127.47
420	1.	6.	0.	124.09
421	1.	6.5	0.	124.35
422	2.	6.5	0.	125.17
423	0.5	6.	0.	123.83
424	3.	6.5	0.	125.96
425	3.5	6.	0.	126.67
426	3.5	4.5	0.	127.44
427	2.	5.5	0.	125.97
428	-3.5	-4.3403e-011	0.	127.72
429	-0.5	-1.5	0.	122.81
430	9.2422e-011	6.5	0.	124.78
431	1.	-1.5	0.	125.73
432	2.5	5.	0.	127.46
433	0.5	5.5	0.	122.92
434	3.5	4.	0.	127.4
435	3.	4.5	0.	128.08
436	5.1812e-011	-1.	0.	121.18
437	-3.	-0.5	0.	128.06
438	3.5	6.5	0.	126.26
439	-3.5	-0.5	0.	127.14
440	-4.	-5.4994e-011	0.	127.75
441	4.6623e-011	7.	0.	124.75
442	-3.5	1.5	0.	125.17
443	-4.	0.5	0.	127.84
444	1.5	-2.	0.	128.52
445	4.	4.	0.	126.38
446	-3.	2.	0.	123.13
447	3.9119e-011	-1.5	0.	122.45
448	3.5	5.5	0.	127.1
449	3.5	5.	0.	127.37
450	1.5	5.5	0.	124.96
451	1.	5.5	0.	123.75
452	-3.5	1.	0.	126.57
453	-3.5	0.5	0.	127.51
454	1.	7.	0.	124.52
455	1.5	7.	0.	124.75
456	2.	7.	0.	125.08
457	3.	7.	0.	125.76
458	-1.	-1.5	0.	124.69
459	1.	-2.	0.	126.78
460	1.3338e-010	6.	0.	124.37
461	4.	6.	0.	127.1
462	4.	4.5	0.	127.03
463	1.5	-1.5	0.	127.8
464	0.5	-1.	0.	122.39
465	2.	5.	0.	126.93
466	0.5	5.	0.	121.64
467	3.5	3.5	0.	127.38
468	3.	4.	0.	128.65
469	-2.	-1.	0.	128.73
470	-0.5	-1.	0.	121.98
471	-3.	1.5	0.	124.89
472	3.5	7.	0.	126.07
473	4.	6.5	0.	126.53
474	-3.5	-1.	0.	125.9
475	-4.	-0.5	0.	126.9
476	-0.5	7.	0.	125.18
477	-3.5	2.	0.	123.65
478	-4.	1.	0.	127.36
479	2.	-2.	0.	129.49
480	4.	3.5	0.	125.78
481	2.5	4.5	0.	128.62
482	1.5	-2.5	0.	129.44
483	-4.5	0.5	0.	128.38
484	-2.5	2.	0.	124.65
485	-3.	2.5	0.	121.42
486	-0.5	6.5	0.	125.77
487	-1.5	-1.5	0.	127.23
488	-0.5	-2.	0.	122.83
489	4.5	4.	0.	126.03
490	-4.	-5.5	0.	113.35
491	1.4187e-010	4.5	0.	118.81
492	2.6829e-011	-2.	0.	123.
493	1.5485e-010	5.5	0.	123.18
494	-3.	-1.	0.	127.46
495	4.	5.5	0.	127.59
496	4.	5.	0.	127.55
497	2.	-1.5	0.	129.28
498	1.	-1.	0.	124.92
499	1.5	-1.	0.	127.51
500	1.	5.	0.	123.49
501	3.	3.	0.	129.5
502	3.	3.5	0.	129.07
503	-1.5	-1.	0.	127.07
504	-1.	-1.	0.	124.37
505	-3.	1.	0.	126.62
506	-3.	0.5	0.	127.88
507	4.	7.	0.	126.39
508	3.5	3.	0.	127.59
509	-4.	-1.	0.	125.26
510	6.	-3.5	0.	124.73
511	-1.	7.	0.	125.59
512	4.5759e-011	-1.0291e-011	0.	116.37
513	1.0807e-010	4.	0.	116.34
514	2.	2.	0.	133.49
515	-4.	-6.	0.	111.63
516	3.	4.0023e-012	0.	132.68
517	5.	4.	0.	127.09
518	-4.	-5.	0.	114.33
519	-1.	-2.	0.	124.63
520	-1.5	-2.	0.	127.62
521	-1.	6.5	0.	126.94
522	-3.	3.	0.	119.79
523	7.	-4.5	0.	123.41
524	7.	-5.	0.	120.89
525	6.	-4.	0.	125.23
526	5.5	-3.	0.	122.08
527	-4.5	-5.709e-011	0.	128.17
528	1.5	-3.	0.	130.17
529	-4.5	-5.5	0.	115.68
530	-3.5	-5.5	0.	116.12
531	-2.5	2.5	0.	123.55
532	6.5	-4.5	0.	124.59
533	-2.5	-1.8754e-011	0.	129.39
534	-2.5	1.5	0.	126.09
535	-0.5	-0.5	0.	120.54
536	-2.	-0.5	0.	129.21
537	2.5	4.	0.	129.85
538	2.5	2.5	0.	131.44
539	0.5	4.5	0.	120.18
540	2.	4.5	0.	128.51
541	2.	-0.5	0.	129.94
542	0.5	-0.5	0.	120.8
543	2.5	1.9629e-012	0.	131.53
544	3.	2.5	0.	130.33
545	2.5	2.	0.	132.09
546	5.5	-2.5	0.	119.91
547	2.5	-0.5	0.	130.75
548	4.5	3.5	0.	124.87
549	4.	3.	0.	125.38
550	4.5	4.5	0.	127.22
551	2.	-2.5	0.	129.86
552	5.	-2.5	0.	118.25
553	2.5	-2.	0.	129.53
554	-2.	-1.5	0.	129.16
555	-4.5	1.	0.	128.44
556	6.5	-4.	0.	125.58
557	6.	-3.	0.	124.11
558	-1.5	7.5	0.	124.68
559	-0.5	7.5	0.	124.73
560	0.5	7.5	0.	124.6
561	1.	7.5	0.	124.66
562	1.5	7.5	0.	124.84
563	2.	7.5	0.	125.1
564	2.5	7.5	0.	125.39
565	3.	7.5	0.	125.71
566	3.5	7.5	0.	126.07
567	4.	7.5	0.	126.52
568	-0.5	6.	0.	125.93
569	-0.5	4.5	0.	120.67
570	-4.	1.5	0.	126.48
571	-4.	2.	0.	125.55
572	-0.5	-2.5	0.	121.77
573	1.	-2.5	0.	128.09
574	-5.	0.5	0.	128.03
575	-6.5	0.5	0.	115.09
576	-7.	1.	0.	113.1
577	-7.5	0.5	0.	118.85
578	0.5	-2.5	0.	125.69
579	1.7181e-011	-2.5	0.	122.87
580	-4.5	2.5	0.	128.25
581	-4.	2.5	0.	125.13
582	-0.5	5.5	0.	125.02
583	6.5	-3.5	0.	126.34
584	-4.5	1.5	0.	128.26
585	-4.5	2.	0.	127.86
586	-5.5	0.5	0.	125.06
587	3.	-2.5	0.	125.92
588	2.5	-2.5	0.	128.74
589	4.5	6.	0.	127.79
590	4.5	5.5	0.	128.67
591	4.5	5.	0.	128.27
592	3.5	-2.5	0.	122.62
593	4.	-2.5	0.	120.31
594	2.5	-1.	0.	130.32
595	2.5	-1.5	0.	130.16
596	6.5	-2.5	0.	127.43
597	3.5	2.5	0.	128.37
598	2.5	1.	0.	132.58
599	1.5	-0.5	0.	128.03
600	1.	4.5	0.	123.64
601	2.5	3.	0.	131.01
602	2.5	3.5	0.	130.73
603	-1.5	-0.5	0.	127.58
604	-1.	-0.5	0.	124.14
605	-2.5	1.	0.	127.69
606	-2.5	0.5	0.	129.05
607	6.5	-5.	0.	123.44
608	-0.5	4.	0.	119.08
609	-2.5	3.	0.	122.66
610	-4.	-2.	0.	120.53
611	-3.	-5.5	0.	122.65
612	-2.5	-5.5	0.	129.5
613	7.	-2.5	0.	130.53
614	-6.5	1.	0.	114.88
615	-5.	-5.5	0.	121.61
616	-5.5	-5.5	0.	127.76
617	-6.	-5.5	0.	131.8
618	-3.5	-5.	0.	116.78
619	5.	3.5	0.	125.14
620	3.	-0.5	0.	131.57
621	5.5	-2.	0.	117.44
622	7.	0.5	0.	127.96
623	4.5	2.	0.	119.83
624	-4.5	-6.	0.	114.34
625	0.5	-6.6708e-012	0.	118.88
626	2.	2.5	0.	132.66
627	-2.	1.5	0.	128.62
628	-1.5	7.	0.	125.73
629	7.5	0.5	0.	125.56
630	1.5	-3.5	0.	129.86
631	1.5	-4.	0.	128.09
632	-4.5	-0.5	0.	127.49
633	-4.5	-1.	0.	126.04
634	5.5	-3.5	0.	123.61
635	5.5	-4.	0.	124.57
636	6.	-4.5	0.	126.23
637	5.5	-4.5	0.	126.45
638	-1.	4.5	0.	124.47
639	-7.5	-8.	0.	119.23
640	-8.	-8.	0.	116.85
641	-7.5	5.	0.	113.47
642	-1.	-8.	0.	128.2
643	-1.5	-8.	0.	129.57
644	-2.	-8.	0.	131.82
645	7.	-8.	0.	120.25
646	7.5	-8.	0.	121.55
647	-0.5	-8.	0.	128.07
648	7.5	-5.	0.	121.39
649	-7.5	1.	0.	116.57
650	-8.	-2.5	0.	125.46
651	-8.	-2.	0.	127.
652	-8.	0.5	0.	124.02
653	-4.5	-1.5	0.	124.28
654	-1.5	-7.5	0.	129.29
655	-1.	-7.5	0.	126.48
656	-0.5	-7.5	0.	125.5
657	-5.5	6.	0.	128.69
658	-8.	-1.5	0.	126.94
659	-8.	-1.1478e-012	0.	125.57
660	-6.5	-1.2207e-011	0.	113.55
661	-5.	-5.0248e-011	0.	128.16
662	-0.5	-3.	0.	119.
663	1.	-3.	0.	129.66
664	-3.5	3.	0.	121.11
665	-5.	3.	0.	132.66
666	-1.	6.	0.	128.32
667	5.	6.5	0.	126.55
668	-1.5	8.	0.	124.74
669	-1.	8.	0.	124.64
670	-0.5	8.	0.	124.65
671	-1.0242e-011	8.	0.	124.68
672	0.5	8.	0.	124.74
673	1.	8.	0.	124.85
674	1.5	8.	0.	125.
675	2.	8.	0.	125.21
676	2.5	8.	0.	125.45
677	3.	8.	0.	125.74
678	3.5	8.	0.	126.09
679	4.	8.	0.	126.56
680	4.5	8.	0.	127.15
681	5.	8.	0.	127.77
682	6.5	8.	0.	120.31
683	7.5	-4.5	0.	123.1
684	8.	-4.5	0.	123.26
685	7.	-4.	0.	126.13
686	8.	1.5	0.	126.4
687	8.	1.	0.	124.65
688	8.	0.5	0.	123.02
689	-5.	2.5	0.	130.55
690	-5.	1.	0.	129.03
691	-3.5	-2.	0.	122.55
692	-2.	-2.	0.	130.46
693	-1.	-2.5	0.	123.96
694	-1.5	-2.5	0.	127.84
695	3.5	-3.	0.	118.34
696	5.	-3.	0.	121.4
697	2.	-4.5	0.	126.38
698	2.	-3.	0.	130.46
699	-2.	7.5	0.	124.39
700	-1.5	6.5	0.	127.52
701	-3.5	6.	0.	117.91
702	-5.	6.	0.	132.69
703	5.	4.5	0.	127.95
704	8.	2.	0.	128.08
705	-5.5	5.5	0.	130.65
706	3.	-2.	0.	128.83
707	7.	-7.1439e-012	0.	130.44
708	7.	-2.	0.	132.87
709	5.	2.	0.	117.88
710	7.5	1.	0.	125.64
711	7.5	1.5	0.	126.4
712	3.	0.5	0.	132.63
713	3.	2.	0.	131.91
714	-3.5	-6.	0.	114.96
715	-6.	-8.	0.	133.42
716	-6.	-6.	0.	133.4
717	2.	1.5	0.	133.06
718	2.	2.8477e-012	0.	131.52
719	0.5	4.	0.	118.66
720	2.	4.	0.	130.73
721	-0.5	-1.1283e-011	0.	118.62
722	-2.	-1.3059e-011	0.	130.37
723	-2.	1.	0.	130.
724	-2.	0.5	0.	130.98
725	-1.5	-1.1224e-011	0.	129.39
726	-1.	-9.8771e-012	0.	124.33
727	2.	3.5	0.	132.51
728	1.	4.	0.	124.48
729	1.	-2.5706e-012	0.	124.81
730	1.5	1.3198e-012	0.	130.1
731	2.	1.	0.	133.36
732	-5.	-6.	0.	121.56
733	-5.5	-6.	0.	128.95
734	-2.	-7.	0.	133.66
735	-2.5	-6.	0.	130.9
736	-3.	-6.	0.	122.94
737	3.5	2.	0.	130.43
738	3.	1.	0.	133.31
739	7.	1.5	0.	126.21
740	6.	-2.	0.	123.42
741	6.5	-2.	0.	129.41
742	7.	-1.5	0.	133.54
743	3.	-1.	0.	131.51
744	3.	-1.5	0.	130.97
745	-7.	5.	0.	114.68
746	-6.5	5.	0.	120.2
747	-6.	6.	0.	125.95
748	5.	2.5	0.	121.67
749	5.	5.	0.	129.81
750	5.	5.5	0.	130.8
751	-2.5	6.	0.	123.24
752	-2.	7.	0.	126.12
753	3.	-3.	0.	123.29
754	2.5	-3.	0.	128.94
755	2.	-3.5	0.	130.27
756	2.	-4.	0.	128.38
757	5.	-4.	0.	124.01
758	5.	-3.5	0.	123.58
759	4.	-3.	0.	118.91
760	-5.5	-5.	0.	129.26
761	-5.	-5.	0.	123.03
762	-2.5	-5.	0.	130.59
763	-2.	-2.5	0.	131.59
764	-3.	-2.	0.	127.3
765	-7.	-8.	0.	125.18
766	-6.5	-8.	0.	130.78
767	-6.	-7.5	0.	134.
768	-6.	-7.	0.	134.39
769	-6.	-5.	0.	132.14
770	-5.	4.5	0.	132.71
771	-6.	5.	0.	126.77
772	-5.5	1.	0.	127.13
773	-5.	2.	0.	130.2
774	8.	-7.4181e-012	0.	121.74
775	7.5	-8.7843e-012	0.	127.17
776	7.	-1.	0.	133.29
777	7.	-3.	0.	129.5
778	7.	-3.5	0.	128.37
779	7.5	-4.	0.	125.79
780	8.	-4.	0.	122.32
781	8.	8.	0.	123.32
782	6.	8.	0.	122.84
783	5.5	8.	0.	126.97
784	5.	7.	0.	127.4
785	-1.	5.	0.	126.69
786	-1.	5.5	0.	128.59
787	-1.5	6.	0.	129.62
788	-2.	6.	0.	127.49
789	-4.	6.	0.	125.39
790	-4.5	6.	0.	133.07
791	-5.	5.5	0.	133.97
792	-5.	5.	0.	133.88
793	-5.	3.5	0.	133.4
794	-4.	3.	0.	125.68
795	-2.	-3.5	0.	131.19
796	1.	-4.	0.	129.79
797	1.	-3.5	0.	130.53
798	1.0071e-011	-3.	0.	122.23
799	-5.	-1.	0.	128.03
800	-5.	-0.5	0.	128.57
801	-6.	-2.3293e-011	0.	118.49
802	-7.5	-2.4789e-012	0.	121.85
803	-8.	-1.	0.	127.33
804	-8.	-3.	0.	124.32
805	-8.	-3.5	0.	122.37
806	-7.	-4.	0.	120.78
807	-6.	6.5	0.	122.96
808	-0.5	-7.	0.	122.1
809	1.5	-5.	0.	123.61
810	-4.5	-2.	0.	122.46
811	-6.5	-4.	0.	121.94
812	8.	3.5	0.	126.07
813	-8.	1.	0.	123.52
814	8.	-5.	0.	124.52
815	1.2454e-011	-8.	0.	129.83
816	8.	-8.5	0.	125.88
817	7.5	-8.5	0.	123.43
818	1.1408e-011	-8.5	0.	131.38
819	-0.5	-8.5	0.	130.37
820	-1.	-8.5	0.	130.31
821	-1.5	-8.5	0.	131.07
822	-2.	-8.5	0.	132.15
823	8.	-8.	0.	125.97
824	8.5	-4.	0.	120.36
825	8.5	-4.5	0.	124.28
826	8.5	-5.	0.	127.89
827	8.5	-8.	0.	130.04
828	8.5	-8.5	0.	128.37
829	-5.5	7.	0.	124.16
830	-8.5	-4.	0.	121.17
831	-8.5	-3.5	0.	123.24
832	-8.5	-2.5	0.	125.51
833	-8.5	-2.	0.	126.29
834	-8.5	-1.5	0.	126.94
835	-8.5	-1.	0.	127.49
836	-8.5	-0.5	0.	127.93
837	-8.5	-4.704e-013	0.	127.93
838	-8.5	0.5	0.	128.13
839	-8.5	1.	0.	129.67
840	-8.5	5.	0.	123.88
841	2.	-5.	0.	127.59
842	1.	-4.5	0.	128.57
843	-5.	6.5	0.	131.07
844	-8.5	-8.	0.	119.32
845	-6.	-8.5	0.	131.91
846	-6.5	-8.5	0.	129.27
847	-7.	-8.5	0.	125.24
848	-7.5	-8.5	0.	121.31
849	-8.	-8.5	0.	119.63
850	-8.5	-8.5	0.	121.22
851	8.5	3.5	0.	123.95
852	8.5	3.	0.	126.15
853	8.5	2.5	0.	127.43
854	8.5	2.	0.	127.35
855	8.5	1.5	0.	126.18
856	8.5	1.	0.	124.37
857	8.5	0.5	0.	122.05
858	8.5	-5.2011e-012	0.	118.72
859	8.5	8.	0.	119.79
860	-2.	8.5	0.	126.65
861	-1.5	8.5	0.	125.47
862	-1.	8.5	0.	125.02
863	-0.5	8.5	0.	124.9
864	-1.2853e-011	8.5	0.	124.93
865	0.5	8.5	0.	125.01
866	1.	8.5	0.	125.11
867	1.5	8.5	0.	125.24
868	2.	8.5	0.	125.39
869	2.5	8.5	0.	125.57
870	3.	8.5	0.	125.79
871	3.5	8.5	0.	126.05
872	4.	8.5	0.	126.36
873	4.5	8.5	0.	126.66
874	5.	8.5	0.	126.63
875	5.5	8.5	0.	125.62
876	6.	8.5	0.	123.76
877	6.5	8.5	0.	122.73
878	7.	8.5	0.	123.68
879	7.5	8.5	0.	124.4
880	8.	8.5	0.	123.36
881	8.5	8.5	0.	122.41
882	-8.5	8.	0.	120.47
883	-2.	3.	0.	129.35
884	-1.	4.	0.	126.21
885	-5.	-1.5	0.	127.42
886	-6.	-4.5	0.	131.47
887	6.5	-8.	0.	122.82
888	6.	-8.5	0.	128.91
889	8.5	4.	0.	120.61
890	5.	-4.5	0.	124.13
891	6.	-5.	0.	128.33
892	5.5	-5.	0.	131.02
893	5.	-5.	0.	127.38
894	8.	4.	0.	125.26
895	6.	-8.	0.	128.79
896	-6.	-4.	0.	127.09
897	-7.5	-3.5	0.	124.94
898	-7.5	-0.5	0.	126.75
899	-5.5	-0.5	0.	129.14
900	-5.	-2.	0.	128.2
901	0.5	-3.5	0.	131.74
902	-1.5	-6.5	0.	136.11
903	-1.5	-3.5	0.	132.4
904	-4.5	3.5	0.	134.68
905	-4.5	5.5	0.	136.22
906	-1.5	5.5	0.	133.2
907	5.5	-8.5	0.	132.77
908	-8.5	9.	0.	121.97
909	-8.	9.	0.	122.56
910	5.5	7.5	0.	130.19
911	7.5	7.5	0.	134.56
912	9.	8.5	0.	123.95
913	9.	8.	0.	123.04
914	7.5	-3.5	0.	130.82
915	7.5	-0.5	0.	131.85
916	9.	4.	0.	123.67
917	9.	3.5	0.	125.07
918	9.	3.	0.	126.38
919	9.	2.5	0.	127.15
920	9.	2.	0.	127.15
921	9.	1.5	0.	126.49
922	9.	1.	0.	125.36
923	9.	0.5	0.	123.99
924	9.	-3.239e-012	0.	122.67
925	-5.5	1.5	0.	131.6
926	-8.5	1.5	0.	133.61
927	-8.5	4.5	0.	129.41
928	-5.5	4.5	0.	134.66
929	-6.5	-4.5	0.	131.05
930	-6.5	-7.5	0.	135.06
931	-9.	-8.5	0.	125.25
932	-9.	-8.	0.	125.54
933	-2.5	-2.5	0.	135.03
934	-2.5	-4.5	0.	134.44
935	-5.5	-4.5	0.	133.71
936	-7.	-9.	0.	126.19
937	-7.5	-9.	0.	123.21
938	-8.	-9.	0.	121.91
939	-8.5	-9.	0.	122.85
940	-9.	-9.	0.	125.5
941	-9.	8.5	0.	123.38
942	-9.	9.	0.	123.5
943	-3.5	9.	0.	119.02
944	-3.	9.	0.	121.79
945	-2.5	9.	0.	125.81
946	-2.	9.	0.	126.42
947	-1.5	9.	0.	125.8
948	-1.	9.	0.	125.43
949	-0.5	9.	0.	125.3
950	-9.9306e-012	9.	0.	125.31
951	0.5	9.	0.	125.38
952	1.	9.	0.	125.46
953	1.5	9.	0.	125.55
954	2.	9.	0.	125.65
955	2.5	9.	0.	125.76
956	3.	9.	0.	125.87
957	3.5	9.	0.	125.99
958	4.	9.	0.	126.09
959	4.5	9.	0.	126.11
960	5.	9.	0.	125.85
961	7.	9.	0.	123.74
962	7.5	9.	0.	123.88
963	8.	9.	0.	123.58
964	8.5	9.	0.	123.52
965	9.	9.	0.	124.41
966	4.5	-3.5	0.	125.28
967	2.5	-3.5	0.	131.43
968	-2.5	8.5	0.	128.75
969	-4.	9.	0.	123.05
970	-4.5	6.5	0.	134.87
971	-5.	7.	0.	129.53
972	5.5	5.5	0.	133.61
973	5.5	2.5	0.	124.5
974	7.5	2.5	0.	130.66
975	1.	-5.	0.	128.23
976	9.0475e-012	-7.	0.	127.11
977	0.5	-8.5	0.	132.77
978	2.5	-8.5	0.	136.63
979	2.5	-5.5	0.	141.75
980	-8.	8.	0.	119.97
981	-9.	8.	0.	124.66
982	-9.	-4.	0.	127.02
983	-9.	-3.5	0.	126.75
984	-9.	-3.	0.	126.77
985	-9.	-2.5	0.	126.88
986	-9.	-2.	0.	127.18
987	-9.	-2.2694e-013	0.	129.61
988	-9.	0.5	0.	130.41
989	-9.	1.	0.	131.69
990	-9.	1.5	0.	132.64
991	-9.	2.	0.	132.15
992	-9.	2.5	0.	131.2
993	-9.	3.	0.	131.33
994	-9.	3.5	0.	130.57
995	-9.	4.	0.	130.83
996	-9.	4.5	0.	130.69
997	-9.	5.	0.	129.65
998	-6.5	5.5	0.	125.98
999	-6.	7.	0.	122.6
1000	5.5	-5.5	0.	139.65
1001	8.5	-7.5	0.	133.7
1002	8.5	-5.5	0.	132.66
1003	3.5	-1.5	0.	132.27
1004	6.5	-1.5	0.	133.65
1005	6.5	1.5	0.	127.66
1006	-6.	-9.	0.	132.45
1007	9.	-4.	0.	124.99
1008	9.	-4.5	0.	127.13
1009	9.	-5.	0.	129.34
1010	9.	-5.5	0.	130.5
1011	9.	-6.	0.	129.48
1012	9.	-6.5	0.	127.93
1013	9.	-7.	0.	129.7
1014	9.	-7.5	0.	131.1
1015	9.	-8.	0.	130.65
1016	9.	-8.5	0.	129.63
1017	9.	-9.	0.	129.06
1018	8.	-9.	0.	126.11
1019	7.5	-9.	0.	124.78
1020	7.	-9.	0.	124.65
1021	6.5	-9.	0.	125.94
1022	6.	-9.	0.	127.87
1023	5.5	-9.	0.	127.78
1024	5.	-9.	0.	123.13
1025	4.5	-9.	0.	117.52
1026	4.	-9.	0.	115.38
1027	3.5	-9.	0.	118.17
1028	3.	-9.	0.	124.44
1029	2.5	-9.	0.	128.57
1030	2.	-9.	0.	125.17
1031	1.5	-9.	0.	121.46
1032	1.	-9.	0.	124.37
1033	0.5	-9.	0.	129.62
1034	8.1403e-012	-9.	0.	131.57
1035	-0.5	-9.	0.	131.92
1036	-1.	-9.	0.	132.42
1037	-2.	-9.	0.	134.22
1038	-2.5	-6.5	0.	134.95
1039	-5.5	-6.5	0.	133.14
1040	1.5	0.5	0.	134.51
1041	1.5	3.5	0.	134.45
1042	-1.5	3.5	0.	140.24
1043	-1.5	0.5	0.	133.25
1044	-1.5	1.	0.	132.39
1045	-1.5	1.5	0.	134.39
1046	-1.5	2.	0.	136.32
1047	-1.5	3.	0.	135.33
1048	-1.5	2.5	0.	135.67
1049	-1.	3.5	0.	129.6
1050	-0.5	3.5	0.	116.46
1051	5.5423e-011	3.5	0.	115.68
1052	1.	3.5	0.	126.99
1053	0.5	3.5	0.	115.65
1054	1.5	3.	0.	134.33
1055	1.5	2.5	0.	137.09
1056	1.5	2.	0.	138.82
1057	1.5	1.	0.	134.4
1058	1.5	1.5	0.	137.03
1059	-1.	0.5	0.	126.02
1060	-0.5	0.5	0.	115.17
1061	2.4679e-011	0.5	0.	115.16
1062	0.5	0.5	0.	115.43
1063	1.	0.5	0.	126.79
1064	-5.	-6.5	0.	123.64
1065	-4.5	-6.5	0.	111.56
1066	-4.	-6.5	0.	111.17
1067	-3.	-6.5	0.	125.
1068	-3.5	-6.5	0.	112.17
1069	-2.5	-7.	0.	133.97
1070	-2.5	-7.5	0.	135.71
1071	-2.5	-8.	0.	137.02
1072	-2.5	-9.	0.	134.49
1073	-2.5	-8.5	0.	135.45
1074	-5.5	-9.	0.	133.74
1075	-5.5	-8.5	0.	135.5
1076	-5.5	-8.	0.	137.76
1077	-5.5	-7.	0.	133.42
1078	-5.5	-7.5	0.	136.29
1079	4.5	1.5	0.	115.74
1080	5.	1.5	0.	115.28
1081	6.	1.5	0.	123.14
1082	5.5	1.5	0.	114.21
1083	6.5	1.	0.	128.82
1084	6.5	0.5	0.	133.2
1085	6.5	-2.7384e-012	0.	135.9
1086	6.5	-1.	0.	133.51
1087	6.5	-0.5	0.	134.98
1088	6.	-1.5	0.	124.83
1089	5.5	-1.5	0.	113.92
1090	5.	-1.5	0.	113.65
1091	4.	-1.5	0.	125.02
1092	4.5	-1.5	0.	113.7
1093	3.5	1.	0.	134.42
1094	3.5	0.5	0.	136.14
1095	3.5	1.4384e-012	0.	137.69
1096	3.5	-0.5	0.	135.78
1097	3.5	-1.	0.	132.42
1098	8.5	-6.	0.	132.04
1099	8.5	-7.	0.	132.48
1100	8.5	-6.5	0.	131.54
1101	7.5	-7.5	0.	118.46
1102	7.	-7.5	0.	119.23
1103	6.	-7.5	0.	129.42
1104	6.5	-7.5	0.	119.19
1105	6.	-5.5	0.	131.18
1106	8.	-5.5	0.	126.65
1107	7.5	-5.5	0.	118.62
1108	7.	-5.5	0.	120.18
1109	6.5	-5.5	0.	120.62
1110	-6.5	7.	0.	125.71
1111	-6.5	6.	0.	126.53
1112	-6.5	6.5	0.	126.16
1113	-7.	5.5	0.	119.06
1114	-7.5	5.5	0.	113.35
1115	-8.	5.5	0.	117.63
1116	-9.	5.5	0.	129.68
1117	-8.5	5.5	0.	119.87
1118	-9.	7.5	0.	128.2
1119	-8.5	7.5	0.	119.53
1120	-7.5	7.5	0.	123.83
1121	-8.	7.5	0.	121.45
1122	2.	-8.5	0.	127.21
1123	1.	-8.5	0.	124.2
1124	1.5	-8.5	0.	113.9
1125	0.5	-8.	0.	132.21
1126	0.5	-7.5	0.	133.97
1127	0.5	-7.	0.	137.5
1128	0.5	-6.5	0.	140.32
1129	2.	-5.5	0.	130.31
1130	1.5	-5.5	0.	116.16
1131	1.	-5.5	0.	128.45
1132	7.	2.5	0.	121.98
1133	6.	2.5	0.	120.41
1134	6.5	2.5	0.	110.39
1135	5.5	3.	0.	125.08
1136	5.5	3.5	0.	129.34
1137	5.5	4.	0.	131.58
1138	5.5	5.	0.	129.97
1139	5.5	4.5	0.	130.57
1140	7.5	3.	0.	129.87
1141	7.5	3.5	0.	131.25
1142	7.5	4.	0.	134.4
1143	7.5	4.5	0.	136.97
1144	-4.5	7.	0.	134.8
1145	-4.5	7.5	0.	137.43
1146	-4.	8.5	0.	122.37
1147	-3.	8.5	0.	121.91
1148	-3.5	8.5	0.	111.73
1149	-2.5	7.	0.	127.83
1150	-2.5	7.5	0.	127.82
1151	-3.5	6.5	0.	112.64
1152	3.	-3.5	0.	122.87
1153	4.	-3.5	0.	119.34
1154	3.5	-3.5	0.	110.54
1155	4.5	-4.	0.	124.62
1156	4.5	-5.	0.	123.27
1157	4.5	-4.5	0.	124.39
1158	2.5	-4.	0.	129.8
1159	2.5	-4.5	0.	129.94
1160	2.5	-5.	0.	133.44
1161	-6.	-3.5	0.	123.33
1162	-7.	-3.5	0.	120.52
1163	-6.5	-3.5	0.	110.9
1164	-7.5	-3.	0.	125.45
1165	-7.5	-2.5	0.	129.66
1166	-7.5	-2.	0.	131.68
1167	-7.5	-1.	0.	127.29
1168	-7.5	-1.5	0.	130.1
1169	-7.	-0.5	0.	118.22
1170	-6.	-0.5	0.	119.29
1171	-6.5	-0.5	0.	107.46
1172	-5.5	-2.5	0.	138.96
1173	-5.5	-2.	0.	136.51
1174	-5.5	-1.5	0.	132.49
1175	-5.5	-1.	0.	129.63
1176	0.5	-4.	0.	131.86
1177	0.5	-4.5	0.	134.78
1178	0.5	-5.	0.	138.5
1179	0.5	-5.5	0.	141.09
1180	4.4091e-012	-6.5	0.	127.47
1181	-1.	-6.5	0.	126.74
1182	-0.5	-6.5	0.	114.5
1183	-1.5	-6.	0.	136.25
1184	-1.5	-5.5	0.	138.98
1185	-1.5	-5.	0.	140.3
1186	-1.5	-4.	0.	133.54
1187	-1.5	-4.5	0.	137.45
1188	4.1667e-012	-3.5	0.	123.23
1189	-0.5	-3.5	0.	111.9
1190	-1.	-3.5	0.	123.53
1191	-4.5	5.	0.	135.44
1192	-4.5	4.5	0.	134.64
1193	-4.	5.5	0.	127.9
1194	-3.5	5.5	0.	118.01
1195	-3.	5.5	0.	119.33
1196	-2.	5.5	0.	127.99
1197	-2.5	5.5	0.	119.75
1198	-1.5	5.	0.	132.3
1199	-1.5	4.	0.	133.98
1200	-1.5	4.5	0.	131.66
1201	-4.	3.5	0.	127.88
1202	-3.5	3.5	0.	118.9
1203	-3.	3.5	0.	120.08
1204	-2.5	3.5	0.	120.53
1205	-2.	3.5	0.	131.85
1206	2.5	-8.	0.	135.28
1207	2.5	-7.5	0.	140.83
1208	2.5	-7.	0.	144.07
1209	2.5	-6.	0.	137.08
1210	2.5	-6.5	0.	141.04
1211	3.	-5.5	0.	124.01
1212	3.5	-5.5	0.	104.52
1213	4.	-5.5	0.	113.1
1214	5.	-5.5	0.	130.72
1215	4.5	-5.5	0.	119.41
1216	5.5	-6.	0.	137.35
1217	5.5	-6.5	0.	139.67
1218	5.5	-7.	0.	140.5
1219	5.5	-8.	0.	134.12
1220	5.5	-7.5	0.	139.47
1221	5.	-8.5	0.	125.73
1222	3.	-8.5	0.	127.34
1223	3.5	-8.5	0.	115.03
1224	4.	-8.5	0.	114.43
1225	4.5	-8.5	0.	114.67
1226	-4.5	9.	0.	130.91
1227	-4.5	8.	0.	136.87
1228	-4.5	8.5	0.	135.16
1229	-5.	7.5	0.	129.29
1230	-5.5	7.5	0.	121.93
1231	-6.	7.5	0.	123.88
1232	-7.	7.5	0.	129.19
1233	-6.5	7.5	0.	125.55
1234	-7.5	8.	0.	124.88
1235	-7.5	9.	0.	127.02
1236	-7.5	8.5	0.	126.14
1237	7.	5.5	0.	120.6
1238	6.	5.5	0.	117.79
1239	6.5	5.5	0.	100.01
1240	5.5	6.	0.	130.09
1241	5.5	7.	0.	128.73
1242	5.5	6.5	0.	128.57
1243	6.	7.5	0.	123.19
1244	7.	7.5	0.	125.31
1245	6.5	7.5	0.	113.07
1246	9.	4.5	0.	124.58
1247	8.	4.5	0.	126.07
1248	8.5	4.5	0.	113.35
1249	7.5	5.	0.	136.08
1250	7.5	5.5	0.	141.89
1251	7.5	6.	0.	139.98
1252	7.5	7.	0.	133.34
1253	7.5	6.5	0.	136.6
1254	8.	7.5	0.	124.79
1255	9.	7.5	0.	123.89
1256	8.5	7.5	0.	112.39
1257	9.	-3.5	0.	125.02
1258	8.	-3.5	0.	123.79
1259	8.5	-3.5	0.	112.62
1260	7.5	-3.	0.	131.52
1261	7.5	-2.5	0.	135.45
1262	7.5	-2.	0.	137.96
1263	7.5	-1.	0.	133.08
1264	7.5	-1.5	0.	136.19
1265	8.	-0.5	0.	122.67
1266	9.	-0.5	0.	123.78
1267	8.5	-0.5	0.	111.48
1268	-6.5	1.5	0.	112.39
1269	-7.	1.5	0.	112.43
1270	-8.	1.5	0.	124.84
1271	-7.5	1.5	0.	113.22
1272	-8.5	2.	0.	133.13
1273	-8.5	2.5	0.	134.7
1274	-8.5	3.	0.	136.03
1275	-8.5	4.	0.	130.36
1276	-8.5	3.5	0.	133.74
1277	-8.	4.5	0.	120.97
1278	-7.5	4.5	0.	110.99
1279	-7.	4.5	0.	112.7
1280	-6.	4.5	0.	126.68
1281	-6.5	4.5	0.	114.64
1282	-5.5	4.	0.	133.83
1283	-5.5	3.5	0.	136.01
1284	-5.5	3.	0.	137.29
1285	-5.5	2.	0.	131.64
1286	-5.5	2.5	0.	134.9
1287	-6.5	-5.	0.	133.26
1288	-6.5	-5.5	0.	137.04
1289	-6.5	-6.	0.	139.49
1290	-6.5	-7.	0.	135.2
1291	-6.5	-6.5	0.	138.
1292	-7.	-7.5	0.	127.16
1293	-7.5	-7.5	0.	115.98
1294	-8.	-7.5	0.	115.98
1295	-9.	-7.5	0.	127.85
1296	-8.5	-7.5	0.	116.34
1297	-9.	-4.5	0.	128.93
1298	-8.5	-4.5	0.	117.73
1299	-8.	-4.5	0.	117.28
1300	-7.5	-4.5	0.	116.1
1301	-5.	-2.5	0.	129.51
1302	-4.5	-2.5	0.	119.61
1303	-4.	-2.5	0.	120.01
1304	-3.	-2.5	0.	129.
1305	-3.5	-2.5	0.	119.53
1306	-2.5	-3.	0.	133.86
1307	-2.5	-4.	0.	134.13
1308	-2.5	-3.5	0.	133.55
1309	-3.	-4.5	0.	125.66
1310	-3.5	-4.5	0.	116.08
1311	-4.	-4.5	0.	116.48
1312	-5.	-4.5	0.	125.96
1313	-4.5	-4.5	0.	116.54
1314	-5.5	-4.	0.	134.2
1315	-5.5	-3.	0.	136.37
1316	-5.5	-3.5	0.	135.82
1317	-9.5	-9.	0.	128.62
1318	-9.5	-8.5	0.	129.76
1319	-9.5	-8.	0.	131.82
1320	-9.5	-7.5	0.	136.27
1321	-9.5	-7.	0.	137.
1322	-9.5	-6.5	0.	139.9
1323	-9.5	-6.	0.	141.73
1324	-9.5	-5.5	0.	140.32
1325	-9.5	-5.	0.	138.15
1326	-9.5	-4.5	0.	137.58
1327	-9.5	-4.	0.	133.18
1328	-9.5	-3.5	0.	130.95
1329	-9.5	-3.	0.	129.49
1330	-9.5	-2.	0.	128.24
1331	-9.5	-1.5	0.	128.49
1332	-9.5	-1.	0.	129.17
1333	-9.5	-0.5	0.	130.06
1334	-9.5	-8.9984e-014	0.	130.94
1335	-9.5	0.5	0.	131.66
1336	-9.5	1.	0.	132.05
1337	-9.5	1.5	0.	131.81
1338	-9.5	2.	0.	130.87
1339	-9.5	2.5	0.	129.99
1340	-9.5	3.	0.	129.66
1341	-9.5	3.5	0.	130.14
1342	-9.5	4.	0.	131.3
1343	-9.5	4.5	0.	132.77
1344	-9.5	5.	0.	134.16
1345	-9.5	5.5	0.	137.3
1346	-9.5	6.	0.	136.88
1347	-9.5	6.5	0.	135.44
1348	-9.5	7.	0.	133.92
1349	-9.5	7.5	0.	133.18
1350	-9.5	8.	0.	128.43
1351	-9.5	8.5	0.	126.18
1352	-9.5	9.	0.	125.22
1353	-9.5	9.5	0.	124.97
1354	-9.	9.5	0.	124.39
1355	-8.5	9.5	0.	123.98
1356	-8.	9.5	0.	124.59
1357	-7.5	9.5	0.	127.78
1358	-7.	9.5	0.	125.63
1359	-6.5	9.5	0.	121.05
1360	-6.	9.5	0.	123.36
1361	-5.5	9.5	0.	122.03
1362	-5.	9.5	0.	127.75
1363	-4.5	9.5	0.	129.53
1364	-4.	9.5	0.	125.15
1365	-3.5	9.5	0.	123.41
1366	-3.	9.5	0.	123.91
1367	-2.5	9.5	0.	125.14
1368	-2.	9.5	0.	125.78
1369	-1.5	9.5	0.	125.83
1370	-1.	9.5	0.	125.78
1371	-0.5	9.5	0.	125.75
1372	-5.4442e-012	9.5	0.	125.77
1373	0.5	9.5	0.	125.8
1374	1.	9.5	0.	125.86
1375	1.5	9.5	0.	125.92
1376	2.	9.5	0.	125.98
1377	2.5	9.5	0.	126.04
1378	3.	9.5	0.	126.07
1379	3.5	9.5	0.	126.06
1380	4.	9.5	0.	125.97
1381	4.5	9.5	0.	125.77
1382	5.	9.5	0.	125.41
1383	5.5	9.5	0.	124.88
1384	6.	9.5	0.	124.3
1385	6.5	9.5	0.	123.89
1386	7.	9.5	0.	123.72
1387	7.5	9.5	0.	123.68
1388	8.	9.5	0.	123.7
1389	8.5	9.5	0.	123.91
1390	9.	9.5	0.	124.43
1391	9.5	9.5	0.	125.17
1392	9.5	9.	0.	125.95
1393	9.5	8.5	0.	126.9
1394	9.5	8.	0.	128.61
1395	9.5	7.5	0.	132.75
1396	9.5	7.	0.	133.55
1397	9.5	6.5	0.	136.64
1398	9.5	6.	0.	138.51
1399	9.5	5.5	0.	137.03
1400	9.5	5.	0.	134.13
1401	9.5	4.5	0.	133.34
1402	9.5	4.	0.	129.28
1403	9.5	3.5	0.	127.98
1404	9.5	3.	0.	127.66
1405	9.5	2.5	0.	127.53
1406	9.5	1.5	0.	127.14
1407	9.5	1.	0.	127.01
1408	9.5	0.5	0.	127.23
1409	9.5	-1.5681e-012	0.	128.57
1410	9.5	-0.5	0.	132.75
1411	9.5	-1.	0.	133.73
1412	9.5	-1.5	0.	137.46
1413	9.5	-2.	0.	139.56
1414	9.5	-2.5	0.	138.32
1415	9.5	-3.	0.	136.16
1416	9.5	-3.5	0.	135.67
1417	9.5	-4.	0.	131.99
1418	9.5	-4.5	0.	130.85
1419	9.5	-5.	0.	130.26
1420	9.5	-5.5	0.	129.33
1421	9.5	-6.	0.	128.
1422	9.5	-6.5	0.	127.34
1423	9.5	-7.	0.	127.87
1424	9.5	-7.5	0.	129.03
1425	9.5	-8.	0.	129.73
1426	9.5	-8.5	0.	129.97
1427	9.5	-9.	0.	130.03
1428	9.	-9.5	0.	128.83
1429	8.5	-9.5	0.	127.59
1430	8.	-9.5	0.	126.37
1431	7.5	-9.5	0.	125.56
1432	7.	-9.5	0.	125.53
1433	6.5	-9.5	0.	126.18
1434	6.	-9.5	0.	126.63
1435	5.5	-9.5	0.	125.42
1436	5.	-9.5	0.	122.16
1437	4.5	-9.5	0.	118.54
1438	4.	-9.5	0.	117.14
1439	3.5	-9.5	0.	118.99
1440	3.	-9.5	0.	122.68
1441	2.5	-9.5	0.	124.98
1442	2.	-9.5	0.	124.61
1443	1.5	-9.5	0.	123.85
1444	1.	-9.5	0.	125.56
1445	0.5	-9.5	0.	128.73
1446	4.2069e-012	-9.5	0.	131.27
1447	-0.5	-9.5	0.	132.78
1448	-1.	-9.5	0.	133.98
1449	-1.5	-9.5	0.	135.21
1450	-2.	-9.5	0.	136.28
1451	-2.5	-9.5	0.	136.04
1452	-3.	-9.5	0.	124.7
1453	-3.5	-9.5	0.	111.21
1454	-4.	-9.5	0.	109.91
1455	-4.5	-9.5	0.	110.99
1456	-5.	-9.5	0.	124.
1457	-5.5	-9.5	0.	134.55
1458	-6.	-9.5	0.	133.5
1459	-6.5	-9.5	0.	130.58
1460	-7.	-9.5	0.	127.27
1461	-7.5	-9.5	0.	124.6
1462	-8.	-9.5	0.	123.4
1463	-8.5	-9.5	0.	123.94
1464	-9.	-9.5	0.	125.81
1465	-9.5	-9.5	0.	127.98
1466	4.7218e-011	-0.5	0.	119.13
1467	9.5	2.	0.	127.36
1468	-4.	6.5	0.	125.72
1469	-4.5	4.	0.	134.47
1470	2.	3.	0.	132.83
1471	-8.	8.5	0.	119.86
1472	0.5	6.5	0.	124.31
1473	4.	1.5	0.	126.67
1474	-2.	-6.	0.	135.02
1475	4.5	6.5	0.	126.81
1476	4.	2.	0.	125.32
1477	1.5	4.	0.	129.63
1478	-1.	7.5	0.	124.73
1479	1.5	4.5	0.	126.89
1480	1.	-0.5	0.	124.53
1481	-2.	2.	0.	128.54
1482	-8.	-4.	0.	119.05
1483	-2.5	-1.	0.	128.76
1484	1.5	6.5	0.	124.71
1485	-2.	6.5	0.	127.45
1486	-2.5	-2.	0.	131.04
1487	2.5	7.	0.	125.42
1488	0.5	-2.	0.	124.68
1489	-5.5	5.	0.	131.86
1490	5.	-2.	0.	115.
1491	-3.5	-1.5	0.	124.31
1492	0.5	-6.	0.	138.22
1493	6.	2.	0.	119.88
1494	7.	2.	0.	123.66
1495	-2.	-5.	0.	134.93
1496	-9.	-1.	0.	128.34
1497	5.	6.	0.	129.04
1498	-6.	1.5	0.	123.79
1499	-6.	0.5	0.	119.6
1500	-2.5	-0.5	0.	129.04
1501	4.5	-2.5	0.	118.7
1502	-7.	-6.0773e-012	0.	116.09
1503	-3.	-2.7892e-011	0.	128.34
1504	8.5	-9.	0.	127.76
1505	-6.5	-9.	0.	129.58
1506	-6.	5.5	0.	127.5
1507	-2.5	8.	0.	127.62
1508	9.5	-9.5	0.	130.04
1509	4.5	2.5	0.	122.22
1510	-4.5	-5.	0.	116.68
1511	-5.	1.5	0.	130.06
1512	-3.5	2.5	0.	122.29
1513	0.5	-3.	0.	127.59
1514	1.0453e-011	7.5	0.	124.64
1515	-0.5	5.	0.	122.88
1516	-2.5	6.5	0.	127.82
1517	7.5	8.	0.	127.09
1518	-9.	-0.5	0.	129.01
1519	-9.	-1.5	0.	127.68
1520	4.5	-2.	0.	116.95
1521	7.	8.	0.	123.8
1522	4.	-2.	0.	121.96
1523	-1.5	-3.	0.	128.62
1524	-2.5	-1.5	0.	129.18
1525	-7.	-4.5	0.	125.03
1526	8.	3.	0.	127.79
1527	6.5	9.	0.	123.65
1528	-1.5	-7.	0.	131.13
1529	-6.	-6.5	0.	133.96
1530	4.5	7.	0.	126.7
1531	-1.5	-9.	0.	133.19
1532	-8.	-0.5	0.	127.07
1533	4.5	7.5	0.	127.17
1534	-7.5	-4.	0.	120.17
1535	1.5	6.	0.	124.75
1536	5.5	9.	0.	125.15
1537	-4.5	3.	0.	130.25
1538	4.5	3.	0.	123.66
1539	-3.	6.5	0.	120.67
1540	2.	0.5	0.	133.04
1541	3.5	-2.	0.	126.81
1542	7.	-0.5	0.	131.93
1543	3.5	1.5	0.	134.68
1544	1.5063e-010	5.	0.	121.21
1545	-8.5	-3.	0.	124.52
1546	6.5	-3.	0.	126.68
1547	4.5	-3.	0.	121.14
1548	-9.5	-2.5	0.	128.56
1549	-3.	-5.	0.	123.47
1550	8.	-7.5	0.	127.19
1551	8.	2.5	0.	128.84
1552	7.	-8.5	0.	122.87
1553	-2.	-4.	0.	133.26
1554	-3.	-1.5	0.	127.08
1555	6.	9.	0.	124.2
1556	3.	1.5	0.	133.3
1557	-8.	5.	0.	117.56
1558	-1.	-3.	0.	122.8
1559	7.	1.	0.	127.19
1560	-1.	-7.	0.	125.37
1561	-2.	-5.5	0.	134.05
1562	6.5	2.	0.	120.34
1563	-6.	1.	0.	121.01
1564	-5.	4.	0.	133.47
1565	-3.	6.	0.	118.47
1566	-2.	-3.	0.	131.55
1567	5.	7.5	0.	128.31
1568	5.	3.	0.	123.82
1569	-2.	8.	0.	125.6
1570	-2.	-6.5	0.	135.52
1571	-2.	-4.5	0.	134.53
1572	5.5	2.	0.	119.27
1573	7.5	2.	0.	127.59
1574	-2.	-7.5	0.	131.61
1575	1.1386e-011	-7.5	0.	127.96
1576	-5.5	-3.6573e-011	0.	125.48
1577	-2.	2.5	0.	128.04
1578	2.5	0.5	0.	132.3
1579	6.	-2.5	0.	123.49
1580	0.5	7.	0.	124.5
1581	4.	2.5	0.	125.2
1582	6.5	-8.5	0.	124.93
1583	1.5	-4.5	0.	126.16
1584	-8.5	8.5	0.	120.7
1585	-7.	0.5	0.	115.02
1586	2.5	1.5	0.	132.62
1587	-5.5	6.5	0.	126.27
1588	-4.	-1.5	0.	123.02
1589	1.5	5.	0.	125.56
1590	2.	-1.	0.	129.3
1591	0.5	-1.5	0.	123.66
1592	-8.	3.75	0.	137.19
1593	-7.75	4.	0.	121.07
1594	-8.25	4.	0.	130.84
1595	-8.	4.25	0.	126.59
1596	-8.	2.25	0.	138.96
1597	-7.75	2.	0.	123.22
1598	-8.	1.75	0.	129.59
1599	-8.25	2.	0.	133.4
1600	-6.25	4.	0.	123.95
1601	-6.	3.75	0.	139.8
1602	-6.	4.25	0.	131.07
1603	-5.75	4.	0.	134.3
1604	-6.25	2.	0.	122.82
1605	-6.	2.25	0.	139.03
1606	-5.75	2.	0.	132.64
1607	-6.	1.75	0.	129.13
1608	3.	-4.25	0.	136.61
1609	3.25	-4.	0.	119.77
1610	3.	-3.75	0.	127.53
1611	2.75	-4.	0.	130.7
1612	3.	-4.75	0.	136.63
1613	3.25	-5.	0.	118.53
1614	2.75	-5.	0.	132.59
1615	3.	-5.25	0.	127.94
1616	3.75	-4.	0.	117.83
1617	4.	-4.25	0.	131.73
1618	4.	-3.75	0.	123.87
1619	4.25	-4.	0.	126.22
1620	3.75	-5.	0.	114.44
1621	4.	-4.75	0.	129.47
1622	4.25	-5.	0.	123.03
1623	4.	-5.25	0.	118.46
1624	-4.	7.75	0.	140.79
1625	-3.75	8.	0.	121.94
1626	-4.	8.25	0.	128.47
1627	-4.25	8.	0.	135.26
1628	-4.	7.25	0.	141.85
1629	-3.75	7.	0.	123.72
1630	-4.25	7.	0.	135.28
1631	-4.	6.75	0.	131.14
1632	-3.25	8.	0.	120.73
1633	-3.	7.75	0.	136.46
1634	-3.	8.25	0.	127.05
1635	-2.75	8.	0.	129.6
1636	-3.25	7.	0.	121.
1637	-3.	7.25	0.	136.01
1638	-2.75	7.	0.	129.16
1639	-3.	6.75	0.	125.96
1640	1.	-6.25	0.	143.75
1641	1.25	-6.	0.	125.41
1642	1.	-5.75	0.	133.79
1643	0.75	-6.	0.	138.31
1644	1.	-7.75	0.	138.85
1645	1.25	-8.	0.	121.59
1646	1.	-8.25	0.	128.82
1647	0.75	-8.	0.	132.49
1648	1.75	-6.	0.	126.03
1649	2.	-6.25	0.	143.14
1650	2.	-5.75	0.	135.31
1651	2.25	-6.	0.	138.51
1652	1.75	-8.	0.	123.41
1653	2.	-7.75	0.	140.7
1654	2.	-8.25	0.	132.22
1655	2.25	-8.	0.	135.95
1656	-7.	-1.25	0.	133.3
1657	-6.75	-1.	0.	116.8
1658	-7.25	-1.	0.	127.68
1659	-7.	-0.75	0.	123.53
1660	-7.	-2.75	0.	134.22
1661	-6.75	-3.	0.	118.21
1662	-7.	-3.25	0.	125.58
1663	-7.25	-3.	0.	127.65
1664	-6.25	-1.	0.	117.35
1665	-6.	-1.25	0.	135.49
1666	-6.	-0.75	0.	124.52
1667	-5.75	-1.	0.	129.33
1668	-6.25	-3.	0.	119.64
1669	-6.	-2.75	0.	138.92
1670	-6.	-3.25	0.	128.33
1671	-5.75	-3.	0.	134.44
1672	-5.	-3.25	0.	144.6
1673	-4.75	-3.	0.	129.47
1674	-5.	-2.75	0.	134.74
1675	-5.25	-3.	0.	137.8
1676	-5.	-3.75	0.	143.41
1677	-4.75	-4.	0.	127.66
1678	-5.	-4.25	0.	131.7
1679	-5.25	-4.	0.	135.42
1680	-3.25	-3.	0.	128.54
1681	-3.	-3.25	0.	142.52
1682	-3.	-2.75	0.	133.84
1683	-2.75	-3.	0.	135.94
1684	-3.25	-4.	0.	126.41
1685	-3.	-3.75	0.	141.24
1686	-2.75	-4.	0.	134.75
1687	-3.	-4.25	0.	130.85
1688	-1.	2.75	0.	143.17
1689	-0.75	3.	0.	127.53
1690	-1.25	3.	0.	137.25
1691	-1.	3.25	0.	134.62
1692	-1.	1.25	0.	140.25
1693	-0.75	1.	0.	124.8
1694	-1.25	1.	0.	133.72
1695	-1.	0.75	0.	130.9
1696	0.75	3.	0.	125.97
1697	1.	2.75	0.	141.96
1698	1.	3.25	0.	132.28
1699	1.25	3.	0.	135.56
1700	0.75	1.	0.	125.49
1701	1.	1.25	0.	141.5
1702	1.25	1.	0.	135.3
1703	1.	0.75	0.	131.89
1704	-4.	4.75	0.	142.78
1705	-3.75	5.	0.	128.28
1706	-4.25	5.	0.	136.45
1707	-4.	5.25	0.	133.03
1708	-4.	4.25	0.	142.79
1709	-3.75	4.	0.	128.43
1710	-4.	3.75	0.	133.09
1711	-4.25	4.	0.	136.04
1712	-2.25	5.	0.	128.25
1713	-2.	4.75	0.	142.27
1714	-2.	5.25	0.	132.54
1715	-1.75	5.	0.	134.35
1716	-2.25	4.	0.	130.62
1717	-2.	4.25	0.	144.31
1718	-1.75	4.	0.	137.42
1719	-2.	3.75	0.	136.54
1720	-1.	-4.25	0.	139.8
1721	-0.75	-4.	0.	121.65
1722	-1.25	-4.	0.	133.54
1723	-1.	-3.75	0.	128.94
1724	-1.	-5.75	0.	142.91
1725	-0.75	-6.	0.	124.71
1726	-1.	-6.25	0.	132.5
1727	-1.25	-6.	0.	136.92
1728	-0.25	-4.	0.	121.47
1729	0.	-4.25	0.	139.31
1730	0.25	-4.	0.	132.53
1731	2.0834e-012	-3.75	0.	128.59
1732	-0.25	-6.	0.	124.96
1733	0.	-5.75	0.	143.72
1734	2.2046e-012	-6.25	0.	133.16
1735	0.25	-6.	0.	138.14
1736	-7.	8.75	0.	139.47
1737	-6.75	9.	0.	128.24
1738	-7.25	9.	0.	130.99
1739	-7.	9.25	0.	130.61
1740	-7.	8.25	0.	140.08
1741	-6.75	8.	0.	129.37
1742	-7.	7.75	0.	133.06
1743	-7.25	8.	0.	130.5
1744	-5.25	9.	0.	131.05
1745	-5.	8.75	0.	145.01
1746	-4.75	9.	0.	134.98
1747	-5.	9.25	0.	133.93
1748	-5.25	8.	0.	130.97
1749	-5.	8.25	0.	144.97
1750	-4.75	8.	0.	138.02
1751	-5.	7.75	0.	134.62
1752	6.	4.75	0.	132.38
1753	6.25	5.	0.	114.39
1754	5.75	5.	0.	128.33
1755	6.	5.25	0.	122.41
1756	6.	3.25	0.	133.64
1757	6.25	3.	0.	117.93
1758	6.	2.75	0.	125.36
1759	5.75	3.	0.	127.28
1760	6.75	5.	0.	116.21
1761	7.	4.75	0.	136.66
1762	7.	5.25	0.	125.65
1763	7.25	5.	0.	133.16
1764	6.75	3.	0.	118.11
1765	7.	3.25	0.	135.24
1766	7.	2.75	0.	126.14
1767	7.25	3.	0.	129.81
1768	8.	-1.25	0.	138.79
1769	8.25	-1.	0.	121.04
1770	7.75	-1.	0.	132.94
1771	8.	-0.75	0.	128.11
1772	8.	-2.75	0.	139.57
1773	8.25	-3.	0.	122.18
1774	8.	-3.25	0.	129.4
1775	7.75	-3.	0.	132.85
1776	8.75	-1.	0.	121.86
1777	9.	-1.25	0.	140.32
1778	9.	-0.75	0.	129.49
1779	9.25	-1.	0.	134.07
1780	8.75	-3.	0.	122.38
1781	9.	-2.75	0.	140.58
1782	9.	-3.25	0.	130.16
1783	9.25	-3.	0.	135.4
1784	8.	6.75	0.	138.17
1785	8.25	7.	0.	121.6
1786	7.75	7.	0.	133.57
1787	8.	7.25	0.	129.56
1788	8.	5.25	0.	143.87
1789	8.25	5.	0.	124.5
1790	8.	4.75	0.	132.24
1791	7.75	5.	0.	136.76
1792	8.75	7.	0.	121.76
1793	9.	6.75	0.	139.84
1794	9.	7.25	0.	129.25
1795	9.25	7.	0.	133.71
1796	8.75	5.	0.	123.14
1797	9.	5.25	0.	140.75
1798	9.	4.75	0.	130.12
1799	9.25	5.	0.	134.54
1800	3.	-6.25	0.	138.53
1801	3.25	-6.	0.	120.42
1802	2.75	-6.	0.	134.83
1803	3.	-5.75	0.	128.46
1804	3.	-7.75	0.	140.97
1805	3.25	-8.	0.	124.93
1806	2.75	-8.	0.	135.82
1807	3.	-8.25	0.	132.18
1808	4.75	-6.	0.	126.01
1809	5.	-6.25	0.	140.74
1810	5.	-5.75	0.	134.68
1811	5.25	-6.	0.	137.78
1812	4.75	-8.	0.	125.05
1813	5.	-7.75	0.	141.96
1814	5.25	-8.	0.	134.96
1815	5.	-8.25	0.	131.26
1816	6.	6.75	0.	135.95
1817	6.25	7.	0.	120.76
1818	5.75	7.	0.	130.23
1819	6.	7.25	0.	127.74
1820	6.	6.25	0.	133.6
1821	6.25	6.	0.	115.56
1822	6.	5.75	0.	122.46
1823	5.75	6.	0.	128.43
1824	6.75	7.	0.	122.14
1825	7.	6.75	0.	138.67
1826	7.	7.25	0.	130.13
1827	7.25	7.	0.	133.88
1828	6.75	6.	0.	117.29
1829	7.	6.25	0.	136.71
1830	7.	5.75	0.	125.62
1831	7.25	6.	0.	135.13
1832	-5.	-7.25	0.	139.15
1833	-4.75	-7.	0.	122.42
1834	-5.	-6.75	0.	128.98
1835	-5.25	-7.	0.	133.48
1836	-5.	-8.75	0.	138.93
1837	-4.75	-9.	0.	122.31
1838	-5.25	-9.	0.	133.37
1839	-5.	-9.25	0.	128.85
1840	-3.25	-7.	0.	123.17
1841	-3.	-7.25	0.	139.69
1842	-3.	-6.75	0.	130.13
1843	-2.75	-7.	0.	134.28
1844	-3.25	-9.	0.	122.56
1845	-3.	-8.75	0.	139.02
1846	-2.75	-9.	0.	133.97
1847	-3.	-9.25	0.	129.4
1848	4.	0.75	0.	140.51
1849	4.25	1.	0.	125.06
1850	3.75	1.	0.	134.87
1851	4.	1.25	0.	131.33
1852	4.	-0.75	0.	140.29
1853	4.25	-1.	0.	124.03
1854	4.	-1.25	0.	130.5
1855	3.75	-1.	0.	133.77
1856	5.75	1.	0.	122.97
1857	6.	0.75	0.	138.4
1858	6.	1.25	0.	128.67
1859	6.25	1.	0.	131.03
1860	5.75	-1.	0.	123.6
1861	6.	-0.75	0.	139.14
1862	6.25	-1.	0.	133.61
1863	6.	-1.25	0.	129.62
1864	-9.	6.75	0.	144.58
1865	-8.75	7.	0.	129.92
1866	-9.	7.25	0.	134.12
1867	-9.25	7.	0.	136.56
1868	-9.	6.25	0.	144.21
1869	-8.75	6.	0.	129.48
1870	-9.	5.75	0.	134.4
1871	-9.25	6.	0.	137.71
1872	-7.25	7.	0.	127.67
1873	-7.	6.75	0.	138.07
1874	-6.75	7.	0.	130.44
1875	-7.	7.25	0.	132.49
1876	-7.25	6.	0.	122.27
1877	-7.	6.25	0.	135.35
1878	-6.75	6.	0.	127.95
1879	-7.	5.75	0.	124.61
1880	6.	-6.25	0.	144.04
1881	6.25	-6.	0.	129.78
1882	6.	-5.75	0.	135.84
1883	5.75	-6.	0.	138.65
1884	6.	-6.75	0.	143.57
1885	6.25	-7.	0.	128.61
1886	6.	-7.25	0.	134.55
1887	5.75	-7.	0.	139.72
1888	7.75	-6.	0.	127.06
1889	8.	-6.25	0.	140.96
1890	8.25	-6.	0.	133.91
1891	8.	-5.75	0.	131.55
1892	7.75	-7.	0.	127.05
1893	8.	-6.75	0.	141.03
1894	8.25	-7.	0.	134.22
1895	8.	-7.25	0.	131.88
1896	-9.	-5.25	0.	145.06
1897	-8.75	-5.	0.	128.38
1898	-9.	-4.75	0.	134.29
1899	-9.25	-5.	0.	138.52
1900	-9.	-6.75	0.	144.67
1901	-8.75	-7.	0.	127.55
1902	-9.	-7.25	0.	133.51
1903	-9.25	-7.	0.	137.68
1904	-7.25	-5.	0.	125.94
1905	-7.	-5.25	0.	141.94
1906	-6.75	-5.	0.	134.63
1907	-7.	-4.75	0.	131.
1908	-7.25	-7.	0.	126.37
1909	-7.	-6.75	0.	142.54
1910	-6.75	-7.	0.	136.09
1911	-7.	-7.25	0.	132.46
1912	9.75	10.	0.	124.91
1913	10.	9.75	0.	125.08
1914	-9.75	10.	0.	125.
1915	-10.	9.75	0.	124.95
1916	10.	-9.75	0.	131.38
1917	9.75	-10.	0.	130.72
1918	-10.	-9.75	0.	128.78
1919	-9.75	-10.	0.	128.16
1920	-8.	3.25	0.	143.59
1921	-8.25	3.5	0.	138.14
1922	-8.	2.75	0.	144.26
1923	-8.25	3.	0.	140.33
1924	-8.25	2.5	0.	139.29
1925	-7.25	4.	0.	113.46
1926	-7.5	4.25	0.	110.68
1927	-6.75	4.	0.	114.81
1928	-7.	4.25	0.	114.42
1929	-6.5	4.25	0.	113.87
1930	-7.25	2.	0.	114.72
1931	-7.5	1.75	0.	112.94
1932	-6.75	2.	0.	114.27
1933	-7.	1.75	0.	114.43
1934	-6.5	1.75	0.	112.04
1935	-6.	3.25	0.	145.1
1936	-5.75	3.5	0.	140.28
1937	-6.	2.75	0.	144.82
1938	-5.75	3.	0.	141.47
1939	-5.75	2.5	0.	139.45
1940	2.75	-4.5	0.	135.67
1941	3.5	-3.75	0.	109.09
1942	3.5	-5.25	0.	104.82
1943	4.25	-4.5	0.	129.93
1944	-4.25	7.5	0.	142.39
1945	-3.5	8.25	0.	110.59
1946	-3.5	6.75	0.	111.82
1947	-2.75	7.5	0.	134.48
1948	1.	-6.75	0.	147.92
1949	0.75	-6.5	0.	144.52
1950	1.	-7.25	0.	145.83
1951	0.75	-7.	0.	142.27
1952	0.75	-7.5	0.	139.27
1953	1.5	-5.75	0.	114.15
1954	1.5	-8.25	0.	111.97
1955	2.	-6.75	0.	146.34
1956	2.25	-6.5	0.	143.71
1957	2.	-7.25	0.	145.47
1958	2.25	-7.	0.	145.17
1959	2.25	-7.5	0.	142.74
1960	-7.	-1.75	0.	138.61
1961	-7.25	-1.5	0.	134.16
1962	-7.	-2.25	0.	138.72
1963	-7.25	-2.	0.	135.34
1964	-7.25	-2.5	0.	134.04
1965	-6.5	-0.75	0.	106.28
1966	-6.5	-3.25	0.	108.61
1967	-6.	-1.75	0.	142.81
1968	-5.75	-1.5	0.	136.98
1969	-6.	-2.25	0.	144.49
1970	-5.75	-2.	0.	140.3
1971	-5.75	-2.5	0.	141.89
1972	-5.25	-3.5	0.	142.66
1973	-4.25	-3.	0.	122.13
1974	-4.5	-2.75	0.	119.54
1975	-3.75	-3.	0.	121.84
1976	-4.	-2.75	0.	122.23
1977	-3.5	-2.75	0.	119.23
1978	-4.25	-4.	0.	120.34
1979	-4.5	-4.25	0.	117.33
1980	-3.75	-4.	0.	119.86
1981	-4.	-4.25	0.	119.42
1982	-3.5	-4.25	0.	116.59
1983	-2.75	-3.5	0.	140.11
1984	-1.	2.25	0.	147.03
1985	-1.25	2.5	0.	141.35
1986	-1.	1.75	0.	146.07
1987	-1.25	2.	0.	141.66
1988	-1.25	1.5	0.	139.76
1989	-0.25	3.	0.	118.27
1990	-0.5	3.25	0.	116.26
1991	0.25	3.	0.	117.71
1992	2.7711e-011	3.25	0.	117.85
1993	0.5	3.25	0.	115.3
1994	-0.25	1.	0.	116.93
1995	-0.5	0.75	0.	114.79
1996	0.25	1.	0.	117.04
1997	1.2339e-011	0.75	0.	117.12
1998	0.5	0.75	0.	115.01
1999	1.	2.25	0.	147.36
2000	1.25	2.5	0.	141.93
2001	1.	1.75	0.	147.19
2002	1.25	2.	0.	143.38
2003	1.25	1.5	0.	141.74
2004	-4.25	4.5	0.	141.14
2005	-3.25	5.	0.	121.67
2006	-3.5	5.25	0.	118.39
2007	-2.75	5.	0.	122.2
2008	-3.	5.25	0.	121.84
2009	-2.5	5.25	0.	119.8
2010	-3.25	4.	0.	122.27
2011	-3.5	3.75	0.	118.96
2012	-2.75	4.	0.	123.02
2013	-3.	3.75	0.	122.59
2014	-2.5	3.75	0.	120.56
2015	-1.75	4.5	0.	139.67
2016	-1.	-4.75	0.	146.68
2017	-1.25	-4.5	0.	141.57
2018	-1.	-5.25	0.	147.82
2019	-1.25	-5.	0.	143.99
2020	-1.25	-5.5	0.	143.47
2021	-0.5	-3.75	0.	110.57
2022	-0.5	-6.25	0.	112.96
2023	0.	-4.75	0.	146.46
2024	0.25	-4.5	0.	139.92
2025	0.	-5.25	0.	148.44
2026	0.25	-5.	0.	143.15
2027	0.25	-5.5	0.	145.05
2028	-7.25	8.5	0.	134.95
2029	-6.25	9.	0.	125.41
2030	-6.5	9.25	0.	121.21
2031	-5.75	9.	0.	125.89
2032	-6.	9.25	0.	126.13
2033	-5.5	9.25	0.	122.2
2034	-6.25	8.	0.	126.01
2035	-6.5	7.75	0.	124.06
2036	-5.75	8.	0.	125.96
2037	-6.	7.75	0.	126.51
2038	-5.5	7.75	0.	122.16
2039	-4.75	8.5	0.	142.73
2040	6.	4.25	0.	138.05
2041	5.75	4.5	0.	134.19
2042	6.	3.75	0.	137.95
2043	5.75	4.	0.	134.93
2044	5.75	3.5	0.	133.48
2045	6.5	5.25	0.	100.79
2046	6.5	2.75	0.	108.29
2047	7.	4.25	0.	142.39
2048	7.25	4.5	0.	139.8
2049	7.	3.75	0.	141.3
2050	7.25	4.	0.	138.25
2051	7.25	3.5	0.	135.86
2052	8.	-1.75	0.	144.94
2053	7.75	-1.5	0.	140.33
2054	8.	-2.25	0.	145.02
2055	7.75	-2.	0.	141.69
2056	7.75	-2.5	0.	140.03
2057	8.5	-0.75	0.	110.14
2058	8.5	-3.25	0.	111.17
2059	9.	-1.75	0.	146.38
2060	9.25	-1.5	0.	141.65
2061	9.	-2.25	0.	146.57
2062	9.25	-2.	0.	143.24
2063	9.25	-2.5	0.	142.27
2064	8.	6.25	0.	144.87
2065	7.75	6.5	0.	139.55
2066	8.	5.75	0.	148.45
2067	7.75	6.	0.	143.57
2068	7.75	5.5	0.	145.78
2069	8.5	7.25	0.	110.82
2070	8.5	4.75	0.	112.1
2071	9.	6.25	0.	146.09
2072	9.25	6.5	0.	141.04
2073	9.	5.75	0.	146.5
2074	9.25	6.	0.	142.63
2075	9.25	5.5	0.	141.64
2076	3.	-6.75	0.	145.45
2077	2.75	-6.5	0.	142.56
2078	3.	-7.25	0.	146.04
2079	2.75	-7.	0.	145.43
2080	2.75	-7.5	0.	143.04
2081	3.75	-6.	0.	111.25
2082	3.5	-5.75	0.	106.2
2083	4.25	-6.	0.	114.55
2084	4.	-5.75	0.	113.75
2085	4.5	-5.75	0.	116.88
2086	3.75	-8.	0.	115.7
2087	3.5	-8.25	0.	114.23
2088	4.25	-8.	0.	115.87
2089	4.	-8.25	0.	116.05
2090	4.5	-8.25	0.	114.23
2091	5.	-6.75	0.	145.01
2092	5.25	-6.5	0.	141.5
2093	5.	-7.25	0.	147.02
2094	5.25	-7.	0.	143.59
2095	5.25	-7.5	0.	143.41
2096	5.75	6.5	0.	134.28
2097	6.5	7.25	0.	111.35
2098	6.5	5.75	0.	101.84
2099	7.25	6.5	0.	139.66
2100	-5.	-7.75	0.	145.12
2101	-5.25	-7.5	0.	140.33
2102	-5.	-8.25	0.	145.12
2103	-5.25	-8.	0.	141.81
2104	-5.25	-8.5	0.	139.93
2105	-4.25	-7.	0.	113.46
2106	-4.5	-6.75	0.	111.3
2107	-3.75	-7.	0.	113.73
2108	-4.	-6.75	0.	113.3
2109	-3.5	-6.75	0.	111.9
2110	-4.25	-9.	0.	113.2
2111	-4.5	-9.25	0.	111.16
2112	-3.75	-9.	0.	113.26
2113	-4.	-9.25	0.	112.37
2114	-3.5	-9.25	0.	111.34
2115	-3.	-7.75	0.	144.97
2116	-2.75	-7.5	0.	140.08
2117	-3.	-8.25	0.	144.82
2118	-2.75	-8.	0.	141.24
2119	-2.75	-8.5	0.	139.81
2120	4.	0.25	0.	145.96
2121	3.75	0.5	0.	140.77
2122	4.	-0.25	0.	145.78
2123	3.75	7.1919e-013	0.	142.11
2124	3.75	-0.5	0.	140.4
2125	4.75	1.	0.	116.79
2126	4.5	1.25	0.	115.25
2127	5.25	1.	0.	115.62
2128	5.	1.25	0.	116.86
2129	5.5	1.25	0.	113.27
2130	4.75	-1.	0.	115.27
2131	4.5	-1.25	0.	113.17
2132	5.25	-1.	0.	115.61
2133	5.	-1.25	0.	115.56
2134	5.5	-1.25	0.	113.64
2135	6.	0.25	0.	144.12
2136	6.25	0.5	0.	138.16
2137	6.	-0.25	0.	144.66
2138	6.25	-1.3692e-012	0.	140.5
2139	6.25	-0.5	0.	139.6
2140	-9.25	6.5	0.	142.47
2141	-8.25	7.	0.	123.58
2142	-8.5	7.25	0.	119.87
2143	-7.75	7.	0.	123.66
2144	-8.	7.25	0.	123.95
2145	-7.5	7.25	0.	122.16
2146	-8.25	6.	0.	121.59
2147	-8.5	5.75	0.	120.06
2148	-7.75	6.	0.	118.8
2149	-8.	5.75	0.	120.18
2150	-7.5	5.75	0.	113.98
2151	-6.75	6.5	0.	133.49
2152	5.75	-6.5	0.	143.78
2153	6.75	-6.	0.	121.93
2154	6.5	-5.75	0.	120.1
2155	7.25	-6.	0.	121.21
2156	7.	-5.75	0.	122.12
2157	7.5	-5.75	0.	118.37
2158	6.75	-7.	0.	120.83
2159	6.5	-7.25	0.	118.62
2160	7.25	-7.	0.	120.74
2161	7.	-7.25	0.	121.24
2162	7.5	-7.25	0.	118.23
2163	8.25	-6.5	0.	138.65
2164	-9.	-5.75	0.	151.67
2165	-9.25	-5.5	0.	145.57
2166	-9.	-6.25	0.	151.53
2167	-9.25	-6.	0.	147.13
2168	-9.25	-6.5	0.	145.21
2169	-8.25	-5.	0.	119.72
2170	-8.5	-4.75	0.	117.69
2171	-7.75	-5.	0.	118.62
2172	-8.	-4.75	0.	119.32
2173	-7.5	-4.75	0.	115.75
2174	-8.25	-7.	0.	118.7
2175	-8.5	-7.25	0.	116.38
2176	-7.75	-7.	0.	118.28
2177	-8.	-7.25	0.	118.26
2178	-7.5	-7.25	0.	115.76
2179	-7.	-5.75	0.	148.29
2180	-6.75	-5.5	0.	142.2
2181	-7.	-6.25	0.	148.49
2182	-6.75	-6.	0.	144.35
2183	-6.75	-6.5	0.	142.87
2184	9.25	10.	0.	124.59
2185	9.5	9.75	0.	125.02
2186	8.75	10.	0.	124.01
2187	9.	9.75	0.	124.37
2188	8.25	10.	0.	123.49
2189	8.5	9.75	0.	123.8
2190	7.75	10.	0.	123.19
2191	8.	9.75	0.	123.49
2192	7.25	10.	0.	123.13
2193	7.5	9.75	0.	123.39
2194	6.75	10.	0.	123.31
2195	7.	9.75	0.	123.44
2196	6.25	10.	0.	123.72
2197	6.5	9.75	0.	123.67
2198	5.75	10.	0.	124.34
2199	6.	9.75	0.	124.14
2200	5.25	10.	0.	125.03
2201	5.5	9.75	0.	124.78
2202	4.75	10.	0.	125.65
2203	5.	9.75	0.	125.39
2204	4.25	10.	0.	126.1
2205	4.5	9.75	0.	125.85
2206	3.75	10.	0.	126.36
2207	4.	9.75	0.	126.12
2208	3.25	10.	0.	126.46
2209	3.5	9.75	0.	126.25
2210	2.75	10.	0.	126.46
2211	3.	9.75	0.	126.28
2212	2.25	10.	0.	126.41
2213	2.5	9.75	0.	126.24
2214	1.75	10.	0.	126.33
2215	2.	9.75	0.	126.18
2216	1.25	10.	0.	126.26
2217	1.5	9.75	0.	126.11
2218	0.75	10.	0.	126.21
2219	1.	9.75	0.	126.04
2220	0.25	10.	0.	126.2
2221	0.5	9.75	0.	126.
2222	-0.25	10.	0.	126.22
2223	-2.7247e-012	9.75	0.	125.98
2224	-0.75	10.	0.	126.26
2225	-0.5	9.75	0.	126.
2226	-1.25	10.	0.	126.24
2227	-1.	9.75	0.	126.02
2228	-1.75	10.	0.	126.03
2229	-1.5	9.75	0.	126.02
2230	-2.25	10.	0.	125.51
2231	-2.	9.75	0.	125.81
2232	-2.75	10.	0.	124.92
2233	-2.5	9.75	0.	125.15
2234	-3.25	10.	0.	124.9
2235	-3.	9.75	0.	124.29
2236	-3.75	10.	0.	126.12
2237	-3.5	9.75	0.	124.27
2238	-4.25	10.	0.	127.51
2239	-4.	9.75	0.	126.1
2240	-4.75	10.	0.	126.35
2241	-4.5	9.75	0.	128.71
2242	-5.25	10.	0.	122.86
2243	-5.	9.75	0.	126.18
2244	-5.75	10.	0.	119.85
2245	-5.5	9.75	0.	121.44
2246	-6.25	10.	0.	119.29
2247	-6.	9.75	0.	120.9
2248	-6.75	10.	0.	121.28
2249	-6.5	9.75	0.	120.38
2250	-7.25	10.	0.	124.35
2251	-7.	9.75	0.	124.12
2252	-7.75	10.	0.	126.18
2253	-7.5	9.75	0.	126.87
2254	-8.25	10.	0.	125.9
2255	-8.	9.75	0.	125.47
2256	-8.75	10.	0.	125.27
2257	-8.5	9.75	0.	124.7
2258	-9.25	10.	0.	125.07
2259	-9.	9.75	0.	124.75
2260	-9.5	9.75	0.	125.
2261	10.	9.25	0.	125.92
2262	9.75	9.5	0.	125.19
2263	10.	8.75	0.	127.93
2264	9.75	9.	0.	126.29
2265	10.	8.25	0.	130.96
2266	9.75	8.5	0.	128.05
2267	10.	7.75	0.	133.67
2268	9.75	8.	0.	130.63
2269	10.	7.25	0.	133.8
2270	9.75	7.5	0.	133.68
2271	10.	6.75	0.	131.81
2272	9.75	7.	0.	133.26
2273	10.	6.25	0.	130.91
2274	9.75	6.5	0.	133.64
2275	10.	5.75	0.	131.08
2276	9.75	6.	0.	134.84
2277	10.	5.25	0.	132.15
2278	9.75	5.5	0.	134.
2279	10.	4.75	0.	134.06
2280	9.75	5.	0.	133.72
2281	10.	4.25	0.	133.84
2282	9.75	4.5	0.	134.05
2283	10.	3.75	0.	131.44
2284	9.75	4.	0.	131.07
2285	10.	3.25	0.	129.18
2286	9.75	3.5	0.	128.98
2287	10.	2.75	0.	128.06
2288	9.75	3.	0.	128.02
2289	10.	2.25	0.	127.59
2290	9.75	2.5	0.	127.63
2291	10.	1.75	0.	127.39
2292	9.75	2.	0.	127.4
2293	10.	1.25	0.	127.54
2294	9.75	1.5	0.	127.24
2295	10.	0.75	0.	128.47
2296	9.75	1.	0.	127.37
2297	10.	0.25	0.	130.64
2298	9.75	0.5	0.	128.22
2299	10.	-0.25	0.	133.04
2300	9.75	-7.8665e-013	0.	130.3
2301	10.	-0.75	0.	133.5
2302	9.75	-0.5	0.	133.37
2303	10.	-1.25	0.	132.27
2304	9.75	-1.	0.	133.36
2305	10.	-1.75	0.	132.29
2306	9.75	-1.5	0.	134.49
2307	10.	-2.25	0.	133.42
2308	9.75	-2.	0.	136.3
2309	10.	-2.75	0.	135.46
2310	9.75	-2.5	0.	136.06
2311	10.	-3.25	0.	138.25
2312	9.75	-3.	0.	136.63
2313	10.	-3.75	0.	138.58
2314	9.75	-3.5	0.	137.51
2315	10.	-4.25	0.	136.13
2316	9.75	-4.	0.	134.87
2317	10.	-4.75	0.	132.96
2318	9.75	-4.5	0.	132.66
2319	10.	-5.25	0.	129.88
2320	9.75	-5.	0.	130.84
2321	10.	-5.75	0.	126.87
2322	9.75	-5.5	0.	128.81
2323	10.	-6.25	0.	124.74
2324	9.75	-6.	0.	126.71
2325	10.	-6.75	0.	124.56
2326	9.75	-6.5	0.	125.7
2327	10.	-7.25	0.	126.24
2328	9.75	-7.	0.	126.46
2329	10.	-7.75	0.	128.48
2330	9.75	-7.5	0.	128.21
2331	10.	-8.25	0.	130.16
2332	9.75	-8.	0.	129.64
2333	10.	-8.75	0.	131.
2334	9.75	-8.5	0.	130.37
2335	10.	-9.25	0.	131.31
2336	9.75	-9.	0.	130.63
2337	9.75	-9.5	0.	130.71
2338	-10.	9.25	0.	125.21
2339	-9.75	9.5	0.	124.95
2340	-10.	8.75	0.	126.48
2341	-9.75	9.	0.	125.36
2342	-10.	8.25	0.	129.05
2343	-9.75	8.5	0.	126.82
2344	-10.	7.75	0.	131.17
2345	-9.75	8.	0.	129.51
2346	-10.	7.25	0.	130.09
2347	-9.75	7.5	0.	132.43
2348	-10.	6.75	0.	127.29
2349	-9.75	7.	0.	131.18
2350	-10.	6.25	0.	129.54
2351	-9.75	6.5	0.	130.76
2352	-10.	5.75	0.	136.14
2353	-9.75	6.	0.	134.85
2354	-10.	5.25	0.	139.39
2355	-9.75	5.5	0.	138.31
2356	-10.	4.75	0.	137.55
2357	-9.75	5.	0.	136.79
2358	-10.	4.25	0.	133.48
2359	-9.75	4.5	0.	134.19
2360	-10.	3.75	0.	129.59
2361	-9.75	4.	0.	131.28
2362	-10.	3.25	0.	127.18
2363	-9.75	3.5	0.	129.01
2364	-10.	2.75	0.	126.87
2365	-9.75	3.	0.	128.07
2366	-10.	2.25	0.	128.44
2367	-9.75	2.5	0.	128.62
2368	-10.	1.75	0.	130.92
2369	-9.75	2.	0.	130.24
2370	-10.	1.25	0.	132.98
2371	-9.75	1.5	0.	132.01
2372	-10.	0.75	0.	133.76
2373	-9.75	1.	0.	132.89
2374	-10.	0.25	0.	133.27
2375	-9.75	0.5	0.	132.72
2376	-10.	-0.25	0.	131.94
2377	-9.75	-4.7594e-014	0.	131.84
2378	-10.	-0.75	0.	130.31
2379	-9.75	-0.5	0.	130.6
2380	-10.	-1.25	0.	128.87
2381	-9.75	-1.	0.	129.33
2382	-10.	-1.75	0.	128.08
2383	-9.75	-1.5	0.	128.37
2384	-10.	-2.25	0.	128.33
2385	-9.75	-2.	0.	128.07
2386	-10.	-2.75	0.	129.87
2387	-9.75	-2.5	0.	128.65
2388	-10.	-3.25	0.	132.74
2389	-9.75	-3.	0.	130.22
2390	-10.	-3.75	0.	136.61
2391	-9.75	-3.5	0.	132.71
2392	-10.	-4.25	0.	139.55
2393	-9.75	-4.	0.	135.92
2394	-10.	-4.75	0.	138.74
2395	-9.75	-4.5	0.	138.98
2396	-10.	-5.25	0.	134.85
2397	-9.75	-5.	0.	137.6
2398	-10.	-5.75	0.	132.23
2399	-9.75	-5.5	0.	136.47
2400	-10.	-6.25	0.	131.74
2401	-9.75	-6.	0.	136.79
2402	-10.	-6.75	0.	133.47
2403	-9.75	-6.5	0.	135.76
2404	-10.	-7.25	0.	136.81
2405	-9.75	-7.	0.	136.15
2406	-10.	-7.75	0.	137.6
2407	-9.75	-7.5	0.	137.28
2408	-10.	-8.25	0.	135.11
2409	-9.75	-8.	0.	134.33
2410	-10.	-8.75	0.	131.95
2411	-9.75	-8.5	0.	131.53
2412	-10.	-9.25	0.	129.79
2413	-9.75	-9.	0.	129.59
2414	-9.75	-9.5	0.	128.5
2415	-9.25	-10.	0.	126.85
2416	-9.5	-9.75	0.	127.88
2417	-8.75	-10.	0.	125.12
2418	-9.	-9.75	0.	125.86
2419	-8.25	-10.	0.	124.11
2420	-8.5	-9.75	0.	124.13
2421	-7.75	-10.	0.	124.5
2422	-8.	-9.75	0.	123.65
2423	-7.25	-10.	0.	126.41
2424	-7.5	-9.75	0.	124.85
2425	-6.75	-10.	0.	129.38
2426	-7.	-9.75	0.	127.49
2427	-6.25	-10.	0.	132.46
2428	-6.5	-9.75	0.	130.8
2429	-5.75	-10.	0.	133.12
2430	-6.	-9.75	0.	133.68
2431	-5.25	-10.	0.	127.55
2432	-5.5	-9.75	0.	133.45
2433	-4.75	-10.	0.	117.55
2434	-5.	-9.75	0.	123.33
2435	-4.25	-10.	0.	110.42
2436	-4.5	-9.75	0.	111.67
2437	-3.75	-10.	0.	110.57
2438	-4.	-9.75	0.	109.19
2439	-3.25	-10.	0.	118.11
2440	-3.5	-9.75	0.	111.94
2441	-2.75	-10.	0.	128.82
2442	-3.	-9.75	0.	124.09
2443	-2.25	-10.	0.	135.54
2444	-2.5	-9.75	0.	135.05
2445	-1.75	-10.	0.	136.51
2446	-2.	-9.75	0.	136.64
2447	-1.25	-10.	0.	135.29
2448	-1.5	-9.75	0.	135.6
2449	-0.75	-10.	0.	133.81
2450	-1.	-9.75	0.	134.27
2451	-0.25	-10.	0.	132.12
2452	-0.5	-9.75	0.	132.91
2453	0.25	-10.	0.	129.92
2454	2.1061e-012	-9.75	0.	131.23
2455	0.75	-10.	0.	127.29
2456	0.5	-9.75	0.	128.69
2457	1.25	-10.	0.	125.17
2458	1.	-9.75	0.	125.74
2459	1.75	-10.	0.	124.39
2460	1.5	-9.75	0.	124.13
2461	2.25	-10.	0.	124.25
2462	2.	-9.75	0.	124.49
2463	2.75	-10.	0.	123.1
2464	2.5	-9.75	0.	124.55
2465	3.25	-10.	0.	120.63
2466	3.	-9.75	0.	122.37
2467	3.75	-10.	0.	118.45
2468	3.5	-9.75	0.	119.09
2469	4.25	-10.	0.	118.28
2470	4.	-9.75	0.	117.43
2471	4.75	-10.	0.	120.35
2472	4.5	-9.75	0.	118.69
2473	5.25	-10.	0.	123.33
2474	5.	-9.75	0.	122.01
2475	5.75	-10.	0.	125.5
2476	5.5	-9.75	0.	125.11
2477	6.25	-10.	0.	126.19
2478	6.	-9.75	0.	126.41
2479	6.75	-10.	0.	125.97
2480	6.5	-9.75	0.	126.17
2481	7.25	-10.	0.	125.78
2482	7.	-9.75	0.	125.65
2483	7.75	-10.	0.	126.13
2484	7.5	-9.75	0.	125.68
2485	8.25	-10.	0.	127.01
2486	8.	-9.75	0.	126.42
2487	8.75	-10.	0.	128.17
2488	8.5	-9.75	0.	127.57
2489	9.25	-10.	0.	129.41
2490	9.	-9.75	0.	128.81
2491	9.5	-9.75	0.	130.04
2492	2.25	6.	0.	125.7
2493	2.5	6.25	0.	125.79
2494	2.75	6.	0.	126.16
2495	2.5	5.75	0.	126.27
2496	2.	6.25	0.	125.3
2497	2.	5.75	0.	125.7
2498	1.75	6.	0.	125.09
2499	2.25	6.5	0.	125.39
2500	2.75	6.5	0.	125.78
2501	2.5	6.75	0.	125.51
2502	3.	5.75	0.	126.61
2503	3.	6.25	0.	126.15
2504	3.25	6.	0.	126.5
2505	2.75	5.5	0.	126.72
2506	2.25	5.5	0.	126.27
2507	2.5	5.25	0.	127.02
2508	3.	5.25	0.	127.17
2509	3.25	5.5	0.	126.99
2510	2.75	5.	0.	127.46
2511	3.	4.75	0.	127.78
2512	3.25	5.	0.	127.42
2513	1.	6.25	0.	124.22
2514	0.75	6.	0.	123.96
2515	1.	5.75	0.	123.92
2516	1.25	6.	0.	124.42
2517	1.	6.75	0.	124.44
2518	0.75	6.5	0.	124.33
2519	1.25	6.5	0.	124.53
2520	2.	6.75	0.	125.12
2521	1.75	6.5	0.	124.94
2522	0.5	5.75	0.	123.37
2523	0.25	6.	0.	124.1
2524	0.5	6.25	0.	124.07
2525	3.25	6.5	0.	126.11
2526	3.	6.75	0.	125.86
2527	3.5	6.25	0.	126.46
2528	3.5	5.75	0.	126.88
2529	3.75	6.	0.	126.88
2530	3.5	4.25	0.	127.42
2531	3.25	4.5	0.	127.76
2532	3.5	4.75	0.	127.4
2533	3.75	4.5	0.	127.23
2534	1.75	5.5	0.	125.46
2535	2.	5.25	0.	126.45
2536	-3.5	-0.25	0.	127.43
2537	-3.75	-4.9198e-011	0.	127.74
2538	-3.5	0.25	0.	127.62
2539	-3.25	-3.5647e-011	0.	128.03
2540	-0.25	-1.5	0.	122.63
2541	-0.75	-1.5	0.	123.74
2542	-0.5	-1.25	0.	122.39
2543	-0.5	-1.75	0.	122.82
2544	6.9522e-011	6.75	0.	124.76
2545	1.129e-010	6.25	0.	124.57
2546	-0.25	6.5	0.	125.28
2547	0.25	6.5	0.	124.55
2548	1.	-1.75	0.	126.26
2549	1.25	-1.5	0.	126.77
2550	1.	-1.25	0.	125.32
2551	0.75	-1.5	0.	124.69
2552	2.25	5.	0.	127.19
2553	2.5	4.75	0.	128.04
2554	0.75	5.5	0.	123.33
2555	0.5	5.25	0.	122.28
2556	0.25	5.5	0.	123.04
2557	3.75	4.	0.	126.89
2558	3.5	3.75	0.	127.39
2559	3.25	4.	0.	128.02
2560	3.	4.25	0.	128.36
2561	2.75	4.5	0.	128.35
2562	4.5465e-011	-1.25	0.	121.81
2563	0.25	-1.	0.	121.78
2564	-0.25	-1.	0.	121.57
2565	4.9515e-011	-0.75	0.	120.15
2566	-3.25	-0.5	0.	127.6
2567	-3.	-0.75	0.	127.76
2568	-2.75	-0.5	0.	128.55
2569	-3.	-0.25	0.	128.2
2570	3.5	6.75	0.	126.17
2571	3.75	6.5	0.	126.39
2572	-3.5	-0.75	0.	126.52
2573	-3.75	-0.5	0.	127.01
2574	-4.	0.25	0.	127.8
2575	-4.	-0.25	0.	127.32
2576	-4.25	-5.6042e-011	0.	127.96
2577	-0.25	7.	0.	124.96
2578	2.8538e-011	7.25	0.	124.69
2579	0.25	7.	0.	124.63
2580	-3.5	1.25	0.	125.87
2581	-3.25	1.5	0.	125.03
2582	-3.5	1.75	0.	124.41
2583	-3.75	1.5	0.	125.82
2584	-3.75	0.5	0.	127.68
2585	-4.	0.75	0.	127.6
2586	-4.25	0.5	0.	128.11
2587	1.25	-2.	0.	127.65
2588	1.5	-1.75	0.	128.16
2589	1.75	-2.	0.	129.
2590	1.5	-2.25	0.	128.98
2591	4.	4.25	0.	126.7
2592	4.	3.75	0.	126.08
2593	4.25	4.	0.	126.2
2594	-3.	1.75	0.	124.01
2595	-3.25	2.	0.	123.38
2596	-2.75	2.	0.	123.88
2597	-3.	2.25	0.	122.28
2598	3.2974e-011	-1.75	0.	122.72
2599	0.25	-1.5	0.	123.05
2600	3.5	5.25	0.	127.24
2601	3.75	5.5	0.	127.35
2602	3.75	5.	0.	127.46
2603	1.25	5.5	0.	124.35
2604	1.5	5.75	0.	124.85
2605	1.5	5.25	0.	125.26
2606	1.	5.25	0.	123.61
2607	-3.5	0.75	0.	127.04
2608	-3.75	1.	0.	126.96
2609	-3.25	1.	0.	126.59
2610	-3.25	0.5	0.	127.69
2611	1.25	7.	0.	124.64
2612	1.	7.25	0.	124.59
2613	0.75	7.	0.	124.51
2614	1.75	7.	0.	124.91
2615	1.5	7.25	0.	124.8
2616	1.5	6.75	0.	124.73
2617	2.	7.25	0.	125.09
2618	2.25	7.	0.	125.25
2619	3.25	7.	0.	125.91
2620	3.	7.25	0.	125.73
2621	2.75	7.	0.	125.59
2622	-1.25	-1.5	0.	125.96
2623	-1.	-1.25	0.	124.53
2624	-1.	-1.75	0.	124.66
2625	1.	-2.25	0.	127.43
2626	0.75	-2.	0.	125.73
2627	1.4412e-010	5.75	0.	123.77
2628	-0.25	6.	0.	125.15
2629	4.	6.25	0.	126.81
2630	4.	5.75	0.	127.35
2631	4.25	6.	0.	127.44
2632	4.	4.75	0.	127.29
2633	4.25	4.5	0.	127.12
2634	1.75	-1.5	0.	128.54
2635	1.5	-1.25	0.	127.65
2636	0.75	-1.	0.	123.65
2637	0.5	-0.75	0.	121.59
2638	0.5	-1.25	0.	123.02
2639	2.	4.75	0.	127.72
2640	1.75	5.	0.	126.24
2641	0.75	5.	0.	122.56
2642	0.5	4.75	0.	120.91
2643	0.25	5.	0.	121.41
2644	3.75	3.5	0.	126.58
2645	3.25	3.5	0.	128.23
2646	3.5	3.25	0.	127.49
2647	3.	3.75	0.	128.86
2648	2.75	4.	0.	129.25
2649	-1.75	-1.	0.	127.9
2650	-2.	-0.75	0.	128.97
2651	-2.	-1.25	0.	128.95
2652	-2.25	-1.	0.	128.75
2653	-0.75	-1.	0.	123.17
2654	-0.5	-0.75	0.	121.26
2655	-3.	1.25	0.	125.75
2656	-2.75	1.5	0.	125.49
2657	3.75	7.	0.	126.23
2658	3.5	7.25	0.	126.07
2659	4.	6.75	0.	126.46
2660	4.25	6.5	0.	126.67
2661	-3.25	-1.	0.	126.68
2662	-3.75	-1.	0.	125.58
2663	-3.5	-1.25	0.	125.1
2664	-4.	-0.75	0.	126.08
2665	-4.25	-0.5	0.	127.19
2666	-0.5	6.75	0.	125.48
2667	-0.75	7.	0.	125.38
2668	-0.5	7.25	0.	124.96
2669	-3.75	2.	0.	124.6
2670	-3.5	2.25	0.	122.97
2671	-4.25	1.	0.	127.9
2672	-4.	1.25	0.	126.91
2673	2.	-1.75	0.	129.39
2674	2.	-2.25	0.	129.68
2675	2.25	-2.	0.	129.51
2676	4.25	3.5	0.	125.32
2677	4.	3.25	0.	125.58
2678	2.5	4.25	0.	129.24
2679	2.25	4.5	0.	128.56
2680	1.5	-2.75	0.	129.81
2681	1.75	-2.5	0.	129.65
2682	1.25	-2.5	0.	128.76
2683	-4.5	0.25	0.	128.27
2684	-4.5	0.75	0.	128.41
2685	-4.75	0.5	0.	128.21
2686	-2.5	2.25	0.	124.1
2687	-2.5	1.75	0.	125.37
2688	-2.25	2.	0.	126.6
2689	-3.	2.75	0.	120.61
2690	-2.75	2.5	0.	122.48
2691	-3.25	2.5	0.	121.85
2692	-0.75	6.5	0.	126.35
2693	-0.5	6.25	0.	125.85
2694	-1.5	-1.25	0.	127.15
2695	-1.5	-1.75	0.	127.42
2696	-1.75	-1.5	0.	128.2
2697	-0.25	-2.	0.	122.91
2698	-0.75	-2.	0.	123.73
2699	-0.5	-2.25	0.	122.3
2700	4.75	4.	0.	126.56
2701	4.5	3.75	0.	125.45
2702	4.5	4.25	0.	126.62
2703	-4.	-5.75	0.	112.49
2704	-4.	-5.25	0.	113.84
2705	-4.25	-5.5	0.	114.51
2706	-3.75	-5.5	0.	114.73
2707	1.2497e-010	4.25	0.	117.57
2708	0.25	4.5	0.	119.48
2709	-0.25	4.5	0.	119.72
2710	1.4625e-010	4.75	0.	120.01
2711	2.2005e-011	-2.25	0.	122.93
2712	0.25	-2.	0.	123.84
2713	-0.25	5.5	0.	124.09
2714	1.5274e-010	5.25	0.	122.19
2715	-2.75	-1.	0.	128.11
2716	-3.	-1.25	0.	127.26
2717	4.	5.25	0.	127.57
2718	4.25	5.5	0.	128.13
2719	4.25	5.	0.	127.91
2720	2.25	-1.5	0.	129.72
2721	2.	-1.25	0.	129.29
2722	1.25	-1.	0.	126.22
2723	1.	-0.75	0.	124.72
2724	1.5	-0.75	0.	127.77
2725	1.75	-1.	0.	128.41
2726	1.	4.75	0.	123.56
2727	1.25	5.	0.	124.52
2728	3.	3.25	0.	129.29
2729	3.25	3.	0.	128.55
2730	3.	2.75	0.	129.92
2731	2.75	3.	0.	130.26
2732	2.75	3.5	0.	129.9
2733	-1.25	-1.	0.	125.72
2734	-1.5	-0.75	0.	127.32
2735	-1.	-0.75	0.	124.25
2736	-3.	0.75	0.	127.24
2737	-2.75	1.	0.	127.15
2738	-2.75	0.5	0.	128.46
2739	-3.	0.25	0.	128.11
2740	4.	7.25	0.	126.45
2741	4.25	7.	0.	126.54
2742	3.75	3.	0.	126.49
2743	3.5	2.75	0.	127.98
2744	-4.25	-1.	0.	125.64
2745	-4.	-1.25	0.	124.14
2746	6.	-3.75	0.	124.98
2747	6.	-3.25	0.	124.42
2748	6.25	-3.5	0.	125.54
2749	5.75	-3.5	0.	124.17
2750	-1.	6.75	0.	126.26
2751	-1.25	7.	0.	125.65
2752	-1.	7.25	0.	125.16
2753	0.25	-8.4808e-012	0.	117.59
2754	-0.25	-1.0787e-011	0.	117.46
2755	3.5219e-011	0.25	0.	115.76
2756	4.6488e-011	-0.25	0.	117.75
2757	-0.25	4.	0.	117.68
2758	0.25	4.	0.	117.46
2759	8.1746e-011	3.75	0.	115.99
2760	2.25	2.	0.	132.79
2761	2.	2.25	0.	133.08
2762	2.	1.75	0.	133.28
2763	1.75	2.	0.	136.16
2764	-4.25	-6.	0.	112.96
2765	-3.75	-6.	0.	113.27
2766	-4.	-6.25	0.	111.39
2767	2.75	2.9826e-012	0.	132.1
2768	3.	-0.25	0.	132.12
2769	3.	0.25	0.	132.65
2770	3.25	2.7204e-012	0.	135.19
2771	5.	3.75	0.	126.12
2772	5.	4.25	0.	127.52
2773	5.25	4.	0.	129.33
2774	-3.75	-5.	0.	115.55
2775	-4.	-4.75	0.	115.39
2776	-4.25	-5.	0.	115.5
2777	-1.25	-2.	0.	126.12
2778	-1.	-2.25	0.	124.29
2779	-1.75	-2.	0.	129.04
2780	-1.5	-2.25	0.	127.73
2781	-1.	6.25	0.	127.63
2782	-1.25	6.5	0.	127.22
2783	-2.75	3.	0.	121.21
2784	-3.25	3.	0.	120.43
2785	-3.	3.25	0.	119.92
2786	7.	-4.75	0.	122.15
2787	6.75	-4.5	0.	123.99
2788	7.25	-4.5	0.	123.24
2789	7.	-4.25	0.	124.77
2790	6.75	-5.	0.	122.15
2791	7.25	-5.	0.	121.12
2792	7.	-5.25	0.	120.53
2793	6.25	-4.	0.	125.41
2794	5.75	-4.	0.	124.9
2795	6.	-4.25	0.	125.73
2796	5.5	-2.75	0.	120.99
2797	5.75	-3.	0.	123.09
2798	5.5	-3.25	0.	122.84
2799	5.25	-3.	0.	121.72
2800	-4.5	-0.25	0.	127.83
2801	-4.75	-5.3669e-011	0.	128.16
2802	1.5	-3.25	0.	130.01
2803	1.25	-3.	0.	129.91
2804	1.75	-3.	0.	130.31
2805	-4.75	-5.5	0.	118.64
2806	-4.5	-5.75	0.	115.
2807	-4.5	-5.25	0.	116.17
2808	-3.25	-5.5	0.	119.38
2809	-3.5	-5.25	0.	116.45
2810	-3.5	-5.75	0.	115.53
2811	-2.5	2.75	0.	123.1
2812	-2.25	2.5	0.	125.79
2813	6.5	-4.25	0.	125.08
2814	6.5	-4.75	0.	124.01
2815	6.25	-4.5	0.	125.41
2816	-2.5	0.25	0.	129.22
2817	-2.25	-1.5907e-011	0.	129.88
2818	-2.5	-0.25	0.	129.21
2819	-2.75	-2.3323e-011	0.	128.86
2820	-2.5	1.25	0.	126.89
2821	-2.25	1.5	0.	127.35
2822	-0.75	-0.5	0.	122.34
2823	-0.5	-0.25	0.	119.57
2824	-0.25	-0.5	0.	119.82
2825	-1.75	-0.5	0.	128.39
2826	-2.	-0.25	0.	129.79
2827	-2.25	-0.5	0.	129.13
2828	2.5	3.75	0.	130.29
2829	2.25	4.	0.	130.29
2830	2.75	2.5	0.	130.88
2831	2.5	2.25	0.	131.76
2832	2.5	2.75	0.	131.23
2833	2.25	2.5	0.	132.05
2834	0.75	4.5	0.	121.91
2835	0.5	4.25	0.	119.41
2836	2.	4.25	0.	129.62
2837	1.75	4.5	0.	127.69
2838	2.25	-0.5	0.	130.34
2839	1.75	-0.5	0.	128.98
2840	2.	-0.25	0.	130.72
2841	2.	-0.75	0.	129.62
2842	0.5	-0.25	0.	119.84
2843	0.25	-0.5	0.	119.95
2844	0.75	-0.5	0.	122.66
2845	2.5	-0.25	0.	131.13
2846	2.25	2.4053e-012	0.	131.51
2847	2.5	0.25	0.	131.91
2848	3.25	2.5	0.	129.35
2849	3.	2.25	0.	131.12
2850	2.75	2.	0.	132.
2851	2.5	1.75	0.	132.35
2852	5.25	-2.5	0.	119.06
2853	5.5	-2.25	0.	118.67
2854	5.75	-2.5	0.	121.69
2855	2.5	-0.75	0.	130.53
2856	2.75	-0.5	0.	131.15
2857	4.75	3.5	0.	125.
2858	4.5	3.25	0.	124.27
2859	4.25	3.	0.	124.52
2860	4.	2.75	0.	125.29
2861	4.5	4.75	0.	127.75
2862	4.75	4.5	0.	127.59
2863	2.25	-2.5	0.	129.3
2864	2.	-2.75	0.	130.16
2865	5.	-2.75	0.	119.82
2866	5.	-2.25	0.	116.62
2867	4.75	-2.5	0.	118.45
2868	2.5	-2.25	0.	129.14
2869	2.5	-1.75	0.	129.85
2870	2.75	-2.	0.	129.17
2871	-2.	-1.75	0.	129.81
2872	-2.25	-1.5	0.	129.17
2873	-4.5	1.25	0.	128.34
2874	-4.75	1.	0.	128.73
2875	6.5	-3.75	0.	125.96
2876	6.75	-4.	0.	125.85
2877	6.25	-3.	0.	125.4
2878	6.	-2.75	0.	123.8
2879	-1.5	7.25	0.	125.2
2880	-1.5	7.75	0.	124.71
2881	-1.75	7.5	0.	124.53
2882	-1.25	7.5	0.	124.7
2883	-0.5	7.75	0.	124.69
2884	-0.75	7.5	0.	124.73
2885	-0.25	7.5	0.	124.68
2886	0.75	7.5	0.	124.63
2887	0.5	7.75	0.	124.67
2888	0.25	7.5	0.	124.62
2889	0.5	7.25	0.	124.55
2890	1.25	7.5	0.	124.75
2891	1.	7.75	0.	124.76
2892	1.75	7.5	0.	124.97
2893	1.5	7.75	0.	124.92
2894	2.25	7.5	0.	125.24
2895	2.	7.75	0.	125.15
2896	2.75	7.5	0.	125.55
2897	2.5	7.75	0.	125.42
2898	2.5	7.25	0.	125.41
2899	3.25	7.5	0.	125.89
2900	3.	7.75	0.	125.72
2901	3.75	7.5	0.	126.3
2902	3.5	7.75	0.	126.08
2903	4.	7.75	0.	126.54
2904	4.25	7.5	0.	126.84
2905	-0.5	5.75	0.	125.47
2906	-0.75	6.	0.	127.13
2907	-0.5	4.25	0.	119.87
2908	-0.75	4.5	0.	122.57
2909	-0.5	4.75	0.	121.78
2910	-4.	1.75	0.	126.01
2911	-4.25	1.5	0.	127.37
2912	-4.	2.25	0.	125.34
2913	-4.25	2.	0.	126.71
2914	-0.25	-2.5	0.	122.32
2915	-0.5	-2.75	0.	120.39
2916	-0.75	-2.5	0.	122.86
2917	0.75	-2.5	0.	126.89
2918	1.	-2.75	0.	128.87
2919	-5.25	0.5	0.	126.54
2920	-5.	0.25	0.	128.1
2921	-5.	0.75	0.	128.53
2922	-6.5	0.75	0.	114.98
2923	-6.5	0.25	0.	114.31
2924	-6.25	0.5	0.	117.34
2925	-6.75	0.5	0.	115.05
2926	-6.75	1.	0.	113.97
2927	-7.25	1.	0.	114.8
2928	-7.	1.25	0.	112.76
2929	-7.	0.75	0.	114.06
2930	-7.5	0.75	0.	117.7
2931	-7.75	0.5	0.	121.42
2932	-7.5	0.25	0.	120.34
2933	-7.25	0.5	0.	116.92
2934	0.25	-2.5	0.	124.28
2935	0.5	-2.25	0.	125.18
2936	0.5	-2.75	0.	126.64
2937	1.3626e-011	-2.75	0.	122.54
2938	-4.25	2.5	0.	126.69
2939	-4.5	2.25	0.	128.06
2940	-4.75	2.5	0.	129.39
2941	-4.5	2.75	0.	129.25
2942	-4.	2.75	0.	125.4
2943	-3.75	2.5	0.	123.71
2944	-0.75	5.5	0.	126.8
2945	-0.5	5.25	0.	123.95
2946	6.75	-3.5	0.	127.35
2947	6.5	-3.25	0.	126.51
2948	-4.5	1.75	0.	128.05
2949	-4.75	1.5	0.	129.16
2950	-4.75	2.	0.	129.03
2951	-5.5	0.75	0.	126.09
2952	-5.75	0.5	0.	122.33
2953	-5.5	0.25	0.	125.26
2954	2.75	-2.5	0.	127.32
2955	3.25	-2.5	0.	124.24
2956	3.	-2.25	0.	127.37
2957	3.	-2.75	0.	124.6
2958	2.5	-2.75	0.	128.84
2959	4.5	5.75	0.	128.23
2960	4.5	6.25	0.	127.3
2961	4.75	6.	0.	128.41
2962	4.5	5.25	0.	128.47
2963	4.75	5.5	0.	129.74
2964	4.75	5.	0.	129.04
2965	3.75	-2.5	0.	121.45
2966	3.5	-2.75	0.	120.47
2967	3.5	-2.25	0.	124.71
2968	4.	-2.75	0.	119.61
2969	4.25	-2.5	0.	119.5
2970	4.	-2.25	0.	121.13
2971	2.5	-1.25	0.	130.24
2972	2.75	-1.	0.	130.91
2973	2.25	-1.	0.	129.81
2974	2.75	-1.5	0.	130.56
2975	6.75	-2.5	0.	128.97
2976	6.5	-2.25	0.	128.42
2977	6.5	-2.75	0.	127.05
2978	6.25	-2.5	0.	125.46
2979	3.5	2.25	0.	129.4
2980	3.75	2.5	0.	126.79
2981	2.25	1.	0.	132.97
2982	2.75	1.	0.	132.94
2983	2.5	0.75	0.	132.44
2984	2.5	1.25	0.	132.6
2985	1.5	-0.25	0.	129.06
2986	1.25	-0.5	0.	126.28
2987	1.	4.25	0.	124.05
2988	1.25	4.5	0.	125.26
2989	2.5	3.25	0.	130.87
2990	2.25	3.	0.	131.92
2991	2.25	3.5	0.	131.61
2992	-1.25	-0.5	0.	125.86
2993	-1.5	-0.25	0.	128.48
2994	-1.	-0.25	0.	124.22
2995	-2.5	0.75	0.	128.37
2996	-2.25	1.	0.	128.85
2997	-2.25	0.5	0.	130.01
2998	6.25	-5.	0.	125.88
2999	6.5	-5.25	0.	122.03
3000	-0.75	4.	0.	122.64
3001	-0.5	3.75	0.	117.77
3002	-2.25	3.	0.	126.
3003	-2.5	3.25	0.	121.59
3004	-3.75	-2.	0.	121.51
3005	-4.25	-2.	0.	121.47
3006	-4.	-2.25	0.	120.26
3007	-4.	-1.75	0.	121.77
3008	-2.75	-5.5	0.	126.07
3009	-3.	-5.75	0.	122.78
3010	-3.	-5.25	0.	123.05
3011	-2.5	-5.75	0.	130.19
3012	-2.5	-5.25	0.	130.04
3013	-2.25	-5.5	0.	131.77
3014	7.	-2.25	0.	131.7
3015	7.	-2.75	0.	130.01
3016	7.25	-2.5	0.	132.96
3017	-6.5	1.25	0.	113.63
3018	-6.25	1.	0.	117.94
3019	-5.25	-5.5	0.	124.69
3020	-5.	-5.75	0.	121.58
3021	-5.	-5.25	0.	122.31
3022	-5.75	-5.5	0.	129.78
3023	-5.5	-5.75	0.	128.35
3024	-5.5	-5.25	0.	128.51
3025	-6.	-5.75	0.	132.6
3026	-6.	-5.25	0.	131.96
3027	-6.25	-5.5	0.	134.39
3028	-3.5	-4.75	0.	116.43
3029	-3.25	-5.	0.	120.12
3030	5.25	3.5	0.	127.21
3031	5.	3.25	0.	124.48
3032	3.	-0.75	0.	131.53
3033	3.25	-0.5	0.	133.65
3034	5.75	-2.	0.	120.42
3035	5.5	-1.75	0.	115.67
3036	5.25	-2.	0.	116.18
3037	7.25	0.5	0.	126.75
3038	7.	0.25	0.	129.2
3039	6.75	0.5	0.	130.54
3040	7.	0.75	0.	127.57
3041	4.75	2.	0.	118.79
3042	4.5	1.75	0.	117.78
3043	4.25	2.	0.	122.56
3044	4.5	2.25	0.	121.02
3045	-4.75	-6.	0.	117.94
3046	-4.5	-6.25	0.	112.94
3047	0.75	-4.6207e-012	0.	121.84
3048	0.5	0.25	0.	117.16
3049	1.75	2.5	0.	134.86
3050	2.	2.75	0.	132.74
3051	-2.	1.25	0.	129.3
3052	-1.75	1.5	0.	131.49
3053	-2.	1.75	0.	128.58
3054	-1.5	6.75	0.	126.62
3055	-1.75	7.	0.	125.92
3056	7.75	0.5	0.	124.29
3057	7.5	0.75	0.	125.6
3058	7.5	0.25	0.	126.36
3059	1.5	-3.75	0.	128.97
3060	1.75	-3.5	0.	130.07
3061	1.25	-3.5	0.	130.2
3062	1.75	-4.	0.	128.23
3063	1.25	-4.	0.	128.94
3064	1.5	-4.25	0.	127.12
3065	-4.5	-0.75	0.	126.76
3066	-4.75	-0.5	0.	128.03
3067	-4.5	-1.25	0.	125.16
3068	-4.75	-1.	0.	127.03
3069	5.5	-3.75	0.	124.09
3070	5.25	-3.5	0.	123.59
3071	5.5	-4.25	0.	125.51
3072	5.25	-4.	0.	124.29
3073	5.75	-4.5	0.	126.33
3074	6.	-4.75	0.	127.28
3075	5.25	-4.5	0.	125.28
3076	5.5	-4.75	0.	128.73
3077	-1.	4.75	0.	125.58
3078	-1.	4.25	0.	125.34
3079	-1.25	4.5	0.	128.06
3080	-7.75	-8.	0.	118.
3081	-7.25	-8.	0.	122.2
3082	-7.5	-8.25	0.	120.27
3083	-7.5	-7.75	0.	117.6
3084	-8.25	-8.	0.	118.05
3085	-8.	-8.25	0.	118.24
3086	-8.	-7.75	0.	116.4
3087	-7.25	5.	0.	114.05
3088	-7.5	5.25	0.	113.4
3089	-7.5	4.75	0.	112.23
3090	-7.75	5.	0.	115.51
3091	-1.25	-8.	0.	128.88
3092	-0.75	-8.	0.	128.13
3093	-1.	-7.75	0.	127.34
3094	-1.	-8.25	0.	129.25
3095	-1.75	-8.	0.	130.7
3096	-1.5	-7.75	0.	129.43
3097	-1.5	-8.25	0.	130.32
3098	-2.	-8.25	0.	131.99
3099	-2.25	-8.	0.	134.42
3100	-2.	-7.75	0.	131.72
3101	7.25	-8.	0.	120.88
3102	6.75	-8.	0.	121.51
3103	7.	-7.75	0.	119.73
3104	7.	-8.25	0.	121.56
3105	7.5	-8.25	0.	122.49
3106	7.75	-8.	0.	123.75
3107	7.5	-7.75	0.	120.
3108	-0.5	-7.75	0.	126.78
3109	-0.25	-8.	0.	128.94
3110	-0.5	-8.25	0.	129.21
3111	7.5	-4.75	0.	122.25
3112	7.75	-5.	0.	122.95
3113	7.5	-5.25	0.	120.01
3114	-7.75	1.	0.	120.04
3115	-7.5	1.25	0.	114.89
3116	-8.	-2.25	0.	126.23
3117	-8.	-2.75	0.	124.89
3118	-8.25	-2.5	0.	125.48
3119	-7.75	-2.5	0.	127.53
3120	-8.	-1.75	0.	126.97
3121	-8.25	-2.	0.	126.65
3122	-7.75	-2.	0.	129.34
3123	-8.	0.25	0.	124.8
3124	-8.	0.75	0.	123.77
3125	-8.25	0.5	0.	126.08
3126	-4.5	-1.75	0.	123.37
3127	-4.75	-1.5	0.	125.85
3128	-4.25	-1.5	0.	123.64
3129	-1.25	-7.5	0.	127.88
3130	-1.5	-7.25	0.	130.2
3131	-1.75	-7.5	0.	130.45
3132	-0.75	-7.5	0.	125.98
3133	-1.	-7.25	0.	125.91
3134	-0.5	-7.25	0.	123.8
3135	-0.25	-7.5	0.	126.73
3136	-5.25	6.	0.	130.67
3137	-5.5	5.75	0.	129.66
3138	-5.75	6.	0.	127.31
3139	-5.5	6.25	0.	127.45
3140	-8.	-1.25	0.	127.13
3141	-8.25	-1.5	0.	126.94
3142	-7.75	-1.5	0.	128.5
3143	-7.75	-1.8133e-012	0.	123.69
3144	-8.25	-8.0909e-013	0.	126.75
3145	-8.	-0.25	0.	126.32
3146	-6.25	-1.775e-011	0.	116.
3147	-6.5	-0.25	0.	110.5
3148	-6.75	-9.142e-012	0.	114.81
3149	-5.	-0.25	0.	128.36
3150	-5.25	-4.341e-011	0.	126.82
3151	-0.25	-3.	0.	120.59
3152	-0.5	-3.25	0.	115.45
3153	-0.75	-3.	0.	120.88
3154	1.	-3.25	0.	130.1
3155	0.75	-3.	0.	128.62
3156	-3.75	3.	0.	123.4
3157	-3.5	3.25	0.	120.
3158	-3.5	2.75	0.	121.7
3159	-5.	2.75	0.	131.6
3160	-5.	3.25	0.	133.02
3161	-5.25	3.	0.	134.97
3162	-4.75	3.	0.	131.44
3163	-1.	5.75	0.	128.44
3164	-1.25	6.	0.	128.96
3165	5.	6.75	0.	126.97
3166	5.25	6.5	0.	127.56
3167	4.75	6.5	0.	126.68
3168	5.	6.25	0.	127.79
3169	-1.25	8.	0.	124.69
3170	-1.5	8.25	0.	125.1
3171	-1.75	8.	0.	125.17
3172	-0.75	8.	0.	124.65
3173	-1.	8.25	0.	124.83
3174	-1.	7.75	0.	124.68
3175	-0.25	8.	0.	124.67
3176	-0.5	8.25	0.	124.78
3177	0.25	8.	0.	124.71
3178	-1.1548e-011	8.25	0.	124.81
3179	1.0552e-013	7.75	0.	124.66
3180	0.75	8.	0.	124.79
3181	0.5	8.25	0.	124.87
3182	1.25	8.	0.	124.93
3183	1.	8.25	0.	124.98
3184	1.75	8.	0.	125.11
3185	1.5	8.25	0.	125.12
3186	2.25	8.	0.	125.33
3187	2.	8.25	0.	125.3
3188	2.75	8.	0.	125.59
3189	2.5	8.25	0.	125.51
3190	3.25	8.	0.	125.91
3191	3.	8.25	0.	125.76
3192	3.75	8.	0.	126.33
3193	3.5	8.25	0.	126.07
3194	4.25	8.	0.	126.85
3195	4.	8.25	0.	126.46
3196	4.75	8.	0.	127.46
3197	4.5	8.25	0.	126.9
3198	4.5	7.75	0.	127.16
3199	5.25	8.	0.	127.36
3200	5.	8.25	0.	127.2
3201	5.	7.75	0.	128.03
3202	6.25	8.	0.	121.55
3203	6.5	8.25	0.	121.52
3204	6.5	7.75	0.	116.69
3205	6.75	8.	0.	122.03
3206	7.75	-4.5	0.	123.18
3207	7.5	-4.25	0.	124.45
3208	8.	-4.25	0.	122.79
3209	8.	-4.75	0.	123.89
3210	8.25	-4.5	0.	123.76
3211	7.	-3.75	0.	127.24
3212	7.25	-4.	0.	125.94
3213	8.	1.25	0.	125.52
3214	8.	1.75	0.	127.23
3215	7.75	1.5	0.	126.4
3216	8.25	1.5	0.	126.29
3217	8.	0.75	0.	123.83
3218	7.75	1.	0.	125.14
3219	8.25	1.	0.	124.5
3220	8.	0.25	0.	122.38
3221	8.25	0.5	0.	122.52
3222	-5.	2.25	0.	130.37
3223	-5.25	2.5	0.	132.69
3224	-5.25	1.	0.	128.07
3225	-5.	1.25	0.	129.54
3226	-3.25	-2.	0.	124.92
3227	-3.5	-2.25	0.	121.04
3228	-3.5	-1.75	0.	123.42
3229	-2.	-2.25	0.	131.02
3230	-2.25	-2.	0.	130.74
3231	-1.25	-2.5	0.	125.9
3232	-1.	-2.75	0.	123.37
3233	-1.75	-2.5	0.	129.71
3234	-1.5	-2.75	0.	128.23
3235	3.25	-3.	0.	120.77
3236	3.75	-3.	0.	118.59
3237	3.5	-3.25	0.	114.44
3238	5.	-3.25	0.	122.48
3239	4.75	-3.	0.	121.25
3240	2.	-4.25	0.	127.38
3241	2.	-4.75	0.	126.97
3242	2.25	-4.5	0.	128.16
3243	1.75	-4.5	0.	126.27
3244	2.25	-3.	0.	129.7
3245	2.	-3.25	0.	130.36
3246	-2.	7.25	0.	125.25
3247	-2.25	7.5	0.	126.1
3248	-2.	7.75	0.	124.99
3249	-1.5	6.25	0.	128.56
3250	-1.75	6.5	0.	127.48
3251	-3.75	6.	0.	121.63
3252	-3.5	6.25	0.	115.27
3253	-3.5	5.75	0.	117.96
3254	-3.25	6.	0.	118.19
3255	-4.75	6.	0.	132.87
3256	-5.	5.75	0.	133.32
3257	-5.	6.25	0.	131.85
3258	5.	4.75	0.	128.88
3259	5.25	4.5	0.	129.26
3260	8.25	2.	0.	127.71
3261	8.	2.25	0.	128.45
3262	7.75	2.	0.	127.83
3263	-5.25	5.5	0.	132.31
3264	-5.5	5.25	0.	131.25
3265	-5.75	5.5	0.	129.08
3266	3.	-1.75	0.	129.9
3267	3.25	-2.	0.	127.78
3268	7.25	-7.9641e-012	0.	128.79
3269	6.75	-4.9411e-012	0.	133.17
3270	7.	-0.25	0.	131.18
3271	6.75	-2.	0.	131.12
3272	7.	-1.75	0.	133.2
3273	7.25	-2.	0.	135.41
3274	5.	2.25	0.	119.77
3275	5.	1.75	0.	116.57
3276	5.25	2.	0.	118.49
3277	7.5	1.25	0.	126.02
3278	7.25	1.	0.	126.41
3279	7.25	1.5	0.	126.3
3280	7.5	1.75	0.	126.99
3281	3.	0.75	0.	132.97
3282	3.25	0.5	0.	134.37
3283	2.75	0.5	0.	132.46
3284	3.25	2.	0.	131.16
3285	3.	1.75	0.	132.6
3286	-3.25	-6.	0.	118.94
3287	-3.5	-6.25	0.	113.56
3288	-6.25	-8.	0.	132.09
3289	-6.	-7.75	0.	133.7
3290	-6.	-8.25	0.	132.66
3291	-5.75	-8.	0.	135.59
3292	-5.75	-6.	0.	131.16
3293	-6.25	-6.	0.	136.44
3294	-6.	-6.25	0.	133.67
3295	2.	1.25	0.	133.21
3296	1.75	1.5	0.	135.03
3297	2.25	1.5	0.	132.84
3298	1.75	2.0837e-012	0.	130.79
3299	2.	0.25	0.	132.27
3300	0.75	4.	0.	121.56
3301	0.5	3.75	0.	117.15
3302	2.	3.75	0.	131.62
3303	1.75	4.	0.	130.16
3304	-0.75	-1.058e-011	0.	121.47
3305	-0.5	0.25	0.	116.89
3306	-2.	0.25	0.	130.67
3307	-1.75	-1.2141e-011	0.	129.87
3308	-2.	0.75	0.	130.48
3309	-1.75	1.	0.	131.2
3310	-1.75	0.5	0.	132.1
3311	-1.25	-1.055e-011	0.	126.86
3312	-1.5	0.25	0.	131.32
3313	-1.	0.25	0.	125.15
3314	1.75	3.5	0.	133.45
3315	2.	3.25	0.	132.66
3316	1.	3.75	0.	125.71
3317	1.25	4.	0.	127.04
3318	1.25	-6.254e-013	0.	127.45
3319	1.	0.25	0.	125.79
3320	1.	-0.25	0.	124.67
3321	1.5	0.25	0.	132.3
3322	1.75	1.	0.	133.88
3323	2.	0.75	0.	133.19
3324	-5.25	-6.	0.	125.25
3325	-5.	-6.25	0.	122.58
3326	-5.5	-6.25	0.	131.03
3327	-2.25	-7.	0.	133.81
3328	-1.75	-7.	0.	132.39
3329	-2.	-6.75	0.	134.59
3330	-2.	-7.25	0.	132.63
3331	-2.75	-6.	0.	126.91
3332	-2.5	-6.25	0.	132.92
3333	-2.25	-6.	0.	132.95
3334	-3.	-6.25	0.	123.93
3335	3.75	2.	0.	127.87
3336	3.5	1.75	0.	132.54
3337	3.25	1.	0.	133.86
3338	3.	1.25	0.	133.3
3339	6.75	1.5	0.	126.88
3340	7.	1.75	0.	124.93
3341	7.	1.25	0.	126.7
3342	6.25	-2.	0.	126.41
3343	6.	-1.75	0.	124.11
3344	6.	-2.25	0.	123.45
3345	6.5	-1.75	0.	131.52
3346	7.	-1.25	0.	133.41
3347	6.75	-1.5	0.	133.58
3348	7.25	-1.5	0.	134.86
3349	3.	-1.25	0.	131.23
3350	3.25	-1.	0.	131.96
3351	3.25	-1.5	0.	131.58
3352	-6.75	5.	0.	117.36
3353	-7.	5.25	0.	116.86
3354	-7.	4.75	0.	113.68
3355	-6.25	5.	0.	123.45
3356	-6.5	5.25	0.	123.09
3357	-6.5	4.75	0.	117.42
3358	-6.	6.25	0.	124.44
3359	-6.25	6.	0.	126.24
3360	-6.	5.75	0.	126.72
3361	5.25	2.5	0.	123.03
3362	4.75	2.5	0.	121.91
3363	5.	2.75	0.	122.74
3364	5.	5.25	0.	130.3
3365	5.25	5.	0.	129.88
3366	5.25	5.5	0.	132.19
3367	5.	5.75	0.	129.91
3368	-2.25	6.	0.	125.35
3369	-2.5	5.75	0.	121.49
3370	-2.5	6.25	0.	125.53
3371	-2.75	6.	0.	120.83
3372	-2.25	7.	0.	126.97
3373	-2.	6.75	0.	126.78
3374	2.75	-3.	0.	126.12
3375	3.	-3.25	0.	123.05
3376	2.5	-3.25	0.	130.19
3377	2.	-3.75	0.	129.32
3378	2.25	-3.5	0.	130.85
3379	2.25	-4.	0.	129.09
3380	5.	-3.75	0.	123.79
3381	5.	-4.25	0.	124.05
3382	4.75	-4.	0.	124.31
3383	4.75	-3.5	0.	124.41
3384	4.	-3.25	0.	119.11
3385	4.25	-3.	0.	120.02
3386	-5.25	-5.	0.	126.14
3387	-5.75	-5.	0.	130.7
3388	-5.5	-4.75	0.	131.48
3389	-5.	-4.75	0.	124.47
3390	-4.75	-5.	0.	119.85
3391	-2.5	-4.75	0.	132.51
3392	-2.25	-5.	0.	132.75
3393	-2.75	-5.	0.	127.02
3394	-2.25	-2.5	0.	133.29
3395	-2.	-2.75	0.	131.56
3396	-3.	-2.25	0.	128.13
3397	-2.75	-2.	0.	129.16
3398	-3.	-1.75	0.	127.18
3399	-6.75	-8.	0.	127.97
3400	-7.	-8.25	0.	125.21
3401	-7.	-7.75	0.	126.16
3402	-6.5	-8.25	0.	130.03
3403	-6.5	-7.75	0.	132.91
3404	-6.	-7.25	0.	134.19
3405	-6.25	-7.5	0.	134.51
3406	-5.75	-7.5	0.	135.14
3407	-5.75	-7.	0.	133.91
3408	-6.25	-7.	0.	134.8
3409	-6.	-6.75	0.	134.17
3410	-6.	-4.75	0.	131.8
3411	-6.25	-5.	0.	132.7
3412	-5.	4.75	0.	133.27
3413	-5.25	4.5	0.	133.66
3414	-4.75	4.5	0.	133.66
3415	-5.	4.25	0.	133.07
3416	-6.	4.75	0.	126.72
3417	-5.75	5.	0.	129.31
3418	-6.	5.25	0.	127.13
3419	-5.5	1.25	0.	129.37
3420	-5.75	1.	0.	124.06
3421	-5.25	2.	0.	130.92
3422	-5.	1.75	0.	130.13
3423	7.75	-8.1012e-012	0.	124.45
3424	8.25	-6.3096e-012	0.	120.2
3425	8.	-0.25	0.	122.18
3426	7.5	-0.25	0.	129.5
3427	6.75	-1.	0.	133.4
3428	7.25	-1.	0.	133.19
3429	7.	-0.75	0.	132.61
3430	7.	-3.25	0.	128.93
3431	7.25	-3.	0.	130.51
3432	6.75	-3.	0.	128.09
3433	7.25	-3.5	0.	129.56
3434	7.75	-4.	0.	124.05
3435	7.5	-3.75	0.	128.3
3436	8.25	-4.	0.	121.31
3437	8.	-3.75	0.	123.02
3438	8.25	8.	0.	121.53
3439	8.	8.25	0.	123.33
3440	8.	7.75	0.	124.
3441	7.75	8.	0.	125.19
3442	5.75	8.	0.	124.9
3443	6.	8.25	0.	123.29
3444	6.	7.75	0.	122.99
3445	5.5	8.25	0.	126.29
3446	5.5	7.75	0.	128.58
3447	5.25	7.	0.	128.06
3448	4.75	7.	0.	127.05
3449	5.	7.25	0.	127.85
3450	-1.	5.25	0.	127.63
3451	-1.25	5.	0.	129.49
3452	-0.75	5.	0.	124.78
3453	-1.25	5.5	0.	130.88
3454	-1.75	6.	0.	128.55
3455	-1.5	5.75	0.	131.39
3456	-2.	5.75	0.	127.74
3457	-2.	6.25	0.	127.47
3458	-4.25	6.	0.	129.22
3459	-4.	5.75	0.	126.61
3460	-4.	6.25	0.	125.51
3461	-4.5	5.75	0.	134.64
3462	-4.5	6.25	0.	133.96
3463	-5.	5.25	0.	133.93
3464	-4.75	5.5	0.	135.08
3465	-4.75	5.	0.	134.66
3466	-5.25	5.	0.	132.86
3467	-4.75	3.5	0.	134.02
3468	-5.25	3.5	0.	134.7
3469	-5.	3.75	0.	133.43
3470	-4.	3.25	0.	126.77
3471	-4.25	3.	0.	127.96
3472	-1.75	-3.5	0.	131.76
3473	-2.25	-3.5	0.	132.35
3474	-2.	-3.75	0.	132.21
3475	-2.	-3.25	0.	131.35
3476	1.	-3.75	0.	130.16
3477	1.	-4.25	0.	129.18
3478	0.75	-4.	0.	130.83
3479	0.75	-3.5	0.	131.12
3480	7.1189e-012	-3.25	0.	122.69
3481	0.25	-3.	0.	124.9
3482	-5.	-0.75	0.	128.29
3483	-5.	-1.25	0.	127.72
3484	-5.25	-1.	0.	128.83
3485	-5.25	-0.5	0.	128.84
3486	-6.	-0.25	0.	118.84
3487	-6.	0.25	0.	119.03
3488	-5.75	-2.9933e-011	0.	121.98
3489	-7.5	-0.25	0.	124.3
3490	-7.25	-4.2781e-012	0.	118.95
3491	-8.25	-1.	0.	127.41
3492	-7.75	-1.	0.	127.31
3493	-8.	-0.75	0.	127.2
3494	-8.	-3.25	0.	123.34
3495	-7.75	-3.	0.	124.88
3496	-8.25	-3.	0.	124.41
3497	-8.25	-3.5	0.	122.78
3498	-7.75	-3.5	0.	123.6
3499	-8.	-3.75	0.	120.7
3500	-6.75	-4.	0.	121.27
3501	-7.	-3.75	0.	120.64
3502	-7.	-4.25	0.	122.9
3503	-7.25	-4.	0.	120.47
3504	-6.	6.75	0.	122.76
3505	-6.25	6.5	0.	124.55
3506	-5.75	6.5	0.	124.6
3507	-0.25	-7.	0.	124.57
3508	-0.5	-6.75	0.	118.29
3509	-0.75	-7.	0.	123.7
3510	1.75	-5.	0.	125.58
3511	1.25	-5.	0.	125.89
3512	1.5	-5.25	0.	119.88
3513	1.5	-4.75	0.	124.88
3514	-4.75	-2.	0.	125.33
3515	-4.5	-2.25	0.	121.03
3516	-6.25	-4.	0.	124.39
3517	-6.5	-4.25	0.	126.48
3518	-6.5	-3.75	0.	116.41
3519	8.25	3.5	0.	125.
3520	8.	3.75	0.	125.66
3521	7.75	3.5	0.	128.65
3522	8.	3.25	0.	126.92
3523	-8.25	1.	0.	126.59
3524	-8.	1.25	0.	124.16
3525	8.25	-5.	0.	126.19
3526	8.	-5.25	0.	125.57
3527	1.1931e-011	-8.25	0.	130.59
3528	0.25	-8.	0.	131.02
3529	1.192e-011	-7.75	0.	128.89
3530	7.75	-8.5	0.	124.66
3531	8.	-8.25	0.	125.92
3532	8.25	-8.5	0.	127.12
3533	8.	-8.75	0.	125.99
3534	7.5	-8.75	0.	124.11
3535	7.25	-8.5	0.	123.14
3536	-0.25	-8.5	0.	130.87
3537	0.25	-8.5	0.	132.06
3538	9.7743e-012	-8.75	0.	131.47
3539	-0.75	-8.5	0.	130.34
3540	-0.5	-8.75	0.	131.14
3541	-1.25	-8.5	0.	130.69
3542	-1.	-8.75	0.	131.36
3543	-1.75	-8.5	0.	131.61
3544	-1.5	-8.75	0.	132.13
3545	-2.	-8.75	0.	133.18
3546	-2.25	-8.5	0.	133.79
3547	8.25	-8.	0.	128.
3548	8.	-7.75	0.	126.56
3549	8.5	-4.25	0.	122.32
3550	8.75	-4.	0.	122.63
3551	8.5	-3.75	0.	116.49
3552	8.5	-4.75	0.	126.09
3553	8.75	-4.5	0.	125.69
3554	8.5	-5.25	0.	130.27
3555	8.75	-5.	0.	128.59
3556	8.5	-8.25	0.	129.2
3557	8.5	-7.75	0.	131.87
3558	8.75	-8.	0.	130.34
3559	8.75	-8.5	0.	129.
3560	8.5	-8.75	0.	128.06
3561	-5.25	7.	0.	126.83
3562	-5.75	7.	0.	123.36
3563	-5.5	7.25	0.	123.04
3564	-5.5	6.75	0.	125.2
3565	-8.5	-3.75	0.	122.21
3566	-8.75	-4.	0.	124.09
3567	-8.5	-4.25	0.	119.45
3568	-8.25	-4.	0.	120.06
3569	-8.75	-3.5	0.	124.99
3570	-8.5	-3.25	0.	123.88
3571	-8.5	-2.25	0.	125.9
3572	-8.75	-2.5	0.	126.2
3573	-8.5	-2.75	0.	125.01
3574	-8.5	-1.75	0.	126.62
3575	-8.75	-2.	0.	126.74
3576	-8.5	-1.25	0.	127.22
3577	-8.75	-1.5	0.	127.31
3578	-8.5	-0.75	0.	127.71
3579	-8.75	-1.	0.	127.92
3580	-8.5	-0.25	0.	127.93
3581	-8.75	-0.5	0.	128.47
3582	-8.25	-0.5	0.	127.5
3583	-8.5	0.25	0.	128.03
3584	-8.75	-3.4867e-013	0.	128.77
3585	-8.5	0.75	0.	128.9
3586	-8.75	0.5	0.	129.27
3587	-8.5	1.25	0.	131.63
3588	-8.75	1.	0.	130.67
3589	-8.5	4.75	0.	126.65
3590	-8.75	5.	0.	126.74
3591	-8.5	5.25	0.	121.87
3592	-8.25	5.	0.	120.68
3593	2.	-5.25	0.	128.86
3594	2.25	-5.	0.	130.48
3595	1.	-4.75	0.	128.39
3596	0.75	-4.5	0.	131.66
3597	1.25	-4.5	0.	127.36
3598	-4.75	6.5	0.	132.96
3599	-5.	6.75	0.	130.28
3600	-5.25	6.5	0.	128.66
3601	-8.5	-8.25	0.	120.27
3602	-8.75	-8.	0.	122.43
3603	-8.5	-7.75	0.	117.83
3604	-6.25	-8.5	0.	130.59
3605	-6.	-8.75	0.	132.17
3606	-5.75	-8.5	0.	133.68
3607	-6.75	-8.5	0.	127.26
3608	-6.5	-8.75	0.	129.43
3609	-7.25	-8.5	0.	123.27
3610	-7.	-8.75	0.	125.71
3611	-7.75	-8.5	0.	120.45
3612	-7.5	-8.75	0.	122.26
3613	-8.25	-8.5	0.	120.41
3614	-8.	-8.75	0.	120.77
3615	-8.75	-8.5	0.	123.23
3616	-8.5	-8.75	0.	122.03
3617	8.5	3.25	0.	125.05
3618	8.5	3.75	0.	122.28
3619	8.75	3.5	0.	124.5
3620	8.5	2.75	0.	126.79
3621	8.75	3.	0.	126.26
3622	8.25	3.	0.	126.96
3623	8.5	2.25	0.	127.39
3624	8.75	2.5	0.	127.29
3625	8.25	2.5	0.	128.14
3626	8.5	1.75	0.	126.77
3627	8.75	2.	0.	127.25
3628	8.5	1.25	0.	125.27
3629	8.75	1.5	0.	126.33
3630	8.5	0.75	0.	123.21
3631	8.75	1.	0.	124.86
3632	8.5	0.25	0.	120.38
3633	8.75	0.5	0.	123.01
3634	8.75	-4.22e-012	0.	120.66
3635	8.5	-0.25	0.	115.1
3636	8.5	8.25	0.	121.1
3637	8.75	8.	0.	121.39
3638	8.5	7.75	0.	116.09
3639	-1.75	8.5	0.	126.06
3640	-2.	8.75	0.	126.53
3641	-2.25	8.5	0.	127.69
3642	-2.	8.25	0.	126.12
3643	-1.25	8.5	0.	125.24
3644	-1.5	8.75	0.	125.63
3645	-0.75	8.5	0.	124.96
3646	-1.	8.75	0.	125.22
3647	-0.25	8.5	0.	124.92
3648	-0.5	8.75	0.	125.1
3649	0.25	8.5	0.	124.97
3650	-1.1392e-011	8.75	0.	125.12
3651	0.75	8.5	0.	125.06
3652	0.5	8.75	0.	125.19
3653	1.25	8.5	0.	125.18
3654	1.	8.75	0.	125.29
3655	1.75	8.5	0.	125.32
3656	1.5	8.75	0.	125.4
3657	2.25	8.5	0.	125.48
3658	2.	8.75	0.	125.52
3659	2.75	8.5	0.	125.68
3660	2.5	8.75	0.	125.67
3661	3.25	8.5	0.	125.92
3662	3.	8.75	0.	125.83
3663	3.75	8.5	0.	126.21
3664	3.5	8.75	0.	126.02
3665	4.25	8.5	0.	126.51
3666	4.	8.75	0.	126.23
3667	4.75	8.5	0.	126.64
3668	4.5	8.75	0.	126.38
3669	5.25	8.5	0.	126.12
3670	5.	8.75	0.	126.24
3671	5.75	8.5	0.	124.69
3672	5.5	8.75	0.	125.38
3673	6.25	8.5	0.	123.24
3674	6.	8.75	0.	123.98
3675	6.75	8.5	0.	123.2
3676	6.5	8.75	0.	123.19
3677	7.25	8.5	0.	124.04
3678	7.	8.75	0.	123.71
3679	7.	8.25	0.	123.73
3680	7.75	8.5	0.	123.88
3681	7.5	8.75	0.	124.14
3682	7.5	8.25	0.	125.74
3683	8.25	8.5	0.	122.88
3684	8.	8.75	0.	123.47
3685	8.75	8.5	0.	123.18
3686	8.5	8.75	0.	122.97
3687	-8.25	8.	0.	120.21
3688	-8.75	8.	0.	122.56
3689	-8.5	7.75	0.	119.99
3690	-8.5	8.25	0.	120.57
3691	-1.75	3.	0.	132.33
3692	-2.	3.25	0.	130.56
3693	-2.	2.75	0.	128.68
3694	-1.	3.75	0.	127.87
3695	-1.25	4.	0.	130.07
3696	-5.	-1.75	0.	127.81
3697	-5.25	-1.5	0.	129.93
3698	-6.	-4.25	0.	129.27
3699	-6.25	-4.5	0.	131.2
3700	-5.75	-4.5	0.	132.59
3701	6.25	-8.	0.	125.8
3702	6.5	-7.75	0.	121.
3703	6.5	-8.25	0.	123.87
3704	6.	-8.25	0.	128.84
3705	5.75	-8.5	0.	130.81
3706	6.	-8.75	0.	128.38
3707	6.25	-8.5	0.	126.92
3708	8.25	4.	0.	122.91
3709	8.75	4.	0.	122.11
3710	8.5	4.25	0.	116.98
3711	5.	-4.75	0.	125.72
3712	4.75	-4.5	0.	124.25
3713	5.75	-5.	0.	129.64
3714	6.	-5.25	0.	129.73
3715	5.25	-5.	0.	129.16
3716	5.5	-5.25	0.	135.33
3717	4.75	-5.	0.	125.32
3718	5.	-5.25	0.	129.02
3719	7.75	4.	0.	129.83
3720	8.	4.25	0.	125.63
3721	6.	-7.75	0.	129.1
3722	5.75	-8.	0.	131.45
3723	-6.	-3.75	0.	125.2
3724	-5.75	-4.	0.	130.63
3725	-7.25	-3.5	0.	122.65
3726	-7.5	-3.25	0.	125.15
3727	-7.5	-3.75	0.	122.55
3728	-7.5	-0.75	0.	126.99
3729	-7.25	-0.5	0.	122.39
3730	-7.75	-0.5	0.	126.88
3731	-5.75	-0.5	0.	124.16
3732	-5.5	-0.75	0.	129.35
3733	-5.5	-0.25	0.	127.31
3734	-5.25	-2.	0.	132.34
3735	-5.	-2.25	0.	128.84
3736	0.5	-3.75	0.	131.76
3737	0.25	-3.5	0.	127.42
3738	0.5	-3.25	0.	129.67
3739	-1.25	-6.5	0.	131.36
3740	-1.5	-6.25	0.	136.16
3741	-1.5	-6.75	0.	133.61
3742	-1.75	-6.5	0.	135.8
3743	-1.5	-3.75	0.	132.92
3744	-1.25	-3.5	0.	127.89
3745	-1.5	-3.25	0.	130.5
3746	-4.25	3.5	0.	131.2
3747	-4.5	3.75	0.	134.52
3748	-4.5	3.25	0.	132.45
3749	-4.5	5.25	0.	135.78
3750	-4.25	5.5	0.	131.98
3751	-1.75	5.5	0.	130.54
3752	-1.5	5.25	0.	132.66
3753	5.5	-8.75	0.	130.27
3754	5.5	-8.25	0.	133.39
3755	5.25	-8.5	0.	129.14
3756	-8.25	9.	0.	122.26
3757	-8.75	9.	0.	122.73
3758	-8.5	9.25	0.	122.97
3759	-8.5	8.75	0.	121.32
3760	-7.75	9.	0.	124.78
3761	-8.	9.25	0.	123.56
3762	-8.	8.75	0.	121.19
3763	5.5	7.25	0.	129.42
3764	5.75	7.5	0.	126.64
3765	5.25	7.5	0.	129.24
3766	7.25	7.5	0.	129.82
3767	7.5	7.25	0.	133.91
3768	7.75	7.5	0.	129.56
3769	7.5	7.75	0.	130.82
3770	9.	8.25	0.	123.49
3771	9.	8.75	0.	124.18
3772	9.25	8.5	0.	125.42
3773	9.	7.75	0.	123.44
3774	9.25	8.	0.	125.82
3775	7.75	-3.5	0.	127.22
3776	7.5	-3.25	0.	131.13
3777	7.5	-0.75	0.	132.43
3778	7.75	-0.5	0.	127.19
3779	7.25	-0.5	0.	131.87
3780	9.	3.75	0.	124.36
3781	9.	4.25	0.	124.09
3782	9.25	4.	0.	126.48
3783	9.	3.25	0.	125.72
3784	9.25	3.5	0.	126.53
3785	9.	2.75	0.	126.76
3786	9.25	3.	0.	127.02
3787	9.	2.25	0.	127.15
3788	9.25	2.5	0.	127.34
3789	9.	1.75	0.	126.82
3790	9.25	2.	0.	127.26
3791	9.	1.25	0.	125.92
3792	9.25	1.5	0.	126.81
3793	9.	0.75	0.	124.67
3794	9.25	1.	0.	126.18
3795	9.	0.25	0.	123.32
3796	9.25	0.5	0.	125.61
3797	9.	-0.25	0.	123.19
3798	9.25	-2.4035e-012	0.	125.62
3799	-5.5	1.75	0.	131.57
3800	-5.75	1.5	0.	127.6
3801	-5.25	1.5	0.	130.81
3802	-8.75	1.5	0.	133.11
3803	-8.25	1.5	0.	129.16
3804	-8.5	1.75	0.	133.32
3805	-8.75	4.5	0.	130.02
3806	-8.5	4.25	0.	129.85
3807	-8.25	4.5	0.	125.06
3808	-5.75	4.5	0.	130.62
3809	-5.5	4.25	0.	134.17
3810	-5.5	4.75	0.	133.24
3811	-6.5	-4.75	0.	132.12
3812	-6.75	-4.5	0.	127.87
3813	-6.5	-7.25	0.	135.07
3814	-6.75	-7.5	0.	131.03
3815	-9.	-8.25	0.	125.39
3816	-9.	-8.75	0.	125.37
3817	-9.25	-8.5	0.	127.5
3818	-9.	-7.75	0.	126.68
3819	-9.25	-8.	0.	128.67
3820	-2.75	-2.5	0.	131.94
3821	-2.5	-2.75	0.	134.39
3822	-2.5	-2.25	0.	133.03
3823	-2.5	-4.25	0.	134.24
3824	-2.75	-4.5	0.	129.98
3825	-2.25	-4.5	0.	134.47
3826	-5.25	-4.5	0.	129.76
3827	-5.5	-4.25	0.	133.91
3828	-7.25	-9.	0.	124.7
3829	-7.	-9.25	0.	126.72
3830	-6.75	-9.	0.	127.88
3831	-7.75	-9.	0.	122.55
3832	-7.5	-9.25	0.	123.9
3833	-8.25	-9.	0.	122.38
3834	-8.	-9.25	0.	122.66
3835	-8.75	-9.	0.	124.17
3836	-8.5	-9.25	0.	123.39
3837	-9.25	-9.	0.	127.06
3838	-9.	-9.25	0.	125.65
3839	-9.	8.75	0.	123.43
3840	-9.	8.25	0.	124.01
3841	-9.25	8.5	0.	124.78
3842	-8.75	8.5	0.	122.03
3843	-9.25	9.	0.	124.36
3844	-9.	9.25	0.	123.94
3845	-3.25	9.	0.	120.37
3846	-3.75	9.	0.	121.01
3847	-3.5	8.75	0.	115.36
3848	-3.5	9.25	0.	121.21
3849	-2.75	9.	0.	123.8
3850	-3.	8.75	0.	121.81
3851	-3.	9.25	0.	122.84
3852	-2.25	9.	0.	126.11
3853	-2.5	8.75	0.	127.28
3854	-2.5	9.25	0.	125.47
3855	-1.75	9.	0.	126.11
3856	-2.	9.25	0.	126.1
3857	-1.25	9.	0.	125.62
3858	-1.5	9.25	0.	125.81
3859	-0.75	9.	0.	125.37
3860	-1.	9.25	0.	125.6
3861	-0.25	9.	0.	125.31
3862	-0.5	9.25	0.	125.53
3863	0.25	9.	0.	125.35
3864	-7.6874e-012	9.25	0.	125.54
3865	0.75	9.	0.	125.42
3866	0.5	9.25	0.	125.59
3867	1.25	9.	0.	125.51
3868	1.	9.25	0.	125.66
3869	1.75	9.	0.	125.6
3870	1.5	9.25	0.	125.74
3871	2.25	9.	0.	125.71
3872	2.	9.25	0.	125.82
3873	2.75	9.	0.	125.81
3874	2.5	9.25	0.	125.9
3875	3.25	9.	0.	125.93
3876	3.	9.25	0.	125.97
3877	3.75	9.	0.	126.04
3878	3.5	9.25	0.	126.02
3879	4.25	9.	0.	126.1
3880	4.	9.25	0.	126.03
3881	4.75	9.	0.	125.98
3882	4.5	9.25	0.	125.94
3883	5.	9.25	0.	125.63
3884	5.25	9.	0.	125.5
3885	7.25	9.	0.	123.81
3886	7.	9.25	0.	123.73
3887	6.75	9.	0.	123.69
3888	7.75	9.	0.	123.73
3889	7.5	9.25	0.	123.78
3890	8.25	9.	0.	123.55
3891	8.	9.25	0.	123.64
3892	8.75	9.	0.	123.96
3893	8.5	9.25	0.	123.71
3894	9.	9.25	0.	124.42
3895	9.25	9.	0.	125.18
3896	4.25	-3.5	0.	122.25
3897	4.5	-3.75	0.	124.91
3898	4.5	-3.25	0.	123.2
3899	2.75	-3.5	0.	127.11
3900	2.5	-3.75	0.	130.57
3901	-2.75	8.5	0.	125.28
3902	-2.5	8.25	0.	128.15
3903	-4.	8.75	0.	122.71
3904	-4.25	9.	0.	126.98
3905	-4.	9.25	0.	124.09
3906	-4.5	6.75	0.	134.78
3907	-4.25	6.5	0.	130.24
3908	-4.75	7.	0.	132.16
3909	-5.	7.25	0.	129.4
3910	5.5	5.25	0.	131.74
3911	5.75	5.5	0.	125.69
3912	5.5	5.75	0.	131.79
3913	5.75	2.5	0.	122.36
3914	5.5	2.75	0.	124.74
3915	5.5	2.25	0.	121.87
3916	7.25	2.5	0.	126.29
3917	7.5	2.75	0.	130.22
3918	7.75	2.5	0.	129.74
3919	7.5	2.25	0.	129.12
3920	1.	-5.25	0.	128.31
3921	0.75	-5.	0.	133.36
3922	0.25	-7.	0.	132.3
3923	6.7283e-012	-6.75	0.	127.26
3924	1.0217e-011	-7.25	0.	127.53
3925	0.5	-8.75	0.	131.19
3926	0.75	-8.5	0.	128.43
3927	0.5	-8.25	0.	132.44
3928	2.5	-8.75	0.	132.6
3929	2.25	-8.5	0.	131.77
3930	2.5	-8.25	0.	135.9
3931	2.75	-8.5	0.	131.83
3932	2.25	-5.5	0.	135.94
3933	2.5	-5.25	0.	137.52
3934	2.5	-5.75	0.	139.34
3935	2.75	-5.5	0.	132.86
3936	-8.	7.75	0.	120.68
3937	-7.75	8.	0.	122.42
3938	-8.	8.25	0.	119.9
3939	-9.	7.75	0.	126.41
3940	-9.25	8.	0.	126.53
3941	-9.	-3.75	0.	126.88
3942	-9.	-4.25	0.	127.97
3943	-9.25	-4.	0.	130.1
3944	-9.	-3.25	0.	126.75
3945	-9.25	-3.5	0.	128.85
3946	-9.	-2.75	0.	126.82
3947	-9.25	-3.	0.	128.13
3948	-8.75	-3.	0.	125.64
3949	-9.	-2.25	0.	127.03
3950	-9.25	-2.5	0.	127.72
3951	-9.25	-2.	0.	127.71
3952	-9.	-1.75	0.	127.43
3953	-9.	0.25	0.	130.01
3954	-9.25	-1.5846e-013	0.	130.28
3955	-9.	-0.25	0.	129.31
3956	-9.	0.75	0.	131.05
3957	-9.25	0.5	0.	131.03
3958	-9.	1.25	0.	132.16
3959	-9.25	1.	0.	131.87
3960	-9.	1.75	0.	132.39
3961	-9.25	1.5	0.	132.23
3962	-9.	2.25	0.	131.67
3963	-8.75	2.	0.	132.64
3964	-9.25	2.	0.	131.51
3965	-9.	2.75	0.	131.26
3966	-8.75	2.5	0.	132.94
3967	-9.25	2.5	0.	130.59
3968	-9.	3.25	0.	130.94
3969	-8.75	3.	0.	133.68
3970	-9.25	3.	0.	130.49
3971	-9.	3.75	0.	130.69
3972	-8.75	3.5	0.	132.13
3973	-9.25	3.5	0.	130.35
3974	-9.	4.25	0.	130.76
3975	-8.75	4.	0.	130.59
3976	-9.25	4.	0.	131.06
3977	-9.	4.75	0.	130.17
3978	-9.25	4.5	0.	131.73
3979	-9.	5.25	0.	129.66
3980	-9.25	5.	0.	131.9
3981	-6.5	5.75	0.	126.22
3982	-6.75	5.5	0.	122.39
3983	-6.25	5.5	0.	126.72
3984	-6.25	7.	0.	124.15
3985	-6.	7.25	0.	123.22
3986	5.75	-5.5	0.	135.27
3987	5.25	-5.5	0.	135.05
3988	5.5	-5.75	0.	138.43
3989	8.75	-7.5	0.	132.39
3990	8.5	-7.25	0.	133.04
3991	8.25	-7.5	0.	130.38
3992	8.75	-5.5	0.	131.57
3993	8.5	-5.75	0.	132.3
3994	8.25	-5.5	0.	129.58
3995	3.75	-1.5	0.	128.53
3996	3.5	-1.25	0.	132.3
3997	3.5	-1.75	0.	129.54
3998	6.5	-1.25	0.	133.53
3999	6.25	-1.5	0.	129.18
4000	6.25	1.5	0.	125.25
4001	6.5	1.25	0.	128.19
4002	6.5	1.75	0.	123.99
4003	-5.75	-9.	0.	133.09
4004	-6.	-9.25	0.	132.96
4005	-6.25	-9.	0.	131.01
4006	9.	-4.25	0.	126.05
4007	9.	-3.75	0.	124.98
4008	9.25	-4.	0.	128.49
4009	9.	-4.75	0.	128.23
4010	9.25	-4.5	0.	128.99
4011	9.	-5.25	0.	129.92
4012	9.25	-5.	0.	129.8
4013	9.	-5.75	0.	129.99
4014	9.25	-5.5	0.	129.92
4015	9.	-6.25	0.	128.69
4016	8.75	-6.	0.	130.76
4017	9.25	-6.	0.	128.74
4018	9.	-6.75	0.	128.8
4019	8.75	-6.5	0.	129.72
4020	9.25	-6.5	0.	127.63
4021	9.	-7.25	0.	130.4
4022	8.75	-7.	0.	131.08
4023	9.25	-7.	0.	128.78
4024	9.	-7.75	0.	130.87
4025	9.25	-7.5	0.	130.06
4026	9.	-8.25	0.	130.14
4027	9.25	-8.	0.	130.19
4028	9.	-8.75	0.	129.34
4029	9.25	-8.5	0.	129.8
4030	9.25	-9.	0.	129.54
4031	9.	-9.25	0.	128.95
4032	8.75	-9.	0.	128.41
4033	7.75	-9.	0.	125.44
4034	8.	-9.25	0.	126.24
4035	8.25	-9.	0.	126.94
4036	7.25	-9.	0.	124.72
4037	7.5	-9.25	0.	125.17
4038	6.75	-9.	0.	125.3
4039	7.	-9.25	0.	125.09
4040	7.	-8.75	0.	123.76
4041	6.25	-9.	0.	126.91
4042	6.5	-9.25	0.	126.06
4043	6.5	-8.75	0.	125.43
4044	5.75	-9.	0.	127.81
4045	6.	-9.25	0.	127.25
4046	5.25	-9.	0.	125.44
4047	5.5	-9.25	0.	126.6
4048	4.75	-9.	0.	120.32
4049	5.	-8.75	0.	124.41
4050	5.	-9.25	0.	122.64
4051	4.25	-9.	0.	116.43
4052	4.5	-8.75	0.	116.09
4053	4.5	-9.25	0.	118.02
4054	3.75	-9.	0.	116.76
4055	4.	-8.75	0.	114.9
4056	4.	-9.25	0.	116.26
4057	3.25	-9.	0.	121.3
4058	3.5	-8.75	0.	116.6
4059	3.5	-9.25	0.	118.57
4060	2.75	-9.	0.	126.47
4061	3.	-8.75	0.	125.86
4062	3.	-9.25	0.	123.55
4063	2.25	-9.	0.	126.84
4064	2.5	-9.25	0.	126.77
4065	1.75	-9.	0.	123.3
4066	2.	-8.75	0.	126.14
4067	2.	-9.25	0.	124.88
4068	1.25	-9.	0.	122.89
4069	1.5	-8.75	0.	117.67
4070	1.5	-9.25	0.	122.65
4071	0.75	-9.	0.	127.
4072	1.	-8.75	0.	124.26
4073	1.	-9.25	0.	124.96
4074	0.25	-9.	0.	130.59
4075	0.5	-9.25	0.	129.17
4076	-0.25	-9.	0.	131.75
4077	6.1736e-012	-9.25	0.	131.42
4078	-0.75	-9.	0.	132.17
4079	-0.5	-9.25	0.	132.35
4080	-1.	-9.25	0.	133.19
4081	-1.25	-9.	0.	132.8
4082	-2.25	-9.	0.	134.35
4083	-2.	-9.25	0.	135.24
4084	-1.75	-9.	0.	133.71
4085	-2.75	-6.5	0.	129.91
4086	-2.5	-6.75	0.	134.42
4087	-2.25	-6.5	0.	135.23
4088	-5.25	-6.5	0.	128.31
4089	-5.5	-6.75	0.	133.23
4090	-5.75	-6.5	0.	133.53
4091	1.5	0.75	0.	134.4
4092	1.25	0.5	0.	130.57
4093	1.75	0.5	0.	133.75
4094	1.25	3.5	0.	130.63
4095	1.5	3.25	0.	134.34
4096	1.5	3.75	0.	132.04
4097	-1.5	3.25	0.	137.74
4098	-1.25	3.5	0.	134.88
4099	-1.5	3.75	0.	137.06
4100	-1.75	3.5	0.	136.02
4101	-1.5	0.75	0.	132.76
4102	-1.25	0.5	0.	129.56
4103	-1.5	1.25	0.	133.36
4104	-1.5	1.75	0.	135.34
4105	-1.5	2.25	0.	135.98
4106	-1.75	2.	0.	132.43
4107	-1.5	2.75	0.	135.47
4108	-1.75	2.5	0.	131.85
4109	-0.75	3.5	0.	122.98
4110	-0.25	3.5	0.	116.03
4111	0.25	3.5	0.	115.63
4112	0.75	3.5	0.	121.29
4113	1.5	2.75	0.	135.68
4114	1.75	3.	0.	133.58
4115	1.5	2.25	0.	137.95
4116	1.5	1.75	0.	137.92
4117	1.5	1.25	0.	135.69
4118	-0.75	0.5	0.	120.55
4119	-0.25	0.5	0.	115.13
4120	0.25	0.5	0.	115.26
4121	0.75	0.5	0.	121.08
4122	-4.75	-6.5	0.	117.57
4123	-4.25	-6.5	0.	111.33
4124	-3.75	-6.5	0.	111.64
4125	-3.25	-6.5	0.	118.54
4126	-2.5	-7.25	0.	134.8
4127	-2.5	-7.75	0.	136.36
4128	-2.25	-7.5	0.	133.65
4129	-2.5	-8.25	0.	136.23
4130	-2.5	-8.75	0.	134.93
4131	-2.5	-9.25	0.	135.21
4132	-5.5	-8.75	0.	134.58
4133	-5.5	-9.25	0.	134.1
4134	-5.5	-8.25	0.	136.63
4135	-5.5	-7.75	0.	137.02
4136	-5.5	-7.25	0.	134.82
4137	4.75	1.5	0.	115.46
4138	4.25	1.5	0.	121.15
4139	5.25	1.5	0.	114.68
4140	5.75	1.5	0.	118.65
4141	6.	1.75	0.	121.51
4142	5.5	1.75	0.	116.74
4143	6.5	0.75	0.	130.98
4144	6.75	1.	0.	128.
4145	6.5	0.25	0.	134.54
4146	6.5	-0.25	0.	135.44
4147	6.5	-0.75	0.	134.21
4148	6.75	-0.5	0.	133.45
4149	5.75	-1.5	0.	119.33
4150	5.25	-1.5	0.	113.74
4151	4.75	-1.5	0.	113.64
4152	5.	-1.75	0.	114.31
4153	4.25	-1.5	0.	119.34
4154	4.	-1.75	0.	123.47
4155	4.5	-1.75	0.	115.32
4156	3.5	0.75	0.	135.26
4157	3.5	1.25	0.	134.49
4158	3.5	0.25	0.	136.91
4159	3.5	-0.25	0.	136.73
4160	3.5	-0.75	0.	134.06
4161	8.5	-6.25	0.	131.74
4162	8.5	-6.75	0.	131.96
4163	7.25	-7.5	0.	118.83
4164	7.75	-7.5	0.	122.79
4165	6.75	-7.5	0.	119.18
4166	6.25	-7.5	0.	124.28
4167	5.75	-7.5	0.	134.3
4168	6.25	-5.5	0.	125.88
4169	7.75	-5.5	0.	122.61
4170	7.25	-5.5	0.	119.38
4171	6.75	-5.5	0.	120.39
4172	-6.5	6.75	0.	125.9
4173	-6.5	7.25	0.	125.57
4174	-6.5	6.25	0.	126.31
4175	-7.25	5.5	0.	116.21
4176	-7.75	5.5	0.	115.48
4177	-8.25	5.5	0.	118.74
4178	-8.	5.25	0.	117.58
4179	-8.75	5.5	0.	124.71
4180	-9.25	5.5	0.	133.45
4181	-8.75	7.5	0.	123.85
4182	-9.25	7.5	0.	130.59
4183	-8.25	7.5	0.	120.47
4184	-7.75	7.5	0.	122.58
4185	-7.25	7.5	0.	126.3
4186	-7.5	7.75	0.	124.28
4187	1.75	-8.5	0.	120.45
4188	1.25	-8.5	0.	118.9
4189	0.5	-7.75	0.	133.07
4190	0.5	-7.25	0.	135.71
4191	0.25	-7.5	0.	130.96
4192	0.5	-6.75	0.	138.91
4193	0.25	-6.5	0.	133.87
4194	0.5	-6.25	0.	139.17
4195	1.75	-5.5	0.	123.09
4196	1.25	-5.5	0.	122.15
4197	0.75	-5.5	0.	134.75
4198	6.75	2.5	0.	115.95
4199	7.	2.25	0.	122.79
4200	6.25	2.5	0.	115.28
4201	6.	2.25	0.	120.14
4202	6.5	2.25	0.	115.36
4203	5.5	3.25	0.	127.2
4204	5.25	3.	0.	124.44
4205	5.5	3.75	0.	130.44
4206	5.5	4.25	0.	131.06
4207	5.5	4.75	0.	130.24
4208	7.5	3.25	0.	130.55
4209	7.75	3.	0.	128.83
4210	7.5	3.75	0.	132.8
4211	7.5	4.25	0.	135.69
4212	7.75	4.5	0.	131.49
4213	7.5	4.75	0.	136.41
4214	-4.5	7.25	0.	136.07
4215	-4.5	7.75	0.	137.03
4216	-4.75	7.5	0.	133.3
4217	-3.75	8.5	0.	116.95
4218	-4.25	8.5	0.	128.69
4219	-3.25	8.5	0.	116.71
4220	-2.5	7.25	0.	127.8
4221	-2.5	6.75	0.	127.78
4222	-2.5	7.75	0.	127.7
4223	-3.75	6.5	0.	119.1
4224	-3.25	6.5	0.	116.61
4225	3.25	-3.5	0.	116.57
4226	3.75	-3.5	0.	114.82
4227	4.5	-4.25	0.	124.47
4228	4.5	-4.75	0.	123.79
4229	4.5	-5.25	0.	121.31
4230	2.5	-4.25	0.	129.85
4231	2.5	-4.75	0.	131.66
4232	-6.25	-3.5	0.	116.88
4233	-5.75	-3.5	0.	129.54
4234	-6.75	-3.5	0.	115.56
4235	-7.5	-2.75	0.	127.54
4236	-7.5	-2.25	0.	130.65
4237	-7.5	-1.75	0.	130.87
4238	-7.5	-1.25	0.	128.68
4239	-6.75	-0.5	0.	112.76
4240	-7.	-0.25	0.	117.12
4241	-6.25	-0.5	0.	113.26
4242	-5.5	-2.25	0.	137.73
4243	-5.25	-2.5	0.	134.2
4244	-5.5	-2.75	0.	137.54
4245	-5.5	-1.75	0.	134.48
4246	-5.5	-1.25	0.	131.03
4247	0.5	-4.25	0.	133.3
4248	0.5	-4.75	0.	136.61
4249	0.5	-5.25	0.	139.79
4250	0.5	-5.75	0.	139.56
4251	-0.25	-6.5	0.	120.83
4252	-0.75	-6.5	0.	120.47
4253	-1.	-6.75	0.	126.
4254	-1.5	-5.75	0.	137.58
4255	-1.75	-6.	0.	135.64
4256	-1.5	-5.25	0.	139.63
4257	-1.75	-5.5	0.	136.51
4258	-1.5	-4.75	0.	138.86
4259	-1.75	-5.	0.	137.62
4260	-1.5	-4.25	0.	135.48
4261	-1.75	-4.	0.	133.4
4262	-1.75	-4.5	0.	135.97
4263	-0.25	-3.5	0.	117.44
4264	-0.75	-3.5	0.	117.6
4265	-1.	-3.25	0.	123.14
4266	-4.5	4.75	0.	134.98
4267	-4.5	4.25	0.	134.52
4268	-3.75	5.5	0.	122.95
4269	-3.25	5.5	0.	118.67
4270	-2.75	5.5	0.	119.53
4271	-3.	5.75	0.	118.89
4272	-2.25	5.5	0.	123.83
4273	-1.5	4.75	0.	131.95
4274	-1.5	4.25	0.	132.77
4275	-3.75	3.5	0.	123.36
4276	-3.25	3.5	0.	119.47
4277	-2.75	3.5	0.	120.28
4278	-2.25	3.5	0.	126.14
4279	2.5	-7.75	0.	138.04
4280	2.5	-7.25	0.	142.44
4281	2.5	-6.75	0.	142.54
4282	2.5	-6.25	0.	139.04
4283	3.25	-5.5	0.	114.21
4284	3.75	-5.5	0.	108.78
4285	4.25	-5.5	0.	116.07
4286	4.75	-5.5	0.	124.99
4287	5.5	-6.25	0.	138.48
4288	5.5	-6.75	0.	140.02
4289	5.5	-7.25	0.	139.96
4290	5.5	-7.75	0.	136.73
4291	4.75	-8.5	0.	120.17
4292	3.25	-8.5	0.	121.16
4293	3.75	-8.5	0.	114.7
4294	4.25	-8.5	0.	114.52
4295	-4.5	8.75	0.	132.99
4296	-4.5	9.25	0.	130.16
4297	-4.5	8.25	0.	135.92
4298	-5.25	7.5	0.	125.58
4299	-5.75	7.5	0.	122.89
4300	-6.25	7.5	0.	124.68
4301	-6.75	7.5	0.	127.22
4302	-7.5	8.25	0.	125.48
4303	-7.5	8.75	0.	126.56
4304	-7.5	9.25	0.	127.34
4305	-7.75	8.5	0.	122.99
4306	6.75	5.5	0.	110.25
4307	7.25	5.5	0.	131.23
4308	6.25	5.5	0.	108.84
4309	5.5	6.25	0.	129.29
4310	5.25	6.	0.	129.55
4311	5.5	6.75	0.	128.62
4312	6.25	7.5	0.	118.01
4313	6.75	7.5	0.	119.07
4314	7.	7.75	0.	124.5
4315	8.75	4.5	0.	118.83
4316	9.25	4.5	0.	128.89
4317	8.25	4.5	0.	119.58
4318	7.5	5.25	0.	138.87
4319	7.5	5.75	0.	140.92
4320	7.5	6.25	0.	138.19
4321	7.5	6.75	0.	134.95
4322	8.25	7.5	0.	118.46
4323	8.75	7.5	0.	118.01
4324	9.25	7.5	0.	128.25
4325	8.75	-3.5	0.	118.66
4326	9.25	-3.5	0.	130.29
4327	8.25	-3.5	0.	118.09
4328	7.5	-2.75	0.	133.46
4329	7.5	-2.25	0.	136.7
4330	7.5	-1.75	0.	137.07
4331	7.5	-1.25	0.	134.62
4332	8.25	-0.5	0.	116.94
4333	8.75	-0.5	0.	117.5
4334	9.25	-0.5	0.	128.19
4335	-6.75	1.5	0.	112.38
4336	-6.25	1.5	0.	118.07
4337	-7.25	1.5	0.	112.8
4338	-7.75	1.5	0.	118.98
4339	-8.5	2.25	0.	133.88
4340	-8.5	2.75	0.	135.36
4341	-8.5	3.25	0.	134.88
4342	-8.5	3.75	0.	132.01
4343	-7.75	4.5	0.	115.97
4344	-8.	4.75	0.	119.25
4345	-7.25	4.5	0.	111.81
4346	-6.75	4.5	0.	113.62
4347	-6.25	4.5	0.	120.59
4348	-5.5	3.75	0.	134.9
4349	-5.25	4.	0.	133.65
4350	-5.5	3.25	0.	136.65
4351	-5.5	2.75	0.	136.09
4352	-5.5	2.25	0.	133.24
4353	-6.5	-5.25	0.	135.11
4354	-6.5	-5.75	0.	138.26
4355	-6.5	-6.25	0.	138.73
4356	-6.5	-6.75	0.	136.57
4357	-6.25	-6.5	0.	135.97
4358	-7.25	-7.5	0.	121.53
4359	-7.75	-7.5	0.	115.94
4360	-8.25	-7.5	0.	116.13
4361	-8.75	-7.5	0.	122.06
4362	-9.25	-7.5	0.	131.98
4363	-8.75	-4.5	0.	123.29
4364	-9.25	-4.5	0.	133.18
4365	-8.25	-4.5	0.	117.46
4366	-7.75	-4.5	0.	116.64
4367	-8.	-4.25	0.	118.15
4368	-7.25	-4.5	0.	120.55
4369	-7.5	-4.25	0.	118.13
4370	-4.75	-2.5	0.	124.52
4371	-4.25	-2.5	0.	119.79
4372	-3.75	-2.5	0.	119.75
4373	-3.25	-2.5	0.	124.24
4374	-2.5	-3.25	0.	133.64
4375	-2.25	-3.	0.	132.7
4376	-2.5	-3.75	0.	133.8
4377	-2.25	-4.	0.	133.69
4378	-3.25	-4.5	0.	120.85
4379	-3.	-4.75	0.	124.55
4380	-3.75	-4.5	0.	116.28
4381	-4.25	-4.5	0.	116.51
4382	-4.75	-4.5	0.	121.23
4383	-4.5	-4.75	0.	116.61
4384	-5.5	-3.75	0.	134.95
4385	-5.5	-3.25	0.	135.97
4386	-9.5	-8.75	0.	129.19
4387	-9.5	-9.25	0.	128.3
4388	-9.5	-8.25	0.	130.79
4389	-9.5	-7.75	0.	134.03
4390	-9.5	-7.25	0.	136.59
4391	-9.5	-6.75	0.	138.41
4392	-9.5	-6.25	0.	140.81
4393	-9.5	-5.75	0.	141.02
4394	-9.5	-5.25	0.	139.2
4395	-9.5	-4.75	0.	137.81
4396	-9.5	-4.25	0.	135.37
4397	-9.5	-3.75	0.	132.07
4398	-9.5	-3.25	0.	130.22
4399	-9.5	-2.75	0.	129.02
4400	-9.5	-1.75	0.	128.36
4401	-9.5	-2.25	0.	128.4
4402	-9.5	-1.25	0.	128.83
4403	-9.25	-1.5	0.	128.08
4404	-9.5	-0.75	0.	129.62
4405	-9.25	-1.	0.	128.76
4406	-9.5	-0.25	0.	130.5
4407	-9.25	-0.5	0.	129.53
4408	-9.5	0.25	0.	131.3
4409	-9.5	0.75	0.	131.85
4410	-9.5	1.25	0.	131.93
4411	-9.5	1.75	0.	131.34
4412	-9.5	2.25	0.	130.43
4413	-9.5	2.75	0.	129.82
4414	-9.5	3.25	0.	129.89
4415	-9.5	3.75	0.	130.72
4416	-9.5	4.25	0.	132.04
4417	-9.5	4.75	0.	133.46
4418	-9.5	5.25	0.	135.7
4419	-9.5	5.75	0.	137.02
4420	-9.5	6.25	0.	136.12
4421	-9.5	6.75	0.	134.61
4422	-9.5	7.25	0.	133.5
4423	-9.5	7.75	0.	130.79
4424	-9.5	8.25	0.	127.31
4425	-9.5	8.75	0.	125.7
4426	-9.5	9.25	0.	125.09
4427	-9.25	9.5	0.	124.68
4428	-8.75	9.5	0.	124.18
4429	-8.25	9.5	0.	124.28
4430	-7.75	9.5	0.	126.17
4431	-7.25	9.5	0.	126.63
4432	-6.75	9.5	0.	123.3
4433	-6.25	9.5	0.	122.17
4434	-5.75	9.5	0.	122.66
4435	-5.25	9.5	0.	124.86
4436	-4.75	9.5	0.	128.5
4437	-4.25	9.5	0.	127.31
4438	-3.75	9.5	0.	124.27
4439	-3.25	9.5	0.	123.65
4440	-2.75	9.5	0.	124.52
4441	-2.25	9.5	0.	125.46
4442	-1.75	9.5	0.	125.8
4443	-1.25	9.5	0.	125.8
4444	-0.75	9.5	0.	125.76
4445	-0.25	9.5	0.	125.76
4446	0.25	9.5	0.	125.78
4447	0.75	9.5	0.	125.83
4448	1.25	9.5	0.	125.89
4449	1.75	9.5	0.	125.95
4450	2.25	9.5	0.	126.01
4451	2.75	9.5	0.	126.05
4452	3.25	9.5	0.	126.06
4453	3.75	9.5	0.	126.01
4454	4.25	9.5	0.	125.87
4455	4.75	9.5	0.	125.59
4456	5.25	9.5	0.	125.14
4457	5.75	9.5	0.	124.59
4458	5.5	9.25	0.	125.01
4459	6.25	9.5	0.	124.09
4460	6.	9.25	0.	124.25
4461	6.75	9.5	0.	123.8
4462	6.5	9.25	0.	123.77
4463	7.25	9.5	0.	123.7
4464	7.75	9.5	0.	123.69
4465	8.25	9.5	0.	123.81
4466	8.75	9.5	0.	124.17
4467	9.25	9.5	0.	124.8
4468	9.5	9.25	0.	125.56
4469	9.5	8.75	0.	126.42
4470	9.5	8.25	0.	127.75
4471	9.5	7.75	0.	130.67
4472	9.5	7.25	0.	133.11
4473	9.5	6.75	0.	135.07
4474	9.5	6.25	0.	137.57
4475	9.5	5.75	0.	137.77
4476	9.5	5.25	0.	135.56
4477	9.5	4.75	0.	133.7
4478	9.5	4.25	0.	131.3
4479	9.5	3.75	0.	128.63
4480	9.5	3.25	0.	127.82
4481	9.5	2.75	0.	127.6
4482	9.5	2.25	0.	127.45
4483	9.5	1.25	0.	127.07
4484	9.5	1.75	0.	127.25
4485	9.5	0.75	0.	127.12
4486	9.5	0.25	0.	127.9
4487	9.5	-0.25	0.	130.66
4488	9.5	-0.75	0.	133.21
4489	9.5	-1.25	0.	135.56
4490	9.5	-1.75	0.	138.51
4491	9.5	-2.25	0.	138.93
4492	9.5	-2.75	0.	137.21
4493	9.5	-3.25	0.	135.87
4494	9.5	-3.75	0.	133.82
4495	9.5	-4.25	0.	131.42
4496	9.5	-4.75	0.	130.55
4497	9.5	-5.25	0.	129.8
4498	9.5	-5.75	0.	128.67
4499	9.5	-6.25	0.	127.67
4500	9.5	-6.75	0.	127.6
4501	9.5	-7.25	0.	128.45
4502	9.5	-7.75	0.	129.38
4503	9.5	-8.25	0.	129.85
4504	9.5	-8.75	0.	130.
4505	9.5	-9.25	0.	130.03
4506	8.75	-9.5	0.	128.21
4507	9.25	-9.5	0.	129.44
4508	8.25	-9.5	0.	126.98
4509	8.5	-9.25	0.	127.68
4510	7.75	-9.5	0.	125.96
4511	7.25	-9.5	0.	125.54
4512	6.75	-9.5	0.	125.85
4513	6.25	-9.5	0.	126.4
4514	5.75	-9.5	0.	126.02
4515	5.25	-9.5	0.	123.79
4516	4.75	-9.5	0.	120.35
4517	4.25	-9.5	0.	117.84
4518	3.75	-9.5	0.	118.07
4519	3.25	-9.5	0.	120.83
4520	2.75	-9.5	0.	123.82
4521	2.25	-9.5	0.	124.79
4522	1.75	-9.5	0.	124.23
4523	1.25	-9.5	0.	124.7
4524	0.75	-9.5	0.	127.14
4525	0.25	-9.5	0.	130.
4526	-0.25	-9.5	0.	132.02
4527	-0.75	-9.5	0.	133.38
4528	-1.25	-9.5	0.	134.59
4529	-1.75	-9.5	0.	135.74
4530	-1.5	-9.25	0.	134.2
4531	-2.25	-9.5	0.	136.15
4532	-2.75	-9.5	0.	130.31
4533	-3.25	-9.5	0.	117.93
4534	-3.75	-9.5	0.	110.56
4535	-4.25	-9.5	0.	110.45
4536	-4.75	-9.5	0.	117.46
4537	-5.25	-9.5	0.	129.21
4538	-5.75	-9.5	0.	134.02
4539	-6.25	-9.5	0.	132.04
4540	-6.75	-9.5	0.	128.92
4541	-6.5	-9.25	0.	130.07
4542	-7.25	-9.5	0.	125.93
4543	-7.75	-9.5	0.	124.
4544	-8.25	-9.5	0.	123.67
4545	-8.75	-9.5	0.	124.87
4546	-9.25	-9.5	0.	126.89
4547	-4.75	4.	0.	133.97
4548	-8.25	8.5	0.	120.27
4549	0.5	6.75	0.	124.41
4550	4.	1.75	0.	125.98
4551	3.75	1.5	0.	130.61
4552	-2.	-5.75	0.	134.53
4553	-2.	-6.25	0.	135.27
4554	4.5	6.75	0.	126.75
4555	4.	2.25	0.	125.25
4556	1.5	4.25	0.	128.26
4557	1.5	4.75	0.	126.22
4558	-2.	2.25	0.	128.29
4559	-7.75	-4.	0.	119.54
4560	-2.5	-0.75	0.	128.9
4561	-2.5	-1.25	0.	128.97
4562	1.5	6.25	0.	124.73
4563	-2.25	6.5	0.	127.62
4564	-2.5	-1.75	0.	130.11
4565	0.5	-1.75	0.	124.17
4566	4.75	-2.	0.	115.94
4567	-3.25	-1.5	0.	125.69
4568	-3.75	-1.5	0.	123.65
4569	6.25	2.	0.	120.04
4570	5.75	2.	0.	119.57
4571	6.75	2.	0.	121.89
4572	7.25	2.	0.	125.62
4573	-2.	-5.25	0.	134.49
4574	-2.	-4.75	0.	134.73
4575	-9.	-0.75	0.	128.68
4576	-9.	-1.25	0.	128.01
4577	-6.	1.25	0.	122.38
4578	-6.	0.75	0.	120.29
4579	4.5	-2.25	0.	117.82
4580	4.5	-2.75	0.	119.92
4581	-7.	0.25	0.	115.55
4582	-2.25	8.	0.	126.61
4583	4.5	2.75	0.	122.94
4584	4.25	2.5	0.	123.7
4585	-0.25	5.	0.	122.03
4586	-2.75	6.5	0.	124.15
4587	7.25	8.	0.	125.43
4588	4.25	-2.	0.	119.45
4589	3.75	-2.	0.	124.35
4590	-1.25	-3.	0.	125.71
4591	-1.75	-3.	0.	130.08
4592	-2.75	-1.5	0.	128.13
4593	8.	2.75	0.	128.31
4594	6.25	9.	0.	123.92
4595	-1.25	-7.	0.	128.25
4596	4.5	7.25	0.	126.93
4597	4.75	7.5	0.	127.74
4598	5.75	9.	0.	124.68
4599	4.75	3.	0.	123.73
4600	-3.	6.25	0.	119.55
4601	2.25	0.5	0.	132.67
4602	3.25	1.5	0.	133.97
4603	6.75	-8.5	0.	123.89
4604	-2.	-4.25	0.	133.89
4605	2.75	1.5	0.	132.96
4606	8.	-6.	0.	100.03
4607	6.	-6.	0.	102.79
4608	8.	-7.	0.	100.25
4609	6.	-7.	0.	102.16
4610	7.5	-6.	0.	116.98
4611	7.	-6.	0.	116.15
4612	6.5	-6.	0.	118.5
4613	8.	-6.5	0.	104.93
4614	6.	-6.5	0.	107.41
4615	6.5	-7.	0.	117.76
4616	7.	-7.	0.	115.67
4617	7.5	-7.	0.	116.86
4618	6.5	-6.5	0.	116.46
4619	7.	-6.5	0.	119.
4620	7.5	-6.5	0.	115.5
4621	7.75	-6.	0.	108.46
4622	8.	-6.25	0.	102.46
4623	6.25	-6.	0.	110.61
4624	6.	-6.25	0.	105.06
4625	8.	-6.75	0.	102.57
4626	7.75	-7.	0.	108.51
4627	6.	-6.75	0.	104.75
4628	6.25	-7.	0.	109.92
4629	7.25	-6.	0.	116.56
4630	7.5	-6.25	0.	116.22
4631	6.75	-6.	0.	117.33
4632	7.	-6.25	0.	117.57
4633	6.5	-6.25	0.	117.47
4634	7.75	-6.5	0.	110.2
4635	6.25	-6.5	0.	111.92
4636	6.75	-7.	0.	116.71
4637	6.5	-6.75	0.	117.09
4638	7.25	-7.	0.	116.27
4639	7.	-6.75	0.	117.33
4640	7.5	-6.75	0.	116.16
4641	6.75	-6.5	0.	117.73
4642	7.25	-6.5	0.	117.25
4643	-7.	7.	0.	98.343
4644	-9.	7.	0.	101.72
4645	-7.	6.	0.	96.151
4646	-9.	6.	0.	103.26
4647	-7.5	7.	0.	118.03
4648	-8.	7.	0.	117.24
4649	-8.5	7.	0.	118.82
4650	-7.	6.5	0.	102.34
4651	-9.	6.5	0.	107.7
4652	-8.5	6.	0.	118.29
4653	-8.	6.	0.	114.98
4654	-7.5	6.	0.	113.83
4655	-8.5	6.5	0.	117.59
4656	-8.	6.5	0.	119.41
4657	-7.5	6.5	0.	114.46
4658	-7.25	7.	0.	108.1
4659	-7.	6.75	0.	100.3
4660	-8.75	7.	0.	110.22
4661	-9.	6.75	0.	104.69
4662	-7.	6.25	0.	99.214
4663	-7.25	6.	0.	104.98
4664	-9.	6.25	0.	105.46
4665	-8.75	6.	0.	110.73
4666	-7.75	7.	0.	117.63
4667	-7.5	6.75	0.	116.23
4668	-8.25	7.	0.	118.03
4669	-8.	6.75	0.	118.32
4670	-8.5	6.75	0.	118.18
4671	-7.25	6.5	0.	108.37
4672	-8.75	6.5	0.	112.64
4673	-8.25	6.	0.	116.62
4674	-8.5	6.25	0.	117.92
4675	-7.75	6.	0.	114.39
4676	-8.	6.25	0.	117.18
4677	-7.5	6.25	0.	114.12
4678	-8.25	6.5	0.	118.5
4679	-7.75	6.5	0.	116.92
4680	6.	1.	0.	96.152
4681	4.	1.	0.	99.44
4682	6.	-1.	0.	98.457
4683	4.	-1.	0.	97.666
4684	5.5	1.	0.	111.47
4685	5.	1.	0.	109.88
4686	4.5	1.	0.	112.8
4687	6.	0.5	0.	101.57
4688	6.	0.	0.	100.79
4689	6.	-0.5	0.	102.11
4690	4.	0.5	0.	103.06
4691	4.	0.	0.	101.77
4692	4.	-0.5	0.	102.77
4693	4.5	-1.	0.	111.76
4694	5.	-1.	0.	109.23
4695	5.5	-1.	0.	111.68
4696	5.	2.1096e-021	0.	111.92
4697	5.	0.5	0.	112.23
4698	5.5	0.5	0.	109.21
4699	5.5	4.2193e-022	0.	108.64
4700	5.5	-0.5	0.	109.4
4701	5.	-0.5	0.	111.94
4702	4.5	-0.5	0.	109.69
4703	4.5	0.	0.	109.21
4704	4.5	0.5	0.	110.16
4705	5.75	1.	0.	103.74
4706	6.	0.75	0.	98.842
4707	4.25	1.	0.	106.05
4708	4.	0.75	0.	101.24
4709	6.	-0.75	0.	100.28
4710	5.75	-1.	0.	105.01
4711	4.	-0.75	0.	100.21
4712	4.25	-1.	0.	104.64
4713	5.25	1.	0.	110.67
4714	5.5	0.75	0.	110.31
4715	4.75	1.	0.	111.34
4716	5.	0.75	0.	111.04
4717	4.5	0.75	0.	111.46
4718	6.	0.25	0.	101.15
4719	5.75	0.5	0.	105.38
4720	6.	-0.25	0.	101.42
4721	5.75	2.1096e-022	0.	104.72
4722	5.75	-0.5	0.	105.74
4723	4.	0.25	0.	102.39
4724	4.25	0.5	0.	106.6
4725	4.	-0.25	0.	102.25
4726	4.25	0.	0.	105.49
4727	4.25	-0.5	0.	106.22
4728	4.75	-1.	0.	110.49
4729	4.5	-0.75	0.	110.69
4730	5.25	-1.	0.	110.45
4731	5.	-0.75	0.	110.57
4732	5.5	-0.75	0.	110.52
4733	5.	0.25	0.	112.07
4734	5.25	1.2658e-021	0.	110.28
4735	5.	-0.25	0.	111.93
4736	4.75	1.0548e-021	0.	110.57
4737	5.25	0.5	0.	110.71
4738	4.75	0.5	0.	111.18
4739	5.5	0.25	0.	108.91
4740	5.5	-0.25	0.	109.01
4741	5.25	-0.5	0.	110.66
4742	4.75	-0.5	0.	110.81
4743	4.5	-0.25	0.	109.44
4744	4.5	0.25	0.	109.68
4745	-3.	-7.	0.	97.837
4746	-5.	-7.	0.	97.372
4747	-3.	-9.	0.	98.023
4748	-5.	-9.	0.	97.811
4749	-3.5	-7.	0.	110.69
4750	-4.	-7.	0.	107.68
4751	-4.5	-7.	0.	110.31
4752	-3.	-7.5	0.	102.09
4753	-3.	-8.	0.	100.81
4754	-3.	-8.5	0.	101.87
4755	-5.	-7.5	0.	101.99
4756	-5.	-8.	0.	100.97
4757	-5.	-8.5	0.	101.89
4758	-4.5	-9.	0.	109.86
4759	-4.	-9.	0.	106.97
4760	-3.5	-9.	0.	109.98
4761	-3.5	-8.	0.	107.76
4762	-3.5	-8.5	0.	108.25
4763	-4.5	-8.5	0.	108.26
4764	-4.5	-8.	0.	107.79
4765	-4.5	-7.5	0.	108.31
4766	-3.5	-7.5	0.	108.46
4767	-4.	-7.5	0.	110.5
4768	-4.	-8.5	0.	110.2
4769	-4.	-8.	0.	110.4
4770	-3.25	-7.	0.	104.18
4771	-3.	-7.25	0.	99.956
4772	-4.75	-7.	0.	103.77
4773	-5.	-7.25	0.	99.673
4774	-3.	-8.75	0.	99.943
4775	-3.25	-9.	0.	103.94
4776	-5.	-8.75	0.	99.848
4777	-4.75	-9.	0.	103.78
4778	-3.75	-7.	0.	109.18
4779	-3.5	-7.25	0.	109.54
4780	-4.25	-7.	0.	108.99
4781	-4.	-7.25	0.	109.07
4782	-4.5	-7.25	0.	109.27
4783	-3.	-7.75	0.	101.43
4784	-3.25	-7.5	0.	105.26
4785	-3.	-8.25	0.	101.32
4786	-3.25	-8.	0.	104.28
4787	-3.25	-8.5	0.	105.05
4788	-5.	-7.75	0.	101.46
4789	-4.75	-7.5	0.	105.14
4790	-5.	-8.25	0.	101.42
4791	-4.75	-8.	0.	104.38
4792	-4.75	-8.5	0.	105.07
4793	-4.25	-9.	0.	108.41
4794	-4.5	-8.75	0.	109.03
4795	-3.75	-9.	0.	108.47
4796	-4.	-8.75	0.	108.57
4797	-3.5	-8.75	0.	109.09
4798	-3.5	-8.25	0.	108.
4799	-3.5	-7.75	0.	108.1
4800	-3.75	-8.	0.	109.08
4801	-3.75	-8.5	0.	109.22
4802	-4.5	-8.25	0.	108.02
4803	-4.25	-8.5	0.	109.23
4804	-4.5	-7.75	0.	108.04
4805	-4.25	-8.	0.	109.09
4806	-4.25	-7.5	0.	109.4
4807	-3.75	-7.5	0.	109.47
4808	-4.	-7.75	0.	110.45
4809	-4.	-8.25	0.	110.3
4810	7.	7.	0.	98.648
4811	6.	7.	0.	96.589
4812	7.	6.	0.	97.289
4813	6.	6.	0.	94.623
4814	6.5	7.	0.	112.57
4815	7.	6.5	0.	102.82
4816	6.	6.5	0.	100.53
4817	6.5	6.	0.	107.97
4818	6.5	6.5	0.	107.96
4819	6.75	7.	0.	105.57
4820	7.	6.75	0.	100.72
4821	6.25	7.	0.	104.54
4822	6.	6.75	0.	98.552
4823	7.	6.25	0.	100.05
4824	6.75	6.	0.	102.62
4825	6.	6.25	0.	97.575
4826	6.25	6.	0.	101.29
4827	6.5	6.75	0.	110.23
4828	6.75	6.5	0.	105.36
4829	6.25	6.5	0.	104.22
4830	6.5	6.25	0.	107.92
4831	5.	-6.	0.	100.14
4832	3.	-6.	0.	97.347
4833	5.	-8.	0.	99.354
4834	3.	-8.	0.	99.29
4835	4.5	-6.	0.	112.76
4836	4.	-6.	0.	107.19
4837	3.5	-6.	0.	107.74
4838	5.	-6.5	0.	102.76
4839	5.	-7.	0.	101.75
4840	5.	-7.5	0.	103.61
4841	3.	-6.5	0.	101.62
4842	3.	-7.	0.	101.53
4843	3.	-7.5	0.	103.01
4844	3.5	-8.	0.	112.12
4845	4.	-8.	0.	109.43
4846	4.5	-8.	0.	112.4
4847	4.	-6.5	0.	109.6
4848	4.5	-6.5	0.	108.55
4849	4.5	-7.5	0.	109.61
4850	4.	-7.5	0.	111.19
4851	3.5	-7.5	0.	108.87
4852	3.5	-6.5	0.	106.8
4853	3.5	-7.	0.	107.19
4854	4.5	-7.	0.	107.95
4855	4.	-7.	0.	110.05
4856	4.75	-6.	0.	106.34
4857	5.	-6.25	0.	101.41
4858	3.25	-6.	0.	102.52
4859	3.	-6.25	0.	99.477
4860	5.	-7.75	0.	101.47
4861	4.75	-8.	0.	105.81
4862	3.	-7.75	0.	101.13
4863	3.25	-8.	0.	105.63
4864	4.25	-6.	0.	109.97
4865	4.5	-6.25	0.	110.64
4866	3.75	-6.	0.	107.46
4867	4.	-6.25	0.	108.38
4868	3.5	-6.25	0.	107.25
4869	5.	-6.75	0.	102.21
4870	4.75	-6.5	0.	105.63
4871	5.	-7.25	0.	102.66
4872	4.75	-7.	0.	104.85
4873	4.75	-7.5	0.	106.6
4874	3.	-6.75	0.	101.56
4875	3.25	-6.5	0.	104.2
4876	3.	-7.25	0.	102.25
4877	3.25	-7.	0.	104.35
4878	3.25	-7.5	0.	105.93
4879	3.75	-8.	0.	110.78
4880	3.5	-7.75	0.	110.48
4881	4.25	-8.	0.	110.92
4882	4.	-7.75	0.	110.3
4883	4.5	-7.75	0.	110.98
4884	4.25	-6.5	0.	109.06
4885	3.75	-6.5	0.	108.19
4886	4.	-6.75	0.	109.82
4887	4.5	-6.75	0.	108.24
4888	4.25	-7.5	0.	110.39
4889	4.5	-7.25	0.	108.77
4890	3.75	-7.5	0.	110.02
4891	4.	-7.25	0.	110.62
4892	3.5	-7.25	0.	108.02
4893	3.5	-6.75	0.	106.98
4894	3.75	-7.	0.	108.61
4895	4.25	-7.	0.	109.
4896	9.	7.	0.	98.015
4897	8.	7.	0.	97.871
4898	9.	5.	0.	99.029
4899	8.	5.	0.	100.15
4900	8.5	7.	0.	111.97
4901	9.	6.5	0.	102.73
4902	9.	6.	0.	102.43
4903	9.	5.5	0.	103.58
4904	8.	6.5	0.	102.05
4905	8.	6.	0.	102.92
4906	8.	5.5	0.	105.26
4907	8.5	5.	0.	113.93
4908	8.5	6.5	0.	107.05
4909	8.5	6.	0.	106.1
4910	8.5	5.5	0.	109.
4911	8.75	7.	0.	104.95
4912	9.	6.75	0.	100.37
4913	8.25	7.	0.	104.88
4914	8.	6.75	0.	99.955
4915	9.	5.25	0.	101.3
4916	8.75	5.	0.	106.44
4917	8.	5.25	0.	102.7
4918	8.25	5.	0.	106.99
4919	8.5	6.75	0.	109.46
4920	9.	6.25	0.	102.55
4921	8.75	6.5	0.	104.85
4922	9.	5.75	0.	102.97
4923	8.75	6.	0.	104.26
4924	8.75	5.5	0.	106.24
4925	8.	6.25	0.	102.42
4926	8.25	6.5	0.	104.51
4927	8.	5.75	0.	104.07
4928	8.25	6.	0.	104.51
4929	8.25	5.5	0.	107.08
4930	8.5	5.25	0.	111.41
4931	8.5	6.25	0.	106.57
4932	8.5	5.75	0.	107.55
4933	9.	-1.	0.	97.921
4934	8.	-1.	0.	97.772
4935	9.	-3.	0.	99.367
4936	8.	-3.	0.	97.326
4937	8.5	-1.	0.	111.94
4938	9.	-1.5	0.	103.08
4939	9.	-2.	0.	102.53
4940	9.	-2.5	0.	103.43
4941	8.	-1.5	0.	102.33
4942	8.	-2.	0.	101.72
4943	8.	-2.5	0.	102.52
4944	8.5	-3.	0.	112.55
4945	8.5	-1.5	0.	107.26
4946	8.5	-2.	0.	105.56
4947	8.5	-2.5	0.	107.59
4948	8.75	-1.	0.	104.88
4949	9.	-1.25	0.	100.5
4950	8.25	-1.	0.	104.82
4951	8.	-1.25	0.	100.05
4952	9.	-2.75	0.	101.4
4953	8.75	-3.	0.	105.92
4954	8.	-2.75	0.	99.918
4955	8.25	-3.	0.	104.88
4956	8.5	-1.25	0.	109.54
4957	9.	-1.75	0.	102.78
4958	8.75	-1.5	0.	105.13
4959	9.	-2.25	0.	102.95
4960	8.75	-2.	0.	104.05
4961	8.75	-2.5	0.	105.46
4962	8.	-1.75	0.	101.98
4963	8.25	-1.5	0.	104.75
4964	8.	-2.25	0.	102.08
4965	8.25	-2.	0.	103.64
4966	8.25	-2.5	0.	105.02
4967	8.5	-2.75	0.	110.02
4968	8.5	-1.75	0.	106.41
4969	8.5	-2.25	0.	106.58
4970	7.	5.	0.	95.178
4971	6.	5.	0.	92.906
4972	7.	3.	0.	96.032
4973	6.	3.	0.	93.144
4974	6.5	5.	0.	105.6
4975	7.	4.5	0.	99.83
4976	7.	4.	0.	98.697
4977	7.	3.5	0.	99.205
4978	6.	4.5	0.	97.398
4979	6.	4.	0.	96.886
4980	6.	3.5	0.	98.053
4981	6.5	3.	0.	108.69
4982	6.5	4.5	0.	102.24
4983	6.5	4.	0.	100.93
4984	6.5	3.5	0.	103.15
4985	6.75	5.	0.	100.36
4986	7.	4.75	0.	97.492
4987	6.25	5.	0.	99.232
4988	6.	4.75	0.	95.15
4989	7.	3.25	0.	97.617
4990	6.75	3.	0.	102.32
4991	6.	3.25	0.	95.589
4992	6.25	3.	0.	100.86
4993	6.5	4.75	0.	103.87
4994	7.	4.25	0.	99.25
4995	6.75	4.5	0.	101.
4996	7.	3.75	0.	98.923
4997	6.75	4.	0.	99.814
4998	6.75	3.5	0.	101.13
4999	6.	4.25	0.	97.098
5000	6.25	4.5	0.	99.787
5001	6.	3.75	0.	97.421
5002	6.25	4.	0.	98.906
5003	6.25	3.5	0.	100.56
5004	6.5	3.25	0.	105.88
5005	6.5	4.25	0.	101.58
5006	6.5	3.75	0.	102.04
5007	-5.	9.	0.	101.95
5008	-7.	9.	0.	99.594
5009	-5.	8.	0.	103.44
5010	-7.	8.	0.	99.443
5011	-5.5	9.	0.	121.26
5012	-6.	9.	0.	120.26
5013	-6.5	9.	0.	119.75
5014	-5.	8.5	0.	108.37
5015	-7.	8.5	0.	104.76
5016	-6.5	8.	0.	120.71
5017	-6.	8.	0.	120.24
5018	-5.5	8.	0.	120.97
5019	-6.5	8.5	0.	118.54
5020	-6.	8.5	0.	123.57
5021	-5.5	8.5	0.	120.08
5022	-5.25	9.	0.	111.57
5023	-5.	8.75	0.	105.14
5024	-6.75	9.	0.	109.63
5025	-7.	8.75	0.	102.14
5026	-5.	8.25	0.	105.89
5027	-5.25	8.	0.	112.17
5028	-7.	8.25	0.	102.05
5029	-6.75	8.	0.	110.02
5030	-5.75	9.	0.	120.76
5031	-5.5	8.75	0.	120.65
5032	-6.25	9.	0.	120.
5033	-6.	8.75	0.	121.9
5034	-6.5	8.75	0.	119.12
5035	-5.25	8.5	0.	114.21
5036	-6.75	8.5	0.	111.63
5037	-6.25	8.	0.	120.47
5038	-6.5	8.25	0.	119.61
5039	-5.75	8.	0.	120.6
5040	-6.	8.25	0.	121.9
5041	-5.5	8.25	0.	120.51
5042	-6.25	8.5	0.	121.06
5043	-5.75	8.5	0.	121.82
5044	0.	-4.	0.	97.717
5045	-1.	-4.	0.	98.253
5046	0.	-6.	0.	100.7
5047	-1.	-6.	0.	99.94
5048	-0.5	-4.	0.	112.21
5049	0.	-4.5	0.	102.74
5050	0.	-5.	0.	103.17
5051	0.	-5.5	0.	105.2
5052	-1.	-4.5	0.	103.27
5053	-1.	-5.	0.	103.26
5054	-1.	-5.5	0.	104.69
5055	-0.5	-6.	0.	114.88
5056	-0.5	-4.5	0.	107.86
5057	-0.5	-5.	0.	106.8
5058	-0.5	-5.5	0.	109.48
5059	-0.25	-4.	0.	104.92
5060	0.	-4.25	0.	100.23
5061	-0.75	-4.	0.	105.2
5062	-1.	-4.25	0.	100.76
5063	0.	-5.75	0.	102.95
5064	-0.25	-6.	0.	107.74
5065	-1.	-5.75	0.	102.31
5066	-0.75	-6.	0.	107.35
5067	-0.5	-4.25	0.	109.98
5068	0.	-4.75	0.	102.92
5069	-0.25	-4.5	0.	105.27
5070	0.	-5.25	0.	104.16
5071	-0.25	-5.	0.	104.98
5072	-0.25	-5.5	0.	107.28
5073	-1.	-4.75	0.	103.22
5074	-0.75	-4.5	0.	105.53
5075	-1.	-5.25	0.	103.94
5076	-0.75	-5.	0.	105.03
5077	-0.75	-5.5	0.	107.03
5078	-0.5	-5.75	0.	112.11
5079	-0.5	-4.75	0.	107.33
5080	-0.5	-5.25	0.	108.14
5081	-2.	5.	0.	101.52
5082	-4.	5.	0.	101.44
5083	-2.	4.	0.	102.15
5084	-4.	4.	0.	101.18
5085	-2.5	5.	0.	118.02
5086	-3.	5.	0.	116.33
5087	-3.5	5.	0.	117.56
5088	-2.	4.5	0.	106.67
5089	-4.	4.5	0.	106.5
5090	-3.5	4.	0.	117.95
5091	-3.	4.	0.	116.86
5092	-2.5	4.	0.	119.09
5093	-3.5	4.5	0.	116.65
5094	-3.	4.5	0.	119.98
5095	-2.5	4.5	0.	117.29
5096	-2.25	5.	0.	109.74
5097	-2.	4.75	0.	104.07
5098	-3.75	5.	0.	109.47
5099	-4.	4.75	0.	103.95
5100	-2.	4.25	0.	104.39
5101	-2.25	4.	0.	110.54
5102	-4.	4.25	0.	103.82
5103	-3.75	4.	0.	109.52
5104	-2.75	5.	0.	117.17
5105	-2.5	4.75	0.	117.64
5106	-3.25	5.	0.	116.93
5107	-3.	4.75	0.	118.15
5108	-3.5	4.75	0.	117.09
5109	-2.25	4.5	0.	111.97
5110	-3.75	4.5	0.	111.56
5111	-3.25	4.	0.	117.4
5112	-3.5	4.25	0.	117.27
5113	-2.75	4.	0.	117.97
5114	-3.	4.25	0.	118.41
5115	-2.5	4.25	0.	118.16
5116	-3.25	4.5	0.	118.32
5117	-2.75	4.5	0.	118.63
5118	1.	3.	0.	99.42
5119	-1.	3.	0.	100.53
5120	1.	1.	0.	99.347
5121	-1.	1.	0.	98.616
5122	0.5	3.	0.	113.71
5123	0.	3.	0.	111.42
5124	-0.5	3.	0.	114.47
5125	1.	2.5	0.	104.04
5126	1.	2.	0.	102.81
5127	1.	1.5	0.	103.85
5128	-1.	2.5	0.	104.23
5129	-1.	2.	0.	102.21
5130	-1.	1.5	0.	102.95
5131	-0.5	1.	0.	112.88
5132	0.	1.	0.	110.66
5133	0.5	1.	0.	113.28
5134	0.5	2.	0.	110.57
5135	0.5	1.5	0.	111.1
5136	-0.5	1.5	0.	110.76
5137	-0.5	2.	0.	110.45
5138	-0.5	2.5	0.	111.7
5139	0.5	2.5	0.	111.39
5140	0.	2.5	0.	114.03
5141	0.	1.5	0.	113.47
5142	0.	2.	0.	113.61
5143	0.75	3.	0.	106.49
5144	1.	2.75	0.	101.72
5145	-0.75	3.	0.	107.4
5146	-1.	2.75	0.	102.37
5147	1.	1.25	0.	101.59
5148	0.75	1.	0.	106.25
5149	-1.	1.25	0.	100.77
5150	-0.75	1.	0.	105.68
5151	0.25	3.	0.	112.57
5152	0.5	2.75	0.	112.52
5153	-0.25	3.	0.	112.94
5154	0.	2.75	0.	112.71
5155	-0.5	2.75	0.	113.05
5156	1.	2.25	0.	103.39
5157	0.75	2.5	0.	107.7
5158	1.	1.75	0.	103.3
5159	0.75	2.	0.	106.69
5160	0.75	1.5	0.	107.46
5161	-1.	2.25	0.	103.19
5162	-0.75	2.5	0.	107.94
5163	-1.	1.75	0.	102.55
5164	-0.75	2.	0.	106.33
5165	-0.75	1.5	0.	106.85
5166	-0.25	1.	0.	111.77
5167	-0.5	1.25	0.	111.8
5168	0.25	1.	0.	111.97
5169	0.	1.25	0.	112.05
5170	0.5	1.25	0.	112.16
5171	0.5	1.75	0.	110.82
5172	0.5	2.25	0.	110.97
5173	0.25	2.	0.	112.09
5174	0.25	1.5	0.	112.28
5175	-0.5	1.75	0.	110.6
5176	-0.25	1.5	0.	112.11
5177	-0.5	2.25	0.	111.07
5178	-0.25	2.	0.	112.03
5179	-0.25	2.5	0.	112.85
5180	0.25	2.5	0.	112.7
5181	0.	2.25	0.	113.82
5182	0.	1.75	0.	113.54
5183	-3.	-3.	0.	100.92
5184	-5.	-3.	0.	102.22
5185	-3.	-4.	0.	100.47
5186	-5.	-4.	0.	101.65
5187	-3.5	-3.	0.	117.7
5188	-4.	-3.	0.	116.26
5189	-4.5	-3.	0.	118.25
5190	-3.	-3.5	0.	105.77
5191	-5.	-3.5	0.	107.12
5192	-4.5	-4.	0.	116.97
5193	-4.	-4.	0.	114.94
5194	-3.5	-4.	0.	116.22
5195	-4.5	-3.5	0.	116.73
5196	-4.	-3.5	0.	119.03
5197	-3.5	-3.5	0.	115.82
5198	-3.25	-3.	0.	109.26
5199	-3.	-3.25	0.	103.32
5200	-4.75	-3.	0.	110.18
5201	-5.	-3.25	0.	104.66
5202	-3.	-3.75	0.	103.1
5203	-3.25	-4.	0.	108.32
5204	-5.	-3.75	0.	104.38
5205	-4.75	-4.	0.	109.28
5206	-3.75	-3.	0.	116.98
5207	-3.5	-3.25	0.	116.74
5208	-4.25	-3.	0.	117.26
5209	-4.	-3.25	0.	117.64
5210	-4.5	-3.25	0.	117.46
5211	-3.25	-3.5	0.	110.78
5212	-4.75	-3.5	0.	111.92
5213	-4.25	-4.	0.	115.94
5214	-4.5	-3.75	0.	116.82
5215	-3.75	-4.	0.	115.57
5216	-4.	-3.75	0.	116.98
5217	-3.5	-3.75	0.	116.
5218	-4.25	-3.5	0.	117.88
5219	-3.75	-3.5	0.	117.42
5220	-6.	-1.	0.	95.16
5221	-7.	-1.	0.	93.643
5222	-6.	-3.	0.	97.888
5223	-7.	-3.	0.	93.465
5224	-6.5	-1.	0.	107.95
5225	-6.	-1.5	0.	99.731
5226	-6.	-2.	0.	100.05
5227	-6.	-2.5	0.	101.72
5228	-7.	-1.5	0.	98.278
5229	-7.	-2.	0.	97.573
5230	-7.	-2.5	0.	98.539
5231	-6.5	-3.	0.	109.73
5232	-6.5	-1.5	0.	103.54
5233	-6.5	-2.	0.	102.11
5234	-6.5	-2.5	0.	104.37
5235	-6.25	-1.	0.	101.52
5236	-6.	-1.25	0.	97.443
5237	-6.75	-1.	0.	100.76
5238	-7.	-1.25	0.	95.959
5239	-6.	-2.75	0.	99.798
5240	-6.25	-3.	0.	103.76
5241	-7.	-2.75	0.	95.996
5242	-6.75	-3.	0.	101.53
5243	-6.5	-1.25	0.	105.7
5244	-6.	-1.75	0.	99.869
5245	-6.25	-1.5	0.	101.61
5246	-6.	-2.25	0.	100.87
5247	-6.25	-2.	0.	101.08
5248	-6.25	-2.5	0.	102.98
5249	-7.	-1.75	0.	97.873
5250	-6.75	-1.5	0.	100.87
5251	-7.	-2.25	0.	98.001
5252	-6.75	-2.	0.	99.839
5253	-6.75	-2.5	0.	101.4
5254	-6.5	-2.75	0.	106.99
5255	-6.5	-1.75	0.	102.82
5256	-6.5	-2.25	0.	103.24
5257	2.	-6.	0.	100.79
5258	1.	-6.	0.	100.92
5259	2.	-8.	0.	98.945
5260	1.	-8.	0.	98.358
5261	1.5	-6.	0.	115.51
5262	2.	-6.5	0.	104.46
5263	2.	-7.	0.	102.77
5264	2.	-7.5	0.	103.34
5265	1.	-6.5	0.	104.53
5266	1.	-7.	0.	102.15
5267	1.	-7.5	0.	101.99
5268	1.5	-8.	0.	112.88
5269	1.5	-6.5	0.	108.79
5270	1.5	-7.	0.	105.63
5271	1.5	-7.5	0.	107.24
5272	1.75	-6.	0.	108.08
5273	2.	-6.25	0.	102.61
5274	1.25	-6.	0.	108.15
5275	1.	-6.25	0.	102.72
5276	2.	-7.75	0.	101.13
5277	1.75	-8.	0.	105.86
5278	1.	-7.75	0.	100.17
5279	1.25	-8.	0.	105.59
5280	1.5	-6.25	0.	112.11
5281	2.	-6.75	0.	103.55
5282	1.75	-6.5	0.	106.55
5283	2.	-7.25	0.	102.99
5284	1.75	-7.	0.	104.2
5285	1.75	-7.5	0.	105.25
5286	1.	-6.75	0.	103.32
5287	1.25	-6.5	0.	106.59
5288	1.	-7.25	0.	102.04
5289	1.25	-7.	0.	103.89
5290	1.25	-7.5	0.	104.58
5291	1.5	-7.75	0.	110.03
5292	1.5	-6.75	0.	107.2
5293	1.5	-7.25	0.	106.43
5294	-3.	8.	0.	96.579
5295	-4.	8.	0.	99.754
5296	-3.	7.	0.	97.043
5297	-4.	7.	0.	100.59
5298	-3.5	8.	0.	113.25
5299	-3.	7.5	0.	102.15
5300	-4.	7.5	0.	105.66
5301	-3.5	7.	0.	113.9
5302	-3.5	7.5	0.	111.22
5303	-3.25	8.	0.	104.89
5304	-3.	7.75	0.	99.355
5305	-3.75	8.	0.	106.49
5306	-4.	7.75	0.	102.7
5307	-3.	7.25	0.	99.583
5308	-3.25	7.	0.	105.46
5309	-4.	7.25	0.	103.12
5310	-3.75	7.	0.	107.22
5311	-3.5	7.75	0.	112.17
5312	-3.25	7.5	0.	106.66
5313	-3.75	7.5	0.	108.43
5314	-3.5	7.25	0.	112.52
5315	4.	-4.	0.	94.029
5316	3.	-4.	0.	96.659
5317	4.	-5.	0.	91.56
5318	3.	-5.	0.	97.625
5319	3.5	-4.	0.	110.32
5320	4.	-4.5	0.	98.102
5321	3.	-4.5	0.	101.8
5322	3.5	-5.	0.	108.16
5323	3.5	-4.5	0.	106.86
5324	3.75	-4.	0.	102.15
5325	4.	-4.25	0.	96.055
5326	3.25	-4.	0.	103.46
5327	3.	-4.25	0.	99.223
5328	4.	-4.75	0.	94.819
5329	3.75	-5.	0.	99.853
5330	3.	-4.75	0.	99.709
5331	3.25	-5.	0.	102.88
5332	3.5	-4.25	0.	108.54
5333	3.75	-4.5	0.	102.45
5334	3.25	-4.5	0.	104.31
5335	3.5	-4.75	0.	107.47
5336	-6.	4.	0.	98.626
5337	-8.	4.	0.	95.72
5338	-6.	2.	0.	97.071
5339	-8.	2.	0.	98.027
5340	-6.5	4.	0.	111.57
5341	-7.	4.	0.	108.07
5342	-7.5	4.	0.	109.57
5343	-6.	3.5	0.	102.42
5344	-6.	3.	0.	101.08
5345	-6.	2.5	0.	101.95
5346	-8.	3.5	0.	100.81
5347	-8.	3.	0.	100.27
5348	-8.	2.5	0.	101.72
5349	-7.5	2.	0.	111.
5350	-7.	2.	0.	108.28
5351	-6.5	2.	0.	110.73
5352	-6.5	3.	0.	108.18
5353	-6.5	2.5	0.	108.71
5354	-7.5	2.5	0.	108.63
5355	-7.5	3.	0.	107.66
5356	-7.5	3.5	0.	107.86
5357	-6.5	3.5	0.	108.97
5358	-7.	3.5	0.	110.72
5359	-7.	2.5	0.	110.94
5360	-7.	3.	0.	110.74
5361	-6.25	4.	0.	105.02
5362	-6.	3.75	0.	100.51
5363	-7.75	4.	0.	102.59
5364	-8.	3.75	0.	98.255
5365	-6.	2.25	0.	99.501
5366	-6.25	2.	0.	103.84
5367	-8.	2.25	0.	99.87
5368	-7.75	2.	0.	104.45
5369	-6.75	4.	0.	109.82
5370	-6.5	3.75	0.	110.24
5371	-7.25	4.	0.	108.82
5372	-7.	3.75	0.	109.38
5373	-7.5	3.75	0.	108.69
5374	-6.	3.25	0.	101.72
5375	-6.25	3.5	0.	105.68
5376	-6.	2.75	0.	101.49
5377	-6.25	3.	0.	104.63
5378	-6.25	2.5	0.	105.32
5379	-8.	3.25	0.	100.51
5380	-7.75	3.5	0.	104.33
5381	-8.	2.75	0.	100.97
5382	-7.75	3.	0.	103.96
5383	-7.75	2.5	0.	105.17
5384	-7.25	2.	0.	109.64
5385	-7.5	2.25	0.	109.79
5386	-6.75	2.	0.	109.5
5387	-7.	2.25	0.	109.59
5388	-6.5	2.25	0.	109.69
5389	-6.5	2.75	0.	108.44
5390	-6.5	3.25	0.	108.57
5391	-6.75	3.	0.	109.46
5392	-6.75	2.5	0.	109.82
5393	-7.5	2.75	0.	108.14
5394	-7.25	2.5	0.	109.78
5395	-7.5	3.25	0.	107.75
5396	-7.25	3.	0.	109.2
5397	-7.25	3.5	0.	109.29
5398	-6.75	3.5	0.	109.84
5399	-7.	3.25	0.	110.73
5400	-7.	2.75	0.	110.84
5401	-7.	-5.	0.	99.063
5402	-9.	-5.	0.	102.12
5403	-7.	-7.	0.	100.03
5404	-9.	-7.	0.	101.23
5405	-7.5	-5.	0.	114.19
5406	-8.	-5.	0.	112.62
5407	-8.5	-5.	0.	115.64
5408	-7.	-5.5	0.	104.46
5409	-7.	-6.	0.	103.68
5410	-7.	-6.5	0.	104.75
5411	-9.	-5.5	0.	106.59
5412	-9.	-6.	0.	105.59
5413	-9.	-6.5	0.	106.29
5414	-8.5	-7.	0.	114.93
5415	-8.	-7.	0.	112.1
5416	-7.5	-7.	0.	114.28
5417	-8.	-5.5	0.	115.63
5418	-7.5	-5.5	0.	112.43
5419	-7.5	-6.5	0.	112.4
5420	-8.	-6.5	0.	115.36
5421	-8.5	-6.5	0.	113.43
5422	-8.5	-5.5	0.	113.8
5423	-8.5	-6.	0.	113.19
5424	-7.5	-6.	0.	111.93
5425	-8.	-6.	0.	115.59
5426	-7.25	-5.	0.	106.57
5427	-7.	-5.25	0.	101.75
5428	-8.75	-5.	0.	108.81
5429	-9.	-5.25	0.	104.35
5430	-7.	-6.75	0.	102.38
5431	-7.25	-7.	0.	107.09
5432	-9.	-6.75	0.	103.76
5433	-8.75	-7.	0.	108.01
5434	-7.75	-5.	0.	113.4
5435	-7.5	-5.25	0.	113.28
5436	-8.25	-5.	0.	114.13
5437	-8.	-5.25	0.	114.11
5438	-8.5	-5.25	0.	114.68
5439	-7.	-5.75	0.	104.04
5440	-7.25	-5.5	0.	108.43
5441	-7.	-6.25	0.	104.18
5442	-7.25	-6.	0.	107.8
5443	-7.25	-6.5	0.	108.56
5444	-9.	-5.75	0.	106.07
5445	-8.75	-5.5	0.	110.19
5446	-9.	-6.25	0.	105.92
5447	-8.75	-6.	0.	109.39
5448	-8.75	-6.5	0.	109.85
5449	-8.25	-7.	0.	113.51
5450	-8.5	-6.75	0.	114.14
5451	-7.75	-7.	0.	113.19
5452	-8.	-6.75	0.	113.71
5453	-7.5	-6.75	0.	113.31
5454	-7.75	-5.5	0.	114.02
5455	-8.25	-5.5	0.	114.71
5456	-8.	-5.75	0.	115.61
5457	-7.5	-5.75	0.	112.17
5458	-7.75	-6.5	0.	113.87
5459	-7.5	-6.25	0.	112.16
5460	-8.25	-6.5	0.	114.39
5461	-8.	-6.25	0.	115.47
5462	-8.5	-6.25	0.	113.31
5463	-8.5	-5.75	0.	113.49
5464	-8.25	-6.	0.	114.39
5465	-7.75	-6.	0.	113.76
