Node Number	X Location (mm)	Y Location (mm)	Z Location (mm)	Equivalent (von-Mises) Stress (MPa)
1	-8.	6.	0.	133.47
2	-8.	5.	0.	133.22
3	-7.	6.	0.	132.91
4	-7.	5.	0.	133.32
5	3.	9.	0.	137.3
6	3.	8.	0.	135.87
7	5.	9.	0.	137.74
8	5.	8.	0.	135.84
9	-3.	-4.	0.	134.36
10	-3.	-6.	0.	132.71
11	-1.	-4.	0.	133.53
12	-1.	-6.	0.	132.98
13	-1.	2.	0.	133.84
14	-1.	1.	0.	134.08
15	1.	2.	0.	134.8
16	1.	1.	0.	134.17
17	-5.	-1.	0.	134.58
18	-5.	-2.	0.	134.5
19	-4.	-1.	0.	132.38
20	-4.	-2.	0.	135.14
21	10.	10.	0.	125.01
22	-10.	10.	0.	124.99
23	10.	-10.	0.	125.65
24	-10.	-10.	0.	127.84
25	-8.	5.5	0.	142.8
26	-7.5	6.	0.	110.96
27	-7.5	5.	0.	111.
28	-7.	5.5	0.	142.3
29	3.	8.5	0.	144.9
30	3.5	9.	0.	120.88
31	4.	9.	0.	127.67
32	4.5	9.	0.	120.92
33	3.5	8.	0.	119.34
34	4.	8.	0.	125.05
35	4.5	8.	0.	119.58
36	5.	8.5	0.	145.18
37	-3.	-4.5	0.	142.01
38	-3.	-5.	0.	142.81
39	-3.	-5.5	0.	141.48
40	-2.5	-4.	0.	112.88
41	-2.	-4.	0.	116.95
42	-1.5	-4.	0.	112.3
43	-2.5	-6.	0.	111.62
44	-2.	-6.	0.	115.85
45	-1.5	-6.	0.	111.62
46	-1.	-4.5	0.	141.8
47	-1.	-5.	0.	142.84
48	-1.	-5.5	0.	141.62
49	-1.	1.5	0.	142.38
50	-0.5	2.	0.	116.28
51	0.	2.	0.	121.37
52	0.5	2.	0.	116.29
53	-0.5	1.	0.	115.88
54	0.	1.	0.	121.23
55	0.5	1.	0.	116.44
56	1.	1.5	0.	142.9
57	-5.	-1.5	0.	143.65
58	-4.5	-1.	0.	111.54
59	-4.5	-2.	0.	112.81
60	-4.	-1.5	0.	142.74
61	9.5	10.	0.	125.02
62	9.	10.	0.	125.12
63	8.5	10.	0.	125.29
64	8.	10.	0.	125.57
65	7.5	10.	0.	125.98
66	7.	10.	0.	126.66
67	6.5	10.	0.	127.63
68	6.	10.	0.	128.91
69	5.5	10.	0.	128.26
70	5.	10.	0.	124.02
71	4.5	10.	0.	119.97
72	4.	10.	0.	117.93
73	3.5	10.	0.	119.82
74	3.	10.	0.	123.71
75	2.5	10.	0.	127.79
76	2.	10.	0.	128.35
77	1.5	10.	0.	127.02
78	1.	10.	0.	126.01
79	0.5	10.	0.	125.31
80	-5.2042e-015	10.	0.	124.92
81	-0.5	10.	0.	124.7
82	-1.	10.	0.	124.6
83	-1.5	10.	0.	124.58
84	-2.	10.	0.	124.62
85	-2.5	10.	0.	124.69
86	-3.	10.	0.	124.77
87	-3.5	10.	0.	124.84
88	-4.	10.	0.	124.89
89	-4.5	10.	0.	124.9
90	-5.	10.	0.	124.85
91	-5.5	10.	0.	124.73
92	-6.	10.	0.	124.56
93	-6.5	10.	0.	124.39
94	-7.	10.	0.	124.27
95	-7.5	10.	0.	124.25
96	-8.	10.	0.	124.36
97	-8.5	10.	0.	124.57
98	-9.	10.	0.	124.81
99	-9.5	10.	0.	124.97
100	10.	9.5	0.	124.97
101	10.	9.	0.	124.8
102	10.	8.5	0.	124.58
103	10.	8.	0.	124.44
104	10.	7.5	0.	124.43
105	10.	7.	0.	124.54
106	10.	6.5	0.	124.72
107	10.	6.	0.	124.92
108	10.	5.5	0.	125.1
109	10.	5.	0.	125.23
110	10.	4.5	0.	125.31
111	10.	4.	0.	125.34
112	10.	3.5	0.	125.33
113	10.	3.	0.	125.3
114	10.	2.5	0.	125.26
115	10.	2.	0.	125.21
116	10.	1.5	0.	125.17
117	10.	1.	0.	125.14
118	10.	0.5	0.	125.12
119	10.	-5.2042e-015	0.	125.11
120	10.	-0.5	0.	125.11
121	10.	-1.	0.	125.11
122	10.	-1.5	0.	125.12
123	10.	-2.	0.	125.14
124	10.	-2.5	0.	125.15
125	10.	-3.	0.	125.17
126	10.	-3.5	0.	125.19
127	10.	-4.	0.	125.22
128	10.	-4.5	0.	125.25
129	10.	-5.	0.	125.28
130	10.	-5.5	0.	125.32
131	10.	-6.	0.	125.37
132	10.	-6.5	0.	125.41
133	10.	-7.	0.	125.46
134	10.	-7.5	0.	125.51
135	10.	-8.	0.	125.56
136	10.	-8.5	0.	125.6
137	10.	-9.	0.	125.63
138	10.	-9.5	0.	125.65
139	-10.	9.5	0.	125.03
140	-10.	9.	0.	125.39
141	-10.	8.5	0.	125.99
142	-10.	8.	0.	126.7
143	-10.	7.5	0.	127.28
144	-10.	7.	0.	127.32
145	-10.	6.5	0.	126.5
146	-10.	6.	0.	125.24
147	-10.	5.5	0.	124.67
148	-10.	5.	0.	125.55
149	-10.	4.5	0.	127.1
150	-10.	4.	0.	128.17
151	-10.	3.5	0.	128.39
152	-10.	3.	0.	128.08
153	-10.	2.5	0.	127.62
154	-10.	2.	0.	127.2
155	-10.	1.5	0.	126.87
156	-10.	1.	0.	126.59
157	-10.	0.5	0.	126.36
158	-10.	-5.2042e-015	0.	126.15
159	-10.	-0.5	0.	125.97
160	-10.	-1.	0.	125.84
161	-10.	-1.5	0.	125.76
162	-10.	-2.	0.	125.75
163	-10.	-2.5	0.	125.79
164	-10.	-3.	0.	125.86
165	-10.	-3.5	0.	125.95
166	-10.	-4.	0.	126.04
167	-10.	-4.5	0.	126.14
168	-10.	-5.	0.	126.26
169	-10.	-5.5	0.	126.39
170	-10.	-6.	0.	126.56
171	-10.	-6.5	0.	126.76
172	-10.	-7.	0.	126.98
173	-10.	-7.5	0.	127.2
174	-10.	-8.	0.	127.41
175	-10.	-8.5	0.	127.59
176	-10.	-9.	0.	127.73
177	-10.	-9.5	0.	127.81
178	-9.5	-10.	0.	127.53
179	-9.	-10.	0.	127.31
180	-8.5	-10.	0.	127.16
181	-8.	-10.	0.	127.05
182	-7.5	-10.	0.	126.95
183	-7.	-10.	0.	126.83
184	-6.5	-10.	0.	126.65
185	-6.	-10.	0.	126.37
186	-5.5	-10.	0.	125.95
187	-5.	-10.	0.	125.33
188	-4.5	-10.	0.	124.48
189	-4.	-10.	0.	123.44
190	-3.5	-10.	0.	122.29
191	-3.	-10.	0.	121.23
192	-2.5	-10.	0.	120.47
193	-2.	-10.	0.	120.2
194	-1.5	-10.	0.	120.49
195	-1.	-10.	0.	121.26
196	-0.5	-10.	0.	122.32
197	5.2042e-015	-10.	0.	123.45
198	0.5	-10.	0.	124.46
199	1.	-10.	0.	125.26
200	1.5	-10.	0.	125.81
201	2.	-10.	0.	126.15
202	2.5	-10.	0.	126.32
203	3.	-10.	0.	126.38
204	3.5	-10.	0.	126.37
205	4.	-10.	0.	126.31
206	4.5	-10.	0.	126.23
207	5.	-10.	0.	126.14
208	5.5	-10.	0.	126.05
209	6.	-10.	0.	125.97
210	6.5	-10.	0.	125.89
211	7.	-10.	0.	125.82
212	7.5	-10.	0.	125.76
213	8.	-10.	0.	125.7
214	8.5	-10.	0.	125.66
215	9.	-10.	0.	125.64
216	9.5	-10.	0.	125.63
217	4.	-2.5	0.	126.21
218	4.	-3.	0.	125.98
219	4.	-4.5	0.	125.42
220	4.5	-1.5	0.	126.32
221	4.	-2.	0.	126.41
222	3.5	-2.5	0.	126.31
223	4.	-3.5	0.	125.76
224	4.5	-2.5	0.	126.09
225	4.5	-3.	0.	125.92
226	4.5	-3.5	0.	125.75
227	4.5	-4.5	0.	125.49
228	3.5	-4.5	0.	125.34
229	3.5	-3.	0.	126.03
230	5.	3.5	0.	125.33
231	4.5	-5.	0.	125.44
232	4.5	-1.	0.	126.32
233	4.5	4.	0.	125.27
234	3.	-5.	0.	125.16
235	4.	-1.5	0.	126.56
236	3.	-2.5	0.	126.36
237	3.5	-2.	0.	126.58
238	3.5	-3.5	0.	125.75
239	5.	-1.5	0.	126.11
240	5.	-2.5	0.	125.97
241	5.	-3.5	0.	125.72
242	5.	-4.5	0.	125.53
243	4.	-5.	0.	125.36
244	3.5	-5.	0.	125.27
245	5.	3.	0.	125.32
246	5.	-3.3852e-011	0.	125.83
247	5.	1.5	0.	125.32
248	3.	-4.5	0.	125.23
249	3.	-3.	0.	126.04
250	5.	4.	0.	125.3
251	5.	-5.	0.	125.49
252	4.5	3.5	0.	125.38
253	4.5	-0.5	0.	126.22
254	1.0898e-010	5.5	0.	123.56
255	4.	4.5	0.	125.06
256	2.5	-5.	0.	125.04
257	4.	4.	0.	125.39
258	4.	-1.	0.	126.61
259	2.5	-2.5	0.	126.35
260	3.	-2.	0.	126.67
261	-3.	5.	0.	125.25
262	3.5	4.5	0.	125.3
263	3.5	-1.5	0.	126.8
264	5.	2.	0.	125.27
265	5.	2.5	0.	125.28
266	5.	1.	0.	125.45
267	3.	-3.5	0.	125.72
268	-3.	5.5	0.	125.
269	5.5	4.	0.	125.42
270	5.5	3.5	0.	125.38
271	5.5	3.	0.	125.33
272	5.5	2.5	0.	125.29
273	5.5	1.5	0.	125.32
274	5.5	0.5	0.	125.55
275	5.5	-0.5	0.	125.82
276	5.5	-1.5	0.	125.93
277	5.5	-2.5	0.	125.86
278	5.5	-3.	0.	125.78
279	5.5	-3.5	0.	125.69
280	5.5	-4.5	0.	125.55
281	5.5	-5.	0.	125.52
282	5.	-5.5	0.	125.49
283	4.5	-5.5	0.	125.45
284	3.5	-5.5	0.	125.31
285	0.5	5.5	0.	123.99
286	4.5	-3.3356e-011	0.	126.02
287	4.5	1.5	0.	125.33
288	-0.5	5.5	0.	123.47
289	-2.	5.5	0.	124.45
290	-3.5	5.5	0.	125.13
291	4.5	4.5	0.	125.03
292	2.5	-4.5	0.	125.13
293	2.5	-3.	0.	126.05
294	2.5	-5.5	0.	125.15
295	-5.	2.5	0.	124.93
296	3.9022e-011	6.	0.	123.9
297	4.	3.5	0.	125.56
298	4.	-0.5	0.	126.53
299	2.5	-2.	0.	126.64
300	1.9197e-010	5.	0.	123.02
301	-2.5	5.	0.	125.05
302	-4.	3.5	0.	125.66
303	6.	4.5	0.	125.69
304	4.	5.	0.	124.56
305	2.	-5.	0.	124.96
306	2.	-2.5	0.	126.27
307	-3.5	6.	0.	125.03
308	5.5	-6.	0.	125.56
309	3.	4.5	0.	125.64
310	3.5	4.	0.	125.69
311	3.5	-1.	0.	126.93
312	3.	-1.5	0.	126.97
313	-4.	3.	0.	125.32
314	-4.5	2.5	0.	124.76
315	-3.5	4.	0.	125.79
316	-3.	4.5	0.	125.58
317	-4.5	3.	0.	125.32
318	4.5	1.	0.	125.5
319	-1.	5.5	0.	123.68
320	-1.5	5.5	0.	124.05
321	-3.5	4.5	0.	125.59
322	-3.5	5.	0.	125.34
323	5.5	4.5	0.	125.45
324	2.5	-3.5	0.	125.71
325	-3.	6.	0.	124.85
326	-2.	6.	0.	124.34
327	-1.5	6.	0.	124.04
328	-0.5	6.	0.	123.73
329	6.	3.5	0.	125.45
330	6.	2.5	0.	125.33
331	6.	1.5	0.	125.33
332	6.	0.5	0.	125.49
333	6.	-1.6338e-011	0.	125.59
334	6.	-0.5	0.	125.68
335	6.	-1.5	0.	125.79
336	6.	-2.5	0.	125.76
337	6.	-5.	0.	125.53
338	6.	-5.5	0.	125.54
339	5.	-6.	0.	125.55
340	4.5	-6.	0.	125.52
341	3.5	-6.	0.	125.44
342	2.	-5.5	0.	125.12
343	3.	-6.	0.	125.41
344	2.5	-6.	0.	125.41
345	-5.5	2.5	0.	125.11
346	0.5	6.	0.	124.35
347	-6.	-5.5	0.	125.58
348	-6.	-5.	0.	125.54
349	0.5	5.	0.	123.47
350	4.	3.	0.	125.56
351	4.	-2.7021e-011	0.	126.29
352	4.	1.5	0.	125.35
353	2.	-2.	0.	126.41
354	-0.5	5.	0.	123.05
355	-2.	5.	0.	124.67
356	-4.	4.	0.	125.74
357	-4.	5.5	0.	125.22
358	4.5	5.	0.	124.66
359	6.	5.	0.	125.89
360	2.	5.	0.	125.51
361	3.5	5.	0.	124.79
362	2.	-4.5	0.	125.06
363	2.	-3.	0.	126.06
364	-4.	6.	0.	125.19
365	6.	-6.	0.	125.57
366	-6.	-6.	0.	125.88
367	-6.	2.	0.	125.02
368	2.5	4.5	0.	125.85
369	3.5	3.5	0.	125.91
370	3.5	-0.5	0.	126.92
371	2.5	-1.5	0.	126.96
372	-4.	2.5	0.	124.76
373	-4.5	2.	0.	124.14
374	-3.5	3.5	0.	125.82
375	2.3305e-010	4.5	0.	122.23
376	-2.5	4.5	0.	125.45
377	-4.5	3.5	0.	125.72
378	1.5	5.5	0.	125.3
379	4.	5.5	0.	123.87
380	2.	-6.	0.	125.48
381	1.5	-5.	0.	124.96
382	1.5	-2.5	0.	126.13
383	3.	4.	0.	126.08
384	3.	-1.	0.	127.23
385	-3.	4.	0.	125.93
386	-5.	3.	0.	125.48
387	-6.	2.5	0.	125.09
388	6.5	5.5	0.	126.37
389	1.	6.	0.	125.03
390	-6.	-4.5	0.	125.85
391	-5.5	-5.	0.	125.12
392	1.5	5.	0.	125.03
393	1.	5.	0.	124.25
394	4.	2.5	0.	125.44
395	4.	0.5	0.	125.94
396	4.	1.	0.	125.58
397	1.5	-2.	0.	125.95
398	-1.5	5.	0.	124.11
399	-5.	2.	0.	124.41
400	-5.5	2.	0.	124.78
401	-4.	4.5	0.	125.61
402	-4.	5.	0.	125.39
403	5.5	5.	0.	125.52
404	3.	5.	0.	125.21
405	2.	-3.5	0.	125.74
406	-4.	6.5	0.	125.25
407	-3.5	6.5	0.	125.
408	-3.	6.5	0.	124.78
409	-2.5	6.5	0.	124.54
410	-0.5	6.5	0.	123.84
411	0.5	6.5	0.	124.49
412	6.5	4.5	0.	125.82
413	6.5	3.5	0.	125.52
414	6.5	1.5	0.	125.34
415	6.5	0.5	0.	125.44
416	6.5	-0.5	0.	125.58
417	6.5	-1.5	0.	125.67
418	6.5	-2.5	0.	125.66
419	6.5	-3.5	0.	125.6
420	6.5	-4.	0.	125.56
421	6.5	-5.	0.	125.53
422	6.5	-5.5	0.	125.54
423	6.5	-6.	0.	125.56
424	6.5	-6.5	0.	125.61
425	6.	-6.5	0.	125.62
426	5.5	-6.5	0.	125.63
427	4.5	-6.5	0.	125.63
428	4.	-6.5	0.	125.62
429	3.5	-6.5	0.	125.63
430	3.	-6.5	0.	125.66
431	2.5	-6.5	0.	125.73
432	-6.	-6.5	0.	126.26
433	-6.5	-6.5	0.	126.27
434	-6.5	-5.5	0.	125.87
435	-6.5	-4.5	0.	126.27
436	-6.5	1.5	0.	125.47
437	-6.5	2.	0.	125.04
438	2.	4.5	0.	125.69
439	0.5	4.5	0.	122.79
440	3.5	3.	0.	125.91
441	3.5	-1.7668e-011	0.	126.68
442	3.5	1.5	0.	125.39
443	0.5	-1.5	0.	123.27
444	2.	-1.5	0.	126.6
445	-4.	2.	0.	124.12
446	-3.5	3.	0.	125.56
447	-0.5	4.5	0.	122.45
448	-2.	4.5	0.	125.04
449	-6.	1.5	0.	125.22
450	-4.5	1.5	0.	123.5
451	-4.5	4.	0.	125.86
452	-4.5	5.5	0.	125.3
453	4.5	5.5	0.	124.16
454	6.	5.5	0.	126.21
455	2.	5.5	0.	125.64
456	3.5	5.5	0.	124.18
457	2.	-6.5	0.	125.9
458	1.5	-5.5	0.	125.19
459	-5.5	-5.5	0.	125.35
460	9.7325e-011	-1.5	0.	122.16
461	1.5	-4.5	0.	125.09
462	1.5	-3.	0.	126.15
463	2.5	4.	0.	126.36
464	3.	3.5	0.	126.42
465	3.	-0.5	0.	127.38
466	2.5	-1.	0.	127.35
467	1.1111e-010	-1.	0.	120.73
468	-3.	3.5	0.	126.16
469	2.2717e-010	4.	0.	121.1
470	-2.5	4.	0.	125.98
471	-6.5	1.	0.	126.08
472	-5.	3.5	0.	125.96
473	-6.5	2.5	0.	124.79
474	-5.5	3.	0.	125.62
475	6.5	6.	0.	126.76
476	1.5	6.	0.	125.73
477	4.	6.	0.	122.93
478	0.5	-2.	0.	124.55
479	1.	-5.	0.	125.16
480	1.	-2.5	0.	125.99
481	-6.5	-4.	0.	126.9
482	-7.	-6.5	0.	126.35
483	6.5	-7.	0.	125.66
484	-5.5	-7.	0.	126.73
485	-4.5	7.	0.	125.67
486	1.	6.5	0.	125.25
487	-5.5	-4.5	0.	125.29
488	-5.	-5.	0.	124.93
489	7.	6.5	0.	126.49
490	1.5	4.5	0.	124.98
491	1.	4.5	0.	123.87
492	3.5	2.5	0.	125.7
493	3.5	1.	0.	125.7
494	1.5	-1.5	0.	125.79
495	-3.5	2.	0.	124.36
496	-1.5	4.5	0.	124.27
497	-5.	1.5	0.	123.96
498	-3.5	1.5	0.	123.92
499	-4.	1.5	0.	123.52
500	-4.5	6.	0.	125.36
501	-4.5	6.5	0.	125.55
502	-4.5	5.	0.	125.46
503	5.5	5.5	0.	125.69
504	2.5	5.5	0.	125.48
505	3.	5.5	0.	124.87
506	1.5	-6.5	0.	126.22
507	1.5	-6.	0.	125.69
508	-5.5	-6.	0.	125.86
509	-5.5	-6.5	0.	126.39
510	-1.	-1.5	0.	120.88
511	1.5	-3.5	0.	125.91
512	-4.	7.	0.	125.3
513	-3.5	7.	0.	125.01
514	-3.	7.	0.	124.75
515	-2.5	7.	0.	124.51
516	-1.	7.	0.	123.89
517	-0.5	7.	0.	123.83
518	0.5	7.	0.	124.35
519	7.	6.	0.	126.44
520	7.	5.5	0.	126.25
521	7.	5.	0.	126.03
522	7.	4.5	0.	125.83
523	7.	4.	0.	125.67
524	7.	3.5	0.	125.54
525	7.	2.5	0.	125.38
526	7.	1.5	0.	125.34
527	7.	0.5	0.	125.4
528	7.	-0.5	0.	125.51
529	7.	-1.5	0.	125.57
530	7.	-2.5	0.	125.58
531	7.	-3.5	0.	125.55
532	7.	-5.	0.	125.51
533	7.	-6.	0.	125.55
534	7.	-6.5	0.	125.59
535	6.	-7.	0.	125.69
536	5.5	-7.	0.	125.71
537	4.5	-7.	0.	125.76
538	3.5	-7.	0.	125.83
539	3.	-7.	0.	125.91
540	2.5	-7.	0.	126.03
541	1.5	-7.	0.	126.56
542	-6.	-7.	0.	126.56
543	-6.5	-7.	0.	126.51
544	-7.	-5.5	0.	126.13
545	-7.	-4.5	0.	126.5
546	-7.	-3.5	0.	127.39
547	-7.	1.	0.	126.07
548	-7.	1.5	0.	125.49
549	-7.	2.	0.	124.94
550	2.	4.	0.	126.2
551	0.5	4.	0.	121.91
552	3.	3.	0.	126.5
553	3.	-6.9112e-012	0.	127.25
554	3.	1.5	0.	125.44
555	0.5	-1.	0.	122.01
556	2.	-1.	0.	127.01
557	-0.5	-1.	0.	120.55
558	-3.	3.	0.	126.08
559	-0.5	4.	0.	121.61
560	-2.	4.	0.	125.65
561	-7.	-3.	0.	127.66
562	-7.	-1.5	0.	126.69
563	-6.	1.	0.	125.73
564	-4.5	1.	0.	122.74
565	-5.	5.5	0.	125.4
566	-6.	3.	0.	125.45
567	4.5	6.	0.	123.48
568	6.	6.	0.	126.74
569	2.	6.	0.	126.1
570	3.5	6.	0.	123.45
571	1.	-5.5	0.	125.46
572	-5.	-5.5	0.	125.35
573	8.188e-011	-2.	0.	123.64
574	1.	-4.5	0.	125.33
575	1.	-3.	0.	126.41
576	-1.5	-2.	0.	119.52
577	2.5	3.5	0.	126.95
578	2.5	-0.5	0.	127.79
579	-2.5	3.5	0.	126.55
580	-6.	-4.	0.	126.56
581	-6.5	-3.5	0.	127.7
582	-6.5	0.5	0.	126.84
583	-3.	1.5	0.	124.36
584	-2.	-1.5	0.	121.04
585	-7.	-7.	0.	126.53
586	7.	-7.	0.	125.63
587	-5.5	3.5	0.	126.26
588	1.	-7.	0.	127.02
589	-5.	-7.	0.	127.06
590	0.5	-2.5	0.	125.84
591	-5.	7.	0.	126.17
592	1.5	6.5	0.	126.19
593	1.	7.	0.	125.13
594	-5.	-4.5	0.	124.91
595	1.9508e-010	3.5	0.	119.5
596	1.0236e-010	-0.5	0.	119.08
597	7.	7.	0.	126.21
598	4.	6.5	0.	121.61
599	0.5	-5.	0.	125.89
600	-4.5	-5.	0.	125.44
601	1.5	4.	0.	125.27
602	1.	4.	0.	123.61
603	3.	2.5	0.	126.17
604	3.	1.	0.	125.92
605	1.5	-1.	0.	125.88
606	-1.5	-1.	0.	122.11
607	-1.	-1.	0.	121.2
608	-3.	2.	0.	124.78
609	-1.5	4.	0.	124.67
610	-7.	-2.5	0.	127.53
611	-7.	-0.5	0.	126.97
612	-7.	-1.	0.	126.75
613	-5.	1.	0.	123.53
614	-5.5	1.	0.	124.81
615	-4.	1.	0.	122.99
616	-5.	6.5	0.	126.
617	-5.	4.5	0.	126.06
618	-5.	5.	0.	125.65
619	-6.5	3.	0.	124.77
620	5.5	6.	0.	126.08
621	3.	6.	0.	124.66
622	1.	-6.5	0.	126.77
623	1.	-6.	0.	126.13
624	-5.	-6.	0.	126.11
625	-1.	-2.	0.	120.82
626	1.	-3.5	0.	126.35
627	-2.	-2.5	0.	117.53
628	-2.	-2.	0.	119.42
629	-2.	-3.	0.	114.83
630	-4.	-5.	0.	127.52
631	-2.	-7.	0.	113.19
632	2.7675e-012	-5.	0.	127.93
633	4.	7.	0.	120.01
634	6.5	7.	0.	127.25
635	8.1934e-011	2.6833e-012	0.	117.1
636	1.4351e-010	3.	0.	117.44
637	-4.5	-4.5	0.	125.36
638	1.5	7.	0.	126.37
639	-5.5	7.5	0.	126.31
640	-5.	7.5	0.	126.
641	-4.5	7.5	0.	125.63
642	-4.	7.5	0.	125.29
643	-3.5	7.5	0.	125.
644	-3.	7.5	0.	124.75
645	-2.5	7.5	0.	124.51
646	-2.	7.5	0.	124.29
647	-1.5	7.5	0.	124.08
648	-1.	7.5	0.	123.9
649	-0.5	7.5	0.	123.77
650	-2.9373e-011	7.5	0.	123.76
651	0.5	7.5	0.	123.96
652	1.	7.5	0.	124.52
653	0.5	-3.	0.	126.88
654	0.5	-4.5	0.	126.1
655	-1.5	-2.5	0.	118.25
656	6.0711e-011	-2.5	0.	125.39
657	-4.5	-7.	0.	127.52
658	-4.5	-5.5	0.	125.95
659	0.5	-5.5	0.	126.22
660	0.5	-7.	0.	127.56
661	3.5	6.5	0.	122.56
662	2.	6.5	0.	126.9
663	6.	6.5	0.	127.56
664	4.5	6.5	0.	122.59
665	-6.	3.5	0.	126.22
666	7.	7.5	0.	125.44
667	7.5	7.5	0.	124.97
668	7.5	7.	0.	125.56
669	7.5	6.5	0.	125.92
670	7.5	6.	0.	126.04
671	7.5	5.	0.	125.89
672	7.5	4.5	0.	125.76
673	7.5	4.	0.	125.64
674	7.5	3.5	0.	125.53
675	7.5	3.	0.	125.44
676	7.5	2.5	0.	125.38
677	7.5	2.	0.	125.35
678	7.5	1.5	0.	125.34
679	7.5	1.	0.	125.35
680	7.5	0.5	0.	125.37
681	7.5	-2.0934e-012	0.	125.4
682	7.5	-0.5	0.	125.44
683	7.5	-1.	0.	125.47
684	7.5	-1.5	0.	125.49
685	7.5	-2.5	0.	125.51
686	7.5	-3.	0.	125.5
687	7.5	-3.5	0.	125.5
688	7.5	-4.	0.	125.49
689	7.5	-5.	0.	125.49
690	7.5	-5.5	0.	125.51
691	7.5	-6.	0.	125.53
692	7.5	-6.5	0.	125.56
693	7.5	-7.	0.	125.6
694	7.5	-7.5	0.	125.64
695	7.	-7.5	0.	125.68
696	6.5	-7.5	0.	125.72
697	6.	-7.5	0.	125.76
698	5.5	-7.5	0.	125.8
699	4.5	-7.5	0.	125.89
700	4.	-7.5	0.	125.95
701	3.5	-7.5	0.	126.02
702	3.	-7.5	0.	126.11
703	2.5	-7.5	0.	126.24
704	2.	-7.5	0.	126.41
705	1.5	-7.5	0.	126.62
706	1.	-7.5	0.	126.82
707	0.5	-7.5	0.	126.85
708	4.0509e-011	-7.5	0.	126.3
709	-1.5	-7.5	0.	117.32
710	-2.	-7.5	0.	115.8
711	-2.5	-7.5	0.	117.26
712	-4.	-7.5	0.	126.22
713	-4.5	-7.5	0.	126.83
714	-5.5	-7.5	0.	126.79
715	-6.	-7.5	0.	126.7
716	-6.5	-7.5	0.	126.67
717	-7.	-7.5	0.	126.68
718	-7.5	-7.5	0.	126.72
719	-7.5	-7.	0.	126.59
720	-7.5	-6.5	0.	126.45
721	-7.5	-6.	0.	126.35
722	-7.5	-5.5	0.	126.31
723	-7.5	-5.	0.	126.38
724	-7.5	-4.5	0.	126.57
725	-7.5	-4.	0.	126.83
726	-7.5	-3.5	0.	127.06
727	-7.5	-3.	0.	127.14
728	-7.5	-1.5	0.	126.53
729	-7.5	-0.5	0.	126.59
730	-7.5	5.9624e-013	0.	126.58
731	-7.5	0.5	0.	126.37
732	-7.5	1.	0.	125.99
733	-7.5	1.5	0.	125.5
734	-7.5	2.	0.	124.93
735	-7.5	2.5	0.	124.26
736	-7.5	3.	0.	123.37
737	-7.5	3.5	0.	121.99
738	-5.5	4.	0.	126.78
739	-5.5	7.	0.	126.79
740	-5.5	5.5	0.	125.65
741	-7.5	7.5	0.	121.76
742	-6.	7.5	0.	126.2
743	-3.	1.	0.	124.77
744	-2.5	-1.5	0.	122.21
745	-3.	0.5	0.	125.83
746	-6.	0.5	0.	126.68
747	-4.5	0.5	0.	121.58
748	-6.5	2.7225e-012	0.	127.51
749	-6.5	-3.	0.	128.38
750	-6.5	-1.5	0.	127.02
751	-6.	-3.5	0.	127.69
752	-5.5	-4.	0.	125.84
753	-5.	-4.	0.	125.15
754	-2.	3.5	0.	126.59
755	-0.5	3.5	0.	120.5
756	-2.5	3.	0.	126.87
757	-2.5	-8.9586e-012	0.	127.02
758	-2.5	1.5	0.	124.81
759	-0.5	-0.5	0.	119.67
760	-2.	-0.5	0.	125.19
761	2.	-0.5	0.	127.76
762	0.5	-0.5	0.	120.67
763	2.5	3.0104e-012	0.	128.01
764	2.5	3.	0.	127.33
765	2.5	1.5	0.	125.64
766	0.5	3.5	0.	120.79
767	2.	3.5	0.	127.11
768	1.5	3.5	0.	126.07
769	1.	3.5	0.	123.59
770	2.5	2.5	0.	127.03
771	2.5	1.	0.	126.36
772	1.5	-0.5	0.	126.47
773	-1.5	-0.5	0.	123.92
774	-1.	-0.5	0.	121.8
775	-2.5	0.5	0.	126.64
776	-2.5	2.	0.	125.4
777	-1.5	3.5	0.	125.51
778	-5.	-3.5	0.	125.17
779	-6.5	-2.5	0.	128.41
780	-6.5	-0.5	0.	127.66
781	-6.5	-1.	0.	127.15
782	-5.	0.5	0.	123.1
783	-5.5	0.5	0.	125.4
784	-3.5	0.5	0.	124.44
785	-4.	0.5	0.	122.44
786	-2.5	-0.5	0.	126.08
787	-7.	7.5	0.	122.92
788	-5.5	6.	0.	126.05
789	-5.5	6.5	0.	126.76
790	-5.5	5.	0.	126.03
791	-7.	3.5	0.	123.12
792	-6.5	3.5	0.	125.13
793	5.5	6.5	0.	126.89
794	3.	6.5	0.	124.73
795	0.5	-6.	0.	126.94
796	-0.5	-7.5	0.	124.36
797	-3.	-7.5	0.	120.8
798	-4.5	-6.5	0.	127.57
799	-1.	-2.5	0.	121.09
800	0.5	-3.5	0.	127.22
801	0.5	1.074e-011	0.	119.1
802	-0.5	3.	0.	119.02
803	4.5	7.	0.	121.43
804	-1.5	-7.	0.	115.58
805	-4.	-5.5	0.	127.32
806	-2.5	-2.	0.	121.01
807	-2.5	-2.5	0.	120.01
808	-2.5	-3.	0.	118.05
809	3.2104e-012	-4.5	0.	127.53
810	1.5	7.5	0.	125.76
811	-4.5	-4.	0.	125.41
812	-4.5	-3.5	0.	124.93
813	-7.5	4.	0.	119.36
814	7.	8.	0.	124.41
815	7.5	8.	0.	124.35
816	8.	8.	0.	124.47
817	8.	7.5	0.	124.81
818	8.	7.	0.	125.21
819	8.	6.5	0.	125.52
820	8.	6.	0.	125.69
821	8.	5.5	0.	125.74
822	8.	5.	0.	125.71
823	8.	4.5	0.	125.64
824	8.	4.	0.	125.56
825	8.	3.5	0.	125.48
826	8.	3.	0.	125.42
827	8.	2.5	0.	125.37
828	8.	2.	0.	125.34
829	8.	1.5	0.	125.32
830	8.	1.	0.	125.32
831	8.	0.5	0.	125.34
832	8.	-1.0554e-012	0.	125.36
833	8.	-0.5	0.	125.38
834	8.	-1.	0.	125.4
835	8.	-1.5	0.	125.42
836	8.	-2.	0.	125.43
837	8.	-2.5	0.	125.44
838	8.	-3.	0.	125.44
839	8.	-3.5	0.	125.44
840	8.	-4.	0.	125.45
841	8.	-4.5	0.	125.45
842	8.	-5.	0.	125.46
843	8.	-5.5	0.	125.48
844	8.	-6.	0.	125.51
845	8.	-6.5	0.	125.54
846	8.	-7.	0.	125.57
847	8.	-7.5	0.	125.6
848	7.5	-8.	0.	125.68
849	7.	-8.	0.	125.72
850	6.5	-8.	0.	125.77
851	6.	-8.	0.	125.82
852	5.5	-8.	0.	125.88
853	5.	-8.	0.	125.94
854	4.5	-8.	0.	126.01
855	4.	-8.	0.	126.08
856	3.5	-8.	0.	126.16
857	3.	-8.	0.	126.25
858	2.5	-8.	0.	126.35
859	2.	-8.	0.	126.43
860	1.5	-8.	0.	126.47
861	1.	-8.	0.	126.38
862	0.5	-8.	0.	126.
863	2.8451e-011	-8.	0.	125.05
864	-0.5	-8.	0.	123.27
865	-1.	-8.	0.	120.83
866	-1.5	-8.	0.	118.61
867	-2.	-8.	0.	117.68
868	-2.5	-8.	0.	118.56
869	-3.	-8.	0.	120.75
870	-3.5	-8.	0.	123.19
871	-4.	-8.	0.	124.99
872	-4.5	-8.	0.	125.99
873	-5.	-8.	0.	126.45
874	-5.5	-8.	0.	126.63
875	-6.	-8.	0.	126.7
876	-6.5	-8.	0.	126.74
877	-7.	-8.	0.	126.78
878	-7.5	-8.	0.	126.83
879	-8.	-8.	0.	126.89
880	-8.	-7.5	0.	126.79
881	-8.	-7.	0.	126.67
882	-8.	-6.5	0.	126.55
883	-8.	-6.	0.	126.46
884	-8.	-5.5	0.	126.43
885	-8.	-5.	0.	126.46
886	-8.	-4.	0.	126.69
887	-8.	-3.5	0.	126.78
888	-8.	-3.	0.	126.79
889	-8.	-2.5	0.	126.68
890	-8.	-2.	0.	126.52
891	-8.	-1.5	0.	126.4
892	-8.	-0.5	0.	126.39
893	-8.	1.6513e-013	0.	126.37
894	-8.	0.5	0.	126.24
895	-8.	1.	0.	125.98
896	-8.	1.5	0.	125.62
897	-8.	2.	0.	125.16
898	-8.	2.5	0.	124.63
899	-8.	3.	0.	124.
900	-8.	3.5	0.	123.26
901	0.5	3.	0.	119.35
902	2.	3.	0.	128.32
903	2.	1.5	0.	125.68
904	2.	1.1234e-011	0.	128.83
905	-0.5	-6.1043e-012	0.	118.53
906	-2.	-1.3436e-011	0.	127.24
907	-2.	1.5	0.	124.97
908	-2.	3.	0.	127.82
909	-4.5	-3.	0.	122.31
910	-6.	-3.	0.	129.17
911	-6.	-1.5	0.	127.18
912	-6.	4.1505e-012	0.	128.09
913	-4.5	8.255e-012	0.	119.2
914	-3.	1.0014e-012	0.	127.14
915	-3.	-1.5	0.	123.7
916	-6.	7.	0.	127.41
917	-6.	5.5	0.	125.78
918	-6.	4.	0.	127.43
919	6.5	7.5	0.	126.55
920	6.5	8.	0.	124.96
921	6.	7.	0.	128.61
922	3.5	7.	0.	121.41
923	2.	7.	0.	127.96
924	-8.	7.5	0.	122.98
925	-8.	8.	0.	123.57
926	-6.5	8.	0.	124.62
927	-6.	8.	0.	125.44
928	-5.5	8.	0.	125.74
929	-5.	8.	0.	125.67
930	-4.5	8.	0.	125.45
931	-4.	8.	0.	125.2
932	-3.5	8.	0.	124.97
933	-3.	8.	0.	124.75
934	-2.5	8.	0.	124.54
935	-2.	8.	0.	124.34
936	-1.5	8.	0.	124.15
937	-1.	8.	0.	123.95
938	-0.5	8.	0.	123.77
939	-2.3529e-011	8.	0.	123.6
940	0.5	8.	0.	123.52
941	1.	8.	0.	123.65
942	1.5	8.	0.	124.29
943	1.0013e-011	-5.5	0.	127.6
944	4.2795e-011	-7.	0.	127.97
945	-4.	-7.	0.	127.87
946	-4.	-4.5	0.	126.94
947	-1.5	-3.	0.	116.57
948	4.063e-011	-3.	0.	127.42
949	2.3179e-011	-3.5	0.	128.69
950	-0.5	-3.	0.	126.44
951	-1.	-3.	0.	121.77
952	-3.	-3.	0.	124.79
953	-4.	-4.	0.	127.53
954	-4.	-6.	0.	128.31
955	-4.	-6.5	0.	128.87
956	-3.	-7.	0.	121.24
957	-0.5	-7.	0.	126.6
958	2.1424e-011	-6.	0.	128.5
959	2.	8.	0.	126.25
960	2.	7.5	0.	128.13
961	3.	7.	0.	125.19
962	5.5	7.	0.	128.63
963	6.	7.5	0.	128.77
964	6.	8.	0.	126.81
965	-7.	4.	0.	122.33
966	-6.5	4.	0.	126.61
967	-6.	5.	0.	127.17
968	-6.	6.	0.	127.22
969	-6.	6.5	0.	128.12
970	-6.5	7.	0.	126.49
971	-7.	7.	0.	122.13
972	-4.	-3.	0.	126.13
973	-3.5	-3.	0.	129.39
974	-3.	-2.5	0.	125.1
975	-3.	-2.	0.	124.39
976	-3.	-1.	0.	125.98
977	-3.	-0.5	0.	127.56
978	-4.	8.5047e-012	0.	121.72
979	-5.	7.1869e-012	0.	122.65
980	-5.5	5.7193e-012	0.	127.17
981	-6.	-1.	0.	128.27
982	-6.	-2.5	0.	129.98
983	-5.	-3.	0.	124.57
984	-1.5	3.	0.	127.32
985	-2.	0.5	0.	127.98
986	-1.5	-1.5032e-011	0.	126.49
987	-1.	-1.2085e-011	0.	122.71
988	1.5	1.638e-011	0.	128.1
989	2.	1.	0.	127.57
990	2.	2.5	0.	128.69
991	1.5	3.	0.	127.89
992	1.	3.	0.	123.96
993	-8.	4.	0.	122.4
994	-8.	8.5	0.	124.02
995	-7.5	8.5	0.	123.76
996	-7.	8.5	0.	123.99
997	-6.5	8.5	0.	124.53
998	-6.	8.5	0.	125.04
999	-5.5	8.5	0.	125.3
1000	-4.5	8.5	0.	125.23
1001	-4.	8.5	0.	125.07
1002	-3.5	8.5	0.	124.9
1003	-3.	8.5	0.	124.74
1004	-2.5	8.5	0.	124.59
1005	-2.	8.5	0.	124.43
1006	-1.	8.5	0.	124.1
1007	-0.5	8.5	0.	123.9
1008	-1.8159e-011	8.5	0.	123.67
1009	0.5	8.5	0.	123.39
1010	1.	8.5	0.	123.13
1011	1.5	8.5	0.	123.23
1012	2.	8.5	0.	123.77
1013	-8.	7.	0.	122.27
1014	-8.5	-8.	0.	126.97
1015	-8.5	-7.5	0.	126.86
1016	-8.5	-7.	0.	126.75
1017	-8.5	-6.5	0.	126.64
1018	-8.5	-6.	0.	126.54
1019	-8.5	-5.5	0.	126.49
1020	-8.5	-5.	0.	126.48
1021	-8.5	-4.5	0.	126.5
1022	-8.5	-4.	0.	126.54
1023	-8.5	-3.5	0.	126.56
1024	-8.5	-3.	0.	126.53
1025	-8.5	-2.5	0.	126.45
1026	-8.5	-2.	0.	126.35
1027	-8.5	-1.5	0.	126.29
1028	-8.5	-1.	0.	126.27
1029	-8.5	-0.5	0.	126.28
1030	-8.5	-1.0724e-013	0.	126.28
1031	-8.5	0.5	0.	126.22
1032	-8.5	1.	0.	126.08
1033	-8.5	1.5	0.	125.87
1034	-8.5	2.	0.	125.63
1035	-8.5	2.5	0.	125.38
1036	-8.5	3.	0.	125.27
1037	-8.5	3.5	0.	125.52
1038	-8.5	4.	0.	126.94
1039	-8.5	7.	0.	126.67
1040	-8.5	7.5	0.	125.1
1041	-8.5	8.	0.	124.68
1042	-8.5	8.5	0.	124.62
1043	6.	8.5	0.	124.18
1044	6.5	8.5	0.	123.75
1045	7.	8.5	0.	123.75
1046	7.5	8.5	0.	124.08
1047	8.	8.5	0.	124.38
1048	8.5	8.5	0.	124.59
1049	8.5	8.	0.	124.6
1050	8.5	7.5	0.	124.78
1051	8.5	7.	0.	125.03
1052	8.5	6.	0.	125.42
1053	8.5	5.5	0.	125.5
1054	8.5	5.	0.	125.52
1055	8.5	4.5	0.	125.5
1056	8.5	4.	0.	125.47
1057	8.5	3.5	0.	125.42
1058	8.5	3.	0.	125.38
1059	8.5	2.5	0.	125.34
1060	8.5	2.	0.	125.32
1061	8.5	1.5	0.	125.3
1062	8.5	1.	0.	125.29
1063	8.5	0.5	0.	125.3
1064	8.5	-4.5311e-013	0.	125.31
1065	8.5	-0.5	0.	125.32
1066	8.5	-1.	0.	125.34
1067	8.5	-1.5	0.	125.35
1068	8.5	-2.	0.	125.36
1069	8.5	-2.5	0.	125.37
1070	8.5	-3.	0.	125.38
1071	8.5	-3.5	0.	125.39
1072	8.5	-4.	0.	125.4
1073	8.5	-4.5	0.	125.41
1074	8.5	-5.	0.	125.43
1075	8.5	-5.5	0.	125.45
1076	8.5	-6.	0.	125.48
1077	8.5	-6.5	0.	125.51
1078	8.5	-7.	0.	125.54
1079	8.5	-7.5	0.	125.57
1080	8.5	-8.	0.	125.6
1081	8.5	-8.5	0.	125.63
1082	8.	-8.5	0.	125.66
1083	7.5	-8.5	0.	125.71
1084	7.	-8.5	0.	125.76
1085	6.5	-8.5	0.	125.82
1086	6.	-8.5	0.	125.88
1087	5.5	-8.5	0.	125.95
1088	5.	-8.5	0.	126.03
1089	4.5	-8.5	0.	126.11
1090	4.	-8.5	0.	126.19
1091	3.5	-8.5	0.	126.26
1092	3.	-8.5	0.	126.33
1093	2.5	-8.5	0.	126.37
1094	2.	-8.5	0.	126.36
1095	1.5	-8.5	0.	126.24
1096	1.	-8.5	0.	125.93
1097	0.5	-8.5	0.	125.3
1098	1.7428e-011	-8.5	0.	124.24
1099	-0.5	-8.5	0.	122.72
1100	-1.5	-8.5	0.	119.5
1101	-2.	-8.5	0.	118.91
1102	-2.5	-8.5	0.	119.47
1103	-3.	-8.5	0.	120.91
1104	-3.5	-8.5	0.	122.66
1105	-4.	-8.5	0.	124.21
1106	-4.5	-8.5	0.	125.31
1107	-5.	-8.5	0.	125.99
1108	-5.5	-8.5	0.	126.39
1109	-6.	-8.5	0.	126.61
1110	-6.5	-8.5	0.	126.74
1111	-7.	-8.5	0.	126.82
1112	-7.5	-8.5	0.	126.89
1113	-8.	-8.5	0.	126.96
1114	-8.5	-8.5	0.	127.05
1115	-9.	-8.5	0.	127.17
1116	-9.	-8.	0.	127.07
1117	-9.	-7.	0.	126.83
1118	-9.	-6.5	0.	126.7
1119	-9.	-6.	0.	126.59
1120	-9.	-5.5	0.	126.5
1121	-9.	-5.	0.	126.45
1122	-9.	-4.5	0.	126.41
1123	-9.	-4.	0.	126.39
1124	-9.	-3.5	0.	126.36
1125	-9.	-3.	0.	126.31
1126	-9.	-2.5	0.	126.25
1127	-9.	-2.	0.	126.2
1128	-9.	-1.5	0.	126.17
1129	-9.	-1.	0.	126.17
1130	-9.	-0.5	0.	126.21
1131	-9.	-2.3343e-013	0.	126.24
1132	-9.	0.5	0.	126.26
1133	-9.	1.	0.	126.25
1134	-9.	1.5	0.	126.22
1135	-9.	2.	0.	126.19
1136	-9.	2.5	0.	126.21
1137	-9.	3.5	0.	126.96
1138	-9.	4.	0.	128.08
1139	-9.	4.5	0.	128.86
1140	-9.	5.5	0.	126.62
1141	-9.	6.	0.	127.85
1142	-9.	6.5	0.	128.51
1143	-9.	7.	0.	127.61
1144	-9.	7.5	0.	126.33
1145	-9.	8.	0.	125.6
1146	-9.	8.5	0.	125.23
1147	-8.5	9.	0.	124.65
1148	-8.	9.	0.	124.32
1149	-7.5	9.	0.	124.18
1150	-5.5	9.	0.	124.99
1151	-5.	9.	0.	125.05
1152	-4.	9.	0.	124.94
1153	-3.5	9.	0.	124.84
1154	-3.	9.	0.	124.74
1155	-2.5	9.	0.	124.63
1156	-2.	9.	0.	124.53
1157	-1.5	9.	0.	124.43
1158	-1.	9.	0.	124.33
1159	-0.5	9.	0.	124.21
1160	-1.1105e-011	9.	0.	124.04
1161	0.5	9.	0.	123.82
1162	1.5	9.	0.	123.46
1163	9.	8.5	0.	124.7
1164	9.	8.	0.	124.67
1165	9.	7.5	0.	124.76
1166	9.	7.	0.	124.91
1167	9.	6.5	0.	125.07
1168	9.	6.	0.	125.21
1169	9.	5.5	0.	125.31
1170	9.	5.	0.	125.36
1171	9.	4.5	0.	125.39
1172	9.	4.	0.	125.38
1173	9.	3.5	0.	125.36
1174	9.	3.	0.	125.34
1175	9.	2.5	0.	125.31
1176	9.	2.	0.	125.29
1177	9.	1.	0.	125.26
1178	9.	-1.4274e-013	0.	125.25
1179	9.	-0.5	0.	125.26
1180	9.	-1.	0.	125.27
1181	9.	-1.5	0.	125.28
1182	9.	-2.	0.	125.29
1183	9.	-2.5	0.	125.3
1184	9.	-3.	0.	125.32
1185	9.	-3.5	0.	125.33
1186	9.	-4.	0.	125.35
1187	9.	-4.5	0.	125.37
1188	9.	-5.	0.	125.39
1189	9.	-5.5	0.	125.41
1190	9.	-6.	0.	125.44
1191	9.	-7.	0.	125.51
1192	9.	-8.	0.	125.58
1193	9.	-8.5	0.	125.6
1194	8.5	-9.	0.	125.65
1195	8.	-9.	0.	125.69
1196	7.5	-9.	0.	125.73
1197	7.	-9.	0.	125.79
1198	6.5	-9.	0.	125.86
1199	6.	-9.	0.	125.93
1200	5.5	-9.	0.	126.01
1201	5.	-9.	0.	126.09
1202	4.5	-9.	0.	126.18
1203	4.	-9.	0.	126.26
1204	3.5	-9.	0.	126.33
1205	3.	-9.	0.	126.37
1206	2.5	-9.	0.	126.36
1207	2.	-9.	0.	126.25
1208	1.5	-9.	0.	126.01
1209	1.	-9.	0.	125.56
1210	0.5	-9.	0.	124.82
1211	9.0363e-012	-9.	0.	123.77
1212	-0.5	-9.	0.	122.46
1213	-1.	-9.	0.	121.11
1214	-1.5	-9.	0.	120.07
1215	-2.	-9.	0.	119.67
1216	-2.5	-9.	0.	120.05
1217	-3.	-9.	0.	121.07
1218	-3.5	-9.	0.	122.42
1219	-4.	-9.	0.	123.75
1220	-4.5	-9.	0.	124.84
1221	-5.	-9.	0.	125.63
1222	-5.5	-9.	0.	126.16
1223	-6.	-9.	0.	126.49
1224	-6.5	-9.	0.	126.7
1225	-7.5	-9.	0.	126.93
1226	-8.5	-9.	0.	127.12
1227	8.5	9.	0.	124.8
1228	7.5	9.	0.	124.42
1229	7.	9.	0.	124.1
1230	6.5	9.	0.	123.9
1231	1.5	2.5	0.	131.37
1232	1.5	0.5	0.	131.56
1233	-1.5	0.5	0.	130.43
1234	-1.5	2.5	0.	130.86
1235	-5.5	-2.5	0.	132.27
1236	-5.5	-0.5	0.	131.06
1237	-3.5	-0.5	0.	129.72
1238	-3.5	-2.5	0.	130.9
1239	-6.5	6.5	0.	130.15
1240	-6.5	4.5	0.	130.22
1241	-8.5	4.5	0.	130.71
1242	5.5	7.5	0.	132.13
1243	2.5	7.5	0.	131.71
1244	2.	9.	0.	124.64
1245	-0.5	-6.5	0.	130.68
1246	-3.5	-6.5	0.	130.52
1247	-3.5	-3.5	0.	131.66
1248	-0.5	-3.5	0.	130.7
1249	-9.	-9.	0.	127.25
1250	-9.	9.	0.	125.02
1251	9.	9.	0.	124.85
1252	9.	-9.	0.	125.62
1253	1.5	2.	0.	129.78
1254	1.5	1.	0.	130.22
1255	1.5	1.5	0.	129.33
1256	1.	0.5	0.	125.13
1257	0.5	0.5	0.	116.39
1258	4.3025e-011	0.5	0.	116.8
1259	-0.5	0.5	0.	115.96
1260	-1.5	1.	0.	129.13
1261	-1.5	2.	0.	129.54
1262	-1.5	1.5	0.	128.73
1263	-1.	2.5	0.	124.78
1264	0.5	2.5	0.	116.5
1265	7.3033e-011	2.5	0.	117.02
1266	-0.5	2.5	0.	116.29
1267	-5.5	-2.	0.	131.41
1268	-5.5	-1.	0.	130.31
1269	-5.5	-1.5	0.	130.73
1270	-5.	-0.5	0.	124.01
1271	-4.	-0.5	0.	122.41
1272	-4.5	-0.5	0.	112.92
1273	-3.5	-1.	0.	129.2
1274	-3.5	-2.	0.	128.68
1275	-3.5	-1.5	0.	128.62
1276	-5.	-2.5	0.	125.03
1277	-4.5	-2.5	0.	114.96
1278	-4.	-2.5	0.	125.86
1279	-6.5	6.	0.	129.48
1280	-6.5	5.	0.	129.35
1281	-6.5	5.5	0.	129.34
1282	-7.	4.5	0.	123.23
1283	-8.	4.5	0.	123.15
1284	-7.5	4.5	0.	112.77
1285	-8.5	5.	0.	130.15
1286	-8.5	6.	0.	129.92
1287	-8.5	5.5	0.	129.9
1288	-8.	6.5	0.	123.24
1289	-7.	6.5	0.	122.92
1290	-7.5	6.5	0.	112.69
1291	5.5	9.	0.	128.59
1292	5.5	8.	0.	130.82
1293	5.5	8.5	0.	129.4
1294	5.	7.5	0.	126.68
1295	4.5	7.5	0.	119.19
1296	4.	7.5	0.	120.18
1297	3.	7.5	0.	126.64
1298	3.5	7.5	0.	119.1
1299	2.5	8.	0.	130.3
1300	2.5	9.	0.	128.41
1301	2.5	8.5	0.	129.13
1302	-1.	-6.5	0.	123.27
1303	-1.5	-6.5	0.	112.21
1304	-2.	-6.5	0.	111.99
1305	-3.	-6.5	0.	123.07
1306	-2.5	-6.5	0.	112.14
1307	-3.5	-6.	0.	129.82
1308	-3.5	-5.5	0.	131.85
1309	-3.5	-5.	0.	133.45
1310	-3.5	-4.	0.	130.05
1311	-3.5	-4.5	0.	132.08
1312	-3.	-3.5	0.	125.45
1313	-2.5	-3.5	0.	113.98
1314	-2.	-3.5	0.	113.34
1315	-1.	-3.5	0.	123.82
1316	-1.5	-3.5	0.	113.07
1317	-0.5	-4.	0.	129.96
1318	-0.5	-4.5	0.	132.2
1319	-0.5	-5.	0.	133.66
1320	-0.5	-6.	0.	129.97
1321	-0.5	-5.5	0.	132.11
1322	-9.5	-9.	0.	127.44
1323	-9.5	-8.5	0.	127.34
1324	-9.5	-8.	0.	127.22
1325	-9.5	-7.5	0.	127.07
1326	-9.5	-7.	0.	126.91
1327	-9.5	-6.5	0.	126.75
1328	-9.5	-6.	0.	126.6
1329	-9.5	-5.5	0.	126.48
1330	-9.5	-5.	0.	126.38
1331	-9.5	-4.5	0.	126.29
1332	-9.5	-4.	0.	126.22
1333	-9.5	-3.	0.	126.1
1334	-9.5	-2.5	0.	126.05
1335	-9.5	-2.	0.	126.01
1336	-9.5	-1.5	0.	126.01
1337	-9.5	-1.	0.	126.05
1338	-9.5	-0.5	0.	126.12
1339	-9.5	-2.1591e-013	0.	126.22
1340	-9.5	0.5	0.	126.33
1341	-9.5	1.	0.	126.45
1342	-9.5	1.5	0.	126.58
1343	-9.5	2.	0.	126.74
1344	-9.5	2.5	0.	126.95
1345	-9.5	3.	0.	127.22
1346	-9.5	3.5	0.	127.54
1347	-9.5	4.	0.	127.77
1348	-9.5	4.5	0.	127.59
1349	-9.5	5.	0.	126.86
1350	-9.5	5.5	0.	126.42
1351	-9.5	6.	0.	126.62
1352	-9.5	6.5	0.	127.13
1353	-9.5	7.	0.	127.11
1354	-9.5	7.5	0.	126.68
1355	-9.5	8.	0.	126.16
1356	-9.5	8.5	0.	125.7
1357	-9.5	9.	0.	125.34
1358	-9.5	9.5	0.	125.06
1359	-9.	9.5	0.	124.86
1360	-8.5	9.5	0.	124.65
1361	-8.	9.5	0.	124.47
1362	-7.5	9.5	0.	124.38
1363	-7.	9.5	0.	124.41
1364	-6.5	9.5	0.	124.52
1365	-6.	9.5	0.	124.67
1366	-5.5	9.5	0.	124.79
1367	-5.	9.5	0.	124.87
1368	-4.5	9.5	0.	124.89
1369	-4.	9.5	0.	124.86
1370	-3.5	9.5	0.	124.81
1371	-3.	9.5	0.	124.75
1372	-2.5	9.5	0.	124.68
1373	-2.	9.5	0.	124.61
1374	-1.5	9.5	0.	124.57
1375	-1.	9.5	0.	124.55
1376	-0.5	9.5	0.	124.55
1377	-5.0951e-012	9.5	0.	124.6
1378	0.5	9.5	0.	124.68
1379	1.	9.5	0.	124.8
1380	1.5	9.5	0.	125.04
1381	2.	9.5	0.	125.88
1382	2.5	9.5	0.	128.95
1383	3.	9.5	0.	126.69
1384	3.5	9.5	0.	120.85
1385	4.	9.5	0.	122.53
1386	4.5	9.5	0.	120.95
1387	5.	9.5	0.	127.01
1388	5.5	9.5	0.	129.29
1389	6.	9.5	0.	126.28
1390	6.5	9.5	0.	125.52
1391	7.	9.5	0.	125.34
1392	7.5	9.5	0.	125.25
1393	8.	9.5	0.	125.18
1394	8.5	9.5	0.	125.11
1395	9.	9.5	0.	125.04
1396	9.5	9.5	0.	124.97
1397	9.5	9.	0.	124.83
1398	9.5	8.5	0.	124.71
1399	9.5	8.	0.	124.65
1400	9.5	7.5	0.	124.68
1401	9.5	7.	0.	124.77
1402	9.5	6.5	0.	124.91
1403	9.5	6.	0.	125.05
1404	9.5	5.5	0.	125.17
1405	9.5	5.	0.	125.25
1406	9.5	4.5	0.	125.31
1407	9.5	4.	0.	125.33
1408	9.5	3.5	0.	125.33
1409	9.5	3.	0.	125.31
1410	9.5	2.5	0.	125.28
1411	9.5	2.	0.	125.25
1412	9.5	1.5	0.	125.23
1413	9.5	1.	0.	125.21
1414	9.5	0.5	0.	125.19
1415	9.5	-4.2963e-014	0.	125.19
1416	9.5	-0.5	0.	125.19
1417	9.5	-1.	0.	125.2
1418	9.5	-1.5	0.	125.21
1419	9.5	-2.	0.	125.22
1420	9.5	-2.5	0.	125.23
1421	9.5	-3.	0.	125.25
1422	9.5	-3.5	0.	125.27
1423	9.5	-4.	0.	125.29
1424	9.5	-4.5	0.	125.31
1425	9.5	-5.	0.	125.34
1426	9.5	-5.5	0.	125.37
1427	9.5	-6.	0.	125.41
1428	9.5	-6.5	0.	125.45
1429	9.5	-7.	0.	125.49
1430	9.5	-7.5	0.	125.53
1431	9.5	-8.	0.	125.56
1432	9.5	-8.5	0.	125.59
1433	9.5	-9.	0.	125.61
1434	9.5	-9.5	0.	125.63
1435	9.	-9.5	0.	125.64
1436	8.5	-9.5	0.	125.66
1437	8.	-9.5	0.	125.7
1438	7.5	-9.5	0.	125.75
1439	7.	-9.5	0.	125.81
1440	6.5	-9.5	0.	125.88
1441	6.	-9.5	0.	125.96
1442	5.5	-9.5	0.	126.04
1443	5.	-9.5	0.	126.13
1444	4.5	-9.5	0.	126.22
1445	4.	-9.5	0.	126.3
1446	3.5	-9.5	0.	126.36
1447	3.	-9.5	0.	126.38
1448	2.5	-9.5	0.	126.33
1449	2.	-9.5	0.	126.17
1450	1.5	-9.5	0.	125.86
1451	1.	-9.5	0.	125.33
1452	0.5	-9.5	0.	124.55
1453	3.7906e-012	-9.5	0.	123.53
1454	-0.5	-9.5	0.	122.35
1455	-1.	-9.5	0.	121.22
1456	-1.5	-9.5	0.	120.39
1457	-2.	-9.5	0.	120.08
1458	-2.5	-9.5	0.	120.37
1459	-3.	-9.5	0.	121.19
1460	-3.5	-9.5	0.	122.32
1461	-4.	-9.5	0.	123.51
1462	-4.5	-9.5	0.	124.57
1463	-5.	-9.5	0.	125.4
1464	-5.5	-9.5	0.	126.
1465	-6.	-9.5	0.	126.41
1466	-6.5	-9.5	0.	126.67
1467	-7.	-9.5	0.	126.83
1468	-7.5	-9.5	0.	126.95
1469	-8.	-9.5	0.	127.04
1470	-8.5	-9.5	0.	127.15
1471	-9.	-9.5	0.	127.3
1472	-9.5	-9.5	0.	127.5
1473	-9.	-7.5	0.	126.96
1474	-4.5	9.	0.	125.02
1475	-5.	8.5	0.	125.33
1476	-7.5	-2.	0.	126.73
1477	7.	-4.7486e-012	0.	125.45
1478	-7.5	-1.	0.	126.51
1479	8.	9.	0.	124.66
1480	6.	2.	0.	125.31
1481	2.5	0.5	0.	127.55
1482	-5.	-6.5	0.	126.79
1483	-7.	-9.	0.	126.83
1484	9.	-6.5	0.	125.48
1485	-1.5	-1.5	0.	120.7
1486	4.5	-2.	0.	126.24
1487	-1.5	7.	0.	124.05
1488	-2.	2.	0.	126.77
1489	-7.	-5.	0.	126.22
1490	-8.	-9.	0.	127.02
1491	-6.	-0.5	0.	128.97
1492	5.	-7.	0.	125.73
1493	-1.	3.5	0.	123.08
1494	-0.5	-2.5	0.	123.88
1495	4.	-4.	0.	125.56
1496	-2.5	2.5	0.	126.5
1497	-5.5	1.5	0.	124.66
1498	6.	-4.	0.	125.59
1499	7.	-4.	0.	125.53
1500	-7.5	8.	0.	123.03
1501	6.	9.	0.	124.97
1502	3.5	2.	0.	125.43
1503	6.5	3.	0.	125.42
1504	-2.	2.5	0.	128.24
1505	7.5	-4.5	0.	125.49
1506	7.	-5.5	0.	125.53
1507	1.5	-4.	0.	125.48
1508	1.	1.5123e-011	0.	123.88
1509	5.	-3.	0.	125.85
1510	-3.5	1.	0.	123.91
1511	-1.	5.	0.	123.49
1512	-2.	6.5	0.	124.28
1513	5.	5.	0.	125.05
1514	1.	-4.	0.	125.87
1515	4.	-5.5	0.	125.38
1516	-2.5	6.	0.	124.62
1517	-6.	9.	0.	124.81
1518	-6.5	-6.	0.	126.02
1519	5.	-4.	0.	125.61
1520	0.5	-4.	0.	126.67
1521	-7.	-4.	0.	126.93
1522	-1.	6.	0.	123.8
1523	5.	4.5	0.	125.2
1524	6.	4.	0.	125.55
1525	5.5	2.	0.	125.28
1526	-9.	5.	0.	128.06
1527	6.5	6.5	0.	127.16
1528	3.	-4.	0.	125.44
1529	-3.5	7.0044e-012	0.	125.99
1530	2.5	5.	0.	125.54
1531	-5.5	-3.5	0.	126.74
1532	5.	-6.5	0.	125.63
1533	5.	-7.5	0.	125.84
1534	6.5	-4.5	0.	125.54
1535	2.5	7.	0.	128.26
1536	4.5	2.5	0.	125.32
1537	5.	6.5	0.	124.88
1538	-2.5	5.5	0.	124.78
1539	4.	-7.	0.	125.79
1540	-4.5	4.5	0.	125.73
1541	-9.5	-3.5	0.	126.16
1542	7.	-2.	0.	125.59
1543	-7.5	-2.5	0.	127.01
1544	-1.5	8.5	0.	124.27
1545	-7.	8.	0.	123.54
1546	6.5	-1.	0.	125.64
1547	5.	7.	0.	125.32
1548	5.	0.5	0.	125.63
1549	-2.	1.	0.	126.62
1550	0.5	-6.5	0.	127.66
1551	-7.5	7.	0.	119.21
1552	6.	1.	0.	125.39
1553	6.5	2.5	0.	125.36
1554	-6.5	-2.	0.	127.62
1555	6.5	1.	0.	125.38
1556	-4.5	-6.	0.	126.79
1557	6.	-3.	0.	125.7
1558	8.5	6.5	0.	125.26
1559	1.	5.5	0.	124.65
1560	-1.	4.5	0.	123.28
1561	4.5	2.	0.	125.28
1562	3.	-5.5	0.	125.22
1563	-8.5	6.5	0.	130.52
1564	4.5	3.	0.	125.38
1565	6.5	-9.5214e-012	0.	125.51
1566	-5.5	-3.	0.	128.52
1567	-7.	9.	0.	124.28
1568	1.	-2.	0.	125.31
1569	2.	0.5	0.	129.14
1570	3.3011e-011	-6.5	0.	129.
1571	1.	-1.	0.	124.
1572	4.5	0.5	0.	125.75
1573	-6.	4.5	0.	128.1
1574	-5.	6.	0.	125.62
1575	6.	3.	0.	125.38
1576	6.	-4.5	0.	125.55
1577	-7.	3.	0.	123.8
1578	-1.	-8.5	0.	120.96
1579	-1.	-7.5	0.	120.91
1580	6.5	4.	0.	125.64
1581	1.	2.5	0.	125.49
1582	5.5	-2.7666e-011	0.	125.69
1583	-4.	-3.5	0.	127.64
1584	7.5	-2.	0.	125.51
1585	-1.	0.5	0.	124.6
1586	-0.5	-2.	0.	122.39
1587	-7.	0.5	0.	126.61
1588	-1.5	6.5	0.	124.04
1589	7.	2.	0.	125.35
1590	5.5	-5.5	0.	125.52
1591	-3.5	-7.5	0.	124.25
1592	5.5	-2.	0.	125.92
1593	6.5	-3.	0.	125.63
1594	-6.5	7.5	0.	125.02
1595	3.	0.5	0.	126.7
1596	-9.	3.	0.	126.39
1597	5.	-1.	0.	126.09
1598	3.	2.	0.	125.64
1599	-3.	2.5	0.	125.55
1600	7.	-4.5	0.	125.52
1601	-2.9384e-011	7.	0.	123.95
1602	9.	0.5	0.	125.25
1603	-2.5	1.	0.	125.42
1604	2.5	6.5	0.	126.52
1605	7.	1.	0.	125.36
1606	6.	-1.	0.	125.75
1607	1.0717e-011	-4.	0.	128.33
1608	2.	2.	0.	127.27
1609	6.5	5.	0.	126.05
1610	6.5	2.	0.	125.33
1611	-2.5	-1.	0.	124.07
1612	2.5	6.	0.	125.75
1613	-5.	4.	0.	126.2
1614	-8.	-1.	0.	126.37
1615	6.5	-2.	0.	125.68
1616	5.5	-1.	0.	125.9
1617	7.	-1.	0.	125.55
1618	-8.1506e-012	6.5	0.	124.02
1619	-1.	-7.	0.	121.38
1620	5.	6.	0.	124.78
1621	1.	9.	0.	123.56
1622	2.	-4.	0.	125.36
1623	1.	-0.5	0.	123.72
1624	4.	-6.	0.	125.48
1625	5.5	-4.	0.	125.61
1626	-2.	-1.	0.	123.
1627	2.	-7.	0.	126.24
1628	-7.	1.2011e-012	0.	126.96
1629	7.5	5.5	0.	126.
1630	-7.	-6.	0.	126.19
1631	-6.5	9.	0.	124.54
1632	3.5	-4.	0.	125.51
1633	-2.	7.	0.	124.27
1634	-1.	3.	0.	123.42
1635	-6.	-2.	0.	128.93
1636	-2.5	-7.	0.	115.5
1637	9.	1.5	0.	125.27
1638	-3.5	2.5	0.	125.01
1639	9.	-7.5	0.	125.55
1640	-5.	-7.5	0.	126.88
1641	-8.	-4.5	0.	126.56
1642	-1.	6.5	0.	123.87
1643	6.	-3.5	0.	125.64
1644	7.	3.	0.	125.45
1645	2.5	2.	0.	126.05
1646	-3.5	-7.	0.	126.46
1647	-7.	-2.	0.	127.07
1648	1.	-1.5	0.	124.59
1649	5.5	1.	0.	125.41
1650	5.	-2.	0.	126.07
1651	-5.5	4.5	0.	126.75
1652	6.	-2.	0.	125.79
1653	3.5	0.5	0.	126.23
1654	8.	-8.	0.	125.64
1655	-1.	4.	0.	123.09
1656	4.	2.	0.	125.33
1657	2.5	-4.	0.	125.37
1658	-0.5	-1.5	0.	121.38
1659	5.	5.5	0.	124.89
1660	7.	-3.	0.	125.57
1661	-7.	2.5	0.	124.39
1662	5.	-0.5	0.	125.99
1663	-6.5	-5.	0.	125.93
1664	4.5	-4.	0.	125.6
1665	-8.	5.75	0.	137.9
1666	-7.75	6.	0.	121.87
1667	-8.25	6.	0.	131.34
1668	-8.	6.25	0.	128.33
1669	-8.	5.25	0.	137.79
1670	-7.75	5.	0.	121.79
1671	-8.	4.75	0.	128.16
1672	-8.25	5.	0.	131.34
1673	-7.25	6.	0.	121.6
1674	-7.	5.75	0.	137.38
1675	-6.75	6.	0.	130.85
1676	-7.	6.25	0.	127.89
1677	-7.25	5.	0.	121.8
1678	-7.	5.25	0.	137.55
1679	-6.75	5.	0.	130.98
1680	-7.	4.75	0.	128.25
1681	3.	8.75	0.	140.82
1682	3.25	9.	0.	128.58
1683	2.75	9.	0.	132.46
1684	3.	9.25	0.	131.97
1685	3.	8.25	0.	140.2
1686	3.25	8.	0.	127.26
1687	3.	7.75	0.	131.24
1688	2.75	8.	0.	132.74
1689	4.75	9.	0.	128.81
1690	5.	8.75	0.	141.17
1691	5.25	9.	0.	132.77
1692	5.	9.25	0.	132.34
1693	4.75	8.	0.	127.38
1694	5.	8.25	0.	140.34
1695	5.25	8.	0.	133.
1696	5.	7.75	0.	131.24
1697	-3.	-4.25	0.	137.93
1698	-2.75	-4.	0.	123.08
1699	-3.25	-4.	0.	131.84
1700	-3.	-3.75	0.	129.87
1701	-3.	-5.75	0.	136.86
1702	-2.75	-6.	0.	121.69
1703	-3.	-6.25	0.	127.86
1704	-3.25	-6.	0.	130.88
1705	-1.25	-4.	0.	122.4
1706	-1.	-4.25	0.	137.41
1707	-1.	-3.75	0.	128.65
1708	-0.75	-4.	0.	131.35
1709	-1.25	-6.	0.	121.82
1710	-1.	-5.75	0.	137.06
1711	-1.	-6.25	0.	128.09
1712	-0.75	-6.	0.	131.08
1713	-1.	1.75	0.	137.93
1714	-0.75	2.	0.	124.68
1715	-1.25	2.	0.	131.36
1716	-1.	2.25	0.	129.29
1717	-1.	1.25	0.	138.02
1718	-0.75	1.	0.	124.59
1719	-1.25	1.	0.	131.26
1720	-1.	0.75	0.	129.32
1721	0.75	2.	0.	125.13
1722	1.	1.75	0.	138.64
1723	1.25	2.	0.	131.96
1724	1.	2.25	0.	130.12
1725	0.75	1.	0.	124.93
1726	1.	1.25	0.	138.36
1727	1.25	1.	0.	131.87
1728	1.	0.75	0.	129.63
1729	-5.	-1.25	0.	138.84
1730	-4.75	-1.	0.	122.69
1731	-5.25	-1.	0.	132.08
1732	-5.	-0.75	0.	129.27
1733	-5.	-1.75	0.	138.86
1734	-4.75	-2.	0.	123.31
1735	-5.25	-2.	0.	132.64
1736	-5.	-2.25	0.	129.75
1737	-4.25	-1.	0.	121.67
1738	-4.	-1.25	0.	137.37
1739	-4.	-0.75	0.	127.38
1740	-3.75	-1.	0.	130.46
1741	-4.25	-2.	0.	123.55
1742	-4.	-1.75	0.	138.65
1743	-3.75	-2.	0.	131.58
1744	-4.	-2.25	0.	130.47
1745	9.75	10.	0.	125.01
1746	10.	9.75	0.	124.99
1747	-9.75	10.	0.	124.98
1748	-10.	9.75	0.	125.01
1749	10.	-9.75	0.	125.65
1750	9.75	-10.	0.	125.64
1751	-10.	-9.75	0.	127.83
1752	-9.75	-10.	0.	127.68
1753	-8.25	5.5	0.	136.34
1754	-7.5	6.25	0.	111.64
1755	-7.5	4.75	0.	111.7
1756	-6.75	5.5	0.	135.8
1757	2.75	8.5	0.	136.99
1758	3.75	9.	0.	124.27
1759	3.5	9.25	0.	120.65
1760	4.25	9.	0.	124.29
1761	4.	9.25	0.	125.
1762	4.5	9.25	0.	120.73
1763	3.75	8.	0.	122.17
1764	3.5	7.75	0.	119.1
1765	4.25	8.	0.	122.29
1766	4.	7.75	0.	122.59
1767	4.5	7.75	0.	119.28
1768	5.25	8.5	0.	137.27
1769	-3.	-4.75	0.	142.4
1770	-3.25	-4.5	0.	137.04
1771	-3.	-5.25	0.	142.14
1772	-3.25	-5.	0.	138.13
1773	-3.25	-5.5	0.	136.66
1774	-2.25	-4.	0.	114.91
1775	-2.5	-3.75	0.	113.27
1776	-1.75	-4.	0.	114.62
1777	-2.	-3.75	0.	115.1
1778	-1.5	-3.75	0.	112.51
1779	-2.25	-6.	0.	113.73
1780	-2.5	-6.25	0.	111.73
1781	-1.75	-6.	0.	113.73
1782	-2.	-6.25	0.	113.87
1783	-1.5	-6.25	0.	111.76
1784	-1.	-4.75	0.	142.31
1785	-0.75	-4.5	0.	136.99
1786	-1.	-5.25	0.	142.22
1787	-0.75	-5.	0.	138.25
1788	-0.75	-5.5	0.	136.86
1789	-1.25	1.5	0.	135.54
1790	-0.25	2.	0.	118.81
1791	-0.5	2.25	0.	116.17
1792	0.25	2.	0.	118.81
1793	3.6516e-011	2.25	0.	119.17
1794	0.5	2.25	0.	116.26
1795	-0.25	1.	0.	118.54
1796	-0.5	0.75	0.	115.79
1797	0.25	1.	0.	118.82
1798	2.1512e-011	0.75	0.	118.98
1799	0.5	0.75	0.	116.3
1800	1.25	1.5	0.	136.1
1801	-5.25	-1.5	0.	137.17
1802	-4.5	-0.75	0.	112.04
1803	-4.5	-2.25	0.	113.69
1804	-3.75	-1.5	0.	135.66
1805	9.25	10.	0.	125.07
1806	9.5	9.75	0.	124.99
1807	8.75	10.	0.	125.21
1808	9.	9.75	0.	125.08
1809	8.25	10.	0.	125.43
1810	8.5	9.75	0.	125.2
1811	7.75	10.	0.	125.78
1812	8.	9.75	0.	125.37
1813	7.25	10.	0.	126.32
1814	7.5	9.75	0.	125.62
1815	6.75	10.	0.	127.14
1816	7.	9.75	0.	126.
1817	6.25	10.	0.	128.26
1818	6.5	9.75	0.	126.56
1819	5.75	10.	0.	128.58
1820	6.	9.75	0.	127.56
1821	5.25	10.	0.	126.08
1822	5.5	9.75	0.	128.75
1823	4.75	10.	0.	121.91
1824	5.	9.75	0.	125.36
1825	4.25	10.	0.	118.94
1826	4.5	9.75	0.	120.36
1827	3.75	10.	0.	118.87
1828	4.	9.75	0.	120.06
1829	3.25	10.	0.	121.69
1830	3.5	9.75	0.	120.23
1831	2.75	10.	0.	125.69
1832	3.	9.75	0.	125.05
1833	2.25	10.	0.	128.07
1834	2.5	9.75	0.	128.35
1835	1.75	10.	0.	127.68
1836	2.	9.75	0.	127.09
1837	1.25	10.	0.	126.51
1838	1.5	9.75	0.	126.01
1839	0.75	10.	0.	125.66
1840	1.	9.75	0.	125.4
1841	0.25	10.	0.	125.11
1842	0.5	9.75	0.	124.99
1843	-0.25	10.	0.	124.81
1844	-2.5502e-012	9.75	0.	124.76
1845	-0.75	10.	0.	124.65
1846	-0.5	9.75	0.	124.63
1847	-1.25	10.	0.	124.59
1848	-1.	9.75	0.	124.57
1849	-1.75	10.	0.	124.6
1850	-1.5	9.75	0.	124.58
1851	-2.25	10.	0.	124.65
1852	-2.	9.75	0.	124.62
1853	-2.75	10.	0.	124.73
1854	-2.5	9.75	0.	124.68
1855	-3.25	10.	0.	124.8
1856	-3.	9.75	0.	124.76
1857	-3.75	10.	0.	124.87
1858	-3.5	9.75	0.	124.83
1859	-4.25	10.	0.	124.9
1860	-4.	9.75	0.	124.88
1861	-4.75	10.	0.	124.87
1862	-4.5	9.75	0.	124.89
1863	-5.25	10.	0.	124.79
1864	-5.	9.75	0.	124.86
1865	-5.75	10.	0.	124.65
1866	-5.5	9.75	0.	124.76
1867	-6.25	10.	0.	124.48
1868	-6.	9.75	0.	124.62
1869	-6.75	10.	0.	124.33
1870	-6.5	9.75	0.	124.46
1871	-7.25	10.	0.	124.26
1872	-7.	9.75	0.	124.34
1873	-7.75	10.	0.	124.31
1874	-7.5	9.75	0.	124.32
1875	-8.25	10.	0.	124.47
1876	-8.	9.75	0.	124.41
1877	-8.75	10.	0.	124.69
1878	-8.5	9.75	0.	124.61
1879	-9.25	10.	0.	124.89
1880	-9.	9.75	0.	124.83
1881	-9.5	9.75	0.	125.02
1882	10.	9.25	0.	124.88
1883	9.75	9.5	0.	124.97
1884	10.	8.75	0.	124.69
1885	9.75	9.	0.	124.81
1886	10.	8.25	0.	124.51
1887	9.75	8.5	0.	124.64
1888	10.	7.75	0.	124.44
1889	9.75	8.	0.	124.55
1890	10.	7.25	0.	124.49
1891	9.75	7.5	0.	124.55
1892	10.	6.75	0.	124.63
1893	9.75	7.	0.	124.66
1894	10.	6.25	0.	124.82
1895	9.75	6.5	0.	124.81
1896	10.	5.75	0.	125.01
1897	9.75	6.	0.	124.98
1898	10.	5.25	0.	125.17
1899	9.75	5.5	0.	125.13
1900	10.	4.75	0.	125.27
1901	9.75	5.	0.	125.24
1902	10.	4.25	0.	125.32
1903	9.75	4.5	0.	125.31
1904	10.	3.75	0.	125.34
1905	9.75	4.	0.	125.33
1906	10.	3.25	0.	125.32
1907	9.75	3.5	0.	125.33
1908	10.	2.75	0.	125.28
1909	9.75	3.	0.	125.3
1910	10.	2.25	0.	125.23
1911	9.75	2.5	0.	125.27
1912	10.	1.75	0.	125.19
1913	9.75	2.	0.	125.23
1914	10.	1.25	0.	125.15
1915	9.75	1.5	0.	125.2
1916	10.	0.75	0.	125.13
1917	9.75	1.	0.	125.17
1918	10.	0.25	0.	125.11
1919	9.75	0.5	0.	125.15
1920	10.	-0.25	0.	125.11
1921	9.75	-2.4084e-014	0.	125.15
1922	10.	-0.75	0.	125.11
1923	9.75	-0.5	0.	125.15
1924	10.	-1.25	0.	125.12
1925	9.75	-1.	0.	125.15
1926	10.	-1.75	0.	125.13
1927	9.75	-1.5	0.	125.16
1928	10.	-2.25	0.	125.15
1929	9.75	-2.	0.	125.18
1930	10.	-2.75	0.	125.16
1931	9.75	-2.5	0.	125.19
1932	10.	-3.25	0.	125.18
1933	9.75	-3.	0.	125.21
1934	10.	-3.75	0.	125.21
1935	9.75	-3.5	0.	125.23
1936	10.	-4.25	0.	125.23
1937	9.75	-4.	0.	125.25
1938	10.	-4.75	0.	125.26
1939	9.75	-4.5	0.	125.28
1940	10.	-5.25	0.	125.3
1941	9.75	-5.	0.	125.31
1942	10.	-5.75	0.	125.34
1943	9.75	-5.5	0.	125.35
1944	10.	-6.25	0.	125.39
1945	9.75	-6.	0.	125.39
1946	10.	-6.75	0.	125.44
1947	9.75	-6.5	0.	125.43
1948	10.	-7.25	0.	125.49
1949	9.75	-7.	0.	125.47
1950	10.	-7.75	0.	125.54
1951	9.75	-7.5	0.	125.52
1952	10.	-8.25	0.	125.58
1953	9.75	-8.	0.	125.56
1954	10.	-8.75	0.	125.61
1955	9.75	-8.5	0.	125.59
1956	10.	-9.25	0.	125.64
1957	9.75	-9.	0.	125.62
1958	9.75	-9.5	0.	125.64
1959	-10.	9.25	0.	125.21
1960	-9.75	9.5	0.	125.05
1961	-10.	8.75	0.	125.69
1962	-9.75	9.	0.	125.36
1963	-10.	8.25	0.	126.35
1964	-9.75	8.5	0.	125.85
1965	-10.	7.75	0.	126.99
1966	-9.75	8.	0.	126.43
1967	-10.	7.25	0.	127.3
1968	-9.75	7.5	0.	126.98
1969	-10.	6.75	0.	126.91
1970	-9.75	7.	0.	127.21
1971	-10.	6.25	0.	125.87
1972	-9.75	6.5	0.	126.81
1973	-10.	5.75	0.	124.95
1974	-9.75	6.	0.	125.93
1975	-10.	5.25	0.	125.11
1976	-9.75	5.5	0.	125.54
1977	-10.	4.75	0.	126.32
1978	-9.75	5.	0.	126.2
1979	-10.	4.25	0.	127.63
1980	-9.75	4.5	0.	127.34
1981	-10.	3.75	0.	128.28
1982	-9.75	4.	0.	127.97
1983	-10.	3.25	0.	128.24
1984	-9.75	3.5	0.	127.97
1985	-10.	2.75	0.	127.85
1986	-9.75	3.	0.	127.65
1987	-10.	2.25	0.	127.41
1988	-9.75	2.5	0.	127.29
1989	-10.	1.75	0.	127.03
1990	-9.75	2.	0.	126.97
1991	-10.	1.25	0.	126.73
1992	-9.75	1.5	0.	126.72
1993	-10.	0.75	0.	126.48
1994	-9.75	1.	0.	126.52
1995	-10.	0.25	0.	126.26
1996	-9.75	0.5	0.	126.34
1997	-10.	-0.25	0.	126.06
1998	-9.75	-1.1056e-013	0.	126.19
1999	-10.	-0.75	0.	125.91
2000	-9.75	-0.5	0.	126.05
2001	-10.	-1.25	0.	125.8
2002	-9.75	-1.	0.	125.94
2003	-10.	-1.75	0.	125.75
2004	-9.75	-1.5	0.	125.89
2005	-10.	-2.25	0.	125.77
2006	-9.75	-2.	0.	125.88
2007	-10.	-2.75	0.	125.83
2008	-9.75	-2.5	0.	125.92
2009	-10.	-3.25	0.	125.91
2010	-9.75	-3.	0.	125.98
2011	-10.	-3.75	0.	126.
2012	-9.75	-3.5	0.	126.06
2013	-10.	-4.25	0.	126.09
2014	-9.75	-4.	0.	126.13
2015	-10.	-4.75	0.	126.2
2016	-9.75	-4.5	0.	126.22
2017	-10.	-5.25	0.	126.32
2018	-9.75	-5.	0.	126.32
2019	-10.	-5.75	0.	126.48
2020	-9.75	-5.5	0.	126.44
2021	-10.	-6.25	0.	126.66
2022	-9.75	-6.	0.	126.58
2023	-10.	-6.75	0.	126.87
2024	-9.75	-6.5	0.	126.76
2025	-10.	-7.25	0.	127.09
2026	-9.75	-7.	0.	126.94
2027	-10.	-7.75	0.	127.31
2028	-9.75	-7.5	0.	127.13
2029	-10.	-8.25	0.	127.5
2030	-9.75	-8.	0.	127.31
2031	-10.	-8.75	0.	127.66
2032	-9.75	-8.5	0.	127.47
2033	-10.	-9.25	0.	127.77
2034	-9.75	-9.	0.	127.59
2035	-9.75	-9.5	0.	127.66
2036	-9.25	-10.	0.	127.42
2037	-9.5	-9.75	0.	127.51
2038	-8.75	-10.	0.	127.24
2039	-9.	-9.75	0.	127.3
2040	-8.25	-10.	0.	127.11
2041	-8.5	-9.75	0.	127.16
2042	-7.75	-10.	0.	127.
2043	-8.	-9.75	0.	127.05
2044	-7.25	-10.	0.	126.89
2045	-7.5	-9.75	0.	126.95
2046	-6.75	-10.	0.	126.74
2047	-7.	-9.75	0.	126.83
2048	-6.25	-10.	0.	126.51
2049	-6.5	-9.75	0.	126.66
2050	-5.75	-10.	0.	126.16
2051	-6.	-9.75	0.	126.39
2052	-5.25	-10.	0.	125.64
2053	-5.5	-9.75	0.	125.97
2054	-4.75	-10.	0.	124.9
2055	-5.	-9.75	0.	125.36
2056	-4.25	-10.	0.	123.96
2057	-4.5	-9.75	0.	124.52
2058	-3.75	-10.	0.	122.86
2059	-4.	-9.75	0.	123.47
2060	-3.25	-10.	0.	121.76
2061	-3.5	-9.75	0.	122.31
2062	-2.75	-10.	0.	120.85
2063	-3.	-9.75	0.	121.21
2064	-2.25	-10.	0.	120.33
2065	-2.5	-9.75	0.	120.42
2066	-1.75	-10.	0.	120.34
2067	-2.	-9.75	0.	120.14
2068	-1.25	-10.	0.	120.87
2069	-1.5	-9.75	0.	120.44
2070	-0.75	-10.	0.	121.79
2071	-1.	-9.75	0.	121.24
2072	-0.25	-10.	0.	122.89
2073	-0.5	-9.75	0.	122.34
2074	0.25	-10.	0.	123.96
2075	1.8979e-012	-9.75	0.	123.49
2076	0.75	-10.	0.	124.86
2077	0.5	-9.75	0.	124.51
2078	1.25	-10.	0.	125.53
2079	1.	-9.75	0.	125.29
2080	1.75	-10.	0.	125.98
2081	1.5	-9.75	0.	125.83
2082	2.25	-10.	0.	126.23
2083	2.	-9.75	0.	126.16
2084	2.75	-10.	0.	126.35
2085	2.5	-9.75	0.	126.33
2086	3.25	-10.	0.	126.38
2087	3.	-9.75	0.	126.38
2088	3.75	-10.	0.	126.34
2089	3.5	-9.75	0.	126.36
2090	4.25	-10.	0.	126.27
2091	4.	-9.75	0.	126.3
2092	4.75	-10.	0.	126.19
2093	4.5	-9.75	0.	126.23
2094	5.25	-10.	0.	126.1
2095	5.	-9.75	0.	126.14
2096	5.75	-10.	0.	126.01
2097	5.5	-9.75	0.	126.05
2098	6.25	-10.	0.	125.93
2099	6.	-9.75	0.	125.96
2100	6.75	-10.	0.	125.85
2101	6.5	-9.75	0.	125.89
2102	7.25	-10.	0.	125.79
2103	7.	-9.75	0.	125.81
2104	7.75	-10.	0.	125.73
2105	7.5	-9.75	0.	125.75
2106	8.25	-10.	0.	125.68
2107	8.	-9.75	0.	125.7
2108	8.75	-10.	0.	125.65
2109	8.5	-9.75	0.	125.66
2110	9.25	-10.	0.	125.64
2111	9.	-9.75	0.	125.64
2112	9.5	-9.75	0.	125.63
2113	4.	-2.75	0.	126.1
2114	4.	-2.25	0.	126.31
2115	3.75	-2.5	0.	126.26
2116	4.25	-2.5	0.	126.15
2117	4.	-3.25	0.	125.87
2118	4.25	-3.	0.	125.95
2119	3.75	-3.	0.	126.01
2120	4.25	-4.5	0.	125.46
2121	3.75	-4.5	0.	125.38
2122	4.	-4.75	0.	125.39
2123	4.	-4.25	0.	125.49
2124	4.5	-1.25	0.	126.32
2125	4.25	-1.5	0.	126.44
2126	4.75	-1.5	0.	126.22
2127	4.5	-1.75	0.	126.28
2128	4.	-1.75	0.	126.49
2129	3.75	-2.	0.	126.49
2130	4.25	-2.	0.	126.33
2131	3.5	-2.75	0.	126.17
2132	3.25	-2.5	0.	126.34
2133	3.5	-2.25	0.	126.44
2134	4.25	-3.5	0.	125.75
2135	3.75	-3.5	0.	125.75
2136	4.	-3.75	0.	125.66
2137	4.5	-2.75	0.	126.01
2138	4.75	-2.5	0.	126.03
2139	4.5	-2.25	0.	126.17
2140	4.5	-3.25	0.	125.84
2141	4.75	-3.	0.	125.89
2142	4.75	-3.5	0.	125.74
2143	4.5	-3.75	0.	125.67
2144	4.5	-4.75	0.	125.46
2145	4.75	-4.5	0.	125.51
2146	4.5	-4.25	0.	125.54
2147	3.5	-4.75	0.	125.3
2148	3.25	-4.5	0.	125.28
2149	3.5	-4.25	0.	125.42
2150	3.5	-3.25	0.	125.89
2151	3.25	-3.	0.	126.04
2152	5.	3.25	0.	125.33
2153	5.	3.75	0.	125.31
2154	4.75	3.5	0.	125.36
2155	5.25	3.5	0.	125.36
2156	4.25	-5.	0.	125.4
2157	4.75	-5.	0.	125.46
2158	4.5	-5.25	0.	125.44
2159	4.5	-0.75	0.	126.27
2160	4.25	-1.	0.	126.47
2161	4.75	-1.	0.	126.2
2162	4.75	4.	0.	125.28
2163	4.5	3.75	0.	125.32
2164	4.25	4.	0.	125.33
2165	4.5	4.25	0.	125.15
2166	3.25	-5.	0.	125.21
2167	3.	-4.75	0.	125.19
2168	2.75	-5.	0.	125.1
2169	3.	-5.25	0.	125.19
2170	4.	-1.25	0.	126.58
2171	3.75	-1.5	0.	126.68
2172	3.	-2.75	0.	126.2
2173	2.75	-2.5	0.	126.36
2174	3.	-2.25	0.	126.52
2175	3.25	-2.	0.	126.62
2176	3.5	-1.75	0.	126.69
2177	3.25	-3.5	0.	125.74
2178	3.5	-3.75	0.	125.63
2179	5.25	-1.5	0.	126.02
2180	5.	-1.25	0.	126.1
2181	5.	-1.75	0.	126.09
2182	5.25	-2.5	0.	125.92
2183	5.	-2.75	0.	125.91
2184	5.	-2.25	0.	126.02
2185	5.25	-3.5	0.	125.7
2186	5.	-3.25	0.	125.79
2187	5.	-3.75	0.	125.67
2188	5.	-4.75	0.	125.51
2189	5.25	-4.5	0.	125.54
2190	5.	-4.25	0.	125.57
2191	3.75	-5.	0.	125.31
2192	4.	-5.25	0.	125.37
2193	3.5	-5.25	0.	125.29
2194	5.	2.75	0.	125.3
2195	5.25	3.	0.	125.33
2196	4.75	3.	0.	125.35
2197	4.75	-3.3604e-011	0.	125.92
2198	5.	0.25	0.	125.73
2199	5.25	-3.0759e-011	0.	125.76
2200	5.	-0.25	0.	125.91
2201	5.	1.75	0.	125.29
2202	5.	1.25	0.	125.38
2203	5.25	1.5	0.	125.32
2204	4.75	1.5	0.	125.32
2205	2.75	-4.5	0.	125.18
2206	3.	-4.25	0.	125.33
2207	3.	-3.25	0.	125.88
2208	2.75	-3.	0.	126.04
2209	5.25	4.	0.	125.36
2210	5.	4.25	0.	125.25
2211	5.25	-5.	0.	125.5
2212	5.	-5.25	0.	125.49
2213	4.25	3.5	0.	125.47
2214	4.5	3.25	0.	125.38
2215	4.5	-0.25	0.	126.12
2216	4.25	-0.5	0.	126.37
2217	4.75	-0.5	0.	126.11
2218	0.25	5.5	0.	123.78
2219	-0.25	5.5	0.	123.52
2220	7.4e-011	5.75	0.	123.73
2221	1.5047e-010	5.25	0.	123.29
2222	4.	4.25	0.	125.22
2223	3.75	4.5	0.	125.18
2224	4.25	4.5	0.	125.04
2225	4.	4.75	0.	124.81
2226	2.5	-4.75	0.	125.08
2227	2.5	-5.25	0.	125.1
2228	2.25	-5.	0.	125.
2229	4.	3.75	0.	125.48
2230	3.75	4.	0.	125.54
2231	4.	-0.75	0.	126.57
2232	3.75	-1.	0.	126.77
2233	2.5	-2.75	0.	126.2
2234	2.5	-2.25	0.	126.5
2235	2.25	-2.5	0.	126.31
2236	2.75	-2.	0.	126.66
2237	3.	-1.75	0.	126.82
2238	-3.	5.25	0.	125.13
2239	-2.75	5.	0.	125.15
2240	-3.	4.75	0.	125.42
2241	-3.25	5.	0.	125.29
2242	3.25	4.5	0.	125.46
2243	3.5	4.25	0.	125.49
2244	3.5	4.75	0.	125.04
2245	3.5	-1.25	0.	126.86
2246	3.25	-1.5	0.	126.88
2247	5.	2.25	0.	125.28
2248	5.25	2.	0.	125.28
2249	4.75	2.	0.	125.27
2250	5.25	2.5	0.	125.29
2251	4.75	2.5	0.	125.3
2252	4.75	1.	0.	125.47
2253	5.	0.75	0.	125.54
2254	5.25	1.	0.	125.43
2255	2.75	-3.5	0.	125.71
2256	3.	-3.75	0.	125.58
2257	-3.25	5.5	0.	125.07
2258	-3.	5.75	0.	124.92
2259	-2.75	5.5	0.	124.89
2260	5.5	3.75	0.	125.4
2261	5.5	4.25	0.	125.44
2262	5.75	4.	0.	125.48
2263	5.5	3.25	0.	125.36
2264	5.75	3.5	0.	125.42
2265	5.5	2.75	0.	125.31
2266	5.75	3.	0.	125.36
2267	5.75	2.5	0.	125.31
2268	5.5	2.25	0.	125.29
2269	5.75	1.5	0.	125.33
2270	5.5	1.75	0.	125.3
2271	5.5	1.25	0.	125.37
2272	5.75	0.5	0.	125.52
2273	5.25	0.5	0.	125.59
2274	5.5	0.25	0.	125.62
2275	5.5	0.75	0.	125.48
2276	5.75	-0.5	0.	125.75
2277	5.5	-0.25	0.	125.75
2278	5.5	-0.75	0.	125.86
2279	5.25	-0.5	0.	125.9
2280	5.75	-1.5	0.	125.86
2281	5.5	-1.75	0.	125.92
2282	5.5	-1.25	0.	125.92
2283	5.5	-2.75	0.	125.82
2284	5.75	-2.5	0.	125.81
2285	5.5	-2.25	0.	125.89
2286	5.5	-3.25	0.	125.73
2287	5.25	-3.	0.	125.81
2288	5.75	-3.	0.	125.74
2289	5.5	-3.75	0.	125.65
2290	5.75	-3.5	0.	125.67
2291	5.5	-4.75	0.	125.53
2292	5.75	-4.5	0.	125.55
2293	5.5	-4.25	0.	125.58
2294	5.75	-5.	0.	125.52
2295	5.5	-5.25	0.	125.52
2296	4.75	-5.5	0.	125.47
2297	5.	-5.75	0.	125.52
2298	5.25	-5.5	0.	125.51
2299	4.5	-5.75	0.	125.48
2300	4.25	-5.5	0.	125.42
2301	3.5	-5.75	0.	125.37
2302	3.75	-5.5	0.	125.35
2303	3.25	-5.5	0.	125.26
2304	0.5	5.75	0.	124.17
2305	0.5	5.25	0.	123.73
2306	0.75	5.5	0.	124.32
2307	4.25	-3.0188e-011	0.	126.16
2308	4.5	0.25	0.	125.89
2309	4.5	1.25	0.	125.41
2310	4.25	1.5	0.	125.34
2311	4.5	1.75	0.	125.3
2312	-0.75	5.5	0.	123.57
2313	-0.5	5.75	0.	123.6
2314	-0.5	5.25	0.	123.26
2315	-1.75	5.5	0.	124.25
2316	-2.	5.75	0.	124.4
2317	-2.	5.25	0.	124.56
2318	-2.25	5.5	0.	124.62
2319	-3.5	5.75	0.	125.08
2320	-3.5	5.25	0.	125.24
2321	-3.75	5.5	0.	125.18
2322	4.5	4.75	0.	124.85
2323	4.75	4.5	0.	125.11
2324	2.25	-4.5	0.	125.09
2325	2.5	-4.25	0.	125.25
2326	2.5	-3.25	0.	125.88
2327	2.25	-3.	0.	126.05
2328	2.25	-5.5	0.	125.13
2329	2.5	-5.75	0.	125.28
2330	2.75	-5.5	0.	125.19
2331	-4.75	2.5	0.	124.85
2332	-5.25	2.5	0.	125.02
2333	-5.	2.75	0.	125.21
2334	-5.	2.25	0.	124.67
2335	-0.25	6.	0.	123.81
2336	0.25	6.	0.	124.12
2337	1.5436e-011	6.25	0.	123.96
2338	4.	3.25	0.	125.56
2339	3.75	3.5	0.	125.74
2340	4.	-0.25	0.	126.41
2341	3.75	-0.5	0.	126.72
2342	2.25	-2.	0.	126.52
2343	2.5	-1.75	0.	126.8
2344	0.25	5.	0.	123.24
2345	-0.25	5.	0.	123.04
2346	2.1251e-010	4.75	0.	122.62
2347	-2.25	5.	0.	124.86
2348	-2.5	4.75	0.	125.25
2349	-2.5	5.25	0.	124.91
2350	-4.	3.25	0.	125.49
2351	-4.	3.75	0.	125.7
2352	-3.75	3.5	0.	125.74
2353	-4.25	3.5	0.	125.69
2354	5.75	4.5	0.	125.57
2355	6.	4.75	0.	125.79
2356	6.25	4.5	0.	125.75
2357	6.	4.25	0.	125.62
2358	4.25	5.	0.	124.61
2359	3.75	5.	0.	124.67
2360	4.	5.25	0.	124.22
2361	2.	-5.25	0.	125.04
2362	2.	-4.75	0.	125.01
2363	1.75	-5.	0.	124.96
2364	2.	-2.25	0.	126.34
2365	2.	-2.75	0.	126.16
2366	1.75	-2.5	0.	126.2
2367	-3.25	6.	0.	124.94
2368	-3.75	6.	0.	125.11
2369	-3.5	6.25	0.	125.02
2370	5.25	-6.	0.	125.55
2371	5.75	-6.	0.	125.57
2372	5.5	-6.25	0.	125.6
2373	5.5	-5.75	0.	125.54
2374	2.75	4.5	0.	125.74
2375	3.	4.25	0.	125.86
2376	3.	4.75	0.	125.42
2377	3.5	3.75	0.	125.8
2378	3.25	4.	0.	125.88
2379	3.5	-0.75	0.	126.93
2380	3.25	-1.	0.	127.08
2381	2.75	-1.5	0.	126.96
2382	3.	-1.25	0.	127.1
2383	-4.25	3.	0.	125.32
2384	-4.	2.75	0.	125.04
2385	-3.75	3.	0.	125.44
2386	-4.5	2.75	0.	125.04
2387	-4.25	2.5	0.	124.76
2388	-4.5	2.25	0.	124.45
2389	-3.5	4.25	0.	125.69
2390	-3.75	4.	0.	125.77
2391	-3.5	3.75	0.	125.8
2392	-3.25	4.	0.	125.86
2393	-3.25	4.5	0.	125.59
2394	-2.75	4.5	0.	125.52
2395	-3.	4.25	0.	125.76
2396	-4.5	3.25	0.	125.52
2397	-4.75	3.	0.	125.4
2398	4.25	1.	0.	125.54
2399	4.5	0.75	0.	125.62
2400	-1.25	5.5	0.	123.87
2401	-1.	5.25	0.	123.58
2402	-1.	5.75	0.	123.74
2403	-1.5	5.75	0.	124.05
2404	-1.5	5.25	0.	124.08
2405	-3.5	4.75	0.	125.47
2406	-3.75	4.5	0.	125.6
2407	-3.75	5.	0.	125.36
2408	5.5	4.75	0.	125.49
2409	5.25	4.5	0.	125.33
2410	2.25	-3.5	0.	125.72
2411	2.5	-3.75	0.	125.54
2412	-3.	6.25	0.	124.81
2413	-2.75	6.	0.	124.73
2414	-1.75	6.	0.	124.19
2415	-2.	6.25	0.	124.31
2416	-2.25	6.	0.	124.48
2417	-1.25	6.	0.	123.92
2418	-1.5	6.25	0.	124.04
2419	-0.5	6.25	0.	123.78
2420	-0.75	6.	0.	123.77
2421	6.25	3.5	0.	125.48
2422	6.	3.75	0.	125.5
2423	6.	3.25	0.	125.42
2424	6.	2.25	0.	125.32
2425	6.25	2.5	0.	125.34
2426	6.	2.75	0.	125.35
2427	6.25	1.5	0.	125.33
2428	6.	1.75	0.	125.32
2429	6.	1.25	0.	125.36
2430	6.	0.25	0.	125.54
2431	6.25	0.5	0.	125.46
2432	6.	0.75	0.	125.44
2433	6.	-0.25	0.	125.64
2434	6.25	-1.2929e-011	0.	125.55
2435	5.75	-2.2002e-011	0.	125.64
2436	6.25	-0.5	0.	125.63
2437	6.	-0.75	0.	125.72
2438	6.25	-1.5	0.	125.73
2439	6.	-1.25	0.	125.77
2440	6.	-1.75	0.	125.79
2441	6.25	-2.5	0.	125.71
2442	6.	-2.75	0.	125.73
2443	6.	-2.25	0.	125.77
2444	6.	-5.25	0.	125.53
2445	6.25	-5.	0.	125.53
2446	6.	-4.75	0.	125.54
2447	6.	-5.75	0.	125.55
2448	6.25	-5.5	0.	125.54
2449	5.75	-5.5	0.	125.53
2450	4.75	-6.	0.	125.53
2451	5.	-6.25	0.	125.59
2452	4.5	-6.25	0.	125.57
2453	4.25	-6.	0.	125.5
2454	3.25	-6.	0.	125.42
2455	3.5	-6.25	0.	125.53
2456	3.75	-6.	0.	125.46
2457	2.	-5.75	0.	125.3
2458	1.75	-5.5	0.	125.15
2459	2.75	-6.	0.	125.41
2460	3.	-6.25	0.	125.53
2461	3.	-5.75	0.	125.32
2462	2.25	-6.	0.	125.44
2463	2.5	-6.25	0.	125.57
2464	-5.75	2.5	0.	125.1
2465	-5.5	2.25	0.	124.94
2466	-5.5	2.75	0.	125.36
2467	0.75	6.	0.	124.69
2468	0.5	6.25	0.	124.42
2469	-6.	-5.25	0.	125.56
2470	-6.	-5.75	0.	125.73
2471	-6.25	-5.5	0.	125.73
2472	-5.75	-5.5	0.	125.47
2473	-6.	-4.75	0.	125.69
2474	-5.75	-5.	0.	125.33
2475	-6.25	-5.	0.	125.73
2476	0.75	5.	0.	123.86
2477	0.5	4.75	0.	123.13
2478	4.	2.75	0.	125.5
2479	3.75	3.	0.	125.74
2480	4.25	3.	0.	125.47
2481	4.	0.25	0.	126.11
2482	3.75	-2.2345e-011	0.	126.49
2483	4.	1.25	0.	125.46
2484	3.75	1.5	0.	125.37
2485	4.	1.75	0.	125.34
2486	1.75	-2.	0.	126.18
2487	2.	-1.75	0.	126.51
2488	-0.5	4.75	0.	122.75
2489	-0.75	5.	0.	123.27
2490	-1.75	5.	0.	124.39
2491	-2.	4.75	0.	124.85
2492	-4.	4.25	0.	125.67
2493	-4.25	4.	0.	125.8
2494	-4.	5.75	0.	125.21
2495	-4.	5.25	0.	125.3
2496	-4.25	5.5	0.	125.26
2497	4.5	5.25	0.	124.41
2498	4.75	5.	0.	124.86
2499	5.75	5.	0.	125.7
2500	6.	5.25	0.	126.05
2501	6.25	5.	0.	125.97
2502	1.75	5.	0.	125.27
2503	2.	4.75	0.	125.6
2504	2.	5.25	0.	125.58
2505	2.25	5.	0.	125.52
2506	3.25	5.	0.	125.
2507	3.5	5.25	0.	124.49
2508	1.75	-4.5	0.	125.07
2509	2.	-4.25	0.	125.21
2510	2.	-3.25	0.	125.9
2511	1.75	-3.	0.	126.1
2512	-4.	6.25	0.	125.22
2513	-4.25	6.	0.	125.28
2514	6.25	-6.	0.	125.57
2515	6.	-6.25	0.	125.59
2516	-6.	-6.25	0.	126.07
2517	-5.75	-6.	0.	125.87
2518	-6.25	-6.	0.	125.95
2519	-6.	2.25	0.	125.06
2520	-5.75	2.	0.	124.9
2521	-6.25	2.	0.	125.03
2522	-6.	1.75	0.	125.12
2523	2.25	4.5	0.	125.77
2524	2.5	4.25	0.	126.11
2525	2.5	4.75	0.	125.7
2526	3.5	3.25	0.	125.91
2527	3.25	3.5	0.	126.17
2528	3.5	-0.25	0.	126.8
2529	3.25	-0.5	0.	127.15
2530	2.25	-1.5	0.	126.78
2531	2.5	-1.25	0.	127.15
2532	-4.	2.25	0.	124.44
2533	-3.75	2.5	0.	124.89
2534	-4.75	2.	0.	124.28
2535	-4.25	2.	0.	124.13
2536	-4.5	1.75	0.	123.82
2537	-3.5	3.25	0.	125.69
2538	-3.25	3.5	0.	125.99
2539	0.25	4.5	0.	122.51
2540	-0.25	4.5	0.	122.34
2541	2.3011e-010	4.25	0.	121.66
2542	-2.25	4.5	0.	125.24
2543	-2.5	4.25	0.	125.71
2544	-4.5	3.75	0.	125.79
2545	-4.75	3.5	0.	125.84
2546	1.5	5.25	0.	125.17
2547	1.75	5.5	0.	125.47
2548	1.5	5.75	0.	125.51
2549	1.25	5.5	0.	124.98
2550	4.25	5.5	0.	124.01
2551	3.75	5.5	0.	124.03
2552	4.	5.75	0.	123.4
2553	2.	-6.25	0.	125.69
2554	1.75	-6.	0.	125.58
2555	1.5	-5.25	0.	125.07
2556	1.5	-4.75	0.	125.02
2557	1.25	-5.	0.	125.06
2558	1.5	-2.25	0.	126.04
2559	1.5	-2.75	0.	126.14
2560	1.25	-2.5	0.	126.06
2561	2.75	4.	0.	126.22
2562	3.	3.75	0.	126.25
2563	3.	-0.75	0.	127.3
2564	2.75	-1.	0.	127.29
2565	-3.	3.75	0.	126.04
2566	-2.75	4.	0.	125.95
2567	-5.	3.25	0.	125.72
2568	-5.25	3.	0.	125.55
2569	-6.25	2.5	0.	124.94
2570	-6.	2.75	0.	125.27
2571	6.25	5.5	0.	126.29
2572	6.5	5.75	0.	126.56
2573	6.75	5.5	0.	126.31
2574	6.5	5.25	0.	126.21
2575	1.25	6.	0.	125.38
2576	1.	6.25	0.	125.14
2577	1.	5.75	0.	124.84
2578	-6.25	-4.5	0.	126.06
2579	-5.75	-4.5	0.	125.57
2580	-6.	-4.25	0.	126.2
2581	-5.5	-5.25	0.	125.23
2582	-5.5	-4.75	0.	125.2
2583	-5.25	-5.	0.	125.02
2584	1.25	5.	0.	124.64
2585	1.5	4.75	0.	125.01
2586	1.	4.75	0.	124.06
2587	1.	5.25	0.	124.45
2588	3.75	2.5	0.	125.57
2589	4.25	2.5	0.	125.38
2590	4.	2.25	0.	125.38
2591	4.	0.75	0.	125.76
2592	4.25	0.5	0.	125.85
2593	3.75	0.5	0.	126.08
2594	3.75	1.	0.	125.64
2595	1.5	-1.75	0.	125.87
2596	1.25	-2.	0.	125.63
2597	-1.5	4.75	0.	124.19
2598	-1.25	5.	0.	123.8
2599	-5.25	2.	0.	124.6
2600	-5.	1.75	0.	124.18
2601	-5.5	1.75	0.	124.72
2602	-4.	4.75	0.	125.5
2603	-4.25	4.5	0.	125.67
2604	-4.25	5.	0.	125.43
2605	5.5	5.25	0.	125.61
2606	5.25	5.	0.	125.29
2607	3.	5.25	0.	125.04
2608	2.75	5.	0.	125.38
2609	1.75	-3.5	0.	125.83
2610	2.	-3.75	0.	125.55
2611	-3.75	6.5	0.	125.13
2612	-4.25	6.5	0.	125.4
2613	-4.	6.75	0.	125.28
2614	-3.25	6.5	0.	124.89
2615	-3.5	6.75	0.	125.01
2616	-2.75	6.5	0.	124.66
2617	-3.	6.75	0.	124.76
2618	-2.5	6.75	0.	124.52
2619	-2.25	6.5	0.	124.41
2620	-2.5	6.25	0.	124.58
2621	-0.5	6.75	0.	123.83
2622	-0.25	6.5	0.	123.93
2623	-0.75	6.5	0.	123.85
2624	0.75	6.5	0.	124.87
2625	0.5	6.75	0.	124.42
2626	0.25	6.5	0.	124.26
2627	6.75	4.5	0.	125.82
2628	6.5	4.25	0.	125.73
2629	6.5	4.75	0.	125.93
2630	6.75	3.5	0.	125.53
2631	6.5	3.25	0.	125.47
2632	6.5	3.75	0.	125.58
2633	6.75	1.5	0.	125.34
2634	6.5	1.25	0.	125.36
2635	6.5	1.75	0.	125.34
2636	6.75	0.5	0.	125.42
2637	6.5	0.75	0.	125.41
2638	6.5	0.25	0.	125.48
2639	6.75	-0.5	0.	125.54
2640	6.5	-0.75	0.	125.61
2641	6.5	-0.25	0.	125.55
2642	6.75	-1.5	0.	125.62
2643	6.5	-1.25	0.	125.66
2644	6.5	-1.75	0.	125.67
2645	6.75	-2.5	0.	125.62
2646	6.5	-2.75	0.	125.65
2647	6.5	-2.25	0.	125.67
2648	6.5	-3.75	0.	125.58
2649	6.75	-3.5	0.	125.57
2650	6.5	-3.25	0.	125.61
2651	6.25	-3.5	0.	125.62
2652	6.25	-4.	0.	125.57
2653	6.75	-4.	0.	125.54
2654	6.5	-4.25	0.	125.55
2655	6.5	-5.25	0.	125.53
2656	6.75	-5.	0.	125.52
2657	6.5	-4.75	0.	125.53
2658	6.5	-5.75	0.	125.55
2659	6.75	-5.5	0.	125.53
2660	6.5	-6.25	0.	125.58
2661	6.75	-6.	0.	125.56
2662	6.25	-6.5	0.	125.61
2663	6.5	-6.75	0.	125.63
2664	6.75	-6.5	0.	125.6
2665	5.75	-6.5	0.	125.62
2666	6.	-6.75	0.	125.65
2667	5.5	-6.75	0.	125.67
2668	5.25	-6.5	0.	125.63
2669	4.25	-6.5	0.	125.63
2670	4.5	-6.75	0.	125.69
2671	4.75	-6.5	0.	125.63
2672	3.75	-6.5	0.	125.63
2673	4.	-6.75	0.	125.71
2674	4.	-6.25	0.	125.55
2675	3.25	-6.5	0.	125.64
2676	3.5	-6.75	0.	125.73
2677	2.75	-6.5	0.	125.7
2678	3.	-6.75	0.	125.78
2679	2.25	-6.5	0.	125.82
2680	2.5	-6.75	0.	125.88
2681	-6.25	-6.5	0.	126.26
2682	-5.75	-6.5	0.	126.33
2683	-6.	-6.75	0.	126.41
2684	-6.75	-6.5	0.	126.31
2685	-6.5	-6.75	0.	126.39
2686	-6.5	-6.25	0.	126.15
2687	-6.75	-5.5	0.	126.
2688	-6.5	-5.75	0.	125.95
2689	-6.5	-5.25	0.	125.9
2690	-6.5	-4.25	0.	126.58
2691	-6.75	-4.5	0.	126.39
2692	-6.5	-4.75	0.	126.1
2693	-6.5	1.75	0.	125.25
2694	-6.25	1.5	0.	125.34
2695	-6.5	1.25	0.	125.77
2696	-6.75	1.5	0.	125.48
2697	-6.5	2.25	0.	124.92
2698	-6.75	2.	0.	124.99
2699	1.75	4.5	0.	125.33
2700	2.	4.25	0.	125.94
2701	0.75	4.5	0.	123.33
2702	0.5	4.25	0.	122.35
2703	3.5	2.75	0.	125.8
2704	3.25	3.	0.	126.2
2705	3.25	-1.229e-011	0.	126.97
2706	3.5	0.25	0.	126.45
2707	3.5	1.25	0.	125.54
2708	3.25	1.5	0.	125.41
2709	3.5	1.75	0.	125.41
2710	0.25	-1.5	0.	122.71
2711	0.5	-1.75	0.	123.91
2712	0.5	-1.25	0.	122.64
2713	0.75	-1.5	0.	123.93
2714	1.75	-1.5	0.	126.2
2715	2.	-1.25	0.	126.8
2716	-3.75	2.	0.	124.24
2717	-4.	1.75	0.	123.82
2718	-3.25	3.	0.	125.82
2719	-3.5	2.75	0.	125.28
2720	-0.5	4.25	0.	122.03
2721	-0.75	4.5	0.	122.86
2722	-1.75	4.5	0.	124.65
2723	-2.	4.25	0.	125.34
2724	-6.	1.25	0.	125.47
2725	-5.75	1.5	0.	124.94
2726	-4.75	1.5	0.	123.73
2727	-4.25	1.5	0.	123.51
2728	-4.5	1.25	0.	123.12
2729	-4.5	4.25	0.	125.79
2730	-4.75	4.	0.	126.03
2731	-4.5	5.75	0.	125.33
2732	-4.5	5.25	0.	125.38
2733	-4.75	5.5	0.	125.35
2734	4.5	5.75	0.	123.82
2735	4.75	5.5	0.	124.52
2736	5.75	5.5	0.	125.95
2737	6.	5.75	0.	126.48
2738	2.25	5.5	0.	125.56
2739	2.	5.75	0.	125.87
2740	3.25	5.5	0.	124.53
2741	3.5	5.75	0.	123.82
2742	1.75	-6.5	0.	126.06
2743	2.	-6.75	0.	126.07
2744	1.5	-5.75	0.	125.44
2745	1.25	-5.5	0.	125.32
2746	-5.5	-5.75	0.	125.6
2747	-5.25	-5.5	0.	125.35
2748	1.0422e-010	-1.25	0.	121.45
2749	8.9603e-011	-1.75	0.	122.9
2750	-0.25	-1.5	0.	121.77
2751	1.25	-4.5	0.	125.21
2752	1.5	-4.25	0.	125.28
2753	1.5	-3.25	0.	126.03
2754	1.25	-3.	0.	126.28
2755	2.25	4.	0.	126.28
2756	2.5	3.75	0.	126.66
2757	3.	3.25	0.	126.46
2758	2.75	3.5	0.	126.69
2759	3.	-0.25	0.	127.31
2760	2.75	-0.5	0.	127.58
2761	2.25	-1.	0.	127.18
2762	2.5	-0.75	0.	127.57
2763	0.25	-1.	0.	121.37
2764	-0.25	-1.	0.	120.64
2765	1.0673e-010	-0.75	0.	119.9
2766	-3.	3.25	0.	126.12
2767	-2.75	3.5	0.	126.35
2768	0.25	4.	0.	121.5
2769	-0.25	4.	0.	121.35
2770	2.1112e-010	3.75	0.	120.3
2771	-2.25	4.	0.	125.81
2772	-2.5	3.75	0.	126.26
2773	-6.75	1.	0.	126.07
2774	-6.25	1.	0.	125.9
2775	-6.5	0.75	0.	126.46
2776	-5.25	3.5	0.	126.11
2777	-5.	3.75	0.	126.08
2778	-6.5	2.75	0.	124.78
2779	-6.75	2.5	0.	124.59
2780	-5.75	3.	0.	125.54
2781	-5.5	3.25	0.	125.94
2782	6.75	6.	0.	126.6
2783	6.25	6.	0.	126.75
2784	6.5	6.25	0.	126.96
2785	1.75	6.	0.	125.91
2786	1.5	6.25	0.	125.96
2787	4.25	6.	0.	123.2
2788	3.75	6.	0.	123.19
2789	4.	6.25	0.	122.27
2790	0.25	-2.	0.	124.09
2791	0.5	-2.25	0.	125.2
2792	0.75	-2.	0.	124.93
2793	1.	-5.25	0.	125.31
2794	1.	-4.75	0.	125.25
2795	0.75	-5.	0.	125.52
2796	1.	-2.75	0.	126.2
2797	0.75	-2.5	0.	125.91
2798	1.	-2.25	0.	125.65
2799	-6.25	-4.	0.	126.73
2800	-6.5	-3.75	0.	127.3
2801	-6.75	-4.	0.	126.91
2802	-7.	-6.75	0.	126.44
2803	-7.25	-6.5	0.	126.4
2804	-7.	-6.25	0.	126.27
2805	6.25	-7.	0.	125.67
2806	6.75	-7.	0.	125.64
2807	6.5	-7.25	0.	125.69
2808	-5.5	-6.75	0.	126.56
2809	-5.75	-7.	0.	126.64
2810	-5.25	-7.	0.	126.9
2811	-5.5	-7.25	0.	126.76
2812	-4.5	6.75	0.	125.61
2813	-4.25	7.	0.	125.49
2814	-4.75	7.	0.	125.92
2815	-4.5	7.25	0.	125.65
2816	1.25	6.5	0.	125.72
2817	1.	6.75	0.	125.19
2818	-5.25	-4.5	0.	125.1
2819	-5.5	-4.25	0.	125.56
2820	-5.	-5.25	0.	125.14
2821	-5.	-4.75	0.	124.92
2822	-4.75	-5.	0.	125.18
2823	7.	6.25	0.	126.46
2824	7.	6.75	0.	126.35
2825	7.25	6.5	0.	126.21
2826	6.75	6.5	0.	126.82
2827	1.25	4.5	0.	124.43
2828	1.5	4.25	0.	125.13
2829	1.	4.25	0.	123.74
2830	3.25	2.5	0.	125.93
2831	3.5	2.25	0.	125.56
2832	3.25	1.	0.	125.81
2833	3.5	0.75	0.	125.96
2834	1.5	-1.25	0.	125.84
2835	1.25	-1.5	0.	125.19
2836	-3.5	1.75	0.	124.14
2837	-3.25	2.	0.	124.57
2838	-3.5	2.25	0.	124.68
2839	-1.5	4.25	0.	124.47
2840	-1.25	4.5	0.	123.77
2841	-5.	1.25	0.	123.74
2842	-5.25	1.5	0.	124.31
2843	-3.75	1.5	0.	123.72
2844	-3.25	1.5	0.	124.14
2845	-3.5	1.25	0.	123.91
2846	-4.	1.25	0.	123.26
2847	-4.5	6.25	0.	125.46
2848	-4.75	6.	0.	125.49
2849	-4.75	6.5	0.	125.78
2850	-4.75	5.	0.	125.56
2851	-4.5	4.75	0.	125.6
2852	5.5	5.75	0.	125.88
2853	5.25	5.5	0.	125.29
2854	2.75	5.5	0.	125.17
2855	2.5	5.25	0.	125.51
2856	2.5	5.75	0.	125.61
2857	3.	5.75	0.	124.77
2858	1.5	-6.25	0.	125.95
2859	1.5	-6.75	0.	126.39
2860	1.25	-6.5	0.	126.49
2861	1.25	-6.	0.	125.91
2862	-5.5	-6.25	0.	126.12
2863	-5.25	-6.	0.	125.98
2864	-5.25	-6.5	0.	126.59
2865	-1.	-1.25	0.	121.04
2866	-1.	-1.75	0.	120.85
2867	-1.25	-1.5	0.	120.78
2868	-0.75	-1.5	0.	121.13
2869	1.25	-3.5	0.	126.13
2870	1.5	-3.75	0.	125.7
2871	-3.75	7.	0.	125.16
2872	-4.	7.25	0.	125.3
2873	-3.25	7.	0.	124.88
2874	-3.5	7.25	0.	125.01
2875	-2.75	7.	0.	124.63
2876	-3.	7.25	0.	124.75
2877	-2.5	7.25	0.	124.51
2878	-2.25	7.	0.	124.39
2879	-0.75	7.	0.	123.86
2880	-1.	7.25	0.	123.89
2881	-1.25	7.	0.	123.97
2882	-1.	6.75	0.	123.88
2883	-0.5	7.25	0.	123.8
2884	-0.25	7.	0.	123.89
2885	0.75	7.	0.	124.74
2886	0.5	7.25	0.	124.15
2887	0.25	7.	0.	124.15
2888	7.	5.75	0.	126.34
2889	7.25	6.	0.	126.24
2890	7.	5.25	0.	126.14
2891	7.25	5.5	0.	126.13
2892	7.	4.75	0.	125.93
2893	7.25	5.	0.	125.96
2894	6.75	5.	0.	126.04
2895	7.	4.25	0.	125.75
2896	7.25	4.5	0.	125.8
2897	7.	3.75	0.	125.61
2898	7.25	4.	0.	125.65
2899	6.75	4.	0.	125.66
2900	7.25	3.5	0.	125.54
2901	7.	3.25	0.	125.49
2902	7.25	2.5	0.	125.38
2903	6.75	2.5	0.	125.37
2904	7.	2.25	0.	125.36
2905	7.	2.75	0.	125.41
2906	7.25	1.5	0.	125.34
2907	7.	1.75	0.	125.34
2908	7.	1.25	0.	125.35
2909	7.25	0.5	0.	125.39
2910	7.	0.25	0.	125.43
2911	7.	0.75	0.	125.38
2912	7.25	-0.5	0.	125.47
2913	7.	-0.25	0.	125.48
2914	7.	-0.75	0.	125.53
2915	7.25	-1.5	0.	125.53
2916	7.	-1.75	0.	125.58
2917	7.	-1.25	0.	125.56
2918	7.25	-2.5	0.	125.55
2919	7.	-2.25	0.	125.58
2920	7.	-2.75	0.	125.57
2921	7.25	-3.5	0.	125.52
2922	7.	-3.75	0.	125.54
2923	7.	-3.25	0.	125.56
2924	7.25	-5.	0.	125.5
2925	7.	-5.25	0.	125.52
2926	7.	-4.75	0.	125.52
2927	7.	-6.25	0.	125.57
2928	7.25	-6.	0.	125.54
2929	7.	-5.75	0.	125.54
2930	7.	-6.75	0.	125.61
2931	7.25	-6.5	0.	125.57
2932	5.75	-7.	0.	125.7
2933	6.	-7.25	0.	125.72
2934	5.5	-7.25	0.	125.75
2935	5.25	-7.	0.	125.72
2936	4.5	-7.25	0.	125.82
2937	4.75	-7.	0.	125.75
2938	4.25	-7.	0.	125.77
2939	3.25	-7.	0.	125.87
2940	3.5	-7.25	0.	125.93
2941	3.75	-7.	0.	125.81
2942	2.75	-7.	0.	125.97
2943	3.	-7.25	0.	126.01
2944	2.5	-7.25	0.	126.14
2945	2.25	-7.	0.	126.13
2946	1.25	-7.	0.	126.79
2947	1.5	-7.25	0.	126.59
2948	1.75	-7.	0.	126.4
2949	-6.25	-7.	0.	126.53
2950	-6.	-7.25	0.	126.63
2951	-6.75	-7.	0.	126.52
2952	-6.5	-7.25	0.	126.59
2953	-7.25	-5.5	0.	126.22
2954	-7.	-5.25	0.	126.17
2955	-7.	-5.75	0.	126.16
2956	-7.25	-4.5	0.	126.53
2957	-7.	-4.75	0.	126.36
2958	-7.	-4.25	0.	126.71
2959	-7.	-3.25	0.	127.52
2960	-6.75	-3.5	0.	127.54
2961	-7.25	-3.5	0.	127.22
2962	-7.	-3.75	0.	127.16
2963	-7.	1.25	0.	125.78
2964	-7.25	1.	0.	126.03
2965	-7.	0.75	0.	126.34
2966	-7.	1.75	0.	125.22
2967	-7.25	1.5	0.	125.5
2968	-7.25	2.	0.	124.93
2969	-7.	2.25	0.	124.66
2970	1.75	4.	0.	125.74
2971	2.	3.75	0.	126.66
2972	0.75	4.	0.	122.76
2973	0.5	3.75	0.	121.35
2974	3.	2.75	0.	126.33
2975	2.75	3.	0.	126.91
2976	2.75	-1.9504e-012	0.	127.63
2977	3.	0.25	0.	126.98
2978	3.	1.25	0.	125.68
2979	2.75	1.5	0.	125.54
2980	3.	1.75	0.	125.54
2981	0.5	-0.75	0.	121.34
2982	0.75	-1.	0.	123.
2983	1.75	-1.	0.	126.44
2984	2.	-0.75	0.	127.38
2985	-0.75	-1.	0.	120.87
2986	-0.5	-0.75	0.	120.11
2987	-0.5	-1.25	0.	120.96
2988	-2.75	3.	0.	126.48
2989	-3.	2.75	0.	125.81
2990	-0.5	3.75	0.	121.05
2991	-0.75	4.	0.	122.35
2992	-1.75	4.	0.	125.16
2993	-2.	3.75	0.	126.12
2994	-7.	-2.75	0.	127.59
2995	-7.25	-3.	0.	127.4
2996	-6.75	-3.	0.	128.02
2997	-7.	-1.25	0.	126.72
2998	-7.25	-1.5	0.	126.61
2999	-6.75	-1.5	0.	126.85
3000	-7.	-1.75	0.	126.88
3001	-5.75	1.	0.	125.27
3002	-6.	0.75	0.	126.2
3003	-4.75	1.	0.	123.13
3004	-4.25	1.	0.	122.86
3005	-4.5	0.75	0.	122.16
3006	-5.	5.25	0.	125.52
3007	-5.25	5.5	0.	125.52
3008	-5.	5.75	0.	125.51
3009	-6.25	3.	0.	125.11
3010	-6.	3.25	0.	125.84
3011	4.5	6.25	0.	123.03
3012	4.75	6.	0.	124.13
3013	5.75	6.	0.	126.41
3014	6.	6.25	0.	127.15
3015	2.	6.25	0.	126.5
3016	2.25	6.	0.	125.92
3017	3.25	6.	0.	124.06
3018	3.5	6.25	0.	123.
3019	1.	-5.75	0.	125.8
3020	0.75	-5.5	0.	125.84
3021	-5.	-5.75	0.	125.73
3022	-4.75	-5.5	0.	125.65
3023	7.1295e-011	-2.25	0.	124.51
3024	-0.25	-2.	0.	123.01
3025	0.75	-4.5	0.	125.72
3026	1.	-4.25	0.	125.6
3027	1.	-3.25	0.	126.38
3028	0.75	-3.	0.	126.65
3029	-1.25	-2.	0.	120.17
3030	-1.75	-2.	0.	119.46
3031	-1.5	-2.25	0.	118.89
3032	-1.5	-1.75	0.	120.11
3033	2.5	3.25	0.	127.14
3034	2.25	3.5	0.	127.03
3035	2.25	-0.5	0.	127.77
3036	2.5	-0.25	0.	127.9
3037	-2.25	3.5	0.	126.57
3038	-2.5	3.25	0.	126.71
3039	-6.	-3.75	0.	127.12
3040	-5.75	-4.	0.	126.2
3041	-6.5	-3.25	0.	128.04
3042	-6.25	-3.5	0.	127.69
3043	-6.25	0.5	0.	126.75
3044	-6.5	0.25	0.	127.17
3045	-6.75	0.5	0.	126.72
3046	-3.	1.75	0.	124.57
3047	-3.	1.25	0.	124.56
3048	-2.75	1.5	0.	124.58
3049	-2.	-1.75	0.	120.23
3050	-2.25	-1.5	0.	121.62
3051	-1.75	-1.5	0.	120.86
3052	-2.	-1.25	0.	122.02
3053	-7.	-7.25	0.	126.61
3054	-7.25	-7.	0.	126.56
3055	7.25	-7.	0.	125.61
3056	7.	-7.25	0.	125.65
3057	-5.75	3.5	0.	126.24
3058	-5.5	3.75	0.	126.52
3059	1.	-6.75	0.	126.89
3060	0.75	-7.	0.	127.29
3061	1.	-7.25	0.	126.92
3062	-4.75	-7.	0.	127.29
3063	-5.	-6.75	0.	126.93
3064	-5.	-7.25	0.	126.97
3065	0.5	-2.75	0.	126.36
3066	0.25	-2.5	0.	125.61
3067	-5.	6.75	0.	126.08
3068	-5.	7.25	0.	126.08
3069	-5.25	7.	0.	126.48
3070	1.5	6.75	0.	126.28
3071	1.75	6.5	0.	126.55
3072	1.25	7.	0.	125.75
3073	1.	7.25	0.	124.83
3074	-4.75	-4.5	0.	125.13
3075	-5.	-4.25	0.	125.03
3076	1.693e-010	3.25	0.	118.47
3077	-0.25	3.5	0.	119.99
3078	0.25	3.5	0.	120.13
3079	9.2146e-011	-0.25	0.	118.09
3080	-0.25	-0.5	0.	119.37
3081	0.25	-0.5	0.	119.86
3082	6.75	7.	0.	126.73
3083	7.	7.25	0.	125.83
3084	7.25	7.	0.	125.88
3085	4.	6.75	0.	120.81
3086	3.75	6.5	0.	122.08
3087	4.25	6.5	0.	122.1
3088	0.25	-5.	0.	126.91
3089	0.5	-4.75	0.	125.99
3090	0.5	-5.25	0.	126.05
3091	-4.25	-5.	0.	126.48
3092	-4.5	-4.75	0.	125.4
3093	-4.5	-5.25	0.	125.7
3094	1.25	4.	0.	124.44
3095	1.5	3.75	0.	125.67
3096	1.	3.75	0.	123.6
3097	2.75	2.5	0.	126.6
3098	3.	2.25	0.	125.9
3099	2.75	1.	0.	126.14
3100	3.	0.75	0.	126.31
3101	1.5	-0.75	0.	126.17
3102	1.25	-1.	0.	124.94
3103	-1.25	-1.	0.	121.65
3104	-1.5	-0.75	0.	123.01
3105	-1.5	-1.25	0.	121.4
3106	-1.75	-1.	0.	122.55
3107	-1.	-0.75	0.	121.5
3108	-2.75	2.	0.	125.09
3109	-3.	2.25	0.	125.16
3110	-1.5	3.75	0.	125.09
3111	-1.25	4.	0.	123.88
3112	-6.75	-2.5	0.	127.97
3113	-7.25	-2.5	0.	127.27
3114	-7.	-2.25	0.	127.3
3115	-7.	-0.75	0.	126.85
3116	-7.25	-0.5	0.	126.78
3117	-6.75	-0.5	0.	127.31
3118	-7.	-0.25	0.	126.96
3119	-6.75	-1.	0.	126.95
3120	-7.25	-1.	0.	126.63
3121	-5.25	1.	0.	124.17
3122	-5.	0.75	0.	123.32
3123	-5.5	0.75	0.	125.1
3124	-5.5	1.25	0.	124.73
3125	-4.	0.75	0.	122.72
3126	-3.75	1.	0.	123.45
3127	-5.25	6.5	0.	126.38
3128	-5.	6.25	0.	125.81
3129	-5.	4.75	0.	125.85
3130	-4.75	4.5	0.	125.89
3131	-5.	4.25	0.	126.13
3132	-5.25	4.5	0.	126.4
3133	-5.25	5.	0.	125.84
3134	-6.5	3.25	0.	124.95
3135	-6.75	3.	0.	124.28
3136	5.5	6.25	0.	126.48
3137	5.25	6.	0.	125.43
3138	3.	6.25	0.	124.7
3139	2.75	6.	0.	125.21
3140	1.	-6.25	0.	126.45
3141	0.75	-6.5	0.	127.21
3142	0.75	-6.	0.	126.54
3143	-5.	-6.25	0.	126.45
3144	-4.75	-6.	0.	126.45
3145	-1.	-2.25	0.	120.95
3146	-0.75	-2.	0.	121.6
3147	0.75	-3.5	0.	126.79
3148	1.	-3.75	0.	126.11
3149	-2.	-2.25	0.	118.48
3150	-2.	-2.75	0.	116.18
3151	-1.75	-2.5	0.	117.88
3152	-2.25	-2.5	0.	118.75
3153	-2.25	-2.	0.	120.21
3154	-2.25	-3.	0.	116.4
3155	-1.75	-3.	0.	115.66
3156	-2.	-3.25	0.	114.07
3157	-4.	-5.25	0.	127.42
3158	-4.	-4.75	0.	127.23
3159	-3.75	-5.	0.	130.48
3160	-2.	-7.25	0.	114.49
3161	-1.75	-7.	0.	114.35
3162	-2.	-6.75	0.	112.58
3163	-2.25	-7.	0.	114.31
3164	2.9889e-012	-4.75	0.	127.73
3165	6.3901e-012	-5.25	0.	127.77
3166	-0.25	-5.	0.	130.8
3167	4.25	7.	0.	120.71
3168	3.75	7.	0.	120.7
3169	4.	7.25	0.	120.09
3170	6.5	7.25	0.	126.9
3171	6.25	7.	0.	127.93
3172	6.5	6.75	0.	127.2
3173	0.25	6.7115e-012	0.	118.08
3174	-0.25	-1.7105e-012	0.	117.8
3175	6.2479e-011	0.25	0.	116.95
3176	-0.25	3.	0.	118.21
3177	0.25	3.	0.	118.37
3178	1.0827e-010	2.75	0.	117.22
3179	-4.5	-4.25	0.	125.38
3180	-4.25	-4.5	0.	126.15
3181	1.5	7.25	0.	126.06
3182	1.75	7.	0.	127.16
3183	-5.25	7.5	0.	126.16
3184	-5.5	7.25	0.	126.55
3185	-5.75	7.5	0.	126.26
3186	-5.5	7.75	0.	126.02
3187	-4.75	7.5	0.	125.82
3188	-5.	7.75	0.	125.84
3189	-4.25	7.5	0.	125.46
3190	-4.5	7.75	0.	125.54
3191	-3.75	7.5	0.	125.15
3192	-4.	7.75	0.	125.25
3193	-3.25	7.5	0.	124.88
3194	-3.5	7.75	0.	124.98
3195	-2.75	7.5	0.	124.63
3196	-3.	7.75	0.	124.75
3197	-2.25	7.5	0.	124.4
3198	-2.5	7.75	0.	124.53
3199	-1.75	7.5	0.	124.18
3200	-2.	7.75	0.	124.32
3201	-2.	7.25	0.	124.28
3202	-1.25	7.5	0.	123.99
3203	-1.5	7.75	0.	124.11
3204	-1.5	7.25	0.	124.06
3205	-0.75	7.5	0.	123.83
3206	-1.	7.75	0.	123.92
3207	-0.25	7.5	0.	123.77
3208	-0.5	7.75	0.	123.77
3209	0.25	7.5	0.	123.86
3210	-2.6451e-011	7.75	0.	123.68
3211	-2.9379e-011	7.25	0.	123.86
3212	0.75	7.5	0.	124.24
3213	0.5	7.75	0.	123.74
3214	1.25	7.5	0.	125.14
3215	1.	7.75	0.	124.08
3216	0.5	-3.25	0.	127.05
3217	0.25	-3.	0.	127.15
3218	0.25	-4.5	0.	126.81
3219	0.5	-4.25	0.	126.38
3220	-1.25	-2.5	0.	119.67
3221	-1.5	-2.75	0.	117.41
3222	5.067e-011	-2.75	0.	126.41
3223	-0.25	-2.5	0.	124.63
3224	-4.5	-7.25	0.	127.17
3225	-4.5	-6.75	0.	127.54
3226	-4.25	-7.	0.	127.69
3227	-4.25	-5.5	0.	126.64
3228	-4.5	-5.75	0.	126.37
3229	0.5	-5.75	0.	126.57
3230	0.25	-5.5	0.	126.91
3231	0.5	-7.25	0.	127.21
3232	0.25	-7.	0.	127.76
3233	0.5	-6.75	0.	127.61
3234	3.25	6.5	0.	123.64
3235	3.5	6.75	0.	121.98
3236	2.	6.75	0.	127.43
3237	2.25	6.5	0.	126.71
3238	5.75	6.5	0.	127.22
3239	6.	6.75	0.	128.09
3240	6.25	6.5	0.	127.36
3241	4.5	6.75	0.	122.01
3242	4.75	6.5	0.	123.73
3243	-6.25	3.5	0.	125.67
3244	-6.	3.75	0.	126.82
3245	7.25	7.5	0.	125.21
3246	7.	7.75	0.	124.92
3247	6.75	7.5	0.	125.99
3248	7.5	7.25	0.	125.26
3249	7.5	7.75	0.	124.66
3250	7.75	7.5	0.	124.89
3251	7.5	6.75	0.	125.74
3252	7.75	7.	0.	125.39
3253	7.5	6.25	0.	125.98
3254	7.75	6.5	0.	125.72
3255	7.75	6.	0.	125.87
3256	7.5	5.75	0.	126.02
3257	7.5	4.75	0.	125.83
3258	7.75	5.	0.	125.8
3259	7.5	5.25	0.	125.95
3260	7.5	4.25	0.	125.7
3261	7.75	4.5	0.	125.7
3262	7.5	3.75	0.	125.58
3263	7.75	4.	0.	125.6
3264	7.5	3.25	0.	125.49
3265	7.75	3.5	0.	125.51
3266	7.5	2.75	0.	125.41
3267	7.75	3.	0.	125.43
3268	7.25	3.	0.	125.45
3269	7.5	2.25	0.	125.37
3270	7.75	2.5	0.	125.38
3271	7.5	1.75	0.	125.34
3272	7.75	2.	0.	125.34
3273	7.25	2.	0.	125.35
3274	7.5	1.25	0.	125.34
3275	7.75	1.5	0.	125.33
3276	7.5	0.75	0.	125.36
3277	7.75	1.	0.	125.33
3278	7.25	1.	0.	125.35
3279	7.5	0.25	0.	125.39
3280	7.75	0.5	0.	125.35
3281	7.5	-0.25	0.	125.42
3282	7.75	-1.5744e-012	0.	125.38
3283	7.25	-3.421e-012	0.	125.43
3284	7.5	-0.75	0.	125.45
3285	7.75	-0.5	0.	125.41
3286	7.5	-1.25	0.	125.48
3287	7.75	-1.	0.	125.44
3288	7.25	-1.	0.	125.51
3289	7.75	-1.5	0.	125.46
3290	7.5	-1.75	0.	125.5
3291	7.5	-2.75	0.	125.51
3292	7.75	-2.5	0.	125.47
3293	7.5	-2.25	0.	125.51
3294	7.5	-3.25	0.	125.5
3295	7.75	-3.	0.	125.47
3296	7.25	-3.	0.	125.54
3297	7.5	-3.75	0.	125.49
3298	7.75	-3.5	0.	125.47
3299	7.75	-4.	0.	125.47
3300	7.25	-4.	0.	125.51
3301	7.5	-4.25	0.	125.49
3302	7.5	-5.25	0.	125.5
3303	7.75	-5.	0.	125.48
3304	7.5	-4.75	0.	125.49
3305	7.5	-5.75	0.	125.52
3306	7.75	-5.5	0.	125.49
3307	7.25	-5.5	0.	125.52
3308	7.5	-6.25	0.	125.55
3309	7.75	-6.	0.	125.52
3310	7.5	-6.75	0.	125.58
3311	7.75	-6.5	0.	125.55
3312	7.5	-7.25	0.	125.62
3313	7.75	-7.	0.	125.58
3314	7.25	-7.5	0.	125.66
3315	7.75	-7.5	0.	125.62
3316	7.5	-7.75	0.	125.66
3317	6.75	-7.5	0.	125.7
3318	7.	-7.75	0.	125.7
3319	6.25	-7.5	0.	125.74
3320	6.5	-7.75	0.	125.74
3321	5.75	-7.5	0.	125.78
3322	6.	-7.75	0.	125.79
3323	5.5	-7.75	0.	125.84
3324	5.25	-7.5	0.	125.82
3325	4.25	-7.5	0.	125.92
3326	4.5	-7.75	0.	125.95
3327	4.75	-7.5	0.	125.87
3328	3.75	-7.5	0.	125.98
3329	4.	-7.75	0.	126.02
3330	4.	-7.25	0.	125.87
3331	3.25	-7.5	0.	126.07
3332	3.5	-7.75	0.	126.09
3333	2.75	-7.5	0.	126.18
3334	3.	-7.75	0.	126.18
3335	2.25	-7.5	0.	126.32
3336	2.5	-7.75	0.	126.29
3337	1.75	-7.5	0.	126.51
3338	2.	-7.75	0.	126.42
3339	2.	-7.25	0.	126.32
3340	1.25	-7.5	0.	126.72
3341	1.5	-7.75	0.	126.54
3342	0.75	-7.5	0.	126.83
3343	1.	-7.75	0.	126.6
3344	0.25	-7.5	0.	126.57
3345	0.5	-7.75	0.	126.43
3346	-0.25	-7.5	0.	125.33
3347	3.448e-011	-7.75	0.	125.67
3348	4.1652e-011	-7.25	0.	127.14
3349	-1.75	-7.5	0.	116.55
3350	-1.5	-7.25	0.	116.45
3351	-1.5	-7.75	0.	117.96
3352	-1.25	-7.5	0.	119.11
3353	-2.25	-7.5	0.	116.51
3354	-2.	-7.75	0.	116.74
3355	-2.75	-7.5	0.	119.03
3356	-2.5	-7.75	0.	117.91
3357	-2.5	-7.25	0.	116.38
3358	-4.25	-7.5	0.	126.52
3359	-4.	-7.75	0.	125.61
3360	-4.	-7.25	0.	127.04
3361	-3.75	-7.5	0.	125.23
3362	-4.5	-7.75	0.	126.41
3363	-4.75	-7.5	0.	126.85
3364	-5.75	-7.5	0.	126.74
3365	-5.5	-7.75	0.	126.71
3366	-5.25	-7.5	0.	126.83
3367	-6.25	-7.5	0.	126.69
3368	-6.	-7.75	0.	126.7
3369	-6.75	-7.5	0.	126.68
3370	-6.5	-7.75	0.	126.71
3371	-7.25	-7.5	0.	126.7
3372	-7.	-7.75	0.	126.73
3373	-7.5	-7.25	0.	126.66
3374	-7.5	-7.75	0.	126.77
3375	-7.75	-7.5	0.	126.76
3376	-7.5	-6.75	0.	126.52
3377	-7.75	-7.	0.	126.63
3378	-7.5	-6.25	0.	126.4
3379	-7.75	-6.5	0.	126.5
3380	-7.5	-5.75	0.	126.33
3381	-7.75	-6.	0.	126.4
3382	-7.25	-6.	0.	126.27
3383	-7.5	-5.25	0.	126.35
3384	-7.75	-5.5	0.	126.37
3385	-7.5	-4.75	0.	126.48
3386	-7.75	-5.	0.	126.42
3387	-7.25	-5.	0.	126.3
3388	-7.5	-4.25	0.	126.7
3389	-7.75	-4.5	0.	126.56
3390	-7.5	-3.75	0.	126.94
3391	-7.75	-4.	0.	126.76
3392	-7.25	-4.	0.	126.88
3393	-7.5	-3.25	0.	127.1
3394	-7.75	-3.5	0.	126.92
3395	-7.75	-3.	0.	126.96
3396	-7.5	-2.75	0.	127.07
3397	-7.75	-1.5	0.	126.46
3398	-7.5	-1.75	0.	126.63
3399	-7.5	-1.25	0.	126.52
3400	-7.5	-0.25	0.	126.59
3401	-7.75	-0.5	0.	126.49
3402	-7.5	-0.75	0.	126.55
3403	-7.5	0.25	0.	126.48
3404	-7.75	3.8068e-013	0.	126.48
3405	-7.25	8.9867e-013	0.	126.77
3406	-7.5	0.75	0.	126.18
3407	-7.75	0.5	0.	126.31
3408	-7.25	0.5	0.	126.49
3409	-7.5	1.25	0.	125.75
3410	-7.75	1.	0.	125.99
3411	-7.5	1.75	0.	125.21
3412	-7.75	1.5	0.	125.56
3413	-7.5	2.25	0.	124.59
3414	-7.75	2.	0.	125.05
3415	-7.5	2.75	0.	123.81
3416	-7.75	2.5	0.	124.44
3417	-7.25	2.5	0.	124.32
3418	-7.5	3.25	0.	122.68
3419	-7.75	3.	0.	123.68
3420	-7.25	3.	0.	123.58
3421	-7.25	3.5	0.	122.55
3422	-7.5	3.75	0.	120.67
3423	-7.75	3.5	0.	122.62
3424	-5.75	4.	0.	127.1
3425	-5.25	4.	0.	126.49
3426	-5.5	4.25	0.	126.76
3427	-5.5	6.75	0.	126.78
3428	-5.75	7.	0.	127.1
3429	-5.5	5.75	0.	125.85
3430	-5.5	5.25	0.	125.84
3431	-5.75	5.5	0.	125.71
3432	-7.25	7.5	0.	122.34
3433	-7.75	7.5	0.	122.37
3434	-7.5	7.75	0.	122.4
3435	-7.5	7.25	0.	120.49
3436	-6.	7.25	0.	126.81
3437	-6.	7.75	0.	125.82
3438	-6.25	7.5	0.	125.61
3439	-3.	0.75	0.	125.3
3440	-3.25	1.	0.	124.34
3441	-2.75	1.	0.	125.09
3442	-2.5	-1.75	0.	121.61
3443	-2.75	-1.5	0.	122.95
3444	-2.5	-1.25	0.	123.14
3445	-2.75	0.5	0.	126.24
3446	-3.25	0.5	0.	125.13
3447	-3.	0.25	0.	126.48
3448	-5.75	0.5	0.	126.04
3449	-6.	0.25	0.	127.38
3450	-4.75	0.5	0.	122.34
3451	-4.25	0.5	0.	122.
3452	-4.5	0.25	0.	120.39
3453	-6.5	-0.25	0.	127.58
3454	-6.25	3.4365e-012	0.	127.8
3455	-6.75	1.9618e-012	0.	127.23
3456	-6.5	-2.75	0.	128.39
3457	-6.25	-3.	0.	128.77
3458	-6.5	-1.25	0.	127.08
3459	-6.25	-1.5	0.	127.1
3460	-6.5	-1.75	0.	127.32
3461	-6.	-3.25	0.	128.43
3462	-5.75	-3.5	0.	127.21
3463	-5.25	-4.	0.	125.5
3464	-5.5	-3.75	0.	126.29
3465	-5.	-3.75	0.	125.16
3466	-4.75	-4.	0.	125.28
3467	-1.75	3.5	0.	126.05
3468	-2.	3.25	0.	127.2
3469	-0.5	3.25	0.	119.76
3470	-0.75	3.5	0.	121.79
3471	-2.25	3.	0.	127.34
3472	-2.5	2.75	0.	126.69
3473	-2.5	0.25	0.	126.83
3474	-2.5	-0.25	0.	126.55
3475	-2.25	-1.1197e-011	0.	127.13
3476	-2.75	-3.9786e-012	0.	127.08
3477	-2.5	1.75	0.	125.1
3478	-2.25	1.5	0.	124.89
3479	-2.5	1.25	0.	125.11
3480	-0.75	-0.5	0.	120.74
3481	-0.5	-0.25	0.	119.1
3482	-1.75	-0.5	0.	124.55
3483	-2.25	-0.5	0.	125.63
3484	-2.	-0.25	0.	126.21
3485	-2.	-0.75	0.	124.09
3486	1.75	-0.5	0.	127.11
3487	2.	-0.25	0.	128.29
3488	0.5	-0.25	0.	119.88
3489	0.75	-0.5	0.	122.19
3490	2.25	7.122e-012	0.	128.42
3491	2.5	0.25	0.	127.78
3492	2.5	2.75	0.	127.18
3493	2.25	3.	0.	127.82
3494	2.5	1.25	0.	126.
3495	2.25	1.5	0.	125.66
3496	2.5	1.75	0.	125.84
3497	0.75	3.5	0.	122.19
3498	0.5	3.25	0.	120.07
3499	1.75	3.5	0.	126.59
3500	2.	3.25	0.	127.71
3501	1.25	3.5	0.	124.83
3502	1.5	3.25	0.	126.98
3503	1.	3.25	0.	123.77
3504	2.25	2.5	0.	127.86
3505	2.5	2.25	0.	126.54
3506	2.25	1.	0.	126.96
3507	2.5	0.75	0.	126.95
3508	1.5	-0.25	0.	127.28
3509	1.25	-0.5	0.	125.09
3510	-1.25	-0.5	0.	122.86
3511	-1.5	-0.25	0.	125.2
3512	-1.	-0.25	0.	122.25
3513	-2.25	0.5	0.	127.31
3514	-2.5	0.75	0.	126.03
3515	-2.25	2.	0.	126.08
3516	-2.5	2.25	0.	125.95
3517	-1.5	3.25	0.	126.41
3518	-1.25	3.5	0.	124.3
3519	-4.75	-3.5	0.	125.04
3520	-5.	-3.25	0.	124.86
3521	-5.25	-3.5	0.	125.96
3522	-6.25	-2.5	0.	129.2
3523	-6.5	-2.25	0.	128.02
3524	-6.5	-0.75	0.	127.4
3525	-6.25	-0.5	0.	128.31
3526	-6.25	-1.	0.	127.71
3527	-5.25	0.5	0.	124.25
3528	-5.	0.25	0.	122.87
3529	-5.5	0.25	0.	126.28
3530	-3.75	0.5	0.	123.44
3531	-3.5	0.75	0.	124.17
3532	-3.5	0.25	0.	125.21
3533	-4.	0.25	0.	122.08
3534	-2.75	-0.5	0.	126.82
3535	-2.5	-0.75	0.	125.07
3536	-7.	7.25	0.	122.52
3537	-7.	7.75	0.	123.23
3538	-6.75	7.5	0.	123.97
3539	-5.5	6.25	0.	126.41
3540	-5.75	6.	0.	126.64
3541	-5.25	6.	0.	125.84
3542	-5.75	6.5	0.	127.44
3543	-5.75	5.	0.	126.6
3544	-5.5	4.75	0.	126.39
3545	-6.75	3.5	0.	124.12
3546	-7.	3.75	0.	122.72
3547	-7.	3.25	0.	123.45
3548	-6.5	3.75	0.	125.87
3549	5.5	6.75	0.	127.76
3550	5.25	6.5	0.	125.88
3551	3.	6.75	0.	124.96
3552	2.75	6.5	0.	125.62
3553	0.25	-6.	0.	127.72
3554	0.5	-6.25	0.	127.29
3555	-0.5	-7.75	0.	123.81
3556	-0.5	-7.25	0.	125.48
3557	-0.75	-7.5	0.	122.63
3558	-3.	-7.75	0.	120.78
3559	-3.	-7.25	0.	121.02
3560	-3.25	-7.5	0.	122.53
3561	-4.25	-6.5	0.	128.22
3562	-4.75	-6.5	0.	127.18
3563	-4.5	-6.25	0.	127.18
3564	-1.	-2.75	0.	121.43
3565	-0.75	-2.5	0.	122.49
3566	0.25	-3.5	0.	127.95
3567	0.5	-3.75	0.	126.94
3568	0.5	0.25	0.	117.75
3569	0.75	1.2932e-011	0.	121.48
3570	-0.5	2.75	0.	117.66
3571	-0.75	3.	0.	121.22
3572	4.5	7.25	0.	120.31
3573	4.75	7.	0.	123.37
3574	-1.5	-6.75	0.	113.89
3575	-1.25	-7.	0.	118.48
3576	-4.	-5.75	0.	127.81
3577	-3.75	-5.5	0.	129.57
3578	-2.5	-2.25	0.	120.51
3579	-2.75	-2.	0.	122.7
3580	-2.5	-2.75	0.	119.02
3581	-2.75	-2.5	0.	122.54
3582	-2.75	-3.	0.	121.41
3583	-2.5	-3.25	0.	116.01
3584	-0.25	-4.5	0.	129.85
3585	6.9638e-012	-4.25	0.	127.92
3586	1.5	7.75	0.	125.02
3587	1.75	7.5	0.	126.94
3588	-4.5	-3.75	0.	125.17
3589	-4.25	-4.	0.	126.47
3590	-4.5	-3.25	0.	123.62
3591	-4.25	-3.5	0.	126.27
3592	-7.25	4.	0.	120.82
3593	-7.75	4.	0.	120.85
3594	-7.5	4.25	0.	116.07
3595	7.25	8.	0.	124.38
3596	6.75	8.	0.	124.68
3597	7.	8.25	0.	124.08
3598	7.75	8.	0.	124.41
3599	7.5	8.25	0.	124.21
3600	8.	7.75	0.	124.64
3601	8.	8.25	0.	124.42
3602	8.25	8.	0.	124.53
3603	8.	7.25	0.	125.01
3604	8.25	7.5	0.	124.79
3605	8.	6.75	0.	125.37
3606	8.25	7.	0.	125.12
3607	8.	6.25	0.	125.61
3608	8.25	6.5	0.	125.39
3609	8.	5.75	0.	125.71
3610	8.25	6.	0.	125.55
3611	8.	5.25	0.	125.72
3612	8.25	5.5	0.	125.62
3613	7.75	5.5	0.	125.87
3614	8.	4.75	0.	125.67
3615	8.25	5.	0.	125.62
3616	8.	4.25	0.	125.6
3617	8.25	4.5	0.	125.57
3618	8.	3.75	0.	125.52
3619	8.25	4.	0.	125.51
3620	8.	3.25	0.	125.45
3621	8.25	3.5	0.	125.45
3622	8.	2.75	0.	125.39
3623	8.25	3.	0.	125.4
3624	8.	2.25	0.	125.35
3625	8.25	2.5	0.	125.36
3626	8.	1.75	0.	125.33
3627	8.25	2.	0.	125.33
3628	8.	1.25	0.	125.32
3629	8.25	1.5	0.	125.31
3630	8.	0.75	0.	125.33
3631	8.25	1.	0.	125.31
3632	8.	0.25	0.	125.35
3633	8.25	0.5	0.	125.32
3634	8.	-0.25	0.	125.37
3635	8.25	-7.5425e-013	0.	125.33
3636	8.	-0.75	0.	125.39
3637	8.25	-0.5	0.	125.35
3638	8.	-1.25	0.	125.41
3639	8.25	-1.	0.	125.37
3640	8.	-1.75	0.	125.43
3641	8.25	-1.5	0.	125.38
3642	8.	-2.25	0.	125.44
3643	8.25	-2.	0.	125.4
3644	7.75	-2.	0.	125.47
3645	8.	-2.75	0.	125.44
3646	8.25	-2.5	0.	125.41
3647	8.	-3.25	0.	125.44
3648	8.25	-3.	0.	125.41
3649	8.	-3.75	0.	125.45
3650	8.25	-3.5	0.	125.42
3651	8.	-4.25	0.	125.45
3652	8.25	-4.	0.	125.42
3653	8.	-4.75	0.	125.46
3654	8.25	-4.5	0.	125.43
3655	7.75	-4.5	0.	125.47
3656	8.	-5.25	0.	125.47
3657	8.25	-5.	0.	125.45
3658	8.	-5.75	0.	125.49
3659	8.25	-5.5	0.	125.47
3660	8.	-6.25	0.	125.52
3661	8.25	-6.	0.	125.49
3662	8.	-6.75	0.	125.55
3663	8.25	-6.5	0.	125.52
3664	8.	-7.25	0.	125.59
3665	8.25	-7.	0.	125.55
3666	8.25	-7.5	0.	125.59
3667	8.	-7.75	0.	125.62
3668	7.25	-8.	0.	125.7
3669	7.5	-8.25	0.	125.69
3670	7.75	-8.	0.	125.66
3671	6.75	-8.	0.	125.75
3672	7.	-8.25	0.	125.74
3673	6.25	-8.	0.	125.8
3674	6.5	-8.25	0.	125.8
3675	5.75	-8.	0.	125.85
3676	6.	-8.25	0.	125.85
3677	5.25	-8.	0.	125.91
3678	5.5	-8.25	0.	125.92
3679	4.75	-8.	0.	125.98
3680	5.	-8.25	0.	125.99
3681	5.	-7.75	0.	125.89
3682	4.25	-8.	0.	126.05
3683	4.5	-8.25	0.	126.06
3684	3.75	-8.	0.	126.12
3685	4.	-8.25	0.	126.13
3686	3.25	-8.	0.	126.21
3687	3.5	-8.25	0.	126.21
3688	2.75	-8.	0.	126.3
3689	3.	-8.25	0.	126.29
3690	2.25	-8.	0.	126.39
3691	2.5	-8.25	0.	126.36
3692	1.75	-8.	0.	126.45
3693	2.	-8.25	0.	126.39
3694	1.25	-8.	0.	126.43
3695	1.5	-8.25	0.	126.35
3696	0.75	-8.	0.	126.19
3697	1.	-8.25	0.	126.15
3698	0.25	-8.	0.	125.52
3699	0.5	-8.25	0.	125.65
3700	-0.25	-8.	0.	124.16
3701	2.2939e-011	-8.25	0.	124.65
3702	-0.75	-8.	0.	122.05
3703	-0.5	-8.25	0.	122.99
3704	-1.25	-8.	0.	119.72
3705	-1.	-8.25	0.	120.89
3706	-1.	-7.75	0.	120.86
3707	-1.75	-8.	0.	118.14
3708	-1.5	-8.25	0.	119.05
3709	-2.25	-8.	0.	118.12
3710	-2.	-8.25	0.	118.3
3711	-2.75	-8.	0.	119.66
3712	-2.5	-8.25	0.	119.01
3713	-3.25	-8.	0.	121.97
3714	-3.	-8.25	0.	120.83
3715	-3.75	-8.	0.	124.09
3716	-3.5	-8.25	0.	122.92
3717	-3.5	-7.75	0.	123.72
3718	-4.25	-8.	0.	125.49
3719	-4.	-8.25	0.	124.6
3720	-4.75	-8.	0.	126.22
3721	-4.5	-8.25	0.	125.65
3722	-5.25	-8.	0.	126.54
3723	-5.	-8.25	0.	126.22
3724	-5.	-7.75	0.	126.66
3725	-5.75	-8.	0.	126.67
3726	-5.5	-8.25	0.	126.51
3727	-6.25	-8.	0.	126.72
3728	-6.	-8.25	0.	126.66
3729	-6.75	-8.	0.	126.76
3730	-6.5	-8.25	0.	126.74
3731	-7.25	-8.	0.	126.8
3732	-7.	-8.25	0.	126.8
3733	-7.75	-8.	0.	126.86
3734	-7.5	-8.25	0.	126.86
3735	-8.	-7.75	0.	126.84
3736	-8.25	-8.	0.	126.93
3737	-8.	-8.25	0.	126.93
3738	-8.	-7.25	0.	126.73
3739	-8.25	-7.5	0.	126.82
3740	-8.	-6.75	0.	126.61
3741	-8.25	-7.	0.	126.71
3742	-8.	-6.25	0.	126.51
3743	-8.25	-6.5	0.	126.59
3744	-8.	-5.75	0.	126.45
3745	-8.25	-6.	0.	126.5
3746	-8.	-5.25	0.	126.44
3747	-8.25	-5.5	0.	126.46
3748	-8.25	-5.	0.	126.47
3749	-8.	-4.75	0.	126.51
3750	-8.	-3.75	0.	126.73
3751	-8.25	-4.	0.	126.61
3752	-8.	-4.25	0.	126.62
3753	-8.	-3.25	0.	126.78
3754	-8.25	-3.5	0.	126.67
3755	-8.	-2.75	0.	126.73
3756	-8.25	-3.	0.	126.66
3757	-8.	-2.25	0.	126.6
3758	-8.25	-2.5	0.	126.57
3759	-7.75	-2.5	0.	126.84
3760	-8.	-1.75	0.	126.46
3761	-8.25	-2.	0.	126.44
3762	-7.75	-2.	0.	126.63
3763	-8.25	-1.5	0.	126.34
3764	-8.	-1.25	0.	126.38
3765	-8.	-0.25	0.	126.38
3766	-8.25	-0.5	0.	126.33
3767	-8.	-0.75	0.	126.38
3768	-8.	0.25	0.	126.31
3769	-8.25	2.8945e-014	0.	126.32
3770	-8.	0.75	0.	126.11
3771	-8.25	0.5	0.	126.23
3772	-8.	1.25	0.	125.8
3773	-8.25	1.	0.	126.03
3774	-8.	1.75	0.	125.39
3775	-8.25	1.5	0.	125.74
3776	-8.	2.25	0.	124.9
3777	-8.25	2.	0.	125.4
3778	-8.	2.75	0.	124.32
3779	-8.25	2.5	0.	125.01
3780	-8.	3.25	0.	123.63
3781	-8.25	3.	0.	124.63
3782	-8.	3.75	0.	122.82
3783	-8.25	3.5	0.	124.39
3784	0.75	3.	0.	121.65
3785	0.5	2.75	0.	117.92
3786	2.	2.75	0.	128.5
3787	1.75	3.	0.	128.09
3788	2.	1.25	0.	126.62
3789	1.75	1.5	0.	127.5
3790	2.	1.75	0.	126.47
3791	1.75	1.3807e-011	0.	128.45
3792	2.	0.25	0.	128.98
3793	-0.75	-9.0948e-012	0.	120.61
3794	-0.5	0.25	0.	117.24
3795	-2.	0.25	0.	127.61
3796	-1.75	-1.4234e-011	0.	126.85
3797	-1.75	1.5	0.	126.84
3798	-2.	1.75	0.	125.86
3799	-2.	1.25	0.	125.79
3800	-1.75	3.	0.	127.56
3801	-2.	2.75	0.	128.02
3802	-4.25	-3.	0.	124.18
3803	-4.75	-3.	0.	123.41
3804	-4.5	-2.75	0.	118.64
3805	-6.	-2.75	0.	129.57
3806	-5.75	-3.	0.	128.84
3807	-6.	-1.25	0.	127.72
3808	-5.75	-1.5	0.	128.95
3809	-6.	-1.75	0.	128.05
3810	-5.75	4.9349e-012	0.	127.62
3811	-6.	-0.25	0.	128.53
3812	-4.25	8.3798e-012	0.	120.44
3813	-4.75	7.721e-012	0.	120.91
3814	-4.5	-0.25	0.	116.06
3815	-3.	-0.25	0.	127.35
3816	-3.25	4.0029e-012	0.	126.56
3817	-3.	-1.75	0.	124.04
3818	-3.	-1.25	0.	124.84
3819	-3.25	-1.5	0.	126.16
3820	-6.	6.75	0.	127.77
3821	-6.25	7.	0.	126.94
3822	-6.	5.25	0.	126.47
3823	-6.	5.75	0.	126.49
3824	-6.25	5.5	0.	127.55
3825	-6.25	4.	0.	127.01
3826	-6.	4.25	0.	127.76
3827	6.5	7.75	0.	125.75
3828	6.25	7.5	0.	127.66
3829	6.25	8.	0.	125.88
3830	6.5	8.25	0.	124.35
3831	5.75	7.	0.	128.61
3832	6.	7.25	0.	128.68
3833	3.25	7.	0.	123.3
3834	3.5	7.25	0.	120.25
3835	2.	7.25	0.	128.04
3836	2.25	7.	0.	128.1
3837	-8.	7.75	0.	123.27
3838	-8.	7.25	0.	122.62
3839	-8.25	7.5	0.	124.04
3840	-8.	8.25	0.	123.8
3841	-8.25	8.	0.	124.12
3842	-7.75	8.	0.	123.3
3843	-6.25	8.	0.	125.03
3844	-6.5	8.25	0.	124.58
3845	-6.75	8.	0.	124.08
3846	-6.5	7.75	0.	124.82
3847	-5.75	8.	0.	125.59
3848	-6.	8.25	0.	125.24
3849	-5.25	8.	0.	125.71
3850	-5.5	8.25	0.	125.52
3851	-4.75	8.	0.	125.56
3852	-5.	8.25	0.	125.5
3853	-4.25	8.	0.	125.33
3854	-4.5	8.25	0.	125.34
3855	-3.75	8.	0.	125.08
3856	-4.	8.25	0.	125.14
3857	-3.25	8.	0.	124.86
3858	-3.5	8.25	0.	124.93
3859	-2.75	8.	0.	124.64
3860	-3.	8.25	0.	124.74
3861	-2.25	8.	0.	124.44
3862	-2.5	8.25	0.	124.56
3863	-1.75	8.	0.	124.25
3864	-2.	8.25	0.	124.39
3865	-1.25	8.	0.	124.05
3866	-1.5	8.25	0.	124.21
3867	-0.75	8.	0.	123.86
3868	-1.	8.25	0.	124.03
3869	-0.25	8.	0.	123.68
3870	-0.5	8.25	0.	123.83
3871	0.25	8.	0.	123.56
3872	-2.0844e-011	8.25	0.	123.63
3873	0.75	8.	0.	123.58
3874	0.5	8.25	0.	123.45
3875	1.25	8.	0.	123.97
3876	1.	8.25	0.	123.39
3877	1.75	8.	0.	125.27
3878	1.5	8.25	0.	123.76
3879	1.5719e-011	-5.75	0.	128.05
3880	-0.25	-5.5	0.	129.84
3881	-0.25	-7.	0.	127.27
3882	3.7903e-011	-6.75	0.	128.48
3883	-4.	-6.75	0.	128.36
3884	-3.75	-7.	0.	127.15
3885	-4.	-4.25	0.	127.23
3886	-3.75	-4.5	0.	129.49
3887	-1.25	-3.	0.	119.16
3888	-1.5	-3.25	0.	114.82
3889	3.1904e-011	-3.25	0.	128.05
3890	-0.25	-3.	0.	126.91
3891	-0.25	-3.5	0.	129.67
3892	1.6948e-011	-3.75	0.	128.5
3893	-0.75	-3.	0.	124.1
3894	-0.5	-3.25	0.	128.56
3895	-0.5	-2.75	0.	125.16
3896	-1.	-3.25	0.	122.78
3897	-3.25	-3.	0.	127.09
3898	-3.	-2.75	0.	124.93
3899	-3.	-3.25	0.	125.1
3900	-3.75	-4.	0.	128.79
3901	-4.	-3.75	0.	127.57
3902	-4.	-6.25	0.	128.58
3903	-3.75	-6.	0.	129.07
3904	-4.25	-6.	0.	127.55
3905	-3.75	-6.5	0.	129.67
3906	-3.	-6.75	0.	122.14
3907	-2.75	-7.	0.	118.36
3908	-3.25	-7.	0.	123.84
3909	-0.5	-6.75	0.	128.64
3910	-0.75	-7.	0.	123.98
3911	-0.25	-6.	0.	129.23
3912	2.7218e-011	-6.25	0.	128.75
3913	2.	7.75	0.	127.18
3914	2.	8.25	0.	125.
3915	2.25	8.	0.	128.27
3916	2.25	7.5	0.	129.91
3917	3.	7.25	0.	125.9
3918	2.75	7.	0.	126.72
3919	5.5	7.25	0.	130.37
3920	5.25	7.	0.	126.97
3921	6.	7.75	0.	127.78
3922	5.75	7.5	0.	130.43
3923	6.	8.25	0.	125.49
3924	5.75	8.	0.	128.81
3925	-6.75	4.	0.	124.47
3926	-7.	4.25	0.	122.75
3927	-6.5	4.25	0.	128.41
3928	-6.25	5.	0.	128.26
3929	-6.	4.75	0.	127.63
3930	-6.	6.25	0.	127.67
3931	-6.25	6.	0.	128.34
3932	-6.25	6.5	0.	129.13
3933	-6.75	7.	0.	124.31
3934	-6.5	6.75	0.	128.32
3935	-6.5	7.25	0.	125.75
3936	-7.	6.75	0.	122.5
3937	-7.25	7.	0.	120.65
3938	-3.75	-3.	0.	127.75
3939	-4.	-2.75	0.	125.96
3940	-4.	-3.25	0.	126.86
3941	-3.5	-2.75	0.	130.14
3942	-3.5	-3.25	0.	130.51
3943	-3.	-2.25	0.	124.73
3944	-3.25	-2.5	0.	127.99
3945	-3.25	-2.	0.	126.53
3946	-3.	-0.75	0.	126.77
3947	-3.25	-1.	0.	127.58
3948	-2.75	-1.	0.	125.02
3949	-3.25	-0.5	0.	128.63
3950	-4.	-0.25	0.	122.04
3951	-3.75	7.7545e-012	0.	123.86
3952	-5.25	6.4531e-012	0.	124.91
3953	-5.	-0.25	0.	123.31
3954	-5.5	-0.25	0.	129.11
3955	-5.75	-1.	0.	129.29
3956	-6.	-0.75	0.	128.62
3957	-5.75	-2.5	0.	131.12
3958	-6.	-2.25	0.	129.45
3959	-5.	-2.75	0.	124.78
3960	-5.25	-3.	0.	126.54
3961	-1.5	2.75	0.	129.08
3962	-1.25	3.	0.	125.36
3963	-1.75	0.5	0.	129.19
3964	-2.	0.75	0.	127.3
3965	-1.25	-1.3559e-011	0.	124.59
3966	-1.5	0.25	0.	128.45
3967	-1.	0.25	0.	123.64
3968	1.5	0.25	0.	129.82
3969	1.25	1.5752e-011	0.	125.98
3970	1.75	1.	0.	128.89
3971	2.	0.75	0.	128.35
3972	1.75	2.5	0.	130.02
3973	2.	2.25	0.	127.98
3974	1.25	3.	0.	125.92
3975	1.5	2.75	0.	129.63
3976	1.	2.75	0.	124.71
3977	-8.25	4.	0.	124.67
3978	-8.	4.25	0.	122.75
3979	-7.75	8.5	0.	123.89
3980	-8.25	8.5	0.	124.32
3981	-8.	8.75	0.	124.17
3982	-7.25	8.5	0.	123.88
3983	-7.5	8.75	0.	123.97
3984	-7.5	8.25	0.	123.4
3985	-6.75	8.5	0.	124.26
3986	-7.	8.25	0.	123.77
3987	-7.	8.75	0.	124.14
3988	-6.25	8.5	0.	124.78
3989	-6.5	8.75	0.	124.54
3990	-5.75	8.5	0.	125.17
3991	-6.	8.75	0.	124.92
3992	-5.5	8.75	0.	125.14
3993	-5.25	8.5	0.	125.31
3994	-4.25	8.5	0.	125.15
3995	-4.5	8.75	0.	125.12
3996	-4.75	8.5	0.	125.28
3997	-3.75	8.5	0.	124.99
3998	-4.	8.75	0.	125.01
3999	-3.25	8.5	0.	124.82
4000	-3.5	8.75	0.	124.87
4001	-2.75	8.5	0.	124.66
4002	-3.	8.75	0.	124.74
4003	-2.25	8.5	0.	124.51
4004	-2.5	8.75	0.	124.61
4005	-2.	8.75	0.	124.48
4006	-1.75	8.5	0.	124.35
4007	-0.75	8.5	0.	124.
4008	-1.	8.75	0.	124.21
4009	-1.25	8.5	0.	124.19
4010	-0.25	8.5	0.	123.78
4011	-0.5	8.75	0.	124.05
4012	0.25	8.5	0.	123.53
4013	-1.4632e-011	8.75	0.	123.85
4014	0.75	8.5	0.	123.26
4015	0.5	8.75	0.	123.6
4016	1.25	8.5	0.	123.18
4017	1.	8.75	0.	123.34
4018	1.75	8.5	0.	123.49
4019	1.5	8.75	0.	123.34
4020	2.	8.75	0.	124.19
4021	2.25	8.5	0.	126.44
4022	-8.25	7.	0.	124.47
4023	-8.	6.75	0.	122.73
4024	-7.75	7.	0.	120.72
4025	-8.5	-7.75	0.	126.92
4026	-8.5	-8.25	0.	127.01
4027	-8.75	-8.	0.	127.02
4028	-8.5	-7.25	0.	126.81
4029	-8.75	-7.5	0.	126.91
4030	-8.5	-6.75	0.	126.69
4031	-8.75	-7.	0.	126.79
4032	-8.5	-6.25	0.	126.59
4033	-8.75	-6.5	0.	126.67
4034	-8.5	-5.75	0.	126.52
4035	-8.75	-6.	0.	126.57
4036	-8.5	-5.25	0.	126.48
4037	-8.75	-5.5	0.	126.5
4038	-8.5	-4.75	0.	126.49
4039	-8.75	-5.	0.	126.46
4040	-8.5	-4.25	0.	126.52
4041	-8.75	-4.5	0.	126.46
4042	-8.25	-4.5	0.	126.53
4043	-8.5	-3.75	0.	126.55
4044	-8.75	-4.	0.	126.46
4045	-8.5	-3.25	0.	126.54
4046	-8.75	-3.5	0.	126.46
4047	-8.5	-2.75	0.	126.49
4048	-8.75	-3.	0.	126.42
4049	-8.5	-2.25	0.	126.4
4050	-8.75	-2.5	0.	126.35
4051	-8.5	-1.75	0.	126.32
4052	-8.75	-2.	0.	126.28
4053	-8.5	-1.25	0.	126.28
4054	-8.75	-1.5	0.	126.23
4055	-8.5	-0.75	0.	126.27
4056	-8.75	-1.	0.	126.22
4057	-8.25	-1.	0.	126.32
4058	-8.5	-0.25	0.	126.28
4059	-8.75	-0.5	0.	126.24
4060	-8.5	0.25	0.	126.25
4061	-8.75	-1.7033e-013	0.	126.26
4062	-8.5	0.75	0.	126.15
4063	-8.75	0.5	0.	126.24
4064	-8.5	1.25	0.	125.98
4065	-8.75	1.	0.	126.17
4066	-8.5	1.75	0.	125.75
4067	-8.75	1.5	0.	126.05
4068	-8.5	2.25	0.	125.5
4069	-8.75	2.	0.	125.91
4070	-8.5	2.75	0.	125.32
4071	-8.75	2.5	0.	125.8
4072	-8.5	3.25	0.	125.39
4073	-8.75	3.	0.	125.83
4074	-8.5	3.75	0.	126.23
4075	-8.75	3.5	0.	126.24
4076	-8.75	4.	0.	127.51
4077	-8.5	4.25	0.	128.82
4078	-8.5	7.25	0.	125.88
4079	-8.75	7.	0.	127.13
4080	-8.5	6.75	0.	128.59
4081	-8.5	7.75	0.	124.89
4082	-8.75	7.5	0.	125.71
4083	-8.5	8.25	0.	124.65
4084	-8.75	8.	0.	125.14
4085	-8.75	8.5	0.	124.92
4086	-8.5	8.75	0.	124.63
4087	6.25	8.5	0.	123.96
4088	5.75	8.5	0.	126.78
4089	6.	8.75	0.	124.56
4090	6.75	8.5	0.	123.75
4091	6.5	8.75	0.	123.82
4092	7.25	8.5	0.	123.91
4093	7.	8.75	0.	123.92
4094	7.75	8.5	0.	124.23
4095	7.5	8.75	0.	124.25
4096	8.25	8.5	0.	124.49
4097	8.	8.75	0.	124.52
4098	8.5	8.25	0.	124.59
4099	8.75	8.5	0.	124.65
4100	8.5	8.75	0.	124.69
4101	8.5	7.75	0.	124.69
4102	8.75	8.	0.	124.63
4103	8.5	7.25	0.	124.9
4104	8.75	7.5	0.	124.77
4105	8.75	7.	0.	124.97
4106	8.5	6.75	0.	125.14
4107	8.5	5.75	0.	125.46
4108	8.75	6.	0.	125.31
4109	8.5	6.25	0.	125.34
4110	8.5	5.25	0.	125.51
4111	8.75	5.5	0.	125.4
4112	8.5	4.75	0.	125.51
4113	8.75	5.	0.	125.44
4114	8.5	4.25	0.	125.49
4115	8.75	4.5	0.	125.45
4116	8.5	3.75	0.	125.44
4117	8.75	4.	0.	125.42
4118	8.5	3.25	0.	125.4
4119	8.75	3.5	0.	125.39
4120	8.5	2.75	0.	125.36
4121	8.75	3.	0.	125.36
4122	8.5	2.25	0.	125.33
4123	8.75	2.5	0.	125.33
4124	8.5	1.75	0.	125.31
4125	8.75	2.	0.	125.3
4126	8.5	1.25	0.	125.3
4127	8.75	1.5	0.	125.28
4128	8.5	0.75	0.	125.3
4129	8.75	1.	0.	125.27
4130	8.5	0.25	0.	125.3
4131	8.75	0.5	0.	125.27
4132	8.5	-0.25	0.	125.31
4133	8.75	-2.9792e-013	0.	125.28
4134	8.5	-0.75	0.	125.33
4135	8.75	-0.5	0.	125.29
4136	8.5	-1.25	0.	125.34
4137	8.75	-1.	0.	125.3
4138	8.5	-1.75	0.	125.36
4139	8.75	-1.5	0.	125.31
4140	8.5	-2.25	0.	125.37
4141	8.75	-2.	0.	125.33
4142	8.5	-2.75	0.	125.38
4143	8.75	-2.5	0.	125.34
4144	8.5	-3.25	0.	125.38
4145	8.75	-3.	0.	125.35
4146	8.5	-3.75	0.	125.39
4147	8.75	-3.5	0.	125.36
4148	8.5	-4.25	0.	125.41
4149	8.75	-4.	0.	125.37
4150	8.5	-4.75	0.	125.42
4151	8.75	-4.5	0.	125.39
4152	8.5	-5.25	0.	125.44
4153	8.75	-5.	0.	125.41
4154	8.5	-5.75	0.	125.46
4155	8.75	-5.5	0.	125.43
4156	8.5	-6.25	0.	125.49
4157	8.75	-6.	0.	125.46
4158	8.5	-6.75	0.	125.52
4159	8.75	-6.5	0.	125.49
4160	8.5	-7.25	0.	125.56
4161	8.75	-7.	0.	125.53
4162	8.5	-7.75	0.	125.59
4163	8.75	-7.5	0.	125.56
4164	8.5	-8.25	0.	125.61
4165	8.75	-8.	0.	125.59
4166	8.25	-8.	0.	125.62
4167	8.25	-8.5	0.	125.65
4168	8.75	-8.5	0.	125.62
4169	8.5	-8.75	0.	125.64
4170	7.75	-8.5	0.	125.69
4171	8.	-8.75	0.	125.67
4172	8.	-8.25	0.	125.65
4173	7.25	-8.5	0.	125.73
4174	7.5	-8.75	0.	125.72
4175	6.75	-8.5	0.	125.79
4176	7.	-8.75	0.	125.78
4177	6.25	-8.5	0.	125.85
4178	6.5	-8.75	0.	125.84
4179	5.75	-8.5	0.	125.92
4180	6.	-8.75	0.	125.91
4181	5.25	-8.5	0.	125.99
4182	5.5	-8.75	0.	125.98
4183	4.75	-8.5	0.	126.07
4184	5.	-8.75	0.	126.06
4185	4.25	-8.5	0.	126.15
4186	4.5	-8.75	0.	126.14
4187	3.75	-8.5	0.	126.23
4188	4.	-8.75	0.	126.22
4189	3.25	-8.5	0.	126.3
4190	3.5	-8.75	0.	126.29
4191	2.75	-8.5	0.	126.35
4192	3.	-8.75	0.	126.35
4193	2.25	-8.5	0.	126.36
4194	2.5	-8.75	0.	126.36
4195	1.75	-8.5	0.	126.3
4196	2.	-8.75	0.	126.31
4197	1.25	-8.5	0.	126.08
4198	1.5	-8.75	0.	126.12
4199	0.75	-8.5	0.	125.61
4200	1.	-8.75	0.	125.74
4201	0.25	-8.5	0.	124.77
4202	0.5	-8.75	0.	125.06
4203	-0.25	-8.5	0.	123.48
4204	1.3232e-011	-8.75	0.	124.01
4205	-0.5	-8.75	0.	122.59
4206	-0.75	-8.5	0.	121.84
4207	-1.75	-8.5	0.	119.2
4208	-1.5	-8.75	0.	119.78
4209	-1.25	-8.5	0.	120.23
4210	-2.25	-8.5	0.	119.19
4211	-2.	-8.75	0.	119.29
4212	-2.75	-8.5	0.	120.19
4213	-2.5	-8.75	0.	119.76
4214	-3.25	-8.5	0.	121.78
4215	-3.	-8.75	0.	120.99
4216	-3.75	-8.5	0.	123.43
4217	-3.5	-8.75	0.	122.54
4218	-4.25	-8.5	0.	124.76
4219	-4.	-8.75	0.	123.98
4220	-4.75	-8.5	0.	125.65
4221	-4.5	-8.75	0.	125.07
4222	-5.25	-8.5	0.	126.19
4223	-5.	-8.75	0.	125.81
4224	-5.75	-8.5	0.	126.5
4225	-5.5	-8.75	0.	126.27
4226	-6.25	-8.5	0.	126.67
4227	-6.	-8.75	0.	126.55
4228	-6.75	-8.5	0.	126.78
4229	-6.5	-8.75	0.	126.72
4230	-7.25	-8.5	0.	126.86
4231	-7.	-8.75	0.	126.83
4232	-7.75	-8.5	0.	126.93
4233	-7.5	-8.75	0.	126.91
4234	-8.25	-8.5	0.	127.01
4235	-8.	-8.75	0.	126.99
4236	-8.75	-8.5	0.	127.11
4237	-8.5	-8.75	0.	127.08
4238	-9.	-8.25	0.	127.12
4239	-9.	-8.75	0.	127.21
4240	-9.25	-8.5	0.	127.26
4241	-9.25	-8.	0.	127.15
4242	-9.	-7.75	0.	127.01
4243	-9.	-6.75	0.	126.76
4244	-9.25	-7.	0.	126.87
4245	-9.	-7.25	0.	126.89
4246	-9.	-6.25	0.	126.65
4247	-9.25	-6.5	0.	126.72
4248	-9.	-5.75	0.	126.55
4249	-9.25	-6.	0.	126.6
4250	-9.	-5.25	0.	126.48
4251	-9.25	-5.5	0.	126.49
4252	-9.	-4.75	0.	126.43
4253	-9.25	-5.	0.	126.41
4254	-9.	-4.25	0.	126.4
4255	-9.25	-4.5	0.	126.35
4256	-9.	-3.75	0.	126.37
4257	-9.25	-4.	0.	126.31
4258	-9.	-3.25	0.	126.34
4259	-9.25	-3.5	0.	126.26
4260	-9.	-2.75	0.	126.28
4261	-9.25	-3.	0.	126.21
4262	-9.	-2.25	0.	126.23
4263	-9.25	-2.5	0.	126.15
4264	-9.	-1.75	0.	126.18
4265	-9.25	-2.	0.	126.11
4266	-9.	-1.25	0.	126.17
4267	-9.25	-1.5	0.	126.09
4268	-9.	-0.75	0.	126.19
4269	-9.25	-1.	0.	126.11
4270	-9.	-0.25	0.	126.23
4271	-9.25	-0.5	0.	126.16
4272	-9.	0.25	0.	126.25
4273	-9.25	-2.2467e-013	0.	126.23
4274	-9.	0.75	0.	126.26
4275	-9.25	0.5	0.	126.3
4276	-9.	1.25	0.	126.24
4277	-9.25	1.	0.	126.35
4278	-9.	1.75	0.	126.2
4279	-9.25	1.5	0.	126.4
4280	-9.	2.25	0.	126.2
4281	-9.25	2.	0.	126.46
4282	-9.25	2.5	0.	126.58
4283	-9.	2.75	0.	126.3
4284	-9.	3.75	0.	127.52
4285	-9.25	3.5	0.	127.25
4286	-9.	3.25	0.	126.68
4287	-9.	4.25	0.	128.47
4288	-9.25	4.	0.	127.92
4289	-8.75	4.5	0.	129.77
4290	-9.25	4.5	0.	128.22
4291	-9.	4.75	0.	128.46
4292	-9.	5.75	0.	127.23
4293	-8.75	5.5	0.	128.25
4294	-9.25	5.5	0.	126.52
4295	-9.	5.25	0.	127.33
4296	-9.	6.25	0.	128.18
4297	-8.75	6.	0.	128.88
4298	-9.25	6.	0.	127.23
4299	-9.	6.75	0.	128.06
4300	-9.25	6.5	0.	127.82
4301	-8.75	6.5	0.	129.5
4302	-9.	7.25	0.	126.97
4303	-9.25	7.	0.	127.36
4304	-9.	7.75	0.	125.97
4305	-9.25	7.5	0.	126.51
4306	-9.	8.25	0.	125.41
4307	-9.25	8.	0.	125.88
4308	-9.	8.75	0.	125.13
4309	-9.25	8.5	0.	125.47
4310	-8.25	9.	0.	124.48
4311	-8.75	9.	0.	124.83
4312	-8.5	9.25	0.	124.65
4313	-7.75	9.	0.	124.25
4314	-8.	9.25	0.	124.4
4315	-7.5	9.25	0.	124.28
4316	-7.25	9.	0.	124.23
4317	-5.25	9.	0.	125.02
4318	-5.5	9.25	0.	124.89
4319	-5.75	9.	0.	124.9
4320	-5.	9.25	0.	124.96
4321	-4.75	9.	0.	125.03
4322	-5.	8.75	0.	125.19
4323	-3.75	9.	0.	124.89
4324	-4.	9.25	0.	124.9
4325	-4.25	9.	0.	124.98
4326	-3.25	9.	0.	124.79
4327	-3.5	9.25	0.	124.83
4328	-2.75	9.	0.	124.69
4329	-3.	9.25	0.	124.74
4330	-2.25	9.	0.	124.58
4331	-2.5	9.25	0.	124.66
4332	-1.75	9.	0.	124.48
4333	-2.	9.25	0.	124.57
4334	-1.25	9.	0.	124.38
4335	-1.5	9.25	0.	124.5
4336	-1.5	8.75	0.	124.35
4337	-0.75	9.	0.	124.27
4338	-1.	9.25	0.	124.44
4339	-0.25	9.	0.	124.12
4340	-0.5	9.25	0.	124.38
4341	0.25	9.	0.	123.93
4342	-8.0998e-012	9.25	0.	124.32
4343	0.5	9.25	0.	124.25
4344	0.75	9.	0.	123.69
4345	1.75	9.	0.	124.05
4346	1.5	9.25	0.	124.24
4347	1.25	9.	0.	123.51
4348	9.	8.25	0.	124.69
4349	9.	8.75	0.	124.77
4350	9.25	8.5	0.	124.7
4351	9.	7.75	0.	124.71
4352	9.25	8.	0.	124.66
4353	9.	7.25	0.	124.83
4354	9.25	7.5	0.	124.72
4355	9.	6.75	0.	124.99
4356	9.25	7.	0.	124.84
4357	9.	6.25	0.	125.14
4358	9.25	6.5	0.	124.99
4359	8.75	6.5	0.	125.16
4360	9.	5.75	0.	125.26
4361	9.25	6.	0.	125.13
4362	9.	5.25	0.	125.34
4363	9.25	5.5	0.	125.24
4364	9.	4.75	0.	125.37
4365	9.25	5.	0.	125.31
4366	9.	4.25	0.	125.38
4367	9.25	4.5	0.	125.35
4368	9.	3.75	0.	125.37
4369	9.25	4.	0.	125.36
4370	9.	3.25	0.	125.35
4371	9.25	3.5	0.	125.35
4372	9.	2.75	0.	125.32
4373	9.25	3.	0.	125.32
4374	9.	2.25	0.	125.3
4375	9.25	2.5	0.	125.3
4376	9.25	2.	0.	125.27
4377	9.	1.75	0.	125.28
4378	9.25	1.	0.	125.23
4379	9.	0.75	0.	125.25
4380	9.	1.25	0.	125.26
4381	9.	-0.25	0.	125.26
4382	9.25	-9.2853e-014	0.	125.22
4383	9.	0.25	0.	125.25
4384	9.	-0.75	0.	125.26
4385	9.25	-0.5	0.	125.22
4386	9.	-1.25	0.	125.27
4387	9.25	-1.	0.	125.23
4388	9.	-1.75	0.	125.29
4389	9.25	-1.5	0.	125.24
4390	9.	-2.25	0.	125.3
4391	9.25	-2.	0.	125.25
4392	9.	-2.75	0.	125.31
4393	9.25	-2.5	0.	125.27
4394	9.	-3.25	0.	125.32
4395	9.25	-3.	0.	125.28
4396	9.	-3.75	0.	125.34
4397	9.25	-3.5	0.	125.3
4398	9.	-4.25	0.	125.36
4399	9.25	-4.	0.	125.32
4400	9.	-4.75	0.	125.38
4401	9.25	-4.5	0.	125.34
4402	9.	-5.25	0.	125.4
4403	9.25	-5.	0.	125.36
4404	9.	-5.75	0.	125.43
4405	9.25	-5.5	0.	125.39
4406	9.25	-6.	0.	125.43
4407	9.	-6.25	0.	125.46
4408	9.25	-7.	0.	125.5
4409	9.	-6.75	0.	125.49
4410	9.	-7.25	0.	125.53
4411	9.	-8.25	0.	125.59
4412	9.25	-8.	0.	125.57
4413	9.	-7.75	0.	125.56
4414	9.	-8.75	0.	125.61
4415	9.25	-8.5	0.	125.6
4416	8.25	-9.	0.	125.67
4417	8.75	-9.	0.	125.64
4418	8.5	-9.25	0.	125.65
4419	7.75	-9.	0.	125.71
4420	8.	-9.25	0.	125.69
4421	7.25	-9.	0.	125.76
4422	7.5	-9.25	0.	125.74
4423	6.75	-9.	0.	125.82
4424	7.	-9.25	0.	125.8
4425	6.25	-9.	0.	125.89
4426	6.5	-9.25	0.	125.87
4427	5.75	-9.	0.	125.97
4428	6.	-9.25	0.	125.94
4429	5.25	-9.	0.	126.05
4430	5.5	-9.25	0.	126.03
4431	4.75	-9.	0.	126.13
4432	5.	-9.25	0.	126.11
4433	4.25	-9.	0.	126.22
4434	4.5	-9.25	0.	126.2
4435	3.75	-9.	0.	126.29
4436	4.	-9.25	0.	126.28
4437	3.25	-9.	0.	126.35
4438	3.5	-9.25	0.	126.34
4439	2.75	-9.	0.	126.36
4440	3.	-9.25	0.	126.37
4441	2.25	-9.	0.	126.3
4442	2.5	-9.25	0.	126.34
4443	1.75	-9.	0.	126.13
4444	2.	-9.25	0.	126.21
4445	1.25	-9.	0.	125.78
4446	1.5	-9.25	0.	125.94
4447	0.75	-9.	0.	125.19
4448	1.	-9.25	0.	125.44
4449	0.25	-9.	0.	124.3
4450	0.5	-9.25	0.	124.69
4451	-0.25	-9.	0.	123.12
4452	6.4134e-012	-9.25	0.	123.65
4453	-0.75	-9.	0.	121.79
4454	-0.5	-9.25	0.	122.41
4455	-1.25	-9.	0.	120.59
4456	-1.	-9.25	0.	121.17
4457	-1.	-8.75	0.	121.04
4458	-1.75	-9.	0.	119.87
4459	-1.5	-9.25	0.	120.23
4460	-2.25	-9.	0.	119.86
4461	-2.	-9.25	0.	119.87
4462	-2.75	-9.	0.	120.56
4463	-2.5	-9.25	0.	120.21
4464	-3.25	-9.	0.	121.75
4465	-3.	-9.25	0.	121.13
4466	-3.75	-9.	0.	123.08
4467	-3.5	-9.25	0.	122.37
4468	-4.25	-9.	0.	124.29
4469	-4.	-9.25	0.	123.63
4470	-4.75	-9.	0.	125.23
4471	-4.5	-9.25	0.	124.7
4472	-5.25	-9.	0.	125.89
4473	-5.	-9.25	0.	125.51
4474	-5.75	-9.	0.	126.33
4475	-5.5	-9.25	0.	126.08
4476	-6.25	-9.	0.	126.6
4477	-6.	-9.25	0.	126.45
4478	-6.5	-9.25	0.	126.68
4479	-6.75	-9.	0.	126.77
4480	-7.5	-9.25	0.	126.94
4481	-7.25	-9.	0.	126.88
4482	-7.75	-9.	0.	126.97
4483	-8.75	-9.	0.	127.18
4484	-8.5	-9.25	0.	127.13
4485	-8.25	-9.	0.	127.07
4486	8.75	9.	0.	124.82
4487	8.5	9.25	0.	124.95
4488	8.25	9.	0.	124.73
4489	7.25	9.	0.	124.26
4490	7.5	9.25	0.	124.83
4491	7.75	9.	0.	124.54
4492	6.75	9.	0.	124.
4493	7.	9.25	0.	124.72
4494	6.5	9.25	0.	124.71
4495	6.25	9.	0.	124.44
4496	1.5	2.25	0.	130.52
4497	1.25	2.5	0.	128.37
4498	1.5	0.75	0.	130.82
4499	1.25	0.5	0.	128.28
4500	1.75	0.5	0.	130.34
4501	-1.5	0.75	0.	129.72
4502	-1.25	0.5	0.	127.44
4503	-1.5	2.25	0.	130.14
4504	-1.25	2.5	0.	127.76
4505	-1.75	2.5	0.	129.54
4506	-5.5	-2.25	0.	131.78
4507	-5.25	-2.5	0.	128.6
4508	-5.5	-2.75	0.	130.39
4509	-5.5	-0.75	0.	130.64
4510	-5.25	-0.5	0.	127.47
4511	-5.75	-0.5	0.	130.
4512	-3.75	-0.5	0.	126.02
4513	-3.5	-0.75	0.	129.41
4514	-3.5	-0.25	0.	127.85
4515	-3.5	-2.25	0.	129.73
4516	-3.75	-2.5	0.	128.34
4517	-6.5	6.25	0.	129.77
4518	-6.75	6.5	0.	126.48
4519	-6.5	4.75	0.	129.74
4520	-6.75	4.5	0.	126.67
4521	-6.25	4.5	0.	129.15
4522	-8.25	4.5	0.	126.87
4523	-8.5	4.75	0.	130.38
4524	5.5	7.75	0.	131.4
4525	5.25	7.5	0.	129.34
4526	2.75	7.5	0.	129.11
4527	2.5	7.75	0.	130.93
4528	2.5	7.25	0.	129.98
4529	2.25	9.	0.	126.52
4530	2.	9.25	0.	125.25
4531	-0.75	-6.5	0.	126.9
4532	-0.5	-6.25	0.	130.27
4533	-0.25	-6.5	0.	129.82
4534	-3.25	-6.5	0.	126.72
4535	-3.5	-6.25	0.	130.12
4536	-3.5	-6.75	0.	128.48
4537	-3.5	-3.75	0.	130.79
4538	-3.25	-3.5	0.	128.5
4539	-3.75	-3.5	0.	129.62
4540	-0.75	-3.5	0.	127.18
4541	-0.5	-3.75	0.	130.27
4542	-9.25	-9.	0.	127.35
4543	-9.	-9.25	0.	127.27
4544	-9.25	9.	0.	125.18
4545	-9.	9.25	0.	124.94
4546	9.	9.25	0.	124.94
4547	9.25	9.	0.	124.84
4548	9.25	-9.	0.	125.62
4549	9.	-9.25	0.	125.63
4550	1.5	1.75	0.	129.52
4551	1.75	2.	0.	128.52
4552	1.5	1.25	0.	129.74
4553	0.75	0.5	0.	120.72
4554	1.	0.25	0.	124.49
4555	0.25	0.5	0.	116.58
4556	-0.25	0.5	0.	116.36
4557	-0.75	0.5	0.	120.25
4558	-1.5	1.25	0.	128.89
4559	-1.75	1.	0.	127.87
4560	-1.5	1.75	0.	129.1
4561	-1.75	2.	0.	128.15
4562	-0.75	2.5	0.	120.51
4563	-1.	2.75	0.	124.09
4564	0.25	2.5	0.	116.74
4565	0.75	2.5	0.	120.96
4566	-0.25	2.5	0.	116.64
4567	-5.5	-1.75	0.	131.05
4568	-5.75	-2.	0.	130.16
4569	-5.5	-1.25	0.	130.5
4570	-4.75	-0.5	0.	118.38
4571	-4.25	-0.5	0.	117.55
4572	-3.5	-1.25	0.	128.89
4573	-3.5	-1.75	0.	128.63
4574	-4.75	-2.5	0.	119.86
4575	-4.25	-2.5	0.	120.29
4576	-6.5	5.75	0.	129.39
4577	-6.5	5.25	0.	129.32
4578	-7.25	4.5	0.	117.9
4579	-7.75	4.5	0.	117.86
4580	-8.5	5.25	0.	130.
4581	-8.75	5.	0.	129.1
4582	-8.5	5.75	0.	129.88
4583	-8.5	6.25	0.	130.18
4584	-7.75	6.5	0.	117.87
4585	-8.25	6.5	0.	126.82
4586	-7.25	6.5	0.	117.7
4587	-7.5	6.75	0.	115.95
4588	5.5	8.75	0.	128.96
4589	5.5	9.25	0.	128.89
4590	5.75	9.	0.	126.78
4591	5.5	8.25	0.	130.07
4592	4.75	7.5	0.	122.91
4593	5.	7.25	0.	125.99
4594	4.25	7.5	0.	119.68
4595	3.75	7.5	0.	119.63
4596	3.25	7.5	0.	122.84
4597	2.5	8.25	0.	129.68
4598	2.5	8.75	0.	128.73
4599	2.5	9.25	0.	128.63
4600	-1.25	-6.5	0.	117.7
4601	-1.	-6.75	0.	122.31
4602	-1.75	-6.5	0.	112.06
4603	-2.25	-6.5	0.	112.03
4604	-2.75	-6.5	0.	117.57
4605	-2.5	-6.75	0.	113.82
4606	-3.5	-5.75	0.	130.81
4607	-3.5	-5.25	0.	132.64
4608	-3.5	-4.75	0.	132.75
4609	-3.5	-4.25	0.	131.04
4610	-2.75	-3.5	0.	119.66
4611	-2.25	-3.5	0.	113.61
4612	-1.75	-3.5	0.	113.15
4613	-1.25	-3.5	0.	118.41
4614	-0.5	-4.25	0.	131.05
4615	-0.25	-4.	0.	129.14
4616	-0.5	-4.75	0.	132.92
4617	-0.5	-5.25	0.	132.87
4618	-0.5	-5.75	0.	131.01
4619	-9.5	-8.75	0.	127.39
4620	-9.5	-9.25	0.	127.47
4621	-9.5	-8.25	0.	127.28
4622	-9.5	-7.75	0.	127.14
4623	-9.5	-7.25	0.	126.99
4624	-9.25	-7.5	0.	127.01
4625	-9.5	-6.75	0.	126.83
4626	-9.5	-6.25	0.	126.67
4627	-9.5	-5.75	0.	126.54
4628	-9.5	-5.25	0.	126.43
4629	-9.5	-4.75	0.	126.33
4630	-9.5	-4.25	0.	126.26
4631	-9.5	-3.75	0.	126.19
4632	-9.5	-2.75	0.	126.07
4633	-9.5	-3.25	0.	126.13
4634	-9.5	-2.25	0.	126.03
4635	-9.5	-1.75	0.	126.01
4636	-9.5	-1.25	0.	126.03
4637	-9.5	-0.75	0.	126.08
4638	-9.5	-0.25	0.	126.17
4639	-9.5	0.25	0.	126.27
4640	-9.5	0.75	0.	126.39
4641	-9.5	1.25	0.	126.51
4642	-9.5	1.75	0.	126.66
4643	-9.5	2.25	0.	126.85
4644	-9.5	2.75	0.	127.09
4645	-9.5	3.25	0.	127.38
4646	-9.25	3.	0.	126.81
4647	-9.5	3.75	0.	127.66
4648	-9.5	4.25	0.	127.68
4649	-9.5	4.75	0.	127.23
4650	-9.5	5.25	0.	126.64
4651	-9.25	5.	0.	127.46
4652	-9.5	5.75	0.	126.52
4653	-9.5	6.25	0.	126.87
4654	-9.5	6.75	0.	127.11
4655	-9.5	7.25	0.	126.89
4656	-9.5	7.75	0.	126.42
4657	-9.5	8.25	0.	125.93
4658	-9.5	8.75	0.	125.52
4659	-9.5	9.25	0.	125.2
4660	-9.25	9.5	0.	124.96
4661	-8.75	9.5	0.	124.75
4662	-8.25	9.5	0.	124.56
4663	-7.75	9.5	0.	124.42
4664	-7.25	9.5	0.	124.39
4665	-6.75	9.5	0.	124.47
4666	-7.	9.25	0.	124.34
4667	-6.25	9.5	0.	124.6
4668	-6.5	9.25	0.	124.53
4669	-5.75	9.5	0.	124.73
4670	-6.	9.25	0.	124.74
4671	-5.25	9.5	0.	124.83
4672	-4.75	9.5	0.	124.88
4673	-4.25	9.5	0.	124.87
4674	-4.5	9.25	0.	124.95
4675	-3.75	9.5	0.	124.84
4676	-3.25	9.5	0.	124.78
4677	-2.75	9.5	0.	124.71
4678	-2.25	9.5	0.	124.64
4679	-1.75	9.5	0.	124.59
4680	-1.25	9.5	0.	124.56
4681	-0.75	9.5	0.	124.55
4682	-0.25	9.5	0.	124.58
4683	0.25	9.5	0.	124.64
4684	0.75	9.5	0.	124.74
4685	1.25	9.5	0.	124.92
4686	1.	9.25	0.	124.18
4687	1.75	9.5	0.	125.46
4688	2.25	9.5	0.	127.39
4689	2.75	9.5	0.	127.71
4690	3.25	9.5	0.	123.72
4691	3.75	9.5	0.	121.64
4692	4.25	9.5	0.	121.69
4693	4.75	9.5	0.	123.93
4694	5.25	9.5	0.	128.04
4695	5.75	9.5	0.	127.76
4696	6.25	9.5	0.	125.9
4697	6.	9.25	0.	125.61
4698	6.75	9.5	0.	125.43
4699	7.25	9.5	0.	125.3
4700	7.75	9.5	0.	125.22
4701	8.25	9.5	0.	125.14
4702	8.	9.25	0.	124.92
4703	8.75	9.5	0.	125.07
4704	9.25	9.5	0.	125.
4705	9.5	9.25	0.	124.9
4706	9.5	8.75	0.	124.77
4707	9.5	8.25	0.	124.68
4708	9.5	7.75	0.	124.66
4709	9.5	7.25	0.	124.72
4710	9.5	6.75	0.	124.84
4711	9.5	6.25	0.	124.98
4712	9.5	5.75	0.	125.11
4713	9.5	5.25	0.	125.21
4714	9.5	4.75	0.	125.28
4715	9.5	4.25	0.	125.32
4716	9.5	3.75	0.	125.33
4717	9.5	3.25	0.	125.32
4718	9.5	2.75	0.	125.29
4719	9.5	2.25	0.	125.27
4720	9.5	1.75	0.	125.24
4721	9.5	1.25	0.	125.22
4722	9.25	1.5	0.	125.25
4723	9.5	0.75	0.	125.2
4724	9.5	0.25	0.	125.19
4725	9.25	0.5	0.	125.22
4726	9.5	-0.25	0.	125.19
4727	9.5	-0.75	0.	125.19
4728	9.5	-1.25	0.	125.2
4729	9.5	-1.75	0.	125.21
4730	9.5	-2.25	0.	125.22
4731	9.5	-2.75	0.	125.24
4732	9.5	-3.25	0.	125.26
4733	9.5	-3.75	0.	125.28
4734	9.5	-4.25	0.	125.3
4735	9.5	-4.75	0.	125.33
4736	9.5	-5.25	0.	125.36
4737	9.5	-5.75	0.	125.39
4738	9.5	-6.25	0.	125.43
4739	9.5	-6.75	0.	125.47
4740	9.25	-6.5	0.	125.46
4741	9.5	-7.25	0.	125.51
4742	9.5	-7.75	0.	125.54
4743	9.25	-7.5	0.	125.54
4744	9.5	-8.25	0.	125.58
4745	9.5	-8.75	0.	125.6
4746	9.5	-9.25	0.	125.62
4747	9.25	-9.5	0.	125.63
4748	8.75	-9.5	0.	125.65
4749	8.25	-9.5	0.	125.68
4750	7.75	-9.5	0.	125.73
4751	7.25	-9.5	0.	125.78
4752	6.75	-9.5	0.	125.85
4753	6.25	-9.5	0.	125.92
4754	5.75	-9.5	0.	126.
4755	5.25	-9.5	0.	126.09
4756	4.75	-9.5	0.	126.17
4757	4.25	-9.5	0.	126.26
4758	3.75	-9.5	0.	126.33
4759	3.25	-9.5	0.	126.37
4760	2.75	-9.5	0.	126.35
4761	2.25	-9.5	0.	126.25
4762	1.75	-9.5	0.	126.02
4763	1.25	-9.5	0.	125.59
4764	0.75	-9.5	0.	124.94
4765	0.25	-9.5	0.	124.04
4766	-0.25	-9.5	0.	122.94
4767	-0.75	-9.5	0.	121.79
4768	-1.25	-9.5	0.	120.81
4769	-1.75	-9.5	0.	120.23
4770	-2.25	-9.5	0.	120.22
4771	-2.75	-9.5	0.	120.78
4772	-3.25	-9.5	0.	121.76
4773	-3.75	-9.5	0.	122.91
4774	-4.25	-9.5	0.	124.04
4775	-4.75	-9.5	0.	124.98
4776	-5.25	-9.5	0.	125.7
4777	-5.75	-9.5	0.	126.2
4778	-6.25	-9.5	0.	126.54
4779	-6.75	-9.5	0.	126.75
4780	-7.25	-9.5	0.	126.89
4781	-7.	-9.25	0.	126.83
4782	-7.75	-9.5	0.	127.
4783	-8.25	-9.5	0.	127.1
4784	-8.	-9.25	0.	127.03
4785	-8.75	-9.5	0.	127.22
4786	-9.25	-9.5	0.	127.4
4787	-7.5	-2.25	0.	126.87
4788	-7.25	-2.	0.	126.9
4789	6.75	-7.135e-012	0.	125.48
4790	-7.75	-1.	0.	126.44
4791	5.75	2.	0.	125.3
4792	6.25	2.	0.	125.32
4793	2.25	0.5	0.	128.35
4794	2.75	0.5	0.	127.13
4795	4.75	-2.	0.	126.15
4796	-1.5	6.75	0.	124.05
4797	-1.75	7.	0.	124.16
4798	-2.	2.25	0.	127.49
4799	-6.75	-5.	0.	126.08
4800	5.	-6.75	0.	125.68
4801	5.	-7.25	0.	125.79
4802	-1.	3.25	0.	123.25
4803	-1.	3.75	0.	123.09
4804	-0.5	-2.25	0.	123.14
4805	3.75	-4.	0.	125.53
4806	4.25	-4.	0.	125.58
4807	-2.25	2.5	0.	127.37
4808	-2.75	2.5	0.	126.02
4809	6.	-4.25	0.	125.57
4810	5.75	-4.	0.	125.6
4811	6.	-3.75	0.	125.62
4812	7.	-4.25	0.	125.52
4813	-7.25	8.	0.	123.29
4814	3.25	2.	0.	125.53
4815	3.75	2.	0.	125.38
4816	6.5	2.75	0.	125.39
4817	6.25	3.	0.	125.4
4818	6.75	3.	0.	125.43
4819	7.25	-4.5	0.	125.5
4820	1.25	-4.	0.	125.68
4821	1.75	-4.	0.	125.42
4822	1.	-0.25	0.	123.79
4823	-1.	4.75	0.	123.38
4824	-1.75	6.5	0.	124.16
4825	-2.	6.75	0.	124.28
4826	5.	4.75	0.	125.12
4827	5.	5.25	0.	124.97
4828	0.75	-4.	0.	126.27
4829	4.	-5.75	0.	125.43
4830	-2.5	5.75	0.	124.7
4831	-6.25	9.	0.	124.68
4832	-6.75	-6.	0.	126.11
4833	5.25	-4.	0.	125.61
4834	4.75	-4.	0.	125.6
4835	0.25	-4.	0.	127.5
4836	-1.	6.25	0.	123.84
4837	6.25	4.	0.	125.6
4838	3.25	-4.	0.	125.47
4839	2.75	-4.	0.	125.4
4840	-5.5	-3.25	0.	127.63
4841	6.25	-4.5	0.	125.54
4842	6.75	-4.5	0.	125.53
4843	2.5	6.75	0.	127.39
4844	4.5	2.25	0.	125.3
4845	4.5	2.75	0.	125.35
4846	5.	6.75	0.	125.1
4847	5.	6.25	0.	124.83
4848	7.25	-2.	0.	125.55
4849	6.75	-2.	0.	125.63
4850	6.25	-1.	0.	125.7
4851	6.75	-1.	0.	125.59
4852	4.75	0.5	0.	125.69
4853	-2.25	1.	0.	126.02
4854	0.25	-6.5	0.	128.33
4855	6.25	1.	0.	125.39
4856	5.75	1.	0.	125.4
4857	6.5	2.25	0.	125.35
4858	-6.25	-2.	0.	128.28
4859	-6.75	-2.	0.	127.34
4860	6.75	1.	0.	125.37
4861	6.25	-3.	0.	125.67
4862	6.	-3.25	0.	125.67
4863	-1.	4.25	0.	123.18
4864	4.25	2.	0.	125.3
4865	-6.75	9.	0.	124.41
4866	1.	-1.75	0.	124.95
4867	1.	-0.75	0.	123.86
4868	1.	-1.25	0.	124.29
4869	-5.75	4.5	0.	127.42
4870	-7.	2.75	0.	124.09
4871	-1.	-7.25	0.	121.14
4872	-0.5	-1.75	0.	121.88
4873	-7.	0.25	0.	126.79
4874	-1.25	6.5	0.	123.96
4875	6.75	2.	0.	125.34
4876	-3.5	-7.25	0.	125.35
4877	5.25	-2.	0.	125.99
4878	5.75	-2.	0.	125.85
4879	6.75	-3.	0.	125.6
4880	3.25	0.5	0.	126.46
4881	5.25	-1.	0.	125.99
4882	5.	-0.75	0.	126.04
4883	2.75	2.	0.	125.84
4884	-3.25	2.5	0.	125.28
4885	-1.8767e-011	6.75	0.	123.99
4886	2.5	6.25	0.	126.14
4887	5.75	-1.	0.	125.83
4888	2.25	2.	0.	126.66
4889	-2.25	-1.	0.	123.53
4890	6.25	-2.	0.	125.73
4891	5.	5.75	0.	124.84
4892	2.25	-4.	0.	125.37
4893	1.	2.	0.	98.254
4894	-1.	2.	0.	98.215
4895	1.	1.	0.	98.574
4896	-1.	1.	0.	97.834
4897	0.5	2.	0.	114.77
4898	0.	2.	0.	113.27
4899	-0.5	2.	0.	114.54
4900	1.	1.5	0.	103.28
4901	-1.	1.5	0.	102.9
4902	-0.5	1.	0.	114.42
4903	0.	1.	0.	113.18
4904	0.5	1.	0.	114.68
4905	-0.5	1.5	0.	113.17
4906	0.	1.5	0.	116.37
4907	0.5	1.5	0.	113.4
4908	0.75	2.	0.	106.47
4909	1.	1.75	0.	100.74
4910	-0.75	2.	0.	106.34
4911	-1.	1.75	0.	100.54
4912	1.	1.25	0.	100.91
4913	0.75	1.	0.	106.59
4914	-1.	1.25	0.	100.35
4915	-0.75	1.	0.	106.09
4916	0.25	2.	0.	114.01
4917	0.5	1.75	0.	114.06
4918	-0.25	2.	0.	113.9
4919	0.	1.75	0.	114.81
4920	-0.5	1.75	0.	113.84
4921	0.75	1.5	0.	108.33
4922	-0.75	1.5	0.	108.02
4923	-0.25	1.	0.	113.79
4924	-0.5	1.25	0.	113.78
4925	0.25	1.	0.	113.92
4926	0.	1.25	0.	114.76
4927	0.5	1.25	0.	114.02
4928	-0.25	1.5	0.	114.77
4929	0.25	1.5	0.	114.88
4930	-1.	-4.	0.	96.431
4931	-3.	-4.	0.	96.865
4932	-1.	-6.	0.	96.231
4933	-3.	-6.	0.	96.194
4934	-1.5	-4.	0.	110.43
4935	-2.	-4.	0.	108.22
4936	-2.5	-4.	0.	110.84
4937	-1.	-4.5	0.	100.63
4938	-1.	-5.	0.	99.332
4939	-1.	-5.5	0.	100.46
4940	-3.	-4.5	0.	100.82
4941	-3.	-5.	0.	99.321
4942	-3.	-5.5	0.	100.35
4943	-2.5	-6.	0.	109.83
4944	-2.	-6.	0.	107.45
4945	-1.5	-6.	0.	109.89
4946	-2.	-5.	0.	110.06
4947	-1.5	-5.	0.	107.03
4948	-1.5	-5.5	0.	107.63
4949	-2.	-5.5	0.	110.06
4950	-2.5	-5.5	0.	107.6
4951	-2.5	-5.	0.	107.07
4952	-2.5	-4.5	0.	108.09
4953	-2.	-4.5	0.	110.49
4954	-1.5	-4.5	0.	107.91
4955	-1.25	-4.	0.	103.36
4956	-1.	-4.25	0.	98.519
4957	-2.75	-4.	0.	103.77
4958	-3.	-4.25	0.	98.829
4959	-1.	-5.75	0.	98.332
4960	-1.25	-6.	0.	102.99
4961	-3.	-5.75	0.	98.263
4962	-2.75	-6.	0.	102.94
4963	-1.75	-4.	0.	109.33
4964	-1.5	-4.25	0.	109.15
4965	-2.25	-4.	0.	109.53
4966	-2.	-4.25	0.	109.34
4967	-2.5	-4.25	0.	109.44
4968	-1.	-4.75	0.	99.95
4969	-1.25	-4.5	0.	104.26
4970	-1.	-5.25	0.	99.862
4971	-1.25	-5.	0.	103.18
4972	-1.25	-5.5	0.	104.03
4973	-3.	-4.75	0.	100.04
4974	-2.75	-4.5	0.	104.44
4975	-3.	-5.25	0.	99.805
4976	-2.75	-5.	0.	103.19
4977	-2.75	-5.5	0.	103.96
4978	-2.25	-6.	0.	108.64
4979	-2.5	-5.75	0.	108.69
4980	-1.75	-6.	0.	108.67
4981	-2.	-5.75	0.	108.74
4982	-1.5	-5.75	0.	108.73
4983	-1.75	-5.	0.	108.55
4984	-2.	-5.25	0.	110.06
4985	-2.25	-5.	0.	108.56
4986	-2.	-4.75	0.	110.28
4987	-1.5	-5.25	0.	107.32
4988	-1.5	-4.75	0.	107.46
4989	-1.75	-5.5	0.	108.83
4990	-2.25	-5.5	0.	108.82
4991	-2.5	-5.25	0.	107.32
4992	-2.5	-4.75	0.	107.57
4993	-2.25	-4.5	0.	109.28
4994	-1.75	-4.5	0.	109.19
4995	5.	9.	0.	99.616
4996	3.	9.	0.	99.559
4997	5.	8.	0.	100.43
4998	3.	8.	0.	100.11
4999	4.5	9.	0.	119.23
5000	4.	9.	0.	118.71
5001	3.5	9.	0.	119.14
5002	5.	8.5	0.	105.18
5003	3.	8.5	0.	105.03
5004	3.5	8.	0.	117.82
5005	4.	8.	0.	117.03
5006	4.5	8.	0.	117.89
5007	3.5	8.5	0.	117.08
5008	4.	8.5	0.	121.1
5009	4.5	8.5	0.	117.19
5010	4.75	9.	0.	109.36
5011	5.	8.75	0.	102.37
5012	3.25	9.	0.	109.29
5013	3.	8.75	0.	102.27
5014	5.	8.25	0.	102.78
5015	4.75	8.	0.	109.14
5016	3.	8.25	0.	102.54
5017	3.25	8.	0.	108.94
5018	4.25	9.	0.	118.97
5019	4.5	8.75	0.	118.19
5020	3.75	9.	0.	118.93
5021	4.	8.75	0.	119.9
5022	3.5	8.75	0.	118.09
5023	4.75	8.5	0.	111.17
5024	3.25	8.5	0.	111.04
5025	3.75	8.	0.	117.42
5026	3.5	8.25	0.	117.44
5027	4.25	8.	0.	117.45
5028	4.	8.25	0.	119.06
5029	4.5	8.25	0.	117.53
5030	3.75	8.5	0.	119.09
5031	4.25	8.5	0.	119.14
5032	-7.	6.	0.	97.88
5033	-8.	6.	0.	97.984
5034	-7.	5.	0.	97.742
5035	-8.	5.	0.	98.175
5036	-7.5	6.	0.	113.38
5037	-7.	5.5	0.	103.02
5038	-8.	5.5	0.	103.24
5039	-7.5	5.	0.	113.42
5040	-7.5	5.5	0.	110.8
5041	-7.25	6.	0.	105.61
5042	-7.	5.75	0.	100.44
5043	-7.75	6.	0.	105.66
5044	-8.	5.75	0.	100.6
5045	-7.	5.25	0.	100.37
5046	-7.25	5.	0.	105.56
5047	-8.	5.25	0.	100.7
5048	-7.75	5.	0.	105.78
5049	-7.5	5.75	0.	112.04
5050	-7.25	5.5	0.	106.89
5051	-7.75	5.5	0.	107.
5052	-7.5	5.25	0.	112.06
5053	-4.	-1.	0.	98.28
5054	-5.	-1.	0.	98.263
5055	-4.	-2.	0.	98.308
5056	-5.	-2.	0.	99.444
5057	-4.5	-1.	0.	113.76
5058	-4.	-1.5	0.	103.43
5059	-5.	-1.5	0.	104.11
5060	-4.5	-2.	0.	114.7
5061	-4.5	-1.5	0.	111.66
5062	-4.25	-1.	0.	106.01
5063	-4.	-1.25	0.	100.85
5064	-4.75	-1.	0.	105.99
5065	-5.	-1.25	0.	101.17
5066	-4.	-1.75	0.	100.85
5067	-4.25	-2.	0.	106.47
5068	-5.	-1.75	0.	101.77
5069	-4.75	-2.	0.	107.06
5070	-4.5	-1.25	0.	112.66
5071	-4.25	-1.5	0.	107.52
5072	-4.75	-1.5	0.	107.86
5073	-4.5	-1.75	0.	113.14
