Node Number	X Location (mm)	Y Location (mm)	Z Location (mm)	Equivalent (von-Mises) Stress (MPa)
1	-0.17	6.46	0.	158.37
2	1.25	5.33	0.	136.62
3	1.53	7.12	0.	155.6
4	-5.87	7.03	0.	169.55
5	-7.38	7.4	0.	165.75
6	-6.95	5.91	0.	117.02
7	-2.68	5.51	0.	170.72
8	-1.59	5.46	0.	167.91
9	-2.09	6.44	0.	102.66
10	4.28	6.51	0.	164.05
11	3.19	7.65	0.	125.04
12	2.75	6.13	0.	171.29
13	-4.69	-2.2	0.	111.53
14	-4.	-0.6	0.	164.84
15	-5.73	-0.8	0.	171.11
16	-1.7	0.62	0.	187.96
17	-2.96	0.59	0.	175.37
18	-2.3	-0.49	0.	112.29
19	4.66	0.13	0.	146.86
20	5.64	0.69	0.	153.
21	4.66	1.26	0.	144.6
22	-0.34	-1.16	0.	126.23
23	6.e-002	0.46	0.	150.
24	-1.54	-5.421e-017	0.	171.89
25	-6.71	-7.44	0.	111.07
26	-7.21	-8.54	0.	167.62
27	-6.01	-8.42	0.	179.86
28	3.3	-8.3	0.	132.16
29	3.48	-6.54	0.	150.06
30	1.87	-7.27	0.	156.81
31	5.36	-5.51	0.	172.55
32	4.08	-5.79	0.	178.98
33	4.96	-6.77	0.	121.89
34	-2.79	-6.64	0.	146.04
35	-4.48	-7.5	0.	154.61
36	-2.89	-8.54	0.	134.19
37	4.	6.	0.	125.39
38	4.	5.	0.	129.34
39	6.	6.	0.	138.81
40	6.	5.	0.	137.25
41	7.	-1.	0.	137.76
42	7.	-3.	0.	136.83
43	9.	-1.	0.	139.88
44	9.	-3.	0.	140.01
45	6.	-6.	0.	132.02
46	6.	-8.	0.	131.74
47	7.	-6.	0.	129.47
48	7.	-8.	0.	131.75
49	10.	10.	0.	125.01
50	-10.	10.	0.	125.01
51	10.	-10.	0.	131.
52	-10.	-10.	0.	129.83
53	4.3969	6.	0.	133.76
54	-1.9001	0.24974	0.	115.65
55	3.8975	6.415	0.	107.99
56	0.185	6.1775	0.	87.393
57	0.54	5.895	0.	105.87
58	0.895	5.6125	0.	94.702
59	0.255	6.625	0.	96.38
60	0.68	6.79	0.	111.61
61	1.105	6.955	0.	104.18
62	1.32	5.7775	0.	142.33
63	1.39	6.225	0.	143.06
64	1.46	6.6725	0.	143.89
65	-6.3733	7.1533	0.	103.57
66	-6.8767	7.2767	0.	112.1
67	-6.23	6.6567	0.	79.297
68	-6.59	6.2833	0.	88.609
69	-7.2367	6.9033	0.	136.46
70	-7.0933	6.4067	0.	131.83
71	-2.135	5.485	0.	102.7
72	-2.385	5.975	0.	96.45
73	-1.84	5.95	0.	105.93
74	3.9167	6.89	0.	82.197
75	3.5533	7.27	0.	90.545
76	3.1325	6.225	0.	119.9
77	3.515	6.32	0.	99.44
78	3.0433	7.1433	0.	138.29
79	2.8967	6.6367	0.	144.02
80	-4.5175	-1.8	0.	118.87
81	-4.345	-1.4	0.	129.94
82	-4.1725	-1.	0.	131.63
83	-4.95	-1.85	0.	99.05
84	-5.21	-1.5	0.	111.99
85	-5.47	-1.15	0.	105.85
86	-4.4325	-0.65	0.	108.64
87	-4.865	-0.7	0.	117.96
88	-5.2975	-0.75	0.	104.74
89	-2.12	0.61	0.	111.42
90	-2.54	0.6	0.	110.74
91	-2.1002	-0.12032	0.	103.75
92	-2.74	0.23	0.	116.91
93	-2.52	-0.13	0.	103.44
94	5.15	0.41	0.	76.019
95	4.66	0.695	0.	146.2
96	5.15	0.975	0.	74.37
97	-0.24001	-0.75503	0.	131.51
98	-0.14001	-0.35003	0.	137.8
99	-4.0003e-002	5.4986e-002	0.	140.92
100	-0.63994	-0.87006	0.	96.411
101	-0.93987	-0.58012	0.	109.92
102	-1.2399	-0.29006	0.	94.46
103	-0.47333	0.30667	0.	110.48
104	-1.0067	0.15333	0.	106.67
105	-6.8767	-7.8067	0.	111.45
106	-7.0433	-8.1733	0.	128.57
107	-6.4767	-7.7667	0.	90.318
108	-6.2433	-8.0933	0.	102.59
109	-6.81	-8.5	0.	108.77
110	-6.41	-8.46	0.	89.883
111	3.345	-7.86	0.	141.46
112	3.39	-7.42	0.	145.76
113	3.435	-6.98	0.	148.66
114	2.9425	-8.0425	0.	97.566
115	2.585	-7.785	0.	106.05
116	2.2275	-7.5275	0.	88.626
117	3.0775	-6.7225	0.	105.23
118	2.675	-6.905	0.	112.36
119	2.2725	-7.0875	0.	94.971
120	4.9333	-5.6033	0.	111.47
121	4.5067	-5.6967	0.	105.82
122	5.2267	-5.93	0.	143.19
123	5.0933	-6.35	0.	135.93
124	4.3733	-6.1167	0.	87.927
125	4.6667	-6.4433	0.	91.883
126	-3.2125	-6.855	0.	97.678
127	-3.635	-7.07	0.	107.08
128	-4.0575	-7.285	0.	90.786
129	-2.815	-7.115	0.	141.68
130	-2.84	-7.59	0.	141.38
131	-2.865	-8.065	0.	139.64
132	-4.0825	-7.76	0.	85.27
133	-3.685	-8.02	0.	103.81
134	-3.2875	-8.28	0.	92.111
135	4.	5.5	0.	134.81
136	5.5962	6.	0.	116.32
137	5.195	6.	0.	123.77
138	4.796	6.	0.	135.79
139	4.5	5.	0.	119.34
140	5.	5.	0.	125.67
141	5.5	5.	0.	119.96
142	6.	5.5	0.	145.57
143	7.	-1.5	0.	146.18
144	7.	-2.	0.	146.68
145	7.	-2.5	0.	145.23
146	7.5	-1.	0.	116.31
147	8.	-1.	0.	120.95
148	8.5	-1.	0.	116.98
149	7.5	-3.	0.	115.51
150	8.	-3.	0.	121.17
151	8.5	-3.	0.	117.84
152	9.	-1.5	0.	151.02
153	9.	-2.	0.	152.99
154	9.	-2.5	0.	151.24
155	6.	-6.5	0.	143.21
156	6.	-7.	0.	145.19
157	6.	-7.5	0.	143.71
158	6.5	-6.	0.	104.71
159	6.5	-8.	0.	107.99
160	7.	-6.5	0.	139.85
161	7.	-7.	0.	141.16
162	7.	-7.5	0.	141.2
163	9.5	10.	0.	125.03
164	9.	10.	0.	125.18
165	8.5	10.	0.	125.41
166	8.	10.	0.	125.63
167	7.5	10.	0.	125.78
168	7.	10.	0.	125.8
169	6.5	10.	0.	125.66
170	6.	10.	0.	125.34
171	5.5	10.	0.	124.8
172	5.	10.	0.	124.04
173	4.5	10.	0.	123.17
174	4.	10.	0.	122.49
175	3.5	10.	0.	122.41
176	3.	10.	0.	123.
177	2.5	10.	0.	123.9
178	2.	10.	0.	124.52
179	1.5	10.	0.	124.67
180	1.	10.	0.	124.6
181	0.5	10.	0.	124.67
182	-5.2042e-015	10.	0.	125.
183	-0.5	10.	0.	125.44
184	-1.	10.	0.	125.8
185	-1.5	10.	0.	126.
186	-2.	10.	0.	126.13
187	-2.5	10.	0.	126.32
188	-3.	10.	0.	126.61
189	-3.5	10.	0.	126.91
190	-4.	10.	0.	127.03
191	-4.5	10.	0.	126.75
192	-5.	10.	0.	125.88
193	-5.5	10.	0.	124.47
194	-6.	10.	0.	122.94
195	-6.5	10.	0.	121.9
196	-7.	10.	0.	121.79
197	-7.5	10.	0.	122.55
198	-8.	10.	0.	123.64
199	-8.5	10.	0.	124.54
200	-9.	10.	0.	124.96
201	-9.5	10.	0.	125.03
202	10.	9.5	0.	124.96
203	10.	9.	0.	124.64
204	10.	8.5	0.	124.12
205	10.	8.	0.	123.51
206	10.	7.5	0.	122.87
207	10.	7.	0.	122.31
208	10.	6.5	0.	121.94
209	10.	6.	0.	121.87
210	10.	5.5	0.	122.2
211	10.	5.	0.	122.9
212	10.	4.5	0.	123.84
213	10.	4.	0.	124.85
214	10.	3.5	0.	125.77
215	10.	3.	0.	126.51
216	10.	2.5	0.	127.13
217	10.	2.	0.	127.82
218	10.	1.5	0.	128.92
219	10.	1.	0.	130.83
220	10.	0.5	0.	133.89
221	10.	-5.2042e-015	0.	137.78
222	10.	-0.5	0.	139.5
223	10.	-1.	0.	136.76
224	10.	-1.5	0.	133.25
225	10.	-2.	0.	133.57
226	10.	-2.5	0.	134.32
227	10.	-3.	0.	138.74
228	10.	-3.5	0.	142.04
229	10.	-4.	0.	140.38
230	10.	-4.5	0.	136.1
231	10.	-5.	0.	132.17
232	10.	-5.5	0.	129.03
233	10.	-6.	0.	126.75
234	10.	-6.5	0.	125.41
235	10.	-7.	0.	125.12
236	10.	-7.5	0.	125.77
237	10.	-8.	0.	127.08
238	10.	-8.5	0.	128.59
239	10.	-9.	0.	129.89
240	10.	-9.5	0.	130.72
241	-10.	9.5	0.	124.93
242	-10.	9.	0.	124.68
243	-10.	8.5	0.	123.97
244	-10.	8.	0.	122.6
245	-10.	7.5	0.	121.
246	-10.	7.	0.	120.18
247	-10.	6.5	0.	120.83
248	-10.	6.	0.	122.73
249	-10.	5.5	0.	125.02
250	-10.	5.	0.	126.86
251	-10.	4.5	0.	127.95
252	-10.	4.	0.	128.34
253	-10.	3.5	0.	128.3
254	-10.	3.	0.	128.01
255	-10.	2.5	0.	127.61
256	-10.	2.	0.	127.12
257	-10.	1.5	0.	126.57
258	-10.	1.	0.	125.96
259	-10.	0.5	0.	125.34
260	-10.	-5.2042e-015	0.	124.8
261	-10.	-0.5	0.	124.47
262	-10.	-1.	0.	124.46
263	-10.	-1.5	0.	124.82
264	-10.	-2.	0.	125.5
265	-10.	-2.5	0.	126.38
266	-10.	-3.	0.	127.32
267	-10.	-3.5	0.	128.19
268	-10.	-4.	0.	128.91
269	-10.	-4.5	0.	129.44
270	-10.	-5.	0.	129.74
271	-10.	-5.5	0.	129.75
272	-10.	-6.	0.	129.41
273	-10.	-6.5	0.	128.63
274	-10.	-7.	0.	127.49
275	-10.	-7.5	0.	126.36
276	-10.	-8.	0.	125.87
277	-10.	-8.5	0.	126.44
278	-10.	-9.	0.	127.85
279	-10.	-9.5	0.	129.27
280	-9.5	-10.	0.	129.59
281	-9.	-10.	0.	130.7
282	-8.5	-10.	0.	132.07
283	-8.	-10.	0.	131.37
284	-7.5	-10.	0.	125.86
285	-7.	-10.	0.	117.64
286	-6.5	-10.	0.	116.45
287	-6.	-10.	0.	123.01
288	-5.5	-10.	0.	130.27
289	-5.	-10.	0.	131.05
290	-4.5	-10.	0.	126.53
291	-4.	-10.	0.	119.97
292	-3.5	-10.	0.	115.61
293	-3.	-10.	0.	116.94
294	-2.5	-10.	0.	123.35
295	-2.	-10.	0.	129.31
296	-1.5	-10.	0.	132.1
297	-1.	-10.	0.	132.76
298	-0.5	-10.	0.	132.82
299	5.2042e-015	-10.	0.	132.7
300	0.5	-10.	0.	132.27
301	1.	-10.	0.	131.02
302	1.5	-10.	0.	128.36
303	2.	-10.	0.	124.35
304	2.5	-10.	0.	120.29
305	3.	-10.	0.	118.86
306	3.5	-10.	0.	121.06
307	4.	-10.	0.	124.76
308	4.5	-10.	0.	126.77
309	5.	-10.	0.	126.46
310	5.5	-10.	0.	124.38
311	6.	-10.	0.	121.83
312	6.5	-10.	0.	120.74
313	7.	-10.	0.	122.11
314	7.5	-10.	0.	124.91
315	8.	-10.	0.	127.33
316	8.5	-10.	0.	128.66
317	9.	-10.	0.	129.26
318	9.5	-10.	0.	129.8
319	-5.8454	2.9318	0.	125.01
320	-5.3931	2.6572	0.	125.5
321	-4.6104	3.4642	0.	127.71
322	-0.3856	-4.617	0.	128.16
323	2.4338	-3.2208	0.	127.74
324	1.0921	-3.7162	0.	128.57
325	-6.2441	2.932	0.	124.62
326	-5.2561	3.5976	0.	126.42
327	4.4973	-3.5506	0.	122.41
328	-4.5709	4.0287	0.	128.39
329	0.63348	-3.7341	0.	128.18
330	0.13549	-4.6647	0.	128.63
331	4.5123	-3.0907	0.	122.36
332	-0.35818	-5.1334	0.	128.69
333	-1.3994	-4.2928	0.	126.54
334	-0.94189	-4.5544	0.	127.58
335	1.8665	2.3927	0.	129.75
336	1.5911	-0.92446	0.	127.01
337	-4.5173	2.9037	0.	127.24
338	3.9899	-2.668	0.	123.18
339	2.0681	-4.1746	0.	127.63
340	4.0039	-3.1183	0.	123.45
341	2.4461	-1.9205	0.	127.48
342	0.13472	-4.1641	0.	128.02
343	-1.343	-3.8528	0.	125.81
344	-1.8237	-3.7659	0.	125.37
345	-5.3547	2.1789	0.	124.85
346	-5.8111	2.5352	0.	124.99
347	-6.2405	2.4833	0.	124.91
348	-6.2345	2.0262	0.	125.09
349	-0.8662	-4.0045	0.	126.54
350	-0.36851	-4.0999	0.	127.31
351	1.8923	-3.1991	0.	128.52
352	2.9644	-3.2138	0.	126.66
353	1.5879	-4.1507	0.	128.2
354	1.1129	-4.1911	0.	128.53
355	-6.6833	2.0004	0.	125.57
356	-6.6779	2.4765	0.	125.03
357	-6.6045	3.4177	0.	123.73
358	4.5714	7.3128	0.	127.79
359	3.9506	-2.2137	0.	123.18
360	-4.4638	2.3747	0.	126.9
361	-3.6223e-002	3.4984	0.	127.23
362	2.5363	-4.2511	0.	127.34
363	-1.4127	-4.7273	0.	127.34
364	4.4986	-2.628	0.	122.01
365	2.6167	2.9356	0.	130.19
366	2.7126	2.4733	0.	129.84
367	-6.5012	3.8952	0.	122.73
368	0.15595	-5.1658	0.	129.04
369	-4.0939	3.5047	0.	128.15
370	-4.0482	2.9704	0.	127.55
371	-6.685	1.5242	0.	126.24
372	-4.8844	1.7812	0.	124.31
373	-5.3333	1.6964	0.	123.6
374	-3.2114	-4.2002	0.	122.35
375	-1.8628	-4.2549	0.	125.71
376	-1.787	-3.2677	0.	124.94
377	-1.3065	-3.3638	0.	124.86
378	1.9705	-1.8656	0.	128.41
379	-0.54617	3.0126	0.	125.98
380	3.9986	-3.5755	0.	123.88
381	2.2765	2.3955	0.	129.83
382	-5.5339	3.8756	0.	125.68
383	-6.574	-4.411	0.	125.67
384	-6.5859	-3.9213	0.	126.43
385	-5.5687	-4.9143	0.	124.35
386	0.6383	-4.6887	0.	128.88
387	-6.9622	3.9442	0.	122.64
388	1.5909	-4.656	0.	127.84
389	1.1207	-4.6791	0.	128.63
390	-5.5639	-5.4439	0.	125.55
391	-5.0654	-4.8981	0.	123.47
392	-5.1789	4.2517	0.	127.13
393	-2.5747	3.0327	0.	122.71
394	2.2897	1.9514	0.	129.08
395	2.2399	1.4964	0.	127.9
396	3.4919	-3.6341	0.	125.8
397	0.46929	2.9897	0.	127.37
398	-3.8249e-002	2.998	0.	126.73
399	-0.82671	-3.487	0.	125.33
400	-2.3351	-4.2367	0.	124.59
401	-2.8024	-4.2347	0.	123.32
402	-5.7805	1.6173	0.	124.18
403	-6.2314	1.5586	0.	125.33
404	-3.0727	3.0247	0.	124.82
405	-3.5635	3.0055	0.	126.75
406	0.97665	2.9645	0.	128.22
407	-1.0549	3.0257	0.	124.66
408	-7.0346	3.4603	0.	123.75
409	-7.0988	2.9767	0.	124.58
410	-7.1453	1.5094	0.	126.64
411	-7.1379	1.9983	0.	125.91
412	-7.1448	1.0189	0.	127.45
413	-4.111	4.0413	0.	129.12
414	5.0031	-2.5921	0.	122.03
415	-1.362	-5.1749	0.	128.36
416	-0.30831	-6.1511	0.	127.82
417	-5.6558e-002	3.9765	0.	128.
418	4.9734	7.3433	0.	124.12
419	1.0678	-0.92639	0.	128.38
420	5.4888	-2.0657	0.	122.93
421	5.0923	3.5676	0.	119.25
422	-4.2857	6.0847	0.	125.09
423	2.0907	-5.098	0.	125.45
424	-5.5872	-4.393	0.	123.64
425	-2.7489	-3.2029	0.	125.82
426	-5.8667	4.1723	0.	124.32
427	-3.5933	3.5229	0.	127.42
428	-4.7243	4.5872	0.	128.41
429	-0.54939	3.5169	0.	127.28
430	-2.0803	3.5304	0.	121.34
431	2.74	2.0057	0.	129.19
432	5.1313	3.0971	0.	119.25
433	3.8956	-1.7513	0.	123.71
434	2.6862	-0.92721	0.	126.58
435	2.6399	0.59166	0.	124.69
436	3.0145	-4.1919	0.	127.59
437	4.4603	-4.0068	0.	121.89
438	0.94126	2.469	0.	128.83
439	1.8007	1.5209	0.	128.71
440	1.4636	-1.8418	0.	129.55
441	0.22781	-3.1934	0.	127.
442	-1.263	-2.8552	0.	123.67
443	-1.881	-4.7331	0.	126.27
444	-0.8322	-5.6414	0.	128.7
445	-0.83713	-7.1116	0.	125.68
446	-6.6839	1.041	0.	127.26
447	-4.8658	1.2829	0.	121.66
448	-5.3182	1.2102	0.	121.66
449	3.1322	2.996	0.	129.18
450	5.6232	3.0937	0.	121.51
451	-2.5566	2.5341	0.	122.41
452	-2.0579	2.538	0.	121.63
453	-7.1351	0.52111	0.	128.18
454	-7.0733	-3.9389	0.	127.03
455	-7.0834	-3.4586	0.	127.75
456	-7.551	-4.93	0.	126.35
457	-7.5548	-4.4445	0.	126.84
458	-7.5598	-3.9573	0.	127.33
459	-7.567	-3.4706	0.	127.74
460	-7.5689	-2.4997	0.	127.66
461	-7.5463	-2.0118	0.	126.89
462	-7.4949	-1.5234	0.	125.77
463	-7.5836	8.7795e-004	0.	126.9
464	-7.6015	0.50706	0.	127.32
465	-7.6099	1.0085	0.	127.16
466	-7.6016	2.0024	0.	126.13
467	-7.5519	2.9979	0.	125.
468	-7.5005	3.4966	0.	124.4
469	-1.5561	2.5345	0.	122.74
470	0.99754	3.472	0.	127.28
471	1.526	3.4096	0.	128.92
472	-3.0471	2.5179	0.	124.84
473	-3.528	2.4867	0.	127.05
474	6.1098	3.0806	0.	124.93
475	3.6376	3.0414	0.	126.79
476	-4.9246	5.5628	0.	128.45
477	-6.2267	1.0814	0.	125.97
478	-7.516	-1.0204	0.	125.32
479	-0.82021	-6.6292	0.	126.73
480	-0.81813	-6.1404	0.	128.01
481	-2.3699	-4.7362	0.	124.25
482	-2.8832	-4.7443	0.	121.69
483	-0.28982	-3.1014	0.	125.17
484	1.3634	-2.2813	0.	129.65
485	2.1125	0.55498	0.	125.33
486	2.1441	1.0394	0.	126.57
487	0.4498	2.4862	0.	127.61
488	-4.8298e-002	2.4984	0.	126.22
489	3.9741	-4.0388	0.	124.67
490	3.4896	-4.1257	0.	127.08
491	2.6484	8.9052e-002	0.	124.86
492	4.4237	-1.6897	0.	121.39
493	4.9484	-1.6223	0.	120.21
494	4.6359	3.0874	0.	119.97
495	2.7158	1.5409	0.	127.65
496	2.6706	1.0655	0.	125.83
497	-1.5684	3.5299	0.	123.09
498	-1.0578	3.529	0.	125.82
499	-4.43	5.5848	0.	126.61
500	-4.5452	5.0967	0.	128.13
501	-3.0923	3.5299	0.	125.2
502	-2.5873	3.5311	0.	122.4
503	-5.3685	5.7054	0.	129.77
504	-5.5095	4.5903	0.	126.24
505	-5.1062	5.0141	0.	128.17
506	-7.9586	4.0147	0.	125.47
507	-1.7371	-2.7504	0.	124.32
508	-2.2265	-2.686	0.	125.21
509	-6.6159	-2.9633	0.	128.45
510	-4.1061	-4.3471	0.	120.95
511	-4.5988	-4.3473	0.	121.28
512	-4.502	-5.2803	0.	122.69
513	-5.0055	-5.46	0.	125.32
514	1.6267	-5.1478	0.	127.5
515	1.1525	-5.18	0.	128.99
516	6.1481	2.6043	0.	125.6
517	5.6623	2.6238	0.	121.44
518	-4.0702	7.0839	0.	125.97
519	-4.1603	6.587	0.	125.06
520	1.0183	-0.45559	0.	126.56
521	0.81719	-2.7551	0.	128.83
522	1.9727	-8.2188	0.	128.
523	-7.5421	-5.4082	0.	125.93
524	5.0594	4.0406	0.	118.72
525	-4.8536	0.78746	0.	117.55
526	-4.8481	0.29241	0.	112.59
527	-4.4081	1.3537	0.	124.44
528	-6.1276	-1.9945	0.	129.86
529	-3.7575	-6.0215	0.	115.91
530	5.9926	-2.0346	0.	127.14
531	4.8775	6.9435	0.	122.3
532	4.1197e-003	4.4081	0.	127.95
533	7.4346	6.9687	0.	126.96
534	7.4521	6.4705	0.	126.71
535	7.5266	3.5148	0.	128.69
536	7.5474	3.0249	0.	128.07
537	7.5871	1.5382	0.	123.85
538	7.5681	1.0326	0.	121.39
539	4.9347	7.7448	0.	126.68
540	5.4363	7.7208	0.	124.71
541	5.9218	7.6983	0.	124.96
542	6.8801	7.4577	0.	127.09
543	7.4268	7.4755	0.	126.72
544	-0.3111	-6.6405	0.	126.62
545	-0.32784	-7.1234	0.	125.85
546	-0.36172	-7.6017	0.	126.07
547	-0.86661	-7.5903	0.	125.74
548	-1.3661	-7.5857	0.	125.58
549	2.6178	-5.3652	0.	121.4
550	2.5673	3.8862	0.	131.15
551	-2.0487	2.0427	0.	120.66
552	2.061	3.8736	0.	131.09
553	0.45633	4.0899	0.	125.36
554	-3.9692	1.9249	0.	128.54
555	-2.5405	2.0377	0.	121.33
556	7.0431	3.5283	0.	129.09
557	5.5849	3.5658	0.	121.52
558	7.4871	5.485	0.	125.97
559	7.5157	4.0078	0.	128.97
560	4.5983	3.5551	0.	119.76
561	3.0907	3.4582	0.	129.26
562	-4.737	6.1127	0.	126.75
563	-6.6743	0.55071	0.	128.74
564	-5.308	0.72209	0.	119.24
565	-6.9212	-1.5828	0.	126.56
566	-7.1142	1.7004e-002	0.	128.05
567	-1.3356	-5.6577	0.	129.12
568	-1.3394	-7.1072	0.	125.87
569	-3.3767	-5.3231	0.	117.62
570	-1.8629	-5.2072	0.	127.51
571	0.30779	-2.7086	0.	127.07
572	1.3901	1.515	0.	129.71
573	1.5763	3.9484e-002	0.	125.03
574	-0.55019	2.018	0.	124.26
575	0.92176	1.9771	0.	129.52
576	3.0181	-4.7062	0.	127.56
577	4.405	-4.4356	0.	121.55
578	5.4653	-1.5573	0.	122.17
579	5.5027	-2.5621	0.	123.74
580	3.2255	-0.86772	0.	127.08
581	3.8252	-1.2778	0.	125.29
582	3.6828	2.5723	0.	127.87
583	5.1706	2.6287	0.	118.16
584	3.1629	0.62672	0.	124.45
585	-0.549	4.0285	0.	129.5
586	-4.1407	4.5659	0.	129.36
587	-2.0852	4.0264	0.	119.3
588	-3.6081	4.0398	0.	128.91
589	5.0073	-3.0725	0.	122.71
590	4.9905	-3.5565	0.	122.79
591	4.95	-4.053	0.	121.82
592	-1.1883	-2.3385	0.	122.48
593	-6.3283	4.3975	0.	121.65
594	-6.8776	4.3871	0.	120.8
595	-7.5463	5.0194	0.	125.42
596	-3.0631	-1.9861	0.	127.55
597	-3.2251	-3.2614	0.	125.73
598	-6.1159	-3.413	0.	126.2
599	-3.6885	-3.7745	0.	122.65
600	-5.61	-3.8767	0.	123.3
601	-4.2633	-5.6945	0.	122.02
602	0.69141	-5.6877	0.	129.73
603	2.1599	-5.5421	0.	123.46
604	0.20327	-6.1695	0.	128.32
605	-7.513	-5.848	0.	125.57
606	-5.6093	-6.0053	0.	126.98
607	5.21	2.1683	0.	115.2
608	6.6495	2.091	0.	128.37
609	7.117	1.5613	0.	125.44
610	-3.8121	6.0667	0.	124.46
611	-4.4962	7.593	0.	128.
612	-4.0224	7.5731	0.	126.87
613	-3.5408	7.5541	0.	126.17
614	7.5455	0.52562	0.	119.45
615	-3.602	7.0578	0.	126.72
616	-3.6874	6.5624	0.	126.29
617	7.065	0.54144	0.	121.74
618	6.1737	2.123	0.	127.51
619	5.6942	2.1548	0.	122.73
620	-6.1229	-5.9076	0.	124.09
621	-6.6011	-5.8735	0.	122.7
622	0.15111	-7.6185	0.	126.49
623	0.19162	-7.1435	0.	125.9
624	1.6804	-5.6406	0.	127.92
625	1.1897	-5.6803	0.	129.73
626	-4.7091	-5.8878	0.	126.47
627	-5.1247	-5.9695	0.	128.03
628	-5.122	-3.8495	0.	121.34
629	-4.158	-3.8136	0.	121.22
630	-6.1839	-2.4759	0.	129.2
631	-6.1447	-2.9359	0.	127.8
632	-3.237	-2.8215	0.	127.31
633	-3.1883	-2.4149	0.	128.37
634	-5.9317	4.8242	0.	123.89
635	-5.6041	5.2456	0.	127.62
636	-1.6401	-2.1998	0.	123.55
637	-2.118	-2.1517	0.	124.33
638	6.9347	6.4464	0.	128.46
639	6.917	6.9369	0.	128.32
640	6.3768	7.2782	0.	126.37
641	5.4515	-4.0569	0.	125.23
642	-2.5955	4.0289	0.	121.5
643	-4.0503	5.0731	0.	128.11
644	-1.5735	4.0293	0.	123.13
645	-1.0598	4.0371	0.	128.09
646	3.2075	1.5895	0.	128.34
647	3.1812	1.1088	0.	125.57
648	4.6743	2.6118	0.	119.34
649	4.1784	2.5972	0.	124.1
650	4.9149	-1.1267	0.	118.39
651	3.1941	-0.36769	0.	126.94
652	6.9696	-4.5199	0.	123.46
653	5.4859	-3.5543	0.	125.26
654	5.445	-1.0304	0.	121.39
655	3.9587	-4.4999	0.	126.7
656	3.4955	-4.6064	0.	129.2
657	-5.1988e-002	1.9929	0.	125.36
658	1.5764	0.54298	0.	126.09
659	1.5817	1.0776	0.	128.26
660	0.95376	-1.8358	0.	130.58
661	-0.7162	-2.489	0.	121.88
662	-0.21592	-2.6206	0.	124.16
663	-2.8695	-5.2547	0.	120.14
664	-1.3237	-6.627	0.	127.33
665	-1.3226	-6.1438	0.	128.89
666	-7.0106	-1.0243	0.	124.9
667	-6.2169	0.59744	0.	127.56
668	-5.5743	6.2327	0.	133.46
669	-5.1733	6.1827	0.	128.93
670	-4.5432	7.1079	0.	125.7
671	4.0997	3.5364	0.	122.7
672	7.4984	4.9928	0.	127.09
673	6.074	3.557	0.	125.25
674	6.5599	3.5436	0.	128.13
675	-3.0237	2.0145	0.	125.57
676	-3.4996	1.9746	0.	128.67
677	1.0185	3.9828	0.	125.23
678	1.5466	3.9088	0.	128.7
679	-1.5522	2.0379	0.	123.24
680	2.2197	-6.0407	0.	122.99
681	-4.1871	-6.2116	0.	122.72
682	5.2583	1.7394	0.	113.19
683	6.0007	-2.5382	0.	126.87
684	7.5249	1.7279e-002	0.	118.25
685	4.4216	-4.8449	0.	120.93
686	1.0325	2.1884e-002	0.	124.95
687	-1.8357	-7.1095	0.	126.26
688	-5.2994	0.23292	0.	117.16
689	2.5789	4.3627	0.	131.61
690	5.5528	4.0416	0.	121.18
691	-2.5309	1.5484	0.	118.58
692	0.6217	4.6363	0.	121.34
693	-8.072	6.4326	0.	128.71
694	-8.0476	5.9527	0.	129.81
695	-8.0444	5.4742	0.	130.88
696	-8.0168	4.9926	0.	128.68
697	-7.9575	4.5104	0.	126.41
698	-7.9868	3.5124	0.	125.37
699	-8.0252	3.0093	0.	125.59
700	-8.0471	2.5086	0.	125.91
701	-8.0691	2.0069	0.	126.28
702	-8.0796	1.5064	0.	126.6
703	-8.0792	1.0048	0.	126.8
704	-8.0735	0.50154	0.	126.74
705	-8.0599	-2.7866e-003	0.	126.34
706	-8.0406	-0.5073	0.	125.78
707	-8.015	-1.5064	0.	125.83
708	-8.0325	-2.0008	0.	126.52
709	-8.0474	-2.4954	0.	127.19
710	-8.0523	-2.9881	0.	127.57
711	-8.0505	-3.4805	0.	127.65
712	-8.0454	-3.9735	0.	127.52
713	-8.0415	-4.4683	0.	127.31
714	-8.0357	-4.9672	0.	127.14
715	-8.0207	-5.4782	0.	127.13
716	-7.9695	-6.0263	0.	127.55
717	-8.0649	-6.5597	0.	128.84
718	-8.1177	-7.0461	0.	129.86
719	-8.1475	-7.5038	0.	128.78
720	2.6929	-5.8836	0.	115.7
721	-0.4011	-8.0784	0.	127.43
722	-0.90163	-8.0696	0.	127.
723	-1.399	-8.0658	0.	126.95
724	-1.8925	-8.065	0.	127.28
725	7.9528	7.4845	0.	125.97
726	7.9549	6.9838	0.	125.93
727	7.9651	6.4851	0.	125.6
728	7.9775	5.988	0.	125.26
729	7.9887	5.4915	0.	125.37
730	7.9972	4.9951	0.	126.18
731	8.0035	4.4988	0.	127.17
732	8.0093	4.0029	0.	127.8
733	8.0172	3.5079	0.	127.86
734	8.0308	3.0138	0.	127.46
735	8.0495	2.5204	0.	126.64
736	8.0595	2.0229	0.	125.33
737	8.0583	1.5214	0.	123.46
738	8.0471	1.0186	0.	121.19
739	8.0306	0.5145	0.	118.78
740	8.0168	9.7891e-003	0.	116.42
741	4.0872	8.1374	0.	123.32
742	4.9807	8.1744	0.	126.52
743	5.4652	8.1633	0.	125.99
744	5.9568	8.1358	0.	125.72
745	6.4509	8.0876	0.	126.05
746	6.9466	8.0058	0.	126.36
747	7.4526	7.9865	0.	126.25
748	7.9638	7.988	0.	125.81
749	4.6357	-7.9699	0.	122.6
750	7.9905	-4.0045	0.	118.02
751	7.989	-4.5045	0.	121.21
752	7.9986	-6.5004	0.	127.4
753	7.9995	-7.0002	0.	128.74
754	7.9999	-7.5001	0.	128.95
755	-3.0552	7.5325	0.	124.46
756	6.6467	1.5914	0.	128.43
757	-5.8073	-6.4565	0.	126.38
758	-7.7534	-7.5601	0.	130.
759	-7.5352	-6.2542	0.	126.06
760	0.71671	-6.1864	0.	129.69
761	-5.4377	-6.4969	0.	129.75
762	-3.5401	-1.9145	0.	130.21
763	-3.7037	-3.2914	0.	124.58
764	-7.5499	5.481	0.	131.1
765	-5.7963	5.8614	0.	128.38
766	-6.6516	4.7499	0.	118.85
767	3.5973	7.9976	0.	115.15
768	-7.0302	8.2146	0.	115.37
769	-6.4936	8.0403	0.	114.3
770	-4.9671	8.0863	0.	131.45
771	-4.4869	8.0747	0.	129.02
772	-4.0027	8.0596	0.	127.33
773	-3.5157	8.0444	0.	125.95
774	-3.0261	8.0288	0.	124.23
775	-2.535	8.0155	0.	122.61
776	-2.0434	8.0087	0.	122.56
777	-1.5512	8.0099	0.	125.21
778	-1.0573	8.0135	0.	128.24
779	-0.56175	8.0145	0.	128.89
780	-7.5603e-002	8.0126	0.	126.35
781	0.42522	7.8648	0.	120.01
782	-1.062	-1.8227	0.	121.32
783	-3.4162	-1.4536	0.	130.42
784	-1.0791	7.521	0.	130.18
785	-0.25496	4.9949	0.	130.33
786	-0.1782	5.4131	0.	128.91
787	5.3732	6.8647	0.	117.34
788	4.8692	-4.5983	0.	117.28
789	-2.0937	4.5196	0.	113.55
790	-3.6065	4.5511	0.	131.18
791	-0.51622	4.5758	0.	132.52
792	3.6751	0.65541	0.	122.93
793	3.7085	2.0972	0.	130.48
794	3.769	-0.805	0.	128.37
795	6.4453	-5.0351	0.	122.02
796	7.9896	-5.0034	0.	124.2
797	7.4855	-4.0096	0.	119.86
798	5.9616	-4.045	0.	128.65
799	5.9781	-1.5204	0.	126.9
800	3.0756	-5.2137	0.	125.27
801	0.94027	1.4838	0.	131.1
802	0.60001	-0.9412	0.	129.9
803	0.3715	-2.2353	0.	128.5
804	-3.3062	-5.8613	0.	113.28
805	-1.8373	-5.6789	0.	129.7
806	-6.3703	-1.4761	0.	128.13
807	-4.3941	0.84957	0.	120.49
808	-4.3919	0.34942	0.	115.8
809	-5.9455	8.0414	0.	125.49
810	-4.9605	7.6175	0.	130.91
811	-8.105	6.9237	0.	125.99
812	4.5649	4.0302	0.	118.97
813	3.0712	3.9271	0.	129.58
814	7.0259	4.0166	0.	130.19
815	3.0937	5.3316	0.	117.21
816	2.6033	4.8324	0.	131.32
817	-3.946	1.4127	0.	129.73
818	2.0888	4.3581	0.	133.51
819	0.98478	7.9545	0.	118.25
820	-0.55813	1.5376	0.	121.83
821	-1.5525	1.5369	0.	125.72
822	2.0372	8.0557	0.	136.78
823	1.513	8.019	0.	126.64
824	1.0982	4.4805	0.	122.69
825	-3.0078	1.5184	0.	127.63
826	-3.4785	1.4663	0.	133.23
827	-3.9288	0.90411	0.	126.81
828	2.1298	4.8294	0.	136.67
829	2.1774	5.2903	0.	139.21
830	2.637	5.2921	0.	130.69
831	6.0456	4.0363	0.	126.22
832	6.5365	4.027	0.	130.03
833	7.0124	4.5047	0.	130.54
834	7.0002	4.9923	0.	128.94
835	3.0771	4.8694	0.	125.25
836	3.0686	4.3996	0.	128.89
837	3.5715	3.9725	0.	126.74
838	4.0694	4.0092	0.	122.25
839	-8.5478	7.9546	0.	129.93
840	-5.088	6.6701	0.	126.15
841	-5.0015	7.146	0.	126.39
842	-5.4033	7.6407	0.	136.98
843	-3.9227	0.39942	0.	124.16
844	-6.1988	0.10861	0.	131.
845	-1.8207	-6.6332	0.	128.97
846	-1.8214	-6.1565	0.	130.79
847	-2.3356	-5.704	0.	126.92
848	-2.8285	-5.7565	0.	119.17
849	-0.60754	-2.0109	0.	119.48
850	-0.1254	-2.1544	0.	123.18
851	0.55266	-1.3681	0.	131.41
852	1.04	0.51464	0.	128.37
853	0.44489	1.4742	0.	129.07
854	-5.9364e-002	1.4855	0.	123.47
855	3.9829	-4.9505	0.	130.14
856	3.5359	-5.0815	0.	133.12
857	5.9904	-0.47264	0.	133.28
858	5.9707	-0.99969	0.	128.76
859	5.9998	-3.0401	0.	127.98
860	5.9851	-3.5425	0.	128.78
861	6.9783	-4.0184	0.	124.73
862	7.996	-6.0009	0.	126.98
863	7.9922	-5.502	0.	126.24
864	7.4805	-5.0082	0.	123.7
865	6.9655	-5.0178	0.	121.05
866	3.7185	-0.32308	0.	129.56
867	4.8762	-0.63999	0.	113.28
868	4.212	2.1189	0.	126.45
869	3.7095	1.6213	0.	130.42
870	3.6885	1.1405	0.	127.11
871	-1.5838	4.5267	0.	123.59
872	-1.0672	4.5478	0.	133.1
873	-3.4598	5.5598	0.	125.88
874	-3.553	5.0499	0.	129.77
875	-3.0958	4.5326	0.	129.61
876	-2.5941	4.5229	0.	120.06
877	-4.4745	-8.437	0.	127.69
878	5.9402	-4.5477	0.	130.17
879	5.4169	-4.5609	0.	125.49
880	6.398	6.8632	0.	128.02
881	5.8804	6.8331	0.	122.83
882	-0.63114	5.5971	0.	130.59
883	-3.5953e-002	7.5314	0.	127.86
884	-1.081	6.0967	0.	129.41
885	-2.9477	-1.5234	0.	125.29
886	-2.4775	-1.5806	0.	122.66
887	-6.3273	5.0859	0.	119.8
888	-6.0409	5.4698	0.	123.56
889	-7.0549	4.9991	0.	119.47
890	-3.7018	-2.8214	0.	127.83
891	-3.6511	-2.3637	0.	128.84
892	-5.6675	-2.867	0.	125.54
893	-4.1832	-3.3001	0.	121.38
894	-4.6658	-3.301	0.	119.04
895	-4.6133	-6.375	0.	128.3
896	-5.0418	-6.4547	0.	131.59
897	-4.8934	-8.5223	0.	129.92
898	-5.4214	-6.9842	0.	129.61
899	1.7297	-6.1483	0.	128.95
900	1.2266	-6.1848	0.	131.71
901	1.0874	-8.1394	0.	132.11
902	1.5497	-8.1789	0.	132.41
903	0.73347	-6.6817	0.	127.86
904	0.72722	-7.1658	0.	126.52
905	0.66481	-7.6383	0.	126.86
906	-7.6671	-7.1287	0.	129.65
907	-5.8415	-6.8942	0.	127.25
908	-7.0991	-6.3162	0.	122.35
909	6.1771	1.6314	0.	131.59
910	5.7117	1.6849	0.	125.92
911	6.5864	0.56537	0.	125.15
912	6.6223	1.0823	0.	124.91
913	-3.1136	7.0311	0.	126.86
914	-3.199	6.5365	0.	127.97
915	-1.103	6.5578	0.	129.36
916	-1.1034	7.0337	0.	131.1
917	-2.5652	7.512	0.	120.43
918	-2.0696	7.5028	0.	119.6
919	-0.584	1.1003	0.	116.68
920	-7.5289	5.9467	0.	131.95
921	8.0002	-8.0001	0.	129.82
922	4.5746	-8.4565	0.	127.
923	5.0432	-8.5008	0.	126.85
924	8.0005	-8.5001	0.	130.09
925	4.6785	-7.5012	0.	118.04
926	5.1144	-7.5499	0.	121.17
927	8.4745	7.9914	0.	125.26
928	8.4688	7.4908	0.	125.24
929	8.4706	6.9914	0.	125.1
930	8.4763	6.4927	0.	124.88
931	8.4838	5.9942	0.	124.74
932	8.4911	5.4957	0.	124.93
933	8.497	4.9972	0.	125.5
934	8.5018	4.4993	0.	126.24
935	8.5053	4.0011	0.	126.82
936	8.5104	3.5039	0.	127.06
937	8.5188	3.0072	0.	126.93
938	8.5297	2.5103	0.	126.42
939	8.537	1.5117	0.	124.26
940	8.5294	1.0095	0.	122.69
941	8.5194	0.50725	0.	120.99
942	8.5107	4.8793e-003	0.	119.33
943	-6.9402	8.6389	0.	118.86
944	-6.4617	8.5559	0.	118.8
945	-5.9673	8.5397	0.	124.25
946	-5.471	8.5515	0.	128.5
947	-4.9781	8.5586	0.	129.49
948	-4.4873	8.554	0.	128.5
949	-3.9971	8.5448	0.	127.22
950	-3.5054	8.5337	0.	126.
951	-3.0115	8.523	0.	124.84
952	-2.518	8.5142	0.	124.05
953	-2.0245	8.5091	0.	124.3
954	-1.5307	8.5082	0.	125.56
955	-1.0357	8.5087	0.	126.9
956	-0.53858	8.5062	0.	126.97
957	-3.6747e-002	8.4888	0.	125.21
958	0.46704	8.446	0.	122.7
959	0.98023	8.4684	0.	122.65
960	1.4991	8.5052	0.	126.63
961	2.017	8.5319	0.	131.49
962	2.5316	8.5488	0.	130.99
963	3.0432	8.5519	0.	124.36
964	3.5462	8.5389	0.	119.34
965	4.0342	8.5871	0.	122.85
966	5.0008	8.6223	0.	126.13
967	5.489	8.6113	0.	126.03
968	5.9835	8.5844	0.	125.89
969	6.4802	8.5518	0.	125.92
970	6.9771	8.5141	0.	125.98
971	7.4763	8.4961	0.	125.89
972	7.979	8.4923	0.	125.62
973	8.4832	8.4934	0.	125.24
974	-8.5357	-8.0049	0.	126.66
975	-8.5758	-7.5122	0.	127.81
976	-8.5728	-7.0163	0.	128.93
977	-8.5401	-6.5165	0.	129.
978	-8.5048	-6.01	0.	128.46
979	-8.5118	-5.4981	0.	127.98
980	-8.5227	-4.9883	0.	127.77
981	-8.529	-4.4847	0.	127.71
982	-8.532	-3.9855	0.	127.69
983	-8.5354	-3.488	0.	127.6
984	-8.5327	-2.495	0.	126.93
985	-8.5172	-1.5012	0.	125.88
986	-8.5198	-1.004	0.	125.64
987	-8.5421	-2.3756e-003	0.	126.06
988	-8.5504	0.50079	0.	126.37
989	-8.5548	1.0042	0.	126.52
990	-8.5524	1.5068	0.	126.52
991	-8.5416	2.0109	0.	126.41
992	-8.5252	2.5137	0.	126.27
993	-8.5067	3.0151	0.	126.16
994	-8.4862	3.5139	0.	126.22
995	-8.475	4.0091	0.	126.6
996	-8.4842	4.5002	0.	127.44
997	-8.5069	4.9894	0.	128.52
998	-8.5309	5.4782	0.	128.96
999	-8.5409	5.9656	0.	128.3
1000	-8.5543	6.4546	0.	126.24
1001	-8.5681	6.9493	0.	125.34
1002	-8.5334	-8.5041	0.	127.11
1003	-8.0516	-8.5079	0.	128.15
1004	8.494	-4.0021	0.	120.77
1005	8.4937	-4.502	0.	123.09
1006	8.4941	-5.0015	0.	125.04
1007	8.4953	-5.5009	0.	126.22
1008	8.4969	-6.0005	0.	126.56
1009	8.4984	-6.5003	0.	126.86
1010	8.4999	-7.5	0.	128.05
1011	8.5001	-8.	0.	128.8
1012	8.5002	-8.5	0.	129.38
1013	3.7001	-8.3011	0.	134.25
1014	2.5984	-8.4992	0.	120.52
1015	2.0464	-8.6093	0.	125.99
1016	1.5414	-8.6217	0.	131.29
1017	6.0787e-002	-8.5678	0.	129.94
1018	-0.43727	-8.5569	0.	129.35
1019	-0.93573	-8.5505	0.	129.09
1020	-1.4337	-8.5476	0.	129.29
1021	-5.6192	-9.1977	0.	133.75
1022	-1.5921	7.0123	0.	123.42
1023	-2.6058	7.0045	0.	120.42
1024	6.1522	1.1267	0.	133.38
1025	6.1099	0.60467	0.	122.92
1026	-6.2715	-6.8466	0.	119.21
1027	-6.705	-6.8639	0.	114.94
1028	-7.1502	-6.7867	0.	122.26
1029	1.2632	-6.6955	0.	132.56
1030	-5.0865	-7.9822	0.	129.63
1031	-4.9886	-6.9621	0.	134.82
1032	-5.1845	-2.7864	0.	119.34
1033	-4.1877	-2.7967	0.	123.73
1034	-7.0872	5.4608	0.	119.23
1035	3.0644	8.0972	0.	124.22
1036	2.56	8.0773	0.	139.24
1037	-1.9275	-1.112	0.	123.3
1038	-2.3877	-1.0646	0.	117.98
1039	-0.62784	7.0299	0.	137.96
1040	-0.70223	6.0808	0.	129.31
1041	6.4139	6.4153	0.	133.21
1042	-5.1669	-9.1005	0.	134.6
1043	-4.1376	-8.8895	0.	120.61
1044	-3.5842	-9.0311	0.	113.4
1045	-1.9719	-9.0266	0.	131.88
1046	-1.4653	-9.0309	0.	131.33
1047	-0.96419	-9.0329	0.	131.12
1048	-0.46484	-9.0372	0.	131.17
1049	3.3781e-002	-9.0445	0.	131.45
1050	0.5327	-9.055	0.	131.76
1051	1.5334	-9.0717	0.	129.56
1052	2.0421	-9.0588	0.	125.36
1053	2.5472	-9.0387	0.	118.37
1054	3.5234	-9.1289	0.	121.41
1055	3.9869	-9.1396	0.	127.96
1056	4.4606	-8.9766	0.	128.5
1057	4.9986	-8.9958	0.	127.53
1058	5.5068	-9.0039	0.	125.56
1059	6.0062	-9.0036	0.	120.56
1060	6.504	-9.0018	0.	117.49
1061	7.0022	-9.0007	0.	121.16
1062	8.0006	-9.0001	0.	129.01
1063	8.5003	-9.	0.	129.27
1064	8.9966	-4.5008	0.	127.09
1065	8.9995	-7.	0.	127.06
1066	9.	-8.	0.	128.28
1067	9.0001	-8.5	0.	128.9
1068	9.0002	-9.	0.	129.22
1069	-3.0752	5.0322	0.	140.32
1070	-1.1218	5.0652	0.	142.17
1071	4.2265	1.6451	0.	138.47
1072	4.2392	-0.28205	0.	137.22
1073	7.5011	-8.5002	0.	130.79
1074	5.5264	-8.5088	0.	128.43
1075	6.487	-3.5271	0.	132.24
1076	-8.0525	-9.014	0.	132.41
1077	-8.5318	-9.0069	0.	130.07
1078	-9.0187	-9.0049	0.	129.
1079	-9.0226	-8.5055	0.	127.57
1080	-9.029	-8.0071	0.	127.
1081	-9.0422	-7.5083	0.	127.61
1082	-9.041	-7.0072	0.	128.36
1083	-9.0257	-6.5055	0.	128.7
1084	-9.0104	-6.0032	0.	128.63
1085	-9.0091	-5.5001	0.	128.44
1086	-9.0137	-4.9962	0.	128.26
1087	-9.0181	-4.4934	0.	128.1
1088	-9.0219	-3.9926	0.	127.9
1089	-9.023	-3.4933	0.	127.63
1090	-9.0231	-2.9946	0.	127.25
1091	-9.0153	-1.998	0.	126.27
1092	-9.0132	-1.4999	0.	125.85
1093	-9.0149	-1.0015	0.	125.62
1094	-9.0195	-0.50223	0.	125.63
1095	-9.0267	-1.1941e-003	0.	125.83
1096	-9.0313	0.50091	0.	126.09
1097	-9.0224	2.0107	0.	126.58
1098	-9.0124	2.5126	0.	126.63
1099	-9.0011	3.0126	0.	126.69
1100	-8.9912	3.5098	0.	126.81
1101	-8.9895	4.0045	0.	127.06
1102	-9.0049	4.9916	0.	127.68
1103	-9.0173	5.4841	0.	127.4
1104	-9.028	5.9783	0.	126.3
1105	-9.0359	6.4726	0.	124.97
1106	-9.0411	6.9701	0.	124.46
1107	-9.0388	7.4715	0.	125.48
1108	-9.028	7.9748	0.	126.83
1109	-9.009	8.4797	0.	127.12
1110	-8.9964	8.9847	0.	126.29
1111	-8.4887	8.9697	0.	127.27
1112	-7.9673	8.9443	0.	126.76
1113	-7.4078	8.8998	0.	123.38
1114	-6.9278	9.0566	0.	121.15
1115	-6.4554	9.043	0.	121.57
1116	-5.9713	9.0323	0.	123.93
1117	-5.4801	9.0331	0.	126.43
1118	-4.985	9.0372	0.	127.48
1119	-4.4901	9.0353	0.	127.38
1120	-3.9954	9.0297	0.	126.79
1121	-3.4998	9.0227	0.	126.09
1122	-3.0039	9.016	0.	125.45
1123	-2.508	9.0106	0.	125.08
1124	-2.0122	9.0072	0.	125.17
1125	-1.516	9.0059	0.	125.69
1126	-1.0189	9.005	0.	126.13
1127	-0.5198	9.0014	0.	125.97
1128	-1.8426e-002	8.9907	0.	125.09
1129	0.48357	8.9766	0.	124.14
1130	0.98812	8.9826	0.	124.34
1131	1.4965	9.0007	0.	126.07
1132	2.0063	9.0169	0.	127.76
1133	2.5155	9.0278	0.	127.18
1134	3.0212	9.0319	0.	124.17
1135	3.5212	9.0345	0.	122.36
1136	4.0163	9.0544	0.	123.03
1137	4.5099	9.0737	0.	124.58
1138	5.0038	9.0758	0.	125.36
1139	5.4995	9.0656	0.	125.6
1140	5.9963	9.0498	0.	125.63
1141	6.4939	9.0308	0.	125.67
1142	6.9916	9.0118	0.	125.69
1143	7.4899	9.0002	0.	125.63
1144	7.9898	8.9961	0.	125.48
1145	8.4911	8.9958	0.	125.24
1146	8.9814	7.4948	0.	124.53
1147	8.9824	6.9957	0.	124.34
1148	8.9854	6.4966	0.	124.19
1149	8.9896	5.9974	0.	124.16
1150	8.9939	5.4981	0.	124.38
1151	8.9976	4.9987	0.	124.85
1152	9.0009	4.4997	0.	125.46
1153	9.0029	4.0005	0.	126.03
1154	9.0058	3.5018	0.	126.43
1155	9.0105	3.0035	0.	126.61
1156	9.0165	2.5048	0.	126.56
1157	9.0229	2.0062	0.	126.32
1158	9.0226	1.5059	0.	125.94
1159	9.0172	1.0044	0.	125.52
1160	9.0114	0.50316	0.	125.35
1161	9.0063	2.0511e-003	0.	125.84
1162	6.5071	-0.47875	0.	136.55
1163	5.1285	-7.1252	0.	123.4
1164	3.5879	-8.7133	0.	130.92
1165	0.46854	0.98009	0.	136.8
1166	-1.8537e-002	-1.7112	0.	127.26
1167	-2.4929	-9.0141	0.	132.26
1168	-2.313	-6.1784	0.	134.8
1169	-6.1641	-0.38281	0.	138.2
1170	-3.5378	-6.028e-002	0.	138.4
1171	-5.4294	7.2175	0.	133.77
1172	3.5555	4.4484	0.	128.19
1173	6.5176	4.5112	0.	133.48
1174	2.2345	5.7441	0.	143.45
1175	-3.4592	0.95709	0.	140.93
1176	1.6558	4.8606	0.	137.78
1177	2.0564	7.5911	0.	142.81
1178	1.9431	6.6745	0.	136.28
1179	1.8578	6.2179	0.	139.29
1180	1.717	5.3129	0.	140.91
1181	1.7816	5.7642	0.	135.65
1182	1.1852	4.946	0.	114.36
1183	0.7415	5.1448	0.	120.51
1184	0.29246	5.3963	0.	120.18
1185	-0.34651	5.9982	0.	132.03
1186	-1.2012e-002	5.7853	0.	127.01
1187	-0.19712	7.0043	0.	132.48
1188	1.5392	7.55	0.	126.75
1189	1.0471	7.4513	0.	113.3
1190	0.58393	7.3134	0.	116.4
1191	-2.8327	-0.6753	0.	127.61
1192	-2.9846	-0.31537	0.	131.88
1193	-3.4157	0.42614	0.	124.11
1194	-3.1362	6.1106e-002	0.	146.1
1195	-2.995	1.0362	0.	137.31
1196	-2.5295	1.0701	0.	113.62
1197	-1.5547	1.0121	0.	144.53
1198	-2.0583	1.0716	0.	113.11
1199	-1.9025	-0.67282	0.	132.23
1200	2.3165	6.1998	0.	132.34
1201	2.4243	6.667	0.	142.67
1202	2.6075	7.6131	0.	139.45
1203	3.9236	7.545	0.	120.71
1204	4.4982	6.7891	0.	132.11
1205	4.2223	7.1435	0.	126.67
1206	6.4686	5.9579	0.	130.41
1207	6.5018	4.9962	0.	132.24
1208	6.4906	5.4814	0.	131.55
1209	6.0221	4.5176	0.	128.19
1210	5.5251	4.5202	0.	119.21
1211	5.0281	4.5193	0.	120.
1212	4.041	4.4941	0.	121.6
1213	4.5325	4.5129	0.	117.77
1214	-6.7583	7.6648	0.	110.73
1215	-5.8388	7.5128	0.	140.41
1216	-6.3251	7.5739	0.	109.72
1217	-5.5675	6.7423	0.	128.47
1218	-5.9288	6.4206	0.	133.36
1219	-6.4739	5.695	0.	117.18
1220	-6.2049	6.0612	0.	119.35
1221	-7.6591	6.9043	0.	139.63
1222	-3.4618	-0.48486	0.	136.5
1223	-3.7972	-1.0108	0.	136.97
1224	-4.0262	-1.8667	0.	126.73
1225	-5.2787	-2.2308	0.	123.8
1226	-5.6304	-1.7838	0.	125.39
1227	-6.0859	-0.87299	0.	121.4
1228	-5.8994	-1.3301	0.	141.35
1229	-3.9622	-9.9601e-002	0.	127.31
1230	-4.4091	-0.14954	0.	109.92
1231	-4.8528	-0.20303	0.	111.41
1232	-5.2938	-0.25766	0.	112.86
1233	-4.5447	-6.9198	0.	131.59
1234	-4.1204	-6.7451	0.	119.62
1235	-3.6933	-6.5504	0.	113.45
1236	-2.7959	-6.2307	0.	116.81
1237	-3.2558	-6.37	0.	110.79
1238	-2.3098	-6.6458	0.	130.79
1239	-2.3271	-7.1155	0.	130.63
1240	-2.3514	-7.5892	0.	132.86
1241	-2.4237	-8.5412	0.	132.82
1242	-2.3809	-8.0651	0.	129.12
1243	-3.0546	-8.962	0.	106.87
1244	-4.6003	-7.9838	0.	130.78
1245	-4.2217	-8.1555	0.	119.41
1246	-3.8793	-8.4359	0.	113.08
1247	-3.4705	-8.6496	0.	113.58
1248	-0.46899	-1.5593	0.	111.12
1249	-0.8876	-1.326	0.	123.44
1250	-1.3281	-1.0369	0.	126.43
1251	-1.7745	-0.31288	0.	127.83
1252	-1.5253	-0.60349	0.	139.92
1253	-1.4197	0.53014	0.	124.1
1254	-1.0126	0.61069	0.	116.93
1255	-9.5828e-002	0.95106	0.	116.88
1256	-0.55345	0.70719	0.	112.7
1257	9.3827e-002	-1.2862	0.	135.09
1258	0.18283	-0.87472	0.	128.17
1259	0.43439	-0.47916	0.	130.99
1260	0.49318	1.7553e-002	0.	131.76
1261	0.52099	0.50155	0.	129.61
1262	1.7789	-6.6955	0.	133.63
1263	3.2756	-6.166	0.	108.72
1264	2.7839	-6.4127	0.	115.42
1265	3.7807	-6.5088	0.	146.5
1266	3.8489	-6.946	0.	137.19
1267	3.8231	-7.4035	0.	136.74
1268	3.7721	-7.8623	0.	129.91
1269	3.1144	-8.6482	0.	106.15
1270	1.6409	-7.7307	0.	135.13
1271	2.0304	-7.857	0.	127.55
1272	2.3398	-8.103	0.	117.66
1273	4.7311	-7.0752	0.	108.23
1274	4.3201	-6.8566	0.	126.53
1275	3.755	-6.0428	0.	132.86
1276	4.0942	-6.3952	0.	144.9
1277	5.4143	-5.0547	0.	131.92
1278	4.9295	-5.1165	0.	111.82
1279	4.4805	-5.258	0.	115.29
1280	4.0392	-5.3872	0.	143.64
1281	-6.2312	-8.9369	0.	117.44
1282	-7.1284	-9.0235	0.	118.35
1283	-6.6764	-8.9948	0.	105.8
1284	-7.5069	-8.0953	0.	136.55
1285	-7.2048	-7.2513	0.	130.59
1286	-7.3356	-7.6808	0.	129.26
1287	-5.5537	-8.2305	0.	118.74
1288	-5.8209	-7.8645	0.	139.2
1289	-6.1129	-7.5815	0.	124.01
1290	7.011	-0.48611	0.	127.22
1291	7.5096	-0.49134	0.	116.05
1292	8.007	-0.4951	0.	115.96
1293	9.0024	-0.49901	0.	128.38
1294	8.5047	-0.49755	0.	116.52
1295	8.998	-3.5007	0.	129.13
1296	7.9945	-3.503	0.	116.8
1297	6.9896	-3.5125	0.	126.9
1298	7.4916	-3.5061	0.	116.3
1299	6.4976	-3.0224	0.	131.3
1300	6.4897	-0.99486	0.	133.84
1301	6.4893	-1.5062	0.	134.37
1302	6.4955	-2.0137	0.	135.38
1303	6.4991	-2.5184	0.	133.5
1304	5.5426	-8.017	0.	127.92
1305	5.555	-7.5304	0.	131.73
1306	5.5444	-7.0443	0.	140.94
1307	5.6166	-6.0407	0.	144.59
1308	5.4785	-6.542	0.	133.5
1309	5.8837	-5.5849	0.	127.34
1310	6.9738	-5.5101	0.	119.76
1311	6.4467	-5.5259	0.	109.91
1312	7.4956	-6.0016	0.	127.64
1313	7.4988	-6.5006	0.	131.19
1314	7.4997	-7.0003	0.	133.64
1315	7.5003	-8.0001	0.	130.66
1316	7.4999	-7.5002	0.	132.49
1317	7.0022	-8.5004	0.	121.89
1318	6.0122	-8.5041	0.	120.85
1319	6.5049	-8.5011	0.	110.4
1320	5.6233	9.8066e-002	0.	127.97
1321	4.7508	-0.21003	0.	106.53
1322	5.2092	-2.6219e-002	0.	114.8
1323	4.1846	0.18596	0.	130.52
1324	4.1869	1.1684	0.	130.37
1325	4.1759	0.67679	0.	129.17
1326	5.6885	1.2058	0.	132.73
1327	5.2377	1.3524	0.	112.19
1328	4.7849	1.6329	0.	105.54
1329	-1.6066	5.0138	0.	128.88
1330	-2.6024	5.0155	0.	121.68
1331	-2.1099	5.0076	0.	100.39
1332	-3.014	5.5349	0.	120.98
1333	-2.6769	6.5026	0.	127.54
1334	-2.8458	6.0222	0.	139.06
1335	-1.571	6.5233	0.	128.66
1336	-1.1707	5.6187	0.	123.16
1337	-1.4539	6.0606	0.	135.99
1338	3.5463	4.9291	0.	124.18
1339	2.6787	5.7328	0.	137.81
1340	-8.9946	9.4909	0.	125.29
1341	-8.4883	9.4827	0.	125.29
1342	-7.9781	9.47	0.	124.72
1343	-7.4714	9.4669	0.	123.57
1344	-6.9744	9.5108	0.	122.59
1345	-6.4776	9.5212	0.	122.71
1346	-5.9843	9.5175	0.	123.83
1347	-5.4892	9.5169	0.	125.15
1348	-4.992	9.5185	0.	126.09
1349	-4.4945	9.5177	0.	126.49
1350	-3.9967	9.5148	0.	126.5
1351	-3.4988	9.5115	0.	126.3
1352	-3.0008	9.5083	0.	126.02
1353	-2.5028	9.5057	0.	125.81
1354	-2.0048	9.504	0.	125.74
1355	-1.5066	9.5031	0.	125.78
1356	-1.0077	9.5022	0.	125.77
1357	-0.50799	9.5	0.	125.55
1358	-7.5493e-003	9.4954	0.	125.13
1359	0.49305	9.4907	0.	124.77
1360	0.9943	9.4923	0.	124.8
1361	1.4974	9.4997	0.	125.2
1362	2.0016	9.5072	0.	125.47
1363	2.5056	9.5126	0.	124.99
1364	3.008	9.5158	0.	123.96
1365	3.508	9.5189	0.	123.19
1366	4.0061	9.5275	0.	123.34
1367	4.5042	9.535	0.	123.99
1368	5.0025	9.5369	0.	124.61
1369	5.5015	9.5311	0.	125.04
1370	6.0003	9.5236	0.	125.31
1371	6.4992	9.5149	0.	125.48
1372	6.9979	9.5066	0.	125.56
1373	7.4967	9.501	0.	125.55
1374	7.9962	9.4985	0.	125.45
1375	8.4963	9.498	0.	125.3
1376	8.9971	9.4983	0.	125.12
1377	9.4984	9.499	0.	124.94
1378	9.4966	8.9983	0.	124.7
1379	9.4945	8.4976	0.	124.41
1380	9.4922	7.9974	0.	124.09
1381	9.4914	7.4977	0.	123.76
1382	9.4917	6.9982	0.	123.48
1383	9.493	6.4987	0.	123.3
1384	9.4949	5.9991	0.	123.31
1385	9.4969	5.4993	0.	123.57
1386	9.4987	4.9996	0.	124.05
1387	9.5005	4.5	0.	124.7
1388	9.5014	4.0003	0.	125.37
1389	9.5028	3.5009	0.	125.98
1390	9.5049	3.0016	0.	126.47
1391	9.5076	2.5022	0.	126.87
1392	9.5115	2.0028	0.	127.28
1393	9.5113	1.5026	0.	127.83
1394	9.5082	1.0016	0.	128.71
1395	9.5054	0.50104	0.	130.07
1396	9.503	6.2607e-004	0.	132.37
1397	9.5013	-0.4997	0.	137.
1398	9.5002	-0.9999	0.	137.86
1399	9.5	-1.5	0.	140.93
1400	9.5	-2.	0.	142.78
1401	9.5	-2.5	0.	141.36
1402	9.4998	-3.0002	0.	139.12
1403	9.4991	-3.5003	0.	138.51
1404	9.4984	-4.0004	0.	134.03
1405	9.4985	-4.5003	0.	131.73
1406	9.4987	-5.0002	0.	130.05
1407	9.4989	-5.5001	0.	128.61
1408	9.4991	-6.	0.	127.49
1409	9.4994	-6.5	0.	126.81
1410	9.4997	-7.	0.	126.69
1411	9.4999	-7.5	0.	127.07
1412	9.5	-8.	0.	127.8
1413	9.5001	-8.5	0.	128.6
1414	9.5001	-9.	0.	129.26
1415	9.5	-9.5	0.	129.66
1416	9.0001	-9.5	0.	129.27
1417	8.5002	-9.5	0.	128.86
1418	8.0005	-9.5001	0.	127.76
1419	7.5008	-9.5002	0.	125.24
1420	7.0013	-9.5005	0.	121.88
1421	6.5018	-9.501	0.	120.05
1422	6.002	-9.5014	0.	121.51
1423	5.5004	-9.5009	0.	124.56
1424	4.9968	-9.4974	0.	126.85
1425	4.4964	-9.5045	0.	127.38
1426	4.0022	-9.551	0.	125.4
1427	3.5071	-9.5593	0.	121.23
1428	3.0133	-9.5433	0.	118.09
1429	2.5183	-9.5268	0.	119.95
1430	2.0199	-9.529	0.	124.39
1431	1.5182	-9.5339	0.	128.63
1432	1.016	-9.5326	0.	131.11
1433	0.51488	-9.5272	0.	132.14
1434	1.5068e-002	-9.5222	0.	132.38
1435	-0.48445	-9.5186	0.	132.39
1436	-0.98439	-9.5164	0.	132.38
1437	-1.4865	-9.5146	0.	132.02
1438	-1.9929	-9.511	0.	130.59
1439	-2.5069	-9.5014	0.	124.04
1440	-3.0244	-9.4891	0.	115.76
1441	-3.5459	-9.4925	0.	114.32
1442	-4.0621	-9.4666	0.	120.79
1443	-4.5656	-9.5011	0.	127.56
1444	-5.0562	-9.5474	0.	131.85
1445	-5.5287	-9.5818	0.	131.46
1446	-6.0286	-9.4491	0.	124.47
1447	-6.5597	-9.4914	0.	112.43
1448	-7.0559	-9.51	0.	117.75
1449	-7.5432	-9.514	0.	128.25
1450	-8.0299	-9.5093	0.	132.92
1451	-8.519	-9.5052	0.	131.65
1452	-9.0111	-9.5033	0.	130.28
1453	-9.5052	-9.5019	0.	129.24
1454	-9.5089	-9.0028	0.	128.38
1455	-9.5116	-8.5035	0.	127.47
1456	-9.5151	-8.0041	0.	127.08
1457	-9.5193	-7.504	0.	127.34
1458	-9.5184	-7.0027	0.	127.94
1459	-9.5127	-6.5015	0.	128.47
1460	-9.5067	-6.0007	0.	128.78
1461	-9.5052	-5.5	0.	128.88
1462	-9.5066	-4.9989	0.	128.81
1463	-9.5087	-4.4978	0.	128.6
1464	-9.5105	-3.9972	0.	128.26
1465	-9.5117	-3.497	0.	127.8
1466	-9.5106	-2.9975	0.	127.23
1467	-9.5089	-2.4982	0.	126.62
1468	-9.5077	-1.999	0.	126.03
1469	-9.5071	-1.4998	0.	125.57
1470	-9.5079	-1.0006	0.	125.31
1471	-9.5098	-0.50103	0.	125.29
1472	-9.5132	-4.1432e-004	0.	125.47
1473	-9.5145	0.50079	0.	125.78
1474	-9.5153	1.0025	0.	126.14
1475	-9.5128	1.5046	0.	126.49
1476	-9.5099	2.0063	0.	126.8
1477	-9.5053	2.5072	0.	127.05
1478	-9.5002	3.0068	0.	127.25
1479	-9.4975	3.5042	0.	127.39
1480	-9.4965	4.0016	0.	127.43
1481	-9.4978	4.4985	0.	127.29
1482	-9.5027	4.995	0.	126.84
1483	-9.5079	5.4916	0.	125.95
1484	-9.5132	5.9881	0.	124.74
1485	-9.5174	6.4863	0.	123.6
1486	-9.5196	6.9859	0.	123.16
1487	-9.5179	7.4873	0.	123.64
1488	-9.5133	7.9892	0.	124.52
1489	-9.5048	8.4915	0.	125.11
1490	-9.4991	8.9936	0.	125.21
1491	-9.4979	9.4963	0.	125.06
1492	5.8504	6.3681	0.	121.09
1493	5.3109	6.4313	0.	116.63
1494	4.3761	6.2768	0.	144.93
1495	-4.6871	-2.7638	0.	114.09
1496	-8.0079	-7.974	0.	125.7
1497	-3.2229	-3.7357	0.	123.89
1498	-0.64826	6.542	0.	128.61
1499	8.9965	-4.001	0.	127.22
1500	-0.33313	-3.5925	0.	126.3
1501	-8.53	-0.50429	0.	125.74
1502	-0.86667	-5.1218	0.	128.5
1503	-1.8605	-7.5871	0.	126.88
1504	5.0855	-8.0145	0.	124.13
1505	0.20676	-6.6594	0.	127.03
1506	1.5942	4.3955	0.	129.34
1507	-4.4291	1.8586	0.	126.34
1508	-3.1002	4.0329	0.	126.33
1509	-2.2679	-3.2141	0.	125.36
1510	-6.5266	-0.96441	0.	126.35
1511	2.6866	-1.4621	0.	126.92
1512	4.5239	8.1866	0.	126.34
1513	-5.6332	-3.3689	0.	123.79
1514	0.80148	-3.2782	0.	128.39
1515	0.89491	-2.2761	0.	129.83
1516	8.9934	8.9968	0.	124.97
1517	-7.5975	-8.5471	0.	124.58
1518	-7.4569	4.0048	0.	123.8
1519	8.9988	-6.5001	0.	126.89
1520	2.0584	2.8459	0.	130.09
1521	2.0075	-3.6744	0.	128.16
1522	6.395	7.6669	0.	126.02
1523	-6.6521	5.3731e-002	0.	130.53
1524	0.65853	-5.1832	0.	129.31
1525	-6.5677	-4.9039	0.	125.02
1526	4.9746	-2.1067	0.	121.19
1527	-7.1284	2.4886	0.	125.26
1528	3.5985	3.5033	0.	126.46
1529	-6.6618	2.9454	0.	124.45
1530	0.1793	-5.6656	0.	129.01
1531	6.47	-4.0314	0.	128.88
1532	-5.44	-7.5319	0.	127.95
1533	0.47642	3.5161	0.	126.74
1534	5.8981	7.2711	0.	123.59
1535	1.4976	2.9243	0.	129.29
1536	-2.0436	1.5499	0.	118.88
1537	8.9971	-5.5004	0.	127.29
1538	-6.2858	-7.2592	0.	121.51
1539	2.501	-4.8094	0.	125.61
1540	-6.6005	-3.4426	0.	127.41
1541	-5.4635	3.1526	0.	125.71
1542	-6.6973	5.318	0.	111.83
1543	-4.6367	-3.8291	0.	120.35
1544	-8.5684	7.4503	0.	127.27
1545	-1.0534	2.0342	0.	124.39
1546	5.4324	-0.45827	0.	121.6
1547	-7.0977	-2.5079	0.	128.36
1548	-8.5138	8.4609	0.	129.41
1549	1.1722	-7.6696	0.	128.59
1550	3.5474	5.8692	0.	114.01
1551	8.9883	8.4953	0.	124.82
1552	3.6833	0.16337	0.	127.31
1553	2.0421	-4.6466	0.	126.88
1554	-7.5541	-0.50854	0.	125.91
1555	1.0419	-1.3851	0.	130.22
1556	5.9243	-5.0556	0.	135.76
1557	-9.0324	1.5063	0.	126.48
1558	8.4962	-3.5015	0.	117.47
1559	7.4713	5.9777	0.	125.88
1560	2.0211	7.1326	0.	135.3
1561	-2.0948	6.9855	0.	112.2
1562	-3.307	-0.94486	0.	129.54
1563	-4.9133	2.2786	0.	125.7
1564	-5.7711	1.1409	0.	123.63
1565	-7.389	4.5472	0.	123.21
1566	5.4227	7.2966	0.	122.16
1567	-5.8128	3.4487	0.	124.94
1568	-6.6522	-2.0372	0.	129.03
1569	-0.32882	-5.6467	0.	128.62
1570	3.2642	-1.3493	0.	126.44
1571	8.9967	-5.0007	0.	127.28
1572	7.07	3.0422	0.	128.31
1573	0.1974	4.8452	0.	125.96
1574	4.0316	-8.763	0.	130.08
1575	-4.0255	-4.924	0.	120.24
1576	-7.6114	1.5063	0.	126.68
1577	2.0533	3.379	0.	130.36
1578	-6.6563	-6.3586	0.	120.05
1579	-7.0603	-5.3826	0.	124.72
1580	-6.0762	-5.4161	0.	124.65
1581	-1.0561	1.0743	0.	126.89
1582	1.5393	-3.6011	0.	128.55
1583	-5.1499	-3.3241	0.	119.76
1584	5.5013	-3.0574	0.	124.61
1585	-5.4507	8.0819	0.	132.36
1586	-4.0006	2.441	0.	127.65
1587	-8.9933	4.498	0.	127.43
1588	-7.0744	-0.49622	0.	126.56
1589	-2.5977	-2.0971	0.	125.37
1590	-6.0974	-3.9043	0.	125.25
1591	-7.0916	-2.0497	0.	127.7
1592	-7.0613	-4.9071	0.	125.58
1593	-7.5239	8.3653	0.	125.47
1594	-6.0805	-4.4069	0.	124.81
1595	-5.7306	-0.3145	0.	130.56
1596	-2.8437	-1.0753	0.	123.6
1597	-7.6073	-6.6795	0.	128.52
1598	1.4218	2.4454	0.	129.5
1599	6.4556	-4.534	0.	126.83
1600	3.2116	2.0509	0.	129.55
1601	1.8295	1.9698	0.	129.44
1602	-1.5619	3.032	0.	122.93
1603	3.1579	-5.7072	0.	117.
1604	-7.0633	-5.8522	0.	123.61
1605	0.1862	7.1102	0.	119.86
1606	-4.9311	3.8535	0.	127.47
1607	7.5079	4.501	0.	128.48
1608	0.55868	-8.5843	0.	130.95
1609	-3.8528	-5.4794	0.	118.58
1610	8.9836	7.9947	0.	124.68
1611	-3.9382	5.5726	0.	124.95
1612	-7.5867	2.5	0.	125.57
1613	3.5494	5.4062	0.	118.51
1614	-3.3277	6.0484	0.	125.05
1615	-4.9681	-7.4606	0.	125.28
1616	-7.0933	-2.9812	0.	128.29
1617	-8.0173	8.4304	0.	131.16
1618	0.46499	-1.7938	0.	131.2
1619	-0.57418	7.5222	0.	132.54
1620	1.3344	-2.7395	0.	129.25
1621	6.9872	5.4796	0.	126.5
1622	8.9999	-7.5	0.	127.56
1623	-8.524	-1.9981	0.	126.39
1624	4.8037	6.4643	0.	115.02
1625	-9.0199	-2.4963	0.	126.78
1626	-1.0585	1.5481	0.	126.67
1627	-6.0701	-4.9123	0.	124.72
1628	4.3166	-0.74067	0.	124.44
1629	1.5607	-1.3901	0.	128.52
1630	3.4855	-3.1636	0.	125.15
1631	-5.346	-8.6587	0.	132.09
1632	7.4846	-5.5051	0.	127.71
1633	0.43755	1.9847	0.	127.89
1634	-5.0342	3.2225	0.	126.68
1635	4.7132	2.1301	0.	117.35
1636	3.1879	2.5264	0.	129.51
1637	-0.54909	2.5138	0.	125.15
1638	-1.9308	-8.5458	0.	130.04
1639	3.6121	-5.5555	0.	134.18
1640	1.0323	-9.0672	0.	131.53
1641	6.6235	2.578	0.	127.61
1642	0.10336	-8.0929	0.	128.1
1643	-7.5832	6.4203	0.	129.82
1644	-3.4618	-4.7383	0.	120.06
1645	-5.7467	-2.3908	0.	127.74
1646	-1.0529	2.5287	0.	124.2
1647	4.3669	7.7344	0.	126.44
1648	0.16586	-3.669	0.	127.39
1649	-4.6287	6.617	0.	124.94
1650	3.1698	0.12889	0.	125.21
1651	4.4637	-2.1593	0.	121.61
1652	-0.77658	-2.9834	0.	123.91
1653	-2.2971	-3.7337	0.	125.04
1654	-2.7563	-2.646	0.	126.59
1655	2.53	7.1422	0.	136.63
1656	-8.0209	-1.0098	0.	125.49
1657	3.1144	5.7833	0.	108.13
1658	-4.1481	-2.3131	0.	130.6
1659	2.6656	-0.41169	0.	125.74
1660	1.3002	-7.1984	0.	126.49
1661	2.9991	-3.6892	0.	127.02
1662	2.5763	3.4101	0.	130.55
1663	-3.8876	-1.4344	0.	133.23
1664	-7.5715	-2.9863	0.	127.91
1665	-5.0939	-4.3727	0.	122.3
1666	-7.5847	-9.028	0.	140.6
1667	-5.7964	-8.8038	0.	142.02
1668	8.9979	-6.0003	0.	127.07
1669	-6.6326	-2.4952	0.	129.13
1670	-5.7933	2.0861	0.	124.7
1671	1.0517	-8.6042	0.	131.81
1672	-7.0656	-4.4248	0.	126.31
1673	-5.7481	0.17148	0.	125.18
1674	6.5909	3.0611	0.	127.44
1675	1.5815	-0.44464	0.	125.42
1676	-0.67363	5.0844	0.	132.78
1677	-7.1861	7.7947	0.	110.4
1678	-2.3625	-5.2235	0.	124.68
1679	-4.9596	2.7687	0.	126.36
1680	3.0412	-9.0864	0.	116.16
1681	6.9669	5.9648	0.	127.61
1682	1.0111	1.006	0.	130.72
1683	-5.8858	-7.2868	0.	127.41
1684	7.5013	-9.0003	0.	126.83
1685	-2.0687	3.0338	0.	121.93
1686	-2.7623	-3.7223	0.	124.61
1687	-4.573	-4.836	0.	122.07
1688	-6.5738	-5.3909	0.	124.19
1689	-6.6088	-0.45125	0.	128.35
1690	-9.0331	1.0035	0.	126.32
1691	-1.5746	7.5109	0.	123.94
1692	-6.2141	-6.3853	0.	122.16
1693	-4.6826	-9.0055	0.	129.22
1694	8.4994	-7.0001	0.	127.35
1695	-8.5372	-2.9914	0.	127.36
1696	4.372	-1.21	0.	121.75
1697	8.5386	2.0129	0.	125.53
1698	7.4803	-4.5104	0.	121.61
1699	4.5174	8.6229	0.	125.27
1700	-5.7603	0.65823	0.	123.78
1701	2.4977	-3.7112	0.	127.65
1702	1.3768	1.9876	0.	129.77
1703	-3.6549	-4.26	0.	121.38
1704	7.0912	1.0524	0.	123.02
1705	2.1097	-1.4103	0.	127.55
1706	0.62465	-4.196	0.	128.49
1707	4.1379	3.0662	0.	123.19
1708	1.3356	-3.1873	0.	128.87
1709	0.60181	-8.112	0.	129.29
1710	4.2017	-7.897	0.	125.57
1711	4.1335	-8.3553	0.	128.84
1712	4.2559	-7.4081	0.	124.13
1713	2.1161	6.3637e-002	0.	124.76
1714	2.1273	-0.43201	0.	125.34
1715	2.1347	-0.92551	0.	126.46
1716	7.0355	2.7732e-002	0.	123.85
1717	6.5462	4.3086e-002	0.	129.78
1718	6.0631	6.6158e-002	0.	140.14
1719	2.8999	-1.8813	0.	126.6
1720	3.3754	-1.8022	0.	125.49
1721	-7.6955	7.3949	0.	134.45
1722	-8.1146	7.4237	0.	131.02
1723	-7.6267	7.8802	0.	141.9
1724	-8.0798	7.927	0.	134.88
1725	-1.9954	-1.6196	0.	123.07
1726	-1.4928	-1.6134	0.	124.58
1727	2.265	-6.5573	0.	120.48
1728	7.5872	2.0385	0.	125.88
1729	7.1153	2.0607	0.	127.09
1730	7.5718	2.5342	0.	127.21
1731	7.0965	2.5536	0.	127.8
1732	-6.1041	3.769	0.	123.88
1733	-6.2179	3.3623	0.	124.17
1734	1.8695	-2.7587	0.	128.73
1735	1.893	-2.3185	0.	128.78
1736	2.4085	-2.781	0.	127.77
1737	2.4115	-2.3441	0.	127.71
1738	2.942	-2.7614	0.	126.48
1739	2.9241	-2.3197	0.	126.46
1740	3.4646	-2.7133	0.	124.89
1741	3.4322	-2.2601	0.	124.96
1742	7.5e-003	6.3187	0.	122.8
1743	4.25e-002	6.5425	0.	126.8
1744	-0.25825	6.2291	0.	145.07
1745	-0.18356	6.7322	0.	144.95
1746	-0.40913	6.501	0.	143.46
1747	1.0725	5.4713	0.	114.57
1748	1.285	5.5538	0.	138.38
1749	1.4835	5.3214	0.	137.85
1750	1.2176	5.138	0.	124.93
1751	1.3175	7.0375	0.	129.89
1752	1.495	6.8962	0.	148.38
1753	1.5346	7.335	0.	141.1
1754	1.7755	7.1263	0.	144.54
1755	-6.1217	7.0917	0.	134.98
1756	-6.05	6.8433	0.	123.58
1757	-5.8544	7.2714	0.	154.11
1758	-5.7188	6.8862	0.	148.79
1759	-7.1283	7.3383	0.	138.83
1760	-7.3083	7.1517	0.	148.33
1761	-7.2831	7.5973	0.	137.91
1762	-7.5377	7.3975	0.	148.96
1763	-6.77	6.0967	0.	100.47
1764	-7.0217	6.1583	0.	123.23
1765	-7.2394	5.9283	0.	123.75
1766	-7.0186	5.6854	0.	117.85
1767	-6.7119	5.8025	0.	116.15
1768	-2.4075	5.4975	0.	135.28
1769	-2.5325	5.7425	0.	127.13
1770	-2.6412	5.2627	0.	145.77
1771	-2.847	5.5225	0.	145.55
1772	-1.8625	5.4725	0.	134.03
1773	-1.715	5.705	0.	131.3
1774	-1.5983	5.2369	0.	147.95
1775	-1.3804	5.5393	0.	145.3
1776	-2.2375	6.2075	0.	93.079
1777	-1.965	6.195	0.	99.822
1778	-2.3835	6.4713	0.	114.81
1779	-1.8305	6.4817	0.	115.47
1780	-2.0924	6.7128	0.	107.18
1781	4.0887	6.4625	0.	126.78
1782	4.0983	6.7	0.	122.17
1783	4.3891	6.6496	0.	147.7
1784	4.328	6.3934	0.	152.59
1785	3.3717	7.46	0.	105.63
1786	3.1167	7.3967	0.	130.4
1787	3.3937	7.8238	0.	119.11
1788	3.1272	7.8736	0.	124.37
1789	2.8988	7.6316	0.	131.41
1790	2.9412	6.1775	0.	143.76
1791	2.8233	6.3833	0.	154.18
1792	2.5333	6.1649	0.	150.41
1793	2.7144	5.9314	0.	154.54
1794	-4.6038	-2.	0.	113.7
1795	-4.82	-2.025	0.	103.63
1796	-4.9844	-2.2154	0.	117.29
1797	-4.6885	-2.4819	0.	112.46
1798	-4.4191	-2.2566	0.	120.81
1799	-4.0862	-0.8	0.	147.38
1800	-4.2162	-0.625	0.	136.31
1801	-3.7309	-0.54243	0.	150.6
1802	-3.8986	-0.80542	0.	150.86
1803	-3.9811	-0.3498	0.	145.71
1804	-5.6	-0.975	0.	136.44
1805	-5.5138	-0.775	0.	137.
1806	-5.9079	-0.8365	0.	146.14
1807	-5.7303	-0.55725	0.	150.56
1808	-1.8001	0.43487	0.	149.9
1809	-1.91	0.615	0.	148.96
1810	-1.6274	0.81603	0.	166.07
1811	-1.5598	0.57507	0.	154.81
1812	-2.75	0.595	0.	141.92
1813	-2.85	0.41	0.	142.69
1814	-3.1879	0.50807	0.	149.56
1815	-2.9775	0.81308	0.	156.01
1816	-2.2001	-0.30516	0.	104.53
1817	-2.41	-0.31	0.	105.03
1818	-2.3439	-0.77728	0.	114.78
1819	-2.5664	-0.58265	0.	119.54
1820	-2.1012	-0.58141	0.	122.04
1821	4.905	0.27	0.	109.5
1822	4.66	0.4125	0.	145.06
1823	4.7054	-4.0016e-002	0.	126.29
1824	4.4223	0.15798	0.	136.97
1825	5.395	0.55	0.	111.32
1826	5.395	0.8325	0.	110.53
1827	5.8749	0.64733	0.	137.91
1828	5.6317	0.39403	0.	139.81
1829	5.6642	0.94788	0.	142.16
1830	4.66	0.9775	0.	143.82
1831	4.905	1.1175	0.	107.21
1832	4.4234	1.2142	0.	135.58
1833	4.7225	1.4465	0.	124.63
1834	-0.29	-0.95751	0.	127.47
1835	-0.48997	-1.015	0.	110.
1836	-0.4045	-1.3596	0.	117.94
1837	-0.12309	-1.2231	0.	130.15
1838	9.9983e-003	0.25749	0.	144.07
1839	-0.20667	0.38333	0.	130.24
1840	-1.7914e-002	0.70553	0.	133.36
1841	0.29049	0.48078	0.	138.98
1842	-1.7201	0.12487	0.	142.25
1843	-1.39	-0.14503	0.	132.56
1844	-1.2733	7.6667e-002	0.	138.63
1845	-1.6572	-0.15644	0.	149.71
1846	-1.4798	0.26507	0.	147.06
1847	-6.7933	-7.6233	0.	108.58
1848	-6.5933	-7.6033	0.	97.158
1849	-6.7075	-7.152	0.	112.51
1850	-6.9574	-7.3457	0.	120.52
1851	-6.4979	-7.3496	0.	115.51
1852	-7.1267	-8.3567	0.	144.28
1853	-7.01	-8.52	0.	137.49
1854	-7.1692	-8.7817	0.	142.88
1855	-7.4038	-8.5436	0.	145.28
1856	-6.1267	-8.2567	0.	137.16
1857	-6.21	-8.44	0.	133.5
1858	-5.7819	-8.3252	0.	149.23
1859	-5.9032	-8.6119	0.	160.69
1860	3.3225	-8.08	0.	136.02
1861	3.1212	-8.1713	0.	114.26
1862	3.5001	-8.3005	0.	132.21
1863	3.2072	-8.4741	0.	118.6
1864	3.4575	-6.76	0.	148.3
1865	3.2787	-6.6312	0.	127.51
1866	3.3778	-6.353	0.	128.91
1867	3.6303	-6.5244	0.	147.31
1868	2.0487	-7.3987	0.	122.7
1869	2.0712	-7.1788	0.	125.55
1870	1.8245	-6.9827	0.	144.87
1871	1.7554	-7.5003	0.	145.74
1872	1.5851	-7.2342	0.	141.62
1873	5.1467	-5.5567	0.	141.71
1874	5.2933	-5.72	0.	155.43
1875	5.3871	-5.2823	0.	152.17
1876	5.6219	-5.5474	0.	148.85
1877	4.2933	-5.7433	0.	140.74
1878	4.2267	-5.9533	0.	132.02
1879	3.9175	-5.9164	0.	155.89
1880	4.0596	-5.5886	0.	160.54
1881	5.0267	-6.56	0.	127.52
1882	4.8133	-6.6067	0.	105.01
1883	5.0442	-6.9476	0.	122.37
1884	4.8456	-6.9226	0.	114.21
1885	5.2193	-6.656	0.	127.02
1886	-3.0013	-6.7475	0.	121.73
1887	-2.8025	-6.8775	0.	142.88
1888	-2.7929	-6.4353	0.	131.21
1889	-2.5499	-6.6429	0.	137.37
1890	-4.2688	-7.3925	0.	122.33
1891	-4.2812	-7.63	0.	119.82
1892	-4.5123	-7.2099	0.	142.64
1893	-4.5402	-7.7419	0.	142.46
1894	-4.7241	-7.4803	0.	139.92
1895	-2.8775	-8.3025	0.	136.04
1896	-3.0887	-8.41	0.	112.6
1897	-2.6568	-8.5406	0.	132.41
1898	-2.9723	-8.751	0.	120.
1899	4.1985	6.	0.	127.87
1900	3.9487	6.2075	0.	106.26
1901	4.	5.75	0.	129.21
1902	4.188	6.1384	0.	133.62
1903	3.7737	5.9346	0.	118.2
1904	4.	5.25	0.	131.82
1905	4.25	5.	0.	124.04
1906	4.0205	4.7471	0.	125.47
1907	3.7731	4.9645	0.	126.62
1908	5.7981	6.	0.	127.17
1909	6.	5.75	0.	141.89
1910	6.2343	5.9789	0.	134.21
1911	5.9252	6.184	0.	129.94
1912	5.75	5.	0.	128.27
1913	6.	5.25	0.	141.23
1914	6.2509	4.9981	0.	134.39
1915	6.0111	4.7588	0.	132.7
1916	7.	-1.25	0.	141.74
1917	7.25	-1.	0.	126.53
1918	7.0055	-0.74305	0.	132.45
1919	6.7449	-0.99743	0.	135.47
1920	7.	-2.75	0.	140.74
1921	7.25	-3.	0.	125.65
1922	6.9948	-3.2562	0.	131.82
1923	6.7488	-3.0112	0.	133.65
1924	8.75	-1.	0.	127.97
1925	9.	-1.25	0.	145.24
1926	9.0012	-0.7495	0.	134.11
1927	9.2501	-0.99995	0.	138.43
1928	8.75	-3.	0.	128.48
1929	9.	-2.75	0.	145.43
1930	8.999	-3.2504	0.	134.55
1931	9.2499	-3.0001	0.	139.17
1932	6.	-6.25	0.	137.19
1933	6.25	-6.	0.	117.81
1934	5.8083	-6.0204	0.	137.91
1935	5.9419	-5.7924	0.	129.66
1936	6.	-7.75	0.	137.47
1937	6.25	-8.	0.	119.45
1938	5.7713	-8.0085	0.	129.41
1939	6.0061	-8.2521	0.	126.25
1940	6.75	-6.	0.	116.64
1941	7.	-6.25	0.	134.4
1942	6.9869	-5.7551	0.	124.54
1943	7.2478	-6.0008	0.	128.13
1944	6.75	-8.	0.	119.47
1945	7.	-7.75	0.	136.23
1946	7.2501	-8.	0.	130.83
1947	7.0011	-8.2502	0.	126.78
1948	9.75	10.	0.	125.02
1949	10.	9.75	0.	124.99
1950	-9.75	10.	0.	125.02
1951	-10.	9.75	0.	124.97
1952	10.	-9.75	0.	130.86
1953	9.75	-10.	0.	130.4
1954	-10.	-9.75	0.	129.55
1955	-9.75	-10.	0.	129.71
1956	4.5964	6.	0.	134.49
1957	4.3865	6.1384	0.	139.31
1958	-2.0002	6.4712e-002	0.	108.96
1959	3.7062	6.3675	0.	101.58
1960	0.3625	6.0363	0.	96.512
1961	8.6494e-002	5.9814	0.	106.79
1962	0.7175	5.7537	0.	100.11
1963	0.41623	5.6457	0.	112.88
1964	0.81825	5.3786	0.	106.84
1965	0.4675	6.7075	0.	103.91
1966	0.2206	6.8676	0.	107.15
1967	0.8925	6.8725	0.	107.83
1968	0.63196	7.0517	0.	113.87
1969	1.0761	7.2031	0.	108.55
1970	1.355	6.0012	0.	142.6
1971	1.5508	5.7709	0.	138.8
1972	1.425	6.4488	0.	143.45
1973	1.6239	6.2214	0.	141.14
1974	1.7016	6.6735	0.	139.9
1975	-6.625	7.215	0.	107.74
1976	-6.3492	7.3636	0.	105.16
1977	-6.8175	7.4707	0.	110.91
1978	-6.41	6.47	0.	83.719
1979	-6.0794	6.5386	0.	105.64
1980	-6.3975	6.1723	0.	103.2
1981	-7.165	6.655	0.	134.07
1982	-7.4479	6.9038	0.	136.89
1983	-7.3382	6.4135	0.	130.22
1984	-2.1224	5.2463	0.	100.42
1985	-2.6154	5.9986	0.	112.32
1986	-1.6469	6.0053	0.	116.89
1987	3.735	7.08	0.	86.086
1988	4.0695	7.0168	0.	104.06
1989	3.7385	7.4075	0.	104.74
1990	3.3237	6.2725	0.	108.53
1991	3.1234	6.0042	0.	112.82
1992	3.5312	6.0946	0.	105.72
1993	2.97	6.89	0.	141.1
1994	2.7867	7.1428	0.	136.95
1995	2.6605	6.6519	0.	142.24
1996	-4.4313	-1.6	0.	124.25
1997	-4.2718	-1.8333	0.	121.85
1998	-4.2587	-1.2	0.	130.73
1999	-4.1163	-1.4172	0.	131.31
2000	-3.9848	-1.0054	0.	133.48
2001	-5.08	-1.675	0.	105.45
2002	-5.1144	-2.0404	0.	110.88
2003	-5.34	-1.325	0.	108.45
2004	-5.4202	-1.6419	0.	118.5
2005	-5.6847	-1.24	0.	122.15
2006	-4.6487	-0.675	0.	113.24
2007	-4.4208	-0.39977	0.	108.87
2008	-5.0813	-0.725	0.	111.19
2009	-4.8589	-0.45152	0.	114.57
2010	-5.2957	-0.50383	0.	107.85
2011	-2.33	0.605	0.	110.72
2012	-2.0892	0.84078	0.	111.75
2013	-2.5348	0.83504	0.	111.35
2014	-1.9373	-0.2166	0.	114.05
2015	-2.63	5.e-002	0.	109.45
2016	-2.9381	0.14555	0.	128.65
2017	-2.7523	-0.22268	0.	116.05
2018	5.1796	0.19189	0.	91.12
2019	4.418	0.68589	0.	137.68
2020	5.1938	1.1637	0.	88.822
2021	-0.19001	-0.55253	0.	134.52
2022	-2.8589e-002	-0.81487	0.	129.26
2023	-9.0005e-002	-0.14752	0.	139.34
2024	0.14719	-0.41459	0.	134.24
2025	0.22659	3.627e-002	0.	136.01
2026	-0.7899	-0.72509	0.	102.95
2027	-0.76377	-1.098	0.	109.33
2028	-1.0899	-0.43509	0.	101.87
2029	-1.134	-0.80853	0.	118.
2030	-1.3826	-0.44677	0.	116.48
2031	-0.74	0.23	0.	108.53
2032	-0.51339	0.50693	0.	111.27
2033	-1.0097	0.38201	0.	110.81
2034	-6.96	-7.99	0.	119.67
2035	-7.1061	-7.7437	0.	118.68
2036	-7.2751	-8.1343	0.	130.04
2037	-6.36	-7.93	0.	95.44
2038	-6.2948	-7.6741	0.	105.59
2039	-6.0321	-7.9789	0.	117.6
2040	-6.61	-8.48	0.	98.936
2041	-6.7432	-8.7474	0.	106.7
2042	-6.3206	-8.6985	0.	101.9
2043	3.3675	-7.64	0.	143.56
2044	3.5586	-7.8612	0.	135.54
2045	3.4125	-7.2	0.	147.2
2046	3.6066	-7.4118	0.	141.18
2047	3.642	-6.963	0.	142.75
2048	2.7638	-7.9138	0.	101.74
2049	2.7704	-8.2709	0.	108.66
2050	2.4062	-7.6562	0.	97.253
2051	2.4624	-7.944	0.	111.79
2052	2.1289	-7.6923	0.	107.68
2053	2.8763	-6.8137	0.	108.79
2054	2.9307	-6.5676	0.	110.07
2055	2.4738	-6.9963	0.	103.64
2056	2.7295	-6.6589	0.	113.72
2057	2.2688	-6.8224	0.	107.05
2058	4.72	-5.65	0.	108.33
2059	4.9314	-5.3599	0.	111.22
2060	4.4936	-5.4773	0.	108.87
2061	5.16	-6.14	0.	139.52
2062	5.4217	-5.9854	0.	142.75
2063	5.2859	-6.446	0.	133.72
2064	4.52	-6.28	0.	88.573
2065	4.2337	-6.2559	0.	114.86
2066	4.4934	-6.65	0.	108.29
2067	-3.4237	-6.9625	0.	102.25
2068	-3.2342	-6.6125	0.	103.84
2069	-3.8463	-7.1775	0.	98.861
2070	-3.6642	-6.8102	0.	110.14
2071	-4.089	-7.015	0.	104.45
2072	-2.8275	-7.3525	0.	141.5
2073	-2.5711	-7.1152	0.	136.15
2074	-2.8525	-7.8275	0.	140.45
2075	-2.5957	-7.5896	0.	137.11
2076	-2.6229	-8.065	0.	134.33
2077	-3.8837	-7.89	0.	94.458
2078	-4.1521	-7.9578	0.	101.67
2079	-3.4862	-8.15	0.	97.832
2080	-3.7821	-8.228	0.	108.33
2081	-3.379	-8.4648	0.	102.34
2082	3.7747	5.4531	0.	126.64
2083	5.3956	6.	0.	120.04
2084	5.7233	6.184	0.	118.43
2085	4.9955	6.	0.	129.51
2086	5.253	6.2157	0.	120.1
2087	4.7998	6.2321	0.	124.47
2088	4.75	5.	0.	122.46
2089	4.5163	4.7564	0.	118.46
2090	5.25	5.	0.	122.78
2091	5.0141	4.7597	0.	122.81
2092	5.5125	4.7601	0.	119.46
2093	6.2453	5.4907	0.	138.54
2094	7.	-1.75	0.	146.42
2095	6.7447	-1.5031	0.	140.26
2096	7.	-2.25	0.	145.94
2097	6.7477	-2.0069	0.	141.02
2098	6.7496	-2.5092	0.	139.36
2099	7.75	-1.	0.	118.62
2100	7.5048	-0.74567	0.	116.01
2101	8.25	-1.	0.	118.96
2102	8.0035	-0.74755	0.	118.39
2103	8.5024	-0.74878	0.	116.56
2104	7.75	-3.	0.	118.33
2105	7.4958	-3.2531	0.	115.72
2106	8.25	-3.	0.	119.5
2107	7.9973	-3.2515	0.	118.93
2108	8.4981	-3.2508	0.	117.49
2109	9.	-1.75	0.	152.01
2110	9.25	-1.5	0.	145.97
2111	9.	-2.25	0.	152.11
2112	9.25	-2.	0.	147.88
2113	9.25	-2.5	0.	146.3
2114	6.	-6.75	0.	144.2
2115	5.7393	-6.521	0.	138.29
2116	6.	-7.25	0.	144.45
2117	5.7722	-7.0221	0.	143.03
2118	5.7775	-7.5152	0.	137.69
2119	6.4734	-5.7629	0.	107.12
2120	6.5025	-8.2506	0.	108.99
2121	7.	-6.75	0.	140.5
2122	7.2494	-6.5003	0.	135.51
2123	7.	-7.25	0.	141.16
2124	7.2498	-7.0001	0.	137.39
2125	7.25	-7.5001	0.	136.83
2126	9.25	10.	0.	125.11
2127	9.4992	9.7495	0.	124.99
2128	8.75	10.	0.	125.3
2129	8.9986	9.7492	0.	125.15
2130	8.25	10.	0.	125.52
2131	8.4981	9.749	0.	125.35
2132	7.75	10.	0.	125.7
2133	7.9981	9.7493	0.	125.54
2134	7.25	10.	0.	125.79
2135	7.4984	9.7505	0.	125.66
2136	6.75	10.	0.	125.73
2137	6.999	9.7533	0.	125.68
2138	6.25	10.	0.	125.5
2139	6.4996	9.7574	0.	125.57
2140	5.75	10.	0.	125.07
2141	6.0002	9.7618	0.	125.32
2142	5.25	10.	0.	124.42
2143	5.5008	9.7655	0.	124.91
2144	4.75	10.	0.	123.6
2145	5.0013	9.7685	0.	124.32
2146	4.25	10.	0.	122.83
2147	4.5021	9.7675	0.	123.57
2148	3.75	10.	0.	122.45
2149	4.003	9.7637	0.	122.91
2150	3.25	10.	0.	122.7
2151	3.504	9.7595	0.	122.79
2152	2.75	10.	0.	123.44
2153	3.004	9.7579	0.	123.47
2154	2.25	10.	0.	124.21
2155	2.5028	9.7563	0.	124.44
2156	1.75	10.	0.	124.6
2157	2.0008	9.7536	0.	124.99
2158	1.25	10.	0.	124.64
2159	1.4987	9.7499	0.	124.93
2160	0.75	10.	0.	124.64
2161	0.99715	9.7461	0.	124.7
2162	0.25	10.	0.	124.84
2163	0.49653	9.7454	0.	124.72
2164	-0.25	10.	0.	125.22
2165	-3.7747e-003	9.7477	0.	125.06
2166	-0.75	10.	0.	125.62
2167	-0.50399	9.75	0.	125.49
2168	-1.25	10.	0.	125.9
2169	-1.0039	9.7511	0.	125.78
2170	-1.75	10.	0.	126.07
2171	-1.5033	9.7516	0.	125.89
2172	-2.25	10.	0.	126.23
2173	-2.0024	9.752	0.	125.94
2174	-2.75	10.	0.	126.47
2175	-2.5014	9.7528	0.	126.07
2176	-3.25	10.	0.	126.76
2177	-3.0004	9.7541	0.	126.31
2178	-3.75	10.	0.	126.97
2179	-3.4994	9.7557	0.	126.6
2180	-4.25	10.	0.	126.89
2181	-3.9984	9.7574	0.	126.77
2182	-4.75	10.	0.	126.31
2183	-4.4972	9.7588	0.	126.62
2184	-5.25	10.	0.	125.17
2185	-4.996	9.7593	0.	125.97
2186	-5.75	10.	0.	123.7
2187	-5.4946	9.7585	0.	124.79
2188	-6.25	10.	0.	122.42
2189	-5.9921	9.7587	0.	123.37
2190	-6.75	10.	0.	121.84
2191	-6.4888	9.7606	0.	122.29
2192	-7.25	10.	0.	122.17
2193	-6.9872	9.7554	0.	122.18
2194	-7.75	10.	0.	123.09
2195	-7.4857	9.7334	0.	123.04
2196	-8.25	10.	0.	124.08
2197	-7.989	9.735	0.	124.17
2198	-8.75	10.	0.	124.75
2199	-8.4941	9.7413	0.	124.91
2200	-9.25	10.	0.	124.99
2201	-8.9973	9.7454	0.	125.13
2202	-9.4989	9.7482	0.	125.04
2203	10.	9.25	0.	124.8
2204	9.7492	9.4995	0.	124.95
2205	10.	8.75	0.	124.38
2206	9.7483	8.9992	0.	124.67
2207	10.	8.25	0.	123.81
2208	9.7473	8.4988	0.	124.27
2209	10.	7.75	0.	123.19
2210	9.7461	7.9987	0.	123.8
2211	10.	7.25	0.	122.59
2212	9.7457	7.4989	0.	123.32
2213	10.	6.75	0.	122.13
2214	9.7459	6.9991	0.	122.9
2215	10.	6.25	0.	121.91
2216	9.7465	6.4993	0.	122.62
2217	10.	5.75	0.	122.04
2218	9.7474	5.9995	0.	122.59
2219	10.	5.25	0.	122.55
2220	9.7484	5.4997	0.	122.88
2221	10.	4.75	0.	123.37
2222	9.7493	4.9998	0.	123.47
2223	10.	4.25	0.	124.35
2224	9.7502	4.5	0.	124.27
2225	10.	3.75	0.	125.31
2226	9.7507	4.0002	0.	125.11
2227	10.	3.25	0.	126.14
2228	9.7514	3.5004	0.	125.87
2229	10.	2.75	0.	126.82
2230	9.7524	3.0008	0.	126.49
2231	10.	2.25	0.	127.47
2232	9.7538	2.5011	0.	127.
2233	10.	1.75	0.	128.37
2234	9.7558	2.0014	0.	127.55
2235	10.	1.25	0.	129.88
2236	9.7557	1.5013	0.	128.37
2237	10.	0.75	0.	132.36
2238	9.7541	1.0008	0.	129.76
2239	10.	0.25	0.	135.84
2240	9.7527	0.50052	0.	131.96
2241	10.	-0.25	0.	138.64
2242	9.7515	3.1303e-004	0.	135.05
2243	10.	-0.75	0.	138.13
2244	9.7506	-0.49985	0.	138.24
2245	10.	-1.25	0.	135.01
2246	9.7501	-0.99995	0.	137.3
2247	10.	-1.75	0.	133.41
2248	9.75	-1.5	0.	137.09
2249	10.	-2.25	0.	133.95
2250	9.75	-2.	0.	138.17
2251	10.	-2.75	0.	136.53
2252	9.75	-2.5	0.	137.84
2253	10.	-3.25	0.	140.39
2254	9.7499	-3.0001	0.	138.91
2255	10.	-3.75	0.	141.21
2256	9.7495	-3.5002	0.	140.27
2257	10.	-4.25	0.	138.24
2258	9.7492	-4.0002	0.	137.18
2259	10.	-4.75	0.	134.13
2260	9.7492	-4.5002	0.	133.89
2261	10.	-5.25	0.	130.6
2262	9.7493	-5.0001	0.	131.09
2263	10.	-5.75	0.	127.89
2264	9.7494	-5.5001	0.	128.81
2265	10.	-6.25	0.	126.08
2266	9.7495	-6.	0.	127.11
2267	10.	-6.75	0.	125.27
2268	9.7497	-6.5	0.	126.11
2269	10.	-7.25	0.	125.45
2270	9.7499	-7.	0.	125.9
2271	10.	-7.75	0.	126.43
2272	9.75	-7.5	0.	126.42
2273	10.	-8.25	0.	127.83
2274	9.75	-8.	0.	127.43
2275	10.	-8.75	0.	129.24
2276	9.75	-8.5	0.	128.59
2277	10.	-9.25	0.	130.31
2278	9.75	-9.	0.	129.57
2279	9.75	-9.5	0.	130.19
2280	-10.	9.25	0.	124.81
2281	-9.7489	9.4982	0.	125.
2282	-10.	8.75	0.	124.33
2283	-9.7496	8.9968	0.	124.95
2284	-10.	8.25	0.	123.28
2285	-9.7524	8.4957	0.	124.54
2286	-10.	7.75	0.	121.8
2287	-9.7566	7.9946	0.	123.55
2288	-10.	7.25	0.	120.59
2289	-9.7589	7.4937	0.	122.32
2290	-10.	6.75	0.	120.5
2291	-9.7598	6.9929	0.	121.67
2292	-10.	6.25	0.	121.78
2293	-9.7587	6.4931	0.	122.21
2294	-10.	5.75	0.	123.87
2295	-9.7566	5.9941	0.	123.73
2296	-10.	5.25	0.	125.94
2297	-9.7539	5.4958	0.	125.48
2298	-10.	4.75	0.	127.4
2299	-9.7513	4.9975	0.	126.85
2300	-10.	4.25	0.	128.14
2301	-9.7489	4.4992	0.	127.62
2302	-10.	3.75	0.	128.32
2303	-9.7482	4.0008	0.	127.89
2304	-10.	3.25	0.	128.16
2305	-9.7488	3.5021	0.	127.85
2306	-10.	2.75	0.	127.81
2307	-9.7501	3.0034	0.	127.63
2308	-10.	2.25	0.	127.37
2309	-9.7526	2.5036	0.	127.33
2310	-10.	1.75	0.	126.85
2311	-9.7549	2.0032	0.	126.96
2312	-10.	1.25	0.	126.27
2313	-9.7564	1.5023	0.	126.53
2314	-10.	0.75	0.	125.65
2315	-9.7577	1.0012	0.	126.05
2316	-10.	0.25	0.	125.07
2317	-9.7572	0.50039	0.	125.56
2318	-10.	-0.25	0.	124.64
2319	-9.7566	-2.0716e-004	0.	125.14
2320	-10.	-0.75	0.	124.47
2321	-9.7549	-0.50051	0.	124.88
2322	-10.	-1.25	0.	124.64
2323	-9.754	-1.0003	0.	124.89
2324	-10.	-1.75	0.	125.16
2325	-9.7535	-1.4999	0.	125.19
2326	-10.	-2.25	0.	125.94
2327	-9.7538	-1.9995	0.	125.76
2328	-10.	-2.75	0.	126.85
2329	-9.7545	-2.4991	0.	126.5
2330	-10.	-3.25	0.	127.76
2331	-9.7553	-2.9988	0.	127.28
2332	-10.	-3.75	0.	128.55
2333	-9.7559	-3.4985	0.	127.99
2334	-10.	-4.25	0.	129.18
2335	-9.7553	-3.9986	0.	128.59
2336	-10.	-4.75	0.	129.59
2337	-9.7544	-4.4989	0.	129.02
2338	-10.	-5.25	0.	129.75
2339	-9.7533	-4.9994	0.	129.27
2340	-10.	-5.75	0.	129.58
2341	-9.7526	-5.5	0.	129.32
2342	-10.	-6.25	0.	129.02
2343	-9.7533	-6.0003	0.	129.1
2344	-10.	-6.75	0.	128.06
2345	-9.7564	-6.5008	0.	128.55
2346	-10.	-7.25	0.	126.93
2347	-9.7592	-7.0013	0.	127.71
2348	-10.	-7.75	0.	126.11
2349	-9.7597	-7.502	0.	126.85
2350	-10.	-8.25	0.	126.15
2351	-9.7575	-8.0021	0.	126.47
2352	-10.	-8.75	0.	127.15
2353	-9.7558	-8.5018	0.	126.95
2354	-10.	-9.25	0.	128.56
2355	-9.7545	-9.0014	0.	128.11
2356	-9.7526	-9.5009	0.	129.25
2357	-9.25	-10.	0.	130.14
2358	-9.5026	-9.7509	0.	129.41
2359	-8.75	-10.	0.	131.38
2360	-9.0056	-9.7516	0.	130.48
2361	-8.25	-10.	0.	131.72
2362	-8.5095	-9.7526	0.	131.85
2363	-7.75	-10.	0.	128.61
2364	-8.0149	-9.7547	0.	132.14
2365	-7.25	-10.	0.	121.75
2366	-7.5216	-9.757	0.	127.04
2367	-6.75	-10.	0.	117.04
2368	-7.028	-9.755	0.	117.66
2369	-6.25	-10.	0.	119.72
2370	-6.5298	-9.7457	0.	114.43
2371	-5.75	-10.	0.	126.64
2372	-6.0143	-9.7246	0.	123.68
2373	-5.25	-10.	0.	130.66
2374	-5.5143	-9.7909	0.	130.86
2375	-4.75	-10.	0.	128.78
2376	-5.0281	-9.7737	0.	131.45
2377	-4.25	-10.	0.	123.24
2378	-4.5328	-9.7505	0.	127.02
2379	-3.75	-10.	0.	117.79
2380	-4.0311	-9.7333	0.	120.36
2381	-3.25	-10.	0.	116.28
2382	-3.523	-9.7463	0.	114.96
2383	-2.75	-10.	0.	120.14
2384	-3.0122	-9.7446	0.	116.34
2385	-2.25	-10.	0.	126.33
2386	-2.5035	-9.7507	0.	123.68
2387	-1.75	-10.	0.	130.7
2388	-1.9965	-9.7555	0.	129.95
2389	-1.25	-10.	0.	132.43
2390	-1.4932	-9.7573	0.	132.06
2391	-0.75	-10.	0.	132.79
2392	-0.99219	-9.7582	0.	132.57
2393	-0.25	-10.	0.	132.76
2394	-0.49222	-9.7593	0.	132.61
2395	0.25	-10.	0.	132.49
2396	7.5342e-003	-9.7611	0.	132.54
2397	0.75	-10.	0.	131.64
2398	0.50744	-9.7636	0.	132.2
2399	1.25	-10.	0.	129.69
2400	1.008	-9.7663	0.	131.07
2401	1.75	-10.	0.	126.36
2402	1.5091	-9.7669	0.	128.5
2403	2.25	-10.	0.	122.32
2404	2.0099	-9.7645	0.	124.37
2405	2.75	-10.	0.	119.58
2406	2.5091	-9.7634	0.	120.12
2407	3.25	-10.	0.	119.96
2408	3.0066	-9.7716	0.	118.48
2409	3.75	-10.	0.	122.91
2410	3.5036	-9.7796	0.	121.14
2411	4.25	-10.	0.	125.76
2412	4.0011	-9.7755	0.	125.08
2413	4.75	-10.	0.	126.61
2414	4.4982	-9.7523	0.	127.08
2415	5.25	-10.	0.	125.41
2416	4.9984	-9.7487	0.	126.65
2417	5.75	-10.	0.	123.1
2418	5.5002	-9.7504	0.	124.46
2419	6.25	-10.	0.	121.28
2420	6.001	-9.7507	0.	121.66
2421	6.75	-10.	0.	121.42
2422	6.5009	-9.7505	0.	120.4
2423	7.25	-10.	0.	123.51
2424	7.0006	-9.7503	0.	121.99
2425	7.75	-10.	0.	126.12
2426	7.5004	-9.7501	0.	125.07
2427	8.25	-10.	0.	127.99
2428	8.0002	-9.7501	0.	127.54
2429	8.75	-10.	0.	128.96
2430	8.5001	-9.75	0.	128.76
2431	9.25	-10.	0.	129.53
2432	9.	-9.75	0.	129.26
2433	9.5	-9.75	0.	129.73
2434	-6.0448	2.9319	0.	124.82
2435	-5.8283	2.7335	0.	125.
2436	-5.6545	3.0422	0.	125.36
2437	-5.8291	3.1903	0.	124.98
2438	-5.3739	2.418	0.	125.17
2439	-5.6021	2.5962	0.	125.25
2440	-5.4283	2.9049	0.	125.61
2441	-5.1764	2.713	0.	125.93
2442	-4.5907	3.7465	0.	128.05
2443	-4.5639	3.1839	0.	127.48
2444	-4.3521	3.4845	0.	127.93
2445	-4.7708	3.6588	0.	127.59
2446	-4.8223	3.3433	0.	127.19
2447	-0.12506	-4.6408	0.	128.39
2448	-0.37189	-4.8752	0.	128.43
2449	-0.66375	-4.5857	0.	127.87
2450	-0.37706	-4.3584	0.	127.73
2451	2.163	-3.2099	0.	128.13
2452	2.6991	-3.2173	0.	127.2
2453	2.4658	-3.466	0.	127.69
2454	2.4212	-3.0009	0.	127.75
2455	0.86279	-3.7251	0.	128.38
2456	1.1025	-3.9537	0.	128.55
2457	0.94679	-3.4972	0.	128.48
2458	1.3157	-3.6587	0.	128.56
2459	-6.2423	2.7077	0.	124.76
2460	-6.4529	2.9387	0.	124.54
2461	-6.231	3.1471	0.	124.4
2462	-5.395	3.7366	0.	126.05
2463	-5.3598	3.3751	0.	126.07
2464	-5.0936	3.7255	0.	126.95
2465	-5.1452	3.41	0.	126.55
2466	4.5048	-3.3207	0.	122.39
2467	4.248	-3.5631	0.	123.14
2468	4.4788	-3.7787	0.	122.15
2469	4.7439	-3.5536	0.	122.6
2470	-4.341	4.035	0.	128.76
2471	-4.6476	4.308	0.	128.4
2472	-4.751	3.9411	0.	127.93
2473	0.71748	-3.5061	0.	128.29
2474	0.39967	-3.7015	0.	127.79
2475	0.62907	-3.965	0.	128.33
2476	0.1351	-4.4144	0.	128.33
2477	0.14572	-4.9152	0.	128.83
2478	0.3869	-4.6767	0.	128.75
2479	4.2581	-3.1045	0.	122.91
2480	4.5054	-2.8593	0.	122.18
2481	4.7598	-3.0816	0.	122.54
2482	-0.10112	-5.1496	0.	128.86
2483	-0.61243	-5.1276	0.	128.6
2484	-0.3435	-5.3901	0.	128.66
2485	-1.1706	-4.4236	0.	127.06
2486	-1.3712	-4.0728	0.	126.17
2487	-1.406	-4.51	0.	126.94
2488	-1.6311	-4.2738	0.	126.13
2489	-0.90404	-4.2795	0.	127.06
2490	-1.1773	-4.6409	0.	127.46
2491	-0.90428	-4.8381	0.	128.04
2492	2.0715	2.3941	0.	129.79
2493	1.9624	2.6193	0.	129.92
2494	1.6441	2.4191	0.	129.62
2495	1.848	2.1813	0.	129.59
2496	1.3294	-0.92543	0.	127.69
2497	1.5759	-1.1573	0.	127.76
2498	1.5863	-0.68455	0.	126.21
2499	1.8629	-0.92498	0.	126.73
2500	-4.4906	2.6392	0.	127.07
2501	-4.2828	2.937	0.	127.4
2502	-4.7385	2.8362	0.	126.8
2503	3.9969	-2.8931	0.	123.31
2504	3.9702	-2.4408	0.	123.18
2505	4.2442	-2.648	0.	122.59
2506	3.7272	-2.6907	0.	124.03
2507	1.828	-4.1626	0.	127.91
2508	2.3022	-4.2128	0.	127.48
2509	2.0378	-3.9245	0.	127.89
2510	2.0551	-4.4106	0.	127.25
2511	4.0013	-3.3469	0.	123.66
2512	3.7447	-3.141	0.	124.3
2513	2.2083	-1.893	0.	127.95
2514	2.5663	-1.6913	0.	127.2
2515	2.673	-1.9009	0.	127.04
2516	2.4288	-2.1323	0.	127.59
2517	-0.1169	-4.132	0.	127.66
2518	0.15029	-3.9166	0.	127.71
2519	0.37968	-4.18	0.	128.25
2520	-1.5834	-3.8094	0.	125.59
2521	-1.1046	-3.9286	0.	126.17
2522	-1.3248	-3.6083	0.	125.33
2523	-1.8432	-4.0104	0.	125.54
2524	-1.8054	-3.5168	0.	125.16
2525	-2.0604	-3.7498	0.	125.21
2526	-5.344	1.9377	0.	124.22
2527	-5.134	2.2287	0.	125.27
2528	-5.574	2.1325	0.	124.77
2529	-6.0258	2.5093	0.	124.95
2530	-5.8022	2.3106	0.	124.85
2531	-6.2375	2.2548	0.	125.
2532	-6.4592	2.4799	0.	124.97
2533	-6.4589	2.0133	0.	125.33
2534	-6.2329	1.7924	0.	125.21
2535	-6.0139	2.0561	0.	124.89
2536	-0.61736	-4.0522	0.	126.92
2537	-0.84645	-3.7457	0.	125.94
2538	-0.35082	-3.8462	0.	126.8
2539	1.9499	-3.4367	0.	128.34
2540	1.614	-3.1932	0.	128.69
2541	1.8809	-2.9789	0.	128.62
2542	3.2249	-3.1887	0.	125.91
2543	2.9817	-3.4515	0.	126.84
2544	2.9532	-2.9876	0.	126.57
2545	1.3504	-4.1709	0.	128.36
2546	1.5894	-4.4034	0.	128.02
2547	1.5636	-3.8759	0.	128.37
2548	1.1168	-4.4351	0.	128.58
2549	0.86878	-4.1935	0.	128.51
2550	-6.6806	2.2385	0.	125.3
2551	-6.6841	1.7623	0.	125.91
2552	-6.9106	1.9994	0.	125.74
2553	-6.9031	2.4826	0.	125.14
2554	-6.6698	2.711	0.	124.74
2555	-6.5528	3.6565	0.	123.23
2556	-6.8195	3.439	0.	123.74
2557	-6.6331	3.1816	0.	124.09
2558	-6.4112	3.39	0.	123.95
2559	4.7724	7.3281	0.	125.95
2560	4.7245	7.1282	0.	125.01
2561	4.3968	7.2282	0.	127.02
2562	4.4692	7.5236	0.	127.08
2563	3.9231	-1.9825	0.	123.44
2564	4.2072	-2.1865	0.	122.39
2565	3.6914	-2.2369	0.	124.07
2566	-4.4465	2.1166	0.	126.62
2567	-4.6886	2.3266	0.	126.3
2568	-4.2322	2.4078	0.	127.28
2569	-3.7236e-002	3.2482	0.	126.98
2570	-4.639e-002	3.7374	0.	127.62
2571	-0.2928	3.5076	0.	127.25
2572	0.2201	3.5072	0.	126.99
2573	2.7754	-4.2215	0.	127.46
2574	2.5187	-4.5302	0.	126.47
2575	2.517	-3.9811	0.	127.49
2576	-1.3874	-4.9511	0.	127.85
2577	-1.6469	-4.7302	0.	126.81
2578	4.7508	-2.61	0.	122.02
2579	4.4812	-2.3936	0.	121.81
2580	2.6646	2.7045	0.	130.01
2581	2.8744	2.9658	0.	129.68
2582	2.3375	2.8908	0.	130.14
2583	2.5965	3.1729	0.	130.37
2584	2.4946	2.4344	0.	129.84
2585	2.7263	2.2395	0.	129.51
2586	2.9503	2.4998	0.	129.67
2587	-6.7317	3.9197	0.	122.68
2588	-6.4147	4.1463	0.	122.18
2589	-6.3027	3.8321	0.	123.31
2590	0.40724	-5.1745	0.	129.17
2591	0.16762	-5.4157	0.	129.02
2592	-4.071	3.2376	0.	127.85
2593	-4.1024	3.773	0.	128.64
2594	-3.8436	3.5138	0.	127.78
2595	-3.8059	2.988	0.	127.15
2596	-4.0244	2.7057	0.	127.6
2597	-6.4582	1.5414	0.	125.78
2598	-6.9151	1.5168	0.	126.44
2599	-6.6844	1.2826	0.	126.75
2600	-5.1088	1.7388	0.	123.95
2601	-4.8751	1.5321	0.	122.98
2602	-4.6567	1.8199	0.	125.32
2603	-4.8988	2.0299	0.	125.
2604	-5.5569	1.6569	0.	123.88
2605	-5.3257	1.4533	0.	122.63
2606	-3.0069	-4.2175	0.	122.83
2607	-3.2171	-3.968	0.	123.12
2608	-3.3366	-4.4693	0.	121.2
2609	-3.4331	-4.2301	0.	121.86
2610	-2.0989	-4.2458	0.	125.15
2611	-1.8719	-4.494	0.	125.99
2612	-1.5468	-3.3158	0.	124.9
2613	-1.7621	-3.0091	0.	124.63
2614	-2.0275	-3.2409	0.	125.15
2615	-1.0666	-3.4254	0.	125.09
2616	-1.2847	-3.1095	0.	124.26
2617	1.7171	-1.8537	0.	128.98
2618	2.0401	-1.6379	0.	127.98
2619	1.9318	-2.092	0.	128.59
2620	-0.29221	3.0053	0.	126.35
2621	-0.80051	3.0192	0.	125.32
2622	-0.54778	3.2647	0.	126.63
2623	-0.54763	2.7632	0.	125.57
2624	3.7453	-3.6048	0.	124.84
2625	3.9863	-3.8071	0.	124.27
2626	2.2831	2.1734	0.	129.46
2627	2.1675	2.6207	0.	129.96
2628	-5.3564	4.0637	0.	126.4
2629	-5.7003	4.024	0.	125.
2630	-5.6733	3.6621	0.	125.31
2631	-6.5799	-4.1661	0.	126.05
2632	-6.5709	-4.6574	0.	125.35
2633	-6.3273	-4.4089	0.	125.24
2634	-6.8198	-4.4179	0.	125.99
2635	-6.8296	-3.9301	0.	126.73
2636	-6.5932	-3.682	0.	126.92
2637	-6.3416	-3.9128	0.	125.84
2638	-5.5663	-5.1791	0.	124.95
2639	-5.3171	-4.9062	0.	123.91
2640	-5.5779	-4.6537	0.	123.99
2641	-5.8194	-4.9133	0.	124.53
2642	0.87948	-4.6839	0.	128.75
2643	0.64841	-4.936	0.	129.1
2644	0.63148	-4.4424	0.	128.68
2645	-6.9984	3.7023	0.	123.2
2646	-6.9199	4.1657	0.	121.72
2647	-7.2096	3.9745	0.	123.22
2648	1.3558	-4.6676	0.	128.24
2649	1.6088	-4.9019	0.	127.67
2650	1.8165	-4.6513	0.	127.36
2651	1.1366	-4.9296	0.	128.81
2652	-5.2847	-5.452	0.	125.43
2653	-5.5866	-5.7246	0.	126.26
2654	-5.8201	-5.43	0.	125.1
2655	-5.0355	-5.1791	0.	124.39
2656	-5.0797	-4.6354	0.	122.88
2657	-4.8192	-4.867	0.	122.77
2658	-4.9516	4.4195	0.	127.77
2659	-5.3442	4.421	0.	126.68
2660	-5.055	4.0526	0.	127.3
2661	-2.8237	3.0287	0.	123.77
2662	-2.5656	2.7834	0.	122.56
2663	-2.581	3.2819	0.	122.56
2664	-2.3217	3.0332	0.	122.32
2665	2.2648	1.7239	0.	128.49
2666	2.5149	1.9785	0.	129.13
2667	2.0596	1.9606	0.	129.26
2668	2.0203	1.5086	0.	128.31
2669	2.192	1.2679	0.	127.23
2670	2.4778	1.5187	0.	127.78
2671	3.4908	-3.8799	0.	126.44
2672	3.4887	-3.3989	0.	125.48
2673	3.2455	-3.6617	0.	126.41
2674	0.21552	2.9938	0.	127.05
2675	0.72297	2.9771	0.	127.79
2676	0.45954	2.7379	0.	127.49
2677	0.47285	3.2529	0.	127.06
2678	-4.3274e-002	2.7482	0.	126.47
2679	-0.57992	-3.5397	0.	125.81
2680	-0.80165	-3.2352	0.	124.62
2681	-2.5687	-4.2357	0.	123.95
2682	-2.3525	-4.4865	0.	124.42
2683	-2.3161	-3.9852	0.	124.82
2684	-2.8428	-4.4895	0.	122.5
2685	-2.7824	-3.9785	0.	123.96
2686	-6.0059	1.588	0.	124.75
2687	-5.7758	1.3791	0.	123.9
2688	-5.7869	1.8517	0.	124.44
2689	-6.229	1.32	0.	125.65
2690	-3.3181	3.0151	0.	125.79
2691	-3.0599	2.7713	0.	124.83
2692	-3.0825	3.2773	0.	125.01
2693	-3.5784	3.2642	0.	127.08
2694	-3.5458	2.7461	0.	126.9
2695	0.95895	2.7168	0.	128.52
2696	0.98709	3.2183	0.	127.75
2697	1.2371	2.9444	0.	128.76
2698	-1.0563	3.2773	0.	125.24
2699	-1.3084	3.0289	0.	123.79
2700	-1.0539	2.7772	0.	124.43
2701	-7.0667	3.2185	0.	124.17
2702	-7.2676	3.4784	0.	124.08
2703	-7.3254	2.9873	0.	124.79
2704	-7.1136	2.7327	0.	124.92
2705	-6.8803	2.9611	0.	124.52
2706	-7.1416	1.7539	0.	126.28
2707	-7.145	1.2641	0.	127.04
2708	-7.3783	1.5079	0.	126.66
2709	-7.3698	2.0003	0.	126.02
2710	-7.1332	2.2435	0.	125.59
2711	-6.9143	1.0299	0.	127.35
2712	-7.14	0.76999	0.	127.82
2713	-7.3773	1.0137	0.	127.3
2714	-4.1258	4.3036	0.	129.24
2715	-3.8595	4.0406	0.	129.01
2716	5.2529	-2.5771	0.	122.88
2717	5.0052	-2.8323	0.	122.37
2718	4.9888	-2.3494	0.	121.61
2719	-1.3488	-5.4163	0.	128.74
2720	-1.6125	-5.191	0.	127.93
2721	-1.1144	-5.1483	0.	128.43
2722	-0.56322	-6.1457	0.	127.92
2723	-0.3097	-6.3958	0.	127.22
2724	-5.252e-002	-6.1603	0.	128.07
2725	-0.31856	-5.8989	0.	128.22
2726	-2.6219e-002	4.1923	0.	127.97
2727	0.19988	4.0332	0.	126.68
2728	-0.30278	4.0025	0.	128.74
2729	4.9255	7.1434	0.	123.18
2730	4.954	7.5441	0.	125.39
2731	5.198	7.32	0.	123.12
2732	1.043	-0.69099	0.	127.46
2733	0.83389	-0.93379	0.	129.14
2734	1.0548	-1.1557	0.	129.29
2735	5.7407	-2.0501	0.	125.03
2736	5.4771	-1.8115	0.	122.55
2737	5.4957	-2.3139	0.	123.33
2738	5.2317	-2.0862	0.	122.06
2739	5.1118	3.3324	0.	119.25
2740	5.0758	3.8041	0.	118.98
2741	5.3386	3.5667	0.	120.38
2742	4.8453	3.5613	0.	119.5
2743	-4.3578	5.8347	0.	125.83
2744	-4.223	6.3358	0.	125.07
2745	-4.5114	6.0987	0.	125.92
2746	-4.0489	6.0757	0.	124.77
2747	1.8587	-5.1229	0.	126.47
2748	2.1253	-5.3201	0.	124.45
2749	2.2959	-4.9537	0.	125.52
2750	2.0664	-4.8723	0.	126.16
2751	-5.5986	-4.1349	0.	123.47
2752	-5.8339	-4.3999	0.	124.22
2753	-5.3406	-4.3828	0.	122.97
2754	-2.987	-3.2322	0.	125.77
2755	-2.5084	-3.2085	0.	125.59
2756	-2.7526	-2.9244	0.	126.21
2757	-2.7556	-3.4626	0.	125.22
2758	-5.6881	4.3813	0.	125.28
2759	-6.0975	4.2849	0.	122.98
2760	-5.9854	3.9707	0.	124.1
2761	-3.3428	3.5264	0.	126.31
2762	-3.6007	3.7814	0.	128.16
2763	-4.6347	4.842	0.	128.27
2764	-4.9152	4.8006	0.	128.29
2765	-4.4325	4.5766	0.	128.88
2766	-0.80359	3.5229	0.	126.55
2767	-0.54919	3.7727	0.	128.39
2768	-1.8243	3.5301	0.	122.21
2769	-2.3338	3.5307	0.	121.87
2770	-2.0828	3.7784	0.	120.32
2771	-2.0745	3.2821	0.	121.63
2772	2.7279	1.7733	0.	128.41
2773	2.9758	2.0283	0.	129.37
2774	5.3772	3.0954	0.	120.38
2775	4.8836	3.0923	0.	119.61
2776	5.1509	2.8629	0.	118.7
2777	4.1597	-1.7205	0.	122.55
2778	3.8604	-1.5145	0.	124.5
2779	3.6355	-1.7767	0.	124.6
2780	2.9558	-0.89747	0.	126.83
2781	2.6864	-1.1947	0.	126.75
2782	2.6759	-0.66945	0.	126.16
2783	2.4104	-0.92636	0.	126.52
2784	2.3762	0.57332	0.	125.01
2785	2.6442	0.34036	0.	124.78
2786	2.6552	0.82859	0.	125.26
2787	2.9014	0.60919	0.	124.57
2788	3.252	-4.1588	0.	127.33
2789	3.0163	-4.4491	0.	127.57
2790	3.0068	-3.9406	0.	127.31
2791	4.2172	-4.0228	0.	123.28
2792	4.4327	-4.2212	0.	121.71
2793	4.7052	-4.0299	0.	121.84
2794	0.69553	2.4776	0.	128.22
2795	0.93151	2.223	0.	129.17
2796	1.1816	2.4572	0.	129.16
2797	1.5954	1.5179	0.	129.21
2798	1.6912	1.2992	0.	128.48
2799	1.8151	1.7453	0.	129.07
2800	1.4135	-2.0616	0.	129.6
2801	1.2087	-1.8388	0.	130.06
2802	1.5121	-1.616	0.	129.03
2803	-3.1001e-002	-3.1474	0.	126.08
2804	0.2678	-2.951	0.	127.03
2805	0.51465	-3.2358	0.	127.69
2806	0.19684	-3.4312	0.	127.19
2807	-1.5	-2.8028	0.	123.99
2808	-1.2257	-2.5968	0.	123.07
2809	-1.0198	-2.9193	0.	123.78
2810	-2.1254	-4.7346	0.	125.26
2811	-1.872	-4.9701	0.	126.89
2812	-0.82517	-5.8909	0.	128.36
2813	-1.0839	-5.6495	0.	128.91
2814	-0.84944	-5.3816	0.	128.6
2815	-0.58051	-5.644	0.	128.66
2816	-0.82867	-6.8704	0.	126.2
2817	-0.58248	-7.1175	0.	125.76
2818	-0.85187	-7.351	0.	125.71
2819	-1.0882	-7.1094	0.	125.78
2820	-6.4553	1.0612	0.	126.62
2821	-6.6791	0.79584	0.	128.
2822	-5.092	1.2465	0.	121.64
2823	-4.8597	1.0352	0.	119.6
2824	-4.637	1.3183	0.	123.04
2825	-5.3131	0.96613	0.	120.44
2826	-5.5447	1.1755	0.	122.64
2827	3.3849	3.0187	0.	127.99
2828	3.1115	3.2271	0.	129.22
2829	3.1601	2.7612	0.	129.35
2830	5.8665	3.0872	0.	123.22
2831	5.6428	2.8587	0.	121.47
2832	5.6041	3.3297	0.	121.51
2833	-2.3073	2.5361	0.	122.02
2834	-2.8019	2.526	0.	123.62
2835	-2.5486	2.2859	0.	121.87
2836	-1.807	2.5362	0.	122.18
2837	-2.0533	2.2904	0.	121.15
2838	-2.0633	2.7859	0.	121.78
2839	-7.3683	0.51409	0.	127.75
2840	-6.9047	0.53591	0.	128.46
2841	-7.1247	0.26906	0.	128.11
2842	-7.0784	-3.6987	0.	127.39
2843	-7.3166	-3.9481	0.	127.18
2844	-7.0695	-4.1818	0.	126.67
2845	-7.3252	-3.4646	0.	127.75
2846	-6.842	-3.4506	0.	127.58
2847	-7.0884	-3.2199	0.	128.02
2848	-7.5529	-4.6872	0.	126.6
2849	-7.5465	-5.1691	0.	126.14
2850	-7.7934	-4.9486	0.	126.75
2851	-7.3062	-4.9185	0.	125.97
2852	-7.5573	-4.2009	0.	127.09
2853	-7.7981	-4.4564	0.	127.08
2854	-7.3102	-4.4346	0.	126.58
2855	-7.5634	-3.714	0.	127.54
2856	-7.8026	-3.9654	0.	127.43
2857	-7.8088	-3.4756	0.	127.7
2858	-7.5693	-3.2285	0.	127.83
2859	-7.5576	-2.2558	0.	127.27
2860	-7.8081	-2.4976	0.	127.42
2861	-7.3333	-2.5038	0.	128.01
2862	-7.5702	-2.743	0.	127.78
2863	-7.5206	-1.7676	0.	126.33
2864	-7.7894	-2.0063	0.	126.71
2865	-7.3189	-2.0308	0.	127.29
2866	-7.5054	-1.2719	0.	125.54
2867	-7.208	-1.5531	0.	126.17
2868	-7.755	-1.5149	0.	125.8
2869	-7.5926	0.25397	0.	127.11
2870	-7.3489	8.9411e-003	0.	127.48
2871	-7.8218	-9.5434e-004	0.	126.62
2872	-7.5689	-0.25383	0.	126.41
2873	-7.6057	0.75777	0.	127.24
2874	-7.8375	0.5043	0.	127.03
2875	-7.8445	1.0066	0.	126.98
2876	-7.6106	1.2574	0.	126.92
2877	-7.8354	2.0046	0.	126.2
2878	-7.6065	1.7543	0.	126.4
2879	-7.5941	2.2512	0.	125.85
2880	-7.5262	3.2473	0.	124.7
2881	-7.7886	3.0036	0.	125.29
2882	-7.5693	2.749	0.	125.28
2883	-7.7437	3.5045	0.	124.89
2884	-7.4787	3.7507	0.	124.1
2885	-1.5541	2.2862	0.	122.99
2886	-1.559	2.7833	0.	122.83
2887	-1.3045	2.5316	0.	123.47
2888	1.2618	3.4408	0.	128.1
2889	1.008	3.7274	0.	126.26
2890	0.73698	3.494	0.	127.01
2891	1.5363	3.6592	0.	128.81
2892	1.5118	3.1669	0.	129.11
2893	1.7897	3.3943	0.	129.64
2894	-3.2875	2.5023	0.	125.94
2895	-3.0354	2.2662	0.	125.2
2896	-3.5138	2.2306	0.	127.86
2897	-3.7643	2.4639	0.	127.35
2898	6.1289	2.8425	0.	125.26
2899	6.0919	3.3188	0.	125.09
2900	6.3503	3.0709	0.	126.18
2901	3.6602	2.8069	0.	127.33
2902	3.618	3.2723	0.	126.62
2903	3.8878	3.0538	0.	124.99
2904	-4.6773	5.5738	0.	127.53
2905	-5.1465	5.6341	0.	129.1
2906	-5.0154	5.2885	0.	128.29
2907	-4.8308	5.8378	0.	127.57
2908	-6.2218	0.83942	0.	126.77
2909	-5.9989	1.1111	0.	124.8
2910	-7.2633	-1.0223	0.	125.11
2911	-7.535	-0.76445	0.	125.61
2912	-7.7685	-1.0151	0.	125.41
2913	-0.81917	-6.3848	0.	127.37
2914	-0.56565	-6.6348	0.	126.68
2915	-1.072	-6.6281	0.	127.03
2916	-1.0704	-6.1421	0.	128.45
2917	-2.6265	-4.7403	0.	122.97
2918	-2.3662	-4.9798	0.	124.47
2919	-2.8763	-4.9995	0.	120.91
2920	-3.1725	-4.7413	0.	120.86
2921	-0.25287	-2.861	0.	124.67
2922	-0.31147	-3.3469	0.	125.74
2923	-0.5332	-3.0424	0.	124.54
2924	1.1292	-2.2787	0.	129.74
2925	1.3489	-2.5104	0.	129.45
2926	1.6282	-2.2999	0.	129.21
2927	2.1283	0.79717	0.	125.95
2928	1.8445	0.54898	0.	125.71
2929	2.1143	0.30931	0.	125.04
2930	2.4073	1.0524	0.	126.2
2931	1.8629	1.0585	0.	127.41
2932	0.20075	2.4923	0.	126.91
2933	0.44368	2.2355	0.	127.75
2934	-5.0143e-002	2.2457	0.	125.79
2935	-0.29869	2.5061	0.	125.68
2936	3.7318	-4.0822	0.	125.87
2937	3.9664	-4.2693	0.	125.68
2938	3.4926	-4.3661	0.	128.14
2939	2.9091	0.10897	0.	125.03
2940	2.657	-0.16132	0.	125.3
2941	2.3823	7.6344e-002	0.	124.81
2942	4.6861	-1.656	0.	120.8
2943	4.4437	-1.9245	0.	121.5
2944	4.3979	-1.4498	0.	121.56
2945	5.2069	-1.5898	0.	121.18
2946	4.9317	-1.3745	0.	119.29
2947	4.9615	-1.8645	0.	120.7
2948	4.6171	3.3212	0.	119.86
2949	4.6551	2.8496	0.	119.65
2950	4.3869	3.0768	0.	121.58
2951	2.6932	1.3032	0.	126.74
2952	2.9616	1.5652	0.	127.99
2953	2.9259	1.0871	0.	125.7
2954	-1.3131	3.5294	0.	124.45
2955	-1.5709	3.7796	0.	123.1
2956	-1.5651	3.281	0.	123.01
2957	-1.0588	3.783	0.	126.95
2958	-4.4876	5.3407	0.	127.36
2959	-4.1841	5.5787	0.	125.78
2960	-4.8257	5.0554	0.	128.15
2961	-4.2978	5.0849	0.	128.12
2962	-2.8398	3.5305	0.	123.8
2963	-3.0962	3.7814	0.	125.76
2964	-2.5914	3.78	0.	121.95
2965	-5.4863	5.4755	0.	128.67
2966	-5.2709	5.9441	0.	129.3
2967	-5.5824	5.7834	0.	129.05
2968	-5.3079	4.8022	0.	127.2
2969	-5.7206	4.7072	0.	125.06
2970	-5.3551	5.1298	0.	127.89
2971	-7.9581	4.2625	0.	125.94
2972	-7.9727	3.7635	0.	125.42
2973	-8.2168	4.0119	0.	126.03
2974	-7.7078	4.0097	0.	124.64
2975	-1.9818	-2.7182	0.	124.76
2976	-1.6886	-2.4751	0.	123.93
2977	-2.1723	-2.4188	0.	124.77
2978	-2.2472	-2.95	0.	125.28
2979	-2.4914	-2.666	0.	125.9
2980	-6.3803	-2.9496	0.	128.12
2981	-6.6082	-3.203	0.	127.93
2982	-6.8546	-2.9723	0.	128.37
2983	-6.6242	-2.7292	0.	128.79
2984	-4.3524	-4.3472	0.	121.12
2985	-4.1321	-4.0803	0.	121.08
2986	-4.0658	-4.6355	0.	120.59
2987	-3.8805	-4.3035	0.	121.16
2988	-4.6178	-4.0882	0.	120.82
2989	-4.8464	-4.36	0.	121.79
2990	-4.5859	-4.5916	0.	121.68
2991	-4.7538	-5.3702	0.	124.
2992	-4.3827	-5.4874	0.	122.35
2993	-4.2638	-5.1022	0.	121.46
2994	-4.5375	-5.0581	0.	122.38
2995	-4.8573	-5.6739	0.	125.89
2996	-5.0651	-5.7148	0.	126.67
2997	1.3896	-5.1639	0.	128.25
2998	1.6535	-5.3942	0.	127.71
2999	1.1711	-5.4302	0.	129.36
3000	0.90549	-5.1816	0.	129.15
3001	5.9052	2.6141	0.	123.51
3002	6.1609	2.3637	0.	126.55
3003	6.3858	2.5912	0.	126.6
3004	5.4164	2.6262	0.	119.79
3005	5.6782	2.3893	0.	122.07
3006	-4.1152	6.8354	0.	125.51
3007	-4.0463	7.3285	0.	126.41
3008	-3.8361	7.0708	0.	126.35
3009	-4.3067	7.0959	0.	125.83
3010	-3.9238	6.5747	0.	125.68
3011	-4.3945	6.602	0.	125.
3012	1.0254	-0.21685	0.	125.74
3013	0.72633	-0.46737	0.	128.77
3014	1.2999	-0.45011	0.	125.99
3015	0.56249	-2.7318	0.	127.95
3016	0.80933	-3.0166	0.	128.61
3017	0.85605	-2.5156	0.	129.33
3018	1.0758	-2.7473	0.	129.04
3019	1.7612	-8.1989	0.	130.17
3020	2.0096	-8.4141	0.	126.99
3021	2.0015	-8.0379	0.	127.71
3022	2.1562	-8.1609	0.	122.82
3023	-7.5275	-5.6281	0.	125.75
3024	-7.7814	-5.4432	0.	126.53
3025	-7.3012	-5.3954	0.	125.32
3026	5.3061	4.0411	0.	119.94
3027	4.8121	4.0354	0.	118.84
3028	5.0438	4.28	0.	119.35
3029	-4.8508	0.53994	0.	115.06
3030	-5.0808	0.75478	0.	118.36
3031	-4.6238	0.81852	0.	118.98
3032	-5.0737	0.26266	0.	114.81
3033	-4.62	0.32091	0.	114.11
3034	-4.8504	4.4687e-002	0.	111.97
3035	-4.4011	1.1016	0.	122.45
3036	-4.1771	1.3832	0.	127.08
3037	-4.4186	1.6062	0.	125.38
3038	-6.1557	-2.2352	0.	129.53
3039	-6.2489	-1.7353	0.	128.95
3040	-5.879	-1.8891	0.	127.58
3041	-6.3899	-2.0159	0.	129.44
3042	-5.9371	-2.1927	0.	128.78
3043	-3.9723	-6.1165	0.	119.31
3044	-3.5319	-5.9414	0.	114.56
3045	-3.7254	-6.286	0.	114.67
3046	-3.8051	-5.7504	0.	117.24
3047	5.9966	-2.2864	0.	127.
3048	5.9854	-1.7775	0.	127.02
3049	6.244	-2.0241	0.	131.25
3050	5.1254	6.9041	0.	119.74
3051	4.6879	6.8663	0.	127.13
3052	4.8406	6.7039	0.	118.24
3053	0.23022	4.249	0.	126.65
3054	-0.25605	4.492	0.	130.23
3055	0.10076	4.6267	0.	126.95
3056	7.4433	6.7196	0.	126.83
3057	7.4307	7.2221	0.	126.84
3058	7.1758	6.9528	0.	127.64
3059	7.6948	6.9762	0.	126.45
3060	7.1934	6.4585	0.	127.58
3061	7.7086	6.4778	0.	126.15
3062	7.4617	6.2241	0.	126.29
3063	7.537	3.2699	0.	128.38
3064	7.2848	3.5216	0.	128.89
3065	7.5212	3.7613	0.	128.83
3066	7.7719	3.5114	0.	128.28
3067	7.7891	3.0193	0.	127.76
3068	7.3087	3.0336	0.	128.19
3069	7.5596	2.7796	0.	127.64
3070	7.5776	1.2854	0.	122.62
3071	7.3521	1.5497	0.	124.64
3072	7.8227	1.5298	0.	123.64
3073	7.5872	1.7884	0.	124.86
3074	7.5568	0.7791	0.	120.42
3075	7.8076	1.0256	0.	121.28
3076	7.3297	1.0425	0.	122.2
3077	5.1855	7.7328	0.	125.69
3078	4.9577	7.9596	0.	126.59
3079	4.6508	7.7396	0.	126.55
3080	5.6791	7.7095	0.	124.83
3081	5.4507	7.942	0.	125.35
3082	5.4295	7.5087	0.	123.43
3083	5.9393	7.917	0.	125.34
3084	6.1584	7.6826	0.	125.49
3085	5.9099	7.4847	0.	124.27
3086	7.1534	7.4666	0.	126.9
3087	6.8985	7.1973	0.	127.71
3088	6.6284	7.3679	0.	126.73
3089	6.9133	7.7317	0.	126.73
3090	6.6375	7.5623	0.	126.56
3091	7.6898	7.48	0.	126.34
3092	7.4397	7.731	0.	126.48
3093	-0.31947	-6.8819	0.	126.23
3094	-5.2167e-002	-6.6499	0.	126.82
3095	-0.34478	-7.3626	0.	125.96
3096	-6.811e-002	-7.1335	0.	125.87
3097	-0.61416	-7.596	0.	125.91
3098	-0.1053	-7.6101	0.	126.28
3099	-0.38141	-7.8401	0.	126.75
3100	-1.1164	-7.588	0.	125.66
3101	-0.88412	-7.83	0.	126.37
3102	-1.3527	-7.3465	0.	125.72
3103	-1.3826	-7.8257	0.	126.26
3104	-1.6133	-7.5864	0.	126.23
3105	2.3888	-5.4537	0.	122.4
3106	2.6553	-5.6244	0.	118.53
3107	2.8467	-5.2895	0.	123.3
3108	2.5594	-5.0873	0.	123.5
3109	2.3142	3.8799	0.	131.12
3110	2.5731	4.1245	0.	131.38
3111	2.8192	3.9067	0.	130.36
3112	2.5718	3.6482	0.	130.85
3113	-2.2946	2.0402	0.	120.98
3114	-1.8004	2.0403	0.	121.95
3115	-2.0461	1.7963	0.	119.76
3116	1.8038	3.8912	0.	129.89
3117	2.0749	4.1158	0.	132.3
3118	2.0572	3.6263	0.	130.72
3119	0.73743	4.0363	0.	125.28
3120	0.53901	4.3631	0.	123.35
3121	0.46637	3.803	0.	126.05
3122	-3.7344	1.9497	0.	128.6
3123	-3.9576	1.6688	0.	129.11
3124	-4.1991	1.8917	0.	127.44
3125	-3.9849	2.183	0.	128.09
3126	-2.7821	2.0261	0.	123.44
3127	-2.5357	1.7931	0.	119.95
3128	6.8015	3.536	0.	128.61
3129	7.0345	3.7725	0.	129.64
3130	7.0565	3.2853	0.	128.7
3131	5.8295	3.5614	0.	123.39
3132	5.5689	3.8037	0.	121.35
3133	7.4927	5.2389	0.	126.53
3134	7.7379	5.4882	0.	125.67
3135	7.4792	5.7314	0.	125.92
3136	7.2371	5.4823	0.	126.23
3137	7.7625	4.0054	0.	128.38
3138	7.2708	4.0122	0.	129.58
3139	7.5118	4.2544	0.	128.72
3140	4.349	3.5457	0.	121.23
3141	4.5816	3.7926	0.	119.36
3142	3.0809	3.6926	0.	129.42
3143	3.3446	3.4807	0.	127.86
3144	2.8335	3.4342	0.	129.91
3145	-4.9551	6.1477	0.	127.84
3146	-4.6828	6.3649	0.	125.84
3147	-6.4456	0.57407	0.	128.14
3148	-6.6632	0.30222	0.	129.63
3149	-5.3037	0.47751	0.	118.18
3150	-5.5341	0.69016	0.	121.5
3151	-6.9659	-1.3035	0.	125.72
3152	-6.6457	-1.5295	0.	127.34
3153	-6.7867	-1.81	0.	127.79
3154	-7.0064	-1.8163	0.	127.12
3155	-6.8831	3.5368e-002	0.	129.28
3156	-7.0943	-0.23961	0.	127.3
3157	-1.3291	-5.9007	0.	129.
3158	-1.5864	-5.6683	0.	129.4
3159	-1.3315	-6.8671	0.	126.6
3160	-1.5875	-7.1084	0.	126.07
3161	-3.1231	-5.2889	0.	118.86
3162	-3.3415	-5.5922	0.	115.45
3163	-3.6147	-5.4012	0.	118.08
3164	-3.4192	-5.0307	0.	118.84
3165	-1.8501	-5.443	0.	128.6
3166	-2.1127	-5.2153	0.	126.09
3167	4.5934e-002	-2.6646	0.	125.62
3168	0.33964	-2.472	0.	127.78
3169	1.4859	1.2963	0.	128.98
3170	1.1652	1.4994	0.	130.4
3171	1.3835	1.7513	0.	129.74
3172	1.5763	0.29123	0.	125.56
3173	1.3044	3.0684e-002	0.	124.99
3174	1.5789	-0.20258	0.	125.22
3175	1.8462	5.1561e-002	0.	124.9
3176	-0.30109	2.0054	0.	124.8
3177	-0.55416	1.7778	0.	123.04
3178	-0.80181	2.0261	0.	124.32
3179	-0.54964	2.2659	0.	124.71
3180	0.93102	1.7304	0.	130.31
3181	0.67966	1.9809	0.	128.7
3182	1.1493	1.9823	0.	129.64
3183	3.2568	-4.6563	0.	128.37
3184	3.0469	-4.96	0.	126.39
3185	2.7596	-4.7578	0.	126.58
3186	4.1818	-4.4677	0.	124.12
3187	4.4133	-4.6402	0.	121.23
3188	4.6371	-4.517	0.	119.36
3189	5.4552	-1.2938	0.	121.77
3190	5.7217	-1.5388	0.	124.53
3191	5.7517	-2.5502	0.	125.3
3192	5.502	-2.8098	0.	124.17
3193	3.2098	-0.61771	0.	127.
3194	3.4972	-0.83636	0.	127.72
3195	3.2448	-1.1085	0.	126.76
3196	3.7971	-1.0414	0.	126.83
3197	3.5447	-1.3135	0.	125.86
3198	4.0986	-1.2439	0.	123.51
3199	3.9306	2.5847	0.	125.97
3200	3.6956	2.3347	0.	129.17
3201	3.4354	2.5494	0.	128.68
3202	5.1903	2.3985	0.	116.68
3203	4.9225	2.6202	0.	118.74
3204	3.1721	0.86775	0.	125.
3205	3.419	0.64107	0.	123.68
3206	3.1663	0.37781	0.	124.83
3207	-0.80441	4.0328	0.	128.77
3208	-0.53261	4.3022	0.	131.01
3209	-4.0955	4.8195	0.	128.73
3210	-3.8736	4.5585	0.	130.26
3211	-2.3403	4.0277	0.	120.39
3212	-1.8294	4.0279	0.	121.2
3213	-2.0895	4.273	0.	116.42
3214	-3.6073	4.2954	0.	130.04
3215	-3.3541	4.0363	0.	127.61
3216	4.9989	-3.3145	0.	122.75
3217	5.2543	-3.065	0.	123.66
3218	4.9703	-3.8048	0.	122.31
3219	5.2382	-3.5554	0.	124.02
3220	5.2007	-4.055	0.	123.52
3221	4.9096	-4.3257	0.	119.55
3222	-1.4142	-2.2691	0.	123.01
3223	-0.95226	-2.4138	0.	122.17
3224	-1.1252	-2.0806	0.	121.89
3225	-6.603	4.3923	0.	121.21
3226	-6.13	4.6108	0.	122.76
3227	-6.4899	4.5737	0.	120.24
3228	-6.7646	4.5685	0.	119.82
3229	-7.1333	4.4671	0.	121.99
3230	-7.7816	5.006	0.	127.03
3231	-7.5481	5.2502	0.	128.25
3232	-7.3006	5.0092	0.	122.44
3233	-7.4677	4.7833	0.	124.3
3234	-3.1257	-2.2005	0.	127.95
3235	-3.3016	-1.9503	0.	128.87
3236	-3.0054	-1.7548	0.	126.42
3237	-2.8304	-2.0416	0.	126.46
3238	-3.231	-3.0415	0.	126.52
3239	-3.4644	-3.2764	0.	125.15
3240	-3.224	-3.4986	0.	124.81
3241	-6.1303	-3.1745	0.	127.
3242	-5.8745	-3.391	0.	125.
3243	-6.3582	-3.4278	0.	126.8
3244	-6.1066	-3.6587	0.	125.73
3245	-3.9233	-3.794	0.	121.94
3246	-3.6961	-3.5329	0.	123.62
3247	-3.4557	-3.7551	0.	123.27
3248	-3.6717	-4.0172	0.	122.02
3249	-5.366	-3.8631	0.	122.32
3250	-5.6216	-3.6228	0.	123.55
3251	-5.8537	-3.8905	0.	124.28
3252	-4.4862	-5.7912	0.	124.24
3253	-4.2252	-5.9531	0.	122.37
3254	-4.0581	-5.587	0.	120.3
3255	0.94054	-5.684	0.	129.73
3256	0.70406	-5.9371	0.	129.71
3257	0.67497	-5.4355	0.	129.52
3258	0.43535	-5.6767	0.	129.37
3259	1.9201	-5.5913	0.	125.69
3260	2.1898	-5.7914	0.	123.21
3261	0.45999	-6.1779	0.	129.01
3262	0.20502	-6.4144	0.	127.67
3263	0.19128	-5.9176	0.	128.67
3264	-7.7413	-5.9371	0.	126.56
3265	-7.5241	-6.0511	0.	125.81
3266	-7.2882	-5.8501	0.	124.59
3267	-5.8661	-5.9565	0.	125.53
3268	-5.367	-5.9874	0.	127.49
3269	-5.7083	-6.2309	0.	126.67
3270	-5.5235	-6.2511	0.	128.36
3271	5.4521	2.1615	0.	118.95
3272	5.2341	1.9538	0.	114.16
3273	4.9616	2.1492	0.	116.19
3274	6.4116	2.107	0.	127.93
3275	6.6481	1.8412	0.	128.39
3276	6.6365	2.3345	0.	127.99
3277	6.8824	2.0759	0.	127.73
3278	6.8818	1.5764	0.	126.93
3279	7.1041	1.3068	0.	124.23
3280	7.1162	1.811	0.	126.26
3281	-3.7497	6.3145	0.	125.37
3282	-3.8751	5.8197	0.	124.69
3283	-3.5699	6.0576	0.	124.74
3284	-4.2593	7.583	0.	127.43
3285	-4.5197	7.3505	0.	126.84
3286	-4.4915	7.8339	0.	128.5
3287	-4.7283	7.6052	0.	129.45
3288	-3.7816	7.5636	0.	126.52
3289	-4.0125	7.8163	0.	127.1
3290	-3.5714	7.306	0.	126.44
3291	-3.298	7.5433	0.	125.31
3292	-3.5282	7.7992	0.	126.06
3293	7.3053	0.53353	0.	120.59
3294	7.5352	0.27145	0.	118.84
3295	7.7881	0.52006	0.	119.1
3296	-3.6447	6.8101	0.	126.49
3297	-3.3578	7.0445	0.	126.78
3298	-3.4432	6.5494	0.	127.12
3299	6.8257	0.5534	0.	123.44
3300	7.0781	0.7969	0.	122.38
3301	7.0503	0.28458	0.	122.79
3302	5.9339	2.1389	0.	125.11
3303	6.1754	1.8772	0.	129.55
3304	5.7029	1.9198	0.	124.32
3305	-6.362	-5.8905	0.	123.39
3306	-6.0996	-5.6619	0.	124.36
3307	-6.1685	-6.1465	0.	123.12
3308	-6.6287	-6.116	0.	121.38
3309	-6.8322	-5.8628	0.	123.15
3310	-6.5874	-5.6322	0.	123.45
3311	0.17137	-7.381	0.	126.19
3312	0.40796	-7.6284	0.	126.68
3313	0.12724	-7.8557	0.	127.29
3314	0.45942	-7.1547	0.	126.21
3315	0.19919	-6.9015	0.	126.46
3316	1.435	-5.6604	0.	128.82
3317	1.705	-5.8944	0.	128.43
3318	1.2082	-5.9325	0.	130.72
3319	-4.9169	-5.9286	0.	127.24
3320	-4.6612	-6.1314	0.	127.38
3321	-5.0832	-6.2121	0.	129.81
3322	-4.8794	-3.8393	0.	120.84
3323	-5.136	-3.5868	0.	120.55
3324	-5.108	-4.1111	0.	121.82
3325	-4.1706	-3.5568	0.	121.3
3326	-4.3974	-3.8213	0.	120.78
3327	-6.1643	-2.7059	0.	128.5
3328	-5.9653	-2.4334	0.	128.46
3329	-6.4082	-2.4855	0.	129.16
3330	-5.9061	-2.9015	0.	126.66
3331	-3.2127	-2.6182	0.	127.84
3332	-3.4694	-2.8215	0.	127.56
3333	-2.9966	-2.7338	0.	126.95
3334	-3.4197	-2.3893	0.	128.6
3335	-2.9723	-2.5304	0.	127.48
3336	-5.7679	5.0349	0.	125.76
3337	-6.1295	4.955	0.	121.84
3338	-5.8225	5.3577	0.	125.59
3339	-1.8791	-2.1757	0.	123.94
3340	-1.5664	-1.9066	0.	124.06
3341	-2.3579	-2.1244	0.	124.85
3342	-2.0567	-1.8856	0.	123.69
3343	6.9259	6.6917	0.	128.39
3344	6.6743	6.4308	0.	130.81
3345	6.9508	6.2056	0.	128.03
3346	6.6575	6.9	0.	128.16
3347	6.3874	7.0707	0.	127.19
3348	6.3859	7.4725	0.	126.2
3349	6.1375	7.2746	0.	124.98
3350	5.4687	-3.8056	0.	125.23
3351	5.7065	-4.0509	0.	126.94
3352	5.4342	-4.3089	0.	125.34
3353	-2.5948	4.2759	0.	120.75
3354	-2.8478	4.0309	0.	123.91
3355	-3.8017	5.0615	0.	128.93
3356	-3.9943	5.3228	0.	126.51
3357	-1.3166	4.0332	0.	125.6
3358	-1.5786	4.278	0.	123.31
3359	-1.0635	4.2924	0.	130.59
3360	3.1943	1.3492	0.	126.94
3361	3.4585	1.6054	0.	129.38
3362	3.2095	1.8202	0.	128.94
3363	3.4349	1.1246	0.	126.33
3364	4.4263	2.6045	0.	121.71
3365	4.6937	2.3709	0.	118.33
3366	4.1952	2.358	0.	125.26
3367	4.1582	2.8317	0.	123.64
3368	5.1799	-1.0785	0.	119.86
3369	4.8956	-0.88333	0.	115.82
3370	4.6434	-1.1683	0.	120.06
3371	3.4563	-0.34539	0.	128.24
3372	3.1819	-0.1194	0.	126.07
3373	2.9298	-0.38969	0.	126.34
3374	6.9739	-4.2691	0.	124.08
3375	6.9675	-4.7688	0.	122.25
3376	6.7126	-4.5269	0.	125.13
3377	7.2249	-4.5151	0.	122.53
3378	5.7355	-3.5484	0.	127.02
3379	5.4936	-3.3058	0.	124.92
3380	5.7078	-1.015	0.	125.07
3381	5.4387	-0.74432	0.	121.44
3382	3.7271	-4.5531	0.	127.94
3383	3.9708	-4.7252	0.	128.41
3384	3.5157	-4.8439	0.	131.13
3385	-5.5676e-002	1.7392	0.	124.41
3386	0.19278	1.9888	0.	126.62
3387	1.579	0.81028	0.	127.17
3388	1.3082	0.52881	0.	127.23
3389	1.2964	1.0418	0.	129.49
3390	0.92434	-2.056	0.	130.2
3391	0.99782	-1.6104	0.	130.39
3392	0.70938	-1.8148	0.	130.88
3393	-0.46606	-2.5548	0.	123.01
3394	-0.66187	-2.25	0.	120.68
3395	-0.74639	-2.7362	0.	122.89
3396	-0.17066	-2.3875	0.	123.66
3397	-2.849	-5.5056	0.	119.64
3398	-2.616	-5.2391	0.	122.41
3399	-1.3231	-6.3854	0.	128.1
3400	-1.5722	-6.6301	0.	128.15
3401	-1.572	-6.1501	0.	129.84
3402	-6.7686	-0.99433	0.	125.62
3403	-7.0425	-0.76024	0.	125.72
3404	-6.2078	0.35302	0.	129.28
3405	-5.9886	0.62783	0.	125.67
3406	-5.3738	6.2077	0.	131.18
3407	-5.6853	6.047	0.	130.85
3408	-5.5709	6.4875	0.	130.77
3409	-5.7515	6.3266	0.	133.07
3410	-5.1306	6.4264	0.	127.52
3411	-4.7723	7.1269	0.	126.03
3412	-4.5859	6.8625	0.	125.31
3413	4.0845	3.7728	0.	122.47
3414	3.8491	3.5198	0.	124.58
3415	4.1188	3.3013	0.	122.94
3416	7.7478	4.9939	0.	126.63
3417	7.2493	4.9926	0.	128.02
3418	7.5031	4.7469	0.	127.78
3419	6.3169	3.5503	0.	126.69
3420	6.0598	3.7966	0.	125.73
3421	6.5482	3.7853	0.	129.08
3422	6.5754	3.3023	0.	127.78
3423	-3.2616	1.9946	0.	127.11
3424	-3.0157	1.7665	0.	126.58
3425	-3.489	1.7204	0.	130.94
3426	1.2825	3.9458	0.	126.96
3427	1.0584	4.2316	0.	123.95
3428	1.5704	4.1522	0.	129.01
3429	-1.5523	1.7874	0.	124.47
3430	-1.3028	2.036	0.	123.81
3431	2.4563	-5.9622	0.	119.31
3432	1.9747	-6.0945	0.	125.97
3433	2.2424	-6.299	0.	121.7
3434	-4.4002	-6.2933	0.	125.51
3435	-4.1537	-6.4783	0.	121.13
3436	5.485	1.7122	0.	119.55
3437	5.248	1.5459	0.	112.65
3438	5.0216	1.6862	0.	108.97
3439	6.0002	-2.7892	0.	127.42
3440	6.2499	-2.5283	0.	130.17
3441	7.7708	1.3534e-002	0.	117.31
3442	7.5172	-0.23703	0.	117.14
3443	7.2802	2.2506e-002	0.	121.05
3444	4.6454	-4.7216	0.	119.
3445	4.2022	-4.8977	0.	125.53
3446	4.451	-5.0514	0.	118.11
3447	1.0363	0.26826	0.	126.63
3448	0.76286	1.9719e-002	0.	128.34
3449	-1.8282	-6.8714	0.	127.6
3450	-2.0814	-7.1125	0.	128.42
3451	-1.8481	-7.3483	0.	126.56
3452	-5.2966	-1.2368e-002	0.	115.
3453	-5.5237	0.2022	0.	121.17
3454	2.5911	4.5975	0.	131.45
3455	2.3338	4.3604	0.	132.55
3456	2.8238	4.3812	0.	130.25
3457	5.7992	4.0389	0.	123.7
3458	5.5389	4.2809	0.	120.19
3459	-2.7694	1.5334	0.	123.1
3460	-2.5302	1.3093	0.	116.1
3461	-2.2872	1.5492	0.	118.63
3462	0.85993	4.5584	0.	121.93
3463	0.6816	4.8905	0.	120.88
3464	0.40955	4.7408	0.	123.65
3465	-8.0598	6.1927	0.	129.24
3466	-8.0885	6.6781	0.	127.32
3467	-8.3132	6.4436	0.	127.48
3468	-7.8276	6.4265	0.	129.22
3469	-8.046	5.7134	0.	130.33
3470	-7.7882	5.9497	0.	130.88
3471	-8.2942	5.9592	0.	129.05
3472	-8.0306	5.2334	0.	129.77
3473	-7.7971	5.4776	0.	130.93
3474	-8.2876	5.4762	0.	129.92
3475	-7.9872	4.7515	0.	127.54
3476	-8.2619	4.991	0.	128.59
3477	-8.2209	4.5053	0.	126.92
3478	-7.6733	4.5288	0.	124.81
3479	-8.006	3.2608	0.	125.48
3480	-8.2365	3.5131	0.	125.79
3481	-8.0362	2.759	0.	125.75
3482	-8.2659	3.0122	0.	125.88
3483	-8.0581	2.2577	0.	126.09
3484	-8.2862	2.5112	0.	126.09
3485	-7.8169	2.5043	0.	125.74
3486	-8.0744	1.7566	0.	126.44
3487	-8.3054	2.0089	0.	126.35
3488	-8.0794	1.2556	0.	126.7
3489	-8.316	1.5066	0.	126.56
3490	-7.8455	1.5063	0.	126.64
3491	-8.0764	0.75316	0.	126.77
3492	-8.317	1.0045	0.	126.66
3493	-8.0667	0.24938	0.	126.54
3494	-8.312	0.50116	0.	126.55
3495	-8.0502	-0.25504	0.	126.06
3496	-8.301	-2.5811e-003	0.	126.2
3497	-8.2853	-0.50579	0.	125.76
3498	-7.7973	-0.50792	0.	125.85
3499	-8.0307	-0.75854	0.	125.63
3500	-8.0238	-1.7536	0.	126.17
3501	-8.2661	-1.5038	0.	125.85
3502	-8.018	-1.2581	0.	125.66
3503	-8.0399	-2.2481	0.	126.86
3504	-8.2783	-1.9995	0.	126.45
3505	-8.0498	-2.7418	0.	127.38
3506	-8.29	-2.4952	0.	127.06
3507	-8.0514	-3.2343	0.	127.61
3508	-7.8119	-2.9872	0.	127.74
3509	-8.2947	-2.9898	0.	127.46
3510	-8.048	-3.727	0.	127.59
3511	-8.293	-3.4843	0.	127.62
3512	-8.0435	-4.2209	0.	127.42
3513	-8.2887	-3.9795	0.	127.61
3514	-8.0386	-4.7177	0.	127.22
3515	-8.2852	-4.4765	0.	127.51
3516	-8.0282	-5.2227	0.	127.13
3517	-8.2792	-4.9777	0.	127.45
3518	-7.9951	-5.7522	0.	127.34
3519	-8.2662	-5.4881	0.	127.55
3520	-8.0172	-6.293	0.	128.2
3521	-7.7524	-6.1402	0.	126.81
3522	-8.2371	-6.0181	0.	128.01
3523	-8.0913	-6.8029	0.	129.35
3524	-8.3025	-6.5381	0.	128.92
3525	-7.8361	-6.6196	0.	128.67
3526	-8.1326	-7.275	0.	129.31
3527	-7.8924	-7.0874	0.	129.75
3528	-8.3452	-7.0312	0.	129.4
3529	-7.9504	-7.5319	0.	129.39
3530	-8.3616	-7.508	0.	128.29
3531	-8.0777	-7.7389	0.	127.22
3532	2.7384	-6.1482	0.	115.51
3533	2.9254	-5.7954	0.	116.18
3534	-0.65136	-8.074	0.	127.21
3535	-0.41918	-8.3177	0.	128.38
3536	-0.14887	-8.0857	0.	127.76
3537	-1.1503	-8.0677	0.	126.97
3538	-0.91868	-8.3101	0.	128.04
3539	-1.6458	-8.0654	0.	127.11
3540	-1.4164	-8.3067	0.	128.11
3541	-2.1367	-8.065	0.	128.18
3542	-1.8765	-7.8261	0.	127.07
3543	-1.9117	-8.3054	0.	128.64
3544	7.9539	7.2342	0.	125.95
3545	7.9583	7.7363	0.	125.89
3546	8.2108	7.4877	0.	125.6
3547	7.96	6.7344	0.	125.76
3548	8.2128	6.9876	0.	125.51
3549	7.9713	6.2365	0.	125.42
3550	8.2207	6.4889	0.	125.24
3551	7.9831	5.7397	0.	125.31
3552	8.2306	5.9911	0.	125.
3553	7.7244	5.9828	0.	125.57
3554	7.9929	5.2433	0.	125.77
3555	8.2399	5.4936	0.	125.15
3556	8.0004	4.7469	0.	126.68
3557	8.2471	4.9962	0.	125.84
3558	8.0064	4.2508	0.	127.48
3559	8.2527	4.499	0.	126.7
3560	7.7557	4.4999	0.	127.82
3561	8.0132	3.7554	0.	127.83
3562	8.2573	4.002	0.	127.31
3563	8.024	3.2608	0.	127.66
3564	8.2638	3.5059	0.	127.46
3565	8.0401	2.7671	0.	127.05
3566	8.2748	3.0105	0.	127.19
3567	8.0545	2.2716	0.	125.98
3568	8.2896	2.5153	0.	126.53
3569	7.8106	2.5273	0.	126.92
3570	8.0589	1.7722	0.	124.39
3571	8.2991	2.0179	0.	125.43
3572	7.8233	2.0307	0.	125.6
3573	8.0527	1.27	0.	122.32
3574	8.2976	1.5166	0.	123.85
3575	8.0389	0.76657	0.	119.98
3576	8.2883	1.0141	0.	121.93
3577	8.0237	0.26214	0.	117.6
3578	8.275	0.51087	0.	119.87
3579	8.2637	7.3342e-003	0.	117.85
3580	8.0119	-0.24265	0.	116.17
3581	3.8422	8.0675	0.	119.23
3582	4.0607	8.3622	0.	123.08
3583	4.3055	8.162	0.	124.83
3584	4.227	7.9359	0.	124.88
3585	5.2229	8.1689	0.	126.26
3586	4.9907	8.3984	0.	126.32
3587	4.7523	8.1805	0.	126.43
3588	5.711	8.1495	0.	125.86
3589	5.4771	8.3873	0.	126.01
3590	6.2038	8.1117	0.	125.89
3591	5.9702	8.3601	0.	125.8
3592	6.6987	8.0467	0.	126.21
3593	6.4656	8.3197	0.	125.99
3594	6.423	7.8772	0.	126.04
3595	7.1996	7.9961	0.	126.31
3596	6.9618	8.2599	0.	126.17
3597	7.7082	7.9872	0.	126.03
3598	7.4645	8.2413	0.	126.07
3599	8.2191	7.9897	0.	125.54
3600	7.9714	8.2402	0.	125.72
3601	4.6052	-8.2132	0.	124.78
3602	4.6571	-7.7356	0.	120.31
3603	4.8606	-7.9922	0.	123.35
3604	4.4187	-7.9335	0.	124.08
3605	7.9898	-4.2545	0.	119.62
3606	7.738	-4.0071	0.	118.9
3607	8.2423	-4.0033	0.	119.35
3608	7.9925	-3.7537	0.	117.4
3609	7.9893	-4.754	0.	122.71
3610	8.2414	-4.5032	0.	122.13
3611	7.7346	-4.5075	0.	121.39
3612	7.999	-6.7503	0.	128.07
3613	7.9973	-6.2507	0.	127.19
3614	8.2485	-6.5003	0.	127.13
3615	7.7487	-6.5005	0.	129.27
3616	7.9997	-7.2501	0.	128.84
3617	7.7496	-7.0002	0.	131.19
3618	8.2495	-7.0001	0.	128.04
3619	8.	-7.7501	0.	129.38
3620	8.2499	-7.5001	0.	128.5
3621	7.7499	-7.5001	0.	130.71
3622	-3.0407	7.7807	0.	124.34
3623	-3.0844	7.2818	0.	125.66
3624	-2.8102	7.5222	0.	122.44
3625	6.4119	1.6114	0.	129.99
3626	6.6345	1.3369	0.	126.64
3627	-5.6225	-6.4767	0.	128.06
3628	-5.8244	-6.6753	0.	126.82
3629	-6.0107	-6.4209	0.	124.27
3630	-7.7102	-7.3444	0.	129.81
3631	-7.5445	-7.6204	0.	129.62
3632	-7.8806	-7.767	0.	127.83
3633	-7.3172	-6.2852	0.	124.2
3634	-7.5713	-6.4669	0.	127.29
3635	0.97166	-6.1856	0.	130.7
3636	0.72509	-6.434	0.	128.76
3637	-5.2397	-6.4758	0.	130.65
3638	-5.4295	-6.7405	0.	129.67
3639	-3.4782	-1.6841	0.	130.31
3640	-3.5956	-2.1391	0.	129.52
3641	-3.7831	-1.8906	0.	128.46
3642	-3.7028	-3.0564	0.	126.21
3643	-3.9435	-3.2957	0.	122.98
3644	-7.5394	5.7138	0.	131.39
3645	-7.3185	5.4709	0.	125.12
3646	-5.9186	5.6656	0.	125.97
3647	-6.0006	5.9613	0.	123.85
3648	-6.4894	4.9179	0.	119.3
3649	-6.8533	4.8745	0.	119.12
3650	3.5718	8.2682	0.	117.18
3651	3.3308	8.0474	0.	119.2
3652	3.7605	7.7713	0.	117.83
3653	-6.7619	8.1275	0.	114.61
3654	-6.9852	8.4268	0.	117.09
3655	-7.277	8.29	0.	120.41
3656	-7.1081	8.0047	0.	112.7
3657	-6.2196	8.0409	0.	119.87
3658	-6.4777	8.2981	0.	116.54
3659	-6.626	7.8526	0.	112.44
3660	-6.4093	7.8071	0.	112.
3661	-4.727	8.0805	0.	130.23
3662	-4.9638	7.8519	0.	131.16
3663	-4.9726	8.3224	0.	130.47
3664	-5.2089	8.0841	0.	131.87
3665	-4.2448	8.0672	0.	128.17
3666	-4.4871	8.3144	0.	128.76
3667	-3.7592	8.052	0.	126.64
3668	-3.9999	8.3022	0.	127.28
3669	-3.2709	8.0366	0.	125.09
3670	-3.5105	8.289	0.	125.98
3671	-2.7806	8.0222	0.	123.42
3672	-3.0188	8.2759	0.	124.54
3673	-2.2892	8.0121	0.	122.58
3674	-2.5501	7.7638	0.	121.52
3675	-2.5265	8.2649	0.	123.33
3676	-1.7973	8.0093	0.	123.88
3677	-2.0565	7.7557	0.	121.08
3678	-2.0339	8.2589	0.	123.43
3679	-1.3042	8.0117	0.	126.72
3680	-1.5409	8.259	0.	125.38
3681	-1.5629	7.7604	0.	124.56
3682	-0.80952	8.014	0.	128.55
3683	-1.0682	7.7673	0.	129.2
3684	-1.0465	8.2611	0.	127.56
3685	-0.31868	8.0136	0.	127.61
3686	-0.55016	8.2604	0.	127.93
3687	-0.56797	7.7683	0.	130.71
3688	0.17481	7.9387	0.	123.18
3689	-5.5778e-002	7.772	0.	127.1
3690	-5.6175e-002	8.2507	0.	125.78
3691	0.705	7.9096	0.	119.07
3692	0.19464	7.6981	0.	123.93
3693	0.44613	8.1554	0.	121.35
3694	0.50458	7.5891	0.	118.2
3695	-0.83479	-1.9168	0.	120.36
3696	-0.97481	-1.5743	0.	122.33
3697	-1.2774	-1.718	0.	122.94
3698	-3.182	-1.4885	0.	127.85
3699	-3.3616	-1.1992	0.	129.97
3700	-3.6519	-1.444	0.	131.73
3701	-1.0912	7.2773	0.	130.62
3702	-0.82664	7.5216	0.	131.32
3703	-1.3269	7.516	0.	127.05
3704	-0.21658	5.204	0.	129.62
3705	-0.38559	4.7854	0.	131.41
3706	-2.8783e-002	4.9201	0.	128.15
3707	-0.4643	5.0397	0.	131.55
3708	-0.40467	5.5051	0.	129.71
3709	5.7127e-002	5.4047	0.	124.55
3710	-9.5107e-002	5.5992	0.	127.89
3711	5.6268	6.8489	0.	120.05
3712	5.3421	6.648	0.	116.98
3713	5.398	7.0806	0.	119.73
3714	5.143	-4.5796	0.	121.35
3715	4.8993	-4.8574	0.	114.53
3716	-1.8387	4.5232	0.	118.48
3717	-2.3439	4.5213	0.	116.68
3718	-2.1018	4.7636	0.	106.97
3719	-3.5798	4.8005	0.	130.44
3720	-3.3511	4.5418	0.	130.35
3721	-0.79171	4.5618	0.	132.74
3722	-0.59492	4.8301	0.	132.63
3723	3.6818	0.89793	0.	124.98
3724	3.9255	0.6661	0.	126.04
3725	3.6792	0.40939	0.	125.09
3726	3.9602	2.108	0.	128.41
3727	3.709	1.8592	0.	130.42
3728	3.46	2.074	0.	130.01
3729	3.7437	-0.56404	0.	128.93
3730	4.0428	-0.77283	0.	126.35
3731	6.7054	-5.0264	0.	121.48
3732	6.446	-5.2805	0.	115.92
3733	6.1848	-5.0453	0.	128.82
3734	6.4505	-4.7845	0.	124.38
3735	7.9909	-5.2527	0.	125.22
3736	7.7351	-5.0058	0.	123.92
3737	8.2418	-5.0025	0.	124.6
3738	7.2319	-4.014	0.	122.29
3739	7.4885	-3.7579	0.	118.08
3740	7.4829	-4.26	0.	120.73
3741	5.9733	-3.7937	0.	128.71
3742	5.9509	-4.2964	0.	129.41
3743	6.2158	-4.0382	0.	128.76
3744	5.9744	-1.26	0.	127.82
3745	6.2337	-1.5133	0.	130.63
3746	3.3058	-5.1476	0.	129.17
3747	3.1168	-5.4605	0.	121.09
3748	0.69258	1.479	0.	130.06
3749	0.97567	1.2449	0.	130.88
3750	0.57634	-1.1546	0.	130.64
3751	0.39142	-0.90796	0.	129.03
3752	0.5172	-0.71018	0.	130.42
3753	0.12305	-2.1949	0.	125.83
3754	0.6332	-2.2557	0.	129.16
3755	0.41824	-2.0146	0.	129.85
3756	-3.0674	-5.8089	0.	116.16
3757	-3.281	-6.1157	0.	111.98
3758	-1.8294	-5.9177	0.	130.23
3759	-2.0864	-5.6914	0.	128.28
3760	-6.1348	-1.4031	0.	134.67
3761	-6.4484	-1.2203	0.	127.18
3762	-4.393	0.59949	0.	118.14
3763	-4.1614	0.87684	0.	123.62
3764	-4.1573	0.37442	0.	119.97
3765	-4.4005	9.9937e-002	0.	112.84
3766	-5.9564	8.2905	0.	124.86
3767	-5.8922	7.7771	0.	132.92
3768	-5.6981	8.0617	0.	128.9
3769	-4.981	7.3817	0.	128.62
3770	-5.1819	7.6291	0.	133.93
3771	-8.3365	6.9365	0.	125.65
3772	-7.882	6.914	0.	132.8
3773	-8.1098	7.1737	0.	128.44
3774	4.3171	4.0197	0.	120.6
3775	4.5487	4.2715	0.	118.36
3776	3.0699	4.1634	0.	129.23
3777	3.3213	3.9498	0.	128.16
3778	6.7812	4.0218	0.	130.1
3779	7.0191	4.2606	0.	130.36
3780	2.8653	5.3119	0.	123.91
3781	3.0854	5.1005	0.	121.17
3782	3.3215	5.3689	0.	117.69
3783	3.1041	5.5575	0.	112.62
3784	2.3665	4.8309	0.	133.98
3785	2.6201	5.0622	0.	130.96
3786	2.8402	4.8509	0.	128.27
3787	-3.7123	1.4395	0.	131.44
3788	-3.9374	1.1584	0.	128.2
3789	2.1093	4.5937	0.	135.08
3790	1.8415	4.3768	0.	131.4
3791	1.2489	7.9867	0.	122.39
3792	0.98251	8.2114	0.	120.44
3793	1.016	7.7029	0.	115.76
3794	-0.30875	1.5116	0.	122.62
3795	-0.57106	1.319	0.	119.24
3796	-0.80834	1.5429	0.	124.24
3797	-1.5536	1.2745	0.	135.05
3798	-1.7981	1.5434	0.	122.3
3799	-1.3055	1.5425	0.	126.17
3800	1.7751	8.0374	0.	131.68
3801	2.0271	8.2938	0.	134.12
3802	2.2986	8.0665	0.	137.84
3803	2.0468	7.8234	0.	139.79
3804	1.5061	8.2621	0.	126.6
3805	1.5261	7.7845	0.	126.59
3806	1.1417	4.7132	0.	118.48
3807	1.3462	4.438	0.	126.01
3808	-3.2432	1.4923	0.	130.37
3809	-3.0014	1.2773	0.	132.41
3810	-3.4688	1.2117	0.	136.89
3811	-3.9258	0.65177	0.	125.48
3812	-3.694	0.9306	0.	133.84
3813	2.1536	5.0598	0.	137.93
3814	1.8928	4.845	0.	137.09
3815	2.4072	5.2912	0.	134.9
3816	2.206	5.5172	0.	141.24
3817	1.9472	5.3016	0.	140.05
3818	2.6578	5.5124	0.	134.13
3819	6.2911	4.0316	0.	128.11
3820	6.0339	4.2769	0.	127.2
3821	6.5271	4.2691	0.	131.75
3822	7.0063	4.7485	0.	129.73
3823	6.765	4.508	0.	131.99
3824	7.2601	4.5028	0.	129.51
3825	6.751	4.9943	0.	130.59
3826	6.9937	5.236	0.	127.71
3827	3.0729	4.6345	0.	127.06
3828	3.3117	4.8992	0.	124.64
3829	3.3121	4.424	0.	128.54
3830	3.8204	3.9909	0.	124.49
3831	3.5635	4.2105	0.	127.46
3832	3.585	3.7379	0.	126.59
3833	4.0552	4.2517	0.	121.92
3834	-8.7879	7.9647	0.	128.38
3835	-8.5581	7.7024	0.	128.59
3836	-8.5308	8.2077	0.	129.66
3837	-8.3138	7.9408	0.	132.4
3838	-5.0447	6.908	0.	126.23
3839	-5.3278	6.7062	0.	127.25
3840	-4.8584	6.6436	0.	125.54
3841	-5.2155	7.1818	0.	130.01
3842	-5.4164	7.4291	0.	135.17
3843	-5.621	7.5768	0.	138.43
3844	-5.427	7.8613	0.	134.6
3845	-3.6692	0.41278	0.	124.07
3846	-3.9425	0.14991	0.	125.71
3847	-6.1815	-0.1371	0.	134.52
3848	-6.4254	8.117e-002	0.	130.73
3849	-5.9734	0.14005	0.	128.06
3850	-1.821	-6.3949	0.	129.86
3851	-2.0652	-6.6395	0.	129.87
3852	-2.0672	-6.1675	0.	132.74
3853	-2.582	-5.7303	0.	123.04
3854	-2.3243	-5.9412	0.	130.84
3855	-2.3491	-5.4637	0.	125.8
3856	-2.8122	-5.9936	0.	117.92
3857	-0.36647	-2.0826	0.	121.31
3858	-0.53827	-1.7851	0.	115.29
3859	-7.197e-002	-1.9328	0.	125.19
3860	0.32324	-1.3271	0.	133.24
3861	0.79727	-1.3766	0.	130.81
3862	0.50883	-1.5809	0.	131.28
3863	0.78048	0.50809	0.	128.96
3864	1.0255	0.76032	0.	129.52
3865	0.19277	1.4799	0.	126.27
3866	0.45672	1.2271	0.	132.93
3867	0.44122	1.7294	0.	128.48
3868	-7.7596e-002	1.2183	0.	120.14
3869	3.7594	-5.016	0.	131.52
3870	4.011	-5.1688	0.	136.83
3871	3.574	-5.3185	0.	133.25
3872	5.9805	-0.73617	0.	130.99
3873	6.2487	-0.47569	0.	134.91
3874	5.7114	-0.46546	0.	127.43
3875	6.0267	-0.20324	0.	136.65
3876	6.2302	-0.99727	0.	131.29
3877	5.9924	-3.2913	0.	128.37
3878	6.2487	-3.0313	0.	129.64
3879	5.7505	-3.0488	0.	126.29
3880	6.236	-3.5348	0.	130.5
3881	6.9839	-3.7654	0.	125.79
3882	6.7241	-4.0249	0.	126.79
3883	7.9941	-5.7515	0.	126.61
3884	8.2464	-6.0007	0.	126.77
3885	7.7458	-6.0013	0.	127.31
3886	8.2437	-5.5015	0.	126.22
3887	7.7384	-5.5036	0.	126.95
3888	7.223	-5.013	0.	122.37
3889	7.4826	-5.2567	0.	125.7
3890	7.4804	-4.7593	0.	122.65
3891	6.9697	-5.2639	0.	120.38
3892	3.9788	-0.30256	0.	133.26
3893	3.7009	-7.9853e-002	0.	128.41
3894	4.8135	-0.42501	0.	109.8
3895	5.1543	-0.54913	0.	117.19
3896	4.5964	-0.69033	0.	118.84
3897	4.2192	1.882	0.	132.44
3898	4.4626	2.1245	0.	121.89
3899	3.699	1.3809	0.	128.74
3900	3.968	1.6332	0.	134.31
3901	3.9377	1.1544	0.	128.71
3902	-1.3255	4.5373	0.	128.28
3903	-1.5952	4.7702	0.	126.08
3904	-1.0945	4.8065	0.	137.56
3905	-3.5064	5.3048	0.	127.78
3906	-3.2369	5.5474	0.	123.36
3907	-3.699	5.5662	0.	125.4
3908	-3.3938	5.8041	0.	125.35
3909	-3.3141	5.0411	0.	134.99
3910	-2.8449	4.5277	0.	124.81
3911	-3.0855	4.7824	0.	134.9
3912	-3.098	4.2827	0.	127.96
3913	-2.5982	4.7692	0.	120.73
3914	-4.684	-8.4796	0.	128.8
3915	-4.306	-8.6632	0.	124.15
3916	-4.5374	-8.2104	0.	129.21
3917	-4.3481	-8.2962	0.	123.43
3918	5.6786	-4.5543	0.	127.82
3919	5.9322	-4.8016	0.	132.84
3920	6.1979	-4.5408	0.	128.5
3921	5.4156	-4.8078	0.	128.63
3922	6.1392	6.8481	0.	125.41
3923	6.406	6.6392	0.	130.61
3924	5.8654	6.6006	0.	121.91
3925	5.8893	7.0521	0.	123.19
3926	-0.66669	5.8389	0.	129.78
3927	-0.48883	5.7977	0.	131.28
3928	-0.90093	5.6079	0.	126.76
3929	-0.65239	5.3407	0.	131.63
3930	-0.11654	7.2679	0.	130.16
3931	7.5125e-002	7.3208	0.	123.8
3932	-0.30507	7.5268	0.	130.17
3933	-1.092	6.3273	0.	129.24
3934	-0.89159	6.0888	0.	129.36
3935	-1.1258	5.8577	0.	126.22
3936	-1.2674	6.0786	0.	132.61
3937	-2.7126	-1.552	0.	123.97
3938	-2.8957	-1.2993	0.	124.45
3939	-2.4326	-1.3226	0.	120.31
3940	-2.5376	-1.8389	0.	124.01
3941	-2.2365	-1.6001	0.	122.85
3942	-6.1841	5.2778	0.	121.68
3943	-6.5123	5.2019	0.	115.79
3944	-6.2574	5.5824	0.	120.36
3945	-7.071	5.2299	0.	119.3
3946	-6.8761	5.1585	0.	115.6
3947	-7.222	4.7732	0.	121.33
3948	-3.6765	-2.5926	0.	128.33
3949	-3.9448	-2.8091	0.	125.74
3950	-3.8996	-2.3384	0.	129.7
3951	-5.426	-2.8267	0.	122.43
3952	-5.6504	-3.118	0.	124.67
3953	-5.7071	-2.6289	0.	126.64
3954	-4.4245	-3.3005	0.	120.21
3955	-4.1855	-3.0484	0.	122.54
3956	-4.6764	-3.0324	0.	116.56
3957	-4.6513	-3.5651	0.	119.69
3958	-4.9078	-3.3126	0.	119.39
3959	-4.8276	-6.4148	0.	129.91
3960	-4.579	-6.6474	0.	129.94
3961	-5.0152	-6.7084	0.	133.17
3962	-4.99	-8.2523	0.	129.56
3963	-5.1197	-8.5905	0.	131.
3964	-4.788	-8.7639	0.	129.56
3965	-5.6315	-6.9392	0.	128.42
3966	-5.205	-6.9731	0.	132.21
3967	-5.4307	-7.2581	0.	128.67
3968	1.4782	-6.1665	0.	130.31
3969	1.7543	-6.4219	0.	131.28
3970	1.2449	-6.4401	0.	132.09
3971	1.3185	-8.1591	0.	132.24
3972	1.1298	-7.9045	0.	130.3
3973	1.0695	-8.3718	0.	131.95
3974	0.84459	-8.1257	0.	130.7
3975	1.5455	-8.4003	0.	131.84
3976	1.5953	-7.9548	0.	133.72
3977	0.73034	-6.9237	0.	127.18
3978	0.99835	-6.6886	0.	130.2
3979	0.47011	-6.6705	0.	127.44
3980	0.69601	-7.402	0.	126.69
3981	1.0137	-7.1821	0.	126.5
3982	0.91853	-7.6539	0.	127.71
3983	0.63331	-7.8752	0.	128.07
3984	-7.4359	-7.19	0.	130.08
3985	-7.6372	-6.9041	0.	129.08
3986	-6.0565	-6.8704	0.	123.22
3987	-5.8637	-7.0905	0.	127.33
3988	-7.1247	-6.5515	0.	122.28
3989	-6.8777	-6.3374	0.	121.18
3990	-7.0812	-6.0842	0.	122.98
3991	5.9444	1.6581	0.	128.7
3992	6.1646	1.379	0.	132.29
3993	5.7001	1.4453	0.	129.3
3994	6.6043	0.82382	0.	125.01
3995	6.3482	0.58502	0.	123.98
3996	6.5663	0.30423	0.	127.44
3997	6.3872	1.1045	0.	129.12
3998	6.8567	1.0673	0.	123.96
3999	-3.1563	6.7838	0.	127.4
4000	-2.8597	7.0178	0.	123.6
4001	-2.938	6.5195	0.	127.68
4002	-3.2634	6.2925	0.	126.44
4003	-1.1032	6.7957	0.	130.19
4004	-1.337	6.5406	0.	128.98
4005	-0.87562	6.5499	0.	128.96
4006	-1.3478	7.023	0.	127.23
4007	-0.86561	7.0318	0.	134.52
4008	-2.3174	7.5074	0.	119.99
4009	-2.5855	7.2582	0.	120.39
4010	-2.0822	7.2442	0.	115.89
4011	-1.8221	7.5069	0.	121.75
4012	-0.33991	1.0257	0.	116.6
4013	-0.56872	0.90375	0.	114.67
4014	-0.82005	1.0873	0.	121.67
4015	-7.556	6.1835	0.	130.81
4016	8.0003	-8.2501	0.	129.95
4017	8.2501	-8.	0.	129.31
4018	7.7502	-8.0001	0.	130.24
4019	4.8089	-8.4786	0.	126.92
4020	4.5176	-8.7165	0.	127.74
4021	4.3541	-8.4059	0.	127.92
4022	5.0209	-8.7483	0.	127.19
4023	5.2848	-8.5048	0.	127.63
4024	5.0643	-8.2577	0.	125.47
4025	8.2504	-8.5	0.	129.73
4026	8.0006	-8.7501	0.	129.55
4027	7.7508	-8.5001	0.	130.42
4028	4.8964	-7.5256	0.	119.55
4029	4.7048	-7.2882	0.	113.11
4030	4.4672	-7.4547	0.	121.05
4031	5.1214	-7.3375	0.	122.19
4032	5.3347	-7.5402	0.	126.43
4033	5.0999	-7.7822	0.	122.63
4034	8.4716	7.7411	0.	125.25
4035	8.4788	8.2424	0.	125.25
4036	8.729	7.9931	0.	124.97
4037	8.4697	7.2411	0.	125.17
4038	8.7251	7.4928	0.	124.88
4039	8.4735	6.7421	0.	124.99
4040	8.7265	6.9935	0.	124.72
4041	8.4801	6.2434	0.	124.81
4042	8.7309	6.4946	0.	124.53
4043	8.4874	5.7449	0.	124.84
4044	8.7367	5.9958	0.	124.45
4045	8.494	5.2465	0.	125.22
4046	8.7425	5.4969	0.	124.66
4047	8.4994	4.7483	0.	125.87
4048	8.7473	4.998	0.	125.18
4049	8.5036	4.2502	0.	126.53
4050	8.7514	4.4995	0.	125.85
4051	8.5078	3.7525	0.	126.94
4052	8.7541	4.0008	0.	126.43
4053	8.5146	3.2555	0.	126.99
4054	8.7581	3.5028	0.	126.75
4055	8.5242	2.7587	0.	126.67
4056	8.7646	3.0053	0.	126.77
4057	8.7731	2.5075	0.	126.49
4058	8.5342	2.2616	0.	125.97
4059	8.5332	1.2606	0.	123.47
4060	8.7798	1.5088	0.	125.1
4061	8.5378	1.7623	0.	124.89
4062	8.5244	0.75837	0.	121.84
4063	8.7733	1.0069	0.	124.1
4064	8.5151	0.25606	0.	120.16
4065	8.7654	0.5052	0.	123.17
4066	8.7585	3.4652e-003	0.	122.58
4067	8.5077	-0.24634	0.	117.92
4068	-6.701	8.5974	0.	118.77
4069	-7.174	8.7694	0.	121.11
4070	-6.934	8.8478	0.	120.
4071	-6.2145	8.5478	0.	121.51
4072	-6.4586	8.7994	0.	120.18
4073	-5.7191	8.5456	0.	126.37
4074	-5.9693	8.786	0.	124.08
4075	-5.2245	8.555	0.	128.98
4076	-5.4755	8.7923	0.	127.46
4077	-5.4609	8.3167	0.	130.43
4078	-4.7327	8.5563	0.	128.99
4079	-4.9815	8.7979	0.	128.49
4080	-4.2422	8.5494	0.	127.86
4081	-4.4887	8.7947	0.	127.94
4082	-3.7512	8.5393	0.	126.61
4083	-3.9962	8.7873	0.	127.
4084	-3.2584	8.5283	0.	125.42
4085	-3.5026	8.7782	0.	126.04
4086	-2.7647	8.5186	0.	124.45
4087	-3.0077	8.7695	0.	125.14
4088	-2.2712	8.5117	0.	124.17
4089	-2.513	8.7624	0.	124.56
4090	-1.7776	8.5087	0.	124.93
4091	-2.0183	8.7582	0.	124.74
4092	-1.2832	8.5084	0.	126.23
4093	-1.5234	8.757	0.	125.62
4094	-0.78714	8.5075	0.	126.93
4095	-1.0273	8.7568	0.	126.52
4096	-0.28766	8.4975	0.	126.09
4097	-0.52919	8.7538	0.	126.47
4098	0.21515	8.4674	0.	123.96
4099	-2.7587e-002	8.7398	0.	125.15
4100	0.72364	8.4572	0.	122.66
4101	0.4753	8.7113	0.	123.42
4102	1.2397	8.4868	0.	124.63
4103	0.98418	8.7255	0.	123.49
4104	1.758	8.5185	0.	129.05
4105	1.4978	8.753	0.	126.34
4106	2.2743	8.5403	0.	131.18
4107	2.0116	8.7744	0.	129.62
4108	2.7874	8.5503	0.	127.66
4109	2.5458	8.313	0.	135.1
4110	2.5236	8.7883	0.	129.07
4111	3.2947	8.5454	0.	121.8
4112	3.0538	8.3246	0.	124.22
4113	3.0322	8.7919	0.	124.24
4114	3.7902	8.563	0.	121.07
4115	3.5337	8.7867	0.	120.85
4116	4.0253	8.8207	0.	122.94
4117	4.2758	8.605	0.	124.06
4118	5.2449	8.6168	0.	126.08
4119	5.0023	8.849	0.	125.74
4120	4.7591	8.6226	0.	125.7
4121	5.7363	8.5979	0.	125.96
4122	5.4943	8.8385	0.	125.82
4123	6.2319	8.5681	0.	125.9
4124	5.9899	8.8171	0.	125.76
4125	6.7287	8.5329	0.	125.95
4126	6.4871	8.7913	0.	125.79
4127	7.2267	8.5051	0.	125.93
4128	6.9844	8.7629	0.	125.84
4129	7.7277	8.4942	0.	125.75
4130	7.4831	8.7482	0.	125.76
4131	8.2311	8.4929	0.	125.43
4132	7.9844	8.7442	0.	125.55
4133	8.4871	8.7446	0.	125.24
4134	8.7357	8.4943	0.	125.03
4135	-8.5557	-7.7585	0.	127.22
4136	-8.5346	-8.2545	0.	126.87
4137	-8.7823	-8.006	0.	126.83
4138	-8.2718	-7.9894	0.	126.17
4139	-8.5743	-7.2642	0.	128.37
4140	-8.809	-7.5102	0.	127.71
4141	-8.5564	-6.7664	0.	128.96
4142	-8.8069	-7.0117	0.	128.65
4143	-8.5225	-6.2632	0.	128.73
4144	-8.7829	-6.511	0.	128.85
4145	-8.5083	-5.754	0.	128.22
4146	-8.7576	-6.0066	0.	128.55
4147	-8.5173	-5.2432	0.	127.87
4148	-8.7604	-5.4991	0.	128.21
4149	-8.5258	-4.7365	0.	127.74
4150	-8.7682	-4.9923	0.	128.01
4151	-8.5305	-4.2351	0.	127.7
4152	-8.7735	-4.4891	0.	127.9
4153	-8.5337	-3.7367	0.	127.64
4154	-8.777	-3.9891	0.	127.8
4155	-8.7792	-3.4906	0.	127.61
4156	-8.5363	-3.2397	0.	127.48
4157	-8.5283	-2.2465	0.	126.66
4158	-8.7763	-2.4956	0.	126.86
4159	-8.5349	-2.7432	0.	127.15
4160	-8.5185	-1.2526	0.	125.76
4161	-8.7652	-1.5006	0.	125.86
4162	-8.5206	-1.7497	0.	126.13
4163	-8.7674	-1.0028	0.	125.63
4164	-8.5249	-0.75416	0.	125.69
4165	-8.2704	-1.0069	0.	125.56
4166	-8.5463	0.24921	0.	126.21
4167	-8.7844	-1.7849e-003	0.	125.95
4168	-8.536	-0.25333	0.	125.9
4169	-8.5526	0.75248	0.	126.45
4170	-8.7909	0.50085	0.	126.23
4171	-8.5536	1.2555	0.	126.52
4172	-8.794	1.0038	0.	126.42
4173	-8.547	1.7589	0.	126.47
4174	-8.7924	1.5065	0.	126.5
4175	-8.5334	2.2623	0.	126.34
4176	-8.782	2.0108	0.	126.5
4177	-8.5159	2.7644	0.	126.22
4178	-8.7688	2.5132	0.	126.45
4179	-8.4964	3.2645	0.	126.19
4180	-8.7539	3.0139	0.	126.43
4181	-8.4806	3.7615	0.	126.41
4182	-8.7387	3.5119	0.	126.51
4183	-8.4796	4.2546	0.	127.02
4184	-8.7323	4.0068	0.	126.83
4185	-8.4956	4.7448	0.	127.98
4186	-8.7388	4.4991	0.	127.43
4187	-8.5189	5.2338	0.	128.74
4188	-8.7559	4.9905	0.	128.1
4189	-8.5359	5.7219	0.	128.63
4190	-8.7741	5.4811	0.	128.18
4191	-8.5476	6.2101	0.	127.27
4192	-8.7845	5.972	0.	127.3
4193	-8.5612	6.702	0.	125.77
4194	-8.7951	6.4636	0.	125.61
4195	-8.8046	6.9597	0.	124.89
4196	-8.5682	7.1998	0.	126.29
4197	-8.2925	-8.506	0.	127.62
4198	-8.5326	-8.7555	0.	128.58
4199	-8.778	-8.5048	0.	127.34
4200	-8.0521	-8.7609	0.	130.25
4201	-8.0298	-8.2409	0.	126.85
4202	-7.8246	-8.5275	0.	126.29
4203	8.4938	-4.252	0.	121.93
4204	8.7452	-4.0015	0.	123.99
4205	8.4951	-3.7518	0.	119.11
4206	8.4939	-4.7517	0.	124.07
4207	8.7451	-4.5014	0.	125.09
4208	8.4947	-5.2512	0.	125.63
4209	8.7454	-5.0011	0.	126.16
4210	8.4961	-5.7507	0.	126.39
4211	8.7462	-5.5007	0.	126.76
4212	8.4977	-6.2504	0.	126.71
4213	8.7474	-6.0004	0.	126.81
4214	8.7486	-6.5002	0.	126.88
4215	8.4989	-6.7502	0.	127.1
4216	8.5	-7.75	0.	128.42
4217	8.7499	-7.5	0.	127.8
4218	8.4996	-7.2501	0.	127.7
4219	8.5002	-8.25	0.	129.09
4220	8.7501	-8.	0.	128.54
4221	8.5003	-8.75	0.	129.32
4222	8.7502	-8.5	0.	129.14
4223	3.644	-8.5072	0.	132.21
4224	3.7361	-8.0817	0.	131.99
4225	3.9168	-8.3282	0.	131.54
4226	2.3224	-8.5543	0.	123.24
4227	2.5728	-8.769	0.	119.42
4228	2.8564	-8.5737	0.	113.23
4229	2.4691	-8.3011	0.	119.05
4230	1.7939	-8.6155	0.	128.63
4231	2.0442	-8.8341	0.	125.67
4232	1.5374	-8.8467	0.	130.42
4233	1.2965	-8.6129	0.	131.54
4234	-0.18824	-8.5624	0.	129.64
4235	4.7284e-002	-8.8062	0.	130.69
4236	0.30974	-8.576	0.	130.44
4237	8.2073e-002	-8.3304	0.	129.01
4238	-0.6865	-8.5537	0.	129.21
4239	-0.45106	-8.7971	0.	130.26
4240	-1.1847	-8.5491	0.	129.19
4241	-0.94996	-8.7917	0.	130.1
4242	-1.4495	-8.7893	0.	130.3
4243	-1.6823	-8.5467	0.	129.66
4244	-5.3931	-9.1491	0.	134.1
4245	-5.5739	-9.3897	0.	132.59
4246	-5.8239	-9.3234	0.	129.1
4247	-5.7078	-9.0007	0.	137.87
4248	-1.5816	6.7678	0.	126.
4249	-1.8435	6.9989	0.	117.7
4250	-1.5834	7.2616	0.	123.64
4251	-2.6414	6.7535	0.	123.97
4252	-2.3503	6.995	0.	116.16
4253	6.131	0.86569	0.	127.88
4254	5.9203	1.1662	0.	132.61
4255	6.0865	0.33541	0.	131.33
4256	-6.4883	-6.8553	0.	116.94
4257	-6.2787	-7.0529	0.	120.36
4258	-6.2428	-6.616	0.	120.66
4259	-6.9276	-6.8253	0.	118.55
4260	-6.6807	-6.6112	0.	117.49
4261	-7.1775	-7.019	0.	126.42
4262	-7.3788	-6.7331	0.	125.37
4263	1.5211	-6.6955	0.	132.95
4264	1.2817	-6.947	0.	129.48
4265	-4.8434	-7.983	0.	130.06
4266	-5.3201	-8.1063	0.	124.15
4267	-5.2632	-7.7571	0.	128.76
4268	-5.0273	-7.7214	0.	127.38
4269	-4.7666	-6.941	0.	133.02
4270	-4.9783	-7.2113	0.	129.92
4271	-5.2316	-2.5086	0.	121.55
4272	-4.9358	-2.7751	0.	116.59
4273	-5.1672	-3.0552	0.	119.52
4274	-4.4374	-2.7803	0.	118.88
4275	-4.1679	-2.5549	0.	127.15
4276	-6.8922	5.3894	0.	115.34
4277	2.8122	8.0873	0.	131.62
4278	2.5838	7.8452	0.	139.24
4279	-2.1576	-1.0883	0.	120.57
4280	-1.915	-0.89242	0.	127.73
4281	-1.6278	-1.0745	0.	124.8
4282	-1.9614	-1.3658	0.	123.12
4283	-2.6157	-1.0699	0.	120.76
4284	-0.41248	7.0171	0.	135.02
4285	-0.63805	6.7859	0.	133.16
4286	-0.60101	7.276	0.	135.2
4287	-0.52437	6.0395	0.	130.58
4288	-0.67524	6.3114	0.	128.81
4289	6.4413	6.1866	0.	131.75
4290	6.1322	6.3917	0.	127.02
4291	-5.1115	-9.324	0.	133.22
4292	-5.2564	-8.8796	0.	133.29
4293	-4.9248	-9.053	0.	131.89
4294	-3.8609	-8.9603	0.	117.
4295	-4.0085	-8.6627	0.	116.82
4296	-4.0999	-9.1781	0.	120.69
4297	-4.4101	-8.9475	0.	124.91
4298	-3.3194	-8.9965	0.	109.99
4299	-3.5273	-8.8403	0.	113.43
4300	-3.565	-9.2618	0.	113.85
4301	-1.7186	-9.0287	0.	131.6
4302	-2.2324	-9.0203	0.	131.96
4303	-1.9824	-9.2688	0.	131.23
4304	-1.9514	-8.7862	0.	130.94
4305	-1.2147	-9.0319	0.	131.23
4306	-1.4759	-9.2728	0.	131.67
4307	-0.71452	-9.0351	0.	131.15
4308	-0.97429	-9.2746	0.	131.75
4309	-0.21553	-9.0409	0.	131.31
4310	-0.47465	-9.2779	0.	131.78
4311	0.28324	-9.0497	0.	131.6
4312	2.4425e-002	-9.2834	0.	131.91
4313	0.52379	-9.2911	0.	131.95
4314	0.54569	-8.8196	0.	131.35
4315	0.78249	-9.0611	0.	131.64
4316	1.7877	-9.0653	0.	127.45
4317	1.5258	-9.3028	0.	129.09
4318	1.2828	-9.0695	0.	130.54
4319	2.2946	-9.0488	0.	121.86
4320	2.031	-9.2939	0.	124.87
4321	2.5327	-9.2827	0.	119.15
4322	2.7942	-9.0626	0.	117.22
4323	3.7552	-9.1342	0.	124.66
4324	3.5557	-8.9211	0.	126.12
4325	3.5153	-9.3441	0.	121.3
4326	3.2823	-9.1077	0.	118.77
4327	4.2237	-9.0581	0.	128.21
4328	3.9946	-9.3453	0.	126.68
4329	4.0092	-8.9513	0.	129.02
4330	4.7296	-8.9862	0.	128.01
4331	4.4785	-9.2405	0.	127.94
4332	4.2461	-8.8698	0.	129.29
4333	5.2527	-8.9999	0.	126.54
4334	4.9977	-9.2466	0.	127.18
4335	5.7565	-9.0038	0.	123.06
4336	5.5166	-8.7564	0.	126.99
4337	5.5036	-9.2524	0.	125.05
4338	6.2551	-9.0027	0.	119.
4339	6.0092	-8.7539	0.	120.67
4340	6.0041	-9.2525	0.	121.02
4341	6.7531	-9.0012	0.	119.3
4342	6.5045	-8.7514	0.	113.94
4343	6.5029	-9.2514	0.	118.77
4344	7.0022	-8.7506	0.	121.49
4345	7.0018	-9.2506	0.	121.51
4346	7.2518	-9.0005	0.	123.99
4347	8.2505	-9.0001	0.	129.14
4348	8.0005	-9.2501	0.	128.38
4349	7.751	-9.0002	0.	127.91
4350	8.7502	-9.	0.	129.24
4351	8.5003	-9.25	0.	129.07
4352	9.2475	-4.5006	0.	129.41
4353	8.9966	-4.2509	0.	127.16
4354	8.9966	-4.7508	0.	127.19
4355	9.2496	-7.	0.	126.87
4356	8.9992	-6.7501	0.	126.97
4357	8.9997	-7.25	0.	127.31
4358	8.7495	-7.0001	0.	127.2
4359	9.0001	-8.25	0.	128.59
4360	9.25	-8.	0.	128.04
4361	8.9999	-7.75	0.	127.92
4362	9.0001	-8.75	0.	129.06
4363	9.2501	-8.5	0.	128.75
4364	9.2501	-9.	0.	129.24
4365	9.0001	-9.25	0.	129.24
4366	-2.8388	5.0239	0.	130.44
4367	-3.0446	5.2836	0.	130.18
4368	-1.3642	5.0395	0.	134.69
4369	-1.1463	5.3419	0.	132.2
4370	-0.89772	5.0748	0.	137.45
4371	4.2067	1.4067	0.	133.96
4372	4.5057	1.639	0.	121.88
4373	4.495	-0.24604	0.	121.71
4374	4.2119	-4.8046e-002	0.	133.41
4375	4.2779	-0.51136	0.	130.79
4376	7.5007	-8.2501	0.	130.68
4377	7.2516	-8.5003	0.	126.28
4378	7.5012	-8.7502	0.	128.81
4379	5.5345	-8.2629	0.	128.11
4380	5.7693	-8.5064	0.	124.59
4381	6.7383	-3.5198	0.	129.5
4382	6.4923	-3.2748	0.	131.71
4383	6.4785	-3.7793	0.	130.56
4384	-8.2922	-9.0104	0.	131.24
4385	-8.0412	-9.2617	0.	132.63
4386	-7.8186	-9.021	0.	136.42
4387	-8.7753	-9.0059	0.	129.53
4388	-8.5254	-9.2561	0.	130.85
4389	-9.0207	-8.7552	0.	128.29
4390	-9.0149	-9.2541	0.	129.64
4391	-9.2638	-9.0039	0.	128.69
4392	-9.0258	-8.2563	0.	127.28
4393	-9.2671	-8.5045	0.	127.52
4394	-9.0356	-7.7577	0.	127.3
4395	-9.272	-8.0056	0.	127.04
4396	-9.0416	-7.2577	0.	127.99
4397	-9.2807	-7.5061	0.	127.47
4398	-9.0333	-6.7563	0.	128.53
4399	-9.2797	-7.0049	0.	128.15
4400	-9.018	-6.2544	0.	128.67
4401	-9.2692	-6.5035	0.	128.59
4402	-9.0097	-5.7517	0.	128.53
4403	-9.2585	-6.002	0.	128.71
4404	-9.0114	-5.2482	0.	128.35
4405	-9.2571	-5.5001	0.	128.66
4406	-9.0159	-4.7448	0.	128.18
4407	-9.2602	-4.9975	0.	128.53
4408	-9.02	-4.243	0.	128.
4409	-9.2634	-4.4956	0.	128.35
4410	-9.0224	-3.743	0.	127.77
4411	-9.2662	-3.9949	0.	128.08
4412	-9.023	-3.2439	0.	127.44
4413	-9.2673	-3.4952	0.	127.71
4414	-9.2669	-2.996	0.	127.24
4415	-9.0215	-2.7454	0.	127.01
4416	-8.7802	-2.993	0.	127.3
4417	-9.0143	-1.749	0.	126.06
4418	-9.2615	-1.9985	0.	126.15
4419	-8.7697	-1.998	0.	126.33
4420	-9.0176	-2.2471	0.	126.52
4421	-9.0141	-1.2507	0.	125.73
4422	-9.2602	-1.4999	0.	125.71
4423	-9.0172	-0.75188	0.	125.63
4424	-9.2614	-1.001	0.	125.47
4425	-9.0231	-0.25171	0.	125.73
4426	-9.2646	-0.50163	0.	125.46
4427	-8.7747	-0.50326	0.	125.69
4428	-9.029	0.24986	0.	125.96
4429	-9.27	-8.0423e-004	0.	125.65
4430	-9.2729	0.50085	0.	125.93
4431	-9.0322	0.75221	0.	126.2
4432	-9.0174	2.2616	0.	126.6
4433	-9.2661	2.0085	0.	126.69
4434	-9.0274	1.7585	0.	126.53
4435	-9.0067	2.7626	0.	126.66
4436	-9.2588	2.5099	0.	126.84
4437	-8.9961	3.2612	0.	126.75
4438	-9.2507	3.0097	0.	126.97
4439	-8.9904	3.7572	0.	126.94
4440	-9.2444	3.507	0.	127.1
4441	-9.243	4.0031	0.	127.25
4442	-8.9914	4.2513	0.	127.25
4443	-9.0111	5.2379	0.	127.54
4444	-9.2538	4.9933	0.	127.26
4445	-8.9991	4.7448	0.	127.55
4446	-9.0227	5.7312	0.	126.85
4447	-9.2626	5.4879	0.	126.68
4448	-9.032	6.2254	0.	125.63
4449	-9.2706	5.9832	0.	125.52
4450	-9.0385	6.7214	0.	124.7
4451	-9.2767	6.4794	0.	124.28
4452	-9.04	7.2208	0.	124.96
4453	-9.2804	6.978	0.	123.81
4454	-9.0334	7.7232	0.	126.15
4455	-9.2783	7.4794	0.	124.56
4456	-8.8036	7.4609	0.	126.37
4457	-9.0185	8.2273	0.	126.97
4458	-9.2707	7.982	0.	125.67
4459	-9.0027	8.7322	0.	126.7
4460	-9.2569	8.4856	0.	126.11
4461	-8.7614	8.4703	0.	128.26
4462	-8.7425	8.9772	0.	126.78
4463	-8.9955	9.2378	0.	125.79
4464	-9.2477	8.9892	0.	125.75
4465	-8.228	8.957	0.	127.01
4466	-8.4885	9.2262	0.	126.28
4467	-8.5013	8.7153	0.	128.34
4468	-7.6876	8.9221	0.	125.07
4469	-7.9727	9.2071	0.	125.73
4470	-7.9923	8.6874	0.	128.95
4471	-7.1678	8.9782	0.	122.24
4472	-7.4396	9.1834	0.	123.46
4473	-7.4658	8.6326	0.	124.39
4474	-6.6916	9.0498	0.	121.34
4475	-6.9511	9.2837	0.	121.87
4476	-6.2134	9.0377	0.	122.74
4477	-6.4665	9.2821	0.	122.14
4478	-5.7257	9.0327	0.	125.18
4479	-5.9778	9.2749	0.	123.87
4480	-5.2325	9.0351	0.	126.95
4481	-5.4846	9.275	0.	125.78
4482	-4.7375	9.0362	0.	127.42
4483	-4.9885	9.2778	0.	126.78
4484	-4.2427	9.0325	0.	127.08
4485	-4.4923	9.2765	0.	126.93
4486	-3.7476	9.0262	0.	126.44
4487	-3.996	9.2722	0.	126.64
4488	-3.2519	9.0193	0.	125.77
4489	-3.4993	9.2671	0.	126.19
4490	-2.756	9.0133	0.	125.26
4491	-3.0024	9.2621	0.	125.74
4492	-2.2601	9.0089	0.	125.12
4493	-2.5054	9.2581	0.	125.44
4494	-1.7641	9.0065	0.	125.43
4495	-2.0085	9.2556	0.	125.46
4496	-1.2675	9.0054	0.	125.91
4497	-1.5113	9.2545	0.	125.73
4498	-0.76937	9.0032	0.	126.05
4499	-1.0133	9.2536	0.	125.95
4500	-0.26911	8.9961	0.	125.53
4501	-0.51389	9.2507	0.	125.76
4502	0.23257	8.9837	0.	124.61
4503	-1.2988e-002	9.243	0.	125.11
4504	0.73584	8.9796	0.	124.23
4505	0.48831	9.2337	0.	124.45
4506	1.2423	8.9916	0.	125.2
4507	0.99121	9.2374	0.	124.57
4508	1.7514	9.0088	0.	126.91
4509	1.4969	9.2502	0.	125.63
4510	2.2609	9.0224	0.	127.46
4511	2.004	9.2621	0.	126.61
4512	2.7684	9.0299	0.	125.67
4513	2.5106	9.2702	0.	126.08
4514	3.2712	9.0332	0.	123.25
4515	3.0146	9.2738	0.	124.05
4516	3.7687	9.0445	0.	122.68
4517	3.5146	9.2767	0.	122.77
4518	4.2631	9.0641	0.	123.8
4519	4.0112	9.2909	0.	123.18
4520	4.7568	9.0748	0.	124.97
4521	4.5071	9.3044	0.	124.28
4522	4.5137	8.8483	0.	124.92
4523	5.2516	9.0707	0.	125.48
4524	5.0031	9.3064	0.	124.98
4525	5.7479	9.0577	0.	125.62
4526	5.5005	9.2983	0.	125.32
4527	6.2451	9.0403	0.	125.65
4528	5.9983	9.2867	0.	125.47
4529	6.7428	9.0213	0.	125.68
4530	6.4966	9.2728	0.	125.58
4531	7.2408	9.006	0.	125.66
4532	6.9948	9.2592	0.	125.63
4533	7.7399	8.9982	0.	125.55
4534	7.4933	9.2506	0.	125.59
4535	8.2404	8.9959	0.	125.36
4536	7.993	9.2473	0.	125.47
4537	8.4937	9.2469	0.	125.27
4538	8.7422	8.9963	0.	125.1
4539	8.9819	7.2453	0.	124.43
4540	9.2364	7.4963	0.	124.14
4541	8.9825	7.7448	0.	124.61
4542	8.9839	6.7461	0.	124.26
4543	9.2371	6.9969	0.	123.91
4544	8.9875	6.247	0.	124.17
4545	9.2392	6.4976	0.	123.74
4546	8.9917	5.7477	0.	124.27
4547	9.2422	5.9982	0.	123.74
4548	8.9957	5.2484	0.	124.62
4549	9.2454	5.4987	0.	123.97
4550	8.9992	4.7492	0.	125.16
4551	9.2481	4.9992	0.	124.45
4552	9.0019	4.2501	0.	125.75
4553	9.2507	4.4999	0.	125.08
4554	9.0044	3.7512	0.	126.23
4555	9.2521	4.0004	0.	125.7
4556	9.0082	3.2526	0.	126.52
4557	9.2543	3.5013	0.	126.21
4558	9.0135	2.7541	0.	126.58
4559	9.2577	3.0025	0.	126.54
4560	9.0197	2.2555	0.	126.44
4561	9.2621	2.5035	0.	126.72
4562	9.0227	1.7561	0.	126.13
4563	9.2672	2.0045	0.	126.8
4564	8.7808	2.0096	0.	125.92
4565	9.0199	1.2552	0.	125.73
4566	9.2669	1.5043	0.	126.88
4567	9.0143	0.75377	0.	125.43
4568	9.2627	1.003	0.	127.12
4569	9.0089	0.2526	0.	125.59
4570	9.2584	0.5021	0.	127.71
4571	9.0043	-0.24848	0.	127.09
4572	9.2546	1.3386e-003	0.	129.1
4573	6.759	-0.48243	0.	131.84
4574	6.4984	-0.7368	0.	135.14
4575	6.5266	-0.21783	0.	133.14
4576	4.9298	-7.1002	0.	115.34
4577	5.3365	-7.0847	0.	132.01
4578	3.3512	-8.6808	0.	118.43
4579	3.8097	-8.7381	0.	130.35
4580	0.18636	0.96557	0.	126.76
4581	0.49476	0.74082	0.	132.92
4582	0.7398	0.99305	0.	133.7
4583	-0.24377	-1.6352	0.	119.05
4584	3.7645e-002	-1.4987	0.	131.09
4585	0.22323	-1.7525	0.	129.17
4586	-2.4583	-8.7776	0.	132.27
4587	-2.7737	-8.988	0.	119.5
4588	-2.4999	-9.2577	0.	128.13
4589	-2.5544	-6.2045	0.	125.62
4590	-2.3114	-6.4121	0.	132.55
4591	-6.125	-0.6279	0.	129.52
4592	-5.9473	-0.34865	0.	133.93
4593	-6.3865	-0.41703	0.	133.25
4594	-3.4768	0.18293	0.	131.06
4595	-3.337	4.1311e-004	0.	142.22
4596	-3.4998	-0.27257	0.	137.38
4597	-3.75	-7.994e-002	0.	132.53
4598	-5.6341	7.3652	0.	136.18
4599	-5.4985	6.9799	0.	130.61
4600	3.7982	4.4713	0.	124.89
4601	3.5509	4.6887	0.	126.11
4602	6.5097	4.7537	0.	132.79
4603	6.2698	4.5144	0.	130.75
4604	2.0081	5.7542	0.	139.46
4605	2.2755	5.972	0.	137.61
4606	2.4566	5.7384	0.	139.9
4607	-3.4375	0.69162	0.	132.27
4608	-3.2271	0.99663	0.	138.33
4609	1.6864	5.0867	0.	139.19
4610	1.4205	4.9033	0.	126.
4611	1.625	4.628	0.	133.54
4612	1.7978	7.5706	0.	134.47
4613	2.332	7.6021	0.	141.09
4614	2.0387	7.3618	0.	138.82
4615	1.9005	6.4462	0.	137.67
4616	2.1837	6.6708	0.	139.47
4617	1.9821	6.9035	0.	135.65
4618	1.8197	5.9911	0.	137.47
4619	2.0872	6.2089	0.	135.79
4620	1.7493	5.5385	0.	138.09
4621	0.96334	5.0454	0.	117.24
4622	0.51698	5.2705	0.	120.27
4623	0.14022	5.5908	0.	123.5
4624	0.24493	5.1208	0.	123.05
4625	-0.17926	5.8918	0.	129.21
4626	-5.4582e-003	7.0573	0.	126.1
4627	1.2932	7.5007	0.	119.71
4628	0.81554	7.3823	0.	114.83
4629	0.38506	7.2118	0.	117.99
4630	-2.9087	-0.49534	0.	129.7
4631	-3.0699	-0.81008	0.	128.56
4632	-2.8382	-0.87528	0.	125.6
4633	-3.0604	-0.12713	0.	138.97
4634	-3.2232	-0.40012	0.	134.12
4635	-3.276	0.24362	0.	135.02
4636	-2.7623	1.0531	0.	125.39
4637	-2.2939	1.0708	0.	113.2
4638	-1.8065	1.0418	0.	128.74
4639	-1.4872	0.7711	0.	132.65
4640	-1.3054	1.0432	0.	135.35
4641	-2.0509	1.3107	0.	115.99
4642	-1.8385	-0.49285	0.	129.98
4643	-1.7139	-0.63815	0.	135.59
4644	2.3704	6.4334	0.	137.42
4645	2.4772	6.9046	0.	139.53
4646	2.5688	7.3777	0.	137.92
4647	4.073	7.3443	0.	123.4
4648	4.1453	7.6397	0.	123.53
4649	4.3603	6.9663	0.	128.76
4650	4.651	6.6267	0.	122.72
4651	6.4796	5.7196	0.	130.95
4652	6.7178	5.9613	0.	129.01
4653	6.4962	5.2388	0.	131.86
4654	6.7389	5.4805	0.	129.02
4655	5.7736	4.5189	0.	123.68
4656	5.2766	4.5198	0.	119.6
4657	4.7803	4.5161	0.	118.88
4658	4.2868	4.5035	0.	119.64
4659	-6.5417	7.6194	0.	110.13
4660	-6.9722	7.7298	0.	109.99
4661	-6.0819	7.5433	0.	125.01
4662	-5.7482	6.5814	0.	130.08
4663	-6.0669	6.2409	0.	126.12
4664	-6.3394	5.8781	0.	118.18
4665	-6.5856	5.5065	0.	114.43
4666	-7.6211	6.6623	0.	134.69
4667	-7.6773	7.1496	0.	136.79
4668	-3.3844	-0.71486	0.	132.88
4669	-3.5521	-0.97785	0.	133.25
4670	-3.8424	-1.2226	0.	135.07
4671	-4.0871	-2.0899	0.	128.63
4672	-3.9569	-1.6505	0.	129.95
4673	-5.4546	-2.0073	0.	124.56
4674	-5.5127	-2.3108	0.	125.77
4675	-5.7649	-1.5569	0.	133.36
4676	-5.9926	-1.1015	0.	131.27
4677	-6.3062	-0.9187	0.	123.83
4678	-4.1857	-0.12457	0.	118.54
4679	-4.631	-0.17629	0.	110.59
4680	-5.0733	-0.23035	0.	112.04
4681	-5.5122	-0.28608	0.	121.66
4682	-4.3325	-6.8325	0.	125.54
4683	-3.9069	-6.6478	0.	116.42
4684	-3.4746	-6.4602	0.	112.1
4685	-3.0258	-6.3004	0.	113.46
4686	-2.3185	-6.8806	0.	130.58
4687	-2.3393	-7.3523	0.	131.74
4688	-2.3661	-7.8271	0.	130.99
4689	-2.106	-7.5882	0.	129.87
4690	-2.4023	-8.3032	0.	130.85
4691	-2.1772	-8.5435	0.	131.42
4692	-3.2626	-8.8058	0.	110.1
4693	-3.0395	-9.2255	0.	111.3
4694	-4.411	-8.0697	0.	124.86
4695	-4.0505	-8.2957	0.	116.08
4696	-3.6749	-8.5427	0.	113.26
4697	-0.6783	-1.4426	0.	117.17
4698	-1.1079	-1.1815	0.	124.9
4699	-1.4267	-0.82021	0.	133.11
4700	-1.4105	-1.3252	0.	125.51
4701	-1.6499	-0.45818	0.	133.45
4702	-1.2161	0.57041	0.	120.21
4703	-0.78304	0.65894	0.	114.72
4704	-1.0344	0.84248	0.	121.86
4705	-0.32464	0.82912	0.	114.51
4706	0.13833	-1.0805	0.	131.54
4707	0.30861	-0.67694	0.	129.58
4708	0.46378	-0.2308	0.	131.36
4709	0.50708	0.25955	0.	130.51
4710	2.022	-6.6264	0.	126.97
4711	3.0298	-6.2893	0.	111.82
4712	3.5153	-6.1044	0.	120.75
4713	3.2168	-5.9366	0.	112.86
4714	2.5245	-6.485	0.	117.82
4715	3.8148	-6.7274	0.	141.56
4716	3.7678	-6.2758	0.	139.53
4717	3.9374	-6.452	0.	145.4
4718	3.836	-7.1748	0.	136.94
4719	4.0845	-6.9013	0.	131.8
4720	3.7976	-7.6329	0.	133.32
4721	4.0395	-7.4058	0.	130.39
4722	3.9869	-7.8797	0.	127.71
4723	3.0778	-8.8673	0.	111.15
4724	1.8356	-7.7938	0.	130.95
4725	1.4066	-7.7001	0.	131.82
4726	2.1851	-7.98	0.	122.5
4727	4.5256	-6.9659	0.	117.29
4728	4.2071	-6.6259	0.	135.69
4729	4.288	-7.1324	0.	125.26
4730	3.9246	-6.219	0.	138.85
4731	3.6836	-5.7991	0.	133.13
4732	5.1719	-5.0856	0.	121.69
4733	5.6693	-5.0551	0.	133.33
4734	4.705	-5.1872	0.	113.46
4735	4.2598	-5.3226	0.	129.41
4736	3.8257	-5.4713	0.	137.72
4737	-6.4538	-8.9658	0.	111.25
4738	-6.1299	-9.193	0.	120.75
4739	-6.0138	-8.8704	0.	129.3
4740	-6.9024	-9.0091	0.	111.69
4741	-7.0921	-9.2667	0.	117.88
4742	-7.3565	-9.0257	0.	129.1
4743	-6.6181	-9.2431	0.	109.11
4744	-7.4212	-7.8881	0.	132.85
4745	-7.7574	-8.0347	0.	131.12
4746	-7.5522	-8.3212	0.	130.23
4747	-7.2702	-7.4661	0.	129.87
4748	-5.6873	-8.0475	0.	128.88
4749	-5.4498	-8.4446	0.	125.08
4750	-5.9669	-7.723	0.	131.54
4751	-5.6304	-7.6982	0.	133.57
4752	-6.1994	-7.4203	0.	122.68
4753	-5.9994	-7.4341	0.	125.7
4754	7.2603	-0.48872	0.	121.59
4755	7.0232	-0.22919	0.	125.5
4756	7.7583	-0.49322	0.	115.97
4757	8.2559	-0.49632	0.	116.21
4758	8.7536	-0.49828	0.	122.42
4759	9.2518	-0.49936	0.	132.61
4760	9.2485	-3.5005	0.	133.75
4761	8.9973	-3.7509	0.	128.16
4762	8.7471	-3.5011	0.	123.26
4763	7.743	-3.5045	0.	116.5
4764	8.2454	-3.5022	0.	117.09
4765	7.2406	-3.5093	0.	121.57
4766	6.4984	-2.7704	0.	132.37
4767	6.4895	-1.2505	0.	134.07
4768	6.4924	-1.76	0.	134.86
4769	6.4973	-2.266	0.	134.42
4770	5.5488	-7.7737	0.	129.82
4771	5.314	-8.0158	0.	126.02
4772	5.5497	-7.2873	0.	136.3
4773	5.5115	-6.7931	0.	137.07
4774	5.5476	-6.2913	0.	139.03
4775	5.7502	-5.8128	0.	135.53
4776	6.1652	-5.5554	0.	118.42
4777	5.904	-5.3202	0.	131.28
4778	6.7103	-5.518	0.	114.57
4779	7.2292	-5.5076	0.	123.67
4780	7.4972	-6.2511	0.	129.39
4781	7.4901	-5.7534	0.	127.65
4782	7.4992	-6.7505	0.	132.4
4783	7.4998	-7.2502	0.	133.05
4784	7.5001	-7.7501	0.	131.55
4785	6.7536	-8.5008	0.	116.03
4786	6.2586	-8.5026	0.	115.51
4787	5.4162	3.5924e-002	0.	121.37
4788	5.5279	-0.1801	0.	124.75
4789	5.8432	8.2112e-002	0.	133.88
4790	4.98	-0.11813	0.	109.67
4791	5.3208	-0.24225	0.	118.14
4792	4.1803	0.43137	0.	129.71
4793	3.934	0.17467	0.	128.89
4794	4.1814	0.92258	0.	129.62
4795	5.4631	1.2791	0.	122.43
4796	5.0113	1.4927	0.	108.3
4797	4.7491	1.8815	0.	111.41
4798	-1.8582	5.0107	0.	114.15
4799	-2.3562	5.0116	0.	110.58
4800	-2.9299	5.7786	0.	129.88
4801	-2.7614	6.2624	0.	133.22
4802	-3.0868	6.0353	0.	132.01
4803	-1.5124	6.2919	0.	132.25
4804	-1.3123	5.8396	0.	129.52
4805	3.5478	5.1676	0.	121.33
4806	2.8966	5.758	0.	122.89
4807	-8.7414	9.4868	0.	125.29
4808	-9.2462	9.4936	0.	125.18
4809	-8.2332	9.4763	0.	125.
4810	-7.7247	9.4684	0.	124.14
4811	-7.2229	9.4888	0.	123.08
4812	-6.726	9.516	0.	122.64
4813	-6.2309	9.5194	0.	123.26
4814	-5.7367	9.5172	0.	124.48
4815	-5.2406	9.5177	0.	125.61
4816	-4.7432	9.5181	0.	126.28
4817	-4.2456	9.5162	0.	126.5
4818	-3.7477	9.5131	0.	126.4
4819	-3.2498	9.5099	0.	126.16
4820	-2.7518	9.507	0.	125.92
4821	-2.2538	9.5048	0.	125.77
4822	-1.7557	9.5035	0.	125.76
4823	-1.2572	9.5027	0.	125.77
4824	-0.75787	9.5011	0.	125.66
4825	-0.25777	9.4977	0.	125.34
4826	0.24275	9.493	0.	124.95
4827	0.74368	9.4915	0.	124.78
4828	1.2458	9.496	0.	125.
4829	1.7495	9.5035	0.	125.33
4830	2.2536	9.5099	0.	125.23
4831	2.7568	9.5142	0.	124.47
4832	3.258	9.5173	0.	123.57
4833	3.757	9.5232	0.	123.26
4834	4.2551	9.5312	0.	123.67
4835	4.7534	9.536	0.	124.3
4836	5.252	9.534	0.	124.82
4837	5.7509	9.5273	0.	125.17
4838	6.2498	9.5192	0.	125.39
4839	6.7485	9.5107	0.	125.52
4840	7.2473	9.5038	0.	125.56
4841	7.7464	9.4998	0.	125.5
4842	8.2462	9.4983	0.	125.38
4843	8.7467	9.4982	0.	125.21
4844	9.2478	9.4986	0.	125.03
4845	8.9953	9.2475	0.	125.04
4846	9.4975	9.2486	0.	124.82
4847	9.4956	8.748	0.	124.56
4848	9.245	8.9975	0.	124.83
4849	9.4934	8.2475	0.	124.25
4850	9.2414	8.4965	0.	124.62
4851	9.4918	7.7475	0.	123.93
4852	9.2379	7.996	0.	124.39
4853	9.4915	7.248	0.	123.62
4854	9.4924	6.7484	0.	123.39
4855	9.494	6.2489	0.	123.31
4856	9.4959	5.7492	0.	123.44
4857	9.4978	5.2495	0.	123.81
4858	9.4996	4.7498	0.	124.38
4859	9.5009	4.2502	0.	125.04
4860	9.5021	3.7506	0.	125.68
4861	9.5038	3.2512	0.	126.23
4862	9.5063	2.7519	0.	126.67
4863	9.5096	2.2525	0.	127.07
4864	9.5114	1.7527	0.	127.55
4865	9.5098	1.2521	0.	128.27
4866	9.5068	0.75134	0.	129.39
4867	9.5042	0.25083	0.	131.22
4868	9.5021	-0.24954	0.	134.68
4869	9.5007	-0.7498	0.	137.38
4870	9.5001	-1.2499	0.	139.36
4871	9.5	-1.75	0.	141.85
4872	9.5	-2.25	0.	142.06
4873	9.4999	-2.7501	0.	140.2
4874	9.4994	-3.2503	0.	138.76
4875	9.4987	-3.7504	0.	136.26
4876	9.4984	-4.2504	0.	132.88
4877	9.2475	-4.0007	0.	130.62
4878	9.4986	-4.7502	0.	130.89
4879	9.4988	-5.2501	0.	129.33
4880	9.2477	-5.0004	0.	128.67
4881	9.499	-5.7501	0.	128.05
4882	9.248	-5.5003	0.	127.95
4883	9.4992	-6.25	0.	127.15
4884	9.2485	-6.0002	0.	127.28
4885	9.4996	-6.75	0.	126.75
4886	9.2491	-6.5001	0.	126.85
4887	9.4998	-7.25	0.	126.88
4888	9.5	-7.75	0.	127.43
4889	9.2499	-7.5	0.	127.32
4890	9.5	-8.25	0.	128.2
4891	9.5001	-8.75	0.	128.93
4892	9.5001	-9.25	0.	129.46
4893	9.2501	-9.5	0.	129.47
4894	8.7502	-9.5	0.	129.06
4895	8.2503	-9.5001	0.	128.31
4896	7.7506	-9.5002	0.	126.5
4897	7.251	-9.5004	0.	123.56
4898	7.501	-9.2503	0.	126.04
4899	6.7515	-9.5008	0.	120.96
4900	6.2519	-9.5012	0.	120.78
4901	5.7512	-9.5012	0.	123.03
4902	5.2486	-9.4991	0.	125.7
4903	4.7466	-9.5009	0.	127.11
4904	4.2493	-9.5278	0.	126.39
4905	3.7547	-9.5551	0.	123.31
4906	3.2602	-9.5513	0.	119.65
4907	2.7658	-9.535	0.	119.01
4908	3.0272	-9.3148	0.	117.12
4909	2.2691	-9.5279	0.	122.17
4910	1.7691	-9.5315	0.	126.51
4911	1.2671	-9.5333	0.	129.87
4912	0.76546	-9.5299	0.	131.63
4913	1.0242	-9.2999	0.	131.32
4914	0.26498	-9.5247	0.	132.26
4915	-0.23469	-9.5204	0.	132.39
4916	-0.73442	-9.5175	0.	132.39
4917	-1.2354	-9.5155	0.	132.2
4918	-1.7397	-9.5128	0.	131.3
4919	-2.2499	-9.5062	0.	127.3
4920	-2.7657	-9.4952	0.	119.89
4921	-3.2852	-9.4908	0.	115.
4922	-3.804	-9.4796	0.	117.54
4923	-4.3138	-9.4838	0.	124.17
4924	-4.8109	-9.5242	0.	129.7
4925	-4.6241	-9.2533	0.	128.38
4926	-5.2924	-9.5646	0.	131.64
4927	-5.7786	-9.5154	0.	127.93
4928	-6.2941	-9.4703	0.	118.41
4929	-6.8078	-9.5007	0.	115.02
4930	-7.2995	-9.512	0.	122.99
4931	-7.7865	-9.5117	0.	130.55
4932	-7.5639	-9.271	0.	134.39
4933	-8.2745	-9.5073	0.	132.28
4934	-8.7651	-9.5042	0.	130.96
4935	-9.2582	-9.5026	0.	129.76
4936	-9.5071	-9.2524	0.	128.81
4937	-9.5103	-8.7532	0.	127.93
4938	-9.5133	-8.2538	0.	127.28
4939	-9.5172	-7.7541	0.	127.21
4940	-9.5189	-7.2533	0.	127.64
4941	-9.5156	-6.7521	0.	128.21
4942	-9.5097	-6.2511	0.	128.63
4943	-9.5059	-5.7504	0.	128.83
4944	-9.5059	-5.2495	0.	128.84
4945	-9.5077	-4.7483	0.	128.7
4946	-9.5096	-4.2475	0.	128.43
4947	-9.5111	-3.7471	0.	128.03
4948	-9.5112	-3.2473	0.	127.51
4949	-9.5098	-2.7478	0.	126.92
4950	-9.5083	-2.2486	0.	126.32
4951	-9.2644	-2.4972	0.	126.7
4952	-9.5074	-1.7494	0.	125.8
4953	-9.5075	-1.2502	0.	125.44
4954	-9.5089	-0.7508	0.	125.3
4955	-9.5115	-0.25072	0.	125.38
4956	-9.5138	0.25019	0.	125.62
4957	-9.5149	0.75163	0.	125.96
4958	-9.5141	1.2535	0.	126.32
4959	-9.2742	1.003	0.	126.23
4960	-9.5113	1.7555	0.	126.64
4961	-9.2726	1.5054	0.	126.49
4962	-9.5076	2.2568	0.	126.92
4963	-9.5028	2.757	0.	127.15
4964	-9.4989	3.2555	0.	127.32
4965	-9.497	3.7529	0.	127.41
4966	-9.4971	4.2501	0.	127.36
4967	-9.5002	4.7468	0.	127.06
4968	-9.2455	4.4983	0.	127.36
4969	-9.5053	5.2433	0.	126.39
4970	-9.5105	5.7399	0.	125.35
4971	-9.5153	6.2372	0.	124.17
4972	-9.5185	6.7361	0.	123.38
4973	-9.5188	7.2366	0.	123.39
4974	-9.5156	7.7383	0.	124.08
4975	-9.509	8.2403	0.	124.81
4976	-9.502	8.7426	0.	125.16
4977	-9.4985	9.245	0.	125.14
4978	5.5807	6.3997	0.	118.75
4979	5.0573	6.4478	0.	115.59
4980	4.5899	6.3705	0.	128.83
4981	-2.9926	-3.729	0.	124.25
4982	-8.3637e-002	-3.6307	0.	126.84
4983	-2.2825	-3.4739	0.	125.2
4984	-6.5677	-0.70783	0.	127.33
4985	2.9754	-1.4057	0.	126.68
4986	2.3981	-1.4362	0.	127.23
4987	2.7933	-1.6717	0.	126.76
4988	4.4454	7.9605	0.	126.39
4989	4.5206	8.4048	0.	125.8
4990	-5.3915	-3.3465	0.	121.77
4991	1.0686	-3.2328	0.	128.63
4992	8.9908	8.746	0.	124.89
4993	-7.5911	-8.7875	0.	132.11
4994	-7.423	4.276	0.	123.5
4995	8.9984	-6.2502	0.	126.98
4996	1.778	2.8851	0.	129.69
4997	2.0559	3.1124	0.	130.23
4998	1.7734	-3.6378	0.	128.35
4999	2.2526	-3.6928	0.	127.9
5000	-6.6305	-0.19876	0.	129.41
5001	-6.8145	-4.9055	0.	125.3
5002	-6.3189	-4.9081	0.	124.87
5003	-6.5708	-5.1474	0.	124.61
5004	4.7191	-2.133	0.	121.4
5005	-7.3575	2.4943	0.	125.41
5006	-7.4758e-002	-5.6562	0.	128.82
5007	6.4628	-4.2827	0.	127.84
5008	-5.2041	-7.4962	0.	126.58
5009	-5.6629	-7.4094	0.	127.56
5010	5.6604	7.2838	0.	122.86
5011	1.4597	2.6848	0.	129.4
5012	8.9969	-5.2505	0.	127.29
5013	8.9975	-5.7503	0.	127.18
5014	-6.0858	-7.273	0.	124.43
5015	2.2715	-4.728	0.	126.24
5016	-5.6382	3.3006	0.	125.32
5017	-5.2489	3.1875	0.	126.19
5018	-8.3415	7.437	0.	129.14
5019	-1.056	1.7912	0.	125.52
5020	-1.0532	2.2815	0.	124.29
5021	-7.0946	-2.2788	0.	128.02
5022	-7.0955	-2.7446	0.	128.32
5023	-6.8651	-2.5016	0.	128.74
5024	-8.2656	8.4457	0.	130.27
5025	1.2362	-7.434	0.	127.47
5026	3.5484	5.6377	0.	116.23
5027	3.3309	5.8263	0.	110.92
5028	8.9859	8.245	0.	124.75
5029	3.4265	0.14613	0.	126.25
5030	-7.3142	-0.50238	0.	126.23
5031	1.3013	-1.3876	0.	129.37
5032	-9.0328	1.2549	0.	126.4
5033	7.2191	5.9713	0.	126.75
5034	2.2756	7.1374	0.	135.96
5035	-3.0754	-1.0101	0.	126.53
5036	-4.9365	2.5236	0.	126.02
5037	-5.7657	0.89954	0.	123.7
5038	-5.9584	3.6089	0.	124.41
5039	-6.0153	3.4055	0.	124.55
5040	-6.8719	-2.0435	0.	128.36
5041	-6.6424	-2.2662	0.	129.07
5042	3.3198	-1.5757	0.	125.97
5043	6.8304	3.0517	0.	127.87
5044	7.0832	2.7979	0.	128.05
5045	4.0826	-8.5591	0.	129.43
5046	-3.9392	-5.2017	0.	119.41
5047	-3.7437	-4.8312	0.	120.14
5048	-4.2993	-4.88	0.	121.16
5049	2.3148	3.3946	0.	130.45
5050	-6.4352	-6.3719	0.	121.09
5051	-7.0608	-5.1448	0.	125.15
5052	-7.0618	-5.6174	0.	124.17
5053	-6.8171	-5.3867	0.	124.46
5054	-6.0732	-5.1642	0.	124.68
5055	-6.325	-5.4035	0.	124.42
5056	-1.0573	1.3112	0.	126.63
5057	1.4375	-3.3942	0.	128.71
5058	-6.8416	-0.47374	0.	127.45
5059	-2.677	-2.3716	0.	125.98
5060	-6.089	-4.1556	0.	125.03
5061	-7.0634	-4.666	0.	125.94
5062	-7.7706	8.3979	0.	128.28
5063	-7.5753	8.1228	0.	133.63
5064	-6.0753	-4.6596	0.	124.76
5065	-5.7393	-7.151e-002	0.	127.82
5066	1.3993	2.2165	0.	129.64
5067	3.1997	2.2887	0.	129.53
5068	1.6032	1.9787	0.	129.6
5069	-1.8153	3.0329	0.	122.43
5070	3.385	-5.6314	0.	125.42
5071	0.80517	-8.5942	0.	131.38
5072	0.58025	-8.3481	0.	130.11
5073	-7.3324	-2.9838	0.	128.1
5074	-8.0485	8.1787	0.	132.97
5075	1.335	-2.9634	0.	129.06
5076	1.602	-2.7491	0.	128.99
5077	6.9771	5.7222	0.	127.05
5078	4.3443	-0.97532	0.	123.07
5079	1.8352	-1.4002	0.	128.03
5080	3.475	-2.9385	0.	125.02
5081	-5.5712	-8.7313	0.	136.84
5082	-4.9969	2.9956	0.	126.51
5083	-0.801	2.5213	0.	124.68
5084	1.042	-8.8357	0.	131.67
5085	6.6072	2.8196	0.	127.52
5086	6.86	2.5658	0.	127.71
5087	0.35259	-8.1025	0.	128.69
5088	-3.5583	-4.4991	0.	120.72
5089	-2.5297	-3.728	0.	124.82
5090	2.3964	-0.42185	0.	125.54
5091	2.7484	-3.7002	0.	127.33
5092	-5.7542	0.41486	0.	124.46
5093	1.8544	-0.43832	0.	125.38
5094	-7.4064	7.8375	0.	125.99
5095	2.1222	-1.1679	0.	127.
5096	4.1676	-8.1261	0.	127.19
5097	4.2288	-7.6526	0.	124.84
5098	2.1217	-0.18418	0.	125.05
5099	2.131	-0.67876	0.	125.9
5100	6.7908	3.5409e-002	0.	126.8
5101	6.3046	5.4622e-002	0.	134.93
5102	3.1377	-1.8417	0.	126.05
5103	2.912	-2.1005	0.	126.53
5104	3.4038	-2.0311	0.	125.23
5105	-7.905	7.4093	0.	132.69
5106	-7.6611	7.6376	0.	137.33
5107	-8.0972	7.6754	0.	132.89
5108	-7.8532	7.9036	0.	138.16
5109	-1.7441	-1.6165	0.	123.82
5110	7.3513	2.0496	0.	126.48
5111	7.5795	2.2864	0.	126.54
5112	7.1059	2.3071	0.	127.44
5113	7.3342	2.5439	0.	127.51
5114	-6.161	3.5657	0.	124.03
5115	1.8813	-2.5386	0.	128.75
5116	2.139	-2.7699	0.	128.25
5117	2.1523	-2.3313	0.	128.24
5118	2.41	-2.5626	0.	127.74
5119	2.6752	-2.7712	0.	127.12
5120	2.6678	-2.3319	0.	127.08
5121	2.933	-2.5405	0.	126.47
5122	3.2033	-2.7374	0.	125.69
5123	3.1782	-2.2899	0.	125.71
5124	3.4484	-2.4867	0.	124.92
5125	9.	-1.	0.	101.56
5126	7.	-1.	0.	99.67
5127	9.	-3.	0.	102.35
5128	7.	-3.	0.	98.408
5129	8.5	-1.	0.	115.14
5130	8.	-1.	0.	112.13
5131	7.5	-1.	0.	114.25
5132	9.	-1.5	0.	106.72
5133	9.	-2.	0.	105.97
5134	9.	-2.5	0.	106.92
5135	7.	-1.5	0.	103.76
5136	7.	-2.	0.	102.17
5137	7.	-2.5	0.	103.21
5138	7.5	-3.	0.	113.79
5139	8.	-3.	0.	112.27
5140	8.5	-3.	0.	115.54
5141	8.	-1.5	0.	115.29
5142	8.5	-1.5	0.	113.6
5143	8.5	-2.5	0.	113.77
5144	8.	-2.5	0.	115.28
5145	7.5	-2.5	0.	111.69
5146	7.5	-1.5	0.	112.02
5147	7.5	-2.	0.	111.18
5148	8.5	-2.	0.	113.25
5149	8.	-2.	0.	115.32
5150	8.75	-1.	0.	108.28
5151	9.	-1.25	0.	104.14
5152	7.25	-1.	0.	106.89
5153	7.	-1.25	0.	101.71
5154	9.	-2.75	0.	104.63
5155	8.75	-3.	0.	108.88
5156	7.	-2.75	0.	100.79
5157	7.25	-3.	0.	106.03
5158	8.25	-1.	0.	113.63
5159	8.5	-1.25	0.	114.33
5160	7.75	-1.	0.	113.19
5161	8.	-1.25	0.	113.69
5162	7.5	-1.25	0.	113.1
5163	9.	-1.75	0.	106.33
5164	8.75	-1.5	0.	110.15
5165	9.	-2.25	0.	106.42
5166	8.75	-2.	0.	109.61
5167	8.75	-2.5	0.	110.33
5168	7.	-1.75	0.	102.93
5169	7.25	-1.5	0.	107.87
5170	7.	-2.25	0.	102.65
5171	7.25	-2.	0.	106.67
5172	7.25	-2.5	0.	107.43
5173	7.75	-3.	0.	113.03
5174	7.5	-2.75	0.	112.71
5175	8.25	-3.	0.	113.9
5176	8.	-2.75	0.	113.75
5177	8.5	-2.75	0.	114.62
5178	8.25	-1.5	0.	114.44
5179	7.75	-1.5	0.	113.64
5180	8.	-1.75	0.	115.3
5181	8.5	-1.75	0.	113.42
5182	8.25	-2.5	0.	114.52
5183	8.5	-2.25	0.	113.51
5184	7.75	-2.5	0.	113.47
5185	8.	-2.25	0.	115.3
5186	7.5	-2.25	0.	111.42
5187	7.5	-1.75	0.	111.59
5188	7.75	-2.	0.	113.25
5189	8.25	-2.	0.	114.29
5190	6.	6.	0.	96.35
5191	4.	6.	0.	91.759
5192	6.	5.	0.	100.98
5193	4.	5.	0.	96.571
5194	5.5	6.	0.	122.26
5195	5.	6.	0.	115.15
5196	4.5	6.	0.	130.11
5197	6.	5.5	0.	105.49
5198	4.	5.5	0.	100.89
5199	4.5	5.	0.	116.55
5200	5.	5.	0.	117.89
5201	5.5	5.	0.	118.3
5202	4.5	5.5	0.	119.31
5203	5.	5.5	0.	122.16
5204	5.5	5.5	0.	118.05
5205	5.75	6.	0.	109.29
5206	6.	5.75	0.	100.91
5207	4.25	6.	0.	110.59
5208	4.	5.75	0.	96.097
5209	6.	5.25	0.	103.2
5210	5.75	5.	0.	109.62
5211	4.	5.25	0.	98.705
5212	4.25	5.	0.	106.56
5213	5.25	6.	0.	118.69
5214	5.5	5.75	0.	120.08
5215	4.75	6.	0.	122.48
5216	5.	5.75	0.	118.62
5217	4.5	5.75	0.	124.67
5218	5.75	5.5	0.	111.74
5219	4.25	5.5	0.	110.06
5220	4.75	5.	0.	117.21
5221	4.5	5.25	0.	117.91
5222	5.25	5.	0.	118.08
5223	5.	5.25	0.	120.02
5224	5.5	5.25	0.	118.16
5225	4.75	5.5	0.	120.68
5226	5.25	5.5	0.	120.1
5227	-2.89	-8.54	0.	84.744
5228	-2.79	-6.64	0.	78.146
5229	-4.48	-7.5	0.	82.184
5230	-2.865	-8.065	0.	100.15
5231	-2.84	-7.59	0.	97.388
5232	-2.815	-7.115	0.	101.72
5233	-3.2875	-8.28	0.	101.04
5234	-3.685	-8.02	0.	103.08
5235	-4.0825	-7.76	0.	108.11
5236	-3.2125	-6.855	0.	104.4
5237	-3.635	-7.07	0.	104.33
5238	-4.0575	-7.285	0.	111.24
5239	-3.1827	-7.5351	0.	101.08
5240	-3.3393	-7.8866	0.	99.653
5241	-3.7381	-7.5773	0.	106.73
5242	-3.146	-7.1847	0.	98.687
5243	-3.456	-7.3463	0.	103.2
5244	-2.8775	-8.3025	0.	91.011
5245	-3.0887	-8.41	0.	91.347
5246	-2.8025	-6.8775	0.	88.869
5247	-3.0013	-6.7475	0.	90.137
5248	-4.2812	-7.63	0.	91.983
5249	-4.2688	-7.3925	0.	93.55
5250	-2.8525	-7.8275	0.	98.72
5251	-3.1022	-7.9758	0.	99.872
5252	-2.8275	-7.3525	0.	99.522
5253	-3.0114	-7.5626	0.	99.23
5254	-2.9805	-7.1499	0.	100.18
5255	-3.4862	-8.15	0.	102.04
5256	-3.3134	-8.0833	0.	100.27
5257	-3.8837	-7.89	0.	105.54
5258	-3.5122	-7.9533	0.	101.35
5259	-3.9103	-7.6687	0.	107.25
5260	-3.4237	-6.9625	0.	104.31
5261	-3.1793	-7.0199	0.	101.47
5262	-3.8463	-7.1775	0.	107.71
5263	-3.5455	-7.2082	0.	103.76
5264	-3.8978	-7.4312	0.	108.76
5265	-3.261	-7.7109	0.	100.36
5266	-3.1644	-7.3599	0.	99.877
5267	-3.3193	-7.4407	0.	102.13
5268	-3.5387	-7.732	0.	103.13
5269	-3.597	-7.4618	0.	104.91
5270	-3.301	-7.2655	0.	100.93
5271	4.96	-6.77	0.	107.48
5272	5.36	-5.51	0.	59.668
5273	4.08	-5.79	0.	68.449
5274	5.0933	-6.35	0.	101.43
5275	5.2267	-5.93	0.	104.92
5276	4.6667	-6.4433	0.	94.655
5277	4.3733	-6.1167	0.	99.853
5278	4.9333	-5.6033	0.	116.
5279	4.5067	-5.6967	0.	117.72
5280	4.6331	-5.9689	0.	107.57
5281	4.8363	-6.1962	0.	105.54
5282	4.929	-5.9044	0.	104.18
5283	5.0267	-6.56	0.	101.94
5284	4.8133	-6.6067	0.	99.38
5285	5.2933	-5.72	0.	82.156
5286	5.1467	-5.5567	0.	87.564
5287	4.2267	-5.9533	0.	80.269
5288	4.2933	-5.7433	0.	89.267
5289	5.16	-6.14	0.	103.06
5290	4.9648	-6.2731	0.	103.36
5291	5.0778	-5.9172	0.	104.5
5292	4.52	-6.28	0.	97.219
5293	4.7515	-6.3198	0.	100.08
5294	4.5032	-6.0428	0.	103.44
5295	4.72	-5.65	0.	116.71
5296	4.9311	-5.7538	0.	110.06
5297	4.5699	-5.8328	0.	112.21
5298	4.7347	-6.0826	0.	106.42
5299	4.781	-5.9366	0.	105.78
5300	4.8826	-6.0503	0.	104.81
5301	1.87	-7.27	0.	88.379
5302	3.3	-8.3	0.	89.638
5303	3.48	-6.54	0.	80.364
5304	2.2275	-7.5275	0.	109.15
5305	2.585	-7.785	0.	105.99
5306	2.9425	-8.0425	0.	103.55
5307	2.2725	-7.0875	0.	115.39
5308	2.675	-6.905	0.	108.18
5309	3.0775	-6.7225	0.	111.18
5310	3.345	-7.86	0.	102.57
5311	3.39	-7.42	0.	101.04
5312	3.435	-6.98	0.	106.69
5313	2.993	-7.7478	0.	103.65
5314	2.6497	-7.3259	0.	107.63
5315	3.02	-7.3796	0.	106.05
5316	3.0683	-7.0165	0.	103.67
5317	2.0487	-7.3987	0.	96.212
5318	2.0712	-7.1788	0.	99.457
5319	3.1212	-8.1713	0.	95.113
5320	3.3225	-8.08	0.	94.673
5321	3.2787	-6.6312	0.	94.793
5322	3.4575	-6.76	0.	92.57
5323	2.4062	-7.6562	0.	107.46
5324	2.25	-7.3075	0.	111.85
5325	2.7638	-7.9138	0.	104.74
5326	2.789	-7.7664	0.	104.8
5327	2.6174	-7.5554	0.	106.8
5328	2.9677	-7.8952	0.	103.49
5329	2.4738	-6.9963	0.	111.76
5330	2.4611	-7.2067	0.	111.39
5331	2.8763	-6.8137	0.	109.64
5332	2.6624	-7.1154	0.	107.86
5333	2.8717	-6.9607	0.	105.92
5334	3.0729	-6.8695	0.	107.36
5335	3.3675	-7.64	0.	101.74
5336	3.169	-7.8039	0.	103.07
5337	3.4125	-7.2	0.	103.85
5338	3.205	-7.3998	0.	103.53
5339	3.2517	-6.9982	0.	105.14
5340	3.0065	-7.5637	0.	104.85
5341	2.8349	-7.3527	0.	106.82
5342	3.0442	-7.198	0.	104.85
5343	-6.01	-8.42	0.	53.807
5344	-6.71	-7.44	0.	108.6
5345	-7.21	-8.54	0.	49.133
5346	-6.2433	-8.0933	0.	90.897
5347	-6.4767	-7.7667	0.	87.626
5348	-6.41	-8.46	0.	111.4
5349	-6.81	-8.5	0.	111.47
5350	-6.8767	-7.8067	0.	91.963
5351	-7.0433	-8.1733	0.	94.989
5352	-6.6571	-7.9719	0.	98.83
5353	-6.7731	-8.2267	0.	98.061
5354	-6.496	-8.1989	0.	99.478
5355	-6.1267	-8.2567	0.	69.11
5356	-6.21	-8.44	0.	79.868
5357	-6.5933	-7.6033	0.	96.666
5358	-6.7933	-7.6233	0.	98.232
5359	-7.01	-8.52	0.	80.035
5360	-7.1267	-8.3567	0.	71.693
5361	-6.36	-7.93	0.	89.118
5362	-6.3697	-8.1461	0.	94.91
5363	-6.5669	-7.8693	0.	93.173
5364	-6.61	-8.48	0.	111.33
5365	-6.453	-8.3294	0.	105.16
5366	-6.7915	-8.3634	0.	104.72
5367	-6.96	-7.99	0.	93.346
5368	-6.7669	-7.8893	0.	95.268
5369	-6.9082	-8.2	0.	96.43
5370	-6.7151	-8.0993	0.	98.363
5371	-6.5766	-8.0854	0.	99.012
5372	-6.6346	-8.2128	0.	98.626
5373	-1.54	-5.421e-017	0.	87.596
5374	-0.34	-1.16	0.	99.892
5375	6.e-002	0.46	0.	74.965
5376	-1.24	-0.29	0.	110.
5377	-0.94	-0.58	0.	106.2
5378	-0.64	-0.87	0.	101.25
5379	-1.0067	0.15333	0.	116.33
5380	-0.47333	0.30667	0.	112.56
5381	-0.24	-0.755	0.	100.11
5382	-0.14	-0.35	0.	100.62
5383	-4.e-002	5.5e-002	0.	101.21
5384	-0.43705	-5.0325e-002	0.	102.72
5385	-0.46556	-0.47053	0.	103.99
5386	-0.82975	-0.22778	0.	108.76
5387	-1.39	-0.145	0.	97.222
5388	-1.2733	7.6667e-002	0.	99.906
5389	-0.49	-1.015	0.	98.946
5390	-0.29	-0.9575	0.	98.318
5391	-0.20667	0.38333	0.	93.449
5392	1.e-002	0.2575	0.	87.913
5393	-1.09	-0.435	0.	108.02
5394	-1.0349	-0.25889	0.	109.21
5395	-0.79	-0.725	0.	103.72
5396	-0.88488	-0.40389	0.	107.46
5397	-0.55278	-0.67027	0.	102.54
5398	-0.74	0.23	0.	114.33
5399	-0.91821	-3.7221e-002	0.	112.35
5400	-0.45519	0.12817	0.	107.62
5401	-0.19	-0.5525	0.	100.28
5402	-0.35278	-0.61277	0.	101.94
5403	-9.e-002	-0.1475	0.	100.88
5404	-0.30278	-0.41027	0.	102.3
5405	-0.23852	2.3377e-003	0.	101.96
5406	-0.4513	-0.26043	0.	103.35
5407	-0.6334	-0.13905	0.	105.68
5408	-0.64765	-0.34915	0.	106.33
5409	4.66	1.26	0.	82.488
5410	4.66	0.13	0.	82.561
5411	5.64	0.69	0.	65.027
5412	4.66	0.695	0.	103.53
5413	5.15	0.975	0.	97.746
5414	5.15	0.41	0.	97.945
5415	4.9866	0.6932	0.	102.47
5416	4.66	0.9775	0.	91.441
5417	4.905	1.1175	0.	88.162
5418	4.66	0.4125	0.	91.456
5419	4.905	0.27	0.	88.503
5420	5.395	0.8325	0.	76.134
5421	5.395	0.55	0.	76.016
5422	4.8233	0.6941	0.	103.
5423	5.0683	0.8341	0.	99.162
5424	5.0683	0.5516	0.	99.319
5425	-2.3	-0.49	0.	112.11
5426	-1.7	0.62	0.	62.705
5427	-2.96	0.59	0.	55.828
5428	-2.1	-0.12	0.	95.403
5429	-1.9	0.25	0.	102.95
5430	-2.52	-0.13	0.	92.308
5431	-2.74	0.23	0.	98.929
5432	-2.12	0.61	0.	120.72
5433	-2.54	0.6	0.	119.3
5434	-2.176	0.32784	0.	105.17
5435	-2.4677	0.32157	0.	104.1
5436	-2.3148	7.1377e-002	0.	103.33
5437	-2.2	-0.305	0.	102.46
5438	-2.41	-0.31	0.	100.83
5439	-1.8	0.435	0.	81.524
5440	-1.91	0.615	0.	90.938
5441	-2.85	0.41	0.	75.862
5442	-2.75	0.595	0.	86.306
5443	-2.	6.5e-002	0.	99.018
5444	-2.2074	-2.4312e-002	0.	99.226
5445	-2.038	0.28892	0.	103.89
5446	-2.63	5.e-002	0.	95.587
5447	-2.4174	-2.9312e-002	0.	97.805
5448	-2.6038	0.27579	0.	101.37
5449	-2.33	0.605	0.	119.87
5450	-2.148	0.46892	0.	112.76
5451	-2.5038	0.46079	0.	111.55
5452	-2.3218	0.32471	0.	104.49
5453	-2.2454	0.19961	0.	104.1
5454	-2.3912	0.19648	0.	103.57
5455	-5.73	-0.8	0.	69.195
5456	-4.69	-2.2	0.	105.37
5457	-4.	-0.6	0.	65.918
5458	-5.47	-1.15	0.	104.97
5459	-5.21	-1.5	0.	102.52
5460	-4.95	-1.85	0.	95.246
5461	-5.2975	-0.75	0.	114.39
5462	-4.865	-0.7	0.	108.25
5463	-4.4325	-0.65	0.	116.02
5464	-4.5175	-1.8	0.	97.498
5465	-4.345	-1.4	0.	102.27
5466	-4.1725	-1.	0.	103.96
5467	-4.9506	-1.3468	0.	102.53
5468	-5.0887	-1.0414	0.	106.25
5469	-4.6492	-1.3044	0.	102.49
5470	-4.7614	-1.6069	0.	103.74
5471	-4.6351	-0.95159	0.	104.14
5472	-5.6	-0.975	0.	85.362
5473	-5.5138	-0.775	0.	89.856
5474	-4.82	-2.025	0.	98.965
5475	-4.6038	-2.	0.	99.83
5476	-4.2162	-0.625	0.	90.454
5477	-4.0862	-0.8	0.	84.512
5478	-5.34	-1.325	0.	103.71
5479	-5.2793	-1.0957	0.	105.53
5480	-5.08	-1.675	0.	98.859
5481	-5.0803	-1.4234	0.	102.52
5482	-4.8557	-1.7284	0.	99.492
5483	-5.0813	-0.725	0.	111.31
5484	-5.1931	-0.8957	0.	110.23
5485	-4.6487	-0.675	0.	112.13
5486	-4.75	-0.8258	0.	106.18
5487	-4.5338	-0.8008	0.	110.07
5488	-4.4313	-1.6	0.	99.8
5489	-4.6395	-1.7034	0.	100.58
5490	-4.2587	-1.2	0.	103.11
5491	-4.4971	-1.3522	0.	102.37
5492	-4.4038	-0.9758	0.	104.04
5493	-5.0196	-1.1941	0.	104.37
5494	-4.7999	-1.3256	0.	102.5
5495	-4.856	-1.4768	0.	103.12
5496	-4.8619	-0.9965	0.	105.08
5497	-4.7053	-1.4556	0.	103.11
5498	-4.6421	-1.128	0.	103.3
5499	2.75	6.13	0.	79.647
5500	4.28	6.51	0.	74.134
5501	3.19	7.65	0.	105.26
5502	3.26	6.2567	0.	108.35
5503	3.77	6.3833	0.	112.83
5504	2.8967	6.6367	0.	105.64
5505	3.0433	7.1433	0.	102.94
5506	3.9167	6.89	0.	97.528
5507	3.5533	7.27	0.	94.768
5508	3.3566	6.9684	0.	105.55
5509	3.6086	6.7048	0.	108.32
5510	3.2548	6.6169	0.	103.03
5511	3.005	6.1933	0.	93.5
5512	2.8233	6.3833	0.	92.32
5513	4.025	6.4467	0.	92.493
5514	4.0983	6.7	0.	84.095
5515	3.1167	7.3967	0.	101.95
5516	3.3717	7.46	0.	98.498
5517	3.515	6.32	0.	110.44
5518	3.2574	6.4368	0.	105.62
5519	3.6893	6.544	0.	110.47
5520	2.97	6.89	0.	104.12
5521	3.0757	6.6268	0.	104.3
5522	3.2	7.0558	0.	104.14
5523	3.735	7.08	0.	96.076
5524	3.7626	6.7974	0.	102.72
5525	3.455	7.1192	0.	100.14
5526	3.4826	6.8366	0.	106.85
5527	3.3057	6.7926	0.	104.21
5528	3.4317	6.6608	0.	105.39
5529	-2.09	6.44	0.	106.27
5530	-2.68	5.51	0.	52.809
5531	-1.59	5.46	0.	54.47
5532	-2.385	5.975	0.	84.767
5533	-1.84	5.95	0.	88.151
5534	-2.135	5.485	0.	120.14
5535	-2.12	5.803	0.	100.24
5536	-2.2375	6.2075	0.	94.949
5537	-1.965	6.195	0.	96.375
5538	-2.5325	5.7425	0.	67.167
5539	-2.4075	5.4975	0.	85.817
5540	-1.715	5.705	0.	70.321
5541	-1.8625	5.4725	0.	87.142
5542	-2.2525	5.889	0.	92.054
5543	-1.98	5.8765	0.	93.74
5544	-2.1275	5.644	0.	110.18
5545	-6.95	5.91	0.	103.52
5546	-5.87	7.03	0.	69.487
5547	-7.38	7.4	0.	62.925
5548	-6.59	6.2833	0.	92.311
5549	-6.23	6.6567	0.	97.9
5550	-7.0933	6.4067	0.	97.627
5551	-7.2367	6.9033	0.	101.8
5552	-6.3733	7.1533	0.	111.56
5553	-6.8767	7.2767	0.	111.4
5554	-6.5337	6.8378	0.	103.72
5555	-6.7834	6.5788	0.	102.05
5556	-6.8829	6.9233	0.	100.11
5557	-6.77	6.0967	0.	96.479
5558	-7.0217	6.1583	0.	98.493
5559	-6.05	6.8433	0.	80.606
5560	-6.1217	7.0917	0.	87.204
5561	-7.3083	7.1517	0.	82.191
5562	-7.1283	7.3383	0.	86.829
5563	-6.41	6.47	0.	95.014
5564	-6.6867	6.4311	0.	97.178
5565	-6.3819	6.7472	0.	100.56
5566	-7.165	6.655	0.	99.554
5567	-6.9384	6.4928	0.	99.726
5568	-7.0598	6.9133	0.	100.95
5569	-6.625	7.215	0.	111.38
5570	-6.4535	6.9956	0.	107.3
5571	-6.8798	7.1	0.	105.74
5572	-6.6586	6.7083	0.	102.79
5573	-6.7083	6.8806	0.	101.82
5574	-6.8331	6.7511	0.	101.06
5575	1.53	7.12	0.	74.62
5576	-0.17	6.46	0.	79.278
5577	1.25	5.33	0.	95.865
5578	1.105	6.955	0.	109.88
5579	0.68	6.79	0.	107.53
5580	0.255	6.625	0.	115.4
5581	1.46	6.6725	0.	104.24
5582	1.39	6.225	0.	101.49
5583	1.32	5.7775	0.	103.27
5584	0.185	6.1775	0.	108.71
5585	0.54	5.895	0.	105.9
5586	0.895	5.6125	0.	102.54
5587	0.76211	6.4879	0.	106.2
5588	1.1082	6.543	0.	101.71
5589	1.0724	6.0634	0.	103.14
5590	0.72096	6.174	0.	104.93
5591	0.44745	6.3693	0.	110.06
5592	1.3175	7.0375	0.	91.545
5593	1.495	6.8962	0.	88.935
5594	4.25e-002	6.5425	0.	94.242
5595	7.5e-003	6.3187	0.	91.047
5596	1.285	5.5538	0.	97.826
5597	1.0725	5.4713	0.	97.642
5598	0.8925	6.8725	0.	108.66
5599	1.1066	6.749	0.	105.75
5600	0.4675	6.7075	0.	111.39
5601	0.72105	6.639	0.	106.86
5602	0.35122	6.4972	0.	112.44
5603	1.425	6.4488	0.	102.84
5604	1.2841	6.6077	0.	102.97
5605	1.355	6.0012	0.	102.27
5606	1.2312	6.1442	0.	102.31
5607	1.1962	5.9205	0.	103.11
5608	0.3625	6.0363	0.	107.19
5609	0.31622	6.2734	0.	109.14
5610	0.7175	5.7537	0.	104.21
5611	0.63048	6.0345	0.	105.41
5612	0.9837	5.838	0.	102.78
5613	0.93518	6.5155	0.	103.95
5614	0.74154	6.331	0.	105.55
5615	0.60478	6.4286	0.	108.06
5616	1.0903	6.3032	0.	102.41
5617	0.89668	6.1187	0.	104.03
5618	0.58421	6.2717	0.	107.44
5619	7.	-6.	0.	94.039
5620	6.	-6.	0.	97.147
5621	7.	-8.	0.	96.383
5622	6.	-8.	0.	95.624
5623	6.5	-6.	0.	108.34
5624	7.	-6.5	0.	98.594
5625	7.	-7.	0.	98.657
5626	7.	-7.5	0.	100.17
5627	6.	-6.5	0.	101.02
5628	6.	-7.	0.	100.94
5629	6.	-7.5	0.	101.06
5630	6.5	-8.	0.	110.27
5631	6.5	-6.5	0.	103.74
5632	6.5	-7.	0.	103.08
5633	6.5	-7.5	0.	105.38
5634	6.75	-6.	0.	101.12
5635	7.	-6.25	0.	96.31
5636	6.25	-6.	0.	102.7
5637	6.	-6.25	0.	99.075
5638	7.	-7.75	0.	98.277
5639	6.75	-8.	0.	103.29
5640	6.	-7.75	0.	98.34
5641	6.25	-8.	0.	102.91
5642	6.5	-6.25	0.	105.97
5643	7.	-6.75	0.	98.586
5644	6.75	-6.5	0.	101.13
5645	7.	-7.25	0.	99.371
5646	6.75	-7.	0.	100.87
5647	6.75	-7.5	0.	102.74
5648	6.	-6.75	0.	100.93
5649	6.25	-6.5	0.	102.33
5650	6.	-7.25	0.	100.98
5651	6.25	-7.	0.	102.01
5652	6.25	-7.5	0.	103.2
5653	6.5	-7.75	0.	107.79
5654	6.5	-6.75	0.	103.41
5655	6.5	-7.25	0.	104.22
