Node Number	X Location (mm)	Y Location (mm)	Z Location (mm)	Equivalent (von-Mises) Stress (MPa)
1	7.05	5.35	0.	150.27
2	6.82	6.86	0.	145.83
3	5.63	5.91	0.	161.7
4	0.98	6.46	0.	169.64
5	1.76	5.21	0.	108.74
6	2.45	6.51	0.	169.51
7	-4.41	6.66	0.	163.61
8	-6.16	7.15	0.	155.28
9	-5.71	5.39	0.	107.25
10	-3.43	6.19	0.	178.54
11	-1.81	5.97	0.	167.99
12	-2.43	7.48	0.	113.06
13	-5.81	1.08	0.	152.33
14	-7.29	0.36	0.	163.5
15	-5.93	-0.56	0.	139.93
16	7.35	1.25	0.	137.47
17	6.07	0.51	0.	159.57
18	7.36	-0.23	0.	140.19
19	-3.39	-2.09	0.	148.24
20	-3.33	-0.93	0.	158.71
21	-4.36	-1.46	0.	163.73
22	7.67	-1.83	0.	108.6
23	8.34	-0.8	0.	184.56
24	7.11	-0.73	0.	165.98
25	5.77	-8.28	0.	107.03
26	6.35	-7.45	0.	183.81
27	5.34	-7.37	0.	180.29
28	-7.89	-6.16	0.	150.18
29	-7.79	-8.07	0.	138.11
30	-6.19	-7.03	0.	158.33
31	-0.38	-6.94	0.	181.88
32	0.8	-7.16	0.	173.38
33	0.4	-6.02	0.	119.67
34	6.89	-6.73	0.	129.16
35	6.46	-8.57	0.	162.4
36	8.27	-8.02	0.	171.6
37	-6.	5.	0.	134.23
38	-6.	4.	0.	131.6
39	-4.	5.	0.	146.24
40	-4.	4.	0.	136.
41	7.	9.	0.	138.55
42	7.	7.	0.	155.76
43	9.	9.	0.	140.82
44	9.	7.	0.	138.33
45	-3.	-1.	0.	142.44
46	-3.	-2.	0.	143.51
47	-1.	-1.	0.	138.22
48	-1.	-2.	0.	136.17
49	0.	1.	0.	135.15
50	0.	0.	0.	137.43
51	1.	1.	0.	135.2
52	1.	0.	0.	135.42
53	3.	-7.	0.	134.9
54	3.	-9.	0.	136.53
55	5.	-7.	0.	156.26
56	5.	-9.	0.	138.34
57	-5.	-6.	0.	137.
58	-5.	-8.	0.	136.96
59	-3.	-6.	0.	133.23
60	-3.	-8.	0.	133.38
61	10.	10.	0.	125.43
62	-10.	10.	0.	125.02
63	10.	-10.	0.	139.08
64	-10.	-10.	0.	136.48
65	-5.6028	5.	0.	100.91
66	7.52	-0.75333	0.	113.05
67	6.678	-7.6371	0.	119.47
68	5.	-7.4928	0.	128.96
69	6.9733	5.8533	0.	139.11
70	6.8967	6.3567	0.	144.91
71	6.5767	5.5367	0.	102.54
72	6.1033	5.7233	0.	91.713
73	6.4233	6.5433	0.	93.52
74	6.0267	6.2267	0.	81.342
75	1.24	6.0433	0.	112.01
76	1.5	5.6267	0.	103.01
77	1.47	6.4767	0.	106.6
78	1.96	6.4933	0.	107.19
79	1.99	5.6433	0.	110.37
80	2.22	6.0767	0.	117.91
81	-4.8475	6.7825	0.	94.069
82	-5.285	6.905	0.	110.17
83	-5.7225	7.0275	0.	107.07
84	-4.735	6.3425	0.	86.505
85	-5.06	6.025	0.	101.92
86	-5.385	5.7075	0.	91.698
87	-6.0475	6.71	0.	136.18
88	-5.935	6.27	0.	134.
89	-5.8225	5.83	0.	121.58
90	-2.89	6.1167	0.	113.53
91	-2.35	6.0433	0.	111.79
92	-3.0967	6.62	0.	87.186
93	-2.7633	7.05	0.	96.68
94	-2.0167	6.4733	0.	129.85
95	-2.2233	6.9767	0.	125.12
96	-6.3033	0.84	0.	100.8
97	-6.7967	0.6	0.	90.244
98	-5.85	0.53333	0.	145.72
99	-5.89	-1.3333e-002	0.	144.61
100	-6.8363	5.3052e-002	0.	76.593
101	-6.3812	-0.25475	0.	90.718
102	6.9233	1.0033	0.	92.347
103	6.4967	0.75667	0.	78.227
104	7.3533	0.75667	0.	137.08
105	7.3567	0.26333	0.	135.22
106	6.5	0.26333	0.	85.352
107	6.93	1.6667e-002	0.	101.72
108	-3.7133	-1.88	0.	93.366
109	-4.0367	-1.67	0.	73.444
110	-3.6733	-1.1067	0.	99.37
111	-4.0167	-1.2833	0.	77.627
112	7.8933	-1.4867	0.	98.606
113	8.1167	-1.1433	0.	108.42
114	7.4833	-1.4633	0.	105.53
115	7.2967	-1.0967	0.	114.24
116	7.93	-0.77667	0.	113.79
117	6.06	-7.865	0.	103.29
118	5.555	-7.825	0.	121.93
119	5.845	-7.41	0.	103.58
120	-7.865	-6.6375	0.	146.08
121	-7.84	-7.115	0.	146.03
122	-7.815	-7.5925	0.	144.23
123	-7.465	-6.3775	0.	99.99
124	-7.04	-6.595	0.	110.2
125	-6.615	-6.8125	0.	94.527
126	-7.3902	-7.8101	0.	96.794
127	-6.9905	-7.5503	0.	107.42
128	-6.5909	-7.2906	0.	90.919
129	1.3333e-002	-7.0133	0.	89.929
130	0.40667	-7.0867	0.	105.27
131	-0.12	-6.6333	0.	99.107
132	0.14	-6.3267	0.	88.671
133	0.66667	-6.78	0.	140.83
134	0.53333	-6.4	0.	125.55
135	6.784	-7.1835	0.	153.33
136	6.569	-8.1035	0.	164.43
137	7.235	-7.0525	0.	98.219
138	7.58	-7.375	0.	106.61
139	7.925	-7.6975	0.	89.825
140	6.9125	-8.4325	0.	111.47
141	7.365	-8.295	0.	115.17
142	7.8175	-8.1575	0.	100.2
143	-6.	4.5	0.	140.06
144	-4.4035	5.	0.	119.73
145	-4.8046	5.	0.	124.37
146	-5.2037	5.	0.	116.44
147	-5.5	4.	0.	113.1
148	-5.	4.	0.	120.18
149	-4.5	4.	0.	117.6
150	-4.	4.5	0.	147.24
151	7.	8.5	0.	144.6
152	7.	8.	0.	144.28
153	7.	7.5	0.	138.65
154	7.5	9.	0.	120.16
155	8.	9.	0.	127.38
156	8.5	9.	0.	121.47
157	7.5	7.	0.	126.86
158	8.	7.	0.	125.63
159	8.5	7.	0.	119.02
160	9.	8.5	0.	151.08
161	9.	8.	0.	152.63
162	9.	7.5	0.	150.27
163	-3.	-1.5	0.	157.6
164	-2.5	-1.	0.	119.06
165	-2.	-1.	0.	123.85
166	-1.5	-1.	0.	118.65
167	-2.5	-2.	0.	119.91
168	-2.	-2.	0.	124.53
169	-1.5	-2.	0.	118.85
170	-1.	-1.5	0.	145.55
171	0.	0.5	0.	145.93
172	0.5	1.	0.	113.16
173	0.5	0.	0.	113.51
174	1.	0.5	0.	144.33
175	3.	-7.5	0.	144.33
176	3.	-8.	0.	146.4
177	3.	-8.5	0.	146.25
178	3.5	-7.	0.	112.96
179	4.	-7.	0.	118.24
180	4.5	-7.	0.	115.8
181	3.5	-9.	0.	114.72
182	4.	-9.	0.	118.63
183	4.5	-9.	0.	115.57
184	5.	-8.5003	0.	149.42
185	5.	-8.0011	0.	156.91
186	-5.	-6.5	0.	142.72
187	-5.	-7.	0.	141.27
188	-5.	-7.5	0.	141.75
189	-4.5	-6.	0.	112.91
190	-4.	-6.	0.	116.03
191	-3.5	-6.	0.	111.02
192	-4.5	-8.	0.	111.7
193	-4.	-8.	0.	115.67
194	-3.5	-8.	0.	111.6
195	-3.	-6.5	0.	140.97
196	-3.	-7.	0.	141.99
197	-3.	-7.5	0.	141.57
198	9.5	10.	0.	124.44
199	9.	10.	0.	120.67
200	8.5	10.	0.	116.84
201	8.	10.	0.	114.91
202	7.5	10.	0.	117.18
203	7.	10.	0.	121.81
204	6.5	10.	0.	127.34
205	6.	10.	0.	129.41
206	5.5	10.	0.	129.31
207	5.	10.	0.	129.22
208	4.5	10.	0.	129.03
209	4.	10.	0.	128.68
210	3.5	10.	0.	128.07
211	3.	10.	0.	127.26
212	2.5	10.	0.	126.47
213	2.	10.	0.	125.97
214	1.5	10.	0.	125.96
215	1.	10.	0.	126.42
216	0.5	10.	0.	127.12
217	-5.2042e-015	10.	0.	127.71
218	-0.5	10.	0.	127.83
219	-1.	10.	0.	127.3
220	-1.5	10.	0.	126.17
221	-2.	10.	0.	124.85
222	-2.5	10.	0.	123.81
223	-3.	10.	0.	123.28
224	-3.5	10.	0.	123.05
225	-4.	10.	0.	122.81
226	-4.5	10.	0.	122.4
227	-5.	10.	0.	122.01
228	-5.5	10.	0.	121.99
229	-6.	10.	0.	122.5
230	-6.5	10.	0.	123.44
231	-7.	10.	0.	124.44
232	-7.5	10.	0.	125.17
233	-8.	10.	0.	125.49
234	-8.5	10.	0.	125.47
235	-9.	10.	0.	125.27
236	-9.5	10.	0.	125.06
237	10.	9.5	0.	124.17
238	10.	9.	0.	122.92
239	10.	8.5	0.	122.23
240	10.	8.	0.	124.67
241	10.	7.5	0.	126.14
242	10.	7.	0.	130.47
243	10.	6.5	0.	133.66
244	10.	6.	0.	132.92
245	10.	5.5	0.	130.78
246	10.	5.	0.	130.02
247	10.	4.5	0.	130.38
248	10.	4.	0.	131.1
249	10.	3.5	0.	131.74
250	10.	3.	0.	132.08
251	10.	2.5	0.	131.97
252	10.	2.	0.	131.28
253	10.	1.5	0.	130.14
254	10.	1.	0.	129.13
255	10.	0.5	0.	128.44
256	10.	-5.2042e-015	0.	127.38
257	10.	-0.5	0.	125.25
258	10.	-1.	0.	124.58
259	10.	-1.5	0.	127.37
260	10.	-2.	0.	131.85
261	10.	-2.5	0.	134.66
262	10.	-3.	0.	135.42
263	10.	-3.5	0.	135.12
264	10.	-4.	0.	134.7
265	10.	-4.5	0.	134.52
266	10.	-5.	0.	134.49
267	10.	-5.5	0.	134.27
268	10.	-6.	0.	133.29
269	10.	-6.5	0.	130.98
270	10.	-7.	0.	127.3
271	10.	-7.5	0.	124.07
272	10.	-8.	0.	124.04
273	10.	-8.5	0.	128.55
274	10.	-9.	0.	134.17
275	10.	-9.5	0.	137.93
276	-10.	9.5	0.	124.9
277	-10.	9.	0.	124.44
278	-10.	8.5	0.	123.79
279	-10.	8.	0.	123.08
280	-10.	7.5	0.	122.43
281	-10.	7.	0.	122.01
282	-10.	6.5	0.	121.99
283	-10.	6.	0.	122.47
284	-10.	5.5	0.	123.43
285	-10.	5.	0.	124.78
286	-10.	4.5	0.	126.39
287	-10.	4.	0.	128.1
288	-10.	3.5	0.	129.68
289	-10.	3.	0.	130.86
290	-10.	2.5	0.	131.32
291	-10.	2.	0.	130.83
292	-10.	1.5	0.	129.4
293	-10.	1.	0.	127.51
294	-10.	0.5	0.	126.08
295	-10.	-5.2042e-015	0.	125.88
296	-10.	-0.5	0.	126.92
297	-10.	-1.	0.	128.53
298	-10.	-1.5	0.	130.01
299	-10.	-2.	0.	131.09
300	-10.	-2.5	0.	131.83
301	-10.	-3.	0.	132.42
302	-10.	-3.5	0.	133.01
303	-10.	-4.	0.	133.62
304	-10.	-4.5	0.	134.01
305	-10.	-5.	0.	133.63
306	-10.	-5.5	0.	131.82
307	-10.	-6.	0.	128.44
308	-10.	-6.5	0.	124.94
309	-10.	-7.	0.	123.3
310	-10.	-7.5	0.	124.57
311	-10.	-8.	0.	128.02
312	-10.	-8.5	0.	131.91
313	-10.	-9.	0.	134.72
314	-10.	-9.5	0.	136.12
315	-9.5	-10.	0.	133.15
316	-9.	-10.	0.	130.42
317	-8.5	-10.	0.	127.09
318	-8.	-10.	0.	123.13
319	-7.5	-10.	0.	120.61
320	-7.	-10.	0.	120.84
321	-6.5	-10.	0.	123.3
322	-6.	-10.	0.	125.38
323	-5.5	-10.	0.	125.11
324	-5.	-10.	0.	122.27
325	-4.5	-10.	0.	118.81
326	-4.	-10.	0.	117.21
327	-3.5	-10.	0.	118.73
328	-3.	-10.	0.	122.65
329	-2.5	-10.	0.	126.97
330	-2.	-10.	0.	129.78
331	-1.5	-10.	0.	130.56
332	-1.	-10.	0.	129.81
333	-0.5	-10.	0.	128.53
334	5.2042e-015	-10.	0.	127.87
335	0.5	-10.	0.	128.74
336	1.	-10.	0.	131.27
337	1.5	-10.	0.	134.67
338	2.	-10.	0.	137.66
339	2.5	-10.	0.	136.17
340	3.	-10.	0.	126.67
341	3.5	-10.	0.	116.55
342	4.	-10.	0.	112.99
343	4.5	-10.	0.	116.79
344	5.	-10.	0.	125.7
345	5.5	-10.	0.	132.28
346	6.	-10.	0.	129.44
347	6.5	-10.	0.	121.78
348	7.	-10.	0.	117.1
349	7.5	-10.	0.	118.52
350	8.	-10.	0.	124.18
351	8.5	-10.	0.	130.01
352	9.	-10.	0.	133.64
353	9.5	-10.	0.	135.48
354	-3.37	-1.7033	0.	153.33
355	-3.35	-1.3167	0.	154.99
356	4.0429	-3.4675	0.	125.7
357	3.5279	-2.977	0.	126.76
358	3.5198	-2.4816	0.	126.9
359	4.0409	-3.9663	0.	125.07
360	4.5498	-3.4652	0.	124.98
361	3.0214	-2.9793	0.	127.32
362	2.5176	-2.9803	0.	127.72
363	3.0144	-2.4847	0.	127.23
364	4.0149	3.4568	0.	131.88
365	4.0027	2.9694	0.	131.22
366	3.0248	-3.4743	0.	127.43
367	4.0051	-1.9847	0.	126.76
368	4.5496	-3.9619	0.	124.26
369	-0.67114	4.0117	0.	129.58
370	4.5433	-2.9699	0.	125.6
371	4.0743	3.932	0.	132.49
372	2.0162	-2.9808	0.	127.86
373	2.511	-2.4864	0.	127.4
374	1.5348	-3.4702	0.	128.61
375	4.0386	-4.4651	0.	124.22
376	5.0561	-3.4629	0.	124.32
377	3.0041	-1.989	0.	127.19
378	2.9905	2.9202	0.	129.65
379	3.5015	2.4693	0.	130.16
380	4.5201	3.4304	0.	131.15
381	3.9963	2.4764	0.	130.55
382	3.496	2.963	0.	130.77
383	3.0248	-3.9716	0.	127.51
384	1.5167	-3.958	0.	129.38
385	1.0404	-3.9208	0.	128.77
386	5.0162	3.4111	0.	128.95
387	5.572	-3.9497	0.	122.88
388	5.5025	3.3846	0.	125.25
389	4.1324	4.4006	0.	132.69
390	2.0095	-2.4878	0.	127.28
391	4.0341	-4.9651	0.	122.99
392	5.5636	-3.458	0.	123.6
393	6.0768	-3.9466	0.	121.93
394	-7.3162	-5.463	0.	115.66
395	-2.4852	1.9943	0.	125.04
396	2.5029	-1.9916	0.	127.27
397	2.48	2.9128	0.	128.21
398	2.9993	2.4489	0.	129.52
399	4.4857	2.4713	0.	130.5
400	5.9757	3.7952	0.	120.37
401	4.5469	-4.4601	0.	123.48
402	6.5686	-4.4462	0.	120.75
403	-5.9773	-3.4743	0.	124.41
404	-1.5168	2.9835	0.	127.16
405	3.9881	1.9825	0.	129.66
406	0.3963	3.5711	0.	127.07
407	-1.1502	3.9877	0.	128.26
408	-6.4701	-3.9672	0.	124.15
409	6.0326	2.8748	0.	121.23
410	-6.9638	-3.961	0.	123.16
411	-6.916	-4.9206	0.	121.8
412	-6.9439	-4.447	0.	122.76
413	3.4797	0.49847	0.	126.07
414	5.4946	2.915	0.	125.89
415	-1.0786	-4.5059	0.	129.5
416	-0.58909	3.5158	0.	128.43
417	3.487	0.99373	0.	126.89
418	3.4924	1.4865	0.	128.12
419	3.4722	5.5653e-004	0.	125.96
420	-5.487	-3.4816	0.	125.22
421	5.5668	-4.4477	0.	122.5
422	5.057	-4.4527	0.	123.06
423	5.5148	3.8508	0.	125.34
424	6.5562	-4.958	0.	120.8
425	-6.9645	-1.0037	0.	120.49
426	-6.9599	-1.4748	0.	120.07
427	-1.523	-4.469	0.	129.24
428	3.0474	3.7169	0.	130.17
429	-0.12119	-4.4925	0.	126.9
430	0.58518	-3.6423	0.	128.5
431	2.4957	-1.4947	0.	127.39
432	6.5276	4.6125	0.	109.81
433	-5.9631	-2.9705	0.	123.51
434	-2.3953	4.448	0.	119.93
435	6.0746	-3.4513	0.	122.64
436	-4.0767	0.51714	0.	120.2
437	7.0603	-4.4446	0.	120.41
438	0.44995	-4.1914	0.	127.52
439	3.0212	-4.4683	0.	127.49
440	2.5154	-4.466	0.	129.39
441	1.4901	-4.4504	0.	130.47
442	4.0258	-5.4686	0.	121.15
443	7.004	4.0527	0.	116.24
444	-4.962	2.5016	0.	120.88
445	0.96831	3.2605	0.	125.13
446	3.597	3.9898	0.	132.17
447	3.9792	1.4861	0.	128.34
448	4.9665	2.4595	0.	129.67
449	-4.0188	-4.4379	0.	118.18
450	-3.957	1.4951	0.	123.27
451	2.0027	-1.9931	0.	126.97
452	-6.8193e-003	-4.0633	0.	127.8
453	-2.0049	-3.9882	0.	126.27
454	-1.5121	-3.9968	0.	127.56
455	-1.9897	1.9957	0.	125.83
456	-1.0291	2.9981	0.	127.72
457	3.0007	1.967	0.	129.05
458	-1.8195	4.4327	0.	123.96
459	-2.0061	2.978	0.	126.56
460	3.5255	-4.968	0.	124.56
461	-5.9798	-3.977	0.	125.25
462	-4.5643	-4.0016	0.	121.82
463	4.5407	-4.9594	0.	122.64
464	6.0569	-4.9542	0.	121.88
465	4.1742	4.8591	0.	131.85
466	-6.4633	-2.4692	0.	120.37
467	-6.875	-5.3553	0.	121.35
468	-6.433	-4.9496	0.	125.85
469	-6.4311	-5.4242	0.	126.77
470	7.0164	4.5357	0.	115.79
471	-6.4989	-0.84104	0.	113.5
472	-6.4678	-1.4289	0.	112.99
473	-6.4624	-1.9582	0.	117.66
474	4.1805	5.3066	0.	129.41
475	5.5473	4.3223	0.	126.45
476	5.552	-4.9489	0.	122.66
477	5.0458	-4.9527	0.	122.79
478	-5.0233	-3.9968	0.	124.02
479	-5.4964	-3.9865	0.	125.37
480	3.0172	-4.9677	0.	127.23
481	2.5104	-4.9635	0.	130.1
482	-3.4704	1.9895	0.	124.37
483	-2.0041	3.9349	0.	124.11
484	2.9777	-0.49891	0.	126.68
485	2.9805	-6.743e-004	0.	126.27
486	2.992	0.9899	0.	127.05
487	2.9968	1.4796	0.	128.15
488	1.4846	2.868	0.	125.69
489	1.006	2.8652	0.	124.89
490	-0.53605	3.014	0.	127.57
491	-1.9777	1.4986	0.	124.52
492	-1.0155	-4.0421	0.	128.48
493	1.5018	-1.9974	0.	126.15
494	1.0073	-2.5072	0.	126.74
495	1.003	-2.0077	0.	125.19
496	-5.0127	-3.5015	0.	124.86
497	-3.4638	1.4646	0.	122.55
498	5.8591	2.4171	0.	124.15
499	5.4328	2.4445	0.	127.65
500	3.9762	0.9895	0.	126.86
501	3.7271	4.8995	0.	131.22
502	1.4387	3.3107	0.	124.64
503	-4.4655	1.0266	0.	123.71
504	-4.4474	1.515	0.	125.17
505	-0.87542	7.0133	0.	128.57
506	-1.2762	4.4726	0.	128.82
507	6.9997	3.5558	0.	116.8
508	7.0576	3.057	0.	116.71
509	7.5104	4.032	0.	120.94
510	-7.4605	-3.9635	0.	123.27
511	-7.473	-3.4726	0.	123.66
512	-7.4777	-2.9789	0.	123.73
513	-7.4664	-1.477	0.	125.74
514	-7.4467	-0.97927	0.	128.74
515	-1.29	7.0306	0.	130.49
516	-0.83552	-5.6644	0.	132.86
517	-6.8571	1.6881	0.	120.28
518	0.94086	-4.4306	0.	128.61
519	7.0455	-4.9314	0.	120.38
520	5.5364	-2.4769	0.	125.1
521	5.5086	-1.9894	0.	125.25
522	4.0149	-5.9759	0.	118.44
523	-4.9805	2.9975	0.	117.19
524	-4.5167	0.54005	0.	122.78
525	-4.9635	0.53388	0.	125.5
526	6.5797	-3.4451	0.	121.27
527	-6.9061	-5.7499	0.	119.21
528	4.5322	7.3612	0.	129.76
529	5.0223	7.3973	0.	130.57
530	5.4705	-1.5041	0.	125.71
531	4.9471	-1.0013	0.	127.8
532	-5.9545	-2.4668	0.	121.83
533	-4.1639	6.2685e-002	0.	120.67
534	-1.9427	0.49938	0.	121.62
535	-2.8886	4.8861	0.	119.29
536	6.0494	4.7244	0.	118.49
537	4.6287	4.8559	0.	133.19
538	4.5275	-5.4629	0.	121.72
539	-1.3692	-4.9634	0.	131.04
540	-3.5192	-4.4422	0.	118.94
541	-1.9907	-4.4853	0.	128.27
542	-5.969	-4.4815	0.	126.71
543	-4.5156	-4.4769	0.	120.14
544	3.5196	-5.4708	0.	122.87
545	-2.9854	2.495	0.	126.3
546	-4.4663	2.5036	0.	122.58
547	-2.4962	2.9811	0.	126.65
548	-5.4588	2.4779	0.	119.38
549	-6.9269	2.2635	0.	122.83
550	1.9969	-1.4967	0.	127.24
551	2.4873	-0.99794	0.	127.6
552	2.5004	1.9561	0.	129.07
553	2.4911	0.49368	0.	126.71
554	1.9953	2.4213	0.	128.12
555	-1.0088	2.5005	0.	127.87
556	0.49237	2.4966	0.	123.84
557	-1.4631	0.50109	0.	123.22
558	-1.4937	1.9971	0.	127.1
559	-1.4967	-3.5101	0.	125.91
560	0.5014	-1.5111	0.	122.82
561	0.52788	-3.0628	0.	128.56
562	6.6736	2.5166	0.	115.94
563	-0.90882	7.4896	0.	131.22
564	-0.40287	5.9619	0.	125.52
565	-0.43869	7.449	0.	130.3
566	3.5024	5.836	0.	125.7
567	4.0158	7.3737	0.	129.36
568	7.0722	-3.9446	0.	120.16
569	7.5625	-3.9542	0.	120.57
570	7.551	-4.4626	0.	121.19
571	7.535	-4.9657	0.	121.53
572	-7.4962	2.5425	0.	128.43
573	-7.5403	2.9855	0.	128.69
574	-7.4561	6.0354	0.	128.15
575	-7.4906	6.5402	0.	126.87
576	-7.3457	2.0861	0.	127.81
577	-5.4579	-2.9724	0.	125.65
578	6.0611	-2.9601	0.	123.68
579	-3.9856	0.99401	0.	121.49
580	-1.9601	0.9994	0.	122.96
581	-0.68785	-4.6704	0.	128.92
582	0.27629	-4.6844	0.	125.54
583	1.5118	-4.9496	0.	132.38
584	1.0537	-4.9505	0.	129.76
585	-2.5047	-3.9804	0.	124.48
586	-4.0959	-3.853	0.	120.27
587	4.9435	1.9692	0.	130.44
588	6.2947	1.9985	0.	120.32
589	4.4494	-0.4983	0.	126.92
590	4.4659	1.4843	0.	128.93
591	0.31726	4.0535	0.	128.85
592	3.378	5.4094	0.	129.13
593	3.1453	4.1139	0.	131.1
594	0.87759	3.6768	0.	125.54
595	2.6458	3.8076	0.	127.95
596	-6.3981	1.8274	0.	112.5
597	-4.9419	2.0073	0.	125.9
598	-1.0058	6.5509	0.	125.7
599	-0.82413	4.9783	0.	132.58
600	-1.3424	4.9675	0.	131.28
601	-0.92341	6.0018	0.	127.99
602	-4.9339	1.0271	0.	127.36
603	-4.9289	1.5164	0.	128.94
604	-5.4306	1.985	0.	123.44
605	-5.9195	1.9289	0.	116.52
606	7.9777	6.0029	0.	115.39
607	7.9883	5.501	0.	120.93
608	8.0003	5.0003	0.	125.51
609	8.0075	4.5127	0.	126.52
610	8.0137	4.0283	0.	124.32
611	8.0271	3.5442	0.	123.15
612	8.0527	3.0614	0.	123.02
613	2.2529	3.832	0.	125.25
614	1.3588	3.7503	0.	123.59
615	1.827	3.792	0.	123.11
616	3.2096	4.5435	0.	131.69
617	3.2783	4.977	0.	131.61
618	0.14087	5.4293	0.	129.73
619	4.469	0.99011	0.	127.13
620	4.4683	0.49528	0.	125.69
621	4.4584	-9.5827e-004	0.	126.18
622	5.8506	1.97	0.	126.91
623	5.4029	1.9642	0.	129.72
624	-3.5379	-3.9188	0.	119.98
625	0.65325	-4.8851	0.	126.46
626	-0.87343	-5.1297	0.	131.03
627	1.9976	-5.9532	0.	133.84
628	2.0037	-5.4561	0.	133.4
629	-3.47	0.90129	0.	120.46
630	6.0195	-1.9925	0.	124.63
631	6.0482	-2.4736	0.	124.51
632	-4.9569	-2.9961	0.	126.73
633	-4.467	-3.1144	0.	124.26
634	-7.2883	1.5132	0.	128.9
635	-7.7194	1.4732	0.	134.15
636	-7.7656	-0.45888	0.	134.49
637	-7.3428	-0.51522	0.	129.09
638	-7.5312	7.5479	0.	128.57
639	-7.5188	7.0451	0.	126.99
640	7.4899	-5.456	0.	121.16
641	7.0551	-5.3643	0.	120.05
642	3.9691	6.3101	0.	125.22
643	-0.42614	6.9428	0.	127.51
644	7.6089	2.5808	0.	119.44
645	7.1331	2.5615	0.	115.33
646	8.0871	2.5773	0.	124.08
647	0.50972	-2.5319	0.	127.44
648	0.50407	-2.0193	0.	125.16
649	-0.99285	-3.5435	0.	127.78
650	-1.4843	1.5004	0.	126.22
651	-1.0043e-002	2.5146	0.	125.31
652	-0.51205	2.5098	0.	127.24
653	1.493	2.4143	0.	126.7
654	2.4951	0.98544	0.	127.45
655	2.4854	-0.4999	0.	127.48
656	0.99984	-1.5063	0.	123.86
657	1.4982	-1.5002	0.	126.
658	-6.4509	2.3554	0.	118.63
659	-5.9567	2.4281	0.	117.75
660	-7.4925	3.9816	0.	128.03
661	-7.5083	3.4676	0.	128.43
662	-2.4924	3.4701	0.	125.73
663	-2.4639	3.9607	0.	123.21
664	-3.9722	2.5	0.	124.52
665	-3.4784	2.4971	0.	125.91
666	3.0139	-5.4686	0.	126.66
667	2.5098	-5.463	0.	130.65
668	-5.0034	-4.4917	0.	123.84
669	-5.4859	-4.4903	0.	126.52
670	-2.4945	-4.4804	0.	125.87
671	-3.0064	-4.4654	0.	122.21
672	-1.483	-5.9861	0.	130.09
673	-1.4051	-5.5163	0.	131.99
674	-1.9614	-6.9947	0.	128.06
675	5.524	-5.451	0.	123.44
676	5.0252	-5.4556	0.	122.97
677	5.0966	4.8488	0.	134.38
678	5.5722	4.8124	0.	128.38
679	4.6138	5.3364	0.	130.54
680	4.4694	6.2856	0.	125.91
681	4.5312	5.8119	0.	127.08
682	-7.4544	5.0168	0.	129.05
683	0.70835	5.8953	0.	137.03
684	6.2936	1.5671	0.	121.76
685	1.4772	-6.4661	0.	131.59
686	7.7303	-6.0705	0.	123.83
687	6.5545	-5.5029	0.	121.26
688	-4.4802	3.0025	0.	120.12
689	3.5129	-5.9769	0.	120.28
690	-4.4954	-4.9809	0.	118.12
691	-1.8423	-6.4413	0.	127.2
692	-1.0577	-6.1644	0.	130.96
693	8.0024	-7.0201	0.	125.05
694	8.1143	-6.5452	0.	128.72
695	8.1243	-6.0827	0.	128.02
696	7.9839	-5.5899	0.	125.04
697	8.0208	-5.0213	0.	123.96
698	8.0483	-3.9726	0.	122.38
699	-5.9605	-1.9585	0.	118.82
700	-1.9878	-2.9979	0.	122.82
701	-4.1706	-0.36567	0.	122.57
702	5.4384	-1.0156	0.	127.36
703	5.9711	-1.5184	0.	123.22
704	0.50038	-1.0068	0.	120.52
705	5.1247	6.9262	0.	133.03
706	-1.3819	7.5066	0.	131.32
707	-7.528	8.0406	0.	128.82
708	-5.5184	7.9975	0.	114.96
709	-4.9697	7.931	0.	118.97
710	-4.4602	8.0682	0.	127.47
711	-3.9685	8.019	0.	132.32
712	-3.4308	7.9275	0.	130.56
713	-1.428	7.9967	0.	132.37
714	-0.94122	7.9841	0.	131.59
715	-0.46012	7.9621	0.	131.01
716	2.0162e-002	7.9475	0.	130.1
717	1.4807	7.9678	0.	118.52
718	1.9811	7.9756	0.	118.58
719	2.4858	7.9699	0.	123.3
720	2.9924	7.9535	0.	127.68
721	3.5015	7.9252	0.	129.29
722	4.01	7.905	0.	129.15
723	4.5153	7.8995	0.	128.79
724	-7.8266	-5.3859	0.	121.23
725	-7.8909	-4.9338	0.	123.1
726	-7.9399	-4.4596	0.	124.2
727	-7.9638	-3.973	0.	124.76
728	-7.9783	-3.4813	0.	125.15
729	-7.9825	-2.9848	0.	125.5
730	-7.9812	-2.4842	0.	126.06
731	-7.9774	-1.9779	0.	127.14
732	-7.9739	-1.4595	0.	129.06
733	-7.9697	-0.90886	0.	131.72
734	-8.1587	-0.4416	0.	131.84
735	-8.1766	2.0638e-002	0.	127.89
736	-8.1716	0.49619	0.	129.15
737	-8.1611	0.9808	0.	132.27
738	-8.1583	1.4653	0.	134.14
739	-8.156	1.9364	0.	132.54
740	-7.9927	2.4157	0.	130.87
741	-8.0158	2.964	0.	129.67
742	-8.0057	3.4823	0.	128.88
743	-7.9926	3.9942	0.	128.2
744	-7.9802	4.5059	0.	127.86
745	-7.9679	5.0151	0.	127.82
746	-7.963	5.5194	0.	127.54
747	-7.9721	6.0229	0.	126.8
748	5.5222	7.8642	0.	126.68
749	0.41132	-8.0229	0.	115.93
750	-0.10157	-7.9858	0.	119.83
751	-1.1264	-8.0681	0.	132.3
752	-6.5033	-5.8808	0.	125.9
753	2.694	4.209	0.	128.8
754	0.81021	4.1233	0.	126.79
755	4.9433	-0.50395	0.	128.49
756	4.9446	1.4775	0.	130.18
757	-3.9918	-3.3021	0.	120.84
758	-0.28574	-4.9172	0.	127.1
759	-3.6933	0.40286	0.	119.01
760	-2.4158	0.49168	0.	121.25
761	6.576	-2.9488	0.	122.36
762	-6.9951	6.5598	0.	127.3
763	-4.5412	7.6617	0.	128.18
764	7.0783	-3.4399	0.	119.82
765	7.5715	-3.4418	0.	119.34
766	8.0598	-3.4565	0.	121.51
767	1.9764	7.4761	0.	113.81
768	0.13153	5.9125	0.	124.21
769	6.7348	2.017	0.	112.3
770	8.1223	2.0926	0.	127.47
771	2.5274e-003	-1.5131	0.	124.07
772	1.9945	0.49203	0.	127.05
773	-5.4822	2.9781	0.	117.02
774	-7.0526	2.8318	0.	126.23
775	-2.9325	4.4392	0.	121.51
776	-5.953	-4.9963	0.	129.37
777	-3.5006	-4.9658	0.	117.15
778	-1.9397	-4.9801	0.	130.51
779	8.1663	0.6459	0.	121.93
780	8.1231	0.16637	0.	120.69
781	1.6315	-6.9572	0.	130.53
782	-1.1403	-7.6511	0.	134.
783	4.5105	-5.9711	0.	120.83
784	5.9469	-5.9602	0.	124.83
785	-6.9787	4.4884	0.	128.08
786	-6.9457	5.0103	0.	131.41
787	4.9251	6.3216	0.	128.13
788	5.0566	5.8462	0.	127.11
789	5.0965	5.3483	0.	137.49
790	5.4787	-5.9526	0.	124.62
791	4.998	-5.9621	0.	123.91
792	-1.3053	-6.6161	0.	127.56
793	-1.4801	-7.0702	0.	126.64
794	0.91825	-8.0322	0.	127.36
795	1.9019	-7.412	0.	132.34
796	-1.9689	-5.9511	0.	130.12
797	-1.9421	-5.4742	0.	131.22
798	-2.9913	-4.9747	0.	122.74
799	-4.9847	-4.9908	0.	124.32
800	-5.4704	-4.997	0.	129.37
801	3.0099	-5.9725	0.	125.84
802	2.5066	-5.9631	0.	131.29
803	2.0052	-6.4456	0.	132.28
804	2.0416	-6.9232	0.	131.02
805	-3.4842	2.9973	0.	127.92
806	-2.9661	3.9671	0.	125.3
807	-6.9949	3.9616	0.	128.13
808	-7.0113	3.4184	0.	128.11
809	-5.9879	2.9415	0.	119.63
810	0.99796	-1.0046	0.	123.17
811	1.9907	-0.50118	0.	128.98
812	1.9968	0.98288	0.	128.7
813	1.4959	1.9477	0.	128.57
814	-4.5526e-003	2.0049	0.	124.18
815	-0.50182	2.0054	0.	128.2
816	-0.9905	1.5023	0.	128.76
817	1.2252e-002	-2.5403	0.	129.56
818	4.879e-003	-2.0231	0.	127.07
819	8.1533	1.6093	0.	129.1
820	7.6557	2.0991	0.	120.69
821	0.99263	7.4461	0.	123.18
822	5.1849e-002	6.9105	0.	128.95
823	3.3995	6.3143	0.	125.55
824	2.9834	7.4437	0.	131.2
825	2.4794	7.4672	0.	123.74
826	8.5608	-2.9709	0.	125.97
827	8.5455	-3.4777	0.	125.05
828	8.5353	-3.988	0.	125.31
829	8.5257	-4.5025	0.	125.91
830	8.5152	-5.0214	0.	126.84
831	8.5173	-5.537	0.	128.3
832	8.5629	-6.0422	0.	130.39
833	8.5739	-6.5494	0.	132.28
834	8.5791	-7.0685	0.	134.5
835	7.3451	-5.9206	0.	120.17
836	6.9415	-5.7749	0.	118.79
837	6.3849	-6.0114	0.	125.36
838	6.2842	-6.4749	0.	128.15
839	-4.0921	7.5491	0.	135.19
840	-6.0355	8.0422	0.	120.67
841	-6.5387	8.0574	0.	128.84
842	-7.0452	7.5646	0.	131.24
843	-7.0364	7.0662	0.	129.01
844	-7.7469	-4.8287e-003	0.	134.92
845	-7.7138	0.96462	0.	140.54
846	-7.7272	0.46679	0.	126.41
847	-1.924	7.9967	0.	128.95
848	-2.9168	8.0471	0.	120.93
849	-4.5706	-0.43017	0.	129.58
850	-4.8764	-2.4417	0.	130.49
851	-4.3703	-2.6322	0.	127.06
852	-5.4613	-1.4579	0.	124.01
853	-5.4598	-1.9576	0.	123.44
854	6.5441	-1.9838	0.	123.94
855	6.5694	-2.4591	0.	124.3
856	8.5885	-2.4708	0.	129.08
857	8.6417	-1.9932	0.	132.93
858	7.0835	-2.9335	0.	119.3
859	7.5861	-2.9227	0.	117.72
860	8.0775	-2.937	0.	120.02
861	-2.8792	0.47035	0.	120.75
862	-3.3172	0.40545	0.	119.31
863	1.49	-5.9479	0.	134.98
864	-0.46518	-5.3407	0.	129.
865	-2.9961	-3.4602	0.	122.5
866	4.9578	-4.747e-003	0.	126.99
867	4.9596	0.98373	0.	127.61
868	4.9719	0.48973	0.	126.39
869	0.61441	5.4339	0.	129.52
870	2.7403	4.6296	0.	130.72
871	1.7732	4.2456	0.	120.24
872	-5.9435	-5.5459	0.	132.59
873	-5.7585	-6.0284	0.	136.
874	-6.1255	-6.0003	0.	131.91
875	-5.9969	-7.9955	0.	133.7
876	8.5504	9.487e-002	0.	129.95
877	8.6032	0.58063	0.	125.64
878	8.6157	1.0803	0.	126.11
879	8.6077	1.5763	0.	128.14
880	8.5884	2.0703	0.	128.27
881	8.5653	2.5606	0.	127.08
882	8.5427	3.0482	0.	126.04
883	8.5247	3.5344	0.	125.82
884	8.5124	4.0208	0.	126.11
885	8.5029	4.5092	0.	125.96
886	8.4916	5.0011	0.	124.29
887	8.4795	5.4979	0.	120.62
888	8.475	5.9987	0.	117.93
889	-2.0409	-8.5164	0.	132.61
890	-1.5564	-8.5279	0.	132.23
891	-0.58107	-8.4778	0.	127.64
892	-7.8716e-002	-8.4864	0.	122.72
893	0.43165	-8.5058	0.	122.15
894	0.9424	-8.511	0.	127.32
895	1.4537	-8.4995	0.	132.39
896	1.9658	-8.4845	0.	134.45
897	6.0186	7.9271	0.	125.25
898	5.8869	-6.4553	0.	121.59
899	-8.3123	-5.3648	0.	130.63
900	-2.4104	-8.7727e-003	0.	122.03
901	-8.0175	8.5245	0.	126.88
902	-7.5203	8.5318	0.	127.82
903	-7.0215	8.5384	0.	127.96
904	-6.0106	8.5235	0.	121.81
905	-5.4973	8.4985	0.	119.58
906	-4.9845	8.4836	0.	121.67
907	-4.4751	8.515	0.	125.8
908	-3.9603	8.5066	0.	128.3
909	-3.453	8.484	0.	127.26
910	-2.9499	8.5078	0.	122.66
911	-2.4469	8.5057	0.	121.42
912	-1.9488	8.4991	0.	125.14
913	-1.4544	8.4948	0.	129.42
914	-0.96313	8.4862	0.	130.29
915	-0.47552	8.4738	0.	129.97
916	1.0855e-002	8.4644	0.	128.9
917	0.49856	8.4617	0.	126.91
918	0.98988	8.466	0.	124.08
919	1.4864	8.4737	0.	121.84
920	1.9878	8.4774	0.	121.85
921	2.4927	8.4719	0.	124.02
922	2.997	8.4613	0.	126.53
923	3.5028	8.4439	0.	127.89
924	4.0071	8.4316	0.	128.06
925	4.5101	8.4252	0.	127.53
926	5.0122	8.4219	0.	126.51
927	5.5106	8.4201	0.	125.4
928	6.0069	8.4467	0.	125.4
929	-5.5115	-8.4649	0.	134.91
930	-6.5589	-8.4484	0.	124.34
931	-8.5938	-8.5288	0.	134.32
932	-8.6379	-8.0404	0.	133.06
933	-8.6667	-7.5495	0.	131.15
934	-8.6795	-7.055	0.	131.91
935	-8.6714	-6.551	0.	130.78
936	-8.6151	-6.0151	0.	135.76
937	-8.7092	-5.5184	0.	134.15
938	-8.4032	-4.9553	0.	128.63
939	-8.4513	-4.483	0.	127.42
940	-8.4725	-3.989	0.	127.06
941	-8.483	-3.4906	0.	127.1
942	-8.4862	-2.9898	0.	127.36
943	-8.485	-2.4869	0.	127.89
944	-8.4839	-1.9816	0.	128.78
945	-8.4855	-1.475	0.	129.94
946	-8.5074	-0.9721	0.	130.7
947	-8.5796	-0.48043	0.	129.86
948	-8.6175	1.237e-002	0.	128.15
949	-8.623	0.50132	0.	127.95
950	-8.6181	0.99058	0.	130.48
951	-8.6102	1.481	0.	131.97
952	-8.5855	1.9742	0.	131.94
953	-8.5225	2.4714	0.	131.07
954	-8.5089	2.9771	0.	130.
955	-8.5019	3.4891	0.	129.02
956	-8.4936	3.9982	0.	128.2
957	-8.479	5.011	0.	127.08
958	-8.4775	5.5142	0.	126.56
959	-8.4834	6.0164	0.	125.96
960	-8.494	6.5183	0.	125.54
961	-8.5053	7.0198	0.	125.54
962	-8.5146	7.5212	0.	125.83
963	-8.5162	8.0201	0.	126.05
964	-8.5132	8.5165	0.	125.97
965	5.5347	7.2774	0.	130.37
966	2.4649e-003	-1.0072	0.	124.59
967	-0.97743	-4.4474e-004	0.	127.45
968	-3.7765	5.8618	0.	148.53
969	-3.7848	-0.12082	0.	116.23
970	-2.4801	-2.9875	0.	124.74
971	-5.7173	-7.4551	0.	137.34
972	-5.7703	-6.9867	0.	130.94
973	-5.7744	-6.5043	0.	139.93
974	1.2547	4.6499	0.	122.77
975	5.4951	0.49209	0.	125.36
976	-2.9661	-2.9699	0.	124.26
977	-2.8675	-2.385e-002	0.	122.44
978	-3.3186	-6.2516e-002	0.	119.62
979	7.0955	-2.4286	0.	120.99
980	7.6148	-2.3903	0.	111.95
981	-4.988	-1.9318	0.	129.83
982	-4.9419	-1.4504	0.	126.25
983	-2.4557	5.4945	0.	110.84
984	-3.3677	5.7752	0.	140.05
985	-2.924	5.7081	0.	110.25
986	-3.6841	6.3302	0.	130.18
987	-2.9764	7.6284	0.	125.09
988	-3.2065	7.222	0.	124.35
989	-1.8769	7.4951	0.	132.85
990	-1.4068	5.991	0.	127.39
991	-1.5369	6.5046	0.	140.13
992	-1.7343	6.9979	0.	128.88
993	-5.882	1.4608	0.	112.17
994	-6.3576	1.3174	0.	110.48
995	-5.3881	1.0237	0.	131.36
996	-5.4122	0.52398	0.	134.68
997	-5.4614	-0.48708	0.	134.48
998	-5.4426	1.3874e-002	0.	133.7
999	-7.3195	-5.8711e-002	0.	141.01
1000	-6.917	-0.52596	0.	119.45
1001	-4.1595	5.9223	0.	134.57
1002	-6.5656	7.5802	0.	139.06
1003	-3.8602	6.9266	0.	135.08
1004	6.7782	-6.1705	0.	119.82
1005	8.7755	-8.2113	0.	134.96
1006	-8.2061	-5.7599	0.	139.26
1007	2.9592	6.937	0.	137.88
1008	0.528	6.9239	0.	138.61
1009	7.7002	1.6302	0.	133.26
1010	6.3957	-1.0776	0.	117.19
1011	-3.4054	5.348	0.	135.65
1012	-0.48969	-2.5328	0.	132.8
1013	-0.49602	1.5033	0.	131.71
1014	-0.49163	-0.50371	0.	137.48
1015	1.4976	1.4701	0.	132.29
1016	1.4946	-0.50167	0.	131.32
1017	-6.5061	3.429	0.	128.34
1018	-3.486	3.4894	0.	131.36
1019	2.508	-6.463	0.	133.37
1020	-5.4481	-5.5009	0.	135.1
1021	-2.4689	-5.4805	0.	131.79
1022	-2.524	-8.507	0.	132.87
1023	8.7926	-0.47838	0.	142.01
1024	1.3728	-7.528	0.	139.92
1025	-0.99219	-7.2338	0.	133.24
1026	5.4413	-6.4513	0.	126.73
1027	7.5052	5.4827	0.	122.88
1028	7.459	6.0306	0.	127.43
1029	5.5885	5.3314	0.	134.49
1030	6.069	5.2218	0.	115.65
1031	6.5454	5.0862	0.	107.79
1032	7.0287	4.9872	0.	114.82
1033	5.7675	6.7501	0.	133.93
1034	5.3881	6.4211	0.	134.34
1035	6.0612	7.4197	0.	122.39
1036	6.2025	6.9532	0.	125.04
1037	-6.3111	5.5066	0.	134.67
1038	5.9394	-8.6773	0.	123.24
1039	5.9576	-9.09	0.	132.78
1040	-8.5091	9.0116	0.	125.65
1041	-8.0112	9.0164	0.	126.12
1042	-7.5124	9.0214	0.	126.4
1043	-7.0115	9.0241	0.	126.08
1044	-6.508	9.0219	0.	124.72
1045	-6.0022	9.0131	0.	122.82
1046	-5.4958	9.0012	0.	121.84
1047	-4.9898	8.9962	0.	122.73
1048	-3.9742	9.0028	0.	125.77
1049	-3.4707	8.9966	0.	125.28
1050	-2.9681	9.0028	0.	123.81
1051	-2.4671	9.0033	0.	123.3
1052	-1.9683	8.9991	0.	125.11
1053	-1.4721	8.996	0.	127.28
1054	-0.97806	8.9907	0.	128.41
1055	-0.48551	8.9839	0.	128.48
1056	6.6232e-003	8.9785	0.	127.83
1057	0.49979	8.9766	0.	126.64
1058	0.99624	8.9788	0.	125.18
1059	1.4944	8.9818	0.	124.13
1060	1.9951	8.9824	0.	124.13
1061	2.4972	8.9786	0.	125.13
1062	2.9996	8.9723	0.	126.39
1063	3.5028	8.9622	0.	127.23
1064	4.0048	8.9548	0.	127.4
1065	4.5061	8.9508	0.	126.98
1066	5.0061	8.9492	0.	126.16
1067	5.5043	8.953	0.	125.37
1068	6.0021	8.9663	0.	126.16
1069	-9.062	-8.5233	0.	132.8
1070	-9.0875	-8.0286	0.	131.58
1071	-9.1055	-7.5316	0.	129.87
1072	-9.1122	-7.0323	0.	129.12
1073	-9.1052	-6.5302	0.	129.97
1074	-9.0922	-6.034	0.	131.82
1075	-9.0997	-5.5554	0.	132.98
1076	-8.9405	-5.0681	0.	131.71
1077	-8.9655	-4.5207	0.	130.03
1078	-8.98	-4.0051	0.	129.33
1079	-8.9875	-3.4988	0.	129.1
1080	-8.9895	-2.9949	0.	129.1
1081	-8.9905	-1.9909	0.	129.6
1082	-8.995	-1.49	0.	129.88
1083	-9.0123	-0.99154	0.	129.77
1084	-9.0449	-0.4944	0.	128.96
1085	-9.0706	3.7827e-003	0.	128.03
1086	-9.0786	0.50071	0.	128.17
1087	-9.0772	0.99616	0.	129.34
1088	-9.0067	2.9923	0.	129.84
1089	-8.9953	4.0003	0.	128.08
1090	-8.9905	4.5036	0.	127.25
1091	-8.9871	5.0065	0.	126.49
1092	-8.9873	5.5082	0.	125.8
1093	-9.0041	7.0117	0.	124.75
1094	-9.0089	7.5122	0.	124.88
1095	-9.0103	8.0118	0.	125.07
1096	-9.0089	8.5101	0.	125.16
1097	1.9788	-8.992	0.	135.56
1098	1.4713	-8.9978	0.	132.73
1099	0.96343	-9.0023	0.	128.91
1100	0.45694	-8.9996	0.	125.78
1101	-4.6307e-002	-8.9927	0.	125.49
1102	-0.54424	-8.9945	0.	127.75
1103	-1.0387	-9.0092	0.	130.25
1104	-1.5331	-9.0157	0.	131.58
1105	-2.0242	-9.0106	0.	131.58
1106	-4.5056	-8.9961	0.	117.29
1107	-5.0071	-8.9892	0.	123.93
1108	-5.5084	-8.9794	0.	129.28
1109	-6.0068	-8.9743	0.	128.83
1110	-6.4906	-8.9721	0.	124.82
1111	-6.9905	-8.8544	0.	118.78
1112	-7.5444	-8.9532	0.	117.49
1113	-8.0562	-9.0012	0.	124.21
1114	-8.5503	-9.0157	0.	130.96
1115	8.9801	6.0023	0.	123.51
1116	8.9869	5.5033	0.	124.12
1117	8.9923	5.0048	0.	125.73
1118	9.0019	4.5103	0.	127.07
1119	9.0097	4.0173	0.	127.62
1120	9.0186	3.5253	0.	127.84
1121	9.0299	3.0337	0.	128.16
1122	9.0435	2.5408	0.	128.67
1123	9.0568	2.0452	0.	129.
1124	9.0669	1.5451	0.	128.55
1125	9.0687	1.0377	0.	127.84
1126	9.0563	0.51655	0.	128.76
1127	9.0216	-3.8018e-002	0.	134.07
1128	9.1432	-0.53576	0.	132.7
1129	9.085	-1.0263	0.	130.49
1130	8.9674	-1.5608	0.	133.11
1131	9.081	-2.0405	0.	133.27
1132	9.0601	-2.5083	0.	131.62
1133	9.0423	-2.9959	0.	129.69
1134	9.0308	-3.4938	0.	128.75
1135	9.0231	-3.9976	0.	128.57
1136	9.0166	-4.5045	0.	128.86
1137	9.0126	-5.0119	0.	129.46
1138	9.018	-5.5173	0.	130.41
1139	9.036	-6.0189	0.	131.58
1140	9.0474	-6.5158	0.	132.62
1141	9.0615	-6.9926	0.	132.72
1142	8.9871	-7.495	0.	132.26
1143	9.1553	-8.01	0.	128.97
1144	8.9641	-8.6185	0.	137.09
1145	5.8804	-6.9404	0.	107.32
1146	9.0269	-9.0439	0.	135.7
1147	-9.0363	-9.0157	0.	132.17
1148	-9.0064	9.0073	0.	125.16
1149	6.0885	-8.3436	0.	125.67
1150	5.403	-8.4256	0.	138.38
1151	-2.5232	-8.0046	0.	131.77
1152	-2.4685	-5.9811	0.	130.22
1153	-5.5151	-7.9189	0.	134.6
1154	-5.4002	-5.9991	0.	135.81
1155	2.4882	-8.9927	0.	136.72
1156	2.4811	-8.4867	0.	137.19
1157	2.504	-6.9664	0.	132.64
1158	8.9805	6.502	0.	125.9
1159	8.0136	6.5048	0.	117.55
1160	7.2089	6.498	0.	122.94
1161	6.626	7.0945	0.	104.59
1162	6.5005	8.9841	0.	128.95
1163	6.5036	8.4788	0.	131.64
1164	-3.4811	3.9784	0.	130.39
1165	-3.9891	3.4997	0.	126.37
1166	-5.9993	3.4646	0.	122.01
1167	-6.4979	3.9626	0.	128.9
1168	-3.0112	-8.5022	0.	123.96
1169	-4.0038	-8.4993	0.	112.74
1170	-3.5052	-8.5003	0.	112.87
1171	-2.9866	-5.4848	0.	124.54
1172	-3.4949	-5.4834	0.	113.14
1173	-3.9955	-5.4849	0.	113.16
1174	4.0043	-6.4874	0.	116.22
1175	3.5059	-6.4871	0.	115.52
1176	3.0066	-6.4815	0.	125.98
1177	1.496	-3.0922e-003	0.	130.78
1178	1.4968	0.49312	0.	131.15
1179	1.4977	0.985	0.	131.1
1180	0.99771	-0.50273	0.	124.64
1181	3.5385e-003	-0.50394	0.	126.8
1182	0.5004	-0.50305	0.	114.76
1183	0.99664	1.4821	0.	125.11
1184	0.4969	1.4941	0.	114.54
1185	-5.4147e-004	1.5011	0.	124.78
1186	-0.48932	-1.1978e-003	0.	133.3
1187	-0.49227	1.002	0.	131.32
1188	-0.48974	0.50065	0.	131.54
1189	-0.4956	-2.0184	0.	131.21
1190	-0.49765	-1.5102	0.	129.78
1191	-0.49674	-1.006	0.	131.73
1192	-0.99133	-2.5179	0.	127.87
1193	-1.4909	-2.5064	0.	120.16
1194	-1.988	-2.499	0.	121.82
1195	-2.9492	-2.4878	0.	134.98
1196	-2.477	-2.4926	0.	123.27
1197	-0.98503	-0.50172	0.	129.76
1198	-1.4758	-0.50152	0.	119.42
1199	-1.9618	-0.50336	0.	120.21
1200	-2.4383	-0.5072	0.	121.83
1201	-2.5092	-7.4973	0.	132.91
1202	-2.4727	-6.9862	0.	133.08
1203	-2.4249	-6.4796	0.	130.84
1204	-5.0083	-8.4868	0.	126.92
1205	-4.5044	-8.4968	0.	113.61
1206	-4.4899	-5.4903	0.	114.29
1207	-4.9742	-5.4938	0.	125.8
1208	-5.3738	-7.4486	0.	137.37
1209	-5.3863	-6.4946	0.	138.06
1210	-5.3802	-6.9786	0.	136.78
1211	4.4969	-6.485	0.	119.09
1212	2.4665	-7.469	0.	134.88
1213	2.47	-7.977	0.	137.87
1214	7.5717	6.5312	0.	117.28
1215	6.5128	7.981	0.	130.13
1216	6.5418	7.5059	0.	125.03
1217	-3.4668	4.4583	0.	129.42
1218	-3.4436	4.9149	0.	130.86
1219	-4.4909	3.5007	0.	117.04
1220	-5.495	3.4853	0.	113.92
1221	-4.9924	3.4968	0.	115.99
1222	-6.4721	4.9795	0.	134.28
1223	-6.4887	4.4792	0.	130.02
1224	6.3542	-0.62646	0.	125.01
1225	5.9465	-4.6942e-002	0.	136.77
1226	6.3911	-0.17451	0.	123.46
1227	7.7277	0.21985	0.	121.56
1228	7.7509	0.69911	0.	126.81
1229	7.7461	1.1699	0.	127.75
1230	6.3582	1.1655	0.	118.37
1231	5.9281	1.0312	0.	135.53
1232	7.2327	1.6117	0.	103.28
1233	6.7427	1.484	0.	112.4
1234	1.053	5.5016	0.	125.82
1235	2.8796	6.4446	0.	120.92
1236	2.668	6.0024	0.	139.94
1237	2.4671	5.567	0.	126.56
1238	1.4793	6.9688	0.	106.95
1239	1.0013	6.9553	0.	127.18
1240	2.4617	6.9788	0.	129.6
1241	1.969	6.9816	0.	105.88
1242	-8.2	-8.0485	0.	136.73
1243	-8.2336	-6.1823	0.	137.38
1244	-8.2374	-7.57	0.	134.08
1245	-8.2624	-6.6184	0.	136.73
1246	-8.257	-7.0905	0.	138.36
1247	-6.1689	-6.4818	0.	133.19
1248	-7.3914	-5.9459	0.	115.34
1249	-7.8129	-5.8079	0.	113.98
1250	-6.5675	-6.343	0.	120.46
1251	-6.9797	-6.1569	0.	115.28
1252	-6.0789	-7.5422	0.	134.46
1253	-7.6547	-8.4727	0.	109.18
1254	-7.2096	-8.3061	0.	117.78
1255	-6.8366	-8.0369	0.	117.33
1256	-6.4415	-7.8658	0.	127.52
1257	8.3723	-8.4401	0.	144.17
1258	7.9917	-9.0166	0.	125.14
1259	8.5813	-7.777	0.	130.12
1260	8.2761	-7.4246	0.	139.79
1261	7.6144	-6.6099	0.	125.67
1262	7.1718	-6.367	0.	113.79
1263	-4.7755	5.5874	0.	115.5
1264	-4.4804	6.0513	0.	128.32
1265	-4.0998	6.4156	0.	128.96
1266	-6.0873	7.5756	0.	119.5
1267	-4.2651	7.0954	0.	140.77
1268	-4.7049	7.2406	0.	119.7
1269	-5.1457	7.4032	0.	113.68
1270	-5.6108	7.5082	0.	110.98
1271	-6.5741	7.0973	0.	128.21
1272	-6.5139	6.6059	0.	136.1
1273	-6.4228	6.0819	0.	131.81
1274	-5.2312	5.4085	0.	111.98
1275	-3.8643	5.4154	0.	144.29
1276	-4.3072	5.4768	0.	125.77
1277	6.6104	-6.5751	0.	140.46
1278	6.3623	-6.961	0.	132.18
1279	7.0982	-1.9438	0.	124.93
1280	-2.8917	-0.51006	0.	132.
1281	6.8048	-0.32352	0.	128.55
1282	6.7685	-0.70311	0.	109.02
1283	6.8562	-1.1037	0.	127.72
1284	6.979	-1.514	0.	121.99
1285	8.1949	-1.8453	0.	128.44
1286	8.6824	-0.93276	0.	125.27
1287	0.99173	-6.3403	0.	133.51
1288	0.96839	-5.9291	0.	138.06
1289	1.2328	-7.0921	0.	126.51
1290	1.0837	-6.7028	0.	140.07
1291	-0.82447	-6.7953	0.	118.06
1292	-4.8676e-002	-5.6479	0.	122.38
1293	-0.3519	-5.9968	0.	134.38
1294	-0.59165	-6.3898	0.	144.75
1295	0.88065	-7.5751	0.	134.13
1296	0.40846	-7.5528	0.	105.36
1297	-0.52671	-7.4052	0.	139.8
1298	-5.8159e-002	-7.4977	0.	115.71
1299	-4.5145	-0.9291	0.	136.06
1300	-3.3188	-0.52576	0.	120.48
1301	-3.7215	-0.63156	0.	111.85
1302	-4.1054	-0.8079	0.	124.07
1303	-4.5771	-1.9771	0.	132.76
1304	-3.3965	-2.4685	0.	117.5
1305	-4.2057	-2.1554	0.	130.88
1306	-3.8117	-2.3343	0.	116.81
1307	5.4234	-6.9344	0.	124.32
1308	9.5	9.	0.	131.11
1309	9.5	8.4999	0.	135.65
1310	9.4997	8.0002	0.	137.86
1311	9.4994	7.5005	0.	136.62
1312	9.4955	7.0001	0.	134.18
1313	9.4861	6.0032	0.	129.32
1314	9.4916	5.5033	0.	128.19
1315	9.5006	4.5065	0.	128.81
1316	9.5052	4.0097	0.	129.29
1317	9.5099	3.5136	0.	129.66
1318	9.5155	3.0175	0.	129.93
1319	9.5218	2.5205	0.	130.05
1320	9.5277	2.0217	0.	129.88
1321	9.5316	1.52	0.	129.39
1322	9.5313	1.0139	0.	128.93
1323	9.5251	0.50295	0.	129.33
1324	9.5235	-6.7607e-003	0.	129.87
1325	9.5501	-0.51357	0.	129.08
1326	9.534	-1.0215	0.	128.34
1327	9.5054	-1.5211	0.	130.54
1328	9.5285	-2.0144	0.	132.04
1329	9.5299	-2.5083	0.	132.56
1330	9.522	-3.0026	0.	132.33
1331	9.5158	-3.5002	0.	131.96
1332	9.5114	-4.0007	0.	131.76
1333	9.5083	-4.5028	0.	131.76
1334	9.5071	-5.0051	0.	131.89
1335	9.5102	-5.5065	0.	132.03
1336	9.5173	-6.0052	0.	131.97
1337	9.5236	-6.5027	0.	131.47
1338	9.5239	-6.9977	0.	130.45
1339	9.5154	-7.4868	0.	128.86
1340	9.5566	-7.9624	0.	128.58
1341	9.4477	-8.456	0.	132.1
1342	9.5014	-8.9956	0.	134.38
1343	9.5049	-9.5032	0.	135.27
1344	9.0062	-9.5075	0.	134.34
1345	8.5084	-9.4836	0.	131.13
1346	8.0047	-9.5022	0.	124.65
1347	7.4981	-9.5404	0.	118.21
1348	6.9924	-9.568	0.	116.21
1349	6.4854	-9.5675	0.	122.08
1350	5.9804	-9.5423	0.	130.06
1351	5.487	-9.5096	0.	134.57
1352	4.9938	-9.5017	0.	126.7
1353	4.4978	-9.5002	0.	115.42
1354	3.9991	-9.5	0.	114.26
1355	3.4988	-9.4999	0.	114.89
1356	2.9969	-9.4989	0.	127.69
1357	2.4935	-9.4965	0.	138.3
1358	1.9897	-9.4963	0.	137.07
1359	1.486	-9.4983	0.	134.01
1360	0.9825	-9.4998	0.	130.54
1361	0.47971	-9.4993	0.	127.96
1362	-2.1069e-002	-9.4973	0.	127.28
1363	-0.51988	-9.4993	0.	128.31
1364	-1.0173	-9.5042	0.	129.91
1365	-1.5153	-9.5074	0.	130.84
1366	-2.0109	-9.5054	0.	130.23
1367	-2.507	-9.5031	0.	127.4
1368	-3.0043	-9.5014	0.	122.71
1369	-3.5036	-9.5004	0.	118.19
1370	-4.0033	-9.4993	0.	116.47
1371	-4.5037	-9.4975	0.	118.47
1372	-5.0045	-9.4944	0.	122.73
1373	-5.5047	-9.4904	0.	126.06
1374	-6.0038	-9.4868	0.	126.3
1375	-6.5042	-9.4756	0.	123.53
1376	-7.005	-9.4464	0.	120.43
1377	-7.5112	-9.4706	0.	119.8
1378	-8.0187	-9.4958	0.	123.41
1379	-8.5198	-9.5061	0.	127.87
1380	-9.0158	-9.5077	0.	131.01
1381	-9.5087	-9.5052	0.	133.14
1382	-9.519	-9.0096	0.	132.87
1383	-9.531	-8.513	0.	131.85
1384	-9.5431	-8.0151	0.	130.
1385	-9.5511	-7.516	0.	128.17
1386	-9.5542	-7.0158	0.	127.44
1387	-9.5517	-6.5158	0.	128.21
1388	-9.5465	-6.0175	0.	130.09
1389	-9.5324	-5.5181	0.	131.58
1390	-9.4864	-5.0194	0.	131.98
1391	-9.4816	-4.5144	0.	131.75
1392	-9.4884	-4.0065	0.	131.38
1393	-9.4922	-3.5015	0.	131.05
1394	-9.4941	-2.9987	0.	130.76
1395	-9.4948	-2.497	0.	130.49
1396	-9.4958	-1.9967	0.	130.19
1397	-9.499	-1.4972	0.	129.76
1398	-9.5077	-0.99842	0.	129.09
1399	-9.5222	-0.49933	0.	128.25
1400	-9.5338	5.7373e-004	0.	127.63
1401	-9.5383	0.50018	0.	127.75
1402	-9.5376	0.99937	0.	128.62
1403	-9.5302	1.4993	0.	129.66
1404	-9.5201	1.9992	0.	130.3
1405	-9.5101	2.4987	0.	130.34
1406	-9.5038	2.9985	0.	129.87
1407	-9.5001	3.4993	0.	129.03
1408	-9.4975	4.0007	0.	127.98
1409	-9.4953	4.502	0.	126.87
1410	-9.4939	5.0029	0.	125.81
1411	-9.4942	5.5036	0.	124.9
1412	-9.4962	6.0042	0.	124.2
1413	-9.499	6.5047	0.	123.78
1414	-9.502	7.0052	0.	123.68
1415	-9.5042	7.5055	0.	123.83
1416	-9.5049	8.0054	0.	124.12
1417	-9.5044	8.5048	0.	124.43
1418	-9.5032	9.0036	0.	124.7
1419	-9.5018	9.502	0.	124.94
1420	-9.0034	9.5039	0.	125.18
1421	-8.5046	9.5059	0.	125.37
1422	-8.0055	9.5082	0.	125.46
1423	-7.5057	9.5105	0.	125.34
1424	-7.0048	9.5114	0.	124.88
1425	-6.5027	9.5099	0.	124.05
1426	-5.9998	9.5059	0.	123.15
1427	-5.4972	9.5011	0.	122.68
1428	-4.9945	9.4991	0.	122.89
1429	-3.9875	9.501	0.	124.
1430	-3.4856	9.4995	0.	124.09
1431	-2.9846	9.5011	0.	123.94
1432	-2.4842	9.5013	0.	124.22
1433	-1.985	9.4995	0.	125.14
1434	-1.4867	9.4979	0.	126.32
1435	-0.98951	9.4955	0.	127.14
1436	-0.49297	9.4925	0.	127.43
1437	3.5344e-003	9.49	0.	127.24
1438	0.50084	9.4892	0.	126.71
1439	0.99887	9.4897	0.	126.06
1440	1.4983	9.4906	0.	125.62
1441	1.9986	9.4907	0.	125.63
1442	2.4994	9.4884	0.	126.1
1443	3.0005	9.4855	0.	126.75
1444	3.5019	9.4805	0.	127.3
1445	4.0026	9.4775	0.	127.57
1446	4.5029	9.4752	0.	127.51
1447	5.0023	9.4755	0.	127.18
1448	5.5013	9.4774	0.	126.77
1449	6.0001	9.4836	0.	126.9
1450	6.4994	9.4916	0.	129.46
1451	6.9995	9.4982	0.	126.81
1452	7.4998	9.4998	0.	119.35
1453	8.	9.5	0.	120.71
1454	8.5	9.5	0.	119.52
1455	9.	9.5	0.	126.62
1456	9.5	9.5	0.	128.82
1457	8.4324	-0.36474	0.	142.34
1458	8.038	-0.30885	0.	117.99
1459	7.6656	-0.26115	0.	119.95
1460	7.1873	-0.4723	0.	103.33
1461	5.4601	-1.3189e-002	0.	132.47
1462	2.9996e-002	-3.5842	0.	128.87
1463	0.98985	7.9556	0.	123.15
1464	1.5085	-2.493	0.	126.92
1465	2.4983	1.4725	0.	128.61
1466	1.4286	-8.0053	0.	135.07
1467	-2.9887	2.9899	0.	127.64
1468	1.9984	1.948	0.	129.42
1469	-7.3962	-4.9419	0.	120.12
1470	8.4963	-1.3835	0.	144.21
1471	-7.4715	-1.9786	0.	124.24
1472	-5.4665	-0.97223	0.	135.32
1473	-0.8708	5.4774	0.	131.63
1474	-7.4753	-2.4793	0.	123.74
1475	0.49358	1.9908	0.	121.07
1476	1.9446	-7.966	0.	134.95
1477	-5.9763	-0.95502	0.	108.44
1478	-6.4708	-3.4689	0.	123.43
1479	1.5033	-5.4507	0.	135.38
1480	3.9847	-1.4909	0.	126.86
1481	2.9305	5.4854	0.	130.47
1482	-6.9656	-1.9718	0.	120.22
1483	2.9671	3.3449	0.	129.67
1484	-0.97797	0.50112	0.	125.81
1485	-2.0142	3.4589	0.	125.73
1486	3.9951	5.7628	0.	126.1
1487	0.57084	6.4108	0.	120.32
1488	1.992	-3.6663e-003	0.	128.26
1489	-3.9816	3.0004	0.	124.75
1490	-4.4537	2.0058	0.	124.64
1491	-9.0518	1.9904	0.	130.91
1492	5.4329	-0.5191	0.	131.34
1493	-7.0342	8.0517	0.	130.88
1494	-6.0198	-8.4678	0.	131.55
1495	5.4512	0.98925	0.	131.64
1496	4.5564	3.9028	0.	131.85
1497	-4.5628	-3.532	0.	123.18
1498	4.4584	-0.99607	0.	127.13
1499	4.4664	1.974	0.	130.05
1500	-6.4668	-2.9687	0.	122.29
1501	-5.9708	-1.4468	0.	116.13
1502	0.51634	7.4452	0.	130.51
1503	1.52	-2.9838	0.	127.81
1504	4.0237	-2.4783	0.	126.52
1505	-7.4765	4.4991	0.	128.15
1506	-8.4854	4.5051	0.	127.57
1507	5.8654	1.5094	0.	129.72
1508	0.50708	3.0327	0.	125.41
1509	5.0054	-1.9859	0.	126.1
1510	-0.48374	-3.0545	0.	130.06
1511	1.9774	2.8884	0.	126.81
1512	1.9274	3.3448	0.	125.29
1513	-6.9705	-2.9715	0.	122.46
1514	6.0682	-4.4489	0.	121.65
1515	3.9602	-0.49752	0.	126.34
1516	5.0569	-3.9585	0.	123.61
1517	4.0353	-2.973	0.	126.17
1518	7.558	3.0642	0.	119.25
1519	2.5208	-3.475	0.	128.17
1520	-3.0089	-9.0024	0.	122.9
1521	-4.5683	5.2103e-002	0.	124.94
1522	-8.0216	8.0298	0.	127.28
1523	1.297	4.1957	0.	122.26
1524	-0.76127	4.4926	0.	130.84
1525	4.4814	-1.4916	0.	126.89
1526	7.5182	4.9949	0.	135.
1527	4.5985	4.3781	0.	132.74
1528	2.0063	-4.461	0.	130.6
1529	3.4957	1.9769	0.	129.29
1530	1.0239	-3.0059	0.	127.9
1531	5.9075	-0.55534	0.	128.81
1532	7.5128	4.5151	0.	124.3
1533	7.5212	3.549	0.	119.73
1534	-2.4958	-3.4823	0.	123.93
1535	-8.9908	6.0097	0.	125.21
1536	-0.9981	2.0016	0.	128.51
1537	-1.4726	1.0013	0.	124.62
1538	2.4953	2.4344	0.	128.84
1539	-1.4633	-9.0856e-004	0.	122.24
1540	-1.9968	-3.4941	0.	124.66
1541	-6.937	6.043	0.	130.41
1542	-7.4378	-4.4518	0.	122.21
1543	3.0848	5.9024	0.	127.03
1544	6.4736	-1.5272	0.	122.12
1545	1.9981	1.468	0.	129.85
1546	6.4398	3.561	0.	117.16
1547	2.2385	4.2518	0.	123.57
1548	-4.4909	9.501	0.	123.5
1549	5.4689	-9.0003	0.	131.
1550	5.0442	-2.9695	0.	125.04
1551	-3.443	-2.9209	0.	120.65
1552	-9.0212	2.4904	0.	130.57
1553	-7.9913	6.5266	0.	126.11
1554	3.4669	3.4861	0.	131.34
1555	-7.269	0.92865	0.	129.41
1556	3.9653	2.0339e-004	0.	125.86
1557	-0.3667	5.4665	0.	128.93
1558	0.99085	2.4348	0.	124.55
1559	-1.5422	3.4684	0.	126.75
1560	2.811	5.0583	0.	130.46
1561	1.4841	7.4672	0.	113.61
1562	5.9238	-1.0423	0.	124.67
1563	-2.4916	2.4897	0.	126.24
1564	4.0136	6.8375	0.	127.44
1565	3.4966	7.4015	0.	130.9
1566	-2.4729	-4.9799	0.	128.36
1567	4.5001	2.9535	0.	130.72
1568	2.2554	4.6892	0.	124.42
1569	-9.0676	1.4926	0.	130.54
1570	3.5328	-3.9693	0.	126.18
1571	-8.1261	-8.521	0.	134.5
1572	-3.4973	-3.4083	0.	120.31
1573	-0.48796	-3.5834	0.	128.87
1574	-0.6549	-7.9235	0.	130.95
1575	6.5521	3.0107	0.	117.26
1576	5.0379	3.881	0.	129.64
1577	5.9712	3.3618	0.	121.03
1578	6.5036	4.1112	0.	114.84
1579	-4.0045	-8.999	0.	114.25
1580	5.5513	-2.9671	0.	124.44
1581	-2.9477e-002	3.0252	0.	126.58
1582	-5.4034	1.5043	0.	136.84
1583	-3.0138	-3.9582	0.	122.
1584	3.9724	0.494	0.	125.94
1585	2.9858	0.49536	0.	126.29
1586	-1.3752	5.4736	0.	141.45
1587	-8.9895	-2.492	0.	129.28
1588	1.7582	4.7061	0.	113.62
1589	-6.4538	-4.4608	0.	124.86
1590	-3.4644	6.781	0.	140.53
1591	-4.9982	3.4966e-002	0.	128.32
1592	-1.8915	5.4725	0.	122.16
1593	2.9814	-0.99688	0.	127.04
1594	8.1126	-2.4055	0.	120.65
1595	-2.9456	5.3053	0.	118.82
1596	5.0281	-2.478	0.	125.62
1597	-1.9976	2.4875	0.	126.57
1598	9.4961	5.0043	0.	128.32
1599	7.9675e-002	6.4097	0.	126.08
1600	-1.867	4.9568	0.	123.02
1601	2.0077	-4.9575	0.	132.1
1602	3.4746	-0.99562	0.	126.73
1603	1.9921	-0.99927	0.	128.24
1604	-2.9781	1.9883	0.	124.61
1605	-6.5034	2.8908	0.	123.13
1606	-2.9848	3.4803	0.	127.7
1607	4.9771	-1.4961	0.	126.71
1608	5.4117	1.4799	0.	132.6
1609	2.0155	-3.9669	0.	129.45
1610	4.9765	-6.4752	0.	127.39
1611	-6.8234	1.1332	0.	116.47
1612	-8.9964	6.5106	0.	124.83
1613	8.0377	-4.4909	0.	123.21
1614	-4.4834	9.003	0.	124.57
1615	-3.9622	1.9961	0.	124.3
1616	1.2006	5.0883	0.	127.3
1617	-0.17764	4.0238	0.	129.72
1618	6.5747	-3.9452	0.	120.88
1619	-4.979	-0.95974	0.	135.67
1620	-8.0092	7.0296	0.	126.27
1621	-4.0012	-4.9664	0.	115.2
1622	-2.4258	8.0052	0.	115.75
1623	2.3131	5.1324	0.	129.38
1624	2.5191	-3.9702	0.	128.73
1625	3.5317	-3.4727	0.	126.54
1626	4.5254	-2.4772	0.	126.11
1627	-1.4895	-3.0116	0.	123.93
1628	3.9147e-002	7.4418	0.	131.33
1629	6.0246	4.2378	0.	118.89
1630	3.4703	-0.49778	0.	126.32
1631	-3.5068	-9.0007	0.	116.54
1632	-5.0067	-0.46389	0.	133.71
1633	7.1875	2.073	0.	113.11
1634	-6.9685	-2.4711	0.	121.45
1635	3.5298	-4.4679	0.	125.59
1636	8.533	-8.9371	0.	134.96
1637	-0.98311	1.002	0.	127.45
1638	-9.0007	3.495	0.	128.97
1639	2.4493	3.4084	0.	127.26
1640	-6.8903	5.5258	0.	132.55
1641	-3.9072	-2.8036	0.	118.38
1642	-2.391	4.948	0.	115.54
1643	-0.98723	-3.0323	0.	127.41
1644	-2.5162	-9.0059	0.	129.13
1645	0.99293	1.963	0.	123.97
1646	1.4954	-1.0014	0.	127.4
1647	-1.9433	-3.4665e-003	0.	120.48
1648	6.2526	2.4416	0.	119.78
1649	4.9921	2.9338	0.	129.05
1650	-1.5044	2.4909	0.	127.31
1651	2.487	-2.6484e-003	0.	126.84
1652	2.603e-002	-3.0669	0.	129.73
1653	3.9683	-0.99512	0.	126.74
1654	3.472	6.8698	0.	128.5
1655	1.0629	-3.4721	0.	128.54
1656	-6.5187	8.5365	0.	125.93
1657	-0.44301	6.4547	0.	124.65
1658	-5.4342	-2.463	0.	125.67
1659	-1.0711	-8.521	0.	131.22
1660	5.0693	4.3583	0.	131.06
1661	3.7868	5.3312	0.	128.98
1662	-8.0204	7.5316	0.	126.93
1663	2.9926	-1.4934	0.	127.16
1664	5.0207	7.8954	0.	128.2
1665	-0.4949	-4.155	0.	128.35
1666	-1.072	3.492	0.	127.91
1667	4.5045	-1.9849	0.	126.51
1668	-6.9688	-3.4665	0.	123.06
1669	2.0238	-3.4736	0.	128.57
1670	-2.9685	1.4738	0.	122.75
1671	-2.4711	1.4911	0.	123.44
1672	-2.9443	0.96496	0.	121.14
1673	-2.4482	0.98948	0.	121.98
1674	1.0082	-5.4471	0.	132.75
1675	0.52587	-5.4492	0.	122.98
1676	0.12433	-5.1872	0.	120.79
1677	-1.5771	3.949	0.	126.35
1678	6.0239	-5.463	0.	122.97
1679	-7.4394	5.5241	0.	129.34
1680	8.1734	1.1259	0.	125.43
1681	0.5051	7.9522	0.	127.79
1682	-7.7646	1.9578	0.	131.54
1683	-9.6186e-002	3.5253	0.	128.08
1684	4.6009	6.7828	0.	129.58
1685	3.5044	-1.9871	0.	126.98
1686	3.4894	-1.4917	0.	126.94
1687	3.6683	4.4548	0.	132.35
1688	-3.6444	7.4118	0.	135.74
1689	-2.0308	-7.5123	0.	129.48
1690	-1.5854	-7.5579	0.	130.46
1691	-2.0488	-8.0187	0.	131.69
1692	-1.5829	-8.0453	0.	132.12
1693	8.4944	6.5001	0.	116.32
1694	-0.25366	4.4985	0.	131.07
1695	-0.31663	4.9815	0.	131.18
1696	0.24992	4.5145	0.	130.45
1697	0.1872	4.9752	0.	131.13
1698	0.75216	4.5687	0.	129.14
1699	0.68882	5.0097	0.	129.88
1700	7.9081	-8.5919	0.	117.92
1701	9.4889	6.5013	0.	133.55
1702	6.4687	-9.1565	0.	122.85
1703	6.4543	-8.7957	0.	134.45
1704	6.9769	-9.1535	0.	114.1
1705	6.9507	-8.7744	0.	114.3
1706	7.4787	-9.1072	0.	117.1
1707	7.431	-8.6925	0.	117.31
1708	7.0117	5.6017	0.	143.16
1709	6.8133	5.4433	0.	126.19
1710	7.2776	5.4163	0.	135.25
1711	7.0393	5.1686	0.	132.3
1712	6.91	6.93	0.	150.43
1713	6.8583	6.6083	0.	143.7
1714	6.6217	6.7017	0.	117.52
1715	6.723	6.9773	0.	123.25
1716	5.8667	5.8167	0.	125.7
1717	5.8283	6.0683	0.	121.44
1718	5.3433	5.8781	0.	144.37
1719	5.6093	5.6207	0.	147.47
1720	5.5091	6.1655	0.	147.84
1721	1.11	6.2517	0.	137.49
1722	1.225	6.4683	0.	137.09
1723	0.99063	6.7076	0.	148.12
1724	0.77542	6.4354	0.	144.61
1725	1.63	5.4183	0.	103.22
1726	1.875	5.4267	0.	107.15
1727	1.7591	4.958	0.	110.89
1728	1.4803	5.1492	0.	117.69
1729	2.0366	5.1712	0.	118.81
1730	2.205	6.5017	0.	137.57
1731	2.335	6.2933	0.	140.27
1732	2.6648	6.4773	0.	144.82
1733	2.4559	6.7444	0.	149.32
1734	-4.6287	6.7213	0.	128.22
1735	-4.5725	6.5012	0.	124.43
1736	-4.2549	6.5378	0.	146.19
1737	-4.3375	6.8777	0.	151.73
1738	-5.9412	7.0887	0.	131.13
1739	-6.1038	6.93	0.	144.43
1740	-6.1237	7.3628	0.	137.31
1741	-6.367	7.1236	0.	140.99
1742	-5.855	5.195	0.	120.23
1743	-5.6564	5.195	0.	103.71
1744	-5.5475	5.5487	0.	97.45
1745	-5.7663	5.61	0.	112.93
1746	-5.4706	5.3992	0.	109.13
1747	-3.16	6.1533	0.	144.59
1748	-3.2633	6.405	0.	131.04
1749	-3.3989	5.9826	0.	157.88
1750	-3.557	6.2601	0.	154.06
1751	-2.08	6.0067	0.	139.57
1752	-1.9133	6.2217	0.	145.81
1753	-1.6084	5.9805	0.	146.94
1754	-1.8508	5.7212	0.	144.82
1755	-2.5967	7.265	0.	101.91
1756	-2.3267	7.2283	0.	117.43
1757	-2.7032	7.5542	0.	118.44
1758	-2.1534	7.4876	0.	122.54
1759	-2.4279	7.7426	0.	114.08
1760	-6.0567	0.96	0.	126.25
1761	-5.83	0.80667	0.	147.53
1762	-5.846	1.2704	0.	131.99
1763	-5.599	1.0519	0.	140.18
1764	-7.0433	0.48	0.	125.61
1765	-7.0631	0.20653	0.	120.
1766	-7.5086	0.4134	0.	144.85
1767	-7.3048	0.15064	0.	151.47
1768	-7.2795	0.64433	0.	145.71
1769	-5.91	-0.28667	0.	141.28
1770	-6.1556	-0.40737	0.	114.48
1771	-5.6957	-0.52354	0.	135.79
1772	-5.9531	-0.75751	0.	123.62
1773	7.1367	1.1267	0.	114.41
1774	7.3517	1.0033	0.	136.12
1775	7.548	1.2099	0.	131.22
1776	7.2914	1.4308	0.	119.97
1777	6.2833	0.63333	0.	118.56
1778	6.285	0.38667	0.	121.64
1779	5.7826	0.50104	0.	142.43
1780	6.0082	0.23153	0.	147.71
1781	5.999	0.77059	0.	147.14
1782	7.3583	1.6667e-002	0.	135.62
1783	7.145	-0.10667	0.	120.62
1784	7.5128	-0.24557	0.	127.8
1785	7.2736	-0.35115	0.	121.22
1786	-3.195	-2.045	0.	142.45
1787	-3.5517	-1.985	0.	120.03
1788	-3.38	-1.8967	0.	149.5
1789	-3.3933	-2.2793	0.	132.45
1790	-3.165	-0.965	0.	146.97
1791	-3.5017	-1.0183	0.	128.83
1792	-3.34	-1.1233	0.	155.27
1793	-3.3244	-0.72788	0.	139.32
1794	-4.1983	-1.565	0.	118.39
1795	-4.1883	-1.3717	0.	119.88
1796	-4.6509	-1.4552	0.	144.93
1797	-4.4373	-1.1946	0.	149.48
1798	-4.4685	-1.7186	0.	147.83
1799	7.7817	-1.6583	0.	100.91
1800	7.5767	-1.6467	0.	104.66
1801	7.6424	-2.1102	0.	109.79
1802	7.3841	-1.8869	0.	116.38
1803	7.9325	-1.8377	0.	118.18
1804	8.2283	-0.97167	0.	143.05
1805	8.135	-0.78833	0.	147.37
1806	8.5112	-0.86638	0.	154.74
1807	8.3862	-0.58237	0.	163.1
1808	7.315	-0.74167	0.	138.04
1809	7.2033	-0.91333	0.	136.12
1810	6.9393	-0.71656	0.	136.21
1811	7.1486	-0.60115	0.	133.07
1812	5.915	-8.0725	0.	100.28
1813	5.6625	-8.0525	0.	110.4
1814	5.9293	-8.3118	0.	115.46
1815	5.5865	-8.3528	0.	122.31
1816	6.514	-7.5435	0.	151.32
1817	6.205	-7.6575	0.	141.24
1818	6.0975	-7.43	0.	142.5
1819	6.3562	-7.2055	0.	157.03
1820	5.17	-7.4314	0.	154.1
1821	5.4475	-7.5975	0.	147.14
1822	5.5925	-7.39	0.	140.97
1823	5.3817	-7.1522	0.	151.56
1824	-7.8775	-6.3987	0.	147.04
1825	-7.6775	-6.2688	0.	124.87
1826	-8.0618	-6.1712	0.	142.49
1827	-7.8515	-5.984	0.	131.8
1828	-7.8025	-7.8313	0.	140.36
1829	-7.5901	-7.9401	0.	116.97
1830	-7.995	-8.0593	0.	136.32
1831	-7.7223	-8.2714	0.	123.14
1832	-6.4025	-6.9212	0.	126.01
1833	-6.3904	-7.1603	0.	124.58
1834	-5.9801	-7.0083	0.	144.62
1835	-6.1794	-6.7559	0.	145.31
1836	-6.1345	-7.2861	0.	146.06
1837	-0.18333	-6.9767	0.	133.98
1838	-0.25	-6.7867	0.	135.82
1839	-0.60223	-6.8677	0.	149.9
1840	-0.45335	-7.1726	0.	160.56
1841	0.60333	-7.1233	0.	138.85
1842	0.73333	-6.97	0.	153.7
1843	1.0164	-7.126	0.	149.05
1844	0.84032	-7.3676	0.	153.69
1845	0.27	-6.1733	0.	101.46
1846	0.46667	-6.21	0.	120.18
1847	0.68419	-5.9746	0.	128.45
1848	0.17566	-5.834	0.	120.02
1849	0.46294	-5.7346	0.	120.97
1850	6.837	-6.9568	0.	139.44
1851	7.0625	-6.8913	0.	111.97
1852	7.0309	-6.5485	0.	120.37
1853	6.7502	-6.6526	0.	134.27
1854	6.5145	-8.3368	0.	162.78
1855	6.6863	-8.5013	0.	136.75
1856	6.2743	-8.4568	0.	143.31
1857	6.4571	-8.6828	0.	148.25
1858	8.0975	-7.8587	0.	130.21
1859	8.0437	-8.0887	0.	135.02
1860	8.3212	-8.23	0.	157.4
1861	8.4256	-7.8985	0.	150.63
1862	-5.8014	5.	0.	117.43
1863	-6.	4.75	0.	137.06
1864	-6.1555	5.2533	0.	134.4
1865	-6.2361	4.9898	0.	134.15
1866	-6.	4.25	0.	135.64
1867	-5.75	4.	0.	121.9
1868	-5.9996	3.7323	0.	126.78
1869	-6.249	3.9813	0.	129.88
1870	-4.2017	5.	0.	132.54
1871	-4.	4.75	0.	146.57
1872	-3.7218	4.9574	0.	138.45
1873	-3.9322	5.2077	0.	145.24
1874	-4.25	4.	0.	126.49
1875	-4.	4.25	0.	141.43
1876	-3.7405	3.9892	0.	132.82
1877	-3.9945	3.7498	0.	131.17
1878	7.	8.75	0.	141.19
1879	7.25	9.	0.	128.67
1880	6.7502	8.992	0.	133.38
1881	6.9997	9.2491	0.	132.65
1882	7.	7.25	0.	146.78
1883	7.25	7.	0.	140.17
1884	7.1045	6.749	0.	138.74
1885	6.813	7.0473	0.	129.14
1886	8.75	9.	0.	130.57
1887	9.	8.75	0.	145.66
1888	9.25	9.	0.	135.48
1889	9.	9.25	0.	133.69
1890	8.75	7.	0.	128.27
1891	9.	7.25	0.	144.08
1892	8.9903	6.751	0.	132.1
1893	9.2477	7.0001	0.	135.84
1894	-3.	-1.25	0.	148.95
1895	-2.75	-1.	0.	129.63
1896	-2.9458	-0.75503	0.	136.32
1897	-3.	-1.75	0.	149.78
1898	-2.75	-2.	0.	130.71
1899	-2.9746	-2.2439	0.	138.39
1900	-1.25	-1.	0.	128.01
1901	-1.	-1.25	0.	141.71
1902	-0.74837	-1.003	0.	134.73
1903	-0.99252	-0.75086	0.	133.95
1904	-1.25	-2.	0.	127.15
1905	-1.	-1.75	0.	140.7
1906	-0.7478	-2.0092	0.	133.37
1907	-0.99566	-2.2589	0.	132.
1908	0.	0.75	0.	140.33
1909	0.25	1.	0.	123.86
1910	-2.7074e-004	1.2506	0.	129.94
1911	-0.24614	1.001	0.	132.86
1912	0.	0.25	0.	141.47
1913	0.25	0.	0.	125.11
1914	1.7693e-003	-0.25197	0.	132.06
1915	-0.24466	-5.9892e-004	0.	135.11
1916	0.75	1.	0.	123.83
1917	1.	0.75	0.	139.5
1918	1.2488	0.9925	0.	132.79
1919	0.99832	1.2411	0.	130.13
1920	0.75	0.	0.	124.07
1921	1.	0.25	0.	139.58
1922	1.248	-1.5461e-003	0.	132.74
1923	0.99885	-0.25136	0.	130.01
1924	3.	-7.25	0.	139.37
1925	3.25	-7.	0.	123.39
1926	2.752	-6.9832	0.	133.36
1927	3.0033	-6.7407	0.	130.4
1928	3.	-8.75	0.	141.24
1929	3.25	-9.	0.	125.24
1930	2.7441	-8.9964	0.	136.26
1931	2.9984	-9.2495	0.	132.07
1932	5.	-7.2464	0.	141.87
1933	4.75	-7.	0.	135.71
1934	5.2117	-6.9672	0.	138.28
1935	4.9882	-6.7376	0.	141.6
1936	4.75	-9.	0.	126.64
1937	5.	-8.7502	0.	143.71
1938	4.9969	-9.2509	0.	132.45
1939	5.2345	-9.0001	0.	134.23
1940	-5.	-6.25	0.	139.6
1941	-4.75	-6.	0.	124.43
1942	-5.2001	-5.9996	0.	135.97
1943	-4.9871	-5.7469	0.	131.32
1944	-5.	-7.75	0.	139.09
1945	-4.75	-8.	0.	123.82
1946	-5.2575	-7.9594	0.	135.38
1947	-5.0041	-8.2434	0.	131.86
1948	-3.25	-6.	0.	121.6
1949	-3.	-6.25	0.	136.84
1950	-2.7343	-5.9906	0.	131.32
1951	-2.9933	-5.7424	0.	128.83
1952	-3.25	-8.	0.	121.99
1953	-3.	-7.75	0.	137.24
1954	-2.7616	-8.0023	0.	132.21
1955	-3.0056	-8.2511	0.	128.62
1956	9.75	10.	0.	124.93
1957	10.	9.75	0.	124.8
1958	-9.75	10.	0.	125.04
1959	-10.	9.75	0.	124.96
1960	10.	-9.75	0.	138.51
1961	9.75	-10.	0.	137.28
1962	-10.	-9.75	0.	136.3
1963	-9.75	-10.	0.	134.82
1964	-5.4033	5.	0.	108.42
1965	7.725	-0.765	0.	113.25
1966	7.5928	-0.50724	0.	115.21
1967	7.3536	-0.61282	0.	105.4
1968	6.731	-7.4103	0.	135.65
1969	6.6235	-7.8703	0.	141.55
1970	5.	-7.747	0.	142.1
1971	6.935	6.105	0.	142.
1972	7.2161	5.942	0.	133.1
1973	7.0528	6.4273	0.	133.88
1974	6.34	5.63	0.	97.096
1975	6.561	5.3114	0.	104.37
1976	6.0862	5.4726	0.	102.25
1977	6.225	6.385	0.	87.123
1978	6.3129	6.7483	0.	108.09
1979	5.8971	6.4884	0.	107.14
1980	1.37	5.835	0.	107.13
1981	0.97418	5.9693	0.	122.24
1982	1.2765	5.5641	0.	113.31
1983	1.715	6.485	0.	106.55
1984	1.4746	6.7227	0.	105.98
1985	1.9645	6.7375	0.	105.92
1986	2.105	5.86	0.	113.85
1987	2.2285	5.6052	0.	117.33
1988	2.444	6.0395	0.	126.73
1989	-5.0662	6.8438	0.	102.07
1990	-4.7762	7.0115	0.	105.78
1991	-5.5037	6.9662	0.	108.57
1992	-5.2154	7.1541	0.	111.72
1993	-5.6667	7.2679	0.	108.81
1994	-4.8975	6.1838	0.	94.033
1995	-4.6077	6.1969	0.	107.07
1996	-5.2225	5.8663	0.	96.775
1997	-4.9177	5.8062	0.	108.52
1998	-5.3081	5.558	0.	101.24
1999	-5.9913	6.49	0.	135.03
2000	-6.2807	6.6579	0.	135.7
2001	-5.8787	6.05	0.	127.69
2002	-6.1789	6.176	0.	132.79
2003	-6.0668	5.6683	0.	127.42
2004	-2.62	6.08	0.	112.46
2005	-2.907	5.9124	0.	110.87
2006	-2.4028	5.7689	0.	110.96
2007	-2.93	6.835	0.	91.69
2008	-3.2805	6.7005	0.	112.79
2009	-2.9849	7.136	0.	109.46
2010	-2.12	6.725	0.	127.38
2011	-1.7768	6.489	0.	133.34
2012	-1.9788	6.9873	0.	126.21
2013	-6.55	0.72	0.	95.508
2014	-6.3305	1.0787	0.	104.73
2015	-6.81	0.86659	0.	102.01
2016	-5.87	0.26	0.	145.16
2017	-5.6311	0.52866	0.	140.1
2018	-5.6663	2.7037e-004	0.	139.14
2019	-6.6087	-0.10085	0.	83.416
2020	-7.0779	-2.8295e-003	0.	108.01
2021	-6.8766	-0.23645	0.	97.573
2022	-6.4401	-0.54789	0.	101.16
2023	6.71	0.88	0.	85.249
2024	6.833	1.2437	0.	101.44
2025	6.4274	0.9611	0.	97.308
2026	7.355	0.51	0.	136.15
2027	7.5521	0.72789	0.	131.91
2028	7.5422	0.24159	0.	128.37
2029	6.715	0.14	0.	93.358
2030	6.4455	4.441e-002	0.	102.75
2031	6.8674	-0.15343	0.	113.28
2032	-3.875	-1.775	0.	82.829
2033	-3.7625	-2.1071	0.	103.48
2034	-4.1212	-1.9127	0.	101.23
2035	-3.845	-1.195	0.	88.308
2036	-3.6974	-0.86911	0.	104.48
2037	-4.061	-1.0456	0.	99.349
2038	8.005	-1.315	0.	102.89
2039	8.0441	-1.666	0.	112.22
2040	8.3065	-1.2634	0.	123.55
2041	7.39	-1.28	0.	109.56
2042	7.2312	-1.4887	0.	112.6
2043	7.0764	-1.1002	0.	119.02
2044	7.984	-0.54276	0.	113.37
2045	6.3145	-7.9843	0.	131.49
2046	6.0743	-8.1043	0.	112.59
2047	5.2775	-7.9131	0.	134.35
2048	5.8627	-7.1752	0.	104.33
2049	-7.8525	-6.8762	0.	146.04
2050	-8.0637	-6.6279	0.	141.38
2051	-7.8275	-7.3538	0.	145.09
2052	-8.0485	-7.1027	0.	142.19
2053	-8.0262	-7.5812	0.	139.12
2054	-7.2525	-6.4862	0.	104.98
2055	-7.4282	-6.1617	0.	107.21
2056	-6.8275	-6.7038	0.	102.25
2057	-7.0098	-6.3759	0.	112.62
2058	-6.5913	-6.5778	0.	106.61
2059	-7.1903	-7.6802	0.	102.01
2060	-7.2999	-8.0581	0.	106.79
2061	-6.7907	-7.4204	0.	99.113
2062	-6.9135	-7.7936	0.	112.24
2063	-6.5162	-7.5782	0.	108.73
2064	0.21	-7.05	0.	97.18
2065	-2.2413e-002	-7.2555	0.	100.64
2066	0.40756	-7.3197	0.	104.69
2067	1.e-002	-6.48	0.	91.846
2068	-0.35583	-6.5116	0.	117.98
2069	-0.10595	-6.1617	0.	110.11
2070	0.6	-6.59	0.	133.01
2071	0.87517	-6.7414	0.	138.5
2072	0.76253	-6.3701	0.	128.01
2073	6.5732	-7.0723	0.	139.53
2074	7.4075	-7.2137	0.	102.18
2075	7.4247	-6.8312	0.	111.3
2076	7.7525	-7.5363	0.	97.87
2077	7.7912	-7.1975	0.	115.7
2078	8.1005	-7.5611	0.	114.23
2079	7.1388	-8.3638	0.	113.28
2080	6.9316	-8.6034	0.	112.59
2081	7.5912	-8.2262	0.	107.55
2082	7.398	-8.4937	0.	116.17
2083	7.8628	-8.3747	0.	108.01
2084	-6.2444	4.4896	0.	135.03
2085	-4.604	5.	0.	121.98
2086	-4.3554	5.2384	0.	122.57
2087	-5.0041	5.	0.	120.37
2088	-4.79	5.2937	0.	119.78
2089	-5.2174	5.2042	0.	114.12
2090	-5.25	4.	0.	116.63
2091	-5.4975	3.7427	0.	113.35
2092	-4.75	4.	0.	118.87
2093	-4.9962	3.7484	0.	118.05
2094	-4.4954	3.7504	0.	117.2
2095	-3.7334	4.4792	0.	138.3
2096	7.	8.25	0.	144.41
2097	6.7518	8.4894	0.	138.08
2098	7.	7.75	0.	141.4
2099	6.7564	7.9905	0.	137.16
2100	6.7709	7.503	0.	131.78
2101	7.75	9.	0.	123.77
2102	7.4999	9.2499	0.	119.41
2103	8.25	9.	0.	124.42
2104	8.	9.25	0.	123.84
2105	8.5	9.25	0.	120.15
2106	7.75	7.	0.	126.2
2107	7.5358	6.7656	0.	121.63
2108	8.25	7.	0.	122.31
2109	8.0068	6.7524	0.	121.47
2110	8.4972	6.7501	0.	117.46
2111	9.	8.25	0.	151.85
2112	9.25	8.5	0.	143.36
2113	9.	7.75	0.	151.44
2114	9.2499	8.0001	0.	145.24
2115	9.2497	7.5003	0.	143.44
2116	-3.185	-1.6017	0.	155.32
2117	-3.175	-1.4083	0.	156.23
2118	-2.25	-1.	0.	121.44
2119	-2.4692	-0.7536	0.	120.36
2120	-1.75	-1.	0.	121.24
2121	-1.9809	-0.75168	0.	122.02
2122	-1.4879	-0.75076	0.	118.92
2123	-2.25	-2.	0.	122.2
2124	-2.4885	-2.2463	0.	121.51
2125	-1.75	-2.	0.	121.68
2126	-1.994	-2.2495	0.	123.16
2127	-1.4954	-2.2532	0.	119.41
2128	-0.74883	-1.5051	0.	137.65
2129	-0.24487	0.50032	0.	138.72
2130	0.49845	1.2471	0.	113.67
2131	0.5002	-0.25152	0.	113.9
2132	1.2484	0.49656	0.	137.72
2133	3.	-7.75	0.	145.36
2134	2.7332	-7.4845	0.	139.6
2135	3.	-8.25	0.	146.32
2136	2.735	-7.9885	0.	142.13
2137	2.7405	-8.4933	0.	141.72
2138	3.75	-7.	0.	115.6
2139	3.5029	-6.7435	0.	114.1
2140	4.25	-7.	0.	117.02
2141	4.0022	-6.7437	0.	117.21
2142	4.4985	-6.7425	0.	117.39
2143	3.75	-9.	0.	116.66
2144	3.4994	-9.2499	0.	114.71
2145	4.25	-9.	0.	117.08
2146	3.9995	-9.25	0.	116.42
2147	4.4989	-9.2501	0.	115.42
2148	5.	-8.2507	0.	153.1
2149	5.2015	-8.463	0.	143.78
2150	5.2015	-8.2134	0.	147.28
2151	-5.	-6.75	0.	141.98
2152	-5.1932	-6.4973	0.	140.37
2153	-5.	-7.25	0.	141.49
2154	-5.1901	-6.9893	0.	139.01
2155	-5.1869	-7.4743	0.	139.53
2156	-4.25	-6.	0.	114.47
2157	-4.4949	-5.7451	0.	113.49
2158	-3.75	-6.	0.	113.52
2159	-3.9977	-5.7425	0.	114.56
2160	-3.4974	-5.7417	0.	111.92
2161	-4.25	-8.	0.	113.68
2162	-4.5022	-8.2484	0.	112.52
2163	-3.75	-8.	0.	113.63
2164	-4.0019	-8.2497	0.	114.17
2165	-3.5026	-8.2501	0.	112.11
2166	-3.	-6.75	0.	141.47
2167	-2.7124	-6.4898	0.	135.9
2168	-3.	-7.25	0.	141.77
2169	-2.7364	-6.9931	0.	137.53
2170	-2.7546	-7.4987	0.	137.23
2171	9.25	10.	0.	122.49
2172	9.5	9.75	0.	126.63
2173	8.75	10.	0.	118.65
2174	9.	9.75	0.	123.43
2175	8.25	10.	0.	115.86
2176	8.5	9.75	0.	117.95
2177	7.75	10.	0.	116.02
2178	8.	9.75	0.	117.46
2179	7.25	10.	0.	119.36
2180	7.4999	9.7499	0.	118.03
2181	6.75	10.	0.	124.47
2182	6.9997	9.7491	0.	124.04
2183	6.25	10.	0.	128.36
2184	6.4997	9.7458	0.	128.36
2185	5.75	10.	0.	129.36
2186	6.	9.7418	0.	128.12
2187	5.25	10.	0.	129.27
2188	5.5007	9.7387	0.	128.02
2189	4.75	10.	0.	129.12
2190	5.0011	9.7378	0.	128.19
2191	4.25	10.	0.	128.86
2192	4.5014	9.7376	0.	128.26
2193	3.75	10.	0.	128.37
2194	4.0013	9.7387	0.	128.12
2195	3.25	10.	0.	127.66
2196	3.5009	9.7403	0.	127.68
2197	2.75	10.	0.	126.86
2198	3.0002	9.7428	0.	127.
2199	2.25	10.	0.	126.22
2200	2.4997	9.7442	0.	126.28
2201	1.75	10.	0.	125.97
2202	1.9993	9.7453	0.	125.8
2203	1.25	10.	0.	126.19
2204	1.4991	9.7453	0.	125.79
2205	0.75	10.	0.	126.77
2206	0.99944	9.7448	0.	126.24
2207	0.25	10.	0.	127.41
2208	0.50042	9.7446	0.	126.91
2209	-0.25	10.	0.	127.77
2210	1.7672e-003	9.745	0.	127.47
2211	-0.75	10.	0.	127.56
2212	-0.49649	9.7463	0.	127.63
2213	-1.25	10.	0.	126.73
2214	-0.99475	9.7478	0.	127.21
2215	-1.75	10.	0.	125.5
2216	-1.4933	9.7489	0.	126.23
2217	-2.25	10.	0.	124.33
2218	-1.9925	9.7498	0.	124.98
2219	-2.75	10.	0.	123.54
2220	-2.4921	9.7506	0.	124.01
2221	-3.25	10.	0.	123.17
2222	-2.9923	9.7505	0.	123.61
2223	-3.75	10.	0.	122.93
2224	-3.4928	9.7498	0.	123.57
2225	-4.25	10.	0.	122.6
2226	-3.9937	9.7505	0.	123.4
2227	-4.75	10.	0.	122.2
2228	-4.4955	9.7505	0.	122.94
2229	-5.25	10.	0.	122.
2230	-4.9972	9.7495	0.	122.44
2231	-5.75	10.	0.	122.24
2232	-5.4986	9.7505	0.	122.33
2233	-6.25	10.	0.	122.97
2234	-5.9999	9.753	0.	122.82
2235	-6.75	10.	0.	123.93
2236	-6.5013	9.7549	0.	123.74
2237	-7.25	10.	0.	124.8
2238	-7.0024	9.7557	0.	124.65
2239	-7.75	10.	0.	125.33
2240	-7.5029	9.7552	0.	125.25
2241	-8.25	10.	0.	125.48
2242	-8.0027	9.7541	0.	125.48
2243	-8.75	10.	0.	125.37
2244	-8.5023	9.7529	0.	125.42
2245	-9.25	10.	0.	125.16
2246	-9.0017	9.7519	0.	125.22
2247	-9.5009	9.751	0.	125.
2248	10.	9.25	0.	123.54
2249	9.75	9.5	0.	126.48
2250	10.	8.75	0.	122.57
2251	9.75	9.	0.	127.01
2252	10.	8.25	0.	123.45
2253	9.75	8.5	0.	128.92
2254	10.	7.75	0.	125.41
2255	9.7499	8.0001	0.	131.26
2256	10.	7.25	0.	128.31
2257	9.7497	7.5003	0.	131.38
2258	10.	6.75	0.	132.06
2259	9.7477	7.0001	0.	132.31
2260	10.	6.25	0.	133.29
2261	9.7444	6.5006	0.	133.59
2262	10.	5.75	0.	131.85
2263	9.7431	6.0016	0.	131.11
2264	10.	5.25	0.	130.4
2265	9.7458	5.5016	0.	129.49
2266	10.	4.75	0.	130.2
2267	9.748	5.0022	0.	129.17
2268	10.	4.25	0.	130.74
2269	9.7503	4.5033	0.	129.59
2270	10.	3.75	0.	131.42
2271	9.7526	4.0049	0.	130.19
2272	10.	3.25	0.	131.91
2273	9.755	3.5068	0.	130.7
2274	10.	2.75	0.	132.03
2275	9.7577	3.0087	0.	131.01
2276	10.	2.25	0.	131.62
2277	9.7609	2.5102	0.	131.01
2278	10.	1.75	0.	130.71
2279	9.7638	2.0109	0.	130.58
2280	10.	1.25	0.	129.63
2281	9.7658	1.51	0.	129.76
2282	10.	0.75	0.	128.79
2283	9.7657	1.007	0.	129.03
2284	10.	0.25	0.	127.91
2285	9.7625	0.50147	0.	128.88
2286	10.	-0.25	0.	126.32
2287	9.7618	-3.3803e-003	0.	128.62
2288	10.	-0.75	0.	124.92
2289	9.775	-0.50678	0.	127.16
2290	10.	-1.25	0.	125.97
2291	9.767	-1.0107	0.	126.46
2292	10.	-1.75	0.	129.61
2293	9.7527	-1.5106	0.	128.93
2294	10.	-2.25	0.	133.26
2295	9.7642	-2.0072	0.	131.93
2296	10.	-2.75	0.	135.04
2297	9.7649	-2.5041	0.	133.61
2298	10.	-3.25	0.	135.27
2299	9.761	-3.0013	0.	133.87
2300	10.	-3.75	0.	134.91
2301	9.7579	-3.5001	0.	133.54
2302	10.	-4.25	0.	134.61
2303	9.7557	-4.0003	0.	133.23
2304	10.	-4.75	0.	134.5
2305	9.7542	-4.5014	0.	133.14
2306	10.	-5.25	0.	134.38
2307	9.7536	-5.0026	0.	133.19
2308	10.	-5.75	0.	133.78
2309	9.7551	-5.5032	0.	133.15
2310	10.	-6.25	0.	132.13
2311	9.7586	-6.0026	0.	132.63
2312	10.	-6.75	0.	129.14
2313	9.7618	-6.5013	0.	131.22
2314	10.	-7.25	0.	125.69
2315	9.7619	-6.9989	0.	128.86
2316	10.	-7.75	0.	124.06
2317	9.7577	-7.4934	0.	126.46
2318	10.	-8.25	0.	126.29
2319	9.7783	-7.9812	0.	126.3
2320	10.	-8.75	0.	131.36
2321	9.7239	-8.478	0.	130.28
2322	10.	-9.25	0.	136.05
2323	9.7507	-8.9978	0.	134.25
2324	9.7525	-9.5016	0.	136.59
2325	-10.	9.25	0.	124.67
2326	-9.7509	9.501	0.	124.92
2327	-10.	8.75	0.	124.11
2328	-9.7516	9.0018	0.	124.57
2329	-10.	8.25	0.	123.43
2330	-9.7522	8.5024	0.	124.11
2331	-10.	7.75	0.	122.75
2332	-9.7525	8.0027	0.	123.6
2333	-10.	7.25	0.	122.22
2334	-9.7521	7.5027	0.	123.13
2335	-10.	6.75	0.	122.
2336	-9.751	7.0026	0.	122.84
2337	-10.	6.25	0.	122.23
2338	-9.7495	6.5023	0.	122.89
2339	-10.	5.75	0.	122.95
2340	-9.7481	6.0021	0.	123.33
2341	-10.	5.25	0.	124.11
2342	-9.7471	5.5018	0.	124.16
2343	-10.	4.75	0.	125.59
2344	-9.7469	5.0015	0.	125.29
2345	-10.	4.25	0.	127.25
2346	-9.7477	4.501	0.	126.63
2347	-10.	3.75	0.	128.89
2348	-9.7488	4.0004	0.	128.04
2349	-10.	3.25	0.	130.27
2350	-9.7501	3.4997	0.	129.35
2351	-10.	2.75	0.	131.09
2352	-9.7519	2.9993	0.	130.36
2353	-10.	2.25	0.	131.08
2354	-9.755	2.4993	0.	130.83
2355	-10.	1.75	0.	130.12
2356	-9.7601	1.9996	0.	130.56
2357	-10.	1.25	0.	128.45
2358	-9.7651	1.4996	0.	129.52
2359	-10.	0.75	0.	126.79
2360	-9.7688	0.99969	0.	128.06
2361	-10.	0.25	0.	125.98
2362	-9.7692	0.50009	0.	126.91
2363	-10.	-0.25	0.	126.4
2364	-9.7669	2.8686e-004	0.	126.76
2365	-10.	-0.75	0.	127.73
2366	-9.7611	-0.49967	0.	127.58
2367	-10.	-1.25	0.	129.27
2368	-9.7538	-0.99921	0.	128.81
2369	-10.	-1.75	0.	130.55
2370	-9.7495	-1.4986	0.	129.88
2371	-10.	-2.25	0.	131.46
2372	-9.7479	-1.9984	0.	130.64
2373	-10.	-2.75	0.	132.13
2374	-9.7474	-2.4985	0.	131.16
2375	-10.	-3.25	0.	132.72
2376	-9.7471	-2.9993	0.	131.59
2377	-10.	-3.75	0.	133.32
2378	-9.7461	-3.5007	0.	132.03
2379	-10.	-4.25	0.	133.81
2380	-9.7442	-4.0033	0.	132.5
2381	-10.	-4.75	0.	133.82
2382	-9.7408	-4.5072	0.	132.88
2383	-10.	-5.25	0.	132.73
2384	-9.7432	-5.0097	0.	132.8
2385	-10.	-5.75	0.	130.13
2386	-9.7662	-5.509	0.	131.69
2387	-10.	-6.25	0.	126.69
2388	-9.7733	-6.0087	0.	129.25
2389	-10.	-6.75	0.	124.12
2390	-9.7759	-6.5079	0.	126.57
2391	-10.	-7.25	0.	123.94
2392	-9.7771	-7.0079	0.	125.37
2393	-10.	-7.75	0.	126.29
2394	-9.7755	-7.508	0.	126.36
2395	-10.	-8.25	0.	129.96
2396	-9.7715	-8.0076	0.	128.99
2397	-10.	-8.75	0.	133.32
2398	-9.7655	-8.5065	0.	131.86
2399	-10.	-9.25	0.	135.42
2400	-9.7595	-9.0048	0.	133.79
2401	-9.7544	-9.5026	0.	134.63
2402	-9.25	-10.	0.	131.79
2403	-9.5044	-9.7526	0.	133.14
2404	-8.75	-10.	0.	128.76
2405	-9.0079	-9.7538	0.	130.72
2406	-8.25	-10.	0.	125.11
2407	-8.5099	-9.753	0.	127.48
2408	-7.75	-10.	0.	121.87
2409	-8.0093	-9.7479	0.	123.27
2410	-7.25	-10.	0.	120.72
2411	-7.5056	-9.7353	0.	120.2
2412	-6.75	-10.	0.	122.07
2413	-7.0025	-9.7232	0.	120.63
2414	-6.25	-10.	0.	124.34
2415	-6.5021	-9.7378	0.	123.41
2416	-5.75	-10.	0.	125.25
2417	-6.0019	-9.7434	0.	125.84
2418	-5.25	-10.	0.	123.69
2419	-5.5023	-9.7452	0.	125.58
2420	-4.75	-10.	0.	120.54
2421	-5.0022	-9.7472	0.	122.49
2422	-4.25	-10.	0.	118.01
2423	-4.5019	-9.7487	0.	118.63
2424	-3.75	-10.	0.	117.97
2425	-4.0016	-9.7497	0.	116.84
2426	-3.25	-10.	0.	120.69
2427	-3.5018	-9.7502	0.	118.45
2428	-2.75	-10.	0.	124.81
2429	-3.0021	-9.7507	0.	122.67
2430	-2.25	-10.	0.	128.37
2431	-2.5035	-9.7515	0.	127.18
2432	-1.75	-10.	0.	130.17
2433	-2.0054	-9.7527	0.	130.
2434	-1.25	-10.	0.	130.18
2435	-1.5077	-9.7537	0.	130.7
2436	-0.75	-10.	0.	129.17
2437	-1.0086	-9.7521	0.	129.86
2438	-0.25	-10.	0.	128.2
2439	-0.50994	-9.7496	0.	128.42
2440	0.25	-10.	0.	128.31
2441	-1.0535e-002	-9.7486	0.	127.57
2442	0.75	-10.	0.	130.
2443	0.48986	-9.7496	0.	128.35
2444	1.25	-10.	0.	132.97
2445	0.99125	-9.7499	0.	130.9
2446	1.75	-10.	0.	136.17
2447	1.493	-9.7492	0.	134.33
2448	2.25	-10.	0.	136.92
2449	1.9948	-9.7482	0.	137.35
2450	2.75	-10.	0.	131.42
2451	2.4968	-9.7483	0.	137.23
2452	3.25	-10.	0.	121.6
2453	2.9984	-9.7495	0.	127.14
2454	3.75	-10.	0.	114.77
2455	3.4994	-9.7499	0.	115.72
2456	4.25	-10.	0.	114.89
2457	3.9995	-9.75	0.	113.62
2458	4.75	-10.	0.	121.24
2459	4.4989	-9.7501	0.	116.1
2460	5.25	-10.	0.	128.99
2461	4.9969	-9.7509	0.	126.15
2462	5.75	-10.	0.	130.86
2463	5.4935	-9.7548	0.	133.42
2464	6.25	-10.	0.	125.6
2465	5.9902	-9.7711	0.	129.73
2466	6.75	-10.	0.	119.44
2467	6.4927	-9.7838	0.	121.9
2468	7.25	-10.	0.	117.81
2469	6.9962	-9.784	0.	116.65
2470	7.75	-10.	0.	121.35
2471	7.4991	-9.7702	0.	118.36
2472	8.25	-10.	0.	127.09
2473	8.0023	-9.7511	0.	124.41
2474	8.75	-10.	0.	131.83
2475	8.5042	-9.7418	0.	130.57
2476	9.25	-10.	0.	134.56
2477	9.0031	-9.7537	0.	133.98
2478	9.5025	-9.7516	0.	135.36
2479	-3.36	-1.51	0.	154.15
2480	4.0419	-3.7169	0.	125.38
2481	4.2963	-3.4664	0.	125.33
2482	4.0391	-3.2203	0.	125.93
2483	3.7873	-3.4701	0.	126.12
2484	3.5238	-2.7293	0.	126.83
2485	3.2746	-2.9782	0.	127.04
2486	3.7816	-2.975	0.	126.46
2487	3.5298	-3.2249	0.	126.65
2488	3.2671	-2.4831	0.	127.07
2489	3.7717	-2.48	0.	126.71
2490	3.5121	-2.2343	0.	126.94
2491	4.2953	-3.9641	0.	124.67
2492	4.0397	-4.2157	0.	124.64
2493	3.7869	-3.9678	0.	125.63
2494	4.5497	-3.7135	0.	124.62
2495	4.5465	-3.2176	0.	125.29
2496	4.8029	-3.4641	0.	124.64
2497	2.7695	-2.9798	0.	127.52
2498	3.0179	-2.732	0.	127.28
2499	3.0231	-3.2268	0.	127.37
2500	2.2669	-2.9805	0.	127.79
2501	2.5143	-2.7334	0.	127.56
2502	2.5192	-3.2277	0.	127.94
2503	2.7627	-2.4856	0.	127.31
2504	3.0093	-2.2368	0.	127.21
2505	4.0088	3.2131	0.	131.55
2506	4.0446	3.6944	0.	132.19
2507	4.2675	3.4436	0.	131.52
2508	3.7409	3.4715	0.	131.61
2509	3.9995	2.7229	0.	130.88
2510	3.7494	2.9662	0.	130.99
2511	4.2514	2.9614	0.	130.97
2512	3.0248	-3.7229	0.	127.47
2513	2.7728	-3.4746	0.	127.8
2514	3.2782	-3.4735	0.	126.98
2515	3.9949	-1.7378	0.	126.81
2516	4.0144	-2.2315	0.	126.64
2517	4.2548	-1.9848	0.	126.63
2518	3.7548	-1.9859	0.	126.87
2519	4.5483	-4.211	0.	123.87
2520	4.8032	-3.9602	0.	123.94
2521	-0.91068	3.9997	0.	128.92
2522	-0.63011	3.7637	0.	129.01
2523	-0.7162	4.2521	0.	130.21
2524	-0.42439	4.0178	0.	129.65
2525	4.2893	-2.9715	0.	125.88
2526	4.7937	-2.9697	0.	125.32
2527	4.5344	-2.7236	0.	125.85
2528	4.1034	4.1663	0.	132.59
2529	3.8357	3.9609	0.	132.33
2530	4.3154	3.9174	0.	132.17
2531	2.0128	-2.7343	0.	127.57
2532	1.7681	-2.9823	0.	127.84
2533	2.02	-3.2272	0.	128.22
2534	2.2602	-2.4871	0.	127.34
2535	2.5069	-2.239	0.	127.33
2536	1.5257	-3.7141	0.	129.
2537	1.5274	-3.227	0.	128.21
2538	1.2989	-3.4711	0.	128.58
2539	1.7793	-3.4719	0.	128.59
2540	4.0363	-4.7151	0.	123.6
2541	4.2927	-4.4626	0.	123.85
2542	3.7842	-4.4665	0.	124.9
2543	5.3099	-3.4604	0.	123.96
2544	5.0565	-3.7107	0.	123.96
2545	5.0502	-3.2162	0.	124.68
2546	2.7535	-1.9903	0.	127.23
2547	2.9983	-1.7412	0.	127.18
2548	3.2543	-1.988	0.	127.08
2549	3.2433	2.9416	0.	130.21
2550	2.7353	2.9165	0.	128.93
2551	2.9949	2.6846	0.	129.58
2552	2.9788	3.1326	0.	129.66
2553	3.7489	2.4728	0.	130.35
2554	3.4987	2.7161	0.	130.46
2555	3.2504	2.4591	0.	129.84
2556	3.4986	2.2231	0.	129.72
2557	4.7682	3.4207	0.	130.05
2558	4.5383	3.6666	0.	131.5
2559	4.5101	3.1919	0.	130.94
2560	4.241	2.4739	0.	130.53
2561	3.9922	2.2294	0.	130.1
2562	3.4814	3.2246	0.	131.06
2563	3.023	-4.2199	0.	127.5
2564	3.2788	-3.9704	0.	126.85
2565	2.772	-3.9709	0.	128.12
2566	1.2786	-3.9394	0.	129.08
2567	1.5034	-4.2042	0.	129.93
2568	1.7661	-3.9625	0.	129.41
2569	0.8128	-3.7816	0.	128.63
2570	0.99064	-4.1757	0.	128.69
2571	1.0517	-3.6964	0.	128.65
2572	5.2593	3.3978	0.	127.1
2573	5.0271	3.646	0.	129.29
2574	5.0042	3.1725	0.	129.
2575	5.5678	-3.7038	0.	123.24
2576	5.8244	-3.9482	0.	122.4
2577	5.5694	-4.1987	0.	122.69
2578	5.3144	-3.9541	0.	123.24
2579	5.4985	3.1498	0.	125.57
2580	5.5087	3.6177	0.	125.29
2581	5.7368	3.3732	0.	123.14
2582	4.1533	4.6299	0.	132.27
2583	4.3655	4.3893	0.	132.72
2584	3.9004	4.4277	0.	132.52
2585	2.0061	-2.2405	0.	127.12
2586	1.759	-2.4904	0.	127.1
2587	4.03	-5.2168	0.	122.07
2588	3.7798	-4.9665	0.	123.77
2589	4.2874	-4.9623	0.	122.81
2590	5.8191	-3.4546	0.	123.12
2591	5.5575	-3.2126	0.	124.02
2592	6.0757	-3.699	0.	122.28
2593	6.0725	-4.1978	0.	121.79
2594	6.3257	-3.9459	0.	121.4
2595	-7.0956	-5.4092	0.	118.48
2596	-7.1112	-5.6064	0.	117.41
2597	-7.5714	-5.4245	0.	118.33
2598	-7.3538	-5.7045	0.	115.43
2599	-7.3562	-5.2024	0.	117.88
2600	-2.2375	1.995	0.	125.43
2601	-2.4884	2.242	0.	125.64
2602	-2.7316	1.9913	0.	124.82
2603	-2.4781	1.7427	0.	124.24
2604	2.4993	-1.7431	0.	127.33
2605	2.2528	-1.9924	0.	127.12
2606	2.2287	2.9006	0.	127.51
2607	2.4877	2.6736	0.	128.53
2608	2.4647	3.1606	0.	127.73
2609	3.	2.2079	0.	129.28
2610	2.7473	2.4417	0.	129.18
2611	4.7261	2.4654	0.	130.09
2612	4.476	2.2227	0.	130.27
2613	4.4929	2.7124	0.	130.61
2614	5.7453	3.823	0.	122.85
2615	6.2077	3.6781	0.	118.76
2616	5.9735	3.5785	0.	120.69
2617	6.0001	4.0165	0.	119.62
2618	4.802	-4.4564	0.	123.27
2619	4.5438	-4.7098	0.	123.06
2620	6.5624	-4.7021	0.	120.77
2621	6.8144	-4.4454	0.	120.58
2622	6.3184	-4.4476	0.	121.2
2623	6.5716	-4.1957	0.	120.81
2624	-5.7322	-3.4779	0.	124.82
2625	-5.9702	-3.2224	0.	123.96
2626	-5.9786	-3.7257	0.	124.83
2627	-6.2241	-3.4716	0.	123.92
2628	-1.2729	2.9908	0.	127.44
2629	-1.7614	2.9807	0.	126.86
2630	-1.5295	3.226	0.	126.96
2631	-1.5106	2.7372	0.	127.23
2632	3.9836	1.7343	0.	129.
2633	4.2273	1.9782	0.	129.86
2634	3.7419	1.9797	0.	129.47
2635	0.35678	3.8123	0.	127.96
2636	0.63695	3.6239	0.	126.3
2637	0.45169	3.3019	0.	126.24
2638	0.15006	3.5482	0.	127.57
2639	-1.2132	4.2302	0.	128.54
2640	-1.1111	3.7399	0.	128.08
2641	-1.3637	3.9684	0.	127.31
2642	-6.7169	-3.9641	0.	123.65
2643	-6.2249	-3.9721	0.	124.7
2644	-6.4705	-3.718	0.	123.79
2645	-6.4619	-4.214	0.	124.5
2646	5.7636	2.8949	0.	123.55
2647	5.9459	2.646	0.	122.68
2648	6.2924	2.9428	0.	119.24
2649	6.0019	3.1183	0.	121.12
2650	6.1426	2.6582	0.	120.49
2651	-6.9538	-4.204	0.	122.96
2652	-7.2121	-3.9623	0.	123.22
2653	-6.9663	-3.7137	0.	123.11
2654	-6.9299	-4.6838	0.	122.27
2655	-6.8955	-5.138	0.	121.56
2656	-6.6745	-4.9351	0.	123.82
2657	-7.1561	-4.9312	0.	120.94
2658	-7.1908	-4.4494	0.	122.48
2659	-6.6988	-4.4539	0.	123.81
2660	3.4834	0.7461	0.	126.48
2661	3.4759	0.24951	0.	126.02
2662	3.7261	0.49624	0.	126.01
2663	3.2327	0.49692	0.	126.18
2664	5.4637	2.6797	0.	126.77
2665	5.2433	2.9244	0.	127.47
2666	-1.3008	-4.4875	0.	129.36
2667	-1.0471	-4.274	0.	128.99
2668	-1.2239	-4.7347	0.	130.27
2669	-0.88322	-4.5882	0.	129.21
2670	-0.56257	3.2649	0.	128.
2671	-0.83055	3.5039	0.	128.17
2672	-0.34264	3.5205	0.	128.25
2673	3.4897	1.2401	0.	127.51
2674	3.2395	0.99182	0.	126.97
2675	3.7316	0.99162	0.	126.87
2676	3.7358	1.4863	0.	128.23
2677	3.2446	1.4831	0.	128.14
2678	3.494	1.7317	0.	128.71
2679	3.2264	-5.8885e-005	0.	126.12
2680	3.7188	3.7996e-004	0.	125.91
2681	3.4712	-0.24861	0.	126.14
2682	-5.4917	-3.734	0.	125.29
2683	-5.2498	-3.4915	0.	125.04
2684	-5.4724	-3.227	0.	125.43
2685	5.3119	-4.4502	0.	122.78
2686	5.5594	-4.6983	0.	122.58
2687	5.8175	-4.4483	0.	122.08
2688	5.0514	-4.7027	0.	122.92
2689	5.057	-4.2056	0.	123.34
2690	5.5311	4.0865	0.	125.88
2691	5.2764	3.8659	0.	127.48
2692	6.3065	-4.9561	0.	121.34
2693	6.8009	-4.9447	0.	120.59
2694	6.5553	-5.2304	0.	121.03
2695	-6.9622	-1.2393	0.	120.27
2696	-6.7317	-0.92238	0.	116.96
2697	-7.2056	-0.99149	0.	124.6
2698	-6.9407	-0.76483	0.	119.96
2699	-6.7138	-1.4519	0.	116.51
2700	-7.2132	-1.4759	0.	122.9
2701	-6.9627	-1.7233	0.	120.13
2702	-1.5175	-4.2329	0.	128.4
2703	-1.4461	-4.7162	0.	130.14
2704	-1.7569	-4.4772	0.	128.75
2705	3.0963	3.9154	0.	130.64
2706	2.8466	3.7622	0.	129.06
2707	3.0073	3.5309	0.	129.92
2708	3.2572	3.6015	0.	130.76
2709	-6.4007e-002	-4.2779	0.	127.35
2710	7.7548e-002	-4.5885	0.	126.21
2711	-0.20347	-4.7049	0.	126.99
2712	-0.30805	-4.3238	0.	127.62
2713	0.51757	-3.9169	0.	128.01
2714	0.55653	-3.3526	0.	128.53
2715	0.30759	-3.6133	0.	128.68
2716	0.82406	-3.5572	0.	128.52
2717	2.2463	-1.4957	0.	127.32
2718	2.4915	-1.2463	0.	127.5
2719	2.7442	-1.4941	0.	127.28
2720	6.772	4.5741	0.	112.71
2721	6.2885	4.6684	0.	114.07
2722	6.5365	4.8493	0.	108.69
2723	6.5156	4.3618	0.	112.32
2724	-5.9588	-2.7186	0.	122.66
2725	-5.7105	-2.9714	0.	124.58
2726	-6.215	-2.9696	0.	122.9
2727	-2.1074	4.4404	0.	121.92
2728	-2.4296	4.2044	0.	121.56
2729	-2.6639	4.4436	0.	120.68
2730	-2.3931	4.698	0.	117.73
2731	6.3272	-3.4482	0.	121.95
2732	6.0678	-3.2057	0.	123.16
2733	-4.2967	0.5286	0.	121.49
2734	-4.1203	0.28991	0.	120.43
2735	-4.0312	0.75557	0.	120.84
2736	-3.885	0.46	0.	119.6
2737	7.0529	-4.688	0.	120.4
2738	7.0662	-4.1946	0.	120.29
2739	7.3056	-4.4536	0.	120.8
2740	0.22157	-4.1273	0.	127.66
2741	0.69541	-4.311	0.	128.06
2742	0.36312	-4.4379	0.	126.53
2743	2.7683	-4.4671	0.	128.44
2744	3.0192	-4.718	0.	127.36
2745	3.2755	-4.4681	0.	126.54
2746	2.5129	-4.7147	0.	129.74
2747	2.2608	-4.4635	0.	130.
2748	2.5173	-4.2181	0.	129.06
2749	1.2155	-4.4405	0.	129.54
2750	1.501	-4.7	0.	131.43
2751	1.7482	-4.4557	0.	130.54
2752	4.0203	-5.7223	0.	119.79
2753	4.2767	-5.4657	0.	121.42
2754	3.7727	-5.4697	0.	122.
2755	7.0102	4.2942	0.	115.99
2756	7.0018	3.8042	0.	116.51
2757	7.2572	4.0424	0.	118.59
2758	6.7538	4.082	0.	115.52
2759	-4.9712	2.7495	0.	119.04
2760	-4.7142	2.5026	0.	121.7
2761	-5.2104	2.4898	0.	120.1
2762	-4.9519	2.2545	0.	123.39
2763	0.98715	3.0629	0.	125.01
2764	1.2035	3.2856	0.	124.88
2765	0.92295	3.4687	0.	125.33
2766	0.7377	3.1466	0.	125.27
2767	3.3711	4.0518	0.	131.63
2768	3.532	3.738	0.	131.76
2769	3.6327	4.2223	0.	132.26
2770	3.9777	1.2378	0.	127.6
2771	4.2225	1.4852	0.	128.64
2772	5.1997	2.452	0.	128.66
2773	4.955	2.2143	0.	130.06
2774	4.9793	2.6966	0.	129.36
2775	-3.769	-4.44	0.	118.55
2776	-4.2672	-4.4574	0.	119.15
2777	-4.0573	-4.1454	0.	119.22
2778	-4.01	-4.7022	0.	116.69
2779	-3.7104	1.4798	0.	122.91
2780	-4.2022	1.5051	0.	124.22
2781	-3.9713	1.2445	0.	122.38
2782	-3.9596	1.7456	0.	123.78
2783	1.7523	-1.9953	0.	126.56
2784	1.9998	-1.7449	0.	127.11
2785	1.1588e-002	-3.8238	0.	128.33
2786	-0.25086	-4.1092	0.	128.07
2787	-1.7585	-3.9925	0.	126.9
2788	-1.9978	-4.2368	0.	127.27
2789	-2.2548	-3.9843	0.	125.37
2790	-2.0009	-3.7412	0.	125.46
2791	-1.2638	-4.0194	0.	128.01
2792	-1.5044	-3.7534	0.	126.73
2793	-1.9837	1.7472	0.	125.18
2794	-1.7417	1.9964	0.	126.46
2795	-1.9936	2.2416	0.	126.2
2796	-0.78255	3.006	0.	127.64
2797	-1.0189	2.7493	0.	127.79
2798	-1.0505	3.2451	0.	127.81
2799	2.9987	1.7233	0.	128.6
2800	2.7505	1.9615	0.	129.06
2801	3.2482	1.9719	0.	129.17
2802	-1.9118	4.1838	0.	124.02
2803	-1.5478	4.4527	0.	126.39
2804	-1.8433	4.6948	0.	123.46
2805	-1.6983	4.1909	0.	125.15
2806	-2.2512	2.9795	0.	126.61
2807	-2.0101	3.2185	0.	126.15
2808	-2.0018	2.7327	0.	126.56
2809	3.2713	-4.9678	0.	125.89
2810	3.5225	-5.2194	0.	123.71
2811	3.5277	-4.718	0.	125.07
2812	-5.7381	-3.9818	0.	125.31
2813	-5.9744	-4.2293	0.	125.98
2814	-4.7938	-3.9992	0.	122.92
2815	-4.5399	-4.2393	0.	120.98
2816	-4.3301	-3.9273	0.	121.04
2817	-4.5636	-3.7668	0.	122.5
2818	4.7932	-4.9561	0.	122.71
2819	4.5341	-5.2112	0.	122.18
2820	5.8044	-4.9516	0.	122.27
2821	6.0626	-4.7016	0.	121.76
2822	6.0404	-5.2086	0.	122.42
2823	4.1773	5.0829	0.	130.62
2824	3.9506	4.8793	0.	131.53
2825	4.4014	4.8575	0.	132.52
2826	-6.4629	-2.2137	0.	119.01
2827	-6.2089	-2.468	0.	121.09
2828	-6.4651	-2.719	0.	121.33
2829	-6.7159	-2.4701	0.	120.9
2830	-6.653	-5.3897	0.	124.06
2831	-6.8905	-5.5526	0.	120.28
2832	-6.432	-5.1869	0.	126.3
2833	-6.193	-4.973	0.	127.6
2834	-6.4434	-4.7052	0.	125.35
2835	-6.4672	-5.6525	0.	126.33
2836	-6.1873	-5.485	0.	129.67
2837	7.0226	4.7615	0.	115.19
2838	7.2646	4.5254	0.	120.04
2839	-6.4833	-1.135	0.	113.14
2840	-6.7079	-0.6835	0.	116.46
2841	-6.2376	-0.89803	0.	110.52
2842	-6.4651	-1.6936	0.	115.31
2843	-6.2193	-1.4379	0.	114.47
2844	-6.2114	-1.9583	0.	118.21
2845	-6.714	-1.965	0.	118.92
2846	4.3971	5.3215	0.	129.96
2847	4.0878	5.5347	0.	127.74
2848	3.9836	5.3189	0.	129.19
2849	5.5598	4.5674	0.	127.41
2850	5.7859	4.2801	0.	122.67
2851	5.3083	4.3403	0.	128.75
2852	5.2989	-4.9508	0.	122.72
2853	5.538	-5.2	0.	123.05
2854	5.0355	-5.2041	0.	122.88
2855	-5.2599	-3.9917	0.	124.69
2856	-5.018	-3.7492	0.	124.44
2857	-5.0133	-4.2442	0.	123.93
2858	-5.4912	-4.2384	0.	125.94
2859	2.7638	-4.9656	0.	128.66
2860	3.0155	-5.2181	0.	126.94
2861	2.5101	-5.2133	0.	130.37
2862	2.259	-4.9605	0.	131.09
2863	-3.4671	1.727	0.	123.46
2864	-3.4744	2.2433	0.	125.14
2865	-3.2243	1.9889	0.	124.49
2866	-3.7163	1.9928	0.	124.33
2867	-2.234	3.9478	0.	123.65
2868	-2.0091	3.6969	0.	124.92
2869	-1.7906	3.942	0.	125.23
2870	2.9791	-0.24979	0.	126.48
2871	2.7315	-0.4994	0.	127.08
2872	2.9795	-0.74789	0.	126.86
2873	3.224	-0.49834	0.	126.5
2874	2.9832	0.24734	0.	126.28
2875	2.7338	-1.6613e-003	0.	126.56
2876	2.9944	1.2348	0.	127.6
2877	2.7436	0.98767	0.	127.25
2878	2.9889	0.74263	0.	126.67
2879	2.7475	1.4761	0.	128.38
2880	1.2453	2.8666	0.	125.29
2881	1.4617	3.0894	0.	125.17
2882	1.4888	2.6411	0.	126.19
2883	1.731	2.8782	0.	126.25
2884	0.75653	2.949	0.	125.15
2885	0.99842	2.65	0.	124.72
2886	-0.52405	2.7619	0.	127.4
2887	-0.28277	3.0196	0.	127.07
2888	-1.9689	1.249	0.	123.74
2889	-1.731	1.4995	0.	125.37
2890	-2.2244	1.4949	0.	123.98
2891	-1.0042	-3.7928	0.	128.13
2892	-0.75522	-4.0985	0.	128.41
2893	1.2524	-2.0026	0.	125.67
2894	1.5	-1.7488	0.	126.07
2895	1.5051	-2.2452	0.	126.53
2896	1.0051	-2.2575	0.	125.96
2897	0.7585	-2.5195	0.	127.09
2898	1.2579	-2.5001	0.	126.83
2899	1.0156	-2.7565	0.	127.32
2900	0.75354	-2.0135	0.	125.17
2901	1.0014	-1.757	0.	124.52
2902	-4.9848	-3.2488	0.	125.8
2903	-4.7878	-3.5168	0.	124.02
2904	-3.4669	1.1829	0.	121.51
2905	-3.2162	1.4692	0.	122.65
2906	5.646	2.4308	0.	125.9
2907	5.8549	2.1935	0.	125.53
2908	6.0558	2.4293	0.	121.96
2909	5.4179	2.2044	0.	128.69
2910	4.2226	0.98981	0.	126.99
2911	3.9743	0.74175	0.	126.4
2912	3.5027	4.9382	0.	131.41
2913	3.7569	5.1153	0.	130.09
2914	3.6977	4.6771	0.	131.78
2915	1.3988	3.5305	0.	124.11
2916	1.683	3.3278	0.	124.96
2917	-4.4565	1.2708	0.	124.43
2918	-4.4911	0.78332	0.	123.24
2919	-4.2256	1.0103	0.	122.6
2920	-4.6997	1.0268	0.	125.53
2921	-4.6881	1.5157	0.	127.05
2922	-4.4505	1.7604	0.	124.9
2923	-1.0827	7.022	0.	129.53
2924	-0.89212	7.2515	0.	129.88
2925	-0.94063	6.7821	0.	127.11
2926	-0.65078	6.9781	0.	128.04
2927	-1.3093	4.72	0.	130.05
2928	-1.0187	4.4826	0.	129.82
2929	7.0287	3.3064	0.	116.75
2930	7.2604	3.5524	0.	118.26
2931	6.7197	3.5584	0.	116.98
2932	7.0954	2.8093	0.	116.02
2933	7.3078	3.0606	0.	117.98
2934	6.8049	3.0338	0.	116.99
2935	7.762	4.0302	0.	122.62
2936	7.5116	4.2736	0.	122.61
2937	7.5158	3.7905	0.	120.33
2938	-7.4668	-3.7181	0.	123.47
2939	-7.7121	-3.9683	0.	124.01
2940	-7.4491	-4.2077	0.	122.74
2941	-7.4754	-3.2258	0.	123.69
2942	-7.7256	-3.477	0.	124.41
2943	-7.2209	-3.4696	0.	123.36
2944	-7.7301	-2.9818	0.	124.62
2945	-7.4765	-2.7291	0.	123.73
2946	-7.2241	-2.9752	0.	123.09
2947	-7.4566	-1.2281	0.	127.23
2948	-7.7202	-1.4682	0.	127.39
2949	-7.4689	-1.7278	0.	124.98
2950	-7.3948	-0.74724	0.	128.91
2951	-7.7082	-0.94407	0.	130.2
2952	-1.1479	6.7908	0.	128.07
2953	-1.336	7.2686	0.	130.88
2954	-1.5121	7.0143	0.	129.64
2955	-0.85447	-5.3971	0.	131.94
2956	-1.1203	-5.5903	0.	132.41
2957	-0.94659	-5.9144	0.	131.82
2958	-0.65035	-5.5025	0.	130.92
2959	-0.59371	-5.8306	0.	133.6
2960	-6.892	1.9758	0.	121.55
2961	-6.6276	1.7577	0.	116.33
2962	-7.0727	1.6006	0.	124.59
2963	-6.8403	1.4106	0.	118.38
2964	0.9973	-4.6906	0.	129.18
2965	0.79706	-4.6579	0.	127.53
2966	7.2903	-4.9485	0.	120.95
2967	7.0503	-5.1479	0.	120.21
2968	5.5225	-2.2331	0.	125.17
2969	5.7923	-2.4752	0.	124.81
2970	5.5438	-2.722	0.	124.77
2971	5.2822	-2.4774	0.	125.36
2972	5.4896	-1.7467	0.	125.48
2973	5.7641	-1.9909	0.	124.94
2974	5.257	-1.9877	0.	125.67
2975	3.7639	-5.9764	0.	119.32
2976	4.2627	-5.9735	0.	119.61
2977	4.0096	-6.2317	0.	117.32
2978	-4.7303	3.	0.	118.62
2979	-5.2313	2.9878	0.	117.07
2980	-4.9864	3.2471	0.	116.58
2981	-4.7401	0.53696	0.	124.13
2982	-4.5425	0.29608	0.	123.85
2983	-4.9487	0.78047	0.	126.4
2984	-5.1878	0.52893	0.	130.03
2985	-4.9809	0.28442	0.	126.88
2986	6.5779	-3.1969	0.	121.81
2987	6.829	-3.4425	0.	120.54
2988	6.5772	-3.6951	0.	121.07
2989	-6.7047	-5.8153	0.	122.55
2990	-6.9429	-5.9534	0.	117.22
2991	4.7772	7.3793	0.	130.15
2992	4.274	7.3675	0.	129.56
2993	4.5237	7.6304	0.	129.27
2994	4.5665	7.072	0.	129.66
2995	5.0735	7.1617	0.	131.8
2996	5.2785	7.3373	0.	130.45
2997	5.0215	7.6463	0.	129.39
2998	5.4545	-1.2598	0.	126.54
2999	5.7208	-1.5112	0.	124.47
3000	5.2238	-1.5001	0.	126.21
3001	5.1928	-1.0084	0.	127.57
3002	4.9452	-0.75262	0.	128.14
3003	4.7027	-0.99868	0.	127.46
3004	4.9621	-1.2487	0.	127.26
3005	-5.9575	-2.2126	0.	120.32
3006	-5.6944	-2.4649	0.	123.75
3007	-4.1673	-0.15149	0.	121.61
3008	-3.9743	-2.9069e-002	0.	118.44
3009	-4.3661	5.7394e-002	0.	122.8
3010	-1.7029	0.50023	0.	122.42
3011	-1.9514	0.74939	0.	122.29
3012	-2.1792	0.49553	0.	121.43
3013	-1.943	0.24796	0.	121.05
3014	-2.9105	4.6627	0.	120.4
3015	-3.1661	4.9005	0.	125.07
3016	-2.9171	5.0957	0.	119.04
3017	-2.6398	4.917	0.	117.33
3018	5.8108	4.7684	0.	123.43
3019	6.0592	4.9731	0.	117.07
3020	6.037	4.4811	0.	118.68
3021	4.8626	4.8523	0.	133.76
3022	4.6212	5.0961	0.	131.83
3023	4.6136	4.617	0.	132.96
3024	4.7764	-5.4593	0.	122.34
3025	4.519	-5.717	0.	121.27
3026	-1.1213	-5.0466	0.	131.02
3027	-1.3872	-5.2399	0.	131.51
3028	-1.6545	-4.9717	0.	130.76
3029	-3.5285	-4.1805	0.	119.46
3030	-3.2628	-4.4538	0.	120.57
3031	-3.5099	-4.704	0.	118.04
3032	-2.2426	-4.4828	0.	127.06
3033	-1.9652	-4.7327	0.	129.39
3034	-5.7275	-4.4859	0.	126.61
3035	-5.961	-4.7389	0.	128.04
3036	-6.2114	-4.4711	0.	125.78
3037	-4.7595	-4.4843	0.	121.98
3038	-4.5055	-4.7289	0.	119.12
3039	3.2667	-5.4697	0.	124.76
3040	3.5162	-5.7239	0.	121.57
3041	-3.2319	2.4961	0.	126.1
3042	-2.987	2.7425	0.	126.97
3043	-2.7385	2.4923	0.	126.27
3044	-2.9817	2.2417	0.	125.45
3045	-4.2193	2.5018	0.	123.55
3046	-4.4733	2.753	0.	121.35
3047	-4.46	2.2547	0.	123.61
3048	-2.4943	3.2256	0.	126.19
3049	-2.7425	2.9855	0.	127.14
3050	-2.4939	2.7354	0.	126.45
3051	-5.4447	2.2315	0.	121.4
3052	-5.7077	2.453	0.	118.56
3053	-5.4705	2.728	0.	118.2
3054	-7.1363	2.1748	0.	125.32
3055	-6.6889	2.3095	0.	120.7
3056	-6.9898	2.5476	0.	124.53
3057	1.7475	-1.4984	0.	126.62
3058	1.9945	-1.248	0.	127.74
3059	2.4864	-0.74892	0.	127.54
3060	2.7343	-0.99741	0.	127.32
3061	2.2397	-0.99861	0.	127.92
3062	2.4993	1.7143	0.	128.84
3063	2.2494	1.9521	0.	129.25
3064	2.4979	2.1953	0.	128.96
3065	2.4931	0.73956	0.	127.08
3066	2.2428	0.49286	0.	126.88
3067	2.7384	0.49452	0.	126.5
3068	2.489	0.24552	0.	126.77
3069	1.7442	2.4178	0.	127.4
3070	1.9968	2.1847	0.	128.77
3071	1.9864	2.6548	0.	127.47
3072	2.2453	2.4279	0.	128.48
3073	-0.76045	2.5052	0.	127.56
3074	-1.0035	2.251	0.	128.19
3075	-1.2566	2.4957	0.	127.59
3076	0.24116	2.5056	0.	124.57
3077	0.49298	2.2437	0.	122.46
3078	0.49973	2.7647	0.	124.63
3079	0.74161	2.4657	0.	124.19
3080	-1.2205	0.5011	0.	124.52
3081	-1.4678	0.7512	0.	123.92
3082	-1.4632	0.25009	0.	122.73
3083	-1.489	1.7487	0.	126.66
3084	-1.2459	1.9993	0.	127.8
3085	-1.4991	2.244	0.	127.2
3086	-1.2448	-3.5268	0.	126.84
3087	-1.7467	-3.5021	0.	125.28
3088	-1.4931	-3.2609	0.	124.92
3089	0.50274	-1.7652	0.	123.98
3090	0.75062	-1.5087	0.	123.33
3091	0.50089	-1.259	0.	121.67
3092	0.25196	-1.5121	0.	123.44
3093	0.5188	-2.7974	0.	127.99
3094	0.77587	-3.0343	0.	128.23
3095	0.27696	-3.0649	0.	129.14
3096	6.9033	2.5391	0.	115.62
3097	6.7042	2.2668	0.	114.11
3098	6.6128	2.7636	0.	116.6
3099	6.4631	2.4791	0.	117.86
3100	-0.67375	7.4693	0.	130.76
3101	-1.1453	7.4981	0.	131.27
3102	-0.92502	7.7369	0.	131.4
3103	-0.66314	5.9819	0.	126.75
3104	-0.13567	5.9372	0.	124.84
3105	-0.38479	5.7142	0.	127.21
3106	-0.42294	6.2083	0.	125.09
3107	-0.43242	7.1959	0.	128.89
3108	-0.44941	7.7056	0.	130.65
3109	-0.19977	7.4454	0.	130.81
3110	3.4402	5.6227	0.	127.41
3111	3.4509	6.0752	0.	125.61
3112	3.7488	5.7994	0.	125.9
3113	3.2936	5.8692	0.	126.36
3114	4.0129	7.6394	0.	129.25
3115	4.0147	7.1056	0.	128.39
3116	3.7562	7.3876	0.	130.12
3117	7.3173	-3.9494	0.	120.36
3118	7.0752	-3.6922	0.	119.99
3119	6.8234	-3.9449	0.	120.52
3120	7.5567	-4.2084	0.	120.88
3121	7.8054	-3.9634	0.	121.47
3122	7.567	-3.698	0.	119.96
3123	7.543	-4.7141	0.	121.36
3124	7.7943	-4.4768	0.	122.2
3125	7.5125	-5.2108	0.	121.35
3126	7.7779	-4.9935	0.	122.74
3127	-7.5182	2.764	0.	128.56
3128	-7.4209	2.3143	0.	128.12
3129	-7.7444	2.4791	0.	129.65
3130	-7.2744	2.6871	0.	127.33
3131	-7.5243	3.2266	0.	128.55
3132	-7.778	2.9747	0.	129.18
3133	-7.2965	2.9086	0.	127.46
3134	-7.4733	6.2878	0.	127.51
3135	-7.7141	6.0291	0.	127.47
3136	-7.1965	6.0392	0.	129.28
3137	-7.4478	5.7797	0.	128.75
3138	-7.5047	6.7926	0.	126.93
3139	-7.2428	6.55	0.	127.08
3140	-7.7409	6.5334	0.	126.49
3141	-7.317	1.7996	0.	128.35
3142	-7.5551	2.0219	0.	129.67
3143	-5.2074	-2.9843	0.	126.18
3144	-5.4461	-2.7177	0.	125.65
3145	6.0546	-2.7169	0.	124.1
3146	6.3185	-2.9545	0.	123.02
3147	5.8062	-2.9636	0.	124.06
3148	-3.7278	0.94765	0.	120.97
3149	-1.7163	1.0004	0.	123.79
3150	-2.2041	0.99444	0.	122.47
3151	-0.78064	-4.9001	0.	129.97
3152	-0.4868	-4.7938	0.	128.01
3153	-0.59138	-4.4127	0.	128.63
3154	0.46477	-4.7848	0.	125.99
3155	0.20031	-4.9358	0.	123.16
3156	1.2828	-4.9501	0.	131.06
3157	1.5076	-5.2001	0.	133.88
3158	1.7597	-4.9536	0.	132.23
3159	0.85349	-4.9178	0.	128.11
3160	1.031	-5.1988	0.	131.24
3161	-2.4996	-4.2304	0.	125.17
3162	-2.5002	-3.7313	0.	124.2
3163	-2.7593	-3.9693	0.	123.24
3164	-3.8169	-3.8859	0.	120.12
3165	-4.0439	-3.5776	0.	120.55
3166	-4.3294	-3.6925	0.	121.72
3167	5.1732	1.9667	0.	130.07
3168	4.9441	1.7233	0.	130.31
3169	4.7049	1.9716	0.	130.25
3170	6.0727	1.9842	0.	123.6
3171	6.2941	1.7828	0.	121.03
3172	6.5147	2.0077	0.	116.3
3173	6.2736	2.22	0.	120.04
3174	4.4539	-0.24963	0.	126.55
3175	4.6963	-0.50113	0.	127.7
3176	4.4539	-0.74718	0.	127.03
3177	4.2048	-0.49791	0.	126.63
3178	4.4674	1.2372	0.	128.03
3179	4.7053	1.4809	0.	129.56
3180	4.4661	1.7291	0.	129.49
3181	0.56373	4.0884	0.	127.81
3182	6.981e-002	4.0387	0.	129.28
3183	0.28359	4.284	0.	129.65
3184	3.3282	5.1932	0.	130.36
3185	3.1543	5.4474	0.	129.8
3186	3.5824	5.3703	0.	129.05
3187	3.1774	4.3287	0.	131.39
3188	2.9196	4.1614	0.	129.95
3189	1.1182	3.7136	0.	124.56
3190	0.8439	3.9	0.	126.16
3191	2.4493	3.8198	0.	126.6
3192	2.6699	4.0083	0.	128.37
3193	2.5476	3.608	0.	127.6
3194	-6.1588	1.8781	0.	114.41
3195	-6.4245	2.0914	0.	115.57
3196	-6.3778	1.5724	0.	111.4
3197	-4.9354	1.7619	0.	127.39
3198	-5.1863	1.9962	0.	124.58
3199	-4.6978	2.0066	0.	125.24
3200	-0.96462	6.2764	0.	126.81
3201	-1.2713	6.5278	0.	132.91
3202	-0.72442	6.5028	0.	125.17
3203	-1.0833	4.9729	0.	131.89
3204	-0.84747	5.2278	0.	132.07
3205	-0.7927	4.7354	0.	131.71
3206	-0.57038	4.9799	0.	131.87
3207	-1.3588	5.2205	0.	136.32
3208	-1.6047	4.9621	0.	127.13
3209	-1.1651	5.9964	0.	127.65
3210	-0.8971	5.7396	0.	129.76
3211	-4.9314	1.2717	0.	128.11
3212	-5.161	1.0254	0.	129.34
3213	-5.1661	1.5104	0.	132.72
3214	-5.6751	1.9569	0.	119.97
3215	-5.417	1.7446	0.	130.1
3216	-5.9381	2.1785	0.	117.12
3217	-5.9008	1.6948	0.	114.25
3218	7.983	5.752	0.	118.13
3219	8.2264	6.0008	0.	116.63
3220	7.7183	6.0167	0.	121.4
3221	7.9956	6.2539	0.	116.41
3222	7.9943	5.2507	0.	123.2
3223	8.2339	5.4995	0.	120.74
3224	7.7468	5.4919	0.	121.82
3225	8.0039	4.7565	0.	125.98
3226	8.246	5.0007	0.	124.89
3227	7.7593	4.9976	0.	130.2
3228	8.0106	4.2705	0.	125.41
3229	8.2552	4.5109	0.	126.24
3230	7.7602	4.5139	0.	125.37
3231	8.0204	3.7863	0.	123.74
3232	8.2631	4.0246	0.	125.21
3233	8.0399	3.3028	0.	123.08
3234	8.2759	3.5393	0.	124.49
3235	7.7741	3.5466	0.	121.44
3236	8.0699	2.8193	0.	123.54
3237	8.2977	3.0548	0.	124.53
3238	7.8054	3.0628	0.	121.13
3239	2.04	3.812	0.	124.17
3240	2.2457	4.0419	0.	124.41
3241	2.3511	3.6202	0.	126.26
3242	1.5929	3.7711	0.	123.34
3243	1.3279	3.973	0.	122.92
3244	1.8001	4.0188	0.	121.68
3245	1.8772	3.5684	0.	124.2
3246	3.244	4.7602	0.	131.64
3247	2.975	4.5866	0.	131.2
3248	3.439	4.4992	0.	132.02
3249	3.0447	5.0176	0.	131.03
3250	0.1362	5.6709	0.	126.93
3251	0.37764	5.4316	0.	129.63
3252	-0.11291	5.4479	0.	129.33
3253	0.16404	5.2022	0.	130.42
3254	4.4686	0.74269	0.	126.41
3255	4.7143	0.98692	0.	127.37
3256	4.4633	0.24716	0.	125.93
3257	4.7201	0.4925	0.	126.04
3258	4.2204	0.49464	0.	125.81
3259	4.7081	-2.8527e-003	0.	126.58
3260	4.2118	-3.7744e-004	0.	126.01
3261	5.6268	1.9671	0.	128.3
3262	5.858	1.7397	0.	128.31
3263	5.4073	1.722	0.	131.16
3264	-3.5176	-3.6635	0.	120.14
3265	-3.2759	-3.9385	0.	120.99
3266	0.58956	-5.1672	0.	124.7
3267	-0.6693	-5.2352	0.	130.01
3268	2.0007	-5.7046	0.	133.62
3269	2.2521	-5.9582	0.	132.56
3270	2.0014	-6.1994	0.	133.04
3271	1.7438	-5.9505	0.	134.4
3272	2.2567	-5.4596	0.	132.02
3273	1.7535	-5.4534	0.	134.38
3274	2.0057	-5.2068	0.	132.75
3275	-3.5816	0.65207	0.	119.74
3276	-3.3936	0.65337	0.	119.88
3277	-3.2072	0.93312	0.	120.8
3278	6.0338	-2.233	0.	124.57
3279	5.9953	-1.7555	0.	123.92
3280	6.2818	-1.9882	0.	124.29
3281	6.3088	-2.4663	0.	124.4
3282	-4.712	-3.0553	0.	125.48
3283	-4.9167	-2.7189	0.	128.61
3284	-4.2294	-3.2083	0.	122.55
3285	-4.4187	-2.8733	0.	125.65
3286	-4.5149	-3.3232	0.	123.72
3287	-7.5038	1.4932	0.	131.51
3288	-7.2787	1.2209	0.	129.14
3289	-7.9389	1.4693	0.	134.12
3290	-7.7166	1.2189	0.	137.26
3291	-7.742	1.7155	0.	132.84
3292	-7.5542	-0.48705	0.	131.72
3293	-7.8677	-0.68387	0.	133.1
3294	-7.9622	-0.45024	0.	133.15
3295	-7.7563	-0.23185	0.	134.59
3296	-7.3312	-0.28696	0.	134.87
3297	-7.1299	-0.52059	0.	124.26
3298	-7.525	7.2965	0.	127.78
3299	-7.5296	7.7942	0.	128.69
3300	-7.2882	7.5562	0.	129.9
3301	-7.7758	7.5397	0.	127.75
3302	-7.2776	7.0556	0.	128.
3303	-7.764	7.0373	0.	126.63
3304	7.2725	-5.4102	0.	120.6
3305	7.7369	-5.523	0.	123.1
3306	7.4175	-5.6883	0.	120.67
3307	6.8048	-5.4336	0.	120.65
3308	6.9983	-5.5696	0.	119.41
3309	4.2192	6.2979	0.	125.56
3310	3.6843	6.3122	0.	125.38
3311	3.9821	6.0365	0.	125.66
3312	3.9913	6.5738	0.	126.32
3313	-0.18715	6.9267	0.	128.22
3314	-0.43458	6.6988	0.	126.07
3315	7.371	2.5712	0.	117.37
3316	7.848	2.5791	0.	121.76
3317	7.6323	2.34	0.	120.04
3318	7.5835	2.8225	0.	119.34
3319	7.1603	2.3173	0.	114.21
3320	8.1047	2.3349	0.	125.77
3321	8.3262	2.5689	0.	125.57
3322	0.5069	-2.2756	0.	126.29
3323	0.26099	-2.5361	0.	128.5
3324	0.25448	-2.0212	0.	126.11
3325	-0.74041	-3.5635	0.	128.33
3326	-0.99004	-3.2879	0.	127.6
3327	-1.2374	1.5013	0.	127.49
3328	-1.4784	1.2508	0.	125.42
3329	-0.26105	2.5122	0.	126.27
3330	-7.2978e-003	2.2598	0.	124.74
3331	-1.976e-002	2.7699	0.	125.94
3332	-0.50693	2.2576	0.	127.72
3333	1.4944	2.181	0.	127.63
3334	1.2419	2.4245	0.	125.62
3335	2.246	0.98416	0.	128.08
3336	2.4967	1.229	0.	128.03
3337	2.238	-0.50054	0.	128.22
3338	2.4862	-0.25127	0.	127.16
3339	1.249	-1.5032	0.	124.93
3340	0.9989	-1.2555	0.	123.5
3341	1.4968	-1.2508	0.	126.69
3342	-6.2038	2.3918	0.	118.16
3343	-6.4772	2.6231	0.	120.88
3344	-5.9723	2.6848	0.	118.69
3345	-7.5004	3.7246	0.	128.23
3346	-7.7425	3.9879	0.	128.11
3347	-7.2437	3.9716	0.	128.08
3348	-7.4845	4.2403	0.	128.09
3349	-7.757	3.475	0.	128.65
3350	-7.2598	3.443	0.	128.26
3351	-2.4782	3.7154	0.	124.47
3352	-2.2533	3.4645	0.	125.73
3353	-2.7386	3.4752	0.	126.72
3354	-2.715	3.9639	0.	124.25
3355	-3.7253	2.4985	0.	125.21
3356	-3.9769	2.7502	0.	124.64
3357	-3.9672	2.248	0.	124.41
3358	-3.4813	2.7472	0.	126.91
3359	2.7618	-5.4658	0.	128.65
3360	3.0119	-5.7205	0.	126.25
3361	2.5082	-5.7131	0.	130.97
3362	-5.2447	-4.491	0.	125.18
3363	-4.9941	-4.7412	0.	124.07
3364	-5.4782	-4.7437	0.	127.94
3365	-2.7505	-4.4729	0.	124.04
3366	-2.4837	-4.7301	0.	127.12
3367	-2.9989	-4.72	0.	122.47
3368	-3.0101	-4.2118	0.	122.1
3369	-1.4441	-5.7512	0.	131.03
3370	-1.6627	-6.2137	0.	128.63
3371	-1.2704	-6.0753	0.	130.52
3372	-1.726	-5.9686	0.	130.11
3373	-1.6736	-5.4952	0.	131.6
3374	-1.9019	-6.718	0.	127.62
3375	-1.7208	-7.0324	0.	127.35
3376	-2.2171	-6.9904	0.	130.56
3377	-1.9961	-7.2535	0.	128.76
3378	5.2746	-5.4533	0.	123.2
3379	5.5013	-5.7018	0.	124.03
3380	5.7739	-5.457	0.	123.2
3381	5.0116	-5.7088	0.	123.44
3382	5.3344	4.8306	0.	131.33
3383	5.0966	5.0986	0.	135.81
3384	5.0829	4.6035	0.	132.72
3385	5.5804	5.0719	0.	131.42
3386	4.5725	5.5742	0.	128.79
3387	4.8552	5.3424	0.	134.
3388	4.5003	6.0488	0.	126.49
3389	4.6972	6.3036	0.	127.
3390	4.5351	6.5342	0.	127.73
3391	4.7939	5.8291	0.	127.08
3392	4.2632	5.7874	0.	126.58
3393	-7.7112	5.016	0.	128.43
3394	-7.2001	5.0136	0.	130.22
3395	-7.4654	4.7579	0.	128.6
3396	-7.4469	5.2705	0.	129.2
3397	0.41994	5.9039	0.	130.61
3398	0.66138	5.6646	0.	133.25
3399	0.88067	5.6985	0.	131.37
3400	0.63959	6.153	0.	128.56
3401	6.3259	1.3663	0.	120.03
3402	6.5181	1.5255	0.	117.06
3403	6.0795	1.5383	0.	125.72
3404	1.5543	-6.7117	0.	130.99
3405	1.7412	-6.4559	0.	131.93
3406	1.4836	-6.207	0.	133.24
3407	1.2345	-6.4032	0.	132.54
3408	1.2804	-6.5845	0.	135.81
3409	7.9273	-6.0766	0.	125.92
3410	7.8571	-5.8302	0.	124.43
3411	7.5377	-5.9955	0.	121.99
3412	7.6724	-6.3402	0.	124.71
3413	6.748	-5.6389	0.	120.02
3414	6.4697	-5.7572	0.	123.3
3415	6.2892	-5.4829	0.	122.11
3416	-4.4855	3.2516	0.	118.58
3417	-4.2309	3.0014	0.	122.43
3418	3.2614	-5.9747	0.	123.05
3419	3.5094	-6.232	0.	117.9
3420	-4.7401	-4.9859	0.	121.21
3421	-4.4927	-5.2356	0.	116.2
3422	-4.2483	-4.9737	0.	116.63
3423	-1.5738	-6.5287	0.	127.37
3424	-1.9056	-6.1962	0.	128.65
3425	-2.1336	-6.4605	0.	129.01
3426	-1.1815	-6.3903	0.	129.23
3427	-0.82466	-6.2771	0.	137.85
3428	8.0584	-6.7826	0.	126.87
3429	8.2907	-7.0443	0.	129.74
3430	8.1392	-7.2223	0.	132.34
3431	7.8084	-6.815	0.	125.29
3432	8.1193	-6.314	0.	128.37
3433	8.3441	-6.5473	0.	130.49
3434	7.8644	-6.5775	0.	127.17
3435	8.0541	-5.8363	0.	126.53
3436	8.3436	-6.0625	0.	129.2
3437	8.0023	-5.3056	0.	124.49
3438	8.2506	-5.5635	0.	126.67
3439	8.268	-5.0214	0.	125.4
3440	8.0292	-4.7561	0.	123.58
3441	8.0541	-3.7145	0.	121.94
3442	8.2918	-3.9803	0.	123.84
3443	8.043	-4.2317	0.	122.79
3444	-5.7101	-1.958	0.	121.12
3445	-5.9657	-1.7026	0.	117.47
3446	-2.234	-2.9927	0.	123.77
3447	-1.9879	-2.7485	0.	122.31
3448	-1.9923	-3.246	0.	123.74
3449	-1.7386	-3.0048	0.	123.36
3450	-4.3706	-0.39792	0.	126.05
3451	-3.9777	-0.24325	0.	119.38
3452	-4.138	-0.58679	0.	123.29
3453	5.4357	-0.76735	0.	129.35
3454	5.6811	-1.0289	0.	126.
3455	6.2224	-1.5228	0.	122.67
3456	5.9475	-1.2803	0.	123.93
3457	0.74917	-1.0057	0.	121.82
3458	0.25142	-1.007	0.	122.53
3459	0.50039	-0.75494	0.	117.64
3460	5.3297	7.1018	0.	131.67
3461	5.2564	6.6736	0.	133.63
3462	4.8628	6.8545	0.	131.28
3463	-1.4049	7.7516	0.	131.82
3464	-1.6294	7.5009	0.	132.09
3465	-7.5241	8.2862	0.	128.32
3466	-7.2811	8.0461	0.	129.84
3467	-7.7748	8.0352	0.	128.04
3468	-5.2441	7.9643	0.	116.88
3469	-5.777	8.0198	0.	117.73
3470	-5.5079	8.248	0.	117.27
3471	-5.5646	7.7528	0.	112.95
3472	-4.715	7.9996	0.	123.22
3473	-4.7555	7.7963	0.	123.55
3474	-4.9771	8.2073	0.	120.3
3475	-5.0577	7.6671	0.	116.31
3476	-4.2143	8.0436	0.	129.87
3477	-4.5007	7.8649	0.	127.82
3478	-4.4676	8.2916	0.	126.62
3479	-3.6996	7.9733	0.	131.41
3480	-4.0303	7.7841	0.	133.74
3481	-3.9644	8.2628	0.	130.3
3482	-3.1738	7.9873	0.	125.73
3483	-3.4419	8.2057	0.	128.9
3484	-3.2036	7.778	0.	127.79
3485	-3.5376	7.6696	0.	133.15
3486	-1.1846	7.9904	0.	131.97
3487	-1.676	7.9967	0.	130.58
3488	-1.4412	8.2457	0.	130.89
3489	-0.70067	7.9731	0.	131.3
3490	-0.95218	8.2352	0.	130.94
3491	-0.21998	7.9548	0.	130.55
3492	-0.46782	8.218	0.	130.49
3493	1.5509e-002	8.206	0.	129.5
3494	2.9654e-002	7.6947	0.	130.71
3495	0.26263	7.9499	0.	128.93
3496	1.7309	7.9717	0.	118.51
3497	1.4836	8.2207	0.	120.18
3498	1.2353	7.9617	0.	120.82
3499	1.4824	7.7175	0.	116.06
3500	2.2335	7.9728	0.	120.93
3501	1.9788	7.7259	0.	116.18
3502	1.9844	8.2265	0.	120.21
3503	2.7391	7.9617	0.	125.49
3504	2.4826	7.7186	0.	123.5
3505	2.4893	8.2209	0.	123.66
3506	3.2469	7.9393	0.	128.47
3507	2.9879	7.6986	0.	129.44
3508	2.9947	8.2074	0.	127.11
3509	3.7558	7.9151	0.	129.21
3510	3.5021	8.1846	0.	128.59
3511	3.499	7.6634	0.	130.09
3512	4.2627	7.9023	0.	128.97
3513	4.0086	8.1683	0.	128.6
3514	4.5127	8.1624	0.	128.16
3515	4.768	7.8975	0.	128.49
3516	-7.8587	-5.1599	0.	122.15
3517	-8.0695	-5.3754	0.	125.93
3518	-7.8198	-5.5969	0.	117.55
3519	-7.9154	-4.6967	0.	123.65
3520	-8.147	-4.9446	0.	125.86
3521	-7.6435	-4.9378	0.	121.59
3522	-7.9519	-4.2163	0.	124.48
3523	-8.1956	-4.4713	0.	125.81
3524	-7.6888	-4.4557	0.	123.2
3525	-7.971	-3.7271	0.	124.95
3526	-8.2181	-3.981	0.	125.91
3527	-7.9804	-3.233	0.	125.33
3528	-8.2306	-3.4859	0.	126.12
3529	-7.9819	-2.7345	0.	125.78
3530	-8.2343	-2.9873	0.	126.43
3531	-7.9793	-2.2311	0.	126.6
3532	-8.2331	-2.4855	0.	126.97
3533	-7.7282	-2.4817	0.	124.9
3534	-7.9757	-1.7187	0.	128.1
3535	-8.2306	-1.9798	0.	127.95
3536	-7.7244	-1.9783	0.	125.69
3537	-7.9718	-1.1842	0.	130.39
3538	-8.2297	-1.4672	0.	129.49
3539	-8.0642	-0.67523	0.	131.76
3540	-8.2385	-0.94048	0.	131.2
3541	-8.1676	-0.21048	0.	129.84
3542	-8.3691	-0.46102	0.	130.85
3543	-8.1741	0.25841	0.	128.47
3544	-7.9618	7.9045e-003	0.	131.37
3545	-8.397	1.6504e-002	0.	128.01
3546	-8.1664	0.73849	0.	130.69
3547	-7.9494	0.48149	0.	127.73
3548	-8.3973	0.49875	0.	128.55
3549	-8.1597	1.2231	0.	133.17
3550	-7.9375	0.97271	0.	136.39
3551	-8.3896	0.98569	0.	131.37
3552	-8.1572	1.7009	0.	133.33
3553	-8.3843	1.4732	0.	133.05
3554	-8.0744	2.1761	0.	131.7
3555	-8.3707	1.9553	0.	132.24
3556	-7.9603	1.9471	0.	132.04
3557	-8.0042	2.6898	0.	130.27
3558	-8.2576	2.4436	0.	130.97
3559	-7.8786	2.1868	0.	131.2
3560	-8.0107	3.2231	0.	129.27
3561	-8.2624	2.9705	0.	129.83
3562	-7.9991	3.7383	0.	128.54
3563	-8.2538	3.4857	0.	128.95
3564	-7.9864	4.2501	0.	128.03
3565	-8.2431	3.9962	0.	128.2
3566	-7.9741	4.7605	0.	127.84
3567	-7.7283	4.5025	0.	128.01
3568	-8.2328	4.5055	0.	127.71
3569	-7.9655	5.2673	0.	127.68
3570	-8.2235	5.0131	0.	127.45
3571	-7.9676	5.7711	0.	127.17
3572	-8.2203	5.5168	0.	127.05
3573	-7.7012	5.5218	0.	128.44
3574	-8.2278	6.0196	0.	126.38
3575	-7.9817	6.2747	0.	126.45
3576	5.7704	7.8956	0.	125.96
3577	5.5164	8.1422	0.	126.02
3578	5.5284	7.5708	0.	128.52
3579	5.2714	7.8798	0.	127.43
3580	0.15487	-8.0043	0.	117.65
3581	0.66478	-8.0275	0.	121.6
3582	0.42149	-8.2643	0.	119.03
3583	0.40989	-7.7878	0.	110.64
3584	-9.0141e-002	-8.2361	0.	121.24
3585	-7.9862e-002	-7.7418	0.	117.71
3586	-0.37823	-7.9546	0.	125.39
3587	-1.1333	-7.8596	0.	133.14
3588	-0.89064	-7.9958	0.	131.6
3589	-1.0987	-8.2946	0.	131.76
3590	-1.3546	-8.0567	0.	132.2
3591	-6.3144	-5.9405	0.	128.9
3592	-6.5354	-6.1119	0.	123.14
3593	2.7171	4.4193	0.	129.76
3594	2.4662	4.2304	0.	126.18
3595	1.0536	4.1595	0.	124.52
3596	0.78119	4.346	0.	127.97
3597	4.9505	-0.25435	0.	127.73
3598	5.1881	-0.51153	0.	129.9
3599	4.9521	1.2306	0.	128.88
3600	5.1782	1.4787	0.	131.38
3601	-3.7446	-3.3552	0.	120.57
3602	-3.9495	-3.0528	0.	119.61
3603	-0.37546	-5.1289	0.	128.05
3604	-8.0705e-002	-5.0522	0.	123.94
3605	-3.5052	0.40415	0.	119.16
3606	-3.739	0.14102	0.	117.62
3607	-2.6475	0.48102	0.	121.
3608	-2.4131	0.24145	0.	121.64
3609	-2.432	0.74058	0.	121.61
3610	6.5727	-2.704	0.	123.33
3611	6.8297	-2.9412	0.	120.83
3612	-7.0157	6.813	0.	128.12
3613	-6.7545	6.5828	0.	131.69
3614	-6.9661	6.3014	0.	128.85
3615	-4.3167	7.6054	0.	131.67
3616	-4.6231	7.4511	0.	123.87
3617	7.3249	-3.4408	0.	119.58
3618	7.0809	-3.1867	0.	119.56
3619	7.8157	-3.4492	0.	120.42
3620	7.5788	-3.1823	0.	118.53
3621	8.3027	-3.4671	0.	123.28
3622	8.0686	-3.1967	0.	120.76
3623	2.2279	7.4717	0.	118.75
3624	1.9727	7.2289	0.	109.84
3625	1.7303	7.4717	0.	113.53
3626	0.1056	6.1611	0.	125.11
3627	6.7387	1.7505	0.	112.29
3628	6.9612	2.045	0.	112.61
3629	8.1378	1.8509	0.	128.26
3630	7.889	2.0959	0.	124.05
3631	8.3554	2.0815	0.	127.86
3632	3.7032e-003	-1.7681	0.	125.56
3633	2.4962e-003	-1.2602	0.	124.33
3634	-0.24756	-1.5117	0.	126.92
3635	1.9956	0.73745	0.	127.87
3636	1.7456	0.49257	0.	129.1
3637	1.9932	0.24418	0.	127.65
3638	-5.735	2.9598	0.	118.32
3639	-5.4886	3.2317	0.	115.47
3640	-7.032	3.1251	0.	127.17
3641	-6.778	2.8613	0.	124.65
3642	-2.9493	4.2032	0.	123.4
3643	-3.1996	4.4488	0.	125.46
3644	-5.7117	-4.9967	0.	129.34
3645	-5.9483	-5.2711	0.	130.98
3646	-3.2459	-4.9702	0.	119.95
3647	-3.4977	-5.2246	0.	115.15
3648	-3.7509	-4.9661	0.	116.15
3649	-1.9409	-5.2271	0.	130.86
3650	-2.2063	-4.98	0.	129.41
3651	8.1447	0.40614	0.	121.22
3652	8.3847	0.61327	0.	123.77
3653	7.9586	0.67251	0.	124.36
3654	8.1699	0.88588	0.	123.63
3655	8.3367	0.13062	0.	125.29
3656	7.9254	0.19311	0.	120.8
3657	8.0805	-7.1241e-002	0.	119.2
3658	1.7667	-7.1846	0.	131.43
3659	1.8365	-6.9402	0.	130.76
3660	1.4322	-7.0246	0.	128.45
3661	-1.0662	-7.4425	0.	133.5
3662	-0.8976	-7.7873	0.	132.39
3663	-1.3629	-7.6045	0.	132.22
3664	4.7542	-5.9666	0.	122.37
3665	4.5037	-6.228	0.	119.95
3666	5.7128	-5.9564	0.	124.72
3667	6.1659	-5.9858	0.	125.09
3668	5.9169	-6.2078	0.	123.2
3669	5.9854	-5.7116	0.	123.9
3670	-6.9622	4.7493	0.	129.74
3671	-6.9868	4.225	0.	128.1
3672	-6.7337	4.4838	0.	129.03
3673	-7.2276	4.4937	0.	128.11
3674	-6.7089	4.9949	0.	132.79
3675	-6.918	5.268	0.	131.97
3676	4.9908	6.0839	0.	127.54
3677	5.1566	6.3713	0.	131.18
3678	4.763	6.5522	0.	128.81
3679	5.0765	5.5973	0.	132.21
3680	5.3425	5.3399	0.	135.63
3681	5.2383	-5.9573	0.	124.26
3682	5.46	-6.202	0.	125.66
3683	4.9872	-6.2187	0.	125.64
3684	-1.3927	-6.8431	0.	127.1
3685	-1.0649	-6.7057	0.	122.73
3686	-1.2362	-7.152	0.	129.88
3687	-1.5328	-7.314	0.	128.53
3688	0.93032	-8.2716	0.	127.32
3689	0.89945	-7.8037	0.	130.67
3690	1.1734	-8.0188	0.	131.17
3691	1.9718	-7.1676	0.	131.67
3692	1.6374	-7.47	0.	136.1
3693	2.1842	-7.4405	0.	133.57
3694	1.9232	-7.689	0.	133.61
3695	-1.9555	-5.7126	0.	130.66
3696	-2.2187	-5.9661	0.	130.17
3697	-2.2055	-5.4774	0.	131.49
3698	-2.9889	-5.2297	0.	123.63
3699	-2.7321	-4.9773	0.	125.54
3700	-5.2275	-4.9939	0.	126.83
3701	-4.9795	-5.2423	0.	125.03
3702	-5.4592	-5.249	0.	132.23
3703	2.7583	-5.9678	0.	128.56
3704	3.0082	-6.227	0.	125.9
3705	2.5073	-6.213	0.	132.32
3706	2.0234	-6.6844	0.	131.62
3707	2.2566	-6.4543	0.	132.81
3708	2.2728	-6.9448	0.	131.83
3709	-3.4851	3.2434	0.	129.63
3710	-3.2365	2.9936	0.	127.77
3711	-3.7329	2.9989	0.	126.33
3712	-3.2236	3.9728	0.	127.84
3713	-2.9755	3.7237	0.	126.49
3714	-7.0031	3.69	0.	128.12
3715	-6.7464	3.9621	0.	128.52
3716	-6.7587	3.4237	0.	128.19
3717	-5.9936	3.203	0.	120.81
3718	-6.2456	2.9161	0.	121.35
3719	0.99783	-0.75368	0.	123.87
3720	1.2467	-1.003	0.	125.28
3721	1.7426	-0.50143	0.	130.13
3722	1.9913	-0.25242	0.	128.61
3723	1.9914	-0.75023	0.	128.61
3724	1.7472	0.98394	0.	129.9
3725	1.9975	1.2254	0.	129.27
3726	1.4967	1.7089	0.	130.43
3727	1.7471	1.9479	0.	128.99
3728	1.2444	1.9553	0.	126.27
3729	-0.25319	2.0051	0.	126.19
3730	-2.547e-003	1.753	0.	124.45
3731	0.24452	1.9978	0.	122.6
3732	-0.49892	1.7544	0.	129.95
3733	-0.74996	2.0035	0.	128.35
3734	-0.74326	1.5028	0.	130.23
3735	-0.9943	1.7519	0.	128.63
3736	-0.9868	1.2521	0.	128.1
3737	8.5656e-003	-2.2817	0.	128.3
3738	-0.23872	-2.5365	0.	131.17
3739	1.9141e-002	-2.8036	0.	129.64
3740	-0.24536	-2.0207	0.	129.13
3741	8.3805	1.5928	0.	128.62
3742	7.9268	1.6197	0.	131.03
3743	8.1634	1.3676	0.	127.24
3744	7.6779	1.8647	0.	126.93
3745	7.4216	2.0861	0.	116.89
3746	0.99695	7.2007	0.	125.11
3747	0.99124	7.7009	0.	123.15
3748	0.75448	7.4457	0.	126.82
3749	1.2383	7.4567	0.	118.37
3750	0.28992	6.9172	0.	133.73
3751	6.5762e-002	6.6601	0.	127.49
3752	4.5498e-002	7.1761	0.	130.08
3753	3.1395	6.3794	0.	123.2
3754	3.2421	6.1084	0.	126.25
3755	3.4357	6.5921	0.	127.
3756	2.7314	7.4555	0.	127.43
3757	2.9713	7.1903	0.	134.44
3758	3.24	7.4226	0.	131.01
3759	2.4706	7.223	0.	126.59
3760	8.5532	-3.2243	0.	125.51
3761	8.5747	-2.7209	0.	127.52
3762	8.3192	-2.9539	0.	122.99
3763	8.8016	-2.9834	0.	127.83
3764	8.5404	-3.7329	0.	125.18
3765	8.7881	-3.4857	0.	126.9
3766	8.5305	-4.2453	0.	125.61
3767	8.7792	-3.9928	0.	126.94
3768	8.5205	-4.762	0.	126.38
3769	8.7712	-4.5035	0.	127.38
3770	8.2817	-4.4967	0.	124.56
3771	8.5163	-5.2792	0.	127.57
3772	8.7639	-5.0167	0.	128.15
3773	8.5401	-5.7896	0.	129.34
3774	8.7677	-5.5272	0.	129.35
3775	8.5684	-6.2958	0.	131.33
3776	8.7995	-6.0305	0.	130.98
3777	8.5765	-6.809	0.	133.39
3778	8.8106	-6.5326	0.	132.44
3779	8.8203	-7.0306	0.	133.61
3780	8.7831	-7.2818	0.	133.37
3781	8.4276	-7.2466	0.	136.94
3782	7.1433	-5.8477	0.	119.47
3783	7.2585	-6.1438	0.	116.96
3784	6.8598	-5.9727	0.	119.23
3785	6.3345	-6.2432	0.	126.69
3786	6.5815	-6.091	0.	122.54
3787	6.0855	-6.4651	0.	124.84
3788	6.4473	-6.525	0.	134.23
3789	6.3233	-6.718	0.	129.98
3790	-4.1786	7.3222	0.	137.98
3791	-3.8683	7.4804	0.	135.36
3792	-6.2871	8.0498	0.	124.75
3793	-6.0231	8.2828	0.	121.22
3794	-6.0614	7.8089	0.	119.97
3795	-6.5522	7.8188	0.	133.92
3796	-6.7865	8.0546	0.	129.82
3797	-6.5287	8.297	0.	127.38
3798	-7.0408	7.3154	0.	130.1
3799	-6.8054	7.5724	0.	135.08
3800	-7.0397	7.8081	0.	131.04
3801	-6.8052	7.0818	0.	128.57
3802	-7.7371	0.23098	0.	130.34
3803	-7.5332	-3.177e-002	0.	137.02
3804	-7.7205	0.7157	0.	133.29
3805	-7.4914	0.94663	0.	134.7
3806	-1.9364	8.2479	0.	127.02
3807	-1.9004	7.7459	0.	130.77
3808	-2.1749	8.0009	0.	122.3
3809	-2.9333	8.2775	0.	121.77
3810	-2.9466	7.8378	0.	123.01
3811	-2.6713	8.0262	0.	118.16
3812	-4.5426	-0.67964	0.	132.77
3813	-4.5694	-0.18903	0.	127.25
3814	-4.7887	-0.44703	0.	131.6
3815	-4.6234	-2.5369	0.	128.72
3816	-4.9322	-2.1868	0.	130.04
3817	-4.7267	-2.2094	0.	131.6
3818	-5.1553	-2.4524	0.	128.06
3819	-4.288	-2.3938	0.	128.94
3820	-4.1388	-2.7179	0.	122.71
3821	-5.4605	-1.7078	0.	123.73
3822	-5.2016	-1.4542	0.	125.06
3823	-5.4639	-1.2151	0.	129.59
3824	-5.7161	-1.4524	0.	120.07
3825	-5.2239	-1.9447	0.	126.63
3826	-5.447	-2.2103	0.	124.54
3827	6.5568	-2.2215	0.	124.12
3828	6.8212	-1.9638	0.	124.42
3829	6.5089	-1.7555	0.	123.02
3830	6.8324	-2.4439	0.	122.62
3831	8.6151	-2.232	0.	131.
3832	8.8243	-2.4895	0.	130.34
3833	8.3505	-2.4382	0.	124.84
3834	8.8046	-1.777	0.	132.95
3835	8.8614	-2.0168	0.	133.09
3836	8.4183	-1.9192	0.	130.68
3837	7.3348	-2.9281	0.	118.5
3838	7.0895	-2.6811	0.	120.13
3839	7.8318	-2.9298	0.	118.85
3840	7.6005	-2.6565	0.	114.83
3841	8.095	-2.6713	0.	120.28
3842	-3.0982	0.4379	0.	120.03
3843	-2.8733	0.22325	0.	121.59
3844	-2.9118	0.71765	0.	120.94
3845	-3.3179	0.17147	0.	119.44
3846	1.2292	-5.9385	0.	136.5
3847	1.4966	-5.6993	0.	135.16
3848	-0.25693	-5.4943	0.	125.61
3849	-2.9811	-3.215	0.	123.38
3850	-2.7459	-3.4712	0.	123.21
3851	-3.2467	-3.4342	0.	121.4
3852	-3.005	-3.7092	0.	122.25
3853	4.9649	0.24249	0.	126.68
3854	5.209	-8.9678e-003	0.	129.72
3855	4.9658	0.73673	0.	126.99
3856	5.2054	0.98649	0.	129.61
3857	5.2335	0.49091	0.	125.86
3858	0.8337	5.4678	0.	127.64
3859	0.65162	5.2218	0.	129.68
3860	2.7757	4.8439	0.	130.58
3861	2.4979	4.6594	0.	127.54
3862	1.5351	4.2207	0.	121.22
3863	2.0058	4.2487	0.	121.88
3864	1.7657	4.4759	0.	116.93
3865	-5.851	-5.7871	0.	134.29
3866	-6.0345	-5.7731	0.	132.23
3867	-5.6958	-5.5234	0.	133.78
3868	-5.942	-6.0144	0.	133.93
3869	-5.7664	-6.2664	0.	137.85
3870	-5.5793	-6.0138	0.	135.89
3871	-6.1472	-6.2411	0.	132.54
3872	-5.756	-7.9572	0.	134.13
3873	-6.0379	-7.7688	0.	134.08
3874	-6.2192	-7.9307	0.	130.5
3875	-6.0083	-8.2316	0.	132.61
3876	8.5768	0.33775	0.	127.72
3877	8.786	2.8426e-002	0.	131.91
3878	8.4914	-0.13493	0.	136.03
3879	8.6094	0.83046	0.	125.85
3880	8.8297	0.54859	0.	127.19
3881	8.6117	1.3283	0.	127.12
3882	8.8422	1.059	0.	126.98
3883	8.3945	1.1031	0.	125.76
3884	8.5981	1.8233	0.	128.2
3885	8.8373	1.5607	0.	128.35
3886	8.5769	2.3154	0.	127.67
3887	8.8226	2.0578	0.	128.64
3888	8.554	2.8044	0.	126.56
3889	8.8044	2.5507	0.	127.87
3890	8.5337	3.2913	0.	125.93
3891	8.7863	3.0409	0.	127.1
3892	8.5186	3.7776	0.	125.96
3893	8.7716	3.5299	0.	126.83
3894	8.5077	4.265	0.	126.03
3895	8.7611	4.0191	0.	126.86
3896	8.4972	4.7551	0.	125.12
3897	8.7524	4.5097	0.	126.52
3898	8.4855	5.2495	0.	122.45
3899	8.7419	5.003	0.	125.
3900	8.4773	5.7483	0.	119.25
3901	8.7332	5.5006	0.	122.35
3902	8.7276	6.0005	0.	120.71
3903	8.4847	6.2494	0.	117.11
3904	-1.7987	-8.5222	0.	132.42
3905	-2.2825	-8.5117	0.	132.72
3906	-2.0326	-8.7635	0.	132.09
3907	-2.0449	-8.2675	0.	132.14
3908	-1.5448	-8.7718	0.	131.9
3909	-1.3138	-8.5245	0.	131.72
3910	-1.5697	-8.2866	0.	132.17
3911	-0.32989	-8.4821	0.	125.17
3912	-0.56265	-8.7361	0.	127.68
3913	-0.61798	-8.2006	0.	129.29
3914	-0.82606	-8.4994	0.	129.42
3915	0.17647	-8.4961	0.	122.39
3916	-6.2512e-002	-8.7396	0.	124.1
3917	0.68703	-8.5084	0.	124.71
3918	0.4443	-8.7527	0.	123.96
3919	1.1981	-8.5052	0.	129.86
3920	0.95291	-8.7566	0.	128.11
3921	1.7098	-8.492	0.	133.42
3922	1.4625	-8.7487	0.	132.56
3923	1.4411	-8.2524	0.	133.73
3924	1.9723	-8.7383	0.	135.
3925	2.2235	-8.4856	0.	135.8
3926	1.9552	-8.2252	0.	134.68
3927	6.0127	8.1869	0.	125.32
3928	6.0399	7.6734	0.	123.8
3929	6.2657	7.954	0.	127.66
3930	5.6641	-6.4533	0.	124.11
3931	5.8836	-6.6979	0.	114.41
3932	-8.5108	-5.4416	0.	132.35
3933	-8.3578	-5.1601	0.	129.63
3934	-8.2592	-5.5624	0.	134.92
3935	-2.6389	-1.6311e-002	0.	122.23
3936	-2.4243	-0.25799	0.	121.92
3937	-2.1768	-6.1196e-003	0.	121.25
3938	-7.7689	8.5281	0.	127.35
3939	-8.2654	8.5205	0.	126.42
3940	-8.0144	8.7705	0.	126.5
3941	-8.0196	8.2772	0.	127.08
3942	-7.2709	8.5351	0.	127.88
3943	-7.5163	8.7766	0.	127.11
3944	-7.0165	8.7812	0.	127.02
3945	-7.0278	8.2951	0.	129.42
3946	-6.7701	8.5375	0.	126.94
3947	-5.754	8.511	0.	120.67
3948	-6.0064	8.7683	0.	122.31
3949	-6.2646	8.53	0.	123.87
3950	-5.2409	8.4911	0.	120.6
3951	-5.4966	8.7498	0.	120.71
3952	-4.7298	8.4993	0.	123.73
3953	-4.9872	8.7399	0.	122.19
3954	-4.2177	8.5108	0.	127.04
3955	-4.4793	8.759	0.	125.18
3956	-3.7067	8.4953	0.	127.77
3957	-3.9673	8.7547	0.	127.03
3958	-3.2014	8.4959	0.	124.96
3959	-3.4618	8.7403	0.	126.26
3960	-2.6984	8.5068	0.	122.01
3961	-2.959	8.7553	0.	123.24
3962	-2.1978	8.5024	0.	123.26
3963	-2.457	8.7545	0.	122.35
3964	-2.4363	8.2554	0.	118.57
3965	-1.7016	8.4969	0.	127.27
3966	-1.9586	8.7491	0.	125.12
3967	-1.2088	8.4905	0.	129.85
3968	-1.4633	8.7454	0.	128.35
3969	-0.71933	8.48	0.	130.12
3970	-0.97059	8.7385	0.	129.35
3971	-0.23233	8.4691	0.	129.43
3972	-0.48051	8.7289	0.	129.22
3973	0.25471	8.463	0.	127.9
3974	8.7394e-003	8.7214	0.	128.36
3975	0.74422	8.4638	0.	125.49
3976	0.49918	8.7192	0.	126.77
3977	0.50183	8.207	0.	127.34
3978	1.2381	8.4698	0.	122.95
3979	0.99306	8.7224	0.	124.62
3980	0.98986	8.2108	0.	123.61
3981	1.7371	8.4755	0.	121.83
3982	1.4904	8.7277	0.	122.98
3983	2.2402	8.4746	0.	122.93
3984	1.9914	8.7299	0.	122.99
3985	2.7449	8.4666	0.	125.28
3986	2.495	8.7252	0.	124.57
3987	3.2499	8.4526	0.	127.21
3988	2.9983	8.7168	0.	126.46
3989	3.755	8.4378	0.	127.97
3990	3.5028	8.7031	0.	127.56
3991	4.2586	8.4284	0.	127.78
3992	4.006	8.6932	0.	127.73
3993	4.7612	8.4235	0.	127.01
3994	4.5081	8.688	0.	127.25
3995	5.2614	8.421	0.	125.95
3996	5.0091	8.6855	0.	126.33
3997	5.0165	8.1586	0.	127.35
3998	5.7587	8.4334	0.	125.39
3999	5.5074	8.6866	0.	125.37
4000	6.0045	8.7065	0.	125.76
4001	6.2552	8.4628	0.	128.52
4002	-5.51	-8.7222	0.	132.1
4003	-5.5133	-8.1919	0.	134.72
4004	-5.2599	-8.4758	0.	130.77
4005	-5.7657	-8.4664	0.	133.17
4006	-6.5247	-8.7102	0.	124.58
4007	-6.7747	-8.6514	0.	121.55
4008	-6.6978	-8.2427	0.	120.83
4009	-6.5002	-8.1571	0.	125.88
4010	-6.2894	-8.4581	0.	127.93
4011	-8.6158	-8.2846	0.	133.66
4012	-8.8279	-8.526	0.	133.55
4013	-8.572	-8.7723	0.	132.62
4014	-8.3599	-8.5249	0.	134.26
4015	-8.6523	-7.795	0.	132.09
4016	-8.8627	-8.0345	0.	132.32
4017	-8.419	-8.0445	0.	134.89
4018	-8.6731	-7.3022	0.	131.52
4019	-8.8861	-7.5406	0.	130.51
4020	-8.4521	-7.5597	0.	132.58
4021	-8.6755	-6.803	0.	131.32
4022	-8.8959	-7.0436	0.	130.51
4023	-8.4683	-7.0727	0.	135.13
4024	-8.6433	-6.2831	0.	133.23
4025	-8.8883	-6.5406	0.	130.37
4026	-8.4669	-6.5847	0.	133.7
4027	-8.6622	-5.7667	0.	134.92
4028	-8.4106	-5.8875	0.	137.27
4029	-8.8537	-6.0246	0.	133.79
4030	-8.4244	-6.0987	0.	136.54
4031	-8.9044	-5.5369	0.	133.56
4032	-8.8249	-5.2932	0.	132.93
4033	-8.4273	-4.7191	0.	128.02
4034	-8.6719	-5.0117	0.	130.16
4035	-8.4619	-4.236	0.	127.24
4036	-8.7084	-4.5018	0.	128.72
4037	-8.4777	-3.7398	0.	127.08
4038	-8.7262	-3.997	0.	128.2
4039	-8.4846	-3.2402	0.	127.23
4040	-8.7353	-3.4947	0.	128.1
4041	-8.4856	-2.7383	0.	127.62
4042	-8.7378	-2.9924	0.	128.23
4043	-8.4844	-2.2342	0.	128.33
4044	-8.7372	-2.4895	0.	128.58
4045	-8.4847	-1.7283	0.	129.36
4046	-8.7372	-1.9863	0.	129.18
4047	-8.4964	-1.2235	0.	130.32
4048	-8.7403	-1.4825	0.	129.91
4049	-8.5435	-0.72626	0.	130.28
4050	-8.7599	-0.98182	0.	130.23
4051	-8.5985	-0.23403	0.	129.
4052	-8.8123	-0.48742	0.	129.41
4053	-8.6203	0.25684	0.	128.04
4054	-8.844	8.0765e-003	0.	128.09
4055	-8.6206	0.74595	0.	129.2
4056	-8.8508	0.50101	0.	128.06
4057	-8.6142	1.2358	0.	131.22
4058	-8.8477	0.99337	0.	129.91
4059	-8.5978	1.7276	0.	131.95
4060	-8.8389	1.4868	0.	131.26
4061	-8.554	2.2228	0.	131.5
4062	-8.8186	1.9823	0.	131.42
4063	-8.5157	2.7243	0.	130.53
4064	-8.7718	2.4809	0.	130.82
4065	-8.5054	3.2331	0.	129.51
4066	-8.7578	2.9847	0.	129.92
4067	-8.4977	3.7436	0.	128.61
4068	-8.7513	3.492	0.	128.99
4069	-8.7444	3.9992	0.	128.14
4070	-8.4895	4.2517	0.	127.88
4071	-8.4782	5.2626	0.	126.82
4072	-8.7331	5.0087	0.	126.78
4073	-8.4822	4.7581	0.	127.32
4074	-8.4805	5.7653	0.	126.26
4075	-8.7324	5.5112	0.	126.18
4076	-8.4887	6.2674	0.	125.75
4077	-8.7371	6.013	0.	125.59
4078	-8.4997	6.7691	0.	125.54
4079	-8.2426	6.5225	0.	125.83
4080	-8.7452	6.5145	0.	125.19
4081	-8.51	7.2705	0.	125.68
4082	-8.7547	7.0158	0.	125.14
4083	-8.2573	7.0247	0.	125.9
4084	-8.5154	7.7707	0.	125.94
4085	-8.7618	7.5167	0.	125.36
4086	-8.2675	7.5264	0.	126.38
4087	-8.5147	8.2683	0.	126.01
4088	-8.7632	8.016	0.	125.56
4089	-8.2689	8.025	0.	126.66
4090	-8.5111	8.764	0.	125.81
4091	-8.7611	8.5133	0.	125.56
4092	5.6511	7.0137	0.	132.12
4093	5.7979	7.3485	0.	126.36
4094	3.0017e-003	-0.75559	0.	125.64
4095	-0.24714	-1.0066	0.	128.15
4096	-0.73337	-8.2129e-004	0.	130.36
4097	-0.98123	-0.25108	0.	128.58
4098	-0.9777	0.25034	0.	126.63
4099	-1.2204	-6.7665e-004	0.	124.85
4100	-3.5721	5.8185	0.	143.24
4101	-3.7303	6.096	0.	138.61
4102	-3.968	5.892	0.	141.5
4103	-3.8204	5.6386	0.	146.19
4104	-3.5517	-9.1669e-002	0.	117.9
4105	-3.7531	-0.37619	0.	114.
4106	-2.7231	-2.9787	0.	124.49
4107	-2.4786	-2.74	0.	124.
4108	-2.4879	-3.2349	0.	124.33
4109	-5.7438	-7.2209	0.	133.96
4110	-5.6162	-7.687	0.	135.87
4111	-5.5455	-7.4518	0.	137.35
4112	-5.8981	-7.4986	0.	135.67
4113	-5.7723	-6.7455	0.	135.32
4114	-5.5752	-6.9826	0.	133.82
4115	-5.5804	-6.4994	0.	138.98
4116	-5.9716	-6.4931	0.	136.31
4117	1.2759	4.4228	0.	122.49
4118	1.5064	4.678	0.	118.07
4119	1.2277	4.8691	0.	125.03
4120	1.0034	4.6093	0.	125.93
4121	5.4776	0.23945	0.	128.85
4122	5.4731	0.74067	0.	128.41
4123	-2.9576	-2.7288	0.	129.58
4124	-3.2045	-2.9454	0.	122.45
4125	-3.0931	-4.3183e-002	0.	121.02
4126	-2.8796	-0.26695	0.	127.18
4127	-3.3187	-0.29414	0.	119.93
4128	7.3551	-2.4095	0.	116.42
4129	7.0968	-2.1862	0.	122.94
4130	7.8637	-2.3979	0.	116.12
4131	-4.965	-1.6911	0.	127.93
4132	-4.7825	-1.9544	0.	131.23
4133	-4.9605	-1.2051	0.	130.81
4134	-2.6898	5.6013	0.	110.49
4135	-2.1736	5.4835	0.	116.01
4136	-2.7006	5.3999	0.	114.77
4137	-2.4233	5.2213	0.	113.15
4138	-3.1458	5.7416	0.	124.71
4139	-3.3865	5.5616	0.	137.59
4140	-2.9348	5.5067	0.	114.53
4141	-3.8919	6.3729	0.	129.55
4142	-3.5743	6.5556	0.	134.6
4143	-3.0915	7.4252	0.	124.68
4144	-3.3355	7.0015	0.	132.27
4145	-3.4255	7.3169	0.	130.03
4146	-1.8056	7.2465	0.	130.79
4147	-1.4718	6.2478	0.	133.63
4148	-1.391	5.7323	0.	133.95
4149	-1.6356	6.7513	0.	134.45
4150	-6.1198	1.3891	0.	110.77
4151	-5.6427	1.4825	0.	124.19
4152	-6.5905	1.2253	0.	113.38
4153	-5.4001	0.77386	0.	132.76
4154	-5.3957	1.264	0.	133.57
4155	-5.4274	0.26893	0.	134.15
4156	-5.452	-0.2366	0.	133.86
4157	-5.4639	-0.72966	0.	134.62
4158	-5.234	-0.47549	0.	134.04
4159	-5.2204	2.442e-002	0.	130.99
4160	-4.32	5.9868	0.	131.22
4161	-4.1296	6.1689	0.	131.44
4162	-4.2334	5.6995	0.	130.11
4163	-6.3265	7.5779	0.	128.98
4164	-6.5698	7.3387	0.	133.34
4165	-3.98	6.6711	0.	131.77
4166	-4.0626	7.011	0.	137.69
4167	-3.6623	6.8538	0.	137.66
4168	-3.7523	7.1692	0.	135.32
4169	6.975	-6.2688	0.	116.57
4170	6.6943	-6.3728	0.	130.03
4171	8.9654	-8.1107	0.	131.85
4172	8.8698	-8.4149	0.	135.92
4173	8.5739	-8.3257	0.	139.11
4174	8.6784	-7.9942	0.	131.91
4175	-8.2199	-5.9711	0.	137.91
4176	-8.0095	-5.7839	0.	126.5
4177	2.9194	6.6908	0.	129.12
4178	2.7105	6.9579	0.	133.12
4179	3.2156	6.9034	0.	133.15
4180	0.76463	6.9396	0.	132.37
4181	0.54942	6.6674	0.	129.11
4182	0.52217	7.1846	0.	134.46
4183	7.7232	1.4	0.	129.97
4184	7.4665	1.6209	0.	118.17
4185	6.375	-0.85204	0.	120.98
4186	6.6259	-1.0907	0.	122.38
4187	6.4346	-1.3024	0.	119.61
4188	6.1597	-1.0599	0.	120.91
4189	-3.4245	5.1315	0.	133.14
4190	-3.6348	5.3817	0.	139.95
4191	-3.1755	5.3266	0.	127.19
4192	-0.49264	-2.2756	0.	131.92
4193	-0.74051	-2.5253	0.	130.29
4194	-0.48672	-2.7936	0.	131.43
4195	-0.24828	1.5022	0.	128.19
4196	-0.49414	1.2526	0.	131.46
4197	-0.24405	-0.50383	0.	132.11
4198	-0.49048	-0.25245	0.	135.36
4199	-0.49418	-0.75486	0.	134.54
4200	-0.73833	-0.50272	0.	133.59
4201	1.4976	1.2276	0.	131.64
4202	1.2471	1.4761	0.	128.63
4203	1.7478	1.4691	0.	131.06
4204	1.4953	-0.25238	0.	131.
4205	1.2461	-0.5022	0.	127.92
4206	1.495	-0.75153	0.	129.35
4207	-6.2527	3.4468	0.	125.1
4208	-6.502	3.6958	0.	128.57
4209	-6.5047	3.1599	0.	125.73
4210	-3.4835	3.7339	0.	130.79
4211	-3.7375	3.4945	0.	128.8
4212	-3.2354	3.4849	0.	129.52
4213	2.506	-6.7147	0.	132.91
4214	2.7573	-6.4722	0.	129.62
4215	-5.4241	-5.75	0.	135.42
4216	-5.2111	-5.4974	0.	130.36
4217	-2.4687	-5.7308	0.	130.95
4218	-2.7278	-5.4827	0.	128.09
4219	-2.4709	-5.2302	0.	130.07
4220	-2.5236	-8.2558	0.	132.26
4221	-2.7676	-8.5046	0.	128.35
4222	-2.5201	-8.7565	0.	131.
4223	8.9071	-0.2582	0.	137.98
4224	8.9679	-0.50707	0.	137.33
4225	8.7375	-0.70557	0.	133.33
4226	8.6125	-0.42156	0.	141.59
4227	1.3028	-7.31	0.	133.01
4228	1.1267	-7.5516	0.	136.41
4229	1.4007	-7.7667	0.	137.39
4230	-0.90833	-7.0146	0.	125.35
4231	-0.75945	-7.3195	0.	136.1
4232	5.4324	-6.6929	0.	125.1
4233	5.2089	-6.4633	0.	126.99
4234	7.4821	5.7566	0.	125.04
4235	7.5117	5.2388	0.	128.53
4236	7.3339	6.2643	0.	125.07
4237	7.5153	6.2809	0.	122.34
4238	5.8288	5.2766	0.	125.04
4239	6.3072	5.154	0.	111.64
4240	6.787	5.0367	0.	110.68
4241	7.2734	4.9911	0.	124.44
4242	5.5778	6.5856	0.	133.81
4243	5.985	6.8517	0.	129.38
4244	6.1318	7.1864	0.	123.61
4245	6.3015	7.4628	0.	123.46
4246	6.4143	7.0239	0.	114.66
4247	-6.3916	5.243	0.	134.22
4248	-6.3669	5.7942	0.	133.13
4249	-6.6007	5.5162	0.	133.56
4250	5.9485	-8.8836	0.	127.54
4251	6.014	-8.5104	0.	124.42
4252	5.6712	-8.5514	0.	130.18
4253	6.1968	-8.7365	0.	127.4
4254	5.969	-9.3161	0.	131.42
4255	5.7133	-9.0451	0.	131.86
4256	6.2132	-9.1232	0.	127.73
4257	-8.2601	9.014	0.	125.88
4258	-8.7577	9.0094	0.	125.4
4259	-8.5068	9.2587	0.	125.51
4260	-7.7618	9.0189	0.	126.25
4261	-8.0083	9.2623	0.	125.79
4262	-7.262	9.0227	0.	126.23
4263	-7.5091	9.2659	0.	125.87
4264	-6.7597	9.023	0.	125.4
4265	-7.0081	9.2677	0.	125.47
4266	-6.2551	9.0175	0.	123.77
4267	-6.5053	9.2659	0.	124.38
4268	-6.5133	8.7792	0.	125.32
4269	-5.749	9.0072	0.	122.32
4270	-6.001	9.2595	0.	122.98
4271	-5.2428	8.9987	0.	122.27
4272	-5.4965	9.2511	0.	122.26
4273	-4.9922	9.2476	0.	122.8
4274	-4.7366	8.9996	0.	123.64
4275	-3.7224	8.9997	0.	125.52
4276	-3.9808	9.2519	0.	124.88
4277	-4.2288	9.0029	0.	125.16
4278	-3.2194	8.9997	0.	124.55
4279	-3.4781	9.248	0.	124.68
4280	-2.7176	9.003	0.	123.55
4281	-2.9764	9.252	0.	123.88
4282	-2.2177	9.0012	0.	124.2
4283	-2.4756	9.2523	0.	123.76
4284	-1.7202	8.9975	0.	126.2
4285	-1.9766	9.2493	0.	125.12
4286	-1.2251	8.9934	0.	127.84
4287	-1.4794	9.2469	0.	126.8
4288	-0.73178	8.9873	0.	128.44
4289	-0.98378	9.2431	0.	127.78
4290	-0.23944	8.9812	0.	128.15
4291	-0.48924	9.2382	0.	127.95
4292	0.25321	8.9776	0.	127.23
4293	5.0788e-003	9.2343	0.	127.53
4294	0.74801	8.9777	0.	125.91
4295	0.50032	9.2329	0.	126.67
4296	1.2453	8.9803	0.	124.65
4297	0.99755	9.2342	0.	125.62
4298	1.7447	8.9821	0.	124.12
4299	1.4963	9.2362	0.	124.87
4300	2.2462	8.9805	0.	124.63
4301	1.9968	9.2365	0.	124.88
4302	2.7484	8.9755	0.	125.76
4303	2.4983	9.2335	0.	125.61
4304	3.2512	8.9672	0.	126.81
4305	3.	9.2289	0.	126.57
4306	3.7538	8.9585	0.	127.31
4307	3.5023	9.2214	0.	127.26
4308	4.2555	8.9528	0.	127.19
4309	4.0037	9.2161	0.	127.48
4310	4.7561	8.95	0.	126.57
4311	4.5045	9.213	0.	127.24
4312	5.2552	8.9511	0.	125.76
4313	5.0042	9.2123	0.	126.66
4314	5.7532	8.9597	0.	125.76
4315	5.5028	9.2152	0.	126.05
4316	6.2513	8.9752	0.	127.55
4317	6.0011	9.225	0.	126.51
4318	-9.0748	-8.2759	0.	132.18
4319	-9.0492	-8.7695	0.	132.48
4320	-9.2965	-8.5181	0.	132.32
4321	-9.0965	-7.7801	0.	130.72
4322	-9.3153	-8.0219	0.	130.79
4323	-9.1088	-7.282	0.	129.48
4324	-9.3283	-7.5238	0.	129.02
4325	-9.1087	-6.7813	0.	129.52
4326	-9.3332	-7.0241	0.	128.28
4327	-9.0987	-6.2821	0.	130.89
4328	-9.3284	-6.523	0.	129.09
4329	-9.0959	-5.7947	0.	132.39
4330	-9.3194	-6.0257	0.	130.95
4331	-9.0201	-5.3117	0.	132.33
4332	-9.316	-5.5367	0.	132.28
4333	-8.953	-4.7944	0.	130.87
4334	-9.2135	-5.0437	0.	131.84
4335	-8.9728	-4.2629	0.	129.68
4336	-9.2236	-4.5175	0.	130.89
4337	-8.9837	-3.7519	0.	129.22
4338	-9.2342	-4.0058	0.	130.36
4339	-8.9885	-3.2468	0.	129.1
4340	-9.2398	-3.5001	0.	130.08
4341	-9.2418	-2.9968	0.	129.93
4342	-8.9895	-2.7435	0.	129.19
4343	-8.9928	-1.7405	0.	129.74
4344	-9.2431	-1.9938	0.	129.89
4345	-8.99	-2.2415	0.	129.44
4346	-9.0037	-1.2408	0.	129.83
4347	-9.247	-1.4936	0.	129.82
4348	-9.0286	-0.74297	0.	129.37
4349	-9.26	-0.99498	0.	129.43
4350	-9.0578	-0.24531	0.	128.49
4351	-9.2836	-0.49687	0.	128.6
4352	-9.0746	0.25225	0.	128.09
4353	-9.3022	2.1782e-003	0.	127.83
4354	-9.0779	0.74844	0.	128.75
4355	-9.3085	0.50045	0.	127.96
4356	-9.3074	0.99776	0.	128.98
4357	-9.0724	1.2444	0.	129.94
4358	-9.2552	2.9954	0.	129.85
4359	-9.0139	2.7413	0.	130.2
4360	-9.0037	3.2436	0.	129.4
4361	-8.9929	4.2519	0.	127.66
4362	-9.2464	4.0005	0.	128.03
4363	-8.998	3.7476	0.	128.52
4364	-8.9888	4.755	0.	126.87
4365	-9.2429	4.5028	0.	127.06
4366	-8.738	4.5043	0.	127.41
4367	-8.9872	5.2573	0.	126.15
4368	-9.2405	5.0047	0.	126.15
4369	-9.2408	5.5059	0.	125.35
4370	-8.989	5.7589	0.	125.51
4371	-9.0065	7.262	0.	124.81
4372	-9.2531	7.0084	0.	124.21
4373	-9.0003	6.7611	0.	124.79
4374	-9.0096	7.762	0.	124.98
4375	-9.2566	7.5089	0.	124.36
4376	-9.0096	8.261	0.	125.12
4377	-9.2576	8.0086	0.	124.59
4378	-9.0076	8.7587	0.	125.16
4379	-9.2567	8.5074	0.	124.8
4380	1.725	-8.9949	0.	134.14
4381	2.2335	-8.9924	0.	136.14
4382	1.9842	-9.2442	0.	136.3
4383	1.2174	-9.	0.	130.81
4384	1.4786	-9.2481	0.	133.36
4385	0.71019	-9.0009	0.	127.33
4386	0.97296	-9.251	0.	129.72
4387	0.20532	-8.9962	0.	125.62
4388	0.46833	-9.2494	0.	126.87
4389	-0.29527	-8.9936	0.	126.61
4390	-3.3688e-002	-9.245	0.	126.38
4391	-0.79145	-9.0018	0.	129.
4392	-0.53206	-9.2469	0.	128.02
4393	-1.2859	-9.0125	0.	130.91
4394	-1.028	-9.2567	0.	130.08
4395	-1.0549	-8.7651	0.	130.73
4396	-1.7787	-9.0132	0.	131.57
4397	-1.5242	-9.2616	0.	131.21
4398	-2.0176	-9.258	0.	130.91
4399	-2.2702	-9.0083	0.	130.34
4400	-4.7564	-8.9927	0.	120.6
4401	-4.505	-8.7464	0.	115.44
4402	-4.5047	-9.2468	0.	117.86
4403	-4.2551	-8.9976	0.	115.74
4404	-5.2577	-8.9843	0.	126.58
4405	-5.0077	-8.738	0.	125.39
4406	-5.0058	-9.2418	0.	123.31
4407	-5.7576	-8.9768	0.	129.02
4408	-5.5066	-9.2349	0.	127.67
4409	-6.2487	-8.9732	0.	126.82
4410	-6.0053	-9.2305	0.	127.56
4411	-6.0133	-8.721	0.	130.18
4412	-6.7406	-8.9133	0.	121.8
4413	-6.4974	-9.2239	0.	124.17
4414	-7.2675	-8.9038	0.	118.06
4415	-7.1001	-8.5803	0.	118.24
4416	-6.9978	-9.1504	0.	119.59
4417	-7.8003	-8.9772	0.	120.84
4418	-7.5996	-8.713	0.	113.31
4419	-7.5278	-9.2119	0.	118.64
4420	-8.3032	-9.0085	0.	127.57
4421	-8.0374	-9.2485	0.	123.8
4422	-8.0911	-8.7611	0.	129.32
4423	-8.7933	-9.0157	0.	131.56
4424	-8.5351	-9.2609	0.	129.41
4425	8.9835	5.7528	0.	123.8
4426	8.9803	6.2522	0.	124.67
4427	9.2331	6.0027	0.	126.41
4428	8.9896	5.2541	0.	124.92
4429	9.2393	5.5033	0.	126.15
4430	8.9971	4.7576	0.	126.4
4431	9.2442	5.0046	0.	127.02
4432	9.0058	4.2638	0.	127.35
4433	9.2512	4.5084	0.	127.94
4434	9.0141	3.7713	0.	127.73
4435	9.2575	4.0135	0.	128.45
4436	9.0242	3.2795	0.	128.
4437	9.2642	3.5195	0.	128.75
4438	9.0367	2.7873	0.	128.42
4439	9.2727	3.0256	0.	129.05
4440	9.0501	2.293	0.	128.84
4441	9.2826	2.5307	0.	129.36
4442	9.0619	1.7951	0.	128.77
4443	9.2923	2.0334	0.	129.44
4444	9.0678	1.2914	0.	128.2
4445	9.2993	1.5325	0.	128.97
4446	9.0625	0.77712	0.	128.29
4447	9.3	1.0258	0.	128.39
4448	9.039	0.23927	0.	131.41
4449	9.2907	0.50975	0.	129.04
4450	9.0824	-0.28689	0.	133.33
4451	9.2725	-2.2389e-002	0.	131.95
4452	9.1141	-0.78104	0.	131.56
4453	9.3467	-0.52466	0.	130.88
4454	9.0262	-1.2935	0.	131.75
4455	8.8837	-0.97954	0.	127.81
4456	9.3095	-1.0239	0.	129.41
4457	9.0242	-1.8006	0.	133.17
4458	9.2364	-1.5409	0.	131.82
4459	8.7319	-1.4721	0.	138.6
4460	9.0706	-2.2744	0.	132.44
4461	9.3048	-2.0274	0.	132.65
4462	9.0512	-2.7521	0.	130.65
4463	9.295	-2.5083	0.	132.09
4464	9.0365	-3.2448	0.	129.22
4465	9.2822	-2.9992	0.	131.01
4466	9.0269	-3.7457	0.	128.66
4467	9.2733	-3.497	0.	130.35
4468	9.0199	-4.251	0.	128.71
4469	9.2673	-3.9992	0.	130.16
4470	9.0146	-4.7582	0.	129.16
4471	9.2625	-4.5036	0.	130.31
4472	9.0153	-5.2646	0.	129.94
4473	9.2599	-5.0085	0.	130.68
4474	9.027	-5.7681	0.	130.99
4475	9.2641	-5.5119	0.	131.22
4476	9.0417	-6.2673	0.	132.1
4477	9.2766	-6.012	0.	131.77
4478	9.0544	-6.7542	0.	132.67
4479	9.2855	-6.5092	0.	132.05
4480	9.0243	-7.2438	0.	132.47
4481	9.2927	-6.9952	0.	131.58
4482	9.0712	-7.7525	0.	130.56
4483	8.7842	-7.636	0.	131.1
4484	9.2513	-7.4909	0.	130.55
4485	9.356	-7.9862	0.	128.76
4486	9.3015	-8.233	0.	130.51
4487	8.9955	-8.8312	0.	136.38
4488	9.2059	-8.5372	0.	134.59
4489	8.7486	-8.7778	0.	135.95
4490	6.1214	-6.9507	0.	119.59
4491	5.6519	-6.9374	0.	114.9
4492	9.2641	-9.0198	0.	135.03
4493	9.0165	-9.2757	0.	135.01
4494	8.7799	-8.9905	0.	135.31
4495	-9.0261	-9.2617	0.	131.59
4496	-9.2777	-9.0126	0.	132.52
4497	-9.2548	9.0055	0.	124.93
4498	-9.0049	9.2556	0.	125.17
4499	5.436	-8.7129	0.	134.68
4500	-2.5162	-7.751	0.	132.3
4501	-2.286	-8.0117	0.	131.73
4502	-2.4467	-6.2304	0.	130.5
4503	-5.4444	-7.6837	0.	135.9
4504	-5.3933	-6.2468	0.	136.82
4505	2.4847	-8.7397	0.	136.9
4506	2.4909	-9.2446	0.	137.45
4507	2.4755	-8.2318	0.	137.53
4508	2.4852	-7.2177	0.	133.74
4509	8.7375	6.5011	0.	121.08
4510	9.2347	6.5017	0.	129.64
4511	7.7926	6.518	0.	117.38
4512	8.254	6.5025	0.	116.93
4513	7.3903	6.5146	0.	119.9
4514	6.5839	7.3002	0.	114.78
4515	6.502	8.7315	0.	130.27
4516	6.4999	9.2378	0.	129.18
4517	6.5082	8.2299	0.	130.87
4518	-3.4739	4.2183	0.	129.89
4519	-4.24	3.5002	0.	121.68
4520	-3.9853	3.25	0.	125.55
4521	-5.7471	3.4749	0.	117.94
4522	-6.4933	4.2209	0.	129.42
4523	-3.2582	-8.5012	0.	118.37
4524	-3.0101	-8.7523	0.	123.41
4525	-3.7545	-8.4998	0.	112.77
4526	-4.2541	-8.498	0.	113.13
4527	-4.0041	-8.7492	0.	113.49
4528	-3.506	-8.7505	0.	114.7
4529	-3.2407	-5.4841	0.	118.81
4530	-3.7452	-5.4842	0.	113.1
4531	-4.2427	-5.4876	0.	113.69
4532	-3.9983	-5.2257	0.	114.18
4533	3.7551	-6.4873	0.	115.81
4534	4.2506	-6.4862	0.	117.63
4535	3.2562	-6.4843	0.	120.7
4536	1.4964	0.24501	0.	130.95
4537	1.744	-3.3793e-003	0.	129.51
4538	1.4972	0.73906	0.	131.11
4539	0.74905	-0.50289	0.	119.61
4540	0.25197	-0.50349	0.	120.66
4541	0.74677	1.4881	0.	119.72
4542	0.99478	1.7226	0.	124.51
4543	0.24818	1.4976	0.	119.56
4544	0.49524	1.7425	0.	117.8
4545	-0.48953	0.24972	0.	132.39
4546	-0.49101	0.7513	0.	131.41
4547	-0.73769	1.002	0.	129.38
4548	-0.73386	0.50088	0.	128.67
4549	-0.49662	-1.7643	0.	130.46
4550	-0.49719	-1.2581	0.	130.71
4551	-1.2411	-2.5121	0.	123.98
4552	-0.98928	-2.7751	0.	127.64
4553	-1.7394	-2.5027	0.	120.96
4554	-1.4902	-2.759	0.	122.04
4555	-2.2325	-2.4958	0.	122.53
4556	-2.7131	-2.4902	0.	129.08
4557	-3.1729	-2.4782	0.	125.95
4558	-1.2304	-0.50162	0.	124.55
4559	-1.7188	-0.50244	0.	119.79
4560	-1.4696	-0.25121	0.	120.83
4561	-2.2001	-0.50528	0.	121.01
4562	-1.9526	-0.25341	0.	120.34
4563	-2.665	-0.50863	0.	126.88
4564	-2.491	-7.2418	0.	132.98
4565	-2.27	-7.5048	0.	131.19
4566	-2.4488	-6.7329	0.	131.95
4567	-4.7564	-8.4918	0.	120.23
4568	-4.7321	-5.4921	0.	120.01
4569	-5.377	-7.2136	0.	136.98
4570	-5.3833	-6.7366	0.	137.36
4571	4.7367	-6.4801	0.	123.23
4572	2.4682	-7.723	0.	136.37
4573	2.2073	-7.9715	0.	136.41
4574	6.5273	7.7434	0.	127.54
4575	-3.4552	4.6866	0.	130.13
4576	-4.7417	3.4988	0.	116.49
4577	-5.2437	3.4911	0.	114.92
4578	-6.4804	4.7294	0.	132.11
4579	6.3727	-0.40048	0.	124.23
4580	6.5614	-0.66479	0.	116.94
4581	6.1309	-0.5909	0.	126.88
4582	6.1688	-0.11073	0.	129.99
4583	5.7033	-3.0065e-002	0.	134.42
4584	5.927	-0.30114	0.	132.73
4585	6.5979	-0.24902	0.	125.6
4586	7.7393	0.45948	0.	124.09
4587	7.6966	-2.065e-002	0.	120.37
4588	7.7485	0.9345	0.	127.04
4589	7.9597	1.1479	0.	126.54
4590	6.1431	1.0984	0.	126.75
4591	6.5504	1.3248	0.	115.3
4592	5.6896	1.0102	0.	133.4
4593	5.8967	1.2703	0.	132.6
4594	6.9877	1.5478	0.	107.4
4595	7.2101	1.8423	0.	108.14
4596	1.1268	5.295	0.	126.54
4597	2.7738	6.2235	0.	130.37
4598	2.5676	5.7847	0.	133.23
4599	2.8764	5.9524	0.	133.47
4600	2.6988	5.5262	0.	128.5
4601	2.3901	5.3497	0.	127.94
4602	1.2403	6.962	0.	116.9
4603	1.7241	6.9752	0.	106.26
4604	1.4817	7.218	0.	110.28
4605	2.2154	6.9802	0.	117.57
4606	-8.2187	-7.8092	0.	135.24
4607	-8.1631	-8.2848	0.	135.25
4608	-8.248	-6.4004	0.	136.84
4609	-8.2472	-7.3302	0.	136.22
4610	-8.2597	-6.8544	0.	137.53
4611	-6.3682	-6.4124	0.	126.78
4612	-7.6022	-5.8769	0.	114.3
4613	-7.1856	-6.0514	0.	115.28
4614	-6.7736	-6.2499	0.	117.73
4615	-6.2602	-7.704	0.	130.87
4616	-7.4322	-8.3894	0.	113.27
4617	-7.8904	-8.4969	0.	121.76
4618	-7.0231	-8.1715	0.	117.52
4619	-6.6391	-7.9514	0.	122.36
4620	8.4527	-8.6886	0.	139.55
4621	8.1402	-8.516	0.	130.95
4622	7.9982	-9.2594	0.	124.89
4623	8.2623	-8.9768	0.	130.03
4624	7.9499	-8.8042	0.	121.51
4625	7.7352	-9.0619	0.	121.1
4626	8.4287	-7.6008	0.	134.43
4627	7.3931	-6.4884	0.	119.66
4628	-4.6279	5.8194	0.	121.82
4629	-5.0033	5.4979	0.	113.67
4630	-4.5414	5.5321	0.	120.52
4631	-4.2901	6.2335	0.	127.83
4632	-5.8491	7.5419	0.	114.87
4633	-4.485	7.168	0.	130.08
4634	-4.9253	7.3219	0.	116.49
4635	-5.3783	7.4557	0.	112.29
4636	-6.544	6.8516	0.	132.
4637	-6.4683	6.3439	0.	133.94
4638	-6.6799	6.0625	0.	131.1
4639	-4.0858	5.4461	0.	134.89
4640	6.4863	-6.7681	0.	135.85
4641	7.0386	-1.7289	0.	123.42
4642	-3.1052	-0.51791	0.	125.92
4643	6.7867	-0.51332	0.	117.92
4644	6.996	-0.39791	0.	113.12
4645	6.8123	-0.90343	0.	118.01
4646	6.9176	-1.3089	0.	124.81
4647	6.7263	-1.5206	0.	122.06
4648	8.3456	-1.6144	0.	136.29
4649	8.1538	-2.1254	0.	124.53
4650	8.5894	-1.1581	0.	134.59
4651	0.98006	-6.1347	0.	135.74
4652	1.0377	-6.5215	0.	136.75
4653	0.98828	-5.6881	0.	135.37
4654	1.1583	-6.8975	0.	133.07
4655	-0.70806	-6.5926	0.	131.21
4656	-0.20029	-5.8224	0.	128.26
4657	3.7826e-002	-5.4176	0.	121.47
4658	-0.47178	-6.1933	0.	139.43
4659	0.64455	-7.564	0.	119.53
4660	0.17515	-7.5253	0.	110.1
4661	-0.29243	-7.4515	0.	127.58
4662	-0.59081	-7.6643	0.	135.34
4663	-4.31	-0.8685	0.	129.86
4664	-4.7468	-0.94442	0.	135.78
4665	-3.5201	-0.57866	0.	115.91
4666	-3.9134	-0.71973	0.	117.89
4667	-4.3914	-2.0663	0.	131.5
4668	-3.6041	-2.4014	0.	116.81
4669	-3.4198	-2.6947	0.	118.97
4670	-4.0087	-2.2448	0.	123.81
4671	-3.8595	-2.5689	0.	117.55
4672	9.5	8.75	0.	133.34
4673	9.5	9.25	0.	129.95
4674	9.4999	8.2501	0.	136.75
4675	9.4995	7.7504	0.	137.24
4676	9.4974	7.2503	0.	135.37
4677	9.4922	6.7507	0.	133.81
4678	9.4889	5.7532	0.	128.75
4679	9.4875	6.2522	0.	131.43
4680	9.4938	5.2538	0.	128.25
4681	9.5029	4.2581	0.	129.05
4682	9.4983	4.7554	0.	128.56
4683	9.5076	3.7617	0.	129.47
4684	9.5127	3.2655	0.	129.79
4685	9.5186	2.769	0.	129.99
4686	9.5247	2.2711	0.	129.97
4687	9.5297	1.7709	0.	129.63
4688	9.5315	1.267	0.	129.16
4689	9.5282	0.75844	0.	129.13
4690	9.5243	0.24809	0.	129.6
4691	9.5368	-0.26016	0.	129.47
4692	9.5421	-0.76752	0.	128.69
4693	9.5197	-1.2713	0.	129.43
4694	9.5169	-1.7677	0.	131.29
4695	9.5292	-2.2613	0.	132.29
4696	9.526	-2.7554	0.	132.44
4697	9.5189	-3.2514	0.	132.14
4698	9.5136	-3.7505	0.	131.86
4699	9.5099	-4.2517	0.	131.76
4700	9.5077	-4.754	0.	131.83
4701	9.5087	-5.2558	0.	131.96
4702	9.5138	-5.7558	0.	132.
4703	9.5204	-6.2539	0.	131.72
4704	9.5237	-6.7502	0.	130.96
4705	9.5197	-7.2423	0.	129.65
4706	9.536	-7.7246	0.	128.7
4707	9.5022	-8.2092	0.	130.32
4708	9.4746	-8.7258	0.	133.24
4709	9.5032	-9.2494	0.	134.81
4710	9.2556	-9.5053	0.	134.8
4711	8.7573	-9.4955	0.	132.72
4712	8.2565	-9.4929	0.	127.88
4713	8.5207	-9.2103	0.	133.04
4714	7.7514	-9.5213	0.	121.43
4715	7.2452	-9.5542	0.	117.2
4716	7.4884	-9.3238	0.	117.65
4717	6.7389	-9.5677	0.	119.13
4718	6.9846	-9.3607	0.	115.15
4719	6.2329	-9.5549	0.	126.06
4720	6.4771	-9.362	0.	122.42
4721	5.7337	-9.526	0.	132.29
4722	5.2404	-9.5057	0.	130.58
4723	5.478	-9.255	0.	132.71
4724	4.7458	-9.501	0.	121.04
4725	4.2484	-9.5001	0.	114.84
4726	3.7489	-9.4999	0.	114.57
4727	3.2478	-9.4994	0.	121.26
4728	2.7452	-9.4977	0.	132.94
4729	2.2416	-9.4964	0.	137.67
4730	1.7378	-9.4973	0.	135.54
4731	1.2342	-9.4991	0.	132.27
4732	0.7311	-9.4995	0.	129.25
4733	0.22932	-9.4983	0.	127.62
4734	-0.27047	-9.4983	0.	127.79
4735	-0.76859	-9.5018	0.	129.11
4736	-1.2663	-9.5058	0.	130.37
4737	-1.7631	-9.5064	0.	130.53
4738	-2.2589	-9.5042	0.	128.81
4739	-2.7556	-9.5022	0.	125.05
4740	-2.5116	-9.2545	0.	128.26
4741	-3.2539	-9.5009	0.	120.45
4742	-3.0066	-9.2519	0.	122.79
4743	-3.7534	-9.4999	0.	117.32
4744	-3.5052	-9.2506	0.	117.36
4745	-4.2535	-9.4984	0.	117.46
4746	-4.0039	-9.2492	0.	115.36
4747	-4.7541	-9.496	0.	120.59
4748	-5.2546	-9.4924	0.	124.39
4749	-5.7543	-9.4886	0.	126.17
4750	-6.254	-9.4812	0.	124.91
4751	-6.7546	-9.461	0.	121.98
4752	-7.2581	-9.4585	0.	120.11
4753	-7.765	-9.4832	0.	121.6
4754	-8.2693	-9.5009	0.	125.64
4755	-8.7678	-9.5069	0.	129.44
4756	-9.2623	-9.5064	0.	132.07
4757	-9.5139	-9.2574	0.	133.
4758	-9.525	-8.7613	0.	132.36
4759	-9.537	-8.2641	0.	130.92
4760	-9.5471	-7.7656	0.	129.08
4761	-9.5526	-7.2659	0.	127.8
4762	-9.553	-6.7658	0.	127.82
4763	-9.5491	-6.2666	0.	129.15
4764	-9.5395	-5.7678	0.	130.83
4765	-9.5094	-5.2687	0.	131.77
4766	-9.484	-4.7669	0.	131.86
4767	-9.485	-4.2605	0.	131.56
4768	-9.4903	-3.754	0.	131.22
4769	-9.4931	-3.2501	0.	130.9
4770	-9.4945	-2.7478	0.	130.62
4771	-9.4953	-2.2469	0.	130.34
4772	-9.2422	-2.4945	0.	129.89
4773	-9.4974	-1.747	0.	129.97
4774	-9.5033	-1.2478	0.	129.42
4775	-9.5149	-0.74888	0.	128.67
4776	-9.528	-0.24938	0.	127.94
4777	-9.5361	0.25038	0.	127.69
4778	-9.538	0.74978	0.	128.18
4779	-9.5339	1.2493	0.	129.14
4780	-9.5252	1.7492	0.	129.98
4781	-9.2989	1.4959	0.	130.1
4782	-9.5151	2.2489	0.	130.32
4783	-9.286	1.9948	0.	130.6
4784	-9.5069	2.7486	0.	130.11
4785	-9.2656	2.4945	0.	130.46
4786	-9.502	3.2489	0.	129.45
4787	-9.4988	3.75	0.	128.51
4788	-9.2504	3.4972	0.	129.
4789	-9.4964	4.2514	0.	127.43
4790	-9.4946	4.7525	0.	126.34
4791	-9.4941	5.2533	0.	125.35
4792	-9.4952	5.7539	0.	124.54
4793	-9.4976	6.2544	0.	123.99
4794	-9.2435	6.0069	0.	124.7
4795	-9.5005	6.7549	0.	123.73
4796	-9.2477	6.5076	0.	124.31
4797	-9.5031	7.2553	0.	123.75
4798	-9.5046	7.7555	0.	123.97
4799	-9.5047	8.2551	0.	124.28
4800	-9.5038	8.7542	0.	124.57
4801	-9.5025	9.2528	0.	124.82
4802	-9.2526	9.5029	0.	125.06
4803	-8.754	9.5049	0.	125.27
4804	-8.255	9.507	0.	125.41
4805	-7.7556	9.5094	0.	125.4
4806	-7.2553	9.5109	0.	125.11
4807	-6.7537	9.5106	0.	124.46
4808	-6.2513	9.5079	0.	123.6
4809	-5.7485	9.5035	0.	122.91
4810	-5.2458	9.5001	0.	122.78
4811	-4.7427	9.5	0.	123.19
4812	-3.7365	9.5003	0.	124.05
4813	-4.2392	9.501	0.	123.75
4814	-3.2351	9.5003	0.	124.02
4815	-2.7344	9.5012	0.	124.08
4816	-2.2346	9.5004	0.	124.68
4817	-1.7358	9.4987	0.	125.73
4818	-1.2381	9.4967	0.	126.73
4819	-0.74124	9.494	0.	127.28
4820	-0.24472	9.4913	0.	127.33
4821	0.25219	9.4896	0.	126.97
4822	0.74985	9.4895	0.	126.38
4823	1.2486	9.4902	0.	125.84
4824	1.7484	9.4907	0.	125.62
4825	2.249	9.4896	0.	125.86
4826	2.7499	9.487	0.	126.42
4827	3.2512	9.483	0.	127.03
4828	3.7523	9.479	0.	127.43
4829	4.2528	9.4763	0.	127.54
4830	4.7526	9.4754	0.	127.34
4831	5.2518	9.4765	0.	126.97
4832	5.7507	9.4805	0.	126.83
4833	6.2497	9.4876	0.	128.16
4834	6.7494	9.4949	0.	128.02
4835	7.2497	9.499	0.	123.01
4836	7.7499	9.4999	0.	119.94
4837	8.25	9.5	0.	120.04
4838	8.75	9.5	0.	123.02
4839	9.25	9.5	0.	127.58
4840	8.2352	-0.3368	0.	130.07
4841	7.8518	-0.285	0.	118.76
4842	5.4465	-0.26615	0.	131.82
4843	-0.22898	-3.5838	0.	128.87
4844	2.8013e-002	-3.3255	0.	129.3
4845	0.74747	7.9539	0.	125.47
4846	1.5142	-2.7384	0.	127.37
4847	2.2482	1.4703	0.	129.23
4848	1.6866	-7.9857	0.	134.98
4849	-2.9867	3.2351	0.	127.66
4850	1.9982	1.708	0.	129.63
4851	-7.417	-4.6968	0.	121.17
4852	-7.4734	-2.229	0.	123.99
4853	-7.2185	-1.9752	0.	122.23
4854	-5.7214	-0.96362	0.	121.72
4855	-5.2228	-0.96598	0.	135.29
4856	-0.61875	5.4719	0.	130.28
4857	-1.123	5.4755	0.	136.46
4858	-7.2219	-2.4752	0.	122.59
4859	0.74326	1.9769	0.	122.5
4860	-5.9735	-1.2009	0.	112.26
4861	-6.4688	-3.2188	0.	122.86
4862	-6.7198	-3.4677	0.	123.24
4863	1.2557	-5.4489	0.	134.01
4864	4.233	-1.4912	0.	126.88
4865	3.9765	-1.243	0.	126.8
4866	3.7371	-1.4913	0.	126.9
4867	3.0077	5.6939	0.	128.71
4868	2.8708	5.2718	0.	130.45
4869	-6.967	-2.2215	0.	120.83
4870	3.217	3.4155	0.	130.5
4871	2.7082	3.3766	0.	128.46
4872	-0.98054	0.75155	0.	126.63
4873	-1.7782	3.4637	0.	126.24
4874	3.891	5.547	0.	127.53
4875	0.32526	6.4103	0.	123.15
4876	2.2395	-3.1574e-003	0.	127.55
4877	-4.2079	2.001	0.	124.47
4878	-9.0365	2.2404	0.	130.73
4879	-9.0597	1.7415	0.	130.72
4880	5.6702	-0.53722	0.	130.02
4881	5.4314	1.2346	0.	132.03
4882	4.5774	4.1405	0.	132.3
4883	4.7972	3.8919	0.	130.74
4884	4.4699	-1.2438	0.	127.01
4885	4.2133	-0.99559	0.	126.94
4886	-6.7186	-2.9701	0.	122.37
4887	0.27774	7.4435	0.	130.89
4888	0.51072	7.6987	0.	129.15
4889	1.2719	-2.9948	0.	127.86
4890	4.0295	-2.7257	0.	126.34
4891	4.2745	-2.4778	0.	126.31
4892	5.6386	1.4946	0.	131.11
4893	0.2388	3.029	0.	125.99
4894	5.0168	-2.232	0.	125.86
4895	4.9913	-1.741	0.	126.41
4896	4.755	-1.9854	0.	126.31
4897	-0.48585	-3.319	0.	129.47
4898	-0.73549	-3.0434	0.	128.74
4899	-0.22886	-3.0607	0.	129.89
4900	1.9524	3.1166	0.	126.05
4901	2.1884	3.3766	0.	126.27
4902	-6.9695	-2.7213	0.	121.95
4903	-6.9696	-3.219	0.	122.76
4904	3.9628	-0.24866	0.	126.09
4905	3.7152	-0.49765	0.	126.33
4906	3.9642	-0.74632	0.	126.54
4907	7.5396	3.3066	0.	119.48
4908	2.5199	-3.7226	0.	128.45
4909	2.2723	-3.4743	0.	128.37
4910	-3.2579	-9.0016	0.	119.71
4911	-2.7626	-9.0042	0.	126.01
4912	-4.7833	4.3534e-002	0.	126.61
4913	-8.021	7.7807	0.	127.1
4914	-0.50747	4.4955	0.	130.95
4915	4.7292	-1.4939	0.	126.8
4916	4.4929	-1.7382	0.	126.7
4917	7.5155	4.755	0.	129.58
4918	4.8339	4.3682	0.	131.89
4919	2.007	-4.7092	0.	131.35
4920	2.0109	-4.2139	0.	130.02
4921	1.0434	-3.239	0.	128.22
4922	5.9156	-0.7988	0.	126.73
4923	-2.2463	-3.4882	0.	124.29
4924	-8.9936	6.2601	0.	125.02
4925	-1.2278	1.0017	0.	126.03
4926	-1.7033	-2.1875e-003	0.	121.35
4927	-6.9136	5.7844	0.	131.47
4928	6.4959	3.2858	0.	117.21
4929	6.2055	3.4614	0.	119.09
4930	6.4717	3.8361	0.	116.
4931	2.2469	4.4705	0.	123.96
4932	-4.4872	9.252	0.	124.03
4933	5.2978	-2.9683	0.	124.74
4934	5.0361	-2.7238	0.	125.33
4935	-3.4702	-3.1646	0.	120.46
4936	-3.6751	-2.8622	0.	119.48
4937	-8.0002	6.7781	0.	126.19
4938	-7.0462	1.0309	0.	122.92
4939	3.9689	0.2471	0.	125.89
4940	-0.34167	5.224	0.	130.04
4941	0.99189	2.1989	0.	124.25
4942	-1.3071	3.4802	0.	127.33
4943	-1.5597	3.7087	0.	126.55
4944	2.5621	5.0953	0.	129.91
4945	-2.2446	2.4886	0.	126.4
4946	3.7428	6.8537	0.	127.96
4947	4.3072	6.8101	0.	128.51
4948	3.4843	7.1357	0.	129.66
4949	4.7461	2.9437	0.	129.89
4950	2.0068	4.6976	0.	118.91
4951	2.2843	4.9108	0.	126.87
4952	3.5322	-3.721	0.	126.36
4953	3.5313	-4.2186	0.	125.88
4954	-0.49143	-3.8692	0.	128.61
4955	5.0536	4.1196	0.	130.35
4956	6.2641	4.1745	0.	116.84
4957	-3.7556	-8.9998	0.	115.37
4958	-6.2831e-002	3.2753	0.	127.33
4959	-1.6333	5.473	0.	131.31
4960	-5.0025	-0.21446	0.	130.96
4961	-1.8793	5.2147	0.	122.46
4962	3.228	-0.99625	0.	126.88
4963	2.987	-1.2451	0.	127.1
4964	4.7768	-2.4776	0.	125.86
4965	-1.751	2.4892	0.	126.94
4966	-0.18167	6.4322	0.	125.36
4967	-2.129	4.9524	0.	119.23
4968	3.4725	-0.7467	0.	126.52
4969	3.7215	-0.99537	0.	126.73
4970	3.482	-1.2437	0.	126.83
4971	1.7437	-1.0003	0.	127.81
4972	-2.9733	1.731	0.	123.68
4973	2.2673	-3.9685	0.	129.09
4974	2.0197	-3.7202	0.	129.01
4975	0.94473	5.049	0.	128.57
4976	-0.13691	3.7746	0.	128.9
4977	-0.21565	4.2612	0.	130.4
4978	-4.9929	-0.71182	0.	134.66
4979	-8.0148	7.2806	0.	126.6
4980	4.515	-2.231	0.	126.31
4981	-1.2384	-3.022	0.	125.67
4982	-7.1649	5.5249	0.	130.95
4983	3.241	-1.4925	0.	127.05
4984	-2.7198	1.4824	0.	123.09
4985	-2.9564	1.2194	0.	121.94
4986	-2.4596	1.2403	0.	122.71
4987	-2.6963	0.97722	0.	121.56
4988	0.76703	-5.4481	0.	127.86
4989	0.3251	-5.3182	0.	121.79
4990	3.4969	-1.7394	0.	126.96
4991	-1.8081	-7.5351	0.	129.97
4992	-2.0398	-7.7655	0.	130.57
4993	-1.5842	-7.8016	0.	131.27
4994	-1.8159	-8.032	0.	131.9
4995	-0.28515	4.74	0.	131.12
4996	-1.8719e-003	4.5065	0.	130.76
4997	-6.4715e-002	4.9783	0.	131.15
4998	0.21856	4.7448	0.	130.79
4999	0.50104	4.5416	0.	129.79
5000	0.43801	4.9924	0.	130.5
5001	0.72049	4.7892	0.	129.5
5002	7.6695	-8.6422	0.	117.43
5003	6.4615	-8.9761	0.	128.58
5004	6.7228	-9.155	0.	118.41
5005	6.7025	-8.785	0.	124.09
5006	6.9638	-8.9639	0.	114.13
5007	7.2278	-9.1304	0.	115.58
5008	7.1908	-8.7334	0.	115.75
5009	7.4548	-8.8998	0.	117.17
5010	5.	-7.	0.	107.74
5011	3.	-7.	0.	97.789
5012	5.	-9.	0.	100.5
5013	3.	-9.	0.	100.16
5014	4.5	-7.	0.	114.75
5015	4.	-7.	0.	109.55
5016	3.5	-7.	0.	111.69
5017	5.	-7.5	0.	103.38
5018	5.	-8.	0.	104.42
5019	5.	-8.5	0.	104.57
5020	3.	-7.5	0.	101.78
5021	3.	-8.	0.	101.12
5022	3.	-8.5	0.	103.04
5023	3.5	-9.	0.	112.61
5024	4.	-9.	0.	110.32
5025	4.5	-9.	0.	113.76
5026	4.5	-8.	0.	107.01
5027	4.5	-8.5	0.	111.73
5028	3.5	-8.5	0.	109.67
5029	3.5	-8.	0.	107.85
5030	3.5	-7.5	0.	108.23
5031	4.5	-7.5	0.	107.56
5032	4.	-7.5	0.	110.21
5033	4.	-8.5	0.	112.06
5034	4.	-8.	0.	110.31
5035	4.75	-7.	0.	111.
5036	5.	-7.25	0.	105.11
5037	3.25	-7.	0.	104.65
5038	3.	-7.25	0.	99.777
5039	5.	-8.75	0.	102.52
5040	4.75	-9.	0.	107.07
5041	3.	-8.75	0.	101.59
5042	3.25	-9.	0.	106.32
5043	4.25	-7.	0.	112.14
5044	4.5	-7.25	0.	111.15
5045	3.75	-7.	0.	110.61
5046	4.	-7.25	0.	109.87
5047	3.5	-7.25	0.	109.93
5048	5.	-7.75	0.	103.66
5049	4.75	-7.5	0.	105.36
5050	5.	-8.25	0.	104.42
5051	4.75	-8.	0.	105.7
5052	4.75	-8.5	0.	108.15
5053	3.	-7.75	0.	101.43
5054	3.25	-7.5	0.	104.99
5055	3.	-8.25	0.	102.06
5056	3.25	-8.	0.	104.48
5057	3.25	-8.5	0.	106.35
5058	3.75	-9.	0.	111.46
5059	3.5	-8.75	0.	111.12
5060	4.25	-9.	0.	112.03
5061	4.	-8.75	0.	111.18
5062	4.5	-8.75	0.	112.71
5063	4.5	-8.25	0.	109.34
5064	4.5	-7.75	0.	107.16
5065	4.25	-8.	0.	108.65
5066	4.25	-8.5	0.	111.89
5067	3.5	-8.25	0.	108.76
5068	3.75	-8.5	0.	110.86
5069	3.5	-7.75	0.	108.04
5070	3.75	-8.	0.	109.08
5071	3.75	-7.5	0.	109.2
5072	4.25	-7.5	0.	108.85
5073	4.	-7.75	0.	110.25
5074	4.	-8.25	0.	111.18
5075	1.	1.	0.	99.416
5076	0.	1.	0.	99.828
5077	1.	0.	0.	99.177
5078	0.	0.	0.	100.66
5079	0.5	1.	0.	115.31
5080	1.	0.5	0.	104.77
5081	0.	0.5	0.	105.33
5082	0.5	0.	0.	115.83
5083	0.5	0.5	0.	113.03
5084	0.75	1.	0.	107.35
5085	1.	0.75	0.	102.08
5086	0.25	1.	0.	107.55
5087	0.	0.75	0.	102.57
5088	1.	0.25	0.	101.96
5089	0.75	0.	0.	107.49
5090	0.	0.25	0.	102.99
5091	0.25	0.	0.	108.22
5092	0.5	0.75	0.	114.12
5093	0.75	0.5	0.	108.87
5094	0.25	0.5	0.	109.16
5095	0.5	0.25	0.	114.38
5096	-1.	-1.	0.	100.54
5097	-3.	-1.	0.	103.33
5098	-1.	-2.	0.	100.19
5099	-3.	-2.	0.	103.09
5100	-1.5	-1.	0.	117.09
5101	-2.	-1.	0.	115.33
5102	-2.5	-1.	0.	117.59
5103	-1.	-1.5	0.	104.72
5104	-3.	-1.5	0.	109.53
5105	-2.5	-2.	0.	118.38
5106	-2.	-2.	0.	115.95
5107	-1.5	-2.	0.	116.99
5108	-2.5	-1.5	0.	114.43
5109	-2.	-1.5	0.	118.05
5110	-1.5	-1.5	0.	115.22
5111	-1.25	-1.	0.	108.75
5112	-1.	-1.25	0.	102.62
5113	-2.75	-1.	0.	110.43
5114	-3.	-1.25	0.	106.33
5115	-1.	-1.75	0.	102.44
5116	-1.25	-2.	0.	108.55
5117	-3.	-1.75	0.	106.21
5118	-2.75	-2.	0.	110.72
5119	-1.75	-1.	0.	116.21
5120	-1.5	-1.25	0.	116.13
5121	-2.25	-1.	0.	116.46
5122	-2.	-1.25	0.	116.68
5123	-2.5	-1.25	0.	115.99
5124	-1.25	-1.5	0.	109.96
5125	-2.75	-1.5	0.	111.92
5126	-2.25	-2.	0.	117.16
5127	-2.5	-1.75	0.	116.39
5128	-1.75	-2.	0.	116.47
5129	-2.	-1.75	0.	116.99
5130	-1.5	-1.75	0.	116.09
5131	-2.25	-1.5	0.	116.24
5132	-1.75	-1.5	0.	116.63
5133	9.	9.	0.	101.19
5134	7.	9.	0.	99.057
5135	9.	7.	0.	101.07
5136	7.	7.	0.	107.39
5137	8.5	9.	0.	119.1
5138	8.	9.	0.	117.46
5139	7.5	9.	0.	117.86
5140	9.	8.5	0.	107.32
5141	9.	8.	0.	106.39
5142	9.	7.5	0.	106.73
5143	7.	8.5	0.	103.86
5144	7.	8.	0.	102.01
5145	7.	7.5	0.	105.14
5146	7.5	7.	0.	122.35
5147	8.	7.	0.	116.35
5148	8.5	7.	0.	116.95
5149	8.	8.	0.	120.71
5150	8.5	8.	0.	116.8
5151	8.5	7.5	0.	116.61
5152	8.	7.5	0.	120.9
5153	7.5	7.5	0.	118.98
5154	7.5	8.	0.	115.31
5155	7.5	8.5	0.	115.48
5156	8.	8.5	0.	120.56
5157	8.5	8.5	0.	117.48
5158	8.75	9.	0.	110.06
5159	9.	8.75	0.	104.25
5160	7.25	9.	0.	108.35
5161	7.	8.75	0.	101.44
5162	9.	7.25	0.	103.89
5163	8.75	7.	0.	108.96
5164	7.	7.25	0.	106.21
5165	7.25	7.	0.	114.57
5166	8.25	9.	0.	118.27
5167	8.5	8.75	0.	118.23
5168	7.75	9.	0.	117.65
5169	8.	8.75	0.	118.96
5170	7.5	8.75	0.	116.62
5171	9.	8.25	0.	106.82
5172	8.75	8.5	0.	112.38
5173	9.	7.75	0.	106.53
5174	8.75	8.	0.	111.59
5175	8.75	7.5	0.	111.66
5176	7.	8.25	0.	102.85
5177	7.25	8.5	0.	109.64
5178	7.	7.75	0.	103.41
5179	7.25	8.	0.	108.65
5180	7.25	7.5	0.	111.97
5181	7.75	7.	0.	119.35
5182	7.5	7.25	0.	120.56
5183	8.25	7.	0.	116.64
5184	8.	7.25	0.	118.58
5185	8.5	7.25	0.	116.73
5186	8.25	8.	0.	118.75
5187	8.	7.75	0.	120.8
5188	7.75	8.	0.	118.01
5189	8.	8.25	0.	120.63
5190	8.5	7.75	0.	116.69
5191	8.5	8.25	0.	117.13
5192	8.25	7.5	0.	118.75
5193	7.75	7.5	0.	119.91
5194	7.5	7.75	0.	117.13
5195	7.5	8.25	0.	115.36
5196	7.75	8.5	0.	118.
5197	8.25	8.5	0.	119.
5198	-4.	5.	0.	102.61
5199	-6.	5.	0.	95.844
5200	-4.	4.	0.	100.19
5201	-6.	4.	0.	95.727
5202	-4.5	5.	0.	122.66
5203	-5.	5.	0.	106.57
5204	-5.5	5.	0.	108.28
5205	-4.	4.5	0.	106.91
5206	-6.	4.5	0.	99.808
5207	-5.5	4.	0.	111.04
5208	-5.	4.	0.	111.85
5209	-4.5	4.	0.	115.31
5210	-5.5	4.5	0.	108.61
5211	-5.	4.5	0.	113.62
5212	-4.5	4.5	0.	116.49
5213	-4.25	5.	0.	112.58
5214	-4.	4.75	0.	104.75
5215	-5.75	5.	0.	102.
5216	-6.	4.75	0.	97.818
5217	-4.	4.25	0.	103.53
5218	-4.25	4.	0.	107.73
5219	-6.	4.25	0.	97.761
5220	-5.75	4.	0.	103.33
5221	-4.75	5.	0.	114.6
5222	-4.5	4.75	0.	119.54
5223	-5.25	5.	0.	107.41
5224	-5.	4.75	0.	110.09
5225	-5.5	4.75	0.	108.41
5226	-4.25	4.5	0.	111.67
5227	-5.75	4.5	0.	104.19
5228	-5.25	4.	0.	111.44
5229	-5.5	4.25	0.	109.81
5230	-4.75	4.	0.	113.58
5231	-5.	4.25	0.	112.72
5232	-4.5	4.25	0.	115.86
5233	-5.25	4.5	0.	111.09
5234	-4.75	4.5	0.	115.04
5235	8.27	-8.02	0.	81.773
5236	6.89	-6.73	0.	103.1
5237	6.46	-8.57	0.	71.086
5238	7.925	-7.6975	0.	109.83
5239	7.58	-7.375	0.	106.22
5240	7.235	-7.0525	0.	101.74
5241	7.8175	-8.1575	0.	117.8
5242	7.365	-8.295	0.	110.92
5243	6.9125	-8.4325	0.	113.69
5244	6.7825	-7.19	0.	106.68
5245	6.675	-7.65	0.	104.37
5246	6.5675	-8.11	0.	110.84
5247	7.3186	-7.6017	0.	103.67
5248	7.4852	-7.9459	0.	108.94
5249	6.9945	-8.0529	0.	105.19
5250	6.9998	-7.6898	0.	102.55
5251	7.0757	-7.3498	0.	103.98
5252	8.0975	-7.8587	0.	93.22
5253	8.0437	-8.0887	0.	96.527
5254	7.0625	-6.8913	0.	100.88
5255	6.8362	-6.96	0.	103.07
5256	6.6863	-8.5013	0.	91.925
5257	6.5138	-8.34	0.	90.624
5258	7.7525	-7.5363	0.	108.01
5259	7.7051	-7.8217	0.	109.26
5260	7.4075	-7.2137	0.	103.95
5261	7.4493	-7.4883	0.	104.93
5262	7.1554	-7.2012	0.	102.76
5263	7.5912	-8.2262	0.	114.32
5264	7.6514	-8.0517	0.	113.19
5265	7.1388	-8.3638	0.	112.3
5266	7.4251	-8.1204	0.	109.88
5267	6.9535	-8.2427	0.	109.38
5268	6.7288	-7.42	0.	104.95
5269	6.9291	-7.2699	0.	105.16
5270	6.6213	-7.88	0.	107.43
5271	6.8374	-7.6699	0.	103.42
5272	6.781	-8.0814	0.	107.97
5273	7.4019	-7.7738	0.	106.25
5274	7.1592	-7.6457	0.	103.06
5275	7.1971	-7.4758	0.	103.82
5276	7.2399	-7.9994	0.	106.95
5277	6.9972	-7.8713	0.	103.8
5278	7.0378	-7.5198	0.	103.22
5279	0.4	-6.02	0.	109.28
5280	-0.38	-6.94	0.	55.652
5281	0.8	-7.16	0.	53.059
5282	0.14	-6.3267	0.	88.886
5283	-0.12	-6.6333	0.	92.287
5284	0.53333	-6.4	0.	97.317
5285	0.66667	-6.78	0.	98.502
5286	1.3333e-002	-7.0133	0.	112.44
5287	0.40667	-7.0867	0.	110.9
5288	0.39475	-6.8134	0.	99.377
5289	0.30214	-6.5492	0.	101.11
5290	0.12219	-6.7617	0.	102.05
5291	0.27	-6.1733	0.	97.415
5292	0.46667	-6.21	0.	100.54
5293	-0.25	-6.7867	0.	69.477
5294	-0.18333	-6.9767	0.	79.752
5295	0.73333	-6.97	0.	75.608
5296	0.60333	-7.1233	0.	81.751
5297	1.e-002	-6.48	0.	90.44
5298	0.22107	-6.4379	0.	94.976
5299	1.0967e-003	-6.6975	0.	96.831
5300	0.6	-6.59	0.	97.772
5301	0.41774	-6.4746	0.	99.041
5302	0.53071	-6.7967	0.	98.86
5303	0.21	-7.05	0.	111.55
5304	6.7763e-002	-6.8875	0.	106.82
5305	0.40071	-6.95	0.	105.12
5306	0.34845	-6.6813	0.	100.19
5307	0.25847	-6.7876	0.	100.58
5308	0.21217	-6.6555	0.	101.43
5309	-6.19	-7.03	0.	84.385
5310	-7.89	-6.16	0.	81.092
5311	-7.79	-8.07	0.	87.731
5312	-6.615	-6.8125	0.	115.16
5313	-7.04	-6.595	0.	106.87
5314	-7.465	-6.3775	0.	107.76
5315	-6.59	-7.29	0.	112.81
5316	-6.99	-7.55	0.	107.17
5317	-7.39	-7.81	0.	103.36
5318	-7.865	-6.6375	0.	104.74
5319	-7.84	-7.115	0.	101.06
5320	-7.815	-7.5925	0.	103.26
5321	-7.2246	-7.1877	0.	105.98
5322	-7.5391	-7.4277	0.	101.56
5323	-7.4767	-6.7983	0.	101.94
5324	-6.8777	-6.9977	0.	109.35
5325	-6.4025	-6.9212	0.	96.412
5326	-6.39	-7.16	0.	95.59
5327	-7.6775	-6.2688	0.	93.261
5328	-7.8775	-6.3987	0.	91.799
5329	-7.59	-7.94	0.	94.112
5330	-7.8025	-7.8313	0.	93.931
5331	-6.8275	-6.7038	0.	110.9
5332	-6.7464	-6.9051	0.	112.
5333	-7.2525	-6.4862	0.	107.29
5334	-7.2584	-6.6967	0.	104.39
5335	-6.9589	-6.7964	0.	108.08
5336	-7.4709	-6.5879	0.	104.78
5337	-6.79	-7.42	0.	109.84
5338	-6.7339	-7.1439	0.	110.82
5339	-7.19	-7.68	0.	105.24
5340	-7.1073	-7.3688	0.	106.57
5341	-7.4646	-7.6188	0.	102.4
5342	-7.8525	-6.8762	0.	102.87
5343	-7.6709	-6.7179	0.	103.3
5344	-7.8275	-7.3538	0.	102.11
5345	-7.6896	-7.2713	0.	101.31
5346	-7.6584	-6.9567	0.	101.5
5347	-7.6771	-7.5101	0.	102.35
5348	-7.3819	-7.3077	0.	103.76
5349	-7.3507	-6.993	0.	103.95
5350	-7.0512	-7.0927	0.	107.64
5351	5.34	-7.37	0.	60.397
5352	5.77	-8.28	0.	115.47
5353	6.35	-7.45	0.	58.119
5354	5.555	-7.825	0.	97.361
5355	5.845	-7.41	0.	129.07
5356	6.06	-7.865	0.	92.973
5357	5.8198	-7.7001	0.	108.72
5358	5.4475	-7.5975	0.	78.397
5359	5.5925	-7.39	0.	94.727
5360	5.6625	-8.0525	0.	105.14
5361	5.915	-8.0725	0.	103.68
5362	6.0975	-7.43	0.	92.752
5363	6.205	-7.6575	0.	73.363
5364	5.6874	-7.7625	0.	102.64
5365	5.8324	-7.555	0.	118.84
5366	5.9399	-7.7825	0.	100.26
5367	7.11	-0.73	0.	45.658
5368	7.67	-1.83	0.	109.03
5369	8.34	-0.8	0.	59.945
5370	7.2967	-1.0967	0.	90.925
5371	7.4833	-1.4633	0.	89.38
5372	7.52	-0.75333	0.	112.9
5373	7.93	-0.77667	0.	119.77
5374	7.8933	-1.4867	0.	92.324
5375	8.1167	-1.1433	0.	97.731
5376	7.5691	-1.0308	0.	100.23
5377	7.6987	-1.2833	0.	101.25
5378	7.8534	-1.0478	0.	104.01
5379	7.2033	-0.91333	0.	67.133
5380	7.315	-0.74167	0.	78.445
5381	7.5767	-1.6467	0.	97.445
5382	7.7817	-1.6583	0.	98.929
5383	8.135	-0.78833	0.	87.716
5384	8.2283	-0.97167	0.	76.542
5385	7.39	-1.28	0.	89.902
5386	7.4329	-1.0637	0.	95.433
5387	7.591	-1.3733	0.	95.2
5388	7.725	-0.765	0.	116.32
5389	7.5445	-0.89205	0.	106.51
5390	7.8917	-0.91222	0.	111.76
5391	8.005	-1.315	0.	94.886
5392	7.796	-1.385	0.	96.754
5393	7.985	-1.0955	0.	100.68
5394	7.6339	-1.157	0.	100.62
5395	7.7112	-1.0393	0.	101.9
5396	7.7761	-1.1655	0.	102.51
5397	-4.36	-1.46	0.	68.368
5398	-3.39	-2.09	0.	89.311
5399	-3.33	-0.93	0.	79.063
5400	-4.0367	-1.67	0.	100.63
5401	-3.7133	-1.88	0.	98.223
5402	-4.0167	-1.2833	0.	104.86
5403	-3.6733	-1.1067	0.	102.77
5404	-3.37	-1.7033	0.	107.43
5405	-3.35	-1.3167	0.	107.54
5406	-3.848	-1.4853	0.	104.13
5407	-3.6238	-1.6316	0.	101.53
5408	-3.6098	-1.3629	0.	100.93
5409	-4.1983	-1.565	0.	77.848
5410	-4.1883	-1.3717	0.	79.794
5411	-3.5517	-1.985	0.	91.55
5412	-3.38	-1.8967	0.	95.994
5413	-3.5017	-1.0183	0.	88.989
5414	-3.34	-1.1233	0.	91.615
5415	-3.875	-1.775	0.	99.312
5416	-3.9423	-1.5776	0.	101.72
5417	-3.6686	-1.7558	0.	99.774
5418	-3.845	-1.195	0.	103.72
5419	-3.9323	-1.3843	0.	103.81
5420	-3.6416	-1.2348	0.	101.75
5421	-3.36	-1.51	0.	107.3
5422	-3.4969	-1.6675	0.	104.42
5423	-3.4799	-1.3398	0.	104.22
5424	-3.7359	-1.5584	0.	102.68
5425	-3.7289	-1.4241	0.	102.38
5426	-3.6168	-1.4973	0.	101.2
5427	7.36	-0.23	0.	73.263
5428	7.35	1.25	0.	81.798
5429	6.07	0.51	0.	76.28
5430	7.3567	0.26333	0.	97.148
5431	7.3533	0.75667	0.	98.014
5432	6.93	1.6667e-002	0.	103.84
5433	6.5	0.26333	0.	106.04
5434	6.9233	1.0033	0.	97.876
5435	6.4967	0.75667	0.	103.33
5436	7.0269	0.33888	0.	98.473
5437	6.7286	0.51	0.	104.98
5438	7.0245	0.68107	0.	98.285
5439	7.3583	1.6667e-002	0.	84.098
5440	7.145	-0.10667	0.	87.229
5441	7.3517	1.0033	0.	88.236
5442	7.1367	1.1267	0.	88.194
5443	6.285	0.38667	0.	86.443
5444	6.2833	0.63333	0.	85.176
5445	7.355	0.51	0.	97.349
5446	7.1918	0.30111	0.	97.789
5447	7.1889	0.71887	0.	98.093
5448	6.715	0.14	0.	104.87
5449	6.9784	0.17777	0.	101.09
5450	6.6143	0.38667	0.	105.11
5451	6.71	0.88	0.	100.48
5452	6.9739	0.8422	0.	98.004
5453	6.6126	0.63333	0.	103.61
5454	6.8777	0.42444	0.	101.62
5455	7.0257	0.50998	0.	98.362
5456	6.8766	0.59554	0.	101.53
5457	-5.93	-0.56	0.	88.915
5458	-5.81	1.08	0.	75.622
5459	-7.29	0.36	0.	75.663
5460	-5.89	-1.3333e-002	0.	101.63
5461	-5.85	0.53333	0.	102.51
5462	-6.3833	-0.25333	0.	98.125
5463	-6.8367	5.3333e-002	0.	102.41
5464	-6.3033	0.84	0.	103.53
5465	-6.7967	0.6	0.	107.65
5466	-6.22	0.47525	0.	99.91
5467	-6.2478	9.6038e-002	0.	100.93
5468	-6.5623	0.30876	0.	104.69
5469	-5.91	-0.28667	0.	93.162
5470	-6.1567	-0.40667	0.	91.693
5471	-5.83	0.80667	0.	87.793
5472	-6.0567	0.96	0.	88.143
5473	-7.0633	0.20667	0.	84.432
5474	-7.0433	0.48	0.	86.992
5475	-5.87	0.26	0.	101.91
5476	-6.0689	4.1352e-002	0.	101.19
5477	-6.035	0.50429	0.	101.19
5478	-6.61	-0.1	0.	100.15
5479	-6.3155	-7.8648e-002	0.	99.473
5480	-6.6995	0.18105	0.	103.09
5481	-6.55	0.72	0.	105.45
5482	-6.2617	0.65762	0.	101.66
5483	-6.6795	0.45438	0.	105.69
5484	-6.2339	0.28564	0.	100.42
5485	-6.3911	0.392	0.	102.22
5486	-6.405	0.2024	0.	102.72
5487	-2.43	7.48	0.	109.16
5488	-3.43	6.19	0.	68.702
5489	-1.81	5.97	0.	59.38
5490	-2.7633	7.05	0.	93.039
5491	-3.0967	6.62	0.	99.03
5492	-2.2233	6.9767	0.	96.222
5493	-2.0167	6.4733	0.	100.95
5494	-2.89	6.1167	0.	115.34
5495	-2.35	6.0433	0.	114.45
5496	-2.7586	6.4642	0.	103.88
5497	-2.5274	6.7625	0.	103.28
5498	-2.384	6.4133	0.	101.36
5499	-2.5967	7.265	0.	99.888
5500	-2.3267	7.2283	0.	101.04
5501	-3.2633	6.405	0.	81.445
5502	-3.16	6.1533	0.	89.427
5503	-1.9133	6.2217	0.	80.003
5504	-2.08	6.0067	0.	86.67
5505	-2.93	6.835	0.	95.904
5506	-2.6454	6.9062	0.	98.157
5507	-2.9276	6.5421	0.	101.25
5508	-2.12	6.725	0.	98.422
5509	-2.3754	6.8696	0.	99.647
5510	-2.2003	6.4433	0.	101.12
5511	-2.62	6.08	0.	114.8
5512	-2.8243	6.2904	0.	109.35
5513	-2.367	6.2283	0.	107.88
5514	-2.643	6.6133	0.	103.5
5515	-2.5713	6.4388	0.	102.5
5516	-2.4557	6.5879	0.	102.28
5517	-5.71	5.39	0.	96.757
5518	-4.41	6.66	0.	78.144
5519	-6.16	7.15	0.	70.601
5520	-5.385	5.7075	0.	92.6
5521	-5.06	6.025	0.	100.61
5522	-4.735	6.3425	0.	103.31
5523	-5.8225	5.83	0.	95.08
5524	-5.935	6.27	0.	99.031
5525	-6.0475	6.71	0.	99.52
5526	-4.8475	6.7825	0.	113.15
5527	-5.285	6.905	0.	104.18
5528	-5.7225	7.0275	0.	108.01
5529	-5.5917	6.0253	0.	98.333
5530	-5.6127	6.5595	0.	99.595
5531	-5.3309	6.2965	0.	100.48
5532	-5.0526	6.5539	0.	103.35
5533	-5.5475	5.5487	0.	93.59
5534	-5.7663	5.61	0.	94.686
5535	-4.5725	6.5012	0.	88.699
5536	-4.6287	6.7213	0.	93.229
5537	-6.1038	6.93	0.	84.924
5538	-5.9412	7.0887	0.	89.099
5539	-5.2225	5.8663	0.	96.59
5540	-5.4884	5.8664	0.	95.434
5541	-4.8975	6.1838	0.	101.83
5542	-5.1954	6.1607	0.	100.53
5543	-4.8938	6.4482	0.	103.15
5544	-5.8787	6.05	0.	97.013
5545	-5.7071	5.9277	0.	96.662
5546	-5.9913	6.49	0.	99.271
5547	-5.7634	6.1477	0.	98.677
5548	-5.7739	6.4148	0.	99.31
5549	-5.885	6.8688	0.	103.74
5550	-5.8301	6.6348	0.	99.548
5551	-5.0662	6.8438	0.	108.61
5552	-4.95	6.6682	0.	108.12
5553	-5.5037	6.9662	0.	105.97
5554	-5.4489	6.7323	0.	101.85
5555	-5.1688	6.7295	0.	103.75
5556	-5.4613	6.1609	0.	99.38
5557	-5.4718	6.428	0.	100.01
5558	-5.1917	6.4252	0.	101.89
5559	2.45	6.51	0.	56.467
5560	0.98	6.46	0.	56.822
5561	1.76	5.21	0.	109.26
5562	1.96	6.4933	0.	112.81
5563	1.47	6.4767	0.	113.
5564	2.22	6.0767	0.	97.259
5565	1.99	5.6433	0.	92.077
5566	1.24	6.0433	0.	96.71
5567	1.5	5.6267	0.	91.129
5568	1.5566	6.1525	0.	100.36
5569	1.8965	6.164	0.	99.747
5570	1.7369	5.8635	0.	100.89
5571	2.205	6.5017	0.	83.916
5572	2.335	6.2933	0.	76.097
5573	1.225	6.4683	0.	83.693
5574	1.11	6.2517	0.	75.51
5575	1.875	5.4267	0.	99.208
5576	1.63	5.4183	0.	98.868
5577	1.715	6.485	0.	112.79
5578	1.9282	6.3287	0.	106.18
5579	1.5133	6.3146	0.	106.53
5580	2.105	5.86	0.	94.555
5581	2.0582	6.1204	0.	98.409
5582	1.8635	5.7534	0.	96.416
5583	1.37	5.835	0.	93.811
5584	1.3983	6.0979	0.	98.409
5585	1.6185	5.7451	0.	95.969
5586	1.7265	6.1583	0.	99.931
5587	1.6468	6.008	0.	100.55
5588	1.8167	6.0137	0.	100.25
5589	5.63	5.91	0.	75.009
5590	7.05	5.35	0.	71.018
5591	6.82	6.86	0.	99.801
5592	6.1033	5.7233	0.	110.54
5593	6.5767	5.5367	0.	104.84
5594	6.0267	6.2267	0.	103.28
5595	6.4233	6.5433	0.	100.59
5596	6.9733	5.8533	0.	101.54
5597	6.8967	6.3567	0.	103.
5598	6.574	6.2296	0.	104.02
5599	6.6272	5.8804	0.	100.94
5600	6.2988	6.0099	0.	107.
5601	5.8667	5.8167	0.	88.263
5602	5.8283	6.0683	0.	84.772
5603	6.8133	5.4433	0.	86.649
5604	7.0117	5.6017	0.	85.158
5605	6.6217	6.7017	0.	98.65
5606	6.8583	6.6083	0.	99.17
5607	6.34	5.63	0.	107.48
5608	6.2011	5.8666	0.	108.22
5609	6.6019	5.7086	0.	102.85
5610	6.225	6.385	0.	101.83
5611	6.1628	6.1183	0.	104.8
5612	6.4987	6.3865	0.	102.29
5613	6.935	6.105	0.	102.03
5614	6.8003	5.8669	0.	101.23
5615	6.7353	6.2931	0.	103.29
5616	6.6006	6.055	0.	102.48
5617	6.4364	6.1198	0.	105.43
5618	6.463	5.9452	0.	103.9
5619	-3.	-6.	0.	96.032
5620	-5.	-6.	0.	98.609
5621	-3.	-8.	0.	96.816
5622	-5.	-8.	0.	97.529
5623	-3.5	-6.	0.	110.06
5624	-4.	-6.	0.	107.9
5625	-4.5	-6.	0.	111.28
5626	-3.	-6.5	0.	99.999
5627	-3.	-7.	0.	98.606
5628	-3.	-7.5	0.	100.13
5629	-5.	-6.5	0.	101.35
5630	-5.	-7.	0.	98.883
5631	-5.	-7.5	0.	100.91
5632	-4.5	-8.	0.	110.87
5633	-4.	-8.	0.	107.68
5634	-3.5	-8.	0.	110.14
5635	-4.	-7.	0.	108.9
5636	-4.	-6.5	0.	109.56
5637	-3.5	-6.5	0.	106.94
5638	-3.5	-7.	0.	105.98
5639	-3.5	-7.5	0.	107.02
5640	-4.	-7.5	0.	109.42
5641	-4.5	-7.5	0.	107.18
5642	-4.5	-7.	0.	105.92
5643	-4.5	-6.5	0.	107.58
5644	-3.25	-6.	0.	102.97
5645	-3.	-6.25	0.	97.996
5646	-4.75	-6.	0.	104.86
5647	-5.	-6.25	0.	99.955
5648	-3.	-7.75	0.	98.462
5649	-3.25	-8.	0.	103.4
5650	-5.	-7.75	0.	99.18
5651	-4.75	-8.	0.	104.1
5652	-3.75	-6.	0.	108.98
5653	-3.5	-6.25	0.	108.48
5654	-4.25	-6.	0.	109.59
5655	-4.	-6.25	0.	108.73
5656	-4.5	-6.25	0.	109.42
5657	-3.	-6.75	0.	99.271
5658	-3.25	-6.5	0.	103.45
5659	-3.	-7.25	0.	99.339
5660	-3.25	-7.	0.	102.29
5661	-3.25	-7.5	0.	103.56
5662	-5.	-6.75	0.	100.06
5663	-4.75	-6.5	0.	104.45
5664	-5.	-7.25	0.	99.838
5665	-4.75	-7.	0.	102.39
5666	-4.75	-7.5	0.	104.02
5667	-4.25	-8.	0.	109.27
5668	-4.5	-7.75	0.	109.
5669	-3.75	-8.	0.	108.91
5670	-4.	-7.75	0.	108.54
5671	-3.5	-7.75	0.	108.56
5672	-4.	-6.75	0.	109.23
5673	-3.75	-7.	0.	107.44
5674	-4.	-7.25	0.	109.16
5675	-4.25	-7.	0.	107.41
5676	-3.75	-6.5	0.	108.24
5677	-4.25	-6.5	0.	108.56
5678	-3.5	-6.75	0.	106.45
5679	-3.5	-7.25	0.	106.49
5680	-3.75	-7.5	0.	108.21
5681	-4.25	-7.5	0.	108.29
5682	-4.5	-7.25	0.	106.53
5683	-4.5	-6.75	0.	106.73
