Node Number	X Location (mm)	Y Location (mm)	Z Location (mm)	Equivalent (von-Mises) Stress (MPa)
1	-8.	-7.	0.	134.34
2	-8.	-8.	0.	132.52
3	-7.	-7.	0.	131.28
4	-7.	-8.	0.	128.66
5	7.	-4.	0.	129.83
6	7.	-5.	0.	131.11
7	8.	-4.	0.	133.38
8	8.	-5.	0.	133.26
9	0.	-2.	0.	134.35
10	0.	-3.	0.	134.25
11	1.	-2.	0.	134.44
12	1.	-3.	0.	133.94
13	-9.	-1.	0.	137.
14	-9.	-3.	0.	137.45
15	-7.	-1.	0.	134.97
16	-7.	-3.	0.	134.14
17	1.	9.	0.	139.23
18	1.	8.	0.	136.38
19	3.	9.	0.	136.27
20	3.	8.	0.	133.25
21	8.	0.	0.	133.61
22	8.	-1.	0.	134.55
23	9.	0.	0.	135.06
24	9.	-1.	0.	134.86
25	-7.	-5.	0.	130.91
26	-7.	-6.	0.	130.06
27	-5.	-5.	0.	138.17
28	-5.	-6.	0.	137.54
29	-3.	8.	0.	137.35
30	-3.	6.	0.	134.15
31	-1.	8.	0.	136.55
32	-1.	6.	0.	139.88
33	1.	4.	0.	139.56
34	1.	2.	0.	135.8
35	3.	4.	0.	134.73
36	3.	2.	0.	137.03
37	3.	-3.	0.	130.83
38	3.	-5.	0.	131.84
39	4.	-3.	0.	128.6
40	4.	-5.	0.	133.08
41	-3.	4.	0.	129.34
42	-3.	2.	0.	132.37
43	-2.	4.	0.	128.24
44	-2.	2.	0.	132.43
45	5.	-7.	0.	134.67
46	5.	-9.	0.	129.55
47	7.	-7.	0.	132.99
48	7.	-9.	0.	130.48
49	4.	3.	0.	134.02
50	4.	1.	0.	134.19
51	5.	3.	0.	132.84
52	5.	1.	0.	134.18
53	3.	6.	0.	128.94
54	3.	5.	0.	132.2
55	4.	6.	0.	134.81
56	4.	5.	0.	134.98
57	8.	4.	0.	134.31
58	8.	3.	0.	133.45
59	9.	4.	0.	133.5
60	9.	3.	0.	133.14
61	10.	10.	0.	125.
62	-10.	10.	0.	125.
63	10.	-10.	0.	131.5
64	-10.	-10.	0.	129.68
65	-8.	-7.5	0.	142.54
66	-7.5	-7.	0.	112.18
67	-7.5	-8.	0.	109.08
68	-7.	-7.5	0.	138.15
69	7.	-4.5	0.	138.8
70	7.5	-4.	0.	109.35
71	7.5	-5.	0.	110.23
72	8.	-4.5	0.	142.78
73	0.	-2.5	0.	143.6
74	0.5	-2.	0.	112.03
75	0.5	-3.	0.	111.39
76	1.	-2.5	0.	143.81
77	-9.	-1.5	0.	148.06
78	-9.	-2.	0.	150.01
79	-9.	-2.5	0.	148.36
80	-8.5	-1.	0.	114.85
81	-8.	-1.	0.	118.55
82	-7.5	-1.	0.	113.7
83	-8.5	-3.	0.	116.
84	-8.	-3.	0.	119.34
85	-7.5	-3.	0.	113.49
86	-7.	-1.5	0.	143.28
87	-7.	-2.	0.	144.05
88	-7.	-2.5	0.	142.39
89	1.	8.5	0.	146.52
90	1.5	9.	0.	121.
91	2.	9.	0.	127.47
92	2.5	9.	0.	120.49
93	1.5	8.	0.	119.4
94	2.	8.	0.	123.93
95	2.5	8.	0.	117.22
96	3.	8.5	0.	143.14
97	8.	-0.5	0.	143.7
98	8.5	0.	0.	111.7
99	8.5	-1.	0.	112.07
100	9.	-0.5	0.	145.55
101	-7.	-5.5	0.	137.54
102	-6.5	-5.	0.	116.25
103	-6.	-5.	0.	123.83
104	-5.5	-5.	0.	119.71
105	-6.5	-6.	0.	117.6
106	-6.	-6.	0.	124.47
107	-5.5	-6.	0.	119.12
108	-5.	-5.5	0.	146.24
109	-3.	7.5	0.	145.13
110	-3.	7.	0.	145.88
111	-3.	6.5	0.	144.22
112	-2.5	8.	0.	115.25
113	-2.	8.	0.	119.97
114	-1.5	8.	0.	115.26
115	-2.5	6.	0.	113.3
116	-2.	6.	0.	118.88
117	-1.5	6.	0.	116.63
118	-1.	7.5	0.	146.65
119	-1.	7.	0.	149.04
120	-1.	6.5	0.	148.62
121	1.	3.5	0.	147.03
122	1.	3.	0.	147.12
123	1.	2.5	0.	145.2
124	1.5	4.	0.	117.44
125	2.	4.	0.	122.47
126	2.5	4.	0.	117.23
127	1.5	2.	0.	113.82
128	2.	2.	0.	117.98
129	2.5	2.	0.	113.73
130	3.	3.5	0.	144.86
131	3.	3.	0.	146.56
132	3.	2.5	0.	144.95
133	3.	-3.5	0.	140.05
134	3.	-4.	0.	141.13
135	3.	-4.5	0.	141.15
136	3.5	-3.	0.	105.36
137	3.5	-5.	0.	108.06
138	4.	-3.5	0.	138.28
139	4.	-4.	0.	139.03
140	4.	-4.5	0.	139.31
141	-3.	3.5	0.	139.76
142	-3.	3.	0.	140.56
143	-3.	2.5	0.	140.75
144	-2.5	4.	0.	104.41
145	-2.5	2.	0.	107.38
146	-2.	3.5	0.	137.64
147	-2.	3.	0.	138.93
148	-2.	2.5	0.	139.57
149	5.	-7.5	0.	141.18
150	5.	-8.	0.	141.48
151	5.	-8.5	0.	139.7
152	5.5	-7.	0.	112.74
153	6.	-7.	0.	116.88
154	6.5	-7.	0.	111.79
155	5.5	-9.	0.	108.1
156	6.	-9.	0.	111.47
157	6.5	-9.	0.	108.38
158	7.	-7.5	0.	140.92
159	7.	-8.	0.	141.9
160	7.	-8.5	0.	140.47
161	4.	2.5	0.	142.49
162	4.	2.	0.	144.82
163	4.	1.5	0.	145.56
164	4.5	3.	0.	107.4
165	4.5	1.	0.	109.7
166	5.	2.5	0.	142.6
167	5.	2.	0.	143.43
168	5.	1.5	0.	143.36
169	3.	5.5	0.	138.15
170	3.5	6.	0.	110.66
171	3.5	5.	0.	113.62
172	4.	5.5	0.	143.54
173	8.	3.5	0.	143.18
174	8.5	4.	0.	111.44
175	8.5	3.	0.	110.8
176	9.	3.5	0.	143.87
177	9.5	10.	0.	125.01
178	9.	10.	0.	125.06
179	8.5	10.	0.	125.16
180	8.	10.	0.	125.27
181	7.5	10.	0.	125.4
182	7.	10.	0.	125.52
183	6.5	10.	0.	125.64
184	6.	10.	0.	125.77
185	5.5	10.	0.	125.98
186	5.	10.	0.	126.38
187	4.5	10.	0.	127.06
188	4.	10.	0.	128.09
189	3.5	10.	0.	127.36
190	3.	10.	0.	123.42
191	2.5	10.	0.	119.86
192	2.	10.	0.	118.39
193	1.5	10.	0.	121.
194	1.	10.	0.	125.7
195	0.5	10.	0.	130.25
196	-5.2042e-015	10.	0.	130.16
197	-0.5	10.	0.	127.09
198	-1.	10.	0.	123.76
199	-1.5	10.	0.	121.14
200	-2.	10.	0.	120.07
201	-2.5	10.	0.	120.74
202	-3.	10.	0.	122.73
203	-3.5	10.	0.	125.13
204	-4.	10.	0.	126.91
205	-4.5	10.	0.	127.72
206	-5.	10.	0.	127.79
207	-5.5	10.	0.	127.49
208	-6.	10.	0.	127.06
209	-6.5	10.	0.	126.62
210	-7.	10.	0.	126.2
211	-7.5	10.	0.	125.83
212	-8.	10.	0.	125.52
213	-8.5	10.	0.	125.26
214	-9.	10.	0.	125.08
215	-9.5	10.	0.	125.
216	10.	9.5	0.	124.99
217	10.	9.	0.	124.89
218	10.	8.5	0.	124.71
219	10.	8.	0.	124.52
220	10.	7.5	0.	124.37
221	10.	7.	0.	124.36
222	10.	6.5	0.	124.59
223	10.	6.	0.	125.29
224	10.	5.5	0.	126.77
225	10.	5.	0.	129.01
226	10.	4.5	0.	129.47
227	10.	4.	0.	125.81
228	10.	3.5	0.	122.08
229	10.	3.	0.	125.95
230	10.	2.5	0.	130.
231	10.	2.	0.	130.51
232	10.	1.5	0.	130.19
233	10.	1.	0.	131.47
234	10.	0.5	0.	131.77
235	10.	-5.2042e-015	0.	128.5
236	10.	-0.5	0.	125.49
237	10.	-1.	0.	130.06
238	10.	-1.5	0.	134.35
239	10.	-2.	0.	134.36
240	10.	-2.5	0.	132.5
241	10.	-3.	0.	130.96
242	10.	-3.5	0.	129.47
243	10.	-4.	0.	128.15
244	10.	-4.5	0.	127.86
245	10.	-5.	0.	129.04
246	10.	-5.5	0.	130.62
247	10.	-6.	0.	131.32
248	10.	-6.5	0.	130.78
249	10.	-7.	0.	129.62
250	10.	-7.5	0.	128.63
251	10.	-8.	0.	128.36
252	10.	-8.5	0.	128.93
253	10.	-9.	0.	130.03
254	10.	-9.5	0.	131.08
255	-10.	9.5	0.	125.01
256	-10.	9.	0.	124.85
257	-10.	8.5	0.	124.52
258	-10.	8.	0.	124.11
259	-10.	7.5	0.	123.69
260	-10.	7.	0.	123.31
261	-10.	6.5	0.	123.
262	-10.	6.	0.	122.77
263	-10.	5.5	0.	122.61
264	-10.	5.	0.	122.54
265	-10.	4.5	0.	122.53
266	-10.	4.	0.	122.62
267	-10.	3.5	0.	122.8
268	-10.	3.	0.	123.15
269	-10.	2.5	0.	123.72
270	-10.	2.	0.	124.65
271	-10.	1.5	0.	126.1
272	-10.	1.	0.	128.33
273	-10.	0.5	0.	131.53
274	-10.	-5.2042e-015	0.	135.34
275	-10.	-0.5	0.	136.87
276	-10.	-1.	0.	133.92
277	-10.	-1.5	0.	130.19
278	-10.	-2.	0.	130.27
279	-10.	-2.5	0.	130.92
280	-10.	-3.	0.	135.23
281	-10.	-3.5	0.	138.44
282	-10.	-4.	0.	136.77
283	-10.	-4.5	0.	132.75
284	-10.	-5.	0.	129.56
285	-10.	-5.5	0.	127.7
286	-10.	-6.	0.	126.74
287	-10.	-6.5	0.	125.91
288	-10.	-7.	0.	125.05
289	-10.	-7.5	0.	124.85
290	-10.	-8.	0.	125.97
291	-10.	-8.5	0.	127.69
292	-10.	-9.	0.	129.
293	-10.	-9.5	0.	129.56
294	-9.5	-10.	0.	127.83
295	-9.	-10.	0.	125.92
296	-8.5	-10.	0.	123.32
297	-8.	-10.	0.	120.37
298	-7.5	-10.	0.	118.61
299	-7.	-10.	0.	119.05
300	-6.5	-10.	0.	120.98
301	-6.	-10.	0.	122.94
302	-5.5	-10.	0.	124.34
303	-5.	-10.	0.	125.34
304	-4.5	-10.	0.	126.19
305	-4.	-10.	0.	126.91
306	-3.5	-10.	0.	127.48
307	-3.	-10.	0.	127.84
308	-2.5	-10.	0.	128.02
309	-2.	-10.	0.	128.03
310	-1.5	-10.	0.	127.93
311	-1.	-10.	0.	127.77
312	-0.5	-10.	0.	127.59
313	5.2042e-015	-10.	0.	127.41
314	0.5	-10.	0.	127.28
315	1.	-10.	0.	127.23
316	1.5	-10.	0.	127.34
317	2.	-10.	0.	127.66
318	2.5	-10.	0.	128.3
319	3.	-10.	0.	129.33
320	3.5	-10.	0.	130.62
321	4.	-10.	0.	131.64
322	4.5	-10.	0.	128.92
323	5.	-10.	0.	119.03
324	5.5	-10.	0.	108.79
325	6.	-10.	0.	105.05
326	6.5	-10.	0.	109.17
327	7.	-10.	0.	119.85
328	7.5	-10.	0.	130.22
329	8.	-10.	0.	133.35
330	8.5	-10.	0.	132.67
331	9.	-10.	0.	131.69
332	9.5	-10.	0.	131.06
333	-3.5	-2.	0.	126.75
334	-5.9998	3.0009	0.	126.31
335	-4.	-1.5	0.	126.51
336	-1.5002	-6.	0.	127.25
337	-2.0001	-5.5	0.	127.55
338	-3.5	-2.5	0.	127.25
339	-4.	-2.	0.	126.52
340	-3.5	-1.5	0.	126.58
341	-5.9999	2.5008	0.	126.23
342	-1.0002	-6.	0.	126.9
343	-3.	-2.5	0.	127.27
344	-5.9985	5.0011	0.	127.28
345	-4.	-0.99998	0.	126.84
346	-5.4999	3.0006	0.	127.09
347	-2.0002	-6.	0.	127.54
348	-1.5001	-5.5	0.	127.28
349	-5.997	6.5008	0.	125.71
350	-3.	-3.	0.	127.9
351	-2.0001	-5.	0.	127.79
352	-6.5	2.0008	0.	125.17
353	0.4999	-6.5	0.	126.72
354	0.49992	-6.	0.	126.4
355	-4.	-2.5	0.	127.
356	-4.5	-2.	0.	126.15
357	-3.5	-0.99999	0.	126.61
358	-3.	-1.	0.	126.53
359	-6.	2.0006	0.	126.41
360	-6.	1.5005	0.	126.86
361	-5.999	4.5011	0.	127.28
362	-5.9994	4.0011	0.	127.
363	-1.1334e-004	-6.	0.	126.29
364	-3.	-2.	0.	126.88
365	-5.9974	6.0009	0.	126.35
366	-5.9979	5.501	0.	126.94
367	-6.4999	2.501	0.	125.26
368	-6.4998	3.0012	0.	125.48
369	-6.4993	4.0016	0.	126.09
370	-6.4983	5.0017	0.	126.28
371	-6.497	6.0014	0.	125.66
372	-0.50018	-6.5	0.	126.81
373	-1.5003	-6.5	0.	127.38
374	-4.	-0.49998	0.	127.35
375	-2.5	-0.5	0.	126.29
376	-5.4999	2.5005	0.	127.09
377	-5.4997	3.5006	0.	127.46
378	-2.0003	-6.5	0.	127.7
379	-2.5001	-5.5	0.	127.72
380	-1.0001	-5.5	0.	126.83
381	-2.5	-1.	0.	126.8
382	-2.5	-2.5	0.	127.2
383	-5.4988	5.0007	0.	128.55
384	-4.5	-1.5	0.	126.43
385	-6.4965	6.5012	0.	125.24
386	-5.4979	6.5005	0.	126.32
387	-4.5	5.9145e-005	0.	128.76
388	-4.9999	3.0003	0.	127.76
389	-3.	-3.5	0.	128.58
390	-1.5001	-5.	0.	127.54
391	-2.	-4.5	0.	128.12
392	-2.	-0.5	0.	127.13
393	-6.5	1.5006	0.	125.26
394	-6.9999	2.0009	0.	123.89
395	0.99993	-6.5	0.	126.98
396	-3.5	-3.	0.	128.1
397	0.49994	-5.5	0.	125.71
398	-4.5	-2.5	0.	126.44
399	-5.	-2.	0.	125.85
400	-3.5	-0.49999	0.	126.69
401	-3.	-0.49999	0.	126.2
402	-5.5	1.5004	0.	128.06
403	-5.4995	4.0007	0.	128.03
404	-2.5	-4.5	0.	128.32
405	-2.5002	-6.	0.	127.78
406	-0.5001	-5.5	0.	126.22
407	-8.1765e-005	-5.5	0.	125.71
408	-2.5	-3.5	0.	128.17
409	-2.5	-1.5	0.	126.96
410	-2.5	-2.	0.	127.
411	-4.5	-0.49995	0.	127.96
412	6.5	7.	0.	126.43
413	6.5	6.	0.	127.42
414	6.5	6.5	0.	126.9
415	-6.9998	3.0015	0.	124.69
416	-6.9993	4.002	0.	125.33
417	-6.9988	4.5021	0.	125.5
418	-6.9983	5.0022	0.	125.51
419	-6.997	6.0019	0.	125.14
420	7.	6.5	0.	126.18
421	1.5	-7.	0.	126.7
422	-6.9962	6.5016	0.	124.88
423	-5.9973	7.0007	0.	125.22
424	-5.4981	7.0005	0.	125.65
425	-4.9987	7.0003	0.	126.31
426	0.99993	-7.	0.	126.82
427	-0.5002	-7.	0.	127.04
428	-1.5003	-7.	0.	127.57
429	-2.5004	-7.	0.	128.3
430	-4.	2.7945e-005	0.	127.96
431	-2.5	1.7385e-006	0.	125.21
432	-5.	2.5003	0.	127.79
433	-5.	1.0002	0.	129.45
434	-4.9998	3.5003	0.	128.26
435	-3.	-4.	0.	128.97
436	-3.0001	-5.5	0.	127.88
437	-1.0001	-5.	0.	127.01
438	-2.	-4.	0.	128.29
439	-2.	-1.	0.	127.56
440	-2.	-2.5	0.	127.14
441	-4.9986	6.5003	0.	127.14
442	-4.9991	5.0003	0.	130.11
443	-7.	1.5007	0.	123.47
444	-6.	1.0004	0.	127.59
445	-5.	9.9443e-005	0.	129.31
446	6.	5.5	0.	128.09
447	0.99994	-6.	0.	126.95
448	-4.5	0.50009	0.	129.44
449	-4.	-3.	0.	128.
450	-3.5	-3.5	0.	129.13
451	-0.5	0.5	0.	130.08
452	0.49996	-5.	0.	124.54
453	-1.5	-4.5	0.	128.02
454	-1.5	-0.5	0.	128.35
455	-5.5	0.50021	0.	129.42
456	-5.	-2.5	0.	125.77
457	5.5	-1.5	0.	126.07
458	1.5	-6.5	0.	127.24
459	7.	7.	0.	125.84
460	6.	7.	0.	127.06
461	6.5	5.5	0.	128.2
462	7.	6.	0.	126.73
463	-3.0005	-6.9999	0.	128.81
464	2.	-7.	0.	126.23
465	-4.4992	7.0001	0.	127.48
466	2.	-6.9042e-009	0.	122.02
467	-4.4999	3.0002	0.	128.49
468	-0.5	3.	0.	129.11
469	-6.9961	7.0012	0.	124.7
470	-3.5	1.3288e-005	0.	126.77
471	-3.	5.7592e-006	0.	125.54
472	-5.	2.0003	0.	128.31
473	-5.	1.5002	0.	128.97
474	-4.9996	4.0004	0.	129.12
475	-3.	-4.5	0.	128.82
476	-3.0002	-6.	0.	128.08
477	0.5	-1.4439e-010	0.	125.25
478	5.5	-1.	0.	125.64
479	6.	-1.	0.	126.94
480	6.	-1.5	0.	126.9
481	-0.50006	-5.	0.	126.03
482	-5.4424e-005	-5.	0.	124.92
483	-2.	-3.5	0.	128.06
484	-2.	-1.5	0.	127.53
485	-2.	-2.	0.	127.25
486	-3.5631e-008	3.9032e-009	0.	127.29
487	-0.5	1.0994e-008	0.	128.84
488	1.	-2.4082e-009	0.	123.45
489	-4.9988	5.5003	0.	129.53
490	-6.5	1.0004	0.	125.66
491	-7.	1.0005	0.	123.11
492	-5.	-0.99995	0.	127.51
493	-5.	-0.49993	0.	128.58
494	4.5	-1.	0.	121.47
495	4.	-1.	0.	120.35
496	6.	6.	0.	127.76
497	6.	6.5	0.	127.53
498	6.	5.	0.	128.79
499	0.99995	-5.5	0.	126.48
500	5.	-4.	0.	125.88
501	-6.	-2.	0.	128.1
502	3.	-1.	0.	122.22
503	2.5	-1.	0.	124.27
504	7.4059e-009	3.	0.	131.37
505	-4.	3.0001	0.	129.86
506	-1.	3.	0.	129.1
507	2.5	-7.6397e-009	0.	122.92
508	-7.5	1.0005	0.	120.82
509	-7.4999	1.5007	0.	121.99
510	-7.4999	2.001	0.	122.89
511	-7.4998	2.5013	0.	123.56
512	-7.4997	3.0015	0.	124.07
513	-7.4996	3.5018	0.	124.45
514	-7.4993	4.0021	0.	124.72
515	-7.4989	4.5024	0.	124.88
516	-7.4984	5.0026	0.	124.92
517	-7.4978	5.5025	0.	124.85
518	-7.497	6.0024	0.	124.73
519	-7.4964	6.502	0.	124.6
520	-7.4962	7.0015	0.	124.52
521	-7.4964	7.501	0.	124.55
522	-6.9967	7.5009	0.	124.65
523	-6.4972	7.5008	0.	124.79
524	-5.9978	7.5006	0.	125.
525	-5.4985	7.5004	0.	125.37
526	-4.999	7.5002	0.	126.01
527	-4.4994	7.5001	0.	127.26
528	3.	-7.5	0.	124.71
529	2.5	-7.5	0.	125.23
530	2.	-7.5	0.	125.9
531	1.5	-7.5	0.	126.4
532	0.99993	-7.5	0.	126.69
533	0.4999	-7.5	0.	126.87
534	-1.4335e-004	-7.5	0.	127.02
535	-0.50019	-7.5	0.	127.21
536	-1.0002	-7.5	0.	127.45
537	-1.5003	-7.5	0.	127.73
538	-2.0003	-7.5	0.	128.04
539	-2.5004	-7.4999	0.	128.38
540	-3.0004	-7.4999	0.	128.73
541	-3.5005	-7.4999	0.	128.97
542	-4.0005	-7.4999	0.	128.73
543	7.	5.5	0.	127.73
544	5.	7.5	0.	126.7
545	5.5	7.5	0.	126.58
546	6.	7.5	0.	126.28
547	6.5	7.5	0.	125.93
548	7.	7.5	0.	125.55
549	7.5	7.5	0.	125.17
550	7.5	7.	0.	125.22
551	7.5	6.5	0.	125.29
552	7.5	6.	0.	125.49
553	3.5	-7.5	0.	125.01
554	-0.5	3.5	0.	129.83
555	2.	0.5	0.	119.5
556	6.	-2.5	0.	126.9
557	5.5	-4.5	0.	122.56
558	5.5	7.	0.	127.82
559	5.5	5.5	0.	127.9
560	1.5	-6.	0.	127.79
561	2.	-6.5	0.	127.08
562	2.5	-7.	0.	125.31
563	3.	-7.	0.	124.4
564	5.5	-2.	0.	126.78
565	3.5	-1.5	0.	118.89
566	5.	-1.5	0.	124.58
567	-5.5	-2.5	0.	125.68
568	-5.5	1.4654e-004	0.	129.78
569	-5.5	-1.5	0.	127.02
570	-7.5	0.50031	0.	119.32
571	-6.	0.50027	0.	128.68
572	6.5	5.	0.	129.2
573	6.	2.	0.	131.58
574	6.5	2.	0.	130.11
575	-4.4991	6.5002	0.	128.34
576	2.	-0.5	0.	124.01
577	-1.	-0.5	0.	129.08
578	0.5	-0.5	0.	123.5
579	-1.5	-1.	0.	128.67
580	-1.5	-4.	0.	128.46
581	-1.5	-2.5	0.	127.27
582	-1.	-4.5	0.	127.62
583	0.49998	-4.5	0.	122.79
584	0.99996	-5.	0.	125.5
585	6.5	-2.	0.	126.75
586	6.5	-0.5	0.	128.1
587	6.	-0.5	0.	127.73
588	7.	1.5	0.	129.08
589	6.5	1.5	0.	130.43
590	6.	4.5	0.	129.58
591	4.5	-0.5	0.	120.52
592	3.	-0.5	0.	123.22
593	1.5	0.5	0.	120.52
594	-3.4625e-008	0.5	0.	129.15
595	-3.5005	-6.9999	0.	129.49
596	-3.5	-4.	0.	129.91
597	-3.5001	-5.5	0.	128.22
598	-4.	-3.5	0.	129.46
599	-4.5	-3.	0.	127.32
600	-5.	-3.	0.	126.21
601	-4.4999	3.5002	0.	129.06
602	-4.4994	5.0002	0.	131.78
603	-4.5	1.0001	0.	129.87
604	-4.5	2.5002	0.	128.53
605	-4.	0.50004	0.	128.78
606	-1.	0.5	0.	129.83
607	-2.5	0.5	0.	123.23
608	-0.5	2.5	0.	129.39
609	-0.5	1.	0.	131.31
610	-1.5	0.5	0.	127.98
611	-3.	0.50001	0.	124.44
612	-4.5	1.5001	0.	129.77
613	-4.4997	4.0002	0.	130.15
614	-5.	-3.5	0.	126.88
615	-3.5	-5.	0.	128.86
616	-3.5	-4.5	0.	129.85
617	0.5	0.5	0.	126.94
618	1.	0.5	0.	123.65
619	-0.5	1.5	0.	131.53
620	4.	-0.5	0.	120.64
621	6.5	3.5	0.	129.58
622	6.5	1.	0.	130.88
623	5.5	-0.5	0.	126.01
624	6.5	-1.	0.	127.47
625	6.5	-1.5	0.	127.36
626	6.5	-4.9815e-011	0.	129.54
627	1.5	-4.5	0.	127.03
628	-0.50003	-4.5	0.	126.21
629	-2.917e-005	-4.5	0.	123.97
630	-1.5	-3.5	0.	128.38
631	-1.5	-1.5	0.	128.51
632	-1.5	-2.	0.	127.72
633	-3.2122e-008	-0.5	0.	125.72
634	-0.5	-0.5	0.	128.21
635	1.5	-0.5	0.	123.85
636	1.	-0.5	0.	123.23
637	-4.4992	5.5002	0.	131.17
638	6.5	2.5	0.	129.88
639	6.5	4.	0.	129.82
640	-7.	0.50031	0.	123.
641	-5.5	-0.4999	0.	129.43
642	-5.5	-3.	0.	125.44
643	4.	-1.5	0.	119.68
644	5.5	-3.	0.	126.66
645	5.5	-2.5	0.	127.14
646	2.5	-6.5	0.	125.81
647	3.	-6.5	0.	123.87
648	1.5	-5.	0.	127.36
649	1.5	-5.5	0.	127.89
650	5.5	6.5	0.	128.38
651	1.	6.5	0.	125.46
652	5.5	-3.5	0.	125.54
653	5.5	-4.	0.	123.86
654	7.	-2.5	0.	123.74
655	6.5	-2.5	0.	125.83
656	2.	1.	0.	116.18
657	5.5	-5.5	0.	121.52
658	-1.	3.5	0.	128.62
659	-4.	2.5001	0.	129.42
660	-7.7529e-009	2.5	0.	130.7
661	6.	2.5	0.	130.65
662	-3.9995	6.5001	0.	129.97
663	-6.	-1.5	0.	128.4
664	5.	-3.5	0.	126.22
665	2.	-4.5	0.	129.36
666	5.5	5.	0.	128.25
667	3.5	-7.	0.	124.55
668	3.5	-6.5	0.	123.53
669	7.5	5.5	0.	126.08
670	-0.5	4.	0.	131.5
671	-0.5	4.5	0.	133.87
672	0.5	5.5	0.	132.12
673	1.	5.5	0.	126.27
674	-4.5005	-7.4999	0.	127.24
675	-5.0004	-7.4999	0.	124.27
676	8.	-8.	0.	129.33
677	-3.9997	7.5001	0.	129.26
678	-8.	0.50031	0.	117.76
679	-7.9999	1.0005	0.	119.88
680	-7.9999	1.5007	0.	121.41
681	-7.9999	2.0009	0.	122.48
682	-7.9998	2.5012	0.	123.21
683	-7.9997	3.0015	0.	123.71
684	-7.9996	3.5018	0.	124.05
685	-7.9994	4.0022	0.	124.27
686	-7.9991	4.5026	0.	124.4
687	-7.9981	5.5029	0.	124.43
688	-7.9975	6.0027	0.	124.39
689	-7.9969	6.5022	0.	124.35
690	-7.9967	7.0016	0.	124.36
691	-7.9969	7.501	0.	124.44
692	-7.9974	8.0006	0.	124.6
693	-6.9974	8.0006	0.	124.77
694	-5.4988	8.0003	0.	125.44
695	-4.9992	8.0002	0.	126.19
696	-4.4995	8.0001	0.	127.49
697	7.5	-3.	0.	118.35
698	4.	-8.	0.	127.37
699	3.5	-8.	0.	125.64
700	3.	-8.	0.	125.31
701	2.5	-8.	0.	125.56
702	2.	-8.	0.	125.99
703	1.5	-8.	0.	126.39
704	0.99993	-8.	0.	126.69
705	0.49991	-8.	0.	126.92
706	-1.2499e-004	-8.	0.	127.13
707	-0.50017	-8.	0.	127.34
708	-1.0002	-8.	0.	127.58
709	-1.5003	-8.	0.	127.84
710	-2.0003	-8.	0.	128.1
711	-2.5004	-7.9999	0.	128.33
712	-3.0004	-7.9999	0.	128.46
713	-3.5005	-7.9999	0.	128.34
714	-4.5004	-7.9999	0.	126.33
715	-5.0003	-7.9999	0.	124.3
716	-5.5002	-8.	0.	122.48
717	-5.5003	-7.5	0.	121.17
718	1.5	6.5	0.	121.8
719	1.5	6.	0.	121.54
720	1.5	5.5	0.	120.94
721	2.5	0.5	0.	121.45
722	-1.	2.5	0.	129.08
723	-2.5	1.	0.	119.55
724	-4.	1.0001	0.	129.96
725	-3.9999	3.5001	0.	129.8
726	-5.5	-4.	0.	123.48
727	-4.	-4.	0.	131.14
728	-4.0001	-5.5	0.	128.44
729	-4.0004	-6.9999	0.	130.23
730	-8.	-4.	0.	117.39
731	1.5	1.	0.	118.31
732	-4.354e-008	1.	0.	131.22
733	4.5	-3.6883e-009	0.	118.35
734	3.	-9.3187e-009	0.	124.5
735	6.	4.	0.	130.41
736	6.	1.5	0.	131.4
737	6.	-1.6459e-010	0.	129.68
738	7.5	-2.5	0.	121.78
739	8.	-2.5	0.	121.37
740	7.	-2.	0.	126.33
741	7.	1.	0.	130.06
742	0.49999	-4.	0.	119.87
743	-1.	-2.5	0.	127.26
744	-1.	-1.	0.	129.75
745	0.5	-1.	0.	120.69
746	1.3404e-008	6.5	0.	133.62
747	5.93e-007	5.	0.	137.3
748	-2.5	5.	0.	112.56
749	-3.9996	5.0001	0.	133.01
750	7.5	1.5	0.	125.96
751	8.	1.5	0.	121.29
752	7.	2.	0.	129.35
753	7.	3.5	0.	128.4
754	7.	5.	0.	129.34
755	5.	8.	0.	124.87
756	5.5	8.	0.	125.31
757	6.	8.	0.	125.48
758	6.5	8.	0.	125.46
759	7.	8.	0.	125.32
760	7.5	8.	0.	125.12
761	8.	8.	0.	124.93
762	8.	7.5	0.	124.84
763	8.	7.	0.	124.69
764	8.	6.5	0.	124.42
765	8.	6.	0.	124.01
766	8.	5.5	0.	123.48
767	-7.5	1.8399e-004	0.	117.5
768	-6.	1.7821e-004	0.	130.1
769	-6.	-2.5	0.	126.76
770	-6.	-4.	0.	122.05
771	3.5	-2.	0.	115.72
772	5.	-2.	0.	126.16
773	5.	-4.5	0.	124.7
774	3.5	-6.	0.	120.24
775	2.	-6.	0.	128.5
776	2.	-4.	0.	130.57
777	2.5	-1.5	0.	124.64
778	2.	7.	0.	119.51
779	5.	7.	0.	128.79
780	5.	5.5	0.	127.59
781	5.5	4.5	0.	128.77
782	6.5306e-009	7.	0.	134.39
783	4.5	8.	0.	124.31
784	4.5	7.5	0.	126.27
785	8.	-7.5	0.	128.42
786	6.	-6.	0.	117.04
787	6.	-4.5	0.	121.55
788	6.	-3.	0.	126.84
789	7.	-3.	0.	121.39
790	6.5	-3.	0.	125.78
791	6.	-3.5	0.	126.18
792	6.	-4.	0.	124.12
793	6.	-5.	0.	121.56
794	6.	-5.5	0.	120.54
795	3.5	7.	0.	121.04
796	4.	7.5	0.	125.83
797	4.	8.	0.	124.69
798	1.	7.	0.	125.78
799	5.	4.5	0.	128.01
800	5.	5.	0.	128.48
801	5.	6.	0.	129.1
802	5.	6.5	0.	129.9
803	4.5	7.	0.	128.56
804	4.	7.	0.	124.92
805	2.5	7.	0.	120.09
806	2.	6.5	0.	121.06
807	2.	6.	0.	120.5
808	3.	-2.	0.	119.75
809	2.5	-2.	0.	125.55
810	2.	-2.5	0.	128.18
811	3.	-6.	0.	122.68
812	4.	-6.	0.	124.68
813	5.	-5.	0.	125.05
814	5.	-2.5	0.	127.41
815	4.	-2.	0.	118.57
816	-6.5	-4.	0.	122.6
817	-6.	-3.	0.	126.36
818	-6.	-0.99994	0.	129.82
819	-6.	-0.49989	0.	130.77
820	-7.	1.8627e-004	0.	123.36
821	8.	5.	0.	122.87
822	7.5	5.	0.	127.84
823	7.	4.	0.	129.89
824	7.	3.	0.	129.41
825	7.	2.5	0.	129.91
826	7.5	2.	0.	126.96
827	8.	2.	0.	121.13
828	-3.9994	6.0001	0.	131.39
829	-3.9995	5.5001	0.	132.74
830	-1.	5.	0.	130.16
831	-0.5	5.	0.	136.09
832	2.8557e-007	5.5	0.	136.62
833	8.2439e-008	6.	0.	134.88
834	2.	-2.	0.	128.44
835	2.	-1.5	0.	127.87
836	1.5	-1.	0.	126.23
837	1.	-1.	0.	122.85
838	-5.3492e-008	-1.	0.	124.3
839	-0.5	-1.	0.	128.97
840	-1.	-2.	0.	128.89
841	-1.	-3.	0.	128.53
842	-1.	-3.5	0.	129.4
843	-0.50001	-4.	0.	127.57
844	-1.3959e-005	-4.	0.	122.99
845	0.99999	-4.	0.	122.98
846	1.5	-4.	0.	127.97
847	2.	-3.5	0.	130.46
848	2.	-3.	0.	129.73
849	8.	1.	0.	121.39
850	7.5	1.	0.	127.38
851	7.	-1.6842e-011	0.	129.77
852	7.	-1.	0.	128.25
853	7.	-1.5	0.	128.18
854	7.5	-2.	0.	125.12
855	8.	-2.	0.	121.57
856	5.5	-2.7926e-010	0.	127.99
857	6.	1.	0.	131.89
858	6.	3.	0.	130.74
859	6.	3.5	0.	130.91
860	5.	4.	0.	125.14
861	4.	-5.0529e-009	0.	120.65
862	1.	5.	0.	127.45
863	0.5	5.	0.	134.47
864	3.74e-007	4.5	0.	136.4
865	1.6339e-007	4.	0.	134.06
866	-4.4524e-008	1.5	0.	132.34
867	0.5	1.	0.	129.45
868	1.	1.	0.	124.05
869	-7.5	-4.	0.	119.58
870	-8.	-5.	0.	120.38
871	-4.5004	-6.9999	0.	129.46
872	-4.0003	-6.4999	0.	131.
873	-4.0002	-5.9999	0.	129.91
874	-4.	-5.	0.	130.36
875	-4.	-4.5	0.	131.81
876	-4.5	-4.	0.	131.09
877	-5.	-4.	0.	127.59
878	-2.9999	5.	0.	120.52
879	-3.4998	5.	0.	130.4
880	-3.9998	4.0001	0.	131.07
881	-4.	1.5001	0.	130.69
882	-3.5	1.	0.	128.22
883	-3.	1.	0.	122.85
884	-1.	1.5	0.	131.48
885	-1.	2.	0.	130.42
886	-1.	4.5	0.	130.37
887	-2.	5.	0.	114.24
888	8.	-7.	0.	128.66
889	8.	-6.5	0.	128.31
890	7.5	-6.	0.	122.16
891	7.	-6.	0.	120.44
892	4.	-7.	0.	126.75
893	2.5	1.	0.	118.97
894	2.	5.5	0.	118.31
895	-8.	-5.5	0.	119.57
896	-6.0002	-7.5	0.	119.5
897	8.	-3.	0.	121.1
898	-6.0002	-8.	0.	122.34
899	-3.9997	8.0001	0.	129.87
900	7.6539e-009	7.5	0.	133.84
901	3.5455e-008	8.	0.	132.34
902	-7.9982	8.5003	0.	124.85
903	-7.4982	8.5004	0.	124.94
904	-6.9984	8.5005	0.	125.03
905	-6.4986	8.5004	0.	125.14
906	-5.9989	8.5003	0.	125.33
907	-5.4992	8.5002	0.	125.71
908	-4.9995	8.5002	0.	126.46
909	-4.4997	8.5001	0.	127.82
910	-3.9998	8.5001	0.	130.07
911	1.4277e-007	8.5	0.	129.43
912	-8.5	-5.5	0.	122.33
913	-8.5	-5.	0.	121.3
914	-8.5	-4.5	0.	120.67
915	-8.5	-4.	0.	119.1
916	8.5	8.	0.	124.8
917	8.5	7.5	0.	124.64
918	8.5	7.	0.	124.39
919	8.5	6.5	0.	123.95
920	8.5	5.5	0.	121.81
921	8.5	5.	0.	119.25
922	8.5	2.	0.	117.36
923	8.5	1.5	0.	118.72
924	8.5	1.	0.	117.78
925	3.	0.5	0.	125.6
926	4.5	4.	0.	121.7
927	1.5	5.	0.	120.28
928	-8.5	-6.	0.	125.19
929	-5.5002	-7.	0.	120.36
930	8.	-8.5	0.	129.57
931	4.	8.5	0.	122.86
932	4.5	8.5	0.	123.17
933	5.	8.5	0.	123.84
934	5.5	8.5	0.	124.57
935	6.	8.5	0.	125.
936	6.5	8.5	0.	125.18
937	7.	8.5	0.	125.18
938	7.5	8.5	0.	125.11
939	8.5	8.5	0.	124.91
940	-8.5	1.744e-004	0.	117.51
941	-8.5	0.50029	0.	119.32
942	-8.4999	1.0004	0.	120.85
943	-8.4999	1.5006	0.	121.99
944	-8.4999	2.0008	0.	122.77
945	-8.4998	2.5011	0.	123.28
946	-8.4998	3.0013	0.	123.6
947	-8.4996	3.5016	0.	123.8
948	-8.4995	4.002	0.	123.93
949	-8.4993	4.5024	0.	124.
950	-8.4989	5.0027	0.	124.04
951	-8.4985	5.5027	0.	124.06
952	-8.4981	6.0025	0.	124.07
953	-8.4977	6.5021	0.	124.1
954	-8.4976	7.0014	0.	124.18
955	-8.4979	8.0006	0.	124.5
956	-8.4985	8.5003	0.	124.74
957	4.	-8.5	0.	127.68
958	3.5	-8.5	0.	126.79
959	3.	-8.5	0.	126.33
960	2.5	-8.5	0.	126.29
961	2.	-8.5	0.	126.41
962	1.5	-8.5	0.	126.61
963	0.99995	-8.5	0.	126.82
964	-9.9656e-005	-8.5	0.	127.23
965	-0.50014	-8.5	0.	127.44
966	-1.0002	-8.5	0.	127.67
967	-1.5002	-8.5	0.	127.9
968	-2.0003	-8.5	0.	128.09
969	-2.5003	-8.4999	0.	128.21
970	-3.0004	-8.4999	0.	128.18
971	-3.5004	-8.4999	0.	127.89
972	-4.0003	-8.4999	0.	127.21
973	-4.5003	-8.4999	0.	126.1
974	-5.5002	-8.5	0.	123.86
975	-6.0001	-8.5	0.	124.1
976	8.	-6.	0.	126.18
977	8.5	-2.	0.	119.73
978	8.5	-2.5	0.	122.65
979	8.5	-3.	0.	125.56
980	8.5	-6.	0.	130.46
981	8.5	-6.5	0.	129.41
982	8.5	-7.	0.	128.7
983	8.5	-7.5	0.	128.37
984	8.5	-8.5	0.	129.39
985	9.	-2.5	0.	125.61
986	9.	-3.	0.	127.76
987	9.	-3.5	0.	129.25
988	9.	-4.	0.	129.07
989	9.	-4.5	0.	128.41
990	9.	-5.	0.	130.45
991	9.	-5.5	0.	131.76
992	9.	-6.	0.	131.28
993	9.	-6.5	0.	130.15
994	9.	-7.	0.	129.28
995	9.	-7.5	0.	128.78
996	9.	-8.	0.	128.83
997	9.	-8.5	0.	129.43
998	3.5	-9.	0.	128.39
999	3.	-9.	0.	127.68
1000	2.5	-9.	0.	127.21
1001	2.	-9.	0.	126.98
1002	1.5	-9.	0.	126.94
1003	0.49995	-9.	0.	127.14
1004	-8.2112e-005	-9.	0.	127.32
1005	-0.5001	-9.	0.	127.52
1006	-1.0001	-9.	0.	127.73
1007	-1.5002	-9.	0.	127.92
1008	-2.0002	-9.	0.	128.06
1009	-2.5002	-8.9999	0.	128.11
1010	-3.0003	-8.9999	0.	127.99
1011	-4.5002	-9.	0.	126.12
1012	-5.0002	-9.	0.	125.18
1013	-5.5001	-9.	0.	124.42
1014	-6.0001	-9.	0.	123.96
1015	-6.5001	-9.	0.	122.48
1016	-7.	-9.	0.	118.31
1017	-7.5	-9.	0.	116.14
1018	-8.	-9.	0.	120.14
1019	-8.5	-9.	0.	125.53
1020	-9.	0.50022	0.	123.23
1021	-8.9999	1.0003	0.	123.31
1022	-8.9999	1.5005	0.	123.48
1023	-8.9999	2.0006	0.	123.58
1024	-8.9998	3.001	0.	123.62
1025	-8.9996	4.0016	0.	123.61
1026	-8.9995	4.5019	0.	123.61
1027	-8.9993	5.0021	0.	123.63
1028	-8.999	5.5021	0.	123.67
1029	-8.9985	6.5017	0.	123.83
1030	-8.9984	7.0012	0.	123.96
1031	-8.9985	7.5007	0.	124.15
1032	-8.9986	8.0004	0.	124.37
1033	-8.999	8.5002	0.	124.62
1034	4.5	9.	0.	123.48
1035	5.	9.	0.	124.03
1036	5.5	9.	0.	124.61
1037	6.	9.	0.	124.99
1038	6.5	9.	0.	125.16
1039	7.	9.	0.	125.2
1040	7.5	9.	0.	125.16
1041	8.	9.	0.	125.09
1042	8.5	9.	0.	125.01
1043	4.	-9.	0.	129.38
1044	4.5	-6.5	0.	131.25
1045	7.5	-6.5	0.	128.76
1046	8.5	-9.	0.	130.71
1047	8.	-9.	0.	131.19
1048	-1.5	4.5	0.	127.09
1049	-1.5	1.5	0.	131.98
1050	-3.5	1.5	0.	131.66
1051	-3.4999	4.5	0.	131.97
1052	-4.5	-4.5	0.	134.87
1053	-4.5002	-6.4999	0.	133.6
1054	-6.0001	-7.	0.	118.98
1055	-8.	-6.	0.	121.51
1056	-7.5	-4.5	0.	124.04
1057	0.5	1.5	0.	133.66
1058	0.5	4.5	0.	138.05
1059	4.	4.	0.	122.59
1060	3.	1.	0.	125.72
1061	3.5	0.5	0.	129.67
1062	5.5	3.5	0.	132.36
1063	5.5	0.5	0.	132.49
1064	7.5	-1.5	0.	130.07
1065	7.5	0.5	0.	131.49
1066	9.	1.5	0.	121.11
1067	9.	1.	0.	121.36
1068	9.	-2.	0.	123.82
1069	1.5	-3.5	0.	131.48
1070	-0.50001	-3.5	0.	131.21
1071	-0.5	-1.5	0.	132.16
1072	1.5	-1.5	0.	130.78
1073	-0.5	8.5	0.	132.09
1074	-0.5	5.5	0.	139.4
1075	-3.4997	5.5	0.	133.27
1076	-3.4999	8.5	0.	133.22
1077	7.5	2.5	0.	130.76
1078	7.5	4.5	0.	131.79
1079	9.	8.5	0.	124.84
1080	9.	8.	0.	124.72
1081	9.	7.5	0.	124.58
1082	9.	7.	0.	124.39
1083	9.	6.5	0.	124.07
1084	9.	6.	0.	123.53
1085	9.	5.5	0.	122.69
1086	9.	5.	0.	121.71
1087	-9.	1.4236e-004	0.	123.63
1088	-9.	-8.5	0.	128.47
1089	-9.	-7.	0.	128.09
1090	-9.	-6.5	0.	128.38
1091	-9.	-6.	0.	126.8
1092	-9.	-5.5	0.	125.04
1093	-9.	-5.	0.	124.39
1094	-9.	-4.5	0.	124.44
1095	-6.5	-0.4999	0.	132.54
1096	-6.5	-3.5	0.	128.1
1097	4.5	-2.5	0.	127.81
1098	4.5	-5.5	0.	130.25
1099	2.5	-5.5	0.	131.22
1100	2.5	-2.5	0.	129.
1101	2.5	6.5	0.	123.96
1102	4.5	6.5	0.	132.27
1103	4.5	4.5	0.	129.53
1104	0.5	7.5	0.	134.54
1105	-8.4991	9.0001	0.	124.99
1106	-6.9991	9.0003	0.	125.4
1107	-6.4992	9.0003	0.	125.55
1108	-5.9994	9.0002	0.	125.74
1109	-5.4995	9.0002	0.	126.05
1110	-4.9997	9.0001	0.	126.59
1111	-4.4998	9.0001	0.	127.47
1112	-3.9999	9.	0.	128.73
1113	-3.4999	9.	0.	128.81
1114	-3.	9.	0.	125.13
1115	-2.5	9.	0.	120.38
1116	-2.	9.	0.	118.21
1117	-1.5	9.	0.	119.97
1118	-1.	9.	0.	124.27
1119	-0.5	9.	0.	127.58
1120	4.	9.	0.	124.22
1121	3.5	7.5	0.	127.24
1122	6.5	-5.5	0.	123.89
1123	6.5	-3.5	0.	128.02
1124	8.5	-3.5	0.	130.16
1125	8.5	-5.5	0.	133.4
1126	-6.5001	-8.5	0.	125.75
1127	-8.5	-8.5	0.	129.7
1128	-8.5	-6.5	0.	130.57
1129	9.	-9.	0.	130.41
1130	-9.	-9.	0.	127.52
1131	-8.9994	9.0001	0.	124.86
1132	9.	9.	0.	124.94
1133	4.5	-9.	0.	129.8
1134	4.5	-8.5	0.	130.98
1135	4.5	-8.	0.	132.74
1136	4.5	-7.	0.	129.36
1137	4.5	-7.5	0.	131.63
1138	5.	-6.5	0.	125.97
1139	5.5	-6.5	0.	114.57
1140	6.	-6.5	0.	114.09
1141	7.	-6.5	0.	122.98
1142	6.5	-6.5	0.	113.38
1143	7.5	-7.	0.	129.06
1144	7.5	-7.5	0.	132.1
1145	7.5	-8.	0.	133.74
1146	7.5	-9.	0.	131.05
1147	7.5	-8.5	0.	132.22
1148	-1.5	3.5	0.	130.64
1149	-1.5	3.	0.	132.83
1150	-1.5	2.	0.	130.36
1151	-1.5	2.5	0.	132.12
1152	-2.	1.5	0.	123.26
1153	-3.	1.5	0.	122.87
1154	-2.5	1.5	0.	111.01
1155	-3.5	2.	0.	130.77
1156	-3.5	2.5	0.	132.8
1157	-3.5	3.	0.	134.12
1158	-3.4999	4.	0.	130.94
1159	-3.5	3.5	0.	132.26
1160	-2.9999	4.5	0.	119.96
1161	-2.	4.5	0.	117.14
1162	-2.5	4.5	0.	106.69
1163	-4.5	-5.	0.	133.27
1164	-4.5	-5.5	0.	132.42
1165	-5.0002	-6.5	0.	127.52
1166	-5.5001	-6.5	0.	118.63
1167	-6.0001	-6.5	0.	119.77
1168	-6.5	-6.5	0.	120.72
1169	-7.5	-6.	0.	121.22
1170	-7.5	-5.	0.	123.08
1171	-7.5	-5.5	0.	122.79
1172	-7.	-4.5	0.	122.61
1173	-5.	-4.5	0.	129.06
1174	-5.5	-4.5	0.	120.07
1175	-6.	-4.5	0.	120.11
1176	-6.5	-4.5	0.	117.45
1177	0.5	2.	0.	133.03
1178	0.5	2.5	0.	135.37
1179	0.5	3.	0.	137.56
1180	0.5	4.	0.	135.85
1181	0.5	3.5	0.	137.
1182	1.	4.5	0.	129.81
1183	1.5	4.5	0.	117.81
1184	2.	4.5	0.	118.19
1185	2.5	4.5	0.	120.35
1186	3.5	4.	0.	126.24
1187	3.5	3.5	0.	134.59
1188	1.5	1.5	0.	114.57
1189	2.	1.5	0.	114.36
1190	2.5	1.5	0.	114.8
1191	3.	1.5	0.	126.78
1192	3.5	1.	0.	131.8
1193	3.5	1.5	0.	137.62
1194	3.5	2.	0.	138.92
1195	3.5	3.	0.	137.34
1196	3.5	2.5	0.	139.68
1197	4.	3.5	0.	122.96
1198	5.	3.5	0.	123.53
1199	4.5	3.5	0.	111.59
1200	5.5	3.	0.	131.68
1201	5.5	2.5	0.	134.14
1202	5.5	2.	0.	136.29
1203	5.5	1.	0.	132.57
1204	5.5	1.5	0.	134.93
1205	5.	0.5	0.	123.76
1206	4.	0.5	0.	122.47
1207	4.5	0.5	0.	111.8
1208	7.5	-1.	0.	130.07
1209	7.5	-3.1106e-012	0.	131.26
1210	7.5	-0.5	0.	130.77
1211	8.	0.5	0.	122.94
1212	9.	0.5	0.	123.4
1213	8.5	0.5	0.	112.58
1214	9.	-1.5	0.	124.25
1215	8.	-1.5	0.	123.52
1216	8.5	-1.5	0.	113.43
1217	1.	-3.5	0.	123.61
1218	-5.5422e-006	-3.5	0.	123.86
1219	0.49999	-3.5	0.	113.17
1220	-0.5	-3.	0.	130.5
1221	-0.5	-2.	0.	131.1
1222	-0.5	-2.5	0.	130.69
1223	-5.9801e-008	-1.5	0.	124.64
1224	1.	-1.5	0.	124.06
1225	0.5	-1.5	0.	113.97
1226	1.5	-2.	0.	130.75
1227	1.5	-3.	0.	131.
1228	1.5	-2.5	0.	130.98
1229	-0.5	8.	0.	133.21
1230	-0.5	7.5	0.	137.25
1231	-0.5	7.	0.	139.88
1232	-0.5	6.	0.	137.5
1233	-0.5	6.5	0.	138.73
1234	-1.	5.5	0.	130.69
1235	-1.5	5.5	0.	117.21
1236	-2.	5.5	0.	114.31
1237	-2.9999	5.5	0.	123.62
1238	-2.4999	5.5	0.	112.49
1239	-3.4997	6.	0.	132.53
1240	-3.4998	6.5	0.	134.33
1241	-3.4998	7.	0.	136.13
1242	-3.4999	8.	0.	132.26
1243	-3.4998	7.5	0.	134.82
1244	-2.9999	8.5	0.	127.29
1245	-1.	8.5	0.	126.05
1246	-1.5	8.5	0.	115.98
1247	-2.	8.5	0.	116.28
1248	-2.5	8.5	0.	116.35
1249	9.	2.5	0.	122.01
1250	8.	2.5	0.	122.68
1251	8.5	2.5	0.	111.86
1252	7.5	3.	0.	130.59
1253	7.5	4.	0.	131.12
1254	7.5	3.5	0.	131.03
1255	8.	4.5	0.	124.
1256	9.	4.5	0.	122.68
1257	8.5	4.5	0.	112.93
1258	-9.	-0.49993	0.	125.91
1259	-8.5	-0.49992	0.	114.53
1260	-8.	-0.49991	0.	114.17
1261	-7.	-0.49991	0.	125.21
1262	-7.5	-0.49991	0.	114.15
1263	-6.5	-0.99995	0.	131.43
1264	-6.5	-1.5	0.	133.24
1265	-6.5	-2.	0.	134.21
1266	-6.5	-3.	0.	128.4
1267	-6.5	-2.5	0.	132.02
1268	-7.	-3.5	0.	123.98
1269	-7.5	-3.5	0.	114.78
1270	-8.	-3.5	0.	115.53
1271	-9.	-3.5	0.	126.89
1272	-8.5	-3.5	0.	115.82
1273	4.5	-3.	0.	127.8
1274	4.5	-3.5	0.	129.74
1275	4.5	-4.	0.	131.49
1276	4.5	-5.	0.	127.88
1277	4.5	-4.5	0.	130.35
1278	4.	-5.5	0.	124.09
1279	3.	-5.5	0.	122.63
1280	3.5	-5.5	0.	111.65
1281	2.5	-5.	0.	131.01
1282	2.5	-4.5	0.	132.93
1283	2.5	-4.	0.	134.77
1284	2.5	-3.	0.	129.2
1285	2.5	-3.5	0.	132.86
1286	3.	-2.5	0.	120.39
1287	4.	-2.5	0.	118.93
1288	3.5	-2.5	0.	108.23
1289	2.5	5.	0.	121.43
1290	2.5	6.	0.	123.45
1291	2.5	5.5	0.	122.89
1292	3.	6.5	0.	119.88
1293	4.	6.5	0.	125.01
1294	3.5	6.5	0.	112.73
1295	4.5	6.	0.	131.05
1296	4.5	5.	0.	130.68
1297	4.5	5.5	0.	130.96
1298	3.	4.5	0.	125.35
1299	3.5	4.5	0.	118.73
1300	4.	4.5	0.	125.13
1301	0.5	8.	0.	133.84
1302	0.5	9.	0.	130.53
1303	0.5	8.5	0.	132.24
1304	3.5	9.	0.	127.73
1305	3.5	8.	0.	127.55
1306	3.5	8.5	0.	127.62
1307	3.	7.5	0.	122.92
1308	2.5	7.5	0.	117.07
1309	2.	7.5	0.	119.18
1310	1.	7.5	0.	127.01
1311	1.5	7.5	0.	118.81
1312	6.5	-5.	0.	123.93
1313	6.5	-4.	0.	126.49
1314	6.5	-4.5	0.	125.5
1315	7.	-3.5	0.	120.9
1316	8.	-3.5	0.	122.58
1317	7.5	-3.5	0.	111.42
1318	8.5	-4.	0.	130.
1319	8.5	-5.	0.	132.17
1320	8.5	-4.5	0.	130.8
1321	8.	-5.5	0.	124.73
1322	7.	-5.5	0.	121.25
1323	7.5	-5.5	0.	113.25
1324	-6.5001	-7.	0.	122.02
1325	-6.5001	-8.	0.	124.76
1326	-7.	-8.5	0.	119.05
1327	-8.	-8.5	0.	121.68
1328	-7.5	-8.5	0.	110.3
1329	-8.5	-8.	0.	129.56
1330	-8.5	-7.	0.	130.52
1331	-8.5	-7.5	0.	130.06
1332	-8.	-6.5	0.	124.35
1333	-7.	-6.5	0.	123.03
1334	-7.5	-6.5	0.	116.4
1335	9.	-9.5	0.	131.31
1336	8.5	-9.5	0.	132.12
1337	8.	-9.5	0.	132.79
1338	7.5	-9.5	0.	132.23
1339	7.	-9.5	0.	121.
1340	6.5	-9.5	0.	107.83
1341	6.	-9.5	0.	106.48
1342	5.5	-9.5	0.	107.5
1343	5.	-9.5	0.	120.15
1344	4.5	-9.5	0.	130.91
1345	4.	-9.5	0.	131.06
1346	3.5	-9.5	0.	129.99
1347	3.	-9.5	0.	128.86
1348	2.5	-9.5	0.	128.
1349	2.	-9.5	0.	127.47
1350	1.5	-9.5	0.	127.23
1351	0.99998	-9.5	0.	127.17
1352	0.49997	-9.5	0.	127.24
1353	-4.5572e-005	-9.5	0.	127.39
1354	-0.50006	-9.5	0.	127.57
1355	-1.0001	-9.5	0.	127.76
1356	-1.5001	-9.5	0.	127.93
1357	-2.0001	-9.5	0.	128.04
1358	-2.5001	-9.5	0.	128.04
1359	-3.0001	-9.5	0.	127.87
1360	-3.5001	-9.5	0.	127.51
1361	-4.0001	-9.5	0.	126.93
1362	-4.5001	-9.5	0.	126.17
1363	-5.0001	-9.5	0.	125.32
1364	-5.5001	-9.5	0.	124.4
1365	-6.	-9.5	0.	123.21
1366	-6.5	-9.5	0.	121.23
1367	-7.	-9.5	0.	118.87
1368	-7.5	-9.5	0.	118.12
1369	-8.	-9.5	0.	120.31
1370	-8.5	-9.5	0.	123.74
1371	-9.	-9.5	0.	126.33
1372	-9.5	-9.5	0.	127.9
1373	-9.5	-9.	0.	127.98
1374	-9.5	-8.5	0.	127.74
1375	-9.5	-8.	0.	127.
1376	-9.5	-7.5	0.	126.55
1377	-9.5	-7.	0.	126.65
1378	-9.5	-6.5	0.	127.01
1379	-9.5	-5.5	0.	127.04
1380	-9.5	-5.	0.	127.67
1381	-9.5	-4.5	0.	129.
1382	-9.5	-4.	0.	131.19
1383	-9.5	-3.5	0.	135.55
1384	-9.5	-3.	0.	136.12
1385	-9.5	-2.5	0.	138.28
1386	-9.5	-2.	0.	139.7
1387	-9.5	-1.5	0.	137.94
1388	-9.5	-0.99998	0.	135.15
1389	-9.5	-0.49995	0.	134.41
1390	-9.5	8.4532e-005	0.	129.93
1391	-9.5	0.50012	0.	127.69
1392	-9.5	1.0002	0.	126.25
1393	-9.5	1.5002	0.	125.19
1394	-9.4999	2.0003	0.	124.43
1395	-9.4999	2.5004	0.	123.91
1396	-9.4999	3.0005	0.	123.56
1397	-9.4998	3.5007	0.	123.34
1398	-9.4998	4.0008	0.	123.21
1399	-9.4997	4.501	0.	123.15
1400	-9.4996	5.0011	0.	123.15
1401	-9.4995	5.5011	0.	123.21
1402	-9.4994	6.0011	0.	123.32
1403	-9.4993	6.5007	0.	123.48
1404	-9.4993	7.0005	0.	123.69
1405	-9.4993	7.5004	0.	123.95
1406	-9.4994	8.0002	0.	124.23
1407	-9.4995	8.5001	0.	124.52
1408	-9.4997	9.	0.	124.77
1409	-9.4999	9.5	0.	124.96
1410	-8.9997	9.5	0.	125.06
1411	-8.4996	9.5	0.	125.21
1412	-7.9996	9.5001	0.	125.39
1413	-7.4995	9.5001	0.	125.59
1414	-6.9996	9.5001	0.	125.82
1415	-6.4996	9.5001	0.	126.07
1416	-5.9997	9.5001	0.	126.32
1417	-5.4998	9.5001	0.	126.57
1418	-4.9999	9.5001	0.	126.8
1419	-4.4999	9.5	0.	126.97
1420	-3.9999	9.5	0.	126.89
1421	-3.5	9.5	0.	126.01
1422	-3.	9.5	0.	124.13
1423	-2.5	9.5	0.	121.95
1424	-2.	9.5	0.	121.02
1425	-1.5	9.5	0.	121.99
1426	-1.	9.5	0.	124.2
1427	-0.5	9.5	0.	126.18
1428	3.0591e-007	9.5	0.	127.63
1429	0.5	9.5	0.	130.57
1430	1.	9.5	0.	128.18
1431	1.5	9.5	0.	121.57
1432	2.	9.5	0.	122.76
1433	2.5	9.5	0.	120.75
1434	3.	9.5	0.	126.32
1435	3.5	9.5	0.	128.67
1436	4.	9.5	0.	125.74
1437	4.5	9.5	0.	125.14
1438	5.	9.5	0.	125.16
1439	5.5	9.5	0.	125.28
1440	6.	9.5	0.	125.35
1441	6.5	9.5	0.	125.36
1442	7.	9.5	0.	125.33
1443	7.5	9.5	0.	125.26
1444	8.	9.5	0.	125.18
1445	8.5	9.5	0.	125.11
1446	9.5	9.5	0.	124.98
1447	9.5	9.	0.	124.88
1448	9.5	8.5	0.	124.77
1449	9.5	8.	0.	124.65
1450	9.5	7.5	0.	124.55
1451	9.5	7.	0.	124.5
1452	9.5	6.5	0.	124.52
1453	9.5	6.	0.	124.65
1454	9.5	5.5	0.	124.96
1455	9.5	5.	0.	126.01
1456	9.5	4.5	0.	129.54
1457	9.5	4.	0.	129.9
1458	9.5	3.5	0.	130.35
1459	9.5	3.	0.	130.01
1460	9.5	2.5	0.	129.77
1461	9.5	2.	0.	126.58
1462	9.5	1.5	0.	126.17
1463	9.5	1.	0.	127.35
1464	9.5	0.5	0.	131.21
1465	9.5	-1.6547e-014	0.	131.82
1466	9.5	-0.5	0.	132.86
1467	9.5	-1.	0.	132.96
1468	9.5	-1.5	0.	132.84
1469	9.5	-2.	0.	129.71
1470	9.5	-2.5	0.	129.18
1471	9.5	-3.	0.	129.32
1472	9.5	-3.5	0.	129.26
1473	9.5	-4.	0.	128.86
1474	9.5	-4.5	0.	128.94
1475	9.5	-5.	0.	129.69
1476	9.5	-5.5	0.	130.57
1477	9.5	-6.	0.	130.72
1478	9.5	-6.5	0.	130.26
1479	9.5	-7.	0.	129.6
1480	9.5	-7.5	0.	129.13
1481	9.5	-8.	0.	129.07
1482	9.5	-8.5	0.	129.48
1483	9.5	-9.	0.	130.16
1484	9.5	-9.5	0.	130.8
1485	4.5	-1.5	0.	122.23
1486	3.	-1.5	0.	121.11
1487	-3.0001	-5.	0.	128.27
1488	-8.9988	6.0019	0.	123.73
1489	-2.	-3.	0.	127.53
1490	-9.	-4.	0.	124.91
1491	-9.5	-6.	0.	126.99
1492	-7.9986	5.0027	0.	124.44
1493	-5.	-1.5	0.	126.46
1494	-4.4996	4.5002	0.	131.36
1495	-6.9996	3.5017	0.	125.04
1496	-1.	4.	0.	129.53
1497	-4.9985	6.0004	0.	128.37
1498	-7.999	9.0002	0.	125.13
1499	9.	2.	0.	120.69
1500	5.5	6.	0.	128.07
1501	6.5	0.5	0.	130.87
1502	-9.	-7.5	0.	126.78
1503	-8.	1.9018e-004	0.	115.11
1504	-2.5003	-6.5	0.	128.05
1505	7.	-0.5	0.	127.71
1506	-5.4984	5.5006	0.	128.09
1507	2.	-1.	0.	126.11
1508	-4.4991	6.0002	0.	129.71
1509	-6.5	0.50031	0.	126.59
1510	5.	-0.5	0.	122.93
1511	8.	8.5	0.	125.
1512	-5.0002	-8.5	0.	124.79
1513	-1.5	5.	0.	121.95
1514	-5.5	-2.	0.	126.14
1515	6.	0.5	0.	131.55
1516	4.	-6.5	0.	126.55
1517	-5.5	-3.5	0.	125.01
1518	-5.4992	4.5007	0.	128.49
1519	0.5	6.	0.	130.5
1520	4.	-7.5	0.	126.45
1521	5.5	-6.	0.	119.43
1522	-4.5	2.0002	0.	129.07
1523	-3.5002	-8.9999	0.	127.63
1524	-5.5	2.0004	0.	127.45
1525	-3.0003	-6.5	0.	128.55
1526	-1.5	1.9957e-007	0.	128.01
1527	-1.4662e-004	-7.	0.	126.89
1528	6.2808e-008	3.5	0.	131.79
1529	6.5	4.5	0.	129.9
1530	-3.5002	-6.	0.	128.58
1531	6.5	-6.	0.	118.72
1532	-4.5001	-6.	0.	132.61
1533	9.	9.5	0.	125.04
1534	-6.	-3.5	0.	125.13
1535	-1.0002	-7.	0.	127.28
1536	-6.4996	3.5014	0.	125.79
1537	-1.	-1.5	0.	130.08
1538	2.	5.	0.	117.85
1539	5.	-5.5	0.	125.61
1540	-2.	0.5	0.	125.02
1541	-2.	1.	0.	123.32
1542	-6.9999	2.5012	0.	124.3
1543	3.5	-0.5	0.	122.1
1544	1.	1.5	0.	125.82
1545	-0.50014	-6.	0.	126.52
1546	5.	-3.	0.	127.19
1547	-1.3627e-004	-6.5	0.	126.67
1548	-6.5	1.9373e-004	0.	128.66
1549	-4.5	-0.99996	0.	127.11
1550	5.5	4.	0.	129.51
1551	-5.498	6.0006	0.	127.24
1552	5.	-2.7387e-009	0.	122.45
1553	-4.5	-3.5	0.	128.77
1554	-5.5	1.0003	0.	128.76
1555	-1.5	4.	0.	127.57
1556	-3.	-1.5	0.	126.68
1557	0.5	6.5	0.	129.98
1558	-3.9997	4.5001	0.	132.46
1559	3.5	-1.	0.	120.68
1560	6.5	3.	0.	129.5
1561	-3.5	0.50002	0.	127.
1562	7.	0.5	0.	130.87
1563	-6.4967	7.001	0.	124.92
1564	-3.5003	-6.4999	0.	129.39
1565	2.5	-6.	0.	127.36
1566	1.5	-7.7678e-009	0.	122.27
1567	-5.0003	-6.9999	0.	125.18
1568	0.49992	-8.5	0.	127.02
1569	4.5	-2.	0.	123.88
1570	-5.9983	8.0005	0.	125.06
1571	-7.499	9.0003	0.	125.26
1572	5.	-1.	0.	123.55
1573	-1.5	-3.	0.	127.64
1574	-3.0996e-008	2.	0.	131.68
1575	5.9064e-007	9.	0.	128.42
1576	5.	-6.	0.	125.36
1577	-6.5001	-7.5	0.	123.7
1578	-1.	-4.	0.	128.74
1579	-6.498	8.0006	0.	124.87
1580	-2.	8.7358e-007	0.	126.27
1581	3.5	-1.086e-008	0.	124.49
1582	-1.	1.	0.	131.03
1583	-8.9997	3.5012	0.	123.61
1584	-8.9999	2.5008	0.	123.62
1585	8.5	-8.	0.	128.56
1586	-9.	-8.	0.	127.93
1587	-2.5	-3.	0.	127.65
1588	-2.0003	-7.	0.	127.9
1589	-6.4989	4.5016	0.	126.29
1590	-5.9996	3.501	0.	126.62
1591	-8.	-4.5	0.	120.09
1592	-6.9976	5.5021	0.	125.38
1593	2.	-5.5	0.	129.63
1594	-5.5	-0.99993	0.	128.23
1595	-4.0002	-9.	0.	127.
1596	2.	-5.	0.	129.55
1597	-4.	2.0001	0.	130.17
1598	-7.	-4.	0.	121.9
1599	3.	7.	0.	120.1
1600	0.99996	-9.	0.	127.01
1601	7.	4.5	0.	130.49
1602	-3.9996	7.0001	0.	129.95
1603	4.5	-6.	0.	129.01
1604	-1.5	1.	0.	129.
1605	0.5	7.	0.	131.03
1606	1.5	7.	0.	120.98
1607	-7.4974	8.0007	0.	124.69
1608	-2.5001	-5.	0.	127.97
1609	-4.9994	4.5004	0.	129.9
1610	0.99998	-4.5	0.	124.23
1611	0.4999	-7.	0.	126.83
1612	5.5	-5.	0.	121.97
1613	-0.5	2.	0.	130.38
1614	8.5	6.	0.	123.17
1615	-8.4977	7.501	0.	124.31
1616	1.	6.	0.	125.62
1617	2.5	-0.5	0.	123.71
1618	-4.0005	-7.9999	0.	127.72
1619	6.	-2.	0.	126.97
1620	-1.	6.6402e-008	0.	129.11
1621	-5.	0.50015	0.	129.57
1622	-2.5	-4.	0.	128.44
1623	-6.4977	5.5015	0.	126.05
1624	-1.0002	-6.5	0.	127.08
1625	-8.	-7.25	0.	138.21
1626	-7.75	-7.	0.	122.83
1627	-8.25	-7.	0.	132.12
1628	-8.	-6.75	0.	129.34
1629	-8.	-7.75	0.	137.28
1630	-7.75	-8.	0.	120.48
1631	-8.	-8.25	0.	127.07
1632	-8.25	-8.	0.	130.65
1633	-7.25	-7.	0.	121.24
1634	-7.	-7.25	0.	134.36
1635	-6.75	-7.	0.	126.24
1636	-7.	-6.75	0.	127.14
1637	-7.25	-8.	0.	118.58
1638	-7.	-7.75	0.	133.19
1639	-6.75	-8.	0.	126.41
1640	-7.	-8.25	0.	123.84
1641	7.	-4.25	0.	134.08
1642	7.25	-4.	0.	119.27
1643	6.75	-4.	0.	127.86
1644	7.	-3.75	0.	125.35
1645	7.	-4.75	0.	134.6
1646	7.25	-5.	0.	120.24
1647	6.75	-5.	0.	127.1
1648	7.	-5.25	0.	126.16
1649	7.75	-4.	0.	121.
1650	8.	-4.25	0.	137.81
1651	8.	-3.75	0.	127.94
1652	8.25	-4.	0.	131.3
1653	7.75	-5.	0.	121.45
1654	8.	-4.75	0.	137.85
1655	8.25	-5.	0.	132.42
1656	8.	-5.25	0.	128.97
1657	0.	-2.25	0.	138.74
1658	0.25	-2.	0.	122.86
1659	-0.25	-2.	0.	132.38
1660	-2.9901e-008	-1.75	0.	129.47
1661	0.	-2.75	0.	138.66
1662	0.25	-3.	0.	122.46
1663	-2.7711e-006	-3.25	0.	129.02
1664	-0.25	-3.	0.	132.02
1665	0.75	-2.	0.	122.9
1666	1.	-2.25	0.	138.89
1667	1.	-1.75	0.	129.22
1668	1.25	-2.	0.	132.21
1669	0.75	-3.	0.	122.33
1670	1.	-2.75	0.	138.64
1671	1.	-3.25	0.	128.75
1672	1.25	-3.	0.	132.13
1673	-9.	-1.25	0.	142.33
1674	-8.75	-1.	0.	125.49
1675	-9.	-0.74996	0.	131.44
1676	-9.25	-0.99999	0.	135.66
1677	-9.	-2.75	0.	142.72
1678	-8.75	-3.	0.	126.27
1679	-9.	-3.25	0.	132.16
1680	-9.25	-3.	0.	136.4
1681	-7.25	-1.	0.	123.83
1682	-7.	-1.25	0.	138.87
1683	-7.	-0.74995	0.	130.06
1684	-6.75	-0.99997	0.	132.83
1685	-7.25	-3.	0.	123.28
1686	-7.	-2.75	0.	137.96
1687	-6.75	-3.	0.	130.81
1688	-7.	-3.25	0.	129.03
1689	1.	8.75	0.	142.57
1690	1.25	9.	0.	129.6
1691	0.75	9.	0.	134.41
1692	1.	9.25	0.	133.66
1693	1.	8.25	0.	141.31
1694	1.25	8.	0.	127.58
1695	0.75	8.	0.	134.8
1696	1.	7.75	0.	131.69
1697	2.75	9.	0.	127.85
1698	3.	8.75	0.	139.45
1699	3.25	9.	0.	131.65
1700	3.	9.25	0.	131.27
1701	2.75	8.	0.	124.91
1702	3.	8.25	0.	137.99
1703	3.25	8.	0.	129.98
1704	3.	7.75	0.	128.06
1705	8.	-0.25	0.	138.45
1706	8.25	0.	0.	122.36
1707	7.75	-1.5553e-012	0.	132.09
1708	8.	0.25	0.	128.25
1709	8.	-0.75	0.	138.85
1710	8.25	-1.	0.	122.95
1711	7.75	-1.	0.	131.92
1712	8.	-1.25	0.	129.01
1713	8.75	0.	0.	123.07
1714	9.	-0.25	0.	140.09
1715	9.	0.25	0.	129.2
1716	9.25	-8.2735e-015	0.	133.03
1717	8.75	-1.	0.	123.18
1718	9.	-0.75	0.	140.03
1719	9.	-1.25	0.	129.53
1720	9.25	-1.	0.	133.56
1721	-7.	-5.25	0.	133.97
1722	-6.75	-5.	0.	123.13
1723	-7.25	-5.	0.	126.67
1724	-7.	-4.75	0.	126.74
1725	-7.	-5.75	0.	133.5
1726	-6.75	-6.	0.	123.32
1727	-7.25	-6.	0.	125.14
1728	-7.	-6.25	0.	126.51
1729	-5.25	-5.	0.	128.51
1730	-5.	-5.25	0.	142.
1731	-4.75	-5.	0.	135.4
1732	-5.	-4.75	0.	133.6
1733	-5.25	-6.	0.	127.92
1734	-5.	-5.75	0.	141.67
1735	-5.0001	-6.25	0.	132.51
1736	-4.7501	-6.	0.	134.72
1737	-3.	7.75	0.	140.96
1738	-2.75	8.	0.	125.73
1739	-3.2499	8.	0.	134.41
1740	-3.	8.25	0.	132.28
1741	-3.	6.25	0.	138.98
1742	-2.75	6.	0.	123.33
1743	-2.9999	5.75	0.	128.85
1744	-3.2499	6.	0.	132.93
1745	-1.25	8.	0.	125.39
1746	-1.	7.75	0.	141.33
1747	-0.75	8.	0.	134.42
1748	-1.	8.25	0.	131.29
1749	-1.25	6.	0.	127.76
1750	-1.	6.25	0.	144.05
1751	-0.75	6.	0.	138.33
1752	-1.	5.75	0.	135.24
1753	1.	3.75	0.	143.03
1754	1.25	4.	0.	127.93
1755	0.75	4.	0.	137.35
1756	1.	4.25	0.	134.64
1757	1.	2.25	0.	140.26
1758	1.25	2.	0.	124.34
1759	0.75	2.	0.	134.
1760	1.	1.75	0.	130.78
1761	2.75	4.	0.	125.42
1762	3.	3.75	0.	139.5
1763	3.25	4.	0.	129.73
1764	3.	4.25	0.	130.01
1765	2.75	2.	0.	124.87
1766	3.	2.25	0.	140.73
1767	3.	1.75	0.	131.87
1768	3.25	2.	0.	137.58
1769	3.	-3.25	0.	135.15
1770	3.25	-3.	0.	117.63
1771	2.75	-3.	0.	129.59
1772	3.	-2.75	0.	125.57
1773	3.	-4.75	0.	136.28
1774	3.25	-5.	0.	119.51
1775	3.	-5.25	0.	127.2
1776	2.75	-5.	0.	131.09
1777	3.75	-3.	0.	116.59
1778	4.	-3.25	0.	133.21
1779	4.25	-3.	0.	127.84
1780	4.	-2.75	0.	123.72
1781	3.75	-5.	0.	119.98
1782	4.	-4.75	0.	135.85
1783	4.25	-5.	0.	130.13
1784	4.	-5.25	0.	128.53
1785	-3.	3.75	0.	134.38
1786	-2.75	4.	0.	116.55
1787	-3.25	4.	0.	129.79
1788	-3.	4.25	0.	124.59
1789	-3.	2.25	0.	136.31
1790	-2.75	2.	0.	119.39
1791	-3.	1.75	0.	127.57
1792	-3.25	2.	0.	131.22
1793	-2.25	4.	0.	115.92
1794	-2.	3.75	0.	132.66
1795	-2.	4.25	0.	122.64
1796	-1.75	4.	0.	127.45
1797	-2.25	2.	0.	119.38
1798	-2.	2.25	0.	135.7
1799	-1.75	2.	0.	131.06
1800	-2.	1.75	0.	127.8
1801	5.	-7.25	0.	137.64
1802	5.25	-7.	0.	123.08
1803	4.75	-7.	0.	131.66
1804	5.	-6.75	0.	130.28
1805	5.	-8.75	0.	134.45
1806	5.25	-9.	0.	118.47
1807	4.75	-9.	0.	129.3
1808	5.	-9.25	0.	124.8
1809	6.75	-7.	0.	121.83
1810	7.	-7.25	0.	136.67
1811	7.	-6.75	0.	127.96
1812	7.25	-7.	0.	130.6
1813	6.75	-9.	0.	119.06
1814	7.	-8.75	0.	135.3
1815	7.25	-9.	0.	130.39
1816	7.	-9.25	0.	125.69
1817	4.	2.75	0.	137.92
1818	4.25	3.	0.	120.21
1819	3.75	3.	0.	135.22
1820	4.	3.25	0.	128.46
1821	4.	1.25	0.	139.7
1822	4.25	1.	0.	121.59
1823	3.75	1.	0.	132.47
1824	4.	0.75	0.	128.28
1825	4.75	3.	0.	119.69
1826	5.	2.75	0.	137.49
1827	5.	3.25	0.	128.12
1828	5.25	3.	0.	131.89
1829	4.75	1.	0.	121.5
1830	5.	1.25	0.	138.51
1831	5.25	1.	0.	132.97
1832	5.	0.75	0.	128.93
1833	3.	5.75	0.	133.3
1834	3.25	6.	0.	119.47
1835	2.75	6.	0.	125.88
1836	3.	6.25	0.	124.41
1837	3.	5.25	0.	134.79
1838	3.25	5.	0.	122.37
1839	2.75	5.	0.	126.42
1840	3.	4.75	0.	128.75
1841	3.75	6.	0.	122.36
1842	4.	5.75	0.	138.91
1843	4.	6.25	0.	129.88
1844	4.25	6.	0.	132.59
1845	3.75	5.	0.	123.85
1846	4.	5.25	0.	139.02
1847	4.25	5.	0.	132.49
1848	4.	4.75	0.	130.05
1849	8.	3.75	0.	138.49
1850	8.25	4.	0.	122.52
1851	7.75	4.	0.	132.35
1852	8.	4.25	0.	129.13
1853	8.	3.25	0.	138.06
1854	8.25	3.	0.	121.79
1855	8.	2.75	0.	128.04
1856	7.75	3.	0.	131.64
1857	8.75	4.	0.	122.16
1858	9.	3.75	0.	138.49
1859	9.	4.25	0.	128.06
1860	9.25	4.	0.	131.33
1861	8.75	3.	0.	121.68
1862	9.	3.25	0.	138.32
1863	9.	2.75	0.	127.54
1864	9.25	3.	0.	131.21
1865	9.75	10.	0.	125.01
1866	10.	9.75	0.	125.
1867	-9.75	10.	0.	125.
1868	-10.	9.75	0.	125.01
1869	10.	-9.75	0.	131.29
1870	9.75	-10.	0.	131.28
1871	-10.	-9.75	0.	129.62
1872	-9.75	-10.	0.	128.76
1873	-8.25	-7.5	0.	136.28
1874	-7.5	-6.75	0.	114.08
1875	-7.5	-8.25	0.	109.51
1876	-6.75	-7.5	0.	130.9
1877	6.75	-4.5	0.	132.12
1878	7.5	-3.75	0.	110.2
1879	7.5	-5.25	0.	111.56
1880	8.25	-4.5	0.	136.78
1881	-0.25	-2.5	0.	137.13
1882	0.5	-1.75	0.	112.83
1883	0.5	-3.25	0.	112.08
1884	1.25	-2.5	0.	137.38
1885	-9.	-1.75	0.	149.03
1886	-9.25	-1.5	0.	143.
1887	-9.	-2.25	0.	149.18
1888	-9.25	-2.	0.	144.85
1889	-9.25	-2.5	0.	143.32
1890	-8.25	-1.	0.	116.69
1891	-8.5	-0.74996	0.	114.52
1892	-7.75	-1.	0.	116.12
1893	-8.	-0.74996	0.	116.31
1894	-7.5	-0.74996	0.	113.76
1895	-8.25	-3.	0.	117.66
1896	-8.5	-3.25	0.	115.74
1897	-7.75	-3.	0.	116.41
1898	-8.	-3.25	0.	117.38
1899	-7.5	-3.25	0.	113.95
1900	-7.	-1.75	0.	143.65
1901	-6.75	-1.5	0.	138.25
1902	-7.	-2.25	0.	143.21
1903	-6.75	-2.	0.	139.13
1904	-6.75	-2.5	0.	137.19
1905	0.75	8.5	0.	139.37
1906	1.75	9.	0.	124.23
1907	1.5	9.25	0.	121.1
1908	2.25	9.	0.	123.98
1909	2.	9.25	0.	125.03
1910	2.5	9.25	0.	120.41
1911	1.75	8.	0.	121.64
1912	1.5	7.75	0.	119.
1913	2.25	8.	0.	120.54
1914	2.	7.75	0.	121.53
1915	2.5	7.75	0.	117.02
1916	3.25	8.5	0.	135.36
1917	7.75	-0.5	0.	137.22
1918	8.5	0.25	0.	111.94
1919	8.5	-1.25	0.	112.55
1920	9.25	-0.5	0.	139.2
1921	-7.25	-5.5	0.	130.14
1922	-6.25	-5.	0.	120.03
1923	-6.5	-4.75	0.	116.69
1924	-5.75	-5.	0.	121.76
1925	-6.	-4.75	0.	121.94
1926	-5.5	-4.75	0.	119.75
1927	-6.25	-6.	0.	121.03
1928	-6.5	-6.25	0.	119.05
1929	-5.75	-6.	0.	121.78
1930	-6.	-6.25	0.	122.07
1931	-5.5001	-6.25	0.	118.71
1932	-4.75	-5.5	0.	139.32
1933	-3.	7.25	0.	145.5
1934	-3.2499	7.5	0.	139.96
1935	-3.	6.75	0.	145.04
1936	-3.2499	7.	0.	141.
1937	-3.2499	6.5	0.	139.27
1938	-2.25	8.	0.	117.61
1939	-2.5	8.25	0.	115.61
1940	-1.75	8.	0.	117.62
1941	-2.	8.25	0.	118.07
1942	-1.5	8.25	0.	115.42
1943	-2.25	6.	0.	116.08
1944	-2.5	5.75	0.	112.74
1945	-1.75	6.	0.	117.74
1946	-2.	5.75	0.	116.55
1947	-1.5	5.75	0.	116.79
1948	-1.	7.25	0.	147.84
1949	-0.75	7.5	0.	141.94
1950	-1.	6.75	0.	148.82
1951	-0.75	7.	0.	144.46
1952	-0.75	6.5	0.	143.67
1953	1.	3.25	0.	147.07
1954	0.75	3.5	0.	142.
1955	1.	2.75	0.	146.15
1956	0.75	3.	0.	142.33
1957	0.75	2.5	0.	140.27
1958	1.75	4.	0.	119.95
1959	1.5	4.25	0.	117.43
1960	2.25	4.	0.	119.85
1961	2.	4.25	0.	120.27
1962	2.5	4.25	0.	118.66
1963	1.75	2.	0.	115.9
1964	1.5	1.75	0.	114.05
1965	2.25	2.	0.	115.85
1966	2.	1.75	0.	116.13
1967	2.5	1.75	0.	114.09
1968	3.	3.25	0.	145.7
1969	3.25	3.5	0.	139.7
1970	3.	2.75	0.	145.74
1971	3.25	3.	0.	141.94
1972	3.25	2.5	0.	142.29
1973	3.	-3.75	0.	140.59
1974	2.75	-3.5	0.	136.45
1975	3.	-4.25	0.	141.13
1976	2.75	-4.	0.	137.95
1977	2.75	-4.5	0.	137.03
1978	3.5	-2.75	0.	106.58
1979	3.5	-5.25	0.	109.62
1980	4.	-3.75	0.	138.64
1981	4.25	-3.5	0.	134.
1982	4.	-4.25	0.	139.16
1983	4.25	-4.	0.	135.26
1984	4.25	-4.5	0.	134.81
1985	-3.	3.25	0.	140.16
1986	-3.25	3.5	0.	136.
1987	-3.	2.75	0.	140.65
1988	-3.25	3.	0.	137.34
1989	-3.25	2.5	0.	136.77
1990	-2.5	4.25	0.	105.36
1991	-2.5	1.75	0.	108.97
1992	-2.	3.25	0.	138.28
1993	-1.75	3.5	0.	134.13
1994	-2.	2.75	0.	139.24
1995	-1.75	3.	0.	135.87
1996	-1.75	2.5	0.	135.83
1997	5.	-7.75	0.	141.33
1998	4.75	-7.5	0.	136.39
1999	5.	-8.25	0.	140.58
2000	4.75	-8.	0.	137.11
2001	4.75	-8.5	0.	135.33
2002	5.75	-7.	0.	114.81
2003	5.5	-6.75	0.	113.47
2004	6.25	-7.	0.	114.33
2005	6.	-6.75	0.	115.44
2006	6.5	-6.75	0.	112.39
2007	5.75	-9.	0.	109.77
2008	5.5	-9.25	0.	107.7
2009	6.25	-9.	0.	109.91
2010	6.	-9.25	0.	108.94
2011	6.5	-9.25	0.	108.
2012	7.	-7.75	0.	141.4
2013	7.25	-7.5	0.	136.5
2014	7.	-8.25	0.	141.18
2015	7.25	-8.	0.	137.82
2016	7.25	-8.5	0.	136.34
2017	4.	2.25	0.	143.64
2018	3.75	2.5	0.	141.06
2019	4.	1.75	0.	145.18
2020	3.75	2.	0.	141.87
2021	3.75	1.5	0.	141.58
2022	4.5	3.25	0.	109.28
2023	4.5	0.75	0.	110.54
2024	5.	2.25	0.	143.01
2025	5.25	2.5	0.	138.36
2026	5.	1.75	0.	143.39
2027	5.25	2.	0.	139.86
2028	5.25	1.5	0.	139.14
2029	2.75	5.5	0.	130.49
2030	3.5	6.25	0.	111.51
2031	3.5	4.75	0.	115.98
2032	4.25	5.5	0.	137.23
2033	7.75	3.5	0.	137.09
2034	8.5	4.25	0.	111.99
2035	8.5	2.75	0.	111.13
2036	9.25	3.5	0.	137.1
2037	9.25	10.	0.	125.03
2038	9.5	9.75	0.	124.99
2039	8.75	10.	0.	125.11
2040	9.	9.75	0.	125.05
2041	8.25	10.	0.	125.21
2042	8.5	9.75	0.	125.13
2043	7.75	10.	0.	125.34
2044	8.	9.75	0.	125.23
2045	7.25	10.	0.	125.46
2046	7.5	9.75	0.	125.33
2047	6.75	10.	0.	125.58
2048	7.	9.75	0.	125.42
2049	6.25	10.	0.	125.71
2050	6.5	9.75	0.	125.5
2051	5.75	10.	0.	125.88
2052	6.	9.75	0.	125.56
2053	5.25	10.	0.	126.18
2054	5.5	9.75	0.	125.63
2055	4.75	10.	0.	126.72
2056	5.	9.75	0.	125.77
2057	4.25	10.	0.	127.57
2058	4.5	9.75	0.	126.09
2059	3.75	10.	0.	127.72
2060	4.	9.75	0.	126.89
2061	3.25	10.	0.	125.34
2062	3.5	9.75	0.	128.
2063	2.75	10.	0.	121.57
2064	3.	9.75	0.	124.73
2065	2.25	10.	0.	119.12
2066	2.5	9.75	0.	120.21
2067	1.75	10.	0.	119.67
2068	2.	9.75	0.	120.42
2069	1.25	10.	0.	123.25
2070	1.5	9.75	0.	121.18
2071	0.75	10.	0.	127.92
2072	1.	9.75	0.	126.78
2073	0.25	10.	0.	130.2
2074	0.5	9.75	0.	130.37
2075	-0.25	10.	0.	128.6
2076	1.5295e-007	9.75	0.	128.84
2077	-0.75	10.	0.	125.39
2078	-0.5	9.75	0.	126.57
2079	-1.25	10.	0.	122.42
2080	-1.	9.75	0.	123.91
2081	-1.75	10.	0.	120.6
2082	-1.5	9.75	0.	121.52
2083	-2.25	10.	0.	120.4
2084	-2.	9.75	0.	120.51
2085	-2.75	10.	0.	121.72
2086	-2.5	9.75	0.	121.31
2087	-3.25	10.	0.	123.91
2088	-3.	9.75	0.	123.38
2089	-3.75	10.	0.	126.01
2090	-3.5	9.75	0.	125.54
2091	-4.25	10.	0.	127.31
2092	-4.	9.75	0.	126.89
2093	-4.75	10.	0.	127.75
2094	-4.5	9.75	0.	127.34
2095	-5.25	10.	0.	127.64
2096	-4.9999	9.75	0.	127.29
2097	-5.75	10.	0.	127.28
2098	-5.4999	9.75	0.	127.03
2099	-6.25	10.	0.	126.84
2100	-5.9999	9.7501	0.	126.69
2101	-6.75	10.	0.	126.41
2102	-6.4998	9.7501	0.	126.34
2103	-7.25	10.	0.	126.02
2104	-6.9998	9.7501	0.	126.01
2105	-7.75	10.	0.	125.67
2106	-7.4998	9.7501	0.	125.71
2107	-8.25	10.	0.	125.39
2108	-7.9998	9.75	0.	125.45
2109	-8.75	10.	0.	125.17
2110	-8.4998	9.75	0.	125.24
2111	-9.25	10.	0.	125.04
2112	-8.9999	9.75	0.	125.07
2113	-9.4999	9.75	0.	124.98
2114	10.	9.25	0.	124.94
2115	9.75	9.5	0.	124.99
2116	10.	8.75	0.	124.8
2117	9.75	9.	0.	124.88
2118	10.	8.25	0.	124.61
2119	9.75	8.5	0.	124.74
2120	10.	7.75	0.	124.45
2121	9.75	8.	0.	124.58
2122	10.	7.25	0.	124.37
2123	9.75	7.5	0.	124.46
2124	10.	6.75	0.	124.47
2125	9.75	7.	0.	124.43
2126	10.	6.25	0.	124.94
2127	9.75	6.5	0.	124.55
2128	10.	5.75	0.	126.03
2129	9.75	6.	0.	124.97
2130	10.	5.25	0.	127.89
2131	9.75	5.5	0.	125.86
2132	10.	4.75	0.	129.24
2133	9.75	5.	0.	127.5
2134	10.	4.25	0.	127.64
2135	9.75	4.5	0.	129.5
2136	10.	3.75	0.	123.94
2137	9.75	4.	0.	127.83
2138	10.	3.25	0.	124.01
2139	9.75	3.5	0.	126.21
2140	10.	2.75	0.	127.97
2141	9.75	3.	0.	127.95
2142	10.	2.25	0.	130.26
2143	9.75	2.5	0.	129.88
2144	10.	1.75	0.	130.35
2145	9.75	2.	0.	128.54
2146	10.	1.25	0.	130.83
2147	9.75	1.5	0.	128.18
2148	10.	0.75	0.	131.62
2149	9.75	1.	0.	129.4
2150	10.	0.25	0.	130.13
2151	9.75	0.5	0.	131.48
2152	10.	-0.25	0.	126.99
2153	9.75	-1.0876e-014	0.	130.15
2154	10.	-0.75	0.	127.77
2155	9.75	-0.5	0.	129.17
2156	10.	-1.25	0.	132.21
2157	9.75	-1.	0.	131.48
2158	10.	-1.75	0.	134.36
2159	9.75	-1.5	0.	133.59
2160	10.	-2.25	0.	133.43
2161	9.75	-2.	0.	132.03
2162	10.	-2.75	0.	131.73
2163	9.75	-2.5	0.	130.84
2164	10.	-3.25	0.	130.21
2165	9.75	-3.	0.	130.14
2166	10.	-3.75	0.	128.81
2167	9.75	-3.5	0.	129.36
2168	10.	-4.25	0.	128.
2169	9.75	-4.	0.	128.51
2170	10.	-4.75	0.	128.45
2171	9.75	-4.5	0.	128.4
2172	10.	-5.25	0.	129.83
2173	9.75	-5.	0.	129.36
2174	10.	-5.75	0.	130.97
2175	9.75	-5.5	0.	130.6
2176	10.	-6.25	0.	131.05
2177	9.75	-6.	0.	131.02
2178	10.	-6.75	0.	130.2
2179	9.75	-6.5	0.	130.52
2180	10.	-7.25	0.	129.13
2181	9.75	-7.	0.	129.61
2182	10.	-7.75	0.	128.5
2183	9.75	-7.5	0.	128.88
2184	10.	-8.25	0.	128.65
2185	9.75	-8.	0.	128.72
2186	10.	-8.75	0.	129.48
2187	9.75	-8.5	0.	129.2
2188	10.	-9.25	0.	130.56
2189	9.75	-9.	0.	130.1
2190	9.75	-9.5	0.	130.94
2191	-10.	9.25	0.	124.93
2192	-9.7499	9.5	0.	124.99
2193	-10.	8.75	0.	124.69
2194	-9.7498	9.	0.	124.81
2195	-10.	8.25	0.	124.31
2196	-9.7497	8.5	0.	124.52
2197	-10.	7.75	0.	123.9
2198	-9.7497	8.0001	0.	124.17
2199	-10.	7.25	0.	123.5
2200	-9.7496	7.5002	0.	123.82
2201	-10.	6.75	0.	123.16
2202	-9.7496	7.0003	0.	123.5
2203	-10.	6.25	0.	122.88
2204	-9.7497	6.5004	0.	123.24
2205	-10.	5.75	0.	122.69
2206	-9.7497	6.0005	0.	123.04
2207	-10.	5.25	0.	122.57
2208	-9.7498	5.5006	0.	122.91
2209	-10.	4.75	0.	122.53
2210	-9.7498	5.0006	0.	122.84
2211	-10.	4.25	0.	122.57
2212	-9.7499	4.5005	0.	122.84
2213	-10.	3.75	0.	122.71
2214	-9.7499	4.0004	0.	122.91
2215	-10.	3.25	0.	122.98
2216	-9.7499	3.5003	0.	123.07
2217	-10.	2.75	0.	123.43
2218	-9.7499	3.0003	0.	123.35
2219	-10.	2.25	0.	124.18
2220	-9.75	2.5002	0.	123.81
2221	-10.	1.75	0.	125.37
2222	-9.75	2.0002	0.	124.54
2223	-10.	1.25	0.	127.21
2224	-9.75	1.5001	0.	125.64
2225	-10.	0.75	0.	129.93
2226	-9.75	1.0001	0.	127.28
2227	-10.	0.25	0.	133.43
2228	-9.75	0.50006	0.	129.59
2229	-10.	-0.25	0.	136.11
2230	-9.75	4.2266e-005	0.	132.61
2231	-10.	-0.75	0.	135.39
2232	-9.75	-0.49997	0.	135.63
2233	-10.	-1.25	0.	132.05
2234	-9.75	-0.99999	0.	134.52
2235	-10.	-1.75	0.	130.23
2236	-9.75	-1.5	0.	134.06
2237	-10.	-2.25	0.	130.6
2238	-9.75	-2.	0.	134.98
2239	-10.	-2.75	0.	133.08
2240	-9.75	-2.5	0.	134.6
2241	-10.	-3.25	0.	136.84
2242	-9.75	-3.	0.	135.66
2243	-10.	-3.75	0.	137.61
2244	-9.75	-3.5	0.	136.98
2245	-10.	-4.25	0.	134.76
2246	-9.75	-4.	0.	133.95
2247	-10.	-4.75	0.	131.15
2248	-9.75	-4.5	0.	130.85
2249	-10.	-5.25	0.	128.63
2250	-9.75	-5.	0.	128.6
2251	-10.	-5.75	0.	127.22
2252	-9.75	-5.5	0.	127.37
2253	-10.	-6.25	0.	126.33
2254	-9.75	-6.	0.	126.87
2255	-10.	-6.75	0.	125.48
2256	-9.75	-6.5	0.	126.46
2257	-10.	-7.25	0.	124.95
2258	-9.75	-7.	0.	125.85
2259	-10.	-7.75	0.	125.41
2260	-9.75	-7.5	0.	125.7
2261	-10.	-8.25	0.	126.83
2262	-9.75	-8.	0.	126.48
2263	-10.	-8.75	0.	128.35
2264	-9.75	-8.5	0.	127.71
2265	-10.	-9.25	0.	129.28
2266	-9.75	-9.	0.	128.49
2267	-9.75	-9.5	0.	128.73
2268	-9.25	-10.	0.	126.88
2269	-9.5	-9.75	0.	127.87
2270	-8.75	-10.	0.	124.62
2271	-9.	-9.75	0.	126.13
2272	-8.25	-10.	0.	121.84
2273	-8.5	-9.75	0.	123.53
2274	-7.75	-10.	0.	119.49
2275	-8.	-9.75	0.	120.34
2276	-7.25	-10.	0.	118.83
2277	-7.5	-9.75	0.	118.36
2278	-6.75	-10.	0.	120.02
2279	-7.	-9.75	0.	118.96
2280	-6.25	-10.	0.	121.96
2281	-6.5	-9.75	0.	121.11
2282	-5.75	-10.	0.	123.64
2283	-6.	-9.75	0.	123.07
2284	-5.25	-10.	0.	124.84
2285	-5.5	-9.75	0.	124.37
2286	-4.75	-10.	0.	125.77
2287	-5.	-9.75	0.	125.33
2288	-4.25	-10.	0.	126.55
2289	-4.5	-9.75	0.	126.18
2290	-3.75	-10.	0.	127.19
2291	-4.0001	-9.75	0.	126.92
2292	-3.25	-10.	0.	127.66
2293	-3.5001	-9.75	0.	127.49
2294	-2.75	-10.	0.	127.93
2295	-3.0001	-9.75	0.	127.86
2296	-2.25	-10.	0.	128.02
2297	-2.5001	-9.75	0.	128.03
2298	-1.75	-10.	0.	127.98
2299	-2.0001	-9.75	0.	128.04
2300	-1.25	-10.	0.	127.85
2301	-1.5	-9.75	0.	127.93
2302	-0.75	-10.	0.	127.68
2303	-1.	-9.75	0.	127.77
2304	-0.25	-10.	0.	127.5
2305	-0.50003	-9.75	0.	127.58
2306	0.25	-10.	0.	127.34
2307	-2.2786e-005	-9.75	0.	127.4
2308	0.75	-10.	0.	127.26
2309	0.49998	-9.75	0.	127.26
2310	1.25	-10.	0.	127.29
2311	0.99999	-9.75	0.	127.2
2312	1.75	-10.	0.	127.5
2313	1.5	-9.75	0.	127.28
2314	2.25	-10.	0.	127.98
2315	2.	-9.75	0.	127.57
2316	2.75	-10.	0.	128.82
2317	2.5	-9.75	0.	128.15
2318	3.25	-10.	0.	129.98
2319	3.	-9.75	0.	129.09
2320	3.75	-10.	0.	131.13
2321	3.5	-9.75	0.	130.3
2322	4.25	-10.	0.	130.28
2323	4.	-9.75	0.	131.34
2324	4.75	-10.	0.	123.97
2325	4.5	-9.75	0.	129.92
2326	5.25	-10.	0.	113.9
2327	5.	-9.75	0.	119.55
2328	5.75	-10.	0.	106.92
2329	5.5	-9.75	0.	108.14
2330	6.25	-10.	0.	107.11
2331	6.	-9.75	0.	105.76
2332	6.75	-10.	0.	114.5
2333	6.5	-9.75	0.	108.49
2334	7.25	-10.	0.	125.03
2335	7.	-9.75	0.	120.38
2336	7.75	-10.	0.	131.78
2337	7.5	-9.75	0.	131.22
2338	8.25	-10.	0.	133.01
2339	8.	-9.75	0.	133.06
2340	8.75	-10.	0.	132.18
2341	8.5	-9.75	0.	132.39
2342	9.25	-10.	0.	131.37
2343	9.	-9.75	0.	131.5
2344	9.5	-9.75	0.	130.93
2345	-3.5	-2.25	0.	127.
2346	-3.75	-2.	0.	126.63
2347	-3.5	-1.75	0.	126.66
2348	-3.25	-2.	0.	126.81
2349	-5.9999	2.7508	0.	126.27
2350	-5.7498	3.0007	0.	126.7
2351	-6.2498	3.0011	0.	125.9
2352	-5.9997	3.251	0.	126.47
2353	-4.	-1.75	0.	126.51
2354	-3.75	-1.5	0.	126.54
2355	-4.	-1.25	0.	126.67
2356	-4.25	-1.5	0.	126.47
2357	-1.2502	-6.	0.	127.08
2358	-1.7502	-6.	0.	127.4
2359	-1.5002	-5.75	0.	127.27
2360	-1.5002	-6.25	0.	127.32
2361	-2.0002	-5.75	0.	127.54
2362	-1.7501	-5.5	0.	127.42
2363	-2.0001	-5.25	0.	127.67
2364	-2.2501	-5.5	0.	127.64
2365	-3.25	-2.5	0.	127.26
2366	-3.75	-2.5	0.	127.13
2367	-3.5	-2.75	0.	127.68
2368	-4.	-2.25	0.	126.76
2369	-4.25	-2.	0.	126.33
2370	-3.5	-1.25	0.	126.59
2371	-3.25	-1.5	0.	126.63
2372	-6.	2.2507	0.	126.32
2373	-6.2499	2.5009	0.	125.74
2374	-5.7499	2.5006	0.	126.66
2375	-1.0001	-5.75	0.	126.86
2376	-0.75016	-6.	0.	126.71
2377	-1.0002	-6.25	0.	126.99
2378	-3.	-2.75	0.	127.59
2379	-3.	-2.25	0.	127.07
2380	-2.75	-2.5	0.	127.24
2381	-5.9988	4.7511	0.	127.28
2382	-5.9982	5.2511	0.	127.11
2383	-6.2484	5.0014	0.	126.78
2384	-5.7487	5.0009	0.	127.92
2385	-3.75	-0.99999	0.	126.72
2386	-4.	-0.74998	0.	127.09
2387	-4.25	-0.99997	0.	126.97
2388	-5.4999	2.7505	0.	127.09
2389	-5.4998	3.2506	0.	127.28
2390	-5.2499	3.0005	0.	127.43
2391	-2.0003	-6.25	0.	127.62
2392	-2.2502	-6.	0.	127.66
2393	-1.2501	-5.5	0.	127.06
2394	-1.5001	-5.25	0.	127.41
2395	-5.9972	6.2509	0.	126.03
2396	-6.2468	6.501	0.	125.47
2397	-5.7475	6.5007	0.	126.01
2398	-5.9972	6.7507	0.	125.46
2399	-3.	-3.25	0.	128.24
2400	-3.25	-3.	0.	128.
2401	-2.75	-3.	0.	127.77
2402	-1.7501	-5.	0.	127.67
2403	-2.	-4.75	0.	127.96
2404	-2.2501	-5.	0.	127.88
2405	-6.25	2.0007	0.	125.79
2406	-6.4999	2.2509	0.	125.21
2407	-6.5	1.7507	0.	125.22
2408	-6.7499	2.0009	0.	124.53
2409	0.49991	-6.25	0.	126.56
2410	0.74992	-6.5	0.	126.85
2411	0.24988	-6.5	0.	126.69
2412	0.4999	-6.75	0.	126.78
2413	0.2499	-6.	0.	126.34
2414	0.49993	-5.75	0.	126.05
2415	0.74993	-6.	0.	126.67
2416	-4.25	-2.5	0.	126.72
2417	-4.	-2.75	0.	127.5
2418	-4.5	-1.75	0.	126.29
2419	-4.5	-2.25	0.	126.29
2420	-4.75	-2.	0.	126.
2421	-3.25	-1.	0.	126.57
2422	-3.5	-0.74999	0.	126.65
2423	-2.75	-1.	0.	126.66
2424	-3.	-0.75	0.	126.36
2425	-3.	-1.25	0.	126.6
2426	-6.	1.7506	0.	126.63
2427	-5.75	2.0005	0.	126.93
2428	-6.25	1.5005	0.	126.06
2429	-5.75	1.5004	0.	127.46
2430	-6.	1.2504	0.	127.22
2431	-5.9992	4.2511	0.	127.14
2432	-5.7491	4.5009	0.	127.89
2433	-6.249	4.5013	0.	126.79
2434	-6.2493	4.0013	0.	126.55
2435	-5.7494	4.0009	0.	127.52
2436	-5.9995	3.751	0.	126.81
2437	-9.7551e-005	-5.75	0.	126.
2438	-0.25013	-6.	0.	126.41
2439	-1.248e-004	-6.25	0.	126.48
2440	-2.75	-2.	0.	126.94
2441	-3.	-1.75	0.	126.78
2442	-5.9976	5.751	0.	126.65
2443	-6.2472	6.0012	0.	126.01
2444	-5.7477	6.0008	0.	126.79
2445	-5.7482	5.5008	0.	127.52
2446	-6.2478	5.5013	0.	126.5
2447	-6.4998	2.7511	0.	125.37
2448	-6.7499	2.5011	0.	124.78
2449	-6.7498	3.0014	0.	125.08
2450	-6.4997	3.2513	0.	125.63
2451	-6.7493	4.0018	0.	125.71
2452	-6.4994	3.7515	0.	125.94
2453	-6.4991	4.2516	0.	126.19
2454	-6.7483	5.0019	0.	125.9
2455	-6.4986	4.7516	0.	126.29
2456	-6.498	5.2516	0.	126.17
2457	-6.4968	6.2513	0.	125.45
2458	-6.747	6.0016	0.	125.4
2459	-6.4974	5.7514	0.	125.86
2460	-0.50019	-6.75	0.	126.92
2461	-0.50016	-6.25	0.	126.67
2462	-0.25016	-6.5	0.	126.74
2463	-0.7502	-6.5	0.	126.94
2464	-1.7503	-6.5	0.	127.54
2465	-1.5003	-6.75	0.	127.48
2466	-1.2502	-6.5	0.	127.23
2467	-3.75	-0.49999	0.	127.02
2468	-4.25	-0.49997	0.	127.65
2469	-4.	-0.24998	0.	127.66
2470	-2.5	-0.75	0.	126.54
2471	-2.25	-0.5	0.	126.71
2472	-2.75	-0.5	0.	126.24
2473	-2.5	-0.25	0.	125.75
2474	-5.25	2.5004	0.	127.44
2475	-5.5	2.2505	0.	127.27
2476	-5.4996	3.7507	0.	127.75
2477	-5.2498	3.5005	0.	127.86
2478	-5.7497	3.5008	0.	127.04
2479	-2.2503	-6.5	0.	127.88
2480	-2.0003	-6.75	0.	127.8
2481	-2.5002	-5.75	0.	127.75
2482	-2.7501	-5.5	0.	127.8
2483	-2.5001	-5.25	0.	127.85
2484	-0.75011	-5.5	0.	126.53
2485	-1.0001	-5.25	0.	126.92
2486	-2.5	-1.25	0.	126.88
2487	-2.25	-1.	0.	127.18
2488	-2.5	-2.25	0.	127.1
2489	-2.25	-2.5	0.	127.17
2490	-2.5	-2.75	0.	127.43
2491	-5.249	5.0005	0.	129.33
2492	-5.4986	5.2507	0.	128.32
2493	-5.499	4.7507	0.	128.52
2494	-4.75	-1.5	0.	126.44
2495	-4.5	-1.25	0.	126.77
2496	-6.7464	6.5014	0.	125.06
2497	-6.4966	6.7511	0.	125.08
2498	-5.498	6.7505	0.	125.98
2499	-5.2482	6.5004	0.	126.73
2500	-5.4979	6.2505	0.	126.78
2501	-4.5	-0.24995	0.	128.36
2502	-4.25	4.3545e-005	0.	128.36
2503	-4.75	7.9294e-005	0.	129.03
2504	-4.5	0.25007	0.	129.1
2505	-4.9999	2.7503	0.	127.78
2506	-4.9998	3.2503	0.	128.01
2507	-4.7499	3.0002	0.	128.12
2508	-2.75	-3.5	0.	128.37
2509	-3.	-3.75	0.	128.78
2510	-3.25	-3.5	0.	128.85
2511	-1.2501	-5.	0.	127.28
2512	-1.5	-4.75	0.	127.78
2513	-2.25	-4.5	0.	128.22
2514	-2.	-4.25	0.	128.21
2515	-1.75	-4.5	0.	128.07
2516	-2.	-0.75	0.	127.34
2517	-1.75	-0.5	0.	127.74
2518	-2.	-0.25	0.	126.7
2519	-6.75	1.5006	0.	124.37
2520	-6.5	1.2505	0.	125.46
2521	-6.9999	1.7508	0.	123.68
2522	-7.2499	2.0009	0.	123.39
2523	-6.9999	2.251	0.	124.1
2524	0.99993	-6.75	0.	126.9
2525	0.99993	-6.25	0.	126.96
2526	1.2499	-6.5	0.	127.11
2527	-3.75	-3.	0.	128.05
2528	-3.5	-3.25	0.	128.62
2529	0.24993	-5.5	0.	125.71
2530	0.49995	-5.25	0.	125.13
2531	0.74994	-5.5	0.	126.09
2532	-4.75	-2.5	0.	126.11
2533	-4.5	-2.75	0.	126.88
2534	-5.	-2.25	0.	125.81
2535	-5.	-1.75	0.	126.15
2536	-5.25	-2.	0.	125.99
2537	-3.25	-0.49999	0.	126.45
2538	-3.5	-0.24999	0.	126.73
2539	-3.	-0.24999	0.	125.87
2540	-5.25	1.5003	0.	128.51
2541	-5.5	1.7504	0.	127.76
2542	-5.5	1.2503	0.	128.41
2543	-5.2496	4.0005	0.	128.58
2544	-5.4993	4.2507	0.	128.26
2545	-2.75	-4.5	0.	128.57
2546	-2.5	-4.75	0.	128.15
2547	-2.5	-4.25	0.	128.38
2548	-2.7502	-6.	0.	127.93
2549	-2.5003	-6.25	0.	127.92
2550	-0.25009	-5.5	0.	125.97
2551	-0.50008	-5.25	0.	126.13
2552	-0.50012	-5.75	0.	126.37
2553	-6.8094e-005	-5.25	0.	125.31
2554	-2.25	-3.5	0.	128.11
2555	-2.5	-3.25	0.	127.91
2556	-2.5	-3.75	0.	128.3
2557	-2.5	-1.75	0.	126.98
2558	-2.25	-1.5	0.	127.25
2559	-2.75	-1.5	0.	126.82
2560	-2.25	-2.	0.	127.13
2561	-4.75	-0.49994	0.	128.27
2562	-4.5	-0.74996	0.	127.53
2563	6.5	6.75	0.	126.67
2564	6.75	7.	0.	126.13
2565	6.25	7.	0.	126.74
2566	6.5	7.25	0.	126.18
2567	6.5	6.25	0.	127.16
2568	6.5	5.75	0.	127.81
2569	6.75	6.	0.	127.07
2570	6.25	6.	0.	127.59
2571	6.75	6.5	0.	126.54
2572	6.25	6.5	0.	127.21
2573	-7.2497	3.0015	0.	124.38
2574	-6.9997	3.2516	0.	124.87
2575	-6.9998	2.7513	0.	124.5
2576	-6.9991	4.252	0.	125.41
2577	-7.2493	4.002	0.	125.03
2578	-6.9994	3.7518	0.	125.19
2579	-6.9985	4.7521	0.	125.5
2580	-7.2489	4.5022	0.	125.19
2581	-6.7489	4.5018	0.	125.89
2582	-7.2483	5.0024	0.	125.21
2583	-6.9979	5.2521	0.	125.44
2584	-6.9966	6.2517	0.	125.01
2585	-7.247	6.0021	0.	124.93
2586	-6.9973	5.752	0.	125.26
2587	7.	6.75	0.	126.01
2588	7.	6.25	0.	126.45
2589	7.25	6.5	0.	125.74
2590	1.2499	-7.	0.	126.76
2591	1.5	-6.75	0.	126.97
2592	1.75	-7.	0.	126.47
2593	1.5	-7.25	0.	126.55
2594	-6.9962	6.7514	0.	124.79
2595	-7.2463	6.5018	0.	124.74
2596	-5.7477	7.0006	0.	125.43
2597	-5.9976	7.2506	0.	125.11
2598	-6.247	7.0008	0.	125.07
2599	-5.2484	7.0004	0.	125.97
2600	-5.4983	7.2504	0.	125.51
2601	-4.9986	6.7503	0.	126.72
2602	-4.749	7.0002	0.	126.89
2603	-4.9988	7.2503	0.	126.16
2604	0.99993	-7.25	0.	126.76
2605	0.74991	-7.	0.	126.83
2606	-0.5002	-7.25	0.	127.13
2607	-0.25017	-7.	0.	126.96
2608	-0.75022	-7.	0.	127.16
2609	-1.5003	-7.25	0.	127.65
2610	-1.2503	-7.	0.	127.42
2611	-1.7503	-7.	0.	127.74
2612	-2.7504	-6.9999	0.	128.56
2613	-2.5004	-7.2499	0.	128.34
2614	-2.5004	-6.75	0.	128.18
2615	-2.2504	-7.	0.	128.1
2616	-3.75	2.0617e-005	0.	127.37
2617	-4.	0.25003	0.	128.37
2618	-2.75	3.7489e-006	0.	125.37
2619	-2.5	0.25	0.	124.22
2620	-2.25	1.306e-006	0.	125.74
2621	-5.	2.2503	0.	128.05
2622	-4.75	2.5002	0.	128.16
2623	-5.	1.2502	0.	129.21
2624	-4.75	1.0002	0.	129.66
2625	-5.25	1.0002	0.	129.1
2626	-5.	0.75017	0.	129.51
2627	-4.9997	3.7504	0.	128.69
2628	-4.7498	3.5003	0.	128.66
2629	-3.	-4.25	0.	128.9
2630	-3.25	-4.	0.	129.44
2631	-2.75	-4.	0.	128.71
2632	-3.0002	-5.75	0.	127.98
2633	-3.2501	-5.5	0.	128.05
2634	-3.0001	-5.25	0.	128.08
2635	-0.75006	-5.	0.	126.52
2636	-1.	-4.75	0.	127.31
2637	-2.	-3.75	0.	128.17
2638	-1.75	-4.	0.	128.37
2639	-2.25	-4.	0.	128.37
2640	-2.	-1.25	0.	127.54
2641	-1.75	-1.	0.	128.11
2642	-2.	-2.25	0.	127.2
2643	-1.75	-2.5	0.	127.21
2644	-2.	-2.75	0.	127.33
2645	-4.7488	6.5002	0.	127.74
2646	-4.9985	6.2503	0.	127.75
2647	-4.999	5.2503	0.	129.82
2648	-4.7493	5.0002	0.	130.95
2649	-4.9993	4.7504	0.	130.
2650	-7.	1.2506	0.	123.29
2651	-7.25	1.5007	0.	122.73
2652	-6.25	1.0004	0.	126.62
2653	-6.	0.75032	0.	128.13
2654	-5.75	1.0003	0.	128.17
2655	-5.	-0.24992	0.	128.94
2656	-5.25	1.2299e-004	0.	129.55
2657	-5.	0.25013	0.	129.44
2658	6.25	5.5	0.	128.15
2659	6.	5.75	0.	127.92
2660	6.	5.25	0.	128.44
2661	5.75	5.5	0.	127.99
2662	0.99994	-5.75	0.	126.71
2663	1.2499	-6.	0.	127.37
2664	-4.5	0.7501	0.	129.65
2665	-4.25	0.50006	0.	129.11
2666	-4.75	0.50012	0.	129.51
2667	-4.	-3.25	0.	128.73
2668	-4.25	-3.	0.	127.66
2669	-3.5	-3.75	0.	129.52
2670	-3.75	-3.5	0.	129.29
2671	-0.5	0.25	0.	129.46
2672	-0.25	0.5	0.	129.61
2673	-0.75	0.5	0.	129.96
2674	-0.5	0.75	0.	130.69
2675	0.24995	-5.	0.	124.73
2676	0.49997	-4.75	0.	123.67
2677	0.74996	-5.	0.	125.02
2678	-1.5	-4.25	0.	128.24
2679	-1.25	-4.5	0.	127.82
2680	-1.25	-0.5	0.	128.71
2681	-1.5	-0.75	0.	128.51
2682	-1.5	-0.25	0.	128.18
2683	-5.5	0.25018	0.	129.6
2684	-5.75	0.50024	0.	129.05
2685	-5.5	0.75024	0.	129.09
2686	-5.25	0.50018	0.	129.5
2687	-5.25	-2.5	0.	125.73
2688	-5.	-2.75	0.	125.99
2689	5.5	-1.25	0.	125.86
2690	5.75	-1.5	0.	126.49
2691	5.5	-1.75	0.	126.43
2692	5.25	-1.5	0.	125.33
2693	1.5	-6.25	0.	127.52
2694	1.75	-6.5	0.	127.16
2695	7.	7.25	0.	125.69
2696	7.25	7.	0.	125.53
2697	6.	6.75	0.	127.29
2698	6.	7.25	0.	126.67
2699	5.75	7.	0.	127.44
2700	6.75	5.5	0.	127.97
2701	6.5	5.25	0.	128.7
2702	7.	5.75	0.	127.23
2703	7.25	6.	0.	126.11
2704	-3.0005	-7.2499	0.	128.77
2705	-3.2505	-6.9999	0.	129.15
2706	-3.0004	-6.7499	0.	128.68
2707	2.	-7.25	0.	126.07
2708	2.	-6.75	0.	126.66
2709	2.25	-7.	0.	125.77
2710	-4.4993	7.2501	0.	127.37
2711	-4.4992	6.7502	0.	127.91
2712	-4.2494	7.0001	0.	128.71
2713	2.25	-7.272e-009	0.	122.46
2714	2.	0.25	0.	120.76
2715	2.	-0.25	0.	123.01
2716	1.75	-7.336e-009	0.	122.14
2717	-4.2499	3.0001	0.	129.17
2718	-4.4999	3.2502	0.	128.77
2719	-4.4999	2.7502	0.	128.51
2720	-0.25	3.	0.	130.24
2721	-0.75	3.	0.	129.11
2722	-0.5	3.25	0.	129.47
2723	-0.5	2.75	0.	129.25
2724	-7.2461	7.0013	0.	124.61
2725	-6.9964	7.2511	0.	124.68
2726	-6.7464	7.0011	0.	124.81
2727	-3.25	9.5238e-006	0.	126.16
2728	-3.5	0.25002	0.	126.88
2729	-3.	0.25001	0.	124.99
2730	-5.	1.7503	0.	128.64
2731	-4.75	2.0002	0.	128.69
2732	-5.25	2.0004	0.	127.88
2733	-4.75	1.5002	0.	129.37
2734	-4.7497	4.0003	0.	129.64
2735	-4.9995	4.2504	0.	129.51
2736	-3.25	-4.5	0.	129.33
2737	-3.	-4.75	0.	128.55
2738	-3.0003	-6.25	0.	128.31
2739	-3.2502	-6.	0.	128.33
2740	0.25	1.8794e-009	0.	126.26
2741	0.75	-1.2763e-009	0.	124.35
2742	0.5	-0.25	0.	124.37
2743	0.5	0.25	0.	126.1
2744	5.75	-1.	0.	126.29
2745	5.5	-0.75	0.	125.82
2746	5.25	-1.	0.	124.6
2747	6.	-1.25	0.	126.92
2748	6.	-0.75	0.	127.33
2749	6.25	-1.	0.	127.2
2750	6.25	-1.5	0.	127.13
2751	6.	-1.75	0.	126.94
2752	-0.25006	-5.	0.	125.47
2753	-0.50005	-4.75	0.	126.12
2754	-4.1797e-005	-4.75	0.	124.44
2755	-1.75	-3.5	0.	128.22
2756	-2.	-3.25	0.	127.79
2757	-2.	-1.75	0.	127.39
2758	-1.75	-1.5	0.	128.02
2759	-1.75	-2.	0.	127.48
2760	-0.25	7.4483e-009	0.	128.06
2761	-3.5128e-008	0.25	0.	128.22
2762	-3.3877e-008	-0.25	0.	126.5
2763	-0.5	-0.25	0.	128.52
2764	-0.75	3.8698e-008	0.	128.97
2765	1.	0.25	0.	123.55
2766	1.	-0.25	0.	123.34
2767	1.25	-5.088e-009	0.	122.86
2768	-4.749	5.5002	0.	130.35
2769	-4.9987	5.7503	0.	128.95
2770	-5.2486	5.5005	0.	128.81
2771	-6.75	1.0004	0.	124.39
2772	-6.5	0.75037	0.	126.12
2773	-7.25	1.0005	0.	121.96
2774	-7.	0.75038	0.	123.05
2775	-5.	-0.74994	0.	128.04
2776	-5.	-1.25	0.	126.98
2777	-4.75	-0.99996	0.	127.31
2778	-5.25	-0.99994	0.	127.87
2779	-5.25	-0.49991	0.	129.01
2780	4.25	-1.	0.	120.91
2781	4.5	-0.75	0.	120.99
2782	4.5	-1.25	0.	121.85
2783	4.75	-1.	0.	122.51
2784	4.	-0.75	0.	120.49
2785	4.	-1.25	0.	120.01
2786	3.75	-1.	0.	120.52
2787	6.	6.25	0.	127.64
2788	5.75	6.	0.	127.91
2789	5.75	6.5	0.	127.95
2790	6.25	5.	0.	128.99
2791	6.	4.75	0.	129.19
2792	5.75	5.	0.	128.52
2793	0.99996	-5.25	0.	125.99
2794	1.25	-5.5	0.	127.18
2795	5.25	-4.	0.	124.87
2796	5.	-3.75	0.	126.05
2797	5.	-4.25	0.	125.29
2798	4.75	-4.	0.	128.68
2799	-6.	-1.75	0.	128.25
2800	-6.	-2.25	0.	127.43
2801	-6.25	-2.	0.	131.15
2802	-5.75	-2.	0.	127.12
2803	2.75	-1.	0.	123.24
2804	3.	-0.75	0.	122.72
2805	3.	-1.25	0.	121.66
2806	3.25	-1.	0.	121.45
2807	2.5	-1.25	0.	124.45
2808	2.25	-1.	0.	125.18
2809	2.5	-0.75	0.	123.99
2810	-1.7348e-010	2.75	0.	131.04
2811	0.25	3.	0.	134.46
2812	3.5107e-008	3.25	0.	131.58
2813	-4.	2.7501	0.	129.64
2814	-3.9999	3.2501	0.	129.83
2815	-3.75	3.	0.	131.99
2816	-1.	3.25	0.	128.86
2817	-1.	2.75	0.	129.09
2818	-1.25	3.	0.	130.96
2819	2.5	0.25	0.	122.18
2820	2.75	-8.4792e-009	0.	123.71
2821	2.5	-0.25	0.	123.31
2822	-7.5	1.2506	0.	121.4
2823	-7.5	0.75039	0.	120.06
2824	-7.75	1.0005	0.	120.34
2825	-7.4999	1.7508	0.	122.44
2826	-7.7499	1.5007	0.	121.7
2827	-7.4999	2.2511	0.	123.23
2828	-7.7499	2.0009	0.	122.68
2829	-7.4998	2.7514	0.	123.82
2830	-7.7498	2.5012	0.	123.39
2831	-7.2499	2.5012	0.	123.93
2832	-7.4996	3.2517	0.	124.26
2833	-7.7497	3.0015	0.	123.89
2834	-7.4994	3.752	0.	124.59
2835	-7.7496	3.5018	0.	124.25
2836	-7.2496	3.5017	0.	124.75
2837	-7.4991	4.2522	0.	124.8
2838	-7.7493	4.0021	0.	124.5
2839	-7.4986	4.7525	0.	124.9
2840	-7.749	4.5025	0.	124.64
2841	-7.4981	5.2526	0.	124.88
2842	-7.7485	5.0027	0.	124.68
2843	-7.4974	5.7524	0.	124.79
2844	-7.7479	5.5027	0.	124.64
2845	-7.2477	5.5023	0.	125.11
2846	-7.4967	6.2522	0.	124.66
2847	-7.7473	6.0025	0.	124.56
2848	-7.4963	6.7517	0.	124.56
2849	-7.7467	6.5021	0.	124.47
2850	-7.4963	7.2512	0.	124.53
2851	-7.7464	7.0015	0.	124.44
2852	-7.2466	7.501	0.	124.6
2853	-7.7467	7.501	0.	124.49
2854	-7.4969	7.7509	0.	124.62
2855	-6.7469	7.5008	0.	124.72
2856	-6.9971	7.7508	0.	124.71
2857	-6.2475	7.5007	0.	124.89
2858	-6.4969	7.2509	0.	124.85
2859	-6.4976	7.7507	0.	124.83
2860	-5.7481	7.5005	0.	125.18
2861	-5.9981	7.7505	0.	125.03
2862	-5.2487	7.5003	0.	125.69
2863	-5.4986	7.7504	0.	125.4
2864	-4.7492	7.5002	0.	126.63
2865	-4.9991	7.7502	0.	126.1
2866	-4.2495	7.5001	0.	128.25
2867	-4.4995	7.7501	0.	127.37
2868	2.75	-7.5	0.	124.97
2869	3.25	-7.5	0.	124.86
2870	3.	-7.25	0.	124.56
2871	3.	-7.75	0.	125.01
2872	2.25	-7.5	0.	125.56
2873	2.5	-7.25	0.	125.27
2874	2.5	-7.75	0.	125.4
2875	1.75	-7.5	0.	126.15
2876	2.	-7.75	0.	125.95
2877	1.2499	-7.5	0.	126.55
2878	1.5	-7.75	0.	126.4
2879	0.74992	-7.5	0.	126.78
2880	0.99993	-7.75	0.	126.69
2881	0.24988	-7.5	0.	126.94
2882	0.4999	-7.75	0.	126.89
2883	0.4999	-7.25	0.	126.85
2884	-0.25017	-7.5	0.	127.12
2885	-1.3417e-004	-7.75	0.	127.07
2886	-1.4498e-004	-7.25	0.	126.95
2887	-0.75022	-7.5	0.	127.33
2888	-0.50018	-7.75	0.	127.28
2889	-1.2503	-7.5	0.	127.59
2890	-1.0002	-7.75	0.	127.52
2891	-1.0002	-7.25	0.	127.36
2892	-1.7503	-7.5	0.	127.89
2893	-1.5003	-7.75	0.	127.79
2894	-2.2504	-7.4999	0.	128.21
2895	-2.0003	-7.75	0.	128.07
2896	-2.0003	-7.25	0.	127.97
2897	-2.7504	-7.4999	0.	128.55
2898	-2.5004	-7.7499	0.	128.35
2899	-3.2505	-7.4999	0.	128.85
2900	-3.0004	-7.7499	0.	128.59
2901	-3.7505	-7.4999	0.	128.85
2902	-3.5005	-7.2499	0.	129.23
2903	-3.5005	-7.7499	0.	128.66
2904	-4.2505	-7.4999	0.	127.98
2905	-4.0005	-7.2499	0.	129.48
2906	-4.0005	-7.7499	0.	128.23
2907	7.25	5.5	0.	126.9
2908	7.	5.25	0.	128.54
2909	5.25	7.5	0.	126.64
2910	5.	7.75	0.	125.79
2911	5.	7.25	0.	127.75
2912	4.75	7.5	0.	126.48
2913	5.75	7.5	0.	126.43
2914	5.5	7.25	0.	127.2
2915	5.5	7.75	0.	125.95
2916	6.25	7.5	0.	126.1
2917	6.	7.75	0.	125.88
2918	6.75	7.5	0.	125.74
2919	6.5	7.75	0.	125.69
2920	7.25	7.5	0.	125.36
2921	7.	7.75	0.	125.43
2922	7.5	7.25	0.	125.2
2923	7.5	7.75	0.	125.14
2924	7.75	7.5	0.	125.01
2925	7.5	6.75	0.	125.26
2926	7.75	7.	0.	124.96
2927	7.5	6.25	0.	125.39
2928	7.75	6.5	0.	124.86
2929	7.5	5.75	0.	125.78
2930	7.75	6.	0.	124.75
2931	3.5	-7.25	0.	124.78
2932	3.5	-7.75	0.	125.33
2933	3.75	-7.5	0.	125.73
2934	-0.75	3.5	0.	129.22
2935	-0.5	3.75	0.	130.65
2936	-0.25	3.5	0.	130.81
2937	1.75	0.5	0.	119.99
2938	2.	0.75	0.	117.84
2939	2.25	0.5	0.	120.46
2940	5.75	-2.5	0.	127.02
2941	6.25	-2.5	0.	126.37
2942	6.	-2.75	0.	126.87
2943	6.	-2.25	0.	126.94
2944	5.5	-4.25	0.	123.21
2945	5.25	-4.5	0.	123.63
2946	5.75	-4.5	0.	122.05
2947	5.5	-4.75	0.	122.26
2948	5.5	6.75	0.	128.1
2949	5.25	7.	0.	128.3
2950	5.5	5.25	0.	128.07
2951	5.25	5.5	0.	127.74
2952	5.5	5.75	0.	127.98
2953	1.5	-5.75	0.	127.83
2954	1.75	-6.	0.	128.14
2955	2.25	-6.5	0.	126.44
2956	2.	-6.25	0.	127.79
2957	2.75	-7.	0.	124.85
2958	2.5	-6.75	0.	125.56
2959	3.	-6.75	0.	124.14
2960	3.25	-7.	0.	124.47
2961	5.5	-2.25	0.	126.96
2962	5.25	-2.	0.	126.46
2963	5.75	-2.	0.	126.88
2964	3.75	-1.5	0.	119.28
2965	3.5	-1.75	0.	117.3
2966	3.25	-1.5	0.	119.99
2967	3.5	-1.25	0.	119.78
2968	5.	-1.75	0.	125.37
2969	4.75	-1.5	0.	123.4
2970	5.	-1.25	0.	124.07
2971	-5.5	-2.75	0.	125.56
2972	-5.75	-2.5	0.	126.22
2973	-5.5	-2.25	0.	125.91
2974	-5.5	-0.24987	0.	129.6
2975	-5.75	1.6238e-004	0.	129.94
2976	-5.75	-1.5	0.	127.71
2977	-5.25	-1.5	0.	126.74
2978	-5.5	-1.75	0.	126.58
2979	-5.5	-1.25	0.	127.62
2980	-7.25	0.50031	0.	121.16
2981	-7.75	0.50031	0.	118.52
2982	-7.5	0.25024	0.	118.4
2983	-6.	0.25022	0.	129.39
2984	-6.25	0.50029	0.	127.63
2985	6.75	5.	0.	129.27
2986	6.5	4.75	0.	129.55
2987	6.25	2.	0.	130.84
2988	6.	2.25	0.	131.11
2989	6.	1.75	0.	131.49
2990	5.75	2.	0.	133.93
2991	6.5	1.75	0.	130.27
2992	6.5	2.25	0.	129.99
2993	6.75	2.	0.	129.73
2994	-4.2493	6.5001	0.	129.15
2995	-4.4991	6.2502	0.	129.02
2996	1.75	-0.5	0.	123.92
2997	2.	-0.75	0.	125.06
2998	2.25	-0.5	0.	123.86
2999	-0.75	-0.5	0.	128.64
3000	-1.	-0.75	0.	129.41
3001	-1.	-0.25	0.	129.09
3002	0.25	-0.5	0.	124.6
3003	0.75	-0.5	0.	123.36
3004	0.5	-0.75	0.	122.09
3005	-1.5	-1.25	0.	128.59
3006	-1.25	-1.	0.	129.21
3007	-1.5	-3.75	0.	128.41
3008	-1.25	-4.	0.	128.6
3009	-1.5	-2.25	0.	127.49
3010	-1.25	-2.5	0.	127.26
3011	-1.5	-2.75	0.	127.45
3012	-0.75003	-4.5	0.	126.91
3013	-1.	-4.25	0.	128.18
3014	0.24997	-4.5	0.	123.37
3015	0.49998	-4.25	0.	121.33
3016	0.74998	-4.5	0.	123.5
3017	1.25	-5.	0.	126.43
3018	0.99997	-4.75	0.	124.86
3019	6.5	-1.75	0.	127.06
3020	6.5	-2.25	0.	126.29
3021	6.75	-2.	0.	126.53
3022	6.25	-2.	0.	126.86
3023	6.25	-0.5	0.	127.91
3024	6.5	-0.75	0.	127.78
3025	6.5	-0.25	0.	128.81
3026	6.75	-0.5	0.	127.9
3027	5.75	-0.5	0.	126.86
3028	6.	-0.25	0.	128.7
3029	6.75	1.5	0.	129.76
3030	7.	1.25	0.	129.57
3031	7.25	1.5	0.	127.52
3032	7.	1.75	0.	129.22
3033	6.5	1.25	0.	130.65
3034	6.25	1.5	0.	130.91
3035	6.	4.25	0.	130.
3036	5.75	4.5	0.	129.18
3037	6.25	4.5	0.	129.74
3038	4.25	-0.5	0.	120.58
3039	4.5	-0.25	0.	119.44
3040	4.75	-0.5	0.	121.72
3041	3.	-0.25	0.	123.86
3042	3.25	-0.5	0.	122.66
3043	2.75	-0.5	0.	123.46
3044	1.25	0.5	0.	122.08
3045	1.5	0.75	0.	119.41
3046	1.5	0.25	0.	121.39
3047	0.25	0.5	0.	128.04
3048	-3.9083e-008	0.75	0.	130.19
3049	-3.7504	-6.9999	0.	129.85
3050	-3.5004	-6.7499	0.	129.44
3051	-3.5	-4.25	0.	129.88
3052	-3.75	-4.	0.	130.52
3053	-3.5001	-5.25	0.	128.54
3054	-3.7501	-5.5	0.	128.33
3055	-3.5001	-5.75	0.	128.4
3056	-4.	-3.75	0.	130.3
3057	-4.25	-3.5	0.	129.11
3058	-4.75	-3.	0.	126.76
3059	-4.5	-3.25	0.	128.05
3060	-5.	-3.25	0.	126.54
3061	-5.25	-3.	0.	125.82
3062	-4.4998	3.7502	0.	129.61
3063	-4.2499	3.5001	0.	129.43
3064	-4.4993	5.2502	0.	131.47
3065	-4.2495	5.0001	0.	132.4
3066	-4.4995	4.7502	0.	131.57
3067	-4.5	1.2501	0.	129.82
3068	-4.25	1.0001	0.	129.91
3069	-4.25	2.5001	0.	128.98
3070	-4.5	2.2502	0.	128.8
3071	-4.	0.75004	0.	129.37
3072	-3.75	0.50003	0.	127.89
3073	-1.25	0.5	0.	128.9
3074	-1.	0.75	0.	130.43
3075	-1.	0.25	0.	129.47
3076	-2.75	0.5	0.	123.82
3077	-2.5	0.75	0.	121.39
3078	-2.25	0.5	0.	124.11
3079	-0.25	2.5	0.	130.04
3080	-0.75	2.5	0.	129.23
3081	-0.5	2.25	0.	129.88
3082	-0.5	1.25	0.	131.42
3083	-0.25	1.	0.	131.26
3084	-0.75	1.	0.	131.16
3085	-1.5	0.25	0.	127.99
3086	-1.75	0.5	0.	126.49
3087	-1.5	0.75	0.	128.48
3088	-3.	0.75001	0.	123.63
3089	-3.25	0.50001	0.	125.72
3090	-4.25	1.5001	0.	130.23
3091	-4.5	1.7502	0.	129.42
3092	-4.2498	4.0001	0.	130.61
3093	-4.4997	4.2502	0.	130.75
3094	-5.	-3.75	0.	127.23
3095	-5.25	-3.5	0.	125.94
3096	-4.75	-3.5	0.	127.83
3097	-3.5	-4.75	0.	129.35
3098	-3.75	-5.	0.	129.61
3099	-3.25	-5.	0.	128.57
3100	-3.75	-4.5	0.	130.83
3101	0.75	0.5	0.	125.29
3102	0.5	0.75	0.	128.19
3103	1.	0.75	0.	123.84
3104	-0.25	1.5	0.	131.93
3105	-0.75	1.5	0.	131.5
3106	-0.5	1.75	0.	130.95
3107	4.	-0.25	0.	120.64
3108	3.75	-0.5	0.	121.37
3109	6.5	3.75	0.	129.69
3110	6.75	3.5	0.	128.99
3111	6.25	3.5	0.	130.24
3112	6.5	3.25	0.	129.53
3113	6.75	1.	0.	130.47
3114	6.25	1.	0.	131.38
3115	6.5	0.75	0.	130.87
3116	5.5	-0.25	0.	126.99
3117	5.25	-0.5	0.	124.47
3118	6.5	-1.25	0.	127.42
3119	6.75	-1.	0.	127.86
3120	6.75	-1.5	0.	127.77
3121	6.25	-1.072e-010	0.	129.6
3122	6.75	-3.3328e-011	0.	129.65
3123	6.5	0.25	0.	130.2
3124	1.5	-4.75	0.	127.19
3125	1.75	-4.5	0.	128.19
3126	1.5	-4.25	0.	127.5
3127	1.25	-4.5	0.	125.63
3128	-0.25003	-4.5	0.	125.09
3129	-0.50002	-4.25	0.	126.89
3130	-2.1564e-005	-4.25	0.	123.47
3131	-1.25	-3.5	0.	128.89
3132	-1.5	-3.25	0.	128.01
3133	-1.5	-1.75	0.	128.11
3134	-1.25	-1.5	0.	129.29
3135	-1.25	-2.	0.	128.3
3136	-0.25	-0.5	0.	126.96
3137	-4.2807e-008	-0.75	0.	125.
3138	-0.5	-0.75	0.	128.59
3139	1.25	-0.5	0.	123.54
3140	1.5	-0.75	0.	125.04
3141	1.5	-0.25	0.	123.06
3142	1.	-0.75	0.	123.04
3143	-4.2494	5.5001	0.	131.95
3144	-4.4991	5.7502	0.	130.44
3145	6.25	2.5	0.	130.27
3146	6.75	2.5	0.	129.89
3147	6.5	2.75	0.	129.69
3148	6.25	4.	0.	130.12
3149	6.75	4.	0.	129.85
3150	6.5	4.25	0.	129.86
3151	-7.	0.25025	0.	123.17
3152	-6.75	0.50031	0.	124.8
3153	-5.75	-0.49989	0.	130.1
3154	-5.5	-0.74991	0.	128.83
3155	-5.75	-3.	0.	125.89
3156	-5.5	-3.25	0.	125.22
3157	4.	-1.75	0.	119.12
3158	4.25	-1.5	0.	120.95
3159	5.5	-2.75	0.	126.9
3160	5.5	-3.25	0.	126.1
3161	5.75	-3.	0.	126.75
3162	5.25	-3.	0.	126.93
3163	5.25	-2.5	0.	127.27
3164	2.75	-6.5	0.	124.84
3165	2.5	-6.25	0.	126.58
3166	3.25	-6.5	0.	123.69
3167	3.	-6.25	0.	123.27
3168	1.5	-5.25	0.	127.62
3169	1.75	-5.	0.	128.46
3170	1.75	-5.5	0.	128.76
3171	5.25	6.5	0.	129.14
3172	5.5	6.25	0.	128.22
3173	1.25	6.5	0.	123.63
3174	1.	6.75	0.	125.62
3175	0.75	6.5	0.	127.72
3176	1.	6.25	0.	125.54
3177	5.5	-3.75	0.	124.69
3178	5.25	-3.5	0.	125.88
3179	5.75	-3.5	0.	125.86
3180	5.75	-4.	0.	123.99
3181	6.75	-2.5	0.	124.78
3182	7.25	-2.5	0.	122.74
3183	7.	-2.25	0.	125.04
3184	7.	-2.75	0.	122.56
3185	6.5	-2.75	0.	125.81
3186	1.75	1.	0.	117.21
3187	2.25	1.	0.	117.54
3188	2.	1.25	0.	115.26
3189	5.75	-5.5	0.	121.01
3190	5.5	-5.75	0.	120.47
3191	5.25	-5.5	0.	123.56
3192	5.5	-5.25	0.	121.74
3193	-1.25	3.5	0.	129.61
3194	-1.	3.75	0.	129.07
3195	-3.75	2.5	0.	131.1
3196	-4.	2.2501	0.	129.79
3197	0.25	2.5	0.	133.01
3198	-1.9375e-008	2.25	0.	131.18
3199	6.	2.75	0.	130.7
3200	5.75	2.5	0.	132.38
3201	-3.9995	6.2501	0.	130.67
3202	-3.7496	6.5001	0.	132.13
3203	-3.9995	6.7501	0.	129.96
3204	-6.	-1.25	0.	129.11
3205	-6.25	-1.5	0.	130.81
3206	4.75	-3.5	0.	127.97
3207	5.	-3.25	0.	126.7
3208	2.	-4.25	0.	129.96
3209	2.25	-4.5	0.	131.13
3210	2.	-4.75	0.	129.46
3211	5.5	4.75	0.	128.51
3212	5.25	5.	0.	128.37
3213	3.5	-6.75	0.	124.04
3214	3.75	-7.	0.	125.65
3215	3.5	-6.25	0.	121.89
3216	3.75	-6.5	0.	125.03
3217	7.75	5.5	0.	124.78
3218	7.5	5.25	0.	126.96
3219	-0.5	4.25	0.	132.67
3220	-0.25	4.	0.	132.78
3221	-0.75	4.	0.	130.51
3222	-0.5	4.75	0.	134.97
3223	-0.25	4.5	0.	135.14
3224	-0.75	4.5	0.	132.12
3225	0.75	5.5	0.	129.19
3226	0.25	5.5	0.	134.37
3227	0.5	5.25	0.	133.28
3228	0.5	5.75	0.	131.3
3229	1.25	5.5	0.	123.6
3230	1.	5.25	0.	126.83
3231	1.	5.75	0.	125.93
3232	-4.7504	-7.4999	0.	125.75
3233	-4.5005	-7.7499	0.	126.78
3234	-4.5004	-7.2499	0.	128.34
3235	-5.0004	-7.7499	0.	124.28
3236	-5.2503	-7.4999	0.	122.71
3237	-5.0003	-7.2499	0.	124.71
3238	8.	-7.75	0.	128.87
3239	8.	-8.25	0.	129.45
3240	7.75	-8.	0.	131.53
3241	8.25	-8.	0.	128.94
3242	-3.9997	7.7501	0.	129.56
3243	-3.7498	7.5001	0.	132.02
3244	-3.9996	7.2501	0.	129.6
3245	-8.	0.75039	0.	118.82
3246	-8.25	0.5003	0.	118.52
3247	-8.	0.25025	0.	116.43
3248	-7.9999	1.2506	0.	120.64
3249	-8.2499	1.0004	0.	120.36
3250	-7.9999	1.7508	0.	121.94
3251	-8.2499	1.5006	0.	121.7
3252	-7.9999	2.2511	0.	122.84
3253	-8.2499	2.0009	0.	122.62
3254	-7.9998	2.7513	0.	123.46
3255	-8.2498	2.5011	0.	123.24
3256	-7.9997	3.2516	0.	123.88
3257	-8.2497	3.0014	0.	123.65
3258	-7.9995	3.752	0.	124.16
3259	-8.2496	3.5017	0.	123.92
3260	-7.9992	4.2524	0.	124.33
3261	-8.2494	4.0021	0.	124.1
3262	-8.2492	4.5025	0.	124.2
3263	-7.9989	4.7527	0.	124.42
3264	-7.9978	5.7528	0.	124.41
3265	-8.2483	5.5028	0.	124.24
3266	-7.9984	5.2528	0.	124.44
3267	-7.9972	6.2524	0.	124.37
3268	-8.2478	6.0026	0.	124.23
3269	-7.9968	6.7519	0.	124.35
3270	-8.2473	6.5021	0.	124.23
3271	-7.9968	7.2513	0.	124.4
3272	-8.2472	7.0015	0.	124.27
3273	-7.9971	7.7508	0.	124.52
3274	-8.2473	7.501	0.	124.37
3275	-7.9978	8.2505	0.	124.73
3276	-8.2477	8.0006	0.	124.55
3277	-7.7474	8.0007	0.	124.65
3278	-6.9979	8.2506	0.	124.9
3279	-6.7477	8.0006	0.	124.82
3280	-7.2474	8.0007	0.	124.73
3281	-5.249	8.0003	0.	125.81
3282	-5.499	8.2503	0.	125.57
3283	-5.7486	8.0004	0.	125.25
3284	-4.7494	8.0002	0.	126.84
3285	-4.9994	8.2502	0.	126.32
3286	-4.2496	8.0001	0.	128.68
3287	-4.4996	8.2501	0.	127.65
3288	7.5	-2.75	0.	120.06
3289	7.25	-3.	0.	119.83
3290	7.75	-3.	0.	119.71
3291	7.5	-3.25	0.	114.88
3292	3.75	-8.	0.	126.5
3293	4.	-8.25	0.	127.52
3294	4.25	-8.	0.	130.05
3295	4.	-7.75	0.	126.91
3296	3.25	-8.	0.	125.47
3297	3.5	-8.25	0.	126.21
3298	2.75	-8.	0.	125.43
3299	3.	-8.25	0.	125.82
3300	2.25	-8.	0.	125.78
3301	2.5	-8.25	0.	125.92
3302	1.75	-8.	0.	126.19
3303	2.	-8.25	0.	126.2
3304	1.2499	-8.	0.	126.54
3305	1.5	-8.25	0.	126.5
3306	0.74992	-8.	0.	126.81
3307	0.99994	-8.25	0.	126.75
3308	0.24989	-8.	0.	127.02
3309	0.49991	-8.25	0.	126.97
3310	-0.25015	-8.	0.	127.24
3311	-1.1232e-004	-8.25	0.	127.18
3312	-0.75019	-8.	0.	127.46
3313	-0.50015	-8.25	0.	127.39
3314	-1.2502	-8.	0.	127.71
3315	-1.0002	-8.25	0.	127.63
3316	-1.7503	-8.	0.	127.97
3317	-1.5003	-8.25	0.	127.87
3318	-2.2504	-7.9999	0.	128.21
3319	-2.0003	-8.25	0.	128.1
3320	-2.7504	-7.9999	0.	128.39
3321	-2.5004	-8.2499	0.	128.27
3322	-3.2505	-7.9999	0.	128.4
3323	-3.0004	-8.2499	0.	128.32
3324	-3.5004	-8.2499	0.	128.12
3325	-3.7505	-7.9999	0.	128.03
3326	-4.7504	-7.9999	0.	125.32
3327	-4.5004	-8.2499	0.	126.21
3328	-4.2505	-7.9999	0.	127.02
3329	-5.2503	-7.9999	0.	123.39
3330	-5.0003	-8.2499	0.	124.54
3331	-5.5003	-7.75	0.	121.82
3332	-5.7502	-8.	0.	122.41
3333	-5.5002	-8.25	0.	123.17
3334	-5.7502	-7.5	0.	120.32
3335	-5.5002	-7.25	0.	120.75
3336	1.5	6.25	0.	121.67
3337	1.75	6.5	0.	121.42
3338	1.5	6.75	0.	121.39
3339	1.5	5.75	0.	121.23
3340	1.75	6.	0.	121.02
3341	1.25	6.	0.	123.58
3342	1.75	5.5	0.	119.61
3343	1.5	5.25	0.	120.59
3344	2.5	0.75	0.	120.21
3345	2.75	0.5	0.	123.52
3346	-1.	2.25	0.	129.74
3347	-1.25	2.5	0.	130.59
3348	-2.75	1.	0.	121.16
3349	-2.5	1.25	0.	115.28
3350	-2.25	1.	0.	121.39
3351	-4.	1.2501	0.	130.32
3352	-3.75	1.	0.	129.08
3353	-3.9999	3.7501	0.	130.43
3354	-3.7499	3.5	0.	131.02
3355	-5.75	-4.	0.	122.72
3356	-5.25	-4.	0.	125.53
3357	-5.5	-4.25	0.	121.77
3358	-5.5	-3.75	0.	124.24
3359	-4.	-4.25	0.	131.47
3360	-4.25	-4.	0.	131.1
3361	-4.0001	-5.75	0.	129.17
3362	-4.0001	-5.25	0.	129.39
3363	-4.2501	-5.5	0.	130.42
3364	-4.2504	-6.9999	0.	129.83
3365	-4.0004	-6.7499	0.	130.61
3366	-7.75	-4.	0.	118.42
3367	-8.25	-4.	0.	118.2
3368	-8.	-3.75	0.	116.45
3369	-8.	-4.25	0.	118.73
3370	1.25	1.	0.	121.18
3371	1.5	1.25	0.	116.44
3372	-4.4032e-008	1.25	0.	131.78
3373	0.25	1.	0.	130.32
3374	4.25	-4.3706e-009	0.	119.48
3375	4.5	0.25	0.	115.08
3376	4.75	-3.2135e-009	0.	120.38
3377	3.	0.25	0.	125.04
3378	3.25	-1.0089e-008	0.	124.48
3379	6.	3.75	0.	130.65
3380	5.75	4.	0.	129.96
3381	6.	1.25	0.	131.64
3382	5.75	1.5	0.	133.15
3383	5.75	-2.2193e-010	0.	128.82
3384	6.	0.25	0.	130.61
3385	7.75	-2.5	0.	121.57
3386	7.5	-2.25	0.	123.44
3387	8.	-2.25	0.	121.47
3388	8.	-2.75	0.	121.24
3389	8.25	-2.5	0.	122.01
3390	7.	-1.75	0.	127.26
3391	7.25	-2.	0.	125.7
3392	7.25	1.	0.	128.72
3393	7.	0.75	0.	130.47
3394	0.24999	-4.	0.	121.41
3395	0.74999	-4.	0.	121.4
3396	0.49999	-3.75	0.	116.52
3397	-1.	-2.25	0.	128.07
3398	-1.	-2.75	0.	127.89
3399	-0.75	-2.5	0.	128.97
3400	-0.75	-1.	0.	129.36
3401	-1.	-1.25	0.	129.91
3402	0.75	-1.	0.	121.75
3403	0.25	-1.	0.	122.47
3404	0.5	-1.25	0.	117.33
3405	9.9671e-009	6.75	0.	134.
3406	4.7921e-008	6.25	0.	134.24
3407	-0.25	6.5	0.	136.16
3408	0.25	6.5	0.	131.8
3409	-0.25	5.	0.	136.69
3410	4.3929e-007	5.25	0.	136.95
3411	0.25	5.	0.	135.88
3412	4.835e-007	4.75	0.	136.85
3413	-2.7499	5.	0.	116.52
3414	-2.25	5.	0.	113.4
3415	-2.5	4.75	0.	109.62
3416	-2.4999	5.25	0.	112.52
3417	-3.9996	5.2501	0.	132.87
3418	-3.7497	5.	0.	131.7
3419	-3.9997	4.7501	0.	132.73
3420	7.75	1.5	0.	123.63
3421	7.5	1.75	0.	126.46
3422	7.5	1.25	0.	126.67
3423	8.	1.75	0.	121.2
3424	8.	1.25	0.	121.33
3425	8.25	1.5	0.	120.01
3426	7.	2.25	0.	129.63
3427	7.25	2.	0.	128.15
3428	7.	3.75	0.	129.14
3429	7.	3.25	0.	128.91
3430	7.25	3.5	0.	129.71
3431	7.25	5.	0.	128.58
3432	7.	4.75	0.	129.92
3433	5.25	8.	0.	125.09
3434	4.75	8.	0.	124.59
3435	5.	8.25	0.	124.35
3436	5.75	8.	0.	125.39
3437	5.5	8.25	0.	124.93
3438	6.25	8.	0.	125.47
3439	6.	8.25	0.	125.24
3440	6.75	8.	0.	125.39
3441	6.5	8.25	0.	125.32
3442	7.25	8.	0.	125.22
3443	7.	8.25	0.	125.25
3444	7.75	8.	0.	125.03
3445	7.5	8.25	0.	125.11
3446	8.	7.75	0.	124.89
3447	8.25	8.	0.	124.86
3448	8.	8.25	0.	124.97
3449	8.	7.25	0.	124.77
3450	8.25	7.5	0.	124.74
3451	8.	6.75	0.	124.56
3452	8.25	7.	0.	124.54
3453	8.	6.25	0.	124.22
3454	8.25	6.5	0.	124.19
3455	8.	5.75	0.	123.74
3456	8.25	6.	0.	123.59
3457	8.	5.25	0.	123.17
3458	8.25	5.5	0.	122.64
3459	-7.25	1.8513e-004	0.	120.42
3460	-7.5	-0.24986	0.	115.83
3461	-7.75	1.8709e-004	0.	116.27
3462	-6.	-0.24986	0.	130.43
3463	-6.25	1.8597e-004	0.	129.37
3464	-6.	-2.75	0.	126.56
3465	-6.25	-2.5	0.	129.36
3466	-6.25	-4.	0.	122.26
3467	-6.	-4.25	0.	121.07
3468	-6.	-3.75	0.	123.59
3469	3.25	-2.	0.	117.71
3470	3.75	-2.	0.	117.11
3471	3.5	-2.25	0.	111.97
3472	5.	-2.25	0.	126.78
3473	4.75	-2.	0.	125.01
3474	5.	-4.75	0.	124.87
3475	4.75	-4.5	0.	127.51
3476	3.25	-6.	0.	121.41
3477	3.75	-6.	0.	122.4
3478	3.5	-5.75	0.	115.94
3479	2.25	-6.	0.	127.92
3480	2.	-5.75	0.	129.06
3481	1.75	-4.	0.	129.26
3482	2.	-3.75	0.	130.51
3483	2.25	-4.	0.	132.67
3484	2.5	-1.75	0.	125.09
3485	2.25	-1.5	0.	126.25
3486	2.75	-1.5	0.	122.87
3487	2.25	7.	0.	119.77
3488	2.	6.75	0.	120.27
3489	2.	7.25	0.	119.34
3490	1.75	7.	0.	120.23
3491	5.	6.75	0.	129.34
3492	4.75	7.	0.	128.67
3493	5.	5.25	0.	128.03
3494	5.	5.75	0.	128.34
3495	4.75	5.5	0.	129.27
3496	5.25	4.5	0.	128.39
3497	5.5	4.25	0.	129.14
3498	7.0922e-009	7.25	0.	134.11
3499	-0.25	7.	0.	137.13
3500	0.25	7.	0.	132.7
3501	4.5	7.75	0.	125.29
3502	4.25	8.	0.	124.5
3503	4.5	8.25	0.	123.73
3504	4.25	7.5	0.	126.05
3505	4.5	7.25	0.	127.41
3506	8.	-7.25	0.	128.54
3507	8.25	-7.5	0.	128.39
3508	7.75	-7.5	0.	130.24
3509	6.	-5.75	0.	118.79
3510	6.	-6.25	0.	115.56
3511	5.75	-6.	0.	118.17
3512	6.25	-6.	0.	117.79
3513	6.	-4.25	0.	122.84
3514	6.	-4.75	0.	121.55
3515	6.25	-4.5	0.	123.52
3516	6.25	-3.	0.	126.31
3517	6.	-3.25	0.	126.5
3518	6.75	-3.	0.	123.58
3519	7.	-3.25	0.	121.12
3520	6.5	-3.25	0.	126.9
3521	6.	-3.75	0.	125.14
3522	6.25	-3.5	0.	127.09
3523	6.25	-4.	0.	125.3
3524	6.	-5.25	0.	121.05
3525	6.25	-5.	0.	122.74
3526	5.75	-5.	0.	121.76
3527	6.25	-5.5	0.	122.16
3528	3.75	7.	0.	122.91
3529	3.5	7.25	0.	124.14
3530	3.5	6.75	0.	116.88
3531	3.25	7.	0.	120.51
3532	4.	7.75	0.	125.25
3533	4.	7.25	0.	125.37
3534	3.75	7.5	0.	126.5
3535	4.	8.25	0.	123.76
3536	3.75	8.	0.	126.12
3537	1.	7.25	0.	126.39
3538	0.75	7.	0.	128.4
3539	1.25	7.	0.	123.38
3540	5.	4.75	0.	128.24
3541	5.	4.25	0.	126.57
3542	4.75	4.5	0.	128.73
3543	4.75	5.	0.	129.58
3544	5.	6.25	0.	129.5
3545	4.75	6.	0.	130.07
3546	5.25	6.	0.	128.58
3547	4.75	6.5	0.	131.07
3548	4.25	7.	0.	126.74
3549	4.5	6.75	0.	130.4
3550	4.	6.75	0.	124.94
3551	2.5	6.75	0.	122.01
3552	2.5	7.25	0.	118.58
3553	2.75	7.	0.	120.09
3554	2.	6.25	0.	120.77
3555	2.25	6.5	0.	122.49
3556	2.	5.75	0.	119.4
3557	2.25	6.	0.	121.97
3558	2.75	-2.	0.	122.65
3559	3.	-2.25	0.	120.04
3560	3.	-1.75	0.	120.42
3561	2.25	-2.	0.	126.99
3562	2.5	-2.25	0.	127.27
3563	2.	-2.25	0.	128.3
3564	2.	-2.75	0.	128.95
3565	2.25	-2.5	0.	128.57
3566	1.75	-2.5	0.	129.57
3567	3.	-5.75	0.	122.62
3568	2.75	-6.	0.	125.02
3569	4.	-5.75	0.	124.34
3570	4.	-6.25	0.	125.59
3571	4.25	-6.	0.	126.84
3572	4.75	-5.	0.	126.46
3573	5.	-5.25	0.	125.31
3574	5.25	-5.	0.	123.5
3575	4.75	-2.5	0.	127.59
3576	5.	-2.75	0.	127.3
3577	4.	-2.25	0.	118.71
3578	4.25	-2.	0.	121.22
3579	-6.5	-3.75	0.	125.34
3580	-6.5	-4.25	0.	120.03
3581	-6.75	-4.	0.	122.23
3582	-6.25	-3.	0.	127.38
3583	-6.	-3.25	0.	125.74
3584	-6.	-0.74992	0.	130.29
3585	-6.25	-0.99995	0.	130.62
3586	-5.75	-0.99994	0.	129.03
3587	-6.25	-0.4999	0.	131.64
3588	-7.	-0.24986	0.	124.27
3589	-6.75	1.9e-004	0.	126.
3590	7.75	5.	0.	125.35
3591	8.25	5.	0.	121.04
3592	8.	4.75	0.	123.41
3593	7.5	4.75	0.	129.81
3594	7.25	4.	0.	130.5
3595	7.	4.25	0.	130.19
3596	7.	2.75	0.	129.66
3597	7.25	3.	0.	130.
3598	6.75	3.	0.	129.46
3599	7.25	2.5	0.	130.32
3600	7.75	2.	0.	124.04
3601	7.5	2.25	0.	128.85
3602	8.25	2.	0.	119.23
3603	8.	2.25	0.	121.88
3604	-3.9995	5.7501	0.	132.05
3605	-3.7496	6.0001	0.	131.96
3606	-4.2492	6.0001	0.	130.55
3607	-3.7496	5.5	0.	132.99
3608	-0.75	5.	0.	133.13
3609	-1.	4.75	0.	130.26
3610	-1.	5.25	0.	130.4
3611	-1.25	5.	0.	126.03
3612	-0.5	5.25	0.	137.74
3613	1.8401e-007	5.75	0.	135.74
3614	-0.25	5.5	0.	138.
3615	-0.25	6.	0.	136.18
3616	0.25	6.	0.	132.69
3617	2.	-1.75	0.	128.15
3618	1.75	-2.	0.	129.6
3619	1.75	-1.5	0.	129.3
3620	2.	-1.25	0.	126.99
3621	1.25	-1.	0.	124.54
3622	1.5	-1.25	0.	128.5
3623	1.75	-1.	0.	126.16
3624	1.	-1.25	0.	123.43
3625	-0.25	-1.	0.	126.63
3626	-5.6647e-008	-1.25	0.	124.45
3627	-0.5	-1.25	0.	130.56
3628	-0.75	-2.	0.	129.99
3629	-1.	-1.75	0.	129.48
3630	-1.	-3.25	0.	128.96
3631	-0.75	-3.	0.	129.51
3632	-1.25	-3.	0.	128.09
3633	-0.75001	-3.5	0.	130.3
3634	-1.	-3.75	0.	129.07
3635	-0.25001	-4.	0.	125.28
3636	-0.50001	-3.75	0.	129.39
3637	-0.75001	-4.	0.	128.15
3638	-9.7504e-006	-3.75	0.	123.39
3639	1.25	-4.	0.	125.48
3640	0.99999	-3.75	0.	123.27
3641	0.99998	-4.25	0.	123.6
3642	1.5	-3.75	0.	129.72
3643	2.	-3.25	0.	130.09
3644	1.75	-3.5	0.	130.96
3645	2.25	-3.5	0.	131.64
3646	1.75	-3.	0.	130.36
3647	2.25	-3.	0.	129.46
3648	7.75	1.	0.	124.38
3649	8.25	1.	0.	119.57
3650	8.	0.75	0.	122.13
3651	7.5	0.75	0.	129.44
3652	7.25	-9.9761e-012	0.	130.51
3653	7.	-0.25	0.	128.73
3654	7.	0.25	0.	130.32
3655	7.	-1.25	0.	128.21
3656	7.25	-1.	0.	129.16
3657	7.	-0.75	0.	127.97
3658	7.25	-1.5	0.	129.1
3659	7.75	-2.	0.	123.33
3660	7.5	-1.75	0.	127.59
3661	8.25	-2.	0.	120.63
3662	8.	-1.75	0.	122.52
3663	5.5	0.25	0.	130.24
3664	5.25	-1.509e-009	0.	125.21
3665	5.75	1.	0.	132.23
3666	6.	0.75	0.	131.72
3667	6.	3.25	0.	130.82
3668	5.75	3.	0.	131.21
3669	6.25	3.	0.	130.12
3670	5.75	3.5	0.	131.62
3671	4.75	4.	0.	123.33
3672	5.	3.75	0.	124.3
3673	5.25	4.	0.	127.32
3674	4.	0.25	0.	121.52
3675	3.75	-7.9563e-009	0.	122.56
3676	0.75	5.	0.	130.95
3677	1.25	5.	0.	123.85
3678	1.	4.75	0.	128.59
3679	0.5	4.75	0.	136.26
3680	2.6869e-007	4.25	0.	135.22
3681	0.25	4.5	0.	137.22
3682	0.25	4.	0.	134.95
3683	1.131e-007	3.75	0.	132.92
3684	0.25	1.5	0.	132.98
3685	-3.776e-008	1.75	0.	132.
3686	0.75	1.	0.	126.74
3687	0.5	1.25	0.	131.55
3688	1.	1.25	0.	124.92
3689	-7.5	-4.25	0.	121.79
3690	-7.5	-3.75	0.	117.18
3691	-7.25	-4.	0.	120.73
3692	-8.	-5.25	0.	119.96
3693	-8.25	-5.	0.	120.84
3694	-7.75	-5.	0.	121.73
3695	-8.	-4.75	0.	120.23
3696	-4.5003	-6.7499	0.	131.52
3697	-4.7503	-6.9999	0.	127.31
3698	-4.0002	-6.2499	0.	130.45
3699	-4.2503	-6.4999	0.	132.28
3700	-3.7503	-6.4999	0.	130.2
3701	-3.7502	-5.9999	0.	129.24
3702	-4.2501	-6.	0.	131.26
3703	-4.	-4.75	0.	131.08
3704	-4.25	-5.	0.	131.81
3705	-4.25	-4.5	0.	133.32
3706	-4.75	-4.	0.	129.33
3707	-4.5	-4.25	0.	132.97
3708	-4.5	-3.75	0.	129.93
3709	-5.	-4.25	0.	128.32
3710	-3.2498	5.	0.	125.45
3711	-2.9999	4.75	0.	120.18
3712	-2.9999	5.25	0.	122.03
3713	-3.4998	4.75	0.	131.18
3714	-3.4998	5.25	0.	131.83
3715	-3.7499	4.	0.	131.01
3716	-3.9998	4.2501	0.	131.76
3717	-3.75	1.5	0.	131.17
3718	-4.	1.7501	0.	130.43
3719	-3.25	1.	0.	125.53
3720	-3.5	1.25	0.	129.94
3721	-3.5	0.75002	0.	127.61
3722	-3.	1.25	0.	122.82
3723	-1.	1.75	0.	130.94
3724	-1.25	1.5	0.	131.72
3725	-1.	1.25	0.	131.25
3726	-1.25	2.	0.	130.39
3727	-0.75	2.	0.	130.4
3728	-1.25	4.5	0.	128.71
3729	-1.	4.25	0.	129.94
3730	-2.	4.75	0.	115.66
3731	-2.	5.25	0.	114.25
3732	-1.75	5.	0.	118.05
3733	8.	-6.75	0.	128.48
3734	8.25	-7.	0.	128.68
3735	7.75	-7.	0.	128.86
3736	8.	-6.25	0.	127.24
3737	8.25	-6.5	0.	128.85
3738	7.75	-6.5	0.	128.49
3739	7.25	-6.	0.	121.25
3740	7.75	-6.	0.	124.09
3741	7.5	-6.25	0.	125.45
3742	7.5	-5.75	0.	117.7
3743	7.	-6.25	0.	121.71
3744	7.	-5.75	0.	120.84
3745	6.75	-6.	0.	119.56
3746	4.25	-7.	0.	128.06
3747	4.	-6.75	0.	126.64
3748	4.	-7.25	0.	126.6
3749	2.75	1.	0.	122.34
3750	2.5	1.25	0.	116.89
3751	2.25	5.5	0.	120.59
3752	2.	5.25	0.	118.07
3753	-8.25	-5.5	0.	120.95
3754	-8.	-5.75	0.	120.51
3755	-7.75	-5.5	0.	121.18
3756	-6.0002	-7.75	0.	120.92
3757	-6.0002	-7.25	0.	119.23
3758	-6.2501	-7.5	0.	121.59
3759	8.25	-3.	0.	123.32
3760	8.	-3.25	0.	121.81
3761	-6.0001	-8.25	0.	123.22
3762	-6.2501	-8.	0.	123.54
3763	-3.9998	8.2501	0.	129.96
3764	-3.7498	8.	0.	131.06
3765	2.1554e-008	7.75	0.	133.09
3766	0.25	7.5	0.	134.18
3767	-0.25	7.5	0.	135.52
3768	8.9112e-008	8.25	0.	130.87
3769	-0.25	8.	0.	132.77
3770	0.25	8.	0.	133.08
3771	-7.7482	8.5004	0.	124.89
3772	-8.2484	8.5003	0.	124.79
3773	-7.9986	8.7503	0.	124.99
3774	-7.2483	8.5004	0.	124.98
3775	-7.4986	8.7503	0.	125.1
3776	-7.4978	8.2505	0.	124.81
3777	-6.7485	8.5004	0.	125.08
3778	-6.9987	8.7504	0.	125.21
3779	-6.2488	8.5004	0.	125.23
3780	-6.4989	8.7503	0.	125.34
3781	-6.4983	8.2505	0.	125.
3782	-5.7491	8.5003	0.	125.52
3783	-5.9991	8.7503	0.	125.53
3784	-5.9986	8.2504	0.	125.19
3785	-5.2494	8.5002	0.	126.08
3786	-5.4994	8.7502	0.	125.88
3787	-4.7496	8.5001	0.	127.14
3788	-4.9996	8.7501	0.	126.52
3789	-4.2497	8.5001	0.	128.94
3790	-4.4997	8.7501	0.	127.65
3791	-3.7499	8.5	0.	131.62
3792	-3.9998	8.75	0.	129.4
3793	-0.25	8.5	0.	130.7
3794	0.25	8.5	0.	130.81
3795	3.6671e-007	8.75	0.	128.89
3796	-8.5	-5.25	0.	121.81
3797	-8.5	-5.75	0.	123.75
3798	-8.75	-5.5	0.	123.68
3799	-8.5	-4.75	0.	120.98
3800	-8.75	-5.	0.	122.84
3801	-8.5	-4.25	0.	119.88
3802	-8.75	-4.5	0.	122.55
3803	-8.25	-4.5	0.	120.36
3804	-8.5	-3.75	0.	117.45
3805	-8.75	-4.	0.	121.99
3806	8.5	7.75	0.	124.72
3807	8.5	8.25	0.	124.85
3808	8.75	8.	0.	124.76
3809	8.5	7.25	0.	124.52
3810	8.75	7.5	0.	124.61
3811	8.5	6.75	0.	124.17
3812	8.75	7.	0.	124.39
3813	8.75	6.5	0.	124.01
3814	8.5	6.25	0.	123.56
3815	8.5	5.25	0.	120.53
3816	8.75	5.5	0.	122.24
3817	8.5	5.75	0.	122.49
3818	8.75	5.	0.	120.46
3819	8.5	4.75	0.	116.09
3820	8.5	1.75	0.	118.04
3821	8.5	2.25	0.	114.61
3822	8.75	2.	0.	119.01
3823	8.5	1.25	0.	118.25
3824	8.75	1.5	0.	119.92
3825	8.75	1.	0.	119.56
3826	8.5	0.75	0.	115.18
3827	3.	0.75	0.	125.64
3828	3.25	0.5	0.	127.61
3829	4.25	4.	0.	122.1
3830	4.5	4.25	0.	125.6
3831	4.5	3.75	0.	116.63
3832	1.5	4.75	0.	119.04
3833	1.75	5.	0.	119.04
3834	-8.25	-6.	0.	123.34
3835	-8.75	-6.	0.	125.98
3836	-8.5	-6.25	0.	127.87
3837	-5.7502	-7.	0.	119.65
3838	-5.5002	-6.75	0.	119.49
3839	-5.2503	-6.9999	0.	122.76
3840	8.25	-8.5	0.	129.48
3841	8.	-8.75	0.	130.38
3842	7.75	-8.5	0.	130.89
3843	4.25	8.5	0.	123.01
3844	4.	8.75	0.	123.53
3845	3.75	8.5	0.	125.23
3846	4.75	8.5	0.	123.5
3847	4.5	8.75	0.	123.32
3848	5.25	8.5	0.	124.2
3849	5.	8.75	0.	123.93
3850	5.75	8.5	0.	124.78
3851	5.5	8.75	0.	124.58
3852	6.25	8.5	0.	125.09
3853	6.	8.75	0.	124.99
3854	6.75	8.5	0.	125.18
3855	6.5	8.75	0.	125.17
3856	7.25	8.5	0.	125.15
3857	7.	8.75	0.	125.19
3858	7.5	8.75	0.	125.13
3859	7.75	8.5	0.	125.06
3860	8.5	8.75	0.	124.96
3861	8.75	8.5	0.	124.87
3862	8.25	8.5	0.	124.96
3863	-8.5	0.25023	0.	118.41
3864	-8.75	1.5838e-004	0.	120.57
3865	-8.5	-0.24987	0.	116.02
3866	-8.25	1.8229e-004	0.	116.28
3867	-8.5	0.75036	0.	120.08
3868	-8.75	0.50025	0.	121.27
3869	-8.4999	1.2505	0.	121.42
3870	-8.7499	1.0004	0.	122.08
3871	-8.4999	1.7507	0.	122.38
3872	-8.7499	1.5005	0.	122.74
3873	-8.4999	2.2509	0.	123.02
3874	-8.7499	2.0007	0.	123.18
3875	-8.4998	2.7512	0.	123.44
3876	-8.7499	2.5009	0.	123.45
3877	-8.4997	3.2515	0.	123.7
3878	-8.7498	3.0012	0.	123.61
3879	-8.4996	3.7518	0.	123.86
3880	-8.7497	3.5014	0.	123.71
3881	-8.4994	4.2522	0.	123.96
3882	-8.7496	4.0018	0.	123.77
3883	-8.4991	4.7526	0.	124.02
3884	-8.7494	4.5021	0.	123.81
3885	-8.4987	5.2527	0.	124.05
3886	-8.7491	5.0024	0.	123.84
3887	-8.2488	5.0027	0.	124.24
3888	-8.4983	5.7526	0.	124.06
3889	-8.7488	5.5024	0.	123.86
3890	-8.4979	6.2523	0.	124.09
3891	-8.7484	6.0022	0.	123.9
3892	-8.4977	6.7517	0.	124.14
3893	-8.7481	6.5019	0.	123.96
3894	-8.748	7.0013	0.	124.07
3895	-8.4977	7.2512	0.	124.24
3896	-8.4982	8.2504	0.	124.62
3897	-8.7483	8.0005	0.	124.43
3898	-8.4978	7.7508	0.	124.4
3899	-8.7488	8.5002	0.	124.68
3900	-8.4988	8.7502	0.	124.87
3901	3.75	-8.5	0.	127.24
3902	4.	-8.75	0.	128.53
3903	4.25	-8.5	0.	129.32
3904	3.25	-8.5	0.	126.56
3905	3.5	-8.75	0.	127.59
3906	2.75	-8.5	0.	126.31
3907	3.	-8.75	0.	127.
3908	2.25	-8.5	0.	126.35
3909	2.5	-8.75	0.	126.75
3910	1.75	-8.5	0.	126.51
3911	2.	-8.75	0.	126.7
3912	1.25	-8.5	0.	126.71
3913	1.5	-8.75	0.	126.77
3914	0.74993	-8.5	0.	126.92
3915	0.99995	-8.75	0.	126.91
3916	-0.25012	-8.5	0.	127.34
3917	-9.0884e-005	-8.75	0.	127.27
3918	0.24991	-8.5	0.	127.12
3919	-0.75016	-8.5	0.	127.56
3920	-0.50012	-8.75	0.	127.48
3921	-1.2502	-8.5	0.	127.79
3922	-1.0002	-8.75	0.	127.7
3923	-1.7503	-8.5	0.	128.
3924	-1.5002	-8.75	0.	127.91
3925	-2.2503	-8.4999	0.	128.15
3926	-2.0002	-8.75	0.	128.08
3927	-2.7503	-8.4999	0.	128.2
3928	-2.5003	-8.7499	0.	128.16
3929	-3.2504	-8.4999	0.	128.04
3930	-3.0003	-8.7499	0.	128.08
3931	-3.7504	-8.4999	0.	127.55
3932	-3.5003	-8.7499	0.	127.76
3933	-4.2503	-8.4999	0.	126.65
3934	-4.0003	-8.7499	0.	127.1
3935	-4.0004	-8.2499	0.	127.46
3936	-4.5002	-8.7499	0.	126.11
3937	-4.7503	-8.4999	0.	125.44
3938	-5.7502	-8.5	0.	123.98
3939	-5.5002	-8.75	0.	124.14
3940	-5.2502	-8.5	0.	124.32
3941	-6.0001	-8.75	0.	124.03
3942	-6.2501	-8.5	0.	124.92
3943	8.25	-6.	0.	128.32
3944	8.	-5.75	0.	125.44
3945	8.5	-2.25	0.	121.19
3946	8.75	-2.	0.	121.75
3947	8.5	-1.75	0.	116.58
3948	8.5	-2.75	0.	124.1
3949	8.75	-2.5	0.	124.12
3950	8.75	-3.	0.	126.64
3951	8.5	-3.25	0.	127.86
3952	8.5	-6.25	0.	129.93
3953	8.75	-6.	0.	130.86
3954	8.5	-5.75	0.	131.92
3955	8.5	-6.75	0.	129.05
3956	8.75	-6.5	0.	129.78
3957	8.5	-7.25	0.	128.53
3958	8.75	-7.	0.	128.99
3959	8.75	-7.5	0.	128.57
3960	8.5	-7.75	0.	128.46
3961	8.75	-8.5	0.	129.41
3962	8.5	-8.75	0.	130.05
3963	8.5	-8.25	0.	128.97
3964	9.	-2.75	0.	126.68
3965	9.	-2.25	0.	124.71
3966	9.25	-2.5	0.	127.39
3967	9.	-3.25	0.	128.5
3968	9.25	-3.	0.	128.54
3969	9.	-3.75	0.	129.15
3970	8.75	-3.5	0.	129.69
3971	9.25	-3.5	0.	129.25
3972	9.	-4.25	0.	128.73
3973	8.75	-4.	0.	129.53
3974	9.25	-4.	0.	128.96
3975	9.	-4.75	0.	129.42
3976	8.75	-4.5	0.	129.6
3977	9.25	-4.5	0.	128.67
3978	9.	-5.25	0.	131.1
3979	8.75	-5.	0.	131.3
3980	9.25	-5.	0.	130.07
3981	9.	-5.75	0.	131.51
3982	8.75	-5.5	0.	132.57
3983	9.25	-5.5	0.	131.17
3984	9.	-6.25	0.	130.71
3985	9.25	-6.	0.	131.
3986	9.	-6.75	0.	129.71
3987	9.25	-6.5	0.	130.2
3988	9.	-7.25	0.	129.02
3989	9.25	-7.	0.	129.44
3990	9.	-7.75	0.	128.8
3991	9.25	-7.5	0.	128.95
3992	9.	-8.25	0.	129.13
3993	9.25	-8.	0.	128.95
3994	8.75	-8.	0.	128.7
3995	9.	-8.75	0.	129.92
3996	9.25	-8.5	0.	129.45
3997	3.25	-9.	0.	128.03
3998	3.75	-9.	0.	128.88
3999	3.5	-9.25	0.	129.18
4000	2.75	-9.	0.	127.44
4001	3.	-9.25	0.	128.27
4002	2.25	-9.	0.	127.09
4003	2.5	-9.25	0.	127.6
4004	1.75	-9.	0.	126.96
4005	2.	-9.25	0.	127.23
4006	1.5	-9.25	0.	127.08
4007	1.25	-9.	0.	126.97
4008	0.24993	-9.	0.	127.23
4009	0.49996	-9.25	0.	127.19
4010	0.49994	-8.75	0.	127.08
4011	0.74995	-9.	0.	127.07
4012	-0.25009	-9.	0.	127.42
4013	-6.3842e-005	-9.25	0.	127.35
4014	-0.75012	-9.	0.	127.63
4015	-0.50008	-9.25	0.	127.55
4016	-1.2502	-9.	0.	127.83
4017	-1.0001	-9.25	0.	127.75
4018	-1.7502	-9.	0.	127.99
4019	-1.5001	-9.25	0.	127.93
4020	-2.2502	-9.	0.	128.09
4021	-2.0002	-9.25	0.	128.05
4022	-2.7502	-8.9999	0.	128.05
4023	-2.5002	-9.25	0.	128.07
4024	-3.0002	-9.2499	0.	127.93
4025	-3.2502	-8.9999	0.	127.81
4026	-4.7502	-9.	0.	125.65
4027	-4.5001	-9.25	0.	126.15
4028	-4.2502	-9.	0.	126.56
4029	-5.2501	-9.	0.	124.8
4030	-5.0001	-9.25	0.	125.25
4031	-5.0002	-8.75	0.	124.98
4032	-5.7501	-9.	0.	124.19
4033	-5.5001	-9.25	0.	124.41
4034	-6.2501	-9.	0.	123.21
4035	-6.0001	-9.25	0.	123.58
4036	-6.75	-9.	0.	120.39
4037	-6.5001	-8.75	0.	124.11
4038	-6.5	-9.25	0.	121.85
4039	-7.25	-9.	0.	117.21
4040	-7.	-8.75	0.	118.66
4041	-7.	-9.25	0.	118.59
4042	-7.75	-9.	0.	118.13
4043	-7.5	-8.75	0.	113.22
4044	-7.5	-9.25	0.	117.13
4045	-8.25	-9.	0.	122.83
4046	-8.	-8.75	0.	120.88
4047	-8.	-9.25	0.	120.22
4048	-8.5	-8.75	0.	127.61
4049	-8.75	-9.	0.	126.52
4050	-8.5	-9.25	0.	124.63
4051	-9.	0.75027	0.	123.27
4052	-9.	0.25018	0.	123.43
4053	-9.25	0.50017	0.	125.46
4054	-8.9999	1.2504	0.	123.4
4055	-9.25	1.0002	0.	124.78
4056	-8.9999	1.7505	0.	123.53
4057	-9.2499	1.5003	0.	124.33
4058	-9.2499	2.0005	0.	124.01
4059	-8.9999	2.2507	0.	123.6
4060	-9.2499	3.0008	0.	123.59
4061	-8.9998	3.2511	0.	123.62
4062	-8.9998	2.7509	0.	123.62
4063	-8.9996	4.2517	0.	123.61
4064	-9.2497	4.0012	0.	123.41
4065	-8.9997	3.7514	0.	123.61
4066	-8.9994	4.752	0.	123.62
4067	-9.2496	4.5014	0.	123.38
4068	-8.9992	5.2521	0.	123.65
4069	-9.2495	5.0016	0.	123.39
4070	-9.2493	5.5016	0.	123.44
4071	-8.9989	5.752	0.	123.7
4072	-8.9985	6.7514	0.	123.9
4073	-9.2489	6.5012	0.	123.65
4074	-8.9986	6.2518	0.	123.78
4075	-8.9984	7.2509	0.	124.06
4076	-9.2488	7.0009	0.	123.83
4077	-8.9985	7.7506	0.	124.26
4078	-9.2489	7.5005	0.	124.05
4079	-8.7481	7.5008	0.	124.23
4080	-8.9988	8.2503	0.	124.49
4081	-9.249	8.0003	0.	124.3
4082	-8.9992	8.7501	0.	124.74
4083	-9.2492	8.5001	0.	124.57
4084	4.75	9.	0.	123.75
4085	4.25	9.	0.	123.85
4086	4.5	9.25	0.	124.3
4087	5.25	9.	0.	124.32
4088	5.	9.25	0.	124.59
4089	5.75	9.	0.	124.8
4090	5.5	9.25	0.	124.94
4091	6.25	9.	0.	125.07
4092	6.	9.25	0.	125.17
4093	6.75	9.	0.	125.18
4094	6.5	9.25	0.	125.26
4095	7.25	9.	0.	125.18
4096	7.	9.25	0.	125.26
4097	7.75	9.	0.	125.12
4098	7.5	9.25	0.	125.21
4099	8.25	9.	0.	125.05
4100	8.	9.25	0.	125.14
4101	8.	8.75	0.	125.05
4102	8.75	9.	0.	124.98
4103	8.5	9.25	0.	125.06
4104	4.25	-9.	0.	129.59
4105	4.	-9.25	0.	130.21
4106	4.5	-6.75	0.	130.24
4107	4.75	-6.5	0.	128.56
4108	4.25	-6.5	0.	128.88
4109	4.5	-6.25	0.	130.12
4110	7.25	-6.5	0.	125.75
4111	7.5	-6.75	0.	128.86
4112	8.25	-9.	0.	130.95
4113	8.75	-9.	0.	130.56
4114	8.5	-9.25	0.	131.41
4115	7.75	-9.	0.	131.12
4116	8.	-9.25	0.	131.98
4117	-1.75	4.5	0.	121.99
4118	-1.5	4.75	0.	124.52
4119	-1.5	4.25	0.	127.3
4120	-1.5	1.75	0.	131.13
4121	-1.75	1.5	0.	127.57
4122	-1.5	1.25	0.	130.49
4123	-3.25	1.5	0.	127.22
4124	-3.5	1.75	0.	131.19
4125	-3.4999	4.25	0.	131.42
4126	-3.2499	4.5	0.	125.93
4127	-3.7498	4.5	0.	132.21
4128	-4.5	-4.75	0.	134.
4129	-4.75	-4.5	0.	131.91
4130	-4.7502	-6.4999	0.	130.48
4131	-4.5002	-6.2499	0.	133.04
4132	-6.0001	-6.75	0.	119.35
4133	-6.2501	-7.	0.	120.5
4134	-7.75	-6.	0.	121.36
4135	-8.	-6.25	0.	122.89
4136	-7.5	-4.75	0.	123.47
4137	-7.25	-4.5	0.	123.24
4138	-7.75	-4.5	0.	122.02
4139	0.5	1.75	0.	133.29
4140	0.75	1.5	0.	129.66
4141	0.5	4.25	0.	136.9
4142	0.75	4.5	0.	133.86
4143	3.75	4.	0.	124.39
4144	4.	3.75	0.	122.77
4145	4.	4.25	0.	123.84
4146	3.	1.25	0.	126.24
4147	3.25	1.	0.	128.75
4148	3.5	0.75	0.	130.69
4149	3.75	0.5	0.	125.98
4150	3.5	0.25	0.	127.07
4151	5.25	3.5	0.	127.9
4152	5.5	3.25	0.	131.98
4153	5.5	3.75	0.	130.93
4154	5.5	0.75	0.	132.49
4155	5.25	0.5	0.	128.05
4156	5.75	0.5	0.	132.
4157	7.5	-1.25	0.	130.03
4158	7.75	-1.5	0.	126.72
4159	7.5	0.25	0.	131.34
4160	7.75	0.5	0.	127.16
4161	7.25	0.5	0.	131.17
4162	9.	1.25	0.	121.23
4163	9.25	1.5	0.	123.64
4164	9.	1.75	0.	120.89
4165	9.	0.75	0.	122.35
4166	9.25	1.	0.	124.35
4167	9.	-1.75	0.	124.01
4168	9.25	-2.	0.	126.76
4169	1.25	-3.5	0.	127.5
4170	1.5	-3.25	0.	131.19
4171	-0.25001	-3.5	0.	127.48
4172	-0.5	-3.25	0.	130.81
4173	-0.5	-1.75	0.	131.58
4174	-0.25	-1.5	0.	128.35
4175	-0.75	-1.5	0.	131.11
4176	1.25	-1.5	0.	127.35
4177	1.5	-1.75	0.	130.72
4178	-0.5	8.75	0.	129.81
4179	-0.5	8.25	0.	132.57
4180	-0.75	8.5	0.	128.98
4181	-0.5	5.75	0.	138.39
4182	-0.75	5.5	0.	134.99
4183	-3.2498	5.5	0.	128.36
4184	-3.4997	5.75	0.	132.85
4185	-3.4999	8.75	0.	131.01
4186	-3.4999	8.25	0.	132.68
4187	-3.2499	8.5	0.	130.17
4188	7.75	2.5	0.	126.65
4189	7.5	2.75	0.	130.63
4190	7.5	4.25	0.	131.41
4191	7.75	4.5	0.	127.83
4192	7.25	4.5	0.	131.13
4193	9.	8.25	0.	124.78
4194	9.	8.75	0.	124.89
4195	9.25	8.5	0.	124.8
4196	9.	7.75	0.	124.65
4197	9.25	8.	0.	124.68
4198	9.	7.25	0.	124.48
4199	9.25	7.5	0.	124.57
4200	9.	6.75	0.	124.23
4201	9.25	7.	0.	124.44
4202	9.	6.25	0.	123.8
4203	9.25	6.5	0.	124.29
4204	9.	5.75	0.	123.11
4205	9.25	6.	0.	124.09
4206	8.75	6.	0.	123.34
4207	9.	5.25	0.	122.19
4208	9.25	5.5	0.	123.82
4209	9.	4.75	0.	122.17
4210	9.25	5.	0.	123.86
4211	-9.	-0.24989	0.	124.76
4212	-9.25	1.1345e-004	0.	126.77
4213	-8.75	-8.5	0.	129.07
4214	-9.	-8.75	0.	127.99
4215	-9.25	-8.5	0.	128.1
4216	-9.	-8.25	0.	128.2
4217	-9.	-6.75	0.	128.23
4218	-8.75	-7.	0.	129.3
4219	-9.25	-7.	0.	127.37
4220	-9.	-7.25	0.	127.43
4221	-9.	-6.25	0.	127.59
4222	-8.75	-6.5	0.	129.46
4223	-9.25	-6.5	0.	127.69
4224	-9.	-5.75	0.	125.92
4225	-9.25	-6.	0.	126.89
4226	-9.	-5.25	0.	124.71
4227	-9.25	-5.5	0.	126.04
4228	-9.	-4.75	0.	124.41
4229	-9.25	-5.	0.	126.03
4230	-9.25	-4.5	0.	126.71
4231	-9.	-4.25	0.	124.67
4232	-6.75	-0.4999	0.	128.8
4233	-6.5	-0.74992	0.	131.93
4234	-6.5	-0.24985	0.	130.6
4235	-6.5	-3.25	0.	128.19
4236	-6.75	-3.5	0.	125.92
4237	-6.25	-3.5	0.	126.56
4238	4.5	-2.75	0.	127.77
4239	4.25	-2.5	0.	123.31
4240	4.5	-2.25	0.	125.84
4241	4.5	-5.25	0.	129.01
4242	4.25	-5.5	0.	127.13
4243	4.75	-5.5	0.	127.92
4244	4.5	-5.75	0.	129.63
4245	2.75	-5.5	0.	126.88
4246	2.5	-5.25	0.	131.07
4247	2.5	-5.75	0.	129.28
4248	2.25	-5.5	0.	130.41
4249	2.5	-2.75	0.	129.05
4250	2.75	-2.5	0.	124.62
4251	2.5	6.25	0.	123.63
4252	2.75	6.5	0.	121.87
4253	4.25	6.5	0.	128.59
4254	4.5	6.25	0.	131.61
4255	4.5	4.75	0.	130.05
4256	4.25	4.5	0.	127.24
4257	0.5	7.75	0.	134.12
4258	0.75	7.5	0.	130.72
4259	0.5	7.25	0.	132.77
4260	-8.7493	9.0001	0.	124.93
4261	-8.4994	9.2501	0.	125.1
4262	-8.2491	9.0002	0.	125.06
4263	-6.7491	9.0003	0.	125.47
4264	-6.9993	9.2502	0.	125.61
4265	-7.249	9.0003	0.	125.33
4266	-6.2493	9.0002	0.	125.65
4267	-6.4994	9.2502	0.	125.81
4268	-5.7495	9.0002	0.	125.9
4269	-5.9995	9.2502	0.	126.03
4270	-5.2496	9.0001	0.	126.32
4271	-5.4997	9.2501	0.	126.31
4272	-4.7497	9.0001	0.	127.03
4273	-4.9998	9.2501	0.	126.69
4274	-4.2498	9.0001	0.	128.09
4275	-4.4999	9.2501	0.	127.22
4276	-3.7499	9.	0.	128.75
4277	-3.9999	9.25	0.	127.81
4278	-3.2499	9.	0.	126.96
4279	-3.4999	9.25	0.	127.4
4280	-2.75	9.	0.	122.74
4281	-3.	8.75	0.	126.19
4282	-3.	9.25	0.	124.61
4283	-2.25	9.	0.	119.23
4284	-2.5	8.75	0.	118.36
4285	-2.5	9.25	0.	121.15
4286	-1.75	9.	0.	119.03
4287	-2.	8.75	0.	117.23
4288	-2.	9.25	0.	119.61
4289	-1.25	9.	0.	122.11
4290	-1.5	8.75	0.	117.97
4291	-1.5	9.25	0.	120.97
4292	-0.75	9.	0.	125.91
4293	-1.	8.75	0.	125.15
4294	-1.	9.25	0.	124.22
4295	-0.5	9.25	0.	126.88
4296	-0.25	9.	0.	127.97
4297	3.75	9.	0.	125.97
4298	4.	9.25	0.	124.97
4299	3.5	7.75	0.	127.34
4300	3.25	7.5	0.	124.96
4301	6.5	-5.25	0.	123.84
4302	6.75	-5.5	0.	122.47
4303	6.5	-5.75	0.	121.29
4304	6.5	-3.75	0.	127.2
4305	6.75	-3.5	0.	124.43
4306	8.25	-3.5	0.	126.29
4307	8.5	-3.75	0.	130.04
4308	8.5	-5.25	0.	132.73
4309	8.25	-5.5	0.	129.04
4310	-6.5001	-8.25	0.	125.21
4311	-6.7501	-8.5	0.	122.35
4312	-8.25	-8.5	0.	125.62
4313	-8.5	-8.25	0.	129.59
4314	-8.5	-6.75	0.	130.5
4315	-8.25	-6.5	0.	127.39
4316	9.	-9.25	0.	130.86
4317	9.25	-9.	0.	130.28
4318	-9.	-9.25	0.	126.93
4319	-9.25	-9.	0.	127.75
4320	-9.2495	9.	0.	124.82
4321	-8.9995	9.25	0.	124.96
4322	9.25	9.	0.	124.91
4323	9.	9.25	0.	124.99
4324	4.5	-8.75	0.	130.35
4325	4.5	-9.25	0.	130.31
4326	4.5	-8.25	0.	131.85
4327	4.5	-7.75	0.	132.17
4328	4.5	-7.25	0.	130.47
4329	4.25	-7.5	0.	129.03
4330	5.25	-6.5	0.	120.21
4331	5.	-6.25	0.	125.65
4332	5.75	-6.5	0.	114.25
4333	5.5	-6.25	0.	117.
4334	6.25	-6.5	0.	113.66
4335	6.75	-6.5	0.	118.14
4336	6.5	-6.25	0.	116.05
4337	7.5	-7.25	0.	130.55
4338	7.5	-7.75	0.	132.91
4339	7.5	-8.25	0.	132.98
4340	7.5	-8.75	0.	131.6
4341	7.5	-9.25	0.	131.59
4342	-1.5	3.25	0.	131.72
4343	-1.5	3.75	0.	129.08
4344	-1.5	2.75	0.	132.46
4345	-1.5	2.25	0.	131.22
4346	-2.25	1.5	0.	116.98
4347	-2.	1.25	0.	123.25
4348	-2.75	1.5	0.	116.77
4349	-3.5	2.25	0.	131.76
4350	-3.75	2.	0.	130.47
4351	-3.5	2.75	0.	133.45
4352	-3.5	3.25	0.	133.18
4353	-3.4999	3.75	0.	131.57
4354	-2.7499	4.5	0.	113.2
4355	-2.25	4.5	0.	111.86
4356	-4.5	-5.25	0.	132.81
4357	-4.5001	-5.75	0.	132.48
4358	-5.2501	-6.5	0.	123.05
4359	-5.0002	-6.7499	0.	126.33
4360	-5.7501	-6.5	0.	119.18
4361	-6.2501	-6.5	0.	120.2
4362	-6.5001	-6.75	0.	121.32
4363	-6.75	-6.5	0.	121.7
4364	-7.5	-5.75	0.	121.98
4365	-7.5	-6.25	0.	118.74
4366	-7.5	-5.25	0.	122.91
4367	-6.75	-4.5	0.	119.99
4368	-7.	-4.25	0.	122.26
4369	-5.25	-4.5	0.	124.52
4370	-5.75	-4.5	0.	120.05
4371	-6.25	-4.5	0.	118.74
4372	0.5	2.25	0.	134.17
4373	0.25	2.	0.	132.35
4374	0.5	2.75	0.	136.45
4375	0.5	3.25	0.	137.27
4376	0.5	3.75	0.	136.39
4377	0.25	3.5	0.	134.39
4378	1.25	4.5	0.	123.77
4379	1.75	4.5	0.	117.96
4380	2.25	4.5	0.	119.2
4381	2.	4.75	0.	118.
4382	2.5	4.75	0.	120.83
4383	2.75	4.5	0.	122.7
4384	3.5	3.75	0.	130.38
4385	3.5	4.25	0.	122.42
4386	3.5	3.25	0.	135.96
4387	3.75	3.5	0.	128.59
4388	1.75	1.5	0.	114.43
4389	1.25	1.5	0.	120.16
4390	2.25	1.5	0.	114.54
4391	2.75	1.5	0.	120.76
4392	3.25	1.5	0.	132.05
4393	3.5	1.25	0.	134.67
4394	3.5	1.75	0.	138.25
4395	3.5	2.25	0.	139.22
4396	3.5	2.75	0.	138.45
4397	4.25	3.5	0.	117.16
4398	4.75	3.5	0.	117.36
4399	5.5	2.75	0.	132.88
4400	5.5	2.25	0.	135.2
4401	5.5	1.75	0.	135.6
4402	5.5	1.25	0.	133.72
4403	4.75	0.5	0.	117.68
4404	5.	0.25	0.	123.08
4405	4.25	0.5	0.	117.03
4406	7.5	-0.75	0.	130.39
4407	7.5	-0.25	0.	130.99
4408	7.25	-0.5	0.	129.23
4409	8.25	0.5	0.	117.67
4410	8.75	0.5	0.	117.91
4411	9.25	0.5	0.	127.23
4412	8.75	-1.5	0.	118.72
4413	9.25	-1.5	0.	128.49
4414	8.25	-1.5	0.	118.4
4415	0.74999	-3.5	0.	118.28
4416	0.24999	-3.5	0.	118.41
4417	-0.5	-2.75	0.	130.57
4418	-0.5	-2.25	0.	130.87
4419	0.25	-1.5	0.	119.2
4420	0.75	-1.5	0.	118.92
4421	1.5	-2.25	0.	130.83
4422	1.5	-2.75	0.	130.97
4423	-0.5	7.75	0.	135.21
4424	-0.5	7.25	0.	138.55
4425	-0.5	6.75	0.	139.3
4426	-0.5	6.25	0.	138.07
4427	-1.25	5.5	0.	123.88
4428	-1.75	5.5	0.	115.73
4429	-1.5	5.25	0.	119.57
4430	-2.25	5.5	0.	113.38
4431	-2.7499	5.5	0.	118.04
4432	-3.4997	6.25	0.	133.4
4433	-3.4998	6.75	0.	135.22
4434	-3.4998	7.25	0.	135.46
4435	-3.7497	7.0001	0.	133.04
4436	-3.4999	7.75	0.	133.51
4437	-2.75	8.5	0.	121.77
4438	-1.25	8.5	0.	120.97
4439	-1.75	8.5	0.	116.07
4440	-2.25	8.5	0.	116.25
4441	8.75	2.5	0.	116.84
4442	9.25	2.5	0.	125.83
4443	9.	2.25	0.	121.32
4444	8.25	2.5	0.	117.19
4445	7.5	3.25	0.	130.79
4446	7.5	3.75	0.	131.05
4447	8.25	4.5	0.	118.37
4448	8.75	4.5	0.	117.7
4449	9.25	4.5	0.	126.05
4450	-8.75	-0.49992	0.	120.19
4451	-9.25	-0.49994	0.	130.08
4452	-8.25	-0.49991	0.	114.31
4453	-7.75	-0.49991	0.	114.12
4454	-8.	-0.24986	0.	114.63
4455	-7.25	-0.49991	0.	119.64
4456	-6.5	-1.25	0.	132.31
4457	-6.5	-1.75	0.	133.71
4458	-6.5	-2.25	0.	133.1
4459	-6.5	-2.75	0.	130.19
4460	-7.25	-3.5	0.	119.35
4461	-7.	-3.75	0.	122.94
4462	-7.75	-3.5	0.	115.1
4463	-8.25	-3.5	0.	115.63
4464	-8.75	-3.5	0.	121.31
4465	-9.25	-3.5	0.	131.15
4466	-9.	-3.75	0.	125.89
4467	4.5	-3.25	0.	128.75
4468	4.75	-3.	0.	127.49
4469	4.5	-3.75	0.	130.59
4470	4.5	-4.25	0.	130.89
4471	4.5	-4.75	0.	129.1
4472	3.75	-5.5	0.	117.71
4473	3.25	-5.5	0.	116.95
4474	2.5	-4.75	0.	131.95
4475	2.25	-5.	0.	130.28
4476	2.5	-4.25	0.	133.84
4477	2.5	-3.75	0.	133.8
4478	2.5	-3.25	0.	131.01
4479	3.25	-2.5	0.	114.19
4480	3.75	-2.5	0.	113.43
4481	2.5	5.25	0.	122.14
4482	2.25	5.	0.	119.63
4483	2.5	5.75	0.	123.16
4484	3.25	6.5	0.	116.18
4485	3.	6.75	0.	119.99
4486	3.75	6.5	0.	118.74
4487	4.5	5.75	0.	130.99
4488	4.5	5.25	0.	130.81
4489	3.25	4.5	0.	121.67
4490	3.75	4.5	0.	121.75
4491	0.5	8.25	0.	133.01
4492	0.5	8.75	0.	131.33
4493	0.5	9.25	0.	130.5
4494	0.25	9.	0.	129.47
4495	3.5	8.75	0.	127.63
4496	3.5	9.25	0.	128.15
4497	3.5	8.25	0.	127.55
4498	2.75	7.5	0.	119.98
4499	3.	7.25	0.	121.51
4500	2.25	7.5	0.	118.12
4501	1.75	7.5	0.	118.98
4502	1.25	7.5	0.	122.87
4503	1.5	7.25	0.	119.89
4504	6.5	-4.75	0.	124.7
4505	6.5	-4.25	0.	125.98
4506	7.25	-3.5	0.	116.03
4507	7.75	-3.5	0.	116.91
4508	8.5	-4.25	0.	130.37
4509	8.5	-4.75	0.	131.46
4510	7.75	-5.5	0.	118.81
4511	7.25	-5.5	0.	117.17
4512	-6.5001	-7.25	0.	122.85
4513	-6.5001	-7.75	0.	124.22
4514	-7.25	-8.5	0.	114.58
4515	-7.75	-8.5	0.	115.91
4516	-8.5	-7.75	0.	129.79
4517	-8.75	-8.	0.	128.74
4518	-8.5	-7.25	0.	130.27
4519	-8.75	-7.5	0.	128.41
4520	-7.75	-6.5	0.	120.22
4521	-7.25	-6.5	0.	119.43
4522	8.75	-9.5	0.	131.71
4523	9.25	-9.5	0.	131.06
4524	8.25	-9.5	0.	132.45
4525	7.75	-9.5	0.	132.5
4526	7.25	-9.5	0.	126.56
4527	6.75	-9.5	0.	114.39
4528	6.25	-9.5	0.	107.15
4529	5.75	-9.5	0.	106.99
4530	5.25	-9.5	0.	113.8
4531	4.75	-9.5	0.	125.48
4532	4.25	-9.5	0.	130.98
4533	3.75	-9.5	0.	130.52
4534	3.25	-9.5	0.	129.42
4535	2.75	-9.5	0.	128.42
4536	2.25	-9.5	0.	127.73
4537	1.75	-9.5	0.	127.35
4538	1.25	-9.5	0.	127.2
4539	0.74998	-9.5	0.	127.21
4540	0.99997	-9.25	0.	127.09
4541	0.24996	-9.5	0.	127.31
4542	-0.25005	-9.5	0.	127.48
4543	-0.75006	-9.5	0.	127.67
4544	-1.2501	-9.5	0.	127.85
4545	-1.7501	-9.5	0.	127.99
4546	-2.2501	-9.5	0.	128.04
4547	-2.7501	-9.5	0.	127.96
4548	-3.2501	-9.5	0.	127.69
4549	-3.7501	-9.5	0.	127.22
4550	-3.5002	-9.25	0.	127.57
4551	-4.2501	-9.5	0.	126.55
4552	-4.0002	-9.25	0.	126.96
4553	-4.7501	-9.5	0.	125.75
4554	-5.2501	-9.5	0.	124.86
4555	-5.75	-9.5	0.	123.81
4556	-6.25	-9.5	0.	122.22
4557	-6.75	-9.5	0.	120.05
4558	-7.25	-9.5	0.	118.49
4559	-7.75	-9.5	0.	119.21
4560	-8.25	-9.5	0.	122.02
4561	-8.75	-9.5	0.	125.03
4562	-9.25	-9.5	0.	127.12
4563	-9.5	-9.25	0.	127.94
4564	-9.5	-8.75	0.	127.86
4565	-9.5	-8.25	0.	127.37
4566	-9.5	-7.75	0.	126.77
4567	-9.25	-8.	0.	127.47
4568	-9.5	-7.25	0.	126.6
4569	-9.25	-7.5	0.	126.66
4570	-9.5	-6.75	0.	126.83
4571	-9.5	-6.25	0.	127.
4572	-9.5	-5.25	0.	127.35
4573	-9.5	-5.75	0.	127.01
4574	-9.5	-4.75	0.	128.33
4575	-9.5	-4.25	0.	130.09
4576	-9.5	-3.75	0.	133.35
4577	-9.25	-4.	0.	128.04
4578	-9.5	-3.25	0.	135.78
4579	-9.5	-2.75	0.	137.16
4580	-9.5	-2.25	0.	138.98
4581	-9.5	-1.75	0.	138.81
4582	-9.5	-1.25	0.	136.51
4583	-9.5	-0.74996	0.	134.73
4584	-9.5	-0.24993	0.	132.16
4585	-9.5	0.2501	0.	128.81
4586	-9.5	0.75015	0.	126.97
4587	-9.5	1.2502	0.	125.72
4588	-9.4999	1.7503	0.	124.81
4589	-9.4999	2.2504	0.	124.17
4590	-9.4999	2.7505	0.	123.73
4591	-9.2499	2.5006	0.	123.76
4592	-9.4999	3.2506	0.	123.45
4593	-9.4998	3.7508	0.	123.27
4594	-9.2498	3.501	0.	123.47
4595	-9.4998	4.2509	0.	123.18
4596	-9.4997	4.751	0.	123.15
4597	-9.4996	5.2511	0.	123.18
4598	-9.4995	5.7511	0.	123.26
4599	-9.4993	6.2509	0.	123.4
4600	-9.2491	6.0015	0.	123.52
4601	-9.4993	6.7506	0.	123.58
4602	-9.4993	7.2504	0.	123.82
4603	-9.4993	7.7503	0.	124.09
4604	-9.4994	8.2501	0.	124.38
4605	-9.4996	8.7501	0.	124.64
4606	-9.4998	9.25	0.	124.86
4607	-9.2498	9.5	0.	125.01
4608	-8.7497	9.5	0.	125.14
4609	-8.2496	9.5001	0.	125.3
4610	-7.7496	9.5001	0.	125.49
4611	-7.9993	9.2501	0.	125.26
4612	-7.2496	9.5001	0.	125.71
4613	-7.4993	9.2502	0.	125.43
4614	-6.7496	9.5001	0.	125.94
4615	-6.2497	9.5001	0.	126.19
4616	-5.7498	9.5001	0.	126.45
4617	-5.2498	9.5001	0.	126.69
4618	-4.7499	9.5001	0.	126.89
4619	-4.2499	9.5	0.	126.92
4620	-3.75	9.5	0.	126.44
4621	-3.25	9.5	0.	125.07
4622	-2.75	9.5	0.	123.03
4623	-2.25	9.5	0.	121.46
4624	-1.75	9.5	0.	121.48
4625	-1.25	9.5	0.	123.08
4626	-0.75	9.5	0.	125.19
4627	-0.25	9.5	0.	126.89
4628	0.25	9.5	0.	129.05
4629	4.4827e-007	9.25	0.	128.01
4630	0.75	9.5	0.	129.24
4631	1.25	9.5	0.	124.84
4632	1.75	9.5	0.	122.11
4633	2.25	9.5	0.	121.7
4634	2.75	9.5	0.	123.48
4635	3.25	9.5	0.	127.4
4636	3.75	9.5	0.	127.19
4637	4.25	9.5	0.	125.44
4638	4.75	9.5	0.	125.15
4639	5.25	9.5	0.	125.22
4640	5.75	9.5	0.	125.31
4641	6.25	9.5	0.	125.35
4642	6.75	9.5	0.	125.34
4643	7.25	9.5	0.	125.29
4644	7.75	9.5	0.	125.22
4645	8.25	9.5	0.	125.15
4646	8.75	9.5	0.	125.07
4647	9.5	9.25	0.	124.93
4648	9.25	9.5	0.	125.01
4649	9.5	8.75	0.	124.82
4650	9.5	8.25	0.	124.71
4651	9.5	7.75	0.	124.6
4652	9.5	7.25	0.	124.52
4653	9.5	6.75	0.	124.51
4654	9.5	6.25	0.	124.58
4655	9.5	5.75	0.	124.8
4656	9.5	5.25	0.	125.48
4657	9.5	4.75	0.	127.77
4658	9.5	4.25	0.	129.68
4659	9.5	3.75	0.	130.09
4660	9.5	3.25	0.	130.14
4661	9.5	2.75	0.	129.85
4662	9.5	2.25	0.	128.17
4663	9.5	1.75	0.	126.37
4664	9.25	2.	0.	123.63
4665	9.5	1.25	0.	126.76
4666	9.5	0.75	0.	129.27
4667	9.5	0.25	0.	131.48
4668	9.5	-0.25	0.	132.3
4669	9.5	-0.75	0.	132.88
4670	9.5	-1.25	0.	132.85
4671	9.5	-1.75	0.	131.26
4672	9.5	-2.25	0.	129.44
4673	9.5	-2.75	0.	129.25
4674	9.5	-3.25	0.	129.29
4675	9.5	-3.75	0.	129.06
4676	9.5	-4.25	0.	128.9
4677	9.5	-4.75	0.	129.32
4678	9.5	-5.25	0.	130.13
4679	9.5	-5.75	0.	130.64
4680	9.5	-6.25	0.	130.49
4681	9.5	-6.75	0.	129.93
4682	9.5	-7.25	0.	129.37
4683	9.5	-7.75	0.	129.1
4684	9.5	-8.25	0.	129.28
4685	9.5	-8.75	0.	129.82
4686	9.5	-9.25	0.	130.48
4687	4.5	-1.75	0.	123.05
4688	-2.7501	-5.	0.	128.12
4689	-1.75	-3.	0.	127.58
4690	-2.25	-3.	0.	127.59
4691	-4.2497	4.5001	0.	131.91
4692	-4.7495	4.5003	0.	130.63
4693	-6.7496	3.5015	0.	125.41
4694	-1.25	4.	0.	128.55
4695	-4.7488	6.0003	0.	129.04
4696	-5.2483	6.0005	0.	127.8
4697	-7.749	9.0002	0.	125.2
4698	6.25	0.5	0.	131.21
4699	6.75	0.5	0.	130.87
4700	-9.	-7.75	0.	127.35
4701	-2.7503	-6.5	0.	128.3
4702	-5.4982	5.7506	0.	127.66
4703	-6.5	0.25025	0.	127.62
4704	5.	-0.25	0.	122.68
4705	5.	-0.75	0.	123.24
4706	-5.75	-3.5	0.	125.05
4707	-5.2493	4.5005	0.	129.2
4708	0.5	6.25	0.	130.24
4709	0.75	6.	0.	128.06
4710	5.25	-6.	0.	122.37
4711	-4.25	2.0001	0.	129.62
4712	-3.7502	-8.9999	0.	127.31
4713	-3.2503	-6.4999	0.	128.97
4714	-1.75	5.3657e-007	0.	127.14
4715	-1.25	1.3299e-007	0.	128.56
4716	-1.4144e-004	-6.75	0.	126.78
4717	0.24987	-7.	0.	126.86
4718	6.75	4.5	0.	130.19
4719	-3.5003	-6.2499	0.	128.99
4720	-1.0002	-6.75	0.	127.18
4721	-6.2496	3.5012	0.	126.2
4722	5.	-5.75	0.	125.47
4723	-2.	0.75	0.	124.16
4724	-2.	0.25	0.	125.64
4725	-1.75	1.	0.	126.16
4726	3.5	-0.75	0.	121.39
4727	3.5	-0.25	0.	123.29
4728	0.5	6.75	0.	130.5
4729	-6.2482	8.0005	0.	124.96
4730	-0.25	2.	0.	131.03
4731	4.75	-6.	0.	127.18
4732	-1.25	1.	0.	130.01
4733	-6.7477	5.5018	0.	125.71
4734	2.	-5.25	0.	129.59
4735	4.	6.	0.	98.48
4736	3.	6.	0.	95.57
4737	4.	5.	0.	99.643
4738	3.	5.	0.	95.935
4739	3.5	6.	0.	112.76
4740	4.	5.5	0.	104.22
4741	3.	5.5	0.	100.86
4742	3.5	5.	0.	114.84
4743	3.5	5.5	0.	110.75
4744	3.75	6.	0.	105.59
4745	4.	5.75	0.	101.34
4746	3.25	6.	0.	104.16
4747	3.	5.75	0.	98.196
4748	4.	5.25	0.	101.92
4749	3.75	5.	0.	107.21
4750	3.	5.25	0.	98.365
4751	3.25	5.	0.	105.34
4752	3.5	5.75	0.	111.7
4753	3.75	5.5	0.	107.47
4754	3.25	5.5	0.	105.77
4755	3.5	5.25	0.	112.75
4756	5.	3.	0.	96.603
4757	4.	3.	0.	97.057
4758	5.	1.	0.	97.562
4759	4.	1.	0.	98.017
4760	4.5	3.	0.	110.65
4761	5.	2.5	0.	100.57
4762	5.	2.	0.	100.1
4763	5.	1.5	0.	101.63
4764	4.	2.5	0.	101.45
4765	4.	2.	0.	101.05
4766	4.	1.5	0.	102.47
4767	4.5	1.	0.	111.85
4768	4.5	2.5	0.	105.05
4769	4.5	2.	0.	103.68
4770	4.5	1.5	0.	106.59
4771	4.75	3.	0.	103.57
4772	5.	2.75	0.	98.58
4773	4.25	3.	0.	103.81
4774	4.	2.75	0.	99.249
4775	5.	1.25	0.	99.591
4776	4.75	1.	0.	104.67
4777	4.	1.25	0.	100.24
4778	4.25	1.	0.	104.9
4779	4.5	2.75	0.	107.8
4780	5.	2.25	0.	100.3
4781	4.75	2.5	0.	102.76
4782	5.	1.75	0.	100.83
4783	4.75	2.	0.	101.89
4784	4.75	1.5	0.	104.06
4785	4.	2.25	0.	101.19
4786	4.25	2.5	0.	103.19
4787	4.	1.75	0.	101.73
4788	4.25	2.	0.	102.36
4789	4.25	1.5	0.	104.49
4790	4.5	1.25	0.	109.18
4791	4.5	2.25	0.	104.36
4792	4.5	1.75	0.	105.13
4793	7.	-7.	0.	95.61
4794	5.	-7.	0.	96.417
4795	7.	-9.	0.	95.367
4796	5.	-9.	0.	94.855
4797	6.5	-7.	0.	109.93
4798	6.	-7.	0.	107.91
4799	5.5	-7.	0.	110.62
4800	7.	-7.5	0.	99.97
4801	7.	-8.	0.	98.51
4802	7.	-8.5	0.	99.311
4803	5.	-7.5	0.	100.27
4804	5.	-8.	0.	98.293
4805	5.	-8.5	0.	98.82
4806	5.5	-9.	0.	106.69
4807	6.	-9.	0.	104.
4808	6.5	-9.	0.	106.99
4809	6.5	-8.	0.	105.59
4810	6.5	-8.5	0.	105.59
4811	5.5	-8.5	0.	105.38
4812	5.5	-8.	0.	105.56
4813	5.5	-7.5	0.	107.21
4814	6.5	-7.5	0.	106.93
4815	6.	-7.5	0.	109.52
4816	6.	-8.5	0.	107.49
4817	6.	-8.	0.	108.36
4818	6.75	-7.	0.	102.69
4819	7.	-7.25	0.	97.775
4820	5.25	-7.	0.	103.42
4821	5.	-7.25	0.	98.324
4822	7.	-8.75	0.	97.334
4823	6.75	-9.	0.	101.13
4824	5.	-8.75	0.	96.831
4825	5.25	-9.	0.	100.72
4826	6.25	-7.	0.	108.92
4827	6.5	-7.25	0.	108.4
4828	5.75	-7.	0.	109.26
4829	6.	-7.25	0.	108.7
4830	5.5	-7.25	0.	108.89
4831	7.	-7.75	0.	99.212
4832	6.75	-7.5	0.	103.43
4833	7.	-8.25	0.	98.886
4834	6.75	-8.	0.	102.04
4835	6.75	-8.5	0.	102.44
4836	5.	-7.75	0.	99.251
4837	5.25	-7.5	0.	103.71
4838	5.	-8.25	0.	98.529
4839	5.25	-8.	0.	101.92
4840	5.25	-8.5	0.	102.09
4841	5.75	-9.	0.	105.34
4842	5.5	-8.75	0.	106.01
4843	6.25	-9.	0.	105.5
4844	6.	-8.75	0.	105.73
4845	6.5	-8.75	0.	106.26
4846	6.5	-8.25	0.	105.58
4847	6.5	-7.75	0.	106.25
4848	6.25	-8.	0.	106.97
4849	6.25	-8.5	0.	106.54
4850	5.5	-8.25	0.	105.47
4851	5.75	-8.5	0.	106.43
4852	5.5	-7.75	0.	106.38
4853	5.75	-8.	0.	106.96
4854	5.75	-7.5	0.	108.34
4855	6.25	-7.5	0.	108.2
4856	6.	-7.75	0.	108.94
4857	6.	-8.25	0.	107.93
4858	-2.	4.	0.	92.819
4859	-3.	4.	0.	94.967
4860	-2.	2.	0.	95.488
4861	-3.	2.	0.	95.857
4862	-2.5	4.	0.	107.05
4863	-2.	3.5	0.	97.664
4864	-2.	3.	0.	97.296
4865	-2.	2.5	0.	99.107
4866	-3.	3.5	0.	98.541
4867	-3.	3.	0.	97.973
4868	-3.	2.5	0.	99.474
4869	-2.5	2.	0.	109.75
4870	-2.5	3.5	0.	102.3
4871	-2.5	3.	0.	100.77
4872	-2.5	2.5	0.	103.52
4873	-2.25	4.	0.	99.899
4874	-2.	3.75	0.	95.237
4875	-2.75	4.	0.	100.97
4876	-3.	3.75	0.	96.751
4877	-2.	2.25	0.	97.292
4878	-2.25	2.	0.	102.56
4879	-3.	2.25	0.	97.66
4880	-2.75	2.	0.	102.74
4881	-2.5	3.75	0.	104.63
4882	-2.	3.25	0.	97.433
4883	-2.25	3.5	0.	99.949
4884	-2.	2.75	0.	98.154
4885	-2.25	3.	0.	99.028
4886	-2.25	2.5	0.	101.25
4887	-3.	3.25	0.	98.229
4888	-2.75	3.5	0.	100.39
4889	-3.	2.75	0.	98.694
4890	-2.75	3.	0.	99.368
4891	-2.75	2.5	0.	101.44
4892	-2.5	2.25	0.	106.59
4893	-2.5	3.25	0.	101.53
4894	-2.5	2.75	0.	102.14
4895	4.	-3.	0.	94.166
4896	3.	-3.	0.	94.369
4897	4.	-5.	0.	94.991
4898	3.	-5.	0.	96.597
4899	3.5	-3.	0.	108.
4900	4.	-3.5	0.	97.966
4901	4.	-4.	0.	97.422
4902	4.	-4.5	0.	99.133
4903	3.	-3.5	0.	99.157
4904	3.	-4.	0.	98.556
4905	3.	-4.5	0.	99.848
4906	3.5	-5.	0.	110.09
4907	3.5	-3.5	0.	102.94
4908	3.5	-4.	0.	101.32
4909	3.5	-4.5	0.	104.01
4910	3.75	-3.	0.	101.04
4911	4.	-3.25	0.	96.065
4912	3.25	-3.	0.	101.13
4913	3.	-3.25	0.	96.76
4914	4.	-4.75	0.	97.051
4915	3.75	-5.	0.	102.47
4916	3.	-4.75	0.	98.22
4917	3.25	-5.	0.	103.3
4918	3.5	-3.25	0.	105.42
4919	4.	-3.75	0.	97.648
4920	3.75	-3.5	0.	100.41
4921	4.	-4.25	0.	98.232
4922	3.75	-4.	0.	99.372
4923	3.75	-4.5	0.	101.52
4924	3.	-3.75	0.	98.823
4925	3.25	-3.5	0.	101.01
4926	3.	-4.25	0.	99.167
4927	3.25	-4.	0.	99.94
4928	3.25	-4.5	0.	101.87
4929	3.5	-4.75	0.	107.01
4930	3.5	-3.75	0.	102.13
4931	3.5	-4.25	0.	102.67
4932	3.	4.	0.	97.501
4933	1.	4.	0.	100.61
4934	3.	2.	0.	99.381
4935	1.	2.	0.	98.42
4936	2.5	4.	0.	114.54
4937	2.	4.	0.	112.71
4938	1.5	4.	0.	115.06
4939	3.	3.5	0.	102.82
4940	3.	3.	0.	101.88
4941	3.	2.5	0.	103.22
4942	1.	3.5	0.	104.41
4943	1.	3.	0.	102.32
4944	1.	2.5	0.	102.91
4945	1.5	2.	0.	112.29
4946	2.	2.	0.	109.74
4947	2.5	2.	0.	112.4
4948	2.	3.	0.	113.18
4949	1.5	3.	0.	110.22
4950	1.5	3.5	0.	111.9
4951	2.	3.5	0.	114.42
4952	2.5	3.5	0.	111.34
4953	2.5	3.	0.	109.79
4954	2.5	2.5	0.	110.
4955	2.	2.5	0.	112.59
4956	1.5	2.5	0.	110.23
4957	2.75	4.	0.	105.95
4958	3.	3.75	0.	100.14
4959	1.25	4.	0.	107.75
4960	1.	3.75	0.	102.5
4961	3.	2.25	0.	101.29
4962	2.75	2.	0.	105.82
4963	1.	2.25	0.	100.66
4964	1.25	2.	0.	105.29
4965	2.25	4.	0.	113.62
4966	2.5	3.75	0.	112.92
4967	1.75	4.	0.	113.88
4968	2.	3.75	0.	113.55
4969	1.5	3.75	0.	113.46
4970	3.	3.25	0.	102.32
4971	2.75	3.5	0.	107.07
4972	3.	2.75	0.	102.51
4973	2.75	3.	0.	105.83
4974	2.75	2.5	0.	106.59
4975	1.	3.25	0.	103.33
4976	1.25	3.5	0.	108.13
4977	1.	2.75	0.	102.58
4978	1.25	3.	0.	106.26
4979	1.25	2.5	0.	106.56
4980	1.75	2.	0.	111.01
4981	1.5	2.25	0.	111.23
4982	2.25	2.	0.	111.07
4983	2.	2.25	0.	111.14
4984	2.5	2.25	0.	111.17
4985	1.75	3.	0.	111.7
4986	2.	3.25	0.	113.8
4987	2.25	3.	0.	111.48
4988	2.	2.75	0.	112.88
4989	1.5	3.25	0.	111.05
4990	1.5	2.75	0.	110.22
4991	1.75	3.5	0.	113.14
4992	2.25	3.5	0.	112.86
4993	2.5	3.25	0.	110.55
4994	2.5	2.75	0.	109.88
4995	2.25	2.5	0.	111.28
4996	1.75	2.5	0.	111.4
4997	-1.	8.	0.	99.072
4998	-3.	8.	0.	98.583
4999	-1.	6.	0.	101.4
5000	-3.	6.	0.	97.756
5001	-1.5	8.	0.	113.47
5002	-2.	8.	0.	111.16
5003	-2.5	8.	0.	113.48
5004	-1.	7.5	0.	103.99
5005	-1.	7.	0.	103.47
5006	-1.	6.5	0.	105.21
5007	-3.	7.5	0.	103.03
5008	-3.	7.	0.	101.45
5009	-3.	6.5	0.	102.21
5010	-2.5	6.	0.	111.55
5011	-2.	6.	0.	110.25
5012	-1.5	6.	0.	114.31
5013	-2.	7.5	0.	113.61
5014	-1.5	7.5	0.	111.27
5015	-1.5	6.5	0.	111.86
5016	-2.	6.5	0.	113.25
5017	-2.5	6.5	0.	109.96
5018	-2.5	7.5	0.	110.72
5019	-2.5	7.	0.	109.68
5020	-1.5	7.	0.	110.87
5021	-2.	7.	0.	113.31
5022	-1.25	8.	0.	106.2
5023	-1.	7.75	0.	101.52
5024	-2.75	8.	0.	105.94
5025	-3.	7.75	0.	100.79
5026	-1.	6.25	0.	103.3
5027	-1.25	6.	0.	107.78
5028	-3.	6.25	0.	99.973
5029	-2.75	6.	0.	104.6
5030	-1.75	8.	0.	112.32
5031	-1.5	7.75	0.	112.34
5032	-2.25	8.	0.	112.32
5033	-2.	7.75	0.	112.37
5034	-2.5	7.75	0.	112.07
5035	-1.	7.25	0.	103.7
5036	-1.25	7.5	0.	107.61
5037	-1.	6.75	0.	104.32
5038	-1.25	7.	0.	107.17
5039	-1.25	6.5	0.	108.53
5040	-3.	7.25	0.	102.21
5041	-2.75	7.5	0.	106.86
5042	-3.	6.75	0.	101.8
5043	-2.75	7.	0.	105.56
5044	-2.75	6.5	0.	106.08
5045	-2.25	6.	0.	110.9
5046	-2.5	6.25	0.	110.73
5047	-1.75	6.	0.	112.28
5048	-2.	6.25	0.	111.73
5049	-1.5	6.25	0.	113.05
5050	-1.75	7.5	0.	112.43
5051	-2.25	7.5	0.	112.15
5052	-2.	7.25	0.	113.46
5053	-1.5	7.25	0.	111.06
5054	-1.75	6.5	0.	112.55
5055	-1.5	6.75	0.	111.36
5056	-2.25	6.5	0.	111.6
5057	-2.	6.75	0.	113.28
5058	-2.5	6.75	0.	109.81
5059	-2.5	7.25	0.	110.19
5060	-2.25	7.	0.	111.49
5061	-1.75	7.	0.	112.09
5062	-5.	-5.	0.	101.09
5063	-7.	-5.	0.	95.421
5064	-5.	-6.	0.	100.51
5065	-7.	-6.	0.	95.144
5066	-5.5	-5.	0.	117.65
5067	-6.	-5.	0.	115.23
5068	-6.5	-5.	0.	114.5
5069	-5.	-5.5	0.	105.9
5070	-7.	-5.5	0.	100.32
5071	-6.5	-6.	0.	115.3
5072	-6.	-6.	0.	115.53
5073	-5.5	-6.	0.	117.3
5074	-6.5	-5.5	0.	113.06
5075	-6.	-5.5	0.	118.38
5076	-5.5	-5.5	0.	116.1
5077	-5.25	-5.	0.	109.32
5078	-5.	-5.25	0.	103.47
5079	-6.75	-5.	0.	104.92
5080	-7.	-5.25	0.	97.829
5081	-5.	-5.75	0.	103.18
5082	-5.25	-6.	0.	108.87
5083	-7.	-5.75	0.	97.688
5084	-6.75	-6.	0.	105.18
5085	-5.75	-5.	0.	116.44
5086	-5.5	-5.25	0.	116.86
5087	-6.25	-5.	0.	114.86
5088	-6.	-5.25	0.	116.8
5089	-6.5	-5.25	0.	113.77
5090	-5.25	-5.5	0.	110.99
5091	-6.75	-5.5	0.	106.67
5092	-6.25	-6.	0.	115.41
5093	-6.5	-5.75	0.	114.17
5094	-5.75	-6.	0.	116.41
5095	-6.	-5.75	0.	116.95
5096	-5.5	-5.75	0.	116.68
5097	-6.25	-5.5	0.	115.72
5098	-5.75	-5.5	0.	117.24
5099	9.	0.	0.	99.098
5100	8.	0.	0.	98.837
5101	9.	-1.	0.	99.952
5102	8.	-1.	0.	98.285
5103	8.5	0.	0.	114.29
5104	9.	-0.5	0.	104.87
5105	8.	-0.5	0.	104.
5106	8.5	-1.	0.	114.58
5107	8.5	-0.5	0.	112.12
5108	8.75	0.	0.	106.67
5109	9.	-0.25	0.	101.98
5110	8.25	0.	0.	106.55
5111	8.	-0.25	0.	101.41
5112	9.	-0.75	0.	102.41
5113	8.75	-1.	0.	107.25
5114	8.	-0.75	0.	101.13
5115	8.25	-1.	0.	106.41
5116	8.5	-0.25	0.	113.15
5117	8.75	-0.5	0.	108.48
5118	8.25	-0.5	0.	108.03
5119	8.5	-0.75	0.	113.3
5120	3.	9.	0.	99.018
5121	1.	9.	0.	100.26
5122	3.	8.	0.	98.025
5123	1.	8.	0.	101.45
5124	2.5	9.	0.	118.56
5125	2.	9.	0.	118.5
5126	1.5	9.	0.	119.56
5127	3.	8.5	0.	103.71
5128	1.	8.5	0.	106.07
5129	1.5	8.	0.	117.84
5130	2.	8.	0.	116.26
5131	2.5	8.	0.	116.26
5132	1.5	8.5	0.	117.32
5133	2.	8.5	0.	120.55
5134	2.5	8.5	0.	115.97
5135	2.75	9.	0.	108.73
5136	3.	8.75	0.	101.34
5137	1.25	9.	0.	109.84
5138	1.	8.75	0.	103.13
5139	3.	8.25	0.	100.83
5140	2.75	8.	0.	107.13
5141	1.	8.25	0.	103.73
5142	1.25	8.	0.	109.62
5143	2.25	9.	0.	118.53
5144	2.5	8.75	0.	117.25
5145	1.75	9.	0.	119.03
5146	2.	8.75	0.	119.51
5147	1.5	8.75	0.	118.42
5148	2.75	8.5	0.	109.82
5149	1.25	8.5	0.	111.68
5150	1.75	8.	0.	117.04
5151	1.5	8.25	0.	117.56
5152	2.25	8.	0.	116.25
5153	2.	8.25	0.	118.4
5154	2.5	8.25	0.	116.1
5155	1.75	8.5	0.	118.93
5156	2.25	8.5	0.	118.26
5157	-7.	-1.	0.	97.591
5158	-9.	-1.	0.	99.672
5159	-7.	-3.	0.	96.372
5160	-9.	-3.	0.	100.47
5161	-7.5	-1.	0.	111.96
5162	-8.	-1.	0.	109.99
5163	-8.5	-1.	0.	112.95
5164	-7.	-1.5	0.	101.79
5165	-7.	-2.	0.	100.37
5166	-7.	-2.5	0.	101.33
5167	-9.	-1.5	0.	104.56
5168	-9.	-2.	0.	103.83
5169	-9.	-2.5	0.	104.82
5170	-8.5	-3.	0.	113.63
5171	-8.	-3.	0.	110.52
5172	-7.5	-3.	0.	111.9
5173	-8.	-1.5	0.	112.97
5174	-7.5	-1.5	0.	109.7
5175	-7.5	-2.5	0.	109.6
5176	-8.	-2.5	0.	113.2
5177	-8.5	-2.5	0.	111.68
5178	-8.5	-1.5	0.	111.35
5179	-8.5	-2.	0.	111.04
5180	-7.5	-2.	0.	108.97
5181	-8.	-2.	0.	113.05
5182	-7.25	-1.	0.	104.71
5183	-7.	-1.25	0.	99.68
5184	-8.75	-1.	0.	106.25
5185	-9.	-1.25	0.	102.11
5186	-7.	-2.75	0.	98.831
5187	-7.25	-3.	0.	104.07
5188	-9.	-2.75	0.	102.64
5189	-8.75	-3.	0.	106.98
5190	-7.75	-1.	0.	110.98
5191	-7.5	-1.25	0.	110.8
5192	-8.25	-1.	0.	111.47
5193	-8.	-1.25	0.	111.46
5194	-8.5	-1.25	0.	112.11
5195	-7.	-1.75	0.	101.04
5196	-7.25	-1.5	0.	105.73
5197	-7.	-2.25	0.	100.81
5198	-7.25	-2.	0.	104.67
5199	-7.25	-2.5	0.	105.45
5200	-9.	-1.75	0.	104.18
5201	-8.75	-1.5	0.	107.95
5202	-9.	-2.25	0.	104.31
5203	-8.75	-2.	0.	107.44
5204	-8.75	-2.5	0.	108.24
5205	-8.25	-3.	0.	112.07
5206	-8.5	-2.75	0.	112.62
5207	-7.75	-3.	0.	111.21
5208	-8.	-2.75	0.	111.84
5209	-7.5	-2.75	0.	110.72
5210	-7.75	-1.5	0.	111.33
5211	-8.25	-1.5	0.	112.15
5212	-8.	-1.75	0.	113.01
5213	-7.5	-1.75	0.	109.32
5214	-7.75	-2.5	0.	111.39
5215	-7.5	-2.25	0.	109.27
5216	-8.25	-2.5	0.	112.43
5217	-8.	-2.25	0.	113.12
5218	-8.5	-2.25	0.	111.36
5219	-8.5	-1.75	0.	111.19
5220	-8.25	-2.	0.	112.05
5221	-7.75	-2.	0.	111.01
5222	1.	-2.	0.	98.756
5223	0.	-2.	0.	98.979
5224	1.	-3.	0.	98.656
5225	0.	-3.	0.	98.402
5226	0.5	-2.	0.	114.42
5227	1.	-2.5	0.	103.94
5228	0.	-2.5	0.	103.91
5229	0.5	-3.	0.	114.09
5230	0.5	-2.5	0.	111.61
5231	0.75	-2.	0.	106.57
5232	1.	-2.25	0.	101.34
5233	0.25	-2.	0.	106.68
5234	0.	-2.25	0.	101.43
5235	1.	-2.75	0.	101.29
5236	0.75	-3.	0.	106.36
5237	0.	-2.75	0.	101.15
5238	0.25	-3.	0.	106.23
5239	0.5	-2.25	0.	112.98
5240	0.75	-2.5	0.	107.75
5241	0.25	-2.5	0.	107.74
5242	0.5	-2.75	0.	112.8
5243	8.	-4.	0.	97.216
5244	7.	-4.	0.	96.225
5245	8.	-5.	0.	99.066
5246	7.	-5.	0.	95.073
5247	7.5	-4.	0.	112.05
5248	8.	-4.5	0.	103.06
5249	7.	-4.5	0.	100.83
5250	7.5	-5.	0.	112.66
5251	7.5	-4.5	0.	109.54
5252	7.75	-4.	0.	104.6
5253	8.	-4.25	0.	100.13
5254	7.25	-4.	0.	104.13
5255	7.	-4.25	0.	98.516
5256	8.	-4.75	0.	101.06
5257	7.75	-5.	0.	105.85
5258	7.	-4.75	0.	97.925
5259	7.25	-5.	0.	103.84
5260	7.5	-4.25	0.	110.74
5261	7.75	-4.5	0.	106.28
5262	7.25	-4.5	0.	105.15
5263	7.5	-4.75	0.	111.06
5264	-7.	-7.	0.	95.401
5265	-8.	-7.	0.	98.96
5266	-7.	-8.	0.	95.387
5267	-8.	-8.	0.	97.168
5268	-7.5	-7.	0.	113.79
5269	-7.	-7.5	0.	100.55
5270	-8.	-7.5	0.	103.23
5271	-7.5	-8.	0.	111.52
5272	-7.5	-7.5	0.	109.83
5273	-7.25	-7.	0.	104.55
5274	-7.	-7.25	0.	97.951
5275	-7.75	-7.	0.	106.34
5276	-8.	-7.25	0.	101.09
5277	-7.	-7.75	0.	97.954
5278	-7.25	-8.	0.	103.45
5279	-8.	-7.75	0.	100.19
5280	-7.75	-8.	0.	104.33
5281	-7.5	-7.25	0.	111.77
5282	-7.25	-7.5	0.	105.16
5283	-7.75	-7.5	0.	106.51
5284	-7.5	-7.75	0.	110.62
5285	9.	4.	0.	98.454
5286	8.	4.	0.	98.519
5287	9.	3.	0.	98.258
5288	8.	3.	0.	98.094
5289	8.5	4.	0.	113.93
5290	9.	3.5	0.	103.58
5291	8.	3.5	0.	103.74
5292	8.5	3.	0.	113.47
5293	8.5	3.5	0.	111.31
5294	8.75	4.	0.	106.17
5295	9.	3.75	0.	101.01
5296	8.25	4.	0.	106.21
5297	8.	3.75	0.	101.12
5298	9.	3.25	0.	100.91
5299	8.75	3.	0.	105.84
5300	8.	3.25	0.	100.91
5301	8.25	3.	0.	105.77
5302	8.5	3.75	0.	112.57
5303	8.75	3.5	0.	107.43
5304	8.25	3.5	0.	107.5
5305	8.5	3.25	0.	112.34
