Node Number	X Location (mm)	Y Location (mm)	Z Location (mm)	Equivalent (von-Mises) Stress (MPa)
1	-8.02	7.21	0.	162.37
2	-6.68	6.54	0.	163.74
3	-6.77	8.04	0.	144.89
4	-5.64	8.03	0.	134.55
5	-5.75	6.63	0.	133.71
6	-4.48	7.23	0.	149.17
7	5.92	-0.57	0.	123.37
8	6.33	1.17	0.	163.08
9	4.61	0.66	0.	169.7
10	8.39	-0.63	0.	169.26
11	8.05	0.37	0.	113.96
12	7.35	-0.43	0.	169.21
13	1.97	-6.6	0.	174.3
14	2.88	-7.58	0.	117.36
15	3.27	-6.31	0.	173.34
16	-3.87	-5.98	0.	130.62
17	-4.98	-6.92	0.	158.45
18	-3.61	-7.41	0.	159.27
19	2.	6.	0.	138.06
20	2.	4.	0.	136.95
21	4.	6.	0.	135.62
22	4.	4.	0.	137.54
23	-1.	9.	0.	139.08
24	-1.	8.	0.	137.42
25	1.	9.	0.	137.52
26	1.	8.	0.	138.93
27	-6.	6.	0.	144.62
28	-6.	4.	0.	132.33
29	-4.	6.	0.	141.17
30	-4.	4.	0.	135.66
31	6.	7.	0.	133.84
32	6.	5.	0.	131.04
33	7.	7.	0.	132.5
34	7.	5.	0.	130.04
35	-7.	1.	0.	130.87
36	-7.	-1.	0.	132.84
37	-6.	1.	0.	132.39
38	-6.	-1.	0.	132.27
39	-3.	2.	0.	143.63
40	-3.	1.	0.	139.47
41	-1.	2.	0.	140.19
42	-1.	1.	0.	139.46
43	2.	-2.	0.	137.73
44	2.	-3.	0.	138.65
45	4.	-2.	0.	136.13
46	4.	-3.	0.	133.66
47	-5.	2.	0.	128.04
48	-5.	0.	0.	133.82
49	-4.	2.	0.	131.99
50	-4.	0.	0.	135.32
51	-1.	-5.	0.	139.42
52	-1.	-6.	0.	136.38
53	1.	-5.	0.	141.19
54	1.	-6.	0.	139.72
55	-9.	-6.	0.	136.01
56	-9.	-8.	0.	135.78
57	-7.	-6.	0.	135.88
58	-7.	-8.	0.	136.32
59	4.	-5.	0.	133.08
60	4.	-7.	0.	133.12
61	5.	-5.	0.	134.58
62	5.	-7.	0.	131.77
63	7.	-7.	0.	136.16
64	7.	-9.	0.	134.67
65	9.	-7.	0.	137.37
66	9.	-9.	0.	135.59
67	10.	10.	0.	125.
68	-10.	10.	0.	125.02
69	10.	-10.	0.	147.27
70	-10.	-10.	0.	133.06
71	-7.5733	6.9867	0.	91.386
72	-7.1267	6.7633	0.	105.77
73	-7.6033	7.4867	0.	79.99
74	-7.1867	7.7633	0.	93.737
75	-6.71	7.04	0.	150.88
76	-6.74	7.54	0.	146.19
77	-5.6767	7.5633	0.	138.23
78	-5.7133	7.0967	0.	136.71
79	-5.2533	7.7633	0.	94.928
80	-4.8667	7.4967	0.	88.729
81	-5.3267	6.83	0.	96.416
82	-4.9033	7.03	0.	87.584
83	6.0225	-0.135	0.	129.33
84	6.125	0.3	0.	137.92
85	6.2275	0.735	0.	144.95
86	5.5925	-0.2625	0.	92.114
87	5.265	4.5e-002	0.	104.65
88	4.9375	0.3525	0.	90.851
89	5.9	1.0425	0.	108.84
90	5.47	0.915	0.	114.62
91	5.04	0.7875	0.	95.184
92	8.22	-0.13	0.	130.68
93	7.87	-0.53	0.	103.57
94	7.7	-3.e-002	0.	71.926
95	2.2733	-6.9267	0.	84.725
96	2.5767	-7.2533	0.	93.307
97	2.4033	-6.5033	0.	97.604
98	2.8367	-6.4067	0.	103.89
99	3.01	-7.1567	0.	130.84
100	3.14	-6.7333	0.	138.04
101	-4.24	-6.2933	0.	88.363
102	-4.61	-6.6067	0.	79.81
103	-3.7833	-6.4567	0.	138.07
104	-3.6967	-6.9333	0.	143.94
105	-4.5233	-7.0833	0.	92.553
106	-4.0667	-7.2467	0.	104.89
107	2.	5.5	0.	145.83
108	2.	5.	0.	146.91
109	2.	4.5	0.	145.89
110	2.5	6.	0.	115.19
111	3.	6.	0.	119.28
112	3.5	6.	0.	114.51
113	2.5	4.	0.	116.05
114	3.	4.	0.	120.19
115	3.5	4.	0.	115.67
116	4.	5.5	0.	144.63
117	4.	5.	0.	146.35
118	4.	4.5	0.	145.61
119	-1.	8.5	0.	146.43
120	-0.5	9.	0.	122.43
121	0.	9.	0.	129.27
122	0.5	9.	0.	122.51
123	-0.5	8.	0.	121.37
124	0.	8.	0.	127.3
125	0.5	8.	0.	121.67
126	1.	8.5	0.	146.21
127	-6.	5.5	0.	148.42
128	-6.	5.	0.	144.64
129	-6.	4.5	0.	141.91
130	-5.5006	6.	0.	111.86
131	-5.0009	6.	0.	111.71
132	-4.5005	6.	0.	113.46
133	-5.5	4.	0.	112.66
134	-5.	4.	0.	116.57
135	-4.5	4.	0.	112.71
136	-4.	5.5	0.	145.59
137	-4.	5.	0.	146.06
138	-4.	4.5	0.	144.42
139	6.	6.5	0.	142.39
140	6.	6.	0.	141.67
141	6.	5.5	0.	140.05
142	6.5	7.	0.	108.33
143	6.5	5.	0.	105.84
144	7.	6.5	0.	141.14
145	7.	6.	0.	141.05
146	7.	5.5	0.	140.16
147	-7.	0.5	0.	140.78
148	-7.	0.	0.	141.52
149	-7.	-0.5	0.	141.37
150	-6.5	1.	0.	106.21
151	-6.5	-1.	0.	108.36
152	-6.	0.5	0.	140.96
153	-6.	0.	0.	143.02
154	-6.	-0.5	0.	143.51
155	-3.	1.5	0.	149.39
156	-2.5	2.	0.	123.23
157	-2.	2.	0.	128.21
158	-1.5	2.	0.	122.51
159	-2.5	1.	0.	120.86
160	-2.	1.	0.	125.86
161	-1.5	1.	0.	120.48
162	-1.	1.5	0.	148.61
163	2.	-2.5	0.	146.61
164	2.5	-2.	0.	119.72
165	3.	-2.	0.	124.65
166	3.5	-2.	0.	119.09
167	2.5	-3.	0.	120.37
168	3.	-3.	0.	124.58
169	3.5	-3.	0.	117.91
170	4.	-2.5	0.	142.84
171	-5.	1.5	0.	140.2
172	-5.	1.	0.	141.57
173	-5.	0.5	0.	141.47
174	-4.5	2.	0.	105.42
175	-4.5	0.	0.	108.61
176	-4.	1.5	0.	139.57
177	-4.	1.	0.	143.29
178	-4.	0.5	0.	145.39
179	-1.	-5.5	0.	146.6
180	-0.5	-5.	0.	120.72
181	0.	-5.	0.	126.8
182	0.5	-5.	0.	122.31
183	-0.5	-6.	0.	118.11
184	0.	-6.	0.	123.38
185	0.5	-6.	0.	119.15
186	1.	-5.5	0.	150.75
187	-9.	-6.5	0.	147.28
188	-9.	-7.	0.	149.
189	-9.	-7.5	0.	147.18
190	-8.5	-6.	0.	114.65
191	-8.	-6.	0.	118.2
192	-7.5	-6.	0.	113.25
193	-8.5	-8.	0.	114.28
194	-8.	-8.	0.	117.96
195	-7.5	-8.	0.	113.37
196	-7.	-6.5	0.	142.99
197	-7.	-7.	0.	143.89
198	-7.	-7.5	0.	143.78
199	4.	-5.5	0.	147.89
200	4.	-6.	0.	147.6
201	4.	-6.5	0.	139.82
202	4.5	-5.	0.	110.64
203	4.5	-7.	0.	105.32
204	5.	-5.5	0.	144.45
205	5.	-6.	0.	144.24
206	5.	-6.5	0.	142.76
207	7.	-7.5	0.	145.37
208	7.	-8.	0.	146.69
209	7.	-8.5	0.	145.16
210	7.5	-7.	0.	113.69
211	8.	-7.	0.	118.42
212	8.5	-7.	0.	114.74
213	7.5	-9.	0.	111.76
214	8.	-9.	0.	115.46
215	8.5	-9.	0.	112.68
216	9.	-7.5	0.	148.45
217	9.	-8.	0.	150.19
218	9.	-8.5	0.	148.18
219	9.5	10.	0.	125.01
220	9.	10.	0.	124.94
221	8.5	10.	0.	124.72
222	8.	10.	0.	124.32
223	7.5	10.	0.	123.8
224	7.	10.	0.	123.33
225	6.5	10.	0.	123.09
226	6.	10.	0.	123.16
227	5.5	10.	0.	123.44
228	5.	10.	0.	123.74
229	4.5	10.	0.	123.95
230	4.	10.	0.	124.11
231	3.5	10.	0.	124.43
232	3.	10.	0.	125.17
233	2.5	10.	0.	126.44
234	2.	10.	0.	128.24
235	1.5	10.	0.	128.25
236	1.	10.	0.	124.74
237	0.5	10.	0.	121.24
238	-5.2042e-015	10.	0.	119.72
239	-0.5	10.	0.	122.1
240	-1.	10.	0.	126.61
241	-1.5	10.	0.	131.12
242	-2.	10.	0.	131.61
243	-2.5	10.	0.	129.95
244	-3.	10.	0.	128.38
245	-3.5	10.	0.	126.75
246	-4.	10.	0.	124.98
247	-4.5	10.	0.	123.19
248	-5.	10.	0.	121.87
249	-5.5	10.	0.	121.31
250	-6.	10.	0.	121.16
251	-6.5	10.	0.	120.83
252	-7.	10.	0.	120.63
253	-7.5	10.	0.	121.28
254	-8.	10.	0.	122.71
255	-8.5	10.	0.	124.15
256	-9.	10.	0.	124.93
257	-9.5	10.	0.	125.06
258	10.	9.5	0.	124.97
259	10.	9.	0.	125.01
260	10.	8.5	0.	125.03
261	10.	8.	0.	124.83
262	10.	7.5	0.	124.35
263	10.	7.	0.	123.73
264	10.	6.5	0.	123.28
265	10.	6.	0.	123.32
266	10.	5.5	0.	124.02
267	10.	5.	0.	125.26
268	10.	4.5	0.	126.75
269	10.	4.	0.	128.15
270	10.	3.5	0.	129.26
271	10.	3.	0.	130.05
272	10.	2.5	0.	130.59
273	10.	2.	0.	130.89
274	10.	1.5	0.	130.67
275	10.	1.	0.	128.99
276	10.	0.5	0.	125.21
277	10.	-5.2042e-015	0.	121.39
278	10.	-0.5	0.	121.93
279	10.	-1.	0.	126.93
280	10.	-1.5	0.	131.18
281	10.	-2.	0.	132.18
282	10.	-2.5	0.	131.28
283	10.	-3.	0.	129.89
284	10.	-3.5	0.	128.79
285	10.	-4.	0.	128.24
286	10.	-4.5	0.	128.42
287	10.	-5.	0.	129.57
288	10.	-5.5	0.	131.92
289	10.	-6.	0.	135.14
290	10.	-6.5	0.	136.35
291	10.	-7.	0.	133.35
292	10.	-7.5	0.	129.93
293	10.	-8.	0.	130.74
294	10.	-8.5	0.	132.77
295	10.	-9.	0.	139.01
296	10.	-9.5	0.	145.16
297	-10.	9.5	0.	124.85
298	-10.	9.	0.	124.32
299	-10.	8.5	0.	122.89
300	-10.	8.	0.	120.53
301	-10.	7.5	0.	118.54
302	-10.	7.	0.	119.24
303	-10.	6.5	0.	122.36
304	-10.	6.	0.	125.87
305	-10.	5.5	0.	128.08
306	-10.	5.	0.	129.03
307	-10.	4.5	0.	129.38
308	-10.	4.	0.	129.61
309	-10.	3.5	0.	129.83
310	-10.	3.	0.	129.94
311	-10.	2.5	0.	129.78
312	-10.	2.	0.	129.21
313	-10.	1.5	0.	128.26
314	-10.	1.	0.	127.16
315	-10.	0.5	0.	126.24
316	-10.	-5.2042e-015	0.	125.85
317	-10.	-0.5	0.	126.08
318	-10.	-1.	0.	126.8
319	-10.	-1.5	0.	127.69
320	-10.	-2.	0.	128.46
321	-10.	-2.5	0.	128.99
322	-10.	-3.	0.	129.41
323	-10.	-3.5	0.	130.02
324	-10.	-4.	0.	131.19
325	-10.	-4.5	0.	133.26
326	-10.	-5.	0.	136.
327	-10.	-5.5	0.	136.6
328	-10.	-6.	0.	132.66
329	-10.	-6.5	0.	128.05
330	-10.	-7.	0.	127.47
331	-10.	-7.5	0.	128.
332	-10.	-8.	0.	132.56
333	-10.	-8.5	0.	136.52
334	-10.	-9.	0.	136.14
335	-10.	-9.5	0.	133.96
336	-9.5	-10.	0.	128.57
337	-9.	-10.	0.	122.7
338	-8.5	-10.	0.	118.04
339	-8.	-10.	0.	116.37
340	-7.5	-10.	0.	118.24
341	-7.	-10.	0.	122.42
342	-6.5	-10.	0.	126.6
343	-6.	-10.	0.	128.75
344	-5.5	-10.	0.	128.44
345	-5.	-10.	0.	126.62
346	-4.5	-10.	0.	124.8
347	-4.	-10.	0.	124.27
348	-3.5	-10.	0.	125.33
349	-3.	-10.	0.	127.17
350	-2.5	-10.	0.	128.67
351	-2.	-10.	0.	129.28
352	-1.5	-10.	0.	129.08
353	-1.	-10.	0.	128.45
354	-0.5	-10.	0.	127.72
355	5.2042e-015	-10.	0.	127.07
356	0.5	-10.	0.	126.42
357	1.	-10.	0.	125.53
358	1.5	-10.	0.	124.19
359	2.	-10.	0.	122.59
360	2.5	-10.	0.	121.42
361	3.	-10.	0.	121.37
362	3.5	-10.	0.	122.5
363	4.	-10.	0.	124.36
364	4.5	-10.	0.	126.65
365	5.	-10.	0.	129.36
366	5.5	-10.	0.	132.28
367	6.	-10.	0.	134.7
368	6.5	-10.	0.	132.85
369	7.	-10.	0.	122.99
370	7.5	-10.	0.	112.32
371	8.	-10.	0.	108.11
372	8.5	-10.	0.	112.02
373	9.	-10.	0.	123.26
374	9.5	-10.	0.	135.94
375	-2.0182	-2.0135	0.	126.85
376	-3.0468	-3.0445	0.	127.04
377	-0.50209	5.0011	0.	125.57
378	-1.0022	5.0006	0.	125.42
379	-3.5613	-3.0737	0.	125.77
380	2.9824	2.0854	0.	122.23
381	-2.	4.9873	0.	126.51
382	-2.5353	-3.0255	0.	128.13
383	-1.5001	4.4974	0.	125.88
384	-0.5042	5.502	0.	124.84
385	-0.50647	-2.5019	0.	126.29
386	-1.5099	-1.5074	0.	126.26
387	-5.5796	-3.9758	0.	125.06
388	4.8465	2.0866	0.	123.88
389	2.1323	0.44705	0.	122.53
390	-6.0504	-3.4887	0.	123.47
391	-3.5715	-3.589	0.	125.44
392	-4.1003	-3.6425	0.	124.04
393	-1.0073	-1.5043	0.	126.83
394	-0.50477	-1.5026	0.	127.62
395	1.56	0.98687	0.	124.84
396	-1.0103	-2.5037	0.	126.8
397	-1.5159	-2.5075	0.	127.34
398	-1.0056	5.5024	0.	125.17
399	-1.506	5.4984	0.	125.97
400	2.038	1.517	0.	123.47
401	-4.0456	-2.5664	0.	125.02
402	-1.0005	4.4992	0.	126.1
403	-0.50061	4.4998	0.	126.79
404	-5.5592	-4.4702	0.	126.81
405	-5.6911e-004	4.4999	0.	127.73
406	0.506	-0.50475	0.	130.64
407	-2.5377	-3.525	0.	129.04
408	-5.049	-5.0091	0.	125.71
409	-3.0253	-2.0284	0.	126.55
410	6.4832	-3.0348	0.	124.97
411	6.994	-3.5147	0.	124.71
412	-2.7997e-003	5.5011	0.	125.29
413	-2.4989	4.9704	0.	128.02
414	0.49875	5.0003	0.	127.64
415	-1.9993	4.4913	0.	126.39
416	2.9862	-0.25291	0.	120.73
417	2.5779	1.0693	0.	121.63
418	5.3936	2.4961	0.	120.95
419	-6.5211	-2.9941	0.	121.71
420	-0.50668	6.003	0.	124.4
421	1.0344	1.4923	0.	127.17
422	-1.5062	-1.0062	0.	125.6
423	-1.4994	3.9978	0.	126.18
424	-2.0031	5.4826	0.	127.04
425	-6.0549	-3.9819	0.	125.07
426	-6.5317	-3.4906	0.	122.84
427	-3.4791e-003	-2.5012	0.	126.2
428	-4.1333e-004	-1.0022	0.	129.67
429	1.0192	-1.0144e-002	0.	128.55
430	-2.0264	-3.0154	0.	128.63
431	-0.50612	-3.0013	0.	125.9
432	-1.011	-3.0029	0.	127.1
433	-1.5177	-3.0068	0.	128.26
434	1.9882	-4.665e-002	0.	123.72
435	1.5206	-1.9842e-002	0.	126.22
436	-2.4532e-003	-1.5021	0.	128.49
437	4.3915	2.0838	0.	127.18
438	1.5225	2.0045	0.	126.53
439	2.0113	2.0225	0.	124.2
440	-6.5383	-3.9858	0.	124.13
441	-2.0167	5.9874	0.	128.06
442	-0.49913	3.9988	0.	128.49
443	-0.99917	3.9986	0.	127.11
444	-1.0042	-1.0033	0.	126.96
445	-0.50219	-1.0022	0.	128.52
446	1.0388	0.48913	0.	127.49
447	1.0418	0.98997	0.	126.9
448	-3.5633	-4.1003	0.	124.78
449	-1.5168	6.0055	0.	126.72
450	-1.0117	6.0052	0.	125.34
451	6.4284	3.0274	0.	121.77
452	3.4653	1.657	0.	125.06
453	2.8251	0.15203	0.	120.43
454	-7.0637	5.5372	0.	122.18
455	-1.9994	3.4978	0.	126.07
456	-7.0222	5.0413	0.	125.47
457	-4.0403e-003	6.0015	0.	124.68
458	-3.0347e-003	6.5013	0.	123.81
459	5.3081	1.9415	0.	117.52
460	3.0659	1.1396	0.	121.86
461	3.5269	1.2026	0.	124.65
462	-7.0137	-2.9958	0.	122.06
463	-3.5269	-2.0363	0.	125.74
464	-4.0252	-2.0387	0.	124.81
465	5.9279	3.0145	0.	121.55
466	3.1305e-002	-6.9864	0.	118.05
467	-3.5102e-003	-3.0008	0.	125.59
468	-3.4232e-003	-3.5004	0.	124.79
469	-3.2955e-003	-4.0001	0.	123.2
470	3.0251	-1.056	0.	119.61
471	5.4364	3.0105	0.	123.58
472	-1.9993	2.9988	0.	124.64
473	-5.0456	-5.5776	0.	128.43
474	-1.7746e-003	7.0011	0.	122.35
475	5.9926	-3.5212	0.	126.62
476	7.891	1.9427	0.	125.69
477	-7.5259	5.0347	0.	123.96
478	-7.5602	5.5315	0.	122.78
479	6.9255	-2.0638	0.	126.92
480	7.4577	-2.4987	0.	123.52
481	7.4935	-3.5054	0.	123.78
482	7.5001	-4.5029	0.	122.87
483	-4.5214	-2.0338	0.	124.55
484	-2.5091	-1.0117	0.	126.07
485	-2.0041	-0.50557	0.	123.59
486	3.	7.	0.	116.7
487	3.	7.5	0.	119.04
488	3.5	7.5	0.	120.34
489	-2.7731	-6.9353	0.	127.45
490	4.378e-002	-7.4787	0.	120.82
491	-0.48733	-7.4859	0.	121.94
492	-2.0262	-3.512	0.	130.09
493	-2.5335	-4.0217	0.	129.91
494	-3.0164	-1.52	0.	126.73
495	5.4816	-2.5288	0.	123.05
496	3.6318	-0.58404	0.	123.83
497	1.0083	-0.50915	0.	129.78
498	2.5625	-0.49437	0.	121.18
499	0.49808	-2.5012	0.	126.84
500	0.50141	-1.0039	0.	130.46
501	4.9099	2.541	0.	124.72
502	3.466	2.5787	0.	122.22
503	1.0226	1.9957	0.	128.58
504	2.4936	2.5399	0.	121.6
505	1.0126	2.498	0.	130.75
506	-5.5524	-4.9722	0.	129.23
507	-2.4992	5.4521	0.	128.63
508	-7.5099	4.5316	0.	125.36
509	0.50611	2.9971	0.	133.38
510	-1.4987	3.4979	0.	126.17
511	-1.5028	-0.50435	0.	124.57
512	0.52462	1.4938	0.	128.71
513	0.51498	-5.3674e-003	0.	130.39
514	-2.3593	-6.8947	0.	128.23
515	-0.50672	6.5035	0.	123.91
516	6.4562	3.5183	0.	119.98
517	7.4448	3.0169	0.	125.49
518	-6.5126	-2.4967	0.	120.27
519	-7.5109	-3.4966	0.	122.08
520	-7.5094	-2.9971	0.	123.04
521	-7.5004	3.0148	0.	127.9
522	6.4972	-4.013	0.	126.93
523	7.0003	-5.0031	0.	124.26
524	6.4385	-2.1055	0.	125.95
525	3.4186	-0.1557	0.	121.67
526	-2.5177	6.7539	0.	129.96
527	-2.4929	7.1551	0.	129.1
528	4.0975	-0.2512	0.	128.52
529	3.1923	0.68686	0.	120.73
530	3.2703	0.25491	0.	120.49
531	3.905	1.6922	0.	128.13
532	5.9558	-2.0791	0.	123.48
533	6.8976	2.5502	0.	125.93
534	6.4999	-5.0052	0.	127.62
535	6.4995	-4.508	0.	127.58
536	-7.0006	2.509	0.	124.86
537	-7.5002	2.5102	0.	127.38
538	-7.5055	-2.4981	0.	124.18
539	-7.009	-2.4972	0.	121.76
540	-6.0184	-2.4981	0.	121.24
541	-5.5251	-2.5062	0.	123.2
542	6.9601	3.5176	0.	121.7
543	7.4672	3.5104	0.	124.86
544	-1.5283	6.5162	0.	127.98
545	-1.014	6.5081	0.	125.85
546	6.4999	-5.5029	0.	127.96
547	-3.5402	-4.6012	0.	124.11
548	-4.0492	-4.6956	0.	120.45
549	-2.4689	-5.481	0.	130.28
550	-2.1138	-7.4045	0.	129.07
551	0.52741	0.99359	0.	128.71
552	-0.49896	-0.50171	0.	129.65
553	-0.9979	3.498	0.	128.26
554	0.51158	2.496	0.	132.3
555	-7.5033	4.026	0.	126.75
556	-7.501	3.5201	0.	127.83
557	-2.5317	6.3501	0.	130.07
558	-7.0245	-4.4886	0.	122.99
559	-5.5822	-5.4505	0.	131.96
560	2.0038	2.5195	0.	124.91
561	0.50254	3.4983	0.	132.84
562	4.4281	2.5644	0.	126.79
563	2.02	-0.52168	0.	124.44
564	1.5115	-0.51679	0.	127.76
565	5.4809	-1.5327	0.	120.94
566	-4.0132	-1.5214	0.	124.05
567	-3.517	-1.5248	0.	125.83
568	-2.4986	-4.9999	0.	130.44
569	-1.5172	-3.5048	0.	129.69
570	-1.0142	-7.4807	0.	124.95
571	-2.3973	-6.4319	0.	128.55
572	0.56669	-6.9774	0.	119.8
573	1.9483	-5.5331	0.	124.9
574	4.8493	1.6584	0.	124.41
575	5.9997	-5.5021	0.	131.15
576	0.49842	6.5005	0.	126.23
577	0.49882	7.0004	0.	125.03
578	-1.5004	-2.7012e-003	0.	123.16
579	-7.0088	4.5322	0.	126.49
580	-2.9976	5.4385	0.	130.92
581	-2.9867	7.1969	0.	128.09
582	-2.9753	6.7659	0.	130.65
583	4.9987	5.5028	0.	131.44
584	-2.4996	3.4966	0.	128.54
585	-0.50567	-4.0001	0.	124.43
586	5.9558	3.5128	0.	121.6
587	4.	7.5	0.	124.13
588	-1.5599	-7.9669	0.	128.33
589	-1.0228	-7.9792	0.	126.
590	-0.49141	-7.9815	0.	124.06
591	0.57049	-7.96	0.	125.07
592	7.9535	2.9942	0.	126.62
593	7.9733	3.4991	0.	126.91
594	7.9998	6.0002	0.	128.74
595	-2.4891	7.6067	0.	127.59
596	-2.5043	-0.50655	0.	125.05
597	-2.9918	8.0901	0.	125.6
598	-2.488	8.0735	0.	125.84
599	7.8451	-1.4673	0.	115.85
600	7.9098	-1.9709	0.	121.17
601	7.9544	-2.4844	0.	122.76
602	7.979	-2.9932	0.	123.47
603	7.9918	-3.4979	0.	123.59
604	7.9997	-4.5006	0.	122.2
605	8.0001	-5.0006	0.	120.51
606	8.0001	-5.5004	0.	118.14
607	8.	-6.0003	0.	115.24
608	2.4999	7.	0.	120.09
609	2.4999	7.5	0.	121.4
610	2.5	8.	0.	121.49
611	3.	8.	0.	120.35
612	3.5	8.	0.	121.4
613	4.	8.	0.	123.93
614	4.5	8.	0.	126.69
615	-7.6089	6.0234	0.	123.5
616	-8.0094	-4.9979	0.	115.52
617	-8.0083	-4.4978	0.	118.41
618	-8.0072	-3.998	0.	120.72
619	-8.0064	-3.4982	0.	122.54
620	-8.0061	-2.9982	0.	124.14
621	-8.0036	-2.4988	0.	125.86
622	-8.0001	-0.49966	0.	129.21
623	-8.	7.9881e-004	0.	129.66
624	-7.9998	2.5105	0.	128.83
625	-8.	3.015	0.	128.36
626	-8.0005	3.5201	0.	127.75
627	-8.0032	4.0251	0.	126.84
628	-8.01	4.5299	0.	126.01
629	-8.0233	5.0354	0.	125.84
630	-8.0449	5.5455	0.	127.41
631	-3.5021	8.0872	0.	125.93
632	-6.1032	-6.3287	0.	130.18
633	-4.0742	-8.1453	0.	113.41
634	-4.5497	-8.0818	0.	118.93
635	6.4097	-1.6948	0.	128.06
636	5.8476	2.0143	0.	116.33
637	7.3524	2.0572	0.	128.86
638	8.0532	1.48	0.	122.76
639	2.056	-8.0477	0.	126.77
640	5.9968	-4.0133	0.	128.86
641	-8.	0.50135	0.	129.19
642	-7.9998	2.007	0.	129.62
643	-6.5072	-1.9984	0.	117.61
644	-8.002	-1.9992	0.	127.92
645	6.4735	4.0101	0.	116.65
646	7.9993	5.5003	0.	128.18
647	7.9855	4.0004	0.	127.9
648	6.5	8.	0.	118.97
649	8.	8.	0.	127.99
650	-0.50491	7.0039	0.	123.01
651	-2.0078	7.0644	0.	130.19
652	5.9928	-7.9997	0.	132.61
653	5.9994	-6.0016	0.	132.64
654	1.5498e-002	1.496	0.	129.59
655	9.2479e-003	-2.5857e-003	0.	131.87
656	-1.4982	2.9985	0.	125.37
657	5.3683e-003	2.9972	0.	133.93
658	-7.0009	3.0129	0.	127.47
659	-3.	4.4797	0.	130.11
660	-7.517	-4.994	0.	118.
661	-6.0518	-4.9599	0.	130.31
662	0.99896	5.5003	0.	129.45
663	3.5	7.	0.	118.65
664	4.5	7.5001	0.	128.12
665	1.0058	3.0004	0.	132.99
666	5.4624	3.5124	0.	125.19
667	4.9457	3.0272	0.	127.12
668	0.99898	-2.5016	0.	127.68
669	1.0041	-1.0069	0.	131.09
670	2.4718	-5.0088	0.	118.94
671	2.4862	-4.5047	0.	122.33
672	2.4932	-4.0025	0.	122.93
673	3.5101	-1.0672	0.	122.05
674	4.9438	-0.99942	0.	126.87
675	4.9895	-2.5142	0.	123.12
676	5.495	-3.5134	0.	126.48
677	-6.5008	2.5066	0.	122.66
678	-4.5002	2.9999	0.	113.42
679	-3.0099	-1.0136	0.	127.55
680	-1.979	-5.4772	0.	129.46
681	-2.0224	-4.0075	0.	131.85
682	0.49791	-3.0009	0.	126.68
683	0.49775	-3.5006	0.	126.75
684	0.49744	-4.0004	0.	125.73
685	-0.48402	-6.9895	0.	119.84
686	-1.9393	-6.9139	0.	129.
687	6.8311	-1.6397	0.	131.08
688	7.2641	-1.4045	0.	128.86
689	-1.957	-5.9613	0.	129.87
690	-1.9375	-6.441	0.	129.91
691	-1.4873	-6.9627	0.	128.51
692	-0.99203	-6.9829	0.	124.53
693	1.976	-5.0132	0.	125.63
694	1.9885	-4.506	0.	128.14
695	0.9972	-4.0009	0.	131.04
696	-1.0088	-4.0001	0.	128.59
697	-1.5143	-4.0019	0.	132.08
698	-2.0126	-4.5015	0.	132.75
699	-1.9979	-4.9909	0.	131.64
700	-4.0063	-1.0111	0.	122.85
701	-3.5086	-1.0136	0.	127.2
702	-5.5006	3.0019	0.	117.3
703	4.4981	-4.002	0.	121.8
704	4.9939	-3.0103	0.	125.05
705	4.9862	-2.0178	0.	124.45
706	4.9848	-1.5169	0.	125.39
707	4.0145	-0.99073	0.	127.5
708	0.9987	-3.0012	0.	129.35
709	0.99817	-3.501	0.	130.95
710	1.9944	-4.0029	0.	129.16
711	2.0167	-1.0116	0.	125.68
712	1.509	-1.0105	0.	130.18
713	0.99996	-2.0029	0.	129.66
714	3.9675	3.0506	0.	125.28
715	4.4558	3.0433	0.	128.88
716	4.9691	3.519	0.	129.33
717	4.984	4.0129	0.	130.53
718	1.0004	3.9998	0.	132.76
719	1.0022	3.501	0.	133.94
720	1.5038	3.0051	0.	131.13
721	1.9993	3.0143	0.	125.72
722	4.9996	6.0015	0.	132.98
723	4.9999	6.5008	0.	133.
724	4.5	7.0002	0.	130.1
725	4.	7.0001	0.	124.48
726	1.9999	7.	0.	127.38
727	0.99919	6.5002	0.	130.55
728	0.99906	6.0002	0.	129.96
729	-6.1137	-5.8877	0.	132.72
730	-6.0751	-5.4321	0.	132.53
731	-6.5412	-4.9702	0.	128.84
732	-7.0297	-4.9838	0.	123.66
733	-2.9907	5.8946	0.	131.78
734	-2.9809	6.3345	0.	132.14
735	-3.5002	2.9981	0.	134.34
736	-3.	3.4947	0.	132.48
737	-3.0002	3.9884	0.	131.11
738	-7.0016	3.5177	0.	128.79
739	-6.5012	3.0091	0.	126.22
740	-6.001	3.0047	0.	122.43
741	9.0077e-003	2.4964	0.	134.22
742	-0.99712	2.9983	0.	129.41
743	-0.99854	-1.4904e-003	0.	127.74
744	-0.49527	-1.4509e-003	0.	131.66
745	-3.5988	-8.1941	0.	123.18
746	-3.1346	-8.1919	0.	132.85
747	-2.6793	-7.9771	0.	133.86
748	-2.9076	-5.9748	0.	130.62
749	-3.4998	-5.085	0.	124.2
750	6.9998	-6.001	0.	123.79
751	6.4995	-6.0015	0.	129.65
752	5.9986	-6.5011	0.	132.88
753	0.9993	7.0001	0.	130.19
754	1.4996	7.	0.	132.74
755	1.9999	7.5	0.	126.98
756	2.	8.	0.	125.13
757	-1.9894	8.0468	0.	127.67
758	-1.9933	7.5605	0.	129.89
759	-1.5114	7.0247	0.	129.96
760	-1.0094	7.0103	0.	126.64
761	6.	8.	0.	122.56
762	5.5	8.	0.	127.67
763	5.	7.0004	0.	132.45
764	8.	7.5	0.	129.17
765	7.5	8.	0.	126.88
766	7.	8.	0.	122.05
767	7.4801	4.0058	0.	125.74
768	7.9975	5.0005	0.	128.63
769	4.9962	5.0054	0.	131.85
770	4.9918	4.5086	0.	131.06
771	5.479	4.0106	0.	126.71
772	5.9751	4.01	0.	120.72
773	-5.5132	-2.0065	0.	124.52
774	-8.0003	-0.99968	0.	129.61
775	-8.0009	-1.4995	0.	129.46
776	-7.0051	-1.9984	0.	121.32
777	-7.0004	2.0058	0.	122.07
778	-7.5001	2.0067	0.	127.74
779	-7.9999	1.0025	0.	129.79
780	3.9969	-4.0007	0.	121.43
781	3.4947	-4.0008	0.	121.4
782	2.9875	-4.5008	0.	121.56
783	2.9765	-5.0005	0.	119.56
784	5.9997	-5.0042	0.	130.98
785	5.9989	-4.5083	0.	130.59
786	5.4976	-4.0089	0.	128.94
787	4.9981	-4.0047	0.	125.24
788	4.9772	-8.0003	0.	123.29
789	5.9937	-7.5005	0.	132.66
790	5.9967	-7.0009	0.	132.99
791	7.229	1.6279	0.	130.74
792	6.848	2.0814	0.	130.03
793	6.352	2.0642	0.	124.18
794	5.965	-1.6144	0.	122.74
795	6.5348	-1.3292	0.	133.53
796	6.8076	-1.0664	0.	139.74
797	4.354	1.5692	0.	129.84
798	3.9554	1.298	0.	130.11
799	3.7701	0.20835	0.	123.37
800	7.1281	1.2309	0.	131.93
801	7.2722	0.85136	0.	127.13
802	-5.5121	-8.0279	0.	133.88
803	-5.3552	-6.0093	0.	132.66
804	-6.016	-6.7245	0.	128.54
805	-3.9993	8.076	0.	127.67
806	-4.1738	6.4743	0.	124.38
807	-3.5205	7.6308	0.	125.34
808	-3.4157	6.7718	0.	131.21
809	-3.467	7.1947	0.	126.41
810	-6.9741	8.7176	0.	118.65
811	-7.4745	8.5921	0.	119.73
812	-8.0145	8.4482	0.	130.3
813	-8.0671	6.0712	0.	130.56
814	8.4432	1.9414	0.	125.8
815	8.4453	2.4672	0.	126.77
816	8.4617	2.983	0.	127.25
817	8.4777	3.4916	0.	127.65
818	8.488	3.9958	0.	128.02
819	8.4976	4.9993	0.	127.56
820	8.4992	5.4997	0.	127.1
821	8.4998	5.9999	0.	126.91
822	8.4999	6.5	0.	127.04
823	8.5	7.	0.	127.38
824	8.5	7.5	0.	127.67
825	8.5	8.	0.	127.26
826	-6.0055	-8.0237	0.	134.25
827	5.994	-8.4995	0.	131.71
828	5.4902	-8.4994	0.	128.99
829	4.9839	-8.5008	0.	125.78
830	4.4788	-8.5047	0.	124.17
831	3.9758	-8.5166	0.	124.89
832	3.4743	-8.5356	0.	123.64
833	2.9814	-8.5464	0.	119.95
834	2.4988	-8.552	0.	119.11
835	2.0212	-8.5254	0.	123.64
836	1.5438	-8.4924	0.	126.84
837	0.54187	-8.4672	0.	126.09
838	2.5302e-002	-8.4756	0.	125.39
839	-0.49527	-8.4812	0.	125.79
840	-1.0183	-8.4808	0.	127.11
841	-1.5429	-8.4767	0.	128.86
842	-2.0665	-8.4813	0.	130.64
843	-3.0713	-8.6016	0.	129.45
844	-3.566	-8.6245	0.	123.77
845	-4.0556	-8.6034	0.	119.36
846	-4.5419	-8.5672	0.	121.1
847	-5.0277	-8.5388	0.	127.08
848	-5.5167	-8.5249	0.	131.43
849	-6.01	-8.5171	0.	133.63
850	8.3908	-1.4902	0.	123.84
851	8.4314	-1.9777	0.	123.79
852	8.4595	-2.4821	0.	124.24
853	8.4793	-2.9886	0.	124.43
854	8.4909	-3.4938	0.	124.37
855	8.4969	-3.9971	0.	123.94
856	8.4992	-4.4988	0.	123.03
857	8.4999	-4.9996	0.	121.64
858	8.5	-5.4999	0.	119.81
859	8.5	-6.	0.	117.75
860	2.	8.5	0.	123.12
861	2.5	8.5	0.	121.66
862	3.	8.5	0.	121.28
863	4.	8.5	0.	123.85
864	4.5	8.5	0.	125.5
865	5.	8.5	0.	126.32
866	7.5	8.5	0.	125.2
867	8.	8.5	0.	126.42
868	8.5	8.5	0.	126.42
869	-5.0628	8.1836	0.	116.63
870	-4.5027	8.5385	0.	124.12
871	-3.9995	8.5465	0.	126.67
872	-3.4977	8.5589	0.	126.21
873	-2.4881	8.549	0.	124.9
874	-1.9898	8.5333	0.	125.19
875	-8.5054	-4.9992	0.	117.84
876	-8.504	-3.9991	0.	122.15
877	-8.5037	-3.4991	0.	123.85
878	-8.5037	-2.999	0.	125.33
879	-8.5022	-2.4993	0.	126.72
880	-8.5013	-1.9995	0.	127.92
881	-8.4998	1.0027	0.	128.88
882	-8.4997	1.5046	0.	129.48
883	-8.4996	2.0069	0.	129.52
884	-8.4995	2.5098	0.	129.16
885	-8.4995	3.0134	0.	128.66
886	-8.5002	3.5173	0.	128.07
887	-8.5035	4.0205	0.	127.49
888	-8.5172	5.0324	0.	127.88
889	-8.5304	5.5425	0.	129.81
890	-8.5406	6.0598	0.	133.65
891	-8.4583	8.1051	0.	134.17
892	-8.5182	8.5439	0.	131.22
893	1.0906	-6.9564	0.	125.66
894	4.4628	-8.0023	0.	120.78
895	3.4439	-8.0611	0.	129.43
896	-6.5006	2.0044	0.	118.17
897	-6.0008	2.504	0.	122.23
898	-4.5051	-1.0087	0.	120.07
899	-5.0085	-1.5113	0.	125.55
900	-2.5019	-4.2387e-003	0.	123.18
901	-3.0049	-0.50839	0.	128.33
902	8.465	1.373	0.	124.81
903	-3.8153	6.7645	0.	131.82
904	-3.9297	7.1054	0.	123.58
905	-4.087	7.5757	0.	123.87
906	-5.5835	-6.613	0.	128.29
907	-5.4952	-7.0483	0.	128.5
908	-8.5413	6.5811	0.	138.22
909	-8.6427	7.5553	0.	129.14
910	-8.5537	7.0869	0.	128.43
911	7.8553	1.0382	0.	115.43
912	8.2113	0.89048	0.	121.55
913	-3.0018	-4.0822e-003	0.	128.35
914	-5.0038	-1.0059	0.	124.24
915	-6.0006	2.0028	0.	121.
916	3.9501	-8.0159	0.	126.03
917	-6.0112	8.4367	0.	139.91
918	4.0819	0.88481	0.	128.7
919	6.069	-1.1762	0.	123.07
920	6.7879	1.622	0.	139.93
921	2.9448	-8.0662	0.	116.62
922	5.4886	-7.5008	0.	132.3
923	5.4989	-4.5054	0.	133.3
924	-7.5	1.504	0.	130.76
925	-7.5016	-1.4993	0.	130.67
926	-5.5065	-1.5049	0.	128.77
927	5.4897	4.5074	0.	130.14
928	7.4898	4.5025	0.	129.46
929	7.5	7.5	0.	130.77
930	5.5	7.5001	0.	132.4
931	-9.0023	-4.4996	0.	124.27
932	-9.0021	-3.9996	0.	125.04
933	-9.0007	-1.9997	0.	127.92
934	-9.0003	-1.4998	0.	128.08
935	-9.0001	-0.9998	0.	127.9
936	-9.	-0.4996	0.	127.63
937	-9.	7.172e-004	0.	127.57
938	-8.9999	0.50131	0.	127.83
939	-8.9998	1.0024	0.	128.36
940	-8.9997	1.5037	0.	128.89
941	-8.9995	2.0054	0.	129.16
942	-8.9994	2.5074	0.	129.13
943	-9.0005	3.5121	0.	128.53
944	-9.0021	4.0151	0.	128.21
945	-9.0115	5.0227	0.	128.61
946	-9.0238	6.0351	0.	131.05
947	-9.0297	6.5367	0.	129.86
948	-9.0703	7.4891	0.	125.99
949	-8.9433	7.9652	0.	130.3
950	-8.9955	8.4994	0.	129.12
951	-9.0033	9.0043	0.	127.31
952	-8.5051	9.0112	0.	128.02
953	-8.0044	9.0015	0.	126.16
954	-7.5038	9.0553	0.	122.07
955	-7.0007	9.1296	0.	121.22
956	-4.4837	9.0437	0.	123.8
957	-3.9917	9.0342	0.	125.68
958	-3.4925	9.0373	0.	125.92
959	-2.991	9.0355	0.	125.52
960	-2.4905	9.0302	0.	125.23
961	-1.9919	9.0212	0.	126.27
962	-1.5005	7.5278	0.	133.54
963	1.4998	7.5	0.	133.85
964	2.	9.	0.	124.53
965	2.5	9.	0.	122.74
966	3.	9.	0.	122.59
967	3.5	9.	0.	123.11
968	4.	9.	0.	123.95
969	4.5	9.	0.	124.73
970	5.	9.	0.	125.
971	5.5	9.	0.	124.53
972	6.	9.	0.	123.59
973	6.5	9.	0.	123.08
974	7.	9.	0.	123.56
975	7.5	9.	0.	124.59
976	8.	9.	0.	125.34
977	9.	9.	0.	125.43
978	9.	8.5	0.	125.92
979	9.	8.	0.	126.31
980	9.	7.	0.	126.21
981	8.9999	6.4999	0.	125.96
982	8.9997	5.9997	0.	125.96
983	8.9991	5.4993	0.	126.29
984	8.9978	4.9983	0.	126.9
985	8.9909	3.9944	0.	127.88
986	8.982	3.49	0.	127.97
987	8.9722	2.9849	0.	127.89
988	8.9637	2.4767	0.	127.69
989	8.9643	1.9636	0.	127.62
990	8.9876	1.4519	0.	128.8
991	9.0415	0.95101	0.	131.38
992	9.0682	0.45811	0.	131.25
993	9.1034	-2.4669e-002	0.	127.27
994	9.1358	-0.50251	0.	128.91
995	9.1333	-0.97111	0.	134.46
996	8.9537	-1.4525	0.	133.14
997	8.958	-1.9737	0.	128.17
998	8.9717	-2.4826	0.	126.77
999	8.9835	-2.9885	0.	126.23
1000	8.9919	-3.4929	0.	125.91
1001	8.9966	-3.9961	0.	125.52
1002	8.9986	-4.4979	0.	125.01
1003	8.9997	-4.9991	0.	124.39
1004	8.9999	-5.4996	0.	123.91
1005	9.	-5.9999	0.	124.02
1006	6.499	-6.5011	0.	133.66
1007	-3.44	-5.548	0.	132.67
1008	-6.4373	8.4157	0.	143.06
1009	-0.4927	0.49862	0.	135.38
1010	-0.49418	2.4975	0.	137.16
1011	-6.5017	3.5121	0.	130.71
1012	-3.5004	3.4959	0.	135.07
1013	-3.4266	6.3416	0.	135.55
1014	-9.0029	-4.9997	0.	124.01
1015	5.9961	-8.9995	0.	132.78
1016	5.4942	-8.9995	0.	130.22
1017	4.992	-9.0008	0.	127.61
1018	4.4903	-9.0044	0.	125.63
1019	3.9894	-9.0119	0.	124.3
1020	3.4899	-9.0219	0.	122.6
1021	2.9931	-9.0285	0.	120.61
1022	2.4996	-9.029	0.	120.69
1023	2.0078	-9.0141	0.	122.85
1024	1.5165	-8.995	0.	125.15
1025	1.022	-8.9804	0.	126.23
1026	0.52119	-8.9781	0.	126.38
1027	1.417e-002	-8.9815	0.	126.45
1028	-0.49728	-8.9847	0.	126.94
1029	-1.0106	-8.9855	0.	127.9
1030	-1.523	-8.9866	0.	129.07
1031	-2.0323	-8.9956	0.	129.95
1032	-3.037	-9.0578	0.	127.88
1033	-4.0348	-9.0658	0.	122.31
1034	-4.529	-9.0466	0.	123.26
1035	-5.0214	-9.0296	0.	126.61
1036	-5.5145	-9.0185	0.	129.94
1037	-6.0094	-9.0115	0.	131.49
1038	-6.5058	-9.006	0.	129.89
1039	-7.0035	-9.0027	0.	123.75
1040	-7.502	-9.001	0.	117.05
1041	-8.0011	-9.0003	0.	114.09
1042	-8.5005	-9.0001	0.	116.44
1043	-9.0002	-9.	0.	123.08
1044	-6.5057	-8.5082	0.	134.51
1045	-6.5511	-5.4569	0.	133.16
1046	1.4996	6.5	0.	134.97
1047	4.4999	6.5005	0.	133.91
1048	1.5007	3.5033	0.	135.43
1049	4.4761	3.5257	0.	133.6
1050	1.5042	-1.5058	0.	134.22
1051	1.4981	-3.5013	0.	135.75
1052	4.4894	-1.543	0.	132.12
1053	-5.5005	2.5018	0.	122.9
1054	-3.5001	2.4991	0.	139.59
1055	-3.504	-0.50711	0.	131.58
1056	-1.5075	-4.4982	0.	135.79
1057	1.4925	-4.5027	0.	135.63
1058	-1.468	-6.4675	0.	132.54
1059	1.4607	-6.4001	0.	138.74
1060	6.912	-0.61836	0.	141.08
1061	8.7579	-0.99044	0.	145.24
1062	8.5903	0.41081	0.	135.95
1063	8.7312	-0.53316	0.	127.83
1064	8.6573	-6.2965e-002	0.	137.16
1065	8.3314	-1.0339	0.	121.21
1066	7.3522	-0.87147	0.	141.86
1067	7.8428	-0.98548	0.	106.39
1068	7.0368	-0.15166	0.	127.27
1069	7.6101	0.62114	0.	121.69
1070	7.28	0.26669	0.	142.48
1071	1.0126	-6.4697	0.	126.04
1072	0.52265	-6.4891	0.	117.09
1073	1.7739e-002	-6.4934	0.	118.1
1074	-0.98359	-6.4874	0.	125.72
1075	-0.48667	-6.4938	0.	117.44
1076	0.99583	-4.5006	0.	131.57
1077	0.49737	-4.5002	0.	122.71
1078	-2.4887e-003	-4.5	0.	122.76
1079	-0.50337	-4.4999	0.	121.46
1080	-1.0049	-4.4994	0.	130.33
1081	-3.5013	-3.2491e-003	0.	132.79
1082	-3.5003	0.49873	0.	138.91
1083	-5.5004	2.0014	0.	125.48
1084	-5.5002	1.5008	0.	132.12
1085	4.4969	-3.0035	0.	127.95
1086	4.495	-2.5066	0.	128.02
1087	4.4925	-2.0225	0.	128.88
1088	3.9975	-3.5012	0.	123.82
1089	3.4972	-3.5008	0.	117.87
1090	2.9968	-3.501	0.	120.17
1091	1.9977	-3.5012	0.	130.01
1092	2.4971	-3.5011	0.	120.38
1093	3.9986	-1.5148	0.	127.81
1094	3.5064	-1.5262	0.	119.01
1095	3.0068	-1.5245	0.	119.98
1096	2.5074	-1.5117	0.	119.07
1097	2.0068	-1.5066	0.	127.87
1098	1.4992	-3.0011	0.	133.35
1099	1.5008	-2.0029	0.	132.77
1100	1.4997	-2.5015	0.	132.15
1101	3.9829	3.5259	0.	127.14
1102	3.4879	3.5246	0.	116.24
1103	2.9914	3.5201	0.	116.47
1104	1.9983	3.5078	0.	127.56
1105	2.4951	3.5139	0.	116.38
1106	3.9999	6.5001	0.	126.05
1107	3.5	6.5	0.	115.14
1108	3.	6.5	0.	115.41
1109	2.4999	6.5	0.	116.26
1110	1.9998	6.5	0.	128.5
1111	-6.5022	-8.0086	0.	133.68
1112	-6.4919	-7.5023	0.	134.97
1113	-6.4465	-6.9647	0.	133.91
1114	-6.5345	-6.4419	0.	134.02
1115	-7.003	-8.5026	0.	126.14
1116	-9.0001	-8.5	0.	125.05
1117	-8.5004	-8.5001	0.	113.83
1118	-8.0008	-8.5002	0.	113.61
1119	-7.5015	-8.5007	0.	114.13
1120	-9.0019	-5.4999	0.	125.58
1121	-8.5038	-5.4996	0.	114.5
1122	-7.0274	-5.4849	0.	125.22
1123	-7.513	-5.496	0.	114.45
1124	-8.007	-5.4987	0.	114.19
1125	1.4364	-5.9599	0.	140.66
1126	1.4713	-5.4972	0.	135.58
1127	1.4863	-5.0028	0.	133.8
1128	-1.4776	-5.9769	0.	132.43
1129	-1.4986	-4.9925	0.	133.99
1130	-1.4886	-5.4854	0.	133.15
1131	-4.003	-0.50531	0.	123.7
1132	-5.0013	-0.50249	0.	123.94
1133	-4.5021	-0.50396	0.	112.03
1134	-4.0002	2.4996	0.	123.91
1135	-4.5002	2.5	0.	107.9
1136	-5.0003	2.5005	0.	115.84
1137	4.4996	6.0012	0.	133.18
1138	4.4891	4.0136	0.	132.86
1139	4.4949	4.5072	0.	135.93
1140	4.4976	5.004	0.	137.09
1141	4.4989	5.5024	0.	135.3
1142	1.5001	4.0019	0.	134.45
1143	1.4999	4.5008	0.	135.76
1144	1.4996	6.0001	0.	133.06
1145	1.4996	5.5001	0.	135.45
1146	1.4996	5.0004	0.	137.05
1147	-3.8431	6.3584	0.	135.77
1148	-3.4825	5.9119	0.	134.09
1149	-3.4987	5.4551	0.	136.56
1150	-3.5006	4.9755	0.	137.03
1151	-3.5005	3.9922	0.	133.04
1152	-4.0004	3.4988	0.	125.73
1153	-4.5002	3.4998	0.	112.46
1154	-5.0002	3.5004	0.	112.18
1155	-6.0011	3.5043	0.	123.44
1156	-5.5004	3.5013	0.	112.82
1157	-6.3333	6.0766	0.	153.18
1158	-6.5387	5.614	0.	133.09
1159	-6.515	5.05	0.	133.67
1160	-6.506	4.5265	0.	131.65
1161	-0.49227	0.99842	0.	134.03
1162	-0.49234	1.4979	0.	133.78
1163	-0.99712	0.49908	0.	129.55
1164	-1.4993	0.49868	0.	120.42
1165	-2.0003	0.49848	0.	121.02
1166	-2.5007	0.49798	0.	120.39
1167	-3.5	0.99955	0.	140.25
1168	-3.5	1.9996	0.	136.11
1169	-3.5	1.4997	0.	138.02
1170	-2.4998	2.4995	0.	124.43
1171	-1.9994	2.4995	0.	124.17
1172	-0.99699	2.4987	0.	131.14
1173	-1.4986	2.4993	0.	122.65
1174	-8.2251	7.7042	0.	138.39
1175	-7.7981	7.9534	0.	129.01
1176	-6.8873	8.3326	0.	109.87
1177	-7.3493	8.1638	0.	120.61
1178	-6.2078	7.0601	0.	138.84
1179	-8.0634	6.6373	0.	135.44
1180	-7.6187	6.5128	0.	121.02
1181	-7.193	6.3818	0.	117.64
1182	-6.7727	6.13	0.	123.19
1183	-4.0813	-7.69	0.	107.77
1184	-4.5463	-7.5853	0.	115.52
1185	-5.1691	-6.4134	0.	132.43
1186	-4.7989	-6.1043	0.	127.46
1187	-3.9264	-5.6346	0.	107.64
1188	-4.3808	-5.8408	0.	117.56
1189	-3.1585	-7.3911	0.	130.83
1190	-3.2333	-6.9296	0.	135.32
1191	-3.3147	-6.4585	0.	130.96
1192	-3.3811	-5.998	0.	133.47
1193	6.498	-8.9997	0.	133.99
1194	6.4971	-8.4998	0.	135.85
1195	6.4967	-8.	0.	137.85
1196	6.4982	-7.0007	0.	133.42
1197	6.497	-7.5004	0.	136.35
1198	6.9995	-6.5006	0.	125.74
1199	7.4999	-6.5003	0.	114.24
1200	8.	-6.5001	0.	114.13
1201	9.	-6.4999	0.	126.17
1202	8.5	-6.5	0.	114.6
1203	1.5	9.	0.	129.18
1204	1.5	8.	0.	130.76
1205	1.5	8.5	0.	129.57
1206	0.99976	7.5001	0.	130.44
1207	0.49944	7.5003	0.	121.94
1208	-1.1451e-003	7.5009	0.	122.39
1209	-1.003	7.5092	0.	128.26
1210	-0.50192	7.5026	0.	120.76
1211	-1.495	8.0229	0.	131.81
1212	-1.4951	9.0109	0.	129.9
1213	-1.4944	8.5168	0.	130.6
1214	6.	7.5	0.	123.56
1215	7.	7.5	0.	122.66
1216	6.5	7.5	0.	111.33
1217	7.5	7.0001	0.	130.28
1218	7.4999	6.5001	0.	132.45
1219	7.4967	5.0008	0.	129.35
1220	7.4993	5.5004	0.	131.71
1221	6.988	4.5037	0.	119.9
1222	5.9885	4.5057	0.	121.32
1223	6.488	4.5049	0.	108.93
1224	5.5	7.0002	0.	132.64
1225	5.4999	6.5004	0.	135.1
1226	5.4998	6.0008	0.	135.92
1227	5.4991	5.5019	0.	133.4
1228	5.4965	5.0043	0.	130.01
1229	-5.5001	1.0003	0.	134.84
1230	-5.5	0.50002	0.	137.27
1231	-5.5001	-4.1552e-004	0.	136.81
1232	-5.5024	-1.0029	0.	130.15
1233	-5.5007	-0.50138	0.	135.39
1234	-6.0047	-1.5008	0.	121.16
1235	-7.0024	-1.4992	0.	122.59
1236	-6.5034	-1.4994	0.	110.64
1237	-7.5005	-0.99955	0.	130.45
1238	-7.5001	-0.49966	0.	133.03
1239	-7.5001	5.5358e-004	0.	134.43
1240	-7.5	1.0021	0.	130.31
1241	-7.5	0.50114	0.	132.43
1242	-6.0003	1.5015	0.	121.4
1243	-6.5003	1.5022	0.	109.72
1244	-7.0002	1.503	0.	121.29
1245	3.4868	-4.9999	0.	126.24
1246	3.4768	-5.5004	0.	130.62
1247	3.9957	-4.5006	0.	122.25
1248	4.9988	-4.5027	0.	125.08
1249	4.498	-4.5012	0.	113.21
1250	5.4994	-5.0035	0.	133.36
1251	5.4997	-5.502	0.	135.39
1252	5.4995	-6.0012	0.	137.18
1253	5.496	-7.001	0.	132.12
1254	5.4989	-6.5008	0.	135.11
1255	4.9789	-7.5008	0.	121.92
1256	3.8958	-7.4895	0.	129.14
1257	4.4555	-7.5003	0.	111.48
1258	-5.5502	8.3499	0.	113.21
1259	-4.3305	6.8356	0.	128.52
1260	-4.7142	6.5413	0.	112.82
1261	-5.6887	6.3166	0.	109.67
1262	-5.1751	6.4149	0.	108.46
1263	-6.1745	6.5414	0.	146.15
1264	-6.2086	8.0452	0.	138.58
1265	-6.2092	7.5531	0.	134.8
1266	4.2389	0.44109	0.	121.06
1267	4.526	5.4655e-002	0.	138.74
1268	4.8655	-0.29156	0.	122.97
1269	5.2243	-0.59653	0.	122.47
1270	5.5159	-0.9923	0.	114.71
1271	4.5017	1.0919	0.	138.54
1272	4.9505	1.2453	0.	117.54
1273	6.3305	1.5997	0.	125.7
1274	5.8638	1.524	0.	112.72
1275	5.4003	1.4128	0.	115.72
1276	6.316	-0.7973	0.	138.25
1277	6.4725	-0.36054	0.	126.49
1278	6.6119	0.10746	0.	137.01
1279	6.8005	0.61484	0.	139.18
1280	2.2924	-7.6172	0.	122.84
1281	1.6246	-6.8897	0.	129.65
1282	1.738	-7.4624	0.	134.43
1283	3.4604	-6.0063	0.	149.62
1284	2.9178	-5.967	0.	104.9
1285	2.4067	-6.0126	0.	112.39
1286	-9.5001	-9.	0.	130.26
1287	-9.5001	-8.5	0.	134.05
1288	-9.5	-8.	0.	134.41
1289	-9.5	-7.5	0.	136.44
1290	-9.5	-7.	0.	138.
1291	-9.5	-6.5	0.	136.48
1292	-9.5002	-6.	0.	134.56
1293	-9.5008	-5.5	0.	134.24
1294	-9.5014	-4.9999	0.	130.49
1295	-9.5011	-4.4999	0.	129.08
1296	-9.5009	-3.9998	0.	128.48
1297	-9.5007	-3.4999	0.	128.21
1298	-9.5006	-2.9999	0.	128.15
1299	-9.5004	-2.4999	0.	128.14
1300	-9.5003	-1.9999	0.	128.04
1301	-9.5002	-1.4999	0.	127.79
1302	-9.5001	-0.99984	0.	127.43
1303	-9.5	-0.49971	0.	127.13
1304	-9.5	5.0187e-004	0.	127.06
1305	-9.4999	0.50082	0.	127.33
1306	-9.4998	1.0014	0.	127.85
1307	-9.4998	1.5021	0.	128.46
1308	-9.4997	2.003	0.	128.94
1309	-9.4996	2.504	0.	129.19
1310	-9.4996	3.0052	0.	129.22
1311	-9.5	3.5065	0.	129.08
1312	-9.501	4.0079	0.	128.89
1313	-9.5029	4.5094	0.	128.72
1314	-9.5053	5.0116	0.	128.61
1315	-9.5081	5.5137	0.	128.43
1316	-9.5116	6.0148	0.	127.78
1317	-9.5161	6.5133	0.	126.24
1318	-9.5223	7.0076	0.	124.01
1319	-9.5207	7.5016	0.	123.74
1320	-9.4879	7.9953	0.	124.88
1321	-9.4938	8.4955	0.	125.68
1322	-9.5002	8.9993	0.	125.52
1323	-9.501	9.5003	0.	125.14
1324	-9.0022	9.5023	0.	125.5
1325	-8.5026	9.5044	0.	125.31
1326	-8.0044	9.5068	0.	124.14
1327	-7.5057	9.5285	0.	122.49
1328	-7.0051	9.5646	0.	121.95
1329	-6.5006	9.5885	0.	122.72
1330	-5.9931	9.5916	0.	123.05
1331	-5.489	9.5781	0.	122.51
1332	-4.9849	9.5467	0.	122.62
1333	-4.4881	9.5263	0.	123.81
1334	-3.9934	9.5188	0.	125.14
1335	-3.4943	9.5185	0.	126.04
1336	-2.9945	9.5171	0.	126.6
1337	-2.4946	9.5145	0.	127.08
1338	-1.9953	9.5104	0.	127.99
1339	-1.4968	9.5056	0.	131.04
1340	-0.9985	9.5013	0.	128.76
1341	-0.49953	9.5002	0.	122.69
1342	1.4581e-004	9.5	0.	124.19
1343	0.50005	9.5	0.	122.19
1344	1.	9.5	0.	127.3
1345	1.5	9.5	0.	129.47
1346	2.	9.5	0.	125.97
1347	2.5	9.5	0.	124.68
1348	3.	9.5	0.	124.2
1349	3.5	9.5	0.	124.07
1350	4.	9.5	0.	124.15
1351	4.5	9.5	0.	124.25
1352	5.	9.5	0.	124.22
1353	5.5	9.5	0.	123.97
1354	6.	9.5	0.	123.64
1355	6.5	9.5	0.	123.51
1356	7.	9.5	0.	123.74
1357	7.5	9.5	0.	124.21
1358	8.	9.5	0.	124.66
1359	8.5	9.5	0.	124.93
1360	9.	9.5	0.	125.03
1361	9.5	9.5	0.	125.04
1362	9.5	9.	0.	125.21
1363	9.5	8.5	0.	125.36
1364	9.5	8.	0.	125.41
1365	9.5	7.5	0.	125.29
1366	9.5	7.	0.	125.06
1367	9.4999	6.4999	0.	124.91
1368	9.4997	5.9997	0.	125.02
1369	9.4993	5.4994	0.	125.48
1370	9.4986	4.9983	0.	126.22
1371	9.4975	4.4976	0.	127.07
1372	9.4943	3.9955	0.	127.83
1373	9.4903	3.4937	0.	128.39
1374	9.4857	2.9916	0.	128.75
1375	9.482	2.4889	0.	128.95
1376	9.4837	1.9858	0.	129.11
1377	9.4958	1.4837	0.	129.31
1378	9.5174	0.98351	0.	129.37
1379	9.5346	0.48627	0.	128.46
1380	9.5512	-7.5142e-003	0.	126.46
1381	9.5468	-0.99603	0.	129.59
1382	9.4932	-1.4894	0.	131.
1383	9.4812	-1.9874	0.	130.1
1384	9.4855	-2.4899	0.	128.97
1385	9.4908	-2.9928	0.	128.21
1386	9.4952	-3.4953	0.	127.64
1387	9.4978	-3.9972	0.	127.29
1388	9.4991	-4.4984	0.	127.23
1389	9.4996	-4.9992	0.	127.57
1390	9.4999	-5.4996	0.	128.44
1391	9.5	-5.9998	0.	130.28
1392	9.5	-6.4999	0.	134.56
1393	9.5	-7.	0.	135.26
1394	9.5	-7.5	0.	138.23
1395	9.5	-8.	0.	140.25
1396	9.5	-8.5	0.	139.18
1397	9.5	-9.	0.	138.21
1398	9.5	-9.5	0.	138.33
1399	9.	-9.5	0.	124.75
1400	8.5	-9.5	0.	111.12
1401	8.	-9.5	0.	109.83
1402	7.4999	-9.5	0.	111.05
1403	6.9996	-9.4999	0.	124.42
1404	6.4989	-9.4998	0.	135.
1405	5.9981	-9.4997	0.	134.17
1406	5.4974	-9.4998	0.	131.68
1407	4.9968	-9.5006	0.	128.88
1408	4.4964	-9.5026	0.	126.38
1409	3.9963	-9.5062	0.	124.3
1410	3.4965	-9.5105	0.	122.46
1411	2.9976	-9.5136	0.	121.22
1412	2.4994	-9.5126	0.	121.25
1413	2.0021	-9.5064	0.	122.64
1414	1.0079	-9.4914	0.	125.69
1415	0.50855	-9.4893	0.	126.42
1416	6.1884e-003	-9.4902	0.	126.93
1417	-0.49846	-9.4915	0.	127.54
1418	-1.004	-9.4922	0.	128.32
1419	-1.5087	-9.494	0.	129.09
1420	-2.0118	-9.4998	0.	129.45
1421	-2.5136	-9.512	0.	128.92
1422	-3.0151	-9.5267	0.	127.29
1423	-3.517	-9.5335	0.	125.12
1424	-4.0173	-9.5307	0.	123.82
1425	-4.5152	-9.5235	0.	124.46
1426	-5.012	-9.5158	0.	126.64
1427	-5.5085	-9.51	0.	128.83
1428	-6.0057	-9.5061	0.	129.45
1429	-6.5037	-9.5034	0.	127.32
1430	-7.0023	-9.5016	0.	122.77
1431	-7.5014	-9.5007	0.	117.95
1432	-8.0008	-9.5003	0.	115.79
1433	-8.5005	-9.5001	0.	117.64
1434	-9.0002	-9.5	0.	122.74
1435	-9.5001	-9.5	0.	128.92
1436	3.608	-6.4465	0.	134.69
1437	3.396	-7.6321	0.	135.33
1438	3.4511	-7.2568	0.	131.89
1439	3.558	-6.8659	0.	140.81
1440	5.4866	-8.	0.	129.12
1441	-6.5542	-5.9456	0.	132.51
1442	-0.49747	3.4981	0.	130.58
1443	-5.7016	-6.236	0.	132.52
1444	-4.5207	7.9649	0.	128.12
1445	3.8278e-003	-0.50254	0.	130.75
1446	4.9965	-3.5076	0.	126.21
1447	-3.5377	-9.0726	0.	124.59
1448	-4.5113	-1.5189	0.	123.4
1449	0.59005	-7.4687	0.	122.91
1450	2.6728	0.59394	0.	120.81
1451	1.4958	-4.0019	0.	133.85
1452	-3.	2.997	0.	133.4
1453	-2.4995	3.9909	0.	128.22
1454	7.9911	4.5001	0.	128.8
1455	1.655e-002	0.99633	0.	130.85
1456	7.8231e-004	3.999	0.	129.78
1457	6.4659	-2.56	0.	124.9
1458	-5.5473	-3.0015	0.	123.25
1459	7.9973	-3.9999	0.	123.2
1460	2.5241	-1.0172	0.	120.97
1461	-2.8516	-6.4497	0.	128.79
1462	0.51818	1.9949	0.	130.17
1463	2.5003	2.0516	0.	122.4
1464	-9.002	-3.4996	0.	125.9
1465	-3.1608	-7.8001	0.	140.72
1466	5.	8.0001	0.	128.51
1467	5.4741	-2.038	0.	122.26
1468	-2.4996	2.9981	0.	127.81
1469	-3.0377	-2.5385	0.	126.74
1470	7.9261	2.4791	0.	126.62
1471	5.9707	-2.5537	0.	123.84
1472	-4.0798	-4.1777	0.	122.81
1473	1.5089	2.5068	0.	128.39
1474	-4.5051	-5.3595	0.	117.85
1475	-7.1698	5.9808	0.	117.57
1476	-5.0272	-8.0372	0.	128.07
1477	2.4916	3.0276	0.	119.92
1478	-1.0011	-0.50257	0.	127.2
1479	6.998	-4.0094	0.	124.99
1480	-4.5769	-3.1125	0.	124.22
1481	-2.0227	-2.5149	0.	127.6
1482	-2.5223	-2.0208	0.	126.87
1483	-7.0201	-3.4935	0.	122.28
1484	2.4115	-4.4757e-004	0.	121.68
1485	-4.6578	-3.6967	0.	123.73
1486	3.5	8.5	0.	122.21
1487	-8.505	-4.499	0.	120.13
1488	-2.5787	-8.5167	0.	131.54
1489	-2.5198	-4.5143	0.	130.46
1490	-2.4993	4.4825	0.	127.91
1491	-6.5026	4.0167	0.	129.96
1492	6.	8.5	0.	123.22
1493	7.	8.5	0.	123.
1494	-8.5003	-0.99971	0.	128.46
1495	-8.4999	0.50155	0.	128.36
1496	-7.5159	-4.4942	0.	119.73
1497	-0.49334	1.9976	0.	135.31
1498	7.4998	6.0002	0.	133.75
1499	-3.0525	-3.5508	0.	127.31
1500	1.4551e-002	0.49684	0.	132.17
1501	3.8364e-002	-7.9744	0.	123.53
1502	7.	-5.502	0.	123.71
1503	6.3907	2.5406	0.	122.86
1504	7.5002	-5.0019	0.	121.54
1505	5.4886	-3.0214	0.	124.47
1506	-5.4983	-7.5303	0.	137.19
1507	1.5661	0.47992	0.	125.1
1508	0.49817	5.5006	0.	126.86
1509	-4.0005	-5.1889	0.	117.05
1510	-2.9994	4.9642	0.	130.86
1511	1.251e-002	1.996	0.	132.07
1512	-5.0328	-2.5296	0.	124.28
1513	3.9281	2.1187	0.	126.64
1514	-5.0176	-2.0203	0.	125.14
1515	-6.0105	-2.0004	0.	120.23
1516	0.99967	4.5002	0.	130.98
1517	-1.7083e-003	5.0006	0.	126.23
1518	6.7558	1.146	0.	133.42
1519	-9.0012	-2.4996	0.	127.41
1520	-5.1202	-3.9442	0.	124.28
1521	1.5388	1.4979	0.	125.33
1522	6.9997	-4.5059	0.	124.85
1523	6.9753	4.0096	0.	119.86
1524	3.0783	-0.63103	0.	120.47
1525	3.4573	2.1139	0.	124.05
1526	2.4437	-5.5148	0.	114.32
1527	6.9339	3.0291	0.	123.56
1528	2.4869	-8.0891	0.	116.48
1529	-1.5015	4.9964	0.	125.71
1530	7.5001	-5.5012	0.	119.75
1531	-2.013	-1.5114	0.	126.17
1532	-7.9999	1.5045	0.	130.23
1533	3.4766	3.0497	0.	119.97
1534	-7.5143	-3.9952	0.	121.05
1535	6.962	-2.5368	0.	124.76
1536	-6.5373	-4.4796	0.	125.99
1537	-5.5774	-3.489	0.	123.88
1538	4.4694	-0.65596	0.	128.5
1539	-9.0059	4.5181	0.	128.14
1540	1.0973	-7.9553	0.	128.14
1541	0.99919	5.0003	0.	130.5
1542	-3.	2.4989	0.	134.93
1543	-2.1073	-7.955	0.	130.52
1544	-0.50648	-2.0029	0.	126.86
1545	1.0493	-8.47	0.	127.14
1546	0.49842	-2.002	0.	127.97
1547	-2.5375	-9.0181	0.	129.84
1548	7.9999	6.5001	0.	128.42
1549	-2.0641	6.5308	0.	129.3
1550	8.6008	0.88491	0.	129.51
1551	2.7034e-003	3.4981	0.	132.01
1552	-7.0265	-3.9903	0.	122.51
1553	4.4973	-3.5033	0.	127.96
1554	-2.9971	7.6345	0.	126.31
1555	-1.9992	3.9946	0.	126.47
1556	6.9822	-3.0233	0.	124.44
1557	6.4918	-3.5219	0.	125.86
1558	-2.9975	-5.029	0.	129.66
1559	-2.4328	-5.9598	0.	129.64
1560	-2.9539	-5.5051	0.	131.42
1561	3.9479	2.5797	0.	125.45
1562	-2.504	5.9201	0.	129.44
1563	-9.0437	7.0248	0.	127.39
1564	-2.5304	-2.5256	0.	127.39
1565	-3.6184	-7.7747	0.	123.03
1566	-4.5875	-4.2833	0.	122.79
1567	1.6051	-7.9818	0.	129.63
1568	3.6457	0.737	0.	121.29
1569	0.5248	0.49388	0.	129.68
1570	-1.5477	-7.4594	0.	127.82
1571	3.4915	-4.5006	0.	125.73
1572	-2.6685	-7.4327	0.	131.23
1573	-2.0087	-1.0093	0.	125.21
1574	-3.9277e-003	-2.0021	0.	127.22
1575	8.9949	4.4966	0.	127.51
1576	-8.5001	-0.49956	0.	128.23
1577	-3.0466	-4.052	0.	127.51
1578	9.	7.5	0.	126.41
1579	-6.0343	-2.9942	0.	122.27
1580	-5.9941	-7.542	0.	131.97
1581	5.	7.5002	0.	130.89
1582	1.5054	-9.4981	0.	124.39
1583	5.9835	-3.0351	0.	124.87
1584	-3.544	-2.556	0.	125.82
1585	-5.0148	-7.5102	0.	131.93
1586	-5.0709	-4.4319	0.	124.69
1587	-5.0623	-3.0348	0.	123.91
1588	2.9566	-5.4952	0.	115.1
1589	9.562	-0.50054	0.	126.42
1590	-9.0019	-2.9996	0.	126.7
1591	0.49945	-1.503	0.	129.58
1592	-4.5418	-2.5627	0.	124.58
1593	-3.0006	0.49817	0.	129.16
1594	8.	7.	0.	129.02
1595	8.5	9.	0.	125.56
1596	1.8855	-6.0921	0.	140.16
1597	-1.5134	-2.008	0.	126.76
1598	0.50069	3.9993	0.	131.
1599	-3.5005	4.4856	0.	135.
1600	2.5262	1.5605	0.	122.33
1601	5.8868	2.5131	0.	120.14
1602	2.9838	3.04	0.	117.72
1603	-2.5156	-1.5168	0.	126.52
1604	-4.0003	2.9991	0.	123.8
1605	7.4796	-3.0048	0.	123.64
1606	7.4199	-1.9739	0.	123.37
1607	-0.50634	-3.5007	0.	125.43
1608	6.5	8.5	0.	121.82
1609	-7.5035	-1.9987	0.	126.39
1610	-5.0003	3.0006	0.	112.47
1611	-2.0018	-4.0814e-003	0.	121.4
1612	-5.9689	-7.1059	0.	130.43
1613	-0.49581	2.9977	0.	133.26
1614	7.4976	-4.0044	0.	123.6
1615	0.49789	6.0006	0.	126.53
1616	7.4999	-6.0007	0.	117.7
1617	1.0018	-1.5046	0.	131.37
1618	-8.9995	3.0096	0.	128.88
1619	-7.0037	4.0238	0.	128.02
1620	2.9932	-4.0013	0.	120.67
1621	-8.5087	4.5255	0.	127.24
1622	-9.018	5.5287	0.	129.76
1623	-5.6961	-5.8577	0.	132.16
1624	-4.5537	-4.8363	0.	121.08
1625	1.1624	-7.4546	0.	128.22
1626	-8.5	8.7179e-004	0.	128.14
1627	-1.0109	-3.5018	0.	127.72
1628	0.49958	4.4999	0.	129.08
1629	-8.5007	-1.4996	0.	128.58
1630	8.4933	4.4979	0.	128.07
1631	5.5	8.5	0.	125.45
1632	-2.9921	8.5589	0.	125.2
1633	-6.0496	-4.4736	0.	127.36
1634	2.9796	2.5621	0.	120.44
1635	-3.028	-4.5461	0.	127.9
1636	-5.118	-3.5018	0.	124.01
1637	2.0751	0.99975	0.	122.84
1638	-1.0102	-2.0052	0.	126.74
1639	7.4105	2.5255	0.	126.87
1640	-4.075	-3.1043	0.	124.76
1641	7.635	1.5539	0.	124.93
1642	7.507	1.1819	0.	124.76
1643	3.0049	1.6101	0.	122.71
1644	-4.9834	9.0964	0.	121.55
1645	-5.0017	8.6367	0.	118.38
1646	-5.4875	9.158	0.	122.49
1647	-5.5014	8.7433	0.	120.75
1648	-5.993	9.1937	0.	125.75
1649	-5.9942	8.8023	0.	130.57
1650	-6.4973	9.1834	0.	125.01
1651	-6.4817	8.7893	0.	129.16
1652	2.0302	-7.1773	0.	134.74
1653	4.4812	-1.1231	0.	129.88
1654	-7.7967	7.0983	0.	125.84
1655	-7.8117	7.3483	0.	121.08
1656	-8.2869	7.1485	0.	145.31
1657	-8.1226	7.4571	0.	150.02
1658	-8.0417	6.9237	0.	148.36
1659	-6.9033	6.6517	0.	134.44
1660	-6.695	6.79	0.	155.81
1661	-6.7263	6.335	0.	143.17
1662	-6.4273	6.5407	0.	154.3
1663	-6.9783	7.9017	0.	118.05
1664	-6.755	7.79	0.	144.16
1665	-6.8286	8.1863	0.	126.9
1666	-6.4893	8.0426	0.	140.48
1667	-5.6583	7.7967	0.	135.68
1668	-5.4467	7.8967	0.	114.
1669	-5.5951	8.19	0.	123.56
1670	-5.9243	8.0376	0.	136.05
1671	-5.7317	6.8633	0.	134.31
1672	-5.5383	6.73	0.	114.83
1673	-5.7194	6.4733	0.	121.66
1674	-5.9623	6.5857	0.	139.44
1675	-4.6733	7.3633	0.	118.95
1676	-4.6917	7.13	0.	118.14
1677	-4.2835	7.4029	0.	136.36
1678	-4.4052	7.0328	0.	138.5
1679	5.9713	-0.3525	0.	124.85
1680	5.7562	-0.41625	0.	106.26
1681	5.7179	-0.78115	0.	118.03
1682	6.118	-0.68365	0.	130.49
1683	6.2787	0.9525	0.	152.66
1684	6.115	1.1063	0.	135.91
1685	6.3303	1.3848	0.	144.31
1686	6.5429	1.158	0.	147.09
1687	4.7737	0.50625	0.	129.22
1688	4.825	0.72375	0.	131.41
1689	4.4245	0.55055	0.	145.3
1690	4.5558	0.87596	0.	153.7
1691	8.305	-0.38	0.	145.47
1692	8.13	-0.58	0.	135.38
1693	8.5606	-0.58158	0.	147.6
1694	8.3607	-0.83196	0.	144.94
1695	8.135	0.12	0.	119.91
1696	7.875	0.17	0.	87.252
1697	8.1306	0.63024	0.	117.44
1698	8.3202	0.3904	0.	124.48
1699	7.83	0.49557	0.	116.6
1700	7.61	-0.48	0.	133.8
1701	7.525	-0.23	0.	117.73
1702	7.3511	-0.65074	0.	154.54
1703	7.1934	-0.29083	0.	147.94
1704	2.1217	-6.7633	0.	127.88
1705	2.1867	-6.5517	0.	134.65
1706	1.7973	-6.7448	0.	151.7
1707	1.9277	-6.3461	0.	156.85
1708	2.7283	-7.4167	0.	103.2
1709	2.945	-7.3683	0.	122.48
1710	2.9124	-7.8231	0.	116.53
1711	2.5862	-7.5986	0.	119.33
1712	3.138	-7.6061	0.	125.56
1713	3.0533	-6.3583	0.	138.36
1714	3.205	-6.5217	0.	153.08
1715	3.3652	-6.1582	0.	161.42
1716	3.439	-6.3783	0.	153.06
1717	-4.055	-6.1367	0.	107.51
1718	-3.8267	-6.2183	0.	133.05
1719	-3.8982	-5.8073	0.	118.39
1720	-3.6255	-5.989	0.	130.81
1721	-4.795	-6.7633	0.	118.95
1722	-4.7517	-7.0017	0.	124.46
1723	-5.2376	-6.9841	0.	143.43
1724	-5.0745	-6.6667	0.	145.25
1725	-4.9974	-7.2151	0.	144.58
1726	-3.6533	-7.1717	0.	149.84
1727	-3.8383	-7.3283	0.	132.01
1728	-3.3842	-7.4005	0.	143.91
1729	-3.6142	-7.5923	0.	141.
1730	2.	5.75	0.	141.66
1731	2.25	6.	0.	126.06
1732	1.9999	6.25	0.	133.23
1733	1.7498	6.	0.	135.17
1734	2.	4.25	0.	141.2
1735	2.25	4.	0.	126.01
1736	1.9992	3.7539	0.	132.23
1737	1.75	4.001	0.	135.34
1738	3.75	6.	0.	124.56
1739	4.	5.75	0.	139.87
1740	4.	6.2501	0.	130.81
1741	4.2498	6.0006	0.	134.02
1742	3.75	4.	0.	126.06
1743	4.	4.25	0.	141.31
1744	3.9915	3.7629	0.	132.3
1745	4.2446	4.0068	0.	134.76
1746	-1.	8.75	0.	142.47
1747	-0.75	9.	0.	130.26
1748	-1.2475	9.0055	0.	134.07
1749	-0.99925	9.2507	0.	133.88
1750	-1.	8.25	0.	141.74
1751	-0.75	8.	0.	129.03
1752	-1.0015	7.7546	0.	132.83
1753	-1.2475	8.0114	0.	134.31
1754	0.75	9.	0.	129.57
1755	1.	8.75	0.	141.63
1756	1.25	9.	0.	132.96
1757	1.	9.25	0.	132.4
1758	0.75	8.	0.	129.86
1759	1.	8.25	0.	142.32
1760	1.25	8.	0.	134.54
1761	0.99988	7.75	0.	134.66
1762	-6.	5.75	0.	146.39
1763	-5.7503	6.	0.	127.78
1764	-6.1667	6.0383	0.	148.84
1765	-5.8444	6.1583	0.	126.48
1766	-6.	4.25	0.	136.93
1767	-5.75	4.	0.	122.06
1768	-6.0006	3.7522	0.	127.87
1769	-6.2513	4.0083	0.	130.8
1770	-4.2502	6.	0.	126.81
1771	-4.	5.75	0.	143.16
1772	-3.9215	6.1792	0.	138.45
1773	-3.7413	5.9559	0.	137.37
1774	-4.25	4.	0.	123.72
1775	-4.	4.25	0.	139.8
1776	-3.7503	3.9961	0.	133.95
1777	-4.0002	3.7494	0.	130.64
1778	6.	6.75	0.	137.87
1779	6.25	7.	0.	120.62
1780	6.	7.25	0.	128.65
1781	5.75	7.0001	0.	132.84
1782	6.	5.25	0.	135.23
1783	6.25	5.	0.	117.97
1784	5.9943	4.7529	0.	126.14
1785	5.7483	5.0022	0.	130.11
1786	6.75	7.	0.	119.95
1787	7.	6.75	0.	136.57
1788	7.	7.25	0.	127.54
1789	7.25	7.	0.	131.03
1790	6.75	5.	0.	117.54
1791	7.	5.25	0.	134.88
1792	7.2484	5.0004	0.	129.31
1793	6.994	4.7518	0.	124.91
1794	-7.	0.75	0.	135.61
1795	-6.75	1.	0.	118.15
1796	-7.25	1.001	0.	130.22
1797	-7.0001	1.2515	0.	126.01
1798	-7.	-0.75	0.	136.82
1799	-6.75	-1.	0.	120.13
1800	-7.0012	-1.2496	0.	127.68
1801	-7.2503	-0.99977	0.	131.25
1802	-6.25	1.	0.	118.82
1803	-6.	0.75	0.	136.35
1804	-5.75	1.0002	0.	133.17
1805	-6.0002	1.2507	0.	126.86
1806	-6.25	-1.	0.	119.96
1807	-6.	-0.75	0.	137.72
1808	-5.7512	-1.0015	0.	130.74
1809	-6.0024	-1.2504	0.	126.67
1810	-3.	1.75	0.	146.23
1811	-2.75	2.	0.	132.93
1812	-3.25	1.9998	0.	139.55
1813	-3.	2.2494	0.	139.21
1814	-3.	1.25	0.	144.26
1815	-2.75	1.	0.	129.82
1816	-3.25	0.99978	0.	139.51
1817	-3.0003	0.74908	0.	134.3
1818	-1.25	2.	0.	130.94
1819	-1.	1.75	0.	144.21
1820	-0.99849	2.2494	0.	135.65
1821	-0.74667	1.9988	0.	137.43
1822	-1.25	1.	0.	129.58
1823	-1.	1.25	0.	143.83
1824	-0.74613	0.99921	0.	136.37
1825	-0.99856	0.74954	0.	134.48
1826	2.	-2.25	0.	141.97
1827	2.25	-2.	0.	128.33
1828	2.0034	-1.7533	0.	132.79
1829	1.7504	-2.0015	0.	134.91
1830	2.	-2.75	0.	142.44
1831	2.25	-3.	0.	129.1
1832	1.9988	-3.2506	0.	134.31
1833	1.7496	-3.0005	0.	135.69
1834	3.75	-2.	0.	127.15
1835	4.	-2.25	0.	139.27
1836	4.2463	-2.0112	0.	132.22
1837	3.9993	-1.7574	0.	131.95
1838	3.75	-3.	0.	125.42
1839	4.	-2.75	0.	138.04
1840	4.2485	-3.0017	0.	130.42
1841	3.9987	-3.2506	0.	128.73
1842	-5.	1.75	0.	133.93
1843	-4.75	2.	0.	116.41
1844	-5.2502	2.0007	0.	126.14
1845	-5.0002	2.2503	0.	121.89
1846	-5.	0.25	0.	137.38
1847	-4.75	0.	0.	120.74
1848	-5.0007	-0.25125	0.	128.85
1849	-5.2501	-2.0776e-004	0.	134.96
1850	-4.25	2.	0.	118.34
1851	-4.	1.75	0.	135.51
1852	-4.0001	2.2498	0.	127.86
1853	-3.75	1.9998	0.	133.79
1854	-4.25	0.	0.	121.54
1855	-4.	0.25	0.	140.16
1856	-3.7506	-1.6245e-003	0.	133.53
1857	-4.0015	-0.25266	0.	129.43
1858	-1.	-5.25	0.	142.79
1859	-0.75	-5.	0.	129.62
1860	-1.0024	-4.7497	0.	134.85
1861	-1.2493	-4.9962	0.	136.37
1862	-1.	-5.75	0.	141.28
1863	-0.75	-6.	0.	126.89
1864	-0.99179	-6.2437	0.	131.03
1865	-1.2388	-5.9884	0.	134.02
1866	0.75	-5.	0.	131.36
1867	1.	-5.25	0.	145.78
1868	0.99792	-4.7503	0.	136.35
1869	1.2431	-5.0014	0.	137.1
1870	0.75	-6.	0.	129.12
1871	1.	-5.75	0.	145.11
1872	1.0063	-6.2349	0.	132.86
1873	1.2182	-5.98	0.	139.86
1874	-9.	-6.25	0.	141.48
1875	-8.75	-6.	0.	124.91
1876	-9.0009	-5.75	0.	130.77
1877	-9.2501	-6.	0.	134.91
1878	-9.	-7.75	0.	141.31
1879	-8.75	-8.	0.	124.62
1880	-9.0001	-8.25	0.	130.39
1881	-9.25	-8.	0.	134.71
1882	-7.25	-6.	0.	123.96
1883	-7.	-6.25	0.	139.05
1884	-7.0137	-5.7425	0.	130.5
1885	-6.7771	-5.9728	0.	133.79
1886	-7.25	-8.	0.	124.32
1887	-7.	-7.75	0.	139.76
1888	-6.7511	-8.0043	0.	134.59
1889	-7.0015	-8.2513	0.	131.17
1890	4.	-5.25	0.	140.21
1891	4.25	-5.	0.	121.46
1892	3.7434	-5.	0.	129.13
1893	3.9979	-4.7503	0.	127.65
1894	4.	-6.75	0.	135.84
1895	4.25	-7.	0.	118.61
1896	3.9479	-7.2447	0.	130.98
1897	3.779	-6.9329	0.	136.54
1898	4.75	-5.	0.	122.22
1899	5.	-5.25	0.	139.3
1900	4.9994	-4.7513	0.	129.8
1901	5.2497	-5.0017	0.	133.59
1902	4.75	-7.	0.	118.09
1903	5.	-6.75	0.	137.04
1904	5.248	-7.0005	0.	131.55
1905	4.9894	-7.2504	0.	126.78
1906	7.	-7.25	0.	140.49
1907	7.25	-7.	0.	124.41
1908	6.7491	-7.0003	0.	134.38
1909	6.9998	-6.7503	0.	130.92
1910	7.	-8.75	0.	139.73
1911	7.25	-9.	0.	122.84
1912	6.749	-8.9998	0.	133.91
1913	6.9998	-9.25	0.	129.48
1914	8.75	-7.	0.	125.61
1915	9.	-7.25	0.	142.72
1916	9.	-6.75	0.	131.74
1917	9.25	-7.	0.	135.89
1918	8.75	-9.	0.	123.81
1919	9.	-8.75	0.	141.75
1920	9.25	-9.	0.	136.55
1921	9.	-9.25	0.	130.14
1922	9.75	10.	0.	125.
1923	10.	9.75	0.	124.99
1924	-9.75	10.	0.	125.04
1925	-10.	9.75	0.	124.94
1926	10.	-9.75	0.	146.22
1927	9.75	-10.	0.	141.61
1928	-10.	-9.75	0.	133.51
1929	-9.75	-10.	0.	130.82
1930	-7.35	6.875	0.	98.559
1931	-7.596	6.7497	0.	104.92
1932	-7.1598	6.5726	0.	110.58
1933	-7.395	7.625	0.	86.662
1934	-7.7007	7.72	0.	103.86
1935	-7.268	7.9635	0.	105.86
1936	-6.725	7.29	0.	148.49
1937	-6.4589	7.0501	0.	144.74
1938	-6.4746	7.5465	0.	140.38
1939	-5.695	7.33	0.	137.45
1940	-5.9429	7.5582	0.	136.46
1941	-5.9606	7.0784	0.	137.77
1942	-5.06	7.63	0.	91.574
1943	-5.1581	7.9735	0.	105.24
1944	-4.6937	7.7308	0.	108.25
1945	-5.115	6.93	0.	91.988
1946	-5.2509	6.6225	0.	102.07
1947	-4.8087	6.7857	0.	99.688
1948	6.0738	8.25e-002	0.	133.41
1949	6.2475	-0.24777	0.	127.42
1950	6.1762	0.5175	0.	141.43
1951	6.3684	0.20373	0.	137.35
1952	6.514	0.67492	0.	141.76
1953	5.4288	-0.10875	0.	98.156
1954	5.4084	-0.42952	0.	106.7
1955	5.1013	0.19875	0.	97.222
1956	5.0653	-0.12328	0.	113.71
1957	4.7317	0.20358	0.	113.99
1958	5.685	0.97875	0.	111.66
1959	5.8819	1.2832	0.	110.53
1960	5.255	0.85125	0.	104.75
1961	5.4352	1.1639	0.	114.96
1962	4.9953	1.0164	0.	104.96
1963	8.4387	-9.6482e-002	0.	130.88
1964	7.8564	-0.75774	0.	102.8
1965	7.49	0.11834	0.	103.64
1966	2.425	-7.09	0.	88.239
1967	2.1517	-7.052	0.	108.37
1968	2.4346	-7.4353	0.	107.42
1969	2.62	-6.455	0.	100.57
1970	2.405	-6.258	0.	103.59
1971	2.8772	-6.1868	0.	104.04
1972	3.075	-6.945	0.	134.34
1973	3.2305	-7.2068	0.	130.21
1974	3.349	-6.7996	0.	138.18
1975	-4.425	-6.45	0.	83.732
1976	-4.3104	-6.067	0.	101.53
1977	-4.7045	-6.3555	0.	103.04
1978	-3.74	-6.695	0.	140.98
1979	-3.549	-6.4576	0.	134.16
1980	-3.465	-6.9315	0.	139.15
1981	-4.295	-7.165	0.	98.65
1982	-4.5348	-7.3343	0.	102.6
1983	-4.074	-7.4683	0.	105.73
1984	2.	5.25	0.	146.36
1985	1.7498	5.5001	0.	140.63
1986	2.	4.75	0.	146.39
1987	1.7498	5.0002	0.	141.97
1988	1.7499	4.5004	0.	140.82
1989	2.75	6.	0.	117.23
1990	2.5	6.25	0.	115.56
1991	3.25	6.	0.	116.89
1992	3.	6.25	0.	117.29
1993	3.5	6.25	0.	114.65
1994	2.75	4.	0.	118.12
1995	2.4976	3.7569	0.	116.06
1996	3.25	4.	0.	117.92
1997	2.9957	3.7601	0.	118.29
1998	3.494	3.7623	0.	115.8
1999	4.	5.25	0.	145.48
2000	4.2495	5.5012	0.	139.96
2001	4.	4.75	0.	145.97
2002	4.2488	5.002	0.	141.71
2003	4.2475	4.5036	0.	140.76
2004	-1.2472	8.5084	0.	138.49
2005	-0.25	9.	0.	125.85
2006	-0.49977	9.2501	0.	122.38
2007	0.25	9.	0.	125.89
2008	7.2907e-005	9.25	0.	126.65
2009	0.50002	9.25	0.	122.16
2010	-0.25	8.	0.	124.32
2011	-0.50096	7.7513	0.	120.93
2012	0.25	8.	0.	124.46
2013	-5.7255e-004	7.7504	0.	124.81
2014	0.49972	7.7501	0.	121.67
2015	1.25	8.5	0.	137.87
2016	-6.	5.25	0.	146.53
2017	-6.2694	5.557	0.	140.7
2018	-6.	4.75	0.	143.26
2019	-6.2575	5.025	0.	139.14
2020	-6.253	4.5132	0.	136.77
2021	-5.2508	6.	0.	111.68
2022	-5.5947	6.1583	0.	110.7
2023	-4.7507	6.	0.	112.57
2024	-5.088	6.2075	0.	110.09
2025	-4.3371	6.2371	0.	118.51
2026	-4.6073	6.2707	0.	112.99
2027	-5.25	4.	0.	114.61
2028	-5.5002	3.7507	0.	112.6
2029	-4.75	4.	0.	114.63
2030	-5.0001	3.7502	0.	114.33
2031	-4.5001	3.7499	0.	112.43
2032	-4.	5.25	0.	145.82
2033	-3.7494	5.4776	0.	141.06
2034	-4.	4.75	0.	145.23
2035	-3.7503	4.9877	0.	141.54
2036	-3.7503	4.4928	0.	139.7
2037	6.	6.25	0.	142.03
2038	5.75	6.5002	0.	138.74
2039	6.	5.75	0.	140.85
2040	5.7499	6.0004	0.	138.79
2041	5.7496	5.5009	0.	136.71
2042	6.5	7.25	0.	109.61
2043	6.494	4.7525	0.	107.17
2044	7.	6.25	0.	141.09
2045	7.25	6.5	0.	136.79
2046	7.	5.75	0.	140.6
2047	7.2499	6.0001	0.	137.4
2048	7.2496	5.5002	0.	135.93
2049	-7.	0.25	0.	141.14
2050	-7.25	0.50057	0.	136.6
2051	-7.	-0.25	0.	141.44
2052	-7.25	2.7679e-004	0.	137.97
2053	-7.2501	-0.49983	0.	137.19
2054	-6.5002	1.2511	0.	107.75
2055	-6.5017	-1.2497	0.	109.28
2056	-6.	0.25	0.	141.98
2057	-5.75	0.50001	0.	139.09
2058	-6.	-0.25	0.	143.26
2059	-5.7501	-2.0776e-004	0.	139.91
2060	-5.7504	-0.50069	0.	139.44
2061	-3.25	1.4999	0.	143.69
2062	-2.25	2.	0.	125.71
2063	-2.4999	2.2497	0.	123.71
2064	-1.75	2.	0.	125.35
2065	-1.9997	2.2497	0.	126.16
2066	-1.4993	2.2496	0.	122.45
2067	-2.25	1.	0.	123.34
2068	-2.5003	0.74899	0.	120.49
2069	-1.75	1.	0.	123.15
2070	-2.0001	0.74924	0.	123.41
2071	-1.4997	0.74934	0.	120.32
2072	-0.74617	1.4989	0.	141.18
2073	1.7498	-2.5008	0.	139.37
2074	2.75	-2.	0.	122.17
2075	2.5037	-1.7559	0.	119.26
2076	3.25	-2.	0.	121.86
2077	3.0034	-1.7622	0.	122.28
2078	3.5032	-1.7631	0.	118.92
2079	2.75	-3.	0.	122.46
2080	2.4985	-3.2505	0.	120.25
2081	3.25	-3.	0.	121.23
2082	2.9984	-3.2505	0.	122.34
2083	3.4986	-3.2504	0.	117.75
2084	4.2475	-2.5033	0.	135.41
2085	-5.	1.25	0.	140.88
2086	-5.2501	1.5004	0.	136.14
2087	-5.	0.75	0.	141.51
2088	-5.25	1.0002	0.	138.2
2089	-5.25	0.50001	0.	139.33
2090	-4.5001	2.25	0.	106.51
2091	-4.5011	-0.25198	0.	110.11
2092	-4.	1.25	0.	141.41
2093	-3.75	1.4999	0.	138.77
2094	-4.	0.75	0.	144.34
2095	-3.75	0.99978	0.	141.76
2096	-3.7501	0.49936	0.	142.15
2097	-1.2443	-5.4927	0.	139.86
2098	-0.25	-5.	0.	123.75
2099	-0.50169	-4.7499	0.	120.95
2100	0.25	-5.	0.	124.54
2101	-1.2443e-003	-4.75	0.	124.76
2102	0.49868	-4.7501	0.	122.41
2103	-0.25	-6.	0.	120.72
2104	-0.49333	-6.2469	0.	117.65
2105	0.25	-6.	0.	121.24
2106	8.8695e-003	-6.2467	0.	120.69
2107	0.51132	-6.2446	0.	117.96
2108	1.2356	-5.4986	0.	143.15
2109	-9.	-6.75	0.	148.14
2110	-9.25	-6.5	0.	141.87
2111	-9.	-7.25	0.	148.09
2112	-9.25	-7.	0.	143.5
2113	-9.25	-7.5	0.	141.81
2114	-8.25	-6.	0.	116.42
2115	-8.5019	-5.7498	0.	114.43
2116	-7.75	-6.	0.	115.72
2117	-8.0035	-5.7494	0.	116.14
2118	-7.5065	-5.748	0.	113.66
2119	-8.25	-8.	0.	116.11
2120	-8.5002	-8.25	0.	113.91
2121	-7.75	-8.	0.	115.66
2122	-8.0004	-8.2501	0.	115.73
2123	-7.5007	-8.2504	0.	113.59
2124	-7.	-6.75	0.	143.43
2125	-6.7673	-6.4709	0.	138.48
2126	-7.	-7.25	0.	143.82
2127	-6.7232	-6.9824	0.	138.89
2128	-6.746	-7.5012	0.	139.36
2129	4.	-5.75	0.	147.69
2130	3.7384	-5.5002	0.	139.16
2131	4.	-6.25	0.	143.64
2132	3.7302	-6.0032	0.	148.28
2133	3.804	-6.4733	0.	137.11
2134	4.499	-4.7506	0.	111.73
2135	4.4778	-7.2501	0.	108.22
2136	5.	-5.75	0.	144.33
2137	5.2498	-5.501	0.	139.91
2138	5.	-6.25	0.	143.49
2139	5.2498	-6.0006	0.	140.71
2140	5.2494	-6.5004	0.	138.93
2141	7.	-7.75	0.	146.03
2142	6.7485	-7.5002	0.	140.85
2143	7.	-8.25	0.	145.92
2144	6.7483	-8.	0.	142.27
2145	6.7485	-8.4999	0.	140.5
2146	7.75	-7.	0.	116.05
2147	7.4999	-6.7501	0.	113.77
2148	8.25	-7.	0.	116.57
2149	8.	-6.7501	0.	116.22
2150	8.5	-6.75	0.	114.51
2151	7.75	-9.	0.	113.59
2152	7.4999	-9.25	0.	111.29
2153	8.25	-9.	0.	114.06
2154	8.	-9.25	0.	112.6
2155	8.5	-9.25	0.	111.78
2156	9.	-7.75	0.	149.32
2157	9.25	-7.5	0.	143.34
2158	9.	-8.25	0.	149.18
2159	9.25	-8.	0.	145.22
2160	9.25	-8.5	0.	143.68
2161	9.25	10.	0.	124.98
2162	9.5	9.75	0.	125.02
2163	8.75	10.	0.	124.83
2164	9.	9.75	0.	124.99
2165	8.25	10.	0.	124.52
2166	8.5	9.75	0.	124.82
2167	7.75	10.	0.	124.06
2168	8.	9.75	0.	124.49
2169	7.25	10.	0.	123.56
2170	7.5	9.75	0.	124.
2171	6.75	10.	0.	123.21
2172	7.	9.75	0.	123.53
2173	6.25	10.	0.	123.13
2174	6.5	9.75	0.	123.3
2175	5.75	10.	0.	123.3
2176	6.	9.75	0.	123.4
2177	5.25	10.	0.	123.59
2178	5.5	9.75	0.	123.7
2179	4.75	10.	0.	123.85
2180	5.	9.75	0.	123.98
2181	4.25	10.	0.	124.03
2182	4.5	9.75	0.	124.1
2183	3.75	10.	0.	124.27
2184	4.	9.75	0.	124.13
2185	3.25	10.	0.	124.8
2186	3.5	9.75	0.	124.25
2187	2.75	10.	0.	125.8
2188	3.	9.75	0.	124.67
2189	2.25	10.	0.	127.33
2190	2.5	9.75	0.	125.54
2191	1.75	10.	0.	128.24
2192	2.	9.75	0.	127.08
2193	1.25	10.	0.	126.46
2194	1.5	9.75	0.	128.84
2195	0.75	10.	0.	122.93
2196	1.	9.75	0.	125.92
2197	0.25	10.	0.	120.47
2198	0.50002	9.75	0.	121.64
2199	-0.25	10.	0.	120.89
2200	7.2907e-005	9.75	0.	121.82
2201	-0.75	10.	0.	124.27
2202	-0.49977	9.7501	0.	122.31
2203	-1.25	10.	0.	128.81
2204	-0.99925	9.7507	0.	127.53
2205	-1.75	10.	0.	131.36
2206	-1.4984	9.7528	0.	131.04
2207	-2.25	10.	0.	130.77
2208	-1.9977	9.7552	0.	129.75
2209	-2.75	10.	0.	129.16
2210	-2.4973	9.7573	0.	128.49
2211	-3.25	10.	0.	127.55
2212	-2.9972	9.7586	0.	127.47
2213	-3.75	10.	0.	125.85
2214	-3.4971	9.7592	0.	126.38
2215	-4.25	10.	0.	124.08
2216	-3.9967	9.7594	0.	125.04
2217	-4.75	10.	0.	122.52
2218	-4.494	9.7631	0.	123.48
2219	-5.25	10.	0.	121.59
2220	-4.9925	9.7733	0.	122.23
2221	-5.75	10.	0.	121.23
2222	-5.4945	9.7891	0.	121.9
2223	-6.25	10.	0.	120.99
2224	-5.9966	9.7958	0.	122.09
2225	-6.75	10.	0.	120.73
2226	-6.5003	9.7942	0.	121.76
2227	-7.25	10.	0.	120.95
2228	-7.0026	9.7823	0.	121.28
2229	-7.75	10.	0.	121.99
2230	-7.5029	9.7643	0.	121.86
2231	-8.25	10.	0.	123.42
2232	-8.0022	9.7534	0.	123.4
2233	-8.75	10.	0.	124.53
2234	-8.5013	9.7522	0.	124.72
2235	-9.25	10.	0.	124.99
2236	-9.0011	9.7512	0.	125.21
2237	-9.5005	9.7502	0.	125.1
2238	10.	9.25	0.	124.99
2239	9.75	9.5	0.	125.01
2240	10.	8.75	0.	125.02
2241	9.75	9.	0.	125.11
2242	10.	8.25	0.	124.93
2243	9.75	8.5	0.	125.2
2244	10.	7.75	0.	124.59
2245	9.75	8.	0.	125.12
2246	10.	7.25	0.	124.04
2247	9.75	7.5	0.	124.82
2248	10.	6.75	0.	123.5
2249	9.75	7.	0.	124.39
2250	10.	6.25	0.	123.3
2251	9.75	6.4999	0.	124.09
2252	10.	5.75	0.	123.67
2253	9.7499	5.9999	0.	124.17
2254	10.	5.25	0.	124.64
2255	9.7497	5.4997	0.	124.75
2256	10.	4.75	0.	126.01
2257	9.7493	4.9992	0.	125.74
2258	10.	4.25	0.	127.45
2259	9.7488	4.4988	0.	126.9
2260	10.	3.75	0.	128.71
2261	9.7471	3.9977	0.	127.99
2262	10.	3.25	0.	129.66
2263	9.7452	3.4969	0.	128.83
2264	10.	2.75	0.	130.32
2265	9.7428	2.9958	0.	129.4
2266	10.	2.25	0.	130.74
2267	9.741	2.4945	0.	129.77
2268	10.	1.75	0.	130.78
2269	9.7418	1.9929	0.	130.
2270	10.	1.25	0.	129.83
2271	9.7479	1.4919	0.	129.99
2272	10.	0.75	0.	127.1
2273	9.7587	0.99175	0.	129.17
2274	10.	0.25	0.	123.3
2275	9.7673	0.49313	0.	126.82
2276	10.	-0.25	0.	121.66
2277	9.7756	-3.7571e-003	0.	123.92
2278	10.	-0.75	0.	124.43
2279	9.781	-0.50027	0.	124.16
2280	10.	-1.25	0.	129.05
2281	9.7734	-0.99802	0.	128.23
2282	10.	-1.75	0.	131.68
2283	9.7466	-1.4947	0.	131.08
2284	10.	-2.25	0.	131.73
2285	9.7406	-1.9937	0.	131.14
2286	10.	-2.75	0.	130.58
2287	9.7428	-2.495	0.	130.12
2288	10.	-3.25	0.	129.34
2289	9.7454	-2.9964	0.	129.05
2290	10.	-3.75	0.	128.52
2291	9.7476	-3.4977	0.	128.22
2292	10.	-4.25	0.	128.33
2293	9.7489	-3.9986	0.	127.76
2294	10.	-4.75	0.	128.99
2295	9.7495	-4.4992	0.	127.82
2296	10.	-5.25	0.	130.74
2297	9.7498	-4.9996	0.	128.57
2298	10.	-5.75	0.	133.53
2299	9.7499	-5.4998	0.	130.16
2300	10.	-6.25	0.	135.74
2301	9.75	-5.9999	0.	132.69
2302	10.	-6.75	0.	134.85
2303	9.75	-6.5	0.	135.44
2304	10.	-7.25	0.	131.64
2305	9.75	-7.	0.	134.3
2306	10.	-7.75	0.	130.33
2307	9.75	-7.5	0.	134.07
2308	10.	-8.25	0.	131.76
2309	9.75	-8.	0.	135.49
2310	10.	-8.75	0.	135.89
2311	9.75	-8.5	0.	135.97
2312	10.	-9.25	0.	142.09
2313	9.75	-9.	0.	138.56
2314	9.75	-9.5	0.	141.74
2315	-10.	9.25	0.	124.58
2316	-9.7505	9.5002	0.	125.
2317	-10.	8.75	0.	123.6
2318	-9.7501	8.9996	0.	124.92
2319	-10.	8.25	0.	121.71
2320	-9.7469	8.4978	0.	124.28
2321	-10.	7.75	0.	119.53
2322	-9.744	7.9977	0.	122.7
2323	-10.	7.25	0.	118.89
2324	-9.7603	7.5008	0.	121.14
2325	-10.	6.75	0.	120.8
2326	-9.7611	7.0038	0.	121.62
2327	-10.	6.25	0.	124.11
2328	-9.758	6.5066	0.	124.28
2329	-10.	5.75	0.	126.98
2330	-9.7558	6.0074	0.	126.81
2331	-10.	5.25	0.	128.56
2332	-9.7541	5.5069	0.	128.25
2333	-10.	4.75	0.	129.21
2334	-9.7526	5.0058	0.	128.82
2335	-10.	4.25	0.	129.49
2336	-9.7515	4.5047	0.	129.05
2337	-10.	3.75	0.	129.72
2338	-9.7505	4.0039	0.	129.25
2339	-10.	3.25	0.	129.89
2340	-9.75	3.5032	0.	129.45
2341	-10.	2.75	0.	129.86
2342	-9.7498	3.0026	0.	129.58
2343	-10.	2.25	0.	129.5
2344	-9.7498	2.502	0.	129.49
2345	-10.	1.75	0.	128.74
2346	-9.7498	2.0015	0.	129.08
2347	-10.	1.25	0.	127.71
2348	-9.7499	1.501	0.	128.36
2349	-10.	0.75	0.	126.7
2350	-9.7499	1.0007	0.	127.5
2351	-10.	0.25	0.	126.04
2352	-9.7499	0.50041	0.	126.78
2353	-10.	-0.25	0.	125.96
2354	-9.75	2.5094e-004	0.	126.45
2355	-10.	-0.75	0.	126.44
2356	-9.75	-0.49986	0.	126.6
2357	-10.	-1.25	0.	127.24
2358	-9.75	-0.99992	0.	127.11
2359	-10.	-1.75	0.	128.08
2360	-9.7501	-1.4999	0.	127.74
2361	-10.	-2.25	0.	128.72
2362	-9.7502	-1.9999	0.	128.25
2363	-10.	-2.75	0.	129.2
2364	-9.7502	-2.4999	0.	128.56
2365	-10.	-3.25	0.	129.71
2366	-9.7503	-2.9999	0.	128.78
2367	-10.	-3.75	0.	130.6
2368	-9.7504	-3.4999	0.	129.11
2369	-10.	-4.25	0.	132.22
2370	-9.7505	-3.9999	0.	129.83
2371	-10.	-4.75	0.	134.63
2372	-9.7505	-4.4999	0.	131.16
2373	-10.	-5.25	0.	136.3
2374	-9.7507	-5.	0.	133.23
2375	-10.	-5.75	0.	134.63
2376	-9.7504	-5.5	0.	135.41
2377	-10.	-6.25	0.	130.35
2378	-9.7501	-6.	0.	133.59
2379	-10.	-6.75	0.	127.76
2380	-9.75	-6.5	0.	132.26
2381	-10.	-7.25	0.	127.73
2382	-9.75	-7.	0.	132.73
2383	-10.	-7.75	0.	130.28
2384	-9.75	-7.5	0.	132.21
2385	-10.	-8.25	0.	134.54
2386	-9.75	-8.	0.	133.46
2387	-10.	-8.75	0.	136.33
2388	-9.75	-8.5	0.	135.28
2389	-10.	-9.25	0.	135.05
2390	-9.7501	-9.	0.	133.19
2391	-9.75	-9.5	0.	131.43
2392	-9.25	-10.	0.	125.64
2393	-9.5	-9.75	0.	128.74
2394	-8.75	-10.	0.	120.37
2395	-9.0001	-9.75	0.	122.72
2396	-8.25	-10.	0.	117.21
2397	-8.5002	-9.7501	0.	117.84
2398	-7.75	-10.	0.	117.3
2399	-8.0004	-9.7501	0.	116.08
2400	-7.25	-10.	0.	120.33
2401	-7.5007	-9.7504	0.	118.08
2402	-6.75	-10.	0.	124.51
2403	-7.0011	-9.7508	0.	122.58
2404	-6.25	-10.	0.	127.67
2405	-6.5019	-9.7517	0.	126.96
2406	-5.75	-10.	0.	128.59
2407	-6.0029	-9.7531	0.	129.1
2408	-5.25	-10.	0.	127.53
2409	-5.5043	-9.755	0.	128.63
2410	-4.75	-10.	0.	125.71
2411	-5.006	-9.7579	0.	126.63
2412	-4.25	-10.	0.	124.54
2413	-4.5076	-9.7618	0.	124.63
2414	-3.75	-10.	0.	124.8
2415	-4.0086	-9.7654	0.	124.05
2416	-3.25	-10.	0.	126.25
2417	-3.5085	-9.7667	0.	125.23
2418	-2.75	-10.	0.	127.92
2419	-3.0076	-9.7634	0.	127.23
2420	-2.25	-10.	0.	128.98
2421	-2.5068	-9.756	0.	128.8
2422	-1.75	-10.	0.	129.18
2423	-2.0059	-9.7499	0.	129.36
2424	-1.25	-10.	0.	128.77
2425	-1.5044	-9.747	0.	129.09
2426	-0.75	-10.	0.	128.08
2427	-1.002	-9.7461	0.	128.39
2428	-0.25	-10.	0.	127.4
2429	-0.49923	-9.7457	0.	127.63
2430	0.25	-10.	0.	126.75
2431	3.0942e-003	-9.7451	0.	127.
2432	0.75	-10.	0.	125.98
2433	0.50427	-9.7446	0.	126.42
2434	1.25	-10.	0.	124.86
2435	1.0039	-9.7457	0.	125.61
2436	1.75	-10.	0.	123.39
2437	1.5027	-9.749	0.	124.29
2438	2.25	-10.	0.	122.01
2439	2.001	-9.7532	0.	122.61
2440	2.75	-10.	0.	121.4
2441	2.4997	-9.7563	0.	121.34
2442	3.25	-10.	0.	121.93
2443	2.9988	-9.7568	0.	121.29
2444	3.75	-10.	0.	123.43
2445	3.4983	-9.7553	0.	122.48
2446	4.25	-10.	0.	125.51
2447	3.9981	-9.7531	0.	124.33
2448	4.75	-10.	0.	128.01
2449	4.4982	-9.7513	0.	126.52
2450	5.25	-10.	0.	130.82
2451	4.9984	-9.7503	0.	129.12
2452	5.75	-10.	0.	133.49
2453	5.4987	-9.7499	0.	131.97
2454	6.25	-10.	0.	133.77
2455	5.9991	-9.7498	0.	134.42
2456	6.75	-10.	0.	127.92
2457	6.4995	-9.7499	0.	133.93
2458	7.25	-10.	0.	117.65
2459	6.9998	-9.75	0.	123.65
2460	7.75	-10.	0.	110.22
2461	7.4999	-9.75	0.	111.68
2462	8.25	-10.	0.	110.07
2463	8.	-9.75	0.	108.96
2464	8.75	-10.	0.	117.64
2465	8.5	-9.75	0.	111.57
2466	9.25	-10.	0.	129.6
2467	9.	-9.75	0.	123.98
2468	9.5	-9.75	0.	137.13
2469	-2.0204	-2.2642	0.	127.22
2470	-2.2703	-2.0172	0.	126.86
2471	-2.0156	-1.7625	0.	126.51
2472	-1.7658	-2.0108	0.	126.8
2473	-3.304	-3.0591	0.	126.41
2474	-2.791	-3.035	0.	127.59
2475	-3.0422	-2.7915	0.	126.89
2476	-3.0496	-3.2977	0.	127.17
2477	-0.75213	5.0008	0.	125.49
2478	-0.50314	5.2516	0.	125.2
2479	-0.50135	4.7505	0.	126.18
2480	-0.2519	5.0009	0.	125.9
2481	-1.0039	5.2515	0.	125.29
2482	-1.0013	4.7499	0.	125.76
2483	-1.2519	4.9985	0.	125.57
2484	-3.5664	-3.3313	0.	125.6
2485	-3.5526	-2.8148	0.	125.79
2486	-3.8181	-3.089	0.	125.26
2487	2.7414	2.0685	0.	122.31
2488	3.2198	2.0996	0.	123.13
2489	2.981	2.3238	0.	121.33
2490	2.9936	1.8478	0.	122.47
2491	-2.2495	4.9789	0.	127.26
2492	-1.9997	4.7393	0.	126.45
2493	-2.0016	5.235	0.	126.78
2494	-1.7508	4.9918	0.	126.11
2495	-2.5365	-3.2752	0.	128.58
2496	-2.2808	-3.0205	0.	128.38
2497	-2.5328	-2.7756	0.	127.76
2498	-1.2503	4.4983	0.	125.99
2499	-1.7497	4.4944	0.	126.13
2500	-1.4997	4.2476	0.	126.03
2501	-1.5008	4.7469	0.	125.79
2502	-0.7549	5.5022	0.	125.
2503	-0.2535	5.5016	0.	125.06
2504	-0.50544	5.7525	0.	124.62
2505	-0.7584	-2.5028	0.	126.54
2506	-0.25497	-2.5015	0.	126.24
2507	-0.50629	-2.7516	0.	126.09
2508	-0.50647	-2.2524	0.	126.57
2509	-1.2586	-1.5058	0.	126.55
2510	-1.508	-1.2568	0.	125.93
2511	-1.7614	-1.5094	0.	126.21
2512	-1.5116	-1.7577	0.	126.51
2513	-5.5694	-4.223	0.	125.93
2514	-5.8172	-3.9788	0.	125.06
2515	-5.3499	-3.96	0.	124.67
2516	-5.5785	-3.7324	0.	124.47
2517	4.619	2.0852	0.	125.53
2518	5.0773	2.014	0.	120.69
2519	4.8782	2.3138	0.	124.29
2520	4.8479	1.8725	0.	124.14
2521	2.0603	0.2002	0.	123.12
2522	2.4025	0.5205	0.	121.67
2523	2.2719	0.2233	0.	122.1
2524	1.8492	0.46349	0.	123.81
2525	2.1037	0.7234	0.	122.68
2526	-6.0527	-3.7353	0.	124.27
2527	-6.2911	-3.4896	0.	123.15
2528	-5.8139	-3.4889	0.	123.68
2529	-6.0423	-3.2415	0.	122.87
2530	-3.8359	-3.6158	0.	124.74
2531	-3.5674	-3.8446	0.	125.11
2532	-3.312	-3.5699	0.	126.37
2533	-4.09	-3.9101	0.	123.42
2534	-4.379	-3.6696	0.	123.88
2535	-4.0877	-3.3734	0.	124.4
2536	-0.75601	-1.5034	0.	127.23
2537	-1.0057	-1.2538	0.	126.9
2538	-1.0087	-1.7548	0.	126.79
2539	-0.25361	-1.5023	0.	128.06
2540	-0.50348	-1.2524	0.	128.07
2541	-0.50563	-1.7527	0.	127.24
2542	1.3009	0.98842	0.	125.87
2543	1.5631	0.73339	0.	124.97
2544	1.5494	1.2424	0.	125.08
2545	1.8176	0.99331	0.	123.84
2546	-1.2631	-2.5056	0.	127.07
2547	-1.0106	-2.7533	0.	126.95
2548	-1.0103	-2.2545	0.	126.77
2549	-1.5168	-2.7572	0.	127.8
2550	-1.7693	-2.5112	0.	127.47
2551	-1.5146	-2.2578	0.	127.05
2552	-1.2558	5.5004	0.	125.57
2553	-1.0086	5.7538	0.	125.25
2554	-1.7546	5.4905	0.	126.51
2555	-1.5114	5.752	0.	126.34
2556	-1.5038	5.2474	0.	125.84
2557	2.0246	1.7698	0.	123.83
2558	1.7884	1.5074	0.	124.4
2559	2.2821	1.5388	0.	122.9
2560	2.0566	1.2584	0.	123.15
2561	-4.0354	-2.3025	0.	124.91
2562	-3.7948	-2.5612	0.	125.42
2563	-4.2937	-2.5645	0.	124.8
2564	-4.0603	-2.8353	0.	124.89
2565	-0.75055	4.4995	0.	126.44
2566	-0.99983	4.2489	0.	126.61
2567	-0.25059	4.4999	0.	127.25
2568	-0.49987	4.2493	0.	127.64
2569	-5.5558	-4.7212	0.	128.02
2570	-5.3151	-4.4511	0.	125.74
2571	-5.8044	-4.4719	0.	127.07
2572	1.066e-004	4.2495	0.	128.75
2573	-1.1387e-003	4.7503	0.	126.97
2574	0.24951	4.4999	0.	128.4
2575	0.75716	-0.50695	0.	130.21
2576	0.50371	-0.75432	0.	130.55
2577	0.51049	-0.25506	0.	130.51
2578	0.25492	-0.50364	0.	130.69
2579	-2.282	-3.5185	0.	129.56
2580	-2.5356	-3.7733	0.	129.47
2581	-2.7951	-3.5379	0.	128.17
2582	-5.0473	-5.2933	0.	127.07
2583	-5.3007	-4.9906	0.	127.46
2584	-5.06	-4.7205	0.	125.19
2585	-4.8013	-4.9227	0.	123.39
2586	-3.2761	-2.0324	0.	126.15
2587	-3.0208	-1.7742	0.	126.64
2588	-3.0315	-2.2835	0.	126.64
2589	-2.7738	-2.0246	0.	126.71
2590	6.4746	-2.7974	0.	124.93
2591	6.7327	-3.029	0.	124.71
2592	6.4875	-3.2783	0.	125.42
2593	6.2333	-3.0349	0.	124.92
2594	7.2437	-3.51	0.	124.25
2595	6.996	-3.762	0.	124.85
2596	6.9881	-3.269	0.	124.58
2597	6.7429	-3.5183	0.	125.29
2598	-3.42e-003	5.7513	0.	124.99
2599	0.24769	5.5009	0.	126.07
2600	-2.254e-003	5.2509	0.	125.76
2601	-2.4991	5.2113	0.	128.33
2602	-2.4991	4.7265	0.	127.97
2603	-2.7492	4.9673	0.	129.44
2604	0.49846	5.2505	0.	127.25
2605	0.24852	5.0005	0.	126.93
2606	0.74897	5.0003	0.	129.07
2607	0.49917	4.7501	0.	128.36
2608	-2.2493	4.4869	0.	127.15
2609	-1.9993	4.243	0.	126.43
2610	2.9057	-5.0445e-002	0.	120.58
2611	2.7743	-0.37364	0.	120.95
2612	3.2024	-0.20431	0.	121.2
2613	3.0323	-0.44197	0.	120.6
2614	2.8219	1.1045	0.	121.74
2615	2.6253	0.83164	0.	121.22
2616	2.552	1.3149	0.	121.98
2617	2.3265	1.0345	0.	122.23
2618	5.3509	2.2188	0.	119.22
2619	5.415	2.7533	0.	122.26
2620	5.1517	2.5185	0.	122.81
2621	5.6402	2.5046	0.	120.51
2622	-6.5264	-3.2424	0.	122.28
2623	-6.7674	-2.995	0.	121.89
2624	-6.5169	-2.7454	0.	120.99
2625	-6.2777	-2.9942	0.	121.99
2626	-0.75917	6.0041	0.	124.87
2627	-0.25536	6.0023	0.	124.54
2628	-0.5067	6.2533	0.	124.15
2629	1.0381	1.2411	0.	127.03
2630	1.0285	1.744	0.	127.87
2631	0.77952	1.4931	0.	127.94
2632	1.2866	1.4951	0.	126.25
2633	-1.2552	-1.0048	0.	126.28
2634	-1.5045	-0.75527	0.	125.08
2635	-1.7574	-1.0078	0.	125.4
2636	-1.2493	3.9982	0.	126.64
2637	-1.4991	3.7479	0.	126.18
2638	-1.7493	3.9962	0.	126.32
2639	-2.0099	5.735	0.	127.55
2640	-2.2512	5.4674	0.	127.84
2641	-6.2966	-3.9839	0.	124.6
2642	-6.0522	-4.2278	0.	126.22
2643	-6.535	-3.7382	0.	123.48
2644	-6.7759	-3.492	0.	122.56
2645	-3.4946e-003	-2.751	0.	125.89
2646	0.2473	-2.5012	0.	126.51
2647	-3.7034e-003	-2.2516	0.	126.71
2648	-1.4333e-003	-1.2521	0.	129.08
2649	-0.2513	-1.0022	0.	129.09
2650	0.2505	-1.003	0.	130.06
2651	1.7072e-003	-0.75235	0.	130.21
2652	1.2699	-1.4993e-002	0.	127.38
2653	1.029	0.23949	0.	128.02
2654	1.0138	-0.25965	0.	129.16
2655	0.76711	-7.7556e-003	0.	129.47
2656	-1.7721	-3.0111	0.	128.44
2657	-2.0263	-3.2637	0.	129.36
2658	-2.0245	-2.7651	0.	128.12
2659	-0.75854	-3.0021	0.	126.5
2660	-0.25482	-3.001	0.	125.75
2661	-0.50623	-3.251	0.	125.66
2662	-1.2644	-3.0049	0.	127.68
2663	-1.0109	-3.2524	0.	127.41
2664	-1.5175	-3.2558	0.	128.97
2665	1.7544	-3.3246e-002	0.	124.97
2666	2.0041	-0.28417	0.	124.07
2667	2.1998	-2.3549e-002	0.	122.7
2668	1.516	-0.26832	0.	126.98
2669	1.5433	0.23004	0.	125.66
2670	-3.1904e-003	-1.7521	0.	127.85
2671	0.2485	-1.5026	0.	129.03
2672	4.4098	2.3241	0.	126.99
2673	4.3728	1.8265	0.	128.51
2674	4.1598	2.1013	0.	126.9
2675	1.7669	2.0135	0.	125.36
2676	1.2725	2.0001	0.	127.55
2677	1.5157	2.2557	0.	127.46
2678	1.5306	1.7512	0.	125.93
2679	2.0075	2.271	0.	124.55
2680	2.2558	2.037	0.	123.3
2681	-6.5378	-4.2327	0.	125.06
2682	-6.7824	-3.9881	0.	123.32
2683	-1.7667	5.9965	0.	127.39
2684	-2.0404	6.2591	0.	128.68
2685	-2.2603	5.9537	0.	128.75
2686	-0.74915	3.9987	0.	127.8
2687	-0.4983	3.7485	0.	129.53
2688	-0.24918	3.9989	0.	129.13
2689	-0.99854	3.7483	0.	127.68
2690	-0.75321	-1.0028	0.	127.74
2691	-1.0027	-0.75296	0.	127.08
2692	-0.50058	-0.75196	0.	129.08
2693	1.0403	0.73955	0.	127.19
2694	1.3025	0.48452	0.	126.29
2695	0.7818	0.4915	0.	128.58
2696	0.7846	0.99178	0.	127.81
2697	-3.5517	-4.3508	0.	124.44
2698	-3.8215	-4.139	0.	123.79
2699	-3.3049	-4.0761	0.	126.15
2700	-1.2642	6.0054	0.	126.03
2701	-1.5226	6.2609	0.	127.35
2702	-1.0128	6.2567	0.	125.59
2703	6.1781	3.021	0.	121.66
2704	6.4423	3.2728	0.	120.87
2705	6.4096	2.784	0.	122.31
2706	6.6811	3.0282	0.	122.66
2707	3.4961	1.4298	0.	124.84
2708	3.6851	1.6746	0.	126.58
2709	3.4613	1.8854	0.	124.54
2710	3.2351	1.6335	0.	123.88
2711	3.0477	0.20347	0.	120.46
2712	2.749	0.37298	0.	120.62
2713	2.6183	7.5789e-002	0.	121.05
2714	-7.0429	5.2893	0.	123.82
2715	-7.3119	5.5343	0.	122.43
2716	-6.8012	5.5756	0.	127.58
2717	-7.1167	5.759	0.	119.86
2718	-1.9993	3.2483	0.	125.35
2719	-1.7491	3.4979	0.	126.11
2720	-2.2495	3.4972	0.	127.29
2721	-1.9993	3.7462	0.	126.26
2722	-7.2741	5.038	0.	124.71
2723	-7.0155	4.7867	0.	125.98
2724	-6.7686	5.0457	0.	129.56
2725	-3.5375e-003	6.2514	0.	124.25
2726	0.24693	6.0011	0.	125.6
2727	-2.4047e-003	6.7512	0.	123.08
2728	-0.25488	6.5024	0.	123.85
2729	0.24769	6.5009	0.	125.01
2730	5.0787	1.7999	0.	120.94
2731	5.5779	1.9779	0.	116.84
2732	5.3542	1.6771	0.	116.6
2733	3.2964	1.1711	0.	123.25
2734	3.1291	0.91323	0.	121.29
2735	3.0354	1.3749	0.	122.28
2736	3.7412	1.2503	0.	127.37
2737	3.5863	0.9698	0.	122.95
2738	-7.2616	-2.9965	0.	122.55
2739	-7.0114	-2.7465	0.	121.91
2740	-7.0169	-3.2446	0.	122.17
2741	-3.7761	-2.0375	0.	125.28
2742	-3.522	-1.7805	0.	125.79
2743	-3.5355	-2.2961	0.	125.78
2744	-4.2733	-2.0363	0.	124.68
2745	-4.0192	-1.7801	0.	124.43
2746	5.6822	3.0125	0.	122.56
2747	5.9418	3.2637	0.	121.57
2748	5.9074	2.7638	0.	120.84
2749	3.7543e-002	-7.2326	0.	119.44
2750	0.299	-6.9819	0.	118.9
2751	-0.22636	-6.9879	0.	118.92
2752	2.4522e-002	-6.7399	0.	118.06
2753	-3.4667e-003	-3.2506	0.	125.19
2754	0.2472	-3.0008	0.	126.13
2755	-3.3593e-003	-3.7503	0.	123.99
2756	0.24716	-3.5005	0.	125.76
2757	-0.25488	-3.5006	0.	125.1
2758	-0.25448	-4.0001	0.	123.8
2759	0.24707	-4.0003	0.	124.44
2760	-2.8921e-003	-4.2501	0.	122.97
2761	3.2676	-1.0616	0.	120.8
2762	3.0159	-1.2902	0.	119.78
2763	2.7746	-1.0366	0.	120.27
2764	3.0517	-0.84352	0.	120.04
2765	5.4494	3.2614	0.	124.38
2766	5.1911	3.0189	0.	125.33
2767	-1.7487	2.9987	0.	124.99
2768	-1.9994	2.7492	0.	124.4
2769	-2.2494	2.9985	0.	126.2
2770	-5.3139	-5.5141	0.	130.17
2771	-5.2004	-5.7934	0.	130.52
2772	-4.9223	-5.841	0.	127.89
2773	-4.7753	-5.4686	0.	123.13
2774	0.24852	7.0008	0.	123.67
2775	-0.25334	7.0025	0.	122.66
2776	-1.4599e-003	7.251	0.	122.36
2777	5.9947	-3.7672	0.	127.74
2778	5.7438	-3.5173	0.	126.55
2779	6.2422	-3.5216	0.	126.24
2780	5.9881	-3.2782	0.	125.75
2781	7.6217	2.	0.	127.27
2782	7.9721	1.7114	0.	124.23
2783	8.1671	1.9421	0.	125.74
2784	7.9086	2.2109	0.	126.15
2785	7.763	1.7483	0.	125.3
2786	-7.543	5.2831	0.	123.36
2787	-7.5179	4.7832	0.	124.66
2788	-7.7746	5.0351	0.	124.9
2789	-7.5845	5.7774	0.	123.11
2790	-7.8025	5.5385	0.	125.09
2791	6.682	-2.0847	0.	126.43
2792	6.8783	-1.8517	0.	129.
2793	6.9438	-2.3003	0.	125.84
2794	7.1727	-2.0189	0.	125.14
2795	7.7061	-2.4915	0.	123.14
2796	7.2099	-2.5177	0.	124.14
2797	7.4687	-2.7517	0.	123.58
2798	7.4388	-2.2363	0.	123.43
2799	7.7426	-3.5016	0.	123.68
2800	7.4865	-3.2551	0.	123.71
2801	7.4956	-3.7549	0.	123.69
2802	7.7499	-4.5018	0.	122.53
2803	7.5002	-4.7524	0.	122.2
2804	7.2499	-4.5044	0.	123.86
2805	7.4989	-4.2537	0.	123.23
2806	-4.5164	-1.7764	0.	123.97
2807	-4.7695	-2.0271	0.	124.84
2808	-4.5316	-2.2982	0.	124.56
2809	-2.5067	-0.75912	0.	125.55
2810	-2.7595	-1.0127	0.	126.81
2811	-2.2589	-1.0105	0.	125.64
2812	-2.5124	-1.2642	0.	126.29
2813	-1.7535	-0.50496	0.	124.08
2814	-2.2542	-0.50606	0.	124.31
2815	-2.0064	-0.75744	0.	124.4
2816	-2.0029	-0.25482	0.	122.5
2817	3.	7.25	0.	117.87
2818	2.75	7.	0.	118.35
2819	3.25	7.	0.	117.64
2820	3.	6.75	0.	116.04
2821	3.25	7.5	0.	119.68
2822	2.75	7.5	0.	120.21
2823	3.	7.75	0.	119.7
2824	3.75	7.5	0.	122.23
2825	3.5	7.75	0.	120.87
2826	3.5	7.25	0.	119.49
2827	-2.5662	-6.915	0.	127.83
2828	-3.0032	-6.9325	0.	131.36
2829	-2.8124	-6.6925	0.	128.1
2830	-2.7208	-7.184	0.	129.28
2831	-0.22178	-7.4823	0.	121.37
2832	0.31691	-7.4737	0.	121.85
2833	4.1072e-002	-7.7265	0.	122.17
2834	-0.75077	-7.4833	0.	123.44
2835	-0.48937	-7.7337	0.	123.
2836	-0.48568	-7.2377	0.	120.89
2837	-1.7717	-3.5084	0.	129.88
2838	-2.0243	-3.7598	0.	130.97
2839	-2.2779	-4.0146	0.	130.87
2840	-2.5267	-4.268	0.	130.18
2841	-2.79	-4.0368	0.	128.71
2842	-3.2667	-1.5224	0.	126.28
2843	-3.0132	-1.2668	0.	127.14
2844	-2.766	-1.5184	0.	126.62
2845	5.2355	-2.5215	0.	123.08
2846	5.4778	-2.2834	0.	122.65
2847	5.7261	-2.5413	0.	123.44
2848	5.4851	-2.7751	0.	123.75
2849	3.5252	-0.36987	0.	122.74
2850	3.8646	-0.41762	0.	126.18
2851	3.5709	-0.82562	0.	122.93
2852	3.8231	-0.78739	0.	125.63
2853	3.3551	-0.60753	0.	122.14
2854	1.2599	-0.51297	0.	128.77
2855	1.0062	-0.75803	0.	130.43
2856	2.2913	-0.50803	0.	122.81
2857	2.5433	-0.75578	0.	121.07
2858	2.487	-0.24741	0.	121.43
2859	2.8204	-0.5627	0.	120.82
2860	0.74853	-2.5014	0.	127.26
2861	0.49799	-2.7511	0.	126.76
2862	0.49825	-2.2516	0.	127.4
2863	0.75274	-1.0054	0.	130.77
2864	0.50043	-1.2535	0.	130.02
2865	4.669	2.5527	0.	125.75
2866	4.9278	2.7841	0.	125.91
2867	3.4617	2.3463	0.	123.12
2868	3.4713	2.8142	0.	121.08
2869	3.7069	2.5792	0.	123.82
2870	3.2228	2.5704	0.	121.31
2871	1.0176	2.2469	0.	129.66
2872	0.7704	1.9953	0.	129.37
2873	2.2487	2.5297	0.	123.25
2874	2.497	2.2957	0.	122.
2875	2.4926	2.7838	0.	120.75
2876	2.7366	2.551	0.	121.
2877	0.76207	2.497	0.	131.52
2878	1.0092	2.7492	0.	131.87
2879	1.2607	2.5024	0.	129.56
2880	-5.5673	-5.2113	0.	130.59
2881	-5.8021	-4.9661	0.	129.75
2882	-2.7484	5.4453	0.	129.78
2883	-2.5016	5.6861	0.	129.04
2884	-7.5066	4.2788	0.	126.05
2885	-7.2593	4.5319	0.	125.93
2886	-7.7599	4.5307	0.	125.68
2887	0.50884	2.7466	0.	132.84
2888	0.50433	3.2477	0.	133.11
2889	0.25574	2.9971	0.	133.65
2890	0.75594	2.9987	0.	133.19
2891	-1.2483	3.4979	0.	127.22
2892	-1.4985	3.2482	0.	125.77
2893	-1.5016	-0.25353	0.	123.86
2894	-1.252	-0.50346	0.	125.89
2895	0.52601	1.2437	0.	128.71
2896	0.27006	1.4949	0.	129.15
2897	0.5214	1.7443	0.	129.44
2898	0.26212	-3.9765e-003	0.	131.13
2899	0.51989	0.24426	0.	130.03
2900	-2.2366	-7.1496	0.	128.62
2901	-2.3783	-6.6633	0.	128.37
2902	-2.1493	-6.9043	0.	128.61
2903	-0.76037	6.5058	0.	124.88
2904	-0.50581	6.7537	0.	123.45
2905	6.7081	3.5179	0.	120.83
2906	6.206	3.5156	0.	120.78
2907	6.4648	3.7642	0.	118.31
2908	7.456	3.2637	0.	125.17
2909	7.6992	3.0056	0.	126.05
2910	7.1893	3.023	0.	124.52
2911	7.4276	2.7712	0.	126.18
2912	-6.7608	-2.497	0.	121.01
2913	-6.2655	-2.4974	0.	120.75
2914	-6.5099	-2.2476	0.	118.94
2915	-7.5102	-3.2468	0.	122.56
2916	-7.7587	-3.4974	0.	122.3
2917	-7.2655	-3.495	0.	122.18
2918	-7.5126	-3.7459	0.	121.56
2919	-7.5075	-2.7476	0.	123.61
2920	-7.7578	-2.9976	0.	123.59
2921	-7.5003	2.7625	0.	127.64
2922	-7.5007	3.2675	0.	127.86
2923	-7.7502	3.0149	0.	128.13
2924	-7.2507	3.0139	0.	127.68
2925	6.4983	-4.2605	0.	127.25
2926	6.247	-4.0132	0.	127.89
2927	6.7476	-4.0112	0.	125.96
2928	6.4945	-3.7675	0.	126.4
2929	6.7501	-5.0041	0.	125.94
2930	7.0002	-5.2525	0.	123.99
2931	7.2503	-5.0025	0.	122.9
2932	7.	-4.7545	0.	124.55
2933	6.1972	-2.0923	0.	124.71
2934	6.4241	-1.9002	0.	126.99
2935	6.4522	-2.3328	0.	125.42
2936	3.3445	4.9602e-002	0.	121.08
2937	3.5943	2.6323e-002	0.	122.52
2938	-2.5053	6.9545	0.	129.53
2939	-2.5247	6.552	0.	130.02
2940	-2.7465	6.7599	0.	130.3
2941	-2.2909	6.6424	0.	129.63
2942	-2.7398	7.176	0.	128.59
2943	-2.491	7.3809	0.	128.34
2944	-2.2504	7.1097	0.	129.64
2945	3.9338	-2.1428e-002	0.	125.92
2946	4.3117	-9.8275e-002	0.	133.53
2947	4.2835	-0.45358	0.	128.46
2948	3.2313	0.47088	0.	120.6
2949	2.9325	0.6404	0.	120.76
2950	3.419	0.71193	0.	121.
2951	3.5202	0.23163	0.	121.93
2952	4.1295	1.6307	0.	128.96
2953	3.9302	1.4951	0.	129.09
2954	3.9165	1.9055	0.	127.38
2955	5.9604	-1.8467	0.	123.09
2956	5.7149	-2.0585	0.	122.87
2957	5.9633	-2.3164	0.	123.65
2958	6.8728	2.3158	0.	127.97
2959	6.6442	2.5454	0.	124.39
2960	6.9157	2.7897	0.	124.74
2961	7.154	2.5378	0.	126.39
2962	6.4997	-4.7566	0.	127.59
2963	6.4999	-5.254	0.	127.79
2964	6.2498	-5.0047	0.	129.3
2965	6.2492	-4.5082	0.	129.08
2966	6.7496	-4.507	0.	126.21
2967	-7.2504	2.5096	0.	126.12
2968	-7.0008	2.7609	0.	126.16
2969	-6.7507	2.5078	0.	123.74
2970	-7.0005	2.2574	0.	123.46
2971	-7.75	2.5103	0.	128.11
2972	-7.5002	2.2584	0.	127.56
2973	-7.2572	-2.4977	0.	122.97
2974	-7.7546	-2.4984	0.	125.02
2975	-7.5045	-2.2484	0.	125.29
2976	-7.0071	-2.2478	0.	121.54
2977	-5.7718	-2.5021	0.	122.22
2978	-6.0145	-2.2493	0.	120.72
2979	-6.0263	-2.7462	0.	121.75
2980	-5.5191	-2.2564	0.	123.86
2981	-5.5362	-2.7538	0.	123.22
2982	-5.2789	-2.5179	0.	123.74
2983	7.2137	3.514	0.	123.28
2984	6.9677	3.7636	0.	120.77
2985	6.947	3.2734	0.	122.63
2986	7.7202	3.5047	0.	125.88
2987	7.4736	3.7581	0.	125.29
2988	-1.2712	6.5121	0.	126.91
2989	-1.5199	6.7705	0.	128.97
2990	-1.7962	6.5235	0.	128.64
2991	-1.0117	6.7592	0.	126.24
2992	6.2498	-5.5025	0.	129.55
2993	6.4997	-5.7522	0.	128.8
2994	6.7499	-5.5025	0.	125.84
2995	-3.7947	-4.6484	0.	122.27
2996	-3.52	-4.8431	0.	124.14
2997	-3.2841	-4.5737	0.	126.
2998	-4.0645	-4.4367	0.	121.63
2999	-4.0249	-4.9423	0.	118.74
3000	-4.3015	-4.766	0.	120.74
3001	-2.4837	-5.2404	0.	130.35
3002	-2.2239	-5.4791	0.	129.87
3003	-2.4508	-5.7204	0.	129.95
3004	-2.7114	-5.493	0.	130.84
3005	-2.0266	-7.1592	0.	129.02
3006	-2.1106	-7.6797	0.	129.79
3007	-1.8308	-7.432	0.	128.44
3008	-2.3911	-7.4186	0.	130.14
3009	0.27198	0.99496	0.	129.78
3010	0.5261	0.74374	0.	129.19
3011	-0.49711	-0.25158	0.	130.66
3012	-0.24757	-0.50213	0.	130.2
3013	-0.75003	-0.50214	0.	128.42
3014	-0.99751	3.2481	0.	128.83
3015	-0.74769	3.4981	0.	129.42
3016	0.26029	2.4962	0.	133.26
3017	0.51488	2.2455	0.	131.23
3018	-7.5022	3.773	0.	127.29
3019	-7.7533	4.0255	0.	126.8
3020	-7.2535	4.0249	0.	127.38
3021	-7.7508	3.5201	0.	127.79
3022	-7.2513	3.5189	0.	128.31
3023	-2.7563	6.3423	0.	131.11
3024	-2.2979	6.4405	0.	129.69
3025	-2.5178	6.1351	0.	129.76
3026	-7.0271	-4.7362	0.	123.31
3027	-7.2702	-4.4914	0.	121.35
3028	-6.7809	-4.4841	0.	124.48
3029	-7.0255	-4.2395	0.	122.75
3030	-5.8287	-5.4413	0.	132.22
3031	-5.6392	-5.6541	0.	132.05
3032	2.0015	2.7669	0.	125.31
3033	1.7563	2.5131	0.	126.64
3034	0.7524	3.4996	0.	133.39
3035	0.25262	3.4982	0.	132.43
3036	0.50162	3.7488	0.	131.92
3037	4.442	2.8038	0.	127.84
3038	4.188	2.5721	0.	126.12
3039	1.7657	-0.51924	0.	126.1
3040	2.0184	-0.76662	0.	125.05
3041	1.5102	-0.76363	0.	128.97
3042	5.2328	-1.5248	0.	123.15
3043	5.723	-1.5736	0.	121.81
3044	5.4984	-1.2625	0.	117.77
3045	5.4775	-1.7854	0.	121.6
3046	-3.7651	-1.5231	0.	124.94
3047	-4.0098	-1.2663	0.	123.44
3048	-4.2623	-1.5202	0.	123.72
3049	-3.5128	-1.2692	0.	126.52
3050	-2.2482	-4.9954	0.	131.04
3051	-2.5092	-4.7571	0.	130.45
3052	-2.748	-5.0144	0.	130.04
3053	-1.5157	-3.7533	0.	130.89
3054	-1.2641	-3.5033	0.	128.7
3055	-1.0185	-7.73	0.	125.47
3056	-1.0031	-7.2318	0.	124.74
3057	-1.281	-7.4701	0.	126.39
3058	-2.1674	-6.4364	0.	129.23
3059	-2.6244	-6.4408	0.	128.67
3060	-2.415	-6.1958	0.	129.09
3061	0.82863	-6.9669	0.	122.72
3062	0.54467	-6.7333	0.	118.43
3063	0.57837	-7.2231	0.	121.35
3064	1.9621	-5.2731	0.	125.26
3065	1.7098	-5.5151	0.	130.22
3066	2.196	-5.5239	0.	119.6
3067	1.9169	-5.8126	0.	132.46
3068	4.6017	1.6138	0.	127.11
3069	4.8999	1.4518	0.	120.95
3070	5.9996	-5.7518	0.	131.89
3071	5.9997	-5.2532	0.	131.06
3072	5.7497	-5.502	0.	133.24
3073	0.49862	6.7505	0.	125.62
3074	0.7488	6.5003	0.	128.39
3075	0.49816	6.2506	0.	126.37
3076	0.74906	7.0003	0.	127.6
3077	0.49913	7.2504	0.	123.49
3078	-1.2495	-2.0958e-003	0.	125.45
3079	-1.4998	0.24799	0.	121.79
3080	-1.7511	-3.3913e-003	0.	122.26
3081	-6.7574	4.5293	0.	129.06
3082	-7.0062	4.278	0.	127.25
3083	-2.9941	5.6666	0.	131.35
3084	-3.2481	5.4468	0.	133.74
3085	-2.9985	5.2014	0.	130.89
3086	-2.981	6.9814	0.	129.37
3087	-3.2269	7.1958	0.	127.24
3088	-2.9919	7.4157	0.	127.2
3089	-2.9781	6.5502	0.	131.39
3090	-3.1955	6.7688	0.	130.91
3091	4.9991	5.7522	0.	132.2
3092	4.9975	5.2541	0.	131.65
3093	4.7488	5.5026	0.	133.36
3094	5.2489	5.5023	0.	132.4
3095	-2.7498	3.4956	0.	130.51
3096	-2.4996	3.7438	0.	128.37
3097	-2.4996	3.2473	0.	128.16
3098	-0.75725	-4.0001	0.	126.51
3099	-0.50452	-4.25	0.	122.94
3100	-0.506	-3.7504	0.	124.93
3101	5.7091	3.5126	0.	123.39
3102	5.9655	3.7614	0.	121.15
3103	4.	7.75	0.	124.02
3104	4.25	7.5	0.	126.12
3105	4.	7.2501	0.	124.3
3106	-1.2914	-7.9731	0.	127.16
3107	-1.5514	-8.2218	0.	128.59
3108	-1.8336	-7.961	0.	129.43
3109	-1.5538	-7.7132	0.	128.08
3110	-0.75712	-7.9804	0.	125.02
3111	-1.0206	-8.23	0.	126.55
3112	-0.49334	-8.2313	0.	124.92
3113	-0.22652	-7.9779	0.	123.78
3114	0.55618	-8.2136	0.	125.57
3115	0.58027	-7.7143	0.	123.98
3116	0.30443	-7.9672	0.	124.29
3117	0.83389	-7.9576	0.	126.6
3118	7.9634	3.2467	0.	126.76
3119	8.2076	2.9886	0.	126.93
3120	7.9398	2.7367	0.	126.61
3121	7.9794	3.7497	0.	127.4
3122	8.2255	3.4953	0.	127.28
3123	7.9996	5.7502	0.	128.46
3124	8.2498	6.	0.	127.82
3125	7.7498	6.0002	0.	131.25
3126	7.9999	6.2501	0.	128.58
3127	-2.4885	7.8401	0.	126.71
3128	-2.2412	7.5836	0.	128.74
3129	-2.7431	7.6206	0.	126.94
3130	-2.5031	-0.25539	0.	124.11
3131	-2.7546	-0.50747	0.	126.69
3132	-2.7399	8.0818	0.	125.72
3133	-3.247	8.0887	0.	125.76
3134	-2.9944	7.8623	0.	125.95
3135	-2.992	8.3245	0.	125.4
3136	-2.2387	8.0601	0.	126.75
3137	-2.4881	8.3112	0.	125.37
3138	7.8775	-1.7191	0.	118.5
3139	7.5546	-1.4359	0.	122.3
3140	8.118	-1.4788	0.	119.68
3141	7.8439	-1.2264	0.	111.04
3142	7.9321	-2.2277	0.	121.96
3143	8.1706	-1.9743	0.	122.47
3144	7.6649	-1.9724	0.	122.26
3145	7.9667	-2.7388	0.	123.12
3146	8.207	-2.4833	0.	123.5
3147	7.9854	-3.2456	0.	123.53
3148	8.2292	-2.9909	0.	123.95
3149	7.7293	-2.999	0.	123.56
3150	8.2413	-3.4958	0.	123.98
3151	7.9946	-3.7489	0.	123.39
3152	7.9999	-4.7506	0.	121.36
3153	8.2495	-4.4997	0.	122.61
3154	7.9985	-4.2502	0.	122.7
3155	8.0001	-5.2505	0.	119.32
3156	8.25	-5.0001	0.	121.07
3157	7.7502	-5.0013	0.	121.02
3158	8.0001	-5.7504	0.	116.69
3159	8.2501	-5.5002	0.	118.96
3160	7.7501	-5.5008	0.	118.93
3161	8.25	-6.0002	0.	116.46
3162	8.	-6.2502	0.	114.67
3163	7.75	-6.0005	0.	116.43
3164	2.4999	7.25	0.	120.73
3165	2.2499	7.	0.	123.72
3166	2.4999	6.75	0.	118.17
3167	2.5	7.75	0.	121.44
3168	2.2499	7.5	0.	124.19
3169	2.75	8.	0.	120.92
3170	2.25	8.	0.	123.31
3171	2.5	8.25	0.	121.57
3172	3.25	8.	0.	120.87
3173	3.	8.25	0.	120.81
3174	3.75	8.	0.	122.66
3175	3.5	8.25	0.	121.8
3176	4.25	8.	0.	125.31
3177	4.	8.25	0.	123.89
3178	4.5	7.75	0.	127.4
3179	4.5	8.25	0.	126.09
3180	4.75	8.	0.	127.59
3181	-7.838	6.0473	0.	127.03
3182	-7.6138	6.2681	0.	122.26
3183	-7.3893	6.0021	0.	120.46
3184	-8.0088	-4.7478	0.	116.97
3185	-7.7632	-4.9959	0.	116.73
3186	-8.2574	-4.9985	0.	116.64
3187	-8.0082	-5.2483	0.	114.84
3188	-8.0078	-4.2479	0.	119.57
3189	-8.2567	-4.4984	0.	119.25
3190	-7.7621	-4.496	0.	119.05
3191	-8.0068	-3.7481	0.	121.63
3192	-8.2556	-3.9986	0.	121.42
3193	-7.7608	-3.9966	0.	120.88
3194	-8.0063	-3.2482	0.	123.34
3195	-8.2551	-3.4987	0.	123.19
3196	-8.0049	-2.7485	0.	125.
3197	-8.2549	-2.9986	0.	124.73
3198	-8.0028	-2.249	0.	126.89
3199	-8.2529	-2.499	0.	126.29
3200	-8.0001	-0.24943	0.	129.44
3201	-8.0002	-0.74967	0.	129.41
3202	-7.7501	-0.49966	0.	131.11
3203	-8.2501	-0.49961	0.	128.72
3204	-8.	0.25108	0.	129.43
3205	-7.7501	6.7619e-004	0.	132.04
3206	-8.25	8.353e-004	0.	128.9
3207	-7.9999	2.7627	0.	128.6
3208	-7.9998	2.2587	0.	129.22
3209	-8.2496	2.5101	0.	128.99
3210	-8.0002	3.2676	0.	128.06
3211	-8.2497	3.0142	0.	128.51
3212	-8.0019	3.7726	0.	127.3
3213	-8.2503	3.5187	0.	127.91
3214	-8.0066	4.2775	0.	126.43
3215	-8.2534	4.0228	0.	127.17
3216	-8.0166	4.7826	0.	125.92
3217	-8.2593	4.5277	0.	126.62
3218	-8.0341	5.2904	0.	126.62
3219	-8.2702	5.0339	0.	126.86
3220	-8.056	5.8083	0.	128.98
3221	-8.2876	5.544	0.	128.6
3222	-3.7507	8.0816	0.	126.8
3223	-3.5113	7.859	0.	125.63
3224	-3.4999	8.323	0.	126.07
3225	-6.1085	-6.1082	0.	131.43
3226	-6.0596	-6.5266	0.	129.35
3227	-6.3189	-6.3853	0.	132.09
3228	-5.9024	-6.2824	0.	131.35
3229	-4.312	-8.1136	0.	116.03
3230	-3.8365	-8.1697	0.	118.21
3231	-4.0649	-8.3744	0.	116.38
3232	-4.0777	-7.9176	0.	110.52
3233	-4.5458	-8.3245	0.	120.
3234	-4.548	-7.8336	0.	117.22
3235	-4.7885	-8.0595	0.	123.5
3236	6.6204	-1.6672	0.	129.54
3237	6.1874	-1.6546	0.	125.39
3238	6.4722	-1.512	0.	130.78
3239	6.0998	2.0392	0.	120.23
3240	5.8557	1.7691	0.	114.49
3241	5.8672	2.2637	0.	118.23
3242	7.2907	1.8425	0.	129.78
3243	7.1002	2.0693	0.	129.4
3244	7.3814	2.2913	0.	127.86
3245	8.2591	1.4265	0.	123.77
3246	7.9542	1.2591	0.	119.09
3247	7.8441	1.517	0.	123.83
3248	2.0386	-8.2866	0.	125.2
3249	2.1742	-7.8325	0.	124.81
3250	2.2715	-8.0684	0.	121.62
3251	1.8305	-8.0148	0.	128.16
3252	5.9979	-4.2608	0.	129.71
3253	5.7472	-4.0111	0.	128.88
3254	-8.	0.75194	0.	129.49
3255	-7.75	0.50124	0.	130.8
3256	-8.25	0.50145	0.	128.78
3257	-7.75	2.0068	0.	128.67
3258	-8.2497	2.0069	0.	129.57
3259	-7.9999	1.7558	0.	129.92
3260	-6.7562	-1.9984	0.	119.44
3261	-6.5053	-1.7489	0.	114.12
3262	-6.2589	-1.9994	0.	118.89
3263	-8.0015	-1.7494	0.	128.68
3264	-8.2516	-1.9993	0.	127.92
3265	-7.7528	-1.999	0.	127.14
3266	6.2243	4.01	0.	118.66
3267	6.4807	4.2575	0.	112.79
3268	6.7244	4.0098	0.	118.21
3269	7.9984	5.2504	0.	128.4
3270	8.2492	5.5	0.	127.64
3271	7.7493	5.5004	0.	129.93
3272	7.7328	4.0031	0.	126.81
3273	8.2368	3.9981	0.	127.96
3274	7.9883	4.2502	0.	128.35
3275	6.25	8.	0.	120.73
3276	6.75	8.	0.	120.48
3277	6.5	7.75	0.	115.15
3278	6.5	8.25	0.	120.4
3279	8.	7.75	0.	128.57
3280	7.75	8.	0.	127.42
3281	8.25	8.	0.	127.62
3282	8.	8.25	0.	127.2
3283	-0.75715	7.0071	0.	124.82
3284	-0.50341	7.2533	0.	121.87
3285	-2.0006	7.3124	0.	130.03
3286	-1.7596	7.0445	0.	130.07
3287	-2.0359	6.7976	0.	129.74
3288	5.9932	-7.7501	0.	132.63
3289	5.9934	-8.2496	0.	132.16
3290	6.2447	-7.9999	0.	135.23
3291	5.7397	-7.9998	0.	130.86
3292	6.2495	-6.0015	0.	131.13
3293	5.999	-6.2513	0.	132.75
3294	5.7495	-6.0014	0.	134.91
3295	-0.23842	1.4969	0.	131.68
3296	1.6024e-002	1.2462	0.	130.22
3297	1.4004e-002	1.746	0.	130.82
3298	-0.24301	-2.0183e-003	0.	131.76
3299	6.5378e-003	-0.25256	0.	131.31
3300	1.1899e-002	0.24713	0.	132.01
3301	-1.2477	2.9984	0.	127.39
3302	-1.4984	2.7489	0.	124.01
3303	7.188e-003	2.7468	0.	134.07
3304	4.0358e-003	3.2477	0.	132.97
3305	-0.24522	2.9975	0.	133.58
3306	-7.0012	3.2653	0.	128.12
3307	-6.751	3.011	0.	126.82
3308	-3.0001	4.234	0.	130.6
3309	-2.7496	4.4811	0.	129.01
3310	-2.9997	4.7219	0.	130.49
3311	-3.2503	4.4826	0.	132.53
3312	-7.2733	-4.9889	0.	120.82
3313	-7.515	-5.245	0.	116.23
3314	-7.5165	-4.7441	0.	118.86
3315	-6.0634	-5.196	0.	131.42
3316	-6.2965	-4.9651	0.	129.55
3317	-6.0507	-4.7168	0.	128.84
3318	0.99901	5.7503	0.	129.7
3319	1.2493	5.5002	0.	132.43
3320	0.74857	5.5004	0.	128.15
3321	0.99907	5.2503	0.	129.97
3322	3.75	7.	0.	121.56
3323	3.5	6.75	0.	116.89
3324	4.5	7.2501	0.	129.11
3325	4.75	7.5001	0.	129.49
3326	1.004	3.2507	0.	133.46
3327	1.2548	3.0028	0.	132.05
3328	5.2157	3.5157	0.	127.24
3329	5.4707	3.7615	0.	125.94
3330	4.7008	3.0352	0.	127.97
3331	4.9574	3.2731	0.	128.21
3332	0.99884	-2.7514	0.	128.51
3333	0.99947	-2.2522	0.	128.66
3334	1.2493	-2.5016	0.	129.91
3335	1.2565	-1.0087	0.	130.62
3336	1.0029	-1.2557	0.	131.23
3337	2.479	-4.7567	0.	120.62
3338	2.2239	-5.011	0.	122.27
3339	2.7242	-5.0046	0.	119.23
3340	2.4578	-5.2618	0.	116.62
3341	2.4897	-4.2536	0.	122.62
3342	2.2373	-4.5054	0.	125.23
3343	2.7368	-4.5027	0.	121.94
3344	2.2438	-4.0027	0.	126.04
3345	2.4951	-3.7518	0.	121.65
3346	2.7432	-4.0019	0.	121.78
3347	3.7623	-1.029	0.	124.76
3348	3.5083	-1.2967	0.	120.53
3349	4.9643	-1.2581	0.	126.1
3350	5.084	-0.79797	0.	124.63
3351	5.2298	-0.99586	0.	120.77
3352	4.7066	-0.82769	0.	127.68
3353	4.7125	-1.0613	0.	128.37
3354	4.9917	-2.7622	0.	124.08
3355	4.9878	-2.266	0.	123.78
3356	4.7422	-2.5104	0.	125.57
3357	5.4963	-3.7611	0.	127.7
3358	5.2457	-3.5105	0.	126.34
3359	5.4918	-3.2674	0.	125.47
3360	-6.501	2.7579	0.	124.44
3361	-6.5007	2.2555	0.	120.41
3362	-6.2508	2.5053	0.	122.44
3363	-4.5002	2.7499	0.	110.65
3364	-4.5002	3.2499	0.	112.94
3365	-4.2503	2.9995	0.	118.6
3366	-4.7503	3.0003	0.	112.94
3367	-3.2592	-1.0136	0.	127.37
3368	-3.0074	-0.76102	0.	127.93
3369	-1.968	-5.7193	0.	129.66
3370	-1.9884	-5.2341	0.	130.53
3371	-1.7338	-5.4813	0.	131.3
3372	-1.7684	-4.0047	0.	131.95
3373	-2.0175	-4.2545	0.	132.3
3374	0.49783	-3.2508	0.	126.71
3375	0.7483	-3.001	0.	128.01
3376	0.4976	-3.7505	0.	126.23
3377	0.74796	-3.5008	0.	128.85
3378	0.74732	-4.0007	0.	128.37
3379	0.49741	-4.2503	0.	124.22
3380	-0.73802	-6.9862	0.	122.18
3381	-0.48534	-6.7416	0.	118.64
3382	-1.9384	-6.6774	0.	129.44
3383	-1.7133	-6.9383	0.	128.74
3384	7.0476	-1.5221	0.	129.89
3385	6.6829	-1.4844	0.	132.25
3386	7.0359	-1.2354	0.	134.16
3387	7.3082	-1.138	0.	135.25
3388	7.342	-1.6892	0.	126.06
3389	-1.9473	-6.2012	0.	129.89
3390	-1.7173	-5.9691	0.	131.15
3391	-2.1949	-5.9606	0.	129.75
3392	-1.7028	-6.4542	0.	131.2
3393	-1.2397	-6.9728	0.	126.51
3394	-1.4777	-6.7151	0.	130.51
3395	-1.5175	-7.2111	0.	128.16
3396	-0.98781	-6.7351	0.	125.11
3397	1.9822	-4.7596	0.	126.86
3398	1.7311	-5.008	0.	129.72
3399	1.9915	-4.2544	0.	128.63
3400	1.7405	-4.5043	0.	131.87
3401	0.99769	-3.751	0.	130.98
3402	0.99652	-4.2508	0.	131.28
3403	1.2465	-4.0014	0.	132.44
3404	-1.2616	-4.001	0.	130.32
3405	-1.0068	-4.2498	0.	129.45
3406	-1.0099	-3.751	0.	128.15
3407	-1.5109	-4.25	0.	133.93
3408	-2.0052	-4.7462	0.	132.19
3409	-1.76	-4.4998	0.	134.26
3410	-2.2662	-4.5079	0.	131.61
3411	-1.7482	-4.9917	0.	132.81
3412	-3.7574	-1.0124	0.	125.02
3413	-4.2557	-1.0099	0.	121.43
3414	-4.0046	-0.75823	0.	123.23
3415	-3.5063	-0.76035	0.	129.39
3416	-5.7508	3.0033	0.	119.84
3417	-5.5006	2.7518	0.	120.1
3418	-5.5005	3.2516	0.	115.06
3419	-5.2505	3.0012	0.	114.83
3420	4.2475	-4.0014	0.	121.56
3421	4.7481	-4.0034	0.	123.46
3422	4.498	-4.2516	0.	117.5
3423	4.4977	-3.7527	0.	124.87
3424	4.7454	-3.0069	0.	126.5
3425	4.9952	-3.2589	0.	125.63
3426	5.2412	-3.0159	0.	124.76
3427	4.9855	-1.7673	0.	124.91
3428	4.7394	-2.0201	0.	126.66
3429	5.2302	-2.0279	0.	123.35
3430	4.7371	-1.5299	0.	128.74
3431	4.0066	-1.2528	0.	127.63
3432	4.242	-0.82335	0.	128.
3433	4.2478	-1.0569	0.	128.69
3434	0.99844	-3.2511	0.	130.14
3435	1.2489	-3.0011	0.	131.34
3436	1.2482	-3.5011	0.	133.34
3437	1.9961	-3.7521	0.	129.57
3438	1.7451	-4.0024	0.	131.5
3439	1.7628	-1.011	0.	127.92
3440	2.0118	-1.2591	0.	126.76
3441	2.2704	-1.0144	0.	123.32
3442	1.5066	-1.2581	0.	132.19
3443	1.2504	-2.0029	0.	131.21
3444	0.74919	-2.0024	0.	128.81
3445	1.0009	-1.7537	0.	130.51
3446	4.2117	3.0469	0.	127.07
3447	3.9752	3.2882	0.	126.19
3448	3.722	3.0502	0.	122.61
3449	3.9577	2.8152	0.	125.36
3450	4.466	3.2845	0.	131.23
3451	4.9765	3.7659	0.	129.92
3452	4.7226	3.5223	0.	131.42
3453	4.9879	4.2607	0.	130.78
3454	5.2315	4.0117	0.	128.6
3455	4.7365	4.0132	0.	131.69
3456	1.0013	3.7504	0.	133.35
3457	1.2502	4.0009	0.	133.61
3458	1.	4.25	0.	131.87
3459	0.75052	3.9996	0.	131.88
3460	1.2515	3.5021	0.	134.67
3461	1.7515	3.0097	0.	128.42
3462	1.5022	3.2542	0.	133.28
3463	1.5063	2.7559	0.	129.76
3464	1.9988	3.261	0.	126.62
3465	2.2455	3.021	0.	122.81
3466	4.9997	6.2511	0.	132.98
3467	4.7496	6.0014	0.	133.08
3468	5.2497	6.0012	0.	134.45
3469	4.9999	6.7506	0.	132.72
3470	4.7499	6.5006	0.	133.43
3471	5.2499	6.5006	0.	134.03
3472	4.25	7.0001	0.	127.28
3473	4.75	7.0003	0.	131.26
3474	4.4999	6.7503	0.	132.
3475	3.9999	6.7501	0.	125.25
3476	1.7497	7.	0.	130.05
3477	1.9999	7.25	0.	127.15
3478	1.9998	6.75	0.	127.91
3479	0.99913	6.2502	0.	130.24
3480	0.99925	6.7501	0.	130.36
3481	1.2494	6.5001	0.	132.75
3482	1.2493	6.0001	0.	131.51
3483	0.74848	6.0004	0.	128.24
3484	-6.0944	-5.6599	0.	132.62
3485	-6.3339	-5.9167	0.	132.62
3486	-5.9049	-5.8727	0.	132.44
3487	-6.3131	-5.4445	0.	132.81
3488	-6.7854	-4.977	0.	126.24
3489	-6.5461	-5.2136	0.	131.
3490	-6.5392	-4.7249	0.	127.41
3491	-7.0285	-5.2344	0.	124.42
3492	-2.9858	6.1146	0.	131.96
3493	-3.2366	5.9033	0.	132.93
3494	-2.7473	5.9074	0.	130.61
3495	-3.2037	6.3381	0.	133.84
3496	-3.5003	3.247	0.	134.7
3497	-3.5002	2.7486	0.	136.96
3498	-3.2501	2.9975	0.	133.87
3499	-3.7502	2.9986	0.	129.06
3500	-3.0001	3.7415	0.	131.78
3501	-3.2502	3.4953	0.	133.76
3502	-3.	3.2458	0.	132.92
3503	-3.2504	3.9903	0.	132.07
3504	-2.7499	3.9897	0.	129.66
3505	-6.7516	3.5149	0.	129.73
3506	-7.0026	3.7707	0.	128.4
3507	-6.2511	3.0069	0.	124.32
3508	-6.5014	3.2606	0.	128.45
3509	-6.0009	2.7543	0.	122.33
3510	-6.0011	3.2545	0.	122.93
3511	-0.24259	2.497	0.	135.68
3512	1.0759e-002	2.2462	0.	133.14
3513	-0.99706	2.7485	0.	130.26
3514	-0.74646	2.998	0.	131.33
3515	-0.74691	-1.4706e-003	0.	129.69
3516	-0.99783	0.24879	0.	128.63
3517	-0.99982	-0.25203	0.	127.46
3518	-0.49398	0.24858	0.	133.51
3519	-3.3667	-8.193	0.	127.98
3520	-3.5824	-8.4093	0.	123.45
3521	-3.6086	-7.9844	0.	122.97
3522	-2.9069	-8.0845	0.	133.27
3523	-3.1029	-8.3967	0.	131.14
3524	-3.1477	-7.996	0.	136.75
3525	-2.9201	-7.8886	0.	137.26
3526	-2.629	-8.2469	0.	132.69
3527	-2.3933	-7.9661	0.	132.19
3528	-2.6739	-7.7049	0.	132.51
3529	-3.1444	-5.9864	0.	132.04
3530	-2.8796	-6.2122	0.	129.69
3531	-2.6702	-5.9673	0.	130.13
3532	-2.9308	-5.74	0.	130.99
3533	-3.4699	-5.3165	0.	128.42
3534	-3.7501	-5.1369	0.	120.61
3535	-3.2486	-5.057	0.	126.91
3536	6.7497	-6.0013	0.	126.71
3537	6.9997	-6.2508	0.	124.75
3538	6.9999	-5.7515	0.	123.75
3539	7.2499	-6.0009	0.	120.74
3540	6.4993	-6.2513	0.	131.64
3541	5.9977	-6.751	0.	132.93
3542	6.2488	-6.5011	0.	133.25
3543	5.7487	-6.501	0.	133.98
3544	1.2495	7.0001	0.	131.46
3545	0.99953	7.2501	0.	130.3
3546	1.4997	7.25	0.	133.28
3547	1.4996	6.75	0.	133.85
3548	1.9999	7.75	0.	126.04
3549	1.7499	7.5	0.	130.41
3550	2.	8.25	0.	124.12
3551	1.75	8.	0.	127.94
3552	-1.9914	7.8037	0.	128.78
3553	-1.9896	8.29	0.	126.43
3554	-1.7422	8.0348	0.	129.73
3555	-1.7469	7.5442	0.	131.7
3556	-1.2604	7.0175	0.	128.3
3557	-1.506	7.2763	0.	131.74
3558	-1.0062	7.2598	0.	127.44
3559	5.75	8.	0.	125.11
3560	6.	7.75	0.	123.02
3561	6.	8.25	0.	122.88
3562	5.5	7.75	0.	130.03
3563	5.25	8.	0.	128.08
3564	5.5	8.25	0.	126.56
3565	5.25	7.0003	0.	132.54
3566	5.	7.2503	0.	131.67
3567	8.25	7.5	0.	128.41
3568	7.75	7.5	0.	129.96
3569	8.	7.25	0.	129.09
3570	7.25	8.	0.	124.46
3571	7.5	8.25	0.	126.04
3572	7.5	7.75	0.	128.82
3573	7.	7.75	0.	122.32
3574	7.	8.25	0.	122.52
3575	7.4849	4.2542	0.	127.6
3576	7.2277	4.0077	0.	122.79
3577	8.2476	4.9999	0.	128.1
3578	7.7471	5.0006	0.	128.99
3579	7.9943	4.7503	0.	128.71
3580	4.994	4.757	0.	131.45
3581	4.7469	5.0047	0.	134.47
3582	5.2464	5.0049	0.	130.93
3583	5.2407	4.508	0.	130.57
3584	4.7434	4.5079	0.	133.46
3585	5.727	4.0103	0.	123.71
3586	5.4843	4.259	0.	128.42
3587	5.9818	4.2578	0.	120.99
3588	-5.5098	-1.7557	0.	126.64
3589	-5.2654	-2.0134	0.	124.82
3590	-5.7619	-2.0035	0.	122.37
3591	-8.0006	-1.2496	0.	129.53
3592	-7.7504	-0.99961	0.	130.03
3593	-8.2503	-0.9997	0.	129.03
3594	-7.7513	-1.4994	0.	130.05
3595	-8.2508	-1.4996	0.	129.01
3596	-7.0037	-1.7488	0.	121.93
3597	-7.2543	-1.9985	0.	123.85
3598	-7.2503	2.0063	0.	124.9
3599	-6.7505	2.0051	0.	120.07
3600	-7.0003	1.7544	0.	121.64
3601	-7.5001	1.7553	0.	129.25
3602	-8.2499	1.0026	0.	129.34
3603	-7.75	1.0023	0.	130.05
3604	-7.9999	1.2535	0.	130.
3605	3.7458	-4.0008	0.	121.41
3606	3.9972	-3.7509	0.	122.62
3607	3.9963	-4.2506	0.	121.83
3608	3.4959	-3.7508	0.	119.64
3609	3.4931	-4.2507	0.	123.55
3610	3.2439	-4.0011	0.	121.
3611	2.982	-4.7506	0.	120.54
3612	3.2395	-4.5007	0.	123.62
3613	2.9904	-4.251	0.	121.1
3614	3.2317	-5.0002	0.	122.89
3615	2.9666	-5.2478	0.	117.3
3616	5.9993	-4.7562	0.	130.77
3617	5.7496	-5.0038	0.	132.17
3618	5.7489	-4.5068	0.	131.92
3619	5.2478	-4.0068	0.	127.09
3620	5.4983	-4.2571	0.	131.11
3621	4.9984	-4.2537	0.	125.14
3622	4.9973	-3.7562	0.	125.73
3623	4.9805	-8.2506	0.	124.53
3624	4.72	-8.0013	0.	121.99
3625	4.978	-7.7506	0.	122.58
3626	5.2319	-8.0001	0.	126.21
3627	5.9952	-7.2507	0.	132.82
3628	5.7411	-7.5007	0.	132.47
3629	6.2453	-7.5005	0.	134.49
3630	6.2475	-7.0008	0.	133.21
3631	5.7464	-7.0009	0.	132.55
3632	7.1786	1.4294	0.	131.32
3633	7.0084	1.625	0.	135.26
3634	7.432	1.5909	0.	127.83
3635	6.6	2.0728	0.	127.07
3636	6.818	1.8517	0.	134.94
3637	6.3412	1.8319	0.	124.86
3638	6.3713	2.3024	0.	123.51
3639	6.017	-1.3953	0.	122.82
3640	6.6712	-1.1978	0.	136.6
3641	6.3019	-1.2527	0.	128.22
3642	6.8598	-0.84236	0.	140.17
3643	6.5618	-0.93183	0.	138.88
3644	4.1547	1.4336	0.	129.87
3645	4.4278	1.3306	0.	134.17
3646	4.0186	1.0914	0.	129.27
3647	4.0045	0.32472	0.	122.12
3648	3.7079	0.47268	0.	122.32
3649	7.2002	1.0411	0.	129.53
3650	6.942	1.1884	0.	132.65
3651	7.3176	1.2064	0.	128.34
3652	7.4411	0.73625	0.	124.37
3653	7.0364	0.7331	0.	132.98
3654	7.3896	1.0166	0.	125.95
3655	-5.7588	-8.0258	0.	134.04
3656	-5.5144	-8.2764	0.	132.65
3657	-5.2696	-8.0325	0.	130.95
3658	-5.5052	-7.7791	0.	135.45
3659	-5.2621	-6.2113	0.	132.52
3660	-5.5284	-6.1227	0.	132.55
3661	-5.5257	-5.9335	0.	132.4
3662	-5.7998	-6.6687	0.	128.38
3663	-6.2312	-6.8446	0.	131.21
3664	-5.9925	-6.9152	0.	129.47
3665	-3.9994	8.3112	0.	127.16
3666	-4.0432	7.8259	0.	125.72
3667	-4.26	8.0204	0.	127.81
3668	-3.9946	6.6194	0.	128.09
3669	-4.0084	6.4163	0.	130.06
3670	-4.2521	6.6549	0.	126.44
3671	-3.4938	7.4128	0.	125.86
3672	-3.8038	7.6033	0.	124.56
3673	-3.2588	7.6326	0.	125.82
3674	-3.4414	6.9833	0.	128.8
3675	-3.6155	6.7681	0.	131.48
3676	-3.4212	6.5567	0.	133.37
3677	-3.6983	7.1501	0.	124.92
3678	-7.2243	8.6548	0.	119.03
3679	-6.9874	8.9236	0.	119.91
3680	-6.9307	8.5251	0.	114.2
3681	-6.7279	8.7534	0.	123.89
3682	-7.7445	8.5202	0.	125.01
3683	-7.4891	8.8237	0.	120.88
3684	-7.4119	8.3779	0.	120.08
3685	-8.2364	8.2766	0.	132.2
3686	-8.2664	8.4961	0.	130.74
3687	-8.0095	8.7248	0.	128.22
3688	-7.9063	8.2008	0.	129.59
3689	-8.3038	6.0655	0.	132.08
3690	-8.0652	6.3542	0.	132.99
3691	8.4443	2.2043	0.	126.29
3692	8.4541	1.6572	0.	125.3
3693	8.7038	1.9525	0.	126.71
3694	8.4535	2.7251	0.	127.01
3695	8.7045	2.4719	0.	127.23
3696	8.1857	2.4732	0.	126.69
3697	8.4697	3.2373	0.	127.45
3698	8.7169	2.9839	0.	127.57
3699	8.4829	3.7437	0.	127.83
3700	8.7298	3.4908	0.	127.81
3701	8.7395	3.9951	0.	127.95
3702	8.4906	4.2469	0.	128.05
3703	8.4984	5.2495	0.	127.33
3704	8.7477	4.9988	0.	127.23
3705	8.4955	4.7486	0.	127.82
3706	8.4995	5.7498	0.	127.
3707	8.7491	5.4995	0.	126.69
3708	8.4999	6.2499	0.	126.97
3709	8.7497	5.9998	0.	126.43
3710	8.5	6.75	0.	127.21
3711	8.7499	6.5	0.	126.5
3712	8.2499	6.5	0.	127.73
3713	8.5	7.25	0.	127.52
3714	8.75	7.	0.	126.79
3715	8.25	7.	0.	128.2
3716	8.5	7.75	0.	127.46
3717	8.75	7.5	0.	127.04
3718	8.5	8.25	0.	126.84
3719	8.75	8.	0.	126.79
3720	-6.0078	-8.2704	0.	133.93
3721	-6.2538	-8.0161	0.	133.96
3722	-5.9998	-7.7829	0.	133.07
3723	5.7421	-8.4994	0.	130.35
3724	5.9951	-8.7495	0.	132.24
3725	6.2455	-8.4996	0.	133.76
3726	5.237	-8.5001	0.	127.38
3727	5.4922	-8.7494	0.	129.6
3728	5.4884	-8.2497	0.	129.05
3729	4.7313	-8.5027	0.	124.97
3730	4.9879	-8.7508	0.	126.69
3731	4.2273	-8.5106	0.	124.53
3732	4.4708	-8.2535	0.	122.46
3733	4.4845	-8.7545	0.	124.9
3734	3.725	-8.5261	0.	124.26
3735	3.9629	-8.2662	0.	125.43
3736	3.9826	-8.7643	0.	124.59
3737	3.2279	-8.541	0.	121.8
3738	3.4591	-8.2984	0.	126.52
3739	3.4821	-8.7788	0.	123.12
3740	2.7401	-8.5492	0.	119.51
3741	2.9631	-8.3063	0.	118.26
3742	2.9873	-8.7874	0.	120.28
3743	2.26	-8.5387	0.	121.37
3744	2.4992	-8.7905	0.	119.9
3745	2.4929	-8.3206	0.	117.76
3746	1.7825	-8.5089	0.	125.23
3747	2.0145	-8.7697	0.	123.24
3748	1.5302	-8.7437	0.	125.99
3749	1.2966	-8.4812	0.	126.98
3750	1.5744	-8.2371	0.	128.23
3751	0.28358	-8.4714	0.	125.74
3752	0.53153	-8.7226	0.	126.23
3753	0.7956	-8.4686	0.	126.61
3754	-0.23498	-8.4784	0.	125.59
3755	1.9736e-002	-8.7285	0.	125.92
3756	3.1833e-002	-8.225	0.	124.46
3757	-0.75678	-8.481	0.	126.45
3758	-0.49627	-8.7329	0.	126.36
3759	-1.2806	-8.4788	0.	127.98
3760	-1.0144	-8.7331	0.	127.51
3761	-1.8047	-8.479	0.	129.75
3762	-1.5329	-8.7316	0.	128.96
3763	-2.0494	-8.7384	0.	130.29
3764	-2.3226	-8.499	0.	131.08
3765	-2.0869	-8.2181	0.	130.57
3766	-3.3187	-8.6131	0.	126.61
3767	-3.0542	-8.8297	0.	128.66
3768	-2.825	-8.5592	0.	130.48
3769	-3.8108	-8.614	0.	121.54
3770	-3.5518	-8.8485	0.	124.18
3771	-4.2987	-8.5853	0.	120.19
3772	-4.0452	-8.8346	0.	120.84
3773	-4.7848	-8.553	0.	124.08
3774	-4.5354	-8.8069	0.	122.17
3775	-5.2722	-8.5318	0.	129.25
3776	-5.0246	-8.7842	0.	126.83
3777	-5.0275	-8.288	0.	127.57
3778	-5.7633	-8.521	0.	132.51
3779	-5.5156	-8.7717	0.	130.68
3780	-6.0097	-8.7643	0.	132.56
3781	-6.2579	-8.5126	0.	134.04
3782	8.4111	-1.734	0.	123.79
3783	8.6723	-1.4714	0.	128.44
3784	8.3611	-1.2621	0.	122.35
3785	8.4455	-2.2299	0.	124.01
3786	8.6947	-1.9757	0.	125.98
3787	8.4694	-2.7353	0.	124.34
3788	8.7156	-2.4824	0.	125.5
3789	8.4851	-3.2412	0.	124.4
3790	8.7314	-2.9885	0.	125.33
3791	8.4939	-3.7454	0.	124.15
3792	8.7414	-3.4934	0.	125.14
3793	8.498	-4.248	0.	123.48
3794	8.7467	-3.9966	0.	124.73
3795	8.2471	-3.9985	0.	123.57
3796	8.4995	-4.7492	0.	122.33
3797	8.7489	-4.4983	0.	124.02
3798	8.5	-5.2498	0.	120.72
3799	8.7498	-4.9993	0.	123.01
3800	8.5	-5.75	0.	118.78
3801	8.75	-5.4998	0.	121.86
3802	8.75	-5.9999	0.	120.88
3803	8.5	-6.25	0.	116.17
3804	2.25	8.5	0.	122.39
3805	2.	8.75	0.	123.82
3806	1.75	8.5	0.	126.34
3807	2.75	8.5	0.	121.47
3808	2.5	8.75	0.	122.19
3809	3.	8.75	0.	121.93
3810	3.25	8.5	0.	121.74
3811	4.25	8.5	0.	124.68
3812	4.	8.75	0.	123.9
3813	3.75	8.5	0.	123.03
3814	4.75	8.5	0.	125.91
3815	4.5	8.75	0.	125.11
3816	5.	8.75	0.	125.66
3817	5.	8.25	0.	127.42
3818	5.25	8.5	0.	125.88
3819	7.75	8.5	0.	125.81
3820	7.5	8.75	0.	124.89
3821	7.25	8.5	0.	124.1
3822	8.25	8.5	0.	126.41
3823	8.	8.75	0.	125.88
3824	8.75	8.5	0.	126.17
3825	8.5	8.75	0.	125.99
3826	-5.3065	8.2667	0.	114.53
3827	-4.7918	8.0742	0.	122.32
3828	-5.0323	8.4101	0.	117.48
3829	-4.2511	8.5425	0.	125.4
3830	-4.4932	8.7911	0.	123.96
3831	-4.5117	8.2517	0.	126.11
3832	-4.7522	8.5876	0.	121.24
3833	-3.7486	8.5527	0.	126.44
3834	-3.9956	8.7903	0.	126.17
3835	-3.4951	8.7981	0.	126.06
3836	-3.2449	8.5589	0.	125.7
3837	-2.239	8.5411	0.	125.04
3838	-2.4893	8.7896	0.	125.05
3839	-2.7401	8.5539	0.	125.05
3840	-1.9909	8.7773	0.	125.72
3841	-1.7421	8.525	0.	127.88
3842	-8.7542	-4.9994	0.	120.91
3843	-8.5046	-5.2494	0.	116.17
3844	-8.5052	-4.7491	0.	118.99
3845	-8.5038	-3.7491	0.	123.
3846	-8.7531	-3.9994	0.	123.59
3847	-8.5045	-4.249	0.	121.14
3848	-8.5037	-3.2491	0.	124.59
3849	-8.7528	-3.4993	0.	124.87
3850	-8.503	-2.7491	0.	126.03
3851	-8.7528	-2.9993	0.	126.01
3852	-8.5018	-2.2494	0.	127.32
3853	-8.7517	-2.4994	0.	127.06
3854	-8.751	-1.9996	0.	127.92
3855	-8.501	-1.7496	0.	128.25
3856	-8.4998	1.2536	0.	129.18
3857	-8.7498	1.0026	0.	128.62
3858	-8.4999	0.75212	0.	128.62
3859	-8.4997	1.7557	0.	129.5
3860	-8.7497	1.5041	0.	129.18
3861	-8.2498	1.5046	0.	129.85
3862	-8.4996	2.2584	0.	129.34
3863	-8.7496	2.0061	0.	129.34
3864	-8.4995	2.7616	0.	128.91
3865	-8.7494	2.5086	0.	129.14
3866	-8.4998	3.2653	0.	128.37
3867	-8.7495	3.0115	0.	128.77
3868	-8.5019	3.7689	0.	127.78
3869	-8.7503	3.5147	0.	128.3
3870	-8.7528	4.0178	0.	127.85
3871	-8.5061	4.273	0.	127.36
3872	-8.5238	5.2874	0.	128.84
3873	-8.7643	5.0276	0.	128.24
3874	-8.5129	4.7789	0.	127.56
3875	-8.5355	5.8012	0.	131.72
3876	-8.7742	5.5356	0.	129.78
3877	-8.5409	6.3205	0.	135.85
3878	-8.7822	6.0475	0.	132.33
3879	-8.4882	8.3245	0.	132.69
3880	-8.7008	8.0351	0.	132.2
3881	-8.3417	7.9046	0.	136.26
3882	-8.7569	8.5217	0.	130.15
3883	-8.5117	8.7776	0.	129.62
3884	1.0516	-6.7131	0.	125.84
3885	1.3576	-6.923	0.	127.62
3886	1.1265	-7.2055	0.	126.93
3887	4.2064	-8.0091	0.	123.38
3888	4.4592	-7.7513	0.	116.1
3889	3.697	-8.0385	0.	127.63
3890	3.1943	-8.0637	0.	122.98
3891	3.4199	-7.8466	0.	132.31
3892	-6.2506	2.0036	0.	119.56
3893	-6.5005	1.7533	0.	113.94
3894	-6.0007	2.2534	0.	121.61
3895	-5.7507	2.5029	0.	122.54
3896	-4.7544	-1.0073	0.	122.13
3897	-4.5036	-0.75631	0.	116.05
3898	-4.5082	-1.2638	0.	121.73
3899	-5.0061	-1.2586	0.	124.88
3900	-5.2575	-1.5081	0.	127.14
3901	-4.7599	-1.5151	0.	124.47
3902	-5.0131	-1.7658	0.	125.33
3903	-2.7519	-4.1604e-003	0.	125.76
3904	-2.5013	0.24687	0.	121.78
3905	-2.2518	-4.1601e-003	0.	122.27
3906	-3.0034	-0.25624	0.	128.33
3907	-3.2545	-0.50775	0.	129.94
3908	8.3381	1.1317	0.	123.16
3909	8.7263	1.4124	0.	126.8
3910	8.5329	1.1289	0.	127.13
3911	-3.8725	6.9349	0.	127.63
3912	-3.8292	6.5614	0.	133.77
3913	-4.0083	7.3406	0.	123.39
3914	-4.1301	6.9705	0.	125.93
3915	-4.3039	7.7703	0.	125.75
3916	-5.5394	-6.8306	0.	128.22
3917	-5.3763	-6.5132	0.	130.25
3918	-5.6426	-6.4245	0.	130.33
3919	-5.4968	-7.2893	0.	132.75
3920	-5.7321	-7.0771	0.	129.44
3921	-8.5475	6.834	0.	133.25
3922	-8.7855	6.5589	0.	134.03
3923	-8.3023	6.6092	0.	136.61
3924	-8.5982	7.3211	0.	128.6
3925	-8.8565	7.5222	0.	127.54
3926	-8.793	7.7602	0.	129.67
3927	-8.4339	7.6297	0.	133.66
3928	-8.7987	7.0559	0.	127.89
3929	8.0333	0.96435	0.	118.38
3930	7.7327	0.82968	0.	118.42
3931	7.6811	1.1101	0.	120.05
3932	8.406	0.8877	0.	125.52
3933	-3.2515	-3.6656e-003	0.	130.57
3934	-3.0012	0.24704	0.	128.75
3935	-5.0026	-0.7542	0.	124.07
3936	-5.2531	-1.0044	0.	127.19
3937	-5.7505	2.0021	0.	123.23
3938	-6.0004	1.7521	0.	121.19
3939	3.923	-7.7527	0.	127.52
3940	-6.2243	8.4262	0.	141.23
3941	-5.7807	8.3933	0.	126.45
3942	-6.1099	8.2409	0.	139.19
3943	-6.0027	8.6195	0.	135.21
3944	4.1604	0.66295	0.	124.45
3945	4.2918	0.98837	0.	133.15
3946	3.8638	0.81091	0.	124.94
3947	5.7925	-1.0842	0.	118.45
3948	6.1925	-0.98673	0.	130.64
3949	6.5592	1.6109	0.	132.41
3950	6.7718	1.384	0.	136.36
3951	2.7159	-8.0777	0.	116.33
3952	5.4923	-7.2509	0.	132.18
3953	5.2337	-7.5008	0.	127.07
3954	5.4876	-7.7504	0.	130.71
3955	5.2488	-4.504	0.	129.13
3956	5.4991	-4.7544	0.	133.27
3957	-7.5	1.253	0.	130.51
3958	-7.2501	1.5035	0.	125.98
3959	-7.75	1.5043	0.	130.48
3960	-7.252	-1.4992	0.	126.56
3961	-7.501	-1.2494	0.	130.52
3962	-7.5025	-1.749	0.	128.53
3963	-5.5045	-1.2539	0.	129.41
3964	-5.7556	-1.5028	0.	124.9
3965	5.7391	4.5065	0.	125.65
3966	5.4931	4.7558	0.	130.03
3967	7.4933	4.7517	0.	129.37
3968	7.2389	4.5031	0.	124.62
3969	7.7404	4.5013	0.	129.11
3970	7.25	7.5	0.	126.66
3971	7.5	7.25	0.	130.49
3972	5.75	7.5	0.	127.91
3973	5.5	7.2501	0.	132.49
3974	5.25	7.5001	0.	131.62
3975	-9.0022	-4.2496	0.	124.65
3976	-9.0026	-4.7497	0.	124.13
3977	-9.2517	-4.4997	0.	126.68
3978	-8.7537	-4.4993	0.	122.19
3979	-9.2515	-3.9997	0.	126.76
3980	-9.0021	-3.7496	0.	125.47
3981	-9.0005	-1.7498	0.	128.
3982	-9.2505	-1.9998	0.	127.98
3983	-9.001	-2.2497	0.	127.66
3984	-9.0002	-1.2498	0.	127.99
3985	-9.2502	-1.4998	0.	127.94
3986	-8.7505	-1.4997	0.	128.33
3987	-9.0001	-0.7497	0.	127.76
3988	-9.2501	-0.99982	0.	127.66
3989	-8.7502	-0.99976	0.	128.18
3990	-9.	-0.24944	0.	127.6
3991	-9.25	-0.49966	0.	127.38
3992	-8.7501	-0.49958	0.	127.93
3993	-8.9999	0.25102	0.	127.7
3994	-9.25	6.0954e-004	0.	127.32
3995	-8.75	7.9449e-004	0.	127.86
3996	-8.9998	0.75186	0.	128.09
3997	-9.2499	0.50106	0.	127.58
3998	-8.7499	0.50143	0.	128.09
3999	-8.9997	1.2531	0.	128.62
4000	-9.2498	1.0019	0.	128.11
4001	-8.9996	1.7546	0.	129.03
4002	-9.2497	1.5029	0.	128.68
4003	-8.9994	2.2564	0.	129.14
4004	-9.2496	2.0042	0.	129.05
4005	-9.2495	2.5057	0.	129.16
4006	-8.9994	2.7585	0.	129.
4007	-9.0013	3.7636	0.	128.37
4008	-9.2502	3.5093	0.	128.81
4009	-9.	3.2609	0.	128.71
4010	-9.2515	4.0115	0.	128.55
4011	-9.004	4.2666	0.	128.17
4012	-9.2584	5.0172	0.	128.61
4013	-9.0087	4.7704	0.	128.37
4014	-9.0147	5.2757	0.	129.18
4015	-9.0267	6.2859	0.	130.44
4016	-9.2677	6.025	0.	129.41
4017	-9.0209	5.7819	0.	130.4
4018	-9.2729	6.525	0.	128.05
4019	-9.0367	6.7807	0.	128.61
4020	-9.0068	7.7272	0.	128.13
4021	-9.2955	7.4954	0.	124.86
4022	-9.057	7.257	0.	126.66
4023	-8.9694	8.2323	0.	129.7
4024	-9.2156	7.9803	0.	127.59
4025	-8.9994	8.7518	0.	128.21
4026	-9.2446	8.4975	0.	127.4
4027	-8.7542	9.0077	0.	127.65
4028	-9.2517	9.0018	0.	126.41
4029	-9.0027	9.2533	0.	126.4
4030	-8.2548	9.0063	0.	127.08
4031	-8.5039	9.2578	0.	126.66
4032	-7.7541	9.0284	0.	124.11
4033	-8.0044	9.2541	0.	125.13
4034	-7.2522	9.0925	0.	121.61
4035	-7.5048	9.2919	0.	122.27
4036	-7.0029	9.3471	0.	121.58
4037	-6.749	9.1565	0.	123.11
4038	-4.2377	9.039	0.	124.74
4039	-4.4859	9.285	0.	123.8
4040	-4.7336	9.07	0.	122.67
4041	-3.7421	9.0358	0.	125.79
4042	-3.9926	9.2765	0.	125.4
4043	-3.2418	9.0364	0.	125.72
4044	-3.4934	9.2779	0.	125.98
4045	-2.7407	9.0329	0.	125.37
4046	-2.9927	9.2763	0.	126.05
4047	-2.9915	8.7972	0.	125.36
4048	-2.2412	9.0257	0.	125.75
4049	-2.4925	9.2724	0.	126.14
4050	-1.7435	9.0161	0.	128.09
4051	-1.9936	9.2658	0.	127.11
4052	-1.2518	7.5185	0.	130.84
4053	-1.4978	7.7754	0.	132.6
4054	1.4999	7.75	0.	132.22
4055	1.2498	7.5	0.	132.11
4056	2.25	9.	0.	123.63
4057	1.75	9.	0.	126.85
4058	2.	9.25	0.	125.24
4059	2.75	9.	0.	122.66
4060	2.5	9.25	0.	123.71
4061	3.25	9.	0.	122.85
4062	3.	9.25	0.	123.39
4063	3.75	9.	0.	123.53
4064	3.5	9.25	0.	123.59
4065	3.5	8.75	0.	122.66
4066	4.25	9.	0.	124.34
4067	4.	9.25	0.	124.05
4068	4.75	9.	0.	124.86
4069	4.5	9.25	0.	124.49
4070	5.25	9.	0.	124.77
4071	5.	9.25	0.	124.61
4072	5.75	9.	0.	124.06
4073	5.5	9.25	0.	124.25
4074	5.5	8.75	0.	124.99
4075	6.25	9.	0.	123.33
4076	6.	9.25	0.	123.61
4077	6.	8.75	0.	123.4
4078	6.75	9.	0.	123.32
4079	6.5	9.25	0.	123.29
4080	6.5	8.75	0.	122.45
4081	7.25	9.	0.	124.08
4082	7.	9.25	0.	123.65
4083	7.	8.75	0.	123.28
4084	7.75	9.	0.	124.97
4085	7.5	9.25	0.	124.4
4086	8.	9.25	0.	125.
4087	8.25	9.	0.	125.45
4088	9.	8.75	0.	125.68
4089	9.	9.25	0.	125.23
4090	9.25	9.	0.	125.32
4091	8.75	9.	0.	125.5
4092	9.	8.25	0.	126.12
4093	9.25	8.5	0.	125.64
4094	9.25	8.	0.	125.86
4095	9.	7.75	0.	126.36
4096	9.	6.7499	0.	126.08
4097	9.25	7.	0.	125.64
4098	9.	7.25	0.	126.31
4099	8.9998	6.2498	0.	125.96
4100	9.2499	6.4999	0.	125.43
4101	8.9994	5.7495	0.	126.12
4102	9.2497	5.9997	0.	125.49
4103	8.9985	5.2488	0.	126.59
4104	9.2492	5.4994	0.	125.88
4105	9.2482	4.9983	0.	126.56
4106	8.9964	4.7474	0.	127.2
4107	8.9864	3.7422	0.	127.92
4108	9.2426	3.995	0.	127.85
4109	8.9929	4.2455	0.	127.69
4110	8.9771	3.2375	0.	127.93
4111	9.2362	3.4919	0.	128.18
4112	8.9679	2.7308	0.	127.79
4113	9.2289	2.9883	0.	128.32
4114	8.964	2.2201	0.	127.65
4115	9.2228	2.4828	0.	128.32
4116	8.976	1.7078	0.	128.21
4117	9.224	1.9747	0.	128.36
4118	9.0146	1.2015	0.	130.09
4119	9.2417	1.4678	0.	129.06
4120	9.0549	0.70456	0.	131.31
4121	9.2795	0.96726	0.	130.37
4122	8.8212	0.91796	0.	130.39
4123	9.0858	0.21672	0.	129.24
4124	8.8293	0.43446	0.	133.59
4125	9.3014	0.47219	0.	129.86
4126	9.1196	-0.26359	0.	127.95
4127	8.8803	-4.3817e-002	0.	132.21
4128	9.3273	-1.6091e-002	0.	126.85
4129	9.1346	-0.73681	0.	131.65
4130	8.9335	-0.51784	0.	128.28
4131	9.3489	-0.50153	0.	127.64
4132	9.0435	-1.2118	0.	133.67
4133	8.9456	-0.98077	0.	139.77
4134	9.3401	-0.98357	0.	132.02
4135	8.9559	-1.7131	0.	130.65
4136	8.8558	-1.2215	0.	139.14
4137	9.2235	-1.471	0.	132.04
4138	8.9649	-2.2282	0.	127.47
4139	9.2196	-1.9805	0.	129.13
4140	8.9776	-2.7356	0.	126.5
4141	9.2286	-2.4863	0.	127.87
4142	8.9877	-3.2407	0.	126.07
4143	9.2372	-2.9906	0.	127.22
4144	8.9943	-3.7445	0.	125.72
4145	9.2435	-3.4941	0.	126.78
4146	8.9976	-4.247	0.	125.26
4147	9.2472	-3.9966	0.	126.41
4148	8.9991	-4.7485	0.	124.7
4149	9.2489	-4.4981	0.	126.12
4150	8.9998	-5.2493	0.	124.15
4151	9.2497	-4.9991	0.	125.98
4152	9.	-5.7497	0.	123.96
4153	9.2499	-5.4996	0.	126.17
4154	9.	-6.2499	0.	125.08
4155	9.25	-5.9998	0.	127.14
4156	6.4986	-6.7509	0.	133.48
4157	6.7493	-6.5009	0.	129.62
4158	-3.6832	-5.5913	0.	120.08
4159	-3.4106	-5.773	0.	132.8
4160	-3.197	-5.5266	0.	131.94
4161	-6.6623	8.3741	0.	126.38
4162	-6.323	8.2304	0.	140.53
4163	-6.4595	8.6025	0.	136.08
4164	-0.49248	0.74852	0.	134.64
4165	-0.74491	0.49885	0.	132.39
4166	-0.23908	0.49773	0.	133.76
4167	-0.74559	2.4981	0.	134.09
4168	-0.49376	2.2476	0.	136.17
4169	-0.495	2.7476	0.	135.21
4170	-6.2514	3.5082	0.	127.01
4171	-6.5022	3.7644	0.	130.27
4172	-3.5005	3.7441	0.	133.99
4173	-3.7504	3.4974	0.	130.34
4174	-3.6348	6.35	0.	135.6
4175	-3.4546	6.1268	0.	134.78
4176	-9.0024	-5.2498	0.	124.78
4177	-9.2521	-4.9998	0.	127.25
4178	5.7451	-8.9995	0.	131.5
4179	6.2471	-8.9996	0.	133.38
4180	5.9971	-9.2496	0.	133.46
4181	5.2431	-9.0002	0.	128.92
4182	5.4958	-9.2496	0.	130.94
4183	4.7411	-9.0026	0.	126.62
4184	4.9944	-9.2507	0.	128.24
4185	4.2398	-9.0082	0.	124.96
4186	4.4933	-9.2535	0.	126.01
4187	3.7397	-9.0169	0.	123.45
4188	3.9928	-9.259	0.	124.3
4189	3.2415	-9.0252	0.	121.6
4190	3.4932	-9.2662	0.	122.53
4191	2.7463	-9.0288	0.	120.65
4192	2.9953	-9.271	0.	120.91
4193	2.2537	-9.0216	0.	121.77
4194	2.4995	-9.2708	0.	120.97
4195	1.7622	-9.0045	0.	124.
4196	2.0049	-9.2602	0.	122.74
4197	1.2693	-8.9877	0.	125.69
4198	1.511	-9.2465	0.	124.77
4199	0.77158	-8.9792	0.	126.31
4200	1.0149	-9.2359	0.	125.96
4201	1.0356	-8.7252	0.	126.68
4202	0.26768	-8.9798	0.	126.41
4203	0.51487	-9.2337	0.	126.4
4204	-0.24156	-8.9831	0.	126.69
4205	1.0179e-002	-9.2358	0.	126.69
4206	-0.75393	-8.9851	0.	127.42
4207	-0.49787	-9.2381	0.	127.24
4208	-1.2668	-8.986	0.	128.49
4209	-1.0073	-9.2389	0.	128.11
4210	-1.7776	-8.9911	0.	129.51
4211	-1.5159	-9.2403	0.	129.08
4212	-2.0221	-9.2477	0.	129.7
4213	-2.2849	-9.0069	0.	129.89
4214	-3.026	-9.2923	0.	127.58
4215	-3.2873	-9.0652	0.	126.24
4216	-2.7872	-9.038	0.	128.86
4217	-4.2819	-9.0562	0.	122.78
4218	-4.0261	-9.2983	0.	123.07
4219	-3.7863	-9.0692	0.	123.45
4220	-4.7752	-9.0381	0.	124.93
4221	-4.5221	-9.2851	0.	123.86
4222	-5.2679	-9.0241	0.	128.27
4223	-5.0167	-9.2727	0.	126.62
4224	-5.7619	-9.015	0.	130.7
4225	-5.5115	-9.2642	0.	129.38
4226	-6.2576	-9.0087	0.	130.66
4227	-6.0076	-9.2588	0.	130.47
4228	-6.7547	-9.0043	0.	126.8
4229	-6.5058	-8.7571	0.	132.2
4230	-6.5048	-9.2547	0.	128.6
4231	-7.2527	-9.0018	0.	120.4
4232	-7.0033	-8.7527	0.	124.92
4233	-7.0029	-9.2522	0.	123.24
4234	-7.7515	-9.0007	0.	115.55
4235	-7.5017	-8.7508	0.	115.59
4236	-7.5017	-9.2509	0.	117.49
4237	-8.2508	-9.0002	0.	115.24
4238	-8.0009	-8.7503	0.	113.84
4239	-8.0009	-9.2503	0.	114.94
4240	-8.7504	-9.0001	0.	119.76
4241	-8.5004	-8.7501	0.	115.13
4242	-8.5005	-9.2501	0.	117.04
4243	-9.0002	-8.75	0.	124.05
4244	-9.2502	-9.	0.	126.67
4245	-9.0002	-9.25	0.	122.91
4246	-6.504	-8.2584	0.	134.05
4247	-6.7544	-8.5054	0.	130.23
4248	-6.7893	-5.4709	0.	129.12
4249	-6.5526	-5.7013	0.	132.78
4250	1.7497	6.5	0.	131.68
4251	1.4996	6.2501	0.	133.95
4252	4.2499	6.5003	0.	129.91
4253	4.4997	6.2508	0.	133.48
4254	1.7495	3.5055	0.	131.42
4255	1.5004	3.7526	0.	134.89
4256	4.2295	3.5258	0.	130.27
4257	4.4826	3.7697	0.	133.17
4258	1.7555	-1.5062	0.	130.98
4259	1.5025	-1.7544	0.	133.43
4260	1.253	-1.5052	0.	132.78
4261	1.7479	-3.5012	0.	132.84
4262	1.4987	-3.2512	0.	134.47
4263	1.497	-3.7516	0.	134.79
4264	4.491	-1.7827	0.	130.42
4265	4.244	-1.5289	0.	129.92
4266	4.4853	-1.3331	0.	130.99
4267	-5.5005	2.2516	0.	124.16
4268	-5.2504	2.5012	0.	119.22
4269	-3.7501	2.4993	0.	131.66
4270	-3.5001	2.2494	0.	137.77
4271	-3.25	2.499	0.	137.16
4272	-3.5026	-0.25518	0.	132.16
4273	-3.7535	-0.50621	0.	127.56
4274	-1.2562	-4.4988	0.	132.99
4275	-1.503	-4.7453	0.	134.83
4276	1.2442	-4.5017	0.	133.55
4277	1.4894	-4.7527	0.	134.62
4278	1.4941	-4.2523	0.	134.73
4279	-1.2258	-6.4774	0.	129.06
4280	-1.4728	-6.2222	0.	132.42
4281	1.2366	-6.4349	0.	132.11
4282	1.4485	-6.18	0.	139.68
4283	1.5426	-6.6449	0.	133.59
4284	1.6731	-6.2461	0.	139.08
4285	7.1321	-0.74491	0.	140.25
4286	6.9744	-0.38501	0.	133.22
4287	6.6923	-0.48945	0.	133.54
4288	8.7446	-0.7618	0.	136.02
4289	8.5447	-1.0122	0.	132.53
4290	8.6238	0.17392	0.	136.49
4291	8.5956	0.64786	0.	132.67
4292	8.6943	-0.29806	0.	132.17
4293	8.0871	-1.0097	0.	112.7
4294	7.5975	-0.92847	0.	124.03
4295	7.1584	5.7514e-002	0.	134.23
4296	6.8243	-2.2098e-002	0.	131.82
4297	7.445	0.44392	0.	131.9
4298	7.0402	0.44076	0.	140.75
4299	0.7676	-6.4794	0.	121.55
4300	0.27019	-6.4913	0.	117.58
4301	-0.23447	-6.4936	0.	117.76
4302	-0.73513	-6.4906	0.	121.55
4303	0.7466	-4.5004	0.	127.1
4304	0.24744	-4.5001	0.	122.72
4305	-0.25293	-4.4999	0.	122.09
4306	-0.75412	-4.4997	0.	125.87
4307	-3.5008	0.24774	0.	135.79
4308	-3.5001	0.74914	0.	139.56
4309	-3.2504	0.49845	0.	133.91
4310	-5.5003	1.7511	0.	128.76
4311	-5.5002	1.2506	0.	133.47
4312	-5.7503	1.5011	0.	126.61
4313	4.4959	-2.755	0.	127.96
4314	4.4971	-3.2534	0.	127.89
4315	4.4937	-2.2645	0.	128.42
4316	3.7473	-3.501	0.	120.82
4317	4.2474	-3.5023	0.	125.78
4318	3.247	-3.5009	0.	119.
4319	2.7469	-3.5011	0.	120.25
4320	2.995	-3.7512	0.	120.41
4321	2.2474	-3.5011	0.	125.15
4322	3.7525	-1.5205	0.	123.36
4323	3.2566	-1.5253	0.	119.47
4324	2.7571	-1.5181	0.	119.51
4325	2.2571	-1.5092	0.	123.44
4326	2.5158	-1.2645	0.	120.01
4327	1.4994	-2.7513	0.	132.71
4328	1.5002	-2.2522	0.	132.43
4329	3.7354	3.5253	0.	121.65
4330	3.2397	3.5224	0.	116.32
4331	3.4822	3.2872	0.	118.1
4332	2.7433	3.517	0.	116.38
4333	2.9876	3.2801	0.	117.08
4334	2.2467	3.5108	0.	121.92
4335	2.4934	3.2708	0.	118.15
4336	3.7499	6.5001	0.	120.55
4337	3.25	6.5	0.	115.23
4338	2.75	6.5	0.	115.79
4339	2.2499	6.5	0.	122.33
4340	-6.4971	-7.7555	0.	134.28
4341	-6.4692	-7.2335	0.	134.41
4342	-6.243	-7.5222	0.	133.46
4343	-6.4905	-6.7033	0.	133.91
4344	-6.2077	-7.0353	0.	132.16
4345	-6.5443	-6.1938	0.	133.23
4346	-7.2522	-8.5017	0.	120.1
4347	-8.7503	-8.5	0.	119.4
4348	-9.2501	-8.5	0.	129.48
4349	-8.2506	-8.5001	0.	113.69
4350	-7.7511	-8.5005	0.	113.84
4351	-8.7528	-5.4998	0.	119.99
4352	-9.2513	-5.5	0.	129.85
4353	-8.2554	-5.4992	0.	114.31
4354	-7.2702	-5.4905	0.	119.81
4355	-7.76	-5.4974	0.	114.28
4356	1.4539	-5.7286	0.	138.01
4357	1.6609	-6.026	0.	140.17
4358	1.4788	-5.25	0.	134.67
4359	-1.4831	-5.7311	0.	132.77
4360	-1.4936	-5.2389	0.	133.52
4361	-4.2525	-0.50463	0.	117.73
4362	-4.7517	-0.50322	0.	117.86
4363	-5.251	-0.50194	0.	129.55
4364	-4.2502	2.4998	0.	115.8
4365	-4.0002	2.7493	0.	123.75
4366	-4.7503	2.5003	0.	111.83
4367	-5.0003	2.7506	0.	114.13
4368	4.4993	5.7518	0.	134.22
4369	4.492	4.2604	0.	134.35
4370	4.4963	4.7556	0.	136.5
4371	4.4983	5.2532	0.	136.18
4372	1.5	4.2513	0.	135.08
4373	1.4997	4.7506	0.	136.39
4374	1.2498	4.5005	0.	133.36
4375	1.4996	5.7501	0.	134.23
4376	1.4996	5.2503	0.	136.23
4377	1.2494	5.0004	0.	133.77
4378	-3.4906	5.6835	0.	135.31
4379	-3.4996	5.2153	0.	136.78
4380	-3.25	4.9698	0.	133.94
4381	-3.5006	4.7305	0.	136.
4382	-3.5005	4.2389	0.	133.99
4383	-4.2503	3.4993	0.	119.07
4384	-4.0003	3.2489	0.	124.7
4385	-4.7502	3.5001	0.	112.3
4386	-5.2503	3.5008	0.	112.47
4387	-5.0003	3.2505	0.	112.31
4388	-5.7508	3.5028	0.	118.07
4389	-6.436	5.8453	0.	142.97
4390	-6.553	6.1033	0.	137.94
4391	-6.2539	6.309	0.	149.58
4392	-6.5269	5.332	0.	133.34
4393	-6.6557	5.872	0.	128.07
4394	-6.5105	4.7882	0.	132.64
4395	-6.5043	4.2716	0.	130.78
4396	-0.49231	1.2481	0.	133.86
4397	-0.23786	0.99738	0.	132.44
4398	-0.49284	1.7477	0.	134.5
4399	-1.2482	0.49888	0.	124.96
4400	-1.7498	0.49858	0.	120.71
4401	-2.2505	0.49823	0.	120.69
4402	-2.001	0.2472	0.	121.2
4403	-2.7506	0.49807	0.	124.75
4404	-3.5	1.2496	0.	139.07
4405	-3.5	1.7497	0.	137.03
4406	-2.2496	2.4995	0.	124.28
4407	-2.4997	2.7488	0.	126.12
4408	-2.7499	2.4992	0.	129.64
4409	-1.749	2.4994	0.	123.39
4410	-1.2478	2.499	0.	126.86
4411	-8.0116	7.8288	0.	133.4
4412	-7.5737	8.0586	0.	124.64
4413	-7.1183	8.2482	0.	114.87
4414	-6.1912	6.8008	0.	142.26
4415	-6.2085	7.3066	0.	136.8
4416	-7.841	6.575	0.	128.21
4417	-7.4058	6.4473	0.	119.18
4418	-6.9828	6.2559	0.	120.02
4419	-7.1814	6.1813	0.	117.48
4420	-6.9712	6.0554	0.	120.11
4421	-4.3138	-7.6376	0.	111.55
4422	-3.8498	-7.7323	0.	114.83
4423	-4.7806	-7.5477	0.	123.7
4424	-4.984	-6.2589	0.	129.74
4425	-4.5899	-5.9725	0.	122.4
4426	-4.1536	-5.7377	0.	112.29
4427	-3.9634	-5.4118	0.	112.32
4428	-4.4429	-5.6001	0.	117.64
4429	-3.1959	-7.1604	0.	132.84
4430	-3.1597	-7.5956	0.	135.49
4431	-2.9135	-7.4119	0.	130.99
4432	-3.274	-6.694	0.	133.11
4433	-3.3479	-6.2282	0.	132.13
4434	-3.0831	-6.4541	0.	129.85
4435	6.4975	-8.7497	0.	134.88
4436	6.4985	-9.2497	0.	134.45
4437	6.4969	-8.2499	0.	136.85
4438	6.4969	-7.7502	0.	137.09
4439	6.4976	-7.2506	0.	134.86
4440	7.2497	-6.5004	0.	119.95
4441	7.7499	-6.5002	0.	114.14
4442	7.4999	-6.2505	0.	115.97
4443	8.25	-6.5001	0.	114.33
4444	8.75	-6.5	0.	120.34
4445	9.25	-6.4999	0.	130.29
4446	1.5	8.75	0.	129.35
4447	1.5	9.25	0.	129.26
4448	1.5	8.25	0.	130.13
4449	0.7496	7.5002	0.	126.14
4450	0.24915	7.5006	0.	122.14
4451	-0.25153	7.5018	0.	121.56
4452	-0.75247	7.5059	0.	124.47
4453	-1.4947	8.2698	0.	131.18
4454	-1.4947	8.7638	0.	130.2
4455	-1.4959	9.2583	0.	130.41
4456	6.25	7.5	0.	117.31
4457	6.75	7.5	0.	116.86
4458	7.5	6.7501	0.	131.34
4459	7.75	7.	0.	129.65
4460	7.4999	6.2501	0.	133.09
4461	7.7499	6.5001	0.	130.42
4462	7.498	5.2506	0.	130.5
4463	7.4996	5.7503	0.	132.72
4464	6.738	4.5043	0.	114.25
4465	6.9817	4.2567	0.	119.83
4466	6.2383	4.5053	0.	115.02
4467	5.5	6.7503	0.	133.83
4468	5.4999	6.2506	0.	135.5
4469	5.4994	5.7514	0.	134.64
4470	5.4978	5.2531	0.	131.69
4471	-5.5	0.75017	0.	136.
4472	-5.5001	0.2498	0.	136.97
4473	-5.5004	-0.2509	0.	136.09
4474	-5.5016	-0.75214	0.	132.74
4475	-6.2541	-1.5001	0.	115.77
4476	-6.0076	-1.7506	0.	120.66
4477	-6.7529	-1.4993	0.	116.51
4478	-7.5003	-0.7496	0.	131.72
4479	-7.5001	-0.24955	0.	133.71
4480	-7.5001	0.25084	0.	133.42
4481	-7.5	0.75161	0.	131.34
4482	-6.2503	1.5018	0.	115.46
4483	-6.7503	1.5026	0.	115.34
4484	3.4818	-5.2502	0.	128.43
4485	3.4892	-4.7503	0.	125.9
4486	3.4686	-5.7534	0.	140.06
4487	3.2167	-5.4978	0.	122.83
4488	4.2468	-4.5009	0.	117.63
4489	3.7436	-4.5006	0.	123.9
4490	4.7484	-4.5019	0.	118.99
4491	5.4995	-5.2527	0.	134.35
4492	5.4996	-5.7516	0.	136.28
4493	5.4992	-6.251	0.	136.14
4494	5.4975	-6.7509	0.	133.58
4495	4.7172	-7.5006	0.	116.46
4496	4.1757	-7.4949	0.	120.2
4497	3.6459	-7.5608	0.	132.15
4498	3.6735	-7.3732	0.	130.38
4499	-5.5258	8.5466	0.	116.9
4500	-4.5223	6.6884	0.	120.34
4501	-4.9446	6.4781	0.	110.56
4502	-5.4319	6.3658	0.	108.85
4503	-5.9316	6.429	0.	127.52
4504	-6.2089	7.7991	0.	136.58
4505	4.3824	0.24787	0.	129.45
4506	4.6957	-0.11845	0.	130.85
4507	5.0449	-0.44404	0.	122.61
4508	4.6675	-0.47376	0.	125.72
4509	5.3701	-0.79441	0.	118.53
4510	4.7261	1.1686	0.	127.92
4511	5.1754	1.329	0.	116.47
4512	6.0971	1.5618	0.	118.95
4513	5.632	1.4684	0.	114.21
4514	6.3943	-0.57892	0.	132.03
4515	6.5422	-0.12654	0.	131.74
4516	6.7062	0.36115	0.	138.08
4517	6.7782	0.8804	0.	136.
4518	2.0152	-7.5398	0.	128.6
4519	2.3897	-7.8532	0.	119.65
4520	2.1613	-7.3973	0.	128.72
4521	1.6813	-7.176	0.	131.78
4522	1.8274	-7.0335	0.	131.51
4523	1.6715	-7.7221	0.	132.03
4524	1.4502	-7.4585	0.	131.27
4525	1.8841	-7.3198	0.	134.39
4526	3.1891	-5.9867	0.	127.21
4527	3.5342	-6.2264	0.	141.41
4528	2.6623	-5.9898	0.	108.37
4529	2.9372	-5.7311	0.	109.98
4530	2.4252	-5.7637	0.	113.34
4531	2.1461	-6.0523	0.	126.21
4532	-9.5001	-8.75	0.	132.14
4533	-9.5001	-9.25	0.	129.59
4534	-9.5	-8.25	0.	134.18
4535	-9.5	-7.75	0.	135.38
4536	-9.5	-7.25	0.	137.21
4537	-9.5	-6.75	0.	137.23
4538	-9.5001	-6.25	0.	135.48
4539	-9.5005	-5.75	0.	134.35
4540	-9.5011	-5.25	0.	132.36
4541	-9.5012	-4.7499	0.	129.79
4542	-9.501	-4.2498	0.	128.78
4543	-9.5008	-3.7499	0.	128.35
4544	-9.5007	-3.2499	0.	128.18
4545	-9.2514	-3.4997	0.	127.06
4546	-9.5005	-2.7499	0.	128.14
4547	-9.2512	-2.9997	0.	127.42
4548	-9.5004	-2.2499	0.	128.09
4549	-9.2508	-2.4998	0.	127.77
4550	-9.5002	-1.7499	0.	127.92
4551	-9.5001	-1.2499	0.	127.61
4552	-9.5	-0.74978	0.	127.28
4553	-9.5	-0.24961	0.	127.09
4554	-9.4999	0.25066	0.	127.19
4555	-9.4999	0.75112	0.	127.59
4556	-9.4998	1.2518	0.	128.16
4557	-9.4997	1.7525	0.	128.7
4558	-9.4996	2.2535	0.	129.07
4559	-9.4996	2.7546	0.	129.21
4560	-9.4998	3.2558	0.	129.15
4561	-9.2495	3.0074	0.	129.05
4562	-9.5005	3.7572	0.	128.98
4563	-9.502	4.2586	0.	128.8
4564	-9.5041	4.7605	0.	128.67
4565	-9.2544	4.5137	0.	128.43
4566	-9.5067	5.2627	0.	128.52
4567	-9.5099	5.7643	0.	128.1
4568	-9.2631	5.5212	0.	129.09
4569	-9.5138	6.264	0.	127.01
4570	-9.5192	6.7604	0.	125.13
4571	-9.5215	7.2546	0.	123.86
4572	-9.283	7.0162	0.	125.7
4573	-9.5043	7.7485	0.	124.31
4574	-9.4908	8.2454	0.	125.28
4575	-9.497	8.7474	0.	125.6
4576	-9.5006	9.2498	0.	125.33
4577	-9.2516	9.5013	0.	125.32
4578	-8.7524	9.5034	0.	125.4
4579	-8.2535	9.5056	0.	124.72
4580	-7.7551	9.5177	0.	123.31
4581	-7.2554	9.5466	0.	122.21
4582	-6.7528	9.5766	0.	122.34
4583	-6.2468	9.59	0.	122.89
4584	-6.4989	9.3859	0.	123.85
4585	-5.7411	9.5848	0.	122.78
4586	-5.993	9.3926	0.	124.39
4587	-5.237	9.5624	0.	122.56
4588	-5.4882	9.3681	0.	122.49
4589	-4.7365	9.5365	0.	123.21
4590	-4.9842	9.3215	0.	122.08
4591	-4.2408	9.5225	0.	124.47
4592	-3.7439	9.5187	0.	125.59
4593	-3.2444	9.5178	0.	126.32
4594	-2.7445	9.5158	0.	126.84
4595	-2.2449	9.5125	0.	127.53
4596	-1.746	9.508	0.	129.49
4597	-1.2476	9.5035	0.	129.79
4598	-0.74902	9.5007	0.	125.69
4599	-0.24969	9.5001	0.	123.39
4600	0.2501	9.5	0.	123.15
4601	0.75003	9.5	0.	124.7
4602	1.25	9.5	0.	128.28
4603	1.75	9.5	0.	127.69
4604	2.25	9.5	0.	125.33
4605	2.75	9.5	0.	124.44
4606	3.25	9.5	0.	124.13
4607	3.75	9.5	0.	124.11
4608	4.25	9.5	0.	124.2
4609	4.75	9.5	0.	124.24
4610	5.25	9.5	0.	124.09
4611	5.75	9.5	0.	123.8
4612	6.25	9.5	0.	123.57
4613	6.75	9.5	0.	123.62
4614	7.25	9.5	0.	123.97
4615	7.75	9.5	0.	124.43
4616	8.25	9.5	0.	124.79
4617	8.75	9.5	0.	124.98
4618	8.5	9.25	0.	125.24
4619	9.25	9.5	0.	125.03
4620	9.5	9.25	0.	125.12
4621	9.5	8.75	0.	125.28
4622	9.5	8.25	0.	125.39
4623	9.5	7.75	0.	125.35
4624	9.5	7.25	0.	125.18
4625	9.25	7.5	0.	125.85
4626	9.5	6.7499	0.	124.99
4627	9.4998	6.2498	0.	124.97
4628	9.4995	5.7496	0.	125.25
4629	9.499	5.2489	0.	125.85
4630	9.4981	4.748	0.	126.64
4631	9.4959	4.2465	0.	127.45
4632	9.2462	4.4971	0.	127.29
4633	9.4923	3.7446	0.	128.11
4634	9.488	3.2427	0.	128.57
4635	9.4838	2.7403	0.	128.85
4636	9.4829	2.2374	0.	129.03
4637	9.4897	1.7348	0.	129.21
4638	9.5066	1.2336	0.	129.33
4639	9.526	0.73489	0.	128.91
4640	9.5429	0.23938	0.	127.46
4641	9.5566	-0.25403	0.	126.4
4642	9.52	-1.2427	0.	130.28
4643	9.5544	-0.74829	0.	128.
4644	9.4872	-1.7384	0.	130.54
4645	9.4834	-2.2386	0.	129.53
4646	9.4882	-2.7413	0.	128.59
4647	9.493	-3.244	0.	127.93
4648	9.4965	-3.7462	0.	127.47
4649	9.4985	-4.2478	0.	127.26
4650	9.4994	-4.7488	0.	127.4
4651	9.4998	-5.2494	0.	128.
4652	9.4999	-5.7497	0.	129.36
4653	9.5	-6.2499	0.	132.41
4654	9.5	-6.75	0.	134.87
4655	9.5	-7.25	0.	136.7
4656	9.5	-7.75	0.	139.24
4657	9.5	-8.25	0.	139.71
4658	9.5	-8.75	0.	138.65
4659	9.5	-9.25	0.	138.23
4660	9.25	-9.5	0.	131.49
4661	8.75	-9.5	0.	117.91
4662	8.25	-9.5	0.	110.47
4663	7.7499	-9.5	0.	110.44
4664	7.2497	-9.4999	0.	117.7
4665	6.7492	-9.4998	0.	129.64
4666	6.2485	-9.4997	0.	134.57
4667	5.7478	-9.4997	0.	132.92
4668	5.2471	-9.5002	0.	130.28
4669	4.7466	-9.5016	0.	127.63
4670	4.2463	-9.5044	0.	125.34
4671	3.7464	-9.5084	0.	123.38
4672	3.247	-9.5121	0.	121.84
4673	2.7485	-9.5131	0.	121.23
4674	2.2507	-9.5095	0.	121.95
4675	1.7537	-9.5023	0.	123.51
4676	0.7582	-9.4903	0.	126.06
4677	1.2566	-9.4947	0.	125.04
4678	0.25737	-9.4897	0.	126.68
4679	-0.24613	-9.4908	0.	127.23
4680	-0.75123	-9.4918	0.	127.93
4681	-1.2564	-9.4931	0.	128.71
4682	-1.7603	-9.4969	0.	129.27
4683	-2.2627	-9.5059	0.	129.18
4684	-2.7644	-9.5194	0.	128.1
4685	-2.5256	-9.2651	0.	129.38
4686	-3.2661	-9.5301	0.	126.2
4687	-3.7671	-9.5321	0.	124.47
4688	-3.5273	-9.303	0.	124.85
4689	-4.2662	-9.5271	0.	124.14
4690	-4.7636	-9.5197	0.	125.55
4691	-5.2602	-9.5129	0.	127.73
4692	-5.7571	-9.5081	0.	129.13
4693	-6.2547	-9.5047	0.	128.38
4694	-6.753	-9.5025	0.	125.04
4695	-7.2518	-9.5012	0.	120.36
4696	-7.7511	-9.5005	0.	116.87
4697	-8.2506	-9.5002	0.	116.71
4698	-8.7503	-9.5001	0.	120.19
4699	-9.2502	-9.5	0.	125.83
4700	3.583	-6.6562	0.	137.58
4701	3.4235	-7.4445	0.	133.57
4702	3.5045	-7.0614	0.	136.32
4703	-0.24738	3.4981	0.	131.29
4704	-0.49664	3.2479	0.	131.92
4705	-5.6989	-6.0469	0.	132.32
4706	4.7469	-3.5055	0.	127.06
4707	0.87624	-7.4616	0.	125.56
4708	-2.7498	2.9975	0.	130.6
4709	-3.	2.7479	0.	134.13
4710	-2.4994	4.2367	0.	128.06
4711	-2.2494	3.9928	0.	127.34
4712	8.2422	4.499	0.	128.43
4713	1.555e-002	0.74659	0.	131.5
4714	1.7428e-003	3.7486	0.	130.89
4715	0.25074	3.9992	0.	130.39
4716	6.2183	-2.5569	0.	124.37
4717	6.714	-2.5484	0.	124.83
4718	-5.5623	-3.2453	0.	123.57
4719	-5.7908	-2.9979	0.	122.76
4720	-5.3048	-3.0181	0.	123.58
4721	7.7475	-4.0021	0.	123.4
4722	0.26535	1.9954	0.	131.12
4723	2.5133	1.8061	0.	122.36
4724	-9.0019	-3.2496	0.	126.3
4725	-3.3896	-7.7874	0.	131.38
4726	5.	7.7501	0.	129.7
4727	-2.784	-2.5321	0.	127.06
4728	-3.2909	-2.5473	0.	126.28
4729	7.6683	2.5023	0.	126.74
4730	5.9771	-2.7944	0.	124.35
4731	-4.3336	-4.2305	0.	122.8
4732	-4.2528	-5.2742	0.	117.32
4733	-4.5294	-5.0979	0.	119.44
4734	-5.021	-7.7737	0.	129.99
4735	2.7377	3.0338	0.	118.78
4736	6.9988	-4.2577	0.	124.91
4737	7.2478	-4.0069	0.	124.29
4738	-4.6173	-3.4046	0.	123.97
4739	-4.8196	-3.0736	0.	124.06
4740	-4.5593	-2.8376	0.	124.4
4741	-4.326	-3.1084	0.	124.49
4742	-2.2765	-2.5203	0.	127.49
4743	-2.5263	-2.2732	0.	127.13
4744	-2.519	-1.7688	0.	126.69
4745	-7.0233	-3.7419	0.	122.39
4746	-4.889	-3.8205	0.	124.
4747	-4.6226	-3.99	0.	123.26
4748	-4.8879	-3.5993	0.	123.87
4749	-2.5581	-8.7674	0.	130.69
4750	-2.7739	-4.5302	0.	129.18
4751	-6.7531	4.0202	0.	128.99
4752	6.25	8.5	0.	122.52
4753	5.75	8.5	0.	124.33
4754	6.75	8.5	0.	122.4
4755	-8.5002	-0.74964	0.	128.34
4756	-8.5005	-1.2497	0.	128.51
4757	-8.5	0.25121	0.	128.25
4758	-7.5151	-4.2447	0.	120.38
4759	-0.24042	1.9968	0.	133.68
4760	-3.0495	-3.8014	0.	127.41
4761	0.26967	0.49536	0.	130.92
4762	7.2501	-5.5016	0.	121.73
4763	6.1388	2.5269	0.	121.49
4764	7.5002	-5.2516	0.	120.65
4765	5.7361	-3.0283	0.	124.67
4766	-5.7462	-7.5362	0.	134.57
4767	-5.2566	-7.5203	0.	134.32
4768	0.49803	5.7506	0.	126.69
4769	-5.0252	-2.275	0.	124.71
4770	-5.0476	-2.7822	0.	124.09
4771	-4.7873	-2.5461	0.	124.43
4772	3.6927	2.1163	0.	125.33
4773	3.938	2.3492	0.	126.04
4774	0.99943	4.7503	0.	130.74
4775	0.74963	4.5001	0.	130.03
4776	-9.0016	-2.7496	0.	127.05
4777	-5.0956	-4.1881	0.	124.48
4778	-5.1191	-3.723	0.	124.14
4779	2.7001	-5.505	0.	114.54
4780	7.5	-5.751	0.	118.72
4781	-2.0108	-1.2604	0.	125.69
4782	-2.2643	-1.5141	0.	126.34
4783	3.2302	3.0449	0.	118.8
4784	-7.2704	-3.9928	0.	121.78
4785	6.9721	-2.78	0.	124.6
4786	-6.2934	-4.4766	0.	126.66
4787	-5.3477	-3.4954	0.	123.95
4788	4.4753	-0.88953	0.	129.19
4789	-8.7573	4.5218	0.	127.69
4790	1.0733	-8.2127	0.	127.63
4791	1.3512	-7.9686	0.	128.87
4792	1.1299	-7.705	0.	128.16
4793	-0.2552	-2.0025	0.	127.03
4794	-0.75834	-2.0041	0.	126.8
4795	0.24725	-2.002	0.	127.59
4796	0.49894	-1.7525	0.	128.77
4797	8.	6.7501	0.	128.72
4798	7.2309	-3.014	0.	124.04
4799	-2.9757	-5.2671	0.	130.52
4800	-3.0128	-4.7875	0.	128.78
4801	-4.8292	-4.3576	0.	123.74
4802	-4.5706	-4.5598	0.	121.93
4803	8.7441	4.4973	0.	127.79
4804	-8.5	-0.24934	0.	128.18
4805	-3.0373	-4.299	0.	127.7
4806	-5.9815	-7.324	0.	131.19
4807	-5.0901	-3.2683	0.	123.96
4808	0.75061	-1.5038	0.	130.47
4809	-1.2618	-2.0066	0.	126.75
4810	0.50013	4.2496	0.	130.04
4811	2.7655	1.5853	0.	122.52
4812	2.9817	2.8011	0.	119.08
4813	-0.75863	-3.5013	0.	126.57
4814	7.571	1.3679	0.	124.82
4815	-4.9926	8.8665	0.	119.96
4816	-5.2354	9.1272	0.	122.
4817	-5.2516	8.69	0.	119.45
4818	-5.4944	8.9506	0.	121.6
4819	-5.7402	9.1759	0.	124.12
4820	-5.7478	8.7728	0.	125.64
4821	-5.9936	8.998	0.	128.13
4822	-6.2451	9.1886	0.	125.37
4823	-6.2379	8.7958	0.	129.74
4824	-6.4895	8.9864	0.	127.05
4825	5.	-5.	0.	98.931
4826	4.	-5.	0.	97.046
4827	5.	-7.	0.	96.036
4828	4.	-7.	0.	95.447
4829	4.5	-5.	0.	112.58
4830	5.	-5.5	0.	102.35
4831	5.	-6.	0.	100.41
4832	5.	-6.5	0.	100.14
4833	4.	-5.5	0.	103.23
4834	4.	-6.	0.	102.16
4835	4.	-6.5	0.	100.22
4836	4.5	-7.	0.	109.44
4837	4.5	-5.5	0.	107.58
4838	4.5	-6.	0.	104.05
4839	4.5	-6.5	0.	103.6
4840	4.75	-5.	0.	105.72
4841	5.	-5.25	0.	100.64
4842	4.25	-5.	0.	104.78
4843	4.	-5.25	0.	100.13
4844	5.	-6.75	0.	98.077
4845	4.75	-7.	0.	102.67
4846	4.	-6.75	0.	97.797
4847	4.25	-7.	0.	102.38
4848	4.5	-5.25	0.	110.05
4849	5.	-5.75	0.	101.35
4850	4.75	-5.5	0.	104.93
4851	5.	-6.25	0.	100.24
4852	4.75	-6.	0.	102.23
4853	4.75	-6.5	0.	101.83
4854	4.	-5.75	0.	102.69
4855	4.25	-5.5	0.	105.39
4856	4.	-6.25	0.	101.08
4857	4.25	-6.	0.	103.11
4858	4.25	-6.5	0.	101.86
4859	4.5	-6.75	0.	106.46
4860	4.5	-5.75	0.	105.8
4861	4.5	-6.25	0.	103.82
4862	-7.	-6.	0.	97.303
4863	-9.	-6.	0.	99.514
4864	-7.	-8.	0.	98.074
4865	-9.	-8.	0.	99.288
4866	-7.5	-6.	0.	112.03
4867	-8.	-6.	0.	109.81
4868	-8.5	-6.	0.	112.61
4869	-7.	-6.5	0.	101.79
4870	-7.	-7.	0.	100.45
4871	-7.	-7.5	0.	102.24
4872	-9.	-6.5	0.	103.74
4873	-9.	-7.	0.	102.87
4874	-9.	-7.5	0.	103.68
4875	-8.5	-8.	0.	112.36
4876	-8.	-8.	0.	109.66
4877	-7.5	-8.	0.	112.13
4878	-8.	-6.5	0.	112.47
4879	-7.5	-6.5	0.	109.33
4880	-7.5	-7.5	0.	109.55
4881	-8.	-7.5	0.	112.47
4882	-8.5	-7.5	0.	110.65
4883	-8.5	-6.5	0.	110.73
4884	-8.5	-7.	0.	110.21
4885	-7.5	-7.	0.	108.58
4886	-8.	-7.	0.	112.37
4887	-7.25	-6.	0.	104.59
4888	-7.	-6.25	0.	99.521
4889	-8.75	-6.	0.	106.
4890	-9.	-6.25	0.	101.62
4891	-7.	-7.75	0.	100.14
4892	-7.25	-8.	0.	105.03
4893	-9.	-7.75	0.	101.48
4894	-8.75	-8.	0.	105.76
4895	-7.75	-6.	0.	110.92
4896	-7.5	-6.25	0.	110.66
4897	-8.25	-6.	0.	111.21
4898	-8.	-6.25	0.	111.12
4899	-8.5	-6.25	0.	111.63
4900	-7.	-6.75	0.	101.07
4901	-7.25	-6.5	0.	105.54
4902	-7.	-7.25	0.	101.3
4903	-7.25	-7.	0.	104.51
4904	-7.25	-7.5	0.	105.88
4905	-9.	-6.75	0.	103.29
4906	-8.75	-6.5	0.	107.22
4907	-9.	-7.25	0.	103.26
4908	-8.75	-7.	0.	106.54
4909	-8.75	-7.5	0.	107.16
4910	-8.25	-8.	0.	111.01
4911	-8.5	-7.75	0.	111.47
4912	-7.75	-8.	0.	110.9
4913	-8.	-7.75	0.	111.04
4914	-7.5	-7.75	0.	110.82
4915	-7.75	-6.5	0.	110.89
4916	-8.25	-6.5	0.	111.59
4917	-8.	-6.75	0.	112.42
4918	-7.5	-6.75	0.	108.93
4919	-7.75	-7.5	0.	111.
4920	-7.5	-7.25	0.	109.04
4921	-8.25	-7.5	0.	111.55
4922	-8.	-7.25	0.	112.42
4923	-8.5	-7.25	0.	110.43
4924	-8.5	-6.75	0.	110.47
4925	-8.25	-7.	0.	111.29
4926	-7.75	-7.	0.	110.47
4927	1.	-5.	0.	103.15
4928	-1.	-5.	0.	101.54
4929	1.	-6.	0.	103.11
4930	-1.	-6.	0.	100.26
4931	0.5	-5.	0.	120.22
4932	0.	-5.	0.	118.16
4933	-0.5	-5.	0.	119.06
4934	1.	-5.5	0.	108.16
4935	-1.	-5.5	0.	106.
4936	-0.5	-6.	0.	117.16
4937	0.	-6.	0.	116.17
4938	0.5	-6.	0.	118.07
4939	-0.5	-5.5	0.	116.75
4940	0.	-5.5	0.	120.5
4941	0.5	-5.5	0.	118.21
4942	0.75	-5.	0.	111.64
4943	1.	-5.25	0.	105.64
4944	-0.75	-5.	0.	110.25
4945	-1.	-5.25	0.	103.74
4946	1.	-5.75	0.	105.62
4947	0.75	-6.	0.	110.56
4948	-1.	-5.75	0.	103.1
4949	-0.75	-6.	0.	108.68
4950	0.25	-5.	0.	119.19
4951	0.5	-5.25	0.	119.2
4952	-0.25	-5.	0.	118.61
4953	0.	-5.25	0.	119.33
4954	-0.5	-5.25	0.	117.89
4955	0.75	-5.5	0.	113.18
4956	-0.75	-5.5	0.	111.36
4957	-0.25	-6.	0.	116.66
4958	-0.5	-5.75	0.	116.93
4959	0.25	-6.	0.	117.11
4960	0.	-5.75	0.	118.32
4961	0.5	-5.75	0.	118.11
4962	-0.25	-5.5	0.	118.63
4963	0.25	-5.5	0.	119.36
4964	-4.	2.	0.	96.966
4965	-5.	2.	0.	93.171
4966	-4.	0.	0.	97.521
4967	-5.	0.	0.	97.626
4968	-4.5	2.	0.	108.
4969	-4.	1.5	0.	99.781
4970	-4.	1.	0.	99.996
4971	-4.	0.5	0.	102.05
4972	-5.	1.5	0.	98.44
4973	-5.	1.	0.	98.598
4974	-5.	0.5	0.	100.59
4975	-4.5	0.	0.	111.33
4976	-4.5	1.5	0.	103.16
4977	-4.5	1.	0.	101.99
4978	-4.5	0.5	0.	105.2
4979	-4.25	2.	0.	102.45
4980	-4.	1.75	0.	98.367
4981	-4.75	2.	0.	100.55
4982	-5.	1.75	0.	95.798
4983	-4.	0.25	0.	99.768
4984	-4.25	0.	0.	104.36
4985	-5.	0.25	0.	99.104
4986	-4.75	0.	0.	104.43
4987	-4.5	1.75	0.	105.54
4988	-4.	1.25	0.	99.831
4989	-4.25	1.5	0.	101.43
4990	-4.	0.75	0.	101.01
4991	-4.25	1.	0.	100.99
4992	-4.25	0.5	0.	103.58
4993	-5.	1.25	0.	98.498
4994	-4.75	1.5	0.	100.78
4995	-5.	0.75	0.	99.548
4996	-4.75	1.	0.	100.29
4997	-4.75	0.5	0.	102.82
4998	-4.5	0.25	0.	108.22
4999	-4.5	1.25	0.	102.57
5000	-4.5	0.75	0.	103.59
5001	4.	-2.	0.	99.176
5002	2.	-2.	0.	100.82
5003	4.	-3.	0.	98.096
5004	2.	-3.	0.	101.45
5005	3.5	-2.	0.	116.68
5006	3.	-2.	0.	115.85
5007	2.5	-2.	0.	117.51
5008	4.	-2.5	0.	103.56
5009	2.	-2.5	0.	106.11
5010	2.5	-3.	0.	117.96
5011	3.	-3.	0.	115.81
5012	3.5	-3.	0.	115.88
5013	2.5	-2.5	0.	116.49
5014	3.	-2.5	0.	119.05
5015	3.5	-2.5	0.	114.98
5016	3.75	-2.	0.	107.88
5017	4.	-2.25	0.	101.34
5018	2.25	-2.	0.	109.12
5019	2.	-2.25	0.	103.45
5020	4.	-2.75	0.	100.8
5021	3.75	-3.	0.	106.96
5022	2.	-2.75	0.	103.76
5023	2.25	-3.	0.	109.66
5024	3.25	-2.	0.	116.26
5025	3.5	-2.25	0.	115.82
5026	2.75	-2.	0.	116.68
5027	3.	-2.25	0.	117.44
5028	2.5	-2.25	0.	116.98
5029	3.75	-2.5	0.	109.26
5030	2.25	-2.5	0.	111.29
5031	2.75	-3.	0.	116.88
5032	2.5	-2.75	0.	117.21
5033	3.25	-3.	0.	115.84
5034	3.	-2.75	0.	117.42
5035	3.5	-2.75	0.	115.42
5036	2.75	-2.5	0.	117.77
5037	3.25	-2.5	0.	117.02
5038	-1.	2.	0.	102.91
5039	-3.	2.	0.	103.77
5040	-1.	1.	0.	101.78
5041	-3.	1.	0.	103.37
5042	-1.5	2.	0.	120.15
5043	-2.	2.	0.	119.15
5044	-2.5	2.	0.	121.14
5045	-1.	1.5	0.	107.38
5046	-3.	1.5	0.	108.47
5047	-2.5	1.	0.	119.19
5048	-2.	1.	0.	117.71
5049	-1.5	1.	0.	119.05
5050	-2.5	1.5	0.	118.69
5051	-2.	1.5	0.	121.66
5052	-1.5	1.5	0.	118.24
5053	-1.25	2.	0.	111.48
5054	-1.	1.75	0.	105.13
5055	-2.75	2.	0.	112.39
5056	-3.	1.75	0.	106.08
5057	-1.	1.25	0.	104.56
5058	-1.25	1.	0.	110.37
5059	-3.	1.25	0.	105.9
5060	-2.75	1.	0.	111.26
5061	-1.75	2.	0.	119.65
5062	-1.5	1.75	0.	119.18
5063	-2.25	2.	0.	120.14
5064	-2.	1.75	0.	120.4
5065	-2.5	1.75	0.	119.9
5066	-1.25	1.5	0.	112.8
5067	-2.75	1.5	0.	113.57
5068	-2.25	1.	0.	118.45
5069	-2.5	1.25	0.	118.92
5070	-1.75	1.	0.	118.37
5071	-2.	1.25	0.	119.67
5072	-1.5	1.25	0.	118.62
5073	-2.25	1.5	0.	120.18
5074	-1.75	1.5	0.	119.95
5075	-6.	1.	0.	95.796
5076	-7.	1.	0.	95.444
5077	-6.	-1.	0.	96.867
5078	-7.	-1.	0.	96.079
5079	-6.5	1.	0.	109.18
5080	-6.	0.5	0.	100.26
5081	-6.	0.	0.	99.796
5082	-6.	-0.5	0.	101.07
5083	-7.	0.5	0.	99.358
5084	-7.	0.	0.	98.861
5085	-7.	-0.5	0.	100.33
5086	-6.5	-1.	0.	110.44
5087	-6.5	0.5	0.	103.9
5088	-6.5	6.8932e-017	0.	102.46
5089	-6.5	-0.5	0.	105.2
5090	-6.25	1.	0.	102.44
5091	-6.	0.75	0.	98.024
5092	-6.75	1.	0.	102.26
5093	-7.	0.75	0.	97.397
5094	-6.	-0.75	0.	98.962
5095	-6.25	-1.	0.	103.62
5096	-7.	-0.75	0.	98.199
5097	-6.75	-1.	0.	103.22
5098	-6.5	0.75	0.	106.49
5099	-6.	0.25	0.	99.977
5100	-6.25	0.5	0.	102.03
5101	-6.	-0.25	0.	100.41
5102	-6.25	3.4466e-017	0.	101.13
5103	-6.25	-0.5	0.	103.1
5104	-7.	0.25	0.	99.074
5105	-6.75	0.5	0.	101.58
5106	-7.	-0.25	0.	99.556
5107	-6.75	3.4466e-017	0.	100.66
5108	-6.75	-0.5	0.	102.72
5109	-6.5	-0.75	0.	107.78
5110	-6.5	0.25	0.	103.18
5111	-6.5	-0.25	0.	103.83
5112	7.	7.	0.	96.134
5113	6.	7.	0.	96.924
5114	7.	5.	0.	94.96
5115	6.	5.	0.	94.841
5116	6.5	7.	0.	110.63
5117	7.	6.5	0.	99.928
5118	7.	6.	0.	98.451
5119	7.	5.5	0.	98.958
5120	6.	6.5	0.	100.81
5121	6.	6.	0.	99.079
5122	6.	5.5	0.	99.399
5123	6.5	5.	0.	108.67
5124	6.5	6.5	0.	104.75
5125	6.5	6.	0.	101.99
5126	6.5	5.5	0.	103.48
5127	6.75	7.	0.	103.33
5128	7.	6.75	0.	98.027
5129	6.25	7.	0.	103.72
5130	6.	6.75	0.	98.863
5131	7.	5.25	0.	96.956
5132	6.75	5.	0.	101.77
5133	6.	5.25	0.	97.118
5134	6.25	5.	0.	101.71
5135	6.5	6.75	0.	107.65
5136	7.	6.25	0.	99.155
5137	6.75	6.5	0.	102.29
5138	7.	5.75	0.	98.671
5139	6.75	6.	0.	100.22
5140	6.75	5.5	0.	101.18
5141	6.	6.25	0.	99.909
5142	6.25	6.5	0.	102.73
5143	6.	5.75	0.	99.19
5144	6.25	6.	0.	100.53
5145	6.25	5.5	0.	101.4
5146	6.5	5.25	0.	106.03
5147	6.5	6.25	0.	103.37
5148	6.5	5.75	0.	102.73
5149	-4.	6.	0.	100.09
5150	-6.	6.	0.	104.07
5151	-4.	4.	0.	97.749
5152	-6.	4.	0.	96.842
5153	-4.5	6.	0.	112.47
5154	-5.	6.	0.	105.77
5155	-5.5	6.	0.	108.73
5156	-4.	5.5	0.	103.65
5157	-4.	5.	0.	101.63
5158	-4.	4.5	0.	102.47
5159	-6.	5.5	0.	104.23
5160	-6.	5.	0.	100.42
5161	-6.	4.5	0.	100.71
5162	-5.5	4.	0.	110.08
5163	-5.	4.	0.	107.85
5164	-4.5	4.	0.	110.78
5165	-5.	5.	0.	110.73
5166	-5.	4.5	0.	110.77
5167	-5.5	4.5	0.	108.15
5168	-5.5	5.	0.	107.91
5169	-5.5	5.5	0.	108.66
5170	-5.	5.5	0.	110.18
5171	-4.5	5.5	0.	109.57
5172	-4.5	5.	0.	108.54
5173	-4.5	4.5	0.	108.97
5174	-4.25	6.	0.	106.18
5175	-4.	5.75	0.	101.86
5176	-5.75	6.	0.	106.32
5177	-6.	5.75	0.	104.12
5178	-4.	4.25	0.	100.1
5179	-4.25	4.	0.	104.2
5180	-6.	4.25	0.	98.768
5181	-5.75	4.	0.	103.39
5182	-4.75	6.	0.	109.12
5183	-4.5	5.75	0.	110.98
5184	-5.25	6.	0.	107.21
5185	-5.	5.75	0.	107.95
5186	-5.5	5.75	0.	108.63
5187	-4.	5.25	0.	102.61
5188	-4.25	5.5	0.	106.59
5189	-4.	4.75	0.	102.02
5190	-4.25	5.	0.	105.08
5191	-4.25	4.5	0.	105.71
5192	-6.	5.25	0.	102.31
5193	-5.75	5.5	0.	106.42
5194	-6.	4.75	0.	100.54
5195	-5.75	5.	0.	104.16
5196	-5.75	4.5	0.	104.42
5197	-5.25	4.	0.	108.97
5198	-5.5	4.25	0.	109.08
5199	-4.75	4.	0.	109.32
5200	-5.	4.25	0.	109.3
5201	-4.5	4.25	0.	109.84
5202	-5.	4.75	0.	110.75
5203	-5.25	5.	0.	109.32
5204	-5.	5.25	0.	110.45
5205	-4.75	5.	0.	109.64
5206	-5.25	4.5	0.	109.45
5207	-4.75	4.5	0.	109.86
5208	-5.5	4.75	0.	108.02
5209	-5.5	5.25	0.	108.28
5210	-5.25	5.5	0.	109.42
5211	-4.75	5.5	0.	109.87
5212	-4.5	5.25	0.	109.05
5213	-4.5	4.75	0.	108.75
5214	1.	9.	0.	100.68
5215	-1.	9.	0.	100.61
5216	1.	8.	0.	101.26
5217	-1.	8.	0.	101.46
5218	0.5	9.	0.	120.21
5219	0.	9.	0.	119.95
5220	-0.5	9.	0.	120.43
5221	1.	8.5	0.	106.15
5222	-1.	8.5	0.	106.22
5223	-0.5	8.	0.	119.3
5224	0.	8.	0.	118.72
5225	0.5	8.	0.	119.8
5226	-0.5	8.5	0.	118.5
5227	0.	8.5	0.	122.59
5228	0.5	8.5	0.	118.57
5229	0.75	9.	0.	110.4
5230	1.	8.75	0.	103.39
5231	-0.75	9.	0.	110.47
5232	-1.	8.75	0.	103.38
5233	1.	8.25	0.	103.67
5234	0.75	8.	0.	110.49
5235	-1.	8.25	0.	103.82
5236	-0.75	8.	0.	110.35
5237	0.25	9.	0.	120.08
5238	0.5	8.75	0.	119.37
5239	-0.25	9.	0.	120.19
5240	0.	8.75	0.	121.26
5241	-0.5	8.75	0.	119.44
5242	0.75	8.5	0.	112.34
5243	-0.75	8.5	0.	112.35
5244	-0.25	8.	0.	119.
5245	-0.5	8.25	0.	118.88
5246	0.25	8.	0.	119.26
5247	0.	8.25	0.	120.65
5248	0.5	8.25	0.	119.17
5249	-0.25	8.5	0.	120.54
5250	0.25	8.5	0.	120.58
5251	4.	6.	0.	98.583
5252	2.	6.	0.	99.055
5253	4.	4.	0.	98.914
5254	2.	4.	0.	99.779
5255	3.5	6.	0.	112.69
5256	3.	6.	0.	110.58
5257	2.5	6.	0.	113.45
5258	4.	5.5	0.	102.73
5259	4.	5.	0.	101.84
5260	4.	4.5	0.	103.42
5261	2.	5.5	0.	103.51
5262	2.	5.	0.	102.17
5263	2.	4.5	0.	103.49
5264	2.5	4.	0.	113.61
5265	3.	4.	0.	111.14
5266	3.5	4.	0.	113.52
5267	3.	5.	0.	113.1
5268	2.5	5.	0.	110.13
5269	2.5	5.5	0.	110.85
5270	3.	5.5	0.	113.15
5271	3.5	5.5	0.	110.31
5272	3.5	5.	0.	109.83
5273	3.5	4.5	0.	110.9
5274	3.	4.5	0.	113.51
5275	2.5	4.5	0.	111.04
5276	3.75	6.	0.	105.57
5277	4.	5.75	0.	100.65
5278	2.25	6.	0.	106.16
5279	2.	5.75	0.	101.27
5280	4.	4.25	0.	101.15
5281	3.75	4.	0.	106.14
5282	2.	4.25	0.	101.62
5283	2.25	4.	0.	106.62
5284	3.25	6.	0.	111.64
5285	3.5	5.75	0.	111.48
5286	2.75	6.	0.	112.02
5287	3.	5.75	0.	111.85
5288	2.5	5.75	0.	112.12
5289	4.	5.25	0.	102.25
5290	3.75	5.5	0.	106.51
5291	4.	4.75	0.	102.6
5292	3.75	5.	0.	105.83
5293	3.75	4.5	0.	107.14
5294	2.	5.25	0.	102.81
5295	2.25	5.5	0.	107.17
5296	2.	4.75	0.	102.8
5297	2.25	5.	0.	106.15
5298	2.25	4.5	0.	107.25
5299	2.75	4.	0.	112.37
5300	2.5	4.25	0.	112.3
5301	3.25	4.	0.	112.33
5302	3.	4.25	0.	112.31
5303	3.5	4.25	0.	112.18
5304	2.75	5.	0.	111.61
5305	3.	5.25	0.	113.12
5306	3.25	5.	0.	111.46
5307	3.	4.75	0.	113.31
5308	2.5	5.25	0.	110.48
5309	2.5	4.75	0.	110.58
5310	2.75	5.5	0.	111.99
5311	3.25	5.5	0.	111.72
5312	3.5	5.25	0.	110.06
5313	3.5	4.75	0.	110.35
5314	3.25	4.5	0.	112.2
5315	2.75	4.5	0.	112.27
5316	-3.61	-7.41	0.	68.721
5317	-3.87	-5.98	0.	97.094
5318	-4.98	-6.92	0.	70.723
5319	-3.6967	-6.9333	0.	102.4
5320	-3.7833	-6.4567	0.	99.572
5321	-4.0667	-7.2467	0.	107.45
5322	-4.5233	-7.0833	0.	109.97
5323	-4.24	-6.2933	0.	94.695
5324	-4.61	-6.6067	0.	99.483
5325	-4.0277	-6.918	0.	99.449
5326	-4.3445	-6.8047	0.	103.7
5327	-4.0878	-6.5873	0.	101.23
5328	-3.6533	-7.1717	0.	84.924
5329	-3.8383	-7.3283	0.	87.216
5330	-3.8267	-6.2183	0.	96.151
5331	-4.055	-6.1367	0.	94.168
5332	-4.7517	-7.0017	0.	86.167
5333	-4.795	-6.7633	0.	81.032
5334	-3.74	-6.695	0.	100.83
5335	-3.8622	-6.9257	0.	100.92
5336	-3.9356	-6.522	0.	100.29
5337	-4.295	-7.165	0.	108.59
5338	-4.0472	-7.0823	0.	103.41
5339	-4.4339	-6.944	0.	106.41
5340	-4.425	-6.45	0.	96.967
5341	-4.1639	-6.4403	0.	97.932
5342	-4.4772	-6.7057	0.	101.21
5343	-4.1861	-6.8613	0.	101.48
5344	-4.0578	-6.7527	0.	100.33
5345	-4.2162	-6.696	0.	102.37
5346	3.27	-6.31	0.	63.7
5347	1.97	-6.6	0.	66.074
5348	2.88	-7.58	0.	106.99
5349	2.8367	-6.4067	0.	112.19
5350	2.4033	-6.5033	0.	113.6
5351	3.14	-6.7333	0.	102.74
5352	3.01	-7.1567	0.	98.743
5353	2.2733	-6.9267	0.	98.615
5354	2.5767	-7.2533	0.	92.331
5355	2.5358	-6.7747	0.	104.48
5356	2.7466	-7.0018	0.	103.41
5357	2.8373	-6.7107	0.	100.73
5358	3.0533	-6.3583	0.	87.655
5359	3.205	-6.5217	0.	83.057
5360	2.1867	-6.5517	0.	86.261
5361	2.1217	-6.7633	0.	79.163
5362	2.945	-7.3683	0.	100.77
5363	2.7283	-7.4167	0.	98.271
5364	2.62	-6.455	0.	112.77
5365	2.837	-6.5587	0.	106.44
5366	2.4696	-6.639	0.	108.66
5367	3.075	-6.945	0.	100.59
5368	2.9887	-6.722	0.	101.72
5369	2.8783	-7.0792	0.	100.96
5370	2.425	-7.09	0.	95.389
5371	2.4046	-6.8507	0.	101.31
5372	2.6617	-7.1276	0.	97.865
5373	2.6412	-6.8883	0.	103.86
5374	2.6866	-6.7427	0.	102.5
5375	2.792	-6.8563	0.	102.04
5376	7.35	-0.43	0.	59.56
5377	8.39	-0.63	0.	61.341
5378	8.05	0.37	0.	105.97
5379	7.87	-0.53	0.	119.9
5380	7.7	-3.e-002	0.	85.901
5381	8.22	-0.13	0.	97.281
5382	7.9302	-0.23005	0.	104.26
5383	7.61	-0.48	0.	87.167
5384	7.525	-0.23	0.	69.155
5385	8.13	-0.58	0.	90.389
5386	8.305	-0.38	0.	79.151
5387	7.875	0.17	0.	95.304
5388	8.135	0.12	0.	99.703
5389	7.9001	-0.38003	0.	111.85
5390	7.8151	-0.13003	0.	94.496
5391	8.0751	-0.18003	0.	100.51
5392	4.61	0.66	0.	73.991
5393	5.92	-0.57	0.	99.322
5394	6.33	1.17	0.	68.971
5395	4.9375	0.3525	0.	104.82
5396	5.265	4.5e-002	0.	103.55
5397	5.5925	-0.2625	0.	98.045
5398	5.04	0.7875	0.	115.86
5399	5.47	0.915	0.	107.87
5400	5.9	1.0425	0.	112.35
5401	6.0225	-0.135	0.	99.978
5402	6.125	0.3	0.	102.09
5403	6.2275	0.735	0.	107.19
5404	5.8946	0.56585	0.	102.13
5405	5.2111	0.51623	0.	108.7
5406	5.5323	0.59501	0.	106.8
5407	5.7504	0.11274	0.	103.48
5408	5.4541	0.29184	0.	104.01
5409	4.7737	0.50625	0.	86.421
5410	4.825	0.72375	0.	91.715
5411	5.7562	-0.41625	0.	97.064
5412	5.9713	-0.3525	0.	97.92
5413	6.115	1.1063	0.	90.271
5414	6.2787	0.9525	0.	87.768
5415	5.1013	0.19875	0.	104.13
5416	5.0743	0.43436	0.	106.57
5417	5.4288	-0.10875	0.	100.79
5418	5.3595	0.16842	0.	103.77
5419	5.6714	-7.4881e-002	0.	100.73
5420	5.255	0.85125	0.	111.78
5421	5.1255	0.65186	0.	111.98
5422	5.685	0.97875	0.	110.09
5423	5.5012	0.755	0.	107.33
5424	5.8973	0.80418	0.	107.21
5425	6.0738	8.25e-002	0.	100.98
5426	5.8864	-1.1131e-002	0.	101.69
5427	6.1762	0.5175	0.	104.62
5428	6.0098	0.43293	0.	102.1
5429	6.0611	0.65043	0.	104.65
5430	5.7135	0.58043	0.	104.45
5431	5.8225	0.3393	0.	102.79
5432	5.3717	0.55562	0.	107.67
5433	5.3326	0.40403	0.	106.29
5434	5.4932	0.44342	0.	105.39
5435	5.6022	0.20229	0.	103.74
5436	-4.48	7.23	0.	81.441
5437	-5.64	8.03	0.	88.019
5438	-5.75	6.63	0.	79.905
5439	-4.8667	7.4967	0.	101.32
5440	-5.2533	7.7633	0.	102.42
5441	-4.9033	7.03	0.	104.29
5442	-5.3267	6.83	0.	103.58
5443	-5.6767	7.5633	0.	99.576
5444	-5.7133	7.0967	0.	100.61
5445	-5.3656	7.2833	0.	96.846
5446	-4.6733	7.3633	0.	89.708
5447	-4.6917	7.13	0.	91.411
5448	-5.4467	7.8967	0.	94.214
5449	-5.6583	7.7967	0.	92.844
5450	-5.5383	6.73	0.	90.976
5451	-5.7317	6.8633	0.	89.721
5452	-5.06	7.63	0.	101.83
5453	-4.885	7.2633	0.	102.51
5454	-5.3095	7.5233	0.	99.583
5455	-5.115	6.93	0.	103.92
5456	-5.1345	7.1566	0.	100.38
5457	-5.3461	7.0566	0.	100.08
5458	-5.695	7.33	0.	99.853
5459	-5.5211	7.4233	0.	98.12
5460	-5.5395	7.19	0.	98.676
5461	-6.77	8.04	0.	92.154
5462	-8.02	7.21	0.	76.933
5463	-6.68	6.54	0.	80.423
5464	-7.1867	7.7633	0.	101.58
5465	-7.6033	7.4867	0.	105.3
5466	-6.74	7.54	0.	105.76
5467	-6.71	7.04	0.	108.54
5468	-7.5733	6.9867	0.	110.7
5469	-7.1267	6.7633	0.	109.52
5470	-7.0673	7.4429	0.	104.54
5471	-7.0465	7.0961	0.	104.16
5472	-7.3563	7.251	0.	108.64
5473	-6.9783	7.9017	0.	95.042
5474	-6.755	7.79	0.	97.03
5475	-7.8117	7.3483	0.	86.307
5476	-7.7967	7.0983	0.	88.788
5477	-6.695	6.79	0.	93.284
5478	-6.9033	6.6517	0.	93.576
5479	-7.395	7.625	0.	103.33
5480	-7.127	7.6031	0.	102.98
5481	-7.4798	7.3688	0.	106.47
5482	-6.725	7.29	0.	106.9
5483	-6.9036	7.4915	0.	105.08
5484	-6.8782	7.068	0.	106.32
5485	-7.35	6.875	0.	110.
5486	-7.4648	7.1188	0.	109.17
5487	-7.0866	6.9297	0.	106.76
5488	-7.0569	7.2695	0.	104.34
5489	-7.2118	7.347	0.	106.48
5490	-7.2014	7.1735	0.	106.3
5491	9.	-7.	0.	99.754
5492	7.	-7.	0.	98.382
5493	9.	-9.	0.	99.979
5494	7.	-9.	0.	98.038
5495	8.5	-7.	0.	113.04
5496	8.	-7.	0.	110.11
5497	7.5	-7.	0.	112.37
5498	9.	-7.5	0.	104.59
5499	9.	-8.	0.	103.67
5500	9.	-8.5	0.	104.28
5501	7.	-7.5	0.	103.01
5502	7.	-8.	0.	101.76
5503	7.	-8.5	0.	102.56
5504	7.5	-9.	0.	110.59
5505	8.	-9.	0.	107.91
5506	8.5	-9.	0.	111.21
5507	8.	-8.	0.	112.56
5508	8.	-8.5	0.	111.81
5509	7.5	-8.5	0.	109.36
5510	7.5	-8.	0.	109.27
5511	7.5	-7.5	0.	110.11
5512	8.	-7.5	0.	112.91
5513	8.5	-7.5	0.	111.2
5514	8.5	-8.	0.	110.49
5515	8.5	-8.5	0.	110.38
5516	8.75	-7.	0.	106.32
5517	9.	-7.25	0.	102.17
5518	7.25	-7.	0.	105.31
5519	7.	-7.25	0.	100.69
5520	9.	-8.75	0.	102.13
5521	8.75	-9.	0.	105.55
5522	7.	-8.75	0.	100.29
5523	7.25	-9.	0.	104.26
5524	8.25	-7.	0.	111.57
5525	8.5	-7.25	0.	112.08
5526	7.75	-7.	0.	111.24
5527	8.	-7.25	0.	111.49
5528	7.5	-7.25	0.	111.21
5529	9.	-7.75	0.	104.12
5530	8.75	-7.5	0.	107.88
5531	9.	-8.25	0.	103.97
5532	8.75	-8.	0.	107.08
5533	8.75	-8.5	0.	107.33
5534	7.	-7.75	0.	102.36
5535	7.25	-7.5	0.	106.54
5536	7.	-8.25	0.	102.14
5537	7.25	-8.	0.	105.51
5538	7.25	-8.5	0.	105.95
5539	7.75	-9.	0.	109.25
5540	7.5	-8.75	0.	109.95
5541	8.25	-9.	0.	109.56
5542	8.	-8.75	0.	109.84
5543	8.5	-8.75	0.	110.76
5544	8.	-8.25	0.	112.18
5545	7.75	-8.	0.	110.91
5546	8.	-7.75	0.	112.73
5547	8.25	-8.	0.	111.52
5548	7.75	-8.5	0.	110.58
5549	8.25	-8.5	0.	111.09
5550	7.5	-8.25	0.	109.31
5551	7.5	-7.75	0.	109.68
5552	7.75	-7.5	0.	111.5
5553	8.25	-7.5	0.	112.04
5554	8.5	-7.75	0.	110.84
5555	8.5	-8.25	0.	110.43
