Node Number	X Location (mm)	Y Location (mm)	Z Location (mm)	Equivalent (von-Mises) Stress (MPa)
1	-3.	2.	0.	130.66
2	-3.	0.	0.	130.58
3	-2.	2.	0.	130.63
4	-2.	0.	0.	130.61
5	10.	10.	0.	125.
6	-10.	10.	0.	125.
7	10.	-10.	0.	125.2
8	-10.	-10.	0.	125.43
9	-3.	1.5	0.	139.39
10	-3.	1.	0.	139.75
11	-3.	0.5	0.	139.36
12	-2.5	2.	0.	106.38
13	-2.5	0.	0.	106.34
14	-2.	1.5	0.	139.36
15	-2.	1.	0.	139.73
16	-2.	0.5	0.	139.34
17	9.5	10.	0.	125.
18	9.	10.	0.	125.
19	8.5	10.	0.	125.01
20	8.	10.	0.	125.01
21	7.5	10.	0.	125.02
22	7.	10.	0.	125.03
23	6.5	10.	0.	125.04
24	6.	10.	0.	125.05
25	5.5	10.	0.	125.06
26	5.	10.	0.	125.06
27	4.5	10.	0.	125.06
28	4.	10.	0.	125.05
29	3.5	10.	0.	125.04
30	3.	10.	0.	125.02
31	2.5	10.	0.	124.99
32	2.	10.	0.	124.95
33	1.5	10.	0.	124.91
34	1.	10.	0.	124.86
35	0.5	10.	0.	124.81
36	-5.2042e-015	10.	0.	124.75
37	-0.5	10.	0.	124.7
38	-1.	10.	0.	124.65
39	-1.5	10.	0.	124.61
40	-2.	10.	0.	124.58
41	-2.5	10.	0.	124.57
42	-3.	10.	0.	124.58
43	-3.5	10.	0.	124.6
44	-4.	10.	0.	124.63
45	-4.5	10.	0.	124.67
46	-5.	10.	0.	124.72
47	-5.5	10.	0.	124.78
48	-6.	10.	0.	124.83
49	-6.5	10.	0.	124.87
50	-7.	10.	0.	124.91
51	-7.5	10.	0.	124.95
52	-8.	10.	0.	124.97
53	-8.5	10.	0.	124.99
54	-9.	10.	0.	125.
55	-9.5	10.	0.	125.
56	10.	9.5	0.	125.
57	10.	9.	0.	125.
58	10.	8.5	0.	124.99
59	10.	8.	0.	124.97
60	10.	7.5	0.	124.95
61	10.	7.	0.	124.93
62	10.	6.5	0.	124.91
63	10.	6.	0.	124.89
64	10.	5.5	0.	124.86
65	10.	5.	0.	124.84
66	10.	4.5	0.	124.82
67	10.	4.	0.	124.8
68	10.	3.5	0.	124.78
69	10.	3.	0.	124.77
70	10.	2.5	0.	124.76
71	10.	2.	0.	124.75
72	10.	1.5	0.	124.75
73	10.	1.	0.	124.76
74	10.	0.5	0.	124.77
75	10.	-5.2042e-015	0.	124.79
76	10.	-0.5	0.	124.81
77	10.	-1.	0.	124.83
78	10.	-1.5	0.	124.86
79	10.	-2.	0.	124.9
80	10.	-2.5	0.	124.93
81	10.	-3.	0.	124.96
82	10.	-3.5	0.	125.
83	10.	-4.	0.	125.03
84	10.	-4.5	0.	125.06
85	10.	-5.	0.	125.08
86	10.	-5.5	0.	125.11
87	10.	-6.	0.	125.13
88	10.	-6.5	0.	125.15
89	10.	-7.	0.	125.16
90	10.	-7.5	0.	125.17
91	10.	-8.	0.	125.18
92	10.	-8.5	0.	125.19
93	10.	-9.	0.	125.19
94	10.	-9.5	0.	125.2
95	-10.	9.5	0.	125.
96	-10.	9.	0.	125.
97	-10.	8.5	0.	125.02
98	-10.	8.	0.	125.05
99	-10.	7.5	0.	125.09
100	-10.	7.	0.	125.13
101	-10.	6.5	0.	125.16
102	-10.	6.	0.	125.18
103	-10.	5.5	0.	125.18
104	-10.	5.	0.	125.17
105	-10.	4.5	0.	125.13
106	-10.	4.	0.	125.06
107	-10.	3.5	0.	124.99
108	-10.	3.	0.	124.9
109	-10.	2.5	0.	124.82
110	-10.	2.	0.	124.75
111	-10.	1.5	0.	124.71
112	-10.	1.	0.	124.71
113	-10.	0.5	0.	124.75
114	-10.	-5.2042e-015	0.	124.83
115	-10.	-0.5	0.	124.93
116	-10.	-1.	0.	125.05
117	-10.	-1.5	0.	125.18
118	-10.	-2.	0.	125.3
119	-10.	-2.5	0.	125.4
120	-10.	-3.	0.	125.48
121	-10.	-3.5	0.	125.54
122	-10.	-4.	0.	125.57
123	-10.	-4.5	0.	125.59
124	-10.	-5.	0.	125.59
125	-10.	-5.5	0.	125.58
126	-10.	-6.	0.	125.56
127	-10.	-6.5	0.	125.54
128	-10.	-7.	0.	125.52
129	-10.	-7.5	0.	125.49
130	-10.	-8.	0.	125.47
131	-10.	-8.5	0.	125.45
132	-10.	-9.	0.	125.44
133	-10.	-9.5	0.	125.43
134	-9.5	-10.	0.	125.39
135	-9.	-10.	0.	125.34
136	-8.5	-10.	0.	125.29
137	-8.	-10.	0.	125.22
138	-7.5	-10.	0.	125.16
139	-7.	-10.	0.	125.09
140	-6.5	-10.	0.	125.02
141	-6.	-10.	0.	124.95
142	-5.5	-10.	0.	124.88
143	-5.	-10.	0.	124.82
144	-4.5	-10.	0.	124.76
145	-4.	-10.	0.	124.71
146	-3.5	-10.	0.	124.67
147	-3.	-10.	0.	124.65
148	-2.5	-10.	0.	124.63
149	-2.	-10.	0.	124.63
150	-1.5	-10.	0.	124.65
151	-1.	-10.	0.	124.67
152	-0.5	-10.	0.	124.7
153	5.2042e-015	-10.	0.	124.74
154	0.5	-10.	0.	124.78
155	1.	-10.	0.	124.83
156	1.5	-10.	0.	124.87
157	2.	-10.	0.	124.91
158	2.5	-10.	0.	124.95
159	3.	-10.	0.	124.99
160	3.5	-10.	0.	125.02
161	4.	-10.	0.	125.05
162	4.5	-10.	0.	125.07
163	5.	-10.	0.	125.08
164	5.5	-10.	0.	125.1
165	6.	-10.	0.	125.11
166	6.5	-10.	0.	125.12
167	7.	-10.	0.	125.12
168	7.5	-10.	0.	125.13
169	8.	-10.	0.	125.14
170	8.5	-10.	0.	125.15
171	9.	-10.	0.	125.16
172	9.5	-10.	0.	125.18
173	3.	-2.5	0.	125.43
174	2.5	-3.	0.	125.48
175	3.	-3.	0.	125.42
176	2.	-3.5	0.	125.45
177	3.5	1.	0.	125.08
178	3.	-2.	0.	125.42
179	3.5	3.5	0.	125.3
180	2.5	-2.5	0.	125.51
181	2.	-3.	0.	125.53
182	3.5	-1.5	0.	125.31
183	3.5	-2.5	0.	125.37
184	3.5	-3.5	0.	125.35
185	3.	-3.5	0.	125.39
186	2.5	-3.5	0.	125.43
187	1.5	-3.5	0.	125.45
188	3.5	1.5	0.	125.1
189	3.5	3.	0.	125.25
190	3.5	-1.	0.	125.26
191	3.5	0.5	0.	125.1
192	3.	3.5	0.	125.39
193	3.	-1.5	0.	125.39
194	3.	1.	0.	125.1
195	4.	3.5	0.	125.23
196	3.5	-4.	0.	125.32
197	2.5	-2.	0.	125.52
198	2.5	4.	0.	125.53
199	2.	-2.5	0.	125.6
200	1.5	-3.	0.	125.57
201	1.	-3.5	0.	125.41
202	3.5	2.5	0.	125.19
203	3.5	-0.5	0.	125.2
204	3.5	6.8337e-012	0.	125.14
205	3.	4.	0.	125.42
206	3.5	4.	0.	125.33
207	4.	3.	0.	125.19
208	4.	2.5	0.	125.15
209	4.	1.5	0.	125.08
210	4.	1.	0.	125.07
211	4.	0.5	0.	125.08
212	4.	-0.5	0.	125.16
213	4.	-1.	0.	125.2
214	4.	-1.5	0.	125.25
215	4.	-2.5	0.	125.31
216	4.	-3.	0.	125.31
217	4.	-3.5	0.	125.31
218	3.	-4.	0.	125.35
219	2.5	-4.	0.	125.37
220	2.	-4.	0.	125.37
221	1.5	-4.	0.	125.34
222	0.5	-4.	0.	125.16
223	3.	1.5	0.	125.12
224	3.	3.	0.	125.33
225	3.	-1.	0.	125.32
226	3.	0.5	0.	125.12
227	4.	4.	0.	125.26
228	4.	-4.	0.	125.29
229	2.5	3.5	0.	125.49
230	2.5	-1.5	0.	125.48
231	2.5	1.	0.	125.12
232	2.	4.	0.	125.65
233	2.	-2.	0.	125.63
234	9.9239e-011	-4.	0.	124.98
235	0.5	-3.5	0.	125.31
236	1.5	4.5	0.	125.72
237	1.	-3.	0.	125.57
238	3.	2.	0.	125.18
239	3.	2.5	0.	125.25
240	3.	8.2326e-012	0.	125.17
241	2.5	4.5	0.	125.52
242	3.	4.5	0.	125.43
243	3.5	4.5	0.	125.35
244	4.5	4.5	0.	125.21
245	4.5	3.5	0.	125.17
246	4.5	3.	0.	125.14
247	4.5	2.5	0.	125.11
248	4.5	1.5	0.	125.06
249	4.5	1.	0.	125.05
250	4.5	0.5	0.	125.06
251	4.5	-0.5	0.	125.12
252	4.5	-1.	0.	125.16
253	4.5	-1.5	0.	125.2
254	4.5	-2.5	0.	125.25
255	4.5	-3.	0.	125.27
256	4.5	-3.5	0.	125.27
257	4.5	-4.5	0.	125.24
258	3.5	-4.5	0.	125.29
259	3.	-4.5	0.	125.3
260	2.5	-4.5	0.	125.3
261	2.	-4.5	0.	125.28
262	1.5	-4.5	0.	125.24
263	0.5	-4.5	0.	125.05
264	-0.5	-4.5	0.	124.7
265	2.5	1.5	0.	125.15
266	2.5	3.	0.	125.42
267	2.5	-1.	0.	125.41
268	2.5	0.5	0.	125.15
269	-1.	-4.5	0.	124.48
270	-4.	-4.5	0.	124.5
271	-2.5	-4.5	0.	124.09
272	-4.5	-4.5	0.	124.72
273	2.	3.5	0.	125.63
274	2.	-1.5	0.	125.61
275	2.	1.	0.	125.15
276	-0.5	-4.	0.	124.74
277	-4.5	-4.	0.	124.76
278	5.	4.5	0.	125.16
279	4.5	-5.	0.	125.22
280	1.5	4.	0.	125.79
281	1.5	-2.	0.	125.75
282	0.5	5.	0.	125.59
283	1.	4.5	0.	125.8
284	1.	-2.5	0.	125.73
285	0.5	-3.	0.	125.5
286	2.5	2.	0.	125.23
287	2.5	2.5	0.	125.33
288	2.5	1.0244e-011	0.	125.22
289	-1.5	-4.5	0.	124.28
290	-3.	-4.5	0.	124.14
291	-5.	-4.5	0.	124.92
292	-5.	-4.	0.	125.01
293	1.	5.	0.	125.64
294	1.5	5.	0.	125.62
295	2.5	5.	0.	125.49
296	3.	5.	0.	125.41
297	3.5	5.	0.	125.34
298	4.5	5.	0.	125.22
299	5.	3.5	0.	125.13
300	5.	2.5	0.	125.08
301	5.	1.5	0.	125.04
302	5.	1.	0.	125.04
303	5.	-0.5	0.	125.1
304	5.	-1.	0.	125.13
305	5.	-1.5	0.	125.16
306	5.	-2.	0.	125.19
307	5.	-2.5	0.	125.21
308	5.	-3.	0.	125.22
309	5.	-3.5	0.	125.23
310	5.	-4.	0.	125.23
311	5.	-4.5	0.	125.22
312	3.5	-5.	0.	125.25
313	3.	-5.	0.	125.25
314	2.5	-5.	0.	125.24
315	2.	-5.	0.	125.21
316	1.5	-5.	0.	125.16
317	0.5	-5.	0.	124.97
318	-0.5	-5.	0.	124.67
319	-1.	-5.	0.	124.51
320	-1.5	-5.	0.	124.36
321	-2.5	-5.	0.	124.23
322	-3.5	-5.	0.	124.38
323	-4.	-5.	0.	124.53
324	-4.5	-5.	0.	124.7
325	-5.	-3.5	0.	125.15
326	2.	1.5	0.	125.19
327	2.	3.	0.	125.55
328	2.	-1.	0.	125.53
329	2.	0.5	0.	125.18
330	-1.	-4.	0.	124.46
331	-4.	-4.	0.	124.47
332	-2.5	-4.	0.	123.89
333	-5.	-5.	0.	124.87
334	5.	5.	0.	125.17
335	5.	-5.	0.	125.21
336	1.5	3.5	0.	125.8
337	1.5	-1.5	0.	125.76
338	1.5	1.	0.	125.18
339	-0.5	-3.5	0.	124.83
340	7.3854e-011	5.	0.	125.43
341	1.	4.	0.	125.93
342	1.	-2.	0.	125.88
343	1.9257e-010	-3.	0.	125.32
344	-5.	-3.	0.	125.36
345	-5.	5.	0.	125.43
346	0.5	4.5	0.	125.81
347	0.5	-2.5	0.	125.73
348	-5.5	4.5	0.	125.82
349	2.	2.	0.	125.3
350	2.	2.5	0.	125.43
351	2.	3.1296e-011	0.	125.29
352	-1.5	-4.	0.	124.18
353	-3.	-4.	0.	123.97
354	-5.5	-4.5	0.	125.09
355	-5.5	-3.5	0.	125.35
356	-5.5	-2.5	0.	125.77
357	-5.5	5.	0.	125.59
358	-5.5	5.5	0.	125.39
359	-4.5	5.5	0.	124.96
360	-0.5	5.5	0.	124.97
361	0.5	5.5	0.	125.4
362	1.	5.5	0.	125.48
363	1.5	5.5	0.	125.5
364	2.	5.5	0.	125.48
365	2.5	5.5	0.	125.43
366	3.5	5.5	0.	125.32
367	4.5	5.5	0.	125.21
368	5.5	5.5	0.	125.12
369	5.5	5.	0.	125.12
370	5.5	4.5	0.	125.12
371	5.5	3.5	0.	125.09
372	5.5	3.	0.	125.07
373	5.5	1.5	0.	125.03
374	5.5	1.	0.	125.02
375	5.5	0.5	0.	125.03
376	5.5	-0.5	0.	125.07
377	5.5	-1.5	0.	125.13
378	5.5	-2.	0.	125.15
379	5.5	-2.5	0.	125.17
380	5.5	-3.	0.	125.19
381	5.5	-3.5	0.	125.19
382	5.5	-4.5	0.	125.19
383	5.	-5.5	0.	125.19
384	4.5	-5.5	0.	125.2
385	4.	-5.5	0.	125.21
386	3.5	-5.5	0.	125.21
387	2.5	-5.5	0.	125.18
388	2.	-5.5	0.	125.14
389	1.5	-5.5	0.	125.09
390	0.5	-5.5	0.	124.91
391	-6.3527e-011	-5.5	0.	124.8
392	-0.5	-5.5	0.	124.67
393	-1.	-5.5	0.	124.54
394	-1.5	-5.5	0.	124.43
395	-2.	-5.5	0.	124.36
396	-2.5	-5.5	0.	124.34
397	-3.	-5.5	0.	124.37
398	-3.5	-5.5	0.	124.45
399	-4.	-5.5	0.	124.56
400	-4.5	-5.5	0.	124.7
401	-5.5	-5.5	0.	124.96
402	-1.	5.5	0.	124.6
403	1.5	1.5	0.	125.25
404	1.5	3.	0.	125.73
405	1.5	-1.	0.	125.7
406	1.5	0.5	0.	125.24
407	-1.	-3.5	0.	124.45
408	-4.	-3.5	0.	124.47
409	-2.5	-3.5	0.	123.62
410	-2.5	5.5	0.	123.79
411	-4.	5.5	0.	124.6
412	5.5	-6.	0.	125.16
413	6.	5.5	0.	125.08
414	-5.5	6.	0.	125.24
415	-0.5	5.	0.	125.12
416	1.	-1.5	0.	125.96
417	1.	1.	0.	125.25
418	-0.5	-3.	0.	124.99
419	-4.5	-3.	0.	125.02
420	-6.	1.	0.	125.32
421	-4.5	5.	0.	125.12
422	1.2387e-010	4.5	0.	125.71
423	0.5	4.	0.	126.05
424	0.5	-2.	0.	125.98
425	1.9174e-010	-2.5	0.	125.61
426	-5.	-2.5	0.	125.64
427	-5.5	-2.	0.	126.02
428	-5.5	4.	0.	126.06
429	-5.	4.5	0.	125.71
430	-2.	5.5	0.	123.91
431	1.5	2.	0.	125.4
432	1.5	2.5	0.	125.58
433	1.5	4.8375e-011	0.	125.38
434	-2.	-3.5	0.	123.74
435	-1.5	-3.5	0.	124.05
436	-3.	-3.5	0.	123.75
437	-3.5	5.5	0.	124.22
438	-6.	-4.5	0.	125.22
439	-6.	-3.5	0.	125.46
440	-6.	-3.	0.	125.61
441	-6.	-2.5	0.	125.78
442	-6.	-1.5	0.	126.02
443	-6.	3.5	0.	126.03
444	-6.	4.5	0.	125.8
445	-6.	5.	0.	125.63
446	-6.	5.5	0.	125.47
447	-4.5	6.	0.	124.88
448	-3.5	6.	0.	124.35
449	-2.5	6.	0.	124.08
450	-1.5	6.	0.	124.35
451	-1.	6.	0.	124.62
452	-0.5	6.	0.	124.88
453	-4.4395e-011	6.	0.	125.1
454	0.5	6.	0.	125.26
455	1.	6.	0.	125.35
456	1.5	6.	0.	125.39
457	3.5	6.	0.	125.28
458	4.5	6.	0.	125.19
459	5.5	6.	0.	125.11
460	6.	5.	0.	125.08
461	6.	4.5	0.	125.08
462	6.	4.	0.	125.07
463	6.	3.5	0.	125.05
464	6.	3.	0.	125.04
465	6.	2.5	0.	125.03
466	6.	1.5	0.	125.01
467	6.	1.	0.	125.01
468	6.	0.5	0.	125.02
469	6.	-0.5	0.	125.05
470	6.	-1.	0.	125.07
471	6.	-1.5	0.	125.1
472	6.	-2.	0.	125.12
473	6.	-2.5	0.	125.14
474	6.	-3.5	0.	125.16
475	6.	-4.5	0.	125.17
476	6.	-5.5	0.	125.16
477	4.5	-6.	0.	125.18
478	4.	-6.	0.	125.18
479	3.5	-6.	0.	125.17
480	2.5	-6.	0.	125.13
481	2.	-6.	0.	125.09
482	1.5	-6.	0.	125.03
483	0.5	-6.	0.	124.87
484	-0.5	-6.	0.	124.67
485	-1.	-6.	0.	124.57
486	-1.5	-6.	0.	124.49
487	-2.	-6.	0.	124.43
488	-2.5	-6.	0.	124.42
489	-3.5	-6.	0.	124.5
490	-4.	-6.	0.	124.59
491	-4.5	-6.	0.	124.7
492	-5.5	-6.	0.	124.93
493	6.	-6.	0.	125.16
494	6.	6.	0.	125.08
495	-6.	6.	0.	125.33
496	-6.	-6.	0.	125.03
497	-1.	5.	0.	124.64
498	1.	1.5	0.	125.34
499	1.	3.	0.	125.96
500	1.	-1.	0.	125.92
501	1.	0.5	0.	125.33
502	-1.	-3.	0.	124.5
503	-4.	-3.	0.	124.52
504	-2.5	-3.	0.	123.23
505	-6.	0.5	0.	125.4
506	-6.	-1.	0.	125.99
507	-6.	3.	0.	126.
508	-6.	1.5	0.	125.4
509	-2.5	5.	0.	123.38
510	-4.	5.	0.	124.64
511	-0.5	4.5	0.	125.39
512	0.5	3.5	0.	126.23
513	0.5	-1.5	0.	126.17
514	0.5	1.	0.	125.37
515	-0.5	-2.5	0.	125.28
516	-4.5	-2.5	0.	125.3
517	-5.5	-1.5	0.	126.23
518	-5.5	3.5	0.	126.26
519	-5.5	1.	0.	125.43
520	-4.5	4.5	0.	125.4
521	6.5	-6.	0.	125.14
522	6.	6.5	0.	125.07
523	-6.5	6.	0.	125.36
524	-6.	-6.5	0.	125.
525	1.4597e-010	4.	0.	126.06
526	-5.	-2.	0.	126.01
527	-5.	4.	0.	126.08
528	1.	2.5	0.	125.8
529	1.	6.4936e-011	0.	125.53
530	-1.5	-3.	0.	123.92
531	-3.5	-3.	0.	123.93
532	-3.	-3.	0.	123.43
533	-6.	-9.775e-011	0.	125.61
534	-6.	-0.5	0.	125.84
535	-6.	2.	0.	125.61
536	-3.	5.	0.	123.58
537	-3.5	5.	0.	124.07
538	-6.5	-5.5	0.	125.16
539	-6.5	-5.	0.	125.22
540	-6.5	-4.5	0.	125.3
541	-6.5	-3.5	0.	125.5
542	-6.5	-3.	0.	125.62
543	-6.5	-2.5	0.	125.73
544	-6.5	-2.	0.	125.81
545	-6.5	-1.5	0.	125.83
546	-6.5	-0.5	0.	125.63
547	-6.5	0.5	0.	125.32
548	-6.5	1.5	0.	125.31
549	-6.5	3.5	0.	125.82
550	-6.5	5.	0.	125.6
551	-6.5	5.5	0.	125.48
552	-6.	6.5	0.	125.21
553	-5.5	6.5	0.	125.13
554	-4.5	6.5	0.	124.84
555	-4.	6.5	0.	124.64
556	-3.5	6.5	0.	124.46
557	-2.5	6.5	0.	124.28
558	-2.	6.5	0.	124.33
559	-1.5	6.5	0.	124.47
560	-1.	6.5	0.	124.65
561	-0.5	6.5	0.	124.85
562	0.5	6.5	0.	125.15
563	1.	6.5	0.	125.24
564	1.5	6.5	0.	125.28
565	2.5	6.5	0.	125.29
566	3.5	6.5	0.	125.23
567	4.	6.5	0.	125.2
568	4.5	6.5	0.	125.17
569	6.5	6.	0.	125.05
570	6.5	5.5	0.	125.05
571	6.5	5.	0.	125.05
572	6.5	4.5	0.	125.04
573	6.5	4.	0.	125.03
574	6.5	3.5	0.	125.02
575	6.5	3.	0.	125.01
576	6.5	2.5	0.	125.
577	6.5	1.5	0.	124.99
578	6.5	1.	0.	124.99
579	6.5	0.5	0.	125.
580	6.5	-0.5	0.	125.03
581	6.5	-1.	0.	125.05
582	6.5	-1.5	0.	125.07
583	6.5	-2.5	0.	125.11
584	6.5	-3.	0.	125.12
585	6.5	-3.5	0.	125.14
586	6.5	-4.	0.	125.14
587	6.5	-4.5	0.	125.15
588	6.5	-5.5	0.	125.15
589	5.5	-6.5	0.	125.15
590	4.5	-6.5	0.	125.15
591	4.	-6.5	0.	125.15
592	3.5	-6.5	0.	125.14
593	2.5	-6.5	0.	125.08
594	2.	-6.5	0.	125.04
595	1.5	-6.5	0.	124.99
596	0.5	-6.5	0.	124.84
597	-5.717e-011	-6.5	0.	124.76
598	-0.5	-6.5	0.	124.67
599	-1.5	-6.5	0.	124.53
600	-2.5	-6.5	0.	124.48
601	-3.5	-6.5	0.	124.55
602	-4.5	-6.5	0.	124.71
603	-5.5	-6.5	0.	124.91
604	-1.	4.5	0.	124.78
605	0.5	1.5	0.	125.5
606	0.5	3.	0.	126.28
607	0.5	-1.	0.	126.23
608	0.5	0.5	0.	125.48
609	-1.	-2.5	0.	124.66
610	-4.	-2.5	0.	124.68
611	-2.5	-2.5	0.	122.63
612	-5.5	0.5	0.	125.55
613	-5.5	-1.	0.	126.29
614	-5.5	3.	0.	126.31
615	-5.5	1.5	0.	125.56
616	-2.5	4.5	0.	122.77
617	-4.	4.5	0.	124.79
618	6.5	-6.5	0.	125.14
619	6.5	6.5	0.	125.05
620	-6.5	6.5	0.	125.25
621	-6.5	-6.5	0.	125.09
622	-0.5	4.	0.	125.83
623	1.4336e-010	3.5	0.	126.43
624	1.4539e-010	-1.5	0.	126.36
625	3.3616e-011	1.	0.	125.62
626	-0.5	-2.	0.	125.73
627	-4.5	-2.	0.	125.76
628	-5.	-1.5	0.	126.4
629	-5.	3.5	0.	126.46
630	-5.	1.	0.	125.68
631	-4.5	4.	0.	125.84
632	-2.	4.5	0.	123.11
633	0.5	2.5	0.	126.12
634	0.5	7.7076e-011	0.	125.78
635	-1.5	-2.5	0.	123.8
636	-3.5	-2.5	0.	123.81
637	-3.	-2.5	0.	122.98
638	-5.5	-1.1217e-010	0.	125.85
639	-5.5	-0.5	0.	126.15
640	-5.5	2.	0.	125.86
641	-3.5	4.5	0.	123.93
642	-7.	-5.5	0.	125.24
643	-7.	-5.	0.	125.29
644	-7.	-4.5	0.	125.36
645	-7.	-3.5	0.	125.51
646	-7.	-3.	0.	125.59
647	-7.	-2.5	0.	125.65
648	-7.	-1.5	0.	125.67
649	-7.	-0.5	0.	125.49
650	-7.	-4.6098e-011	0.	125.36
651	-7.	0.5	0.	125.26
652	-7.	1.5	0.	125.25
653	-7.	2.	0.	125.35
654	-7.	2.5	0.	125.47
655	-7.	3.	0.	125.58
656	-7.	3.5	0.	125.64
657	-7.	4.	0.	125.64
658	-7.	4.5	0.	125.6
659	-7.	5.5	0.	125.44
660	6.5	-7.	0.	125.14
661	7.	6.5	0.	125.02
662	-6.5	7.	0.	125.16
663	-7.	6.5	0.	125.26
664	-6.	7.	0.	125.12
665	-5.5	7.	0.	125.05
666	-5.	7.	0.	124.94
667	-4.5	7.	0.	124.82
668	-4.	7.	0.	124.68
669	-3.5	7.	0.	124.55
670	-2.5	7.	0.	124.43
671	-2.	7.	0.	124.47
672	-1.5	7.	0.	124.56
673	-1.	7.	0.	124.69
674	-0.5	7.	0.	124.83
675	0.5	7.	0.	125.07
676	1.5	7.	0.	125.19
677	2.5	7.	0.	125.22
678	3.5	7.	0.	125.19
679	4.5	7.	0.	125.14
680	5.5	7.	0.	125.09
681	6.5	7.	0.	125.04
682	7.	6.	0.	125.02
683	7.	5.5	0.	125.02
684	7.	5.	0.	125.02
685	7.	4.5	0.	125.01
686	7.	4.	0.	125.
687	7.	3.5	0.	124.99
688	7.	3.	0.	124.99
689	7.	2.5	0.	124.98
690	7.	1.5	0.	124.97
691	7.	0.5	0.	124.98
692	7.	1.4309e-012	0.	124.99
693	7.	-0.5	0.	125.01
694	7.	-1.	0.	125.02
695	7.	-1.5	0.	125.04
696	7.	-2.5	0.	125.08
697	7.	-3.5	0.	125.11
698	7.	-6.5	0.	125.13
699	5.5	-7.	0.	125.14
700	4.5	-7.	0.	125.13
701	4.	-7.	0.	125.12
702	3.5	-7.	0.	125.11
703	3.	-7.	0.	125.08
704	2.5	-7.	0.	125.05
705	1.5	-7.	0.	124.95
706	0.5	-7.	0.	124.82
707	-1.	-7.	0.	124.61
708	-1.5	-7.	0.	124.56
709	-2.	-7.	0.	124.53
710	-2.5	-7.	0.	124.53
711	-3.5	-7.	0.	124.58
712	-4.5	-7.	0.	124.72
713	-5.	-7.	0.	124.81
714	-5.5	-7.	0.	124.89
715	-7.	-6.5	0.	125.16
716	-6.	-7.	0.	124.98
717	-6.5	-7.	0.	125.06
718	-1.	4.	0.	125.14
719	4.2272e-011	1.5	0.	125.79
720	1.2256e-010	3.	0.	126.67
721	3.8946e-011	0.5	0.	125.78
722	-1.	-2.	0.	125.03
723	-4.	-2.	0.	125.06
724	-2.5	-2.	0.	121.67
725	-5.	0.5	0.	125.84
726	-5.	-1.	0.	126.67
727	-5.	3.	0.	126.71
728	-5.	1.5	0.	125.84
729	-2.5	4.	0.	121.79
730	-4.	4.	0.	125.15
731	-0.5	3.5	0.	126.45
732	-0.5	-1.5	0.	126.37
733	-4.5	-1.5	0.	126.4
734	-4.5	3.5	0.	126.47
735	7.	-7.	0.	125.13
736	7.	7.	0.	125.02
737	-7.	7.	0.	125.18
738	-7.	-7.	0.	125.14
739	-0.5	1.	0.	126.27
740	-4.5	1.	0.	126.31
741	-2.	4.	0.	122.45
742	9.2322e-011	2.5	0.	126.6
743	5.5253e-011	8.1286e-011	0.	126.19
744	-2.	-2.	0.	122.33
745	-1.5	-2.	0.	123.78
746	-3.	-2.	0.	122.34
747	-5.	-0.5	0.	126.61
748	-5.	2.5	0.	126.64
749	-5.	2.	0.	126.27
750	-3.5	4.	0.	123.9
751	-4.	1.	0.	128.
752	-1.	1.	0.	127.96
753	-7.5	-7.	0.	125.21
754	-7.5	-6.5	0.	125.23
755	-7.5	-6.	0.	125.26
756	-7.5	-5.5	0.	125.3
757	-7.5	-5.	0.	125.34
758	-7.5	-4.5	0.	125.39
759	-7.5	-4.	0.	125.44
760	-7.5	-3.5	0.	125.5
761	-7.5	-3.	0.	125.54
762	-7.5	-2.5	0.	125.57
763	-7.5	-2.	0.	125.58
764	-7.5	-1.5	0.	125.55
765	-7.5	-1.	0.	125.48
766	-7.5	-0.5	0.	125.39
767	-7.5	-2.8423e-011	0.	125.29
768	-7.5	0.5	0.	125.22
769	-7.5	1.	0.	125.19
770	-7.5	1.5	0.	125.21
771	-7.5	2.	0.	125.27
772	-7.5	2.5	0.	125.35
773	-7.5	4.	0.	125.51
774	-7.5	4.5	0.	125.49
775	-7.5	5.	0.	125.45
776	-7.5	5.5	0.	125.39
777	-7.5	6.	0.	125.32
778	-7.5	6.5	0.	125.25
779	-7.5	7.	0.	125.18
780	-7.5	7.5	0.	125.12
781	-7.	7.5	0.	125.11
782	-6.5	7.5	0.	125.09
783	-6.	7.5	0.	125.04
784	-5.5	7.5	0.	124.98
785	-5.	7.5	0.	124.9
786	-4.5	7.5	0.	124.81
787	-4.	7.5	0.	124.71
788	-3.5	7.5	0.	124.62
789	-3.	7.5	0.	124.56
790	-2.5	7.5	0.	124.54
791	-2.	7.5	0.	124.56
792	-1.5	7.5	0.	124.63
793	-1.	7.5	0.	124.72
794	-0.5	7.5	0.	124.82
795	0.5	7.5	0.	125.
796	1.	7.5	0.	125.07
797	1.5	7.5	0.	125.11
798	2.	7.5	0.	125.14
799	2.5	7.5	0.	125.15
800	3.5	7.5	0.	125.14
801	4.	7.5	0.	125.12
802	4.5	7.5	0.	125.11
803	5.5	7.5	0.	125.07
804	6.	7.5	0.	125.05
805	6.5	7.5	0.	125.04
806	7.	7.5	0.	125.02
807	7.5	7.5	0.	125.01
808	7.5	7.	0.	125.
809	7.5	6.5	0.	125.
810	7.5	6.	0.	125.
811	7.5	5.5	0.	124.99
812	7.5	5.	0.	124.99
813	7.5	4.5	0.	124.98
814	7.5	4.	0.	124.97
815	7.5	3.5	0.	124.97
816	7.5	3.	0.	124.96
817	7.5	2.5	0.	124.95
818	7.5	2.	0.	124.95
819	7.5	1.5	0.	124.95
820	7.5	1.	0.	124.95
821	7.5	0.5	0.	124.96
822	7.5	1.4017e-012	0.	124.97
823	7.5	-0.5	0.	124.98
824	7.5	-1.	0.	125.
825	7.5	-1.5	0.	125.02
826	7.5	-2.	0.	125.04
827	7.5	-2.5	0.	125.05
828	7.5	-3.	0.	125.07
829	7.5	-3.5	0.	125.09
830	7.5	-4.	0.	125.1
831	7.5	-4.5	0.	125.11
832	7.5	-5.	0.	125.12
833	7.5	-5.5	0.	125.12
834	7.5	-6.	0.	125.13
835	7.5	-6.5	0.	125.13
836	7.5	-7.	0.	125.13
837	7.5	-7.5	0.	125.13
838	7.	-7.5	0.	125.13
839	6.5	-7.5	0.	125.13
840	6.	-7.5	0.	125.13
841	5.5	-7.5	0.	125.13
842	5.	-7.5	0.	125.12
843	4.5	-7.5	0.	125.11
844	4.	-7.5	0.	125.1
845	3.5	-7.5	0.	125.08
846	3.	-7.5	0.	125.05
847	2.5	-7.5	0.	125.02
848	2.	-7.5	0.	124.98
849	1.5	-7.5	0.	124.93
850	1.	-7.5	0.	124.87
851	0.5	-7.5	0.	124.81
852	-2.8101e-011	-7.5	0.	124.74
853	-0.5	-7.5	0.	124.68
854	-1.	-7.5	0.	124.63
855	-1.5	-7.5	0.	124.59
856	-2.	-7.5	0.	124.57
857	-2.5	-7.5	0.	124.56
858	-3.	-7.5	0.	124.58
859	-3.5	-7.5	0.	124.61
860	-4.	-7.5	0.	124.67
861	-4.5	-7.5	0.	124.73
862	-5.	-7.5	0.	124.81
863	-5.5	-7.5	0.	124.89
864	-6.	-7.5	0.	124.97
865	-6.5	-7.5	0.	125.04
866	-7.	-7.5	0.	125.12
867	-7.5	-7.5	0.	125.19
868	-4.	3.5	0.	125.93
869	-4.5	1.5	0.	126.49
870	-4.5	3.	0.	127.1
871	-4.5	-1.	0.	127.05
872	-4.5	0.5	0.	126.47
873	-4.	-1.5	0.	125.85
874	-1.	-1.5	0.	125.83
875	-2.5	-1.5	0.	120.03
876	-0.5	0.5	0.	126.43
877	-0.5	-1.	0.	127.01
878	-0.5	3.	0.	127.07
879	-0.5	1.5	0.	126.44
880	-2.5	3.5	0.	120.13
881	-1.	3.5	0.	125.91
882	-2.	3.5	0.	121.55
883	-0.5	2.	0.	126.86
884	-0.5	2.5	0.	127.29
885	-0.5	7.6221e-011	0.	126.83
886	-1.5	-1.5	0.	124.08
887	-3.	-1.5	0.	121.45
888	-4.5	-1.0003e-010	0.	126.88
889	-4.5	-0.5	0.	127.28
890	-3.	3.5	0.	121.56
891	-3.5	3.5	0.	124.18
892	-1.	1.5	0.	127.52
893	-4.	0.5	0.	127.54
894	-1.	3.	0.	127.24
895	-2.5	3.	0.	116.97
896	-8.	-7.5	0.	125.26
897	-8.	-7.	0.	125.28
898	-8.	-6.5	0.	125.3
899	-8.	-6.	0.	125.32
900	-8.	-5.5	0.	125.35
901	-8.	-5.	0.	125.38
902	-8.	-4.5	0.	125.41
903	-8.	-4.	0.	125.45
904	-8.	-3.5	0.	125.48
905	-8.	-2.	0.	125.49
906	-8.	-1.5	0.	125.44
907	-8.	-1.	0.	125.38
908	-8.	-0.5	0.	125.31
909	-8.	-1.7585e-011	0.	125.23
910	-8.	0.5	0.	125.17
911	-8.	1.	0.	125.15
912	-8.	1.5	0.	125.16
913	-8.	2.	0.	125.2
914	-8.	2.5	0.	125.26
915	-8.	3.	0.	125.31
916	-8.	3.5	0.	125.36
917	-8.	4.	0.	125.38
918	-8.	4.5	0.	125.38
919	-8.	5.	0.	125.36
920	-8.	5.5	0.	125.32
921	-8.	6.	0.	125.27
922	-8.	6.5	0.	125.22
923	-8.	7.	0.	125.17
924	-8.	7.5	0.	125.11
925	-8.	8.	0.	125.07
926	-7.5	8.	0.	125.06
927	-7.	8.	0.	125.04
928	-6.5	8.	0.	125.02
929	-6.	8.	0.	124.98
930	-5.5	8.	0.	124.93
931	-5.	8.	0.	124.87
932	-4.5	8.	0.	124.8
933	-4.	8.	0.	124.73
934	-3.5	8.	0.	124.67
935	-3.	8.	0.	124.63
936	-2.5	8.	0.	124.61
937	-2.	8.	0.	124.63
938	-1.5	8.	0.	124.68
939	-1.	8.	0.	124.74
940	-0.5	8.	0.	124.81
941	-3.999e-011	8.	0.	124.89
942	0.5	8.	0.	124.95
943	1.	8.	0.	125.01
944	1.5	8.	0.	125.05
945	2.	8.	0.	125.07
946	2.5	8.	0.	125.09
947	3.	8.	0.	125.1
948	3.5	8.	0.	125.09
949	4.	8.	0.	125.09
950	4.5	8.	0.	125.08
951	5.	8.	0.	125.07
952	6.	8.	0.	125.04
953	6.5	8.	0.	125.03
954	7.	8.	0.	125.02
955	7.5	8.	0.	125.01
956	8.	8.	0.	125.
957	8.	7.5	0.	124.99
958	8.	7.	0.	124.99
959	8.	6.5	0.	124.98
960	8.	6.	0.	124.98
961	8.	5.5	0.	124.97
962	8.	5.	0.	124.96
963	8.	4.5	0.	124.95
964	8.	4.	0.	124.94
965	8.	3.5	0.	124.94
966	8.	2.5	0.	124.92
967	8.	2.	0.	124.92
968	8.	1.5	0.	124.92
969	8.	1.	0.	124.93
970	8.	0.5	0.	124.93
971	8.	1.5103e-012	0.	124.94
972	8.	-0.5	0.	124.96
973	8.	-1.	0.	124.97
974	8.	-1.5	0.	124.99
975	8.	-2.	0.	125.01
976	8.	-2.5	0.	125.03
977	8.	-3.	0.	125.05
978	8.	-3.5	0.	125.06
979	8.	-4.	0.	125.08
980	8.	-4.5	0.	125.09
981	8.	-5.	0.	125.1
982	8.	-5.5	0.	125.11
983	8.	-6.	0.	125.12
984	8.	-6.5	0.	125.13
985	8.	-7.	0.	125.13
986	8.	-7.5	0.	125.13
987	7.5	-8.	0.	125.13
988	7.	-8.	0.	125.13
989	6.5	-8.	0.	125.13
990	6.	-8.	0.	125.12
991	5.5	-8.	0.	125.12
992	5.	-8.	0.	125.11
993	4.5	-8.	0.	125.1
994	4.	-8.	0.	125.08
995	3.5	-8.	0.	125.06
996	3.	-8.	0.	125.03
997	2.5	-8.	0.	124.99
998	2.	-8.	0.	124.95
999	1.5	-8.	0.	124.9
1000	1.	-8.	0.	124.85
1001	0.5	-8.	0.	124.8
1002	-1.7712e-011	-8.	0.	124.74
1003	-0.5	-8.	0.	124.69
1004	-1.	-8.	0.	124.65
1005	-1.5	-8.	0.	124.61
1006	-2.	-8.	0.	124.59
1007	-2.5	-8.	0.	124.59
1008	-3.	-8.	0.	124.6
1009	-3.5	-8.	0.	124.64
1010	-4.	-8.	0.	124.68
1011	-4.5	-8.	0.	124.74
1012	-5.	-8.	0.	124.81
1013	-5.5	-8.	0.	124.88
1014	-6.	-8.	0.	124.96
1015	-6.5	-8.	0.	125.03
1016	-7.	-8.	0.	125.11
1017	-7.5	-8.	0.	125.18
1018	-8.	-8.	0.	125.25
1019	-1.	0.5	0.	127.51
1020	-1.	-1.	0.	127.16
1021	-2.5	-1.	0.	116.9
1022	-4.	-1.	0.	127.19
1023	-4.	1.5	0.	127.56
1024	-4.	3.	0.	127.26
1025	-3.	3.	0.	120.37
1026	-3.5	3.	0.	125.63
1027	-4.	2.	0.	128.09
1028	-4.	-7.6659e-011	0.	128.06
1029	-4.	-0.5	0.	128.23
1030	-3.	-1.	0.	120.29
1031	-2.	-1.	0.	120.29
1032	-1.5	-1.	0.	125.53
1033	-1.	6.232e-011	0.	128.02
1034	-1.	2.	0.	128.06
1035	-1.	2.5	0.	128.25
1036	-2.	3.	0.	120.36
1037	-8.	8.5	0.	125.02
1038	-8.5	7.5	0.	125.11
1039	-8.5	8.	0.	125.07
1040	-8.5	7.	0.	125.15
1041	-8.5	5.5	0.	125.26
1042	-8.5	6.	0.	125.23
1043	-8.5	5.	0.	125.28
1044	-8.5	3.5	0.	125.25
1045	-8.5	4.	0.	125.28
1046	-8.5	2.5	0.	125.16
1047	-8.5	3.	0.	125.21
1048	-8.5	1.5	0.	125.09
1049	-8.5	2.	0.	125.12
1050	-8.5	0.5	0.	125.12
1051	-8.5	1.	0.	125.09
1052	-8.5	-0.5	0.	125.23
1053	-8.5	-1.5	0.	125.36
1054	-8.5	-1.	0.	125.3
1055	-8.5	-2.	0.	125.41
1056	-8.5	-3.5	0.	125.46
1057	-8.5	-3.	0.	125.46
1058	-8.5	-4.5	0.	125.44
1059	-8.5	-4.	0.	125.45
1060	-8.5	-5.5	0.	125.4
1061	-8.5	-5.	0.	125.42
1062	-8.5	-6.	0.	125.38
1063	-8.5	-7.5	0.	125.32
1064	-8.5	-7.	0.	125.34
1065	8.5	8.	0.	124.99
1066	8.	-8.5	0.	125.14
1067	-8.5	-8.	0.	125.31
1068	-8.	-8.5	0.	125.24
1069	-6.5	-8.5	0.	125.02
1070	-7.	-8.5	0.	125.1
1071	-5.5	-8.5	0.	124.88
1072	-6.	-8.5	0.	124.95
1073	-4.5	-8.5	0.	124.75
1074	-5.	-8.5	0.	124.81
1075	-3.5	-8.5	0.	124.65
1076	-4.	-8.5	0.	124.7
1077	-3.	-8.5	0.	124.62
1078	-1.5	-8.5	0.	124.63
1079	-2.	-8.5	0.	124.61
1080	-1.	-8.5	0.	124.66
1081	0.5	-8.5	0.	124.79
1082	-1.0851e-011	-8.5	0.	124.74
1083	1.5	-8.5	0.	124.89
1084	1.	-8.5	0.	124.84
1085	2.	-8.5	0.	124.94
1086	3.5	-8.5	0.	125.04
1087	3.	-8.5	0.	125.01
1088	4.5	-8.5	0.	125.08
1089	4.	-8.5	0.	125.07
1090	5.	-8.5	0.	125.1
1091	6.5	-8.5	0.	125.12
1092	6.	-8.5	0.	125.12
1093	7.5	-8.5	0.	125.13
1094	7.	-8.5	0.	125.13
1095	8.5	-7.5	0.	125.14
1096	8.5	-8.	0.	125.14
1097	8.5	-6.5	0.	125.12
1098	8.5	-7.	0.	125.13
1099	8.5	-5.5	0.	125.1
1100	8.5	-6.	0.	125.11
1101	8.5	-4.5	0.	125.08
1102	8.5	-5.	0.	125.09
1103	8.5	-4.	0.	125.06
1104	8.5	-3.	0.	125.03
1105	8.5	-2.	0.	124.99
1106	8.5	-1.	0.	124.95
1107	8.5	0.5	0.	124.9
1108	8.5	1.2685e-012	0.	124.92
1109	8.5	1.5	0.	124.89
1110	8.5	1.	0.	124.9
1111	8.5	2.5	0.	124.89
1112	8.5	2.	0.	124.89
1113	8.5	3.	0.	124.9
1114	8.5	4.	0.	124.91
1115	8.5	5.5	0.	124.94
1116	8.5	5.	0.	124.93
1117	8.5	6.5	0.	124.96
1118	8.5	6.	0.	124.95
1119	8.5	7.5	0.	124.98
1120	8.5	7.	0.	124.97
1121	8.	8.5	0.	125.
1122	6.5	8.5	0.	125.03
1123	7.	8.5	0.	125.02
1124	5.5	8.5	0.	125.05
1125	6.	8.5	0.	125.04
1126	4.5	8.5	0.	125.06
1127	5.	8.5	0.	125.05
1128	3.5	8.5	0.	125.06
1129	4.	8.5	0.	125.06
1130	3.	8.5	0.	125.05
1131	2.	8.5	0.	125.02
1132	0.5	8.5	0.	124.91
1133	1.	8.5	0.	124.96
1134	-0.5	8.5	0.	124.8
1135	-2.6998e-011	8.5	0.	124.86
1136	-1.	8.5	0.	124.75
1137	-2.5	8.5	0.	124.66
1138	-2.	8.5	0.	124.67
1139	-3.	8.5	0.	124.67
1140	-4.	8.5	0.	124.74
1141	-5.5	8.5	0.	124.89
1142	-5.	8.5	0.	124.84
1143	-6.5	8.5	0.	124.97
1144	-6.	8.5	0.	124.93
1145	-7.5	8.5	0.	125.01
1146	-7.	8.5	0.	124.99
1147	-8.5	8.5	0.	125.03
1148	8.5	8.5	0.	124.99
1149	8.5	-8.5	0.	125.14
1150	-8.5	-8.5	0.	125.3
1151	-7.5	9.	0.	124.97
1152	-6.5	9.	0.	124.92
1153	-6.	9.	0.	124.89
1154	-5.5	9.	0.	124.85
1155	-4.5	9.	0.	124.76
1156	-3.5	9.	0.	124.7
1157	-2.5	9.	0.	124.67
1158	-2.	9.	0.	124.68
1159	-1.5	9.	0.	124.7
1160	-1.	9.	0.	124.74
1161	-0.5	9.	0.	124.78
1162	-1.5488e-011	9.	0.	124.83
1163	0.5	9.	0.	124.87
1164	1.5	9.	0.	124.95
1165	2.5	9.	0.	125.
1166	3.5	9.	0.	125.03
1167	6.5	9.	0.	125.03
1168	7.5	9.	0.	125.02
1169	9.	8.5	0.	124.99
1170	8.5	9.	0.	125.
1171	9.	8.	0.	124.98
1172	9.	7.5	0.	124.97
1173	9.	7.	0.	124.96
1174	9.	6.5	0.	124.94
1175	9.	5.5	0.	124.92
1176	9.	4.5	0.	124.89
1177	9.	3.5	0.	124.87
1178	9.	2.5	0.	124.86
1179	9.	2.	0.	124.85
1180	9.	1.5	0.	124.85
1181	9.	0.5	0.	124.87
1182	9.	-0.5	0.	124.9
1183	9.	-1.5	0.	124.94
1184	9.	-2.	0.	124.96
1185	9.	-2.5	0.	124.98
1186	9.	-3.5	0.	125.03
1187	9.	-4.5	0.	125.07
1188	9.	-5.	0.	125.08
1189	9.	-5.5	0.	125.1
1190	9.	-6.5	0.	125.13
1191	9.	-7.	0.	125.14
1192	9.	-7.5	0.	125.14
1193	8.5	-9.	0.	125.15
1194	9.	-8.5	0.	125.16
1195	7.5	-9.	0.	125.13
1196	6.5	-9.	0.	125.12
1197	6.	-9.	0.	125.11
1198	5.5	-9.	0.	125.1
1199	5.	-9.	0.	125.09
1200	4.5	-9.	0.	125.07
1201	3.5	-9.	0.	125.03
1202	2.5	-9.	0.	124.96
1203	1.5	-9.	0.	124.88
1204	1.	-9.	0.	124.83
1205	0.5	-9.	0.	124.79
1206	-0.5	-9.	0.	124.7
1207	-1.5	-9.	0.	124.64
1208	-2.5	-9.	0.	124.62
1209	-3.5	-9.	0.	124.66
1210	-4.5	-9.	0.	124.75
1211	-5.	-9.	0.	124.81
1212	-5.5	-9.	0.	124.88
1213	-6.	-9.	0.	124.95
1214	-6.5	-9.	0.	125.02
1215	-8.5	-9.	0.	125.29
1216	-9.	-7.5	0.	125.38
1217	-9.	-6.5	0.	125.41
1218	-9.	-6.	0.	125.43
1219	-9.	-5.5	0.	125.45
1220	-9.	-5.	0.	125.46
1221	-9.	-4.5	0.	125.47
1222	-9.	-2.5	0.	125.4
1223	-9.	-2.	0.	125.35
1224	-9.	-1.5	0.	125.29
1225	-9.	-1.	0.	125.22
1226	-9.	-0.5	0.	125.15
1227	-9.	-3.3443e-012	0.	125.09
1228	-9.	0.5	0.	125.04
1229	-9.	1.5	0.	125.01
1230	-9.	2.5	0.	125.07
1231	-9.	3.	0.	125.11
1232	-9.	3.5	0.	125.15
1233	-9.	4.5	0.	125.21
1234	-9.	5.5	0.	125.21
1235	-9.	6.5	0.	125.17
1236	-9.	7.	0.	125.14
1237	-9.	7.5	0.	125.1
1238	-9.	8.	0.	125.07
1239	-9.	8.5	0.	125.04
1240	-1.5	2.5	0.	129.33
1241	-1.5	-0.5	0.	129.27
1242	-3.5	2.5	0.	129.36
1243	-9.	9.	0.	125.01
1244	9.	9.	0.	125.
1245	9.	-9.	0.	125.16
1246	-9.	-9.	0.	125.35
1247	-1.5	2.	0.	128.88
1248	-1.5	1.5	0.	131.2
1249	-1.5	1.	0.	132.82
1250	-1.5	3.8067e-011	0.	128.84
1251	-1.5	0.5	0.	131.19
1252	-2.	-0.5	0.	120.81
1253	-3.	-0.5	0.	120.8
1254	-2.5	-0.5	0.	109.22
1255	-3.5	-4.5248e-011	0.	128.87
1256	-3.5	0.5	0.	131.2
1257	-3.5	1.	0.	132.84
1258	-3.5	2.	0.	128.9
1259	-3.5	1.5	0.	131.23
1260	-2.	2.5	0.	120.86
1261	-2.5	2.5	0.	109.27
1262	-3.	2.5	0.	120.88
1263	-9.	9.5	0.	125.
1264	-8.5	9.5	0.	124.99
1265	-8.	9.5	0.	124.97
1266	-7.5	9.5	0.	124.95
1267	-7.	9.5	0.	124.92
1268	-6.5	9.5	0.	124.89
1269	-6.	9.5	0.	124.85
1270	-5.5	9.5	0.	124.81
1271	-5.	9.5	0.	124.77
1272	-4.5	9.5	0.	124.73
1273	-4.	9.5	0.	124.69
1274	-3.5	9.5	0.	124.67
1275	-3.	9.5	0.	124.65
1276	-2.5	9.5	0.	124.65
1277	-2.	9.5	0.	124.65
1278	-1.5	9.5	0.	124.68
1279	-1.	9.5	0.	124.71
1280	-0.5	9.5	0.	124.75
1281	-7.3284e-012	9.5	0.	124.79
1282	0.5	9.5	0.	124.84
1283	1.	9.5	0.	124.88
1284	1.5	9.5	0.	124.92
1285	2.	9.5	0.	124.95
1286	2.5	9.5	0.	124.98
1287	3.	9.5	0.	125.01
1288	3.5	9.5	0.	125.02
1289	4.	9.5	0.	125.03
1290	4.5	9.5	0.	125.04
1291	5.	9.5	0.	125.04
1292	5.5	9.5	0.	125.04
1293	6.	9.5	0.	125.04
1294	6.5	9.5	0.	125.03
1295	7.	9.5	0.	125.03
1296	7.5	9.5	0.	125.02
1297	8.	9.5	0.	125.01
1298	8.5	9.5	0.	125.01
1299	9.	9.5	0.	125.
1300	9.5	9.5	0.	125.
1301	9.5	9.	0.	124.99
1302	9.5	8.5	0.	124.98
1303	9.5	8.	0.	124.97
1304	9.5	7.5	0.	124.96
1305	9.5	7.	0.	124.94
1306	9.5	6.5	0.	124.93
1307	9.5	6.	0.	124.91
1308	9.5	5.5	0.	124.89
1309	9.5	5.	0.	124.87
1310	9.5	4.5	0.	124.86
1311	9.5	4.	0.	124.84
1312	9.5	3.5	0.	124.83
1313	9.5	3.	0.	124.82
1314	9.5	2.5	0.	124.81
1315	9.5	2.	0.	124.81
1316	9.5	1.5	0.	124.81
1317	9.5	1.	0.	124.81
1318	9.5	0.5	0.	124.82
1319	9.5	4.6774e-013	0.	124.84
1320	9.5	-0.5	0.	124.86
1321	9.5	-1.	0.	124.88
1322	9.5	-1.5	0.	124.9
1323	9.5	-2.	0.	124.93
1324	9.5	-2.5	0.	124.96
1325	9.5	-3.	0.	124.98
1326	9.5	-3.5	0.	125.01
1327	9.5	-4.	0.	125.04
1328	9.5	-4.5	0.	125.06
1329	9.5	-5.	0.	125.08
1330	9.5	-5.5	0.	125.1
1331	9.5	-6.	0.	125.12
1332	9.5	-6.5	0.	125.13
1333	9.5	-7.	0.	125.15
1334	9.5	-7.5	0.	125.16
1335	9.5	-8.	0.	125.16
1336	9.5	-8.5	0.	125.17
1337	9.5	-9.	0.	125.17
1338	9.5	-9.5	0.	125.18
1339	9.	-9.5	0.	125.16
1340	8.5	-9.5	0.	125.15
1341	8.	-9.5	0.	125.14
1342	7.5	-9.5	0.	125.13
1343	7.	-9.5	0.	125.12
1344	6.5	-9.5	0.	125.12
1345	6.	-9.5	0.	125.11
1346	5.5	-9.5	0.	125.1
1347	5.	-9.5	0.	125.09
1348	4.5	-9.5	0.	125.07
1349	4.	-9.5	0.	125.05
1350	3.5	-9.5	0.	125.02
1351	3.	-9.5	0.	124.99
1352	2.5	-9.5	0.	124.96
1353	2.	-9.5	0.	124.92
1354	1.5	-9.5	0.	124.87
1355	1.	-9.5	0.	124.83
1356	0.5	-9.5	0.	124.78
1357	-2.7956e-012	-9.5	0.	124.74
1358	-0.5	-9.5	0.	124.7
1359	-1.	-9.5	0.	124.67
1360	-1.5	-9.5	0.	124.64
1361	-2.	-9.5	0.	124.63
1362	-2.5	-9.5	0.	124.63
1363	-3.	-9.5	0.	124.64
1364	-3.5	-9.5	0.	124.67
1365	-4.	-9.5	0.	124.71
1366	-4.5	-9.5	0.	124.76
1367	-5.	-9.5	0.	124.82
1368	-5.5	-9.5	0.	124.88
1369	-6.	-9.5	0.	124.95
1370	-6.5	-9.5	0.	125.02
1371	-7.	-9.5	0.	125.09
1372	-7.5	-9.5	0.	125.16
1373	-8.	-9.5	0.	125.22
1374	-8.5	-9.5	0.	125.29
1375	-9.	-9.5	0.	125.34
1376	-9.5	-9.5	0.	125.39
1377	-9.5	-9.	0.	125.4
1378	-9.5	-8.5	0.	125.41
1379	-9.5	-8.	0.	125.42
1380	-9.5	-7.5	0.	125.44
1381	-9.5	-7.	0.	125.46
1382	-9.5	-6.5	0.	125.48
1383	-9.5	-6.	0.	125.49
1384	-9.5	-5.5	0.	125.51
1385	-9.5	-5.	0.	125.51
1386	-9.5	-4.5	0.	125.51
1387	-9.5	-4.	0.	125.5
1388	-9.5	-3.5	0.	125.48
1389	-9.5	-3.	0.	125.44
1390	-9.5	-2.5	0.	125.38
1391	-9.5	-2.	0.	125.31
1392	-9.5	-1.5	0.	125.23
1393	-9.5	-1.	0.	125.14
1394	-9.5	-0.5	0.	125.05
1395	-9.5	-1.2603e-012	0.	124.98
1396	-9.5	0.5	0.	124.93
1397	-9.5	1.	0.	124.9
1398	-9.5	1.5	0.	124.89
1399	-9.5	2.	0.	124.91
1400	-9.5	2.5	0.	124.96
1401	-9.5	3.	0.	125.01
1402	-9.5	3.5	0.	125.06
1403	-9.5	4.	0.	125.11
1404	-9.5	4.5	0.	125.15
1405	-9.5	5.	0.	125.17
1406	-9.5	5.5	0.	125.18
1407	-9.5	6.	0.	125.17
1408	-9.5	6.5	0.	125.15
1409	-9.5	7.	0.	125.13
1410	-9.5	7.5	0.	125.09
1411	-9.5	8.	0.	125.06
1412	-9.5	8.5	0.	125.04
1413	-9.5	9.	0.	125.01
1414	-9.5	9.5	0.	125.
1415	4.5	2.	0.	125.08
1416	-2.	-2.5	0.	122.98
1417	-6.5	1.	0.	125.26
1418	-3.	-9.	0.	124.64
1419	-5.5	2.5	0.	126.17
1420	-4.5	2.5	0.	127.32
1421	8.	9.	0.	125.01
1422	-3.5	-4.5	0.	124.29
1423	-6.5	4.5	0.	125.71
1424	-1.	-0.5	0.	128.19
1425	9.	6.	0.	124.93
1426	5.5	3.3935e-012	0.	125.05
1427	3.	-6.5	0.	125.11
1428	3.	-6.	0.	125.15
1429	5.5	-1.	0.	125.1
1430	3.5	2.	0.	125.14
1431	-8.	-9.	0.	125.23
1432	5.	4.2397e-012	0.	125.07
1433	5.	-6.	0.	125.17
1434	-3.	7.	0.	124.46
1435	4.5	9.	0.	125.04
1436	0.5	-0.5	0.	126.08
1437	5.5	4.	0.	125.11
1438	-5.	6.5	0.	125.
1439	5.	6.5	0.	125.13
1440	2.	-9.	0.	124.92
1441	-1.5	4.	0.	123.89
1442	-2.	-9.	0.	124.62
1443	-6.	-4.	0.	125.32
1444	6.	9.	0.	125.04
1445	-3.	4.	0.	122.45
1446	-8.5	-8.6953e-012	0.	125.17
1447	-8.	-2.5	0.	125.5
1448	2.	-7.	0.	125.
1449	-4.	-9.	0.	124.7
1450	-3.	-5.	0.	124.27
1451	-9.	-8.	0.	125.37
1452	-5.5	-3.	0.	125.54
1453	9.	9.796e-013	0.	124.88
1454	5.5	-5.	0.	125.19
1455	7.	-3.	0.	125.1
1456	-5.	-1.0824e-010	0.	126.25
1457	1.	-4.5	0.	125.17
1458	6.	2.	0.	125.01
1459	-7.	-1.	0.	125.6
1460	-2.	-5.	0.	124.26
1461	-6.	-5.5	0.	125.07
1462	-7.	-2.	0.	125.69
1463	6.5	1.9894e-012	0.	125.01
1464	7.	-5.5	0.	125.13
1465	2.5	-0.5	0.	125.32
1466	-5.	-6.	0.	124.82
1467	-2.4269e-011	-5.	0.	124.83
1468	-7.5	-8.5	0.	125.17
1469	1.7158e-010	-2.	0.	125.97
1470	5.	6.	0.	125.15
1471	3.5	-2.	0.	125.35
1472	4.	2.	0.	125.11
1473	-2.	-6.5	0.	124.49
1474	5.5	-4.	0.	125.2
1475	-3.	5.5	0.	123.91
1476	-6.	4.	0.	125.94
1477	7.	-4.5	0.	125.13
1478	-8.5	4.5	0.	125.29
1479	1.5	-0.5	0.	125.56
1480	-3.5	-1.	0.	125.54
1481	-9.	-3.	0.	125.43
1482	5.5	2.5	0.	125.05
1483	-1.	-9.	0.	124.66
1484	7.7935e-012	5.5	0.	125.24
1485	-3.5	8.5	0.	124.69
1486	-7.	-9.	0.	125.09
1487	4.	4.6329e-012	0.	125.11
1488	5.	0.5	0.	125.05
1489	4.	5.	0.	125.27
1490	3.	5.5	0.	125.37
1491	-9.	5.	0.	125.21
1492	5.	-7.	0.	125.14
1493	-5.	6.	0.	125.09
1494	8.1152e-011	-0.5	0.	126.55
1495	6.5	-2.	0.	125.09
1496	-7.	6.	0.	125.35
1497	-1.5	5.	0.	124.07
1498	2.	9.	0.	124.98
1499	-5.5	-5.	0.	125.01
1500	1.	-5.	0.	125.08
1501	-6.5312e-011	-6.	0.	124.77
1502	9.	-4.	0.	125.05
1503	2.	4.5	0.	125.62
1504	-9.	-4.	0.	125.47
1505	-4.	2.5	0.	128.28
1506	-4.	9.	0.	124.73
1507	-4.	6.	0.	124.62
1508	2.5	-8.5	0.	124.98
1509	2.	6.	0.	125.39
1510	-9.	4.	0.	125.18
1511	-1.5	5.5	0.	124.22
1512	-4.5	8.5	0.	124.79
1513	0.5	2.	0.	125.8
1514	-5.	-5.5	0.	124.84
1515	-3.5	-2.	0.	123.79
1516	5.	7.	0.	125.11
1517	-9.	1.	0.	125.01
1518	5.	4.	0.	125.15
1519	5.5	2.	0.	125.04
1520	9.	-3.	0.	125.
1521	-8.5	6.5	0.	125.19
1522	7.	-9.	0.	125.12
1523	2.	5.	0.	125.56
1524	3.	6.	0.	125.32
1525	4.5	4.	0.	125.2
1526	-7.5	3.	0.	125.43
1527	-2.	6.	0.	124.15
1528	4.	-9.	0.	125.05
1529	4.	-5.	0.	125.24
1530	9.	-1.	0.	124.91
1531	-4.	-6.5	0.	124.62
1532	2.	-0.5	0.	125.42
1533	-8.	9.	0.	124.99
1534	9.	-6.	0.	125.11
1535	-7.	1.	0.	125.22
1536	-3.	-6.5	0.	124.5
1537	6.5	-5.	0.	125.15
1538	6.	-7.	0.	125.14
1539	5.	9.	0.	125.04
1540	1.	9.	0.	124.91
1541	-3.5	-1.5	0.	124.09
1542	6.5	2.	0.	124.99
1543	-2.	5.	0.	123.58
1544	-1.5	3.5	0.	124.17
1545	-7.	5.	0.	125.53
1546	3.	9.	0.	125.02
1547	-6.5	3.	0.	125.76
1548	7.	9.	0.	125.02
1549	9.	5.	0.	124.9
1550	-6.5	-6.	0.	125.12
1551	7.	-2.	0.	125.06
1552	1.5672e-010	-3.5	0.	125.12
1553	4.	6.	0.	125.23
1554	8.	3.	0.	124.93
1555	7.	-4.	0.	125.12
1556	-6.	2.5	0.	125.85
1557	1.	-4.	0.	125.28
1558	-6.5	4.	0.	125.79
1559	-9.	2.	0.	125.03
1560	-0.5	-0.5	0.	127.23
1561	9.	3.	0.	124.86
1562	3.	-5.5	0.	125.2
1563	6.	-6.5	0.	125.15
1564	-5.	9.	0.	124.81
1565	6.3332e-011	2.	0.	126.22
1566	-9.	-7.	0.	125.4
1567	9.	4.	0.	124.88
1568	-3.	4.5	0.	123.11
1569	8.5	-2.5	0.	125.01
1570	8.5	-1.5	0.	124.97
1571	4.5	4.1957e-012	0.	125.09
1572	7.5	8.5	0.	125.01
1573	5.5	9.	0.	125.04
1574	6.	7.	0.	125.06
1575	-9.	-8.5	0.	125.36
1576	-2.	-4.5	0.	124.14
1577	-5.	-6.5	0.	124.81
1578	-3.5	-3.5	0.	124.07
1579	9.	-8.	0.	125.15
1580	-4.	-7.	0.	124.65
1581	5.5	8.	0.	125.06
1582	-2.	-1.5	0.	121.45
1583	7.	-6.	0.	125.14
1584	1.	-6.5	0.	124.92
1585	-1.5	3.	0.	125.61
1586	8.	-9.	0.	125.14
1587	-4.2235e-011	-7.	0.	124.75
1588	-4.5	-3.5	0.	124.85
1589	8.	-8.	0.	125.14
1590	4.5	-4.	0.	125.26
1591	-8.	-3.	0.	125.5
1592	-8.5	-2.5	0.	125.44
1593	-6.6997e-011	7.	0.	124.96
1594	-2.	-3.	0.	123.42
1595	-4.5	2.	0.	126.9
1596	-9.	6.	0.	125.19
1597	4.	7.	0.	125.16
1598	-3.5	-0.5	0.	129.29
1599	6.	-5.	0.	125.17
1600	8.5	-0.5	0.	124.93
1601	3.	6.5	0.	125.27
1602	5.	-6.5	0.	125.15
1603	-5.5	-4.	0.	125.2
1604	-3.	-6.	0.	124.44
1605	5.	3.	0.	125.1
1606	7.	-5.	0.	125.13
1607	6.	-4.	0.	125.17
1608	5.5	-8.5	0.	125.11
1609	9.	1.	0.	124.86
1610	4.	9.	0.	125.04
1611	1.	-5.5	0.	125.01
1612	-7.5	-9.	0.	125.16
1613	-6.5	-4.	0.	125.4
1614	3.	7.5	0.	125.15
1615	3.	-0.5	0.	125.25
1616	5.5	6.5	0.	125.1
1617	-6.	-2.	0.	125.93
1618	5.5	-5.5	0.	125.18
1619	-6.3904e-012	-9.	0.	124.74
1620	4.	5.5	0.	125.26
1621	1.	2.	0.	125.55
1622	3.5413e-011	-4.5	0.	124.89
1623	7.	2.	0.	124.97
1624	-3.	-7.	0.	124.54
1625	-6.5	-6.7582e-011	0.	125.46
1626	-6.5	2.	0.	125.46
1627	4.5	-2.	0.	125.23
1628	-9.	-3.5	0.	125.46
1629	-3.	9.	0.	124.68
1630	-1.	-6.5	0.	124.59
1631	-0.5	-8.5	0.	124.69
1632	4.	4.5	0.	125.27
1633	1.5	-2.5	0.	125.68
1634	-3.	6.	0.	124.15
1635	-6.4006e-011	6.5	0.	125.02
1636	5.	7.5	0.	125.09
1637	2.	6.5	0.	125.3
1638	1.	-6.	0.	124.96
1639	1.	-7.	0.	124.89
1640	6.	2.6278e-012	0.	125.03
1641	1.	3.5	0.	126.
1642	-8.5	9.	0.	125.
1643	1.5	8.5	0.	124.99
1644	6.	-3.	0.	125.15
1645	3.	-9.	0.	125.
1646	-7.	9.	0.	124.95
1647	2.	7.	0.	125.21
1648	-5.5223e-011	7.5	0.	124.92
1649	1.1198e-010	-1.	0.	126.61
1650	3.5	-3.	0.	125.37
1651	-8.5	-6.5	0.	125.36
1652	-1.5	4.5	0.	123.93
1653	-7.5	3.5	0.	125.49
1654	8.5	3.5	0.	124.9
1655	-6.	-5.	0.	125.13
1656	4.	-4.5	0.	125.27
1657	7.	1.	0.	124.97
1658	-3.5	-4.	0.	124.19
1659	-2.5	-8.5	0.	124.61
1660	5.	2.	0.	125.06
1661	-1.5	8.5	0.	124.7
1662	2.5	6.	0.	125.36
1663	-3.	6.5	0.	124.33
1664	-5.	5.5	0.	125.23
1665	8.5	-3.5	0.	125.04
1666	2.5	8.5	0.	125.04
1667	-7.	-4.	0.	125.43
1668	8.5	4.5	0.	124.92
1669	5.	5.5	0.	125.16
1670	-2.	-4.	0.	123.97
1671	1.	7.	0.	125.14
1672	-0.5	-7.	0.	124.68
1673	3.	7.	0.	125.21
1674	-7.	-6.	0.	125.2
1675	1.	-0.5	0.	125.77
1676	-6.5	2.5	0.	125.63
1677	-6.5	-1.	0.	125.77
1678	4.	-2.	0.	125.28
1679	-3.	1.75	0.	134.77
1680	-2.75	2.	0.	118.06
1681	-3.25	2.	0.	129.41
1682	-3.	2.25	0.	125.73
1683	-3.	0.25	0.	134.72
1684	-2.75	0.	0.	118.01
1685	-3.	-0.25	0.	125.64
1686	-3.25	-2.2624e-011	0.	129.36
1687	-2.25	2.	0.	118.05
1688	-2.	1.75	0.	134.74
1689	-1.75	2.	0.	129.39
1690	-2.	2.25	0.	125.7
1691	-2.25	0.	0.	118.02
1692	-2.	0.25	0.	134.72
1693	-1.75	1.9033e-011	0.	129.35
1694	-2.	-0.25	0.	125.67
1695	9.75	10.	0.	125.
1696	10.	9.75	0.	125.
1697	-9.75	10.	0.	125.
1698	-10.	9.75	0.	125.
1699	10.	-9.75	0.	125.2
1700	9.75	-10.	0.	125.19
1701	-10.	-9.75	0.	125.43
1702	-9.75	-10.	0.	125.41
1703	-3.	1.25	0.	139.56
1704	-3.25	1.5	0.	135.3
1705	-3.	0.75	0.	139.55
1706	-3.25	1.	0.	136.29
1707	-3.25	0.5	0.	135.27
1708	-2.5	2.25	0.	107.6
1709	-2.5	-0.25	0.	107.56
1710	-2.	1.25	0.	139.54
1711	-1.75	1.5	0.	135.28
1712	-2.	0.75	0.	139.53
1713	-1.75	1.	0.	136.27
1714	-1.75	0.5	0.	135.26
1715	9.25	10.	0.	125.
1716	9.5	9.75	0.	125.
1717	8.75	10.	0.	125.
1718	9.	9.75	0.	125.
1719	8.25	10.	0.	125.01
1720	8.5	9.75	0.	125.01
1721	7.75	10.	0.	125.02
1722	8.	9.75	0.	125.01
1723	7.25	10.	0.	125.03
1724	7.5	9.75	0.	125.02
1725	6.75	10.	0.	125.04
1726	7.	9.75	0.	125.03
1727	6.25	10.	0.	125.05
1728	6.5	9.75	0.	125.04
1729	5.75	10.	0.	125.05
1730	6.	9.75	0.	125.04
1731	5.25	10.	0.	125.06
1732	5.5	9.75	0.	125.05
1733	4.75	10.	0.	125.06
1734	5.	9.75	0.	125.05
1735	4.25	10.	0.	125.05
1736	4.5	9.75	0.	125.05
1737	3.75	10.	0.	125.04
1738	4.	9.75	0.	125.04
1739	3.25	10.	0.	125.03
1740	3.5	9.75	0.	125.03
1741	2.75	10.	0.	125.
1742	3.	9.75	0.	125.01
1743	2.25	10.	0.	124.97
1744	2.5	9.75	0.	124.99
1745	1.75	10.	0.	124.93
1746	2.	9.75	0.	124.95
1747	1.25	10.	0.	124.88
1748	1.5	9.75	0.	124.91
1749	0.75	10.	0.	124.83
1750	1.	9.75	0.	124.87
1751	0.25	10.	0.	124.78
1752	0.5	9.75	0.	124.82
1753	-0.25	10.	0.	124.72
1754	-3.6668e-012	9.75	0.	124.77
1755	-0.75	10.	0.	124.67
1756	-0.5	9.75	0.	124.72
1757	-1.25	10.	0.	124.63
1758	-1.	9.75	0.	124.68
1759	-1.75	10.	0.	124.6
1760	-1.5	9.75	0.	124.64
1761	-2.25	10.	0.	124.58
1762	-2.	9.75	0.	124.62
1763	-2.75	10.	0.	124.57
1764	-2.5	9.75	0.	124.61
1765	-3.25	10.	0.	124.59
1766	-3.	9.75	0.	124.61
1767	-3.75	10.	0.	124.61
1768	-3.5	9.75	0.	124.63
1769	-4.25	10.	0.	124.65
1770	-4.	9.75	0.	124.66
1771	-4.75	10.	0.	124.7
1772	-4.5	9.75	0.	124.7
1773	-5.25	10.	0.	124.75
1774	-5.	9.75	0.	124.75
1775	-5.75	10.	0.	124.8
1776	-5.5	9.75	0.	124.79
1777	-6.25	10.	0.	124.85
1778	-6.	9.75	0.	124.84
1779	-6.75	10.	0.	124.89
1780	-6.5	9.75	0.	124.88
1781	-7.25	10.	0.	124.93
1782	-7.	9.75	0.	124.92
1783	-7.75	10.	0.	124.96
1784	-7.5	9.75	0.	124.95
1785	-8.25	10.	0.	124.98
1786	-8.	9.75	0.	124.97
1787	-8.75	10.	0.	125.
1788	-8.5	9.75	0.	124.99
1789	-9.25	10.	0.	125.
1790	-9.	9.75	0.	125.
1791	-9.5	9.75	0.	125.
1792	10.	9.25	0.	125.
1793	9.75	9.5	0.	125.
1794	10.	8.75	0.	124.99
1795	9.75	9.	0.	124.99
1796	10.	8.25	0.	124.98
1797	9.75	8.5	0.	124.99
1798	10.	7.75	0.	124.96
1799	9.75	8.	0.	124.97
1800	10.	7.25	0.	124.94
1801	9.75	7.5	0.	124.96
1802	10.	6.75	0.	124.92
1803	9.75	7.	0.	124.94
1804	10.	6.25	0.	124.9
1805	9.75	6.5	0.	124.92
1806	10.	5.75	0.	124.88
1807	9.75	6.	0.	124.9
1808	10.	5.25	0.	124.85
1809	9.75	5.5	0.	124.88
1810	10.	4.75	0.	124.83
1811	9.75	5.	0.	124.86
1812	10.	4.25	0.	124.81
1813	9.75	4.5	0.	124.84
1814	10.	3.75	0.	124.79
1815	9.75	4.	0.	124.82
1816	10.	3.25	0.	124.77
1817	9.75	3.5	0.	124.8
1818	10.	2.75	0.	124.76
1819	9.75	3.	0.	124.79
1820	10.	2.25	0.	124.75
1821	9.75	2.5	0.	124.78
1822	10.	1.75	0.	124.75
1823	9.75	2.	0.	124.78
1824	10.	1.25	0.	124.75
1825	9.75	1.5	0.	124.78
1826	10.	0.75	0.	124.76
1827	9.75	1.	0.	124.78
1828	10.	0.25	0.	124.78
1829	9.75	0.5	0.	124.8
1830	10.	-0.25	0.	124.8
1831	9.75	2.3127e-013	0.	124.81
1832	10.	-0.75	0.	124.82
1833	9.75	-0.5	0.	124.83
1834	10.	-1.25	0.	124.85
1835	9.75	-1.	0.	124.86
1836	10.	-1.75	0.	124.88
1837	9.75	-1.5	0.	124.88
1838	10.	-2.25	0.	124.91
1839	9.75	-2.	0.	124.91
1840	10.	-2.75	0.	124.95
1841	9.75	-2.5	0.	124.94
1842	10.	-3.25	0.	124.98
1843	9.75	-3.	0.	124.97
1844	10.	-3.75	0.	125.01
1845	9.75	-3.5	0.	125.
1846	10.	-4.25	0.	125.04
1847	9.75	-4.	0.	125.03
1848	10.	-4.75	0.	125.07
1849	9.75	-4.5	0.	125.06
1850	10.	-5.25	0.	125.1
1851	9.75	-5.	0.	125.08
1852	10.	-5.75	0.	125.12
1853	9.75	-5.5	0.	125.1
1854	10.	-6.25	0.	125.14
1855	9.75	-6.	0.	125.12
1856	10.	-6.75	0.	125.15
1857	9.75	-6.5	0.	125.14
1858	10.	-7.25	0.	125.17
1859	9.75	-7.	0.	125.15
1860	10.	-7.75	0.	125.18
1861	9.75	-7.5	0.	125.16
1862	10.	-8.25	0.	125.18
1863	9.75	-8.	0.	125.17
1864	10.	-8.75	0.	125.19
1865	9.75	-8.5	0.	125.18
1866	10.	-9.25	0.	125.19
1867	9.75	-9.	0.	125.18
1868	9.75	-9.5	0.	125.19
1869	-10.	9.25	0.	125.
1870	-9.75	9.5	0.	125.
1871	-10.	8.75	0.	125.01
1872	-9.75	9.	0.	125.01
1873	-10.	8.25	0.	125.03
1874	-9.75	8.5	0.	125.03
1875	-10.	7.75	0.	125.07
1876	-9.75	8.	0.	125.06
1877	-10.	7.25	0.	125.11
1878	-9.75	7.5	0.	125.09
1879	-10.	6.75	0.	125.14
1880	-9.75	7.	0.	125.13
1881	-10.	6.25	0.	125.17
1882	-9.75	6.5	0.	125.16
1883	-10.	5.75	0.	125.18
1884	-9.75	6.	0.	125.18
1885	-10.	5.25	0.	125.17
1886	-9.75	5.5	0.	125.18
1887	-10.	4.75	0.	125.15
1888	-9.75	5.	0.	125.17
1889	-10.	4.25	0.	125.09
1890	-9.75	4.5	0.	125.14
1891	-10.	3.75	0.	125.02
1892	-9.75	4.	0.	125.09
1893	-10.	3.25	0.	124.94
1894	-9.75	3.5	0.	125.02
1895	-10.	2.75	0.	124.86
1896	-9.75	3.	0.	124.95
1897	-10.	2.25	0.	124.78
1898	-9.75	2.5	0.	124.89
1899	-10.	1.75	0.	124.73
1900	-9.75	2.	0.	124.83
1901	-10.	1.25	0.	124.71
1902	-9.75	1.5	0.	124.8
1903	-10.	0.75	0.	124.73
1904	-9.75	1.	0.	124.8
1905	-10.	0.25	0.	124.79
1906	-9.75	0.5	0.	124.84
1907	-10.	-0.25	0.	124.88
1908	-9.75	-6.3277e-013	0.	124.9
1909	-10.	-0.75	0.	124.99
1910	-9.75	-0.5	0.	124.99
1911	-10.	-1.25	0.	125.11
1912	-9.75	-1.	0.	125.1
1913	-10.	-1.75	0.	125.24
1914	-9.75	-1.5	0.	125.2
1915	-10.	-2.25	0.	125.35
1916	-9.75	-2.	0.	125.3
1917	-10.	-2.75	0.	125.44
1918	-9.75	-2.5	0.	125.39
1919	-10.	-3.25	0.	125.51
1920	-9.75	-3.	0.	125.46
1921	-10.	-3.75	0.	125.56
1922	-9.75	-3.5	0.	125.51
1923	-10.	-4.25	0.	125.58
1924	-9.75	-4.	0.	125.54
1925	-10.	-4.75	0.	125.59
1926	-9.75	-4.5	0.	125.55
1927	-10.	-5.25	0.	125.59
1928	-9.75	-5.	0.	125.55
1929	-10.	-5.75	0.	125.57
1930	-9.75	-5.5	0.	125.54
1931	-10.	-6.25	0.	125.55
1932	-9.75	-6.	0.	125.53
1933	-10.	-6.75	0.	125.53
1934	-9.75	-6.5	0.	125.51
1935	-10.	-7.25	0.	125.5
1936	-9.75	-7.	0.	125.49
1937	-10.	-7.75	0.	125.48
1938	-9.75	-7.5	0.	125.47
1939	-10.	-8.25	0.	125.46
1940	-9.75	-8.	0.	125.45
1941	-10.	-8.75	0.	125.45
1942	-9.75	-8.5	0.	125.43
1943	-10.	-9.25	0.	125.44
1944	-9.75	-9.	0.	125.42
1945	-9.75	-9.5	0.	125.41
1946	-9.25	-10.	0.	125.37
1947	-9.5	-9.75	0.	125.39
1948	-8.75	-10.	0.	125.31
1949	-9.	-9.75	0.	125.34
1950	-8.25	-10.	0.	125.25
1951	-8.5	-9.75	0.	125.29
1952	-7.75	-10.	0.	125.19
1953	-8.	-9.75	0.	125.22
1954	-7.25	-10.	0.	125.12
1955	-7.5	-9.75	0.	125.16
1956	-6.75	-10.	0.	125.05
1957	-7.	-9.75	0.	125.09
1958	-6.25	-10.	0.	124.98
1959	-6.5	-9.75	0.	125.02
1960	-5.75	-10.	0.	124.91
1961	-6.	-9.75	0.	124.95
1962	-5.25	-10.	0.	124.85
1963	-5.5	-9.75	0.	124.88
1964	-4.75	-10.	0.	124.79
1965	-5.	-9.75	0.	124.82
1966	-4.25	-10.	0.	124.74
1967	-4.5	-9.75	0.	124.76
1968	-3.75	-10.	0.	124.69
1969	-4.	-9.75	0.	124.71
1970	-3.25	-10.	0.	124.66
1971	-3.5	-9.75	0.	124.67
1972	-2.75	-10.	0.	124.64
1973	-3.	-9.75	0.	124.65
1974	-2.25	-10.	0.	124.63
1975	-2.5	-9.75	0.	124.63
1976	-1.75	-10.	0.	124.64
1977	-2.	-9.75	0.	124.63
1978	-1.25	-10.	0.	124.66
1979	-1.5	-9.75	0.	124.64
1980	-0.75	-10.	0.	124.68
1981	-1.	-9.75	0.	124.67
1982	-0.25	-10.	0.	124.72
1983	-0.5	-9.75	0.	124.7
1984	0.25	-10.	0.	124.76
1985	-1.3952e-012	-9.75	0.	124.74
1986	0.75	-10.	0.	124.8
1987	0.5	-9.75	0.	124.78
1988	1.25	-10.	0.	124.85
1989	1.	-9.75	0.	124.83
1990	1.75	-10.	0.	124.89
1991	1.5	-9.75	0.	124.87
1992	2.25	-10.	0.	124.93
1993	2.	-9.75	0.	124.92
1994	2.75	-10.	0.	124.97
1995	2.5	-9.75	0.	124.96
1996	3.25	-10.	0.	125.01
1997	3.	-9.75	0.	124.99
1998	3.75	-10.	0.	125.03
1999	3.5	-9.75	0.	125.02
2000	4.25	-10.	0.	125.06
2001	4.	-9.75	0.	125.05
2002	4.75	-10.	0.	125.08
2003	4.5	-9.75	0.	125.07
2004	5.25	-10.	0.	125.09
2005	5.	-9.75	0.	125.09
2006	5.75	-10.	0.	125.1
2007	5.5	-9.75	0.	125.1
2008	6.25	-10.	0.	125.11
2009	6.	-9.75	0.	125.11
2010	6.75	-10.	0.	125.12
2011	6.5	-9.75	0.	125.12
2012	7.25	-10.	0.	125.13
2013	7.	-9.75	0.	125.12
2014	7.75	-10.	0.	125.13
2015	7.5	-9.75	0.	125.13
2016	8.25	-10.	0.	125.14
2017	8.	-9.75	0.	125.14
2018	8.75	-10.	0.	125.15
2019	8.5	-9.75	0.	125.15
2020	9.25	-10.	0.	125.17
2021	9.	-9.75	0.	125.16
2022	9.5	-9.75	0.	125.18
2023	3.	-2.75	0.	125.43
2024	3.	-2.25	0.	125.43
2025	2.75	-2.5	0.	125.47
2026	3.25	-2.5	0.	125.4
2027	2.75	-3.	0.	125.45
2028	2.5	-2.75	0.	125.5
2029	2.25	-3.	0.	125.51
2030	2.5	-3.25	0.	125.45
2031	3.	-3.25	0.	125.41
2032	3.25	-3.	0.	125.39
2033	2.	-3.25	0.	125.49
2034	2.25	-3.5	0.	125.44
2035	1.75	-3.5	0.	125.45
2036	2.	-3.75	0.	125.41
2037	3.5	1.25	0.	125.09
2038	3.5	0.75	0.	125.09
2039	3.25	1.	0.	125.09
2040	3.75	1.	0.	125.08
2041	3.	-1.75	0.	125.4
2042	2.75	-2.	0.	125.47
2043	3.25	-2.	0.	125.38
2044	3.5	3.25	0.	125.27
2045	3.25	3.5	0.	125.34
2046	3.75	3.5	0.	125.27
2047	3.5	3.75	0.	125.32
2048	2.5	-2.25	0.	125.51
2049	2.25	-2.5	0.	125.55
2050	2.	-2.75	0.	125.56
2051	1.75	-3.	0.	125.55
2052	3.5	-1.25	0.	125.28
2053	3.25	-1.5	0.	125.35
2054	3.75	-1.5	0.	125.28
2055	3.5	-1.75	0.	125.33
2056	3.75	-2.5	0.	125.34
2057	3.5	-2.25	0.	125.36
2058	3.5	-2.75	0.	125.37
2059	3.25	-3.5	0.	125.37
2060	3.5	-3.75	0.	125.33
2061	3.75	-3.5	0.	125.33
2062	3.5	-3.25	0.	125.36
2063	2.75	-3.5	0.	125.41
2064	3.	-3.75	0.	125.37
2065	2.5	-3.75	0.	125.4
2066	1.5	-3.25	0.	125.51
2067	1.25	-3.5	0.	125.43
2068	1.5	-3.75	0.	125.4
2069	3.75	1.5	0.	125.09
2070	3.25	1.5	0.	125.11
2071	3.5	1.75	0.	125.12
2072	3.5	2.75	0.	125.22
2073	3.75	3.	0.	125.22
2074	3.25	3.	0.	125.29
2075	3.5	-0.75	0.	125.23
2076	3.75	-1.	0.	125.23
2077	3.25	-1.	0.	125.29
2078	3.5	0.25	0.	125.12
2079	3.75	0.5	0.	125.09
2080	3.25	0.5	0.	125.11
2081	3.	3.75	0.	125.4
2082	3.	3.25	0.	125.36
2083	2.75	3.5	0.	125.44
2084	3.	-1.25	0.	125.35
2085	2.75	-1.5	0.	125.43
2086	3.	1.25	0.	125.11
2087	3.	0.75	0.	125.11
2088	2.75	1.	0.	125.11
2089	4.	3.25	0.	125.21
2090	4.	3.75	0.	125.25
2091	4.25	3.5	0.	125.2
2092	3.25	-4.	0.	125.33
2093	3.75	-4.	0.	125.31
2094	3.5	-4.25	0.	125.3
2095	2.5	-1.75	0.	125.5
2096	2.25	-2.	0.	125.57
2097	2.75	4.	0.	125.47
2098	2.5	3.75	0.	125.51
2099	2.25	4.	0.	125.59
2100	2.5	4.25	0.	125.52
2101	2.	-2.25	0.	125.61
2102	1.75	-2.5	0.	125.64
2103	1.25	-3.	0.	125.57
2104	1.5	-2.75	0.	125.62
2105	0.75	-3.5	0.	125.36
2106	1.	-3.25	0.	125.49
2107	1.	-3.75	0.	125.35
2108	3.75	2.5	0.	125.17
2109	3.25	2.5	0.	125.22
2110	3.5	2.25	0.	125.16
2111	3.5	-0.25	0.	125.17
2112	3.75	-0.5	0.	125.18
2113	3.25	-0.5	0.	125.22
2114	3.25	7.5332e-012	0.	125.16
2115	3.75	5.7333e-012	0.	125.13
2116	3.25	4.	0.	125.38
2117	3.	4.25	0.	125.43
2118	3.75	4.	0.	125.3
2119	3.5	4.25	0.	125.34
2120	4.	2.75	0.	125.17
2121	4.25	3.	0.	125.17
2122	4.25	2.5	0.	125.13
2123	4.	2.25	0.	125.13
2124	4.	1.25	0.	125.07
2125	4.25	1.5	0.	125.07
2126	4.	1.75	0.	125.09
2127	4.	0.75	0.	125.07
2128	4.25	1.	0.	125.06
2129	4.25	0.5	0.	125.07
2130	4.	0.25	0.	125.1
2131	4.	-0.75	0.	125.18
2132	4.25	-0.5	0.	125.14
2133	4.	-0.25	0.	125.13
2134	4.	-1.25	0.	125.23
2135	4.25	-1.	0.	125.18
2136	4.25	-1.5	0.	125.22
2137	4.	-1.75	0.	125.27
2138	4.	-2.75	0.	125.31
2139	4.25	-2.5	0.	125.28
2140	4.	-2.25	0.	125.29
2141	4.	-3.25	0.	125.31
2142	4.25	-3.	0.	125.29
2143	3.75	-3.	0.	125.34
2144	4.	-3.75	0.	125.3
2145	4.25	-3.5	0.	125.29
2146	2.75	-4.	0.	125.36
2147	3.	-4.25	0.	125.32
2148	2.25	-4.	0.	125.37
2149	2.5	-4.25	0.	125.33
2150	1.75	-4.	0.	125.35
2151	2.	-4.25	0.	125.33
2152	1.5	-4.25	0.	125.29
2153	1.25	-4.	0.	125.31
2154	0.25	-4.	0.	125.07
2155	0.5	-3.75	0.	125.24
2156	0.5	-4.25	0.	125.11
2157	0.75	-4.	0.	125.22
2158	3.	1.75	0.	125.15
2159	2.75	1.5	0.	125.14
2160	3.	2.75	0.	125.29
2161	2.75	3.	0.	125.37
2162	2.75	-1.	0.	125.37
2163	3.	-0.75	0.	125.29
2164	3.	0.25	0.	125.15
2165	2.75	0.5	0.	125.13
2166	4.25	4.	0.	125.23
2167	4.	4.25	0.	125.27
2168	4.25	-4.	0.	125.27
2169	4.	-4.25	0.	125.28
2170	2.5	3.25	0.	125.46
2171	2.25	3.5	0.	125.56
2172	2.5	-1.25	0.	125.45
2173	2.25	-1.5	0.	125.54
2174	2.5	1.25	0.	125.14
2175	2.5	0.75	0.	125.13
2176	2.25	1.	0.	125.13
2177	2.	3.75	0.	125.64
2178	1.75	4.	0.	125.72
2179	2.	4.25	0.	125.64
2180	2.	-1.75	0.	125.62
2181	1.75	-2.	0.	125.69
2182	-0.25	-4.	0.	124.86
2183	1.2798e-010	-3.75	0.	125.05
2184	6.7326e-011	-4.25	0.	124.94
2185	0.5	-3.25	0.	125.41
2186	0.25	-3.5	0.	125.22
2187	1.5	4.25	0.	125.76
2188	1.25	4.5	0.	125.76
2189	1.5	4.75	0.	125.67
2190	1.75	4.5	0.	125.67
2191	1.	-2.75	0.	125.65
2192	0.75	-3.	0.	125.54
2193	3.	2.25	0.	125.21
2194	2.75	2.	0.	125.2
2195	3.25	2.	0.	125.16
2196	2.75	2.5	0.	125.29
2197	2.75	9.2384e-012	0.	125.2
2198	3.	-0.25	0.	125.21
2199	2.75	4.5	0.	125.48
2200	2.5	4.75	0.	125.5
2201	2.25	4.5	0.	125.57
2202	3.25	4.5	0.	125.39
2203	3.	4.75	0.	125.42
2204	3.5	4.75	0.	125.34
2205	3.75	4.5	0.	125.31
2206	4.75	4.5	0.	125.19
2207	4.5	4.75	0.	125.22
2208	4.5	4.25	0.	125.21
2209	4.25	4.5	0.	125.24
2210	4.5	3.25	0.	125.16
2211	4.75	3.5	0.	125.15
2212	4.5	3.75	0.	125.19
2213	4.5	2.75	0.	125.13
2214	4.75	3.	0.	125.12
2215	4.75	2.5	0.	125.09
2216	4.5	2.25	0.	125.09
2217	4.5	1.25	0.	125.06
2218	4.75	1.5	0.	125.05
2219	4.5	1.75	0.	125.07
2220	4.5	0.75	0.	125.06
2221	4.75	1.	0.	125.05
2222	4.75	0.5	0.	125.06
2223	4.5	0.25	0.	125.08
2224	4.5	-0.75	0.	125.14
2225	4.75	-0.5	0.	125.11
2226	4.5	-0.25	0.	125.11
2227	4.5	-1.25	0.	125.18
2228	4.75	-1.	0.	125.15
2229	4.75	-1.5	0.	125.18
2230	4.5	-1.75	0.	125.22
2231	4.5	-2.75	0.	125.26
2232	4.75	-2.5	0.	125.23
2233	4.5	-2.25	0.	125.24
2234	4.5	-3.25	0.	125.27
2235	4.75	-3.	0.	125.24
2236	4.75	-3.5	0.	125.25
2237	4.5	-3.75	0.	125.26
2238	4.5	-4.75	0.	125.23
2239	4.75	-4.5	0.	125.23
2240	4.5	-4.25	0.	125.25
2241	4.25	-4.5	0.	125.25
2242	3.25	-4.5	0.	125.29
2243	3.5	-4.75	0.	125.27
2244	3.75	-4.5	0.	125.28
2245	2.75	-4.5	0.	125.3
2246	3.	-4.75	0.	125.27
2247	2.25	-4.5	0.	125.29
2248	2.5	-4.75	0.	125.27
2249	1.75	-4.5	0.	125.26
2250	2.	-4.75	0.	125.25
2251	1.5	-4.75	0.	125.2
2252	1.25	-4.5	0.	125.21
2253	0.5	-4.75	0.	125.01
2254	0.75	-4.5	0.	125.11
2255	0.25	-4.5	0.	124.97
2256	-0.75	-4.5	0.	124.59
2257	-0.5	-4.25	0.	124.72
2258	-0.5	-4.75	0.	124.68
2259	-0.25	-4.5	0.	124.79
2260	2.5	1.75	0.	125.19
2261	2.25	1.5	0.	125.17
2262	2.5	2.75	0.	125.38
2263	2.25	3.	0.	125.49
2264	2.25	-1.	0.	125.47
2265	2.5	-0.75	0.	125.37
2266	2.5	0.25	0.	125.18
2267	2.25	0.5	0.	125.17
2268	-1.25	-4.5	0.	124.38
2269	-1.	-4.75	0.	124.49
2270	-1.	-4.25	0.	124.47
2271	-4.25	-4.5	0.	124.61
2272	-4.	-4.75	0.	124.51
2273	-4.	-4.25	0.	124.49
2274	-3.75	-4.5	0.	124.39
2275	-2.75	-4.5	0.	124.12
2276	-2.5	-4.75	0.	124.16
2277	-2.5	-4.25	0.	123.99
2278	-2.25	-4.5	0.	124.11
2279	-4.5	-4.25	0.	124.74
2280	-4.75	-4.5	0.	124.82
2281	-4.5	-4.75	0.	124.71
2282	2.	3.25	0.	125.59
2283	1.75	3.5	0.	125.71
2284	2.	-1.25	0.	125.57
2285	1.75	-1.5	0.	125.68
2286	2.	1.25	0.	125.17
2287	2.	0.75	0.	125.16
2288	1.75	1.	0.	125.16
2289	-0.75	-4.	0.	124.6
2290	-0.5	-3.75	0.	124.79
2291	-4.75	-4.	0.	124.89
2292	-4.25	-4.	0.	124.62
2293	-4.5	-3.75	0.	124.81
2294	5.	4.75	0.	125.16
2295	5.25	4.5	0.	125.14
2296	5.	4.25	0.	125.15
2297	4.75	-5.	0.	125.21
2298	4.5	-5.25	0.	125.21
2299	4.25	-5.	0.	125.23
2300	1.5	3.75	0.	125.8
2301	1.25	4.	0.	125.86
2302	1.5	-1.75	0.	125.76
2303	1.25	-2.	0.	125.81
2304	1.5	-2.25	0.	125.71
2305	0.75	5.	0.	125.61
2306	0.25	5.	0.	125.51
2307	0.5	4.75	0.	125.7
2308	0.5	5.25	0.	125.5
2309	1.	4.75	0.	125.72
2310	1.	4.25	0.	125.87
2311	0.75	4.5	0.	125.81
2312	1.	-2.25	0.	125.81
2313	0.75	-2.5	0.	125.73
2314	1.25	-2.5	0.	125.71
2315	0.25	-3.	0.	125.41
2316	0.5	-2.75	0.	125.62
2317	2.5	2.25	0.	125.28
2318	2.25	2.	0.	125.26
2319	2.25	2.5	0.	125.38
2320	2.25	2.077e-011	0.	125.25
2321	2.5	-0.25	0.	125.27
2322	-1.5	-4.75	0.	124.32
2323	-1.5	-4.25	0.	124.23
2324	-1.75	-4.5	0.	124.21
2325	-3.	-4.25	0.	124.06
2326	-3.25	-4.5	0.	124.22
2327	-3.	-4.75	0.	124.21
2328	-5.	-4.25	0.	124.97
2329	-5.	-4.75	0.	124.9
2330	-5.25	-4.5	0.	125.01
2331	-5.	-3.75	0.	125.08
2332	-5.25	-4.	0.	125.11
2333	1.25	5.	0.	125.63
2334	1.	5.25	0.	125.56
2335	1.5	5.25	0.	125.56
2336	1.75	5.	0.	125.59
2337	2.75	5.	0.	125.45
2338	2.5	5.25	0.	125.46
2339	2.25	5.	0.	125.52
2340	3.25	5.	0.	125.38
2341	3.	5.25	0.	125.39
2342	3.5	5.25	0.	125.33
2343	3.75	5.	0.	125.31
2344	4.75	5.	0.	125.19
2345	4.5	5.25	0.	125.21
2346	4.25	5.	0.	125.25
2347	5.25	3.5	0.	125.11
2348	5.	3.75	0.	125.14
2349	5.	3.25	0.	125.12
2350	5.25	2.5	0.	125.06
2351	5.	2.75	0.	125.09
2352	5.	2.25	0.	125.07
2353	5.	1.25	0.	125.04
2354	5.25	1.5	0.	125.03
2355	5.	1.75	0.	125.05
2356	5.25	1.	0.	125.03
2357	5.	0.75	0.	125.04
2358	5.	-0.75	0.	125.11
2359	5.25	-0.5	0.	125.08
2360	5.	-0.25	0.	125.08
2361	5.	-1.25	0.	125.14
2362	5.25	-1.	0.	125.11
2363	5.	-1.75	0.	125.17
2364	5.25	-1.5	0.	125.14
2365	5.	-2.25	0.	125.2
2366	5.25	-2.	0.	125.17
2367	4.75	-2.	0.	125.21
2368	5.	-2.75	0.	125.22
2369	5.25	-2.5	0.	125.19
2370	5.	-3.25	0.	125.23
2371	5.25	-3.	0.	125.21
2372	5.	-3.75	0.	125.23
2373	5.25	-3.5	0.	125.21
2374	5.	-4.25	0.	125.22
2375	5.25	-4.	0.	125.21
2376	4.75	-4.	0.	125.24
2377	5.	-4.75	0.	125.21
2378	5.25	-4.5	0.	125.21
2379	3.25	-5.	0.	125.25
2380	3.5	-5.25	0.	125.23
2381	3.75	-5.	0.	125.24
2382	2.75	-5.	0.	125.24
2383	3.	-5.25	0.	125.22
2384	2.25	-5.	0.	125.22
2385	2.5	-5.25	0.	125.21
2386	1.75	-5.	0.	125.18
2387	2.	-5.25	0.	125.18
2388	1.5	-5.25	0.	125.12
2389	1.25	-5.	0.	125.12
2390	0.5	-5.25	0.	124.94
2391	0.25	-5.	0.	124.9
2392	0.75	-5.	0.	125.03
2393	-0.75	-5.	0.	124.59
2394	-0.5	-5.25	0.	124.67
2395	-0.25	-5.	0.	124.75
2396	-1.25	-5.	0.	124.44
2397	-1.	-5.25	0.	124.53
2398	-1.5	-5.25	0.	124.4
2399	-1.75	-5.	0.	124.31
2400	-2.5	-5.25	0.	124.28
2401	-2.75	-5.	0.	124.25
2402	-2.25	-5.	0.	124.25
2403	-3.75	-5.	0.	124.45
2404	-3.5	-5.25	0.	124.41
2405	-3.5	-4.75	0.	124.33
2406	-3.25	-5.	0.	124.32
2407	-4.25	-5.	0.	124.61
2408	-4.	-5.25	0.	124.55
2409	-4.75	-5.	0.	124.78
2410	-4.5	-5.25	0.	124.7
2411	-5.	-3.25	0.	125.25
2412	-5.25	-3.5	0.	125.25
2413	-4.75	-3.5	0.	125.
2414	2.	1.75	0.	125.24
2415	1.75	1.5	0.	125.22
2416	2.	2.75	0.	125.49
2417	1.75	3.	0.	125.64
2418	1.75	-1.	0.	125.62
2419	2.	-0.75	0.	125.47
2420	2.	0.25	0.	125.23
2421	1.75	0.5	0.	125.21
2422	-1.25	-4.	0.	124.32
2423	-1.	-3.75	0.	124.46
2424	-4.	-3.75	0.	124.47
2425	-3.75	-4.	0.	124.33
2426	-2.75	-4.	0.	123.93
2427	-2.5	-3.75	0.	123.76
2428	-2.25	-4.	0.	123.93
2429	-5.25	-5.	0.	124.94
2430	-5.	-5.25	0.	124.85
2431	5.25	5.	0.	125.14
2432	5.	5.25	0.	125.16
2433	5.	-5.25	0.	125.2
2434	5.25	-5.	0.	125.2
2435	1.5	3.25	0.	125.76
2436	1.25	3.5	0.	125.9
2437	1.5	-1.25	0.	125.73
2438	1.25	-1.5	0.	125.86
2439	1.5	1.25	0.	125.21
2440	1.5	0.75	0.	125.21
2441	1.25	1.	0.	125.21
2442	-0.75	-3.5	0.	124.64
2443	-0.5	-3.25	0.	124.91
2444	-0.25	-3.5	0.	124.98
2445	-0.25	5.	0.	125.27
2446	9.8862e-011	4.75	0.	125.57
2447	4.0824e-011	5.25	0.	125.33
2448	0.75	4.	0.	125.99
2449	1.	3.75	0.	125.97
2450	1.	-1.75	0.	125.92
2451	0.75	-2.	0.	125.93
2452	-0.25	-3.	0.	125.16
2453	1.9216e-010	-2.75	0.	125.47
2454	1.7465e-010	-3.25	0.	125.22
2455	-4.75	-3.	0.	125.19
2456	-5.	-2.75	0.	125.5
2457	-5.25	-3.	0.	125.45
2458	-5.25	5.	0.	125.51
2459	-4.75	5.	0.	125.28
2460	-5.	4.75	0.	125.57
2461	-5.	5.25	0.	125.33
2462	0.25	4.5	0.	125.76
2463	0.5	4.25	0.	125.93
2464	0.5	-2.25	0.	125.85
2465	0.25	-2.5	0.	125.67
2466	-5.5	4.75	0.	125.7
2467	-5.5	4.25	0.	125.94
2468	-5.25	4.5	0.	125.77
2469	-5.75	4.5	0.	125.81
2470	2.	2.25	0.	125.36
2471	1.75	2.	0.	125.35
2472	1.75	2.5	0.	125.51
2473	1.75	3.9836e-011	0.	125.33
2474	2.	-0.25	0.	125.35
2475	-1.5	-3.75	0.	124.12
2476	-1.75	-4.	0.	124.07
2477	-3.	-3.75	0.	123.86
2478	-3.25	-4.	0.	124.08
2479	-5.75	-4.5	0.	125.15
2480	-5.5	-4.75	0.	125.05
2481	-5.5	-4.25	0.	125.14
2482	-5.75	-3.5	0.	125.4
2483	-5.5	-3.25	0.	125.44
2484	-5.5	-3.75	0.	125.27
2485	-5.25	-2.5	0.	125.71
2486	-5.5	-2.25	0.	125.9
2487	-5.75	-2.5	0.	125.78
2488	-5.5	-2.75	0.	125.66
2489	-5.5	5.25	0.	125.49
2490	-5.75	5.	0.	125.61
2491	-5.5	5.75	0.	125.32
2492	-5.75	5.5	0.	125.43
2493	-5.25	5.5	0.	125.31
2494	-4.25	5.5	0.	124.78
2495	-4.5	5.25	0.	125.04
2496	-4.5	5.75	0.	124.92
2497	-4.75	5.5	0.	125.1
2498	-0.75	5.5	0.	124.78
2499	-0.5	5.25	0.	125.04
2500	-0.5	5.75	0.	124.92
2501	-0.25	5.5	0.	125.1
2502	0.75	5.5	0.	125.44
2503	0.5	5.75	0.	125.33
2504	0.25	5.5	0.	125.32
2505	1.25	5.5	0.	125.49
2506	1.	5.75	0.	125.42
2507	1.75	5.5	0.	125.49
2508	1.5	5.75	0.	125.44
2509	2.25	5.5	0.	125.45
2510	2.	5.75	0.	125.43
2511	2.	5.25	0.	125.52
2512	2.75	5.5	0.	125.4
2513	2.5	5.75	0.	125.4
2514	3.5	5.75	0.	125.3
2515	3.25	5.5	0.	125.34
2516	3.75	5.5	0.	125.29
2517	4.5	5.75	0.	125.2
2518	4.25	5.5	0.	125.23
2519	4.75	5.5	0.	125.19
2520	5.5	5.25	0.	125.12
2521	5.75	5.5	0.	125.1
2522	5.5	5.75	0.	125.12
2523	5.25	5.5	0.	125.14
2524	5.5	4.75	0.	125.12
2525	5.75	5.	0.	125.1
2526	5.75	4.5	0.	125.1
2527	5.5	4.25	0.	125.11
2528	5.5	3.25	0.	125.08
2529	5.75	3.5	0.	125.07
2530	5.5	3.75	0.	125.1
2531	5.75	3.	0.	125.05
2532	5.5	2.75	0.	125.06
2533	5.25	3.	0.	125.09
2534	5.5	1.25	0.	125.03
2535	5.75	1.5	0.	125.02
2536	5.5	1.75	0.	125.03
2537	5.5	0.75	0.	125.03
2538	5.75	1.	0.	125.02
2539	5.75	0.5	0.	125.02
2540	5.5	0.25	0.	125.04
2541	5.25	0.5	0.	125.04
2542	5.75	-0.5	0.	125.06
2543	5.5	-0.25	0.	125.06
2544	5.5	-0.75	0.	125.09
2545	5.5	-1.75	0.	125.14
2546	5.75	-1.5	0.	125.11
2547	5.5	-1.25	0.	125.11
2548	5.5	-2.25	0.	125.16
2549	5.75	-2.	0.	125.14
2550	5.5	-2.75	0.	125.18
2551	5.75	-2.5	0.	125.16
2552	5.5	-3.25	0.	125.19
2553	5.75	-3.	0.	125.17
2554	5.75	-3.5	0.	125.18
2555	5.5	-3.75	0.	125.2
2556	5.75	-4.5	0.	125.18
2557	5.5	-4.75	0.	125.19
2558	5.5	-4.25	0.	125.2
2559	4.75	-5.5	0.	125.19
2560	5.	-5.75	0.	125.18
2561	5.25	-5.5	0.	125.18
2562	4.25	-5.5	0.	125.2
2563	4.5	-5.75	0.	125.19
2564	3.75	-5.5	0.	125.21
2565	4.	-5.75	0.	125.19
2566	4.	-5.25	0.	125.22
2567	3.5	-5.75	0.	125.19
2568	3.25	-5.5	0.	125.2
2569	2.25	-5.5	0.	125.16
2570	2.5	-5.75	0.	125.15
2571	2.75	-5.5	0.	125.19
2572	1.75	-5.5	0.	125.12
2573	2.	-5.75	0.	125.12
2574	1.5	-5.75	0.	125.06
2575	1.25	-5.5	0.	125.05
2576	0.25	-5.5	0.	124.85
2577	0.5	-5.75	0.	124.89
2578	0.75	-5.5	0.	124.96
2579	-0.25	-5.5	0.	124.73
2580	-4.3898e-011	-5.25	0.	124.81
2581	-6.442e-011	-5.75	0.	124.78
2582	-0.75	-5.5	0.	124.6
2583	-0.5	-5.75	0.	124.67
2584	-1.25	-5.5	0.	124.49
2585	-1.	-5.75	0.	124.56
2586	-1.75	-5.5	0.	124.4
2587	-1.5	-5.75	0.	124.46
2588	-2.25	-5.5	0.	124.35
2589	-2.	-5.75	0.	124.4
2590	-2.	-5.25	0.	124.31
2591	-2.75	-5.5	0.	124.35
2592	-2.5	-5.75	0.	124.38
2593	-3.25	-5.5	0.	124.41
2594	-3.	-5.25	0.	124.32
2595	-3.	-5.75	0.	124.4
2596	-3.75	-5.5	0.	124.5
2597	-3.5	-5.75	0.	124.47
2598	-4.25	-5.5	0.	124.63
2599	-4.	-5.75	0.	124.58
2600	-4.5	-5.75	0.	124.7
2601	-4.75	-5.5	0.	124.77
2602	-5.5	-5.75	0.	124.95
2603	-5.75	-5.5	0.	125.02
2604	-5.5	-5.25	0.	124.99
2605	-5.25	-5.5	0.	124.9
2606	-1.	5.75	0.	124.61
2607	-1.	5.25	0.	124.62
2608	-1.25	5.5	0.	124.41
2609	1.5	1.75	0.	125.32
2610	1.25	1.5	0.	125.29
2611	1.5	2.75	0.	125.65
2612	1.25	3.	0.	125.85
2613	1.25	-1.	0.	125.81
2614	1.5	-0.75	0.	125.63
2615	1.5	0.25	0.	125.31
2616	1.25	0.5	0.	125.28
2617	-1.25	-3.5	0.	124.25
2618	-1.	-3.25	0.	124.48
2619	-4.	-3.25	0.	124.49
2620	-3.75	-3.5	0.	124.27
2621	-4.25	-3.5	0.	124.66
2622	-2.25	-3.5	0.	123.68
2623	-2.75	-3.5	0.	123.68
2624	-2.5	-3.25	0.	123.42
2625	-2.25	5.5	0.	123.85
2626	-2.5	5.75	0.	123.93
2627	-2.5	5.25	0.	123.59
2628	-2.75	5.5	0.	123.85
2629	-3.75	5.5	0.	124.41
2630	-4.	5.25	0.	124.62
2631	-4.	5.75	0.	124.61
2632	5.75	-6.	0.	125.16
2633	5.5	-6.25	0.	125.16
2634	5.25	-6.	0.	125.17
2635	5.5	-5.75	0.	125.17
2636	6.	5.25	0.	125.08
2637	6.	5.75	0.	125.08
2638	6.25	5.5	0.	125.07
2639	-5.75	6.	0.	125.29
2640	-5.5	6.25	0.	125.19
2641	-5.25	6.	0.	125.17
2642	-0.75	5.	0.	124.88
2643	-0.5	4.75	0.	125.25
2644	1.	-1.25	0.	125.94
2645	0.75	-1.5	0.	126.06
2646	1.	1.25	0.	125.29
2647	1.	0.75	0.	125.29
2648	0.75	1.	0.	125.31
2649	-0.75	-3.	0.	124.75
2650	-0.5	-2.75	0.	125.14
2651	-4.25	-3.	0.	124.77
2652	-4.5	-2.75	0.	125.16
2653	-4.5	-3.25	0.	124.94
2654	-6.	0.75	0.	125.36
2655	-6.	1.25	0.	125.36
2656	-5.75	1.	0.	125.38
2657	-6.25	1.	0.	125.29
2658	-4.25	5.	0.	124.88
2659	-4.5	4.75	0.	125.26
2660	-0.25	4.5	0.	125.55
2661	1.3492e-010	4.25	0.	125.88
2662	0.5	3.75	0.	126.14
2663	0.25	4.	0.	126.05
2664	0.5	-1.75	0.	126.07
2665	0.25	-2.	0.	125.98
2666	-0.25	-2.5	0.	125.44
2667	1.8166e-010	-2.25	0.	125.79
2668	-4.75	-2.5	0.	125.47
2669	-5.	-2.25	0.	125.83
2670	-5.5	-1.75	0.	126.12
2671	-5.25	-2.	0.	126.02
2672	-5.75	-2.	0.	125.98
2673	-5.5	3.75	0.	126.16
2674	-5.25	4.	0.	126.07
2675	-5.75	4.	0.	126.
2676	-4.75	4.5	0.	125.56
2677	-5.	4.25	0.	125.9
2678	-1.75	5.5	0.	124.06
2679	-2.	5.75	0.	124.03
2680	-2.	5.25	0.	123.74
2681	1.5	2.25	0.	125.49
2682	1.25	2.	0.	125.48
2683	1.25	2.5	0.	125.69
2684	1.25	5.6655e-011	0.	125.46
2685	1.5	-0.25	0.	125.47
2686	-1.75	-3.5	0.	123.9
2687	-2.	-3.25	0.	123.58
2688	-2.	-3.75	0.	123.85
2689	-1.5	-3.25	0.	123.99
2690	-3.	-3.25	0.	123.59
2691	-3.25	-3.5	0.	123.91
2692	-3.5	5.75	0.	124.28
2693	-3.5	5.25	0.	124.14
2694	-3.25	5.5	0.	124.06
2695	-6.25	-4.5	0.	125.26
2696	-6.	-4.25	0.	125.27
2697	-6.	-4.75	0.	125.17
2698	-6.	-3.25	0.	125.54
2699	-6.25	-3.5	0.	125.48
2700	-6.	-3.75	0.	125.39
2701	-6.	-2.75	0.	125.7
2702	-6.25	-3.	0.	125.62
2703	-5.75	-3.	0.	125.58
2704	-6.25	-2.5	0.	125.76
2705	-6.	-2.25	0.	125.86
2706	-6.	-1.25	0.	126.
2707	-5.75	-1.5	0.	126.12
2708	-6.25	-1.5	0.	125.92
2709	-6.	-1.75	0.	125.97
2710	-6.	3.25	0.	126.01
2711	-5.75	3.5	0.	126.14
2712	-6.25	3.5	0.	125.92
2713	-6.	3.75	0.	125.99
2714	-6.	4.75	0.	125.71
2715	-6.25	4.5	0.	125.75
2716	-6.	4.25	0.	125.87
2717	-6.	5.25	0.	125.55
2718	-6.25	5.	0.	125.61
2719	-6.	5.75	0.	125.4
2720	-6.25	5.5	0.	125.47
2721	-4.5	6.25	0.	124.86
2722	-4.75	6.	0.	124.99
2723	-4.25	6.	0.	124.75
2724	-3.5	6.25	0.	124.41
2725	-3.75	6.	0.	124.48
2726	-3.25	6.	0.	124.25
2727	-2.5	6.25	0.	124.18
2728	-2.25	6.	0.	124.11
2729	-2.75	6.	0.	124.11
2730	-1.25	6.	0.	124.49
2731	-1.5	6.25	0.	124.41
2732	-1.5	5.75	0.	124.28
2733	-1.75	6.	0.	124.25
2734	-0.75	6.	0.	124.75
2735	-1.	6.25	0.	124.63
2736	-0.25	6.	0.	124.99
2737	-0.5	6.25	0.	124.87
2738	0.25	6.	0.	125.18
2739	-1.8301e-011	5.75	0.	125.17
2740	-5.4201e-011	6.25	0.	125.06
2741	0.75	6.	0.	125.3
2742	0.5	6.25	0.	125.2
2743	1.25	6.	0.	125.37
2744	1.	6.25	0.	125.29
2745	1.5	6.25	0.	125.33
2746	1.75	6.	0.	125.39
2747	3.5	6.25	0.	125.26
2748	3.25	6.	0.	125.3
2749	3.75	6.	0.	125.26
2750	4.5	6.25	0.	125.18
2751	4.75	6.	0.	125.17
2752	4.25	6.	0.	125.21
2753	5.75	6.	0.	125.1
2754	5.25	6.	0.	125.13
2755	5.5	6.25	0.	125.11
2756	6.	4.75	0.	125.08
2757	6.25	5.	0.	125.07
2758	6.	4.25	0.	125.07
2759	6.25	4.5	0.	125.06
2760	6.	3.75	0.	125.06
2761	6.25	4.	0.	125.05
2762	5.75	4.	0.	125.09
2763	6.	3.25	0.	125.05
2764	6.25	3.5	0.	125.04
2765	6.	2.75	0.	125.03
2766	6.25	3.	0.	125.03
2767	6.25	2.5	0.	125.01
2768	6.	2.25	0.	125.02
2769	5.75	2.5	0.	125.04
2770	6.	1.25	0.	125.01
2771	6.25	1.5	0.	125.
2772	6.	1.75	0.	125.01
2773	6.	0.75	0.	125.01
2774	6.25	1.	0.	125.
2775	6.25	0.5	0.	125.01
2776	6.	0.25	0.	125.02
2777	6.	-0.75	0.	125.06
2778	6.25	-0.5	0.	125.04
2779	6.	-0.25	0.	125.04
2780	6.	-1.25	0.	125.08
2781	6.25	-1.	0.	125.06
2782	5.75	-1.	0.	125.09
2783	6.	-1.75	0.	125.11
2784	6.25	-1.5	0.	125.08
2785	6.	-2.25	0.	125.13
2786	6.25	-2.	0.	125.1
2787	6.25	-2.5	0.	125.12
2788	6.	-2.75	0.	125.15
2789	6.25	-3.5	0.	125.15
2790	6.	-3.75	0.	125.17
2791	6.	-3.25	0.	125.16
2792	6.25	-4.5	0.	125.16
2793	6.	-4.75	0.	125.17
2794	6.	-4.25	0.	125.17
2795	6.	-5.75	0.	125.16
2796	6.25	-5.5	0.	125.16
2797	6.	-5.25	0.	125.17
2798	5.75	-5.5	0.	125.17
2799	4.25	-6.	0.	125.18
2800	4.5	-6.25	0.	125.17
2801	4.75	-6.	0.	125.17
2802	3.75	-6.	0.	125.17
2803	4.	-6.25	0.	125.16
2804	3.5	-6.25	0.	125.15
2805	3.25	-6.	0.	125.16
2806	2.25	-6.	0.	125.11
2807	2.5	-6.25	0.	125.11
2808	2.75	-6.	0.	125.14
2809	1.75	-6.	0.	125.06
2810	2.	-6.25	0.	125.06
2811	1.5	-6.25	0.	125.01
2812	1.25	-6.	0.	125.
2813	0.5	-6.25	0.	124.86
2814	0.25	-6.	0.	124.82
2815	0.75	-6.	0.	124.92
2816	-0.75	-6.	0.	124.62
2817	-0.5	-6.25	0.	124.67
2818	-0.25	-6.	0.	124.72
2819	-1.25	-6.	0.	124.53
2820	-1.	-6.25	0.	124.58
2821	-1.75	-6.	0.	124.46
2822	-1.5	-6.25	0.	124.51
2823	-2.25	-6.	0.	124.43
2824	-2.	-6.25	0.	124.46
2825	-2.5	-6.25	0.	124.45
2826	-2.75	-6.	0.	124.43
2827	-3.75	-6.	0.	124.55
2828	-3.5	-6.25	0.	124.53
2829	-3.25	-6.	0.	124.47
2830	-4.25	-6.	0.	124.65
2831	-4.	-6.25	0.	124.61
2832	-4.5	-6.25	0.	124.71
2833	-4.75	-6.	0.	124.76
2834	-5.75	-6.	0.	124.98
2835	-5.5	-6.25	0.	124.92
2836	-5.25	-6.	0.	124.87
2837	6.25	-6.	0.	125.15
2838	6.	-6.25	0.	125.15
2839	6.	6.25	0.	125.08
2840	6.25	6.	0.	125.07
2841	-6.25	6.	0.	125.34
2842	-6.	6.25	0.	125.27
2843	-6.	-6.25	0.	125.02
2844	-6.	-5.75	0.	125.05
2845	-6.25	-6.	0.	125.07
2846	-1.	4.75	0.	124.71
2847	-1.25	5.	0.	124.35
2848	0.75	1.5	0.	125.42
2849	1.	1.75	0.	125.45
2850	1.	2.75	0.	125.88
2851	0.75	3.	0.	126.12
2852	1.	3.25	0.	125.98
2853	0.75	-1.	0.	126.08
2854	1.	-0.75	0.	125.85
2855	1.	0.25	0.	125.43
2856	0.75	0.5	0.	125.4
2857	-1.25	-3.	0.	124.21
2858	-1.	-2.75	0.	124.58
2859	-3.75	-3.	0.	124.22
2860	-4.	-2.75	0.	124.6
2861	-2.75	-3.	0.	123.33
2862	-2.5	-2.75	0.	122.93
2863	-2.25	-3.	0.	123.32
2864	-6.	0.25	0.	125.51
2865	-6.25	0.5	0.	125.36
2866	-5.75	0.5	0.	125.48
2867	-6.	-0.75	0.	125.92
2868	-5.75	-1.	0.	126.14
2869	-6.25	-1.	0.	125.88
2870	-5.75	3.	0.	126.16
2871	-6.25	3.	0.	125.88
2872	-6.	2.75	0.	125.92
2873	-6.	1.75	0.	125.51
2874	-6.25	1.5	0.	125.36
2875	-5.75	1.5	0.	125.48
2876	-2.75	5.	0.	123.48
2877	-2.5	4.75	0.	123.07
2878	-2.25	5.	0.	123.48
2879	-3.75	5.	0.	124.36
2880	-4.	4.75	0.	124.72
2881	-0.75	4.5	0.	125.08
2882	-0.5	4.25	0.	125.61
2883	0.5	3.25	0.	126.25
2884	0.25	3.5	0.	126.33
2885	0.75	3.5	0.	126.12
2886	0.5	-1.25	0.	126.2
2887	0.25	-1.5	0.	126.26
2888	0.5	1.25	0.	125.43
2889	0.5	0.75	0.	125.42
2890	0.25	1.	0.	125.49
2891	-0.75	-2.5	0.	124.97
2892	-0.5	-2.25	0.	125.5
2893	-4.25	-2.5	0.	124.99
2894	-4.5	-2.25	0.	125.53
2895	-5.5	-1.25	0.	126.26
2896	-5.25	-1.5	0.	126.31
2897	-5.5	3.25	0.	126.29
2898	-5.25	3.5	0.	126.36
2899	-5.5	0.75	0.	125.49
2900	-5.5	1.25	0.	125.49
2901	-5.25	1.	0.	125.56
2902	-4.25	4.5	0.	125.09
2903	-4.5	4.25	0.	125.62
2904	6.5	-5.75	0.	125.15
2905	6.5	-6.25	0.	125.14
2906	6.75	-6.	0.	125.14
2907	6.25	6.5	0.	125.06
2908	6.	6.75	0.	125.07
2909	5.75	6.5	0.	125.09
2910	-6.5	5.75	0.	125.42
2911	-6.5	6.25	0.	125.31
2912	-6.75	6.	0.	125.35
2913	-5.75	-6.5	0.	124.95
2914	-6.25	-6.5	0.	125.04
2915	-6.	-6.75	0.	124.99
2916	-0.25	4.	0.	125.94
2917	1.4467e-010	3.75	0.	126.25
2918	-4.75	-2.	0.	125.89
2919	-5.	-1.75	0.	126.21
2920	-5.	3.75	0.	126.27
2921	-4.75	4.	0.	125.96
2922	0.75	2.5	0.	125.96
2923	1.	2.25	0.	125.68
2924	0.75	7.1006e-011	0.	125.66
2925	1.	-0.25	0.	125.65
2926	-1.5	-2.75	0.	123.86
2927	-1.75	-3.	0.	123.67
2928	-3.25	-3.	0.	123.68
2929	-3.5	-2.75	0.	123.87
2930	-3.5	-3.25	0.	124.
2931	-3.	-2.75	0.	123.2
2932	-6.	-0.25	0.	125.72
2933	-5.75	-1.0496e-010	0.	125.73
2934	-6.25	-8.2666e-011	0.	125.54
2935	-6.25	-0.5	0.	125.74
2936	-5.75	-0.5	0.	125.99
2937	-5.75	2.	0.	125.74
2938	-6.	2.25	0.	125.73
2939	-6.25	2.	0.	125.54
2940	-3.25	5.	0.	123.82
2941	-3.	5.25	0.	123.74
2942	-3.	4.75	0.	123.35
2943	-3.5	4.75	0.	124.
2944	-6.5	-5.25	0.	125.19
2945	-6.75	-5.5	0.	125.2
2946	-6.25	-5.5	0.	125.12
2947	-6.5	-5.75	0.	125.14
2948	-6.5	-4.75	0.	125.26
2949	-6.75	-5.	0.	125.26
2950	-6.25	-5.	0.	125.18
2951	-6.75	-4.5	0.	125.33
2952	-6.5	-4.25	0.	125.35
2953	-6.5	-3.25	0.	125.56
2954	-6.75	-3.5	0.	125.51
2955	-6.5	-3.75	0.	125.45
2956	-6.5	-2.75	0.	125.67
2957	-6.75	-3.	0.	125.6
2958	-6.5	-2.25	0.	125.77
2959	-6.75	-2.5	0.	125.69
2960	-6.5	-1.75	0.	125.82
2961	-6.75	-2.	0.	125.75
2962	-6.25	-2.	0.	125.87
2963	-6.75	-1.5	0.	125.75
2964	-6.5	-1.25	0.	125.8
2965	-6.75	-0.5	0.	125.56
2966	-6.5	-0.25	0.	125.55
2967	-6.5	-0.75	0.	125.7
2968	-6.75	0.5	0.	125.29
2969	-6.5	0.75	0.	125.29
2970	-6.5	0.25	0.	125.39
2971	-6.75	1.5	0.	125.28
2972	-6.5	1.25	0.	125.29
2973	-6.5	1.75	0.	125.39
2974	-6.75	3.5	0.	125.73
2975	-6.5	3.25	0.	125.79
2976	-6.5	3.75	0.	125.81
2977	-6.5	5.25	0.	125.54
2978	-6.5	4.75	0.	125.66
2979	-6.75	5.	0.	125.56
2980	-6.75	5.5	0.	125.46
2981	-5.75	6.5	0.	125.17
2982	-6.25	6.5	0.	125.23
2983	-6.	6.75	0.	125.17
2984	-5.5	6.75	0.	125.09
2985	-5.25	6.5	0.	125.07
2986	-4.25	6.5	0.	124.74
2987	-4.5	6.75	0.	124.83
2988	-4.75	6.5	0.	124.92
2989	-3.75	6.5	0.	124.55
2990	-4.	6.75	0.	124.66
2991	-4.	6.25	0.	124.63
2992	-3.5	6.75	0.	124.51
2993	-3.25	6.5	0.	124.4
2994	-2.25	6.5	0.	124.31
2995	-2.5	6.75	0.	124.36
2996	-2.75	6.5	0.	124.31
2997	-1.75	6.5	0.	124.4
2998	-2.	6.75	0.	124.4
2999	-2.	6.25	0.	124.24
3000	-1.25	6.5	0.	124.56
3001	-1.5	6.75	0.	124.51
3002	-0.75	6.5	0.	124.75
3003	-1.	6.75	0.	124.67
3004	-0.5	6.75	0.	124.84
3005	-0.25	6.5	0.	124.93
3006	0.75	6.5	0.	125.19
3007	0.5	6.75	0.	125.11
3008	0.25	6.5	0.	125.08
3009	1.25	6.5	0.	125.26
3010	1.	6.75	0.	125.19
3011	1.5	6.75	0.	125.24
3012	1.75	6.5	0.	125.29
3013	2.5	6.75	0.	125.25
3014	2.75	6.5	0.	125.28
3015	2.25	6.5	0.	125.29
3016	2.5	6.25	0.	125.32
3017	3.75	6.5	0.	125.22
3018	3.5	6.75	0.	125.21
3019	3.25	6.5	0.	125.25
3020	4.25	6.5	0.	125.18
3021	4.	6.25	0.	125.22
3022	4.	6.75	0.	125.18
3023	4.5	6.75	0.	125.15
3024	4.75	6.5	0.	125.15
3025	6.5	5.75	0.	125.05
3026	6.5	6.25	0.	125.05
3027	6.75	6.	0.	125.04
3028	6.5	5.25	0.	125.05
3029	6.75	5.5	0.	125.04
3030	6.5	4.75	0.	125.05
3031	6.75	5.	0.	125.03
3032	6.5	4.25	0.	125.04
3033	6.75	4.5	0.	125.03
3034	6.5	3.75	0.	125.03
3035	6.75	4.	0.	125.02
3036	6.5	3.25	0.	125.02
3037	6.75	3.5	0.	125.01
3038	6.5	2.75	0.	125.01
3039	6.75	3.	0.	125.
3040	6.75	2.5	0.	124.99
3041	6.5	2.25	0.	125.
3042	6.5	1.25	0.	124.99
3043	6.75	1.5	0.	124.98
3044	6.5	1.75	0.	124.99
3045	6.5	0.75	0.	125.
3046	6.75	1.	0.	124.98
3047	6.75	0.5	0.	124.99
3048	6.5	0.25	0.	125.01
3049	6.5	-0.75	0.	125.04
3050	6.75	-0.5	0.	125.02
3051	6.5	-0.25	0.	125.02
3052	6.5	-1.25	0.	125.06
3053	6.75	-1.	0.	125.04
3054	6.75	-1.5	0.	125.06
3055	6.5	-1.75	0.	125.08
3056	6.5	-2.75	0.	125.12
3057	6.75	-2.5	0.	125.09
3058	6.5	-2.25	0.	125.1
3059	6.5	-3.25	0.	125.13
3060	6.75	-3.	0.	125.11
3061	6.25	-3.	0.	125.14
3062	6.5	-3.75	0.	125.14
3063	6.75	-3.5	0.	125.12
3064	6.5	-4.25	0.	125.15
3065	6.75	-4.	0.	125.13
3066	6.25	-4.	0.	125.16
3067	6.75	-4.5	0.	125.14
3068	6.5	-4.75	0.	125.15
3069	6.75	-5.5	0.	125.14
3070	6.5	-5.25	0.	125.15
3071	5.5	-6.75	0.	125.15
3072	5.75	-6.5	0.	125.15
3073	5.25	-6.5	0.	125.15
3074	4.25	-6.5	0.	125.15
3075	4.5	-6.75	0.	125.14
3076	4.75	-6.5	0.	125.15
3077	3.75	-6.5	0.	125.14
3078	4.	-6.75	0.	125.13
3079	3.5	-6.75	0.	125.12
3080	3.25	-6.5	0.	125.13
3081	2.25	-6.5	0.	125.06
3082	2.5	-6.75	0.	125.07
3083	2.75	-6.5	0.	125.1
3084	1.75	-6.5	0.	125.01
3085	2.	-6.75	0.	125.02
3086	1.5	-6.75	0.	124.97
3087	1.25	-6.5	0.	124.95
3088	0.25	-6.5	0.	124.8
3089	0.5	-6.75	0.	124.83
3090	0.75	-6.5	0.	124.88
3091	-0.25	-6.5	0.	124.72
3092	-6.1241e-011	-6.25	0.	124.77
3093	-4.9702e-011	-6.75	0.	124.75
3094	-0.75	-6.5	0.	124.63
3095	-0.5	-6.75	0.	124.68
3096	-1.5	-6.75	0.	124.55
3097	-1.75	-6.5	0.	124.51
3098	-1.25	-6.5	0.	124.56
3099	-2.5	-6.75	0.	124.5
3100	-2.25	-6.5	0.	124.48
3101	-2.75	-6.5	0.	124.49
3102	-3.5	-6.75	0.	124.57
3103	-3.75	-6.5	0.	124.58
3104	-3.25	-6.5	0.	124.52
3105	-4.5	-6.75	0.	124.72
3106	-4.25	-6.5	0.	124.67
3107	-4.75	-6.5	0.	124.76
3108	-5.5	-6.75	0.	124.9
3109	-5.25	-6.5	0.	124.86
3110	-1.	4.25	0.	124.96
3111	-1.25	4.5	0.	124.35
3112	0.25	1.5	0.	125.64
3113	0.5	1.75	0.	125.65
3114	0.5	2.75	0.	126.2
3115	0.25	3.	0.	126.47
3116	0.5	-0.75	0.	126.15
3117	0.25	-1.	0.	126.42
3118	0.5	0.25	0.	125.63
3119	0.25	0.5	0.	125.63
3120	-1.25	-2.5	0.	124.23
3121	-1.	-2.25	0.	124.85
3122	-3.75	-2.5	0.	124.24
3123	-4.	-2.25	0.	124.87
3124	-2.75	-2.5	0.	122.8
3125	-2.5	-2.25	0.	122.15
3126	-2.25	-2.5	0.	122.8
3127	-5.5	0.25	0.	125.7
3128	-5.25	0.5	0.	125.69
3129	-5.5	-0.75	0.	126.22
3130	-5.25	-1.	0.	126.48
3131	-5.25	3.	0.	126.51
3132	-5.5	2.75	0.	126.24
3133	-5.5	1.75	0.	125.71
3134	-5.25	1.5	0.	125.7
3135	-2.25	4.5	0.	122.94
3136	-2.5	4.25	0.	122.28
3137	-2.75	4.5	0.	122.94
3138	-3.75	4.5	0.	124.36
3139	-4.	4.25	0.	124.97
3140	6.5	-6.75	0.	125.14
3141	6.75	-6.5	0.	125.14
3142	6.25	-6.5	0.	125.14
3143	6.75	6.5	0.	125.04
3144	6.5	6.75	0.	125.05
3145	-6.5	6.75	0.	125.21
3146	-6.75	6.5	0.	125.26
3147	-6.75	-6.5	0.	125.12
3148	-6.5	-6.75	0.	125.07
3149	-6.5	-6.25	0.	125.1
3150	-0.75	4.	0.	125.48
3151	-0.5	3.75	0.	126.14
3152	1.3296e-010	3.25	0.	126.55
3153	-0.25	3.5	0.	126.44
3154	-0.25	-1.5	0.	126.36
3155	1.5849e-010	-1.75	0.	126.17
3156	1.2869e-010	-1.25	0.	126.49
3157	3.7944e-011	1.25	0.	125.71
3158	3.6281e-011	0.75	0.	125.7
3159	-0.25	1.	0.	125.94
3160	-0.75	-2.	0.	125.38
3161	-0.5	-1.75	0.	126.05
3162	-0.25	-2.	0.	125.85
3163	-4.25	-2.	0.	125.41
3164	-4.5	-1.75	0.	126.08
3165	-5.	-1.25	0.	126.53
3166	-4.75	-1.5	0.	126.4
3167	-5.	3.25	0.	126.58
3168	-4.75	3.5	0.	126.46
3169	-5.	0.75	0.	125.76
3170	-5.	1.25	0.	125.76
3171	-4.75	1.	0.	126.
3172	-4.25	4.	0.	125.5
3173	-4.5	3.75	0.	126.16
3174	-2.	4.25	0.	122.78
3175	-2.	4.75	0.	123.34
3176	-1.75	4.5	0.	123.52
3177	0.25	2.5	0.	126.36
3178	0.5	2.25	0.	125.96
3179	0.25	7.9181e-011	0.	125.98
3180	0.5	-0.25	0.	125.93
3181	-1.5	-2.25	0.	123.79
3182	-1.75	-2.5	0.	123.39
3183	-3.25	-2.5	0.	123.39
3184	-3.5	-2.25	0.	123.8
3185	-3.	-2.25	0.	122.66
3186	-5.5	-0.25	0.	126.
3187	-5.25	-1.1021e-010	0.	126.05
3188	-5.25	-0.5	0.	126.38
3189	-5.25	2.	0.	126.06
3190	-5.5	2.25	0.	126.01
3191	-3.5	4.25	0.	123.91
3192	-3.25	4.5	0.	123.52
3193	-7.	-5.25	0.	125.27
3194	-7.25	-5.5	0.	125.27
3195	-7.	-5.75	0.	125.22
3196	-7.	-4.75	0.	125.32
3197	-7.25	-5.	0.	125.32
3198	-7.25	-4.5	0.	125.37
3199	-7.	-4.25	0.	125.39
3200	-7.	-3.25	0.	125.55
3201	-7.25	-3.5	0.	125.5
3202	-7.	-3.75	0.	125.47
3203	-7.	-2.75	0.	125.62
3204	-7.25	-3.	0.	125.57
3205	-7.25	-2.5	0.	125.61
3206	-7.	-2.25	0.	125.67
3207	-7.25	-1.5	0.	125.61
3208	-7.	-1.25	0.	125.64
3209	-7.	-1.75	0.	125.68
3210	-7.	-0.25	0.	125.43
3211	-7.25	-0.5	0.	125.44
3212	-7.	-0.75	0.	125.55
3213	-7.	0.25	0.	125.31
3214	-7.25	-3.7261e-011	0.	125.33
3215	-6.75	-5.684e-011	0.	125.41
3216	-7.25	0.5	0.	125.24
3217	-7.	0.75	0.	125.24
3218	-7.	1.75	0.	125.3
3219	-7.25	1.5	0.	125.23
3220	-7.	1.25	0.	125.24
3221	-7.	2.25	0.	125.41
3222	-7.25	2.	0.	125.31
3223	-6.75	2.	0.	125.4
3224	-7.	2.75	0.	125.52
3225	-7.25	2.5	0.	125.41
3226	-6.75	2.5	0.	125.55
3227	-7.	3.25	0.	125.61
3228	-7.25	3.	0.	125.51
3229	-6.75	3.	0.	125.67
3230	-7.	3.75	0.	125.64
3231	-7.25	3.5	0.	125.56
3232	-7.	4.25	0.	125.62
3233	-7.25	4.	0.	125.58
3234	-6.75	4.	0.	125.72
3235	-7.25	4.5	0.	125.55
3236	-6.75	4.5	0.	125.66
3237	-7.	4.75	0.	125.57
3238	-7.25	5.5	0.	125.41
3239	-7.	5.75	0.	125.4
3240	-7.	5.25	0.	125.49
3241	6.75	-7.	0.	125.13
3242	6.5	-7.25	0.	125.13
3243	6.25	-7.	0.	125.14
3244	7.	6.25	0.	125.02
3245	7.	6.75	0.	125.02
3246	7.25	6.5	0.	125.01
3247	-6.25	7.	0.	125.14
3248	-6.75	7.	0.	125.17
3249	-6.5	7.25	0.	125.12
3250	-7.	6.75	0.	125.22
3251	-7.25	6.5	0.	125.25
3252	-7.	6.25	0.	125.31
3253	-5.75	7.	0.	125.08
3254	-6.	7.25	0.	125.08
3255	-5.25	7.	0.	125.
3256	-5.5	7.25	0.	125.02
3257	-4.75	7.	0.	124.88
3258	-5.	7.25	0.	124.92
3259	-5.	6.75	0.	124.97
3260	-4.25	7.	0.	124.75
3261	-4.5	7.25	0.	124.81
3262	-3.75	7.	0.	124.62
3263	-4.	7.25	0.	124.69
3264	-3.5	7.25	0.	124.59
3265	-3.25	7.	0.	124.51
3266	-2.25	7.	0.	124.45
3267	-2.5	7.25	0.	124.49
3268	-2.75	7.	0.	124.45
3269	-1.75	7.	0.	124.51
3270	-2.	7.25	0.	124.52
3271	-1.25	7.	0.	124.62
3272	-1.5	7.25	0.	124.59
3273	-0.75	7.	0.	124.76
3274	-1.	7.25	0.	124.7
3275	-0.5	7.25	0.	124.82
3276	-0.25	7.	0.	124.89
3277	0.5	7.25	0.	125.04
3278	0.25	7.	0.	125.01
3279	0.75	7.	0.	125.11
3280	1.5	7.25	0.	125.15
3281	1.75	7.	0.	125.2
3282	1.25	7.	0.	125.17
3283	2.5	7.25	0.	125.18
3284	2.25	7.	0.	125.21
3285	2.75	7.	0.	125.21
3286	3.5	7.25	0.	125.16
3287	3.75	7.	0.	125.17
3288	3.25	7.	0.	125.2
3289	4.5	7.25	0.	125.12
3290	4.75	7.	0.	125.12
3291	4.25	7.	0.	125.15
3292	5.5	7.25	0.	125.08
3293	5.25	7.	0.	125.1
3294	5.75	7.	0.	125.08
3295	5.5	6.75	0.	125.09
3296	6.75	7.	0.	125.03
3297	6.5	7.25	0.	125.04
3298	6.25	7.	0.	125.05
3299	7.	5.75	0.	125.02
3300	7.25	6.	0.	125.01
3301	7.	5.25	0.	125.02
3302	7.25	5.5	0.	125.01
3303	7.	4.75	0.	125.01
3304	7.25	5.	0.	125.
3305	7.	4.25	0.	125.01
3306	7.25	4.5	0.	125.
3307	7.	3.75	0.	125.
3308	7.25	4.	0.	124.99
3309	7.	3.25	0.	124.99
3310	7.25	3.5	0.	124.98
3311	7.	2.75	0.	124.98
3312	7.25	3.	0.	124.97
3313	7.25	2.5	0.	124.96
3314	7.	2.25	0.	124.97
3315	7.25	1.5	0.	124.96
3316	7.	1.75	0.	124.97
3317	7.	1.25	0.	124.97
3318	7.	0.25	0.	124.99
3319	7.25	0.5	0.	124.97
3320	7.	0.75	0.	124.98
3321	7.	-0.25	0.	125.
3322	7.25	1.4163e-012	0.	124.98
3323	6.75	1.7102e-012	0.	125.
3324	7.	-0.75	0.	125.02
3325	7.25	-0.5	0.	125.
3326	7.	-1.25	0.	125.03
3327	7.25	-1.	0.	125.01
3328	7.25	-1.5	0.	125.03
3329	7.	-1.75	0.	125.05
3330	7.25	-2.5	0.	125.07
3331	7.	-2.75	0.	125.09
3332	7.	-2.25	0.	125.07
3333	7.25	-3.5	0.	125.1
3334	7.	-3.25	0.	125.1
3335	7.	-3.75	0.	125.11
3336	7.	-6.75	0.	125.13
3337	7.25	-6.5	0.	125.13
3338	7.	-6.25	0.	125.13
3339	5.5	-7.25	0.	125.13
3340	5.25	-7.	0.	125.14
3341	5.75	-7.	0.	125.14
3342	4.25	-7.	0.	125.13
3343	4.5	-7.25	0.	125.12
3344	4.75	-7.	0.	125.13
3345	3.75	-7.	0.	125.11
3346	4.	-7.25	0.	125.11
3347	3.25	-7.	0.	125.09
3348	3.5	-7.25	0.	125.09
3349	2.75	-7.	0.	125.06
3350	3.	-7.25	0.	125.07
3351	3.	-6.75	0.	125.1
3352	2.5	-7.25	0.	125.03
3353	2.25	-7.	0.	125.03
3354	1.5	-7.25	0.	124.94
3355	1.75	-7.	0.	124.98
3356	1.25	-7.	0.	124.92
3357	0.5	-7.25	0.	124.81
3358	0.25	-7.	0.	124.79
3359	0.75	-7.	0.	124.86
3360	-1.25	-7.	0.	124.59
3361	-1.	-7.25	0.	124.62
3362	-1.	-6.75	0.	124.6
3363	-0.75	-7.	0.	124.65
3364	-1.75	-7.	0.	124.55
3365	-1.5	-7.25	0.	124.58
3366	-2.25	-7.	0.	124.53
3367	-2.	-7.25	0.	124.55
3368	-2.	-6.75	0.	124.51
3369	-2.5	-7.25	0.	124.54
3370	-2.75	-7.	0.	124.53
3371	-3.5	-7.25	0.	124.6
3372	-3.75	-7.	0.	124.62
3373	-3.25	-7.	0.	124.56
3374	-4.75	-7.	0.	124.76
3375	-4.5	-7.25	0.	124.73
3376	-4.25	-7.	0.	124.68
3377	-5.25	-7.	0.	124.85
3378	-5.	-7.25	0.	124.81
3379	-5.	-6.75	0.	124.81
3380	-5.75	-7.	0.	124.94
3381	-5.5	-7.25	0.	124.89
3382	-7.	-6.75	0.	125.15
3383	-7.25	-6.5	0.	125.2
3384	-7.	-6.25	0.	125.18
3385	-6.25	-7.	0.	125.02
3386	-6.	-7.25	0.	124.97
3387	-6.75	-7.	0.	125.1
3388	-6.5	-7.25	0.	125.05
3389	-1.	3.75	0.	125.53
3390	-1.25	4.	0.	124.51
3391	-0.25	1.5	0.	126.12
3392	5.2802e-011	1.75	0.	126.01
3393	1.0744e-010	2.75	0.	126.63
3394	-0.25	3.	0.	126.87
3395	4.7099e-011	0.25	0.	125.98
3396	-0.25	0.5	0.	126.1
3397	-1.25	-2.	0.	124.41
3398	-1.	-1.75	0.	125.43
3399	-4.	-1.75	0.	125.45
3400	-3.75	-2.	0.	124.42
3401	-2.25	-2.	0.	122.
3402	-2.75	-2.	0.	122.
3403	-2.5	-1.75	0.	120.85
3404	-4.75	0.5	0.	126.16
3405	-5.	0.25	0.	126.04
3406	-5.	-0.75	0.	126.64
3407	-4.75	-1.	0.	126.86
3408	-5.	2.75	0.	126.67
3409	-4.75	3.	0.	126.9
3410	-5.	1.75	0.	126.06
3411	-4.75	1.5	0.	126.17
3412	-2.25	4.	0.	122.12
3413	-2.5	3.75	0.	120.96
3414	-2.75	4.	0.	122.12
3415	-3.75	4.	0.	124.53
3416	-4.	3.75	0.	125.54
3417	-0.5	3.25	0.	126.76
3418	-0.75	3.5	0.	126.18
3419	-0.75	-1.5	0.	126.1
3420	-0.5	-1.25	0.	126.69
3421	-4.5	-1.25	0.	126.73
3422	-4.25	-1.5	0.	126.12
3423	-4.25	3.5	0.	126.2
3424	-4.5	3.25	0.	126.79
3425	7.25	-7.	0.	125.13
3426	7.	-7.25	0.	125.13
3427	7.	7.25	0.	125.02
3428	7.25	7.	0.	125.01
3429	-7.25	7.	0.	125.18
3430	-7.	7.25	0.	125.14
3431	-7.25	-7.	0.	125.17
3432	-7.	-7.25	0.	125.13
3433	-0.75	1.	0.	127.11
3434	-0.5	0.75	0.	126.35
3435	-0.5	1.25	0.	126.35
3436	-4.25	1.	0.	127.16
3437	-4.5	1.25	0.	126.4
3438	-4.5	0.75	0.	126.39
3439	-2.	3.75	0.	122.
3440	-1.75	4.	0.	123.17
3441	-0.25	2.5	0.	126.94
3442	7.7827e-011	2.25	0.	126.41
3443	-0.25	7.8754e-011	0.	126.51
3444	6.8202e-011	-0.25	0.	126.37
3445	-1.75	-2.	0.	123.05
3446	-2.	-2.25	0.	122.65
3447	-2.	-1.75	0.	121.89
3448	-1.5	-1.75	0.	123.93
3449	-3.	-1.75	0.	121.89
3450	-3.25	-2.	0.	123.06
3451	-4.75	-0.5	0.	126.95
3452	-5.	-0.25	0.	126.43
3453	-5.	2.25	0.	126.45
3454	-5.25	2.5	0.	126.4
3455	-4.75	2.5	0.	126.98
3456	-4.75	2.	0.	126.58
3457	-3.5	3.75	0.	124.04
3458	-3.25	4.	0.	123.18
3459	-4.	0.75	0.	127.77
3460	-4.	1.25	0.	127.78
3461	-3.75	1.	0.	130.42
3462	-1.	1.25	0.	127.74
3463	-1.	0.75	0.	127.73
3464	-1.25	1.	0.	130.39
3465	-7.5	-6.75	0.	125.22
3466	-7.5	-7.25	0.	125.2
3467	-7.75	-7.	0.	125.24
3468	-7.5	-6.25	0.	125.25
3469	-7.75	-6.5	0.	125.26
3470	-7.5	-5.75	0.	125.28
3471	-7.75	-6.	0.	125.29
3472	-7.25	-6.	0.	125.23
3473	-7.5	-5.25	0.	125.32
3474	-7.75	-5.5	0.	125.32
3475	-7.5	-4.75	0.	125.37
3476	-7.75	-5.	0.	125.36
3477	-7.5	-4.25	0.	125.42
3478	-7.75	-4.5	0.	125.4
3479	-7.5	-3.75	0.	125.47
3480	-7.75	-4.	0.	125.45
3481	-7.25	-4.	0.	125.44
3482	-7.5	-3.25	0.	125.52
3483	-7.75	-3.5	0.	125.49
3484	-7.5	-2.75	0.	125.56
3485	-7.75	-3.	0.	125.52
3486	-7.5	-2.25	0.	125.58
3487	-7.75	-2.5	0.	125.54
3488	-7.5	-1.75	0.	125.56
3489	-7.75	-2.	0.	125.53
3490	-7.25	-2.	0.	125.63
3491	-7.5	-1.25	0.	125.51
3492	-7.75	-1.5	0.	125.5
3493	-7.5	-0.75	0.	125.43
3494	-7.75	-1.	0.	125.43
3495	-7.25	-1.	0.	125.54
3496	-7.5	-0.25	0.	125.34
3497	-7.75	-0.5	0.	125.35
3498	-7.5	0.25	0.	125.26
3499	-7.75	-2.3004e-011	0.	125.26
3500	-7.5	0.75	0.	125.2
3501	-7.75	0.5	0.	125.19
3502	-7.5	1.25	0.	125.2
3503	-7.75	1.	0.	125.17
3504	-7.25	1.	0.	125.2
3505	-7.5	1.75	0.	125.24
3506	-7.75	1.5	0.	125.18
3507	-7.5	2.25	0.	125.31
3508	-7.75	2.	0.	125.23
3509	-7.75	2.5	0.	125.3
3510	-7.5	2.75	0.	125.39
3511	-7.5	4.25	0.	125.5
3512	-7.75	4.	0.	125.45
3513	-7.5	3.75	0.	125.5
3514	-7.5	4.75	0.	125.47
3515	-7.75	4.5	0.	125.44
3516	-7.5	5.25	0.	125.42
3517	-7.75	5.	0.	125.4
3518	-7.25	5.	0.	125.49
3519	-7.5	5.75	0.	125.35
3520	-7.75	5.5	0.	125.35
3521	-7.5	6.25	0.	125.28
3522	-7.75	6.	0.	125.3
3523	-7.25	6.	0.	125.33
3524	-7.5	6.75	0.	125.21
3525	-7.75	6.5	0.	125.23
3526	-7.5	7.25	0.	125.15
3527	-7.75	7.	0.	125.17
3528	-7.25	7.5	0.	125.11
3529	-7.75	7.5	0.	125.12
3530	-7.5	7.75	0.	125.09
3531	-6.75	7.5	0.	125.1
3532	-7.	7.75	0.	125.08
3533	-6.25	7.5	0.	125.06
3534	-6.5	7.75	0.	125.05
3535	-5.75	7.5	0.	125.01
3536	-6.	7.75	0.	125.01
3537	-5.25	7.5	0.	124.94
3538	-5.5	7.75	0.	124.96
3539	-4.75	7.5	0.	124.85
3540	-5.	7.75	0.	124.89
3541	-4.25	7.5	0.	124.76
3542	-4.5	7.75	0.	124.8
3543	-3.75	7.5	0.	124.66
3544	-4.	7.75	0.	124.72
3545	-3.25	7.5	0.	124.59
3546	-3.5	7.75	0.	124.64
3547	-2.75	7.5	0.	124.55
3548	-3.	7.75	0.	124.59
3549	-3.	7.25	0.	124.51
3550	-2.25	7.5	0.	124.55
3551	-2.5	7.75	0.	124.58
3552	-1.75	7.5	0.	124.6
3553	-2.	7.75	0.	124.6
3554	-1.25	7.5	0.	124.67
3555	-1.5	7.75	0.	124.65
3556	-0.75	7.5	0.	124.77
3557	-1.	7.75	0.	124.73
3558	-0.5	7.75	0.	124.82
3559	-0.25	7.5	0.	124.87
3560	0.75	7.5	0.	125.04
3561	0.5	7.75	0.	124.98
3562	0.25	7.5	0.	124.96
3563	1.25	7.5	0.	125.09
3564	1.	7.75	0.	125.04
3565	1.	7.25	0.	125.11
3566	1.75	7.5	0.	125.13
3567	1.5	7.75	0.	125.08
3568	2.25	7.5	0.	125.14
3569	2.	7.75	0.	125.11
3570	2.	7.25	0.	125.18
3571	2.5	7.75	0.	125.12
3572	2.75	7.5	0.	125.15
3573	3.75	7.5	0.	125.13
3574	3.5	7.75	0.	125.12
3575	3.25	7.5	0.	125.14
3576	4.25	7.5	0.	125.12
3577	4.	7.75	0.	125.11
3578	4.	7.25	0.	125.14
3579	4.5	7.75	0.	125.09
3580	4.75	7.5	0.	125.1
3581	5.75	7.5	0.	125.06
3582	5.5	7.75	0.	125.06
3583	5.25	7.5	0.	125.08
3584	6.25	7.5	0.	125.05
3585	6.	7.75	0.	125.05
3586	6.	7.25	0.	125.06
3587	6.75	7.5	0.	125.03
3588	6.5	7.75	0.	125.04
3589	7.25	7.5	0.	125.01
3590	7.	7.75	0.	125.02
3591	7.5	7.25	0.	125.01
3592	7.5	7.75	0.	125.01
3593	7.75	7.5	0.	125.
3594	7.5	6.75	0.	125.
3595	7.75	7.	0.	125.
3596	7.5	6.25	0.	125.
3597	7.75	6.5	0.	124.99
3598	7.5	5.75	0.	125.
3599	7.75	6.	0.	124.99
3600	7.5	5.25	0.	124.99
3601	7.75	5.5	0.	124.98
3602	7.5	4.75	0.	124.99
3603	7.75	5.	0.	124.97
3604	7.5	4.25	0.	124.98
3605	7.75	4.5	0.	124.97
3606	7.5	3.75	0.	124.97
3607	7.75	4.	0.	124.96
3608	7.5	3.25	0.	124.96
3609	7.75	3.5	0.	124.95
3610	7.5	2.75	0.	124.96
3611	7.75	3.	0.	124.94
3612	7.5	2.25	0.	124.95
3613	7.75	2.5	0.	124.94
3614	7.5	1.75	0.	124.95
3615	7.75	2.	0.	124.94
3616	7.25	2.	0.	124.96
3617	7.5	1.25	0.	124.95
3618	7.75	1.5	0.	124.94
3619	7.5	0.75	0.	124.96
3620	7.75	1.	0.	124.94
3621	7.25	1.	0.	124.96
3622	7.5	0.25	0.	124.96
3623	7.75	0.5	0.	124.95
3624	7.5	-0.25	0.	124.98
3625	7.75	1.456e-012	0.	124.96
3626	7.5	-0.75	0.	124.99
3627	7.75	-0.5	0.	124.97
3628	7.5	-1.25	0.	125.01
3629	7.75	-1.	0.	124.99
3630	7.5	-1.75	0.	125.03
3631	7.75	-1.5	0.	125.01
3632	7.5	-2.25	0.	125.05
3633	7.75	-2.	0.	125.02
3634	7.25	-2.	0.	125.05
3635	7.5	-2.75	0.	125.06
3636	7.75	-2.5	0.	125.04
3637	7.5	-3.25	0.	125.08
3638	7.75	-3.	0.	125.06
3639	7.25	-3.	0.	125.08
3640	7.5	-3.75	0.	125.09
3641	7.75	-3.5	0.	125.07
3642	7.5	-4.25	0.	125.1
3643	7.75	-4.	0.	125.09
3644	7.25	-4.	0.	125.11
3645	7.5	-4.75	0.	125.11
3646	7.75	-4.5	0.	125.1
3647	7.25	-4.5	0.	125.12
3648	7.5	-5.25	0.	125.12
3649	7.75	-5.	0.	125.11
3650	7.25	-5.	0.	125.12
3651	7.5	-5.75	0.	125.12
3652	7.75	-5.5	0.	125.12
3653	7.25	-5.5	0.	125.13
3654	7.5	-6.25	0.	125.13
3655	7.75	-6.	0.	125.12
3656	7.25	-6.	0.	125.13
3657	7.5	-6.75	0.	125.13
3658	7.75	-6.5	0.	125.13
3659	7.5	-7.25	0.	125.13
3660	7.75	-7.	0.	125.13
3661	7.25	-7.5	0.	125.13
3662	7.75	-7.5	0.	125.13
3663	7.5	-7.75	0.	125.13
3664	6.75	-7.5	0.	125.13
3665	7.	-7.75	0.	125.13
3666	6.25	-7.5	0.	125.13
3667	6.5	-7.75	0.	125.13
3668	5.75	-7.5	0.	125.13
3669	6.	-7.75	0.	125.13
3670	6.	-7.25	0.	125.13
3671	5.25	-7.5	0.	125.12
3672	5.5	-7.75	0.	125.12
3673	4.75	-7.5	0.	125.12
3674	5.	-7.75	0.	125.12
3675	5.	-7.25	0.	125.13
3676	4.25	-7.5	0.	125.11
3677	4.5	-7.75	0.	125.11
3678	3.75	-7.5	0.	125.09
3679	4.	-7.75	0.	125.09
3680	3.25	-7.5	0.	125.07
3681	3.5	-7.75	0.	125.07
3682	2.75	-7.5	0.	125.04
3683	3.	-7.75	0.	125.04
3684	2.25	-7.5	0.	125.
3685	2.5	-7.75	0.	125.01
3686	1.75	-7.5	0.	124.95
3687	2.	-7.75	0.	124.96
3688	2.	-7.25	0.	124.99
3689	1.25	-7.5	0.	124.9
3690	1.5	-7.75	0.	124.91
3691	0.75	-7.5	0.	124.84
3692	1.	-7.75	0.	124.86
3693	1.	-7.25	0.	124.88
3694	0.25	-7.5	0.	124.78
3695	0.5	-7.75	0.	124.8
3696	-0.25	-7.5	0.	124.71
3697	-2.2906e-011	-7.75	0.	124.74
3698	-3.5168e-011	-7.25	0.	124.75
3699	-0.75	-7.5	0.	124.66
3700	-0.5	-7.75	0.	124.69
3701	-0.5	-7.25	0.	124.68
3702	-1.25	-7.5	0.	124.61
3703	-1.	-7.75	0.	124.64
3704	-1.75	-7.5	0.	124.58
3705	-1.5	-7.75	0.	124.6
3706	-2.25	-7.5	0.	124.56
3707	-2.	-7.75	0.	124.58
3708	-2.75	-7.5	0.	124.57
3709	-2.5	-7.75	0.	124.58
3710	-3.25	-7.5	0.	124.6
3711	-3.	-7.75	0.	124.59
3712	-3.	-7.25	0.	124.56
3713	-3.75	-7.5	0.	124.64
3714	-3.5	-7.75	0.	124.62
3715	-4.25	-7.5	0.	124.7
3716	-4.	-7.75	0.	124.67
3717	-4.	-7.25	0.	124.66
3718	-4.75	-7.5	0.	124.77
3719	-4.5	-7.75	0.	124.74
3720	-5.25	-7.5	0.	124.85
3721	-5.	-7.75	0.	124.81
3722	-5.75	-7.5	0.	124.93
3723	-5.5	-7.75	0.	124.88
3724	-6.25	-7.5	0.	125.01
3725	-6.	-7.75	0.	124.96
3726	-6.75	-7.5	0.	125.08
3727	-6.5	-7.75	0.	125.04
3728	-7.25	-7.5	0.	125.16
3729	-7.	-7.75	0.	125.11
3730	-7.75	-7.5	0.	125.22
3731	-7.5	-7.75	0.	125.18
3732	-3.75	3.5	0.	125.06
3733	-4.	3.25	0.	126.6
3734	-4.25	1.5	0.	127.02
3735	-4.5	1.75	0.	126.69
3736	-4.25	3.	0.	127.18
3737	-4.5	2.75	0.	127.21
3738	-4.5	-0.75	0.	127.16
3739	-4.25	-1.	0.	127.12
3740	-4.5	0.25	0.	126.67
3741	-4.25	0.5	0.	127.01
3742	-4.	-1.25	0.	126.52
3743	-3.75	-1.5	0.	124.97
3744	-1.25	-1.5	0.	124.95
3745	-1.	-1.25	0.	126.49
3746	-2.75	-1.5	0.	120.73
3747	-2.5	-1.25	0.	118.46
3748	-2.25	-1.5	0.	120.73
3749	-0.5	0.25	0.	126.62
3750	-0.75	0.5	0.	126.96
3751	-0.75	-1.	0.	127.08
3752	-0.5	-0.75	0.	127.12
3753	-0.25	-1.	0.	126.81
3754	-0.5	2.75	0.	127.18
3755	-0.75	3.	0.	127.15
3756	-0.5	1.75	0.	126.65
3757	-0.75	1.5	0.	126.98
3758	-2.25	3.5	0.	120.83
3759	-2.75	3.5	0.	120.83
3760	-2.5	3.25	0.	118.55
3761	-1.	3.25	0.	126.58
3762	-1.25	3.5	0.	125.04
3763	-2.	3.25	0.	120.95
3764	-1.75	3.5	0.	122.86
3765	-0.5	2.25	0.	127.07
3766	-0.75	2.	0.	127.46
3767	-0.25	2.	0.	126.54
3768	-0.75	2.5	0.	127.77
3769	-0.75	6.9271e-011	0.	127.42
3770	-0.5	-0.25	0.	127.03
3771	-1.5	-1.25	0.	124.8
3772	-1.75	-1.5	0.	122.76
3773	-3.	-1.25	0.	120.86
3774	-3.25	-1.5	0.	122.77
3775	-4.5	-0.25	0.	127.08
3776	-4.25	-8.8343e-011	0.	127.47
3777	-4.75	-1.0414e-010	0.	126.56
3778	-4.25	-0.5	0.	127.75
3779	-3.25	3.5	0.	122.87
3780	-3.	3.25	0.	120.96
3781	-3.	3.75	0.	122.
3782	-3.5	3.25	0.	124.9
3783	-1.	1.75	0.	127.79
3784	-1.25	1.5	0.	129.35
3785	-4.	0.25	0.	127.8
3786	-3.75	0.5	0.	129.36
3787	-1.	2.75	0.	127.74
3788	-1.25	3.	0.	126.41
3789	-2.75	3.	0.	118.64
3790	-2.25	3.	0.	118.63
3791	-2.5	2.75	0.	113.12
3792	-8.	-7.25	0.	125.27
3793	-8.	-7.75	0.	125.25
3794	-8.25	-7.5	0.	125.29
3795	-8.	-6.75	0.	125.29
3796	-8.25	-7.	0.	125.31
3797	-8.	-6.25	0.	125.31
3798	-8.25	-6.5	0.	125.33
3799	-8.	-5.75	0.	125.33
3800	-8.25	-6.	0.	125.35
3801	-8.	-5.25	0.	125.36
3802	-8.25	-5.5	0.	125.37
3803	-8.	-4.75	0.	125.4
3804	-8.25	-5.	0.	125.4
3805	-8.	-4.25	0.	125.43
3806	-8.25	-4.5	0.	125.43
3807	-8.	-3.75	0.	125.46
3808	-8.25	-4.	0.	125.45
3809	-8.25	-3.5	0.	125.47
3810	-8.	-3.25	0.	125.49
3811	-8.	-1.75	0.	125.46
3812	-8.25	-2.	0.	125.45
3813	-8.	-2.25	0.	125.49
3814	-8.	-1.25	0.	125.41
3815	-8.25	-1.5	0.	125.4
3816	-8.	-0.75	0.	125.34
3817	-8.25	-1.	0.	125.34
3818	-8.	-0.25	0.	125.27
3819	-8.25	-0.5	0.	125.27
3820	-8.	0.25	0.	125.2
3821	-8.25	-1.314e-011	0.	125.2
3822	-8.	0.75	0.	125.16
3823	-8.25	0.5	0.	125.14
3824	-8.	1.25	0.	125.15
3825	-8.25	1.	0.	125.12
3826	-8.	1.75	0.	125.18
3827	-8.25	1.5	0.	125.13
3828	-8.	2.25	0.	125.23
3829	-8.25	2.	0.	125.16
3830	-8.	2.75	0.	125.28
3831	-8.25	2.5	0.	125.21
3832	-8.	3.25	0.	125.34
3833	-8.25	3.	0.	125.26
3834	-7.75	3.	0.	125.37
3835	-8.	3.75	0.	125.37
3836	-8.25	3.5	0.	125.31
3837	-7.75	3.5	0.	125.42
3838	-8.	4.25	0.	125.38
3839	-8.25	4.	0.	125.33
3840	-8.	4.75	0.	125.37
3841	-8.25	4.5	0.	125.33
3842	-8.	5.25	0.	125.34
3843	-8.25	5.	0.	125.32
3844	-8.	5.75	0.	125.3
3845	-8.25	5.5	0.	125.29
3846	-8.	6.25	0.	125.25
3847	-8.25	6.	0.	125.25
3848	-8.	6.75	0.	125.19
3849	-8.25	6.5	0.	125.21
3850	-8.	7.25	0.	125.14
3851	-8.25	7.	0.	125.16
3852	-8.	7.75	0.	125.09
3853	-8.25	7.5	0.	125.11
3854	-7.75	8.	0.	125.06
3855	-8.	8.25	0.	125.05
3856	-8.25	8.	0.	125.07
3857	-7.25	8.	0.	125.05
3858	-7.5	8.25	0.	125.03
3859	-6.75	8.	0.	125.03
3860	-7.	8.25	0.	125.02
3861	-6.25	8.	0.	125.
3862	-6.5	8.25	0.	124.99
3863	-5.75	8.	0.	124.96
3864	-6.	8.25	0.	124.96
3865	-5.25	8.	0.	124.9
3866	-5.5	8.25	0.	124.91
3867	-4.75	8.	0.	124.83
3868	-5.	8.25	0.	124.85
3869	-4.25	8.	0.	124.76
3870	-4.5	8.25	0.	124.79
3871	-3.75	8.	0.	124.7
3872	-4.	8.25	0.	124.73
3873	-3.25	8.	0.	124.65
3874	-3.5	8.25	0.	124.68
3875	-2.75	8.	0.	124.62
3876	-3.	8.25	0.	124.65
3877	-2.25	8.	0.	124.62
3878	-2.5	8.25	0.	124.64
3879	-1.75	8.	0.	124.65
3880	-2.	8.25	0.	124.65
3881	-1.25	8.	0.	124.71
3882	-1.5	8.25	0.	124.69
3883	-0.75	8.	0.	124.78
3884	-1.	8.25	0.	124.74
3885	-0.25	8.	0.	124.85
3886	-0.5	8.25	0.	124.81
3887	0.25	8.	0.	124.92
3888	-3.3494e-011	8.25	0.	124.87
3889	-4.7606e-011	7.75	0.	124.9
3890	0.75	8.	0.	124.98
3891	0.5	8.25	0.	124.93
3892	1.25	8.	0.	125.03
3893	1.	8.25	0.	124.98
3894	1.75	8.	0.	125.06
3895	1.5	8.25	0.	125.02
3896	2.25	8.	0.	125.08
3897	2.	8.25	0.	125.05
3898	2.75	8.	0.	125.09
3899	2.5	8.25	0.	125.06
3900	3.25	8.	0.	125.09
3901	3.	8.25	0.	125.07
3902	3.	7.75	0.	125.12
3903	3.75	8.	0.	125.09
3904	3.5	8.25	0.	125.08
3905	4.25	8.	0.	125.08
3906	4.	8.25	0.	125.07
3907	4.75	8.	0.	125.07
3908	4.5	8.25	0.	125.07
3909	5.	8.25	0.	125.06
3910	5.25	8.	0.	125.06
3911	5.	7.75	0.	125.08
3912	6.25	8.	0.	125.04
3913	6.	8.25	0.	125.04
3914	5.75	8.	0.	125.05
3915	6.75	8.	0.	125.03
3916	6.5	8.25	0.	125.03
3917	7.25	8.	0.	125.01
3918	7.	8.25	0.	125.02
3919	7.75	8.	0.	125.
3920	7.5	8.25	0.	125.01
3921	8.	7.75	0.	124.99
3922	8.25	8.	0.	124.99
3923	8.	8.25	0.	125.
3924	8.	7.25	0.	124.99
3925	8.25	7.5	0.	124.99
3926	8.	6.75	0.	124.98
3927	8.25	7.	0.	124.98
3928	8.	6.25	0.	124.98
3929	8.25	6.5	0.	124.97
3930	8.	5.75	0.	124.97
3931	8.25	6.	0.	124.96
3932	8.	5.25	0.	124.96
3933	8.25	5.5	0.	124.96
3934	8.	4.75	0.	124.96
3935	8.25	5.	0.	124.95
3936	8.	4.25	0.	124.95
3937	8.25	4.5	0.	124.94
3938	8.	3.75	0.	124.94
3939	8.25	4.	0.	124.93
3940	8.	3.25	0.	124.93
3941	8.25	3.5	0.	124.92
3942	8.	2.25	0.	124.92
3943	8.25	2.5	0.	124.91
3944	8.	2.75	0.	124.93
3945	8.	1.75	0.	124.92
3946	8.25	2.	0.	124.91
3947	8.	1.25	0.	124.92
3948	8.25	1.5	0.	124.91
3949	8.	0.75	0.	124.93
3950	8.25	1.	0.	124.91
3951	8.	0.25	0.	124.94
3952	8.25	0.5	0.	124.92
3953	8.	-0.25	0.	124.95
3954	8.25	1.3894e-012	0.	124.93
3955	8.	-0.75	0.	124.97
3956	8.25	-0.5	0.	124.94
3957	8.	-1.25	0.	124.98
3958	8.25	-1.	0.	124.96
3959	8.	-1.75	0.	125.
3960	8.25	-1.5	0.	124.98
3961	8.	-2.25	0.	125.02
3962	8.25	-2.	0.	125.
3963	8.	-2.75	0.	125.04
3964	8.25	-2.5	0.	125.02
3965	8.	-3.25	0.	125.06
3966	8.25	-3.	0.	125.04
3967	8.	-3.75	0.	125.07
3968	8.25	-3.5	0.	125.05
3969	8.	-4.25	0.	125.09
3970	8.25	-4.	0.	125.07
3971	8.	-4.75	0.	125.1
3972	8.25	-4.5	0.	125.08
3973	8.	-5.25	0.	125.11
3974	8.25	-5.	0.	125.1
3975	8.	-5.75	0.	125.12
3976	8.25	-5.5	0.	125.11
3977	8.	-6.25	0.	125.12
3978	8.25	-6.	0.	125.12
3979	8.	-6.75	0.	125.13
3980	8.25	-6.5	0.	125.12
3981	8.	-7.25	0.	125.13
3982	8.25	-7.	0.	125.13
3983	8.25	-7.5	0.	125.13
3984	8.	-7.75	0.	125.13
3985	7.25	-8.	0.	125.13
3986	7.5	-8.25	0.	125.13
3987	7.75	-8.	0.	125.13
3988	6.75	-8.	0.	125.13
3989	7.	-8.25	0.	125.13
3990	6.25	-8.	0.	125.12
3991	6.5	-8.25	0.	125.12
3992	5.75	-8.	0.	125.12
3993	6.	-8.25	0.	125.12
3994	5.25	-8.	0.	125.11
3995	5.5	-8.25	0.	125.11
3996	4.75	-8.	0.	125.1
3997	5.	-8.25	0.	125.1
3998	4.25	-8.	0.	125.09
3999	4.5	-8.25	0.	125.09
4000	3.75	-8.	0.	125.07
4001	4.	-8.25	0.	125.07
4002	3.25	-8.	0.	125.04
4003	3.5	-8.25	0.	125.05
4004	2.75	-8.	0.	125.01
4005	3.	-8.25	0.	125.02
4006	2.25	-8.	0.	124.97
4007	2.5	-8.25	0.	124.99
4008	1.75	-8.	0.	124.93
4009	2.	-8.25	0.	124.94
4010	1.25	-8.	0.	124.88
4011	1.5	-8.25	0.	124.9
4012	0.75	-8.	0.	124.82
4013	1.	-8.25	0.	124.85
4014	0.25	-8.	0.	124.77
4015	0.5	-8.25	0.	124.79
4016	-0.25	-8.	0.	124.72
4017	-1.4281e-011	-8.25	0.	124.74
4018	-0.75	-8.	0.	124.67
4019	-0.5	-8.25	0.	124.69
4020	-1.25	-8.	0.	124.63
4021	-1.	-8.25	0.	124.65
4022	-1.75	-8.	0.	124.6
4023	-1.5	-8.25	0.	124.62
4024	-2.25	-8.	0.	124.59
4025	-2.	-8.25	0.	124.6
4026	-2.75	-8.	0.	124.6
4027	-2.5	-8.25	0.	124.6
4028	-3.25	-8.	0.	124.62
4029	-3.	-8.25	0.	124.61
4030	-3.75	-8.	0.	124.66
4031	-3.5	-8.25	0.	124.64
4032	-4.25	-8.	0.	124.71
4033	-4.	-8.25	0.	124.69
4034	-4.75	-8.	0.	124.77
4035	-4.5	-8.25	0.	124.75
4036	-5.25	-8.	0.	124.85
4037	-5.	-8.25	0.	124.81
4038	-5.75	-8.	0.	124.92
4039	-5.5	-8.25	0.	124.88
4040	-6.25	-8.	0.	124.99
4041	-6.	-8.25	0.	124.95
4042	-6.75	-8.	0.	125.07
4043	-6.5	-8.25	0.	125.03
4044	-7.25	-8.	0.	125.14
4045	-7.	-8.25	0.	125.1
4046	-7.75	-8.	0.	125.21
4047	-7.5	-8.25	0.	125.17
4048	-8.25	-8.	0.	125.28
4049	-8.	-8.25	0.	125.24
4050	-1.	0.25	0.	127.76
4051	-1.25	0.5	0.	129.33
4052	-1.25	-1.	0.	126.34
4053	-1.	-0.75	0.	127.68
4054	-2.75	-1.	0.	118.56
4055	-2.25	-1.	0.	118.56
4056	-2.5	-0.75	0.	113.05
4057	-4.	-0.75	0.	127.71
4058	-3.75	-1.	0.	126.36
4059	-4.	1.75	0.	127.82
4060	-3.75	1.5	0.	129.38
4061	-3.75	3.	0.	126.44
4062	-4.	2.75	0.	127.77
4063	-3.25	3.	0.	123.
4064	-3.	2.75	0.	120.59
4065	-3.5	2.75	0.	127.49
4066	-3.75	2.	0.	128.5
4067	-4.	2.25	0.	128.18
4068	-4.25	2.	0.	127.49
4069	-4.	-0.25	0.	128.14
4070	-3.75	-6.0954e-011	0.	128.46
4071	-3.75	-0.5	0.	128.75
4072	-3.	-0.75	0.	120.51
4073	-3.25	-1.	0.	122.91
4074	-1.75	-1.	0.	122.91
4075	-2.	-0.75	0.	120.52
4076	-2.	-1.25	0.	120.86
4077	-1.5	-0.75	0.	127.4
4078	-1.25	5.0193e-011	0.	128.43
4079	-1.	-0.25	0.	128.1
4080	-1.	2.25	0.	128.15
4081	-1.25	2.	0.	128.47
4082	-1.25	2.5	0.	128.78
4083	-2.	2.75	0.	120.58
4084	-1.75	3.	0.	122.98
4085	-7.75	8.5	0.	125.02
4086	-8.25	8.5	0.	125.03
4087	-8.	8.75	0.	125.01
4088	-8.5	7.75	0.	125.09
4089	-8.5	7.25	0.	125.13
4090	-8.75	7.5	0.	125.11
4091	-8.5	8.25	0.	125.05
4092	-8.75	8.	0.	125.07
4093	-8.75	7.	0.	125.14
4094	-8.5	6.75	0.	125.17
4095	-8.5	5.75	0.	125.24
4096	-8.5	5.25	0.	125.27
4097	-8.75	5.5	0.	125.23
4098	-8.5	6.25	0.	125.21
4099	-8.75	6.	0.	125.21
4100	-8.5	4.75	0.	125.28
4101	-8.75	5.	0.	125.25
4102	-8.5	3.75	0.	125.26
4103	-8.5	3.25	0.	125.23
4104	-8.75	3.5	0.	125.2
4105	-8.5	4.25	0.	125.28
4106	-8.75	4.	0.	125.23
4107	-8.5	2.75	0.	125.19
4108	-8.5	2.25	0.	125.14
4109	-8.75	2.5	0.	125.12
4110	-8.75	3.	0.	125.16
4111	-8.5	1.75	0.	125.11
4112	-8.5	1.25	0.	125.09
4113	-8.75	1.5	0.	125.05
4114	-8.75	2.	0.	125.08
4115	-8.5	0.75	0.	125.1
4116	-8.75	0.5	0.	125.08
4117	-8.5	0.25	0.	125.14
4118	-8.75	1.	0.	125.05
4119	-8.5	-0.75	0.	125.26
4120	-8.75	-0.5	0.	125.19
4121	-8.5	-0.25	0.	125.2
4122	-8.5	-1.25	0.	125.33
4123	-8.5	-1.75	0.	125.38
4124	-8.75	-1.5	0.	125.32
4125	-8.75	-1.	0.	125.26
4126	-8.75	-2.	0.	125.38
4127	-8.5	-2.25	0.	125.43
4128	-8.5	-3.25	0.	125.46
4129	-8.5	-3.75	0.	125.46
4130	-8.75	-3.5	0.	125.46
4131	-8.75	-3.	0.	125.45
4132	-8.25	-3.	0.	125.48
4133	-8.5	-2.75	0.	125.45
4134	-8.5	-4.25	0.	125.44
4135	-8.5	-4.75	0.	125.43
4136	-8.75	-4.5	0.	125.45
4137	-8.75	-4.	0.	125.46
4138	-8.5	-5.25	0.	125.41
4139	-8.5	-5.75	0.	125.39
4140	-8.75	-5.5	0.	125.42
4141	-8.75	-5.	0.	125.44
4142	-8.75	-6.	0.	125.4
4143	-8.5	-6.25	0.	125.37
4144	-8.5	-7.25	0.	125.33
4145	-8.5	-7.75	0.	125.32
4146	-8.75	-7.5	0.	125.35
4147	-8.75	-7.	0.	125.37
4148	-8.5	-6.75	0.	125.35
4149	8.5	7.75	0.	124.98
4150	8.5	8.25	0.	124.99
4151	8.75	8.	0.	124.98
4152	7.75	-8.5	0.	125.13
4153	8.25	-8.5	0.	125.14
4154	8.	-8.75	0.	125.14
4155	8.	-8.25	0.	125.14
4156	-8.5	-8.25	0.	125.3
4157	-8.75	-8.	0.	125.34
4158	-8.25	-8.5	0.	125.27
4159	-8.	-8.75	0.	125.23
4160	-7.75	-8.5	0.	125.2
4161	-6.75	-8.5	0.	125.06
4162	-6.25	-8.5	0.	124.99
4163	-6.5	-8.75	0.	125.02
4164	-7.25	-8.5	0.	125.13
4165	-7.	-8.75	0.	125.09
4166	-5.75	-8.5	0.	124.92
4167	-5.25	-8.5	0.	124.85
4168	-5.5	-8.75	0.	124.88
4169	-6.	-8.75	0.	124.95
4170	-4.75	-8.5	0.	124.78
4171	-4.25	-8.5	0.	124.72
4172	-4.5	-8.75	0.	124.75
4173	-5.	-8.75	0.	124.81
4174	-3.75	-8.5	0.	124.67
4175	-3.25	-8.5	0.	124.64
4176	-3.5	-8.75	0.	124.66
4177	-4.	-8.75	0.	124.7
4178	-3.	-8.75	0.	124.63
4179	-2.75	-8.5	0.	124.62
4180	-1.75	-8.5	0.	124.62
4181	-1.25	-8.5	0.	124.64
4182	-1.5	-8.75	0.	124.63
4183	-2.	-8.75	0.	124.62
4184	-2.25	-8.5	0.	124.61
4185	-1.	-8.75	0.	124.66
4186	-0.75	-8.5	0.	124.67
4187	0.25	-8.5	0.	124.76
4188	0.75	-8.5	0.	124.82
4189	0.5	-8.75	0.	124.79
4190	-8.6206e-012	-8.75	0.	124.74
4191	-0.25	-8.5	0.	124.72
4192	1.25	-8.5	0.	124.87
4193	1.75	-8.5	0.	124.91
4194	1.5	-8.75	0.	124.88
4195	1.	-8.75	0.	124.84
4196	2.	-8.75	0.	124.93
4197	2.25	-8.5	0.	124.96
4198	3.25	-8.5	0.	125.03
4199	3.75	-8.5	0.	125.05
4200	3.5	-8.75	0.	125.04
4201	2.75	-8.5	0.	124.99
4202	3.	-8.75	0.	125.01
4203	4.25	-8.5	0.	125.07
4204	4.75	-8.5	0.	125.09
4205	4.5	-8.75	0.	125.08
4206	4.	-8.75	0.	125.06
4207	5.	-8.75	0.	125.09
4208	5.25	-8.5	0.	125.1
4209	6.25	-8.5	0.	125.12
4210	6.75	-8.5	0.	125.12
4211	6.5	-8.75	0.	125.12
4212	6.	-8.75	0.	125.11
4213	5.75	-8.5	0.	125.11
4214	7.25	-8.5	0.	125.13
4215	7.5	-8.75	0.	125.13
4216	7.	-8.75	0.	125.13
4217	8.5	-7.75	0.	125.14
4218	8.5	-7.25	0.	125.13
4219	8.75	-7.5	0.	125.14
4220	8.5	-8.25	0.	125.14
4221	8.75	-8.	0.	125.15
4222	8.25	-8.	0.	125.14
4223	8.5	-6.75	0.	125.13
4224	8.5	-6.25	0.	125.12
4225	8.75	-6.5	0.	125.12
4226	8.75	-7.	0.	125.13
4227	8.5	-5.75	0.	125.11
4228	8.5	-5.25	0.	125.1
4229	8.75	-5.5	0.	125.1
4230	8.75	-6.	0.	125.11
4231	8.5	-4.75	0.	125.08
4232	8.5	-4.25	0.	125.07
4233	8.75	-4.5	0.	125.07
4234	8.75	-5.	0.	125.09
4235	8.75	-4.	0.	125.05
4236	8.5	-3.75	0.	125.05
4237	8.75	-3.	0.	125.01
4238	8.5	-2.75	0.	125.02
4239	8.5	-3.25	0.	125.03
4240	8.75	-2.	0.	124.97
4241	8.5	-2.25	0.	125.
4242	8.5	-1.75	0.	124.98
4243	8.75	-1.	0.	124.93
4244	8.5	-1.25	0.	124.96
4245	8.5	-0.75	0.	124.94
4246	8.5	0.25	0.	124.91
4247	8.5	0.75	0.	124.9
4248	8.75	0.5	0.	124.89
4249	8.75	1.124e-012	0.	124.9
4250	8.5	-0.25	0.	124.92
4251	8.5	1.25	0.	124.89
4252	8.5	1.75	0.	124.89
4253	8.75	1.5	0.	124.87
4254	8.75	1.	0.	124.88
4255	8.5	2.25	0.	124.89
4256	8.5	2.75	0.	124.89
4257	8.75	2.5	0.	124.87
4258	8.75	2.	0.	124.87
4259	8.25	3.	0.	124.91
4260	8.75	3.	0.	124.88
4261	8.5	3.25	0.	124.9
4262	8.75	4.	0.	124.9
4263	8.5	3.75	0.	124.91
4264	8.5	4.25	0.	124.92
4265	8.5	5.25	0.	124.94
4266	8.5	5.75	0.	124.95
4267	8.75	5.5	0.	124.93
4268	8.75	5.	0.	124.92
4269	8.5	4.75	0.	124.93
4270	8.5	6.25	0.	124.96
4271	8.5	6.75	0.	124.97
4272	8.75	6.5	0.	124.95
4273	8.75	6.	0.	124.94
4274	8.5	7.25	0.	124.97
4275	8.75	7.5	0.	124.97
4276	8.75	7.	0.	124.96
4277	8.25	8.5	0.	125.
4278	8.	8.75	0.	125.01
4279	7.75	8.5	0.	125.01
4280	6.75	8.5	0.	125.03
4281	6.25	8.5	0.	125.03
4282	6.5	8.75	0.	125.03
4283	7.	8.75	0.	125.02
4284	7.25	8.5	0.	125.02
4285	5.75	8.5	0.	125.04
4286	5.25	8.5	0.	125.05
4287	5.5	8.75	0.	125.04
4288	5.5	8.25	0.	125.05
4289	6.	8.75	0.	125.04
4290	4.75	8.5	0.	125.05
4291	4.25	8.5	0.	125.06
4292	4.5	8.75	0.	125.05
4293	5.	8.75	0.	125.05
4294	3.75	8.5	0.	125.06
4295	3.25	8.5	0.	125.05
4296	3.5	8.75	0.	125.05
4297	4.	8.75	0.	125.05
4298	3.	8.75	0.	125.04
4299	2.75	8.5	0.	125.05
4300	2.	8.75	0.	125.
4301	1.75	8.5	0.	125.01
4302	2.25	8.5	0.	125.03
4303	0.75	8.5	0.	124.93
4304	0.25	8.5	0.	124.88
4305	0.5	8.75	0.	124.89
4306	1.	8.75	0.	124.93
4307	1.25	8.5	0.	124.97
4308	-0.25	8.5	0.	124.83
4309	-0.75	8.5	0.	124.77
4310	-0.5	8.75	0.	124.79
4311	-2.1243e-011	8.75	0.	124.84
4312	-1.	8.75	0.	124.74
4313	-1.25	8.5	0.	124.72
4314	-2.25	8.5	0.	124.66
4315	-2.75	8.5	0.	124.66
4316	-2.5	8.75	0.	124.66
4317	-2.	8.75	0.	124.68
4318	-1.75	8.5	0.	124.69
4319	-3.25	8.5	0.	124.68
4320	-3.	8.75	0.	124.67
4321	-3.75	8.5	0.	124.72
4322	-4.	8.75	0.	124.73
4323	-4.25	8.5	0.	124.76
4324	-5.25	8.5	0.	124.86
4325	-5.75	8.5	0.	124.91
4326	-5.5	8.75	0.	124.87
4327	-4.75	8.5	0.	124.81
4328	-5.	8.75	0.	124.82
4329	-6.25	8.5	0.	124.95
4330	-6.75	8.5	0.	124.98
4331	-6.5	8.75	0.	124.94
4332	-6.	8.75	0.	124.91
4333	-7.25	8.5	0.	125.
4334	-7.5	8.75	0.	124.99
4335	-7.	8.75	0.	124.97
4336	-8.75	8.5	0.	125.04
4337	-8.5	8.75	0.	125.02
4338	8.75	8.5	0.	124.99
4339	8.5	8.75	0.	125.
4340	8.5	-8.75	0.	125.15
4341	8.75	-8.5	0.	125.15
4342	-8.5	-8.75	0.	125.3
4343	-8.75	-8.5	0.	125.33
4344	-7.5	9.25	0.	124.96
4345	-7.75	9.	0.	124.98
4346	-7.25	9.	0.	124.96
4347	-6.25	9.	0.	124.9
4348	-6.5	9.25	0.	124.9
4349	-6.75	9.	0.	124.93
4350	-5.75	9.	0.	124.87
4351	-6.	9.25	0.	124.87
4352	-5.5	9.25	0.	124.83
4353	-5.25	9.	0.	124.83
4354	-4.5	9.25	0.	124.75
4355	-4.25	9.	0.	124.75
4356	-4.5	8.75	0.	124.78
4357	-4.75	9.	0.	124.79
4358	-3.5	9.25	0.	124.68
4359	-3.5	8.75	0.	124.7
4360	-3.75	9.	0.	124.71
4361	-3.25	9.	0.	124.69
4362	-2.25	9.	0.	124.68
4363	-2.5	9.25	0.	124.66
4364	-2.75	9.	0.	124.67
4365	-1.75	9.	0.	124.69
4366	-2.	9.25	0.	124.67
4367	-1.25	9.	0.	124.72
4368	-1.5	9.25	0.	124.69
4369	-1.5	8.75	0.	124.7
4370	-0.75	9.	0.	124.76
4371	-1.	9.25	0.	124.72
4372	-0.25	9.	0.	124.8
4373	-0.5	9.25	0.	124.76
4374	0.25	9.	0.	124.85
4375	-1.1408e-011	9.25	0.	124.81
4376	0.5	9.25	0.	124.85
4377	0.75	9.	0.	124.89
4378	1.5	9.25	0.	124.93
4379	1.75	9.	0.	124.96
4380	1.25	9.	0.	124.93
4381	1.5	8.75	0.	124.97
4382	2.5	9.25	0.	124.99
4383	2.25	9.	0.	124.99
4384	2.75	9.	0.	125.01
4385	2.5	8.75	0.	125.02
4386	3.5	9.25	0.	125.03
4387	3.25	9.	0.	125.03
4388	3.75	9.	0.	125.04
4389	6.5	9.25	0.	125.03
4390	6.25	9.	0.	125.03
4391	6.75	9.	0.	125.03
4392	7.5	9.25	0.	125.02
4393	7.75	9.	0.	125.01
4394	7.25	9.	0.	125.02
4395	7.5	8.75	0.	125.01
4396	9.	8.25	0.	124.98
4397	9.	8.75	0.	124.99
4398	9.25	8.5	0.	124.99
4399	8.75	9.	0.	125.
4400	8.5	9.25	0.	125.
4401	8.25	9.	0.	125.
4402	9.	7.75	0.	124.97
4403	9.25	8.	0.	124.97
4404	9.	7.25	0.	124.96
4405	9.25	7.5	0.	124.96
4406	9.	6.75	0.	124.95
4407	9.25	7.	0.	124.95
4408	9.25	6.5	0.	124.93
4409	9.	6.25	0.	124.94
4410	9.25	5.5	0.	124.9
4411	9.	5.75	0.	124.92
4412	9.	5.25	0.	124.91
4413	9.25	4.5	0.	124.87
4414	9.	4.75	0.	124.9
4415	9.	4.25	0.	124.89
4416	8.75	4.5	0.	124.91
4417	9.25	3.5	0.	124.85
4418	9.	3.25	0.	124.86
4419	9.	3.75	0.	124.87
4420	8.75	3.5	0.	124.89
4421	9.	2.25	0.	124.85
4422	9.25	2.5	0.	124.83
4423	9.	2.75	0.	124.86
4424	9.	1.75	0.	124.85
4425	9.25	2.	0.	124.83
4426	9.25	1.5	0.	124.83
4427	9.	1.25	0.	124.86
4428	9.25	0.5	0.	124.85
4429	9.	0.25	0.	124.87
4430	9.	0.75	0.	124.86
4431	9.25	-0.5	0.	124.88
4432	9.	-0.25	0.	124.89
4433	9.	-0.75	0.	124.91
4434	8.75	-0.5	0.	124.91
4435	9.	-1.75	0.	124.95
4436	9.25	-1.5	0.	124.92
4437	9.	-1.25	0.	124.93
4438	8.75	-1.5	0.	124.95
4439	9.	-2.25	0.	124.97
4440	9.25	-2.	0.	124.94
4441	9.25	-2.5	0.	124.97
4442	9.	-2.75	0.	124.99
4443	8.75	-2.5	0.	124.99
4444	9.25	-3.5	0.	125.02
4445	9.	-3.75	0.	125.04
4446	9.	-3.25	0.	125.01
4447	8.75	-3.5	0.	125.04
4448	9.	-4.75	0.	125.08
4449	9.25	-4.5	0.	125.06
4450	9.	-4.25	0.	125.06
4451	9.	-5.25	0.	125.09
4452	9.25	-5.	0.	125.08
4453	9.25	-5.5	0.	125.1
4454	9.	-5.75	0.	125.11
4455	9.	-6.75	0.	125.13
4456	9.25	-6.5	0.	125.13
4457	9.	-6.25	0.	125.12
4458	9.	-7.25	0.	125.14
4459	9.25	-7.	0.	125.14
4460	9.25	-7.5	0.	125.15
4461	9.	-7.75	0.	125.15
4462	8.75	-9.	0.	125.15
4463	8.5	-9.25	0.	125.15
4464	8.25	-9.	0.	125.14
4465	9.	-8.75	0.	125.16
4466	9.25	-8.5	0.	125.16
4467	9.	-8.25	0.	125.15
4468	7.5	-9.25	0.	125.13
4469	7.25	-9.	0.	125.13
4470	7.75	-9.	0.	125.13
4471	6.25	-9.	0.	125.12
4472	6.5	-9.25	0.	125.12
4473	6.75	-9.	0.	125.12
4474	5.75	-9.	0.	125.11
4475	6.	-9.25	0.	125.11
4476	5.25	-9.	0.	125.1
4477	5.5	-9.25	0.	125.1
4478	5.5	-8.75	0.	125.11
4479	4.75	-9.	0.	125.08
4480	5.	-9.25	0.	125.09
4481	4.5	-9.25	0.	125.07
4482	4.25	-9.	0.	125.06
4483	3.5	-9.25	0.	125.03
4484	3.75	-9.	0.	125.04
4485	3.25	-9.	0.	125.01
4486	2.5	-9.25	0.	124.96
4487	2.25	-9.	0.	124.94
4488	2.5	-8.75	0.	124.97
4489	2.75	-9.	0.	124.98
4490	1.25	-9.	0.	124.86
4491	1.5	-9.25	0.	124.88
4492	1.75	-9.	0.	124.9
4493	0.75	-9.	0.	124.81
4494	1.	-9.25	0.	124.83
4495	0.5	-9.25	0.	124.78
4496	0.25	-9.	0.	124.76
4497	-0.5	-9.25	0.	124.7
4498	-0.75	-9.	0.	124.68
4499	-0.25	-9.	0.	124.72
4500	-0.5	-8.75	0.	124.7
4501	-1.5	-9.25	0.	124.64
4502	-1.75	-9.	0.	124.63
4503	-1.25	-9.	0.	124.65
4504	-2.5	-9.25	0.	124.63
4505	-2.75	-9.	0.	124.63
4506	-2.25	-9.	0.	124.62
4507	-2.5	-8.75	0.	124.62
4508	-3.5	-9.25	0.	124.67
4509	-3.25	-9.	0.	124.65
4510	-3.75	-9.	0.	124.68
4511	-4.75	-9.	0.	124.78
4512	-4.5	-9.25	0.	124.76
4513	-4.25	-9.	0.	124.73
4514	-5.25	-9.	0.	124.85
4515	-5.	-9.25	0.	124.81
4516	-5.75	-9.	0.	124.91
4517	-5.5	-9.25	0.	124.88
4518	-6.25	-9.	0.	124.98
4519	-6.	-9.25	0.	124.95
4520	-6.5	-9.25	0.	125.02
4521	-6.75	-9.	0.	125.06
4522	-8.75	-9.	0.	125.32
4523	-8.5	-9.25	0.	125.29
4524	-8.25	-9.	0.	125.26
4525	-9.25	-7.5	0.	125.41
4526	-9.	-7.75	0.	125.38
4527	-9.	-7.25	0.	125.39
4528	-9.	-6.25	0.	125.42
4529	-9.25	-6.5	0.	125.45
4530	-9.	-6.75	0.	125.41
4531	-8.75	-6.5	0.	125.39
4532	-9.	-5.75	0.	125.44
4533	-9.25	-6.	0.	125.46
4534	-9.	-5.25	0.	125.45
4535	-9.25	-5.5	0.	125.48
4536	-9.	-4.75	0.	125.46
4537	-9.25	-5.	0.	125.49
4538	-9.25	-4.5	0.	125.49
4539	-9.	-4.25	0.	125.47
4540	-9.	-2.25	0.	125.37
4541	-9.25	-2.5	0.	125.39
4542	-9.	-2.75	0.	125.42
4543	-8.75	-2.5	0.	125.42
4544	-9.	-1.75	0.	125.32
4545	-9.25	-2.	0.	125.33
4546	-9.	-1.25	0.	125.25
4547	-9.25	-1.5	0.	125.26
4548	-9.	-0.75	0.	125.18
4549	-9.25	-1.	0.	125.18
4550	-9.	-0.25	0.	125.12
4551	-9.25	-0.5	0.	125.1
4552	-9.	0.25	0.	125.06
4553	-9.25	-2.3023e-012	0.	125.03
4554	-8.75	-6.0198e-012	0.	125.13
4555	-9.25	0.5	0.	124.98
4556	-9.	0.75	0.	125.03
4557	-9.25	1.5	0.	124.95
4558	-9.	1.25	0.	125.01
4559	-9.	1.75	0.	125.02
4560	-9.	2.75	0.	125.09
4561	-9.25	2.5	0.	125.01
4562	-9.	2.25	0.	125.05
4563	-9.	3.25	0.	125.13
4564	-9.25	3.	0.	125.06
4565	-9.25	3.5	0.	125.11
4566	-9.	3.75	0.	125.17
4567	-9.25	4.5	0.	125.18
4568	-8.75	4.5	0.	125.25
4569	-9.	4.75	0.	125.21
4570	-9.	4.25	0.	125.2
4571	-9.25	5.5	0.	125.19
4572	-9.	5.25	0.	125.21
4573	-9.	5.75	0.	125.2
4574	-9.	6.75	0.	125.15
4575	-9.25	6.5	0.	125.16
4576	-8.75	6.5	0.	125.18
4577	-9.	6.25	0.	125.18
4578	-9.	7.25	0.	125.12
4579	-9.25	7.	0.	125.13
4580	-9.	7.75	0.	125.08
4581	-9.25	7.5	0.	125.1
4582	-9.	8.25	0.	125.05
4583	-9.25	8.	0.	125.07
4584	-9.	8.75	0.	125.03
4585	-9.25	8.5	0.	125.04
4586	-1.5	2.25	0.	129.07
4587	-1.75	2.5	0.	125.04
4588	-1.5	2.75	0.	127.47
4589	-1.5	-0.25	0.	129.02
4590	-1.75	-0.5	0.	124.99
4591	-1.25	-0.5	0.	128.72
4592	-3.5	2.25	0.	129.09
4593	-3.25	2.5	0.	125.06
4594	-3.75	2.5	0.	128.8
4595	-9.	9.25	0.	125.
4596	-9.25	9.	0.	125.01
4597	-8.75	9.	0.	125.01
4598	9.	9.25	0.	125.
4599	9.25	9.	0.	124.99
4600	9.25	-9.	0.	125.17
4601	9.	-9.25	0.	125.16
4602	-9.	-9.25	0.	125.35
4603	-9.25	-9.	0.	125.37
4604	-9.	-8.75	0.	125.35
4605	-1.5	1.75	0.	130.02
4606	-1.5	1.25	0.	132.
4607	-1.5	0.75	0.	131.99
4608	-1.5	0.25	0.	129.99
4609	-2.25	-0.5	0.	114.87
4610	-2.75	-0.5	0.	114.86
4611	-3.25	-0.5	0.	124.99
4612	-3.5	0.25	0.	130.02
4613	-3.5	-0.25	0.	129.05
4614	-3.5	0.75	0.	132.01
4615	-3.5	1.25	0.	132.02
4616	-3.5	1.75	0.	130.05
4617	-2.25	2.5	0.	114.92
4618	-2.75	2.5	0.	114.93
4619	-8.75	9.5	0.	124.99
4620	-9.25	9.5	0.	125.
4621	-8.25	9.5	0.	124.98
4622	-8.5	9.25	0.	124.99
4623	-7.75	9.5	0.	124.96
4624	-8.	9.25	0.	124.98
4625	-7.25	9.5	0.	124.93
4626	-6.75	9.5	0.	124.9
4627	-7.	9.25	0.	124.93
4628	-6.25	9.5	0.	124.87
4629	-5.75	9.5	0.	124.83
4630	-5.25	9.5	0.	124.79
4631	-4.75	9.5	0.	124.75
4632	-5.	9.25	0.	124.79
4633	-4.25	9.5	0.	124.71
4634	-3.75	9.5	0.	124.68
4635	-4.	9.25	0.	124.71
4636	-3.25	9.5	0.	124.66
4637	-2.75	9.5	0.	124.65
4638	-3.	9.25	0.	124.66
4639	-2.25	9.5	0.	124.65
4640	-1.75	9.5	0.	124.67
4641	-1.25	9.5	0.	124.69
4642	-0.75	9.5	0.	124.73
4643	-0.25	9.5	0.	124.77
4644	0.25	9.5	0.	124.81
4645	0.75	9.5	0.	124.86
4646	1.25	9.5	0.	124.9
4647	1.	9.25	0.	124.9
4648	1.75	9.5	0.	124.94
4649	2.25	9.5	0.	124.97
4650	2.	9.25	0.	124.97
4651	2.75	9.5	0.	124.99
4652	3.25	9.5	0.	125.01
4653	3.	9.25	0.	125.01
4654	3.75	9.5	0.	125.03
4655	4.25	9.5	0.	125.04
4656	4.	9.25	0.	125.04
4657	4.75	9.5	0.	125.04
4658	4.5	9.25	0.	125.04
4659	5.25	9.5	0.	125.04
4660	5.	9.25	0.	125.04
4661	5.75	9.5	0.	125.04
4662	5.5	9.25	0.	125.04
4663	6.25	9.5	0.	125.04
4664	6.	9.25	0.	125.04
4665	6.75	9.5	0.	125.03
4666	7.25	9.5	0.	125.02
4667	7.	9.25	0.	125.02
4668	7.75	9.5	0.	125.02
4669	8.25	9.5	0.	125.01
4670	8.	9.25	0.	125.01
4671	8.75	9.5	0.	125.
4672	9.25	9.5	0.	125.
4673	9.5	9.25	0.	125.
4674	9.5	8.75	0.	124.99
4675	9.5	8.25	0.	124.98
4676	9.5	7.75	0.	124.97
4677	9.5	7.25	0.	124.95
4678	9.5	6.75	0.	124.93
4679	9.5	6.25	0.	124.92
4680	9.5	5.75	0.	124.9
4681	9.25	6.	0.	124.92
4682	9.5	5.25	0.	124.88
4683	9.5	4.75	0.	124.87
4684	9.25	5.	0.	124.89
4685	9.5	4.25	0.	124.85
4686	9.5	3.75	0.	124.83
4687	9.25	4.	0.	124.86
4688	9.5	3.25	0.	124.82
4689	9.5	2.75	0.	124.81
4690	9.25	3.	0.	124.84
4691	9.5	2.25	0.	124.81
4692	9.5	1.75	0.	124.81
4693	9.5	1.25	0.	124.81
4694	9.5	0.75	0.	124.82
4695	9.25	1.	0.	124.84
4696	9.5	0.25	0.	124.83
4697	9.5	-0.25	0.	124.85
4698	9.25	7.2367e-013	0.	124.86
4699	9.5	-0.75	0.	124.87
4700	9.5	-1.25	0.	124.89
4701	9.25	-1.	0.	124.9
4702	9.5	-1.75	0.	124.92
4703	9.5	-2.25	0.	124.94
4704	9.5	-2.75	0.	124.97
4705	9.5	-3.25	0.	125.
4706	9.25	-3.	0.	124.99
4707	9.5	-3.75	0.	125.02
4708	9.5	-4.25	0.	125.05
4709	9.25	-4.	0.	125.04
4710	9.5	-4.75	0.	125.07
4711	9.5	-5.25	0.	125.09
4712	9.5	-5.75	0.	125.11
4713	9.5	-6.25	0.	125.13
4714	9.25	-6.	0.	125.12
4715	9.5	-6.75	0.	125.14
4716	9.5	-7.25	0.	125.15
4717	9.5	-7.75	0.	125.16
4718	9.5	-8.25	0.	125.17
4719	9.25	-8.	0.	125.16
4720	9.5	-8.75	0.	125.17
4721	9.5	-9.25	0.	125.17
4722	9.25	-9.5	0.	125.17
4723	8.75	-9.5	0.	125.15
4724	8.25	-9.5	0.	125.14
4725	7.75	-9.5	0.	125.13
4726	8.	-9.25	0.	125.14
4727	7.25	-9.5	0.	125.13
4728	6.75	-9.5	0.	125.12
4729	7.	-9.25	0.	125.12
4730	6.25	-9.5	0.	125.11
4731	5.75	-9.5	0.	125.1
4732	5.25	-9.5	0.	125.09
4733	4.75	-9.5	0.	125.08
4734	4.25	-9.5	0.	125.06
4735	3.75	-9.5	0.	125.04
4736	4.	-9.25	0.	125.05
4737	3.25	-9.5	0.	125.01
4738	2.75	-9.5	0.	124.97
4739	3.	-9.25	0.	125.
4740	2.25	-9.5	0.	124.94
4741	1.75	-9.5	0.	124.9
4742	2.	-9.25	0.	124.92
4743	1.25	-9.5	0.	124.85
4744	0.75	-9.5	0.	124.81
4745	0.25	-9.5	0.	124.76
4746	-0.25	-9.5	0.	124.72
4747	-4.593e-012	-9.25	0.	124.74
4748	-0.75	-9.5	0.	124.68
4749	-1.25	-9.5	0.	124.66
4750	-1.	-9.25	0.	124.66
4751	-1.75	-9.5	0.	124.64
4752	-2.25	-9.5	0.	124.63
4753	-2.	-9.25	0.	124.63
4754	-2.75	-9.5	0.	124.64
4755	-3.25	-9.5	0.	124.66
4756	-3.	-9.25	0.	124.64
4757	-3.75	-9.5	0.	124.69
4758	-4.25	-9.5	0.	124.73
4759	-4.	-9.25	0.	124.71
4760	-4.75	-9.5	0.	124.79
4761	-5.25	-9.5	0.	124.85
4762	-5.75	-9.5	0.	124.91
4763	-6.25	-9.5	0.	124.98
4764	-6.75	-9.5	0.	125.05
4765	-7.25	-9.5	0.	125.12
4766	-7.	-9.25	0.	125.09
4767	-7.75	-9.5	0.	125.19
4768	-7.5	-9.25	0.	125.16
4769	-8.25	-9.5	0.	125.26
4770	-8.	-9.25	0.	125.23
4771	-8.75	-9.5	0.	125.32
4772	-9.25	-9.5	0.	125.37
4773	-9.5	-9.25	0.	125.4
4774	-9.5	-8.75	0.	125.41
4775	-9.5	-8.25	0.	125.42
4776	-9.25	-8.5	0.	125.38
4777	-9.5	-7.75	0.	125.43
4778	-9.25	-8.	0.	125.4
4779	-9.5	-7.25	0.	125.45
4780	-9.5	-6.75	0.	125.47
4781	-9.25	-7.	0.	125.43
4782	-9.5	-6.25	0.	125.48
4783	-9.5	-5.75	0.	125.5
4784	-9.5	-5.25	0.	125.51
4785	-9.5	-4.75	0.	125.51
4786	-9.5	-4.25	0.	125.51
4787	-9.5	-3.75	0.	125.49
4788	-9.25	-4.	0.	125.48
4789	-9.5	-3.25	0.	125.46
4790	-9.25	-3.5	0.	125.47
4791	-9.5	-2.75	0.	125.41
4792	-9.25	-3.	0.	125.44
4793	-9.5	-2.25	0.	125.34
4794	-9.5	-1.75	0.	125.27
4795	-9.5	-1.25	0.	125.18
4796	-9.5	-0.75	0.	125.1
4797	-9.5	-0.25	0.	125.02
4798	-9.5	0.25	0.	124.95
4799	-9.5	0.75	0.	124.91
4800	-9.5	1.25	0.	124.89
4801	-9.25	1.	0.	124.95
4802	-9.5	1.75	0.	124.9
4803	-9.5	2.25	0.	124.94
4804	-9.25	2.	0.	124.97
4805	-9.5	2.75	0.	124.98
4806	-9.5	3.25	0.	125.03
4807	-9.5	3.75	0.	125.09
4808	-9.5	4.25	0.	125.13
4809	-9.25	4.	0.	125.15
4810	-9.5	4.75	0.	125.16
4811	-9.5	5.25	0.	125.17
4812	-9.25	5.	0.	125.19
4813	-9.5	5.75	0.	125.17
4814	-9.5	6.25	0.	125.16
4815	-9.25	6.	0.	125.18
4816	-9.5	6.75	0.	125.14
4817	-9.5	7.25	0.	125.11
4818	-9.5	7.75	0.	125.08
4819	-9.5	8.25	0.	125.05
4820	-9.5	8.75	0.	125.03
4821	-9.5	9.25	0.	125.01
4822	4.25	2.	0.	125.09
4823	4.75	2.	0.	125.07
4824	-2.	-2.75	0.	123.2
4825	-6.75	1.	0.	125.24
4826	-5.75	2.5	0.	126.01
4827	-4.25	2.5	0.	127.8
4828	-4.5	2.25	0.	127.11
4829	-3.5	-4.25	0.	124.24
4830	-6.5	4.25	0.	125.75
4831	-0.75	-0.5	0.	127.71
4832	5.25	3.8166e-012	0.	125.06
4833	5.75	3.0106e-012	0.	125.04
4834	3.	-6.25	0.	125.13
4835	3.	-5.75	0.	125.18
4836	3.75	2.	0.	125.12
4837	-7.75	-9.	0.	125.19
4838	5.	0.25	0.	125.06
4839	4.75	4.2177e-012	0.	125.08
4840	5.	-6.25	0.	125.16
4841	-3.	6.75	0.	124.4
4842	4.75	9.	0.	125.04
4843	4.25	9.	0.	125.04
4844	0.25	-0.5	0.	126.32
4845	0.75	-0.5	0.	125.92
4846	5.25	4.	0.	125.13
4847	-5.	6.25	0.	125.05
4848	5.	6.25	0.	125.14
4849	5.	6.75	0.	125.12
4850	5.25	6.5	0.	125.12
4851	-1.5	3.75	0.	124.03
4852	-1.5	4.25	0.	123.91
4853	-5.75	-4.	0.	125.26
4854	-6.25	-4.	0.	125.36
4855	5.75	9.	0.	125.04
4856	-3.	4.25	0.	122.78
4857	-8.	-2.75	0.	125.5
4858	-8.25	-2.5	0.	125.47
4859	-9.	-8.25	0.	125.36
4860	5.75	-5.	0.	125.18
4861	5.5	-5.25	0.	125.18
4862	1.	-4.75	0.	125.12
4863	1.	-4.25	0.	125.22
4864	5.75	2.	0.	125.02
4865	6.25	2.	0.	125.
4866	-6.75	-1.	0.	125.69
4867	-2.	-4.75	0.	124.2
4868	-6.	-5.25	0.	125.1
4869	6.25	2.3086e-012	0.	125.02
4870	7.	-5.75	0.	125.13
4871	7.	-5.25	0.	125.13
4872	2.25	-0.5	0.	125.37
4873	2.75	-0.5	0.	125.28
4874	-5.	-5.75	0.	124.83
4875	-5.	-6.25	0.	124.81
4876	5.5722e-012	-4.75	0.	124.86
4877	-7.5	-8.75	0.	125.16
4878	5.	5.75	0.	125.16
4879	3.75	-2.	0.	125.32
4880	5.75	-4.	0.	125.18
4881	-3.	5.75	0.	124.03
4882	-6.25	4.	0.	125.87
4883	7.	-4.25	0.	125.12
4884	7.	-4.75	0.	125.13
4885	1.75	-0.5	0.	125.49
4886	1.25	-0.5	0.	125.66
4887	-3.5	-1.25	0.	124.81
4888	-3.5	-0.75	0.	127.41
4889	-9.	-3.25	0.	125.45
4890	5.5	2.25	0.	125.04
4891	-7.25	-9.	0.	125.13
4892	4.25	4.4143e-012	0.	125.1
4893	4.	5.25	0.	125.27
4894	4.	4.75	0.	125.27
4895	3.	5.75	0.	125.35
4896	5.	-6.75	0.	125.15
4897	-5.	5.75	0.	125.16
4898	-0.25	-0.5	0.	126.89
4899	9.6566e-011	-0.75	0.	126.58
4900	6.75	-2.	0.	125.08
4901	-1.5	5.25	0.	124.14
4902	-1.75	5.	0.	123.82
4903	-1.5	4.75	0.	124.
4904	-5.75	-5.	0.	125.07
4905	1.	-5.25	0.	125.05
4906	2.	4.75	0.	125.59
4907	-9.	-3.75	0.	125.46
4908	2.	6.25	0.	125.34
4909	2.25	6.	0.	125.37
4910	0.25	2.	0.	126.01
4911	0.75	2.	0.	125.68
4912	-3.5	-1.75	0.	123.94
4913	5.	7.25	0.	125.1
4914	4.75	4.	0.	125.17
4915	5.25	2.	0.	125.05
4916	3.	6.25	0.	125.29
4917	2.75	6.	0.	125.34
4918	-7.5	3.25	0.	125.46
4919	4.	-4.75	0.	125.25
4920	-4.	-6.75	0.	124.63
4921	-8.25	9.	0.	125.
4922	-3.	-6.25	0.	124.47
4923	-3.	-6.75	0.	124.52
4924	6.25	-5.	0.	125.16
4925	6.75	-5.	0.	125.14
4926	6.	-6.75	0.	125.14
4927	5.25	9.	0.	125.04
4928	6.75	2.	0.	124.98
4929	-1.5	3.25	0.	124.88
4930	-6.5	2.75	0.	125.69
4931	-6.75	-6.	0.	125.16
4932	4.	5.75	0.	125.25
4933	-6.25	2.5	0.	125.74
4934	-2.	-4.25	0.	124.05
4935	-3.5	-3.75	0.	124.13
4936	1.	-6.25	0.	124.94
4937	1.	-6.75	0.	124.91
4938	-0.25	-7.	0.	124.71
4939	-6.5502e-011	6.75	0.	124.99
4940	-6.111e-011	7.25	0.	124.94
4941	3.	6.75	0.	125.24
4942	1.	-5.75	0.	124.99
4943	-6.75	-4.	0.	125.41
4944	3.	7.25	0.	125.18
4945	-6.5	2.25	0.	125.54
4946	4.25	-2.	0.	125.26
4947	-3.	6.25	0.	124.24
4948	2.	6.75	0.	125.26
4949	-2.	2.	0.	94.751
4950	-3.	2.	0.	94.756
4951	-2.	0.	0.	94.715
4952	-3.	0.	0.	94.738
4953	-2.5	2.	0.	108.62
4954	-2.	1.5	0.	98.769
4955	-2.	1.	0.	97.739
4956	-2.	0.5	0.	98.757
4957	-3.	1.5	0.	98.782
4958	-3.	1.	0.	97.748
4959	-3.	0.5	0.	98.759
4960	-2.5	0.	0.	108.58
4961	-2.5	1.5	0.	103.19
4962	-2.5	1.	0.	101.06
4963	-2.5	0.5	0.	103.18
4964	-2.25	2.	0.	101.63
4965	-2.	1.75	0.	96.757
4966	-2.75	2.	0.	101.64
4967	-3.	1.75	0.	96.766
4968	-2.	0.25	0.	96.733
4969	-2.25	0.	0.	101.6
4970	-3.	0.25	0.	96.746
4971	-2.75	0.	0.	101.61
4972	-2.5	1.75	0.	105.86
4973	-2.	1.25	0.	98.215
4974	-2.25	1.5	0.	100.93
4975	-2.	0.75	0.	98.209
4976	-2.25	1.	0.	99.4
4977	-2.25	0.5	0.	100.92
4978	-3.	1.25	0.	98.226
4979	-2.75	1.5	0.	100.94
4980	-3.	0.75	0.	98.215
4981	-2.75	1.	0.	99.404
4982	-2.75	0.5	0.	100.92
4983	-2.5	0.25	0.	105.83
4984	-2.5	1.25	0.	102.13
4985	-2.5	0.75	0.	102.12
