Node Number	X Location (mm)	Y Location (mm)	Z Location (mm)	Equivalent (von-Mises) Stress (MPa)
1	7.	5.	0.	135.68
2	7.	4.	0.	136.61
3	9.	5.	0.	137.06
4	9.	4.	0.	137.04
5	4.	6.	0.	133.13
6	4.	5.	0.	132.54
7	5.	6.	0.	134.38
8	5.	5.	0.	132.83
9	4.	-5.	0.	134.34
10	4.	-6.	0.	134.31
11	6.	-5.	0.	134.48
12	6.	-6.	0.	134.25
13	-8.	3.	0.	135.21
14	-8.	2.	0.	135.25
15	-6.	3.	0.	134.81
16	-6.	2.	0.	134.74
17	10.	10.	0.	125.
18	-10.	10.	0.	125.
19	10.	-10.	0.	127.4
20	-10.	-10.	0.	124.46
21	7.	4.5	0.	144.8
22	7.5	5.	0.	117.65
23	8.	5.	0.	123.16
24	8.5	5.	0.	118.53
25	7.5	4.	0.	118.02
26	8.	4.	0.	123.47
27	8.5	4.	0.	118.81
28	9.	4.5	0.	147.1
29	4.	5.5	0.	142.14
30	4.5	6.	0.	111.18
31	4.5	5.	0.	110.16
32	5.	5.5	0.	143.11
33	4.	-5.5	0.	142.76
34	4.5	-5.	0.	116.33
35	5.	-5.	0.	121.4
36	5.5	-5.	0.	116.31
37	4.5	-6.	0.	116.2
38	5.	-6.	0.	121.31
39	5.5	-6.	0.	116.27
40	6.	-5.5	0.	142.83
41	-8.	2.5	0.	143.98
42	-7.5	3.	0.	117.09
43	-7.	3.	0.	122.01
44	-6.5	3.	0.	116.74
45	-7.5	2.	0.	117.05
46	-7.	2.	0.	122.
47	-6.5	2.	0.	116.77
48	-6.	2.5	0.	143.17
49	9.5	10.	0.	124.99
50	9.	10.	0.	124.93
51	8.5	10.	0.	124.84
52	8.	10.	0.	124.76
53	7.5	10.	0.	124.73
54	7.	10.	0.	124.73
55	6.5	10.	0.	124.74
56	6.	10.	0.	124.74
57	5.5	10.	0.	124.73
58	5.	10.	0.	124.74
59	4.5	10.	0.	124.82
60	4.	10.	0.	124.98
61	3.5	10.	0.	125.22
62	3.	10.	0.	125.48
63	2.5	10.	0.	125.71
64	2.	10.	0.	125.89
65	1.5	10.	0.	126.
66	1.	10.	0.	126.04
67	0.5	10.	0.	126.04
68	-5.2042e-015	10.	0.	126.
69	-0.5	10.	0.	125.95
70	-1.	10.	0.	125.88
71	-1.5	10.	0.	125.8
72	-2.	10.	0.	125.71
73	-2.5	10.	0.	125.62
74	-3.	10.	0.	125.51
75	-3.5	10.	0.	125.39
76	-4.	10.	0.	125.27
77	-4.5	10.	0.	125.15
78	-5.	10.	0.	125.03
79	-5.5	10.	0.	124.93
80	-6.	10.	0.	124.85
81	-6.5	10.	0.	124.8
82	-7.	10.	0.	124.78
83	-7.5	10.	0.	124.81
84	-8.	10.	0.	124.85
85	-8.5	10.	0.	124.91
86	-9.	10.	0.	124.97
87	-9.5	10.	0.	125.
88	10.	9.5	0.	125.
89	10.	9.	0.	125.15
90	10.	8.5	0.	125.46
91	10.	8.	0.	125.99
92	10.	7.5	0.	126.86
93	10.	7.	0.	128.26
94	10.	6.5	0.	130.34
95	10.	6.	0.	132.69
96	10.	5.5	0.	132.38
97	10.	5.	0.	127.25
98	10.	4.5	0.	122.78
99	10.	4.	0.	127.66
100	10.	3.5	0.	133.06
101	10.	3.	0.	133.46
102	10.	2.5	0.	131.13
103	10.	2.	0.	129.05
104	10.	1.5	0.	127.63
105	10.	1.	0.	126.77
106	10.	0.5	0.	126.29
107	10.	-5.2042e-015	0.	126.07
108	10.	-0.5	0.	126.01
109	10.	-1.	0.	126.04
110	10.	-1.5	0.	126.09
111	10.	-2.	0.	126.12
112	10.	-2.5	0.	126.08
113	10.	-3.	0.	125.93
114	10.	-3.5	0.	125.65
115	10.	-4.	0.	125.27
116	10.	-4.5	0.	124.88
117	10.	-5.	0.	124.59
118	10.	-5.5	0.	124.53
119	10.	-6.	0.	124.75
120	10.	-6.5	0.	125.19
121	10.	-7.	0.	125.75
122	10.	-7.5	0.	126.29
123	10.	-8.	0.	126.74
124	10.	-8.5	0.	127.06
125	10.	-9.	0.	127.26
126	10.	-9.5	0.	127.36
127	-10.	9.5	0.	125.
128	-10.	9.	0.	125.06
129	-10.	8.5	0.	125.18
130	-10.	8.	0.	125.37
131	-10.	7.5	0.	125.63
132	-10.	7.	0.	125.98
133	-10.	6.5	0.	126.44
134	-10.	6.	0.	127.03
135	-10.	5.5	0.	127.7
136	-10.	5.	0.	128.33
137	-10.	4.5	0.	128.63
138	-10.	4.	0.	128.13
139	-10.	3.5	0.	126.55
140	-10.	3.	0.	124.51
141	-10.	2.5	0.	123.5
142	-10.	2.	0.	124.45
143	-10.	1.5	0.	126.43
144	-10.	1.	0.	127.97
145	-10.	0.5	0.	128.42
146	-10.	-5.2042e-015	0.	128.09
147	-10.	-0.5	0.	127.42
148	-10.	-1.	0.	126.71
149	-10.	-1.5	0.	126.1
150	-10.	-2.	0.	125.62
151	-10.	-2.5	0.	125.26
152	-10.	-3.	0.	125.
153	-10.	-3.5	0.	124.81
154	-10.	-4.	0.	124.68
155	-10.	-4.5	0.	124.59
156	-10.	-5.	0.	124.53
157	-10.	-5.5	0.	124.49
158	-10.	-6.	0.	124.47
159	-10.	-6.5	0.	124.46
160	-10.	-7.	0.	124.46
161	-10.	-7.5	0.	124.45
162	-10.	-8.	0.	124.46
163	-10.	-8.5	0.	124.46
164	-10.	-9.	0.	124.46
165	-10.	-9.5	0.	124.46
166	-9.5	-10.	0.	124.53
167	-9.	-10.	0.	124.6
168	-8.5	-10.	0.	124.66
169	-8.	-10.	0.	124.73
170	-7.5	-10.	0.	124.8
171	-7.	-10.	0.	124.87
172	-6.5	-10.	0.	124.95
173	-6.	-10.	0.	125.03
174	-5.5	-10.	0.	125.11
175	-5.	-10.	0.	125.2
176	-4.5	-10.	0.	125.29
177	-4.	-10.	0.	125.39
178	-3.5	-10.	0.	125.49
179	-3.	-10.	0.	125.6
180	-2.5	-10.	0.	125.71
181	-2.	-10.	0.	125.83
182	-1.5	-10.	0.	125.95
183	-1.	-10.	0.	126.06
184	-0.5	-10.	0.	126.17
185	5.2042e-015	-10.	0.	126.25
186	0.5	-10.	0.	126.29
187	1.	-10.	0.	126.25
188	1.5	-10.	0.	126.1
189	2.	-10.	0.	125.8
190	2.5	-10.	0.	125.3
191	3.	-10.	0.	124.63
192	3.5	-10.	0.	123.85
193	4.	-10.	0.	123.08
194	4.5	-10.	0.	122.51
195	5.	-10.	0.	122.28
196	5.5	-10.	0.	122.46
197	6.	-10.	0.	122.99
198	6.5	-10.	0.	123.72
199	7.	-10.	0.	124.49
200	7.5	-10.	0.	125.18
201	8.	-10.	0.	125.72
202	8.5	-10.	0.	126.15
203	9.	-10.	0.	126.51
204	9.5	-10.	0.	126.9
205	-0.5	-1.	0.	126.03
206	-1.	-1.5	0.	126.07
207	0.5	-5.3198e-011	0.	125.77
208	-7.2176e-011	-0.5	0.	125.93
209	-1.	-2.	0.	126.05
210	-1.5	-2.	0.	126.02
211	-2.	-2.5	0.	125.9
212	-9.7298e-011	-1.1414e-010	0.	125.82
213	-2.	-2.	0.	125.98
214	-0.5	-0.5	0.	125.96
215	-1.5	-1.5	0.	126.06
216	1.	7.9336e-013	0.	125.69
217	0.5	0.5	0.	125.67
218	-0.5	-2.	0.	126.09
219	-4.8036e-011	-1.	0.	126.02
220	-1.5	-2.5	0.	125.95
221	-2.5	-2.5	0.	125.82
222	-1.1588e-010	0.5	0.	125.71
223	-2.5	-2.	0.	125.93
224	-0.5	-1.567e-010	0.	125.86
225	-2.	-1.5	0.	126.05
226	-1.	-0.5	0.	125.98
227	1.5	3.3796e-011	0.	125.56
228	-1.5	-1.	0.	126.06
229	1.	0.5	0.	125.6
230	1.	-0.5	0.	125.8
231	0.5	1.	0.	125.58
232	-0.5	-2.5	0.	126.07
233	-3.0734e-011	-1.5	0.	126.09
234	0.5	-1.	0.	125.99
235	-1.	-3.	0.	125.93
236	-1.5	-3.	0.	125.87
237	-2.5	-3.	0.	125.72
238	-3.	-2.5	0.	125.73
239	-3.	-2.	0.	125.85
240	-0.5	0.5	0.	125.74
241	-3.	-3.5	0.	125.52
242	-2.5	-1.5	0.	126.03
243	-1.	-1.6521e-010	0.	125.89
244	2.	5.3028e-011	0.	125.38
245	-1.5	-0.5	0.	126.02
246	1.5	0.5	0.	125.49
247	1.5	-0.5	0.	125.67
248	-2.	-1.	0.	126.08
249	1.	1.	0.	125.53
250	-0.5	-3.	0.	126.01
251	-2.0099e-011	-2.	0.	126.14
252	1.	-1.	0.	125.93
253	0.5	1.5	0.	125.51
254	0.5	-1.5	0.	126.09
255	-1.213e-010	1.5	0.	125.5
256	-1.1244e-010	2.	0.	125.41
257	-1.5	-3.5	0.	125.77
258	-2.5	-3.5	0.	125.62
259	-3.5	-2.5	0.	125.59
260	-3.5	-2.	0.	125.73
261	-0.5	1.	0.	125.61
262	-0.5	2.5	0.	125.27
263	-3.5	-3.5	0.	125.39
264	-3.	-1.5	0.	125.99
265	-1.	0.5	0.	125.77
266	2.5	5.8242e-011	0.	125.15
267	-1.5	-1.7231e-010	0.	125.94
268	2.	0.5	0.	125.33
269	2.	-0.5	0.	125.47
270	-2.	-0.5	0.	126.08
271	1.5	1.	0.	125.45
272	-1.0016e-010	2.5	0.	125.32
273	-0.5	-3.5	0.	125.9
274	-1.4604e-011	-2.5	0.	126.14
275	1.5	-1.	0.	125.81
276	-2.5	-1.	0.	126.11
277	1.	1.5	0.	125.49
278	0.5	2.	0.	125.44
279	0.5	-2.	0.	126.18
280	1.	-1.5	0.	126.06
281	-4.	-2.	0.	125.53
282	-0.5	3.5	0.	125.12
283	-0.5	1.5	0.	125.49
284	-0.5	2.	0.	125.37
285	-1.	-4.	0.	125.72
286	-2.5	-4.	0.	125.54
287	-3.5	-4.	0.	125.33
288	-4.	-4.	0.	125.19
289	-4.	-3.5	0.	125.23
290	-4.	-2.5	0.	125.39
291	-3.5	-1.5	0.	125.9
292	-1.	1.	0.	125.62
293	-1.	2.5	0.	125.24
294	3.	5.0005e-011	0.	124.87
295	-1.	4.	0.	125.09
296	-1.5	0.5	0.	125.81
297	2.5	0.5	0.	125.12
298	2.5	-0.5	0.	125.2
299	4.5	1.5066e-011	0.	124.13
300	-4.	-4.5	0.	125.17
301	-0.5	4.	0.	125.06
302	-2.	-1.5598e-010	0.	126.01
303	2.	1.	0.	125.31
304	-8.9189e-011	3.	0.	125.24
305	-0.5	-4.	0.	125.78
306	-1.223e-011	-3.	0.	126.1
307	2.	-1.	0.	125.6
308	-2.5	-0.5	0.	126.15
309	1.5	1.5	0.	125.44
310	0.5	2.5	0.	125.39
311	0.5	-2.5	0.	126.23
312	1.5	-1.5	0.	125.97
313	-4.5	-2.	0.	125.25
314	-4.	-1.5	0.	125.72
315	-3.	-1.	0.	126.13
316	1.	2.	0.	125.47
317	1.	-2.	0.	126.2
318	-1.	3.5	0.	125.12
319	-1.	1.5	0.	125.48
320	-1.	2.	0.	125.35
321	3.5	3.705e-011	0.	124.59
322	-1.5	-4.5	0.	125.59
323	-3.5	-4.5	0.	125.28
324	-4.5	-4.	0.	125.03
325	-4.5	-3.5	0.	125.04
326	-4.5	-3.	0.	125.08
327	-4.5	-2.5	0.	125.14
328	-1.5	4.5	0.	125.18
329	-1.	4.5	0.	125.08
330	-1.5	4.	0.	125.16
331	-1.5	1.	0.	125.65
332	-1.5	2.5	0.	125.22
333	3.	0.5	0.	124.89
334	4.5	0.5	0.	124.32
335	3.	-0.5	0.	124.88
336	4.5	-0.5	0.	123.92
337	-4.5	-4.5	0.	125.04
338	-0.5	4.5	0.	125.02
339	-2.	4.5	0.	125.33
340	-2.	0.5	0.	125.89
341	2.5	1.	0.	125.12
342	-8.3129e-011	3.5	0.	125.16
343	-0.5	-4.5	0.	125.65
344	-1.0758e-011	-3.5	0.	125.99
345	2.5	-1.	0.	125.31
346	-2.5	-1.3236e-010	0.	126.12
347	2.	1.5	0.	125.33
348	0.5	3.	0.	125.33
349	0.5	-3.	0.	126.21
350	2.	-1.5	0.	125.79
351	-5.	-2.	0.	124.88
352	-4.5	-1.5	0.	125.42
353	-2.5	5.	0.	125.57
354	-3.	-0.5	0.	126.23
355	-3.5	-1.	0.	126.1
356	1.5	2.	0.	125.46
357	1.	2.5	0.	125.46
358	1.	-2.5	0.	126.31
359	1.5	-2.	0.	126.17
360	-1.5	3.5	0.	125.14
361	-1.5	1.5	0.	125.48
362	-1.5	2.	0.	125.33
363	4.	0.5	0.	124.46
364	3.5	-0.5	0.	124.52
365	5.	9.3273e-012	0.	124.01
366	5.	-1.	0.	123.48
367	-1.	-5.	0.	125.55
368	-1.5	-5.	0.	125.52
369	-2.5	-5.	0.	125.43
370	-3.5	-5.	0.	125.26
371	-4.5	-5.	0.	125.05
372	-5.	-5.	0.	124.94
373	-5.	-4.5	0.	124.9
374	-5.	-4.	0.	124.87
375	-5.	-3.5	0.	124.85
376	-5.	-2.5	0.	124.84
377	-1.5	5.	0.	125.21
378	-2.	4.	0.	125.27
379	-2.	1.	0.	125.71
380	-2.	2.5	0.	125.21
381	3.	1.	0.	124.9
382	4.5	1.	0.	124.48
383	-8.3392e-011	4.	0.	125.07
384	-0.5	-5.	0.	125.56
385	-9.6588e-012	-4.	0.	125.85
386	4.5	-1.	0.	123.67
387	-2.5	4.5	0.	125.53
388	-2.5	0.5	0.	126.01
389	2.5	1.5	0.	125.15
390	0.5	3.5	0.	125.24
391	0.5	-3.5	0.	126.12
392	5.	-1.5	0.	123.12
393	2.5	-1.5	0.	125.48
394	-5.	-5.5	0.	124.97
395	-5.5	-2.	0.	124.45
396	-5.	-1.5	0.	124.98
397	-1.076e-010	5.5	0.	124.95
398	-3.	5.	0.	125.82
399	-3.	-1.0628e-010	0.	126.28
400	-4.	-1.	0.	125.98
401	2.	2.	0.	125.38
402	1.	3.	0.	125.43
403	1.	-3.	0.	126.36
404	2.	-2.	0.	126.04
405	-3.5	5.5	0.	125.91
406	-3.5	-0.5	0.	126.3
407	1.5	2.5	0.	125.51
408	1.5	-2.5	0.	126.37
409	5.	1.5	0.	124.73
410	5.5	1.	0.	124.48
411	-2.	3.5	0.	125.2
412	-2.	2.	0.	125.33
413	3.5	1.	0.	124.69
414	4.	1.	0.	124.54
415	-8.9041e-011	4.5	0.	124.99
416	-9.0229e-012	-4.5	0.	125.69
417	-8.2587e-012	-5.	0.	125.56
418	5.5	5.4374e-012	0.	123.94
419	5.5	-1.	0.	123.49
420	-7.2479e-012	-5.5	0.	125.51
421	-0.5	-5.5	0.	125.52
422	-1.5	-5.5	0.	125.5
423	-2.5	-5.5	0.	125.41
424	-3.5	-5.5	0.	125.26
425	-4.	-5.5	0.	125.17
426	-4.5	-5.5	0.	125.07
427	-5.5	-5.	0.	124.83
428	-5.5	-4.5	0.	124.78
429	-5.5	-3.5	0.	124.65
430	-5.5	-2.5	0.	124.51
431	-3.	5.5	0.	125.74
432	-2.5	5.5	0.	125.56
433	-1.5	5.5	0.	125.23
434	-0.5	5.5	0.	125.01
435	-2.5	4.	0.	125.43
436	-2.5	1.	0.	125.82
437	-2.5	2.5	0.	125.21
438	3.	1.5	0.	124.92
439	4.5	1.5	0.	124.57
440	0.5	4.	0.	125.13
441	0.5	-4.	0.	125.95
442	0.5	-5.5	0.	125.48
443	4.5	-1.5	0.	123.35
444	3.	-1.5	0.	125.02
445	-5.5	-5.5	0.	124.88
446	-5.5	-1.5	0.	124.43
447	0.5	5.5	0.	124.91
448	-4.5	6.	0.	125.52
449	-3.	4.5	0.	125.81
450	-3.	0.5	0.	126.21
451	-4.5	-1.	0.	125.7
452	2.5	2.	0.	125.22
453	1.	3.5	0.	125.38
454	1.	-3.5	0.	126.3
455	5.	-2.	0.	122.63
456	2.5	-2.	0.	125.74
457	-4.	5.5	0.	126.
458	-3.5	5.	0.	126.09
459	-3.5	-8.1624e-011	0.	126.46
460	2.	2.5	0.	125.5
461	1.5	3.	0.	125.56
462	0.5	-6.	0.	125.55
463	1.5	-3.	0.	126.53
464	2.	-2.5	0.	126.34
465	6.	-1.5	0.	123.53
466	5.5	-2.	0.	122.82
467	5.5	1.5	0.	124.88
468	6.	1.	0.	124.35
469	-2.5	3.	0.	125.21
470	-2.5	3.5	0.	125.31
471	-2.5	2.	0.	125.34
472	3.5	1.5	0.	124.7
473	4.	1.5	0.	124.56
474	0.5	-4.5	0.	125.74
475	0.5	-5.	0.	125.56
476	3.5	-1.5	0.	124.44
477	6.	2.5578e-012	0.	123.91
478	6.	-1.	0.	123.66
479	-4.5686e-012	-6.	0.	125.55
480	-0.5	-6.	0.	125.55
481	-1.	-6.	0.	125.54
482	-1.5	-6.	0.	125.51
483	-2.	-6.	0.	125.47
484	-2.5	-6.	0.	125.41
485	-3.5	-6.	0.	125.27
486	-4.	-6.	0.	125.18
487	-4.5	-6.	0.	125.1
488	-5.	-6.	0.	125.01
489	-5.5	-6.	0.	124.92
490	-6.	-5.5	0.	124.8
491	-6.	-5.	0.	124.74
492	-6.	-4.5	0.	124.67
493	-6.	-4.	0.	124.59
494	-6.	-3.5	0.	124.48
495	-6.	-3.	0.	124.36
496	-6.	-2.5	0.	124.21
497	-6.	-2.	0.	124.05
498	-6.	-1.5	0.	123.86
499	-3.5	6.	0.	125.72
500	-2.5	6.	0.	125.51
501	-0.5	6.	0.	125.06
502	0.5	6.	0.	125.01
503	-5.	6.	0.	125.1
504	-3.	4.	0.	125.68
505	-3.	1.	0.	126.
506	-3.	2.5	0.	125.23
507	-5.	-1.	0.	125.19
508	3.	2.	0.	124.95
509	4.5	2.	0.	124.53
510	1.	5.5	0.	124.91
511	1.	4.	0.	125.25
512	1.	-4.	0.	126.12
513	1.	-5.5	0.	125.45
514	4.5	-2.	0.	122.94
515	3.	-2.	0.	125.21
516	-4.5	5.5	0.	125.9
517	-3.5	4.5	0.	126.16
518	-3.5	0.5	0.	126.49
519	-4.5	-0.5	0.	126.09
520	2.5	2.5	0.	125.36
521	1.5	3.5	0.	125.57
522	1.	6.	0.	125.05
523	1.	-6.	0.	125.55
524	0.5	-6.5	0.	125.72
525	1.5	-3.5	0.	126.56
526	2.5	-2.5	0.	126.12
527	6.5	-1.5	0.	124.
528	6.	-2.	0.	123.39
529	5.	-2.5	0.	121.93
530	-6.5	6.	0.	123.09
531	-6.	-6.5	0.	124.89
532	-6.5	-1.	0.	122.99
533	-4.	5.	0.	126.34
534	-4.	-5.9895e-011	0.	126.62
535	6.	1.5	0.	124.8
536	5.	2.	0.	124.92
537	2.	3.	0.	125.66
538	2.	-3.	0.	126.66
539	-5.5	6.	0.	124.46
540	-6.	6.	0.	123.71
541	-3.	3.5	0.	125.47
542	-3.	2.	0.	125.39
543	-6.	-1.	0.	123.66
544	-5.5	-1.	0.	124.47
545	3.5	2.	0.	124.64
546	4.	2.	0.	124.44
547	1.	4.5	0.	125.08
548	1.	-5.	0.	125.57
549	3.5	-2.	0.	124.47
550	6.5	0.5	0.	123.93
551	6.5	7.1488e-013	0.	123.9
552	6.5	-0.5	0.	123.91
553	6.5	-1.	0.	123.94
554	-0.5	-6.5	0.	125.64
555	-1.	-6.5	0.	125.6
556	-1.5	-6.5	0.	125.56
557	-2.5	-6.5	0.	125.44
558	-3.	-6.5	0.	125.37
559	-3.5	-6.5	0.	125.29
560	-4.	-6.5	0.	125.21
561	-4.5	-6.5	0.	125.13
562	-5.	-6.5	0.	125.04
563	-5.5	-6.5	0.	124.96
564	-6.5	-5.5	0.	124.73
565	-6.5	-5.	0.	124.67
566	-6.5	-4.5	0.	124.59
567	-6.5	-3.5	0.	124.37
568	-6.5	-2.5	0.	124.
569	-6.5	-1.5	0.	123.41
570	-5.5	6.5	0.	124.45
571	-5.	6.5	0.	124.92
572	-4.5	6.5	0.	125.27
573	-4.	6.5	0.	125.47
574	-3.5	6.5	0.	125.54
575	-3.	6.5	0.	125.52
576	-2.5	6.5	0.	125.45
577	-1.5	6.5	0.	125.27
578	-0.5	6.5	0.	125.14
579	0.5	6.5	0.	125.17
580	-5.	5.5	0.	125.46
581	-6.5	5.5	0.	122.51
582	-3.5	4.	0.	126.05
583	-3.5	1.	0.	126.32
584	-3.5	2.5	0.	125.27
585	-5.	-0.5	0.	125.57
586	1.5	4.	0.	125.48
587	1.	6.5	0.	125.28
588	1.5	5.5	0.	124.95
589	1.	-6.5	0.	125.81
590	1.5	-4.	0.	126.4
591	1.5	-5.5	0.	125.42
592	4.5	-2.5	0.	122.38
593	3.	-2.5	0.	125.57
594	6.5	-2.	0.	124.12
595	5.5	-2.5	0.	122.29
596	-6.5	6.5	0.	123.55
597	-6.5	-6.5	0.	124.83
598	-6.5	-0.5	0.	122.44
599	-7.	5.5	0.	122.1
600	4.5	2.5	0.	124.2
601	-4.5	5.	0.	126.42
602	-4.	4.5	0.	126.6
603	-4.	0.5	0.	126.85
604	-4.5	-4.3089e-011	0.	126.62
605	6.5	1.5	0.	124.32
606	7.	1.	0.	123.63
607	5.5	2.	0.	125.42
608	2.5	3.	0.	125.62
609	2.	3.5	0.	125.82
610	2.	-3.5	0.	126.89
611	2.5	-3.	0.	126.63
612	-5.5	5.5	0.	124.62
613	-6.	5.5	0.	123.5
614	-3.5	3.5	0.	125.75
615	-3.5	2.	0.	125.49
616	-6.	-0.5	0.	123.48
617	-5.5	-0.5	0.	124.65
618	3.5	2.5	0.	124.54
619	1.5	5.	0.	125.01
620	1.5	4.5	0.	125.25
621	1.5	6.	0.	125.15
622	1.5	-6.	0.	125.58
623	1.5	-6.5	0.	125.98
624	1.5	-4.5	0.	126.03
625	1.5	-5.	0.	125.61
626	3.5	-2.5	0.	124.63
627	6.	-2.5	0.	123.25
628	7.	-2.3876e-013	0.	123.94
629	7.	-1.	0.	124.27
630	7.	-2.	0.	124.78
631	1.	-7.	0.	126.09
632	0.5	-7.	0.	125.93
633	-0.5	-7.	0.	125.75
634	-1.5	-7.	0.	125.63
635	-2.	-7.	0.	125.56
636	-2.5	-7.	0.	125.49
637	-3.	-7.	0.	125.41
638	-3.5	-7.	0.	125.33
639	-4.	-7.	0.	125.24
640	-4.5	-7.	0.	125.16
641	-5.5	-7.	0.	125.
642	-6.5	7.	0.	123.92
643	-7.	-6.5	0.	124.77
644	-6.	-7.	0.	124.92
645	-6.5	-7.	0.	124.86
646	-7.	-6.	0.	124.73
647	-7.	-5.5	0.	124.69
648	-7.	-4.5	0.	124.55
649	-7.	-3.5	0.	124.32
650	-7.	-2.5	0.	123.92
651	-7.	-1.5	0.	123.24
652	-7.	-1.	0.	122.71
653	-7.	-0.5	0.	122.
654	-7.	6.5	0.	123.41
655	-5.5	7.	0.	124.52
656	-5.	7.	0.	124.86
657	-4.5	7.	0.	125.14
658	-3.5	7.	0.	125.42
659	-3.	7.	0.	125.44
660	-1.5	7.	0.	125.3
661	-0.5	7.	0.	125.23
662	0.5	7.	0.	125.34
663	1.5	7.	0.	125.82
664	1.5	-7.	0.	126.34
665	7.	-2.5	0.	125.24
666	-7.	5.	0.	121.07
667	5.	2.5	0.	124.93
668	-5.	5.	0.	126.09
669	-6.5	5.	0.	121.76
670	-4.	4.	0.	126.61
671	-4.	1.	0.	126.82
672	-4.	2.5	0.	125.33
673	-6.5	-1.0624e-011	0.	121.71
674	-5.	-3.0505e-011	0.	126.2
675	7.	1.5	0.	123.54
676	6.	2.	0.	125.57
677	3.	3.	0.	125.26
678	2.	4.	0.	125.84
679	2.	5.5	0.	125.02
680	2.	-4.	0.	126.86
681	2.	-5.5	0.	125.39
682	4.5	-3.	0.	121.61
683	3.	-3.	0.	126.18
684	-4.5	4.5	0.	127.02
685	-4.5	0.5	0.	127.2
686	2.5	3.5	0.	126.01
687	2.5	-3.5	0.	127.2
688	2.	7.	0.	126.29
689	-7.	7.	0.	123.84
690	-7.	-7.	0.	124.8
691	2.	-7.	0.	126.76
692	7.	-3.	0.	125.94
693	-7.	0.5	0.	119.57
694	-7.	4.5	0.	119.61
695	5.5	2.5	0.	126.04
696	4.5	3.	0.	123.38
697	5.	-3.5	0.	119.39
698	-5.5	5.	0.	125.05
699	-6.	5.	0.	123.38
700	-4.	3.5	0.	126.22
701	-4.	2.	0.	125.7
702	-6.	-1.4444e-011	0.	123.37
703	6.5	2.	0.	124.96
704	7.	2.	0.	123.59
705	3.5	3.	0.	124.46
706	4.	3.	0.	123.54
707	2.	5.	0.	125.19
708	2.	4.5	0.	125.59
709	2.	6.	0.	125.38
710	2.	-6.5	0.	126.34
711	2.	-4.5	0.	126.41
712	2.	-5.	0.	125.74
713	4.	-3.	0.	123.28
714	3.5	-3.	0.	125.04
715	6.5	-3.	0.	124.86
716	5.	-4.	0.	117.4
717	7.	7.	0.	124.87
718	6.5	7.	0.	127.06
719	5.	3.	0.	124.53
720	5.5	3.	0.	126.55
721	-7.	4.	0.	117.74
722	-7.	1.	0.	117.71
723	7.5	2.	0.	122.18
724	7.5	0.5	0.	123.75
725	7.5	-2.2147e-013	0.	124.07
726	7.5	-0.5	0.	124.34
727	7.5	-1.	0.	124.6
728	7.5	-2.	0.	125.25
729	7.5	-2.5	0.	125.73
730	7.5	-3.	0.	126.33
731	7.5	-3.5	0.	127.
732	7.5	-7.5	0.	127.06
733	5.	-7.5	0.	119.06
734	2.5	-7.5	0.	127.04
735	2.	-7.5	0.	126.79
736	1.5	-7.5	0.	126.5
737	1.	-7.5	0.	126.28
738	0.5	-7.5	0.	126.11
739	6.969e-013	-7.5	0.	125.98
740	-0.5	-7.5	0.	125.88
741	-1.	-7.5	0.	125.79
742	-1.5	-7.5	0.	125.71
743	-2.	-7.5	0.	125.62
744	-2.5	-7.5	0.	125.54
745	-3.	-7.5	0.	125.45
746	-3.5	-7.5	0.	125.37
747	-4.	-7.5	0.	125.28
748	-4.5	-7.5	0.	125.19
749	-5.	-7.5	0.	125.11
750	-5.5	-7.5	0.	125.03
751	-6.	-7.5	0.	124.96
752	-6.5	-7.5	0.	124.89
753	-7.	-7.5	0.	124.82
754	-7.5	-7.5	0.	124.76
755	-7.5	-7.	0.	124.75
756	-7.5	-6.5	0.	124.72
757	-7.5	-6.	0.	124.7
758	-7.5	-5.5	0.	124.66
759	-7.5	-5.	0.	124.61
760	-7.5	-4.5	0.	124.55
761	-7.5	-4.	0.	124.47
762	-7.5	-3.5	0.	124.35
763	-7.5	-3.	0.	124.2
764	-7.5	-2.5	0.	124.
765	-7.5	-1.5	0.	123.39
766	-7.5	-1.	0.	122.94
767	-7.5	-0.5	0.	122.38
768	-7.5	-8.0968e-012	0.	121.64
769	-7.5	0.5	0.	120.7
770	-7.5	5.	0.	121.73
771	-7.5	5.5	0.	122.5
772	-7.5	6.	0.	123.11
773	-7.5	6.5	0.	123.59
774	-7.5	7.	0.	123.98
775	-7.5	7.5	0.	124.28
776	-7.	7.5	0.	124.18
777	-6.5	7.5	0.	124.22
778	-6.	7.5	0.	124.39
779	-5.5	7.5	0.	124.62
780	-5.	7.5	0.	124.87
781	-4.5	7.5	0.	125.08
782	-4.	7.5	0.	125.24
783	-3.5	7.5	0.	125.34
784	-3.	7.5	0.	125.38
785	-2.5	7.5	0.	125.38
786	-2.	7.5	0.	125.36
787	-1.5	7.5	0.	125.33
788	-1.	7.5	0.	125.32
789	-0.5	7.5	0.	125.33
790	-5.9375e-011	7.5	0.	125.38
791	0.5	7.5	0.	125.49
792	1.	7.5	0.	125.67
793	1.5	7.5	0.	125.95
794	2.	7.5	0.	126.3
795	2.5	7.5	0.	126.64
796	6.5	7.5	0.	126.25
797	7.	7.5	0.	124.95
798	7.5	7.5	0.	123.73
799	7.5	7.	0.	122.87
800	7.5	6.5	0.	121.66
801	-7.5	4.5	0.	120.75
802	7.	-7.5	0.	126.91
803	5.5	-7.5	0.	120.21
804	7.5	-7.	0.	127.49
805	7.5	-4.	0.	127.43
806	7.5	-5.5	0.	125.63
807	5.5	-3.5	0.	120.54
808	7.	-3.5	0.	126.97
809	3.	-3.5	0.	127.13
810	4.5	-3.5	0.	120.56
811	2.5	-4.	0.	127.53
812	2.5	-7.	0.	127.4
813	2.5	-5.5	0.	125.51
814	4.5	-7.5	0.	120.24
815	3.	-7.5	0.	126.91
816	6.	7.5	0.	126.87
817	3.	7.5	0.	126.62
818	4.5	7.5	0.	122.61
819	2.5	7.	0.	126.95
820	2.5	4.	0.	126.36
821	2.5	5.5	0.	125.27
822	4.5	3.5	0.	121.79
823	3.	3.5	0.	125.84
824	7.5	2.5	0.	121.38
825	6.	2.5	0.	126.8
826	-5.	0.5	0.	127.18
827	-6.5	0.5	0.	120.74
828	-4.5	1.	0.	127.56
829	-4.5	4.	0.	127.4
830	-4.5	2.5	0.	125.56
831	-6.5	4.5	0.	120.77
832	-5.	4.5	0.	127.07
833	-6.	4.5	0.	123.48
834	-4.5	3.5	0.	127.1
835	-4.5	2.	0.	126.14
836	-5.5	0.5	0.	126.01
837	6.5	2.5	0.	126.19
838	7.	2.5	0.	123.98
839	4.	3.5	0.	122.67
840	2.5	5.	0.	125.56
841	2.5	4.5	0.	126.25
842	2.5	6.	0.	125.82
843	3.5	7.5	0.	125.56
844	5.	7.5	0.	123.93
845	3.5	-7.5	0.	125.63
846	4.	-7.5	0.	123.03
847	2.5	-6.	0.	126.04
848	2.5	-6.5	0.	127.08
849	2.5	-4.5	0.	127.18
850	2.5	-5.	0.	126.1
851	3.5	-3.5	0.	125.9
852	6.	-3.5	0.	123.27
853	7.5	-4.5	0.	127.17
854	7.5	-6.	0.	126.19
855	6.5	-7.5	0.	125.61
856	-7.5	4.	0.	119.49
857	-6.5	1.	0.	119.44
858	7.5	6.	0.	120.15
859	5.5	-7.	0.	118.91
860	8.	7.5	0.	123.16
861	8.	7.	0.	121.95
862	8.	6.5	0.	120.28
863	8.	6.	0.	118.32
864	-8.	4.5	0.	123.48
865	-8.	5.	0.	123.36
866	-8.	5.5	0.	123.52
867	-8.	6.	0.	123.78
868	-8.	6.5	0.	124.05
869	-8.	7.	0.	124.3
870	-8.	7.5	0.	124.51
871	-8.	8.	0.	124.67
872	-7.5	8.	0.	124.51
873	-7.	8.	0.	124.44
874	-6.5	8.	0.	124.47
875	-6.	8.	0.	124.57
876	-5.5	8.	0.	124.73
877	-5.	8.	0.	124.91
878	-4.5	8.	0.	125.07
879	-4.	8.	0.	125.2
880	-3.5	8.	0.	125.29
881	-3.	8.	0.	125.35
882	-2.5	8.	0.	125.37
883	-2.	8.	0.	125.38
884	-1.5	8.	0.	125.38
885	-1.	8.	0.	125.39
886	-0.5	8.	0.	125.42
887	-4.1194e-011	8.	0.	125.48
888	0.5	8.	0.	125.58
889	1.	8.	0.	125.73
890	1.5	8.	0.	125.93
891	2.	8.	0.	126.13
892	2.5	8.	0.	126.22
893	3.	8.	0.	125.97
894	3.5	8.	0.	125.23
895	4.	8.	0.	124.25
896	4.5	8.	0.	123.81
897	5.	8.	0.	124.36
898	5.5	8.	0.	125.33
899	6.	8.	0.	125.84
900	6.5	8.	0.	125.63
901	7.	8.	0.	124.95
902	7.5	8.	0.	124.27
903	8.	8.	0.	123.95
904	-7.5	1.	0.	119.46
905	8.	3.	0.	118.54
906	8.	2.5	0.	120.24
907	8.	2.	0.	121.65
908	8.	1.5	0.	122.69
909	8.	1.	0.	123.43
910	8.	0.5	0.	123.96
911	8.	-2.6043e-014	0.	124.34
912	8.	-0.5	0.	124.64
913	8.	-1.	0.	124.92
914	8.	-1.5	0.	125.2
915	8.	-2.	0.	125.53
916	8.	-2.5	0.	125.92
917	8.	-3.	0.	126.32
918	8.	-3.5	0.	126.65
919	8.	-4.	0.	126.73
920	8.	-4.5	0.	126.38
921	8.	-5.	0.	125.8
922	8.	-5.5	0.	125.51
923	8.	-6.	0.	125.86
924	8.	-6.5	0.	126.48
925	8.	-7.	0.	126.87
926	8.	-7.5	0.	126.84
927	8.	-8.	0.	126.56
928	7.5	-8.	0.	126.43
929	7.	-8.	0.	125.87
930	6.5	-8.	0.	124.64
931	6.	-8.	0.	122.83
932	5.5	-8.	0.	121.14
933	5.	-8.	0.	120.46
934	4.5	-8.	0.	121.17
935	3.5	-8.	0.	124.7
936	2.5	-8.	0.	126.45
937	2.	-8.	0.	126.56
938	1.5	-8.	0.	126.48
939	1.	-8.	0.	126.36
940	0.5	-8.	0.	126.22
941	1.5718e-012	-8.	0.	126.1
942	-0.5	-8.	0.	125.99
943	-1.	-8.	0.	125.89
944	-1.5	-8.	0.	125.79
945	-2.	-8.	0.	125.69
946	-2.5	-8.	0.	125.59
947	-3.	-8.	0.	125.5
948	-3.5	-8.	0.	125.41
949	-4.	-8.	0.	125.31
950	-4.5	-8.	0.	125.22
951	-5.	-8.	0.	125.14
952	-5.5	-8.	0.	125.06
953	-6.	-8.	0.	124.98
954	-6.5	-8.	0.	124.91
955	-7.	-8.	0.	124.84
956	-7.5	-8.	0.	124.78
957	-8.	-8.	0.	124.72
958	-8.	-7.5	0.	124.71
959	-8.	-7.	0.	124.7
960	-8.	-6.5	0.	124.68
961	-8.	-6.	0.	124.66
962	-8.	-5.5	0.	124.64
963	-8.	-5.	0.	124.62
964	-8.	-4.5	0.	124.58
965	-8.	-4.	0.	124.52
966	-8.	-3.5	0.	124.45
967	-8.	-3.	0.	124.35
968	-8.	-2.5	0.	124.22
969	-8.	-2.	0.	124.04
970	-8.	-1.5	0.	123.83
971	-8.	-1.	0.	123.59
972	-8.	-0.5	0.	123.37
973	-8.	-6.8824e-012	0.	123.25
974	-8.	0.5	0.	123.4
975	-6.5	4.	0.	119.47
976	-5.	4.	0.	128.34
977	-5.	2.5	0.	125.67
978	-5.	1.	0.	128.44
979	7.5	3.	0.	120.36
980	6.	3.	0.	128.52
981	4.5	4.	0.	118.82
982	3.	4.	0.	126.89
983	3.	5.5	0.	125.42
984	3.	7.	0.	127.66
985	6.	7.	0.	128.6
986	7.	6.5	0.	124.73
987	6.5	6.5	0.	127.86
988	5.	3.5	0.	123.55
989	5.5	3.5	0.	126.69
990	3.	-7.	0.	128.17
991	3.	-5.5	0.	125.51
992	3.	-4.	0.	128.35
993	5.5	-4.	0.	119.16
994	7.	-4.	0.	128.28
995	7.	-5.5	0.	125.6
996	7.	-7.	0.	128.23
997	6.	-7.	0.	123.47
998	6.5	-7.	0.	127.54
999	7.	-6.	0.	127.33
1000	7.	-5.	0.	127.31
1001	7.	-4.5	0.	128.73
1002	6.5	-4.	0.	127.7
1003	6.	-4.	0.	123.71
1004	4.	-4.	0.	123.71
1005	3.5	-4.	0.	127.73
1006	3.	-4.5	0.	128.74
1007	3.	-5.	0.	127.27
1008	3.	-6.	0.	127.2
1009	3.	-6.5	0.	128.62
1010	3.5	-7.	0.	127.54
1011	5.	4.	0.	122.15
1012	5.5	4.	0.	127.13
1013	6.	4.5	0.	128.58
1014	6.	6.	0.	130.46
1015	6.	6.5	0.	130.19
1016	5.	7.	0.	123.33
1017	4.	7.	0.	122.75
1018	3.5	7.	0.	126.9
1019	3.	6.5	0.	128.15
1020	3.	6.	0.	127.02
1021	3.	5.	0.	126.67
1022	3.	4.5	0.	127.52
1023	4.	4.	0.	121.62
1024	7.	6.	0.	124.79
1025	6.5	6.	0.	129.
1026	6.	5.	0.	129.51
1027	6.	3.5	0.	129.78
1028	6.5	3.	0.	128.59
1029	7.	3.	0.	124.86
1030	-6.	1.	0.	123.95
1031	-5.5	1.	0.	127.9
1032	-5.	2.	0.	127.42
1033	-5.	3.5	0.	128.78
1034	-6.	4.	0.	123.95
1035	-8.	1.	0.	124.
1036	8.5	8.	0.	124.16
1037	8.5	7.5	0.	123.5
1038	8.5	7.	0.	122.53
1039	8.5	6.5	0.	121.3
1040	8.5	6.	0.	119.94
1041	-8.	8.5	0.	124.78
1042	-7.	8.5	0.	124.64
1043	-6.5	8.5	0.	124.65
1044	-6.	8.5	0.	124.73
1045	-5.5	8.5	0.	124.84
1046	-5.	8.5	0.	124.97
1047	-4.5	8.5	0.	125.09
1048	-4.	8.5	0.	125.2
1049	-3.5	8.5	0.	125.29
1050	-3.	8.5	0.	125.35
1051	-2.	8.5	0.	125.42
1052	-1.5	8.5	0.	125.45
1053	-1.	8.5	0.	125.47
1054	-0.5	8.5	0.	125.51
1055	-2.6766e-011	8.5	0.	125.56
1056	0.5	8.5	0.	125.64
1057	1.	8.5	0.	125.74
1058	1.5	8.5	0.	125.85
1059	2.	8.5	0.	125.93
1060	2.5	8.5	0.	125.89
1061	3.5	8.5	0.	125.17
1062	4.	8.5	0.	124.67
1063	4.5	8.5	0.	124.44
1064	5.	8.5	0.	124.64
1065	5.5	8.5	0.	125.06
1066	6.5	8.5	0.	125.25
1067	7.	8.5	0.	124.92
1068	7.5	8.5	0.	124.58
1069	8.5	8.5	0.	124.55
1070	-8.	4.	0.	124.04
1071	-8.5	-8.	0.	124.65
1072	-8.5	-7.5	0.	124.65
1073	-8.5	-7.	0.	124.64
1074	-8.5	-6.	0.	124.63
1075	-8.5	-5.5	0.	124.63
1076	-8.5	-5.	0.	124.62
1077	-8.5	-4.5	0.	124.62
1078	-8.5	-4.	0.	124.6
1079	-8.5	-3.	0.	124.56
1080	-8.5	-2.5	0.	124.53
1081	-8.5	-2.	0.	124.48
1082	-8.5	-1.5	0.	124.44
1083	-8.5	-1.	0.	124.44
1084	-8.5	-0.5	0.	124.56
1085	-8.5	-4.7926e-012	0.	124.97
1086	-8.5	0.5	0.	125.92
1087	-8.5	1.	0.	127.99
1088	-8.5	4.	0.	128.07
1089	-8.5	4.5	0.	126.03
1090	-8.5	5.	0.	125.11
1091	-8.5	5.5	0.	124.74
1092	-8.5	6.	0.	124.65
1093	-8.5	6.5	0.	124.69
1094	-8.5	7.	0.	124.76
1095	-8.5	7.5	0.	124.83
1096	-8.5	8.	0.	124.89
1097	-8.5	8.5	0.	124.92
1098	8.	-8.5	0.	126.23
1099	7.5	-8.5	0.	125.87
1100	7.	-8.5	0.	125.19
1101	6.5	-8.5	0.	124.13
1102	6.	-8.5	0.	122.86
1103	5.5	-8.5	0.	121.78
1104	5.	-8.5	0.	121.36
1105	4.5	-8.5	0.	121.81
1106	4.	-8.5	0.	122.92
1107	3.5	-8.5	0.	124.21
1108	3.	-8.5	0.	125.28
1109	2.5	-8.5	0.	125.94
1110	2.	-8.5	0.	126.26
1111	1.5	-8.5	0.	126.37
1112	1.	-8.5	0.	126.35
1113	0.5	-8.5	0.	126.28
1114	1.5481e-012	-8.5	0.	126.18
1115	-0.5	-8.5	0.	126.07
1116	-1.	-8.5	0.	125.96
1117	-1.5	-8.5	0.	125.85
1118	-2.	-8.5	0.	125.75
1119	-2.5	-8.5	0.	125.64
1120	-3.	-8.5	0.	125.54
1121	-3.5	-8.5	0.	125.44
1122	-4.	-8.5	0.	125.34
1123	-4.5	-8.5	0.	125.25
1124	-5.5	-8.5	0.	125.08
1125	-6.	-8.5	0.	125.
1126	-6.5	-8.5	0.	124.93
1127	-7.	-8.5	0.	124.85
1128	-7.5	-8.5	0.	124.79
1129	-8.	-8.5	0.	124.72
1130	-8.5	-8.5	0.	124.66
1131	8.5	3.	0.	120.15
1132	8.5	2.5	0.	121.41
1133	8.5	2.	0.	122.52
1134	8.5	1.5	0.	123.4
1135	8.5	1.	0.	124.03
1136	8.5	0.5	0.	124.46
1137	8.5	1.0239e-013	0.	124.77
1138	8.5	-0.5	0.	125.02
1139	8.5	-1.	0.	125.24
1140	8.5	-1.5	0.	125.46
1141	8.5	-2.	0.	125.69
1142	8.5	-2.5	0.	125.94
1143	8.5	-3.	0.	126.16
1144	8.5	-3.5	0.	126.28
1145	8.5	-4.	0.	126.22
1146	8.5	-4.5	0.	125.95
1147	8.5	-5.	0.	125.63
1148	8.5	-5.5	0.	125.5
1149	8.5	-6.	0.	125.71
1150	8.5	-6.5	0.	126.11
1151	8.5	-7.	0.	126.44
1152	8.5	-7.5	0.	126.58
1153	8.5	-8.	0.	126.54
1154	8.5	-8.5	0.	126.41
1155	8.5	-9.	0.	126.27
1156	7.5	-9.	0.	125.48
1157	7.	-9.	0.	124.78
1158	6.5	-9.	0.	123.88
1159	6.	-9.	0.	122.92
1160	5.5	-9.	0.	122.18
1161	3.	-9.	0.	124.89
1162	2.5	-9.	0.	125.58
1163	2.	-9.	0.	126.01
1164	1.5	-9.	0.	126.23
1165	1.	-9.	0.	126.31
1166	0.5	-9.	0.	126.29
1167	1.111e-012	-9.	0.	126.22
1168	-0.5	-9.	0.	126.13
1169	-1.	-9.	0.	126.02
1170	-1.5	-9.	0.	125.91
1171	-2.	-9.	0.	125.79
1172	-2.5	-9.	0.	125.68
1173	-3.	-9.	0.	125.57
1174	-3.5	-9.	0.	125.47
1175	-4.	-9.	0.	125.37
1176	-4.5	-9.	0.	125.27
1177	-5.	-9.	0.	125.18
1178	-5.5	-9.	0.	125.1
1179	-6.	-9.	0.	125.01
1180	-6.5	-9.	0.	124.94
1181	-7.	-9.	0.	124.86
1182	-7.5	-9.	0.	124.8
1183	-8.	-9.	0.	124.73
1184	-8.5	-9.	0.	124.66
1185	-9.	-8.5	0.	124.59
1186	-9.	-8.	0.	124.59
1187	-9.	-7.5	0.	124.59
1188	-9.	-7.	0.	124.59
1189	-9.	-6.5	0.	124.59
1190	-9.	-6.	0.	124.6
1191	-9.	-5.5	0.	124.61
1192	-9.	-5.	0.	124.62
1193	-9.	-4.5	0.	124.65
1194	-9.	-4.	0.	124.68
1195	-9.	-2.5	0.	124.86
1196	-9.	-2.	0.	124.96
1197	-9.	-1.5	0.	125.1
1198	-9.	-1.	0.	125.3
1199	-9.	-0.5	0.	125.63
1200	-9.	-2.9849e-012	0.	126.19
1201	-9.	0.5	0.	127.15
1202	-9.	2.5	0.	126.57
1203	-9.	3.	0.	128.21
1204	-9.	3.5	0.	129.38
1205	-9.	4.	0.	128.65
1206	-9.	4.5	0.	127.29
1207	-9.	5.	0.	126.36
1208	-9.	5.5	0.	125.83
1209	-9.	6.	0.	125.54
1210	-9.	6.5	0.	125.37
1211	-9.	7.	0.	125.25
1212	-9.	7.5	0.	125.18
1213	-9.	8.	0.	125.12
1214	-9.	8.5	0.	125.07
1215	-8.5	9.	0.	124.93
1216	-8.	9.	0.	124.85
1217	-7.5	9.	0.	124.79
1218	-7.	9.	0.	124.77
1219	-6.5	9.	0.	124.78
1220	-6.	9.	0.	124.84
1221	-5.5	9.	0.	124.92
1222	-5.	9.	0.	125.02
1223	-4.5	9.	0.	125.12
1224	-4.	9.	0.	125.22
1225	-3.5	9.	0.	125.3
1226	-3.	9.	0.	125.38
1227	-2.5	9.	0.	125.44
1228	-2.	9.	0.	125.49
1229	-1.5	9.	0.	125.54
1230	-1.	9.	0.	125.58
1231	-0.5	9.	0.	125.62
1232	-1.66e-011	9.	0.	125.66
1233	0.5	9.	0.	125.71
1234	1.	9.	0.	125.76
1235	1.5	9.	0.	125.79
1236	2.	9.	0.	125.78
1237	2.5	9.	0.	125.7
1238	3.	9.	0.	125.5
1239	3.5	9.	0.	125.21
1240	4.	9.	0.	124.92
1241	4.5	9.	0.	124.77
1242	5.	9.	0.	124.81
1243	5.5	9.	0.	124.95
1244	6.	9.	0.	125.05
1245	6.5	9.	0.	125.02
1246	7.	9.	0.	124.88
1247	7.5	9.	0.	124.73
1248	8.	9.	0.	124.67
1249	8.5	9.	0.	124.76
1250	9.	8.5	0.	124.92
1251	9.	8.	0.	124.82
1252	9.	7.5	0.	124.61
1253	9.	7.	0.	124.31
1254	9.	6.5	0.	124.11
1255	9.	-8.5	0.	126.53
1256	9.	-8.	0.	126.5
1257	9.	-7.5	0.	126.38
1258	9.	-7.	0.	126.16
1259	9.	-6.5	0.	125.86
1260	9.	-6.	0.	125.57
1261	9.	-5.5	0.	125.42
1262	9.	-5.	0.	125.47
1263	9.	-4.5	0.	125.65
1264	9.	-4.	0.	125.85
1265	9.	-3.5	0.	125.97
1266	9.	-3.	0.	125.98
1267	9.	-2.5	0.	125.91
1268	9.	-2.	0.	125.8
1269	9.	-1.5	0.	125.67
1270	9.	-1.	0.	125.54
1271	9.	-0.5	0.	125.42
1272	9.	1.3787e-013	0.	125.31
1273	9.	0.5	0.	125.18
1274	9.	1.5	0.	124.82
1275	9.	2.	0.	124.56
1276	9.	2.5	0.	124.38
1277	-8.5	1.5	0.	131.93
1278	-8.5	3.5	0.	131.98
1279	-5.5	3.5	0.	131.45
1280	-5.5	1.5	0.	131.49
1281	9.	3.	0.	124.69
1282	6.5	5.5	0.	132.18
1283	9.	6.	0.	124.43
1284	3.5	4.5	0.	129.49
1285	3.5	6.5	0.	130.34
1286	5.5	6.5	0.	132.07
1287	5.5	4.5	0.	130.18
1288	3.5	-6.5	0.	131.12
1289	3.5	-4.5	0.	131.27
1290	6.5	-4.5	0.	131.28
1291	6.5	-6.5	0.	131.18
1292	9.	-9.	0.	126.53
1293	-9.	-9.	0.	124.59
1294	-9.	9.	0.	125.02
1295	9.	9.	0.	124.95
1296	-8.5	2.	0.	130.84
1297	-8.5	3.	0.	130.9
1298	-8.5	2.5	0.	130.19
1299	-8.	3.5	0.	125.74
1300	-7.5	3.5	0.	116.95
1301	-7.	3.5	0.	117.51
1302	-6.	3.5	0.	125.52
1303	-6.5	3.5	0.	116.8
1304	-5.5	3.	0.	130.04
1305	-5.5	2.	0.	130.1
1306	-5.5	2.5	0.	129.48
1307	-8.	1.5	0.	125.74
1308	-7.5	1.5	0.	116.93
1309	-7.	1.5	0.	117.49
1310	-6.5	1.5	0.	116.79
1311	-6.	1.5	0.	125.48
1312	9.	3.5	0.	126.59
1313	8.5	3.5	0.	118.01
1314	8.	3.5	0.	118.65
1315	7.	3.5	0.	126.89
1316	7.5	3.5	0.	117.97
1317	6.5	4.	0.	131.9
1318	6.5	5.	0.	131.37
1319	6.5	4.5	0.	131.41
1320	7.	5.5	0.	126.1
1321	7.5	5.5	0.	117.5
1322	8.	5.5	0.	118.29
1323	9.	5.5	0.	126.42
1324	8.5	5.5	0.	117.74
1325	3.5	5.	0.	128.88
1326	3.5	6.	0.	129.35
1327	3.5	5.5	0.	129.03
1328	4.	6.5	0.	123.37
1329	5.	6.5	0.	124.28
1330	4.5	6.5	0.	113.33
1331	5.5	6.	0.	131.53
1332	5.5	5.	0.	130.24
1333	5.5	5.5	0.	131.15
1334	4.	4.5	0.	122.31
1335	4.5	4.5	0.	112.08
1336	5.	4.5	0.	122.53
1337	3.5	-6.	0.	129.75
1338	3.5	-5.	0.	129.85
1339	3.5	-5.5	0.	129.17
1340	4.	-4.5	0.	125.16
1341	4.5	-4.5	0.	116.41
1342	5.	-4.5	0.	117.03
1343	6.	-4.5	0.	125.23
1344	5.5	-4.5	0.	116.42
1345	6.5	-5.	0.	129.85
1346	6.5	-6.	0.	129.89
1347	6.5	-5.5	0.	129.23
1348	6.	-6.5	0.	125.
1349	5.5	-6.5	0.	116.28
1350	4.	-6.5	0.	125.04
1351	4.5	-6.5	0.	116.27
1352	5.	-6.5	0.	116.89
1353	9.	-9.5	0.	126.52
1354	8.5	-9.5	0.	126.18
1355	8.	-9.5	0.	125.78
1356	7.5	-9.5	0.	125.25
1357	7.	-9.5	0.	124.56
1358	6.5	-9.5	0.	123.76
1359	6.	-9.5	0.	122.98
1360	5.5	-9.5	0.	122.4
1361	5.	-9.5	0.	122.2
1362	4.5	-9.5	0.	122.44
1363	4.	-9.5	0.	123.06
1364	3.5	-9.5	0.	123.88
1365	3.	-9.5	0.	124.69
1366	2.5	-9.5	0.	125.37
1367	2.	-9.5	0.	125.85
1368	1.5	-9.5	0.	126.13
1369	1.	-9.5	0.	126.27
1370	0.5	-9.5	0.	126.29
1371	5.4139e-013	-9.5	0.	126.24
1372	-0.5	-9.5	0.	126.16
1373	-1.	-9.5	0.	126.05
1374	-1.5	-9.5	0.	125.94
1375	-2.	-9.5	0.	125.82
1376	-2.5	-9.5	0.	125.7
1377	-3.	-9.5	0.	125.59
1378	-3.5	-9.5	0.	125.49
1379	-4.5	-9.5	0.	125.29
1380	-5.	-9.5	0.	125.19
1381	-5.5	-9.5	0.	125.11
1382	-6.	-9.5	0.	125.02
1383	-6.5	-9.5	0.	124.95
1384	-7.	-9.5	0.	124.87
1385	-7.5	-9.5	0.	124.8
1386	-8.	-9.5	0.	124.73
1387	-8.5	-9.5	0.	124.66
1388	-9.	-9.5	0.	124.59
1389	-9.5	-9.5	0.	124.53
1390	-9.5	-9.	0.	124.53
1391	-9.5	-8.5	0.	124.53
1392	-9.5	-8.	0.	124.52
1393	-9.5	-7.5	0.	124.52
1394	-9.5	-7.	0.	124.53
1395	-9.5	-6.5	0.	124.53
1396	-9.5	-6.	0.	124.55
1397	-9.5	-5.5	0.	124.57
1398	-9.5	-5.	0.	124.6
1399	-9.5	-4.5	0.	124.65
1400	-9.5	-4.	0.	124.72
1401	-9.5	-3.5	0.	124.81
1402	-9.5	-3.	0.	124.95
1403	-9.5	-2.5	0.	125.13
1404	-9.5	-2.	0.	125.38
1405	-9.5	-1.5	0.	125.69
1406	-9.5	-1.	0.	126.07
1407	-9.5	-0.5	0.	126.53
1408	-9.5	-1.4167e-012	0.	127.03
1409	-9.5	0.5	0.	127.51
1410	-9.5	1.	0.	127.75
1411	-9.5	1.5	0.	127.45
1412	-9.5	2.	0.	126.55
1413	-9.5	2.5	0.	126.1
1414	-9.5	3.	0.	126.6
1415	-9.5	3.5	0.	127.54
1416	-9.5	4.	0.	127.89
1417	-9.5	4.5	0.	127.68
1418	-9.5	5.	0.	127.24
1419	-9.5	5.5	0.	126.77
1420	-9.5	6.	0.	126.34
1421	-9.5	6.5	0.	125.99
1422	-9.5	7.	0.	125.7
1423	-9.5	7.5	0.	125.47
1424	-9.5	8.	0.	125.3
1425	-9.5	8.5	0.	125.17
1426	-9.5	9.	0.	125.08
1427	-9.5	9.5	0.	125.01
1428	-9.	9.5	0.	124.97
1429	-8.5	9.5	0.	124.92
1430	-8.	9.5	0.	124.87
1431	-7.5	9.5	0.	124.84
1432	-7.	9.5	0.	124.82
1433	-6.5	9.5	0.	124.84
1434	-6.	9.5	0.	124.89
1435	-5.5	9.5	0.	124.96
1436	-5.	9.5	0.	125.04
1437	-4.5	9.5	0.	125.14
1438	-4.	9.5	0.	125.24
1439	-3.5	9.5	0.	125.34
1440	-3.	9.5	0.	125.43
1441	-2.5	9.5	0.	125.51
1442	-2.	9.5	0.	125.59
1443	-1.5	9.5	0.	125.65
1444	-1.	9.5	0.	125.71
1445	-0.5	9.5	0.	125.76
1446	-8.4836e-012	9.5	0.	125.8
1447	0.5	9.5	0.	125.83
1448	1.	9.5	0.	125.84
1449	1.5	9.5	0.	125.81
1450	2.	9.5	0.	125.75
1451	2.5	9.5	0.	125.62
1452	3.	9.5	0.	125.45
1453	3.5	9.5	0.	125.24
1454	4.	9.5	0.	125.04
1455	4.5	9.5	0.	124.91
1456	5.	9.5	0.	124.86
1457	5.5	9.5	0.	124.87
1458	6.	9.5	0.	124.88
1459	6.5	9.5	0.	124.87
1460	7.	9.5	0.	124.82
1461	7.5	9.5	0.	124.78
1462	8.	9.5	0.	124.78
1463	8.5	9.5	0.	124.84
1464	9.	9.5	0.	124.93
1465	9.5	9.5	0.	125.03
1466	9.5	9.	0.	125.15
1467	9.5	8.5	0.	125.32
1468	9.5	8.	0.	125.59
1469	9.5	7.5	0.	125.98
1470	9.5	7.	0.	126.55
1471	9.5	6.5	0.	127.37
1472	9.5	6.	0.	128.85
1473	9.5	5.5	0.	132.54
1474	9.5	5.	0.	132.61
1475	9.5	4.5	0.	132.62
1476	9.5	4.	0.	132.89
1477	9.5	3.5	0.	132.9
1478	9.5	3.	0.	129.29
1479	9.5	2.5	0.	127.87
1480	9.5	2.	0.	127.05
1481	9.5	1.5	0.	126.48
1482	9.5	1.	0.	126.12
1483	9.5	0.5	0.	125.9
1484	9.5	1.6137e-013	0.	125.8
1485	9.5	-0.5	0.	125.78
1486	9.5	-1.	0.	125.82
1487	9.5	-1.5	0.	125.87
1488	9.5	-2.	0.	125.91
1489	9.5	-2.5	0.	125.92
1490	9.5	-3.	0.	125.87
1491	9.5	-3.5	0.	125.74
1492	9.5	-4.	0.	125.55
1493	9.5	-4.5	0.	125.34
1494	9.5	-5.	0.	125.19
1495	9.5	-5.5	0.	125.17
1496	9.5	-6.	0.	125.32
1497	9.5	-6.5	0.	125.6
1498	9.5	-7.	0.	125.94
1499	9.5	-7.5	0.	126.27
1500	9.5	-8.	0.	126.53
1501	9.5	-8.5	0.	126.71
1502	9.5	-9.	0.	126.83
1503	9.5	-9.5	0.	126.89
1504	-2.5	7.	0.	125.41
1505	-3.	6.	0.	125.64
1506	8.	-9.	0.	125.95
1507	-0.5	5.	0.	125.
1508	-2.6299e-012	-6.5	0.	125.67
1509	-1.	-7.	0.	125.69
1510	0.5	4.5	0.	125.01
1511	-7.	-4.	0.	124.46
1512	-7.	-3.	0.	124.15
1513	-5.	-3.	0.	124.83
1514	-9.	-3.	0.	124.78
1515	-5.5	-3.	0.	124.58
1516	4.	2.5178e-011	0.	124.33
1517	6.	-0.5	0.	123.78
1518	-3.5	1.5	0.	125.93
1519	4.	-3.5	0.	123.33
1520	-4.5	3.	0.	126.08
1521	-3.	-4.	0.	125.44
1522	6.	-3.	0.	123.16
1523	-2.	-4.	0.	125.61
1524	-1.2277e-010	1.	0.	125.6
1525	4.	-0.5	0.	124.19
1526	4.	-2.	0.	123.63
1527	-2.5	1.5	0.	125.57
1528	4.	2.5	0.	124.13
1529	-0.5	3.	0.	125.19
1530	3.5	3.5	0.	124.65
1531	-9.9585e-011	5.	0.	124.94
1532	-4.	7.	0.	125.32
1533	-1.	5.	0.	125.08
1534	-3.5	-3.	0.	125.47
1535	-1.5	3.	0.	125.16
1536	7.	-1.5	0.	124.48
1537	-5.	3.	0.	127.36
1538	1.	7.	0.	125.52
1539	-9.	-3.5	0.	124.72
1540	-4.	1.5	0.	126.37
1541	6.5	-2.5	0.	124.36
1542	-1.	-3.5	0.	125.83
1543	7.5	1.5	0.	122.83
1544	-6.5	-2.	0.	123.74
1545	-7.5	-2.	0.	123.74
1546	-3.	-5.	0.	125.35
1547	-2.	-3.5	0.	125.7
1548	-2.	1.5	0.	125.51
1549	-9.	1.	0.	128.55
1550	-4.	-0.5	0.	126.29
1551	5.	0.5	0.	124.24
1552	7.5	-5.	0.	126.15
1553	6.	5.5	0.	129.48
1554	5.5	7.	0.	127.89
1555	5.	-9.	0.	121.91
1556	4.5	-7.	0.	118.94
1557	-3.	-4.5	0.	125.39
1558	-1.	-2.5	0.	126.01
1559	2.5	6.5	0.	126.72
1560	3.	-1.	0.	124.92
1561	0.5	-0.5	0.	125.88
1562	4.	7.5	0.	123.62
1563	5.	1.	0.	124.48
1564	-6.	7.	0.	124.17
1565	-6.	6.5	0.	123.94
1566	0.5	5.	0.	124.92
1567	-1.	-4.5	0.	125.62
1568	4.	-8.	0.	122.88
1569	-2.	6.5	0.	125.36
1570	-1.5	6.	0.	125.25
1571	-6.	-6.	0.	124.85
1572	-5.	-7.	0.	125.08
1573	-2.	7.	0.	125.35
1574	-5.5	-2.1709e-011	0.	125.1
1575	-1.	-5.5	0.	125.52
1576	-6.5	-6.	0.	124.78
1577	1.5	6.5	0.	125.52
1578	-6.5	-4.	0.	124.5
1579	7.5	1.	0.	123.34
1580	6.	0.5	0.	124.08
1581	-2.5	8.5	0.	125.39
1582	3.5	0.5	0.	124.65
1583	-7.	-8.8591e-012	0.	121.
1584	-4.	-3.	0.	125.29
1585	6.	-7.5	0.	122.99
1586	-7.	6.	0.	122.85
1587	4.5	-4.	0.	119.16
1588	-1.	3.	0.	125.16
1589	8.	8.5	0.	124.42
1590	7.5	-6.5	0.	127.22
1591	7.	-6.5	0.	128.73
1592	-4.5	1.5	0.	127.22
1593	-5.	1.5	0.	128.87
1594	4.5	7.	0.	120.04
1595	-2.	-4.5	0.	125.54
1596	-2.	-5.5	0.	125.46
1597	-1.	6.	0.	125.14
1598	-2.	6.	0.	125.37
1599	-2.	5.	0.	125.37
1600	4.	-1.	0.	124.02
1601	2.	-6.	0.	125.71
1602	6.5	3.5	0.	132.84
1603	5.5	-3.	0.	121.55
1604	6.5	-3.5	0.	125.8
1605	3.	-8.	0.	125.92
1606	-5.5	4.	0.	127.86
1607	3.	8.5	0.	125.65
1608	-7.7192e-011	7.	0.	125.26
1609	-1.	7.	0.	125.25
1610	-0.5	-1.5	0.	126.08
1611	5.	-0.5	0.	123.76
1612	5.5	-1.5	0.	123.2
1613	5.5	7.5	0.	126.01
1614	-2.	3.	0.	125.17
1615	6.	8.5	0.	125.32
1616	5.5	0.5	0.	124.18
1617	6.5	1.	0.	124.04
1618	-2.	-5.	0.	125.48
1619	1.	5.	0.	124.94
1620	-4.	-5.	0.	125.16
1621	-4.	-9.5	0.	125.38
1622	-7.	-2.	0.	123.63
1623	-1.0551e-010	6.	0.	125.01
1624	6.	4.	0.	129.57
1625	3.5	-9.	0.	123.98
1626	9.	1.	0.	125.03
1627	3.5	-1.	0.	124.46
1628	3.5	4.	0.	125.93
1629	5.	-7.	0.	117.17
1630	4.5	-9.	0.	122.22
1631	-3.	-6.	0.	125.35
1632	3.	2.5	0.	125.03
1633	1.	-4.5	0.	125.84
1634	-4.	3.	0.	125.62
1635	-5.5	4.5	0.	125.96
1636	5.	-3.	0.	120.9
1637	7.	-0.5	0.	124.1
1638	-9.	2.	0.	128.17
1639	-3.	3.	0.	125.28
1640	-7.	-5.	0.	124.63
1641	4.	-2.5	0.	123.43
1642	-2.	-3.	0.	125.8
1643	-6.5	-3.	0.	124.21
1644	7.5	-1.5	0.	124.89
1645	-2.5	-4.5	0.	125.47
1646	-3.	-3.	0.	125.61
1647	-4.	6.	0.	125.7
1648	-2.	5.5	0.	125.38
1649	-9.	1.5	0.	129.3
1650	4.	-7.	0.	123.5
1651	4.	-9.	0.	123.
1652	-2.	-6.5	0.	125.5
1653	-1.5	-4.	0.	125.67
1654	-1.	6.5	0.	125.19
1655	-9.3705e-011	6.5	0.	125.13
1656	-1.	-1.	0.	126.04
1657	-8.5	-6.5	0.	124.64
1658	-3.5	3.	0.	125.4
1659	-3.7183e-013	-7.	0.	125.83
1660	-6.	0.5	0.	123.48
1661	-5.5	-4.	0.	124.72
1662	-5.	-8.5	0.	125.16
1663	-8.5	-3.5	0.	124.59
1664	-7.5	8.5	0.	124.68
1665	7.	0.5	0.	123.78
1666	2.	6.5	0.	125.94
1667	4.	-1.5	0.	123.83
1668	-3.	-5.5	0.	125.34
1669	-3.	1.5	0.	125.7
1670	5.5	-0.5	0.	123.72
1671	-1.	5.5	0.	125.1
1672	7.	4.75	0.	140.04
1673	7.25	5.	0.	126.28
1674	6.75	5.	0.	133.17
1675	7.	5.25	0.	130.88
1676	7.	4.25	0.	140.5
1677	7.25	4.	0.	126.92
1678	7.	3.75	0.	131.73
1679	6.75	4.	0.	133.89
1680	8.75	5.	0.	127.45
1681	9.	4.75	0.	141.93
1682	9.	5.25	0.	131.72
1683	9.25	5.	0.	134.47
1684	8.75	4.	0.	127.59
1685	9.	4.25	0.	141.93
1686	9.	3.75	0.	131.8
1687	9.25	4.	0.	134.61
1688	4.	5.75	0.	137.39
1689	4.25	6.	0.	121.81
1690	3.75	6.	0.	130.9
1691	4.	6.25	0.	128.23
1692	4.	5.25	0.	137.09
1693	4.25	5.	0.	121.02
1694	3.75	5.	0.	130.35
1695	4.	4.75	0.	127.39
1696	4.75	6.	0.	122.43
1697	5.	5.75	0.	138.51
1698	5.	6.25	0.	129.29
1699	5.25	6.	0.	132.59
1700	4.75	5.	0.	121.16
1701	5.	5.25	0.	137.73
1702	5.25	5.	0.	131.15
1703	5.	4.75	0.	127.66
1704	4.	-5.25	0.	138.35
1705	4.25	-5.	0.	124.94
1706	3.75	-5.	0.	131.76
1707	4.	-4.75	0.	129.73
1708	4.	-5.75	0.	138.34
1709	4.25	-6.	0.	124.87
1710	3.75	-6.	0.	131.69
1711	4.	-6.25	0.	129.66
1712	5.75	-5.	0.	125.
1713	6.	-5.25	0.	138.45
1714	6.	-4.75	0.	129.83
1715	6.25	-5.	0.	131.83
1716	5.75	-6.	0.	124.88
1717	6.	-5.75	0.	138.35
1718	6.25	-6.	0.	131.73
1719	6.	-6.25	0.	129.6
1720	-8.	2.75	0.	139.41
1721	-7.75	3.	0.	125.78
1722	-8.25	3.	0.	132.72
1723	-8.	3.25	0.	130.45
1724	-8.	2.25	0.	139.43
1725	-7.75	2.	0.	125.77
1726	-8.25	2.	0.	132.7
1727	-8.	1.75	0.	130.47
1728	-6.25	3.	0.	125.38
1729	-6.	2.75	0.	138.79
1730	-6.	3.25	0.	130.14
1731	-5.75	3.	0.	132.09
1732	-6.25	2.	0.	125.36
1733	-6.	2.25	0.	138.76
1734	-5.75	2.	0.	132.09
1735	-6.	1.75	0.	130.09
1736	9.75	10.	0.	124.99
1737	10.	9.75	0.	125.
1738	-9.75	10.	0.	125.
1739	-10.	9.75	0.	125.
1740	10.	-9.75	0.	127.38
1741	9.75	-10.	0.	127.15
1742	-10.	-9.75	0.	124.46
1743	-9.75	-10.	0.	124.5
1744	6.75	4.5	0.	138.1
1745	7.75	5.	0.	120.38
1746	7.5	5.25	0.	117.43
1747	8.25	5.	0.	120.82
1748	8.	5.25	0.	120.69
1749	8.5	5.25	0.	118.01
1750	7.75	4.	0.	120.73
1751	7.5	3.75	0.	117.86
1752	8.25	4.	0.	121.12
1753	8.	3.75	0.	121.02
1754	8.5	3.75	0.	118.29
1755	9.25	4.5	0.	139.86
1756	3.75	5.5	0.	135.57
1757	4.5	6.25	0.	112.08
1758	4.5	4.75	0.	110.93
1759	5.25	5.5	0.	137.12
1760	3.75	-5.5	0.	135.95
1761	4.75	-5.	0.	118.85
1762	4.5	-4.75	0.	116.24
1763	5.25	-5.	0.	118.84
1764	5.	-4.75	0.	119.19
1765	5.5	-4.75	0.	116.24
1766	4.75	-6.	0.	118.74
1767	4.5	-6.25	0.	116.11
1768	5.25	-6.	0.	118.77
1769	5.	-6.25	0.	119.07
1770	5.5	-6.25	0.	116.15
1771	6.25	-5.5	0.	136.02
1772	-8.25	2.5	0.	137.08
1773	-7.25	3.	0.	119.53
1774	-7.5	3.25	0.	116.9
1775	-6.75	3.	0.	119.36
1776	-7.	3.25	0.	119.72
1777	-6.5	3.25	0.	116.64
1778	-7.25	2.	0.	119.51
1779	-7.5	1.75	0.	116.87
1780	-6.75	2.	0.	119.37
1781	-7.	1.75	0.	119.71
1782	-6.5	1.75	0.	116.65
1783	-5.75	2.5	0.	136.31
1784	9.25	10.	0.	124.96
1785	9.5	9.75	0.	125.01
1786	8.75	10.	0.	124.88
1787	9.	9.75	0.	124.93
1788	8.25	10.	0.	124.8
1789	8.5	9.75	0.	124.84
1790	7.75	10.	0.	124.75
1791	8.	9.75	0.	124.77
1792	7.25	10.	0.	124.73
1793	7.5	9.75	0.	124.76
1794	6.75	10.	0.	124.74
1795	7.	9.75	0.	124.78
1796	6.25	10.	0.	124.74
1797	6.5	9.75	0.	124.81
1798	5.75	10.	0.	124.74
1799	6.	9.75	0.	124.81
1800	5.25	10.	0.	124.74
1801	5.5	9.75	0.	124.8
1802	4.75	10.	0.	124.78
1803	5.	9.75	0.	124.8
1804	4.25	10.	0.	124.9
1805	4.5	9.75	0.	124.86
1806	3.75	10.	0.	125.1
1807	4.	9.75	0.	125.01
1808	3.25	10.	0.	125.35
1809	3.5	9.75	0.	125.23
1810	2.75	10.	0.	125.59
1811	3.	9.75	0.	125.46
1812	2.25	10.	0.	125.8
1813	2.5	9.75	0.	125.67
1814	1.75	10.	0.	125.94
1815	2.	9.75	0.	125.82
1816	1.25	10.	0.	126.02
1817	1.5	9.75	0.	125.9
1818	0.75	10.	0.	126.04
1819	1.	9.75	0.	125.94
1820	0.25	10.	0.	126.02
1821	0.5	9.75	0.	125.93
1822	-0.25	10.	0.	125.98
1823	-4.2444e-012	9.75	0.	125.9
1824	-0.75	10.	0.	125.92
1825	-0.5	9.75	0.	125.85
1826	-1.25	10.	0.	125.84
1827	-1.	9.75	0.	125.79
1828	-1.75	10.	0.	125.76
1829	-1.5	9.75	0.	125.73
1830	-2.25	10.	0.	125.67
1831	-2.	9.75	0.	125.65
1832	-2.75	10.	0.	125.56
1833	-2.5	9.75	0.	125.56
1834	-3.25	10.	0.	125.45
1835	-3.	9.75	0.	125.47
1836	-3.75	10.	0.	125.33
1837	-3.5	9.75	0.	125.37
1838	-4.25	10.	0.	125.21
1839	-4.	9.75	0.	125.26
1840	-4.75	10.	0.	125.09
1841	-4.5	9.75	0.	125.14
1842	-5.25	10.	0.	124.98
1843	-5.	9.75	0.	125.04
1844	-5.75	10.	0.	124.89
1845	-5.5	9.75	0.	124.94
1846	-6.25	10.	0.	124.82
1847	-6.	9.75	0.	124.87
1848	-6.75	10.	0.	124.79
1849	-6.5	9.75	0.	124.82
1850	-7.25	10.	0.	124.79
1851	-7.	9.75	0.	124.8
1852	-7.75	10.	0.	124.83
1853	-7.5	9.75	0.	124.82
1854	-8.25	10.	0.	124.88
1855	-8.	9.75	0.	124.86
1856	-8.75	10.	0.	124.94
1857	-8.5	9.75	0.	124.92
1858	-9.25	10.	0.	124.98
1859	-9.	9.75	0.	124.97
1860	-9.5	9.75	0.	125.01
1861	10.	9.25	0.	125.08
1862	9.75	9.5	0.	125.02
1863	10.	8.75	0.	125.3
1864	9.75	9.	0.	125.15
1865	10.	8.25	0.	125.72
1866	9.75	8.5	0.	125.39
1867	10.	7.75	0.	126.42
1868	9.75	8.	0.	125.79
1869	10.	7.25	0.	127.56
1870	9.75	7.5	0.	126.42
1871	10.	6.75	0.	129.3
1872	9.75	7.	0.	127.4
1873	10.	6.25	0.	131.51
1874	9.75	6.5	0.	128.85
1875	10.	5.75	0.	132.53
1876	9.75	6.	0.	130.76
1877	10.	5.25	0.	129.82
1878	9.75	5.5	0.	132.46
1879	10.	4.75	0.	125.01
1880	9.75	5.	0.	129.89
1881	10.	4.25	0.	125.22
1882	9.75	4.5	0.	127.69
1883	10.	3.75	0.	130.36
1884	9.75	4.	0.	130.24
1885	10.	3.25	0.	133.26
1886	9.75	3.5	0.	132.97
1887	10.	2.75	0.	132.29
1888	9.75	3.	0.	131.37
1889	10.	2.25	0.	130.09
1890	9.75	2.5	0.	129.49
1891	10.	1.75	0.	128.34
1892	9.75	2.	0.	128.05
1893	10.	1.25	0.	127.2
1894	9.75	1.5	0.	127.05
1895	10.	0.75	0.	126.53
1896	9.75	1.	0.	126.44
1897	10.	0.25	0.	126.18
1898	9.75	0.5	0.	126.1
1899	10.	-0.25	0.	126.04
1900	9.75	7.8084e-014	0.	125.94
1901	10.	-0.75	0.	126.02
1902	9.75	-0.5	0.	125.9
1903	10.	-1.25	0.	126.06
1904	9.75	-1.	0.	125.93
1905	10.	-1.75	0.	126.11
1906	9.75	-1.5	0.	125.98
1907	10.	-2.25	0.	126.1
1908	9.75	-2.	0.	126.02
1909	10.	-2.75	0.	126.01
1910	9.75	-2.5	0.	126.
1911	10.	-3.25	0.	125.79
1912	9.75	-3.	0.	125.9
1913	10.	-3.75	0.	125.46
1914	9.75	-3.5	0.	125.7
1915	10.	-4.25	0.	125.07
1916	9.75	-4.	0.	125.41
1917	10.	-4.75	0.	124.73
1918	9.75	-4.5	0.	125.11
1919	10.	-5.25	0.	124.56
1920	9.75	-5.	0.	124.89
1921	10.	-5.75	0.	124.64
1922	9.75	-5.5	0.	124.85
1923	10.	-6.25	0.	124.97
1924	9.75	-6.	0.	125.03
1925	10.	-6.75	0.	125.47
1926	9.75	-6.5	0.	125.4
1927	10.	-7.25	0.	126.02
1928	9.75	-7.	0.	125.85
1929	10.	-7.75	0.	126.52
1930	9.75	-7.5	0.	126.28
1931	10.	-8.25	0.	126.9
1932	9.75	-8.	0.	126.64
1933	10.	-8.75	0.	127.16
1934	9.75	-8.5	0.	126.89
1935	10.	-9.25	0.	127.31
1936	9.75	-9.	0.	127.04
1937	9.75	-9.5	0.	127.13
1938	-10.	9.25	0.	125.03
1939	-9.75	9.5	0.	125.01
1940	-10.	8.75	0.	125.12
1941	-9.75	9.	0.	125.07
1942	-10.	8.25	0.	125.28
1943	-9.75	8.5	0.	125.18
1944	-10.	7.75	0.	125.5
1945	-9.75	8.	0.	125.34
1946	-10.	7.25	0.	125.81
1947	-9.75	7.5	0.	125.55
1948	-10.	6.75	0.	126.21
1949	-9.75	7.	0.	125.84
1950	-10.	6.25	0.	126.74
1951	-9.75	6.5	0.	126.21
1952	-10.	5.75	0.	127.36
1953	-9.75	6.	0.	126.68
1954	-10.	5.25	0.	128.01
1955	-9.75	5.5	0.	127.23
1956	-10.	4.75	0.	128.48
1957	-9.75	5.	0.	127.78
1958	-10.	4.25	0.	128.38
1959	-9.75	4.5	0.	128.15
1960	-10.	3.75	0.	127.34
1961	-9.75	4.	0.	128.01
1962	-10.	3.25	0.	125.53
1963	-9.75	3.5	0.	127.04
1964	-10.	2.75	0.	124.
1965	-9.75	3.	0.	125.55
1966	-10.	2.25	0.	123.97
1967	-9.75	2.5	0.	124.8
1968	-10.	1.75	0.	125.44
1969	-9.75	2.	0.	125.49
1970	-10.	1.25	0.	127.2
1971	-9.75	1.5	0.	126.93
1972	-10.	0.75	0.	128.2
1973	-9.75	1.	0.	127.86
1974	-10.	0.25	0.	128.26
1975	-9.75	0.5	0.	127.97
1976	-10.	-0.25	0.	127.75
1977	-9.75	-7.1094e-013	0.	127.56
1978	-10.	-0.75	0.	127.06
1979	-9.75	-0.5	0.	126.97
1980	-10.	-1.25	0.	126.41
1981	-9.75	-1.	0.	126.39
1982	-10.	-1.75	0.	125.86
1983	-9.75	-1.5	0.	125.89
1984	-10.	-2.25	0.	125.44
1985	-9.75	-2.	0.	125.5
1986	-10.	-2.75	0.	125.13
1987	-9.75	-2.5	0.	125.2
1988	-10.	-3.25	0.	124.9
1989	-9.75	-3.	0.	124.97
1990	-10.	-3.75	0.	124.74
1991	-9.75	-3.5	0.	124.81
1992	-10.	-4.25	0.	124.64
1993	-9.75	-4.	0.	124.7
1994	-10.	-4.75	0.	124.56
1995	-9.75	-4.5	0.	124.62
1996	-10.	-5.25	0.	124.51
1997	-9.75	-5.	0.	124.57
1998	-10.	-5.75	0.	124.48
1999	-9.75	-5.5	0.	124.53
2000	-10.	-6.25	0.	124.47
2001	-9.75	-6.	0.	124.51
2002	-10.	-6.75	0.	124.46
2003	-9.75	-6.5	0.	124.5
2004	-10.	-7.25	0.	124.45
2005	-9.75	-7.	0.	124.49
2006	-10.	-7.75	0.	124.46
2007	-9.75	-7.5	0.	124.49
2008	-10.	-8.25	0.	124.46
2009	-9.75	-8.	0.	124.49
2010	-10.	-8.75	0.	124.46
2011	-9.75	-8.5	0.	124.49
2012	-10.	-9.25	0.	124.46
2013	-9.75	-9.	0.	124.49
2014	-9.75	-9.5	0.	124.5
2015	-9.25	-10.	0.	124.56
2016	-9.5	-9.75	0.	124.53
2017	-8.75	-10.	0.	124.63
2018	-9.	-9.75	0.	124.59
2019	-8.25	-10.	0.	124.7
2020	-8.5	-9.75	0.	124.66
2021	-7.75	-10.	0.	124.77
2022	-8.	-9.75	0.	124.73
2023	-7.25	-10.	0.	124.84
2024	-7.5	-9.75	0.	124.8
2025	-6.75	-10.	0.	124.91
2026	-7.	-9.75	0.	124.87
2027	-6.25	-10.	0.	124.99
2028	-6.5	-9.75	0.	124.95
2029	-5.75	-10.	0.	125.07
2030	-6.	-9.75	0.	125.02
2031	-5.25	-10.	0.	125.15
2032	-5.5	-9.75	0.	125.11
2033	-4.75	-10.	0.	125.24
2034	-5.	-9.75	0.	125.19
2035	-4.25	-10.	0.	125.34
2036	-4.5	-9.75	0.	125.29
2037	-3.75	-10.	0.	125.44
2038	-4.	-9.75	0.	125.39
2039	-3.25	-10.	0.	125.55
2040	-3.5	-9.75	0.	125.49
2041	-2.75	-10.	0.	125.66
2042	-3.	-9.75	0.	125.6
2043	-2.25	-10.	0.	125.77
2044	-2.5	-9.75	0.	125.71
2045	-1.75	-10.	0.	125.89
2046	-2.	-9.75	0.	125.83
2047	-1.25	-10.	0.	126.01
2048	-1.5	-9.75	0.	125.94
2049	-0.75	-10.	0.	126.12
2050	-1.	-9.75	0.	126.06
2051	-0.25	-10.	0.	126.21
2052	-0.5	-9.75	0.	126.16
2053	0.25	-10.	0.	126.27
2054	2.7329e-013	-9.75	0.	126.25
2055	0.75	-10.	0.	126.27
2056	0.5	-9.75	0.	126.29
2057	1.25	-10.	0.	126.18
2058	1.	-9.75	0.	126.26
2059	1.75	-10.	0.	125.95
2060	1.5	-9.75	0.	126.12
2061	2.25	-10.	0.	125.55
2062	2.	-9.75	0.	125.82
2063	2.75	-10.	0.	124.97
2064	2.5	-9.75	0.	125.34
2065	3.25	-10.	0.	124.24
2066	3.	-9.75	0.	124.66
2067	3.75	-10.	0.	123.46
2068	3.5	-9.75	0.	123.86
2069	4.25	-10.	0.	122.8
2070	4.	-9.75	0.	123.07
2071	4.75	-10.	0.	122.4
2072	4.5	-9.75	0.	122.48
2073	5.25	-10.	0.	122.37
2074	5.	-9.75	0.	122.24
2075	5.75	-10.	0.	122.73
2076	5.5	-9.75	0.	122.43
2077	6.25	-10.	0.	123.36
2078	6.	-9.75	0.	122.98
2079	6.75	-10.	0.	124.11
2080	6.5	-9.75	0.	123.74
2081	7.25	-10.	0.	124.84
2082	7.	-9.75	0.	124.53
2083	7.75	-10.	0.	125.45
2084	7.5	-9.75	0.	125.21
2085	8.25	-10.	0.	125.94
2086	8.	-9.75	0.	125.75
2087	8.75	-10.	0.	126.33
2088	8.5	-9.75	0.	126.16
2089	9.25	-10.	0.	126.71
2090	9.	-9.75	0.	126.52
2091	9.5	-9.75	0.	126.9
2092	-0.5	-0.75	0.	125.99
2093	-0.25	-1.	0.	126.03
2094	-0.5	-1.25	0.	126.06
2095	-0.75	-1.	0.	126.04
2096	-1.	-1.75	0.	126.06
2097	-1.25	-1.5	0.	126.06
2098	-0.75	-1.5	0.	126.07
2099	-1.	-1.25	0.	126.05
2100	0.25	-8.3668e-011	0.	125.8
2101	0.75	-2.6202e-011	0.	125.73
2102	0.5	0.25	0.	125.72
2103	0.5	-0.25	0.	125.83
2104	-8.4737e-011	-0.25	0.	125.87
2105	-0.25	-0.5	0.	125.94
2106	-6.0106e-011	-0.75	0.	125.97
2107	0.25	-0.5	0.	125.9
2108	-1.25	-2.	0.	126.04
2109	-0.75	-2.	0.	126.07
2110	-1.	-2.25	0.	126.03
2111	-1.75	-2.	0.	126.
2112	-1.5	-1.75	0.	126.04
2113	-1.5	-2.25	0.	125.99
2114	-2.	-2.25	0.	125.94
2115	-1.75	-2.5	0.	125.92
2116	-2.25	-2.5	0.	125.86
2117	-2.	-2.75	0.	125.85
2118	-1.0659e-010	0.25	0.	125.77
2119	-0.25	-1.3542e-010	0.	125.84
2120	-2.25	-2.	0.	125.96
2121	-2.	-1.75	0.	126.01
2122	-0.5	-0.25	0.	125.91
2123	-0.75	-0.5	0.	125.97
2124	-1.75	-1.5	0.	126.05
2125	-1.5	-1.25	0.	126.06
2126	1.25	1.7295e-011	0.	125.63
2127	1.	0.25	0.	125.65
2128	1.	-0.25	0.	125.74
2129	0.25	0.5	0.	125.69
2130	0.75	0.5	0.	125.64
2131	0.5	0.75	0.	125.63
2132	-0.5	-2.25	0.	126.08
2133	-0.25	-2.	0.	126.12
2134	-0.5	-1.75	0.	126.09
2135	-3.9385e-011	-1.25	0.	126.06
2136	0.25	-1.	0.	126.
2137	-1.5	-2.75	0.	125.91
2138	-1.25	-2.5	0.	125.98
2139	-2.5	-2.25	0.	125.88
2140	-2.5	-2.75	0.	125.77
2141	-2.75	-2.5	0.	125.77
2142	-0.25	0.5	0.	125.72
2143	-1.1933e-010	0.75	0.	125.66
2144	-2.75	-2.	0.	125.89
2145	-2.5	-1.75	0.	125.98
2146	-0.5	0.25	0.	125.8
2147	-0.75	-1.6095e-010	0.	125.87
2148	-2.25	-1.5	0.	126.04
2149	-2.	-1.25	0.	126.07
2150	-1.	-0.25	0.	125.94
2151	-1.25	-0.5	0.	126.
2152	-1.	-0.75	0.	126.01
2153	1.75	4.3412e-011	0.	125.47
2154	1.5	0.25	0.	125.53
2155	1.5	-0.25	0.	125.62
2156	-1.5	-0.75	0.	126.04
2157	-1.75	-1.	0.	126.07
2158	-1.25	-1.	0.	126.05
2159	1.25	0.5	0.	125.55
2160	1.	0.75	0.	125.57
2161	1.25	-0.5	0.	125.73
2162	1.	-0.75	0.	125.86
2163	0.75	-0.5	0.	125.84
2164	0.75	1.	0.	125.56
2165	0.5	1.25	0.	125.54
2166	0.25	1.	0.	125.59
2167	-0.5	-2.75	0.	126.04
2168	-0.25	-2.5	0.	126.11
2169	-0.75	-2.5	0.	126.04
2170	-2.5416e-011	-1.75	0.	126.12
2171	0.25	-1.5	0.	126.09
2172	-0.25	-1.5	0.	126.09
2173	0.75	-1.	0.	125.96
2174	0.5	-1.25	0.	126.04
2175	0.5	-0.75	0.	125.93
2176	-1.25	-3.	0.	125.9
2177	-0.75	-3.	0.	125.97
2178	-1.	-3.25	0.	125.88
2179	-1.	-2.75	0.	125.97
2180	-1.5	-3.25	0.	125.82
2181	-1.75	-3.	0.	125.83
2182	-2.5	-3.25	0.	125.67
2183	-2.25	-3.	0.	125.76
2184	-2.75	-3.	0.	125.67
2185	-3.	-2.25	0.	125.79
2186	-3.25	-2.5	0.	125.66
2187	-3.	-2.75	0.	125.67
2188	-3.25	-2.	0.	125.79
2189	-3.	-1.75	0.	125.92
2190	-0.5	0.75	0.	125.68
2191	-0.75	0.5	0.	125.75
2192	-2.75	-3.5	0.	125.57
2193	-3.25	-3.5	0.	125.45
2194	-3.	-3.75	0.	125.48
2195	-3.	-3.25	0.	125.57
2196	-2.75	-1.5	0.	126.01
2197	-2.5	-1.25	0.	126.07
2198	-1.	0.25	0.	125.83
2199	-1.25	-1.6876e-010	0.	125.91
2200	2.25	5.5635e-011	0.	125.27
2201	2.	0.25	0.	125.36
2202	2.	-0.25	0.	125.43
2203	-1.5	-0.25	0.	125.98
2204	-1.75	-0.5	0.	126.05
2205	1.75	0.5	0.	125.41
2206	1.5	0.75	0.	125.47
2207	1.75	-0.5	0.	125.57
2208	1.5	-0.75	0.	125.74
2209	-2.	-0.75	0.	126.08
2210	-2.25	-1.	0.	126.1
2211	1.25	1.	0.	125.49
2212	1.	1.25	0.	125.51
2213	-0.5	-3.25	0.	125.95
2214	-0.25	-3.	0.	126.05
2215	-1.7352e-011	-2.25	0.	126.14
2216	0.25	-2.	0.	126.16
2217	1.25	-1.	0.	125.87
2218	1.	-1.25	0.	125.99
2219	0.25	1.5	0.	125.5
2220	0.75	1.5	0.	125.5
2221	0.5	1.75	0.	125.48
2222	0.5	-1.75	0.	126.14
2223	0.75	-1.5	0.	126.08
2224	-1.1687e-010	1.75	0.	125.46
2225	-0.25	1.5	0.	125.49
2226	-1.2204e-010	1.25	0.	125.55
2227	-1.063e-010	2.25	0.	125.37
2228	0.25	2.	0.	125.43
2229	-0.25	2.	0.	125.39
2230	-1.25	-3.5	0.	125.8
2231	-1.75	-3.5	0.	125.74
2232	-1.5	-3.75	0.	125.72
2233	-2.5	-3.75	0.	125.58
2234	-2.25	-3.5	0.	125.66
2235	-3.5	-2.25	0.	125.66
2236	-3.75	-2.5	0.	125.49
2237	-3.5	-2.75	0.	125.53
2238	-3.75	-2.	0.	125.63
2239	-3.5	-1.75	0.	125.81
2240	-0.5	1.25	0.	125.55
2241	-0.75	1.	0.	125.62
2242	-0.25	1.	0.	125.61
2243	-0.25	2.5	0.	125.3
2244	-0.5	2.25	0.	125.32
2245	-0.75	2.5	0.	125.26
2246	-0.5	2.75	0.	125.23
2247	-3.5	-3.75	0.	125.36
2248	-3.75	-3.5	0.	125.31
2249	-3.5	-3.25	0.	125.43
2250	-3.25	-1.5	0.	125.95
2251	-3.	-1.25	0.	126.06
2252	-1.	0.75	0.	125.7
2253	-1.25	0.5	0.	125.79
2254	2.75	5.4123e-011	0.	125.01
2255	2.5	0.25	0.	125.14
2256	2.5	-0.25	0.	125.18
2257	-1.5	0.25	0.	125.87
2258	-1.75	-1.6415e-010	0.	125.98
2259	2.25	0.5	0.	125.23
2260	2.	0.75	0.	125.32
2261	2.25	-0.5	0.	125.34
2262	2.	-0.75	0.	125.54
2263	-2.	-0.25	0.	126.04
2264	-2.25	-0.5	0.	126.11
2265	1.75	1.	0.	125.38
2266	1.5	1.25	0.	125.44
2267	-9.4674e-011	2.75	0.	125.28
2268	0.25	2.5	0.	125.36
2269	-0.5	-3.75	0.	125.84
2270	-0.25	-3.5	0.	125.95
2271	-0.75	-3.5	0.	125.87
2272	-1.3417e-011	-2.75	0.	126.12
2273	0.25	-2.5	0.	126.18
2274	1.75	-1.	0.	125.71
2275	1.5	-1.25	0.	125.89
2276	-2.5	-0.75	0.	126.13
2277	-2.75	-1.	0.	126.12
2278	1.25	1.5	0.	125.46
2279	1.	1.75	0.	125.48
2280	0.5	2.25	0.	125.42
2281	0.75	2.	0.	125.46
2282	0.5	-2.25	0.	126.2
2283	0.75	-2.	0.	126.19
2284	1.25	-1.5	0.	126.02
2285	1.	-1.75	0.	126.13
2286	-4.	-2.25	0.	125.46
2287	-4.25	-2.	0.	125.39
2288	-4.	-1.75	0.	125.63
2289	-0.5	3.75	0.	125.09
2290	-0.75	3.5	0.	125.12
2291	-0.25	3.5	0.	125.14
2292	-0.5	3.25	0.	125.16
2293	-0.5	1.75	0.	125.43
2294	-0.75	1.5	0.	125.48
2295	-0.75	2.	0.	125.36
2296	-0.75	-4.	0.	125.75
2297	-1.	-3.75	0.	125.78
2298	-1.	-4.25	0.	125.67
2299	-1.25	-4.	0.	125.7
2300	-2.75	-4.	0.	125.49
2301	-2.25	-4.	0.	125.57
2302	-2.5	-4.25	0.	125.5
2303	-3.75	-4.	0.	125.26
2304	-3.5	-4.25	0.	125.3
2305	-3.25	-4.	0.	125.38
2306	-4.	-3.75	0.	125.21
2307	-4.	-4.25	0.	125.18
2308	-4.25	-4.	0.	125.11
2309	-4.25	-3.5	0.	125.14
2310	-4.	-3.25	0.	125.26
2311	-4.25	-2.5	0.	125.27
2312	-4.	-2.75	0.	125.34
2313	-3.75	-1.5	0.	125.81
2314	-3.5	-1.25	0.	126.
2315	-1.	1.25	0.	125.55
2316	-1.25	1.	0.	125.64
2317	-1.	2.25	0.	125.29
2318	-1.25	2.5	0.	125.23
2319	-1.	2.75	0.	125.2
2320	3.25	4.3527e-011	0.	124.73
2321	3.	0.25	0.	124.88
2322	3.	-0.25	0.	124.88
2323	-0.75	4.	0.	125.08
2324	-1.	3.75	0.	125.1
2325	-1.	4.25	0.	125.09
2326	-1.25	4.	0.	125.12
2327	-1.5	0.75	0.	125.73
2328	-1.75	0.5	0.	125.85
2329	2.75	0.5	0.	125.
2330	2.5	0.75	0.	125.12
2331	2.75	-0.5	0.	125.04
2332	2.5	-0.75	0.	125.26
2333	4.5	0.25	0.	124.23
2334	4.5	-0.25	0.	124.03
2335	4.75	1.2196e-011	0.	124.07
2336	4.25	2.0122e-011	0.	124.23
2337	-3.75	-4.5	0.	125.22
2338	-4.25	-4.5	0.	125.1
2339	-4.	-4.75	0.	125.16
2340	-0.5	4.25	0.	125.04
2341	-0.25	4.	0.	125.07
2342	-2.	0.25	0.	125.95
2343	-2.25	-1.4417e-010	0.	126.07
2344	2.25	1.	0.	125.22
2345	2.	1.25	0.	125.32
2346	-8.6159e-011	3.25	0.	125.2
2347	0.25	3.	0.	125.28
2348	-0.25	3.	0.	125.22
2349	-0.5	-4.25	0.	125.72
2350	-0.25	-4.	0.	125.81
2351	-1.1494e-011	-3.25	0.	126.05
2352	0.25	-3.	0.	126.15
2353	2.25	-1.	0.	125.46
2354	2.	-1.25	0.	125.7
2355	-2.5	-0.25	0.	126.14
2356	-2.75	-0.5	0.	126.19
2357	1.75	1.5	0.	125.38
2358	1.5	1.75	0.	125.45
2359	0.5	2.75	0.	125.36
2360	0.75	2.5	0.	125.42
2361	0.5	-2.75	0.	126.22
2362	0.75	-2.5	0.	126.27
2363	1.75	-1.5	0.	125.88
2364	1.5	-1.75	0.	126.07
2365	-4.5	-2.25	0.	125.19
2366	-4.75	-2.	0.	125.06
2367	-4.5	-1.75	0.	125.34
2368	-4.25	-1.5	0.	125.57
2369	-4.	-1.25	0.	125.85
2370	-3.	-0.75	0.	126.18
2371	-3.25	-1.	0.	126.11
2372	1.25	2.	0.	125.46
2373	1.	2.25	0.	125.46
2374	1.	-2.25	0.	126.25
2375	1.25	-2.	0.	126.18
2376	-1.25	3.5	0.	125.13
2377	-1.	3.25	0.	125.14
2378	-1.	1.75	0.	125.41
2379	-1.25	1.5	0.	125.48
2380	-1.25	2.	0.	125.34
2381	3.5	-0.25	0.	124.56
2382	3.75	3.1114e-011	0.	124.46
2383	3.5	0.25	0.	124.62
2384	-1.5	-4.75	0.	125.55
2385	-1.25	-4.5	0.	125.6
2386	-1.75	-4.5	0.	125.56
2387	-1.5	-4.25	0.	125.63
2388	-3.5	-4.75	0.	125.27
2389	-3.25	-4.5	0.	125.34
2390	-4.5	-3.75	0.	125.04
2391	-4.5	-4.25	0.	125.03
2392	-4.75	-4.	0.	124.95
2393	-4.5	-3.25	0.	125.06
2394	-4.75	-3.5	0.	124.95
2395	-4.5	-2.75	0.	125.11
2396	-4.75	-3.	0.	124.95
2397	-4.25	-3.	0.	125.19
2398	-4.75	-2.5	0.	124.99
2399	-1.25	4.5	0.	125.13
2400	-1.5	4.25	0.	125.17
2401	-1.75	4.5	0.	125.26
2402	-1.5	4.75	0.	125.2
2403	-0.75	4.5	0.	125.05
2404	-1.	4.75	0.	125.08
2405	-1.5	3.75	0.	125.15
2406	-1.75	4.	0.	125.21
2407	-1.5	1.25	0.	125.57
2408	-1.75	1.	0.	125.68
2409	-1.5	2.25	0.	125.27
2410	-1.75	2.5	0.	125.21
2411	-1.5	2.75	0.	125.19
2412	3.	0.75	0.	124.9
2413	3.25	0.5	0.	124.77
2414	4.25	0.5	0.	124.39
2415	4.5	0.75	0.	124.4
2416	4.75	0.5	0.	124.28
2417	3.25	-0.5	0.	124.7
2418	3.	-0.75	0.	124.9
2419	4.5	-0.75	0.	123.79
2420	4.25	-0.5	0.	124.05
2421	4.75	-0.5	0.	123.84
2422	-4.5	-4.75	0.	125.04
2423	-4.75	-4.5	0.	124.97
2424	-0.25	4.5	0.	125.
2425	-0.5	4.75	0.	125.01
2426	-2.	4.25	0.	125.3
2427	-2.25	4.5	0.	125.43
2428	-2.	4.75	0.	125.35
2429	-2.	0.75	0.	125.8
2430	-2.25	0.5	0.	125.95
2431	2.75	1.	0.	125.01
2432	2.5	1.25	0.	125.14
2433	-8.3261e-011	3.75	0.	125.11
2434	0.25	3.5	0.	125.2
2435	-0.5	-4.75	0.	125.61
2436	-0.25	-4.5	0.	125.67
2437	-0.75	-4.5	0.	125.64
2438	-1.0208e-011	-3.75	0.	125.92
2439	0.25	-3.5	0.	126.06
2440	2.5	-1.25	0.	125.39
2441	2.75	-1.	0.	125.11
2442	-2.5	0.25	0.	126.07
2443	-2.75	-1.1932e-010	0.	126.2
2444	2.25	1.5	0.	125.24
2445	2.	1.75	0.	125.36
2446	0.5	3.25	0.	125.28
2447	0.75	3.	0.	125.38
2448	0.5	-3.25	0.	126.17
2449	0.75	-3.	0.	126.29
2450	2.25	-1.5	0.	125.63
2451	2.	-1.75	0.	125.92
2452	-5.	-2.25	0.	124.86
2453	-5.25	-2.	0.	124.67
2454	-5.	-1.75	0.	124.93
2455	-4.75	-1.5	0.	125.2
2456	-4.5	-1.25	0.	125.56
2457	-2.5	4.75	0.	125.55
2458	-2.75	5.	0.	125.69
2459	-2.5	5.25	0.	125.56
2460	-2.25	5.	0.	125.47
2461	-3.	-0.25	0.	126.25
2462	-3.25	-0.5	0.	126.27
2463	-3.75	-1.	0.	126.04
2464	-3.5	-0.75	0.	126.2
2465	1.75	2.	0.	125.42
2466	1.5	2.25	0.	125.48
2467	1.	2.75	0.	125.45
2468	1.25	2.5	0.	125.48
2469	1.	-2.75	0.	126.33
2470	1.25	-2.5	0.	126.34
2471	1.75	-2.	0.	126.1
2472	1.5	-2.25	0.	126.27
2473	-1.75	3.5	0.	125.17
2474	-1.5	3.25	0.	125.15
2475	-1.5	1.75	0.	125.4
2476	-1.75	1.5	0.	125.49
2477	-1.75	2.	0.	125.33
2478	4.	0.75	0.	124.5
2479	4.	0.25	0.	124.39
2480	3.75	0.5	0.	124.55
2481	3.75	-0.5	0.	124.35
2482	3.5	-0.75	0.	124.49
2483	5.25	7.3823e-012	0.	123.97
2484	5.	0.25	0.	124.12
2485	5.	-0.25	0.	123.88
2486	4.75	-1.	0.	123.57
2487	5.	-1.25	0.	123.3
2488	5.25	-1.	0.	123.48
2489	5.	-0.75	0.	123.62
2490	-1.25	-5.	0.	125.54
2491	-0.75	-5.	0.	125.55
2492	-1.	-4.75	0.	125.59
2493	-1.	-5.25	0.	125.53
2494	-1.5	-5.25	0.	125.51
2495	-1.75	-5.	0.	125.5
2496	-2.5	-5.25	0.	125.42
2497	-2.75	-5.	0.	125.39
2498	-2.25	-5.	0.	125.46
2499	-2.5	-4.75	0.	125.45
2500	-3.5	-5.25	0.	125.26
2501	-3.25	-5.	0.	125.31
2502	-3.75	-5.	0.	125.21
2503	-4.75	-5.	0.	124.99
2504	-4.5	-5.25	0.	125.06
2505	-4.25	-5.	0.	125.1
2506	-5.	-4.75	0.	124.92
2507	-5.	-5.25	0.	124.95
2508	-5.25	-5.	0.	124.88
2509	-5.	-4.25	0.	124.89
2510	-5.25	-4.5	0.	124.84
2511	-5.	-3.75	0.	124.86
2512	-5.25	-4.	0.	124.79
2513	-5.25	-3.5	0.	124.75
2514	-5.	-3.25	0.	124.84
2515	-5.25	-2.5	0.	124.67
2516	-5.	-2.75	0.	124.83
2517	-1.5	5.25	0.	125.22
2518	-1.25	5.	0.	125.15
2519	-1.75	5.	0.	125.29
2520	-2.	3.75	0.	125.24
2521	-2.25	4.	0.	125.35
2522	-2.25	1.	0.	125.76
2523	-2.	1.25	0.	125.61
2524	-2.	2.25	0.	125.27
2525	-2.25	2.5	0.	125.21
2526	-2.	2.75	0.	125.19
2527	3.25	1.	0.	124.8
2528	3.	1.25	0.	124.91
2529	4.25	1.	0.	124.51
2530	4.5	1.25	0.	124.53
2531	4.75	1.	0.	124.48
2532	-8.6216e-011	4.25	0.	125.03
2533	0.25	4.	0.	125.1
2534	-0.25	-5.	0.	125.56
2535	-0.5	-5.25	0.	125.54
2536	-9.3408e-012	-4.25	0.	125.77
2537	0.25	-4.	0.	125.9
2538	4.5	-1.25	0.	123.51
2539	4.25	-1.	0.	123.84
2540	-2.5	4.25	0.	125.48
2541	-2.75	4.5	0.	125.67
2542	-2.5	0.75	0.	125.92
2543	-2.75	0.5	0.	126.11
2544	2.75	1.5	0.	125.04
2545	2.5	1.75	0.	125.18
2546	0.5	3.75	0.	125.18
2547	0.75	3.5	0.	125.31
2548	0.5	-3.75	0.	126.04
2549	0.75	-3.5	0.	126.21
2550	4.75	-1.5	0.	123.23
2551	5.	-1.75	0.	122.88
2552	5.25	-1.5	0.	123.16
2553	2.75	-1.5	0.	125.25
2554	2.5	-1.75	0.	125.61
2555	-4.75	-5.5	0.	125.02
2556	-5.25	-5.5	0.	124.93
2557	-5.	-5.75	0.	124.99
2558	-5.5	-2.25	0.	124.48
2559	-5.5	-1.75	0.	124.44
2560	-5.75	-2.	0.	124.25
2561	-5.25	-1.5	0.	124.71
2562	-5.	-1.25	0.	125.09
2563	-0.25	5.5	0.	124.98
2564	0.25	5.5	0.	124.93
2565	-1.0359e-010	5.25	0.	124.94
2566	-1.0655e-010	5.75	0.	124.98
2567	-3.	5.25	0.	125.78
2568	-3.	4.75	0.	125.81
2569	-3.25	5.	0.	125.95
2570	-3.	0.25	0.	126.24
2571	-3.25	-9.3953e-011	0.	126.37
2572	-4.25	-1.	0.	125.84
2573	-4.	-0.75	0.	126.13
2574	2.25	2.	0.	125.3
2575	2.	2.25	0.	125.44
2576	1.	3.25	0.	125.4
2577	1.25	3.	0.	125.5
2578	1.	-3.25	0.	126.33
2579	1.25	-3.	0.	126.44
2580	2.25	-2.	0.	125.89
2581	2.	-2.25	0.	126.19
2582	-3.25	5.5	0.	125.83
2583	-3.75	5.5	0.	125.96
2584	-3.5	5.25	0.	126.
2585	-3.5	5.75	0.	125.82
2586	-3.5	-0.25	0.	126.38
2587	-3.75	-0.5	0.	126.29
2588	1.75	2.5	0.	125.5
2589	1.5	2.75	0.	125.53
2590	1.5	-2.75	0.	126.45
2591	1.75	-2.5	0.	126.36
2592	4.75	1.5	0.	124.65
2593	5.25	1.5	0.	124.8
2594	5.	1.75	0.	124.83
2595	5.	1.25	0.	124.61
2596	5.5	1.25	0.	124.68
2597	5.75	1.	0.	124.41
2598	5.25	1.	0.	124.48
2599	5.5	0.75	0.	124.33
2600	-2.25	3.5	0.	125.25
2601	-2.	3.25	0.	125.19
2602	-2.25	2.	0.	125.33
2603	-2.	1.75	0.	125.42
2604	3.75	1.	0.	124.62
2605	3.5	1.25	0.	124.69
2606	3.5	0.75	0.	124.67
2607	4.	1.25	0.	124.55
2608	0.25	4.5	0.	125.
2609	-9.4313e-011	4.75	0.	124.97
2610	-8.6408e-012	-4.75	0.	125.63
2611	0.25	-4.5	0.	125.72
2612	-7.7533e-012	-5.25	0.	125.54
2613	0.25	-5.	0.	125.56
2614	5.75	3.9976e-012	0.	123.92
2615	5.5	0.25	0.	124.06
2616	5.5	-0.25	0.	123.83
2617	5.75	-1.	0.	123.57
2618	5.5	-1.25	0.	123.34
2619	5.5	-0.75	0.	123.6
2620	-0.25	-5.5	0.	125.52
2621	0.25	-5.5	0.	125.5
2622	-5.9082e-012	-5.75	0.	125.53
2623	-0.5	-5.75	0.	125.54
2624	-0.75	-5.5	0.	125.52
2625	-1.5	-5.75	0.	125.5
2626	-1.25	-5.5	0.	125.51
2627	-1.75	-5.5	0.	125.48
2628	-2.5	-5.75	0.	125.41
2629	-2.25	-5.5	0.	125.43
2630	-2.75	-5.5	0.	125.37
2631	-3.75	-5.5	0.	125.21
2632	-3.5	-5.75	0.	125.26
2633	-3.25	-5.5	0.	125.3
2634	-4.25	-5.5	0.	125.12
2635	-4.	-5.75	0.	125.18
2636	-4.	-5.25	0.	125.16
2637	-4.5	-5.75	0.	125.08
2638	-5.5	-4.75	0.	124.8
2639	-5.5	-5.25	0.	124.85
2640	-5.75	-5.	0.	124.79
2641	-5.75	-4.5	0.	124.72
2642	-5.5	-4.25	0.	124.75
2643	-5.75	-3.5	0.	124.57
2644	-5.5	-3.25	0.	124.62
2645	-5.5	-3.75	0.	124.68
2646	-5.75	-2.5	0.	124.36
2647	-5.5	-2.75	0.	124.55
2648	-2.75	5.5	0.	125.65
2649	-3.	5.75	0.	125.69
2650	-2.5	5.75	0.	125.53
2651	-2.25	5.5	0.	125.47
2652	-1.5	5.75	0.	125.24
2653	-1.75	5.5	0.	125.3
2654	-1.25	5.5	0.	125.17
2655	-0.5	5.75	0.	125.04
2656	-0.5	5.25	0.	125.
2657	-0.75	5.5	0.	125.06
2658	-2.5	3.75	0.	125.37
2659	-2.75	4.	0.	125.56
2660	-2.75	1.	0.	125.91
2661	-2.5	1.25	0.	125.69
2662	-2.5	2.75	0.	125.21
2663	-2.5	2.25	0.	125.28
2664	-2.75	2.5	0.	125.22
2665	3.25	1.5	0.	124.81
2666	3.	1.75	0.	124.94
2667	4.25	1.5	0.	124.56
2668	4.5	1.75	0.	124.55
2669	0.75	4.	0.	125.19
2670	0.5	4.25	0.	125.07
2671	0.5	-4.25	0.	125.85
2672	0.75	-4.	0.	126.04
2673	0.5	-5.75	0.	125.52
2674	0.5	-5.25	0.	125.52
2675	0.75	-5.5	0.	125.47
2676	4.5	-1.75	0.	123.14
2677	4.25	-1.5	0.	123.59
2678	3.25	-1.5	0.	124.73
2679	3.	-1.75	0.	125.11
2680	3.	-1.25	0.	124.97
2681	-5.5	-5.75	0.	124.9
2682	-5.75	-5.5	0.	124.84
2683	-5.75	-1.5	0.	124.14
2684	-5.5	-1.25	0.	124.45
2685	0.5	5.75	0.	124.96
2686	0.75	5.5	0.	124.91
2687	0.5	5.25	0.	124.92
2688	-4.75	6.	0.	125.31
2689	-4.5	5.75	0.	125.71
2690	-4.5	6.25	0.	125.4
2691	-4.25	6.	0.	125.61
2692	-3.	4.25	0.	125.74
2693	-3.25	4.5	0.	125.98
2694	-3.	0.75	0.	126.11
2695	-3.25	0.5	0.	126.35
2696	-4.75	-1.	0.	125.44
2697	-4.5	-0.75	0.	125.89
2698	2.75	2.	0.	125.08
2699	2.5	2.25	0.	125.29
2700	1.	3.75	0.	125.31
2701	1.25	3.5	0.	125.47
2702	1.	-3.75	0.	126.21
2703	1.25	-3.5	0.	126.43
2704	5.25	-2.	0.	122.72
2705	4.75	-2.	0.	122.78
2706	5.	-2.25	0.	122.28
2707	2.75	-2.	0.	125.48
2708	2.5	-2.25	0.	125.93
2709	-4.25	5.5	0.	125.95
2710	-4.	5.25	0.	126.17
2711	-4.	5.75	0.	125.85
2712	-3.5	4.75	0.	126.13
2713	-3.75	5.	0.	126.21
2714	-3.5	0.25	0.	126.47
2715	-3.75	-7.076e-011	0.	126.54
2716	2.25	2.5	0.	125.43
2717	2.	2.75	0.	125.58
2718	1.5	3.25	0.	125.57
2719	1.75	3.	0.	125.61
2720	0.25	-6.	0.	125.55
2721	0.75	-6.	0.	125.55
2722	0.5	-6.25	0.	125.64
2723	1.5	-3.25	0.	126.54
2724	1.75	-3.	0.	126.59
2725	2.25	-2.5	0.	126.23
2726	2.	-2.75	0.	126.5
2727	6.	-1.25	0.	123.6
2728	6.25	-1.5	0.	123.77
2729	6.	-1.75	0.	123.46
2730	5.75	-1.5	0.	123.37
2731	5.75	-2.	0.	123.1
2732	5.5	-2.25	0.	122.55
2733	5.5	-1.75	0.	123.01
2734	5.75	1.5	0.	124.84
2735	5.5	1.75	0.	125.15
2736	6.	1.25	0.	124.58
2737	6.	0.75	0.	124.21
2738	6.25	1.	0.	124.19
2739	-2.5	3.25	0.	125.26
2740	-2.25	3.	0.	125.19
2741	-2.75	3.	0.	125.24
2742	-2.75	3.5	0.	125.39
2743	-2.75	2.	0.	125.37
2744	-2.5	1.75	0.	125.46
2745	3.75	1.5	0.	124.63
2746	3.5	1.75	0.	124.67
2747	4.	1.75	0.	124.5
2748	0.5	-4.75	0.	125.65
2749	0.75	-4.5	0.	125.79
2750	0.75	-5.	0.	125.56
2751	3.5	-1.75	0.	124.45
2752	3.5	-1.25	0.	124.45
2753	3.75	-1.5	0.	124.13
2754	6.25	1.6363e-012	0.	123.91
2755	6.	-0.25	0.	123.84
2756	6.	0.25	0.	123.99
2757	6.25	-1.	0.	123.8
2758	6.	-0.75	0.	123.72
2759	-0.25	-6.	0.	125.55
2760	-3.5993e-012	-6.25	0.	125.61
2761	-0.75	-6.	0.	125.54
2762	-0.5	-6.25	0.	125.59
2763	-1.25	-6.	0.	125.52
2764	-1.	-6.25	0.	125.57
2765	-1.	-5.75	0.	125.53
2766	-1.75	-6.	0.	125.49
2767	-1.5	-6.25	0.	125.53
2768	-2.25	-6.	0.	125.44
2769	-2.	-5.75	0.	125.47
2770	-2.	-6.25	0.	125.49
2771	-2.5	-6.25	0.	125.43
2772	-2.75	-6.	0.	125.38
2773	-3.75	-6.	0.	125.23
2774	-3.5	-6.25	0.	125.28
2775	-3.25	-6.	0.	125.31
2776	-4.25	-6.	0.	125.14
2777	-4.	-6.25	0.	125.2
2778	-4.75	-6.	0.	125.05
2779	-4.5	-6.25	0.	125.11
2780	-5.25	-6.	0.	124.96
2781	-5.	-6.25	0.	125.02
2782	-5.5	-6.25	0.	124.94
2783	-5.75	-6.	0.	124.89
2784	-6.	-5.25	0.	124.77
2785	-6.25	-5.5	0.	124.77
2786	-6.	-5.75	0.	124.82
2787	-6.	-4.75	0.	124.71
2788	-6.25	-5.	0.	124.71
2789	-6.	-4.25	0.	124.63
2790	-6.25	-4.5	0.	124.63
2791	-6.	-3.75	0.	124.54
2792	-6.25	-4.	0.	124.54
2793	-5.75	-4.	0.	124.65
2794	-6.	-3.25	0.	124.42
2795	-6.25	-3.5	0.	124.43
2796	-6.	-2.75	0.	124.29
2797	-5.75	-3.	0.	124.47
2798	-6.25	-3.	0.	124.28
2799	-6.	-2.25	0.	124.13
2800	-6.25	-2.5	0.	124.11
2801	-6.	-1.75	0.	123.95
2802	-6.25	-2.	0.	123.89
2803	-6.	-1.25	0.	123.76
2804	-6.25	-1.5	0.	123.63
2805	-3.5	6.25	0.	125.63
2806	-3.25	6.	0.	125.68
2807	-3.75	6.	0.	125.71
2808	-2.5	6.25	0.	125.48
2809	-2.75	6.	0.	125.57
2810	-2.25	6.	0.	125.44
2811	-0.5	6.25	0.	125.1
2812	-0.75	6.	0.	125.1
2813	-0.25	6.	0.	125.04
2814	0.75	6.	0.	125.03
2815	0.5	6.25	0.	125.09
2816	0.25	6.	0.	125.01
2817	-5.25	6.	0.	124.78
2818	-5.	6.25	0.	125.01
2819	-5.	5.75	0.	125.28
2820	-3.	3.75	0.	125.58
2821	-3.25	4.	0.	125.87
2822	-3.25	1.	0.	126.16
2823	-3.	1.25	0.	125.85
2824	-3.	2.25	0.	125.31
2825	-3.25	2.5	0.	125.25
2826	-3.	2.75	0.	125.25
2827	-5.25	-1.	0.	124.83
2828	-5.	-0.75	0.	125.38
2829	3.25	2.	0.	124.8
2830	3.	2.25	0.	124.99
2831	4.75	2.	0.	124.72
2832	4.25	2.	0.	124.49
2833	4.5	2.25	0.	124.36
2834	1.	5.75	0.	124.98
2835	1.25	5.5	0.	124.93
2836	1.	5.25	0.	124.92
2837	1.	4.25	0.	125.17
2838	1.25	4.	0.	125.36
2839	1.25	-4.	0.	126.26
2840	1.	-4.25	0.	125.98
2841	1.	-5.75	0.	125.5
2842	1.	-5.25	0.	125.51
2843	1.25	-5.5	0.	125.43
2844	4.5	-2.25	0.	122.66
2845	4.25	-2.	0.	123.28
2846	3.25	-2.	0.	124.84
2847	3.	-2.25	0.	125.39
2848	-4.75	5.5	0.	125.68
2849	-4.5	5.25	0.	126.16
2850	-3.5	4.25	0.	126.11
2851	-3.75	4.5	0.	126.38
2852	-3.5	0.75	0.	126.4
2853	-3.75	0.5	0.	126.67
2854	-4.75	-0.5	0.	125.83
2855	-4.5	-0.25	0.	126.35
2856	-4.25	-0.5	0.	126.19
2857	2.5	2.75	0.	125.49
2858	2.75	2.5	0.	125.2
2859	1.5	3.75	0.	125.52
2860	1.75	3.5	0.	125.69
2861	1.	6.25	0.	125.17
2862	1.25	6.	0.	125.1
2863	1.	-6.25	0.	125.68
2864	1.25	-6.	0.	125.57
2865	0.75	-6.5	0.	125.76
2866	0.5	-6.75	0.	125.83
2867	0.25	-6.5	0.	125.7
2868	1.5	-3.75	0.	126.48
2869	1.75	-3.5	0.	126.73
2870	2.75	-2.5	0.	125.85
2871	2.5	-2.75	0.	126.38
2872	6.5	-1.25	0.	123.97
2873	6.5	-1.75	0.	124.06
2874	6.75	-1.5	0.	124.24
2875	6.25	-2.	0.	123.76
2876	6.	-2.25	0.	123.32
2877	4.75	-2.5	0.	122.15
2878	5.25	-2.5	0.	122.11
2879	5.	-2.75	0.	121.42
2880	-6.25	6.	0.	123.4
2881	-6.5	5.75	0.	122.8
2882	-6.5	6.25	0.	123.32
2883	-6.75	6.	0.	122.97
2884	-5.75	-6.5	0.	124.93
2885	-6.25	-6.5	0.	124.86
2886	-6.	-6.75	0.	124.91
2887	-6.	-6.25	0.	124.87
2888	-6.25	-1.	0.	123.32
2889	-6.5	-1.25	0.	123.2
2890	-6.5	-0.75	0.	122.72
2891	-6.75	-1.	0.	122.85
2892	-4.25	5.	0.	126.38
2893	-4.	4.75	0.	126.47
2894	-4.	0.25	0.	126.73
2895	-4.25	-5.1492e-011	0.	126.62
2896	-4.	-0.25	0.	126.45
2897	6.25	1.5	0.	124.56
2898	6.	1.75	0.	125.19
2899	5.25	2.	0.	125.17
2900	5.	2.25	0.	124.93
2901	2.25	3.	0.	125.64
2902	2.	3.25	0.	125.74
2903	2.	-3.25	0.	126.78
2904	2.25	-3.	0.	126.65
2905	-5.75	6.	0.	124.08
2906	-5.5	6.25	0.	124.45
2907	-5.5	5.75	0.	124.54
2908	-6.	5.75	0.	123.6
2909	-6.	6.25	0.	123.82
2910	-3.25	3.5	0.	125.61
2911	-3.	3.25	0.	125.37
2912	-3.25	2.	0.	125.44
2913	-3.	1.75	0.	125.54
2914	-5.75	-1.	0.	124.06
2915	-6.	-0.75	0.	123.57
2916	-5.5	-0.75	0.	124.56
2917	3.75	2.	0.	124.54
2918	3.5	2.25	0.	124.59
2919	4.	2.25	0.	124.29
2920	1.25	4.5	0.	125.17
2921	0.75	4.5	0.	125.05
2922	1.	4.75	0.	125.01
2923	1.25	-5.	0.	125.59
2924	1.	-4.75	0.	125.7
2925	3.5	-2.25	0.	124.55
2926	3.75	-2.	0.	124.05
2927	6.5	0.25	0.	123.91
2928	6.25	0.5	0.	124.
2929	6.5	0.75	0.	123.98
2930	6.75	0.5	0.	123.85
2931	6.5	-0.25	0.	123.91
2932	6.75	2.3806e-013	0.	123.92
2933	6.5	-0.75	0.	123.93
2934	6.25	-0.5	0.	123.85
2935	6.75	-0.5	0.	124.
2936	6.75	-1.	0.	124.11
2937	-0.75	-6.5	0.	125.62
2938	-0.5	-6.75	0.	125.69
2939	-0.25	-6.5	0.	125.65
2940	-1.25	-6.5	0.	125.58
2941	-1.	-6.75	0.	125.64
2942	-1.5	-6.75	0.	125.59
2943	-1.75	-6.5	0.	125.53
2944	-2.75	-6.5	0.	125.41
2945	-2.5	-6.75	0.	125.46
2946	-2.25	-6.5	0.	125.47
2947	-3.25	-6.5	0.	125.33
2948	-3.	-6.75	0.	125.39
2949	-3.	-6.25	0.	125.36
2950	-3.75	-6.5	0.	125.25
2951	-3.5	-6.75	0.	125.31
2952	-4.25	-6.5	0.	125.17
2953	-4.	-6.75	0.	125.23
2954	-4.75	-6.5	0.	125.08
2955	-4.5	-6.75	0.	125.14
2956	-5.25	-6.5	0.	125.
2957	-5.	-6.75	0.	125.06
2958	-5.5	-6.75	0.	124.98
2959	-6.5	-5.25	0.	124.7
2960	-6.75	-5.5	0.	124.71
2961	-6.5	-5.75	0.	124.76
2962	-6.5	-4.75	0.	124.63
2963	-6.75	-5.	0.	124.65
2964	-6.75	-4.5	0.	124.57
2965	-6.5	-4.25	0.	124.54
2966	-6.75	-3.5	0.	124.35
2967	-6.5	-3.75	0.	124.43
2968	-6.5	-3.25	0.	124.29
2969	-6.75	-2.5	0.	123.96
2970	-6.5	-2.25	0.	123.87
2971	-6.5	-2.75	0.	124.11
2972	-6.75	-1.5	0.	123.32
2973	-6.5	-1.75	0.	123.58
2974	-5.25	6.5	0.	124.69
2975	-5.5	6.75	0.	124.48
2976	-5.75	6.5	0.	124.19
2977	-4.75	6.5	0.	125.1
2978	-5.	6.75	0.	124.89
2979	-4.25	6.5	0.	125.37
2980	-4.5	6.75	0.	125.21
2981	-3.75	6.5	0.	125.51
2982	-4.	6.75	0.	125.4
2983	-4.	6.25	0.	125.59
2984	-3.25	6.5	0.	125.53
2985	-3.5	6.75	0.	125.48
2986	-2.75	6.5	0.	125.49
2987	-3.	6.75	0.	125.48
2988	-3.	6.25	0.	125.58
2989	-2.5	6.75	0.	125.43
2990	-2.25	6.5	0.	125.41
2991	-1.5	6.75	0.	125.28
2992	-1.75	6.5	0.	125.31
2993	-1.5	6.25	0.	125.26
2994	-1.25	6.5	0.	125.23
2995	-0.5	6.75	0.	125.19
2996	-0.75	6.5	0.	125.17
2997	-0.25	6.5	0.	125.13
2998	0.75	6.5	0.	125.23
2999	0.5	6.75	0.	125.26
3000	0.25	6.5	0.	125.15
3001	-5.25	5.5	0.	125.04
3002	-5.	5.25	0.	125.78
3003	-6.75	5.5	0.	122.3
3004	-6.25	5.5	0.	123.
3005	-6.5	5.25	0.	122.13
3006	-3.5	3.75	0.	125.9
3007	-3.75	4.	0.	126.33
3008	-3.75	1.	0.	126.57
3009	-3.5	1.25	0.	126.12
3010	-3.5	2.25	0.	125.38
3011	-3.75	2.5	0.	125.3
3012	-3.5	2.75	0.	125.33
3013	-5.25	-0.5	0.	125.11
3014	-5.	-0.25	0.	125.89
3015	1.5	4.25	0.	125.37
3016	1.75	4.	0.	125.66
3017	1.	6.75	0.	125.4
3018	1.25	6.5	0.	125.4
3019	1.5	5.25	0.	124.98
3020	1.5	5.75	0.	125.05
3021	1.75	5.5	0.	124.98
3022	1.25	-6.5	0.	125.89
3023	1.	-6.75	0.	125.95
3024	1.5	-4.25	0.	126.21
3025	1.75	-4.	0.	126.63
3026	1.5	-5.75	0.	125.5
3027	1.5	-5.25	0.	125.51
3028	1.75	-5.5	0.	125.4
3029	4.5	-2.75	0.	121.99
3030	4.25	-2.5	0.	122.9
3031	3.25	-2.5	0.	125.1
3032	3.	-2.75	0.	125.88
3033	6.75	-2.	0.	124.45
3034	6.5	-2.25	0.	124.24
3035	5.75	-2.5	0.	122.77
3036	5.5	-2.75	0.	121.92
3037	-6.5	6.75	0.	123.73
3038	-6.75	6.5	0.	123.48
3039	-6.25	6.5	0.	123.74
3040	-6.75	-6.5	0.	124.8
3041	-6.5	-6.75	0.	124.84
3042	-6.5	-6.25	0.	124.81
3043	-6.25	-0.5	0.	122.96
3044	-6.75	-0.5	0.	122.22
3045	-6.5	-0.25	0.	122.08
3046	-7.	5.25	0.	121.59
3047	-7.25	5.5	0.	122.3
3048	-7.	5.75	0.	122.48
3049	4.75	2.5	0.	124.57
3050	4.5	2.75	0.	123.79
3051	4.25	2.5	0.	124.17
3052	-4.75	5.	0.	126.26
3053	-4.5	4.75	0.	126.72
3054	-4.	4.25	0.	126.61
3055	-4.25	4.5	0.	126.81
3056	-4.	0.75	0.	126.84
3057	-4.25	0.5	0.	127.03
3058	-4.75	-3.6797e-011	0.	126.41
3059	-4.5	0.25	0.	126.91
3060	6.75	1.5	0.	123.93
3061	6.5	1.75	0.	124.64
3062	6.5	1.25	0.	124.18
3063	7.	1.25	0.	123.58
3064	7.25	1.	0.	123.48
3065	6.75	1.	0.	123.83
3066	7.	0.75	0.	123.7
3067	5.75	2.	0.	125.49
3068	5.5	2.25	0.	125.73
3069	2.75	3.	0.	125.44
3070	2.5	3.25	0.	125.82
3071	2.	3.75	0.	125.83
3072	2.25	3.5	0.	125.92
3073	2.	-3.75	0.	126.87
3074	2.25	-3.5	0.	127.04
3075	2.75	-3.	0.	126.41
3076	2.5	-3.25	0.	126.91
3077	-5.75	5.5	0.	124.06
3078	-5.5	5.25	0.	124.83
3079	-6.	5.25	0.	123.44
3080	-3.75	3.5	0.	125.98
3081	-3.5	3.25	0.	125.57
3082	-3.75	2.	0.	125.6
3083	-3.5	1.75	0.	125.71
3084	-5.75	-0.5	0.	124.06
3085	-6.	-0.25	0.	123.42
3086	-5.5	-0.25	0.	124.87
3087	3.5	2.75	0.	124.5
3088	3.75	2.5	0.	124.33
3089	3.25	2.5	0.	124.78
3090	1.5	4.75	0.	125.13
3091	1.75	5.	0.	125.1
3092	1.25	5.	0.	124.97
3093	1.75	4.5	0.	125.42
3094	1.75	6.	0.	125.27
3095	1.5	6.25	0.	125.33
3096	1.5	-6.25	0.	125.78
3097	1.75	-6.	0.	125.64
3098	1.5	-6.75	0.	126.16
3099	1.75	-6.5	0.	126.16
3100	1.5	-4.75	0.	125.82
3101	1.75	-4.5	0.	126.22
3102	1.25	-4.5	0.	125.93
3103	1.75	-5.	0.	125.68
3104	3.5	-2.75	0.	124.83
3105	3.75	-2.5	0.	124.03
3106	6.	-2.75	0.	123.21
3107	6.25	-2.5	0.	123.81
3108	7.25	-2.3011e-013	0.	124.
3109	7.	-0.25	0.	124.02
3110	7.	0.25	0.	123.86
3111	7.25	-1.	0.	124.43
3112	7.	-1.25	0.	124.37
3113	7.	-0.75	0.	124.18
3114	7.	-2.25	0.	125.01
3115	7.25	-2.	0.	125.01
3116	7.	-1.75	0.	124.63
3117	0.75	-7.	0.	126.01
3118	1.25	-7.	0.	126.21
3119	1.	-7.25	0.	126.18
3120	0.5	-7.25	0.	126.02
3121	0.25	-7.	0.	125.88
3122	-0.5	-7.25	0.	125.82
3123	-0.75	-7.	0.	125.72
3124	-0.25	-7.	0.	125.79
3125	-1.75	-7.	0.	125.59
3126	-1.5	-7.25	0.	125.67
3127	-1.25	-7.	0.	125.66
3128	-2.25	-7.	0.	125.52
3129	-2.	-7.25	0.	125.59
3130	-2.	-6.75	0.	125.53
3131	-2.75	-7.	0.	125.45
3132	-2.5	-7.25	0.	125.51
3133	-3.25	-7.	0.	125.37
3134	-3.	-7.25	0.	125.43
3135	-3.75	-7.	0.	125.29
3136	-3.5	-7.25	0.	125.35
3137	-4.25	-7.	0.	125.2
3138	-4.	-7.25	0.	125.26
3139	-4.5	-7.25	0.	125.18
3140	-4.75	-7.	0.	125.12
3141	-5.75	-7.	0.	124.96
3142	-5.5	-7.25	0.	125.01
3143	-5.25	-7.	0.	125.04
3144	-6.75	7.	0.	123.88
3145	-6.5	7.25	0.	124.07
3146	-6.25	7.	0.	124.05
3147	-7.	-6.25	0.	124.75
3148	-7.	-6.75	0.	124.79
3149	-7.25	-6.5	0.	124.75
3150	-6.25	-7.	0.	124.89
3151	-6.	-7.25	0.	124.94
3152	-6.75	-7.	0.	124.83
3153	-6.5	-7.25	0.	124.87
3154	-7.	-5.75	0.	124.71
3155	-7.25	-6.	0.	124.72
3156	-6.75	-6.	0.	124.76
3157	-7.25	-5.5	0.	124.67
3158	-7.	-5.25	0.	124.66
3159	-7.25	-4.5	0.	124.55
3160	-7.	-4.25	0.	124.5
3161	-7.	-4.75	0.	124.59
3162	-7.25	-3.5	0.	124.34
3163	-7.	-3.75	0.	124.39
3164	-7.	-3.25	0.	124.24
3165	-7.25	-2.5	0.	123.96
3166	-7.	-2.75	0.	124.04
3167	-7.	-2.25	0.	123.78
3168	-7.	-1.25	0.	122.98
3169	-7.25	-1.5	0.	123.31
3170	-7.	-1.75	0.	123.43
3171	-7.	-0.75	0.	122.36
3172	-7.25	-1.	0.	122.83
3173	-7.25	-0.5	0.	122.19
3174	-7.	-0.25	0.	121.5
3175	-7.	6.75	0.	123.62
3176	-7.25	6.5	0.	123.5
3177	-7.	6.25	0.	123.13
3178	-5.25	7.	0.	124.69
3179	-5.5	7.25	0.	124.57
3180	-5.75	7.	0.	124.34
3181	-4.75	7.	0.	125.
3182	-5.	7.25	0.	124.86
3183	-4.5	7.25	0.	125.11
3184	-4.25	7.	0.	125.23
3185	-3.25	7.	0.	125.43
3186	-3.5	7.25	0.	125.38
3187	-3.75	7.	0.	125.37
3188	-3.	7.25	0.	125.41
3189	-2.75	7.	0.	125.42
3190	-1.5	7.25	0.	125.32
3191	-1.75	7.	0.	125.33
3192	-1.25	7.	0.	125.27
3193	-0.5	7.25	0.	125.28
3194	-0.25	7.	0.	125.25
3195	-0.75	7.	0.	125.24
3196	0.5	7.25	0.	125.41
3197	0.75	7.	0.	125.43
3198	0.25	7.	0.	125.3
3199	1.75	7.	0.	126.05
3200	1.5	7.25	0.	125.88
3201	1.25	7.	0.	125.67
3202	1.5	6.75	0.	125.67
3203	1.75	-7.	0.	126.55
3204	1.5	-7.25	0.	126.42
3205	7.	-2.75	0.	125.59
3206	7.25	-2.5	0.	125.48
3207	6.75	-2.5	0.	124.8
3208	-6.75	5.	0.	121.41
3209	-7.	4.75	0.	120.34
3210	-7.25	5.	0.	121.4
3211	5.25	2.5	0.	125.49
3212	5.	2.75	0.	124.73
3213	-5.25	5.	0.	125.57
3214	-5.	4.75	0.	126.58
3215	-6.25	5.	0.	122.57
3216	-6.5	4.75	0.	121.26
3217	-4.	3.75	0.	126.42
3218	-4.25	4.	0.	127.01
3219	-4.25	1.	0.	127.19
3220	-4.	1.25	0.	126.6
3221	-4.	2.25	0.	125.51
3222	-4.25	2.5	0.	125.44
3223	-4.	2.75	0.	125.47
3224	-6.25	-1.2534e-011	0.	122.54
3225	-6.5	0.25	0.	121.22
3226	-6.75	-9.7417e-012	0.	121.35
3227	-5.	0.25	0.	126.69
3228	-5.25	-2.6107e-011	0.	125.65
3229	7.	1.75	0.	123.56
3230	7.25	1.5	0.	123.18
3231	6.25	2.	0.	125.26
3232	6.	2.25	0.	126.18
3233	3.25	3.	0.	124.86
3234	3.	3.25	0.	125.55
3235	3.	2.75	0.	125.15
3236	2.	4.25	0.	125.72
3237	2.25	4.	0.	126.1
3238	2.	5.25	0.	125.1
3239	2.	5.75	0.	125.2
3240	2.25	5.5	0.	125.14
3241	2.	-4.25	0.	126.63
3242	2.25	-4.	0.	127.19
3243	2.	-5.25	0.	125.56
3244	2.25	-5.5	0.	125.45
3245	2.	-5.75	0.	125.54
3246	4.25	-3.	0.	122.44
3247	4.5	-3.25	0.	121.08
3248	4.75	-3.	0.	121.25
3249	3.25	-3.	0.	125.61
3250	3.	-3.25	0.	126.65
3251	-4.5	4.25	0.	127.21
3252	-4.75	4.5	0.	127.05
3253	-4.75	0.5	0.	127.19
3254	-4.5	0.75	0.	127.38
3255	2.5	3.75	0.	126.19
3256	2.75	3.5	0.	125.93
3257	2.75	-3.5	0.	127.16
3258	2.5	-3.75	0.	127.36
3259	2.	7.25	0.	126.3
3260	2.25	7.	0.	126.62
3261	2.	6.75	0.	126.12
3262	-7.25	7.	0.	123.91
3263	-7.	7.25	0.	124.01
3264	-7.	-7.25	0.	124.81
3265	-7.25	-7.	0.	124.77
3266	2.	-6.75	0.	126.55
3267	2.	-7.25	0.	126.78
3268	2.25	-7.	0.	127.08
3269	6.75	-3.	0.	125.39
3270	7.25	-3.	0.	126.13
3271	7.	-3.25	0.	126.45
3272	-7.	0.75	0.	118.64
3273	-7.25	0.5	0.	120.12
3274	-6.75	0.5	0.	120.14
3275	-7.	0.25	0.	120.28
3276	-7.	4.25	0.	118.67
3277	-7.25	4.5	0.	120.18
3278	-6.75	4.5	0.	120.18
3279	5.5	2.75	0.	126.29
3280	5.75	2.5	0.	126.42
3281	4.25	3.	0.	123.46
3282	4.75	3.	0.	123.96
3283	4.5	3.25	0.	122.58
3284	5.	-3.75	0.	118.4
3285	5.25	-3.5	0.	119.95
3286	4.75	-3.5	0.	119.97
3287	5.	-3.25	0.	120.14
3288	-5.75	5.	0.	124.21
3289	-5.5	4.75	0.	125.51
3290	-6.	4.75	0.	123.43
3291	-4.25	3.5	0.	126.66
3292	-4.	3.25	0.	125.92
3293	-4.25	2.	0.	125.92
3294	-4.	1.75	0.	126.04
3295	-5.75	-1.8076e-011	0.	124.23
3296	-6.	0.25	0.	123.42
3297	6.75	2.	0.	124.27
3298	6.5	2.25	0.	125.57
3299	7.25	2.	0.	122.88
3300	7.	2.25	0.	123.78
3301	3.75	3.	0.	124.
3302	3.5	3.25	0.	124.56
3303	4.	3.25	0.	123.1
3304	4.	2.75	0.	123.84
3305	2.	4.75	0.	125.39
3306	2.25	5.	0.	125.37
3307	2.25	4.5	0.	125.92
3308	2.25	6.	0.	125.6
3309	2.	6.25	0.	125.66
3310	2.25	-6.5	0.	126.71
3311	2.	-6.25	0.	126.02
3312	2.	-4.75	0.	126.08
3313	2.25	-4.5	0.	126.79
3314	2.25	-5.	0.	125.92
3315	3.75	-3.	0.	124.16
3316	4.	-3.25	0.	123.3
3317	4.	-2.75	0.	123.36
3318	3.5	-3.25	0.	125.47
3319	6.25	-3.	0.	124.01
3320	6.5	-2.75	0.	124.61
3321	6.5	-3.25	0.	125.32
3322	5.25	-4.	0.	118.26
3323	5.	-4.25	0.	117.21
3324	4.75	-4.	0.	118.26
3325	6.75	7.	0.	125.96
3326	7.	7.25	0.	124.91
3327	7.25	7.	0.	123.87
3328	7.	6.75	0.	124.79
3329	6.5	7.25	0.	126.65
3330	6.25	7.	0.	127.82
3331	6.5	6.75	0.	127.45
3332	5.25	3.	0.	125.54
3333	5.	3.25	0.	124.04
3334	5.75	3.	0.	127.53
3335	5.5	3.25	0.	126.62
3336	-7.25	4.	0.	118.59
3337	-6.75	4.	0.	118.58
3338	-7.	3.75	0.	117.61
3339	-6.75	1.	0.	118.55
3340	-7.25	1.	0.	118.56
3341	-7.	1.25	0.	117.59
3342	7.5	2.25	0.	121.77
3343	7.75	2.	0.	121.91
3344	7.5	1.75	0.	122.5
3345	7.5	0.25	0.	123.91
3346	7.75	0.5	0.	123.85
3347	7.5	0.75	0.	123.54
3348	7.25	0.5	0.	123.76
3349	7.5	-0.25	0.	124.2
3350	7.75	-1.2375e-013	0.	124.2
3351	7.5	-0.75	0.	124.47
3352	7.75	-0.5	0.	124.49
3353	7.25	-0.5	0.	124.22
3354	7.75	-1.	0.	124.76
3355	7.5	-1.25	0.	124.74
3356	7.5	-2.25	0.	125.49
3357	7.75	-2.	0.	125.39
3358	7.5	-1.75	0.	125.07
3359	7.5	-2.75	0.	126.03
3360	7.75	-2.5	0.	125.82
3361	7.5	-3.25	0.	126.67
3362	7.75	-3.	0.	126.33
3363	7.5	-3.75	0.	127.22
3364	7.25	-3.5	0.	126.98
3365	7.75	-3.5	0.	126.83
3366	7.25	-7.5	0.	126.98
3367	7.5	-7.25	0.	127.28
3368	7.75	-7.5	0.	126.95
3369	7.5	-7.75	0.	126.74
3370	5.25	-7.5	0.	119.63
3371	4.75	-7.5	0.	119.64
3372	5.	-7.75	0.	119.76
3373	5.	-7.25	0.	118.11
3374	2.25	-7.5	0.	126.91
3375	2.5	-7.25	0.	127.22
3376	2.75	-7.5	0.	126.97
3377	2.5	-7.75	0.	126.75
3378	1.75	-7.5	0.	126.65
3379	2.	-7.75	0.	126.67
3380	1.25	-7.5	0.	126.39
3381	1.5	-7.75	0.	126.49
3382	0.75	-7.5	0.	126.19
3383	1.	-7.75	0.	126.32
3384	0.25	-7.5	0.	126.05
3385	0.5	-7.75	0.	126.17
3386	-0.25	-7.5	0.	125.93
3387	1.1344e-012	-7.75	0.	126.04
3388	1.6254e-013	-7.25	0.	125.91
3389	-0.75	-7.5	0.	125.83
3390	-0.5	-7.75	0.	125.93
3391	-1.25	-7.5	0.	125.75
3392	-1.	-7.75	0.	125.84
3393	-1.	-7.25	0.	125.74
3394	-1.75	-7.5	0.	125.66
3395	-1.5	-7.75	0.	125.75
3396	-2.25	-7.5	0.	125.58
3397	-2.	-7.75	0.	125.66
3398	-2.75	-7.5	0.	125.5
3399	-2.5	-7.75	0.	125.57
3400	-3.25	-7.5	0.	125.41
3401	-3.	-7.75	0.	125.48
3402	-3.75	-7.5	0.	125.32
3403	-3.5	-7.75	0.	125.39
3404	-4.25	-7.5	0.	125.24
3405	-4.	-7.75	0.	125.3
3406	-4.75	-7.5	0.	125.15
3407	-4.5	-7.75	0.	125.21
3408	-5.25	-7.5	0.	125.07
3409	-5.	-7.75	0.	125.12
3410	-5.	-7.25	0.	125.09
3411	-5.75	-7.5	0.	124.99
3412	-5.5	-7.75	0.	125.04
3413	-6.25	-7.5	0.	124.92
3414	-6.	-7.75	0.	124.97
3415	-6.75	-7.5	0.	124.85
3416	-6.5	-7.75	0.	124.9
3417	-7.25	-7.5	0.	124.79
3418	-7.	-7.75	0.	124.83
3419	-7.5	-7.25	0.	124.75
3420	-7.5	-7.75	0.	124.77
3421	-7.75	-7.5	0.	124.73
3422	-7.5	-6.75	0.	124.73
3423	-7.75	-7.	0.	124.72
3424	-7.5	-6.25	0.	124.71
3425	-7.75	-6.5	0.	124.7
3426	-7.5	-5.75	0.	124.68
3427	-7.75	-6.	0.	124.68
3428	-7.5	-5.25	0.	124.64
3429	-7.75	-5.5	0.	124.65
3430	-7.5	-4.75	0.	124.58
3431	-7.75	-5.	0.	124.61
3432	-7.25	-5.	0.	124.62
3433	-7.5	-4.25	0.	124.51
3434	-7.75	-4.5	0.	124.56
3435	-7.5	-3.75	0.	124.41
3436	-7.75	-4.	0.	124.5
3437	-7.25	-4.	0.	124.46
3438	-7.5	-3.25	0.	124.28
3439	-7.75	-3.5	0.	124.4
3440	-7.5	-2.75	0.	124.1
3441	-7.75	-3.	0.	124.28
3442	-7.25	-3.	0.	124.18
3443	-7.75	-2.5	0.	124.11
3444	-7.5	-2.25	0.	123.87
3445	-7.5	-1.25	0.	123.17
3446	-7.75	-1.5	0.	123.61
3447	-7.5	-1.75	0.	123.56
3448	-7.5	-0.75	0.	122.66
3449	-7.75	-1.	0.	123.27
3450	-7.5	-0.25	0.	122.01
3451	-7.75	-0.5	0.	122.87
3452	-7.5	0.25	0.	121.17
3453	-7.75	-7.4896e-012	0.	122.44
3454	-7.25	-8.4779e-012	0.	121.32
3455	-7.5	0.75	0.	120.07
3456	-7.75	0.5	0.	122.05
3457	-7.5	5.25	0.	122.12
3458	-7.5	4.75	0.	121.24
3459	-7.75	5.	0.	122.54
3460	-7.5	5.75	0.	122.8
3461	-7.75	5.5	0.	123.01
3462	-7.5	6.25	0.	123.35
3463	-7.75	6.	0.	123.44
3464	-7.25	6.	0.	122.98
3465	-7.5	6.75	0.	123.78
3466	-7.75	6.5	0.	123.82
3467	-7.5	7.25	0.	124.13
3468	-7.75	7.	0.	124.14
3469	-7.25	7.5	0.	124.23
3470	-7.75	7.5	0.	124.39
3471	-7.5	7.75	0.	124.39
3472	-6.75	7.5	0.	124.2
3473	-7.	7.75	0.	124.31
3474	-6.25	7.5	0.	124.3
3475	-6.5	7.75	0.	124.34
3476	-5.75	7.5	0.	124.5
3477	-6.	7.75	0.	124.48
3478	-6.	7.25	0.	124.28
3479	-5.25	7.5	0.	124.74
3480	-5.5	7.75	0.	124.68
3481	-4.75	7.5	0.	124.97
3482	-5.	7.75	0.	124.89
3483	-4.25	7.5	0.	125.16
3484	-4.5	7.75	0.	125.08
3485	-3.75	7.5	0.	125.29
3486	-4.	7.75	0.	125.22
3487	-4.	7.25	0.	125.28
3488	-3.25	7.5	0.	125.36
3489	-3.5	7.75	0.	125.31
3490	-2.75	7.5	0.	125.38
3491	-3.	7.75	0.	125.36
3492	-2.25	7.5	0.	125.37
3493	-2.5	7.75	0.	125.38
3494	-2.5	7.25	0.	125.39
3495	-1.75	7.5	0.	125.35
3496	-2.	7.75	0.	125.37
3497	-2.	7.25	0.	125.36
3498	-1.25	7.5	0.	125.33
3499	-1.5	7.75	0.	125.36
3500	-0.75	7.5	0.	125.32
3501	-1.	7.75	0.	125.36
3502	-1.	7.25	0.	125.29
3503	-0.25	7.5	0.	125.35
3504	-0.5	7.75	0.	125.37
3505	0.25	7.5	0.	125.43
3506	-5.0284e-011	7.75	0.	125.43
3507	-6.8284e-011	7.25	0.	125.32
3508	0.75	7.5	0.	125.58
3509	0.5	7.75	0.	125.53
3510	1.25	7.5	0.	125.81
3511	1.	7.75	0.	125.7
3512	1.	7.25	0.	125.59
3513	1.75	7.5	0.	126.12
3514	1.5	7.75	0.	125.94
3515	2.25	7.5	0.	126.47
3516	2.	7.75	0.	126.22
3517	2.75	7.5	0.	126.63
3518	2.5	7.25	0.	126.79
3519	2.5	7.75	0.	126.43
3520	6.75	7.5	0.	125.6
3521	6.25	7.5	0.	126.55
3522	6.5	7.75	0.	125.94
3523	7.25	7.5	0.	124.34
3524	7.	7.75	0.	124.95
3525	7.5	7.25	0.	123.3
3526	7.75	7.5	0.	123.44
3527	7.5	7.75	0.	124.
3528	7.5	6.75	0.	122.26
3529	7.75	7.	0.	122.41
3530	7.5	6.25	0.	120.9
3531	7.75	6.5	0.	120.96
3532	7.25	6.5	0.	123.19
3533	-7.5	4.25	0.	120.12
3534	-7.75	4.5	0.	122.11
3535	6.75	-7.5	0.	126.25
3536	7.	-7.75	0.	126.39
3537	7.	-7.25	0.	127.57
3538	5.5	-7.25	0.	119.56
3539	5.5	-7.75	0.	120.68
3540	5.75	-7.5	0.	121.6
3541	7.75	-7.	0.	127.18
3542	7.25	-7.	0.	127.86
3543	7.5	-6.75	0.	127.35
3544	7.5	-4.25	0.	127.3
3545	7.75	-4.	0.	127.08
3546	7.25	-4.	0.	127.85
3547	7.5	-5.75	0.	125.91
3548	7.75	-5.5	0.	125.57
3549	7.25	-5.5	0.	125.62
3550	7.5	-5.25	0.	125.89
3551	5.75	-3.5	0.	121.9
3552	5.5	-3.75	0.	119.85
3553	5.5	-3.25	0.	121.04
3554	7.	-3.75	0.	127.62
3555	6.75	-3.5	0.	126.38
3556	3.25	-3.5	0.	126.51
3557	3.	-3.75	0.	127.74
3558	4.25	-3.5	0.	121.94
3559	4.5	-3.75	0.	119.86
3560	2.5	-4.25	0.	127.35
3561	2.75	-4.	0.	127.94
3562	2.5	-6.75	0.	127.24
3563	2.75	-7.	0.	127.79
3564	2.5	-5.75	0.	125.78
3565	2.5	-5.25	0.	125.8
3566	2.75	-5.5	0.	125.51
3567	4.25	-7.5	0.	121.63
3568	4.5	-7.75	0.	120.71
3569	4.5	-7.25	0.	119.59
3570	3.25	-7.5	0.	126.27
3571	3.	-7.25	0.	127.54
3572	3.	-7.75	0.	126.41
3573	6.	7.75	0.	126.35
3574	6.	7.25	0.	127.73
3575	5.75	7.5	0.	126.43
3576	3.25	7.5	0.	126.09
3577	3.	7.75	0.	126.29
3578	3.	7.25	0.	127.14
3579	4.75	7.5	0.	123.27
3580	4.5	7.75	0.	123.21
3581	4.25	7.5	0.	123.11
3582	4.5	7.25	0.	121.33
3583	2.75	7.	0.	127.3
3584	2.5	6.75	0.	126.83
3585	2.5	4.25	0.	126.3
3586	2.75	4.	0.	126.62
3587	2.5	5.25	0.	125.41
3588	2.5	5.75	0.	125.54
3589	2.75	5.5	0.	125.34
3590	4.25	3.5	0.	122.22
3591	4.5	3.75	0.	120.3
3592	4.75	3.5	0.	122.66
3593	3.	3.75	0.	126.37
3594	3.25	3.5	0.	125.25
3595	7.25	2.5	0.	122.68
3596	7.75	2.5	0.	120.8
3597	7.5	2.75	0.	120.87
3598	6.25	2.5	0.	126.49
3599	6.	2.75	0.	127.66
3600	-5.25	0.5	0.	126.59
3601	-5.	0.75	0.	127.81
3602	-6.5	0.75	0.	120.09
3603	-6.25	0.5	0.	122.11
3604	-4.75	1.	0.	128.
3605	-4.5	1.25	0.	127.39
3606	-4.5	3.75	0.	127.25
3607	-4.75	4.	0.	127.87
3608	-4.5	2.25	0.	125.85
3609	-4.75	2.5	0.	125.61
3610	-4.5	2.75	0.	125.82
3611	-6.25	4.5	0.	122.13
3612	-6.5	4.25	0.	120.12
3613	-5.	4.25	0.	127.7
3614	-5.25	4.5	0.	126.51
3615	-6.	4.25	0.	123.71
3616	-5.75	4.5	0.	124.72
3617	-4.75	3.5	0.	127.94
3618	-4.5	3.25	0.	126.59
3619	-4.75	2.	0.	126.78
3620	-4.5	1.75	0.	126.68
3621	-5.5	0.75	0.	126.96
3622	-5.5	0.25	0.	125.55
3623	-5.75	0.5	0.	124.74
3624	6.75	2.5	0.	125.08
3625	6.5	2.75	0.	127.39
3626	7.	2.75	0.	124.41
3627	4.	3.75	0.	122.14
3628	3.75	3.5	0.	123.66
3629	2.5	4.75	0.	125.9
3630	2.75	5.	0.	126.12
3631	2.75	4.5	0.	126.89
3632	2.75	6.	0.	126.42
3633	2.5	6.25	0.	126.27
3634	3.5	7.75	0.	125.39
3635	3.5	7.25	0.	126.23
3636	3.75	7.5	0.	124.59
3637	5.	7.75	0.	124.14
3638	5.	7.25	0.	123.62
3639	5.25	7.5	0.	124.97
3640	3.75	-7.5	0.	124.33
3641	3.5	-7.75	0.	125.17
3642	3.5	-7.25	0.	126.58
3643	4.	-7.75	0.	122.95
3644	4.	-7.25	0.	123.26
3645	2.5	-6.25	0.	126.56
3646	2.75	-6.	0.	126.62
3647	2.25	-6.	0.	125.87
3648	2.75	-6.5	0.	127.85
3649	2.5	-4.75	0.	126.64
3650	2.75	-4.5	0.	127.96
3651	2.75	-5.	0.	126.68
3652	3.5	-3.75	0.	126.82
3653	3.75	-3.5	0.	124.61
3654	6.	-3.75	0.	123.48
3655	6.	-3.25	0.	123.21
3656	6.25	-3.5	0.	124.53
3657	7.75	-4.5	0.	126.77
3658	7.25	-4.5	0.	127.95
3659	7.5	-4.75	0.	126.66
3660	7.75	-6.	0.	126.03
3661	7.25	-6.	0.	126.76
3662	7.5	-6.25	0.	126.7
3663	6.5	-7.75	0.	125.12
3664	6.5	-7.25	0.	126.57
3665	6.25	-7.5	0.	124.3
3666	-7.75	4.	0.	121.76
3667	-7.5	3.75	0.	118.22
3668	-6.25	1.	0.	121.69
3669	-6.5	1.25	0.	118.11
3670	7.75	6.	0.	119.21
3671	7.25	6.	0.	122.46
3672	7.5	5.75	0.	118.82
3673	5.75	-7.	0.	121.19
3674	5.5	-6.75	0.	117.59
3675	5.25	-7.	0.	118.02
3676	8.	7.25	0.	122.55
3677	8.	7.75	0.	123.55
3678	8.25	7.5	0.	123.33
3679	8.	6.75	0.	121.11
3680	8.25	7.	0.	122.24
3681	8.	6.25	0.	119.3
3682	8.25	6.5	0.	120.78
3683	8.25	6.	0.	119.11
3684	8.	5.75	0.	118.3
3685	-8.	4.75	0.	123.42
3686	-8.	4.25	0.	123.76
3687	-8.25	4.5	0.	124.75
3688	-8.	5.25	0.	123.44
3689	-8.25	5.	0.	124.23
3690	-8.	5.75	0.	123.65
3691	-8.25	5.5	0.	124.13
3692	-8.	6.25	0.	123.92
3693	-8.25	6.	0.	124.22
3694	-8.	6.75	0.	124.18
3695	-8.25	6.5	0.	124.37
3696	-8.	7.25	0.	124.41
3697	-8.25	7.	0.	124.53
3698	-8.	7.75	0.	124.59
3699	-8.25	7.5	0.	124.67
3700	-7.75	8.	0.	124.59
3701	-8.	8.25	0.	124.72
3702	-8.25	8.	0.	124.78
3703	-7.25	8.	0.	124.48
3704	-7.5	8.25	0.	124.59
3705	-6.75	8.	0.	124.45
3706	-7.	8.25	0.	124.54
3707	-6.25	8.	0.	124.52
3708	-6.5	8.25	0.	124.56
3709	-5.75	8.	0.	124.65
3710	-6.	8.25	0.	124.65
3711	-5.25	8.	0.	124.82
3712	-5.5	8.25	0.	124.79
3713	-4.75	8.	0.	124.99
3714	-5.	8.25	0.	124.94
3715	-4.25	8.	0.	125.14
3716	-4.5	8.25	0.	125.08
3717	-3.75	8.	0.	125.25
3718	-4.	8.25	0.	125.2
3719	-3.25	8.	0.	125.32
3720	-3.5	8.25	0.	125.29
3721	-2.75	8.	0.	125.36
3722	-3.	8.25	0.	125.35
3723	-2.25	8.	0.	125.38
3724	-2.5	8.25	0.	125.38
3725	-1.75	8.	0.	125.38
3726	-2.	8.25	0.	125.4
3727	-1.25	8.	0.	125.39
3728	-1.5	8.25	0.	125.42
3729	-0.75	8.	0.	125.41
3730	-1.	8.25	0.	125.43
3731	-0.25	8.	0.	125.45
3732	-0.5	8.25	0.	125.46
3733	0.25	8.	0.	125.53
3734	-3.398e-011	8.25	0.	125.52
3735	0.75	8.	0.	125.65
3736	0.5	8.25	0.	125.61
3737	1.25	8.	0.	125.83
3738	1.	8.25	0.	125.74
3739	1.75	8.	0.	126.03
3740	1.5	8.25	0.	125.89
3741	2.25	8.	0.	126.17
3742	2.	8.25	0.	126.03
3743	2.75	8.	0.	126.09
3744	2.5	8.25	0.	126.05
3745	3.25	8.	0.	125.6
3746	3.	8.25	0.	125.81
3747	3.75	8.	0.	124.74
3748	3.5	8.25	0.	125.2
3749	4.25	8.	0.	124.03
3750	4.	8.25	0.	124.46
3751	4.	7.75	0.	123.93
3752	4.75	8.	0.	124.08
3753	4.5	8.25	0.	124.13
3754	5.25	8.	0.	124.84
3755	5.	8.25	0.	124.5
3756	5.75	8.	0.	125.59
3757	5.5	8.25	0.	125.2
3758	5.5	7.75	0.	125.67
3759	6.25	8.	0.	125.74
3760	6.	8.25	0.	125.58
3761	6.75	8.	0.	125.29
3762	6.5	8.25	0.	125.44
3763	7.25	8.	0.	124.61
3764	7.	8.25	0.	124.94
3765	7.75	8.	0.	124.11
3766	7.5	8.25	0.	124.42
3767	8.25	8.	0.	124.05
3768	8.	8.25	0.	124.18
3769	-7.75	1.	0.	121.73
3770	-7.5	1.25	0.	118.19
3771	8.	2.75	0.	119.39
3772	7.75	3.	0.	119.43
3773	8.25	3.	0.	119.33
3774	8.	3.25	0.	118.58
3775	8.	2.25	0.	120.94
3776	8.25	2.5	0.	120.82
3777	8.	1.75	0.	122.17
3778	8.25	2.	0.	122.08
3779	8.	1.25	0.	123.06
3780	8.25	1.5	0.	123.04
3781	7.75	1.5	0.	122.76
3782	8.	0.75	0.	123.69
3783	8.25	1.	0.	123.73
3784	7.75	1.	0.	123.39
3785	8.	0.25	0.	124.15
3786	8.25	0.5	0.	124.21
3787	8.	-0.25	0.	124.49
3788	8.25	3.8176e-014	0.	124.56
3789	8.	-0.75	0.	124.78
3790	8.25	-0.5	0.	124.83
3791	8.	-1.25	0.	125.06
3792	8.25	-1.	0.	125.08
3793	8.	-1.75	0.	125.37
3794	8.25	-1.5	0.	125.33
3795	7.75	-1.5	0.	125.05
3796	8.	-2.25	0.	125.72
3797	8.25	-2.	0.	125.61
3798	8.	-2.75	0.	126.12
3799	8.25	-2.5	0.	125.93
3800	8.	-3.25	0.	126.49
3801	8.25	-3.	0.	126.24
3802	8.	-3.75	0.	126.69
3803	8.25	-3.5	0.	126.47
3804	8.	-4.25	0.	126.55
3805	8.25	-4.	0.	126.47
3806	8.	-4.75	0.	126.09
3807	8.25	-4.5	0.	126.17
3808	8.	-5.25	0.	125.65
3809	8.25	-5.	0.	125.72
3810	7.75	-5.	0.	125.98
3811	8.	-5.75	0.	125.68
3812	8.25	-5.5	0.	125.51
3813	8.	-6.25	0.	126.17
3814	8.25	-6.	0.	125.78
3815	8.	-6.75	0.	126.67
3816	8.25	-6.5	0.	126.29
3817	7.75	-6.5	0.	126.85
3818	8.	-7.25	0.	126.85
3819	8.25	-7.	0.	126.65
3820	8.	-7.75	0.	126.7
3821	8.25	-7.5	0.	126.71
3822	7.75	-8.	0.	126.49
3823	8.	-8.25	0.	126.4
3824	8.25	-8.	0.	126.55
3825	7.25	-8.	0.	126.15
3826	7.5	-8.25	0.	126.15
3827	6.75	-8.	0.	125.26
3828	7.	-8.25	0.	125.53
3829	6.25	-8.	0.	123.74
3830	6.5	-8.25	0.	124.39
3831	5.75	-8.	0.	121.98
3832	6.	-8.25	0.	122.84
3833	6.	-7.75	0.	122.9
3834	5.25	-8.	0.	120.8
3835	5.5	-8.25	0.	121.46
3836	4.75	-8.	0.	120.81
3837	5.	-8.25	0.	120.91
3838	4.5	-8.25	0.	121.49
3839	4.25	-8.	0.	122.03
3840	3.5	-8.25	0.	124.46
3841	3.75	-8.	0.	123.79
3842	3.25	-8.	0.	125.31
3843	2.25	-8.	0.	126.51
3844	2.5	-8.25	0.	126.2
3845	2.75	-8.	0.	126.19
3846	1.75	-8.	0.	126.52
3847	2.	-8.25	0.	126.41
3848	1.25	-8.	0.	126.42
3849	1.5	-8.25	0.	126.43
3850	0.75	-8.	0.	126.29
3851	1.	-8.25	0.	126.35
3852	0.25	-8.	0.	126.16
3853	0.5	-8.25	0.	126.25
3854	-0.25	-8.	0.	126.05
3855	1.56e-012	-8.25	0.	126.14
3856	-0.75	-8.	0.	125.94
3857	-0.5	-8.25	0.	126.03
3858	-1.25	-8.	0.	125.84
3859	-1.	-8.25	0.	125.92
3860	-1.75	-8.	0.	125.74
3861	-1.5	-8.25	0.	125.82
3862	-2.25	-8.	0.	125.64
3863	-2.	-8.25	0.	125.72
3864	-2.75	-8.	0.	125.55
3865	-2.5	-8.25	0.	125.62
3866	-3.25	-8.	0.	125.45
3867	-3.	-8.25	0.	125.52
3868	-3.75	-8.	0.	125.36
3869	-3.5	-8.25	0.	125.42
3870	-4.25	-8.	0.	125.27
3871	-4.	-8.25	0.	125.33
3872	-4.75	-8.	0.	125.18
3873	-4.5	-8.25	0.	125.24
3874	-5.25	-8.	0.	125.1
3875	-5.	-8.25	0.	125.15
3876	-5.75	-8.	0.	125.02
3877	-5.5	-8.25	0.	125.07
3878	-6.25	-8.	0.	124.94
3879	-6.	-8.25	0.	124.99
3880	-6.75	-8.	0.	124.87
3881	-6.5	-8.25	0.	124.92
3882	-7.25	-8.	0.	124.81
3883	-7.	-8.25	0.	124.85
3884	-7.75	-8.	0.	124.75
3885	-7.5	-8.25	0.	124.78
3886	-8.	-7.75	0.	124.71
3887	-8.25	-8.	0.	124.68
3888	-8.	-8.25	0.	124.72
3889	-8.	-7.25	0.	124.7
3890	-8.25	-7.5	0.	124.68
3891	-8.	-6.75	0.	124.69
3892	-8.25	-7.	0.	124.67
3893	-8.	-6.25	0.	124.67
3894	-8.25	-6.5	0.	124.66
3895	-8.	-5.75	0.	124.65
3896	-8.25	-6.	0.	124.65
3897	-8.	-5.25	0.	124.63
3898	-8.25	-5.5	0.	124.64
3899	-8.	-4.75	0.	124.6
3900	-8.25	-5.	0.	124.62
3901	-8.	-4.25	0.	124.55
3902	-8.25	-4.5	0.	124.6
3903	-8.	-3.75	0.	124.49
3904	-8.25	-4.	0.	124.56
3905	-8.	-3.25	0.	124.4
3906	-8.25	-3.5	0.	124.52
3907	-8.	-2.75	0.	124.28
3908	-8.25	-3.	0.	124.46
3909	-8.	-2.25	0.	124.13
3910	-8.25	-2.5	0.	124.37
3911	-8.	-1.75	0.	123.94
3912	-8.25	-2.	0.	124.26
3913	-7.75	-2.	0.	123.89
3914	-8.	-1.25	0.	123.71
3915	-8.25	-1.5	0.	124.14
3916	-8.	-0.75	0.	123.48
3917	-8.25	-1.	0.	124.02
3918	-8.	-0.25	0.	123.31
3919	-8.25	-0.5	0.	123.97
3920	-8.	0.25	0.	123.32
3921	-8.25	-5.8375e-012	0.	124.11
3922	-8.	0.75	0.	123.7
3923	-8.25	0.5	0.	124.66
3924	-6.25	4.	0.	121.71
3925	-6.5	3.75	0.	118.13
3926	-5.	3.75	0.	128.55
3927	-5.25	4.	0.	128.09
3928	-5.	2.25	0.	126.54
3929	-5.25	2.5	0.	127.57
3930	-5.	2.75	0.	126.51
3931	-5.25	1.	0.	128.16
3932	-5.	1.25	0.	128.65
3933	7.25	3.	0.	122.61
3934	7.5	3.25	0.	119.17
3935	6.	3.25	0.	129.14
3936	6.25	3.	0.	128.54
3937	4.75	4.	0.	120.46
3938	4.25	4.	0.	120.19
3939	4.5	4.25	0.	115.45
3940	3.	4.25	0.	127.21
3941	3.25	4.	0.	126.41
3942	3.	5.75	0.	126.21
3943	3.	5.25	0.	126.04
3944	3.25	5.5	0.	127.22
3945	3.25	7.	0.	127.27
3946	3.	6.75	0.	127.9
3947	6.	6.75	0.	129.39
3948	5.75	7.	0.	128.23
3949	6.75	6.5	0.	126.29
3950	7.	6.25	0.	124.75
3951	6.25	6.5	0.	129.02
3952	6.5	6.25	0.	128.43
3953	5.25	3.5	0.	125.12
3954	5.	3.75	0.	122.84
3955	5.5	3.75	0.	126.91
3956	5.75	3.5	0.	128.23
3957	3.	-6.75	0.	128.39
3958	3.25	-7.	0.	127.84
3959	3.	-5.25	0.	126.38
3960	3.	-5.75	0.	126.35
3961	3.25	-5.5	0.	127.34
3962	3.25	-4.	0.	128.03
3963	3.	-4.25	0.	128.54
3964	5.75	-4.	0.	121.43
3965	5.5	-4.25	0.	117.79
3966	7.	-4.25	0.	128.5
3967	6.75	-4.	0.	127.98
3968	7.	-5.75	0.	126.46
3969	7.	-5.25	0.	126.45
3970	6.75	-5.5	0.	127.41
3971	6.75	-7.	0.	127.88
3972	7.	-6.75	0.	128.48
3973	6.25	-7.	0.	125.5
3974	6.	-6.75	0.	124.22
3975	6.	-7.25	0.	123.22
3976	6.5	-6.75	0.	129.36
3977	6.75	-6.	0.	128.6
3978	7.	-6.25	0.	128.02
3979	7.	-4.75	0.	128.02
3980	6.75	-5.	0.	128.57
3981	7.25	-5.	0.	126.73
3982	6.75	-4.5	0.	129.99
3983	6.25	-4.	0.	125.7
3984	6.5	-4.25	0.	129.49
3985	6.5	-3.75	0.	126.75
3986	6.	-4.25	0.	124.46
3987	3.75	-4.	0.	125.72
3988	4.	-4.25	0.	124.42
3989	4.	-3.75	0.	123.51
3990	4.25	-4.	0.	121.43
3991	3.5	-4.25	0.	129.49
3992	3.	-4.75	0.	128.
3993	3.25	-4.5	0.	129.99
3994	3.25	-5.	0.	128.55
3995	3.	-6.25	0.	127.9
3996	3.25	-6.	0.	128.47
3997	3.25	-6.5	0.	129.85
3998	3.5	-6.75	0.	129.32
3999	3.75	-7.	0.	125.51
4000	5.25	4.	0.	124.64
4001	5.	4.25	0.	122.32
4002	5.5	4.25	0.	128.65
4003	5.75	4.	0.	128.35
4004	6.	4.75	0.	129.04
4005	5.75	4.5	0.	129.36
4006	6.25	4.5	0.	129.99
4007	6.	4.25	0.	129.06
4008	6.	6.25	0.	130.32
4009	6.25	6.	0.	129.72
4010	5.75	6.	0.	130.99
4011	6.	5.75	0.	129.95
4012	5.75	6.5	0.	131.11
4013	5.	6.75	0.	123.78
4014	5.25	7.	0.	125.61
4015	4.75	7.	0.	121.66
4016	3.75	7.	0.	124.82
4017	4.	6.75	0.	123.04
4018	4.	7.25	0.	123.18
4019	4.25	7.	0.	121.37
4020	3.5	6.75	0.	128.62
4021	3.	6.25	0.	127.58
4022	3.25	6.5	0.	129.23
4023	2.75	6.5	0.	127.43
4024	3.25	6.	0.	128.18
4025	3.	4.75	0.	127.09
4026	3.25	5.	0.	127.77
4027	3.25	4.5	0.	128.49
4028	4.	4.25	0.	121.93
4029	3.75	4.	0.	123.77
4030	6.75	6.	0.	126.89
4031	7.	5.75	0.	125.44
4032	6.5	5.75	0.	130.58
4033	6.25	5.	0.	130.44
4034	5.75	5.	0.	129.87
4035	6.	5.25	0.	129.49
4036	6.25	3.5	0.	131.29
4037	6.	3.75	0.	129.67
4038	6.75	3.	0.	126.71
4039	6.5	3.25	0.	130.71
4040	7.	3.25	0.	125.86
4041	-5.75	1.	0.	125.92
4042	-6.	1.25	0.	124.7
4043	-6.	0.75	0.	123.71
4044	-5.5	1.25	0.	129.69
4045	-5.25	2.	0.	128.75
4046	-5.	1.75	0.	128.14
4047	-5.25	3.5	0.	130.1
4048	-5.	3.25	0.	128.07
4049	-6.	3.75	0.	124.72
4050	-5.75	4.	0.	125.9
4051	-8.25	1.	0.	125.99
4052	-8.	1.25	0.	124.85
4053	8.5	7.75	0.	123.83
4054	8.5	8.25	0.	124.36
4055	8.75	8.	0.	124.49
4056	8.5	7.25	0.	123.02
4057	8.75	7.5	0.	124.06
4058	8.5	6.75	0.	121.92
4059	8.75	7.	0.	123.42
4060	8.5	6.25	0.	120.62
4061	8.75	6.5	0.	122.7
4062	8.75	6.	0.	122.18
4063	8.5	5.75	0.	118.84
4064	-8.25	8.5	0.	124.85
4065	-8.	8.75	0.	124.81
4066	-7.75	8.5	0.	124.73
4067	-6.75	8.5	0.	124.65
4068	-7.	8.75	0.	124.7
4069	-7.25	8.5	0.	124.66
4070	-6.25	8.5	0.	124.69
4071	-6.5	8.75	0.	124.72
4072	-5.75	8.5	0.	124.78
4073	-6.	8.75	0.	124.78
4074	-5.25	8.5	0.	124.9
4075	-5.5	8.75	0.	124.88
4076	-4.75	8.5	0.	125.03
4077	-5.	8.75	0.	124.99
4078	-4.25	8.5	0.	125.15
4079	-4.5	8.75	0.	125.1
4080	-3.75	8.5	0.	125.24
4081	-4.	8.75	0.	125.21
4082	-3.25	8.5	0.	125.32
4083	-3.5	8.75	0.	125.29
4084	-3.	8.75	0.	125.36
4085	-2.75	8.5	0.	125.37
4086	-1.75	8.5	0.	125.44
4087	-2.	8.75	0.	125.46
4088	-2.25	8.5	0.	125.41
4089	-1.25	8.5	0.	125.46
4090	-1.5	8.75	0.	125.49
4091	-0.75	8.5	0.	125.49
4092	-1.	8.75	0.	125.53
4093	-0.25	8.5	0.	125.54
4094	-0.5	8.75	0.	125.56
4095	0.25	8.5	0.	125.6
4096	-2.1683e-011	8.75	0.	125.61
4097	0.75	8.5	0.	125.69
4098	0.5	8.75	0.	125.68
4099	1.25	8.5	0.	125.8
4100	1.	8.75	0.	125.75
4101	1.75	8.5	0.	125.89
4102	1.5	8.75	0.	125.82
4103	2.25	8.5	0.	125.91
4104	2.	8.75	0.	125.85
4105	2.5	8.75	0.	125.79
4106	2.75	8.5	0.	125.77
4107	3.75	8.5	0.	124.92
4108	3.5	8.75	0.	125.19
4109	3.25	8.5	0.	125.41
4110	4.25	8.5	0.	124.55
4111	4.	8.75	0.	124.79
4112	4.75	8.5	0.	124.54
4113	4.5	8.75	0.	124.6
4114	5.25	8.5	0.	124.85
4115	5.	8.75	0.	124.73
4116	5.5	8.75	0.	125.01
4117	5.75	8.5	0.	125.19
4118	6.75	8.5	0.	125.08
4119	6.5	8.75	0.	125.13
4120	6.25	8.5	0.	125.28
4121	7.25	8.5	0.	124.75
4122	7.	8.75	0.	124.9
4123	7.5	8.75	0.	124.65
4124	7.75	8.5	0.	124.5
4125	8.5	8.75	0.	124.65
4126	8.75	8.5	0.	124.74
4127	8.25	8.5	0.	124.49
4128	-8.25	4.	0.	126.05
4129	-8.	3.75	0.	124.88
4130	-8.5	-7.75	0.	124.65
4131	-8.5	-8.25	0.	124.66
4132	-8.75	-8.	0.	124.62
4133	-8.5	-7.25	0.	124.65
4134	-8.75	-7.5	0.	124.62
4135	-8.75	-7.	0.	124.62
4136	-8.5	-6.75	0.	124.64
4137	-8.5	-5.75	0.	124.63
4138	-8.75	-6.	0.	124.62
4139	-8.5	-6.25	0.	124.64
4140	-8.5	-5.25	0.	124.63
4141	-8.75	-5.5	0.	124.62
4142	-8.5	-4.75	0.	124.62
4143	-8.75	-5.	0.	124.62
4144	-8.5	-4.25	0.	124.61
4145	-8.75	-4.5	0.	124.63
4146	-8.75	-4.	0.	124.64
4147	-8.5	-3.75	0.	124.6
4148	-8.5	-2.75	0.	124.54
4149	-8.75	-3.	0.	124.67
4150	-8.5	-3.25	0.	124.57
4151	-8.5	-2.25	0.	124.5
4152	-8.75	-2.5	0.	124.69
4153	-8.5	-1.75	0.	124.46
4154	-8.75	-2.	0.	124.72
4155	-8.5	-1.25	0.	124.44
4156	-8.75	-1.5	0.	124.77
4157	-8.5	-0.75	0.	124.5
4158	-8.75	-1.	0.	124.87
4159	-8.5	-0.25	0.	124.77
4160	-8.75	-0.5	0.	125.1
4161	-8.5	0.25	0.	125.45
4162	-8.75	-3.8887e-012	0.	125.58
4163	-8.5	0.75	0.	126.96
4164	-8.75	0.5	0.	126.53
4165	-8.5	1.25	0.	129.96
4166	-8.75	1.	0.	128.26
4167	-8.5	4.25	0.	127.04
4168	-8.75	4.	0.	128.35
4169	-8.5	3.75	0.	130.02
4170	-8.5	4.75	0.	125.57
4171	-8.75	4.5	0.	126.65
4172	-8.5	5.25	0.	124.92
4173	-8.75	5.	0.	125.74
4174	-8.5	5.75	0.	124.7
4175	-8.75	5.5	0.	125.29
4176	-8.5	6.25	0.	124.67
4177	-8.75	6.	0.	125.1
4178	-8.5	6.75	0.	124.72
4179	-8.75	6.5	0.	125.03
4180	-8.5	7.25	0.	124.79
4181	-8.75	7.	0.	125.01
4182	-8.5	7.75	0.	124.86
4183	-8.75	7.5	0.	125.
4184	-8.5	8.25	0.	124.9
4185	-8.75	8.	0.	125.
4186	-8.75	8.5	0.	124.99
4187	-8.5	8.75	0.	124.92
4188	7.75	-8.5	0.	126.05
4189	8.25	-8.5	0.	126.32
4190	8.	-8.75	0.	126.09
4191	7.25	-8.5	0.	125.53
4192	7.5	-8.75	0.	125.67
4193	6.75	-8.5	0.	124.66
4194	7.	-8.75	0.	124.98
4195	6.25	-8.5	0.	123.49
4196	6.5	-8.75	0.	124.
4197	5.75	-8.5	0.	122.32
4198	6.	-8.75	0.	122.89
4199	5.25	-8.5	0.	121.57
4200	5.5	-8.75	0.	121.98
4201	4.75	-8.5	0.	121.59
4202	5.	-8.75	0.	121.64
4203	4.25	-8.5	0.	122.37
4204	4.5	-8.75	0.	122.02
4205	3.75	-8.5	0.	123.57
4206	4.	-8.25	0.	122.9
4207	4.	-8.75	0.	122.96
4208	3.25	-8.5	0.	124.75
4209	3.5	-8.75	0.	124.1
4210	2.75	-8.5	0.	125.61
4211	3.	-8.75	0.	125.09
4212	3.	-8.25	0.	125.6
4213	2.25	-8.5	0.	126.1
4214	2.5	-8.75	0.	125.76
4215	1.75	-8.5	0.	126.32
4216	2.	-8.75	0.	126.14
4217	1.25	-8.5	0.	126.36
4218	1.5	-8.75	0.	126.3
4219	0.75	-8.5	0.	126.31
4220	1.	-8.75	0.	126.33
4221	0.25	-8.5	0.	126.23
4222	0.5	-8.75	0.	126.28
4223	-0.25	-8.5	0.	126.13
4224	1.3295e-012	-8.75	0.	126.2
4225	-0.75	-8.5	0.	126.02
4226	-0.5	-8.75	0.	126.1
4227	-1.25	-8.5	0.	125.91
4228	-1.	-8.75	0.	125.99
4229	-1.75	-8.5	0.	125.8
4230	-1.5	-8.75	0.	125.88
4231	-2.25	-8.5	0.	125.69
4232	-2.	-8.75	0.	125.77
4233	-2.75	-8.5	0.	125.59
4234	-2.5	-8.75	0.	125.66
4235	-3.25	-8.5	0.	125.49
4236	-3.	-8.75	0.	125.56
4237	-3.75	-8.5	0.	125.39
4238	-3.5	-8.75	0.	125.45
4239	-4.25	-8.5	0.	125.3
4240	-4.	-8.75	0.	125.36
4241	-4.5	-8.75	0.	125.26
4242	-4.75	-8.5	0.	125.21
4243	-5.75	-8.5	0.	125.04
4244	-5.5	-8.75	0.	125.09
4245	-5.25	-8.5	0.	125.12
4246	-6.25	-8.5	0.	124.96
4247	-6.	-8.75	0.	125.01
4248	-6.75	-8.5	0.	124.89
4249	-6.5	-8.75	0.	124.93
4250	-7.25	-8.5	0.	124.82
4251	-7.	-8.75	0.	124.86
4252	-7.75	-8.5	0.	124.75
4253	-7.5	-8.75	0.	124.79
4254	-8.25	-8.5	0.	124.69
4255	-8.	-8.75	0.	124.72
4256	-8.5	-8.75	0.	124.66
4257	-8.75	-8.5	0.	124.62
4258	8.5	2.75	0.	120.78
4259	8.75	3.	0.	122.42
4260	8.5	3.25	0.	119.07
4261	8.5	2.25	0.	121.97
4262	8.75	2.5	0.	122.9
4263	8.5	1.75	0.	122.96
4264	8.75	2.	0.	123.54
4265	8.5	1.25	0.	123.71
4266	8.75	1.5	0.	124.11
4267	8.5	0.75	0.	124.25
4268	8.75	1.	0.	124.53
4269	8.5	0.25	0.	124.62
4270	8.75	0.5	0.	124.82
4271	8.5	-0.25	0.	124.9
4272	8.75	1.2013e-013	0.	125.04
4273	8.5	-0.75	0.	125.13
4274	8.75	-0.5	0.	125.22
4275	8.5	-1.25	0.	125.35
4276	8.75	-1.	0.	125.39
4277	8.5	-1.75	0.	125.57
4278	8.75	-1.5	0.	125.56
4279	8.5	-2.25	0.	125.81
4280	8.75	-2.	0.	125.74
4281	8.5	-2.75	0.	126.05
4282	8.75	-2.5	0.	125.92
4283	8.5	-3.25	0.	126.22
4284	8.75	-3.	0.	126.07
4285	8.5	-3.75	0.	126.25
4286	8.75	-3.5	0.	126.12
4287	8.5	-4.25	0.	126.08
4288	8.75	-4.	0.	126.03
4289	8.5	-4.75	0.	125.79
4290	8.75	-4.5	0.	125.8
4291	8.5	-5.25	0.	125.57
4292	8.75	-5.	0.	125.55
4293	8.5	-5.75	0.	125.61
4294	8.75	-5.5	0.	125.46
4295	8.5	-6.25	0.	125.91
4296	8.75	-6.	0.	125.64
4297	8.5	-6.75	0.	126.27
4298	8.75	-6.5	0.	125.98
4299	8.5	-7.25	0.	126.51
4300	8.75	-7.	0.	126.3
4301	8.5	-7.75	0.	126.56
4302	8.75	-7.5	0.	126.48
4303	8.5	-8.25	0.	126.47
4304	8.75	-8.	0.	126.52
4305	8.5	-8.75	0.	126.34
4306	8.75	-8.5	0.	126.47
4307	8.75	-9.	0.	126.4
4308	8.5	-9.25	0.	126.23
4309	8.25	-9.	0.	126.11
4310	7.25	-9.	0.	125.13
4311	7.5	-9.25	0.	125.36
4312	7.75	-9.	0.	125.72
4313	6.75	-9.	0.	124.33
4314	7.	-9.25	0.	124.67
4315	6.25	-9.	0.	123.4
4316	6.5	-9.25	0.	123.82
4317	5.75	-9.	0.	122.55
4318	6.	-9.25	0.	122.95
4319	5.5	-9.25	0.	122.29
4320	5.25	-9.	0.	122.04
4321	2.75	-9.	0.	125.24
4322	3.	-9.25	0.	124.79
4323	3.25	-9.	0.	124.44
4324	2.25	-9.	0.	125.79
4325	2.5	-9.25	0.	125.47
4326	1.75	-9.	0.	126.12
4327	2.	-9.25	0.	125.93
4328	1.25	-9.	0.	126.27
4329	1.5	-9.25	0.	126.18
4330	0.75	-9.	0.	126.3
4331	1.	-9.25	0.	126.29
4332	0.25	-9.	0.	126.26
4333	0.5	-9.25	0.	126.29
4334	-0.25	-9.	0.	126.18
4335	8.2617e-013	-9.25	0.	126.23
4336	-0.75	-9.	0.	126.07
4337	-0.5	-9.25	0.	126.14
4338	-1.25	-9.	0.	125.96
4339	-1.	-9.25	0.	126.04
4340	-1.75	-9.	0.	125.85
4341	-1.5	-9.25	0.	125.92
4342	-2.25	-9.	0.	125.74
4343	-2.	-9.25	0.	125.81
4344	-2.75	-9.	0.	125.63
4345	-2.5	-9.25	0.	125.69
4346	-3.25	-9.	0.	125.52
4347	-3.	-9.25	0.	125.58
4348	-3.75	-9.	0.	125.42
4349	-3.5	-9.25	0.	125.48
4350	-4.25	-9.	0.	125.32
4351	-4.	-9.25	0.	125.38
4352	-4.75	-9.	0.	125.23
4353	-4.5	-9.25	0.	125.28
4354	-5.25	-9.	0.	125.14
4355	-5.	-9.25	0.	125.19
4356	-5.	-8.75	0.	125.17
4357	-5.75	-9.	0.	125.05
4358	-5.5	-9.25	0.	125.1
4359	-6.25	-9.	0.	124.98
4360	-6.	-9.25	0.	125.02
4361	-6.75	-9.	0.	124.9
4362	-6.5	-9.25	0.	124.94
4363	-7.25	-9.	0.	124.83
4364	-7.	-9.25	0.	124.87
4365	-7.75	-9.	0.	124.76
4366	-7.5	-9.25	0.	124.8
4367	-8.25	-9.	0.	124.69
4368	-8.	-9.25	0.	124.73
4369	-8.75	-9.	0.	124.63
4370	-8.5	-9.25	0.	124.66
4371	-9.	-8.25	0.	124.59
4372	-9.	-8.75	0.	124.59
4373	-9.25	-8.5	0.	124.56
4374	-9.	-7.75	0.	124.59
4375	-9.25	-8.	0.	124.56
4376	-9.	-7.25	0.	124.59
4377	-9.25	-7.5	0.	124.56
4378	-9.	-6.75	0.	124.59
4379	-9.25	-7.	0.	124.56
4380	-9.	-6.25	0.	124.6
4381	-9.25	-6.5	0.	124.56
4382	-8.75	-6.5	0.	124.62
4383	-9.	-5.75	0.	124.6
4384	-9.25	-6.	0.	124.57
4385	-9.	-5.25	0.	124.62
4386	-9.25	-5.5	0.	124.59
4387	-9.	-4.75	0.	124.64
4388	-9.25	-5.	0.	124.61
4389	-9.	-4.25	0.	124.66
4390	-9.25	-4.5	0.	124.65
4391	-9.25	-4.	0.	124.7
4392	-9.	-3.75	0.	124.7
4393	-9.	-2.25	0.	124.91
4394	-9.25	-2.5	0.	125.
4395	-9.	-2.75	0.	124.82
4396	-9.	-1.75	0.	125.03
4397	-9.25	-2.	0.	125.17
4398	-9.	-1.25	0.	125.2
4399	-9.25	-1.5	0.	125.39
4400	-9.	-0.75	0.	125.46
4401	-9.25	-1.	0.	125.69
4402	-9.	-0.25	0.	125.91
4403	-9.25	-0.5	0.	126.08
4404	-9.	0.25	0.	126.67
4405	-9.25	-2.2008e-012	0.	126.61
4406	-9.25	0.5	0.	127.33
4407	-9.	0.75	0.	127.85
4408	-9.	2.75	0.	127.38
4409	-8.75	2.5	0.	128.37
4410	-9.25	2.5	0.	126.33
4411	-9.	2.25	0.	127.36
4412	-9.	3.25	0.	128.79
4413	-8.75	3.	0.	129.55
4414	-9.25	3.	0.	127.4
4415	-9.	3.75	0.	129.01
4416	-8.75	3.5	0.	130.67
4417	-9.25	3.5	0.	128.46
4418	-9.	4.25	0.	127.97
4419	-9.25	4.	0.	128.27
4420	-9.	4.75	0.	126.83
4421	-9.25	4.5	0.	127.48
4422	-9.	5.25	0.	126.1
4423	-9.25	5.	0.	126.8
4424	-9.	5.75	0.	125.69
4425	-9.25	5.5	0.	126.3
4426	-9.	6.25	0.	125.45
4427	-9.25	6.	0.	125.94
4428	-9.	6.75	0.	125.31
4429	-9.25	6.5	0.	125.68
4430	-9.	7.25	0.	125.22
4431	-9.25	7.	0.	125.48
4432	-9.	7.75	0.	125.15
4433	-9.25	7.5	0.	125.33
4434	-9.	8.25	0.	125.09
4435	-9.25	8.	0.	125.21
4436	-9.	8.75	0.	125.04
4437	-9.25	8.5	0.	125.12
4438	-8.25	9.	0.	124.89
4439	-8.75	9.	0.	124.97
4440	-8.5	9.25	0.	124.93
4441	-7.75	9.	0.	124.82
4442	-8.	9.25	0.	124.86
4443	-7.25	9.	0.	124.78
4444	-7.5	9.25	0.	124.81
4445	-7.5	8.75	0.	124.73
4446	-6.75	9.	0.	124.77
4447	-7.	9.25	0.	124.8
4448	-6.25	9.	0.	124.81
4449	-6.5	9.25	0.	124.81
4450	-5.75	9.	0.	124.88
4451	-6.	9.25	0.	124.86
4452	-5.25	9.	0.	124.97
4453	-5.5	9.25	0.	124.94
4454	-4.75	9.	0.	125.07
4455	-5.	9.25	0.	125.03
4456	-4.25	9.	0.	125.17
4457	-4.5	9.25	0.	125.13
4458	-3.75	9.	0.	125.26
4459	-4.	9.25	0.	125.23
4460	-3.25	9.	0.	125.34
4461	-3.5	9.25	0.	125.32
4462	-2.75	9.	0.	125.41
4463	-3.	9.25	0.	125.4
4464	-2.25	9.	0.	125.46
4465	-2.5	9.25	0.	125.47
4466	-2.5	8.75	0.	125.42
4467	-1.75	9.	0.	125.51
4468	-2.	9.25	0.	125.54
4469	-1.25	9.	0.	125.56
4470	-1.5	9.25	0.	125.59
4471	-0.75	9.	0.	125.6
4472	-1.	9.25	0.	125.64
4473	-0.25	9.	0.	125.64
4474	-0.5	9.25	0.	125.69
4475	0.25	9.	0.	125.69
4476	-1.2542e-011	9.25	0.	125.73
4477	0.75	9.	0.	125.73
4478	0.5	9.25	0.	125.77
4479	1.25	9.	0.	125.77
4480	1.	9.25	0.	125.8
4481	1.75	9.	0.	125.79
4482	1.5	9.25	0.	125.8
4483	2.25	9.	0.	125.74
4484	2.	9.25	0.	125.76
4485	2.75	9.	0.	125.6
4486	2.5	9.25	0.	125.66
4487	3.25	9.	0.	125.35
4488	3.	9.25	0.	125.47
4489	3.	8.75	0.	125.57
4490	3.75	9.	0.	125.06
4491	3.5	9.25	0.	125.22
4492	4.25	9.	0.	124.84
4493	4.	9.25	0.	124.98
4494	4.75	9.	0.	124.79
4495	4.5	9.25	0.	124.84
4496	5.25	9.	0.	124.88
4497	5.	9.25	0.	124.83
4498	5.75	9.	0.	125.
4499	5.5	9.25	0.	124.91
4500	6.25	9.	0.	125.04
4501	6.	9.25	0.	124.97
4502	6.	8.75	0.	125.19
4503	6.75	9.	0.	124.95
4504	6.5	9.25	0.	124.94
4505	7.25	9.	0.	124.81
4506	7.	9.25	0.	124.85
4507	7.75	9.	0.	124.7
4508	7.5	9.25	0.	124.76
4509	8.25	9.	0.	124.71
4510	8.	9.25	0.	124.73
4511	8.	8.75	0.	124.55
4512	8.75	9.	0.	124.85
4513	8.5	9.25	0.	124.8
4514	9.	8.25	0.	124.87
4515	9.	8.75	0.	124.94
4516	9.25	8.5	0.	125.12
4517	9.	7.75	0.	124.71
4518	9.25	8.	0.	125.2
4519	9.	7.25	0.	124.46
4520	9.25	7.5	0.	125.29
4521	9.	6.75	0.	124.21
4522	9.25	7.	0.	125.43
4523	9.	6.25	0.	124.27
4524	9.25	6.5	0.	125.74
4525	9.	-8.25	0.	126.52
4526	9.	-8.75	0.	126.53
4527	9.25	-8.5	0.	126.62
4528	9.	-7.75	0.	126.44
4529	9.25	-8.	0.	126.51
4530	9.	-7.25	0.	126.27
4531	9.25	-7.5	0.	126.33
4532	9.	-6.75	0.	126.01
4533	9.25	-7.	0.	126.05
4534	9.	-6.25	0.	125.72
4535	9.25	-6.5	0.	125.73
4536	9.	-5.75	0.	125.5
4537	9.25	-6.	0.	125.45
4538	9.	-5.25	0.	125.44
4539	9.25	-5.5	0.	125.3
4540	9.	-4.75	0.	125.56
4541	9.25	-5.	0.	125.33
4542	9.	-4.25	0.	125.75
4543	9.25	-4.5	0.	125.5
4544	9.	-3.75	0.	125.91
4545	9.25	-4.	0.	125.7
4546	9.	-3.25	0.	125.97
4547	9.25	-3.5	0.	125.85
4548	9.	-2.75	0.	125.94
4549	9.25	-3.	0.	125.92
4550	9.	-2.25	0.	125.85
4551	9.25	-2.5	0.	125.92
4552	9.	-1.75	0.	125.73
4553	9.25	-2.	0.	125.85
4554	9.	-1.25	0.	125.6
4555	9.25	-1.5	0.	125.77
4556	9.	-0.75	0.	125.48
4557	9.25	-1.	0.	125.68
4558	9.	-0.25	0.	125.36
4559	9.25	-0.5	0.	125.6
4560	9.	0.25	0.	125.25
4561	9.25	1.4962e-013	0.	125.55
4562	9.25	0.5	0.	125.54
4563	9.	0.75	0.	125.11
4564	9.	1.75	0.	124.69
4565	9.25	1.5	0.	125.65
4566	9.	1.25	0.	124.93
4567	9.	2.25	0.	124.47
4568	9.25	2.	0.	125.81
4569	9.	2.75	0.	124.54
4570	9.25	2.5	0.	126.12
4571	-8.5	1.75	0.	131.33
4572	-8.25	1.5	0.	128.77
4573	-8.75	1.5	0.	130.6
4574	-8.5	3.25	0.	131.38
4575	-8.25	3.5	0.	128.79
4576	-5.75	3.5	0.	128.42
4577	-5.5	3.25	0.	130.68
4578	-5.5	3.75	0.	129.65
4579	-5.5	1.75	0.	130.73
4580	-5.75	1.5	0.	128.42
4581	-5.25	1.5	0.	130.16
4582	9.	3.25	0.	125.63
4583	9.25	3.	0.	126.99
4584	6.5	5.25	0.	131.7
4585	6.75	5.5	0.	129.08
4586	6.25	5.5	0.	130.81
4587	9.	5.75	0.	125.41
4588	9.25	6.	0.	126.63
4589	3.5	4.75	0.	129.14
4590	3.75	4.5	0.	125.84
4591	3.5	4.25	0.	127.71
4592	3.5	6.25	0.	129.79
4593	3.75	6.5	0.	126.8
4594	5.25	6.5	0.	128.11
4595	5.5	6.25	0.	131.76
4596	5.5	6.75	0.	129.98
4597	5.5	4.75	0.	130.15
4598	5.25	4.5	0.	126.3
4599	3.5	-6.25	0.	130.37
4600	3.75	-6.5	0.	128.02
4601	3.5	-4.75	0.	130.49
4602	3.75	-4.5	0.	128.15
4603	6.25	-4.5	0.	128.19
4604	6.5	-4.75	0.	130.5
4605	6.5	-6.25	0.	130.47
4606	6.25	-6.5	0.	128.03
4607	6.75	-6.5	0.	129.94
4608	9.	-9.25	0.	126.53
4609	9.25	-9.	0.	126.68
4610	-9.	-9.25	0.	124.59
4611	-9.25	-9.	0.	124.56
4612	-9.25	9.	0.	125.05
4613	-9.	9.25	0.	125.
4614	9.	9.25	0.	124.94
4615	9.25	9.	0.	125.05
4616	-8.5	2.25	0.	130.47
4617	-8.75	2.	0.	129.5
4618	-8.5	2.75	0.	130.5
4619	-7.75	3.5	0.	121.31
4620	-7.25	3.5	0.	117.21
4621	-6.75	3.5	0.	117.13
4622	-6.25	3.5	0.	121.13
4623	-5.5	2.75	0.	129.72
4624	-5.25	3.	0.	128.7
4625	-5.5	2.25	0.	129.75
4626	-7.75	1.5	0.	121.3
4627	-7.25	1.5	0.	117.19
4628	-6.75	1.5	0.	117.12
4629	-6.25	1.5	0.	121.11
4630	8.75	3.5	0.	122.27
4631	9.25	3.5	0.	129.69
4632	8.25	3.5	0.	118.32
4633	7.75	3.5	0.	118.3
4634	7.25	3.5	0.	122.41
4635	6.75	3.5	0.	129.79
4636	6.5	4.25	0.	131.61
4637	6.5	3.75	0.	132.31
4638	6.25	4.	0.	130.73
4639	6.5	4.75	0.	131.36
4640	7.25	5.5	0.	121.77
4641	7.75	5.5	0.	117.88
4642	8.25	5.5	0.	118.
4643	8.75	5.5	0.	122.05
4644	9.25	5.5	0.	129.42
4645	3.5	5.25	0.	128.93
4646	3.5	5.75	0.	129.16
4647	4.25	6.5	0.	118.25
4648	4.75	6.5	0.	118.7
4649	4.5	6.75	0.	116.68
4650	5.5	5.75	0.	131.3
4651	5.5	5.25	0.	130.68
4652	5.75	5.5	0.	130.31
4653	4.25	4.5	0.	117.09
4654	4.75	4.5	0.	117.21
4655	3.5	-5.75	0.	129.42
4656	3.5	-5.25	0.	129.47
4657	4.25	-4.5	0.	120.76
4658	4.75	-4.5	0.	116.71
4659	4.5	-4.25	0.	117.78
4660	5.25	-4.5	0.	116.71
4661	5.75	-4.5	0.	120.79
4662	6.5	-5.25	0.	129.5
4663	6.5	-5.75	0.	129.52
4664	5.75	-6.5	0.	120.61
4665	5.25	-6.5	0.	116.57
4666	4.25	-6.5	0.	120.63
4667	4.	-6.75	0.	124.26
4668	4.75	-6.5	0.	116.56
4669	4.5	-6.75	0.	117.6
4670	5.	-6.75	0.	117.02
4671	8.75	-9.5	0.	126.35
4672	9.25	-9.5	0.	126.7
4673	8.25	-9.5	0.	125.98
4674	7.75	-9.5	0.	125.52
4675	8.	-9.25	0.	125.87
4676	7.25	-9.5	0.	124.91
4677	6.75	-9.5	0.	124.16
4678	6.25	-9.5	0.	123.37
4679	5.75	-9.5	0.	122.69
4680	5.25	-9.5	0.	122.3
4681	4.75	-9.5	0.	122.32
4682	5.	-9.25	0.	122.05
4683	4.25	-9.5	0.	122.75
4684	4.5	-9.25	0.	122.33
4685	3.75	-9.5	0.	123.47
4686	4.	-9.25	0.	123.03
4687	3.25	-9.5	0.	124.29
4688	3.5	-9.25	0.	123.93
4689	2.75	-9.5	0.	125.03
4690	2.25	-9.5	0.	125.61
4691	1.75	-9.5	0.	125.99
4692	1.25	-9.5	0.	126.2
4693	0.75	-9.5	0.	126.28
4694	0.25	-9.5	0.	126.27
4695	-0.25	-9.5	0.	126.2
4696	-0.75	-9.5	0.	126.11
4697	-1.25	-9.5	0.	126.
4698	-1.75	-9.5	0.	125.88
4699	-2.25	-9.5	0.	125.76
4700	-2.75	-9.5	0.	125.65
4701	-3.25	-9.5	0.	125.54
4702	-3.75	-9.5	0.	125.43
4703	-4.75	-9.5	0.	125.24
4704	-4.25	-9.5	0.	125.33
4705	-5.25	-9.5	0.	125.15
4706	-5.75	-9.5	0.	125.06
4707	-6.25	-9.5	0.	124.98
4708	-6.75	-9.5	0.	124.91
4709	-7.25	-9.5	0.	124.84
4710	-7.75	-9.5	0.	124.76
4711	-8.25	-9.5	0.	124.7
4712	-8.75	-9.5	0.	124.63
4713	-9.25	-9.5	0.	124.56
4714	-9.5	-9.25	0.	124.53
4715	-9.5	-8.75	0.	124.53
4716	-9.5	-8.25	0.	124.53
4717	-9.5	-7.75	0.	124.52
4718	-9.5	-7.25	0.	124.53
4719	-9.5	-6.75	0.	124.53
4720	-9.5	-6.25	0.	124.54
4721	-9.5	-5.75	0.	124.56
4722	-9.5	-5.25	0.	124.58
4723	-9.5	-4.75	0.	124.62
4724	-9.5	-4.25	0.	124.68
4725	-9.5	-3.75	0.	124.77
4726	-9.5	-3.25	0.	124.88
4727	-9.25	-3.5	0.	124.77
4728	-9.5	-2.75	0.	125.04
4729	-9.25	-3.	0.	124.87
4730	-9.5	-2.25	0.	125.25
4731	-9.5	-1.75	0.	125.53
4732	-9.5	-1.25	0.	125.88
4733	-9.5	-0.75	0.	126.3
4734	-9.5	-0.25	0.	126.78
4735	-9.5	0.25	0.	127.27
4736	-9.5	0.75	0.	127.63
4737	-9.5	1.25	0.	127.6
4738	-9.25	1.	0.	128.15
4739	-9.5	1.75	0.	127.
4740	-9.25	1.5	0.	128.37
4741	-9.5	2.25	0.	126.32
4742	-9.25	2.	0.	127.36
4743	-9.5	2.75	0.	126.35
4744	-9.5	3.25	0.	127.07
4745	-9.5	3.75	0.	127.71
4746	-9.5	4.25	0.	127.78
4747	-9.5	4.75	0.	127.46
4748	-9.5	5.25	0.	127.
4749	-9.5	5.75	0.	126.56
4750	-9.5	6.25	0.	126.16
4751	-9.5	6.75	0.	125.84
4752	-9.5	7.25	0.	125.59
4753	-9.5	7.75	0.	125.39
4754	-9.5	8.25	0.	125.24
4755	-9.5	8.75	0.	125.13
4756	-9.5	9.25	0.	125.05
4757	-9.25	9.5	0.	124.99
4758	-8.75	9.5	0.	124.95
4759	-8.25	9.5	0.	124.9
4760	-7.75	9.5	0.	124.85
4761	-7.25	9.5	0.	124.83
4762	-6.75	9.5	0.	124.83
4763	-6.25	9.5	0.	124.86
4764	-5.75	9.5	0.	124.92
4765	-5.25	9.5	0.	125.
4766	-4.75	9.5	0.	125.09
4767	-4.25	9.5	0.	125.19
4768	-3.75	9.5	0.	125.29
4769	-3.25	9.5	0.	125.38
4770	-2.75	9.5	0.	125.47
4771	-2.25	9.5	0.	125.55
4772	-1.75	9.5	0.	125.62
4773	-1.25	9.5	0.	125.68
4774	-0.75	9.5	0.	125.73
4775	-0.25	9.5	0.	125.78
4776	0.25	9.5	0.	125.81
4777	0.75	9.5	0.	125.83
4778	1.25	9.5	0.	125.82
4779	1.75	9.5	0.	125.78
4780	2.25	9.5	0.	125.68
4781	2.75	9.5	0.	125.53
4782	3.25	9.5	0.	125.34
4783	3.75	9.5	0.	125.14
4784	4.25	9.5	0.	124.97
4785	4.75	9.5	0.	124.88
4786	5.25	9.5	0.	124.86
4787	5.75	9.5	0.	124.88
4788	6.25	9.5	0.	124.87
4789	6.75	9.5	0.	124.84
4790	7.25	9.5	0.	124.8
4791	7.75	9.5	0.	124.78
4792	8.25	9.5	0.	124.81
4793	8.75	9.5	0.	124.89
4794	9.25	9.5	0.	124.98
4795	9.5	9.25	0.	125.09
4796	9.5	8.75	0.	125.24
4797	9.5	8.25	0.	125.46
4798	9.5	7.75	0.	125.78
4799	9.5	7.25	0.	126.26
4800	9.5	6.75	0.	126.96
4801	9.5	6.25	0.	128.11
4802	9.5	5.75	0.	130.68
4803	9.5	5.25	0.	132.53
4804	9.5	4.75	0.	132.55
4805	9.5	4.25	0.	132.7
4806	9.5	3.75	0.	132.84
4807	9.5	3.25	0.	131.08
4808	9.5	2.75	0.	128.58
4809	9.5	2.25	0.	127.46
4810	9.5	1.75	0.	126.77
4811	9.5	1.25	0.	126.3
4812	9.5	0.75	0.	126.01
4813	9.25	1.	0.	125.57
4814	9.5	0.25	0.	125.85
4815	9.5	-0.25	0.	125.79
4816	9.5	-0.75	0.	125.8
4817	9.5	-1.25	0.	125.84
4818	9.5	-1.75	0.	125.89
4819	9.5	-2.25	0.	125.92
4820	9.5	-2.75	0.	125.89
4821	9.5	-3.25	0.	125.8
4822	9.5	-3.75	0.	125.65
4823	9.5	-4.25	0.	125.44
4824	9.5	-4.75	0.	125.26
4825	9.5	-5.25	0.	125.18
4826	9.5	-5.75	0.	125.24
4827	9.5	-6.25	0.	125.46
4828	9.5	-6.75	0.	125.77
4829	9.5	-7.25	0.	126.11
4830	9.5	-7.75	0.	126.4
4831	9.5	-8.25	0.	126.62
4832	9.5	-8.75	0.	126.77
4833	9.5	-9.25	0.	126.86
4834	-2.25	7.	0.	125.38
4835	-0.25	5.	0.	124.97
4836	-0.75	5.	0.	125.04
4837	-1.5009e-012	-6.75	0.	125.75
4838	0.5	4.75	0.	124.96
4839	-6.75	-4.	0.	124.48
4840	-6.75	-3.	0.	124.18
4841	-5.25	-3.	0.	124.71
4842	-9.	-3.25	0.	124.75
4843	4.	-0.25	0.	124.26
4844	5.75	-0.5	0.	123.75
4845	-3.75	1.5	0.	126.15
4846	-3.25	1.5	0.	125.81
4847	-4.75	3.	0.	126.72
4848	-4.25	3.	0.	125.85
4849	-3.	-4.25	0.	125.41
4850	5.75	-3.	0.	122.36
4851	-2.	-3.75	0.	125.66
4852	-2.	-4.25	0.	125.57
4853	-1.75	-4.	0.	125.64
4854	4.	-0.75	0.	124.1
4855	4.	-2.25	0.	123.53
4856	4.	-1.75	0.	123.73
4857	-2.25	1.5	0.	125.54
4858	-2.75	1.5	0.	125.63
4859	-0.75	3.	0.	125.18
4860	3.5	3.75	0.	125.29
4861	0.25	5.	0.	124.93
4862	-1.	5.25	0.	125.09
4863	-3.75	-3.	0.	125.38
4864	-3.25	-3.	0.	125.54
4865	-1.25	3.	0.	125.16
4866	-1.75	3.	0.	125.16
4867	7.25	-1.5	0.	124.68
4868	-8.75	-3.5	0.	124.66
4869	-4.25	1.5	0.	126.8
4870	7.5	1.25	0.	123.08
4871	-6.75	-2.	0.	123.68
4872	-7.25	-2.	0.	123.68
4873	-3.	-4.75	0.	125.37
4874	-3.	-5.25	0.	125.35
4875	-2.	-3.25	0.	125.75
4876	-9.	1.25	0.	128.92
4877	5.	0.75	0.	124.36
4878	5.25	0.5	0.	124.21
4879	5.5	7.25	0.	126.95
4880	4.75	-9.	0.	122.06
4881	4.75	-7.	0.	118.04
4882	4.25	-7.	0.	121.22
4883	-2.75	-4.5	0.	125.43
4884	2.25	6.5	0.	126.33
4885	3.25	-1.	0.	124.69
4886	-6.	6.75	0.	124.06
4887	0.75	5.	0.	124.93
4888	-2.	6.75	0.	125.36
4889	-2.	6.25	0.	125.37
4890	-1.25	6.	0.	125.19
4891	-1.75	6.	0.	125.31
4892	-6.25	-6.	0.	124.82
4893	1.75	6.5	0.	125.73
4894	5.75	0.5	0.	124.13
4895	7.25	-6.5	0.	127.97
4896	-4.75	1.5	0.	128.04
4897	-2.	-4.75	0.	125.51
4898	-2.25	-4.5	0.	125.5
4899	-2.	-5.25	0.	125.47
4900	-1.	6.25	0.	125.16
4901	-1.	5.75	0.	125.12
4902	-2.	5.75	0.	125.38
4903	-2.	5.25	0.	125.37
4904	3.75	-1.	0.	124.24
4905	4.	-1.25	0.	123.93
4906	5.25	-3.	0.	121.22
4907	-5.5	4.25	0.	126.91
4908	-8.5448e-011	6.75	0.	125.19
4909	-1.	6.75	0.	125.22
4910	5.25	-0.5	0.	123.74
4911	-9.9608e-011	6.25	0.	125.07
4912	3.75	-9.	0.	123.49
4913	4.25	-9.	0.	122.61
4914	-3.	-5.75	0.	125.34
4915	-3.75	3.	0.	125.51
4916	-9.	1.75	0.	128.73
4917	-3.25	3.	0.	125.34
4918	6.	-5.	0.	98.315
4919	4.	-5.	0.	98.335
4920	6.	-6.	0.	98.344
4921	4.	-6.	0.	98.249
4922	5.5	-5.	0.	114.74
4923	5.	-5.	0.	113.33
4924	4.5	-5.	0.	114.72
4925	6.	-5.5	0.	103.2
4926	4.	-5.5	0.	103.17
4927	4.5	-6.	0.	114.66
4928	5.	-6.	0.	113.27
4929	5.5	-6.	0.	114.67
4930	4.5	-5.5	0.	113.36
4931	5.	-5.5	0.	116.45
4932	5.5	-5.5	0.	113.38
4933	5.75	-5.	0.	106.49
4934	6.	-5.25	0.	100.74
4935	4.25	-5.	0.	106.49
4936	4.	-5.25	0.	100.73
4937	6.	-5.75	0.	100.75
4938	5.75	-6.	0.	106.47
4939	4.	-5.75	0.	100.69
4940	4.25	-6.	0.	106.41
4941	5.25	-5.	0.	114.03
4942	5.5	-5.25	0.	114.04
4943	4.75	-5.	0.	114.02
4944	5.	-5.25	0.	114.89
4945	4.5	-5.25	0.	114.02
4946	5.75	-5.5	0.	108.28
4947	4.25	-5.5	0.	108.25
4948	4.75	-6.	0.	113.96
4949	4.5	-5.75	0.	113.99
4950	5.25	-6.	0.	113.97
4951	5.	-5.75	0.	114.86
4952	5.5	-5.75	0.	114.01
4953	4.75	-5.5	0.	114.9
4954	5.25	-5.5	0.	114.91
4955	5.	6.	0.	98.598
4956	4.	6.	0.	97.896
4957	5.	5.	0.	97.891
4958	4.	5.	0.	97.381
4959	4.5	6.	0.	113.74
4960	5.	5.5	0.	103.45
4961	4.	5.5	0.	102.77
4962	4.5	5.	0.	113.04
4963	4.5	5.5	0.	110.67
4964	4.75	6.	0.	106.15
4965	5.	5.75	0.	101.01
4966	4.25	6.	0.	105.8
4967	4.	5.75	0.	100.32
4968	5.	5.25	0.	100.66
4969	4.75	5.	0.	105.45
4970	4.	5.25	0.	100.07
4971	4.25	5.	0.	105.19
4972	4.5	5.75	0.	112.17
4973	4.75	5.5	0.	107.04
4974	4.25	5.5	0.	106.7
4975	4.5	5.25	0.	111.8
4976	9.	5.	0.	100.59
4977	7.	5.	0.	99.482
4978	9.	4.	0.	100.79
4979	7.	4.	0.	99.728
4980	8.5	5.	0.	116.79
4981	8.	5.	0.	115.09
4982	7.5	5.	0.	116.19
4983	9.	4.5	0.	105.72
4984	7.	4.5	0.	104.71
4985	7.5	4.	0.	116.51
4986	8.	4.	0.	115.28
4987	8.5	4.	0.	116.92
4988	7.5	4.5	0.	115.1
4989	8.	4.5	0.	118.51
4990	8.5	4.5	0.	115.9
4991	8.75	5.	0.	108.65
4992	9.	4.75	0.	103.15
4993	7.25	5.	0.	107.8
4994	7.	4.75	0.	102.07
4995	9.	4.25	0.	103.25
4996	8.75	4.	0.	108.82
4997	7.	4.25	0.	102.2
4998	7.25	4.	0.	108.08
4999	8.25	5.	0.	115.94
5000	8.5	4.75	0.	116.32
5001	7.75	5.	0.	115.64
5002	8.	4.75	0.	116.79
5003	7.5	4.75	0.	115.62
5004	8.75	4.5	0.	110.81
5005	7.25	4.5	0.	109.89
5006	7.75	4.	0.	115.89
5007	7.5	4.25	0.	115.79
5008	8.25	4.	0.	116.1
5009	8.	4.25	0.	116.88
5010	8.5	4.25	0.	116.39
5011	7.75	4.5	0.	116.8
5012	8.25	4.5	0.	117.2
5013	-6.	3.	0.	98.571
5014	-8.	3.	0.	99.066
5015	-6.	2.	0.	98.612
5016	-8.	2.	0.	99.022
5017	-6.5	3.	0.	115.16
5018	-7.	3.	0.	113.88
5019	-7.5	3.	0.	115.37
5020	-6.	2.5	0.	103.52
5021	-8.	2.5	0.	103.94
5022	-7.5	2.	0.	115.36
5023	-7.	2.	0.	113.87
5024	-6.5	2.	0.	115.15
5025	-7.5	2.5	0.	114.12
5026	-7.	2.5	0.	117.06
5027	-6.5	2.5	0.	113.84
5028	-6.25	3.	0.	106.83
5029	-6.	2.75	0.	101.02
5030	-7.75	3.	0.	107.18
5031	-8.	2.75	0.	101.48
5032	-6.	2.25	0.	101.05
5033	-6.25	2.	0.	106.84
5034	-8.	2.25	0.	101.46
5035	-7.75	2.	0.	107.15
5036	-6.75	3.	0.	114.52
5037	-6.5	2.75	0.	114.48
5038	-7.25	3.	0.	114.62
5039	-7.	2.75	0.	115.46
5040	-7.5	2.75	0.	114.72
5041	-6.25	2.5	0.	108.67
5042	-7.75	2.5	0.	109.02
5043	-7.25	2.	0.	114.61
5044	-7.5	2.25	0.	114.72
5045	-6.75	2.	0.	114.51
5046	-7.	2.25	0.	115.46
5047	-6.5	2.25	0.	114.48
5048	-7.25	2.5	0.	115.59
5049	-6.75	2.5	0.	115.45
