Node Number	X Location (mm)	Y Location (mm)	Z Location (mm)	Equivalent (von-Mises) Stress (MPa)
1	-9.	3.	0.	137.17
2	-9.	2.	0.	137.96
3	-8.	3.	0.	135.2
4	-8.	2.	0.	134.55
5	-7.	4.	0.	134.69
6	-7.	2.	0.	131.91
7	-6.	4.	0.	138.27
8	-6.	2.	0.	133.29
9	-9.	-3.	0.	137.22
10	-9.	-4.	0.	137.69
11	-7.	-3.	0.	133.97
12	-7.	-4.	0.	135.49
13	2.	9.	0.	134.8
14	2.	8.	0.	130.79
15	3.	9.	0.	136.08
16	3.	8.	0.	136.63
17	2.	4.	0.	129.99
18	2.	3.	0.	131.99
19	3.	4.	0.	139.3
20	3.	3.	0.	139.48
21	-1.	-1.	0.	136.4
22	-1.	-3.	0.	135.61
23	1.	-1.	0.	135.66
24	1.	-3.	0.	133.38
25	4.	5.	0.	138.9
26	4.	3.	0.	140.33
27	6.	5.	0.	136.85
28	6.	3.	0.	133.76
29	7.	6.	0.	136.9
30	7.	5.	0.	137.66
31	8.	6.	0.	135.76
32	8.	5.	0.	135.42
33	1.	7.	0.	135.47
34	1.	5.	0.	134.02
35	2.	7.	0.	130.11
36	2.	5.	0.	129.56
37	6.	2.	0.	133.58
38	6.	1.	0.	130.07
39	7.	2.	0.	136.65
40	7.	1.	0.	134.83
41	-5.	7.	0.	134.95
42	-5.	5.	0.	139.96
43	-3.	7.	0.	137.02
44	-3.	5.	0.	137.01
45	7.	-6.	0.	137.4
46	7.	-7.	0.	139.05
47	9.	-6.	0.	138.49
48	9.	-7.	0.	138.55
49	-9.	9.	0.	136.85
50	-9.	8.	0.	134.72
51	-8.	9.	0.	137.09
52	-8.	8.	0.	134.64
53	0.	-6.	0.	127.49
54	0.	-8.	0.	129.99
55	1.	-6.	0.	128.92
56	1.	-8.	0.	129.91
57	-5.	-4.	0.	133.31
58	-5.	-6.	0.	133.2
59	-4.	-4.	0.	133.89
60	-4.	-6.	0.	133.27
61	5.	-7.	0.	132.12
62	5.	-9.	0.	131.15
63	6.	-7.	0.	132.81
64	6.	-9.	0.	129.8
65	-8.	1.	0.	131.44
66	-8.	-1.	0.	127.74
67	-7.	1.	0.	130.82
68	-7.	-1.	0.	128.1
69	10.	10.	0.	124.99
70	-10.	10.	0.	125.41
71	10.	-10.	0.	128.75
72	-10.	-10.	0.	125.69
73	-9.	2.5	0.	147.89
74	-8.5	3.	0.	112.77
75	-8.5	2.	0.	115.24
76	-8.	2.5	0.	142.83
77	-7.	3.5	0.	144.25
78	-7.	3.	0.	142.04
79	-7.	2.5	0.	137.51
80	-6.5	4.	0.	111.41
81	-6.5	2.	0.	109.76
82	-6.	3.5	0.	144.82
83	-6.	3.	0.	143.59
84	-6.	2.5	0.	142.59
85	-9.	-3.5	0.	147.6
86	-8.5	-3.	0.	118.15
87	-8.	-3.	0.	121.12
88	-7.5	-3.	0.	115.07
89	-8.5	-4.	0.	117.96
90	-8.	-4.	0.	122.3
91	-7.5	-4.	0.	116.81
92	-7.	-3.5	0.	143.88
93	2.	8.5	0.	141.2
94	2.5	9.	0.	113.79
95	2.5	8.	0.	114.01
96	3.	8.5	0.	144.89
97	2.	3.5	0.	139.49
98	2.5	4.	0.	112.67
99	2.5	3.	0.	112.65
100	3.	3.5	0.	147.86
101	-1.	-1.5	0.	145.04
102	-1.	-2.	0.	146.13
103	-1.	-2.5	0.	144.86
104	-0.5	-1.	0.	114.49
105	0.	-1.	0.	118.57
106	0.5	-1.	0.	113.92
107	-0.5	-3.	0.	113.29
108	0.	-3.	0.	116.84
109	0.5	-3.	0.	112.23
110	1.	-1.5	0.	143.65
111	1.	-2.	0.	144.43
112	1.	-2.5	0.	142.88
113	4.	4.5	0.	150.06
114	4.	4.	0.	150.22
115	4.	3.5	0.	146.71
116	4.5	5.	0.	115.95
117	5.	5.	0.	119.78
118	5.5	5.	0.	114.83
119	4.5	3.	0.	117.72
120	5.	3.	0.	122.69
121	5.5	3.	0.	117.27
122	6.	4.5	0.	147.27
123	6.	4.	0.	146.94
124	6.	3.5	0.	143.16
125	7.	5.5	0.	148.64
126	7.5	6.	0.	113.99
127	7.5	5.	0.	112.99
128	8.	5.5	0.	145.23
129	1.	6.5	0.	142.43
130	1.	6.	0.	142.3
131	1.	5.5	0.	141.93
132	1.5	7.	0.	109.95
133	1.5	5.	0.	108.41
134	2.	6.5	0.	139.06
135	2.	6.	0.	139.84
136	2.	5.5	0.	138.65
137	6.	1.5	0.	139.92
138	6.5	2.	0.	114.81
139	6.5	1.	0.	111.
140	7.	1.5	0.	144.51
141	-5.	6.5	0.	144.56
142	-5.	6.	0.	146.41
143	-5.	5.5	0.	146.47
144	-4.5	7.	0.	114.69
145	-4.	7.	0.	119.1
146	-3.5	7.	0.	114.58
147	-4.5	5.	0.	116.79
148	-4.	5.	0.	120.54
149	-3.5	5.	0.	115.41
150	-3.	6.5	0.	145.13
151	-3.	6.	0.	146.31
152	-3.	5.5	0.	145.27
153	7.	-6.5	0.	148.21
154	7.5	-6.	0.	119.6
155	8.	-6.	0.	124.95
156	8.5	-6.	0.	120.14
157	7.5	-7.	0.	119.42
158	8.	-7.	0.	124.73
159	8.5	-7.	0.	119.83
160	9.	-6.5	0.	148.68
161	-9.	8.5	0.	146.02
162	-8.5	9.	0.	115.26
163	-8.5	8.	0.	112.85
164	-8.	8.5	0.	144.97
165	0.	-6.5	0.	137.34
166	0.	-7.	0.	138.34
167	0.	-7.5	0.	138.43
168	0.5	-6.	0.	103.95
169	0.5	-8.	0.	105.4
170	1.	-6.5	0.	138.15
171	1.	-7.	0.	138.71
172	1.	-7.5	0.	138.53
173	-5.	-4.5	0.	142.64
174	-5.	-5.	0.	143.45
175	-5.	-5.5	0.	142.9
176	-4.5	-4.	0.	108.46
177	-4.5	-6.	0.	108.72
178	-4.	-4.5	0.	143.42
179	-4.	-5.	0.	143.68
180	-4.	-5.5	0.	142.91
181	5.	-7.5	0.	141.06
182	5.	-8.	0.	141.6
183	5.	-8.5	0.	141.
184	5.5	-7.	0.	106.63
185	5.5	-9.	0.	106.35
186	6.	-7.5	0.	144.37
187	6.	-8.	0.	143.89
188	6.	-8.5	0.	141.32
189	-8.	0.5	0.	138.13
190	-8.	0.	0.	138.21
191	-8.	-0.5	0.	137.17
192	-7.5	1.	0.	110.44
193	-7.5	-1.	0.	103.61
194	-7.	0.5	0.	137.05
195	-7.	0.	0.	137.58
196	-7.	-0.5	0.	137.32
197	9.5	10.	0.	124.97
198	9.	10.	0.	124.77
199	8.5	10.	0.	124.45
200	8.	10.	0.	124.12
201	7.5	10.	0.	123.86
202	7.	10.	0.	123.73
203	6.5	10.	0.	123.75
204	6.	10.	0.	123.95
205	5.5	10.	0.	124.33
206	5.	10.	0.	124.96
207	4.5	10.	0.	125.78
208	4.	10.	0.	126.66
209	3.5	10.	0.	125.49
210	3.	10.	0.	121.04
211	2.5	10.	0.	118.97
212	2.	10.	0.	120.88
213	1.5	10.	0.	125.52
214	1.	10.	0.	127.47
215	0.5	10.	0.	127.75
216	-5.2042e-015	10.	0.	128.1
217	-0.5	10.	0.	128.35
218	-1.	10.	0.	128.32
219	-1.5	10.	0.	127.88
220	-2.	10.	0.	126.96
221	-2.5	10.	0.	125.67
222	-3.	10.	0.	124.27
223	-3.5	10.	0.	123.12
224	-4.	10.	0.	122.55
225	-4.5	10.	0.	122.68
226	-5.	10.	0.	123.44
227	-5.5	10.	0.	124.6
228	-6.	10.	0.	125.93
229	-6.5	10.	0.	127.19
230	-7.	10.	0.	128.24
231	-7.5	10.	0.	126.99
232	-8.	10.	0.	122.18
233	-8.5	10.	0.	119.63
234	-9.	10.	0.	120.94
235	-9.5	10.	0.	124.3
236	10.	9.5	0.	125.03
237	10.	9.	0.	125.45
238	10.	8.5	0.	126.2
239	10.	8.	0.	127.05
240	10.	7.5	0.	127.71
241	10.	7.	0.	127.7
242	10.	6.5	0.	126.64
243	10.	6.	0.	124.93
244	10.	5.5	0.	123.81
245	10.	5.	0.	124.18
246	10.	4.5	0.	125.41
247	10.	4.	0.	126.43
248	10.	3.5	0.	126.78
249	10.	3.	0.	126.68
250	10.	2.5	0.	126.41
251	10.	2.	0.	126.19
252	10.	1.5	0.	126.24
253	10.	1.	0.	126.61
254	10.	0.5	0.	127.17
255	10.	-5.2042e-015	0.	127.66
256	10.	-0.5	0.	127.9
257	10.	-1.	0.	127.89
258	10.	-1.5	0.	127.75
259	10.	-2.	0.	127.63
260	10.	-2.5	0.	127.68
261	10.	-3.	0.	128.06
262	10.	-3.5	0.	128.9
263	10.	-4.	0.	130.36
264	10.	-4.5	0.	132.53
265	10.	-5.	0.	134.93
266	10.	-5.5	0.	134.53
267	10.	-6.	0.	129.03
268	10.	-6.5	0.	123.98
269	10.	-7.	0.	128.35
270	10.	-7.5	0.	133.45
271	10.	-8.	0.	133.8
272	10.	-8.5	0.	131.65
273	10.	-9.	0.	129.93
274	10.	-9.5	0.	129.02
275	-10.	9.5	0.	124.66
276	-10.	9.	0.	122.79
277	-10.	8.5	0.	120.87
278	-10.	8.	0.	125.76
279	-10.	7.5	0.	129.89
280	-10.	7.	0.	129.59
281	-10.	6.5	0.	127.51
282	-10.	6.	0.	126.37
283	-10.	5.5	0.	126.27
284	-10.	5.	0.	127.04
285	-10.	4.5	0.	128.71
286	-10.	4.	0.	131.19
287	-10.	3.5	0.	132.03
288	-10.	3.	0.	129.3
289	-10.	2.5	0.	127.14
290	-10.	2.	0.	132.5
291	-10.	1.5	0.	136.51
292	-10.	1.	0.	135.04
293	-10.	0.5	0.	131.64
294	-10.	-5.2042e-015	0.	129.88
295	-10.	-0.5	0.	130.15
296	-10.	-1.	0.	132.16
297	-10.	-1.5	0.	135.06
298	-10.	-2.	0.	137.67
299	-10.	-2.5	0.	136.89
300	-10.	-3.	0.	130.56
301	-10.	-3.5	0.	124.52
302	-10.	-4.	0.	127.97
303	-10.	-4.5	0.	132.49
304	-10.	-5.	0.	132.51
305	-10.	-5.5	0.	130.02
306	-10.	-6.	0.	127.94
307	-10.	-6.5	0.	126.66
308	-10.	-7.	0.	125.99
309	-10.	-7.5	0.	125.7
310	-10.	-8.	0.	125.62
311	-10.	-8.5	0.	125.63
312	-10.	-9.	0.	125.66
313	-10.	-9.5	0.	125.68
314	-9.5	-10.	0.	125.6
315	-9.	-10.	0.	125.52
316	-8.5	-10.	0.	125.46
317	-8.	-10.	0.	125.38
318	-7.5	-10.	0.	125.28
319	-7.	-10.	0.	125.14
320	-6.5	-10.	0.	124.94
321	-6.	-10.	0.	124.7
322	-5.5	-10.	0.	124.48
323	-5.	-10.	0.	124.38
324	-4.5	-10.	0.	124.52
325	-4.	-10.	0.	124.93
326	-3.5	-10.	0.	125.56
327	-3.	-10.	0.	126.27
328	-2.5	-10.	0.	126.88
329	-2.	-10.	0.	127.19
330	-1.5	-10.	0.	126.9
331	-1.	-10.	0.	125.63
332	-0.5	-10.	0.	123.23
333	5.2042e-015	-10.	0.	120.54
334	0.5	-10.	0.	119.47
335	1.	-10.	0.	121.08
336	1.5	-10.	0.	124.4
337	2.	-10.	0.	127.62
338	2.5	-10.	0.	129.96
339	3.	-10.	0.	131.59
340	3.5	-10.	0.	132.73
341	4.	-10.	0.	133.11
342	4.5	-10.	0.	129.56
343	5.	-10.	0.	118.9
344	5.5	-10.	0.	111.9
345	6.	-10.	0.	117.28
346	6.5	-10.	0.	126.27
347	7.	-10.	0.	128.26
348	7.5	-10.	0.	126.8
349	8.	-10.	0.	125.64
350	8.5	-10.	0.	125.57
351	9.	-10.	0.	126.53
352	9.5	-10.	0.	127.89
353	4.9996	-2.9988	0.	124.35
354	4.4996	-2.4987	0.	124.51
355	5.4995	-2.9987	0.	123.78
356	4.9997	-3.4991	0.	124.83
357	4.9995	-2.4985	0.	123.91
358	5.4995	-2.4986	0.	123.35
359	3.9997	-1.9991	0.	124.79
360	4.4996	-1.9988	0.	124.22
361	4.4998	-3.4992	0.	125.55
362	4.4997	-2.9989	0.	125.
363	5.4997	-3.4991	0.	124.26
364	4.4999	-3.9994	0.	125.99
365	-1.0001	2.5001	0.	126.85
366	3.9997	-1.4992	0.	124.81
367	5.9995	-2.9989	0.	123.3
368	-3.0003	1.5015	0.	127.38
369	-2.0002	2.0006	0.	127.17
370	3.9999	-3.9995	0.	126.98
371	3.9997	-2.4991	0.	125.11
372	-0.50004	2.	0.	125.39
373	4.	-4.4996	0.	127.36
374	-4.	-0.49967	0.	127.34
375	4.4997	-1.499	0.	124.21
376	-1.5001	2.5002	0.	127.32
377	-3.5001	0.50097	0.	128.43
378	-2.5003	1.501	0.	127.61
379	3.4998	-1.9994	0.	125.33
380	3.5	-4.4997	0.	128.5
381	-4.	6.1574e-004	0.	127.81
382	5.9996	-3.4992	0.	123.76
383	4.9998	-3.9993	0.	125.21
384	-1.	3.0001	0.	127.7
385	-3.0002	1.0012	0.	128.28
386	3.9998	-0.9994	0.	125.12
387	-2.3237e-005	1.5	0.	123.89
388	6.4996	-1.9992	0.	122.47
389	4.9996	-1.9986	0.	123.61
390	5.9996	-1.9988	0.	122.58
391	-3.0004	2.0019	0.	126.42
392	-2.5003	2.0012	0.	126.95
393	-1.0001	2.0001	0.	126.14
394	-1.5001	2.0003	0.	126.86
395	3.9998	-2.9992	0.	125.71
396	6.4995	-2.9992	0.	122.92
397	-0.50003	2.5	0.	126.19
398	4.5	-4.4996	0.	126.18
399	-4.	-0.99981	0.	126.77
400	4.9997	-1.4988	0.	123.53
401	-4.5	-0.49963	0.	126.92
402	-3.5002	1.0014	0.	128.04
403	-3.5004	2.5028	0.	124.58
404	-2.0002	2.5006	0.	127.3
405	3.4998	-1.4995	0.	125.39
406	-3.5001	6.7851e-004	0.	128.41
407	-0.50005	1.5001	0.	124.36
408	-2.0002	1.5005	0.	127.48
409	3.5	-3.9996	0.	128.04
410	3.4998	-2.4994	0.	125.72
411	4.4998	-0.99922	0.	124.48
412	3.5	-4.9998	0.	128.72
413	-4.0001	0.50103	0.	128.12
414	6.4996	-3.4994	0.	123.21
415	-1.	3.5001	0.	128.66
416	-1.5001	3.0002	0.	128.13
417	-3.0002	0.50085	0.	128.95
418	-3.2487e-005	1.	0.	122.12
419	-2.5002	1.0008	0.	128.5
420	3.	-4.4998	0.	129.4
421	2.9998	-1.9996	0.	125.95
422	3.4999	2.0108e-004	0.	126.46
423	3.9999	-0.49955	0.	125.5
424	-2.0499e-005	2.	0.	125.05
425	4.	-4.9998	0.	127.58
426	6.4998	-1.4993	0.	122.15
427	6.9997	-1.9996	0.	122.79
428	-1.	6.	0.	127.99
429	3.	0.50007	0.	127.21
430	-4.0004	3.0033	0.	122.54
431	-0.50002	3.	0.	126.97
432	-4.5	6.2514e-004	0.	127.37
433	-4.	-1.4999	0.	126.09
434	5.4997	-1.4988	0.	122.78
435	-4.5	-1.4999	0.	125.98
436	-4.5	-0.99979	0.	126.54
437	-3.5003	2.0022	0.	126.01
438	-3.0004	2.502	0.	125.52
439	-2.5003	2.5012	0.	126.63
440	-1.0001	1.5001	0.	125.53
441	-1.5001	1.5003	0.	126.75
442	3.4999	-2.9995	0.	126.47
443	6.9996	-2.9995	0.	122.71
444	-3.	-2.	0.	128.05
445	4.9998	-0.99905	0.	123.71
446	3.	-4.9998	0.	129.47
447	-5.	-0.49962	0.	126.69
448	-4.0001	1.0015	0.	128.11
449	6.9997	-3.4996	0.	122.65
450	5.9997	-3.9994	0.	124.35
451	-1.	4.0001	0.	129.43
452	-0.99999	5.5	0.	128.3
453	-3.5004	3.0028	0.	123.04
454	-2.0001	3.0006	0.	127.94
455	0.49998	1.	0.	122.87
456	2.9998	-1.4997	0.	126.08
457	2.9999	1.2076e-004	0.	127.44
458	-3.0001	6.1078e-004	0.	129.27
459	-3.	-1.4999	0.	127.99
460	-0.50006	1.0001	0.	122.99
461	-2.0002	1.0005	0.	128.23
462	2.9999	-2.4996	0.	126.39
463	3.5	0.50013	0.	126.43
464	3.9999	3.1867e-004	0.	125.69
465	-1.6026e-005	2.5	0.	125.67
466	4.5	-4.9997	0.	126.08
467	-2.	-7.	0.	127.49
468	-7.	-7.	0.	125.8
469	6.4999	-0.99947	0.	121.58
470	-4.5	-1.9999	0.	124.9
471	6.9998	-1.4996	0.	122.75
472	-1.5	3.5002	0.	129.19
473	-1.	6.5	0.	128.24
474	2.5	0.50004	0.	127.78
475	-2.5002	0.50064	0.	129.48
476	-2.	-5.	0.	129.24
477	2.5	-4.4998	0.	129.8
478	-4.0004	3.503	0.	120.28
479	4.4999	-0.49942	0.	124.93
480	2.5	1.	0.	126.72
481	3.5	-5.4999	0.	128.81
482	0.49999	1.5	0.	124.39
483	-0.50001	3.5	0.	127.94
484	5.4999	-4.4996	0.	124.96
485	2.5	-7.	0.	127.39
486	-4.5	0.50103	0.	128.
487	-5.	6.0513e-004	0.	126.9
488	-2.5	-5.	0.	130.32
489	-1.5	-7.	0.	127.06
490	-0.5	6.	0.	128.54
491	-4.5003	3.0028	0.	124.19
492	-1.5	6.	0.	128.55
493	-6.5001	6.0001	0.	124.63
494	-3.4316e-005	0.50003	0.	119.67
495	-2.5	-1.9999	0.	129.4
496	2.4999	-1.9998	0.	126.95
497	-4.	-1.9999	0.	125.24
498	5.4998	-0.99904	0.	122.7
499	5.9998	-0.99921	0.	121.73
500	3.	-5.4999	0.	129.22
501	-2.	-5.5	0.	128.57
502	-2.	-6.	0.	128.16
503	-5.	-1.4999	0.	126.8
504	-5.	-0.99979	0.	126.82
505	-4.0002	2.0025	0.	126.25
506	2.	1.	0.	126.58
507	6.9998	-3.9996	0.	122.71
508	6.4997	-3.9995	0.	123.73
509	-0.99999	5.	0.	129.03
510	-3.0003	3.0019	0.	124.88
511	-2.5002	3.0012	0.	126.82
512	0.99999	1.	0.	124.59
513	2.9999	-0.49981	0.	127.25
514	-3.	-0.99979	0.	128.51
515	-1.5001	1.0003	0.	127.05
516	2.9999	-2.9996	0.	127.31
517	3.	-6.5	0.	127.98
518	3.	-7.	0.	127.48
519	3.9999	0.50021	0.	125.49
520	-1.0866e-005	3.	0.	126.06
521	5.	-4.9997	0.	124.72
522	1.9999	-1.9999	0.	129.16
523	-2.	-2.	0.	131.54
524	-2.5794e-005	1.9405e-005	0.	116.52
525	-6.0001	6.0001	0.	127.98
526	-2.	6.	0.	130.76
527	-5.0002	3.0023	0.	128.09
528	4.5	7.	0.	123.83
529	8.0077e-007	6.	0.	130.51
530	-1.	-7.	0.	127.78
531	-3.	-5.	0.	131.97
532	-4.9999	0.50092	0.	127.7
533	3.	-7.5	0.	127.46
534	2.5	-7.5	0.	127.46
535	5.4999	-4.9997	0.	124.51
536	-5.6727e-006	3.5	0.	126.89
537	5.5	7.	0.	123.22
538	0.49999	2.	0.	125.42
539	4.	-5.4998	0.	127.9
540	3.	1.	0.	126.88
541	3.5	1.0001	0.	126.54
542	4.	1.0001	0.	125.17
543	4.4999	3.9993e-004	0.	125.24
544	-7.	6.5	0.	125.22
545	-6.5	6.5	0.	126.37
546	5.	6.5	0.	120.18
547	4.5	6.5	0.	121.8
548	-5.4999	4.7904e-004	0.	126.41
549	-4.5004	3.5027	0.	122.53
550	3.5	-7.5	0.	128.
551	3.5	-5.9999	0.	128.77
552	2.4999	-2.4998	0.	127.36
553	2.5	-3.9998	0.	129.77
554	-2.	-4.5	0.	130.42
555	-2.0001	0.50044	0.	129.47
556	-0.50006	0.50006	0.	121.23
557	-2.5	-1.4999	0.	129.31
558	-2.5001	4.8789e-004	0.	130.28
559	2.5	7.0326e-005	0.	128.55
560	2.4999	-1.4998	0.	127.18
561	0.49998	0.50001	0.	121.
562	2.	0.50002	0.	127.98
563	-1.5	6.5	0.	128.8
564	-2.0001	3.5005	0.	129.18
565	-3.5003	3.5024	0.	121.42
566	-1.5	5.5	0.	128.91
567	-1.5	4.0002	0.	130.14
568	5.9998	-4.4996	0.	125.11
569	7.4999	-1.4998	0.	123.78
570	7.4998	-1.9998	0.	123.47
571	7.4997	-2.4997	0.	123.16
572	7.4997	-2.9997	0.	122.8
573	7.4997	-3.4997	0.	122.35
574	7.4998	-3.9998	0.	121.8
575	7.4999	-4.4998	0.	121.17
576	2.5	1.5	0.	125.36
577	0.99999	1.5	0.	125.41
578	-6.5001	5.5001	0.	122.99
579	-7.	6.	0.	123.51
580	-7.5	6.	0.	123.21
581	-4.5	1.0015	0.	128.57
582	5.5	7.5	0.	123.56
583	6.	7.5	0.	124.28
584	7.5	7.5	0.	122.52
585	-0.5	4.	0.	128.97
586	-0.5	5.5	0.	128.74
587	-0.5	6.5	0.	128.78
588	-1.	7.	0.	128.92
589	-1.	7.5	0.	129.39
590	-5.5	-0.49965	0.	126.72
591	-5.	-1.9999	0.	126.18
592	-5.5	-1.9999	0.	128.5
593	3.1638e-007	-4.	0.	113.
594	-1.5	-5.	0.	127.69
595	2.5	-4.9999	0.	129.74
596	2.5	-6.5	0.	127.83
597	0.5	-4.5	0.	114.71
598	2.	-4.4999	0.	128.92
599	6.9999	-0.9997	0.	122.61
600	7.4999	-0.99986	0.	124.24
601	6.5	-0.49962	0.	120.51
602	4.9999	-0.49932	0.	124.26
603	-2.5	-5.5	0.	129.63
604	-2.5	-7.	0.	128.23
605	-2.5	-4.5	0.	131.33
606	-4.5	-2.5	0.	122.93
607	-2.5	-2.5	0.	130.31
608	-1.5	-7.5	0.	127.18
609	-2.	-7.5	0.	127.3
610	-2.5	-7.5	0.	127.52
611	-4.5	-7.5	0.	121.46
612	-6.	-7.5	0.	126.35
613	-6.5	-7.5	0.	126.35
614	-7.	-7.5	0.	125.79
615	-7.5	-7.5	0.	125.2
616	-7.5	-7.	0.	124.77
617	-7.5	-6.5	0.	123.95
618	-7.5	-6.	0.	122.74
619	-7.	-6.	0.	124.89
620	-4.0003	4.0021	0.	117.6
621	-6.5	-5.5	0.	127.82
622	-4.	-2.5	0.	124.2
623	-2.5	-6.	0.	129.2
624	-3.5	-7.5	0.	125.57
625	-5.5	-7.5	0.	125.03
626	-5.	-7.5	0.	122.7
627	-6.5	-6.	0.	127.41
628	-6.5	-6.5	0.	127.42
629	5.9999	-0.49944	0.	121.06
630	7.5	-0.4999	0.	125.08
631	2.5	-5.9999	0.	128.58
632	2.5	-5.4999	0.	129.41
633	-1.5	-5.5	0.	127.58
634	-1.5	-6.	0.	127.3
635	6.884e-007	-4.5	0.	114.67
636	-0.5	-4.5	0.	118.68
637	-5.5	-1.4999	0.	128.28
638	-5.5	-0.99974	0.	127.44
639	-0.5	7.	0.	129.24
640	-0.5	4.5	0.	129.5
641	6.5	7.5	0.	124.26
642	-4.5001	2.0022	0.	127.41
643	-7.5001	5.5	0.	123.41
644	1.5	1.5	0.	125.84
645	2.	1.5	0.	125.34
646	6.4998	-4.4996	0.	124.7
647	-1.5	4.5001	0.	130.38
648	-1.5	5.0001	0.	129.66
649	-2.5001	3.501	0.	127.75
650	-1.5	7.	0.	129.45
651	-1.5	7.5	0.	130.09
652	1.5	0.50001	0.	126.92
653	0.99998	0.50001	0.	124.19
654	2.4999	-0.49989	0.	128.63
655	-1.0001	0.50014	0.	124.76
656	-1.5001	0.50024	0.	127.97
657	-1.5	-4.5	0.	128.24
658	-1.	-4.5	0.	124.06
659	-2.5	-3.5	0.	132.79
660	2.4999	-2.9998	0.	128.29
661	1.	-4.5	0.	119.44
662	1.5	-4.5	0.	125.35
663	3.5	-6.4999	0.	128.5
664	3.5	-7.	0.	128.
665	-1.	-7.5	0.	127.5
666	-6.0001	5.5002	0.	126.63
667	-5.0003	3.502	0.	127.29
668	-5.9999	3.308e-004	0.	126.78
669	-7.5	-5.	0.	119.66
670	-3.	-4.5	0.	132.05
671	-6.	-5.5	0.	130.35
672	4.5	6.	0.	119.43
673	2.	-6.5	0.	128.05
674	1.9334e-006	5.5	0.	129.97
675	7.4999	-4.9999	0.	120.48
676	-3.5002	4.0015	0.	119.61
677	-2.	6.5	0.	130.31
678	1.9999	-1.4999	0.	128.85
679	-0.50005	6.1405e-005	0.	119.04
680	-2.	-2.5	0.	131.56
681	0.5	-4.	0.	114.59
682	-6.5	7.	0.	128.09
683	-7.5	6.5	0.	124.04
684	4.5	0.50026	0.	124.87
685	4.5	1.0002	0.	123.57
686	4.5	-5.4998	0.	125.93
687	5.	-5.4998	0.	123.38
688	0.49999	2.5	0.	125.65
689	0.49999	3.	0.	125.11
690	5.	6.	0.	116.95
691	5.5	6.5	0.	121.84
692	0.5	3.5	0.	125.08
693	5.5	-5.4998	0.	122.57
694	-8.	-7.5	0.	124.88
695	-8.	-7.	0.	124.26
696	-8.	-6.5	0.	123.26
697	-8.	-6.	0.	121.82
698	-8.	-5.5	0.	119.95
699	-8.	-5.	0.	117.85
700	-1.5	-8.	0.	127.46
701	-2.	-8.	0.	127.32
702	-2.5	-8.	0.	127.08
703	-3.	-8.	0.	126.44
704	-3.5	-8.	0.	125.19
705	-4.	-8.	0.	123.68
706	-4.5	-8.	0.	122.89
707	-5.	-8.	0.	123.35
708	-5.5	-8.	0.	124.52
709	-6.	-8.	0.	125.43
710	-6.5	-8.	0.	125.73
711	-7.	-8.	0.	125.61
712	-7.5	-8.	0.	125.36
713	-8.	-8.	0.	125.2
714	-6.5002	5.0001	0.	120.54
715	8.	-0.49996	0.	126.74
716	8.	-0.99994	0.	125.61
717	7.9999	-1.4999	0.	124.88
718	7.9999	-1.9999	0.	124.35
719	7.9998	-2.4999	0.	123.89
720	7.9998	-2.9998	0.	123.36
721	7.9998	-3.4998	0.	122.68
722	7.9998	-3.9998	0.	121.77
723	7.9999	-4.4999	0.	120.57
724	7.9999	-4.9999	0.	119.23
725	7.5	3.5	0.	124.06
726	8.	3.5	0.	125.4
727	8.	-8.	0.	119.36
728	7.5	7.	0.	120.66
729	5.	8.	0.	123.52
730	5.5	8.	0.	123.45
731	6.	8.	0.	123.69
732	6.5	8.	0.	123.66
733	7.	8.	0.	123.31
734	7.5	8.	0.	123.28
735	8.	8.	0.	124.05
736	8.	7.5	0.	123.9
737	2.	-7.5	0.	127.9
738	4.	-8.	0.	130.04
739	3.5	-8.	0.	128.56
740	3.	-8.	0.	128.12
741	2.5	-8.	0.	128.08
742	3.	1.5	0.	126.88
743	3.5	1.5001	0.	127.59
744	4.	1.5001	0.	125.57
745	4.5	1.5001	0.	122.24
746	4.	6.5	0.	125.19
747	3.5	6.5	0.	127.5
748	-5.4999	0.50068	0.	126.72
749	-7.5	-2.	0.	112.72
750	-5.	-2.5	0.	124.79
751	-5.5	-2.5	0.	128.1
752	-4.5	-3.	0.	119.41
753	-3.	-5.5	0.	130.86
754	-3.	-7.	0.	128.72
755	-4.5	-7.	0.	118.6
756	-6.	-7.	0.	127.95
757	-7.	7.	0.	127.6
758	-8.	5.5	0.	123.76
759	-8.	6.	0.	122.82
760	-8.	6.5	0.	122.31
761	6.5	2.3885e-004	0.	118.18
762	4.9999	4.7558e-004	0.	125.18
763	8.	3.	0.	127.97
764	8.	1.5	0.	127.91
765	8.	2.6605e-005	0.	128.34
766	3.	6.	0.	129.7
767	0.5	-5.	0.	112.97
768	2.	-4.9999	0.	129.08
769	-1.	-6.5	0.	127.02
770	-1.	-5.	0.	125.29
771	-6.	-0.49976	0.	127.04
772	-6.	-1.9999	0.	130.54
773	-6.5	7.5	0.	128.97
774	-6.5	8.	0.	128.
775	-4.5	8.	0.	118.5
776	-4.	8.	0.	116.69
777	-1.5	8.	0.	129.77
778	-1.	8.	0.	129.15
779	-0.5	8.	0.	128.93
780	3.2968e-008	8.	0.	129.03
781	-1.8562e-006	4.	0.	128.65
782	4.	7.	0.	126.77
783	4.5	7.5	0.	124.81
784	4.5	8.	0.	124.48
785	6.	7.	0.	125.41
786	-5.0001	2.502	0.	128.41
787	-4.9999	1.0013	0.	129.21
788	-8.	5.	0.	125.13
789	2.5	2.	0.	122.73
790	0.99999	2.	0.	126.48
791	5.9999	-4.9997	0.	125.91
792	-2.	5.5001	0.	130.44
793	-2.	4.0004	0.	130.9
794	-2.	8.	0.	130.6
795	-6.	8.	0.	128.63
796	0.49998	1.3721e-005	0.	118.77
797	2.	4.0723e-005	0.	129.63
798	-2.	-1.4999	0.	130.92
799	-2.0001	3.4663e-004	0.	131.15
800	-0.5	-4.	0.	116.75
801	-2.	-4.	0.	132.24
802	1.9999	-2.4999	0.	128.81
803	4.	-7.5	0.	128.99
804	4.	-5.9999	0.	128.66
805	5.	-5.9999	0.	121.45
806	4.5	-5.9999	0.	126.82
807	4.	-6.4999	0.	129.27
808	4.	-7.	0.	129.11
809	1.	-4.	0.	120.77
810	1.5	-4.	0.	127.26
811	2.	-2.9999	0.	129.77
812	-2.	-3.5	0.	133.44
813	-1.	-4.	0.	123.94
814	-1.0001	1.2381e-004	0.	124.96
815	-1.5001	2.194e-004	0.	130.12
816	-2.0001	-0.49974	0.	132.2
817	-2.	-0.99982	0.	131.72
818	1.9999	-0.99991	0.	129.87
819	1.9999	-0.49994	0.	130.54
820	0.99998	1.2193e-005	0.	124.32
821	-5.	8.	0.	123.56
822	-5.5	8.	0.	127.96
823	-6.	7.5	0.	130.24
824	-2.	7.	0.	131.16
825	-2.	7.5	0.	131.65
826	-2.5	8.	0.	129.85
827	-3.0001	4.0011	0.	125.14
828	-2.5	4.0007	0.	130.
829	6.9999	-4.9998	0.	124.1
830	6.4999	-4.9998	0.	126.74
831	1.	3.	0.	125.07
832	1.	2.5	0.	126.73
833	1.5	2.	0.	126.66
834	2.	2.	0.	123.88
835	3.	2.	0.	127.33
836	3.5	2.	0.	131.24
837	4.	2.	0.	127.44
838	-7.0001	5.	0.	121.97
839	-7.5001	5.	0.	125.26
840	-5.	2.0018	0.	129.7
841	6.5	7.	0.	126.26
842	4.	7.5	0.	127.94
843	4.	8.	0.	127.06
844	1.6496e-006	5.	0.	130.38
845	8.2715e-007	4.5	0.	130.21
846	7.5999e-008	7.5	0.	130.66
847	2.1749e-007	7.	0.	130.73
848	-6.	-1.4999	0.	129.77
849	-6.	-0.99981	0.	128.36
850	1.0264e-006	-5.	0.	115.39
851	-0.5	-5.	0.	121.35
852	-1.	-5.5	0.	126.67
853	-1.	-6.	0.	127.04
854	2.	-6.	0.	128.82
855	2.	-5.4999	0.	129.4
856	1.	-5.	0.	118.26
857	4.	6.	0.	124.88
858	3.5	6.	0.	129.01
859	7.5	6.6733e-005	0.	127.09
860	8.	0.50002	0.	129.43
861	8.	1.	0.	128.93
862	8.	2.5	0.	129.86
863	5.	0.5003	0.	125.41
864	6.	3.5846e-004	0.	120.16
865	-7.5	7.	0.	126.34
866	-7.	8.	0.	128.57
867	-6.	-6.	0.	129.91
868	-6.	-6.5	0.	129.43
869	-5.5	-7.	0.	126.82
870	-5.	-7.	0.	121.85
871	-4.	-7.	0.	122.07
872	-3.5	-7.	0.	127.28
873	-3.	-6.	0.	130.69
874	-3.	-3.5	0.	132.73
875	-3.5	-3.	0.	128.7
876	-4.	-3.	0.	122.96
877	-5.	-3.	0.	122.9
878	-5.5	-3.	0.	128.21
879	-6.	-3.5	0.	129.38
880	-7.	-5.	0.	124.55
881	-6.5	-5.	0.	129.43
882	-6.	-4.	0.	131.02
883	-6.	-3.	0.	130.22
884	-6.	-2.5	0.	130.77
885	-7.	-2.	0.	119.88
886	-5.9999	0.5004	0.	125.43
887	3.	6.5	0.	127.61
888	4.5	2.	0.	121.29
889	2.	-8.	0.	128.6
890	-8.	-2.	0.	114.55
891	8.	7.	0.	123.75
892	8.	-8.5	0.	121.48
893	7.5	-8.5	0.	123.07
894	7.	-8.5	0.	126.51
895	8.5	-8.	0.	121.05
896	8.5	-8.5	0.	122.55
897	8.	4.	0.	123.59
898	8.5	8.	0.	125.19
899	8.5	7.5	0.	125.92
900	8.5	7.	0.	127.85
901	8.5	4.	0.	127.93
902	8.5	3.5	0.	127.13
903	8.5	3.	0.	127.75
904	8.5	2.5	0.	128.24
905	8.5	2.	0.	127.92
906	8.5	1.5	0.	127.6
907	8.5	1.	0.	127.81
908	8.5	9.6969e-006	0.	128.02
909	8.5	-0.49999	0.	127.27
910	8.5	-0.99998	0.	126.47
911	8.4999	-1.5	0.	125.83
912	8.4999	-2.	0.	125.33
913	8.4999	-2.4999	0.	124.88
914	8.4999	-2.9999	0.	124.41
915	8.4999	-3.4999	0.	123.83
916	8.4999	-3.9999	0.	123.06
917	8.4999	-4.4999	0.	122.13
918	8.4999	-4.9999	0.	121.11
919	4.	8.5	0.	125.07
920	4.5	8.5	0.	123.92
921	5.	8.5	0.	123.36
922	5.5	8.5	0.	123.39
923	6.	8.5	0.	123.55
924	6.5	8.5	0.	123.6
925	7.5	8.5	0.	123.71
926	8.	8.5	0.	124.18
927	8.5	8.5	0.	124.86
928	-5.0003	4.0014	0.	128.13
929	-6.0001	5.0002	0.	126.52
930	-5.4999	1.0009	0.	128.35
931	3.5	7.	0.	128.63
932	-7.	8.5	0.	126.46
933	-6.5	8.5	0.	126.47
934	-6.	8.5	0.	126.52
935	-5.5	8.5	0.	125.68
936	-5.	8.5	0.	123.32
937	-4.5	8.5	0.	120.64
938	-4.	8.5	0.	119.71
939	-3.5	8.5	0.	121.38
940	-3.	8.5	0.	124.71
941	-2.5	8.5	0.	127.56
942	-2.	8.5	0.	128.79
943	-1.5	8.5	0.	128.74
944	-1.	8.5	0.	128.33
945	-0.5	8.5	0.	127.84
946	2.1588e-008	8.5	0.	127.07
947	1.	8.5	0.	123.52
948	0.5	8.	0.	128.
949	-8.5	4.5	0.	123.68
950	-8.5	5.	0.	124.33
951	-8.5	5.5	0.	123.84
952	-8.5	6.	0.	122.83
953	-8.5	6.5	0.	121.46
954	-8.5	7.	0.	119.19
955	-8.5	-8.	0.	125.22
956	-8.5	-7.5	0.	124.92
957	-8.5	-7.	0.	124.39
958	-8.5	-6.5	0.	123.58
959	-8.5	-5.	0.	119.74
960	-1.	-8.	0.	128.06
961	4.	-8.5	0.	130.25
962	3.5	-8.5	0.	129.61
963	3.	-8.5	0.	129.2
964	2.	-8.5	0.	129.16
965	-1.	-8.5	0.	128.25
966	-1.5	-8.5	0.	127.78
967	-2.	-8.5	0.	127.42
968	-2.5	-8.5	0.	126.94
969	-3.	-8.5	0.	126.21
970	-3.5	-8.5	0.	125.22
971	-4.	-8.5	0.	124.24
972	-4.5	-8.5	0.	123.7
973	-5.	-8.5	0.	123.83
974	-5.5	-8.5	0.	124.4
975	-6.	-8.5	0.	124.98
976	-6.5	-8.5	0.	125.32
977	-7.	-8.5	0.	125.41
978	-7.5	-8.5	0.	125.38
979	-8.	-8.5	0.	125.34
980	-8.5	-8.5	0.	125.37
981	-8.5	4.	0.	121.02
982	-8.	4.5	0.	125.91
983	5.5	-5.9999	0.	118.28
984	6.	-5.4998	0.	125.61
985	7.5	-8.	0.	121.48
986	1.	3.5	0.	122.58
987	0.5	4.	0.	127.
988	3.	5.5	0.	129.96
989	7.5	4.	0.	120.72
990	5.5	6.	0.	119.22
991	6.	6.5	0.	126.26
992	5.	1.5001	0.	120.31
993	7.	3.5	0.	124.91
994	7.5	3.	0.	127.62
995	7.	3.	0.	125.68
996	5.	2.0001	0.	119.1
997	6.	6.	0.	125.71
998	7.	4.	0.	125.08
999	3.	5.	0.	129.36
1000	1.	4.	0.	122.7
1001	7.	-8.	0.	127.36
1002	6.	-5.9999	0.	122.99
1003	-8.	4.	0.	125.05
1004	-6.5	-2.5	0.	131.92
1005	-6.5	-4.5	0.	133.04
1006	-9.	-8.5	0.	125.46
1007	-9.	-8.	0.	125.38
1008	-9.	-7.5	0.	125.23
1009	-9.	-7.	0.	125.
1010	-9.	-6.5	0.	124.68
1011	-9.	-6.	0.	124.31
1012	-9.	-5.5	0.	124.1
1013	-9.	-5.	0.	124.49
1014	-5.5	-3.5	0.	131.15
1015	-3.5	-3.5	0.	132.99
1016	-3.5	-6.5	0.	131.51
1017	-5.5	-6.5	0.	131.14
1018	-7.5	7.5	0.	130.94
1019	-9.	5.	0.	124.87
1020	-9.	5.5	0.	124.58
1021	-9.	6.	0.	123.87
1022	-9.	7.	0.	122.09
1023	5.5	0.50027	0.	127.35
1024	7.5	2.5	0.	132.92
1025	7.5	0.50004	0.	131.28
1026	3.5	-9.	0.	130.92
1027	3.	-9.	0.	130.37
1028	2.	-9.	0.	128.66
1029	0.5	-9.	0.	116.05
1030	4.6469e-008	-9.	0.	119.45
1031	-0.5	-9.	0.	125.07
1032	-1.	-9.	0.	127.25
1033	-1.5	-9.	0.	127.56
1034	-2.	-9.	0.	127.39
1035	-2.5	-9.	0.	126.91
1036	-3.	-9.	0.	126.2
1037	-3.5	-9.	0.	125.38
1038	-4.	-9.	0.	124.63
1039	-4.5	-9.	0.	124.18
1040	-5.	-9.	0.	124.14
1041	-5.5	-9.	0.	124.42
1042	-6.	-9.	0.	124.79
1043	-6.5	-9.	0.	125.09
1044	-7.	-9.	0.	125.26
1045	-7.5	-9.	0.	125.34
1046	-8.	-9.	0.	125.38
1047	-8.5	-9.	0.	125.43
1048	-9.	-9.	0.	125.5
1049	3.5	5.5	0.	133.57
1050	-0.5	-8.5	0.	128.84
1051	1.5	-8.5	0.	129.38
1052	1.5	-5.5	0.	128.99
1053	-0.5	-5.5	0.	126.07
1054	-8.5	-1.5	0.	126.13
1055	-6.5	-1.4999	0.	129.99
1056	0.5	7.5	0.	132.75
1057	0.5	4.5	0.	131.66
1058	-7.	9.	0.	126.67
1059	-6.5	9.	0.	125.57
1060	-6.	9.	0.	125.43
1061	-5.5	9.	0.	124.84
1062	-5.	9.	0.	123.59
1063	-3.	9.	0.	124.69
1064	-2.5	9.	0.	126.41
1065	-2.	9.	0.	127.4
1066	-1.5	9.	0.	127.69
1067	-1.	9.	0.	127.54
1068	-0.5	9.	0.	127.1
1069	1.1385e-008	9.	0.	126.3
1070	0.5	9.	0.	125.2
1071	1.	9.	0.	125.09
1072	1.	8.	0.	124.32
1073	3.	7.	0.	126.77
1074	3.5	7.5	0.	132.45
1075	6.5	6.5	0.	131.2
1076	8.5	4.5	0.	131.59
1077	8.5	6.5	0.	132.01
1078	-5.9999	1.0004	0.	124.7
1079	-5.4999	1.501	0.	132.5
1080	-7.5001	4.5	0.	129.82
1081	3.5	2.5	0.	139.44
1082	1.5	2.5	0.	129.3
1083	4.	9.	0.	125.5
1084	4.5	9.	0.	123.89
1085	5.	9.	0.	123.61
1086	5.5	9.	0.	123.64
1087	6.	9.	0.	123.73
1088	6.5	9.	0.	123.78
1089	7.	9.	0.	123.82
1090	7.5	9.	0.	123.97
1091	8.	9.	0.	124.27
1092	8.5	9.	0.	124.69
1093	9.	7.5	0.	126.95
1094	9.	7.	0.	128.4
1095	9.	6.5	0.	129.4
1096	9.	6.	0.	128.69
1097	9.	5.5	0.	127.22
1098	9.	5.	0.	128.42
1099	9.	4.5	0.	129.12
1100	9.	4.	0.	128.46
1101	9.	3.5	0.	127.68
1102	9.	3.	0.	127.51
1103	9.	1.5	0.	127.18
1104	9.	1.	0.	127.38
1105	9.	0.5	0.	127.65
1106	9.	3.0963e-006	0.	127.68
1107	9.	-0.5	0.	127.4
1108	9.	-0.99999	0.	126.98
1109	9.	-1.5	0.	126.59
1110	8.9999	-2.	0.	126.27
1111	8.9999	-2.5	0.	126.02
1112	8.9999	-3.5	0.	125.62
1113	8.9999	-4.	0.	125.43
1114	8.9999	-4.5	0.	125.37
1115	9.	-5.	0.	125.83
1116	6.5	-5.4999	0.	130.89
1117	-2.5	4.5005	0.	134.08
1118	-2.5	7.5	0.	133.88
1119	-5.5	7.5	0.	132.37
1120	-5.5003	4.5006	0.	139.37
1121	1.5	-0.49997	0.	132.89
1122	-1.5001	-0.49982	0.	134.19
1123	-1.5	-3.5	0.	134.34
1124	1.5	-3.5	0.	131.44
1125	4.5	-6.4999	0.	130.19
1126	4.	-9.	0.	131.52
1127	9.	-8.	0.	125.68
1128	9.	-8.5	0.	125.48
1129	8.	-9.	0.	123.57
1130	7.5	-9.	0.	124.74
1131	7.	-9.	0.	127.16
1132	-9.	-2.	0.	127.39
1133	-9.	-1.5	0.	128.44
1134	-9.	-1.	0.	128.87
1135	-9.	-0.5	0.	128.89
1136	-9.	1.0008e-008	0.	129.43
1137	-9.	0.5	0.	128.42
1138	-9.	1.	0.	127.9
1139	-9.	1.5	0.	128.47
1140	-8.5	1.5	0.	120.21
1141	-8.	3.5	0.	125.04
1142	-8.5	3.5	0.	114.39
1143	-9.	3.5	0.	125.31
1144	6.5	-7.5	0.	138.22
1145	6.5	-8.	0.	135.9
1146	6.5	-9.	0.	129.04
1147	6.5	-8.5	0.	131.94
1148	4.5	-9.	0.	131.24
1149	4.5	-8.5	0.	133.2
1150	4.5	-8.	0.	134.71
1151	4.5	-7.	0.	129.77
1152	4.5	-7.5	0.	132.83
1153	6.	-6.5	0.	121.4
1154	5.5	-6.5	0.	109.8
1155	5.	-6.4999	0.	121.62
1156	1.	-3.5	0.	123.22
1157	0.5	-3.5	0.	112.25
1158	-1.1958e-007	-3.5	0.	112.54
1159	-1.	-3.5	0.	125.66
1160	-0.5	-3.5	0.	113.56
1161	-1.5	-3.	0.	133.69
1162	-1.5	-2.5	0.	135.6
1163	-1.5	-2.	0.	137.11
1164	-1.5	-0.99988	0.	133.34
1165	-1.5	-1.4999	0.	135.47
1166	-1.	-0.49991	0.	126.68
1167	-0.50003	-0.49996	0.	115.23
1168	-2.2816e-005	-0.49998	0.	114.88
1169	0.99998	-0.49999	0.	126.02
1170	0.49998	-0.49999	0.	114.87
1171	1.5	-0.99996	0.	131.7
1172	1.5	-1.5	0.	133.8
1173	1.5	-2.9999	0.	131.05
1174	1.5	-2.5	0.	133.18
1175	1.5	-2.	0.	135.03
1176	-5.5001	5.0003	0.	133.85
1177	-5.5001	5.5001	0.	134.66
1178	-5.5	6.0001	0.	135.61
1179	-5.5	7.	0.	132.03
1180	-5.5	6.5	0.	133.81
1181	-5.	7.5	0.	125.26
1182	-4.5	7.5	0.	115.
1183	-4.	7.5	0.	115.23
1184	-3.	7.5	0.	127.01
1185	-3.5	7.5	0.	115.56
1186	-2.5	7.	0.	132.84
1187	-2.5	6.5	0.	135.36
1188	-2.5	6.	0.	136.85
1189	-2.5	5.0002	0.	133.15
1190	-2.5	5.5001	0.	135.41
1191	-3.	4.5006	0.	127.13
1192	-5.0002	4.5008	0.	130.47
1193	-4.5002	4.5011	0.	117.4
1194	-4.0001	4.5011	0.	116.47
1195	-3.5001	4.5007	0.	116.12
1196	9.	-7.5	0.	127.71
1197	8.5	-7.5	0.	118.9
1198	8.	-7.5	0.	119.47
1199	7.	-7.5	0.	128.67
1200	7.5	-7.5	0.	118.96
1201	6.5	-7.	0.	134.94
1202	6.5	-5.9999	0.	131.39
1203	6.5	-6.5	0.	134.1
1204	6.9999	-5.4999	0.	126.52
1205	7.4999	-5.4999	0.	118.81
1206	8.	-5.4999	0.	119.78
1207	9.	-5.5	0.	127.87
1208	8.5	-5.5	0.	119.19
1209	1.5	3.	0.	127.2
1210	1.5	4.	0.	121.38
1211	1.5	3.5	0.	125.23
1212	3.	4.5	0.	129.32
1213	2.5	4.5	0.	118.23
1214	3.	2.5	0.	129.17
1215	2.	2.5	0.	123.58
1216	2.5	2.5	0.	115.57
1217	-7.5	2.	0.	126.08
1218	-7.5	2.5	0.	134.01
1219	-7.5	3.	0.	136.87
1220	-7.5	4.	0.	130.94
1221	-7.5	3.5	0.	136.3
1222	-7.0001	4.5	0.	123.58
1223	-6.0002	4.5002	0.	128.18
1224	-6.5001	4.5001	0.	113.62
1225	-5.5002	4.0008	0.	134.22
1226	-5.5002	3.501	0.	134.72
1227	-5.5001	3.0011	0.	135.24
1228	-5.5	2.0011	0.	132.08
1229	-5.5	2.5011	0.	133.19
1230	-6.5	1.5001	0.	116.14
1231	-5.9999	1.5004	0.	124.81
1232	8.5	6.	0.	131.53
1233	8.5	5.	0.	131.13
1234	8.5	5.5	0.	131.35
1235	8.	4.5	0.	124.43
1236	7.	4.5	0.	125.95
1237	7.5	4.5	0.	114.25
1238	6.5	6.	0.	133.01
1239	6.5	5.5	0.	136.37
1240	7.	6.5	0.	125.
1241	8.	6.5	0.	125.23
1242	7.5	6.5	0.	115.03
1243	3.5	9.	0.	129.3
1244	3.5	8.	0.	131.29
1245	3.5	8.5	0.	130.48
1246	3.	7.5	0.	127.52
1247	2.5	7.5	0.	118.79
1248	1.5	8.	0.	123.49
1249	1.5	9.	0.	127.65
1250	1.5	8.5	0.	126.68
1251	1.5	4.5	0.	114.28
1252	0.5	5.	0.	131.5
1253	0.5	5.5	0.	134.
1254	0.5	6.	0.	135.66
1255	0.5	7.	0.	132.15
1256	0.5	6.5	0.	134.44
1257	1.	7.5	0.	126.08
1258	2.	7.5	0.	121.88
1259	1.5	7.5	0.	115.95
1260	2.5	7.	0.	125.07
1261	2.5	6.5	0.	130.07
1262	2.5	6.	0.	132.78
1263	2.5	5.	0.	125.15
1264	2.5	5.5	0.	130.71
1265	-8.	1.5	0.	124.96
1266	-7.	1.5	0.	123.65
1267	-7.5	1.5	0.	119.55
1268	-6.5	1.0002	0.	122.97
1269	-6.5	0.50017	0.	128.38
1270	-6.5	1.5469e-004	0.	130.79
1271	-6.5	-0.99989	0.	128.49
1272	-6.5	-0.49987	0.	129.69
1273	-7.	-1.5	0.	119.06
1274	-8.	-1.5	0.	116.74
1275	-7.5	-1.5	0.	106.14
1276	-8.5	-1.	0.	127.07
1277	-8.5	1.	0.	125.84
1278	-8.5	0.5	0.	130.22
1279	-8.5	1.0641e-008	0.	132.27
1280	-8.5	-0.5	0.	130.44
1281	1.0492e-006	-5.5	0.	117.07
1282	0.5	-5.5	0.	106.5
1283	1.5	-6.	0.	128.53
1284	1.5	-6.5	0.	130.79
1285	1.5	-7.	0.	132.45
1286	1.5	-7.5	0.	130.95
1287	1.	-8.5	0.	120.28
1288	2.9274e-008	-8.5	0.	120.13
1289	0.5	-8.5	0.	108.51
1290	-0.5	-6.	0.	126.8
1291	-0.5	-6.5	0.	129.67
1292	-0.5	-7.	0.	131.85
1293	-0.5	-7.5	0.	130.63
1294	-0.5	-8.	0.	128.35
1295	4.	5.5	0.	127.15
1296	4.5	5.5	0.	116.06
1297	5.	5.5	0.	115.49
1298	6.	5.5	0.	125.81
1299	5.5	5.5	0.	115.22
1300	6.5	5.	0.	136.22
1301	6.5	4.5	0.	138.15
1302	6.5	4.	0.	135.18
1303	6.5	3.	0.	125.71
1304	6.5	3.5	0.	130.89
1305	5.5	2.5	0.	120.78
1306	5.	2.5	0.	118.83
1307	4.	2.5	0.	130.77
1308	4.5	2.5	0.	118.57
1309	3.5	3.	0.	137.73
1310	3.5	3.5	0.	141.19
1311	3.5	5.	0.	134.96
1312	3.5	4.5	0.	141.29
1313	3.5	4.	0.	142.86
1314	-6.5	-3.	0.	131.48
1315	-6.5	-4.	0.	131.87
1316	-6.5	-3.5	0.	131.31
1317	-7.	-4.5	0.	126.02
1318	-7.5	-4.5	0.	116.88
1319	-8.	-4.5	0.	117.64
1320	-9.	-4.5	0.	126.72
1321	-8.5	-4.5	0.	117.41
1322	-9.	-2.5	0.	127.6
1323	-7.	-2.5	0.	123.2
1324	-7.5	-2.5	0.	113.71
1325	-8.	-2.5	0.	115.81
1326	-5.	-3.5	0.	123.06
1327	-4.	-3.5	0.	123.51
1328	-4.5	-3.5	0.	111.42
1329	-3.5	-4.	0.	132.97
1330	-3.5	-4.5	0.	135.28
1331	-3.5	-5.	0.	136.7
1332	-3.5	-6.	0.	131.71
1333	-3.5	-5.5	0.	134.53
1334	-4.	-6.5	0.	122.94
1335	-5.	-6.5	0.	122.78
1336	-5.5	-6.	0.	131.43
1337	-5.5	-5.5	0.	134.36
1338	-5.5	-5.	0.	136.57
1339	-5.5	-4.	0.	131.21
1340	-5.5	-4.5	0.	134.75
1341	-8.	7.5	0.	123.72
1342	-9.	7.5	0.	123.37
1343	-8.5	7.5	0.	113.54
1344	-7.5	8.	0.	130.98
1345	-7.5	8.5	0.	130.85
1346	-7.5	9.	0.	129.95
1347	5.5	2.	0.	122.55
1348	5.5	1.5001	0.	124.73
1349	6.	2.5	0.	125.78
1350	7.	2.5	0.	127.4
1351	6.5	2.5	0.	119.54
1352	7.5	2.	0.	132.5
1353	7.5	1.5	0.	131.67
1354	7.	0.50007	0.	123.82
1355	6.	0.50018	0.	120.58
1356	6.5	0.50012	0.	112.1
1357	9.	-9.5	0.	126.35
1358	8.5	-9.5	0.	125.16
1359	8.	-9.5	0.	125.08
1360	7.5	-9.5	0.	126.24
1361	7.	-9.5	0.	128.
1362	6.5	-9.5	0.	128.81
1363	6.	-9.5	0.	118.95
1364	5.5	-9.5	0.	107.71
1365	5.	-9.5	0.	120.53
1366	4.5	-9.5	0.	131.89
1367	4.	-9.5	0.	132.7
1368	3.5	-9.5	0.	132.22
1369	3.	-9.5	0.	131.24
1370	2.5	-9.5	0.	129.9
1371	2.	-9.5	0.	127.87
1372	1.5	-9.5	0.	124.61
1373	1.	-9.5	0.	120.77
1374	0.5	-9.5	0.	118.75
1375	5.81e-008	-9.5	0.	120.28
1376	-0.5	-9.5	0.	123.54
1377	-1.	-9.5	0.	126.04
1378	-1.5	-9.5	0.	127.11
1379	-2.	-9.5	0.	127.26
1380	-2.5	-9.5	0.	126.89
1381	-3.	-9.5	0.	126.25
1382	-3.5	-9.5	0.	125.51
1383	-4.	-9.5	0.	124.86
1384	-4.5	-9.5	0.	124.44
1385	-5.	-9.5	0.	124.33
1386	-5.5	-9.5	0.	124.46
1387	-6.	-9.5	0.	124.72
1388	-6.5	-9.5	0.	124.98
1389	-7.	-9.5	0.	125.17
1390	-7.5	-9.5	0.	125.3
1391	-8.	-9.5	0.	125.38
1392	-8.5	-9.5	0.	125.45
1393	-9.	-9.5	0.	125.52
1394	-9.5	-9.5	0.	125.59
1395	-9.5	-9.	0.	125.58
1396	-9.5	-8.5	0.	125.57
1397	-9.5	-8.	0.	125.56
1398	-9.5	-7.5	0.	125.59
1399	-9.5	-7.	0.	125.71
1400	-9.5	-6.5	0.	125.98
1401	-9.5	-6.	0.	126.49
1402	-9.5	-5.5	0.	127.34
1403	-9.5	-5.	0.	128.97
1404	-9.5	-4.5	0.	132.89
1405	-9.5	-4.	0.	133.14
1406	-9.5	-3.5	0.	133.79
1407	-9.5	-3.	0.	134.92
1408	-9.5	-2.5	0.	135.38
1409	-9.5	-2.	0.	132.46
1410	-9.5	-1.5	0.	131.53
1411	-9.5	-1.	0.	130.71
1412	-9.5	-0.5	0.	130.2
1413	-9.5	8.0548e-009	0.	130.13
1414	-9.5	0.5	0.	130.54
1415	-9.5	1.	0.	131.78
1416	-9.5	1.5	0.	135.51
1417	-9.5	2.	0.	135.61
1418	-9.5	2.5	0.	134.77
1419	-9.5	3.	0.	133.13
1420	-9.5	3.5	0.	132.41
1421	-9.5	4.	0.	128.37
1422	-9.5	4.5	0.	126.93
1423	-9.5	5.	0.	126.27
1424	-9.5	5.5	0.	125.8
1425	-9.5	6.	0.	125.55
1426	-9.5	6.5	0.	125.61
1427	-9.5	7.	0.	126.54
1428	-9.5	7.5	0.	130.06
1429	-9.5	8.	0.	130.46
1430	-9.5	8.5	0.	130.77
1431	-9.5	9.	0.	129.84
1432	-9.5	9.5	0.	128.48
1433	-9.	9.5	0.	125.43
1434	-8.5	9.5	0.	117.28
1435	-8.	9.5	0.	126.24
1436	-7.5	9.5	0.	129.55
1437	-7.	9.5	0.	126.65
1438	-6.5	9.5	0.	125.82
1439	-6.	9.5	0.	125.33
1440	-5.5	9.5	0.	124.67
1441	-5.	9.5	0.	123.88
1442	-4.5	9.5	0.	123.24
1443	-4.	9.5	0.	123.12
1444	-3.5	9.5	0.	123.67
1445	-3.	9.5	0.	124.69
1446	-2.5	9.5	0.	125.8
1447	-2.	9.5	0.	126.68
1448	-1.5	9.5	0.	127.19
1449	-1.	9.5	0.	127.36
1450	-0.5	9.5	0.	127.21
1451	5.3529e-009	9.5	0.	126.76
1452	0.5	9.5	0.	126.15
1453	1.	9.5	0.	126.07
1454	1.5	9.5	0.	128.42
1455	2.	9.5	0.	124.9
1456	2.5	9.5	0.	116.36
1457	3.	9.5	0.	125.16
1458	3.5	9.5	0.	128.52
1459	4.	9.5	0.	125.53
1460	4.5	9.5	0.	124.62
1461	5.	9.5	0.	124.29
1462	5.5	9.5	0.	124.11
1463	6.	9.5	0.	123.99
1464	6.5	9.5	0.	123.93
1465	7.	9.5	0.	123.95
1466	7.5	9.5	0.	124.07
1467	8.	9.5	0.	124.28
1468	8.5	9.5	0.	124.56
1469	9.	9.5	0.	124.84
1470	9.5	9.5	0.	125.08
1471	9.5	9.	0.	125.45
1472	9.5	8.5	0.	125.93
1473	9.5	8.	0.	126.51
1474	9.5	7.5	0.	127.12
1475	9.5	7.	0.	127.57
1476	9.5	6.5	0.	127.51
1477	9.5	6.	0.	126.8
1478	9.5	5.5	0.	126.32
1479	9.5	5.	0.	126.48
1480	9.5	4.5	0.	127.06
1481	9.5	4.	0.	127.25
1482	9.5	3.5	0.	127.18
1483	9.5	3.	0.	127.06
1484	9.5	2.5	0.	126.96
1485	9.5	2.	0.	126.86
1486	9.5	1.5	0.	126.88
1487	9.5	1.	0.	127.06
1488	9.5	6.2068e-007	0.	127.5
1489	9.5	-0.5	0.	127.51
1490	9.5	-1.	0.	127.39
1491	9.5	-1.5	0.	127.22
1492	9.5	-2.	0.	127.09
1493	9.5	-2.5	0.	127.07
1494	9.5	-3.	0.	127.22
1495	9.5	-3.5	0.	127.57
1496	9.5	-4.	0.	128.18
1497	9.5	-4.5	0.	129.07
1498	9.5	-5.	0.	130.57
1499	9.5	-5.5	0.	134.26
1500	9.5	-6.	0.	134.28
1501	9.5	-6.5	0.	133.99
1502	9.5	-7.	0.	133.91
1503	9.5	-7.5	0.	133.85
1504	9.5	-8.	0.	130.16
1505	9.5	-8.5	0.	128.83
1506	9.5	-9.	0.	128.25
1507	9.5	-9.5	0.	127.97
1508	6.4996	-2.4992	0.	122.7
1509	3.4999	-3.4995	0.	127.33
1510	5.9995	-2.4989	0.	122.92
1511	2.5	-8.5	0.	129.06
1512	-4.	-7.5	0.	122.96
1513	-8.5	-5.5	0.	121.14
1514	-2.	-3.	0.	132.82
1515	-3.5002	1.5018	0.	127.22
1516	2.5	-9.	0.	129.66
1517	-4.5003	4.0019	0.	120.78
1518	7.	7.5	0.	123.12
1519	3.4999	-0.49969	0.	126.24
1520	-9.	6.5	0.	122.95
1521	1.	-5.5	0.	118.91
1522	7.	7.	0.	123.09
1523	5.	1.0002	0.	123.54
1524	-2.5001	-0.49965	0.	130.44
1525	-2.5	-6.5	0.	128.9
1526	9.	9.	0.	125.11
1527	9.	-9.	0.	125.89
1528	5.4999	4.5678e-004	0.	124.07
1529	5.5	1.0002	0.	126.33
1530	-1.5	-4.	0.	130.19
1531	-7.0001	5.5001	0.	122.5
1532	3.4998	-0.99958	0.	125.79
1533	-9.	4.	0.	123.86
1534	7.	8.5	0.	123.57
1535	-4.5002	2.5026	0.	125.86
1536	8.	2.	0.	129.47
1537	9.	8.5	0.	125.48
1538	-6.	6.5	0.	128.46
1539	-4.0001	1.5019	0.	127.51
1540	-1.5	-6.5	0.	127.12
1541	-2.	4.5003	0.	131.94
1542	2.	4.5	0.	120.9
1543	-8.5	-2.5	0.	117.55
1544	-4.5	9.	0.	122.32
1545	-7.5	-5.5	0.	121.28
1546	-2.5	-4.	0.	132.38
1547	-3.5	8.	0.	119.36
1548	5.4996	-1.9987	0.	123.01
1549	-3.5	-1.4999	0.	126.89
1550	9.	2.	0.	127.31
1551	1.5	2.4273e-005	0.	129.01
1552	9.	2.5	0.	127.48
1553	-9.	4.5	0.	124.56
1554	-3.0002	3.5015	0.	124.7
1555	-3.	-7.5	0.	127.19
1556	-3.	8.	0.	125.09
1557	2.9999	-0.99974	0.	126.67
1558	-2.	5.0002	0.	131.4
1559	2.	-3.4999	0.	130.43
1560	-6.	-5.	0.	132.06
1561	-3.0001	-0.49959	0.	129.08
1562	-5.	1.5015	0.	130.31
1563	5.4998	-3.9993	0.	124.72
1564	7.	1.4041e-004	0.	122.17
1565	-6.	7.	0.	129.83
1566	9.	8.	0.	126.03
1567	8.9999	-3.	0.	125.82
1568	-7.	7.5	0.	129.25
1569	6.9998	-4.4997	0.	123.1
1570	-1.0001	1.0001	0.	125.01
1571	-8.5	-6.	0.	122.47
1572	-3.	-3.	0.	131.01
1573	-3.	-2.5	0.	129.03
1574	4.9999	-4.4995	0.	125.27
1575	3.9999	-3.4993	0.	126.39
1576	6.9996	-2.4995	0.	122.77
1577	5.4999	-0.49932	0.	122.9
1578	-0.99999	4.5	0.	129.57
1579	-0.5	5.	0.	129.18
1580	3.	-5.9999	0.	128.68
1581	-7.	-6.5	0.	125.48
1582	2.5	-3.4998	0.	129.33
1583	1.5	-8.	0.	128.77
1584	9.5	0.5	0.	127.33
1585	-4.	9.	0.	121.95
1586	-7.	-5.5	0.	124.43
1587	5.	7.5	0.	123.45
1588	8.5	-9.	0.	124.04
1589	1.	4.5	0.	124.24
1590	-4.5	-6.5	0.	111.26
1591	-3.5	-1.9999	0.	126.61
1592	-3.5	9.	0.	122.89
1593	-3.5	-0.99978	0.	127.47
1594	1.	-9.	0.	119.81
1595	-6.5	-2.	0.	128.76
1596	3.	-3.9997	0.	129.04
1597	7.5	1.	0.	130.88
1598	-3.	-4.	0.	132.81
1599	-2.5	-0.99976	0.	129.81
1600	-2.5	-3.	0.	131.73
1601	-3.5	-2.5	0.	126.94
1602	-6.5	-7.	0.	127.03
1603	-3.5	-0.49959	0.	128.05
1604	-6.	-4.5	0.	132.01
1605	1.5	-5.	0.	125.74
1606	-8.	7.	0.	122.1
1607	-4.5	1.5018	0.	128.51
1608	5.9997	-1.499	0.	122.21
1609	-3.	-6.5	0.	130.22
1610	5.1765e-007	6.5	0.	130.15
1611	1.5	-9.	0.	125.9
1612	-8.5	-2.	0.	121.06
1613	2.	-7.	0.	128.35
1614	-0.5	7.5	0.	129.55
1615	2.4999	-0.99985	0.	127.88
1616	2.	-3.9999	0.	129.76
1617	8.5	0.50001	0.	128.26
1618	0.5	8.5	0.	125.59
1619	7.	-0.49978	0.	122.4
1620	3.	-3.4997	0.	128.31
1621	-4.0003	2.5027	0.	124.51
1622	-2.	-6.5	0.	127.8
1623	1.5	1.	0.	126.05
1624	5.	7.	0.	122.46
1625	-9.	2.75	0.	142.29
1626	-8.75	3.	0.	124.64
1627	-9.	3.25	0.	131.2
1628	-9.25	3.	0.	134.71
1629	-9.	2.25	0.	142.76
1630	-8.75	2.	0.	126.25
1631	-9.	1.75	0.	133.21
1632	-9.25	2.	0.	136.48
1633	-8.25	3.	0.	123.64
1634	-8.	2.75	0.	138.79
1635	-8.	3.25	0.	130.1
1636	-7.75	3.	0.	135.75
1637	-8.25	2.	0.	124.39
1638	-8.	2.25	0.	138.23
1639	-7.75	2.	0.	129.66
1640	-8.	1.75	0.	129.72
1641	-7.	3.75	0.	139.24
1642	-6.75	4.	0.	122.59
1643	-7.25	4.	0.	132.38
1644	-7.	4.25	0.	129.11
1645	-7.	2.25	0.	134.16
1646	-6.75	2.	0.	120.13
1647	-7.25	2.	0.	128.41
1648	-7.	1.75	0.	127.73
1649	-6.25	4.	0.	124.29
1650	-6.	3.75	0.	141.29
1651	-6.0001	4.2501	0.	133.15
1652	-5.7501	4.0004	0.	135.99
1653	-6.25	2.	0.	121.05
1654	-6.	2.25	0.	137.75
1655	-5.75	2.0005	0.	132.39
1656	-6.	1.7502	0.	129.03
1657	-9.	-3.25	0.	142.3
1658	-8.75	-3.	0.	127.37
1659	-9.	-2.75	0.	132.4
1660	-9.25	-3.	0.	135.76
1661	-9.	-3.75	0.	142.48
1662	-8.75	-4.	0.	127.46
1663	-9.	-4.25	0.	132.18
1664	-9.25	-4.	0.	135.02
1665	-7.25	-3.	0.	124.22
1666	-7.	-3.25	0.	138.75
1667	-6.75	-3.	0.	132.32
1668	-7.	-2.75	0.	128.55
1669	-7.25	-4.	0.	125.73
1670	-7.	-3.75	0.	139.49
1671	-6.75	-4.	0.	133.36
1672	-7.	-4.25	0.	130.74
1673	2.	8.75	0.	137.69
1674	2.25	9.	0.	123.81
1675	1.75	9.	0.	130.95
1676	2.	9.25	0.	129.83
1677	2.	8.25	0.	135.66
1678	2.25	8.	0.	122.
1679	1.75	8.	0.	126.51
1680	2.	7.75	0.	126.32
1681	2.75	9.	0.	124.48
1682	3.	8.75	0.	140.18
1683	3.25	9.	0.	132.32
1684	3.	9.25	0.	130.6
1685	2.75	8.	0.	124.91
1686	3.	8.25	0.	140.51
1687	3.25	8.	0.	133.65
1688	3.	7.75	0.	132.07
1689	2.	3.75	0.	134.34
1690	2.25	4.	0.	120.87
1691	1.75	4.	0.	125.05
1692	2.	4.25	0.	125.43
1693	2.	3.25	0.	135.5
1694	2.25	3.	0.	121.96
1695	1.75	3.	0.	129.31
1696	2.	2.75	0.	127.77
1697	2.75	4.	0.	125.57
1698	3.	3.75	0.	143.35
1699	3.	4.25	0.	134.3
1700	3.25	4.	0.	140.76
1701	2.75	3.	0.	125.7
1702	3.	3.25	0.	143.39
1703	3.	2.75	0.	134.25
1704	3.25	3.	0.	138.23
1705	-1.	-1.25	0.	140.48
1706	-0.75	-1.	0.	124.93
1707	-1.25	-0.99994	0.	134.48
1708	-1.	-0.74996	0.	131.5
1709	-1.	-2.75	0.	140.02
1710	-0.75	-3.	0.	123.99
1711	-1.	-3.25	0.	130.6
1712	-1.25	-3.	0.	134.26
1713	0.75	-1.	0.	124.26
1714	1.	-1.25	0.	139.39
1715	0.99999	-0.74999	0.	130.8
1716	1.25	-0.99998	0.	133.29
1717	0.75	-3.	0.	122.36
1718	1.	-2.75	0.	137.9
1719	1.	-3.25	0.	128.26
1720	1.25	-3.	0.	131.81
1721	4.	4.75	0.	144.28
1722	4.25	5.	0.	126.98
1723	4.	5.25	0.	132.99
1724	3.75	5.	0.	136.39
1725	4.	3.25	0.	143.19
1726	4.25	3.	0.	128.45
1727	4.	2.75	0.	135.49
1728	3.75	3.	0.	138.68
1729	5.75	5.	0.	125.36
1730	6.	4.75	0.	141.84
1731	6.	5.25	0.	131.32
1732	6.25	5.	0.	136.07
1733	5.75	3.	0.	124.92
1734	6.	3.25	0.	138.12
1735	6.25	3.	0.	129.11
1736	6.	2.75	0.	129.73
1737	7.	5.75	0.	142.6
1738	7.25	6.	0.	125.18
1739	6.75	6.	0.	134.46
1740	7.	6.25	0.	130.92
1741	7.	5.25	0.	142.93
1742	7.25	5.	0.	124.98
1743	7.	4.75	0.	131.79
1744	6.75	5.	0.	136.54
1745	7.75	6.	0.	124.54
1746	8.	5.75	0.	140.25
1747	8.25	6.	0.	133.28
1748	8.	6.25	0.	130.48
1749	7.75	5.	0.	123.87
1750	8.	5.25	0.	140.08
1751	8.25	5.	0.	132.91
1752	8.	4.75	0.	129.89
1753	1.	6.75	0.	138.64
1754	1.25	7.	0.	122.08
1755	0.75	7.	0.	133.46
1756	1.	7.25	0.	130.76
1757	1.	5.25	0.	137.68
1758	1.25	5.	0.	120.64
1759	0.75	5.	0.	132.42
1760	1.	4.75	0.	129.11
1761	1.75	7.	0.	119.48
1762	2.	6.75	0.	134.26
1763	2.	7.25	0.	125.97
1764	2.25	7.	0.	127.02
1765	1.75	5.	0.	118.4
1766	2.	5.25	0.	133.73
1767	2.25	5.	0.	126.78
1768	2.	4.75	0.	125.22
1769	6.	1.75	0.	136.36
1770	6.25	2.	0.	123.64
1771	5.75	2.	0.	127.63
1772	6.	2.25	0.	129.65
1773	6.	1.25	0.	134.8
1774	6.25	1.	0.	120.26
1775	6.	0.75009	0.	125.31
1776	5.75	1.0001	0.	127.91
1777	6.75	2.	0.	125.28
1778	7.	1.75	0.	140.34
1779	7.	2.25	0.	132.02
1780	7.25	2.	0.	134.29
1781	6.75	1.	0.	122.56
1782	7.	1.25	0.	139.39
1783	7.	0.75003	0.	129.3
1784	7.25	1.	0.	132.46
1785	-5.	6.75	0.	139.54
1786	-4.75	7.	0.	124.36
1787	-5.25	7.	0.	133.11
1788	-5.	7.25	0.	130.08
1789	-5.	5.25	0.	142.97
1790	-4.75	5.	0.	127.79
1791	-5.2501	5.0002	0.	136.62
1792	-5.0001	4.7504	0.	135.16
1793	-3.25	7.	0.	125.26
1794	-3.	6.75	0.	140.78
1795	-3.	7.25	0.	131.98
1796	-2.75	7.	0.	134.52
1797	-3.25	5.	0.	125.67
1798	-3.	5.25	0.	140.86
1799	-2.75	5.0001	0.	134.69
1800	-3.	4.7503	0.	132.04
1801	7.	-6.25	0.	142.65
1802	7.25	-6.	0.	128.19
1803	6.75	-6.	0.	133.93
1804	7.	-5.7499	0.	131.94
1805	7.	-6.75	0.	143.44
1806	7.25	-7.	0.	128.82
1807	7.	-7.25	0.	133.85
1808	6.75	-7.	0.	136.63
1809	8.75	-6.	0.	128.98
1810	9.	-6.25	0.	143.45
1811	9.	-5.75	0.	133.17
1812	9.25	-6.	0.	136.03
1813	8.75	-7.	0.	128.85
1814	9.	-6.75	0.	143.46
1815	9.	-7.25	0.	133.11
1816	9.25	-7.	0.	135.86
1817	-9.	8.75	0.	141.2
1818	-8.75	9.	0.	125.65
1819	-9.25	9.	0.	132.99
1820	-9.	9.25	0.	131.12
1821	-9.	8.25	0.	140.17
1822	-8.75	8.	0.	123.5
1823	-9.	7.75	0.	129.02
1824	-9.25	8.	0.	132.2
1825	-8.25	9.	0.	125.71
1826	-8.	8.75	0.	140.71
1827	-7.75	9.	0.	133.15
1828	-8.	9.25	0.	131.65
1829	-8.25	8.	0.	123.44
1830	-8.	8.25	0.	139.56
1831	-8.	7.75	0.	129.16
1832	-7.75	8.	0.	132.44
1833	0.	-6.25	0.	132.17
1834	0.25	-6.	0.	115.33
1835	5.2458e-007	-5.75	0.	122.24
1836	-0.25	-6.	0.	126.74
1837	0.	-7.75	0.	133.95
1838	0.25	-8.	0.	117.23
1839	1.4637e-008	-8.25	0.	125.01
1840	-0.25	-8.	0.	128.8
1841	0.75	-6.	0.	116.03
1842	1.	-6.25	0.	133.3
1843	1.25	-6.	0.	128.34
1844	1.	-5.75	0.	123.86
1845	0.75	-8.	0.	117.2
1846	1.	-7.75	0.	133.97
1847	1.	-8.25	0.	125.05
1848	1.25	-8.	0.	128.98
1849	-5.	-4.25	0.	137.67
1850	-4.75	-4.	0.	120.39
1851	-5.	-3.75	0.	128.15
1852	-5.25	-4.	0.	131.86
1853	-5.	-5.75	0.	137.81
1854	-4.75	-6.	0.	120.53
1855	-5.	-6.25	0.	127.94
1856	-5.25	-6.	0.	131.91
1857	-4.25	-4.	0.	120.73
1858	-4.	-4.25	0.	138.41
1859	-4.	-3.75	0.	128.65
1860	-3.75	-4.	0.	133.05
1861	-4.25	-6.	0.	120.56
1862	-4.	-5.75	0.	137.84
1863	-3.75	-6.	0.	132.09
1864	-4.	-6.25	0.	128.07
1865	5.	-7.25	0.	136.3
1866	5.25	-7.	0.	118.91
1867	4.75	-7.	0.	130.55
1868	5.	-6.75	0.	126.81
1869	5.	-8.75	0.	135.84
1870	5.25	-9.	0.	118.37
1871	4.75	-9.	0.	130.8
1872	5.	-9.25	0.	125.78
1873	5.75	-7.	0.	119.29
1874	6.	-7.25	0.	138.35
1875	6.	-6.75	0.	127.09
1876	6.25	-7.	0.	133.39
1877	5.75	-9.	0.	117.73
1878	6.	-8.75	0.	135.35
1879	6.25	-9.	0.	128.99
1880	6.	-9.25	0.	124.32
1881	-8.	0.75	0.	134.43
1882	-7.75	1.	0.	120.21
1883	-8.	1.25	0.	128.19
1884	-8.25	1.	0.	128.17
1885	-8.	-0.75	0.	132.18
1886	-7.75	-1.	0.	115.25
1887	-8.	-1.25	0.	122.2
1888	-8.25	-1.	0.	126.96
1889	-7.25	1.	0.	119.84
1890	-7.	0.75	0.	133.52
1891	-7.	1.25	0.	127.22
1892	-6.75	1.0001	0.	126.36
1893	-7.25	-1.	0.	115.48
1894	-7.	-0.75	0.	132.5
1895	-6.75	-0.99995	0.	127.97
1896	-7.	-1.25	0.	123.52
1897	9.75	10.	0.	124.98
1898	10.	9.75	0.	125.01
1899	-9.75	10.	0.	124.86
1900	-10.	9.75	0.	125.04
1901	10.	-9.75	0.	128.88
1902	9.75	-10.	0.	128.32
1903	-10.	-9.75	0.	125.69
1904	-9.75	-10.	0.	125.65
1905	-9.25	2.5	0.	141.32
1906	-8.5	3.25	0.	113.39
1907	-8.5	1.75	0.	117.56
1908	-7.75	2.5	0.	138.37
1909	-7.	3.25	0.	143.14
1910	-7.25	3.5	0.	140.27
1911	-7.	2.75	0.	139.76
1912	-7.25	3.	0.	139.44
1913	-7.25	2.5	0.	135.73
1914	-6.5001	4.25	0.	112.24
1915	-6.5	1.7501	0.	112.75
1916	-6.	3.25	0.	144.2
1917	-5.7501	3.5005	0.	139.75
1918	-6.	2.75	0.	143.08
1919	-5.7501	3.0006	0.	139.41
1920	-5.75	2.5005	0.	137.88
1921	-9.25	-3.5	0.	140.69
1922	-8.25	-3.	0.	119.61
1923	-8.5	-2.75	0.	117.76
1924	-7.75	-3.	0.	118.07
1925	-8.	-2.75	0.	118.43
1926	-7.5	-2.75	0.	114.27
1927	-8.25	-4.	0.	120.11
1928	-8.5	-4.25	0.	117.56
1929	-7.75	-4.	0.	119.54
1930	-8.	-4.25	0.	119.93
1931	-7.5	-4.25	0.	116.69
1932	-6.75	-3.5	0.	137.58
1933	1.75	8.5	0.	133.9
1934	2.5	9.25	0.	114.79
1935	2.5	7.75	0.	116.24
1936	3.25	8.5	0.	137.66
1937	1.75	3.5	0.	132.33
1938	2.5	4.25	0.	115.29
1939	2.5	2.75	0.	113.96
1940	3.25	3.5	0.	144.49
1941	-1.	-1.75	0.	145.57
1942	-1.25	-1.5	0.	140.25
1943	-1.	-2.25	0.	145.49
1944	-1.25	-2.	0.	141.61
1945	-1.25	-2.5	0.	140.23
1946	-0.25	-1.	0.	116.52
1947	-0.50002	-0.74998	0.	114.7
1948	0.25	-1.	0.	116.24
1949	-1.1408e-005	-0.74999	0.	116.68
1950	0.49999	-0.75	0.	114.22
1951	-0.25	-3.	0.	115.06
1952	-0.5	-3.25	0.	113.28
1953	0.25	-3.	0.	114.53
1954	-5.979e-008	-3.25	0.	114.64
1955	0.5	-3.25	0.	112.09
1956	1.	-1.75	0.	144.03
1957	1.25	-1.5	0.	138.72
1958	1.	-2.25	0.	143.64
1959	1.25	-2.	0.	139.72
1960	1.25	-2.5	0.	138.02
1961	4.	4.25	0.	150.14
1962	3.75	4.5	0.	145.67
1963	4.	3.75	0.	148.45
1964	3.75	4.	0.	146.53
1965	3.75	3.5	0.	143.92
1966	4.75	5.	0.	117.85
1967	4.5	5.25	0.	115.84
1968	5.25	5.	0.	117.29
1969	5.	5.25	0.	117.58
1970	5.5	5.25	0.	114.83
1971	4.75	3.	0.	120.21
1972	4.5	2.75	0.	117.96
1973	5.25	3.	0.	119.98
1974	5.	2.75	0.	120.7
1975	5.5	2.75	0.	118.89
1976	6.	4.25	0.	147.1
1977	6.25	4.5	0.	142.69
1978	6.	3.75	0.	145.04
1979	6.25	4.	0.	141.04
1980	6.25	3.5	0.	137.01
1981	6.75	5.5	0.	142.48
1982	7.5	6.25	0.	114.33
1983	7.5	4.75	0.	113.39
1984	8.25	5.5	0.	138.27
1985	1.	6.25	0.	142.36
1986	0.75	6.5	0.	138.42
1987	1.	5.75	0.	142.1
1988	0.75	6.	0.	138.98
1989	0.75	5.5	0.	137.95
1990	1.5	7.25	0.	112.73
1991	1.5	4.75	0.	111.11
1992	2.	6.25	0.	139.44
1993	2.25	6.5	0.	134.55
1994	2.	5.75	0.	139.23
1995	2.25	6.	0.	136.31
1996	2.25	5.5	0.	134.67
1997	5.75	1.5	0.	132.3
1998	6.5	2.25	0.	116.97
1999	6.5	0.75006	0.	111.36
2000	7.25	1.5	0.	138.07
2001	-5.	6.25	0.	145.47
2002	-5.25	6.5	0.	139.18
2003	-5.	5.75	0.	146.43
2004	-5.25	6.	0.	141.01
2005	-5.25	5.5001	0.	140.55
2006	-4.25	7.	0.	116.89
2007	-4.5	7.25	0.	114.69
2008	-3.75	7.	0.	116.84
2009	-4.	7.25	0.	117.12
2010	-3.5	7.25	0.	114.89
2011	-4.25	5.	0.	118.66
2012	-4.5001	4.7506	0.	116.93
2013	-3.75	5.	0.	117.97
2014	-4.0001	4.7505	0.	118.45
2015	-3.5	4.7504	0.	115.58
2016	-3.	6.25	0.	145.71
2017	-2.75	6.5	0.	140.24
2018	-3.	5.75	0.	145.78
2019	-2.75	6.	0.	141.58
2020	-2.75	5.5	0.	140.33
2021	6.75	-6.5	0.	141.13
2022	7.75	-6.	0.	122.25
2023	7.5	-5.75	0.	119.09
2024	8.25	-6.	0.	122.52
2025	8.	-5.75	0.	122.33
2026	8.5	-5.75	0.	119.54
2027	7.75	-7.	0.	122.06
2028	7.5	-7.25	0.	119.03
2029	8.25	-7.	0.	122.26
2030	8.	-7.25	0.	122.06
2031	8.5	-7.25	0.	119.24
2032	9.25	-6.5	0.	141.33
2033	-9.25	8.5	0.	138.38
2034	-8.5	9.25	0.	115.99
2035	-8.5	7.75	0.	113.
2036	-7.75	8.5	0.	137.89
2037	0.	-6.75	0.	137.83
2038	-0.25	-6.5	0.	133.49
2039	0.	-7.25	0.	138.38
2040	-0.25	-7.	0.	135.09
2041	-0.25	-7.5	0.	134.52
2042	0.5	-5.75	0.	105.02
2043	0.5	-8.25	0.	106.74
2044	1.	-6.75	0.	138.42
2045	1.25	-6.5	0.	134.46
2046	1.	-7.25	0.	138.61
2047	1.25	-7.	0.	135.58
2048	1.25	-7.5	0.	134.73
2049	-5.	-4.75	0.	143.04
2050	-5.25	-4.5	0.	138.68
2051	-5.	-5.25	0.	143.17
2052	-5.25	-5.	0.	140.01
2053	-5.25	-5.5	0.	138.62
2054	-4.5	-3.75	0.	109.7
2055	-4.5	-6.25	0.	109.77
2056	-4.	-4.75	0.	143.54
2057	-3.75	-4.5	0.	139.34
2058	-4.	-5.25	0.	143.29
2059	-3.75	-5.	0.	140.19
2060	-3.75	-5.5	0.	138.71
2061	5.	-7.75	0.	141.32
2062	4.75	-7.5	0.	136.94
2063	5.	-8.25	0.	141.29
2064	4.75	-8.	0.	138.15
2065	4.75	-8.5	0.	137.09
2066	5.5	-6.75	0.	107.97
2067	5.5	-9.25	0.	106.83
2068	6.	-7.75	0.	144.13
2069	6.25	-7.5	0.	141.28
2070	6.	-8.25	0.	142.6
2071	6.25	-8.	0.	139.88
2072	6.25	-8.5	0.	136.61
2073	-8.	0.25	0.	138.16
2074	-8.25	0.5	0.	134.17
2075	-8.	-0.25	0.	137.68
2076	-8.25	5.3203e-009	0.	135.24
2077	-8.25	-0.5	0.	133.8
2078	-7.5	1.25	0.	114.77
2079	-7.5	-1.25	0.	104.67
2080	-7.	0.25	0.	137.31
2081	-6.75	0.50009	0.	132.7
2082	-7.	-0.25	0.	137.44
2083	-6.75	7.7347e-005	0.	134.18
2084	-6.75	-0.49994	0.	133.5
2085	9.25	10.	0.	124.87
2086	9.5	9.75	0.	125.03
2087	8.75	10.	0.	124.61
2088	9.	9.75	0.	124.81
2089	8.25	10.	0.	124.28
2090	8.5	9.75	0.	124.5
2091	7.75	10.	0.	123.99
2092	8.	9.75	0.	124.2
2093	7.25	10.	0.	123.79
2094	7.5	9.75	0.	123.96
2095	6.75	10.	0.	123.74
2096	7.	9.75	0.	123.84
2097	6.25	10.	0.	123.85
2098	6.5	9.75	0.	123.84
2099	5.75	10.	0.	124.14
2100	6.	9.75	0.	123.97
2101	5.25	10.	0.	124.64
2102	5.5	9.75	0.	124.22
2103	4.75	10.	0.	125.37
2104	5.	9.75	0.	124.62
2105	4.25	10.	0.	126.22
2106	4.5	9.75	0.	125.2
2107	3.75	10.	0.	126.07
2108	4.	9.75	0.	126.08
2109	3.25	10.	0.	123.19
2110	3.5	9.75	0.	126.99
2111	2.75	10.	0.	119.96
2112	3.	9.75	0.	122.93
2113	2.25	10.	0.	119.89
2114	2.5	9.75	0.	117.58
2115	1.75	10.	0.	123.12
2116	2.	9.75	0.	122.7
2117	1.25	10.	0.	126.49
2118	1.5	9.75	0.	126.95
2119	0.75	10.	0.	127.61
2120	1.	9.75	0.	126.76
2121	0.25	10.	0.	127.93
2122	0.5	9.75	0.	126.94
2123	-0.25	10.	0.	128.22
2124	2.6765e-009	9.75	0.	127.42
2125	-0.75	10.	0.	128.34
2126	-0.5	9.75	0.	127.77
2127	-1.25	10.	0.	128.1
2128	-1.	9.75	0.	127.84
2129	-1.75	10.	0.	127.42
2130	-1.5	9.75	0.	127.53
2131	-2.25	10.	0.	126.31
2132	-2.	9.75	0.	126.81
2133	-2.75	10.	0.	124.96
2134	-2.5	9.75	0.	125.72
2135	-3.25	10.	0.	123.69
2136	-3.	9.75	0.	124.46
2137	-3.75	10.	0.	122.84
2138	-3.5	9.75	0.	123.39
2139	-4.25	10.	0.	122.62
2140	-4.	9.75	0.	122.83
2141	-4.75	10.	0.	123.06
2142	-4.5	9.75	0.	122.96
2143	-5.25	10.	0.	124.02
2144	-5.	9.75	0.	123.65
2145	-5.75	10.	0.	125.26
2146	-5.5	9.75	0.	124.63
2147	-6.25	10.	0.	126.56
2148	-6.	9.75	0.	125.62
2149	-6.75	10.	0.	127.72
2150	-6.5	9.75	0.	126.49
2151	-7.25	10.	0.	127.61
2152	-7.	9.75	0.	127.43
2153	-7.75	10.	0.	124.5
2154	-7.5	9.75	0.	128.25
2155	-8.25	10.	0.	120.85
2156	-8.	9.75	0.	124.03
2157	-8.75	10.	0.	120.26
2158	-8.5	9.75	0.	118.37
2159	-9.25	10.	0.	122.57
2160	-9.	9.75	0.	123.04
2161	-9.5	9.75	0.	126.38
2162	10.	9.25	0.	125.24
2163	9.75	9.5	0.	125.05
2164	10.	8.75	0.	125.82
2165	9.75	9.	0.	125.45
2166	10.	8.25	0.	126.62
2167	9.75	8.5	0.	126.06
2168	10.	7.75	0.	127.38
2169	9.75	8.	0.	126.78
2170	10.	7.25	0.	127.7
2171	9.75	7.5	0.	127.41
2172	10.	6.75	0.	127.17
2173	9.75	7.	0.	127.63
2174	10.	6.25	0.	125.79
2175	9.75	6.5	0.	127.07
2176	10.	5.75	0.	124.37
2177	9.75	6.	0.	125.87
2178	10.	5.25	0.	123.99
2179	9.75	5.5	0.	125.06
2180	10.	4.75	0.	124.8
2181	9.75	5.	0.	125.33
2182	10.	4.25	0.	125.92
2183	9.75	4.5	0.	126.23
2184	10.	3.75	0.	126.6
2185	9.75	4.	0.	126.84
2186	10.	3.25	0.	126.73
2187	9.75	3.5	0.	126.98
2188	10.	2.75	0.	126.55
2189	9.75	3.	0.	126.87
2190	10.	2.25	0.	126.3
2191	9.75	2.5	0.	126.68
2192	10.	1.75	0.	126.21
2193	9.75	2.	0.	126.53
2194	10.	1.25	0.	126.42
2195	9.75	1.5	0.	126.56
2196	10.	0.75	0.	126.89
2197	9.75	1.	0.	126.84
2198	10.	0.25	0.	127.42
2199	9.75	0.5	0.	127.25
2200	10.	-0.25	0.	127.78
2201	9.75	3.1034e-007	0.	127.58
2202	10.	-0.75	0.	127.9
2203	9.75	-0.5	0.	127.71
2204	10.	-1.25	0.	127.82
2205	9.75	-1.	0.	127.64
2206	10.	-1.75	0.	127.69
2207	9.75	-1.5	0.	127.48
2208	10.	-2.25	0.	127.66
2209	9.75	-2.	0.	127.36
2210	10.	-2.75	0.	127.87
2211	9.75	-2.5	0.	127.38
2212	10.	-3.25	0.	128.48
2213	9.75	-3.	0.	127.64
2214	10.	-3.75	0.	129.63
2215	9.75	-3.5	0.	128.23
2216	10.	-4.25	0.	131.44
2217	9.75	-4.	0.	129.27
2218	10.	-4.75	0.	133.73
2219	9.75	-4.5	0.	130.79
2220	10.	-5.25	0.	134.73
2221	9.75	-5.	0.	132.74
2222	10.	-5.75	0.	131.78
2223	9.75	-5.5	0.	134.39
2224	10.	-6.25	0.	126.5
2225	9.75	-6.	0.	131.61
2226	10.	-6.75	0.	126.16
2227	9.75	-6.5	0.	128.97
2228	10.	-7.25	0.	130.9
2229	9.75	-7.	0.	131.1
2230	10.	-7.75	0.	133.63
2231	9.75	-7.5	0.	133.64
2232	10.	-8.25	0.	132.73
2233	9.75	-8.	0.	131.98
2234	10.	-8.75	0.	130.79
2235	9.75	-8.5	0.	130.23
2236	10.	-9.25	0.	129.48
2237	9.75	-9.	0.	129.09
2238	9.75	-9.5	0.	128.49
2239	-10.	9.25	0.	123.73
2240	-9.75	9.5	0.	126.56
2241	-10.	8.75	0.	121.83
2242	-9.75	9.	0.	126.31
2243	-10.	8.25	0.	123.31
2244	-9.75	8.5	0.	125.81
2245	-10.	7.75	0.	127.82
2246	-9.75	8.	0.	128.08
2247	-10.	7.25	0.	129.74
2248	-9.75	7.5	0.	129.97
2249	-10.	6.75	0.	128.55
2250	-9.75	7.	0.	128.06
2251	-10.	6.25	0.	126.94
2252	-9.75	6.5	0.	126.56
2253	-10.	5.75	0.	126.32
2254	-9.75	6.	0.	125.96
2255	-10.	5.25	0.	126.66
2256	-9.75	5.5	0.	126.03
2257	-10.	4.75	0.	127.87
2258	-9.75	5.	0.	126.65
2259	-10.	4.25	0.	129.95
2260	-9.75	4.5	0.	127.81
2261	-10.	3.75	0.	131.61
2262	-9.75	4.	0.	129.77
2263	-10.	3.25	0.	130.67
2264	-9.75	3.5	0.	132.21
2265	-10.	2.75	0.	128.22
2266	-9.75	3.	0.	131.21
2267	-10.	2.25	0.	129.82
2268	-9.75	2.5	0.	130.94
2269	-10.	1.75	0.	134.51
2270	-9.75	2.	0.	134.02
2271	-10.	1.25	0.	135.78
2272	-9.75	1.5	0.	136.
2273	-10.	0.75	0.	133.34
2274	-9.75	1.	0.	133.39
2275	-10.	0.25	0.	130.76
2276	-9.75	0.5	0.	131.08
2277	-10.	-0.25	0.	130.02
2278	-9.75	4.0274e-009	0.	130.
2279	-10.	-0.75	0.	131.15
2280	-9.75	-0.5	0.	130.17
2281	-10.	-1.25	0.	133.61
2282	-9.75	-1.	0.	131.43
2283	-10.	-1.75	0.	136.37
2284	-9.75	-1.5	0.	133.29
2285	-10.	-2.25	0.	137.28
2286	-9.75	-2.	0.	135.06
2287	-10.	-2.75	0.	133.73
2288	-9.75	-2.5	0.	136.12
2289	-10.	-3.25	0.	127.54
2290	-9.75	-3.	0.	132.68
2291	-10.	-3.75	0.	126.24
2292	-9.75	-3.5	0.	129.14
2293	-10.	-4.25	0.	130.23
2294	-9.75	-4.	0.	130.53
2295	-10.	-4.75	0.	132.5
2296	-9.75	-4.5	0.	132.69
2297	-10.	-5.25	0.	131.26
2298	-9.75	-5.	0.	130.73
2299	-10.	-5.75	0.	128.98
2300	-9.75	-5.5	0.	128.67
2301	-10.	-6.25	0.	127.3
2302	-9.75	-6.	0.	127.21
2303	-10.	-6.75	0.	126.32
2304	-9.75	-6.5	0.	126.32
2305	-10.	-7.25	0.	125.84
2306	-9.75	-7.	0.	125.85
2307	-10.	-7.75	0.	125.66
2308	-9.75	-7.5	0.	125.65
2309	-10.	-8.25	0.	125.62
2310	-9.75	-8.	0.	125.59
2311	-10.	-8.75	0.	125.64
2312	-9.75	-8.5	0.	125.6
2313	-10.	-9.25	0.	125.67
2314	-9.75	-9.	0.	125.62
2315	-9.75	-9.5	0.	125.64
2316	-9.25	-10.	0.	125.56
2317	-9.5	-9.75	0.	125.6
2318	-8.75	-10.	0.	125.49
2319	-9.	-9.75	0.	125.52
2320	-8.25	-10.	0.	125.42
2321	-8.5	-9.75	0.	125.45
2322	-7.75	-10.	0.	125.33
2323	-8.	-9.75	0.	125.38
2324	-7.25	-10.	0.	125.21
2325	-7.5	-9.75	0.	125.29
2326	-6.75	-10.	0.	125.04
2327	-7.	-9.75	0.	125.16
2328	-6.25	-10.	0.	124.82
2329	-6.5	-9.75	0.	124.96
2330	-5.75	-10.	0.	124.59
2331	-6.	-9.75	0.	124.71
2332	-5.25	-10.	0.	124.43
2333	-5.5	-9.75	0.	124.47
2334	-4.75	-10.	0.	124.45
2335	-5.	-9.75	0.	124.36
2336	-4.25	-10.	0.	124.73
2337	-4.5	-9.75	0.	124.48
2338	-3.75	-10.	0.	125.24
2339	-4.	-9.75	0.	124.89
2340	-3.25	-10.	0.	125.91
2341	-3.5	-9.75	0.	125.53
2342	-2.75	-10.	0.	126.57
2343	-3.	-9.75	0.	126.26
2344	-2.25	-10.	0.	127.04
2345	-2.5	-9.75	0.	126.89
2346	-1.75	-10.	0.	127.05
2347	-2.	-9.75	0.	127.22
2348	-1.25	-10.	0.	126.26
2349	-1.5	-9.75	0.	127.
2350	-0.75	-10.	0.	124.43
2351	-1.	-9.75	0.	125.83
2352	-0.25	-10.	0.	121.88
2353	-0.5	-9.75	0.	123.38
2354	0.25	-10.	0.	120.
2355	2.905e-008	-9.75	0.	120.41
2356	0.75	-10.	0.	120.27
2357	0.5	-9.75	0.	119.11
2358	1.25	-10.	0.	122.74
2359	1.	-9.75	0.	120.92
2360	1.75	-10.	0.	126.01
2361	1.5	-9.75	0.	124.5
2362	2.25	-10.	0.	128.79
2363	2.	-9.75	0.	127.74
2364	2.75	-10.	0.	130.77
2365	2.5	-9.75	0.	129.92
2366	3.25	-10.	0.	132.16
2367	3.	-9.75	0.	131.41
2368	3.75	-10.	0.	132.92
2369	3.5	-9.75	0.	132.47
2370	4.25	-10.	0.	131.33
2371	4.	-9.75	0.	132.9
2372	4.75	-10.	0.	124.22
2373	4.5	-9.75	0.	130.72
2374	5.25	-10.	0.	115.4
2375	5.	-9.75	0.	119.65
2376	5.75	-10.	0.	114.59
2377	5.5	-9.75	0.	109.81
2378	6.25	-10.	0.	121.77
2379	6.	-9.75	0.	118.05
2380	6.75	-10.	0.	127.27
2381	6.5	-9.75	0.	127.54
2382	7.25	-10.	0.	127.53
2383	7.	-9.75	0.	128.12
2384	7.75	-10.	0.	126.22
2385	7.5	-9.75	0.	126.51
2386	8.25	-10.	0.	125.61
2387	8.	-9.75	0.	125.36
2388	8.75	-10.	0.	126.05
2389	8.5	-9.75	0.	125.37
2390	9.25	-10.	0.	127.21
2391	9.	-9.75	0.	126.44
2392	9.5	-9.75	0.	127.93
2393	5.2495	-2.9987	0.	124.07
2394	4.9997	-3.2489	0.	124.59
2395	4.9996	-2.7487	0.	124.13
2396	4.7497	-2.9989	0.	124.67
2397	4.7496	-2.4986	0.	124.21
2398	4.4996	-2.2487	0.	124.37
2399	4.4997	-2.7488	0.	124.75
2400	4.2497	-2.4989	0.	124.81
2401	5.4995	-2.7486	0.	123.57
2402	5.4996	-3.2489	0.	124.02
2403	5.7495	-2.9988	0.	123.54
2404	4.7498	-3.4991	0.	125.19
2405	5.2497	-3.4991	0.	124.55
2406	4.9998	-3.7492	0.	125.02
2407	5.2495	-2.4986	0.	123.63
2408	4.9996	-2.2486	0.	123.76
2409	5.7495	-2.4987	0.	123.14
2410	5.4995	-2.2486	0.	123.18
2411	4.2497	-1.9989	0.	124.51
2412	3.9997	-1.7492	0.	124.8
2413	3.9997	-2.2491	0.	124.95
2414	3.7497	-1.9993	0.	125.06
2415	4.4997	-1.7489	0.	124.22
2416	4.7496	-1.9987	0.	123.92
2417	4.4998	-3.2491	0.	125.27
2418	4.4999	-3.7493	0.	125.77
2419	4.2498	-3.4993	0.	125.97
2420	4.2498	-2.9991	0.	125.35
2421	5.7496	-3.4991	0.	124.01
2422	5.4997	-3.7492	0.	124.49
2423	4.2499	-3.9995	0.	126.49
2424	4.7499	-3.9994	0.	125.6
2425	4.4999	-4.2495	0.	126.09
2426	-1.2501	2.5001	0.	127.08
2427	-1.	2.7501	0.	127.28
2428	-1.0001	2.2501	0.	126.5
2429	-0.75004	2.5	0.	126.52
2430	4.2497	-1.4991	0.	124.51
2431	3.9998	-1.2493	0.	124.96
2432	3.7498	-1.4994	0.	125.1
2433	5.9995	-3.2491	0.	123.53
2434	6.2495	-2.9991	0.	123.11
2435	5.9995	-2.7489	0.	123.11
2436	-2.7503	1.5013	0.	127.5
2437	-3.0003	1.2514	0.	127.83
2438	-3.0003	1.7517	0.	126.9
2439	-3.2503	1.5017	0.	127.3
2440	-2.2503	2.0009	0.	127.06
2441	-1.7502	2.0004	0.	127.01
2442	-2.0002	2.2506	0.	127.23
2443	-2.0002	1.7506	0.	127.33
2444	4.	-4.2496	0.	127.17
2445	3.75	-3.9996	0.	127.51
2446	3.9999	-3.7494	0.	126.69
2447	3.9998	-2.7492	0.	125.41
2448	3.7498	-2.4993	0.	125.42
2449	-0.75006	2.0001	0.	125.76
2450	-0.50003	2.25	0.	125.79
2451	-0.50005	1.75	0.	124.88
2452	-0.25003	2.	0.	125.22
2453	3.75	-4.4997	0.	127.93
2454	4.25	-4.4996	0.	126.77
2455	4.	-4.7497	0.	127.47
2456	-4.	-0.24953	0.	127.57
2457	-4.	-0.74974	0.	127.06
2458	-4.25	-0.49965	0.	127.13
2459	-3.75	-0.49963	0.	127.69
2460	4.7497	-1.4989	0.	123.87
2461	4.4997	-1.2491	0.	124.35
2462	-1.5001	2.2502	0.	127.09
2463	-1.7502	2.5004	0.	127.31
2464	-1.5001	2.7502	0.	127.72
2465	-3.5001	0.75119	0.	128.23
2466	-3.5001	0.25082	0.	128.42
2467	-3.7501	0.501	0.	128.28
2468	-3.2501	0.50091	0.	128.69
2469	-2.5003	1.7511	0.	127.28
2470	-2.2502	1.5008	0.	127.55
2471	-2.5002	1.2509	0.	128.05
2472	3.4998	-1.7495	0.	125.36
2473	3.4998	-2.2494	0.	125.53
2474	3.2498	-1.9995	0.	125.64
2475	3.5	-4.2497	0.	128.27
2476	3.5	-4.7498	0.	128.61
2477	3.25	-4.4997	0.	128.95
2478	-3.7501	6.4713e-004	0.	128.11
2479	-4.	0.25082	0.	127.96
2480	-4.25	6.2044e-004	0.	127.59
2481	6.2496	-3.4993	0.	123.49
2482	5.9997	-3.7493	0.	124.05
2483	5.2498	-3.9993	0.	124.97
2484	4.9999	-4.2494	0.	125.24
2485	-1.	3.2501	0.	128.18
2486	-1.2501	3.0001	0.	127.91
2487	-0.75003	3.	0.	127.33
2488	-3.2502	1.0013	0.	128.16
2489	-3.0002	0.75101	0.	128.61
2490	-2.7502	1.001	0.	128.38
2491	4.2498	-0.99931	0.	124.8
2492	3.9998	-0.74948	0.	125.31
2493	3.7498	-0.99949	0.	125.45
2494	-0.25004	1.5	0.	124.12
2495	-2.7862e-005	1.25	0.	123.
2496	-2.1868e-005	1.75	0.	124.47
2497	0.24998	1.5	0.	124.13
2498	6.2496	-1.999	0.	122.53
2499	6.4997	-1.7493	0.	122.31
2500	6.7497	-1.9994	0.	122.63
2501	6.4996	-2.2492	0.	122.59
2502	4.9996	-1.7487	0.	123.57
2503	5.2496	-1.9986	0.	123.31
2504	5.9995	-2.2489	0.	122.75
2505	5.7496	-1.9987	0.	122.8
2506	5.9996	-1.7489	0.	122.39
2507	-2.7503	2.0015	0.	126.68
2508	-3.2503	2.002	0.	126.21
2509	-3.0004	2.2519	0.	125.97
2510	-2.5003	2.2512	0.	126.79
2511	-1.2501	2.0002	0.	126.5
2512	-1.0001	1.7501	0.	125.84
2513	-1.5001	1.7503	0.	126.8
2514	3.7498	-2.9993	0.	126.09
2515	3.9998	-3.2493	0.	126.05
2516	6.4996	-3.2493	0.	123.07
2517	6.7496	-2.9994	0.	122.81
2518	6.4995	-2.7492	0.	122.81
2519	-0.50003	2.75	0.	126.58
2520	-0.25002	2.5	0.	125.93
2521	4.5	-4.7497	0.	126.13
2522	4.7499	-4.4996	0.	125.72
2523	-4.	-1.2498	0.	126.43
2524	-4.25	-0.9998	0.	126.66
2525	-3.75	-0.99979	0.	127.12
2526	5.2497	-1.4988	0.	123.15
2527	4.9997	-1.2489	0.	123.62
2528	-4.5	-0.2495	0.	127.14
2529	-4.5	-0.74971	0.	126.73
2530	-4.75	-0.49963	0.	126.81
2531	-3.7501	1.0015	0.	128.07
2532	-3.5002	1.2516	0.	127.63
2533	-3.5003	2.2525	0.	125.29
2534	-3.2504	2.5024	0.	125.05
2535	-3.5004	2.7528	0.	123.81
2536	-3.7503	2.5027	0.	124.54
2537	-2.2502	2.5009	0.	126.96
2538	-2.0002	2.7506	0.	127.62
2539	3.2498	-1.4996	0.	125.74
2540	3.4998	-1.2495	0.	125.59
2541	-3.2501	6.4464e-004	0.	128.84
2542	-3.5001	-0.24946	0.	128.23
2543	-0.75007	1.5001	0.	124.94
2544	-0.50006	1.2501	0.	123.68
2545	-1.7502	1.5004	0.	127.11
2546	-2.0002	1.2505	0.	127.86
2547	3.5	-3.7496	0.	127.68
2548	3.25	-3.9997	0.	128.54
2549	3.4998	-2.7494	0.	126.09
2550	3.2498	-2.4995	0.	126.05
2551	4.7498	-0.99913	0.	124.1
2552	4.4998	-0.74932	0.	124.71
2553	3.75	-4.9998	0.	128.15
2554	3.25	-4.9998	0.	129.1
2555	3.5	-5.2498	0.	128.76
2556	-4.0001	0.75127	0.	128.12
2557	-4.25	0.50103	0.	128.06
2558	6.7496	-3.4995	0.	122.93
2559	6.4997	-3.7494	0.	123.47
2560	-1.	3.7501	0.	129.04
2561	-1.25	3.5001	0.	128.92
2562	-0.75001	3.5	0.	128.29
2563	-1.7501	3.0004	0.	128.03
2564	-1.5001	3.2502	0.	128.66
2565	-3.0001	0.25073	0.	129.11
2566	-2.7502	0.50075	0.	129.22
2567	0.24998	1.	0.	122.48
2568	-0.25004	1.	0.	122.55
2569	-3.3401e-005	0.75002	0.	120.89
2570	-2.2502	1.0007	0.	128.36
2571	-2.5002	0.75074	0.	128.99
2572	3.	-4.7498	0.	129.44
2573	2.75	-4.4998	0.	129.6
2574	3.	-4.2498	0.	129.22
2575	2.9998	-1.7497	0.	126.01
2576	2.9999	-2.2496	0.	126.17
2577	2.7499	-1.9997	0.	126.45
2578	3.2499	1.6092e-004	0.	126.95
2579	3.4999	0.25017	0.	126.44
2580	3.7499	2.5987e-004	0.	126.07
2581	3.4999	-0.24975	0.	126.35
2582	3.9999	-0.24962	0.	125.59
2583	4.2499	-0.49948	0.	125.22
2584	3.7499	-0.49962	0.	125.87
2585	-1.8263e-005	2.25	0.	125.36
2586	0.24998	2.	0.	125.24
2587	4.25	-4.9997	0.	126.83
2588	4.	-5.2498	0.	127.74
2589	6.4998	-1.2494	0.	121.87
2590	6.7498	-1.4995	0.	122.45
2591	6.2497	-1.4992	0.	122.18
2592	6.9998	-1.7496	0.	122.77
2593	7.2498	-1.9997	0.	123.13
2594	6.9997	-2.2495	0.	122.78
2595	-1.	5.75	0.	128.14
2596	-1.	6.25	0.	128.12
2597	-0.75	6.	0.	128.27
2598	-1.25	6.	0.	128.27
2599	3.	0.25009	0.	127.32
2600	3.25	0.5001	0.	126.82
2601	2.75	0.50005	0.	127.49
2602	3.	0.75006	0.	127.05
2603	-3.7504	3.003	0.	122.78
2604	-4.0004	3.2531	0.	121.41
2605	-4.2504	3.003	0.	123.36
2606	-4.0004	2.753	0.	123.53
2607	-0.50002	3.25	0.	127.45
2608	-0.25002	3.	0.	126.51
2609	-4.5	0.25083	0.	127.68
2610	-4.75	6.1514e-004	0.	127.13
2611	-4.25	-1.4999	0.	126.03
2612	-4.	-1.7499	0.	125.67
2613	-3.75	-1.4999	0.	126.49
2614	5.4997	-1.2489	0.	122.74
2615	5.4996	-1.7487	0.	122.9
2616	5.7497	-1.4989	0.	122.49
2617	-4.5	-1.2498	0.	126.26
2618	-4.5	-1.7499	0.	125.44
2619	-4.75	-1.4999	0.	126.39
2620	-4.75	-0.99979	0.	126.68
2621	-3.7503	2.0024	0.	126.12
2622	-3.5003	1.752	0.	126.61
2623	-2.7503	2.5016	0.	126.08
2624	-3.0003	2.752	0.	125.2
2625	-2.5003	2.7512	0.	126.72
2626	-1.2501	1.5002	0.	126.14
2627	-1.0001	1.2501	0.	125.27
2628	-1.5001	1.2503	0.	126.9
2629	3.2499	-2.9995	0.	126.89
2630	3.4999	-3.2495	0.	126.9
2631	6.9996	-3.2495	0.	122.68
2632	7.2497	-2.9996	0.	122.76
2633	6.9996	-2.7495	0.	122.74
2634	-3.	-1.7499	0.	128.02
2635	-2.75	-2.	0.	128.72
2636	-3.	-2.25	0.	128.54
2637	-3.25	-1.9999	0.	127.33
2638	5.2498	-0.99904	0.	123.21
2639	4.9998	-0.74918	0.	123.99
2640	3.	-5.2499	0.	129.35
2641	2.75	-4.9998	0.	129.6
2642	-5.	-0.24951	0.	126.79
2643	-5.	-0.7497	0.	126.75
2644	-5.25	-0.49964	0.	126.71
2645	-4.25	1.0015	0.	128.34
2646	-4.0001	1.2517	0.	127.81
2647	6.9997	-3.7496	0.	122.68
2648	7.2497	-3.4996	0.	122.5
2649	6.2497	-3.9994	0.	124.04
2650	5.9998	-4.2495	0.	124.73
2651	5.7498	-3.9994	0.	124.53
2652	-1.25	4.0001	0.	129.78
2653	-0.75	4.	0.	129.2
2654	-1.	4.2501	0.	129.5
2655	-0.99999	5.25	0.	128.66
2656	-1.25	5.5	0.	128.6
2657	-0.75	5.5	0.	128.52
2658	-3.2504	3.0024	0.	123.96
2659	-3.5004	3.2526	0.	122.23
2660	-2.2502	3.0009	0.	127.38
2661	-2.0001	3.2506	0.	128.56
2662	0.49999	1.25	0.	123.63
2663	0.74999	1.	0.	123.73
2664	0.49998	0.75001	0.	121.94
2665	2.7499	-1.4998	0.	126.63
2666	2.9998	-1.2497	0.	126.37
2667	2.9999	-0.24985	0.	127.34
2668	2.7499	9.5541e-005	0.	127.99
2669	-2.7501	5.4933e-004	0.	129.77
2670	-3.0001	-0.24949	0.	129.17
2671	-3.	-1.2498	0.	128.25
2672	-2.75	-1.4999	0.	128.65
2673	-3.25	-1.4999	0.	127.44
2674	-0.50006	0.75006	0.	122.11
2675	-0.75008	1.0001	0.	124.
2676	-1.7502	1.0004	0.	127.64
2677	-2.0002	0.75048	0.	128.85
2678	2.9999	-2.7496	0.	126.85
2679	2.7499	-2.4997	0.	126.88
2680	3.75	0.50017	0.	125.96
2681	3.5	0.75011	0.	126.48
2682	3.9999	0.25027	0.	125.59
2683	4.2499	3.593e-004	0.	125.46
2684	-1.3446e-005	2.75	0.	125.86
2685	0.24999	2.5	0.	125.66
2686	4.75	-4.9997	0.	125.4
2687	4.5	-5.2498	0.	126.01
2688	-1.75	-7.	0.	127.28
2689	-2.25	-7.	0.	127.86
2690	-2.	-7.25	0.	127.39
2691	-2.	-6.75	0.	127.64
2692	-7.	-7.25	0.	125.79
2693	-7.25	-7.	0.	125.28
2694	-7.	-6.75	0.	125.64
2695	-6.75	-7.	0.	126.41
2696	6.2499	-0.99934	0.	121.65
2697	6.7499	-0.99959	0.	122.1
2698	6.4999	-0.74955	0.	121.04
2699	-4.25	-1.9999	0.	125.07
2700	-4.75	-1.9999	0.	125.53
2701	-4.5	-2.2499	0.	123.91
2702	7.2499	-1.4997	0.	123.26
2703	6.9999	-1.2497	0.	122.68
2704	-1.7501	3.5004	0.	129.18
2705	-1.5	3.7502	0.	129.67
2706	-1.25	6.5	0.	128.52
2707	-0.75	6.5	0.	128.51
2708	-1.	6.75	0.	128.58
2709	2.5	0.75003	0.	127.25
2710	2.5	0.25005	0.	128.16
2711	2.25	0.50003	0.	127.87
2712	-2.2502	0.50054	0.	129.47
2713	-2.5001	0.25057	0.	129.88
2714	-2.25	-5.	0.	129.78
2715	-2.	-5.25	0.	128.9
2716	-2.	-4.75	0.	129.83
2717	-1.75	-5.	0.	128.47
2718	2.5	-4.2498	0.	129.78
2719	2.5	-4.7499	0.	129.77
2720	2.25	-4.4999	0.	129.36
2721	-4.2504	3.5028	0.	121.39
2722	-3.7504	3.5027	0.	120.83
2723	-4.0004	3.7525	0.	118.94
2724	4.4999	-0.24951	0.	125.09
2725	4.7499	-0.49937	0.	124.6
2726	2.25	1.	0.	126.64
2727	2.75	1.	0.	126.8
2728	2.5	1.25	0.	126.04
2729	3.25	-5.4999	0.	129.02
2730	3.75	-5.4998	0.	128.35
2731	3.5	-5.7499	0.	128.79
2732	0.49999	1.75	0.	124.9
2733	0.74999	1.5	0.	124.89
2734	-0.25001	3.5	0.	127.41
2735	-0.50001	3.75	0.	128.45
2736	5.4999	-4.7496	0.	124.74
2737	5.7499	-4.4996	0.	125.04
2738	5.4998	-4.2494	0.	124.84
2739	5.2499	-4.4995	0.	125.12
2740	2.75	-7.	0.	127.43
2741	2.5	-7.25	0.	127.42
2742	2.5	-6.75	0.	127.61
2743	2.25	-7.	0.	127.87
2744	-4.75	0.50097	0.	127.85
2745	-4.5	0.75125	0.	128.28
2746	-4.9999	0.25076	0.	127.3
2747	-5.2499	5.4209e-004	0.	126.65
2748	-2.75	-5.	0.	131.15
2749	-2.5	-5.25	0.	129.97
2750	-2.5	-4.75	0.	130.82
2751	-1.25	-7.	0.	127.42
2752	-1.5	-7.25	0.	127.12
2753	-1.5	-6.75	0.	127.09
2754	-0.25	6.	0.	129.53
2755	-0.5	5.75	0.	128.64
2756	-0.5	6.25	0.	128.66
2757	-4.7503	3.0025	0.	126.14
2758	-4.5004	3.2527	0.	123.36
2759	-4.5003	2.7527	0.	125.02
2760	-1.75	6.	0.	129.66
2761	-1.5	6.25	0.	128.68
2762	-1.5	5.75	0.	128.73
2763	-6.2501	6.0001	0.	126.3
2764	-6.5	6.25	0.	125.5
2765	-6.5001	5.7501	0.	123.81
2766	-6.75	6.	0.	124.06
2767	-3.0055e-005	0.25002	0.	118.09
2768	-0.25005	0.50004	0.	120.43
2769	0.24997	0.50002	0.	120.32
2770	-2.25	-2.	0.	130.47
2771	-2.5	-1.7499	0.	129.35
2772	-2.5	-2.25	0.	129.85
2773	2.2499	-1.9998	0.	128.05
2774	2.4999	-2.2498	0.	127.15
2775	2.4999	-1.7498	0.	127.06
2776	-4.	-2.2499	0.	124.72
2777	-3.75	-1.9999	0.	125.93
2778	5.7498	-0.99913	0.	122.21
2779	5.4999	-0.74918	0.	122.8
2780	5.9999	-0.74932	0.	121.39
2781	5.9998	-1.2491	0.	121.97
2782	2.75	-5.4999	0.	129.32
2783	3.	-5.7499	0.	128.95
2784	-2.	-5.75	0.	128.36
2785	-2.25	-5.5	0.	129.1
2786	-1.75	-5.5	0.	128.07
2787	-2.25	-6.	0.	128.68
2788	-1.75	-6.	0.	127.73
2789	-2.	-6.25	0.	127.98
2790	-5.	-1.2498	0.	126.81
2791	-5.	-1.7499	0.	126.49
2792	-5.25	-1.4999	0.	127.54
2793	-5.25	-0.99976	0.	127.13
2794	-4.2502	2.0024	0.	126.83
2795	-4.0002	1.7522	0.	126.88
2796	-4.0003	2.2526	0.	125.38
2797	2.	0.75002	0.	127.28
2798	2.	1.25	0.	125.96
2799	1.75	1.	0.	126.31
2800	6.7497	-3.9996	0.	123.22
2801	7.2498	-3.9997	0.	122.25
2802	6.9998	-4.2497	0.	122.91
2803	6.4998	-4.2496	0.	124.22
2804	-1.25	5.0001	0.	129.35
2805	-0.99999	4.75	0.	129.3
2806	-0.74999	5.	0.	129.11
2807	-2.7503	3.0015	0.	125.85
2808	-3.0003	3.2517	0.	124.79
2809	-2.5002	3.2511	0.	127.29
2810	0.99999	1.25	0.	125.
2811	0.99999	0.75001	0.	124.39
2812	1.25	1.	0.	125.32
2813	2.7499	-0.49985	0.	127.94
2814	3.2499	-0.49975	0.	126.74
2815	2.9999	-0.74978	0.	126.96
2816	-3.	-0.74969	0.	128.79
2817	-3.25	-0.99978	0.	127.99
2818	-2.75	-0.99977	0.	129.16
2819	-1.5001	0.75025	0.	127.51
2820	-1.2501	1.0002	0.	126.03
2821	2.7499	-2.9997	0.	127.8
2822	2.9999	-3.2497	0.	127.81
2823	3.	-6.75	0.	127.73
2824	2.75	-6.5	0.	127.9
2825	3.25	-6.4999	0.	128.24
2826	3.	-6.2499	0.	128.33
2827	3.	-7.25	0.	127.47
2828	3.25	-7.	0.	127.74
2829	4.	0.75017	0.	125.33
2830	4.2499	0.50023	0.	125.18
2831	-8.2694e-006	3.25	0.	126.47
2832	0.24999	3.	0.	125.58
2833	5.25	-4.9997	0.	124.62
2834	5.	-5.2498	0.	124.05
2835	4.9999	-4.7496	0.	124.99
2836	1.9999	-1.7499	0.	129.
2837	1.9999	-2.2499	0.	128.98
2838	1.7499	-1.9999	0.	132.09
2839	-2.	-2.25	0.	131.55
2840	-2.	-1.7499	0.	131.23
2841	-1.75	-2.	0.	134.32
2842	-0.25004	4.0405e-005	0.	117.73
2843	0.24998	1.6563e-005	0.	117.6
2844	-2.4305e-005	-0.24998	0.	115.69
2845	-6.0001	5.7501	0.	127.31
2846	-5.75	6.0001	0.	131.8
2847	-6.	6.2501	0.	128.22
2848	-2.	6.25	0.	130.53
2849	-2.	5.7501	0.	130.6
2850	-2.25	6.	0.	133.8
2851	-5.0003	3.2521	0.	127.69
2852	-5.0002	2.7521	0.	128.25
2853	-5.2502	3.0017	0.	131.66
2854	4.5	6.75	0.	122.81
2855	4.25	7.	0.	125.29
2856	4.5	7.25	0.	124.32
2857	4.75	7.	0.	123.13
2858	1.3671e-006	5.75	0.	130.24
2859	0.25	6.	0.	133.08
2860	6.5921e-007	6.25	0.	130.33
2861	-1.	-7.25	0.	127.64
2862	-1.	-6.75	0.	127.4
2863	-0.75	-7.	0.	129.81
2864	-3.	-4.75	0.	132.01
2865	-3.	-5.25	0.	131.42
2866	-3.25	-5.	0.	134.34
2867	-5.2499	0.5008	0.	127.21
2868	-4.9999	0.75109	0.	128.45
2869	2.75	-7.5	0.	127.46
2870	3.25	-7.5	0.	127.73
2871	3.	-7.75	0.	127.79
2872	2.25	-7.5	0.	127.68
2873	2.5	-7.75	0.	127.77
2874	5.5	-5.2498	0.	123.54
2875	5.7499	-4.9997	0.	125.21
2876	0.25	3.5	0.	125.98
2877	-3.7644e-006	3.75	0.	127.77
2878	5.5	7.25	0.	123.39
2879	5.5	6.75	0.	122.53
2880	5.75	7.	0.	124.32
2881	5.25	7.	0.	122.84
2882	0.49999	2.25	0.	125.54
2883	0.74999	2.	0.	125.95
2884	4.25	-5.4998	0.	126.91
2885	4.	-5.7499	0.	128.28
2886	3.25	1.0001	0.	126.71
2887	3.	1.25	0.	126.88
2888	3.75	1.0001	0.	125.86
2889	3.5	1.2501	0.	127.07
2890	4.25	1.0001	0.	124.37
2891	4.	1.2501	0.	125.37
2892	4.4999	0.25033	0.	125.06
2893	4.7499	4.3776e-004	0.	125.21
2894	-6.75	6.5	0.	125.79
2895	-7.	6.25	0.	124.36
2896	-7.25	6.5	0.	124.63
2897	-7.	6.75	0.	126.4
2898	-6.5	6.75	0.	127.23
2899	-6.25	6.5	0.	127.41
2900	4.75	6.5	0.	120.97
2901	5.	6.25	0.	118.57
2902	5.25	6.5	0.	120.99
2903	5.	6.75	0.	121.32
2904	4.5	6.25	0.	120.61
2905	4.25	6.5	0.	123.48
2906	-5.4999	-0.24959	0.	126.56
2907	-5.7499	4.0492e-004	0.	126.59
2908	-5.4999	0.25058	0.	126.56
2909	-4.7504	3.5023	0.	124.91
2910	-4.5004	3.7523	0.	121.65
2911	3.5	-7.25	0.	128.
2912	3.5	-7.75	0.	128.28
2913	3.75	-7.5	0.	128.49
2914	3.5	-6.2499	0.	128.63
2915	3.75	-5.9999	0.	128.71
2916	3.25	-5.9999	0.	128.72
2917	2.4999	-2.7498	0.	127.82
2918	2.2499	-2.4998	0.	128.09
2919	2.5	-3.7498	0.	129.55
2920	2.75	-3.9998	0.	129.4
2921	2.25	-3.9999	0.	129.76
2922	-2.25	-4.5	0.	130.87
2923	-1.75	-4.5	0.	129.33
2924	-2.	-4.25	0.	131.33
2925	-1.7501	0.50034	0.	128.72
2926	-2.0001	0.25039	0.	130.31
2927	-0.75007	0.5001	0.	122.99
2928	-0.50006	0.25006	0.	120.13
2929	-2.25	-1.4999	0.	130.11
2930	-2.5	-1.2498	0.	129.56
2931	-2.2501	4.1726e-004	0.	130.71
2932	-2.5001	-0.24958	0.	130.36
2933	2.4999	-0.24991	0.	128.59
2934	2.25	5.5525e-005	0.	129.09
2935	2.2499	-1.4999	0.	128.01
2936	2.4999	-1.2498	0.	127.52
2937	0.74998	0.50001	0.	122.59
2938	0.49998	0.25001	0.	119.88
2939	1.75	0.50002	0.	127.45
2940	2.	0.25003	0.	128.8
2941	-1.5	6.75	0.	129.12
2942	-1.75	6.5	0.	129.55
2943	-2.2501	3.5008	0.	128.46
2944	-2.0001	3.7505	0.	130.04
2945	-3.5003	3.7519	0.	120.51
2946	-3.2503	3.5019	0.	123.06
2947	-1.5	5.2501	0.	129.28
2948	-1.75	5.5001	0.	129.68
2949	-1.5	4.2501	0.	130.26
2950	-1.75	4.0003	0.	130.52
2951	6.2498	-4.4996	0.	124.9
2952	5.9999	-4.7496	0.	125.51
2953	7.4998	-1.7498	0.	123.62
2954	7.4999	-1.2498	0.	124.01
2955	7.7499	-1.4999	0.	124.33
2956	7.4998	-2.2498	0.	123.31
2957	7.7498	-1.9998	0.	123.91
2958	7.4997	-2.7497	0.	122.98
2959	7.7498	-2.4998	0.	123.52
2960	7.2497	-2.4996	0.	122.97
2961	7.4997	-3.2497	0.	122.58
2962	7.7498	-2.9998	0.	123.08
2963	7.4998	-3.7497	0.	122.08
2964	7.7498	-3.4998	0.	122.51
2965	7.4998	-4.2498	0.	121.49
2966	7.7498	-3.9998	0.	121.78
2967	7.4999	-4.7498	0.	120.83
2968	7.7499	-4.4998	0.	120.87
2969	7.2498	-4.4998	0.	122.14
2970	2.25	1.5	0.	125.34
2971	2.75	1.5	0.	126.12
2972	2.5	1.75	0.	124.04
2973	1.25	1.5	0.	125.63
2974	0.99999	1.75	0.	125.94
2975	-6.2501	5.5001	0.	124.8
2976	-6.5001	5.2501	0.	121.77
2977	-6.7501	5.5001	0.	122.73
2978	-7.25	6.	0.	123.36
2979	-7.0001	5.75	0.	123.
2980	-7.5	5.75	0.	123.31
2981	-7.5	6.25	0.	123.63
2982	-7.75	6.	0.	123.02
2983	-4.75	1.0014	0.	128.89
2984	-4.5	1.2517	0.	128.54
2985	5.75	7.5	0.	123.92
2986	5.5	7.75	0.	123.5
2987	5.25	7.5	0.	123.5
2988	6.25	7.5	0.	124.27
2989	6.	7.75	0.	123.98
2990	6.	7.25	0.	124.84
2991	7.5	7.25	0.	121.59
2992	7.5	7.75	0.	122.9
2993	7.75	7.5	0.	123.2
2994	7.25	7.5	0.	122.81
2995	-0.5	4.25	0.	129.23
2996	-0.25	4.	0.	128.8
2997	-0.25	5.5	0.	129.35
2998	-0.5	5.25	0.	128.96
2999	-0.5	6.75	0.	129.01
3000	-0.25	6.5	0.	129.46
3001	-1.	7.25	0.	129.15
3002	-0.75	7.	0.	129.08
3003	-1.25	7.	0.	129.19
3004	-1.25	7.5	0.	129.74
3005	-1.	7.75	0.	129.27
3006	-0.75	7.5	0.	129.47
3007	-5.5	-0.7497	0.	127.08
3008	-5.75	-0.49971	0.	126.88
3009	-5.25	-1.9999	0.	127.34
3010	-5.	-2.2499	0.	125.48
3011	-5.5	-1.7499	0.	128.38
3012	-5.5	-2.2499	0.	128.29
3013	-5.75	-1.9999	0.	129.52
3014	5.0239e-007	-4.25	0.	113.83
3015	0.25	-4.	0.	113.78
3016	-0.25	-4.	0.	114.85
3017	9.8398e-008	-3.75	0.	112.76
3018	-1.5	-5.25	0.	127.63
3019	-1.5	-4.75	0.	127.97
3020	-1.25	-5.	0.	126.49
3021	2.5	-5.2499	0.	129.57
3022	2.25	-4.9999	0.	129.41
3023	2.5	-6.2499	0.	128.2
3024	2.25	-6.5	0.	127.94
3025	0.25	-4.5	0.	114.69
3026	0.75	-4.5	0.	117.07
3027	0.5	-4.25	0.	114.64
3028	0.5	-4.75	0.	113.84
3029	1.75	-4.4999	0.	127.13
3030	2.	-4.7499	0.	129.
3031	2.	-4.2499	0.	129.34
3032	7.2499	-0.99978	0.	123.43
3033	6.9999	-0.74974	0.	122.5
3034	7.5	-0.74988	0.	124.66
3035	7.7499	-0.9999	0.	124.92
3036	6.25	-0.49953	0.	120.78
3037	6.5	-0.24969	0.	119.34
3038	6.75	-0.4997	0.	121.45
3039	4.9999	-0.24942	0.	124.72
3040	5.2499	-0.49932	0.	123.58
3041	-2.5	-5.75	0.	129.42
3042	-2.75	-5.5	0.	130.24
3043	-2.5	-7.25	0.	127.87
3044	-2.75	-7.	0.	128.47
3045	-2.5	-6.75	0.	128.56
3046	-2.75	-4.5	0.	131.69
3047	-2.5	-4.25	0.	131.85
3048	-4.25	-2.5	0.	123.55
3049	-4.75	-2.5	0.	123.85
3050	-4.5	-2.75	0.	121.17
3051	-2.25	-2.5	0.	130.94
3052	-2.75	-2.5	0.	129.67
3053	-2.5	-2.75	0.	131.02
3054	-1.75	-7.5	0.	127.24
3055	-1.25	-7.5	0.	127.34
3056	-1.5	-7.75	0.	127.32
3057	-2.25	-7.5	0.	127.41
3058	-2.	-7.75	0.	127.31
3059	-2.5	-7.75	0.	127.3
3060	-2.75	-7.5	0.	127.35
3061	-4.75	-7.5	0.	122.07
3062	-4.5	-7.75	0.	122.17
3063	-4.5	-7.25	0.	120.03
3064	-4.25	-7.5	0.	122.2
3065	-6.25	-7.5	0.	126.35
3066	-5.75	-7.5	0.	125.69
3067	-6.	-7.75	0.	125.89
3068	-6.	-7.25	0.	127.15
3069	-6.75	-7.5	0.	126.07
3070	-6.5	-7.75	0.	126.04
3071	-6.5	-7.25	0.	126.69
3072	-7.25	-7.5	0.	125.5
3073	-7.	-7.75	0.	125.7
3074	-7.5	-7.25	0.	124.98
3075	-7.75	-7.5	0.	125.04
3076	-7.5	-7.75	0.	125.28
3077	-7.5	-6.75	0.	124.36
3078	-7.75	-7.	0.	124.51
3079	-7.5	-6.25	0.	123.34
3080	-7.75	-6.5	0.	123.6
3081	-7.25	-6.5	0.	124.71
3082	-7.25	-6.	0.	123.81
3083	-7.75	-6.	0.	122.28
3084	-7.5	-5.75	0.	122.01
3085	-6.75	-6.	0.	126.15
3086	-7.	-6.25	0.	125.18
3087	-7.	-5.75	0.	124.66
3088	-3.7502	4.0018	0.	118.57
3089	-4.0002	4.2516	0.	117.02
3090	-4.2503	4.002	0.	119.15
3091	-6.5	-5.75	0.	127.62
3092	-6.25	-5.5	0.	129.08
3093	-6.5	-5.25	0.	128.63
3094	-6.75	-5.5	0.	126.13
3095	-4.	-2.75	0.	123.57
3096	-3.75	-2.5	0.	125.57
3097	-2.75	-6.	0.	129.95
3098	-2.5	-6.25	0.	129.05
3099	-3.5	-7.75	0.	125.38
3100	-3.5	-7.25	0.	126.42
3101	-3.75	-7.5	0.	124.27
3102	-3.25	-7.5	0.	126.38
3103	-5.25	-7.5	0.	123.86
3104	-5.5	-7.75	0.	124.77
3105	-5.5	-7.25	0.	125.92
3106	-5.	-7.75	0.	123.02
3107	-5.	-7.25	0.	122.27
3108	-6.5	-6.25	0.	127.41
3109	-6.25	-6.	0.	128.66
3110	-6.25	-6.5	0.	128.42
3111	-6.75	-6.5	0.	126.45
3112	-6.5	-6.75	0.	127.22
3113	6.	-0.24954	0.	120.6
3114	5.7499	-0.49938	0.	121.98
3115	7.75	-0.49993	0.	125.9
3116	7.5	-0.24992	0.	126.08
3117	7.25	-0.49984	0.	123.74
3118	2.5	-5.7499	0.	128.99
3119	2.25	-5.9999	0.	128.7
3120	2.75	-5.9999	0.	128.63
3121	2.25	-5.4999	0.	129.41
3122	-1.5	-5.75	0.	127.44
3123	-1.25	-5.5	0.	127.12
3124	-1.25	-6.	0.	127.17
3125	-1.5	-6.25	0.	127.21
3126	-0.25	-4.5	0.	116.66
3127	8.574e-007	-4.75	0.	115.02
3128	-0.75	-4.5	0.	121.36
3129	-0.5	-4.25	0.	117.71
3130	-0.5	-4.75	0.	120.01
3131	-5.5	-1.2498	0.	127.86
3132	-5.75	-1.4999	0.	129.03
3133	-5.75	-0.99978	0.	127.9
3134	-0.25	7.	0.	129.98
3135	-0.5	7.25	0.	129.39
3136	-0.25	4.5	0.	129.86
3137	-0.75	4.5	0.	129.54
3138	-0.5	4.75	0.	129.34
3139	6.5	7.75	0.	123.96
3140	6.5	7.25	0.	125.26
3141	6.75	7.5	0.	123.69
3142	-4.7501	2.002	0.	128.55
3143	-4.5002	2.2524	0.	126.63
3144	-4.5001	1.752	0.	127.96
3145	-7.75	5.5	0.	123.59
3146	-7.5001	5.25	0.	124.33
3147	-7.2501	5.5	0.	122.95
3148	1.75	1.5	0.	125.59
3149	1.5	1.75	0.	126.25
3150	1.5	1.25	0.	125.94
3151	2.	1.75	0.	124.61
3152	6.4999	-4.7497	0.	125.72
3153	6.7498	-4.4997	0.	123.9
3154	-1.5	4.7501	0.	130.02
3155	-1.75	4.5002	0.	131.15
3156	-1.25	4.5001	0.	129.97
3157	-1.75	5.0001	0.	130.53
3158	-2.5001	3.7509	0.	128.87
3159	-2.7502	3.5012	0.	126.23
3160	-1.5	7.25	0.	129.77
3161	-1.75	7.	0.	130.31
3162	-1.5	7.75	0.	129.93
3163	-1.75	7.5	0.	130.87
3164	1.25	0.50001	0.	125.56
3165	1.5	0.25002	0.	127.97
3166	1.5	0.75001	0.	126.49
3167	0.99998	0.25001	0.	124.25
3168	2.2499	-0.49991	0.	129.58
3169	2.4999	-0.74987	0.	128.25
3170	-1.2501	0.50019	0.	126.36
3171	-1.0001	0.25013	0.	124.85
3172	-1.0001	0.75014	0.	124.88
3173	-1.5001	0.25023	0.	129.04
3174	-1.25	-4.5	0.	126.15
3175	-1.5	-4.25	0.	129.22
3176	-1.	-4.75	0.	124.67
3177	-1.	-4.25	0.	123.99
3178	-2.25	-3.5	0.	133.11
3179	-2.75	-3.5	0.	132.76
3180	-2.5	-3.75	0.	132.58
3181	-2.5	-3.25	0.	132.26
3182	2.25	-2.9998	0.	129.03
3183	2.5	-3.2498	0.	128.81
3184	1.25	-4.5	0.	122.39
3185	1.	-4.25	0.	120.09
3186	1.	-4.75	0.	118.83
3187	1.5	-4.25	0.	126.3
3188	1.5	-4.75	0.	125.53
3189	3.5	-6.75	0.	128.25
3190	3.75	-6.4999	0.	128.88
3191	3.75	-7.	0.	128.55
3192	-1.	-7.75	0.	127.78
3193	-0.75	-7.5	0.	129.05
3194	-6.0001	5.2502	0.	126.57
3195	-5.7501	5.5001	0.	130.63
3196	-5.0003	3.7517	0.	127.7
3197	-5.2502	3.5015	0.	131.
3198	-5.9999	-0.24971	0.	126.91
3199	-5.9999	0.25037	0.	126.11
3200	-6.25	2.4274e-004	0.	128.78
3201	-7.75	-5.	0.	118.73
3202	-7.25	-5.	0.	122.1
3203	-7.5	-4.75	0.	118.26
3204	-7.5	-5.25	0.	120.47
3205	-3.25	-4.5	0.	133.66
3206	-3.	-4.25	0.	132.43
3207	-6.	-5.75	0.	130.13
3208	-5.75	-5.5	0.	132.33
3209	-6.	-5.25	0.	131.2
3210	4.75	6.	0.	118.15
3211	4.25	6.	0.	122.15
3212	4.5	5.75	0.	117.74
3213	2.	-6.25	0.	128.43
3214	1.75	-6.5	0.	129.41
3215	2.	-6.75	0.	128.2
3216	1.7915e-006	5.25	0.	130.17
3217	0.25	5.5	0.	131.97
3218	7.7499	-4.9999	0.	119.84
3219	7.2499	-4.9998	0.	122.29
3220	7.4999	-5.2499	0.	119.64
3221	-3.2501	4.0013	0.	122.37
3222	-3.5001	4.2511	0.	117.86
3223	-2.	6.75	0.	130.73
3224	-2.25	6.5	0.	132.82
3225	1.9999	-1.2499	0.	129.35
3226	1.7499	-1.4999	0.	131.31
3227	-0.75006	9.261e-005	0.	121.99
3228	-0.50004	-0.24995	0.	117.13
3229	-1.75	-2.5	0.	133.57
3230	-2.	-2.75	0.	132.19
3231	0.75	-4.	0.	117.67
3232	0.5	-3.75	0.	113.42
3233	-6.75	7.	0.	127.84
3234	-6.5	7.25	0.	128.53
3235	-6.25	7.	0.	128.96
3236	-7.75	6.5	0.	123.18
3237	-7.5	6.75	0.	125.19
3238	4.5	0.75021	0.	124.22
3239	4.75	0.50028	0.	125.14
3240	4.5	1.2501	0.	122.9
3241	4.75	1.0002	0.	123.55
3242	4.75	-5.4998	0.	124.66
3243	4.5	-5.7499	0.	126.37
3244	5.25	-5.4998	0.	122.96
3245	5.	-5.7499	0.	122.41
3246	0.49999	2.75	0.	125.38
3247	0.74999	2.5	0.	126.19
3248	0.5	3.25	0.	125.08
3249	0.75	3.	0.	125.09
3250	5.25	6.	0.	118.04
3251	5.	5.75	0.	116.21
3252	5.5	6.25	0.	120.52
3253	5.75	6.5	0.	124.04
3254	0.75	3.5	0.	123.83
3255	0.5	3.75	0.	126.03
3256	5.5	-5.7499	0.	120.42
3257	5.75	-5.4998	0.	124.08
3258	-8.	-7.25	0.	124.57
3259	-8.	-7.75	0.	125.04
3260	-8.25	-7.5	0.	124.9
3261	-8.	-6.75	0.	123.76
3262	-8.25	-7.	0.	124.33
3263	-8.	-6.25	0.	122.54
3264	-8.25	-6.5	0.	123.42
3265	-8.	-5.75	0.	120.89
3266	-8.25	-6.	0.	122.14
3267	-8.	-5.25	0.	118.9
3268	-8.25	-5.5	0.	120.53
3269	-7.75	-5.5	0.	120.61
3270	-8.25	-5.	0.	118.77
3271	-8.	-4.75	0.	117.74
3272	-1.75	-8.	0.	127.39
3273	-1.25	-8.	0.	127.76
3274	-1.5	-8.25	0.	127.62
3275	-2.25	-8.	0.	127.2
3276	-2.	-8.25	0.	127.37
3277	-2.75	-8.	0.	126.76
3278	-2.5	-8.25	0.	127.01
3279	-3.25	-8.	0.	125.81
3280	-3.	-8.25	0.	126.32
3281	-3.	-7.75	0.	126.81
3282	-3.75	-8.	0.	124.44
3283	-3.5	-8.25	0.	125.2
3284	-4.25	-8.	0.	123.28
3285	-4.	-8.25	0.	123.96
3286	-4.	-7.75	0.	123.32
3287	-4.75	-8.	0.	123.12
3288	-4.5	-8.25	0.	123.3
3289	-5.25	-8.	0.	123.93
3290	-5.	-8.25	0.	123.59
3291	-5.75	-8.	0.	124.97
3292	-5.5	-8.25	0.	124.46
3293	-6.25	-8.	0.	125.58
3294	-6.	-8.25	0.	125.2
3295	-6.75	-8.	0.	125.67
3296	-6.5	-8.25	0.	125.53
3297	-7.25	-8.	0.	125.49
3298	-7.	-8.25	0.	125.51
3299	-7.75	-8.	0.	125.28
3300	-7.5	-8.25	0.	125.37
3301	-8.25	-8.	0.	125.21
3302	-8.	-8.25	0.	125.27
3303	-6.7501	5.0001	0.	121.22
3304	-6.2502	5.0002	0.	123.5
3305	-6.5001	4.7501	0.	117.08
3306	8.	-0.74995	0.	126.17
3307	8.	-0.24997	0.	127.54
3308	8.25	-0.49997	0.	127.
3309	7.9999	-1.2499	0.	125.24
3310	8.25	-0.99996	0.	126.04
3311	7.9999	-1.7499	0.	124.62
3312	8.2499	-1.4999	0.	125.35
3313	7.9998	-2.2499	0.	124.12
3314	8.2499	-1.9999	0.	124.84
3315	7.9998	-2.7499	0.	123.62
3316	8.2499	-2.4999	0.	124.38
3317	7.9998	-3.2498	0.	123.02
3318	8.2498	-2.9999	0.	123.89
3319	7.9998	-3.7498	0.	122.23
3320	8.2498	-3.4999	0.	123.25
3321	7.9999	-4.2499	0.	121.17
3322	8.2499	-3.9999	0.	122.41
3323	7.9999	-4.7499	0.	119.9
3324	8.2499	-4.4999	0.	121.35
3325	8.2499	-4.9999	0.	120.15
3326	7.9999	-5.2499	0.	119.5
3327	7.75	3.5	0.	124.71
3328	7.5	3.75	0.	122.38
3329	7.25	3.5	0.	124.48
3330	7.5	3.25	0.	125.83
3331	8.	3.25	0.	126.68
3332	8.	3.75	0.	124.48
3333	8.25	3.5	0.	126.26
3334	8.	-8.25	0.	120.42
3335	8.25	-8.	0.	120.19
3336	7.75	-8.	0.	120.4
3337	8.	-7.75	0.	119.41
3338	7.75	7.	0.	122.19
3339	7.5	6.75	0.	117.85
3340	7.25	7.	0.	121.86
3341	5.25	8.	0.	123.48
3342	4.75	8.	0.	124.
3343	5.	8.25	0.	123.44
3344	5.	7.75	0.	123.48
3345	5.75	8.	0.	123.57
3346	5.5	8.25	0.	123.42
3347	6.25	8.	0.	123.67
3348	6.	8.25	0.	123.62
3349	6.75	8.	0.	123.48
3350	6.5	8.25	0.	123.63
3351	7.25	8.	0.	123.29
3352	7.	7.75	0.	123.21
3353	7.	8.25	0.	123.44
3354	7.75	8.	0.	123.66
3355	7.5	8.25	0.	123.5
3356	8.	7.75	0.	123.97
3357	8.25	8.	0.	124.62
3358	8.	8.25	0.	124.11
3359	8.	7.25	0.	123.82
3360	8.25	7.5	0.	124.91
3361	2.	-7.75	0.	128.25
3362	1.75	-7.5	0.	129.42
3363	2.	-7.25	0.	128.13
3364	3.75	-8.	0.	129.3
3365	4.	-7.75	0.	129.51
3366	4.	-8.25	0.	130.15
3367	4.25	-8.	0.	132.38
3368	3.25	-8.	0.	128.34
3369	3.5	-8.25	0.	129.08
3370	2.75	-8.	0.	128.1
3371	3.	-8.25	0.	128.66
3372	2.25	-8.	0.	128.34
3373	2.5	-8.25	0.	128.57
3374	3.25	1.5	0.	127.24
3375	3.	1.75	0.	127.1
3376	3.75	1.5001	0.	126.58
3377	3.5	1.75	0.	129.41
3378	4.25	1.5001	0.	123.91
3379	4.	1.7501	0.	126.49
3380	4.5	1.7501	0.	121.75
3381	4.75	1.5001	0.	121.26
3382	3.75	6.5	0.	126.34
3383	4.	6.75	0.	125.97
3384	4.	6.25	0.	125.03
3385	3.5	6.25	0.	128.25
3386	3.25	6.5	0.	127.55
3387	3.5	6.75	0.	128.06
3388	-5.7499	0.50054	0.	126.08
3389	-5.4999	0.75077	0.	127.53
3390	-7.25	-2.	0.	116.27
3391	-7.75	-2.	0.	113.63
3392	-7.5	-1.75	0.	109.43
3393	-7.5	-2.25	0.	113.22
3394	-5.25	-2.5	0.	126.44
3395	-5.	-2.75	0.	123.83
3396	-5.5	-2.75	0.	128.15
3397	-5.75	-2.5	0.	129.43
3398	-4.25	-3.	0.	121.14
3399	-4.75	-3.	0.	121.11
3400	-4.5	-3.25	0.	115.41
3401	-3.	-5.75	0.	130.77
3402	-3.25	-5.5	0.	132.67
3403	-3.25	-7.	0.	127.99
3404	-3.	-7.25	0.	127.95
3405	-3.	-6.75	0.	129.47
3406	-4.75	-7.	0.	120.2
3407	-4.25	-7.	0.	120.31
3408	-4.5	-6.75	0.	114.93
3409	-6.	-6.75	0.	128.68
3410	-5.75	-7.	0.	127.37
3411	-6.25	-7.	0.	127.48
3412	-7.25	7.	0.	126.95
3413	-7.	7.25	0.	128.42
3414	-8.	5.75	0.	123.29
3415	-8.	5.25	0.	124.45
3416	-8.25	5.5	0.	123.8
3417	-8.	6.25	0.	122.57
3418	-8.25	6.	0.	122.82
3419	-8.25	6.5	0.	121.88
3420	-8.	6.75	0.	122.2
3421	6.25	2.9865e-004	0.	119.14
3422	6.5	0.25018	0.	115.14
3423	6.75	1.8963e-004	0.	120.16
3424	4.9999	0.25039	0.	125.29
3425	5.2499	4.6618e-004	0.	124.62
3426	8.	2.75	0.	128.91
3427	8.25	3.	0.	127.86
3428	7.75	3.	0.	127.78
3429	8.	1.25	0.	128.42
3430	8.25	1.5	0.	127.75
3431	7.75	1.5	0.	129.78
3432	8.	1.75	0.	128.68
3433	7.75	4.6669e-005	0.	127.7
3434	8.	0.25002	0.	128.88
3435	8.25	1.8151e-005	0.	128.18
3436	3.25	6.	0.	129.34
3437	3.	6.25	0.	128.65
3438	3.	5.75	0.	129.81
3439	2.75	6.	0.	131.24
3440	0.25	-5.	0.	114.17
3441	0.75	-5.	0.	115.6
3442	0.5	-5.25	0.	109.73
3443	2.	-5.2499	0.	129.24
3444	1.75	-4.9999	0.	127.4
3445	-1.	-6.25	0.	127.03
3446	-0.75	-6.5	0.	128.32
3447	-1.25	-6.5	0.	127.07
3448	-0.75	-5.	0.	123.3
3449	-1.	-5.25	0.	125.98
3450	-6.	-0.74978	0.	127.7
3451	-6.25	-0.49982	0.	128.36
3452	-6.	-1.7499	0.	130.15
3453	-6.	-2.2499	0.	130.64
3454	-6.25	-1.9999	0.	129.65
3455	-6.5	7.75	0.	128.48
3456	-6.25	7.5	0.	129.6
3457	-6.75	7.5	0.	129.11
3458	-6.25	8.	0.	128.31
3459	-6.75	8.	0.	128.28
3460	-6.5	8.25	0.	127.23
3461	-4.25	8.	0.	117.56
3462	-4.75	8.	0.	121.02
3463	-4.5	8.25	0.	119.57
3464	-4.5	7.75	0.	116.75
3465	-4.	8.25	0.	118.2
3466	-4.	7.75	0.	115.95
3467	-3.75	8.	0.	117.99
3468	-1.25	8.	0.	129.46
3469	-1.75	8.	0.	130.18
3470	-1.5	8.25	0.	129.26
3471	-0.75	8.	0.	129.04
3472	-1.	8.25	0.	128.74
3473	-0.25	8.	0.	128.97
3474	-0.5	8.25	0.	128.39
3475	-0.5	7.75	0.	129.24
3476	5.4484e-008	7.75	0.	129.84
3477	2.7278e-008	8.25	0.	128.05
3478	0.25	8.	0.	128.49
3479	-5.1451e-007	4.25	0.	129.43
3480	0.25	4.	0.	127.81
3481	4.	7.25	0.	127.34
3482	3.75	7.	0.	127.69
3483	4.5	7.75	0.	124.65
3484	4.25	7.5	0.	126.37
3485	4.75	7.5	0.	124.13
3486	4.25	8.	0.	125.77
3487	4.5	8.25	0.	124.2
3488	6.25	7.	0.	125.83
3489	6.	6.75	0.	125.82
3490	-5.0001	2.2519	0.	129.05
3491	-5.2501	2.5015	0.	130.79
3492	-4.7502	2.5023	0.	127.13
3493	-5.2499	1.0011	0.	128.77
3494	-5.	1.2514	0.	129.76
3495	-7.7501	5.	0.	125.19
3496	-8.25	5.	0.	124.73
3497	-8.	4.75	0.	125.51
3498	2.25	2.	0.	123.28
3499	2.75	2.	0.	125.02
3500	2.5	2.25	0.	119.14
3501	0.99999	2.25	0.	126.6
3502	1.25	2.	0.	126.56
3503	6.2499	-4.9997	0.	126.32
3504	5.9999	-5.2498	0.	125.75
3505	-2.25	5.5001	0.	132.91
3506	-2.	5.2501	0.	130.92
3507	-2.25	4.0006	0.	130.43
3508	-2.	4.2503	0.	131.41
3509	-2.	7.75	0.	131.12
3510	-2.25	8.	0.	130.21
3511	-2.	8.25	0.	129.69
3512	-5.75	8.	0.	128.28
3513	-6.	7.75	0.	129.43
3514	-6.	8.25	0.	127.57
3515	0.74998	1.2957e-005	0.	121.54
3516	0.49998	-0.24999	0.	116.82
3517	2.	-0.24995	0.	130.08
3518	1.75	3.2498e-005	0.	129.31
3519	-2.	-1.2499	0.	131.32
3520	-1.75	-1.4999	0.	133.18
3521	-1.7501	2.8302e-004	0.	130.62
3522	-2.0001	-0.24969	0.	131.67
3523	-0.75	-4.	0.	120.34
3524	-0.5	-3.75	0.	115.15
3525	-2.	-3.75	0.	132.83
3526	-1.75	-4.	0.	131.2
3527	-2.25	-4.	0.	132.3
3528	2.	-2.7499	0.	129.28
3529	1.75	-2.4999	0.	130.98
3530	4.	-7.25	0.	129.05
3531	4.25	-7.5	0.	130.9
3532	4.25	-5.9999	0.	127.73
3533	4.	-6.2499	0.	128.96
3534	4.75	-5.9999	0.	124.13
3535	5.25	-5.9999	0.	119.82
3536	5.	-6.2499	0.	121.49
3537	4.5	-6.2499	0.	128.5
3538	4.	-6.7499	0.	129.19
3539	4.25	-6.4999	0.	129.72
3540	4.25	-7.	0.	129.44
3541	1.25	-4.	0.	124.
3542	1.	-3.75	0.	121.97
3543	1.5	-3.75	0.	129.35
3544	1.75	-3.9999	0.	128.5
3545	1.75	-2.9999	0.	130.41
3546	2.	-3.2499	0.	130.09
3547	-1.75	-3.5	0.	133.87
3548	-2.	-3.25	0.	133.13
3549	-1.	-3.75	0.	124.77
3550	-1.25	-4.	0.	127.06
3551	-1.2501	1.7161e-004	0.	127.53
3552	-1.0001	-0.24989	0.	125.8
3553	-1.5001	-0.2498	0.	132.15
3554	-2.0001	-0.74978	0.	131.95
3555	-1.7501	-0.49978	0.	133.18
3556	-2.2501	-0.49969	0.	131.32
3557	-1.75	-0.99985	0.	132.53
3558	-2.25	-0.99979	0.	130.77
3559	1.9999	-0.74992	0.	130.19
3560	1.7499	-0.99994	0.	130.78
3561	2.2499	-0.99988	0.	128.87
3562	1.75	-0.49995	0.	131.7
3563	0.99998	-0.24999	0.	125.15
3564	1.25	1.8233e-005	0.	126.66
3565	-5.25	8.	0.	125.75
3566	-5.	8.25	0.	123.44
3567	-5.	7.75	0.	124.4
3568	-5.5	8.25	0.	126.82
3569	-5.5	7.75	0.	130.15
3570	-5.75	7.5	0.	131.28
3571	-6.	7.25	0.	130.03
3572	-2.	7.25	0.	131.4
3573	-2.25	7.	0.	132.
3574	-2.25	7.5	0.	132.74
3575	-2.5	8.25	0.	128.71
3576	-2.5	7.75	0.	131.86
3577	-2.75	8.	0.	127.46
3578	-2.7501	4.0009	0.	127.56
3579	-3.0001	4.2508	0.	126.12
3580	-3.0001	3.7513	0.	124.91
3581	-2.5	4.2506	0.	132.03
3582	6.7499	-4.9998	0.	125.41
3583	6.9999	-5.2499	0.	125.3
3584	6.9999	-4.7498	0.	123.6
3585	6.4999	-5.2498	0.	128.8
3586	1.	2.75	0.	125.89
3587	1.	3.25	0.	123.81
3588	1.25	3.	0.	126.12
3589	1.25	2.5	0.	128.
3590	1.75	2.	0.	125.27
3591	1.5	2.25	0.	127.97
3592	2.	2.25	0.	123.72
3593	3.25	2.	0.	129.26
3594	3.	2.25	0.	128.2
3595	3.75	2.	0.	129.31
3596	3.5	2.25	0.	135.34
3597	4.25	2.	0.	124.36
3598	4.	2.25	0.	129.07
3599	-7.2501	5.	0.	123.61
3600	-7.0001	4.75	0.	122.74
3601	-7.0001	5.25	0.	122.22
3602	-7.5001	4.75	0.	127.53
3603	-5.25	2.0014	0.	130.89
3604	-5.	1.7517	0.	130.
3605	6.5	6.75	0.	128.72
3606	6.75	7.	0.	124.67
3607	4.	7.75	0.	127.49
3608	3.75	7.5	0.	130.18
3609	4.	8.25	0.	126.06
3610	3.75	8.	0.	129.17
3611	1.2384e-006	4.75	0.	130.29
3612	0.25	5.	0.	130.94
3613	-0.25	5.	0.	129.78
3614	0.25	4.5	0.	130.92
3615	1.4674e-007	7.25	0.	130.69
3616	0.25	7.5	0.	131.68
3617	-0.25	7.5	0.	130.1
3618	0.25	7.	0.	131.44
3619	3.6757e-007	6.75	0.	130.43
3620	-6.	-1.2498	0.	129.06
3621	-6.25	-1.4999	0.	129.88
3622	-6.25	-0.99985	0.	128.42
3623	-0.25	-5.	0.	118.36
3624	1.0378e-006	-5.25	0.	116.2
3625	-0.5	-5.25	0.	123.71
3626	-1.	-5.75	0.	126.86
3627	-0.75	-5.5	0.	126.35
3628	-0.75	-6.	0.	126.92
3629	2.	-5.7499	0.	129.11
3630	1.75	-6.	0.	128.67
3631	1.75	-5.5	0.	129.19
3632	1.	-5.25	0.	118.54
3633	1.25	-5.	0.	121.99
3634	3.75	6.	0.	126.94
3635	4.	5.75	0.	126.
3636	3.5	5.75	0.	131.27
3637	7.5	0.25005	0.	129.18
3638	7.25	1.0357e-004	0.	124.62
3639	8.	0.75001	0.	129.18
3640	7.75	0.50003	0.	130.33
3641	8.25	0.50001	0.	128.84
3642	8.25	1.	0.	128.37
3643	7.75	1.	0.	129.91
3644	8.25	2.5	0.	129.05
3645	7.75	2.5	0.	131.37
3646	8.	2.25	0.	129.66
3647	5.25	0.50028	0.	126.37
3648	5.	0.75025	0.	124.47
3649	6.	0.25027	0.	120.34
3650	5.75	4.0762e-004	0.	122.11
3651	-7.5	7.25	0.	128.63
3652	-7.75	7.	0.	124.22
3653	-7.	8.25	0.	127.51
3654	-7.25	8.	0.	129.77
3655	-7.	7.75	0.	128.91
3656	-6.	-6.25	0.	129.66
3657	-5.75	-6.	0.	130.67
3658	-5.75	-6.5	0.	130.26
3659	-5.25	-7.	0.	124.33
3660	-5.5	-6.75	0.	128.98
3661	-5.	-6.75	0.	122.28
3662	-3.75	-7.	0.	124.67
3663	-4.	-6.75	0.	122.47
3664	-4.	-7.25	0.	122.51
3665	-3.5	-6.75	0.	129.39
3666	-3.25	-6.	0.	131.2
3667	-3.	-6.25	0.	130.45
3668	-3.25	-3.5	0.	132.85
3669	-3.	-3.25	0.	131.87
3670	-3.	-3.75	0.	132.77
3671	-3.75	-3.	0.	125.82
3672	-3.5	-3.25	0.	130.84
3673	-3.25	-3.	0.	129.84
3674	-3.5	-2.75	0.	127.82
3675	-4.	-3.25	0.	123.19
3676	-5.25	-3.	0.	125.55
3677	-5.	-3.25	0.	122.95
3678	-5.75	-3.	0.	129.21
3679	-5.5	-3.25	0.	129.67
3680	-6.	-3.75	0.	130.18
3681	-6.	-3.25	0.	129.78
3682	-5.75	-3.5	0.	130.24
3683	-6.25	-3.5	0.	130.33
3684	-6.75	-5.	0.	126.99
3685	-7.	-4.75	0.	125.28
3686	-7.	-5.25	0.	124.49
3687	-6.5	-4.75	0.	131.23
3688	-6.25	-5.	0.	130.74
3689	-6.25	-4.	0.	131.43
3690	-5.75	-4.	0.	131.11
3691	-6.	-4.25	0.	131.51
3692	-6.	-2.75	0.	130.49
3693	-6.25	-3.	0.	130.85
3694	-6.25	-2.5	0.	131.33
3695	-7.	-1.75	0.	119.41
3696	-7.	-2.25	0.	121.5
3697	-6.75	-2.	0.	124.31
3698	-5.9999	0.75042	0.	125.06
3699	-6.2499	0.50029	0.	126.87
3700	3.	6.75	0.	127.18
3701	2.75	6.5	0.	128.8
3702	4.75	2.0001	0.	120.17
3703	4.5	2.25	0.	119.92
3704	2.	-8.25	0.	128.87
3705	1.75	-8.	0.	128.68
3706	-8.	-1.75	0.	115.62
3707	-8.	-2.25	0.	115.16
3708	-8.25	-2.	0.	117.78
3709	8.25	7.	0.	125.79
3710	8.	6.75	0.	124.47
3711	7.75	-8.5	0.	122.27
3712	8.25	-8.5	0.	122.
3713	8.	-8.75	0.	122.52
3714	7.25	-8.5	0.	124.79
3715	7.5	-8.25	0.	122.27
3716	7.5	-8.75	0.	123.9
3717	7.	-8.25	0.	126.93
3718	7.	-8.75	0.	126.83
3719	6.75	-8.5	0.	129.2
3720	8.5	-8.25	0.	121.8
3721	8.75	-8.	0.	123.36
3722	8.5	-7.75	0.	119.97
3723	8.75	-8.5	0.	124.01
3724	8.5	-8.75	0.	123.29
3725	8.25	4.	0.	125.75
3726	7.75	4.	0.	122.12
3727	8.	4.25	0.	123.96
3728	8.5	7.75	0.	125.55
3729	8.5	8.25	0.	125.02
3730	8.75	8.	0.	125.61
3731	8.5	7.25	0.	126.88
3732	8.75	7.5	0.	126.44
3733	8.5	6.75	0.	129.92
3734	8.75	7.	0.	128.11
3735	8.5	3.75	0.	127.53
3736	8.5	4.25	0.	129.75
3737	8.75	4.	0.	128.19
3738	8.5	3.25	0.	127.44
3739	8.75	3.5	0.	127.4
3740	8.5	2.75	0.	127.99
3741	8.75	3.	0.	127.63
3742	8.5	2.25	0.	128.08
3743	8.75	2.5	0.	127.86
3744	8.5	1.75	0.	127.76
3745	8.25	2.	0.	128.69
3746	8.75	2.	0.	127.61
3747	8.5	1.25	0.	127.7
3748	8.75	1.5	0.	127.39
3749	8.75	1.	0.	127.59
3750	8.5	0.75001	0.	128.03
3751	8.5	-0.24999	0.	127.64
3752	8.75	6.3966e-006	0.	127.85
3753	8.5	0.25001	0.	128.14
3754	8.5	-0.74998	0.	126.87
3755	8.75	-0.49999	0.	127.33
3756	8.5	-1.25	0.	126.15
3757	8.75	-0.99999	0.	126.73
3758	8.4999	-1.75	0.	125.58
3759	8.75	-1.5	0.	126.21
3760	8.4999	-2.25	0.	125.1
3761	8.7499	-2.	0.	125.8
3762	8.4999	-2.7499	0.	124.65
3763	8.7499	-2.5	0.	125.45
3764	8.4999	-3.2499	0.	124.12
3765	8.7499	-2.9999	0.	125.12
3766	8.4999	-3.7499	0.	123.44
3767	8.7499	-3.4999	0.	124.72
3768	8.4999	-4.2499	0.	122.6
3769	8.7499	-3.9999	0.	124.24
3770	8.4999	-4.7499	0.	121.62
3771	8.7499	-4.4999	0.	123.75
3772	8.7499	-5.	0.	123.47
3773	8.5	-5.25	0.	120.15
3774	4.25	8.5	0.	124.5
3775	4.	8.75	0.	125.29
3776	3.75	8.5	0.	127.77
3777	4.75	8.5	0.	123.64
3778	4.5	8.75	0.	123.91
3779	5.25	8.5	0.	123.38
3780	5.	8.75	0.	123.48
3781	5.75	8.5	0.	123.47
3782	5.5	8.75	0.	123.52
3783	6.25	8.5	0.	123.57
3784	6.	8.75	0.	123.64
3785	6.5	8.75	0.	123.69
3786	6.75	8.5	0.	123.58
3787	7.75	8.5	0.	123.94
3788	7.5	8.75	0.	123.84
3789	7.25	8.5	0.	123.64
3790	8.25	8.5	0.	124.52
3791	8.	8.75	0.	124.23
3792	8.5	8.75	0.	124.77
3793	8.75	8.5	0.	125.17
3794	-5.0003	4.2511	0.	129.26
3795	-5.2503	4.0011	0.	131.16
3796	-4.7503	4.0016	0.	124.44
3797	-5.7501	5.0003	0.	130.18
3798	-6.0002	4.7502	0.	127.28
3799	-5.7499	1.0007	0.	126.53
3800	-5.4999	1.2509	0.	130.42
3801	3.25	7.	0.	127.7
3802	3.5	7.25	0.	130.53
3803	-6.75	8.5	0.	126.46
3804	-7.	8.75	0.	126.56
3805	-7.25	8.5	0.	128.65
3806	-6.25	8.5	0.	126.49
3807	-6.5	8.75	0.	126.02
3808	-5.75	8.5	0.	126.1
3809	-6.	8.75	0.	125.97
3810	-5.25	8.5	0.	124.5
3811	-5.5	8.75	0.	125.26
3812	-4.75	8.5	0.	121.98
3813	-5.	8.75	0.	123.45
3814	-4.25	8.5	0.	120.15
3815	-4.5	8.75	0.	121.48
3816	-3.75	8.5	0.	120.52
3817	-4.	8.75	0.	120.83
3818	-3.25	8.5	0.	123.04
3819	-3.5	8.25	0.	120.37
3820	-3.5	8.75	0.	122.13
3821	-2.75	8.5	0.	126.14
3822	-3.	8.75	0.	124.7
3823	-3.	8.25	0.	124.89
3824	-2.25	8.5	0.	128.17
3825	-2.5	8.75	0.	126.99
3826	-1.75	8.5	0.	128.76
3827	-2.	8.75	0.	128.1
3828	-1.25	8.5	0.	128.53
3829	-1.5	8.75	0.	128.21
3830	-0.75	8.5	0.	128.08
3831	-1.	8.75	0.	127.93
3832	-0.25	8.5	0.	127.45
3833	-0.5	8.75	0.	127.47
3834	1.6487e-008	8.75	0.	126.68
3835	0.25	8.5	0.	126.32
3836	1.	8.75	0.	124.29
3837	1.	8.25	0.	123.9
3838	1.25	8.5	0.	125.09
3839	0.75	8.5	0.	124.55
3840	0.5	7.75	0.	130.37
3841	0.75	8.	0.	126.15
3842	0.5	8.25	0.	126.79
3843	-8.5	4.75	0.	124.
3844	-8.5	4.25	0.	122.35
3845	-8.25	4.5	0.	124.79
3846	-8.75	4.5	0.	124.12
3847	-8.5	5.25	0.	124.08
3848	-8.75	5.	0.	124.6
3849	-8.5	5.75	0.	123.33
3850	-8.75	5.5	0.	124.21
3851	-8.5	6.25	0.	122.15
3852	-8.75	6.	0.	123.35
3853	-8.5	6.75	0.	120.33
3854	-8.75	6.5	0.	122.2
3855	-8.75	7.	0.	120.62
3856	-8.5	7.25	0.	116.36
3857	-8.25	7.	0.	120.63
3858	-8.5	-7.75	0.	125.07
3859	-8.5	-8.25	0.	125.29
3860	-8.75	-8.	0.	125.3
3861	-8.5	-7.25	0.	124.66
3862	-8.75	-7.5	0.	125.08
3863	-8.5	-6.75	0.	123.99
3864	-8.75	-7.	0.	124.7
3865	-8.75	-6.5	0.	124.13
3866	-8.5	-6.25	0.	123.03
3867	-8.75	-5.	0.	122.11
3868	-8.5	-4.75	0.	118.57
3869	-8.5	-5.25	0.	120.43
3870	-1.	-8.25	0.	128.15
3871	-0.75	-8.	0.	128.2
3872	3.75	-8.5	0.	129.93
3873	4.	-8.75	0.	130.88
3874	4.25	-8.5	0.	131.72
3875	3.25	-8.5	0.	129.4
3876	3.5	-8.75	0.	130.26
3877	3.	-8.75	0.	129.78
3878	2.75	-8.5	0.	129.13
3879	2.	-8.75	0.	128.9
3880	1.75	-8.5	0.	129.25
3881	2.25	-8.5	0.	129.11
3882	-1.25	-8.5	0.	128.01
3883	-1.	-8.75	0.	127.75
3884	-0.75	-8.5	0.	128.53
3885	-1.75	-8.5	0.	127.6
3886	-1.5	-8.75	0.	127.67
3887	-2.25	-8.5	0.	127.18
3888	-2.	-8.75	0.	127.4
3889	-2.75	-8.5	0.	126.58
3890	-2.5	-8.75	0.	126.93
3891	-3.25	-8.5	0.	125.71
3892	-3.	-8.75	0.	126.21
3893	-3.75	-8.5	0.	124.73
3894	-3.5	-8.75	0.	125.3
3895	-4.25	-8.5	0.	123.97
3896	-4.	-8.75	0.	124.43
3897	-4.75	-8.5	0.	123.76
3898	-4.5	-8.75	0.	123.94
3899	-5.25	-8.5	0.	124.11
3900	-5.	-8.75	0.	123.99
3901	-5.75	-8.5	0.	124.69
3902	-5.5	-8.75	0.	124.41
3903	-6.25	-8.5	0.	125.15
3904	-6.	-8.75	0.	124.89
3905	-6.75	-8.5	0.	125.37
3906	-6.5	-8.75	0.	125.21
3907	-7.25	-8.5	0.	125.39
3908	-7.	-8.75	0.	125.34
3909	-7.75	-8.5	0.	125.36
3910	-7.5	-8.75	0.	125.36
3911	-8.25	-8.5	0.	125.35
3912	-8.	-8.75	0.	125.36
3913	-8.75	-8.5	0.	125.41
3914	-8.5	-8.75	0.	125.4
3915	-8.25	4.	0.	123.01
3916	-8.5	3.75	0.	117.7
3917	-8.75	4.	0.	122.42
3918	-8.	4.25	0.	125.46
3919	-7.75	4.5	0.	127.85
3920	5.75	-5.9999	0.	120.59
3921	5.5	-6.2499	0.	114.03
3922	6.	-5.7499	0.	124.28
3923	6.25	-5.4998	0.	128.23
3924	7.25	-8.	0.	124.42
3925	7.5	-7.75	0.	120.22
3926	1.	3.75	0.	122.62
3927	1.25	3.5	0.	123.89
3928	0.75	4.	0.	124.85
3929	0.5	4.25	0.	129.33
3930	3.	5.25	0.	129.64
3931	3.25	5.5	0.	131.74
3932	2.75	5.5	0.	130.32
3933	7.25	4.	0.	122.88
3934	7.5	4.25	0.	117.48
3935	5.75	6.	0.	122.46
3936	5.5	5.75	0.	117.22
3937	6.	6.25	0.	125.97
3938	6.25	6.5	0.	128.71
3939	5.	1.7501	0.	119.69
3940	5.25	1.5001	0.	122.5
3941	5.	1.2501	0.	121.92
3942	7.	3.25	0.	125.29
3943	7.	3.75	0.	125.
3944	6.75	3.5	0.	127.86
3945	7.25	3.	0.	126.65
3946	7.5	2.75	0.	130.26
3947	6.75	3.	0.	125.67
3948	7.	2.75	0.	126.51
3949	5.	2.25	0.	118.94
3950	5.25	2.	0.	120.81
3951	6.25	6.	0.	129.36
3952	6.	5.75	0.	125.75
3953	7.	4.25	0.	125.5
3954	6.75	4.	0.	130.12
3955	3.	4.75	0.	129.33
3956	2.75	5.	0.	127.24
3957	3.25	5.	0.	132.16
3958	1.25	4.	0.	122.02
3959	1.	4.25	0.	123.43
3960	6.75	-8.	0.	131.62
3961	7.	-7.75	0.	128.01
3962	6.	-6.2499	0.	122.19
3963	6.25	-5.9999	0.	127.19
3964	-8.	3.75	0.	125.02
3965	-7.75	4.	0.	127.99
3966	-6.5	-2.75	0.	131.66
3967	-6.75	-2.5	0.	127.47
3968	-6.5	-2.25	0.	130.34
3969	-6.5	-4.25	0.	132.39
3970	-6.75	-4.5	0.	129.47
3971	-6.25	-4.5	0.	132.51
3972	-9.	-8.25	0.	125.42
3973	-9.	-8.75	0.	125.48
3974	-9.25	-8.5	0.	125.51
3975	-9.	-7.75	0.	125.31
3976	-9.25	-8.	0.	125.47
3977	-9.	-7.25	0.	125.12
3978	-9.25	-7.5	0.	125.41
3979	-9.	-6.75	0.	124.84
3980	-9.25	-7.	0.	125.36
3981	-9.	-6.25	0.	124.49
3982	-9.25	-6.5	0.	125.33
3983	-9.	-5.75	0.	124.2
3984	-9.25	-6.	0.	125.4
3985	-8.75	-6.	0.	123.39
3986	-9.	-5.25	0.	124.29
3987	-9.25	-5.5	0.	125.72
3988	-8.75	-5.5	0.	122.61
3989	-9.	-4.75	0.	125.59
3990	-9.25	-5.	0.	126.72
3991	-5.25	-3.5	0.	127.05
3992	-5.5	-3.75	0.	131.13
3993	-3.75	-3.5	0.	128.19
3994	-3.5	-3.75	0.	132.95
3995	-3.5	-6.25	0.	131.57
3996	-3.75	-6.5	0.	127.16
3997	-3.25	-6.5	0.	130.85
3998	-5.25	-6.5	0.	126.89
3999	-5.5	-6.25	0.	131.25
4000	-7.75	7.5	0.	127.26
4001	-7.5	7.75	0.	130.91
4002	-7.25	7.5	0.	130.08
4003	-9.	5.25	0.	124.73
4004	-9.25	5.	0.	125.57
4005	-9.	4.75	0.	124.72
4006	-9.	5.75	0.	124.23
4007	-9.25	5.5	0.	125.19
4008	-9.25	6.	0.	124.71
4009	-9.	6.25	0.	123.41
4010	-9.	7.25	0.	122.7
4011	-9.25	7.	0.	124.31
4012	-9.	6.75	0.	122.51
4013	5.75	0.50023	0.	123.92
4014	5.5	0.25036	0.	125.7
4015	5.5	0.75021	0.	126.79
4016	7.25	2.5	0.	130.11
4017	7.5	2.25	0.	132.65
4018	7.25	0.50005	0.	127.48
4019	7.5	0.75003	0.	131.03
4020	3.25	-9.	0.	130.64
4021	3.75	-9.	0.	131.22
4022	3.5	-9.25	0.	131.57
4023	3.	-9.25	0.	130.8
4024	2.75	-9.	0.	130.02
4025	2.	-9.25	0.	128.26
4026	2.25	-9.	0.	129.16
4027	1.75	-9.	0.	127.27
4028	0.25	-9.	0.	117.72
4029	0.5	-8.75	0.	112.28
4030	0.5	-9.25	0.	117.4
4031	0.75	-9.	0.	117.9
4032	-0.25	-9.	0.	122.26
4033	3.7872e-008	-8.75	0.	119.75
4034	5.2284e-008	-9.25	0.	119.86
4035	-0.75	-9.	0.	126.15
4036	-0.5	-8.75	0.	126.95
4037	-0.5	-9.25	0.	124.3
4038	-1.25	-9.	0.	127.4
4039	-1.	-9.25	0.	126.65
4040	-1.75	-9.	0.	127.48
4041	-1.5	-9.25	0.	127.33
4042	-2.25	-9.	0.	127.15
4043	-2.	-9.25	0.	127.32
4044	-2.75	-9.	0.	126.56
4045	-2.5	-9.25	0.	126.9
4046	-3.25	-9.	0.	125.79
4047	-3.	-9.25	0.	126.22
4048	-3.75	-9.	0.	125.
4049	-3.5	-9.25	0.	125.44
4050	-4.25	-9.	0.	124.4
4051	-4.	-9.25	0.	124.74
4052	-4.75	-9.	0.	124.16
4053	-4.5	-9.25	0.	124.31
4054	-5.25	-9.	0.	124.28
4055	-5.	-9.25	0.	124.24
4056	-5.75	-9.	0.	124.61
4057	-5.5	-9.25	0.	124.44
4058	-6.25	-9.	0.	124.94
4059	-6.	-9.25	0.	124.76
4060	-6.75	-9.	0.	125.18
4061	-6.5	-9.25	0.	125.03
4062	-7.25	-9.	0.	125.3
4063	-7.	-9.25	0.	125.22
4064	-7.75	-9.	0.	125.36
4065	-7.5	-9.25	0.	125.32
4066	-8.25	-9.	0.	125.4
4067	-8.	-9.25	0.	125.38
4068	-8.75	-9.	0.	125.47
4069	-8.5	-9.25	0.	125.44
4070	-9.	-9.25	0.	125.51
4071	-9.25	-9.	0.	125.54
4072	3.75	5.5	0.	130.26
4073	3.5	5.25	0.	134.19
4074	-0.25	-8.5	0.	124.43
4075	-0.5	-8.25	0.	128.56
4076	1.25	-8.5	0.	124.77
4077	1.5	-8.25	0.	129.04
4078	1.5	-8.75	0.	127.63
4079	1.5	-5.75	0.	128.73
4080	1.25	-5.5	0.	123.89
4081	1.5	-5.25	0.	127.36
4082	-0.25	-5.5	0.	121.49
4083	-0.5	-5.75	0.	126.4
4084	-8.75	-1.5	0.	127.26
4085	-8.25	-1.5	0.	121.33
4086	-8.5	-1.25	0.	126.58
4087	-8.5	-1.75	0.	123.6
4088	-6.5	-1.2499	0.	129.21
4089	-6.75	-1.5	0.	124.5
4090	-6.5	-1.7499	0.	129.38
4091	0.5	7.25	0.	132.4
4092	0.75	7.5	0.	129.35
4093	0.5	4.75	0.	131.54
4094	0.75	4.5	0.	127.89
4095	-6.75	9.	0.	126.12
4096	-7.25	9.	0.	128.31
4097	-7.	9.25	0.	126.65
4098	-6.25	9.	0.	125.5
4099	-6.5	9.25	0.	125.7
4100	-5.75	9.	0.	125.13
4101	-6.	9.25	0.	125.38
4102	-5.25	9.	0.	124.21
4103	-5.5	9.25	0.	124.75
4104	-5.	9.25	0.	123.73
4105	-4.75	9.	0.	122.95
4106	-2.75	9.	0.	125.55
4107	-3.	9.25	0.	124.68
4108	-3.25	9.	0.	123.79
4109	-2.25	9.	0.	126.91
4110	-2.5	9.25	0.	126.1
4111	-1.75	9.	0.	127.54
4112	-2.	9.25	0.	127.04
4113	-1.25	9.	0.	127.61
4114	-1.5	9.25	0.	127.44
4115	-0.75	9.	0.	127.31
4116	-1.	9.25	0.	127.45
4117	-0.25	9.	0.	126.7
4118	-0.5	9.25	0.	127.15
4119	0.25	9.	0.	125.75
4120	8.3689e-009	9.25	0.	126.52
4121	0.75	9.	0.	125.14
4122	0.5	9.25	0.	125.67
4123	0.5	8.75	0.	125.38
4124	1.25	9.	0.	126.36
4125	1.	9.25	0.	125.57
4126	1.25	8.	0.	123.89
4127	1.	7.75	0.	125.17
4128	3.	7.25	0.	127.13
4129	2.75	7.	0.	125.9
4130	3.5	7.75	0.	131.79
4131	3.25	7.5	0.	129.94
4132	6.5	6.25	0.	132.05
4133	6.75	6.5	0.	128.02
4134	8.75	4.5	0.	130.34
4135	8.5	4.75	0.	131.32
4136	8.25	4.5	0.	127.95
4137	8.75	6.5	0.	130.69
4138	8.5	6.25	0.	131.72
4139	8.25	6.5	0.	128.55
4140	-5.9999	1.2504	0.	124.73
4141	-6.2499	1.0003	0.	123.81
4142	-5.5	1.751	0.	132.24
4143	-5.7499	1.5007	0.	128.62
4144	-5.2499	1.5013	0.	131.4
4145	-7.5	4.25	0.	130.33
4146	-7.2501	4.5	0.	126.63
4147	3.25	2.5	0.	134.17
4148	3.75	2.5	0.	134.96
4149	3.5	2.75	0.	138.52
4150	1.5	2.75	0.	128.19
4151	1.75	2.5	0.	126.4
4152	4.25	9.	0.	124.7
4153	3.75	9.	0.	127.4
4154	4.	9.25	0.	125.51
4155	4.75	9.	0.	123.75
4156	4.5	9.25	0.	124.26
4157	5.25	9.	0.	123.62
4158	5.	9.25	0.	123.95
4159	5.75	9.	0.	123.68
4160	5.5	9.25	0.	123.87
4161	6.25	9.	0.	123.75
4162	6.	9.25	0.	123.86
4163	6.75	9.	0.	123.8
4164	6.5	9.25	0.	123.86
4165	7.25	9.	0.	123.9
4166	7.	9.25	0.	123.89
4167	7.	8.75	0.	123.7
4168	7.75	9.	0.	124.12
4169	7.5	9.25	0.	124.02
4170	8.25	9.	0.	124.48
4171	8.	9.25	0.	124.28
4172	8.5	9.25	0.	124.62
4173	8.75	9.	0.	124.9
4174	9.	7.25	0.	127.68
4175	9.25	7.5	0.	127.04
4176	9.	7.75	0.	126.49
4177	9.	6.75	0.	128.9
4178	9.25	7.	0.	127.98
4179	9.	6.25	0.	129.04
4180	9.25	6.5	0.	128.45
4181	9.	5.75	0.	127.95
4182	8.75	6.	0.	130.11
4183	9.25	6.	0.	127.74
4184	9.	5.25	0.	127.81
4185	8.75	5.5	0.	129.28
4186	9.25	5.5	0.	126.77
4187	9.	4.75	0.	128.77
4188	8.75	5.	0.	129.77
4189	9.25	5.	0.	127.45
4190	9.	4.25	0.	128.79
4191	9.25	4.5	0.	128.09
4192	9.	3.75	0.	128.07
4193	9.25	4.	0.	127.86
4194	9.	3.25	0.	127.59
4195	9.25	3.5	0.	127.43
4196	9.25	3.	0.	127.29
4197	9.	2.75	0.	127.49
4198	9.	1.25	0.	127.28
4199	9.25	1.5	0.	127.03
4200	9.	1.75	0.	127.24
4201	9.	0.75	0.	127.52
4202	9.25	1.	0.	127.22
4203	9.	0.25	0.	127.66
4204	9.25	0.5	0.	127.49
4205	8.75	0.5	0.	127.95
4206	9.	-0.25	0.	127.54
4207	9.25	1.8585e-006	0.	127.59
4208	9.	-0.74999	0.	127.19
4209	9.25	-0.5	0.	127.45
4210	9.	-1.25	0.	126.79
4211	9.25	-1.	0.	127.18
4212	9.	-1.75	0.	126.43
4213	9.25	-1.5	0.	126.9
4214	8.9999	-2.25	0.	126.15
4215	9.25	-2.	0.	126.68
4216	9.25	-2.5	0.	126.55
4217	8.9999	-2.75	0.	125.92
4218	8.9999	-3.75	0.	125.53
4219	9.2499	-3.5	0.	126.6
4220	8.9999	-3.25	0.	125.72
4221	8.9999	-4.25	0.	125.4
4222	9.2499	-4.	0.	126.81
4223	8.9999	-4.75	0.	125.6
4224	9.25	-4.5	0.	127.22
4225	9.	-5.25	0.	126.84
4226	9.25	-5.	0.	128.2
4227	6.5	-5.7499	0.	131.06
4228	6.75	-5.4999	0.	128.62
4229	-2.5	4.7503	0.	133.56
4230	-2.75	4.5005	0.	130.53
4231	-2.25	4.5004	0.	132.99
4232	-2.75	7.5	0.	130.36
4233	-2.5	7.25	0.	133.3
4234	-5.5	7.25	0.	132.14
4235	-5.25	7.5	0.	128.74
4236	-5.5002	4.7505	0.	136.55
4237	-5.2503	4.5007	0.	134.89
4238	-5.7502	4.5004	0.	133.75
4239	-5.5002	4.2507	0.	136.76
4240	1.25	-0.49998	0.	129.38
4241	1.5	-0.74996	0.	132.24
4242	1.5	-0.24997	0.	130.95
4243	-1.5	-0.74985	0.	133.71
4244	-1.2501	-0.49987	0.	130.36
4245	-1.25	-3.5	0.	129.92
4246	-1.5	-3.25	0.	133.97
4247	-1.5	-3.75	0.	132.26
4248	1.25	-3.5	0.	127.25
4249	1.5	-3.25	0.	131.2
4250	1.75	-3.4999	0.	130.92
4251	4.5	-6.75	0.	129.95
4252	4.75	-6.4999	0.	125.85
4253	4.25	-9.	0.	131.38
4254	4.	-9.25	0.	132.11
4255	9.	-8.25	0.	125.58
4256	9.	-7.75	0.	126.68
4257	9.25	-8.	0.	127.92
4258	9.25	-8.5	0.	127.15
4259	9.	-8.75	0.	125.69
4260	7.75	-9.	0.	124.15
4261	8.	-9.25	0.	124.32
4262	8.25	-9.	0.	123.8
4263	7.25	-9.	0.	125.95
4264	7.5	-9.25	0.	125.48
4265	6.75	-9.	0.	128.1
4266	7.	-9.25	0.	127.57
4267	-9.	-1.75	0.	127.92
4268	-9.	-2.25	0.	127.49
4269	-9.25	-2.	0.	129.92
4270	-8.75	-2.	0.	124.2
4271	-9.	-1.25	0.	128.66
4272	-9.25	-1.5	0.	129.99
4273	-9.	-0.75	0.	128.88
4274	-8.75	-1.	0.	127.97
4275	-9.25	-1.	0.	129.79
4276	-9.	-0.25	0.	129.16
4277	-8.75	-0.5	0.	129.65
4278	-9.25	-0.5	0.	129.54
4279	-9.	0.25	0.	128.92
4280	-8.75	1.0324e-008	0.	130.85
4281	-9.25	9.0312e-009	0.	129.78
4282	-9.	0.75	0.	128.15
4283	-8.75	0.5	0.	129.29
4284	-9.25	0.5	0.	129.48
4285	-9.	1.25	0.	128.17
4286	-8.75	1.	0.	126.86
4287	-9.25	1.	0.	129.84
4288	-8.75	1.5	0.	124.15
4289	-9.25	1.5	0.	131.95
4290	-8.25	1.5	0.	122.37
4291	-8.5	1.25	0.	122.97
4292	-8.25	3.5	0.	119.61
4293	-7.75	3.5	0.	130.57
4294	-8.75	3.5	0.	119.76
4295	-9.25	3.5	0.	128.79
4296	-9.	3.75	0.	124.56
4297	6.5	-7.75	0.	137.06
4298	6.75	-7.5	0.	133.42
4299	6.5	-7.25	0.	136.45
4300	6.5	-8.25	0.	133.9
4301	6.5	-8.75	0.	130.47
4302	6.5	-9.25	0.	128.89
4303	4.5	-8.75	0.	132.19
4304	4.5	-9.25	0.	131.54
4305	4.5	-8.25	0.	133.95
4306	4.5	-7.75	0.	133.76
4307	4.5	-7.25	0.	131.28
4308	5.75	-6.5	0.	115.45
4309	6.25	-6.5	0.	127.7
4310	5.25	-6.4999	0.	115.55
4311	0.75	-3.5	0.	117.71
4312	0.25	-3.5	0.	112.37
4313	-0.25	-3.5	0.	113.02
4314	-0.75	-3.5	0.	119.57
4315	-1.5	-2.75	0.	134.61
4316	-1.75	-3.	0.	133.26
4317	-1.5	-2.25	0.	136.35
4318	-1.5	-1.7499	0.	136.28
4319	-1.5	-1.2499	0.	134.37
4320	-0.75004	-0.49993	0.	120.91
4321	-0.25003	-0.49997	0.	115.01
4322	0.24998	-0.49999	0.	114.83
4323	0.74998	-0.49999	0.	120.4
4324	1.5	-1.25	0.	132.72
4325	1.5	-1.75	0.	134.4
4326	1.5	-2.75	0.	132.08
4327	1.5	-2.25	0.	134.09
4328	-5.5001	5.2502	0.	134.22
4329	-5.5	5.7501	0.	135.12
4330	-5.5	6.25	0.	134.7
4331	-5.5	6.75	0.	132.89
4332	-5.75	7.	0.	130.93
4333	-5.75	6.5	0.	131.12
4334	-4.75	7.5	0.	120.09
4335	-4.25	7.5	0.	115.08
4336	-3.75	7.5	0.	115.35
4337	-3.25	7.5	0.	121.25
4338	-3.	7.75	0.	126.03
4339	-3.5	7.75	0.	117.46
4340	-2.5	6.75	0.	134.08
4341	-2.5	6.25	0.	136.09
4342	-2.5	5.7501	0.	136.11
4343	-2.5	5.2502	0.	134.26
4344	-2.25	5.0002	0.	132.27
4345	-3.25	4.5006	0.	121.59
4346	-4.7502	4.5009	0.	123.88
4347	-4.2502	4.5011	0.	116.89
4348	-4.5003	4.2515	0.	119.08
4349	-3.7501	4.5009	0.	116.25
4350	8.75	-7.5	0.	123.28
4351	9.25	-7.5	0.	130.71
4352	8.25	-7.5	0.	119.18
4353	7.75	-7.5	0.	119.2
4354	7.25	-7.5	0.	123.78
4355	6.5	-6.75	0.	134.43
4356	6.5	-6.2499	0.	132.71
4357	7.2499	-5.4999	0.	122.64
4358	7.75	-5.4999	0.	119.29
4359	8.25	-5.5	0.	119.48
4360	8.75	-5.5	0.	123.5
4361	9.25	-5.5	0.	131.
4362	1.5	3.25	0.	126.19
4363	1.5	3.75	0.	123.29
4364	1.5	4.25	0.	117.8
4365	2.75	4.5	0.	123.6
4366	3.25	4.5	0.	135.2
4367	2.5	4.75	0.	121.66
4368	2.25	4.5	0.	119.3
4369	2.75	2.5	0.	122.27
4370	2.25	2.5	0.	119.46
4371	-7.5	2.25	0.	130.03
4372	-7.5	1.75	0.	122.78
4373	-7.5	2.75	0.	135.37
4374	-7.5	3.25	0.	136.58
4375	-7.5	3.75	0.	133.59
4376	-6.7501	4.5001	0.	118.46
4377	-6.2501	4.5002	0.	120.74
4378	-5.5002	3.7509	0.	134.45
4379	-5.5001	3.2511	0.	134.96
4380	-5.5001	2.7511	0.	134.2
4381	-5.5	2.2511	0.	132.62
4382	-6.25	1.5002	0.	120.21
4383	-6.75	1.5001	0.	119.61
4384	-6.5	1.2501	0.	119.51
4385	8.5	5.75	0.	131.42
4386	8.5	5.25	0.	131.21
4387	7.75	4.5	0.	119.23
4388	7.25	4.5	0.	120.
4389	6.75	4.5	0.	132.03
4390	6.5	5.75	0.	134.65
4391	6.25	5.5	0.	131.01
4392	6.5	5.25	0.	136.2
4393	7.25	6.5	0.	119.94
4394	7.	6.75	0.	124.02
4395	7.75	6.5	0.	120.06
4396	3.5	8.75	0.	129.88
4397	3.5	9.25	0.	128.87
4398	3.5	8.25	0.	130.87
4399	2.75	7.5	0.	122.99
4400	2.25	7.5	0.	120.07
4401	2.5	7.25	0.	121.9
4402	1.5	8.25	0.	125.07
4403	1.5	7.75	0.	119.68
4404	1.5	8.75	0.	127.14
4405	1.5	9.25	0.	128.01
4406	1.75	4.5	0.	117.23
4407	1.25	4.5	0.	119.05
4408	0.5	5.25	0.	132.74
4409	0.5	5.75	0.	134.81
4410	0.5	6.25	0.	135.02
4411	0.5	6.75	0.	133.28
4412	0.25	6.5	0.	132.28
4413	1.25	7.5	0.	120.82
4414	1.75	7.5	0.	118.54
4415	2.5	6.75	0.	127.54
4416	2.5	6.25	0.	131.42
4417	2.5	5.75	0.	131.74
4418	2.5	5.25	0.	127.9
4419	-7.75	1.5	0.	121.72
4420	-7.25	1.5	0.	121.12
4421	-6.5	0.75017	0.	125.66
4422	-6.5	0.25016	0.	129.56
4423	-6.5	-0.24986	0.	130.23
4424	-6.5	-0.74988	0.	129.07
4425	-7.25	-1.5	0.	112.45
4426	-7.75	-1.5	0.	111.36
4427	-8.5	-0.75	0.	128.73
4428	-8.5	0.75	0.	128.02
4429	-8.5	0.25	0.	131.23
4430	-8.5	-0.25	0.	131.34
4431	0.25	-5.5	0.	111.68
4432	0.75	-5.5	0.	112.58
4433	1.5	-6.25	0.	129.63
4434	1.5	-6.75	0.	131.61
4435	1.5	-7.25	0.	131.69
4436	1.75	-7.	0.	130.4
4437	1.5	-7.75	0.	129.84
4438	0.75	-8.5	0.	114.25
4439	1.	-8.75	0.	120.01
4440	0.25	-8.5	0.	114.18
4441	-0.5	-6.25	0.	128.21
4442	-0.5	-6.75	0.	130.75
4443	-0.5	-7.25	0.	131.23
4444	-0.5	-7.75	0.	129.46
4445	4.25	5.5	0.	121.57
4446	4.75	5.5	0.	115.74
4447	5.25	5.5	0.	115.31
4448	5.75	5.5	0.	120.47
4449	6.5	4.75	0.	137.07
4450	6.5	4.25	0.	136.66
4451	6.5	3.75	0.	133.02
4452	6.5	3.25	0.	128.28
4453	6.5	2.75	0.	122.56
4454	5.25	2.5	0.	119.73
4455	5.5	2.25	0.	121.61
4456	5.75	2.5	0.	123.1
4457	4.75	2.5	0.	118.65
4458	4.25	2.5	0.	124.64
4459	3.5	3.25	0.	139.43
4460	3.5	3.75	0.	141.97
4461	3.5	4.75	0.	138.09
4462	3.5	4.25	0.	142.06
4463	-6.5	-3.25	0.	131.34
4464	-6.5	-3.75	0.	131.55
4465	-7.25	-4.5	0.	121.41
4466	-7.75	-4.5	0.	117.24
4467	-8.25	-4.5	0.	117.51
4468	-8.75	-4.5	0.	122.04
4469	-9.25	-4.5	0.	129.73
4470	-9.25	-2.5	0.	131.45
4471	-8.75	-2.5	0.	122.52
4472	-7.25	-2.5	0.	118.45
4473	-7.75	-2.5	0.	114.75
4474	-8.25	-2.5	0.	116.67
4475	-4.75	-3.5	0.	117.1
4476	-4.25	-3.5	0.	117.31
4477	-3.5	-4.25	0.	134.09
4478	-3.25	-4.	0.	132.89
4479	-3.5	-4.75	0.	135.98
4480	-3.5	-5.25	0.	135.61
4481	-3.5	-5.75	0.	133.1
4482	-4.25	-6.5	0.	116.97
4483	-4.75	-6.5	0.	116.89
4484	-5.5	-5.75	0.	132.87
4485	-5.5	-5.25	0.	135.45
4486	-5.5	-4.75	0.	135.65
4487	-5.75	-5.	0.	134.31
4488	-5.5	-4.25	0.	132.96
4489	-5.75	-4.5	0.	133.37
4490	-8.25	7.5	0.	118.55
4491	-8.	7.25	0.	122.89
4492	-8.75	7.5	0.	118.37
4493	-9.25	7.5	0.	126.65
4494	-7.5	8.25	0.	130.9
4495	-7.5	8.75	0.	130.38
4496	-7.5	9.25	0.	129.71
4497	5.5	1.7501	0.	123.62
4498	5.5	1.2501	0.	125.52
4499	6.25	2.5	0.	122.34
4500	6.75	2.5	0.	123.27
4501	7.5	1.75	0.	132.07
4502	7.75	2.	0.	130.98
4503	7.5	1.25	0.	131.26
4504	6.75	0.50009	0.	117.88
4505	7.	0.2501	0.	122.97
4506	6.25	0.50015	0.	116.22
4507	8.75	-9.5	0.	125.76
4508	9.25	-9.5	0.	127.16
4509	9.	-9.25	0.	126.12
4510	8.25	-9.5	0.	125.12
4511	8.5	-9.25	0.	124.6
4512	7.75	-9.5	0.	125.66
4513	7.25	-9.5	0.	127.12
4514	6.75	-9.5	0.	128.39
4515	6.25	-9.5	0.	123.81
4516	5.75	-9.5	0.	113.25
4517	5.25	-9.5	0.	114.04
4518	4.75	-9.5	0.	126.15
4519	4.25	-9.5	0.	132.29
4520	3.75	-9.5	0.	132.46
4521	3.25	-9.5	0.	131.73
4522	2.75	-9.5	0.	130.57
4523	2.25	-9.5	0.	128.88
4524	2.5	-9.25	0.	129.78
4525	1.75	-9.5	0.	126.24
4526	1.25	-9.5	0.	122.69
4527	1.5	-9.25	0.	125.25
4528	0.75	-9.5	0.	119.75
4529	1.	-9.25	0.	120.28
4530	0.25	-9.5	0.	119.51
4531	-0.25	-9.5	0.	121.91
4532	-0.75	-9.5	0.	124.79
4533	-1.25	-9.5	0.	126.57
4534	-1.75	-9.5	0.	127.18
4535	-2.25	-9.5	0.	127.07
4536	-2.75	-9.5	0.	126.57
4537	-3.25	-9.5	0.	125.88
4538	-3.75	-9.5	0.	125.18
4539	-4.25	-9.5	0.	124.65
4540	-4.75	-9.5	0.	124.38
4541	-5.25	-9.5	0.	124.39
4542	-5.75	-9.5	0.	124.59
4543	-6.25	-9.5	0.	124.85
4544	-6.75	-9.5	0.	125.07
4545	-7.25	-9.5	0.	125.24
4546	-7.75	-9.5	0.	125.34
4547	-8.25	-9.5	0.	125.42
4548	-8.75	-9.5	0.	125.48
4549	-9.25	-9.5	0.	125.56
4550	-9.5	-9.25	0.	125.59
4551	-9.5	-8.75	0.	125.57
4552	-9.5	-8.25	0.	125.56
4553	-9.5	-7.75	0.	125.58
4554	-9.5	-7.25	0.	125.65
4555	-9.5	-6.75	0.	125.84
4556	-9.5	-6.25	0.	126.23
4557	-9.5	-5.75	0.	126.91
4558	-9.5	-5.25	0.	128.15
4559	-9.5	-4.75	0.	130.92
4560	-9.5	-4.25	0.	132.97
4561	-9.5	-3.75	0.	133.39
4562	-9.5	-3.25	0.	134.3
4563	-9.5	-2.75	0.	135.09
4564	-9.5	-2.25	0.	133.9
4565	-9.5	-1.75	0.	131.99
4566	-9.5	-1.25	0.	131.12
4567	-9.5	-0.75	0.	130.46
4568	-9.5	-0.25	0.	130.16
4569	-9.5	0.25	0.	130.33
4570	-9.5	0.75	0.	131.16
4571	-9.5	1.25	0.	133.63
4572	-9.5	1.75	0.	135.49
4573	-9.5	2.25	0.	135.16
4574	-9.5	2.75	0.	133.91
4575	-9.5	3.25	0.	132.74
4576	-9.5	3.75	0.	130.39
4577	-9.5	4.25	0.	127.65
4578	-9.25	4.	0.	126.12
4579	-9.5	4.75	0.	126.6
4580	-9.25	4.5	0.	125.74
4581	-9.5	5.25	0.	126.03
4582	-9.5	5.75	0.	125.67
4583	-9.5	6.25	0.	125.57
4584	-9.5	6.75	0.	126.07
4585	-9.25	6.5	0.	124.28
4586	-9.5	7.25	0.	128.29
4587	-9.5	7.75	0.	130.21
4588	-9.5	8.25	0.	130.58
4589	-9.5	8.75	0.	130.27
4590	-9.5	9.25	0.	129.12
4591	-9.25	9.5	0.	126.88
4592	-8.75	9.5	0.	121.18
4593	-8.25	9.5	0.	121.6
4594	-7.75	9.5	0.	127.8
4595	-7.25	9.5	0.	128.07
4596	-6.75	9.5	0.	126.23
4597	-6.25	9.5	0.	125.58
4598	-5.75	9.5	0.	125.
4599	-5.25	9.5	0.	124.27
4600	-4.75	9.5	0.	123.56
4601	-4.25	9.5	0.	123.18
4602	-4.5	9.25	0.	122.78
4603	-3.75	9.5	0.	123.39
4604	-4.	9.25	0.	122.53
4605	-3.25	9.5	0.	124.18
4606	-3.5	9.25	0.	123.28
4607	-2.75	9.5	0.	125.24
4608	-2.25	9.5	0.	126.23
4609	-1.75	9.5	0.	126.93
4610	-1.25	9.5	0.	127.28
4611	-0.75	9.5	0.	127.28
4612	-0.25	9.5	0.	126.98
4613	0.25	9.5	0.	126.45
4614	0.75	9.5	0.	126.11
4615	1.25	9.5	0.	127.23
4616	1.75	9.5	0.	126.6
4617	2.25	9.5	0.	120.43
4618	2.75	9.5	0.	120.58
4619	3.25	9.5	0.	126.76
4620	3.75	9.5	0.	127.
4621	4.25	9.5	0.	125.07
4622	4.75	9.5	0.	124.46
4623	5.25	9.5	0.	124.2
4624	5.75	9.5	0.	124.05
4625	6.25	9.5	0.	123.96
4626	6.75	9.5	0.	123.94
4627	7.25	9.5	0.	124.01
4628	7.75	9.5	0.	124.17
4629	8.25	9.5	0.	124.42
4630	8.75	9.5	0.	124.7
4631	9.25	9.5	0.	124.96
4632	9.	9.25	0.	124.97
4633	9.5	9.25	0.	125.27
4634	9.5	8.75	0.	125.69
4635	9.25	9.	0.	125.28
4636	9.5	8.25	0.	126.22
4637	9.25	8.5	0.	125.71
4638	9.5	7.75	0.	126.82
4639	9.25	8.	0.	126.27
4640	9.5	7.25	0.	127.34
4641	9.5	6.75	0.	127.54
4642	9.5	6.25	0.	127.16
4643	9.5	5.75	0.	126.56
4644	9.5	5.25	0.	126.4
4645	9.5	4.75	0.	126.77
4646	9.5	4.25	0.	127.15
4647	9.5	3.75	0.	127.21
4648	9.5	3.25	0.	127.12
4649	9.5	2.75	0.	127.01
4650	9.5	2.25	0.	126.91
4651	9.25	2.5	0.	127.22
4652	9.5	1.75	0.	126.87
4653	9.25	2.	0.	127.08
4654	9.5	1.25	0.	126.97
4655	9.5	0.75	0.	127.2
4656	9.5	-0.25	0.	127.5
4657	9.5	0.25	0.	127.41
4658	9.5	-0.75	0.	127.45
4659	9.5	-1.25	0.	127.3
4660	9.5	-1.75	0.	127.15
4661	9.5	-2.25	0.	127.08
4662	9.5	-2.75	0.	127.14
4663	9.5	-3.25	0.	127.4
4664	9.2499	-3.	0.	126.52
4665	9.5	-3.75	0.	127.88
4666	9.5	-4.25	0.	128.62
4667	9.5	-4.75	0.	129.82
4668	9.5	-5.25	0.	132.4
4669	9.5	-5.75	0.	134.21
4670	9.5	-6.25	0.	134.07
4671	9.5	-6.75	0.	133.89
4672	9.5	-7.25	0.	133.83
4673	9.5	-7.75	0.	131.99
4674	9.5	-8.25	0.	129.49
4675	9.5	-8.75	0.	128.53
4676	9.5	-9.25	0.	128.11
4677	9.25	-9.	0.	127.07
4678	6.2495	-2.499	0.	122.81
4679	6.7496	-2.4994	0.	122.74
4680	3.7499	-3.4994	0.	126.86
4681	3.2499	-3.4996	0.	127.82
4682	2.5	-8.75	0.	129.36
4683	-8.5	-5.75	0.	121.8
4684	-2.25	-3.	0.	132.27
4685	-3.7502	1.5019	0.	127.36
4686	7.	7.25	0.	123.1
4687	3.4998	-0.74964	0.	126.01
4688	5.25	1.0002	0.	124.92
4689	-2.7501	-0.49962	0.	129.76
4690	-2.5001	-0.7497	0.	130.12
4691	-2.75	-6.5	0.	129.56
4692	-2.25	-6.5	0.	128.35
4693	9.	8.75	0.	125.3
4694	8.75	-9.	0.	124.97
4695	5.4999	-0.24943	0.	123.48
4696	3.2498	-0.99966	0.	126.23
4697	-9.	4.25	0.	124.21
4698	-4.2503	2.5026	0.	125.18
4699	9.	8.25	0.	125.75
4700	-6.	6.75	0.	129.14
4701	-4.2501	1.5019	0.	128.01
4702	-1.75	-6.5	0.	127.46
4703	-2.	4.7502	0.	131.66
4704	-8.5	-2.25	0.	119.3
4705	-4.25	9.	0.	122.12
4706	-7.25	-5.5	0.	122.85
4707	-2.75	-4.	0.	132.6
4708	-3.25	8.	0.	122.22
4709	-3.5	-1.7499	0.	126.75
4710	-3.5	-1.2498	0.	127.18
4711	9.	2.25	0.	127.39
4712	2.7499	-0.99979	0.	127.27
4713	2.25	-3.4998	0.	129.88
4714	2.	-3.7499	0.	130.09
4715	-6.	-4.75	0.	132.03
4716	-3.2501	-0.49959	0.	128.56
4717	-4.75	1.5017	0.	129.41
4718	7.	-0.24982	0.	122.28
4719	-3.	-2.75	0.	130.01
4720	-2.75	-3.	0.	131.36
4721	-3.25	-2.5	0.	127.98
4722	2.75	-3.4997	0.	128.82
4723	-3.75	9.	0.	122.41
4724	5.	7.25	0.	122.95
4725	-3.5	-2.2499	0.	126.78
4726	-3.5	-0.74968	0.	127.76
4727	1.25	-9.	0.	122.85
4728	3.	-3.7497	0.	128.67
4729	6.	-7.	0.	96.904
4730	5.	-7.	0.	95.232
4731	6.	-9.	0.	95.058
4732	5.	-9.	0.	95.526
4733	5.5	-7.	0.	109.87
4734	6.	-7.5	0.	101.5
4735	6.	-8.	0.	100.05
4736	6.	-8.5	0.	99.802
4737	5.	-7.5	0.	99.964
4738	5.	-8.	0.	99.104
4739	5.	-8.5	0.	99.918
4740	5.5	-9.	0.	108.67
4741	5.5	-7.5	0.	104.88
4742	5.5	-8.	0.	102.85
4743	5.5	-8.5	0.	104.38
4744	5.75	-7.	0.	103.34
4745	6.	-7.25	0.	99.198
4746	5.25	-7.	0.	102.49
4747	5.	-7.25	0.	97.595
4748	6.	-8.75	0.	97.429
4749	5.75	-9.	0.	101.83
4750	5.	-8.75	0.	97.72
4751	5.25	-9.	0.	102.06
4752	5.5	-7.25	0.	107.31
4753	6.	-7.75	0.	100.75
4754	5.75	-7.5	0.	103.13
4755	6.	-8.25	0.	99.899
4756	5.75	-8.	0.	101.45
4757	5.75	-8.5	0.	102.07
4758	5.	-7.75	0.	99.489
4759	5.25	-7.5	0.	102.37
4760	5.	-8.25	0.	99.471
4761	5.25	-8.	0.	100.98
4762	5.25	-8.5	0.	102.12
4763	5.5	-8.75	0.	106.48
4764	5.5	-7.75	0.	103.86
4765	5.5	-8.25	0.	103.61
4766	-4.	-4.	0.	97.264
4767	-5.	-4.	0.	96.541
4768	-4.	-6.	0.	96.917
4769	-5.	-6.	0.	96.844
4770	-4.5	-4.	0.	111.06
4771	-4.	-4.5	0.	101.42
4772	-4.	-5.	0.	100.4
4773	-4.	-5.5	0.	101.24
4774	-5.	-4.5	0.	101.13
4775	-5.	-5.	0.	100.29
4776	-5.	-5.5	0.	101.19
4777	-4.5	-6.	0.	110.95
4778	-4.5	-4.5	0.	105.7
4779	-4.5	-5.	0.	103.7
4780	-4.5	-5.5	0.	105.78
4781	-4.25	-4.	0.	104.11
4782	-4.	-4.25	0.	99.338
4783	-4.75	-4.	0.	103.75
4784	-5.	-4.25	0.	98.832
4785	-4.	-5.75	0.	99.077
4786	-4.25	-6.	0.	103.89
4787	-5.	-5.75	0.	99.015
4788	-4.75	-6.	0.	103.85
4789	-4.5	-4.25	0.	108.32
4790	-4.	-4.75	0.	100.87
4791	-4.25	-4.5	0.	103.51
4792	-4.	-5.25	0.	100.78
4793	-4.25	-5.	0.	102.05
4794	-4.25	-5.5	0.	103.47
4795	-5.	-4.75	0.	100.67
4796	-4.75	-4.5	0.	103.36
4797	-5.	-5.25	0.	100.7
4798	-4.75	-5.	0.	101.99
4799	-4.75	-5.5	0.	103.44
4800	-4.5	-5.75	0.	108.32
4801	-4.5	-4.75	0.	104.7
4802	-4.5	-5.25	0.	104.74
4803	1.	-6.	0.	93.603
4804	0.	-6.	0.	92.915
4805	1.	-8.	0.	94.288
4806	0.	-8.	0.	94.053
4807	0.5	-6.	0.	106.66
4808	1.	-6.5	0.	97.705
4809	1.	-7.	0.	96.887
4810	1.	-7.5	0.	98.087
4811	0.	-6.5	0.	97.165
4812	0.	-7.	0.	96.629
4813	0.	-7.5	0.	97.969
4814	0.5	-8.	0.	107.93
4815	0.5	-6.5	0.	101.66
4816	0.5	-7.	0.	99.9
4817	0.5	-7.5	0.	102.26
4818	0.75	-6.	0.	100.09
4819	1.	-6.25	0.	95.651
4820	0.25	-6.	0.	99.753
4821	0.	-6.25	0.	95.039
4822	1.	-7.75	0.	96.185
4823	0.75	-8.	0.	101.06
4824	0.	-7.75	0.	96.006
4825	0.25	-8.	0.	100.94
4826	0.5	-6.25	0.	104.12
4827	1.	-6.75	0.	97.261
4828	0.75	-6.5	0.	99.641
4829	1.	-7.25	0.	97.449
4830	0.75	-7.	0.	98.393
4831	0.75	-7.5	0.	100.12
4832	0.	-6.75	0.	96.86
4833	0.25	-6.5	0.	99.372
4834	0.	-7.25	0.	97.264
4835	0.25	-7.	0.	98.264
4836	0.25	-7.5	0.	100.06
4837	0.5	-7.75	0.	105.05
4838	0.5	-6.75	0.	100.78
4839	0.5	-7.25	0.	101.08
4840	-8.	9.	0.	99.984
4841	-9.	9.	0.	100.52
4842	-8.	8.	0.	99.466
4843	-9.	8.	0.	99.587
4844	-8.5	9.	0.	117.14
4845	-8.	8.5	0.	105.33
4846	-9.	8.5	0.	105.49
4847	-8.5	8.	0.	115.26
4848	-8.5	8.5	0.	113.77
4849	-8.25	9.	0.	108.53
4850	-8.	8.75	0.	102.64
4851	-8.75	9.	0.	108.8
4852	-9.	8.75	0.	103.
4853	-8.	8.25	0.	102.38
4854	-8.25	8.	0.	107.35
4855	-9.	8.25	0.	102.53
4856	-8.75	8.	0.	107.41
4857	-8.5	8.75	0.	115.39
4858	-8.25	8.5	0.	109.52
4859	-8.75	8.5	0.	109.61
4860	-8.5	8.25	0.	114.46
4861	9.	-6.	0.	101.87
4862	7.	-6.	0.	101.07
4863	9.	-7.	0.	101.64
4864	7.	-7.	0.	101.52
4865	8.5	-6.	0.	118.25
4866	8.	-6.	0.	116.71
4867	7.5	-6.	0.	117.91
4868	9.	-6.5	0.	106.89
4869	7.	-6.5	0.	106.64
4870	7.5	-7.	0.	118.08
4871	8.	-7.	0.	116.57
4872	8.5	-7.	0.	118.13
4873	7.5	-6.5	0.	117.02
4874	8.	-6.5	0.	120.1
4875	8.5	-6.5	0.	117.28
4876	8.75	-6.	0.	110.02
4877	9.	-6.25	0.	104.37
4878	7.25	-6.	0.	109.46
4879	7.	-6.25	0.	103.84
4880	9.	-6.75	0.	104.26
4881	8.75	-7.	0.	109.84
4882	7.	-6.75	0.	104.07
4883	7.25	-7.	0.	109.75
4884	8.25	-6.	0.	117.47
4885	8.5	-6.25	0.	117.74
4886	7.75	-6.	0.	117.3
4887	8.	-6.25	0.	118.4
4888	7.5	-6.25	0.	117.45
4889	8.75	-6.5	0.	112.08
4890	7.25	-6.5	0.	111.82
4891	7.75	-7.	0.	117.32
4892	7.5	-6.75	0.	117.52
4893	8.25	-7.	0.	117.34
4894	8.	-6.75	0.	118.32
4895	8.5	-6.75	0.	117.68
4896	7.75	-6.5	0.	118.56
4897	8.25	-6.5	0.	118.69
4898	-3.	7.	0.	98.554
4899	-5.	7.	0.	98.46
4900	-3.	5.	0.	98.96
4901	-5.	5.	0.	100.2
4902	-3.5	7.	0.	113.01
4903	-4.	7.	0.	110.44
4904	-4.5	7.	0.	112.58
4905	-3.	6.5	0.	103.15
4906	-3.	6.	0.	101.91
4907	-3.	5.5	0.	103.25
4908	-5.	6.5	0.	102.54
4909	-5.	6.	0.	101.85
4910	-5.	5.5	0.	103.94
4911	-4.5	5.	0.	114.57
4912	-4.	5.	0.	111.5
4913	-3.5	5.	0.	113.57
4914	-4.	6.	0.	113.27
4915	-4.	6.5	0.	113.15
4916	-3.5	6.5	0.	110.61
4917	-3.5	6.	0.	109.99
4918	-3.5	5.5	0.	110.94
4919	-4.	5.5	0.	113.84
4920	-4.5	5.5	0.	111.54
4921	-4.5	6.	0.	110.17
4922	-4.5	6.5	0.	110.46
4923	-3.25	7.	0.	105.71
4924	-3.	6.75	0.	100.84
4925	-4.75	7.	0.	105.46
4926	-5.	6.75	0.	100.49
4927	-3.	5.25	0.	101.09
4928	-3.25	5.	0.	106.19
4929	-5.	5.25	0.	102.06
4930	-4.75	5.	0.	107.28
4931	-3.75	7.	0.	111.73
4932	-3.5	6.75	0.	111.78
4933	-4.25	7.	0.	111.51
4934	-4.	6.75	0.	111.78
4935	-4.5	6.75	0.	111.49
4936	-3.	6.25	0.	102.49
4937	-3.25	6.5	0.	106.87
4938	-3.	5.75	0.	102.54
4939	-3.25	6.	0.	105.95
4940	-3.25	5.5	0.	107.07
4941	-5.	6.25	0.	102.16
4942	-4.75	6.5	0.	106.49
4943	-5.	5.75	0.	102.87
4944	-4.75	6.	0.	106.01
4945	-4.75	5.5	0.	107.72
4946	-4.25	5.	0.	113.04
4947	-4.5	5.25	0.	113.02
4948	-3.75	5.	0.	112.54
4949	-4.	5.25	0.	112.66
4950	-3.5	5.25	0.	112.23
4951	-4.	6.25	0.	113.21
4952	-3.75	6.	0.	111.63
4953	-4.	5.75	0.	113.55
4954	-4.25	6.	0.	111.72
4955	-3.75	6.5	0.	111.87
4956	-4.25	6.5	0.	111.8
4957	-3.5	6.25	0.	110.29
4958	-3.5	5.75	0.	110.45
4959	-3.75	5.5	0.	112.37
4960	-4.25	5.5	0.	112.67
4961	-4.5	5.75	0.	110.85
4962	-4.5	6.25	0.	110.31
4963	7.	2.	0.	100.94
4964	6.	2.	0.	96.678
4965	7.	1.	0.	98.402
4966	6.	1.	0.	96.918
4967	6.5	2.	0.	115.88
4968	7.	1.5	0.	104.93
4969	6.	1.5	0.	101.97
4970	6.5	1.	0.	113.15
4971	6.5	1.5	0.	111.69
4972	6.75	2.	0.	108.38
4973	7.	1.75	0.	102.92
4974	6.25	2.	0.	106.23
4975	6.	1.75	0.	99.295
4976	7.	1.25	0.	101.65
4977	6.75	1.	0.	105.75
4978	6.	1.25	0.	99.431
4979	6.25	1.	0.	105.03
4980	6.5	1.75	0.	113.74
4981	6.75	1.5	0.	108.28
4982	6.25	1.5	0.	106.8
4983	6.5	1.25	0.	112.36
4984	2.	7.	0.	94.655
4985	1.	7.	0.	97.736
4986	2.	5.	0.	93.872
4987	1.	5.	0.	97.001
4988	1.5	7.	0.	111.51
4989	2.	6.5	0.	98.922
4990	2.	6.	0.	97.915
4991	2.	5.5	0.	98.647
4992	1.	6.5	0.	101.28
4993	1.	6.	0.	99.625
4994	1.	5.5	0.	100.72
4995	1.5	5.	0.	110.62
4996	1.5	6.5	0.	104.87
4997	1.5	6.	0.	102.22
4998	1.5	5.5	0.	104.29
4999	1.75	7.	0.	103.03
5000	2.	6.75	0.	96.784
5001	1.25	7.	0.	104.55
5002	1.	6.75	0.	99.503
5003	2.	5.25	0.	96.257
5004	1.75	5.	0.	102.19
5005	1.	5.25	0.	98.858
5006	1.25	5.	0.	103.74
5007	1.5	6.75	0.	108.15
5008	2.	6.25	0.	98.374
5009	1.75	6.5	0.	101.85
5010	2.	5.75	0.	98.233
5011	1.75	6.	0.	100.07
5012	1.75	5.5	0.	101.42
5013	1.	6.25	0.	100.41
5014	1.25	6.5	0.	103.02
5015	1.	5.75	0.	100.13
5016	1.25	6.	0.	100.92
5017	1.25	5.5	0.	102.45
5018	1.5	5.25	0.	107.41
5019	1.5	6.25	0.	103.55
5020	1.5	5.75	0.	103.26
5021	8.	6.	0.	99.915
5022	7.	6.	0.	101.24
5023	8.	5.	0.	99.38
5024	7.	5.	0.	101.18
5025	7.5	6.	0.	116.25
5026	8.	5.5	0.	105.15
5027	7.	5.5	0.	106.88
5028	7.5	5.	0.	115.92
5029	7.5	5.5	0.	113.83
5030	7.75	6.	0.	108.07
5031	8.	5.75	0.	102.52
5032	7.25	6.	0.	108.73
5033	7.	5.75	0.	104.06
5034	8.	5.25	0.	102.26
5035	7.75	5.	0.	107.63
5036	7.	5.25	0.	104.03
5037	7.25	5.	0.	108.53
5038	7.5	5.75	0.	115.
5039	7.75	5.5	0.	109.46
5040	7.25	5.5	0.	110.34
5041	7.5	5.25	0.	114.81
5042	6.	5.	0.	99.492
5043	4.	5.	0.	100.63
5044	6.	3.	0.	96.915
5045	4.	3.	0.	101.33
5046	5.5	5.	0.	113.3
5047	5.	5.	0.	111.28
5048	4.5	5.	0.	114.36
5049	6.	4.5	0.	103.94
5050	6.	4.	0.	101.95
5051	6.	3.5	0.	102.01
5052	4.	4.5	0.	105.85
5053	4.	4.	0.	104.48
5054	4.	3.5	0.	105.15
5055	4.5	3.	0.	115.4
5056	5.	3.	0.	112.92
5057	5.5	3.	0.	114.39
5058	5.	4.	0.	114.35
5059	5.	4.5	0.	114.28
5060	5.5	4.5	0.	111.38
5061	5.5	4.	0.	110.68
5062	5.5	3.5	0.	111.33
5063	5.	3.5	0.	114.86
5064	4.5	3.5	0.	112.4
5065	4.5	4.	0.	111.67
5066	4.5	4.5	0.	112.51
5067	5.75	5.	0.	106.33
5068	6.	4.75	0.	101.71
5069	4.25	5.	0.	107.43
5070	4.	4.75	0.	103.23
5071	6.	3.25	0.	99.443
5072	5.75	3.	0.	105.58
5073	4.	3.25	0.	103.21
5074	4.25	3.	0.	108.29
5075	5.25	5.	0.	112.29
5076	5.5	4.75	0.	112.3
5077	4.75	5.	0.	112.82
5078	5.	4.75	0.	112.76
5079	4.5	4.75	0.	113.4
5080	6.	4.25	0.	102.93
5081	5.75	4.5	0.	107.64
5082	6.	3.75	0.	101.95
5083	5.75	4.	0.	106.31
5084	5.75	3.5	0.	106.66
5085	4.	4.25	0.	105.14
5086	4.25	4.5	0.	109.17
5087	4.	3.75	0.	104.76
5088	4.25	4.	0.	108.07
5089	4.25	3.5	0.	108.75
5090	4.75	3.	0.	114.16
5091	4.5	3.25	0.	113.88
5092	5.25	3.	0.	113.65
5093	5.	3.25	0.	113.88
5094	5.5	3.25	0.	112.84
5095	5.	4.25	0.	114.31
5096	5.25	4.	0.	112.51
5097	5.	3.75	0.	114.61
5098	4.75	4.	0.	113.01
5099	5.25	4.5	0.	112.82
5100	4.75	4.5	0.	113.39
5101	5.5	4.25	0.	111.02
5102	5.5	3.75	0.	111.
5103	5.25	3.5	0.	113.09
5104	4.75	3.5	0.	113.62
5105	4.5	3.75	0.	112.02
5106	4.5	4.25	0.	112.08
5107	1.	-1.	0.	97.751
5108	-1.	-1.	0.	98.67
5109	1.	-3.	0.	96.897
5110	-1.	-3.	0.	98.376
5111	0.5	-1.	0.	111.99
5112	0.	-1.	0.	109.72
5113	-0.5	-1.	0.	112.43
5114	1.	-1.5	0.	101.93
5115	1.	-2.	0.	100.4
5116	1.	-2.5	0.	101.25
5117	-1.	-1.5	0.	102.83
5118	-1.	-2.	0.	101.51
5119	-1.	-2.5	0.	102.61
5120	-0.5	-3.	0.	111.54
5121	0.	-3.	0.	108.51
5122	0.5	-3.	0.	110.57
5123	0.5	-2.	0.	108.29
5124	0.5	-2.5	0.	108.65
5125	-0.5	-2.5	0.	109.43
5126	-0.5	-2.	0.	108.93
5127	-0.5	-1.5	0.	109.87
5128	0.5	-1.5	0.	109.33
5129	0.	-1.5	0.	112.06
5130	0.	-2.5	0.	111.41
5131	0.	-2.	0.	111.59
5132	0.75	-1.	0.	104.79
5133	1.	-1.25	0.	99.829
5134	-0.75	-1.	0.	105.47
5135	-1.	-1.25	0.	100.74
5136	1.	-2.75	0.	99.064
5137	0.75	-3.	0.	103.67
5138	-1.	-2.75	0.	100.49
5139	-0.75	-3.	0.	104.89
5140	0.25	-1.	0.	110.85
5141	0.5	-1.25	0.	110.63
5142	-0.25	-1.	0.	111.08
5143	0.	-1.25	0.	110.87
5144	-0.5	-1.25	0.	111.12
5145	1.	-1.75	0.	101.14
5146	0.75	-1.5	0.	105.62
5147	1.	-2.25	0.	100.79
5148	0.75	-2.	0.	104.34
5149	0.75	-2.5	0.	104.94
5150	-1.	-1.75	0.	102.14
5151	-0.75	-1.5	0.	106.33
5152	-1.	-2.25	0.	102.03
5153	-0.75	-2.	0.	105.21
5154	-0.75	-2.5	0.	106.01
5155	-0.25	-3.	0.	110.02
5156	-0.5	-2.75	0.	110.45
5157	0.25	-3.	0.	109.54
5158	0.	-2.75	0.	109.94
5159	0.5	-2.75	0.	109.58
5160	0.5	-2.25	0.	108.46
5161	0.5	-1.75	0.	108.8
5162	0.25	-2.	0.	109.94
5163	0.25	-2.5	0.	110.02
5164	-0.5	-2.25	0.	109.17
5165	-0.25	-2.5	0.	110.41
5166	-0.5	-1.75	0.	109.39
5167	-0.25	-2.	0.	110.26
5168	-0.25	-1.5	0.	110.95
5169	0.25	-1.5	0.	110.68
5170	0.	-1.75	0.	111.82
5171	0.	-2.25	0.	111.5
5172	3.	4.	0.	103.1
5173	2.	4.	0.	94.918
5174	3.	3.	0.	101.88
5175	2.	3.	0.	97.493
5176	2.5	4.	0.	115.43
5177	3.	3.5	0.	107.29
5178	2.	3.5	0.	101.39
5179	2.5	3.	0.	115.29
5180	2.5	3.5	0.	111.94
5181	2.75	4.	0.	109.24
5182	3.	3.75	0.	105.19
5183	2.25	4.	0.	105.15
5184	2.	3.75	0.	98.13
5185	3.	3.25	0.	104.57
5186	2.75	3.	0.	108.56
5187	2.	3.25	0.	99.425
5188	2.25	3.	0.	106.38
5189	2.5	3.75	0.	113.64
5190	2.75	3.5	0.	109.59
5191	2.25	3.5	0.	106.63
5192	2.5	3.25	0.	113.57
5193	3.	9.	0.	99.462
5194	2.	9.	0.	98.385
5195	3.	8.	0.	100.64
5196	2.	8.	0.	96.671
5197	2.5	9.	0.	115.91
5198	3.	8.5	0.	105.28
5199	2.	8.5	0.	102.97
5200	2.5	8.	0.	115.68
5201	2.5	8.5	0.	112.63
5202	2.75	9.	0.	107.65
5203	3.	8.75	0.	102.36
5204	2.25	9.	0.	107.11
5205	2.	8.75	0.	100.67
5206	3.	8.25	0.	102.94
5207	2.75	8.	0.	108.13
5208	2.	8.25	0.	99.797
5209	2.25	8.	0.	106.16
5210	2.5	8.75	0.	114.21
5211	2.75	8.5	0.	108.93
5212	2.25	8.5	0.	107.77
5213	2.5	8.25	0.	114.12
5214	-7.	-3.	0.	98.276
5215	-9.	-3.	0.	101.52
5216	-7.	-4.	0.	99.083
5217	-9.	-4.	0.	100.55
5218	-7.5	-3.	0.	114.18
5219	-8.	-3.	0.	113.57
5220	-8.5	-3.	0.	116.35
5221	-7.	-3.5	0.	103.74
5222	-9.	-3.5	0.	105.96
5223	-8.5	-4.	0.	116.48
5224	-8.	-4.	0.	114.32
5225	-7.5	-4.	0.	115.41
5226	-8.5	-3.5	0.	115.42
5227	-8.	-3.5	0.	117.29
5228	-7.5	-3.5	0.	113.69
5229	-7.25	-3.	0.	106.2
5230	-7.	-3.25	0.	100.99
5231	-8.75	-3.	0.	108.89
5232	-9.	-3.25	0.	103.73
5233	-7.	-3.75	0.	101.39
5234	-7.25	-4.	0.	107.2
5235	-9.	-3.75	0.	103.25
5236	-8.75	-4.	0.	108.47
5237	-7.75	-3.	0.	113.86
5238	-7.5	-3.25	0.	113.92
5239	-8.25	-3.	0.	114.95
5240	-8.	-3.25	0.	115.42
5241	-8.5	-3.25	0.	115.86
5242	-7.25	-3.5	0.	108.7
5243	-8.75	-3.5	0.	110.69
5244	-8.25	-4.	0.	115.4
5245	-8.5	-3.75	0.	115.92
5246	-7.75	-4.	0.	114.86
5247	-8.	-3.75	0.	115.8
5248	-7.5	-3.75	0.	114.53
5249	-8.25	-3.5	0.	116.35
5250	-7.75	-3.5	0.	115.49
5251	-6.	4.	0.	99.085
5252	-7.	4.	0.	98.09
5253	-6.	2.	0.	98.243
5254	-7.	2.	0.	94.18
5255	-6.5	4.	0.	113.17
5256	-6.	3.5	0.	102.65
5257	-6.	3.	0.	100.34
5258	-6.	2.5	0.	100.88
5259	-7.	3.5	0.	102.12
5260	-7.	3.	0.	99.806
5261	-7.	2.5	0.	99.324
5262	-6.5	2.	0.	111.25
5263	-6.5	3.5	0.	107.04
5264	-6.5	3.	0.	103.47
5265	-6.5	2.5	0.	104.86
5266	-6.25	4.	0.	106.04
5267	-6.	3.75	0.	100.86
5268	-6.75	4.	0.	105.58
5269	-7.	3.75	0.	100.1
5270	-6.	2.25	0.	99.558
5271	-6.25	2.	0.	104.68
5272	-7.	2.25	0.	96.724
5273	-6.75	2.	0.	102.65
5274	-6.5	3.75	0.	110.06
5275	-6.	3.25	0.	101.46
5276	-6.25	3.5	0.	104.77
5277	-6.	2.75	0.	100.57
5278	-6.25	3.	0.	101.9
5279	-6.25	2.5	0.	102.82
5280	-7.	3.25	0.	100.92
5281	-6.75	3.5	0.	104.52
5282	-7.	2.75	0.	99.481
5283	-6.75	3.	0.	101.63
5284	-6.75	2.5	0.	102.04
5285	-6.5	2.25	0.	108.01
5286	-6.5	3.25	0.	105.25
5287	-6.5	2.75	0.	104.16
5288	-8.	3.	0.	100.25
5289	-9.	3.	0.	100.12
5290	-8.	2.	0.	97.888
5291	-9.	2.	0.	102.8
5292	-8.5	3.	0.	115.57
5293	-8.	2.5	0.	104.46
5294	-9.	2.5	0.	106.54
5295	-8.5	2.	0.	116.98
5296	-8.5	2.5	0.	113.36
5297	-8.25	3.	0.	107.9
5298	-8.	2.75	0.	102.34
5299	-8.75	3.	0.	107.81
5300	-9.	2.75	0.	103.33
5301	-8.	2.25	0.	101.13
5302	-8.25	2.	0.	107.41
5303	-9.	2.25	0.	104.67
5304	-8.75	2.	0.	109.86
5305	-8.5	2.75	0.	114.4
5306	-8.25	2.5	0.	108.87
5307	-8.75	2.5	0.	109.94
5308	-8.5	2.25	0.	115.13
5309	-7.	1.	0.	93.996
5310	-8.	1.	0.	95.392
5311	-7.	-1.	0.	93.59
5312	-8.	-1.	0.	92.384
5313	-7.5	1.	0.	111.03
5314	-7.	0.5	0.	97.958
5315	-7.	0.	0.	96.365
5316	-7.	-0.5	0.	97.15
5317	-8.	0.5	0.	98.58
5318	-8.	0.	0.	96.782
5319	-8.	-0.5	0.	97.199
5320	-7.5	-1.	0.	106.26
5321	-7.5	0.5	0.	103.12
5322	-7.5	0.	0.	99.887
5323	-7.5	-0.5	0.	101.38
5324	-7.25	1.	0.	102.42
5325	-7.	0.75	0.	95.964
5326	-7.75	1.	0.	103.12
5327	-8.	0.75	0.	96.979
5328	-7.	-0.75	0.	95.368
5329	-7.25	-1.	0.	99.883
5330	-8.	-0.75	0.	94.789
5331	-7.75	-1.	0.	99.28
5332	-7.5	0.75	0.	107.04
5333	-7.	0.25	0.	97.112
5334	-7.25	0.5	0.	100.47
5335	-7.	-0.25	0.	96.718
5336	-7.25	0.	0.	98.125
5337	-7.25	-0.5	0.	99.221
5338	-8.	0.25	0.	97.632
5339	-7.75	0.5	0.	100.77
5340	-8.	-0.25	0.	96.951
5341	-7.75	0.	0.	98.333
5342	-7.75	-0.5	0.	99.251
5343	-7.5	-0.75	0.	103.77
5344	-7.5	0.25	0.	101.5
5345	-7.5	-0.25	0.	100.63
