Node Number	X Location (mm)	Y Location (mm)	Z Location (mm)	Equivalent (von-Mises) Stress (MPa)
1	7.92	4.54	0.	153.49
2	8.17	3.54	0.	116.02
3	8.91	4.25	0.	163.86
4	5.14	-7.75	0.	110.37
5	6.02	-6.62	0.	167.74
6	4.6	-6.42	0.	166.32
7	7.27	-0.53	0.	151.48
8	8.28	-0.97	0.	164.02
9	8.16	0.13	0.	141.61
10	-2.72	1.82	0.	162.04
11	-1.48	0.38	0.	112.49
12	-0.85	2.18	0.	154.22
13	-2.38	8.78	0.	120.02
14	-2.63	7.71	0.	155.44
15	-1.58	8.03	0.	154.11
16	-1.42	-7.23	0.	149.78
17	-0.38	-7.67	0.	151.66
18	-0.51	-6.55	0.	131.85
19	-8.92	6.7	0.	173.72
20	-7.03	6.34	0.	171.52
21	-7.66	8.15	0.	116.89
22	-6.75	-5.97	0.	126.2
23	-7.08	-7.88	0.	154.1
24	-5.26	-7.21	0.	171.12
25	-6.57	1.6	0.	130.59
26	-6.44	2.93	0.	146.69
27	-7.65	2.38	0.	158.95
28	5.	-2.	0.	135.81
29	5.	-4.	0.	132.27
30	7.	-2.	0.	136.73
31	7.	-4.	0.	133.66
32	4.	4.	0.	135.77
33	4.	3.	0.	135.96
34	6.	4.	0.	134.6
35	6.	3.	0.	135.86
36	8.	8.	0.	132.73
37	8.	6.	0.	127.9
38	9.	8.	0.	133.36
39	9.	6.	0.	130.04
40	-1.	-4.	0.	125.01
41	-1.	-5.	0.	126.05
42	0.	-4.	0.	126.45
43	0.	-5.	0.	129.04
44	-1.	-1.	0.	128.99
45	-1.	-3.	0.	124.54
46	0.	-1.	0.	132.13
47	0.	-3.	0.	127.
48	-3.	6.	0.	136.12
49	-3.	4.	0.	135.87
50	-1.	6.	0.	134.12
51	-1.	4.	0.	130.25
52	-7.	5.	0.	135.12
53	-7.	4.	0.	124.74
54	-5.	5.	0.	136.06
55	-5.	4.	0.	141.86
56	-6.	8.	0.	134.7
57	-6.	6.	0.	133.4
58	-5.	8.	0.	132.96
59	-5.	6.	0.	133.5
60	-7.	-1.	0.	128.47
61	-7.	-3.	0.	128.7
62	-6.	-1.	0.	128.84
63	-6.	-3.	0.	128.54
64	10.	10.	0.	124.85
65	-10.	10.	0.	124.93
66	10.	-10.	0.	128.93
67	-10.	-10.	0.	132.59
68	8.045	4.04	0.	134.29
69	8.415	4.395	0.	91.921
70	8.54	3.895	0.	57.834
71	5.4333	-7.3733	0.	89.102
72	5.7267	-6.9967	0.	92.821
73	4.96	-7.3067	0.	120.33
74	4.78	-6.8633	0.	129.81
75	5.5467	-6.5533	0.	99.57
76	5.0733	-6.4867	0.	106.54
77	7.775	-0.75	0.	88.873
78	7.715	-0.2	0.	67.449
79	8.22	-0.42	0.	148.74
80	-2.41	1.46	0.	102.76
81	-2.1	1.1	0.	110.11
82	-1.79	0.74	0.	97.144
83	-2.2525	1.91	0.	100.97
84	-1.785	2.	0.	111.98
85	-1.3175	2.09	0.	106.44
86	-1.3225	0.83	0.	125.03
87	-1.165	1.28	0.	131.18
88	-1.0075	1.73	0.	131.19
89	-2.505	8.245	0.	136.45
90	-1.98	8.405	0.	62.302
91	-2.105	7.87	0.	89.4
92	-0.9	-7.45	0.	82.717
93	-0.965	-6.89	0.	62.867
94	-0.445	-7.11	0.	139.72
95	-8.4475	6.61	0.	110.19
96	-7.975	6.52	0.	122.03
97	-7.5025	6.43	0.	116.28
98	-8.605	7.0625	0.	100.29
99	-8.29	7.425	0.	112.2
100	-7.975	7.7875	0.	101.
101	-7.1875	6.7925	0.	131.63
102	-7.345	7.245	0.	136.83
103	-7.5025	7.6975	0.	129.92
104	-6.8325	-6.4475	0.	134.86
105	-6.915	-6.925	0.	139.68
106	-6.9975	-7.4025	0.	141.21
107	-6.3775	-6.28	0.	92.284
108	-6.005	-6.59	0.	103.15
109	-5.6325	-6.9	0.	83.796
110	-6.625	-7.7125	0.	103.85
111	-6.17	-7.545	0.	109.3
112	-5.715	-7.3775	0.	90.085
113	-6.5267	2.0433	0.	135.08
114	-6.4833	2.4867	0.	139.16
115	-6.93	1.86	0.	87.601
116	-7.29	2.12	0.	73.646
117	-6.8433	2.7467	0.	99.209
118	-7.2467	2.5633	0.	85.003
119	5.	-2.5	0.	143.76
120	5.	-3.	0.	144.37
121	5.	-3.5	0.	142.41
122	5.5	-2.	0.	114.22
123	6.	-2.	0.	120.07
124	6.5	-2.	0.	117.4
125	5.5	-4.	0.	110.95
126	6.	-4.	0.	115.76
127	6.5	-4.	0.	112.77
128	7.	-2.5	0.	141.98
129	7.	-3.	0.	143.11
130	7.	-3.5	0.	142.16
131	4.	3.5	0.	144.45
132	4.5	4.	0.	116.73
133	5.	4.	0.	121.82
134	5.5	4.	0.	116.54
135	4.5	3.	0.	117.56
136	5.	3.	0.	122.53
137	5.5	3.	0.	117.16
138	6.	3.5	0.	143.47
139	8.	7.5	0.	140.94
140	8.	7.	0.	140.75
141	8.	6.5	0.	139.45
142	8.5	8.	0.	108.24
143	8.5	6.	0.	103.86
144	9.	7.5	0.	143.18
145	9.	7.	0.	143.48
146	9.	6.5	0.	141.98
147	-1.	-4.5	0.	135.67
148	-0.5	-4.	0.	101.47
149	-0.5	-5.	0.	104.42
150	0.	-4.5	0.	138.21
151	-1.	-1.5	0.	135.71
152	-1.	-2.	0.	136.3
153	-1.	-2.5	0.	135.57
154	-0.5	-1.	0.	107.68
155	-0.5	-3.	0.	99.931
156	0.	-1.5	0.	140.03
157	0.	-2.	0.	139.33
158	0.	-2.5	0.	137.97
159	-3.	5.5	0.	146.27
160	-3.	5.	0.	146.95
161	-3.	4.5	0.	145.26
162	-2.5	6.	0.	110.74
163	-2.	6.	0.	113.46
164	-1.5	6.	0.	110.94
165	-2.5	4.	0.	111.62
166	-2.	4.	0.	112.89
167	-1.5	4.	0.	108.11
168	-1.	5.5	0.	142.19
169	-1.	5.	0.	142.56
170	-1.	4.5	0.	140.6
171	-7.	4.5	0.	137.3
172	-6.5	5.	0.	119.93
173	-6.	5.	0.	123.49
174	-5.5	5.	0.	115.3
175	-6.5	4.	0.	112.9
176	-6.	4.	0.	123.95
177	-5.5	4.	0.	122.43
178	-5.	4.5	0.	147.77
179	-6.	7.5	0.	141.83
180	-6.	7.	0.	138.91
181	-6.	6.5	0.	136.99
182	-5.5	8.	0.	107.81
183	-5.5	6.	0.	106.77
184	-5.	7.5	0.	142.71
185	-5.	7.	0.	144.18
186	-5.	6.5	0.	144.78
187	-7.	-1.5	0.	137.66
188	-7.	-2.	0.	138.25
189	-7.	-2.5	0.	137.88
190	-6.5	-1.	0.	104.34
191	-6.5	-3.	0.	104.26
192	-6.	-1.5	0.	138.19
193	-6.	-2.	0.	138.45
194	-6.	-2.5	0.	137.82
195	9.5	10.	0.	124.43
196	9.	10.	0.	122.99
197	8.5	10.	0.	122.23
198	8.	10.	0.	122.75
199	7.5	10.	0.	124.14
200	7.	10.	0.	125.5
201	6.5	10.	0.	126.32
202	6.	10.	0.	126.62
203	5.5	10.	0.	126.68
204	5.	10.	0.	126.67
205	4.5	10.	0.	126.67
206	4.	10.	0.	126.74
207	3.5	10.	0.	126.86
208	3.	10.	0.	127.02
209	2.5	10.	0.	127.2
210	2.	10.	0.	127.37
211	1.5	10.	0.	127.53
212	1.	10.	0.	127.67
213	0.5	10.	0.	127.82
214	-5.2042e-015	10.	0.	127.91
215	-0.5	10.	0.	127.61
216	-1.	10.	0.	125.96
217	-1.5	10.	0.	122.44
218	-2.	10.	0.	120.18
219	-2.5	10.	0.	121.6
220	-3.	10.	0.	124.87
221	-3.5	10.	0.	127.96
222	-4.	10.	0.	127.98
223	-4.5	10.	0.	126.49
224	-5.	10.	0.	124.6
225	-5.5	10.	0.	123.47
226	-6.	10.	0.	123.23
227	-6.5	10.	0.	123.2
228	-7.	10.	0.	122.48
229	-7.5	10.	0.	121.44
230	-8.	10.	0.	121.09
231	-8.5	10.	0.	121.93
232	-9.	10.	0.	123.43
233	-9.5	10.	0.	124.67
234	10.	9.5	0.	126.11
235	10.	9.	0.	130.01
236	10.	8.5	0.	132.82
237	10.	8.	0.	132.01
238	10.	7.5	0.	130.42
239	10.	7.	0.	131.77
240	10.	6.5	0.	133.02
241	10.	6.	0.	137.37
242	10.	5.5	0.	141.15
243	10.	5.	0.	136.98
244	10.	4.5	0.	126.59
245	10.	4.	0.	121.02
246	10.	3.5	0.	127.93
247	10.	3.	0.	132.52
248	10.	2.5	0.	133.29
249	10.	2.	0.	133.25
250	10.	1.5	0.	133.62
251	10.	1.	0.	133.43
252	10.	0.5	0.	130.91
253	10.	-5.2042e-015	0.	126.67
254	10.	-0.5	0.	124.46
255	10.	-1.	0.	126.88
256	10.	-1.5	0.	130.48
257	10.	-2.	0.	131.62
258	10.	-2.5	0.	130.4
259	10.	-3.	0.	128.94
260	10.	-3.5	0.	128.21
261	10.	-4.	0.	128.33
262	10.	-4.5	0.	128.81
263	10.	-5.	0.	129.11
264	10.	-5.5	0.	128.97
265	10.	-6.	0.	128.48
266	10.	-6.5	0.	127.9
267	10.	-7.	0.	127.51
268	10.	-7.5	0.	127.46
269	10.	-8.	0.	127.71
270	10.	-8.5	0.	128.12
271	10.	-9.	0.	128.54
272	10.	-9.5	0.	128.83
273	-10.	9.5	0.	125.54
274	-10.	9.	0.	127.56
275	-10.	8.5	0.	129.03
276	-10.	8.	0.	127.8
277	-10.	7.5	0.	123.41
278	-10.	7.	0.	118.58
279	-10.	6.5	0.	124.47
280	-10.	6.	0.	134.43
281	-10.	5.5	0.	137.58
282	-10.	5.	0.	135.52
283	-10.	4.5	0.	133.12
284	-10.	4.	0.	131.19
285	-10.	3.5	0.	129.47
286	-10.	3.	0.	127.82
287	-10.	2.5	0.	126.86
288	-10.	2.	0.	127.39
289	-10.	1.5	0.	129.13
290	-10.	1.	0.	130.95
291	-10.	0.5	0.	131.93
292	-10.	-5.2042e-015	0.	131.86
293	-10.	-0.5	0.	131.02
294	-10.	-1.	0.	129.85
295	-10.	-1.5	0.	128.86
296	-10.	-2.	0.	128.43
297	-10.	-2.5	0.	128.68
298	-10.	-3.	0.	129.46
299	-10.	-3.5	0.	130.4
300	-10.	-4.	0.	131.07
301	-10.	-4.5	0.	131.14
302	-10.	-5.	0.	130.44
303	-10.	-5.5	0.	129.03
304	-10.	-6.	0.	127.26
305	-10.	-6.5	0.	125.7
306	-10.	-7.	0.	125.
307	-10.	-7.5	0.	125.52
308	-10.	-8.	0.	127.13
309	-10.	-8.5	0.	129.19
310	-10.	-9.	0.	131.02
311	-10.	-9.5	0.	132.21
312	-9.5	-10.	0.	130.84
313	-9.	-10.	0.	130.
314	-8.5	-10.	0.	129.01
315	-8.	-10.	0.	126.92
316	-7.5	-10.	0.	123.34
317	-7.	-10.	0.	119.31
318	-6.5	-10.	0.	117.03
319	-6.	-10.	0.	117.76
320	-5.5	-10.	0.	120.88
321	-5.	-10.	0.	124.73
322	-4.5	-10.	0.	127.88
323	-4.	-10.	0.	129.72
324	-3.5	-10.	0.	130.31
325	-3.	-10.	0.	129.84
326	-2.5	-10.	0.	128.31
327	-2.	-10.	0.	125.79
328	-1.5	-10.	0.	122.89
329	-1.	-10.	0.	120.92
330	-0.5	-10.	0.	121.11
331	5.2042e-015	-10.	0.	123.33
332	0.5	-10.	0.	126.12
333	1.	-10.	0.	128.24
334	1.5	-10.	0.	129.37
335	2.	-10.	0.	129.76
336	2.5	-10.	0.	129.59
337	3.	-10.	0.	128.85
338	3.5	-10.	0.	127.36
339	4.	-10.	0.	125.01
340	4.5	-10.	0.	122.17
341	5.	-10.	0.	119.91
342	5.5	-10.	0.	119.38
343	6.	-10.	0.	120.67
344	6.5	-10.	0.	122.84
345	7.	-10.	0.	124.83
346	7.5	-10.	0.	126.21
347	8.	-10.	0.	127.02
348	8.5	-10.	0.	127.5
349	9.	-10.	0.	127.86
350	9.5	-10.	0.	128.26
351	2.9863	-1.0586e-002	0.	130.14
352	2.4868	0.48826	0.	130.75
353	1.9688	0.97429	0.	130.58
354	1.4258	1.3124	0.	129.48
355	0.94043	1.269	0.	128.34
356	2.0002	-2.0053	0.	129.86
357	0.99775	5.0223	0.	128.08
358	1.4738	0.8887	0.	130.15
359	1.9909	0.46743	0.	131.08
360	2.9878	-0.51149	0.	130.4
361	1.9903	5.5177	0.	127.77
362	2.4894	6.0108	0.	127.1
363	2.4713	0.99553	0.	130.63
364	1.8971	1.5112	0.	130.13
365	4.999	5.9993	0.	121.88
366	2.4879	6.5107	0.	126.51
367	4.999	6.4999	0.	122.79
368	5.4985	6.5	0.	123.66
369	-3.963	-2.0082	0.	126.67
370	-3.4275	-1.6284	0.	126.58
371	1.4185	1.6981	0.	129.29
372	3.4764	-1.5526e-002	0.	128.93
373	2.5007	-2.5041	0.	129.51
374	3.004	-3.0015	0.	129.34
375	2.9936	6.5048	0.	125.82
376	4.499	6.5001	0.	122.9
377	1.4974	5.0204	0.	127.95
378	2.9829	0.49118	0.	129.92
379	-3.99	-4.5166	0.	129.49
380	-3.4908	-4.5159	0.	129.55
381	1.488	5.5247	0.	127.84
382	1.9823	6.0224	0.	127.43
383	1.9776	6.523	0.	127.06
384	-3.9805	-5.038	0.	129.96
385	-3.4622	-2.069	0.	126.37
386	-3.4783	-2.5453	0.	126.73
387	-2.9632	-2.087	0.	125.92
388	-4.4905	-5.0073	0.	129.16
389	-3.6125	-0.8158	0.	128.8
390	-3.7173	-0.33647	0.	130.29
391	1.4754	6.033	0.	127.82
392	2.4956	-1.0108	0.	130.65
393	2.4954	-0.513	0.	130.93
394	-3.4755	-5.038	0.	129.94
395	-3.4174	-5.6071	0.	129.68
396	-3.4927	-3.5196	0.	128.34
397	-3.4941	-4.014	0.	129.01
398	3.477	0.48528	0.	128.45
399	1.5038	3.063	0.	129.54
400	1.5028	4.5247	0.	128.22
401	3.9984	6.5005	0.	123.75
402	3.4966	6.5019	0.	124.86
403	2.5139	-4.0039	0.	131.01
404	2.5239	-4.508	0.	131.68
405	2.4963	-1.5092	0.	130.15
406	4.9395	0.46217	0.	122.16
407	2.5409	-5.0163	0.	131.99
408	2.3408	-6.5937	0.	127.78
409	1.4686	2.1209	0.	129.46
410	1.492	2.586	0.	129.64
411	-3.4679	-1.2237	0.	127.41
412	5.9986	6.4996	0.	125.33
413	-4.4951	-4.5035	0.	128.62
414	5.4991	5.9986	0.	123.18
415	2.4525	1.5057	0.	130.65
416	2.4929	5.5119	0.	127.81
417	3.4762	-0.51614	0.	129.67
418	1.4968	0.42419	0.	131.05
419	0.97952	0.83195	0.	129.21
420	2.4193	-7.0647	0.	126.92
421	1.9443	-7.0691	0.	126.78
422	1.4675	-7.051	0.	126.18
423	5.409	0.45799	0.	121.36
424	-4.4774	0.4582	0.	129.85
425	-3.5019	-6.1777	0.	128.07
426	-2.9514	-1.6089	0.	125.74
427	1.4623	7.0474	0.	127.28
428	2.9958	7.004	0.	125.44
429	3.4978	7.0015	0.	124.7
430	6.4988	7.0006	0.	126.57
431	-4.473	-1.9934	0.	126.97
432	0.49726	5.0225	0.	128.53
433	1.5011	-2.0072	0.	130.15
434	-2.4689	-2.083	0.	125.6
435	4.9917	1.4664	0.	120.97
436	-3.2127	-0.702	0.	128.35
437	-5.541	-5.4812	0.	122.5
438	-3.9797	-2.5157	0.	126.78
439	-3.994	-4.0102	0.	128.94
440	-5.007	-4.9935	0.	126.61
441	-4.2192	2.5596e-002	0.	130.59
442	-3.9219	-1.4594	0.	127.39
443	1.003	4.5303	0.	128.53
444	0.90377	7.1181	0.	128.15
445	0.98771	5.5248	0.	128.12
446	1.9999	-1.5097	0.	130.27
447	2.0885	-6.1244	0.	129.32
448	-2.9504	-5.8392	0.	129.55
449	2.0191	-4.5177	0.	131.16
450	-2.9775	-2.5599	0.	126.65
451	-2.9916	-4.4994	0.	129.12
452	5.4454	0.96232	0.	122.12
453	1.9964	5.0183	0.	128.05
454	2.9934	6.0064	0.	126.5
455	2.899	-7.0347	0.	126.71
456	2.5716	-5.5296	0.	131.46
457	1.0062	3.0826	0.	130.71
458	0.93878	1.7047	0.	128.3
459	0.96969	2.1502	0.	129.19
460	2.6397	-6.0397	0.	129.84
461	2.7799	-6.5358	0.	127.88
462	4.4484	-3.1836e-002	0.	124.76
463	3.0183	-4.0003	0.	131.04
464	3.0301	-4.4993	0.	132.2
465	3.998	6.001	0.	123.68
466	3.4962	6.0029	0.	125.35
467	2.0018	4.519	0.	128.16
468	2.0013	3.0386	0.	128.93
469	1.9903	2.5474	0.	129.59
470	3.4802	0.98666	0.	128.37
471	3.9813	0.97803	0.	125.92
472	-2.993	-4.0114	0.	128.86
473	-2.9866	-3.0392	0.	127.67
474	-2.9917	-3.5235	0.	128.47
475	2.0114	-4.0099	0.	131.03
476	2.0063	-3.5059	0.	130.8
477	2.0031	-3.0043	0.	130.34
478	-2.9427	-5.428	0.	129.9
479	2.0528	-5.5622	0.	130.85
480	2.032	-5.0339	0.	131.29
481	2.0016	-0.52107	0.	131.42
482	0.97158	6.0353	0.	128.5
483	0.94605	6.5601	0.	128.7
484	1.0066	4.0442	0.	129.42
485	-4.058	-0.92923	0.	128.87
486	-4.1448	-0.4355	0.	130.18
487	-5.5322	-5.032	0.	121.89
488	-3.9885	-3.0143	0.	127.44
489	-5.4177	-5.9244	0.	124.11
490	-4.4852	-5.5118	0.	129.92
491	-4.9991	-5.4771	0.	127.75
492	-3.293	-0.27037	0.	129.98
493	-6.0404	-5.1531	0.	115.
494	-2.9722	-1.1098	0.	126.49
495	6.6241	-7.6789	0.	127.87
496	7.0627	-7.7354	0.	126.29
497	-4.5271	0.98868	0.	128.32
498	-4.5609	1.4869	0.	127.08
499	-2.959	0.63808	0.	129.92
500	4.0031	-3.0009	0.	130.64
501	4.9992	1.9764	0.	119.07
502	5.0007	4.9989	0.	118.2
503	1.0013	-2.011	0.	130.94
504	-1.9661	2.9946	0.	107.06
505	-3.3341e-003	5.0192	0.	129.91
506	-4.9847	-1.995	0.	127.97
507	5.3923	-4.6467e-002	0.	119.82
508	5.8735	0.46232	0.	122.29
509	-0.11791	1.1637	0.	126.35
510	-1.976	-2.067	0.	126.23
511	7.3971	1.4492	0.	121.13
512	6.999	7.0008	0.	128.77
513	0.64683	7.5828	0.	127.33
514	1.0613	7.5904	0.	126.91
515	1.5131	7.5427	0.	126.62
516	2.0024	7.5204	0.	126.22
517	2.5001	7.5094	0.	125.78
518	2.9996	7.5041	0.	125.29
519	3.4996	7.5015	0.	124.75
520	3.9997	7.5005	0.	124.24
521	4.4998	7.5002	0.	123.91
522	4.9997	7.5002	0.	123.91
523	5.4995	7.5003	0.	124.33
524	5.9994	7.5006	0.	125.15
525	6.4994	7.5007	0.	126.43
526	2.9861	-7.5326	0.	127.21
527	2.4718	-7.5464	0.	127.16
528	1.9743	-7.5507	0.	126.88
529	1.4847	-7.5438	0.	126.38
530	0.49571	0.79483	0.	127.75
531	4.6718e-002	0.74147	0.	126.19
532	1.0047	0.38154	0.	130.56
533	-3.9326	0.57868	0.	130.3
534	0.44541	1.6902	0.	127.25
535	7.2049	-7.3037	0.	124.44
536	5.5716	-5.5549	0.	109.96
537	3.0847	-5.4984	0.	132.72
538	-4.1393	2.4495	0.	131.83
539	5.3984	-0.54508	0.	118.45
540	3.4988	-2.5037	0.	129.43
541	7.506	-5.9209	0.	126.86
542	2.4969	5.0124	0.	128.44
543	2.4702	2.014	0.	130.63
544	2.5034	3.5157	0.	127.92
545	2.9718	1.4977	0.	130.45
546	5.4744	1.4697	0.	121.83
547	7.4508	1.9601	0.	122.97
548	-2.479	-2.5589	0.	126.77
549	1.5014	-2.5057	0.	130.4
550	-2.489	-5.8908	0.	130.48
551	-2.49	-4.491	0.	128.26
552	1.5206	-6.0577	0.	129.84
553	1.5058	-5.317e-002	0.	131.83
554	1.5021	-1.5137	0.	130.53
555	0.48764	5.5203	0.	128.78
556	0.51172	3.0932	0.	132.41
557	-5.0333	0.49495	0.	128.72
558	-4.4963	-4.0028	0.	128.39
559	5.9982	5.9984	0.	125.8
560	0.98537	-7.0413	0.	125.32
561	-3.528	-6.7171	0.	125.92
562	-3.4804	-7.242	0.	125.28
563	-3.0065	-6.2828	0.	128.1
564	0.36967	7.0324	0.	129.72
565	-0.20983	7.4586	0.	128.85
566	-2.9163	0.18103	0.	130.02
567	-2.86	-0.24789	0.	128.49
568	-4.4881	-6.0249	0.	130.27
569	-4.9644	-5.9551	0.	129.47
570	-3.0122	-6.7768	0.	125.94
571	-2.9877	-7.2818	0.	124.97
572	-2.9807	-7.8072	0.	126.94
573	7.2765	0.94879	0.	122.14
574	6.4986	5.998	0.	128.87
575	-4.4945	-3.503	0.	128.08
576	-4.4899	-3.0032	0.	127.39
577	-6.0152	-4.5587	0.	116.83
578	-5.5161	-4.5314	0.	121.73
579	-4.5943	-0.49306	0.	130.04
580	-7.4805	0.51456	0.	120.73
581	0.50742	4.0479	0.	130.28
582	0.47005	6.0236	0.	129.56
583	0.43793	6.5311	0.	130.26
584	1.5066	-0.53603	0.	131.97
585	1.5214	-5.0349	0.	130.81
586	-2.4719	-5.4365	0.	129.92
587	1.5031	-3.0066	0.	131.08
588	1.5093	-4.0138	0.	131.07
589	1.5053	-3.5087	0.	131.57
590	-2.4865	-3.0385	0.	128.09
591	-2.491	-3.5215	0.	128.9
592	-2.4928	-4.0066	0.	128.57
593	5.9496	1.4735	0.	124.2
594	6.4222	1.4764	0.	126.04
595	6.501	5.493	0.	130.55
596	6.0024	5.4942	0.	126.12
597	3.4828	1.4896	0.	128.84
598	3.9909	1.4802	0.	125.74
599	2.4998	3.0189	0.	128.79
600	2.4902	2.5196	0.	130.08
601	2.5032	4.0137	0.	128.02
602	7.535	-5.438	0.	128.66
603	3.5206	-3.9968	0.	131.02
604	3.4871	-1.5113	0.	130.49
605	4.9257	-0.53871	0.	122.36
606	4.4477	-0.53103	0.	126.05
607	-5.0445	2.4854	0.	125.45
608	-4.5719	2.4761	0.	129.32
609	-7.0113	-4.5028	0.	118.74
610	3.15	-5.9963	0.	130.97
611	3.2551	-6.4919	0.	127.7
612	6.1399	-5.0951	0.	114.69
613	7.3599	-6.877	0.	122.97
614	7.4514	-6.4053	0.	124.74
615	0.47897	2.1519	0.	128.9
616	-4.1156	1.9842	0.	128.68
617	-4.0621	1.5127	0.	127.19
618	-5.0485	0.98588	0.	127.74
619	-5.526	2.489	0.	121.57
620	-2.565	0.5324	0.	127.16
621	3.9902	-7.3288	0.	128.38
622	7.0657	3.8953	0.	125.83
623	6.9989	6.4997	0.	129.05
624	-4.992	-1.4942	0.	128.02
625	-1.1353e-002	5.5125	0.	129.8
626	1.0026	-1.5206	0.	130.86
627	-1.9831	-2.5469	0.	127.01
628	5.487	1.979	0.	120.67
629	4.4996	5.0001	0.	119.83
630	6.602	-4.9368	0.	119.16
631	4.0097	-3.4992	0.	130.26
632	5.4241	-1.0352	0.	117.5
633	5.0756	-5.5088	0.	110.69
634	6.7146	-7.2346	0.	124.
635	-5.1647e-002	1.6685	0.	125.83
636	0.51871	0.34466	0.	128.86
637	3.9594e-002	0.31782	0.	126.07
638	0.9994	-7.541	0.	125.57
639	-2.4478	-1.1411	0.	124.58
640	6.187	-7.67	0.	125.57
641	7.9971	-5.967	0.	127.43
642	7.0067	-8.1383	0.	127.08
643	6.5503	-8.1264	0.	126.82
644	-0.4719	7.9422	0.	125.54
645	6.2164e-002	8.0046	0.	125.7
646	0.55915	8.0457	0.	126.06
647	1.0419	8.055	0.	126.13
648	1.5237	8.0364	0.	126.09
649	2.0118	8.0199	0.	125.93
650	3.0027	8.0047	0.	125.34
651	3.5013	8.0018	0.	124.97
652	6.4997	8.0005	0.	126.67
653	7.9317	1.3796	0.	118.68
654	-7.9754	-7.3906	0.	126.76
655	-7.9391	-6.9013	0.	127.91
656	-7.8922	-6.3934	0.	128.44
657	-8.0427	-5.9069	0.	129.64
658	-8.0403	-5.4397	0.	129.97
659	-8.0274	-4.9622	0.	129.07
660	-8.0144	-4.4774	0.	128.26
661	-7.9993	-2.4959	0.	128.
662	-7.9983	-1.9939	0.	128.33
663	-7.9746	0.50535	0.	126.87
664	-7.9479	0.9912	0.	128.81
665	-1.9679	-1.5903	0.	124.66
666	-2.4011	-0.68677	0.	124.7
667	-0.37709	0.73919	0.	125.73
668	-3.849	-7.7974	0.	127.51
669	-5.3778	-6.4716	0.	129.49
670	-4.0925	-6.7044	0.	126.24
671	-2.519	-6.3483	0.	129.01
672	5.9052	-1.037	0.	115.
673	-2.0418	6.9442	0.	104.32
674	0.50122	-7.0454	0.	122.91
675	3.5398	-7.5235	0.	127.8
676	3.5151	-8.0525	0.	129.02
677	3.0043	-8.0319	0.	128.39
678	2.4954	-8.0334	0.	128.03
679	1.9934	-8.0368	0.	127.8
680	1.4979	-8.0357	0.	127.7
681	1.0074	-8.0369	0.	128.13
682	7.4544	2.4693	0.	125.22
683	-4.9879	-2.4969	0.	127.29
684	-5.001	-4.0028	0.	127.05
685	-6.4983	2.8129e-002	0.	113.48
686	-5.0659	-6.0056e-004	0.	129.39
687	-6.5	-4.0159	0.	113.59
688	-8.0055	-3.9874	0.	128.47
689	-7.9959	-1.491	0.	127.72
690	-7.9832	1.2265e-002	0.	127.22
691	-2.5125	2.9474	0.	116.77
692	-0.11713	6.9852	0.	131.61
693	1.0089	-4.5189	0.	129.16
694	0.98862	-6.0358	0.	130.71
695	-2.0095	-5.9542	0.	130.94
696	1.0014	-2.5079	0.	130.72
697	-1.9922	-4.4926	0.	126.29
698	6.9198	3.4205	0.	127.66
699	6.9487	1.9702	0.	126.79
700	5.5034	4.9962	0.	120.38
701	4.5002	1.9785	0.	121.
702	2.98	2.0011	0.	131.28
703	3.0018	3.507	0.	127.54
704	2.9978	5.0073	0.	129.05
705	7.9902	-3.5097	0.	128.31
706	8.0238	-4.9731	0.	130.88
707	5.5869	-5.0441	0.	111.16
708	4.0592	-4.9831	0.	132.15
709	3.9981	-2.505	0.	130.23
710	3.9703	-1.0206	0.	130.17
711	-3.9836	2.9276	0.	136.57
712	-4.0188	7.4596	0.	132.74
713	-4.0187	6.9654	0.	136.91
714	-4.0018	4.493	0.	134.67
715	-7.5323	-4.9674	0.	126.59
716	3.8489	-6.9106	0.	125.43
717	3.5882	-5.4778	0.	134.61
718	7.019	-5.861	0.	127.45
719	-1.4558	3.0372	0.	107.69
720	2.0784e-002	3.0949	0.	134.65
721	-3.7515	2.4847	0.	133.91
722	-5.5505	1.9914	0.	123.05
723	-6.9651	0.64776	0.	112.97
724	-6.0066	0.47428	0.	121.17
725	-5.5823	0.98731	0.	127.77
726	-5.5759	1.4892	0.	126.27
727	-2.9287	2.6947	0.	128.97
728	-3.3506	2.5891	0.	134.76
729	-3.5688	1.5642	0.	128.31
730	5.1627e-004	2.1491	0.	129.99
731	2.0927e-002	2.6235	0.	133.53
732	6.8544	-6.7881	0.	123.39
733	6.9545	-6.3253	0.	124.15
734	6.0618	-5.6333	0.	118.52
735	4.0857	-5.4699	0.	133.44
736	3.6427	-5.9655	0.	133.22
737	3.729	-6.4464	0.	129.41
738	-7.0359	-4.9958	0.	119.38
739	-7.594	-5.8939	0.	130.07
740	-7.9893	-7.8597	0.	130.11
741	-8.0274	5.496	0.	119.3
742	-8.0121	4.9809	0.	120.67
743	-7.9885	3.8966	0.	127.58
744	-4.0019	4.9923	0.	137.6
745	-4.0036	5.4887	0.	139.67
746	-5.0215	2.987	0.	128.63
747	-4.5187	2.9738	0.	134.15
748	4.9424	-1.0308	0.	123.55
749	4.4578	-1.0261	0.	128.66
750	4.0209	-3.9966	0.	131.24
751	4.0386	-4.4922	0.	132.09
752	5.0695	-5.0117	0.	115.75
753	7.9409	-2.0834	0.	122.81
754	7.5389	-4.9557	0.	130.38
755	8.0164	-4.483	0.	131.44
756	8.0042	-3.995	0.	130.16
757	3.4985	5.0036	0.	128.37
758	2.9995	3.0065	0.	129.64
759	2.9929	2.5045	0.	131.39
760	3.4907	1.9921	0.	130.32
761	3.9966	1.9849	0.	125.86
762	7.0209	4.4564	0.	130.06
763	6.0066	4.9908	0.	125.88
764	6.4574	1.9771	0.	127.88
765	6.9576	2.4653	0.	129.05
766	6.9408	2.9508	0.	129.42
767	-1.9932	-4.0044	0.	128.49
768	-1.9884	-3.0306	0.	129.08
769	1.0068	-4.013	0.	131.27
770	1.0044	-3.5093	0.	132.97
771	1.0028	-3.0084	0.	132.11
772	-1.9906	-4.9834	0.	127.49
773	-1.9933	-5.4737	0.	129.48
774	-1.0619	-5.9829	0.	111.22
775	1.0029	-5.5353	0.	131.79
776	1.0094	-5.0282	0.	130.56
777	2.771e-002	-0.11811	0.	124.72
778	-3.5275	6.9478	0.	137.38
779	-4.0135	6.4739	0.	138.93
780	-4.0073	5.9825	0.	140.05
781	-6.0612e-002	6.5006	0.	132.47
782	-3.4727	3.0428	0.	135.92
783	-3.0178	3.1223	0.	128.29
784	-0.95877	3.0708	0.	119.09
785	-0.46811	3.089	0.	131.79
786	7.3971e-003	4.0456	0.	131.13
787	-6.9858	5.7625e-002	0.	115.62
788	-8.0016	-3.4923	0.	128.96
789	-7.0013	-4.0034	0.	117.87
790	-5.0225	-0.99512	0.	129.19
791	-5.0569	-0.50112	0.	129.96
792	-6.0177	-1.3842e-003	0.	118.66
793	-6.0033	-4.0243	0.	116.9
794	-5.506	-4.022	0.	123.39
795	-4.9927	-2.9993	0.	127.68
796	7.0044	5.4931	0.	134.69
797	7.3257	3.4277	0.	128.46
798	7.415	2.9598	0.	129.14
799	7.0113	4.9819	0.	134.91
800	0.52123	-8.0416	0.	129.98
801	0.51939	-7.5476	0.	126.14
802	0.47715	-6.5378	0.	127.99
803	0.45948	-6.0299	0.	131.14
804	-0.58669	-5.912	0.	106.53
805	-3.5224	7.9247	0.	128.27
806	-3.5319	7.4324	0.	132.88
807	-3.0349	6.93	0.	129.38
808	-2.5384	6.923	0.	110.93
809	7.1951	0.47648	0.	126.21
810	6.3362	-0.54417	0.	117.87
811	6.3842	-1.0366	0.	117.9
812	-1.551	6.9697	0.	115.54
813	-2.0571	-6.3751	0.	132.12
814	-2.4799	-7.8277	0.	127.52
815	-2.5168	-6.8209	0.	125.76
816	-2.4882	-7.3152	0.	125.31
817	-4.7146	-8.1444	0.	132.23
818	-4.5423	-6.5	0.	129.91
819	-4.9542	-6.4097	0.	131.24
820	-4.264	-7.9623	0.	130.04
821	-4.5944	-7.0061	0.	123.94
822	4.0496	-7.7101	0.	129.08
823	4.0231	-8.1218	0.	129.62
824	-0.46675	-0.11978	0.	119.93
825	-0.4413	0.3158	0.	123.25
826	-2.4656	0.16896	0.	125.73
827	-2.41	-0.24419	0.	125.7
828	-1.9557	-1.1197	0.	123.72
829	-1.9369	-0.65568	0.	121.93
830	-7.669	1.485	0.	128.74
831	-8.1589	3.406	0.	133.38
832	8.0995	0.90933	0.	117.8
833	8.4839	1.4764	0.	122.08
834	7.9583	2.4974	0.	119.36
835	6.9997	8.0006	0.	128.49
836	-8.5206	5.5057	0.	122.95
837	-8.5093	4.9861	0.	123.17
838	-8.5052	4.4683	0.	124.86
839	-8.5181	3.9593	0.	128.3
840	-8.5777	3.4569	0.	131.54
841	-8.6032	2.9542	0.	130.92
842	-8.5994	2.4592	0.	128.55
843	-8.5877	1.9645	0.	128.52
844	-8.5474	1.4716	0.	131.61
845	-8.4947	0.98565	0.	131.27
846	-8.4879	4.4351e-003	0.	129.29
847	-8.49	-0.49224	0.	128.89
848	-8.493	-0.99164	0.	128.3
849	-8.4958	-1.4929	0.	127.91
850	-8.4991	-2.4955	0.	128.05
851	-8.5003	-2.9945	0.	128.55
852	-8.5024	-3.4918	0.	129.17
853	-8.5115	-4.4816	0.	129.55
854	-8.5188	-4.9724	0.	129.78
855	-8.5221	-5.4615	0.	129.73
856	-8.5053	-5.9521	0.	128.94
857	-8.4565	-6.4404	0.	127.81
858	-8.4596	-6.9331	0.	126.78
859	-8.4737	-7.4306	0.	127.13
860	6.07	-8.1039	0.	124.23
861	-5.515	2.9883	0.	124.68
862	8.4168	-2.1745	0.	125.34
863	8.4145	-2.5793	0.	125.69
864	8.4645	-3.0238	0.	126.51
865	8.5017	-3.9962	0.	128.97
866	8.5137	-4.9858	0.	130.04
867	8.4945	-5.9881	0.	127.86
868	8.4602	-7.0026	0.	126.17
869	8.4979	-7.5043	0.	126.36
870	8.5024	-8.0045	0.	126.81
871	8.5005	-8.5019	0.	127.2
872	7.5039	-8.5158	0.	126.89
873	6.5232	-8.5826	0.	125.24
874	6.0278	-8.5662	0.	121.83
875	5.0253	-8.5916	0.	116.56
876	4.5191	-8.5982	0.	123.47
877	4.0128	-8.5789	0.	127.97
878	3.5083	-8.5462	0.	128.91
879	3.0048	-8.5287	0.	129.01
880	2.5021	-8.5246	0.	128.88
881	2.0012	-8.5256	0.	128.81
882	1.5031	-8.5273	0.	128.92
883	1.0082	-8.5286	0.	129.28
884	0.51471	-8.5305	0.	130.35
885	1.9908e-002	-8.5285	0.	126.48
886	-0.47917	-8.5062	0.	116.04
887	-0.97954	-8.4463	0.	113.21
888	-1.4782	-8.3842	0.	123.45
889	-4.106	-8.4442	0.	130.23
890	-4.5894	-8.5754	0.	130.21
891	-5.0465	-8.6902	0.	126.91
892	-5.6245	-8.4351	0.	120.15
893	-6.0752	-8.5287	0.	114.01
894	-6.5434	-8.5996	0.	111.03
895	-7.018	-8.6528	0.	118.84
896	-7.4906	-8.6743	0.	129.04
897	-7.9519	-8.6641	0.	131.77
898	-8.5346	8.5805	0.	126.42
899	1.0173	8.5308	0.	125.75
900	1.515	8.5248	0.	125.9
901	2.0104	8.5152	0.	125.9
902	4.0014	8.5009	0.	125.11
903	5.0001	8.5001	0.	125.01
904	6.4999	8.5003	0.	127.
905	-4.0104	7.9583	0.	129.16
906	-3.9947	8.4611	0.	128.53
907	-0.61999	7.4405	0.	129.13
908	-8.1569	2.9228	0.	136.92
909	-8.138	2.4357	0.	125.93
910	-8.1431	1.9508	0.	133.33
911	-1.9413	-0.1998	0.	119.06
912	-1.4593	-0.13147	0.	116.18
913	-0.96436	-0.11598	0.	121.79
914	5.5287	-8.5559	0.	115.37
915	4.535	-8.1549	0.	128.16
916	-4.9903	-7.3872	0.	136.7
917	-2.0362	-6.8279	0.	127.35
918	-1.9666	-7.8264	0.	133.6
919	-1.0752	7.4656	0.	133.
920	-1.0388	7.9454	0.	123.76
921	6.8591	-1.0394	0.	134.03
922	6.8041	-0.53679	0.	117.02
923	-8.0241	9.0649	0.	120.25
924	-7.5213	9.0604	0.	122.38
925	-7.0158	9.0442	0.	127.54
926	-6.0019	9.0103	0.	123.95
927	-5.4981	9.0016	0.	120.24
928	-4.9944	8.995	0.	122.79
929	-4.4892	8.985	0.	126.97
930	-3.982	8.9685	0.	128.2
931	-1.4814	9.0775	0.	129.9
932	-2.0125e-002	8.9928	0.	125.67
933	0.4948	9.0084	0.	125.71
934	1.0037	9.0158	0.	125.96
935	1.5064	9.0148	0.	126.12
936	2.0059	9.0099	0.	126.16
937	2.5044	9.0057	0.	126.09
938	3.0029	9.0029	0.	125.97
939	3.502	9.0017	0.	125.81
940	4.0013	9.0009	0.	125.66
941	5.0002	9.0001	0.	125.56
942	5.5001	9.0001	0.	125.71
943	6.	9.0002	0.	126.08
944	6.5	9.0002	0.	126.7
945	7.	9.0002	0.	127.46
946	7.5	9.0001	0.	126.75
947	8.	9.0001	0.	122.28
948	8.5	9.	0.	119.14
949	-8.9633	7.4512	0.	139.61
950	-9.0192	8.5324	0.	128.42
951	-8.5224	9.0505	0.	123.99
952	-9.0226	5.9082	0.	134.47
953	-9.0131	5.4753	0.	129.44
954	-9.0074	4.9843	0.	127.64
955	-9.0066	4.4834	0.	127.84
956	-9.0179	3.9813	0.	129.19
957	-9.0431	3.479	0.	130.25
958	-9.0616	2.9753	0.	129.7
959	-9.0613	2.474	0.	128.25
960	-9.0523	1.9762	0.	128.8
961	-9.0304	1.4806	0.	130.26
962	-9.0059	0.9878	0.	130.92
963	-8.9954	0.49529	0.	130.65
964	-8.9933	4.1169e-004	0.	130.11
965	-8.9968	-1.4955	0.	128.43
966	-8.9982	-1.9956	0.	128.26
967	-8.9993	-2.4961	0.	128.43
968	-9.0018	-3.4945	0.	129.4
969	-9.0042	-3.9918	0.	129.71
970	-9.0079	-4.4878	0.	129.82
971	-9.0115	-4.9828	0.	129.71
972	-9.0105	-5.479	0.	129.29
973	-8.9994	-5.9746	0.	128.5
974	-8.9807	-6.4686	0.	127.53
975	-8.9768	-6.9637	0.	126.96
976	-8.9789	-7.4643	0.	127.22
977	-8.9762	-7.9734	0.	128.4
978	-8.9645	-8.4851	0.	129.55
979	-8.4794	-9.0145	0.	130.17
980	-7.9872	-9.0794	0.	129.17
981	-7.4944	-9.1027	0.	125.35
982	-7.0039	-9.0921	0.	118.83
983	-6.512	-9.0616	0.	114.7
984	-6.01	-9.0157	0.	116.12
985	-5.4742	-8.9537	0.	121.7
986	-4.9871	-9.0827	0.	126.1
987	-4.5173	-9.0309	0.	128.99
988	-4.0307	-8.9484	0.	130.2
989	-3.5342	-8.8596	0.	130.19
990	-3.0194	-8.8824	0.	129.94
991	-2.5054	-8.9005	0.	129.34
992	-1.4941	-8.9305	0.	122.6
993	-0.99325	-8.9632	0.	118.18
994	-0.49191	-8.9961	0.	118.87
995	9.0215e-003	-9.0136	0.	123.94
996	0.5081	-9.0187	0.	127.67
997	1.0059	-9.019	0.	129.08
998	1.5038	-9.0181	0.	129.38
999	2.0027	-9.0166	0.	129.44
1000	2.5025	-9.0167	0.	129.37
1001	3.5044	-9.0319	0.	128.21
1002	4.0069	-9.0484	0.	126.17
1003	4.5109	-9.0578	0.	122.45
1004	5.0144	-9.0548	0.	118.4
1005	5.5148	-9.0415	0.	117.9
1006	6.0137	-9.0424	0.	120.71
1007	6.5126	-9.0475	0.	123.85
1008	7.0105	-9.0371	0.	125.73
1009	8.002	-9.0039	0.	127.12
1010	8.5008	-9.001	0.	127.42
1011	9.0004	-8.5004	0.	127.51
1012	8.9998	-8.0009	0.	127.24
1013	8.9945	-7.4997	0.	127.03
1014	8.9827	-6.9988	0.	127.03
1015	8.984	-6.4979	0.	127.42
1016	8.9954	-5.9956	0.	128.13
1017	9.0042	-5.4936	0.	128.87
1018	9.0072	-4.993	0.	129.33
1019	9.0053	-4.4933	0.	129.25
1020	8.9996	-3.9932	0.	128.66
1021	8.988	-3.4914	0.	127.91
1022	8.9626	-2.9789	0.	127.54
1023	8.8924	-2.4282	0.	128.36
1024	8.9888	-1.9025	0.	132.85
1025	9.0579	-1.4165	0.	135.93
1026	9.0951	-0.93365	0.	133.09
1027	9.0944	-0.44825	0.	127.57
1028	9.0798	3.4507e-002	0.	131.85
1029	9.0586	0.52099	0.	133.59
1030	9.0297	1.0103	0.	130.67
1031	8.9986	1.5056	0.	126.43
1032	8.9862	2.0093	0.	124.17
1033	8.9858	2.5182	0.	122.96
1034	9.0153	3.0125	0.	125.05
1035	9.1223	3.4502	0.	134.35
1036	8.5872	0.51304	0.	138.63
1037	8.6021	-1.343	0.	146.85
1038	-3.0501	7.3926	0.	142.34
1039	-9.6089e-002	-6.0275	0.	126.5
1040	3.8146e-002	-8.0517	0.	138.9
1041	7.5203	4.9949	0.	141.61
1042	7.9095	3.0118	0.	122.03
1043	9.0174	5.0726	0.	123.79
1044	7.5125	5.4961	0.	132.96
1045	7.4999	8.5002	0.	130.55
1046	-5.499	-3.5088	0.	127.52
1047	-5.5305	-0.50027	0.	129.41
1048	-7.4998	-3.4965	0.	128.56
1049	-7.4868	-0.47719	0.	126.95
1050	-0.48296	3.558	0.	132.7
1051	-3.5009	3.5155	0.	138.72
1052	-0.55037	6.4864	0.	134.91
1053	-3.5175	6.4662	0.	139.45
1054	0.51462	-0.56348	0.	133.83
1055	-1.4615	-0.60642	0.	123.97
1056	0.48122	-5.5236	0.	132.56
1057	-1.5149	-5.5131	0.	126.46
1058	0.50282	-3.5058	0.	134.64
1059	-1.494	-3.5096	0.	131.97
1060	6.4684	2.4755	0.	132.13
1061	6.5182	4.4709	0.	132.21
1062	3.4965	2.4961	0.	133.57
1063	3.4998	4.5041	0.	132.13
1064	7.5245	-4.4741	0.	133.23
1065	7.4182	-1.5542	0.	129.08
1066	4.5405	-4.4978	0.	130.96
1067	4.4745	-1.5182	0.	132.77
1068	-6.5205	8.5386	0.	134.49
1069	-4.5052	3.4795	0.	139.79
1070	-4.5028	5.4924	0.	142.48
1071	-7.533	5.4758	0.	122.72
1072	-7.5021	-8.2567	0.	139.13
1073	-7.0743	-5.4737	0.	126.64
1074	-6.7078	5.9942	0.	145.06
1075	-9.2843	6.4658	0.	143.35
1076	6.4795	-6.2352	0.	133.85
1077	-3.2313	2.1293	0.	134.81
1078	-6.166	0.96438	0.	124.36
1079	9.	9.	0.	122.29
1080	9.0004	-9.0002	0.	127.71
1081	-8.9808	-8.995	0.	130.05
1082	-9.0154	9.0265	0.	126.38
1083	7.1959	9.2955e-003	0.	127.73
1084	8.104	0.46415	0.	106.55
1085	7.6083	0.32033	0.	120.42
1086	8.6632	-0.90019	0.	134.94
1087	8.6493	-0.42613	0.	136.08
1088	-3.0495	7.8642	0.	124.88
1089	-2.9947	8.3615	0.	131.15
1090	-1.9157	9.0266	0.	118.5
1091	-1.1641	8.4457	0.	126.44
1092	-1.6295	8.6908	0.	133.98
1093	-2.5608	7.3601	0.	110.41
1094	-1.5671	7.4755	0.	125.27
1095	-1.8953e-002	-6.5562	0.	129.82
1096	5.0891e-002	-7.5704	0.	126.34
1097	2.1786e-002	-7.0675	0.	128.26
1098	-0.45529	-8.0422	0.	109.21
1099	-1.453	-7.804	0.	129.89
1100	-0.95518	-7.9357	0.	108.56
1101	-1.5623	-6.6613	0.	131.79
1102	-0.57976	-6.2774	0.	98.487
1103	-1.057	-6.4599	0.	115.4
1104	8.5149	4.7563	0.	100.07
1105	8.0657	4.9926	0.	106.95
1106	7.7474	3.4943	0.	135.12
1107	7.5051	4.4885	0.	127.48
1108	7.5818	3.982	0.	130.53
1109	8.4693	3.1281	0.	108.9
1110	8.784	3.5909	0.	129.65
1111	9.1485	3.9585	0.	131.24
1112	9.0127	5.5335	0.	121.
1113	8.0164	5.5072	0.	115.6
1114	9.	8.5	0.	122.89
1115	8.5	8.5	0.	111.14
1116	8.	8.5001	0.	122.8
1117	-5.4963	-3.0014	0.	127.63
1118	-5.4941	-2.4988	0.	130.15
1119	-5.4938	-1.9983	0.	132.03
1120	-5.4986	-1.4985	0.	130.72
1121	-5.513	-0.99934	0.	128.98
1122	-7.4996	-2.9975	0.	128.26
1123	-7.4996	-2.4972	0.	130.54
1124	-7.4988	-1.996	0.	132.11
1125	-7.494	-0.98717	0.	127.53
1126	-7.4978	-1.4936	0.	130.26
1127	-0.98236	3.5372	0.	120.89
1128	-1.485	3.5174	0.	107.24
1129	-1.9907	3.4975	0.	108.41
1130	-2.998	3.5329	0.	127.41
1131	-2.4955	3.4924	0.	112.27
1132	-1.0374	6.4848	0.	124.81
1133	-1.5275	6.4816	0.	111.49
1134	-2.0218	6.4722	0.	108.25
1135	-2.5197	6.4644	0.	109.73
1136	-3.0189	6.4645	0.	127.45
1137	0.50172	-3.0052	0.	131.18
1138	0.50092	-2.5064	0.	132.22
1139	0.50056	-2.0086	0.	134.17
1140	0.50134	-1.5169	0.	133.25
1141	1.6655e-002	-0.56067	0.	124.7
1142	-0.48121	-0.56088	0.	110.03
1143	-0.97604	-0.56981	0.	119.87
1144	-1.4927	-3.0174	0.	128.7
1145	-1.4901	-2.5263	0.	128.65
1146	-1.4863	-2.0374	0.	130.
1147	-1.4741	-1.0752	0.	123.77
1148	-1.4814	-1.552	0.	128.63
1149	-3.0857e-002	-5.5079	0.	119.59
1150	-1.0308	-5.4946	0.	115.18
1151	-0.53376	-5.4768	0.	104.78
1152	1.5665e-003	-3.5015	0.	117.39
1153	-0.49871	-3.5004	0.	97.778
1154	-0.99708	-3.5022	0.	115.52
1155	6.4692	2.9721	0.	131.48
1156	6.4766	3.4692	0.	130.53
1157	6.5176	3.965	0.	129.42
1158	3.4995	3.0001	0.	132.
1159	3.5006	4.0035	0.	131.1
1160	3.5005	3.5026	0.	131.01
1161	7.5055	-3.9913	0.	131.6
1162	7.4944	-3.5049	0.	132.26
1163	7.4843	-3.017	0.	133.27
1164	7.4728	-2.5278	0.	131.49
1165	7.461	-2.0397	0.	126.5
1166	4.5163	-3.999	0.	131.05
1167	4.5061	-3.4993	0.	133.82
1168	4.502	-3.0012	0.	135.66
1169	4.4916	-2.0096	0.	132.07
1170	4.4986	-2.5039	0.	134.37
1171	-5.9993	-3.5097	0.	118.26
1172	-6.9989	-3.5016	0.	118.68
1173	-6.4991	-3.5069	0.	106.98
1174	-6.015	-0.4975	0.	118.58
1175	-6.5032	-0.48596	0.	107.09
1176	-6.9941	-0.47785	0.	117.56
1177	-4.504	7.9808	0.	130.76
1178	-4.5043	5.9898	0.	139.69
1179	-4.507	6.4864	0.	138.69
1180	-4.5092	6.9831	0.	139.11
1181	-4.5085	7.4813	0.	135.44
1182	-6.0072	8.5114	0.	125.05
1183	-4.9978	8.4952	0.	123.02
1184	-5.5015	8.5017	0.	112.13
1185	-6.3724	6.0322	0.	133.54
1186	-6.3975	6.5138	0.	135.72
1187	-6.506	7.5629	0.	135.46
1188	-6.5034	7.0388	0.	137.35
1189	-4.5019	3.9887	0.	137.79
1190	-4.5011	4.4935	0.	136.57
1191	-4.5014	4.9941	0.	137.81
1192	-5.0116	3.4905	0.	132.32
1193	-5.522	3.4912	0.	123.96
1194	-6.0566	3.4765	0.	127.26
1195	-6.9546	3.5733	0.	110.31
1196	-6.5139	3.61	0.	110.07
1197	-5.0013	5.4983	0.	125.78
1198	-5.5006	5.5005	0.	108.81
1199	-6.001	5.5061	0.	122.25
1200	-6.5197	5.5542	0.	129.21
1201	-7.0359	5.4801	0.	130.32
1202	-7.475	3.9837	0.	125.44
1203	-7.5119	4.9808	0.	122.94
1204	-7.5004	4.4792	0.	124.02
1205	-0.51997	5.9981	0.	132.58
1206	-0.49434	4.0334	0.	130.8
1207	-0.49951	4.5186	0.	132.61
1208	-0.50271	5.0108	0.	134.49
1209	-0.50756	5.5047	0.	133.76
1210	-3.502	4.0027	0.	136.45
1211	-3.5012	4.4977	0.	137.76
1212	-3.5066	5.9822	0.	138.29
1213	-3.5022	5.4911	0.	139.73
1214	-3.501	4.9951	0.	140.25
1215	0.50392	-4.0084	0.	130.84
1216	0.50044	-5.0173	0.	130.11
1217	0.50443	-4.5123	0.	129.08
1218	-1.4955	-4.0033	0.	127.96
1219	-1.4957	-4.4987	0.	126.18
1220	-1.4995	-4.9983	0.	125.87
1221	7.5019	5.9986	0.	130.57
1222	7.4997	6.4997	0.	131.9
1223	7.4999	8.0003	0.	129.9
1224	7.4997	7.5003	0.	132.33
1225	7.4996	7.	0.	133.72
1226	5.9805	2.4868	0.	126.03
1227	5.4904	2.4899	0.	117.82
1228	4.5003	2.4891	0.	118.04
1229	4.9958	2.4898	0.	118.36
1230	3.9997	4.5014	0.	126.05
1231	6.0093	4.4903	0.	126.32
1232	5.5032	4.4973	0.	117.03
1233	5.0009	4.4993	0.	117.59
1234	4.5	4.5001	0.	117.01
1235	7.0334	-4.4709	0.	126.19
1236	6.5415	-4.484	0.	113.55
1237	6.051	-4.5292	0.	111.81
1238	5.0429	-4.5085	0.	119.87
1239	5.5491	-4.5239	0.	110.41
1240	6.9277	-1.5275	0.	129.82
1241	6.4408	-1.5199	0.	118.02
1242	5.9517	-1.5185	0.	115.45
1243	5.4614	-1.5179	0.	114.47
1244	4.9689	-1.5166	0.	126.44
1245	-5.2841	-7.7823	0.	135.15
1246	-5.7095	-7.9358	0.	115.84
1247	-6.133	-8.0359	0.	112.36
1248	-7.0404	-8.2359	0.	118.59
1249	-6.5805	-8.1484	0.	109.65
1250	-6.5956	-5.5642	0.	104.66
1251	-6.0817	-5.7585	0.	117.5
1252	-5.0455	-6.8137	0.	132.12
1253	-5.7588	-6.1803	0.	115.73
1254	-7.5155	-7.8303	0.	129.7
1255	-7.4802	-7.3764	0.	134.09
1256	-7.1965	-5.9518	0.	132.91
1257	-7.3416	-6.425	0.	127.68
1258	-7.0931	5.9328	0.	128.56
1259	-7.5458	5.9588	0.	116.55
1260	-8.9449	6.3142	0.	142.91
1261	-8.5536	6.0603	0.	121.21
1262	-8.0313	6.0086	0.	118.5
1263	-9.1731	6.9326	0.	131.75
1264	-8.0852	8.1931	0.	121.91
1265	-8.5358	8.1192	0.	125.17
1266	-8.4833	7.7029	0.	120.62
1267	-7.0764	8.1075	0.	134.01
1268	-7.0068	7.6548	0.	130.43
1269	-6.7469	6.4312	0.	132.96
1270	-6.8514	6.8437	0.	148.05
1271	-6.9444	7.2365	0.	137.27
1272	4.4665	-7.3093	0.	127.99
1273	4.1885	-6.4217	0.	126.62
1274	4.3201	-6.8759	0.	137.08
1275	4.5993	-5.9585	0.	124.85
1276	6.0214	-6.1323	0.	126.61
1277	5.5538	-6.0576	0.	106.12
1278	5.0772	-6.0005	0.	103.82
1279	6.3845	-6.7179	0.	116.45
1280	6.1805	-7.2069	0.	135.
1281	5.5462	-8.0417	0.	115.48
1282	5.7955	-7.584	0.	118.99
1283	-0.45592	2.1572	0.	127.95
1284	-0.538	1.6903	0.	134.49
1285	-0.9386	0.3408	0.	126.24
1286	-0.82767	0.79042	0.	122.92
1287	-0.65876	1.2326	0.	129.16
1288	-2.8007	2.2687	0.	134.12
1289	-2.3566	2.4131	0.	112.64
1290	-1.8818	2.4964	0.	108.17
1291	-0.92167	2.6124	0.	118.3
1292	-1.3985	2.5611	0.	107.5
1293	-1.9953	0.22773	0.	120.39
1294	-2.8874	1.1528	0.	137.3
1295	-2.4413	0.88676	0.	121.82
1296	-2.154	0.58619	0.	118.48
1297	-6.0839	1.5027	0.	130.38
1298	-6.0386	2.0011	0.	124.29
1299	-6.0058	2.486	0.	125.43
1300	-6.6988	1.1456	0.	104.11
1301	-7.7486	1.9255	0.	131.69
1302	-7.4165	1.7316	0.	120.33
1303	-7.1077	1.4184	0.	113.96
1304	9.5	9.	0.	127.24
1305	9.5	8.5001	0.	131.43
1306	9.5	8.0001	0.	132.29
1307	9.5	7.5002	0.	135.5
1308	9.5	7.0006	0.	137.34
1309	9.5002	6.5019	0.	135.96
1310	9.502	6.0056	0.	134.17
1311	9.506	5.5107	0.	134.56
1312	9.4998	5.0044	0.	135.56
1313	9.4551	4.4522	0.	131.02
1314	9.5705	3.9538	0.	128.7
1315	9.553	3.4746	0.	131.16
1316	9.5162	2.991	0.	130.45
1317	9.4973	2.5021	0.	128.88
1318	9.4948	2.0056	0.	129.
1319	9.5011	1.5073	0.	130.04
1320	9.5142	1.0102	0.	131.13
1321	9.5281	0.51442	0.	131.31
1322	9.5391	1.9639e-002	0.	129.6
1323	9.5457	-0.47543	0.	128.51
1324	9.5435	-0.97091	0.	129.72
1325	9.525	-1.4676	0.	131.69
1326	9.4916	-1.9669	0.	131.16
1327	9.4611	-2.4707	0.	129.8
1328	9.4763	-2.9799	0.	128.76
1329	9.4912	-3.4894	0.	128.49
1330	9.4986	-3.9938	0.	128.63
1331	9.502	-4.4955	0.	128.87
1332	9.5029	-4.9965	0.	128.93
1333	9.5014	-5.4975	0.	128.71
1334	9.4972	-5.9984	0.	128.27
1335	9.4927	-6.499	0.	127.82
1336	9.4923	-6.9991	0.	127.53
1337	9.4963	-7.4993	0.	127.46
1338	9.4993	-7.9997	0.	127.6
1339	9.5001	-8.4999	0.	127.82
1340	9.5002	-9.	0.	128.05
1341	9.5001	-9.5	0.	128.21
1342	9.0003	-9.5001	0.	127.82
1343	8.5007	-9.5006	0.	127.49
1344	8.0018	-9.5026	0.	127.06
1345	7.5036	-9.5081	0.	126.34
1346	7.0057	-9.5176	0.	125.07
1347	6.5063	-9.5215	0.	123.08
1348	6.0062	-9.5208	0.	120.66
1349	5.5068	-9.5216	0.	119.03
1350	5.0068	-9.5264	0.	119.59
1351	4.505	-9.527	0.	122.18
1352	4.0029	-9.5231	0.	125.27
1353	3.5016	-9.516	0.	127.57
1354	3.0013	-9.5107	0.	128.92
1355	2.5014	-9.5086	0.	129.55
1356	2.0017	-9.5084	0.	129.7
1357	1.5022	-9.509	0.	129.41
1358	1.0028	-9.5094	0.	128.47
1359	0.50322	-9.5087	0.	126.49
1360	2.9099e-003	-9.5052	0.	123.39
1361	-0.498	-9.4962	0.	120.63
1362	-0.99928	-9.4812	0.	120.29
1363	-1.5002	-9.4666	0.	122.71
1364	-2.0017	-9.4564	0.	126.09
1365	-2.5045	-9.4489	0.	128.59
1366	-3.0085	-9.4405	0.	129.94
1367	-3.5102	-9.4427	0.	130.35
1368	-4.0055	-9.4732	0.	129.86
1369	-4.5012	-9.5097	0.	128.18
1370	-4.9995	-9.5224	0.	125.06
1371	-5.4969	-9.4944	0.	120.97
1372	-5.9974	-9.5071	0.	117.39
1373	-6.4996	-9.5286	0.	116.47
1374	-6.9996	-9.5433	0.	119.19
1375	-7.4988	-9.5468	0.	123.77
1376	-7.9977	-9.5351	0.	127.49
1377	-8.4956	-9.512	0.	129.33
1378	-8.9944	-9.5001	0.	130.05
1379	-9.4959	-9.4977	0.	130.66
1380	-9.4898	-8.9952	0.	130.09
1381	-9.4847	-8.4921	0.	129.17
1382	-9.4864	-7.9877	0.	128.02
1383	-9.4885	-7.485	0.	127.08
1384	-9.4893	-6.9849	0.	126.77
1385	-9.4923	-6.4868	0.	127.17
1386	-9.4992	-5.9891	0.	128.01
1387	-9.5041	-5.4907	0.	128.96
1388	-9.5052	-4.9922	0.	129.68
1389	-9.504	-4.4939	0.	130.04
1390	-9.5024	-3.9957	0.	130.03
1391	-9.5011	-3.4969	0.	129.72
1392	-9.5003	-2.9975	0.	129.26
1393	-9.4997	-2.4975	0.	128.86
1394	-9.499	-1.9976	0.	128.73
1395	-9.4983	-1.4977	0.	128.97
1396	-9.4976	-0.99797	0.	129.49
1397	-9.4971	-0.49894	0.	130.11
1398	-9.4974	-6.4622e-004	0.	130.6
1399	-9.4993	0.49649	0.	130.77
1400	-9.5048	0.99284	0.	130.47
1401	-9.515	1.4896	0.	129.64
1402	-9.5244	1.9881	0.	128.66
1403	-9.5289	2.4876	0.	128.41
1404	-9.5283	2.9889	0.	128.98
1405	-9.5201	3.4914	0.	129.76
1406	-9.5101	3.9925	0.	130.25
1407	-9.5046	4.4929	0.	130.74
1408	-9.5044	4.9942	0.	131.67
1409	-9.5063	5.5003	0.	133.37
1410	-9.4954	6.0348	0.	137.03
1411	-9.6165	6.5215	0.	132.36
1412	-9.5704	7.0003	0.	129.8
1413	-9.5037	7.4938	0.	130.7
1414	-9.5011	8.001	0.	130.08
1415	-9.5076	8.5092	0.	128.38
1416	-9.5074	9.0099	0.	127.02
1417	-9.5049	9.5062	0.	125.44
1418	-9.0083	9.5143	0.	124.54
1419	-8.5107	9.5238	0.	123.2
1420	-8.0103	9.5299	0.	122.09
1421	-7.5076	9.5282	0.	122.59
1422	-7.0046	9.5212	0.	124.4
1423	-6.5018	9.5128	0.	124.91
1424	-5.9995	9.5057	0.	123.95
1425	-5.4977	9.5008	0.	123.22
1426	-4.9934	9.4966	0.	124.24
1427	-4.4895	9.491	0.	125.94
1428	-3.9837	9.4818	0.	126.96
1429	-3.4746	9.4653	0.	128.76
1430	-2.963	9.4336	0.	128.9
1431	-1.9752	9.4884	0.	119.31
1432	-1.4888	9.5233	0.	125.83
1433	-1.003	9.5034	0.	127.43
1434	-0.51022	9.4929	0.	126.89
1435	-8.8568e-003	9.4961	0.	126.57
1436	0.49514	9.5026	0.	126.57
1437	0.99926	9.5064	0.	126.67
1438	1.5018	9.5067	0.	126.71
1439	2.0025	9.5048	0.	126.68
1440	2.5021	9.5029	0.	126.59
1441	3.0015	9.5016	0.	126.48
1442	3.501	9.5009	0.	126.35
1443	4.0006	9.5005	0.	126.24
1444	4.5004	9.5002	0.	126.16
1445	5.0002	9.5001	0.	126.11
1446	5.5001	9.5001	0.	126.11
1447	6.	9.5001	0.	126.13
1448	6.5	9.5001	0.	126.13
1449	7.	9.5001	0.	125.91
1450	7.5	9.5001	0.	124.96
1451	8.	9.5	0.	123.32
1452	8.5	9.5	0.	122.35
1453	9.	9.5	0.	123.31
1454	9.5	9.5	0.	125.31
1455	-7.7265	2.9298	0.	134.12
1456	-6.4889	3.2616	0.	108.57
1457	-6.9074	3.1528	0.	106.69
1458	2.4928	-1.4635e-002	0.	130.93
1459	5.	8.0001	0.	124.45
1460	-3.4705	8.9393	0.	129.38
1461	1.4614	6.5434	0.	127.7
1462	-3.6651	2.0328	0.	129.15
1463	5.5019	5.4966	0.	122.16
1464	-4.582	1.9802	0.	127.04
1465	3.5022	8.5021	0.	125.33
1466	6.6069	-5.3757	0.	122.66
1467	7.3285	-1.0641	0.	131.89
1468	1.9827	7.0231	0.	126.64
1469	7.0613	-5.4028	0.	126.57
1470	1.5298	-5.5519	0.	130.98
1471	-3.1003	1.6544	0.	122.64
1472	-1.9915	-3.5169	0.	130.15
1473	4.4993	7.0002	0.	123.43
1474	1.5153	-4.5236	0.	130.6
1475	2.4913	7.0108	0.	126.08
1476	-2.8379e-002	6.0082	0.	131.33
1477	2.9949	5.5078	0.	127.59
1478	-3.8064	0.12513	0.	131.07
1479	6.9995	7.5006	0.	128.06
1480	-7.4798	2.975e-002	0.	122.38
1481	-3.4943	8.4261	0.	126.32
1482	-2.0629	7.4139	0.	100.48
1483	-1.9972	-8.9131	0.	127.07
1484	-5.9931	2.9695	0.	125.22
1485	7.8958	-7.0306	0.	124.91
1486	-5.0056	-4.5055	0.	126.29
1487	0.50194	4.5348	0.	129.06
1488	0.5201	-0.10542	0.	130.79
1489	-6.5384	-5.066	0.	114.03
1490	-0.45193	2.6243	0.	138.96
1491	4.0006	8.0007	0.	124.63
1492	7.9704	-3.0303	0.	127.44
1493	6.9999	8.5003	0.	128.6
1494	-3.4294	0.62975	0.	131.6
1495	-9.0094	8.0195	0.	130.
1496	2.005	3.5303	0.	128.32
1497	-5.5403	0.49439	0.	126.03
1498	3.9695	0.4786	0.	126.38
1499	7.506	-9.0158	0.	126.66
1500	-3.9681	-7.2609	0.	125.02
1501	1.2508e-003	4.5309	0.	129.69
1502	2.9886	-1.0117	0.	130.47
1503	-1.0669	6.972	0.	127.42
1504	5.9057	0.97058	0.	123.75
1505	-4.4827	-2.501	0.	126.93
1506	-4.9972	-3.5029	0.	127.86
1507	6.3112	-4.096e-002	0.	120.56
1508	8.5153	5.5419	0.	102.75
1509	-4.5353	-0.98328	0.	128.89
1510	2.5057	8.0106	0.	125.67
1511	-0.53851	8.9793	0.	127.2
1512	5.9997	8.0004	0.	125.54
1513	-7.3876	3.5081	0.	125.24
1514	1.4039e-002	3.5683	0.	133.04
1515	3.0002	4.5078	0.	129.82
1516	2.0046	4.0238	0.	128.14
1517	3.9638	-2.1307e-002	0.	127.15
1518	-4.0005	3.475	0.	138.98
1519	-8.0778	1.4645	0.	132.62
1520	4.4991	5.5001	0.	121.22
1521	6.764	-3.0097e-002	0.	130.29
1522	0.50258	2.6203	0.	131.46
1523	4.5811	-5.4797	0.	123.36
1524	-5.2039	-8.2991	0.	127.04
1525	-8.0024	4.454	0.	122.05
1526	4.5002	8.0002	0.	124.42
1527	2.9998	-2.5033	0.	129.26
1528	1.5042	-1.0239	0.	131.28
1529	4.4916	1.4729	0.	122.5
1530	2.9961	-2.0058	0.	129.66
1531	7.4764	-7.9817	0.	126.37
1532	-7.4226	-6.9031	0.	133.11
1533	-5.538	-2.4756e-003	0.	126.07
1534	0.51114	3.5685	0.	131.81
1535	4.9644	0.9648	0.	121.98
1536	1.0086	3.5608	0.	130.31
1537	5.4998	8.0003	0.	124.8
1538	-8.9938	-0.4967	0.	129.53
1539	1.0109	-0.55301	0.	132.71
1540	8.5473	5.1218	0.	105.26
1541	-4.6251	-2.1568e-002	0.	130.24
1542	6.5108	4.9823	0.	131.51
1543	5.9989	7.0003	0.	125.06
1544	8.4689	1.9932	0.	120.26
1545	3.9807	-1.5154	0.	131.34
1546	-2.8298	-0.66644	0.	127.12
1547	-6.5263	8.0534	0.	133.46
1548	-8.9953	-0.99551	0.	128.92
1549	-7.9923	-0.98816	0.	128.02
1550	3.5039	-3.0013	0.	129.36
1551	3.9989	2.4921	0.	126.97
1552	0.50545	-1.0341	0.	131.98
1553	2.9735	0.99338	0.	129.98
1554	-1.9698	-7.3022	0.	122.7
1555	-3.9673	-5.5714	0.	129.96
1556	-7.5142	-4.4839	0.	124.47
1557	4.5601	-7.7308	0.	128.73
1558	3.9639	-0.52215	0.	128.44
1559	-7.561	-5.4392	0.	129.96
1560	3.4933	-2.0077	0.	129.93
1561	-2.4814	-4.9705	0.	128.79
1562	-4.496	8.4818	0.	130.42
1563	8.9762	4.632	0.	139.44
1564	4.9993	7.0001	0.	123.39
1565	-2.9781	-4.9836	0.	129.57
1566	1.5066	3.5468	0.	129.15
1567	8.549	0.98491	0.	125.22
1568	1.9249	-6.6008	0.	127.76
1569	8.0022	-8.0094	0.	126.46
1570	7.9564	1.9547	0.	120.07
1571	5.0302	-8.1643	0.	112.6
1572	7.6939	0.87089	0.	114.46
1573	-1.6694e-002	8.4944	0.	125.04
1574	-7.9876	-0.48638	0.	128.05
1575	8.509	-5.4849	0.	129.15
1576	3.0017	4.0077	0.	128.84
1577	5.8577	-4.4184e-002	0.	119.3
1578	2.0006	-1.016	0.	130.93
1579	-1.5385	-6.0885	0.	126.83
1580	3.48	-1.0147	0.	130.35
1581	-5.063	1.4832	0.	126.38
1582	2.5086	-3.5043	0.	130.3
1583	5.5	8.5002	0.	125.29
1584	2.5007	4.5132	0.	128.56
1585	8.0183	-5.4671	0.	129.27
1586	-8.4859	0.49788	0.	130.02
1587	-2.9453	8.8838	0.	135.29
1588	-7.4054	1.0076	0.	119.
1589	7.6176	-7.4785	0.	125.11
1590	8.6197	5.1419e-002	0.	135.52
1591	8.4695	-6.4963	0.	126.71
1592	5.9699	1.9797	0.	124.66
1593	6.4991	6.4991	0.	127.35
1594	6.7683	0.47332	0.	128.38
1595	3.0039	8.5047	0.	125.57
1596	0.97893	-6.5394	0.	127.74
1597	8.	-8.505	0.	126.98
1598	-7.9548	-8.281	0.	132.03
1599	4.4987	6.0001	0.	122.21
1600	4.9253	-3.8264e-002	0.	122.04
1601	3.0101	-3.5016	0.	129.96
1602	0.99347	2.6107	0.	130.21
1603	7.0625	-4.9393	0.	125.78
1604	-3.9931	-3.5117	0.	128.25
1605	1.472	-6.5564	0.	127.78
1606	8.4879	-3.5055	0.	127.63
1607	3.9982	5.5015	0.	123.84
1608	4.124	-5.9497	0.	140.11
1609	3.0505	-4.9998	0.	132.98
1610	1.999	-2.9364e-002	0.	131.45
1611	-8.4702	-7.9378	0.	128.75
1612	2.0015	-2.5061	0.	129.9
1613	4.4747	0.97159	0.	123.46
1614	2.9913	-1.5105	0.	130.18
1615	4.5008	9.0004	0.	125.56
1616	3.0031	-9.0212	0.	129.06
1617	-3.3637	0.17178	0.	130.99
1618	7.9557	-6.4803	0.	125.61
1619	7.0019	5.996	0.	131.13
1620	-0.58921	8.4635	0.	124.36
1621	8.467	2.537	0.	117.63
1622	7.9465	-2.5573	0.	125.2
1623	-9.0004	-2.9956	0.	128.9
1624	-8.	-2.9951	0.	128.59
1625	6.5359	-5.7737	0.	126.76
1626	3.5363	-4.4943	0.	132.49
1627	1.5057	4.0348	0.	128.64
1628	1.9638	2.046	0.	129.98
1629	3.999	5.0017	0.	124.36
1630	-7.5542	8.5993	0.	119.06
1631	4.5637	-4.9921	0.	125.63
1632	5.8719	-0.54331	0.	116.08
1633	-0.59064	6.9676	0.	131.89
1634	-8.5062	-3.9871	0.	129.42
1635	-4.0024	3.9889	0.	137.08
1636	-7.7833	3.4204	0.	130.98
1637	1.0059	-1.0351	0.	131.94
1638	-3.4669	1.1001	0.	128.75
1639	-6.5091	9.0257	0.	128.91
1640	-7.5042	-3.9923	0.	125.09
1641	-1.0379	8.9939	0.	130.33
1642	2.5041	-3.0046	0.	129.74
1643	-8.4979	-1.9943	0.	127.82
1644	4.5006	8.5003	0.	124.98
1645	3.9988	7.0006	0.	123.95
1646	0.5088	8.5223	0.	125.42
1647	-2.461	-1.6061	0.	124.89
1648	-4.4752	-1.4847	0.	127.69
1649	3.991	-2.0099	0.	130.98
1650	6.327	0.46699	0.	125.39
1651	-4.0034	-6.1199	0.	128.9
1652	3.3803	-6.9938	0.	126.29
1653	-3.4874	-3.0301	0.	127.5
1654	3.511	-3.5001	0.	129.91
1655	1.0121	-8.2689e-002	0.	132.05
1656	5.9999	8.5003	0.	125.92
1657	-6.5162	-4.5451	0.	114.88
1658	3.5568	-4.9877	0.	133.61
1659	-8.4226	-8.4816	0.	130.54
1660	8.5101	-4.4897	0.	130.03
1661	7.0159	-8.5703	0.	126.56
1662	3.4967	5.5041	0.	126.34
1663	0.43445	1.2345	0.	126.89
1664	2.5066	8.5093	0.	125.77
1665	5.0006	5.4986	0.	120.36
1666	6.9001	1.4699	0.	125.33
1667	-5.062	1.9839	0.	124.78
1668	-3.4404	-7.7577	0.	126.69
1669	8.034	-7.5291	0.	125.74
1670	0.21671	7.5209	0.	128.02
1671	2.4982	-2.0063	0.	129.69
1672	5.4991	7.0002	0.	123.96
1673	-1.9843	-8.3688	0.	130.14
1674	-2.4967	-8.3598	0.	129.92
1675	-3.0238	-8.3388	0.	129.
1676	-3.5839	-8.284	0.	129.03
1677	7.9519	-1.5903	0.	115.58
1678	7.764	-1.1411	0.	114.5
1679	8.4882	-1.7629	0.	128.31
1680	8.1747	-1.2521	0.	109.4
1681	4.4554	0.47034	0.	124.08
1682	-7.3189	3.0331	0.	118.11
1683	-8.0505	8.6135	0.	118.09
1684	-7.0422	8.5705	0.	133.84
1685	6.8267	0.97158	0.	125.96
1686	6.3695	0.97247	0.	125.88
1687	-4.0011	1.0409	0.	128.88
1688	-6.4558	0.51681	0.	114.36
1689	-4.8139	-7.7169	0.	133.78
1690	-4.4008	-7.4804	0.	127.29
1691	-2.4546	9.4024	0.	121.61
1692	7.9825	4.29	0.	140.2
1693	8.1675	4.4675	0.	121.6
1694	7.9928	4.7663	0.	130.09
1695	7.7126	4.5143	0.	139.31
1696	8.1075	3.79	0.	123.73
1697	8.355	3.7175	0.	82.274
1698	7.9587	3.5172	0.	124.82
1699	8.3197	3.3341	0.	111.23
1700	8.6625	4.3225	0.	125.31
1701	8.725	4.0725	0.	109.02
1702	9.0292	4.1043	0.	147.1
1703	8.9431	4.441	0.	150.82
1704	5.2867	-7.5617	0.	97.027
1705	5.05	-7.5283	0.	113.6
1706	5.3431	-7.8958	0.	112.17
1707	4.85	-7.7404	0.	119.07
1708	5.0851	-7.9572	0.	111.18
1709	5.8733	-6.8083	0.	127.72
1710	5.7833	-6.5867	0.	132.38
1711	6.0207	-6.3761	0.	146.72
1712	6.2023	-6.669	0.	141.99
1713	4.69	-6.6417	0.	145.07
1714	4.8367	-6.4533	0.	136.09
1715	4.3942	-6.4208	0.	145.76
1716	4.5997	-6.1893	0.	145.5
1717	7.5225	-0.64	0.	116.42
1718	7.4925	-0.365	0.	107.52
1719	7.0371	-0.5334	0.	134.24
1720	7.2329	-0.26035	0.	139.02
1721	7.2992	-0.79707	0.	140.54
1722	8.0275	-0.86	0.	124.86
1723	8.25	-0.695	0.	153.89
1724	8.4716	-0.93509	0.	147.67
1725	8.2274	-1.1111	0.	136.4
1726	7.9375	-3.5e-002	0.	101.9
1727	8.19	-0.145	0.	144.05
1728	8.132	0.29708	0.	123.49
1729	8.3899	9.0709e-002	0.	136.79
1730	-2.565	1.64	0.	131.72
1731	-2.4862	1.865	0.	130.98
1732	-2.7604	2.0443	0.	147.83
1733	-2.9101	1.7372	0.	142.31
1734	-1.635	0.56	0.	103.25
1735	-1.4013	0.605	0.	118.06
1736	-1.4697	0.12427	0.	114.15
1737	-1.2093	0.3604	0.	119.01
1738	-1.7376	0.30386	0.	115.71
1739	-1.0838	2.135	0.	130.27
1740	-0.92875	1.955	0.	141.39
1741	-0.65296	2.1686	0.	140.52
1742	-0.88584	2.3962	0.	136.2
1743	-2.4425	8.5125	0.	126.96
1744	-2.18	8.5925	0.	85.573
1745	-2.1478	8.9033	0.	117.39
1746	-2.6627	8.8319	0.	126.94
1747	-2.4173	9.0912	0.	120.35
1748	-2.5675	7.9775	0.	143.01
1749	-2.3675	7.79	0.	121.08
1750	-2.8398	7.7871	0.	138.93
1751	-2.5954	7.535	0.	132.7
1752	-1.78	8.2175	0.	106.1
1753	-1.8425	7.95	0.	119.28
1754	-1.3094	7.9877	0.	138.83
1755	-1.372	8.2378	0.	140.11
1756	-1.5736	7.7527	0.	139.11
1757	-1.16	-7.34	0.	113.45
1758	-1.1925	-7.06	0.	103.94
1759	-1.4365	-7.517	0.	139.06
1760	-1.4912	-6.9457	0.	140.35
1761	-1.6949	-7.2661	0.	136.19
1762	-0.64	-7.56	0.	115.95
1763	-0.4125	-7.39	0.	143.5
1764	-0.16455	-7.6202	0.	137.61
1765	-0.41764	-7.8561	0.	130.21
1766	-0.7375	-6.72	0.	93.916
1767	-0.4775	-6.83	0.	134.56
1768	-0.26448	-6.5531	0.	129.11
1769	-0.54488	-6.4137	0.	114.59
1770	-8.6838	6.655	0.	141.08
1771	-8.7625	6.8812	0.	136.54
1772	-8.9324	6.5071	0.	157.5
1773	-9.0466	6.8163	0.	152.56
1774	-7.2663	6.385	0.	143.66
1775	-7.1087	6.5662	0.	149.53
1776	-7.0615	6.1364	0.	149.64
1777	-6.8885	6.3856	0.	151.43
1778	-7.8175	7.9688	0.	107.19
1779	-7.5813	7.9237	0.	122.24
1780	-7.8726	8.1715	0.	118.97
1781	-7.3682	8.1287	0.	124.82
1782	-7.6071	8.3747	0.	117.62
1783	-6.7913	-6.2087	0.	129.58
1784	-6.5637	-6.125	0.	108.28
1785	-6.6728	-5.7671	0.	114.72
1786	-6.9732	-5.9609	0.	128.71
1787	-7.0388	-7.6413	0.	146.41
1788	-6.8525	-7.7962	0.	128.95
1789	-7.0602	-8.0579	0.	136.19
1790	-7.2978	-7.8551	0.	140.85
1791	-5.4462	-7.055	0.	127.4
1792	-5.4875	-7.2937	0.	130.36
1793	-5.1251	-7.2986	0.	153.58
1794	-5.1528	-7.0118	0.	151.4
1795	-6.5483	1.8217	0.	131.59
1796	-6.75	1.73	0.	108.12
1797	-6.3269	1.5513	0.	129.53
1798	-6.6344	1.3728	0.	116.6
1799	-6.4617	2.7083	0.	141.35
1800	-6.6417	2.8383	0.	122.72
1801	-6.4645	3.0958	0.	127.4
1802	-6.2165	2.9497	0.	134.57
1803	-7.47	2.25	0.	116.01
1804	-7.4483	2.4717	0.	120.93
1805	-7.894	2.4078	0.	142.41
1806	-7.6993	2.1528	0.	145.
1807	-7.6882	2.6549	0.	145.92
1808	5.	-2.25	0.	139.53
1809	5.25	-2.	0.	124.49
1810	4.7458	-2.0048	0.	133.56
1811	4.9844	-1.7583	0.	131.1
1812	5.	-3.75	0.	137.09
1813	5.25	-4.	0.	121.19
1814	4.7581	-3.9995	0.	131.2
1815	5.0215	-4.2543	0.	126.03
1816	6.75	-2.	0.	126.3
1817	7.	-2.25	0.	139.
1818	7.2305	-2.0199	0.	131.23
1819	6.9638	-1.7637	0.	133.21
1820	6.75	-4.	0.	122.77
1821	7.	-3.75	0.	137.73
1822	7.2527	-3.9957	0.	132.33
1823	7.0167	-4.2354	0.	129.9
1824	4.	3.75	0.	139.89
1825	4.25	4.	0.	125.85
1826	3.7503	4.0018	0.	133.07
1827	3.9998	4.2507	0.	130.88
1828	4.	3.25	0.	140.02
1829	4.25	3.	0.	126.37
1830	3.7498	3.	0.	133.66
1831	3.9995	2.746	0.	131.44
1832	5.75	4.	0.	125.18
1833	6.	3.75	0.	138.83
1834	6.2588	3.9825	0.	131.69
1835	6.0047	4.2451	0.	130.45
1836	5.75	3.	0.	126.08
1837	6.	3.25	0.	139.43
1838	6.2346	2.986	0.	133.3
1839	5.9902	2.7434	0.	130.9
1840	8.	7.75	0.	136.55
1841	8.25	8.	0.	119.98
1842	8.	8.25	0.	127.72
1843	7.7499	8.0002	0.	130.95
1844	8.	6.25	0.	133.48
1845	8.25	6.	0.	115.59
1846	8.0082	5.7536	0.	121.63
1847	7.751	5.9993	0.	128.83
1848	8.75	8.	0.	120.34
1849	9.	7.75	0.	138.03
1850	9.	8.25	0.	128.09
1851	9.25	8.	0.	132.42
1852	8.75	6.	0.	116.66
1853	9.	6.25	0.	135.83
1854	9.0064	5.7668	0.	125.45
1855	9.251	6.0028	0.	131.74
1856	-1.	-4.25	0.	130.2
1857	-0.75	-4.	0.	113.08
1858	-0.99854	-3.7511	0.	120.14
1859	-1.2478	-4.0016	0.	126.18
1860	-1.	-4.75	0.	130.66
1861	-0.75	-5.	0.	114.95
1862	-1.0154	-5.2473	0.	120.56
1863	-1.2498	-4.9991	0.	125.57
1864	-0.25	-4.	0.	113.83
1865	0.	-4.25	0.	132.22
1866	7.8325e-004	-3.7507	0.	121.79
1867	0.25196	-4.0042	0.	128.35
1868	-0.25	-5.	0.	116.42
1869	0.	-4.75	0.	133.44
1870	-1.5428e-002	-5.2539	0.	124.24
1871	0.25022	-5.0087	0.	129.28
1872	-1.	-1.25	0.	132.
1873	-0.75	-1.	0.	117.72
1874	-0.98802	-0.7849	0.	124.41
1875	-1.2371	-1.0376	0.	125.97
1876	-1.	-2.75	0.	129.9
1877	-0.75	-3.	0.	112.02
1878	-1.2464	-3.0087	0.	126.32
1879	-0.99854	-3.2511	0.	119.9
1880	-0.25	-1.	0.	119.42
1881	0.	-1.25	0.	135.88
1882	8.3273e-003	-0.78033	0.	128.39
1883	0.25272	-1.0171	0.	131.78
1884	-0.25	-3.	0.	113.22
1885	0.	-2.75	0.	132.31
1886	0.25086	-3.0026	0.	128.74
1887	7.8325e-004	-3.2507	0.	122.04
1888	-3.	5.75	0.	141.05
1889	-2.75	6.	0.	123.06
1890	-3.0094	6.2323	0.	131.73
1891	-3.2533	5.9911	0.	136.84
1892	-3.	4.25	0.	140.39
1893	-2.75	4.	0.	123.32
1894	-2.999	3.7664	0.	131.59
1895	-3.251	4.0013	0.	135.82
1896	-1.25	6.	0.	122.03
1897	-1.	5.75	0.	137.93
1898	-1.0187	6.2424	0.	129.42
1899	-0.75999	5.999	0.	133.02
1900	-1.25	4.	0.	118.85
1901	-1.	4.25	0.	135.26
1902	-0.99118	3.7686	0.	125.52
1903	-0.74717	4.0167	0.	130.14
1904	-7.	4.75	0.	135.9
1905	-6.75	5.	0.	126.74
1906	-7.0179	5.24	0.	132.67
1907	-7.256	4.9904	0.	128.74
1908	-7.	4.25	0.	130.86
1909	-6.75	4.	0.	118.62
1910	-6.9773	3.7867	0.	117.51
1911	-7.2375	3.9918	0.	124.63
1912	-5.25	5.	0.	125.48
1913	-5.	4.75	0.	141.76
1914	-4.7507	4.997	0.	136.59
1915	-5.0007	5.2492	0.	130.83
1916	-5.25	4.	0.	131.55
1917	-5.	4.25	0.	144.57
1918	-4.751	3.9944	0.	139.53
1919	-5.0058	3.7452	0.	137.07
1920	-6.	7.75	0.	138.01
1921	-5.75	8.	0.	120.76
1922	-6.0036	8.2557	0.	129.78
1923	-6.2631	8.0267	0.	133.67
1924	-6.	6.25	0.	134.75
1925	-5.75	6.	0.	119.63
1926	-6.1862	6.0161	0.	132.97
1927	-6.0005	5.753	0.	127.63
1928	-5.25	8.	0.	119.92
1929	-5.	7.75	0.	137.57
1930	-4.752	7.9904	0.	131.42
1931	-4.9989	8.2476	0.	127.95
1932	-5.25	6.	0.	119.86
1933	-5.	6.25	0.	139.04
1934	-4.7522	5.9949	0.	136.34
1935	-5.0007	5.7492	0.	129.55
1936	-7.	-1.25	0.	132.8
1937	-6.75	-1.	0.	115.98
1938	-7.247	-0.99359	0.	127.59
1939	-6.9971	-0.73893	0.	122.97
1940	-7.	-2.75	0.	133.05
1941	-6.75	-3.	0.	116.07
1942	-7.2498	-2.9988	0.	128.11
1943	-6.9994	-3.2508	0.	123.64
1944	-6.25	-1.	0.	116.19
1945	-6.	-1.25	0.	133.29
1946	-5.7565	-0.99967	0.	128.55
1947	-6.0075	-0.74875	0.	123.65
1948	-6.25	-3.	0.	115.98
1949	-6.	-2.75	0.	132.94
1950	-5.7481	-3.0007	0.	127.69
1951	-5.9997	-3.2548	0.	123.34
1952	9.75	10.	0.	124.64
1953	10.	9.75	0.	125.48
1954	-9.75	10.	0.	124.8
1955	-10.	9.75	0.	125.24
1956	10.	-9.75	0.	128.88
1957	9.75	-10.	0.	128.6
1958	-10.	-9.75	0.	132.4
1959	-9.75	-10.	0.	131.72
1960	7.8134	4.011	0.	130.65
1961	8.4649	4.5756	0.	93.031
1962	8.662	3.7429	0.	90.565
1963	5.58	-7.185	0.	90.114
1964	5.6144	-7.4786	0.	102.99
1965	5.9536	-7.1018	0.	111.93
1966	4.87	-7.085	0.	124.94
1967	4.7133	-7.308	0.	123.16
1968	4.5501	-6.8696	0.	131.72
1969	5.31	-6.52	0.	102.75
1970	5.5502	-6.3055	0.	101.55
1971	5.0753	-6.2436	0.	104.8
1972	7.7695	-0.94557	0.	97.575
1973	7.6616	6.0165e-002	0.	90.048
1974	8.4346	-0.42307	0.	142.
1975	-2.255	1.28	0.	106.17
1976	-2.6487	1.3064	0.	119.39
1977	-1.945	0.92	0.	103.56
1978	-2.2707	0.99338	0.	115.93
1979	-1.972	0.6631	0.	107.42
1980	-2.0187	1.955	0.	106.36
1981	-2.3045	2.1615	0.	106.14
1982	-1.5512	2.045	0.	109.19
1983	-1.8334	2.2482	0.	110.
1984	-1.358	2.3255	0.	106.84
1985	-1.2437	1.055	0.	128.01
1986	-1.0751	0.81021	0.	123.52
1987	-1.0862	1.505	0.	131.15
1988	-0.91188	1.2563	0.	130.02
1989	-0.77275	1.7102	0.	132.32
1990	-2.7498	8.3033	0.	132.52
1991	-1.8047	8.5479	0.	94.938
1992	-2.084	7.6419	0.	91.933
1993	-0.92759	-7.6929	0.	91.9
1994	-1.011	-6.6749	0.	85.096
1995	-0.21161	-7.0887	0.	133.48
1996	-8.2113	6.565	0.	115.97
1997	-8.5005	6.3352	0.	114.53
1998	-7.7387	6.475	0.	119.12
1999	-8.0032	6.2643	0.	120.16
2000	-7.5242	6.1944	0.	116.23
2001	-8.4475	7.2438	0.	106.05
2002	-8.7842	7.2569	0.	119.32
2003	-8.1325	7.6062	0.	106.52
2004	-8.3867	7.564	0.	116.32
2005	-8.0301	7.9903	0.	110.89
2006	-8.2292	7.7452	0.	110.6
2007	-7.2663	7.0188	0.	134.09
2008	-7.0195	6.8181	0.	139.13
2009	-7.4237	7.4713	0.	133.2
2010	-7.1447	7.2408	0.	136.95
2011	-7.2546	7.6761	0.	129.62
2012	-6.8738	-6.6863	0.	137.16
2013	-7.0871	-6.4362	0.	130.96
2014	-6.9563	-7.1638	0.	140.43
2015	-7.1688	-6.914	0.	136.32
2016	-7.2388	-7.3894	0.	137.46
2017	-6.1912	-6.435	0.	97.608
2018	-6.2296	-6.0193	0.	104.41
2019	-5.8187	-6.745	0.	93.343
2020	-5.8819	-6.3851	0.	109.36
2021	-5.5051	-6.6858	0.	106.36
2022	-6.3975	-7.6287	0.	106.49
2023	-6.6027	-7.9305	0.	106.46
2024	-5.9425	-7.4612	0.	99.657
2025	-6.1515	-7.7905	0.	110.74
2026	-5.4996	-7.5799	0.	112.18
2027	-5.7123	-7.6566	0.	102.79
2028	-6.505	2.265	0.	137.08
2029	-6.2826	2.0222	0.	129.52
2030	-6.2446	2.4863	0.	132.2
2031	-7.11	1.99	0.	80.468
2032	-7.0189	1.6392	0.	99.608
2033	-7.3533	1.9258	0.	96.175
2034	-7.045	2.655	0.	92.068
2035	-6.8753	2.9497	0.	102.1
2036	-7.2828	2.7982	0.	100.02
2037	5.	-2.75	0.	144.06
2038	4.7493	-2.502	0.	139.05
2039	5.	-3.25	0.	143.38
2040	4.751	-3.0006	0.	140.01
2041	4.7531	-3.4996	0.	138.1
2042	5.75	-2.	0.	117.15
2043	5.4807	-1.7589	0.	114.13
2044	6.25	-2.	0.	118.73
2045	5.9759	-1.7593	0.	117.68
2046	6.4704	-1.7599	0.	117.56
2047	5.75	-4.	0.	113.34
2048	5.5246	-4.2619	0.	110.52
2049	6.25	-4.	0.	114.26
2050	6.0255	-4.2646	0.	113.74
2051	6.5208	-4.242	0.	113.03
2052	7.	-2.75	0.	142.54
2053	7.2364	-2.5139	0.	136.72
2054	7.	-3.25	0.	142.62
2055	7.2422	-3.0085	0.	138.19
2056	7.2472	-3.5025	0.	137.21
2057	3.7502	3.5013	0.	137.72
2058	4.75	4.	0.	119.26
2059	4.5	4.2501	0.	116.74
2060	5.25	4.	0.	119.17
2061	5.0005	4.2496	0.	119.67
2062	5.5016	4.2487	0.	116.65
2063	4.75	3.	0.	120.03
2064	4.5001	2.7445	0.	117.68
2065	5.25	3.	0.	119.83
2066	4.9979	2.7449	0.	120.42
2067	5.4952	2.745	0.	117.37
2068	6.2383	3.4846	0.	136.98
2069	8.	7.25	0.	140.84
2070	7.7499	7.5002	0.	136.62
2071	8.	6.75	0.	140.09
2072	7.7498	7.	0.	137.23
2073	7.7498	6.4999	0.	135.67
2074	8.5	8.25	0.	109.44
2075	8.5076	5.7709	0.	103.12
2076	9.	7.25	0.	143.33
2077	9.25	7.5001	0.	139.34
2078	9.	6.75	0.	142.72
2079	9.25	7.0003	0.	140.41
2080	9.2501	6.5009	0.	138.97
2081	-1.2478	-4.4994	0.	130.91
2082	-0.49935	-3.7502	0.	99.485
2083	-0.51688	-5.2384	0.	104.42
2084	0.25221	-4.5062	0.	133.63
2085	-1.	-1.75	0.	136.
2086	-1.2407	-1.526	0.	132.16
2087	-1.	-2.25	0.	135.93
2088	-1.2431	-2.0187	0.	133.15
2089	-1.2451	-2.5132	0.	132.11
2090	-0.4906	-0.78044	0.	108.64
2091	-0.49935	-3.2502	0.	98.685
2092	0.	-1.75	0.	139.68
2093	0.25067	-1.5085	0.	136.63
2094	0.	-2.25	0.	138.65
2095	0.25028	-2.0043	0.	136.75
2096	0.25046	-2.5032	0.	135.09
2097	-3.	5.25	0.	146.61
2098	-3.2511	5.4956	0.	143.
2099	-3.	4.75	0.	146.1
2100	-3.2505	4.9975	0.	143.6
2101	-3.2506	4.4988	0.	141.5
2102	-2.25	6.	0.	112.08
2103	-2.5099	6.2322	0.	110.14
2104	-1.75	6.	0.	112.18
2105	-2.0109	6.2361	0.	110.82
2106	-1.5137	6.2408	0.	111.13
2107	-2.25	4.	0.	112.24
2108	-2.4978	3.7462	0.	111.85
2109	-1.75	4.	0.	110.49
2110	-1.9953	3.7487	0.	110.62
2111	-1.4925	3.7587	0.	107.57
2112	-1.	5.25	0.	142.37
2113	-0.75378	5.5024	0.	137.97
2114	-1.	4.75	0.	141.57
2115	-0.75136	5.0054	0.	138.52
2116	-0.74976	4.5093	0.	136.6
2117	-7.2502	4.4896	0.	130.62
2118	-6.25	5.	0.	121.7
2119	-6.5098	5.2771	0.	124.38
2120	-5.75	5.	0.	119.35
2121	-6.0005	5.253	0.	122.76
2122	-5.5003	5.2503	0.	111.87
2123	-6.25	4.	0.	118.4
2124	-6.507	3.805	0.	111.29
2125	-5.75	4.	0.	123.19
2126	-6.0283	3.7382	0.	125.58
2127	-5.511	3.7456	0.	122.97
2128	-4.7505	4.4967	0.	142.15
2129	-6.	7.25	0.	140.35
2130	-6.253	7.5315	0.	138.64
2131	-6.	6.75	0.	137.93
2132	-6.2517	7.0194	0.	138.12
2133	-6.1988	6.5069	0.	136.32
2134	-5.5008	8.2509	0.	109.77
2135	-5.5003	5.7503	0.	107.67
2136	-5.	7.25	0.	143.45
2137	-4.7542	7.4907	0.	139.07
2138	-5.	6.75	0.	144.48
2139	-4.7546	6.9916	0.	141.65
2140	-4.7535	6.4932	0.	141.73
2141	-7.	-1.75	0.	137.95
2142	-7.2489	-1.4968	0.	133.95
2143	-7.	-2.25	0.	138.05
2144	-7.2494	-1.998	0.	135.18
2145	-7.2498	-2.4986	0.	134.2
2146	-6.5016	-0.74298	0.	105.5
2147	-6.4995	-3.2534	0.	105.41
2148	-6.	-1.75	0.	138.31
2149	-5.7493	-1.4992	0.	134.45
2150	-6.	-2.25	0.	138.13
2151	-5.7469	-1.9991	0.	135.24
2152	-5.7471	-2.4994	0.	133.98
2153	9.25	10.	0.	123.7
2154	9.5	9.75	0.	124.86
2155	8.75	10.	0.	122.61
2156	9.	9.75	0.	123.14
2157	8.25	10.	0.	122.49
2158	8.5	9.75	0.	122.28
2159	7.75	10.	0.	123.44
2160	8.	9.75	0.	123.02
2161	7.25	10.	0.	124.82
2162	7.5	9.75	0.	124.53
2163	6.75	10.	0.	125.91
2164	7.	9.75	0.	125.7
2165	6.25	10.	0.	126.47
2166	6.5	9.75	0.	126.22
2167	5.75	10.	0.	126.65
2168	6.	9.75	0.	126.38
2169	5.25	10.	0.	126.67
2170	5.5	9.75	0.	126.4
2171	4.75	10.	0.	126.67
2172	5.0001	9.75	0.	126.39
2173	4.25	10.	0.	126.71
2174	4.5002	9.7501	0.	126.41
2175	3.75	10.	0.	126.8
2176	4.0003	9.7502	0.	126.49
2177	3.25	10.	0.	126.94
2178	3.5005	9.7504	0.	126.61
2179	2.75	10.	0.	127.11
2180	3.0008	9.7508	0.	126.75
2181	2.25	10.	0.	127.29
2182	2.5011	9.7515	0.	126.9
2183	1.75	10.	0.	127.45
2184	2.0012	9.7524	0.	127.02
2185	1.25	10.	0.	127.6
2186	1.5009	9.7533	0.	127.12
2187	0.75	10.	0.	127.75
2188	0.99963	9.7532	0.	127.17
2189	0.25	10.	0.	127.87
2190	0.49757	9.7513	0.	127.19
2191	-0.25	10.	0.	127.76
2192	-4.4284e-003	9.7481	0.	127.23
2193	-0.75	10.	0.	126.78
2194	-0.50511	9.7465	0.	127.24
2195	-1.25	10.	0.	124.16
2196	-1.0015	9.7517	0.	126.67
2197	-1.75	10.	0.	121.27
2198	-1.4944	9.7617	0.	124.05
2199	-2.25	10.	0.	120.88
2200	-1.9876	9.7442	0.	119.64
2201	-2.75	10.	0.	123.17
2202	-2.4773	9.7012	0.	121.45
2203	-3.25	10.	0.	126.39
2204	-2.9815	9.7168	0.	126.79
2205	-3.75	10.	0.	127.97
2206	-3.4873	9.7326	0.	128.34
2207	-4.25	10.	0.	127.23
2208	-3.9919	9.7409	0.	127.45
2209	-4.75	10.	0.	125.53
2210	-4.4948	9.7455	0.	126.2
2211	-5.25	10.	0.	124.03
2212	-4.9967	9.7483	0.	124.4
2213	-5.75	10.	0.	123.35
2214	-5.4989	9.7504	0.	123.34
2215	-6.25	10.	0.	123.22
2216	-5.9998	9.7528	0.	123.59
2217	-6.75	10.	0.	122.84
2218	-6.5009	9.7564	0.	124.05
2219	-7.25	10.	0.	121.96
2220	-7.0023	9.7606	0.	123.43
2221	-7.75	10.	0.	121.27
2222	-7.5038	9.7641	0.	122.
2223	-8.25	10.	0.	121.51
2224	-8.0051	9.765	0.	121.57
2225	-8.75	10.	0.	122.67
2226	-8.5054	9.7619	0.	122.54
2227	-9.25	10.	0.	124.04
2228	-9.0041	9.7572	0.	123.97
2229	-9.5025	9.7531	0.	125.05
2230	10.	9.25	0.	128.06
2231	9.75	9.5	0.	125.7
2232	10.	8.75	0.	131.42
2233	9.75	9.	0.	128.6
2234	10.	8.25	0.	132.42
2235	9.75	8.5	0.	132.11
2236	10.	7.75	0.	131.22
2237	9.75	8.	0.	132.15
2238	10.	7.25	0.	131.1
2239	9.75	7.5001	0.	132.95
2240	10.	6.75	0.	132.39
2241	9.75	7.0003	0.	134.55
2242	10.	6.25	0.	135.19
2243	9.7501	6.5009	0.	134.49
2244	10.	5.75	0.	139.26
2245	9.751	6.0028	0.	135.75
2246	10.	5.25	0.	139.06
2247	9.753	5.5054	0.	137.85
2248	10.	4.75	0.	131.78
2249	9.7499	5.0022	0.	136.22
2250	10.	4.25	0.	123.8
2251	9.7275	4.4761	0.	128.53
2252	10.	3.75	0.	124.47
2253	9.7852	3.9769	0.	124.82
2254	10.	3.25	0.	130.23
2255	9.7765	3.4873	0.	129.52
2256	10.	2.75	0.	132.91
2257	9.7581	2.9955	0.	131.48
2258	10.	2.25	0.	133.27
2259	9.7487	2.501	0.	131.08
2260	10.	1.75	0.	133.44
2261	9.7474	2.0028	0.	131.12
2262	10.	1.25	0.	133.53
2263	9.7505	1.5037	0.	131.83
2264	10.	0.75	0.	132.17
2265	9.7571	1.0051	0.	132.28
2266	10.	0.25	0.	128.79
2267	9.764	0.50721	0.	131.1
2268	10.	-0.25	0.	125.57
2269	9.7695	9.8194e-003	0.	128.12
2270	10.	-0.75	0.	125.67
2271	9.7728	-0.48772	0.	126.49
2272	10.	-1.25	0.	128.68
2273	9.7718	-0.98545	0.	128.29
2274	10.	-1.75	0.	131.05
2275	9.7625	-1.4838	0.	131.08
2276	10.	-2.25	0.	131.01
2277	9.7458	-1.9835	0.	131.39
2278	10.	-2.75	0.	129.67
2279	9.7305	-2.4853	0.	130.09
2280	10.	-3.25	0.	128.58
2281	9.7381	-2.99	0.	128.85
2282	10.	-3.75	0.	128.27
2283	9.7456	-3.4947	0.	128.35
2284	10.	-4.25	0.	128.57
2285	9.7493	-3.9969	0.	128.48
2286	10.	-4.75	0.	128.96
2287	9.751	-4.4978	0.	128.84
2288	10.	-5.25	0.	129.04
2289	9.7514	-4.9983	0.	129.02
2290	10.	-5.75	0.	128.73
2291	9.7507	-5.4988	0.	128.84
2292	10.	-6.25	0.	128.19
2293	9.7486	-5.9992	0.	128.38
2294	10.	-6.75	0.	127.71
2295	9.7464	-6.4995	0.	127.86
2296	10.	-7.25	0.	127.48
2297	9.7461	-6.9996	0.	127.52
2298	10.	-7.75	0.	127.58
2299	9.7482	-7.4996	0.	127.46
2300	10.	-8.25	0.	127.91
2301	9.7496	-7.9998	0.	127.65
2302	10.	-8.75	0.	128.33
2303	9.75	-8.5	0.	127.97
2304	10.	-9.25	0.	128.68
2305	9.7501	-9.	0.	128.29
2306	9.75	-9.5	0.	128.52
2307	-10.	9.25	0.	126.55
2308	-9.7525	9.5031	0.	125.49
2309	-10.	8.75	0.	128.3
2310	-9.7537	9.005	0.	127.28
2311	-10.	8.25	0.	128.42
2312	-9.7538	8.5046	0.	128.7
2313	-10.	7.75	0.	125.6
2314	-9.7506	8.0005	0.	128.94
2315	-10.	7.25	0.	120.99
2316	-9.7519	7.4969	0.	127.04
2317	-10.	6.75	0.	121.52
2318	-9.7852	7.0001	0.	124.18
2319	-10.	6.25	0.	129.45
2320	-9.8082	6.5108	0.	128.3
2321	-10.	5.75	0.	136.
2322	-9.7477	6.0174	0.	135.71
2323	-10.	5.25	0.	136.55
2324	-9.7531	5.5002	0.	135.47
2325	-10.	4.75	0.	134.32
2326	-9.7522	4.9971	0.	133.59
2327	-10.	4.25	0.	132.15
2328	-9.7523	4.4965	0.	131.92
2329	-10.	3.75	0.	130.33
2330	-9.755	3.9962	0.	130.71
2331	-10.	3.25	0.	128.64
2332	-9.76	3.4957	0.	129.61
2333	-10.	2.75	0.	127.34
2334	-9.7641	2.9945	0.	128.4
2335	-10.	2.25	0.	127.12
2336	-9.7645	2.4938	0.	127.63
2337	-10.	1.75	0.	128.26
2338	-9.7622	1.9941	0.	128.02
2339	-10.	1.25	0.	130.04
2340	-9.7575	1.4948	0.	129.38
2341	-10.	0.75	0.	131.44
2342	-9.7524	0.99642	0.	130.71
2343	-10.	0.25	0.	131.9
2344	-9.7496	0.49824	0.	131.35
2345	-10.	-0.25	0.	131.44
2346	-9.7487	-3.2311e-004	0.	131.23
2347	-10.	-0.75	0.	130.43
2348	-9.7486	-0.49947	0.	130.56
2349	-10.	-1.25	0.	129.36
2350	-9.7488	-0.99899	0.	129.67
2351	-10.	-1.75	0.	128.65
2352	-9.7492	-1.4988	0.	128.91
2353	-10.	-2.25	0.	128.55
2354	-9.7495	-1.9988	0.	128.58
2355	-10.	-2.75	0.	129.07
2356	-9.7498	-2.4988	0.	128.77
2357	-10.	-3.25	0.	129.93
2358	-9.7501	-2.9987	0.	129.36
2359	-10.	-3.75	0.	130.74
2360	-9.7506	-3.4985	0.	130.06
2361	-10.	-4.25	0.	131.1
2362	-9.7512	-3.9978	0.	130.55
2363	-10.	-4.75	0.	130.79
2364	-9.752	-4.497	0.	130.59
2365	-10.	-5.25	0.	129.74
2366	-9.7526	-4.9961	0.	130.06
2367	-10.	-5.75	0.	128.15
2368	-9.7521	-5.4953	0.	128.99
2369	-10.	-6.25	0.	126.48
2370	-9.7496	-5.9945	0.	127.63
2371	-10.	-6.75	0.	125.35
2372	-9.7461	-6.4934	0.	126.43
2373	-10.	-7.25	0.	125.26
2374	-9.7446	-6.9924	0.	125.88
2375	-10.	-7.75	0.	126.32
2376	-9.7442	-7.4925	0.	126.3
2377	-10.	-8.25	0.	128.16
2378	-9.7432	-7.9939	0.	127.56
2379	-10.	-8.75	0.	130.11
2380	-9.7424	-8.496	0.	129.17
2381	-10.	-9.25	0.	131.62
2382	-9.7449	-8.9976	0.	130.56
2383	-9.7479	-9.4989	0.	131.43
2384	-9.25	-10.	0.	130.42
2385	-9.4979	-9.7489	0.	130.75
2386	-8.75	-10.	0.	129.5
2387	-8.9972	-9.7501	0.	130.02
2388	-8.25	-10.	0.	127.96
2389	-8.4978	-9.756	0.	129.17
2390	-7.75	-10.	0.	125.13
2391	-7.9989	-9.7675	0.	127.21
2392	-7.25	-10.	0.	121.33
2393	-7.4994	-9.7734	0.	123.55
2394	-6.75	-10.	0.	118.17
2395	-6.9998	-9.7717	0.	119.25
2396	-6.25	-10.	0.	117.4
2397	-6.4998	-9.7643	0.	116.75
2398	-5.75	-10.	0.	119.32
2399	-5.9987	-9.7536	0.	117.58
2400	-5.25	-10.	0.	122.8
2401	-5.4985	-9.7472	0.	120.92
2402	-4.75	-10.	0.	126.3
2403	-4.9998	-9.7612	0.	124.89
2404	-4.25	-10.	0.	128.8
2405	-4.5006	-9.7548	0.	128.03
2406	-3.75	-10.	0.	130.02
2407	-4.0028	-9.7366	0.	129.79
2408	-3.25	-10.	0.	130.07
2409	-3.5051	-9.7214	0.	130.33
2410	-2.75	-10.	0.	129.07
2411	-3.0043	-9.7202	0.	129.89
2412	-2.25	-10.	0.	127.05
2413	-2.5022	-9.7244	0.	128.45
2414	-1.75	-10.	0.	124.34
2415	-2.0009	-9.7282	0.	125.93
2416	-1.25	-10.	0.	121.9
2417	-1.5001	-9.7333	0.	122.8
2418	-0.75	-10.	0.	121.02
2419	-0.99964	-9.7406	0.	120.6
2420	-0.25	-10.	0.	122.22
2421	-0.499	-9.7481	0.	120.87
2422	0.25	-10.	0.	124.73
2423	1.4549e-003	-9.7526	0.	123.36
2424	0.75	-10.	0.	127.18
2425	0.50161	-9.7544	0.	126.3
2426	1.25	-10.	0.	128.81
2427	1.0014	-9.7547	0.	128.35
2428	1.75	-10.	0.	129.57
2429	1.5011	-9.7545	0.	129.39
2430	2.25	-10.	0.	129.67
2431	2.0009	-9.7542	0.	129.73
2432	2.75	-10.	0.	129.22
2433	2.5007	-9.7543	0.	129.57
2434	3.25	-10.	0.	128.11
2435	3.0006	-9.7553	0.	128.88
2436	3.75	-10.	0.	126.19
2437	3.5008	-9.758	0.	127.47
2438	4.25	-10.	0.	123.59
2439	4.0015	-9.7616	0.	125.14
2440	4.75	-10.	0.	121.04
2441	4.5025	-9.7635	0.	122.17
2442	5.25	-10.	0.	119.64
2443	5.0034	-9.7632	0.	119.75
2444	5.75	-10.	0.	120.03
2445	5.5034	-9.7608	0.	119.2
2446	6.25	-10.	0.	121.76
2447	6.0031	-9.7604	0.	120.67
2448	6.75	-10.	0.	123.84
2449	6.5032	-9.7608	0.	122.96
2450	7.25	-10.	0.	125.52
2451	7.0028	-9.7588	0.	124.95
2452	7.75	-10.	0.	126.62
2453	7.5018	-9.754	0.	126.28
2454	8.25	-10.	0.	127.26
2455	8.0009	-9.7513	0.	127.04
2456	8.75	-10.	0.	127.68
2457	8.5003	-9.7503	0.	127.5
2458	9.25	-10.	0.	128.06
2459	9.0001	-9.7501	0.	127.84
2460	9.5	-9.75	0.	128.23
2461	2.987	-0.26104	0.	130.27
2462	3.2314	-1.3056e-002	0.	129.53
2463	2.9846	0.2403	0.	130.03
2464	2.7396	-1.261e-002	0.	130.53
2465	2.2388	0.47785	0.	130.92
2466	2.479	0.7419	0.	130.69
2467	2.7348	0.48972	0.	130.34
2468	2.4898	0.23681	0.	130.84
2469	1.7213	0.9315	0.	130.36
2470	1.9798	0.72086	0.	130.83
2471	2.22	0.98491	0.	130.6
2472	1.933	1.2427	0.	130.35
2473	1.1831	1.2907	0.	128.91
2474	1.4498	1.1006	0.	129.81
2475	1.6615	1.4118	0.	129.81
2476	1.4221	1.5052	0.	129.39
2477	0.95998	1.0505	0.	128.77
2478	0.93961	1.4869	0.	128.31
2479	0.68744	1.2518	0.	127.61
2480	1.7506	-2.0063	0.	130.01
2481	2.0001	-1.7575	0.	130.06
2482	2.0008	-2.2557	0.	129.88
2483	2.2492	-2.0058	0.	129.77
2484	1.2476	5.0213	0.	128.01
2485	0.7475	5.0224	0.	128.3
2486	1.0004	4.7763	0.	128.3
2487	0.99273	5.2736	0.	128.1
2488	1.4853	0.65644	0.	130.6
2489	1.2267	0.86032	0.	129.68
2490	1.7439	0.44581	0.	131.07
2491	1.9949	0.21903	0.	131.27
2492	2.7416	-0.51225	0.	130.67
2493	3.232	-0.51381	0.	130.04
2494	2.9882	-0.76161	0.	130.43
2495	1.7392	5.5212	0.	127.81
2496	1.9863	5.7701	0.	127.6
2497	2.2416	5.5148	0.	127.79
2498	1.9933	5.268	0.	127.91
2499	2.4887	6.2607	0.	126.81
2500	2.2359	6.0166	0.	127.26
2501	2.4912	5.7613	0.	127.45
2502	2.7414	6.0086	0.	126.8
2503	2.4619	1.2506	0.	130.64
2504	2.7224	0.99446	0.	130.3
2505	1.6578	1.6046	0.	129.71
2506	2.1748	1.5085	0.	130.39
2507	1.9305	1.7786	0.	130.05
2508	4.999	6.2496	0.	122.33
2509	5.249	5.999	0.	122.52
2510	4.7489	5.9997	0.	122.04
2511	4.9998	5.749	0.	121.12
2512	2.7408	6.5077	0.	126.17
2513	2.2328	6.5168	0.	126.79
2514	2.4896	6.7607	0.	126.3
2515	5.2487	6.5	0.	123.22
2516	4.749	6.5	0.	122.84
2517	4.9991	6.75	0.	123.09
2518	5.7485	6.4998	0.	124.49
2519	5.4988	6.2493	0.	123.42
2520	5.4988	6.7501	0.	123.81
2521	-3.7126	-2.0386	0.	126.52
2522	-4.218	-2.0008	0.	126.82
2523	-3.9714	-2.262	0.	126.72
2524	-3.9424	-1.7338	0.	127.03
2525	-3.4448	-1.8487	0.	126.47
2526	-3.4477	-1.426	0.	126.99
2527	-3.1894	-1.6186	0.	126.16
2528	-3.6747	-1.5439	0.	126.98
2529	1.4435	1.9095	0.	129.38
2530	1.1786	1.7014	0.	128.79
2531	3.4767	0.23488	0.	128.69
2532	3.4763	-0.26583	0.	129.3
2533	3.7201	-1.8417e-002	0.	128.04
2534	2.7503	-2.5037	0.	129.39
2535	2.2511	-2.5051	0.	129.71
2536	2.5024	-2.7544	0.	129.63
2537	2.4995	-2.2552	0.	129.6
2538	3.0019	-2.7524	0.	129.3
2539	3.2539	-3.0014	0.	129.35
2540	3.0071	-3.2516	0.	129.65
2541	2.7541	-3.0031	0.	129.54
2542	3.2451	6.5033	0.	125.34
2543	2.9947	6.7544	0.	125.63
2544	2.9935	6.2556	0.	126.16
2545	4.2487	6.5003	0.	123.33
2546	4.4991	6.7501	0.	123.16
2547	4.4989	6.2501	0.	122.55
2548	1.4927	5.2726	0.	127.89
2549	1.5001	4.7725	0.	128.08
2550	1.7469	5.0193	0.	128.
2551	3.2299	0.48823	0.	129.19
2552	2.9782	0.74228	0.	129.95
2553	-3.7404	-4.5162	0.	129.52
2554	-3.9852	-4.7773	0.	129.72
2555	-4.2426	-4.5101	0.	129.06
2556	-3.992	-4.2634	0.	129.21
2557	-3.4832	-4.7769	0.	129.74
2558	-3.4924	-4.2649	0.	129.28
2559	-3.2412	-4.5076	0.	129.33
2560	1.4817	5.7789	0.	127.83
2561	1.2379	5.5248	0.	127.98
2562	1.98	6.2727	0.	127.24
2563	1.7289	6.0277	0.	127.62
2564	1.7195	6.5332	0.	127.38
2565	1.9802	6.7731	0.	126.85
2566	-4.2355	-5.0226	0.	129.56
2567	-3.728	-5.038	0.	129.95
2568	-3.9739	-5.3047	0.	129.96
2569	-3.4702	-2.3071	0.	126.55
2570	-3.2127	-2.078	0.	126.14
2571	-3.729	-2.5305	0.	126.75
2572	-3.2279	-2.5526	0.	126.69
2573	-3.4829	-2.7877	0.	127.11
2574	-2.9573	-1.848	0.	125.83
2575	-2.716	-2.085	0.	125.75
2576	-2.9703	-2.3235	0.	126.28
2577	-4.4928	-4.7554	0.	128.89
2578	-4.7487	-5.0004	0.	127.88
2579	-4.4879	-5.2595	0.	129.54
2580	-3.6649	-0.57614	0.	129.54
2581	-3.5402	-1.0197	0.	128.11
2582	-3.4126	-0.7589	0.	128.57
2583	-3.8353	-0.87252	0.	128.84
2584	-3.9311	-0.38598	0.	130.23
2585	-3.5052	-0.30342	0.	130.13
2586	-3.7618	-0.10567	0.	130.68
2587	1.2235	6.0342	0.	128.16
2588	1.4684	6.2882	0.	127.76
2589	2.4955	-0.76189	0.	130.79
2590	2.4959	-1.26	0.	130.4
2591	2.7421	-1.0113	0.	130.56
2592	2.2481	-1.0134	0.	130.79
2593	2.2485	-0.51704	0.	131.17
2594	2.4941	-0.26382	0.	130.93
2595	-3.4465	-5.3225	0.	129.81
2596	-3.2268	-5.0108	0.	129.76
2597	-3.4596	-5.8924	0.	128.88
2598	-3.1839	-5.7232	0.	129.62
2599	-3.18	-5.5175	0.	129.79
2600	-3.6924	-5.5892	0.	129.82
2601	-3.4934	-3.7668	0.	128.68
2602	-3.2422	-3.5215	0.	128.4
2603	-3.7429	-3.5156	0.	128.3
2604	-3.4901	-3.2748	0.	127.92
2605	-3.7441	-4.0121	0.	128.98
2606	-3.2435	-4.0127	0.	128.94
2607	3.4786	0.73597	0.	128.41
2608	3.7233	0.48194	0.	127.41
2609	1.4979	2.8245	0.	129.59
2610	1.255	3.0728	0.	130.12
2611	1.7526	3.0508	0.	129.23
2612	1.5052	3.3049	0.	129.34
2613	1.2529	4.5275	0.	128.38
2614	1.7523	4.5219	0.	128.19
2615	1.5042	4.2798	0.	128.43
2616	3.7475	6.5012	0.	124.31
2617	3.9982	6.2508	0.	123.71
2618	3.9986	6.7506	0.	123.85
2619	3.4972	6.7517	0.	124.78
2620	3.4964	6.2524	0.	125.1
2621	2.5189	-4.256	0.	131.35
2622	2.7661	-4.0021	0.	131.03
2623	2.2626	-4.0069	0.	131.02
2624	2.5112	-3.7541	0.	130.66
2625	2.5324	-4.7622	0.	131.83
2626	2.2715	-4.5129	0.	131.42
2627	2.777	-4.5036	0.	131.94
2628	2.2481	-1.5094	0.	130.21
2629	2.7438	-1.5098	0.	130.17
2630	2.4973	-1.7577	0.	129.92
2631	5.1742	0.46008	0.	121.76
2632	4.9519	0.71348	0.	122.07
2633	4.9324	0.21195	0.	122.1
2634	4.6975	0.46625	0.	123.12
2635	2.5562	-5.273	0.	131.72
2636	2.2864	-5.0251	0.	131.64
2637	2.7957	-5.0081	0.	132.48
2638	2.3801	-6.8292	0.	127.35
2639	2.2146	-6.359	0.	128.55
2640	2.5604	-6.5647	0.	127.82
2641	2.1328	-6.5972	0.	127.77
2642	1.4803	2.3535	0.	129.55
2643	1.2191	2.1356	0.	129.32
2644	1.7162	2.0835	0.	129.72
2645	1.7411	2.5667	0.	129.62
2646	1.2427	2.5984	0.	129.93
2647	-3.6949	-1.3415	0.	127.4
2648	-3.22	-1.1668	0.	126.95
2649	5.9984	6.249	0.	125.56
2650	5.9988	6.7499	0.	125.19
2651	6.2488	6.4993	0.	126.34
2652	-4.4957	-4.2531	0.	128.51
2653	-4.7504	-4.5045	0.	127.46
2654	5.7487	5.9985	0.	124.49
2655	5.5005	5.7476	0.	122.67
2656	2.4613	1.7599	0.	130.64
2657	2.7121	1.5017	0.	130.55
2658	2.4949	5.2622	0.	128.12
2659	2.7439	5.5098	0.	127.7
2660	3.72	-0.51914	0.	129.05
2661	3.4781	-0.76543	0.	130.01
2662	1.2507	0.40286	0.	130.81
2663	1.5013	0.18551	0.	131.44
2664	0.73762	0.81339	0.	128.48
2665	0.9921	0.60674	0.	129.88
2666	2.1818	-7.0669	0.	126.85
2667	2.6592	-7.0497	0.	126.81
2668	2.4455	-7.3056	0.	127.04
2669	1.7059	-7.06	0.	126.48
2670	1.9593	-7.3099	0.	126.83
2671	1.9346	-6.8349	0.	127.27
2672	1.4761	-7.2974	0.	126.27
2673	1.2264	-7.0461	0.	125.75
2674	1.4697	-6.8037	0.	126.98
2675	5.4272	0.71016	0.	121.74
2676	5.4006	0.20576	0.	120.59
2677	5.6412	0.46016	0.	121.82
2678	-4.3483	0.2419	0.	130.22
2679	-4.5023	0.72344	0.	129.08
2680	-4.205	0.51844	0.	130.07
2681	-4.7553	0.47658	0.	129.28
2682	-4.5512	0.21832	0.	130.04
2683	-3.5149	-6.4474	0.	126.99
2684	-3.2542	-6.2303	0.	128.08
2685	-3.7526	-6.1488	0.	128.49
2686	-2.9618	-1.3594	0.	126.11
2687	-2.7062	-1.6075	0.	125.31
2688	1.1831	7.0827	0.	127.71
2689	1.4877	7.2951	0.	126.95
2690	1.4619	6.7954	0.	127.49
2691	1.7225	7.0353	0.	126.96
2692	3.2468	7.0028	0.	125.07
2693	2.9977	7.2541	0.	125.37
2694	2.7435	7.0074	0.	125.76
2695	3.4987	7.2515	0.	124.72
2696	3.7483	7.0011	0.	124.32
2697	6.7489	7.0007	0.	127.67
2698	6.4991	7.2507	0.	126.5
2699	6.2489	7.0005	0.	125.82
2700	6.4989	6.7499	0.	126.96
2701	-4.7288	-1.9942	0.	127.47
2702	-4.4779	-2.2472	0.	126.95
2703	-4.4741	-1.7391	0.	127.33
2704	0.24696	5.0208	0.	129.22
2705	0.49245	5.2714	0.	128.65
2706	0.4996	4.7787	0.	128.79
2707	1.2512	-2.0091	0.	130.55
2708	1.5013	-2.2564	0.	130.28
2709	1.5016	-1.7604	0.	130.34
2710	-2.2224	-2.075	0.	125.91
2711	-2.4739	-2.321	0.	126.18
2712	-2.4649	-1.8446	0.	125.24
2713	4.9954	1.7214	0.	120.02
2714	5.233	1.468	0.	121.4
2715	4.7417	1.4696	0.	121.73
2716	4.978	1.2156	0.	121.48
2717	-3.2529	-0.48619	0.	129.16
2718	-3.0924	-0.90592	0.	127.42
2719	-3.0212	-0.68422	0.	127.73
2720	-5.5366	-5.2566	0.	122.19
2721	-5.4794	-5.7028	0.	123.3
2722	-5.27	-5.4791	0.	125.12
2723	-5.8113	-5.6198	0.	119.99
2724	-3.9841	-2.765	0.	127.11
2725	-4.2312	-2.5084	0.	126.85
2726	-4.2452	-4.0065	0.	128.66
2727	-3.9936	-3.761	0.	128.59
2728	-5.2696	-5.0127	0.	124.25
2729	-5.003	-5.2353	0.	127.18
2730	-5.0063	-4.7495	0.	126.45
2731	-4.182	-0.20495	0.	130.38
2732	-4.0128	7.5363e-002	0.	130.83
2733	-4.4222	2.0141e-003	0.	130.41
2734	-3.99	-1.1943	0.	128.13
2735	-4.1985	-1.4721	0.	127.54
2736	1.0048	4.2872	0.	128.97
2737	0.75249	4.5325	0.	128.8
2738	0.92491	6.8391	0.	128.43
2739	0.7753	7.3504	0.	127.74
2740	0.98252	7.3543	0.	127.53
2741	0.63672	7.0752	0.	128.93
2742	0.97964	5.78	0.	128.31
2743	0.73767	5.5225	0.	128.45
2744	1.751	-1.5117	0.	130.4
2745	2.0003	-1.2628	0.	130.6
2746	2.3641	-6.0821	0.	129.58
2747	2.0706	-5.8433	0.	130.09
2748	1.8045	-6.091	0.	129.58
2749	2.0067	-6.3626	0.	128.54
2750	-2.9465	-5.6336	0.	129.73
2751	-2.7197	-5.865	0.	130.02
2752	-2.9785	-6.061	0.	128.82
2753	2.0152	-4.2638	0.	131.09
2754	2.0256	-4.7758	0.	131.22
2755	1.7672	-4.5207	0.	130.88
2756	-2.9821	-2.7996	0.	127.16
2757	-2.7282	-2.5594	0.	126.71
2758	-2.9923	-4.2554	0.	128.99
2759	-2.7408	-4.4952	0.	128.69
2760	-2.9849	-4.7415	0.	129.34
2761	5.4599	1.216	0.	121.97
2762	5.6755	0.96645	0.	122.94
2763	5.2049	0.96356	0.	122.05
2764	1.9991	4.7687	0.	128.1
2765	2.2466	5.0154	0.	128.25
2766	3.2448	6.0047	0.	125.92
2767	2.9942	5.7571	0.	127.05
2768	2.8395	-6.7853	0.	127.29
2769	2.9426	-7.2837	0.	126.96
2770	3.1397	-7.0143	0.	126.5
2771	2.6056	-5.7847	0.	130.65
2772	2.3122	-5.5459	0.	131.15
2773	2.8282	-5.514	0.	132.09
2774	0.75894	3.0879	0.	131.56
2775	1.0074	3.3217	0.	130.51
2776	0.99982	2.8467	0.	130.46
2777	0.95424	1.9274	0.	128.74
2778	0.69209	1.6975	0.	127.77
2779	0.72433	2.1511	0.	129.04
2780	0.98158	2.3805	0.	129.7
2781	2.7098	-6.2877	0.	128.86
2782	2.8948	-6.018	0.	130.4
2783	3.0175	-6.5138	0.	127.78
2784	4.448	-0.28143	0.	125.4
2785	4.2061	-2.6572e-002	0.	125.95
2786	4.6868	-3.505e-002	0.	123.4
2787	4.4519	0.21925	0.	124.42
2788	3.0242	-4.2498	0.	131.62
2789	3.2694	-3.9986	0.	131.03
2790	3.0142	-3.751	0.	130.5
2791	3.0403	-4.7495	0.	132.58
2792	3.2832	-4.4968	0.	132.34
2793	3.7471	6.002	0.	124.51
2794	4.2483	6.0005	0.	122.94
2795	3.9981	5.7512	0.	123.75
2796	3.4965	5.7535	0.	125.84
2797	2.0032	4.2714	0.	128.15
2798	2.2513	4.5161	0.	128.36
2799	1.9958	2.793	0.	129.26
2800	2.2506	3.0288	0.	128.86
2801	2.0032	3.2844	0.	128.62
2802	2.2403	2.5335	0.	129.84
2803	1.977	2.2967	0.	129.78
2804	3.7308	0.98234	0.	127.14
2805	3.4815	1.2381	0.	128.6
2806	3.2268	0.99002	0.	129.17
2807	3.9861	1.2291	0.	125.83
2808	3.9754	0.72831	0.	126.15
2809	4.228	0.97481	0.	124.69
2810	-2.9923	-3.7675	0.	128.66
2811	-2.7429	-4.009	0.	128.72
2812	-2.9892	-3.2814	0.	128.07
2813	-2.7366	-3.0389	0.	127.88
2814	-3.237	-3.0347	0.	127.58
2815	-2.7413	-3.5225	0.	128.68
2816	2.0088	-3.7579	0.	130.91
2817	1.7603	-4.0119	0.	131.05
2818	2.0047	-3.2551	0.	130.57
2819	1.7558	-3.5073	0.	131.18
2820	2.2575	-3.5051	0.	130.55
2821	1.7531	-3.0054	0.	130.71
2822	2.0023	-2.7552	0.	130.12
2823	2.2536	-3.0045	0.	130.04
2824	-2.7073	-5.4322	0.	129.91
2825	-2.9604	-5.2058	0.	129.73
2826	2.0424	-5.2981	0.	131.07
2827	1.7913	-5.5571	0.	130.92
2828	1.7767	-5.0344	0.	131.05
2829	1.7541	-0.52855	0.	131.69
2830	2.0011	-0.76854	0.	131.17
2831	2.0003	-0.27522	0.	131.44
2832	0.95881	6.2977	0.	128.6
2833	0.72081	6.0294	0.	129.03
2834	0.69199	6.5456	0.	129.48
2835	1.2037	6.5518	0.	128.2
2836	0.75702	4.0461	0.	129.85
2837	1.0076	3.8025	0.	129.86
2838	1.2561	4.0395	0.	129.03
2839	-4.1014	-0.68237	0.	129.52
2840	-4.2967	-0.95626	0.	128.88
2841	-4.3695	-0.46428	0.	130.11
2842	-5.7863	-5.0925	0.	118.44
2843	-5.5242	-4.7817	0.	121.8
2844	-4.2392	-3.0087	0.	127.42
2845	-3.9908	-3.263	0.	127.85
2846	-3.7379	-3.0222	0.	127.47
2847	-5.1911	-5.9398	0.	126.78
2848	-5.3978	-6.198	0.	126.72
2849	-5.5883	-6.0524	0.	119.92
2850	-4.7422	-5.4944	0.	128.82
2851	-4.4867	-5.7683	0.	130.09
2852	-4.2263	-5.5416	0.	129.94
2853	-4.9818	-5.7161	0.	128.61
2854	-3.0765	-0.25913	0.	129.24
2855	-3.3284	-4.9295e-002	0.	130.49
2856	-6.0278	-4.8559	0.	115.9
2857	-6.0611	-5.4558	0.	116.21
2858	-6.2894	-5.1095	0.	114.47
2859	-2.71	-1.1255	0.	125.53
2860	-2.901	-0.88814	0.	126.81
2861	6.8434	-7.7072	0.	127.08
2862	6.6693	-7.4567	0.	125.89
2863	6.4055	-7.6745	0.	126.72
2864	6.5872	-7.9027	0.	127.34
2865	7.1338	-7.5195	0.	125.36
2866	7.0347	-7.9369	0.	126.68
2867	7.2696	-7.8586	0.	126.33
2868	-4.544	1.2378	0.	127.7
2869	-4.7878	0.98728	0.	128.03
2870	-4.2641	1.0148	0.	128.6
2871	-4.3115	1.4998	0.	127.14
2872	-4.5714	1.7336	0.	127.06
2873	-4.8119	1.4851	0.	126.73
2874	-2.9377	0.40956	0.	129.97
2875	-2.762	0.58524	0.	128.54
2876	-2.9232	0.89542	0.	133.6
2877	-3.1942	0.63391	0.	130.75
2878	4.0064	-3.25	0.	130.45
2879	4.0006	-2.7529	0.	130.43
2880	4.2525	-3.001	0.	133.15
2881	3.7535	-3.0011	0.	130.
2882	5.2431	1.9777	0.	119.85
2883	4.7497	1.9774	0.	120.02
2884	4.9975	2.2331	0.	118.71
2885	4.7501	4.9995	0.	119.
2886	5.252	4.9975	0.	119.27
2887	5.0008	4.7491	0.	117.89
2888	5.0006	5.2488	0.	119.28
2889	1.002	-1.7658	0.	130.9
2890	1.0014	-2.2595	0.	130.83
2891	0.75095	-2.0098	0.	132.55
2892	-2.2393	2.971	0.	111.91
2893	-1.711	3.0159	0.	107.38
2894	-1.9784	3.246	0.	107.73
2895	-1.924	2.7455	0.	107.61
2896	-7.3436e-003	5.2658	0.	129.85
2897	-0.25302	5.015	0.	132.2
2898	-1.0417e-003	4.775	0.	129.8
2899	-4.9884	-1.7446	0.	128.
2900	-4.9863	-2.2459	0.	127.63
2901	-5.2393	-1.9966	0.	130.
2902	5.3953	-0.29577	0.	119.13
2903	5.625	-4.5326e-002	0.	119.55
2904	5.1588	-4.2365e-002	0.	120.92
2905	5.8896	0.71645	0.	123.01
2906	5.8656	0.20907	0.	120.79
2907	6.1003	0.46465	0.	123.83
2908	-3.5597e-002	0.95261	0.	126.26
2909	-8.4779e-002	1.4161	0.	126.09
2910	-0.2475	0.95147	0.	126.04
2911	-0.38834	1.1982	0.	127.71
2912	0.15827	1.1991	0.	126.61
2913	-1.9795	-2.3069	0.	126.62
2914	-1.9719	-1.8286	0.	125.45
2915	-1.7311	-2.0522	0.	128.12
2916	7.424	1.7046	0.	122.04
2917	7.3368	1.199	0.	121.61
2918	7.6644	1.4144	0.	119.89
2919	7.1486	1.4595	0.	123.22
2920	6.999	6.7503	0.	128.91
2921	7.2493	7.0004	0.	131.25
2922	6.9992	7.2507	0.	128.42
2923	0.85405	7.5866	0.	127.12
2924	0.60299	7.8142	0.	126.7
2925	0.43177	7.5518	0.	127.67
2926	1.2872	7.5666	0.	126.76
2927	1.0516	7.8227	0.	126.52
2928	1.7578	7.5315	0.	126.42
2929	1.5184	7.7895	0.	126.36
2930	2.2513	7.5149	0.	126.
2931	2.0071	7.7701	0.	126.07
2932	1.9926	7.2717	0.	126.43
2933	2.7498	7.5068	0.	125.54
2934	2.4957	7.2601	0.	125.93
2935	2.5029	7.76	0.	125.73
2936	3.2496	7.5028	0.	125.02
2937	3.0012	7.7544	0.	125.31
2938	3.7497	7.501	0.	124.49
2939	3.5005	7.7517	0.	124.86
2940	4.2498	7.5003	0.	124.07
2941	4.0002	7.7506	0.	124.43
2942	3.9992	7.2505	0.	124.09
2943	4.7497	7.5002	0.	123.91
2944	4.4995	7.2502	0.	123.67
2945	4.5	7.7502	0.	124.17
2946	5.2496	7.5003	0.	124.12
2947	4.9998	7.7502	0.	124.18
2948	4.9995	7.2501	0.	123.65
2949	5.7494	7.5005	0.	124.74
2950	5.4997	7.7503	0.	124.57
2951	5.4993	7.2503	0.	124.15
2952	6.2494	7.5006	0.	125.79
2953	5.9995	7.7505	0.	125.35
2954	5.9992	7.2505	0.	125.11
2955	6.4995	7.7506	0.	126.55
2956	6.7494	7.5007	0.	127.24
2957	2.7289	-7.5395	0.	127.18
2958	3.2629	-7.5281	0.	127.5
2959	2.9952	-7.7823	0.	127.8
2960	2.223	-7.5485	0.	127.02
2961	2.4836	-7.7899	0.	127.59
2962	1.7295	-7.5473	0.	126.63
2963	1.9838	-7.7937	0.	127.34
2964	1.2421	-7.5424	0.	125.97
2965	1.4913	-7.7897	0.	127.04
2966	0.27121	0.76815	0.	126.97
2967	0.50721	0.56975	0.	128.3
2968	0.46508	1.0147	0.	127.31
2969	4.3156e-002	0.52964	0.	126.12
2970	-0.16518	0.74033	0.	125.95
2971	0.76169	0.3631	0.	129.71
2972	1.0084	0.14942	0.	131.3
2973	-3.8695	0.35191	0.	130.68
2974	-3.681	0.60421	0.	130.95
2975	-3.9669	0.80978	0.	129.59
2976	0.46219	1.9211	0.	128.07
2977	0.19688	1.6794	0.	126.54
2978	0.43993	1.4624	0.	127.06
2979	7.2824	-7.0903	0.	123.7
2980	6.9598	-7.2691	0.	124.2
2981	7.4113	-7.3911	0.	124.77
2982	5.3236	-5.5319	0.	110.22
2983	5.5793	-5.2995	0.	110.56
2984	5.8167	-5.5941	0.	114.24
2985	5.5627	-5.8063	0.	108.04
2986	3.1174	-5.7474	0.	131.84
2987	3.3365	-5.4881	0.	133.66
2988	3.0676	-5.2491	0.	132.85
2989	-4.3556	2.4628	0.	130.56
2990	-4.1274	2.2169	0.	130.25
2991	-4.0614	2.6886	0.	134.19
2992	-3.9454	2.4671	0.	132.86
2993	5.1621	-0.54189	0.	120.4
2994	5.4112	-0.79012	0.	117.96
2995	5.6351	-0.54419	0.	117.25
2996	3.7484	-2.5043	0.	129.83
2997	3.2493	-2.5035	0.	129.34
2998	3.5013	-2.7525	0.	129.39
2999	3.496	-2.2557	0.	129.67
3000	7.5205	-5.6795	0.	127.75
3001	7.4787	-6.1631	0.	125.79
3002	7.7516	-5.944	0.	127.14
3003	7.2625	-5.891	0.	127.15
3004	2.7473	5.0099	0.	128.74
3005	2.4988	4.7628	0.	128.5
3006	2.4802	2.2668	0.	130.36
3007	2.7251	2.0075	0.	130.95
3008	2.217	2.03	0.	130.31
3009	2.5016	3.2673	0.	128.35
3010	2.5033	3.7647	0.	127.96
3011	2.7526	3.5113	0.	127.73
3012	2.2542	3.523	0.	128.12
3013	3.2273	1.4937	0.	129.64
3014	2.9759	1.7494	0.	130.86
3015	2.9726	1.2456	0.	130.21
3016	5.712	1.4716	0.	123.01
3017	5.4807	1.7243	0.	121.25
3018	7.4526	2.2147	0.	124.09
3019	7.1998	1.9652	0.	124.86
3020	7.7036	1.9574	0.	121.51
3021	-2.4828	-2.7987	0.	127.43
3022	-2.231	-2.5529	0.	126.88
3023	1.5022	-2.7561	0.	130.74
3024	1.2514	-2.5068	0.	130.56
3025	1.7515	-2.5059	0.	130.15
3026	-2.4804	-5.6636	0.	130.2
3027	-2.504	-6.1196	0.	129.73
3028	-2.2492	-5.9225	0.	130.7
3029	-2.4914	-4.2488	0.	128.41
3030	-2.2411	-4.4918	0.	127.27
3031	-2.4857	-4.7308	0.	128.52
3032	1.2546	-6.0467	0.	130.27
3033	1.5252	-5.8048	0.	130.41
3034	1.4963	-6.307	0.	128.81
3035	1.5062	-0.2946	0.	131.9
3036	1.7524	-4.1267e-002	0.	131.64
3037	1.259	-6.793e-002	0.	131.94
3038	1.2523	-1.5171	0.	130.7
3039	1.5031	-1.2688	0.	130.91
3040	0.47885	5.772	0.	129.17
3041	0.23815	5.5164	0.	129.29
3042	0.26625	3.0941	0.	133.53
3043	0.50715	2.8567	0.	131.93
3044	0.51143	3.3308	0.	132.1
3045	-5.0409	0.74042	0.	128.23
3046	-5.0496	0.24717	0.	129.05
3047	-5.2868	0.49467	0.	127.37
3048	-4.4954	-3.7529	0.	128.23
3049	-4.7487	-4.0028	0.	127.72
3050	6.2484	5.9982	0.	127.33
3051	6.0003	5.7463	0.	125.96
3052	0.99239	-7.2911	0.	125.43
3053	0.7433	-7.0433	0.	124.1
3054	0.98215	-6.7903	0.	126.52
3055	-3.5042	-6.9795	0.	125.6
3056	-3.2701	-6.7469	0.	125.93
3057	-3.8102	-6.7107	0.	126.08
3058	-3.2341	-7.2619	0.	125.12
3059	-3.7243	-7.2514	0.	125.15
3060	-3.4604	-7.4998	0.	125.98
3061	-3.0094	-6.5298	0.	127.02
3062	-2.7628	-6.3155	0.	128.55
3063	0.4038	6.7818	0.	129.99
3064	0.12627	7.0088	0.	130.66
3065	0.29319	7.2766	0.	128.87
3066	-0.34087	7.7004	0.	127.18
3067	-0.16348	7.2219	0.	130.23
3068	-0.41491	7.4495	0.	128.98
3069	3.44e-003	7.4897	0.	128.43
3070	-2.8882	-3.343e-002	0.	129.26
3071	-2.691	0.17499	0.	127.88
3072	-3.14	0.17641	0.	130.51
3073	-2.635	-0.24604	0.	127.1
3074	-2.8449	-0.45716	0.	127.81
3075	-4.7263	-5.99	0.	129.85
3076	-4.5152	-6.2624	0.	130.08
3077	-4.2458	-6.0724	0.	129.58
3078	-4.9593	-6.1824	0.	130.33
3079	-3.	-7.0293	0.	125.45
3080	-2.7645	-6.7988	0.	125.85
3081	-2.9842	-7.5445	0.	125.95
3082	-2.738	-7.2985	0.	125.14
3083	-2.7303	-7.8175	0.	127.23
3084	-3.2105	-7.7825	0.	126.82
3085	-3.0022	-8.073	0.	127.97
3086	7.2358	0.71264	0.	124.17
3087	7.4852	0.90984	0.	118.27
3088	7.0516	0.96019	0.	124.05
3089	6.4998	5.7455	0.	129.7
3090	6.4988	6.2485	0.	128.11
3091	6.7502	5.997	0.	130.
3092	-4.4922	-3.2531	0.	127.73
3093	-4.7459	-3.503	0.	127.97
3094	-4.2438	-3.5074	0.	128.16
3095	-4.7413	-3.0012	0.	127.54
3096	-4.4863	-2.7521	0.	127.16
3097	-5.7657	-4.5451	0.	119.28
3098	-6.0093	-4.2915	0.	116.85
3099	-6.2657	-4.5519	0.	115.85
3100	-5.5111	-4.2767	0.	122.55
3101	-5.2609	-4.5184	0.	124.01
3102	-4.8256	-0.49709	0.	130.
3103	-4.5648	-0.73817	0.	129.47
3104	-4.6097	-0.25731	0.	130.14
3105	-7.7275	0.50996	0.	123.8
3106	-7.2228	0.58116	0.	116.83
3107	-7.4801	0.27216	0.	121.54
3108	-7.4429	0.76107	0.	119.83
3109	0.25741	4.0468	0.	130.7
3110	0.50468	4.2914	0.	129.67
3111	0.50928	3.8082	0.	131.04
3112	0.45399	6.2774	0.	129.91
3113	0.22083	6.0159	0.	130.45
3114	0.18866	6.5159	0.	131.36
3115	1.5054	-0.77999	0.	131.62
3116	1.2587	-0.54452	0.	132.34
3117	1.2654	-5.0315	0.	130.68
3118	1.5256	-5.2934	0.	130.9
3119	1.5183	-4.7793	0.	130.7
3120	-2.2326	-5.4551	0.	129.7
3121	-2.4766	-5.2035	0.	129.36
3122	1.5042	-3.2576	0.	131.33
3123	1.2529	-3.0075	0.	131.6
3124	1.5073	-3.7613	0.	131.32
3125	1.258	-4.0134	0.	131.17
3126	1.5123	-4.2687	0.	130.83
3127	1.2549	-3.509	0.	132.27
3128	-2.4888	-3.28	0.	128.49
3129	-2.2375	-3.0345	0.	128.58
3130	-2.4919	-3.7641	0.	128.74
3131	-2.2412	-3.5192	0.	129.52
3132	-2.243	-4.0055	0.	128.53
3133	6.1859	1.4749	0.	125.12
3134	5.9277	1.222	0.	123.97
3135	5.9597	1.7266	0.	124.42
3136	6.4398	1.7268	0.	126.96
3137	6.6611	1.4732	0.	125.68
3138	6.3958	1.2244	0.	125.95
3139	6.2517	5.4936	0.	128.33
3140	6.7527	5.4931	0.	132.61
3141	6.5059	5.2376	0.	131.02
3142	6.0045	5.2425	0.	125.99
3143	5.7521	5.4954	0.	124.14
3144	3.7369	1.4849	0.	127.29
3145	3.4868	1.7409	0.	129.58
3146	3.9938	1.7325	0.	125.79
3147	4.2413	1.4765	0.	124.12
3148	2.495	2.7693	0.	129.44
3149	2.7496	3.0127	0.	129.22
3150	2.7416	2.5121	0.	130.74
3151	2.2539	4.0188	0.	128.08
3152	2.7524	4.0107	0.	128.43
3153	2.502	4.2634	0.	128.29
3154	7.537	-5.1969	0.	129.52
3155	7.2982	-5.4204	0.	127.61
3156	7.7766	-5.4526	0.	128.96
3157	3.7707	-3.9967	0.	131.13
3158	3.5284	-4.2455	0.	131.75
3159	3.5158	-3.7485	0.	130.46
3160	3.7339	-1.5133	0.	130.91
3161	3.4902	-1.7595	0.	130.21
3162	3.4836	-1.263	0.	130.42
3163	3.2392	-1.5109	0.	130.34
3164	4.6867	-0.53487	0.	124.2
3165	4.9341	-0.78478	0.	122.94
3166	4.9255	-0.28848	0.	122.19
3167	4.4528	-0.77856	0.	127.35
3168	4.2058	-0.52659	0.	127.24
3169	-4.8082	2.4808	0.	127.37
3170	-5.2853	2.4872	0.	123.5
3171	-5.033	2.7362	0.	127.
3172	-5.0533	2.2347	0.	125.09
3173	-4.5453	2.725	0.	131.71
3174	-4.577	2.2282	0.	128.17
3175	-7.0236	-4.7493	0.	119.04
3176	-7.0063	-4.2531	0.	118.29
3177	-7.2628	-4.4933	0.	121.61
3178	-6.7637	-4.524	0.	116.81
3179	3.2026	-6.2441	0.	129.33
3180	3.3963	-5.9809	0.	132.09
3181	3.4921	-6.4692	0.	128.54
3182	3.3177	-6.7428	0.	126.99
3183	6.3709	-5.0159	0.	116.86
3184	5.8634	-5.0696	0.	112.9
3185	6.1009	-5.3642	0.	116.58
3186	6.0954	-4.8121	0.	113.24
3187	6.3734	-5.2354	0.	118.64
3188	7.4056	-6.6412	0.	123.85
3189	7.1072	-6.8326	0.	123.17
3190	7.6279	-6.9538	0.	123.94
3191	7.2029	-6.3653	0.	124.44
3192	7.7035	-6.4428	0.	125.17
3193	0.23974	2.1505	0.	129.43
3194	0.49078	2.3861	0.	130.18
3195	-4.0888	1.7485	0.	127.94
3196	-3.8903	2.0085	0.	128.91
3197	-4.3488	1.9822	0.	127.86
3198	-3.8155	1.5385	0.	127.75
3199	-4.0316	1.2768	0.	128.03
3200	-5.3154	0.9866	0.	127.75
3201	-5.0557	1.2346	0.	127.06
3202	-5.5382	2.2402	0.	122.27
3203	-5.5205	2.7386	0.	123.07
3204	-5.7659	2.4875	0.	123.45
3205	-2.5153	0.35068	0.	126.44
3206	-2.5032	0.70958	0.	124.44
3207	-2.3595	0.55929	0.	122.8
3208	3.765	-7.4261	0.	128.09
3209	3.9196	-7.1197	0.	126.89
3210	4.0199	-7.5194	0.	128.72
3211	4.2284	-7.319	0.	128.15
3212	6.9928	3.6579	0.	126.74
3213	7.0433	4.1759	0.	127.86
3214	7.1957	3.6615	0.	127.12
3215	7.3238	3.9386	0.	128.17
3216	6.7916	3.9301	0.	127.62
3217	7.2493	6.4997	0.	130.47
3218	6.749	6.4994	0.	128.2
3219	7.0004	6.2479	0.	130.09
3220	-5.0072	-1.2447	0.	128.6
3221	-5.2453	-1.4963	0.	129.36
3222	-4.7336	-1.4895	0.	127.85
3223	-0.25945	5.5086	0.	131.77
3224	-1.9866e-002	5.7603	0.	130.56
3225	0.75197	-1.5188	0.	132.05
3226	1.0042	-1.2778	0.	131.4
3227	-1.9858	-2.7887	0.	128.04
3228	-1.7366	-2.5366	0.	127.83
3229	5.4887	2.2344	0.	119.24
3230	5.7284	1.9793	0.	122.66
3231	4.4998	4.7501	0.	118.42
3232	4.4994	5.2501	0.	120.52
3233	4.2493	5.0009	0.	122.09
3234	6.5718	-4.7104	0.	116.36
3235	6.6045	-5.1563	0.	120.91
3236	6.8323	-4.938	0.	122.45
3237	4.0153	-3.7479	0.	130.74
3238	4.2579	-3.4992	0.	132.02
3239	3.7603	-3.4997	0.	130.09
3240	5.6646	-1.0361	0.	116.23
3241	5.1832	-1.033	0.	120.52
3242	5.4427	-1.2765	0.	115.98
3243	5.0725	-5.2603	0.	113.19
3244	5.0764	-5.7547	0.	107.24
3245	4.8284	-5.4942	0.	116.98
3246	6.7845	-7.0113	0.	123.63
3247	6.4475	-7.2207	0.	129.42
3248	-2.5566e-002	1.9088	0.	127.88
3249	-0.29482	1.6794	0.	130.16
3250	0.27915	0.33124	0.	127.46
3251	0.51941	0.11962	0.	129.82
3252	3.3652e-002	9.9851e-002	0.	125.39
3253	-0.20085	0.31681	0.	124.63
3254	1.0034	-7.789	0.	126.84
3255	0.75939	-7.5443	0.	125.85
3256	-2.4245	-0.91392	0.	124.63
3257	-2.2017	-1.1304	0.	124.14
3258	-2.4544	-1.3736	0.	124.73
3259	6.1285	-7.887	0.	124.88
3260	6.1837	-7.4384	0.	130.27
3261	5.9912	-7.627	0.	122.27
3262	8.2458	-5.9776	0.	127.64
3263	8.0077	-5.7171	0.	128.35
3264	7.9764	-6.2237	0.	126.51
3265	6.7785	-8.1324	0.	126.95
3266	7.2415	-8.06	0.	126.73
3267	7.0113	-8.3543	0.	126.82
3268	6.3101	-8.1152	0.	125.51
3269	6.5367	-8.3545	0.	126.03
3270	-0.20487	7.9734	0.	125.61
3271	-0.54595	7.6914	0.	127.31
3272	-0.75534	7.9438	0.	124.62
3273	-0.53056	8.2029	0.	124.91
3274	0.31066	8.0251	0.	125.88
3275	2.2735e-002	8.2495	0.	125.36
3276	0.13944	7.7627	0.	126.86
3277	0.80052	8.0503	0.	126.1
3278	0.53397	8.2839	0.	125.74
3279	1.2828	8.0457	0.	126.11
3280	1.0296	8.2929	0.	125.94
3281	1.7678	8.0281	0.	126.01
3282	1.5193	8.2806	0.	126.
3283	2.0111	8.2675	0.	125.91
3284	2.2588	8.0152	0.	125.8
3285	3.252	8.0033	0.	125.15
3286	2.7542	8.0076	0.	125.5
3287	3.0033	8.2547	0.	125.45
3288	3.5018	8.2519	0.	125.15
3289	3.751	8.0013	0.	124.8
3290	6.7497	8.0005	0.	127.58
3291	6.4998	8.2504	0.	126.83
3292	6.2497	8.0005	0.	126.11
3293	8.0156	1.1444	0.	118.22
3294	8.2078	1.428	0.	120.38
3295	7.9441	1.6672	0.	119.37
3296	7.8128	1.1252	0.	116.54
3297	-7.9572	-7.146	0.	127.32
3298	-7.9823	-7.6252	0.	128.41
3299	-8.2245	-7.4106	0.	126.94
3300	-7.7278	-7.3835	0.	130.4
3301	-7.9156	-6.6473	0.	128.16
3302	-8.1993	-6.9172	0.	127.34
3303	-7.6808	-6.9022	0.	130.5
3304	-7.9674	-6.1501	0.	129.03
3305	-7.7431	-6.1436	0.	129.24
3306	-8.1743	-6.4169	0.	128.12
3307	-7.6169	-6.4092	0.	128.04
3308	-8.0415	-5.6733	0.	129.8
3309	-7.8183	-5.9004	0.	129.85
3310	-8.274	-5.9295	0.	129.29
3311	-8.0338	-5.2009	0.	129.52
3312	-8.2812	-5.4506	0.	129.85
3313	-7.8006	-5.4394	0.	129.95
3314	-8.0209	-4.7198	0.	128.67
3315	-7.7798	-4.9648	0.	127.83
3316	-8.2731	-4.9673	0.	129.43
3317	-8.01	-4.2324	0.	128.37
3318	-8.263	-4.4795	0.	128.91
3319	-7.7643	-4.4806	0.	126.37
3320	-7.9988	-2.2449	0.	128.16
3321	-8.2492	-2.4957	0.	128.03
3322	-7.7494	-2.4966	0.	129.26
3323	-7.9996	-2.7455	0.	128.29
3324	-7.9971	-1.7424	0.	128.02
3325	-7.7486	-1.995	0.	130.22
3326	-8.2481	-1.9941	0.	128.07
3327	-7.9613	0.74828	0.	127.84
3328	-7.9789	0.25881	0.	127.05
3329	-8.2303	0.50161	0.	128.44
3330	-8.2213	0.98843	0.	130.02
3331	-8.0129	1.2278	0.	130.71
3332	-7.6766	0.99939	0.	123.89
3333	-1.9618	-1.355	0.	124.19
3334	-1.7246	-1.5711	0.	126.62
3335	-2.2144	-1.5982	0.	124.77
3336	-2.4056	-0.46548	0.	125.2
3337	-2.169	-0.67122	0.	123.3
3338	-2.6155	-0.6766	0.	125.91
3339	-0.40919	0.5275	0.	124.49
3340	-0.60238	0.76481	0.	124.29
3341	-4.0565	-7.8799	0.	128.77
3342	-3.9086	-7.5292	0.	126.25
3343	-3.6447	-7.7776	0.	127.1
3344	-3.7164	-8.0407	0.	128.26
3345	-5.166	-6.4406	0.	130.15
3346	-5.2116	-6.6426	0.	130.5
3347	-5.5683	-6.3259	0.	122.53
3348	-4.3174	-6.6022	0.	128.07
3349	-4.3435	-6.8552	0.	125.06
3350	-4.0303	-6.9826	0.	125.62
3351	-4.048	-6.4121	0.	127.56
3352	-2.288	-6.3617	0.	130.56
3353	-2.5179	-6.5846	0.	127.37
3354	6.1447	-1.0368	0.	116.44
3355	5.9284	-1.2778	0.	115.2
3356	5.8885	-0.79017	0.	115.53
3357	-2.2901	6.9336	0.	107.54
3358	-1.7964	6.957	0.	109.91
3359	-2.0318	6.7082	0.	106.26
3360	-2.0524	7.1791	0.	102.31
3361	0.51031	-7.2965	0.	124.46
3362	0.48919	-6.7916	0.	125.41
3363	0.2615	-7.0564	0.	125.57
3364	3.5274	-7.788	0.	128.4
3365	3.7947	-7.6168	0.	128.43
3366	3.46	-7.2586	0.	127.04
3367	3.2597	-8.0422	0.	128.7
3368	3.7691	-8.0871	0.	129.31
3369	3.5117	-8.2993	0.	128.96
3370	2.7498	-8.0327	0.	128.21
3371	3.0045	-8.2803	0.	128.7
3372	2.2444	-8.0351	0.	127.91
3373	2.4987	-8.279	0.	128.45
3374	1.7456	-8.0362	0.	127.75
3375	1.9973	-8.2812	0.	128.3
3376	1.2527	-8.0363	0.	127.92
3377	1.5005	-8.2815	0.	128.31
3378	0.76434	-8.0392	0.	129.05
3379	1.0078	-8.2827	0.	128.7
3380	7.206	2.4673	0.	127.12
3381	7.4347	2.7146	0.	127.18
3382	7.7064	2.4834	0.	122.28
3383	-4.9903	-2.7481	0.	127.49
3384	-5.241	-2.4978	0.	128.71
3385	-4.7353	-2.499	0.	127.11
3386	-5.2535	-4.0124	0.	125.21
3387	-5.0033	-4.2541	0.	126.67
3388	-4.9991	-3.7528	0.	127.45
3389	-6.7421	4.2877e-002	0.	114.55
3390	-6.258	1.3372e-002	0.	116.05
3391	-6.5008	-0.22892	0.	110.28
3392	-6.477	0.27247	0.	113.91
3393	-5.0614	-0.25086	0.	129.67
3394	-5.302	-1.5381e-003	0.	127.72
3395	-4.8455	-1.1084e-002	0.	129.81
3396	-6.7506	-4.0097	0.	115.71
3397	-6.2517	-4.0201	0.	115.23
3398	-6.4995	-3.7614	0.	110.28
3399	-6.5081	-4.2805	0.	114.23
3400	-8.0036	-3.7399	0.	128.71
3401	-8.2559	-3.9873	0.	128.94
3402	-7.7548	-3.9899	0.	126.78
3403	-8.2459	-1.4919	0.	127.81
3404	-7.7469	-1.4923	0.	128.97
3405	-7.9941	-1.2396	0.	127.87
3406	-8.2355	8.3498e-003	0.	128.25
3407	-7.7315	2.1007e-002	0.	124.79
3408	-7.9854	-0.23706	0.	127.63
3409	-2.7206	2.821	0.	122.87
3410	-2.7652	3.0348	0.	122.49
3411	-2.504	3.2199	0.	114.51
3412	-2.4345	2.6802	0.	114.65
3413	-8.8873e-002	6.7429	0.	132.03
3414	-0.35389	6.9764	0.	131.75
3415	1.0078	-4.266	0.	130.21
3416	1.0091	-4.7735	0.	129.85
3417	0.75665	-4.5156	0.	129.11
3418	1.2621	-4.5213	0.	129.88
3419	0.99576	-5.7856	0.	131.24
3420	0.72405	-6.0329	0.	130.92
3421	0.98377	-6.2876	0.	129.22
3422	-2.0014	-5.7139	0.	130.21
3423	-2.0333	-6.1646	0.	131.49
3424	-1.774	-6.0214	0.	128.88
3425	1.0021	-2.7582	0.	131.42
3426	0.75118	-2.5071	0.	131.46
3427	-1.9927	-4.2485	0.	127.39
3428	-1.9914	-4.738	0.	126.88
3429	-1.744	-4.4957	0.	126.23
3430	6.9303	3.1856	0.	128.51
3431	7.1227	3.4241	0.	128.06
3432	6.6982	3.4449	0.	129.08
3433	6.703	1.9737	0.	127.31
3434	6.9532	2.2178	0.	127.91
3435	6.9244	1.7201	0.	126.05
3436	5.755	4.9935	0.	123.12
3437	5.5033	4.7468	0.	118.7
3438	5.5026	5.2464	0.	121.27
3439	4.2484	1.9817	0.	123.43
3440	4.5002	2.2338	0.	119.52
3441	4.4959	1.7257	0.	121.75
3442	2.9864	2.2528	0.	131.33
3443	3.2354	1.9966	0.	130.79
3444	3.0006	3.2568	0.	128.58
3445	3.2511	3.5048	0.	129.27
3446	3.0017	3.7574	0.	128.18
3447	3.2481	5.0055	0.	128.7
3448	2.9963	5.2575	0.	128.32
3449	2.999	4.7575	0.	129.43
3450	7.9972	-3.7524	0.	129.23
3451	7.7423	-3.5073	0.	130.28
3452	7.9803	-3.27	0.	127.87
3453	8.2391	-3.5076	0.	127.97
3454	7.7814	-4.9644	0.	130.63
3455	8.0201	-4.728	0.	131.15
3456	8.2687	-4.9794	0.	130.46
3457	8.021	-5.2201	0.	130.07
3458	5.3282	-5.0279	0.	113.44
3459	5.568	-4.784	0.	110.78
3460	4.0725	-5.2265	0.	132.79
3461	4.0489	-4.7377	0.	132.12
3462	4.3114	-4.9876	0.	128.88
3463	3.808	-4.9854	0.	132.88
3464	4.2483	-2.5045	0.	132.29
3465	3.9945	-2.2575	0.	130.6
3466	4.2141	-1.0233	0.	129.4
3467	3.9755	-1.268	0.	130.75
3468	3.9671	-0.77135	0.	129.31
3469	3.7252	-1.0176	0.	130.26
3470	-3.8675	2.7062	0.	135.22
3471	-4.2512	2.9507	0.	135.32
3472	-3.7281	2.9852	0.	136.23
3473	-3.992	3.2013	0.	137.77
3474	-4.0187	7.2125	0.	134.81
3475	-3.7753	7.446	0.	132.77
3476	-4.0146	7.7089	0.	130.95
3477	-4.2636	7.4704	0.	134.04
3478	-3.7731	6.9566	0.	137.13
3479	-4.0161	6.7197	0.	137.89
3480	-4.2639	6.9743	0.	138.
3481	-4.0019	4.7426	0.	136.13
3482	-4.2514	4.4932	0.	135.61
3483	-3.7515	4.4954	0.	136.19
3484	-4.0021	4.241	0.	135.86
3485	-7.2841	-4.9816	0.	122.97
3486	-7.5232	-4.7257	0.	125.53
3487	-7.5467	-5.2033	0.	128.27
3488	3.7889	-6.6785	0.	127.37
3489	4.0845	-6.8933	0.	131.25
3490	3.6146	-6.9522	0.	125.85
3491	3.837	-5.4738	0.	134.01
3492	3.6155	-5.7216	0.	133.89
3493	3.5725	-5.2328	0.	134.1
3494	6.9867	-6.0932	0.	125.78
3495	7.0402	-5.6319	0.	127.01
3496	6.7774	-5.8174	0.	127.06
3497	-1.2073	3.054	0.	113.36
3498	-1.4704	3.2773	0.	107.47
3499	-1.4272	2.7991	0.	107.58
3500	2.0855e-002	2.8592	0.	134.06
3501	-0.22367	3.0919	0.	133.21
3502	1.7411e-002	3.3316	0.	133.83
3503	-3.551	2.5369	0.	134.33
3504	-3.7083	2.2587	0.	131.51
3505	-5.5632	1.7403	0.	124.64
3506	-5.7946	1.9962	0.	123.66
3507	-5.3063	1.9877	0.	123.91
3508	-6.9755	0.35269	0.	114.29
3509	-6.8319	0.8967	0.	108.51
3510	-7.1852	0.82766	0.	115.9
3511	-6.7104	0.58228	0.	113.65
3512	-6.0121	0.23645	0.	119.9
3513	-6.0863	0.71933	0.	122.72
3514	-5.7734	0.48433	0.	123.59
3515	-6.2312	0.49554	0.	117.75
3516	-5.5791	1.2383	0.	127.
3517	-5.8741	0.97585	0.	125.96
3518	-5.5613	0.74085	0.	126.9
3519	-5.8299	1.4959	0.	128.32
3520	-5.3195	1.4862	0.	126.32
3521	-3.1396	2.6419	0.	131.84
3522	-2.9732	2.9085	0.	128.61
3523	-2.8647	2.4817	0.	131.51
3524	-3.4116	2.8159	0.	135.34
3525	-3.2909	2.3592	0.	134.72
3526	-3.6169	1.7985	0.	128.72
3527	-3.3346	1.6093	0.	125.42
3528	-3.5179	1.3321	0.	128.5
3529	1.0721e-002	2.3863	0.	131.74
3530	-0.2277	2.1531	0.	128.93
3531	-0.2155	2.6239	0.	136.21
3532	0.26175	2.6219	0.	132.49
3533	6.9044	-6.5567	0.	123.74
3534	6.6195	-6.753	0.	119.83
3535	6.717	-6.2803	0.	128.97
3536	6.0416	-5.8828	0.	122.51
3537	6.2989	-5.7035	0.	122.53
3538	4.3334	-5.4748	0.	128.39
3539	4.1049	-5.7098	0.	136.74
3540	3.6858	-6.206	0.	131.29
3541	3.8833	-5.9576	0.	136.63
3542	3.9587	-6.4341	0.	127.96
3543	-7.0551	-5.2347	0.	122.95
3544	-6.7871	-5.0309	0.	116.7
3545	-7.3952	-5.9228	0.	131.49
3546	-7.5775	-5.6665	0.	130.
3547	-7.7524	-7.845	0.	129.88
3548	-7.9721	-8.0703	0.	131.06
3549	-8.2297	-7.8987	0.	129.43
3550	-8.0197	5.2384	0.	119.98
3551	-8.274	5.5009	0.	121.09
3552	-7.7802	5.4859	0.	120.92
3553	-8.0293	5.7523	0.	118.86
3554	-8.2607	4.9835	0.	121.91
3555	-7.762	4.9808	0.	121.81
3556	-8.0072	4.7174	0.	121.35
3557	-8.0737	3.6513	0.	130.46
3558	-8.2533	3.928	0.	127.91
3559	-7.7317	3.9402	0.	126.49
3560	-7.9954	4.1753	0.	124.79
3561	-7.8859	3.6585	0.	129.27
3562	-4.0027	5.2405	0.	138.62
3563	-4.2516	4.9932	0.	137.68
3564	-3.7515	4.9937	0.	138.92
3565	-4.0055	5.7356	0.	139.84
3566	-4.2532	5.4906	0.	141.06
3567	-3.7529	5.4899	0.	139.69
3568	-4.7701	2.9804	0.	131.36
3569	-5.2683	2.9876	0.	126.65
3570	-5.0166	3.2387	0.	130.44
3571	-4.512	3.2266	0.	136.97
3572	4.7001	-1.0285	0.	126.09
3573	4.9557	-1.2737	0.	124.97
3574	4.4662	-1.2722	0.	130.71
3575	4.0297	-4.2444	0.	131.66
3576	4.2686	-3.9978	0.	131.14
3577	4.2895	-4.495	0.	131.5
3578	3.7875	-4.4932	0.	132.29
3579	5.0562	-4.7601	0.	117.78
3580	4.8166	-5.0019	0.	120.65
3581	8.1788	-2.1289	0.	124.05
3582	7.701	-2.0616	0.	124.61
3583	7.9437	-2.3204	0.	124.
3584	7.9464	-1.8369	0.	119.19
3585	7.5317	-4.7149	0.	131.8
3586	7.3007	-4.9475	0.	128.08
3587	8.0103	-4.239	0.	130.79
3588	7.7705	-4.4785	0.	132.32
3589	8.2633	-4.4863	0.	130.74
3590	8.253	-3.9956	0.	129.57
3591	7.7549	-3.9932	0.	130.88
3592	3.4991	4.7538	0.	130.25
3593	3.7487	5.0026	0.	126.36
3594	3.4976	5.2538	0.	127.35
3595	2.9962	2.7555	0.	130.51
3596	3.2495	3.0033	0.	130.81
3597	3.2447	2.5003	0.	132.47
3598	3.7436	1.9885	0.	128.08
3599	3.4936	2.2441	0.	131.94
3600	3.9977	2.2385	0.	126.4
3601	7.0161	4.7191	0.	132.45
3602	6.7696	4.4636	0.	131.12
3603	7.263	4.4725	0.	128.69
3604	6.008	4.7406	0.	126.09
3605	6.2587	4.9866	0.	128.69
3606	6.4629	2.2263	0.	130.
3607	6.2136	1.9784	0.	126.26
3608	6.9492	2.7081	0.	129.23
3609	6.713	2.4704	0.	130.56
3610	7.1779	2.9553	0.	129.26
3611	6.705	2.9614	0.	130.45
3612	-1.7444	-4.0038	0.	128.21
3613	-1.9924	-3.7606	0.	129.32
3614	-1.7406	-3.024	0.	128.88
3615	-1.9899	-3.2737	0.	129.61
3616	1.0056	-3.7612	0.	132.11
3617	0.75534	-4.0107	0.	131.04
3618	1.0036	-3.2589	0.	132.54
3619	0.75363	-3.5075	0.	133.8
3620	0.75224	-3.0068	0.	131.64
3621	-1.992	-5.2286	0.	128.48
3622	-1.7451	-4.9908	0.	126.68
3623	-2.236	-4.977	0.	128.14
3624	-1.7541	-5.4934	0.	127.97
3625	-0.82431	-5.9474	0.	108.7
3626	-1.0595	-6.2214	0.	113.22
3627	-1.0464	-5.7387	0.	113.09
3628	-1.3002	-6.0357	0.	119.01
3629	1.0062	-5.2818	0.	131.17
3630	0.74206	-5.5294	0.	132.17
3631	1.2663	-5.5436	0.	131.38
3632	0.75492	-5.0228	0.	130.33
3633	-0.21952	-0.11894	0.	122.24
3634	2.2182e-002	-0.33939	0.	124.68
3635	0.27391	-0.11176	0.	127.75
3636	-3.5297	7.1901	0.	135.07
3637	-3.2812	6.9389	0.	133.36
3638	-3.5225	6.707	0.	138.39
3639	-4.0104	6.2282	0.	139.49
3640	-3.7655	6.4701	0.	139.17
3641	-4.2602	6.4802	0.	138.8
3642	-4.2558	5.9861	0.	139.86
3643	-3.7569	5.9823	0.	139.17
3644	-0.30549	6.4935	0.	133.67
3645	-4.4495e-002	6.2544	0.	131.89
3646	-3.2452	3.0825	0.	132.11
3647	-3.4868	3.2792	0.	137.32
3648	-3.0079	3.3276	0.	127.82
3649	-0.71344	3.0799	0.	125.43
3650	-0.97056	3.304	0.	119.93
3651	-0.94022	2.8416	0.	118.58
3652	-0.47554	3.3235	0.	132.24
3653	-0.46002	2.8566	0.	135.35
3654	-0.24347	4.0395	0.	130.96
3655	4.3239e-003	4.2883	0.	130.4
3656	1.0718e-002	3.807	0.	132.07
3657	-6.99	-0.21011	0.	116.56
3658	-7.2328	4.3687e-002	0.	118.99
3659	-8.252	-3.4921	0.	129.07
3660	-7.7507	-3.4944	0.	128.75
3661	-8.0008	-3.2437	0.	128.77
3662	-7.0001	-3.7525	0.	118.23
3663	-7.2527	-3.9979	0.	121.48
3664	-5.0397	-0.74812	0.	129.57
3665	-5.2677	-0.99723	0.	129.08
3666	-4.7789	-0.9892	0.	129.04
3667	-5.2937	-0.5007	0.	129.67
3668	-6.0164	-0.24944	0.	118.57
3669	-5.7778	-1.9299e-003	0.	122.36
3670	-5.7547	-4.0231	0.	120.14
3671	-6.0013	-3.767	0.	117.54
3672	-5.5025	-3.7654	0.	125.46
3673	-5.2445	-3.0003	0.	127.66
3674	-4.995	-3.2511	0.	127.77
3675	7.0079	5.2375	0.	134.77
3676	7.2584	5.4946	0.	133.82
3677	7.0031	5.7446	0.	132.9
3678	7.3703	3.1938	0.	128.74
3679	7.5365	3.461	0.	131.77
3680	7.6623	2.9858	0.	125.43
3681	7.2658	4.9884	0.	138.19
3682	6.7611	4.9821	0.	133.21
3683	0.52031	-7.7946	0.	128.04
3684	0.51797	-8.286	0.	130.13
3685	0.27969	-8.0466	0.	134.35
3686	0.28514	-7.559	0.	126.18
3687	0.46832	-6.2838	0.	129.55
3688	0.2291	-6.547	0.	128.9
3689	0.72804	-6.5386	0.	127.86
3690	0.1817	-6.0287	0.	128.69
3691	0.47035	-5.7768	0.	131.84
3692	-0.34139	-5.9697	0.	116.46
3693	-0.58323	-6.0947	0.	102.51
3694	-0.56023	-5.6944	0.	105.63
3695	-3.5272	7.6785	0.	130.55
3696	-3.7664	7.9415	0.	128.7
3697	-3.2859	7.8944	0.	126.49
3698	-3.5083	8.1754	0.	127.22
3699	-3.291	7.4125	0.	137.55
3700	-2.7866	6.9265	0.	120.12
3701	-3.0425	7.1613	0.	135.79
3702	-3.0269	6.6973	0.	128.37
3703	-2.5496	7.1415	0.	110.45
3704	-2.5291	6.6937	0.	110.31
3705	7.1955	0.24289	0.	126.95
3706	7.4017	0.3984	0.	123.22
3707	6.9817	0.4749	0.	127.29
3708	6.3602	-0.79037	0.	117.86
3709	6.5702	-0.54048	0.	117.41
3710	6.3237	-0.29256	0.	119.19
3711	6.104	-0.54374	0.	116.96
3712	6.6216	-1.038	0.	125.94
3713	6.4125	-1.2782	0.	117.89
3714	-1.559	7.2226	0.	120.32
3715	-1.5392	6.7257	0.	113.5
3716	-1.3089	6.9709	0.	121.4
3717	-2.0466	-6.6015	0.	129.65
3718	-1.8097	-6.5182	0.	131.94
3719	-2.4841	-7.5715	0.	126.4
3720	-2.2233	-7.8271	0.	130.55
3721	-2.4883	-8.0938	0.	128.7
3722	-2.5025	-7.068	0.	125.52
3723	-2.2765	-6.8244	0.	126.52
3724	-2.229	-7.3087	0.	123.98
3725	-4.4893	-8.0533	0.	131.11
3726	-4.652	-8.3599	0.	131.22
3727	-4.9592	-8.2217	0.	129.59
3728	-4.7643	-7.9306	0.	132.96
3729	-4.7483	-6.4548	0.	130.57
3730	-4.5683	-6.753	0.	126.87
3731	-4.9999	-6.6117	0.	131.67
3732	-4.185	-8.2033	0.	130.13
3733	-4.3324	-7.7214	0.	128.64
3734	-4.7923	-7.1967	0.	129.95
3735	-4.82	-6.9099	0.	127.98
3736	-4.4976	-7.2432	0.	125.5
3737	4.0364	-7.916	0.	129.34
3738	4.3049	-7.7204	0.	128.89
3739	4.0179	-8.3503	0.	128.79
3740	4.279	-8.1383	0.	128.82
3741	-0.45402	9.8014e-002	0.	121.59
3742	-0.71555	-0.11788	0.	120.67
3743	-0.47398	-0.34033	0.	114.98
3744	-0.68995	0.3283	0.	124.72
3745	-2.4378	-3.7614e-002	0.	125.72
3746	-2.2305	0.19834	0.	123.06
3747	-2.1757	-0.22199	0.	122.38
3748	-1.9463	-0.8877	0.	122.82
3749	-1.7149	-1.0974	0.	123.74
3750	-1.9391	-0.42774	0.	120.48
3751	-1.6992	-0.63105	0.	122.87
3752	-7.7088	1.7052	0.	130.21
3753	-7.5428	1.6083	0.	124.44
3754	-7.8734	1.4747	0.	130.66
3755	-7.5372	1.2463	0.	123.87
3756	-8.3683	3.4315	0.	132.44
3757	-8.1579	3.1644	0.	135.05
3758	-7.9711	3.4132	0.	132.16
3759	8.1018	0.68674	0.	112.14
3760	8.3243	0.94712	0.	121.51
3761	7.8967	0.89011	0.	116.03
3762	8.7412	1.491	0.	124.25
3763	8.4764	1.7348	0.	121.17
3764	8.5165	1.2306	0.	123.64
3765	7.9339	2.7546	0.	120.61
3766	7.9574	2.2261	0.	119.7
3767	8.2127	2.5172	0.	118.47
3768	7.2498	8.0004	0.	129.19
3769	6.9996	7.7506	0.	128.27
3770	6.9998	8.2504	0.	128.54
3771	-8.515	5.2459	0.	123.05
3772	-8.7669	5.4905	0.	126.19
3773	-8.5371	5.783	0.	122.06
3774	-8.5072	4.7272	0.	124.01
3775	-8.7583	4.9852	0.	125.4
3776	-8.5116	4.2138	0.	126.58
3777	-8.7559	4.4759	0.	126.34
3778	-8.2538	4.4612	0.	123.43
3779	-8.5479	3.7081	0.	129.92
3780	-8.768	3.9703	0.	128.73
3781	-8.5905	3.2056	0.	131.22
3782	-8.8104	3.468	0.	130.89
3783	-8.6013	2.7067	0.	129.72
3784	-8.3801	2.9385	0.	133.91
3785	-8.8324	2.9647	0.	130.31
3786	-8.5936	2.2119	0.	128.5
3787	-8.3687	2.4474	0.	127.2
3788	-8.8304	2.4666	0.	128.39
3789	-8.5676	1.718	0.	130.05
3790	-8.3654	1.9577	0.	130.9
3791	-8.82	1.9704	0.	128.65
3792	-8.5211	1.2286	0.	131.43
3793	-8.7889	1.4761	0.	130.93
3794	-8.3126	1.468	0.	132.09
3795	-8.7503	0.98673	0.	131.09
3796	-8.4903	0.74176	0.	130.64
3797	-8.4889	-0.2439	0.	129.09
3798	-8.7406	2.4234e-003	0.	129.7
3799	-8.4869	0.25116	0.	129.65
3800	-8.4915	-0.74194	0.	128.59
3801	-8.7419	-0.49447	0.	129.21
3802	-8.2388	-0.48931	0.	128.47
3803	-8.4944	-1.2423	0.	128.1
3804	-8.7442	-0.99358	0.	128.61
3805	-8.2427	-0.9899	0.	128.16
3806	-8.7463	-1.4942	0.	128.17
3807	-8.4969	-1.7436	0.	127.86
3808	-8.4997	-2.745	0.	128.3
3809	-8.7492	-2.4958	0.	128.24
3810	-8.4985	-2.2449	0.	127.93
3811	-8.5013	-3.2432	0.	128.86
3812	-8.7503	-2.9951	0.	128.73
3813	-8.2501	-2.9948	0.	128.57
3814	-8.7521	-3.4932	0.	129.28
3815	-8.5043	-3.7395	0.	129.29
3816	-8.5152	-4.727	0.	129.67
3817	-8.7597	-4.4847	0.	129.68
3818	-8.5089	-4.2344	0.	129.48
3819	-8.5205	-5.2169	0.	129.75
3820	-8.7652	-4.9776	0.	129.75
3821	-8.5137	-5.7068	0.	129.33
3822	-8.7663	-5.4702	0.	129.51
3823	-8.4809	-6.1963	0.	128.37
3824	-8.7523	-5.9633	0.	128.72
3825	-8.458	-6.6868	0.	127.29
3826	-8.7186	-6.4545	0.	127.67
3827	-8.4666	-7.1819	0.	126.94
3828	-8.7182	-6.9484	0.	126.87
3829	-8.7263	-7.4475	0.	127.17
3830	-8.4719	-7.6842	0.	127.93
3831	6.0489	-8.335	0.	123.03
3832	5.8081	-8.0728	0.	119.81
3833	-5.5185	3.2397	0.	124.29
3834	-5.754	2.9789	0.	124.95
3835	8.4156	-2.3769	0.	125.5
3836	8.6546	-2.3013	0.	126.85
3837	8.4525	-1.9687	0.	126.78
3838	8.4395	-2.8015	0.	126.09
3839	8.6534	-2.5038	0.	127.02
3840	8.1805	-2.5683	0.	125.43
3841	8.7136	-3.0013	0.	127.02
3842	8.2175	-3.027	0.	126.97
3843	8.4762	-3.2646	0.	127.07
3844	8.7506	-3.9947	0.	128.81
3845	8.4948	-3.7508	0.	128.3
3846	8.5059	-4.2429	0.	129.5
3847	8.7604	-4.9894	0.	129.68
3848	8.5113	-5.2354	0.	129.59
3849	8.5119	-4.7378	0.	130.03
3850	8.745	-5.9918	0.	127.99
3851	8.5018	-5.7365	0.	128.51
3852	8.482	-6.2422	0.	127.28
3853	8.4791	-7.2535	0.	126.26
3854	8.7215	-7.0007	0.	126.6
3855	8.178	-7.0166	0.	125.54
3856	8.4649	-6.7494	0.	126.44
3857	8.5001	-7.7544	0.	126.59
3858	8.7462	-7.502	0.	126.69
3859	8.2659	-7.5167	0.	126.05
3860	8.5015	-8.2532	0.	127.01
3861	8.7511	-8.0027	0.	127.03
3862	8.2523	-8.0069	0.	126.64
3863	8.5007	-8.7515	0.	127.31
3864	8.7505	-8.5012	0.	127.35
3865	8.2503	-8.5035	0.	127.09
3866	7.505	-8.7658	0.	126.77
3867	7.4902	-8.2487	0.	126.63
3868	7.752	-8.5104	0.	126.93
3869	7.2599	-8.5431	0.	126.72
3870	6.2755	-8.5744	0.	123.53
3871	6.5179	-8.8151	0.	124.55
3872	6.7696	-8.5765	0.	125.9
3873	5.7783	-8.5611	0.	118.59
3874	6.0208	-8.8043	0.	121.27
3875	4.7722	-8.5949	0.	120.01
3876	5.277	-8.5737	0.	115.89
3877	5.0199	-8.8232	0.	117.48
3878	5.0278	-8.3779	0.	114.55
3879	4.266	-8.5886	0.	125.7
3880	4.5271	-8.3766	0.	125.8
3881	4.515	-8.828	0.	122.95
3882	3.7605	-8.5625	0.	128.44
3883	4.0099	-8.8136	0.	127.07
3884	3.2565	-8.5374	0.	128.96
3885	3.5063	-8.789	0.	128.56
3886	2.7534	-8.5266	0.	128.95
3887	3.004	-8.7749	0.	129.04
3888	2.2516	-8.5251	0.	128.84
3889	2.5023	-8.7707	0.	129.12
3890	1.7522	-8.5265	0.	128.86
3891	2.002	-8.7711	0.	129.12
3892	1.2557	-8.528	0.	129.1
3893	1.5035	-8.7727	0.	129.15
3894	0.76147	-8.5295	0.	129.8
3895	1.0071	-8.7738	0.	129.18
3896	0.26731	-8.5295	0.	128.37
3897	0.5114	-8.7746	0.	129.01
3898	-0.22963	-8.5174	0.	121.26
3899	1.4465e-002	-8.7711	0.	125.19
3900	2.9027e-002	-8.2901	0.	132.65
3901	-0.72935	-8.4763	0.	114.42
3902	-0.48554	-8.7512	0.	117.43
3903	-0.46723	-8.2742	0.	112.48
3904	-1.2289	-8.4152	0.	118.31
3905	-0.9864	-8.7048	0.	115.68
3906	-0.96736	-8.191	0.	110.77
3907	-1.4861	-8.6573	0.	123.01
3908	-1.4656	-8.0941	0.	126.63
3909	-1.7313	-8.3765	0.	126.77
3910	-4.3477	-8.5098	0.	130.21
3911	-4.0684	-8.6963	0.	130.21
3912	-3.845	-8.3641	0.	129.63
3913	-4.818	-8.6328	0.	128.55
3914	-4.5533	-8.8032	0.	129.6
3915	-5.2604	-8.8219	0.	124.3
3916	-5.0168	-8.8864	0.	126.5
3917	-5.1252	-8.4946	0.	126.97
3918	-5.8499	-8.4819	0.	117.07
3919	-5.5494	-8.6944	0.	120.92
3920	-5.667	-8.1855	0.	117.99
3921	-5.4142	-8.3671	0.	123.59
3922	-6.3093	-8.5641	0.	112.47
3923	-6.0426	-8.7722	0.	115.06
3924	-6.1041	-8.2823	0.	113.15
3925	-6.7807	-8.6262	0.	114.86
3926	-6.5277	-8.8306	0.	112.86
3927	-6.5619	-8.374	0.	110.28
3928	-7.2543	-8.6636	0.	123.92
3929	-7.0109	-8.8725	0.	118.81
3930	-7.0292	-8.4443	0.	118.6
3931	-7.7212	-8.6692	0.	130.35
3932	-7.4925	-8.8885	0.	127.19
3933	-7.4964	-8.4655	0.	134.05
3934	-7.9695	-8.8717	0.	130.47
3935	-7.9533	-8.4725	0.	131.89
3936	-8.1872	-8.5728	0.	131.14
3937	-8.7769	8.5565	0.	127.41
3938	-8.5285	8.8155	0.	125.2
3939	-8.5352	8.3499	0.	125.79
3940	-8.2925	8.597	0.	122.25
3941	1.2661	8.5278	0.	125.83
3942	1.0105	8.7733	0.	125.85
3943	0.76303	8.5265	0.	125.59
3944	1.7627	8.52	0.	125.9
3945	1.5107	8.7698	0.	126.01
3946	2.0081	8.7626	0.	126.02
3947	2.2585	8.5123	0.	125.83
3948	4.0014	8.7509	0.	125.39
3949	3.7518	8.5015	0.	125.22
3950	4.001	8.2508	0.	124.87
3951	4.251	8.5006	0.	125.04
3952	5.0002	8.7501	0.	125.28
3953	5.	8.2501	0.	124.73
3954	5.2501	8.5001	0.	125.15
3955	4.7504	8.5002	0.	124.99
3956	6.4999	8.7503	0.	126.85
3957	6.7499	8.5003	0.	127.8
3958	6.2499	8.5003	0.	126.46
3959	-4.0025	8.2097	0.	128.83
3960	-4.2572	7.9696	0.	129.96
3961	-3.9883	8.7148	0.	128.35
3962	-3.7445	8.4436	0.	127.42
3963	-4.2454	8.4715	0.	129.44
3964	-0.8476	7.453	0.	131.06
3965	-0.60532	7.2041	0.	130.49
3966	-8.1474	2.6792	0.	131.33
3967	-7.9417	2.9263	0.	135.35
3968	-8.1405	2.1932	0.	129.4
3969	-7.9459	1.9382	0.	132.33
3970	-8.1105	1.7076	0.	132.84
3971	-1.7003	-0.16563	0.	117.34
3972	-1.9683	1.3965e-002	0.	119.72
3973	-1.2118	-0.12373	0.	118.97
3974	-1.4604	-0.36894	0.	120.03
3975	-0.9702	-0.3429	0.	120.82
3976	-0.95148	0.11241	0.	123.89
3977	5.5218	-8.7987	0.	116.63
3978	5.5375	-8.2988	0.	115.35
3979	4.5475	-7.9428	0.	128.36
3980	4.7826	-8.1596	0.	120.35
3981	-5.1372	-7.5848	0.	134.9
3982	-4.9021	-7.5521	0.	135.14
3983	-1.7993	-6.7446	0.	129.39
3984	-2.003	-7.0651	0.	124.86
3985	-1.7098	-7.8152	0.	131.44
3986	-1.9682	-7.5643	0.	128.06
3987	-1.9755	-8.0976	0.	131.77
3988	-1.057	7.7055	0.	128.29
3989	-1.3212	7.4705	0.	128.62
3990	-1.0711	7.2188	0.	130.16
3991	-1.1014	8.1955	0.	124.74
3992	6.8316	-0.78811	0.	125.31
3993	6.8934	-1.2835	0.	131.53
3994	7.0938	-1.0518	0.	132.48
3995	6.7841	-0.28344	0.	123.46
3996	-7.7727	9.0626	0.	121.26
3997	-8.2733	9.0577	0.	122.11
3998	-8.0172	9.2974	0.	121.16
3999	-8.0373	8.8392	0.	119.13
4000	-7.2686	9.0523	0.	124.96
4001	-7.5145	9.2943	0.	122.47
4002	-7.5378	8.8299	0.	120.68
4003	-7.0102	9.2827	0.	125.96
4004	-6.7625	9.0349	0.	128.19
4005	-7.029	8.8074	0.	130.67
4006	-5.75	9.0059	0.	122.07
4007	-6.0045	8.7608	0.	124.45
4008	-6.0007	9.258	0.	123.94
4009	-6.2555	9.018	0.	126.42
4010	-5.2463	8.9983	0.	121.48
4011	-5.4998	8.7517	0.	116.18
4012	-5.4979	9.2512	0.	121.73
4013	-4.7418	8.99	0.	124.87
4014	-4.9961	8.7451	0.	122.89
4015	-4.9939	9.2458	0.	123.51
4016	-4.2356	8.9767	0.	127.57
4017	-4.4894	9.238	0.	126.45
4018	-4.4926	8.7334	0.	128.69
4019	-3.9828	9.2251	0.	127.58
4020	-3.7262	8.9539	0.	128.78
4021	-1.6986	9.052	0.	124.15
4022	-1.5555	8.8841	0.	131.94
4023	-1.4851	9.3004	0.	127.85
4024	-1.2597	9.0357	0.	130.06
4025	0.23734	9.0006	0.	125.69
4026	-1.4491e-002	9.2444	0.	126.12
4027	-0.27932	8.986	0.	126.43
4028	-1.8409e-002	8.7436	0.	125.35
4029	0.74924	9.0121	0.	125.83
4030	0.49497	9.2555	0.	126.14
4031	0.5018	8.7653	0.	125.56
4032	1.2551	9.0153	0.	126.04
4033	1.0015	9.2611	0.	126.31
4034	1.7562	9.0123	0.	126.14
4035	1.5041	9.2607	0.	126.41
4036	2.2551	9.0078	0.	126.12
4037	2.0042	9.2574	0.	126.42
4038	2.7537	9.0043	0.	126.03
4039	2.5033	9.2543	0.	126.34
4040	2.5055	8.7575	0.	125.93
4041	3.2525	9.0023	0.	125.89
4042	3.0022	9.2523	0.	126.22
4043	3.0034	8.7538	0.	125.77
4044	3.7517	9.0013	0.	125.74
4045	3.5015	9.2513	0.	126.08
4046	3.5021	8.7519	0.	125.57
4047	4.001	9.2507	0.	125.95
4048	4.251	9.0007	0.	125.61
4049	5.2502	9.0001	0.	125.63
4050	5.0002	9.2501	0.	125.84
4051	4.7505	9.0003	0.	125.56
4052	5.75	9.0001	0.	125.89
4053	5.5001	9.2501	0.	125.91
4054	5.5	8.7501	0.	125.5
4055	6.25	9.0002	0.	126.39
4056	6.	9.2501	0.	126.1
4057	5.9999	8.7502	0.	126.
4058	6.75	9.0002	0.	127.08
4059	6.5	9.2502	0.	126.42
4060	7.25	9.0002	0.	127.09
4061	7.	9.2501	0.	126.68
4062	6.9999	8.7503	0.	128.03
4063	7.75	9.0001	0.	124.51
4064	7.5	8.7502	0.	128.65
4065	7.5	9.2501	0.	125.85
4066	8.25	9.	0.	120.66
4067	8.	8.7501	0.	122.5
4068	8.	9.25	0.	122.79
4069	8.75	9.	0.	120.67
4070	8.5	8.75	0.	115.14
4071	8.5	9.25	0.	120.74
4072	-9.0682	7.1919	0.	135.43
4073	-8.7233	7.5771	0.	130.1
4074	-9.2335	7.4725	0.	134.95
4075	-8.9864	7.7354	0.	134.76
4076	-9.0173	8.7795	0.	127.4
4077	-9.2634	8.5208	0.	128.4
4078	-9.0143	8.276	0.	129.21
4079	-8.7689	9.0385	0.	125.19
4080	-8.5166	9.2871	0.	123.59
4081	-9.0179	5.6917	0.	131.95
4082	-8.9838	6.1112	0.	138.6
4083	-8.7881	5.9843	0.	127.82
4084	-9.259	5.9715	0.	135.68
4085	-9.0103	5.2298	0.	128.54
4086	-9.2597	5.4878	0.	131.4
4087	-9.007	4.7338	0.	127.74
4088	-9.2559	4.9892	0.	129.65
4089	-9.0123	4.2323	0.	128.51
4090	-9.2556	4.4882	0.	129.29
4091	-9.0305	3.7301	0.	129.72
4092	-9.264	3.9869	0.	129.72
4093	-9.0523	3.2271	0.	129.97
4094	-9.2816	3.4852	0.	130.
4095	-9.0614	2.7247	0.	128.97
4096	-9.2949	2.9821	0.	129.34
4097	-9.0568	2.2251	0.	128.51
4098	-9.2951	2.4808	0.	128.32
4099	-9.0413	1.7284	0.	129.53
4100	-9.2883	1.9822	0.	128.73
4101	-9.0182	1.2342	0.	130.59
4102	-9.2727	1.4851	0.	129.95
4103	-9.0006	0.74155	0.	130.78
4104	-9.2554	0.99032	0.	130.69
4105	-8.9943	0.24785	0.	130.38
4106	-9.2473	0.49589	0.	130.71
4107	-8.7406	0.49658	0.	130.33
4108	-9.2453	-1.1727e-004	0.	130.35
4109	-8.9936	-0.24814	0.	129.82
4110	-8.9975	-1.7455	0.	128.34
4111	-9.2476	-1.4966	0.	128.7
4112	-8.996	-1.2455	0.	128.68
4113	-8.9987	-2.2459	0.	128.34
4114	-9.2486	-1.9966	0.	128.49
4115	-8.7481	-1.995	0.	128.04
4116	-9.2495	-2.4968	0.	128.65
4117	-8.9998	-2.7459	0.	128.67
4118	-9.003	-3.7432	0.	129.55
4119	-9.2515	-3.4957	0.	129.56
4120	-9.0011	-3.2451	0.	129.15
4121	-9.0061	-4.2398	0.	129.76
4122	-9.2533	-3.9937	0.	129.87
4123	-8.7552	-3.9895	0.	129.56
4124	-9.0097	-4.7353	0.	129.76
4125	-9.256	-4.4909	0.	129.93
4126	-9.011	-5.2309	0.	129.5
4127	-9.2584	-4.9875	0.	129.69
4128	-9.0049	-5.7268	0.	128.89
4129	-9.2573	-5.4848	0.	129.12
4130	-8.99	-6.2216	0.	128.01
4131	-9.2493	-5.9818	0.	128.25
4132	-8.9788	-6.7161	0.	127.24
4133	-9.2365	-6.4777	0.	127.35
4134	-8.9779	-7.214	0.	127.08
4135	-9.233	-6.9743	0.	126.86
4136	-8.9775	-7.7189	0.	127.81
4137	-9.2337	-7.4747	0.	127.15
4138	-8.9703	-8.2292	0.	128.98
4139	-9.2313	-7.9805	0.	128.21
4140	-8.7232	-7.9556	0.	128.57
4141	-8.9727	-8.74	0.	129.8
4142	-9.2246	-8.4886	0.	129.36
4143	-8.6936	-8.4833	0.	130.05
4144	-8.2333	-9.0469	0.	129.66
4145	-8.7301	-9.0047	0.	130.11
4146	-8.4875	-9.2632	0.	129.75
4147	-8.451	-8.748	0.	130.35
4148	-7.7408	-9.091	0.	127.25
4149	-7.9924	-9.3072	0.	128.33
4150	-7.2491	-9.0974	0.	122.09
4151	-7.4966	-9.3247	0.	124.56
4152	-6.758	-9.0768	0.	116.75
4153	-7.0017	-9.3177	0.	119.
4154	-6.261	-9.0386	0.	115.38
4155	-6.5058	-9.2951	0.	115.58
4156	-5.7421	-8.9847	0.	118.9
4157	-6.0037	-9.2614	0.	116.75
4158	-5.2307	-9.0182	0.	123.89
4159	-5.4856	-9.224	0.	121.32
4160	-4.7522	-9.0568	0.	127.54
4161	-4.9933	-9.3025	0.	125.57
4162	-4.274	-8.9897	0.	129.59
4163	-4.5092	-9.2703	0.	128.59
4164	-3.7824	-8.904	0.	130.19
4165	-4.0181	-9.2108	0.	130.03
4166	-3.2768	-8.871	0.	130.06
4167	-3.5222	-9.1512	0.	130.27
4168	-3.5591	-8.5718	0.	129.6
4169	-2.7624	-8.8915	0.	129.64
4170	-3.0139	-9.1614	0.	129.94
4171	-3.0216	-8.6106	0.	129.47
4172	-2.505	-9.1747	0.	128.97
4173	-2.2513	-8.9068	0.	128.2
4174	-2.5011	-8.6302	0.	129.63
4175	-1.2437	-8.9469	0.	120.37
4176	-1.4971	-9.1986	0.	122.64
4177	-1.7457	-8.9218	0.	124.83
4178	-0.74258	-8.9797	0.	118.5
4179	-0.99627	-9.2222	0.	119.23
4180	-0.24144	-9.0049	0.	121.4
4181	-0.49496	-9.2462	0.	119.75
4182	0.25856	-9.0162	0.	125.8
4183	5.9657e-003	-9.2594	0.	123.66
4184	0.75701	-9.0189	0.	128.37
4185	0.50566	-9.2637	0.	127.08
4186	1.2549	-9.0186	0.	129.23
4187	1.0044	-9.2642	0.	128.77
4188	1.7533	-9.0174	0.	129.41
4189	1.503	-9.2636	0.	129.4
4190	2.2526	-9.0166	0.	129.41
4191	2.0022	-9.2625	0.	129.57
4192	2.502	-9.2626	0.	129.46
4193	2.7528	-9.019	0.	129.22
4194	3.7557	-9.0401	0.	127.19
4195	3.503	-9.274	0.	127.89
4196	3.2538	-9.0265	0.	128.64
4197	4.2589	-9.0531	0.	124.31
4198	4.0049	-9.2858	0.	125.72
4199	4.7627	-9.0563	0.	120.42
4200	4.508	-9.2924	0.	122.31
4201	5.2646	-9.0481	0.	118.14
4202	5.0106	-9.2906	0.	119.
4203	5.7643	-9.0419	0.	119.3
4204	5.5108	-9.2815	0.	118.47
4205	6.2631	-9.045	0.	122.28
4206	6.0099	-9.2816	0.	120.68
4207	6.7615	-9.0423	0.	124.79
4208	6.5094	-9.2845	0.	123.46
4209	7.0081	-9.2774	0.	125.4
4210	7.2582	-9.0265	0.	126.19
4211	7.0132	-8.8037	0.	126.15
4212	8.2514	-9.0025	0.	127.27
4213	8.0019	-9.2532	0.	127.09
4214	7.754	-9.0098	0.	126.89
4215	8.001	-8.7544	0.	127.05
4216	8.7506	-9.0006	0.	127.56
4217	8.5007	-9.2508	0.	127.45
4218	9.0001	-8.2506	0.	127.37
4219	9.0004	-8.7503	0.	127.61
4220	9.2503	-8.5002	0.	127.66
4221	8.9972	-7.7503	0.	127.13
4222	9.2495	-8.0003	0.	127.42
4223	8.9886	-7.2493	0.	127.03
4224	9.2454	-7.4995	0.	127.24
4225	8.9834	-6.7484	0.	127.23
4226	9.2375	-6.999	0.	127.28
4227	8.9897	-6.2467	0.	127.77
4228	9.2384	-6.4985	0.	127.62
4229	8.7268	-6.4971	0.	127.06
4230	8.9998	-5.7446	0.	128.5
4231	9.2463	-5.997	0.	128.2
4232	9.0057	-5.2433	0.	129.1
4233	9.2528	-5.4956	0.	128.79
4234	8.7566	-5.4893	0.	129.01
4235	9.0063	-4.7431	0.	129.29
4236	9.255	-4.9947	0.	129.13
4237	9.0024	-4.2433	0.	128.95
4238	9.2536	-4.4944	0.	129.06
4239	8.7577	-4.4915	0.	129.64
4240	8.9938	-3.7423	0.	128.28
4241	9.2491	-3.9935	0.	128.64
4242	8.9753	-3.2352	0.	127.72
4243	9.2396	-3.4904	0.	128.2
4244	8.738	-3.4984	0.	127.77
4245	8.9275	-2.7036	0.	127.94
4246	9.2195	-2.9794	0.	128.15
4247	8.9406	-2.1654	0.	130.6
4248	9.1767	-2.4495	0.	129.08
4249	9.0233	-1.6595	0.	134.34
4250	9.2402	-1.9347	0.	131.99
4251	8.7385	-1.8327	0.	130.52
4252	9.0765	-1.1751	0.	134.48
4253	8.83	-1.3798	0.	141.22
4254	9.2915	-1.4421	0.	133.81
4255	9.0947	-0.69095	0.	130.26
4256	8.8792	-0.91692	0.	133.95
4257	9.3193	-0.95228	0.	131.4
4258	9.0871	-0.20687	0.	129.66
4259	8.8718	-0.43719	0.	131.81
4260	9.32	-0.46184	0.	128.03
4261	9.0692	0.27775	0.	132.7
4262	9.3094	2.7073e-002	0.	130.72
4263	8.8498	4.2963e-002	0.	133.68
4264	9.0441	0.76566	0.	132.1
4265	8.8229	0.51702	0.	135.95
4266	9.2933	0.5177	0.	132.45
4267	9.0141	1.258	0.	128.54
4268	9.272	1.0102	0.	130.89
4269	8.7893	0.99762	0.	127.9
4270	8.9924	1.7575	0.	125.3
4271	9.2498	1.5065	0.	128.23
4272	8.986	2.2637	0.	123.56
4273	9.2405	2.0074	0.	126.58
4274	8.7276	2.0012	0.	122.2
4275	9.0006	2.7653	0.	123.98
4276	9.2416	2.5101	0.	125.92
4277	8.7264	2.5276	0.	120.27
4278	9.0688	3.2313	0.	129.67
4279	8.7423	3.0703	0.	116.94
4280	9.2658	3.0017	0.	127.72
4281	8.9532	3.5206	0.	131.84
4282	9.1354	3.7044	0.	132.63
4283	9.3377	3.4624	0.	132.72
4284	8.3456	0.4886	0.	122.47
4285	8.5681	0.74898	0.	131.89
4286	8.6035	0.28223	0.	136.7
4287	8.6327	-1.1216	0.	140.16
4288	8.5452	-1.553	0.	137.51
4289	8.3884	-1.2976	0.	127.85
4290	-3.0498	7.6284	0.	133.2
4291	-2.8054	7.3764	0.	125.56
4292	-5.7521e-002	-6.2918	0.	127.89
4293	-0.33792	-6.1524	0.	112.41
4294	-6.3473e-002	-5.7677	0.	122.93
4295	4.4518e-002	-7.811	0.	132.17
4296	-0.20857	-8.047	0.	123.68
4297	7.5164	5.2455	0.	137.27
4298	7.793	4.9937	0.	124.06
4299	7.5127	4.7417	0.	134.09
4300	7.8285	3.253	0.	128.3
4301	8.1894	3.07	0.	114.89
4302	9.0151	5.303	0.	122.34
4303	9.2586	5.0385	0.	129.6
4304	8.7824	5.0972	0.	114.5
4305	8.9968	4.8523	0.	131.56
4306	7.7644	5.5016	0.	124.22
4307	7.5072	5.7474	0.	131.75
4308	7.75	8.5002	0.	126.62
4309	7.4999	8.2503	0.	130.19
4310	7.2499	8.5003	0.	129.56
4311	-5.4976	-3.2551	0.	127.54
4312	-5.7492	-3.5093	0.	122.82
4313	-5.2481	-3.5058	0.	127.68
4314	-5.5218	-0.74981	0.	129.17
4315	-5.7728	-0.49888	0.	123.95
4316	-5.5343	-0.25137	0.	127.74
4317	-7.4997	-3.247	0.	128.38
4318	-7.2493	-3.499	0.	123.56
4319	-7.502	-3.7444	0.	126.83
4320	-7.4904	-0.73218	0.	127.21
4321	-7.2404	-0.47752	0.	122.18
4322	-7.4833	-0.22372	0.	124.66
4323	-7.7372	-0.48179	0.	127.47
4324	-0.73266	3.5476	0.	126.71
4325	-0.48865	3.7957	0.	131.71
4326	-0.23446	3.5632	0.	132.86
4327	-3.2495	3.5242	0.	133.01
4328	-3.5015	3.7591	0.	137.53
4329	-3.7507	3.4952	0.	138.84
4330	-0.79391	6.4856	0.	129.83
4331	-0.53517	6.2422	0.	133.67
4332	-0.57051	6.727	0.	133.39
4333	-3.2682	6.4654	0.	133.4
4334	-3.512	6.2242	0.	138.83
4335	0.26564	-0.56207	0.	129.21
4336	0.51736	-0.33445	0.	132.3
4337	0.76276	-0.55824	0.	133.26
4338	0.51004	-0.79879	0.	132.87
4339	-1.2188	-0.58811	0.	121.76
4340	-1.4678	-0.84079	0.	123.82
4341	0.22518	-5.5157	0.	126.06
4342	0.49083	-5.2704	0.	131.29
4343	-1.2729	-5.5039	0.	120.73
4344	-1.5072	-5.2557	0.	126.14
4345	-1.5267	-5.8008	0.	126.64
4346	0.50227	-3.2555	0.	132.86
4347	0.2522	-3.5036	0.	126.01
4348	0.50337	-3.7571	0.	132.69
4349	-1.4934	-3.2635	0.	130.28
4350	-1.2456	-3.5059	0.	123.74
4351	-1.4948	-3.7565	0.	129.91
4352	-1.7428	-3.5132	0.	131.05
4353	6.4688	2.7238	0.	131.75
4354	6.2244	2.4811	0.	129.01
4355	6.5179	4.2179	0.	130.72
4356	6.2638	4.4806	0.	129.22
4357	6.5145	4.7266	0.	131.85
4358	3.498	2.7481	0.	132.72
4359	3.7477	2.4941	0.	130.21
4360	3.5002	4.2538	0.	131.55
4361	3.7497	4.5028	0.	129.02
4362	3.25	4.5059	0.	130.96
4363	7.515	-4.2327	0.	132.36
4364	7.2789	-4.4725	0.	129.65
4365	7.4396	-1.797	0.	127.62
4366	7.1729	-1.5409	0.	129.43
4367	7.3733	-1.3092	0.	130.43
4368	7.685	-1.5723	0.	121.98
4369	4.5284	-4.2484	0.	130.96
4370	4.7917	-4.5031	0.	125.3
4371	4.5521	-4.7449	0.	128.29
4372	4.4831	-1.7639	0.	132.38
4373	4.7217	-1.5174	0.	129.51
4374	4.2276	-1.5168	0.	132.04
4375	-6.2638	8.525	0.	129.69
4376	-6.5234	8.296	0.	133.95
4377	-6.5148	8.7821	0.	131.7
4378	-6.7813	8.5546	0.	134.08
4379	-4.5036	3.7341	0.	138.73
4380	-4.7584	3.485	0.	135.98
4381	-4.2528	3.4772	0.	139.37
4382	-4.5036	5.7411	0.	141.01
4383	-4.5021	5.2433	0.	140.04
4384	-4.7521	5.4954	0.	134.12
4385	-7.2844	5.4779	0.	126.37
4386	-7.5225	5.2283	0.	122.74
4387	-7.5394	5.7173	0.	119.62
4388	-7.2712	-8.2463	0.	128.44
4389	-7.5088	-8.0435	0.	134.13
4390	-7.7285	-8.2688	0.	135.52
4391	-6.835	-5.519	0.	115.52
4392	-7.1354	-5.7127	0.	129.53
4393	-7.3177	-5.4564	0.	128.17
4394	-6.5401	6.0132	0.	139.13
4395	-6.6137	5.7742	0.	137.14
4396	-6.9004	5.9635	0.	136.07
4397	-6.7274	6.2127	0.	138.45
4398	-9.1146	6.39	0.	142.26
4399	-9.2287	6.6992	0.	137.03
4400	-9.3899	6.2503	0.	140.02
4401	-9.4504	6.4937	0.	137.82
4402	6.2504	-6.1837	0.	129.48
4403	6.432	-6.4766	0.	124.77
4404	6.5077	-6.0045	0.	130.2
4405	-3.016	2.199	0.	134.13
4406	-3.4482	2.081	0.	131.95
4407	-3.1658	1.8918	0.	128.45
4408	-6.125	1.2335	0.	127.17
4409	-6.4324	1.055	0.	114.17
4410	-6.3109	0.7406	0.	119.33
4411	9.	8.75	0.	122.56
4412	9.25	9.	0.	124.77
4413	9.	9.25	0.	122.8
4414	9.2503	-9.0001	0.	127.88
4415	9.0003	-9.2502	0.	127.77
4416	-8.9876	-9.2475	0.	130.05
4417	-9.2353	-8.9951	0.	130.07
4418	-9.2614	9.0182	0.	126.69
4419	-9.0118	9.2704	0.	125.46
4420	7.4021	0.16481	0.	123.94
4421	6.98	-1.0401e-002	0.	128.78
4422	7.8562	0.39224	0.	112.77
4423	7.6511	0.59561	0.	117.26
4424	8.6562	-0.66316	0.	135.26
4425	8.6345	-0.18736	0.	135.7
4426	-3.0221	8.1129	0.	127.76
4427	-3.2445	8.3938	0.	128.72
4428	-2.97	8.6227	0.	133.11
4429	-1.7726	8.8587	0.	126.17
4430	-1.9454	9.2575	0.	118.78
4431	-1.3968	8.5682	0.	129.79
4432	-0.87665	8.4546	0.	125.31
4433	-1.101	8.7198	0.	128.22
4434	-2.3119	7.387	0.	104.4
4435	-1.815	7.4447	0.	112.81
4436	1.4163e-003	-6.8118	0.	128.92
4437	3.6338e-002	-7.3189	0.	127.08
4438	-0.70524	-7.989	0.	107.62
4439	-1.2041	-7.8698	0.	119.19
4440	-1.3097	-6.5606	0.	123.47
4441	-1.5504	-6.3749	0.	129.29
4442	-0.81839	-6.3686	0.	106.46
4443	8.2903	4.8745	0.	102.99
4444	8.5311	4.939	0.	102.6
4445	8.7455	4.6941	0.	119.63
4446	8.041	5.2499	0.	111.04
4447	8.3065	5.0572	0.	105.85
4448	7.6646	3.7381	0.	132.64
4449	7.5435	4.2352	0.	128.7
4450	8.6266	3.3595	0.	119.19
4451	8.4682	2.8326	0.	113.16
4452	8.9662	3.7747	0.	129.88
4453	9.3018	4.2054	0.	130.37
4454	9.3595	3.9562	0.	129.94
4455	9.2594	5.5221	0.	127.75
4456	8.764	5.5377	0.	111.79
4457	8.2658	5.5245	0.	109.15
4458	8.75	8.5	0.	116.86
4459	9.25	8.5	0.	127.1
4460	8.25	8.5	0.	116.81
4461	-5.4952	-2.7501	0.	128.86
4462	-5.4939	-2.2485	0.	131.08
4463	-5.4962	-1.7484	0.	131.37
4464	-5.5058	-1.2489	0.	129.82
4465	-7.4996	-2.7474	0.	129.38
4466	-7.7498	-2.9963	0.	128.42
4467	-7.4992	-2.2466	0.	131.32
4468	-7.4983	-1.7448	0.	131.18
4469	-7.4959	-1.2404	0.	128.87
4470	-7.7431	-0.98767	0.	127.78
4471	-1.2337	3.5273	0.	114.05
4472	-1.7378	3.5074	0.	107.82
4473	-2.2431	3.4949	0.	110.33
4474	-2.7468	3.5126	0.	119.77
4475	-1.2824	6.4832	0.	118.06
4476	-1.0522	6.7284	0.	126.09
4477	-1.7746	6.4769	0.	109.87
4478	-2.2708	6.4683	0.	108.99
4479	-2.7693	6.4644	0.	118.55
4480	0.50132	-2.7558	0.	131.66
4481	0.50074	-2.2575	0.	133.19
4482	0.50095	-1.7628	0.	133.7
4483	0.50339	-1.2755	0.	132.6
4484	-0.23228	-0.56078	0.	117.13
4485	-0.72862	-0.56534	0.	114.72
4486	-1.4914	-2.7718	0.	128.64
4487	-1.4882	-2.2819	0.	129.32
4488	-1.4839	-1.7947	0.	129.3
4489	-1.4778	-1.3136	0.	126.19
4490	-0.28231	-5.4923	0.	112.06
4491	-0.78229	-5.4857	0.	109.96
4492	-0.24857	-3.5009	0.	107.53
4493	-0.74789	-3.5013	0.	106.6
4494	6.4729	3.2207	0.	130.94
4495	6.4971	3.7171	0.	129.96
4496	3.5	3.2513	0.	131.47
4497	3.5006	3.7531	0.	131.02
4498	3.2512	4.0056	0.	129.96
4499	7.4999	-3.7481	0.	131.9
4500	7.4894	-3.261	0.	132.76
4501	7.4786	-2.7724	0.	132.36
4502	7.7274	-3.0237	0.	130.35
4503	7.4669	-2.2837	0.	128.98
4504	7.7096	-2.5426	0.	128.3
4505	4.5112	-3.7491	0.	132.4
4506	4.5041	-3.2502	0.	134.73
4507	4.5003	-2.7526	0.	135.
4508	4.4951	-2.2568	0.	133.19
4509	4.2413	-2.0098	0.	131.53
4510	-6.2492	-3.5083	0.	112.51
4511	-6.749	-3.5042	0.	112.71
4512	-6.2591	-0.49173	0.	112.71
4513	-6.7487	-0.48191	0.	112.24
4514	-4.5063	7.7311	0.	133.08
4515	-4.5	8.2313	0.	130.54
4516	-4.5056	6.2381	0.	139.14
4517	-4.5081	6.7348	0.	138.9
4518	-4.5088	7.2322	0.	137.27
4519	-5.7543	8.5065	0.	118.45
4520	-5.2497	8.4985	0.	117.43
4521	-4.7469	8.4885	0.	126.65
4522	-6.385	6.273	0.	134.56
4523	-6.446	5.7932	0.	131.2
4524	-6.4505	6.7763	0.	136.42
4525	-6.5722	6.4725	0.	134.32
4526	-6.5047	7.3008	0.	136.4
4527	-6.7564	7.6089	0.	132.89
4528	-6.5161	7.8082	0.	134.42
4529	-6.6774	6.9412	0.	142.69
4530	-6.7239	7.1376	0.	137.24
4531	-4.5015	4.2411	0.	137.14
4532	-4.2522	3.9888	0.	137.43
4533	-4.5012	4.7438	0.	137.16
4534	-5.2668	3.4908	0.	128.1
4535	-5.7893	3.4838	0.	125.38
4536	-6.2853	3.5432	0.	118.62
4537	-6.2727	3.369	0.	117.58
4538	-6.0248	3.223	0.	125.79
4539	-6.7343	3.5917	0.	110.15
4540	-6.931	3.363	0.	108.41
4541	-7.1711	3.5407	0.	117.57
4542	-6.5014	3.4358	0.	109.19
4543	-5.251	5.4994	0.	117.22
4544	-5.7508	5.5033	0.	115.46
4545	-6.2603	5.5301	0.	125.29
4546	-6.7778	5.5171	0.	129.52
4547	-7.0645	5.7064	0.	129.35
4548	-7.4877	4.2314	0.	124.69
4549	-7.4313	3.7459	0.	125.28
4550	-7.5062	4.73	0.	123.45
4551	-7.7514	4.4666	0.	123.02
4552	-0.51376	5.7514	0.	133.13
4553	-0.27418	6.0031	0.	131.95
4554	-0.49693	4.276	0.	131.67
4555	-0.50111	4.7647	0.	133.55
4556	-0.24913	4.5248	0.	131.14
4557	-0.50514	5.2577	0.	134.12
4558	-3.5016	4.2502	0.	137.07
4559	-3.7522	3.9958	0.	136.76
4560	-3.5011	4.7464	0.	139.
4561	-3.5044	5.7366	0.	138.95
4562	-3.5016	5.2431	0.	139.99
4563	0.50417	-4.2603	0.	129.92
4564	0.50243	-4.7648	0.	129.55
4565	-1.4956	-4.251	0.	127.02
4566	-1.4976	-4.7485	0.	125.98
4567	7.5008	6.2492	0.	131.2
4568	7.2519	5.9973	0.	130.85
4569	7.4996	6.7499	0.	132.8
4570	7.4998	7.7503	0.	131.09
4571	7.4997	7.2502	0.	133.01
4572	7.2496	7.5005	0.	130.18
4573	5.7354	2.4884	0.	121.89
4574	5.9752	2.2332	0.	125.33
4575	5.2431	2.4899	0.	118.07
4576	4.748	2.4895	0.	118.18
4577	4.2496	2.4906	0.	122.47
4578	4.2499	4.5008	0.	121.5
4579	3.9994	4.7515	0.	125.19
4580	5.7562	4.4938	0.	121.63
4581	5.2521	4.4983	0.	117.29
4582	4.7505	4.4997	0.	117.28
4583	6.7875	-4.4774	0.	119.81
4584	7.048	-4.7051	0.	125.97
4585	6.2963	-4.5066	0.	112.64
4586	5.8001	-4.5265	0.	111.09
4587	5.296	-4.5162	0.	115.13
4588	6.6842	-1.5237	0.	123.7
4589	6.1962	-1.5192	0.	116.68
4590	5.7065	-1.5182	0.	114.92
4591	5.2151	-1.5173	0.	120.43
4592	-5.4968	-7.859	0.	125.43
4593	-5.244	-8.0407	0.	131.01
4594	-5.049	-7.7496	0.	133.98
4595	-5.9213	-7.9859	0.	114.03
4596	-6.3568	-8.0922	0.	110.99
4597	-6.8104	-8.1922	0.	113.7
4598	-6.3386	-5.6614	0.	110.96
4599	-6.567	-5.3151	0.	109.34
4600	-5.9203	-5.9694	0.	116.58
4601	-7.4978	-7.6033	0.	131.73
4602	-7.4514	-7.1397	0.	133.58
4603	-7.269	-6.1884	0.	130.22
4604	-7.3821	-6.664	0.	130.39
4605	-7.3194	5.9458	0.	122.14
4606	-7.7886	5.9837	0.	117.49
4607	-8.7492	6.1873	0.	131.98
4608	-8.2924	6.0345	0.	119.68
4609	-9.3718	6.9665	0.	130.71
4610	-8.3105	8.1561	0.	123.51
4611	-8.0678	8.4033	0.	119.94
4612	-8.5096	7.911	0.	122.85
4613	-8.7726	8.0694	0.	127.58
4614	-7.0416	7.8811	0.	132.19
4615	-6.8013	8.0804	0.	133.74
4616	-7.0593	8.339	0.	133.85
4617	-6.9756	7.4457	0.	133.84
4618	-6.7992	6.6375	0.	140.43
4619	-6.8979	7.0401	0.	142.63
4620	4.3933	-7.0926	0.	132.49
4621	4.5133	-7.52	0.	128.33
4622	4.2543	-6.6488	0.	131.65
4623	4.1563	-6.1857	0.	133.06
4624	4.8383	-5.9795	0.	114.03
4625	4.5902	-5.7191	0.	123.98
4626	4.3617	-5.9541	0.	132.1
4627	5.7876	-6.095	0.	116.32
4628	5.3155	-6.0291	0.	104.86
4629	6.2825	-6.9624	0.	125.57
4630	5.988	-7.3954	0.	126.97
4631	5.6709	-7.8128	0.	117.17
4632	5.2882	-8.103	0.	113.57
4633	-0.49696	1.9238	0.	131.1
4634	-0.45392	2.3907	0.	133.19
4635	-0.59838	1.4615	0.	131.8
4636	-0.88313	0.56561	0.	124.55
4637	-0.74321	1.0115	0.	126.04
4638	-2.5787	2.3409	0.	123.31
4639	-2.1192	2.4547	0.	110.35
4640	-1.6401	2.5288	0.	107.83
4641	-1.1601	2.5867	0.	112.68
4642	-0.6868	2.6183	0.	128.42
4643	-2.0747	0.40696	0.	119.39
4644	-2.6644	1.0198	0.	129.53
4645	-2.9939	1.4036	0.	129.85
4646	-3.1772	1.1264	0.	132.98
4647	-2.2977	0.73648	0.	120.03
4648	-6.0613	1.7519	0.	127.23
4649	-6.0222	2.2435	0.	124.85
4650	-5.9994	2.7277	0.	125.09
4651	-6.9033	1.282	0.	108.74
4652	-7.5826	1.8286	0.	125.86
4653	-7.2621	1.575	0.	117.02
4654	-7.2565	1.213	0.	116.44
4655	9.5	8.75	0.	129.33
4656	9.5	9.25	0.	126.27
4657	9.5	8.2501	0.	131.82
4658	9.5	7.7502	0.	133.87
4659	9.5	7.2504	0.	136.42
4660	9.5001	6.7513	0.	136.65
4661	9.5011	6.2537	0.	135.03
4662	9.504	5.7582	0.	134.33
4663	9.5029	5.2575	0.	135.02
4664	9.4775	4.7283	0.	133.1
4665	9.5128	4.203	0.	129.33
4666	9.2156	4.5421	0.	134.55
4667	9.5617	3.7142	0.	129.91
4668	9.5346	3.2328	0.	130.78
4669	9.5068	2.7465	0.	129.66
4670	9.4961	2.2538	0.	128.94
4671	9.498	1.7565	0.	129.52
4672	9.5077	1.2587	0.	130.58
4673	9.5211	0.76229	0.	131.21
4674	9.5336	0.26703	0.	130.45
4675	9.5424	-0.2279	0.	129.03
4676	9.5446	-0.72317	0.	129.1
4677	9.5343	-1.2192	0.	130.7
4678	9.5083	-1.7173	0.	131.42
4679	9.4764	-2.2188	0.	130.48
4680	9.4687	-2.7253	0.	129.28
4681	9.4837	-3.2347	0.	128.62
4682	9.4949	-3.7416	0.	128.56
4683	9.5003	-4.2447	0.	128.75
4684	9.5024	-4.746	0.	128.9
4685	9.5021	-5.247	0.	128.82
4686	9.4993	-5.748	0.	128.49
4687	9.495	-6.2487	0.	128.05
4688	9.4925	-6.7491	0.	127.68
4689	9.4943	-7.2492	0.	127.5
4690	9.4978	-7.7495	0.	127.53
4691	9.4997	-8.2498	0.	127.71
4692	9.5001	-8.75	0.	127.94
4693	9.5001	-9.25	0.	128.13
4694	9.2502	-9.5001	0.	128.01
4695	8.7505	-9.5004	0.	127.66
4696	8.2512	-9.5016	0.	127.28
4697	7.7527	-9.5053	0.	126.7
4698	7.2546	-9.5128	0.	125.71
4699	7.5048	-9.262	0.	126.5
4700	6.756	-9.5196	0.	124.08
4701	6.2563	-9.5212	0.	121.87
4702	5.7565	-9.5212	0.	119.85
4703	5.2568	-9.524	0.	119.31
4704	4.7559	-9.5267	0.	120.88
4705	4.2539	-9.5251	0.	123.72
4706	3.7523	-9.5196	0.	126.42
4707	3.2514	-9.5133	0.	128.25
4708	2.7513	-9.5096	0.	129.23
4709	3.0022	-9.2659	0.	128.99
4710	2.2516	-9.5085	0.	129.62
4711	1.752	-9.5087	0.	129.55
4712	1.2525	-9.5092	0.	128.94
4713	0.75303	-9.5091	0.	127.48
4714	0.25306	-9.507	0.	124.94
4715	-0.24755	-9.5007	0.	122.01
4716	-0.74864	-9.4887	0.	120.45
4717	-1.2497	-9.4739	0.	121.5
4718	-1.751	-9.4615	0.	124.4
4719	-2.2531	-9.4526	0.	127.34
4720	-1.9995	-9.1848	0.	126.57
4721	-2.7565	-9.4447	0.	129.27
4722	-3.2594	-9.4416	0.	130.14
4723	-3.7579	-9.458	0.	130.11
4724	-4.2534	-9.4914	0.	129.02
4725	-4.7504	-9.516	0.	126.62
4726	-5.2482	-9.5084	0.	123.01
4727	-5.7471	-9.5007	0.	119.18
4728	-6.2485	-9.5178	0.	116.93
4729	-6.7496	-9.5359	0.	117.83
4730	-7.2492	-9.5451	0.	121.48
4731	-7.7482	-9.5409	0.	125.63
4732	-8.2466	-9.5235	0.	128.41
4733	-8.745	-9.506	0.	129.69
4734	-9.2451	-9.4989	0.	130.35
4735	-9.4929	-9.2464	0.	130.37
4736	-9.4873	-8.7436	0.	129.63
4737	-9.4855	-8.2399	0.	128.59
4738	-9.4874	-7.7364	0.	127.55
4739	-9.4889	-7.2349	0.	126.92
4740	-9.4908	-6.7358	0.	126.97
4741	-9.4957	-6.2379	0.	127.59
4742	-9.5017	-5.7399	0.	128.48
4743	-9.5047	-5.2414	0.	129.32
4744	-9.5046	-4.7431	0.	129.86
4745	-9.5032	-4.2448	0.	130.04
4746	-9.5017	-3.7463	0.	129.88
4747	-9.5007	-3.2472	0.	129.49
4748	-9.5	-2.7475	0.	129.06
4749	-9.2503	-2.9965	0.	129.08
4750	-9.4994	-2.2476	0.	128.8
4751	-9.4987	-1.7476	0.	128.85
4752	-9.498	-1.2478	0.	129.23
4753	-9.4974	-0.74846	0.	129.8
4754	-9.2465	-0.99674	0.	129.21
4755	-9.4973	-0.2498	0.	130.35
4756	-9.2455	-0.49782	0.	129.82
4757	-9.4983	0.24792	0.	130.68
4758	-9.5021	0.74466	0.	130.62
4759	-9.5099	1.2412	0.	130.06
4760	-9.5197	1.7389	0.	129.15
4761	-9.5267	2.2379	0.	128.53
4762	-9.5286	2.7383	0.	128.69
4763	-9.5242	3.2401	0.	129.37
4764	-9.5151	3.7419	0.	130.01
4765	-9.5074	4.2427	0.	130.49
4766	-9.5045	4.7436	0.	131.2
4767	-9.5053	5.2473	0.	132.52
4768	-9.5009	5.7676	0.	135.16
4769	-9.5559	6.2782	0.	134.62
4770	-9.5934	6.7609	0.	130.96
4771	-9.5371	7.247	0.	130.21
4772	-9.5024	7.7474	0.	130.37
4773	-9.5044	8.2551	0.	129.22
4774	-9.2553	8.0102	0.	130.03
4775	-9.5075	8.7595	0.	127.7
4776	-9.5062	9.258	0.	126.23
4777	-9.2566	9.5102	0.	124.99
4778	-8.7595	9.5191	0.	123.87
4779	-8.2605	9.5269	0.	122.63
4780	-7.7589	9.5291	0.	122.33
4781	-7.2561	9.5247	0.	123.49
4782	-6.7532	9.517	0.	124.65
4783	-6.2506	9.5092	0.	124.43
4784	-6.5054	9.2692	0.	126.9
4785	-5.7486	9.5033	0.	123.58
4786	-5.2456	9.4987	0.	123.72
4787	-4.7415	9.4938	0.	125.09
4788	-4.2366	9.4864	0.	126.45
4789	-3.7291	9.4735	0.	127.84
4790	-3.2188	9.4494	0.	128.74
4791	-3.4725	9.2023	0.	129.06
4792	-2.9542	9.1587	0.	132.
4793	-2.7088	9.418	0.	125.24
4794	-1.732	9.5059	0.	122.55
4795	-2.2149	9.4454	0.	120.16
4796	-1.2459	9.5134	0.	126.61
4797	-0.7566	9.4982	0.	127.15
4798	-1.0205	9.2486	0.	128.88
4799	-0.25954	9.4945	0.	126.73
4800	-0.52436	9.2361	0.	127.04
4801	0.24314	9.4994	0.	126.57
4802	0.7472	9.5045	0.	126.62
4803	1.2505	9.5066	0.	126.69
4804	1.7521	9.5058	0.	126.69
4805	2.2523	9.5039	0.	126.64
4806	2.7518	9.5023	0.	126.54
4807	3.2513	9.5012	0.	126.42
4808	3.7508	9.5007	0.	126.3
4809	4.2505	9.5003	0.	126.2
4810	4.7503	9.5001	0.	126.14
4811	4.5006	9.2503	0.	125.86
4812	5.2501	9.5001	0.	126.11
4813	5.7501	9.5001	0.	126.12
4814	6.25	9.5001	0.	126.13
4815	6.75	9.5001	0.	126.02
4816	7.25	9.5001	0.	125.43
4817	7.75	9.5	0.	124.14
4818	8.25	9.5	0.	122.82
4819	8.75	9.5	0.	122.82
4820	9.25	9.5	0.	124.31
4821	-7.7549	3.1751	0.	132.52
4822	-7.5227	2.9815	0.	126.08
4823	-6.6981	3.2072	0.	107.09
4824	-7.1131	3.0929	0.	112.27
4825	2.2459	-2.2e-002	0.	131.19
4826	4.7501	8.0002	0.	124.44
4827	5.2499	8.0002	0.	124.63
4828	-3.4824	8.6827	0.	127.82
4829	-3.2079	8.9116	0.	132.33
4830	5.2512	5.4976	0.	121.25
4831	-4.822	1.9821	0.	125.91
4832	3.2531	8.5034	0.	125.45
4833	6.8341	-5.3893	0.	124.59
4834	6.5714	-5.5747	0.	124.71
4835	7.5462	-1.1026	0.	123.16
4836	2.237	7.017	0.	126.36
4837	7.0619	-5.171	0.	126.17
4838	4.7493	7.0001	0.	123.41
4839	4.249	7.0004	0.	123.69
4840	3.2458	5.5059	0.	126.96
4841	-3.5851	0.14846	0.	131.03
4842	-1.9908	-8.641	0.	128.6
4843	7.7567	-7.2546	0.	125.
4844	7.9257	-6.7555	0.	125.25
4845	7.9649	-7.2798	0.	125.32
4846	0.2516	4.5329	0.	129.38
4847	0.76612	-9.4053e-002	0.	131.41
4848	-6.5273	-4.8056	0.	114.45
4849	4.2504	8.0005	0.	124.53
4850	7.9585	-2.7938	0.	126.32
4851	-3.3966	0.40077	0.	131.29
4852	-3.4482	0.86492	0.	130.15
4853	2.0048	3.777	0.	128.23
4854	1.7558	3.5385	0.	128.73
4855	-5.5391	0.24596	0.	126.04
4856	3.9667	0.22865	0.	126.76
4857	4.2125	0.47447	0.	125.23
4858	-4.1845	-7.3706	0.	126.14
4859	3.2343	-1.0132	0.	130.41
4860	2.9899	-1.2611	0.	130.32
4861	-0.82879	6.9698	0.	129.65
4862	6.1376	0.97153	0.	124.81
4863	6.5376	-3.5528e-002	0.	125.38
4864	6.0844	-4.2572e-002	0.	119.91
4865	6.3191	0.21301	0.	122.94
4866	8.5313	5.3318	0.	104.
4867	-4.5053	-1.234	0.	128.29
4868	2.5062	8.26	0.	125.72
4869	-0.56386	8.7214	0.	125.76
4870	-0.78822	8.9866	0.	128.76
4871	5.7497	8.0003	0.	125.17
4872	5.9998	8.2503	0.	125.73
4873	-7.5854	3.4643	0.	128.11
4874	-7.3532	3.2706	0.	121.67
4875	0.26259	3.5684	0.	132.42
4876	3.0009	4.2577	0.	129.33
4877	2.7505	4.5105	0.	129.19
4878	1.7551	4.0293	0.	128.39
4879	3.9639	-0.27173	0.	127.79
4880	-4.0014	3.732	0.	138.02
4881	4.4989	5.7501	0.	121.71
4882	4.2486	5.5008	0.	122.52
4883	4.7498	5.4993	0.	120.78
4884	6.7662	0.22161	0.	129.13
4885	0.74803	2.6155	0.	130.83
4886	4.5724	-5.2359	0.	124.46
4887	4.5004	8.2503	0.	124.7
4888	2.998	-2.2546	0.	129.46
4889	1.7524	-1.02	0.	131.1
4890	1.255	-1.0295	0.	131.61
4891	4.4832	1.2222	0.	122.98
4892	3.2447	-2.0068	0.	129.79
4893	2.9937	-1.7582	0.	129.92
4894	2.7472	-2.0061	0.	129.67
4895	7.7393	-7.9955	0.	126.42
4896	7.547	-7.7301	0.	125.74
4897	0.75988	3.5646	0.	131.06
4898	4.7196	0.9682	0.	122.72
4899	1.2576	3.5538	0.	129.73
4900	5.4999	8.2502	0.	125.05
4901	-8.9945	-0.74611	0.	129.23
4902	1.0084	-0.79404	0.	132.32
4903	1.0115	-0.31785	0.	132.38
4904	5.749	7.0003	0.	124.51
4905	8.2127	1.9739	0.	120.16
4906	8.468	2.2651	0.	118.94
4907	3.9859	-1.7626	0.	131.16
4908	-7.9899	-0.73727	0.	128.03
4909	3.5074	-3.2507	0.	129.63
4910	0.75567	-1.0346	0.	131.96
4911	-3.9854	-5.8456	0.	129.43
4912	-7.5092	-4.2381	0.	124.78
4913	3.7422	-2.0088	0.	130.45
4914	-2.7297	-4.9771	0.	129.18
4915	5.2492	7.0002	0.	123.68
4916	1.5061	3.7908	0.	128.89
4917	1.6984	-6.5786	0.	127.77
4918	8.0011	-8.2572	0.	126.72
4919	8.0181	-7.7692	0.	126.1
4920	-0.30295	8.479	0.	124.7
4921	0.24605	8.5083	0.	125.23
4922	8.2636	-5.476	0.	129.21
4923	5.8648	-0.29374	0.	117.68
4924	-5.0625	1.7336	0.	125.57
4925	2.7594	-3.5029	0.	130.13
4926	2.5064	-3.2545	0.	130.02
4927	5.7499	8.5002	0.	125.61
4928	7.8258	-7.5038	0.	125.42
4929	8.2126	-6.4883	0.	126.16
4930	6.5476	0.47015	0.	126.87
4931	6.7975	0.72245	0.	127.17
4932	2.7552	8.507	0.	125.67
4933	1.2255	-6.5479	0.	127.76
4934	-8.1887	-8.3813	0.	131.29
4935	3.2606	-3.5009	0.	129.94
4936	3.9986	5.2516	0.	124.09
4937	3.7475	5.5028	0.	125.09
4938	3.3036	-4.9938	0.	133.29
4939	-8.4464	-8.2097	0.	129.64
4940	4.4651	0.72097	0.	123.77
4941	4.5007	8.7504	0.	125.27
4942	3.5466	-4.741	0.	133.05
4943	-7.8024	8.6064	0.	118.23
4944	-7.2982	8.5849	0.	126.41
4945	-3.734	1.0705	0.	128.8
4946	6.3483	0.71973	0.	125.62
4947	6.8634	1.2208	0.	125.65
4948	-3.5121	-8.0209	0.	127.85
4949	-2.2405	-8.3643	0.	130.01
4950	-2.7602	-8.3493	0.	129.46
4951	-3.3038	-8.3114	0.	129.01
4952	7.8579	-1.3657	0.	114.63
4953	8.2201	-1.6766	0.	121.85
4954	8.0633	-1.4212	0.	112.1
4955	7.9693	-1.1966	0.	110.59
4956	6.5981	0.97203	0.	125.92
4957	-4.6074	-7.5986	0.	130.52
4958	-5.	8.	0.	96.441
4959	-6.	8.	0.	97.022
4960	-5.	6.	0.	99.444
4961	-6.	6.	0.	94.572
4962	-5.5	8.	0.	111.
4963	-5.	7.5	0.	100.44
4964	-5.	7.	0.	99.694
4965	-5.	6.5	0.	101.17
4966	-6.	7.5	0.	100.4
4967	-6.	7.	0.	97.782
4968	-6.	6.5	0.	98.374
4969	-5.5	6.	0.	109.35
4970	-5.5	7.5	0.	104.3
4971	-5.5	7.	0.	101.31
4972	-5.5	6.5	0.	103.46
4973	-5.25	8.	0.	103.66
4974	-5.	7.75	0.	98.434
4975	-5.75	8.	0.	103.96
4976	-6.	7.75	0.	98.696
4977	-5.	6.25	0.	100.3
4978	-5.25	6.	0.	104.37
4979	-6.	6.25	0.	96.416
4980	-5.75	6.	0.	101.9
4981	-5.5	7.75	0.	107.62
4982	-5.	7.25	0.	100.05
4983	-5.25	7.5	0.	102.31
4984	-5.	6.75	0.	100.42
4985	-5.25	7.	0.	100.5
4986	-5.25	6.5	0.	102.27
4987	-6.	7.25	0.	99.028
4988	-5.75	7.5	0.	102.28
4989	-6.	6.75	0.	97.985
4990	-5.75	7.	0.	99.535
4991	-5.75	6.5	0.	100.87
4992	-5.5	6.25	0.	106.38
4993	-5.5	7.25	0.	102.79
4994	-5.5	6.75	0.	102.36
4995	-5.	5.	0.	100.2
4996	-7.	5.	0.	97.184
4997	-5.	4.	0.	102.9
4998	-7.	4.	0.	92.624
4999	-5.5	5.	0.	114.27
5000	-6.	5.	0.	114.74
5001	-6.5	5.	0.	117.09
5002	-5.	4.5	0.	106.8
5003	-7.	4.5	0.	99.813
5004	-6.5	4.	0.	110.91
5005	-6.	4.	0.	115.28
5006	-5.5	4.	0.	119.34
5007	-6.5	4.5	0.	112.14
5008	-6.	4.5	0.	117.59
5009	-5.5	4.5	0.	115.62
5010	-5.25	5.	0.	107.23
5011	-5.	4.75	0.	103.48
5012	-6.75	5.	0.	106.99
5013	-7.	4.75	0.	98.442
5014	-5.	4.25	0.	104.82
5015	-5.25	4.	0.	111.04
5016	-7.	4.25	0.	96.191
5017	-6.75	4.	0.	101.77
5018	-5.75	5.	0.	114.49
5019	-5.5	4.75	0.	114.93
5020	-6.25	5.	0.	115.91
5021	-6.	4.75	0.	116.16
5022	-6.5	4.75	0.	114.6
5023	-5.25	4.5	0.	111.19
5024	-6.75	4.5	0.	105.94
5025	-6.25	4.	0.	113.09
5026	-6.5	4.25	0.	111.51
5027	-5.75	4.	0.	117.31
5028	-6.	4.25	0.	116.43
5029	-5.5	4.25	0.	117.47
5030	-6.25	4.5	0.	114.86
5031	-5.75	4.5	0.	116.6
5032	-1.	6.	0.	97.108
5033	-3.	6.	0.	99.23
5034	-1.	4.	0.	95.116
5035	-3.	4.	0.	98.985
5036	-1.5	6.	0.	109.36
5037	-2.	6.	0.	105.85
5038	-2.5	6.	0.	109.54
5039	-1.	5.5	0.	100.55
5040	-1.	5.	0.	98.734
5041	-1.	4.5	0.	99.25
5042	-3.	5.5	0.	102.97
5043	-3.	5.	0.	101.59
5044	-3.	4.5	0.	102.61
5045	-2.5	4.	0.	110.06
5046	-2.	4.	0.	105.49
5047	-1.5	4.	0.	107.09
5048	-2.	5.	0.	108.83
5049	-2.5	5.	0.	107.24
5050	-2.5	5.5	0.	107.85
5051	-2.	5.5	0.	108.94
5052	-1.5	5.5	0.	106.75
5053	-1.5	5.	0.	105.68
5054	-1.5	4.5	0.	105.76
5055	-2.	4.5	0.	108.58
5056	-2.5	4.5	0.	107.82
5057	-1.25	6.	0.	103.15
5058	-1.	5.75	0.	98.82
5059	-2.75	6.	0.	104.32
5060	-3.	5.75	0.	101.1
5061	-1.	4.25	0.	97.177
5062	-1.25	4.	0.	101.06
5063	-3.	4.25	0.	100.79
5064	-2.75	4.	0.	104.45
5065	-1.75	6.	0.	107.61
5066	-1.5	5.75	0.	108.02
5067	-2.25	6.	0.	107.69
5068	-2.	5.75	0.	107.38
5069	-2.5	5.75	0.	108.66
5070	-1.	5.25	0.	99.622
5071	-1.25	5.5	0.	103.63
5072	-1.	4.75	0.	98.97
5073	-1.25	5.	0.	102.2
5074	-1.25	4.5	0.	102.5
5075	-3.	5.25	0.	102.26
5076	-2.75	5.5	0.	105.4
5077	-3.	4.75	0.	102.08
5078	-2.75	5.	0.	104.41
5079	-2.75	4.5	0.	105.2
5080	-2.25	4.	0.	107.78
5081	-2.5	4.25	0.	108.91
5082	-1.75	4.	0.	106.28
5083	-2.	4.25	0.	107.02
5084	-1.5	4.25	0.	106.4
5085	-2.25	5.	0.	108.03
5086	-2.	5.25	0.	108.89
5087	-1.75	5.	0.	107.25
5088	-2.	4.75	0.	108.7
5089	-2.5	5.25	0.	107.54
5090	-2.5	4.75	0.	107.52
5091	-2.25	5.5	0.	108.39
5092	-1.75	5.5	0.	107.84
5093	-1.5	5.25	0.	106.21
5094	-1.5	4.75	0.	105.71
5095	-1.75	4.5	0.	107.17
5096	-2.25	4.5	0.	108.19
5097	0.	-1.	0.	96.662
5098	-1.	-1.	0.	92.773
5099	0.	-3.	0.	92.301
5100	-1.	-3.	0.	91.55
5101	-0.5	-1.	0.	108.47
5102	0.	-1.5	0.	98.997
5103	0.	-2.	0.	97.056
5104	0.	-2.5	0.	97.089
5105	-1.	-1.5	0.	96.787
5106	-1.	-2.	0.	95.324
5107	-1.	-2.5	0.	95.598
5108	-0.5	-3.	0.	103.13
5109	-0.5	-1.5	0.	102.17
5110	-0.5	-2.	0.	99.111
5111	-0.5	-2.5	0.	99.926
5112	-0.25	-1.	0.	102.5
5113	0.	-1.25	0.	97.826
5114	-0.75	-1.	0.	100.55
5115	-1.	-1.25	0.	94.77
5116	0.	-2.75	0.	94.69
5117	-0.25	-3.	0.	97.69
5118	-1.	-2.75	0.	93.571
5119	-0.75	-3.	0.	97.326
5120	-0.5	-1.25	0.	105.28
5121	0.	-1.75	0.	97.997
5122	-0.25	-1.5	0.	100.52
5123	0.	-2.25	0.	97.048
5124	-0.25	-2.	0.	98.081
5125	-0.25	-2.5	0.	98.489
5126	-1.	-1.75	0.	96.015
5127	-0.75	-1.5	0.	99.422
5128	-1.	-2.25	0.	95.426
5129	-0.75	-2.	0.	97.215
5130	-0.75	-2.5	0.	97.739
5131	-0.5	-2.75	0.	101.49
5132	-0.5	-1.75	0.	100.64
5133	-0.5	-2.25	0.	99.518
5134	0.	-4.	0.	93.712
5135	-1.	-4.	0.	92.241
5136	0.	-5.	0.	94.892
5137	-1.	-5.	0.	92.318
5138	-0.5	-4.	0.	104.9
5139	0.	-4.5	0.	99.012
5140	-1.	-4.5	0.	97.335
5141	-0.5	-5.	0.	107.06
5142	-0.5	-4.5	0.	104.13
5143	-0.25	-4.	0.	99.297
5144	0.	-4.25	0.	96.361
5145	-0.75	-4.	0.	98.561
5146	-1.	-4.25	0.	94.785
5147	0.	-4.75	0.	96.949
5148	-0.25	-5.	0.	100.95
5149	-1.	-4.75	0.	94.823
5150	-0.75	-5.	0.	99.678
5151	-0.5	-4.25	0.	104.47
5152	-0.25	-4.5	0.	101.56
5153	-0.75	-4.5	0.	100.71
5154	-0.5	-4.75	0.	105.56
5155	9.	8.	0.	96.924
5156	8.	8.	0.	95.897
5157	9.	6.	0.	95.667
5158	8.	6.	0.	93.552
5159	8.5	8.	0.	110.5
5160	9.	7.5	0.	101.13
5161	9.	7.	0.	99.874
5162	9.	6.5	0.	99.986
5163	8.	7.5	0.	99.962
5164	8.	7.	0.	98.377
5165	8.	6.5	0.	98.399
5166	8.5	6.	0.	106.44
5167	8.5	7.5	0.	104.9
5168	8.5	7.	0.	102.25
5169	8.5	6.5	0.	103.15
5170	8.75	8.	0.	103.66
5171	9.	7.75	0.	99.026
5172	8.25	8.	0.	103.14
5173	8.	7.75	0.	97.926
5174	9.	6.25	0.	97.824
5175	8.75	6.	0.	101.03
5176	8.	6.25	0.	95.974
5177	8.25	6.	0.	99.975
5178	8.5	7.75	0.	107.65
5179	9.	7.25	0.	100.48
5180	8.75	7.5	0.	102.96
5181	9.	6.75	0.	99.906
5182	8.75	7.	0.	101.06
5183	8.75	6.5	0.	101.54
5184	8.	7.25	0.	99.129
5185	8.25	7.5	0.	102.37
5186	8.	6.75	0.	98.354
5187	8.25	7.	0.	100.31
5188	8.25	6.5	0.	100.75
5189	8.5	6.25	0.	104.75
5190	8.5	7.25	0.	103.57
5191	8.5	6.75	0.	102.7
5192	6.	4.	0.	98.693
5193	4.	4.	0.	99.058
5194	6.	3.	0.	98.902
5195	4.	3.	0.	99.744
5196	5.5	4.	0.	115.36
5197	5.	4.	0.	114.13
5198	4.5	4.	0.	115.69
5199	6.	3.5	0.	103.73
5200	4.	3.5	0.	104.32
5201	4.5	3.	0.	116.1
5202	5.	3.	0.	114.51
5203	5.5	3.	0.	115.87
5204	4.5	3.5	0.	114.43
5205	5.	3.5	0.	117.42
5206	5.5	3.5	0.	114.06
5207	5.75	4.	0.	106.99
5208	6.	3.75	0.	101.18
5209	4.25	4.	0.	107.33
5210	4.	3.75	0.	101.67
5211	6.	3.25	0.	101.29
5212	5.75	3.	0.	107.34
5213	4.	3.25	0.	102.01
5214	4.25	3.	0.	107.88
5215	5.25	4.	0.	114.75
5216	5.5	3.75	0.	114.7
5217	4.75	4.	0.	114.91
5218	5.	3.75	0.	115.77
5219	4.5	3.75	0.	115.04
5220	5.75	3.5	0.	108.88
5221	4.25	3.5	0.	109.36
5222	4.75	3.	0.	115.3
5223	4.5	3.25	0.	115.25
5224	5.25	3.	0.	115.18
5225	5.	3.25	0.	115.96
5226	5.5	3.25	0.	114.95
5227	4.75	3.5	0.	115.92
5228	5.25	3.5	0.	115.74
5229	7.	-2.	0.	97.796
5230	5.	-2.	0.	97.986
5231	7.	-4.	0.	97.667
5232	5.	-4.	0.	95.862
5233	6.5	-2.	0.	113.73
5234	6.	-2.	0.	110.54
5235	5.5	-2.	0.	112.22
5236	7.	-2.5	0.	101.51
5237	7.	-3.	0.	99.817
5238	7.	-3.5	0.	100.91
5239	5.	-2.5	0.	102.04
5240	5.	-3.	0.	100.43
5241	5.	-3.5	0.	100.99
5242	5.5	-4.	0.	109.5
5243	6.	-4.	0.	107.57
5244	6.5	-4.	0.	110.55
5245	6.	-3.	0.	111.26
5246	6.5	-3.	0.	108.12
5247	6.5	-3.5	0.	108.39
5248	6.	-3.5	0.	110.64
5249	5.5	-3.5	0.	108.06
5250	5.5	-3.	0.	108.11
5251	5.5	-2.5	0.	109.48
5252	6.	-2.5	0.	112.37
5253	6.5	-2.5	0.	109.82
5254	6.75	-2.	0.	105.61
5255	7.	-2.25	0.	99.619
5256	5.25	-2.	0.	105.03
5257	5.	-2.25	0.	100.
5258	7.	-3.75	0.	99.281
5259	6.75	-4.	0.	104.04
5260	5.	-3.75	0.	98.414
5261	5.25	-4.	0.	102.63
5262	6.25	-2.	0.	112.13
5263	6.5	-2.25	0.	111.74
5264	5.75	-2.	0.	111.38
5265	6.	-2.25	0.	111.44
5266	5.5	-2.25	0.	110.83
5267	7.	-2.75	0.	100.63
5268	6.75	-2.5	0.	105.64
5269	7.	-3.25	0.	100.33
5270	6.75	-3.	0.	103.96
5271	6.75	-3.5	0.	104.64
5272	5.	-2.75	0.	101.2
5273	5.25	-2.5	0.	105.74
5274	5.	-3.25	0.	100.68
5275	5.25	-3.	0.	104.26
5276	5.25	-3.5	0.	104.51
5277	5.75	-4.	0.	108.53
5278	5.5	-3.75	0.	108.75
5279	6.25	-4.	0.	109.06
5280	6.	-3.75	0.	109.09
5281	6.5	-3.75	0.	109.45
5282	6.25	-3.	0.	109.68
5283	6.	-3.25	0.	110.95
5284	5.75	-3.	0.	109.68
5285	6.	-2.75	0.	111.81
5286	6.5	-3.25	0.	108.25
5287	6.5	-2.75	0.	108.96
5288	6.25	-3.5	0.	109.51
5289	5.75	-3.5	0.	109.35
5290	5.5	-3.25	0.	108.07
5291	5.5	-2.75	0.	108.78
5292	5.75	-2.5	0.	110.91
5293	6.25	-2.5	0.	111.07
5294	-7.65	2.38	0.	71.793
5295	-6.57	1.6	0.	87.784
5296	-6.44	2.93	0.	69.313
5297	-7.29	2.12	0.	97.905
5298	-6.93	1.86	0.	93.059
5299	-7.2467	2.5633	0.	105.27
5300	-6.8433	2.7467	0.	100.53
5301	-6.5267	2.0433	0.	97.335
5302	-6.4833	2.4867	0.	98.297
5303	-7.0637	2.3215	0.	101.44
5304	-6.8141	2.1403	0.	97.265
5305	-6.784	2.4484	0.	96.008
5306	-7.47	2.25	0.	79.774
5307	-7.4483	2.4717	0.	83.387
5308	-6.75	1.73	0.	88.509
5309	-6.5483	1.8217	0.	90.303
5310	-6.6417	2.8383	0.	83.573
5311	-6.4617	2.7083	0.	82.686
5312	-7.11	1.99	0.	95.376
5313	-7.1768	2.2207	0.	99.165
5314	-6.8721	2.0002	0.	95.104
5315	-7.045	2.655	0.	102.79
5316	-7.1552	2.4424	0.	102.82
5317	-6.8137	2.5975	0.	98.209
5318	-6.505	2.265	0.	97.636
5319	-6.6704	2.0918	0.	97.207
5320	-6.6337	2.4675	0.	97.147
5321	-6.9389	2.2309	0.	99.239
5322	-6.9238	2.3849	0.	98.617
5323	-6.799	2.2944	0.	96.625
5324	-5.26	-7.21	0.	78.482
5325	-6.75	-5.97	0.	93.22
5326	-7.08	-7.88	0.	71.682
5327	-5.6325	-6.9	0.	106.13
5328	-6.005	-6.59	0.	103.62
5329	-6.3775	-6.28	0.	98.715
5330	-5.715	-7.3775	0.	113.24
5331	-6.17	-7.545	0.	105.99
5332	-6.625	-7.7125	0.	107.15
5333	-6.8325	-6.4475	0.	99.014
5334	-6.915	-6.925	0.	99.022
5335	-6.9975	-7.4025	0.	101.76
5336	-6.2518	-7.2199	0.	104.53
5337	-6.621	-7.2712	0.	99.914
5338	-6.5744	-6.7587	0.	100.82
5339	-6.2025	-6.8847	0.	103.
5340	-5.9151	-7.0997	0.	108.17
5341	-5.4462	-7.055	0.	89.231
5342	-5.4875	-7.2937	0.	92.827
5343	-6.5637	-6.125	0.	94.389
5344	-6.7913	-6.2087	0.	94.34
5345	-6.8525	-7.7962	0.	88.789
5346	-7.0388	-7.6413	0.	86.225
5347	-5.8187	-6.745	0.	104.75
5348	-5.7738	-6.9998	0.	106.91
5349	-6.1912	-6.435	0.	101.16
5350	-6.1037	-6.7374	0.	103.3
5351	-6.4759	-6.5194	0.	99.72
5352	-5.9425	-7.4612	0.	109.54
5353	-5.815	-7.2386	0.	110.43
5354	-6.3975	-7.6287	0.	106.55
5355	-6.2109	-7.3824	0.	105.26
5356	-6.623	-7.4919	0.	103.51
5357	-6.8738	-6.6863	0.	98.937
5358	-6.7034	-6.6031	0.	99.845
5359	-6.9563	-7.1638	0.	100.39
5360	-6.7447	-6.8419	0.	99.918
5361	-6.8092	-7.3369	0.	100.84
5362	-6.4364	-7.2456	0.	102.21
5363	-6.2271	-7.0523	0.	103.75
5364	-6.0834	-7.1598	0.	106.29
5365	-6.5977	-7.015	0.	100.36
5366	-6.3884	-6.8217	0.	101.9
5367	-6.0588	-6.9922	0.	105.53
5368	-7.66	8.15	0.	107.51
5369	-8.92	6.7	0.	77.492
5370	-7.03	6.34	0.	69.049
5371	-7.975	7.7875	0.	100.38
5372	-8.29	7.425	0.	107.64
5373	-8.605	7.0625	0.	108.61
5374	-7.5025	7.6975	0.	100.74
5375	-7.345	7.245	0.	104.34
5376	-7.1875	6.7925	0.	106.5
5377	-8.4475	6.61	0.	121.94
5378	-7.975	6.52	0.	111.58
5379	-7.5025	6.43	0.	117.43
5380	-7.7058	7.3532	0.	106.33
5381	-8.2945	6.9155	0.	111.19
5382	-8.0498	7.1714	0.	107.83
5383	-7.5756	6.8602	0.	105.68
5384	-7.9461	6.8521	0.	110.6
5385	-7.8175	7.9688	0.	102.57
5386	-7.5813	7.9237	0.	102.53
5387	-8.7625	6.8812	0.	91.032
5388	-8.6838	6.655	0.	97.446
5389	-7.1087	6.5662	0.	87.537
5390	-7.2663	6.385	0.	92.992
5391	-8.1325	7.6062	0.	104.
5392	-7.8404	7.5704	0.	103.33
5393	-8.4475	7.2438	0.	108.08
5394	-8.1699	7.2982	0.	107.7
5395	-8.4497	6.989	0.	109.79
5396	-7.4237	7.4713	0.	102.42
5397	-7.6042	7.5254	0.	103.47
5398	-7.2663	7.0188	0.	105.41
5399	-7.5254	7.2991	0.	105.33
5400	-7.3815	6.8264	0.	106.07
5401	-8.2113	6.565	0.	116.73
5402	-8.371	6.7627	0.	116.35
5403	-7.7387	6.475	0.	114.49
5404	-7.9606	6.686	0.	111.09
5405	-7.539	6.6451	0.	111.55
5406	-7.8778	7.2623	0.	107.07
5407	-7.6407	7.1067	0.	105.95
5408	-8.1721	7.0434	0.	109.45
5409	-8.1203	6.8838	0.	110.81
5410	-7.9979	7.0117	0.	109.2
5411	-7.7609	6.8561	0.	108.11
5412	-0.51	-6.55	0.	89.466
5413	-1.42	-7.23	0.	62.406
5414	-0.38	-7.67	0.	71.812
5415	-0.965	-6.89	0.	88.067
5416	-0.445	-7.11	0.	99.232
5417	-0.9	-7.45	0.	103.51
5418	-0.76982	-7.1502	0.	99.446
5419	-0.7375	-6.72	0.	87.263
5420	-0.4775	-6.83	0.	92.525
5421	-1.1925	-7.06	0.	70.319
5422	-1.16	-7.34	0.	78.24
5423	-0.4125	-7.39	0.	84.717
5424	-0.64	-7.56	0.	86.293
5425	-0.86741	-7.0201	0.	92.892
5426	-0.60741	-7.1301	0.	99.294
5427	-0.83491	-7.3001	0.	100.77
5428	-1.58	8.03	0.	58.268
5429	-2.38	8.78	0.	98.652
5430	-2.63	7.71	0.	64.464
5431	-1.98	8.405	0.	83.887
5432	-2.105	7.87	0.	109.33
5433	-2.505	8.245	0.	98.833
5434	-2.1966	8.1734	0.	100.57
5435	-1.78	8.2175	0.	66.644
5436	-1.8425	7.95	0.	80.044
5437	-2.18	8.5925	0.	90.418
5438	-2.4425	8.5125	0.	96.681
5439	-2.3675	7.79	0.	85.878
5440	-2.5675	7.9775	0.	81.216
5441	-2.0883	8.2892	0.	91.578
5442	-2.1508	8.0217	0.	104.42
5443	-2.3508	8.2092	0.	99.524
5444	-0.85	2.18	0.	72.568
5445	-2.72	1.82	0.	78.469
5446	-1.48	0.38	0.	97.917
5447	-1.3175	2.09	0.	105.53
5448	-1.785	2.	0.	105.88
5449	-2.2525	1.91	0.	113.48
5450	-1.0075	1.73	0.	99.725
5451	-1.165	1.28	0.	99.482
5452	-1.3225	0.83	0.	96.169
5453	-2.41	1.46	0.	108.46
5454	-2.1	1.1	0.	102.78
5455	-1.79	0.74	0.	97.304
5456	-2.0663	1.5344	0.	105.17
5457	-1.5955	1.568	0.	101.38
5458	-1.6698	1.0805	0.	102.09
5459	-1.0838	2.135	0.	88.929
5460	-0.92875	1.955	0.	86.009
5461	-2.4862	1.865	0.	94.547
5462	-2.565	1.64	0.	92.096
5463	-1.4013	0.605	0.	95.966
5464	-1.635	0.56	0.	96.479
5465	-1.5512	2.045	0.	105.69
5466	-1.1625	1.91	0.	102.59
5467	-1.4565	1.829	0.	103.43
5468	-2.0187	1.955	0.	109.66
5469	-1.6902	1.784	0.	103.63
5470	-2.1594	1.7222	0.	109.18
5471	-1.0862	1.505	0.	99.59
5472	-1.2437	1.055	0.	97.718
5473	-1.3802	1.424	0.	100.42
5474	-1.4961	0.95523	0.	99.098
5475	-2.255	1.28	0.	105.58
5476	-2.2381	1.4972	0.	106.73
5477	-1.945	0.92	0.	100.03
5478	-2.0831	1.3172	0.	103.97
5479	-1.8849	1.0902	0.	102.41
5480	-1.7299	0.91023	0.	99.647
5481	-1.8309	1.5512	0.	103.21
5482	-1.6326	1.3242	0.	101.73
5483	8.16	0.13	0.	90.849
5484	7.27	-0.53	0.	65.27
5485	8.28	-0.97	0.	76.941
5486	7.715	-0.2	0.	92.514
5487	8.22	-0.42	0.	105.64
5488	7.775	-0.75	0.	106.31
5489	7.9033	-0.45684	0.	104.65
5490	7.9375	-3.5e-002	0.	89.893
5491	8.19	-0.145	0.	96.116
5492	7.4925	-0.365	0.	73.348
5493	7.5225	-0.64	0.	80.469
5494	8.25	-0.695	0.	90.251
5495	8.0275	-0.86	0.	90.042
5496	7.8092	-0.32842	0.	97.671
5497	8.0617	-0.43842	0.	105.12
5498	7.8392	-0.60342	0.	104.67
5499	4.6	-6.42	0.	56.329
5500	5.14	-7.75	0.	104.96
5501	6.02	-6.62	0.	60.078
5502	4.78	-6.8633	0.	98.077
5503	4.96	-7.3067	0.	93.074
5504	5.0733	-6.4867	0.	109.76
5505	5.5467	-6.5533	0.	109.45
5506	5.4333	-7.3733	0.	88.495
5507	5.7267	-6.9967	0.	93.418
5508	5.2271	-7.1196	0.	99.134
5509	5.1023	-6.8121	0.	97.2
5510	5.4306	-6.8583	0.	99.504
5511	4.69	-6.6417	0.	77.08
5512	4.8367	-6.4533	0.	82.871
5513	5.05	-7.5283	0.	97.044
5514	5.2867	-7.5617	0.	95.376
5515	5.7833	-6.5867	0.	82.145
5516	5.8733	-6.8083	0.	74.196
5517	4.87	-7.085	0.	95.444
5518	4.9411	-6.8377	0.	97.602
5519	5.0936	-7.2131	0.	95.993
5520	5.31	-6.52	0.	109.47
5521	5.0878	-6.6494	0.	103.45
5522	5.4886	-6.7058	0.	104.2
5523	5.58	-7.185	0.	90.869
5524	5.3302	-7.2465	0.	93.806
5525	5.5786	-6.9275	0.	96.263
5526	5.1647	-6.9658	0.	98.126
5527	5.3289	-6.989	0.	99.229
5528	5.2664	-6.8352	0.	98.25
5529	8.91	4.25	0.	61.294
5530	7.92	4.54	0.	63.449
5531	8.17	3.54	0.	98.434
5532	8.415	4.395	0.	110.5
5533	8.54	3.895	0.	84.122
5534	8.045	4.04	0.	97.741
5535	8.3334	4.1099	0.	100.14
5536	8.6625	4.3225	0.	82.59
5537	8.725	4.0725	0.	68.606
5538	8.1675	4.4675	0.	86.064
5539	7.9825	4.29	0.	80.239
5540	8.355	3.7175	0.	90.399
5541	8.1075	3.79	0.	96.061
5542	8.3742	4.2524	0.	104.84
5543	8.4367	4.0024	0.	91.483
5544	8.1892	4.0749	0.	98.756
5545	-6.	-1.	0.	93.864
5546	-7.	-1.	0.	93.002
5547	-6.	-3.	0.	93.274
5548	-7.	-3.	0.	93.57
5549	-6.5	-1.	0.	106.93
5550	-6.	-1.5	0.	97.689
5551	-6.	-2.	0.	96.653
5552	-6.	-2.5	0.	97.487
5553	-7.	-1.5	0.	97.452
5554	-7.	-2.	0.	96.588
5555	-7.	-2.5	0.	97.566
5556	-6.5	-3.	0.	106.88
5557	-6.5	-1.5	0.	101.74
5558	-6.5	-2.	0.	99.718
5559	-6.5	-2.5	0.	101.71
5560	-6.25	-1.	0.	100.35
5561	-6.	-1.25	0.	95.773
5562	-6.75	-1.	0.	99.923
5563	-7.	-1.25	0.	95.224
5564	-6.	-2.75	0.	95.377
5565	-6.25	-3.	0.	100.03
5566	-7.	-2.75	0.	95.565
5567	-6.75	-3.	0.	100.18
5568	-6.5	-1.25	0.	104.29
5569	-6.	-1.75	0.	97.138
5570	-6.25	-1.5	0.	99.672
5571	-6.	-2.25	0.	97.036
5572	-6.25	-2.	0.	98.185
5573	-6.25	-2.5	0.	99.558
5574	-7.	-1.75	0.	96.983
5575	-6.75	-1.5	0.	99.555
5576	-7.	-2.25	0.	97.04
5577	-6.75	-2.	0.	98.152
5578	-6.75	-2.5	0.	99.595
5579	-6.5	-2.75	0.	104.25
5580	-6.5	-1.75	0.	100.73
5581	-6.5	-2.25	0.	100.71
