Node Number	X Location (mm)	Y Location (mm)	Z Location (mm)	Equivalent (von-Mises) Stress (MPa)
1	5.81	-6.18	0.	150.88
2	4.84	-5.74	0.	152.7
3	4.94	-6.8	0.	137.85
4	5.96	-2.28	0.	161.52
5	5.54	-0.93	0.	117.32
6	4.57	-1.97	0.	174.28
7	4.6	5.05	0.	165.79
8	6.4	5.42	0.	162.42
9	5.18	6.8	0.	124.35
10	-1.75	-1.73	0.	146.6
11	-1.65	-3.5	0.	134.93
12	-0.17	-2.54	0.	158.95
13	-0.42	4.53	0.	159.66
14	0.98	4.88	0.	175.02
15	-3.e-002	5.92	0.	116.72
16	-1.09	0.29	0.	100.11
17	-0.61	1.23	0.	166.55
18	-1.67	1.18	0.	168.36
19	-7.25	8.82	0.	139.38
20	-8.48	8.11	0.	148.5
21	-7.25	7.39	0.	129.61
22	-5.35	-7.12	0.	157.25
23	-6.66	-6.19	0.	144.14
24	-6.81	-7.78	0.	153.58
25	-7.67	0.61	0.	150.3
26	-6.49	1.18	0.	159.57
27	-7.57	1.92	0.	139.53
28	7.	9.	0.	136.91
29	7.	8.	0.	138.23
30	9.	9.	0.	139.71
31	9.	8.	0.	138.08
32	6.	4.	0.	130.83
33	6.	2.	0.	132.32
34	8.	4.	0.	138.65
35	8.	2.	0.	136.97
36	1.	-8.	0.	135.58
37	1.	-9.	0.	134.89
38	2.	-8.	0.	135.43
39	2.	-9.	0.	134.52
40	-2.	-6.	0.	132.65
41	-2.	-8.	0.	133.43
42	0.	-6.	0.	131.16
43	0.	-8.	0.	133.86
44	-8.	-4.	0.	134.93
45	-8.	-5.	0.	136.96
46	-7.	-4.	0.	130.3
47	-7.	-5.	0.	133.98
48	-9.	6.	0.	138.01
49	-9.	5.	0.	137.53
50	-7.	6.	0.	132.19
51	-7.	5.	0.	132.86
52	10.	10.	0.	125.52
53	-10.	10.	0.	125.09
54	10.	-10.	0.	127.57
55	-10.	-10.	0.	132.25
56	5.325	-5.96	0.	82.23
57	5.375	-6.49	0.	65.74
58	4.89	-6.27	0.	145.09
59	5.82	-1.83	0.	135.05
60	5.68	-1.38	0.	127.94
61	5.4967	-2.1767	0.	106.55
62	5.0333	-2.0733	0.	95.108
63	5.2167	-1.2767	0.	86.534
64	4.8933	-1.6233	0.	82.098
65	5.05	5.1425	0.	114.25
66	5.5	5.235	0.	118.8
67	5.95	5.3275	0.	98.675
68	4.745	5.4875	0.	139.21
69	4.89	5.925	0.	137.3
70	5.035	6.3625	0.	129.34
71	6.095	5.765	0.	96.583
72	5.79	6.11	0.	107.61
73	5.485	6.455	0.	98.601
74	-1.725	-2.1725	0.	142.03
75	-1.7	-2.615	0.	140.92
76	-1.675	-3.0575	0.	138.33
77	-1.355	-1.9325	0.	95.242
78	-0.96	-2.135	0.	101.22
79	-0.565	-2.3375	0.	78.567
80	-1.2801	-3.2601	0.	91.381
81	-0.91021	-3.0201	0.	98.432
82	-0.54013	-2.7801	0.	76.335
83	4.6667e-002	4.6467	0.	105.82
84	0.51333	4.7633	0.	95.671
85	-0.29	4.9933	0.	136.1
86	-0.16	5.4567	0.	128.29
87	0.64333	5.2267	0.	79.5
88	0.30667	5.5733	0.	86.536
89	-0.85	0.76	0.	108.16
90	-1.38	0.735	0.	90.544
91	-1.14	1.205	0.	100.93
92	-7.66	8.5833	0.	101.74
93	-8.07	8.3467	0.	92.994
94	-7.25	8.3433	0.	143.44
95	-7.25	7.8667	0.	142.1
96	-8.07	7.87	0.	95.067
97	-7.66	7.63	0.	102.45
98	-5.7867	-6.81	0.	81.606
99	-6.2233	-6.5	0.	89.974
100	-5.8367	-7.34	0.	89.778
101	-6.3233	-7.56	0.	101.17
102	-6.71	-6.72	0.	142.99
103	-6.76	-7.25	0.	144.63
104	-7.2767	0.8	0.	97.765
105	-6.8833	0.99	0.	77.922
106	-7.6367	1.0467	0.	145.71
107	-7.6033	1.4833	0.	141.75
108	-6.85	1.4267	0.	72.309
109	-7.21	1.6733	0.	89.894
110	7.	8.5	0.	145.59
111	7.5	9.	0.	121.64
112	8.	9.	0.	128.87
113	8.5	9.	0.	122.72
114	7.5	8.	0.	120.96
115	8.	8.	0.	127.32
116	8.5	8.	0.	122.31
117	9.	8.5	0.	149.07
118	6.	3.5	0.	137.94
119	6.	3.	0.	140.29
120	6.	2.5	0.	139.78
121	6.5	4.	0.	115.22
122	7.	4.	0.	122.
123	7.5	4.	0.	117.87
124	6.5	2.	0.	112.04
125	7.	2.	0.	117.89
126	7.5	2.	0.	114.93
127	8.	3.5	0.	147.39
128	8.	3.	0.	148.32
129	8.	2.5	0.	146.66
130	1.	-8.5	0.	146.37
131	1.5	-8.	0.	112.
132	1.5	-9.	0.	112.65
133	2.	-8.5	0.	144.56
134	-2.	-6.5	0.	141.11
135	-2.	-7.	0.	142.43
136	-2.	-7.5	0.	141.56
137	-1.5	-6.	0.	110.12
138	-1.	-6.	0.	114.07
139	-0.5	-6.	0.	110.62
140	-1.5	-8.	0.	111.14
141	-1.	-8.	0.	115.14
142	-0.5	-8.	0.	110.96
143	0.	-6.5	0.	141.61
144	0.	-7.	0.	144.43
145	0.	-7.5	0.	144.29
146	-8.	-4.5	0.	145.04
147	-7.5	-4.	0.	110.72
148	-7.5	-5.	0.	114.22
149	-7.	-4.5	0.	139.8
150	-9.	5.5	0.	147.69
151	-8.5	6.	0.	117.14
152	-8.	6.	0.	119.06
153	-7.5	6.	0.	113.17
154	-8.5	5.	0.	117.22
155	-8.	5.	0.	120.36
156	-7.5	5.	0.	114.19
157	-7.	5.5	0.	141.26
158	9.5	10.	0.	124.83
159	9.	10.	0.	122.25
160	8.5	10.	0.	119.18
161	8.	10.	0.	117.5
162	7.5	10.	0.	119.28
163	7.	10.	0.	122.76
164	6.5	10.	0.	126.36
165	6.	10.	0.	126.72
166	5.5	10.	0.	125.52
167	5.	10.	0.	125.
168	4.5	10.	0.	125.08
169	4.	10.	0.	125.52
170	3.5	10.	0.	125.99
171	3.	10.	0.	126.28
172	2.5	10.	0.	126.3
173	2.	10.	0.	126.09
174	1.5	10.	0.	125.73
175	1.	10.	0.	125.35
176	0.5	10.	0.	125.05
177	-5.2042e-015	10.	0.	124.94
178	-0.5	10.	0.	125.03
179	-1.	10.	0.	125.27
180	-1.5	10.	0.	125.61
181	-2.	10.	0.	125.97
182	-2.5	10.	0.	126.31
183	-3.	10.	0.	126.61
184	-3.5	10.	0.	126.89
185	-4.	10.	0.	127.16
186	-4.5	10.	0.	127.47
187	-5.	10.	0.	127.85
188	-5.5	10.	0.	128.25
189	-6.	10.	0.	128.47
190	-6.5	10.	0.	126.65
191	-7.	10.	0.	122.89
192	-7.5	10.	0.	119.5
193	-8.	10.	0.	119.71
194	-8.5	10.	0.	122.22
195	-9.	10.	0.	124.52
196	-9.5	10.	0.	125.14
197	10.	9.5	0.	123.45
198	10.	9.	0.	119.69
199	10.	8.5	0.	118.03
200	10.	8.	0.	125.55
201	10.	7.5	0.	132.62
202	10.	7.	0.	133.98
203	10.	6.5	0.	132.52
204	10.	6.	0.	131.46
205	10.	5.5	0.	131.16
206	10.	5.	0.	130.99
207	10.	4.5	0.	130.18
208	10.	4.	0.	128.64
209	10.	3.5	0.	127.23
210	10.	3.	0.	127.04
211	10.	2.5	0.	128.38
212	10.	2.	0.	130.84
213	10.	1.5	0.	133.17
214	10.	1.	0.	134.23
215	10.	0.5	0.	133.76
216	10.	-5.2042e-015	0.	132.31
217	10.	-0.5	0.	130.52
218	10.	-1.	0.	128.88
219	10.	-1.5	0.	127.66
220	10.	-2.	0.	127.01
221	10.	-2.5	0.	126.87
222	10.	-3.	0.	127.04
223	10.	-3.5	0.	127.28
224	10.	-4.	0.	127.38
225	10.	-4.5	0.	127.25
226	10.	-5.	0.	126.91
227	10.	-5.5	0.	126.49
228	10.	-6.	0.	126.16
229	10.	-6.5	0.	126.04
230	10.	-7.	0.	126.15
231	10.	-7.5	0.	126.44
232	10.	-8.	0.	126.79
233	10.	-8.5	0.	127.13
234	10.	-9.	0.	127.38
235	10.	-9.5	0.	127.53
236	-10.	9.5	0.	124.5
237	-10.	9.	0.	123.24
238	-10.	8.5	0.	121.9
239	-10.	8.	0.	123.21
240	-10.	7.5	0.	129.29
241	-10.	7.	0.	135.67
242	-10.	6.5	0.	137.4
243	-10.	6.	0.	132.43
244	-10.	5.5	0.	127.39
245	-10.	5.	0.	131.65
246	-10.	4.5	0.	136.71
247	-10.	4.	0.	137.04
248	-10.	3.5	0.	134.56
249	-10.	3.	0.	131.75
250	-10.	2.5	0.	128.62
251	-10.	2.	0.	125.3
252	-10.	1.5	0.	122.87
253	-10.	1.	0.	122.61
254	-10.	0.5	0.	124.55
255	-10.	-5.2042e-015	0.	127.28
256	-10.	-0.5	0.	129.37
257	-10.	-1.	0.	130.44
258	-10.	-1.5	0.	130.89
259	-10.	-2.	0.	131.16
260	-10.	-2.5	0.	131.32
261	-10.	-3.	0.	131.08
262	-10.	-3.5	0.	130.09
263	-10.	-4.	0.	128.67
264	-10.	-4.5	0.	127.8
265	-10.	-5.	0.	128.05
266	-10.	-5.5	0.	128.51
267	-10.	-6.	0.	128.23
268	-10.	-6.5	0.	127.29
269	-10.	-7.	0.	126.61
270	-10.	-7.5	0.	126.85
271	-10.	-8.	0.	128.01
272	-10.	-8.5	0.	129.58
273	-10.	-9.	0.	131.01
274	-10.	-9.5	0.	131.94
275	-9.5	-10.	0.	130.76
276	-9.	-10.	0.	130.04
277	-8.5	-10.	0.	129.31
278	-8.	-10.	0.	127.85
279	-7.5	-10.	0.	125.21
280	-7.	-10.	0.	121.91
281	-6.5	-10.	0.	119.7
282	-6.	-10.	0.	120.14
283	-5.5	-10.	0.	123.12
284	-5.	-10.	0.	127.03
285	-4.5	-10.	0.	130.25
286	-4.	-10.	0.	132.01
287	-3.5	-10.	0.	132.14
288	-3.	-10.	0.	130.49
289	-2.5	-10.	0.	126.96
290	-2.	-10.	0.	122.15
291	-1.5	-10.	0.	118.02
292	-1.	-10.	0.	116.72
293	-0.5	-10.	0.	119.2
294	5.2042e-015	-10.	0.	124.32
295	0.5	-10.	0.	126.76
296	1.	-10.	0.	121.14
297	1.5	-10.	0.	116.75
298	2.	-10.	0.	122.82
299	2.5	-10.	0.	131.37
300	3.	-10.	0.	132.78
301	3.5	-10.	0.	130.62
302	4.	-10.	0.	128.21
303	4.5	-10.	0.	126.12
304	5.	-10.	0.	124.69
305	5.5	-10.	0.	124.1
306	6.	-10.	0.	124.31
307	6.5	-10.	0.	124.98
308	7.	-10.	0.	125.75
309	7.5	-10.	0.	126.36
310	8.	-10.	0.	126.76
311	8.5	-10.	0.	126.98
312	9.	-10.	0.	127.12
313	9.5	-10.	0.	127.28
314	2.6393	6.1534	0.	128.06
315	2.251	-0.81972	0.	128.62
316	-3.4581	5.5309	0.	124.94
317	-2.9736	6.0538	0.	124.89
318	-2.4891	6.0872	0.	125.05
319	-4.0306	3.4543	0.	128.56
320	2.3651	-0.38061	0.	129.15
321	2.5256	0.57102	0.	129.05
322	2.4604	8.6464e-002	0.	129.27
323	-4.5559	-2.1199	0.	127.61
324	-3.4495	5.0308	0.	125.19
325	-3.4703	6.0313	0.	125.05
326	-3.9924	3.9987	0.	127.59
327	-3.9638	5.516	0.	125.42
328	2.9973	1.0558	0.	129.05
329	2.5693	2.1122	0.	129.11
330	2.051	0.62996	0.	128.24
331	2.7979	-0.49216	0.	129.4
332	-2.4961	6.5747	0.	125.71
333	-4.072	-2.5985	0.	127.4
334	2.8742	-3.9865	0.	130.52
335	3.0509	2.6018	0.	129.44
336	-4.5513	-2.597	0.	127.34
337	-4.5738	3.5276	0.	128.94
338	-3.8694	2.993	0.	128.85
339	-3.4699	3.5257	0.	127.98
340	2.397	-4.4781	0.	130.33
341	2.3856	-3.9951	0.	130.25
342	-4.515	-0.7159	0.	129.49
343	-4.2736	3.0022	0.	129.1
344	-3.8873	2.537	0.	128.74
345	-2.957	5.5569	0.	124.48
346	-3.4518	4.5288	0.	125.91
347	-3.4675	4.0249	0.	126.96
348	-3.9679	6.0144	0.	125.39
349	-4.0348	-0.25893	0.	129.5
350	-3.9717	4.5132	0.	126.57
351	-3.9637	5.0169	0.	125.8
352	3.023	2.088	0.	128.92
353	3.0011	1.5756	0.	128.81
354	2.5305	1.08	0.	128.72
355	1.9273	-0.30085	0.	128.99
356	1.9989	0.15702	0.	128.69
357	3.0491	0.50447	0.	129.59
358	2.9176	-1.0971e-002	0.	129.83
359	-3.4781	6.5285	0.	125.27
360	-2.9867	6.5497	0.	125.34
361	2.1687	6.1472	0.	128.68
362	2.6466	-0.95669	0.	128.34
363	-2.016	6.5971	0.	126.44
364	-2.008	5.6619	0.	124.39
365	3.4099	-3.9939	0.	130.21
366	-3.5953	-2.5999	0.	127.1
367	3.0464	6.0909	0.	127.96
368	3.0892	3.1139	0.	130.28
369	2.6439	3.6663	0.	131.35
370	2.835	-3.5022	0.	130.
371	-5.5281	-2.0906	0.	126.11
372	1.9176	-4.4968	0.	130.32
373	-3.4263	2.5512	0.	128.91
374	-3.4276	3.0386	0.	128.7
375	2.8778	-4.4585	0.	130.52
376	1.9065	-4.0087	0.	130.07
377	-4.9763	-0.71272	0.	129.15
378	-4.6951	3.0537	0.	129.49
379	-4.3379	2.5483	0.	128.92
380	-2.4639	5.5966	0.	124.19
381	2.4628	-1.415	0.	127.26
382	2.3741	-3.5044	0.	129.45
383	2.7157	6.6106	0.	129.
384	3.2442	-0.62173	0.	129.86
385	1.4488	-0.72498	0.	129.37
386	2.4141	-4.9615	0.	129.57
387	-3.9196	2.0696	0.	128.02
388	1.5828	0.67335	0.	127.18
389	3.5311	2.5734	0.	128.4
390	-3.9721	6.5119	0.	125.49
391	-4.5385	-3.0855	0.	127.57
392	2.6273	3.1495	0.	130.87
393	-2.9328	5.0588	0.	124.47
394	-4.0804	-2.1278	0.	127.75
395	-4.0505	-0.71909	0.	129.97
396	-3.9972	-4.4013	0.	131.5
397	-4.029	-3.5488	0.	129.05
398	-3.9813	-3.9924	0.	130.44
399	1.8191	6.7206	0.	128.77
400	-2.9302	4.559	0.	125.11
401	-4.451	-4.1389	0.	129.46
402	-4.5122	-3.5915	0.	128.24
403	-4.487	4.5155	0.	127.07
404	-4.4747	5.0124	0.	126.26
405	-4.4679	6.4996	0.	126.03
406	3.5068	2.0706	0.	128.22
407	3.4911	1.5742	0.	128.41
408	1.4803	-0.25984	0.	128.94
409	1.533	0.20355	0.	128.05
410	3.4938	0.23393	0.	129.88
411	3.3678	-0.17109	0.	130.28
412	1.9297	7.1498	0.	128.19
413	2.4887	7.0758	0.	129.09
414	-3.9429	1.5959	0.	127.08
415	-3.9998	0.66014	0.	127.19
416	-3.9707	1.1258	0.	126.65
417	2.379	-3.0038	0.	128.19
418	2.379	-2.4926	0.	127.01
419	2.3124	-1.9381	0.	126.65
420	2.2758	5.6567	0.	127.19
421	-2.0104	7.0784	0.	126.47
422	-2.5011	7.0608	0.	125.98
423	-3.9743	7.0091	0.	125.52
424	-4.7811	2.5769	0.	129.45
425	1.4285	-4.0201	0.	130.06
426	1.4576	-1.1888	0.	128.98
427	3.3514	-4.4541	0.	130.34
428	1.4376	-4.5094	0.	130.41
429	-5.5292	-2.5725	0.	126.21
430	5.0984	-3.6012	0.	115.82
431	2.8596	-2.9992	0.	129.08
432	-3.0965	0.57165	0.	126.77
433	3.5661	3.082	0.	129.18
434	1.7343	5.9763	0.	129.72
435	-1.5785	5.6715	0.	125.02
436	1.9346	-4.9868	0.	129.61
437	2.4444	-5.4501	0.	128.08
438	1.8988	-3.5174	0.	128.99
439	1.8793	-1.6871	0.	127.23
440	6.9761	0.51492	0.	119.16
441	3.976	0.6212	0.	128.4
442	3.7159	-0.73673	0.	130.84
443	-4.214	-5.2384	0.	132.73
444	0.98785	-0.69749	0.	129.85
445	3.0342	-6.2862	0.	126.42
446	2.8883	-4.9316	0.	129.86
447	0.46776	3.1533	0.	119.41
448	1.2762	2.1542	0.	126.84
449	1.1092	0.7018	0.	125.81
450	-4.0904	-4.8226	0.	132.25
451	3.9828	1.0867	0.	128.02
452	4.0208	2.5512	0.	126.95
453	-4.9589	6.9867	0.	126.9
454	-7.0265	-1.4095	0.	120.36
455	-5.026	-3.0816	0.	127.01
456	-5.0437	-4.5723	0.	127.55
457	3.0916	-1.0739	0.	128.25
458	6.9109	-4.2551	0.	128.21
459	5.475	-4.1231	0.	116.74
460	2.8013	5.6959	0.	126.88
461	-1.5248	7.0877	0.	126.74
462	-3.5532	0.17129	0.	128.56
463	-3.5643	-0.27929	0.	130.05
464	-3.5351	-4.4971	0.	132.73
465	-3.5483	-3.5435	0.	129.58
466	-3.523	-4.0169	0.	131.44
467	-3.6029	-1.1904	0.	130.38
468	-3.612	-1.6572	0.	129.03
469	1.2777	6.3455	0.	128.41
470	1.3396	6.761	0.	127.09
471	2.719	4.6713	0.	128.35
472	2.9283	-1.5226	0.	126.77
473	3.6662	-3.606	0.	129.77
474	4.0859	-3.771	0.	126.96
475	-4.9974	-4.0797	0.	127.25
476	-5.0084	-3.5796	0.	127.1
477	-6.532	-2.0166	0.	122.38
478	-7.0259	-1.9618	0.	120.74
479	-6.5281	3.0512	0.	122.63
480	-4.9982	4.5237	0.	127.41
481	-4.9837	5.0144	0.	126.53
482	-4.9654	6.491	0.	127.
483	3.9918	1.567	0.	127.64
484	1.1681	1.1784	0.	125.51
485	1.2275	1.6623	0.	126.12
486	-1.9676	3.1036	0.	125.84
487	-3.475	1.0931	0.	126.32
488	5.008	-4.0312	0.	117.39
489	4.5445	-3.9094	0.	121.97
490	2.9243	-5.3985	0.	128.5
491	2.9689	-5.8612	0.	127.01
492	6.4324	-4.2401	0.	125.39
493	5.9511	-4.1884	0.	120.54
494	1.0571	0.23447	0.	127.31
495	-4.6475	-5.1374	0.	131.4
496	-5.0988	-5.0582	0.	128.52
497	3.9336	0.1642	0.	129.21
498	3.838	-0.28566	0.	130.68
499	3.142	6.8201	0.	129.68
500	1.8508	-2.111	0.	126.6
501	1.8871	-2.5501	0.	126.59
502	-6.3051	-0.66702	0.	124.41
503	-5.8851	-0.70088	0.	127.1
504	-5.6126	3.0923	0.	129.5
505	-6.0718	3.0859	0.	127.36
506	-4.469	0.67717	0.	127.21
507	-4.4479	1.1438	0.	126.65
508	-4.4201	1.6131	0.	127.05
509	-6.5437	2.5004	0.	123.84
510	4.2233	-0.83649	0.	131.18
511	1.2766	5.9353	0.	130.13
512	-3.4062	-7.0563	0.	127.69
513	1.9609	-5.4828	0.	127.99
514	2.7594	5.1724	0.	126.79
515	3.0015	7.6415	0.	129.22
516	2.4841	7.5922	0.	128.59
517	1.9699	7.6107	0.	127.53
518	1.4587	7.6306	0.	125.87
519	0.96391	7.6517	0.	123.66
520	0.48511	7.6705	0.	121.89
521	2.4401e-002	7.6801	0.	121.48
522	-0.44865	7.5228	0.	122.47
523	-0.99214	7.5546	0.	124.9
524	-1.5035	7.564	0.	125.97
525	-2.0035	7.5595	0.	126.16
526	-2.4993	7.5476	0.	125.96
527	-2.993	7.5331	0.	125.67
528	-3.4854	7.5189	0.	125.46
529	-3.9766	7.5067	0.	125.42
530	-4.4659	7.4958	0.	125.61
531	-4.9531	7.4854	0.	126.16
532	-5.4377	7.4744	0.	127.14
533	-2.6501	-2.6053	0.	127.11
534	4.0458	3.0531	0.	127.35
535	4.5321	3.0271	0.	125.41
536	5.0216	3.0054	0.	125.36
537	6.9824	1.0055	0.	115.62
538	-2.9386	-7.0397	0.	129.39
539	3.9392	5.9762	0.	130.75
540	3.5084	7.6972	0.	129.51
541	-7.0024	-0.82688	0.	119.06
542	-7.5182	-1.9497	0.	120.65
543	-7.5218	-1.4182	0.	120.49
544	-6.986	3.088	0.	117.56
545	-3.0987	-3.0767	0.	127.74
546	-1.0168	-4.9417	0.	109.47
547	-3.0529	-4.5485	0.	132.88
548	-3.137	-2.1357	0.	127.38
549	-3.085	0.13573	0.	128.76
550	-3.0826	-0.30625	0.	130.73
551	2.1797	3.6909	0.	131.92
552	1.8286	5.6099	0.	127.82
553	3.144	4.1268	0.	131.33
554	3.3281	5.582	0.	127.49
555	3.5924	3.5868	0.	130.7
556	6.932	-3.7926	0.	128.55
557	5.5067	-3.6812	0.	115.85
558	7.1595	-1.8686	0.	123.34
559	7.4474	-3.2891	0.	129.1
560	2.9264	-2.4604	0.	127.47
561	3.5635	-1.1735	0.	128.77
562	4.6814	-3.4605	0.	120.67
563	3.3284	-3.0637	0.	130.26
564	-5.5215	-3.061	0.	126.44
565	-7.5135	-2.4711	0.	120.02
566	-6.0247	-2.5438	0.	124.97
567	-5.5251	4.0452	0.	128.49
568	-5.4531	6.979	0.	128.59
569	-5.482	5.5038	0.	126.45
570	4.4767	1.0578	0.	126.87
571	4.5141	2.5305	0.	125.75
572	-3.6224	-4.9861	0.	133.18
573	1.4511	-5.0017	0.	129.94
574	-0.52173	-4.4501	0.	114.89
575	0.95542	-4.5151	0.	129.91
576	2.4909	-5.9515	0.	126.44
577	1.9959	-5.9859	0.	125.87
578	0.82674	2.148	0.	125.85
579	0.40459	2.6496	0.	122.92
580	-2.4787	2.5893	0.	128.85
581	-2.9782	2.0688	0.	129.14
582	3.9388	-4.2235	0.	128.21
583	3.3472	-4.9026	0.	130.38
584	3.49	-6.2592	0.	126.23
585	7.4949	0.52139	0.	121.13
586	7.5015	3.3724e-002	0.	123.08
587	7.5189	-0.44955	0.	124.17
588	7.549	-0.93064	0.	124.07
589	7.5879	-1.411	0.	123.64
590	7.619	-1.8891	0.	123.96
591	7.641	-2.3651	0.	125.67
592	7.6347	-2.8308	0.	127.63
593	7.4063	-4.4436	0.	128.89
594	7.5428	-5.0009	0.	128.21
595	7.6209	-5.5176	0.	126.94
596	7.6722	-6.0137	0.	125.92
597	7.7272	-6.4844	0.	125.84
598	7.4594	-7.5263	0.	127.61
599	6.9585	-7.5627	0.	128.42
600	6.469	-7.5837	0.	128.51
601	3.0497	-6.6827	0.	127.24
602	5.4258	-4.5747	0.	115.97
603	6.9506	-4.6756	0.	128.66
604	7.0944	-5.1107	0.	128.62
605	-2.6905	0.56353	0.	126.18
606	0.62679	0.71903	0.	124.49
607	-4.2763	-5.6512	0.	132.92
608	-3.4219	-7.5524	0.	128.38
609	4.4546	0.57617	0.	126.35
610	6.4575	0.503	0.	119.45
611	6.9767	2.829e-002	0.	122.39
612	7.0995	-1.3951	0.	123.35
613	3.5804	6.4382	0.	129.95
614	3.9726	7.752	0.	128.83
615	0.5144	-0.67255	0.	129.55
616	0.97745	-1.1646	0.	130.09
617	0.95121	-4.0256	0.	129.92
618	1.4217	-1.6511	0.	127.97
619	1.421	-3.5317	0.	128.84
620	-5.4099	-0.24879	0.	129.78
621	-6.618	-0.45063	0.	121.36
622	-5.2228	2.6002	0.	130.17
623	-4.9494	0.21894	0.	128.81
624	-4.8431	2.102	0.	128.58
625	7.4519	6.0905	0.	119.89
626	7.5168	6.5699	0.	122.03
627	-4.9413	0.68734	0.	127.35
628	-4.927	1.1568	0.	126.17
629	-5.6628	2.6224	0.	130.35
630	-6.2441	-0.2677	0.	126.61
631	-5.8436	-0.24758	0.	129.11
632	1.399	-2.5778	0.	125.71
633	0.475	-4.0251	0.	128.39
634	0.50947	-1.1411	0.	130.13
635	3.5884	7.2769	0.	130.45
636	3.6192	6.8584	0.	130.84
637	7.0356	-0.92305	0.	124.76
638	4.943	0.53331	0.	123.28
639	4.4031	0.10037	0.	126.72
640	4.3204	-0.36957	0.	128.62
641	-3.8558	-6.5714	0.	128.57
642	-3.8987	-7.5673	0.	128.47
643	-3.8813	-7.0681	0.	126.9
644	-4.7058	-5.6088	0.	132.77
645	-5.1439	-5.5423	0.	130.65
646	0.52917	-0.20824	0.	128.74
647	0.5635	0.25422	0.	126.95
648	-2.6091	0.11552	0.	129.26
649	-2.5775	-0.33627	0.	130.64
650	7.2357	-6.0893	0.	125.16
651	7.1764	-5.5929	0.	127.09
652	5.9203	-4.6615	0.	121.64
653	3.505	-7.1505	0.	129.54
654	3.4042	-5.3467	0.	129.29
655	3.4469	-5.8077	0.	127.03
656	4.4369	-4.3649	0.	123.56
657	-2.9773	1.5568	0.	127.28
658	-2.9383	1.0146	0.	125.03
659	-1.9975	2.6106	0.	125.82
660	-0.53729	2.6543	0.	119.22
661	0.77457	1.6683	0.	125.5
662	-5.5893	-5.4585	0.	125.14
663	-5.56	-4.9914	0.	124.49
664	2.0299	-6.4939	0.	124.07
665	7.0992	6.6942	0.	125.45
666	0.47	-4.5124	0.	127.41
667	-2.1523e-002	-4.4956	0.	121.84
668	1.4707	-5.4977	0.	128.5
669	-3.3846	-6.0541	0.	130.56
670	5.945	0.49446	0.	120.14
671	4.4991	2.0363	0.	126.37
672	4.4891	1.5461	0.	126.99
673	-5.4745	5.9933	0.	127.41
674	-5.4656	6.4855	0.	128.66
675	-5.5028	4.5292	0.	127.7
676	-5.4904	5.0157	0.	126.64
677	-6.9567	3.5416	0.	119.54
678	-6.5046	3.5481	0.	123.8
679	-6.5224	-2.5112	0.	122.83
680	-7.0187	-2.4824	0.	120.52
681	-5.5111	-4.0354	0.	125.32
682	3.785	-3.1811	0.	130.55
683	4.2383	-3.3225	0.	127.15
684	3.3904	-1.6109	0.	125.96
685	7.2438	-2.8026	0.	128.46
686	7.2005	-2.3383	0.	125.62
687	5.9487	-3.7098	0.	119.91
688	4.074	3.5555	0.	128.86
689	4.5566	3.5236	0.	125.59
690	3.2447	5.1127	0.	128.03
691	3.1912	4.6225	0.	130.21
692	2.2705	5.1857	0.	125.91
693	1.2959	3.5418	0.	129.32
694	1.7396	3.6502	0.	131.92
695	-0.97851	3.1279	0.	121.54
696	-0.48334	3.1394	0.	119.36
697	-1.8825	4.638	0.	123.52
698	-1.0925	6.6256	0.	127.76
699	0.81427	6.3462	0.	123.45
700	0.44263	7.2352	0.	120.01
701	-1.1015e-002	7.2917	0.	120.03
702	-3.1347	-1.2085	0.	131.47
703	-3.1428	-1.6711	0.	129.51
704	-3.0724	-3.5539	0.	130.09
705	-2.9477	-7.5359	0.	129.09
706	-6.7255	-2.2599e-002	0.	120.54
707	-0.38665	-3.5495	0.	119.48
708	6.6184	-1.3872	0.	124.97
709	-2.2671	0.61132	0.	126.39
710	5.9837	-7.5848	0.	125.73
711	-7.6016	-7.3385	0.	125.82
712	5.3635	-3.2039	0.	111.03
713	0.62538	3.6955	0.	117.86
714	-0.57098	7.0191	0.	123.63
715	-0.40234	-1.1216	0.	119.9
716	-0.82894	-1.1802	0.	112.19
717	-7.0412	2.6453	0.	113.28
718	-5.9187	7.463	0.	128.64
719	3.5009	-7.6082	0.	129.93
720	-8.0489	6.9488	0.	114.74
721	-3.4399	-8.0448	0.	130.25
722	6.9786	-8.0439	0.	127.58
723	6.4819	-8.0597	0.	126.67
724	5.4957	-8.0595	0.	120.56
725	5.0011	-8.0711	0.	120.56
726	4.5014	-8.0836	0.	124.85
727	8.0029	0.5194	0.	124.95
728	8.0103	2.9209e-002	0.	125.09
729	8.0665	-1.4301	0.	124.63
730	8.0909	-2.4089	0.	126.02
731	8.0631	-2.9054	0.	127.37
732	7.9896	-3.402	0.	128.36
733	7.9639	-4.4457	0.	128.53
734	8.0754	-5.4784	0.	126.96
735	8.1113	-5.9745	0.	126.26
736	8.1186	-6.4492	0.	126.1
737	-5.9052	7.9591	0.	126.11
738	-4.9533	7.9864	0.	125.33
739	-0.49057	8.0473	0.	123.48
740	1.5304e-003	8.1019	0.	122.81
741	0.49303	8.1168	0.	123.09
742	0.98435	8.1072	0.	124.22
743	2.9878	8.0992	0.	128.27
744	3.4834	8.1371	0.	128.16
745	3.97	8.1706	0.	127.23
746	4.4502	8.1671	0.	124.85
747	4.936	8.126	0.	121.47
748	5.4311	8.0771	0.	119.35
749	-7.9746	3.9562	0.	115.94
750	-8.0464	-7.4377	0.	126.1
751	-8.0687	-6.9272	0.	124.89
752	7.9583	7.0371	0.	120.45
753	7.9813	6.5477	0.	120.6
754	7.966	6.0498	0.	120.24
755	7.9509	5.5479	0.	120.5
756	0.9439	-3.5377	0.	129.18
757	-0.36899	-1.5472	0.	121.15
758	0.95402	-1.6338	0.	129.25
759	4.0494	6.4182	0.	131.57
760	6.4441	1.2678e-002	0.	122.6
761	-5.6319	-5.9154	0.	125.92
762	-4.406	-8.0668	0.	132.89
763	0.13422	0.72972	0.	122.71
764	3.0104e-002	-0.65838	0.	126.69
765	6.9199	-7.0856	0.	128.47
766	5.3725	-5.0335	0.	112.11
767	6.6865	-5.1956	0.	129.78
768	5.4988	-7.5588	0.	116.55
769	3.999	-7.6215	0.	130.63
770	3.9559	-6.251	0.	124.33
771	3.8125	-4.7397	0.	130.4
772	-2.5018	2.0908	0.	131.11
773	-1.063	2.1599	0.	111.5
774	0.36238	2.1597	0.	126.23
775	-6.0211	-4.4809	0.	122.28
776	7.402	7.0702	0.	123.34
777	-2.9311	-6.5422	0.	129.4
778	-5.9881	5.5022	0.	126.13
779	-6.0155	4.0436	0.	128.13
780	4.8515	-3.0215	0.	117.92
781	6.7017	-1.8564	0.	122.79
782	6.9088	-3.3011	0.	129.97
783	3.6275	4.0871	0.	133.1
784	1.423	5.5469	0.	131.58
785	7.4952e-002	3.6548	0.	111.96
786	-1.1244	5.6211	0.	126.39
787	-2.6666	-2.1461	0.	126.97
788	-2.6377	-0.78377	0.	132.26
789	-1.0243	-4.3711	0.	108.66
790	-2.5538	-4.535	0.	130.77
791	-7.9638	3.4337	0.	118.1
792	-7.5091	2.8296	0.	115.51
793	-8.0722	-0.42208	0.	125.12
794	-7.593	-0.36163	0.	117.95
795	-2.5658	-4.037	0.	132.21
796	-1.5302	-4.4403	0.	112.27
797	-1.7897	-0.85627	0.	119.07
798	-2.1962	-0.83921	0.	127.88
799	-2.6682	-1.2371	0.	133.03
800	-2.6741	-1.6914	0.	130.63
801	0.36418	6.7811	0.	117.1
802	-0.11174	6.8762	0.	117.58
803	-0.683	6.5669	0.	127.36
804	-0.98458	6.1524	0.	128.74
805	-1.37	4.6175	0.	124.9
806	-0.94649	3.6154	0.	126.38
807	-0.44081	3.6243	0.	119.76
808	1.1349	3.9454	0.	129.94
809	1.6202	4.098	0.	134.32
810	1.8683	4.6854	0.	127.02
811	7.4205	5.5809	0.	117.99
812	3.6721	4.5797	0.	133.63
813	4.1135	4.0563	0.	132.13
814	4.5955	4.0223	0.	126.51
815	5.9029	-3.2313	0.	118.52
816	6.827	-2.8148	0.	130.8
817	6.7658	-2.331	0.	127.96
818	3.8262	-1.725	0.	126.93
819	3.9143	-2.744	0.	132.83
820	4.3779	-2.8795	0.	129.01
821	-6.0118	-4.0045	0.	124.98
822	-6.0112	-3.5196	0.	126.43
823	-7.0122	-2.9916	0.	119.87
824	-6.5008	4.0334	0.	126.02
825	-5.9947	5.0142	0.	127.12
826	-5.981	5.9925	0.	128.83
827	-5.9707	6.4831	0.	131.37
828	-6.391	7.4545	0.	130.58
829	-6.4599	6.9749	0.	134.24
830	5.0672	3.9577	0.	121.46
831	4.9878	1.5252	0.	127.18
832	5.9715	1.0001	0.	120.87
833	-2.0224	-4.9927	0.	121.75
834	-2.5406	-5.0324	0.	130.44
835	-2.9278	-6.0507	0.	130.95
836	0.99176	-6.0008	0.	127.73
837	0.9771	-5.5028	0.	129.7
838	5.9376	8.0315	0.	122.41
839	6.7021	6.9326	0.	129.28
840	2.9991	-8.0547	0.	129.63
841	3.003	-7.5767	0.	130.28
842	2.0197	-7.0033	0.	122.92
843	-6.0308	-4.9409	0.	121.54
844	-7.5493	-5.9315	0.	125.35
845	-7.5872	-6.3966	0.	126.13
846	-7.5454	-7.7829	0.	131.12
847	0.31115	1.678	0.	126.19
848	-0.10991	2.172	0.	125.71
849	-0.58448	2.1719	0.	119.33
850	-1.5456	2.143	0.	117.64
851	-2.0233	2.1193	0.	128.48
852	-2.4318	1.0901	0.	125.11
853	4.8809	-4.9262	0.	116.63
854	4.3664	-4.8322	0.	127.02
855	3.9196	-5.7804	0.	128.47
856	3.9942	-7.1647	0.	131.22
857	4.4999	-7.6189	0.	126.51
858	5.0034	-7.5943	0.	117.92
859	5.8453	-5.1317	0.	122.39
860	6.4464	-7.1099	0.	130.83
861	6.7301	-5.6528	0.	127.56
862	6.8515	-6.6106	0.	125.62
863	6.7812	-6.1293	0.	125.34
864	-2.1252	0.12556	0.	128.24
865	-2.0141	-0.38885	0.	125.36
866	4.5802e-002	0.26763	0.	127.06
867	-1.3664	-0.81562	0.	108.82
868	-0.92055	-0.71888	0.	110.92
869	-0.46526	-0.65721	0.	118.76
870	-5.3636	-8.0827	0.	129.05
871	-4.888	-8.0736	0.	134.54
872	-4.7446	-6.0916	0.	134.63
873	-5.193	-6.0278	0.	131.99
874	-4.3784	-7.5777	0.	129.29
875	-4.3569	-7.0822	0.	127.7
876	-4.3231	-6.5894	0.	128.87
877	4.888	4.1068e-002	0.	121.14
878	4.7977	-0.42927	0.	122.63
879	6.528	-0.92486	0.	126.28
880	4.1607	7.3446	0.	130.77
881	4.1213	6.866	0.	131.42
882	5.6866	6.9801	0.	122.86
883	5.8792	7.5337	0.	121.9
884	4.6501e-002	-1.5824	0.	128.59
885	2.6141e-002	-3.543	0.	126.77
886	0.47474	-3.5381	0.	130.2
887	0.92457	-2.105	0.	126.54
888	0.92591	-3.0541	0.	126.51
889	0.91032	-2.5772	0.	125.27
890	-6.3039	0.14879	0.	128.71
891	-5.74	2.1501	0.	131.88
892	-5.4113	1.1668	0.	126.38
893	1.5112	-6.9992	0.	119.86
894	7.9589	5.0374	0.	122.92
895	-8.0393	-5.9519	0.	127.43
896	-8.0056	-2.9843	0.	122.07
897	-8.4917	-7.9875	0.	128.51
898	-8.522	-7.4736	0.	126.64
899	-8.5407	-6.9634	0.	125.99
900	-8.5407	-6.4626	0.	127.24
901	-8.5291	-5.9689	0.	130.18
902	-8.5038	-2.9869	0.	127.39
903	-8.5069	-2.4792	0.	125.51
904	-8.5112	-1.9717	0.	124.96
905	-8.5191	-1.4636	0.	125.16
906	-8.5327	-0.95901	0.	126.23
907	-8.5534	-0.45714	0.	128.85
908	-8.5728	4.0404e-002	0.	131.53
909	-8.5816	0.53239	0.	129.66
910	-8.5769	1.0185	0.	125.43
911	-8.5631	1.5013	0.	125.77
912	-8.5447	1.9846	0.	128.62
913	-8.5239	2.4721	0.	129.17
914	-8.5004	2.9662	0.	125.56
915	-8.4829	3.4671	0.	121.77
916	-8.4832	3.9746	0.	119.3
917	-5.4431	8.4781	0.	125.03
918	-4.9615	8.4891	0.	125.04
919	-4.4738	8.497	0.	125.19
920	-3.4916	8.5102	0.	125.56
921	-2.4993	8.5239	0.	125.79
922	-1.9997	8.529	0.	125.71
923	-1.4987	8.5312	0.	125.39
924	-0.99846	8.5309	0.	124.82
925	-0.49993	8.5398	0.	124.17
926	-3.2633e-003	8.5646	0.	123.83
927	0.49459	8.5749	0.	124.01
928	0.99202	8.5678	0.	124.68
929	1.4899	8.5559	0.	125.58
930	1.9888	8.5479	0.	126.43
931	2.4884	8.5502	0.	127.02
932	2.9873	8.5669	0.	127.25
933	3.4841	8.5906	0.	126.97
934	3.9786	8.6129	0.	125.93
935	4.4733	8.6093	0.	124.06
936	4.9709	8.5836	0.	121.73
937	5.4701	8.553	0.	120.65
938	5.9738	8.5245	0.	121.52
939	1.0026	-6.5	0.	125.38
940	7.9881	-8.5037	0.	127.18
941	7.4881	-8.5166	0.	127.13
942	6.9889	-8.5303	0.	126.72
943	6.4908	-8.5405	0.	125.62
944	5.9936	-8.5452	0.	123.79
945	5.4974	-8.5464	0.	122.19
946	5.0002	-8.5516	0.	122.57
947	4.5007	-8.5574	0.	124.74
948	3.9995	-8.5591	0.	127.09
949	3.4984	-8.5517	0.	128.48
950	2.9979	-8.538	0.	128.71
951	-2.9585	-8.0309	0.	130.7
952	-2.9688	-8.5248	0.	132.01
953	-3.4572	-8.535	0.	131.95
954	-3.9469	-8.5438	0.	132.35
955	-4.4386	-8.549	0.	132.68
956	-4.9335	-8.5484	0.	130.99
957	-5.4389	-8.5303	0.	125.19
958	-6.4773	-8.4609	0.	111.61
959	-7.0207	-8.5873	0.	124.14
960	-7.5132	-8.5966	0.	131.51
961	-8.0011	-8.5247	0.	131.01
962	-8.4975	-8.4993	0.	129.87
963	8.0002	1.012	0.	125.18
964	8.4809	7.0195	0.	121.65
965	8.4808	6.5263	0.	122.09
966	8.4752	6.0283	0.	122.77
967	8.4686	5.528	0.	124.49
968	8.4712	5.0242	0.	128.17
969	8.502	1.0092	0.	130.78
970	8.5051	0.51449	0.	128.47
971	8.5118	2.1559e-002	0.	127.36
972	8.5228	-0.46993	0.	126.67
973	8.5341	-0.95952	0.	126.13
974	8.5482	-1.4516	0.	125.83
975	8.5572	-1.9466	0.	125.94
976	8.5553	-2.4444	0.	126.51
977	8.5353	-2.9477	0.	127.27
978	8.501	-3.4503	0.	127.9
979	8.4823	-3.9554	0.	128.14
980	8.4864	-4.4623	0.	127.99
981	8.5152	-4.9676	0.	127.52
982	8.5462	-5.4733	0.	126.93
983	8.5638	-5.9759	0.	126.48
984	8.5489	-6.4787	0.	126.34
985	8.4825	-7.9933	0.	127.07
986	8.4894	-8.4978	0.	127.12
987	-8.5317	6.994	0.	122.52
988	-5.9163	8.4601	0.	125.49
989	-6.3753	8.4274	0.	126.38
990	5.9043	-6.8349e-003	0.	119.99
991	-5.8995	0.68652	0.	132.43
992	0.44429	-3.0486	0.	129.17
993	0.4475	-2.0888	0.	129.52
994	5.3546	7.6102	0.	117.98
995	4.718	7.2564	0.	130.13
996	5.8564	-0.49919	0.	124.36
997	5.3824	-1.9744e-002	0.	116.86
998	-4.8572	-7.5894	0.	137.57
999	-0.48992	-0.19413	0.	122.18
1000	-1.0019	-0.22604	0.	107.11
1001	6.3858	-6.6346	0.	130.08
1002	6.2766	-5.6697	0.	134.85
1003	-8.4512	9.1253	0.	128.27
1004	8.992	-8.4971	0.	127.06
1005	8.9883	-7.9952	0.	126.94
1006	8.9882	-7.4932	0.	126.76
1007	8.9993	-6.9921	0.	126.56
1008	9.0231	-6.4899	0.	126.47
1009	9.0329	-5.9849	0.	126.57
1010	9.0258	-5.4799	0.	126.87
1011	9.0103	-4.9778	0.	127.24
1012	8.9958	-4.4775	0.	127.55
1013	8.9933	-3.9764	0.	127.67
1014	9.0033	-3.4748	0.	127.56
1015	9.0201	-2.9726	0.	127.26
1016	9.0322	-2.4683	0.	126.92
1017	9.0348	-1.9677	0.	126.77
1018	9.0308	-1.4694	0.	126.93
1019	9.0233	-0.97274	0.	127.43
1020	9.0163	-0.47942	0.	128.18
1021	9.0047	0.50954	0.	130.52
1022	9.0021	1.0062	0.	132.33
1023	9.001	1.5039	0.	133.68
1024	9.0004	2.0026	0.	133.52
1025	8.9999	2.5024	0.	132.84
1026	8.9991	3.0032	0.	133.2
1027	8.9973	3.5052	0.	132.52
1028	8.9809	5.5149	0.	127.62
1029	8.9841	6.0143	0.	126.08
1030	8.9878	6.5125	0.	125.5
1031	-9.0623	8.4884	0.	128.84
1032	-9.0138	8.0194	0.	125.46
1033	-9.0139	7.5174	0.	132.35
1034	-8.503	-9.005	0.	129.96
1035	-8.0053	-9.0221	0.	129.64
1036	-7.5046	-9.0454	0.	127.51
1037	-6.9959	-9.0352	0.	122.17
1038	-6.4876	-8.995	0.	117.06
1039	-5.9804	-8.9935	0.	117.9
1040	-5.4718	-9.0136	0.	123.53
1041	-4.9656	-9.0271	0.	128.69
1042	-4.4649	-9.0309	0.	131.54
1043	-3.9678	-9.0288	0.	132.52
1044	-3.4729	-9.0237	0.	132.46
1045	-2.9791	-9.0173	0.	131.67
1046	-2.4853	-9.0108	0.	128.83
1047	-1.9906	-9.0051	0.	122.28
1048	-1.4946	-9.002	0.	115.6
1049	-0.99708	-9.0007	0.	112.96
1050	-0.49845	-9.0003	0.	115.73
1051	4.488	-7.1684	0.	137.34
1052	4.3658	-5.3048	0.	136.91
1053	-2.0347	1.6297	0.	140.26
1054	-0.1531	1.6902	0.	134.48
1055	-7.0857	-8.1635	0.	139.77
1056	-7.0672	-5.928	0.	138.58
1057	7.4944	-9.0114	0.	126.72
1058	6.9949	-9.0195	0.	126.14
1059	6.4957	-9.0258	0.	125.17
1060	5.997	-9.0292	0.	124.01
1061	5.4988	-9.031	0.	123.31
1062	5.	-9.0336	0.	123.73
1063	4.5001	-9.0362	0.	125.3
1064	3.9992	-9.0368	0.	127.3
1065	3.4982	-9.0327	0.	129.07
1066	2.9978	-9.0241	0.	130.69
1067	2.5063	-7.534	0.	131.84
1068	7.9572e-004	-9.0001	0.	122.89
1069	1.0053	-6.9996	0.	124.29
1070	6.3807	7.4879	0.	131.04
1071	-6.4219	8.927	0.	129.55
1072	-5.9515	8.9679	0.	126.44
1073	-5.4656	8.9842	0.	125.56
1074	-4.9758	8.9925	0.	125.47
1075	-4.4838	8.9981	0.	125.61
1076	-3.9899	9.0026	0.	125.75
1077	-3.4942	9.0069	0.	125.84
1078	-2.9977	9.0108	0.	125.88
1079	-2.4994	9.0149	0.	125.84
1080	-2.	9.018	0.	125.71
1081	-1.5	9.0198	0.	125.45
1082	-1.0006	9.0206	0.	125.08
1083	-0.50187	9.0264	0.	124.73
1084	-3.1899e-003	9.0406	0.	124.56
1085	0.49639	9.0448	0.	124.67
1086	0.99597	9.0401	0.	125.05
1087	1.4951	9.0338	0.	125.57
1088	1.9939	9.03	0.	126.06
1089	2.4926	9.0321	0.	126.39
1090	2.9911	9.0415	0.	126.46
1091	3.4891	9.0553	0.	126.16
1092	3.9877	9.0679	0.	125.39
1093	4.4867	9.0674	0.	124.17
1094	4.9876	9.0511	0.	122.82
1095	5.4885	9.0332	0.	122.1
1096	5.9904	9.0167	0.	123.4
1097	-2.4801	-8.5145	0.	132.28
1098	0.48172	-5.5011	0.	130.84
1099	8.5009	1.5057	0.	135.23
1100	8.4813	4.5171	0.	134.36
1101	5.4873	1.51	0.	128.78
1102	5.56	4.3929	0.	121.95
1103	-6.4828	6.4879	0.	134.64
1104	-6.5001	4.5191	0.	129.85
1105	-8.9987	-8.4964	0.	129.42
1106	-9.0002	-7.9917	0.	128.42
1107	-9.0128	-7.4865	0.	127.37
1108	-9.0228	-6.9817	0.	127.15
1109	-9.0242	-6.4799	0.	128.15
1110	-9.0189	-5.9818	0.	130.09
1111	-9.0114	-5.4862	0.	131.48
1112	-9.0021	-4.4935	0.	129.2
1113	-9.001	-3.9941	0.	130.13
1114	-9.0012	-3.4929	0.	130.51
1115	-9.0025	-2.99	0.	129.4
1116	-9.0046	-2.4868	0.	128.03
1117	-9.0079	-1.9833	0.	127.36
1118	-9.0351	-0.47829	0.	128.88
1119	-9.0461	2.0843e-002	0.	129.15
1120	-9.0514	0.51744	0.	127.62
1121	-9.0494	1.0113	0.	125.66
1122	-9.0412	1.5037	0.	125.7
1123	-9.0299	1.9954	0.	127.42
1124	-9.0154	2.4899	0.	128.21
1125	-9.0016	2.9862	0.	127.36
1126	-8.9921	3.4852	0.	126.02
1127	-8.9904	3.9874	0.	125.43
1128	-9.0162	7.0054	0.	129.87
1129	-6.5101	-3.5027	0.	127.83
1130	-8.5017	-3.4918	0.	131.66
1131	8.9905	7.009	0.	125.82
1132	-6.968	9.2328	0.	134.63
1133	-7.0076	7.0092	0.	130.51
1134	4.0637	-2.3011	0.	134.76
1135	4.1606	4.5503	0.	141.67
1136	6.9465	5.046	0.	123.49
1137	1.4609	4.546	0.	136.83
1138	-0.91793	4.099	0.	135.61
1139	-0.24066	6.4287	0.	119.63
1140	-2.2067	-1.2742	0.	135.97
1141	-2.0713	-4.0067	0.	131.16
1142	-8.104	7.5001e-002	0.	134.16
1143	8.9957	-8.9985	0.	127.1
1144	-9.0012	-8.9996	0.	129.92
1145	-8.9429	8.9715	0.	130.76
1146	-8.038	2.4314	0.	130.65
1147	4.4596	-6.7235	0.	131.73
1148	4.3869	-5.7781	0.	129.33
1149	4.4252	-6.2557	0.	129.59
1150	4.8613	-5.366	0.	112.68
1151	5.8153	-5.628	0.	129.2
1152	5.3461	-5.4998	0.	108.25
1153	4.9995	-7.1401	0.	105.95
1154	-1.9894	1.1375	0.	119.26
1155	-1.8159	0.66186	0.	137.36
1156	-1.5745	1.6602	0.	118.76
1157	-0.62119	1.6955	0.	122.23
1158	-1.0994	1.6796	0.	98.569
1159	-0.51538	0.2775	0.	127.61
1160	-0.36431	0.73858	0.	134.56
1161	-0.2178	1.2093	0.	117.97
1162	-5.3234	-7.6324	0.	133.14
1163	-5.7922	-7.9219	0.	117.8
1164	-6.6817	-8.0868	0.	106.86
1165	-6.2744	-7.9849	0.	110.44
1166	-7.1562	-7.7323	0.	134.5
1167	-7.1691	-7.2725	0.	134.34
1168	-7.1194	-6.3472	0.	126.71
1169	-7.151	-6.7996	0.	132.35
1170	-6.593	-6.0001	0.	111.17
1171	-5.2585	-6.5391	0.	133.4
1172	-5.6978	-6.3679	0.	119.18
1173	-6.1378	-6.1667	0.	115.48
1174	2.4983	-9.0122	0.	132.65
1175	2.4984	-8.5192	0.	131.8
1176	2.5001	-8.0274	0.	131.12
1177	0.50033	-9.	0.	130.54
1178	0.50028	-8.4999	0.	133.74
1179	6.4581	7.9988	0.	128.59
1180	6.4942	9.0051	0.	127.97
1181	6.4837	8.5052	0.	128.
1182	6.0138e-004	-8.5	0.	122.86
1183	-0.49888	-8.5001	0.	111.67
1184	-0.99765	-8.5004	0.	111.36
1185	-1.9897	-8.505	0.	123.55
1186	-1.4953	-8.5014	0.	111.99
1187	-1.4808e-002	-5.4942	0.	121.48
1188	-0.5113	-5.4834	0.	110.52
1189	-1.0079	-5.4759	0.	109.52
1190	-1.5047	-5.4823	0.	110.39
1191	-1.9998	-5.4977	0.	122.81
1192	2.0076	-7.5077	0.	124.41
1193	1.5056	-7.5005	0.	113.25
1194	1.0033	-7.4997	0.	124.41
1195	8.5003	2.0031	0.	134.91
1196	8.4999	2.5021	0.	137.17
1197	8.4994	3.0026	0.	139.09
1198	8.498	3.5045	0.	137.5
1199	8.4932	4.0093	0.	134.83
1200	5.5047	2.5035	0.	129.91
1201	5.5122	2.9958	0.	130.43
1202	5.5386	3.9492	0.	122.26
1203	5.5224	3.4807	0.	127.92
1204	-6.49	5.9951	0.	130.7
1205	-6.4978	5.0091	0.	128.63
1206	-6.4944	5.5019	0.	128.73
1207	-6.9967	4.5023	0.	123.15
1208	-8.9938	4.4925	0.	126.87
1209	-8.491	4.4863	0.	116.7
1210	-7.9896	4.4799	0.	115.66
1211	-7.4921	4.4825	0.	114.34
1212	-9.0101	6.5001	0.	129.
1213	-8.5164	6.4927	0.	117.84
1214	-6.9984	6.4948	0.	123.95
1215	-7.5119	6.4749	0.	111.21
1216	-8.019	6.4776	0.	113.9
1217	-6.509	-3.9941	0.	127.05
1218	-6.5126	-4.9338	0.	123.13
1219	-6.5121	-4.4748	0.	126.07
1220	-7.5025	-5.4696	0.	118.76
1221	-6.9576	-5.4757	0.	127.38
1222	-8.0028	-3.4924	0.	123.73
1223	-7.0075	-3.4963	0.	120.43
1224	-8.5008	-3.9946	0.	131.62
1225	-8.5016	-4.4938	0.	132.41
1226	-8.5052	-4.989	0.	133.5
1227	0.4936	-6.0005	0.	129.82
1228	0.5004	-7.9998	0.	133.87
1229	0.50149	-7.4998	0.	136.28
1230	0.50196	-7.	0.	134.04
1231	0.50004	-6.5004	0.	131.18
1232	-2.4778	-8.0172	0.	131.14
1233	-2.4736	-7.5187	0.	133.04
1234	-2.4665	-6.0237	0.	131.09
1235	-2.4662	-6.5227	0.	133.39
1236	-2.4697	-7.021	0.	134.5
1237	7.9998	1.506	0.	126.99
1238	7.4965	1.5049	0.	115.09
1239	5.9873	1.5022	0.	123.03
1240	6.4886	1.4989	0.	112.94
1241	6.99	1.4997	0.	114.04
1242	6.0211	4.4394	0.	121.47
1243	7.9778	4.5206	0.	127.07
1244	7.4774	4.524	0.	118.15
1245	6.9839	4.514	0.	120.49
1246	6.4986	4.4806	0.	117.4
1247	8.9953	7.5045	0.	127.63
1248	8.4877	7.5104	0.	120.63
1249	6.951	7.4172	0.	129.37
1250	7.4849	7.5317	0.	120.64
1251	7.9821	7.5185	0.	122.07
1252	-6.856	8.8348	0.	133.9
1253	-6.8187	8.3786	0.	131.6
1254	-6.8276	7.4631	0.	131.83
1255	-6.8127	7.9134	0.	132.02
1256	-8.5331	7.5233	0.	128.23
1257	-7.5476	6.9284	0.	106.72
1258	4.5013	-2.4302	0.	136.42
1259	4.9594	-2.5549	0.	111.43
1260	5.4304	-2.6766	0.	105.81
1261	4.237	-1.8478	0.	121.8
1262	5.2719	-0.59158	0.	107.01
1263	4.7963	-0.92677	0.	124.52
1264	4.4915	-1.4058	0.	140.12
1265	-8.6606	8.5584	0.	134.45
1266	-8.2851	8.7323	0.	126.47
1267	-7.4271	9.1604	0.	110.86
1268	-7.9293	9.0378	0.	121.2
1269	6.0193	-0.93466	0.	131.12
1270	6.3403	-2.3154	0.	128.27
1271	6.2548	-1.8443	0.	134.44
1272	6.1454	-1.3845	0.	126.68
1273	4.6375	6.8275	0.	133.26
1274	4.5374	6.3907	0.	129.23
1275	4.414	5.9487	0.	136.02
1276	4.2866	5.5014	0.	140.39
1277	6.0351	6.5934	0.	122.82
1278	6.2062	6.2785	0.	122.27
1279	6.8609	5.6241	0.	115.52
1280	6.4868	5.9722	0.	135.95
1281	0.55514	4.2471	0.	112.53
1282	-0.4225	4.0972	0.	122.32
1283	7.078e-002	4.1544	0.	104.75
1284	-0.87661	4.5813	0.	123.78
1285	-0.77754	5.0612	0.	132.87
1286	-0.47755	6.0057	0.	134.06
1287	-0.64195	5.5387	0.	126.29
1288	0.29528	6.2745	0.	109.73
1289	0.73723	5.8886	0.	122.74
1290	1.3044	5.0068	0.	122.31
1291	1.0259	5.4258	0.	139.45
1292	6.469	4.9604	0.	130.11
1293	6.0018	4.8849	0.	114.51
1294	5.5484	4.8186	0.	117.71
1295	4.6775	4.5448	0.	125.03
1296	5.1116	4.7543	0.	115.62
1297	-1.3398e-002	-2.0495	0.	134.12
1298	-0.42435	-1.9409	0.	116.73
1299	-0.78865	-1.6658	0.	110.7
1300	-1.2452	-1.3807	0.	107.36
1301	-1.7403	-1.3118	0.	113.42
1302	-2.2072	-1.7167	0.	131.68
1303	-2.1952	-2.1616	0.	130.16
1304	-2.1751	-2.6128	0.	132.87
1305	-2.1502	-3.0693	0.	127.95
1306	-2.1175	-3.5346	0.	132.55
1307	-1.563	-3.9388	0.	104.85
1308	-1.0258	-3.7923	0.	111.01
1309	-0.72384	-3.3907	0.	108.92
1310	-0.39799	-3.155	0.	117.88
1311	-1.1867e-002	-3.0591	0.	131.32
1312	-8.1184	0.5586	0.	133.35
1313	-8.0614	1.9582	0.	132.44
1314	-8.085	1.4937	0.	128.97
1315	-8.1068	1.0294	0.	130.06
1316	-6.3703	0.63423	0.	133.75
1317	-6.8002	0.47434	0.	120.17
1318	-7.6455	0.14441	0.	114.24
1319	-7.2126	0.28481	0.	108.53
1320	9.5	9.	0.	129.71
1321	9.5	8.5002	0.	131.32
1322	9.4997	8.0005	0.	132.85
1323	9.498	7.5017	0.	133.22
1324	9.4959	7.0033	0.	130.07
1325	9.4941	6.5048	0.	129.25
1326	9.4923	6.0058	0.	129.21
1327	9.4908	5.5065	0.	129.67
1328	9.491	5.0066	0.	130.38
1329	9.4932	4.506	0.	130.8
1330	9.496	4.0047	0.	130.58
1331	9.4982	3.5032	0.	130.37
1332	9.4993	3.0022	0.	130.46
1333	9.4999	2.5016	0.	131.04
1334	9.5002	2.0015	0.	131.89
1335	9.5006	1.5021	0.	132.62
1336	9.5014	1.0032	0.	132.51
1337	9.5028	0.50501	0.	131.72
1338	9.5083	-0.48957	0.	129.47
1339	9.5116	-0.98728	0.	128.45
1340	9.5147	-1.4855	0.	127.68
1341	9.5158	-1.9849	0.	127.24
1342	9.5146	-2.4868	0.	127.12
1343	9.5092	-2.9885	0.	127.21
1344	9.5023	-3.4895	0.	127.33
1345	9.4981	-3.9897	0.	127.37
1346	9.4993	-4.4891	0.	127.26
1347	9.5051	-4.9885	0.	127.02
1348	9.5116	-5.49	0.	126.74
1349	9.5141	-5.9928	0.	126.51
1350	9.5095	-6.4958	0.	126.42
1351	9.5007	-6.9971	0.	126.48
1352	9.4944	-7.9977	0.	126.85
1353	9.4959	-8.4982	0.	127.04
1354	9.4976	-8.9988	0.	127.17
1355	9.499	-9.4994	0.	127.25
1356	8.9983	-9.4994	0.	127.12
1357	8.4979	-9.5003	0.	127.01
1358	7.9979	-9.5024	0.	126.82
1359	7.4981	-9.5058	0.	126.45
1360	6.9983	-9.5096	0.	125.84
1361	6.4985	-9.5126	0.	125.02
1362	5.9989	-9.5144	0.	124.23
1363	5.4996	-9.5155	0.	123.91
1364	5.	-9.5166	0.	124.45
1365	4.4999	-9.5176	0.	125.88
1366	3.9994	-9.5178	0.	127.92
1367	3.4987	-9.5158	0.	130.16
1368	2.9983	-9.5115	0.	132.3
1369	2.4985	-9.5061	0.	133.56
1370	1.9992	-9.5014	0.	124.2
1371	1.4998	-9.5002	0.	113.12
1372	0.99999	-9.5	0.	123.11
1373	0.50017	-9.5	0.	129.55
1374	4.4693e-004	-9.5001	0.	124.
1375	-0.49908	-9.5002	0.	118.28
1376	-0.99823	-9.5006	0.	115.7
1377	-1.4968	-9.5014	0.	117.38
1378	-1.9947	-9.5031	0.	122.15
1379	-2.4921	-9.5058	0.	127.29
1380	-2.9891	-9.5089	0.	130.78
1381	-3.9848	-9.514	0.	132.19
1382	-4.4843	-9.5145	0.	130.62
1383	-4.9857	-9.5121	0.	127.46
1384	-5.4884	-9.5058	0.	123.18
1385	-5.9909	-9.4991	0.	119.64
1386	-6.493	-9.5012	0.	119.1
1387	-6.9963	-9.5135	0.	121.91
1388	-7.5008	-9.5182	0.	125.72
1389	-8.0029	-9.5113	0.	128.33
1390	-8.5025	-9.504	0.	129.52
1391	-9.0014	-9.5006	0.	130.04
1392	-9.5005	-9.4998	0.	130.61
1393	-9.5003	-8.999	0.	130.14
1394	-9.4997	-8.4977	0.	129.37
1395	-9.5011	-7.9962	0.	128.44
1396	-9.506	-7.4943	0.	127.7
1397	-9.5099	-6.9921	0.	127.53
1398	-9.5112	-6.4912	0.	128.05
1399	-9.5092	-5.9913	0.	128.91
1400	-9.506	-5.4929	0.	129.44
1401	-9.5031	-4.9949	0.	129.25
1402	-9.5014	-4.4961	0.	129.09
1403	-9.5007	-3.9964	0.	129.38
1404	-9.5006	-3.4959	0.	129.93
1405	-9.5013	-2.9948	0.	129.95
1406	-9.5022	-2.4939	0.	129.63
1407	-9.5041	-1.993	0.	129.29
1408	-9.5071	-1.4922	0.	129.09
1409	-9.5117	-0.99153	0.	128.96
1410	-9.5174	-0.49114	0.	128.68
1411	-9.5224	8.6994e-003	0.	127.85
1412	-9.5249	0.50767	0.	126.42
1413	-9.5241	1.0056	0.	125.23
1414	-9.5203	1.503	0.	125.37
1415	-9.5146	2.0001	0.	126.71
1416	-9.5078	2.4975	0.	128.28
1417	-9.5014	2.9956	0.	129.38
1418	-9.497	3.4946	0.	130.18
1419	-9.4957	3.9949	0.	131.48
1420	-9.4969	4.4963	0.	135.1
1421	-9.4991	4.9983	0.	135.17
1422	-9.5	5.4995	0.	135.19
1423	-9.501	5.9999	0.	135.64
1424	-9.5045	6.5008	0.	135.85
1425	-9.5068	7.0031	0.	132.43
1426	-9.5072	7.5051	0.	129.4
1427	-9.5108	8.003	0.	126.95
1428	-9.515	8.4996	0.	125.91
1429	-9.4858	8.996	0.	126.63
1430	-9.49	9.4963	0.	125.61
1431	-8.9831	9.5005	0.	126.37
1432	-8.4783	9.5376	0.	125.27
1433	-7.9764	9.5372	0.	121.14
1434	-7.4891	9.5734	0.	120.33
1435	-7.0162	9.5984	0.	125.34
1436	-6.5354	9.4541	0.	129.32
1437	-5.9973	9.4802	0.	127.02
1438	-5.4895	9.4911	0.	126.61
1439	-4.9901	9.4962	0.	126.49
1440	-4.4927	9.4992	0.	126.46
1441	-3.9953	9.5014	0.	126.4
1442	-3.4974	9.5035	0.	126.31
1443	-2.9989	9.5054	0.	126.18
1444	-2.4998	9.5073	0.	126.02
1445	-2.0001	9.5087	0.	125.8
1446	-1.5003	9.5099	0.	125.55
1447	-1.0008	9.5105	0.	125.28
1448	-0.50149	9.5133	0.	125.07
1449	-1.8862e-003	9.5183	0.	124.99
1450	0.4983	9.5217	0.	125.07
1451	0.99838	9.519	0.	125.3
1452	1.498	9.5163	0.	125.61
1453	1.9972	9.5148	0.	125.89
1454	2.4962	9.516	0.	126.06
1455	2.9952	9.5203	0.	126.05
1456	3.4944	9.5266	0.	125.82
1457	3.9938	9.5326	0.	125.36
1458	4.4947	9.5316	0.	124.78
1459	4.9959	9.5244	0.	124.25
1460	5.4966	9.5162	0.	124.11
1461	5.9973	9.5086	0.	124.92
1462	6.4983	9.5031	0.	128.14
1463	6.9993	9.5005	0.	126.04
1464	7.4998	9.5001	0.	120.75
1465	7.9999	9.5	0.	122.66
1466	8.5	9.5	0.	121.08
1467	9.	9.5	0.	126.78
1468	9.5	9.5	0.	128.44
1469	-7.5652	2.3424	0.	110.66
1470	-7.126	2.1599	0.	111.08
1471	-6.3025	1.7411	0.	131.75
1472	-6.708	1.9557	0.	125.43
1473	-9.0229	-0.97859	0.	127.95
1474	2.5452	1.5963	0.	128.7
1475	-4.3817	2.0821	0.	128.11
1476	-1.4749	3.1204	0.	123.56
1477	8.0848	-1.9171	0.	124.96
1478	8.0436	-0.94404	0.	124.88
1479	-2.4402	3.5852	0.	126.8
1480	-7.4169	3.3763	0.	116.45
1481	9.4953	-7.4974	0.	126.65
1482	-5.511	-3.5487	0.	126.24
1483	-5.9508	6.9731	0.	131.23
1484	-2.4753e-003	-4.0144	0.	124.4
1485	8.0237	-0.45789	0.	125.13
1486	1.8951	-3.0302	0.	127.53
1487	-3.1091	-0.7557	0.	131.8
1488	3.8803	-5.2866	0.	131.17
1489	3.5162	0.64667	0.	129.3
1490	6.4753	1.0009	0.	116.87
1491	4.403	7.7486	0.	127.7
1492	7.4898	1.0098	0.	118.68
1493	5.528	-7.0073	0.	123.07
1494	-4.9577	-0.24834	0.	129.44
1495	-2.4585	3.0886	0.	127.66
1496	-9.0137	-1.4802	0.	127.35
1497	-7.5048	-3.4933	0.	112.05
1498	0.85904	2.6251	0.	125.04
1499	-1.5011	-0.30451	0.	112.88
1500	-5.5331	-4.5162	0.	124.56
1501	3.2397	-3.4973	0.	130.37
1502	-8.0216	-1.4418	0.	122.5
1503	-1.5094	2.6301	0.	120.45
1504	-2.6243	-3.0749	0.	127.6
1505	7.4422	-3.8623	0.	129.14
1506	-4.0557	-3.0763	0.	127.89
1507	-2.0104	6.1235	0.	125.65
1508	-2.9961	8.5175	0.	125.71
1509	5.9881	-8.0627	0.	123.74
1510	1.3954	-2.1134	0.	126.49
1511	6.4469	-4.7596	0.	127.35
1512	-3.0507	-4.0413	0.	132.07
1513	-3.1029	-5.1022	0.	133.31
1514	-6.1627	2.2128	0.	130.68
1515	-2.485	-5.5271	0.	132.67
1516	3.4424	-2.613	0.	129.88
1517	-8.0099	-2.4719	0.	122.22
1518	8.9819	5.0143	0.	130.15
1519	-2.9535	2.5691	0.	129.3
1520	8.9933	4.0083	0.	132.81
1521	-2.9424	4.0582	0.	126.25
1522	4.9718	1.0304	0.	125.78
1523	3.4742	6.0144	0.	128.51
1524	3.4991	-8.0765	0.	129.01
1525	-4.0199	0.19785	0.	128.37
1526	0.93122	3.4436	0.	123.94
1527	-5.4183	0.69189	0.	127.67
1528	-8.0147	-5.4747	0.	128.5
1529	1.4933	-5.9968	0.	126.02
1530	7.4785	-8.0204	0.	127.55
1531	8.4945	-8.9999	0.	127.07
1532	-2.9945	8.0251	0.	125.67
1533	-8.0831	7.4183	0.	115.02
1534	9.0094	1.4876e-002	0.	129.17
1535	6.3729	-2.7939	0.	136.35
1536	-7.5107	-8.1803	0.	134.02
1537	-3.9796	8.0051	0.	125.31
1538	-4.4667	6.9974	0.	125.96
1539	-4.8432	-7.0895	0.	124.91
1540	-6.5154	-3.0081	0.	124.24
1541	-7.4737	3.9512	0.	116.6
1542	-5.5614	3.566	0.	128.93
1543	-5.9196	1.1779	0.	123.9
1544	4.9359	-4.4765	0.	117.32
1545	4.9985	2.0203	0.	126.75
1546	-5.0249	4.0368	0.	128.41
1547	2.81	-1.9719	0.	126.37
1548	-3.4822	7.0241	0.	125.43
1549	-4.485	0.21183	0.	128.39
1550	1.012	-0.23128	0.	128.92
1551	3.5104	-6.7037	0.	127.43
1552	-8.0612	-6.4349	0.	125.79
1553	-1.9997	8.0428	0.	125.86
1554	4.0356	-1.279	0.	130.87
1555	-2.4043	5.1056	0.	123.64
1556	8.4906	-6.9783	0.	126.53
1557	1.73	6.3293	0.	129.53
1558	-3.9834	8.5041	0.	125.38
1559	5.9068	-2.7508	0.	117.49
1560	-6.0317	-2.0625	0.	124.48
1561	-7.5347	-0.88518	0.	119.31
1562	-1.5395	6.6096	0.	127.31
1563	3.8178	5.5279	0.	128.59
1564	6.2782	-5.2078	0.	130.23
1565	0.91847	7.2097	0.	123.12
1566	-1.4165	4.1133	0.	127.32
1567	2.5237	-7.0303	0.	127.6
1568	-6.0695e-002	2.6607	0.	121.21
1569	-2.0428	-4.4949	0.	122.49
1570	-3.4585	1.5746	0.	127.07
1571	5.0094	2.5142	0.	125.68
1572	-1.5629e-003	3.1599	0.	117.8
1573	7.9666	-7.4827	0.	127.08
1574	-3.6075	-2.1289	0.	127.58
1575	2.485	8.0765	0.	127.8
1576	2.2757	4.7186	0.	127.36
1577	-5.4079	0.22236	0.	130.04
1578	6.4306	-3.752	0.	125.36
1579	-0.49429	-3.963	0.	116.69
1580	3.634	-2.1735	0.	126.36
1581	7.3167	-6.6116	0.	125.93
1582	6.309	-6.1527	0.	122.15
1583	-4.4686	6.0039	0.	125.88
1584	-7.6056	-6.8668	0.	125.35
1585	8.4783	-7.4844	0.	126.86
1586	3.1168	3.6231	0.	131.18
1587	-2.9496	3.5606	0.	127.44
1588	-2.4058	4.6011	0.	124.31
1589	0.47225	-5.0043	0.	127.73
1590	7.9942	-9.004	0.	126.98
1591	-5.4365	-0.7088	0.	128.56
1592	-6.0901	2.6405	0.	128.94
1593	-5.3652	1.6446	0.	127.06
1594	4.1903	5.0351	0.	132.27
1595	-2.9348	-5.5774	0.	132.57
1596	2.599	2.631	0.	129.9
1597	-4.47	5.5085	0.	125.86
1598	-7.5091	-2.9844	0.	118.
1599	-1.9413	3.6049	0.	126.27
1600	-7.1309	-0.25721	0.	114.25
1601	1.9816	8.0779	0.	126.93
1602	-1.2828	5.122	0.	122.66
1603	-5.0416	-2.1149	0.	127.09
1604	1.0189	4.3948	0.	135.56
1605	-0.99181	8.0421	0.	124.64
1606	-5.2947	2.1225	0.	129.77
1607	2.26	6.6249	0.	129.
1608	7.417	-7.0459	0.	126.92
1609	6.5171	6.5286	0.	126.77
1610	-3.4864	-9.5118	0.	132.27
1611	-8.5155	-5.479	0.	134.63
1612	3.9821	-6.7104	0.	128.53
1613	3.0149	-7.1096	0.	129.13
1614	5.938	-6.6931	0.	131.15
1615	-4.7954	-6.5859	0.	135.03
1616	3.4911	1.0916	0.	128.81
1617	1.9797	-1.2116	0.	128.16
1618	-5.9678	-8.4776	0.	115.56
1619	-8.0381	-0.92844	0.	123.07
1620	-4.5139	4.0176	0.	128.07
1621	1.4804	8.0915	0.	125.66
1622	-5.4335	7.9748	0.	125.59
1623	1.7487	5.174	0.	126.83
1624	-2.5948	-3.5516	0.	130.54
1625	1.5106	-6.4977	0.	123.22
1626	-4.9709	5.9976	0.	126.54
1627	6.9937	-0.45002	0.	124.37
1628	-5.837	1.6691	0.	130.4
1629	-5.1506	3.0784	0.	129.84
1630	0.23717	1.1997	0.	124.2
1631	8.02	-4.965	0.	127.85
1632	4.854	7.6828	0.	121.88
1633	-3.9228	-8.0561	0.	130.9
1634	3.9997	-8.0867	0.	127.99
1635	-4.8907	1.6285	0.	127.16
1636	9.5052	7.7215e-003	0.	130.62
1637	-1.0233	2.645	0.	117.75
1638	1.4111	-3.0481	0.	127.01
1639	-5.0397	-2.5952	0.	126.93
1640	5.1181	4.3777	0.	118.16
1641	-1.5169	-4.9614	0.	112.44
1642	-8.0144	-1.9579	0.	122.35
1643	-6.0362	3.5627	0.	127.36
1644	2.4697e-002	-0.1953	0.	127.96
1645	-3.1214	-2.6045	0.	126.57
1646	-3.8274	-5.5013	0.	132.8
1647	-2.4983	8.0352	0.	125.84
1648	-1.629	0.1892	0.	124.68
1649	-2.4272	4.0921	0.	125.62
1650	-7.9601	-7.9834	0.	129.73
1651	7.9802	-7.9985	0.	127.28
1652	-7.9996	2.9229	0.	121.33
1653	-3.5753	-3.0736	0.	127.87
1654	5.498	2.0081	0.	127.85
1655	-7.6518	7.3186	0.	106.65
1656	1.8706	-0.74148	0.	128.94
1657	-2.2774e-002	-4.9909	0.	120.74
1658	2.1265	4.2324	0.	131.22
1659	-9.0055	-4.9898	0.	130.83
1660	-0.52108	-4.964	0.	112.96
1661	-4.468	7.9962	0.	125.25
1662	-6.9866	4.0071	0.	120.83
1663	-6.018	-3.0323	0.	126.01
1664	1.3	2.636	0.	127.21
1665	2.5821	-6.4898	0.	126.08
1666	-1.4972	8.0455	0.	125.52
1667	5.9942	-7.133	0.	128.78
1668	7.4475	5.0522	0.	118.69
1669	6.9148	6.2008	0.	126.65
1670	-2.4959	1.5888	0.	129.06
1671	0.4915	-1.6133	0.	131.63
1672	-1.4468	3.6149	0.	126.88
1673	-2.9466	3.067	0.	128.46
1674	0.40159	-2.5652	0.	123.28
1675	-4.498	-0.25371	0.	129.29
1676	3.229	-2.0427	0.	126.37
1677	-3.5814	-0.73465	0.	130.78
1678	5.4692	1.0089	0.	124.42
1679	6.4051	-3.2716	0.	127.54
1680	-6.3656	7.9398	0.	126.92
1681	-1.8347	5.1981	0.	123.16
1682	6.4471	-0.46225	0.	126.59
1683	8.987	4.5117	0.	132.33
1684	6.2009	7.0075	0.	127.
1685	-6.0026	4.5282	0.	128.33
1686	0.85316	6.7722	0.	122.33
1687	-5.8604	0.21272	0.	132.25
1688	5.0401	3.4896	0.	123.33
1689	2.6566	4.17	0.	130.35
1690	-4.2911	-6.1005	0.	132.4
1691	7.9621	-3.9181	0.	128.73
1692	-3.5316	0.62916	0.	126.94
1693	4.8552e-002	-1.1209	0.	127.33
1694	-3.4879	8.0148	0.	125.46
1695	0.96346	-5.0072	0.	130.11
1696	-3.3553	-5.5701	0.	132.53
1697	3.7275	5.0621	0.	131.46
1698	4.0031	2.0562	0.	127.2
1699	0.70254	1.1906	0.	123.68
1700	-1.5221	6.1368	0.	127.01
1701	-4.9761	5.5056	0.	126.19
1702	3.1477	6.4617	0.	129.05
1703	-3.4458	2.0645	0.	128.32
1704	-4.563	-4.6583	0.	130.28
1705	7.9488	-6.9328	0.	126.46
1706	-2.9915	7.0421	0.	125.6
1707	-1.9192	4.1157	0.	125.63
1708	-5.0744	3.5547	0.	129.23
1709	-6.5142	-5.6798	0.	116.92
1710	-6.4884	-5.3385	0.	122.1
1711	-6.0739	-5.7875	0.	116.18
1712	-6.0402	-5.377	0.	119.87
1713	-3.3947	-6.5561	0.	128.57
1714	-3.8395	-6.0539	0.	131.07
1715	1.4148	7.189	0.	126.25
1716	3.0466	7.2035	0.	129.73
1717	-1.0432	7.0804	0.	126.07
1718	5.438	0.50225	0.	120.88
1719	5.2305	7.1667	0.	109.54
1720	-5.0045	-1.1731	0.	128.4
1721	-5.0264	-1.6396	0.	127.62
1722	-5.4827	-1.1648	0.	127.34
1723	-5.5174	-1.624	0.	126.47
1724	-5.9705	-1.1397	0.	125.42
1725	-6.0249	-1.592	0.	124.58
1726	-6.4739	-1.0635	0.	122.51
1727	-6.5595	-1.5367	0.	122.07
1728	-4.5344	-1.1791	0.	129.03
1729	-4.0673	-1.1849	0.	129.6
1730	-4.5498	-1.6518	0.	128.26
1731	-4.0777	-1.658	0.	128.66
1732	1.7489	3.1516	0.	130.23
1733	2.1814	3.1666	0.	131.01
1734	1.7295	2.651	0.	128.88
1735	2.1611	2.6485	0.	129.77
1736	1.7023	2.1478	0.	127.95
1737	2.1336	2.1335	0.	128.77
1738	1.6613	1.6471	0.	127.2
1739	2.109	1.6246	0.	128.15
1740	1.6203	1.155	0.	126.83
1741	2.0761	1.1222	0.	127.96
1742	1.32	3.0969	0.	127.78
1743	0.88901	3.0722	0.	124.17
1744	5.5675	-6.07	0.	113.58
1745	5.5925	-6.335	0.	106.58
1746	5.8126	-5.904	0.	139.23
1747	6.0595	-6.1664	0.	136.47
1748	5.874	-6.4365	0.	140.5
1749	5.0825	-5.85	0.	115.92
1750	4.865	-6.005	0.	146.91
1751	4.6134	-5.759	0.	139.56
1752	4.8507	-5.553	0.	132.43
1753	5.1575	-6.645	0.	99.506
1754	4.915	-6.535	0.	140.36
1755	4.6998	-6.7617	0.	133.26
1756	4.9697	-6.9701	0.	121.36
1757	5.89	-2.055	0.	145.48
1758	5.7283	-2.2283	0.	133.88
1759	6.1501	-2.2977	0.	143.95
1760	5.9334	-2.5154	0.	139.4
1761	5.61	-1.155	0.	121.06
1762	5.3783	-1.1033	0.	99.327
1763	5.4059	-0.76079	0.	111.05
1764	5.7796	-0.93233	0.	123.31
1765	4.8017	-2.0217	0.	133.23
1766	4.7317	-1.7967	0.	126.28
1767	4.5356	-2.2001	0.	154.81
1768	4.4035	-1.9089	0.	147.95
1769	4.825	5.0963	0.	139.81
1770	4.6725	5.2688	0.	150.34
1771	4.6388	4.7974	0.	145.32
1772	4.3951	5.0425	0.	148.22
1773	6.175	5.3738	0.	129.57
1774	6.2475	5.5925	0.	128.19
1775	6.6304	5.522	0.	138.96
1776	6.4345	5.1902	0.	145.87
1777	5.1075	6.5813	0.	125.27
1778	5.3325	6.6275	0.	110.05
1779	4.9087	6.8138	0.	128.07
1780	5.2052	6.9833	0.	116.17
1781	-1.7375	-1.9512	0.	143.2
1782	-1.5525	-1.8312	0.	120.79
1783	-1.7452	-1.5209	0.	129.75
1784	-1.9786	-1.7233	0.	138.01
1785	-1.6625	-3.2787	0.	135.58
1786	-1.4651	-3.38	0.	112.65
1787	-1.8838	-3.5173	0.	132.73
1788	-1.6065	-3.7194	0.	119.39
1789	-0.3675	-2.4388	0.	118.35
1790	-0.35507	-2.66	0.	117.48
1791	-9.1699e-002	-2.2947	0.	146.15
1792	-9.0934e-002	-2.7996	0.	144.82
1793	0.11579	-2.5526	0.	141.08
1794	-0.18667	4.5883	0.	132.58
1795	-0.355	4.7617	0.	145.6
1796	-0.42125	4.3136	0.	140.85
1797	-0.6483	4.5557	0.	140.75
1798	0.74667	4.8217	0.	133.86
1799	0.81167	5.0533	0.	125.35
1800	1.1422	4.9434	0.	148.54
1801	0.99945	4.6374	0.	154.64
1802	-9.5e-002	5.6883	0.	120.9
1803	0.13833	5.7467	0.	99.067
1804	-0.25377	5.9629	0.	124.78
1805	0.13264	6.0972	0.	111.96
1806	-0.97	0.525	0.	99.635
1807	-1.235	0.5125	0.	88.843
1808	-1.0459	3.1981e-002	0.	103.35
1809	-0.80269	0.28375	0.	113.64
1810	-1.3595	0.2396	0.	112.13
1811	-0.73	0.995	0.	131.34
1812	-0.875	1.2175	0.	132.56
1813	-0.6156	1.4627	0.	144.14
1814	-0.4139	1.2197	0.	141.84
1815	-1.525	0.9575	0.	123.25
1816	-1.405	1.1925	0.	133.17
1817	-1.8297	1.1587	0.	143.56
1818	-1.6223	1.4201	0.	143.04
1819	-7.455	8.7017	0.	120.25
1820	-7.25	8.5817	0.	140.6
1821	-7.053	8.8274	0.	135.77
1822	-7.3385	8.9902	0.	124.74
1823	-8.275	8.2283	0.	120.55
1824	-8.275	7.99	0.	121.51
1825	-8.7469	8.0647	0.	136.9
1826	-8.5066	7.8166	0.	138.06
1827	-8.5703	8.3342	0.	141.21
1828	-7.25	7.6283	0.	134.92
1829	-7.455	7.51	0.	115.47
1830	-7.1288	7.1996	0.	129.71
1831	-7.0388	7.4266	0.	129.29
1832	-7.4509	7.3543	0.	117.43
1833	-5.5683	-6.965	0.	119.08
1834	-5.5933	-7.23	0.	122.57
1835	-5.3367	-7.3762	0.	144.45
1836	-5.3042	-6.8296	0.	144.93
1837	-5.0966	-7.1047	0.	141.06
1838	-6.4417	-6.345	0.	115.29
1839	-6.685	-6.455	0.	142.17
1840	-6.8897	-6.2686	0.	133.22
1841	-6.6265	-6.095	0.	127.42
1842	-6.5667	-7.67	0.	127.09
1843	-6.785	-7.515	0.	147.42
1844	-6.7458	-7.9334	0.	129.94
1845	-6.9831	-7.7562	0.	142.33
1846	-7.4733	0.705	0.	123.82
1847	-7.6533	0.82833	0.	146.58
1848	-7.8942	0.5843	0.	140.59
1849	-7.6578	0.3772	0.	131.94
1850	-6.6867	1.085	0.	117.88
1851	-6.67	1.3033	0.	115.76
1852	-6.4301	0.90712	0.	146.17
1853	-6.3963	1.4606	0.	145.29
1854	-6.2048	1.179	0.	141.71
1855	-7.5867	1.7017	0.	139.36
1856	-7.39	1.7967	0.	113.73
1857	-7.8157	1.9391	0.	134.72
1858	-7.5676	2.1312	0.	124.5
1859	7.	8.75	0.	140.99
1860	7.25	9.	0.	128.8
1861	6.7471	9.0026	0.	132.06
1862	6.9997	9.2503	0.	131.46
1863	7.	8.25	0.	141.68
1864	7.25	8.	0.	129.21
1865	6.729	7.9994	0.	133.07
1866	6.9755	7.7086	0.	133.76
1867	8.75	9.	0.	130.78
1868	9.	8.75	0.	144.18
1869	9.25	9.	0.	134.28
1870	9.	9.25	0.	133.22
1871	8.75	8.	0.	129.92
1872	9.	8.25	0.	143.46
1873	8.9977	7.7523	0.	132.85
1874	9.2498	8.0003	0.	135.14
1875	6.	3.75	0.	134.04
1876	6.25	4.	0.	122.39
1877	5.7693	3.9746	0.	126.02
1878	6.0106	4.2197	0.	126.11
1879	6.	2.25	0.	135.78
1880	6.25	2.	0.	121.66
1881	5.9936	1.7511	0.	127.65
1882	5.749	2.004	0.	129.71
1883	7.75	4.	0.	127.68
1884	8.	3.75	0.	142.75
1885	8.2466	4.0047	0.	136.33
1886	7.9889	4.2603	0.	132.84
1887	7.75	2.	0.	125.48
1888	8.	2.25	0.	141.6
1889	8.2502	2.0016	0.	135.55
1890	7.9999	1.753	0.	131.95
1891	1.	-8.25	0.	140.77
1892	1.25	-8.	0.	123.44
1893	1.0017	-7.7499	0.	129.98
1894	0.7502	-7.9999	0.	134.36
1895	1.	-8.75	0.	140.46
1896	1.25	-9.	0.	123.52
1897	0.75016	-9.	0.	132.21
1898	0.99999	-9.25	0.	128.96
1899	1.75	-8.	0.	123.34
1900	2.	-8.25	0.	139.72
1901	2.25	-8.0137	0.	132.92
1902	2.0038	-7.7538	0.	129.88
1903	1.75	-9.	0.	123.31
1904	2.	-8.75	0.	139.34
1905	2.2491	-9.0061	0.	133.23
1906	1.9996	-9.2507	0.	129.33
1907	-2.	-6.25	0.	136.65
1908	-1.75	-6.	0.	120.95
1909	-1.9999	-5.7488	0.	127.68
1910	-2.2333	-6.0119	0.	131.49
1911	-2.	-7.75	0.	137.24
1912	-1.75	-8.	0.	121.78
1913	-1.9949	-8.2525	0.	128.45
1914	-2.2389	-8.0086	0.	131.91
1915	-0.25	-6.	0.	120.5
1916	0.	-6.25	0.	136.21
1917	-7.404e-003	-5.7471	0.	126.29
1918	0.2468	-6.0003	0.	130.13
1919	-0.25	-8.	0.	121.94
1920	0.	-7.75	0.	138.87
1921	3.0069e-004	-8.25	0.	128.34
1922	0.2502	-7.9999	0.	133.38
1923	-8.	-4.25	0.	139.72
1924	-7.75	-4.	0.	122.49
1925	-8.0014	-3.7462	0.	129.3
1926	-8.2504	-3.9973	0.	132.87
1927	-8.	-4.75	0.	140.79
1928	-7.75	-5.	0.	125.18
1929	-8.2526	-4.9945	0.	134.96
1930	-8.0074	-5.2373	0.	132.73
1931	-7.25	-4.	0.	120.22
1932	-7.	-4.25	0.	134.84
1933	-6.7545	-3.997	0.	128.37
1934	-7.0037	-3.7481	0.	125.35
1935	-7.25	-5.	0.	123.54
1936	-7.	-4.75	0.	136.49
1937	-6.7563	-4.9669	0.	128.11
1938	-6.9788	-5.2378	0.	130.64
1939	-9.	5.75	0.	142.71
1940	-8.75	6.	0.	127.24
1941	-9.0051	6.25	0.	133.49
1942	-9.2505	5.9999	0.	136.49
1943	-9.	5.25	0.	142.46
1944	-8.75	5.	0.	127.02
1945	-8.9969	4.7462	0.	132.18
1946	-9.2496	4.9991	0.	135.99
1947	-7.25	6.	0.	122.4
1948	-7.	5.75	0.	136.59
1949	-6.745	5.9975	0.	131.16
1950	-6.9992	6.2474	0.	128.02
1951	-7.25	5.	0.	123.12
1952	-7.	5.25	0.	136.85
1953	-6.7489	5.0046	0.	130.39
1954	-6.9984	4.7512	0.	127.98
1955	9.75	10.	0.	125.17
1956	10.	9.75	0.	124.49
1957	-9.75	10.	0.	125.11
1958	-10.	9.75	0.	124.79
1959	10.	-9.75	0.	127.55
1960	9.75	-10.	0.	127.43
1961	-10.	-9.75	0.	132.09
1962	-9.75	-10.	0.	131.5
1963	5.3355	-5.7299	0.	91.357
1964	5.4515	-6.7486	0.	90.9
1965	4.6576	-6.2628	0.	137.11
1966	5.75	-1.605	0.	131.44
1967	6.0374	-1.8371	0.	133.5
1968	5.9127	-1.3823	0.	126.61
1969	5.265	-2.125	0.	100.58
1970	5.4635	-2.4266	0.	105.75
1971	4.9964	-2.3141	0.	101.52
1972	5.055	-1.45	0.	83.154
1973	5.0065	-1.1017	0.	104.48
1974	4.6924	-1.5146	0.	109.45
1975	5.275	5.1887	0.	116.46
1976	5.0808	4.9484	0.	114.73
1977	5.725	5.2812	0.	108.63
1978	5.5242	5.0268	0.	118.12
1979	5.9759	5.1062	0.	105.35
1980	4.8175	5.7063	0.	138.19
1981	4.5158	5.4945	0.	139.03
1982	4.9625	6.1438	0.	133.13
1983	4.652	5.9369	0.	136.51
1984	4.7862	6.3766	0.	128.61
1985	5.9425	5.9375	0.	101.68
1986	6.2909	5.8686	0.	115.58
1987	5.6375	6.2825	0.	102.87
1988	5.9981	6.1943	0.	114.89
1989	5.5858	6.7175	0.	110.22
1990	5.7601	6.5242	0.	110.43
1991	-1.7125	-2.3937	0.	141.43
1992	-1.9601	-2.1671	0.	136.08
1993	-1.6875	-2.8363	0.	139.53
1994	-1.9376	-2.6139	0.	136.88
1995	-1.9126	-3.0634	0.	133.02
1996	-1.1575	-2.0338	0.	98.122
1997	-1.3001	-1.6566	0.	100.78
1998	-0.7625	-2.2362	0.	89.769
1999	-0.87432	-1.9004	0.	105.73
2000	-0.49468	-2.1392	0.	96.477
2001	-1.0952	-3.1401	0.	94.785
2002	-1.153	-3.5262	0.	100.53
2003	-0.72517	-2.9001	0.	87.254
2004	-0.81702	-3.2054	0.	103.56
2005	-0.46906	-2.9675	0.	96.346
2006	0.28	4.705	0.	100.53
2007	5.8723e-002	4.4005	0.	104.87
2008	0.53424	4.5052	0.	102.39
2009	-0.225	5.225	0.	132.13
2010	-0.53377	5.0273	0.	133.5
2011	-0.40097	5.4977	0.	126.51
2012	0.475	5.4	0.	82.016
2013	0.8346	5.3262	0.	107.94
2014	0.52195	5.731	0.	103.72
2015	-0.60716	0.74929	0.	116.36
2016	-1.5979	0.69843	0.	108.37
2017	-1.1197	1.4423	0.	98.549
2018	-7.865	8.465	0.	97.352
2019	-7.7946	8.8106	0.	111.06
2020	-8.1776	8.5395	0.	109.19
2021	-7.25	8.105	0.	142.77
2022	-7.0344	8.361	0.	137.5
2023	-7.0313	7.89	0.	137.06
2024	-7.865	7.75	0.	98.712
2025	-8.0766	7.6442	0.	104.59
2026	-7.6559	7.4743	0.	104.25
2027	-6.005	-6.655	0.	85.685
2028	-5.7423	-6.5889	0.	99.628
2029	-6.1806	-6.3334	0.	101.29
2030	-6.08	-7.45	0.	95.468
2031	-5.8145	-7.631	0.	102.31
2032	-6.2989	-7.7724	0.	104.89
2033	-6.735	-6.985	0.	143.81
2034	-6.9305	-6.7598	0.	137.65
2035	-6.9646	-7.2613	0.	139.29
2036	-7.08	0.895	0.	87.693
2037	-7.2446	0.5424	0.	102.02
2038	-6.8418	0.73217	0.	97.342
2039	-7.62	1.265	0.	143.69
2040	-7.8718	1.0381	0.	137.82
2041	-7.8442	1.4885	0.	135.21
2042	-7.03	1.55	0.	80.668
2043	-6.779	1.6912	0.	97.972
2044	-7.168	1.9166	0.	98.938
2045	6.7418	8.5026	0.	136.78
2046	7.75	9.	0.	125.25
2047	7.4999	9.25	0.	120.97
2048	8.25	9.	0.	125.79
2049	8.	9.25	0.	125.66
2050	8.5	9.25	0.	121.68
2051	7.75	8.	0.	124.12
2052	7.4925	7.7659	0.	120.67
2053	8.25	8.	0.	124.79
2054	7.9911	7.7592	0.	124.66
2055	8.4938	7.7552	0.	121.36
2056	9.25	8.5001	0.	140.19
2057	6.	3.25	0.	139.1
2058	5.7612	3.4903	0.	132.92
2059	6.	2.75	0.	140.02
2060	5.7561	2.9979	0.	135.35
2061	5.7523	2.5018	0.	134.83
2062	6.75	4.	0.	118.61
2063	6.4993	4.2403	0.	116.06
2064	7.25	4.	0.	119.93
2065	6.992	4.257	0.	121.19
2066	7.4887	4.262	0.	117.76
2067	6.75	2.	0.	114.96
2068	6.4943	1.7495	0.	112.3
2069	7.25	2.	0.	116.4
2070	6.995	1.7499	0.	115.91
2071	7.4982	1.7524	0.	114.86
2072	8.	3.25	0.	147.85
2073	8.249	3.5022	0.	142.44
2074	8.	2.75	0.	147.48
2075	8.2497	3.0013	0.	143.7
2076	8.25	2.501	0.	141.91
2077	0.75014	-8.5	0.	140.03
2078	1.5028	-7.7503	0.	112.38
2079	1.4999	-9.2501	0.	112.73
2080	2.2492	-8.5096	0.	138.16
2081	-2.	-6.75	0.	141.76
2082	-2.2331	-6.5114	0.	137.24
2083	-2.	-7.25	0.	141.99
2084	-2.2348	-7.0105	0.	138.46
2085	-2.2368	-7.5094	0.	137.29
2086	-1.25	-6.	0.	112.08
2087	-1.5024	-5.7411	0.	110.12
2088	-0.75	-6.	0.	112.33
2089	-1.004	-5.7379	0.	111.75
2090	-0.50565	-5.7417	0.	110.46
2091	-1.25	-8.	0.	113.13
2092	-1.4976	-8.2507	0.	111.42
2093	-0.75	-8.	0.	113.04
2094	-0.99882	-8.2502	0.	113.2
2095	-0.49944	-8.2501	0.	111.14
2096	0.	-6.75	0.	143.02
2097	0.25002	-6.5002	0.	136.39
2098	0.	-7.25	0.	144.36
2099	0.25098	-7.	0.	139.23
2100	0.25075	-7.4999	0.	140.27
2101	-8.2508	-4.4969	0.	138.71
2102	-7.5024	-3.7467	0.	111.19
2103	-7.5013	-5.2348	0.	116.31
2104	-6.7561	-4.4874	0.	132.91
2105	-9.25	5.4997	0.	141.43
2106	-8.25	6.	0.	118.07
2107	-8.5082	6.2463	0.	117.41
2108	-7.75	6.	0.	116.08
2109	-8.0095	6.2388	0.	116.46
2110	-7.5059	6.2374	0.	112.11
2111	-8.25	5.	0.	118.77
2112	-8.4955	4.7432	0.	116.84
2113	-7.75	5.	0.	117.26
2114	-7.9948	4.7399	0.	117.97
2115	-7.4961	4.7412	0.	114.12
2116	-6.7472	5.5009	0.	134.98
2117	9.25	10.	0.	123.51
2118	9.5	9.75	0.	126.63
2119	8.75	10.	0.	120.66
2120	9.	9.75	0.	124.39
2121	8.25	10.	0.	118.33
2122	8.5	9.75	0.	120.01
2123	7.75	10.	0.	118.38
2124	8.	9.75	0.	119.9
2125	7.25	10.	0.	120.95
2126	7.4999	9.75	0.	119.91
2127	6.75	10.	0.	124.51
2128	6.9997	9.7503	0.	124.28
2129	6.25	10.	0.	126.54
2130	6.4991	9.7515	0.	127.24
2131	5.75	10.	0.	126.11
2132	5.9986	9.7543	0.	125.8
2133	5.25	10.	0.	125.26
2134	5.4983	9.7581	0.	124.81
2135	4.75	10.	0.	125.04
2136	4.9979	9.7622	0.	124.63
2137	4.25	10.	0.	125.3
2138	4.4973	9.7658	0.	124.93
2139	3.75	10.	0.	125.75
2140	3.9969	9.7663	0.	125.44
2141	3.25	10.	0.	126.13
2142	3.4972	9.7633	0.	125.9
2143	2.75	10.	0.	126.29
2144	2.9976	9.7601	0.	126.16
2145	2.25	10.	0.	126.2
2146	2.4981	9.758	0.	126.18
2147	1.75	10.	0.	125.91
2148	1.9986	9.7574	0.	125.99
2149	1.25	10.	0.	125.54
2150	1.499	9.7582	0.	125.67
2151	0.75	10.	0.	125.2
2152	0.99919	9.7595	0.	125.32
2153	0.25	10.	0.	125.
2154	0.49915	9.7608	0.	125.06
2155	-0.25	10.	0.	124.98
2156	-9.4312e-004	9.7592	0.	124.96
2157	-0.75	10.	0.	125.15
2158	-0.50075	9.7567	0.	125.05
2159	-1.25	10.	0.	125.44
2160	-1.0004	9.7552	0.	125.28
2161	-1.75	10.	0.	125.79
2162	-1.5001	9.7549	0.	125.58
2163	-2.25	10.	0.	126.14
2164	-2.0001	9.7544	0.	125.89
2165	-2.75	10.	0.	126.46
2166	-2.4999	9.7536	0.	126.16
2167	-3.25	10.	0.	126.75
2168	-2.9995	9.7527	0.	126.4
2169	-3.75	10.	0.	127.02
2170	-3.4987	9.7517	0.	126.6
2171	-4.25	10.	0.	127.31
2172	-3.9977	9.7507	0.	126.78
2173	-4.75	10.	0.	127.66
2174	-4.4964	9.7496	0.	126.96
2175	-5.25	10.	0.	128.05
2176	-4.9951	9.7481	0.	127.17
2177	-5.75	10.	0.	128.36
2178	-5.4947	9.7456	0.	127.42
2179	-6.25	10.	0.	127.55
2180	-5.9987	9.7401	0.	127.73
2181	-6.75	10.	0.	124.72
2182	-6.5177	9.7271	0.	127.96
2183	-7.25	10.	0.	121.13
2184	-7.0081	9.7992	0.	123.97
2185	-7.75	10.	0.	119.6
2186	-7.4946	9.7867	0.	119.82
2187	-8.25	10.	0.	120.93
2188	-7.9882	9.7686	0.	120.35
2189	-8.75	10.	0.	123.35
2190	-8.4892	9.7688	0.	123.69
2191	-9.25	10.	0.	124.83
2192	-8.9916	9.7503	0.	125.44
2193	-9.495	9.7482	0.	125.37
2194	10.	9.25	0.	121.57
2195	9.75	9.5	0.	125.94
2196	10.	8.75	0.	118.86
2197	9.75	9.	0.	124.69
2198	10.	8.25	0.	121.79
2199	9.75	8.5001	0.	124.65
2200	10.	7.75	0.	129.08
2201	9.7498	8.0003	0.	129.12
2202	10.	7.25	0.	133.3
2203	9.749	7.5008	0.	132.91
2204	10.	6.75	0.	133.25
2205	9.7479	7.0017	0.	132.02
2206	10.	6.25	0.	131.99
2207	9.7471	6.5024	0.	130.88
2208	10.	5.75	0.	131.31
2209	9.7461	6.0029	0.	130.34
2210	10.	5.25	0.	131.08
2211	9.7454	5.5032	0.	130.41
2212	10.	4.75	0.	130.59
2213	9.7455	5.0033	0.	130.69
2214	10.	4.25	0.	129.41
2215	9.7466	4.503	0.	130.49
2216	10.	3.75	0.	127.94
2217	9.748	4.0023	0.	129.61
2218	10.	3.25	0.	127.14
2219	9.7491	3.5016	0.	128.8
2220	10.	2.75	0.	127.71
2221	9.7497	3.0011	0.	128.75
2222	10.	2.25	0.	129.61
2223	9.7499	2.5008	0.	129.7
2224	10.	1.75	0.	132.
2225	9.7501	2.0008	0.	131.36
2226	10.	1.25	0.	133.7
2227	9.7503	1.501	0.	132.89
2228	10.	0.75	0.	133.99
2229	9.7507	1.0016	0.	133.37
2230	10.	0.25	0.	133.03
2231	9.7514	0.50251	0.	132.74
2232	10.	-0.25	0.	131.41
2233	9.7526	3.8608e-003	0.	131.46
2234	10.	-0.75	0.	129.7
2235	9.7541	-0.49479	0.	129.99
2236	10.	-1.25	0.	128.27
2237	9.7558	-0.99364	0.	128.66
2238	10.	-1.75	0.	127.34
2239	9.7574	-1.4928	0.	127.67
2240	10.	-2.25	0.	126.94
2241	9.7579	-1.9925	0.	127.13
2242	10.	-2.75	0.	126.95
2243	9.7573	-2.4934	0.	127.
2244	10.	-3.25	0.	127.16
2245	9.7546	-2.9942	0.	127.12
2246	10.	-3.75	0.	127.33
2247	9.7511	-3.4948	0.	127.31
2248	10.	-4.25	0.	127.31
2249	9.7491	-3.9948	0.	127.37
2250	10.	-4.75	0.	127.08
2251	9.7496	-4.4946	0.	127.25
2252	10.	-5.25	0.	126.7
2253	9.7526	-4.9943	0.	126.97
2254	10.	-5.75	0.	126.33
2255	9.7558	-5.495	0.	126.62
2256	10.	-6.25	0.	126.1
2257	9.757	-5.9964	0.	126.34
2258	10.	-6.75	0.	126.09
2259	9.7548	-6.4979	0.	126.23
2260	10.	-7.25	0.	126.29
2261	9.7503	-6.9986	0.	126.32
2262	10.	-7.75	0.	126.62
2263	9.7477	-7.4987	0.	126.54
2264	10.	-8.25	0.	126.96
2265	9.7472	-7.9989	0.	126.82
2266	10.	-8.75	0.	127.25
2267	9.7479	-8.4991	0.	127.08
2268	10.	-9.25	0.	127.45
2269	9.7488	-8.9994	0.	127.27
2270	9.7495	-9.4997	0.	127.39
2271	-10.	9.25	0.	123.87
2272	-9.745	9.4982	0.	125.05
2273	-10.	8.75	0.	122.57
2274	-9.7429	8.998	0.	124.93
2275	-10.	8.25	0.	122.56
2276	-9.7575	8.4998	0.	123.9
2277	-10.	7.75	0.	126.25
2278	-9.7554	8.0015	0.	125.06
2279	-10.	7.25	0.	132.48
2280	-9.7536	7.5025	0.	129.28
2281	-10.	6.75	0.	136.53
2282	-9.7534	7.0016	0.	134.02
2283	-10.	6.25	0.	134.91
2284	-9.7522	6.5004	0.	136.61
2285	-10.	5.75	0.	129.91
2286	-9.7505	5.9999	0.	133.99
2287	-10.	5.25	0.	129.52
2288	-9.75	5.4997	0.	131.28
2289	-10.	4.75	0.	134.18
2290	-9.7496	4.9991	0.	133.37
2291	-10.	4.25	0.	136.87
2292	-9.7484	4.4981	0.	135.9
2293	-10.	3.75	0.	135.8
2294	-9.7479	3.9975	0.	134.25
2295	-10.	3.25	0.	133.16
2296	-9.7485	3.4973	0.	132.36
2297	-10.	2.75	0.	130.19
2298	-9.7507	2.9978	0.	130.55
2299	-10.	2.25	0.	126.96
2300	-9.7539	2.4988	0.	128.43
2301	-10.	1.75	0.	124.09
2302	-9.7573	2.0001	0.	126.
2303	-10.	1.25	0.	122.74
2304	-9.7601	1.5015	0.	124.12
2305	-10.	0.75	0.	123.58
2306	-9.762	1.0028	0.	123.92
2307	-10.	0.25	0.	125.92
2308	-9.7625	0.50384	0.	125.47
2309	-10.	-0.25	0.	128.32
2310	-9.7612	4.3497e-003	0.	127.55
2311	-10.	-0.75	0.	129.9
2312	-9.7587	-0.49557	0.	129.02
2313	-10.	-1.25	0.	130.66
2314	-9.7559	-0.99577	0.	129.7
2315	-10.	-1.75	0.	131.02
2316	-9.7535	-1.4961	0.	129.99
2317	-10.	-2.25	0.	131.24
2318	-9.752	-1.9965	0.	130.23
2319	-10.	-2.75	0.	131.2
2320	-9.7511	-2.497	0.	130.48
2321	-10.	-3.25	0.	130.59
2322	-9.7506	-2.9974	0.	130.52
2323	-10.	-3.75	0.	129.38
2324	-9.7503	-3.4979	0.	130.01
2325	-10.	-4.25	0.	128.24
2326	-9.7504	-3.9982	0.	129.03
2327	-10.	-4.75	0.	127.93
2328	-9.7507	-4.4981	0.	128.45
2329	-10.	-5.25	0.	128.28
2330	-9.7516	-4.9974	0.	128.65
2331	-10.	-5.75	0.	128.37
2332	-9.753	-5.4965	0.	128.98
2333	-10.	-6.25	0.	127.76
2334	-9.7546	-5.9956	0.	128.57
2335	-10.	-6.75	0.	126.95
2336	-9.7556	-6.4956	0.	127.67
2337	-10.	-7.25	0.	126.73
2338	-9.7549	-6.9961	0.	127.07
2339	-10.	-7.75	0.	127.43
2340	-9.753	-7.4972	0.	127.27
2341	-10.	-8.25	0.	128.79
2342	-9.7506	-7.9981	0.	128.22
2343	-10.	-8.75	0.	130.29
2344	-9.7499	-8.4989	0.	129.47
2345	-10.	-9.25	0.	131.47
2346	-9.7502	-8.9995	0.	130.57
2347	-9.7503	-9.4999	0.	131.27
2348	-9.25	-10.	0.	130.4
2349	-9.5003	-9.7499	0.	130.68
2350	-8.75	-10.	0.	129.67
2351	-9.0007	-9.7503	0.	130.04
2352	-8.25	-10.	0.	128.58
2353	-8.5012	-9.752	0.	129.42
2354	-7.75	-10.	0.	126.53
2355	-8.0014	-9.7557	0.	128.09
2356	-7.25	-10.	0.	123.56
2357	-7.5004	-9.7591	0.	125.46
2358	-6.75	-10.	0.	120.8
2359	-6.9982	-9.7568	0.	121.9
2360	-6.25	-10.	0.	119.92
2361	-6.4965	-9.7506	0.	119.4
2362	-5.75	-10.	0.	121.63
2363	-5.9955	-9.7495	0.	119.89
2364	-5.25	-10.	0.	125.07
2365	-5.4942	-9.7529	0.	123.14
2366	-4.75	-10.	0.	128.64
2367	-4.9929	-9.756	0.	127.24
2368	-4.25	-10.	0.	131.13
2369	-4.4922	-9.7573	0.	130.43
2370	-3.75	-10.	0.	132.07
2371	-3.9924	-9.757	0.	132.1
2372	-3.25	-10.	0.	131.32
2373	-3.4932	-9.7559	0.	132.2
2374	-2.75	-10.	0.	128.72
2375	-2.9946	-9.7545	0.	130.64
2376	-2.25	-10.	0.	124.55
2377	-2.4961	-9.7529	0.	127.12
2378	-1.75	-10.	0.	120.08
2379	-1.9974	-9.7516	0.	122.14
2380	-1.25	-10.	0.	117.37
2381	-1.4984	-9.7507	0.	117.69
2382	-0.75	-10.	0.	117.96
2383	-0.99911	-9.7503	0.	116.21
2384	-0.25	-10.	0.	121.75
2385	-0.49954	-9.7501	0.	118.73
2386	0.25	-10.	0.	125.54
2387	2.2346e-004	-9.75	0.	124.13
2388	0.75	-10.	0.	123.95
2389	0.50009	-9.75	0.	128.15
2390	1.25	-10.	0.	118.94
2391	0.99999	-9.75	0.	122.08
2392	1.75	-10.	0.	119.78
2393	1.4999	-9.7501	0.	114.93
2394	2.25	-10.	0.	127.09
2395	1.9996	-9.7507	0.	123.47
2396	2.75	-10.	0.	132.08
2397	2.4993	-9.7531	0.	132.46
2398	3.25	-10.	0.	131.7
2399	2.9992	-9.7557	0.	132.53
2400	3.75	-10.	0.	129.42
2401	3.4993	-9.7579	0.	130.38
2402	4.25	-10.	0.	127.16
2403	3.9997	-9.7589	0.	128.06
2404	4.75	-10.	0.	125.4
2405	4.5	-9.7588	0.	126.
2406	5.25	-10.	0.	124.4
2407	5.	-9.7583	0.	124.57
2408	5.75	-10.	0.	124.21
2409	5.4998	-9.7577	0.	124.01
2410	6.25	-10.	0.	124.64
2411	5.9995	-9.7572	0.	124.27
2412	6.75	-10.	0.	125.36
2413	6.4993	-9.7563	0.	125.
2414	7.25	-10.	0.	126.06
2415	6.9991	-9.7548	0.	125.79
2416	7.75	-10.	0.	126.56
2417	7.499	-9.7529	0.	126.41
2418	8.25	-10.	0.	126.87
2419	7.999	-9.7512	0.	126.79
2420	8.75	-10.	0.	127.05
2421	8.499	-9.7501	0.	126.99
2422	9.25	-10.	0.	127.2
2423	8.9991	-9.7497	0.	127.12
2424	9.4995	-9.7497	0.	127.27
2425	2.404	6.1503	0.	128.37
2426	2.8429	6.1222	0.	128.01
2427	2.6775	6.382	0.	128.52
2428	2.7203	5.9247	0.	127.46
2429	2.3081	-0.60017	0.	128.88
2430	2.4488	-0.88821	0.	128.48
2431	2.1154	-1.0157	0.	128.39
2432	2.0608	-0.7806	0.	128.78
2433	-3.4538	5.2808	0.	125.06
2434	-3.4642	5.7811	0.	124.99
2435	-3.711	5.5235	0.	125.18
2436	-3.2076	5.5439	0.	124.71
2437	-2.7313	6.0705	0.	124.97
2438	-3.2219	6.0425	0.	124.97
2439	-2.9653	5.8053	0.	124.68
2440	-2.9801	6.3017	0.	125.11
2441	-2.4926	6.3309	0.	125.38
2442	-2.4765	5.8419	0.	124.62
2443	-2.2498	6.1053	0.	125.35
2444	-4.0115	3.7265	0.	128.08
2445	-4.3022	3.491	0.	128.75
2446	-3.95	3.2236	0.	128.7
2447	-3.7503	3.49	0.	128.27
2448	-4.1521	3.2282	0.	128.83
2449	2.4128	-0.14707	0.	129.21
2450	2.5815	-0.43639	0.	129.27
2451	2.1462	-0.34073	0.	129.07
2452	2.493	0.32874	0.	129.16
2453	2.2883	0.60049	0.	128.65
2454	2.528	0.82549	0.	128.88
2455	2.7874	0.53775	0.	129.32
2456	2.2297	0.12174	0.	128.98
2457	2.689	3.7747e-002	0.	129.55
2458	-4.5536	-2.3584	0.	127.48
2459	-4.3182	-2.1238	0.	127.68
2460	-4.7987	-2.1174	0.	127.35
2461	-4.5528	-1.8858	0.	127.94
2462	-3.4506	4.7798	0.	125.55
2463	-3.7066	5.0238	0.	125.5
2464	-3.1911	5.0448	0.	124.83
2465	-3.7191	6.0228	0.	125.22
2466	-3.4742	6.2799	0.	125.16
2467	-3.7299	4.0118	0.	127.27
2468	-3.9821	4.2559	0.	127.08
2469	-4.2531	4.0082	0.	127.83
2470	-3.9658	5.7652	0.	125.41
2471	-3.9637	5.2665	0.	125.61
2472	-4.2169	5.5123	0.	125.64
2473	2.9992	1.3157	0.	128.93
2474	2.7639	1.0679	0.	128.88
2475	3.0232	0.78012	0.	129.32
2476	3.2442	1.0737	0.	128.93
2477	2.7962	2.1001	0.	129.02
2478	2.5572	1.8542	0.	128.9
2479	2.5842	2.3716	0.	129.51
2480	2.3514	2.1228	0.	128.94
2481	2.025	0.39349	0.	128.47
2482	1.8169	0.65165	0.	127.71
2483	2.0636	0.8761	0.	128.1
2484	2.8578	-0.25157	0.	129.61
2485	2.7222	-0.72443	0.	128.87
2486	3.021	-0.55695	0.	129.63
2487	-2.7414	6.5622	0.	125.53
2488	-2.256	6.5859	0.	126.08
2489	-2.4986	6.8177	0.	125.85
2490	-4.3116	-2.5978	0.	127.37
2491	-3.8336	-2.5992	0.	127.25
2492	-4.0762	-2.3632	0.	127.57
2493	-4.0638	-2.8374	0.	127.65
2494	2.6299	-3.9908	0.	130.39
2495	3.1421	-3.9902	0.	130.36
2496	2.8546	-3.7444	0.	130.26
2497	2.876	-4.2225	0.	130.52
2498	3.037	2.3449	0.	129.18
2499	3.0701	2.8578	0.	129.86
2500	3.291	2.5876	0.	128.92
2501	2.8249	2.6164	0.	129.67
2502	-4.5449	-2.8413	0.	127.46
2503	-4.7955	-2.5961	0.	127.14
2504	-4.6345	3.2907	0.	129.22
2505	-4.5439	3.7726	0.	128.5
2506	-4.8241	3.5412	0.	129.08
2507	-4.0715	2.9976	0.	128.97
2508	-3.8784	2.765	0.	128.79
2509	-3.6485	3.0158	0.	128.78
2510	-3.4687	3.7753	0.	127.47
2511	-3.4488	3.2821	0.	128.34
2512	-3.2098	3.5431	0.	127.71
2513	2.3913	-4.2366	0.	130.29
2514	2.1573	-4.4875	0.	130.33
2515	2.6374	-4.4683	0.	130.43
2516	2.4056	-4.7198	0.	129.95
2517	2.146	-4.0019	0.	130.16
2518	2.3798	-3.7497	0.	129.85
2519	-4.7456	-0.71431	0.	129.32
2520	-4.2827	-0.7175	0.	129.73
2521	-4.5065	-0.4848	0.	129.39
2522	-4.5247	-0.94748	0.	129.26
2523	-4.4844	3.0279	0.	129.3
2524	-4.3058	2.7752	0.	129.01
2525	-3.6568	2.5441	0.	128.82
2526	-4.1126	2.5426	0.	128.83
2527	-3.9034	2.3033	0.	128.38
2528	-2.7105	5.5767	0.	124.33
2529	-2.9449	5.3078	0.	124.47
2530	-3.4596	4.2769	0.	126.43
2531	-3.7117	4.521	0.	126.24
2532	-3.191	4.5439	0.	125.51
2533	-3.2049	4.0416	0.	126.6
2534	-3.97	6.2632	0.	125.44
2535	-4.2182	6.0091	0.	125.63
2536	-4.0427	-0.48901	0.	129.73
2537	-3.7996	-0.26911	0.	129.77
2538	-4.0273	-3.0541e-002	0.	128.93
2539	-4.2664	-0.25632	0.	129.39
2540	-3.9677	4.765	0.	126.19
2541	-4.2294	4.5143	0.	126.82
2542	-4.2192	5.0147	0.	126.03
2543	3.012	1.8318	0.	128.87
2544	3.2649	2.0793	0.	128.57
2545	3.2461	1.5749	0.	128.61
2546	2.7731	1.5859	0.	128.76
2547	2.5378	1.3381	0.	128.71
2548	2.3033	1.1011	0.	128.34
2549	1.9631	-7.1912e-002	0.	128.84
2550	1.7038	-0.28034	0.	128.97
2551	1.899	-0.52116	0.	128.97
2552	1.766	0.18029	0.	128.37
2553	2.9834	0.24675	0.	129.71
2554	3.2715	0.3692	0.	129.74
2555	3.2827	0.57557	0.	129.44
2556	3.1427	-9.1031e-002	0.	130.05
2557	-3.2324	6.5391	0.	125.31
2558	-3.7251	6.5202	0.	125.38
2559	-3.4802	6.7763	0.	125.35
2560	-2.9891	6.7959	0.	125.47
2561	2.2223	5.902	0.	127.93
2562	1.9515	6.0617	0.	129.2
2563	1.9494	6.2382	0.	129.1
2564	2.2143	6.3861	0.	128.84
2565	2.5547	-1.1858	0.	127.8
2566	2.8691	-1.0153	0.	128.29
2567	-2.0132	6.8377	0.	126.45
2568	-2.0132	6.3603	0.	126.04
2569	-1.7777	6.6033	0.	126.88
2570	-2.236	5.6292	0.	124.29
2571	-1.7933	5.6667	0.	124.7
2572	-2.0092	5.8927	0.	125.02
2573	-1.9214	5.43	0.	123.77
2574	3.3806	-4.224	0.	130.27
2575	3.5381	-3.7999	0.	129.99
2576	3.6743	-4.1087	0.	129.21
2577	3.3248	-3.7456	0.	130.29
2578	-3.6014	-2.3644	0.	127.33
2579	-3.3584	-2.6022	0.	126.83
2580	-3.5853	-2.8367	0.	127.48
2581	2.9239	5.8934	0.	127.42
2582	3.2603	6.0527	0.	128.24
2583	3.0971	6.2763	0.	128.5
2584	2.8583	3.1317	0.	130.57
2585	3.3277	3.0979	0.	129.72
2586	3.103	3.3685	0.	130.73
2587	2.6356	3.4079	0.	131.11
2588	2.4118	3.6786	0.	131.64
2589	2.8804	3.6447	0.	131.26
2590	2.6503	3.9181	0.	130.85
2591	2.6045	-3.5033	0.	129.72
2592	2.8473	-3.2507	0.	129.53
2593	3.0373	-3.4997	0.	130.18
2594	-5.5286	-2.3316	0.	126.16
2595	-5.7799	-2.0766	0.	125.3
2596	-5.2848	-2.1028	0.	126.6
2597	-5.5227	-1.8573	0.	126.29
2598	1.912	-4.2528	0.	130.2
2599	1.6776	-4.5031	0.	130.36
2600	1.9261	-4.7418	0.	129.96
2601	-3.4269	2.7949	0.	128.8
2602	-3.1899	2.5602	0.	129.1
2603	-3.436	2.3079	0.	128.61
2604	-3.1871	3.0528	0.	128.58
2605	3.1146	-4.4563	0.	130.43
2606	2.883	-4.695	0.	130.19
2607	1.6675	-4.0144	0.	130.06
2608	1.9026	-3.7631	0.	129.53
2609	-4.967	-0.48053	0.	129.29
2610	-5.2064	-0.71076	0.	128.86
2611	-4.9904	-0.94291	0.	128.78
2612	-4.7381	2.8153	0.	129.47
2613	-4.9229	3.066	0.	129.67
2614	-4.5595	2.5626	0.	129.19
2615	-4.3598	2.3152	0.	128.51
2616	-2.4341	5.3511	0.	123.91
2617	2.3876	-1.6765	0.	126.95
2618	2.6955	-1.4688	0.	127.02
2619	2.2213	-1.3133	0.	127.71
2620	2.3765	-3.2541	0.	128.82
2621	2.1364	-3.5109	0.	129.22
2622	2.6022	6.8432	0.	129.04
2623	2.9288	6.7154	0.	129.34
2624	2.4878	6.6178	0.	129.
2625	2.9317	6.5362	0.	129.02
2626	3.306	-0.39641	0.	130.07
2627	3.48	-0.67923	0.	130.35
2628	3.1679	-0.8478	0.	129.05
2629	1.4646	-0.49241	0.	129.16
2630	1.4532	-0.95689	0.	129.18
2631	1.2183	-0.71124	0.	129.61
2632	1.6597	-0.73323	0.	129.16
2633	2.1744	-4.9742	0.	129.59
2634	2.4293	-5.2058	0.	128.82
2635	2.6512	-4.9465	0.	129.72
2636	-3.9313	1.8328	0.	127.55
2637	-4.1506	2.0759	0.	128.07
2638	-3.6827	2.067	0.	128.17
2639	1.5579	0.43845	0.	127.62
2640	1.346	0.68758	0.	126.49
2641	1.6015	0.9142	0.	127.
2642	3.5189	2.322	0.	128.31
2643	3.5486	2.8277	0.	128.79
2644	3.7759	2.5623	0.	127.67
2645	-4.22	6.5058	0.	125.76
2646	-3.9732	6.7605	0.	125.5
2647	-4.5254	-3.3385	0.	127.9
2648	-4.7823	-3.0835	0.	127.29
2649	-4.2971	-3.0809	0.	127.73
2650	2.6131	2.8902	0.	130.38
2651	2.4043	3.158	0.	130.94
2652	-2.9315	4.8089	0.	124.79
2653	-2.6685	5.0822	0.	124.05
2654	-3.844	-2.1284	0.	127.66
2655	-4.0791	-1.8929	0.	128.2
2656	-3.816	-0.72687	0.	130.37
2657	-4.0589	-0.952	0.	129.79
2658	-3.9893	-4.1968	0.	130.97
2659	-4.2241	-4.2701	0.	130.48
2660	-4.0438	-4.6119	0.	131.87
2661	-3.7662	-4.4492	0.	132.11
2662	-4.0052	-3.7706	0.	129.74
2663	-4.2706	-3.5702	0.	128.64
2664	-3.7887	-3.5462	0.	129.31
2665	-4.0424	-3.3126	0.	128.47
2666	-4.2161	-4.0656	0.	129.95
2667	-3.7522	-4.0047	0.	130.94
2668	1.8744	6.9352	0.	128.48
2669	1.5793	6.7408	0.	127.92
2670	1.7746	6.5249	0.	129.15
2671	2.0395	6.6728	0.	128.88
2672	-2.9363	4.3086	0.	125.68
2673	-2.668	4.58	0.	124.71
2674	-4.4816	-3.8652	0.	128.85
2675	-4.7242	-4.1093	0.	128.35
2676	-4.507	-4.3986	0.	129.87
2677	-4.7603	-3.5855	0.	127.67
2678	-4.4809	4.764	0.	126.66
2679	-4.7426	4.5196	0.	127.24
2680	-4.5004	4.2666	0.	127.57
2681	-4.7292	5.0134	0.	126.39
2682	-4.4724	5.2605	0.	126.06
2683	-4.7166	6.4953	0.	126.51
2684	-4.4673	6.7485	0.	125.99
2685	-4.4682	6.2517	0.	125.95
2686	3.4989	1.8224	0.	128.31
2687	3.7549	2.0634	0.	127.71
2688	3.7414	1.5706	0.	128.03
2689	3.4911	1.3329	0.	128.61
2690	1.5066	-2.8142e-002	0.	128.5
2691	1.2462	-0.24556	0.	128.93
2692	1.295	0.21901	0.	127.68
2693	3.4308	3.142e-002	0.	130.08
2694	3.7137	0.19907	0.	129.54
2695	3.505	0.4403	0.	129.59
2696	3.6029	-0.22837	0.	130.48
2697	2.2092	7.1128	0.	128.64
2698	1.9498	7.3802	0.	127.86
2699	1.6722	7.1694	0.	127.22
2700	2.4864	7.334	0.	128.84
2701	2.3743	6.8503	0.	129.05
2702	2.7676	7.1397	0.	129.41
2703	-3.9568	1.3609	0.	126.86
2704	-4.1815	1.6045	0.	127.07
2705	-3.7007	1.5852	0.	127.08
2706	-3.9853	0.89297	0.	126.92
2707	-4.2344	0.66866	0.	127.2
2708	-4.0099	0.42899	0.	127.78
2709	-3.7657	0.64465	0.	127.07
2710	-3.7229	1.1095	0.	126.48
2711	-4.2093	1.1348	0.	126.65
2712	2.379	-2.7482	0.	127.6
2713	2.6193	-3.0015	0.	128.63
2714	2.137	-3.017	0.	127.86
2715	2.3457	-2.2154	0.	126.83
2716	2.1331	-2.5214	0.	126.8
2717	2.6527	-2.4765	0.	127.24
2718	2.0958	-1.8126	0.	126.94
2719	2.0816	-2.0245	0.	126.62
2720	2.5612	-1.955	0.	126.51
2721	2.5386	5.6763	0.	127.03
2722	2.0522	5.6333	0.	127.5
2723	2.2732	5.4212	0.	126.55
2724	-2.2557	7.0696	0.	126.23
2725	-1.7676	7.083	0.	126.6
2726	-2.0069	7.3189	0.	126.31
2727	-2.5002	7.3042	0.	125.97
2728	-2.7463	7.0514	0.	125.79
2729	-3.9754	7.2579	0.	125.47
2730	-4.2205	7.0033	0.	125.74
2731	-3.7283	7.0166	0.	125.47
2732	-5.0019	2.5885	0.	129.81
2733	-4.8121	2.3395	0.	129.01
2734	1.433	-4.2648	0.	130.23
2735	1.1899	-4.0229	0.	129.99
2736	1.4248	-3.7759	0.	129.44
2737	1.2175	-1.1767	0.	129.54
2738	1.4396	-1.42	0.	128.47
2739	1.7187	-1.2002	0.	128.57
2740	3.3493	-4.6784	0.	130.36
2741	3.5819	-4.5969	0.	130.37
2742	1.4443	-4.7555	0.	130.17
2743	1.1965	-4.5122	0.	130.16
2744	-5.5253	-2.8168	0.	126.32
2745	-5.7769	-2.5582	0.	125.59
2746	-5.2844	-2.5839	0.	126.57
2747	5.0532	-3.8162	0.	116.6
2748	5.3025	-3.6412	0.	115.82
2749	4.8899	-3.5309	0.	118.23
2750	5.231	-3.4026	0.	113.41
2751	2.893	-2.7298	0.	128.27
2752	3.094	-3.0315	0.	129.67
2753	-3.0907	0.35369	0.	127.76
2754	-2.8935	0.56759	0.	126.47
2755	-3.0174	0.79311	0.	125.89
2756	-3.314	0.6004	0.	126.85
2757	3.806	3.0675	0.	128.26
2758	3.5793	3.3344	0.	129.94
2759	1.5055	5.9558	0.	129.9
2760	1.7814	5.7931	0.	128.76
2761	1.7321	6.1528	0.	129.62
2762	-1.3515	5.6463	0.	125.7
2763	-1.7066	5.4348	0.	124.08
2764	-1.5503	5.9042	0.	126.01
2765	1.9477	-5.2348	0.	128.8
2766	1.6928	-4.9942	0.	129.78
2767	2.6844	-5.4243	0.	128.29
2768	2.2027	-5.4664	0.	128.03
2769	2.4677	-5.7008	0.	127.26
2770	1.6599	-3.5246	0.	128.91
2771	1.8969	-3.2738	0.	128.25
2772	1.865	-1.899	0.	126.91
2773	1.6505	-1.6691	0.	127.6
2774	1.9295	-1.4494	0.	127.69
2775	6.9793	0.76021	0.	117.39
2776	7.2355	0.51816	0.	120.11
2777	6.7168	0.50896	0.	119.27
2778	6.9764	0.27161	0.	120.78
2779	3.9794	0.85397	0.	128.21
2780	3.9548	0.3927	0.	128.81
2781	4.2153	0.59869	0.	127.37
2782	3.7461	0.63394	0.	128.85
2783	3.777	-0.51119	0.	130.75
2784	3.9696	-0.78661	0.	130.99
2785	3.6397	-0.95512	0.	129.8
2786	-4.1522	-5.0305	0.	132.49
2787	-4.4308	-5.1879	0.	132.06
2788	-4.2451	-5.4448	0.	132.82
2789	-4.0207	-5.3698	0.	132.77
2790	0.75112	-0.68502	0.	129.7
2791	0.98265	-0.93103	0.	129.97
2792	0.99993	-0.46439	0.	129.38
2793	3.0015	-6.0737	0.	126.71
2794	3.2621	-6.2727	0.	126.32
2795	3.0419	-6.4845	0.	126.82
2796	2.8081	-6.388	0.	126.25
2797	2.9063	-5.165	0.	129.18
2798	3.1177	-4.9171	0.	130.12
2799	0.43617	2.9014	0.	121.16
2800	0.54657	3.4244	0.	118.6
2801	0.2331	3.1566	0.	118.57
2802	0.67838	3.1127	0.	121.78
2803	1.2519	1.9083	0.	126.48
2804	1.0514	2.1511	0.	126.35
2805	1.2881	2.3951	0.	127.03
2806	1.4892	2.151	0.	127.39
2807	1.1387	0.9401	0.	125.65
2808	1.0832	0.46814	0.	126.56
2809	0.86802	0.71042	0.	125.14
2810	-3.8564	-4.9044	0.	132.71
2811	-4.3267	-4.7405	0.	131.26
2812	3.9873	1.3269	0.	127.83
2813	4.2297	1.0723	0.	127.45
2814	3.737	1.0892	0.	128.42
2815	4.0333	2.8021	0.	127.14
2816	4.2674	2.5409	0.	126.35
2817	4.0119	2.3037	0.	127.07
2818	-4.9621	6.7388	0.	126.95
2819	-4.956	7.236	0.	126.53
2820	-5.206	6.9828	0.	127.74
2821	-4.7128	6.9921	0.	126.43
2822	-7.0262	-1.6856	0.	120.55
2823	-7.0145	-1.1182	0.	119.71
2824	-7.2742	-1.4138	0.	120.42
2825	-6.793	-1.4731	0.	121.21
2826	-5.0172	-3.3306	0.	127.06
2827	-5.2737	-3.0713	0.	126.73
2828	-5.0328	-2.8384	0.	126.97
2829	-5.0205	-4.326	0.	127.39
2830	-5.0712	-4.8152	0.	128.03
2831	-5.2884	-4.5443	0.	126.05
2832	-4.8033	-4.6153	0.	128.91
2833	3.0099	-1.2982	0.	127.5
2834	3.3275	-1.1237	0.	128.51
2835	6.6716	-4.2476	0.	126.8
2836	6.9214	-4.0239	0.	128.38
2837	7.1586	-4.3494	0.	128.55
2838	6.9307	-4.4654	0.	128.43
2839	5.2415	-4.0772	0.	117.07
2840	5.7131	-4.1558	0.	118.64
2841	5.4909	-3.9022	0.	116.29
2842	5.4504	-4.3489	0.	116.36
2843	2.7803	5.4342	0.	126.83
2844	3.0647	5.639	0.	127.18
2845	-1.5142	7.3258	0.	126.35
2846	-1.5321	6.8487	0.	127.02
2847	-1.284	7.084	0.	126.4
2848	-3.5587	-5.4001e-002	0.	129.3
2849	-3.3191	0.15351	0.	128.66
2850	-3.7865	0.18457	0.	128.46
2851	-3.5424	0.40022	0.	127.75
2852	-3.3235	-0.29277	0.	130.38
2853	-3.5729	-0.50697	0.	130.41
2854	-3.5291	-4.257	0.	132.08
2855	-3.294	-4.5228	0.	132.8
2856	-3.5788	-4.7416	0.	132.95
2857	-3.5356	-3.7802	0.	130.51
2858	-3.3103	-3.5487	0.	129.83
2859	-3.5618	-3.3085	0.	128.72
2860	-3.2868	-4.0291	0.	131.75
2861	-3.6075	-1.4238	0.	129.7
2862	-3.3688	-1.1994	0.	130.92
2863	-3.5922	-0.9625	0.	130.58
2864	-3.8351	-1.1876	0.	129.99
2865	-3.3774	-1.6641	0.	129.26
2866	-3.6098	-1.893	0.	128.3
2867	-3.8449	-1.6576	0.	128.84
2868	1.3086	6.5532	0.	127.75
2869	1.2771	6.1404	0.	129.27
2870	1.046	6.3458	0.	125.91
2871	1.5038	6.3374	0.	128.96
2872	1.0964	6.7666	0.	124.71
2873	1.3772	6.975	0.	126.67
2874	2.7392	4.9218	0.	127.56
2875	2.9551	4.6469	0.	129.28
2876	2.4974	4.6949	0.	127.85
2877	2.6878	4.4206	0.	129.34
2878	3.1593	-1.5667	0.	126.36
2879	2.8691	-1.7472	0.	126.57
2880	3.8761	-3.6885	0.	128.36
2881	3.7256	-3.3935	0.	130.16
2882	3.4529	-3.5516	0.	130.07
2883	4.3152	-3.8402	0.	124.46
2884	4.0124	-3.9972	0.	127.58
2885	4.1621	-3.5468	0.	127.05
2886	-5.0029	-3.8296	0.	127.17
2887	-5.2542	-4.0576	0.	126.28
2888	-5.2597	-3.5641	0.	126.67
2889	-6.7789	-1.9892	0.	121.56
2890	-6.5272	-2.2639	0.	122.6
2891	-6.2818	-2.0396	0.	123.43
2892	-6.5457	-1.7767	0.	122.22
2893	-7.2721	-1.9557	0.	120.7
2894	-7.0223	-2.2221	0.	120.63
2895	-6.3	3.0686	0.	124.99
2896	-6.5359	2.7758	0.	123.22
2897	-6.7571	3.0696	0.	120.08
2898	-6.5164	3.2996	0.	123.21
2899	-4.991	4.769	0.	126.97
2900	-5.2505	4.5264	0.	127.56
2901	-5.0115	4.2803	0.	127.91
2902	-5.237	5.015	0.	126.58
2903	-4.9799	5.26	0.	126.36
2904	-5.2155	6.4882	0.	127.83
2905	-4.9682	6.2443	0.	126.77
2906	4.2405	1.5566	0.	127.32
2907	3.9975	1.8116	0.	127.42
2908	1.1978	1.4203	0.	125.81
2909	0.93531	1.1845	0.	124.59
2910	1.3942	1.1667	0.	126.17
2911	1.0011	1.6653	0.	125.81
2912	1.4444	1.6547	0.	126.66
2913	-1.9826	2.8571	0.	125.83
2914	-1.7212	3.112	0.	124.68
2915	-2.2131	3.0961	0.	126.75
2916	-1.9545	3.3543	0.	126.05
2917	-3.2067	1.0538	0.	125.67
2918	-3.4668	1.3339	0.	126.69
2919	-3.5033	0.86114	0.	126.63
2920	4.7762	-3.9703	0.	119.68
2921	4.9719	-4.2539	0.	117.35
2922	4.6129	-3.685	0.	121.31
2923	4.4907	-4.1372	0.	122.75
2924	2.9466	-5.6299	0.	127.75
2925	3.1643	-5.3726	0.	128.89
2926	2.7299	-5.9063	0.	126.72
2927	3.2079	-5.8344	0.	127.02
2928	6.1918	-4.2142	0.	122.96
2929	6.4396	-4.4998	0.	126.37
2930	6.4315	-3.996	0.	125.37
2931	5.9357	-4.425	0.	121.08
2932	5.9499	-3.9491	0.	120.21
2933	0.8103	0.24434	0.	127.13
2934	1.0346	1.597e-003	0.	128.11
2935	-4.8732	-5.0978	0.	129.96
2936	-4.6766	-5.3731	0.	132.09
2937	-4.6053	-4.8979	0.	130.84
2938	-5.1213	-5.3002	0.	129.58
2939	-5.3294	-5.0248	0.	126.5
2940	3.8858	-6.0726e-002	0.	129.94
2941	4.1683	0.13229	0.	127.96
2942	4.0792	-0.32761	0.	129.65
2943	3.3806	6.8392	0.	130.26
2944	3.1449	6.6409	0.	129.36
2945	3.0943	7.0118	0.	129.7
2946	1.869	-2.3305	0.	126.59
2947	1.6231	-2.1122	0.	126.54
2948	1.6431	-2.5639	0.	126.15
2949	1.8911	-2.7902	0.	127.05
2950	-6.0951	-0.68395	0.	125.75
2951	-6.4615	-0.55883	0.	122.89
2952	-6.2746	-0.46736	0.	125.51
2953	-6.3895	-0.86528	0.	123.46
2954	-5.8644	-0.47423	0.	128.11
2955	-5.6608	-0.70484	0.	127.83
2956	-5.9278	-0.9203	0.	126.26
2957	-5.8422	3.0891	0.	128.42
2958	-5.6377	2.8574	0.	129.92
2959	-5.587	3.3291	0.	129.21
2960	-5.3816	3.0853	0.	129.67
2961	-6.081	2.8632	0.	128.15
2962	-6.054	3.3243	0.	127.36
2963	-4.4584	0.91049	0.	126.93
2964	-4.7052	0.68226	0.	127.28
2965	-4.477	0.4445	0.	127.8
2966	-4.434	1.3785	0.	126.85
2967	-4.6874	1.1503	0.	126.41
2968	-4.4009	1.8476	0.	127.58
2969	-4.6554	1.6208	0.	127.1
2970	-6.7924	2.5729	0.	118.54
2971	-6.6258	2.2281	0.	124.6
2972	-6.3532	2.3566	0.	127.25
2973	-6.3169	2.5705	0.	126.38
2974	4.2718	-0.60303	0.	129.9
2975	4.5098	-0.88163	0.	127.84
2976	4.1294	-1.0578	0.	130.94
2977	1.3498	5.7411	0.	130.76
2978	1.0069	5.912	0.	126.43
2979	-3.1724	-7.048	0.	128.54
2980	-3.4141	-7.3044	0.	128.03
2981	-3.6438	-7.0622	0.	127.29
2982	-3.4005	-6.8062	0.	128.13
2983	1.9784	-5.7343	0.	126.93
2984	1.7158	-5.4902	0.	128.24
2985	3.0021	5.1426	0.	127.41
2986	2.5149	5.179	0.	126.35
2987	2.7428	7.6168	0.	128.9
2988	3.2549	7.6693	0.	129.36
2989	2.9946	7.8703	0.	128.74
2990	3.024	7.4225	0.	129.47
2991	2.227	7.6015	0.	128.06
2992	2.4846	7.8343	0.	128.2
2993	1.7143	7.6207	0.	126.7
2994	1.9758	7.8443	0.	127.23
2995	1.2113	7.6412	0.	124.76
2996	1.4696	7.8611	0.	125.76
2997	1.4368	7.4098	0.	126.06
2998	0.72451	7.6611	0.	122.77
2999	0.97413	7.8794	0.	123.94
3000	0.94119	7.4307	0.	123.39
3001	0.25476	7.6753	0.	121.67
3002	0.46387	7.4528	0.	120.95
3003	0.48907	7.8936	0.	122.49
3004	-0.21213	7.6014	0.	121.96
3005	6.693e-003	7.4859	0.	120.75
3006	1.2966e-002	7.891	0.	122.14
3007	-0.7204	7.5387	0.	123.68
3008	-0.22983	7.4072	0.	121.25
3009	-0.50982	7.2709	0.	123.04
3010	-0.46961	7.785	0.	122.97
3011	-1.2478	7.5593	0.	125.44
3012	-0.99197	7.7983	0.	124.77
3013	-1.0177	7.3175	0.	125.48
3014	-1.7535	7.5617	0.	126.07
3015	-1.5004	7.8047	0.	125.75
3016	-2.2514	7.5535	0.	126.06
3017	-2.0016	7.8012	0.	126.01
3018	-2.7461	7.5403	0.	125.82
3019	-2.4988	7.7914	0.	125.9
3020	-3.2392	7.526	0.	125.56
3021	-2.9938	7.7791	0.	125.67
3022	-2.9923	7.2876	0.	125.63
3023	-3.731	7.5128	0.	125.44
3024	-3.4838	7.2715	0.	125.44
3025	-3.4867	7.7668	0.	125.46
3026	-4.2213	7.5012	0.	125.51
3027	-3.9781	7.7559	0.	125.36
3028	-4.7095	7.4906	0.	125.89
3029	-4.4663	7.2466	0.	125.79
3030	-4.467	7.746	0.	125.43
3031	-5.1954	7.4799	0.	126.65
3032	-4.9532	7.7359	0.	125.75
3033	-5.4454	7.2267	0.	127.86
3034	-5.6782	7.4687	0.	127.88
3035	-5.4356	7.7246	0.	126.36
3036	-2.6584	-2.3757	0.	127.02
3037	-2.4126	-2.609	0.	129.99
3038	-2.6372	-2.8401	0.	127.34
3039	-2.8858	-2.6049	0.	126.84
3040	4.289	3.0401	0.	126.37
3041	4.0599	3.3043	0.	128.1
3042	4.7768	3.0163	0.	125.38
3043	4.5231	2.7788	0.	125.57
3044	4.5444	3.2753	0.	125.49
3045	5.2669	3.0006	0.	127.89
3046	5.0155	2.7598	0.	125.52
3047	5.0308	3.2475	0.	124.34
3048	6.9862	1.2526	0.	114.82
3049	6.7289	1.0032	0.	116.2
3050	7.2361	1.0076	0.	117.1
3051	-2.9432	-7.2878	0.	129.24
3052	-2.9349	-6.791	0.	129.4
3053	-2.7041	-7.0304	0.	131.95
3054	3.9943	6.1972	0.	131.15
3055	4.1766	5.9624	0.	133.35
3056	3.7067	5.9953	0.	129.63
3057	3.8785	5.752	0.	129.67
3058	3.7405	7.7246	0.	129.16
3059	3.5484	7.4871	0.	129.98
3060	3.4959	7.9171	0.	128.84
3061	-6.8102	-0.63875	0.	120.2
3062	-7.2686	-0.85603	0.	119.17
3063	-7.0666	-0.54204	0.	116.65
3064	-6.7382	-0.94521	0.	120.78
3065	-7.52	-1.6839	0.	120.57
3066	-7.5159	-2.2104	0.	120.33
3067	-7.7663	-1.9538	0.	121.5
3068	-7.7717	-1.43	0.	121.5
3069	-7.5283	-1.1517	0.	119.9
3070	-6.9714	3.3148	0.	118.55
3071	-7.0136	2.8666	0.	115.41
3072	-7.2014	3.2321	0.	116.99
3073	-3.0856	-3.3153	0.	128.91
3074	-2.8615	-3.0758	0.	127.67
3075	-3.1101	-2.8406	0.	127.15
3076	-3.337	-3.0752	0.	127.8
3077	-1.0206	-4.6564	0.	109.06
3078	-1.0124	-5.2088	0.	109.49
3079	-1.2669	-4.9516	0.	110.95
3080	-0.76895	-4.9528	0.	111.21
3081	-2.8034	-4.5417	0.	131.82
3082	-3.0518	-4.2949	0.	132.47
3083	-3.0779	-4.8254	0.	133.09
3084	-3.1399	-1.9034	0.	128.44
3085	-2.9018	-2.1409	0.	127.17
3086	-3.3723	-2.1323	0.	127.48
3087	-3.1292	-2.3701	0.	126.97
3088	-3.0838	-8.5261e-002	0.	129.74
3089	-2.847	0.12562	0.	129.01
3090	-2.83	-0.32126	0.	130.68
3091	-3.0959	-0.53098	0.	131.26
3092	1.9597	3.6705	0.	131.92
3093	2.1531	3.9617	0.	131.56
3094	2.1806	3.4287	0.	131.46
3095	1.6258	5.5784	0.	129.7
3096	1.7886	5.3919	0.	127.3
3097	3.1676	4.3746	0.	130.76
3098	3.3857	4.1069	0.	132.21
3099	3.1304	3.8749	0.	131.25
3100	2.9003	4.1484	0.	130.84
3101	3.2864	5.3474	0.	127.76
3102	3.4011	5.7982	0.	128.
3103	3.5729	5.555	0.	128.04
3104	3.8332	3.5712	0.	129.77
3105	3.61	3.837	0.	131.9
3106	3.3546	3.605	0.	130.94
3107	6.9204	-3.5469	0.	129.26
3108	7.1871	-3.8274	0.	128.85
3109	6.6813	-3.7723	0.	126.95
3110	5.7277	-3.6955	0.	117.87
3111	5.4351	-3.4426	0.	113.44
3112	7.3892	-1.8789	0.	123.65
3113	7.1295	-1.6319	0.	123.33
3114	7.18	-2.1035	0.	124.47
3115	6.9306	-1.8625	0.	123.06
3116	7.541	-3.06	0.	128.36
3117	7.3456	-3.0458	0.	128.77
3118	7.7185	-3.3456	0.	128.73
3119	7.1781	-3.2951	0.	129.53
3120	7.4448	-3.5757	0.	129.12
3121	3.1844	-2.5367	0.	128.67
3122	2.8682	-2.2161	0.	126.92
3123	3.0777	-2.2515	0.	126.92
3124	3.4769	-1.3922	0.	127.36
3125	3.7995	-1.2263	0.	129.81
3126	4.4598	-3.3915	0.	123.9
3127	4.7664	-3.241	0.	119.28
3128	3.5567	-3.1224	0.	130.4
3129	3.284	-3.2805	0.	130.31
3130	3.3854	-2.8384	0.	130.06
3131	-5.5163	-3.3048	0.	126.34
3132	-5.7698	-3.0466	0.	126.23
3133	-7.2661	-2.4768	0.	120.27
3134	-7.7617	-2.4715	0.	121.12
3135	-7.5113	-2.7278	0.	119.01
3136	-6.2736	-2.5275	0.	123.9
3137	-6.0282	-2.3032	0.	124.72
3138	-6.0214	-2.7881	0.	125.49
3139	-5.5139	4.2872	0.	128.09
3140	-5.7703	4.0444	0.	128.31
3141	-5.5432	3.8056	0.	128.71
3142	-5.275	4.041	0.	128.45
3143	-5.4593	6.7323	0.	128.62
3144	-5.7019	6.976	0.	129.9
3145	-5.4782	5.7486	0.	126.93
3146	-5.4862	5.2598	0.	126.54
3147	-5.735	5.503	0.	126.29
3148	-5.229	5.5047	0.	126.32
3149	4.4657	0.81698	0.	126.61
3150	4.4829	1.3019	0.	126.93
3151	4.7243	1.0441	0.	126.32
3152	4.5066	2.2834	0.	126.06
3153	4.7618	2.5223	0.	125.72
3154	-3.3626	-5.0442	0.	133.25
3155	-3.7249	-5.2437	0.	132.99
3156	1.4609	-5.2497	0.	129.22
3157	1.2073	-5.0045	0.	130.03
3158	-0.27163	-4.4728	0.	118.35
3159	-0.77303	-4.4106	0.	111.77
3160	-0.50801	-4.2065	0.	115.78
3161	-0.5214	-4.707	0.	113.91
3162	0.95331	-4.2703	0.	129.91
3163	0.71271	-4.5137	0.	128.66
3164	0.95944	-4.7612	0.	130.01
3165	2.2434	-5.9687	0.	126.15
3166	2.5365	-6.2206	0.	126.26
3167	2.0129	-6.2399	0.	124.97
3168	1.7446	-5.9913	0.	125.94
3169	0.80066	1.9081	0.	125.67
3170	0.59456	2.1538	0.	126.03
3171	0.84289	2.3865	0.	125.44
3172	0.38348	2.4046	0.	124.57
3173	0.63182	2.6373	0.	123.96
3174	0.17195	2.6551	0.	122.03
3175	-2.2381	2.5999	0.	127.33
3176	-2.4902	2.3401	0.	129.97
3177	-2.4686	2.839	0.	128.25
3178	-2.7161	2.5792	0.	129.07
3179	-2.9777	1.8128	0.	128.2
3180	-2.74	2.0798	0.	130.12
3181	-2.9658	2.319	0.	129.21
3182	-3.212	2.0666	0.	128.73
3183	4.1879	-4.2942	0.	125.88
3184	3.8757	-4.4816	0.	129.31
3185	3.3757	-5.1247	0.	129.83
3186	3.5798	-4.8211	0.	130.38
3187	3.4684	-6.0334	0.	126.62
3188	3.7229	-6.2551	0.	125.27
3189	3.5002	-6.4815	0.	126.82
3190	7.4982	0.27756	0.	122.1
3191	7.7489	0.5204	0.	123.03
3192	7.4923	0.76559	0.	119.9
3193	7.5102	-0.20791	0.	123.62
3194	7.2391	3.1007e-002	0.	122.72
3195	7.7559	3.1466e-002	0.	124.08
3196	7.534	-0.6901	0.	124.12
3197	7.7713	-0.45372	0.	124.65
3198	7.2563	-0.44978	0.	124.26
3199	7.5685	-1.1708	0.	123.85
3200	7.2923	-0.92685	0.	124.41
3201	7.7963	-0.93734	0.	124.48
3202	7.6035	-1.65	0.	123.79
3203	7.3437	-1.4031	0.	123.49
3204	7.8272	-1.4206	0.	124.13
3205	7.63	-2.1271	0.	124.81
3206	7.8519	-1.9031	0.	124.46
3207	7.6378	-2.5979	0.	126.65
3208	7.4208	-2.3517	0.	125.64
3209	7.866	-2.387	0.	125.84
3210	7.4392	-2.8167	0.	128.04
3211	7.8489	-2.8681	0.	127.5
3212	7.4745	-4.7223	0.	128.55
3213	7.1784	-4.5596	0.	128.78
3214	7.6851	-4.4447	0.	128.71
3215	7.4243	-4.153	0.	129.02
3216	7.5818	-5.2593	0.	127.57
3217	7.3186	-5.0558	0.	128.41
3218	7.7814	-4.9829	0.	128.03
3219	7.6465	-5.7657	0.	126.43
3220	7.3986	-5.5553	0.	127.02
3221	7.8481	-5.498	0.	126.95
3222	7.6997	-6.2491	0.	125.88
3223	7.4539	-6.0515	0.	125.54
3224	7.8918	-5.9941	0.	126.09
3225	7.9229	-6.4668	0.	125.97
3226	7.5219	-6.548	0.	125.88
3227	7.838	-6.7086	0.	126.15
3228	7.209	-7.5445	0.	128.02
3229	7.469	-7.7734	0.	127.58
3230	7.713	-7.5045	0.	127.34
3231	7.4382	-7.2861	0.	127.27
3232	6.7137	-7.5732	0.	128.46
3233	6.9685	-7.8033	0.	128.
3234	6.9392	-7.3241	0.	128.45
3235	6.2263	-7.5843	0.	127.11
3236	6.4754	-7.8217	0.	127.59
3237	6.4577	-7.3468	0.	129.66
3238	3.2801	-6.6932	0.	127.33
3239	3.0323	-6.8962	0.	128.18
3240	2.8159	-6.5863	0.	126.66
3241	5.673	-4.6181	0.	118.8
3242	5.3992	-4.8041	0.	114.04
3243	5.1808	-4.5256	0.	116.63
3244	7.0225	-4.8932	0.	128.63
3245	6.6987	-4.7176	0.	128.
3246	7.1354	-5.3518	0.	127.85
3247	6.8904	-5.1532	0.	129.2
3248	-2.6498	0.33952	0.	127.71
3249	-2.8144	0.78905	0.	125.6
3250	-2.4788	0.58743	0.	126.27
3251	0.59515	0.48662	0.	125.71
3252	0.38051	0.72438	0.	123.57
3253	0.66467	0.95481	0.	124.07
3254	-4.491	-5.63	0.	132.84
3255	-4.0518	-5.5763	0.	132.86
3256	-4.2837	-5.8759	0.	132.65
3257	-3.6603	-7.5598	0.	128.42
3258	-3.1848	-7.5441	0.	128.73
3259	-3.4309	-7.7986	0.	129.31
3260	4.6988	0.55474	0.	124.81
3261	4.4289	0.33827	0.	126.53
3262	6.2012	0.49873	0.	119.79
3263	6.4508	0.25784	0.	121.02
3264	6.4664	0.75194	0.	118.16
3265	6.7104	2.0484e-002	0.	122.47
3266	6.9852	-0.21086	0.	123.38
3267	7.0676	-1.1591	0.	124.05
3268	6.859	-1.3912	0.	124.16
3269	3.5998	6.6483	0.	130.39
3270	3.8149	6.4282	0.	130.76
3271	3.5273	6.2263	0.	129.23
3272	3.3641	6.4499	0.	129.5
3273	3.9713	7.9613	0.	128.03
3274	4.0666	7.5483	0.	129.8
3275	4.1878	7.7503	0.	128.25
3276	0.51193	-0.90684	0.	129.83
3277	0.52179	-0.4404	0.	129.14
3278	0.27225	-0.66546	0.	128.12
3279	0.74346	-1.1528	0.	130.11
3280	0.96573	-1.3992	0.	129.67
3281	0.7131	-4.0254	0.	129.15
3282	0.94756	-3.7816	0.	129.54
3283	1.1878	-1.6425	0.	128.61
3284	1.4085	-1.8823	0.	127.23
3285	1.1824	-3.5347	0.	129.01
3286	1.416	-3.2899	0.	127.92
3287	-5.6268	-0.24819	0.	129.44
3288	-5.1838	-0.24856	0.	129.61
3289	-5.4089	-1.3216e-002	0.	129.91
3290	-5.4232	-0.47879	0.	129.17
3291	-6.431	-0.35916	0.	123.98
3292	-6.6718	-0.23662	0.	120.94
3293	-5.4428	2.6113	0.	130.26
3294	-5.2587	2.3613	0.	129.97
3295	-5.1867	2.8393	0.	130.
3296	-4.9454	0.45314	0.	128.08
3297	-4.9535	-1.4696e-002	0.	129.12
3298	-4.7172	0.21539	0.	128.6
3299	-5.1787	0.22065	0.	129.42
3300	-4.6124	2.0921	0.	128.34
3301	-5.0689	2.1122	0.	129.18
3302	-4.8669	1.8652	0.	127.86
3303	7.4844	6.3302	0.	120.95
3304	7.709	6.0701	0.	120.06
3305	7.4362	5.8357	0.	118.93
3306	7.1833	6.1457	0.	123.26
3307	7.308	6.632	0.	123.73
3308	7.7491	6.5588	0.	121.31
3309	7.4594	6.82	0.	122.66
3310	-4.9342	0.92208	0.	126.76
3311	-5.1798	0.68962	0.	127.51
3312	-5.1692	1.1618	0.	126.27
3313	-4.9088	1.3927	0.	126.66
3314	-5.7014	2.3863	0.	131.11
3315	-5.8765	2.6315	0.	129.63
3316	-6.0439	-0.25764	0.	127.85
3317	-6.274	-5.9452e-002	0.	127.66
3318	-5.852	-1.743e-002	0.	130.68
3319	1.1547	-2.5775	0.	125.49
3320	1.3972	-2.3456	0.	126.1
3321	1.4051	-2.8129	0.	126.36
3322	0.4725	-4.2688	0.	127.9
3323	0.47487	-3.7816	0.	129.29
3324	0.23626	-4.0198	0.	126.38
3325	0.50048	-1.3772	0.	130.87
3326	0.27901	-1.131	0.	128.72
3327	3.6038	7.0677	0.	130.64
3328	3.8745	7.3108	0.	130.6
3329	3.3175	7.2402	0.	130.08
3330	3.8703	6.8622	0.	131.13
3331	6.7818	-0.92395	0.	125.52
3332	7.0147	-0.68653	0.	124.56
3333	4.9155	0.28719	0.	122.21
3334	4.9574	0.78187	0.	124.53
3335	5.1905	0.51778	0.	122.05
3336	4.3617	-0.1346	0.	127.67
3337	4.6455	7.0721e-002	0.	123.93
3338	4.559	-0.39942	0.	125.62
3339	-3.8685	-6.8197	0.	127.74
3340	-4.0894	-6.5804	0.	128.72
3341	-3.6252	-6.5638	0.	128.57
3342	-3.8476	-6.3126	0.	129.81
3343	-3.89	-7.3177	0.	127.68
3344	-4.1386	-7.5725	0.	128.88
3345	-3.9108	-7.8117	0.	129.68
3346	-4.1191	-7.0751	0.	127.3
3347	-4.9248	-5.5756	0.	131.7
3348	-4.7252	-5.8502	0.	133.7
3349	-5.3666	-5.5004	0.	127.89
3350	-5.1684	-5.7851	0.	131.32
3351	0.54634	2.2986e-002	0.	127.84
3352	0.7706	-0.21976	0.	128.83
3353	0.27693	-0.20177	0.	128.35
3354	0.30465	0.26092	0.	127.
3355	-2.5933	-0.11037	0.	129.94
3356	-2.3671	0.12054	0.	128.74
3357	-2.6076	-0.56002	0.	131.44
3358	-2.2958	-0.36256	0.	128.
3359	7.206	-5.8411	0.	126.12
3360	7.0084	-6.1093	0.	125.25
3361	7.2762	-6.3505	0.	125.54
3362	6.9533	-5.6229	0.	127.32
3363	5.8828	-4.8966	0.	122.
3364	6.1836	-4.7105	0.	124.48
3365	3.503	-7.3793	0.	129.73
3366	3.7496	-7.1576	0.	130.38
3367	3.5077	-6.9271	0.	128.48
3368	3.26	-7.13	0.	129.33
3369	3.4256	-5.5772	0.	128.15
3370	3.6423	-5.3166	0.	130.23
3371	3.6833	-5.794	0.	127.74
3372	4.4016	-4.5986	0.	125.28
3373	4.6864	-4.4207	0.	120.43
3374	-2.9578	1.2857	0.	126.14
3375	-3.2179	1.5657	0.	127.17
3376	-2.7366	1.5728	0.	128.16
3377	-2.685	1.0523	0.	125.05
3378	-2.0104	2.365	0.	127.14
3379	-1.7535	2.6203	0.	123.12
3380	-0.51032	2.8969	0.	119.29
3381	-0.56089	2.4131	0.	119.26
3382	-0.29899	2.6575	0.	120.21
3383	-0.78028	2.6496	0.	118.47
3384	0.54286	1.6731	0.	125.84
3385	0.73856	1.4294	0.	124.58
3386	-5.5746	-5.225	0.	124.81
3387	-5.6106	-5.6869	0.	125.53
3388	-5.8148	-5.4178	0.	122.49
3389	-5.7954	-4.9661	0.	123.
3390	-5.5465	-4.7538	0.	124.51
3391	2.0248	-6.7486	0.	123.49
3392	1.7703	-6.4958	0.	123.63
3393	2.306	-6.4919	0.	125.08
3394	7.2506	6.8822	0.	124.39
3395	6.9007	6.8134	0.	127.36
3396	7.007	6.4475	0.	126.02
3397	0.22424	-4.504	0.	124.62
3398	0.47113	-4.7584	0.	127.57
3399	-1.1999e-002	-4.255	0.	123.11
3400	-2.2148e-002	-4.7432	0.	121.28
3401	1.2239	-5.5003	0.	129.1
3402	1.482	-5.7473	0.	127.25
3403	-3.1562	-6.0524	0.	130.76
3404	-3.37	-5.8121	0.	131.54
3405	-3.3897	-6.3051	0.	129.56
3406	-3.6121	-6.054	0.	130.81
3407	5.9582	0.7473	0.	120.51
3408	5.9247	0.24381	0.	120.06
3409	5.6915	0.49836	0.	120.5
3410	4.4941	1.7912	0.	126.68
3411	4.7488	2.0283	0.	126.56
3412	4.2511	2.0463	0.	126.78
3413	4.7385	1.5356	0.	127.08
3414	-5.47	6.2394	0.	128.04
3415	-5.7277	5.9929	0.	128.12
3416	-5.2227	5.9955	0.	126.98
3417	-5.7181	6.4843	0.	130.01
3418	-5.4966	4.7724	0.	127.17
3419	-5.7527	4.5287	0.	128.02
3420	-5.7425	5.0149	0.	126.88
3421	-6.7306	3.5448	0.	121.67
3422	-7.1868	3.4589	0.	117.99
3423	-6.9716	3.7743	0.	120.18
3424	-6.5027	3.7907	0.	124.91
3425	-6.2704	3.5554	0.	125.58
3426	-6.7706	-2.4968	0.	121.67
3427	-6.5189	-2.7597	0.	123.53
3428	-7.0155	-2.737	0.	120.19
3429	-5.7614	-4.02	0.	125.15
3430	-5.5111	-3.792	0.	125.78
3431	-5.5221	-4.2758	0.	124.93
3432	4.0117	-3.2518	0.	128.84
3433	3.8496	-2.9626	0.	131.69
3434	4.3081	-3.101	0.	128.07
3435	3.6083	-1.6679	0.	126.44
3436	3.3097	-1.8268	0.	126.16
3437	7.2221	-2.5704	0.	127.03
3438	7.0354	-2.8087	0.	129.62
3439	6.9831	-2.3347	0.	126.78
3440	5.9258	-3.4706	0.	119.19
3441	6.1896	-3.7309	0.	122.63
3442	4.3153	3.5395	0.	127.22
3443	4.0938	3.8059	0.	130.49
3444	4.576	3.7729	0.	126.03
3445	4.7983	3.5066	0.	124.45
3446	3.218	4.8676	0.	129.11
3447	3.4861	5.0874	0.	129.74
3448	3.4317	4.6011	0.	131.92
3449	2.2731	4.9521	0.	126.63
3450	2.0096	5.1798	0.	126.36
3451	1.5178	3.596	0.	130.61
3452	1.2154	3.7436	0.	129.62
3453	1.1136	3.4927	0.	126.63
3454	1.3079	3.3194	0.	128.55
3455	1.6799	3.8741	0.	133.12
3456	1.7443	3.4009	0.	131.08
3457	-0.73093	3.1337	0.	120.44
3458	-0.9625	3.3716	0.	123.96
3459	-1.2267	3.1241	0.	122.51
3460	-1.0009	2.8864	0.	119.64
3461	-0.46207	3.3818	0.	119.54
3462	-0.24245	3.1497	0.	118.57
3463	-1.6263	4.6278	0.	124.21
3464	-2.1442	4.6196	0.	123.91
3465	-1.8586	4.9181	0.	123.33
3466	-1.9009	4.3768	0.	124.57
3467	-0.88777	6.5962	0.	127.55
3468	-1.0386	6.389	0.	128.24
3469	-1.316	6.6176	0.	127.53
3470	-1.0679	6.853	0.	126.91
3471	0.55477	6.3103	0.	116.57
3472	0.77575	6.1174	0.	123.07
3473	0.83371	6.5592	0.	122.88
3474	0.21581	7.2634	0.	120.01
3475	0.40341	7.0082	0.	118.55
3476	0.68055	7.2224	0.	121.56
3477	-6.1376e-002	7.0839	0.	118.8
3478	-3.1388	-1.4398	0.	130.48
3479	-2.9015	-1.2228	0.	132.25
3480	-3.1219	-0.98212	0.	131.63
3481	-2.9085	-1.6812	0.	130.06
3482	-3.0615	-3.7976	0.	131.07
3483	-2.8336	-3.5528	0.	130.31
3484	-2.9531	-7.7834	0.	129.89
3485	-2.7107	-7.5273	0.	131.05
3486	-6.5147	6.3097e-002	0.	124.62
3487	-6.7629	0.22587	0.	120.32
3488	-6.9282	-0.1399	0.	117.34
3489	-0.18025	-3.5463	0.	123.11
3490	-0.55524	-3.4701	0.	114.17
3491	-0.39232	-3.3522	0.	118.59
3492	-0.44047	-3.7563	0.	118.08
3493	6.6601	-1.6218	0.	123.86
3494	6.5732	-1.156	0.	125.61
3495	6.3819	-1.3859	0.	125.78
3496	-2.3494	0.85071	0.	125.63
3497	-2.1961	0.36844	0.	127.23
3498	-2.0415	0.63659	0.	131.81
3499	5.7413	-7.5718	0.	121.13
3500	5.9859	-7.8237	0.	124.73
3501	5.989	-7.3589	0.	127.25
3502	-7.824	-7.3881	0.	125.95
3503	-7.5735	-7.5607	0.	128.43
3504	-7.3854	-7.3055	0.	130.04
3505	-7.6036	-7.1027	0.	125.57
3506	5.1075	-3.1127	0.	114.37
3507	5.6332	-3.2176	0.	114.7
3508	5.397	-2.9403	0.	108.4
3509	0.35017	3.6751	0.	114.75
3510	0.88012	3.8204	0.	123.9
3511	0.59026	3.9713	0.	115.18
3512	0.7783	3.5696	0.	120.9
3513	-0.34136	6.9476	0.	120.6
3514	-0.62699	6.793	0.	125.49
3515	-0.80711	7.0497	0.	124.85
3516	-0.61564	-1.1509	0.	116.04
3517	-0.38567	-1.3344	0.	120.52
3518	-0.4338	-0.88939	0.	119.32
3519	-0.17689	-1.1212	0.	123.61
3520	-0.87475	-0.94956	0.	111.54
3521	-0.80879	-1.423	0.	111.43
3522	-1.0371	-1.2805	0.	109.75
3523	-7.2751	2.7374	0.	114.32
3524	-7.0836	2.4026	0.	112.08
3525	-5.912	7.711	0.	127.37
3526	-6.1549	7.4587	0.	129.6
3527	-5.9348	7.218	0.	129.92
3528	3.75	-7.6149	0.	130.27
3529	3.2519	-7.5925	0.	130.11
3530	3.5	-7.8423	0.	129.47
3531	-8.2903	6.9714	0.	118.6
3532	-8.0339	6.7132	0.	114.32
3533	-7.7982	6.9386	0.	110.71
3534	-8.066	7.1836	0.	114.87
3535	-3.1992	-8.0378	0.	130.47
3536	-3.4486	-8.2899	0.	131.1
3537	-3.6813	-8.0504	0.	130.58
3538	6.7303	-8.0518	0.	127.12
3539	6.9838	-8.2871	0.	127.15
3540	7.2285	-8.0321	0.	127.56
3541	6.4864	-8.3001	0.	126.14
3542	6.235	-8.0612	0.	125.2
3543	5.2484	-8.0653	0.	120.54
3544	5.4973	-7.8092	0.	118.54
3545	5.4965	-8.303	0.	121.37
3546	5.7419	-8.0611	0.	122.15
3547	4.7513	-8.0774	0.	122.7
3548	5.0023	-7.8327	0.	119.23
3549	5.0007	-8.3114	0.	121.57
3550	4.5007	-7.8512	0.	125.67
3551	4.5011	-8.3205	0.	124.79
3552	4.2506	-8.0852	0.	126.42
3553	8.0066	0.27431	0.	125.02
3554	8.0015	0.76571	0.	125.06
3555	8.254	0.51695	0.	126.71
3556	8.261	2.5384e-002	0.	126.22
3557	8.017	-0.21434	0.	125.11
3558	8.3074	-1.4409	0.	125.22
3559	8.0757	-1.6736	0.	124.79
3560	8.0551	-1.1871	0.	124.75
3561	8.077	-2.6572	0.	126.69
3562	8.3231	-2.4267	0.	126.26
3563	8.0879	-2.163	0.	125.49
3564	8.0263	-3.1537	0.	127.87
3565	8.2992	-2.9265	0.	127.32
3566	8.2453	-3.4261	0.	128.13
3567	7.9758	-3.6601	0.	128.55
3568	8.2252	-4.454	0.	128.26
3569	7.992	-4.7053	0.	128.19
3570	7.963	-4.1819	0.	128.63
3571	8.0934	-5.7264	0.	126.61
3572	8.3108	-5.4758	0.	126.94
3573	8.0477	-5.2217	0.	127.4
3574	8.115	-6.2119	0.	126.18
3575	8.3376	-5.9752	0.	126.37
3576	8.3337	-6.464	0.	126.22
3577	8.0337	-6.691	0.	126.28
3578	-5.9107	8.2096	0.	125.79
3579	-5.6693	7.9669	0.	125.84
3580	-6.1354	7.9494	0.	126.51
3581	-4.9574	8.2377	0.	125.19
3582	-5.1934	7.9806	0.	125.46
3583	-4.7107	7.9913	0.	125.29
3584	-0.24452	8.0746	0.	123.14
3585	-0.49525	8.2935	0.	123.83
3586	-0.74119	8.0447	0.	124.06
3587	0.24728	8.1093	0.	122.95
3588	-8.6642e-004	8.3332	0.	123.32
3589	0.73869	8.112	0.	123.65
3590	0.49381	8.3458	0.	123.55
3591	0.98819	8.3375	0.	124.45
3592	1.2324	8.0994	0.	124.94
3593	3.2356	8.1181	0.	128.21
3594	2.9876	8.333	0.	127.76
3595	2.7364	8.0878	0.	128.03
3596	3.7267	8.1538	0.	127.69
3597	3.4837	8.3638	0.	127.56
3598	4.2101	8.1688	0.	126.03
3599	3.9743	8.3917	0.	126.58
3600	4.6931	8.1466	0.	123.16
3601	4.4618	8.3882	0.	124.45
3602	4.4266	7.9579	0.	126.27
3603	5.1836	8.1016	0.	120.4
3604	4.9535	8.3548	0.	121.59
3605	4.895	7.9044	0.	121.65
3606	5.6844	8.0543	0.	120.88
3607	5.4506	8.315	0.	119.99
3608	5.3929	7.8436	0.	118.66
3609	-7.9692	3.6949	0.	117.02
3610	-8.2289	3.9654	0.	117.59
3611	-7.9821	4.218	0.	115.79
3612	-7.7242	3.9537	0.	116.26
3613	-8.0575	-7.1824	0.	125.46
3614	-8.2842	-7.4556	0.	126.36
3615	-8.0033	-7.7105	0.	127.9
3616	-8.3047	-6.9453	0.	125.43
3617	-8.0649	-6.681	0.	125.31
3618	-7.8371	-6.897	0.	125.12
3619	7.9698	6.7924	0.	120.52
3620	7.6801	7.0536	0.	121.88
3621	8.2196	7.0283	0.	121.04
3622	7.9702	7.2778	0.	121.25
3623	7.9737	6.2987	0.	120.42
3624	8.2311	6.537	0.	121.34
3625	7.9584	5.7988	0.	120.36
3626	8.2206	6.039	0.	121.5
3627	7.6857	5.5644	0.	119.24
3628	7.9549	5.2926	0.	121.69
3629	8.2098	5.5379	0.	122.49
3630	0.70932	-3.5379	0.	129.68
3631	0.9349	-3.2959	0.	127.83
3632	-0.16125	-1.5648	0.	124.85
3633	-0.39667	-1.7441	0.	118.86
3634	-0.57882	-1.6065	0.	115.89
3635	0.93929	-1.8694	0.	127.88
3636	0.72276	-1.6236	0.	130.43
3637	4.0854	6.6421	0.	131.49
3638	4.2934	6.4044	0.	130.38
3639	6.1742	2.9216e-003	0.	121.27
3640	6.4456	-0.22479	0.	124.58
3641	-5.4124	-5.9716	0.	128.95
3642	-5.6649	-6.1416	0.	122.52
3643	-5.8529	-5.8514	0.	121.04
3644	-4.647	-8.0702	0.	133.69
3645	-4.3922	-7.8223	0.	131.06
3646	-4.4223	-8.3079	0.	132.78
3647	-4.1644	-8.0615	0.	131.89
3648	9.0012e-002	0.49867	0.	124.85
3649	-0.11504	0.73415	0.	128.64
3650	0.1857	0.96472	0.	123.35
3651	-0.21758	-0.65779	0.	122.72
3652	2.74e-002	-0.42684	0.	127.33
3653	3.9328e-002	-0.88964	0.	127.01
3654	6.6831	-7.0977	0.	129.64
3655	6.8857	-6.8481	0.	127.04
3656	7.1684	-7.0657	0.	127.7
3657	5.1267	-4.9799	0.	114.22
3658	5.6089	-5.0826	0.	117.24
3659	5.3593	-5.2666	0.	110.08
3660	6.7083	-5.4242	0.	128.64
3661	6.5667	-4.9776	0.	128.56
3662	6.4823	-5.2017	0.	129.98
3663	5.2511	-7.5766	0.	117.09
3664	5.5134	-7.283	0.	119.66
3665	3.9966	-7.3931	0.	130.91
3666	4.2495	-7.6202	0.	128.53
3667	3.9994	-7.8541	0.	129.31
3668	3.9378	-6.0157	0.	126.35
3669	4.1906	-6.2533	0.	126.94
3670	3.969	-6.4807	0.	126.39
3671	4.0894	-4.7859	0.	128.68
3672	3.8464	-5.0131	0.	130.77
3673	-2.2626	2.1051	0.	129.76
3674	-2.4988	1.8398	0.	130.03
3675	-0.82375	2.1659	0.	115.35
3676	-1.3043	2.1515	0.	114.38
3677	-1.0812	1.9197	0.	105.03
3678	-1.0431	2.4024	0.	114.62
3679	0.33676	1.9188	0.	126.19
3680	0.12623	2.1658	0.	125.92
3681	-6.0164	-4.2427	0.	123.62
3682	-6.026	-4.7109	0.	121.9
3683	-6.2666	-4.4779	0.	124.16
3684	-5.7771	-4.4986	0.	123.41
3685	7.1765	7.2437	0.	126.33
3686	7.4435	7.301	0.	121.98
3687	-2.9295	-6.2965	0.	130.17
3688	-2.6987	-6.5325	0.	131.38
3689	-3.1629	-6.5492	0.	128.99
3690	-5.9914	5.2582	0.	126.62
3691	-5.9845	5.7474	0.	127.47
3692	-6.2412	5.502	0.	127.42
3693	-6.2581	4.0385	0.	127.06
3694	-6.0258	3.8032	0.	127.74
3695	-6.0091	4.2859	0.	128.23
3696	4.6147	-2.9505	0.	123.46
3697	4.9054	-2.7882	0.	114.66
3698	6.7337	-2.0937	0.	125.33
3699	6.4783	-1.8503	0.	128.61
3700	6.8679	-3.058	0.	130.37
3701	6.6569	-3.2864	0.	128.73
3702	3.6498	4.3334	0.	133.34
3703	3.8705	4.0717	0.	132.59
3704	1.2245	5.4864	0.	135.25
3705	1.5859	5.3604	0.	129.17
3706	-0.18293	3.6395	0.	115.81
3707	7.2866e-002	3.9046	0.	108.32
3708	3.6694e-002	3.4074	0.	114.88
3709	-1.0545	5.8867	0.	127.54
3710	-0.88317	5.5799	0.	126.33
3711	-1.2036	5.3715	0.	124.51
3712	-2.6704	-1.9187	0.	128.78
3713	-2.4309	-2.1539	0.	128.54
3714	-2.417	-0.81149	0.	130.06
3715	-2.653	-1.0104	0.	132.63
3716	-2.8734	-0.76973	0.	132.03
3717	-1.2773	-4.4057	0.	110.43
3718	-1.0251	-4.0817	0.	109.78
3719	-2.5598	-4.286	0.	131.49
3720	-2.5472	-4.7837	0.	130.6
3721	-2.2983	-4.5149	0.	126.62
3722	-8.2233	3.4504	0.	119.91
3723	-7.6903	3.405	0.	117.27
3724	-7.9817	3.1783	0.	119.7
3725	-7.5372	2.586	0.	113.03
3726	-7.463	3.1029	0.	115.97
3727	-7.7544	2.8762	0.	118.42
3728	-7.8326	-0.39186	0.	121.53
3729	-8.3128	-0.43961	0.	126.96
3730	-8.0881	-0.17354	0.	129.62
3731	-8.0552	-0.67526	0.	124.08
3732	-7.6192	-0.10861	0.	116.
3733	-7.5639	-0.6234	0.	118.62
3734	-7.3619	-0.30942	0.	116.03
3735	-2.3186	-4.0219	0.	131.6
3736	-2.8082	-4.0392	0.	132.14
3737	-2.5803	-3.7943	0.	131.35
3738	-1.5466	-4.1895	0.	108.5
3739	-1.7865	-4.4676	0.	117.37
3740	-1.5236	-4.7009	0.	112.33
3741	-1.9929	-0.84774	0.	123.47
3742	-1.9019	-0.62256	0.	122.2
3743	-1.578	-0.83595	0.	113.91
3744	-1.765	-1.0841	0.	116.12
3745	-2.1051	-0.61403	0.	126.6
3746	-2.2015	-1.0567	0.	131.91
3747	-2.6712	-1.4642	0.	131.81
3748	-2.4375	-1.2556	0.	134.45
3749	-2.4406	-1.704	0.	131.13
3750	0.12622	6.8286	0.	117.28
3751	0.32973	6.5278	0.	113.36
3752	0.60867	6.7767	0.	119.7
3753	-0.1762	6.6524	0.	118.5
3754	-0.83379	6.3597	0.	128.
3755	-0.46183	6.4978	0.	123.42
3756	-0.73106	6.0791	0.	131.39
3757	-1.2534	6.1446	0.	127.87
3758	-1.1233	4.5994	0.	124.3
3759	-1.3933	4.3654	0.	126.09
3760	-1.3264	4.8698	0.	123.73
3761	-0.69365	3.6198	0.	123.03
3762	-0.93221	3.8572	0.	130.94
3763	-1.1966	3.6151	0.	126.57
3764	-0.43165	3.8608	0.	120.93
3765	1.3775	4.0217	0.	132.05
3766	1.0769	4.1701	0.	132.71
3767	1.5405	4.322	0.	135.43
3768	1.8733	4.1652	0.	132.76
3769	1.6646	4.6157	0.	131.86
3770	2.072	4.702	0.	127.18
3771	1.8085	4.9297	0.	126.9
3772	1.9974	4.4589	0.	129.09
3773	7.1407	5.6025	0.	116.61
3774	7.434	5.3165	0.	118.3
3775	3.9163	4.565	0.	137.57
3776	3.6998	4.8209	0.	132.52
3777	4.3545	4.0393	0.	129.3
3778	4.1371	4.3033	0.	136.86
3779	4.8313	3.99	0.	123.96
3780	4.6365	4.2835	0.	125.71
3781	5.9048	-2.9911	0.	117.89
3782	6.154	-3.2515	0.	123.02
3783	6.7964	-2.5729	0.	129.34
3784	6.5999	-2.8044	0.	133.51
3785	6.553	-2.3232	0.	128.08
3786	4.0316	-1.7864	0.	124.27
3787	3.9309	-1.502	0.	128.85
3788	3.7301	-1.9492	0.	126.62
3789	4.1461	-2.8118	0.	130.84
3790	3.989	-2.5226	0.	133.68
3791	3.6784	-2.6785	0.	131.34
3792	4.4396	-2.6549	0.	132.68
3793	-6.0115	-3.7621	0.	125.7
3794	-6.2604	-3.9993	0.	126.
3795	-6.2606	-3.5111	0.	127.12
3796	-5.7611	-3.5341	0.	126.33
3797	-6.0146	-3.276	0.	126.22
3798	-7.0098	-3.244	0.	120.12
3799	-6.7638	-2.9999	0.	122.05
3800	-7.2607	-2.988	0.	118.91
3801	-6.5004	4.2762	0.	127.93
3802	-6.7437	4.0202	0.	123.41
3803	-6.2462	5.0117	0.	127.87
3804	-5.9987	4.7712	0.	127.72
3805	-5.9758	6.2378	0.	130.09
3806	-6.2355	5.9938	0.	129.74
3807	-6.2267	6.4855	0.	133.
3808	-5.9607	6.7281	0.	131.28
3809	-6.4255	7.2147	0.	132.38
3810	-6.6093	7.4588	0.	131.18
3811	-6.3783	7.6971	0.	128.73
3812	-6.4714	6.7314	0.	134.4
3813	-6.7338	6.992	0.	132.25
3814	-6.2054	6.974	0.	132.72
3815	5.3029	3.9535	0.	121.82
3816	5.0927	4.1677	0.	119.8
3817	5.0537	3.7237	0.	122.39
3818	5.2375	1.5176	0.	127.96
3819	4.9798	1.2778	0.	126.48
3820	4.9932	1.7727	0.	126.96
3821	5.9794	1.2512	0.	121.94
3822	6.2234	1.0005	0.	118.87
3823	5.7204	1.0045	0.	122.63
3824	-2.2815	-5.0126	0.	126.09
3825	-2.0111	-5.2452	0.	122.25
3826	-2.0326	-4.7438	0.	122.09
3827	-1.7697	-4.977	0.	117.09
3828	-2.8218	-5.0673	0.	131.87
3829	-2.5128	-5.2798	0.	131.55
3830	-2.6972	-6.0372	0.	131.02
3831	-2.9313	-5.8141	0.	131.75
3832	0.98443	-5.7518	0.	128.71
3833	0.99716	-6.2504	0.	126.55
3834	0.74268	-6.0006	0.	128.78
3835	1.2426	-5.9988	0.	126.87
3836	0.72941	-5.502	0.	130.26
3837	0.97028	-5.255	0.	129.9
3838	5.9084	7.7826	0.	122.14
3839	5.9557	8.278	0.	121.96
3840	6.1979	8.0151	0.	125.5
3841	6.8265	7.1749	0.	129.3
3842	6.6096	6.7306	0.	128.02
3843	6.4515	6.9701	0.	128.14
3844	3.001	-7.8157	0.	129.95
3845	2.9985	-8.2963	0.	129.16
3846	2.7496	-8.041	0.	130.37
3847	3.2491	-8.0656	0.	129.32
3848	2.7546	-7.5553	0.	131.05
3849	3.0089	-7.3432	0.	129.7
3850	1.7655	-7.0013	0.	121.36
3851	2.0137	-7.2555	0.	123.62
3852	2.2717	-7.0168	0.	125.26
3853	-6.2717	-4.9373	0.	122.32
3854	-6.0355	-5.1589	0.	120.7
3855	-7.5682	-6.164	0.	125.72
3856	-7.7943	-5.9417	0.	126.37
3857	-7.3083	-5.9298	0.	131.72
3858	-7.5259	-5.7006	0.	122.
3859	-7.3533	-6.3719	0.	126.4
3860	-7.8242	-6.4157	0.	125.95
3861	-7.5964	-6.6317	0.	125.71
3862	-7.3508	-7.7576	0.	132.76
3863	-7.5281	-7.9816	0.	132.53
3864	-7.7527	-7.8832	0.	130.42
3865	7.9021e-002	1.6841	0.	130.29
3866	0.27416	1.4389	0.	125.18
3867	-0.3472	2.1719	0.	122.48
3868	-0.13151	1.9311	0.	130.03
3869	-8.5303e-002	2.4163	0.	123.46
3870	-0.60284	1.9337	0.	120.68
3871	-1.7844	2.1312	0.	123.05
3872	-1.56	1.9016	0.	118.01
3873	-1.5275	2.3866	0.	119.
3874	-2.029	1.8745	0.	134.27
3875	-2.2106	1.1138	0.	122.11
3876	-2.4638	1.3395	0.	127.05
3877	4.6236	-4.8792	0.	121.81
3878	4.8711	-5.1461	0.	114.55
3879	4.9084	-4.7014	0.	116.93
3880	4.3661	-5.0685	0.	131.95
3881	4.1532	-5.7793	0.	128.87
3882	3.9	-5.5335	0.	129.8
3883	4.2411	-7.1666	0.	134.18
3884	3.9882	-6.9376	0.	129.86
3885	4.7517	-7.6066	0.	122.21
3886	4.494	-7.3936	0.	131.9
3887	5.0015	-7.3672	0.	111.89
3888	5.8303	-5.3798	0.	125.75
3889	6.0617	-5.1698	0.	126.27
3890	6.4161	-6.8722	0.	130.35
3891	6.2203	-7.1214	0.	129.79
3892	6.7557	-5.8911	0.	126.43
3893	6.5034	-5.6613	0.	131.19
3894	6.8163	-6.3699	0.	125.46
3895	6.6186	-6.6226	0.	127.82
3896	7.0841	-6.6111	0.	125.77
3897	6.5451	-6.141	0.	123.71
3898	-2.0696	-0.13165	0.	126.79
3899	-1.8771	0.15738	0.	126.36
3900	-1.7576	-0.34668	0.	119.05
3901	-0.23479	0.27256	0.	127.29
3902	3.525e-002	3.6164e-002	0.	127.5
3903	-1.1435	-0.76725	0.	109.86
3904	-1.3058	-1.0982	0.	108.04
3905	-1.4338	-0.56007	0.	110.79
3906	-0.69291	-0.68805	0.	114.84
3907	-0.96123	-0.47246	0.	108.99
3908	-0.47759	-0.42567	0.	120.44
3909	-5.1258	-8.0781	0.	131.77
3910	-5.4012	-8.3065	0.	127.11
3911	-5.3435	-7.8575	0.	131.07
3912	-5.5779	-8.0023	0.	123.39
3913	-4.9108	-8.311	0.	132.76
3914	-4.8726	-7.8315	0.	135.89
3915	-4.9688	-6.0597	0.	133.28
3916	-4.77	-6.3388	0.	134.73
3917	-4.5179	-6.096	0.	133.51
3918	-5.2257	-6.2835	0.	132.69
3919	-4.3676	-7.3299	0.	128.47
3920	-4.6178	-7.5836	0.	133.41
3921	-4.34	-6.8358	0.	128.27
3922	-4.6001	-7.0858	0.	126.28
3923	-4.5593	-6.5877	0.	131.93
3924	-4.3071	-6.3449	0.	130.61
3925	4.8428	-0.1941	0.	121.87
3926	5.1352	1.0662e-002	0.	118.95
3927	5.0348	-0.51043	0.	114.81
3928	4.797	-0.67802	0.	123.56
3929	6.2736	-0.92976	0.	128.69
3930	6.4876	-0.69355	0.	126.4
3931	4.141	7.1053	0.	131.09
3932	4.4393	7.3005	0.	130.36
3933	4.2818	7.5466	0.	129.23
3934	4.3794	6.8468	0.	132.34
3935	5.7829	7.2569	0.	122.3
3936	5.9437	6.9938	0.	124.89
3937	5.4585	7.0734	0.	116.
3938	5.6169	7.572	0.	119.88
3939	6.1299	7.5108	0.	126.45
3940	1.6552e-002	-1.816	0.	131.34
3941	0.269	-1.5979	0.	130.08
3942	4.7526e-002	-1.3517	0.	127.96
3943	0.25044	-3.5406	0.	128.45
3944	7.137e-003	-3.3011	0.	129.03
3945	1.1833e-002	-3.7787	0.	125.58
3946	0.45952	-3.2934	0.	129.62
3947	0.91745	-2.3411	0.	125.88
3948	0.68604	-2.0969	0.	128.01
3949	1.16	-2.1092	0.	126.51
3950	0.91811	-2.8156	0.	125.87
3951	0.6851	-3.0513	0.	127.83
3952	1.1685	-3.0511	0.	126.76
3953	0.65595	-2.5712	0.	124.26
3954	-6.3371	0.39151	0.	131.2
3955	-6.0821	0.18076	0.	130.44
3956	-5.9514	2.1815	0.	131.26
3957	-5.5173	2.1363	0.	130.82
3958	-5.7885	1.9096	0.	131.07
3959	-5.4148	0.92935	0.	127.01
3960	-5.6655	1.1724	0.	125.12
3961	-5.3883	1.4057	0.	126.7
3962	1.2583	-6.9994	0.	122.05
3963	1.5084	-7.2499	0.	116.55
3964	1.5109	-6.7485	0.	121.54
3965	8.2151	5.0308	0.	125.53
3966	7.9684	4.779	0.	124.97
3967	7.7032	5.0448	0.	120.8
3968	-8.2842	-5.9604	0.	128.8
3969	-8.027	-5.7133	0.	127.95
3970	-8.0503	-6.1934	0.	126.59
3971	-8.2547	-2.9856	0.	124.73
3972	-8.0042	-3.2383	0.	122.87
3973	-8.0078	-2.7281	0.	122.14
3974	-7.7574	-2.9844	0.	120.02
3975	-8.5068	-7.7305	0.	127.57
3976	-8.4946	-8.2434	0.	129.19
3977	-8.7459	-7.9896	0.	128.46
3978	-8.2259	-7.9854	0.	129.12
3979	-8.5314	-7.2185	0.	126.3
3980	-8.7674	-7.48	0.	127.01
3981	-8.5407	-6.713	0.	126.6
3982	-8.7818	-6.9726	0.	126.57
3983	-8.5349	-6.2157	0.	128.7
3984	-8.7824	-6.4713	0.	127.69
3985	-8.3009	-6.4487	0.	126.51
3986	-8.774	-5.9753	0.	130.12
3987	-8.5223	-5.724	0.	132.39
3988	-8.5053	-2.7331	0.	126.45
3989	-8.7531	-2.9885	0.	128.39
3990	-8.5027	-3.2394	0.	129.52
3991	-8.5091	-2.2255	0.	125.23
3992	-8.7558	-2.483	0.	126.76
3993	-8.2584	-2.4756	0.	123.86
3994	-8.5151	-1.7177	0.	125.06
3995	-8.7595	-1.9775	0.	126.16
3996	-8.2628	-1.9648	0.	123.66
3997	-8.5259	-1.2113	0.	125.69
3998	-8.7664	-1.4719	0.	126.25
3999	-8.2704	-1.4527	0.	123.83
4000	-8.543	-0.70808	0.	127.54
4001	-8.7778	-0.9688	0.	127.09
4002	-8.2854	-0.94373	0.	124.65
4003	-8.5631	-0.20837	0.	130.18
4004	-8.7942	-0.46772	0.	128.86
4005	-8.5772	0.2864	0.	130.57
4006	-8.8095	3.0624e-002	0.	130.34
4007	-8.3384	5.7703e-002	0.	132.76
4008	-8.5792	0.77544	0.	127.51
4009	-8.8165	0.52492	0.	128.64
4010	-8.35	0.54549	0.	131.48
4011	-8.57	1.2599	0.	125.55
4012	-8.8131	1.0149	0.	125.54
4013	-8.3418	1.024	0.	127.71
4014	-8.5539	1.743	0.	127.17
4015	-8.8021	1.5025	0.	125.73
4016	-8.324	1.4975	0.	127.35
4017	-8.5343	2.2284	0.	128.88
4018	-8.7873	1.99	0.	128.02
4019	-8.303	1.9714	0.	130.53
4020	-8.5122	2.7191	0.	127.36
4021	-8.7697	2.481	0.	128.69
4022	-8.281	2.4518	0.	129.81
4023	-8.4916	3.2166	0.	123.66
4024	-8.751	2.9762	0.	126.44
4025	-8.25	2.9445	0.	123.4
4026	-8.4831	3.7209	0.	120.53
4027	-8.7375	3.4762	0.	123.88
4028	-8.7368	3.981	0.	122.35
4029	-8.4871	4.2305	0.	118.
4030	-5.2023	8.4836	0.	125.03
4031	-5.6797	8.4691	0.	125.26
4032	-5.4544	8.7312	0.	125.29
4033	-5.4383	8.2265	0.	125.3
4034	-4.7177	8.493	0.	125.12
4035	-4.9687	8.7408	0.	125.25
4036	-4.4788	8.7476	0.	125.4
4037	-4.2286	8.5005	0.	125.28
4038	-4.4709	8.2466	0.	125.22
4039	-3.4929	8.7586	0.	125.7
4040	-3.2439	8.5139	0.	125.64
4041	-3.7375	8.5071	0.	125.47
4042	-3.4897	8.2625	0.	125.51
4043	-2.2495	8.5264	0.	125.75
4044	-2.4993	8.7694	0.	125.81
4045	-2.7477	8.5207	0.	125.75
4046	-2.4988	8.2796	0.	125.82
4047	-1.7492	8.5301	0.	125.55
4048	-1.9998	8.7735	0.	125.71
4049	-1.9997	8.2859	0.	125.79
4050	-1.2486	8.531	0.	125.11
4051	-1.4993	8.7755	0.	125.42
4052	-1.498	8.2883	0.	125.46
4053	-0.74919	8.5353	0.	124.5
4054	-0.99954	8.7757	0.	124.95
4055	-0.99514	8.2865	0.	124.73
4056	-0.25159	8.5522	0.	124.
4057	-0.5009	8.7831	0.	124.45
4058	0.24566	8.5697	0.	123.92
4059	-3.2266e-003	8.8026	0.	124.2
4060	0.74331	8.5713	0.	124.34
4061	0.49549	8.8098	0.	124.34
4062	1.241	8.5619	0.	125.13
4063	0.99399	8.804	0.	124.86
4064	1.7394	8.5519	0.	126.
4065	1.4925	8.7949	0.	125.57
4066	1.4852	8.3237	0.	125.62
4067	2.2386	8.5491	0.	126.72
4068	1.9914	8.7889	0.	126.24
4069	1.9852	8.3129	0.	126.68
4070	2.7378	8.5585	0.	127.14
4071	2.4905	8.7912	0.	126.7
4072	2.4867	8.3134	0.	127.41
4073	3.2357	8.5787	0.	127.11
4074	2.9892	8.8042	0.	126.85
4075	3.7313	8.6017	0.	126.44
4076	3.4866	8.8229	0.	126.56
4077	4.226	8.6111	0.	124.99
4078	3.9831	8.8404	0.	125.66
4079	4.7221	8.5965	0.	122.89
4080	4.48	8.8383	0.	124.11
4081	5.2205	8.5683	0.	121.18
4082	4.9793	8.8173	0.	122.27
4083	5.722	8.5387	0.	121.08
4084	5.4793	8.7931	0.	121.37
4085	5.9821	8.7706	0.	122.45
4086	6.2287	8.5148	0.	124.75
4087	1.004	-6.7498	0.	124.84
4088	0.7513	-6.5002	0.	128.27
4089	1.2566	-6.4988	0.	124.29
4090	7.7381	-8.5101	0.	127.16
4091	8.2388	-8.5007	0.	127.15
4092	7.9911	-8.7538	0.	127.08
4093	7.9842	-8.2511	0.	127.23
4094	7.2385	-8.5235	0.	126.92
4095	7.4912	-8.764	0.	126.92
4096	7.4833	-8.2685	0.	127.34
4097	6.7399	-8.5354	0.	126.17
4098	6.9919	-8.7749	0.	126.43
4099	6.2422	-8.5429	0.	124.7
4100	6.4933	-8.7832	0.	125.39
4101	5.7455	-8.5458	0.	122.98
4102	5.9953	-8.7872	0.	123.9
4103	5.9908	-8.3039	0.	123.76
4104	5.2488	-8.549	0.	122.37
4105	5.4981	-8.7887	0.	122.75
4106	4.7505	-8.5545	0.	123.65
4107	5.0001	-8.7926	0.	123.15
4108	4.2501	-8.5583	0.	125.92
4109	4.5004	-8.7968	0.	125.02
4110	3.7489	-8.5554	0.	127.79
4111	3.9993	-8.798	0.	127.2
4112	3.9996	-8.3229	0.	127.54
4113	3.2481	-8.5449	0.	128.59
4114	3.4983	-8.7922	0.	128.77
4115	3.4987	-8.3141	0.	128.75
4116	2.9978	-8.781	0.	129.69
4117	2.7482	-8.5286	0.	130.25
4118	-2.9637	-8.2779	0.	131.35
4119	-2.7182	-8.0241	0.	130.92
4120	-3.213	-8.5299	0.	131.98
4121	-2.9739	-8.7711	0.	131.84
4122	-2.7244	-8.5197	0.	132.13
4123	-3.7021	-8.5394	0.	132.15
4124	-3.4651	-8.7793	0.	132.21
4125	-4.1927	-8.5464	0.	132.52
4126	-3.9573	-8.7863	0.	132.44
4127	-3.9348	-8.3	0.	131.62
4128	-4.6861	-8.5487	0.	131.82
4129	-4.4517	-8.79	0.	132.11
4130	-5.1862	-8.5393	0.	128.07
4131	-4.9496	-8.7877	0.	129.84
4132	-5.4553	-8.772	0.	124.35
4133	-5.7033	-8.504	0.	120.36
4134	-6.749	-8.5241	0.	117.83
4135	-6.4824	-8.728	0.	114.33
4136	-6.5795	-8.2739	0.	109.01
4137	-6.3758	-8.2229	0.	110.86
4138	-6.2225	-8.4693	0.	113.45
4139	-7.267	-8.592	0.	127.76
4140	-7.0083	-8.8113	0.	123.12
4141	-7.0532	-8.3754	0.	131.91
4142	-7.7572	-8.5606	0.	131.23
4143	-7.5089	-8.821	0.	129.51
4144	-7.512	-8.3885	0.	132.73
4145	-8.2493	-8.512	0.	130.44
4146	-8.0032	-8.7734	0.	130.32
4147	-7.9806	-8.254	0.	130.35
4148	-8.5003	-8.7522	0.	129.91
4149	-8.7481	-8.4979	0.	129.64
4150	8.2511	1.0106	0.	127.97
4151	8.	1.259	0.	126.06
4152	7.745	1.0109	0.	121.92
4153	8.4808	6.7729	0.	121.87
4154	8.7357	7.0143	0.	123.73
4155	8.4843	7.2649	0.	121.13
4156	8.478	6.2773	0.	122.42
4157	8.7343	6.5194	0.	123.79
4158	8.4719	5.7781	0.	123.62
4159	8.7296	6.0213	0.	124.42
4160	8.4699	5.2761	0.	126.32
4161	8.7248	5.5214	0.	126.04
4162	8.4762	4.7707	0.	131.26
4163	8.7265	5.0192	0.	129.13
4164	8.5035	0.76184	0.	129.62
4165	8.752	1.0077	0.	131.54
4166	8.5014	1.2574	0.	133.
4167	8.5084	0.26802	0.	127.91
4168	8.7549	0.51201	0.	129.49
4169	8.5173	-0.22418	0.	127.02
4170	8.7606	1.8218e-002	0.	128.27
4171	8.5284	-0.71472	0.	126.4
4172	8.7695	-0.47467	0.	127.42
4173	8.2732	-0.46391	0.	125.9
4174	8.5412	-1.2056	0.	125.98
4175	8.7787	-0.96613	0.	126.78
4176	8.2889	-0.95178	0.	125.51
4177	8.5527	-1.6991	0.	125.88
4178	8.7895	-1.4605	0.	126.38
4179	8.5563	-2.1955	0.	126.22
4180	8.796	-1.9572	0.	126.35
4181	8.321	-1.9319	0.	125.45
4182	8.5453	-2.696	0.	126.89
4183	8.7937	-2.4564	0.	126.72
4184	8.5182	-3.199	0.	127.58
4185	8.7777	-2.9601	0.	127.26
4186	8.4916	-3.7029	0.	128.02
4187	8.7522	-3.4626	0.	127.73
4188	8.4843	-4.2089	0.	128.06
4189	8.7378	-3.9659	0.	127.91
4190	8.2222	-3.9368	0.	128.44
4191	8.5008	-4.715	0.	127.75
4192	8.7411	-4.4699	0.	127.77
4193	8.5307	-5.2204	0.	127.23
4194	8.7627	-4.9727	0.	127.38
4195	8.2676	-4.9663	0.	127.69
4196	8.555	-5.7246	0.	126.7
4197	8.786	-5.4766	0.	126.9
4198	8.5563	-6.2273	0.	126.41
4199	8.7983	-5.9804	0.	126.53
4200	8.786	-6.4843	0.	126.41
4201	8.5197	-6.7285	0.	126.44
4202	8.4859	-8.2456	0.	127.1
4203	8.7354	-7.9943	0.	127.01
4204	8.4804	-7.7389	0.	126.96
4205	8.2313	-7.9959	0.	127.18
4206	8.7407	-8.4975	0.	127.09
4207	8.4919	-8.7488	0.	127.1
4208	-8.7739	6.9997	0.	126.16
4209	-8.5241	6.7434	0.	120.18
4210	-8.5324	7.2587	0.	125.37
4211	-6.1458	8.4438	0.	125.94
4212	-5.9339	8.714	0.	125.96
4213	-6.3986	8.6772	0.	127.95
4214	-6.597	8.403	0.	128.97
4215	-6.3705	8.1836	0.	126.64
4216	5.8804	-0.25301	0.	122.12
4217	5.6434	-1.3289e-002	0.	118.39
4218	-6.1349	0.66037	0.	132.88
4219	-5.6589	0.6892	0.	130.03
4220	-5.9095	0.93221	0.	128.08
4221	-5.8799	0.44962	0.	132.25
4222	0.21621	-3.0538	0.	130.15
4223	0.42294	-2.8069	0.	126.13
4224	0.21705	-2.0691	0.	131.69
4225	0.4695	-1.851	0.	130.49
4226	0.42455	-2.327	0.	126.31
4227	5.1043	7.6465	0.	119.91
4228	5.2926	7.3884	0.	113.75
4229	4.6777	7.0419	0.	131.58
4230	4.786	7.4696	0.	125.98
4231	4.9742	7.2115	0.	119.75
4232	5.5642	-0.54539	0.	115.18
4233	5.9378	-0.71693	0.	127.42
4234	6.1518	-0.48072	0.	125.25
4235	5.3271	-0.30566	0.	111.83
4236	5.4102	0.24125	0.	118.87
4237	-5.0903	-7.6109	0.	134.89
4238	-4.8502	-7.3395	0.	131.08
4239	-0.74591	-0.21009	0.	114.61
4240	-0.50265	4.1682e-002	0.	124.87
4241	-0.23261	-0.19472	0.	125.
4242	-1.2515	-0.26528	0.	109.89
4243	6.3474	-6.3937	0.	125.92
4244	6.1619	-6.6638	0.	130.46
4245	6.0459	-5.6488	0.	131.61
4246	6.2774	-5.4388	0.	132.42
4247	6.2928	-5.9112	0.	128.37
4248	-8.697	9.0484	0.	129.49
4249	-8.3681	8.9288	0.	127.34
4250	-8.1902	9.0816	0.	124.73
4251	-8.4648	9.3314	0.	126.76
4252	8.9902	-8.2462	0.	127.
4253	8.9938	-8.7478	0.	127.08
4254	9.2439	-8.4977	0.	127.05
4255	8.9883	-7.7442	0.	126.85
4256	9.2414	-7.9965	0.	126.9
4257	8.9937	-7.2426	0.	126.66
4258	9.2418	-7.4953	0.	126.71
4259	8.7332	-7.4888	0.	126.81
4260	9.0112	-6.741	0.	126.52
4261	9.25	-6.9946	0.	126.52
4262	8.7449	-6.9852	0.	126.55
4263	9.028	-6.2374	0.	126.52
4264	9.2663	-6.4928	0.	126.44
4265	9.0293	-5.7324	0.	126.72
4266	9.2735	-5.9888	0.	126.54
4267	9.018	-5.2289	0.	127.05
4268	9.2687	-5.485	0.	126.8
4269	9.003	-4.7276	0.	127.39
4270	9.2577	-4.9832	0.	127.13
4271	8.9946	-4.2269	0.	127.61
4272	9.2476	-4.4833	0.	127.4
4273	8.9983	-3.7256	0.	127.61
4274	9.2457	-3.983	0.	127.52
4275	9.0117	-3.2237	0.	127.41
4276	9.2528	-3.4822	0.	127.44
4277	9.0261	-2.7204	0.	127.09
4278	9.2646	-2.9805	0.	127.23
4279	9.0335	-2.218	0.	126.84
4280	9.2734	-2.4775	0.	127.02
4281	9.0328	-1.7186	0.	126.85
4282	9.2753	-1.9763	0.	127.
4283	9.027	-1.2211	0.	127.18
4284	9.2728	-1.4775	0.	127.3
4285	9.0198	-0.72608	0.	127.8
4286	9.2674	-0.98001	0.	127.94
4287	9.2623	-0.4845	0.	128.83
4288	9.0129	-0.23227	0.	128.68
4289	9.0034	0.75787	0.	131.42
4290	9.2537	0.50728	0.	131.12
4291	9.007	0.26221	0.	129.84
4292	9.0015	1.2551	0.	133.
4293	9.2517	1.0047	0.	132.42
4294	9.0007	1.7533	0.	133.59
4295	8.7509	1.5048	0.	134.43
4296	9.2508	1.503	0.	133.15
4297	9.0001	2.2525	0.	133.18
4298	8.7504	2.0029	0.	134.21
4299	9.2503	2.0021	0.	132.7
4300	8.9995	2.7528	0.	133.02
4301	8.7499	2.5022	0.	134.99
4302	9.2499	2.502	0.	131.94
4303	8.9982	3.2542	0.	132.86
4304	8.7492	3.0029	0.	136.14
4305	9.2492	3.0027	0.	131.83
4306	8.7476	3.5048	0.	134.99
4307	9.2477	3.5042	0.	131.44
4308	8.9953	3.7567	0.	132.66
4309	8.9825	5.7646	0.	126.85
4310	9.2359	5.5107	0.	128.64
4311	8.9814	5.2646	0.	128.88
4312	8.9859	6.2634	0.	125.79
4313	9.2382	6.0101	0.	127.64
4314	8.9891	6.7607	0.	125.66
4315	9.241	6.5086	0.	127.38
4316	-9.038	8.2539	0.	127.05
4317	-9.0026	8.73	0.	129.75
4318	-8.8614	8.5234	0.	131.59
4319	-9.2886	8.494	0.	127.37
4320	-9.0138	7.7684	0.	128.86
4321	-9.2623	8.0112	0.	126.19
4322	-9.015	7.2614	0.	131.08
4323	-8.7735	7.5203	0.	130.15
4324	-9.2606	7.5112	0.	130.87
4325	-8.2542	-9.0135	0.	129.8
4326	-8.7521	-9.0023	0.	129.94
4327	-8.5027	-9.2545	0.	129.74
4328	-7.755	-9.0337	0.	128.57
4329	-8.0041	-9.2667	0.	128.98
4330	-7.2503	-9.0403	0.	124.83
4331	-7.5027	-9.2818	0.	126.61
4332	-6.7417	-9.0151	0.	119.6
4333	-6.9961	-9.2744	0.	122.03
4334	-6.234	-8.9943	0.	117.45
4335	-6.4903	-9.2481	0.	118.08
4336	-5.7261	-9.0036	0.	120.71
4337	-5.9857	-9.2463	0.	118.77
4338	-5.9741	-8.7356	0.	116.71
4339	-5.2187	-9.0204	0.	126.11
4340	-5.4801	-9.2597	0.	123.35
4341	-4.7152	-9.029	0.	130.11
4342	-4.9757	-9.2696	0.	128.07
4343	-4.2163	-9.0299	0.	132.03
4344	-4.4746	-9.2727	0.	131.08
4345	-3.7203	-9.0263	0.	132.49
4346	-3.9763	-9.2714	0.	132.36
4347	-3.226	-9.0205	0.	132.06
4348	-3.4797	-9.2677	0.	132.36
4349	-2.7322	-9.014	0.	130.24
4350	-2.9841	-9.2631	0.	131.23
4351	-2.238	-9.008	0.	125.54
4352	-2.4827	-8.7627	0.	130.55
4353	-2.4887	-9.2583	0.	128.05
4354	-1.7426	-9.0036	0.	118.93
4355	-1.9902	-8.7551	0.	122.89
4356	-1.9927	-9.2541	0.	122.2
4357	-1.2458	-9.0014	0.	114.25
4358	-1.4949	-8.7517	0.	113.79
4359	-1.4957	-9.2517	0.	116.48
4360	-0.74776	-9.0005	0.	114.31
4361	-0.99736	-8.7506	0.	112.15
4362	-0.99765	-9.2507	0.	114.33
4363	-0.24883	-9.0002	0.	119.3
4364	-0.49867	-8.7502	0.	113.7
4365	-0.49876	-9.2502	0.	117.
4366	4.4738	-6.9459	0.	134.22
4367	4.7437	-7.1543	0.	121.53
4368	4.3763	-5.5414	0.	132.8
4369	4.6135	-5.3354	0.	124.46
4370	4.123	-5.2957	0.	133.97
4371	-2.0121	1.3836	0.	129.3
4372	-1.8046	1.645	0.	128.96
4373	-2.2653	1.6093	0.	134.6
4374	-0.38715	1.6929	0.	127.81
4375	-0.18545	1.4498	0.	125.92
4376	-6.8837	-8.1252	0.	123.15
4377	-7.1209	-7.9479	0.	136.33
4378	-7.2982	-8.1719	0.	136.65
4379	-7.0933	-6.1376	0.	132.15
4380	-6.8301	-5.9641	0.	124.61
4381	-7.0124	-5.7019	0.	132.82
4382	7.2446	-9.0155	0.	126.43
4383	7.4962	-9.2586	0.	126.59
4384	7.7443	-9.0077	0.	126.85
4385	6.7453	-9.0227	0.	125.66
4386	6.9966	-9.2645	0.	125.99
4387	6.2464	-9.0275	0.	124.59
4388	6.4971	-9.2692	0.	125.1
4389	5.7479	-9.0301	0.	123.66
4390	5.998	-9.2718	0.	124.12
4391	5.2494	-9.0323	0.	123.52
4392	5.4992	-9.2732	0.	123.61
4393	4.7501	-9.0349	0.	124.51
4394	5.	-9.2751	0.	124.09
4395	4.2497	-9.0365	0.	126.3
4396	4.5	-9.2769	0.	125.59
4397	3.7487	-9.0348	0.	128.18
4398	3.9993	-9.2773	0.	127.61
4399	3.248	-9.0284	0.	129.88
4400	3.4984	-9.2742	0.	129.61
4401	2.748	-9.0181	0.	131.67
4402	2.9981	-9.2678	0.	131.49
4403	2.5032	-7.7807	0.	131.46
4404	2.257	-7.5208	0.	128.05
4405	2.515	-7.2821	0.	129.72
4406	0.25056	-9.	0.	126.71
4407	6.9855e-004	-8.75	0.	122.87
4408	6.2133e-004	-9.2501	0.	123.43
4409	1.0043	-7.2497	0.	124.33
4410	0.75365	-6.9998	0.	129.16
4411	6.4194	7.7433	0.	129.74
4412	6.6658	7.4526	0.	130.15
4413	6.2908	7.2477	0.	129.01
4414	-6.1867	8.9474	0.	128.
4415	-6.639	8.8809	0.	131.72
4416	-6.4786	9.1906	0.	129.42
4417	-5.7086	8.976	0.	126.
4418	-5.9744	9.224	0.	126.73
4419	-5.2207	8.9884	0.	125.51
4420	-5.4776	9.2377	0.	126.08
4421	-4.7298	8.9953	0.	125.54
4422	-4.983	9.2444	0.	125.98
4423	-4.2368	9.0003	0.	125.68
4424	-4.4883	9.2486	0.	126.03
4425	-3.742	9.0047	0.	125.79
4426	-3.9926	9.252	0.	126.07
4427	-3.9866	8.7533	0.	125.56
4428	-3.2459	9.0089	0.	125.86
4429	-3.4958	9.2552	0.	126.07
4430	-2.7486	9.0129	0.	125.86
4431	-2.9983	9.2581	0.	126.03
4432	-2.9969	8.7641	0.	125.79
4433	-2.2497	9.0165	0.	125.78
4434	-2.4996	9.2611	0.	125.93
4435	-1.75	9.0189	0.	125.58
4436	-2.	9.2634	0.	125.75
4437	-1.2503	9.0202	0.	125.27
4438	-1.5001	9.2648	0.	125.5
4439	-0.75124	9.0235	0.	124.91
4440	-1.0007	9.2655	0.	125.18
4441	-0.25253	9.0335	0.	124.65
4442	-0.50168	9.2699	0.	124.9
4443	0.2466	9.0427	0.	124.62
4444	-2.5381e-003	9.2795	0.	124.78
4445	0.74618	9.0425	0.	124.86
4446	0.49735	9.2833	0.	124.87
4447	1.2455	9.037	0.	125.31
4448	0.99717	9.2796	0.	125.17
4449	1.7445	9.0319	0.	125.81
4450	1.4965	9.2751	0.	125.59
4451	2.2432	9.031	0.	126.22
4452	1.9956	9.2724	0.	125.97
4453	2.7418	9.0368	0.	126.42
4454	2.4944	9.2741	0.	126.23
4455	3.2401	9.0484	0.	126.31
4456	2.9931	9.2809	0.	126.25
4457	3.7384	9.0616	0.	125.77
4458	3.4918	9.2909	0.	125.99
4459	4.2372	9.0676	0.	124.78
4460	3.9907	9.3002	0.	125.38
4461	4.7372	9.0592	0.	123.49
4462	4.4907	9.2995	0.	124.47
4463	5.238	9.0421	0.	122.46
4464	4.9918	9.2877	0.	123.53
4465	5.7394	9.025	0.	122.75
4466	5.4925	9.2747	0.	123.1
4467	6.2423	9.0109	0.	125.69
4468	5.9938	9.2627	0.	124.15
4469	-2.2349	-8.5098	0.	127.85
4470	-2.4789	-8.2659	0.	131.66
4471	0.23346	-5.4976	0.	126.11
4472	0.48766	-5.7508	0.	130.27
4473	0.47698	-5.2527	0.	129.28
4474	8.5006	1.7544	0.	135.01
4475	8.2504	1.5059	0.	131.03
4476	8.4872	4.2632	0.	134.54
4477	8.2295	4.5188	0.	130.62
4478	8.7342	4.5144	0.	133.31
4479	5.7373	1.5061	0.	125.82
4480	5.4926	1.759	0.	128.26
4481	5.4782	1.2595	0.	126.59
4482	5.5493	4.171	0.	122.02
4483	5.7905	4.4161	0.	121.45
4484	5.5542	4.6058	0.	119.81
4485	5.339	4.3853	0.	119.89
4486	-6.4864	6.2415	0.	132.6
4487	-6.7406	6.4913	0.	129.28
4488	-6.4989	4.7641	0.	129.19
4489	-6.7484	4.5107	0.	126.42
4490	-6.2514	4.5236	0.	129.08
4491	-8.9995	-8.244	0.	128.92
4492	-9.	-8.748	0.	129.67
4493	-9.2492	-8.497	0.	129.39
4494	-9.0065	-7.7391	0.	127.89
4495	-9.2507	-7.9939	0.	128.43
4496	-9.0178	-7.2341	0.	127.26
4497	-9.2594	-7.4904	0.	127.54
4498	-9.0235	-6.7308	0.	127.64
4499	-9.2663	-6.9869	0.	127.34
4500	-9.0215	-6.2309	0.	129.12
4501	-9.2677	-6.4856	0.	128.1
4502	-9.0152	-5.734	0.	130.78
4503	-9.2641	-5.9865	0.	129.5
4504	-9.2587	-5.4895	0.	130.46
4505	-8.7634	-5.4826	0.	133.04
4506	-9.0085	-5.238	0.	131.15
4507	-9.0016	-4.2438	0.	129.66
4508	-8.7519	-4.4937	0.	130.8
4509	-9.2518	-4.4948	0.	129.15
4510	-9.0038	-4.7417	0.	130.01
4511	-9.0011	-3.7435	0.	130.32
4512	-8.7509	-3.9943	0.	130.87
4513	-9.2509	-3.9952	0.	129.76
4514	-9.0019	-3.2414	0.	129.96
4515	-8.7515	-3.4923	0.	131.07
4516	-9.2509	-3.4944	0.	130.22
4517	-9.0036	-2.7384	0.	128.72
4518	-9.2519	-2.9924	0.	129.68
4519	-9.0062	-2.2351	0.	127.69
4520	-9.2534	-2.4904	0.	128.83
4521	-9.256	-1.9881	0.	128.33
4522	-9.0108	-1.7318	0.	127.35
4523	-9.0406	-0.22872	0.	129.01
4524	-9.2762	-0.48472	0.	128.78
4525	-9.029	-0.72844	0.	128.41
4526	-9.0488	0.26914	0.	128.38
4527	-9.2842	1.4771e-002	0.	128.5
4528	-9.0504	0.76437	0.	126.63
4529	-9.2882	0.51256	0.	127.02
4530	-9.0453	1.2575	0.	125.66
4531	-9.2867	1.0085	0.	125.44
4532	-9.0355	1.7496	0.	126.55
4533	-9.2807	1.5034	0.	125.53
4534	-9.0226	2.2427	0.	127.81
4535	-9.2722	1.9978	0.	127.06
4536	-9.0085	2.7381	0.	127.78
4537	-9.2616	2.4937	0.	128.24
4538	-8.9968	3.2357	0.	126.69
4539	-9.2515	2.9909	0.	128.37
4540	-8.9913	3.7363	0.	125.72
4541	-9.2445	3.4899	0.	128.1
4542	-8.9921	4.2399	0.	126.13
4543	-9.2431	3.9912	0.	128.45
4544	-9.0131	6.7528	0.	129.44
4545	-9.2615	7.0043	0.	131.15
4546	-6.5096	-3.7484	0.	127.39
4547	-6.7588	-3.4995	0.	124.08
4548	-6.5127	-3.2554	0.	126.03
4549	-8.2522	-3.4921	0.	127.62
4550	-8.5013	-3.7432	0.	131.59
4551	8.9929	7.2568	0.	126.72
4552	9.2432	7.0062	0.	127.94
4553	-6.912	9.0338	0.	133.95
4554	-7.1975	9.1966	0.	122.68
4555	-6.9921	9.4156	0.	129.95
4556	-6.7517	9.3435	0.	131.87
4557	-7.003	6.752	0.	127.15
4558	-6.9176	7.2362	0.	130.8
4559	-7.2776	6.9688	0.	118.56
4560	4.2825	-2.3656	0.	134.98
4561	4.1503	-2.0745	0.	127.79
4562	3.8488	-2.2373	0.	130.51
4563	4.419	4.5475	0.	133.12
4564	4.1754	4.7927	0.	136.62
4565	6.9652	4.78	0.	121.82
4566	6.9037	5.335	0.	119.17
4567	6.7078	5.0032	0.	126.12
4568	7.197	5.0491	0.	121.08
4569	1.3827	4.7764	0.	129.02
4570	1.2399	4.4704	0.	135.51
4571	-0.67022	4.0981	0.	128.39
4572	-0.89727	4.3402	0.	129.39
4573	-1.1672	4.1062	0.	131.41
4574	-0.3591	6.2172	0.	126.67
4575	2.7308e-002	6.3516	0.	114.04
4576	-1.9735	-1.293	0.	124.47
4577	-2.207	-1.4954	0.	133.57
4578	-2.0944	-3.7707	0.	131.62
4579	-1.8172	-3.9728	0.	117.91
4580	-2.0571	-4.2508	0.	126.8
4581	-8.1112	0.3168	0.	133.42
4582	-7.8748	0.10971	0.	124.05
4583	9.2467	-8.9987	0.	127.14
4584	8.997	-9.249	0.	127.11
4585	8.7451	-8.9992	0.	127.09
4586	-9.0013	-9.2501	0.	129.98
4587	-9.2508	-8.9993	0.	130.03
4588	-8.8017	8.765	0.	132.59
4589	-9.2143	8.9838	0.	128.67
4590	-8.963	9.236	0.	128.56
4591	-8.0497	2.1948	0.	131.31
4592	-7.8016	2.3869	0.	120.52
4593	-8.0188	2.6771	0.	125.97
4594	4.4424	-6.4896	0.	130.56
4595	4.2209	-6.717	0.	130.11
4596	4.406	-6.0169	0.	129.25
4597	5.1037	-5.4329	0.	109.49
4598	5.5807	-5.5639	0.	118.7
4599	5.2638	-7.0737	0.	113.66
4600	-1.9026	0.89967	0.	128.14
4601	-1.7224	0.42553	0.	130.92
4602	-1.3369	1.6699	0.	108.06
4603	-0.86029	1.6875	0.	110.04
4604	-0.43985	0.50804	0.	130.99
4605	-0.29105	0.97395	0.	126.06
4606	9.6885e-003	1.2045	0.	121.03
4607	-5.5578	-7.7772	0.	125.44
4608	-6.0333	-7.9534	0.	113.97
4609	-5.88	-8.1998	0.	116.65
4610	-6.478	-8.0359	0.	108.05
4611	-7.1627	-7.5024	0.	134.13
4612	-7.1601	-7.036	0.	133.27
4613	-7.1352	-6.5734	0.	129.37
4614	-7.3783	-6.8332	0.	128.8
4615	-6.3654	-6.0834	0.	112.89
4616	-6.5536	-5.8399	0.	113.89
4617	-5.4782	-6.4535	0.	126.24
4618	-5.0269	-6.5625	0.	134.04
4619	-5.9178	-6.2673	0.	116.95
4620	-6.1059	-5.9771	0.	115.67
4621	2.4984	-8.7657	0.	132.2
4622	2.4984	-9.2592	0.	133.06
4623	2.4993	-8.2733	0.	131.44
4624	0.5003	-8.75	0.	132.1
4625	0.50025	-9.25	0.	129.99
4626	0.25044	-8.5	0.	128.21
4627	0.50034	-8.2499	0.	133.72
4628	6.4709	8.252	0.	128.26
4629	6.489	8.7551	0.	127.96
4630	6.4963	9.2541	0.	128.
4631	-0.24914	-8.5001	0.	117.22
4632	-0.74827	-8.5003	0.	111.47
4633	-1.2465	-8.5009	0.	111.64
4634	-1.7425	-8.5032	0.	117.73
4635	-0.26305	-5.4888	0.	115.96
4636	-1.8791e-002	-5.2425	0.	121.08
4637	-0.75962	-5.4796	0.	110.
4638	-0.51619	-5.2237	0.	111.74
4639	-1.2563	-5.4791	0.	109.94
4640	-1.7523	-5.49	0.	116.58
4641	-1.5108	-5.2218	0.	111.42
4642	-2.2424	-5.5124	0.	127.67
4643	1.7566	-7.5041	0.	118.72
4644	1.2544	-7.5001	0.	118.7
4645	0.7524	-7.4998	0.	130.33
4646	8.5001	2.2526	0.	136.01
4647	8.4997	2.7523	0.	138.12
4648	8.4987	3.2535	0.	138.29
4649	8.4956	3.7569	0.	136.14
4650	8.7432	4.0088	0.	133.82
4651	5.5085	2.7497	0.	130.16
4652	5.2571	2.5088	0.	127.79
4653	5.5013	2.2558	0.	128.85
4654	5.5173	3.2382	0.	129.16
4655	5.5305	3.7149	0.	125.08
4656	5.2812	3.4851	0.	125.57
4657	-6.4922	5.7485	0.	129.67
4658	-6.4961	5.2555	0.	128.64
4659	-7.2444	4.4924	0.	118.72
4660	-6.9917	4.2547	0.	121.97
4661	-8.7424	4.4894	0.	121.75
4662	-9.2454	4.4944	0.	130.93
4663	-8.2403	4.4831	0.	116.16
4664	-7.7408	4.4812	0.	114.98
4665	-7.4829	4.2168	0.	115.47
4666	-8.7633	6.4964	0.	123.36
4667	-9.2573	6.5004	0.	132.38
4668	-8.2677	6.4851	0.	115.86
4669	-7.2552	6.4848	0.	117.56
4670	-7.7654	6.4762	0.	112.54
4671	-7.5297	6.7017	0.	108.96
4672	-6.5106	-4.2344	0.	126.54
4673	-6.5124	-4.7043	0.	124.59
4674	-6.5005	-5.1362	0.	122.57
4675	-7.2301	-5.4727	0.	122.74
4676	-7.7586	-5.4722	0.	123.42
4677	-6.7359	-5.5778	0.	122.08
4678	-6.723	-5.4071	0.	124.47
4679	-7.7538	-3.4928	0.	117.81
4680	-7.2561	-3.4948	0.	116.13
4681	-8.5012	-4.2442	0.	131.99
4682	-8.5034	-4.7414	0.	132.94
4683	-8.5103	-5.234	0.	134.01
4684	-8.7554	-4.9894	0.	132.16
4685	0.49682	-6.2504	0.	130.48
4686	0.50095	-7.7498	0.	134.95
4687	0.50173	-7.2499	0.	135.16
4688	0.501	-6.7502	0.	132.6
4689	-2.4757	-7.768	0.	132.06
4690	-2.4716	-7.2699	0.	133.76
4691	-2.4664	-6.2732	0.	132.21
4692	-2.4758	-5.7754	0.	131.83
4693	-2.4679	-6.7719	0.	133.93
4694	7.7482	1.5055	0.	120.99
4695	7.2433	1.5023	0.	114.52
4696	7.4932	1.2573	0.	116.88
4697	6.2379	1.5006	0.	117.96
4698	6.7393	1.4993	0.	113.44
4699	6.482	1.2499	0.	114.9
4700	6.2598	4.46	0.	119.38
4701	6.0115	4.6621	0.	117.98
4702	7.7276	4.5223	0.	122.57
4703	7.2307	4.519	0.	119.21
4704	7.4624	4.7881	0.	118.39
4705	6.7413	4.4973	0.	118.76
4706	6.4838	4.7205	0.	123.75
4707	8.7415	7.5075	0.	124.1
4708	9.2467	7.5031	0.	130.37
4709	8.2349	7.5144	0.	121.34
4710	7.2179	7.4745	0.	124.98
4711	7.7335	7.5251	0.	121.34
4712	-6.8374	8.6067	0.	132.64
4713	-6.8157	8.146	0.	131.8
4714	-6.8201	7.6883	0.	131.82
4715	-6.5891	7.9266	0.	129.46
4716	-8.3081	7.4708	0.	121.55
4717	-7.5997	7.1235	0.	106.65
4718	4.7303	-2.4925	0.	123.86
4719	5.1949	-2.6157	0.	108.49
4720	5.6686	-2.7137	0.	111.22
4721	4.3642	-1.6268	0.	130.61
4722	5.0341	-0.75918	0.	115.72
4723	4.6439	-1.1663	0.	132.24
4724	4.2635	-1.3424	0.	135.32
4725	-8.4728	8.6454	0.	130.27
4726	-8.1072	8.8851	0.	123.77
4727	-7.6782	9.0991	0.	115.67
4728	-7.4581	9.3669	0.	115.56
4729	-7.9528	9.2875	0.	121.12
4730	6.0823	-1.1596	0.	128.83
4731	6.2976	-2.0798	0.	131.11
4732	6.3566	-2.5546	0.	131.91
4733	6.2001	-1.6144	0.	130.51
4734	4.5874	6.6091	0.	131.22
4735	4.4757	6.1697	0.	132.62
4736	4.3503	5.7251	0.	138.13
4737	4.0522	5.5147	0.	134.48
4738	4.2384	5.2682	0.	136.2
4739	6.1207	6.436	0.	122.49
4740	6.2761	6.561	0.	124.78
4741	6.118	6.8005	0.	124.9
4742	6.3465	6.1254	0.	129.11
4743	6.3616	6.4036	0.	124.51
4744	6.6739	5.7981	0.	125.48
4745	6.8878	5.9125	0.	120.97
4746	6.7008	6.0865	0.	131.23
4747	0.31296	4.2007	0.	108.49
4748	0.78702	4.3209	0.	123.99
4749	-0.17586	4.1258	0.	113.12
4750	-0.82707	4.8213	0.	128.12
4751	-0.70974	5.3	0.	129.56
4752	-1.0302	5.0916	0.	127.76
4753	-0.55975	5.7722	0.	130.08
4754	0.51625	6.0815	0.	116.17
4755	0.88155	5.6572	0.	131.01
4756	1.1652	5.2163	0.	130.37
4757	1.5266	5.0904	0.	124.47
4758	6.2354	4.9226	0.	122.24
4759	5.7751	4.8517	0.	115.87
4760	5.33	4.7864	0.	116.62
4761	4.8946	4.6495	0.	119.98
4762	4.8978	4.4612	0.	121.47
4763	5.1149	4.566	0.	116.8
4764	-0.21888	-1.9952	0.	125.15
4765	-0.6065	-1.8034	0.	113.53
4766	-1.0169	-1.5232	0.	109.02
4767	-1.4928	-1.3463	0.	110.04
4768	-2.2012	-1.9392	0.	130.73
4769	-2.1852	-2.3872	0.	131.51
4770	-2.1627	-2.8411	0.	130.4
4771	-2.1339	-3.302	0.	130.11
4772	-2.3873	-3.0721	0.	127.74
4773	-2.3562	-3.5431	0.	131.54
4774	-1.2944	-3.8655	0.	107.67
4775	-0.87484	-3.5915	0.	109.92
4776	-0.76007	-3.8776	0.	113.83
4777	-0.56091	-3.2728	0.	113.21
4778	-0.20493	-3.107	0.	124.29
4779	-8.1126	0.79402	0.	131.46
4780	-8.0732	1.726	0.	130.59
4781	-8.0959	1.2616	0.	129.51
4782	-6.5852	0.55429	0.	126.81
4783	-7.0064	0.37957	0.	114.27
4784	-7.4291	0.21461	0.	110.87
4785	-7.1717	1.38e-002	0.	111.33
4786	9.5	8.7501	0.	130.44
4787	9.5	9.25	0.	129.05
4788	9.4998	8.2503	0.	132.04
4789	9.4988	7.7511	0.	132.96
4790	9.497	7.2525	0.	131.63
4791	9.495	6.754	0.	129.66
4792	9.4932	6.2553	0.	129.23
4793	9.4916	5.7562	0.	129.44
4794	9.4909	5.2566	0.	130.02
4795	9.4921	4.7563	0.	130.59
4796	9.2365	5.0104	0.	130.26
4797	9.4946	4.2553	0.	130.69
4798	9.2401	4.5088	0.	131.56
4799	9.4971	3.754	0.	130.47
4800	9.2446	4.0065	0.	131.7
4801	9.4987	3.2527	0.	130.41
4802	9.4996	2.7519	0.	130.74
4803	9.5	2.2516	0.	131.46
4804	9.5004	1.7518	0.	132.25
4805	9.501	1.2526	0.	132.56
4806	9.5021	0.75409	0.	132.12
4807	9.504	0.25637	0.	131.17
4808	9.5099	-0.73843	0.	128.96
4809	9.5068	-0.24093	0.	130.05
4810	9.5132	-1.2364	0.	128.06
4811	9.5153	-1.7352	0.	127.46
4812	9.5152	-2.2358	0.	127.18
4813	9.5119	-2.7376	0.	127.17
4814	9.5057	-3.239	0.	127.27
4815	9.5002	-3.7396	0.	127.35
4816	9.4987	-4.2394	0.	127.31
4817	9.5022	-4.7388	0.	127.14
4818	9.5084	-5.2393	0.	126.88
4819	9.5129	-5.7414	0.	126.62
4820	9.5118	-6.2443	0.	126.46
4821	9.5051	-6.7465	0.	126.45
4822	9.498	-7.2473	0.	126.57
4823	9.4952	-8.248	0.	126.95
4824	9.4949	-7.7476	0.	126.75
4825	9.4968	-8.7485	0.	127.1
4826	9.4983	-9.2491	0.	127.21
4827	9.2486	-9.4994	0.	127.19
4828	8.7481	-9.4998	0.	127.06
4829	8.2479	-9.5014	0.	126.91
4830	8.4962	-9.2501	0.	127.04
4831	7.748	-9.5041	0.	126.64
4832	7.996	-9.2532	0.	126.9
4833	7.2482	-9.5077	0.	126.14
4834	6.7484	-9.5111	0.	125.43
4835	6.2487	-9.5135	0.	124.62
4836	5.7493	-9.5149	0.	124.07
4837	5.2498	-9.516	0.	124.18
4838	4.75	-9.5171	0.	125.16
4839	4.2497	-9.5177	0.	126.9
4840	3.749	-9.5168	0.	129.04
4841	3.2485	-9.5136	0.	131.23
4842	2.7484	-9.5088	0.	132.92
4843	2.2489	-9.5038	0.	128.82
4844	1.7495	-9.5008	0.	118.6
4845	1.2499	-9.5001	0.	118.06
4846	0.75008	-9.5	0.	126.25
4847	0.25031	-9.5001	0.	126.76
4848	-0.24931	-9.5002	0.	121.13
4849	-0.74865	-9.5004	0.	116.98
4850	-1.2475	-9.501	0.	116.53
4851	-1.7458	-9.5023	0.	119.76
4852	-2.2434	-9.5045	0.	124.72
4853	-2.7406	-9.5074	0.	129.03
4854	-3.2378	-9.5104	0.	131.52
4855	-4.2346	-9.5142	0.	131.4
4856	-3.7356	-9.5129	0.	132.23
4857	-4.735	-9.5133	0.	129.04
4858	-5.2371	-9.509	0.	125.32
4859	-5.7397	-9.5025	0.	121.41
4860	-6.242	-9.5001	0.	119.36
4861	-6.7447	-9.5073	0.	120.5
4862	-7.2485	-9.5159	0.	123.81
4863	-7.7518	-9.5148	0.	127.02
4864	-8.2527	-9.5076	0.	128.92
4865	-8.7519	-9.5023	0.	129.78
4866	-9.251	-9.5002	0.	130.32
4867	-9.5004	-9.2494	0.	130.37
4868	-9.5	-8.7484	0.	129.75
4869	-9.5004	-8.2469	0.	128.9
4870	-9.5036	-7.7452	0.	128.07
4871	-9.5079	-7.2432	0.	127.61
4872	-9.5105	-6.7417	0.	127.79
4873	-9.5102	-6.2412	0.	128.48
4874	-9.5076	-5.7421	0.	129.17
4875	-9.5046	-5.2439	0.	129.34
4876	-9.5023	-4.7455	0.	129.17
4877	-9.2543	-4.9924	0.	130.04
4878	-9.5011	-4.2462	0.	129.24
4879	-9.5007	-3.7461	0.	129.65
4880	-9.5009	-3.2454	0.	129.94
4881	-9.5017	-2.7444	0.	129.79
4882	-9.5032	-2.2434	0.	129.46
4883	-9.5056	-1.7426	0.	129.19
4884	-9.5094	-1.2418	0.	129.03
4885	-9.2604	-1.4862	0.	128.22
4886	-9.5145	-0.74134	0.	128.82
4887	-9.2673	-0.98506	0.	128.46
4888	-9.5199	-0.24122	0.	128.26
4889	-9.5236	0.25819	0.	127.13
4890	-9.5245	0.75665	0.	125.82
4891	-9.5222	1.2543	0.	125.29
4892	-9.5175	1.7516	0.	126.04
4893	-9.5112	2.2488	0.	127.5
4894	-9.5046	2.7466	0.	128.83
4895	-9.4992	3.2451	0.	129.78
4896	-9.4964	3.7448	0.	130.83
4897	-9.4963	4.2456	0.	133.28
4898	-9.498	4.7473	0.	135.09
4899	-9.4996	5.2489	0.	135.12
4900	-9.5005	5.7497	0.	135.36
4901	-9.5028	6.2503	0.	135.67
4902	-9.5056	6.752	0.	134.11
4903	-9.507	7.2541	0.	130.9
4904	-9.509	7.7541	0.	128.16
4905	-9.5129	8.2513	0.	126.4
4906	-9.5004	8.7478	0.	126.27
4907	-9.4879	9.2462	0.	126.12
4908	-9.2366	9.4984	0.	125.97
4909	-8.7307	9.519	0.	125.8
4910	-8.2274	9.5374	0.	123.2
4911	-7.7328	9.5553	0.	120.6
4912	-7.2527	9.5859	0.	122.79
4913	-6.7758	9.5263	0.	127.28
4914	-6.2664	9.4672	0.	128.15
4915	-5.7434	9.4856	0.	126.81
4916	-5.2398	9.4937	0.	126.55
4917	-4.7414	9.4977	0.	126.47
4918	-4.244	9.5003	0.	126.43
4919	-3.7464	9.5024	0.	126.35
4920	-3.2482	9.5044	0.	126.25
4921	-2.7493	9.5063	0.	126.1
4922	-2.2499	9.508	0.	125.91
4923	-1.7502	9.5093	0.	125.67
4924	-1.2505	9.5102	0.	125.42
4925	-0.75113	9.5119	0.	125.18
4926	-0.25169	9.5158	0.	125.03
4927	0.24821	9.52	0.	125.03
4928	0.74834	9.5204	0.	125.18
4929	1.2482	9.5177	0.	125.45
4930	1.7476	9.5156	0.	125.75
4931	2.2467	9.5154	0.	125.98
4932	2.7457	9.5181	0.	126.06
4933	3.2448	9.5234	0.	125.94
4934	3.7441	9.5296	0.	125.59
4935	4.2442	9.5321	0.	125.07
4936	4.7453	9.528	0.	124.51
4937	5.2462	9.5203	0.	124.18
4938	5.7469	9.5124	0.	124.52
4939	6.2478	9.5058	0.	126.51
4940	6.7488	9.5018	0.	126.99
4941	7.2496	9.5003	0.	123.36
4942	7.7499	9.5	0.	121.67
4943	8.25	9.5	0.	121.84
4944	8.75	9.5	0.	123.9
4945	9.25	9.5	0.	127.49
4946	-7.3456	2.2511	0.	110.35
4947	-6.917	2.0578	0.	118.2
4948	-6.5053	1.8484	0.	128.38
4949	-6.2326	1.977	0.	131.18
4950	-6.0697	1.7051	0.	130.98
4951	-9.0183	-1.2294	0.	127.65
4952	2.3271	1.6104	0.	128.43
4953	-1.4921	2.8752	0.	122.
4954	-1.4608	3.3676	0.	125.22
4955	8.0337	-0.70097	0.	125.
4956	-2.4494	3.3369	0.	127.23
4957	-2.6949	3.5729	0.	127.12
4958	-2.1908	3.595	0.	126.53
4959	-2.4337	3.8386	0.	126.2
4960	-7.4453	3.6637	0.	116.52
4961	-0.24838	-3.9887	0.	120.53
4962	1.6531	-3.0391	0.	127.27
4963	-3.3453	-0.74518	0.	131.29
4964	3.5037	0.86914	0.	129.05
4965	4.6285	7.7157	0.	124.78
4966	5.733	-6.8502	0.	126.85
4967	5.7611	-7.0702	0.	125.76
4968	-4.7279	-0.25102	0.	129.36
4969	-2.7026	3.0778	0.	128.06
4970	-7.5069	-3.2388	0.	115.03
4971	1.0795	2.6306	0.	126.12
4972	0.87402	2.8487	0.	124.6
4973	-1.5651	-5.7655e-002	0.	118.78
4974	-8.0299	-1.1851	0.	122.78
4975	-8.018	-1.6998	0.	122.43
4976	-1.2663	2.6375	0.	119.05
4977	-2.6095	-3.3133	0.	129.05
4978	7.7021	-3.8902	0.	128.94
4979	-3.8155	-3.075	0.	127.88
4980	-1.7663	6.1302	0.	126.33
4981	-2.9953	8.2713	0.	125.69
4982	6.3625	-4.9837	0.	128.78
4983	-3.0189	-5.3398	0.	132.94
4984	-3.2291	-5.3361	0.	132.91
4985	-6.1264	2.4267	0.	129.81
4986	-2.7099	-5.5523	0.	132.61
4987	3.5382	-2.3932	0.	128.1
4988	-8.0121	-2.2149	0.	122.28
4989	8.9845	4.763	0.	131.24
4990	-2.95	2.818	0.	128.88
4991	8.9902	4.26	0.	132.57
4992	-2.946	3.8094	0.	126.85
4993	-2.6848	4.0751	0.	125.93
4994	5.2205	1.0197	0.	125.07
4995	3.7494	-8.0816	0.	128.5
4996	-4.2524	0.20484	0.	128.38
4997	0.91011	3.2579	0.	124.05
4998	-5.4131	0.45713	0.	128.84
4999	-8.2651	-5.4769	0.	131.51
5000	1.502	-6.2473	0.	124.61
5001	7.7293	-8.0094	0.	127.41
5002	8.2443	-9.0019	0.	127.03
5003	-2.7464	8.0301	0.	125.76
5004	-3.2412	8.0199	0.	125.56
5005	-7.8675	7.3685	0.	110.81
5006	9.2573	1.1299e-002	0.	129.89
5007	6.1399	-2.7724	0.	126.62
5008	6.389	-3.0328	0.	131.93
5009	-7.7354	-8.0818	0.	131.86
5010	-3.9815	8.2546	0.	125.34
5011	-4.2238	8.0006	0.	125.28
5012	-3.7337	8.0099	0.	125.38
5013	-4.8193	-6.8377	0.	129.84
5014	-6.2667	-3.0202	0.	125.12
5015	-7.2302	3.9791	0.	118.72
5016	-5.7988	3.5644	0.	128.14
5017	-5.3179	3.5604	0.	129.08
5018	-5.8783	1.4235	0.	127.04
5019	5.004	2.2672	0.	126.21
5020	5.2482	2.0142	0.	127.3
5021	-4.7694	4.0272	0.	128.24
5022	-5.0496	3.7958	0.	128.82
5023	3.0195	-2.0073	0.	126.37
5024	-3.2369	7.0331	0.	125.51
5025	-4.4915	-2.0938e-002	0.	128.84
5026	3.7463	-6.7071	0.	127.97
5027	-2.249	8.039	0.	125.85
5028	-1.7485	8.0441	0.	125.69
5029	-2.405	4.8533	0.	123.97
5030	-2.1195	5.1518	0.	123.4
5031	8.4844	-7.2314	0.	126.69
5032	8.2197	-6.9556	0.	126.49
5033	-6.0283	-1.8272	0.	124.53
5034	-7.7864	-0.90681	0.	121.19
5035	-1.5308	6.3732	0.	127.16
5036	3.7726	5.295	0.	130.
5037	0.88581	6.991	0.	122.72
5038	1.1666	7.1994	0.	124.68
5039	-1.4316	3.8641	0.	127.08
5040	-1.6678	4.1145	0.	126.47
5041	2.7693	-7.0699	0.	128.35
5042	2.5529	-6.76	0.	126.84
5043	-3.1129e-002	2.9103	0.	119.5
5044	-3.4521	1.8195	0.	127.69
5045	8.2224	-7.4835	0.	126.97
5046	7.9734	-7.7406	0.	127.18
5047	7.9577	-7.2077	0.	126.77
5048	2.2333	8.0772	0.	127.37
5049	2.2011	4.4755	0.	129.28
5050	-5.6342	0.21754	0.	131.13
5051	6.4178	-3.5118	0.	126.44
5052	3.4315	-2.1081	0.	126.36
5053	7.3668	-6.8288	0.	126.42
5054	-4.4693	5.7562	0.	125.87
5055	-4.7198	6.0007	0.	126.21
5056	-2.9481	3.3138	0.	127.95
5057	-2.4165	4.3466	0.	124.96
5058	0.22474	-4.9976	0.	124.24
5059	0.71786	-5.0058	0.	128.92
5060	-5.4596	-0.93679	0.	127.95
5061	-5.33	1.8835	0.	128.41
5062	-5.6011	1.6568	0.	128.71
5063	-5.128	1.6365	0.	127.1
5064	3.9589	5.0486	0.	131.83
5065	-3.145	-5.5737	0.	132.55
5066	2.38	2.6397	0.	129.83
5067	-4.7231	5.5071	0.	126.02
5068	-1.694	3.6099	0.	126.57
5069	-1.9303	3.8603	0.	125.95
5070	1.731	8.0847	0.	126.29
5071	-1.5587	5.16	0.	122.9
5072	-5.0406	-2.355	0.	127.01
5073	-5.034	-1.8772	0.	127.36
5074	-1.2445	8.0438	0.	125.08
5075	7.6829	-6.9893	0.	126.69
5076	6.7159	6.3647	0.	126.67
5077	5.9661	-6.9131	0.	129.94
5078	1.9252	-0.97656	0.	128.55
5079	-4.9735	5.7516	0.	126.36
5080	6.7204	-0.45613	0.	125.45
5081	-5.1125	3.3166	0.	129.53
5082	0.46986	1.1951	0.	123.93
5083	-3.5914	-5.5357	0.	132.66
5084	-3.8335	-5.7776	0.	131.93
5085	-2.1732	4.1039	0.	125.62
5086	-0.27193	-4.9774	0.	116.84
5087	2.3916	4.2012	0.	130.78
5088	1.5148	2.6435	0.	128.04
5089	1.31	2.8665	0.	127.5
5090	5.4536	0.75557	0.	122.65
5091	-4.0653	-6.0772	0.	131.73
5092	-6.5013	-5.5092	0.	119.45
5093	-6.2941	-5.7337	0.	116.22
5094	-6.2643	-5.3578	0.	120.89
5095	-6.0571	-5.5823	0.	118.02
5096	-5.0154	-1.4063	0.	128.01
5097	-5.2436	-1.1689	0.	127.87
5098	-4.7694	-1.1761	0.	128.72
5099	-5.2719	-1.6318	0.	127.05
5100	-4.7881	-1.6457	0.	127.94
5101	-5.5001	-1.3944	0.	126.91
5102	-5.7266	-1.1523	0.	126.38
5103	-5.7712	-1.608	0.	125.52
5104	-5.9977	-1.3658	0.	125.
5105	-6.2222	-1.1016	0.	123.96
5106	-6.2922	-1.5643	0.	123.32
5107	-6.5167	-1.3001	0.	122.28
5108	-4.3009	-1.182	0.	129.32
5109	-4.5421	-1.4154	0.	128.65
5110	-4.0725	-1.4215	0.	129.13
5111	-4.3138	-1.6549	0.	128.46
5112	1.9651	3.1591	0.	130.62
5113	1.7392	2.9013	0.	129.56
5114	1.5345	3.1242	0.	129.01
5115	2.1712	2.9075	0.	130.39
5116	1.9453	2.6498	0.	129.32
5117	1.7159	2.3994	0.	128.41
5118	2.1473	2.391	0.	129.27
5119	1.9179	2.1406	0.	128.36
5120	1.6818	1.8975	0.	127.57
5121	2.1213	1.879	0.	128.46
5122	1.8852	1.6358	0.	127.68
5123	1.6408	1.4011	0.	127.01
5124	2.0926	1.3734	0.	128.06
5125	1.8482	1.1386	0.	127.4
5126	1.1045	3.0845	0.	125.98
5127	-7.	-4.	0.	96.906
5128	-8.	-4.	0.	98.54
5129	-7.	-5.	0.	97.147
5130	-8.	-5.	0.	101.42
5131	-7.5	-4.	0.	113.18
5132	-7.	-4.5	0.	101.97
5133	-8.	-4.5	0.	105.
5134	-7.5	-5.	0.	115.6
5135	-7.5	-4.5	0.	111.59
5136	-7.25	-4.	0.	105.04
5137	-7.	-4.25	0.	99.426
5138	-7.75	-4.	0.	105.84
5139	-8.	-4.25	0.	101.76
5140	-7.	-4.75	0.	99.521
5141	-7.25	-5.	0.	106.33
5142	-8.	-4.75	0.	103.2
5143	-7.75	-5.	0.	108.49
5144	-7.5	-4.25	0.	112.33
5145	-7.25	-4.5	0.	106.75
5146	-7.75	-4.5	0.	108.27
5147	-7.5	-4.75	0.	113.56
5148	0.	-6.	0.	96.035
5149	-2.	-6.	0.	96.038
5150	0.	-8.	0.	97.013
5151	-2.	-8.	0.	96.252
5152	-0.5	-6.	0.	108.78
5153	-1.	-6.	0.	106.11
5154	-1.5	-6.	0.	108.74
5155	0.	-6.5	0.	100.13
5156	0.	-7.	0.	99.872
5157	0.	-7.5	0.	101.59
5158	-2.	-6.5	0.	100.05
5159	-2.	-7.	0.	98.976
5160	-2.	-7.5	0.	100.33
5161	-1.5	-8.	0.	109.63
5162	-1.	-8.	0.	107.01
5163	-0.5	-8.	0.	109.73
5164	-1.	-6.5	0.	109.1
5165	-0.5	-6.5	0.	107.08
5166	-0.5	-7.5	0.	107.72
5167	-1.	-7.5	0.	109.59
5168	-1.5	-7.5	0.	107.12
5169	-1.5	-6.5	0.	106.77
5170	-1.5	-7.	0.	106.25
5171	-0.5	-7.	0.	106.91
5172	-1.	-7.	0.	109.32
5173	-0.25	-6.	0.	102.35
5174	0.	-6.25	0.	98.074
5175	-1.75	-6.	0.	102.33
5176	-2.	-6.25	0.	98.034
5177	0.	-7.75	0.	99.301
5178	-0.25	-8.	0.	103.3
5179	-2.	-7.75	0.	98.28
5180	-1.75	-8.	0.	102.87
5181	-0.75	-6.	0.	107.44
5182	-0.5	-6.25	0.	107.9
5183	-1.25	-6.	0.	107.43
5184	-1.	-6.25	0.	107.59
5185	-1.5	-6.25	0.	107.73
5186	0.	-6.75	0.	99.976
5187	-0.25	-6.5	0.	103.59
5188	0.	-7.25	0.	100.72
5189	-0.25	-7.	0.	103.39
5190	-0.25	-7.5	0.	104.64
5191	-2.	-6.75	0.	99.484
5192	-1.75	-6.5	0.	103.4
5193	-2.	-7.25	0.	99.623
5194	-1.75	-7.	0.	102.61
5195	-1.75	-7.5	0.	103.71
5196	-1.25	-8.	0.	108.32
5197	-1.5	-7.75	0.	108.35
5198	-0.75	-8.	0.	108.37
5199	-1.	-7.75	0.	108.28
5200	-0.5	-7.75	0.	108.69
5201	-0.75	-6.5	0.	108.08
5202	-1.25	-6.5	0.	107.93
5203	-1.	-6.75	0.	109.21
5204	-0.5	-6.75	0.	106.99
5205	-0.75	-7.5	0.	108.64
5206	-0.5	-7.25	0.	107.31
5207	-1.25	-7.5	0.	108.34
5208	-1.	-7.25	0.	109.45
5209	-1.5	-7.25	0.	106.68
5210	-1.5	-6.75	0.	106.5
5211	-1.25	-7.	0.	107.79
5212	-0.75	-7.	0.	108.11
5213	2.	-8.	0.	98.751
5214	1.	-8.	0.	99.936
5215	2.	-9.	0.	99.671
5216	1.	-9.	0.	99.504
5217	1.5	-8.	0.	114.79
5218	2.	-8.5	0.	104.62
5219	1.	-8.5	0.	105.27
5220	1.5	-9.	0.	114.7
5221	1.5	-8.5	0.	112.62
5222	1.75	-8.	0.	106.74
5223	2.	-8.25	0.	101.68
5224	1.25	-8.	0.	107.35
5225	1.	-8.25	0.	102.6
5226	2.	-8.75	0.	102.14
5227	1.75	-9.	0.	107.18
5228	1.	-8.75	0.	102.38
5229	1.25	-9.	0.	107.09
5230	1.5	-8.25	0.	113.64
5231	1.75	-8.5	0.	108.6
5232	1.25	-8.5	0.	108.93
5233	1.5	-8.75	0.	113.63
5234	8.	4.	0.	100.2
5235	6.	4.	0.	93.933
5236	8.	2.	0.	99.581
5237	6.	2.	0.	95.379
5238	7.5	4.	0.	114.89
5239	7.	4.	0.	112.01
5240	6.5	4.	0.	112.04
5241	8.	3.5	0.	104.69
5242	8.	3.	0.	103.16
5243	8.	2.5	0.	103.98
5244	6.	3.5	0.	98.751
5245	6.	3.	0.	98.021
5246	6.	2.5	0.	99.509
5247	6.5	2.	0.	110.29
5248	7.	2.	0.	109.15
5249	7.5	2.	0.	112.66
5250	7.	3.	0.	112.3
5251	6.5	3.	0.	107.43
5252	6.5	3.5	0.	108.65
5253	7.	3.5	0.	113.38
5254	7.5	3.5	0.	111.86
5255	7.5	3.	0.	110.46
5256	7.5	2.5	0.	110.68
5257	7.	2.5	0.	111.95
5258	6.5	2.5	0.	107.99
5259	7.75	4.	0.	107.46
5260	8.	3.75	0.	102.43
5261	6.25	4.	0.	102.9
5262	6.	3.75	0.	96.302
5263	8.	2.25	0.	101.77
5264	7.75	2.	0.	106.05
5265	6.	2.25	0.	97.428
5266	6.25	2.	0.	102.77
5267	7.25	4.	0.	113.44
5268	7.5	3.75	0.	113.34
5269	6.75	4.	0.	112.02
5270	7.	3.75	0.	112.68
5271	6.5	3.75	0.	110.33
5272	8.	3.25	0.	103.89
5273	7.75	3.5	0.	108.26
5274	8.	2.75	0.	103.54
5275	7.75	3.	0.	106.81
5276	7.75	2.5	0.	107.32
5277	6.	3.25	0.	98.338
5278	6.25	3.5	0.	103.68
5279	6.	2.75	0.	98.721
5280	6.25	3.	0.	102.72
5281	6.25	2.5	0.	103.73
5282	6.75	2.	0.	109.72
5283	6.5	2.25	0.	109.11
5284	7.25	2.	0.	110.91
5285	7.	2.25	0.	110.53
5286	7.5	2.25	0.	111.64
5287	6.75	3.	0.	109.86
5288	7.	3.25	0.	112.84
5289	7.25	3.	0.	111.38
5290	7.	2.75	0.	112.12
5291	6.5	3.25	0.	108.02
5292	6.5	2.75	0.	107.69
5293	6.75	3.5	0.	110.99
5294	7.25	3.5	0.	112.6
5295	7.5	3.25	0.	111.15
5296	7.5	2.75	0.	110.56
5297	7.25	2.5	0.	111.31
5298	6.75	2.5	0.	109.96
5299	9.	9.	0.	101.39
5300	7.	9.	0.	99.867
5301	9.	8.	0.	102.68
5302	7.	8.	0.	100.73
5303	8.5	9.	0.	120.81
5304	8.	9.	0.	119.93
5305	7.5	9.	0.	119.82
5306	9.	8.5	0.	107.38
5307	7.	8.5	0.	105.68
5308	7.5	8.	0.	119.4
5309	8.	8.	0.	118.95
5310	8.5	8.	0.	119.97
5311	7.5	8.5	0.	118.36
5312	8.	8.5	0.	122.95
5313	8.5	8.5	0.	119.6
5314	8.75	9.	0.	111.04
5315	9.	8.75	0.	104.37
5316	7.25	9.	0.	109.8
5317	7.	8.75	0.	102.75
5318	9.	8.25	0.	105.02
5319	8.75	8.	0.	111.3
5320	7.	8.25	0.	103.17
5321	7.25	8.	0.	110.03
5322	8.25	9.	0.	120.37
5323	8.5	8.75	0.	120.17
5324	7.75	9.	0.	119.87
5325	8.	8.75	0.	121.42
5326	7.5	8.75	0.	119.06
5327	8.75	8.5	0.	113.48
5328	7.25	8.5	0.	112.
5329	7.75	8.	0.	119.17
5330	7.5	8.25	0.	118.87
5331	8.25	8.	0.	119.45
5332	8.	8.25	0.	120.94
5333	8.5	8.25	0.	119.77
5334	7.75	8.5	0.	120.65
5335	8.25	8.5	0.	121.27
5336	-7.57	1.92	0.	86.587
5337	-7.67	0.61	0.	73.835
5338	-6.49	1.18	0.	69.44
5339	-7.6033	1.4833	0.	100.53
5340	-7.6367	1.0467	0.	101.09
5341	-7.21	1.6733	0.	93.982
5342	-6.85	1.4267	0.	98.036
5343	-7.2767	0.8	0.	99.595
5344	-6.8833	0.99	0.	103.19
5345	-7.0686	1.2231	0.	101.68
5346	-7.3182	1.395	0.	98.32
5347	-7.3414	1.0916	0.	97.625
5348	-7.5867	1.7017	0.	91.002
5349	-7.39	1.7967	0.	88.126
5350	-7.6533	0.82833	0.	85.779
5351	-7.4733	0.705	0.	84.918
5352	-6.67	1.3033	0.	77.565
5353	-6.6867	1.085	0.	80.104
5354	-7.62	1.265	0.	100.66
5355	-7.4608	1.4392	0.	99.355
5356	-7.489	1.0691	0.	99.345
5357	-7.03	1.55	0.	95.856
5358	-7.2641	1.5342	0.	96.093
5359	-6.9593	1.3249	0.	99.253
5360	-7.08	0.895	0.	101.26
5361	-7.309	0.94578	0.	98.541
5362	-6.976	1.1066	0.	101.81
5363	-7.1934	1.3091	0.	99.878
5364	-7.205	1.1574	0.	99.539
5365	-7.3298	1.2433	0.	97.964
5366	-6.81	-7.78	0.	75.884
5367	-5.35	-7.12	0.	75.939
5368	-6.66	-6.19	0.	89.909
5369	-6.3233	-7.56	0.	103.57
5370	-5.8367	-7.34	0.	107.7
5371	-6.76	-7.25	0.	102.
5372	-6.71	-6.72	0.	101.2
5373	-5.7867	-6.81	0.	102.89
5374	-6.2233	-6.5	0.	98.234
5375	-6.3627	-6.8358	0.	100.77
5376	-6.0598	-7.0508	0.	104.81
5377	-6.3974	-7.2034	0.	99.474
5378	-6.5667	-7.67	0.	88.417
5379	-6.785	-7.515	0.	87.802
5380	-5.5933	-7.23	0.	87.234
5381	-5.5683	-6.965	0.	85.016
5382	-6.685	-6.455	0.	93.674
5383	-6.4417	-6.345	0.	92.431
5384	-6.08	-7.45	0.	105.51
5385	-6.3604	-7.3817	0.	101.46
5386	-5.9482	-7.1954	0.	105.76
5387	-6.735	-6.985	0.	101.41
5388	-6.5787	-7.2267	0.	100.72
5389	-6.5364	-6.7779	0.	100.9
5390	-6.005	-6.655	0.	100.44
5391	-5.9232	-6.9304	0.	103.43
5392	-6.293	-6.6679	0.	99.456
5393	-6.2113	-6.9433	0.	102.71
5394	-6.3801	-7.0196	0.	100.12
5395	-6.2286	-7.1271	0.	102.06
5396	-7.25	7.39	0.	89.077
5397	-7.25	8.82	0.	84.527
5398	-8.48	8.11	0.	87.497
5399	-7.25	7.8667	0.	100.84
5400	-7.25	8.3433	0.	101.9
5401	-7.66	7.63	0.	101.51
5402	-8.07	7.87	0.	111.75
5403	-7.66	8.5833	0.	109.1
5404	-8.07	8.3467	0.	110.92
5405	-7.7146	8.1622	0.	104.13
5406	-7.25	7.6283	0.	94.48
5407	-7.455	7.51	0.	94.671
5408	-7.25	8.5817	0.	92.525
5409	-7.455	8.7017	0.	95.916
5410	-8.275	7.99	0.	97.577
5411	-8.275	8.2283	0.	96.992
5412	-7.25	8.105	0.	101.33
5413	-7.455	7.7483	0.	101.13
5414	-7.4823	8.2528	0.	102.94
5415	-7.865	7.75	0.	106.56
5416	-7.6873	7.8961	0.	102.79
5417	-7.8923	8.0161	0.	107.76
5418	-7.865	8.465	0.	109.92
5419	-7.6873	8.3728	0.	106.55
5420	-7.8923	8.2544	0.	107.41
5421	-1.67	1.18	0.	52.499
5422	-1.09	0.29	0.	104.03
5423	-0.61	1.23	0.	51.584
5424	-1.38	0.735	0.	82.738
5425	-1.14	1.205	0.	117.63
5426	-0.85	0.76	0.	85.356
5427	-1.1231	0.89994	0.	99.364
5428	-1.525	0.9575	0.	65.837
5429	-1.405	1.1925	0.	84.218
5430	-1.235	0.5125	0.	92.768
5431	-0.97	0.525	0.	93.709
5432	-0.875	1.2175	0.	84.447
5433	-0.73	0.995	0.	67.63
5434	-1.2516	0.81747	0.	90.602
5435	-1.1316	1.0525	0.	108.48
5436	-0.98657	0.82997	0.	91.955
5437	-3.e-002	5.92	0.	100.85
5438	-0.42	4.53	0.	59.878
5439	0.98	4.88	0.	65.449
5440	-0.16	5.4567	0.	95.582
5441	-0.29	4.9933	0.	98.843
5442	0.30667	5.5733	0.	90.497
5443	0.64333	5.2267	0.	95.523
5444	4.6667e-002	4.6467	0.	108.04
5445	0.51333	4.7633	0.	110.27
5446	0.12887	5.2973	0.	99.465
5447	0.36242	5.0568	0.	101.64
5448	3.8721e-002	4.9759	0.	97.665
5449	-9.5e-002	5.6883	0.	96.146
5450	0.13833	5.7467	0.	94.213
5451	-0.355	4.7617	0.	79.136
5452	-0.18667	4.5883	0.	83.562
5453	0.81167	5.0533	0.	76.834
5454	0.74667	4.8217	0.	83.942
5455	-0.225	5.225	0.	97.074
5456	-1.5565e-002	5.377	0.	97.403
5457	-0.12564	4.9846	0.	98.24
5458	0.475	5.4	0.	92.932
5459	0.21777	5.4353	0.	94.973
5460	0.50288	5.1417	0.	98.291
5461	0.28	4.705	0.	109.03
5462	4.2694e-002	4.8113	0.	102.83
5463	0.43788	4.9101	0.	105.55
5464	0.24565	5.1771	0.	100.45
5465	8.3796e-002	5.1366	0.	98.538
5466	0.20057	5.0164	0.	99.549
5467	-0.17	-2.54	0.	75.642
5468	-1.75	-1.73	0.	74.727
5469	-1.65	-3.5	0.	84.086
5470	-0.565	-2.3375	0.	106.15
5471	-0.96	-2.135	0.	100.28
5472	-1.355	-1.9325	0.	99.869
5473	-0.54	-2.78	0.	103.22
5474	-0.91	-3.02	0.	99.12
5475	-1.28	-3.26	0.	95.814
5476	-1.725	-2.1725	0.	99.718
5477	-1.7	-2.615	0.	96.808
5478	-1.675	-3.0575	0.	99.137
5479	-1.0835	-2.7873	0.	99.084
5480	-0.81652	-2.5719	0.	104.59
5481	-1.3552	-2.598	0.	99.008
5482	-1.106	-2.3832	0.	100.05
5483	-1.4084	-2.2476	0.	96.216
5484	-1.3687	-2.9517	0.	96.926
5485	-0.3675	-2.4388	0.	86.295
5486	-0.355	-2.66	0.	84.873
5487	-1.5525	-1.8312	0.	85.818
5488	-1.7375	-1.9512	0.	85.769
5489	-1.465	-3.38	0.	88.181
5490	-1.6625	-3.2787	0.	89.614
5491	-0.7625	-2.2362	0.	103.12
5492	-0.69076	-2.4547	0.	105.02
5493	-1.1575	-2.0338	0.	100.05
5494	-1.033	-2.2591	0.	100.16
5495	-1.3817	-2.09	0.	97.973
5496	-0.725	-2.9	0.	101.04
5497	-0.67826	-2.676	0.	103.55
5498	-1.095	-3.14	0.	97.448
5499	-0.99677	-2.9037	0.	99.1
5500	-1.3244	-3.1059	0.	96.297
5501	-1.7125	-2.3937	0.	98.241
5502	-1.5667	-2.21	0.	97.947
5503	-1.6875	-2.8363	0.	97.926
5504	-1.5276	-2.6065	0.	97.902
5505	-1.5219	-3.0046	0.	97.982
5506	-0.95003	-2.6796	0.	101.77
5507	-1.2194	-2.6927	0.	99.033
5508	-1.2261	-2.8695	0.	97.981
5509	-0.96129	-2.4776	0.	102.24
5510	-1.2306	-2.4906	0.	99.511
5511	-1.3818	-2.4228	0.	97.602
5512	-1.362	-2.7748	0.	97.958
5513	-1.2572	-2.3154	0.	98.114
5514	5.18	6.8	0.	101.84
5515	4.6	5.05	0.	67.578
5516	6.4	5.42	0.	72.829
5517	5.035	6.3625	0.	100.55
5518	4.89	5.925	0.	102.55
5519	4.745	5.4875	0.	106.73
5520	5.485	6.455	0.	97.533
5521	5.79	6.11	0.	104.04
5522	6.095	5.765	0.	105.29
5523	5.05	5.1425	0.	113.84
5524	5.5	5.235	0.	109.72
5525	5.95	5.3275	0.	115.38
5526	5.6482	5.5642	0.	108.12
5527	5.1633	5.5029	0.	104.75
5528	5.3062	6.1788	0.	104.37
5529	5.5185	5.9137	0.	103.81
5530	5.202	5.8558	0.	104.06
5531	5.1075	6.5813	0.	99.228
5532	5.3325	6.6275	0.	98.043
5533	4.6725	5.2688	0.	86.969
5534	4.825	5.0963	0.	90.468
5535	6.2475	5.5925	0.	86.689
5536	6.175	5.3738	0.	91.225
5537	4.9625	6.1438	0.	101.43
5538	5.1706	6.2706	0.	102.39
5539	4.8175	5.7063	0.	104.63
5540	5.046	5.8904	0.	103.29
5541	4.9541	5.4952	0.	105.73
5542	5.6375	6.2825	0.	100.78
5543	5.3956	6.3169	0.	100.93
5544	5.9425	5.9375	0.	104.63
5545	5.6542	6.0119	0.	103.92
5546	5.8716	5.6646	0.	106.61
5547	5.275	5.1887	0.	111.76
5548	5.1066	5.3227	0.	109.29
5549	5.725	5.2812	0.	112.52
5550	5.5741	5.3996	0.	108.87
5551	5.7991	5.4458	0.	111.59
5552	5.4057	5.5335	0.	106.34
5553	5.5833	5.7389	0.	105.95
5554	5.1827	5.6794	0.	104.38
5555	5.4124	6.0462	0.	104.07
5556	5.2541	6.0173	0.	104.21
5557	5.3603	5.8848	0.	103.92
5558	4.57	-1.97	0.	65.413
5559	5.96	-2.28	0.	58.783
5560	5.54	-0.93	0.	100.84
5561	5.0333	-2.0733	0.	110.1
5562	5.4967	-2.1767	0.	108.53
5563	4.8933	-1.6233	0.	95.402
5564	5.2167	-1.2767	0.	90.524
5565	5.82	-1.83	0.	98.47
5566	5.68	-1.38	0.	95.385
5567	5.1747	-1.783	0.	101.5
5568	5.399	-1.5425	0.	99.533
5569	5.4962	-1.8546	0.	97.695
5570	4.8017	-2.0217	0.	84.004
5571	4.7317	-1.7967	0.	76.883
5572	5.7283	-2.2283	0.	83.343
5573	5.89	-2.055	0.	78.474
5574	5.3783	-1.1033	0.	94.145
5575	5.61	-1.155	0.	95.977
5576	5.265	-2.125	0.	109.2
5577	5.104	-1.9281	0.	105.41
5578	5.4964	-2.0157	0.	103.09
5579	5.055	-1.45	0.	92.892
5580	5.034	-1.7031	0.	98.185
5581	5.3078	-1.4096	0.	95.021
5582	5.75	-1.605	0.	96.764
5583	5.6581	-1.8423	0.	98.067
5584	5.5395	-1.4612	0.	97.33
5585	5.2869	-1.6627	0.	100.42
5586	5.3354	-1.8188	0.	99.494
5587	5.4476	-1.6986	0.	98.583
5588	4.94	-6.8	0.	89.125
5589	5.81	-6.18	0.	63.177
5590	4.84	-5.74	0.	74.559
5591	5.375	-6.49	0.	91.573
5592	4.89	-6.27	0.	102.11
5593	5.325	-5.96	0.	103.45
5594	5.1966	-6.2399	0.	101.92
5595	5.1575	-6.645	0.	88.755
5596	4.915	-6.535	0.	93.672
5597	5.5925	-6.335	0.	72.079
5598	5.5675	-6.07	0.	78.312
5599	4.865	-6.005	0.	87.264
5600	5.0825	-5.85	0.	87.306
5601	5.2858	-6.365	0.	95.881
5602	5.0433	-6.255	0.	101.98
5603	5.2608	-6.1	0.	101.86
5604	-7.	6.	0.	97.411
5605	-9.	6.	0.	101.52
5606	-7.	5.	0.	96.711
5607	-9.	5.	0.	100.89
5608	-7.5	6.	0.	111.95
5609	-8.	6.	0.	111.65
5610	-8.5	6.	0.	115.57
5611	-7.	5.5	0.	101.8
5612	-9.	5.5	0.	106.08
5613	-8.5	5.	0.	115.59
5614	-8.	5.	0.	112.51
5615	-7.5	5.	0.	113.05
5616	-8.5	5.5	0.	114.5
5617	-8.	5.5	0.	115.4
5618	-7.5	5.5	0.	111.47
5619	-7.25	6.	0.	104.65
5620	-7.	5.75	0.	99.588
5621	-8.75	6.	0.	108.5
5622	-9.	5.75	0.	103.79
5623	-7.	5.25	0.	99.234
5624	-7.25	5.	0.	104.84
5625	-9.	5.25	0.	103.48
5626	-8.75	5.	0.	108.2
5627	-7.75	6.	0.	111.78
5628	-7.5	5.75	0.	111.69
5629	-8.25	6.	0.	113.6
5630	-8.	5.75	0.	113.52
5631	-8.5	5.75	0.	115.01
5632	-7.25	5.5	0.	106.62
5633	-8.75	5.5	0.	110.28
5634	-8.25	5.	0.	114.05
5635	-8.5	5.25	0.	115.01
5636	-7.75	5.	0.	112.78
5637	-8.	5.25	0.	113.95
5638	-7.5	5.25	0.	112.24
5639	-8.25	5.5	0.	114.95
5640	-7.75	5.5	0.	113.43
