Node Number	X Location (mm)	Y Location (mm)	Z Location (mm)	Equivalent (von-Mises) Stress (MPa)
1	-7.	9.	0.	137.41
2	-7.	8.	0.	136.86
3	-6.	9.	0.	133.84
4	-6.	8.	0.	133.45
5	-3.	-5.	0.	134.57
6	-3.	-6.	0.	138.64
7	-1.	-5.	0.	135.42
8	-1.	-6.	0.	135.46
9	-4.	7.	0.	135.63
10	-4.	5.	0.	133.29
11	-3.	7.	0.	132.12
12	-3.	5.	0.	129.98
13	0.	1.	0.	133.08
14	0.	-1.	0.	132.6
15	1.	1.	0.	133.62
16	1.	-1.	0.	132.61
17	-8.	-7.	0.	136.87
18	-8.	-9.	0.	134.39
19	-6.	-7.	0.	137.22
20	-6.	-9.	0.	136.05
21	3.	7.	0.	135.63
22	3.	6.	0.	136.53
23	5.	7.	0.	137.78
24	5.	6.	0.	137.31
25	-6.	7.	0.	132.7
26	-6.	5.	0.	132.88
27	-5.	7.	0.	136.63
28	-5.	5.	0.	138.09
29	6.	6.	0.	135.05
30	6.	5.	0.	136.97
31	7.	6.	0.	134.07
32	7.	5.	0.	134.37
33	-4.	3.	0.	133.32
34	-4.	2.	0.	132.98
35	-2.	3.	0.	136.32
36	-2.	2.	0.	136.85
37	-1.	9.	0.	135.76
38	-1.	7.	0.	132.98
39	0.	9.	0.	136.78
40	0.	7.	0.	131.65
41	7.	-4.	0.	135.68
42	7.	-5.	0.	135.28
43	9.	-4.	0.	136.15
44	9.	-5.	0.	136.15
45	-5.	-7.	0.	135.56
46	-5.	-9.	0.	135.77
47	-4.	-7.	0.	135.84
48	-4.	-9.	0.	130.01
49	10.	10.	0.	125.
50	-10.	10.	0.	125.04
51	10.	-10.	0.	123.14
52	-10.	-10.	0.	139.07
53	-7.	8.5	0.	146.01
54	-6.5	9.	0.	113.98
55	-6.5	8.	0.	115.04
56	-6.	8.5	0.	141.92
57	-3.	-5.5	0.	144.94
58	-2.5	-5.	0.	117.91
59	-2.	-5.	0.	122.82
60	-1.5	-5.	0.	117.34
61	-2.5	-6.	0.	118.91
62	-2.	-6.	0.	123.47
63	-1.5	-6.	0.	117.71
64	-1.	-5.5	0.	143.82
65	-4.	6.5	0.	143.96
66	-4.	6.	0.	144.69
67	-4.	5.5	0.	142.97
68	-3.5	7.	0.	108.07
69	-3.5	5.	0.	106.96
70	-3.	6.5	0.	141.52
71	-3.	6.	0.	141.52
72	-3.	5.5	0.	140.24
73	0.	0.5	0.	142.42
74	0.	0.	0.	142.41
75	0.	-0.5	0.	141.55
76	0.5	1.	0.	108.68
77	0.5	-1.	0.	108.43
78	1.	0.5	0.	142.
79	1.	0.	0.	142.33
80	1.	-0.5	0.	141.84
81	-8.	-7.5	0.	145.87
82	-8.	-8.	0.	146.82
83	-8.	-8.5	0.	145.19
84	-7.5	-7.	0.	114.01
85	-7.	-7.	0.	118.09
86	-6.5	-7.	0.	113.98
87	-7.5	-9.	0.	112.3
88	-7.	-9.	0.	115.68
89	-6.5	-9.	0.	112.43
90	-6.	-7.5	0.	145.22
91	-6.	-8.	0.	146.94
92	-6.	-8.5	0.	144.7
93	3.	6.5	0.	144.59
94	3.5	7.	0.	117.88
95	4.	7.	0.	123.54
96	4.5	7.	0.	118.9
97	3.5	6.	0.	117.7
98	4.	6.	0.	123.07
99	4.5	6.	0.	118.12
100	5.	6.5	0.	147.91
101	-6.	6.5	0.	140.28
102	-6.	6.	0.	141.47
103	-6.	5.5	0.	141.79
104	-5.5	7.	0.	111.32
105	-5.5	5.	0.	110.54
106	-5.	6.5	0.	144.38
107	-5.	6.	0.	145.38
108	-5.	5.5	0.	144.64
109	6.	5.5	0.	147.42
110	6.5	6.	0.	111.28
111	6.5	5.	0.	113.18
112	7.	5.5	0.	143.67
113	-4.	2.5	0.	141.46
114	-3.5	3.	0.	115.41
115	-3.	3.	0.	121.54
116	-2.5	3.	0.	118.04
117	-3.5	2.	0.	115.89
118	-3.	2.	0.	121.6
119	-2.5	2.	0.	117.35
120	-2.	2.5	0.	145.31
121	-1.	8.5	0.	143.99
122	-1.	8.	0.	143.87
123	-1.	7.5	0.	142.74
124	-0.5	9.	0.	112.16
125	-0.5	7.	0.	107.5
126	0.	8.5	0.	143.8
127	0.	8.	0.	143.16
128	0.	7.5	0.	141.77
129	7.	-4.5	0.	143.94
130	7.5	-4.	0.	117.34
131	8.	-4.	0.	122.76
132	8.5	-4.	0.	118.06
133	7.5	-5.	0.	117.32
134	8.	-5.	0.	122.65
135	8.5	-5.	0.	117.9
136	9.	-4.5	0.	146.1
137	-5.	-7.5	0.	143.
138	-5.	-8.	0.	143.74
139	-5.	-8.5	0.	142.65
140	-4.5	-7.	0.	109.77
141	-4.5	-9.	0.	107.91
142	-4.	-7.5	0.	142.8
143	-4.	-8.	0.	141.62
144	-4.	-8.5	0.	140.47
145	9.5	10.	0.	125.01
146	9.	10.	0.	125.04
147	8.5	10.	0.	125.08
148	8.	10.	0.	125.07
149	7.5	10.	0.	125.03
150	7.	10.	0.	124.93
151	6.5	10.	0.	124.74
152	6.	10.	0.	124.42
153	5.5	10.	0.	123.97
154	5.	10.	0.	123.5
155	4.5	10.	0.	123.2
156	4.	10.	0.	123.31
157	3.5	10.	0.	123.94
158	3.	10.	0.	125.03
159	2.5	10.	0.	126.39
160	2.	10.	0.	127.8
161	1.5	10.	0.	128.98
162	1.	10.	0.	129.65
163	0.5	10.	0.	127.69
164	-5.2042e-015	10.	0.	122.05
165	-0.5	10.	0.	119.45
166	-1.	10.	0.	121.4
167	-1.5	10.	0.	126.3
168	-2.	10.	0.	127.69
169	-2.5	10.	0.	126.6
170	-3.	10.	0.	125.39
171	-3.5	10.	0.	124.51
172	-4.	10.	0.	124.22
173	-4.5	10.	0.	124.43
174	-5.	10.	0.	124.98
175	-5.5	10.	0.	123.89
176	-6.	10.	0.	120.16
177	-6.5	10.	0.	118.95
178	-7.	10.	0.	121.6
179	-7.5	10.	0.	126.46
180	-8.	10.	0.	127.75
181	-8.5	10.	0.	126.83
182	-9.	10.	0.	125.9
183	-9.5	10.	0.	125.2
184	10.	9.5	0.	124.98
185	10.	9.	0.	124.9
186	10.	8.5	0.	124.76
187	10.	8.	0.	124.54
188	10.	7.5	0.	124.19
189	10.	7.	0.	123.7
190	10.	6.5	0.	123.15
191	10.	6.	0.	122.78
192	10.	5.5	0.	122.84
193	10.	5.	0.	123.42
194	10.	4.5	0.	124.3
195	10.	4.	0.	125.14
196	10.	3.5	0.	125.71
197	10.	3.	0.	125.93
198	10.	2.5	0.	125.89
199	10.	2.	0.	125.69
200	10.	1.5	0.	125.43
201	10.	1.	0.	125.19
202	10.	0.5	0.	125.02
203	10.	-5.2042e-015	0.	124.96
204	10.	-0.5	0.	125.1
205	10.	-1.	0.	125.51
206	10.	-1.5	0.	126.33
207	10.	-2.	0.	127.74
208	10.	-2.5	0.	129.84
209	10.	-3.	0.	132.22
210	10.	-3.5	0.	131.91
211	10.	-4.	0.	126.65
212	10.	-4.5	0.	121.9
213	10.	-5.	0.	126.41
214	10.	-5.5	0.	131.5
215	10.	-6.	0.	131.71
216	10.	-6.5	0.	129.21
217	10.	-7.	0.	126.96
218	10.	-7.5	0.	125.38
219	10.	-8.	0.	124.37
220	10.	-8.5	0.	123.74
221	10.	-9.	0.	123.38
222	10.	-9.5	0.	123.2
223	-10.	9.5	0.	124.65
224	-10.	9.	0.	123.55
225	-10.	8.5	0.	122.66
226	-10.	8.	0.	122.37
227	-10.	7.5	0.	122.55
228	-10.	7.	0.	122.89
229	-10.	6.5	0.	123.22
230	-10.	6.	0.	123.56
231	-10.	5.5	0.	123.97
232	-10.	5.	0.	124.49
233	-10.	4.5	0.	125.06
234	-10.	4.	0.	125.59
235	-10.	3.5	0.	126.02
236	-10.	3.	0.	126.31
237	-10.	2.5	0.	126.5
238	-10.	2.	0.	126.62
239	-10.	1.5	0.	126.72
240	-10.	1.	0.	126.81
241	-10.	0.5	0.	126.93
242	-10.	-5.2042e-015	0.	127.06
243	-10.	-0.5	0.	127.21
244	-10.	-1.	0.	127.38
245	-10.	-1.5	0.	127.6
246	-10.	-2.	0.	127.87
247	-10.	-2.5	0.	128.23
248	-10.	-3.	0.	128.72
249	-10.	-3.5	0.	129.38
250	-10.	-4.	0.	130.24
251	-10.	-4.5	0.	131.28
252	-10.	-5.	0.	132.38
253	-10.	-5.5	0.	133.24
254	-10.	-6.	0.	133.33
255	-10.	-6.5	0.	132.21
256	-10.	-7.	0.	130.26
257	-10.	-7.5	0.	128.7
258	-10.	-8.	0.	128.81
259	-10.	-8.5	0.	130.92
260	-10.	-9.	0.	134.44
261	-10.	-9.5	0.	137.74
262	-9.5	-10.	0.	136.74
263	-9.	-10.	0.	136.84
264	-8.5	-10.	0.	133.82
265	-8.	-10.	0.	123.63
266	-7.5	-10.	0.	113.28
267	-7.	-10.	0.	109.88
268	-6.5	-10.	0.	114.77
269	-6.	-10.	0.	125.91
270	-5.5	-10.	0.	132.77
271	-5.	-10.	0.	124.44
272	-4.5	-10.	0.	115.8
273	-4.	-10.	0.	119.62
274	-3.5	-10.	0.	127.98
275	-3.	-10.	0.	129.9
276	-2.5	-10.	0.	128.41
277	-2.	-10.	0.	126.87
278	-1.5	-10.	0.	125.88
279	-1.	-10.	0.	125.51
280	-0.5	-10.	0.	125.6
281	5.2042e-015	-10.	0.	125.92
282	0.5	-10.	0.	126.28
283	1.	-10.	0.	126.58
284	1.5	-10.	0.	126.78
285	2.	-10.	0.	126.88
286	2.5	-10.	0.	126.91
287	3.	-10.	0.	126.86
288	3.5	-10.	0.	126.75
289	4.	-10.	0.	126.58
290	4.5	-10.	0.	126.33
291	5.	-10.	0.	126.
292	5.5	-10.	0.	125.59
293	6.	-10.	0.	125.12
294	6.5	-10.	0.	124.64
295	7.	-10.	0.	124.2
296	7.5	-10.	0.	123.86
297	8.	-10.	0.	123.66
298	8.5	-10.	0.	123.58
299	9.	-10.	0.	123.54
300	9.5	-10.	0.	123.44
301	5.	-3.5173e-011	0.	125.82
302	5.	-0.5	0.	126.18
303	3.	-4.5	0.	126.37
304	5.	0.5	0.	125.58
305	4.5	-3.8713e-011	0.	126.19
306	5.5	-0.5	0.	125.74
307	5.	-1.	0.	126.64
308	5.5	1.	0.	125.05
309	-5.	-2.	0.	123.88
310	3.	-4.	0.	126.8
311	3.	-5.	0.	126.13
312	5.	1.5	0.	125.36
313	5.5	0.5	0.	125.2
314	5.5	-2.5788e-011	0.	125.42
315	-5.5	-1.5	0.	124.21
316	-5.5	-2.5	0.	124.02
317	3.5	-4.5	0.	126.44
318	-5.	-1.5	0.	123.8
319	4.5	-0.5	0.	126.55
320	4.5	0.5	0.	125.96
321	2.5	-5.5	0.	125.88
322	5.5	-1.	0.	126.18
323	5.	-1.5	0.	127.17
324	5.5	1.5	0.	124.95
325	-4.5	-2.	0.	123.59
326	4.5	2.	0.	125.78
327	3.5	-6.	0.	126.36
328	-5.5	-1.	0.	124.41
329	4.	-2.5	0.	128.06
330	4.	-3.6374e-011	0.	126.54
331	-5.	-2.5	0.	124.05
332	4.	2.5	0.	126.12
333	4.5	-2.	0.	127.84
334	3.5	-3.	0.	127.88
335	3.	-3.5	0.	127.36
336	-5.5	-3.	0.	123.91
337	2.5	-4.5	0.	126.24
338	3.5	-3.5	0.	127.35
339	3.5	-4.	0.	126.82
340	3.5	-5.5	0.	126.25
341	-4.5	-1.5	0.	123.29
342	-4.	-1.5	0.	122.73
343	4.5	-1.	0.	127.01
344	4.5	1.5	0.	125.81
345	3.	-6.	0.	126.16
346	2.5	-6.	0.	125.99
347	-6.	-3.5	0.	123.24
348	5.5	-1.5	0.	126.75
349	3.5	3.	0.	126.18
350	6.	1.	0.	124.73
351	6.	-1.8407e-011	0.	125.
352	6.	-1.	0.	125.56
353	-6.	-2.5	0.	124.02
354	-6.	-1.5	0.	124.53
355	-6.	-1.	0.	124.8
356	-6.	-0.5	0.	125.11
357	-3.5	-1.5	0.	122.3
358	-4.	-2.	0.	123.2
359	2.	-5.5	0.	125.7
360	5.	2.	0.	125.32
361	4.	-3.	0.	127.78
362	4.	-4.5	0.	126.44
363	4.	-6.	0.	126.6
364	-5.	-1.	0.	123.86
365	-3.5	-1.	0.	121.73
366	4.	-2.	0.	128.07
367	4.	-0.5	0.	126.9
368	4.	2.	0.	126.29
369	-4.5	-2.5	0.	124.
370	2.	-6.	0.	125.86
371	4.5	2.5	0.	125.72
372	4.5	-2.5	0.	127.97
373	-5.5	-0.5	0.	124.75
374	-3.	-0.5	0.	120.86
375	3.5	-2.5	0.	128.29
376	2.	-4.	0.	126.44
377	2.5	-3.5	0.	127.23
378	3.5	-3.6262e-011	0.	126.92
379	3.5	2.5	0.	126.66
380	-5.5	-3.5	0.	123.69
381	-6.	-4.	0.	122.68
382	-6.5	-4.5	0.	121.5
383	-5.	-3.	0.	124.23
384	1.	4.	0.	126.53
385	4.	3.	0.	125.77
386	5.	-2.	0.	127.67
387	6.	-1.5	0.	126.07
388	4.5	-6.5	0.	127.01
389	-6.	1.0872e-006	0.	125.45
390	3.	-3.	0.	127.99
391	3.	3.	0.	126.77
392	6.5	2.	0.	124.33
393	-3.5	-2.	0.	122.8
394	2.	-4.5	0.	126.06
395	5.5	2.	0.	124.88
396	6.	2.	0.	124.51
397	4.	-3.5	0.	127.3
398	4.	-4.	0.	126.79
399	4.	-5.5	0.	126.43
400	-4.5	-1.	0.	123.13
401	-4.	-1.	0.	122.33
402	-3.	-1.	0.	121.64
403	-3.	-1.5	0.	122.22
404	4.	-1.5	0.	127.81
405	4.	-1.	0.	127.37
406	4.	1.5	0.	126.33
407	4.	-6.5	0.	126.73
408	3.5	-6.5	0.	126.51
409	2.5	-6.5	0.	126.23
410	6.5	1.	0.	124.49
411	6.5	-1.2541e-011	0.	124.58
412	6.5	-1.	0.	124.78
413	-6.5	-3.	0.	123.68
414	-6.5	-2.5	0.	124.14
415	-6.5	-1.5	0.	124.81
416	-6.5	-1.	0.	125.09
417	-6.5	-0.49999	0.	125.35
418	-6.4999	0.50002	0.	125.67
419	0.5	4.	0.	126.07
420	-2.5	-2.5	0.	122.5
421	-4.	-2.5	0.	123.76
422	1.5	-5.5	0.	125.54
423	3.5	3.5	0.	125.46
424	5.	2.5	0.	125.34
425	4.5	-3.	0.	127.79
426	4.5	-4.5	0.	126.4
427	4.5	-6.	0.	126.92
428	-5.	-0.50001	0.	124.12
429	-3.5	-0.5	0.	121.07
430	-2.5	-0.5	0.	121.62
431	-2.5	-2.	0.	122.79
432	3.5	-2.	0.	128.43
433	3.5	-0.5	0.	127.29
434	1.5	-4.	0.	126.23
435	2.	-3.5	0.	126.87
436	2.	3.5	0.	127.08
437	3.5	0.5	0.	126.8
438	3.5	2.	0.	126.92
439	-7.	-4.5	0.	121.54
440	-5.5	-4.	0.	123.32
441	-6.	-4.5	0.	122.1
442	-5.	-3.5	0.	124.34
443	-4.5	-3.	0.	124.51
444	-2.	-3.	0.	121.77
445	1.5	4.	0.	127.24
446	4.5	3.	0.	125.64
447	5.	-2.5	0.	128.02
448	6.5	-1.5	0.	125.04
449	5.5	-2.	0.	127.42
450	5.5	-7.	0.	126.99
451	5.	-6.5	0.	127.35
452	-5.5	-7.4991e-006	0.	125.23
453	-3.	-1.2755e-006	0.	119.87
454	-5.9999	0.5	0.	125.7
455	3.	-2.5	0.	128.56
456	2.5	3.	0.	127.22
457	3.	-2.9144e-011	0.	127.41
458	3.	2.5	0.	127.3
459	-2.5	-4.7028e-007	0.	120.93
460	6.5	2.5	0.	124.13
461	7.	2.	0.	124.41
462	-6.4983	2.5001	0.	124.95
463	0.5	3.5	0.	125.28
464	-3.	-2.5	0.	122.75
465	-3.5	-2.5	0.	123.29
466	1.5	-4.5	0.	125.95
467	1.5	-6.5	0.	126.29
468	1.5	-6.	0.	125.81
469	3.	3.5	0.	126.25
470	6.	2.5	0.	124.36
471	4.5	-3.5	0.	127.32
472	4.5	-4.	0.	126.75
473	4.5	-5.5	0.	126.67
474	-4.5	-0.50001	0.	123.15
475	-4.	-0.5	0.	122.
476	-6.4989	2.0001	0.	125.
477	-6.4994	1.5001	0.	125.3
478	-2.5	-1.5	0.	122.68
479	3.5	-1.	0.	127.79
480	1.	-3.5	0.	125.9
481	1.5	-3.5	0.	126.34
482	1.5	3.5	0.	126.51
483	1.	3.5	0.	125.68
484	3.5	1.5	0.	126.96
485	5.	-7.	0.	127.06
486	4.5	-7.	0.	126.95
487	4.	-7.	0.	126.79
488	3.5	-7.	0.	126.65
489	2.5	-7.	0.	126.49
490	1.5	-7.	0.	126.73
491	7.	1.	0.	124.38
492	7.	-8.8491e-012	0.	124.23
493	7.	-1.	0.	123.95
494	-7.	-3.5	0.	123.32
495	-7.	-2.5	0.	124.43
496	-7.	-2.	0.	124.81
497	-7.	-1.5	0.	125.12
498	-7.	-0.49999	0.	125.57
499	-6.9999	0.50005	0.	125.75
500	-6.9997	1.0001	0.	125.68
501	-6.9993	1.5001	0.	125.56
502	-6.9982	2.5002	0.	125.72
503	-7.	-5.	0.	120.25
504	-5.5	-4.5	0.	122.87
505	-5.	-4.	0.	124.21
506	-2.5	-3.	0.	121.86
507	-4.	-3.	0.	124.5
508	-1.5	-3.	0.	122.74
509	1.	-4.	0.	126.27
510	1.	-5.5	0.	125.47
511	-6.5	-5.	0.	120.57
512	2.	4.	0.	127.61
513	3.5	4.	0.	124.42
514	5.	3.	0.	125.49
515	5.	-3.	0.	128.02
516	7.	-1.5	0.	123.8
517	6.	-2.	0.	126.82
518	6.	-7.	0.	126.48
519	5.	-4.5	0.	126.35
520	5.	-6.	0.	127.41
521	-5.	-1.2158e-005	0.	124.66
522	-3.5	-3.9975e-006	0.	120.29
523	-5.9997	1.	0.	125.7
524	-2.	-0.5	0.	123.21
525	-2.	-2.	0.	123.6
526	3.	-2.	0.	128.91
527	3.	-0.5	0.	127.79
528	0.5	-3.	0.	124.42
529	2.	-3.	0.	127.42
530	2.	3.	0.	127.06
531	3.	0.5	0.	127.35
532	3.	2.	0.	127.68
533	3.7106e-007	4.	0.	126.35
534	-2.	-1.8836e-007	0.	123.16
535	-0.5	5.	0.	124.45
536	-4.5	-3.5	0.	125.08
537	0.5	-3.5	0.	125.9
538	1.5	4.5	0.	128.09
539	1.	5.	0.	127.42
540	6.5	3.	0.	123.72
541	-6.9978	3.0002	0.	126.35
542	7.	2.5	0.	124.35
543	5.5	-2.5	0.	128.12
544	5.5	-6.5	0.	127.63
545	-5.4999	0.49999	0.	125.79
546	-0.5	4.5	0.	126.43
547	-1.5	-2.5	0.	123.93
548	2.5	-2.5	0.	128.71
549	0.5	3.	0.	123.9
550	2.5	2.5	0.	127.8
551	1.	-7.	0.	127.14
552	4.5	3.5	0.	125.48
553	4.	4.	0.	123.98
554	-2.	-3.5	0.	120.21
555	-7.	-5.5	0.	118.45
556	-3.	0.5	0.	118.55
557	2.5	-1.5435e-011	0.	128.27
558	0.5	5.	0.	125.95
559	-5.	-5.	0.	123.03
560	-3.	-3.	0.	122.82
561	-3.5	-3.	0.	123.91
562	-1.	-3.	0.	124.12
563	1.	-4.5	0.	126.11
564	1.	-6.5	0.	126.64
565	1.	-6.	0.	125.91
566	-6.	-5.	0.	121.79
567	2.5	4.	0.	127.12
568	3.	4.	0.	125.8
569	6.	3.	0.	124.14
570	5.	-4.	0.	126.8
571	7.	-2.	0.	123.72
572	6.5	-2.	0.	125.57
573	7.	-7.	0.	123.41
574	5.	-5.5	0.	127.09
575	-4.5	-1.1936e-005	0.	123.49
576	-4.	-8.7105e-006	0.	121.8
577	-5.999	2.	0.	124.6
578	-5.9994	1.5	0.	125.27
579	-0.5	-3.	0.	124.86
580	1.0327e-010	-3.	0.	124.63
581	-2.	-1.	0.	123.55
582	-2.	-1.5	0.	123.79
583	3.	-1.	0.	128.38
584	1.	-3.	0.	125.09
585	1.5	-3.	0.	126.38
586	1.5	3.	0.	126.06
587	1.	3.	0.	124.63
588	3.	1.5	0.	127.76
589	4.0983e-007	3.5	0.	125.87
590	-1.5	-6.9299e-008	0.	125.9
591	-1.	-2.5828e-008	0.	129.12
592	2.	-2.5775e-012	0.	130.17
593	-3.	1.	0.	116.89
594	-7.	-6.	0.	115.89
595	-2.	-4.	0.	118.35
596	4.5	4.	0.	124.98
597	-2.	-7.	0.	118.62
598	-2.5	0.5	0.	120.21
599	4.	4.5	0.	122.02
600	7.5	-7.	0.	121.62
601	7.5	-7.5	0.	122.38
602	7.	-7.5	0.	123.51
603	6.	-7.5	0.	125.83
604	5.5	-7.5	0.	126.45
605	5.	-7.5	0.	126.73
606	4.5	-7.5	0.	126.81
607	4.	-7.5	0.	126.78
608	3.5	-7.5	0.	126.73
609	3.	-7.5	0.	126.7
610	2.5	-7.5	0.	126.7
611	2.	-7.5	0.	126.78
612	1.5	-7.5	0.	126.96
613	1.	-7.5	0.	127.24
614	0.5	-7.5	0.	127.53
615	-2.	-7.5	0.	120.32
616	-2.5	-7.5	0.	122.16
617	2.5	2.	0.	128.47
618	2.5	0.5	0.	128.25
619	0.5	2.5	0.	121.95
620	2.	2.5	0.	127.68
621	2.	-2.5	0.	128.3
622	2.5	-0.5	0.	128.62
623	2.5	-2.	0.	129.43
624	-1.5	-2.	0.	124.97
625	-1.5	-0.5	0.	125.41
626	0.5	-2.5	0.	122.33
627	-1.	-2.5	0.	124.94
628	-0.5	4.	0.	127.6
629	3.4527e-007	3.	0.	124.64
630	-5.4998	0.99998	0.	126.12
631	-5.4987	2.5	0.	123.85
632	-3.5	0.49999	0.	119.36
633	-4.9999	0.49998	0.	125.59
634	5.5	-6.	0.	128.09
635	7.5	-6.5	0.	120.68
636	6.	-6.5	0.	127.52
637	6.	-2.5	0.	127.9
638	7.5	2.5	0.	124.84
639	7.5	2.	0.	124.66
640	7.5	1.5	0.	124.53
641	7.5	1.	0.	124.4
642	7.5	0.5	0.	124.25
643	7.5	-5.4863e-012	0.	124.04
644	7.5	-1.	0.	123.31
645	7.5	-1.5	0.	122.73
646	7.5	-2.	0.	121.97
647	7.5	-2.5	0.	121.01
648	5.5	-4.5	0.	126.47
649	5.5	-3.	0.	128.53
650	-7.5	-5.5	0.	120.21
651	-7.5	-5.	0.	121.52
652	-7.5	-4.5	0.	122.53
653	-7.5	-3.5	0.	123.97
654	-7.5	-3.	0.	124.5
655	-7.5	-2.5	0.	124.91
656	-7.5	-2.	0.	125.24
657	-7.5	-1.5	0.	125.49
658	-7.5	-0.99999	0.	125.68
659	-7.5	-0.49998	0.	125.82
660	-7.4999	3.7175e-005	0.	125.9
661	-7.4998	0.50007	0.	125.92
662	-7.4997	1.0001	0.	125.89
663	-7.4993	1.5002	0.	125.87
664	-7.4989	2.0002	0.	125.95
665	-7.4985	2.5002	0.	126.25
666	-7.4981	3.0001	0.	126.83
667	-7.4981	3.5001	0.	127.65
668	-7.4982	4.	0.	128.45
669	-7.4999	6.	0.	127.19
670	-7.4996	5.5	0.	127.51
671	-6.9978	3.5001	0.	127.47
672	-6.4978	3.0002	0.	125.36
673	5.	3.5	0.	125.97
674	6.5	3.5	0.	122.84
675	7.	3.	0.	124.2
676	1.5	5.	0.	128.78
677	3.5	4.5	0.	122.98
678	2.	4.5	0.	128.62
679	-6.5	-5.5	0.	119.57
680	4.1968e-011	-7.5	0.	127.48
681	-1.5	-7.5	0.	121.2
682	0.5	-7.	0.	127.83
683	0.5	-4.	0.	126.81
684	0.5	-5.5	0.	125.66
685	-1.5	-3.5	0.	121.51
686	7.633e-011	-3.5	0.	126.2
687	-4.	-3.5	0.	125.54
688	-2.5	-3.5	0.	120.9
689	-4.5	-5.5	0.	122.04
690	-4.5	-4.	0.	125.42
691	-0.99999	4.5	0.	127.62
692	-0.50001	5.5	0.	121.83
693	-4.1038e-006	5.5	0.	123.06
694	-1.5	5.5	0.	126.12
695	-1.	5.5	0.	123.4
696	-4.5	-4.5	0.	125.01
697	-4.5	-5.	0.	123.62
698	-3.5	-3.5	0.	124.93
699	-0.5	-3.5	0.	125.79
700	-1.	-3.5	0.	123.96
701	0.5	-4.5	0.	126.84
702	0.5	-6.	0.	126.33
703	-0.5	-7.5	0.	126.31
704	-5.	-5.5	0.	122.8
705	-6.	-5.5	0.	122.26
706	1.5	6.5	0.	127.99
707	1.5	7.	0.	128.06
708	3.	4.5	0.	125.58
709	1.5	6.	0.	128.37
710	1.5	5.5	0.	128.93
711	7.	3.5	0.	123.92
712	7.5	3.5	0.	125.8
713	6.	3.5	0.	123.88
714	-5.9978	3.5002	0.	124.39
715	-7.4987	4.5	0.	128.71
716	5.5	-4.	0.	127.08
717	7.	-2.5	0.	123.91
718	6.5	-2.5	0.	126.58
719	5.5	-5.5	0.	127.88
720	-5.4995	1.5	0.	125.76
721	-0.5	3.5	0.	127.58
722	-0.5	-2.5	0.	124.75
723	1.9766e-010	-2.5	0.	123.22
724	-1.5	-1.	0.	125.4
725	-1.5	-1.5	0.	125.51
726	2.5	-1.5	0.	129.67
727	2.5	-1.	0.	129.18
728	1.5	-2.5	0.	126.63
729	1.5	2.5	0.	126.15
730	1.	2.5	0.	123.52
731	2.5	1.5	0.	128.77
732	-3.	-7.5	0.	126.07
733	-7.5	-6.	0.	118.43
734	-2.5	-4.	0.	119.65
735	-6.9997	5.5	0.	128.61
736	7.5	-3.	0.	119.82
737	-2.5	1.	0.	119.3
738	-1.	-0.5	0.	127.85
739	2.	0.5	0.	129.56
740	-1.5	5.	0.	126.84
741	-5.4985	3.0001	0.	123.98
742	-5.4982	3.5001	0.	124.12
743	-6.9999	6.	0.	128.38
744	-7.4999	6.5	0.	127.57
745	-2.5	-7.	0.	121.14
746	-4.5	-6.	0.	119.95
747	7.5	-8.	0.	122.95
748	7.	-8.	0.	123.71
749	6.5	-8.	0.	124.63
750	6.	-8.	0.	125.46
751	5.5	-8.	0.	126.07
752	5.	-8.	0.	126.45
753	4.5	-8.	0.	126.65
754	4.	-8.	0.	126.74
755	3.5	-8.	0.	126.78
756	3.	-8.	0.	126.8
757	2.5	-8.	0.	126.84
758	2.	-8.	0.	126.9
759	0.5	-8.	0.	127.04
760	2.9872e-011	-8.	0.	126.6
761	-0.5	-8.	0.	125.51
762	-1.	-8.	0.	123.84
763	-2.	-8.	0.	121.95
764	-2.5	-8.	0.	123.29
765	-3.	-8.	0.	126.57
766	8.	-6.	0.	117.64
767	8.	-6.5	0.	119.35
768	8.	-7.	0.	120.81
769	8.	-7.5	0.	121.87
770	8.	-8.	0.	122.62
771	8.	7.5	0.	126.2
772	8.	3.5	0.	126.74
773	8.	3.	0.	125.84
774	8.	2.5	0.	125.3
775	8.	2.	0.	124.96
776	8.	1.5	0.	124.73
777	8.	1.	0.	124.53
778	8.	0.5	0.	124.32
779	8.	-3.2185e-012	0.	124.05
780	8.	-1.	0.	123.12
781	8.	-1.5	0.	122.32
782	8.	-2.	0.	121.19
783	8.	-2.5	0.	119.68
784	8.	-3.	0.	117.88
785	1.	8.	0.	129.71
786	1.5	8.	0.	128.13
787	3.5	8.	0.	120.66
788	4.	8.	0.	119.28
789	7.	8.	0.	124.86
790	7.5	8.	0.	125.25
791	8.	8.	0.	125.61
792	7.5	7.5	0.	125.41
793	7.	7.5	0.	123.91
794	6.5	7.5	0.	123.76
795	4.5	4.5	0.	123.66
796	1.	7.5	0.	129.14
797	1.	6.	0.	128.2
798	-0.50001	6.	0.	118.11
799	-2.	6.	0.	129.94
800	-4.	-5.5	0.	123.46
801	-4.	-4.	0.	126.87
802	-1.5	-4.	0.	120.14
803	5.4314e-011	-4.	0.	127.87
804	2.4167e-011	-5.5	0.	125.85
805	4.4901e-011	-7.	0.	128.71
806	-6.5	-6.	0.	118.3
807	-8.	-5.5	0.	124.07
808	-8.	-5.	0.	124.03
809	-8.	-4.5	0.	124.28
810	-8.	-4.	0.	124.63
811	-8.	-3.5	0.	124.98
812	-8.	-3.	0.	125.3
813	-8.	-2.5	0.	125.56
814	-8.	-2.	0.	125.77
815	-8.	-1.5	0.	125.93
816	-8.	-0.99999	0.	126.04
817	-8.	-0.49998	0.	126.11
818	-7.9999	5.3411e-005	0.	126.14
819	-7.9998	0.50008	0.	126.13
820	-7.9997	1.0001	0.	126.12
821	-7.9994	1.5002	0.	126.14
822	-7.9991	2.0002	0.	126.24
823	-7.9988	2.5002	0.	126.49
824	-7.9986	3.0001	0.	126.89
825	-7.9993	4.9999	0.	127.27
826	-7.9996	5.4999	0.	126.85
827	-7.9998	6.	0.	126.85
828	-7.9999	6.5	0.	127.57
829	-8.	7.	0.	129.07
830	2.	6.5	0.	127.39
831	2.	8.	0.	128.38
832	4.5	8.	0.	121.03
833	6.	8.	0.	127.06
834	3.5	5.	0.	121.16
835	2.	5.	0.	130.
836	-2.	5.5	0.	128.1
837	-3.5008	8.	0.	118.29
838	-2.0005	8.	0.	130.56
839	8.	4.	0.	128.07
840	6.5	4.	0.	120.73
841	5.	4.	0.	126.91
842	8.	7.	0.	127.24
843	-5.4984	4.0001	0.	122.02
844	-6.9981	4.	0.	129.08
845	-3.4997	4.	0.	115.27
846	6.	-4.5	0.	126.47
847	6.	-3.	0.	129.23
848	7.5	-6.	0.	119.52
849	6.	-6.	0.	128.88
850	-4.9992	2.5	0.	123.83
851	-3.5	0.99999	0.	118.15
852	-4.9998	0.99997	0.	126.81
853	1.3531e-007	2.5	0.	123.26
854	-0.5	2.5	0.	126.02
855	-1.	2.5	0.	127.72
856	-1.5	4.5	0.	128.4
857	-0.99999	4.	0.	129.62
858	0.5	-2.	0.	118.9
859	-1.	-2.	0.	126.44
860	2.	-0.5	0.	129.84
861	2.	-2.	0.	129.69
862	0.5	2.	0.	118.79
863	2.	2.	0.	128.99
864	-2.	0.5	0.	123.63
865	-1.5	0.5	0.	127.22
866	-1.	0.5	0.	129.89
867	5.4049e-008	2.	0.	122.14
868	-0.5	2.	0.	127.73
869	-1.	1.	0.	131.97
870	2.	1.5	0.	130.05
871	1.5	2.	0.	127.63
872	1.	2.	0.	122.39
873	1.	-2.	0.	122.57
874	1.5	-2.	0.	128.02
875	2.	-1.	0.	130.48
876	-1.	-1.	0.	127.86
877	-1.	-1.5	0.	127.7
878	-0.5	-2.	0.	126.14
879	6.5177e-010	-2.	0.	121.85
880	-1.	3.	0.	129.11
881	-0.99999	3.5	0.	130.41
882	-2.	4.	0.	127.54
883	-1.5	1.	0.	129.83
884	-4.9994	2.	0.	125.7
885	-3.9999	0.99998	0.	122.36
886	-4.9987	3.5001	0.	126.97
887	6.	-5.	0.	128.14
888	6.	-5.5	0.	129.46
889	7.	-6.	0.	124.15
890	7.	-3.	0.	124.49
891	6.5	-3.	0.	128.57
892	6.	-4.	0.	128.22
893	-4.9988	4.0001	0.	127.09
894	-4.4992	4.0001	0.	130.44
895	-3.9995	4.0001	0.	122.92
896	-6.9986	4.5	0.	130.17
897	-5.9982	4.0001	0.	123.8
898	8.	6.	0.	127.12
899	8.	6.5	0.	127.88
900	7.	7.	0.	122.57
901	5.5	4.	0.	127.33
902	6.	4.	0.	123.67
903	7.	4.	0.	123.46
904	7.5	4.	0.	127.48
905	8.	5.	0.	127.76
906	-2.0003	7.5001	0.	131.21
907	-2.5006	8.	0.	126.86
908	-3.0007	8.	0.	121.25
909	-2.4999	4.	0.	122.25
910	-2.	5.	0.	127.96
911	2.	5.5	0.	130.58
912	3.	5.	0.	125.74
913	5.5	8.	0.	127.93
914	5.	8.	0.	125.06
915	2.5	8.	0.	128.04
916	2.	7.	0.	128.66
917	-8.	7.5	0.	130.03
918	-6.	-6.	0.	123.95
919	-5.5	-6.	0.	127.29
920	-1.	-7.	0.	124.35
921	-0.5	-7.	0.	128.22
922	3.9865e-011	-6.5	0.	129.14
923	2.9918e-011	-6.	0.	127.68
924	3.6501e-011	-4.5	0.	128.6
925	-0.5	-4.	0.	127.83
926	-1.	-4.	0.	124.38
927	-3.	-4.	0.	123.56
928	-3.5	-4.	0.	126.9
929	-4.	-5.	0.	125.82
930	-2.0001	6.5	0.	130.75
931	-1.5	6.	0.	127.15
932	-1.	6.	0.	121.69
933	-4.712e-006	6.	0.	121.29
934	0.5	6.	0.	126.47
935	1.	7.	0.	129.08
936	4.5	5.	0.	121.3
937	6.5	7.	0.	120.11
938	8.5	8.	0.	125.58
939	8.5	7.5	0.	125.98
940	8.5	7.	0.	126.35
941	8.5	6.5	0.	126.3
942	8.5	6.	0.	125.72
943	8.5	5.5	0.	125.56
944	8.5	5.	0.	126.19
945	8.5	4.5	0.	127.04
946	8.5	4.	0.	127.11
947	8.5	3.5	0.	126.6
948	8.5	3.	0.	126.
949	8.5	2.5	0.	125.53
950	8.5	2.	0.	125.19
951	8.5	1.5	0.	124.94
952	8.5	1.	0.	124.73
953	8.5	0.5	0.	124.52
954	8.5	-1.7389e-012	0.	124.28
955	8.5	-0.5	0.	123.95
956	8.5	-1.	0.	123.48
957	8.5	-1.5	0.	122.8
958	8.5	-2.	0.	121.87
959	8.5	-2.5	0.	120.7
960	8.5	-3.	0.	119.4
961	1.	8.5	0.	128.67
962	1.5	8.5	0.	127.33
963	2.	8.5	0.	126.91
964	2.5	8.5	0.	126.17
965	3.	8.5	0.	124.3
966	3.5	8.5	0.	122.14
967	6.	8.5	0.	126.18
968	6.5	8.5	0.	125.58
969	7.	8.5	0.	125.2
970	7.5	8.5	0.	125.21
971	8.	8.5	0.	125.32
972	8.5	8.5	0.	125.3
973	5.	4.5	0.	127.51
974	6.	7.5	0.	126.9
975	-8.	8.5	0.	126.28
976	-8.5	-5.5	0.	127.84
977	-8.5	-5.	0.	126.76
978	-8.5	-4.5	0.	126.31
979	-8.5	-4.	0.	126.18
980	-8.5	-3.5	0.	126.19
981	-8.5	-3.	0.	126.25
982	-8.5	-2.5	0.	126.32
983	-8.5	-2.	0.	126.37
984	-8.5	-1.5	0.	126.4
985	-8.5	-0.99999	0.	126.42
986	-8.5	-0.49996	0.	126.41
987	-8.4999	6.1826e-005	0.	126.39
988	-8.4998	0.50009	0.	126.36
989	-8.4997	1.0001	0.	126.33
990	-8.4995	1.5001	0.	126.34
991	-8.4993	2.0001	0.	126.4
992	-8.4991	2.5001	0.	126.54
993	-8.499	3.0001	0.	126.74
994	-8.499	3.5	0.	126.93
995	-8.499	4.	0.	126.99
996	-8.4992	4.4999	0.	126.86
997	-8.4995	4.9999	0.	126.56
998	-8.4997	5.4999	0.	126.32
999	-8.4998	6.	0.	126.37
1000	-8.4999	6.5	0.	126.81
1001	-8.5	7.	0.	127.36
1002	-8.5	7.5	0.	127.35
1003	-8.5	8.	0.	126.34
1004	-8.5	8.5	0.	125.23
1005	-8.	-6.	0.	124.59
1006	-8.5	-6.	0.	130.24
1007	8.	-8.5	0.	123.12
1008	7.5	-8.5	0.	123.37
1009	7.	-8.5	0.	123.91
1010	6.5	-8.5	0.	124.59
1011	6.	-8.5	0.	125.26
1012	5.5	-8.5	0.	125.83
1013	5.	-8.5	0.	126.24
1014	4.5	-8.5	0.	126.51
1015	4.	-8.5	0.	126.68
1016	3.5	-8.5	0.	126.78
1017	3.	-8.5	0.	126.85
1018	2.5	-8.5	0.	126.9
1019	2.	-8.5	0.	126.93
1020	1.5	-8.5	0.	126.94
1021	1.	-8.5	0.	126.88
1022	0.5	-8.5	0.	126.65
1023	1.8454e-011	-8.5	0.	126.14
1024	-0.5	-8.5	0.	125.28
1025	-1.	-8.5	0.	124.27
1026	-1.5	-8.5	0.	123.53
1027	-2.	-8.5	0.	123.56
1028	-2.5	-8.5	0.	124.71
1029	-3.	-8.5	0.	126.76
1030	8.5	-6.	0.	119.16
1031	8.5	-6.5	0.	120.34
1032	8.5	-7.	0.	121.41
1033	8.5	-7.5	0.	122.24
1034	8.5	-8.	0.	122.83
1035	8.5	-8.5	0.	123.2
1036	-4.	-6.	0.	124.05
1037	-3.	-7.	0.	127.18
1038	-4.5008	8.5	0.	123.15
1039	-4.0009	8.5	0.	121.81
1040	-3.501	8.5	0.	120.77
1041	-3.0009	8.5	0.	122.16
1042	-2.5007	8.5	0.	125.18
1043	-2.0004	8.5	0.	128.4
1044	-7.	6.5	0.	127.13
1045	-7.5	7.	0.	129.36
1046	-5.0005	8.5	0.	123.02
1047	-5.0004	8.	0.	124.72
1048	-7.	7.	0.	126.82
1049	0.5	6.5	0.	130.02
1050	-1.5	6.5	0.	131.07
1051	-4.5007	9.	0.	122.87
1052	-3.5009	9.	0.	122.36
1053	-2.0004	9.	0.	127.42
1054	-3.5	-4.5	0.	130.79
1055	-0.5	-4.5	0.	131.54
1056	-0.5	-6.5	0.	131.88
1057	-3.5	-6.5	0.	137.09
1058	8.5	-9.	0.	123.43
1059	8.	-9.	0.	123.44
1060	7.5	-9.	0.	123.65
1061	7.	-9.	0.	124.07
1062	6.5	-9.	0.	124.6
1063	6.	-9.	0.	125.17
1064	5.5	-9.	0.	125.68
1065	5.	-9.	0.	126.1
1066	4.5	-9.	0.	126.41
1067	4.	-9.	0.	126.63
1068	3.5	-9.	0.	126.77
1069	3.	-9.	0.	126.86
1070	2.5	-9.	0.	126.91
1071	2.	-9.	0.	126.92
1072	1.5	-9.	0.	126.86
1073	1.	-9.	0.	126.71
1074	0.5	-9.	0.	126.42
1075	9.8777e-012	-9.	0.	125.96
1076	-0.5	-9.	0.	125.37
1077	-1.5	-9.	0.	124.68
1078	-2.	-9.	0.	125.16
1079	-2.5	-9.	0.	126.34
1080	-3.	-9.	0.	128.17
1081	-8.5	-6.5	0.	134.72
1082	-5.5	-6.5	0.	135.62
1083	-7.5	7.5	0.	133.65
1084	-8.5	9.	0.	124.84
1085	-8.	9.	0.	126.29
1086	-5.0005	9.	0.	124.1
1087	2.5	7.5	0.	131.94
1088	5.5	7.5	0.	131.95
1089	6.	7.	0.	124.59
1090	5.	5.	0.	126.79
1091	2.5	5.5	0.	133.17
1092	-2.4999	4.5	0.	127.44
1093	-2.5004	7.5001	0.	130.94
1094	7.5	4.5	0.	131.29
1095	5.5	4.5	0.	131.89
1096	7.5	6.5	0.	130.17
1097	9.	-6.5	0.	123.08
1098	9.	-7.	0.	123.15
1099	9.	-7.5	0.	123.32
1100	9.	-8.	0.	123.44
1101	9.	-8.5	0.	123.51
1102	9.	-9.	0.	123.53
1103	-9.	-9.	0.	135.19
1104	-9.	-8.5	0.	133.79
1105	-9.	-8.	0.	133.66
1106	-9.	-7.5	0.	132.88
1107	-9.	-7.	0.	133.32
1108	-9.	-6.5	0.	133.36
1109	-9.	-6.	0.	131.98
1110	-9.	-5.5	0.	130.17
1111	-9.	-5.	0.	128.94
1112	-9.	-4.5	0.	128.19
1113	-9.	-4.	0.	127.73
1114	-9.	-3.5	0.	127.43
1115	-9.	-3.	0.	127.23
1116	-9.	-2.5	0.	127.08
1117	-9.	-2.	0.	126.97
1118	-9.	-1.5	0.	126.87
1119	-9.	-0.49997	0.	126.72
1120	-8.9999	5.1119e-005	0.	126.64
1121	-8.9999	0.50007	0.	126.58
1122	-8.9997	1.5001	0.	126.48
1123	-8.9995	2.0001	0.	126.48
1124	-8.9994	2.5001	0.	126.49
1125	-8.9993	3.0001	0.	126.52
1126	-8.9995	4.4999	0.	126.19
1127	-8.9996	4.9999	0.	125.91
1128	-8.9998	5.4999	0.	125.68
1129	-8.9999	6.	0.	125.61
1130	-8.9999	6.5	0.	125.7
1131	-9.	7.	0.	125.78
1132	-9.	7.5	0.	125.55
1133	-9.	8.	0.	124.99
1134	-9.	8.5	0.	124.47
1135	-9.	9.	0.	124.51
1136	-6.4987	4.5	0.	131.91
1137	-4.4995	4.5001	0.	136.56
1138	-4.5003	7.5	0.	135.42
1139	9.	-6.	0.	123.52
1140	1.	9.	0.	128.2
1141	1.5	9.	0.	126.66
1142	2.5	9.	0.	125.6
1143	3.	9.	0.	124.5
1144	3.5	9.	0.	123.34
1145	4.	9.	0.	122.8
1146	4.5	9.	0.	123.21
1147	5.	9.	0.	124.2
1148	5.5	9.	0.	125.06
1149	6.	9.	0.	125.37
1150	6.5	9.	0.	125.27
1151	7.5	9.	0.	125.11
1152	8.	9.	0.	125.15
1153	8.5	9.	0.	125.14
1154	9.	9.	0.	125.06
1155	9.	8.5	0.	125.14
1156	9.	8.	0.	125.26
1157	9.	7.5	0.	125.39
1158	9.	7.	0.	125.42
1159	9.	6.5	0.	125.24
1160	9.	5.5	0.	124.9
1161	9.	5.	0.	125.34
1162	9.	4.5	0.	125.89
1163	9.	4.	0.	126.17
1164	9.	3.5	0.	126.11
1165	9.	3.	0.	125.87
1166	9.	2.5	0.	125.59
1167	9.	2.	0.	125.34
1168	9.	1.5	0.	125.13
1169	9.	1.	0.	124.94
1170	9.	0.5	0.	124.78
1171	9.	-1.5	0.	124.01
1172	9.	-2.	0.	123.71
1173	9.	-2.5	0.	123.51
1174	9.	-3.	0.	123.82
1175	6.5	-3.5	0.	132.22
1176	6.5	-5.5	0.	131.98
1177	-4.4992	3.5001	0.	130.77
1178	-4.4998	1.5	0.	129.76
1179	-1.5	1.5	0.	134.19
1180	-1.5	3.5	0.	133.97
1181	-0.5	-1.5	0.	130.03
1182	1.5	-1.5	0.	131.8
1183	1.5	1.5	0.	131.5
1184	-0.5	1.5	0.	132.49
1185	3.1222e-008	1.5	0.	122.93
1186	1.	1.5	0.	123.3
1187	0.5	1.5	0.	111.2
1188	1.5	1.	0.	130.94
1189	1.5	0.5	0.	133.66
1190	1.5	5.3296e-011	0.	135.24
1191	1.5	-1.	0.	131.39
1192	1.5	-0.5	0.	133.48
1193	1.	-1.5	0.	122.88
1194	2.4326e-009	-1.5	0.	122.5
1195	0.5	-1.5	0.	111.06
1196	-0.5	-1.	0.	129.75
1197	-0.5	1.	0.	132.35
1198	-0.5	0.5	0.	133.86
1199	-0.5	-1.762e-008	0.	134.88
1200	-0.5	-0.5	0.	132.63
1201	-1.5	3.	0.	132.62
1202	-1.5	2.	0.	132.61
1203	-1.5	2.5	0.	131.64
1204	-2.	1.5	0.	126.95
1205	-2.5	1.5	0.	117.
1206	-3.	1.5	0.	116.9
1207	-3.9999	1.5	0.	123.88
1208	-3.5	1.5	0.	115.7
1209	-4.4997	2.	0.	128.45
1210	-4.4994	3.	0.	128.38
1211	-4.4996	2.5	0.	127.69
1212	-3.9995	3.5	0.	124.24
1213	-3.4998	3.5	0.	114.92
1214	-2.9999	3.5	0.	116.85
1215	-2.	3.5	0.	127.72
1216	-2.4999	3.5	0.	118.14
1217	6.5	-5.	0.	130.79
1218	6.5	-4.	0.	130.76
1219	6.5	-4.5	0.	130.25
1220	7.	-3.5	0.	126.21
1221	7.5	-3.5	0.	117.29
1222	8.	-3.5	0.	117.93
1223	9.	-3.5	0.	125.73
1224	8.5	-3.5	0.	117.25
1225	7.	-5.5	0.	125.84
1226	7.5	-5.5	0.	117.12
1227	8.	-5.5	0.	117.77
1228	8.5	-5.5	0.	117.08
1229	9.	-5.5	0.	125.59
1230	-4.9993	4.5001	0.	128.27
1231	-5.9989	4.5001	0.	123.94
1232	-5.4991	4.5001	0.	114.08
1233	-6.4995	5.	0.	131.24
1234	-6.4998	5.5	0.	132.38
1235	-6.4999	6.	0.	133.37
1236	-6.5	7.	0.	125.38
1237	-6.5	6.5	0.	130.78
1238	-5.0002	7.5	0.	127.25
1239	-5.5001	7.5	0.	117.49
1240	-3.9639e-006	6.5	0.	121.51
1241	-1.	6.5	0.	122.31
1242	-0.50001	6.5	0.	110.36
1243	-1.5001	7.	0.	131.38
1244	-1.5002	7.5	0.	134.6
1245	-1.5002	8.	0.	136.22
1246	-1.5002	9.	0.	130.65
1247	-1.5002	8.5	0.	134.02
1248	0.5	7.	0.	130.19
1249	0.5	7.5	0.	133.
1250	0.5	8.	0.	135.28
1251	0.5	8.5	0.	133.99
1252	0.5	9.	0.	130.71
1253	-3.5	-6.	0.	131.33
1254	-3.5	-5.	0.	130.16
1255	-3.5	-5.5	0.	129.52
1256	-3.	-4.5	0.	125.1
1257	-2.5	-4.5	0.	117.4
1258	-2.	-4.5	0.	118.22
1259	-1.	-4.5	0.	126.02
1260	-1.5	-4.5	0.	117.46
1261	-0.5	-5.	0.	130.24
1262	-0.5	-6.	0.	130.53
1263	-0.5	-5.5	0.	129.91
1264	-1.	-6.5	0.	126.05
1265	-1.5	-6.5	0.	117.57
1266	-2.	-6.5	0.	118.68
1267	-3.	-6.5	0.	129.47
1268	-2.5	-6.5	0.	118.81
1269	-5.	-6.5	0.	125.54
1270	-4.	-6.5	0.	125.99
1271	-4.5	-6.5	0.	113.06
1272	-3.5	-7.	0.	132.3
1273	-3.5	-7.5	0.	132.73
1274	-3.5	-8.	0.	133.17
1275	-3.5	-9.	0.	129.66
1276	-3.5	-8.5	0.	130.98
1277	-8.5	-9.	0.	135.3
1278	-8.5	-8.5	0.	136.54
1279	-8.5	-8.	0.	138.37
1280	-8.5	-7.	0.	134.31
1281	-8.5	-7.5	0.	136.77
1282	-8.	-6.5	0.	126.63
1283	-7.5	-6.5	0.	114.85
1284	-7.	-6.5	0.	114.55
1285	-6.	-6.5	0.	127.09
1286	-6.5	-6.5	0.	115.04
1287	-5.5	-7.	0.	134.65
1288	-5.5	-7.5	0.	139.84
1289	-5.5	-9.	0.	134.5
1290	-5.5	-8.5	0.	139.57
1291	-5.5	-8.	0.	142.87
1292	-7.5	8.	0.	132.94
1293	-7.5	9.	0.	129.76
1294	-7.5	8.5	0.	131.44
1295	-5.5002	9.	0.	127.73
1296	-5.5002	8.	0.	124.13
1297	-5.5003	8.5	0.	127.17
1298	-7.	7.5	0.	127.64
1299	-6.5	7.5	0.	119.77
1300	-6.	7.5	0.	124.53
1301	3.	7.5	0.	126.18
1302	3.5	7.5	0.	117.96
1303	5.	7.5	0.	127.14
1304	4.5	7.5	0.	118.66
1305	5.5	7.	0.	132.1
1306	5.5	6.5	0.	134.74
1307	5.	5.5	0.	126.57
1308	4.5	5.5	0.	118.
1309	4.	5.5	0.	118.59
1310	3.	5.5	0.	127.14
1311	3.5	5.5	0.	118.05
1312	2.5	7.	0.	131.18
1313	2.5	6.5	0.	130.93
1314	2.5	6.	0.	131.53
1315	-2.9999	4.5	0.	118.95
1316	-3.9997	4.5	0.	123.69
1317	-3.4998	4.5	0.	109.42
1318	-4.4999	5.	0.	134.8
1319	-4.5	5.5	0.	139.83
1320	-4.5	6.	0.	143.25
1321	-4.5001	7.	0.	135.14
1322	-4.5	6.5	0.	140.08
1323	-4.0003	7.5	0.	124.62
1324	-3.0004	7.5	0.	121.99
1325	-3.5004	7.5	0.	111.18
1326	-2.5001	7.	0.	131.02
1327	-2.5	6.5	0.	133.38
1328	-2.5	5.	0.	128.33
1329	-2.5	5.5	0.	131.67
1330	-2.5	6.	0.	134.39
1331	7.	4.5	0.	124.43
1332	6.	4.5	0.	125.4
1333	6.5	4.5	0.	114.67
1334	5.5	5.	0.	132.9
1335	5.5	6.	0.	135.72
1336	5.5	5.5	0.	136.07
1337	6.	6.5	0.	123.33
1338	7.	6.5	0.	123.26
1339	6.5	6.5	0.	112.96
1340	7.5	6.	0.	129.52
1341	7.5	5.	0.	130.55
1342	7.5	5.5	0.	130.
1343	9.	-9.5	0.	123.54
1344	8.5	-9.5	0.	123.54
1345	8.	-9.5	0.	123.61
1346	7.5	-9.5	0.	123.81
1347	7.	-9.5	0.	124.16
1348	6.5	-9.5	0.	124.63
1349	6.	-9.5	0.	125.13
1350	5.5	-9.5	0.	125.61
1351	5.	-9.5	0.	126.03
1352	4.5	-9.5	0.	126.35
1353	4.	-9.5	0.	126.59
1354	3.5	-9.5	0.	126.76
1355	3.	-9.5	0.	126.86
1356	2.5	-9.5	0.	126.91
1357	2.	-9.5	0.	126.89
1358	1.5	-9.5	0.	126.8
1359	1.	-9.5	0.	126.61
1360	0.5	-9.5	0.	126.31
1361	4.147e-012	-9.5	0.	125.92
1362	-0.5	-9.5	0.	125.53
1363	-1.	-9.5	0.	125.33
1364	-1.5	-9.5	0.	125.56
1365	-2.	-9.5	0.	126.4
1366	-2.5	-9.5	0.	127.84
1367	-3.	-9.5	0.	129.49
1368	-3.5	-9.5	0.	130.23
1369	-4.	-9.5	0.	120.61
1370	-4.5	-9.5	0.	110.79
1371	-5.	-9.5	0.	125.92
1372	-5.5	-9.5	0.	137.08
1373	-6.	-9.5	0.	126.93
1374	-6.5	-9.5	0.	112.87
1375	-7.	-9.5	0.	111.1
1376	-7.5	-9.5	0.	111.85
1377	-8.	-9.5	0.	124.74
1378	-8.5	-9.5	0.	136.06
1379	-9.	-9.5	0.	136.48
1380	-9.5	-9.5	0.	136.15
1381	-9.5	-9.	0.	134.6
1382	-9.5	-8.5	0.	133.
1383	-9.5	-8.	0.	131.89
1384	-9.5	-7.5	0.	131.57
1385	-9.5	-7.	0.	131.84
1386	-9.5	-6.5	0.	132.3
1387	-9.5	-6.	0.	132.14
1388	-9.5	-5.5	0.	131.47
1389	-9.5	-5.	0.	130.62
1390	-9.5	-4.5	0.	129.82
1391	-9.5	-4.	0.	129.12
1392	-9.5	-3.5	0.	128.55
1393	-9.5	-3.	0.	128.1
1394	-9.5	-2.5	0.	127.76
1395	-9.5	-2.	0.	127.5
1396	-9.5	-1.5	0.	127.29
1397	-9.5	-0.99999	0.	127.13
1398	-9.5	-0.49998	0.	126.99
1399	-9.5	3.0474e-005	0.	126.87
1400	-9.4999	0.50004	0.	126.77
1401	-9.4999	1.0001	0.	126.68
1402	-9.4998	1.5001	0.	126.6
1403	-9.4998	2.0001	0.	126.53
1404	-9.4997	2.5	0.	126.45
1405	-9.4997	3.	0.	126.34
1406	-9.4997	3.5	0.	126.17
1407	-9.4997	4.	0.	125.92
1408	-9.4997	4.5	0.	125.59
1409	-9.4998	5.	0.	125.23
1410	-9.4999	5.5	0.	124.91
1411	-9.4999	6.	0.	124.66
1412	-9.5	6.5	0.	124.49
1413	-9.5	7.	0.	124.32
1414	-9.5	7.5	0.	124.1
1415	-9.5	8.	0.	123.89
1416	-9.5	8.5	0.	123.87
1417	-9.5	9.	0.	124.18
1418	-9.5	9.5	0.	124.8
1419	-9.	9.5	0.	125.17
1420	-8.5	9.5	0.	125.48
1421	-8.	9.5	0.	126.25
1422	-7.5	9.5	0.	129.13
1423	-7.	9.5	0.	125.85
1424	-6.5	9.5	0.	116.4
1425	-6.0001	9.5	0.	123.93
1426	-5.5002	9.5	0.	127.33
1427	-5.0003	9.5	0.	124.45
1428	-4.5004	9.5	0.	123.71
1429	-4.0005	9.5	0.	123.62
1430	-3.5005	9.5	0.	123.85
1431	-3.0005	9.5	0.	124.43
1432	-2.5004	9.5	0.	125.29
1433	-2.0002	9.5	0.	126.54
1434	-1.5001	9.5	0.	129.44
1435	-1.0001	9.5	0.	125.49
1436	-0.50002	9.5	0.	116.1
1437	-4.7435e-006	9.5	0.	126.29
1438	0.5	9.5	0.	130.27
1439	1.	9.5	0.	127.71
1440	1.5	9.5	0.	127.
1441	2.	9.5	0.	126.49
1442	2.5	9.5	0.	125.79
1443	3.	9.5	0.	124.92
1444	3.5	9.5	0.	124.12
1445	4.	9.5	0.	123.67
1446	4.5	9.5	0.	123.69
1447	5.	9.5	0.	124.04
1448	5.5	9.5	0.	124.45
1449	6.	9.5	0.	124.75
1450	6.5	9.5	0.	124.89
1451	7.	9.5	0.	124.96
1452	7.5	9.5	0.	125.01
1453	8.	9.5	0.	125.05
1454	8.5	9.5	0.	125.06
1455	9.	9.5	0.	125.03
1456	9.5	9.5	0.	124.99
1457	9.5	9.	0.	124.95
1458	9.5	8.5	0.	124.91
1459	9.5	8.	0.	124.84
1460	9.5	7.5	0.	124.72
1461	9.5	7.	0.	124.54
1462	9.5	6.5	0.	124.3
1463	9.5	6.	0.	124.12
1464	9.5	5.5	0.	124.18
1465	9.5	5.	0.	124.53
1466	9.5	4.	0.	125.46
1467	9.5	3.5	0.	125.69
1468	9.5	3.	0.	125.73
1469	9.5	2.5	0.	125.64
1470	9.5	2.	0.	125.48
1471	9.5	1.5	0.	125.29
1472	9.5	1.	0.	125.12
1473	9.5	0.5	0.	124.99
1474	9.5	-3.6139e-013	0.	124.93
1475	9.5	-0.5	0.	124.96
1476	9.5	-1.	0.	125.12
1477	9.5	-1.5	0.	125.45
1478	9.5	-2.	0.	126.
1479	9.5	-2.5	0.	126.81
1480	9.5	-3.	0.	128.26
1481	9.5	-3.5	0.	131.88
1482	9.5	-4.	0.	131.89
1483	9.5	-4.5	0.	131.69
1484	9.5	-5.	0.	131.69
1485	9.5	-5.5	0.	131.6
1486	9.5	-6.	0.	127.86
1487	9.5	-6.5	0.	126.27
1488	9.5	-7.	0.	125.32
1489	9.5	-7.5	0.	124.62
1490	9.5	-8.	0.	124.13
1491	9.5	-8.5	0.	123.8
1492	9.5	-9.	0.	123.59
1493	9.5	-9.5	0.	123.47
1494	-4.2208e-008	4.5	0.	125.9
1495	5.5	3.5	0.	125.5
1496	2.5	4.5	0.	127.86
1497	7.5	3.	0.	125.16
1498	6.5	1.5	0.	124.44
1499	2.	-1.5	0.	130.74
1500	1.	-8.	0.	127.09
1501	4.	5.	0.	119.39
1502	-4.0008	9.	0.	122.43
1503	7.	0.5	0.	124.32
1504	-3.	-2.	0.	122.58
1505	8.	4.5	0.	128.81
1506	-5.4992	2.	0.	124.61
1507	6.5	-0.5	0.	124.64
1508	2.	6.	0.	129.23
1509	5.5	-5.	0.	126.94
1510	-4.9996	1.5	0.	127.21
1511	-5.9982	3.0001	0.	124.26
1512	6.	0.5	0.	124.84
1513	-4.	-4.5	0.	127.41
1514	-8.9998	1.0001	0.	126.52
1515	-9.	-0.99998	0.	126.79
1516	-6.4978	3.5001	0.	126.24
1517	9.	-0.5	0.	124.46
1518	9.	-1.0025e-012	0.	124.62
1519	1.5	-5.	0.	125.63
1520	-2.	1.	0.	124.72
1521	2.6299e-011	-5.	0.	127.4
1522	3.	-7.	0.	126.54
1523	-1.	2.	0.	130.47
1524	4.	1.	0.	126.32
1525	3.	-1.5	0.	128.85
1526	2.5	5.	0.	129.66
1527	2.	-7.	0.	126.53
1528	3.	8.	0.	124.63
1529	-2.9998	4.	0.	116.39
1530	4.5	8.5	0.	122.26
1531	-4.0007	8.	0.	122.22
1532	7.	-6.5	0.	123.56
1533	6.5	-7.5	0.	124.8
1534	-2.5005	9.	0.	124.81
1535	7.5	-0.5	0.	123.73
1536	4.5	-5.	0.	126.41
1537	3.5	1.	0.	126.86
1538	-6.5	1.3377e-005	0.	125.56
1539	-8.9994	4.	0.	126.4
1540	2.5	3.5	0.	126.96
1541	-2.	4.5	0.	128.09
1542	4.5	1.	0.	125.86
1543	-5.5	-5.	0.	122.74
1544	-4.4999	0.99997	0.	126.2
1545	-7.9989	4.4999	0.	127.66
1546	9.	6.	0.	124.95
1547	-1.	5.	0.	125.46
1548	-0.5	3.	0.	126.53
1549	0.5	5.5	0.	125.64
1550	2.	-6.5	0.	126.19
1551	-7.	-4.	0.	122.53
1552	-6.9989	2.0001	0.	125.51
1553	-7.9986	3.5	0.	127.35
1554	8.	5.5	0.	126.02
1555	-4.5005	8.	0.	126.53
1556	-6.5	-4.	0.	122.36
1557	1.	6.5	0.	128.87
1558	-6.9993	5.	0.	129.68
1559	-2.	-2.5	0.	122.9
1560	9.	-1.	0.	124.26
1561	5.	-3.5	0.	127.54
1562	-7.4993	5.	0.	128.16
1563	-2.5	-1.	0.	122.24
1564	2.	9.	0.	126.22
1565	2.	1.	0.	129.95
1566	0.5	-5.	0.	126.03
1567	1.	4.5	0.	127.11
1568	-1.5	4.	0.	130.44
1569	-1.	-9.	0.	124.85
1570	3.5	-5.	0.	126.25
1571	5.	1.	0.	125.44
1572	1.5	7.5	0.	128.45
1573	-1.	-7.5	0.	123.82
1574	1.5	-8.	0.	127.
1575	-5.5	-5.5	0.	123.66
1576	1.	-2.5	0.	123.96
1577	5.5	3.	0.	124.97
1578	-1.5	-8.	0.	122.34
1579	2.5	-3.	0.	127.91
1580	3.5	-1.5	0.	128.24
1581	-7.	-3.	0.	123.94
1582	-6.5	-2.	0.	124.5
1583	4.	7.5	0.	119.04
1584	9.5	4.5	0.	125.03
1585	3.	-6.5	0.	126.34
1586	6.5	-7.	0.	125.26
1587	-6.4981	4.0001	0.	128.06
1588	6.	-0.5	0.	125.22
1589	7.	1.5	0.	124.41
1590	5.	8.5	0.	124.4
1591	-5.9985	2.5001	0.	124.16
1592	-8.	8.	0.	128.78
1593	8.	-0.5	0.	123.67
1594	6.	-3.5	0.	129.67
1595	3.	1.	0.	127.57
1596	-5.	-6.	0.	123.38
1597	5.5	2.5	0.	124.85
1598	-6.4997	1.	0.	125.58
1599	6.5	-6.	0.	128.23
1600	2.5	-5.	0.	125.96
1601	-3.0007	9.	0.	123.19
1602	6.5	8.	0.	125.33
1603	-5.	-4.5	0.	123.71
1604	-4.4999	0.49998	0.	124.35
1605	-1.9852e-006	5.	0.	124.7
1606	4.	3.5	0.	125.14
1607	4.	-5.	0.	126.33
1608	-6.9999	2.6926e-005	0.	125.71
1609	-5.5	-2.	0.	124.1
1610	-6.	-3.	0.	123.69
1611	6.5	-6.5	0.	126.23
1612	2.	-5.	0.	125.77
1613	-7.5	-4.	0.	123.32
1614	-2.0001	7.	0.	131.4
1615	7.5	7.	0.	126.61
1616	2.	7.5	0.	129.38
1617	6.5	0.5	0.	124.53
1618	-1.	1.5	0.	132.84
1619	-8.9993	3.5	0.	126.5
1620	-4.9989	3.0001	0.	125.41
1621	7.	9.	0.	125.14
1622	1.	5.5	0.	127.63
1623	4.5	-1.5	0.	127.48
1624	-1.5	-7.	0.	120.01
1625	-6.5	-3.5	0.	123.09
1626	4.	8.5	0.	121.24
1627	0.5	-6.5	0.	127.45
1628	4.	0.5	0.	126.36
1629	5.5	-3.5	0.	128.19
1630	-4.	0.49998	0.	121.88
1631	5.5	8.5	0.	125.99
1632	2.5	-4.	0.	126.67
1633	6.	1.5	0.	124.63
1634	-7.	-0.99999	0.	125.37
1635	-6.	-2.	0.	124.28
1636	1.	-5.	0.	125.66
1637	5.	-5.	0.	126.56
1638	-7.9987	4.	0.	127.69
1639	2.5	1.	0.	128.48
1640	-3.	-3.5	0.	123.01
1641	7.	-0.5	0.	124.1
1642	0.5	4.5	0.	126.24
1643	3.	-5.5	0.	126.07
1644	-7.	8.75	0.	141.37
1645	-6.75	9.	0.	125.23
1646	-7.25	9.	0.	133.18
1647	-7.	9.25	0.	131.6
1648	-7.	8.25	0.	141.24
1649	-6.75	8.	0.	125.59
1650	-7.25	8.	0.	134.61
1651	-7.	7.75	0.	132.25
1652	-6.25	9.	0.	123.5
1653	-6.	8.75	0.	137.62
1654	-5.7501	9.	0.	130.49
1655	-6.	9.25	0.	128.87
1656	-6.25	8.	0.	123.74
1657	-6.	8.25	0.	137.25
1658	-5.7501	8.	0.	128.18
1659	-6.	7.75	0.	128.96
1660	-3.	-5.25	0.	139.6
1661	-2.75	-5.	0.	125.93
1662	-3.25	-5.	0.	132.01
1663	-3.	-4.75	0.	129.82
1664	-3.	-5.75	0.	141.56
1665	-2.75	-6.	0.	128.29
1666	-3.25	-6.	0.	134.75
1667	-3.	-6.25	0.	134.02
1668	-1.25	-5.	0.	125.99
1669	-1.	-5.25	0.	139.41
1670	-1.	-4.75	0.	130.7
1671	-0.75	-5.	0.	132.48
1672	-1.25	-6.	0.	126.18
1673	-1.	-5.75	0.	139.43
1674	-0.75	-6.	0.	132.67
1675	-1.	-6.25	0.	130.74
1676	-4.	6.75	0.	139.52
1677	-3.75	7.	0.	121.38
1678	-4.25	7.	0.	135.
1679	-4.0002	7.25	0.	130.03
1680	-4.	5.25	0.	137.91
1681	-3.75	5.	0.	119.78
1682	-3.9998	4.75	0.	128.4
1683	-4.2499	5.	0.	133.69
1684	-3.25	7.	0.	119.64
1685	-3.	6.75	0.	136.56
1686	-3.0002	7.25	0.	127.02
1687	-2.7501	7.	0.	131.2
1688	-3.25	5.	0.	118.08
1689	-3.	5.25	0.	134.86
1690	-2.9999	4.75	0.	124.42
1691	-2.75	5.	0.	128.67
1692	0.	0.75	0.	137.53
1693	0.25	1.	0.	120.44
1694	1.5611e-008	1.25	0.	127.96
1695	-0.25	1.	0.	132.37
1696	0.	-0.75	0.	136.81
1697	0.25	-1.	0.	120.04
1698	1.2163e-009	-1.25	0.	127.51
1699	-0.25	-1.	0.	130.78
1700	0.75	1.	0.	120.65
1701	1.	0.75	0.	137.52
1702	1.	1.25	0.	128.42
1703	1.25	1.	0.	131.9
1704	0.75	-1.	0.	120.08
1705	1.	-0.75	0.	136.98
1706	1.25	-1.	0.	131.64
1707	1.	-1.25	0.	127.7
1708	-8.	-7.25	0.	141.14
1709	-7.75	-7.	0.	124.93
1710	-8.25	-7.	0.	135.18
1711	-8.	-6.75	0.	131.71
1712	-8.	-8.75	0.	139.63
1713	-7.75	-9.	0.	122.98
1714	-8.25	-9.	0.	134.47
1715	-8.	-9.25	0.	129.52
1716	-6.25	-7.	0.	125.09
1717	-6.	-7.25	0.	140.95
1718	-6.	-6.75	0.	132.1
1719	-5.75	-7.	0.	135.55
1720	-6.25	-9.	0.	123.82
1721	-6.	-8.75	0.	140.14
1722	-5.75	-9.	0.	134.89
1723	-6.	-9.25	0.	131.4
1724	3.	6.75	0.	139.91
1725	3.25	7.	0.	126.37
1726	3.	7.25	0.	130.89
1727	2.75	7.	0.	133.05
1728	3.	6.25	0.	140.34
1729	3.25	6.	0.	126.7
1730	3.	5.75	0.	131.81
1731	2.75	6.	0.	133.69
1732	4.75	7.	0.	128.
1733	5.	6.75	0.	142.69
1734	5.	7.25	0.	132.44
1735	5.25	7.	0.	134.49
1736	4.75	6.	0.	127.35
1737	5.	6.25	0.	142.45
1738	5.	5.75	0.	131.93
1739	5.25	6.	0.	136.1
1740	-6.	6.75	0.	136.09
1741	-5.75	7.	0.	121.36
1742	-6.25	7.	0.	128.47
1743	-6.	7.25	0.	128.59
1744	-6.	5.25	0.	137.11
1745	-5.75	5.	0.	121.27
1746	-5.9995	4.75	0.	128.38
1747	-6.2497	5.	0.	131.73
1748	-5.25	7.	0.	123.43
1749	-5.	6.75	0.	140.23
1750	-5.0001	7.25	0.	131.92
1751	-4.75	7.	0.	135.57
1752	-5.25	5.	0.	123.76
1753	-5.	5.25	0.	141.04
1754	-4.9997	4.75	0.	133.09
1755	-4.7499	5.	0.	136.07
1756	6.	5.75	0.	141.03
1757	6.25	6.	0.	122.86
1758	5.75	6.	0.	134.93
1759	6.	6.25	0.	129.18
1760	6.	5.25	0.	142.
1761	6.25	5.	0.	124.77
1762	6.	4.75	0.	131.15
1763	5.75	5.	0.	134.46
1764	6.75	6.	0.	122.34
1765	7.	5.75	0.	138.61
1766	7.	6.25	0.	128.62
1767	7.25	6.	0.	131.42
1768	6.75	5.	0.	123.45
1769	7.	5.25	0.	138.8
1770	7.	4.75	0.	129.38
1771	7.25	5.	0.	132.11
1772	-4.	2.75	0.	137.18
1773	-3.75	3.	0.	123.99
1774	-4.2497	3.	0.	130.51
1775	-3.9998	3.25	0.	128.74
1776	-4.	2.25	0.	137.03
1777	-3.75	2.	0.	124.05
1778	-3.9999	1.75	0.	128.41
1779	-4.2499	2.	0.	130.4
1780	-2.25	3.	0.	126.82
1781	-2.	2.75	0.	140.66
1782	-1.75	3.	0.	134.16
1783	-2.	3.25	0.	132.
1784	-2.25	2.	0.	126.7
1785	-2.	2.25	0.	140.88
1786	-1.75	2.	0.	134.4
1787	-2.	1.75	0.	131.87
1788	-1.	8.75	0.	139.58
1789	-0.75	9.	0.	123.39
1790	-1.2501	9.	0.	132.82
1791	-1.	9.25	0.	130.6
1792	-1.	7.25	0.	137.58
1793	-0.75	7.	0.	119.78
1794	-1.	6.75	0.	127.6
1795	-1.25	7.	0.	131.77
1796	-0.25	9.	0.	123.85
1797	0.	8.75	0.	139.96
1798	0.25	9.	0.	133.35
1799	-2.3718e-006	9.25	0.	131.5
1800	-0.25	7.	0.	119.16
1801	0.	7.25	0.	136.45
1802	-1.982e-006	6.75	0.	126.54
1803	0.25	7.	0.	130.53
1804	7.	-4.25	0.	139.6
1805	7.25	-4.	0.	126.11
1806	6.75	-4.	0.	132.88
1807	7.	-3.75	0.	130.93
1808	7.	-4.75	0.	139.41
1809	7.25	-5.	0.	125.92
1810	6.75	-5.	0.	132.7
1811	7.	-5.25	0.	130.54
1812	8.75	-4.	0.	126.77
1813	9.	-4.25	0.	140.98
1814	9.	-3.75	0.	130.92
1815	9.25	-4.	0.	133.67
1816	8.75	-5.	0.	126.68
1817	9.	-4.75	0.	140.98
1818	9.	-5.25	0.	130.85
1819	9.25	-5.	0.	133.56
1820	-5.	-7.25	0.	138.97
1821	-4.75	-7.	0.	122.17
1822	-5.	-6.75	0.	130.48
1823	-5.25	-7.	0.	134.75
1824	-5.	-8.75	0.	138.89
1825	-4.75	-9.	0.	121.36
1826	-5.25	-9.	0.	134.75
1827	-5.	-9.25	0.	130.72
1828	-4.25	-7.	0.	122.28
1829	-4.	-7.25	0.	139.08
1830	-4.	-6.75	0.	130.84
1831	-3.75	-7.	0.	133.8
1832	-4.25	-9.	0.	118.61
1833	-4.	-8.75	0.	135.05
1834	-3.75	-9.	0.	129.48
1835	-4.	-9.25	0.	125.27
1836	9.75	10.	0.	125.01
1837	10.	9.75	0.	124.99
1838	-9.75	10.	0.	125.12
1839	-10.	9.75	0.	124.85
1840	10.	-9.75	0.	123.17
1841	9.75	-10.	0.	123.29
1842	-10.	-9.75	0.	138.4
1843	-9.75	-10.	0.	137.9
1844	-7.25	8.5	0.	138.71
1845	-6.5	9.25	0.	114.92
1846	-6.5	7.75	0.	117.23
1847	-5.7501	8.5	0.	134.52
1848	-3.25	-5.5	0.	137.21
1849	-2.25	-5.	0.	120.35
1850	-2.5	-4.75	0.	117.55
1851	-1.75	-5.	0.	120.06
1852	-2.	-4.75	0.	120.49
1853	-1.5	-4.75	0.	117.27
1854	-2.25	-6.	0.	121.17
1855	-2.5	-6.25	0.	118.71
1856	-1.75	-6.	0.	120.58
1857	-2.	-6.25	0.	121.03
1858	-1.5	-6.25	0.	117.5
1859	-0.75	-5.5	0.	136.85
1860	-4.	6.25	0.	144.32
1861	-4.25	6.5	0.	142.01
1862	-4.	5.75	0.	143.82
1863	-4.25	6.	0.	143.97
1864	-4.25	5.5	0.	141.37
1865	-3.5002	7.25	0.	109.4
1866	-3.4999	4.75	0.	108.02
1867	-3.	6.25	0.	141.52
1868	-2.75	6.5	0.	137.44
1869	-3.	5.75	0.	140.88
1870	-2.75	6.	0.	137.95
1871	-2.75	5.5	0.	135.95
1872	0.	0.25	0.	142.4
1873	-0.25	0.5	0.	138.13
1874	0.	-0.25	0.	141.97
1875	-0.25	-8.8099e-009	0.	138.64
1876	-0.25	-0.5	0.	137.08
1877	0.5	1.25	0.	109.7
1878	0.5	-1.25	0.	109.52
1879	1.	0.25	0.	142.16
1880	1.25	0.5	0.	137.82
1881	1.	-0.25	0.	142.08
1882	1.25	2.6648e-011	0.	138.78
1883	1.25	-0.5	0.	137.65
1884	-8.	-7.75	0.	146.34
1885	-8.25	-7.5	0.	141.32
1886	-8.	-8.25	0.	146.
1887	-8.25	-8.	0.	142.59
1888	-8.25	-8.5	0.	140.86
1889	-7.25	-7.	0.	116.04
1890	-7.5	-6.75	0.	114.27
1891	-6.75	-7.	0.	116.03
1892	-7.	-6.75	0.	116.28
1893	-6.5	-6.75	0.	114.36
1894	-7.25	-9.	0.	113.97
1895	-7.5	-9.25	0.	111.97
1896	-6.75	-9.	0.	114.04
1897	-7.	-9.25	0.	113.36
1898	-6.5	-9.25	0.	112.56
1899	-6.	-7.75	0.	146.07
1900	-5.75	-7.5	0.	142.51
1901	-6.	-8.25	0.	145.81
1902	-5.75	-8.	0.	144.9
1903	-5.75	-8.5	0.	142.1
1904	2.75	6.5	0.	137.75
1905	3.75	7.	0.	120.69
1906	3.5	7.25	0.	117.79
1907	4.25	7.	0.	121.2
1908	4.	7.25	0.	121.26
1909	4.5	7.25	0.	118.67
1910	3.75	6.	0.	120.37
1911	3.5	5.75	0.	117.75
1912	4.25	6.	0.	120.58
1913	4.	5.75	0.	120.8
1914	4.5	5.75	0.	117.92
1915	5.25	6.5	0.	141.32
1916	-6.	6.25	0.	140.87
1917	-6.25	6.5	0.	135.52
1918	-6.	5.75	0.	141.62
1919	-6.25	6.	0.	137.41
1920	-6.2499	5.5	0.	137.08
1921	-5.5001	7.25	0.	114.2
1922	-5.4996	4.75	0.	112.1
1923	-5.	6.25	0.	144.87
1924	-4.75	6.5	0.	142.21
1925	-5.	5.75	0.	145.
1926	-4.75	6.	0.	144.31
1927	-4.75	5.5	0.	142.22
1928	5.75	5.5	0.	141.73
1929	6.5	6.25	0.	111.92
1930	6.5	4.75	0.	113.75
1931	7.25	5.5	0.	136.82
1932	-4.2498	2.5	0.	134.56
1933	-3.25	3.	0.	118.45
1934	-3.4999	3.25	0.	115.04
1935	-2.75	3.	0.	119.77
1936	-2.9999	3.25	0.	119.17
1937	-2.5	3.25	0.	117.99
1938	-3.25	2.	0.	118.73
1939	-3.5	1.75	0.	115.66
1940	-2.75	2.	0.	119.46
1941	-3.	1.75	0.	119.21
1942	-2.5	1.75	0.	117.04
1943	-1.75	2.5	0.	138.46
1944	-1.	8.25	0.	143.92
1945	-1.2501	8.5	0.	138.99
1946	-1.	7.75	0.	143.3
1947	-1.2501	8.	0.	140.04
1948	-1.2501	7.5	0.	138.66
1949	-0.50001	9.25	0.	113.82
1950	-0.5	6.75	0.	108.7
1951	0.	8.25	0.	143.47
1952	0.25	8.5	0.	138.88
1953	0.	7.75	0.	142.45
1954	0.25	8.	0.	139.21
1955	0.25	7.5	0.	137.38
1956	6.75	-4.5	0.	137.08
1957	7.75	-4.	0.	120.03
1958	7.5	-3.75	0.	117.18
1959	8.25	-4.	0.	120.39
1960	8.	-3.75	0.	120.31
1961	8.5	-3.75	0.	117.54
1962	7.75	-5.	0.	119.97
1963	7.5	-5.25	0.	117.09
1964	8.25	-5.	0.	120.25
1965	8.	-5.25	0.	120.18
1966	8.5	-5.25	0.	117.37
1967	9.25	-4.5	0.	138.89
1968	-5.	-7.75	0.	143.36
1969	-5.25	-7.5	0.	141.4
1970	-5.	-8.25	0.	143.18
1971	-5.25	-8.	0.	143.3
1972	-5.25	-8.5	0.	141.09
1973	-4.5	-6.75	0.	111.19
1974	-4.5	-9.25	0.	109.18
1975	-4.	-7.75	0.	142.21
1976	-3.75	-7.5	0.	137.74
1977	-4.	-8.25	0.	141.04
1978	-3.75	-8.	0.	137.39
1979	-3.75	-8.5	0.	135.72
1980	9.25	10.	0.	125.03
1981	9.5	9.75	0.	125.
1982	8.75	10.	0.	125.06
1983	9.	9.75	0.	125.04
1984	8.25	10.	0.	125.07
1985	8.5	9.75	0.	125.07
1986	7.75	10.	0.	125.05
1987	8.	9.75	0.	125.06
1988	7.25	10.	0.	124.98
1989	7.5	9.75	0.	125.02
1990	6.75	10.	0.	124.83
1991	7.	9.75	0.	124.94
1992	6.25	10.	0.	124.58
1993	6.5	9.75	0.	124.81
1994	5.75	10.	0.	124.19
1995	6.	9.75	0.	124.58
1996	5.25	10.	0.	123.73
1997	5.5	9.75	0.	124.21
1998	4.75	10.	0.	123.35
1999	5.	9.75	0.	123.76
2000	4.25	10.	0.	123.26
2001	4.5	9.75	0.	123.44
2002	3.75	10.	0.	123.62
2003	4.	9.75	0.	123.49
2004	3.25	10.	0.	124.48
2005	3.5	9.75	0.	124.02
2006	2.75	10.	0.	125.7
2007	3.	9.75	0.	124.96
2008	2.25	10.	0.	127.09
2009	2.5	9.75	0.	126.07
2010	1.75	10.	0.	128.39
2011	2.	9.75	0.	127.13
2012	1.25	10.	0.	129.32
2013	1.5	9.75	0.	127.97
2014	0.75	10.	0.	128.66
2015	1.	9.75	0.	128.66
2016	0.25	10.	0.	124.76
2017	0.5	9.75	0.	128.94
2018	-0.25	10.	0.	120.69
2019	-2.3718e-006	9.75	0.	123.94
2020	-0.75	10.	0.	120.38
2021	-0.50001	9.75	0.	117.69
2022	-1.25	10.	0.	123.76
2023	-1.	9.75	0.	123.25
2024	-1.75	10.	0.	126.99
2025	-1.5001	9.75	0.	127.85
2026	-2.25	10.	0.	127.14
2027	-2.0001	9.75	0.	127.1
2028	-2.75	10.	0.	125.99
2029	-2.5002	9.75	0.	125.93
2030	-3.25	10.	0.	124.94
2031	-3.0002	9.75	0.	124.9
2032	-3.75	10.	0.	124.36
2033	-3.5003	9.75	0.	124.17
2034	-4.25	10.	0.	124.32
2035	-4.0002	9.75	0.	123.92
2036	-4.75	10.	0.	124.71
2037	-4.5002	9.75	0.	124.07
2038	-5.25	10.	0.	124.43
2039	-5.0001	9.75	0.	124.71
2040	-5.75	10.	0.	121.97
2041	-5.5001	9.75	0.	125.61
2042	-6.25	10.	0.	119.53
2043	-6.	9.75	0.	121.9
2044	-6.75	10.	0.	120.22
2045	-6.5	9.75	0.	117.59
2046	-7.25	10.	0.	123.95
2047	-7.	9.75	0.	123.53
2048	-7.75	10.	0.	127.1
2049	-7.5	9.75	0.	127.78
2050	-8.25	10.	0.	127.29
2051	-8.	9.75	0.	126.98
2052	-8.75	10.	0.	126.37
2053	-8.5	9.75	0.	126.15
2054	-9.25	10.	0.	125.55
2055	-9.	9.75	0.	125.53
2056	-9.5	9.75	0.	125.
2057	10.	9.25	0.	124.94
2058	9.75	9.5	0.	124.99
2059	10.	8.75	0.	124.83
2060	9.75	9.	0.	124.93
2061	10.	8.25	0.	124.65
2062	9.75	8.5	0.	124.84
2063	10.	7.75	0.	124.37
2064	9.75	8.	0.	124.69
2065	10.	7.25	0.	123.95
2066	9.75	7.5	0.	124.46
2067	10.	6.75	0.	123.43
2068	9.75	7.	0.	124.12
2069	10.	6.25	0.	122.97
2070	9.75	6.5	0.	123.72
2071	10.	5.75	0.	122.81
2072	9.75	6.	0.	123.45
2073	10.	5.25	0.	123.13
2074	9.75	5.5	0.	123.51
2075	10.	4.75	0.	123.86
2076	9.75	5.	0.	123.97
2077	10.	4.25	0.	124.72
2078	9.75	4.5	0.	124.66
2079	10.	3.75	0.	125.43
2080	9.75	4.	0.	125.3
2081	10.	3.25	0.	125.82
2082	9.75	3.5	0.	125.7
2083	10.	2.75	0.	125.91
2084	9.75	3.	0.	125.83
2085	10.	2.25	0.	125.79
2086	9.75	2.5	0.	125.76
2087	10.	1.75	0.	125.56
2088	9.75	2.	0.	125.58
2089	10.	1.25	0.	125.31
2090	9.75	1.5	0.	125.36
2091	10.	0.75	0.	125.1
2092	9.75	1.	0.	125.15
2093	10.	0.25	0.	124.99
2094	9.75	0.5	0.	125.
2095	10.	-0.25	0.	125.03
2096	9.75	-1.833e-013	0.	124.94
2097	10.	-0.75	0.	125.3
2098	9.75	-0.5	0.	125.03
2099	10.	-1.25	0.	125.92
2100	9.75	-1.	0.	125.31
2101	10.	-1.75	0.	127.04
2102	9.75	-1.5	0.	125.89
2103	10.	-2.25	0.	128.79
2104	9.75	-2.	0.	126.87
2105	10.	-2.75	0.	131.03
2106	9.75	-2.5	0.	128.32
2107	10.	-3.25	0.	132.06
2108	9.75	-3.	0.	130.23
2109	10.	-3.75	0.	129.28
2110	9.75	-3.5	0.	131.89
2111	10.	-4.25	0.	124.28
2112	9.75	-4.	0.	129.23
2113	10.	-4.75	0.	124.16
2114	9.75	-4.5	0.	126.79
2115	10.	-5.25	0.	128.96
2116	9.75	-5.	0.	129.01
2117	10.	-5.75	0.	131.6
2118	9.75	-5.5	0.	131.54
2119	10.	-6.25	0.	130.46
2120	9.75	-6.	0.	129.77
2121	10.	-6.75	0.	128.09
2122	9.75	-6.5	0.	127.73
2123	10.	-7.25	0.	126.17
2124	9.75	-7.	0.	126.13
2125	10.	-7.75	0.	124.87
2126	9.75	-7.5	0.	125.
2127	10.	-8.25	0.	124.05
2128	9.75	-8.	0.	124.25
2129	10.	-8.75	0.	123.56
2130	9.75	-8.5	0.	123.77
2131	10.	-9.25	0.	123.29
2132	9.75	-9.	0.	123.49
2133	9.75	-9.5	0.	123.34
2134	-10.	9.25	0.	124.1
2135	-9.75	9.5	0.	124.72
2136	-10.	8.75	0.	123.1
2137	-9.75	9.	0.	123.86
2138	-10.	8.25	0.	122.52
2139	-9.75	8.5	0.	123.26
2140	-10.	7.75	0.	122.46
2141	-9.75	8.	0.	123.13
2142	-10.	7.25	0.	122.72
2143	-9.75	7.5	0.	123.33
2144	-10.	6.75	0.	123.06
2145	-9.75	7.	0.	123.6
2146	-10.	6.25	0.	123.39
2147	-9.75	6.5	0.	123.86
2148	-10.	5.75	0.	123.77
2149	-9.75	6.	0.	124.11
2150	-10.	5.25	0.	124.23
2151	-9.7499	5.5	0.	124.44
2152	-10.	4.75	0.	124.78
2153	-9.7499	5.	0.	124.86
2154	-10.	4.25	0.	125.33
2155	-9.7499	4.5	0.	125.33
2156	-10.	3.75	0.	125.81
2157	-9.7498	4.	0.	125.75
2158	-10.	3.25	0.	126.17
2159	-9.7498	3.5	0.	126.09
2160	-10.	2.75	0.	126.4
2161	-9.7498	3.	0.	126.33
2162	-10.	2.25	0.	126.56
2163	-9.7499	2.5	0.	126.48
2164	-10.	1.75	0.	126.67
2165	-9.7499	2.	0.	126.58
2166	-10.	1.25	0.	126.77
2167	-9.7499	1.5	0.	126.66
2168	-10.	0.75	0.	126.87
2169	-9.7499	1.	0.	126.75
2170	-10.	0.25	0.	126.99
2171	-9.75	0.50002	0.	126.85
2172	-10.	-0.25	0.	127.13
2173	-9.75	1.5237e-005	0.	126.96
2174	-10.	-0.75	0.	127.3
2175	-9.75	-0.49999	0.	127.1
2176	-10.	-1.25	0.	127.49
2177	-9.75	-0.99999	0.	127.25
2178	-10.	-1.75	0.	127.73
2179	-9.75	-1.5	0.	127.44
2180	-10.	-2.25	0.	128.05
2181	-9.75	-2.	0.	127.68
2182	-10.	-2.75	0.	128.48
2183	-9.75	-2.5	0.	128.
2184	-10.	-3.25	0.	129.05
2185	-9.75	-3.	0.	128.41
2186	-10.	-3.75	0.	129.81
2187	-9.75	-3.5	0.	128.97
2188	-10.	-4.25	0.	130.76
2189	-9.75	-4.	0.	129.68
2190	-10.	-4.75	0.	131.83
2191	-9.75	-4.5	0.	130.54
2192	-10.	-5.25	0.	132.81
2193	-9.75	-5.	0.	131.5
2194	-10.	-5.75	0.	133.28
2195	-9.75	-5.5	0.	132.35
2196	-10.	-6.25	0.	132.77
2197	-9.75	-6.	0.	132.73
2198	-10.	-6.75	0.	131.24
2199	-9.75	-6.5	0.	132.26
2200	-10.	-7.25	0.	129.48
2201	-9.75	-7.	0.	131.05
2202	-10.	-7.75	0.	128.75
2203	-9.75	-7.5	0.	130.13
2204	-10.	-8.25	0.	129.86
2205	-9.75	-8.	0.	130.35
2206	-10.	-8.75	0.	132.68
2207	-9.75	-8.5	0.	131.95
2208	-10.	-9.25	0.	136.09
2209	-9.75	-9.	0.	134.5
2210	-9.75	-9.5	0.	136.94
2211	-9.25	-10.	0.	136.79
2212	-9.5	-9.75	0.	136.44
2213	-8.75	-10.	0.	135.33
2214	-9.	-9.75	0.	136.65
2215	-8.25	-10.	0.	128.72
2216	-8.5	-9.75	0.	134.94
2217	-7.75	-10.	0.	118.45
2218	-8.	-9.75	0.	124.15
2219	-7.25	-10.	0.	111.58
2220	-7.5	-9.75	0.	112.56
2221	-6.75	-10.	0.	112.32
2222	-7.	-9.75	0.	110.48
2223	-6.25	-10.	0.	120.33
2224	-6.5	-9.75	0.	113.81
2225	-5.75	-10.	0.	129.34
2226	-6.	-9.75	0.	126.35
2227	-5.25	-10.	0.	128.59
2228	-5.5	-9.75	0.	134.92
2229	-4.75	-10.	0.	120.1
2230	-5.	-9.75	0.	125.05
2231	-4.25	-10.	0.	117.71
2232	-4.5	-9.75	0.	113.28
2233	-3.75	-10.	0.	123.8
2234	-4.	-9.75	0.	120.08
2235	-3.25	-10.	0.	128.94
2236	-3.5	-9.75	0.	129.1
2237	-2.75	-10.	0.	129.15
2238	-3.	-9.75	0.	129.69
2239	-2.25	-10.	0.	127.64
2240	-2.5	-9.75	0.	128.12
2241	-1.75	-10.	0.	126.38
2242	-2.	-9.75	0.	126.63
2243	-1.25	-10.	0.	125.7
2244	-1.5	-9.75	0.	125.72
2245	-0.75	-10.	0.	125.56
2246	-1.	-9.75	0.	125.42
2247	-0.25	-10.	0.	125.76
2248	-0.5	-9.75	0.	125.57
2249	0.25	-10.	0.	126.1
2250	2.0761e-012	-9.75	0.	125.92
2251	0.75	-10.	0.	126.43
2252	0.5	-9.75	0.	126.3
2253	1.25	-10.	0.	126.68
2254	1.	-9.75	0.	126.6
2255	1.75	-10.	0.	126.83
2256	1.5	-9.75	0.	126.79
2257	2.25	-10.	0.	126.89
2258	2.	-9.75	0.	126.89
2259	2.75	-10.	0.	126.88
2260	2.5	-9.75	0.	126.91
2261	3.25	-10.	0.	126.81
2262	3.	-9.75	0.	126.86
2263	3.75	-10.	0.	126.67
2264	3.5	-9.75	0.	126.76
2265	4.25	-10.	0.	126.46
2266	4.	-9.75	0.	126.59
2267	4.75	-10.	0.	126.17
2268	4.5	-9.75	0.	126.34
2269	5.25	-10.	0.	125.8
2270	5.	-9.75	0.	126.01
2271	5.75	-10.	0.	125.36
2272	5.5	-9.75	0.	125.6
2273	6.25	-10.	0.	124.88
2274	6.	-9.75	0.	125.13
2275	6.75	-10.	0.	124.42
2276	6.5	-9.75	0.	124.63
2277	7.25	-10.	0.	124.03
2278	7.	-9.75	0.	124.18
2279	7.75	-10.	0.	123.76
2280	7.5	-9.75	0.	123.83
2281	8.25	-10.	0.	123.62
2282	8.	-9.75	0.	123.63
2283	8.75	-10.	0.	123.56
2284	8.5	-9.75	0.	123.56
2285	9.25	-10.	0.	123.49
2286	9.	-9.75	0.	123.54
2287	9.5	-9.75	0.	123.46
2288	5.	-0.25	0.	126.
2289	5.	0.25	0.	125.7
2290	4.75	-3.6943e-011	0.	126.01
2291	5.25	-3.0481e-011	0.	125.62
2292	5.25	-0.5	0.	125.96
2293	5.	-0.75	0.	126.41
2294	4.75	-0.5	0.	126.37
2295	3.	-4.25	0.	126.59
2296	3.	-4.75	0.	126.25
2297	3.25	-4.5	0.	126.41
2298	2.75	-4.5	0.	126.3
2299	5.25	0.5	0.	125.39
2300	4.75	0.5	0.	125.77
2301	5.	0.75	0.	125.51
2302	4.5	-0.25	0.	126.37
2303	4.5	0.25	0.	126.08
2304	4.25	-3.7544e-011	0.	126.37
2305	5.5	-0.25	0.	125.58
2306	5.5	-0.75	0.	125.96
2307	5.75	-0.5	0.	125.48
2308	5.25	-1.	0.	126.41
2309	5.	-1.25	0.	126.91
2310	4.75	-1.	0.	126.83
2311	5.5	0.75	0.	125.13
2312	5.5	1.25	0.	125.
2313	5.75	1.	0.	124.89
2314	5.25	1.	0.	125.25
2315	-5.	-1.75	0.	123.84
2316	-4.75	-2.	0.	123.73
2317	-5.	-2.25	0.	123.96
2318	-5.25	-2.	0.	123.99
2319	3.	-3.75	0.	127.08
2320	3.25	-4.	0.	126.81
2321	2.75	-4.	0.	126.73
2322	3.25	-5.	0.	126.19
2323	2.75	-5.	0.	126.05
2324	3.	-5.25	0.	126.1
2325	5.25	1.5	0.	125.16
2326	4.75	1.5	0.	125.59
2327	5.	1.75	0.	125.34
2328	5.	1.25	0.	125.4
2329	5.5	0.25	0.	125.31
2330	5.75	0.5	0.	125.02
2331	5.75	-2.2098e-011	0.	125.21
2332	-5.25	-1.5	0.	124.01
2333	-5.5	-1.25	0.	124.31
2334	-5.75	-1.5	0.	124.37
2335	-5.5	-1.75	0.	124.16
2336	-5.25	-2.5	0.	124.03
2337	-5.5	-2.75	0.	123.96
2338	-5.75	-2.5	0.	124.02
2339	-5.5	-2.25	0.	124.06
2340	3.5	-4.25	0.	126.63
2341	3.75	-4.5	0.	126.44
2342	3.5	-4.75	0.	126.34
2343	-4.75	-1.5	0.	123.55
2344	-5.	-1.25	0.	123.83
2345	4.5	-0.75	0.	126.78
2346	4.25	-0.5	0.	126.73
2347	4.5	0.75	0.	125.91
2348	4.25	0.5	0.	126.16
2349	2.5	-5.75	0.	125.94
2350	2.25	-5.5	0.	125.79
2351	2.5	-5.25	0.	125.92
2352	2.75	-5.5	0.	125.98
2353	5.5	-1.25	0.	126.47
2354	5.75	-1.	0.	125.87
2355	5.25	-1.5	0.	126.96
2356	5.	-1.75	0.	127.42
2357	4.75	-1.5	0.	127.32
2358	5.5	1.75	0.	124.92
2359	5.75	1.5	0.	124.79
2360	-4.5	-1.75	0.	123.44
2361	-4.25	-2.	0.	123.39
2362	-4.5	-2.25	0.	123.79
2363	4.5	1.75	0.	125.8
2364	4.75	2.	0.	125.55
2365	4.25	2.	0.	126.03
2366	4.5	2.25	0.	125.75
2367	3.5	-5.75	0.	126.3
2368	3.25	-6.	0.	126.26
2369	3.75	-6.	0.	126.48
2370	3.5	-6.25	0.	126.44
2371	-5.75	-1.	0.	124.61
2372	-5.25	-1.	0.	124.14
2373	-5.5	-0.75	0.	124.58
2374	4.	-2.75	0.	127.92
2375	4.	-2.25	0.	128.07
2376	4.25	-2.5	0.	128.02
2377	3.75	-2.5	0.	128.17
2378	4.	-0.25	0.	126.72
2379	3.75	-3.6318e-011	0.	126.73
2380	4.	0.25	0.	126.45
2381	-4.75	-2.5	0.	124.02
2382	-5.	-2.75	0.	124.14
2383	4.	2.25	0.	126.2
2384	4.25	2.5	0.	125.92
2385	3.75	2.5	0.	126.39
2386	4.	2.75	0.	125.95
2387	4.25	-2.	0.	127.95
2388	4.5	-2.25	0.	127.9
2389	4.75	-2.	0.	127.76
2390	4.5	-1.75	0.	127.66
2391	3.5	-3.25	0.	127.61
2392	3.75	-3.	0.	127.83
2393	3.5	-2.75	0.	128.08
2394	3.25	-3.	0.	127.93
2395	3.25	-3.5	0.	127.35
2396	2.75	-3.5	0.	127.29
2397	3.	-3.25	0.	127.67
2398	-5.5	-3.25	0.	123.8
2399	-5.25	-3.	0.	124.07
2400	-5.75	-3.	0.	123.8
2401	2.25	-4.5	0.	126.15
2402	2.5	-4.75	0.	126.1
2403	2.5	-4.25	0.	126.45
2404	3.5	-3.75	0.	127.09
2405	3.75	-3.5	0.	127.32
2406	3.75	-4.	0.	126.81
2407	3.75	-5.5	0.	126.34
2408	3.5	-5.25	0.	126.25
2409	3.25	-5.5	0.	126.16
2410	-4.25	-1.5	0.	123.01
2411	-4.5	-1.25	0.	123.21
2412	-3.75	-1.5	0.	122.52
2413	-4.	-1.75	0.	122.97
2414	-4.	-1.25	0.	122.53
2415	4.25	-1.	0.	127.19
2416	4.5	-1.25	0.	127.24
2417	4.25	1.5	0.	126.07
2418	4.5	1.25	0.	125.83
2419	2.75	-6.	0.	126.08
2420	3.	-6.25	0.	126.25
2421	3.	-5.75	0.	126.12
2422	2.25	-6.	0.	125.93
2423	2.5	-6.25	0.	126.11
2424	-5.75	-3.5	0.	123.46
2425	-6.	-3.75	0.	122.96
2426	-6.	-3.25	0.	123.47
2427	-6.25	-3.5	0.	123.17
2428	5.75	-1.5	0.	126.41
2429	5.5	-1.75	0.	127.09
2430	3.5	2.75	0.	126.42
2431	3.75	3.	0.	125.97
2432	3.25	3.	0.	126.47
2433	3.5	3.25	0.	125.82
2434	6.25	1.	0.	124.61
2435	6.	0.75	0.	124.78
2436	6.	1.25	0.	124.68
2437	6.25	-1.5474e-011	0.	124.79
2438	6.	0.25	0.	124.92
2439	6.	-0.25	0.	125.11
2440	6.	-1.25	0.	125.81
2441	6.25	-1.	0.	125.17
2442	6.	-0.75	0.	125.39
2443	-6.25	-2.5	0.	124.08
2444	-6.	-2.75	0.	123.86
2445	-6.	-2.25	0.	124.15
2446	-6.	-1.25	0.	124.66
2447	-6.25	-1.5	0.	124.67
2448	-6.	-1.75	0.	124.41
2449	-6.	-0.75	0.	124.95
2450	-6.25	-1.	0.	124.95
2451	-5.75	-0.5	0.	124.93
2452	-6.	-0.25	0.	125.28
2453	-6.25	-0.5	0.	125.23
2454	-3.5	-1.25	0.	122.02
2455	-3.5	-1.75	0.	122.55
2456	-3.25	-1.5	0.	122.26
2457	-3.75	-2.	0.	123.
2458	-4.	-2.25	0.	123.48
2459	2.	-5.75	0.	125.78
2460	1.75	-5.5	0.	125.62
2461	2.	-5.25	0.	125.74
2462	5.25	2.	0.	125.1
2463	5.	2.25	0.	125.33
2464	4.	-3.25	0.	127.54
2465	4.25	-3.	0.	127.78
2466	4.	-4.25	0.	126.61
2467	4.25	-4.5	0.	126.42
2468	4.	-4.75	0.	126.38
2469	4.	-5.75	0.	126.51
2470	4.	-6.25	0.	126.67
2471	4.25	-6.	0.	126.76
2472	-4.75	-1.	0.	123.49
2473	-5.	-0.75	0.	123.99
2474	-3.75	-1.	0.	122.03
2475	-3.25	-1.	0.	121.68
2476	-3.5	-0.75	0.	121.4
2477	4.	-1.75	0.	127.94
2478	3.75	-2.	0.	128.25
2479	4.	-0.75	0.	127.13
2480	3.75	-0.5	0.	127.09
2481	4.	1.75	0.	126.31
2482	3.75	2.	0.	126.6
2483	-4.25	-2.5	0.	123.87
2484	-4.5	-2.75	0.	124.25
2485	1.75	-6.	0.	125.83
2486	2.	-6.25	0.	126.03
2487	4.75	2.5	0.	125.53
2488	4.5	2.75	0.	125.68
2489	4.5	-2.75	0.	127.88
2490	4.75	-2.5	0.	127.99
2491	-5.25	-0.5	0.	124.43
2492	-5.5	-0.25001	0.	124.99
2493	-3.	-0.75	0.	121.25
2494	-3.25	-0.5	0.	120.96
2495	-2.75	-0.5	0.	121.23
2496	-3.	-0.25	0.	120.36
2497	3.5	-2.25	0.	128.36
2498	3.25	-2.5	0.	128.42
2499	2.	-4.25	0.	126.25
2500	1.75	-4.	0.	126.33
2501	2.	-3.75	0.	126.66
2502	2.25	-4.	0.	126.55
2503	2.25	-3.5	0.	127.05
2504	2.5	-3.25	0.	127.57
2505	2.5	-3.75	0.	126.95
2506	3.5	-0.25	0.	127.1
2507	3.5	0.25	0.	126.86
2508	3.25	-3.2703e-011	0.	127.17
2509	3.5	2.25	0.	126.79
2510	3.25	2.5	0.	126.97
2511	-5.5	-3.75	0.	123.5
2512	-5.25	-3.5	0.	124.01
2513	-5.75	-4.	0.	123.
2514	-6.	-4.25	0.	122.39
2515	-6.25	-4.	0.	122.52
2516	-6.75	-4.5	0.	121.52
2517	-6.25	-4.5	0.	121.8
2518	-6.5	-4.75	0.	121.04
2519	-6.5	-4.25	0.	121.93
2520	-5.	-3.25	0.	124.29
2521	-4.75	-3.	0.	124.37
2522	0.75	4.	0.	126.3
2523	1.25	4.	0.	126.88
2524	1.	3.75	0.	126.1
2525	1.	4.25	0.	126.82
2526	4.25	3.	0.	125.7
2527	4.	3.25	0.	125.46
2528	5.	-2.25	0.	127.85
2529	5.25	-2.	0.	127.55
2530	6.25	-1.5	0.	125.55
2531	6.	-1.75	0.	126.44
2532	4.25	-6.5	0.	126.87
2533	4.5	-6.25	0.	126.97
2534	4.75	-6.5	0.	127.18
2535	4.5	-6.75	0.	126.98
2536	-5.75	-3.206e-006	0.	125.34
2537	-5.9999	0.25	0.	125.57
2538	-6.25	7.232e-006	0.	125.5
2539	3.	-2.75	0.	128.27
2540	2.75	-3.	0.	127.95
2541	2.75	3.	0.	127.
2542	3.	2.75	0.	127.03
2543	3.	3.25	0.	126.51
2544	6.25	2.	0.	124.42
2545	6.5	2.25	0.	124.23
2546	6.75	2.	0.	124.37
2547	6.5	1.75	0.	124.38
2548	-3.5	-2.25	0.	123.04
2549	-3.25	-2.	0.	122.69
2550	1.75	-4.5	0.	126.
2551	2.	-4.75	0.	125.92
2552	5.75	2.	0.	124.7
2553	5.5	2.25	0.	124.87
2554	6.	2.25	0.	124.43
2555	6.	1.75	0.	124.57
2556	4.	-3.75	0.	127.04
2557	4.25	-3.5	0.	127.31
2558	4.25	-4.	0.	126.77
2559	4.25	-5.5	0.	126.55
2560	4.	-5.25	0.	126.38
2561	-4.25	-1.	0.	122.73
2562	-4.5	-0.75	0.	123.14
2563	-4.	-0.75	0.	122.16
2564	-3.	-1.25	0.	121.93
2565	-2.75	-1.	0.	121.94
2566	-2.75	-1.5	0.	122.45
2567	-3.	-1.75	0.	122.4
2568	4.	-1.25	0.	127.59
2569	3.75	-1.5	0.	128.02
2570	4.25	-1.5	0.	127.64
2571	3.75	-1.	0.	127.58
2572	3.75	1.5	0.	126.65
2573	4.	1.25	0.	126.32
2574	3.75	-6.5	0.	126.62
2575	4.	-6.75	0.	126.76
2576	3.5	-6.75	0.	126.58
2577	3.25	-6.5	0.	126.43
2578	2.5	-6.75	0.	126.36
2579	2.25	-6.5	0.	126.21
2580	2.75	-6.5	0.	126.29
2581	6.75	1.	0.	124.44
2582	6.5	1.25	0.	124.46
2583	6.5	0.75	0.	124.51
2584	6.75	-1.0695e-011	0.	124.4
2585	6.5	-0.25	0.	124.61
2586	6.5	0.25	0.	124.55
2587	6.5	-1.25	0.	124.91
2588	6.75	-1.	0.	124.36
2589	6.5	-0.75	0.	124.71
2590	-6.5	-2.75	0.	123.91
2591	-6.75	-3.	0.	123.81
2592	-6.25	-3.	0.	123.68
2593	-6.5	-3.25	0.	123.39
2594	-6.75	-2.5	0.	124.29
2595	-6.5	-2.25	0.	124.32
2596	-6.5	-1.25	0.	124.95
2597	-6.75	-1.5	0.	124.97
2598	-6.5	-1.75	0.	124.66
2599	-6.5	-0.75	0.	125.22
2600	-6.75	-1.	0.	125.23
2601	-6.75	-0.49999	0.	125.46
2602	-6.5	-0.24999	0.	125.46
2603	-6.2499	0.50001	0.	125.68
2604	-6.7499	0.50004	0.	125.71
2605	-6.4999	0.25002	0.	125.62
2606	-6.4998	0.75003	0.	125.62
2607	0.5	3.75	0.	125.67
2608	0.25	4.	0.	126.21
2609	0.5	4.25	0.	126.15
2610	-2.5	-2.25	0.	122.65
2611	-2.75	-2.5	0.	122.63
2612	-2.5	-2.75	0.	122.18
2613	-2.25	-2.5	0.	122.7
2614	-3.75	-2.5	0.	123.52
2615	-4.	-2.75	0.	124.13
2616	1.5	-5.75	0.	125.67
2617	1.25	-5.5	0.	125.5
2618	1.5	-5.25	0.	125.59
2619	3.25	3.5	0.	125.85
2620	3.5	3.75	0.	124.94
2621	3.75	3.5	0.	125.3
2622	5.	2.75	0.	125.42
2623	5.25	2.5	0.	125.09
2624	4.5	-3.25	0.	127.55
2625	4.75	-3.	0.	127.9
2626	4.5	-4.25	0.	126.57
2627	4.75	-4.5	0.	126.37
2628	4.5	-4.75	0.	126.4
2629	4.5	-5.75	0.	126.8
2630	4.75	-6.	0.	127.16
2631	-4.75	-0.50001	0.	123.63
2632	-5.	-0.25001	0.	124.39
2633	-3.75	-0.5	0.	121.53
2634	-3.5	-0.25	0.	120.68
2635	-2.5	-0.25	0.	121.27
2636	-2.25	-0.5	0.	122.41
2637	-2.5	-0.75	0.	121.93
2638	-2.5	-1.75	0.	122.74
2639	-2.25	-2.	0.	123.2
2640	-2.75	-2.	0.	122.69
2641	3.25	-2.	0.	128.67
2642	3.5	-1.75	0.	128.33
2643	3.5	-0.75	0.	127.54
2644	3.25	-0.5	0.	127.54
2645	1.5	-4.25	0.	126.09
2646	1.5	-3.75	0.	126.28
2647	1.25	-4.	0.	126.25
2648	1.75	-3.5	0.	126.61
2649	2.	-3.25	0.	127.15
2650	1.75	3.5	0.	126.8
2651	2.	3.75	0.	127.34
2652	2.	3.25	0.	127.07
2653	2.25	3.5	0.	127.02
2654	3.25	0.5	0.	127.07
2655	3.5	0.75	0.	126.83
2656	3.75	0.5	0.	126.58
2657	3.5	1.75	0.	126.94
2658	3.25	2.	0.	127.3
2659	-7.	-4.75	0.	120.9
2660	-7.25	-4.5	0.	122.03
2661	-7.	-4.25	0.	122.04
2662	-5.5	-4.25	0.	123.09
2663	-5.25	-4.	0.	123.76
2664	-5.75	-4.5	0.	122.49
2665	-6.	-4.75	0.	121.94
2666	-5.	-3.75	0.	124.27
2667	-4.75	-3.5	0.	124.71
2668	-4.25	-3.	0.	124.5
2669	-4.5	-3.25	0.	124.8
2670	-2.25	-3.	0.	121.81
2671	-1.75	-3.	0.	122.25
2672	-2.	-3.25	0.	120.99
2673	-2.	-2.75	0.	122.33
2674	1.5	3.75	0.	126.88
2675	1.75	4.	0.	127.42
2676	1.5	4.25	0.	127.66
2677	4.75	3.	0.	125.56
2678	4.5	3.25	0.	125.56
2679	5.	-2.75	0.	128.02
2680	5.25	-2.5	0.	128.07
2681	6.75	-1.5	0.	124.42
2682	6.5	-1.75	0.	125.3
2683	5.75	-2.	0.	127.12
2684	5.5	-2.25	0.	127.77
2685	5.25	-7.	0.	127.03
2686	5.75	-7.	0.	126.74
2687	5.5	-6.75	0.	127.31
2688	5.5	-7.25	0.	126.72
2689	5.	-6.75	0.	127.21
2690	5.	-6.25	0.	127.38
2691	5.25	-6.5	0.	127.49
2692	-5.25	-9.8284e-006	0.	124.94
2693	-5.4999	0.24999	0.	125.51
2694	-2.75	-8.7287e-007	0.	120.39
2695	-3.25	-2.6365e-006	0.	120.08
2696	-3.	0.25	0.	119.21
2697	-5.9998	0.75001	0.	125.7
2698	-5.7499	0.49999	0.	125.74
2699	3.	-2.25	0.	128.74
2700	2.75	-2.5	0.	128.64
2701	2.25	3.	0.	127.14
2702	2.5	2.75	0.	127.51
2703	2.5	3.25	0.	127.09
2704	3.	-0.25	0.	127.6
2705	3.	0.25	0.	127.38
2706	2.75	-2.229e-011	0.	127.84
2707	3.	2.25	0.	127.49
2708	2.75	2.5	0.	127.55
2709	-2.25	-3.2932e-007	0.	122.04
2710	-2.5	0.25	0.	120.57
2711	6.25	2.5	0.	124.24
2712	6.5	2.75	0.	123.92
2713	6.75	2.5	0.	124.24
2714	7.	2.25	0.	124.38
2715	7.25	2.	0.	124.54
2716	7.	1.75	0.	124.41
2717	-6.4986	2.2501	0.	124.97
2718	-6.7483	2.5002	0.	125.34
2719	-6.4981	2.7501	0.	125.15
2720	-6.2484	2.5001	0.	124.55
2721	0.75	3.5	0.	125.48
2722	0.5	3.25	0.	124.59
2723	0.25	3.5	0.	125.57
2724	-3.25	-2.5	0.	123.02
2725	-3.	-2.75	0.	122.78
2726	-3.	-2.25	0.	122.67
2727	-3.5	-2.75	0.	123.6
2728	1.25	-4.5	0.	126.03
2729	1.5	-4.75	0.	125.79
2730	1.5	-6.25	0.	126.05
2731	1.5	-6.75	0.	126.51
2732	1.25	-6.5	0.	126.47
2733	1.75	-6.5	0.	126.24
2734	1.25	-6.	0.	125.86
2735	3.	3.75	0.	126.03
2736	2.75	3.5	0.	126.61
2737	6.	2.75	0.	124.25
2738	5.75	2.5	0.	124.6
2739	4.5	-3.75	0.	127.03
2740	4.75	-3.5	0.	127.43
2741	4.75	-4.	0.	126.77
2742	4.75	-5.5	0.	126.88
2743	4.5	-5.25	0.	126.54
2744	-4.25	-0.5	0.	122.57
2745	-4.5	-0.25001	0.	123.32
2746	-4.	-0.25001	0.	121.9
2747	-6.4991	1.7501	0.	125.15
2748	-6.2489	2.0001	0.	124.8
2749	-6.7489	2.0001	0.	125.25
2750	-6.7493	1.5001	0.	125.43
2751	-6.2494	1.5	0.	125.29
2752	-6.4995	1.2501	0.	125.44
2753	-2.25	-1.5	0.	123.24
2754	-2.5	-1.25	0.	122.46
2755	3.25	-1.	0.	128.09
2756	3.5	-1.25	0.	128.02
2757	1.25	-3.5	0.	126.12
2758	1.	-3.75	0.	126.08
2759	0.75	-3.5	0.	125.9
2760	1.	-3.25	0.	125.5
2761	1.5	-3.25	0.	126.36
2762	1.25	3.5	0.	126.09
2763	1.5	3.25	0.	126.29
2764	1.	3.25	0.	125.15
2765	3.25	1.5	0.	127.36
2766	3.5	1.25	0.	126.91
2767	4.75	-7.	0.	127.01
2768	5.	-7.25	0.	126.9
2769	4.25	-7.	0.	126.87
2770	4.5	-7.25	0.	126.88
2771	3.75	-7.	0.	126.72
2772	4.	-7.25	0.	126.79
2773	3.5	-7.25	0.	126.69
2774	3.25	-7.	0.	126.59
2775	2.5	-7.25	0.	126.6
2776	2.75	-7.	0.	126.51
2777	2.25	-7.	0.	126.51
2778	1.25	-7.	0.	126.93
2779	1.5	-7.25	0.	126.84
2780	1.75	-7.	0.	126.63
2781	7.25	1.	0.	124.39
2782	7.	0.75	0.	124.35
2783	7.	1.25	0.	124.4
2784	7.25	-7.1677e-012	0.	124.13
2785	7.	0.25	0.	124.28
2786	7.	-0.25	0.	124.17
2787	7.	-1.25	0.	123.87
2788	7.25	-1.	0.	123.63
2789	7.	-0.75	0.	124.02
2790	-7.25	-3.5	0.	123.65
2791	-7.	-3.75	0.	122.93
2792	-7.	-3.25	0.	123.63
2793	-6.75	-3.5	0.	123.2
2794	-7.	-2.25	0.	124.62
2795	-7.25	-2.5	0.	124.67
2796	-7.	-2.75	0.	124.19
2797	-7.	-1.75	0.	124.97
2798	-7.25	-2.	0.	125.03
2799	-6.75	-2.	0.	124.66
2800	-7.25	-1.5	0.	125.31
2801	-7.	-1.25	0.	125.25
2802	-7.25	-0.49999	0.	125.7
2803	-7.	-0.24998	0.	125.64
2804	-7.	-0.74999	0.	125.47
2805	-6.9998	0.75006	0.	125.71
2806	-7.2499	0.50006	0.	125.83
2807	-6.9999	0.25004	0.	125.73
2808	-6.9995	1.2501	0.	125.62
2809	-7.2497	1.0001	0.	125.79
2810	-6.7497	1.0001	0.	125.63
2811	-7.2493	1.5001	0.	125.72
2812	-6.9991	1.7501	0.	125.54
2813	-6.998	2.7502	0.	126.04
2814	-7.2483	2.5002	0.	125.99
2815	-6.9986	2.2502	0.	125.62
2816	-6.75	-5.	0.	120.41
2817	-7.	-5.25	0.	119.35
2818	-7.25	-5.	0.	120.88
2819	-5.5	-4.75	0.	122.81
2820	-5.25	-4.5	0.	123.29
2821	-4.75	-4.	0.	124.81
2822	-5.	-4.25	0.	123.96
2823	-2.75	-3.	0.	122.34
2824	-2.5	-3.25	0.	121.38
2825	-3.75	-3.	0.	124.2
2826	-4.	-3.25	0.	125.02
2827	-1.5	-2.75	0.	123.34
2828	-1.25	-3.	0.	123.43
2829	-1.5	-3.25	0.	122.13
2830	1.	-4.25	0.	126.18
2831	0.75	-4.	0.	126.53
2832	1.	-5.75	0.	125.69
2833	0.75	-5.5	0.	125.56
2834	1.	-5.25	0.	125.56
2835	-6.25	-5.	0.	121.18
2836	-6.5	-5.25	0.	120.07
2837	2.25	4.	0.	127.36
2838	2.	4.25	0.	128.11
2839	3.75	4.	0.	124.2
2840	3.25	4.	0.	125.11
2841	3.5	4.25	0.	123.7
2842	5.	3.25	0.	125.73
2843	5.25	3.	0.	125.23
2844	5.25	-3.	0.	128.27
2845	5.	-3.25	0.	127.78
2846	7.	-1.75	0.	123.76
2847	7.25	-1.5	0.	123.26
2848	6.25	-2.	0.	126.2
2849	6.	-2.25	0.	127.36
2850	6.	-7.25	0.	126.16
2851	6.	-6.75	0.	127.
2852	6.25	-7.	0.	125.87
2853	5.	-4.25	0.	126.57
2854	5.25	-4.5	0.	126.41
2855	5.	-4.75	0.	126.46
2856	5.	-5.75	0.	127.24
2857	5.25	-6.	0.	127.75
2858	-4.75	-1.2047e-005	0.	124.08
2859	-4.9999	0.24998	0.	125.12
2860	-3.75	-6.354e-006	0.	121.05
2861	-3.5	0.24999	0.	119.82
2862	-5.9996	1.25	0.	125.48
2863	-5.7497	0.99999	0.	125.91
2864	-6.2497	1.	0.	125.64
2865	-2.	-0.25	0.	123.18
2866	-2.	-0.75	0.	123.38
2867	-1.75	-0.5	0.	124.31
2868	-2.	-1.75	0.	123.7
2869	-1.75	-2.	0.	124.28
2870	-2.	-2.25	0.	123.25
2871	2.75	-2.	0.	129.17
2872	3.	-1.75	0.	128.88
2873	3.	-0.75	0.	128.08
2874	2.75	-0.5	0.	128.2
2875	0.5	-3.25	0.	125.16
2876	0.25	-3.	0.	124.52
2877	0.75	-3.	0.	124.75
2878	0.5	-2.75	0.	123.38
2879	1.75	-3.	0.	126.9
2880	2.	-2.75	0.	127.86
2881	2.25	-3.	0.	127.67
2882	1.75	3.	0.	126.56
2883	2.	2.75	0.	127.37
2884	2.75	0.5	0.	127.8
2885	3.	0.75	0.	127.46
2886	3.	1.75	0.	127.72
2887	2.75	2.	0.	128.07
2888	3.9044e-007	3.75	0.	126.11
2889	-0.25	4.	0.	126.98
2890	1.6442e-007	4.25	0.	126.13
2891	-1.75	-1.2883e-007	0.	124.53
2892	-2.	0.25	0.	123.39
2893	-0.5	4.75	0.	125.44
2894	-0.5	5.25	0.	123.14
2895	-0.75	5.	0.	124.94
2896	-0.25	5.	0.	124.57
2897	-4.25	-3.5	0.	125.31
2898	-4.5	-3.75	0.	125.25
2899	0.5	-3.75	0.	126.35
2900	0.25	-3.5	0.	126.05
2901	1.5	4.75	0.	128.43
2902	1.75	4.5	0.	128.35
2903	1.25	4.5	0.	127.6
2904	0.75	5.	0.	126.69
2905	1.25	5.	0.	128.1
2906	1.	4.75	0.	127.27
2907	1.	5.25	0.	127.53
2908	6.25	3.	0.	123.93
2909	6.5	3.25	0.	123.28
2910	6.75	3.	0.	123.96
2911	-7.2479	3.0002	0.	126.59
2912	-6.9978	3.2501	0.	126.91
2913	-6.7478	3.0002	0.	125.85
2914	7.25	2.5	0.	124.6
2915	7.	2.75	0.	124.27
2916	5.75	-2.5	0.	128.01
2917	5.5	-2.75	0.	128.32
2918	5.5	-6.25	0.	127.86
2919	5.75	-6.5	0.	127.57
2920	-5.4998	0.74998	0.	125.95
2921	-5.2499	0.49998	0.	125.68
2922	-0.5	4.25	0.	127.01
2923	-0.75	4.5	0.	127.02
2924	-0.25	4.5	0.	126.17
2925	-1.5	-2.25	0.	124.45
2926	-1.25	-2.5	0.	124.43
2927	-1.75	-2.5	0.	123.41
2928	2.25	-2.5	0.	128.5
2929	2.5	-2.25	0.	129.07
2930	2.5	-2.75	0.	128.31
2931	0.75	3.	0.	124.26
2932	0.5	2.75	0.	122.93
2933	0.25	3.	0.	124.27
2934	2.5	2.25	0.	128.14
2935	2.25	2.5	0.	127.74
2936	1.	-6.75	0.	126.89
2937	1.	-7.25	0.	127.19
2938	0.75	-7.	0.	127.49
2939	4.5	3.75	0.	125.22
2940	4.75	3.5	0.	125.72
2941	4.25	3.5	0.	125.31
2942	4.25	4.	0.	124.48
2943	4.	4.25	0.	123.
2944	4.	3.75	0.	124.56
2945	-2.	-3.75	0.	119.28
2946	-1.75	-3.5	0.	120.86
2947	-2.25	-3.5	0.	120.55
2948	-7.	-5.75	0.	117.17
2949	-7.25	-5.5	0.	119.31
2950	-6.75	-5.5	0.	119.
2951	-3.	0.75	0.	117.72
2952	-2.75	0.5	0.	119.37
2953	-3.25	0.5	0.	118.95
2954	2.25	-9.0062e-012	0.	129.22
2955	2.5	0.25	0.	128.26
2956	2.5	-0.25	0.	128.45
2957	0.5	5.25	0.	125.79
2958	0.25	5.	0.	125.32
2959	0.5	4.75	0.	126.09
2960	-4.75	-5.	0.	123.32
2961	-5.	-5.25	0.	122.91
2962	-5.25	-5.	0.	122.89
2963	-5.	-4.75	0.	123.37
2964	-3.25	-3.	0.	123.36
2965	-3.	-3.25	0.	122.91
2966	-3.5	-3.25	0.	124.42
2967	-0.75	-3.	0.	124.49
2968	-1.	-2.75	0.	124.53
2969	-1.	-3.25	0.	124.04
2970	0.75	-4.5	0.	126.47
2971	1.	-4.75	0.	125.88
2972	1.	-6.25	0.	126.28
2973	0.75	-6.5	0.	127.05
2974	0.75	-6.	0.	126.12
2975	-6.	-5.25	0.	122.02
2976	-5.75	-5.	0.	122.27
2977	2.75	4.	0.	126.46
2978	2.5	4.25	0.	127.49
2979	2.5	3.75	0.	127.04
2980	3.	4.25	0.	125.69
2981	6.	3.25	0.	124.01
2982	5.75	3.	0.	124.56
2983	5.25	-4.	0.	126.94
2984	5.	-3.75	0.	127.17
2985	6.75	-2.	0.	124.65
2986	7.25	-2.	0.	122.84
2987	7.	-2.25	0.	123.81
2988	6.5	-2.25	0.	126.07
2989	7.25	-7.	0.	122.51
2990	7.	-7.25	0.	123.46
2991	7.	-6.75	0.	123.48
2992	6.75	-7.	0.	124.33
2993	5.25	-5.5	0.	127.48
2994	5.	-5.25	0.	126.82
2995	-4.25	-1.0323e-005	0.	122.65
2996	-4.5	0.24998	0.	123.92
2997	-4.	0.24999	0.	121.84
2998	-5.9992	1.75	0.	124.93
2999	-5.7491	2.	0.	124.6
3000	-5.9988	2.2501	0.	124.38
3001	-5.7494	1.5	0.	125.52
3002	-0.25	-3.	0.	124.74
3003	-0.5	-3.25	0.	125.32
3004	-0.5	-2.75	0.	124.8
3005	8.9798e-011	-3.25	0.	125.42
3006	1.5046e-010	-2.75	0.	123.92
3007	-2.	-1.25	0.	123.67
3008	-1.75	-1.	0.	124.48
3009	-2.25	-1.	0.	122.9
3010	-1.75	-1.5	0.	124.65
3011	2.75	-1.	0.	128.78
3012	3.	-1.25	0.	128.61
3013	1.25	-3.	0.	125.73
3014	1.	-2.75	0.	124.53
3015	1.5	-2.75	0.	126.5
3016	1.25	3.	0.	125.35
3017	1.5	2.75	0.	126.11
3018	1.	2.75	0.	124.07
3019	2.75	1.5	0.	128.27
3020	3.	1.25	0.	127.66
3021	3.7755e-007	3.25	0.	125.26
3022	-0.25	3.5	0.	126.72
3023	-1.25	-4.7563e-008	0.	127.51
3024	-1.5	-0.25	0.	125.66
3025	-1.5	0.25	0.	126.56
3026	-1.	-0.25	0.	128.49
3027	-1.	0.25	0.	129.51
3028	-0.75	-2.1724e-008	0.	132.
3029	2.	0.25	0.	129.86
3030	2.	-0.25	0.	130.01
3031	1.75	2.5359e-011	0.	132.7
3032	-2.75	1.	0.	118.08
3033	-3.25	0.99999	0.	117.5
3034	-3.	1.25	0.	116.88
3035	-7.25	-6.	0.	117.13
3036	-6.75	-6.	0.	117.07
3037	-7.	-6.25	0.	115.22
3038	-2.25	-4.	0.	118.98
3039	-1.75	-4.	0.	119.23
3040	-2.	-4.25	0.	118.28
3041	4.5	4.25	0.	124.31
3042	4.75	4.	0.	125.94
3043	-2.	-7.25	0.	119.47
3044	-2.25	-7.	0.	119.86
3045	-2.	-6.75	0.	118.64
3046	-1.75	-7.	0.	119.29
3047	-2.5	0.75	0.	119.75
3048	-2.25	0.5	0.	121.92
3049	3.75	4.5	0.	122.49
3050	4.25	4.5	0.	122.83
3051	4.	4.75	0.	120.7
3052	7.5	-7.25	0.	122.
3053	7.5	-6.75	0.	121.15
3054	7.75	-7.	0.	121.21
3055	7.25	-7.5	0.	122.94
3056	7.5	-7.75	0.	122.67
3057	7.75	-7.5	0.	122.12
3058	7.	-7.75	0.	123.61
3059	6.75	-7.5	0.	124.16
3060	5.75	-7.5	0.	126.14
3061	6.	-7.75	0.	125.64
3062	6.25	-7.5	0.	125.31
3063	5.25	-7.5	0.	126.59
3064	5.5	-7.75	0.	126.26
3065	4.75	-7.5	0.	126.77
3066	5.	-7.75	0.	126.59
3067	4.25	-7.5	0.	126.8
3068	4.5	-7.75	0.	126.73
3069	3.75	-7.5	0.	126.76
3070	4.	-7.75	0.	126.76
3071	3.25	-7.5	0.	126.72
3072	3.5	-7.75	0.	126.75
3073	2.75	-7.5	0.	126.7
3074	3.	-7.75	0.	126.75
3075	3.	-7.25	0.	126.62
3076	2.25	-7.5	0.	126.74
3077	2.5	-7.75	0.	126.77
3078	1.75	-7.5	0.	126.87
3079	2.	-7.75	0.	126.84
3080	2.	-7.25	0.	126.66
3081	1.25	-7.5	0.	127.1
3082	1.5	-7.75	0.	126.98
3083	0.75	-7.5	0.	127.39
3084	1.	-7.75	0.	127.16
3085	0.25	-7.5	0.	127.51
3086	0.5	-7.25	0.	127.68
3087	0.5	-7.75	0.	127.29
3088	-2.25	-7.5	0.	121.23
3089	-1.75	-7.5	0.	120.75
3090	-2.	-7.75	0.	121.14
3091	-2.75	-7.5	0.	124.11
3092	-2.5	-7.25	0.	121.64
3093	-2.5	-7.75	0.	122.72
3094	2.5	1.75	0.	128.62
3095	2.25	2.	0.	128.73
3096	2.25	0.5	0.	128.9
3097	2.5	0.75	0.	128.36
3098	0.75	2.5	0.	122.72
3099	0.25	2.5	0.	122.59
3100	0.5	2.25	0.	120.37
3101	1.75	2.5	0.	126.91
3102	2.	2.25	0.	128.33
3103	1.75	-2.5	0.	127.46
3104	2.	-2.25	0.	128.99
3105	2.5	-0.75	0.	128.9
3106	2.25	-0.5	0.	129.23
3107	2.5	-1.75	0.	129.55
3108	2.25	-2.	0.	129.56
3109	-1.5	-1.75	0.	125.23
3110	-1.25	-2.	0.	125.7
3111	-1.5	-0.75	0.	125.4
3112	-1.25	-0.5	0.	126.63
3113	0.25	-2.5	0.	122.76
3114	0.5	-2.25	0.	120.62
3115	0.75	-2.5	0.	123.14
3116	-0.75	-2.5	0.	124.85
3117	-1.	-2.25	0.	125.69
3118	-0.5	3.75	0.	127.58
3119	-0.75	4.	0.	128.6
3120	2.4029e-007	2.75	0.	123.95
3121	-0.25	3.	0.	125.58
3122	-5.4996	1.25	0.	125.94
3123	-5.2498	0.99997	0.	126.46
3124	-5.4986	2.7501	0.	123.91
3125	-5.2489	2.5	0.	123.84
3126	-5.499	2.25	0.	124.23
3127	-5.7486	2.5001	0.	124.
3128	-3.5	0.74999	0.	118.75
3129	-3.75	0.49999	0.	120.62
3130	-4.9999	0.74997	0.	126.2
3131	-4.7499	0.49998	0.	124.96
3132	5.5	-5.75	0.	127.98
3133	5.75	-6.	0.	128.48
3134	7.75	-6.5	0.	120.01
3135	7.5	-6.25	0.	120.1
3136	7.25	-6.5	0.	122.12
3137	6.	-6.25	0.	128.2
3138	6.25	-6.5	0.	126.87
3139	6.25	-2.5	0.	127.24
3140	6.	-2.75	0.	128.57
3141	7.5	2.25	0.	124.75
3142	7.75	2.5	0.	125.07
3143	7.5	2.75	0.	125.
3144	7.5	1.75	0.	124.6
3145	7.75	2.	0.	124.81
3146	7.5	1.25	0.	124.47
3147	7.75	1.5	0.	124.63
3148	7.25	1.5	0.	124.47
3149	7.5	0.75	0.	124.33
3150	7.75	1.	0.	124.47
3151	7.5	0.25	0.	124.14
3152	7.75	0.5	0.	124.28
3153	7.25	0.5	0.	124.29
3154	7.75	-4.3524e-012	0.	124.04
3155	7.5	-0.25	0.	123.88
3156	7.5	-1.25	0.	123.02
3157	7.75	-1.	0.	123.21
3158	7.5	-0.75	0.	123.52
3159	7.5	-1.75	0.	122.35
3160	7.75	-1.5	0.	122.52
3161	7.5	-2.25	0.	121.49
3162	7.75	-2.	0.	121.58
3163	7.25	-2.5	0.	122.46
3164	7.5	-2.75	0.	120.41
3165	7.75	-2.5	0.	120.33
3166	5.5	-4.25	0.	126.77
3167	5.75	-4.5	0.	126.47
3168	5.5	-4.75	0.	126.7
3169	5.75	-3.	0.	128.88
3170	5.5	-3.25	0.	128.36
3171	-7.5	-5.25	0.	120.86
3172	-7.5	-5.75	0.	119.31
3173	-7.75	-5.5	0.	122.13
3174	-7.5	-4.75	0.	122.02
3175	-7.75	-5.	0.	122.77
3176	-7.75	-4.5	0.	123.4
3177	-7.5	-4.25	0.	122.92
3178	-7.5	-3.25	0.	124.24
3179	-7.75	-3.5	0.	124.48
3180	-7.5	-3.75	0.	123.65
3181	-7.5	-2.75	0.	124.71
3182	-7.75	-3.	0.	124.9
3183	-7.25	-3.	0.	124.22
3184	-7.5	-2.25	0.	125.08
3185	-7.75	-2.5	0.	125.24
3186	-7.5	-1.75	0.	125.37
3187	-7.75	-2.	0.	125.5
3188	-7.5	-1.25	0.	125.59
3189	-7.75	-1.5	0.	125.71
3190	-7.5	-0.74999	0.	125.75
3191	-7.75	-0.99999	0.	125.86
3192	-7.25	-0.99999	0.	125.53
3193	-7.5	-0.24997	0.	125.86
3194	-7.75	-0.49998	0.	125.96
3195	-7.4999	0.25005	0.	125.91
3196	-7.7499	4.5293e-005	0.	126.02
3197	-7.2499	3.2051e-005	0.	125.8
3198	-7.4998	0.75009	0.	125.9
3199	-7.7498	0.50008	0.	126.03
3200	-7.4995	1.2501	0.	125.88
3201	-7.7497	1.0001	0.	126.
3202	-7.4991	1.7502	0.	125.91
3203	-7.7494	1.5002	0.	126.
3204	-7.4987	2.2502	0.	126.1
3205	-7.749	2.0002	0.	126.1
3206	-7.2489	2.0002	0.	125.73
3207	-7.4983	2.7502	0.	126.54
3208	-7.7486	2.5002	0.	126.37
3209	-7.4981	3.2501	0.	127.24
3210	-7.7484	3.0001	0.	126.86
3211	-7.4982	3.75	0.	128.05
3212	-7.2479	3.5001	0.	127.56
3213	-7.7484	3.5001	0.	127.5
3214	-7.4985	4.25	0.	128.58
3215	-7.2482	4.	0.	128.76
3216	-7.7484	4.	0.	128.07
3217	-7.4997	5.75	0.	127.35
3218	-7.2499	6.	0.	127.79
3219	-7.4999	6.25	0.	127.38
3220	-7.7498	6.	0.	127.02
3221	-7.2497	5.5	0.	128.06
3222	-7.7496	5.4999	0.	127.18
3223	-7.4994	5.25	0.	127.83
3224	-6.9979	3.7501	0.	128.27
3225	-6.7478	3.5001	0.	126.85
3226	-6.248	3.0001	0.	124.81
3227	-6.4978	3.2501	0.	125.79
3228	5.	3.75	0.	126.44
3229	5.25	3.5	0.	125.73
3230	6.75	3.5	0.	123.37
3231	6.25	3.5	0.	123.36
3232	6.5	3.75	0.	121.79
3233	7.	3.25	0.	124.06
3234	7.25	3.	0.	124.68
3235	1.5	5.25	0.	128.86
3236	1.75	5.	0.	129.39
3237	3.25	4.5	0.	124.28
3238	3.5	4.75	0.	122.07
3239	2.	4.75	0.	129.31
3240	2.25	4.5	0.	128.23
3241	-6.25	-5.5	0.	120.92
3242	-6.5	-5.75	0.	118.93
3243	-0.25	-7.5	0.	126.9
3244	3.592e-011	-7.75	0.	127.04
3245	4.3435e-011	-7.25	0.	128.1
3246	-1.25	-7.5	0.	122.51
3247	-1.5	-7.75	0.	121.77
3248	-1.5	-7.25	0.	120.6
3249	0.25	-7.	0.	128.27
3250	0.5	-6.75	0.	127.64
3251	0.5	-4.25	0.	126.82
3252	0.25	-4.	0.	127.34
3253	0.5	-5.75	0.	125.99
3254	0.25	-5.5	0.	125.75
3255	0.5	-5.25	0.	125.85
3256	-1.25	-3.5	0.	122.73
3257	-1.5	-3.75	0.	120.83
3258	-0.25	-3.5	0.	125.99
3259	6.5322e-011	-3.75	0.	127.04
3260	-3.75	-3.5	0.	125.23
3261	-4.	-3.75	0.	126.2
3262	-2.5	-3.75	0.	120.27
3263	-2.75	-3.5	0.	121.95
3264	-4.5	-5.25	0.	122.82
3265	-4.75	-5.5	0.	122.42
3266	-4.5	-5.75	0.	120.99
3267	-4.25	-5.5	0.	122.75
3268	-4.5	-4.25	0.	125.21
3269	-4.25	-4.	0.	126.14
3270	-1.25	4.5	0.	128.01
3271	-0.99999	4.25	0.	128.61
3272	-1.	4.75	0.	126.54
3273	-0.25001	5.5	0.	122.43
3274	-0.75001	5.5	0.	122.6
3275	-0.50001	5.75	0.	119.97
3276	-4.4079e-006	5.75	0.	122.17
3277	0.25	5.5	0.	124.35
3278	-3.0445e-006	5.25	0.	123.88
3279	-1.25	5.5	0.	124.76
3280	-1.5	5.25	0.	126.48
3281	-1.75	5.5	0.	127.1
3282	-1.5	5.75	0.	126.63
3283	-1.	5.75	0.	122.54
3284	-1.	5.25	0.	124.43
3285	-4.5	-4.75	0.	124.31
3286	-4.25	-4.5	0.	126.21
3287	-4.75	-4.5	0.	124.36
3288	-4.25	-5.	0.	124.71
3289	-3.5	-3.75	0.	125.91
3290	-3.25	-3.5	0.	123.97
3291	-0.75	-3.5	0.	124.87
3292	-0.5	-3.75	0.	126.81
3293	-1.	-3.75	0.	124.17
3294	0.25	-4.5	0.	127.72
3295	0.5	-4.75	0.	126.43
3296	0.25	-6.	0.	127.
3297	0.5	-6.25	0.	126.89
3298	-0.5	-7.75	0.	125.91
3299	-0.5	-7.25	0.	127.27
3300	-0.75	-7.5	0.	125.07
3301	-5.25	-5.5	0.	123.23
3302	-5.	-5.75	0.	123.07
3303	-6.	-5.75	0.	123.1
3304	-5.75	-5.5	0.	122.96
3305	1.5	6.75	0.	128.02
3306	1.5	6.25	0.	128.17
3307	1.75	6.5	0.	127.68
3308	1.25	6.5	0.	128.43
3309	1.75	7.	0.	128.36
3310	1.25	7.	0.	128.57
3311	1.5	7.25	0.	128.25
3312	3.	4.75	0.	125.65
3313	2.75	4.5	0.	126.72
3314	1.5	5.75	0.	128.65
3315	1.25	6.	0.	128.28
3316	1.75	6.	0.	128.8
3317	1.75	5.5	0.	129.75
3318	1.25	5.5	0.	128.28
3319	7.25	3.5	0.	124.86
3320	7.	3.75	0.	123.68
3321	7.75	3.5	0.	126.27
3322	7.5	3.75	0.	126.64
3323	7.5	3.25	0.	125.48
3324	6.	3.75	0.	123.77
3325	5.75	3.5	0.	124.69
3326	-5.748	3.5001	0.	124.25
3327	-5.998	3.7501	0.	124.09
3328	-5.998	3.2501	0.	124.32
3329	-6.2478	3.5001	0.	125.31
3330	-7.2487	4.5	0.	129.44
3331	-7.7488	4.4999	0.	128.18
3332	-7.499	4.75	0.	128.44
3333	5.75	-4.	0.	127.65
3334	5.5	-3.75	0.	127.63
3335	6.75	-2.5	0.	125.24
3336	7.	-2.75	0.	124.19
3337	6.5	-2.75	0.	127.57
3338	5.75	-5.5	0.	128.67
3339	5.5	-5.25	0.	127.41
3340	-5.4993	1.75	0.	125.18
3341	-5.2496	1.5	0.	126.49
3342	-0.75	3.5	0.	128.99
3343	-0.5	3.25	0.	127.05
3344	-0.25	-2.5	0.	123.98
3345	-0.5	-2.25	0.	125.45
3346	4.2472e-010	-2.25	0.	122.52
3347	-1.5	-1.25	0.	125.45
3348	-1.25	-1.	0.	126.63
3349	-1.25	-1.5	0.	126.6
3350	2.5	-1.25	0.	129.42
3351	2.25	-1.5	0.	130.2
3352	2.75	-1.5	0.	129.26
3353	2.25	-1.	0.	129.83
3354	1.5	-2.25	0.	127.32
3355	1.25	-2.5	0.	125.3
3356	1.25	2.5	0.	124.83
3357	1.5	2.25	0.	126.89
3358	1.	2.25	0.	122.94
3359	2.25	1.5	0.	129.41
3360	2.5	1.25	0.	128.62
3361	-3.	-7.75	0.	126.32
3362	-3.	-7.25	0.	126.62
3363	-3.25	-7.5	0.	129.39
3364	-7.75	-6.	0.	121.5
3365	-7.5	-6.25	0.	116.64
3366	-2.75	-4.	0.	121.6
3367	-2.5	-4.25	0.	118.52
3368	-6.9998	5.75	0.	128.49
3369	-6.7497	5.5	0.	130.49
3370	-6.9995	5.25	0.	129.14
3371	7.75	-3.	0.	118.83
3372	7.25	-3.	0.	122.15
3373	7.5	-3.25	0.	118.55
3374	-2.5	1.25	0.	118.15
3375	-2.25	1.	0.	122.01
3376	-1.	-0.75	0.	127.86
3377	-0.75	-0.5	0.	130.22
3378	1.75	0.5	0.	131.6
3379	2.	0.75	0.	129.76
3380	-1.5	4.75	0.	127.62
3381	-1.75	5.	0.	127.4
3382	-1.25	5.	0.	126.15
3383	-5.4983	3.2501	0.	124.05
3384	-5.7483	3.0001	0.	124.12
3385	-5.2487	3.0001	0.	124.7
3386	-5.4983	3.7501	0.	123.07
3387	-5.2484	3.5001	0.	125.54
3388	-6.9999	6.25	0.	127.75
3389	-6.7499	6.	0.	130.88
3390	-7.7499	6.5	0.	127.57
3391	-7.2499	6.5	0.	127.35
3392	-7.5	6.75	0.	128.46
3393	-2.75	-7.	0.	124.15
3394	-2.5	-6.75	0.	119.97
3395	-4.25	-6.	0.	121.98
3396	-4.5	-6.25	0.	116.5
3397	-4.75	-6.	0.	121.64
3398	7.25	-8.	0.	123.33
3399	7.75	-8.	0.	122.79
3400	7.5	-8.25	0.	123.16
3401	6.75	-8.	0.	124.17
3402	7.	-8.25	0.	123.81
3403	6.25	-8.	0.	125.04
3404	6.5	-8.25	0.	124.61
3405	6.5	-7.75	0.	124.71
3406	5.75	-8.	0.	125.76
3407	6.	-8.25	0.	125.36
3408	5.25	-8.	0.	126.26
3409	5.5	-8.25	0.	125.95
3410	4.75	-8.	0.	126.55
3411	5.	-8.25	0.	126.34
3412	4.25	-8.	0.	126.69
3413	4.5	-8.25	0.	126.58
3414	3.75	-8.	0.	126.76
3415	4.	-8.25	0.	126.71
3416	3.25	-8.	0.	126.79
3417	3.5	-8.25	0.	126.78
3418	2.75	-8.	0.	126.82
3419	3.	-8.25	0.	126.82
3420	2.25	-8.	0.	126.87
3421	2.5	-8.25	0.	126.87
3422	2.	-8.25	0.	126.92
3423	1.75	-8.	0.	126.95
3424	0.25	-8.	0.	126.82
3425	0.5	-8.25	0.	126.85
3426	0.75	-8.	0.	127.07
3427	-0.25	-8.	0.	126.05
3428	2.4163e-011	-8.25	0.	126.37
3429	-0.75	-8.	0.	124.68
3430	-0.5	-8.25	0.	125.39
3431	-1.	-8.25	0.	124.06
3432	-1.	-7.75	0.	123.83
3433	-1.25	-8.	0.	123.09
3434	-2.25	-8.	0.	122.62
3435	-2.	-8.25	0.	122.76
3436	-1.75	-8.	0.	122.14
3437	-2.75	-8.	0.	124.93
3438	-2.5	-8.25	0.	124.
3439	-3.	-8.25	0.	126.66
3440	-3.25	-8.	0.	129.87
3441	8.	-6.25	0.	118.5
3442	7.75	-6.	0.	118.57
3443	8.25	-6.	0.	118.38
3444	8.	-5.75	0.	117.7
3445	8.	-6.75	0.	120.08
3446	8.25	-6.5	0.	119.84
3447	8.	-7.25	0.	121.34
3448	8.25	-7.	0.	121.1
3449	8.	-7.75	0.	122.25
3450	8.25	-7.5	0.	122.06
3451	8.	-8.25	0.	122.87
3452	8.25	-8.	0.	122.72
3453	8.	7.75	0.	125.9
3454	7.75	7.5	0.	125.8
3455	8.	7.25	0.	126.72
3456	8.25	7.5	0.	126.09
3457	8.	3.25	0.	126.29
3458	8.	3.75	0.	127.4
3459	8.25	3.5	0.	126.67
3460	8.	2.75	0.	125.57
3461	8.25	3.	0.	125.92
3462	7.75	3.	0.	125.5
3463	8.	2.25	0.	125.13
3464	8.25	2.5	0.	125.41
3465	8.	1.75	0.	124.84
3466	8.25	2.	0.	125.07
3467	8.	1.25	0.	124.63
3468	8.25	1.5	0.	124.83
3469	8.	0.75	0.	124.43
3470	8.25	1.	0.	124.63
3471	8.	0.25	0.	124.19
3472	8.25	0.5	0.	124.42
3473	8.25	-2.4787e-012	0.	124.16
3474	8.	-0.25	0.	123.86
3475	8.	-1.25	0.	122.72
3476	8.25	-1.	0.	123.29
3477	8.	-0.75	0.	123.39
3478	8.	-1.75	0.	121.76
3479	8.25	-1.5	0.	122.56
3480	8.	-2.25	0.	120.44
3481	8.25	-2.	0.	121.53
3482	8.	-2.75	0.	118.78
3483	8.25	-2.5	0.	120.18
3484	8.25	-3.	0.	118.62
3485	8.	-3.25	0.	117.9
3486	1.25	8.	0.	128.92
3487	1.	7.75	0.	129.42
3488	1.	8.25	0.	129.19
3489	0.75	8.	0.	132.49
3490	1.75	8.	0.	128.25
3491	1.5	8.25	0.	127.72
3492	1.5	7.75	0.	128.28
3493	3.75	8.	0.	119.95
3494	3.5	8.25	0.	121.4
3495	3.5	7.75	0.	119.31
3496	3.25	8.	0.	122.64
3497	4.25	8.	0.	120.14
3498	4.	7.75	0.	119.16
3499	4.	8.25	0.	120.26
3500	7.25	8.	0.	125.05
3501	7.	7.75	0.	124.38
3502	7.	8.25	0.	125.03
3503	6.75	8.	0.	125.09
3504	7.75	8.	0.	125.43
3505	7.5	7.75	0.	125.33
3506	7.5	8.25	0.	125.23
3507	8.25	8.	0.	125.6
3508	8.	8.25	0.	125.47
3509	7.25	7.5	0.	124.66
3510	7.5	7.25	0.	126.01
3511	6.75	7.5	0.	123.83
3512	7.	7.25	0.	123.23
3513	6.5	7.25	0.	121.93
3514	6.25	7.5	0.	125.32
3515	6.5	7.75	0.	124.54
3516	4.5	4.75	0.	122.47
3517	4.75	4.5	0.	125.58
3518	1.	7.25	0.	129.11
3519	0.75	7.5	0.	131.05
3520	1.25	7.5	0.	128.79
3521	0.75	6.	0.	127.33
3522	1.	6.25	0.	128.53
3523	1.	5.75	0.	127.91
3524	-0.75001	6.	0.	119.87
3525	-0.25001	6.	0.	119.66
3526	-0.50001	6.25	0.	114.23
3527	-2.	5.75	0.	129.02
3528	-2.	6.25	0.	130.34
3529	-1.75	6.	0.	128.53
3530	-2.25	6.	0.	132.16
3531	-4.	-5.25	0.	124.64
3532	-4.	-5.75	0.	123.76
3533	-3.75	-5.5	0.	126.49
3534	-3.75	-4.	0.	126.88
3535	-4.	-4.25	0.	127.13
3536	-1.25	-4.	0.	122.26
3537	-1.5	-4.25	0.	118.8
3538	4.5407e-011	-4.25	0.	128.23
3539	-0.25	-4.	0.	127.84
3540	2.7042e-011	-5.75	0.	126.76
3541	-0.25	-5.5	0.	127.87
3542	2.5233e-011	-5.25	0.	126.62
3543	-0.25	-7.	0.	128.46
3544	4.2383e-011	-6.75	0.	128.92
3545	-6.25	-6.	0.	121.12
3546	-6.5	-6.25	0.	116.67
3547	-8.	-5.25	0.	124.05
3548	-8.25	-5.5	0.	125.95
3549	-8.	-5.75	0.	124.32
3550	-8.	-4.75	0.	124.15
3551	-8.25	-5.	0.	125.39
3552	-8.	-4.25	0.	124.45
3553	-8.25	-4.5	0.	125.29
3554	-8.	-3.75	0.	124.8
3555	-8.25	-4.	0.	125.4
3556	-7.75	-4.	0.	123.97
3557	-8.	-3.25	0.	125.14
3558	-8.25	-3.5	0.	125.59
3559	-8.	-2.75	0.	125.43
3560	-8.25	-3.	0.	125.78
3561	-8.	-2.25	0.	125.67
3562	-8.25	-2.5	0.	125.94
3563	-8.	-1.75	0.	125.85
3564	-8.25	-2.	0.	126.07
3565	-8.	-1.25	0.	125.98
3566	-8.25	-1.5	0.	126.16
3567	-8.	-0.74998	0.	126.07
3568	-8.25	-0.99999	0.	126.23
3569	-7.9999	-0.24996	0.	126.12
3570	-8.25	-0.49997	0.	126.26
3571	-7.9999	0.25007	0.	126.13
3572	-8.2499	5.7618e-005	0.	126.26
3573	-7.9998	0.7501	0.	126.13
3574	-8.2498	0.50009	0.	126.25
3575	-7.9995	1.2501	0.	126.13
3576	-8.2497	1.0001	0.	126.23
3577	-7.9992	1.7502	0.	126.19
3578	-8.2495	1.5001	0.	126.24
3579	-7.9989	2.2502	0.	126.37
3580	-8.2492	2.0002	0.	126.32
3581	-7.9987	2.7501	0.	126.69
3582	-8.2489	2.5001	0.	126.51
3583	-8.2488	3.0001	0.	126.81
3584	-7.9986	3.2501	0.	127.12
3585	-7.9995	5.2499	0.	127.06
3586	-8.2494	4.9999	0.	126.92
3587	-7.9991	4.7499	0.	127.47
3588	-7.7493	4.9999	0.	127.72
3589	-7.9997	5.7499	0.	126.85
3590	-8.2497	5.4999	0.	126.59
3591	-7.9999	6.25	0.	127.21
3592	-8.2498	6.	0.	126.61
3593	-8.	6.75	0.	128.32
3594	-8.2499	6.5	0.	127.19
3595	-8.	7.25	0.	129.55
3596	-8.25	7.	0.	128.21
3597	-7.75	7.	0.	129.21
3598	2.	6.75	0.	128.02
3599	2.25	6.5	0.	129.16
3600	2.	6.25	0.	128.3
3601	2.25	8.	0.	128.19
3602	2.	8.25	0.	127.64
3603	2.	7.75	0.	128.87
3604	4.75	8.	0.	123.04
3605	4.5	7.75	0.	119.84
3606	4.5	8.25	0.	121.64
3607	5.75	8.	0.	127.49
3608	6.	8.25	0.	126.62
3609	6.	7.75	0.	126.97
3610	6.25	8.	0.	126.19
3611	3.25	5.	0.	123.45
3612	3.5	5.25	0.	119.61
3613	3.75	5.	0.	120.25
3614	2.	5.25	0.	130.29
3615	2.25	5.	0.	129.82
3616	-2.	5.25	0.	128.03
3617	-2.25	5.5	0.	129.85
3618	-3.2508	8.	0.	119.74
3619	-3.5009	8.25	0.	119.53
3620	-3.5006	7.75	0.	114.73
3621	-3.7508	8.	0.	120.24
3622	-2.0004	7.7501	0.	130.89
3623	-2.2506	8.	0.	128.7
3624	-2.0004	8.25	0.	129.48
3625	-1.7503	8.	0.	133.39
3626	7.75	4.	0.	127.77
3627	8.25	4.	0.	127.58
3628	8.	4.25	0.	128.43
3629	6.25	4.	0.	122.19
3630	6.75	4.	0.	122.08
3631	6.5	4.25	0.	117.7
3632	5.25	4.	0.	127.11
3633	5.	4.25	0.	127.2
3634	8.	6.75	0.	127.56
3635	8.25	7.	0.	126.79
3636	7.75	7.	0.	126.92
3637	-5.2486	4.0001	0.	124.52
3638	-5.7483	4.0001	0.	122.87
3639	-5.4988	4.2501	0.	118.04
3640	-6.9984	4.25	0.	129.62
3641	-6.7481	4.0001	0.	128.56
3642	-3.7496	4.	0.	119.08
3643	-3.4997	3.75	0.	115.09
3644	-3.4997	4.25	0.	112.34
3645	-3.2498	4.	0.	115.83
3646	6.	-4.75	0.	127.3
3647	6.	-4.25	0.	127.34
3648	6.25	-4.5	0.	128.36
3649	6.25	-3.	0.	128.89
3650	6.	-3.25	0.	129.45
3651	7.25	-6.	0.	121.83
3652	7.5	-5.75	0.	118.32
3653	6.	-5.75	0.	129.16
3654	6.25	-6.	0.	128.54
3655	-4.9993	2.25	0.	124.76
3656	-4.7494	2.5	0.	125.76
3657	-4.999	2.75	0.	124.62
3658	-3.7499	0.99999	0.	120.25
3659	-3.5	1.25	0.	116.92
3660	-4.9997	1.25	0.	127.
3661	-4.7498	0.99997	0.	126.49
3662	-0.25	2.5	0.	124.64
3663	9.4679e-008	2.25	0.	122.7
3664	-0.75	2.5	0.	126.87
3665	-0.5	2.25	0.	126.87
3666	-0.5	2.75	0.	126.27
3667	-1.	2.75	0.	128.41
3668	-1.25	2.5	0.	129.67
3669	-1.	2.25	0.	129.08
3670	-1.75	4.5	0.	128.25
3671	-1.5	4.25	0.	129.41
3672	-0.99999	3.75	0.	130.
3673	-1.25	4.	0.	130.02
3674	0.75	-2.	0.	120.7
3675	0.25	-2.	0.	120.34
3676	0.5	-1.75	0.	114.98
3677	-1.	-1.75	0.	127.07
3678	-0.75	-2.	0.	126.28
3679	2.	-0.75	0.	130.16
3680	1.75	-0.5	0.	131.65
3681	1.75	-2.	0.	128.84
3682	2.	-1.75	0.	130.21
3683	0.25	2.	0.	120.43
3684	0.75	2.	0.	120.55
3685	0.5	1.75	0.	114.99
3686	2.	1.75	0.	129.52
3687	1.75	2.	0.	128.3
3688	-1.75	0.5	0.	125.42
3689	-2.	0.75	0.	124.17
3690	-1.25	0.5	0.	128.55
3691	-1.5	0.75	0.	128.52
3692	-1.	0.75	0.	130.93
3693	-0.75	0.5	0.	131.87
3694	-0.25	2.	0.	124.93
3695	4.2635e-008	1.75	0.	122.5
3696	-0.5	1.75	0.	130.1
3697	-0.75	2.	0.	129.09
3698	-1.25	1.	0.	130.89
3699	-0.75	1.	0.	132.16
3700	-1.	1.25	0.	132.41
3701	1.75	1.5	0.	130.76
3702	2.	1.25	0.	130.
3703	1.25	2.	0.	125.01
3704	1.5	1.75	0.	129.56
3705	1.	1.75	0.	122.81
3706	1.25	-2.	0.	125.29
3707	1.	-1.75	0.	122.69
3708	1.	-2.25	0.	123.26
3709	1.5	-1.75	0.	129.9
3710	1.75	-1.	0.	130.94
3711	2.	-1.25	0.	130.61
3712	-1.	-1.25	0.	127.77
3713	-0.75	-1.	0.	128.8
3714	-0.75	-1.5	0.	128.85
3715	-0.25	-2.	0.	123.99
3716	-0.5	-1.75	0.	128.08
3717	1.5422e-009	-1.75	0.	122.14
3718	-1.	3.25	0.	129.75
3719	-1.25	3.	0.	130.86
3720	-0.75	3.	0.	127.82
3721	-1.25	3.5	0.	132.17
3722	-2.2499	4.	0.	124.87
3723	-2.	3.75	0.	127.62
3724	-2.	4.25	0.	127.82
3725	-1.75	4.	0.	128.99
3726	-1.5	1.25	0.	132.
3727	-1.75	1.	0.	127.27
3728	-4.7496	2.	0.	127.07
3729	-5.2493	2.	0.	125.16
3730	-4.9995	1.75	0.	126.45
3731	-3.9999	1.25	0.	123.1
3732	-4.2499	0.99997	0.	124.27
3733	-3.9999	0.74998	0.	122.11
3734	-4.9987	3.7501	0.	127.
3735	-4.7489	3.5001	0.	128.86
3736	-4.9988	3.2501	0.	126.18
3737	6.	-5.25	0.	128.79
3738	6.25	-5.	0.	129.46
3739	5.75	-5.	0.	127.54
3740	6.25	-5.5	0.	130.7
3741	7.	-5.75	0.	124.98
3742	7.	-6.25	0.	123.85
3743	6.75	-6.	0.	126.18
3744	6.75	-3.	0.	126.52
3745	7.	-3.25	0.	125.34
3746	6.5	-3.25	0.	130.39
3747	6.25	-4.	0.	129.49
3748	6.	-3.75	0.	128.94
3749	-4.749	4.0001	0.	128.76
3750	-4.9991	4.2501	0.	127.61
3751	-4.2493	4.0001	0.	126.67
3752	-4.4993	4.2501	0.	133.49
3753	-4.4992	3.7501	0.	130.6
3754	-3.9995	3.75	0.	123.54
3755	-3.9996	4.2501	0.	123.22
3756	-6.7487	4.5	0.	131.02
3757	-6.999	4.75	0.	129.92
3758	-5.9985	4.2501	0.	123.85
3759	-6.2481	4.0001	0.	125.93
3760	8.	6.25	0.	127.5
3761	8.25	6.	0.	126.42
3762	7.75	6.	0.	128.32
3763	8.	5.75	0.	126.56
3764	8.25	6.5	0.	127.09
3765	7.75	6.5	0.	129.01
3766	6.75	7.	0.	121.31
3767	7.	6.75	0.	122.88
3768	7.25	7.	0.	124.59
3769	5.75	4.	0.	125.5
3770	5.5	4.25	0.	129.61
3771	5.5	3.75	0.	126.41
3772	6.	4.25	0.	124.51
3773	7.25	4.	0.	125.47
3774	7.	4.25	0.	123.92
3775	7.5	4.25	0.	129.38
3776	8.25	5.	0.	126.98
3777	7.75	5.	0.	129.15
3778	8.	4.75	0.	128.28
3779	8.	5.25	0.	126.88
3780	-2.2503	7.5001	0.	131.06
3781	-1.7502	7.5	0.	132.9
3782	-2.0002	7.2501	0.	131.3
3783	-2.7507	8.	0.	124.05
3784	-2.5007	8.25	0.	126.02
3785	-2.5005	7.75	0.	128.9
3786	-3.0008	8.25	0.	121.7
3787	-3.0006	7.75	0.	121.6
3788	-2.4999	4.25	0.	124.85
3789	-2.4999	3.75	0.	120.19
3790	-2.7499	4.	0.	119.29
3791	-2.25	5.	0.	128.14
3792	-2.	4.75	0.	128.02
3793	2.25	5.5	0.	131.86
3794	2.	5.75	0.	129.9
3795	3.	5.25	0.	126.43
3796	2.75	5.	0.	127.69
3797	5.25	8.	0.	126.49
3798	5.5	7.75	0.	129.93
3799	5.5	8.25	0.	126.96
3800	5.	7.75	0.	126.09
3801	5.	8.25	0.	124.73
3802	2.5	8.25	0.	127.1
3803	2.5	7.75	0.	129.98
3804	2.75	8.	0.	126.33
3805	2.25	7.	0.	129.92
3806	2.	7.25	0.	129.02
3807	-8.25	7.5	0.	128.69
3808	-7.75	7.5	0.	131.83
3809	-8.	7.75	0.	129.4
3810	-5.75	-6.	0.	125.59
3811	-6.	-6.25	0.	125.49
3812	-5.5	-6.25	0.	131.45
3813	-5.5	-5.75	0.	125.47
3814	-5.25	-6.	0.	125.31
3815	-0.75	-7.	0.	126.28
3816	-1.	-6.75	0.	125.19
3817	-1.	-7.25	0.	124.08
3818	-1.25	-7.	0.	122.17
3819	-0.5	-6.75	0.	130.05
3820	3.4892e-011	-6.25	0.	128.4
3821	-0.25	-6.5	0.	130.5
3822	0.25	-6.5	0.	128.3
3823	-0.25	-6.	0.	129.1
3824	-0.25	-4.5	0.	130.05
3825	3.14e-011	-4.75	0.	127.99
3826	-0.75	-4.	0.	126.1
3827	-0.5	-4.25	0.	129.68
3828	-1.	-4.25	0.	125.19
3829	-3.25	-4.	0.	125.22
3830	-3.	-4.25	0.	124.32
3831	-3.	-3.75	0.	123.28
3832	-3.5	-4.25	0.	128.84
3833	-3.75	-5.	0.	127.98
3834	-4.	-4.75	0.	126.61
3835	-1.7501	6.5	0.	130.9
3836	-2.25	6.5	0.	132.06
3837	-2.0001	6.75	0.	131.07
3838	-1.25	6.	0.	124.42
3839	-1.5	6.25	0.	129.11
3840	-1.	6.25	0.	121.97
3841	0.25	6.	0.	123.88
3842	-4.338e-006	6.25	0.	121.37
3843	0.5	6.25	0.	128.24
3844	0.5	5.75	0.	126.05
3845	0.75	7.	0.	129.64
3846	1.	6.75	0.	128.97
3847	4.75	5.	0.	124.04
3848	4.5	5.25	0.	119.65
3849	4.25	5.	0.	120.32
3850	6.25	7.	0.	122.31
3851	6.5	6.75	0.	116.53
3852	8.5	7.75	0.	125.78
3853	8.5	8.25	0.	125.44
3854	8.75	8.	0.	125.42
3855	8.5	7.25	0.	126.17
3856	8.75	7.5	0.	125.68
3857	8.5	6.75	0.	126.33
3858	8.75	7.	0.	125.89
3859	8.5	6.25	0.	126.01
3860	8.75	6.5	0.	125.77
3861	8.5	5.75	0.	125.64
3862	8.75	6.	0.	125.33
3863	8.5	5.25	0.	125.88
3864	8.75	5.5	0.	125.23
3865	8.25	5.5	0.	125.79
3866	8.5	4.75	0.	126.61
3867	8.75	5.	0.	125.76
3868	8.5	4.25	0.	127.07
3869	8.75	4.5	0.	126.46
3870	8.25	4.5	0.	127.92
3871	8.5	3.75	0.	126.85
3872	8.75	4.	0.	126.64
3873	8.5	3.25	0.	126.3
3874	8.75	3.5	0.	126.36
3875	8.5	2.75	0.	125.77
3876	8.75	3.	0.	125.93
3877	8.5	2.25	0.	125.36
3878	8.75	2.5	0.	125.56
3879	8.5	1.75	0.	125.06
3880	8.75	2.	0.	125.26
3881	8.5	1.25	0.	124.83
3882	8.75	1.5	0.	125.03
3883	8.5	0.75	0.	124.62
3884	8.75	1.	0.	124.84
3885	8.5	0.25	0.	124.4
3886	8.75	0.5	0.	124.65
3887	8.5	-0.25	0.	124.11
3888	8.75	-1.3707e-012	0.	124.45
3889	8.5	-0.75	0.	123.71
3890	8.75	-0.5	0.	124.2
3891	8.25	-0.5	0.	123.81
3892	8.5	-1.25	0.	123.14
3893	8.75	-1.	0.	123.87
3894	8.5	-1.75	0.	122.33
3895	8.75	-1.5	0.	123.41
3896	8.5	-2.25	0.	121.28
3897	8.75	-2.	0.	122.79
3898	8.5	-2.75	0.	120.05
3899	8.75	-2.5	0.	122.1
3900	8.75	-3.	0.	121.6
3901	8.5	-3.25	0.	118.32
3902	1.25	8.5	0.	127.99
3903	1.	8.75	0.	128.43
3904	0.75	8.5	0.	131.3
3905	1.75	8.5	0.	127.11
3906	1.5	8.75	0.	126.99
3907	2.25	8.5	0.	126.53
3908	2.	8.75	0.	126.56
3909	2.75	8.5	0.	125.23
3910	2.5	8.75	0.	125.88
3911	3.25	8.5	0.	123.22
3912	3.	8.75	0.	124.4
3913	3.	8.25	0.	124.46
3914	3.5	8.75	0.	122.74
3915	3.75	8.5	0.	121.68
3916	6.25	8.5	0.	125.88
3917	6.	8.75	0.	125.77
3918	5.75	8.5	0.	126.08
3919	6.75	8.5	0.	125.39
3920	6.5	8.75	0.	125.42
3921	6.5	8.25	0.	125.45
3922	7.25	8.5	0.	125.2
3923	7.	8.75	0.	125.17
3924	7.75	8.5	0.	125.26
3925	7.5	8.75	0.	125.16
3926	8.25	8.5	0.	125.31
3927	8.	8.75	0.	125.23
3928	8.5	8.75	0.	125.22
3929	8.75	8.5	0.	125.22
3930	5.	4.75	0.	127.14
3931	5.25	4.5	0.	129.68
3932	5.75	7.5	0.	129.41
3933	6.	7.25	0.	125.72
3934	-8.25	8.5	0.	125.75
3935	-8.	8.75	0.	126.28
3936	-7.75	8.5	0.	128.86
3937	-8.	8.25	0.	127.53
3938	-8.5	-5.25	0.	127.3
3939	-8.5	-5.75	0.	129.04
3940	-8.75	-5.5	0.	129.
3941	-8.5	-4.75	0.	126.53
3942	-8.75	-5.	0.	127.85
3943	-8.5	-4.25	0.	126.24
3944	-8.75	-4.5	0.	127.25
3945	-8.5	-3.75	0.	126.19
3946	-8.75	-4.	0.	126.95
3947	-8.5	-3.25	0.	126.22
3948	-8.75	-3.5	0.	126.81
3949	-8.5	-2.75	0.	126.28
3950	-8.75	-3.	0.	126.74
3951	-8.5	-2.25	0.	126.34
3952	-8.75	-2.5	0.	126.7
3953	-8.5	-1.75	0.	126.38
3954	-8.75	-2.	0.	126.67
3955	-8.5	-1.25	0.	126.41
3956	-8.75	-1.5	0.	126.64
3957	-8.5	-0.74998	0.	126.41
3958	-8.75	-0.99998	0.	126.6
3959	-8.4999	-0.24995	0.	126.4
3960	-8.75	-0.49997	0.	126.56
3961	-8.4999	0.25008	0.	126.38
3962	-8.7499	5.6472e-005	0.	126.52
3963	-8.4998	0.7501	0.	126.35
3964	-8.7499	0.50008	0.	126.47
3965	-8.4996	1.2501	0.	126.33
3966	-8.7497	1.0001	0.	126.43
3967	-8.4994	1.7501	0.	126.37
3968	-8.7496	1.5001	0.	126.41
3969	-8.4992	2.2501	0.	126.47
3970	-8.7494	2.0001	0.	126.44
3971	-8.499	2.7501	0.	126.64
3972	-8.7493	2.5001	0.	126.52
3973	-8.499	3.2501	0.	126.83
3974	-8.7492	3.0001	0.	126.63
3975	-8.499	3.75	0.	126.96
3976	-8.2488	3.5	0.	127.14
3977	-8.7492	3.5	0.	126.71
3978	-8.4991	4.25	0.	126.92
3979	-8.7492	4.	0.	126.7
3980	-8.2488	4.	0.	127.34
3981	-8.4993	4.7499	0.	126.71
3982	-8.7493	4.4999	0.	126.52
3983	-8.2491	4.4999	0.	127.26
3984	-8.4996	5.2499	0.	126.44
3985	-8.7495	4.9999	0.	126.24
3986	-8.4998	5.7499	0.	126.35
3987	-8.7497	5.4999	0.	126.
3988	-8.4999	6.25	0.	126.59
3989	-8.7499	6.	0.	125.99
3990	-8.5	6.75	0.	127.08
3991	-8.7499	6.5	0.	126.26
3992	-8.5	7.25	0.	127.35
3993	-8.75	7.	0.	126.57
3994	-8.5	7.75	0.	126.84
3995	-8.75	7.5	0.	126.45
3996	-8.5	8.25	0.	125.78
3997	-8.75	8.	0.	125.67
3998	-8.25	8.	0.	127.56
3999	-8.5	8.75	0.	125.03
4000	-8.75	8.5	0.	124.85
4001	-8.25	-6.	0.	127.41
4002	-8.	-6.25	0.	125.59
4003	-8.5	-6.25	0.	132.47
4004	-8.75	-6.	0.	131.09
4005	7.75	-8.5	0.	123.25
4006	8.25	-8.5	0.	123.16
4007	8.	-8.75	0.	123.28
4008	7.25	-8.5	0.	123.64
4009	7.5	-8.75	0.	123.51
4010	6.75	-8.5	0.	124.25
4011	7.	-8.75	0.	123.99
4012	6.25	-8.5	0.	124.93
4013	6.5	-8.75	0.	124.6
4014	5.75	-8.5	0.	125.54
4015	6.	-8.75	0.	125.22
4016	5.25	-8.5	0.	126.03
4017	5.5	-8.75	0.	125.75
4018	4.75	-8.5	0.	126.37
4019	5.	-8.75	0.	126.17
4020	4.25	-8.5	0.	126.6
4021	4.5	-8.75	0.	126.46
4022	3.75	-8.5	0.	126.73
4023	4.	-8.75	0.	126.65
4024	3.25	-8.5	0.	126.81
4025	3.5	-8.75	0.	126.78
4026	2.75	-8.5	0.	126.87
4027	3.	-8.75	0.	126.85
4028	2.25	-8.5	0.	126.91
4029	2.5	-8.75	0.	126.9
4030	1.75	-8.5	0.	126.94
4031	2.	-8.75	0.	126.93
4032	1.25	-8.5	0.	126.91
4033	1.5	-8.75	0.	126.9
4034	1.5	-8.25	0.	126.97
4035	0.75	-8.5	0.	126.77
4036	1.	-8.75	0.	126.8
4037	1.	-8.25	0.	126.99
4038	0.25	-8.5	0.	126.39
4039	0.5	-8.75	0.	126.53
4040	-0.25	-8.5	0.	125.71
4041	1.4166e-011	-8.75	0.	126.05
4042	-0.75	-8.5	0.	124.78
4043	-0.5	-8.75	0.	125.33
4044	-1.25	-8.5	0.	123.9
4045	-1.	-8.75	0.	124.56
4046	-1.75	-8.5	0.	123.55
4047	-1.5	-8.75	0.	124.11
4048	-1.5	-8.25	0.	122.94
4049	-2.25	-8.5	0.	124.13
4050	-2.	-8.75	0.	124.36
4051	-2.75	-8.5	0.	125.73
4052	-2.5	-8.75	0.	125.52
4053	-3.	-8.75	0.	127.46
4054	-3.25	-8.5	0.	128.86
4055	8.5	-6.25	0.	119.75
4056	8.75	-6.	0.	121.34
4057	8.5	-5.75	0.	118.12
4058	8.5	-6.75	0.	120.87
4059	8.75	-6.5	0.	121.71
4060	8.5	-7.25	0.	121.82
4061	8.75	-7.	0.	122.28
4062	8.5	-7.75	0.	122.53
4063	8.75	-7.5	0.	122.78
4064	8.5	-8.25	0.	123.01
4065	8.75	-8.	0.	123.13
4066	8.5	-8.75	0.	123.31
4067	8.75	-8.5	0.	123.35
4068	-3.75	-6.	0.	127.67
4069	-4.	-6.25	0.	124.98
4070	-3.	-6.75	0.	128.29
4071	-3.25	-7.	0.	129.73
4072	-4.2509	8.5	0.	122.48
4073	-4.7507	8.5	0.	123.08
4074	-4.5008	8.75	0.	123.
4075	-4.5007	8.25	0.	124.83
4076	-3.751	8.5	0.	121.29
4077	-4.0009	8.75	0.	122.12
4078	-4.0008	8.25	0.	122.01
4079	-3.2509	8.5	0.	121.46
4080	-3.5009	8.75	0.	121.56
4081	-2.7508	8.5	0.	123.67
4082	-3.0008	8.75	0.	122.67
4083	-2.2506	8.5	0.	126.78
4084	-2.5006	8.75	0.	125.
4085	-2.0004	8.75	0.	127.91
4086	-1.7503	8.5	0.	131.18
4087	-7.	6.75	0.	126.96
4088	-6.75	6.5	0.	128.92
4089	-7.25	7.	0.	128.09
4090	-7.5	7.25	0.	131.5
4091	-5.0005	8.25	0.	123.85
4092	-5.0005	8.75	0.	123.56
4093	-5.2504	8.5	0.	125.09
4094	-5.0003	7.75	0.	125.94
4095	-5.2503	8.	0.	124.41
4096	-4.7505	8.	0.	125.61
4097	-6.75	7.	0.	126.08
4098	-7.	7.25	0.	127.2
4099	0.25	6.5	0.	125.71
4100	0.5	6.75	0.	130.07
4101	0.75	6.5	0.	129.43
4102	-1.25	6.5	0.	126.63
4103	-1.5001	6.75	0.	131.19
4104	-4.7506	9.	0.	123.48
4105	-4.5006	9.25	0.	123.29
4106	-4.2507	9.	0.	122.65
4107	-3.5007	9.25	0.	123.1
4108	-3.7508	9.	0.	122.39
4109	-3.2508	9.	0.	122.77
4110	-1.7503	9.	0.	129.03
4111	-2.0003	9.25	0.	126.98
4112	-2.2505	9.	0.	126.11
4113	-3.5	-4.75	0.	130.4
4114	-3.25	-4.5	0.	127.88
4115	-3.75	-4.5	0.	129.08
4116	-0.75	-4.5	0.	128.71
4117	-0.5	-4.75	0.	130.82
4118	-0.5	-6.25	0.	131.14
4119	-0.75	-6.5	0.	128.91
4120	-3.5	-6.25	0.	134.15
4121	-3.25	-6.5	0.	133.25
4122	-3.75	-6.5	0.	131.51
4123	-3.5	-6.75	0.	134.66
4124	8.25	-9.	0.	123.43
4125	8.75	-9.	0.	123.48
4126	8.5	-9.25	0.	123.48
4127	7.75	-9.	0.	123.54
4128	8.	-9.25	0.	123.52
4129	7.25	-9.	0.	123.86
4130	7.5	-9.25	0.	123.73
4131	6.75	-9.	0.	124.33
4132	7.	-9.25	0.	124.12
4133	6.25	-9.	0.	124.89
4134	6.5	-9.25	0.	124.62
4135	5.75	-9.	0.	125.43
4136	6.	-9.25	0.	125.15
4137	5.25	-9.	0.	125.89
4138	5.5	-9.25	0.	125.65
4139	4.75	-9.	0.	126.26
4140	5.	-9.25	0.	126.06
4141	4.25	-9.	0.	126.52
4142	4.5	-9.25	0.	126.38
4143	3.75	-9.	0.	126.7
4144	4.	-9.25	0.	126.61
4145	3.25	-9.	0.	126.82
4146	3.5	-9.25	0.	126.76
4147	2.75	-9.	0.	126.89
4148	3.	-9.25	0.	126.86
4149	2.25	-9.	0.	126.91
4150	2.5	-9.25	0.	126.91
4151	1.75	-9.	0.	126.89
4152	2.	-9.25	0.	126.9
4153	1.25	-9.	0.	126.79
4154	1.5	-9.25	0.	126.83
4155	0.75	-9.	0.	126.57
4156	1.	-9.25	0.	126.66
4157	0.25	-9.	0.	126.19
4158	0.5	-9.25	0.	126.36
4159	-0.25	-9.	0.	125.66
4160	7.0124e-012	-9.25	0.	125.94
4161	-0.5	-9.25	0.	125.45
4162	-0.75	-9.	0.	125.11
4163	-1.75	-9.	0.	124.92
4164	-1.5	-9.25	0.	125.12
4165	-1.25	-9.	0.	124.77
4166	-2.25	-9.	0.	125.75
4167	-2.	-9.25	0.	125.78
4168	-2.75	-9.	0.	127.25
4169	-2.5	-9.25	0.	127.08
4170	-3.25	-9.	0.	128.91
4171	-3.	-9.25	0.	128.82
4172	-8.75	-6.5	0.	134.02
4173	-8.5	-6.75	0.	134.47
4174	-8.25	-6.5	0.	130.6
4175	-5.25	-6.5	0.	130.44
4176	-5.75	-6.5	0.	131.21
4177	-5.5	-6.75	0.	135.09
4178	-7.5	7.75	0.	133.23
4179	-7.25	7.5	0.	130.6
4180	-8.25	9.	0.	125.56
4181	-8.75	9.	0.	124.67
4182	-8.5	9.25	0.	125.16
4183	-7.75	9.	0.	128.03
4184	-8.	9.25	0.	126.27
4185	-5.2504	9.	0.	125.91
4186	-5.0004	9.25	0.	124.27
4187	2.75	7.5	0.	128.99
4188	2.5	7.25	0.	131.49
4189	2.25	7.5	0.	130.64
4190	5.25	7.5	0.	129.47
4191	5.5	7.25	0.	131.95
4192	5.75	7.	0.	128.34
4193	6.	6.75	0.	123.95
4194	5.	5.25	0.	126.68
4195	5.25	5.	0.	129.85
4196	2.75	5.5	0.	130.09
4197	2.5	5.75	0.	132.29
4198	2.5	5.25	0.	131.41
4199	-2.7499	4.5	0.	123.08
4200	-2.5	4.75	0.	127.85
4201	-2.2499	4.5	0.	127.74
4202	-2.7504	7.5	0.	126.41
4203	-2.5003	7.25	0.	130.95
4204	7.25	4.5	0.	127.8
4205	7.5	4.75	0.	130.86
4206	7.75	4.5	0.	130.03
4207	5.75	4.5	0.	128.56
4208	5.5	4.75	0.	132.35
4209	7.25	6.5	0.	126.65
4210	7.5	6.25	0.	129.81
4211	7.5	6.75	0.	128.39
4212	9.	-6.75	0.	123.12
4213	9.	-6.25	0.	123.3
4214	9.25	-6.5	0.	124.68
4215	9.	-7.25	0.	123.23
4216	9.25	-7.	0.	124.23
4217	9.	-7.75	0.	123.38
4218	9.25	-7.5	0.	123.97
4219	9.	-8.25	0.	123.47
4220	9.25	-8.	0.	123.79
4221	9.	-8.75	0.	123.52
4222	9.25	-8.5	0.	123.65
4223	9.	-9.25	0.	123.54
4224	9.25	-9.	0.	123.56
4225	-9.	-8.75	0.	134.48
4226	-8.75	-9.	0.	135.24
4227	-9.	-9.25	0.	135.83
4228	-9.25	-9.	0.	134.89
4229	-9.	-8.25	0.	133.72
4230	-8.75	-8.5	0.	135.15
4231	-9.25	-8.5	0.	133.39
4232	-9.	-7.75	0.	133.26
4233	-8.75	-8.	0.	136.01
4234	-9.25	-8.	0.	132.77
4235	-9.	-7.25	0.	133.09
4236	-8.75	-7.5	0.	134.81
4237	-9.25	-7.5	0.	132.22
4238	-9.	-6.75	0.	133.34
4239	-8.75	-7.	0.	133.81
4240	-9.25	-7.	0.	132.58
4241	-9.	-6.25	0.	132.67
4242	-9.25	-6.5	0.	132.83
4243	-9.	-5.75	0.	131.08
4244	-9.25	-6.	0.	132.06
4245	-9.	-5.25	0.	129.56
4246	-9.25	-5.5	0.	130.82
4247	-9.	-4.75	0.	128.56
4248	-9.25	-5.	0.	129.78
4249	-9.	-4.25	0.	127.96
4250	-9.25	-4.5	0.	129.
4251	-9.	-3.75	0.	127.58
4252	-9.25	-4.	0.	128.42
4253	-9.	-3.25	0.	127.33
4254	-9.25	-3.5	0.	127.99
4255	-9.	-2.75	0.	127.16
4256	-9.25	-3.	0.	127.67
4257	-9.	-2.25	0.	127.02
4258	-9.25	-2.5	0.	127.42
4259	-9.	-1.75	0.	126.92
4260	-9.25	-2.	0.	127.23
4261	-9.25	-1.5	0.	127.08
4262	-9.	-1.25	0.	126.83
4263	-8.9999	-0.24996	0.	126.68
4264	-9.25	-0.49997	0.	126.85
4265	-9.	-0.74997	0.	126.75
4266	-8.9999	0.25006	0.	126.61
4267	-9.2499	4.0796e-005	0.	126.76
4268	-9.2499	0.50006	0.	126.67
4269	-8.9998	0.75008	0.	126.55
4270	-8.9996	1.7501	0.	126.48
4271	-9.2497	1.5001	0.	126.54
4272	-8.9997	1.2501	0.	126.5
4273	-8.9995	2.2501	0.	126.49
4274	-9.2496	2.0001	0.	126.5
4275	-8.9994	2.7501	0.	126.51
4276	-9.2496	2.5001	0.	126.47
4277	-9.2495	3.	0.	126.43
4278	-8.9993	3.25	0.	126.51
4279	-8.9995	4.7499	0.	126.05
4280	-9.2496	4.5	0.	125.89
4281	-8.9994	4.25	0.	126.29
4282	-8.9997	5.2499	0.	125.79
4283	-9.2497	5.	0.	125.57
4284	-8.9998	5.75	0.	125.65
4285	-9.2498	5.5	0.	125.29
4286	-8.9999	6.25	0.	125.66
4287	-9.2499	6.	0.	125.14
4288	-9.	6.75	0.	125.74
4289	-9.25	6.5	0.	125.09
4290	-9.	7.25	0.	125.67
4291	-9.25	7.	0.	125.05
4292	-9.	7.75	0.	125.27
4293	-9.25	7.5	0.	124.83
4294	-9.	8.25	0.	124.73
4295	-9.25	8.	0.	124.44
4296	-9.	8.75	0.	124.49
4297	-9.25	8.5	0.	124.17
4298	-9.25	9.	0.	124.34
4299	-9.	9.25	0.	124.84
4300	-6.2488	4.5001	0.	127.88
4301	-6.4991	4.75	0.	131.53
4302	-6.4984	4.2501	0.	129.98
4303	-4.7494	4.5001	0.	132.31
4304	-4.2496	4.5001	0.	130.02
4305	-4.4997	4.7501	0.	135.63
4306	-4.7503	7.5	0.	131.23
4307	-4.5002	7.25	0.	135.25
4308	-4.2503	7.5	0.	129.88
4309	-4.5004	7.75	0.	130.96
4310	9.	-5.75	0.	124.54
4311	9.25	-6.	0.	125.68
4312	1.25	9.	0.	127.42
4313	0.75	9.	0.	129.45
4314	1.	9.25	0.	127.95
4315	1.5	9.25	0.	126.83
4316	1.75	9.	0.	126.44
4317	2.75	9.	0.	125.05
4318	2.5	9.25	0.	125.69
4319	2.25	9.	0.	125.91
4320	3.25	9.	0.	123.92
4321	3.	9.25	0.	124.71
4322	3.75	9.	0.	123.07
4323	3.5	9.25	0.	123.73
4324	4.25	9.	0.	123.
4325	4.	9.25	0.	123.24
4326	4.	8.75	0.	122.02
4327	4.75	9.	0.	123.7
4328	4.5	9.25	0.	123.45
4329	4.5	8.75	0.	122.73
4330	5.25	9.	0.	124.63
4331	5.	9.25	0.	124.11
4332	5.	8.75	0.	124.3
4333	5.75	9.	0.	125.21
4334	5.5	9.25	0.	124.76
4335	5.5	8.75	0.	125.53
4336	6.25	9.	0.	125.32
4337	6.	9.25	0.	125.06
4338	6.5	9.25	0.	125.08
4339	6.75	9.	0.	125.2
4340	7.75	9.	0.	125.13
4341	7.5	9.25	0.	125.06
4342	7.25	9.	0.	125.12
4343	8.25	9.	0.	125.14
4344	8.	9.25	0.	125.1
4345	8.75	9.	0.	125.1
4346	8.5	9.25	0.	125.1
4347	9.	8.75	0.	125.1
4348	9.	9.25	0.	125.05
4349	9.25	9.	0.	125.01
4350	9.	8.25	0.	125.2
4351	9.25	8.5	0.	125.02
4352	9.	7.75	0.	125.32
4353	9.25	8.	0.	125.05
4354	9.	7.25	0.	125.4
4355	9.25	7.5	0.	125.06
4356	9.	6.75	0.	125.33
4357	9.25	7.	0.	124.98
4358	9.25	6.5	0.	124.77
4359	9.	6.25	0.	125.1
4360	9.	5.25	0.	125.12
4361	9.25	5.5	0.	124.54
4362	9.	5.75	0.	124.93
4363	9.	4.75	0.	125.61
4364	9.25	5.	0.	124.93
4365	9.	4.25	0.	126.03
4366	9.25	4.5	0.	125.46
4367	9.	3.75	0.	126.14
4368	9.25	4.	0.	125.82
4369	9.	3.25	0.	125.99
4370	9.25	3.5	0.	125.9
4371	9.	2.75	0.	125.73
4372	9.25	3.	0.	125.8
4373	9.	2.25	0.	125.46
4374	9.25	2.5	0.	125.61
4375	9.	1.75	0.	125.23
4376	9.25	2.	0.	125.41
4377	9.	1.25	0.	125.04
4378	9.25	1.5	0.	125.21
4379	9.	0.75	0.	124.86
4380	9.25	1.	0.	125.03
4381	9.25	0.5	0.	124.88
4382	9.	0.25	0.	124.7
4383	9.	-1.75	0.	123.86
4384	9.25	-1.5	0.	124.73
4385	9.	-1.25	0.	124.14
4386	9.	-2.25	0.	123.61
4387	9.25	-2.	0.	124.86
4388	9.	-2.75	0.	123.66
4389	9.25	-2.5	0.	125.16
4390	9.	-3.25	0.	124.76
4391	9.25	-3.	0.	126.03
4392	6.5	-3.75	0.	131.43
4393	6.75	-3.5	0.	129.15
4394	6.25	-3.5	0.	130.93
4395	6.5	-5.25	0.	131.32
4396	6.75	-5.5	0.	128.84
4397	6.5	-5.75	0.	130.1
4398	-4.4993	3.2501	0.	129.5
4399	-4.2493	3.5001	0.	127.45
4400	-4.2498	1.5	0.	126.76
4401	-4.4997	1.75	0.	129.04
4402	-4.7497	1.5	0.	128.48
4403	-4.4998	1.25	0.	127.97
4404	-1.5	1.75	0.	133.35
4405	-1.75	1.5	0.	130.5
4406	-1.25	1.5	0.	133.51
4407	-1.5	3.25	0.	133.22
4408	-1.75	3.5	0.	130.79
4409	-1.5	3.75	0.	132.19
4410	-0.25	-1.5	0.	126.2
4411	-0.5	-1.25	0.	129.85
4412	1.5	-1.25	0.	131.55
4413	1.25	-1.5	0.	127.28
4414	1.75	-1.5	0.	131.25
4415	1.25	1.5	0.	127.34
4416	1.5	1.25	0.	131.19
4417	-0.25	1.5	0.	127.65
4418	-0.5	1.25	0.	132.39
4419	-0.75	1.5	0.	132.66
4420	0.25	1.5	0.	116.91
4421	0.75	1.5	0.	117.12
4422	1.5	0.75	0.	132.28
4423	1.75	1.	0.	130.45
4424	1.5	0.25	0.	134.43
4425	1.5	-0.25	0.	134.35
4426	1.5	-0.75	0.	132.42
4427	0.75	-1.5	0.	116.82
4428	0.25	-1.5	0.	116.64
4429	-0.5	-0.75	0.	131.17
4430	-0.5	0.75	0.	133.08
4431	-0.5	0.25	0.	134.36
4432	-0.5	-0.25	0.	133.74
4433	-1.5	2.75	0.	132.09
4434	-1.5	2.25	0.	132.08
4435	-1.25	2.	0.	131.52
4436	-2.25	1.5	0.	121.95
4437	-2.	1.25	0.	125.82
4438	-2.75	1.5	0.	116.93
4439	-3.25	1.5	0.	116.28
4440	-3.7499	1.5	0.	119.75
4441	-4.4996	2.25	0.	128.04
4442	-4.4995	2.75	0.	128.
4443	-4.7491	3.	0.	126.89
4444	-3.7497	3.5	0.	119.56
4445	-3.2498	3.5	0.	115.88
4446	-2.7499	3.5	0.	117.48
4447	-2.9999	3.75	0.	116.61
4448	-2.2499	3.5	0.	122.87
4449	6.5	-4.75	0.	130.49
4450	6.5	-4.25	0.	130.47
4451	7.25	-3.5	0.	121.72
4452	7.75	-3.5	0.	117.6
4453	8.25	-3.5	0.	117.58
4454	8.75	-3.5	0.	121.46
4455	9.25	-3.5	0.	128.74
4456	7.25	-5.5	0.	121.45
4457	7.75	-5.5	0.	117.43
4458	8.25	-5.5	0.	117.42
4459	8.75	-5.5	0.	121.31
4460	9.25	-5.5	0.	128.53
4461	-5.2492	4.5001	0.	121.04
4462	-5.749	4.5001	0.	118.84
4463	-6.4996	5.25	0.	131.79
4464	-6.7494	5.	0.	130.46
4465	-6.4999	5.75	0.	132.87
4466	-6.4999	6.25	0.	132.06
4467	-6.5	6.75	0.	128.05
4468	-6.5	7.25	0.	122.54
4469	-5.2502	7.5	0.	122.17
4470	-5.5002	7.75	0.	120.77
4471	-5.7501	7.5	0.	120.66
4472	-0.25001	6.5	0.	115.79
4473	-0.75002	6.5	0.	116.2
4474	-1.5001	7.25	0.	132.97
4475	-1.7501	7.	0.	131.39
4476	-1.5002	7.75	0.	135.39
4477	-1.5002	8.25	0.	135.1
4478	-1.5002	8.75	0.	132.32
4479	-1.5002	9.25	0.	130.01
4480	0.5	7.25	0.	131.58
4481	0.5	7.75	0.	134.12
4482	0.5	8.25	0.	134.62
4483	0.5	8.75	0.	132.33
4484	0.5	9.25	0.	130.46
4485	-3.5	-5.75	0.	130.39
4486	-3.5	-5.25	0.	129.81
4487	-2.75	-4.5	0.	121.22
4488	-2.25	-4.5	0.	117.8
4489	-1.75	-4.5	0.	117.83
4490	-1.25	-4.5	0.	121.71
4491	-0.5	-5.25	0.	130.04
4492	-0.25	-5.	0.	128.82
4493	-0.5	-5.75	0.	130.19
4494	-1.25	-6.5	0.	121.78
4495	-1.75	-6.5	0.	118.1
4496	-1.5	-6.75	0.	118.78
4497	-2.25	-6.5	0.	118.72
4498	-2.75	-6.5	0.	124.09
4499	-4.75	-6.5	0.	119.18
4500	-5.	-6.25	0.	124.39
4501	-4.25	-6.5	0.	119.38
4502	-3.5	-7.25	0.	132.48
4503	-3.5	-7.75	0.	132.93
4504	-3.5	-8.25	0.	132.06
4505	-3.5	-8.75	0.	130.3
4506	-3.5	-9.25	0.	129.9
4507	-8.5	-8.75	0.	135.88
4508	-8.5	-9.25	0.	135.63
4509	-8.5	-8.25	0.	137.45
4510	-8.5	-7.75	0.	137.57
4511	-8.5	-7.25	0.	135.5
4512	-7.75	-6.5	0.	120.7
4513	-7.25	-6.5	0.	114.66
4514	-6.75	-6.5	0.	114.76
4515	-6.25	-6.5	0.	121.04
4516	-5.5	-7.25	0.	137.23
4517	-5.5	-7.75	0.	141.35
4518	-5.5	-8.75	0.	137.02
4519	-5.5	-9.25	0.	135.72
4520	-5.5	-8.25	0.	141.21
4521	-7.5	8.25	0.	132.17
4522	-7.75	8.	0.	130.85
4523	-7.5	8.75	0.	130.59
4524	-7.5	9.25	0.	129.41
4525	-5.5002	8.75	0.	127.44
4526	-5.5002	9.25	0.	127.49
4527	-5.5002	8.25	0.	125.63
4528	-6.75	7.5	0.	123.52
4529	-6.25	7.5	0.	121.9
4530	3.25	7.5	0.	122.04
4531	3.	7.75	0.	125.4
4532	3.75	7.5	0.	118.49
4533	4.75	7.5	0.	122.88
4534	4.25	7.5	0.	118.84
4535	5.5	6.75	0.	133.37
4536	5.5	6.25	0.	135.11
4537	5.75	6.5	0.	128.98
4538	4.75	5.5	0.	122.25
4539	5.25	5.5	0.	131.25
4540	4.25	5.5	0.	118.28
4541	3.75	5.5	0.	118.31
4542	4.	5.25	0.	118.99
4543	3.25	5.5	0.	122.57
4544	2.5	6.75	0.	131.03
4545	2.5	6.25	0.	131.19
4546	2.25	6.	0.	130.38
4547	-3.2498	4.5	0.	114.12
4548	-2.9999	4.25	0.	117.65
4549	-3.7497	4.5	0.	116.45
4550	-4.4999	5.25	0.	137.3
4551	-4.5	5.75	0.	141.53
4552	-4.5	6.25	0.	141.66
4553	-4.5	6.75	0.	137.6
4554	-3.7504	7.5	0.	117.77
4555	-4.0005	7.75	0.	123.35
4556	-3.2504	7.5	0.	116.45
4557	-2.5001	6.75	0.	132.17
4558	-2.2501	7.	0.	131.21
4559	-2.5	6.25	0.	133.88
4560	-2.5	5.25	0.	129.97
4561	-2.5	5.75	0.	133.03
4562	6.75	4.5	0.	119.46
4563	6.25	4.5	0.	119.96
4564	5.5	5.25	0.	134.45
4565	5.5	5.75	0.	135.8
4566	6.25	6.5	0.	118.04
4567	6.75	6.5	0.	118.
4568	7.5	5.75	0.	129.74
4569	7.5	5.25	0.	130.25
4570	7.75	5.5	0.	128.01
4571	8.75	-9.5	0.	123.54
4572	9.25	-9.5	0.	123.51
4573	8.25	-9.5	0.	123.57
4574	7.75	-9.5	0.	123.71
4575	7.25	-9.5	0.	123.99
4576	6.75	-9.5	0.	124.4
4577	6.25	-9.5	0.	124.88
4578	5.75	-9.5	0.	125.37
4579	5.25	-9.5	0.	125.82
4580	4.75	-9.5	0.	126.19
4581	4.25	-9.5	0.	126.47
4582	3.75	-9.5	0.	126.68
4583	3.25	-9.5	0.	126.81
4584	2.75	-9.5	0.	126.88
4585	2.25	-9.5	0.	126.9
4586	1.75	-9.5	0.	126.85
4587	1.25	-9.5	0.	126.71
4588	0.75	-9.5	0.	126.46
4589	0.25	-9.5	0.	126.11
4590	-0.25	-9.5	0.	125.73
4591	-0.75	-9.5	0.	125.43
4592	-1.25	-9.5	0.	125.44
4593	-1.	-9.25	0.	125.09
4594	-1.75	-9.5	0.	125.98
4595	-2.25	-9.5	0.	127.12
4596	-2.75	-9.5	0.	128.66
4597	-3.25	-9.5	0.	129.85
4598	-3.75	-9.5	0.	125.37
4599	-4.25	-9.5	0.	115.59
4600	-4.75	-9.5	0.	118.26
4601	-5.25	-9.5	0.	131.38
4602	-5.75	-9.5	0.	131.9
4603	-6.25	-9.5	0.	119.87
4604	-6.75	-9.5	0.	111.98
4605	-7.25	-9.5	0.	111.47
4606	-7.75	-9.5	0.	118.27
4607	-8.25	-9.5	0.	130.35
4608	-8.75	-9.5	0.	136.26
4609	-9.25	-9.5	0.	136.31
4610	-9.5	-9.25	0.	135.37
4611	-9.5	-8.75	0.	133.8
4612	-9.5	-8.25	0.	132.44
4613	-9.5	-7.75	0.	131.73
4614	-9.5	-7.25	0.	131.71
4615	-9.5	-6.75	0.	132.07
4616	-9.5	-6.25	0.	132.22
4617	-9.5	-5.75	0.	131.8
4618	-9.5	-5.25	0.	131.05
4619	-9.5	-4.75	0.	130.22
4620	-9.5	-4.25	0.	129.47
4621	-9.5	-3.75	0.	128.84
4622	-9.5	-3.25	0.	128.33
4623	-9.5	-2.75	0.	127.93
4624	-9.5	-2.25	0.	127.63
4625	-9.5	-1.75	0.	127.39
4626	-9.5	-1.25	0.	127.21
4627	-9.5	-0.74998	0.	127.06
4628	-9.25	-0.99998	0.	126.96
4629	-9.5	-0.24997	0.	126.93
4630	-9.4999	0.25004	0.	126.82
4631	-9.4999	0.75005	0.	126.72
4632	-9.4999	1.2501	0.	126.64
4633	-9.2498	1.0001	0.	126.6
4634	-9.4998	1.7501	0.	126.57
4635	-9.4997	2.2501	0.	126.49
4636	-9.4997	2.75	0.	126.4
4637	-9.4997	3.25	0.	126.25
4638	-9.4997	3.75	0.	126.04
4639	-9.2495	3.5	0.	126.34
4640	-9.4997	4.25	0.	125.75
4641	-9.2495	4.	0.	126.16
4642	-9.4998	4.75	0.	125.41
4643	-9.4998	5.25	0.	125.07
4644	-9.4999	5.75	0.	124.78
4645	-9.4999	6.25	0.	124.57
4646	-9.5	6.75	0.	124.4
4647	-9.5	7.25	0.	124.21
4648	-9.5	7.75	0.	124.
4649	-9.5	8.25	0.	123.88
4650	-9.5	8.75	0.	124.02
4651	-9.5	9.25	0.	124.49
4652	-9.25	9.5	0.	124.98
4653	-8.75	9.5	0.	125.32
4654	-8.25	9.5	0.	125.87
4655	-7.75	9.5	0.	127.66
4656	-7.25	9.5	0.	127.39
4657	-6.75	9.5	0.	120.97
4658	-6.2501	9.5	0.	119.97
4659	-5.7501	9.5	0.	125.57
4660	-5.2502	9.5	0.	125.87
4661	-4.7504	9.5	0.	124.08
4662	-4.2505	9.5	0.	123.66
4663	-3.7505	9.5	0.	123.73
4664	-4.0006	9.25	0.	123.02
4665	-3.2505	9.5	0.	124.13
4666	-2.7504	9.5	0.	124.86
4667	-3.0006	9.25	0.	123.8
4668	-2.2503	9.5	0.	125.91
4669	-2.5005	9.25	0.	125.05
4670	-1.7502	9.5	0.	127.95
4671	-1.2501	9.5	0.	127.38
4672	-0.75004	9.5	0.	120.55
4673	-0.25001	9.5	0.	120.96
4674	0.25	9.5	0.	128.19
4675	0.75	9.5	0.	128.95
4676	1.25	9.5	0.	127.35
4677	1.75	9.5	0.	126.74
4678	2.25	9.5	0.	126.14
4679	2.	9.25	0.	126.35
4680	2.75	9.5	0.	125.35
4681	3.25	9.5	0.	124.52
4682	3.75	9.5	0.	123.89
4683	4.25	9.5	0.	123.68
4684	4.75	9.5	0.	123.86
4685	5.25	9.5	0.	124.24
4686	5.75	9.5	0.	124.6
4687	6.25	9.5	0.	124.82
4688	6.75	9.5	0.	124.92
4689	7.25	9.5	0.	124.99
4690	7.	9.25	0.	125.05
4691	7.75	9.5	0.	125.03
4692	8.25	9.5	0.	125.05
4693	8.75	9.5	0.	125.05
4694	9.25	9.5	0.	125.01
4695	9.5	9.25	0.	124.97
4696	9.5	8.75	0.	124.93
4697	9.5	8.25	0.	124.88
4698	9.5	7.75	0.	124.78
4699	9.5	7.25	0.	124.63
4700	9.5	6.75	0.	124.42
4701	9.5	6.25	0.	124.21
4702	9.5	5.75	0.	124.15
4703	9.25	6.	0.	124.54
4704	9.5	5.25	0.	124.36
4705	9.5	4.75	0.	124.78
4706	9.5	3.75	0.	125.58
4707	9.5	4.25	0.	125.25
4708	9.5	3.25	0.	125.71
4709	9.5	2.75	0.	125.69
4710	9.5	2.25	0.	125.56
4711	9.5	1.75	0.	125.38
4712	9.5	1.25	0.	125.21
4713	9.5	0.75	0.	125.05
4714	9.5	0.25	0.	124.96
4715	9.5	-0.25	0.	124.94
4716	9.25	-6.8195e-013	0.	124.77
4717	9.5	-0.75	0.	125.04
4718	9.25	-0.5	0.	124.71
4719	9.5	-1.25	0.	125.29
4720	9.25	-1.	0.	124.69
4721	9.5	-1.75	0.	125.73
4722	9.5	-2.25	0.	126.41
4723	9.5	-2.75	0.	127.53
4724	9.5	-3.25	0.	130.05
4725	9.5	-3.75	0.	131.83
4726	9.5	-4.25	0.	131.73
4727	9.5	-4.75	0.	131.63
4728	9.5	-5.25	0.	131.59
4729	9.5	-5.75	0.	129.71
4730	9.5	-6.25	0.	127.06
4731	9.5	-6.75	0.	125.79
4732	9.5	-7.25	0.	124.97
4733	9.5	-7.75	0.	124.37
4734	9.5	-8.25	0.	123.96
4735	9.5	-8.75	0.	123.69
4736	9.5	-9.25	0.	123.53
4737	-1.0137e-006	4.75	0.	125.3
4738	0.25	4.5	0.	126.07
4739	5.5	3.25	0.	125.23
4740	2.5	4.75	0.	128.76
4741	6.75	1.5	0.	124.42
4742	6.25	1.5	0.	124.53
4743	1.25	-8.	0.	127.05
4744	6.75	0.5	0.	124.43
4745	6.25	-0.5	0.	124.93
4746	6.75	-0.5	0.	124.37
4747	5.25	-5.	0.	126.75
4748	-5.9984	2.7501	0.	124.21
4749	6.25	0.5	0.	124.69
4750	-6.4979	3.7501	0.	127.15
4751	9.	-0.25	0.	124.54
4752	9.	-0.75	0.	124.36
4753	1.75	-5.	0.	125.7
4754	1.25	-5.	0.	125.64
4755	0.25	-5.	0.	126.72
4756	3.	-6.75	0.	126.44
4757	-1.	1.75	0.	131.65
4758	3.75	1.	0.	126.59
4759	4.25	1.	0.	126.09
4760	4.	0.75	0.	126.34
4761	3.25	-1.5	0.	128.54
4762	2.	-6.75	0.	126.36
4763	4.75	8.5	0.	123.33
4764	4.25	8.5	0.	121.74
4765	-4.2506	8.	0.	124.36
4766	6.75	-6.5	0.	124.9
4767	6.5	-7.25	0.	125.03
4768	-2.7506	9.	0.	124.
4769	7.75	-0.5	0.	123.7
4770	7.25	-0.5	0.	123.92
4771	4.25	-5.	0.	126.37
4772	4.75	-5.	0.	126.49
4773	3.25	1.	0.	127.22
4774	-6.7499	2.0152e-005	0.	125.64
4775	-8.9994	3.75	0.	126.45
4776	4.75	1.	0.	125.65
4777	-5.5	-5.25	0.	123.2
4778	-4.4999	0.74997	0.	125.27
4779	-7.9988	4.25	0.	127.67
4780	0.75	5.5	0.	126.64
4781	-6.75	-4.	0.	122.44
4782	-7.25	-4.	0.	122.93
4783	-7.9986	3.75	0.	127.52
4784	-6.5	-3.75	0.	122.72
4785	-7.2493	5.	0.	128.92
4786	5.25	-3.5	0.	127.86
4787	2.25	1.	0.	129.22
4788	0.75	-5.	0.	125.85
4789	0.75	4.5	0.	126.67
4790	3.75	-5.	0.	126.29
4791	1.75	7.5	0.	128.91
4792	5.5	2.75	0.	124.91
4793	-6.25	-2.	0.	124.39
4794	6.5	-6.75	0.	125.74
4795	5.25	8.5	0.	125.2
4796	5.75	-3.5	0.	128.93
4797	2.75	1.	0.	128.02
4798	6.5	-6.25	0.	127.23
4799	2.25	-5.	0.	125.87
4800	-4.2499	0.49998	0.	123.11
4801	-5.75	-2.	0.	124.19
4802	9.	-4.	0.	100.09
4803	7.	-4.	0.	99.058
4804	9.	-5.	0.	99.945
4805	7.	-5.	0.	99.115
4806	8.5	-4.	0.	116.19
4807	8.	-4.	0.	114.6
4808	7.5	-4.	0.	115.82
4809	9.	-4.5	0.	105.04
4810	7.	-4.5	0.	104.12
4811	7.5	-5.	0.	115.72
4812	8.	-5.	0.	114.53
4813	8.5	-5.	0.	116.12
4814	7.5	-4.5	0.	114.52
4815	8.	-4.5	0.	117.87
4816	8.5	-4.5	0.	115.21
4817	8.75	-4.	0.	108.1
4818	9.	-4.25	0.	102.55
4819	7.25	-4.	0.	107.4
4820	7.	-4.25	0.	101.56
4821	9.	-4.75	0.	102.48
4822	8.75	-5.	0.	107.99
4823	7.	-4.75	0.	101.59
4824	7.25	-5.	0.	107.38
4825	8.25	-4.	0.	115.39
4826	8.5	-4.25	0.	115.68
4827	7.75	-4.	0.	115.21
4828	8.	-4.25	0.	116.23
4829	7.5	-4.25	0.	115.15
4830	8.75	-4.5	0.	110.12
4831	7.25	-4.5	0.	109.3
4832	7.75	-5.	0.	115.12
4833	7.5	-4.75	0.	115.1
4834	8.25	-5.	0.	115.32
4835	8.	-4.75	0.	116.19
4836	8.5	-4.75	0.	115.64
4837	7.75	-4.5	0.	116.19
4838	8.25	-4.5	0.	116.54
4839	0.	9.	0.	98.16
4840	-1.	9.	0.	98.461
4841	0.	7.	0.	96.098
4842	-1.	7.	0.	96.304
4843	-0.5	9.	0.	113.94
4844	0.	8.5	0.	102.25
4845	0.	8.	0.	100.3
4846	0.	7.5	0.	100.48
4847	-1.	8.5	0.	102.25
4848	-1.	8.	0.	100.67
4849	-1.	7.5	0.	101.1
4850	-0.5	7.	0.	110.35
4851	-0.5	8.5	0.	107.28
4852	-0.5	8.	0.	104.12
4853	-0.5	7.5	0.	105.41
4854	-0.25	9.	0.	105.97
4855	0.	8.75	0.	100.2
4856	-0.75	9.	0.	106.13
4857	-1.	8.75	0.	100.36
4858	0.	7.25	0.	98.288
4859	-0.25	7.	0.	103.18
4860	-1.	7.25	0.	98.699
4861	-0.75	7.	0.	103.28
4862	-0.5	8.75	0.	110.56
4863	0.	8.25	0.	101.23
4864	-0.25	8.5	0.	104.7
4865	0.	7.75	0.	100.34
4866	-0.25	8.	0.	102.21
4867	-0.25	7.5	0.	102.91
4868	-1.	8.25	0.	101.42
4869	-0.75	8.5	0.	104.7
4870	-1.	7.75	0.	100.84
4871	-0.75	8.	0.	102.39
4872	-0.75	7.5	0.	103.22
4873	-0.5	7.25	0.	107.83
4874	-0.5	8.25	0.	105.69
4875	-0.5	7.75	0.	104.77
4876	-2.	3.	0.	100.37
4877	-4.	3.	0.	97.278
4878	-2.	2.	0.	99.73
4879	-4.	2.	0.	97.528
4880	-2.5	3.	0.	115.85
4881	-3.	3.	0.	113.34
4882	-3.5	3.	0.	113.86
4883	-2.	2.5	0.	104.89
4884	-4.	2.5	0.	102.27
4885	-3.5	2.	0.	114.1
4886	-3.	2.	0.	113.4
4887	-2.5	2.	0.	115.64
4888	-3.5	2.5	0.	112.78
4889	-3.	2.5	0.	116.6
4890	-2.5	2.5	0.	114.52
4891	-2.25	3.	0.	108.07
4892	-2.	2.75	0.	102.62
4893	-3.75	3.	0.	105.54
4894	-4.	2.75	0.	99.748
4895	-2.	2.25	0.	102.29
4896	-2.25	2.	0.	107.64
4897	-4.	2.25	0.	99.877
4898	-3.75	2.	0.	105.78
4899	-2.75	3.	0.	114.59
4900	-2.5	2.75	0.	115.17
4901	-3.25	3.	0.	113.6
4902	-3.	2.75	0.	114.96
4903	-3.5	2.75	0.	113.31
4904	-2.25	2.5	0.	109.7
4905	-3.75	2.5	0.	107.51
4906	-3.25	2.	0.	113.75
4907	-3.5	2.25	0.	113.42
4908	-2.75	2.	0.	114.52
4909	-3.	2.25	0.	114.99
4910	-2.5	2.25	0.	115.05
4911	-3.25	2.5	0.	114.69
4912	-2.75	2.5	0.	115.56
4913	7.	6.	0.	98.037
4914	6.	6.	0.	100.12
4915	7.	5.	0.	99.222
4916	6.	5.	0.	100.57
4917	6.5	6.	0.	114.42
4918	7.	5.5	0.	103.98
4919	6.	5.5	0.	105.97
4920	6.5	5.	0.	115.49
4921	6.5	5.5	0.	112.61
4922	6.75	6.	0.	106.21
4923	7.	5.75	0.	101.
4924	6.25	6.	0.	107.26
4925	6.	5.75	0.	103.04
4926	7.	5.25	0.	101.59
4927	6.75	5.	0.	107.34
4928	6.	5.25	0.	103.26
4929	6.25	5.	0.	108.01
4930	6.5	5.75	0.	113.45
4931	6.75	5.5	0.	108.27
4932	6.25	5.5	0.	109.27
4933	6.5	5.25	0.	114.01
4934	-5.	7.	0.	99.98
4935	-6.	7.	0.	95.125
4936	-5.	5.	0.	98.767
4937	-6.	5.	0.	97.537
4938	-5.5	7.	0.	112.88
4939	-5.	6.5	0.	102.87
4940	-5.	6.	0.	101.85
4941	-5.	5.5	0.	103.01
4942	-6.	6.5	0.	99.91
4943	-6.	6.	0.	98.992
4944	-6.	5.5	0.	100.46
4945	-5.5	5.	0.	112.44
4946	-5.5	6.5	0.	106.02
4947	-5.5	6.	0.	103.6
4948	-5.5	5.5	0.	106.18
4949	-5.25	7.	0.	106.37
4950	-5.	6.75	0.	101.42
4951	-5.75	7.	0.	103.93
4952	-6.	6.75	0.	97.504
4953	-5.	5.25	0.	100.87
4954	-5.25	5.	0.	105.53
4955	-6.	5.25	0.	98.996
4956	-5.75	5.	0.	104.94
4957	-5.5	6.75	0.	109.41
4958	-5.	6.25	0.	102.31
4959	-5.25	6.5	0.	104.38
4960	-5.	5.75	0.	102.39
4961	-5.25	6.	0.	102.72
4962	-5.25	5.5	0.	104.55
4963	-6.	6.25	0.	99.407
4964	-5.75	6.5	0.	102.91
4965	-6.	5.75	0.	99.683
4966	-5.75	6.	0.	101.29
4967	-5.75	5.5	0.	103.26
4968	-5.5	5.25	0.	109.27
4969	-5.5	6.25	0.	104.81
4970	-5.5	5.75	0.	104.89
4971	5.	7.	0.	100.95
4972	3.	7.	0.	99.531
4973	5.	6.	0.	101.01
4974	3.	6.	0.	99.524
4975	4.5	7.	0.	117.31
4976	4.	7.	0.	115.44
4977	3.5	7.	0.	116.39
4978	5.	6.5	0.	106.21
4979	3.	6.5	0.	104.54
4980	3.5	6.	0.	116.43
4981	4.	6.	0.	115.15
4982	4.5	6.	0.	116.84
4983	3.5	6.5	0.	115.03
4984	4.	6.5	0.	118.53
4985	4.5	6.5	0.	115.99
4986	4.75	7.	0.	109.09
4987	5.	6.75	0.	103.56
4988	3.25	7.	0.	107.92
4989	3.	6.75	0.	102.01
4990	5.	6.25	0.	103.6
4991	4.75	6.	0.	108.89
4992	3.	6.25	0.	102.01
4993	3.25	6.	0.	107.94
4994	4.25	7.	0.	116.37
4995	4.5	6.75	0.	116.63
4996	3.75	7.	0.	115.91
4997	4.	6.75	0.	116.98
4998	3.5	6.75	0.	115.7
4999	4.75	6.5	0.	111.09
5000	3.25	6.5	0.	109.77
5001	3.75	6.	0.	115.79
5002	3.5	6.25	0.	115.72
5003	4.25	6.	0.	115.99
5004	4.	6.25	0.	116.83
5005	4.5	6.25	0.	116.39
5006	3.75	6.5	0.	116.78
5007	4.25	6.5	0.	117.26
5008	-6.	-7.	0.	99.133
5009	-8.	-7.	0.	98.806
5010	-6.	-9.	0.	98.795
5011	-8.	-9.	0.	98.646
5012	-6.5	-7.	0.	112.36
5013	-7.	-7.	0.	109.63
5014	-7.5	-7.	0.	112.34
5015	-6.	-7.5	0.	103.2
5016	-6.	-8.	0.	102.03
5017	-6.	-8.5	0.	102.76
5018	-8.	-7.5	0.	103.06
5019	-8.	-8.	0.	101.63
5020	-8.	-8.5	0.	102.44
5021	-7.5	-9.	0.	110.58
5022	-7.	-9.	0.	107.78
5023	-6.5	-9.	0.	110.92
5024	-6.5	-8.	0.	108.37
5025	-6.5	-8.5	0.	108.8
5026	-7.5	-8.5	0.	108.85
5027	-7.5	-8.	0.	108.57
5028	-7.5	-7.5	0.	109.64
5029	-6.5	-7.5	0.	109.47
5030	-7.	-7.5	0.	111.76
5031	-7.	-8.5	0.	110.8
5032	-7.	-8.	0.	111.12
5033	-6.25	-7.	0.	105.67
5034	-6.	-7.25	0.	101.15
5035	-7.75	-7.	0.	105.49
5036	-8.	-7.25	0.	100.92
5037	-6.	-8.75	0.	100.76
5038	-6.25	-9.	0.	104.8
5039	-8.	-8.75	0.	100.54
5040	-7.75	-9.	0.	104.56
5041	-6.75	-7.	0.	111.
5042	-6.5	-7.25	0.	110.89
5043	-7.25	-7.	0.	110.99
5044	-7.	-7.25	0.	110.68
5045	-7.5	-7.25	0.	110.96
5046	-6.	-7.75	0.	102.59
5047	-6.25	-7.5	0.	106.32
5048	-6.	-8.25	0.	102.37
5049	-6.25	-8.	0.	105.2
5050	-6.25	-8.5	0.	105.77
5051	-8.	-7.75	0.	102.33
5052	-7.75	-7.5	0.	106.34
5053	-8.	-8.25	0.	102.02
5054	-7.75	-8.	0.	105.1
5055	-7.75	-8.5	0.	105.64
5056	-7.25	-9.	0.	109.18
5057	-7.5	-8.75	0.	109.69
5058	-6.75	-9.	0.	109.35
5059	-7.	-8.75	0.	109.27
5060	-6.5	-8.75	0.	109.84
5061	-6.5	-8.25	0.	108.57
5062	-6.5	-7.75	0.	108.91
5063	-6.75	-8.	0.	109.74
5064	-6.75	-8.5	0.	109.79
5065	-7.5	-8.25	0.	108.71
5066	-7.25	-8.5	0.	109.82
5067	-7.5	-7.75	0.	109.1
5068	-7.25	-8.	0.	109.84
5069	-7.25	-7.5	0.	110.69
5070	-6.75	-7.5	0.	110.6
5071	-7.	-7.75	0.	111.44
5072	-7.	-8.25	0.	110.96
5073	1.	1.	0.	96.302
5074	0.	1.	0.	97.023
5075	1.	-1.	0.	96.639
5076	0.	-1.	0.	95.931
5077	0.5	1.	0.	110.72
5078	1.	0.5	0.	100.81
5079	1.	0.	0.	99.696
5080	1.	-0.5	0.	100.61
5081	0.	0.5	0.	100.84
5082	0.	0.	0.	99.637
5083	0.	-0.5	0.	100.41
5084	0.5	-1.	0.	110.33
5085	0.5	0.5	0.	105.36
5086	0.5	0.	0.	103.12
5087	0.5	-0.5	0.	105.12
5088	0.75	1.	0.	103.45
5089	1.	0.75	0.	98.554
5090	0.25	1.	0.	103.82
5091	0.	0.75	0.	98.931
5092	1.	-0.75	0.	98.626
5093	0.75	-1.	0.	103.44
5094	0.	-0.75	0.	98.169
5095	0.25	-1.	0.	103.08
5096	0.5	0.75	0.	107.98
5097	1.	0.25	0.	100.21
5098	0.75	0.5	0.	103.04
5099	1.	-0.25	0.	100.11
5100	0.75	0.	0.	101.41
5101	0.75	-0.5	0.	102.82
5102	0.	0.25	0.	100.2
5103	0.25	0.5	0.	103.05
5104	0.	-0.25	0.	99.987
5105	0.25	0.	0.	101.38
5106	0.25	-0.5	0.	102.73
5107	0.5	-0.75	0.	107.68
5108	0.5	0.25	0.	104.24
5109	0.5	-0.25	0.	104.12
5110	-3.	7.	0.	96.233
5111	-4.	7.	0.	97.865
5112	-3.	5.	0.	94.451
5113	-4.	5.	0.	97.781
5114	-3.5	7.	0.	110.89
5115	-3.	6.5	0.	99.985
5116	-3.	6.	0.	98.639
5117	-3.	5.5	0.	99.1
5118	-4.	6.5	0.	102.02
5119	-4.	6.	0.	100.96
5120	-4.	5.5	0.	101.37
5121	-3.5	5.	0.	109.38
5122	-3.5	6.5	0.	105.02
5123	-3.5	6.	0.	102.6
5124	-3.5	5.5	0.	104.37
5125	-3.25	7.	0.	103.52
5126	-3.	6.75	0.	98.107
5127	-3.75	7.	0.	104.32
5128	-4.	6.75	0.	99.937
5129	-3.	5.25	0.	96.771
5130	-3.25	5.	0.	101.88
5131	-4.	5.25	0.	99.571
5132	-3.75	5.	0.	103.55
5133	-3.5	6.75	0.	107.91
5134	-3.	6.25	0.	99.278
5135	-3.25	6.5	0.	102.44
5136	-3.	5.75	0.	98.839
5137	-3.25	6.	0.	100.62
5138	-3.25	5.5	0.	101.71
5139	-4.	6.25	0.	101.46
5140	-3.75	6.5	0.	103.47
5141	-4.	5.75	0.	101.13
5142	-3.75	6.	0.	101.78
5143	-3.75	5.5	0.	102.84
5144	-3.5	5.25	0.	106.85
5145	-3.5	6.25	0.	103.81
5146	-3.5	5.75	0.	103.48
5147	-1.	-5.	0.	98.937
5148	-3.	-5.	0.	99.54
5149	-1.	-6.	0.	99.142
5150	-3.	-6.	0.	100.26
5151	-1.5	-5.	0.	115.88
5152	-2.	-5.	0.	114.71
5153	-2.5	-5.	0.	116.
5154	-1.	-5.5	0.	104.06
5155	-3.	-5.5	0.	104.73
5156	-2.5	-6.	0.	117.13
5157	-2.	-6.	0.	115.12
5158	-1.5	-6.	0.	116.07
5159	-2.5	-5.5	0.	115.29
5160	-2.	-5.5	0.	118.16
5161	-1.5	-5.5	0.	114.66
5162	-1.25	-5.	0.	107.37
5163	-1.	-5.25	0.	101.47
5164	-2.75	-5.	0.	107.74
5165	-3.	-5.25	0.	102.11
5166	-1.	-5.75	0.	101.58
5167	-1.25	-6.	0.	107.57
5168	-3.	-5.75	0.	102.47
5169	-2.75	-6.	0.	108.63
5170	-1.75	-5.	0.	115.29
5171	-1.5	-5.25	0.	115.25
5172	-2.25	-5.	0.	115.35
5173	-2.	-5.25	0.	116.43
5174	-2.5	-5.25	0.	115.63
5175	-1.25	-5.5	0.	109.35
5176	-2.75	-5.5	0.	110.
5177	-2.25	-6.	0.	116.12
5178	-2.5	-5.75	0.	116.19
5179	-1.75	-6.	0.	115.6
5180	-2.	-5.75	0.	116.63
5181	-1.5	-5.75	0.	115.35
5182	-2.25	-5.5	0.	116.72
5183	-1.75	-5.5	0.	116.41
5184	-6.	9.	0.	98.977
5185	-7.	9.	0.	99.593
5186	-6.	8.	0.	97.147
5187	-7.	8.	0.	101.87
5188	-6.5	9.	0.	116.26
5189	-6.	8.5	0.	103.61
5190	-7.	8.5	0.	105.94
5191	-6.5	8.	0.	116.74
5192	-6.5	8.5	0.	113.37
5193	-6.25	9.	0.	107.6
5194	-6.	8.75	0.	101.28
5195	-6.75	9.	0.	107.88
5196	-7.	8.75	0.	102.76
5197	-6.	8.25	0.	100.34
5198	-6.25	8.	0.	106.92
5199	-7.	8.25	0.	103.9
5200	-6.75	8.	0.	109.28
5201	-6.5	8.75	0.	114.75
5202	-6.25	8.5	0.	108.45
5203	-6.75	8.5	0.	109.64
5204	-6.5	8.25	0.	115.01
5205	-4.	-7.	0.	97.593
5206	-5.	-7.	0.	98.396
5207	-4.	-9.	0.	95.948
5208	-5.	-9.	0.	97.434
5209	-4.5	-7.	0.	112.19
5210	-4.	-7.5	0.	100.79
5211	-4.	-8.	0.	98.677
5212	-4.	-8.5	0.	99.144
5213	-5.	-7.5	0.	101.92
5214	-5.	-8.	0.	100.75
5215	-5.	-8.5	0.	101.62
5216	-4.5	-9.	0.	110.27
5217	-4.5	-7.5	0.	105.54
5218	-4.5	-8.	0.	102.66
5219	-4.5	-8.5	0.	104.62
5220	-4.25	-7.	0.	104.81
5221	-4.	-7.25	0.	99.177
5222	-4.75	-7.	0.	105.25
5223	-5.	-7.25	0.	100.15
5224	-4.	-8.75	0.	97.545
5225	-4.25	-9.	0.	103.08
5226	-5.	-8.75	0.	99.509
5227	-4.75	-9.	0.	103.8
5228	-4.5	-7.25	0.	108.83
5229	-4.	-7.75	0.	99.706
5230	-4.25	-7.5	0.	103.1
5231	-4.	-8.25	0.	98.878
5232	-4.25	-8.	0.	100.67
5233	-4.25	-8.5	0.	101.84
5234	-5.	-7.75	0.	101.28
5235	-4.75	-7.5	0.	103.67
5236	-5.	-8.25	0.	101.14
5237	-4.75	-8.	0.	101.7
5238	-4.75	-8.5	0.	103.08
5239	-4.5	-8.75	0.	107.42
5240	-4.5	-7.75	0.	104.1
5241	-4.5	-8.25	0.	103.64
