Node Number	X Location (mm)	Y Location (mm)	Z Location (mm)	Equivalent (von-Mises) Stress (MPa)
1	6.93	0.61	0.	166.36
2	8.52	0.68	0.	166.07
3	7.66	2.02	0.	103.15
4	8.45	3.47	0.	160.43
5	8.12	4.51	0.	108.95
6	7.39	3.7	0.	163.73
7	7.36	7.1	0.	110.22
8	8.1	8.51	0.	175.05
9	6.51	8.44	0.	175.34
10	-0.51	0.3	0.	151.79
11	-0.17	-1.62	0.	131.12
12	1.32	-0.36	0.	159.65
13	-2.32	-6.77	0.	138.35
14	-1.46	-6.16	0.	152.68
15	-2.42	-5.72	0.	154.71
16	-2.92	0.36	0.	186.2
17	-1.79	-0.21	0.	150.47
18	-1.86	1.06	0.	142.91
19	-8.08	-5.8	0.	141.09
20	-8.99	-6.37	0.	154.34
21	-8.04	-6.88	0.	148.88
22	-7.93	-2.41	0.	162.05
23	-6.87	-2.17	0.	165.15
24	-7.61	-1.37	0.	109.
25	-6.77	1.33	0.	140.52
26	-5.13	2.4	0.	159.05
27	-6.88	3.29	0.	149.06
28	8.	-6.	0.	129.7
29	8.	-8.	0.	129.36
30	9.	-6.	0.	131.56
31	9.	-8.	0.	131.4
32	4.	2.	0.	137.5
33	4.	1.	0.	136.12
34	5.	2.	0.	136.06
35	5.	1.	0.	136.09
36	6.	-2.	0.	136.02
37	6.	-4.	0.	136.57
38	8.	-2.	0.	130.56
39	8.	-4.	0.	132.42
40	1.	-4.	0.	132.71
41	1.	-6.	0.	129.86
42	2.	-4.	0.	132.66
43	2.	-6.	0.	133.02
44	-2.	4.	0.	125.56
45	-2.	3.	0.	128.52
46	0.	4.	0.	139.18
47	0.	3.	0.	135.99
48	-3.	7.	0.	137.34
49	-3.	5.	0.	142.2
50	-1.	7.	0.	134.38
51	-1.	5.	0.	127.73
52	-7.	7.	0.	134.85
53	-7.	6.	0.	132.85
54	-5.	7.	0.	138.04
55	-5.	6.	0.	136.28
56	-9.	-8.	0.	133.02
57	-9.	-9.	0.	134.2
58	-7.	-8.	0.	133.79
59	-7.	-9.	0.	131.83
60	-7.	-4.	0.	126.03
61	-7.	-6.	0.	128.1
62	-6.	-4.	0.	134.75
63	-6.	-6.	0.	131.93
64	10.	10.	0.	125.14
65	-10.	10.	0.	125.01
66	10.	-10.	0.	126.48
67	-10.	-10.	0.	141.66
68	7.46	0.63333	0.	106.67
69	7.99	0.65667	0.	109.49
70	7.1733	1.0799	0.	114.85
71	7.4166	1.5499	0.	107.59
72	8.2333	1.1267	0.	101.78
73	7.9467	1.5733	0.	97.1
74	8.285	3.99	0.	128.38
75	7.92	3.585	0.	94.5
76	7.755	4.105	0.	60.848
77	7.6067	7.57	0.	112.99
78	7.8533	8.04	0.	116.53
79	7.0767	7.5467	0.	102.85
80	6.7933	7.9933	0.	106.41
81	7.57	8.4867	0.	118.05
82	7.04	8.4633	0.	113.8
83	-0.425	-0.18	0.	142.04
84	-0.34	-0.66	0.	143.97
85	-0.255	-1.14	0.	140.04
86	-5.25e-002	0.135	0.	104.6
87	0.405	-3.e-002	0.	113.36
88	0.8625	-0.195	0.	99.974
89	0.20246	-1.305	0.	95.231
90	0.57496	-0.99003	0.	106.58
91	0.94748	-0.67502	0.	90.237
92	-1.89	-6.465	0.	65.439
93	-2.37	-6.245	0.	145.95
94	-1.94	-5.94	0.	82.128
95	-2.5433	0.17	0.	73.549
96	-2.1667	-2.e-002	0.	96.236
97	-2.5667	0.59329	0.	67.679
98	-2.2134	0.82665	0.	92.187
99	-1.8133	0.21333	0.	146.58
100	-1.8367	0.63667	0.	146.32
101	-8.535	-6.085	0.	68.381
102	-8.06	-6.34	0.	144.68
103	-8.515	-6.625	0.	78.543
104	-7.4	-2.29	0.	97.834
105	-7.77	-1.89	0.	130.69
106	-7.24	-1.77	0.	67.068
107	-6.36	1.5975	0.	94.004
108	-5.95	1.865	0.	106.57
109	-5.54	2.1325	0.	87.978
110	-6.7975	1.82	0.	141.43
111	-6.825	2.31	0.	143.31
112	-6.8525	2.8	0.	143.2
113	-5.5675	2.6225	0.	92.151
114	-6.005	2.845	0.	109.14
115	-6.4425	3.0675	0.	98.667
116	8.	-6.5	0.	137.4
117	8.	-7.	0.	138.3
118	8.	-7.5	0.	138.14
119	8.5	-6.	0.	106.45
120	8.5	-8.	0.	105.98
121	9.	-6.5	0.	142.11
122	9.	-7.	0.	142.65
123	9.	-7.5	0.	141.7
124	4.	1.5	0.	146.82
125	4.5	2.	0.	113.72
126	4.5	1.	0.	113.09
127	5.	1.5	0.	144.82
128	6.	-2.5	0.	145.07
129	6.	-3.	0.	146.24
130	6.	-3.5	0.	145.16
131	6.5	-2.	0.	113.26
132	7.	-2.	0.	115.61
133	7.5	-2.	0.	110.05
134	6.5	-4.	0.	114.23
135	7.	-4.	0.	117.59
136	7.5	-4.	0.	111.88
137	8.	-2.5	0.	140.93
138	8.	-3.	0.	142.69
139	8.	-3.5	0.	141.4
140	1.	-4.5	0.	140.58
141	1.	-5.	0.	140.62
142	1.	-5.5	0.	139.63
143	1.5	-4.	0.	108.04
144	1.5	-6.	0.	106.75
145	2.	-4.5	0.	142.07
146	2.	-5.	0.	142.22
147	2.	-5.5	0.	141.65
148	-2.	3.5	0.	135.44
149	-1.5	4.	0.	110.21
150	-1.	4.	0.	120.82
151	-0.5	4.	0.	120.9
152	-1.5	3.	0.	112.98
153	-1.0001	3.	0.	120.8
154	-0.50005	3.	0.	116.67
155	0.	3.5	0.	145.74
156	-3.	6.5	0.	145.87
157	-3.	6.	0.	148.39
158	-3.	5.5	0.	149.17
159	-2.5	7.	0.	114.36
160	-2.	7.	0.	118.06
161	-1.5	7.	0.	112.96
162	-2.5	5.	0.	119.23
163	-2.	5.	0.	118.9
164	-1.5	5.	0.	109.6
165	-1.	6.5	0.	141.56
166	-1.	6.	0.	141.4
167	-1.	5.5	0.	138.53
168	-7.	6.5	0.	142.75
169	-6.5	7.	0.	116.67
170	-6.	7.	0.	122.2
171	-5.5	7.	0.	117.6
172	-6.5	6.	0.	115.38
173	-6.	6.	0.	120.52
174	-5.5	6.	0.	116.35
175	-5.	6.5	0.	145.41
176	-9.	-8.5	0.	144.23
177	-8.5	-8.	0.	110.27
178	-8.	-8.	0.	116.18
179	-7.5	-8.	0.	115.43
180	-8.5	-9.	0.	112.47
181	-8.	-9.	0.	115.99
182	-7.5	-9.	0.	111.98
183	-7.	-8.5	0.	141.21
184	-7.	-4.5	0.	137.84
185	-7.	-5.	0.	141.57
186	-7.	-5.5	0.	140.91
187	-6.5	-4.	0.	107.95
188	-6.5	-6.	0.	105.49
189	-6.	-4.5	0.	142.26
190	-6.	-5.	0.	142.06
191	-6.	-5.5	0.	140.92
192	9.5	10.	0.	125.66
193	9.	10.	0.	126.41
194	8.5	10.	0.	124.47
195	8.	10.	0.	120.32
196	7.5	10.	0.	117.58
197	7.	10.	0.	118.53
198	6.5	10.	0.	123.07
199	6.	10.	0.	127.77
200	5.5	10.	0.	130.14
201	5.	10.	0.	129.97
202	4.5	10.	0.	129.13
203	4.	10.	0.	128.45
204	3.5	10.	0.	128.
205	3.	10.	0.	127.74
206	2.5	10.	0.	127.56
207	2.	10.	0.	127.39
208	1.5	10.	0.	127.15
209	1.	10.	0.	126.74
210	0.5	10.	0.	126.08
211	-5.2042e-015	10.	0.	125.14
212	-0.5	10.	0.	123.97
213	-1.	10.	0.	122.82
214	-1.5	10.	0.	121.98
215	-2.	10.	0.	121.72
216	-2.5	10.	0.	122.08
217	-3.	10.	0.	122.9
218	-3.5	10.	0.	123.79
219	-4.	10.	0.	124.33
220	-4.5	10.	0.	124.3
221	-5.	10.	0.	123.83
222	-5.5	10.	0.	123.24
223	-6.	10.	0.	122.9
224	-6.5	10.	0.	122.98
225	-7.	10.	0.	123.44
226	-7.5	10.	0.	124.07
227	-8.	10.	0.	124.62
228	-8.5	10.	0.	124.96
229	-9.	10.	0.	125.06
230	-9.5	10.	0.	125.03
231	10.	9.5	0.	123.68
232	10.	9.	0.	120.07
233	10.	8.5	0.	117.14
234	10.	8.	0.	117.35
235	10.	7.5	0.	121.12
236	10.	7.	0.	126.2
237	10.	6.5	0.	130.47
238	10.	6.	0.	133.24
239	10.	5.5	0.	134.22
240	10.	5.	0.	132.9
241	10.	4.5	0.	128.77
242	10.	4.	0.	126.2
243	10.	3.5	0.	127.18
244	10.	3.	0.	132.74
245	10.	2.5	0.	134.87
246	10.	2.	0.	132.12
247	10.	1.5	0.	126.49
248	10.	1.	0.	123.71
249	10.	0.5	0.	127.02
250	10.	-5.2042e-015	0.	133.16
251	10.	-0.5	0.	136.62
252	10.	-1.	0.	135.78
253	10.	-1.5	0.	132.65
254	10.	-2.	0.	128.63
255	10.	-2.5	0.	125.16
256	10.	-3.	0.	123.5
257	10.	-3.5	0.	124.07
258	10.	-4.	0.	126.74
259	10.	-4.5	0.	130.66
260	10.	-5.	0.	134.87
261	10.	-5.5	0.	136.77
262	10.	-6.	0.	134.31
263	10.	-6.5	0.	130.74
264	10.	-7.	0.	129.82
265	10.	-7.5	0.	128.64
266	10.	-8.	0.	130.45
267	10.	-8.5	0.	131.8
268	10.	-9.	0.	130.08
269	10.	-9.5	0.	127.45
270	-10.	9.5	0.	124.93
271	-10.	9.	0.	124.78
272	-10.	8.5	0.	124.54
273	-10.	8.	0.	124.15
274	-10.	7.5	0.	123.68
275	-10.	7.	0.	123.41
276	-10.	6.5	0.	123.66
277	-10.	6.	0.	124.56
278	-10.	5.5	0.	125.8
279	-10.	5.	0.	126.81
280	-10.	4.5	0.	127.11
281	-10.	4.	0.	126.5
282	-10.	3.5	0.	125.22
283	-10.	3.	0.	123.88
284	-10.	2.5	0.	123.17
285	-10.	2.	0.	123.54
286	-10.	1.5	0.	124.98
287	-10.	1.	0.	127.03
288	-10.	0.5	0.	129.05
289	-10.	-5.2042e-015	0.	130.37
290	-10.	-0.5	0.	130.36
291	-10.	-1.	0.	128.74
292	-10.	-1.5	0.	126.24
293	-10.	-2.	0.	124.83
294	-10.	-2.5	0.	125.87
295	-10.	-3.	0.	128.34
296	-10.	-3.5	0.	130.3
297	-10.	-4.	0.	131.43
298	-10.	-4.5	0.	132.71
299	-10.	-5.	0.	134.55
300	-10.	-5.5	0.	133.62
301	-10.	-6.	0.	125.51
302	-10.	-6.5	0.	127.36
303	-10.	-7.	0.	136.49
304	-10.	-7.5	0.	142.58
305	-10.	-8.	0.	136.24
306	-10.	-8.5	0.	129.84
307	-10.	-9.	0.	133.54
308	-10.	-9.5	0.	139.46
309	-9.5	-10.	0.	132.91
310	-9.	-10.	0.	122.43
311	-8.5	-10.	0.	112.59
312	-8.	-10.	0.	109.04
313	-7.5	-10.	0.	112.38
314	-7.	-10.	0.	121.36
315	-6.5	-10.	0.	129.88
316	-6.	-10.	0.	131.88
317	-5.5	-10.	0.	130.86
318	-5.	-10.	0.	129.93
319	-4.5	-10.	0.	129.14
320	-4.	-10.	0.	128.32
321	-3.5	-10.	0.	127.31
322	-3.	-10.	0.	126.15
323	-2.5	-10.	0.	125.11
324	-2.	-10.	0.	124.48
325	-1.5	-10.	0.	124.4
326	-1.	-10.	0.	124.7
327	-0.5	-10.	0.	125.06
328	5.2042e-015	-10.	0.	125.25
329	0.5	-10.	0.	125.23
330	1.	-10.	0.	125.14
331	1.5	-10.	0.	125.14
332	2.	-10.	0.	125.35
333	2.5	-10.	0.	125.74
334	3.	-10.	0.	126.22
335	3.5	-10.	0.	126.67
336	4.	-10.	0.	127.01
337	4.5	-10.	0.	127.21
338	5.	-10.	0.	127.28
339	5.5	-10.	0.	127.2
340	6.	-10.	0.	126.9
341	6.5	-10.	0.	126.17
342	7.	-10.	0.	124.66
343	7.5	-10.	0.	122.21
344	8.	-10.	0.	119.65
345	8.5	-10.	0.	118.83
346	9.	-10.	0.	120.77
347	9.5	-10.	0.	124.31
348	3.0062	5.5082	0.	127.28
349	3.9493	5.5764	0.	127.18
350	3.4976	5.5292	0.	127.12
351	2.9877	6.0081	0.	126.79
352	3.4707	6.0235	0.	126.78
353	4.6928	5.0451	0.	127.02
354	2.5068	5.4989	0.	127.62
355	-3.4704	-2.72	0.	127.88
356	4.1321	5.1124	0.	127.04
357	3.5623	5.0372	0.	127.22
358	2.9819	6.5076	0.	126.23
359	3.4686	6.5154	0.	126.25
360	1.9958	6.4989	0.	126.61
361	2.4903	6.5019	0.	126.38
362	-6.1309	-1.0271	0.	125.51
363	-1.9711	-2.9374	0.	125.83
364	1.5005	5.9954	0.	127.53
365	-4.4461	-1.614	0.	128.25
366	-1.9622	-3.4244	0.	124.63
367	4.6194	4.5445	0.	126.26
368	5.	-6.5	0.	127.29
369	3.0406	4.5047	0.	128.01
370	-4.8923	-1.0881	0.	127.03
371	-5.7366	-0.58063	0.	123.91
372	-5.3358	-1.0594	0.	125.57
373	-5.7458	-1.0155	0.	124.91
374	-3.4778	-2.2095	0.	127.67
375	-2.9848	-2.258	0.	126.18
376	2.5161	3.981	0.	129.14
377	2.5232	4.4907	0.	128.63
378	4.5001	-6.	0.	129.06
379	4.0942	4.5567	0.	126.62
380	-3.4988	-3.7587	0.	128.72
381	-2.4627	-3.3473	0.	125.27
382	-2.9695	-3.2832	0.	126.66
383	3.5147	-2.0073	0.	131.33
384	4.9098	6.5001	0.	128.3
385	-4.4518	-2.1167	0.	128.29
386	-2.4944	-2.3477	0.	125.33
387	5.6266	4.5393	0.	126.09
388	5.7151	5.0289	0.	127.1
389	-4.4373	-1.1103	0.	128.83
390	3.5139	-2.5077	0.	131.72
391	4.5001	-5.5001	0.	130.03
392	-4.0848	-4.2711	0.	130.48
393	1.504	5.4929	0.	128.69
394	-4.4655	-2.6181	0.	129.24
395	-2.0091	-2.4509	0.	126.08
396	-1.4687	-3.4762	0.	124.96
397	5.5	-6.5	0.	125.86
398	6.	-6.5	0.	124.34
399	5.	-6.	0.	128.15
400	-5.8307	4.3989	0.	116.81
401	5.3594	6.0011	0.	128.93
402	1.4981	6.999	0.	126.56
403	1.9958	6.9997	0.	126.22
404	2.4919	7.0014	0.	125.92
405	2.9855	7.0043	0.	125.69
406	3.4762	7.0075	0.	125.6
407	3.9636	7.0078	0.	125.76
408	4.4472	7.0013	0.	126.34
409	4.9263	6.9858	0.	127.51
410	1.9968	3.459	0.	129.59
411	6.5	-7.	0.	124.28
412	6.	-7.	0.	124.65
413	5.5	-7.	0.	125.71
414	5.0001	-7.	0.	126.87
415	4.5002	-7.	0.	127.86
416	4.0005	-7.	0.	128.63
417	3.0219	-2.0198	0.	131.39
418	4.5036	-2.999	0.	131.37
419	4.0061	-3.0017	0.	131.44
420	3.5004	-5.0007	0.	130.51
421	4.0003	-5.0003	0.	130.58
422	4.0093	-2.5013	0.	131.42
423	3.5101	-1.5045	0.	130.71
424	-1.9628	-3.923	0.	122.73
425	-2.4668	-3.8553	0.	124.15
426	-3.9406	-5.8508	0.	127.57
427	3.5433	4.0122	0.	127.51
428	4.0103	-1.9998	0.	131.35
429	4.0007	-4.5007	0.	131.07
430	1.0855	-1.8711	0.	124.76
431	4.0036	-3.5016	0.	131.44
432	4.0003	-6.5	0.	129.12
433	4.0002	-6.	0.	129.54
434	2.0076	3.9754	0.	129.36
435	2.0132	4.4832	0.	129.26
436	1.9834	2.9342	0.	130.24
437	5.3999	6.964	0.	129.32
438	5.3864	6.4829	0.	129.54
439	2.5328	-2.0367	0.	131.06
440	1.5746	-2.0176	0.	128.4
441	2.0471	-2.0423	0.	130.07
442	-3.5013	-1.692	0.	128.15
443	-3.0131	-1.7697	0.	125.65
444	-6.6362	-0.70682	0.	122.22
445	-4.8611	-0.10125	0.	127.14
446	4.0087	-0.99606	0.	129.77
447	6.2058	5.0229	0.	126.85
448	5.4117	7.4454	0.	127.78
449	4.9417	7.4748	0.	125.81
450	4.4608	7.4925	0.	125.06
451	3.975	7.5002	0.	124.87
452	3.4839	7.5024	0.	124.99
453	2.99	7.5019	0.	125.27
454	2.4941	7.5008	0.	125.63
455	1.9968	7.4999	0.	126.05
456	1.4984	7.4995	0.	126.56
457	5.5	-6.	0.	126.51
458	6.	-6.	0.	124.34
459	5.0554	4.0366	0.	125.57
460	-1.4645	-3.9739	0.	123.48
461	3.5017	-7.5002	0.	128.23
462	4.0009	-7.5001	0.	128.07
463	4.5004	-7.5	0.	127.52
464	5.0002	-7.5	0.	126.76
465	5.5001	-7.5	0.	125.91
466	6.	-7.5	0.	125.22
467	-2.0608	-1.9636	0.	124.65
468	-4.9465	-2.0708	0.	126.81
469	-5.9374	-1.4732	0.	123.84
470	7.	-7.	0.	125.58
471	-4.9607	-2.5665	0.	128.5
472	5.0022	-2.9978	0.	132.67
473	3.0006	-5.0014	0.	131.53
474	0.50102	5.9962	0.	127.49
475	-3.8922	-7.6426	0.	130.51
476	-4.3644	-7.4453	0.	129.94
477	-4.9151	-7.4637	0.	129.31
478	0.53678	1.3933	0.	120.6
479	-5.3787	4.547	0.	122.46
480	6.5	-7.5	0.	125.1
481	-3.4623	-7.7052	0.	130.6
482	-3.5176	-4.2842	0.	129.59
483	6.5	-6.5	0.	123.47
484	-7.702	2.37	0.	128.37
485	-6.223	0.24875	0.	116.8
486	-6.371	4.4849	0.	114.49
487	-4.4002	-6.9041	0.	129.46
488	2.4887	2.9425	0.	130.97
489	2.5406	1.4126	0.	132.51
490	5.5362	4.0383	0.	125.68
491	4.5062	-2.4975	0.	131.55
492	4.5166	-0.48782	0.	127.69
493	4.5093	-0.98915	0.	130.33
494	4.5002	-5.0002	0.	131.08
495	4.5023	-3.4999	0.	131.44
496	5.0001	-5.5	0.	129.58
497	3.5096	-3.0062	0.	132.01
498	3.5012	-4.5016	0.	131.02
499	3.0195	-2.5161	0.	131.74
500	3.0034	-7.5005	0.	127.69
501	1.5178	-7.5057	0.	121.38
502	3.5003	-5.5003	0.	130.13
503	3.5013	-7.0001	0.	129.12
504	1.5075	4.9875	0.	129.86
505	1.4942	3.4591	0.	129.29
506	0.50007	6.4976	0.	127.2
507	0.99906	6.9987	0.	127.
508	0.99921	7.4994	0.	127.25
509	5.8467	5.9932	0.	128.77
510	5.8666	7.4054	0.	130.98
511	6.2957	5.509	0.	126.53
512	6.2896	3.0211	0.	131.67
513	3.0141	-1.5199	0.	130.85
514	-0.41795	-7.5361	0.	129.6
515	-5.3324	0.83607	0.	125.35
516	1.0006	1.3619	0.	125.45
517	-3.9622	-1.1431	0.	130.26
518	-4.8597	0.38461	0.	127.96
519	-4.4039	-9.6592e-002	0.	128.84
520	-4.392	0.40221	0.	129.45
521	-3.5064	-1.1764	0.	129.81
522	-3.0462	-1.2481	0.	126.36
523	1.5181	1.2897	0.	130.43
524	-3.51	2.9543	0.	129.36
525	-4.4108	0.90046	0.	132.51
526	-4.4652	3.995	0.	135.06
527	-4.9337	4.0329	0.	130.86
528	-1.462	-4.482	0.	122.41
529	-1.3469	-7.5336	0.	126.34
530	-0.88819	-7.5437	0.	129.6
531	2.7288	-3.1458e-002	0.	131.43
532	2.9657	-0.46833	0.	129.99
533	1.552	-1.5183	0.	131.69
534	2.0481	-1.584	0.	131.64
535	2.5223	-1.5507	0.	131.34
536	6.7961	5.4843	0.	123.6
537	5.8665	6.9372	0.	131.01
538	0.49966	6.9984	0.	127.62
539	0.49966	7.4993	0.	128.24
540	1.4779	2.4067	0.	130.2
541	1.4842	2.9351	0.	129.67
542	1.5026	3.9737	0.	129.73
543	-3.5131	2.4459	0.	129.61
544	3.5008	-6.5	0.	129.77
545	2.0112	-7.5029	0.	123.06
546	2.5067	-7.5014	0.	125.85
547	0.54066	-7.5172	0.	125.41
548	2.5258	-2.5238	0.	130.47
549	2.0317	-2.5209	0.	127.62
550	3.5029	-4.0029	0.	131.58
551	3.5059	-3.5045	0.	132.04
552	-0.46549	-3.5139	0.	125.94
553	-0.46695	-4.0135	0.	126.57
554	1.0309	-2.4271	0.	123.39
555	6.	-5.5	0.	124.6
556	4.5012	-4.0002	0.	131.65
557	4.5006	-4.5003	0.	131.73
558	4.5073	-1.9949	0.	131.82
559	5.4651	3.535	0.	126.67
560	4.9974	3.532	0.	125.32
561	6.2861	2.0606	0.	131.98
562	6.2803	2.5401	0.	133.48
563	3.5104	-0.4974	0.	129.57
564	4.0184	-0.49661	0.	128.14
565	2.6113	0.92491	0.	133.62
566	2.479	2.4189	0.	131.66
567	2.4955	1.913	0.	131.84
568	4.0202	3.5156	0.	125.87
569	-4.5591	-4.0562	0.	131.23
570	-4.5075	-3.607	0.	131.29
571	-4.4263	-6.3986	0.	128.63
572	-4.4509	-5.9008	0.	128.46
573	-6.8875	4.5419	0.	119.7
574	-7.4065	4.5418	0.	127.42
575	-6.6639	-0.28532	0.	119.22
576	-6.6809	0.14784	0.	117.22
577	-0.47744	-3.015	0.	125.26
578	6.5	-5.5	0.	121.43
579	-3.9697	-5.3496	0.	129.3
580	-2.4654	-4.3605	0.	122.49
581	-2.9846	-4.3114	0.	127.11
582	-3.8342	-7.2193	0.	130.37
583	6.5116	-0.9619	0.	119.11
584	5.9942	4.0318	0.	125.11
585	7.	-7.5	0.	125.83
586	-6.5627	-1.1259	0.	125.7
587	-3.5097	1.941	0.	132.28
588	-5.3323	1.2855	0.	126.51
589	6.2914	7.3694	0.	130.14
590	2.5369e-004	6.4983	0.	127.89
591	2.7746e-002	-5.5219	0.	128.51
592	3.0014	-4.5025	0.	131.5
593	-5.0289	-4.497	0.	131.62
594	-6.3715	3.9904	0.	111.42
595	-7.695	1.8984	0.	127.1
596	8.0915e-002	1.2255	0.	115.44
597	-5.4437	-2.029	0.	124.28
598	-1.5715	-2.0408	0.	127.87
599	-4.927	4.5248	0.	129.02
600	4.9729	7.9686	0.	124.21
601	4.4821	7.9873	0.	124.02
602	3.988	7.9961	0.	124.28
603	3.492	7.9996	0.	124.68
604	2.9948	8.0003	0.	125.11
605	1.9984	7.9998	0.	126.02
606	1.4991	7.9997	0.	126.57
607	0.49984	7.9997	0.	128.14
608	-2.5	8.	0.	119.27
609	9.2908e-004	5.9972	0.	128.12
610	-8.1191	0.95445	0.	127.8
611	-8.1482	1.9305	0.	126.05
612	-8.1499	2.4204	0.	125.89
613	-8.1345	2.9209	0.	127.21
614	-8.074	3.4493	0.	130.03
615	-8.1223	3.9575	0.	131.38
616	6.	-8.	0.	125.94
617	5.5	-8.	0.	126.31
618	5.0001	-8.	0.	126.84
619	4.5003	-8.	0.	127.32
620	4.0006	-8.0001	0.	127.59
621	3.5013	-8.0002	0.	127.49
622	3.0027	-8.0006	0.	126.82
623	4.2926e-002	-8.0216	0.	127.09
624	-0.44405	-8.0272	0.	127.83
625	-0.93373	-8.0273	0.	127.04
626	-1.4344	-8.0114	0.	123.59
627	-1.9716	-7.9559	0.	120.5
628	-2.5079	-8.0663	0.	123.58
629	-3.0007	-8.124	0.	127.49
630	-3.48	-8.1288	0.	129.41
631	-3.9597	-8.0803	0.	129.79
632	-4.4437	-8.	0.	129.5
633	-4.9466	-7.9806	0.	128.69
634	-5.4584	-7.9815	0.	127.58
635	6.5	-8.	0.	125.93
636	7.5222	-0.97948	0.	110.63
637	8.0662	-0.60717	0.	113.78
638	6.554	4.4965	0.	126.33
639	-5.4423	3.655	0.	124.74
640	-3.9992	3.4655	0.	134.41
641	-1.9527	-4.937	0.	114.43
642	-0.47073	-5.0264	0.	129.53
643	-0.4066	-7.0419	0.	130.19
644	6.6957	3.0016	0.	132.89
645	6.3502	5.9914	0.	126.34
646	-3.9833	3.9799	0.	136.42
647	-5.9152e-005	7.9997	0.	129.01
648	0.99428	3.4616	0.	128.96
649	-3.016	1.927	0.	128.9
650	3.0004	-5.5005	0.	130.63
651	3.0029	-7.0003	0.	129.2
652	1.5176	-7.0047	0.	117.98
653	6.4179e-002	-7.028	0.	128.41
654	1.5189	-2.9899	0.	120.25
655	3.014	-3.0115	0.	132.43
656	2.115e-002	-4.5107	0.	128.56
657	2.2532e-002	-2.9862	0.	123.56
658	6.5	-5.	0.	119.28
659	5.0001	-5.0001	0.	131.55
660	5.0037	-2.4953	0.	132.33
661	5.0087	-0.98076	0.	131.84
662	6.2776	1.5825	0.	129.4
663	4.4887	3.0156	0.	122.36
664	5.8658	3.0306	0.	131.03
665	4.5285	1.2451e-002	0.	123.54
666	3.13	1.3788e-002	0.	131.83
667	3.0347	1.458	0.	131.67
668	2.9927	2.957	0.	131.59
669	-4.9767	-3.0616	0.	131.05
670	-4.9837	-5.4543	0.	130.
671	-4.9214	-6.9496	0.	129.91
672	-3.9992	6.4991	0.	131.89
673	-8.	8.0005	0.	128.27
674	-7.6989	2.8326	0.	127.6
675	-7.7367	4.0342	0.	132.22
676	-6.2389	0.7095	0.	112.29
677	-7.639	0.47824	0.	126.47
678	-1.0156	-2.5404	0.	129.21
679	-3.0376	1.4283	0.	131.46
680	7.	-6.5	0.	123.92
681	7.	-5.	0.	116.92
682	-3.3932	-6.2992	0.	125.55
683	-3.4921	-4.8049	0.	131.19
684	-1.757	-7.4766	0.	117.8
685	-3.0431	-7.7032	0.	130.55
686	7.5945	-0.42489	0.	107.25
687	5.015	-0.47578	0.	129.36
688	5.5147	-0.46193	0.	130.73
689	6.0177	-0.45169	0.	130.04
690	-6.4267	-1.5337	0.	129.31
691	-5.4536	-2.5288	0.	126.56
692	-8.1043	-3.9348e-003	0.	125.38
693	-7.7988	-3.4572	0.	120.33
694	-6.4181	-3.0245	0.	123.98
695	-5.9429	-2.5079	0.	124.27
696	-5.9496	-2.0004	0.	121.93
697	6.0255	6.617e-002	0.	131.66
698	7.0423	-0.43577	0.	114.69
699	-3.2902	-7.2824	0.	132.17
700	-2.6191	-7.6189	0.	124.72
701	-2.1803	-7.5211	0.	117.56
702	-2.4573	-4.8572	0.	121.1
703	-2.973	-4.8149	0.	129.57
704	-3.463	-5.3152	0.	131.
705	-3.4303	-5.8114	0.	128.25
706	-5.9724	-7.9844	0.	127.11
707	-5.9593	-7.4826	0.	126.81
708	7.	-5.5	0.	120.68
709	7.	-6.	0.	122.75
710	-1.6913	-1.0931	0.	123.64
711	-0.9863	1.7015	0.	124.89
712	-0.44823	1.2662	0.	120.64
713	-0.93758	1.2206	0.	129.13
714	-1.1455	-1.6	0.	131.07
715	-1.0746	-2.0641	0.	131.59
716	3.179e-003	-2.4768	0.	119.83
717	-7.6602	0.9534	0.	129.16
718	-6.6993	0.58691	0.	116.05
719	-6.8485	4.0789	0.	118.89
720	-7.3145	4.0967	0.	128.65
721	-7.6739	3.641	0.	133.31
722	-7.6672	3.2499	0.	130.99
723	-6.9999	8.0002	0.	124.46
724	-7.5	8.0006	0.	128.08
725	-7.9999	7.5009	0.	128.77
726	-7.9991	7.001	0.	127.37
727	-7.9892	5.9973	0.	127.81
728	-6.9284	5.0149	0.	120.89
729	-4.5	7.9998	0.	131.94
730	-5.	7.9999	0.	127.01
731	-4.4697	5.003	0.	134.44
732	-3.9968	5.9989	0.	134.69
733	-6.8709	-3.0604	0.	116.78
734	-7.3068	-3.0774	0.	109.94
735	-7.826	-3.9671	0.	121.85
736	-5.9463	-6.9822	0.	124.32
737	-5.4387	-6.9714	0.	128.97
738	-4.9401	-6.4423	0.	130.05
739	-4.9627	-5.9445	0.	129.75
740	-5.0275	-4.0249	0.	132.53
741	-5.0001	-3.5491	0.	132.7
742	-5.9471	-3.0189	0.	127.07
743	2.9885	2.4481	0.	132.8
744	3.0037	1.9537	0.	132.41
745	3.0761	0.96599	0.	133.51
746	3.116	0.4822	0.	133.83
747	4.0391	1.6794e-003	0.	126.08
748	5.8479	2.0596	0.	132.74
749	5.8475	2.5468	0.	133.76
750	4.9621	3.0244	0.	124.86
751	5.0281	3.1938e-002	0.	126.87
752	5.533	5.7209e-002	0.	130.94
753	6.1444	1.0985	0.	125.02
754	6.0096	-0.9665	0.	126.94
755	5.5094	-0.97259	0.	131.89
756	5.0062	-1.4863	0.	133.43
757	5.0049	-1.9914	0.	133.16
758	5.0003	-4.5	0.	132.97
759	5.5001	-5.	0.	130.28
760	6.	-5.	0.	125.08
761	1.0188	-2.9596	0.	121.11
762	0.5208	-2.9554	0.	123.1
763	2.405e-002	-4.0032	0.	127.8
764	3.0037	-4.0044	0.	132.38
765	3.0082	-3.5075	0.	132.96
766	2.0183	-3.009	0.	124.89
767	3.9394e-002	-6.0258	0.	127.55
768	5.5351e-002	-6.5275	0.	128.2
769	1.0281	-7.0094	0.	120.65
770	3.0018	-6.5001	0.	130.5
771	-3.0073	2.9603	0.	126.51
772	-3.0133	2.4427	0.	127.58
773	-2.5262	1.8802	0.	120.38
774	-2.0292	1.974	0.	117.41
775	1.0007	3.9761	0.	131.07
776	0.98119	2.4103	0.	130.07
777	0.98621	2.9379	0.	130.04
778	-3.	7.9999	0.	125.68
779	-3.5	7.9998	0.	131.45
780	-3.9998	6.9995	0.	133.8
781	-5.3784e-005	6.9987	0.	129.
782	-1.2585e-004	7.4992	0.	129.78
783	-0.99999	7.9999	0.	123.6
784	-3.9816	4.9962	0.	137.9
785	-3.9766	4.4911	0.	138.05
786	6.3641	6.4668	0.	128.57
787	7.3954	5.95	0.	116.34
788	6.7033	2.544	0.	132.36
789	6.7096	2.0984	0.	129.61
790	2.4826	-1.0696	0.	130.43
791	7.0876	2.9849	0.	129.84
792	7.4704	3.145	0.	119.67
793	-1.2955	-7.0802	0.	130.43
794	-0.86406	-7.0606	0.	132.86
795	-0.96644	-5.0305	0.	129.55
796	-1.4598	-5.0138	0.	122.5
797	-0.42132	-6.5442	0.	127.26
798	-0.44768	-6.0437	0.	127.06
799	-0.46484	-5.5359	0.	128.6
800	-4.4913	3.4788	0.	136.54
801	-4.9733	3.5246	0.	132.32
802	-4.444	1.4037	0.	136.06
803	-4.0166	2.9519	0.	131.74
804	-4.0236	2.4425	0.	131.06
805	1.9495	-1.1284	0.	133.31
806	1.3506	0.76415	0.	129.94
807	2.4373	-0.6005	0.	129.07
808	2.296	-0.18388	0.	130.98
809	2.2292	0.35176	0.	134.45
810	-3.5138	-0.6479	0.	133.42
811	-3.0552	-0.72808	0.	129.17
812	-3.907	0.42141	0.	130.09
813	-3.939	-9.2028e-002	0.	129.62
814	-8.1076	-0.47585	0.	124.6
815	7.158	4.9109	0.	124.11
816	8.5448	7.4495	0.	131.22
817	8.4791	6.9668	0.	129.
818	8.4617	6.4694	0.	127.16
819	8.4395	5.5506	0.	121.11
820	8.0682	-0.206	0.	111.33
821	8.6611	1.9515	0.	126.29
822	8.0216	-1.0426	0.	116.18
823	7.5	-5.	0.	118.02
824	6.5	-8.5	0.	126.62
825	6.	-8.5	0.	126.56
826	5.5	-8.5	0.	126.73
827	5.0001	-8.5	0.	127.
828	4.5002	-8.5	0.	127.23
829	3.5008	-8.5002	0.	127.03
830	2.5029	-8.5011	0.	125.52
831	2.0053	-8.5023	0.	124.64
832	1.5089	-8.5044	0.	124.26
833	1.0139	-8.5077	0.	124.62
834	0.5202	-8.5118	0.	125.47
835	2.7165e-002	-8.5159	0.	126.27
836	-0.46679	-8.5184	0.	126.43
837	-0.96439	-8.5159	0.	125.54
838	-1.4689	-8.5054	0.	123.83
839	-1.9767	-8.4983	0.	122.95
840	-2.4833	-8.5387	0.	124.18
841	-2.9874	-8.5731	0.	126.53
842	-3.4868	-8.577	0.	128.26
843	-3.9822	-8.5513	0.	129.03
844	-4.476	-8.5133	0.	129.02
845	-4.9719	-8.4933	0.	128.43
846	-5.4747	-8.488	0.	127.57
847	-5.982	-8.4883	0.	126.38
848	7.	-8.	0.	126.71
849	7.	-8.5	0.	127.08
850	8.	-5.0001	0.	118.7
851	8.5231	-1.0583	0.	124.77
852	8.5	-5.0003	0.	119.71
853	8.4848	2.4643	0.	121.68
854	-8.	8.5003	0.	126.88
855	-7.	8.5002	0.	124.16
856	-6.5	8.5001	0.	121.92
857	-6.	8.5	0.	121.23
858	-5.5	8.5	0.	122.85
859	-5.	8.4999	0.	125.99
860	-4.5	8.4999	0.	128.76
861	-4.	8.4999	0.	129.72
862	-3.	8.4999	0.	124.93
863	-2.5	8.5	0.	121.22
864	-2.	8.5	0.	119.42
865	-1.5	8.5	0.	120.49
866	-0.99998	8.4999	0.	123.51
867	-0.49997	8.4999	0.	126.25
868	1.6235e-005	8.4998	0.	127.47
869	0.99995	8.4998	0.	126.98
870	1.4998	8.4998	0.	126.51
871	1.9996	8.4997	0.	126.1
872	2.4993	8.4997	0.	125.72
873	2.9988	8.4995	0.	125.33
874	3.4988	8.4982	0.	124.89
875	3.9994	8.4943	0.	124.41
876	4.5009	8.4855	0.	124.03
877	5.0047	8.4668	0.	124.04
878	5.5182	8.4272	0.	125.39
879	-8.7082	-5.5685	0.	122.79
880	-8.6405	-1.9516	0.	124.76
881	-8.609	-1.4574	0.	129.39
882	-8.5941	-0.97213	0.	131.66
883	-8.5847	-0.48921	0.	129.47
884	-8.5796	-5.8504e-003	0.	127.91
885	-8.5824	0.48069	0.	127.66
886	-8.5858	0.96758	0.	127.3
887	-8.5955	1.4594	0.	126.42
888	-8.6047	1.9557	0.	125.58
889	-8.6037	2.4554	0.	125.55
890	-8.5896	2.961	0.	126.6
891	-8.5671	3.4687	0.	128.41
892	-8.4974	4.4846	0.	130.05
893	-8.4831	4.9888	0.	129.5
894	-8.4859	5.4934	0.	128.38
895	-8.4911	5.9964	0.	126.77
896	-8.4955	6.4978	0.	125.82
897	-8.4988	6.9998	0.	126.11
898	-8.4998	7.5003	0.	126.95
899	-8.5	8.0003	0.	127.07
900	-8.5	8.5002	0.	126.49
901	-3.0026	3.4719	0.	125.62
902	-3.4926	3.9776	0.	134.11
903	1.5437e-003	5.4962	0.	127.8
904	0.50311	4.9926	0.	131.56
905	8.543	-0.59538	0.	123.51
906	8.5391	-0.14503	0.	124.57
907	-7.6244	-0.44015	0.	118.29
908	-3.4682	-0.10678	0.	135.64
909	-3.4842	0.95532	0.	137.75
910	1.7798	0.27705	0.	139.22
911	1.8344	-0.22016	0.	131.4
912	-4.4974	1.9137	0.	135.35
913	-4.5509	2.4298	0.	129.01
914	-4.5277	2.9541	0.	136.96
915	-0.96078	-5.5578	0.	135.57
916	-0.94224	-6.0763	0.	124.17
917	8.0042	2.6147	0.	104.06
918	7.1356	2.5458	0.	123.2
919	7.9325	6.4361	0.	121.14
920	7.4015	6.5202	0.	112.71
921	-8.1113	-0.9473	0.	129.91
922	7.7869	5.298	0.	112.43
923	8.2267	5.0859	0.	115.14
924	1.8957e-003	4.996	0.	129.05
925	-2.9976	3.9818	0.	128.38
926	-3.4889	4.4875	0.	140.01
927	-0.5	7.4995	0.	131.91
928	-3.5	7.4998	0.	135.74
929	0.48007	2.412	0.	130.82
930	0.50272	4.489	0.	136.07
931	-2.5162	2.443	0.	125.73
932	2.5042	-6.5004	0.	131.27
933	0.53572	-6.5157	0.	128.87
934	2.509	-3.508	0.	133.65
935	0.51989	-3.4811	0.	128.33
936	8.5	-4.5006	0.	127.12
937	8.5095	-1.5314	0.	129.14
938	5.5002	-4.5	0.	134.61
939	5.5054	-1.4827	0.	135.29
940	5.5484	0.57554	0.	131.43
941	5.4088	2.5362	0.	133.81
942	3.5667	0.49302	0.	134.67
943	3.4967	2.4797	0.	134.61
944	-5.4864	-3.5255	0.	134.35
945	-5.4525	-6.4701	0.	131.33
946	-7.3657	-6.4878	0.	124.94
947	-7.3608	-3.5121	0.	119.18
948	-4.485	5.5017	0.	136.21
949	-4.4999	7.4998	0.	136.08
950	-7.4712	5.505	0.	131.33
951	-7.4998	7.5007	0.	131.58
952	-7.2705	3.6662	0.	138.06
953	-7.197	0.9553	0.	134.15
954	-0.92216	0.74022	0.	135.7
955	-1.271	-0.67162	0.	137.36
956	7.5	-5.5	0.	123.39
957	-9.144	-5.4415	0.	129.87
958	-9.1262	-4.9767	0.	125.72
959	-9.1204	-3.9783	0.	126.82
960	-9.1132	-3.4757	0.	129.01
961	-9.1086	-2.9734	0.	129.9
962	-9.1043	-2.4715	0.	127.68
963	-9.0924	-1.9715	0.	126.44
964	-9.0764	-1.4752	0.	128.29
965	-9.0658	-0.98406	0.	129.79
966	-9.0582	-0.49405	0.	129.61
967	-9.0536	-4.0722e-003	0.	128.75
968	-9.0566	0.48826	0.	127.95
969	-9.0561	0.9803	0.	127.16
970	-9.0611	1.4756	0.	126.24
971	-9.0673	1.9745	0.	125.53
972	-9.0566	2.9798	0.	126.1
973	-9.0441	3.4851	0.	127.21
974	-9.0291	3.9906	0.	128.12
975	-9.0057	4.4939	0.	128.44
976	-8.9938	4.995	0.	128.12
977	-8.9922	5.4961	0.	127.26
978	-8.9937	5.997	0.	126.21
979	-9.	8.0002	0.	125.98
980	-9.	8.5001	0.	125.79
981	-9.	9.0001	0.	125.42
982	-8.	9.0002	0.	125.71
983	-7.5	9.0001	0.	125.16
984	-7.	9.0001	0.	124.06
985	-5.5	9.	0.	123.5
986	-5.	9.	0.	125.04
987	-4.5	8.9999	0.	126.42
988	-4.	8.9999	0.	126.85
989	-3.5	8.9999	0.	126.04
990	-3.	9.	0.	124.27
991	-2.5	9.	0.	122.42
992	-1.5	9.	0.	122.06
993	-0.99998	8.9999	0.	123.61
994	-0.49997	8.9999	0.	125.24
995	4.8027e-005	8.9999	0.	126.23
996	0.50007	8.9999	0.	126.58
997	1.0001	8.9999	0.	126.57
998	1.5001	8.9998	0.	126.45
999	2.0002	8.9998	0.	126.31
1000	2.5002	8.9997	0.	126.15
1001	3.0009	8.9992	0.	125.95
1002	3.5022	8.9979	0.	125.69
1003	4.0043	8.9945	0.	125.39
1004	4.5089	8.9872	0.	125.21
1005	5.015	8.9722	0.	125.75
1006	5.5224	8.9444	0.	128.34
1007	6.5234	8.9504	0.	135.13
1008	9.009	8.9721	0.	129.21
1009	9.0424	7.9597	0.	125.35
1010	8.9959	6.9747	0.	129.36
1011	9.0821	1.9983	0.	131.1
1012	9.1465	1.509	0.	129.88
1013	9.019	-8.1354e-002	0.	135.15
1014	9.0258	-0.5617	0.	130.55
1015	9.0177	-1.0434	0.	129.64
1016	9.01	-1.528	0.	129.84
1017	9.0043	-2.0172	0.	129.37
1018	9.0015	-2.5099	0.	128.61
1019	9.0005	-3.0056	0.	128.81
1020	9.0002	-3.5031	0.	127.93
1021	9.0001	-4.0016	0.	127.85
1022	9.	-4.5009	0.	126.85
1023	9.	-5.0005	0.	124.06
1024	7.5	-8.5	0.	127.82
1025	-6.4769	-7.4775	0.	128.14
1026	9.	-9.	0.	119.57
1027	8.5	-9.	0.	115.55
1028	8.	-9.	0.	118.65
1029	7.5	-9.	0.	124.04
1030	7.	-9.	0.	126.19
1031	6.5	-9.	0.	126.65
1032	5.5	-9.	0.	127.02
1033	5.	-9.	0.	127.15
1034	4.5001	-9.	0.	127.2
1035	3.5004	-9.0002	0.	126.8
1036	3.0009	-9.0004	0.	126.27
1037	-0.48215	-9.0111	0.	125.59
1038	-0.98147	-9.0092	0.	124.97
1039	-1.4824	-9.0054	0.	124.16
1040	-1.9835	-9.0073	0.	123.91
1041	-2.4856	-9.0243	0.	124.73
1042	-2.9883	-9.0409	0.	126.22
1043	-3.4913	-9.0434	0.	127.64
1044	-3.9917	-9.031	0.	128.54
1045	-4.4899	-9.0125	0.	128.91
1046	-5.4877	-8.9938	0.	128.61
1047	-5.9899	-8.9928	0.	128.71
1048	-2.9528	-5.3038	0.	137.78
1049	-2.7553	-7.1868	0.	137.36
1050	6.5194	7.4447e-002	0.	137.14
1051	8.9912	0.40426	0.	140.86
1052	-7.7972	-5.4291	0.	137.01
1053	-7.6352	-7.1123	0.	135.62
1054	-6.418	-2.5257	0.	131.6
1055	7.0971	3.4007	0.	138.96
1056	8.9751	3.0092	0.	139.14
1057	8.6213	4.5402	0.	134.35
1058	8.9408	3.5316	0.	124.1
1059	8.8688	4.0849	0.	131.05
1060	8.4678	3.005	0.	120.09
1061	7.9653	3.0879	0.	95.843
1062	7.6241	4.7642	0.	117.33
1063	7.3954	4.2986	0.	132.91
1064	7.1928	3.8441	0.	123.89
1065	-8.2491	-2.4333	0.	131.21
1066	-8.1284	-1.4271	0.	133.52
1067	-8.1956	-1.9208	0.	134.93
1068	-7.0493	-1.2359	0.	119.42
1069	-6.4841	-1.9956	0.	116.74
1070	-6.8451	-1.6253	0.	135.43
1071	-7.7454	-2.9171	0.	109.14
1072	-7.3197	-2.6844	0.	100.14
1073	-6.8714	-2.6081	0.	128.91
1074	6.6845	7.4177	0.	122.8
1075	6.0659	8.3274	0.	122.86
1076	6.3678	7.8218	0.	141.06
1077	8.0365	8.9872	0.	130.09
1078	8.5025	8.3965	0.	125.65
1079	7.9326	6.9906	0.	128.99
1080	8.0688	7.4785	0.	125.61
1081	8.2242	7.9408	0.	144.49
1082	-8.0801	-7.1571	0.	105.36
1083	-9.0156	-6.9562	0.	131.01
1084	-8.545	-7.0653	0.	108.53
1085	-9.1049	-5.8828	0.	135.81
1086	-8.2327	-5.4405	0.	100.09
1087	-7.7064	-6.7228	0.	125.2
1088	-7.7337	-6.3244	0.	135.18
1089	-7.744	-5.8876	0.	133.69
1090	8.0118	0.2112	0.	102.95
1091	7.0116	8.8148e-002	0.	118.69
1092	7.5152	0.12452	0.	104.06
1093	6.5411	0.59672	0.	123.28
1094	6.6741	1.112	0.	138.25
1095	7.1358	2.0887	0.	124.8
1096	6.8439	1.6442	0.	125.87
1097	8.1002	2.185	0.	116.24
1098	8.3106	1.7846	0.	117.04
1099	8.9017	0.90052	0.	121.85
1100	8.6714	1.4151	0.	134.65
1101	-1.3326	-6.6461	0.	133.47
1102	-2.2453	-7.1017	0.	105.84
1103	-1.7353	-6.9544	0.	124.36
1104	-2.8314	-6.7425	0.	133.85
1105	-2.9223	-5.7831	0.	128.72
1106	-2.8787	-6.2671	0.	129.45
1107	-2.442	-5.3292	0.	117.99
1108	-1.4568	-5.5857	0.	129.3
1109	-1.9424	-5.4465	0.	108.52
1110	-6.4945	-8.9951	0.	129.78
1111	-6.4905	-8.4913	0.	128.68
1112	-6.4877	-7.984	0.	129.04
1113	9.	-8.5	0.	120.55
1114	8.	-8.5	0.	119.44
1115	8.5	-8.5	0.	108.45
1116	9.	-5.5002	0.	122.51
1117	8.5	-5.5001	0.	109.99
1118	8.	-5.5001	0.	119.4
1119	-2.9954	4.4909	0.	132.2
1120	-2.499	4.4949	0.	121.98
1121	-0.99999	7.4999	0.	125.09
1122	-1.5	7.5	0.	114.13
1123	-2.	7.5	0.	114.49
1124	-2.5	7.5	0.	115.35
1125	-3.	7.4999	0.	127.56
1126	0.48952	2.9486	0.	132.
1127	0.49708	3.4725	0.	132.48
1128	0.50079	3.9832	0.	134.18
1129	-2.7068e-002	2.4061	0.	124.48
1130	-0.57755	2.4207	0.	117.82
1131	-1.0591	2.5572	0.	116.8
1132	-2.024	2.4827	0.	120.09
1133	-1.5355	2.5264	0.	113.81
1134	1.762e-003	4.4959	0.	131.02
1135	-0.49938	4.499	0.	123.56
1136	-0.99982	4.4998	0.	118.41
1137	-1.5	4.4998	0.	108.56
1138	-1.9999	4.4988	0.	116.39
1139	-2.5063	2.9696	0.	125.53
1140	-2.4997	3.9893	0.	123.83
1141	-2.5021	3.4818	0.	124.37
1142	2.007	-6.5009	0.	122.69
1143	1.0208	-6.5065	0.	119.95
1144	1.5117	-6.5024	0.	110.02
1145	2.0089	-3.5035	0.	123.98
1146	1.5088	-3.4933	0.	111.58
1147	1.0124	-3.4823	0.	121.83
1148	8.5	-4.0014	0.	128.45
1149	8.5	-3.5024	0.	131.9
1150	8.5001	-3.0043	0.	133.74
1151	8.5006	-2.508	0.	131.94
1152	8.5028	-2.0158	0.	129.34
1153	5.5003	-3.9997	0.	133.93
1154	5.5005	-3.4992	0.	136.14
1155	5.501	-2.9982	0.	137.71
1156	5.503	-1.9911	0.	134.4
1157	5.5018	-2.4959	0.	136.07
1158	5.5694	1.1223	0.	128.77
1159	5.8172	1.5973	0.	129.02
1160	5.4161	2.0461	0.	133.85
1161	3.5418	0.98662	0.	135.01
1162	3.5049	1.9819	0.	133.94
1163	3.5191	1.4838	0.	134.53
1164	-5.5083	-4.0139	0.	133.17
1165	-5.477	-5.9747	0.	130.37
1166	-5.492	-5.4821	0.	133.32
1167	-5.5034	-4.9909	0.	135.74
1168	-5.5124	-4.5011	0.	134.99
1169	-5.9576	-6.4851	0.	123.56
1170	-6.9118	-6.476	0.	115.83
1171	-6.4464	-6.484	0.	109.04
1172	-5.9702	-3.5143	0.	126.85
1173	-6.4472	-3.5179	0.	111.54
1174	-6.9112	-3.5273	0.	114.4
1175	-7.3715	-5.9636	0.	129.25
1176	-7.3942	-5.4653	0.	137.79
1177	-7.4023	-3.9908	0.	123.29
1178	-7.4141	-4.4822	0.	128.5
1179	-7.4095	-4.9741	0.	134.61
1180	-9.0151	-7.4916	0.	125.4
1181	-8.5289	-7.5303	0.	105.86
1182	-7.019	-7.4348	0.	125.77
1183	-7.5405	-7.5366	0.	119.78
1184	-8.038	-7.5605	0.	112.16
1185	-4.4959	6.0004	0.	134.34
1186	-4.4989	6.4999	0.	133.57
1187	-4.4997	6.9998	0.	134.05
1188	-4.9786	5.5046	0.	127.93
1189	-5.4718	5.5007	0.	116.64
1190	-5.9645	5.4901	0.	115.71
1191	-6.9644	5.5038	0.	122.55
1192	-6.4608	5.4933	0.	114.67
1193	-5.	7.4999	0.	128.76
1194	-5.5	7.5	0.	118.39
1195	-6.	7.5	0.	118.24
1196	-6.5	7.5001	0.	117.18
1197	-6.9999	7.5003	0.	125.78
1198	-7.4899	6.0007	0.	130.06
1199	-7.4993	7.001	0.	129.93
1200	-7.4973	6.5008	0.	129.23
1201	-0.49912	4.9984	0.	126.14
1202	-0.49923	5.4984	0.	129.7
1203	-0.49945	5.9986	0.	132.55
1204	-0.49977	6.499	0.	132.08
1205	-0.49998	6.9992	0.	130.36
1206	-3.4906	4.9948	0.	139.38
1207	-3.4954	5.4979	0.	140.11
1208	-3.4982	5.999	0.	139.77
1209	-3.4999	6.9996	0.	134.31
1210	-3.4994	6.4995	0.	136.9
1211	2.5032	-4.0039	0.	132.83
1212	2.5003	-5.5004	0.	133.98
1213	2.5003	-5.0009	0.	135.78
1214	2.501	-4.5019	0.	134.24
1215	0.52242	-6.0133	0.	128.89
1216	0.51494	-5.5101	0.	131.56
1217	0.51332	-3.9948	0.	128.83
1218	0.51072	-4.5029	0.	132.48
1219	0.51086	-5.0063	0.	133.9
1220	8.	-4.5002	0.	121.74
1221	7.5	-4.5	0.	113.04
1222	6.0001	-4.5	0.	126.85
1223	6.5	-4.5	0.	115.15
1224	7.	-4.5	0.	114.33
1225	6.0047	-1.4823	0.	126.81
1226	8.0058	-1.518	0.	119.88
1227	7.5044	-1.4944	0.	109.52
1228	7.0047	-1.4829	0.	111.4
1229	6.5049	-1.4813	0.	114.25
1230	4.037	0.50065	0.	125.17
1231	4.5267	0.51004	0.	115.57
1232	5.0335	0.53151	0.	127.39
1233	3.9948	2.4994	0.	126.85
1234	4.9573	2.5166	0.	124.76
1235	4.484	2.5068	0.	115.86
1236	7.5	-8.	0.	127.47
1237	7.5	-7.5	0.	129.57
1238	7.5	-6.	0.	124.18
1239	7.5	-6.5	0.	128.48
1240	7.5	-7.	0.	130.73
1241	-6.837	3.6431	0.	114.34
1242	-6.3921	3.5136	0.	112.21
1243	-5.4956	3.1438	0.	121.51
1244	-7.2258	1.4038	0.	130.
1245	-7.2697	3.2366	0.	132.69
1246	-7.2693	2.7918	0.	133.8
1247	-7.2603	2.3299	0.	134.8
1248	-7.244	1.8623	0.	131.04
1249	-4.9741	1.8579	0.	137.56
1250	-5.4012	1.7048	0.	123.31
1251	-5.7808	1.3585	0.	116.44
1252	-6.7291	1.0071	0.	110.88
1253	-6.2666	1.1673	0.	113.85
1254	1.5738	-0.81089	0.	133.86
1255	1.2308	-1.1073	0.	133.42
1256	0.85304	-1.4042	0.	120.25
1257	-4.7851e-002	-1.994	0.	109.08
1258	0.49645	-1.819	0.	121.74
1259	-0.91516	0.26663	0.	129.46
1260	-0.86827	-0.20388	0.	138.18
1261	-0.80343	-0.6728	0.	138.95
1262	-0.73265	-1.1401	0.	132.56
1263	-0.65472	-1.5987	0.	136.02
1264	-0.45807	0.75166	0.	117.58
1265	1.3346	0.22269	0.	132.83
1266	0.89646	0.32894	0.	118.25
1267	0.4493	0.47481	0.	113.62
1268	6.1178e-003	0.65648	0.	110.02
1269	-1.3795	0.69291	0.	132.79
1270	-1.3215	-0.21382	0.	132.32
1271	-1.3572	0.23988	0.	133.82
1272	-1.9977	1.4844	0.	106.82
1273	-2.5565	1.2945	0.	121.46
1274	-2.9955	0.9029	0.	145.24
1275	-9.	9.5	0.	125.09
1276	-8.5	9.5001	0.	125.09
1277	-8.	9.5001	0.	124.9
1278	-7.5	9.5001	0.	124.49
1279	-7.	9.5	0.	123.92
1280	-6.5	9.5	0.	123.44
1281	-6.	9.5	0.	123.32
1282	-5.5	9.5	0.	123.67
1283	-5.	9.5	0.	124.29
1284	-4.5	9.5	0.	124.81
1285	-4.	9.5	0.	124.91
1286	-3.5	9.5	0.	124.46
1287	-3.	9.5	0.	123.64
1288	-2.5	9.5	0.	122.82
1289	-2.	9.5	0.	122.44
1290	-1.5	9.5	0.	122.73
1291	-0.99998	9.5	0.	123.55
1292	-0.49998	9.5	0.	124.53
1293	3.643e-005	9.4999	0.	125.39
1294	0.50006	9.4999	0.	125.99
1295	1.0001	9.4999	0.	126.36
1296	1.5002	9.4999	0.	126.59
1297	2.0002	9.4999	0.	126.72
1298	2.5006	9.4998	0.	126.79
1299	3.0012	9.4994	0.	126.84
1300	3.5024	9.4985	0.	126.88
1301	4.0044	9.4965	0.	126.95
1302	4.5074	9.4923	0.	127.09
1303	5.0109	9.4845	0.	127.53
1304	5.5137	9.4728	0.	129.06
1305	6.0138	9.4655	0.	130.47
1306	6.513	9.4746	0.	126.79
1307	7.0141	9.4844	0.	120.41
1308	7.5157	9.4907	0.	118.41
1309	8.0149	9.491	0.	124.37
1310	8.5107	9.4848	0.	128.97
1311	9.0053	9.4875	0.	128.
1312	9.5019	9.4939	0.	125.06
1313	9.5042	8.9884	0.	124.26
1314	9.5088	8.485	0.	122.85
1315	9.5163	7.9828	0.	123.07
1316	9.5111	7.483	0.	125.14
1317	9.5002	6.9862	0.	127.37
1318	9.4931	6.4888	0.	128.88
1319	9.4862	5.9873	0.	129.72
1320	9.4794	5.4887	0.	130.47
1321	9.5161	5.0013	0.	130.88
1322	9.5085	4.5113	0.	130.49
1323	9.4567	4.0227	0.	126.77
1324	9.4667	3.5209	0.	130.08
1325	9.4864	3.0128	0.	132.31
1326	9.5074	2.5104	0.	133.18
1327	9.5386	2.0163	0.	131.49
1328	9.5612	1.5361	0.	129.22
1329	9.4215	1.0473	0.	128.75
1330	9.4825	0.48884	0.	129.81
1331	9.5055	-2.7509e-002	0.	133.93
1332	9.512	-0.52691	0.	133.11
1333	9.5093	-1.0218	0.	132.02
1334	9.506	-1.5157	0.	130.76
1335	9.5031	-2.0102	0.	129.12
1336	9.5014	-2.5063	0.	127.73
1337	9.5006	-3.0037	0.	126.94
1338	9.5002	-3.5021	0.	126.96
1339	9.5001	-4.0012	0.	127.63
1340	9.5	-4.5007	0.	128.64
1341	9.5	-5.0004	0.	129.78
1342	9.5	-5.5002	0.	133.01
1343	9.5	-6.0001	0.	133.18
1344	9.5	-6.5	0.	134.81
1345	9.5	-7.	0.	135.99
1346	9.5	-7.5	0.	134.
1347	9.5	-8.	0.	130.7
1348	9.5	-8.5	0.	129.86
1349	9.5	-9.	0.	125.9
1350	9.5	-9.5	0.	124.58
1351	9.	-9.5	0.	120.44
1352	8.5	-9.5	0.	118.12
1353	8.	-9.5	0.	119.4
1354	7.5	-9.5	0.	122.52
1355	7.	-9.5	0.	125.05
1356	6.5	-9.5	0.	126.34
1357	6.	-9.5	0.	126.91
1358	5.5	-9.5	0.	127.16
1359	5.	-9.5	0.	127.25
1360	4.5	-9.5	0.	127.21
1361	4.0001	-9.5	0.	127.03
1362	3.5002	-9.5001	0.	126.7
1363	3.0004	-9.5002	0.	126.23
1364	2.5007	-9.5004	0.	125.71
1365	2.0013	-9.5009	0.	125.28
1366	1.5023	-9.5016	0.	125.07
1367	1.0036	-9.5027	0.	125.1
1368	0.50506	-9.504	0.	125.27
1369	6.5629e-003	-9.505	0.	125.35
1370	-0.49233	-9.5053	0.	125.18
1371	-0.99185	-9.5045	0.	124.76
1372	-1.4917	-9.5035	0.	124.35
1373	-1.9913	-9.5054	0.	124.36
1374	-2.492	-9.5119	0.	125.01
1375	-2.9934	-9.5185	0.	126.15
1376	-3.4954	-9.5195	0.	127.37
1377	-3.9968	-9.5146	0.	128.36
1378	-4.4967	-9.5069	0.	129.05
1379	-4.996	-9.5009	0.	129.58
1380	-5.4955	-9.4976	0.	130.18
1381	-5.9958	-9.4967	0.	131.06
1382	-6.4972	-9.4976	0.	131.7
1383	-6.9987	-9.4993	0.	122.46
1384	-7.4996	-9.4999	0.	111.24
1385	-7.9999	-9.5	0.	110.7
1386	-8.5	-9.5	0.	111.55
1387	-9.	-9.5	0.	123.84
1388	-9.5	-9.4999	0.	135.26
1389	-9.5	-8.9997	0.	134.95
1390	-9.5001	-8.4989	0.	134.85
1391	-9.5012	-7.9961	0.	135.99
1392	-9.5046	-7.4879	0.	138.06
1393	-9.5033	-6.9719	0.	140.78
1394	-9.5061	-6.4582	0.	128.91
1395	-9.5442	-5.9611	0.	134.64
1396	-9.5665	-5.471	0.	133.49
1397	-9.5643	-4.9811	0.	130.39
1398	-9.5627	-4.4863	0.	129.32
1399	-9.5599	-3.9874	0.	129.13
1400	-9.556	-3.4873	0.	129.25
1401	-9.5535	-2.9867	0.	128.67
1402	-9.5509	-2.4861	0.	127.37
1403	-9.5464	-1.9862	0.	126.65
1404	-9.5391	-1.4886	0.	127.5
1405	-9.5338	-0.99232	0.	128.79
1406	-9.5298	-0.4969	0.	129.3
1407	-9.5274	-1.6883e-003	0.	128.98
1408	-9.53	0.49452	0.	128.17
1409	-9.5284	0.99084	0.	127.08
1410	-9.5302	1.4887	0.	125.96
1411	-9.5328	1.9885	0.	125.13
1412	-9.5316	2.4895	0.	124.92
1413	-9.5274	2.9916	0.	125.36
1414	-9.5213	3.4943	0.	126.17
1415	-9.5136	3.9968	0.	126.89
1416	-9.5039	4.4976	0.	127.21
1417	-9.4983	4.9984	0.	126.99
1418	-9.4967	5.4984	0.	126.36
1419	-9.497	5.9985	0.	125.57
1420	-9.4984	6.499	0.	124.98
1421	-9.4994	6.9996	0.	124.77
1422	-9.4998	7.4999	0.	124.86
1423	-9.5	8.	0.	125.01
1424	-9.5	8.5	0.	125.08
1425	-9.5	9.	0.	125.05
1426	-9.5	9.5	0.	125.01
1427	-3.0189	-0.19578	0.	134.36
1428	-2.5937	-0.34371	0.	121.85
1429	-2.1717	-0.50426	0.	106.55
1430	-1.73	-0.62727	0.	120.6
1431	1.4984	6.4973	0.	126.82
1432	-4.8995	1.3564	0.	132.91
1433	-4.8732	0.86899	0.	130.45
1434	-0.5	7.9997	0.	128.26
1435	0.49998	8.4998	0.	127.43
1436	2.5199	4.9954	0.	128.17
1437	-3.9999	7.4997	0.	135.23
1438	-1.052	2.1442	0.	119.77
1439	1.0032	5.4927	0.	129.09
1440	5.5	-5.5	0.	127.8
1441	9.0255	7.4632	0.	128.3
1442	-1.5317	2.0575	0.	118.5
1443	5.0014	-3.4991	0.	132.18
1444	-1.5	8.	0.	118.24
1445	-5.8979	3.8495	0.	116.08
1446	1.534	-2.4898	0.	124.83
1447	-7.9958	6.4995	0.	125.77
1448	-4.	7.9998	0.	133.28
1449	-5.4407	-7.4748	0.	128.08
1450	6.	-9.	0.	126.87
1451	6.3402	6.9297	0.	129.39
1452	-4.0039	1.9346	0.	132.71
1453	4.878	6.0168	0.	128.28
1454	2.151	0.86468	0.	134.36
1455	2.4953	6.0009	0.	126.98
1456	-3.3658	0.4623	0.	124.79
1457	-9.1245	-4.4806	0.	124.87
1458	2.4967	8.0003	0.	125.55
1459	-5.414	-1.5398	0.	124.63
1460	-3.983	-3.1829	0.	129.59
1461	-8.9985	6.9989	0.	125.5
1462	-7.616	-0.89643	0.	111.26
1463	-0.51135	-2.5242	0.	125.
1464	3.9414	6.0444	0.	127.01
1465	3.0283	3.9927	0.	128.61
1466	8.4834	5.9975	0.	123.41
1467	1.0011	5.9948	0.	127.59
1468	1.5071	4.4823	0.	130.3
1469	-9.0659	2.476	0.	125.43
1470	0.51501	-2.4106	0.	119.32
1471	-5.435	5.0073	0.	120.07
1472	-6.4173	4.9865	0.	115.4
1473	-2.1142	-1.4737	0.	121.14
1474	-2.6015	-0.85195	0.	119.32
1475	6.8298	6.9762	0.	126.94
1476	-5.4658	-3.0306	0.	130.27
1477	-6.2024	-0.19377	0.	120.03
1478	1.005	4.9889	0.	131.26
1479	2.5038	3.4652	0.	129.94
1480	-4.0128	-3.7102	0.	130.17
1481	1.9926	1.8881	0.	131.42
1482	4.0004	-8.5001	0.	127.27
1483	-8.5	9.0001	0.	125.71
1484	-1.4123	1.1476	0.	137.08
1485	3.0336	5.009	0.	127.65
1486	8.9231	5.4342	0.	127.45
1487	-4.9219	-1.5827	0.	126.58
1488	-7.4474	5.0126	0.	127.87
1489	-3.9898	5.4987	0.	136.49
1490	9.0544	4.5449	0.	130.07
1491	0.94454	0.84826	0.	123.38
1492	-6.5	8.0001	0.	120.31
1493	5.9035	7.8614	0.	129.07
1494	2.506	-7.0009	0.	127.41
1495	0.51175	-9.008	0.	125.36
1496	1.5054	-9.0032	0.	124.81
1497	2.0087	-8.0029	0.	123.98
1498	1.0215	-8.0096	0.	123.89
1499	3.0008	-6.0002	0.	130.7
1500	-7.6286	2.0594e-002	0.	121.91
1501	2.6669e-002	-3.4954	0.	126.59
1502	2.0451	1.37	0.	132.65
1503	5.2965	5.5159	0.	128.08
1504	-3.5014	3.4665	0.	130.69
1505	-5.3828	4.116	0.	123.7
1506	-2.9684	-2.7736	0.	126.59
1507	-6.8726	-6.9473	0.	120.65
1508	6.8762	6.4889	0.	119.69
1509	-4.4811	-3.1177	0.	130.54
1510	-5.9175	4.9668	0.	115.38
1511	-0.57025	-2.053	0.	133.73
1512	3.9492	6.5238	0.	126.53
1513	4.5001	-6.5	0.	128.36
1514	-1.5167	-2.5138	0.	127.77
1515	8.6032	4.9739	0.	127.23
1516	-4.5585	-4.4745	0.	130.91
1517	7.0283	8.9711	0.	113.27
1518	-8.6662	-2.4538	0.	129.92
1519	-3.9423	0.9241	0.	133.14
1520	3.4991	2.9845	0.	130.32
1521	4.3654	5.5772	0.	127.39
1522	1.9989	5.9966	0.	127.27
1523	-4.457	4.5025	0.	134.64
1524	-0.96753	-4.5109	0.	126.02
1525	3.5025	-0.99925	0.	129.9
1526	8.6071	7.9157	0.	131.25
1527	-7.8275	-4.956	0.	123.27
1528	-8.9997	7.4998	0.	125.82
1529	-2.	8.	0.	116.29
1530	-6.	8.	0.	119.04
1531	-5.5	8.	0.	121.56
1532	5.7841	5.5081	0.	127.92
1533	-5.0325	2.9717	0.	136.83
1534	7.5694	2.5816	0.	106.84
1535	6.6825	4.9845	0.	126.75
1536	9.0151	8.4602	0.	126.18
1537	7.2937	5.4168	0.	119.23
1538	3.9991	3.0052	0.	125.5
1539	-7.6812	1.4255	0.	128.22
1540	-8.1388	1.444	0.	126.96
1541	-6.5	9.	0.	122.97
1542	2.012	4.9891	0.	128.86
1543	-0.96624	-3.5104	0.	125.61
1544	-6.1726	-0.61349	0.	123.15
1545	4.0519	4.0333	0.	126.22
1546	-4.9515	5.0131	0.	127.81
1547	-3.4796	-3.2368	0.	128.25
1548	4.8085	5.5319	0.	127.76
1549	9.0097	2.4999	0.	132.16
1550	-7.9656	4.9835	0.	130.27
1551	1.0279	-7.5104	0.	122.61
1552	-1.48	-2.9912	0.	126.51
1553	5.1277	4.5366	0.	126.19
1554	5.8666	6.4676	0.	129.87
1555	6.06	0.58813	0.	129.3
1556	-5.0062	-4.9708	0.	131.33
1557	-1.2113	-1.1306	0.	131.4
1558	4.0002	-5.5002	0.	130.
1559	-4.007	-4.8323	0.	130.26
1560	-2.4717	-2.8486	0.	125.78
1561	-8.9962	6.4978	0.	125.5
1562	8.521	8.9594	0.	143.
1563	6.9866	4.4215	0.	129.31
1564	5.4524	7.9319	0.	124.92
1565	6.8622	5.9823	0.	120.68
1566	5.4222	3.0355	0.	129.07
1567	-4.4226	-0.60299	0.	129.15
1568	-3.9661	-1.6578	0.	128.95
1569	5.8528e-002	-7.5259	0.	127.9
1570	-0.88971	-6.5733	0.	130.94
1571	8.5097	0.28927	0.	133.39
1572	1.0041	4.484	0.	132.42
1573	-2.5774	-1.3551	0.	121.19
1574	-2.9807	-3.8011	0.	126.61
1575	8.9829	6.4826	0.	128.24
1576	5.9128	3.5302	0.	127.1
1577	1.9687	-0.66048	0.	129.2
1578	0.99969	6.4968	0.	126.95
1579	3.0018	-8.5006	0.	126.42
1580	-7.1703	0.51589	0.	123.15
1581	6.5258	-0.44409	0.	124.65
1582	2.5012	-6.0002	0.	130.97
1583	2.5019	-9.0009	0.	125.62
1584	4.0002	-9.0001	0.	127.1
1585	-8.1133	0.4803	0.	126.96
1586	-7.2523	-6.9809	0.	123.66
1587	-7.9519	4.4441	0.	130.83
1588	0.51537	0.9435	0.	116.38
1589	2.0967e-002	-5.0164	0.	129.66
1590	8.9828	5.9892	0.	127.28
1591	3.0114	3.4799	0.	129.73
1592	4.0086	-1.4975	0.	130.88
1593	-3.5004	1.439	0.	136.06
1594	-7.9778	5.4913	0.	129.75
1595	-6.	9.	0.	122.67
1596	-2.	9.	0.	121.51
1597	-7.8343	-4.4668	0.	122.07
1598	-3.3477	-6.782	0.	130.21
1599	-5.9443	3.3379	0.	114.23
1600	3.5648	4.53	0.	127.28
1601	4.4073	6.0415	0.	127.54
1602	-3.9633	-0.61883	0.	131.48
1603	-4.9876	-8.9994	0.	128.86
1604	7.9615	5.8531	0.	117.27
1605	-0.96987	-3.9994	0.	125.31
1606	-2.149	-0.98581	0.	114.64
1607	6.0254	8.918	0.	139.88
1608	-2.5364	-1.8556	0.	123.79
1609	4.5552	4.0369	0.	125.51
1610	0.50254	5.4941	0.	128.82
1611	1.7307	0.77984	0.	134.29
1612	-3.9679	-2.6766	0.	128.93
1613	-1.4832	1.5998	0.	130.74
1614	1.5144	-8.0056	0.	123.23
1615	1.0086	-9.0054	0.	124.96
1616	5.0008	-3.9997	0.	132.82
1617	0.54319	-7.0173	0.	125.86
1618	4.5129	3.5275	0.	124.53
1619	9.0624	4.9947	0.	131.27
1620	2.0055	5.4934	0.	128.11
1621	2.517	-3.0135	0.	130.82
1622	3.5629	-2.1521e-003	0.	130.39
1623	-6.4336	-6.9779	0.	120.06
1624	1.5567e-002	-9.0103	0.	125.68
1625	2.0111	-7.0022	0.	121.92
1626	2.0035	-9.0018	0.	125.06
1627	-3.91	-6.3414	0.	127.65
1628	-5.7847	0.81334	0.	119.27
1629	5.2034	5.0293	0.	127.12
1630	-8.5524	3.9774	0.	129.68
1631	7.0215	-0.96084	0.	112.33
1632	-0.47398	-4.5148	0.	127.8
1633	-7.1542	7.3326e-002	0.	119.69
1634	6.5	-6.	0.	122.59
1635	-0.98237	-3.0175	0.	126.58
1636	-3.5	8.4999	0.	128.28
1637	-7.5	8.5004	0.	126.18
1638	3.5005	-6.0001	0.	129.91
1639	2.9928	-1.0103	0.	130.02
1640	-3.8757	-6.8157	0.	129.04
1641	-1.6326	-1.5575	0.	125.97
1642	0.99952	7.9996	0.	127.27
1643	4.0021	-4.0013	0.	131.36
1644	2.5053	-8.0015	0.	125.51
1645	0.53161	-8.0152	0.	125.51
1646	1.9805	2.4116	0.	130.88
1647	-1.9639	-4.4269	0.	119.93
1648	3.5174	3.4978	0.	128.25
1649	4.5077	-1.4918	0.	131.7
1650	-3.9664	-2.169	0.	128.57
1651	4.4277	6.5188	0.	127.21
1652	-4.5067	-4.9214	0.	130.14
1653	-4.4764	-5.407	0.	129.19
1654	-5.7717	0.3267	0.	119.91
1655	-5.3169	0.36311	0.	124.67
1656	-5.7524	-0.13507	0.	122.
1657	-5.307	-0.11113	0.	124.73
1658	-8.2589	-4.9683	0.	116.17
1659	-8.6934	-5.0033	0.	116.6
1660	-8.261	-4.4693	0.	119.4
1661	-8.6908	-4.4818	0.	121.04
1662	-8.2528	-3.9635	0.	122.62
1663	-8.6845	-3.9716	0.	124.36
1664	-8.2355	-3.454	0.	125.43
1665	-8.6748	-3.4649	0.	129.17
1666	-8.2267	-2.9454	0.	137.88
1667	-8.6693	-2.9596	0.	133.03
1668	2.6679	0.43494	0.	133.52
1669	7.5363	8.9848	0.	112.18
1670	-0.49971	1.8472	0.	121.12
1671	-3.9728	1.4285	0.	135.74
1672	5.7671e-003	1.8134	0.	121.36
1673	0.49684	1.8805	0.	124.66
1674	0.99414	1.8812	0.	127.85
1675	1.4945	1.8634	0.	130.02
1676	-5.3074	-0.58482	0.	125.41
1677	-4.8671	-0.59436	0.	127.2
1678	-7.1423	-0.36778	0.	116.9
1679	-7.1191	-0.80681	0.	115.74
1680	6.7189	3.4638	0.	127.15
1681	6.3341	3.5082	0.	126.61
1682	6.8314	3.9414	0.	123.52
1683	6.4265	4.0001	0.	123.76
1684	6.095	4.5251	0.	125.9
1685	5.4154	1.5776	0.	133.47
1686	7.195	0.62167	0.	135.84
1687	7.0516	0.84494	0.	137.17
1688	6.9708	0.34907	0.	142.32
1689	6.7355	0.60336	0.	144.3
1690	8.255	0.66833	0.	136.82
1691	8.3767	0.90333	0.	132.08
1692	8.7109	0.79026	0.	143.82
1693	8.5148	0.48464	0.	149.06
1694	7.5383	1.785	0.	103.17
1695	7.8033	1.7967	0.	97.483
1696	7.3979	2.0544	0.	113.69
1697	7.8801	2.1025	0.	109.4
1698	7.6147	2.3008	0.	104.66
1699	8.3675	3.73	0.	140.69
1700	8.185	3.5275	0.	126.6
1701	8.6954	3.5008	0.	141.43
1702	8.4589	3.2375	0.	140.2
1703	8.2025	4.25	0.	116.75
1704	7.9375	4.3075	0.	77.998
1705	8.1733	4.798	0.	111.7
1706	8.3706	4.5251	0.	121.16
1707	7.872	4.6371	0.	112.1
1708	7.655	3.6425	0.	127.24
1709	7.5725	3.9025	0.	108.69
1710	7.4302	3.4225	0.	140.69
1711	7.2914	3.7721	0.	143.59
1712	7.4833	7.335	0.	109.35
1713	7.2183	7.3233	0.	103.77
1714	7.3808	6.8101	0.	111.07
1715	7.6463	7.0453	0.	119.3
1716	7.0949	7.0381	0.	118.22
1717	7.9767	8.275	0.	142.7
1718	7.835	8.4983	0.	145.74
1719	8.0682	8.7486	0.	152.
1720	8.3012	8.4533	0.	150.09
1721	6.6517	8.2167	0.	137.9
1722	6.775	8.4517	0.	143.29
1723	6.5167	8.6952	0.	154.73
1724	6.288	8.3837	0.	148.97
1725	-0.4675	6.e-002	0.	145.53
1726	-0.28125	0.2175	0.	128.19
1727	-0.71258	0.28332	0.	139.43
1728	-0.48403	0.52583	0.	134.52
1729	-0.2125	-1.38	0.	134.57
1730	1.623e-002	-1.4625	0.	112.01
1731	-0.10893	-1.807	0.	119.44
1732	-0.41236	-1.6094	0.	132.61
1733	1.0912	-0.2775	0.	129.08
1734	1.1337	-0.51751	0.	124.81
1735	1.5772	-0.29008	0.	145.47
1736	1.4469	-0.58545	0.	146.59
1737	1.3273	-6.8655e-002	0.	145.81
1738	-2.105	-6.6175	0.	99.242
1739	-2.345	-6.5075	0.	140.91
1740	-2.2827	-6.9358	0.	121.48
1741	-2.5757	-6.7562	0.	134.58
1742	-1.675	-6.3125	0.	107.12
1743	-1.7	-6.05	0.	114.41
1744	-1.2011	-6.1181	0.	138.36
1745	-1.3963	-6.4031	0.	142.55
1746	-1.4584	-5.8728	0.	140.2
1747	-2.395	-5.9825	0.	148.34
1748	-2.18	-5.83	0.	116.89
1749	-2.6712	-5.7516	0.	140.36
1750	-2.431	-5.5246	0.	136.12
1751	-2.7317	0.265	0.	128.51
1752	-2.7434	0.47665	0.	126.22
1753	-2.9694	8.2111e-002	0.	159.79
1754	-3.1429	0.41115	0.	155.44
1755	-1.9783	-0.115	0.	123.04
1756	-1.8017	1.6667e-003	0.	147.21
1757	-1.5558	-0.21191	0.	140.06
1758	-1.76	-0.41863	0.	135.16
1759	-2.0367	0.94332	0.	116.89
1760	-1.8483	0.84833	0.	143.19
1761	-1.9288	1.2722	0.	124.3
1762	-1.6362	1.1038	0.	138.58
1763	-8.3075	-5.9425	0.	103.27
1764	-8.07	-6.07	0.	141.81
1765	-8.1563	-5.6203	0.	119.85
1766	-7.912	-5.8438	0.	135.68
1767	-8.7625	-6.2275	0.	109.28
1768	-8.7525	-6.4975	0.	113.1
1769	-9.0028	-6.6631	0.	142.03
1770	-9.0475	-6.1264	0.	144.51
1771	-9.248	-6.4141	0.	141.48
1772	-8.05	-6.61	0.	145.31
1773	-8.2775	-6.7525	0.	111.31
1774	-8.0601	-7.0185	0.	126.87
1775	-7.8732	-6.8014	0.	134.92
1776	-7.665	-2.35	0.	129.03
1777	-7.85	-2.15	0.	141.45
1778	-8.0896	-2.4217	0.	145.54
1779	-7.8377	-2.6636	0.	135.48
1780	-7.135	-2.23	0.	128.67
1781	-7.055	-1.97	0.	112.17
1782	-6.677	-2.0828	0.	140.83
1783	-6.8707	-2.389	0.	146.17
1784	-7.69	-1.63	0.	117.88
1785	-7.425	-1.57	0.	80.908
1786	-7.8692	-1.3985	0.	120.63
1787	-7.3296	-1.303	0.	113.16
1788	-7.613	-1.1332	0.	109.76
1789	-6.565	1.4638	0.	116.71
1790	-6.7838	1.575	0.	140.04
1791	-6.9979	1.3669	0.	133.91
1792	-6.7496	1.1686	0.	125.37
1793	-5.335	2.2662	0.	123.36
1794	-5.3488	2.5113	0.	125.19
1795	-4.8405	2.4149	0.	143.99
1796	-5.052	2.1289	0.	148.
1797	-5.0812	2.6859	0.	147.54
1798	-6.8663	3.045	0.	145.03
1799	-6.6613	3.1788	0.	123.67
1800	-6.8585	3.4665	0.	131.46
1801	-7.0749	3.2633	0.	139.57
1802	8.	-6.25	0.	133.18
1803	8.25	-6.	0.	117.53
1804	8.	-5.75	0.	124.51
1805	7.75	-6.	0.	126.48
1806	8.	-7.75	0.	133.49
1807	8.25	-8.	0.	117.23
1808	8.	-8.25	0.	124.36
1809	7.75	-8.	0.	128.06
1810	8.75	-6.	0.	118.62
1811	9.	-6.25	0.	136.65
1812	9.	-5.7501	0.	127.
1813	9.25	-6.	0.	132.04
1814	8.75	-8.	0.	118.27
1815	9.	-7.75	0.	136.32
1816	9.	-8.25	0.	125.94
1817	9.25	-8.	0.	130.64
1818	4.	1.75	0.	141.92
1819	4.25	2.	0.	125.26
1820	3.7525	1.991	0.	135.34
1821	3.9974	2.2497	0.	132.14
1822	4.	1.25	0.	141.26
1823	4.25	1.	0.	124.28
1824	3.7709	0.99331	0.	135.21
1825	4.0185	0.75032	0.	130.61
1826	4.75	2.	0.	124.51
1827	5.	1.75	0.	140.15
1828	5.208	2.0231	0.	134.62
1829	4.9786	2.2583	0.	130.37
1830	4.75	1.	0.	124.2
1831	5.	1.25	0.	140.16
1832	5.2847	1.0611	0.	132.09
1833	5.0168	0.76576	0.	131.72
1834	6.	-2.25	0.	140.33
1835	6.25	-2.	0.	124.16
1836	5.7515	-1.9955	0.	134.83
1837	6.0023	-1.7412	0.	131.37
1838	6.	-3.75	0.	140.63
1839	6.25	-4.	0.	124.87
1840	5.7501	-3.9999	0.	134.87
1841	6.	-4.25	0.	131.68
1842	7.75	-2.	0.	119.92
1843	8.	-2.25	0.	135.55
1844	8.2514	-2.0079	0.	129.51
1845	8.0029	-1.759	0.	125.19
1846	7.75	-4.	0.	121.65
1847	8.	-3.75	0.	136.64
1848	8.25	-4.0007	0.	129.97
1849	8.	-4.2501	0.	127.06
1850	1.	-4.25	0.	136.31
1851	1.25	-4.	0.	119.85
1852	1.0062	-3.7412	0.	127.22
1853	0.75666	-3.9974	0.	130.33
1854	1.	-5.75	0.	134.47
1855	1.25	-6.	0.	117.86
1856	1.0104	-6.2532	0.	124.87
1857	0.76121	-6.0066	0.	129.01
1858	1.75	-4.	0.	119.95
1859	2.	-4.25	0.	137.16
1860	2.0045	-3.7518	0.	128.28
1861	2.2516	-4.002	0.	132.42
1862	1.75	-6.	0.	119.4
1863	2.	-5.75	0.	137.06
1864	2.0035	-6.2505	0.	127.79
1865	2.2506	-6.0001	0.	131.59
1866	-2.	3.75	0.	130.29
1867	-1.75	4.	0.	117.63
1868	-2.	4.2494	0.	120.91
1869	-2.2498	3.9946	0.	124.16
1870	-2.	3.25	0.	131.8
1871	-1.75	3.	0.	120.33
1872	-2.012	2.7413	0.	124.29
1873	-2.2532	2.9848	0.	126.72
1874	-0.25	4.	0.	129.51
1875	0.	3.75	0.	142.27
1876	0.25039	3.9916	0.	136.43
1877	8.8099e-004	4.2479	0.	135.1
1878	-0.25002	3.	0.	125.95
1879	0.	3.25	0.	140.61
1880	0.24476	2.9743	0.	133.57
1881	-1.3534e-002	2.7031	0.	130.21
1882	-3.	6.75	0.	141.32
1883	-2.75	7.	0.	125.31
1884	-3.	7.25	0.	132.42
1885	-3.2499	6.9998	0.	135.43
1886	-3.	5.25	0.	145.46
1887	-2.75	5.	0.	130.08
1888	-2.9977	4.7454	0.	137.18
1889	-3.2453	4.9974	0.	140.45
1890	-1.25	7.	0.	123.1
1891	-1.	6.75	0.	137.71
1892	-0.99999	7.2499	0.	129.7
1893	-0.74999	6.9996	0.	132.02
1894	-1.25	5.	0.	118.33
1895	-1.	5.25	0.	132.88
1896	-0.99991	4.7499	0.	123.
1897	-0.74956	4.9992	0.	126.34
1898	-7.	6.75	0.	138.6
1899	-6.75	7.	0.	125.34
1900	-6.9999	7.2501	0.	130.29
1901	-7.2497	7.0005	0.	132.07
1902	-7.	6.25	0.	137.64
1903	-6.75	6.	0.	123.8
1904	-6.9822	5.7519	0.	127.67
1905	-7.2449	6.0004	0.	131.1
1906	-5.25	7.	0.	127.37
1907	-5.	6.75	0.	141.48
1908	-4.7498	6.9999	0.	135.7
1909	-5.	7.25	0.	133.36
1910	-5.25	6.	0.	125.96
1911	-5.	6.25	0.	140.66
1912	-4.7479	6.0002	0.	134.98
1913	-4.9893	5.7523	0.	132.08
1914	-9.	-8.25	0.	138.53
1915	-8.75	-8.	0.	121.47
1916	-9.0076	-7.7458	0.	129.16
1917	-9.2506	-7.9981	0.	134.19
1918	-9.	-8.75	0.	139.09
1919	-8.75	-9.	0.	123.
1920	-9.	-9.25	0.	128.98
1921	-9.25	-8.9998	0.	134.23
1922	-7.25	-8.	0.	124.11
1923	-7.	-8.25	0.	137.29
1924	-6.7439	-7.992	0.	131.09
1925	-7.0095	-7.7174	0.	129.77
1926	-7.25	-9.	0.	121.59
1927	-7.	-8.75	0.	136.35
1928	-6.7473	-8.9975	0.	130.47
1929	-6.9994	-9.2496	0.	127.11
1930	-7.	-4.25	0.	131.62
1931	-6.75	-4.	0.	116.56
1932	-6.9556	-3.7636	0.	120.21
1933	-7.2011	-3.9954	0.	124.19
1934	-7.	-5.75	0.	134.13
1935	-6.75	-6.	0.	116.31
1936	-6.9559	-6.238	0.	121.97
1937	-7.1857	-5.9818	0.	128.2
1938	-6.25	-4.	0.	120.87
1939	-6.	-4.25	0.	138.27
1940	-5.7541	-4.0069	0.	133.64
1941	-5.9851	-3.7572	0.	130.77
1942	-6.25	-6.	0.	118.28
1943	-6.	-5.75	0.	136.19
1944	-5.7385	-5.9873	0.	130.8
1945	-5.9788	-6.2426	0.	127.68
1946	9.75	10.	0.	125.4
1947	10.	9.75	0.	124.41
1948	-9.75	10.	0.	125.02
1949	-10.	9.75	0.	124.97
1950	10.	-9.75	0.	126.97
1951	9.75	-10.	0.	125.4
1952	-10.	-9.75	0.	140.56
1953	-9.75	-10.	0.	137.29
1954	7.725	0.645	0.	107.83
1955	7.4876	0.37893	0.	104.9
1956	8.0009	0.43393	0.	105.62
1957	7.295	1.3149	0.	110.92
1958	6.9237	1.0959	0.	124.34
1959	7.1303	1.5971	0.	115.55
1960	8.09	1.35	0.	99.202
1961	8.4523	1.2709	0.	116.49
1962	8.1287	1.679	0.	105.76
1963	8.5769	4.0375	0.	127.07
1964	7.9426	3.3364	0.	93.361
1965	7.5752	4.2018	0.	92.709
1966	7.73	7.805	0.	114.51
1967	7.8377	7.5242	0.	118.16
1968	8.0388	7.9904	0.	128.66
1969	6.935	7.77	0.	104.29
1970	6.8806	7.4822	0.	111.77
1971	6.5806	7.9076	0.	121.8
1972	7.305	8.475	0.	115.72
1973	7.5531	8.7357	0.	114.53
1974	7.0342	8.7172	0.	112.51
1975	-0.3825	-0.42	0.	142.97
1976	-0.64664	-0.19194	0.	139.97
1977	-0.2975	-0.9	0.	141.93
1978	-0.57171	-0.6664	0.	141.41
1979	-0.49382	-1.14	0.	135.95
1980	0.17625	5.25e-002	0.	108.94
1981	-2.3191e-002	0.39574	0.	107.16
1982	0.63375	-0.1125	0.	106.55
1983	0.42715	0.2224	0.	113.39
1984	0.87948	6.6971e-002	0.	108.14
1985	0.38871	-1.1475	0.	100.78
1986	0.34946	-1.562	0.	107.92
1987	0.76122	-0.83252	0.	98.279
1988	0.714	-1.1971	0.	113.33
1989	1.0891	-0.89115	0.	111.54
1990	-1.8126	-6.7097	0.	91.048
1991	-2.6243	-6.256	0.	137.39
1992	-1.9412	-5.6933	0.	91.514
1993	-2.355	7.5e-002	0.	84.707
1994	-2.5685	-8.6857e-002	0.	95.972
1995	-2.1692	-0.26213	0.	100.4
1996	-2.39	0.70997	0.	78.098
1997	-2.7811	0.74809	0.	105.83
1998	-2.3849	1.0606	0.	105.46
1999	-1.825	0.425	0.	146.42
2000	-1.5853	0.22661	0.	140.19
2001	-1.6081	0.66479	0.	139.47
2002	-8.6216	-5.8268	0.	92.174
2003	-7.8968	-6.3322	0.	139.92
2004	-8.53	-6.8451	0.	89.302
2005	-7.3598	-2.4872	0.	96.1
2006	-7.9828	-1.9054	0.	130.25
2007	-7.0426	-1.6976	0.	97.287
2008	-6.155	1.7313	0.	100.09
2009	-6.3133	1.3824	0.	103.33
2010	-5.745	1.9987	0.	97.205
2011	-5.8654	1.6117	0.	111.4
2012	-5.4706	1.9187	0.	105.06
2013	-6.8113	2.065	0.	142.31
2014	-7.0207	1.8411	0.	136.21
2015	-6.8387	2.555	0.	143.24
2016	-7.0426	2.32	0.	139.04
2017	-7.0609	2.7959	0.	138.48
2018	-5.7863	2.7338	0.	100.56
2019	-5.5315	2.8831	0.	106.05
2020	-6.2238	2.9562	0.	103.77
2021	-5.9747	3.0915	0.	111.58
2022	-6.4173	3.2906	0.	104.99
2023	8.	-6.75	0.	137.84
2024	7.75	-6.5	0.	132.93
2025	8.	-7.25	0.	138.21
2026	7.75	-7.	0.	134.51
2027	7.75	-7.5	0.	133.85
2028	8.5	-5.7501	0.	108.
2029	8.5	-8.25	0.	106.98
2030	9.	-6.75	0.	142.37
2031	9.25	-6.5	0.	138.45
2032	9.	-7.25	0.	142.17
2033	9.25	-7.	0.	139.32
2034	9.25	-7.5	0.	137.85
2035	3.7595	1.4919	0.	140.66
2036	4.492	2.2534	0.	114.61
2037	4.5133	0.75502	0.	114.14
2038	5.2077	1.5388	0.	139.12
2039	6.	-2.75	0.	145.65
2040	5.7509	-2.498	0.	140.56
2041	6.	-3.25	0.	145.69
2042	5.7505	-2.9991	0.	141.97
2043	5.7502	-3.4996	0.	140.64
2044	6.75	-2.	0.	114.42
2045	6.5025	-1.7407	0.	113.63
2046	7.25	-2.	0.	112.82
2047	7.0023	-1.7415	0.	113.46
2048	7.5022	-1.7472	0.	109.62
2049	6.75	-4.	0.	115.91
2050	6.5	-4.25	0.	114.52
2051	7.25	-4.	0.	114.73
2052	7.	-4.25	0.	115.92
2053	7.5	-4.25	0.	112.27
2054	8.	-2.75	0.	141.8
2055	8.2503	-2.504	0.	136.43
2056	8.	-3.25	0.	142.04
2057	8.2501	-3.0021	0.	138.21
2058	8.25	-3.5012	0.	136.64
2059	1.	-4.75	0.	140.59
2060	0.75536	-4.5014	0.	136.52
2061	1.	-5.25	0.	140.12
2062	0.75543	-5.0032	0.	137.26
2063	0.75747	-5.5051	0.	135.58
2064	1.5044	-3.7467	0.	109.6
2065	1.5058	-6.2512	0.	108.16
2066	2.	-4.75	0.	142.14
2067	2.2505	-4.5009	0.	138.15
2068	2.	-5.25	0.	141.93
2069	2.2502	-5.0004	0.	139.
2070	2.2501	-5.5002	0.	137.8
2071	-2.251	3.4909	0.	129.89
2072	-1.25	4.	0.	115.49
2073	-1.5	4.2499	0.	109.28
2074	-0.75	4.	0.	120.85
2075	-0.99991	4.2499	0.	119.57
2076	-0.49969	4.2495	0.	122.07
2077	-1.25	3.	0.	116.88
2078	-1.5178	2.7632	0.	113.24
2079	-0.75007	3.	0.	118.72
2080	-1.0296	2.7786	0.	118.77
2081	-0.5388	2.7103	0.	117.11
2082	0.24854	3.4863	0.	139.1
2083	-3.	6.25	0.	147.12
2084	-3.2497	6.4997	0.	141.37
2085	-3.	5.75	0.	148.77
2086	-3.2491	5.9995	0.	144.07
2087	-3.2477	5.499	0.	144.63
2088	-2.25	7.	0.	116.21
2089	-2.5	7.25	0.	114.68
2090	-1.75	7.	0.	115.51
2091	-2.	7.25	0.	116.22
2092	-1.5	7.25	0.	113.37
2093	-2.25	5.	0.	119.06
2094	-2.4995	4.7474	0.	120.42
2095	-1.75	5.	0.	114.24
2096	-2.	4.7494	0.	117.59
2097	-1.5	4.7499	0.	108.96
2098	-1.	6.25	0.	141.48
2099	-0.74989	6.4995	0.	136.81
2100	-1.	5.75	0.	139.96
2101	-0.74972	5.9993	0.	136.97
2102	-0.74961	5.4992	0.	134.1
2103	-7.2487	6.5004	0.	135.98
2104	-6.25	7.	0.	119.42
2105	-6.5	7.25	0.	116.8
2106	-5.75	7.	0.	119.89
2107	-6.	7.25	0.	120.19
2108	-5.5	7.25	0.	117.86
2109	-6.25	6.	0.	117.93
2110	-6.4804	5.7467	0.	114.94
2111	-5.75	6.	0.	118.42
2112	-5.9822	5.745	0.	118.09
2113	-5.4859	5.7504	0.	116.38
2114	-4.7495	6.5	0.	139.47
2115	-9.2501	-8.4995	0.	139.54
2116	-8.25	-8.	0.	113.18
2117	-8.5145	-7.7651	0.	108.02
2118	-7.75	-8.	0.	115.78
2119	-8.019	-7.7803	0.	114.1
2120	-7.5203	-7.7683	0.	117.54
2121	-8.25	-9.	0.	114.2
2122	-8.5	-9.25	0.	111.9
2123	-7.75	-9.	0.	113.96
2124	-7.9999	-9.25	0.	113.31
2125	-7.4998	-9.25	0.	111.52
2126	-6.7452	-8.4957	0.	134.93
2127	-7.	-4.75	0.	139.7
2128	-7.2071	-4.4911	0.	133.15
2129	-7.	-5.25	0.	141.24
2130	-7.2048	-4.987	0.	138.07
2131	-7.1971	-5.4827	0.	139.35
2132	-6.4736	-3.759	0.	109.55
2133	-6.4732	-6.242	0.	107.05
2134	-6.	-4.75	0.	142.15
2135	-5.7562	-4.5005	0.	138.61
2136	-6.	-5.25	0.	141.48
2137	-5.7517	-4.9954	0.	138.9
2138	-5.746	-5.4911	0.	137.11
2139	9.25	10.	0.	126.03
2140	9.5009	9.747	0.	125.35
2141	8.75	10.	0.	125.43
2142	9.0026	9.7438	0.	127.2
2143	8.25	10.	0.	122.31
2144	8.5054	9.7424	0.	126.66
2145	7.75	10.	0.	118.89
2146	8.0075	9.7455	0.	122.12
2147	7.25	10.	0.	118.05
2148	7.5078	9.7454	0.	117.81
2149	6.75	10.	0.	120.68
2150	7.0071	9.7422	0.	119.24
2151	6.25	10.	0.	125.34
2152	6.5065	9.7373	0.	124.69
2153	5.75	10.	0.	128.94
2154	6.0069	9.7328	0.	129.05
2155	5.25	10.	0.	130.05
2156	5.5069	9.7364	0.	129.58
2157	4.75	10.	0.	129.55
2158	5.0055	9.7422	0.	128.73
2159	4.25	10.	0.	128.79
2160	4.5037	9.7462	0.	128.1
2161	3.75	10.	0.	128.22
2162	4.0022	9.7483	0.	127.69
2163	3.25	10.	0.	127.87
2164	3.5012	9.7493	0.	127.44
2165	2.75	10.	0.	127.65
2166	3.0006	9.7497	0.	127.29
2167	2.25	10.	0.	127.48
2168	2.5003	9.7499	0.	127.18
2169	1.75	10.	0.	127.27
2170	2.0001	9.7499	0.	127.06
2171	1.25	10.	0.	126.95
2172	1.5001	9.7499	0.	126.87
2173	0.75	10.	0.	126.41
2174	1.0001	9.75	0.	126.55
2175	0.25	10.	0.	125.61
2176	0.50003	9.75	0.	126.03
2177	-0.25	10.	0.	124.55
2178	1.8215e-005	9.75	0.	125.25
2179	-0.75	10.	0.	123.39
2180	-0.49999	9.75	0.	124.24
2181	-1.25	10.	0.	122.4
2182	-0.99999	9.75	0.	123.17
2183	-1.75	10.	0.	121.85
2184	-1.5	9.75	0.	122.35
2185	-2.25	10.	0.	121.9
2186	-2.	9.75	0.	122.07
2187	-2.75	10.	0.	122.49
2188	-2.5	9.75	0.	122.44
2189	-3.25	10.	0.	123.34
2190	-3.	9.75	0.	123.26
2191	-3.75	10.	0.	124.06
2192	-3.5	9.75	0.	124.12
2193	-4.25	10.	0.	124.32
2194	-4.	9.75	0.	124.62
2195	-4.75	10.	0.	124.07
2196	-4.5	9.75	0.	124.56
2197	-5.25	10.	0.	123.53
2198	-5.	9.75	0.	124.06
2199	-5.75	10.	0.	123.07
2200	-5.5	9.75	0.	123.45
2201	-6.25	10.	0.	122.94
2202	-6.	9.75	0.	123.11
2203	-6.75	10.	0.	123.21
2204	-6.5	9.75	0.	123.21
2205	-7.25	10.	0.	123.75
2206	-7.	9.75	0.	123.68
2207	-7.75	10.	0.	124.35
2208	-7.5	9.75	0.	124.28
2209	-8.25	10.	0.	124.79
2210	-8.	9.75	0.	124.76
2211	-8.75	10.	0.	125.01
2212	-8.5	9.75	0.	125.02
2213	-9.25	10.	0.	125.05
2214	-9.	9.75	0.	125.08
2215	-9.5	9.75	0.	125.02
2216	10.	9.25	0.	121.88
2217	9.7509	9.497	0.	124.36
2218	10.	8.75	0.	118.61
2219	9.7521	8.9942	0.	122.15
2220	10.	8.25	0.	117.25
2221	9.7544	8.4925	0.	120.
2222	10.	7.75	0.	119.24
2223	9.7582	7.9914	0.	120.21
2224	10.	7.25	0.	123.66
2225	9.7555	7.4915	0.	123.1
2226	10.	6.75	0.	128.33
2227	9.7501	6.9931	0.	126.76
2228	10.	6.25	0.	131.85
2229	9.7466	6.4944	0.	129.66
2230	10.	5.75	0.	133.73
2231	9.7431	5.9936	0.	131.47
2232	10.	5.25	0.	133.56
2233	9.7397	5.4943	0.	132.34
2234	10.	4.75	0.	130.83
2235	9.758	5.0006	0.	131.88
2236	10.	4.25	0.	127.48
2237	9.7543	4.5057	0.	129.61
2238	10.	3.75	0.	126.69
2239	9.7284	4.0114	0.	126.47
2240	10.	3.25	0.	129.96
2241	9.7334	3.5104	0.	128.6
2242	10.	2.75	0.	133.81
2243	9.7432	3.0064	0.	132.5
2244	10.	2.25	0.	133.5
2245	9.7537	2.5052	0.	134.02
2246	10.	1.75	0.	129.3
2247	9.7693	2.0082	0.	131.78
2248	10.	1.25	0.	125.1
2249	9.7806	1.518	0.	127.83
2250	10.	0.75	0.	125.37
2251	9.7107	1.0236	0.	126.22
2252	10.	0.25	0.	130.09
2253	9.7413	0.49442	0.	128.35
2254	10.	-0.25	0.	134.89
2255	9.7527	-1.3754e-002	0.	133.52
2256	10.	-0.75	0.	136.2
2257	9.756	-0.51345	0.	134.86
2258	10.	-1.25	0.	134.22
2259	9.7547	-1.0109	0.	133.9
2260	10.	-1.75	0.	130.64
2261	9.753	-1.5078	0.	131.69
2262	10.	-2.25	0.	126.9
2263	9.7515	-2.0051	0.	128.86
2264	10.	-2.75	0.	124.33
2265	9.7507	-2.5031	0.	126.43
2266	10.	-3.25	0.	123.78
2267	9.7503	-3.0019	0.	125.22
2268	10.	-3.75	0.	125.4
2269	9.7501	-3.5011	0.	125.51
2270	10.	-4.25	0.	128.7
2271	9.7501	-4.0006	0.	127.17
2272	10.	-4.75	0.	132.77
2273	9.75	-4.5003	0.	129.63
2274	10.	-5.25	0.	135.82
2275	9.75	-5.0002	0.	132.31
2276	10.	-5.75	0.	135.54
2277	9.75	-5.5001	0.	134.88
2278	10.	-6.25	0.	132.52
2279	9.75	-6.	0.	133.73
2280	10.	-6.75	0.	130.28
2281	9.75	-6.5	0.	132.77
2282	10.	-7.25	0.	129.23
2283	9.75	-7.	0.	132.9
2284	10.	-7.75	0.	129.55
2285	9.75	-7.5	0.	131.31
2286	10.	-8.25	0.	131.13
2287	9.75	-8.	0.	130.57
2288	10.	-8.75	0.	130.94
2289	9.75	-8.5	0.	130.82
2290	10.	-9.25	0.	128.76
2291	9.75	-9.	0.	127.97
2292	9.75	-9.5	0.	126.01
2293	-10.	9.25	0.	124.86
2294	-9.75	9.5	0.	124.97
2295	-10.	8.75	0.	124.66
2296	-9.75	9.	0.	124.92
2297	-10.	8.25	0.	124.34
2298	-9.75	8.5	0.	124.81
2299	-10.	7.75	0.	123.91
2300	-9.75	8.	0.	124.58
2301	-10.	7.25	0.	123.54
2302	-9.7499	7.4999	0.	124.27
2303	-10.	6.75	0.	123.54
2304	-9.7497	6.9998	0.	124.09
2305	-10.	6.25	0.	124.11
2306	-9.7492	6.4995	0.	124.32
2307	-10.	5.75	0.	125.18
2308	-9.7485	5.9992	0.	125.06
2309	-10.	5.25	0.	126.3
2310	-9.7483	5.4992	0.	126.07
2311	-10.	4.75	0.	126.96
2312	-9.7492	4.9992	0.	126.9
2313	-10.	4.25	0.	126.81
2314	-9.7519	4.4988	0.	127.16
2315	-10.	3.75	0.	125.86
2316	-9.7568	3.9984	0.	126.7
2317	-10.	3.25	0.	124.55
2318	-9.7607	3.4971	0.	125.69
2319	-10.	2.75	0.	123.52
2320	-9.7637	2.9958	0.	124.61
2321	-10.	2.25	0.	123.35
2322	-9.7658	2.4948	0.	124.04
2323	-10.	1.75	0.	124.26
2324	-9.7664	1.9943	0.	124.34
2325	-10.	1.25	0.	126.01
2326	-9.7651	1.4943	0.	125.46
2327	-10.	0.75	0.	128.04
2328	-9.7642	0.99542	0.	127.05
2329	-10.	0.25	0.	129.71
2330	-9.765	0.49726	0.	128.61
2331	-10.	-0.25	0.	130.37
2332	-9.7637	-8.4413e-004	0.	129.68
2333	-10.	-0.75	0.	129.55
2334	-9.7649	-0.49845	0.	129.83
2335	-10.	-1.25	0.	127.49
2336	-9.7669	-0.99616	0.	128.76
2337	-10.	-1.75	0.	125.53
2338	-9.7695	-1.4943	0.	126.87
2339	-10.	-2.25	0.	125.35
2340	-9.7732	-1.9931	0.	125.74
2341	-10.	-2.75	0.	127.1
2342	-9.7754	-2.493	0.	126.61
2343	-10.	-3.25	0.	129.32
2344	-9.7768	-2.9933	0.	128.5
2345	-10.	-3.75	0.	130.87
2346	-9.778	-3.4936	0.	129.77
2347	-10.	-4.25	0.	132.07
2348	-9.78	-3.9937	0.	130.28
2349	-10.	-4.75	0.	133.63
2350	-9.7814	-4.4932	0.	131.01
2351	-10.	-5.25	0.	134.08
2352	-9.7822	-4.9905	0.	132.46
2353	-10.	-5.75	0.	129.57
2354	-9.7832	-5.4855	0.	133.55
2355	-10.	-6.25	0.	126.43
2356	-9.7721	-5.9806	0.	129.99
2357	-10.	-6.75	0.	131.93
2358	-9.753	-6.4791	0.	128.04
2359	-10.	-7.25	0.	139.53
2360	-9.7517	-6.9859	0.	138.52
2361	-10.	-7.75	0.	139.41
2362	-9.7523	-7.494	0.	140.3
2363	-10.	-8.25	0.	133.04
2364	-9.7506	-7.9981	0.	136.04
2365	-10.	-8.75	0.	131.69
2366	-9.7501	-8.4995	0.	132.33
2367	-10.	-9.25	0.	136.5
2368	-9.75	-8.9998	0.	134.21
2369	-9.75	-9.5	0.	137.35
2370	-9.25	-10.	0.	127.67
2371	-9.5	-9.75	0.	134.08
2372	-8.75	-10.	0.	117.51
2373	-9.	-9.75	0.	123.11
2374	-8.25	-10.	0.	110.82
2375	-8.5	-9.75	0.	112.07
2376	-7.75	-10.	0.	110.71
2377	-7.9999	-9.75	0.	109.87
2378	-7.25	-10.	0.	116.86
2379	-7.4998	-9.75	0.	111.81
2380	-6.75	-10.	0.	125.62
2381	-6.9994	-9.7496	0.	121.87
2382	-6.25	-10.	0.	130.88
2383	-6.4986	-9.7488	0.	130.79
2384	-5.75	-10.	0.	131.37
2385	-5.9979	-9.7483	0.	131.46
2386	-5.25	-10.	0.	130.39
2387	-5.4977	-9.7488	0.	130.52
2388	-4.75	-10.	0.	129.54
2389	-4.998	-9.7505	0.	129.75
2390	-4.25	-10.	0.	128.73
2391	-4.4984	-9.7535	0.	129.1
2392	-3.75	-10.	0.	127.82
2393	-3.9984	-9.7573	0.	128.34
2394	-3.25	-10.	0.	126.73
2395	-3.4977	-9.7598	0.	127.34
2396	-2.75	-10.	0.	125.63
2397	-2.9967	-9.7592	0.	126.15
2398	-2.25	-10.	0.	124.79
2399	-2.496	-9.7559	0.	125.06
2400	-1.75	-10.	0.	124.44
2401	-1.9957	-9.7527	0.	124.42
2402	-1.25	-10.	0.	124.55
2403	-1.4958	-9.7517	0.	124.37
2404	-0.75	-10.	0.	124.88
2405	-0.99593	-9.7522	0.	124.73
2406	-0.25	-10.	0.	125.15
2407	-0.49617	-9.7527	0.	125.12
2408	0.25	-10.	0.	125.24
2409	3.2815e-003	-9.7525	0.	125.3
2410	0.75	-10.	0.	125.18
2411	0.50253	-9.752	0.	125.25
2412	1.25	-10.	0.	125.14
2413	1.0018	-9.7513	0.	125.12
2414	1.75	-10.	0.	125.25
2415	1.5011	-9.7508	0.	125.11
2416	2.25	-10.	0.	125.54
2417	2.0007	-9.7504	0.	125.31
2418	2.75	-10.	0.	125.98
2419	2.5004	-9.7502	0.	125.72
2420	3.25	-10.	0.	126.45
2421	3.0002	-9.7501	0.	126.22
2422	3.75	-10.	0.	126.84
2423	3.5001	-9.75	0.	126.68
2424	4.25	-10.	0.	127.11
2425	4.	-9.75	0.	127.02
2426	4.75	-10.	0.	127.25
2427	4.5	-9.75	0.	127.21
2428	5.25	-10.	0.	127.24
2429	5.	-9.75	0.	127.26
2430	5.75	-10.	0.	127.05
2431	5.5	-9.75	0.	127.18
2432	6.25	-10.	0.	126.53
2433	6.	-9.75	0.	126.9
2434	6.75	-10.	0.	125.41
2435	6.5	-9.75	0.	126.25
2436	7.25	-10.	0.	123.44
2437	7.	-9.75	0.	124.85
2438	7.75	-10.	0.	120.93
2439	7.5	-9.75	0.	122.36
2440	8.25	-10.	0.	119.24
2441	8.	-9.75	0.	119.52
2442	8.75	-10.	0.	119.8
2443	8.5	-9.75	0.	118.48
2444	9.25	-10.	0.	122.54
2445	9.	-9.75	0.	120.6
2446	9.5	-9.75	0.	124.44
2447	3.2519	5.5187	0.	127.2
2448	2.9969	5.7582	0.	127.03
2449	2.7565	5.5035	0.	127.45
2450	3.0199	5.2586	0.	127.46
2451	3.7234	5.5528	0.	127.15
2452	4.0407	5.3444	0.	127.11
2453	3.9454	5.8104	0.	127.09
2454	4.1573	5.5768	0.	127.29
2455	3.4841	5.7764	0.	126.95
2456	3.5299	5.2832	0.	127.17
2457	3.2292	6.0158	0.	126.78
2458	2.9848	6.2579	0.	126.51
2459	2.7415	6.0045	0.	126.89
2460	3.4696	6.2695	0.	126.51
2461	3.7061	6.034	0.	126.89
2462	4.4125	5.0787	0.	127.03
2463	4.6561	4.7948	0.	126.64
2464	4.7506	5.2885	0.	127.39
2465	4.9481	5.0372	0.	127.07
2466	2.5133	5.2471	0.	127.89
2467	2.501	5.7499	0.	127.3
2468	2.2561	5.4961	0.	127.86
2469	-3.4741	-2.4647	0.	127.77
2470	-3.2194	-2.7468	0.	127.23
2471	-3.475	-2.9784	0.	128.07
2472	-3.7191	-2.6983	0.	128.41
2473	3.8472	5.0748	0.	127.13
2474	4.1132	4.8346	0.	126.83
2475	4.2488	5.3448	0.	127.22
2476	3.298	5.0231	0.	127.44
2477	3.5636	4.7836	0.	127.25
2478	3.2253	6.5115	0.	126.24
2479	2.7361	6.5048	0.	126.31
2480	2.9837	6.756	0.	125.96
2481	3.4724	6.7614	0.	125.92
2482	3.7089	6.5196	0.	126.39
2483	2.2431	6.5004	0.	126.5
2484	1.9958	6.7493	0.	126.41
2485	1.7471	6.4981	0.	126.71
2486	1.9974	6.2478	0.	126.94
2487	2.4911	6.7516	0.	126.15
2488	2.4928	6.2514	0.	126.68
2489	-5.9383	-1.0213	0.	125.2
2490	-6.0341	-1.2501	0.	124.66
2491	-6.3468	-1.0765	0.	125.57
2492	-6.1517	-0.82029	0.	124.32
2493	-1.9667	-3.1809	0.	125.23
2494	-1.9901	-2.6942	0.	125.95
2495	-1.7256	-2.9643	0.	126.17
2496	-2.2214	-2.893	0.	125.81
2497	1.5022	5.7442	0.	128.11
2498	1.4994	6.2463	0.	127.17
2499	1.2508	5.9951	0.	127.56
2500	1.7497	5.996	0.	127.4
2501	-4.4489	-1.8654	0.	128.27
2502	-4.4417	-1.3622	0.	128.54
2503	-4.684	-1.5983	0.	127.41
2504	-4.2061	-1.6359	0.	128.6
2505	-2.2125	-3.3858	0.	124.94
2506	-1.7154	-3.4503	0.	124.79
2507	-1.9625	-3.6737	0.	123.68
2508	4.3568	4.5506	0.	126.44
2509	4.8736	4.5405	0.	126.22
2510	4.5873	4.2907	0.	125.88
2511	5.25	-6.5	0.	126.58
2512	5.	-6.25	0.	127.72
2513	5.0001	-6.75	0.	127.08
2514	4.7501	-6.5	0.	127.82
2515	2.7819	4.4977	0.	128.32
2516	3.0344	4.2487	0.	128.31
2517	3.0371	4.7569	0.	127.83
2518	3.3027	4.5174	0.	127.65
2519	-5.114	-1.0738	0.	126.3
2520	-4.6648	-1.0992	0.	127.93
2521	-4.9071	-1.3354	0.	126.8
2522	-4.8797	-0.84125	0.	127.12
2523	-5.7412	-0.79809	0.	124.41
2524	-5.9546	-0.59706	0.	123.52
2525	-5.7445	-0.35785	0.	122.96
2526	-5.522	-0.58273	0.	124.66
2527	-5.5408	-1.0375	0.	125.24
2528	-5.3749	-1.2996	0.	125.09
2529	-5.3216	-0.82211	0.	125.49
2530	-5.8416	-1.2444	0.	124.37
2531	-3.2313	-2.2338	0.	126.92
2532	-3.4895	-1.9508	0.	127.91
2533	-3.7221	-2.1893	0.	128.12
2534	-2.7396	-2.3029	0.	125.75
2535	-2.9989	-2.0139	0.	125.91
2536	-2.9766	-2.5158	0.	126.38
2537	2.5197	4.2358	0.	128.88
2538	2.2619	3.9782	0.	129.25
2539	2.7722	3.9868	0.	128.87
2540	2.5099	3.7231	0.	129.54
2541	2.2682	4.4869	0.	128.94
2542	2.5216	4.7431	0.	128.4
2543	4.5001	-5.75	0.	129.54
2544	4.75	-6.	0.	128.6
2545	4.2501	-6.	0.	129.3
2546	4.5001	-6.25	0.	128.71
2547	4.0731	4.295	0.	126.42
2548	3.8295	4.5433	0.	126.95
2549	-3.5082	-4.0215	0.	129.16
2550	-3.7558	-3.7345	0.	129.44
2551	-3.4892	-3.4978	0.	128.49
2552	-3.2397	-3.7799	0.	127.66
2553	-2.7161	-3.3153	0.	125.96
2554	-2.4648	-3.6013	0.	124.71
2555	-2.4672	-3.098	0.	125.52
2556	-2.969	-3.0284	0.	126.62
2557	-3.2245	-3.26	0.	127.45
2558	-2.9751	-3.5422	0.	126.63
2559	3.5143	-2.2575	0.	131.53
2560	3.2683	-2.0135	0.	131.36
2561	3.5124	-1.7559	0.	131.02
2562	3.7625	-2.0035	0.	131.34
2563	4.9181	6.7429	0.	127.9
2564	5.1481	6.4915	0.	128.92
2565	4.8939	6.2584	0.	128.29
2566	4.6688	6.5094	0.	127.76
2567	-4.4586	-2.3674	0.	128.77
2568	-4.6991	-2.0938	0.	127.55
2569	-4.2091	-2.1429	0.	128.43
2570	-2.2518	-2.3993	0.	125.71
2571	-2.483	-2.5982	0.	125.56
2572	-2.5154	-2.1017	0.	124.56
2573	5.6709	4.7841	0.	126.59
2574	5.5814	4.2888	0.	125.88
2575	5.3771	4.5379	0.	126.14
2576	5.8608	4.5322	0.	125.99
2577	5.9605	5.0259	0.	126.97
2578	5.7496	5.2685	0.	127.51
2579	5.4593	5.0291	0.	127.11
2580	-4.1998	-1.1267	0.	129.54
2581	-4.43	-0.85666	0.	128.99
2582	3.7616	-2.5045	0.	131.57
2583	3.5117	-2.7569	0.	131.86
2584	3.2667	-2.5119	0.	131.73
2585	4.5001	-5.2501	0.	130.55
2586	4.7501	-5.5	0.	129.8
2587	4.2501	-5.5001	0.	130.01
2588	-3.8012	-4.2777	0.	130.03
2589	-4.3219	-4.1637	0.	130.85
2590	-4.0488	-3.9907	0.	130.32
2591	-4.3217	-4.3728	0.	130.69
2592	-4.0459	-4.5517	0.	130.37
2593	1.5058	5.2402	0.	129.27
2594	1.2536	5.4928	0.	128.89
2595	1.7548	5.4932	0.	128.39
2596	-4.7131	-2.5923	0.	128.87
2597	-4.4733	-2.8679	0.	129.89
2598	-4.2167	-2.6474	0.	129.09
2599	-2.0349	-2.2073	0.	125.36
2600	-1.7629	-2.4823	0.	126.93
2601	-1.4666	-3.725	0.	124.22
2602	-1.2175	-3.4933	0.	125.29
2603	-1.4744	-3.2337	0.	125.73
2604	5.75	-6.5	0.	125.1
2605	5.5	-6.75	0.	125.79
2606	5.5	-6.25	0.	126.18
2607	6.	-6.75	0.	124.49
2608	6.	-6.25	0.	124.34
2609	6.25	-6.5	0.	123.91
2610	5.25	-6.	0.	127.32
2611	5.	-5.75	0.	128.86
2612	-5.6047	4.4729	0.	119.63
2613	-6.1008	4.4419	0.	115.64
2614	-5.8643	4.1242	0.	116.44
2615	-5.6067	4.2574	0.	120.25
2616	-5.8741	4.6828	0.	116.09
2617	5.3729	6.242	0.	129.23
2618	5.6031	5.9972	0.	128.85
2619	5.1187	6.009	0.	128.6
2620	5.3279	5.7585	0.	128.5
2621	1.747	6.9993	0.	126.39
2622	1.4982	7.2493	0.	126.56
2623	1.2486	6.9989	0.	126.78
2624	1.4982	6.7481	0.	126.69
2625	2.2438	7.0005	0.	126.07
2626	1.9963	7.2498	0.	126.13
2627	2.7387	7.0028	0.	125.8
2628	2.493	7.2511	0.	125.77
2629	3.2308	7.0059	0.	125.64
2630	2.9877	7.2531	0.	125.48
2631	3.7199	7.0077	0.	125.68
2632	3.4801	7.2549	0.	125.3
2633	4.2054	7.0046	0.	126.05
2634	3.9693	7.254	0.	125.32
2635	3.9564	6.7658	0.	126.15
2636	4.6867	6.9935	0.	126.92
2637	4.454	7.2469	0.	125.7
2638	4.4375	6.76	0.	126.77
2639	5.1631	6.9749	0.	128.42
2640	4.934	7.2303	0.	126.66
2641	2.0022	3.7172	0.	129.47
2642	1.9901	3.1966	0.	129.91
2643	1.7455	3.4591	0.	129.44
2644	2.2503	3.4621	0.	129.76
2645	6.25	-7.	0.	124.46
2646	6.75	-7.	0.	124.93
2647	6.5	-7.25	0.	124.69
2648	6.5	-6.75	0.	123.87
2649	5.75	-7.	0.	125.18
2650	6.	-7.25	0.	124.93
2651	5.2501	-7.	0.	126.29
2652	5.5001	-7.25	0.	125.81
2653	4.7501	-7.	0.	127.37
2654	5.0001	-7.25	0.	126.81
2655	4.2503	-7.	0.	128.24
2656	4.5003	-7.25	0.	127.69
2657	4.5002	-6.75	0.	128.11
2658	4.0004	-6.75	0.	128.87
2659	4.0007	-7.25	0.	128.35
2660	3.7509	-7.	0.	128.87
2661	2.7774	-2.0283	0.	131.22
2662	3.0207	-2.2679	0.	131.57
2663	3.018	-1.7698	0.	131.12
2664	4.2549	-3.0003	0.	131.4
2665	4.7529	-2.9984	0.	132.02
2666	4.5049	-2.7482	0.	131.46
2667	4.503	-3.2494	0.	131.4
2668	4.0077	-2.7515	0.	131.42
2669	4.0049	-3.2516	0.	131.43
2670	3.7579	-3.0039	0.	131.72
2671	3.7503	-5.0005	0.	130.54
2672	3.2505	-5.001	0.	131.02
2673	3.5008	-4.7511	0.	130.76
2674	3.5003	-5.2505	0.	130.32
2675	4.0005	-4.7505	0.	130.83
2676	4.2502	-5.0002	0.	130.83
2677	4.0002	-5.2503	0.	130.29
2678	4.0098	-2.2506	0.	131.38
2679	4.2578	-2.4994	0.	131.48
2680	3.2621	-1.5122	0.	130.78
2681	3.5063	-1.2519	0.	130.3
2682	3.7593	-1.501	0.	130.79
2683	-2.2148	-3.8892	0.	123.44
2684	-1.7137	-3.9485	0.	123.1
2685	-1.9633	-4.175	0.	121.33
2686	-2.4661	-4.1079	0.	123.32
2687	-2.7238	-3.8282	0.	125.38
2688	-4.1958	-5.8758	0.	128.01
2689	-3.9552	-5.6002	0.	128.43
2690	-3.6855	-5.8311	0.	127.91
2691	-3.9253	-6.0961	0.	127.6
2692	3.2858	4.0024	0.	128.06
2693	3.7976	4.0227	0.	126.86
2694	3.5541	4.2711	0.	127.39
2695	3.5303	3.755	0.	127.88
2696	4.2588	-1.9973	0.	131.58
2697	4.0094	-1.7487	0.	131.12
2698	3.751	-4.5011	0.	131.05
2699	4.2507	-4.5005	0.	131.4
2700	4.0014	-4.251	0.	131.22
2701	1.33	-1.9444	0.	126.56
2702	1.3187	-1.6947	0.	128.19
2703	1.0582	-2.1491	0.	124.07
2704	0.96925	-1.6377	0.	122.5
2705	0.79095	-1.8451	0.	123.22
2706	4.253	-3.5008	0.	131.44
2707	3.7547	-3.5031	0.	131.74
2708	4.0029	-3.7515	0.	131.4
2709	4.0002	-6.25	0.	129.33
2710	3.7505	-6.5	0.	129.44
2711	4.2502	-6.5	0.	128.74
2712	4.0002	-5.7501	0.	129.77
2713	3.7504	-6.0001	0.	129.72
2714	2.0104	4.2293	0.	129.31
2715	1.7551	3.9745	0.	129.54
2716	1.7602	4.4827	0.	129.78
2717	2.0126	4.7361	0.	129.06
2718	2.236	2.9383	0.	130.6
2719	1.7338	2.9347	0.	129.96
2720	1.9819	2.6729	0.	130.56
2721	5.3932	6.7234	0.	129.42
2722	5.4058	7.2047	0.	128.54
2723	5.6332	6.9506	0.	130.16
2724	5.6265	6.4753	0.	129.7
2725	2.2899	-2.0395	0.	130.56
2726	2.5276	-1.7937	0.	131.2
2727	2.5293	-2.2803	0.	130.76
2728	1.8108	-2.03	0.	129.21
2729	1.5633	-1.7679	0.	130.04
2730	1.5543	-2.2537	0.	126.62
2731	2.0476	-1.8131	0.	130.85
2732	2.0394	-2.2816	0.	128.85
2733	-3.2572	-1.7309	0.	126.9
2734	-3.5038	-1.4342	0.	128.98
2735	-3.7337	-1.6749	0.	128.55
2736	-3.0296	-1.5089	0.	126.
2737	-2.7747	-1.8127	0.	124.71
2738	-6.6501	-0.49607	0.	120.72
2739	-6.5994	-0.91635	0.	123.95
2740	-6.4044	-0.66015	0.	122.65
2741	-6.8776	-0.75682	0.	118.96
2742	-4.8604	0.14168	0.	127.55
2743	-4.6325	-9.8923e-002	0.	127.99
2744	-5.0841	-0.10619	0.	125.94
2745	-4.8641	-0.3478	0.	127.17
2746	4.259	-0.9926	0.	130.04
2747	4.0135	-0.74633	0.	128.95
2748	3.7556	-0.99765	0.	129.83
2749	4.0086	-1.2468	0.	130.32
2750	6.2508	5.266	0.	126.69
2751	6.4442	5.0037	0.	126.79
2752	6.1504	4.774	0.	126.37
2753	5.1767	7.4601	0.	126.79
2754	5.6392	7.4254	0.	129.38
2755	5.432	7.6886	0.	126.34
2756	4.7013	7.4836	0.	125.44
2757	4.9573	7.7217	0.	125.01
2758	4.2179	7.4963	0.	124.97
2759	4.4715	7.7399	0.	124.54
2760	3.7295	7.5013	0.	124.93
2761	3.9815	7.7481	0.	124.58
2762	3.237	7.5022	0.	125.13
2763	3.488	7.751	0.	124.83
2764	2.742	7.5014	0.	125.45
2765	2.9924	7.7511	0.	125.19
2766	2.2454	7.5004	0.	125.84
2767	2.4954	7.7505	0.	125.59
2768	1.7476	7.4997	0.	126.3
2769	1.9976	7.7499	0.	126.03
2770	1.2488	7.4994	0.	126.9
2771	1.4987	7.7496	0.	126.56
2772	5.75	-6.	0.	125.42
2773	5.5	-5.75	0.	127.15
2774	6.	-5.75	0.	124.47
2775	6.25	-6.	0.	123.46
2776	5.2958	4.0375	0.	125.62
2777	5.0264	3.7843	0.	125.44
2778	5.0915	4.2866	0.	125.88
2779	4.8053	4.0368	0.	125.54
2780	-1.4633	-4.2279	0.	122.94
2781	-1.2172	-3.9867	0.	124.4
2782	3.7513	-7.5001	0.	128.15
2783	3.2526	-7.5004	0.	127.96
2784	3.5015	-7.2501	0.	128.68
2785	3.5015	-7.7502	0.	127.86
2786	4.2507	-7.5	0.	127.79
2787	4.0007	-7.7501	0.	127.83
2788	4.7503	-7.5	0.	127.14
2789	4.5003	-7.75	0.	127.42
2790	5.2502	-7.5	0.	126.34
2791	5.0002	-7.75	0.	126.8
2792	5.7501	-7.5	0.	125.56
2793	5.5001	-7.75	0.	126.11
2794	6.25	-7.5	0.	125.16
2795	6.	-7.75	0.	125.58
2796	-1.8161	-2.0022	0.	126.25
2797	-2.0875	-1.7187	0.	122.89
2798	-2.2986	-1.9096	0.	124.21
2799	-4.9536	-2.3187	0.	127.65
2800	-5.1951	-2.0499	0.	125.55
2801	-4.9342	-1.8268	0.	126.69
2802	-6.1821	-1.5034	0.	126.57
2803	-5.9435	-1.7368	0.	122.85
2804	-5.6757	-1.5065	0.	124.23
2805	7.	-7.25	0.	125.7
2806	7.	-6.75	0.	124.75
2807	7.25	-7.	0.	128.15
2808	-4.9687	-2.814	0.	129.78
2809	-5.2071	-2.5477	0.	127.52
2810	5.0029	-2.7465	0.	132.5
2811	5.2516	-2.998	0.	135.19
2812	5.0018	-3.2484	0.	132.42
2813	3.001	-4.752	0.	131.52
2814	3.0005	-5.251	0.	131.08
2815	2.7505	-5.0011	0.	133.66
2816	0.50055	6.2469	0.	127.34
2817	0.25098	5.9967	0.	127.8
2818	0.75105	5.9955	0.	127.54
2819	0.50178	5.7451	0.	128.15
2820	-4.1283	-7.544	0.	130.23
2821	-3.6772	-7.6739	0.	130.55
2822	-3.8632	-7.431	0.	130.44
2823	-3.9259	-7.8614	0.	130.15
2824	-4.6397	-7.4545	0.	129.63
2825	-4.3823	-7.1747	0.	129.7
2826	-4.0993	-7.3323	0.	130.15
2827	-4.4041	-7.7227	0.	129.72
2828	-4.9309	-7.7222	0.	129.
2829	-4.9182	-7.2067	0.	129.61
2830	-5.1779	-7.4693	0.	128.7
2831	0.76869	1.3776	0.	123.
2832	0.30885	1.3094	0.	117.97
2833	0.52607	1.1684	0.	118.49
2834	0.51681	1.6369	0.	122.63
2835	-5.1529	4.5359	0.	125.74
2836	-5.4069	4.7771	0.	121.26
2837	-5.3808	4.3315	0.	123.07
2838	6.75	-7.5	0.	125.47
2839	6.5	-7.75	0.	125.51
2840	-3.4712	-7.917	0.	130.01
2841	-3.2527	-7.7042	0.	130.56
2842	-3.3763	-7.4938	0.	131.38
2843	-3.2511	-4.2978	0.	128.34
2844	-3.5048	-4.5446	0.	130.39
2845	6.75	-6.5	0.	123.69
2846	6.5	-6.25	0.	123.03
2847	-7.6985	2.1342	0.	127.73
2848	-7.926	2.3952	0.	127.13
2849	-7.7005	2.6013	0.	127.98
2850	-7.4812	2.35	0.	131.58
2851	-6.452	0.19829	0.	116.98
2852	-6.2309	0.47912	0.	114.54
2853	-6.2127	2.749e-002	0.	118.42
2854	-5.9974	0.28772	0.	118.33
2855	-6.6292	4.5134	0.	117.09
2856	-6.3712	4.2377	0.	112.96
2857	-6.3941	4.7357	0.	114.94
2858	-4.4132	-6.6514	0.	129.04
2859	-4.6608	-6.9269	0.	129.68
2860	-4.1379	-6.8599	0.	129.25
2861	2.4838	2.6807	0.	131.31
2862	2.7407	2.9497	0.	131.27
2863	2.4962	3.2038	0.	130.45
2864	2.576	1.1687	0.	133.06
2865	2.5181	1.6628	0.	132.17
2866	2.7876	1.4353	0.	132.09
2867	2.2928	1.3913	0.	132.58
2868	5.5006	3.7867	0.	126.17
2869	5.7652	4.0351	0.	125.39
2870	4.5068	-2.2462	0.	131.68
2871	4.7549	-2.4964	0.	131.94
2872	4.513	-0.73849	0.	129.
2873	4.2675	-0.49221	0.	127.9
2874	4.5226	-0.23769	0.	125.61
2875	4.7658	-0.4818	0.	128.5
2876	4.759	-0.98495	0.	131.07
2877	4.5085	-1.2405	0.	131.01
2878	4.5004	-4.7502	0.	131.4
2879	4.7502	-5.0001	0.	131.31
2880	4.5018	-3.7501	0.	131.54
2881	4.7519	-3.4995	0.	131.81
2882	5.0001	-5.25	0.	130.56
2883	5.25	-5.5	0.	128.69
2884	3.5077	-3.2554	0.	132.02
2885	3.2618	-3.0088	0.	132.22
2886	3.502	-4.2522	0.	131.3
2887	3.2513	-4.502	0.	131.26
2888	2.7726	-2.5199	0.	131.11
2889	3.0167	-2.7638	0.	132.08
2890	2.7551	-7.501	0.	126.77
2891	3.0031	-7.7506	0.	127.26
2892	3.0032	-7.2504	0.	128.45
2893	1.7645	-7.5043	0.	122.21
2894	1.5177	-7.2552	0.	119.68
2895	1.2729	-7.5081	0.	121.98
2896	1.5161	-7.7557	0.	122.31
2897	3.2503	-5.5004	0.	130.38
2898	3.7502	-5.5003	0.	130.06
2899	3.5004	-5.7502	0.	130.02
2900	3.501	-6.7501	0.	129.45
2901	3.2521	-7.0002	0.	129.16
2902	1.5073	4.7349	0.	130.08
2903	1.2563	4.9882	0.	130.56
2904	1.7598	4.9883	0.	129.36
2905	1.4892	3.1971	0.	129.47
2906	1.4984	3.7164	0.	129.5
2907	1.2442	3.4603	0.	129.12
2908	0.49987	6.748	0.	127.41
2909	0.25016	6.4979	0.	127.55
2910	0.74988	6.4972	0.	127.07
2911	0.99914	7.249	0.	127.12
2912	0.74936	6.9986	0.	127.31
2913	0.99938	6.7477	0.	126.97
2914	0.74943	7.4993	0.	127.74
2915	0.99936	7.7495	0.	127.26
2916	6.0985	5.9923	0.	127.55
2917	5.8154	5.7507	0.	128.34
2918	5.8567	6.2304	0.	129.32
2919	5.8666	7.1713	0.	130.99
2920	6.079	7.3874	0.	130.55
2921	5.8851	7.6334	0.	129.98
2922	6.5459	5.4967	0.	125.06
2923	6.323	5.7502	0.	126.43
2924	6.0399	5.5085	0.	127.22
2925	6.2849	2.7806	0.	132.57
2926	6.4927	3.0113	0.	132.28
2927	6.0777	3.0258	0.	131.34
2928	6.3119	3.2647	0.	129.12
2929	2.7682	-1.5353	0.	131.09
2930	3.0035	-1.2651	0.	130.43
2931	-0.65307	-7.5399	0.	129.58
2932	-0.431	-7.7816	0.	128.72
2933	-0.41228	-7.289	0.	129.89
2934	-0.17971	-7.531	0.	128.75
2935	-5.3324	1.0608	0.	125.93
2936	-5.1028	0.85253	0.	127.89
2937	-5.5586	0.82471	0.	122.31
2938	-5.3246	0.59959	0.	125.01
2939	1.2593	1.3258	0.	127.94
2940	0.97257	1.1051	0.	124.41
2941	0.99737	1.6215	0.	126.65
2942	-3.7343	-1.1598	0.	130.03
2943	-3.9641	-1.4005	0.	129.6
2944	-3.9628	-0.88098	0.	130.87
2945	-4.6259	0.39341	0.	128.7
2946	-4.8665	0.6268	0.	129.2
2947	-5.0883	0.37386	0.	126.31
2948	-4.398	0.15281	0.	129.13
2949	-4.1715	-9.431e-002	0.	129.22
2950	-4.4133	-0.34979	0.	128.99
2951	-4.4014	0.65133	0.	130.97
2952	-4.1495	0.41181	0.	129.76
2953	-3.2763	-1.2123	0.	128.08
2954	-3.5101	-0.91215	0.	131.61
2955	-3.0507	-0.98809	0.	127.76
2956	-2.8118	-1.3016	0.	123.77
2957	1.4343	1.0269	0.	130.18
2958	1.7816	1.3298	0.	131.54
2959	1.6244	1.0348	0.	132.36
2960	1.5063	1.5765	0.	130.22
2961	-3.5115	2.7001	0.	129.49
2962	-3.2586	2.9573	0.	127.94
2963	-3.7633	2.9531	0.	130.55
2964	-3.5057	3.2104	0.	130.02
2965	-4.4274	1.1521	0.	134.28
2966	-4.642	0.88472	0.	131.46
2967	-4.1766	0.91228	0.	132.81
2968	-4.6994	4.014	0.	132.96
2969	-4.2242	3.9875	0.	135.74
2970	-4.4783	3.7369	0.	135.8
2971	-4.4611	4.2488	0.	134.85
2972	-4.9303	4.2789	0.	129.93
2973	-4.9535	3.7788	0.	131.58
2974	-5.1582	4.0745	0.	127.28
2975	-1.4609	-4.7479	0.	122.44
2976	-1.2148	-4.4965	0.	124.21
2977	-1.7129	-4.4545	0.	121.15
2978	-1.1175	-7.5386	0.	127.95
2979	-1.3906	-7.7725	0.	124.95
2980	-1.552	-7.5051	0.	122.06
2981	-1.3212	-7.3069	0.	128.38
2982	-0.91096	-7.7855	0.	128.32
2983	-0.87612	-7.3021	0.	131.22
2984	2.8473	-0.2499	0.	130.7
2985	2.9294	-8.8349e-003	0.	131.63
2986	2.5124	-0.10767	0.	131.2
2987	2.6983	0.20174	0.	132.47
2988	3.238	-0.48287	0.	129.78
2989	3.0478	-0.22727	0.	130.91
2990	2.7015	-0.53442	0.	129.53
2991	2.9793	-0.73933	0.	130.
2992	1.8	-1.5511	0.	131.65
2993	1.7507	-1.3233	0.	132.47
2994	1.3914	-1.3128	0.	132.41
2995	2.2852	-1.5673	0.	131.48
2996	1.9988	-1.3562	0.	132.47
2997	2.5024	-1.3102	0.	130.88
2998	6.7393	5.2344	0.	125.17
2999	7.0449	5.4506	0.	121.39
3000	6.8291	5.7333	0.	122.14
3001	6.1033	6.9335	0.	130.19
3002	5.8665	6.7024	0.	130.43
3003	0.49966	7.2488	0.	127.93
3004	0.24981	6.9986	0.	128.31
3005	0.49975	7.7495	0.	128.19
3006	0.24976	7.4992	0.	129.01
3007	1.4811	2.6709	0.	129.93
3008	1.2296	2.4085	0.	130.13
3009	1.7292	2.4092	0.	130.54
3010	1.4862	2.135	0.	130.11
3011	1.2352	2.9365	0.	129.86
3012	1.2517	3.9749	0.	130.4
3013	1.5049	4.228	0.	130.02
3014	-3.5114	2.1934	0.	130.94
3015	-3.2632	2.4443	0.	128.59
3016	-3.7683	2.4442	0.	130.33
3017	3.2513	-6.5001	0.	130.13
3018	3.5007	-6.2501	0.	129.84
3019	2.259	-7.5021	0.	124.45
3020	2.0099	-7.7529	0.	123.52
3021	2.0112	-7.2526	0.	122.48
3022	2.5064	-7.2512	0.	126.63
3023	2.506	-7.7514	0.	125.68
3024	0.78426	-7.5138	0.	124.01
3025	0.29959	-7.5216	0.	126.65
3026	0.54192	-7.2673	0.	125.63
3027	0.53613	-7.7662	0.	125.46
3028	2.2788	-2.5223	0.	129.04
3029	2.5214	-2.7687	0.	130.64
3030	2.025	-2.7649	0.	126.26
3031	1.7828	-2.5053	0.	126.2
3032	3.5044	-3.7537	0.	131.81
3033	3.2533	-4.0036	0.	131.98
3034	3.7525	-4.0021	0.	131.47
3035	3.257	-3.506	0.	132.5
3036	-0.46622	-3.7637	0.	126.25
3037	-0.47146	-3.2644	0.	125.6
3038	-0.21941	-3.5046	0.	126.25
3039	-0.71586	-3.5121	0.	125.77
3040	-0.22145	-4.0084	0.	127.18
3041	-0.71841	-4.0065	0.	125.94
3042	-0.47046	-4.2641	0.	127.18
3043	1.0248	-2.6934	0.	122.24
3044	1.2824	-2.4584	0.	124.09
3045	0.77295	-2.4189	0.	121.35
3046	6.25	-5.5	0.	123.01
3047	6.	-5.25	0.	124.83
3048	5.75	-5.5	0.	126.2
3049	4.5009	-4.2502	0.	131.69
3050	4.751	-4.	0.	132.23
3051	4.2517	-4.0008	0.	131.5
3052	4.7504	-4.5001	0.	132.35
3053	4.7561	-1.9931	0.	132.49
3054	4.5075	-1.7433	0.	131.76
3055	5.2313	3.5335	0.	125.99
3056	5.4437	3.2853	0.	127.87
3057	5.689	3.5326	0.	126.88
3058	4.9798	3.2782	0.	125.08
3059	4.7552	3.5298	0.	124.92
3060	6.2832	2.3004	0.	132.71
3061	6.2818	1.8216	0.	130.67
3062	6.067	2.0601	0.	132.36
3063	6.4978	2.0795	0.	130.79
3064	6.0639	2.5435	0.	133.62
3065	6.4918	2.5421	0.	132.92
3066	3.7644	-0.497	0.	128.85
3067	3.5064	-0.74833	0.	129.73
3068	3.5366	-0.24978	0.	129.98
3069	4.0288	-0.24746	0.	127.11
3070	2.8437	0.94545	0.	133.57
3071	2.3812	0.8948	0.	133.99
3072	2.6396	0.67992	0.	133.57
3073	2.4872	2.166	0.	131.75
3074	2.7337	2.4335	0.	132.23
3075	2.2297	2.4153	0.	131.27
3076	2.7496	1.9334	0.	132.13
3077	2.244	1.9006	0.	131.63
3078	4.0096	3.2604	0.	125.67
3079	4.0361	3.7744	0.	126.04
3080	4.2665	3.5215	0.	125.19
3081	3.7688	3.5067	0.	127.06
3082	-4.5333	-3.8316	0.	131.26
3083	-4.7933	-4.0406	0.	131.88
3084	-4.5588	-4.2654	0.	131.06
3085	-4.7538	-3.5781	0.	131.99
3086	-4.2602	-3.6586	0.	130.73
3087	-4.4943	-3.3623	0.	130.92
3088	-4.4386	-6.1497	0.	128.54
3089	-4.6832	-6.4204	0.	129.34
3090	-4.1682	-6.37	0.	128.14
3091	-4.7068	-5.9226	0.	129.1
3092	-4.4636	-5.6539	0.	128.82
3093	-7.147	4.5419	0.	123.55
3094	-6.868	4.3104	0.	119.26
3095	-6.9079	4.7784	0.	120.28
3096	-7.3605	4.3193	0.	128.02
3097	-7.4269	4.7772	0.	127.64
3098	-7.6792	4.493	0.	129.12
3099	-6.6724	-6.874e-002	0.	118.22
3100	-6.4332	-0.23954	0.	119.6
3101	-6.9031	-0.32655	0.	118.06
3102	-6.6901	0.36737	0.	116.62
3103	-6.9176	0.11058	0.	118.45
3104	-0.22745	-3.0006	0.	124.39
3105	-0.49439	-2.7696	0.	125.12
3106	-0.72991	-3.0163	0.	125.92
3107	6.5	-5.25	0.	120.35
3108	6.75	-5.5	0.	121.03
3109	6.5	-5.75	0.	122.01
3110	-3.7163	-5.3324	0.	130.15
3111	-3.9883	-5.091	0.	129.78
3112	-4.223	-5.3783	0.	129.24
3113	-2.725	-4.3359	0.	124.79
3114	-2.4614	-4.6089	0.	121.76
3115	-2.2146	-4.3937	0.	121.19
3116	-2.9788	-4.5631	0.	128.33
3117	-2.9827	-4.0562	0.	126.85
3118	-3.5622	-7.2509	0.	131.26
3119	-3.8549	-7.0175	0.	129.7
3120	6.2606	-0.9642	0.	122.99
3121	6.5083	-1.2216	0.	116.68
3122	6.5187	-0.703	0.	121.86
3123	6.7665	-0.96137	0.	115.67
3124	5.9535	3.781	0.	126.1
3125	6.2103	4.016	0.	124.43
3126	6.0446	4.2785	0.	125.5
3127	7.	-7.75	0.	126.27
3128	7.25	-7.5	0.	127.69
3129	-6.4947	-1.3298	0.	127.39
3130	-6.806	-1.1809	0.	122.47
3131	-3.2628	1.934	0.	130.58
3132	-3.7568	1.9378	0.	132.48
3133	-3.5051	1.69	0.	134.16
3134	-5.3667	1.4952	0.	124.84
3135	-5.5566	1.322	0.	121.46
3136	-5.1159	1.3209	0.	129.7
3137	6.488	7.3936	0.	126.44
3138	6.3296	7.5956	0.	135.56
3139	6.3158	7.1495	0.	129.74
3140	5.9138e-004	6.2478	0.	128.
3141	9.9953e-005	6.7485	0.	128.44
3142	-0.24976	6.4986	0.	129.98
3143	3.357e-002	-5.7738	0.	128.03
3144	-0.21855	-5.5289	0.	128.55
3145	0.27134	-5.516	0.	130.02
3146	2.4357e-002	-5.2692	0.	129.09
3147	3.0026	-4.2535	0.	131.94
3148	2.7512	-4.5022	0.	132.86
3149	-5.0282	-4.261	0.	132.07
3150	-5.2707	-4.4991	0.	133.29
3151	-4.7937	-4.4858	0.	131.26
3152	-5.0176	-4.7339	0.	131.47
3153	-6.61	4.0346	0.	115.09
3154	-6.3818	3.752	0.	111.73
3155	-6.1347	3.9199	0.	113.73
3156	-7.9216	1.9144	0.	126.57
3157	-7.4695	1.8803	0.	129.03
3158	-7.6881	1.6619	0.	127.64
3159	-0.18366	1.2459	0.	117.99
3160	4.3516e-002	0.94101	0.	112.71
3161	0.29814	1.0845	0.	115.84
3162	4.3341e-002	1.5195	0.	118.39
3163	-5.4486	-2.2789	0.	125.41
3164	-5.6966	-2.0147	0.	123.1
3165	-5.4289	-1.7844	0.	124.44
3166	-1.3231	-2.0524	0.	129.72
3167	-1.5441	-2.2773	0.	127.81
3168	-1.6021	-1.7991	0.	126.91
3169	-4.692	4.5137	0.	131.83
3170	-4.9393	4.7689	0.	128.4
3171	4.7275	7.978	0.	124.11
3172	4.9888	8.2177	0.	124.12
3173	5.2126	7.9503	0.	124.56
3174	4.2351	7.9917	0.	124.15
3175	4.4915	8.2364	0.	124.02
3176	3.74	7.9978	0.	124.48
3177	3.9937	8.2452	0.	124.35
3178	3.2434	8.	0.	124.89
3179	3.4954	8.2489	0.	124.78
3180	2.9968	8.2499	0.	125.22
3181	2.7457	8.0003	0.	125.33
3182	1.7487	7.9998	0.	126.29
3183	1.999	8.2498	0.	126.06
3184	2.2475	8.0001	0.	125.78
3185	1.4995	8.2497	0.	126.54
3186	1.2493	7.9997	0.	126.92
3187	0.24989	7.9997	0.	128.57
3188	0.49991	8.2497	0.	127.78
3189	0.74968	7.9996	0.	127.71
3190	-2.75	7.9999	0.	122.47
3191	-2.5	8.25	0.	120.24
3192	-2.5	7.75	0.	117.31
3193	-2.25	8.	0.	117.74
3194	1.2364e-003	5.7467	0.	127.96
3195	-0.24926	5.9979	0.	130.33
3196	-7.8897	0.95393	0.	128.48
3197	-8.3525	0.96101	0.	127.55
3198	-8.1289	1.1992	0.	127.37
3199	-8.1162	0.71738	0.	127.38
3200	-8.149	2.1754	0.	125.96
3201	-8.3764	1.9431	0.	125.82
3202	-8.1435	1.6873	0.	126.5
3203	-8.1422	2.6706	0.	126.54
3204	-8.3768	2.4379	0.	125.72
3205	-8.1043	3.1851	0.	128.61
3206	-7.9167	2.8767	0.	127.4
3207	-8.3621	2.9409	0.	126.9
3208	-8.0981	3.7034	0.	130.69
3209	-7.8739	3.5452	0.	131.66
3210	-7.8706	3.3496	0.	130.51
3211	-8.3206	3.459	0.	129.22
3212	-7.9295	3.9958	0.	131.79
3213	-8.0371	4.2008	0.	131.09
3214	-8.3373	3.9675	0.	130.53
3215	5.75	-8.	0.	126.13
3216	6.25	-8.	0.	125.94
3217	6.	-8.25	0.	126.25
3218	5.2501	-8.	0.	126.58
3219	5.5	-8.25	0.	126.52
3220	4.7502	-8.	0.	127.08
3221	5.0001	-8.25	0.	126.92
3222	4.2504	-8.0001	0.	127.45
3223	4.5002	-8.25	0.	127.27
3224	3.7509	-8.0002	0.	127.54
3225	4.0005	-8.2501	0.	127.43
3226	3.252	-8.0004	0.	127.15
3227	3.501	-8.2502	0.	127.26
3228	3.0022	-8.2506	0.	126.62
3229	2.754	-8.0011	0.	126.17
3230	-0.20056	-8.0244	0.	127.46
3231	3.5045e-002	-8.2688	0.	126.68
3232	5.0727e-002	-7.7738	0.	127.49
3233	0.28727	-8.0184	0.	126.3
3234	-0.68889	-8.0272	0.	127.43
3235	-0.45542	-8.2728	0.	127.13
3236	-1.1841	-8.0193	0.	125.31
3237	-0.94906	-8.2716	0.	126.29
3238	-1.703	-7.9836	0.	122.03
3239	-1.4516	-8.2584	0.	123.7
3240	-2.2397	-8.0111	0.	122.02
3241	-1.8643	-7.7163	0.	119.11
3242	-2.0759	-7.7385	0.	119.01
3243	-1.9741	-8.2271	0.	121.73
3244	-2.7543	-8.0952	0.	125.53
3245	-2.5635	-7.8426	0.	124.13
3246	-2.4956	-8.3025	0.	123.88
3247	-3.2403	-8.1264	0.	128.45
3248	-3.0219	-7.9136	0.	129.02
3249	-2.9941	-8.3486	0.	127.01
3250	-3.7198	-8.1045	0.	129.59
3251	-3.4834	-8.3529	0.	128.83
3252	-4.2017	-8.0401	0.	129.64
3253	-3.971	-8.3158	0.	129.41
3254	-4.6952	-7.9903	0.	129.09
3255	-4.4599	-8.2566	0.	129.26
3256	-5.2025	-7.981	0.	128.13
3257	-4.9593	-8.237	0.	128.56
3258	-5.7154	-7.9829	0.	127.34
3259	-5.4666	-8.2347	0.	127.57
3260	-5.4496	-7.7281	0.	127.83
3261	6.5	-8.25	0.	126.27
3262	6.75	-8.	0.	126.32
3263	7.5584	-0.70219	0.	108.94
3264	7.7719	-1.011	0.	113.4
3265	7.5133	-1.237	0.	110.07
3266	7.2719	-0.97016	0.	111.48
3267	7.8303	-0.51603	0.	110.45
3268	8.0672	-0.40659	0.	112.54
3269	8.0439	-0.82489	0.	114.96
3270	8.3046	-0.60128	0.	118.63
3271	6.6183	4.7405	0.	126.52
3272	6.7703	4.459	0.	127.82
3273	6.4902	4.2483	0.	125.03
3274	6.3245	4.5108	0.	126.11
3275	-5.2078	3.5898	0.	128.52
3276	-5.4689	3.3994	0.	123.08
3277	-5.6701	3.7522	0.	120.41
3278	-5.4125	3.8855	0.	124.21
3279	-3.9913	3.7227	0.	135.41
3280	-4.2453	3.4722	0.	135.47
3281	-4.0079	3.2087	0.	133.06
3282	-3.7503	3.466	0.	132.55
3283	-2.205	-4.8971	0.	117.63
3284	-1.7062	-4.9754	0.	118.42
3285	-1.9475	-5.1918	0.	111.34
3286	-1.9583	-4.682	0.	117.18
3287	-0.71858	-5.0285	0.	129.51
3288	-0.46778	-5.2811	0.	129.04
3289	-0.22488	-5.0214	0.	129.59
3290	-0.47235	-4.7706	0.	128.66
3291	-0.17121	-7.035	0.	129.3
3292	-0.63533	-7.0513	0.	131.51
3293	-0.41396	-6.793	0.	128.71
3294	6.6995	2.7728	0.	132.61
3295	6.8917	2.9932	0.	131.34
3296	6.7073	3.2327	0.	129.94
3297	6.3571	6.2291	0.	127.45
3298	6.6062	5.9868	0.	123.51
3299	-3.9799	4.2355	0.	137.23
3300	-3.738	3.9788	0.	135.25
3301	-9.2503e-005	7.7494	0.	129.39
3302	-2.1458e-005	8.2498	0.	128.24
3303	-0.25003	7.9997	0.	128.63
3304	0.99747	3.7188	0.	130.01
3305	0.99025	3.1998	0.	129.49
3306	0.74568	3.467	0.	130.71
3307	-3.0268	1.6777	0.	130.18
3308	-3.0146	2.1849	0.	128.23
3309	-2.7711	1.9036	0.	124.63
3310	2.7503	-5.5005	0.	132.29
3311	3.0006	-5.7504	0.	130.66
3312	3.0024	-6.7502	0.	129.85
3313	2.7545	-7.0006	0.	128.3
3314	1.2729	-7.007	0.	119.27
3315	1.5146	-6.7535	0.	114.
3316	1.7644	-7.0035	0.	119.92
3317	5.9765e-002	-6.7778	0.	128.3
3318	6.1353e-002	-7.277	0.	128.15
3319	0.30368	-7.0227	0.	127.13
3320	1.2689	-2.9748	0.	120.64
3321	1.7686	-2.9995	0.	122.51
3322	1.5139	-3.2416	0.	115.91
3323	1.5264	-2.7399	0.	122.54
3324	3.0111	-3.2595	0.	132.69
3325	2.7655	-3.0125	0.	131.62
3326	2.26e-002	-4.257	0.	128.17
3327	0.26594	-4.5068	0.	130.49
3328	2.1059e-002	-4.7636	0.	129.11
3329	-0.22641	-4.5127	0.	128.17
3330	1.2856e-002	-2.7315	0.	121.69
3331	0.27167	-2.9708	0.	123.29
3332	2.4601e-002	-3.2408	0.	125.07
3333	6.75	-5.	0.	118.04
3334	6.25	-5.	0.	122.17
3335	6.5	-4.75	0.	117.22
3336	5.0002	-4.75	0.	132.25
3337	5.2501	-5.	0.	130.9
3338	5.0043	-2.2434	0.	132.74
3339	5.2528	-2.4956	0.	134.19
3340	5.0118	-0.72827	0.	130.59
3341	5.259	-0.97667	0.	131.85
3342	5.0074	-1.2335	0.	132.62
3343	6.211	1.3405	0.	127.19
3344	6.5608	1.6134	0.	127.63
3345	6.0474	1.5899	0.	129.2
3346	4.7254	3.02	0.	123.59
3347	4.4864	2.7612	0.	119.11
3348	4.2439	3.0104	0.	123.91
3349	4.5008	3.2715	0.	123.45
3350	5.8566	2.7887	0.	132.39
3351	5.644	3.033	0.	130.03
3352	5.8893	3.2804	0.	129.06
3353	4.2838	7.0654e-003	0.	124.77
3354	4.7783	2.2195e-002	0.	125.16
3355	4.5276	0.26124	0.	119.55
3356	3.123	0.24799	0.	132.82
3357	3.3464	5.8182e-003	0.	131.1
3358	3.0192	1.7059	0.	132.03
3359	3.0554	1.212	0.	132.58
3360	3.2769	1.4709	0.	133.1
3361	2.9906	2.7026	0.	132.19
3362	3.2459	2.9708	0.	130.94
3363	3.002	3.2184	0.	130.66
3364	-4.9884	-3.3054	0.	131.87
3365	-5.2212	-3.0461	0.	130.65
3366	-4.7289	-3.0896	0.	130.79
3367	-4.9732	-5.6994	0.	129.87
3368	-5.2378	-5.4682	0.	131.65
3369	-4.995	-5.2126	0.	130.66
3370	-4.7301	-5.4306	0.	129.59
3371	-5.18	-6.9605	0.	129.44
3372	-4.9307	-6.6959	0.	129.97
3373	-3.998	6.249	0.	133.28
3374	-3.9995	6.7493	0.	132.83
3375	-4.2491	6.4995	0.	132.72
3376	-3.7493	6.4993	0.	134.37
3377	-7.75	8.0006	0.	128.17
3378	-7.9999	7.7507	0.	128.52
3379	-8.	8.2504	0.	127.57
3380	-8.25	8.0004	0.	127.67
3381	-7.683	3.0412	0.	129.27
3382	-7.4841	2.8122	0.	130.67
3383	-7.5256	4.0654	0.	130.4
3384	-7.7053	3.8376	0.	132.75
3385	-7.8443	4.2391	0.	131.52
3386	-6.4691	0.6482	0.	114.06
3387	-6.2527	0.93841	0.	112.98
3388	-6.0118	0.76142	0.	115.76
3389	-7.6496	0.71582	0.	127.8
3390	-7.6338	0.24942	0.	124.19
3391	-7.4047	0.49706	0.	124.74
3392	-7.8762	0.47927	0.	126.69
3393	-1.0451	-2.3022	0.	130.38
3394	-0.76348	-2.5323	0.	127.09
3395	-1.2661	-2.5271	0.	128.48
3396	-0.99899	-2.7789	0.	127.89
3397	-2.797	1.3614	0.	126.42
3398	-3.0165	1.1656	0.	138.33
3399	-3.269	1.4337	0.	133.74
3400	7.	-6.25	0.	123.33
3401	7.25	-6.5	0.	126.17
3402	7.	-5.25	0.	118.8
3403	7.25	-5.	0.	117.39
3404	7.	-4.75	0.	115.62
3405	-3.4117	-6.0553	0.	126.86
3406	-3.1359	-6.2831	0.	127.48
3407	-3.3705	-6.5406	0.	127.85
3408	-3.6516	-6.3203	0.	126.59
3409	-3.2325	-4.8099	0.	130.35
3410	-3.4775	-5.06	0.	131.08
3411	-3.7495	-4.8186	0.	130.72
3412	-1.9687	-7.4989	0.	117.57
3413	-1.7461	-7.2155	0.	120.93
3414	-3.1667	-7.4928	0.	131.33
3415	-2.8311	-7.6611	0.	127.61
3416	7.3184	-0.43033	0.	110.95
3417	7.8313	-0.31545	0.	109.15
3418	7.5548	-0.15018	0.	105.64
3419	5.2648	-0.46886	0.	130.04
3420	5.0215	-0.22192	0.	128.1
3421	5.7662	-0.45681	0.	130.37
3422	5.5238	-0.20236	0.	130.83
3423	5.512	-0.71726	0.	131.31
3424	6.0216	-0.19276	0.	130.84
3425	6.0136	-0.7091	0.	128.49
3426	6.2718	-0.44789	0.	127.26
3427	-6.4554	-1.7647	0.	122.87
3428	-6.6359	-1.5795	0.	132.11
3429	-5.6982	-2.5184	0.	125.4
3430	-5.4597	-2.7797	0.	128.41
3431	-8.106	-0.23989	0.	124.98
3432	-8.3419	-4.8926e-003	0.	126.64
3433	-7.8664	8.3295e-003	0.	123.62
3434	-8.1088	0.23818	0.	126.17
3435	-7.8124	-3.7122	0.	121.08
3436	-7.5798	-3.4846	0.	119.61
3437	-7.7721	-3.1872	0.	114.7
3438	-8.0171	-3.4556	0.	122.88
3439	-6.6445	-3.0425	0.	120.19
3440	-6.1826	-3.0217	0.	125.43
3441	-6.4181	-2.7751	0.	127.57
3442	-6.4327	-3.2712	0.	117.75
3443	-5.9462	-2.2541	0.	123.04
3444	-5.945	-2.7634	0.	125.65
3445	-6.1804	-2.5168	0.	127.91
3446	-6.2168	-1.998	0.	119.18
3447	5.7792	6.1689e-002	0.	131.3
3448	6.2724	7.0308e-002	0.	134.31
3449	6.0427	0.32715	0.	130.45
3450	7.0269	-0.17381	0.	116.58
3451	6.7841	-0.43993	0.	119.59
3452	7.0319	-0.6983	0.	113.48
3453	-3.0227	-7.2346	0.	134.66
3454	-3.319	-7.0322	0.	131.17
3455	-2.3997	-7.57	0.	121.13
3456	-2.6872	-7.4029	0.	131.02
3457	-2.2128	-7.3114	0.	111.66
3458	-2.7152	-4.8361	0.	125.32
3459	-2.4497	-5.0932	0.	119.44
3460	-2.9629	-5.0593	0.	133.64
3461	-3.4466	-5.5633	0.	129.61
3462	-3.2079	-5.3095	0.	134.35
3463	-3.1763	-5.7973	0.	128.45
3464	-5.9659	-7.7335	0.	126.96
3465	-5.9772	-8.2363	0.	126.73
3466	-6.2301	-7.9842	0.	128.07
3467	-5.9528	-7.2324	0.	125.56
3468	-6.2181	-7.4801	0.	127.43
3469	-5.7	-7.4787	0.	127.44
3470	7.	-5.75	0.	121.71
3471	7.25	-5.5	0.	121.97
3472	7.25	-6.	0.	123.46
3473	6.75	-6.	0.	122.66
3474	-1.7106	-0.86018	0.	122.06
3475	-1.4513	-1.1119	0.	127.51
3476	-1.9202	-1.0395	0.	119.09
3477	-1.6619	-1.3253	0.	124.79
3478	-0.96194	1.4611	0.	126.96
3479	-1.0191	1.9228	0.	122.32
3480	-1.2348	1.6507	0.	127.53
3481	-0.743	1.7744	0.	122.97
3482	-0.6929	1.2434	0.	124.87
3483	-0.45315	1.0089	0.	119.05
3484	-0.47397	1.5567	0.	120.85
3485	-0.92987	0.98042	0.	132.4
3486	-1.1749	1.1841	0.	133.06
3487	-1.11	-1.8321	0.	131.3
3488	-0.90011	-1.5994	0.	133.54
3489	-1.1784	-1.3653	0.	131.23
3490	-1.3891	-1.5787	0.	128.52
3491	-0.82241	-2.0585	0.	132.54
3492	-2.2336e-002	-2.2354	0.	114.44
3493	-0.25408	-2.5005	0.	122.39
3494	0.25909	-2.4437	0.	119.49
3495	-7.4286	0.95435	0.	131.54
3496	-7.6707	1.1894	0.	128.67
3497	-6.7142	0.79702	0.	113.41
3498	-6.9348	0.5514	0.	119.59
3499	-7.0815	4.0878	0.	123.76
3500	-6.8427	3.861	0.	116.53
3501	-7.2925	3.8815	0.	133.34
3502	-7.6705	3.4455	0.	132.13
3503	-7.4722	3.6536	0.	135.59
3504	-7.4685	3.2432	0.	131.82
3505	-7.25	8.0004	0.	126.27
3506	-7.	8.2502	0.	124.31
3507	-6.9999	7.7503	0.	125.11
3508	-6.75	8.0002	0.	122.38
3509	-7.4999	7.7506	0.	129.83
3510	-7.5	8.2505	0.	127.13
3511	-7.9995	7.251	0.	128.07
3512	-8.2498	7.5006	0.	127.86
3513	-7.7498	7.5008	0.	130.16
3514	-8.249	7.0004	0.	126.74
3515	-7.7492	7.001	0.	128.64
3516	-7.9975	6.7502	0.	126.56
3517	-8.2401	5.9969	0.	127.29
3518	-7.7396	5.999	0.	128.93
3519	-7.9925	6.2484	0.	126.77
3520	-7.9835	5.7443	0.	128.77
3521	-6.9464	5.2594	0.	121.7
3522	-6.6729	5.0007	0.	118.15
3523	-7.1879	5.0137	0.	124.37
3524	-4.75	7.9999	0.	129.46
3525	-4.5	8.2499	0.	130.35
3526	-4.5	7.7498	0.	134.01
3527	-4.25	7.9998	0.	132.58
3528	-5.	8.2499	0.	126.49
3529	-5.	7.7499	0.	127.87
3530	-5.25	7.9999	0.	124.28
3531	-4.2257	4.9996	0.	136.17
3532	-4.4774	5.2524	0.	135.32
3533	-4.4634	4.7528	0.	134.54
3534	-4.7106	5.0081	0.	131.12
3535	-4.2464	5.9996	0.	134.51
3536	-3.7475	5.999	0.	137.23
3537	-3.9933	5.7488	0.	135.58
3538	-7.0888	-3.0689	0.	113.32
3539	-6.8712	-2.8342	0.	122.79
3540	-6.8911	-3.2938	0.	115.59
3541	-7.3338	-3.2947	0.	114.54
3542	-7.5261	-2.9973	0.	109.12
3543	-7.3132	-2.8809	0.	104.99
3544	-7.6142	-3.979	0.	122.56
3545	-7.8302	-4.217	0.	121.96
3546	-8.0394	-3.9653	0.	122.23
3547	-5.6925	-6.9768	0.	126.64
3548	-5.952	-6.7336	0.	123.91
3549	-6.19	-6.98	0.	122.1
3550	-5.4456	-6.7207	0.	130.15
3551	-5.4397	-7.2231	0.	128.53
3552	-4.9514	-6.1934	0.	129.89
3553	-5.1963	-6.4562	0.	130.68
3554	-5.2199	-5.9596	0.	130.06
3555	-5.0138	-3.787	0.	132.61
3556	-5.2679	-4.0194	0.	132.85
3557	-5.2433	-3.5373	0.	133.51
3558	-5.9587	-3.2666	0.	126.94
3559	-5.7064	-3.0248	0.	128.67
3560	2.9961	2.2009	0.	132.6
3561	3.2426	2.4639	0.	133.69
3562	3.2543	1.9678	0.	133.17
3563	3.0961	0.72409	0.	133.67
3564	3.309	0.9763	0.	134.26
3565	3.3414	0.48761	0.	134.23
3566	2.892	0.45857	0.	133.67
3567	4.0381	0.25116	0.	125.6
3568	3.801	-2.3635e-004	0.	128.23
3569	5.8477	2.3032	0.	133.24
3570	5.8326	1.8284	0.	130.85
3571	5.632	2.0529	0.	133.29
3572	5.6281	2.5415	0.	133.76
3573	4.9597	2.7705	0.	124.78
3574	5.1922	3.0299	0.	126.96
3575	5.2805	4.4573e-002	0.	128.9
3576	5.0308	0.28173	0.	127.11
3577	5.5407	0.31637	0.	131.16
3578	6.4093	1.1052	0.	131.63
3579	5.8569	1.1104	0.	126.89
3580	6.1022	0.84329	0.	127.06
3581	5.7595	-0.96954	0.	129.42
3582	6.0071	-1.2244	0.	126.86
3583	5.5074	-1.2276	0.	133.58
3584	5.0056	-1.7388	0.	133.29
3585	5.2558	-1.4845	0.	134.34
3586	4.7569	-1.489	0.	132.56
3587	5.254	-1.9912	0.	133.78
3588	5.2502	-4.5	0.	133.77
3589	5.0005	-4.2499	0.	132.89
3590	5.7501	-5.	0.	127.67
3591	5.5001	-4.75	0.	132.44
3592	5.5001	-5.25	0.	129.04
3593	6.0001	-4.75	0.	125.95
3594	0.76979	-2.9575	0.	122.1
3595	1.0156	-3.221	0.	121.45
3596	0.52034	-3.2182	0.	125.71
3597	0.5179	-2.683	0.	121.21
3598	0.26869	-3.999	0.	128.31
3599	2.536e-002	-3.7493	0.	127.19
3600	3.0059	-3.756	0.	132.66
3601	2.7534	-4.0041	0.	132.6
3602	2.7586	-3.5078	0.	133.29
3603	2.0136	-3.2563	0.	124.41
3604	2.2676	-3.0113	0.	127.86
3605	4.7373e-002	-6.2766	0.	127.85
3606	-0.20414	-6.0347	0.	127.3
3607	0.28091	-6.0195	0.	128.22
3608	-0.18298	-6.5359	0.	127.72
3609	0.29554	-6.5216	0.	128.52
3610	1.0245	-6.7579	0.	120.28
3611	1.028	-7.2599	0.	121.62
3612	0.78565	-7.0133	0.	123.26
3613	2.753	-6.5003	0.	130.87
3614	3.0013	-6.2502	0.	130.6
3615	-3.0103	2.7015	0.	127.04
3616	-3.0049	3.2161	0.	126.05
3617	-2.7568	2.965	0.	126.01
3618	-2.7647	2.4428	0.	126.64
3619	-2.2777	1.9271	0.	118.81
3620	-2.5212	2.1616	0.	123.06
3621	-2.5414	1.5873	0.	120.86
3622	-2.0266	2.2283	0.	118.75
3623	-2.0134	1.7292	0.	112.07
3624	-1.7805	2.0157	0.	117.95
3625	0.75073	3.9797	0.	132.61
3626	1.0024	4.2301	0.	131.74
3627	0.9837	2.6741	0.	130.05
3628	0.73063	2.4112	0.	130.4
3629	0.98766	2.1457	0.	128.96
3630	0.73787	2.9433	0.	131.02
3631	-3.25	7.9999	0.	128.55
3632	-3.	8.2499	0.	125.29
3633	-3.	7.7499	0.	126.6
3634	-3.5	7.7498	0.	133.59
3635	-3.75	7.9998	0.	132.33
3636	-3.5	8.2499	0.	129.86
3637	-4.2497	6.9997	0.	133.92
3638	-3.7498	6.9995	0.	134.05
3639	-3.9999	7.2496	0.	134.5
3640	-8.9819e-005	7.2489	0.	129.38
3641	-0.25002	6.999	0.	129.68
3642	-0.25006	7.4994	0.	130.83
3643	-0.99998	8.2499	0.	123.54
3644	-0.99999	7.7499	0.	124.32
3645	-0.74999	7.9998	0.	125.93
3646	-1.25	7.9999	0.	120.91
3647	-3.9791	4.7436	0.	137.97
3648	-3.7361	4.9955	0.	138.64
3649	-3.9857	5.2474	0.	137.17
3650	-3.7327	4.4893	0.	139.01
3651	-4.2168	4.4968	0.	136.34
3652	6.3521	6.6982	0.	128.97
3653	6.6202	6.4779	0.	124.11
3654	6.1153	6.4672	0.	129.21
3655	7.3985	6.2351	0.	114.53
3656	7.3445	5.6834	0.	117.78
3657	7.1288	5.9661	0.	118.49
3658	7.6785	5.9015	0.	116.8
3659	6.7064	2.3212	0.	130.98
3660	6.9194	2.5449	0.	127.78
3661	6.9227	2.0936	0.	127.2
3662	6.7768	1.8713	0.	127.71
3663	2.216	-1.099	0.	131.87
3664	2.4599	-0.83505	0.	129.74
3665	2.7377	-1.04	0.	130.22
3666	7.279	3.065	0.	124.4
3667	7.1116	2.7653	0.	126.52
3668	7.0923	3.1928	0.	134.27
3669	7.2837	3.2729	0.	128.39
3670	7.7178	3.1165	0.	107.64
3671	7.5199	2.8633	0.	113.02
3672	-1.0798	-7.0704	0.	131.63
3673	-1.314	-6.8632	0.	131.93
3674	-1.5154	-7.0173	0.	127.22
3675	-0.87688	-6.817	0.	131.77
3676	-1.2131	-5.0221	0.	126.
3677	-0.96361	-5.2942	0.	132.44
3678	-0.96698	-4.7707	0.	127.78
3679	-1.4583	-5.2997	0.	125.85
3680	-0.4345	-6.2939	0.	127.12
3681	-0.65551	-6.5588	0.	129.06
3682	-0.45626	-5.7898	0.	127.82
3683	-0.69496	-6.06	0.	125.58
3684	-0.71281	-5.5469	0.	132.07
3685	-4.7323	3.5017	0.	134.41
3686	-4.5095	3.2165	0.	136.69
3687	-5.0029	3.2482	0.	134.57
3688	-4.4707	1.6587	0.	135.67
3689	-4.6718	1.38	0.	134.45
3690	-4.2084	1.4161	0.	135.9
3691	-4.0201	2.6972	0.	131.39
3692	-4.2722	2.953	0.	134.34
3693	-4.2873	2.4362	0.	130.01
3694	-4.0138	2.1886	0.	131.85
3695	1.7616	-0.96963	0.	133.58
3696	1.9591	-0.89442	0.	131.21
3697	1.3426	0.49342	0.	131.36
3698	1.1476	0.8062	0.	126.66
3699	1.5406	0.77199	0.	132.11
3700	2.3666	-0.39219	0.	130.
3701	2.203	-0.63049	0.	129.12
3702	2.2626	8.394e-002	0.	132.7
3703	2.0652	-0.20202	0.	131.17
3704	2.0045	0.31441	0.	136.83
3705	2.1901	0.60822	0.	134.39
3706	2.4485	0.39335	0.	133.98
3707	-3.2845	-0.68799	0.	131.25
3708	-3.491	-0.37734	0.	134.43
3709	-3.7386	-0.63337	0.	132.43
3710	-3.0371	-0.46193	0.	131.74
3711	-2.8284	-0.79001	0.	124.24
3712	-3.923	0.16469	0.	129.81
3713	-3.6364	0.44186	0.	127.22
3714	-3.9246	0.67275	0.	131.59
3715	-3.7036	-9.9405e-002	0.	132.61
3716	-3.9512	-0.35543	0.	130.54
3717	-8.3461	-0.48253	0.	127.03
3718	-7.866	-0.458	0.	121.41
3719	-8.1095	-0.71157	0.	127.23
3720	7.3911	4.8376	0.	120.64
3721	6.9203	4.9477	0.	125.39
3722	7.2259	5.1638	0.	121.67
3723	7.0723	4.6662	0.	126.61
3724	8.5119	7.2082	0.	130.1
3725	8.3068	7.464	0.	128.37
3726	8.7851	7.4563	0.	129.74
3727	8.5759	7.6826	0.	131.2
3728	8.4704	6.7181	0.	128.07
3729	8.7375	6.9708	0.	129.17
3730	8.2059	6.9787	0.	128.95
3731	8.1971	6.4528	0.	124.07
3732	8.4726	6.2335	0.	125.28
3733	8.7223	6.476	0.	127.69
3734	8.3331	5.3183	0.	118.11
3735	8.4615	5.7741	0.	122.26
3736	8.6813	5.4924	0.	124.28
3737	8.2005	5.7019	0.	119.15
3738	8.3036	-0.17552	0.	117.93
3739	8.04	2.5998e-003	0.	107.12
3740	8.573	2.2079	0.	123.97
3741	8.8716	1.9749	0.	128.69
3742	8.4859	1.8681	0.	121.64
3743	8.6662	1.6833	0.	130.41
3744	8.2724	-1.0504	0.	120.44
3745	8.0137	-1.2803	0.	118.01
3746	7.75	-5.0001	0.	118.35
3747	7.5	-5.25	0.	120.69
3748	7.5	-4.75	0.	115.53
3749	6.25	-8.5	0.	126.59
3750	6.75	-8.5	0.	126.85
3751	6.5	-8.75	0.	126.64
3752	5.75	-8.5	0.	126.64
3753	6.	-8.75	0.	126.71
3754	5.25	-8.5	0.	126.87
3755	5.5	-8.75	0.	126.88
3756	4.7501	-8.5	0.	127.11
3757	5.	-8.75	0.	127.08
3758	4.5001	-8.75	0.	127.22
3759	4.2503	-8.5001	0.	127.25
3760	3.5006	-8.7502	0.	126.91
3761	3.7506	-8.5002	0.	127.15
3762	3.2513	-8.5004	0.	126.72
3763	2.2541	-8.5017	0.	125.08
3764	2.7524	-8.5009	0.	125.97
3765	2.5024	-8.751	0.	125.57
3766	2.5041	-8.2513	0.	125.51
3767	1.7571	-8.5034	0.	124.45
3768	2.007	-8.2526	0.	124.31
3769	2.0044	-8.7521	0.	124.85
3770	1.2614	-8.5061	0.	124.44
3771	1.5072	-8.7538	0.	124.53
3772	1.5116	-8.255	0.	123.75
3773	0.76705	-8.5097	0.	125.05
3774	1.0177	-8.2586	0.	124.26
3775	1.0113	-8.7565	0.	124.79
3776	0.27368	-8.5139	0.	125.87
3777	0.51598	-8.7599	0.	125.42
3778	0.52591	-8.2635	0.	125.49
3779	-0.21981	-8.5171	0.	126.35
3780	2.1366e-002	-8.7631	0.	125.98
3781	-0.71559	-8.5171	0.	125.98
3782	-0.47447	-8.7647	0.	126.01
3783	-1.2166	-8.5107	0.	124.68
3784	-0.97293	-8.7626	0.	125.25
3785	-1.7228	-8.5019	0.	123.38
3786	-1.4756	-8.7554	0.	123.99
3787	-2.23	-8.5185	0.	123.56
3788	-1.9801	-8.7528	0.	123.43
3789	-2.7354	-8.5559	0.	125.36
3790	-2.4844	-8.7815	0.	124.46
3791	-3.2371	-8.5751	0.	127.39
3792	-2.9879	-8.807	0.	126.37
3793	-3.7345	-8.5641	0.	128.65
3794	-3.489	-8.8102	0.	127.95
3795	-4.2291	-8.5323	0.	129.02
3796	-3.987	-8.7911	0.	128.79
3797	-4.7239	-8.5033	0.	128.72
3798	-4.483	-8.7629	0.	128.96
3799	-5.2233	-8.4906	0.	128.
3800	-4.9797	-8.7464	0.	128.65
3801	-5.7284	-8.4881	0.	126.97
3802	-5.4812	-8.7409	0.	128.09
3803	-5.986	-8.7405	0.	127.54
3804	-6.2362	-8.4898	0.	127.52
3805	7.	-8.25	0.	126.89
3806	7.25	-8.	0.	127.09
3807	7.25	-8.5	0.	127.44
3808	7.	-8.75	0.	126.63
3809	8.25	-5.0002	0.	119.14
3810	8.	-5.2501	0.	119.04
3811	8.	-4.7501	0.	120.22
3812	8.5331	-0.82682	0.	124.13
3813	8.5163	-1.2948	0.	126.95
3814	8.7704	-1.0508	0.	127.2
3815	8.5	-4.7504	0.	123.41
3816	8.75	-5.0004	0.	121.79
3817	8.5	-5.2502	0.	114.85
3818	8.2445	2.5395	0.	112.75
3819	8.4763	2.7346	0.	120.77
3820	8.2925	2.3246	0.	118.85
3821	8.7472	2.4821	0.	126.92
3822	-8.25	8.5002	0.	126.68
3823	-8.	8.7502	0.	126.3
3824	-7.75	8.5003	0.	126.53
3825	-6.75	8.5001	0.	123.04
3826	-7.	8.7501	0.	124.11
3827	-7.25	8.5003	0.	125.17
3828	-6.25	8.5	0.	121.56
3829	-6.5	8.2501	0.	121.11
3830	-6.5	8.7501	0.	122.44
3831	-5.75	8.5	0.	122.03
3832	-6.	8.25	0.	120.13
3833	-6.	8.75	0.	121.95
3834	-5.25	8.5	0.	124.42
3835	-5.5	8.75	0.	123.17
3836	-5.5	8.25	0.	122.2
3837	-4.75	8.4999	0.	127.37
3838	-5.	8.75	0.	125.51
3839	-4.25	8.4999	0.	129.23
3840	-4.5	8.7499	0.	127.59
3841	-4.	8.7499	0.	128.28
3842	-4.	8.2498	0.	131.5
3843	-3.75	8.4999	0.	128.99
3844	-2.75	8.5	0.	123.07
3845	-3.	8.7499	0.	124.59
3846	-3.25	8.4999	0.	126.6
3847	-2.25	8.5	0.	120.3
3848	-2.5	8.75	0.	121.81
3849	-1.75	8.5	0.	119.93
3850	-2.	8.25	0.	117.86
3851	-2.	8.75	0.	120.47
3852	-1.25	8.4999	0.	121.99
3853	-1.5	8.75	0.	121.27
3854	-1.5	8.25	0.	119.36
3855	-0.74997	8.4999	0.	124.88
3856	-0.99998	8.7499	0.	123.55
3857	-0.24998	8.4999	0.	126.86
3858	-0.49997	8.7499	0.	125.74
3859	-0.49999	8.2498	0.	127.26
3860	3.2131e-005	8.7499	0.	126.85
3861	0.25	8.4998	0.	127.45
3862	1.2499	8.4998	0.	126.74
3863	1.	8.7498	0.	126.78
3864	0.74996	8.4998	0.	127.2
3865	0.99973	8.2497	0.	127.13
3866	1.7497	8.4997	0.	126.3
3867	1.5	8.7498	0.	126.48
3868	2.2495	8.4997	0.	125.91
3869	1.9999	8.7498	0.	126.2
3870	2.7491	8.4996	0.	125.53
3871	2.4998	8.7497	0.	125.93
3872	2.498	8.25	0.	125.64
3873	3.2488	8.4988	0.	125.11
3874	2.9999	8.7493	0.	125.64
3875	3.7491	8.4963	0.	124.65
3876	3.5005	8.748	0.	125.29
3877	4.2501	8.4899	0.	124.22
3878	4.0019	8.7444	0.	124.9
3879	4.7528	8.4762	0.	124.03
3880	4.5049	8.7364	0.	124.62
3881	5.2614	8.447	0.	124.71
3882	5.0098	8.7195	0.	124.88
3883	5.5203	8.6858	0.	126.84
3884	5.792	8.3773	0.	124.06
3885	5.4853	8.1795	0.	125.13
3886	-8.9261	-5.505	0.	126.13
3887	-8.9065	-5.7256	0.	129.03
3888	-8.4704	-5.5045	0.	110.65
3889	-8.7008	-5.2859	0.	119.47
3890	-8.6248	-1.7045	0.	127.04
3891	-8.8664	-1.9616	0.	125.58
3892	-8.418	-1.9362	0.	129.84
3893	-8.6533	-2.2027	0.	127.24
3894	-8.6016	-1.2147	0.	130.51
3895	-8.8427	-1.4663	0.	128.84
3896	-8.3687	-1.4422	0.	131.45
3897	-8.5894	-0.73067	0.	130.56
3898	-8.3527	-0.95971	0.	130.68
3899	-8.8299	-0.97809	0.	130.72
3900	-8.5821	-0.24753	0.	128.69
3901	-8.8214	-0.49163	0.	129.54
3902	-8.581	0.23742	0.	127.79
3903	-8.8166	-4.9613e-003	0.	128.33
3904	-8.5841	0.72413	0.	127.48
3905	-8.8195	0.48448	0.	127.81
3906	-8.3479	0.4805	0.	127.31
3907	-8.5907	1.2135	0.	126.86
3908	-8.821	0.97394	0.	127.23
3909	-8.6001	1.7076	0.	125.99
3910	-8.8283	1.4675	0.	126.33
3911	-8.3671	1.4517	0.	126.69
3912	-8.6042	2.2055	0.	125.56
3913	-8.836	1.9651	0.	125.55
3914	-8.5967	2.7082	0.	126.07
3915	-8.8348	2.4657	0.	125.49
3916	-8.5784	3.2148	0.	127.5
3917	-8.8231	2.9704	0.	126.35
3918	-8.8056	3.4769	0.	127.81
3919	-8.5598	3.723	0.	129.04
3920	-8.4902	4.7367	0.	129.77
3921	-8.7515	4.4892	0.	129.24
3922	-8.2247	4.4643	0.	130.44
3923	-8.5249	4.231	0.	129.86
3924	-8.4845	5.2411	0.	128.94
3925	-8.7384	4.9919	0.	128.81
3926	-8.2243	4.9861	0.	129.89
3927	-8.4885	5.7449	0.	127.58
3928	-8.7391	5.4947	0.	127.82
3929	-8.2319	5.4923	0.	129.07
3930	-8.4933	6.2471	0.	126.29
3931	-8.7424	5.9967	0.	126.49
3932	-8.4972	6.7488	0.	125.96
3933	-8.2457	6.4986	0.	125.79
3934	-8.7459	6.4978	0.	125.66
3935	-8.4993	7.2501	0.	126.53
3936	-8.7487	6.9994	0.	125.8
3937	-8.4999	7.7503	0.	127.01
3938	-8.7497	7.5001	0.	126.39
3939	-8.5	8.2502	0.	126.78
3940	-8.75	8.0002	0.	126.52
3941	-8.75	8.5002	0.	126.14
3942	-8.5	8.7502	0.	126.1
3943	-3.0001	3.7269	0.	126.96
3944	-2.7523	3.4769	0.	124.98
3945	-3.252	3.4692	0.	128.15
3946	-3.2451	3.9797	0.	131.23
3947	-3.4907	4.2326	0.	137.05
3948	-3.497	3.722	0.	132.37
3949	1.7197e-003	5.2461	0.	128.41
3950	-0.24884	5.4973	0.	128.72
3951	0.25204	5.4951	0.	128.31
3952	0.2525	4.9943	0.	130.3
3953	0.50292	4.7408	0.	133.8
3954	0.75406	4.9907	0.	131.4
3955	0.50282	5.2433	0.	130.19
3956	8.541	-0.37021	0.	124.02
3957	8.7844	-0.57854	0.	127.03
3958	8.779	-0.11319	0.	129.8
3959	8.5244	7.2121e-002	0.	128.86
3960	-7.6202	-0.66829	0.	114.74
3961	-7.6265	-0.20978	0.	120.09
3962	-7.3834	-0.40397	0.	117.54
3963	-3.2436	-0.15128	0.	134.76
3964	-3.417	0.17776	0.	129.57
3965	-3.2398	0.92911	0.	141.19
3966	-3.425	0.70881	0.	131.14
3967	-3.7133	0.93971	0.	135.43
3968	-3.4923	1.1972	0.	136.83
3969	1.8071	2.8446e-002	0.	135.24
3970	1.5572	0.24987	0.	135.85
3971	1.7552	0.52844	0.	136.7
3972	1.9015	-0.44032	0.	130.17
3973	-4.5242	2.1717	0.	132.05
3974	-4.7357	1.8858	0.	136.37
3975	-4.2507	1.9241	0.	134.
3976	-4.5393	2.6919	0.	132.9
3977	-4.7801	2.9629	0.	136.73
3978	-0.95151	-5.817	0.	129.77
3979	-1.2088	-5.5717	0.	132.11
3980	-0.91597	-6.3248	0.	127.3
3981	7.9847	2.8513	0.	99.95
3982	8.0522	2.3999	0.	110.14
3983	7.7868	2.5981	0.	105.44
3984	7.1357	2.3173	0.	123.97
3985	7.3525	2.5637	0.	114.95
3986	7.667	6.4781	0.	116.91
3987	7.9326	6.7134	0.	125.04
3988	7.947	6.1446	0.	119.17
3989	7.1389	6.5046	0.	116.08
3990	-8.1199	-1.1872	0.	131.54
3991	-7.8636	-0.92186	0.	120.54
3992	8.0068	5.1919	0.	113.66
3993	7.7055	5.0311	0.	114.8
3994	7.5403	5.3574	0.	115.83
3995	7.8742	5.5755	0.	114.84
3996	8.4149	5.0299	0.	121.16
3997	1.8289e-003	4.746	0.	130.02
3998	-0.24861	4.9972	0.	127.59
3999	-2.9965	4.2363	0.	130.25
4000	-2.7486	3.9855	0.	126.1
4001	-3.2421	4.4892	0.	136.03
4002	-3.4897	4.7412	0.	139.65
4003	-0.74999	7.4997	0.	128.44
4004	-0.49999	7.2494	0.	131.08
4005	-0.5	7.7496	0.	130.08
4006	-3.25	7.4998	0.	131.57
4007	-3.4999	7.2497	0.	134.96
4008	-3.7499	7.4997	0.	135.46
4009	0.4848	2.6803	0.	131.34
4010	0.2265	2.4091	0.	127.57
4011	0.48846	2.1463	0.	127.74
4012	0.50175	4.2361	0.	135.05
4013	0.25224	4.4924	0.	133.5
4014	0.75343	4.4865	0.	134.23
4015	-2.2701	2.4628	0.	122.84
4016	-2.5113	2.7063	0.	125.58
4017	2.2556	-6.5007	0.	126.91
4018	2.5051	-6.7507	0.	129.34
4019	2.5027	-6.2503	0.	131.09
4020	0.77827	-6.5111	0.	124.37
4021	0.52907	-6.2645	0.	128.82
4022	0.53945	-6.7665	0.	127.36
4023	2.259	-3.5058	0.	128.78
4024	2.5061	-3.7559	0.	133.2
4025	2.513	-3.2608	0.	132.23
4026	0.76615	-3.4817	0.	125.01
4027	0.51661	-3.7379	0.	128.54
4028	0.27328	-3.4883	0.	127.42
4029	8.75	-4.5007	0.	126.94
4030	8.5	-4.251	0.	127.74
4031	8.25	-4.5004	0.	124.29
4032	8.7598	-1.5297	0.	129.47
4033	8.5062	-1.7736	0.	129.21
4034	8.2576	-1.5247	0.	124.39
4035	5.5002	-4.2498	0.	134.22
4036	5.7501	-4.5	0.	130.66
4037	5.5042	-1.7369	0.	134.78
4038	5.755	-1.4825	0.	131.
4039	5.5589	0.84891	0.	130.02
4040	5.2909	0.55353	0.	129.34
4041	5.8042	0.58183	0.	130.35
4042	5.4124	2.2912	0.	133.78
4043	5.183	2.5264	0.	129.25
4044	5.4155	2.7858	0.	131.43
4045	3.5543	0.73982	0.	134.79
4046	3.8018	0.49684	0.	129.88
4047	3.5648	0.24544	0.	132.52
4048	3.5008	2.2308	0.	134.24
4049	3.7458	2.4896	0.	130.66
4050	3.4979	2.7321	0.	132.46
4051	-5.4974	-3.7697	0.	133.72
4052	-5.7283	-3.5199	0.	130.55
4053	-5.4761	-3.2781	0.	132.3
4054	-5.4648	-6.2224	0.	130.82
4055	-5.7051	-6.4776	0.	127.4
4056	-7.5361	-6.6053	0.	125.04
4057	-7.5497	-6.4061	0.	129.95
4058	-7.1387	-6.4819	0.	120.35
4059	-7.3686	-6.2257	0.	126.87
4060	-7.309	-6.7343	0.	124.25
4061	-7.136	-3.5197	0.	116.69
4062	-7.3815	-3.7514	0.	121.14
4063	-4.4905	5.751	0.	135.2
4064	-4.7318	5.5032	0.	132.02
4065	-4.2374	5.5002	0.	136.34
4066	-4.4998	7.2498	0.	135.
4067	-4.7499	7.4998	0.	132.35
4068	-4.2499	7.4997	0.	135.63
4069	-7.2178	5.5044	0.	126.88
4070	-7.4805	5.7529	0.	130.64
4071	-7.4593	5.2588	0.	129.6
4072	-7.7245	5.4981	0.	130.53
4073	-7.2498	7.5005	0.	128.62
4074	-7.4995	7.2509	0.	130.7
4075	-7.0537	3.6547	0.	125.97
4076	-7.2701	3.4514	0.	135.02
4077	-7.2114	1.1796	0.	131.78
4078	-6.9631	0.98121	0.	122.33
4079	-7.1836	0.73559	0.	128.62
4080	-0.91866	0.50342	0.	132.03
4081	-0.69011	0.74594	0.	126.37
4082	-1.1508	0.71657	0.	133.96
4083	-1.0372	-0.67221	0.	138.07
4084	-1.2962	-0.44272	0.	134.51
4085	-1.5005	-0.64944	0.	128.73
4086	-1.2411	-0.90113	0.	134.36
4087	7.75	-5.5	0.	121.3
4088	7.5	-5.75	0.	123.74
4089	-9.1351	-5.2091	0.	127.79
4090	-9.1245	-5.6621	0.	132.8
4091	-9.3552	-5.4562	0.	131.66
4092	-9.3453	-4.9789	0.	128.05
4093	-9.1254	-4.7287	0.	125.28
4094	-8.9098	-4.99	0.	121.14
4095	-9.1168	-3.727	0.	127.92
4096	-9.3401	-3.9829	0.	127.98
4097	-9.1224	-4.2294	0.	125.85
4098	-8.9024	-3.975	0.	125.58
4099	-9.1109	-3.2246	0.	129.45
4100	-9.3346	-3.4815	0.	129.13
4101	-8.894	-3.4703	0.	129.08
4102	-9.1065	-2.7225	0.	128.79
4103	-9.3311	-2.98	0.	129.29
4104	-8.8889	-2.9665	0.	131.46
4105	-9.0983	-2.2215	0.	127.04
4106	-9.3276	-2.4788	0.	127.52
4107	-8.8853	-2.4627	0.	128.79
4108	-9.0844	-1.7234	0.	127.34
4109	-9.3194	-1.9789	0.	126.54
4110	-9.0711	-1.2297	0.	129.03
4111	-9.3078	-1.4819	0.	127.89
4112	-9.062	-0.73905	0.	129.69
4113	-9.2998	-0.98819	0.	129.29
4114	-9.0559	-0.24906	0.	129.18
4115	-9.294	-0.49547	0.	129.46
4116	-9.0551	0.2421	0.	128.35
4117	-9.2905	-2.8803e-003	0.	128.87
4118	-9.0564	0.73428	0.	127.55
4119	-9.2933	0.49139	0.	128.06
4120	-9.0586	1.2279	0.	126.7
4121	-9.2922	0.98557	0.	127.12
4122	-9.0642	1.7251	0.	125.88
4123	-9.2956	1.4821	0.	126.1
4124	-9.3001	1.9815	0.	125.33
4125	-9.0666	2.2253	0.	125.47
4126	-9.0503	3.2325	0.	126.65
4127	-9.292	2.9857	0.	125.73
4128	-9.0612	2.7279	0.	125.76
4129	-9.0366	3.7379	0.	127.67
4130	-9.2827	3.4897	0.	126.69
4131	-9.0174	4.2423	0.	128.28
4132	-9.2713	3.9937	0.	127.51
4133	-8.7908	3.984	0.	128.9
4134	-8.9997	4.7445	0.	128.27
4135	-9.2548	4.4958	0.	127.82
4136	-8.993	5.2455	0.	127.69
4137	-9.2461	4.9967	0.	127.55
4138	-8.993	5.7465	0.	126.74
4139	-9.2444	5.4972	0.	126.81
4140	-9.2453	5.9977	0.	125.89
4141	-8.995	6.2474	0.	125.86
4142	-9.	8.2501	0.	125.88
4143	-9.25	8.0001	0.	125.49
4144	-8.9998	7.75	0.	125.9
4145	-9.	8.7501	0.	125.6
4146	-9.25	8.5001	0.	125.43
4147	-9.	9.2501	0.	125.26
4148	-9.25	9.0001	0.	125.24
4149	-8.75	9.0001	0.	125.56
4150	-7.75	9.0001	0.	125.44
4151	-8.	9.2501	0.	125.31
4152	-8.25	9.0001	0.	125.71
4153	-7.25	9.0001	0.	124.61
4154	-7.5	9.2501	0.	124.82
4155	-7.5	8.7502	0.	125.67
4156	-7.	9.2501	0.	123.99
4157	-6.75	9.0001	0.	123.51
4158	-5.25	9.	0.	124.27
4159	-5.5	9.25	0.	123.59
4160	-5.75	9.	0.	123.08
4161	-4.75	9.	0.	125.73
4162	-5.	9.25	0.	124.67
4163	-4.25	8.9999	0.	126.63
4164	-4.5	9.25	0.	125.62
4165	-3.75	8.9999	0.	126.44
4166	-4.	9.25	0.	125.88
4167	-3.25	8.9999	0.	125.16
4168	-3.5	9.25	0.	125.25
4169	-3.5	8.7499	0.	127.16
4170	-2.75	9.	0.	123.34
4171	-3.	9.25	0.	123.95
4172	-2.5	9.25	0.	122.62
4173	-2.25	9.	0.	121.96
4174	-1.25	9.	0.	122.83
4175	-1.5	9.25	0.	122.39
4176	-1.75	9.	0.	121.77
4177	-0.74997	8.9999	0.	124.42
4178	-0.99998	9.25	0.	123.57
4179	-0.24996	8.9999	0.	125.73
4180	-0.49997	9.2499	0.	124.88
4181	0.25006	8.9999	0.	126.4
4182	4.2228e-005	9.2499	0.	125.8
4183	0.75008	8.9999	0.	126.57
4184	0.50006	9.2499	0.	126.28
4185	0.50002	8.7498	0.	127.
4186	1.2501	8.9998	0.	126.51
4187	1.0001	9.2499	0.	126.47
4188	1.7502	8.9998	0.	126.38
4189	1.5002	9.2499	0.	126.52
4190	2.2502	8.9997	0.	126.23
4191	2.0002	9.2498	0.	126.51
4192	2.7506	8.9995	0.	126.05
4193	2.5004	9.2497	0.	126.47
4194	3.2515	8.9985	0.	125.82
4195	3.0011	9.2493	0.	126.39
4196	3.7532	8.9962	0.	125.54
4197	3.5023	9.2482	0.	126.28
4198	4.2566	8.9908	0.	125.3
4199	4.0044	9.2455	0.	126.16
4200	4.7619	8.9797	0.	125.48
4201	4.5082	9.2398	0.	126.15
4202	5.2687	8.9583	0.	127.04
4203	5.013	9.2283	0.	126.63
4204	5.5181	9.2086	0.	128.67
4205	5.7739	8.9312	0.	134.09
4206	6.5182	9.2125	0.	130.84
4207	6.7759	8.9608	0.	124.02
4208	6.2744	8.9342	0.	136.85
4209	9.0071	9.2298	0.	128.59
4210	9.2566	8.9803	0.	126.74
4211	9.012	8.7161	0.	127.68
4212	8.765	8.9658	0.	136.05
4213	9.2793	7.9712	0.	124.2
4214	9.0339	7.7114	0.	126.81
4215	8.8247	7.9377	0.	128.29
4216	9.0287	8.2099	0.	125.71
4217	9.2481	6.9804	0.	128.37
4218	9.0107	7.2189	0.	128.82
4219	8.9894	6.7286	0.	128.8
4220	9.1143	1.7536	0.	130.47
4221	9.3104	2.0073	0.	131.3
4222	9.0459	2.2491	0.	131.63
4223	8.9089	1.462	0.	132.14
4224	9.3538	1.5225	0.	129.54
4225	9.284	1.2781	0.	129.25
4226	9.0224	-0.32153	0.	132.84
4227	9.0051	0.16146	0.	137.78
4228	9.2622	-5.4431e-002	0.	134.51
4229	9.0217	-0.80253	0.	130.09
4230	9.2689	-0.54431	0.	131.82
4231	9.0139	-1.2857	0.	129.74
4232	9.2635	-1.0326	0.	130.83
4233	9.0072	-1.7726	0.	129.6
4234	9.258	-1.5219	0.	130.3
4235	9.0029	-2.2635	0.	128.98
4236	8.7536	-2.0165	0.	129.35
4237	9.2537	-2.0137	0.	129.24
4238	9.001	-2.7577	0.	128.7
4239	8.7511	-2.5089	0.	130.26
4240	9.2515	-2.5081	0.	128.17
4241	9.0004	-3.2543	0.	128.36
4242	8.7503	-3.0049	0.	131.27
4243	9.2505	-3.0046	0.	127.87
4244	9.0001	-3.7524	0.	127.88
4245	8.7501	-3.5027	0.	129.89
4246	9.2502	-3.5026	0.	127.44
4247	9.0001	-4.2513	0.	127.35
4248	8.75	-4.0015	0.	128.15
4249	9.2501	-4.0014	0.	127.74
4250	9.	-4.7507	0.	125.46
4251	9.25	-4.5008	0.	127.74
4252	9.	-5.2504	0.	123.27
4253	9.25	-5.0004	0.	126.92
4254	7.5	-8.75	0.	125.93
4255	7.75	-8.5	0.	123.58
4256	7.5	-8.25	0.	127.61
4257	-6.4823	-7.7308	0.	128.52
4258	-6.7479	-7.4562	0.	126.85
4259	-6.4553	-7.2277	0.	124.09
4260	8.75	-9.	0.	117.53
4261	9.	-8.75	0.	120.03
4262	9.25	-9.	0.	122.73
4263	9.	-9.25	0.	120.
4264	8.25	-9.	0.	117.07
4265	8.5	-8.75	0.	112.
4266	8.5	-9.25	0.	116.83
4267	7.75	-9.	0.	121.34
4268	8.	-8.75	0.	119.01
4269	8.	-9.25	0.	119.01
4270	7.25	-9.	0.	125.1
4271	7.5	-9.25	0.	123.27
4272	6.75	-9.	0.	126.42
4273	7.	-9.25	0.	125.62
4274	6.5	-9.25	0.	126.49
4275	6.25	-9.	0.	126.76
4276	5.25	-9.	0.	127.09
4277	5.5	-9.25	0.	127.09
4278	5.75	-9.	0.	126.94
4279	4.7501	-9.	0.	127.18
4280	5.	-9.25	0.	127.2
4281	4.5001	-9.25	0.	127.21
4282	4.2502	-9.0001	0.	127.15
4283	3.2506	-9.0003	0.	126.53
4284	3.5003	-9.2501	0.	126.75
4285	3.7503	-9.0001	0.	126.95
4286	3.0006	-9.2503	0.	126.25
4287	3.0013	-8.7505	0.	126.35
4288	2.7514	-9.0006	0.	125.95
4289	-0.73181	-9.0102	0.	125.28
4290	-0.48724	-9.2582	0.	125.38
4291	-0.23329	-9.0107	0.	125.64
4292	-1.2319	-9.0073	0.	124.56
4293	-0.98666	-9.2568	0.	124.86
4294	-1.733	-9.0063	0.	124.03
4295	-1.487	-9.2544	0.	124.25
4296	-2.2345	-9.0158	0.	124.32
4297	-1.9874	-9.2563	0.	124.13
4298	-2.7369	-9.0326	0.	125.47
4299	-2.4888	-9.2681	0.	124.87
4300	-3.2398	-9.0421	0.	126.93
4301	-2.9909	-9.2797	0.	126.18
4302	-3.7415	-9.0372	0.	128.09
4303	-3.4933	-9.2814	0.	127.5
4304	-4.2408	-9.0217	0.	128.73
4305	-3.9942	-9.2728	0.	128.45
4306	-4.4933	-9.2597	0.	128.98
4307	-4.7387	-9.006	0.	128.88
4308	-5.7388	-8.9933	0.	128.66
4309	-5.4916	-9.2457	0.	129.4
4310	-5.2377	-8.9966	0.	128.74
4311	-6.2422	-8.9939	0.	129.24
4312	-5.9929	-9.2447	0.	129.88
4313	-2.9375	-5.5435	0.	132.99
4314	-2.6974	-5.3165	0.	127.5
4315	-2.5003	-7.1443	0.	121.51
4316	-2.7933	-6.9646	0.	135.27
4317	6.7655	8.1298e-002	0.	127.39
4318	6.5303	0.33558	0.	129.86
4319	6.5226	-0.18482	0.	130.87
4320	8.9465	0.65239	0.	130.89
4321	9.2368	0.44655	0.	135.28
4322	8.7504	0.34677	0.	136.
4323	-8.015	-5.4348	0.	118.36
4324	-7.7706	-5.6583	0.	134.6
4325	-7.5957	-5.4472	0.	137.21
4326	-7.8124	-5.1925	0.	130.06
4327	-7.8577	-7.1347	0.	119.56
4328	-7.6708	-6.9175	0.	130.01
4329	-7.5879	-7.3244	0.	127.61
4330	-7.4438	-7.0466	0.	129.44
4331	-6.451	-2.2606	0.	123.56
4332	-6.6447	-2.5669	0.	129.23
4333	7.1449	3.6224	0.	130.71
4334	6.908	3.4323	0.	133.
4335	8.9579	3.2704	0.	131.34
4336	8.7215	3.0071	0.	129.22
4337	9.2307	3.011	0.	135.69
4338	8.9924	2.7546	0.	135.58
4339	8.7451	4.3126	0.	132.62
4340	8.8378	4.5426	0.	132.21
4341	8.6122	4.757	0.	130.7
4342	8.9048	3.8083	0.	127.15
4343	9.2037	3.5263	0.	127.
4344	9.1628	4.0538	0.	128.87
4345	8.9616	4.3149	0.	130.51
4346	8.2165	3.0464	0.	107.5
4347	7.5098	4.5314	0.	125.11
4348	7.2941	4.0714	0.	127.79
4349	7.191	4.36	0.	130.87
4350	7.0121	3.8928	0.	123.6
4351	-8.2224	-2.177	0.	132.79
4352	-8.4577	-2.4435	0.	130.53
4353	-8.2379	-2.6894	0.	133.88
4354	-8.162	-1.6739	0.	134.14
4355	-6.9472	-1.4306	0.	127.41
4356	-7.0842	-1.0214	0.	117.57
4357	-6.6646	-1.8104	0.	125.53
4358	-7.5325	-2.8008	0.	103.92
4359	-7.986	-2.9313	0.	123.43
4360	-7.0955	-2.6462	0.	114.5
4361	6.5262	7.6198	0.	131.93
4362	6.7572	7.1969	0.	124.83
4363	6.2169	8.0746	0.	131.86
4364	5.9847	8.0944	0.	125.88
4365	6.0457	8.6227	0.	131.07
4366	6.1356	7.8416	0.	134.92
4367	8.0257	9.2391	0.	127.04
4368	8.2788	8.9733	0.	135.81
4369	7.7864	8.986	0.	120.65
4370	8.3633	8.1687	0.	135.02
4371	8.5548	8.1561	0.	128.34
4372	8.7588	8.4284	0.	125.85
4373	8.5117	8.678	0.	134.
4374	8.0007	7.2345	0.	127.26
4375	8.1465	7.7096	0.	135.04
4376	8.4156	7.9283	0.	137.74
4377	-8.3126	-7.1112	0.	106.05
4378	-8.0591	-7.3588	0.	108.62
4379	-8.7803	-7.0107	0.	119.71
4380	-9.0153	-7.2239	0.	128.17
4381	-9.2594	-6.964	0.	135.66
4382	-8.5369	-7.2978	0.	107.1
4383	-9.3246	-5.9219	0.	135.01
4384	-8.2458	-5.2044	0.	108.1
4385	-7.72	-6.5236	0.	130.05
4386	-7.7388	-6.106	0.	134.29
4387	-7.5577	-5.9256	0.	131.44
4388	7.7635	0.16786	0.	103.47
4389	8.2608	0.25024	0.	117.85
4390	7.2634	0.10634	0.	111.17
4391	6.6076	0.85436	0.	130.63
4392	6.3006	0.59243	0.	126.25
4393	6.759	1.3781	0.	132.02
4394	6.9899	1.8665	0.	125.32
4395	8.2054	1.9848	0.	116.58
4396	8.491	1.5999	0.	125.84
4397	8.7866	1.1578	0.	128.13
4398	9.1616	0.97389	0.	125.2
4399	-1.5339	-6.8003	0.	128.62
4400	-1.1112	-6.6097	0.	132.03
4401	-1.9903	-7.0281	0.	114.32
4402	-2.855	-6.5048	0.	131.55
4403	-3.0895	-6.7622	0.	132.01
4404	-2.9005	-6.0251	0.	128.89
4405	-2.1922	-5.3879	0.	112.27
4406	-1.6996	-5.5161	0.	118.88
4407	-6.4925	-8.7432	0.	129.19
4408	-6.4958	-9.2463	0.	130.69
4409	-6.4891	-8.2377	0.	128.83
4410	8.75	-8.5	0.	114.37
4411	9.25	-8.5	0.	125.14
4412	8.25	-8.5	0.	113.81
4413	8.75	-5.5002	0.	116.04
4414	9.25	-5.5002	0.	127.73
4415	8.25	-5.5001	0.	114.58
4416	-2.7472	4.4929	0.	127.01
4417	-2.2494	4.4969	0.	119.01
4418	-2.4993	4.2421	0.	122.85
4419	-1.25	7.4999	0.	119.56
4420	-1.75	7.5	0.	114.25
4421	-1.5	7.75	0.	116.18
4422	-2.25	7.5	0.	114.87
4423	-2.	7.75	0.	115.38
4424	-2.75	7.4999	0.	121.42
4425	0.4933	3.2105	0.	132.21
4426	0.49893	3.7279	0.	133.3
4427	-0.30231	2.4134	0.	121.13
4428	-1.065e-002	2.1097	0.	122.91
4429	-0.81832	2.4889	0.	117.27
4430	-0.81477	2.2824	0.	118.77
4431	-0.53863	2.134	0.	119.45
4432	-1.2973	2.5418	0.	115.26
4433	-1.0555	2.3507	0.	118.28
4434	-1.7797	2.5046	0.	116.93
4435	-1.5336	2.292	0.	116.14
4436	-0.24881	4.4974	0.	127.18
4437	-0.7496	4.4994	0.	120.82
4438	-0.49925	4.7487	0.	124.78
4439	-1.2499	4.4998	0.	113.47
4440	-1.7499	4.4993	0.	112.47
4441	-2.5042	3.2257	0.	124.9
4442	-2.5009	3.7355	0.	124.03
4443	1.7593	-6.5017	0.	116.23
4444	2.0091	-6.7516	0.	122.27
4445	1.2662	-6.5044	0.	114.83
4446	1.7589	-3.4984	0.	117.6
4447	1.2606	-3.4878	0.	116.59
4448	8.5	-3.7519	0.	130.14
4449	8.5001	-3.2533	0.	132.81
4450	8.5003	-2.7561	0.	132.83
4451	8.5017	-2.2619	0.	130.6
4452	5.5004	-3.7495	0.	135.01
4453	5.2505	-3.9997	0.	133.38
4454	5.5007	-3.2487	0.	136.92
4455	5.2509	-3.4992	0.	134.14
4456	5.5014	-2.747	0.	136.88
4457	5.5024	-2.2435	0.	135.2
4458	5.6933	1.3598	0.	128.89
4459	5.4924	1.35	0.	131.12
4460	5.6163	1.5874	0.	131.24
4461	5.4158	1.8119	0.	133.62
4462	3.5305	1.2352	0.	134.74
4463	3.512	1.7329	0.	134.21
4464	-5.5103	-4.2575	0.	134.06
4465	-5.4845	-5.7284	0.	131.83
4466	-5.4977	-5.2365	0.	134.51
4467	-5.5079	-4.746	0.	135.35
4468	-5.2548	-4.9808	0.	133.53
4469	-6.202	-6.4845	0.	116.13
4470	-6.6791	-6.48	0.	112.22
4471	-6.8922	-6.7117	0.	118.23
4472	-6.44	-6.7309	0.	114.53
4473	-6.2087	-3.5161	0.	119.02
4474	-6.6792	-3.5226	0.	112.77
4475	-7.3829	-5.7145	0.	133.44
4476	-7.4019	-5.2197	0.	136.2
4477	-7.4082	-4.2365	0.	125.89
4478	-7.4118	-4.7281	0.	131.53
4479	-7.6242	-4.4745	0.	125.25
4480	-7.6185	-4.965	0.	128.9
4481	-8.772	-7.5109	0.	115.62
4482	-9.2599	-7.4897	0.	131.73
4483	-8.2834	-7.5454	0.	108.85
4484	-7.2798	-7.4857	0.	122.55
4485	-6.9458	-7.1911	0.	123.18
4486	-7.1357	-7.2079	0.	124.68
4487	-7.7893	-7.5486	0.	115.88
4488	-4.4974	6.2501	0.	133.93
4489	-4.4993	6.7499	0.	133.77
4490	-5.2252	5.5027	0.	122.25
4491	-4.965	5.2589	0.	127.85
4492	-5.7181	5.4954	0.	116.16
4493	-5.4534	5.254	0.	118.35
4494	-6.2127	5.4917	0.	115.19
4495	-5.941	5.2285	0.	115.54
4496	-6.7126	5.4986	0.	118.59
4497	-6.4391	5.2399	0.	115.04
4498	-5.25	7.5	0.	123.54
4499	-5.75	7.5	0.	118.29
4500	-5.5	7.75	0.	119.98
4501	-6.25	7.5	0.	117.69
4502	-6.	7.75	0.	118.63
4503	-6.7499	7.5002	0.	121.44
4504	-6.5	7.7501	0.	118.74
4505	-7.4936	6.2508	0.	129.6
4506	-7.4983	6.7509	0.	129.54
4507	-7.7466	6.5001	0.	127.49
4508	-0.49917	5.2484	0.	127.87
4509	-0.49934	5.7485	0.	131.12
4510	-0.49961	6.2488	0.	132.31
4511	-0.49988	6.7491	0.	131.19
4512	-3.493	5.2464	0.	139.7
4513	-3.4968	5.7485	0.	139.93
4514	-3.7426	5.4983	0.	138.29
4515	-3.4988	6.2493	0.	138.31
4516	-3.4996	6.7495	0.	135.59
4517	2.5021	-4.2529	0.	133.51
4518	2.5003	-5.2506	0.	134.87
4519	2.5007	-5.7503	0.	132.45
4520	2.5006	-4.7514	0.	135.
4521	0.51868	-5.7617	0.	130.21
4522	0.5129	-5.2582	0.	132.71
4523	0.51202	-4.2488	0.	130.63
4524	0.51079	-4.7546	0.	133.18
4525	0.26592	-5.0114	0.	131.78
4526	7.75	-4.5001	0.	117.36
4527	7.25	-4.5	0.	113.63
4528	6.2501	-4.5	0.	120.95
4529	6.75	-4.5	0.	114.68
4530	6.2548	-1.4818	0.	120.47
4531	7.7551	-1.5062	0.	114.69
4532	7.2545	-1.4887	0.	110.44
4533	6.7548	-1.4821	0.	112.79
4534	7.0131	-1.2219	0.	111.85
4535	4.2818	0.50534	0.	120.21
4536	4.7801	0.52077	0.	121.38
4537	4.2394	2.5031	0.	121.27
4538	3.997	2.7523	0.	126.14
4539	4.7207	2.5117	0.	120.21
4540	7.5	-7.75	0.	128.5
4541	7.5	-7.25	0.	130.13
4542	7.5	-6.25	0.	126.31
4543	7.5	-6.75	0.	129.58
4544	-6.6145	3.5784	0.	112.9
4545	-6.1682	3.4258	0.	113.19
4546	-5.264	3.0578	0.	129.07
4547	-5.72	3.2409	0.	117.74
4548	-7.2349	1.633	0.	130.39
4549	-7.4535	1.4146	0.	129.1
4550	-7.2695	3.0142	0.	133.06
4551	-7.2648	2.5609	0.	134.28
4552	-7.2521	2.0961	0.	132.91
4553	-5.1876	1.7814	0.	130.23
4554	-4.9368	1.6071	0.	135.23
4555	-5.591	1.5317	0.	119.74
4556	-6.0237	1.2629	0.	115.09
4557	-5.7827	1.0859	0.	117.85
4558	-6.4979	1.0872	0.	112.01
4559	1.4023	-0.95909	0.	133.31
4560	1.7712	-0.73569	0.	131.5
4561	1.0419	-1.2557	0.	126.79
4562	0.67474	-1.6116	0.	120.94
4563	0.2243	-1.9065	0.	115.28
4564	-0.30905	-2.0235	0.	121.31
4565	0.50573	-2.1148	0.	120.49
4566	-0.89172	3.1373e-002	0.	133.75
4567	-1.1362	0.25325	0.	131.6
4568	-0.83585	-0.43834	0.	138.53
4569	-1.0949	-0.20885	0.	135.16
4570	-0.76804	-0.90643	0.	135.74
4571	-0.69368	-1.3694	0.	134.21
4572	-0.97198	-1.1354	0.	131.9
4573	-0.61248	-1.8258	0.	134.63
4574	-0.22597	0.70407	0.	113.48
4575	1.1155	0.27582	0.	125.51
4576	0.67288	0.40188	0.	115.81
4577	0.9205	0.5886	0.	120.79
4578	0.22771	0.56564	0.	111.8
4579	0.48234	0.70916	0.	114.99
4580	-1.3684	0.4664	0.	133.29
4581	-1.3959	0.92027	0.	134.66
4582	-1.3394	1.3027e-002	0.	133.
4583	-2.2771	1.3894	0.	113.64
4584	-1.7404	1.5421	0.	118.66
4585	-2.776	1.0987	0.	133.33
4586	-3.1806	0.6826	0.	134.37
4587	-8.75	9.5	0.	125.09
4588	-9.25	9.5	0.	125.05
4589	-8.25	9.5001	0.	124.99
4590	-8.5	9.2501	0.	125.4
4591	-7.75	9.5001	0.	124.69
4592	-7.25	9.5	0.	124.2
4593	-6.75	9.5	0.	123.68
4594	-6.25	9.5	0.	123.38
4595	-6.5	9.25	0.	123.2
4596	-5.75	9.5	0.	123.49
4597	-6.	9.25	0.	123.
4598	-5.25	9.5	0.	123.98
4599	-4.75	9.5	0.	124.55
4600	-4.25	9.5	0.	124.86
4601	-3.75	9.5	0.	124.68
4602	-3.25	9.5	0.	124.05
4603	-2.75	9.5	0.	123.23
4604	-2.25	9.5	0.	122.63
4605	-1.75	9.5	0.	122.58
4606	-2.	9.25	0.	121.98
4607	-1.25	9.5	0.	123.14
4608	-0.74998	9.5	0.	124.04
4609	-0.24997	9.5	0.	124.96
4610	0.25005	9.4999	0.	125.69
4611	0.75008	9.4999	0.	126.17
4612	1.2501	9.4999	0.	126.48
4613	1.7502	9.4999	0.	126.65
4614	2.2504	9.4998	0.	126.76
4615	2.7509	9.4996	0.	126.82
4616	3.2518	9.499	0.	126.86
4617	3.7534	9.4975	0.	126.91
4618	4.2559	9.4944	0.	127.02
4619	4.7592	9.4884	0.	127.31
4620	5.2623	9.4787	0.	128.29
4621	5.7638	9.4692	0.	129.71
4622	6.2634	9.4701	0.	128.56
4623	6.0196	9.1918	0.	135.09
4624	6.7636	9.4795	0.	123.56
4625	7.2649	9.4876	0.	119.14
4626	7.0212	9.2278	0.	116.82
4627	7.7653	9.4909	0.	121.3
4628	7.526	9.2378	0.	115.24
4629	8.2628	9.4879	0.	126.63
4630	8.758	9.4862	0.	128.41
4631	8.5159	9.2221	0.	135.87
4632	9.2536	9.4907	0.	126.52
4633	9.503	9.2412	0.	124.66
4634	9.5065	8.7367	0.	123.55
4635	9.5126	8.2339	0.	122.94
4636	9.2619	8.4726	0.	124.51
4637	9.5137	7.7329	0.	124.1
4638	9.5056	7.2346	0.	126.26
4639	9.2683	7.4731	0.	126.71
4640	9.4967	6.7375	0.	128.12
4641	9.4896	6.238	0.	129.3
4642	9.238	6.4857	0.	128.56
4643	9.4828	5.738	0.	130.09
4644	9.2345	5.9883	0.	128.5
4645	9.4978	5.245	0.	130.66
4646	9.2013	5.4614	0.	128.95
4647	9.5123	4.7563	0.	130.68
4648	9.2892	4.998	0.	131.07
4649	9.4826	4.267	0.	128.61
4650	9.2814	4.5281	0.	130.28
4651	9.4617	3.7718	0.	128.36
4652	9.4765	3.2668	0.	131.19
4653	9.4969	2.7616	0.	132.7
4654	9.523	2.2634	0.	132.32
4655	9.2585	2.5052	0.	132.66
4656	9.5499	1.7762	0.	130.35
4657	9.4913	1.2917	0.	128.95
4658	9.452	0.76805	0.	129.21
4659	9.494	0.23067	0.	131.85
4660	9.5087	-0.27721	0.	133.5
4661	9.5106	-0.77437	0.	132.55
4662	9.5077	-1.2688	0.	131.39
4663	9.5045	-1.763	0.	129.94
4664	9.5022	-2.2583	0.	128.42
4665	9.501	-2.755	0.	127.33
4666	9.5004	-3.2529	0.	126.94
4667	9.5002	-3.7517	0.	127.29
4668	9.5001	-4.2509	0.	128.13
4669	9.5	-4.7505	0.	129.21
4670	9.5	-5.2503	0.	131.39
4671	9.5	-5.7501	0.	133.05
4672	9.5	-6.25	0.	133.97
4673	9.5	-6.75	0.	135.39
4674	9.5	-7.25	0.	134.99
4675	9.5	-7.75	0.	132.32
4676	9.5	-8.25	0.	130.25
4677	9.5	-8.75	0.	127.88
4678	9.5	-9.25	0.	125.24
4679	9.25	-9.5	0.	122.51
4680	8.75	-9.5	0.	119.28
4681	8.25	-9.5	0.	118.76
4682	7.75	-9.5	0.	120.96
4683	7.25	-9.5	0.	123.78
4684	6.75	-9.5	0.	125.69
4685	6.25	-9.5	0.	126.62
4686	5.75	-9.5	0.	127.03
4687	6.	-9.25	0.	126.89
4688	5.25	-9.5	0.	127.2
4689	4.75	-9.5	0.	127.23
4690	4.2501	-9.5	0.	127.12
4691	3.7501	-9.5001	0.	126.86
4692	4.0002	-9.2501	0.	127.07
4693	3.2503	-9.5001	0.	126.46
4694	2.7505	-9.5003	0.	125.97
4695	2.251	-9.5006	0.	125.49
4696	2.5013	-9.2506	0.	125.67
4697	1.7518	-9.5012	0.	125.17
4698	2.0024	-9.2513	0.	125.17
4699	1.2529	-9.5021	0.	125.09
4700	1.5038	-9.2524	0.	124.94
4701	0.75431	-9.5033	0.	125.18
4702	1.0061	-9.254	0.	125.03
4703	0.25581	-9.5045	0.	125.31
4704	0.50841	-9.256	0.	125.31
4705	-0.24289	-9.5052	0.	125.27
4706	1.1065e-002	-9.2577	0.	125.52
4707	-0.74209	-9.5049	0.	124.97
4708	-1.2418	-9.504	0.	124.55
4709	-1.7415	-9.5044	0.	124.35
4710	-2.2417	-9.5086	0.	124.68
4711	-2.7427	-9.5152	0.	125.58
4712	-3.2444	-9.519	0.	126.76
4713	-3.7461	-9.5171	0.	127.86
4714	-4.2467	-9.5108	0.	128.7
4715	-4.7464	-9.5039	0.	129.31
4716	-5.2458	-9.4993	0.	129.88
4717	-4.9918	-9.2502	0.	129.22
4718	-5.7456	-9.4972	0.	130.62
4719	-6.2465	-9.4971	0.	131.37
4720	-6.7479	-9.4984	0.	127.03
4721	-7.2492	-9.4996	0.	116.83
4722	-7.7497	-9.5	0.	110.97
4723	-8.2499	-9.5	0.	111.12
4724	-8.75	-9.5	0.	117.67
4725	-9.25	-9.5	0.	129.49
4726	-9.5	-9.2498	0.	135.07
4727	-9.5001	-8.7493	0.	134.82
4728	-9.5007	-8.2475	0.	135.35
4729	-9.5029	-7.742	0.	136.95
4730	-9.504	-7.2299	0.	139.21
4731	-9.5047	-6.715	0.	134.78
4732	-9.5252	-6.2096	0.	131.39
4733	-9.5553	-5.7161	0.	133.96
4734	-9.5654	-5.226	0.	131.93
4735	-9.5635	-4.7337	0.	129.85
4736	-9.5613	-4.2369	0.	129.23
4737	-9.3436	-4.4835	0.	127.1
4738	-9.5579	-3.7373	0.	129.19
4739	-9.5548	-3.237	0.	128.96
4740	-9.5522	-2.7364	0.	128.02
4741	-9.5486	-2.2361	0.	127.
4742	-9.5427	-1.7374	0.	127.07
4743	-9.5364	-1.2405	0.	128.15
4744	-9.5318	-0.74461	0.	129.04
4745	-9.5286	-0.24929	0.	129.14
4746	-9.5287	0.24641	0.	128.58
4747	-9.5292	0.74268	0.	127.63
4748	-9.5293	1.2398	0.	126.52
4749	-9.5315	1.7386	0.	125.54
4750	-9.5322	2.239	0.	125.02
4751	-9.5295	2.7405	0.	125.14
4752	-9.2987	2.4827	0.	125.17
4753	-9.5244	3.2429	0.	125.76
4754	-9.5175	3.7455	0.	126.53
4755	-9.5087	4.2472	0.	127.05
4756	-9.5011	4.748	0.	127.1
4757	-9.4975	5.2484	0.	126.67
4758	-9.4968	5.7485	0.	125.97
4759	-9.4977	6.2488	0.	125.27
4760	-9.4989	6.7493	0.	124.87
4761	-9.2473	6.4984	0.	125.24
4762	-9.4996	7.2498	0.	124.81
4763	-9.249	6.9993	0.	125.13
4764	-9.4999	7.75	0.	124.94
4765	-9.2497	7.4999	0.	125.34
4766	-9.5	8.25	0.	125.05
4767	-9.5	8.75	0.	125.07
4768	-9.5	9.25	0.	125.03
4769	-2.8063	-0.26975	0.	127.95
4770	-2.3827	-0.42399	0.	114.06
4771	-2.5976	-0.59783	0.	120.5
4772	-1.9509	-0.56576	0.	113.02
4773	-2.1604	-0.74504	0.	110.48
4774	1.249	6.497	0.	126.88
4775	-4.8864	1.1127	0.	131.68
4776	2.7768	5.0022	0.	127.91
4777	2.2659	4.9922	0.	128.52
4778	-4.	7.7498	0.	134.25
4779	-1.2919	2.1008	0.	119.02
4780	1.0021	5.7438	0.	128.34
4781	1.0041	5.2408	0.	130.18
4782	0.75287	5.4934	0.	128.95
4783	-1.5075	1.8287	0.	124.6
4784	5.0011	-3.7494	0.	132.5
4785	-1.75	8.	0.	117.22
4786	-5.9211	3.5937	0.	115.14
4787	6.585	6.9529	0.	128.14
4788	-3.9884	1.6816	0.	134.21
4789	4.8432	5.7743	0.	128.01
4790	4.6427	6.0291	0.	127.91
4791	2.098	1.1173	0.	133.5
4792	1.9408	0.82226	0.	134.32
4793	2.2471	5.9988	0.	127.12
4794	-8.9077	-4.4812	0.	122.95
4795	-5.168	-1.5613	0.	125.6
4796	-3.9979	-3.4466	0.	129.88
4797	-4.232	-3.1503	0.	130.06
4798	-3.7313	-3.2099	0.	128.92
4799	-3.9754	-2.9298	0.	129.26
4800	-8.9991	7.2494	0.	125.66
4801	-8.9973	6.7483	0.	125.5
4802	-7.3675	-0.85162	0.	113.22
4803	-0.5408	-2.2886	0.	129.34
4804	3.9453	6.2841	0.	126.77
4805	4.1744	6.043	0.	127.27
4806	3.0198	3.7363	0.	129.17
4807	8.7331	5.9934	0.	125.34
4808	8.2225	5.9253	0.	120.32
4809	1.0004	6.2458	0.	127.27
4810	1.2556	4.4831	0.	131.36
4811	-5.6763	4.987	0.	117.72
4812	-5.1933	5.0102	0.	123.93
4813	-6.1674	4.9767	0.	115.39
4814	-2.3458	-1.4144	0.	121.13
4815	-2.1316	-1.2298	0.	117.89
4816	-1.8734	-1.5156	0.	123.54
4817	-2.5894	-1.1035	0.	120.22
4818	-2.3753	-0.91888	0.	116.83
4819	6.853	6.7325	0.	123.31
4820	-6.1875	-0.40363	0.	121.59
4821	-5.9774	-0.16442	0.	121.
4822	1.0046	4.7364	0.	131.84
4823	2.7576	3.4725	0.	129.84
4824	2.0188	1.6291	0.	132.03
4825	1.9865	2.1499	0.	131.15
4826	1.7435	1.8757	0.	130.72
4827	4.0003	-8.7501	0.	127.19
4828	-1.4478	1.3737	0.	133.58
4829	8.7631	5.2041	0.	127.3
4830	8.9529	5.7117	0.	127.36
4831	8.9927	5.2145	0.	129.35
4832	-7.7065	4.998	0.	129.06
4833	9.0584	4.7698	0.	130.67
4834	0.72996	0.89588	0.	119.84
4835	-6.25	8.0001	0.	119.65
4836	5.6779	7.8967	0.	126.98
4837	2.2586	-7.0016	0.	124.66
4838	0.76019	-9.0067	0.	125.16
4839	0.26366	-9.0091	0.	125.52
4840	1.257	-9.0043	0.	124.88
4841	1.7544	-9.0025	0.	124.93
4842	1.7615	-8.0043	0.	123.6
4843	2.257	-8.0022	0.	124.74
4844	1.0247	-7.76	0.	123.25
4845	1.2679	-8.0076	0.	123.56
4846	0.77654	-8.0124	0.	124.7
4847	2.751	-6.0002	0.	130.83
4848	3.2507	-6.0002	0.	130.3
4849	-7.3914	4.696e-002	0.	120.77
4850	5.5403	5.512	0.	128.
4851	5.0525	5.5239	0.	127.92
4852	5.2499	5.2726	0.	127.6
4853	-2.7201	-2.8111	0.	126.18
4854	-7.0625	-6.9641	0.	122.15
4855	-6.6531	-6.9626	0.	120.24
4856	6.8692	6.2356	0.	120.15
4857	4.1885	6.5213	0.	126.87
4858	-1.4984	-2.7525	0.	127.13
4859	8.8328	4.9843	0.	129.17
4860	-4.5326	-4.698	0.	130.52
4861	7.2823	8.978	0.	112.53
4862	-8.6677	-2.7067	0.	131.42
4863	-3.9576	1.1763	0.	134.44
4864	3.7491	2.9948	0.	127.9
4865	3.5083	3.2412	0.	129.28
4866	4.5869	5.5546	0.	127.57
4867	4.3864	5.8094	0.	127.46
4868	2.0022	5.745	0.	127.69
4869	-0.9687	-4.2552	0.	125.67
4870	-0.72075	-4.5128	0.	126.9
4871	3.2476	-1.0048	0.	129.96
4872	-7.8309	-4.7114	0.	122.65
4873	-8.0432	-4.9621	0.	119.71
4874	-5.75	8.	0.	120.28
4875	-7.91	1.4347	0.	127.59
4876	-6.25	9.	0.	122.82
4877	2.0088	5.2412	0.	128.48
4878	-0.96806	-3.7549	0.	125.46
4879	-0.97431	-3.2639	0.	126.1
4880	4.3036	4.0351	0.	125.86
4881	-7.9587	4.7138	0.	130.55
4882	-7.9717	5.2374	0.	130.01
4883	-1.2312	-3.0043	0.	126.54
4884	5.1656	4.7829	0.	126.65
4885	-4.7564	-4.9461	0.	130.73
4886	-4.2569	-4.8769	0.	130.2
4887	6.909	4.1814	0.	126.33
4888	-4.193	-0.61091	0.	130.31
4889	-4.6448	-0.59867	0.	128.17
4890	-3.9662	-1.9134	0.	128.76
4891	-2.5569	-1.6054	0.	122.48
4892	8.9828	6.2359	0.	127.76
4893	6.1234	3.5192	0.	126.84
4894	-7.1622	0.29461	0.	121.42
4895	2.2527	-9.0013	0.	125.34
4896	3.2644	3.4888	0.	128.99
4897	4.2582	-1.4947	0.	131.29
4898	-3.7366	1.4338	0.	135.89
4899	-8.0477	-4.468	0.	120.73
4900	-3.6117	-6.7988	0.	129.62
4901	4.4175	6.2801	0.	127.37
4902	4.5341	3.7822	0.	125.02
4903	-3.9671	-2.4228	0.	128.75
4904	-3.8929	-6.5786	0.	128.34
4905	-5.7782	0.57002	0.	119.59
4906	-7.1483	-0.14723	0.	118.3
4907	-4.4915	-5.1642	0.	129.66
4908	-5.5443	0.34491	0.	122.29
4909	-5.7621	9.5812e-002	0.	120.96
4910	-5.3119	0.12599	0.	124.7
4911	-5.5297	-0.1231	0.	123.36
4912	-5.3072	-0.34798	0.	125.07
4913	-8.4761	-4.9858	0.	116.27
4914	-8.26	-4.7188	0.	117.78
4915	-8.6921	-4.7425	0.	118.79
4916	-8.4759	-4.4755	0.	120.2
4917	-8.2569	-4.2164	0.	121.
4918	-8.6877	-4.2267	0.	122.69
4919	-8.4687	-3.9676	0.	123.47
4920	-8.2442	-3.7087	0.	124.01
4921	-8.6797	-3.7183	0.	126.76
4922	-8.4552	-3.4594	0.	127.27
4923	-8.2311	-3.1997	0.	131.61
4924	-8.672	-3.2122	0.	131.07
4925	-8.448	-2.9525	0.	135.28
4926	-0.24697	1.8303	0.	121.24
4927	0.2513	1.8469	0.	122.97
4928	0.74549	1.8809	0.	126.22
4929	1.2443	1.8723	0.	128.93
4930	-5.0872	-0.58959	0.	126.31
4931	-7.1307	-0.5873	0.	116.3
4932	6.5265	3.486	0.	126.84
4933	6.7752	3.7026	0.	125.2
4934	6.3803	3.7541	0.	125.15
4935	6.629	3.9707	0.	123.62
4936	-7.	-8.	0.	98.074
4937	-9.	-8.	0.	98.372
4938	-7.	-9.	0.	96.654
4939	-9.	-9.	0.	98.441
4940	-7.5	-8.	0.	113.5
4941	-8.	-8.	0.	108.83
4942	-8.5	-8.	0.	109.49
4943	-7.	-8.5	0.	101.97
4944	-9.	-8.5	0.	102.88
4945	-8.5	-9.	0.	111.44
4946	-8.	-9.	0.	108.9
4947	-7.5	-9.	0.	111.05
4948	-8.5	-8.5	0.	109.95
4949	-8.	-8.5	0.	112.16
4950	-7.5	-8.5	0.	110.63
4951	-7.25	-8.	0.	105.72
4952	-7.	-8.25	0.	99.999
4953	-8.75	-8.	0.	103.92
4954	-9.	-8.25	0.	100.62
4955	-7.	-8.75	0.	99.296
4956	-7.25	-9.	0.	103.82
4957	-9.	-8.75	0.	100.65
4958	-8.75	-9.	0.	104.89
4959	-7.75	-8.	0.	111.16
4960	-7.5	-8.25	0.	112.05
4961	-8.25	-8.	0.	109.13
4962	-8.	-8.25	0.	110.49
4963	-8.5	-8.25	0.	109.7
4964	-7.25	-8.5	0.	106.29
4965	-8.75	-8.5	0.	106.41
4966	-8.25	-9.	0.	110.16
4967	-8.5	-8.75	0.	110.67
4968	-7.75	-9.	0.	109.97
4969	-8.	-8.75	0.	110.52
4970	-7.5	-8.75	0.	110.81
4971	-8.25	-8.5	0.	111.05
4972	-7.75	-8.5	0.	111.39
4973	-5.	7.	0.	100.23
4974	-7.	7.	0.	98.416
4975	-5.	6.	0.	100.19
4976	-7.	6.	0.	97.923
4977	-5.5	7.	0.	116.35
4978	-6.	7.	0.	114.12
4979	-6.5	7.	0.	115.12
4980	-5.	6.5	0.	105.13
4981	-7.	6.5	0.	102.93
4982	-6.5	6.	0.	114.
4983	-6.	6.	0.	113.02
4984	-5.5	6.	0.	115.34
4985	-6.5	6.5	0.	113.22
4986	-6.	6.5	0.	116.71
4987	-5.5	6.5	0.	114.36
4988	-5.25	7.	0.	108.24
4989	-5.	6.75	0.	102.65
4990	-6.75	7.	0.	106.72
4991	-7.	6.75	0.	100.65
4992	-5.	6.25	0.	102.64
4993	-5.25	6.	0.	107.73
4994	-7.	6.25	0.	100.41
4995	-6.75	6.	0.	105.93
4996	-5.75	7.	0.	115.23
4997	-5.5	6.75	0.	115.34
4998	-6.25	7.	0.	114.62
4999	-6.	6.75	0.	115.41
5000	-6.5	6.75	0.	114.15
5001	-5.25	6.5	0.	109.73
5002	-6.75	6.5	0.	108.06
5003	-6.25	6.	0.	113.5
5004	-6.5	6.25	0.	113.59
5005	-5.75	6.	0.	114.17
5006	-6.	6.25	0.	114.86
5007	-5.5	6.25	0.	114.83
5008	-6.25	6.5	0.	114.96
5009	-5.75	6.5	0.	115.53
5010	-1.	7.	0.	96.684
5011	-3.	7.	0.	99.029
5012	-1.	5.	0.	92.924
5013	-3.	5.	0.	102.86
5014	-1.5	7.	0.	111.16
5015	-2.	7.	0.	109.38
5016	-2.5	7.	0.	112.66
5017	-1.	6.5	0.	100.45
5018	-1.	6.	0.	98.323
5019	-1.	5.5	0.	98.272
5020	-3.	6.5	0.	103.66
5021	-3.	6.	0.	103.26
5022	-3.	5.5	0.	105.95
5023	-2.5	5.	0.	115.93
5024	-2.	5.	0.	109.82
5025	-1.5	5.	0.	108.11
5026	-2.	6.5	0.	111.72
5027	-1.5	6.5	0.	108.18
5028	-1.5	5.5	0.	106.82
5029	-2.	5.5	0.	111.96
5030	-2.5	5.5	0.	112.02
5031	-2.5	6.5	0.	110.25
5032	-2.5	6.	0.	110.1
5033	-1.5	6.	0.	106.86
5034	-2.	6.	0.	111.53
5035	-1.25	7.	0.	103.83
5036	-1.	6.75	0.	98.554
5037	-2.75	7.	0.	105.76
5038	-3.	6.75	0.	101.33
5039	-1.	5.25	0.	95.583
5040	-1.25	5.	0.	100.49
5041	-3.	5.25	0.	104.39
5042	-2.75	5.	0.	109.28
5043	-1.75	7.	0.	110.27
5044	-1.5	6.75	0.	109.64
5045	-2.25	7.	0.	111.02
5046	-2.	6.75	0.	110.53
5047	-2.5	6.75	0.	111.42
5048	-1.	6.25	0.	99.355
5049	-1.25	6.5	0.	104.29
5050	-1.	5.75	0.	98.264
5051	-1.25	6.	0.	102.58
5052	-1.25	5.5	0.	102.54
5053	-3.	6.25	0.	103.42
5054	-2.75	6.5	0.	106.94
5055	-3.	5.75	0.	104.57
5056	-2.75	6.	0.	106.67
5057	-2.75	5.5	0.	108.96
5058	-2.25	5.	0.	112.87
5059	-2.5	5.25	0.	113.94
5060	-1.75	5.	0.	108.96
5061	-2.	5.25	0.	110.88
5062	-1.5	5.25	0.	107.45
5063	-1.75	6.5	0.	109.94
5064	-2.25	6.5	0.	110.97
5065	-2.	6.25	0.	111.62
5066	-1.5	6.25	0.	107.51
5067	-1.75	5.5	0.	109.39
5068	-1.5	5.75	0.	106.82
5069	-2.25	5.5	0.	111.97
5070	-2.	5.75	0.	111.75
5071	-2.5	5.75	0.	111.05
5072	-2.5	6.25	0.	110.17
5073	-2.25	6.	0.	110.82
5074	-1.75	6.	0.	109.19
5075	0.	4.	0.	102.09
5076	-2.	4.	0.	91.829
5077	0.	3.	0.	99.18
5078	-2.	3.	0.	94.11
5079	-0.5	4.	0.	117.62
5080	-1.	4.	0.	112.35
5081	-1.5	4.	0.	109.15
5082	0.	3.5	0.	105.72
5083	-2.	3.5	0.	97.861
5084	-1.5	3.	0.	111.02
5085	-1.	3.	0.	112.05
5086	-0.5	3.	0.	115.31
5087	-1.5	3.5	0.	108.91
5088	-1.	3.5	0.	115.07
5089	-0.5	3.5	0.	114.81
5090	-0.25	4.	0.	109.77
5091	0.	3.75	0.	103.87
5092	-1.75	4.	0.	100.48
5093	-2.	3.75	0.	94.819
5094	0.	3.25	0.	102.42
5095	-0.25	3.	0.	107.21
5096	-2.	3.25	0.	95.966
5097	-1.75	3.	0.	102.52
5098	-0.75	4.	0.	114.99
5099	-0.5	3.75	0.	116.2
5100	-1.25	4.	0.	110.74
5101	-1.	3.75	0.	113.7
5102	-1.5	3.75	0.	109.02
5103	-0.25	3.5	0.	110.25
5104	-1.75	3.5	0.	103.37
5105	-1.25	3.	0.	111.53
5106	-1.5	3.25	0.	109.95
5107	-0.75	3.	0.	113.68
5108	-1.	3.25	0.	113.55
5109	-0.5	3.25	0.	115.04
5110	-1.25	3.5	0.	111.99
5111	-0.75	3.5	0.	114.94
5112	2.	-4.	0.	97.351
5113	1.	-4.	0.	95.066
5114	2.	-6.	0.	95.596
5115	1.	-6.	0.	95.105
5116	1.5	-4.	0.	110.34
5117	2.	-4.5	0.	100.51
5118	2.	-5.	0.	99.31
5119	2.	-5.5	0.	100.19
5120	1.	-4.5	0.	99.791
5121	1.	-5.	0.	98.446
5122	1.	-5.5	0.	99.009
5123	1.5	-6.	0.	109.4
5124	1.5	-4.5	0.	104.6
5125	1.5	-5.	0.	102.15
5126	1.5	-5.5	0.	103.98
5127	1.75	-4.	0.	103.8
5128	2.	-4.25	0.	98.929
5129	1.25	-4.	0.	102.64
5130	1.	-4.25	0.	97.419
5131	2.	-5.75	0.	97.889
5132	1.75	-6.	0.	102.44
5133	1.	-5.75	0.	97.057
5134	1.25	-6.	0.	102.22
5135	1.5	-4.25	0.	107.43
5136	2.	-4.75	0.	99.873
5137	1.75	-4.5	0.	102.5
5138	2.	-5.25	0.	99.72
5139	1.75	-5.	0.	100.73
5140	1.75	-5.5	0.	102.04
5141	1.	-4.75	0.	99.08
5142	1.25	-4.5	0.	102.15
5143	1.	-5.25	0.	98.679
5144	1.25	-5.	0.	100.3
5145	1.25	-5.5	0.	101.45
5146	1.5	-5.75	0.	106.64
5147	1.5	-4.75	0.	103.37
5148	1.5	-5.25	0.	103.06
5149	8.	-2.	0.	95.149
5150	6.	-2.	0.	98.767
5151	8.	-4.	0.	95.488
5152	6.	-4.	0.	98.786
5153	7.5	-2.	0.	108.64
5154	7.	-2.	0.	107.44
5155	6.5	-2.	0.	111.38
5156	8.	-2.5	0.	99.733
5157	8.	-3.	0.	99.056
5158	8.	-3.5	0.	100.23
5159	6.	-2.5	0.	102.74
5160	6.	-3.	0.	101.55
5161	6.	-3.5	0.	102.9
5162	6.5	-4.	0.	112.17
5163	7.	-4.	0.	108.89
5164	7.5	-4.	0.	110.27
5165	7.	-3.	0.	110.62
5166	7.5	-3.	0.	106.94
5167	7.5	-3.5	0.	107.85
5168	7.	-3.5	0.	111.12
5169	6.5	-3.5	0.	109.48
5170	6.5	-3.	0.	108.51
5171	6.5	-2.5	0.	109.08
5172	7.	-2.5	0.	110.38
5173	7.5	-2.5	0.	107.15
5174	7.75	-2.	0.	101.85
5175	8.	-2.25	0.	97.433
5176	6.25	-2.	0.	105.
5177	6.	-2.25	0.	100.75
5178	8.	-3.75	0.	97.847
5179	7.75	-4.	0.	102.81
5180	6.	-3.75	0.	100.83
5181	6.25	-4.	0.	105.4
5182	7.25	-2.	0.	108.04
5183	7.5	-2.25	0.	107.87
5184	6.75	-2.	0.	109.41
5185	7.	-2.25	0.	108.89
5186	6.5	-2.25	0.	110.2
5187	8.	-2.75	0.	99.369
5188	7.75	-2.5	0.	103.43
5189	8.	-3.25	0.	99.617
5190	7.75	-3.	0.	102.99
5191	7.75	-3.5	0.	104.02
5192	6.	-2.75	0.	102.12
5193	6.25	-2.5	0.	105.9
5194	6.	-3.25	0.	102.2
5195	6.25	-3.	0.	105.03
5196	6.25	-3.5	0.	106.17
5197	6.75	-4.	0.	110.53
5198	6.5	-3.75	0.	110.79
5199	7.25	-4.	0.	109.58
5200	7.	-3.75	0.	109.99
5201	7.5	-3.75	0.	109.03
5202	7.25	-3.	0.	108.78
5203	7.	-3.25	0.	110.87
5204	6.75	-3.	0.	109.57
5205	7.	-2.75	0.	110.5
5206	7.5	-3.25	0.	107.38
5207	7.5	-2.75	0.	107.03
5208	7.25	-3.5	0.	109.47
5209	6.75	-3.5	0.	110.28
5210	6.5	-3.25	0.	108.99
5211	6.5	-2.75	0.	108.79
5212	6.75	-2.5	0.	109.73
5213	7.25	-2.5	0.	108.76
5214	5.	2.	0.	100.08
5215	4.	2.	0.	100.61
5216	5.	1.	0.	98.856
5217	4.	1.	0.	101.02
5218	4.5	2.	0.	116.29
5219	5.	1.5	0.	104.84
5220	4.	1.5	0.	105.9
5221	4.5	1.	0.	115.92
5222	4.5	1.5	0.	113.14
5223	4.75	2.	0.	108.17
5224	5.	1.75	0.	102.45
5225	4.25	2.	0.	108.42
5226	4.	1.75	0.	103.24
5227	5.	1.25	0.	101.82
5228	4.75	1.	0.	107.37
5229	4.	1.25	0.	103.45
5230	4.25	1.	0.	108.45
5231	4.5	1.75	0.	114.67
5232	4.75	1.5	0.	108.95
5233	4.25	1.5	0.	109.5
5234	4.5	1.25	0.	114.48
5235	9.	-6.	0.	96.931
5236	8.	-6.	0.	92.741
5237	9.	-8.	0.	95.374
5238	8.	-8.	0.	94.067
5239	8.5	-6.	0.	108.83
5240	9.	-6.5	0.	100.24
5241	9.	-7.	0.	99.309
5242	9.	-7.5	0.	99.972
5243	8.	-6.5	0.	97.854
5244	8.	-7.	0.	97.048
5245	8.	-7.5	0.	98.115
5246	8.5	-8.	0.	108.48
5247	8.5	-6.5	0.	103.52
5248	8.5	-7.	0.	101.5
5249	8.5	-7.5	0.	103.45
5250	8.75	-6.	0.	102.84
5251	9.	-6.25	0.	98.585
5252	8.25	-6.	0.	100.73
5253	8.	-6.25	0.	95.29
5254	9.	-7.75	0.	97.67
5255	8.75	-8.	0.	101.88
5256	8.	-7.75	0.	96.089
5257	8.25	-8.	0.	101.23
5258	8.5	-6.25	0.	106.13
5259	9.	-6.75	0.	99.752
5260	8.75	-6.5	0.	101.83
5261	9.	-7.25	0.	99.617
5262	8.75	-7.	0.	100.41
5263	8.75	-7.5	0.	101.67
5264	8.	-6.75	0.	97.399
5265	8.25	-6.5	0.	100.64
5266	8.	-7.25	0.	97.53
5267	8.25	-7.	0.	99.273
5268	8.25	-7.5	0.	100.74
5269	8.5	-7.75	0.	105.91
5270	8.5	-6.75	0.	102.51
5271	8.5	-7.25	0.	102.47
5272	-6.88	3.29	0.	79.189
5273	-6.77	1.33	0.	84.831
5274	-5.13	2.4	0.	85.594
5275	-6.8525	2.8	0.	102.73
5276	-6.825	2.31	0.	98.669
5277	-6.7975	1.82	0.	101.53
5278	-6.4425	3.0675	0.	105.44
5279	-6.005	2.845	0.	106.4
5280	-5.5675	2.6225	0.	113.86
5281	-6.36	1.5975	0.	103.18
5282	-5.95	1.865	0.	105.96
5283	-5.54	2.1325	0.	111.23
5284	-6.1891	2.5604	0.	105.25
5285	-6.3078	2.0034	0.	101.61
5286	-6.4709	2.3663	0.	102.82
5287	-6.5101	2.7277	0.	100.12
5288	-5.8966	2.3217	0.	109.63
5289	-6.8663	3.045	0.	89.875
5290	-6.6613	3.1788	0.	91.155
5291	-6.7838	1.575	0.	91.776
5292	-6.565	1.4638	0.	92.494
5293	-5.3488	2.5113	0.	96.361
5294	-5.335	2.2662	0.	95.085
5295	-6.8387	2.555	0.	100.67
5296	-6.6813	2.7638	0.	101.4
5297	-6.8113	2.065	0.	100.05
5298	-6.648	2.3381	0.	100.74
5299	-6.5526	1.9117	0.	101.54
5300	-6.2238	2.9562	0.	105.88
5301	-6.4763	2.8976	0.	102.7
5302	-5.7863	2.7338	0.	110.05
5303	-6.097	2.7027	0.	105.82
5304	-5.7321	2.4721	0.	111.48
5305	-6.155	1.7313	0.	104.56
5306	-6.3339	1.8004	0.	102.33
5307	-5.745	1.9987	0.	108.55
5308	-6.1289	1.9342	0.	103.76
5309	-5.7183	2.2271	0.	110.26
5310	-6.33	2.4633	0.	104.02
5311	-6.3496	2.644	0.	102.67
5312	-6.0428	2.4411	0.	107.38
5313	-6.3893	2.1848	0.	102.21
5314	-6.1022	2.1625	0.	105.55
5315	-6.4905	2.547	0.	101.47
5316	-7.61	-1.37	0.	100.68
5317	-7.93	-2.41	0.	59.692
5318	-6.87	-2.17	0.	56.19
5319	-7.77	-1.89	0.	95.149
5320	-7.24	-1.77	0.	80.949
5321	-7.4	-2.29	0.	112.87
5322	-7.47	-1.9834	0.	99.623
5323	-7.69	-1.63	0.	96.005
5324	-7.425	-1.57	0.	90.177
5325	-7.85	-2.15	0.	77.259
5326	-7.665	-2.35	0.	85.871
5327	-7.055	-1.97	0.	64.87
5328	-7.135	-2.23	0.	81.55
5329	-7.62	-1.9367	0.	97.149
5330	-7.355	-1.8767	0.	89.719
5331	-7.435	-2.1367	0.	105.96
5332	-8.04	-6.88	0.	77.173
5333	-8.08	-5.8	0.	84.718
5334	-8.99	-6.37	0.	65.027
5335	-8.06	-6.34	0.	101.54
5336	-8.515	-6.625	0.	99.829
5337	-8.535	-6.085	0.	94.933
5338	-8.3701	-6.3499	0.	101.53
5339	-8.05	-6.61	0.	88.154
5340	-8.2775	-6.7525	0.	86.537
5341	-8.07	-6.07	0.	91.495
5342	-8.3075	-5.9425	0.	88.209
5343	-8.7525	-6.4975	0.	77.076
5344	-8.7625	-6.2275	0.	74.209
5345	-8.2151	-6.3449	0.	101.5
5346	-8.4426	-6.4874	0.	99.702
5347	-8.4526	-6.2174	0.	97.295
5348	-1.86	1.06	0.	84.124
5349	-2.92	0.36	0.	66.077
5350	-1.79	-0.21	0.	77.883
5351	-2.2133	0.82667	0.	96.532
5352	-2.5667	0.59333	0.	100.37
5353	-1.8367	0.63667	0.	102.56
5354	-1.8133	0.21333	0.	102.59
5355	-2.5433	0.17	0.	102.19
5356	-2.1667	-2.e-002	0.	98.367
5357	-2.0984	0.25969	0.	98.793
5358	-2.1146	0.55399	0.	99.547
5359	-2.3592	0.3922	0.	103.45
5360	-2.0367	0.94333	0.	88.154
5361	-1.8483	0.84833	0.	90.953
5362	-2.7433	0.47667	0.	76.679
5363	-2.7317	0.265	0.	76.6
5364	-1.8017	1.6667e-003	0.	88.258
5365	-1.9783	-0.115	0.	86.141
5366	-2.39	0.71	0.	98.379
5367	-2.1639	0.69033	0.	97.962
5368	-2.4629	0.49277	0.	101.32
5369	-1.825	0.425	0.	102.43
5370	-1.9756	0.59533	0.	101.02
5371	-1.9559	0.23651	0.	100.68
5372	-2.355	7.5e-002	0.	100.14
5373	-2.4513	0.2811	0.	102.07
5374	-2.1326	0.11984	0.	98.492
5375	-2.1065	0.40684	0.	99.148
5376	-2.2288	0.32595	0.	100.98
5377	-2.2369	0.4731	0.	101.35
5378	-2.42	-5.72	0.	74.082
5379	-2.32	-6.77	0.	90.824
5380	-1.46	-6.16	0.	63.041
5381	-2.37	-6.245	0.	102.83
5382	-1.94	-5.94	0.	104.76
5383	-1.89	-6.465	0.	91.826
5384	-2.0667	-6.2167	0.	102.93
5385	-2.395	-5.9825	0.	87.357
5386	-2.18	-5.83	0.	87.69
5387	-2.345	-6.5075	0.	94.856
5388	-2.105	-6.6175	0.	89.674
5389	-1.7	-6.05	0.	78.664
5390	-1.675	-6.3125	0.	71.929
5391	-2.2183	-6.2309	0.	102.83
5392	-2.0033	-6.0784	0.	103.01
5393	-1.9783	-6.3409	0.	96.433
5394	1.32	-0.36	0.	81.041
5395	-0.51	0.3	0.	71.549
5396	-0.17	-1.62	0.	96.247
5397	0.8625	-0.195	0.	117.59
5398	0.405	-3.e-002	0.	107.08
5399	-5.25e-002	0.135	0.	110.27
5400	0.9475	-0.675	0.	109.99
5401	0.575	-0.99	0.	106.92
5402	0.2025	-1.305	0.	101.06
5403	-0.425	-0.18	0.	104.34
5404	-0.34	-0.66	0.	101.44
5405	-0.255	-1.14	0.	102.21
5406	4.2776e-003	-0.93758	0.	103.25
5407	0.29273	-0.65407	0.	105.79
5408	0.6198	-0.41668	0.	108.87
5409	-1.1507e-002	-0.29266	0.	101.14
5410	1.0912	-0.2775	0.	95.994
5411	1.1337	-0.5175	0.	92.777
5412	-0.28125	0.2175	0.	90.242
5413	-0.4675	6.e-002	0.	87.359
5414	1.625e-002	-1.4625	0.	97.086
5415	-0.2125	-1.38	0.	97.379
5416	0.63375	-0.1125	0.	112.27
5417	0.74115	-0.30584	0.	112.98
5418	0.17625	5.25e-002	0.	108.65
5419	0.5124	-0.22334	0.	107.92
5420	0.19675	-0.16133	0.	104.09
5421	-3.2003e-002	-7.8828e-002	0.	105.66
5422	0.76125	-0.8325	0.	108.36
5423	0.78365	-0.54584	0.	109.23
5424	0.38875	-1.1475	0.	103.99
5425	0.43387	-0.82203	0.	106.35
5426	0.10339	-1.1213	0.	102.11
5427	-0.3825	-0.42	0.	102.88
5428	-0.21825	-0.23633	0.	102.74
5429	-0.2975	-0.9	0.	101.74
5430	-0.16786	-0.79879	0.	102.34
5431	-0.17575	-0.47633	0.	101.28
5432	-0.12536	-1.0388	0.	102.64
5433	0.14851	-0.79583	0.	104.51
5434	0.45627	-0.53537	0.	107.3
5435	0.14061	-0.47336	0.	103.44
5436	6.51	8.44	0.	62.076
5437	7.36	7.1	0.	110.92
5438	8.1	8.51	0.	60.145
5439	6.7933	7.9933	0.	99.645
5440	7.0767	7.5467	0.	93.544
5441	7.04	8.4633	0.	117.7
5442	7.57	8.4867	0.	117.92
5443	7.6067	7.57	0.	94.825
5444	7.8533	8.04	0.	101.03
5445	7.5029	8.1307	0.	103.88
5446	7.3318	7.8047	0.	104.64
5447	7.1353	8.1145	0.	104.89
5448	6.6517	8.2167	0.	79.156
5449	6.775	8.4517	0.	88.047
5450	7.2183	7.3233	0.	100.9
5451	7.4833	7.335	0.	101.36
5452	7.835	8.4983	0.	88.173
5453	7.9767	8.275	0.	79.805
5454	6.935	7.77	0.	96.461
5455	6.9643	8.0539	0.	102.13
5456	7.2042	7.6757	0.	99.069
5457	7.305	8.475	0.	117.71
5458	7.0876	8.2889	0.	111.12
5459	7.5365	8.3087	0.	110.82
5460	7.73	7.805	0.	97.78
5461	7.4692	7.6874	0.	99.68
5462	7.6781	8.0854	0.	102.38
5463	7.4174	7.9677	0.	104.19
5464	7.3191	8.1226	0.	104.23
5465	7.2335	7.9596	0.	104.68
5466	7.39	3.7	0.	57.551
5467	8.45	3.47	0.	57.592
5468	8.12	4.51	0.	100.81
5469	7.92	3.585	0.	112.15
5470	7.755	4.105	0.	80.319
5471	8.285	3.99	0.	93.518
5472	7.9866	3.8932	0.	98.518
5473	7.655	3.6425	0.	82.258
5474	7.5725	3.9025	0.	65.353
5475	8.185	3.5275	0.	84.517
5476	8.3675	3.73	0.	75.404
5477	7.9375	4.3075	0.	89.961
5478	8.2025	4.25	0.	95.212
5479	7.9533	3.7391	0.	105.06
5480	7.8708	3.9991	0.	88.85
5481	8.1358	3.9416	0.	95.776
5482	7.66	2.02	0.	104.54
5483	6.93	0.61	0.	55.791
5484	8.52	0.68	0.	61.03
5485	7.4167	1.55	0.	89.648
5486	7.1733	1.08	0.	95.893
5487	7.9467	1.5733	0.	88.737
5488	8.2333	1.1267	0.	95.486
5489	7.46	0.63333	0.	110.65
5490	7.99	0.65667	0.	110.78
5491	7.6933	1.3153	0.	98.44
5492	7.8922	1.0054	0.	98.266
5493	7.5245	0.98926	0.	97.647
5494	7.5383	1.785	0.	95.729
5495	7.8033	1.7967	0.	95.414
5496	7.0517	0.845	0.	75.226
5497	7.195	0.62167	0.	82.646
5498	8.3767	0.90333	0.	76.974
5499	8.255	0.66833	0.	84.516
5500	7.295	1.315	0.	92.646
5501	7.555	1.4326	0.	93.992
5502	7.3489	1.0346	0.	96.691
5503	8.09	1.35	0.	92.042
5504	7.82	1.4443	0.	93.571
5505	8.0628	1.066	0.	96.777
5506	7.725	0.645	0.	110.6
5507	7.4923	0.8113	0.	104.06
5508	7.9411	0.83105	0.	104.36
5509	7.7927	1.1603	0.	98.287
5510	7.6089	1.1523	0.	97.976
5511	7.7083	0.99734	0.	97.837
5512	-6.	-4.	0.	97.288
5513	-7.	-4.	0.	92.653
5514	-6.	-6.	0.	95.224
5515	-7.	-6.	0.	94.02
5516	-6.5	-4.	0.	109.34
5517	-6.	-4.5	0.	100.9
5518	-6.	-5.	0.	99.335
5519	-6.	-5.5	0.	99.672
5520	-7.	-4.5	0.	97.85
5521	-7.	-5.	0.	98.644
5522	-7.	-5.5	0.	99.405
5523	-6.5	-6.	0.	108.2
5524	-6.5	-4.5	0.	104.17
5525	-6.5	-5.	0.	102.23
5526	-6.5	-5.5	0.	103.67
5527	-6.25	-4.	0.	103.25
5528	-6.	-4.25	0.	99.092
5529	-6.75	-4.	0.	100.97
5530	-7.	-4.25	0.	95.25
5531	-6.	-5.75	0.	97.446
5532	-6.25	-6.	0.	101.66
5533	-7.	-5.75	0.	96.709
5534	-6.75	-6.	0.	101.08
5535	-6.5	-4.25	0.	106.71
5536	-6.	-4.75	0.	100.08
5537	-6.25	-4.5	0.	102.5
5538	-6.	-5.25	0.	99.462
5539	-6.25	-5.	0.	100.78
5540	-6.25	-5.5	0.	101.63
5541	-7.	-4.75	0.	98.212
5542	-6.75	-4.5	0.	100.98
5543	-7.	-5.25	0.	99.002
5544	-6.75	-5.	0.	100.43
5545	-6.75	-5.5	0.	101.5
5546	-6.5	-5.75	0.	105.87
5547	-6.5	-4.75	0.	103.2
5548	-6.5	-5.25	0.	102.95
