Node Number	X Location (mm)	Y Location (mm)	Z Location (mm)	Equivalent (von-Mises) Stress (MPa)
1	8.45	4.19	0.	168.08
2	7.76	5.72	0.	112.56
3	6.78	4.36	0.	172.98
4	-1.42	8.19	0.	167.63
5	-0.94	6.71	0.	115.86
6	0.1	7.87	0.	175.54
7	-6.73	-5.43	0.	168.19
8	-6.29	-6.7	0.	119.82
9	-5.41	-5.69	0.	177.31
10	7.	-7.	0.	132.57
11	7.	-8.	0.	132.43
12	8.	-7.	0.	132.78
13	8.	-8.	0.	132.35
14	-3.	-1.	0.	134.77
15	-3.	-3.	0.	135.31
16	-1.	-1.	0.	134.91
17	-1.	-3.	0.	134.88
18	-7.	4.	0.	131.84
19	-7.	2.	0.	131.84
20	-6.	4.	0.	131.28
21	-6.	2.	0.	132.42
22	10.	10.	0.	124.98
23	-10.	10.	0.	125.
24	10.	-10.	0.	128.93
25	-10.	-10.	0.	129.52
26	8.2775	4.5725	0.	126.11
27	8.105	4.955	0.	126.83
28	7.9325	5.3375	0.	119.12
29	8.0325	4.2325	0.	109.94
30	7.615	4.275	0.	118.17
31	7.1975	4.3175	0.	103.09
32	7.515	5.38	0.	99.281
33	7.27	5.04	0.	113.71
34	7.025	4.7	0.	112.14
35	-1.26	7.6967	0.	136.32
36	-1.1	7.2033	0.	129.31
37	-0.91333	8.0833	0.	112.31
38	-0.40667	7.9767	0.	103.63
39	-0.59333	7.0967	0.	91.07
40	-0.24667	7.4833	0.	84.163
41	-6.5833	-5.8533	0.	135.82
42	-6.4367	-6.2767	0.	124.47
43	-6.29	-5.5167	0.	108.65
44	-5.85	-5.6033	0.	99.551
45	-5.9967	-6.3633	0.	88.142
46	-5.7033	-6.0267	0.	88.396
47	7.	-7.5	0.	141.74
48	7.5	-7.	0.	110.45
49	7.5	-8.	0.	110.2
50	8.	-7.5	0.	142.
51	-3.	-1.5	0.	143.5
52	-3.	-2.	0.	144.75
53	-3.	-2.5	0.	143.78
54	-2.5	-1.	0.	113.45
55	-2.	-1.	0.	117.66
56	-1.5	-1.	0.	113.28
57	-2.5	-3.	0.	113.69
58	-2.	-3.	0.	117.83
59	-1.5	-3.	0.	113.35
60	-1.	-1.5	0.	143.48
61	-1.	-2.	0.	144.63
62	-1.	-2.5	0.	143.49
63	-7.	3.5	0.	140.71
64	-7.	3.	0.	141.21
65	-7.	2.5	0.	140.85
66	-6.5	4.	0.	107.22
67	-6.5	2.	0.	107.73
68	-6.	3.5	0.	140.51
69	-6.	3.	0.	141.11
70	-6.	2.5	0.	140.92
71	9.5	10.	0.	124.96
72	9.	10.	0.	124.76
73	8.5	10.	0.	124.5
74	8.	10.	0.	124.3
75	7.5	10.	0.	124.25
76	7.	10.	0.	124.35
77	6.5	10.	0.	124.6
78	6.	10.	0.	124.93
79	5.5	10.	0.	125.3
80	5.	10.	0.	125.66
81	4.5	10.	0.	126.01
82	4.	10.	0.	126.34
83	3.5	10.	0.	126.69
84	3.	10.	0.	127.1
85	2.5	10.	0.	127.57
86	2.	10.	0.	128.04
87	1.5	10.	0.	128.22
88	1.	10.	0.	127.53
89	0.5	10.	0.	125.41
90	-5.2042e-015	10.	0.	122.33
91	-0.5	10.	0.	120.16
92	-1.	10.	0.	120.21
93	-1.5	10.	0.	122.51
94	-2.	10.	0.	125.56
95	-2.5	10.	0.	127.41
96	-3.	10.	0.	127.66
97	-3.5	10.	0.	127.12
98	-4.	10.	0.	126.42
99	-4.5	10.	0.	125.81
100	-5.	10.	0.	125.33
101	-5.5	10.	0.	124.99
102	-6.	10.	0.	124.78
103	-6.5	10.	0.	124.67
104	-7.	10.	0.	124.65
105	-7.5	10.	0.	124.69
106	-8.	10.	0.	124.77
107	-8.5	10.	0.	124.87
108	-9.	10.	0.	124.96
109	-9.5	10.	0.	125.
110	10.	9.5	0.	125.05
111	10.	9.	0.	125.5
112	10.	8.5	0.	126.27
113	10.	8.	0.	127.3
114	10.	7.5	0.	128.5
115	10.	7.	0.	129.61
116	10.	6.5	0.	129.85
117	10.	6.	0.	128.68
118	10.	5.5	0.	125.47
119	10.	5.	0.	121.88
120	10.	4.5	0.	121.08
121	10.	4.	0.	124.98
122	10.	3.5	0.	129.61
123	10.	3.	0.	131.49
124	10.	2.5	0.	130.76
125	10.	2.	0.	129.15
126	10.	1.5	0.	127.65
127	10.	1.	0.	126.5
128	10.	0.5	0.	125.68
129	10.	-5.2042e-015	0.	125.12
130	10.	-0.5	0.	124.76
131	10.	-1.	0.	124.53
132	10.	-1.5	0.	124.42
133	10.	-2.	0.	124.4
134	10.	-2.5	0.	124.46
135	10.	-3.	0.	124.62
136	10.	-3.5	0.	124.89
137	10.	-4.	0.	125.29
138	10.	-4.5	0.	125.83
139	10.	-5.	0.	126.44
140	10.	-5.5	0.	126.93
141	10.	-6.	0.	126.9
142	10.	-6.5	0.	126.05
143	10.	-7.	0.	124.78
144	10.	-7.5	0.	124.23
145	10.	-8.	0.	125.18
146	10.	-8.5	0.	126.87
147	10.	-9.	0.	128.2
148	10.	-9.5	0.	128.8
149	-10.	9.5	0.	124.99
150	-10.	9.	0.	125.07
151	-10.	8.5	0.	125.26
152	-10.	8.	0.	125.55
153	-10.	7.5	0.	125.92
154	-10.	7.	0.	126.35
155	-10.	6.5	0.	126.79
156	-10.	6.	0.	127.16
157	-10.	5.5	0.	127.34
158	-10.	5.	0.	127.2
159	-10.	4.5	0.	126.73
160	-10.	4.	0.	126.07
161	-10.	3.5	0.	125.52
162	-10.	3.	0.	125.36
163	-10.	2.5	0.	125.72
164	-10.	2.	0.	126.45
165	-10.	1.5	0.	127.26
166	-10.	1.	0.	127.87
167	-10.	0.5	0.	128.13
168	-10.	-5.2042e-015	0.	128.09
169	-10.	-0.5	0.	127.89
170	-10.	-1.	0.	127.67
171	-10.	-1.5	0.	127.53
172	-10.	-2.	0.	127.48
173	-10.	-2.5	0.	127.51
174	-10.	-3.	0.	127.51
175	-10.	-3.5	0.	127.35
176	-10.	-4.	0.	126.9
177	-10.	-4.5	0.	126.13
178	-10.	-5.	0.	125.23
179	-10.	-5.5	0.	124.57
180	-10.	-6.	0.	124.52
181	-10.	-6.5	0.	125.16
182	-10.	-7.	0.	126.26
183	-10.	-7.5	0.	127.43
184	-10.	-8.	0.	128.38
185	-10.	-8.5	0.	129.
186	-10.	-9.	0.	129.34
187	-10.	-9.5	0.	129.48
188	-9.5	-10.	0.	128.49
189	-9.	-10.	0.	127.59
190	-8.5	-10.	0.	126.69
191	-8.	-10.	0.	125.66
192	-7.5	-10.	0.	124.5
193	-7.	-10.	0.	123.33
194	-6.5	-10.	0.	122.43
195	-6.	-10.	0.	122.03
196	-5.5	-10.	0.	122.22
197	-5.	-10.	0.	122.8
198	-4.5	-10.	0.	123.5
199	-4.	-10.	0.	124.09
200	-3.5	-10.	0.	124.45
201	-3.	-10.	0.	124.61
202	-2.5	-10.	0.	124.64
203	-2.	-10.	0.	124.62
204	-1.5	-10.	0.	124.61
205	-1.	-10.	0.	124.66
206	-0.5	-10.	0.	124.77
207	5.2042e-015	-10.	0.	124.94
208	0.5	-10.	0.	125.15
209	1.	-10.	0.	125.39
210	1.5	-10.	0.	125.63
211	2.	-10.	0.	125.87
212	2.5	-10.	0.	126.12
213	3.	-10.	0.	126.36
214	3.5	-10.	0.	126.61
215	4.	-10.	0.	126.87
216	4.5	-10.	0.	127.11
217	5.	-10.	0.	127.24
218	5.5	-10.	0.	127.02
219	6.	-10.	0.	126.07
220	6.5	-10.	0.	124.1
221	7.	-10.	0.	121.73
222	7.5	-10.	0.	120.57
223	8.	-10.	0.	121.57
224	8.5	-10.	0.	123.86
225	9.	-10.	0.	125.93
226	9.5	-10.	0.	127.43
227	4.	-2.0003	0.	125.62
228	3.0529	1.5238	0.	127.21
229	2.5747	2.0257	0.	127.07
230	4.0004	-1.5005	0.	125.69
231	4.0098	1.9111e-003	0.	126.33
232	2.6028	2.5294	0.	126.91
233	1.106	2.9936	0.	125.52
234	3.5519	1.522	0.	127.22
235	3.0767	2.0308	0.	127.19
236	2.5526	1.5206	0.	127.19
237	1.5888	2.5077	0.	126.32
238	4.5	-2.5005	0.	125.48
239	4.5003	-1.5016	0.	125.49
240	4.5036	-0.50293	0.	125.81
241	4.5013	-1.0023	0.	125.62
242	4.0017	-1.0004	0.	125.84
243	4.0047	-0.49961	0.	126.06
244	4.	-3.5	0.	125.96
245	4.	-3.0001	0.	125.78
246	0.14187	3.5097	0.	123.72
247	0.58609	2.9949	0.	124.76
248	2.9999	-4.5	0.	126.67
249	0.63874	3.4844	0.	124.61
250	1.7002	3.9833	0.	126.08
251	3.1064	2.5381	0.	127.08
252	2.5348	1.0158	0.	127.23
253	1.0771	2.5032	0.	125.8
254	1.5658	2.0107	0.	126.64
255	5.	-3.5001	0.	125.52
256	5.	-2.5007	0.	125.26
257	5.0003	-1.5027	0.	125.26
258	5.0031	-0.50613	0.	125.51
259	3.4999	-5.	0.	126.6
260	2.9998	-5.	0.	126.72
261	2.2581	4.4918	0.	126.44
262	2.221	4.0046	0.	126.37
263	3.5022	-0.9986	0.	126.02
264	3.5	-3.	0.	125.93
265	-1.991	2.9413	0.	122.53
266	2.8228	5.0136	0.	126.27
267	2.6853	3.5322	0.	126.56
268	5.7233e-002	3.0207	0.	123.87
269	-1.4956	2.9426	0.	122.36
270	3.	-2.4998	0.	125.91
271	-0.97616	3.4331	0.	122.5
272	3.1446	3.0451	0.	126.89
273	2.5213	0.51155	0.	127.16
274	0.55999	2.5053	0.	125.09
275	2.5004	-1.9992	0.	125.95
276	3.8052	5.6002	0.	125.79
277	1.0568	2.0076	0.	126.23
278	1.9991	-5.0001	0.	127.07
279	4.	-5.	0.	126.52
280	-2.492	2.948	0.	123.04
281	5.5	-3.5001	0.	125.21
282	1.5468	1.5113	0.	127.02
283	2.831	5.503	0.	126.17
284	3.3378	5.5428	0.	125.88
285	5.5	-2.5009	0.	125.01
286	5.5	-3.0004	0.	125.08
287	5.5004	-1.5035	0.	125.01
288	5.5027	-0.50885	0.	125.16
289	2.4996	-5.5	0.	126.77
290	3.4999	-5.5	0.	126.6
291	2.9998	-5.5	0.	126.67
292	2.7894	4.5243	0.	126.34
293	2.7424	4.0298	0.	126.43
294	3.0027	-0.99745	0.	126.17
295	-0.5101	3.089	0.	122.98
296	-1.0137	2.953	0.	122.55
297	2.9999	-3.5	0.	126.3
298	2.9999	-2.9999	0.	126.08
299	-0.69029	3.8172	0.	122.45
300	-1.9858	3.4292	0.	122.93
301	-1.4895	3.4305	0.	122.54
302	0.22414	3.9915	0.	123.69
303	0.68339	3.9795	0.	124.62
304	5.0372	1.4934	0.	126.87
305	5.5182	0.98204	0.	125.85
306	5.5104	0.4849	0.	125.53
307	3.3718	5.0593	0.	125.97
308	3.196	3.5507	0.	126.64
309	2.5012	-1.4983	0.	126.07
310	2.512	8.0248e-003	0.	126.97
311	3.7012e-002	2.5169	0.	124.21
312	-1.4922	2.4607	0.	122.11
313	2.4997	-4.	0.	126.76
314	2.5001	-2.4996	0.	126.02
315	-2.4865	3.4335	0.	123.55
316	2.3165	5.4685	0.	126.61
317	1.2146	4.4519	0.	125.81
318	4.2367	5.5993	0.	125.86
319	3.6484	3.0495	0.	127.07
320	2.0209	0.50991	0.	127.38
321	0.54495	2.0081	0.	125.58
322	1.999	-4.5002	0.	127.16
323	2.0005	-1.999	0.	126.06
324	1.7708	4.9526	0.	126.69
325	4.5	-5.	0.	126.46
326	4.	-5.5	0.	126.58
327	-1.9939	1.9718	0.	121.58
328	-2.9942	2.9593	0.	123.78
329	4.1046	2.5333	0.	127.5
330	4.5668	2.0121	0.	127.51
331	5.	-4.5	0.	126.04
332	5.5	-4.0001	0.	125.4
333	1.5325	1.0102	0.	127.39
334	1.0422	1.509	0.	126.77
335	0.99632	-5.501	0.	126.73
336	1.4979	-5.0005	0.	127.24
337	3.8388	6.0565	0.	125.76
338	6.	-3.5002	0.	124.83
339	5.531	1.4802	0.	126.33
340	-2.4951	2.4627	0.	122.6
341	-0.16799	4.1023	0.	122.82
342	3.3421	6.0284	0.	125.71
343	6.0001	-2.501	0.	124.75
344	6.	-3.0005	0.	124.78
345	6.0006	-1.5043	0.	124.75
346	6.0003	-2.0027	0.	124.74
347	6.0013	-1.0071	0.	124.76
348	0.99701	-6.0007	0.	126.23
349	2.4995	-6.	0.	126.59
350	1.9991	-6.	0.	126.58
351	2.9998	-6.	0.	126.55
352	-5.8624	-2.3038	0.	122.72
353	3.2609	4.0554	0.	126.37
354	2.5065	-0.49472	0.	126.67
355	-0.4804	2.5263	0.	123.31
356	-0.98776	2.4827	0.	122.57
357	2.4997	-3.5	0.	126.52
358	-2.1341	-6.1597	0.	121.59
359	-6.0449	-2.912	0.	122.18
360	-6.0421	-1.9088	0.	122.78
361	-1.4995	3.933	0.	122.69
362	-2.4622	4.3974	0.	124.95
363	-0.55215	4.2992	0.	122.11
364	0.68871	4.4631	0.	124.82
365	3.9537	5.1422	0.	125.75
366	3.7046	3.5592	0.	126.72
367	2.0016	-1.498	0.	126.21
368	2.0123	7.323e-003	0.	127.26
369	3.2406e-002	2.0097	0.	124.69
370	-1.4882	1.9767	0.	121.76
371	-1.5622	-6.0723	0.	121.78
372	-1.0323e-002	-6.0066	0.	124.93
373	1.999	-4.0003	0.	127.09
374	2.0001	-2.4996	0.	126.16
375	-2.9895	3.4447	0.	124.28
376	-2.9686	4.8703	0.	126.64
377	1.7994	5.4484	0.	127.09
378	4.5	-5.5	0.	126.6
379	4.	-6.	0.	126.52
380	1.2557	4.9384	0.	126.42
381	4.6923	5.5521	0.	126.1
382	1.5006	-1.9991	0.	126.23
383	-1.9932	1.4819	0.	120.79
384	-5.4217	-2.072	0.	123.49
385	-2.0746	-5.5901	0.	120.62
386	-3.4961	2.9732	0.	124.64
387	5.0592	1.9961	0.	127.46
388	4.1486	3.0429	0.	127.35
389	5.	-5.	0.	126.37
390	5.5	-4.5	0.	125.7
391	0.53537	1.508	0.	126.26
392	1.5203	0.50796	0.	127.64
393	0.99547	-5.0018	0.	127.31
394	1.4972	-4.5011	0.	127.51
395	0.49249	-5.5037	0.	126.3
396	6.0086	0.47982	0.	124.92
397	6.0152	0.97423	0.	125.09
398	4.3181	6.0584	0.	126.06
399	4.7947	6.0375	0.	126.6
400	-4.35	6.4722	0.	125.09
401	-3.4724	5.37	0.	127.35
402	6.	-4.0001	0.	124.94
403	6.5	-3.5002	0.	124.44
404	4.8636	6.5233	0.	126.74
405	6.0256	1.4681	0.	125.41
406	-2.4966	1.9749	0.	122.14
407	-6.0743	-1.4816	0.	123.03
408	-6.5253	-1.0064	0.	123.02
409	3.8724	6.5316	0.	125.66
410	4.3693	6.5336	0.	126.11
411	3.3705	6.5132	0.	125.42
412	-1.9822	3.9233	0.	123.38
413	-2.6756	-6.0728	0.	121.84
414	1.8854	6.4253	0.	126.68
415	2.3545	6.4667	0.	125.85
416	6.5	-3.0005	0.	124.49
417	6.5006	-1.5038	0.	124.52
418	6.5003	-2.0022	0.	124.53
419	6.5014	-1.0075	0.	124.49
420	-1.0683	3.9402	0.	122.34
421	0.12114	4.5173	0.	123.29
422	-1.5076	-6.5633	0.	122.5
423	-1.9729	-6.6256	0.	122.35
424	-1.0107	-6.5312	0.	123.07
425	0.49694	-6.5018	0.	125.37
426	-5.3166e-003	-6.5057	0.	124.69
427	0.99815	-6.5006	0.	125.86
428	3.4999	-6.5	0.	126.37
429	-6.5587	-2.0865	0.	122.76
430	-6.546	-1.5209	0.	122.93
431	-6.3493	-2.5859	0.	122.38
432	3.7776	4.0709	0.	126.29
433	2.0069	-0.49484	0.	126.96
434	-0.47581	2.0093	0.	123.62
435	-0.98261	1.9903	0.	122.55
436	-0.51871	-6.0168	0.	123.85
437	1.9995	-3.	0.	126.47
438	-2.975	4.4039	0.	125.79
439	1.8266	5.9458	0.	127.19
440	-3.9268	5.9092	0.	126.63
441	5.2778	6.0253	0.	127.48
442	4.5	-6.	0.	126.59
443	-2.9655	5.33	0.	127.42
444	-2.445	4.8699	0.	125.92
445	0.74272	4.9362	0.	125.47
446	1.0005	-1.9995	0.	126.57
447	-1.9941	0.98841	0.	119.56
448	-4.982	-1.9858	0.	124.55
449	-2.036	-5.0549	0.	119.44
450	-3.9971	2.9857	0.	125.56
451	4.	-6.5	0.	126.36
452	4.6441	3.0269	0.	127.82
453	1.0201	0.5065	0.	127.93
454	0.99528	-4.5025	0.	127.86
455	-3.9648	5.4237	0.	127.19
456	6.5	-4.0001	0.	124.4
457	-3.3021	-6.5169	0.	123.4
458	5.3516	6.5134	0.	127.44
459	4.2098	3.5525	0.	126.92
460	4.522	5.0735	0.	125.65
461	5.5509	1.9784	0.	127.04
462	6.5214	1.4591	0.	124.17
463	1.5122	5.9981e-003	0.	127.67
464	1.5019	-1.4981	0.	126.43
465	-1.4881	1.4861	0.	121.21
466	2.8174e-002	1.5075	0.	125.36
467	-2.497	1.4839	0.	121.53
468	-3.4985	2.481	0.	124.54
469	-2.9985	1.9807	0.	123.3
470	-5.5839	-1.591	0.	123.49
471	-6.0327	-1.0086	0.	123.32
472	-6.5115	-0.50372	0.	122.94
473	-1.3544e-002	-5.509	0.	125.42
474	-1.5569	-5.5652	0.	121.04
475	1.4998	-2.4999	0.	126.39
476	1.4974	-4.0013	0.	127.55
477	-3.4784	4.9019	0.	127.05
478	-3.4922	3.4616	0.	125.06
479	-6.4419	6.5049	0.	122.51
480	-4.8752	6.4935	0.	124.4
481	-3.4488	5.8334	0.	127.26
482	1.2884	5.4374	0.	127.27
483	-6.3804	-3.3544	0.	121.64
484	-5.7697	-3.226	0.	122.36
485	-5.9439	-3.5634	0.	121.11
486	1.2859	5.9755	0.	128.14
487	1.4518	6.4834	0.	127.72
488	-3.8467	6.4057	0.	125.83
489	-3.4116	6.2866	0.	126.7
490	-5.4016	6.5002	0.	123.59
491	-3.4832	4.4274	0.	126.46
492	1.4979	-3.5011	0.	127.29
493	1.499	-3.0005	0.	126.83
494	-1.0377	-5.5385	0.	122.37
495	-0.52314	-5.5194	0.	124.03
496	-5.4162	-3.0203	0.	123.72
497	-5.3902	-3.3883	0.	123.95
498	-6.0145	-0.50858	0.	123.51
499	-5.5165	-0.51794	0.	124.81
500	-5.5355	-1.0376	0.	124.17
501	-3.4997	1.987	0.	124.73
502	-3.5004	1.4912	0.	125.11
503	-0.47748	1.5039	0.	124.05
504	-0.98257	1.4942	0.	122.5
505	1.5069	-0.49562	0.	127.39
506	6.5346	1.9475	0.	124.3
507	4.3952	4.5719	0.	125.74
508	4.2916	4.0623	0.	126.29
509	5.7454	6.0352	0.	128.42
510	6.5981	5.8276	0.	129.69
511	-3.1807	-6.0245	0.	122.58
512	-3.0835	-5.5251	0.	122.38
513	6.5	-4.5	0.	124.38
514	-4.4593	5.466	0.	126.9
515	0.49255	-4.5053	0.	128.05
516	-4.5047	0.4933	0.	128.94
517	0.51746	0.50449	0.	128.09
518	5.5	-5.5	0.	126.68
519	5.1354	3.0026	0.	128.55
520	-6.8019	-2.9381	0.	122.95
521	-6.9827	-2.439	0.	123.31
522	-7.0412	-1.9697	0.	123.36
523	-7.026	-1.4971	0.	123.33
524	-7.0166	-1.0003	0.	123.33
525	-7.0086	-0.5006	0.	123.24
526	4.	-7.	0.	126.19
527	3.4999	-7.	0.	126.23
528	2.9999	-7.	0.	126.25
529	2.4999	-7.	0.	126.22
530	1.9998	-7.	0.	126.11
531	1.4997	-7.0001	0.	125.92
532	0.99953	-7.0005	0.	125.61
533	0.49937	-7.0019	0.	125.17
534	-0.4993	-7.0121	0.	124.01
535	-0.99546	-7.0272	0.	123.46
536	-1.4853	-7.0524	0.	123.09
537	-1.9669	-7.0842	0.	123.
538	-2.4437	-7.0901	0.	123.2
539	-2.915	-7.0514	0.	123.65
540	-3.3973	-7.0099	0.	124.47
541	-3.9011	-6.9695	0.	125.75
542	-4.4976	2.9936	0.	126.72
543	1.0186	6.6749	0.	129.35
544	-2.0133	-4.533	0.	117.68
545	0.50039	-2.0001	0.	127.4
546	5.7919	5.5476	0.	128.42
547	0.23923	4.9884	0.	123.8
548	-0.98831	4.4391	0.	121.95
549	-1.9197	4.8943	0.	124.55
550	-1.3942	4.9443	0.	122.52
551	-2.4478	5.3301	0.	127.16
552	0.79031	5.3985	0.	126.58
553	-2.9657	5.7816	0.	127.9
554	-6.9566	6.5042	0.	122.93
555	-6.9536	7.003	0.	123.32
556	-6.4337	7.0029	0.	123.
557	-5.916	7.0007	0.	123.07
558	-5.3873	6.9984	0.	123.42
559	-4.8409	6.993	0.	123.86
560	-4.2557	6.9686	0.	124.28
561	-3.6704	6.9191	0.	124.84
562	-3.1751	7.1013	0.	125.
563	-3.9991	2.489	0.	125.66
564	-6.5048	-2.3815e-003	0.	122.42
565	-6.455	6.0053	0.	121.73
566	-4.9215	5.9904	0.	125.14
567	-3.98	4.9396	0.	127.37
568	-3.994	3.4787	0.	125.88
569	0.99938	-2.5007	0.	126.8
570	-1.5359	-5.0487	0.	120.15
571	-2.5325	-5.0418	0.	120.38
572	-5.0907	-2.4644	0.	124.36
573	-5.0305	-1.5199	0.	124.73
574	-5.0091	-1.1461e-002	0.	127.31
575	-4.0023	0.99421	0.	127.69
576	-2.4976	0.9899	0.	120.62
577	-1.4895	0.99148	0.	120.37
578	2.196e-002	1.0053	0.	126.32
579	1.0017	-1.4987	0.	126.83
580	4.5	-7.	0.	126.14
581	6.	-5.	0.	125.55
582	7.0291	1.9398	0.	122.38
583	7.0072	0.47619	0.	123.74
584	7.0042	-1.6545e-002	0.	124.
585	7.0012	-1.0061	0.	124.3
586	7.0003	-2.0018	0.	124.38
587	7.0002	-2.501	0.	124.34
588	7.0001	-3.0005	0.	124.27
589	7.	-3.5003	0.	124.13
590	7.	-4.0001	0.	123.93
591	-3.7992	-6.4761	0.	124.37
592	5.5795	2.4762	0.	128.03
593	4.7094	3.5334	0.	127.4
594	5.063	5.0434	0.	125.71
595	2.8787	6.9857	0.	124.88
596	3.9049	7.0148	0.	125.46
597	4.9123	7.012	0.	126.49
598	6.4414	6.9428	0.	125.77
599	6.3573	6.4502	0.	127.7
600	6.1788	5.975	0.	129.37
601	4.9162	4.544	0.	125.68
602	4.7991	4.0392	0.	126.47
603	6.0678	2.4529	0.	127.08
604	6.5565	2.4334	0.	124.74
605	-3.6761	-5.9855	0.	123.48
606	7.	-5.	0.	123.2
607	6.5	-5.	0.	124.48
608	5.	-6.5	0.	126.58
609	5.	-7.	0.	126.15
610	1.0065	-0.4967	0.	128.05
611	-0.48166	1.0023	0.	124.75
612	-0.98515	0.99675	0.	122.48
613	-3.5013	0.99358	0.	125.69
614	-5.0169	-0.51708	0.	126.5
615	-5.0287	-1.024	0.	125.54
616	-4.962	-3.435	0.	126.54
617	-3.5021	-4.9942	0.	125.27
618	-3.0237	-5.0188	0.	122.6
619	-0.52158	-5.0203	0.	124.57
620	0.99712	-3.5021	0.	127.99
621	0.99832	-3.0014	0.	127.42
622	-3.991	3.9687	0.	126.51
623	-3.9869	4.4547	0.	127.11
624	-5.4322	6.0003	0.	123.88
625	-5.9438	6.0041	0.	122.43
626	-6.0064	-5.5256e-003	0.	123.38
627	-5.5082	-9.7772e-003	0.	125.32
628	-4.001	1.4938	0.	126.91
629	-4.0002	1.9917	0.	126.19
630	-2.9771	6.2187	0.	127.75
631	0.80484	5.8227	0.	127.94
632	-1.916	5.362	0.	125.88
633	-1.3525	5.439	0.	122.3
634	-0.38686	4.7977	0.	121.61
635	6.3133	5.3808	0.	129.69
636	-5.0187	-6.8559	0.	129.8
637	0.42669	6.745	0.	131.37
638	-4.4341	-6.9223	0.	127.93
639	-7.0038	-6.048e-004	0.	122.95
640	-6.9537	7.5007	0.	123.65
641	-6.4359	7.4998	0.	123.38
642	-5.9148	7.4986	0.	123.32
643	-5.3894	7.4967	0.	123.41
644	-4.8453	7.4842	0.	123.54
645	-4.3091	7.4776	0.	123.65
646	-3.781	7.4868	0.	123.73
647	-3.2695	7.5568	0.	123.82
648	-2.7565	7.6007	0.	124.4
649	-7.4678	6.5034	0.	123.86
650	-7.4671	7.0022	0.	123.94
651	-7.4675	7.5007	0.	124.09
652	-1.9971	-3.6278e-003	0.	115.
653	-4.0065	-1.9971	0.	128.85
654	-2.003	-4.0184	0.	115.1
655	2.7616e-004	-2.0005	0.	129.52
656	-4.9983	2.9976	0.	128.79
657	1.8645	7.4796	0.	124.32
658	2.3839	7.4754	0.	124.24
659	2.9036	7.4859	0.	124.45
660	3.413	7.497	0.	124.81
661	3.9255	7.5048	0.	125.26
662	4.4387	7.5073	0.	125.72
663	4.9445	7.5046	0.	126.09
664	5.9555	7.4805	0.	125.87
665	6.4667	7.4547	0.	124.78
666	6.9771	7.4436	0.	123.04
667	7.4833	7.4849	0.	121.77
668	7.5509	2.8909	0.	117.26
669	1.206	7.0852	0.	126.96
670	7.0013	6.8646	0.	122.9
671	5.2017	3.5041	0.	128.36
672	5.5883	5.0111	0.	126.15
673	7.0685	2.8982	0.	120.89
674	5.623	2.9728	0.	129.24
675	-3.9707	-4.9682	0.	127.92
676	-4.3077	-6.4302	0.	125.94
677	-5.7014	-4.155	0.	120.6
678	-4.365	-4.4802	0.	131.4
679	-6.2355	-3.9202	0.	119.45
680	6.	-5.5	0.	126.3
681	7.5246	1.9396	0.	121.16
682	7.5167	1.4557	0.	122.21
683	7.5111	0.96791	0.	122.95
684	7.5068	0.47809	0.	123.47
685	7.5037	-1.4026e-002	0.	123.83
686	7.502	-0.50864	0.	124.07
687	7.5011	-1.0051	0.	124.22
688	7.5006	-1.503	0.	124.3
689	7.5004	-2.0019	0.	124.31
690	7.5002	-2.5012	0.	124.27
691	7.5001	-3.0007	0.	124.17
692	7.5	-3.5004	0.	123.99
693	7.5	-4.0002	0.	123.71
694	7.5	-4.5001	0.	123.28
695	7.5	-5.0001	0.	122.57
696	7.5	-5.5	0.	121.32
697	5.5	-6.	0.	127.13
698	0.51183	3.7616e-003	0.	128.89
699	0.50159	-1.4993	0.	127.69
700	-1.4921	0.49514	0.	119.12
701	1.5904e-002	0.50405	0.	127.7
702	-4.0039	0.494	0.	128.63
703	-2.4986	0.49391	0.	119.28
704	-4.5137	-1.5035	0.	126.4
705	-4.5085	-9.1645e-003	0.	128.88
706	-4.5265	-4.0133	0.	130.52
707	-4.5279	-2.4842	0.	126.4
708	-2.5065	-4.5255	0.	119.28
709	-3.9463	-4.4791	0.	129.88
710	-1.1564e-002	-4.5105	0.	127.62
711	-1.5187	-4.5324	0.	118.96
712	0.49904	-2.5014	0.	127.68
713	0.49387	-4.0048	0.	128.86
714	-4.4954	3.4898	0.	126.93
715	-4.9584	5.4887	0.	126.19
716	-6.4687	5.5043	0.	120.31
717	-6.9648	6.0045	0.	122.41
718	-7.4735	6.0038	0.	123.94
719	-7.3893	-2.9861	0.	124.63
720	-7.4598	-2.4865	0.	124.31
721	-7.5059	-1.9884	0.	124.14
722	-7.51	-0.99724	0.	124.07
723	-7.5026	2.7605e-004	0.	124.39
724	-6.5019	0.49856	0.	121.1
725	-4.5027	0.99457	0.	128.82
726	-2.6715	7.1375	0.	125.9
727	0.30179	5.4115	0.	124.66
728	5.5	-7.5	0.	125.91
729	5.	-7.5	0.	125.92
730	4.	-7.5	0.	126.12
731	1.0005	-7.5007	0.	125.46
732	2.2247e-003	-7.5049	0.	124.64
733	-0.49545	-7.5105	0.	124.19
734	-1.4841	-7.5386	0.	123.58
735	-3.9607	-7.4691	0.	126.2
736	-7.4902	-7.4845	0.	129.02
737	-0.79197	5.5692	0.	118.42
738	-0.24278	5.3353	0.	121.27
739	-7.6499	-6.9861	0.	129.97
740	-1.9684	5.8111	0.	128.38
741	-1.4614	5.8574	0.	124.45
742	-2.6061	6.6836	0.	128.11
743	-2.5193	6.2369	0.	128.89
744	-4.5012	1.4957	0.	128.42
745	-4.5004	1.9955	0.	127.58
746	-6.0027	0.49682	0.	122.83
747	-5.5038	0.49458	0.	125.86
748	-7.501	0.50006	0.	124.93
749	-7.0016	0.49954	0.	122.35
750	-7.4795	5.5038	0.	124.41
751	-5.4602	5.4989	0.	124.44
752	-5.9641	5.5029	0.	121.82
753	-4.4929	3.9843	0.	127.41
754	-4.4889	4.4771	0.	127.87
755	0.49576	-3.5042	0.	129.03
756	0.49765	-3.0029	0.	128.36
757	-0.51569	-4.5177	0.	125.72
758	-2.9959	-4.5108	0.	123.01
759	-4.4902	-3.4831	0.	129.2
760	-4.5133	-0.51093	0.	128.37
761	-4.5177	-1.0102	0.	127.26
762	-3.5026	0.4939	0.	126.66
763	-0.48587	0.50176	0.	125.96
764	-0.98834	0.49833	0.	122.66
765	0.50645	-0.49753	0.	129.06
766	5.5	-6.5	0.	127.06
767	5.5	-7.	0.	126.32
768	7.	-5.5	0.	122.6
769	6.5	-5.5	0.	124.88
770	-6.7913	-3.9647	0.	122.73
771	-4.7838	-4.4256	0.	131.04
772	-4.1637	-5.9422	0.	123.88
773	6.1069	2.9426	0.	128.81
774	6.5888	2.9167	0.	125.97
775	6.8307	6.3138	0.	125.52
776	-7.413	-6.4138	0.	128.91
777	-2.1536	7.1644	0.	128.32
778	-4.9968	3.4957	0.	128.29
779	0.67482	7.1894	0.	129.98
780	-1.5085	-4.0197	0.	117.32
781	-4.0092	-2.4926	0.	128.72
782	-2.4993	-4.0093e-003	0.	117.44
783	1.3461e-003	-1.4997	0.	129.16
784	6.0858	4.9185	0.	127.15
785	7.5696	3.3569	0.	113.66
786	7.4985	7.023	0.	120.24
787	-4.9995	2.4978	0.	128.47
788	-5.0026	0.99515	0.	129.13
789	-6.5007	0.99918	0.	118.15
790	-6.4841	5.0033	0.	117.4
791	-4.9796	4.9887	0.	127.72
792	-8.6014e-004	-2.5019	0.	129.16
793	-8.6321e-003	-4.009	0.	129.41
794	-2.4975	-4.0137	0.	117.62
795	-3.9878	-3.9892	0.	131.31
796	-4.0077	-1.5008	0.	128.49
797	-4.0069	-7.1503e-003	0.	129.85
798	1.1029e-002	2.991e-003	0.	129.45
799	6.	-7.5	0.	125.75
800	6.	-6.	0.	127.49
801	7.1011	3.3721	0.	120.11
802	5.6863	3.4672	0.	130.36
803	8.0301	2.4268	0.	120.11
804	8.0216	1.9467	0.	121.4
805	8.0148	1.4616	0.	122.36
806	8.0103	0.97228	0.	123.07
807	8.0057	0.48217	0.	123.57
808	8.0033	-1.1294e-002	0.	123.91
809	8.0018	-0.50692	0.	124.13
810	8.001	-1.0041	0.	124.26
811	8.0005	-1.5024	0.	124.33
812	8.0002	-2.5007	0.	124.3
813	8.0001	-3.0004	0.	124.21
814	8.	-3.5002	0.	124.06
815	8.	-4.0001	0.	123.83
816	8.	-4.5001	0.	123.5
817	8.	-5.	0.	123.05
818	8.	-5.5	0.	122.46
819	7.5	-6.	0.	118.77
820	7.9943	7.4818	0.	122.01
821	8.04	2.8992	0.	118.34
822	1.3501	7.5526	0.	124.17
823	1.4438	8.038	0.	125.02
824	2.4369	7.9853	0.	124.18
825	2.9402	7.9881	0.	124.42
826	4.9609	8.0004	0.	125.74
827	5.4692	7.9948	0.	125.71
828	6.9811	7.9676	0.	123.5
829	7.485	7.9812	0.	122.83
830	-7.4688	7.9991	0.	124.27
831	-6.9574	7.9987	0.	123.96
832	-6.4435	7.9977	0.	123.74
833	-3.8491	8.0075	0.	123.55
834	-7.9477	-6.527	0.	127.62
835	-8.0095	-6.0058	0.	125.82
836	-8.0563	-5.5119	0.	126.26
837	-8.0827	-5.0277	0.	128.67
838	-8.0808	-4.56	0.	129.6
839	-7.892	-4.0892	0.	128.94
840	-7.9921	-2.0002	0.	125.03
841	-8.0048	-0.99861	0.	124.99
842	-8.0016	3.404e-004	0.	125.76
843	-7.9902	5.0029	0.	127.84
844	-7.9807	6.003	0.	125.3
845	5.5	-8.	0.	126.33
846	5.	-8.	0.	126.21
847	4.5	-8.	0.	126.2
848	4.	-8.	0.	126.21
849	3.5	-8.	0.	126.2
850	3.	-8.	0.	126.14
851	2.0003	-8.0001	0.	125.88
852	2.7171e-003	-8.0039	0.	124.71
853	-0.49531	-8.0082	0.	124.38
854	-0.9923	-8.0158	0.	124.12
855	-1.4885	-8.0267	0.	123.98
856	-1.9847	-8.0359	0.	124.02
857	-2.4828	-8.0344	0.	124.25
858	-2.9817	-8.0211	0.	124.66
859	-3.9884	-7.9734	0.	125.76
860	-5.0097	-7.9223	0.	124.53
861	-6.0143	-7.9773	0.	119.17
862	-7.5101	-8.0139	0.	126.98
863	6.	-8.	0.	127.14
864	-8.0087	-8.0087	0.	127.87
865	7.99	7.984	0.	122.96
866	5.776	3.9583	0.	128.86
867	6.6341	3.3975	0.	128.13
868	-4.6351	-5.8825	0.	125.91
869	-4.8711	-4.8599	0.	134.09
870	-6.7504	-4.4703	0.	122.79
871	-7.6312	-5.0111	0.	131.54
872	7.	-6.	0.	121.82
873	6.5	-6.	0.	126.34
874	6.	-6.5	0.	128.15
875	6.	-7.	0.	127.2
876	6.6394e-003	-0.49799	0.	130.54
877	-0.49022	1.3739e-003	0.	128.3
878	-3.0015	-3.5986e-003	0.	123.41
879	-3.5044	-5.3719e-003	0.	128.71
880	-4.0089	-0.50672	0.	130.42
881	-4.0096	-1.0044	0.	129.56
882	-3.9944	-3.4917	0.	131.49
883	-2.9914	-4.0048	0.	123.64
884	-1.0101	-4.0164	0.	122.89
885	-0.51001	-4.0132	0.	128.06
886	-5.5076e-003	-3.5067	0.	130.55
887	-2.69e-003	-3.0043	0.	130.07
888	0.86044	7.6363	0.	126.79
889	-4.9946	3.9931	0.	128.76
890	-4.9898	4.49	0.	128.88
891	-5.9816	5.0017	0.	120.89
892	-7.4874	5.0033	0.	126.12
893	-8.	2.0001	0.	129.46
894	-8.0001	1.5001	0.	129.51
895	-7.0006	0.9997	0.	121.38
896	-6.0011	0.99825	0.	121.82
897	-5.5018	0.99688	0.	127.35
898	-5.0002	1.9977	0.	129.24
899	-2.0763	6.7096	0.	129.58
900	-2.0251	6.2597	0.	130.51
901	-7.2329	-6.8428	0.	130.76
902	-7.0713	-7.2399	0.	129.63
903	8.	-6.	0.	121.74
904	-6.0059	-8.4828	0.	120.82
905	-5.5067	-8.4562	0.	121.75
906	-5.0059	-8.4512	0.	123.45
907	-3.9993	-8.4799	0.	125.06
908	-0.99474	-8.5108	0.	124.36
909	-0.49638	-8.506	0.	124.54
910	2.3395e-003	-8.5031	0.	124.8
911	3.	-8.5	0.	126.19
912	4.	-8.5	0.	126.42
913	4.5	-8.5	0.	126.54
914	5.	-8.5	0.	126.73
915	5.5	-8.5	0.	127.13
916	6.	-8.5	0.	128.07
917	-8.0077	-8.5078	0.	126.88
918	-8.5091	-8.0076	0.	127.97
919	-8.5191	-7.0116	0.	127.81
920	-8.4922	-6.5123	0.	126.76
921	-8.5081	-6.0142	0.	125.92
922	-8.5337	-5.5167	0.	126.27
923	-8.545	-5.0208	0.	127.41
924	-8.4565	-4.0288	0.	128.17
925	-8.4518	-3.0157	0.	126.66
926	-8.4712	-2.5094	0.	126.13
927	-8.4887	-2.005	0.	125.85
928	-8.5016	-1.0006	0.	125.85
929	-8.5009	3.645e-005	0.	126.64
930	-8.5001	1.	0.	128.15
931	-8.5	2.0001	0.	128.26
932	-8.4995	3.0006	0.	127.71
933	-8.4978	4.0014	0.	127.96
934	-8.4924	5.0023	0.	127.69
935	-8.4869	6.0021	0.	126.09
936	-8.4857	7.0009	0.	125.23
937	-7.9817	8.4989	0.	124.69
938	-6.9655	8.4977	0.	124.25
939	-6.4543	8.4971	0.	124.11
940	-5.9439	8.4966	0.	124.02
941	-5.4295	8.4962	0.	123.97
942	-4.9172	8.4957	0.	123.93
943	-3.9006	8.5122	0.	124.04
944	-3.3966	8.5332	0.	124.56
945	-2.3373	8.0994	0.	127.39
946	-2.8952	8.5536	0.	126.14
947	-2.3988	8.5728	0.	129.57
948	0.55028	8.5764	0.	136.1
949	1.0134	8.5587	0.	130.56
950	1.4896	8.5282	0.	126.66
951	1.9767	8.5038	0.	125.16
952	2.4709	8.4932	0.	124.73
953	2.9692	8.4921	0.	124.78
954	3.4697	8.4947	0.	125.01
955	3.9705	8.4976	0.	125.26
956	4.4731	8.4993	0.	125.46
957	4.9744	8.4984	0.	125.53
958	5.4814	8.4955	0.	125.42
959	6.487	8.4847	0.	124.54
960	8.4926	7.984	0.	123.86
961	7.9916	8.4873	0.	123.69
962	6.9875	8.4808	0.	123.96
963	7.4893	8.4843	0.	123.6
964	-0.12285	5.8704	0.	122.63
965	-5.5391	-7.3486	0.	121.85
966	8.4982	7.4691	0.	123.54
967	8.5271	6.9184	0.	124.09
968	8.3704	6.4127	0.	124.39
969	8.7916	6.2089	0.	128.56
970	8.5298	3.3965	0.	126.09
971	8.5292	2.9249	0.	123.63
972	8.5237	2.4446	0.	122.86
973	8.5178	1.9587	0.	123.01
974	8.5117	1.4713	0.	123.38
975	8.5077	0.98025	0.	123.74
976	8.5047	0.48694	0.	124.03
977	8.5027	-8.2564e-003	0.	124.22
978	8.5015	-0.50505	0.	124.33
979	8.5009	-1.003	0.	124.4
980	8.5005	-1.5017	0.	124.42
981	8.5002	-2.0009	0.	124.42
982	8.5001	-2.5005	0.	124.4
983	8.5001	-3.0003	0.	124.36
984	8.5	-3.5002	0.	124.29
985	8.5	-4.0001	0.	124.2
986	8.5	-4.5	0.	124.13
987	8.5	-5.	0.	124.18
988	8.5	-6.	0.	126.13
989	-8.4878	8.4993	0.	124.93
990	8.4935	8.4898	0.	124.22
991	-6.5338	-7.5743	0.	119.36
992	9.	-7.5	0.	126.06
993	9.	-6.5	0.	128.
994	9.	-5.	0.	125.15
995	9.	-5.5	0.	125.86
996	9.	-4.	0.	124.67
997	9.	-4.5	0.	124.82
998	9.	-3.5001	0.	124.59
999	9.0001	-2.5003	0.	124.52
1000	9.0006	-1.0018	0.	124.55
1001	9.0004	-1.5011	0.	124.53
1002	9.002	-5.0747e-003	0.	124.65
1003	9.0012	-0.50331	0.	124.6
1004	9.0034	0.49165	0.	124.7
1005	9.0117	1.9758	0.	125.16
1006	9.0083	1.4819	0.	124.88
1007	9.0153	2.4684	0.	125.99
1008	9.0147	3.4646	0.	133.39
1009	9.1098	4.5164	0.	128.4
1010	9.0884	5.5708	0.	129.42
1011	9.	7.5007	0.	125.39
1012	-6.0402	-7.4791	0.	116.55
1013	-0.5599	6.0312	0.	114.9
1014	-8.504	-9.0034	0.	127.06
1015	-8.9925	8.4994	0.	125.14
1016	8.4955	8.9933	0.	124.48
1017	8.9956	7.9942	0.	125.09
1018	7.4935	8.9899	0.	124.14
1019	7.9944	8.9912	0.	124.19
1020	6.9931	8.9898	0.	124.33
1021	5.9925	8.9948	0.	125.03
1022	4.9867	8.998	0.	125.48
1023	3.9853	8.9979	0.	125.53
1024	2.9863	8.9956	0.	125.43
1025	1.5034	9.0187	0.	127.38
1026	1.9945	9.0053	0.	126.05
1027	0.52451	9.0237	0.	130.73
1028	1.0142	9.032	0.	129.66
1029	3.924e-002	8.977	0.	126.4
1030	-1.4437	9.0528	0.	125.63
1031	-0.94452	9.0272	0.	116.05
1032	-1.9425	9.0559	0.	131.82
1033	-2.9391	9.0353	0.	126.73
1034	-4.4433	9.0009	0.	124.57
1035	-3.9408	9.0103	0.	124.79
1036	-5.9625	8.9969	0.	124.42
1037	-6.9758	8.9977	0.	124.51
1038	-8.4906	8.9991	0.	124.9
1039	-7.9869	8.9987	0.	124.76
1040	-8.9914	7.9997	0.	125.27
1041	-8.9914	7.0005	0.	125.69
1042	-8.9915	6.0015	0.	126.45
1043	-9.	2.0001	0.	127.57
1044	-9.0001	1.	0.	127.84
1045	-9.0004	-2.4049e-004	0.	127.14
1046	-8.997	-1.5031	0.	126.49
1047	-9.0001	-1.0016	0.	126.59
1048	-8.9804	-2.5081	0.	126.68
1049	-8.9904	-2.0055	0.	126.52
1050	-8.9702	-3.0106	0.	126.95
1051	-8.9813	-4.0099	0.	127.47
1052	-9.0188	-5.5108	0.	126.13
1053	-9.0216	-5.0108	0.	126.72
1054	-9.0022	-6.5066	0.	126.52
1055	-9.0079	-6.0105	0.	126.02
1056	-9.0086	-7.006	0.	127.22
1057	-9.0065	-8.0049	0.	127.9
1058	-7.506	-9.0091	0.	124.94
1059	-8.0052	-9.0057	0.	126.18
1060	-7.0054	-9.0112	0.	123.43
1061	-5.5031	-8.9758	0.	122.02
1062	-6.0025	-8.9886	0.	121.57
1063	-5.0034	-8.9715	0.	123.01
1064	-4.0024	-8.9867	0.	124.51
1065	-2.9988	-9.0058	0.	124.7
1066	-1.9962	-9.0127	0.	124.5
1067	-0.49783	-9.0038	0.	124.67
1068	-0.99693	-9.0066	0.	124.53
1069	1.5174e-003	-9.0021	0.	124.87
1070	1.0005	-9.0005	0.	125.37
1071	3.	-9.	0.	126.27
1072	4.5	-9.	0.	126.86
1073	4.	-9.	0.	126.65
1074	5.5	-9.	0.	127.34
1075	5.	-9.	0.	127.1
1076	6.5	-9.	0.	125.97
1077	6.	-9.	0.	127.46
1078	7.	-9.	0.	121.16
1079	8.	-9.	0.	121.04
1080	-6.6141	-7.1486	0.	125.21
1081	-1.5266	6.2753	0.	130.32
1082	-5.5007	1.4982	0.	131.02
1083	-7.5001	1.5	0.	130.58
1084	-7.4942	4.5023	0.	130.23
1085	-5.4909	4.4972	0.	129.94
1086	-1.909	8.5918	0.	140.69
1087	-0.50577	-3.5084	0.	132.34
1088	-3.4946	-3.4956	0.	133.44
1089	-3.5052	-0.50426	0.	132.57
1090	-0.49441	-0.49894	0.	132.39
1091	6.5	-6.5	0.	129.96
1092	8.5	-6.5	0.	129.94
1093	8.5	-8.5	0.	129.76
1094	6.5	-8.5	0.	129.69
1095	-7.1835	-4.9726	0.	139.74
1096	-4.9504	-5.319	0.	138.83
1097	6.2438	3.9102	0.	136.05
1098	8.9973	3.9976	0.	135.87
1099	9.	-9.	0.	127.4
1100	-9.0027	-9.002	0.	127.73
1101	-8.994	8.9993	0.	125.04
1102	8.9967	8.9957	0.	124.93
1103	7.8361	6.1063	0.	111.87
1104	-6.0005	1.4991	0.	122.46
1105	-7.0002	1.4999	0.	121.98
1106	-6.5003	1.4996	0.	110.48
1107	-7.5	2.	0.	130.31
1108	-7.5	2.5001	0.	132.59
1109	-7.4998	3.0003	0.	134.26
1110	-7.4981	4.0013	0.	129.95
1111	-7.4994	3.5006	0.	132.57
1112	-6.9937	4.502	0.	121.55
1113	-5.9919	4.5004	0.	121.54
1114	-6.4927	4.5016	0.	109.91
1115	-5.4963	3.9976	0.	129.75
1116	-5.4983	3.4984	0.	132.05
1117	-5.4991	2.9989	0.	133.93
1118	-5.5002	1.9989	0.	130.27
1119	-5.4997	2.499	0.	132.51
1120	-1.5309	6.7164	0.	132.28
1121	-1.6277	7.183	0.	129.49
1122	-1.8566	8.1259	0.	126.58
1123	-1.7486	7.6551	0.	137.76
1124	-1.4178	8.5988	0.	129.27
1125	-0.9209	8.5495	0.	108.47
1126	-0.42297	8.4824	0.	113.6
1127	0.41668	7.7454	0.	123.1
1128	-0.40142	6.5027	0.	119.43
1129	-9.9024e-002	6.9131	0.	123.9
1130	0.18892	7.3214	0.	142.92
1131	-1.0047	-3.5085	0.	124.87
1132	-1.5028	-3.509	0.	113.98
1133	-2.0003	-3.5082	0.	113.81
1134	-2.995	-3.5014	0.	125.5
1135	-2.4976	-3.5059	0.	114.23
1136	-3.5002	-2.9957	0.	132.1
1137	-3.503	-2.4968	0.	133.83
1138	-3.5031	-1.9986	0.	135.11
1139	-3.5045	-1.0022	0.	131.53
1140	-3.5036	-1.5003	0.	133.47
1141	-3.0022	-0.50222	0.	125.21
1142	-2.5002	-0.5018	0.	113.97
1143	-1.9984	-0.5015	0.	113.79
1144	-0.99562	-0.50019	0.	125.21
1145	-1.497	-0.50115	0.	113.91
1146	-0.49761	-0.99931	0.	131.61
1147	-0.50213	-3.0042	0.	131.67
1148	-0.50051	-2.5017	0.	133.81
1149	-0.49982	-2.0005	0.	135.35
1150	-0.49907	-1.4998	0.	133.78
1151	7.	-6.5	0.	122.61
1152	8.	-6.5	0.	122.66
1153	7.5	-6.5	0.	112.23
1154	8.5	-7.	0.	129.32
1155	8.5	-8.	0.	129.35
1156	8.5	-7.5	0.	129.23
1157	8.	-8.5	0.	122.11
1158	7.	-8.5	0.	122.24
1159	7.5	-8.5	0.	111.8
1160	6.5	-7.	0.	129.18
1161	6.5	-7.5	0.	129.01
1162	6.5	-8.	0.	129.02
1163	-5.8263	-5.1107	0.	112.11
1164	-6.2761	-5.0175	0.	106.21
1165	-6.7658	-6.749	0.	133.78
1166	-7.1401	-5.445	0.	126.91
1167	-7.0453	-5.8988	0.	136.75
1168	-6.9186	-6.3344	0.	129.33
1169	-5.0688	-5.7928	0.	120.08
1170	-5.5835	-6.775	0.	126.74
1171	-5.2928	-6.2599	0.	141.18
1172	6.6981	3.8762	0.	134.25
1173	7.1443	3.8441	0.	115.44
1174	7.5906	3.8169	0.	113.35
1175	8.0436	3.8039	0.	109.97
1176	8.2611	5.9585	0.	129.31
1177	8.148	5.5694	0.	121.34
1178	8.5039	5.2473	0.	128.28
1179	8.768	4.3901	0.	125.67
1180	8.6265	4.7816	0.	140.31
1181	9.	-9.5	0.	126.31
1182	8.5	-9.5	0.	124.22
1183	8.	-9.5	0.	121.44
1184	7.5	-9.5	0.	120.05
1185	7.	-9.5	0.	121.59
1186	6.5	-9.5	0.	124.43
1187	6.	-9.5	0.	126.43
1188	5.5	-9.5	0.	127.15
1189	5.	-9.5	0.	127.22
1190	4.5	-9.5	0.	127.05
1191	4.	-9.5	0.	126.81
1192	3.5	-9.5	0.	126.57
1193	3.	-9.5	0.	126.33
1194	2.5	-9.5	0.	126.1
1195	2.	-9.5	0.	125.87
1196	1.5001	-9.5001	0.	125.63
1197	1.0002	-9.5002	0.	125.38
1198	0.50045	-9.5005	0.	125.14
1199	7.3563e-004	-9.501	0.	124.92
1200	-0.49891	-9.5019	0.	124.75
1201	-0.99859	-9.5032	0.	124.63
1202	-1.4984	-9.5045	0.	124.58
1203	-1.9986	-9.5058	0.	124.59
1204	-2.4994	-9.5049	0.	124.63
1205	-3.0004	-9.5023	0.	124.63
1206	-3.5013	-9.4982	0.	124.52
1207	-4.002	-9.4934	0.	124.19
1208	-4.5021	-9.4893	0.	123.6
1209	-5.0019	-9.4872	0.	122.84
1210	-5.5009	-9.489	0.	122.17
1211	-6.0006	-9.4944	0.	121.93
1212	-6.5011	-9.5009	0.	122.36
1213	-7.0022	-9.5044	0.	123.36
1214	-7.5027	-9.5043	0.	124.6
1215	-8.0025	-9.5029	0.	125.79
1216	-8.502	-9.5018	0.	126.78
1217	-9.0013	-9.5011	0.	127.63
1218	-9.5007	-9.5005	0.	128.48
1219	-9.5014	-9.001	0.	128.41
1220	-9.5024	-8.5019	0.	128.25
1221	-9.5033	-8.0025	0.	127.94
1222	-9.5042	-7.5026	0.	127.43
1223	-9.5038	-7.0026	0.	126.78
1224	-9.5025	-6.5032	0.	126.12
1225	-9.5047	-6.0053	0.	125.72
1226	-9.5083	-5.5054	0.	125.73
1227	-9.5085	-5.0048	0.	126.11
1228	-9.5028	-4.5029	0.	126.61
1229	-9.4927	-4.0029	0.	126.97
1230	-9.4869	-3.5039	0.	127.13
1231	-9.4861	-3.0049	0.	127.14
1232	-9.49	-2.5045	0.	127.1
1233	-9.4946	-2.0034	0.	127.06
1234	-9.4979	-1.5022	0.	127.09
1235	-9.4996	-1.0012	0.	127.19
1236	-9.5002	-0.50062	0.	127.36
1237	-9.5002	-2.4971e-004	0.	127.54
1238	-9.5001	0.49991	0.	127.66
1239	-9.5	0.99998	0.	127.64
1240	-9.5	1.5	0.	127.41
1241	-9.5	2.0001	0.	127.02
1242	-9.4999	2.5002	0.	126.64
1243	-9.4998	3.0003	0.	126.44
1244	-9.4995	3.5005	0.	126.48
1245	-9.4991	4.0006	0.	126.7
1246	-9.4984	4.5008	0.	126.94
1247	-9.4976	5.0009	0.	127.05
1248	-9.4969	5.5009	0.	126.95
1249	-9.4962	6.0007	0.	126.7
1250	-9.4959	6.5005	0.	126.38
1251	-9.496	7.0003	0.	126.04
1252	-9.496	7.5001	0.	125.74
1253	-9.4959	7.9999	0.	125.48
1254	-9.4963	8.4997	0.	125.27
1255	-9.497	8.9996	0.	125.12
1256	-9.4985	9.4997	0.	125.02
1257	-8.9969	9.4995	0.	124.96
1258	-8.4949	9.4994	0.	124.88
1259	-7.9932	9.4991	0.	124.79
1260	-7.4905	9.4988	0.	124.71
1261	-6.9882	9.4985	0.	124.67
1262	-6.4845	9.4981	0.	124.67
1263	-5.9791	9.4979	0.	124.73
1264	-5.4776	9.4981	0.	124.85
1265	-4.9751	9.4983	0.	125.03
1266	-4.474	9.5011	0.	125.29
1267	-3.9731	9.5056	0.	125.63
1268	-3.4726	9.5115	0.	126.08
1269	-2.9722	9.5174	0.	126.71
1270	-2.472	9.5229	0.	127.32
1271	-1.9717	9.5261	0.	126.92
1272	-0.9722	9.5127	0.	121.04
1273	-0.47549	9.4991	0.	121.25
1274	1.8175e-002	9.496	0.	124.49
1275	0.51171	9.509	0.	126.79
1276	1.0074	9.5139	0.	127.51
1277	1.5038	9.5093	0.	127.22
1278	2.0001	9.5035	0.	126.8
1279	2.4971	9.4996	0.	126.48
1280	2.9952	9.4982	0.	126.26
1281	3.4943	9.4983	0.	126.08
1282	3.9941	9.4988	0.	125.91
1283	4.4941	9.4992	0.	125.74
1284	4.9946	9.4989	0.	125.53
1285	5.4956	9.4983	0.	125.28
1286	5.9966	9.4976	0.	125.01
1287	6.497	9.4966	0.	124.74
1288	6.997	9.4955	0.	124.52
1289	7.4969	9.4947	0.	124.4
1290	7.997	9.4953	0.	124.43
1291	8.4975	9.4965	0.	124.59
1292	8.9982	9.4977	0.	124.82
1293	9.499	9.4988	0.	125.07
1294	9.4983	8.9978	0.	125.39
1295	9.4978	8.4977	0.	125.78
1296	9.4984	7.9989	0.	126.3
1297	9.5012	7.5022	0.	126.93
1298	9.5006	6.9996	0.	127.64
1299	9.4573	6.4695	0.	128.32
1300	9.5794	5.9819	0.	128.36
1301	9.5435	5.5087	0.	127.67
1302	9.5178	5.0137	0.	126.62
1303	9.5307	4.5064	0.	125.92
1304	9.5084	3.996	0.	128.24
1305	9.5059	3.4895	0.	130.41
1306	9.5079	2.9858	0.	129.59
1307	9.5074	2.4864	0.	128.25
1308	9.506	1.9886	0.	127.24
1309	9.5044	1.4913	0.	126.43
1310	9.5018	0.49603	0.	125.35
1311	9.5011	-2.6343e-003	0.	125.02
1312	9.5007	-0.50166	0.	124.79
1313	9.5004	-1.001	0.	124.64
1314	9.5002	-1.5006	0.	124.55
1315	9.5001	-2.0003	0.	124.53
1316	9.5001	-2.5002	0.	124.57
1317	9.5	-3.0001	0.	124.67
1318	9.5	-3.5	0.	124.83
1319	9.5	-4.	0.	125.07
1320	9.5	-4.5	0.	125.4
1321	9.5	-5.	0.	125.81
1322	9.5	-5.5	0.	126.28
1323	9.5	-6.	0.	126.67
1324	9.5	-6.5	0.	126.66
1325	9.5	-7.	0.	126.15
1326	9.5	-7.5	0.	125.96
1327	9.5	-8.	0.	126.43
1328	9.5	-8.5	0.	127.22
1329	9.5	-9.	0.	127.52
1330	9.5	-9.5	0.	127.48
1331	6.7985	5.2215	0.	128.6
1332	6.562	4.8092	0.	141.75
1333	6.3657	4.3765	0.	121.53
1334	-7.5004	0.99999	0.	126.6
1335	3.3263	4.5609	0.	126.13
1336	6.5078	0.47684	0.	124.28
1337	7.0007	-1.5038	0.	124.36
1338	2.1338	3.0161	0.	126.49
1339	5.0013	-1.0043	0.	125.36
1340	7.5372	2.4181	0.	119.61
1341	5.4874	8.9959	0.	125.31
1342	5.9845	8.4901	0.	125.08
1343	4.5999	2.5187	0.	127.81
1344	5.0232	0.99198	0.	126.39
1345	6.0048	-1.5017e-002	0.	124.83
1346	-5.6039	-2.6505	0.	123.05
1347	-8.9995	3.0005	0.	126.99
1348	-7.9087	-3.5347	0.	127.12
1349	2.4883	8.9979	0.	125.55
1350	-9.0045	-8.5039	0.	127.85
1351	5.2958	4.0043	0.	127.25
1352	1.1854	3.9706	0.	125.5
1353	-8.5233	-4.5242	0.	128.24
1354	5.	-5.5	0.	126.67
1355	3.9482	7.9998	0.	125.17
1356	5.4104	7.0021	0.	126.89
1357	-7.6722	-4.5499	0.	131.33
1358	-4.5078	-1.9947	0.	126.09
1359	-2.4714	5.7856	0.	128.39
1360	2.8413	5.9967	0.	125.92
1361	-5.9244	6.503	0.	122.81
1362	-8.0035	-1.4986	0.	124.92
1363	-2.9969	2.4708	0.	123.47
1364	4.5161	0.49869	0.	126.37
1365	-5.4791	4.9972	0.	126.09
1366	-8.4861	7.9997	0.	124.97
1367	7.	-4.5001	0.	123.64
1368	-4.5091	-5.4017	0.	127.33
1369	0.50101	-7.502	0.	125.08
1370	2.9998	-6.5	0.	126.39
1371	2.4995	-5.	0.	126.88
1372	1.6766e-002	6.3244	0.	125.34
1373	-7.9776	7.5005	0.	124.59
1374	-1.9916	-8.5226	0.	124.32
1375	-1.9948	0.49302	0.	117.65
1376	1.5006	-8.5003	0.	125.63
1377	-1.4946	-2.7016e-003	0.	117.39
1378	9.	-8.	0.	127.45
1379	-5.218	-4.2995	0.	127.04
1380	5.9168	6.9829	0.	126.86
1381	-5.4052	7.9936	0.	123.59
1382	7.9908	6.9929	0.	120.66
1383	6.4777	7.9708	0.	124.5
1384	-6.7313	-4.9655	0.	125.24
1385	-2.9576	-7.5347	0.	124.31
1386	9.5029	0.99376	0.	125.81
1387	0.52675	1.0072	0.	127.11
1388	-8.4989	3.501	0.	127.75
1389	1.4983	-6.0002	0.	126.49
1390	-0.31653	3.611	0.	122.96
1391	-7.3758	-3.4977	0.	125.56
1392	9.0179	2.962	0.	128.05
1393	-7.0129	-8.0499	0.	124.37
1394	-4.4993	2.4943	0.	126.95
1395	8.5	-5.5	0.	124.58
1396	-8.5062	-8.5054	0.	127.5
1397	0.10269	8.4201	0.	136.13
1398	-9.0007	-0.50066	0.	126.81
1399	1.5039	-0.99696	0.	126.9
1400	7.4443	6.5866	0.	118.01
1401	6.5025	-0.51165	0.	124.44
1402	-1.4962	-9.0102	0.	124.47
1403	8.0465	3.3603	0.	115.83
1404	3.5	-8.5	0.	126.32
1405	-4.417	5.9636	0.	125.99
1406	4.0489	1.5159	0.	127.21
1407	4.0314	1.0095	0.	126.93
1408	-2.4397	9.0473	0.	129.81
1409	-4.9823	-2.9654	0.	125.42
1410	-8.0172	-7.5138	0.	128.76
1411	4.	-2.5002	0.	125.66
1412	-4.5027	-8.9768	0.	123.95
1413	2.0994	2.5179	0.	126.67
1414	-8.0033	-0.49919	0.	125.24
1415	-4.0021	-2.9895	0.	130.14
1416	1.7364	4.4687	0.	126.32
1417	1.0122	4.8525e-003	0.	128.23
1418	-4.9476	8.9972	0.	124.48
1419	3.4999	-4.5	0.	126.5
1420	-3.4824	-7.9994	0.	125.21
1421	4.5086	-2.5497e-003	0.	126.07
1422	-7.999	3.5009	0.	128.82
1423	-0.87483	5.0091	0.	120.94
1424	-5.0134	-7.3865	0.	127.18
1425	7.3439	6.0894	0.	119.81
1426	8.6631	5.7383	0.	129.8
1427	9.	-6.	0.	127.12
1428	5.8458	6.4987	0.	127.97
1429	2.5	-7.5	0.	126.1
1430	5.423	4.5045	0.	125.43
1431	3.0061	-0.49535	0.	126.46
1432	-8.9672	-3.5129	0.	127.27
1433	-3.0008	0.49426	0.	123.05
1434	-8.0008	0.50016	0.	126.72
1435	-1.9747	-7.5562	0.	123.57
1436	-2.492	-8.5206	0.	124.49
1437	1.5005	-8.0003	0.	125.66
1438	3.	-7.5	0.	126.16
1439	-5.0052	0.49203	0.	128.07
1440	7.0119	0.96659	0.	123.39
1441	6.0436	1.9612	0.	126.
1442	4.5	-2.001	0.	125.45
1443	2.0728	2.0174	0.	126.9
1444	3.0121	7.6671e-003	0.	126.74
1445	8.9956	8.4943	0.	125.
1446	3.4721e-003	-0.99875	0.	130.05
1447	-4.5027	-8.4626	0.	124.64
1448	-8.9929	5.5016	0.	126.93
1449	-1.019	-4.5258	0.	122.33
1450	-1.9542	4.4129	0.	123.88
1451	5.5	-5.	0.	126.13
1452	7.0024	-0.51074	0.	124.19
1453	1.933	7.9983	0.	124.22
1454	0.50159	-8.5017	0.	125.08
1455	-7.9976	4.0015	0.	129.17
1456	3.0352	1.017	0.	127.14
1457	0.3464	5.8344	0.	126.29
1458	-5.0011	1.4967	0.	129.78
1459	3.0217	0.51169	0.	126.98
1460	6.5001	-2.5012	0.	124.52
1461	-1.0336	-6.0373	0.	122.69
1462	-5.0501	-3.8785	0.	127.13
1463	2.5001	-8.5	0.	126.04
1464	-2.9991	1.487	0.	123.16
1465	2.4995	-4.5001	0.	126.88
1466	-7.9999	2.5002	0.	128.99
1467	0.49397	-6.003	0.	125.73
1468	-6.2614	-4.4971	0.	114.42
1469	-4.8156	-6.3677	0.	128.93
1470	3.0011	-1.4986	0.	125.96
1471	-4.4821	-7.4295	0.	127.36
1472	-3.4531	-7.5037	0.	125.12
1473	-8.44	-3.5263	0.	127.44
1474	0.53238	8.1707	0.	138.79
1475	1.5002	-7.5002	0.	125.76
1476	8.9664	6.6244	0.	127.18
1477	-3.4877	3.9458	0.	125.72
1478	-2.5858	-5.5612	0.	121.12
1479	-6.5064	-8.5118	0.	121.61
1480	-2.4296	-6.6519	0.	122.51
1481	3.5115	5.6168e-003	0.	126.55
1482	-5.4537	8.9967	0.	124.43
1483	3.5343	1.0149	0.	127.05
1484	-9.0002	0.49993	0.	127.53
1485	-5.3846	-5.214	0.	134.84
1486	1.9993	-6.5	0.	126.33
1487	1.999	-5.5001	0.	126.85
1488	5.5001	-2.0021	0.	124.99
1489	-2.4789	3.9188	0.	124.18
1490	7.0621	5.637	0.	125.23
1491	8.5	-9.	0.	125.83
1492	-8.9983	4.0011	0.	127.27
1493	-8.9969	4.5014	0.	127.44
1494	1.7543	6.9334	0.	125.77
1495	2.3342	6.9704	0.	124.97
1496	-3.4386	9.0224	0.	125.38
1497	0.87239	6.2294	0.	129.25
1498	-8.9913	6.501	0.	126.02
1499	-7.9772	7.0015	0.	124.63
1500	-8.5017	-0.50009	0.	126.13
1501	4.5	-4.5	0.	126.23
1502	-4.0492	-5.4545	0.	125.58
1503	3.4999	-4.	0.	126.33
1504	5.2102	5.5339	0.	126.67
1505	0.4914	-5.0053	0.	127.09
1506	4.5	-4.	0.	125.99
1507	-6.9744	5.5042	0.	121.69
1508	-2.9932	-8.5118	0.	124.74
1509	7.0192	1.4547	0.	122.94
1510	6.1646	3.4288	0.	131.93
1511	-7.5205	-5.9539	0.	125.27
1512	-5.3217	-4.748	0.	128.17
1513	3.5	-2.5	0.	125.8
1514	-3.1495	6.6475	0.	126.36
1515	2.9998	-4.	0.	126.52
1516	1.9987	-3.5004	0.	126.83
1517	-8.9948	5.0016	0.	127.32
1518	-8.0608	-7.0332	0.	128.67
1519	3.5002	-1.9998	0.	125.76
1520	2.0509	1.5156	0.	127.14
1521	-2.8339	8.0741	0.	124.4
1522	1.6615	3.4964	0.	126.01
1523	3.8637	4.591	0.	125.91
1524	-1.4927	-8.5177	0.	124.28
1525	-1.4713	9.5237	0.	124.23
1526	-8.0003	1.0001	0.	128.27
1527	4.5	-3.5001	0.	125.76
1528	-7.5897	-5.4838	0.	128.19
1529	-7.9946	4.5023	0.	129.12
1530	-7.9842	5.503	0.	126.26
1531	1.0038	-0.99771	0.	127.47
1532	-7.9631	-2.5043	0.	125.34
1533	7.5	-9.	0.	117.97
1534	2.1775	3.5134	0.	126.38
1535	2.0039	-0.99656	0.	126.56
1536	-5.7863	-4.6193	0.	117.22
1537	2.0001	-7.5	0.	125.97
1538	-5.2869e-004	-7.0056	0.	124.62
1539	0.50171	-8.0023	0.	125.06
1540	5.5058	-1.1886e-002	0.	125.31
1541	4.4833	8.9985	0.	125.54
1542	4.0189	0.50504	0.	126.63
1543	4.4078	7.0178	0.	125.96
1544	-2.4655	-7.556	0.	123.81
1545	1.0304	1.0085	0.	127.37
1546	9.0039	5.0404	0.	129.73
1547	2.0001	-9.0001	0.	125.85
1548	-8.999	3.5009	0.	127.03
1549	3.6079	2.5389	0.	127.27
1550	4.5	-6.5	0.	126.4
1551	5.9077	4.4423	0.	127.09
1552	-2.9829	3.9274	0.	124.97
1553	0.44341	6.2674	0.	128.77
1554	-3.4881	-3.9945	0.	129.45
1555	-4.5006	-2.9774	0.	127.6
1556	2.4995	-6.5	0.	126.39
1557	-3.4952	-8.4972	0.	124.99
1558	5.	-6.	0.	126.79
1559	3.5765	2.0296	0.	127.31
1560	-4.363	7.9908	0.	123.54
1561	-3.5002	-8.9971	0.	124.72
1562	-7.5137	-1.4931	0.	124.06
1563	5.447	7.4963	0.	126.22
1564	-8.4984	-1.5022	0.	125.76
1565	-6.9852	5.0034	0.	120.73
1566	3.5008	-1.4994	0.	125.84
1567	-3.3396	8.0422	0.	123.83
1568	2.5035	-0.9967	0.	126.34
1569	9.0056	0.98692	0.	124.77
1570	2.0003	-8.5001	0.	125.85
1571	2.3378	5.9659	0.	126.42
1572	6.5051	-1.7106e-002	0.	124.37
1573	2.6411	3.0313	0.	126.73
1574	3.5	-9.	0.	126.46
1575	-6.5126	-8.0318	0.	120.87
1576	-4.4786	4.969	0.	127.66
1577	0.50371	-0.99838	0.	128.38
1578	1.1478	3.4843	0.	125.41
1579	6.	-4.5	0.	125.15
1580	-7.9996	3.0005	0.	129.4
1581	-6.8648	-3.4709	0.	123.16
1582	5.0073	-7.4762e-003	0.	125.73
1583	-5.5154	-7.9214	0.	121.59
1584	8.5116	3.8373	0.	136.98
1585	-6.4688	8.9975	0.	124.44
1586	1.4988	-6.5002	0.	126.16
1587	-9.	1.5001	0.	127.86
1588	7.0469	2.421	0.	121.69
1589	9.0002	-2.0007	0.	124.52
1590	-7.9784	7.9995	0.	124.63
1591	1.001	-8.0011	0.	125.39
1592	4.5	-3.0002	0.	125.59
1593	9.024	7.0397	0.	126.15
1594	7.9129	6.5287	0.	118.81
1595	-2.8283	-6.5623	0.	122.76
1596	3.5058	-0.49691	0.	126.27
1597	4.5443	1.506	0.	127.12
1598	2.2931	4.9808	0.	126.56
1599	-8.9912	7.5001	0.	125.44
1600	-7.4813	8.9982	0.	124.62
1601	4.5	-7.5	0.	126.03
1602	0.50102	-9.0011	0.	125.12
1603	-6.5031	-9.0031	0.	122.11
1604	-4.4262	-4.9326	0.	131.58
1605	4.	-4.	0.	126.17
1606	-8.9998	2.5004	0.	127.19
1607	1.5003	-9.0002	0.	125.62
1608	-6.1165	-7.0223	0.	105.9
1609	-7.9772	6.5025	0.	124.83
1610	2.0344	1.0129	0.	127.32
1611	-4.881	7.9867	0.	123.57
1612	-0.99184	-7.2405e-004	0.	123.22
1613	-9.0079	-4.51	0.	127.28
1614	-5.9256	7.9966	0.	123.63
1615	5.	-4.0001	0.	125.75
1616	-0.9909	-7.5226	0.	123.81
1617	-7.328	-4.0041	0.	127.3
1618	-1.0311	6.1182	0.	116.93
1619	3.4845	8.9965	0.	125.47
1620	8.0003	-2.0015	0.	124.34
1621	5.5013	-1.006	0.	125.06
1622	5.0137	0.49192	0.	126.01
1623	-5.5252	-3.7559	0.	123.12
1624	-7.0089	-8.5231	0.	123.68
1625	-0.44789	8.9928	0.	118.21
1626	-9.0091	-7.5062	0.	127.72
1627	-3.5744	-5.4916	0.	123.91
1628	-7.506	-0.49894	0.	124.17
1629	9.	-7.	0.	127.32
1630	-2.2487	7.6287	0.	124.98
1631	-8.4887	5.5024	0.	126.86
1632	2.5001	-9.	0.	126.07
1633	3.0003	-1.9993	0.	125.86
1634	5.0001	-2.0016	0.	125.23
1635	9.0001	-3.0002	0.	124.54
1636	9.	-8.5	0.	128.21
1637	0.97064	8.0959	0.	126.65
1638	9.1923	6.0422	0.	128.98
1639	6.4926	8.9913	0.	124.67
1640	3.4413	7.995	0.	124.78
1641	-1.9934	2.4581	0.	122.11
1642	5.0919	2.4989	0.	128.08
1643	-2.497	-9.0114	0.	124.6
1644	6.5137	0.96883	0.	124.19
1645	-7.0046	-7.6207	0.	126.53
1646	-8.5005	0.50006	0.	127.37
1647	-7.2338	-4.4911	0.	130.41
1648	4.5281	1.0017	0.	126.73
1649	5.	-3.0004	0.	125.36
1650	3.9999	-4.5	0.	126.37
1651	3.3901	7.0041	0.	125.07
1652	-4.4978	-7.9456	0.	125.84
1653	-4.4066	8.4981	0.	123.92
1654	3.4999	-6.	0.	126.52
1655	-1.4852e-002	-5.0118	0.	126.27
1656	-8.4998	2.5003	0.	127.91
1657	5.9731	7.9841	0.	125.31
1658	2.5001	-8.	0.	126.04
1659	6.0031	-0.51095	0.	124.79
1660	-7.509	-8.5139	0.	125.65
1661	-2.9998	0.99115	0.	123.04
1662	-7.4735	8.4983	0.	124.46
1663	3.4999	-3.5	0.	126.12
1664	-8.4953	4.5019	0.	128.14
1665	-3.48	-4.4939	0.	126.97
1666	1.4979	-5.5004	0.	126.87
1667	-8.5001	1.5001	0.	128.54
1668	1.001	-8.501	0.	125.37
1669	4.0735	2.0233	0.	127.43
1670	-8.485	7.5003	0.	125.06
1671	2.4996	-2.9999	0.	126.24
1672	-8.4841	6.5017	0.	125.55
1673	-1.0297	-5.0346	0.	122.2
1674	-8.5153	-7.5116	0.	128.19
1675	4.452	8.0017	0.	125.52
1676	-7.9274	-3.0127	0.	125.97
1677	0.99568	-4.0026	0.	128.16
1678	3.5211	0.50954	0.	126.82
1679	3.5	-7.5	0.	126.16
1680	-0.50842	-6.5153	0.	123.88
1681	2.8602	6.4913	0.	125.45
1682	1.6243	3.0048	0.	126.1
1683	-1.4612	4.4426	0.	122.72
1684	8.3638	4.3812	0.	145.55
1685	8.2413	4.2112	0.	138.61
1686	8.609	4.2901	0.	146.59
1687	8.4808	4.0137	0.	152.32
1688	7.8463	5.5287	0.	113.8
1689	7.6375	5.55	0.	104.16
1690	7.798	5.9132	0.	111.84
1691	7.954	5.6447	0.	116.33
1692	7.552	5.9047	0.	115.67
1693	6.9887	4.3387	0.	137.
1694	6.9025	4.53	0.	139.95
1695	6.739	4.1181	0.	153.47
1696	6.5729	4.3682	0.	147.07
1697	-1.34	7.9433	0.	149.52
1698	-1.1667	8.1367	0.	139.73
1699	-1.6383	8.1579	0.	146.29
1700	-1.4189	8.3944	0.	148.23
1701	-1.02	6.9567	0.	121.33
1702	-0.76667	6.9033	0.	101.15
1703	-1.2355	6.7132	0.	123.46
1704	-0.67071	6.6063	0.	116.8
1705	-0.98556	6.4141	0.	116.07
1706	-0.15333	7.9233	0.	138.11
1707	-7.3333e-002	7.6767	0.	127.9
1708	0.25834	7.8077	0.	149.2
1709	0.10134	8.145	0.	155.17
1710	-6.6567	-5.6417	0.	148.94
1711	-6.51	-5.4733	0.	138.07
1712	-6.9351	-5.4375	0.	146.62
1713	-6.7306	-5.1978	0.	146.6
1714	-6.3633	-6.4883	0.	119.75
1715	-6.1433	-6.5317	0.	100.78
1716	-6.5279	-6.7245	0.	125.97
1717	-6.2032	-6.8612	0.	111.66
1718	-5.63	-5.6467	0.	136.62
1719	-5.5567	-5.8583	0.	129.83
1720	-5.2394	-5.7414	0.	148.61
1721	-5.3973	-5.452	0.	155.52
1722	7.	-7.25	0.	136.92
1723	7.25	-7.	0.	121.17
1724	7.	-6.75	0.	127.56
1725	6.75	-7.	0.	130.53
1726	7.	-7.75	0.	136.85
1727	7.25	-8.	0.	120.98
1728	7.	-8.25	0.	127.31
1729	6.75	-8.	0.	130.37
1730	7.75	-7.	0.	121.27
1731	8.	-7.25	0.	137.15
1732	8.	-6.75	0.	127.69
1733	8.25	-7.	0.	130.7
1734	7.75	-8.	0.	120.95
1735	8.	-7.75	0.	136.95
1736	8.25	-8.	0.	130.5
1737	8.	-8.25	0.	127.21
1738	-3.	-1.25	0.	138.9
1739	-2.75	-1.	0.	123.62
1740	-3.2522	-1.0011	0.	132.77
1741	-3.0011	-0.75111	0.	129.96
1742	-3.	-2.75	0.	139.31
1743	-2.75	-3.	0.	123.99
1744	-2.9975	-3.2507	0.	130.37
1745	-3.2501	-2.9978	0.	133.33
1746	-1.25	-1.	0.	123.6
1747	-1.	-1.25	0.	138.95
1748	-0.99781	-0.7501	0.	130.03
1749	-0.74881	-0.99966	0.	132.87
1750	-1.25	-3.	0.	123.61
1751	-1.	-2.75	0.	138.94
1752	-1.0023	-3.2543	0.	129.84
1753	-0.75107	-3.0021	0.	132.88
1754	-7.	3.75	0.	136.01
1755	-6.75	4.	0.	119.06
1756	-7.2491	4.0006	0.	130.52
1757	-6.9968	4.251	0.	126.65
1758	-7.	2.25	0.	136.1
1759	-6.75	2.	0.	119.33
1760	-7.0001	1.7499	0.	126.87
1761	-7.25	2.	0.	130.71
1762	-6.25	4.	0.	118.82
1763	-6.	3.75	0.	135.66
1764	-5.996	4.2502	0.	126.37
1765	-5.7481	3.9988	0.	130.15
1766	-6.25	2.	0.	119.59
1767	-6.	2.25	0.	136.41
1768	-6.0002	1.7495	0.	127.39
1769	-5.7501	1.9994	0.	130.98
1770	9.75	10.	0.	124.97
1771	10.	9.75	0.	125.02
1772	-9.75	10.	0.	125.
1773	-10.	9.75	0.	124.99
1774	10.	-9.75	0.	128.86
1775	9.75	-10.	0.	128.18
1776	-10.	-9.75	0.	129.5
1777	-9.75	-10.	0.	129.01
1778	8.1912	4.7638	0.	126.3
1779	8.452	4.677	0.	132.33
1780	8.0188	5.1462	0.	122.74
1781	8.3044	5.1012	0.	127.33
1782	8.0402	5.4534	0.	118.89
1783	7.8238	4.2537	0.	113.99
1784	8.0381	4.0182	0.	109.64
1785	7.4062	4.2962	0.	110.47
1786	7.6028	4.0459	0.	115.66
1787	7.1709	4.0808	0.	108.22
1788	7.3925	5.21	0.	106.33
1789	7.2885	5.5085	0.	111.53
1790	7.1475	4.87	0.	112.43
1791	7.0343	5.1307	0.	120.96
1792	6.7935	4.7546	0.	125.14
1793	-1.18	7.45	0.	132.76
1794	-1.5043	7.6759	0.	135.78
1795	-1.3638	7.1932	0.	128.6
1796	-0.66	8.03	0.	107.81
1797	-0.91712	8.3164	0.	110.01
1798	-0.41482	8.2295	0.	107.29
1799	-0.42	7.29	0.	86.981
1800	-0.34618	7.0049	0.	106.7
1801	-2.8872e-002	7.4024	0.	112.01
1802	-6.51	-6.065	0.	130.03
1803	-6.8143	-5.8761	0.	134.62
1804	-6.6776	-6.3055	0.	125.7
1805	-6.07	-5.56	0.	103.74
1806	-6.283	-5.2671	0.	106.95
1807	-5.8381	-5.357	0.	104.
1808	-5.85	-6.195	0.	86.601
1809	-5.7901	-6.5692	0.	106.13
1810	-5.4981	-6.1433	0.	112.17
1811	6.75	-7.5	0.	135.36
1812	7.5	-6.75	0.	111.15
1813	7.5	-8.25	0.	110.81
1814	8.25	-7.5	0.	135.6
1815	-3.	-1.75	0.	144.12
1816	-3.2518	-1.5002	0.	138.48
1817	-3.	-2.25	0.	144.25
1818	-3.2516	-1.9993	0.	139.92
1819	-3.2515	-2.4984	0.	138.79
1820	-2.25	-1.	0.	115.55
1821	-2.5001	-0.7509	0.	113.55
1822	-1.75	-1.	0.	115.47
1823	-1.9992	-0.75075	0.	115.68
1824	-1.4985	-0.75057	0.	113.43
1825	-2.25	-3.	0.	115.75
1826	-2.4988	-3.2529	0.	113.8
1827	-1.75	-3.	0.	115.58
1828	-2.0001	-3.2541	0.	115.77
1829	-1.5014	-3.2545	0.	113.5
1830	-1.	-1.75	0.	144.04
1831	-0.74953	-1.4999	0.	138.62
1832	-1.	-2.25	0.	144.05
1833	-0.74991	-2.0003	0.	139.98
1834	-0.75026	-2.5008	0.	138.64
1835	-7.	3.25	0.	140.95
1836	-7.2497	3.5003	0.	136.63
1837	-7.	2.75	0.	141.02
1838	-7.2499	3.0001	0.	137.73
1839	-7.25	2.5001	0.	136.71
1840	-6.4964	4.2508	0.	108.34
1841	-6.5002	1.7498	0.	108.87
1842	-6.	3.25	0.	140.8
1843	-5.7491	3.4992	0.	136.28
1844	-6.	2.75	0.	141.01
1845	-5.7496	2.9995	0.	137.51
1846	-5.7499	2.4995	0.	136.71
1847	9.25	10.	0.	124.86
1848	9.4995	9.7494	0.	125.02
1849	8.75	10.	0.	124.63
1850	8.9991	9.7489	0.	124.79
1851	8.25	10.	0.	124.4
1852	8.4988	9.7482	0.	124.54
1853	7.75	10.	0.	124.27
1854	7.9985	9.7477	0.	124.37
1855	7.25	10.	0.	124.3
1856	7.4985	9.7473	0.	124.32
1857	6.75	10.	0.	124.48
1858	6.9985	9.7478	0.	124.43
1859	6.25	10.	0.	124.77
1860	6.4985	9.7483	0.	124.67
1861	5.75	10.	0.	125.12
1862	5.9983	9.7488	0.	124.97
1863	5.25	10.	0.	125.48
1864	5.4978	9.7491	0.	125.29
1865	4.75	10.	0.	125.83
1866	4.9973	9.7494	0.	125.59
1867	4.25	10.	0.	126.17
1868	4.4971	9.7496	0.	125.87
1869	3.75	10.	0.	126.51
1870	3.997	9.7494	0.	126.13
1871	3.25	10.	0.	126.9
1872	3.4971	9.7491	0.	126.38
1873	2.75	10.	0.	127.34
1874	2.9976	9.7491	0.	126.68
1875	2.25	10.	0.	127.81
1876	2.4986	9.7498	0.	127.02
1877	1.75	10.	0.	128.13
1878	2.	9.7517	0.	127.41
1879	1.25	10.	0.	127.87
1880	1.5019	9.7547	0.	127.71
1881	0.75	10.	0.	126.45
1882	1.0037	9.757	0.	127.51
1883	0.25	10.	0.	123.84
1884	0.50585	9.7545	0.	126.06
1885	-0.25	10.	0.	121.22
1886	9.0876e-003	9.748	0.	123.33
1887	-0.75	10.	0.	120.18
1888	-0.48774	9.7495	0.	120.64
1889	-1.25	10.	0.	121.33
1890	-0.9861	9.7564	0.	120.57
1891	-1.75	10.	0.	124.
1892	-1.4857	9.7619	0.	123.29
1893	-2.25	10.	0.	126.48
1894	-1.9859	9.763	0.	126.21
1895	-2.75	10.	0.	127.54
1896	-2.486	9.7615	0.	127.36
1897	-3.25	10.	0.	127.39
1898	-2.9861	9.7587	0.	127.18
1899	-3.75	10.	0.	126.77
1900	-3.4863	9.7558	0.	126.6
1901	-4.25	10.	0.	126.11
1902	-3.9866	9.7528	0.	126.02
1903	-4.75	10.	0.	125.57
1904	-4.487	9.7505	0.	125.55
1905	-5.25	10.	0.	125.16
1906	-4.9875	9.7491	0.	125.18
1907	-5.75	10.	0.	124.89
1908	-5.4888	9.749	0.	124.92
1909	-6.25	10.	0.	124.72
1910	-5.9896	9.7489	0.	124.75
1911	-6.75	10.	0.	124.66
1912	-6.4923	9.7491	0.	124.67
1913	-7.25	10.	0.	124.67
1914	-6.9941	9.7493	0.	124.66
1915	-7.75	10.	0.	124.73
1916	-7.4952	9.7494	0.	124.7
1917	-8.25	10.	0.	124.82
1918	-7.9966	9.7496	0.	124.78
1919	-8.75	10.	0.	124.92
1920	-8.4974	9.7497	0.	124.88
1921	-9.25	10.	0.	124.98
1922	-8.9984	9.7497	0.	124.96
1923	-9.4993	9.7498	0.	125.01
1924	10.	9.25	0.	125.28
1925	9.7495	9.4994	0.	125.06
1926	10.	8.75	0.	125.88
1927	9.7491	8.9989	0.	125.44
1928	10.	8.25	0.	126.78
1929	9.7489	8.4989	0.	126.02
1930	10.	7.75	0.	127.9
1931	9.7492	7.9994	0.	126.79
1932	10.	7.25	0.	129.05
1933	9.7506	7.5011	0.	127.71
1934	10.	6.75	0.	129.73
1935	9.7503	6.9998	0.	128.62
1936	10.	6.25	0.	129.26
1937	9.7287	6.4847	0.	129.08
1938	10.	5.75	0.	127.07
1939	9.7897	5.991	0.	128.51
1940	10.	5.25	0.	123.67
1941	9.7718	5.5044	0.	126.56
1942	10.	4.75	0.	121.48
1943	9.7589	5.0069	0.	124.24
1944	10.	4.25	0.	123.03
1945	9.7654	4.5032	0.	123.5
1946	10.	3.75	0.	127.29
1947	9.7542	3.998	0.	126.58
1948	10.	3.25	0.	130.55
1949	9.7529	3.4948	0.	130.
1950	10.	2.75	0.	131.12
1951	9.754	2.9929	0.	130.54
1952	10.	2.25	0.	129.96
1953	9.7537	2.4932	0.	129.5
1954	10.	1.75	0.	128.4
1955	9.753	1.9943	0.	128.19
1956	10.	1.25	0.	127.07
1957	9.7522	1.4957	0.	127.04
1958	10.	0.75	0.	126.09
1959	9.7514	0.99688	0.	126.15
1960	10.	0.25	0.	125.4
1961	9.7509	0.49802	0.	125.51
1962	10.	-0.25	0.	124.94
1963	9.7506	-1.3172e-003	0.	125.07
1964	10.	-0.75	0.	124.65
1965	9.7503	-0.50083	0.	124.77
1966	10.	-1.25	0.	124.48
1967	9.7502	-1.0005	0.	124.58
1968	10.	-1.75	0.	124.41
1969	9.7501	-1.5003	0.	124.49
1970	10.	-2.25	0.	124.43
1971	9.7501	-2.0002	0.	124.46
1972	10.	-2.75	0.	124.54
1973	9.75	-2.5001	0.	124.52
1974	10.	-3.25	0.	124.76
1975	9.75	-3.	0.	124.64
1976	10.	-3.75	0.	125.09
1977	9.75	-3.5	0.	124.86
1978	10.	-4.25	0.	125.56
1979	9.75	-4.	0.	125.18
1980	10.	-4.75	0.	126.14
1981	9.75	-4.5	0.	125.61
1982	10.	-5.25	0.	126.68
1983	9.75	-5.	0.	126.12
1984	10.	-5.75	0.	126.91
1985	9.75	-5.5	0.	126.6
1986	10.	-6.25	0.	126.48
1987	9.75	-6.	0.	126.79
1988	10.	-6.75	0.	125.42
1989	9.75	-6.5	0.	126.36
1990	10.	-7.25	0.	124.51
1991	9.75	-7.	0.	125.46
1992	10.	-7.75	0.	124.71
1993	9.75	-7.5	0.	125.09
1994	10.	-8.25	0.	126.02
1995	9.75	-8.	0.	125.8
1996	10.	-8.75	0.	127.53
1997	9.75	-8.5	0.	127.04
1998	10.	-9.25	0.	128.5
1999	9.75	-9.	0.	127.86
2000	9.75	-9.5	0.	128.14
2001	-10.	9.25	0.	125.03
2002	-9.7493	9.4998	0.	125.01
2003	-10.	8.75	0.	125.17
2004	-9.7485	8.9998	0.	125.1
2005	-10.	8.25	0.	125.41
2006	-9.7482	8.4998	0.	125.27
2007	-10.	7.75	0.	125.73
2008	-9.748	7.9999	0.	125.51
2009	-10.	7.25	0.	126.13
2010	-9.748	7.5	0.	125.83
2011	-10.	6.75	0.	126.57
2012	-9.748	7.0001	0.	126.19
2013	-10.	6.25	0.	126.98
2014	-9.748	6.5002	0.	126.58
2015	-10.	5.75	0.	127.25
2016	-9.7481	6.0003	0.	126.93
2017	-10.	5.25	0.	127.27
2018	-9.7484	5.5004	0.	127.14
2019	-10.	4.75	0.	126.96
2020	-9.7488	5.0004	0.	127.12
2021	-10.	4.25	0.	126.4
2022	-9.7492	4.5004	0.	126.83
2023	-10.	3.75	0.	125.79
2024	-9.7495	4.0003	0.	126.38
2025	-10.	3.25	0.	125.44
2026	-9.7498	3.5002	0.	126.
2027	-10.	2.75	0.	125.54
2028	-9.7499	3.0002	0.	125.9
2029	-10.	2.25	0.	126.08
2030	-9.75	2.5001	0.	126.18
2031	-10.	1.75	0.	126.85
2032	-9.75	2.	0.	126.73
2033	-10.	1.25	0.	127.57
2034	-9.75	1.5	0.	127.33
2035	-10.	0.75	0.	128.
2036	-9.75	0.99999	0.	127.75
2037	-10.	0.25	0.	128.11
2038	-9.75	0.49996	0.	127.9
2039	-10.	-0.25	0.	127.99
2040	-9.7501	-1.2485e-004	0.	127.82
2041	-10.	-0.75	0.	127.78
2042	-9.7501	-0.50031	0.	127.63
2043	-10.	-1.25	0.	127.6
2044	-9.7498	-1.0006	0.	127.43
2045	-10.	-1.75	0.	127.5
2046	-9.749	-1.5011	0.	127.31
2047	-10.	-2.25	0.	127.5
2048	-9.7473	-2.0017	0.	127.27
2049	-10.	-2.75	0.	127.51
2050	-9.745	-2.5022	0.	127.3
2051	-10.	-3.25	0.	127.43
2052	-9.7431	-3.0025	0.	127.33
2053	-10.	-3.75	0.	127.12
2054	-9.7434	-3.502	0.	127.24
2055	-10.	-4.25	0.	126.51
2056	-9.7464	-4.0014	0.	126.94
2057	-10.	-4.75	0.	125.68
2058	-9.7514	-4.5015	0.	126.37
2059	-10.	-5.25	0.	124.9
2060	-9.7543	-5.0024	0.	125.67
2061	-10.	-5.75	0.	124.55
2062	-9.7542	-5.5027	0.	125.15
2063	-10.	-6.25	0.	124.84
2064	-9.7524	-6.0026	0.	125.12
2065	-10.	-6.75	0.	125.71
2066	-9.7513	-6.5016	0.	125.64
2067	-10.	-7.25	0.	126.85
2068	-9.7519	-7.0013	0.	126.52
2069	-10.	-7.75	0.	127.91
2070	-9.7521	-7.5013	0.	127.43
2071	-10.	-8.25	0.	128.69
2072	-9.7516	-8.0013	0.	128.16
2073	-10.	-8.75	0.	129.17
2074	-9.7512	-8.501	0.	128.62
2075	-10.	-9.25	0.	129.41
2076	-9.7507	-9.0005	0.	128.87
2077	-9.7503	-9.5002	0.	128.98
2078	-9.25	-10.	0.	128.04
2079	-9.5003	-9.7502	0.	128.48
2080	-8.75	-10.	0.	127.14
2081	-9.0007	-9.7505	0.	127.61
2082	-8.25	-10.	0.	126.18
2083	-8.501	-9.7509	0.	126.73
2084	-7.75	-10.	0.	125.08
2085	-8.0012	-9.7515	0.	125.73
2086	-7.25	-10.	0.	123.92
2087	-7.5013	-9.7521	0.	124.55
2088	-6.75	-10.	0.	122.88
2089	-7.0011	-9.7522	0.	123.35
2090	-6.25	-10.	0.	122.23
2091	-6.5006	-9.7505	0.	122.39
2092	-5.75	-10.	0.	122.12
2093	-6.0003	-9.7472	0.	121.98
2094	-5.25	-10.	0.	122.51
2095	-5.5004	-9.7445	0.	122.19
2096	-4.75	-10.	0.	123.15
2097	-5.0009	-9.7436	0.	122.82
2098	-4.25	-10.	0.	123.8
2099	-4.5011	-9.7446	0.	123.55
2100	-3.75	-10.	0.	124.27
2101	-4.001	-9.7467	0.	124.14
2102	-3.25	-10.	0.	124.53
2103	-3.5007	-9.7491	0.	124.48
2104	-2.75	-10.	0.	124.62
2105	-3.0002	-9.7512	0.	124.62
2106	-2.25	-10.	0.	124.63
2107	-2.4997	-9.7524	0.	124.63
2108	-1.75	-10.	0.	124.62
2109	-1.9993	-9.7529	0.	124.6
2110	-1.25	-10.	0.	124.64
2111	-1.4992	-9.7523	0.	124.6
2112	-0.75	-10.	0.	124.72
2113	-0.9993	-9.7516	0.	124.65
2114	-0.25	-10.	0.	124.86
2115	-0.49946	-9.751	0.	124.76
2116	0.25	-10.	0.	125.05
2117	3.6782e-004	-9.7505	0.	124.93
2118	0.75	-10.	0.	125.27
2119	0.50022	-9.7502	0.	125.15
2120	1.25	-10.	0.	125.51
2121	1.0001	-9.7501	0.	125.38
2122	1.75	-10.	0.	125.75
2123	1.5001	-9.75	0.	125.63
2124	2.25	-10.	0.	125.99
2125	2.	-9.75	0.	125.87
2126	2.75	-10.	0.	126.24
2127	2.5	-9.75	0.	126.11
2128	3.25	-10.	0.	126.49
2129	3.	-9.75	0.	126.35
2130	3.75	-10.	0.	126.74
2131	3.5	-9.75	0.	126.59
2132	4.25	-10.	0.	126.99
2133	4.	-9.75	0.	126.84
2134	4.75	-10.	0.	127.17
2135	4.5	-9.75	0.	127.08
2136	5.25	-10.	0.	127.13
2137	5.	-9.75	0.	127.23
2138	5.75	-10.	0.	126.55
2139	5.5	-9.75	0.	127.09
2140	6.25	-10.	0.	125.09
2141	6.	-9.75	0.	126.25
2142	6.75	-10.	0.	122.92
2143	6.5	-9.75	0.	124.27
2144	7.25	-10.	0.	121.15
2145	7.	-9.75	0.	121.66
2146	7.75	-10.	0.	121.07
2147	7.5	-9.75	0.	120.31
2148	8.25	-10.	0.	122.71
2149	8.	-9.75	0.	121.5
2150	8.75	-10.	0.	124.9
2151	8.5	-9.75	0.	124.04
2152	9.25	-10.	0.	126.68
2153	9.	-9.75	0.	126.12
2154	9.5	-9.75	0.	127.45
2155	4.0002	-1.7504	0.	125.65
2156	4.	-2.2503	0.	125.64
2157	4.25	-2.0007	0.	125.54
2158	3.7501	-2.0001	0.	125.69
2159	3.3024	1.5229	0.	127.22
2160	3.0648	1.7773	0.	127.2
2161	2.8027	1.5222	0.	127.2
2162	3.044	1.2704	0.	127.18
2163	2.5887	2.2776	0.	126.99
2164	2.8257	2.0282	0.	127.13
2165	2.5636	1.7732	0.	127.13
2166	2.3237	2.0216	0.	126.99
2167	4.2504	-1.501	0.	125.59
2168	4.001	-1.2504	0.	125.76
2169	3.7506	-1.4999	0.	125.76
2170	4.0072	-0.24885	0.	126.2
2171	4.2592	-3.1929e-004	0.	126.2
2172	3.7606	3.764e-003	0.	126.44
2173	4.0144	0.25348	0.	126.48
2174	2.8546	2.5337	0.	127.
2175	2.3511	2.5236	0.	126.79
2176	2.622	2.7804	0.	126.82
2177	0.84603	2.9942	0.	125.14
2178	1.0915	2.7484	0.	125.66
2179	1.1269	3.239	0.	125.47
2180	1.3651	2.9992	0.	125.81
2181	3.8004	1.5189	0.	127.22
2182	3.5431	1.2684	0.	127.14
2183	3.5642	1.7758	0.	127.27
2184	3.0915	2.2844	0.	127.14
2185	3.3266	2.0302	0.	127.25
2186	2.5437	1.2682	0.	127.21
2187	2.3017	1.5181	0.	127.16
2188	1.333	2.5054	0.	126.06
2189	1.5773	2.2592	0.	126.48
2190	1.8441	2.5128	0.	126.5
2191	1.6066	2.7563	0.	126.21
2192	4.75	-2.5006	0.	125.37
2193	4.25	-2.5003	0.	125.57
2194	4.5	-2.2507	0.	125.46
2195	4.5	-2.7503	0.	125.54
2196	4.5008	-1.252	0.	125.56
2197	4.7503	-1.5021	0.	125.38
2198	4.5002	-1.7513	0.	125.47
2199	4.5024	-0.75264	0.	125.72
2200	4.2541	-0.50127	0.	125.94
2201	4.7534	-0.50453	0.	125.66
2202	4.5061	-0.25274	0.	125.94
2203	4.2515	-1.0014	0.	125.73
2204	4.7513	-1.0033	0.	125.49
2205	4.0032	-0.74998	0.	125.95
2206	3.7519	-0.99948	0.	125.93
2207	3.7552	-0.49826	0.	126.16
2208	4.	-3.2501	0.	125.87
2209	4.25	-3.5001	0.	125.86
2210	4.	-3.75	0.	126.06
2211	3.7499	-3.5	0.	126.04
2212	3.75	-3.	0.	125.85
2213	4.	-2.7502	0.	125.72
2214	4.25	-3.0002	0.	125.68
2215	0.39031	3.4971	0.	124.17
2216	9.9551e-002	3.2652	0.	123.8
2217	0.183	3.7506	0.	123.71
2218	-8.7329e-002	3.5603	0.	123.34
2219	0.61242	3.2397	0.	124.68
2220	0.32166	3.0078	0.	124.31
2221	0.57304	2.7501	0.	124.92
2222	2.9999	-4.75	0.	126.69
2223	3.2499	-4.5	0.	126.58
2224	2.7497	-4.5	0.	126.77
2225	2.9998	-4.25	0.	126.59
2226	0.66107	3.732	0.	124.62
2227	0.89325	3.4844	0.	125.01
2228	1.9606	3.994	0.	126.22
2229	1.4428	3.9769	0.	125.79
2230	1.7183	4.226	0.	126.2
2231	1.6809	3.7399	0.	126.05
2232	3.1255	2.7916	0.	126.99
2233	3.3571	2.5385	0.	127.18
2234	2.528	0.76369	0.	127.19
2235	2.785	1.0164	0.	127.18
2236	2.2846	1.0144	0.	127.27
2237	0.81855	2.5043	0.	125.44
2238	1.0669	2.2554	0.	126.01
2239	1.3113	2.0091	0.	126.43
2240	1.5563	1.761	0.	126.83
2241	1.8193	2.014	0.	126.77
2242	5.25	-3.5001	0.	125.36
2243	4.75	-3.5001	0.	125.64
2244	5.	-3.7501	0.	125.63
2245	5.	-3.2502	0.	125.44
2246	5.25	-2.5008	0.	125.14
2247	5.	-2.2512	0.	125.25
2248	5.	-2.7506	0.	125.31
2249	5.2503	-1.5031	0.	125.14
2250	5.0008	-1.2535	0.	125.31
2251	5.0002	-1.7522	0.	125.25
2252	5.2529	-0.50749	0.	125.34
2253	5.0022	-0.75523	0.	125.43
2254	5.0052	-0.25681	0.	125.62
2255	3.2499	-5.	0.	126.66
2256	3.75	-5.	0.	126.56
2257	3.4999	-5.25	0.	126.6
2258	3.4999	-4.75	0.	126.55
2259	2.9998	-5.25	0.	126.7
2260	2.7497	-5.	0.	126.8
2261	2.2396	4.2482	0.	126.4
2262	2.5238	4.5081	0.	126.39
2263	1.9973	4.4803	0.	126.38
2264	2.2756	4.7363	0.	126.5
2265	2.4817	4.0172	0.	126.4
2266	2.1992	3.759	0.	126.37
2267	3.2524	-0.99803	0.	126.09
2268	3.5015	-1.249	0.	125.93
2269	3.504	-0.74775	0.	126.14
2270	3.2499	-2.9999	0.	126.
2271	3.5	-2.75	0.	125.86
2272	3.4999	-3.25	0.	126.03
2273	-1.7433	2.9419	0.	122.45
2274	-2.2415	2.9446	0.	122.79
2275	-1.9884	3.1852	0.	122.73
2276	-1.9922	2.6997	0.	122.32
2277	2.8269	5.2583	0.	126.22
2278	2.8061	4.769	0.	126.3
2279	3.0973	5.0365	0.	126.12
2280	2.558	4.9972	0.	126.41
2281	2.7139	3.781	0.	126.49
2282	2.9406	3.5414	0.	126.6
2283	2.4314	3.5228	0.	126.47
2284	2.6632	3.2817	0.	126.64
2285	-0.22643	3.0548	0.	123.43
2286	4.7123e-002	2.7688	0.	124.04
2287	-1.2547	2.9478	0.	122.46
2288	-1.4926	3.1865	0.	122.45
2289	-1.4939	2.7016	0.	122.24
2290	3.	-2.7498	0.	125.99
2291	2.75	-2.4997	0.	125.97
2292	3.25	-2.4999	0.	125.85
2293	3.0002	-2.2495	0.	125.89
2294	-0.74313	3.261	0.	122.74
2295	-0.99494	3.1931	0.	122.53
2296	-0.83322	3.6251	0.	122.47
2297	-1.2328	3.4318	0.	122.52
2298	-1.0222	3.6867	0.	122.42
2299	3.1703	3.2979	0.	126.77
2300	3.3965	3.0473	0.	126.98
2301	2.8929	3.0382	0.	126.81
2302	2.5166	0.25979	0.	127.06
2303	2.2711	0.51073	0.	127.27
2304	2.7715	0.51162	0.	127.07
2305	0.2985	2.5111	0.	124.65
2306	0.55247	2.2567	0.	125.34
2307	2.5008	-1.7487	0.	126.01
2308	2.5002	-2.2494	0.	125.99
2309	2.2504	-1.9991	0.	126.
2310	2.7504	-1.9993	0.	125.91
2311	3.5715	5.5715	0.	125.84
2312	4.0209	5.5998	0.	125.83
2313	3.822	5.8284	0.	125.78
2314	3.8794	5.3712	0.	125.77
2315	0.80086	2.0078	0.	125.9
2316	1.0495	1.7583	0.	126.5
2317	1.9991	-4.7502	0.	127.11
2318	1.7485	-5.0003	0.	127.15
2319	2.2493	-5.0001	0.	126.97
2320	1.999	-5.2501	0.	126.96
2321	4.25	-5.	0.	126.49
2322	4.	-5.25	0.	126.55
2323	4.	-4.75	0.	126.44
2324	-2.4892	3.1907	0.	123.3
2325	-2.7431	2.9536	0.	123.41
2326	-2.4935	2.7053	0.	122.82
2327	5.5	-3.2503	0.	125.14
2328	5.5	-3.7501	0.	125.31
2329	5.75	-3.5002	0.	125.02
2330	1.5396	1.2607	0.	127.2
2331	1.2945	1.5102	0.	126.89
2332	1.7988	1.5135	0.	127.08
2333	3.0844	5.5229	0.	126.03
2334	2.5737	5.4858	0.	126.39
2335	2.8362	5.7499	0.	126.04
2336	3.3548	5.301	0.	125.92
2337	3.3399	5.7856	0.	125.79
2338	5.5	-2.7507	0.	125.05
2339	5.75	-2.5009	0.	124.88
2340	5.5001	-2.2515	0.	125.
2341	5.75	-3.0004	0.	124.93
2342	5.25	-3.0004	0.	125.22
2343	5.7505	-1.5039	0.	124.88
2344	5.5003	-1.7528	0.	125.
2345	5.5008	-1.2548	0.	125.04
2346	5.5043	-0.26037	0.	125.23
2347	5.502	-0.75743	0.	125.11
2348	5.7529	-0.5099	0.	124.97
2349	2.7497	-5.5	0.	126.72
2350	2.4995	-5.75	0.	126.68
2351	2.4996	-5.25	0.	126.82
2352	2.2493	-5.5001	0.	126.81
2353	3.2498	-5.5	0.	126.64
2354	3.7499	-5.5	0.	126.59
2355	3.4999	-5.75	0.	126.56
2356	2.9998	-5.75	0.	126.61
2357	2.7659	4.277	0.	126.38
2358	3.0579	4.5426	0.	126.23
2359	3.0017	4.0426	0.	126.4
2360	3.0044	-0.7464	0.	126.32
2361	3.0019	-1.248	0.	126.07
2362	2.7531	-0.99708	0.	126.26
2363	-0.76191	3.021	0.	122.77
2364	-0.49525	2.8077	0.	123.15
2365	-0.41332	3.35	0.	122.97
2366	-1.0007	2.7179	0.	122.56
2367	2.9999	-3.2499	0.	126.19
2368	2.7498	-3.5	0.	126.41
2369	2.9998	-3.75	0.	126.41
2370	3.2499	-3.5	0.	126.21
2371	2.7498	-2.9999	0.	126.16
2372	-0.62122	4.0582	0.	122.28
2373	-0.87927	3.8787	0.	122.39
2374	-0.50341	3.7141	0.	122.7
2375	-1.7377	3.4298	0.	122.73
2376	-2.2362	3.4313	0.	123.24
2377	-1.984	3.6763	0.	123.15
2378	-1.4945	3.6817	0.	122.61
2379	0.45376	3.9855	0.	124.16
2380	2.8073e-002	4.0469	0.	123.26
2381	0.17264	4.2544	0.	123.49
2382	0.68605	4.2213	0.	124.72
2383	0.93441	3.975	0.	125.06
2384	5.2841	1.4868	0.	126.6
2385	5.0482	1.7448	0.	127.16
2386	5.0302	1.2427	0.	126.63
2387	4.7907	1.4997	0.	127.
2388	5.5143	0.73347	0.	125.69
2389	5.5246	1.2311	0.	126.09
2390	5.7667	0.97813	0.	125.47
2391	5.2707	0.98701	0.	126.12
2392	5.7595	0.48236	0.	125.22
2393	5.5081	0.23651	0.	125.42
2394	5.2621	0.48841	0.	125.77
2395	3.6627	5.1008	0.	125.86
2396	3.3491	4.8101	0.	126.05
2397	3.2284	3.803	0.	126.51
2398	3.4503	3.5549	0.	126.68
2399	2.2514	-1.4981	0.	126.14
2400	2.7511	-1.4984	0.	126.01
2401	2.5023	-1.2475	0.	126.2
2402	2.5093	-0.24335	0.	126.82
2403	2.2621	7.6739e-003	0.	127.11
2404	2.7621	7.846e-003	0.	126.86
2405	-0.22169	2.5216	0.	123.76
2406	3.4709e-002	2.2633	0.	124.45
2407	-1.24	2.4717	0.	122.34
2408	-1.4902	2.2187	0.	121.93
2409	-1.7428	2.4594	0.	122.11
2410	2.4997	-3.75	0.	126.64
2411	2.2493	-4.0002	0.	126.92
2412	2.4996	-4.2501	0.	126.82
2413	2.7497	-4.	0.	126.64
2414	2.2501	-2.4996	0.	126.09
2415	2.4998	-2.7498	0.	126.13
2416	-2.738	3.4391	0.	123.92
2417	-2.4827	3.6761	0.	123.87
2418	2.0579	5.4585	0.	126.85
2419	2.3271	5.7172	0.	126.52
2420	2.3048	5.2247	0.	126.58
2421	0.95164	4.4575	0.	125.31
2422	1.2351	4.6951	0.	126.12
2423	1.2	4.2112	0.	125.65
2424	1.4755	4.4603	0.	126.07
2425	4.0952	5.3708	0.	125.8
2426	4.4645	5.5757	0.	125.98
2427	4.2774	5.8289	0.	125.96
2428	3.6765	3.3044	0.	126.9
2429	3.8985	3.0462	0.	127.21
2430	3.6281	2.7942	0.	127.17
2431	2.0166	0.25862	0.	127.32
2432	1.7706	0.50894	0.	127.51
2433	2.0277	0.76143	0.	127.35
2434	0.28868	2.0089	0.	125.14
2435	0.54016	1.7581	0.	125.92
2436	1.999	-4.2503	0.	127.13
2437	1.7481	-4.5007	0.	127.34
2438	2.2493	-4.5001	0.	127.02
2439	2.0011	-1.7485	0.	126.13
2440	2.0003	-2.2493	0.	126.11
2441	1.7506	-1.999	0.	126.14
2442	1.7851	5.2005	0.	126.89
2443	1.5132	4.9455	0.	126.56
2444	1.7536	4.7107	0.	126.51
2445	2.0319	4.9667	0.	126.63
2446	4.5	-5.25	0.	126.53
2447	4.75	-5.	0.	126.41
2448	4.5	-4.75	0.	126.34
2449	4.25	-5.5	0.	126.59
2450	4.	-5.75	0.	126.55
2451	-1.7411	1.9742	0.	121.66
2452	-1.9936	1.7268	0.	121.18
2453	-2.2453	1.9734	0.	121.86
2454	-1.9937	2.2149	0.	121.84
2455	-2.9918	3.202	0.	124.03
2456	-3.2451	2.9663	0.	124.21
2457	-2.9955	2.7151	0.	123.63
2458	4.1266	2.7881	0.	127.43
2459	4.3522	2.526	0.	127.65
2460	3.8562	2.5361	0.	127.38
2461	4.089	2.2783	0.	127.46
2462	4.813	2.0041	0.	127.48
2463	4.5833	2.2654	0.	127.66
2464	4.5555	1.759	0.	127.32
2465	4.3201	2.0177	0.	127.47
2466	5.	-4.75	0.	126.2
2467	5.25	-4.5	0.	125.87
2468	4.75	-4.5	0.	126.13
2469	5.	-4.25	0.	125.89
2470	5.5	-4.25	0.	125.55
2471	5.75	-4.0001	0.	125.17
2472	5.25	-4.0001	0.	125.57
2473	1.5264	0.75906	0.	127.52
2474	1.2815	1.0093	0.	127.38
2475	1.7835	1.0116	0.	127.35
2476	0.78876	1.5085	0.	126.51
2477	1.0363	1.2588	0.	127.07
2478	0.99666	-5.7509	0.	126.48
2479	0.9959	-5.2514	0.	127.02
2480	0.7444	-5.5024	0.	126.52
2481	1.2471	-5.5007	0.	126.8
2482	1.2467	-5.0012	0.	127.28
2483	1.4976	-4.7508	0.	127.37
2484	1.4979	-5.2505	0.	127.05
2485	3.5904	6.0425	0.	125.73
2486	4.0784	6.0575	0.	125.91
2487	3.8556	6.2941	0.	125.71
2488	6.	-3.2503	0.	124.81
2489	6.	-3.7501	0.	124.89
2490	6.25	-3.5002	0.	124.64
2491	5.7783	1.4742	0.	125.87
2492	5.5409	1.7293	0.	126.68
2493	-2.4959	2.2188	0.	122.37
2494	-2.746	2.4667	0.	123.04
2495	-2.2443	2.4604	0.	122.36
2496	-0.36007	4.2007	0.	122.47
2497	-2.3425e-002	4.3098	0.	123.05
2498	-0.24226	3.8566	0.	122.89
2499	3.3563	6.2708	0.	125.56
2500	3.0917	6.0125	0.	125.81
2501	6.	-2.7507	0.	124.77
2502	6.0002	-2.2518	0.	124.75
2503	6.2501	-2.5011	0.	124.63
2504	6.25	-3.0005	0.	124.63
2505	6.0004	-1.7535	0.	124.75
2506	6.0009	-1.2557	0.	124.76
2507	6.2506	-1.5041	0.	124.64
2508	6.2503	-2.0024	0.	124.64
2509	5.7502	-2.0024	0.	124.87
2510	6.2513	-1.0073	0.	124.63
2511	5.7513	-1.0066	0.	124.91
2512	6.0022	-0.75903	0.	124.78
2513	0.99758	-6.2507	0.	126.05
2514	1.2476	-6.0005	0.	126.36
2515	0.74549	-6.0018	0.	125.98
2516	2.2493	-6.	0.	126.59
2517	2.7496	-6.	0.	126.57
2518	2.4995	-6.25	0.	126.49
2519	1.7487	-6.0001	0.	126.54
2520	1.9992	-6.25	0.	126.45
2521	1.999	-5.7501	0.	126.72
2522	2.9998	-6.25	0.	126.47
2523	3.2498	-6.	0.	126.53
2524	-5.9522	-2.1063	0.	122.75
2525	-5.642	-2.1879	0.	123.1
2526	-6.1059	-2.4448	0.	122.55
2527	-5.7331	-2.4771	0.	122.88
2528	3.5192	4.0632	0.	126.33
2529	3.2936	4.3082	0.	126.25
2530	2.2567	-0.49478	0.	126.82
2531	2.7563	-0.49503	0.	126.56
2532	2.505	-0.74571	0.	126.51
2533	-0.73408	2.5045	0.	122.94
2534	-0.4781	2.2678	0.	123.46
2535	-0.98518	2.2365	0.	122.56
2536	2.2492	-3.5002	0.	126.67
2537	2.4996	-3.25	0.	126.38
2538	-1.8482	-6.116	0.	121.68
2539	-2.1043	-5.8749	0.	121.1
2540	-2.4049	-6.1162	0.	121.71
2541	-2.0535	-6.3927	0.	121.97
2542	-2.2818	-6.4058	0.	122.05
2543	-6.1971	-2.7489	0.	122.28
2544	-6.2127	-3.1332	0.	121.91
2545	-5.9073	-3.069	0.	122.27
2546	-5.8244	-2.7812	0.	122.61
2547	-6.0582	-1.6952	0.	122.9
2548	-6.3004	-1.9977	0.	122.77
2549	-5.813	-1.7499	0.	123.13
2550	-1.7408	3.9281	0.	123.03
2551	-1.2839	3.9366	0.	122.52
2552	-1.4803	4.1878	0.	122.71
2553	-2.7186	4.4006	0.	125.37
2554	-2.4536	4.6336	0.	125.44
2555	-2.2082	4.4052	0.	124.41
2556	-2.4706	4.1581	0.	124.57
2557	-0.77023	4.3692	0.	122.03
2558	-0.46951	4.5484	0.	121.86
2559	0.40493	4.4902	0.	124.06
2560	0.71571	4.6997	0.	125.14
2561	4.2378	5.1079	0.	125.7
2562	3.9087	4.8666	0.	125.83
2563	3.7411	3.8151	0.	126.51
2564	3.9572	3.5559	0.	126.82
2565	1.7518	-1.4981	0.	126.32
2566	2.0027	-1.2473	0.	126.38
2567	2.0096	-0.24376	0.	127.11
2568	1.7622	6.6605e-003	0.	127.46
2569	-0.2217	2.0095	0.	124.16
2570	3.029e-002	1.7586	0.	125.03
2571	-1.2354	1.9835	0.	122.15
2572	-1.4881	1.7314	0.	121.48
2573	-1.5349	-6.3178	0.	122.14
2574	-1.5596	-5.8187	0.	121.41
2575	-1.2979	-6.0548	0.	122.23
2576	-7.8198e-003	-6.2561	0.	124.81
2577	-0.26452	-6.0117	0.	124.39
2578	-1.1933e-002	-5.7578	0.	125.18
2579	0.24182	-6.0048	0.	125.33
2580	1.7482	-4.0008	0.	127.32
2581	1.9989	-3.7503	0.	126.96
2582	1.9998	-2.7498	0.	126.32
2583	1.7499	-2.4997	0.	126.28
2584	-3.2408	3.4532	0.	124.67
2585	-2.9862	3.6861	0.	124.63
2586	-2.9718	4.6371	0.	126.21
2587	-2.9671	5.1001	0.	127.03
2588	-2.7068	4.8701	0.	126.28
2589	-3.2235	4.8861	0.	126.85
2590	1.813	5.6971	0.	127.14
2591	1.5439	5.4429	0.	127.18
2592	4.5	-5.75	0.	126.6
2593	4.75	-5.5	0.	126.64
2594	4.25	-6.	0.	126.55
2595	4.	-6.25	0.	126.44
2596	3.7499	-6.	0.	126.52
2597	0.99919	4.9373	0.	125.94
2598	1.272	5.1879	0.	126.84
2599	4.7435	5.7948	0.	126.35
2600	4.6072	5.3128	0.	125.87
2601	4.9512	5.543	0.	126.38
2602	1.2506	-1.9993	0.	126.4
2603	1.5013	-1.7486	0.	126.33
2604	1.5002	-2.2495	0.	126.31
2605	-1.9936	1.2351	0.	120.17
2606	-1.7406	1.484	0.	120.99
2607	-2.2451	1.4829	0.	121.16
2608	-5.2019	-2.0289	0.	124.02
2609	-5.5028	-1.8315	0.	123.49
2610	-5.2562	-2.2682	0.	123.92
2611	-2.0553	-5.3225	0.	120.03
2612	-1.8158	-5.5776	0.	120.83
2613	-2.3302	-5.5756	0.	120.87
2614	-3.7466	2.9794	0.	125.1
2615	-3.4973	2.7271	0.	124.59
2616	-3.4942	3.2174	0.	124.85
2617	5.305	1.9873	0.	127.25
2618	5.0756	2.2475	0.	127.77
2619	4.3964	3.0349	0.	127.59
2620	4.1792	3.2977	0.	127.13
2621	5.	-5.25	0.	126.52
2622	5.25	-5.	0.	126.25
2623	5.5	-4.75	0.	125.92
2624	5.75	-4.5	0.	125.42
2625	0.28177	1.5078	0.	125.81
2626	0.53106	1.2576	0.	126.68
2627	1.2702	0.50723	0.	127.79
2628	1.5162	0.25698	0.	127.65
2629	0.99538	-4.7522	0.	127.58
2630	0.74343	-5.0035	0.	127.2
2631	1.2462	-4.5018	0.	127.68
2632	1.4973	-4.2512	0.	127.53
2633	0.23947	-5.5064	0.	125.86
2634	0.49323	-5.7534	0.	126.02
2635	0.49194	-5.2545	0.	126.7
2636	6.0119	0.72702	0.	125.
2637	6.2582	0.47833	0.	124.6
2638	6.0067	0.2324	0.	124.88
2639	6.0204	1.2212	0.	125.25
2640	6.2644	0.97153	0.	124.64
2641	4.5564	6.0479	0.	126.33
2642	4.3437	6.296	0.	126.08
2643	4.8292	6.2804	0.	126.67
2644	5.0363	6.0314	0.	127.04
2645	-4.6126	6.4829	0.	124.75
2646	-4.0984	6.439	0.	125.46
2647	-4.3028	6.7204	0.	124.69
2648	-4.3835	6.2179	0.	125.54
2649	-3.2189	5.35	0.	127.39
2650	-3.7186	5.3969	0.	127.27
2651	-3.4754	5.136	0.	127.2
2652	-3.4606	5.6017	0.	127.31
2653	6.25	-4.0001	0.	124.67
2654	6.	-4.2501	0.	125.04
2655	6.5	-3.2503	0.	124.47
2656	6.5	-3.7501	0.	124.42
2657	6.75	-3.5002	0.	124.29
2658	4.6165	6.5285	0.	126.42
2659	5.1076	6.5183	0.	127.09
2660	4.888	6.7676	0.	126.61
2661	6.2735	1.4636	0.	124.79
2662	6.0346	1.7147	0.	125.7
2663	-2.4968	1.7294	0.	121.84
2664	-2.7475	1.9778	0.	122.72
2665	-6.3102	-1.5012	0.	122.98
2666	-5.8291	-1.5363	0.	123.26
2667	-6.0535	-1.2451	0.	123.17
2668	-6.5356	-1.2637	0.	122.98
2669	-6.279	-1.0075	0.	123.17
2670	-6.5184	-0.75506	0.	122.98
2671	-6.7709	-1.0033	0.	123.18
2672	4.1208	6.5326	0.	125.88
2673	3.6214	6.5224	0.	125.54
2674	3.8887	6.7732	0.	125.56
2675	4.3885	6.7757	0.	126.03
2676	3.3803	6.7587	0.	125.24
2677	3.1153	6.5022	0.	125.43
2678	-1.9682	4.1681	0.	123.63
2679	-2.2305	3.921	0.	123.78
2680	-2.9282	-6.0487	0.	122.21
2681	-2.6307	-5.817	0.	121.48
2682	-2.752	-6.3176	0.	122.3
2683	2.12	6.446	0.	126.26
2684	1.856	6.1855	0.	126.93
2685	1.6686	6.4544	0.	127.2
2686	1.8198	6.6794	0.	126.22
2687	2.3444	6.7185	0.	125.41
2688	2.3461	6.2163	0.	126.14
2689	2.6074	6.479	0.	125.65
2690	6.7501	-3.0005	0.	124.38
2691	6.5001	-2.7508	0.	124.5
2692	6.5004	-1.753	0.	124.53
2693	6.501	-1.2557	0.	124.51
2694	6.7506	-1.5038	0.	124.44
2695	6.7503	-2.002	0.	124.45
2696	6.5002	-2.2517	0.	124.52
2697	6.7513	-1.0068	0.	124.4
2698	6.5019	-0.75959	0.	124.47
2699	-1.0283	4.1897	0.	122.15
2700	0.18019	4.7528	0.	123.55
2701	-0.13286	4.6575	0.	122.45
2702	-1.7403	-6.5945	0.	122.43
2703	-1.2592	-6.5472	0.	122.79
2704	-1.4965	-6.8078	0.	122.8
2705	-1.9699	-6.8549	0.	122.67
2706	-2.2013	-6.6388	0.	122.43
2707	-1.0031	-6.7792	0.	123.26
2708	-1.0222	-6.2843	0.	122.88
2709	-0.75957	-6.5233	0.	123.48
2710	0.24581	-6.5038	0.	125.03
2711	0.74754	-6.5012	0.	125.62
2712	0.49816	-6.7519	0.	125.27
2713	0.49545	-6.2524	0.	125.55
2714	-2.9226e-003	-6.7557	0.	124.66
2715	-0.25687	-6.5105	0.	124.29
2716	0.99884	-6.7506	0.	125.73
2717	1.2485	-6.5004	0.	126.01
2718	3.7499	-6.5	0.	126.37
2719	3.4999	-6.75	0.	126.3
2720	3.2498	-6.5	0.	126.38
2721	3.4999	-6.25	0.	126.44
2722	-6.5523	-1.8037	0.	122.85
2723	-6.454	-2.3362	0.	122.57
2724	-6.7707	-2.2627	0.	123.03
2725	-6.7999	-2.0281	0.	123.06
2726	-6.786	-1.509	0.	123.13
2727	-6.5756	-2.762	0.	122.66
2728	4.0346	4.0666	0.	126.29
2729	3.8207	4.331	0.	126.1
2730	1.7569	-0.49523	0.	127.17
2731	2.0054	-0.7457	0.	126.76
2732	-0.72921	1.9998	0.	123.08
2733	-0.47665	1.7566	0.	123.83
2734	-0.98259	1.7423	0.	122.52
2735	-0.52092	-5.7681	0.	123.94
2736	-0.77615	-6.027	0.	123.27
2737	-0.51357	-6.266	0.	123.86
2738	1.7492	-3.0003	0.	126.65
2739	1.9991	-3.2502	0.	126.65
2740	2.2496	-2.9999	0.	126.36
2741	-3.2291	4.4156	0.	126.12
2742	-2.9789	4.1656	0.	125.38
2743	1.5562	5.9606	0.	127.67
2744	2.0822	5.9558	0.	126.81
2745	-3.9458	5.6664	0.	126.91
2746	-3.6878	5.8713	0.	126.95
2747	-3.8867	6.1574	0.	126.23
2748	-4.1719	5.9364	0.	126.31
2749	5.3147	6.2693	0.	127.46
2750	5.5116	6.0302	0.	127.95
2751	5.244	5.7796	0.	127.07
2752	4.5	-6.25	0.	126.49
2753	4.75	-6.	0.	126.69
2754	-2.7066	5.33	0.	127.29
2755	-2.9656	5.5558	0.	127.66
2756	-2.1823	4.8821	0.	125.23
2757	-2.4464	5.1	0.	126.54
2758	0.49098	4.9623	0.	124.64
2759	0.76651	5.1674	0.	126.02
2760	0.75045	-1.9998	0.	126.99
2761	0.99995	-2.2501	0.	126.69
2762	1.0011	-1.7491	0.	126.7
2763	-2.2458	0.98915	0.	120.08
2764	-1.7418	0.98995	0.	119.95
2765	-1.9944	0.74071	0.	118.6
2766	-5.0364	-2.2251	0.	124.45
2767	-5.0063	-1.7528	0.	124.64
2768	-4.7449	-1.9903	0.	125.32
2769	-2.0247	-4.7939	0.	118.56
2770	-1.7859	-5.0518	0.	119.79
2771	-2.2843	-5.0483	0.	119.9
2772	-4.2474	2.9897	0.	126.14
2773	-3.9981	2.7373	0.	125.61
2774	-3.9955	3.2322	0.	125.72
2775	4.	-6.75	0.	126.27
2776	4.25	-6.5	0.	126.38
2777	4.8898	3.0148	0.	128.18
2778	4.6768	3.2802	0.	127.61
2779	4.622	2.7728	0.	127.81
2780	0.76876	0.5055	0.	128.
2781	1.0161	0.25568	0.	128.08
2782	1.0252	0.75751	0.	127.65
2783	0.74392	-4.5039	0.	127.95
2784	0.99548	-4.2526	0.	128.01
2785	-4.2121	5.4449	0.	127.04
2786	-3.9724	5.1817	0.	127.28
2787	6.5	-4.2501	0.	124.39
2788	6.75	-4.0001	0.	124.17
2789	-3.2414	-6.2707	0.	122.99
2790	-3.3497	-6.7634	0.	123.93
2791	-3.5506	-6.4965	0.	123.89
2792	-3.0652	-6.5396	0.	123.08
2793	5.381	6.7577	0.	127.17
2794	5.5987	6.506	0.	127.7
2795	4.2507	3.8074	0.	126.6
2796	4.4596	3.543	0.	127.16
2797	4.4586	4.8227	0.	125.7
2798	4.7925	5.0584	0.	125.68
2799	5.5652	2.2273	0.	127.54
2800	5.7972	1.9698	0.	126.52
2801	6.528	1.7033	0.	124.24
2802	6.7703	1.4569	0.	123.55
2803	6.5175	1.214	0.	124.18
2804	1.5095	-0.24481	0.	127.53
2805	1.2622	5.4253e-003	0.	127.95
2806	1.2518	-1.4984	0.	126.63
2807	1.5029	-1.2475	0.	126.66
2808	-1.2353	1.4902	0.	121.85
2809	-1.4888	1.2388	0.	120.79
2810	-0.22465	1.5057	0.	124.7
2811	2.5067e-002	1.2564	0.	125.84
2812	-2.4973	1.2369	0.	121.07
2813	-2.7481	1.4854	0.	122.35
2814	-3.4991	2.234	0.	124.63
2815	-3.7488	2.485	0.	125.1
2816	-3.2477	2.4759	0.	124.01
2817	-3.2491	1.9838	0.	124.01
2818	-2.9977	2.2257	0.	123.38
2819	-2.9988	1.7338	0.	123.23
2820	-5.5597	-1.3143	0.	123.82
2821	-5.3072	-1.5554	0.	124.11
2822	-6.0236	-0.75858	0.	123.41
2823	-5.7841	-1.0231	0.	123.74
2824	-6.263	-0.50615	0.	123.22
2825	-6.76	-0.50216	0.	123.09
2826	-6.5082	-0.25305	0.	122.68
2827	-0.26834	-5.5142	0.	124.72
2828	-1.4198e-002	-5.2604	0.	125.84
2829	-1.2973	-5.5519	0.	121.7
2830	-1.5464	-5.307	0.	120.6
2831	1.4994	-2.7502	0.	126.61
2832	1.2496	-2.5003	0.	126.6
2833	1.4976	-3.7512	0.	127.42
2834	1.2465	-4.002	0.	127.85
2835	-3.4808	4.6646	0.	126.75
2836	-3.7292	4.9207	0.	127.21
2837	-3.7431	3.4702	0.	125.47
2838	-3.49	3.7037	0.	125.39
2839	-6.6992	6.5046	0.	122.72
2840	-6.4378	6.7539	0.	122.76
2841	-6.4484	6.2551	0.	122.12
2842	-6.1831	6.5039	0.	122.66
2843	-5.1384	6.4968	0.	123.99
2844	-4.858	6.7432	0.	124.13
2845	-4.8984	6.2419	0.	124.77
2846	-3.4302	6.06	0.	126.98
2847	-3.2072	5.8075	0.	127.58
2848	1.2872	5.7064	0.	127.7
2849	1.0394	5.418	0.	126.92
2850	-6.1622	-3.4589	0.	121.37
2851	-6.5912	-3.1463	0.	122.29
2852	-6.308	-3.6373	0.	120.54
2853	-6.6226	-3.4127	0.	122.4
2854	-5.8568	-3.3947	0.	121.74
2855	-5.593	-3.1231	0.	123.04
2856	-5.5799	-3.3071	0.	123.16
2857	-6.0897	-3.7418	0.	120.28
2858	-5.7346	-3.6597	0.	122.11
2859	1.3689	6.2295	0.	127.93
2860	1.0454	5.8991	0.	128.04
2861	1.0791	6.1024	0.	128.7
2862	1.2352	6.5792	0.	128.53
2863	1.6031	6.7084	0.	126.74
2864	-3.6292	6.3461	0.	126.26
2865	-3.7585	6.6624	0.	125.33
2866	-3.1944	6.2526	0.	127.22
2867	-3.2806	6.467	0.	126.53
2868	-5.3945	6.7493	0.	123.5
2869	-5.4169	6.2503	0.	123.73
2870	-5.663	6.5016	0.	123.2
2871	-3.7351	4.441	0.	126.78
2872	-3.4855	4.1866	0.	126.09
2873	1.4984	-3.2508	0.	127.06
2874	1.2475	-3.5016	0.	127.64
2875	1.7483	-3.5007	0.	127.06
2876	1.2486	-3.001	0.	127.12
2877	-0.78042	-5.5289	0.	123.2
2878	-1.0356	-5.7879	0.	122.53
2879	-1.0337	-5.2865	0.	122.28
2880	-0.52236	-5.2699	0.	124.3
2881	-5.4032	-3.2043	0.	123.83
2882	-5.5101	-2.8354	0.	123.38
2883	-5.1993	-2.9928	0.	124.57
2884	-5.1761	-3.4117	0.	125.24
2885	-5.4577	-3.5721	0.	123.53
2886	-5.7655	-0.51326	0.	124.16
2887	-6.0105	-0.25705	0.	123.45
2888	-5.526	-0.77777	0.	124.49
2889	-5.2667	-0.51751	0.	125.66
2890	-5.5123	-0.26386	0.	125.07
2891	-5.2821	-1.0308	0.	124.85
2892	-3.5001	1.7391	0.	124.92
2893	-3.75	1.9894	0.	125.46
2894	-3.5009	1.2424	0.	125.4
2895	-3.7507	1.4925	0.	126.01
2896	-3.2498	1.4891	0.	124.14
2897	-0.73003	1.4991	0.	123.27
2898	-0.47957	1.2531	0.	124.39
2899	-0.98386	1.2455	0.	122.49
2900	1.2567	-0.49616	0.	127.72
2901	1.5054	-0.74629	0.	127.14
2902	6.7818	1.9436	0.	123.34
2903	6.5456	2.1904	0.	124.52
2904	6.2891	1.9544	0.	125.15
2905	4.3434	4.3171	0.	126.01
2906	4.6557	4.558	0.	125.71
2907	4.1294	4.5815	0.	125.82
2908	4.5454	4.0508	0.	126.38
2909	5.7687	5.7914	0.	128.41
2910	5.9621	6.0051	0.	128.89
2911	5.7956	6.2669	0.	128.19
2912	6.3884	5.9013	0.	129.52
2913	6.4557	5.6042	0.	129.67
2914	6.7144	6.0707	0.	127.59
2915	6.8301	5.7323	0.	127.46
2916	-3.1321	-5.7748	0.	122.48
2917	-3.4284	-6.005	0.	123.03
2918	-3.0536	-5.272	0.	122.49
2919	-2.8346	-5.5432	0.	121.75
2920	-3.329	-5.5084	0.	123.15
2921	6.5	-4.75	0.	124.43
2922	6.75	-4.5001	0.	124.01
2923	6.25	-4.5	0.	124.76
2924	-4.7088	5.4774	0.	126.54
2925	-4.4381	5.7148	0.	126.44
2926	-4.4689	5.2175	0.	127.28
2927	0.24049	-4.5079	0.	127.83
2928	0.49321	-4.2551	0.	128.46
2929	0.49197	-4.7553	0.	127.57
2930	-4.2543	0.49365	0.	128.78
2931	-4.5066	0.24207	0.	128.91
2932	-4.5037	0.74394	0.	128.88
2933	-4.7549	0.49267	0.	128.51
2934	0.51465	0.25413	0.	128.49
2935	0.26668	0.50427	0.	127.89
2936	0.52211	0.75582	0.	127.6
2937	5.75	-5.5	0.	126.49
2938	5.5	-5.75	0.	126.9
2939	5.25	-5.5	0.	126.67
2940	5.5	-5.25	0.	126.41
2941	5.1686	3.2534	0.	128.45
2942	5.3792	2.9877	0.	128.89
2943	5.1137	2.7508	0.	128.31
2944	-6.8923	-2.6885	0.	123.13
2945	-7.0956	-2.9621	0.	123.79
2946	-6.8333	-3.2045	0.	123.05
2947	-7.0119	-2.2043	0.	123.33
2948	-7.2212	-2.4627	0.	123.81
2949	-7.0336	-1.7334	0.	123.34
2950	-7.2735	-1.9791	0.	123.75
2951	-7.0213	-1.2487	0.	123.33
2952	-7.2699	-1.4951	0.	123.69
2953	-7.0126	-0.75044	0.	123.29
2954	-7.2633	-0.99875	0.	123.7
2955	-7.0062	-0.2506	0.	123.1
2956	-7.2573	-0.49977	0.	123.71
2957	3.7499	-7.	0.	126.21
2958	4.25	-7.	0.	126.16
2959	4.	-7.25	0.	126.15
2960	3.2499	-7.	0.	126.24
2961	3.4999	-7.25	0.	126.2
2962	2.7499	-7.	0.	126.23
2963	2.9998	-6.75	0.	126.32
2964	3.	-7.25	0.	126.2
2965	2.2498	-7.	0.	126.16
2966	2.5	-7.25	0.	126.16
2967	2.4997	-6.75	0.	126.3
2968	1.7498	-7.	0.	126.02
2969	1.9995	-6.75	0.	126.22
2970	1.9999	-7.25	0.	126.04
2971	1.2496	-7.0003	0.	125.76
2972	1.4999	-7.2502	0.	125.84
2973	1.4993	-6.7501	0.	126.04
2974	0.74945	-7.0012	0.	125.39
2975	0.99999	-7.2506	0.	125.53
2976	0.50019	-7.252	0.	125.13
2977	0.24942	-7.0037	0.	124.89
2978	-0.74738	-7.0197	0.	123.73
2979	-0.49737	-7.2613	0.	124.1
2980	-0.24991	-7.0089	0.	124.32
2981	-0.50386	-6.7637	0.	123.94
2982	-1.2404	-7.0398	0.	123.27
2983	-0.99318	-7.2749	0.	123.63
2984	-1.7261	-7.0683	0.	123.04
2985	-1.4847	-7.2955	0.	123.33
2986	-2.2053	-7.0872	0.	123.1
2987	-1.9708	-7.3202	0.	123.29
2988	-2.6793	-7.0708	0.	123.42
2989	-2.4366	-6.871	0.	122.85
2990	-2.4546	-7.3231	0.	123.5
2991	-3.1561	-7.0307	0.	124.06
2992	-2.9363	-7.2931	0.	123.98
2993	-2.8716	-6.8069	0.	123.2
2994	-3.6492	-6.9897	0.	125.11
2995	-3.4252	-7.2568	0.	124.79
2996	-3.8501	-6.7228	0.	125.06
2997	-4.1676	-6.9459	0.	126.84
2998	-3.9309	-7.2193	0.	125.97
2999	-4.748	2.9956	0.	127.76
3000	-4.4965	3.2417	0.	126.82
3001	-4.4985	2.7439	0.	126.84
3002	0.72264	6.71	0.	130.33
3003	1.1123	6.8801	0.	128.14
3004	0.9455	6.4521	0.	129.29
3005	-2.0082	-4.2757	0.	116.39
3006	-2.2599	-4.5292	0.	118.47
3007	-1.766	-4.5327	0.	118.3
3008	0.25033	-2.0003	0.	128.46
3009	0.50099	-1.7497	0.	127.55
3010	0.49972	-2.2508	0.	127.54
3011	5.9854	5.7613	0.	128.88
3012	6.0526	5.4642	0.	129.05
3013	5.6901	5.2793	0.	127.28
3014	5.501	5.5407	0.	127.54
3015	0.27051	5.1999	0.	124.23
3016	-1.7757e-003	5.1619	0.	122.54
3017	-0.93157	4.7241	0.	121.45
3018	-1.2247	4.4409	0.	122.34
3019	-1.6569	4.9193	0.	123.53
3020	-1.9179	5.1282	0.	125.21
3021	-1.937	4.6536	0.	124.21
3022	-1.3733	5.1917	0.	122.41
3023	-1.1345	4.9767	0.	121.73
3024	-1.4277	4.6935	0.	122.62
3025	-2.1819	5.3461	0.	126.51
3026	-2.4596	5.5578	0.	127.77
3027	0.79757	5.6106	0.	127.26
3028	0.54605	5.405	0.	125.62
3029	-2.9714	6.0001	0.	127.82
3030	-2.7185	5.7836	0.	128.14
3031	-6.9551	6.7536	0.	123.13
3032	-7.2122	6.5038	0.	123.39
3033	-6.9607	6.2543	0.	122.67
3034	-6.6937	7.0029	0.	123.16
3035	-6.9536	7.2519	0.	123.48
3036	-7.2103	7.0026	0.	123.63
3037	-6.1749	7.0018	0.	123.03
3038	-6.4348	7.2513	0.	123.19
3039	-5.6516	6.9995	0.	123.24
3040	-5.9154	7.2496	0.	123.19
3041	-5.9202	6.7519	0.	122.94
3042	-5.1141	6.9957	0.	123.64
3043	-5.3884	7.2475	0.	123.41
3044	-4.5483	6.9808	0.	124.07
3045	-4.8431	7.2386	0.	123.7
3046	-3.963	6.9439	0.	124.56
3047	-4.2824	7.2231	0.	123.97
3048	-3.4227	7.0102	0.	124.92
3049	-3.7257	7.203	0.	124.28
3050	-3.41	6.7833	0.	125.6
3051	-3.2223	7.3291	0.	124.41
3052	-2.9233	7.1194	0.	125.45
3053	-3.1623	6.8744	0.	125.68
3054	-3.9997	2.2404	0.	125.93
3055	-4.2492	2.4916	0.	126.31
3056	-6.2556	-3.9536e-003	0.	122.9
3057	-6.7543	-1.4931e-003	0.	122.68
3058	-6.5034	0.24809	0.	121.76
3059	-6.1994	6.0047	0.	122.08
3060	-6.4618	5.7548	0.	121.02
3061	-6.7099	6.0049	0.	122.07
3062	-5.1769	5.9954	0.	124.51
3063	-4.94	5.7396	0.	125.67
3064	-4.6692	5.977	0.	125.56
3065	-3.9834	4.6971	0.	127.24
3066	-4.2293	4.9543	0.	127.51
3067	-3.9925	3.7237	0.	126.19
3068	-4.2447	3.4843	0.	126.4
3069	0.99885	-2.7511	0.	127.11
3070	0.74921	-2.501	0.	127.24
3071	-1.5273	-4.7906	0.	119.55
3072	-1.2828	-5.0416	0.	121.18
3073	-2.7781	-5.0303	0.	121.49
3074	-2.5195	-4.7836	0.	119.83
3075	-2.5591	-5.3015	0.	120.75
3076	-4.8093	-2.4743	0.	125.38
3077	-5.3473	-2.5574	0.	123.7
3078	-5.0365	-2.7149	0.	124.89
3079	-5.0296	-1.2719	0.	125.13
3080	-4.7721	-1.5117	0.	125.56
3081	-5.013	-0.26427	0.	126.9
3082	-5.2586	-1.0619e-002	0.	126.32
3083	-4.7588	-1.0313e-002	0.	128.1
3084	-5.0071	0.24029	0.	127.69
3085	-3.7518	0.9939	0.	126.69
3086	-4.0016	1.244	0.	127.3
3087	-4.0031	0.74411	0.	128.16
3088	-4.2525	0.99439	0.	128.26
3089	-2.4981	0.7419	0.	119.95
3090	-2.7487	0.99052	0.	121.83
3091	-1.2373	0.99412	0.	121.42
3092	-1.4908	0.74331	0.	119.74
3093	-0.22985	1.0038	0.	125.53
3094	1.8932e-002	0.75468	0.	127.01
3095	0.27436	1.0062	0.	126.72
3096	0.75166	-1.499	0.	127.26
3097	1.0027	-1.2482	0.	127.15
3098	4.75	-7.	0.	126.14
3099	4.5	-6.75	0.	126.27
3100	4.5	-7.25	0.	126.09
3101	6.25	-5.	0.	125.01
3102	6.	-5.25	0.	125.92
3103	5.75	-5.	0.	125.84
3104	6.	-4.75	0.	125.35
3105	7.2768	1.9397	0.	121.76
3106	7.0241	1.6972	0.	122.66
3107	7.038	2.1804	0.	122.03
3108	7.0057	0.22982	0.	123.87
3109	7.257	0.47714	0.	123.6
3110	6.7575	0.47651	0.	124.01
3111	7.0096	0.72139	0.	123.56
3112	7.2539	-1.5286e-002	0.	123.92
3113	7.0033	-0.26364	0.	124.09
3114	6.7547	-1.6826e-002	0.	124.18
3115	7.2512	-1.0056	0.	124.26
3116	7.0009	-1.2549	0.	124.33
3117	7.0018	-0.75843	0.	124.24
3118	7.0002	-2.2514	0.	124.36
3119	7.2503	-2.0019	0.	124.34
3120	7.0005	-1.7528	0.	124.37
3121	7.0001	-2.7508	0.	124.31
3122	7.2502	-2.5011	0.	124.31
3123	6.7502	-2.5011	0.	124.43
3124	7.	-3.2504	0.	124.2
3125	7.2501	-3.0006	0.	124.22
3126	7.	-3.7502	0.	124.03
3127	7.25	-3.5003	0.	124.06
3128	7.25	-4.0002	0.	123.82
3129	7.	-4.2501	0.	123.78
3130	-3.7376	-6.2308	0.	123.92
3131	-4.0534	-6.4531	0.	125.15
3132	5.8236	2.4646	0.	127.55
3133	5.6012	2.7245	0.	128.64
3134	5.3357	2.4876	0.	128.06
3135	4.7543	3.7863	0.	126.93
3136	4.9556	3.5188	0.	127.88
3137	4.9896	4.7937	0.	125.69
3138	5.3257	5.0272	0.	125.93
3139	5.1366	5.2886	0.	126.19
3140	2.8911	7.2358	0.	124.66
3141	2.6065	6.978	0.	124.93
3142	3.1344	6.9949	0.	124.97
3143	2.8695	6.7385	0.	125.16
3144	3.9152	7.2598	0.	125.36
3145	4.1564	7.0163	0.	125.71
3146	3.6475	7.0094	0.	125.27
3147	4.9284	7.2583	0.	126.29
3148	5.1613	7.007	0.	126.69
3149	4.66	7.0149	0.	126.23
3150	6.3993	6.6965	0.	126.73
3151	6.454	7.1988	0.	125.27
3152	6.7213	6.9037	0.	124.33
3153	6.1791	6.9628	0.	126.31
3154	6.2681	6.2126	0.	128.53
3155	6.594	6.382	0.	126.6
3156	6.1015	6.4744	0.	127.83
3157	4.8577	4.2916	0.	126.07
3158	5.1696	4.5243	0.	125.55
3159	5.0474	4.0217	0.	126.86
3160	6.3122	2.4432	0.	125.91
3161	6.0874	2.6978	0.	127.94
3162	6.0557	2.2071	0.	126.54
3163	6.5727	2.6751	0.	125.35
3164	6.8017	2.4272	0.	123.22
3165	-3.9199	-5.9638	0.	123.68
3166	-3.6253	-5.7386	0.	123.69
3167	6.75	-5.	0.	123.84
3168	7.25	-5.	0.	122.88
3169	7.	-5.25	0.	122.9
3170	7.	-4.7501	0.	123.42
3171	6.5	-5.25	0.	124.68
3172	5.	-6.75	0.	126.36
3173	5.25	-6.5	0.	126.82
3174	4.75	-6.5	0.	126.49
3175	5.	-6.25	0.	126.68
3176	5.	-7.25	0.	126.03
3177	5.25	-7.	0.	126.23
3178	0.75648	-0.49712	0.	128.56
3179	1.0094	-0.24592	0.	128.14
3180	1.0051	-0.7472	0.	127.76
3181	-0.73341	0.99952	0.	123.61
3182	-0.48377	0.75202	0.	125.35
3183	-0.98675	0.74754	0.	122.57
3184	-3.502	0.74374	0.	126.17
3185	-3.2506	0.99236	0.	124.36
3186	-5.0228	-0.77055	0.	126.02
3187	-4.7651	-0.514	0.	127.44
3188	-4.7732	-1.0171	0.	126.4
3189	-4.7261	-3.4591	0.	127.87
3190	-4.9721	-3.2002	0.	125.98
3191	-5.006	-3.6567	0.	126.83
3192	-3.2629	-5.0065	0.	123.93
3193	-3.7364	-4.9812	0.	126.59
3194	-3.5383	-5.2429	0.	124.59
3195	-3.491	-4.744	0.	126.12
3196	-3.0098	-4.7648	0.	122.8
3197	-0.51864	-4.769	0.	125.14
3198	-0.26822	-5.0161	0.	125.42
3199	-0.77566	-5.0275	0.	123.39
3200	0.99772	-3.2518	0.	127.7
3201	0.74644	-3.5031	0.	128.51
3202	0.9964	-3.7524	0.	128.07
3203	0.74798	-3.0022	0.	127.89
3204	-3.9889	4.2117	0.	126.81
3205	-4.2419	3.9765	0.	126.96
3206	-3.7394	3.9573	0.	126.11
3207	-4.2379	4.4659	0.	127.49
3208	-5.688	6.0022	0.	123.15
3209	-5.4462	5.7496	0.	124.16
3210	-5.9539	5.7535	0.	122.12
3211	-5.9341	6.2536	0.	122.62
3212	-5.7573	-7.6514e-003	0.	124.35
3213	-6.0045	0.24565	0.	123.1
3214	-5.506	0.2424	0.	125.59
3215	-4.0006	1.7428	0.	126.55
3216	-4.2511	1.4948	0.	127.67
3217	-4.2503	1.9936	0.	126.89
3218	-2.7482	6.2278	0.	128.32
3219	-3.0633	6.4331	0.	127.05
3220	0.57562	5.8286	0.	127.11
3221	0.83862	6.0261	0.	128.59
3222	-1.6343	5.4005	0.	124.09
3223	-1.9422	5.5866	0.	127.13
3224	-1.0723	5.5041	0.	120.35
3225	-1.407	5.6482	0.	123.37
3226	-0.31482	5.0665	0.	121.44
3227	-0.63084	4.9034	0.	121.27
3228	6.1995	5.1497	0.	128.39
3229	6.5559	5.3012	0.	129.09
3230	-4.7264	-6.8891	0.	128.84
3231	-5.3011	-6.8154	0.	128.24
3232	-5.0161	-7.1212	0.	128.49
3233	-4.9172	-6.6118	0.	129.27
3234	0.55075	6.9672	0.	130.57
3235	0.16383	6.8291	0.	127.63
3236	0.22173	6.5347	0.	128.34
3237	0.43505	6.5062	0.	130.07
3238	-4.3709	-6.6763	0.	126.93
3239	-4.4581	-7.1759	0.	127.64
3240	-7.2532	-1.6438e-004	0.	123.67
3241	-7.0027	0.24947	0.	122.65
3242	-6.6948	7.5003	0.	123.51
3243	-7.2106	7.5007	0.	123.87
3244	-6.9556	7.7497	0.	123.8
3245	-6.1754	7.4992	0.	123.35
3246	-6.4397	7.7488	0.	123.56
3247	-5.6521	7.4976	0.	123.36
3248	-5.9202	7.7476	0.	123.47
3249	-5.1174	7.4905	0.	123.48
3250	-5.3973	7.7452	0.	123.5
3251	-4.5772	7.4809	0.	123.6
3252	-4.8632	7.7355	0.	123.56
3253	-4.0451	7.4822	0.	123.69
3254	-4.3361	7.7342	0.	123.6
3255	-3.5253	7.5218	0.	123.78
3256	-3.8151	7.7472	0.	123.64
3257	-3.013	7.5788	0.	124.11
3258	-3.3046	7.7995	0.	123.82
3259	-2.714	7.3691	0.	125.14
3260	-2.7952	7.8374	0.	124.39
3261	-2.5026	7.6147	0.	124.68
3262	-7.4675	6.7528	0.	123.9
3263	-7.4707	6.2536	0.	123.9
3264	-7.7225	6.5029	0.	124.34
3265	-7.4673	7.2515	0.	124.01
3266	-7.7221	7.0019	0.	124.29
3267	-7.4681	7.7499	0.	124.18
3268	-7.7225	7.5006	0.	124.34
3269	-2.2482	-3.8185e-003	0.	116.18
3270	-1.9978	-0.25256	0.	114.39
3271	-1.996	0.24469	0.	116.33
3272	-1.7459	-3.1647e-003	0.	116.16
3273	-4.0079	-2.2448	0.	128.78
3274	-4.0071	-1.7489	0.	128.67
3275	-3.7548	-1.9978	0.	131.98
3276	-4.2572	-1.9959	0.	127.47
3277	-1.7557	-4.019	0.	116.18
3278	-2.2503	-4.016	0.	116.33
3279	-2.0016	-3.7633	0.	114.45
3280	8.1113e-004	-1.7501	0.	129.34
3281	-2.9199e-004	-2.2512	0.	129.34
3282	-0.24977	-2.0005	0.	132.43
3283	-4.9975	3.2466	0.	128.54
3284	-4.9989	2.7477	0.	128.63
3285	-5.2487	2.9982	0.	131.36
3286	2.1242	7.4775	0.	124.28
3287	1.6073	7.5161	0.	124.24
3288	1.8987	7.7389	0.	124.26
3289	1.8094	7.2065	0.	125.04
3290	2.6437	7.4806	0.	124.35
3291	2.4104	7.7303	0.	124.21
3292	2.3591	7.2229	0.	124.61
3293	3.1583	7.4914	0.	124.63
3294	2.9219	7.737	0.	124.43
3295	3.6693	7.5009	0.	125.03
3296	3.4272	7.746	0.	124.79
3297	3.4016	7.2505	0.	124.94
3298	4.1821	7.5061	0.	125.49
3299	3.9368	7.7523	0.	125.21
3300	4.6916	7.5059	0.	125.91
3301	4.4232	7.2626	0.	125.84
3302	4.4453	7.7545	0.	125.62
3303	4.9527	7.7525	0.	125.91
3304	5.1958	7.5004	0.	126.16
3305	6.2111	7.4676	0.	125.32
3306	5.9362	7.2317	0.	126.36
3307	5.7012	7.4884	0.	126.05
3308	5.9643	7.7323	0.	125.59
3309	6.7219	7.4492	0.	123.91
3310	6.4722	7.7127	0.	124.64
3311	7.2302	7.4643	0.	122.4
3312	6.9892	7.1541	0.	122.96
3313	6.9791	7.7056	0.	123.26
3314	7.4909	7.254	0.	121.
3315	7.7388	7.4834	0.	121.88
3316	7.4842	7.733	0.	122.3
3317	7.3097	2.8945	0.	119.06
3318	7.5603	3.1239	0.	115.46
3319	7.7955	2.895	0.	117.77
3320	7.5441	2.6545	0.	118.44
3321	0.94043	7.1373	0.	128.46
3322	1.2781	7.3189	0.	125.56
3323	1.4802	7.0093	0.	126.36
3324	6.916	6.5892	0.	124.2
3325	7.2499	6.9438	0.	121.56
3326	7.2228	6.7256	0.	120.45
3327	5.444	3.4857	0.	129.36
3328	5.2487	3.7542	0.	127.8
3329	5.8371	4.9648	0.	126.65
3330	5.5056	4.7578	0.	125.79
3331	6.8287	2.9075	0.	123.43
3332	7.0848	3.1352	0.	120.49
3333	7.0577	2.6596	0.	121.29
3334	5.865	2.9577	0.	129.02
3335	5.6547	3.22	0.	129.8
3336	-3.9585	-4.7237	0.	128.9
3337	-4.0099	-5.2114	0.	126.74
3338	-4.1985	-4.9504	0.	129.74
3339	-4.2357	-6.1862	0.	124.9
3340	-4.5617	-6.399	0.	127.43
3341	-5.9684	-4.0376	0.	119.98
3342	-5.4597	-4.2273	0.	123.81
3343	-5.7438	-4.3872	0.	118.89
3344	-5.6133	-3.9554	0.	121.86
3345	-4.4457	-4.2468	0.	130.96
3346	-4.1557	-4.4797	0.	130.64
3347	-4.5744	-4.4529	0.	131.21
3348	-4.3956	-4.7064	0.	131.48
3349	-6.5134	-3.9424	0.	121.07
3350	-6.2484	-4.2087	0.	116.93
3351	6.25	-5.5	0.	125.59
3352	6.	-5.75	0.	126.89
3353	7.5206	1.6976	0.	121.68
3354	7.7731	1.9431	0.	121.27
3355	7.5309	2.1788	0.	120.38
3356	7.5139	1.2118	0.	122.58
3357	7.7657	1.4586	0.	122.28
3358	7.268	1.4552	0.	122.57
3359	7.509	0.723	0.	123.21
3360	7.7607	0.97009	0.	123.01
3361	7.2615	0.96725	0.	123.17
3362	7.5052	0.23203	0.	123.65
3363	7.7563	0.48013	0.	123.52
3364	7.5029	-0.26133	0.	123.95
3365	7.7535	-1.266e-002	0.	123.87
3366	7.5016	-0.75688	0.	124.15
3367	7.7519	-0.50778	0.	124.1
3368	7.2522	-0.50969	0.	124.13
3369	7.5008	-1.2541	0.	124.26
3370	7.7511	-1.0046	0.	124.24
3371	7.5005	-1.7525	0.	124.31
3372	7.7506	-1.5027	0.	124.31
3373	7.2506	-1.5034	0.	124.33
3374	7.5003	-2.2516	0.	124.29
3375	7.7503	-2.0017	0.	124.33
3376	7.5001	-2.7509	0.	124.22
3377	7.7502	-2.5009	0.	124.28
3378	7.5001	-3.2505	0.	124.08
3379	7.7501	-3.0006	0.	124.19
3380	7.5	-3.7503	0.	123.85
3381	7.75	-3.5003	0.	124.02
3382	7.5	-4.2502	0.	123.5
3383	7.75	-4.0002	0.	123.77
3384	7.5	-4.7501	0.	122.92
3385	7.75	-4.5001	0.	123.39
3386	7.25	-4.5001	0.	123.46
3387	7.5	-5.25	0.	121.94
3388	7.75	-5.	0.	122.81
3389	7.25	-5.5	0.	121.95
3390	7.75	-5.5	0.	121.88
3391	7.5	-5.75	0.	120.04
3392	5.5	-6.25	0.	127.09
3393	5.75	-6.	0.	127.31
3394	5.25	-6.	0.	126.96
3395	0.50914	-0.24689	0.	128.97
3396	0.26143	3.3763e-003	0.	129.17
3397	0.76203	4.307e-003	0.	128.56
3398	0.25147	-1.4995	0.	128.43
3399	0.50265	-1.2488	0.	128.03
3400	-1.2402	0.49674	0.	120.89
3401	-1.7434	0.49408	0.	118.37
3402	-1.4933	0.24622	0.	118.25
3403	-0.23498	0.5029	0.	126.82
3404	1.3467e-002	0.25352	0.	128.57
3405	-3.7533	0.49395	0.	127.64
3406	-4.0054	0.24343	0.	129.24
3407	-2.4989	0.24495	0.	118.36
3408	-2.2467	0.49346	0.	118.45
3409	-2.7497	0.49409	0.	121.16
3410	-4.5157	-1.2569	0.	126.83
3411	-4.2607	-1.5022	0.	127.45
3412	-4.5108	-1.7491	0.	126.25
3413	-4.5109	-0.26005	0.	128.62
3414	-4.2577	-8.1574e-003	0.	129.36
3415	-4.5084	-3.7482	0.	129.85
3416	-4.6551	-4.2194	0.	130.78
3417	-4.2571	-4.0013	0.	130.91
3418	-4.7883	-3.9459	0.	128.82
3419	-4.2686	-2.4884	0.	127.56
3420	-4.5178	-2.2395	0.	126.25
3421	-4.5142	-2.7308	0.	127.
3422	-2.7512	-4.5182	0.	121.14
3423	-2.502	-4.2696	0.	118.45
3424	-3.9671	-4.2342	0.	130.6
3425	-3.7132	-4.4865	0.	128.42
3426	-0.26363	-4.5141	0.	126.66
3427	-1.0098e-002	-4.2598	0.	128.51
3428	-1.3208e-002	-4.7612	0.	126.94
3429	-1.5136	-4.2761	0.	118.13
3430	-1.2688	-4.5291	0.	120.64
3431	0.49835	-2.7522	0.	128.02
3432	0.24909	-2.5017	0.	128.42
3433	0.49482	-3.7545	0.	128.95
3434	0.24262	-4.0069	0.	129.13
3435	0.74477	-4.0037	0.	128.51
3436	-4.4941	3.7371	0.	127.17
3437	-4.7461	3.4928	0.	127.61
3438	-5.2093	5.4938	0.	125.31
3439	-4.969	5.2387	0.	126.95
3440	-6.2164	5.5036	0.	121.06
3441	-6.4764	5.2538	0.	118.85
3442	-6.7216	5.5043	0.	120.99
3443	-7.2192	6.0041	0.	123.18
3444	-6.9696	5.7544	0.	122.05
3445	-7.4765	5.7538	0.	124.18
3446	-7.7271	6.0034	0.	124.62
3447	-7.4246	-2.7363	0.	124.47
3448	-7.3826	-3.2419	0.	125.09
3449	-7.6584	-2.9994	0.	125.3
3450	-7.4829	-2.2374	0.	124.22
3451	-7.7114	-2.4954	0.	124.83
3452	-7.749	-1.9943	0.	124.59
3453	-7.5098	-1.7407	0.	124.1
3454	-7.7574	-0.99793	0.	124.53
3455	-7.5118	-1.2452	0.	124.07
3456	-7.508	-0.74809	0.	124.12
3457	-7.5018	0.25017	0.	124.66
3458	-7.7521	3.0822e-004	0.	125.08
3459	-7.5043	-0.24933	0.	124.28
3460	-6.2523	0.49769	0.	121.96
3461	-6.7518	0.49905	0.	121.72
3462	-6.5013	0.74887	0.	119.62
3463	-4.5019	1.2451	0.	128.62
3464	-4.7526	0.99486	0.	128.98
3465	-2.6388	6.9105	0.	127.
3466	-2.4125	7.1509	0.	127.11
3467	2.9503e-002	5.3734	0.	122.97
3468	0.32409	5.6229	0.	125.48
3469	5.25	-7.5	0.	125.92
3470	5.5	-7.25	0.	126.11
3471	5.75	-7.5	0.	125.83
3472	5.5	-7.75	0.	126.12
3473	5.	-7.75	0.	126.06
3474	4.75	-7.5	0.	125.98
3475	4.	-7.75	0.	126.16
3476	4.25	-7.5	0.	126.08
3477	3.75	-7.5	0.	126.14
3478	0.75073	-7.5014	0.	125.27
3479	1.2503	-7.5005	0.	125.61
3480	1.0007	-7.7509	0.	125.42
3481	-0.24661	-7.5077	0.	124.42
3482	2.4709e-003	-7.7544	0.	124.68
3483	0.25162	-7.5035	0.	124.86
3484	8.4801e-004	-7.2552	0.	124.63
3485	-0.49538	-7.7594	0.	124.28
3486	-0.74317	-7.5166	0.	124.
3487	-1.4863	-7.7827	0.	123.78
3488	-1.7294	-7.5474	0.	123.58
3489	-1.2375	-7.5306	0.	123.7
3490	-3.9746	-7.7213	0.	125.98
3491	-4.2214	-7.4493	0.	126.78
3492	-3.7069	-7.4864	0.	125.66
3493	-7.57	-7.2353	0.	129.48
3494	-7.5002	-7.7492	0.	128.
3495	-7.2807	-7.3622	0.	129.32
3496	-7.7537	-7.4991	0.	128.89
3497	-7.2474	-7.5526	0.	127.76
3498	-0.51738	5.4523	0.	119.83
3499	-0.67594	5.8002	0.	116.63
3500	-0.8334	5.2892	0.	119.68
3501	-0.91154	5.8437	0.	117.62
3502	-0.18282	5.6029	0.	121.94
3503	-7.7988	-6.7565	0.	128.78
3504	-7.4414	-6.9144	0.	130.36
3505	-7.8554	-7.0096	0.	129.32
3506	-1.7149	5.8343	0.	126.39
3507	-1.9967	6.0354	0.	129.44
3508	-2.2199	5.7983	0.	128.38
3509	-1.494	6.0664	0.	127.37
3510	-1.2463	5.9878	0.	120.69
3511	-2.5627	6.4603	0.	128.49
3512	-2.3412	6.6966	0.	128.85
3513	-2.8778	6.6656	0.	127.24
3514	-2.2722	6.2483	0.	129.69
3515	-2.4953	6.0112	0.	128.64
3516	-4.5008	1.7456	0.	128.
3517	-4.7511	1.4962	0.	129.1
3518	-4.7503	1.9966	0.	128.41
3519	-4.4998	2.2449	0.	127.27
3520	-5.7532	0.4957	0.	124.34
3521	-6.0019	0.74753	0.	122.31
3522	-5.5028	0.74573	0.	126.6
3523	-5.2545	0.49331	0.	126.97
3524	-7.2513	0.4998	0.	123.64
3525	-7.5007	0.75003	0.	125.76
3526	-7.7509	0.50011	0.	125.83
3527	-7.0011	0.74962	0.	121.86
3528	-7.4835	5.2535	0.	125.26
3529	-7.227	5.504	0.	123.05
3530	-7.7319	5.5034	0.	125.34
3531	-5.7121	5.5009	0.	123.13
3532	-5.4696	5.248	0.	125.26
3533	-5.9728	5.2523	0.	121.35
3534	-4.4909	4.2307	0.	127.64
3535	-4.7437	3.9887	0.	128.09
3536	-4.7394	4.4835	0.	128.38
3537	-4.4837	4.723	0.	127.76
3538	0.49671	-3.2535	0.	128.69
3539	0.24513	-3.5055	0.	129.79
3540	0.24748	-3.0036	0.	129.21
3541	-0.51285	-4.2655	0.	126.89
3542	-0.76733	-4.5218	0.	124.02
3543	-2.9937	-4.2578	0.	123.31
3544	-3.238	-4.5023	0.	124.99
3545	-4.2423	-3.4874	0.	130.34
3546	-4.4954	-3.2303	0.	128.39
3547	-4.5155	-0.76057	0.	127.81
3548	-4.2611	-0.50883	0.	129.39
3549	-4.2636	-1.0073	0.	128.41
3550	-3.5035	0.24426	0.	127.69
3551	-3.2517	0.49408	0.	124.85
3552	-0.73711	0.50004	0.	124.31
3553	-0.48804	0.25156	0.	127.13
3554	-0.99009	0.2488	0.	122.93
3555	0.25655	-0.49776	0.	129.8
3556	0.50508	-0.74796	0.	128.72
3557	5.5	-6.75	0.	126.68
3558	5.75	-6.5	0.	127.6
3559	5.75	-7.	0.	126.76
3560	6.75	-5.5	0.	123.74
3561	7.	-5.75	0.	122.21
3562	6.5	-5.75	0.	125.61
3563	-6.7709	-4.2175	0.	122.74
3564	-6.8281	-3.7178	0.	122.94
3565	-7.0597	-3.9844	0.	125.01
3566	-4.8274	-4.6427	0.	132.57
3567	-5.0009	-4.3626	0.	129.03
3568	-4.3994	-5.9123	0.	124.88
3569	-4.1064	-5.6983	0.	124.72
3570	6.3479	2.9297	0.	127.38
3571	6.1358	3.1857	0.	130.37
3572	6.6115	3.1571	0.	127.04
3573	7.0873	6.2016	0.	122.62
3574	-7.6803	-6.4704	0.	128.26
3575	-7.323	-6.6283	0.	129.81
3576	-7.1658	-6.3741	0.	129.1
3577	-7.4668	-6.1838	0.	127.07
3578	-2.1149	6.937	0.	128.94
3579	-1.8906	7.1737	0.	128.88
3580	-2.2011	7.3965	0.	126.64
3581	-4.9957	3.7444	0.	128.53
3582	-5.2475	3.4971	0.	130.16
3583	0.76763	7.4129	0.	128.33
3584	0.43187	7.2554	0.	136.19
3585	-1.2593	-4.0181	0.	120.1
3586	-1.5057	-3.7643	0.	115.65
3587	-3.7561	-2.4947	0.	131.26
3588	-4.0057	-2.7411	0.	129.42
3589	-2.7504	-3.8039e-003	0.	120.42
3590	-2.4997	-0.2529	0.	115.7
3591	-0.24886	-1.4997	0.	131.46
3592	2.4091e-003	-1.2492	0.	129.6
3593	6.3239	4.8638	0.	134.44
3594	5.9967	4.6804	0.	127.07
3595	7.3353	3.3645	0.	116.83
3596	7.5801	3.5869	0.	113.48
3597	7.808	3.3586	0.	114.66
3598	7.7447	7.0079	0.	120.43
3599	7.4714	6.8048	0.	119.12
3600	-4.9999	2.2477	0.	128.85
3601	-5.2496	2.4984	0.	130.48
3602	-4.7494	2.496	0.	127.71
3603	-5.2522	0.99601	0.	128.23
3604	-5.0039	0.74359	0.	128.6
3605	-5.0018	1.2459	0.	129.45
3606	-6.7507	0.99944	0.	119.73
3607	-6.2509	0.99871	0.	119.95
3608	-6.5005	1.2494	0.	114.31
3609	-6.2328	5.0025	0.	119.11
3610	-6.4884	4.7524	0.	113.65
3611	-6.7347	5.0033	0.	119.03
3612	-4.9847	4.7393	0.	128.3
3613	-5.2294	4.9929	0.	126.89
3614	-4.7291	4.9788	0.	127.68
3615	-1.7751e-003	-2.7531	0.	129.61
3616	-0.25069	-2.5018	0.	131.47
3617	-0.25932	-4.0111	0.	128.72
3618	-7.0699e-003	-3.7579	0.	129.97
3619	-2.7445	-4.0093	0.	120.62
3620	-2.4976	-3.7598	0.	115.92
3621	-3.9911	-3.7405	0.	131.39
3622	-3.7379	-3.9919	0.	130.37
3623	-4.0086	-1.2526	0.	129.02
3624	-3.7556	-1.5006	0.	130.97
3625	-3.7556	-6.2611e-003	0.	129.27
3626	-4.0079	-0.25694	0.	130.13
3627	8.8343e-003	-0.2475	0.	129.99
3628	-0.23959	2.1824e-003	0.	128.86
3629	6.	-7.75	0.	126.44
3630	6.	-7.25	0.	126.47
3631	6.25	-7.5	0.	127.38
3632	6.25	-6.	0.	126.91
3633	6.	-6.25	0.	127.82
3634	6.8676	3.3848	0.	124.12
3635	7.1227	3.6081	0.	117.77
3636	5.7312	3.7128	0.	129.59
3637	5.9255	3.448	0.	131.13
3638	8.0259	2.1868	0.	120.75
3639	8.035	2.663	0.	119.22
3640	8.2769	2.4357	0.	121.48
3641	7.7837	2.4225	0.	119.85
3642	8.0182	1.7041	0.	121.88
3643	8.2697	1.9527	0.	122.2
3644	8.0125	1.2169	0.	122.72
3645	8.2632	1.4665	0.	122.87
3646	8.008	0.72722	0.	123.32
3647	8.259	0.97627	0.	123.41
3648	8.0045	0.23544	0.	123.74
3649	8.2552	0.48455	0.	123.8
3650	8.0025	-0.25911	0.	124.02
3651	8.253	-9.7751e-003	0.	124.07
3652	8.0014	-0.75551	0.	124.2
3653	8.2517	-0.50599	0.	124.23
3654	8.0008	-1.2533	0.	124.3
3655	8.2509	-1.0035	0.	124.33
3656	8.2505	-1.5021	0.	124.38
3657	8.0004	-1.7519	0.	124.33
3658	8.0001	-2.7506	0.	124.25
3659	8.2501	-2.5006	0.	124.35
3660	8.0002	-2.2511	0.	124.32
3661	8.0001	-3.2503	0.	124.13
3662	8.2501	-3.0004	0.	124.28
3663	8.	-3.7502	0.	123.94
3664	8.25	-3.5002	0.	124.17
3665	8.	-4.2501	0.	123.67
3666	8.25	-4.0001	0.	124.02
3667	8.	-4.7501	0.	123.28
3668	8.25	-4.5001	0.	123.82
3669	8.	-5.25	0.	122.76
3670	8.25	-5.	0.	123.61
3671	8.	-5.75	0.	122.1
3672	8.25	-5.5	0.	123.52
3673	7.25	-6.	0.	120.27
3674	7.75	-6.	0.	120.23
3675	7.5	-6.25	0.	115.5
3676	7.9922	7.7329	0.	122.48
3677	8.2463	7.4754	0.	122.77
3678	7.9926	7.2373	0.	121.33
3679	8.2846	2.912	0.	120.98
3680	8.0432	3.1297	0.	117.08
3681	1.397	7.7953	0.	124.58
3682	1.1053	7.5944	0.	125.47
3683	1.4667	8.2831	0.	125.83
3684	1.6884	8.0181	0.	124.62
3685	1.2072	8.0669	0.	125.82
3686	2.6885	7.9867	0.	124.3
3687	2.4539	8.2393	0.	124.45
3688	2.1849	7.9918	0.	124.2
3689	2.9547	8.2401	0.	124.6
3690	3.1908	7.9915	0.	124.6
3691	5.2151	7.9976	0.	125.72
3692	4.9677	8.2494	0.	125.63
3693	4.7065	8.0011	0.	125.63
3694	5.4753	8.2451	0.	125.56
3695	5.4581	7.7455	0.	125.96
3696	5.7211	7.9894	0.	125.51
3697	7.2331	7.9744	0.	123.16
3698	6.9843	8.2242	0.	123.73
3699	6.7294	7.9692	0.	124.
3700	7.7375	7.9826	0.	122.89
3701	7.4872	8.2328	0.	123.22
3702	-7.2131	7.9989	0.	124.11
3703	-7.7236	7.9993	0.	124.45
3704	-7.4711	8.2487	0.	124.36
3705	-6.7005	7.9982	0.	123.85
3706	-6.9615	8.2482	0.	124.11
3707	-6.4489	8.2474	0.	123.92
3708	-6.1845	7.9972	0.	123.69
3709	-3.8748	8.2599	0.	123.8
3710	-4.1061	7.9992	0.	123.55
3711	-3.5943	8.0249	0.	123.69
3712	-7.9786	-6.2664	0.	126.7
3713	-8.2199	-6.5197	0.	127.18
3714	-8.0042	-6.7801	0.	128.14
3715	-8.0329	-5.7588	0.	126.02
3716	-8.2588	-6.01	0.	125.87
3717	-7.765	-5.9798	0.	125.53
3718	-8.0695	-5.2698	0.	127.46
3719	-8.295	-5.5143	0.	126.27
3720	-7.823	-5.4978	0.	127.22
3721	-8.0817	-4.7938	0.	129.13
3722	-7.8569	-5.0194	0.	130.1
3723	-8.3138	-5.0242	0.	128.04
3724	-7.9864	-4.3246	0.	129.26
3725	-8.3021	-4.5421	0.	128.92
3726	-7.8765	-4.555	0.	130.46
3727	-8.1742	-4.059	0.	128.55
3728	-7.9003	-3.812	0.	128.03
3729	-7.7821	-4.3196	0.	130.13
3730	-7.61	-4.0467	0.	128.1
3731	-8.2404	-2.0026	0.	125.44
3732	-7.9978	-1.7494	0.	124.98
3733	-7.9776	-2.2522	0.	125.19
3734	-8.2532	-0.99963	0.	125.42
3735	-8.0042	-1.2486	0.	124.96
3736	-8.004	-0.7489	0.	125.11
3737	-8.2513	1.8842e-004	0.	126.2
3738	-8.0024	-0.24943	0.	125.5
3739	-8.0012	0.25025	0.	126.24
3740	-7.7388	5.0031	0.	126.97
3741	-8.2413	5.0026	0.	127.76
3742	-7.9924	4.7526	0.	128.48
3743	-7.9872	5.253	0.	127.05
3744	-8.2338	6.0026	0.	125.69
3745	-7.9825	5.753	0.	125.78
3746	-7.979	6.2527	0.	125.06
3747	5.25	-8.	0.	126.27
3748	5.75	-8.	0.	126.74
3749	5.5	-8.25	0.	126.73
3750	4.75	-8.	0.	126.2
3751	5.	-8.25	0.	126.47
3752	4.25	-8.	0.	126.2
3753	4.5	-8.25	0.	126.37
3754	4.5	-7.75	0.	126.12
3755	3.75	-8.	0.	126.2
3756	4.	-8.25	0.	126.32
3757	3.25	-8.	0.	126.17
3758	3.5	-8.25	0.	126.26
3759	3.5	-7.75	0.	126.18
3760	3.	-8.25	0.	126.17
3761	3.	-7.75	0.	126.15
3762	2.7501	-8.	0.	126.09
3763	1.7504	-8.0002	0.	125.77
3764	2.0002	-7.7501	0.	125.92
3765	2.0003	-8.2501	0.	125.87
3766	2.2502	-8.	0.	125.96
3767	-0.2463	-8.0061	0.	124.54
3768	2.5283e-003	-8.2535	0.	124.75
3769	0.25221	-8.0031	0.	124.89
3770	-0.74381	-8.012	0.	124.25
3771	-0.49585	-8.2571	0.	124.46
3772	-1.2404	-8.0212	0.	124.05
3773	-0.99352	-8.2633	0.	124.24
3774	-0.9916	-7.7692	0.	123.96
3775	-1.7366	-8.0313	0.	124.
3776	-1.4906	-8.2722	0.	124.13
3777	-2.2338	-8.0351	0.	124.13
3778	-1.9882	-8.2793	0.	124.17
3779	-1.9797	-7.796	0.	123.8
3780	-2.7322	-8.0277	0.	124.45
3781	-2.4874	-8.2775	0.	124.37
3782	-2.4741	-7.7952	0.	124.03
3783	-2.9696	-7.7779	0.	124.49
3784	-3.232	-8.0102	0.	124.93
3785	-2.9874	-8.2664	0.	124.7
3786	-3.9938	-8.2267	0.	125.41
3787	-3.7354	-7.9864	0.	125.48
3788	-4.2431	-7.9595	0.	125.8
3789	-5.0078	-8.1868	0.	123.99
3790	-5.0116	-7.6544	0.	125.86
3791	-5.2626	-7.9219	0.	123.06
3792	-4.7538	-7.934	0.	125.18
3793	-6.0101	-8.23	0.	120.
3794	-6.0273	-7.7282	0.	117.86
3795	-6.2635	-8.0046	0.	120.01
3796	-5.7649	-7.9494	0.	120.37
3797	-7.7594	-8.0113	0.	127.42
3798	-7.2615	-8.0319	0.	125.67
3799	-7.5096	-8.2639	0.	126.31
3800	6.	-8.25	0.	127.6
3801	6.25	-8.	0.	128.08
3802	-8.0082	-8.2582	0.	127.37
3803	-8.2589	-8.0081	0.	127.92
3804	-8.013	-7.7613	0.	128.31
3805	8.2413	7.984	0.	123.41
3806	7.9908	8.2356	0.	123.33
3807	6.0099	3.9343	0.	132.44
3808	5.5359	3.9813	0.	128.05
3809	5.8418	4.2003	0.	127.96
3810	6.6661	3.6368	0.	131.17
3811	6.3994	3.4132	0.	129.99
3812	-4.852	-5.8377	0.	122.9
3813	-4.5721	-5.6421	0.	126.59
3814	-4.7254	-6.1251	0.	127.36
3815	-4.9108	-5.0895	0.	136.31
3816	-5.0964	-4.8039	0.	131.08
3817	-4.6487	-4.8962	0.	132.82
3818	-6.7408	-4.7179	0.	123.9
3819	-6.5059	-4.4837	0.	118.56
3820	-6.9921	-4.4807	0.	126.57
3821	-7.4073	-4.9919	0.	135.58
3822	-7.6517	-4.7805	0.	131.4
3823	-7.6104	-5.2475	0.	129.84
3824	6.75	-6.	0.	124.08
3825	7.	-6.25	0.	122.19
3826	6.5	-6.25	0.	128.15
3827	6.	-6.75	0.	127.67
3828	6.25	-6.5	0.	129.04
3829	6.25	-7.	0.	128.19
3830	-0.24389	-0.49847	0.	131.44
3831	5.0558e-003	-0.74837	0.	130.29
3832	-0.49231	-0.24878	0.	130.34
3833	-0.74103	3.2491e-004	0.	125.75
3834	-3.253	-4.4852e-003	0.	126.05
3835	-3.0019	-0.25291	0.	124.29
3836	-3.0012	0.24533	0.	123.22
3837	-3.5048	-0.25482	0.	130.64
3838	-4.0092	-0.75558	0.	129.98
3839	-3.757	-0.50549	0.	131.48
3840	-3.757	-1.0033	0.	130.55
3841	-3.7445	-3.4937	0.	132.45
3842	-3.9983	-3.2406	0.	130.81
3843	-2.9932	-3.7531	0.	124.54
3844	-3.2397	-3.9997	0.	126.54
3845	-0.76003	-4.0148	0.	125.47
3846	-1.0074	-3.7625	0.	123.86
3847	-1.0145	-4.2711	0.	122.6
3848	-0.50789	-3.7608	0.	130.2
3849	-4.0988e-003	-3.2555	0.	130.3
3850	-0.25564	-3.5076	0.	131.42
3851	-0.25241	-3.0042	0.	130.87
3852	0.63856	7.6909	0.	124.84
3853	0.91554	7.8661	0.	126.68
3854	-4.9922	4.2415	0.	128.82
3855	-5.2454	3.9953	0.	129.26
3856	-5.2403	4.4936	0.	129.4
3857	-5.9868	4.751	0.	121.18
3858	-5.7303	4.9994	0.	123.48
3859	-7.4908	4.7528	0.	128.17
3860	-7.2363	5.0033	0.	123.42
3861	-8.	1.7501	0.	129.48
3862	-8.25	2.0001	0.	128.86
3863	-7.75	2.0001	0.	129.89
3864	-7.9999	2.2502	0.	129.22
3865	-7.7501	1.5	0.	130.03
3866	-8.0002	1.2501	0.	128.88
3867	-8.2501	1.5001	0.	129.02
3868	-7.0004	1.2498	0.	121.65
3869	-7.2505	0.99984	0.	123.99
3870	-5.7515	0.99756	0.	124.58
3871	-6.0008	1.2487	0.	122.1
3872	-5.5013	1.2476	0.	129.18
3873	-5.2502	1.9983	0.	129.75
3874	-5.0007	1.7472	0.	129.51
3875	-2.0507	6.4846	0.	130.03
3876	-1.8036	6.713	0.	130.93
3877	-1.7759	6.2675	0.	130.34
3878	-7.1521	-7.0414	0.	130.16
3879	-6.9993	-6.7959	0.	132.26
3880	-6.8427	-7.1943	0.	127.31
3881	-7.0379	-7.4303	0.	128.08
3882	8.25	-6.	0.	123.93
3883	8.	-6.25	0.	122.17
3884	-5.7563	-8.4695	0.	121.28
3885	-6.0042	-8.7357	0.	121.2
3886	-6.2561	-8.4973	0.	121.22
3887	-5.2563	-8.4537	0.	122.6
3888	-5.5049	-8.716	0.	121.88
3889	-5.5111	-8.1888	0.	121.67
3890	-5.0047	-8.7113	0.	123.23
3891	-4.7543	-8.4569	0.	124.05
3892	-4.0008	-8.7333	0.	124.79
3893	-4.251	-8.4712	0.	124.85
3894	-3.7473	-8.4886	0.	125.03
3895	-0.74556	-8.5084	0.	124.45
3896	-0.99584	-8.7587	0.	124.44
3897	-1.2437	-8.5143	0.	124.32
3898	-0.24702	-8.5045	0.	124.67
3899	-0.49711	-8.7549	0.	124.61
3900	1.9285e-003	-8.7526	0.	124.84
3901	0.25196	-8.5024	0.	124.94
3902	3.	-8.75	0.	126.23
3903	3.25	-8.5	0.	126.25
3904	2.75	-8.5	0.	126.12
3905	4.25	-8.5	0.	126.48
3906	4.	-8.75	0.	126.54
3907	3.75	-8.5	0.	126.37
3908	4.75	-8.5	0.	126.63
3909	4.5	-8.75	0.	126.7
3910	5.25	-8.5	0.	126.93
3911	5.	-8.75	0.	126.91
3912	5.75	-8.5	0.	127.6
3913	5.5	-8.75	0.	127.24
3914	6.	-8.75	0.	127.76
3915	6.25	-8.5	0.	128.87
3916	-8.0064	-8.7567	0.	126.53
3917	-8.2569	-8.5066	0.	127.19
3918	-7.7584	-8.5109	0.	126.26
3919	-8.7578	-8.0062	0.	127.93
3920	-8.5076	-8.2565	0.	127.73
3921	-8.5122	-7.7596	0.	128.08
3922	-8.5056	-6.762	0.	127.28
3923	-8.7638	-7.0088	0.	127.52
3924	-8.2899	-7.0224	0.	128.24
3925	-8.5172	-7.2616	0.	128.
3926	-8.5002	-6.2632	0.	126.34
3927	-8.7472	-6.5095	0.	126.64
3928	-8.5209	-5.7654	0.	126.09
3929	-8.758	-6.0123	0.	125.97
3930	-8.5394	-5.2687	0.	126.84
3931	-8.7763	-5.5137	0.	126.2
3932	-8.7833	-5.0158	0.	127.06
3933	-8.5342	-4.7725	0.	127.82
3934	-8.7189	-4.0194	0.	127.82
3935	-8.4899	-4.2765	0.	128.2
3936	-8.4483	-3.7776	0.	127.8
3937	-8.4615	-2.7625	0.	126.4
3938	-8.711	-3.0131	0.	126.8
3939	-8.4459	-3.271	0.	127.05
3940	-8.1896	-3.0142	0.	126.31
3941	-8.48	-2.2572	0.	125.99
3942	-8.7258	-2.5087	0.	126.41
3943	-8.2172	-2.5068	0.	125.74
3944	-8.7395	-2.0053	0.	126.19
3945	-8.4936	-1.7536	0.	125.81
3946	-8.7509	-1.0011	0.	126.22
3947	-8.5017	-0.75037	0.	125.99
3948	-8.5	-1.2514	0.	125.81
3949	-8.7507	-1.0202e-004	0.	126.89
3950	-8.5013	-0.25003	0.	126.38
3951	-8.5007	0.25005	0.	127.
3952	-8.7501	1.	0.	127.99
3953	-8.2502	1.0001	0.	128.21
3954	-8.5003	0.75005	0.	127.76
3955	-8.5001	1.2501	0.	128.34
3956	-8.75	2.0001	0.	127.92
3957	-8.4999	2.2502	0.	128.08
3958	-8.5	1.7501	0.	128.4
3959	-8.7495	3.0006	0.	127.35
3960	-8.4992	3.2508	0.	127.73
3961	-8.2496	3.0006	0.	128.55
3962	-8.4997	2.7505	0.	127.81
3963	-8.4984	3.7512	0.	127.85
3964	-8.2477	4.0015	0.	128.56
3965	-8.7481	4.0013	0.	127.61
3966	-8.4966	4.2517	0.	128.05
3967	-8.7436	5.002	0.	127.5
3968	-8.4906	5.2523	0.	127.27
3969	-8.4939	4.7521	0.	127.92
3970	-8.7392	6.0018	0.	126.27
3971	-8.4878	5.7522	0.	126.47
3972	-8.4855	6.2519	0.	125.82
3973	-8.7386	7.0007	0.	125.46
3974	-8.2314	7.0012	0.	124.93
3975	-8.4854	7.2506	0.	125.15
3976	-8.4849	6.7513	0.	125.39
3977	-8.2347	8.4991	0.	124.81
3978	-7.9843	8.7488	0.	124.72
3979	-7.98	8.2492	0.	124.66
3980	-7.7276	8.4986	0.	124.57
3981	-6.7099	8.4974	0.	124.18
3982	-6.9707	8.7477	0.	124.38
3983	-7.2195	8.498	0.	124.35
3984	-6.1991	8.4968	0.	124.06
3985	-6.4616	8.7473	0.	124.27
3986	-5.6867	8.4964	0.	123.99
3987	-5.9532	8.7468	0.	124.22
3988	-5.9348	8.2466	0.	123.82
3989	-5.1734	8.496	0.	123.95
3990	-5.4174	8.2449	0.	123.78
3991	-5.4416	8.7465	0.	124.2
3992	-4.9324	8.7465	0.	124.2
3993	-4.8991	8.2412	0.	123.75
3994	-4.6619	8.4969	0.	123.93
3995	-3.6486	8.5227	0.	124.3
3996	-3.9207	8.7613	0.	124.41
3997	-4.1536	8.5051	0.	123.98
3998	-3.1459	8.5434	0.	125.35
3999	-3.4176	8.7778	0.	124.97
4000	-3.3681	8.2877	0.	124.19
4001	-2.368	8.3361	0.	128.46
4002	-2.0969	8.1127	0.	126.94
4003	-2.5856	8.0868	0.	125.89
4004	-2.293	7.8641	0.	126.14
4005	-2.647	8.5632	0.	127.85
4006	-2.9172	8.7945	0.	126.43
4007	-2.8646	8.3139	0.	125.26
4008	-2.1539	8.5823	0.	135.08
4009	-2.4192	8.81	0.	129.66
4010	0.78183	8.5675	0.	133.31
4011	0.53739	8.8001	0.	133.38
4012	0.32648	8.4982	0.	135.86
4013	0.54133	8.3735	0.	137.31
4014	1.2515	8.5435	0.	128.6
4015	1.0138	8.7953	0.	130.1
4016	0.99201	8.3273	0.	128.56
4017	1.7331	8.516	0.	125.91
4018	1.4965	8.7734	0.	127.01
4019	2.2238	8.4985	0.	124.95
4020	1.9856	8.7545	0.	125.6
4021	1.9548	8.251	0.	124.69
4022	2.72	8.4926	0.	124.76
4023	2.4796	8.7455	0.	125.13
4024	3.2194	8.4934	0.	124.9
4025	2.9777	8.7438	0.	125.11
4026	3.7201	8.4962	0.	125.14
4027	3.4771	8.7456	0.	125.24
4028	3.4555	8.2449	0.	124.89
4029	4.2218	8.4985	0.	125.36
4030	3.9779	8.7477	0.	125.39
4031	3.9593	8.2487	0.	125.22
4032	4.7238	8.4989	0.	125.49
4033	4.4782	8.7489	0.	125.5
4034	4.4626	8.2505	0.	125.49
4035	5.2279	8.497	0.	125.48
4036	4.9806	8.7482	0.	125.5
4037	5.4844	8.7457	0.	125.36
4038	5.7329	8.4928	0.	125.25
4039	6.7372	8.4827	0.	124.25
4040	6.2357	8.4874	0.	124.81
4041	6.4824	8.2277	0.	124.52
4042	6.4898	8.738	0.	124.61
4043	8.4954	7.7266	0.	123.7
4044	8.493	8.2369	0.	124.04
4045	8.7441	7.9891	0.	124.48
4046	7.7405	8.4858	0.	123.65
4047	8.2425	8.4885	0.	123.95
4048	7.993	8.7392	0.	123.94
4049	7.2384	8.4826	0.	123.78
4050	6.9903	8.7353	0.	124.14
4051	7.4914	8.7371	0.	123.87
4052	-0.34138	5.9508	0.	118.76
4053	-5.3043e-002	6.0974	0.	123.98
4054	0.11177	5.8524	0.	124.46
4055	-5.7897	-7.4139	0.	119.16
4056	-5.5613	-7.0618	0.	124.26
4057	-5.2763	-7.3676	0.	124.49
4058	-5.5273	-7.635	0.	121.7
4059	8.5126	7.1937	0.	123.82
4060	8.7491	7.4849	0.	124.47
4061	8.4487	6.6655	0.	124.23
4062	8.2589	6.9556	0.	122.37
4063	8.7467	6.7714	0.	125.63
4064	8.7755	6.979	0.	125.12
4065	8.581	6.3108	0.	126.45
4066	8.3157	6.1856	0.	126.82
4067	8.1417	6.4707	0.	121.59
4068	8.7273	5.9736	0.	129.17
4069	8.879	6.4166	0.	127.86
4070	8.9919	6.1255	0.	128.76
4071	8.5295	3.1607	0.	124.84
4072	8.7723	3.4305	0.	129.66
4073	8.2882	3.3784	0.	120.94
4074	8.5207	3.6169	0.	131.47
4075	8.5264	2.6848	0.	123.24
4076	8.7735	2.9434	0.	125.83
4077	8.5207	2.2017	0.	122.93
4078	8.7695	2.4565	0.	124.43
4079	8.5148	1.715	0.	123.19
4080	8.7648	1.9672	0.	124.08
4081	8.5097	1.2258	0.	123.56
4082	8.76	1.4766	0.	124.13
4083	8.5062	0.73359	0.	123.89
4084	8.7567	0.98359	0.	124.26
4085	8.5037	0.23934	0.	124.12
4086	8.754	0.48929	0.	124.36
4087	8.5021	-0.25666	0.	124.28
4088	8.7523	-6.6655e-003	0.	124.43
4089	8.5012	-0.75402	0.	124.37
4090	8.7514	-0.50418	0.	124.47
4091	8.5007	-1.2523	0.	124.41
4092	8.7507	-1.0024	0.	124.48
4093	8.5004	-1.7513	0.	124.42
4094	8.7504	-1.5014	0.	124.48
4095	8.5002	-2.2507	0.	124.41
4096	8.7502	-2.0008	0.	124.47
4097	8.2503	-2.0012	0.	124.38
4098	8.5001	-2.7504	0.	124.38
4099	8.7501	-2.5004	0.	124.46
4100	8.5001	-3.2502	0.	124.32
4101	8.7501	-3.0002	0.	124.45
4102	8.5	-3.7501	0.	124.25
4103	8.75	-3.5001	0.	124.44
4104	8.5	-4.2501	0.	124.17
4105	8.75	-4.0001	0.	124.44
4106	8.5	-4.75	0.	124.15
4107	8.75	-4.5	0.	124.48
4108	8.75	-5.	0.	124.66
4109	8.5	-5.25	0.	124.38
4110	8.5	-6.25	0.	128.03
4111	8.5	-5.75	0.	125.35
4112	8.75	-6.	0.	126.62
4113	-8.7401	8.4993	0.	125.03
4114	-8.4892	8.7492	0.	124.92
4115	-8.4869	8.2495	0.	124.95
4116	8.4945	8.7416	0.	124.35
4117	8.7445	8.492	0.	124.61
4118	-6.287	-7.5267	0.	117.9
4119	-6.574	-7.3615	0.	122.21
4120	-6.5232	-7.8031	0.	120.1
4121	-6.7692	-7.5975	0.	122.94
4122	8.75	-7.5	0.	127.64
4123	9.25	-7.5	0.	126.01
4124	9.	-7.75	0.	126.75
4125	9.	-7.25	0.	126.68
4126	8.75	-6.5	0.	128.96
4127	9.25	-6.5	0.	127.33
4128	9.	-6.25	0.	127.55
4129	9.	-6.75	0.	127.66
4130	9.	-5.25	0.	125.51
4131	9.	-4.75	0.	124.99
4132	9.25	-5.	0.	125.48
4133	9.25	-5.5	0.	126.07
4134	8.75	-5.5	0.	125.22
4135	9.	-5.75	0.	126.49
4136	9.	-4.25	0.	124.74
4137	9.	-3.7501	0.	124.63
4138	9.25	-4.	0.	124.87
4139	9.25	-4.5	0.	125.11
4140	9.25	-3.5001	0.	124.71
4141	9.	-3.2501	0.	124.57
4142	9.2501	-2.5002	0.	124.55
4143	9.0001	-2.2505	0.	124.52
4144	9.0001	-2.7502	0.	124.53
4145	9.0005	-1.2515	0.	124.54
4146	9.0009	-0.75256	0.	124.57
4147	9.2505	-1.0014	0.	124.59
4148	9.2503	-1.5008	0.	124.54
4149	9.0003	-1.7509	0.	124.52
4150	9.0016	-0.25419	0.	124.62
4151	9.0027	0.24329	0.	124.67
4152	9.2516	-3.8545e-003	0.	124.83
4153	9.2509	-0.50248	0.	124.69
4154	9.2526	0.49384	0.	125.03
4155	9.0045	0.73929	0.	124.73
4156	9.01	1.7288	0.	125.02
4157	9.0135	2.2221	0.	125.58
4158	9.2589	1.9822	0.	126.2
4159	9.2563	1.4866	0.	125.65
4160	9.0069	1.2344	0.	124.82
4161	9.2614	2.4774	0.	127.12
4162	9.0166	2.7152	0.	127.02
4163	9.006	3.7311	0.	134.45
4164	9.2603	3.4771	0.	131.87
4165	9.0163	3.2133	0.	130.71
4166	9.0535	4.257	0.	132.02
4167	8.9389	4.4533	0.	126.99
4168	9.3203	4.5114	0.	127.15
4169	9.0569	4.7784	0.	129.03
4170	9.3159	5.5397	0.	128.55
4171	8.8757	5.6545	0.	129.6
4172	9.0461	5.3056	0.	129.57
4173	9.1403	5.8065	0.	129.2
4174	8.9978	7.7474	0.	125.24
4175	9.2506	7.5014	0.	126.16
4176	9.012	7.2702	0.	125.77
4177	-6.0784	-7.2507	0.	111.18
4178	-0.48066	6.2669	0.	117.14
4179	-0.79551	6.0747	0.	115.75
4180	-8.2546	-9.0045	0.	126.62
4181	-8.7533	-9.0027	0.	127.39
4182	-8.503	-9.2526	0.	126.92
4183	-8.5051	-8.7544	0.	127.28
4184	-8.9919	8.2496	0.	125.2
4185	-8.9932	8.7494	0.	125.09
4186	-9.2444	8.4995	0.	125.21
4187	8.2449	8.9923	0.	124.33
4188	8.7461	8.9945	0.	124.71
4189	8.4965	9.2449	0.	124.53
4190	9.247	7.9965	0.	125.69
4191	8.9956	8.2442	0.	125.04
4192	7.7439	8.9905	0.	124.16
4193	7.2433	8.9898	0.	124.23
4194	7.4952	9.2423	0.	124.27
4195	7.9957	9.2433	0.	124.31
4196	6.9951	9.2427	0.	124.42
4197	6.7429	8.9906	0.	124.5
4198	5.9945	9.2462	0.	125.02
4199	5.7399	8.9953	0.	125.17
4200	5.9885	8.7424	0.	125.05
4201	6.2425	8.993	0.	124.85
4202	4.9907	9.2484	0.	125.5
4203	5.237	8.9969	0.	125.39
4204	4.735	8.9982	0.	125.51
4205	3.9897	9.2483	0.	125.72
4206	4.2343	8.9982	0.	125.53
4207	3.7349	8.9972	0.	125.5
4208	2.9907	9.2469	0.	125.84
4209	2.7373	8.9968	0.	125.49
4210	3.2354	8.9961	0.	125.45
4211	1.7489	9.012	0.	126.71
4212	1.2588	9.0253	0.	128.51
4213	1.5036	9.264	0.	127.3
4214	1.9973	9.2544	0.	126.42
4215	2.2414	9.0016	0.	125.8
4216	0.76937	9.0279	0.	130.16
4217	0.28187	9.0004	0.	128.55
4218	0.51811	9.2664	0.	128.75
4219	1.0108	9.2729	0.	128.58
4220	2.8707e-002	9.2365	0.	125.42
4221	7.0963e-002	8.6985	0.	131.21
4222	-0.20433	8.9849	0.	122.28
4223	-1.1941	9.04	0.	120.78
4224	-1.6931	9.0543	0.	128.68
4225	-1.4307	8.8258	0.	127.33
4226	-1.4575	9.2883	0.	124.89
4227	-0.93271	8.7884	0.	112.19
4228	-0.95836	9.27	0.	118.53
4229	-0.69621	9.01	0.	116.89
4230	-1.9258	8.8238	0.	136.17
4231	-1.9571	9.291	0.	129.36
4232	-2.1911	9.0516	0.	130.76
4233	-2.9557	9.2764	0.	126.71
4234	-2.6894	9.0413	0.	128.26
4235	-3.1889	9.0288	0.	126.05
4236	-4.192	9.0056	0.	124.68
4237	-4.4586	9.251	0.	124.93
4238	-4.6954	8.9991	0.	124.52
4239	-4.4249	8.7495	0.	124.24
4240	-3.957	9.258	0.	125.21
4241	-3.6897	9.0163	0.	125.09
4242	-5.9708	9.2474	0.	124.57
4243	-5.7081	8.9968	0.	124.43
4244	-6.2157	8.9972	0.	124.43
4245	-6.982	9.2481	0.	124.59
4246	-6.7223	8.9976	0.	124.47
4247	-7.2285	8.9979	0.	124.56
4248	-8.2388	8.9989	0.	124.83
4249	-8.7423	8.9992	0.	124.97
4250	-8.4927	9.2492	0.	124.89
4251	-7.99	9.2489	0.	124.77
4252	-7.7341	8.9984	0.	124.69
4253	-9.2437	7.9998	0.	125.37
4254	-8.7387	7.9997	0.	125.12
4255	-8.9913	7.7499	0.	125.36
4256	-9.2437	7.0004	0.	125.87
4257	-8.9914	6.7508	0.	125.85
4258	-8.9913	7.2503	0.	125.57
4259	-9.2439	6.0011	0.	126.57
4260	-8.9922	5.7516	0.	126.69
4261	-8.9914	6.2513	0.	126.23
4262	-9.25	2.0001	0.	127.3
4263	-9.	1.7501	0.	127.72
4264	-8.9999	2.2502	0.	127.38
4265	-9.2501	0.99999	0.	127.74
4266	-9.0002	0.74997	0.	127.68
4267	-9.0001	1.25	0.	127.85
4268	-9.2503	-2.451e-004	0.	127.34
4269	-9.0006	-0.25045	0.	126.98
4270	-9.0003	0.24985	0.	127.34
4271	-8.9986	-1.2523	0.	126.54
4272	-8.9937	-1.7543	0.	126.51
4273	-9.2475	-1.5026	0.	126.79
4274	-8.7477	-1.5026	0.	126.13
4275	-9.2499	-1.0014	0.	126.89
4276	-9.0004	-0.7511	0.	126.7
4277	-8.9854	-2.2568	0.	126.6
4278	-8.9753	-2.7593	0.	126.81
4279	-9.2352	-2.5063	0.	126.89
4280	-9.2425	-2.0045	0.	126.79
4281	-9.2282	-3.0077	0.	127.05
4282	-8.9687	-3.2617	0.	127.11
4283	-9.237	-4.0064	0.	127.22
4284	-8.9742	-3.7614	0.	127.37
4285	-8.9946	-4.26	0.	127.37
4286	-9.0202	-5.2608	0.	126.42
4287	-9.0134	-5.7607	0.	126.07
4288	-9.2636	-5.5081	0.	125.93
4289	-9.2651	-5.0078	0.	126.42
4290	-9.0148	-4.7604	0.	127.
4291	-9.0051	-6.2586	0.	126.27
4292	-9.0054	-6.7563	0.	126.87
4293	-9.2524	-6.5049	0.	126.32
4294	-9.2563	-6.0079	0.	125.87
4295	-9.2562	-7.0043	0.	127.
4296	-9.0088	-7.2561	0.	127.47
4297	-9.2549	-8.0037	0.	127.92
4298	-9.0055	-8.2544	0.	127.87
4299	-9.0078	-7.7556	0.	127.81
4300	-7.7556	-9.0074	0.	125.56
4301	-7.2557	-9.0101	0.	124.19
4302	-7.5043	-9.2567	0.	124.77
4303	-7.5075	-8.7615	0.	125.29
4304	-8.0038	-9.2543	0.	125.98
4305	-7.0038	-9.2578	0.	123.39
4306	-6.7542	-9.0071	0.	122.77
4307	-7.0072	-8.7671	0.	123.56
4308	-5.7528	-8.9822	0.	121.79
4309	-5.2533	-8.9737	0.	122.51
4310	-5.502	-9.2324	0.	122.09
4311	-6.0016	-9.2415	0.	121.75
4312	-6.2528	-8.9959	0.	121.84
4313	-5.0027	-9.2293	0.	122.93
4314	-4.7531	-8.9742	0.	123.48
4315	-4.0022	-9.2401	0.	124.35
4316	-4.2525	-8.9818	0.	124.23
4317	-3.7513	-8.9919	0.	124.61
4318	-2.9996	-9.2541	0.	124.67
4319	-2.996	-8.7588	0.	124.72
4320	-3.2495	-9.0014	0.	124.71
4321	-2.7479	-9.0086	0.	124.65
4322	-1.9974	-9.2593	0.	124.55
4323	-1.9939	-8.7677	0.	124.41
4324	-1.7462	-9.0115	0.	124.49
4325	-2.2466	-9.0121	0.	124.55
4326	-0.74738	-9.0052	0.	124.6
4327	-0.24816	-9.0029	0.	124.77
4328	-0.49837	-9.2529	0.	124.71
4329	-0.99776	-9.2549	0.	124.58
4330	-1.2465	-9.0084	0.	124.5
4331	1.1265e-003	-9.2516	0.	124.9
4332	0.25127	-9.0016	0.	124.99
4333	1.0004	-9.2503	0.	125.38
4334	0.75077	-9.0008	0.	125.24
4335	1.2504	-9.0003	0.	125.5
4336	1.0008	-8.7507	0.	125.37
4337	3.	-9.25	0.	126.3
4338	3.25	-9.	0.	126.36
4339	2.75	-9.	0.	126.17
4340	4.25	-9.	0.	126.75
4341	4.75	-9.	0.	126.98
4342	4.5	-9.25	0.	126.95
4343	4.	-9.25	0.	126.73
4344	3.75	-9.	0.	126.56
4345	5.25	-9.	0.	127.22
4346	5.75	-9.	0.	127.4
4347	5.5	-9.25	0.	127.25
4348	5.	-9.25	0.	127.16
4349	6.25	-9.	0.	126.7
4350	6.75	-9.	0.	123.56
4351	6.5	-8.75	0.	127.83
4352	6.5	-9.25	0.	125.2
4353	6.	-9.25	0.	126.94
4354	7.	-8.75	0.	121.67
4355	7.	-9.25	0.	121.36
4356	7.25	-9.	0.	119.54
4357	8.	-8.75	0.	121.55
4358	8.	-9.25	0.	121.23
4359	8.25	-9.	0.	123.43
4360	7.75	-9.	0.	119.48
4361	-6.69	-6.9488	0.	129.31
4362	-6.3653	-7.0855	0.	115.11
4363	-1.5288	6.4959	0.	131.18
4364	-1.2789	6.1968	0.	123.6
4365	-5.7506	1.4987	0.	126.68
4366	-5.5004	1.7485	0.	130.61
4367	-5.2509	1.4975	0.	130.38
4368	-7.2502	1.4999	0.	126.23
4369	-7.5001	1.75	0.	130.41
4370	-7.5003	1.25	0.	128.59
4371	-7.4962	4.2518	0.	130.05
4372	-7.244	4.5022	0.	125.83
4373	-7.7444	4.5023	0.	129.65
4374	-5.7414	4.4988	0.	125.68
4375	-5.4936	4.2474	0.	129.81
4376	-5.485	4.7472	0.	128.01
4377	-1.8828	8.3588	0.	133.33
4378	-1.6634	8.5953	0.	134.32
4379	-0.75523	-3.5085	0.	128.53
4380	-0.50395	-3.2563	0.	131.95
4381	-3.2448	-3.4985	0.	129.4
4382	-3.4974	-3.2457	0.	132.71
4383	-3.4913	-3.7451	0.	131.44
4384	-3.5048	-0.75324	0.	132.
4385	-3.2537	-0.50324	0.	128.82
4386	-0.74501	-0.49956	0.	128.72
4387	-0.49601	-0.74913	0.	131.95
4388	6.75	-6.5	0.	126.23
4389	6.5	-6.75	0.	129.53
4390	8.25	-6.5	0.	126.24
4391	8.5	-6.75	0.	129.59
4392	8.5	-8.25	0.	129.51
4393	8.25	-8.5	0.	125.87
4394	8.5	-8.75	0.	127.79
4395	8.75	-8.5	0.	128.97
4396	6.75	-8.5	0.	125.9
4397	6.5	-8.25	0.	129.31
4398	-7.1618	-5.2088	0.	132.95
4399	-6.9574	-4.9691	0.	132.05
4400	-7.2086	-4.7318	0.	135.03
4401	-5.0096	-5.5559	0.	128.99
4402	-4.7297	-5.3604	0.	133.03
4403	-5.1675	-5.2665	0.	136.19
4404	6.471	3.8932	0.	134.88
4405	6.3048	4.1434	0.	128.63
4406	6.2042	3.6695	0.	133.93
4407	8.8826	4.1939	0.	130.58
4408	9.2529	3.9968	0.	132.03
4409	8.7544	3.9175	0.	135.6
4410	9.	-9.25	0.	126.86
4411	9.25	-9.	0.	127.46
4412	8.75	-9.	0.	126.61
4413	9.	-8.75	0.	127.8
4414	-9.002	-9.2515	0.	127.68
4415	-9.2521	-9.0015	0.	128.07
4416	-9.0036	-8.7529	0.	127.79
4417	-9.2455	8.9995	0.	125.08
4418	-8.9954	9.2494	0.	125.
4419	8.9975	9.2467	0.	124.88
4420	9.2475	8.9968	0.	125.16
4421	8.9962	8.745	0.	124.97
4422	8.0486	6.0324	0.	120.54
4423	7.59	6.0978	0.	115.51
4424	7.8745	6.3175	0.	115.33
4425	-6.2504	1.4993	0.	116.33
4426	-6.7502	1.4997	0.	116.09
4427	-7.5	2.2501	0.	131.43
4428	-7.4999	2.7502	0.	133.41
4429	-7.7499	2.5002	0.	130.77
4430	-7.4996	3.2504	0.	133.4
4431	-7.7497	3.0004	0.	131.83
4432	-7.4988	3.7509	0.	131.24
4433	-7.7479	4.0014	0.	129.56
4434	-7.7492	3.5008	0.	130.68
4435	-6.7432	4.5018	0.	115.59
4436	-6.9895	4.7527	0.	121.11
4437	-6.2423	4.501	0.	115.59
4438	-5.4973	3.748	0.	130.88
4439	-5.4987	3.2486	0.	132.98
4440	-5.4994	2.749	0.	133.21
4441	-5.4999	2.2489	0.	131.37
4442	-1.5793	6.9497	0.	130.84
4443	-1.6881	7.4191	0.	133.59
4444	-1.8026	7.8905	0.	132.01
4445	-1.9986	7.6419	0.	131.37
4446	-1.1693	8.5741	0.	118.37
4447	-0.67193	8.5159	0.	110.91
4448	-0.16014	8.4512	0.	124.78
4449	-0.43543	8.7376	0.	115.9
4450	0.3028	7.5334	0.	132.59
4451	0.47453	7.9581	0.	130.44
4452	-0.25022	6.7079	0.	121.61
4453	-0.19233	6.4135	0.	122.35
4454	4.4949e-002	7.1173	0.	133.36
4455	-1.2538	-3.5087	0.	119.39
4456	-1.7515	-3.5086	0.	113.86
4457	-2.2489	-3.507	0.	113.98
4458	-2.7463	-3.5037	0.	119.82
4459	-3.5016	-2.7463	0.	132.93
4460	-3.7511	-2.9926	0.	131.12
4461	-3.5031	-2.2477	0.	134.46
4462	-3.5034	-1.7494	0.	134.28
4463	-3.504	-1.2513	0.	132.47
4464	-2.7512	-0.50201	0.	119.55
4465	-2.2493	-0.50165	0.	113.84
4466	-1.7477	-0.50132	0.	113.81
4467	-1.2463	-0.50067	0.	119.52
4468	-0.99373	-0.25046	0.	124.2
4469	-1.4958	-0.25192	0.	115.65
4470	-0.49834	-1.2496	0.	132.67
4471	-0.24707	-0.99903	0.	130.83
4472	-0.50132	-2.7529	0.	132.71
4473	-0.50017	-2.2511	0.	134.57
4474	-0.49945	-1.7502	0.	134.55
4475	7.25	-6.5	0.	117.32
4476	7.75	-6.5	0.	117.34
4477	8.5	-7.25	0.	129.25
4478	8.75	-7.	0.	128.32
4479	8.5	-7.75	0.	129.26
4480	8.75	-8.	0.	128.39
4481	7.75	-8.5	0.	116.86
4482	7.25	-8.5	0.	116.93
4483	7.5	-8.75	0.	114.88
4484	6.5	-7.25	0.	129.07
4485	6.5	-7.75	0.	128.99
4486	-6.0512	-5.0641	0.	108.96
4487	-5.6054	-5.1624	0.	123.42
4488	-5.8063	-4.865	0.	114.65
4489	-6.5037	-4.9915	0.	115.41
4490	-6.2687	-4.7573	0.	110.3
4491	-6.8422	-6.5417	0.	131.51
4492	-7.0927	-5.6719	0.	131.57
4493	-7.3649	-5.4644	0.	127.49
4494	-6.982	-6.1166	0.	133.
4495	-7.2829	-5.9263	0.	131.
4496	-5.1808	-6.0263	0.	130.37
4497	-5.4381	-6.5174	0.	133.89
4498	-5.85	-6.8987	0.	116.25
4499	-5.0542	-6.3138	0.	134.94
4500	6.9212	3.8601	0.	124.81
4501	7.3675	3.8305	0.	114.25
4502	7.8171	3.8104	0.	111.62
4503	8.0451	3.5821	0.	112.89
4504	8.2776	3.8206	0.	123.37
4505	8.2045	5.764	0.	125.08
4506	8.4621	5.8484	0.	129.48
4507	8.3259	5.4084	0.	124.72
4508	8.5652	5.0145	0.	134.3
4509	8.5835	5.4928	0.	128.99
4510	8.7539	5.1439	0.	128.95
4511	8.6973	4.5859	0.	132.92
4512	8.8152	4.911	0.	134.98
4513	8.75	-9.5	0.	125.26
4514	9.25	-9.5	0.	126.89
4515	8.25	-9.5	0.	122.83
4516	8.5	-9.25	0.	125.02
4517	7.75	-9.5	0.	120.74
4518	7.25	-9.5	0.	120.82
4519	7.5	-9.25	0.	119.01
4520	6.75	-9.5	0.	123.01
4521	6.25	-9.5	0.	125.43
4522	5.75	-9.5	0.	126.79
4523	5.25	-9.5	0.	127.18
4524	4.75	-9.5	0.	127.13
4525	4.25	-9.5	0.	126.93
4526	3.75	-9.5	0.	126.69
4527	3.25	-9.5	0.	126.45
4528	3.5	-9.25	0.	126.51
4529	2.75	-9.5	0.	126.22
4530	2.25	-9.5	0.	125.98
4531	2.5	-9.25	0.	126.09
4532	1.7501	-9.5001	0.	125.75
4533	2.0001	-9.25	0.	125.86
4534	1.2502	-9.5002	0.	125.5
4535	1.5002	-9.2502	0.	125.62
4536	0.75034	-9.5004	0.	125.26
4537	0.25059	-9.5008	0.	125.03
4538	0.50073	-9.2508	0.	125.13
4539	-0.24909	-9.5015	0.	124.84
4540	-0.74875	-9.5025	0.	124.69
4541	-1.2485	-9.5038	0.	124.61
4542	-1.7485	-9.5052	0.	124.59
4543	-1.4973	-9.2573	0.	124.53
4544	-2.249	-9.5054	0.	124.61
4545	-2.7499	-9.5036	0.	124.63
4546	-2.4982	-9.2582	0.	124.61
4547	-3.2508	-9.5003	0.	124.58
4548	-3.7517	-9.4958	0.	124.35
4549	-3.5008	-9.2476	0.	124.62
4550	-4.2521	-9.4914	0.	123.9
4551	-4.752	-9.4882	0.	123.22
4552	-4.5024	-9.233	0.	123.78
4553	-5.2514	-9.4881	0.	122.51
4554	-5.7508	-9.4917	0.	122.05
4555	-6.2509	-9.4977	0.	122.15
4556	-6.7516	-9.5027	0.	122.86
4557	-6.5021	-9.252	0.	122.23
4558	-7.2524	-9.5043	0.	123.98
4559	-7.7526	-9.5036	0.	125.2
4560	-8.2522	-9.5024	0.	126.29
4561	-8.7516	-9.5014	0.	127.21
4562	-9.251	-9.5008	0.	128.05
4563	-9.501	-9.2507	0.	128.44
4564	-9.5019	-8.7514	0.	128.33
4565	-9.5028	-8.2522	0.	128.09
4566	-9.2535	-8.5029	0.	128.05
4567	-9.5037	-7.7526	0.	127.69
4568	-9.504	-7.2526	0.	127.11
4569	-9.2566	-7.5044	0.	127.58
4570	-9.5032	-6.7529	0.	126.45
4571	-9.5036	-6.2542	0.	125.92
4572	-9.5065	-5.7553	0.	125.72
4573	-9.5084	-5.2551	0.	125.92
4574	-9.5057	-4.7538	0.	126.36
4575	-9.4978	-4.2529	0.	126.79
4576	-9.2554	-4.5065	0.	126.94
4577	-9.4898	-3.7534	0.	127.05
4578	-9.4865	-3.2544	0.	127.14
4579	-9.227	-3.5084	0.	127.2
4580	-9.4881	-2.7547	0.	127.12
4581	-9.4923	-2.2539	0.	127.08
4582	-9.4963	-1.7528	0.	127.08
4583	-9.4988	-1.2517	0.	127.14
4584	-9.4999	-0.75093	0.	127.28
4585	-9.5002	-0.25043	0.	127.45
4586	-9.2504	-0.50064	0.	127.08
4587	-9.5001	0.24983	0.	127.6
4588	-9.5001	0.74995	0.	127.65
4589	-9.2502	0.49992	0.	127.6
4590	-9.5	1.25	0.	127.52
4591	-9.5	1.7501	0.	127.21
4592	-9.25	1.5	0.	127.63
4593	-9.4999	2.2501	0.	126.83
4594	-9.4999	2.7502	0.	126.54
4595	-9.2499	2.5003	0.	126.92
4596	-9.4997	3.2504	0.	126.46
4597	-9.2497	3.0004	0.	126.71
4598	-9.4993	3.7506	0.	126.59
4599	-9.2493	3.5007	0.	126.75
4600	-9.4987	4.2507	0.	126.82
4601	-9.2487	4.0009	0.	126.98
4602	-9.498	4.7508	0.	126.99
4603	-9.2476	4.5011	0.	127.19
4604	-9.4972	5.2509	0.	127.
4605	-9.2462	5.0012	0.	127.18
4606	-9.4965	5.7508	0.	126.83
4607	-9.2449	5.5012	0.	126.94
4608	-9.4961	6.2506	0.	126.54
4609	-9.496	6.7504	0.	126.21
4610	-9.2436	6.5008	0.	126.2
4611	-9.496	7.2502	0.	125.89
4612	-9.496	7.75	0.	125.61
4613	-9.2436	7.5001	0.	125.59
4614	-9.4961	8.2498	0.	125.38
4615	-9.4967	8.7496	0.	125.2
4616	-9.4978	9.2496	0.	125.07
4617	-9.2477	9.4996	0.	124.99
4618	-8.7459	9.4994	0.	124.92
4619	-8.244	9.4992	0.	124.83
4620	-7.7418	9.499	0.	124.75
4621	-7.2393	9.4987	0.	124.69
4622	-7.4859	9.2485	0.	124.66
4623	-6.7364	9.4983	0.	124.67
4624	-6.2318	9.498	0.	124.7
4625	-6.4767	9.2478	0.	124.55
4626	-5.7283	9.498	0.	124.79
4627	-5.2263	9.4982	0.	124.94
4628	-5.4656	9.2474	0.	124.64
4629	-4.7245	9.4997	0.	125.16
4630	-4.9613	9.2478	0.	124.76
4631	-4.2235	9.5034	0.	125.46
4632	-3.7229	9.5086	0.	125.85
4633	-3.2224	9.5145	0.	126.39
4634	-3.4556	9.2669	0.	125.73
4635	-2.7221	9.5202	0.	127.01
4636	-2.2219	9.5245	0.	127.1
4637	-2.4559	9.2851	0.	128.56
4638	-1.7215	9.5249	0.	125.56
4639	-0.72384	9.5059	0.	121.07
4640	-1.2218	9.5182	0.	122.61
4641	-0.22866	9.4975	0.	122.85
4642	-0.46169	9.2459	0.	119.7
4643	0.26494	9.5025	0.	125.63
4644	0.75956	9.5115	0.	127.13
4645	1.2556	9.5116	0.	127.36
4646	1.7519	9.5064	0.	127.01
4647	2.2486	9.5016	0.	126.64
4648	2.7461	9.4989	0.	126.37
4649	2.4927	9.2488	0.	126.01
4650	3.2447	9.4983	0.	126.17
4651	3.7442	9.4985	0.	126.
4652	3.4894	9.2474	0.	125.77
4653	4.2441	9.499	0.	125.83
4654	4.7444	9.499	0.	125.63
4655	4.4887	9.2488	0.	125.64
4656	5.2451	9.4986	0.	125.41
4657	5.7461	9.4979	0.	125.15
4658	5.4915	9.2471	0.	125.29
4659	6.2468	9.4971	0.	124.87
4660	6.747	9.496	0.	124.63
4661	6.4948	9.2439	0.	124.7
4662	7.247	9.4951	0.	124.46
4663	7.747	9.495	0.	124.42
4664	8.2473	9.4959	0.	124.51
4665	8.7479	9.4971	0.	124.71
4666	9.2486	9.4983	0.	124.95
4667	9.4986	9.2483	0.	125.23
4668	9.498	8.7478	0.	125.58
4669	9.4981	8.2483	0.	126.04
4670	9.2467	8.496	0.	125.39
4671	9.4998	7.7506	0.	126.61
4672	9.5009	7.2509	0.	127.28
4673	9.4789	6.7346	0.	127.97
4674	9.2623	7.0197	0.	126.89
4675	9.5184	6.2257	0.	128.33
4676	9.2118	6.5469	0.	127.74
4677	9.3248	6.2558	0.	128.64
4678	9.5615	5.7453	0.	128.01
4679	9.3859	6.0121	0.	128.67
4680	9.5307	5.2612	0.	127.15
4681	9.5243	4.7601	0.	126.25
4682	9.2609	5.0271	0.	128.18
4683	9.5196	4.2512	0.	127.06
4684	9.5071	3.7428	0.	129.32
4685	9.5069	3.2376	0.	129.99
4686	9.5077	2.7361	0.	128.92
4687	9.2629	2.9739	0.	128.81
4688	9.5067	2.2375	0.	127.74
4689	9.5052	1.74	0.	126.83
4690	9.5036	1.2425	0.	126.12
4691	9.5015	0.2467	0.	125.19
4692	9.5023	0.7449	0.	125.58
4693	9.5009	-0.25215	0.	124.9
4694	9.5005	-0.75133	0.	124.71
4695	9.5003	-1.2508	0.	124.59
4696	9.5002	-1.7504	0.	124.54
4697	9.5001	-2.2502	0.	124.55
4698	9.2502	-2.0005	0.	124.52
4699	9.5	-2.7501	0.	124.62
4700	9.5	-3.2501	0.	124.75
4701	9.25	-3.0001	0.	124.61
4702	9.5	-3.75	0.	124.95
4703	9.5	-4.25	0.	125.23
4704	9.5	-4.75	0.	125.6
4705	9.5	-5.25	0.	126.04
4706	9.5	-5.75	0.	126.47
4707	9.5	-6.25	0.	126.66
4708	9.25	-6.	0.	126.89
4709	9.5	-6.75	0.	126.41
4710	9.5	-7.25	0.	126.05
4711	9.25	-7.	0.	126.73
4712	9.5	-7.75	0.	126.19
4713	9.5	-8.25	0.	126.82
4714	9.25	-8.	0.	126.94
4715	9.5	-8.75	0.	127.37
4716	9.25	-8.5	0.	127.71
4717	9.5	-9.25	0.	127.5
4718	6.6803	5.0153	0.	135.12
4719	6.9303	5.4292	0.	126.86
4720	6.4639	4.5928	0.	131.59
4721	6.1367	4.4094	0.	124.28
4722	-7.7504	1.	0.	127.43
4723	3.595	4.5759	0.	126.02
4724	6.5065	0.22987	0.	124.32
4725	6.5107	0.72284	0.	124.24
4726	2.1166	2.767	0.	126.58
4727	2.1556	3.2648	0.	126.43
4728	2.3874	3.0237	0.	126.61
4729	1.879	3.0105	0.	126.29
4730	5.2513	-1.0052	0.	125.21
4731	7.2921	2.4196	0.	120.65
4732	5.9788	8.2371	0.	125.2
4733	4.8459	2.5088	0.	127.94
4734	5.0184	0.74195	0.	126.2
4735	4.7757	0.99682	0.	126.56
4736	5.7553	-1.3452e-002	0.	125.07
4737	6.255	-1.6062e-002	0.	124.6
4738	6.0039	-0.26298	0.	124.81
4739	-8.9993	3.2507	0.	127.01
4740	-8.9997	2.7504	0.	127.09
4741	-7.6422	-3.5162	0.	126.34
4742	-8.1743	-3.5305	0.	127.28
4743	-7.918	-3.2737	0.	126.55
4744	-8.7553	-8.5047	0.	127.67
4745	5.3594	4.2544	0.	126.33
4746	1.1666	3.7274	0.	125.46
4747	-8.7656	-4.5171	0.	127.76
4748	5.	-5.75	0.	126.73
4749	3.6947	7.9974	0.	124.97
4750	4.2001	8.0008	0.	125.34
4751	5.6636	6.9925	0.	126.87
4752	5.4287	7.2492	0.	126.56
4753	-7.453	-4.5205	0.	130.83
4754	2.5895	5.9813	0.	126.17
4755	2.8508	6.244	0.	125.68
4756	-7.7586	-1.4958	0.	124.49
4757	-8.251	-1.5004	0.	125.34
4758	4.5123	0.24807	0.	126.22
4759	4.2675	0.50186	0.	126.5
4760	4.7649	0.4953	0.	126.19
4761	4.5221	0.75017	0.	126.55
4762	-8.2323	7.9996	0.	124.8
4763	-8.4855	7.75	0.	125.02
4764	-4.2791	-5.4281	0.	126.44
4765	-4.4676	-5.1672	0.	129.42
4766	0.50136	-7.7522	0.	125.07
4767	2.7497	-6.5	0.	126.39
4768	2.4995	-4.7501	0.	126.88
4769	0.23009	6.2959	0.	127.04
4770	-7.9774	7.251	0.	124.61
4771	-7.978	7.75	0.	124.61
4772	-8.2313	7.5004	0.	124.82
4773	-2.2418	-8.5216	0.	124.41
4774	-1.7421	-8.5202	0.	124.3
4775	1.5005	-8.2503	0.	125.65
4776	1.7504	-8.5002	0.	125.74
4777	1.5004	-8.7503	0.	125.62
4778	1.2508	-8.5006	0.	125.5
4779	-1.2432	-1.7128e-003	0.	120.3
4780	9.	-8.25	0.	127.82
4781	-5.134	-4.089	0.	127.08
4782	-5.2698	-4.5238	0.	127.59
4783	5.8813	6.7408	0.	127.41
4784	-5.1431	7.9902	0.	123.58
4785	-5.6654	7.9951	0.	123.61
4786	7.9518	6.7608	0.	119.73
4787	6.2254	7.9775	0.	124.91
4788	-3.2053	-7.5192	0.	124.72
4789	-2.7115	-7.5454	0.	124.06
4790	9.2542	0.99034	0.	125.29
4791	0.77858	1.0078	0.	127.24
4792	-8.2489	3.5009	0.	128.28
4793	-8.749	3.5009	0.	127.39
4794	1.4986	-6.2502	0.	126.33
4795	1.4981	-5.7503	0.	126.68
4796	-7.1203	-3.4843	0.	124.36
4797	-7.3519	-3.7509	0.	126.43
4798	-6.7628	-8.0409	0.	122.62
4799	-7.0109	-8.2865	0.	124.02
4800	-7.0087	-7.8353	0.	125.45
4801	0.31753	8.2954	0.	136.69
4802	-8.7512	-0.50037	0.	126.47
4803	1.2538	-0.99733	0.	127.18
4804	1.7539	-0.99676	0.	126.73
4805	7.3941	6.338	0.	118.84
4806	7.6786	6.5576	0.	118.36
4807	6.7524	-0.5112	0.	124.31
4808	6.5038	-0.26438	0.	124.4
4809	6.2528	-0.5113	0.	124.61
4810	-1.4944	-8.764	0.	124.37
4811	3.5	-8.75	0.	126.39
4812	4.0402	1.2627	0.	127.07
4813	4.2966	1.5109	0.	127.17
4814	4.0612	1.7696	0.	127.32
4815	3.7828	1.0122	0.	126.99
4816	4.0252	0.75728	0.	126.78
4817	4.2798	1.0056	0.	126.83
4818	-4.7414	-2.9714	0.	126.51
4819	-8.039	-7.2735	0.	128.71
4820	-8.2663	-7.5127	0.	128.47
4821	3.75	-2.5001	0.	125.73
4822	-4.5027	-8.7197	0.	124.29
4823	2.0861	2.2677	0.	126.79
4824	-8.2525	-0.49964	0.	125.68
4825	-7.7546	-0.49906	0.	124.7
4826	-4.2514	-2.9835	0.	128.87
4827	-5.2006	8.997	0.	124.46
4828	3.4999	-4.25	0.	126.42
4829	3.7499	-4.5	0.	126.43
4830	-3.4677	-7.7515	0.	125.16
4831	-3.4888	-8.2483	0.	125.1
4832	4.7579	-5.013e-003	0.	125.9
4833	-7.9983	3.7512	0.	128.99
4834	-7.9993	3.2507	0.	129.11
4835	-4.7477	-7.408	0.	127.26
4836	7.203	5.8632	0.	122.41
4837	2.75	-7.5	0.	126.13
4838	2.25	-7.5	0.	126.03
4839	2.5001	-7.75	0.	126.07
4840	5.6653	4.4734	0.	126.25
4841	3.0091	-0.24384	0.	126.6
4842	3.256	-0.49613	0.	126.36
4843	-8.7036	-3.5196	0.	127.36
4844	-3.0003	0.74271	0.	123.04
4845	-8.0005	0.75012	0.	127.49
4846	-8.2506	0.50011	0.	127.05
4847	-2.2201	-7.5561	0.	123.69
4848	-2.7426	-8.5162	0.	124.62
4849	-2.4945	-8.766	0.	124.54
4850	1.5003	-7.7503	0.	125.71
4851	1.2508	-8.0007	0.	125.53
4852	3.25	-7.5	0.	126.16
4853	7.0156	1.2106	0.	123.16
4854	6.7628	0.96771	0.	123.79
4855	4.7501	-2.0013	0.	125.34
4856	2.0619	1.7665	0.	127.02
4857	3.0169	0.25968	0.	126.86
4858	3.2618	6.642e-003	0.	126.64
4859	0.25359	-0.99856	0.	129.22
4860	-4.5003	-8.2041	0.	125.24
4861	-8.9939	5.2516	0.	127.12
4862	-8.7408	5.502	0.	126.89
4863	-1.0244	-4.7802	0.	122.26
4864	-1.7077	4.4278	0.	123.3
4865	0.50165	-8.252	0.	125.07
4866	0.5013	-8.7514	0.	125.1
4867	0.75132	-8.5013	0.	125.22
4868	-7.9961	4.2519	0.	129.14
4869	3.0285	0.76433	0.	127.06
4870	3.2847	1.0159	0.	127.1
4871	0.39491	6.0509	0.	127.53
4872	3.2714	0.51061	0.	126.9
4873	-5.2876	-3.8172	0.	125.12
4874	2.2502	-8.5001	0.	125.95
4875	2.5001	-8.75	0.	126.06
4876	2.5001	-8.25	0.	126.04
4877	-2.9995	1.2391	0.	123.1
4878	-7.9997	2.7504	0.	129.19
4879	-8.2498	2.5003	0.	128.45
4880	-6.0238	-4.5582	0.	115.67
4881	3.2509	-1.499	0.	125.9
4882	3.0007	-1.749	0.	125.91
4883	-4.4899	-7.6876	0.	126.6
4884	0.75151	8.1333	0.	132.67
4885	1.7501	-7.5001	0.	125.86
4886	8.9952	6.8321	0.	126.66
4887	-3.2353	3.9366	0.	125.35
4888	-6.5095	-8.2718	0.	121.24
4889	-6.5047	-8.7575	0.	121.86
4890	-6.7576	-8.5175	0.	122.65
4891	-2.6289	-6.6071	0.	122.63
4892	3.5086	-0.24565	0.	126.41
4893	3.5163	0.25758	0.	126.68
4894	3.5277	0.76221	0.	126.93
4895	-8.7504	0.49999	0.	127.45
4896	-5.3531	-4.981	0.	131.45
4897	2.2494	-6.5	0.	126.36
4898	1.749	-6.5001	0.	126.24
4899	1.7484	-5.5003	0.	126.86
4900	5.2501	-2.0018	0.	125.11
4901	-2.7309	3.9231	0.	124.58
4902	-8.9976	4.2513	0.	127.35
4903	-8.9986	3.751	0.	127.15
4904	-8.9958	4.7515	0.	127.38
4905	-8.7461	4.5017	0.	127.79
4906	2.0443	6.9519	0.	125.37
4907	0.6579	6.2484	0.	129.
4908	-8.7377	6.5014	0.	125.78
4909	-7.9772	6.752	0.	124.73
4910	4.5	-4.25	0.	126.11
4911	4.25	-4.5	0.	126.3
4912	-3.8118	-5.4731	0.	124.74
4913	3.2498	-4.	0.	126.42
4914	3.7499	-4.	0.	126.25
4915	3.4999	-3.75	0.	126.23
4916	0.23827	-5.0086	0.	126.68
4917	4.5	-3.7501	0.	125.87
4918	4.25	-4.	0.	126.08
4919	4.75	-4.	0.	125.87
4920	-6.9798	5.2538	0.	121.2
4921	-3.2442	-8.5045	0.	124.87
4922	-7.5551	-5.7189	0.	126.68
4923	-5.554	-4.6837	0.	122.68
4924	3.5001	-2.2499	0.	125.78
4925	3.5005	-1.7496	0.	125.8
4926	3.2503	-1.9996	0.	125.81
4927	2.0427	1.2643	0.	127.23
4928	-3.0868	8.0581	0.	124.11
4929	1.9195	3.5049	0.	126.2
4930	1.4046	3.4904	0.	125.71
4931	1.6429	3.2506	0.	126.06
4932	4.5	-3.2502	0.	125.68
4933	-8.2449	4.5021	0.	128.63
4934	-8.2365	5.5027	0.	126.56
4935	0.75373	-0.99804	0.	127.92
4936	-7.9452	-2.7585	0.	125.66
4937	2.2537	-0.99663	0.	126.45
4938	0.75137	-8.0017	0.	125.23
4939	5.2566	-9.6814e-003	0.	125.52
4940	3.77	0.50729	0.	126.72
4941	2.0002	-8.7501	0.	125.85
4942	1.7502	-9.0001	0.	125.74
4943	2.2501	-9.	0.	125.96
4944	3.5922	2.2842	0.	127.29
4945	-3.484	-4.2442	0.	128.21
4946	-3.4977	-8.7472	0.	124.86
4947	3.825	2.0265	0.	127.37
4948	-4.622	7.9888	0.	123.56
4949	-4.3848	8.2444	0.	123.73
4950	5.0105	0.24222	0.	125.87
4951	-8.75	1.5001	0.	128.2
4952	1.001	-8.251	0.	125.38
4953	4.75	-3.0003	0.	125.47
4954	4.5362	1.2538	0.	126.93
4955	-8.7381	7.5002	0.	125.25
4956	-7.4774	8.7482	0.	124.54
4957	3.9999	-4.25	0.	126.27
4958	-8.7498	2.5003	0.	127.55
4959	-8.2307	6.5021	0.	125.19
4960	-7.2809	-4.2476	0.	128.85
4961	-7.2589	-8.5185	0.	124.66
4962	-8.7622	-7.5089	0.	127.95
4963	-1.	-1.	0.	97.53
4964	-3.	-1.	0.	97.62
4965	-1.	-3.	0.	97.506
4966	-3.	-3.	0.	97.85
4967	-1.5	-1.	0.	111.42
4968	-2.	-1.	0.	108.99
4969	-2.5	-1.	0.	111.44
4970	-1.	-1.5	0.	101.81
4971	-1.	-2.	0.	100.59
4972	-1.	-2.5	0.	101.81
4973	-3.	-1.5	0.	101.78
4974	-3.	-2.	0.	100.63
4975	-3.	-2.5	0.	101.97
4976	-2.5	-3.	0.	111.67
4977	-2.	-3.	0.	109.09
4978	-1.5	-3.	0.	111.48
4979	-2.	-2.	0.	111.43
4980	-1.5	-2.	0.	108.36
4981	-1.5	-2.5	0.	109.11
4982	-2.	-2.5	0.	111.64
4983	-2.5	-2.5	0.	109.24
4984	-2.5	-2.	0.	108.43
4985	-2.5	-1.5	0.	109.11
4986	-2.	-1.5	0.	111.57
4987	-1.5	-1.5	0.	109.08
4988	-1.25	-1.	0.	104.4
4989	-1.	-1.25	0.	99.656
4990	-2.75	-1.	0.	104.46
4991	-3.	-1.25	0.	99.689
4992	-1.	-2.75	0.	99.649
4993	-1.25	-3.	0.	104.42
4994	-3.	-2.75	0.	99.899
4995	-2.75	-3.	0.	104.68
4996	-1.75	-1.	0.	110.2
4997	-1.5	-1.25	0.	110.22
4998	-2.25	-1.	0.	110.21
4999	-2.	-1.25	0.	110.26
5000	-2.5	-1.25	0.	110.25
5001	-1.	-1.75	0.	101.17
5002	-1.25	-1.5	0.	105.43
5003	-1.	-2.25	0.	101.17
5004	-1.25	-2.	0.	104.47
5005	-1.25	-2.5	0.	105.45
5006	-3.	-1.75	0.	101.17
5007	-2.75	-1.5	0.	105.43
5008	-3.	-2.25	0.	101.27
5009	-2.75	-2.	0.	104.53
5010	-2.75	-2.5	0.	105.59
5011	-2.25	-3.	0.	110.38
5012	-2.5	-2.75	0.	110.42
5013	-1.75	-3.	0.	110.28
5014	-2.	-2.75	0.	110.35
5015	-1.5	-2.75	0.	110.27
5016	-1.75	-2.	0.	109.9
5017	-2.	-2.25	0.	111.53
5018	-2.25	-2.	0.	109.93
5019	-2.	-1.75	0.	111.5
5020	-1.5	-2.25	0.	108.73
5021	-1.5	-1.75	0.	108.71
5022	-1.75	-2.5	0.	110.36
5023	-2.25	-2.5	0.	110.43
5024	-2.5	-2.25	0.	108.83
5025	-2.5	-1.75	0.	108.76
5026	-2.25	-1.5	0.	110.33
5027	-1.75	-1.5	0.	110.31
5028	8.	-7.	0.	97.522
5029	7.	-7.	0.	97.482
5030	8.	-8.	0.	97.48
5031	7.	-8.	0.	97.287
5032	7.5	-7.	0.	112.87
5033	8.	-7.5	0.	102.65
5034	7.	-7.5	0.	102.56
5035	7.5	-8.	0.	112.68
5036	7.5	-7.5	0.	110.2
5037	7.75	-7.	0.	105.18
5038	8.	-7.25	0.	100.08
5039	7.25	-7.	0.	105.16
5040	7.	-7.25	0.	100.01
5041	8.	-7.75	0.	100.06
5042	7.75	-8.	0.	105.06
5043	7.	-7.75	0.	99.915
5044	7.25	-8.	0.	104.96
5045	7.5	-7.25	0.	111.49
5046	7.75	-7.5	0.	106.4
5047	7.25	-7.5	0.	106.36
5048	7.5	-7.75	0.	111.39
5049	-5.41	-5.69	0.	62.015
5050	-6.73	-5.43	0.	55.347
5051	-6.29	-6.7	0.	105.64
5052	-5.85	-5.6033	0.	112.08
5053	-6.29	-5.5167	0.	110.71
5054	-5.7033	-6.0267	0.	94.15
5055	-5.9967	-6.3633	0.	89.593
5056	-6.5833	-5.8533	0.	98.88
5057	-6.4367	-6.2767	0.	95.82
5058	-6.279	-5.8221	0.	98.872
5059	-5.9738	-5.8822	0.	102.04
5060	-6.1773	-6.1157	0.	100.75
5061	-5.63	-5.6467	0.	83.176
5062	-5.5567	-5.8583	0.	74.349
5063	-6.51	-5.4733	0.	82.812
5064	-6.6567	-5.6417	0.	76.984
5065	-6.1433	-6.5317	0.	96.062
5066	-6.3633	-6.4883	0.	98.388
5067	-6.07	-5.56	0.	111.28
5068	-5.9119	-5.7428	0.	106.69
5069	-6.2845	-5.6694	0.	104.77
5070	-5.85	-6.195	0.	91.762
5071	-5.8386	-5.9544	0.	97.816
5072	-6.087	-6.2395	0.	95.165
5073	-6.51	-6.065	0.	97.191
5074	-6.4312	-5.8377	0.	98.835
5075	-6.307	-6.1962	0.	98.136
5076	-6.1264	-5.8521	0.	100.34
5077	-6.2281	-5.9689	0.	99.764
5078	-6.0755	-5.9989	0.	101.28
5079	0.1	7.87	0.	67.364
5080	-1.42	8.19	0.	61.758
5081	-0.94	6.71	0.	104.81
5082	-0.40667	7.9767	0.	113.92
5083	-0.91333	8.0833	0.	113.01
5084	-0.24667	7.4833	0.	98.844
5085	-0.59333	7.0967	0.	92.528
5086	-1.26	7.6967	0.	102.21
5087	-1.1	7.2033	0.	97.5
5088	-0.55604	7.6548	0.	104.52
5089	-0.79651	7.3865	0.	102.68
5090	-0.90748	7.7287	0.	100.83
5091	-0.15333	7.9233	0.	87.242
5092	-7.3333e-002	7.6767	0.	79.974
5093	-1.1667	8.1367	0.	87.11
5094	-1.34	7.9433	0.	81.843
5095	-0.76667	6.9033	0.	97.231
5096	-1.02	6.9567	0.	99.158
5097	-0.66	8.03	0.	113.35
5098	-0.48135	7.8157	0.	108.87
5099	-0.91041	7.906	0.	106.9
5100	-0.42	7.29	0.	95.588
5101	-0.40135	7.569	0.	101.44
5102	-0.69492	7.2416	0.	97.601
5103	-1.18	7.45	0.	99.704
5104	-1.0837	7.7127	0.	101.51
5105	-0.94826	7.2949	0.	99.984
5106	-0.67628	7.5206	0.	103.5
5107	-0.73176	7.6917	0.	102.56
5108	-0.852	7.5576	0.	101.73
5109	6.78	4.36	0.	67.946
5110	8.45	4.19	0.	66.422
5111	7.76	5.72	0.	105.88
5112	7.1975	4.3175	0.	116.92
5113	7.615	4.275	0.	107.06
5114	8.0325	4.2325	0.	116.15
5115	7.025	4.7	0.	105.66
5116	7.27	5.04	0.	101.43
5117	7.515	5.38	0.	95.898
5118	8.2775	4.5725	0.	103.83
5119	8.105	4.955	0.	101.18
5120	7.9325	5.3375	0.	98.137
5121	7.9835	4.5276	0.	102.49
5122	7.6617	5.0684	0.	103.8
5123	7.6771	4.5742	0.	106.93
5124	7.3741	4.7285	0.	103.8
5125	7.8536	4.8084	0.	103.66
5126	6.9887	4.3387	0.	90.803
5127	6.9025	4.53	0.	85.04
5128	8.2413	4.2112	0.	90.924
5129	8.3638	4.3812	0.	84.765
5130	7.6375	5.55	0.	99.417
5131	7.8463	5.5287	0.	100.34
5132	7.4062	4.2962	0.	111.99
5133	7.2858	4.523	0.	110.28
5134	7.8238	4.2537	0.	111.6
5135	7.6461	4.4246	0.	107.
5136	8.008	4.3801	0.	109.29
5137	7.1475	4.87	0.	103.52
5138	7.1995	4.7142	0.	104.66
5139	7.3925	5.21	0.	98.648
5140	7.322	4.8842	0.	102.59
5141	7.5884	5.2242	0.	99.847
5142	8.1912	4.7638	0.	102.5
5143	8.1305	4.5501	0.	103.13
5144	8.0188	5.1462	0.	99.581
5145	7.9793	4.8817	0.	102.4
5146	7.7971	5.2029	0.	100.93
5147	7.8303	4.5509	0.	104.68
5148	7.9186	4.668	0.	103.03
5149	7.5179	4.8984	0.	103.73
5150	7.7577	4.9384	0.	103.73
5151	7.5256	4.6513	0.	105.3
5152	7.7653	4.6913	0.	105.29
5153	-6.	4.	0.	95.534
5154	-7.	4.	0.	95.437
5155	-6.	2.	0.	95.75
5156	-7.	2.	0.	95.871
5157	-6.5	4.	0.	109.4
5158	-6.	3.5	0.	99.566
5159	-6.	3.	0.	98.725
5160	-6.	2.5	0.	99.908
5161	-7.	3.5	0.	99.777
5162	-7.	3.	0.	98.814
5163	-7.	2.5	0.	99.855
5164	-6.5	2.	0.	109.8
5165	-6.5	3.5	0.	104.16
5166	-6.5	3.	0.	102.15
5167	-6.5	2.5	0.	104.37
5168	-6.25	4.	0.	102.42
5169	-6.	3.75	0.	97.548
5170	-6.75	4.	0.	102.37
5171	-7.	3.75	0.	97.604
5172	-6.	2.25	0.	97.825
5173	-6.25	2.	0.	102.72
5174	-7.	2.25	0.	97.861
5175	-6.75	2.	0.	102.79
5176	-6.5	3.75	0.	106.73
5177	-6.	3.25	0.	99.106
5178	-6.25	3.5	0.	101.82
5179	-6.	2.75	0.	99.279
5180	-6.25	3.	0.	100.44
5181	-6.25	2.5	0.	102.09
5182	-7.	3.25	0.	99.257
5183	-6.75	3.5	0.	101.92
5184	-7.	2.75	0.	99.295
5185	-6.75	3.	0.	100.48
5186	-6.75	2.5	0.	102.06
5187	-6.5	2.25	0.	107.04
5188	-6.5	3.25	0.	103.15
5189	-6.5	2.75	0.	103.26
