Node Number	X Location (mm)	Y Location (mm)	Z Location (mm)	Equivalent (von-Mises) Stress (MPa)
1	-7.95	7.58	0.	164.76
2	-6.97	7.91	0.	156.19
3	-7.75	8.6	0.	126.41
4	2.99	5.55	0.	161.51
5	4.51	5.07	0.	157.1
6	4.17	6.63	0.	118.95
7	-5.81	4.56	0.	163.15
8	-6.09	5.59	0.	115.
9	-6.85	4.83	0.	157.07
10	-0.36	4.7	0.	177.44
11	0.9	4.67	0.	177.54
12	0.29	5.79	0.	109.95
13	-4.15	0.82	0.	156.93
14	-3.86	-1.12	0.	132.45
15	-2.32	0.11	0.	153.59
16	1.08	0.62	0.	155.61
17	-0.14	1.e-002	0.	165.08
18	1.	-0.74	0.	135.35
19	2.2	-1.06	0.	176.81
20	3.7	-1.37	0.	175.66
21	3.22	9.e-002	0.	116.77
22	-1.61	-1.62	0.	167.17
23	-2.59	-1.96	0.	152.59
24	-1.8	-2.64	0.	136.48
25	2.23	-7.22	0.	181.57
26	3.68	-7.52	0.	165.41
27	3.22	-6.11	0.	117.98
28	5.23	-8.72	0.	119.64
29	5.48	-7.61	0.	169.02
30	4.39	-7.95	0.	178.72
31	5.62	-6.89	0.	180.59
32	6.75	-7.13	0.	173.04
33	6.4	-6.03	0.	127.15
34	0.37	-7.48	0.	160.4
35	0.98	-8.63	0.	108.25
36	1.67	-7.53	0.	188.23
37	3.	9.	0.	135.53
38	3.	7.	0.	131.59
39	4.	9.	0.	133.89
40	4.	7.	0.	114.23
41	6.	7.	0.	134.59
42	6.	5.	0.	134.47
43	7.	7.	0.	133.2
44	7.	5.	0.	130.64
45	4.	1.	0.	136.63
46	4.0037	-0.99625	0.	156.23
47	6.	1.	0.	137.96
48	6.	-1.	0.	136.77
49	7.	0.	0.	136.03
50	7.	-2.	0.	137.92
51	8.	0.	0.	135.15
52	8.	-2.	0.	135.24
53	0.	-6.	0.	134.72
54	0.	-7.	0.	143.83
55	1.	-6.	0.	128.34
56	1.	-7.	0.	114.92
57	-6.	-6.	0.	133.58
58	-6.	-7.	0.	133.38
59	-5.	-6.	0.	133.66
60	-5.	-7.	0.	132.69
61	10.	10.	0.	125.01
62	-10.	10.	0.	125.07
63	10.	-10.	0.	132.59
64	-10.	-10.	0.	127.69
65	0.33334	-7.	0.	117.37
66	3.5813	-1.009	0.	146.47
67	1.0197	-7.505	0.	101.14
68	-7.46	7.745	0.	92.132
69	-7.85	8.09	0.	142.62
70	-7.36	8.255	0.	59.07
71	3.4967	5.39	0.	90.181
72	4.0033	5.23	0.	101.23
73	3.3833	5.91	0.	73.826
74	3.7767	6.27	0.	87.643
75	4.3967	5.59	0.	139.37
76	4.2833	6.11	0.	136.79
77	-5.95	5.075	0.	134.52
78	-6.33	4.695	0.	97.599
79	-6.47	5.21	0.	61.688
80	6.e-002	4.69	0.	103.68
81	0.48	4.68	0.	104.51
82	-0.14333	5.0633	0.	121.14
83	7.3333e-002	5.4267	0.	102.4
84	0.69726	5.0423	0.	123.08
85	0.49363	5.4161	0.	102.81
86	-4.0775	0.335	0.	144.37
87	-4.005	-0.15	0.	143.58
88	-3.9325	-0.635	0.	140.14
89	-3.6925	0.6425	0.	105.16
90	-3.235	0.465	0.	112.63
91	-2.7775	0.2875	0.	95.908
92	-3.475	-0.8125	0.	93.554
93	-3.09	-0.505	0.	107.57
94	-2.705	-0.1975	0.	87.155
95	0.67333	0.41667	0.	99.51
96	0.26667	0.21333	0.	79.36
97	1.0533	0.16667	0.	149.99
98	1.0267	-0.28667	0.	143.45
99	0.24	-0.24	0.	70.407
100	0.62	-0.49	0.	90.248
101	2.7	-1.1633	0.	107.
102	3.2	-1.2667	0.	111.22
103	2.54	-0.67667	0.	86.096
104	2.88	-0.29333	0.	93.521
105	3.342	-0.28119	0.	143.82
106	3.4622	-0.64656	0.	137.91
107	-2.1	-1.79	0.	93.141
108	-1.705	-2.13	0.	146.73
109	-2.195	-2.3	0.	63.901
110	2.7133	-7.32	0.	105.96
111	3.1967	-7.42	0.	108.05
112	2.56	-6.85	0.	78.611
113	2.89	-6.48	0.	90.467
114	3.5267	-7.05	0.	138.6
115	3.3733	-6.58	0.	128.98
116	5.355	-8.165	0.	132.26
117	4.81	-8.335	0.	57.772
118	4.935	-7.78	0.	109.15
119	5.9967	-6.97	0.	87.194
120	6.3733	-7.05	0.	109.02
121	5.8795	-6.6039	0.	89.774
122	6.1398	-6.3169	0.	83.002
123	6.6333	-6.7633	0.	143.29
124	6.5167	-6.3967	0.	123.04
125	0.57333	-7.8633	0.	110.51
126	0.77667	-8.2467	0.	105.21
127	0.69485	-7.4925	0.	101.01
128	1.3448	-7.5175	0.	121.09
129	1.21	-8.2633	0.	103.4
130	1.44	-7.8967	0.	114.82
131	3.	8.5	0.	142.71
132	3.	8.	0.	142.78
133	3.	7.5	0.	142.59
134	3.5	9.	0.	109.71
135	3.5	7.	0.	107.62
136	4.	8.5	0.	141.08
137	4.	8.	0.	139.27
138	4.	7.5	0.	134.91
139	6.	6.5	0.	142.96
140	6.	6.	0.	140.89
141	6.	5.5	0.	139.84
142	6.5	7.	0.	108.31
143	6.5	5.	0.	107.41
144	7.	6.5	0.	141.59
145	7.	6.	0.	141.57
146	7.	5.5	0.	141.06
147	4.	0.5	0.	147.73
148	4.	0.	0.	146.66
149	4.	-0.5	0.	142.48
150	4.5	1.	0.	115.34
151	5.	1.	0.	119.82
152	5.5	1.	0.	115.53
153	4.5	-1.	0.	109.08
154	5.	-1.	0.	114.35
155	5.5	-1.	0.	112.52
156	6.	0.5	0.	148.22
157	6.	0.	0.	148.26
158	6.	-0.5	0.	146.07
159	7.	-0.5	0.	144.28
160	7.	-1.	0.	146.5
161	7.	-1.5	0.	147.23
162	7.5	0.	0.	109.01
163	7.5	-2.	0.	111.66
164	8.	-0.5	0.	145.14
165	8.	-1.	0.	145.99
166	8.	-1.5	0.	145.84
167	0.	-6.5	0.	143.28
168	0.5	-6.	0.	108.66
169	0.66667	-7.	0.	95.793
170	1.	-6.5	0.	127.04
171	-6.	-6.5	0.	142.77
172	-5.5	-6.	0.	111.32
173	-5.5	-7.	0.	110.79
174	-5.	-6.5	0.	142.3
175	9.5	10.	0.	125.03
176	9.	10.	0.	125.06
177	8.5	10.	0.	124.98
178	8.	10.	0.	124.74
179	7.5	10.	0.	124.38
180	7.	10.	0.	124.1
181	6.5	10.	0.	124.08
182	6.	10.	0.	124.43
183	5.5	10.	0.	124.94
184	5.	10.	0.	125.26
185	4.5	10.	0.	123.34
186	4.	10.	0.	118.5
187	3.5	10.	0.	116.82
188	3.	10.	0.	119.13
189	2.5	10.	0.	124.56
190	2.	10.	0.	126.78
191	1.5	10.	0.	126.6
192	1.	10.	0.	126.1
193	0.5	10.	0.	125.6
194	-5.2042e-015	10.	0.	125.29
195	-0.5	10.	0.	125.18
196	-1.	10.	0.	125.22
197	-1.5	10.	0.	125.36
198	-2.	10.	0.	125.52
199	-2.5	10.	0.	125.66
200	-3.	10.	0.	125.77
201	-3.5	10.	0.	125.85
202	-4.	10.	0.	125.93
203	-4.5	10.	0.	126.05
204	-5.	10.	0.	126.23
205	-5.5	10.	0.	126.36
206	-6.	10.	0.	125.97
207	-6.5	10.	0.	124.21
208	-7.	10.	0.	121.62
209	-7.5	10.	0.	120.43
210	-8.	10.	0.	121.6
211	-8.5	10.	0.	124.13
212	-9.	10.	0.	125.59
213	-9.5	10.	0.	125.27
214	10.	9.5	0.	124.94
215	10.	9.	0.	124.79
216	10.	8.5	0.	124.56
217	10.	8.	0.	124.16
218	10.	7.5	0.	123.59
219	10.	7.	0.	123.03
220	10.	6.5	0.	122.81
221	10.	6.	0.	123.24
222	10.	5.5	0.	124.4
223	10.	5.	0.	126.13
224	10.	4.5	0.	128.04
225	10.	4.	0.	129.75
226	10.	3.5	0.	131.04
227	10.	3.	0.	131.88
228	10.	2.5	0.	132.34
229	10.	2.	0.	132.51
230	10.	1.5	0.	132.39
231	10.	1.	0.	131.77
232	10.	0.5	0.	130.46
233	10.	-5.2042e-015	0.	128.8
234	10.	-0.5	0.	127.71
235	10.	-1.	0.	128.05
236	10.	-1.5	0.	129.89
237	10.	-2.	0.	132.71
238	10.	-2.5	0.	135.35
239	10.	-3.	0.	136.86
240	10.	-3.5	0.	137.07
241	10.	-4.	0.	136.4
242	10.	-4.5	0.	135.19
243	10.	-5.	0.	133.61
244	10.	-5.5	0.	131.79
245	10.	-6.	0.	129.99
246	10.	-6.5	0.	128.65
247	10.	-7.	0.	128.13
248	10.	-7.5	0.	128.49
249	10.	-8.	0.	129.47
250	10.	-8.5	0.	130.65
251	10.	-9.	0.	131.68
252	10.	-9.5	0.	132.36
253	-10.	9.5	0.	124.39
254	-10.	9.	0.	122.67
255	-10.	8.5	0.	120.92
256	-10.	8.	0.	120.71
257	-10.	7.5	0.	122.93
258	-10.	7.	0.	126.1
259	-10.	6.5	0.	127.86
260	-10.	6.	0.	127.81
261	-10.	5.5	0.	126.78
262	-10.	5.	0.	125.87
263	-10.	4.5	0.	125.59
264	-10.	4.	0.	125.85
265	-10.	3.5	0.	126.27
266	-10.	3.	0.	126.51
267	-10.	2.5	0.	126.41
268	-10.	2.	0.	126.03
269	-10.	1.5	0.	125.5
270	-10.	1.	0.	124.96
271	-10.	0.5	0.	124.52
272	-10.	-5.2042e-015	0.	124.26
273	-10.	-0.5	0.	124.2
274	-10.	-1.	0.	124.34
275	-10.	-1.5	0.	124.65
276	-10.	-2.	0.	125.07
277	-10.	-2.5	0.	125.54
278	-10.	-3.	0.	125.98
279	-10.	-3.5	0.	126.34
280	-10.	-4.	0.	126.56
281	-10.	-4.5	0.	126.63
282	-10.	-5.	0.	126.55
283	-10.	-5.5	0.	126.38
284	-10.	-6.	0.	126.24
285	-10.	-6.5	0.	126.2
286	-10.	-7.	0.	126.33
287	-10.	-7.5	0.	126.6
288	-10.	-8.	0.	126.93
289	-10.	-8.5	0.	127.25
290	-10.	-9.	0.	127.5
291	-10.	-9.5	0.	127.65
292	-9.5	-10.	0.	127.39
293	-9.	-10.	0.	127.21
294	-8.5	-10.	0.	127.04
295	-8.	-10.	0.	126.78
296	-7.5	-10.	0.	126.3
297	-7.	-10.	0.	125.57
298	-6.5	-10.	0.	124.67
299	-6.	-10.	0.	123.89
300	-5.5	-10.	0.	123.59
301	-5.	-10.	0.	123.95
302	-4.5	-10.	0.	124.82
303	-4.	-10.	0.	125.9
304	-3.5	-10.	0.	126.91
305	-3.	-10.	0.	127.77
306	-2.5	-10.	0.	128.5
307	-2.	-10.	0.	129.14
308	-1.5	-10.	0.	129.58
309	-1.	-10.	0.	129.51
310	-0.5	-10.	0.	128.2
311	5.2042e-015	-10.	0.	124.6
312	0.5	-10.	0.	119.21
313	1.	-10.	0.	116.12
314	1.5	-10.	0.	118.93
315	2.	-10.	0.	123.29
316	2.5	-10.	0.	125.67
317	3.	-10.	0.	126.72
318	3.5	-10.	0.	127.33
319	4.	-10.	0.	125.59
320	4.5	-10.	0.	119.65
321	5.	-10.	0.	115.47
322	5.5	-10.	0.	118.44
323	6.	-10.	0.	125.07
324	6.5	-10.	0.	128.57
325	7.	-10.	0.	129.93
326	7.5	-10.	0.	130.65
327	8.	-10.	0.	131.15
328	8.5	-10.	0.	131.39
329	9.	-10.	0.	131.48
330	9.5	-10.	0.	131.73
331	-3.0771	2.8809	0.	124.63
332	-3.4922	3.0387	0.	124.59
333	-5.5705	-3.0991	0.	126.76
334	-2.7031	5.7505	0.	124.49
335	-3.1292	6.2956	0.	125.29
336	-6.0374	-2.6695	0.	127.3
337	-6.0478	-3.0988	0.	126.87
338	-3.1178	2.4145	0.	122.96
339	-2.1481	5.69	0.	124.74
340	-5.595	-2.6425	0.	127.46
341	-5.1025	-3.062	0.	126.62
342	2.3929	2.8802	0.	129.51
343	-2.3432	3.2863	0.	127.49
344	5.2523	-3.8354	0.	123.38
345	0.51028	-3.2667	0.	126.23
346	-5.5378	-3.5621	0.	125.99
347	-5.9945	2.2689	0.	126.17
348	-2.8102	5.3062	0.	123.99
349	4.9581e-002	2.2045	0.	123.92
350	-2.5055	-4.9691	0.	125.86
351	-3.6038	6.4195	0.	125.86
352	-3.3683	5.4107	0.	124.19
353	2.0518	-3.6729	0.	123.04
354	-2.6761	2.7929	0.	125.95
355	2.379	3.3053	0.	130.01
356	-2.2683	2.7699	0.	128.04
357	2.5748	-3.7128	0.	121.24
358	-3.6807	5.9759	0.	125.46
359	-2.9954	-4.4487	0.	126.26
360	-2.8631	4.366	0.	124.51
361	-6.2204	-1.8577	0.	127.31
362	-4.4816	-3.4239	0.	126.38
363	-5.0323	-3.5351	0.	126.09
364	-2.5057	-5.4788	0.	125.82
365	-2.5041	-5.9863	0.	125.37
366	1.5321	-3.6621	0.	124.42
367	0.97648	-3.2001	0.	125.65
368	-3.3751	4.9454	0.	123.92
369	5.894	-4.1157	0.	122.75
370	-1.8531	3.2544	0.	129.6
371	-5.5103	2.2595	0.	128.1
372	-3.4928	-4.4532	0.	127.3
373	6.7873	-4.4797	0.	123.71
374	2.4521	2.4404	0.	129.26
375	5.2682	-3.3468	0.	123.38
376	1.4925	-3.1724	0.	125.32
377	2.0248	-3.1744	0.	123.73
378	2.5597	-3.1972	0.	121.05
379	-1.585	5.6394	0.	125.64
380	-3.1452	1.9353	0.	120.25
381	-5.5109	-0.19961	0.	126.14
382	4.9768	2.5418	0.	118.42
383	5.0562	-4.2803	0.	123.75
384	-3.0787	6.7397	0.	125.63
385	-2.6742	2.3106	0.	125.24
386	-1.3259	2.1832	0.	131.63
387	4.6154	-4.273	0.	123.84
388	4.6869	-3.8132	0.	123.06
389	3.0983	-3.7543	0.	120.26
390	-4.0778	6.4986	0.	126.8
391	-3.9391	-3.455	0.	126.96
392	-2.3651	3.7996	0.	126.68
393	-2.2429	5.2447	0.	124.
394	1.927	2.8325	0.	130.04
395	2.7233e-002	2.7065	0.	123.21
396	0.49642	2.7349	0.	122.38
397	-6.0328	0.32656	0.	125.28
398	-6.0251	1.7995	0.	127.08
399	-3.5681	2.5635	0.	123.02
400	-5.6505	-2.1919	0.	128.07
401	-6.0365	-0.73628	0.	126.02
402	2.8538	3.0882	0.	126.87
403	-5.5158	-4.0353	0.	124.97
404	-3.9781	-3.955	0.	127.31
405	-3.0007	-4.9645	0.	126.37
406	-2.5018	-6.492	0.	125.03
407	-3.0013	-6.4888	0.	125.02
408	-2.0024	-6.4995	0.	125.32
409	2.0611	-4.1774	0.	123.1
410	-3.8966	5.0487	0.	124.05
411	-4.9745	2.7512	0.	128.29
412	-6.034	-3.5644	0.	126.31
413	-6.5261	-3.5459	0.	126.82
414	-6.5281	-3.0503	0.	127.01
415	-6.4969	-2.5206	0.	127.13
416	-6.6323	-2.0214	0.	126.92
417	-6.3763	-1.4154	0.	126.67
418	-6.4998	-0.98065	0.	125.91
419	-6.5381	-0.56161	0.	125.26
420	-6.5211	-0.11235	0.	124.89
421	-6.5275	0.37199	0.	124.95
422	-6.5336	0.86125	0.	125.4
423	-6.5291	1.3483	0.	125.84
424	-6.5161	1.8313	0.	125.79
425	-6.4886	2.3136	0.	125.01
426	-6.4451	2.7836	0.	123.31
427	0.2615	-2.35	0.	123.8
428	-2.0087	-4.9884	0.	126.28
429	-2.4979	-4.4615	0.	125.15
430	-1.5048	-4.5233	0.	127.14
431	-5.4557	2.7322	0.	127.03
432	4.4574	3.0593	0.	119.5
433	4.9673	3.0529	0.	120.63
434	2.4022	3.8047	0.	130.73
435	1.5414	-4.1491	0.	124.18
436	-0.48587	-4.1244	0.	129.02
437	-2.009	-5.49	0.	126.33
438	-2.0078	-5.9932	0.	125.83
439	-3.0023	-5.4749	0.	126.06
440	-4.4885	-3.9609	0.	126.53
441	-5.0029	-4.0065	0.	125.48
442	-6.5177	-4.0338	0.	126.7
443	3.4167	3.0664	0.	122.7
444	-5.7538	-1.7386	0.	128.13
445	-4.024	2.6914	0.	124.96
446	-6.0435	0.82371	0.	126.15
447	1.45	2.797	0.	128.18
448	-2.3508	4.2993	0.	125.36
449	-2.9753	-3.9447	0.	126.04
450	-4.113	6.0367	0.	126.53
451	4.1515	-3.799	0.	122.01
452	2.5866	-4.2332	0.	121.38
453	3.6228	-4.2566	0.	121.26
454	3.1094	-4.2801	0.	120.41
455	-2.2307	2.2495	0.	128.38
456	-0.40401	2.189	0.	127.27
457	-0.86399	2.1836	0.	130.33
458	-2.0508	6.138	0.	125.68
459	5.459	-4.2301	0.	123.18
460	5.4842	-4.6532	0.	122.91
461	-1.0259	5.5836	0.	128.36
462	-6.9847	2.3564	0.	125.18
463	-7.026	0.90266	0.	125.12
464	-6.9799	-1.0473	0.	125.63
465	-7.0473	-2.0695	0.	126.61
466	-7.0187	-2.5445	0.	126.88
467	-7.0178	-3.0353	0.	127.04
468	-7.014	-4.0239	0.	127.44
469	3.4687	4.0832	0.	116.67
470	4.9848	2.0277	0.	116.09
471	-5.0017	-0.18984	0.	128.77
472	-4.6888	-2.5436	0.	126.48
473	-3.171	1.4482	0.	116.96
474	2.4748	1.9651	0.	129.29
475	5.2928	-2.8805	0.	122.98
476	-2.5035	-6.9956	0.	125.13
477	-0.98506	-4.0858	0.	129.22
478	-2.477	-3.9511	0.	123.93
479	-0.44927	-3.6734	0.	129.98
480	0.86724	-2.7149	0.	125.44
481	-4.9214	3.2093	0.	128.91
482	3.0247	4.1207	0.	124.09
483	-1.0037	-4.5562	0.	128.87
484	0.50863	-4.6035	0.	122.88
485	6.9918	3.0104	0.	125.56
486	6.9929	2.5099	0.	126.79
487	-3.5005	-6.488	0.	125.34
488	2.9389	2.5188	0.	127.28
489	6.4871	3.5182	0.	122.67
490	-5.4698	-0.70253	0.	127.25
491	-5.0321	2.273	0.	129.15
492	-3.6106	2.079	0.	120.33
493	-5.5379	0.30499	0.	126.21
494	0.5528	1.7806	0.	120.31
495	-1.8646	3.7629	0.	128.8
496	-3.8324	-2.9667	0.	125.83
497	-4.5503	6.5375	0.	128.02
498	2.0475	-4.6713	0.	124.09
499	4.1272	-4.735	0.	124.31
500	-2.6849	1.8188	0.	124.15
501	-1.2949	1.6545	0.	133.29
502	-2.964	7.1667	0.	125.69
503	-1.9592	7.0534	0.	126.09
504	5.5315	-5.0897	0.	122.8
505	-1.4435	6.5459	0.	127.07
506	-1.4633	6.0821	0.	127.37
507	-0.36985	1.6883	0.	128.76
508	-0.83093	1.6574	0.	131.95
509	-1.7607	1.6828	0.	132.25
510	-2.225	1.7378	0.	129.16
511	3.6511	-4.7171	0.	121.97
512	2.5847	-4.747	0.	121.06
513	3.6322	-3.2828	0.	120.04
514	4.1738	-3.3223	0.	121.59
515	-4.4651	5.5667	0.	126.38
516	-3.4351	-3.4507	0.	127.79
517	-2.938	-3.4427	0.	127.51
518	6.3058	-4.829	0.	120.25
519	-0.90911	3.2117	0.	129.66
520	-1.7873	4.7345	0.	124.48
521	-1.8405	4.2555	0.	127.09
522	0.95887	3.2387	0.	125.34
523	1.4356	3.2585	0.	130.07
524	2.4295	1.0092	0.	126.98
525	-5.5557	0.80297	0.	127.51
526	-4.0802	2.2009	0.	123.84
527	-4.5526	2.2627	0.	127.71
528	-5.2676	-1.666	0.	129.35
529	5.979	3.5305	0.	123.67
530	3.4433	2.5339	0.	124.37
531	-6.5104	-4.5238	0.	126.85
532	-4.4948	-4.4752	0.	126.61
533	-4.9989	-4.4984	0.	124.6
534	-3.4999	-5.4741	0.	126.94
535	1.5928	6.5171	0.	132.01
536	5.9866	2.5242	0.	123.07
537	-1.5113	-5.5029	0.	127.66
538	-1.5131	-5.9972	0.	126.85
539	-0.50116	-4.5833	0.	128.4
540	1.5276	-4.6276	0.	124.66
541	1.0165	-4.6095	0.	123.31
542	2.167	4.5181	0.	131.83
543	2.5983	4.2942	0.	130.07
544	1.5789	6.062	0.	131.99
545	4.9622	3.5658	0.	123.52
546	-4.3786	4.6158	0.	124.55
547	-5.9023	3.2153	0.	122.45
548	-5.4098	3.203	0.	127.11
549	1.9839	-2.6747	0.	125.78
550	0.78262	-2.1684	0.	123.1
551	1.3733	-2.1921	0.	129.
552	-0.21567	-1.8559	0.	125.11
553	-0.18355	-1.3975	0.	127.55
554	-0.38292	-3.2216	0.	130.27
555	-0.27751	-2.7738	0.	128.32
556	-1.483	-4.0404	0.	126.73
557	7.1472	-4.7356	0.	126.58
558	7.5122	-4.9127	0.	129.18
559	7.439	-4.3387	0.	126.61
560	6.9185	-4.1131	0.	124.15
561	1.5948	5.6197	0.	129.38
562	0.13424	1.2168	0.	122.94
563	-3.6397	1.5909	0.	115.6
564	-4.9415	-0.67777	0.	129.17
565	4.4786	2.0271	0.	117.57
566	3.9285	4.1217	0.	112.78
567	-2.4411	-3.433	0.	120.79
568	-3.5017	-6.9924	0.	125.73
569	-7.4194	3.3568	0.	127.7
570	-7.4846	2.4042	0.	126.02
571	-7.506	1.918	0.	125.72
572	-7.517	1.428	0.	125.43
573	-7.5194	0.93614	0.	125.13
574	-7.5175	0.44384	0.	124.91
575	-7.5129	-4.9331e-002	0.	124.88
576	-7.5036	-0.54537	0.	125.08
577	-7.4827	-1.0441	0.	125.47
578	-7.469	-1.5429	0.	125.93
579	-7.5073	-2.0378	0.	126.34
580	-7.5145	-2.533	0.	126.68
581	-7.5141	-3.0261	0.	126.97
582	-7.5133	-3.5206	0.	127.26
583	-7.5103	-4.0156	0.	127.61
584	-7.5066	-4.5109	0.	128.03
585	-7.5037	-5.0071	0.	128.35
586	-7.5009	-6.0023	0.	127.26
587	-7.5004	-6.5013	0.	126.72
588	-7.4848	6.8585	0.	114.22
589	-7.5241	6.4203	0.	121.82
590	-7.0915	5.9826	0.	126.16
591	-6.5398	6.2771	0.	118.79
592	7.4959	3.0044	0.	127.11
593	7.495	2.5058	0.	127.37
594	7.4959	2.0053	0.	127.16
595	-4.9801	7.546	0.	124.95
596	-4.4833	7.5153	0.	125.44
597	-3.9726	7.4779	0.	125.62
598	-2.9312	7.5738	0.	125.56
599	-2.4481	7.5522	0.	125.65
600	-1.9469	7.53	0.	125.68
601	-1.4372	7.5101	0.	125.39
602	-0.92655	7.4885	0.	124.42
603	-0.42221	7.4674	0.	122.79
604	7.5007e-002	7.4583	0.	121.48
605	0.56661	7.4728	0.	122.36
606	1.0577	7.4916	0.	125.17
607	1.5471	7.4984	0.	128.75
608	2.0333	7.5009	0.	132.12
609	-5.4699	7.5825	0.	124.09
610	2.3825	0.54318	0.	125.48
611	2.4656	1.4858	0.	128.62
612	7.4968	1.5045	0.	125.59
613	4.6248	-5.215	0.	127.23
614	0.36211	-0.95134	0.	116.54
615	-2.7034	1.3183	0.	123.33
616	-1.2698	1.1412	0.	133.9
617	4.1227	-5.1996	0.	126.57
618	-5.5002	7.0978	0.	125.89
619	4.7449	-2.8735	0.	122.47
620	3.0906	-2.7277	0.	117.9
621	-7.8284	4.2977	0.	127.69
622	-6.3792	3.739	0.	114.34
623	-5.0328	6.567	0.	128.94
624	-4.2282	-2.5009	0.	124.15
625	-3.755	-2.4786	0.	121.58
626	6.6504	-4.8924	0.	122.66
627	1.8711	5.2093	0.	126.79
628	0.58773	1.3145	0.	114.77
629	1.9913	1.4783	0.	132.03
630	-5.045	0.30401	0.	127.5
631	-5.0624	1.7792	0.	131.64
632	-4.7139	-2.0845	0.	128.39
633	6.4883	4.0153	0.	119.61
634	6.992	3.5098	0.	124.23
635	7.4961	3.5041	0.	126.96
636	2.964	1.9882	0.	128.05
637	-7.0049	-5.0107	0.	128.96
638	-7.5002	-7.0007	0.	127.01
639	-7.5001	-7.5004	0.	127.67
640	-4.	-6.4893	0.	125.59
641	-1.5815	-7.5272	0.	125.95
642	-2.0284	-7.5044	0.	125.69
643	-2.5131	-7.4983	0.	125.68
644	-3.0071	-7.4961	0.	125.97
645	-3.5037	-7.4953	0.	126.64
646	-5.5019	-5.0095	0.	120.34
647	5.488	2.0233	0.	118.54
648	6.9941	2.0088	0.	128.06
649	7.457	-2.9297	0.	120.51
650	5.8406	-2.8657	0.	125.31
651	-1.0383	-6.4597	0.	127.42
652	-1.0096	-5.0345	0.	129.45
653	0.49486	-5.0633	0.	119.09
654	1.9949	-5.151	0.	126.27
655	-4.9372	5.1067	0.	124.17
656	-4.8741	3.6753	0.	130.73
657	2.5163	-2.1131	0.	122.42
658	-0.74002	-2.2548	0.	127.68
659	-0.94043	-3.6224	0.	131.69
660	-1.4429	-3.5655	0.	127.03
661	-0.87587	-3.1653	0.	133.81
662	-0.79771	-2.7127	0.	132.24
663	-0.69791	-1.7912	0.	130.38
664	-0.67299	-1.3247	0.	135.17
665	1.8279	-1.738	0.	139.97
666	-5.3758	3.6725	0.	130.14
667	-4.8902	4.6241	0.	126.63
668	4.4378	4.1026	0.	119.57
669	2.0643	5.9348	0.	129.68
670	2.3238	4.9456	0.	132.98
671	1.4922	-5.0999	0.	126.45
672	0.99438	-5.0747	0.	121.76
673	-5.2966e-003	-5.0657	0.	124.04
674	-1.0114	-5.5182	0.	129.71
675	-1.0159	-6.0025	0.	128.81
676	6.3862	-2.8699	0.	127.84
677	6.9261	-2.8944	0.	124.48
678	6.4924	2.0127	0.	127.89
679	2.0525	6.9957	0.	134.46
680	-3.999	-5.4779	0.	128.5
681	-4.4975	-4.9821	0.	127.61
682	-4.9986	-4.9959	0.	123.45
683	-4.0018	-7.4959	0.	127.95
684	-4.0009	-6.9931	0.	126.94
685	-7.0001	-7.5004	0.	128.76
686	-6.0044	-5.0148	0.	123.49
687	-6.5055	-5.0152	0.	128.06
688	-7.0025	-5.5066	0.	129.4
689	-7.0011	-6.0037	0.	128.25
690	3.9664	2.0128	0.	122.08
691	3.461	1.989	0.	126.39
692	6.9939	4.0075	0.	122.44
693	7.4971	4.0032	0.	127.86
694	-4.7658	-1.6223	0.	131.16
695	-4.1085	1.705	0.	123.27
696	-4.5828	1.7583	0.	130.39
697	-5.0726	0.79704	0.	130.42
698	1.3382	-1.7063	0.	129.95
699	1.9526	0.57167	0.	131.42
700	1.9767	1.0236	0.	133.1
701	1.5189	1.4529	0.	130.93
702	1.0493	1.4011	0.	121.95
703	0.97061	3.7262	0.	126.96
704	1.4433	3.7354	0.	134.9
705	1.9789	4.1087	0.	133.47
706	-1.2784	4.6961	0.	127.09
707	-0.90402	3.7201	0.	132.47
708	7.3631	-5.4733	0.	132.11
709	6.9604	-5.1451	0.	126.94
710	-2.9101	-2.966	0.	128.78
711	-4.9888	5.5875	0.	128.65
712	-5.5245	6.6047	0.	126.94
713	-6.018	6.6656	0.	124.08
714	-7.3731	3.8222	0.	130.9
715	-6.8716	3.7852	0.	123.5
716	-7.1556	5.5866	0.	131.71
717	-7.5701	5.5661	0.	126.82
718	-7.9683	5.0875	0.	123.35
719	-7.8624	4.6785	0.	125.4
720	4.1949	-2.8409	0.	121.93
721	-6.9942	6.8344	0.	122.4
722	-6.5061	6.757	0.	124.84
723	5.5216	7.0319	0.	135.46
724	2.5145	-5.2329	0.	122.46
725	2.3637	-5.7045	0.	124.89
726	4.2186	-6.0865	0.	127.42
727	4.1241	-5.6582	0.	129.37
728	-2.0867	-0.87866	0.	118.67
729	-1.6337	-0.8063	0.	125.45
730	-1.7539	1.1701	0.	134.16
731	-2.233	1.2235	0.	129.51
732	-0.64784	-0.8497	0.	137.88
733	-0.32134	1.1466	0.	130.55
734	-1.1542	-0.32722	0.	125.2
735	-1.2458	0.64279	0.	129.2
736	3.5983	-8.002	0.	115.74
737	3.0376	-8.2633	0.	109.99
738	2.6138	-8.1802	0.	115.32
739	1.1482	6.067	0.	129.89
740	-0.89012	6.4946	0.	127.67
741	0.11115	6.923	0.	119.71
742	-0.39105	6.9475	0.	122.55
743	5.6383	-5.5371	0.	123.
744	5.0987	-5.1962	0.	125.94
745	4.8011	-6.16	0.	120.66
746	7.498	1.0031	0.	121.62
747	2.8656	0.97069	0.	121.46
748	2.9436	1.4749	0.	126.57
749	3.2626	0.94924	0.	123.86
750	3.089	-2.225	0.	113.72
751	5.0913	6.1218	0.	134.13
752	7.6542	-6.9823	0.	128.49
753	-7.9713	6.8646	0.	123.79
754	-8.012	6.4307	0.	124.78
755	-8.0338	5.9843	0.	125.65
756	-8.0247	5.5333	0.	124.92
757	-8.343	4.4862	0.	125.56
758	-7.8913	3.8773	0.	129.64
759	-7.9336	3.4099	0.	128.59
760	-7.9635	2.9288	0.	127.49
761	-7.9863	2.4411	0.	126.64
762	-8.0022	1.9492	0.	126.04
763	-8.0109	1.455	0.	125.6
764	-8.0136	0.95951	0.	125.26
765	-8.0122	0.46362	0.	125.04
766	-8.008	-3.2825e-002	0.	124.99
767	-8.0004	-0.5304	0.	125.12
768	-7.9904	-1.0282	0.	125.39
769	-7.9879	-1.5251	0.	125.75
770	-8.01	-3.0159	0.	126.79
771	-8.0093	-3.5129	0.	127.1
772	-8.0072	-4.0097	0.	127.41
773	-8.0048	-4.5069	0.	127.66
774	-8.0028	-5.0046	0.	127.72
775	-8.0015	-5.5029	0.	127.44
776	-8.0009	-6.002	0.	126.94
777	-8.0004	-6.5013	0.	126.62
778	-8.0002	-7.0007	0.	126.8
779	-8.0001	-7.5004	0.	127.18
780	5.8693	-2.409	0.	125.33
781	6.9958	1.5066	0.	128.3
782	1.9066	-5.6202	0.	129.22
783	-5.9919	7.1593	0.	125.87
784	-5.9574	7.6389	0.	124.58
785	-5.9128	8.1092	0.	123.03
786	-5.4419	8.0677	0.	123.45
787	-4.9567	8.0396	0.	124.03
788	-4.4636	8.0132	0.	124.64
789	-3.4616	7.9775	0.	125.28
790	-2.9603	8.019	0.	125.38
791	-2.4563	8.0308	0.	125.42
792	-1.9547	8.0165	0.	125.32
793	-1.4508	8.0048	0.	124.93
794	-0.94775	7.9909	0.	124.16
795	-0.44743	7.9796	0.	123.15
796	4.9013e-002	7.976	0.	122.55
797	0.54289	7.9823	0.	122.99
798	1.036	7.9917	0.	124.61
799	1.5285	7.9979	0.	127.13
800	2.0199	8.0009	0.	130.55
801	-1.0344	-7.9676	0.	126.53
802	-1.5373	-8.0054	0.	126.55
803	-2.0246	-8.0049	0.	126.44
804	-2.5145	-8.0008	0.	126.45
805	-3.0081	-7.9984	0.	126.65
806	-3.504	-7.9977	0.	127.04
807	-4.0019	-7.9978	0.	127.46
808	-4.501	-7.9982	0.	126.38
809	-5.0005	-7.9991	0.	121.96
810	-6.0001	-8.	0.	122.25
811	-6.5	-8.0001	0.	126.84
812	-7.	-8.0002	0.	128.03
813	-7.5	-8.0002	0.	127.7
814	-8.	-8.0002	0.	127.37
815	8.0004	7.5001	0.	128.99
816	8.0002	7.0001	0.	128.94
817	8.	6.5001	0.	128.54
818	8.	5.5002	0.	129.05
819	7.9999	5.0004	0.	129.96
820	7.9995	4.5007	0.	130.52
821	7.9987	4.0012	0.	129.78
822	7.9981	3.5017	0.	128.82
823	7.9974	3.0023	0.	128.36
824	7.9975	2.5024	0.	128.08
825	7.997	2.0032	0.	127.52
826	7.9976	1.5029	0.	126.34
827	7.9984	1.0022	0.	124.52
828	5.0069	8.0185	0.	131.26
829	5.5074	8.0153	0.	128.67
830	6.0057	8.0083	0.	122.75
831	6.5036	8.0037	0.	118.98
832	7.002	8.0016	0.	121.98
833	7.5011	8.0007	0.	126.74
834	8.0006	8.0003	0.	127.8
835	7.9763	-2.9598	0.	124.95
836	7.969	-3.4374	0.	126.23
837	7.9623	-3.921	0.	127.49
838	7.9602	-4.421	0.	128.93
839	7.9673	-4.9428	0.	130.55
840	7.9425	-5.4671	0.	131.61
841	7.9817	-5.9798	0.	130.67
842	8.0353	-6.4765	0.	128.61
843	8.0636	-6.9497	0.	127.84
844	7.9034	-7.426	0.	130.27
845	7.9326	-7.9734	0.	131.79
846	4.7722	-2.3947	0.	121.92
847	2.0782	-8.5345	0.	129.46
848	4.6901	-6.599	0.	116.95
849	4.5482	-7.0339	0.	115.71
850	5.2061	-5.7153	0.	126.42
851	-0.34571	6.4283	0.	124.03
852	0.64718	6.4595	0.	118.87
853	2.5281	-8.6139	0.	121.84
854	2.9776	-8.6492	0.	117.45
855	3.9522	-8.5879	0.	133.52
856	-0.7429	0.62726	0.	133.97
857	-0.70055	0.14375	0.	126.03
858	-1.7549	0.65792	0.	133.81
859	-1.6897	-0.31757	0.	123.52
860	-1.7475	0.15539	0.	121.81
861	-0.81615	-7.276	0.	128.38
862	-0.67673	-7.6945	0.	126.58
863	5.0716	6.5824	0.	135.95
864	-6.4841	7.2498	0.	132.58
865	4.2198	-2.357	0.	124.35
866	-7.501	5.143	0.	123.08
867	-7.3729	4.7257	0.	126.08
868	-7.2941	4.2772	0.	136.25
869	-5.5371	6.1011	0.	131.02
870	-6.0445	6.1521	0.	117.94
871	-2.9644	-1.4016	0.	133.95
872	-3.2734	-2.4365	0.	124.29
873	3.2476	0.51154	0.	115.25
874	6.373	-8.4236	0.	118.9
875	6.8978	-8.4825	0.	124.77
876	7.4248	-8.4946	0.	129.33
877	7.9452	-8.4883	0.	131.2
878	7.3617	-7.5207	0.	136.74
879	-0.87128	4.2098	0.	138.46
880	1.4878	4.2453	0.	139.79
881	8.5003	8.0001	0.	127.07
882	8.5	6.5	0.	127.14
883	8.5	6.	0.	127.31
884	8.4998	4.5003	0.	129.59
885	8.4995	4.0004	0.	129.75
886	8.4988	3.0008	0.	129.22
887	8.4985	1.5014	0.	128.71
888	8.4829	-3.4688	0.	130.03
889	8.4718	-4.4582	0.	130.58
890	8.4729	-4.9635	0.	131.16
891	8.4708	-5.4715	0.	131.11
892	8.4879	-5.9748	0.	130.18
893	8.5127	-6.4755	0.	128.94
894	8.5115	-6.9777	0.	128.72
895	8.4612	-7.4751	0.	129.68
896	8.46	-8.4865	0.	131.17
897	5.0032	8.5107	0.	128.06
898	6.0035	8.5064	0.	123.06
899	8.5003	8.5001	0.	126.28
900	-8.5	-8.0001	0.	127.15
901	-8.5001	-7.5002	0.	126.97
902	-8.5002	-7.0004	0.	126.73
903	-8.5003	-6.5006	0.	126.63
904	-8.5048	-4.0056	0.	127.08
905	-8.5062	-3.5077	0.	126.83
906	-8.5045	-2.5099	0.	126.24
907	-8.4484	3.4595	0.	127.72
908	-8.4122	3.9567	0.	127.34
909	-8.5014	5.5011	0.	125.31
910	-8.516	5.9821	0.	126.92
911	-8.5053	6.4569	0.	129.21
912	-8.4697	6.9086	0.	133.88
913	-8.7351	7.5002	0.	129.91
914	-8.6104	7.998	0.	126.19
915	-1.4402e-002	-8.5447	0.	127.25
916	-0.53472	-8.5489	0.	127.96
917	-1.0277	-8.5067	0.	127.58
918	-1.519	-8.5026	0.	127.58
919	-2.0139	-8.5029	0.	127.4
920	-2.5091	-8.5012	0.	127.24
921	-3.0054	-8.4998	0.	127.14
922	-3.503	-8.4991	0.	127.02
923	-4.0016	-8.4989	0.	126.54
924	-4.5008	-8.4991	0.	125.07
925	-5.0005	-8.4994	0.	122.81
926	-5.5002	-8.4997	0.	121.63
927	-6.0001	-8.4999	0.	122.96
928	-6.5	-8.5	0.	125.3
929	-7.	-8.5001	0.	126.8
930	-7.5	-8.5001	0.	127.25
931	-8.	-8.5001	0.	127.27
932	-8.5	-8.5001	0.	127.2
933	1.3585	-1.2339	0.	133.71
934	-4.4628	8.5111	0.	124.48
935	-2.973	8.5056	0.	125.25
936	-1.4663	8.5013	0.	124.82
937	-0.46726	8.4877	0.	123.67
938	2.9697e-002	8.4861	0.	123.3
939	0.52562	8.4889	0.	123.47
940	1.516	8.498	0.	125.9
941	2.0112	8.5004	0.	128.27
942	-4.6033	1.2756	0.	139.49
943	-4.2334	-1.593	0.	131.03
944	4.105	-8.1216	0.	134.36
945	5.5131	7.5227	0.	134.28
946	5.4721	4.5552	0.	135.19
947	7.5008	7.5004	0.	130.68
948	7.4985	4.5019	0.	131.27
949	3.4564	1.4201	0.	129.04
950	-6.5026	-5.5085	0.	131.4
951	-6.5	-7.5004	0.	130.56
952	-4.5008	-7.4972	0.	129.95
953	-4.4987	-5.4869	0.	130.71
954	2.5644	6.4955	0.	137.37
955	6.4952	1.5085	0.	132.61
956	6.9978	1.0042	0.	126.49
957	6.412	-2.4198	0.	131.53
958	5.9026	-1.9451	0.	124.4
959	8.4993	0.50077	0.	133.5
960	8.4933	-2.49	0.	135.52
961	-0.51088	-5.536	0.	132.48
962	1.4459	-5.5697	0.	129.92
963	2.3751	5.4445	0.	126.02
964	-8.3601	7.3442	0.	145.24
965	4.8007	-1.9135	0.	118.25
966	-5.3648	4.1468	0.	140.52
967	1.7888	-1.3043	0.	144.52
968	-1.1461	-1.2725	0.	147.44
969	-1.3795	-3.1063	0.	137.11
970	5.8587	-8.2902	0.	126.42
971	4.4437	-8.6007	0.	139.08
972	4.4886	-7.4912	0.	128.32
973	4.9371	-7.4359	0.	105.31
974	5.9143	-7.828	0.	110.1
975	5.7876	-8.7237	0.	130.5
976	-2.8041	-2.4956	0.	129.13
977	-2.4181	-2.8453	0.	130.61
978	-1.8945	-3.0188	0.	107.09
979	-1.3006	-2.6568	0.	138.82
980	-1.2291	-2.1944	0.	134.81
981	-2.5413	-1.4346	0.	130.5
982	-1.6233	-1.2567	0.	123.52
983	1.8971	-0.88268	0.	127.84
984	2.8215	0.43702	0.	116.01
985	2.414	3.4782e-002	0.	123.63
986	2.115	-0.4375	0.	140.79
987	-5.5217	5.6013	0.	135.87
988	-5.3751	4.6188	0.	124.35
989	-5.4485	5.1051	0.	132.2
990	-5.8591	4.1514	0.	119.27
991	-6.8398	4.283	0.	129.04
992	-6.3547	4.2189	0.	104.34
993	-7.0832	5.2173	0.	127.72
994	4.2457	-1.8705	0.	131.28
995	3.7002	-1.8265	0.	124.61
996	3.1734	-1.745	0.	111.57
997	2.2508	-1.6157	0.	134.81
998	2.6962	-1.6376	0.	113.62
999	-8.2709	7.7407	0.	127.87
1000	-8.153	8.5693	0.	138.3
1001	-8.206	8.1363	0.	136.45
1002	-6.7922	8.3127	0.	133.4
1003	-7.1515	8.5835	0.	127.9
1004	-6.9688	7.3319	0.	128.81
1005	-7.4492	7.3034	0.	108.08
1006	4.427	4.6107	0.	116.31
1007	3.8455	4.6875	0.	108.37
1008	3.2768	4.5338	0.	118.58
1009	4.933	5.66	0.	136.93
1010	4.6942	6.136	0.	133.55
1011	4.6147	6.597	0.	140.56
1012	3.1487	6.2194	0.	119.53
1013	0.97583	-5.5405	0.	120.75
1014	0.48913	-5.5323	0.	110.95
1015	-9.15e-003	-5.5333	0.	124.97
1016	8.4982	-1.9956	0.	135.39
1017	8.4995	-1.4985	0.	137.03
1018	8.4998	-0.99941	0.	138.52
1019	8.4999	-0.49965	0.	136.36
1020	8.4998	4.4474e-004	0.	133.34
1021	6.448	-1.9592	0.	132.26
1022	6.4734	-1.4842	0.	139.36
1023	6.4944	-0.995	0.	140.15
1024	6.4993	-0.49829	0.	141.38
1025	6.4999	1.137e-003	0.	140.13
1026	6.4995	0.50198	0.	138.6
1027	6.4981	1.0044	0.	133.26
1028	3.0521	6.5811	0.	120.63
1029	3.6117	6.5689	0.	98.953
1030	-4.4994	-5.9908	0.	129.53
1031	-4.5003	-6.9957	0.	129.28
1032	-4.4998	-6.4937	0.	129.25
1033	-6.	-7.5001	0.	123.16
1034	-5.5001	-7.4998	0.	112.54
1035	-5.0003	-7.4991	0.	122.68
1036	-6.0017	-5.507	0.	123.95
1037	-4.9991	-5.4962	0.	123.93
1038	-5.5002	-5.5035	0.	113.34
1039	-6.5009	-6.0041	0.	130.32
1040	-6.5002	-6.5018	0.	129.93
1041	-6.5001	-7.0008	0.	129.87
1042	-0.5145	-6.0344	0.	131.14
1043	-0.54956	-6.579	0.	132.
1044	-0.41655	-7.0969	0.	134.47
1045	7.9863	-2.4803	0.	125.36
1046	6.9483	-2.4452	0.	127.88
1047	7.4726	-2.4655	0.	113.44
1048	7.999	0.50128	0.	124.53
1049	7.499	0.50161	0.	112.94
1050	6.9991	0.50205	0.	125.73
1051	3.9819	1.4959	0.	124.65
1052	5.9946	1.5097	0.	126.11
1053	5.4938	1.5118	0.	115.67
1054	4.9904	1.5127	0.	115.56
1055	4.4869	1.5107	0.	114.67
1056	7.4997	5.0008	0.	130.96
1057	7.5	5.5003	0.	132.26
1058	7.5	6.0001	0.	134.16
1059	7.5	6.5001	0.	132.8
1060	7.5002	7.0002	0.	130.2
1061	5.9833	4.5224	0.	126.07
1062	6.4922	4.5091	0.	111.4
1063	6.9963	4.5042	0.	121.79
1064	6.0072	7.5082	0.	123.83
1065	7.0015	7.5009	0.	122.92
1066	6.5031	7.5025	0.	111.6
1067	5.4786	5.0592	0.	132.11
1068	5.4828	5.5608	0.	132.55
1069	5.5277	6.0517	0.	136.99
1070	5.5335	6.5428	0.	136.97
1071	2.5697	-6.2771	0.	120.3
1072	2.3387	-6.6698	0.	133.06
1073	4.0664	-7.5312	0.	146.82
1074	4.0378	-6.9701	0.	136.98
1075	3.8042	-6.532	0.	129.2
1076	3.1377	-7.8602	0.	105.06
1077	2.69	-7.7507	0.	106.45
1078	-2.1527	-0.40226	0.	126.77
1079	-2.5508	-0.5755	0.	121.4
1080	-2.889	-0.9069	0.	120.54
1081	-3.6435	-1.5577	0.	109.92
1082	-3.2793	-1.1832	0.	124.41
1083	-4.1287	1.233	0.	122.3
1084	-2.2559	0.69248	0.	132.68
1085	-2.732	0.8073	0.	117.69
1086	-3.1988	0.95663	0.	114.85
1087	-3.6604	1.1059	0.	112.49
1088	-4.3452	-1.1289	0.	135.86
1089	-4.4323	-0.65403	0.	130.35
1090	-4.5006	-0.17126	0.	135.79
1091	-4.5991	0.796	0.	132.24
1092	-4.5576	0.31363	0.	136.01
1093	5.9428	-1.4757	0.	124.3
1094	4.829	-1.4398	0.	113.78
1095	2.5305	7.0015	0.	136.48
1096	2.5176	7.5016	0.	135.87
1097	2.5104	8.0014	0.	136.34
1098	2.5059	8.501	0.	133.91
1099	1.4061	-6.0447	0.	126.87
1100	1.0675	0.97771	0.	119.36
1101	0.62425	0.85754	0.	110.77
1102	0.18841	0.71508	0.	121.52
1103	-0.25004	0.572	0.	133.82
1104	1.4634	-0.76763	0.	135.53
1105	1.5997	-0.27057	0.	132.95
1106	1.484	0.17223	0.	136.03
1107	1.5124	0.59349	0.	135.31
1108	0.3729	-8.3232	0.	120.32
1109	0.47873	-8.6858	0.	125.05
1110	-0.30183	-7.578	0.	127.78
1111	-0.17712	-8.0503	0.	124.06
1112	1.4811	-8.7599	0.	126.49
1113	1.6454	-8.3919	0.	128.52
1114	-9.	-8.5	0.	127.15
1115	-9.	-8.0001	0.	127.03
1116	-9.	-7.5001	0.	126.86
1117	-9.0001	-7.0002	0.	126.69
1118	-9.0002	-6.5003	0.	126.61
1119	-9.0003	-6.0004	0.	126.66
1120	-9.0006	-5.5007	0.	126.78
1121	-9.0011	-5.0012	0.	126.88
1122	-9.0019	-4.5019	0.	126.87
1123	-9.003	-4.003	0.	126.76
1124	-9.0038	-3.504	0.	126.55
1125	-9.0038	-3.0046	0.	126.29
1126	-9.0025	-2.5049	0.	126.
1127	-8.9979	-1.5058	0.	125.42
1128	-8.998	-1.0073	0.	125.19
1129	-9.0002	-0.50878	0.	125.06
1130	-9.003	-1.0519e-002	0.	125.04
1131	-9.0049	0.48732	0.	125.15
1132	-9.0053	0.98658	0.	125.38
1133	-9.004	1.4876	0.	125.7
1134	-9.	1.9879	0.	126.09
1135	-8.9927	2.4878	0.	126.5
1136	-8.9813	2.987	0.	126.83
1137	-8.9644	3.486	0.	126.89
1138	-8.9411	3.987	0.	126.48
1139	-8.9239	4.4887	0.	125.77
1140	-8.9605	4.9902	0.	125.47
1141	-8.9925	5.4918	0.	126.13
1142	-9.0042	5.9944	0.	127.59
1143	-8.9986	6.5038	0.	129.7
1144	-8.9718	7.0506	0.	131.67
1145	-9.1104	7.5442	0.	127.27
1146	-9.0812	8.0243	0.	125.24
1147	-9.0611	8.5185	0.	126.59
1148	-9.0366	9.0149	0.	127.67
1149	-8.5502	9.0203	0.	132.
1150	-8.0479	9.0216	0.	131.9
1151	-7.4957	8.9531	0.	108.3
1152	-5.9306	9.0492	0.	127.04
1153	-5.4488	9.0352	0.	125.27
1154	-4.9623	9.021	0.	124.75
1155	-4.4709	9.0087	0.	124.81
1156	-2.9826	9.002	0.	125.27
1157	-2.4815	9.0047	0.	125.26
1158	-1.9811	9.0022	0.	125.15
1159	-1.4806	8.9995	0.	124.93
1160	-0.98071	8.9959	0.	124.61
1161	-0.48178	8.9931	0.	124.27
1162	1.6243e-002	8.9923	0.	124.05
1163	0.51367	8.9937	0.	124.07
1164	1.0109	8.9962	0.	124.41
1165	1.5084	8.9985	0.	125.13
1166	2.0058	9.0001	0.	127.03
1167	2.5031	9.0006	0.	129.53
1168	4.5368	7.0524	0.	136.13
1169	4.5104	7.5247	0.	131.95
1170	4.5038	8.013	0.	133.93
1171	4.5016	8.5071	0.	132.31
1172	4.5006	9.0038	0.	128.87
1173	5.0014	9.0059	0.	126.5
1174	5.502	9.0057	0.	124.58
1175	6.0019	9.0041	0.	123.41
1176	7.001	9.0011	0.	123.5
1177	7.5006	9.0005	0.	124.58
1178	8.0004	9.0002	0.	125.34
1179	8.5002	9.0001	0.	125.54
1180	9.0001	9.	0.	125.36
1181	9.0001	8.5	0.	125.75
1182	9.0002	8.	0.	126.08
1183	9.	7.	0.	126.08
1184	9.	6.5	0.	126.02
1185	9.	6.	0.	126.3
1186	9.	5.	0.	127.95
1187	8.9999	4.5001	0.	128.86
1188	8.9998	4.0001	0.	129.46
1189	8.9995	3.0002	0.	129.87
1190	8.9994	2.5004	0.	129.93
1191	8.9995	2.0004	0.	130.05
1192	8.9993	1.5005	0.	130.46
1193	8.9998	3.5287e-004	0.	132.5
1194	8.9999	-0.49975	0.	132.44
1195	8.9998	-0.99971	0.	133.49
1196	8.9995	-1.4993	0.	133.6
1197	8.9986	-1.9981	0.	134.5
1198	8.9966	-2.4956	0.	134.8
1199	8.9944	-2.9915	0.	133.82
1200	8.9917	-3.4863	0.	132.66
1201	8.9885	-3.9819	0.	132.13
1202	8.9844	-4.4797	0.	131.94
1203	8.9826	-4.9798	0.	131.72
1204	8.984	-5.481	0.	131.21
1205	8.992	-5.9825	0.	130.33
1206	9.0016	-6.4847	0.	129.49
1207	8.9997	-6.9886	0.	129.22
1208	8.982	-7.4898	0.	129.66
1209	8.9733	-7.9889	0.	130.37
1210	8.9746	-8.4905	0.	130.91
1211	8.9814	-8.9934	0.	131.23
1212	8.4696	-8.9914	0.	131.27
1213	7.9559	-8.9926	0.	130.91
1214	6.3104	-8.9478	0.	126.9
1215	5.8358	-9.1153	0.	129.39
1216	5.3735	-9.1289	0.	118.54
1217	4.8589	-9.0081	0.	110.77
1218	4.4046	-9.0758	0.	126.61
1219	3.4636	-9.0385	0.	125.8
1220	2.9757	-9.0703	0.	122.68
1221	2.4701	-9.0607	0.	124.83
1222	1.9295	-9.0111	0.	127.12
1223	1.4418	-9.1325	0.	119.96
1224	0.96731	-9.1051	0.	110.31
1225	0.47509	-9.0939	0.	121.92
1226	-2.1544e-002	-9.0475	0.	127.72
1227	-0.51946	-9.0279	0.	128.74
1228	-1.0162	-9.0109	0.	128.91
1229	-1.5114	-9.0039	0.	128.66
1230	-2.5046	-9.0009	0.	127.9
1231	-3.003	-9.0002	0.	127.48
1232	-3.5018	-8.9997	0.	126.93
1233	-4.001	-8.9996	0.	126.08
1234	-4.5005	-8.9996	0.	124.81
1235	-5.0003	-8.9997	0.	123.45
1236	-6.5	-9.	0.	124.85
1237	-7.	-9.	0.	126.04
1238	-7.5	-9.0001	0.	126.74
1239	-8.	-9.0001	0.	127.04
1240	-8.5	-9.	0.	127.15
1241	-9.	-9.	0.	127.2
1242	3.6242	0.47231	0.	138.04
1243	3.6158	-4.4428e-002	0.	133.67
1244	1.0455	5.602	0.	132.17
1245	0.73375	5.9944	0.	127.26
1246	1.3256	4.7153	0.	121.84
1247	1.2812	5.1538	0.	139.19
1248	-0.79613	4.6752	0.	121.33
1249	-0.28828	5.9274	0.	127.96
1250	-0.47316	5.5142	0.	131.04
1251	-0.64713	5.1028	0.	139.66
1252	-0.40985	4.2026	0.	131.7
1253	4.3751e-002	4.1952	0.	108.73
1254	0.49608	4.1935	0.	107.76
1255	0.96819	4.2045	0.	136.1
1256	5.8312	-5.9577	0.	125.41
1257	5.0056	-7.086	0.	105.11
1258	5.3901	-6.261	0.	134.21
1259	5.1757	-6.7036	0.	104.09
1260	6.8646	-7.5427	0.	133.74
1261	6.3951	-7.4922	0.	102.87
1262	5.4202	-7.2891	0.	133.3
1263	5.9322	-7.3956	0.	128.29
1264	6.8674	-5.7821	0.	135.95
1265	6.9984	-6.2014	0.	133.47
1266	7.2237	-7.0743	0.	124.92
1267	7.106	-6.6365	0.	136.44
1268	1.3721	-6.529	0.	124.48
1269	1.3525	-7.0209	0.	112.74
1270	-9.0152	9.5081	0.	126.28
1271	-8.5175	9.5089	0.	127.23
1272	-8.0096	9.5017	0.	123.3
1273	-7.4939	9.482	0.	120.58
1274	-6.9778	9.4871	0.	123.58
1275	-6.4701	9.514	0.	126.34
1276	-5.9699	9.5219	0.	126.15
1277	-5.4747	9.5176	0.	125.68
1278	-4.9803	9.511	0.	125.44
1279	-4.4851	9.505	0.	125.41
1280	-3.9889	9.5007	0.	125.44
1281	-3.4912	9.4992	0.	125.46
1282	-2.9917	9.5005	0.	125.45
1283	-2.4913	9.5016	0.	125.4
1284	-1.9905	9.5013	0.	125.29
1285	-1.4909	9.4996	0.	125.15
1286	-0.99122	9.4981	0.	124.99
1287	-0.49184	9.4969	0.	124.86
1288	7.1602e-003	9.4966	0.	124.82
1289	0.50596	9.4972	0.	124.88
1290	1.0047	9.4982	0.	125.04
1291	1.5036	9.4993	0.	125.27
1292	2.0025	9.5	0.	125.83
1293	2.5015	9.5003	0.	128.2
1294	3.0007	9.5001	0.	124.13
1295	3.5002	9.5001	0.	113.71
1296	4.	9.5004	0.	123.26
1297	4.5002	9.5017	0.	127.38
1298	5.0005	9.5026	0.	125.
1299	5.5009	9.5026	0.	124.32
1300	6.001	9.5021	0.	123.96
1301	6.5008	9.5012	0.	123.84
1302	7.0005	9.5006	0.	124.05
1303	7.5003	9.5003	0.	124.47
1304	8.0002	9.5001	0.	124.86
1305	8.5001	9.5001	0.	125.06
1306	9.0001	9.5	0.	125.08
1307	9.5	9.5	0.	125.01
1308	9.5	9.	0.	125.05
1309	9.5001	8.5	0.	125.08
1310	9.5001	8.	0.	125.05
1311	9.5	7.5	0.	124.92
1312	9.5	7.	0.	124.78
1313	9.5	6.5	0.	124.82
1314	9.5	6.	0.	125.22
1315	9.5	5.5	0.	126.03
1316	9.5	5.	0.	127.13
1317	9.5	4.5	0.	128.3
1318	9.4999	4.	0.	129.33
1319	9.4999	3.5	0.	130.1
1320	9.4998	3.0001	0.	130.62
1321	9.4998	2.5001	0.	130.94
1322	9.4997	2.0002	0.	131.15
1323	9.4997	1.5002	0.	131.32
1324	9.4997	1.0002	0.	131.43
1325	9.4998	0.50018	0.	131.31
1326	9.4999	1.2784e-004	0.	130.87
1327	9.4999	-0.49992	0.	130.78
1328	9.4999	-0.99993	0.	131.21
1329	9.4997	-1.4998	0.	132.16
1330	9.4993	-1.9993	0.	133.35
1331	9.4986	-2.4984	0.	134.4
1332	9.4977	-2.9968	0.	134.71
1333	9.4965	-3.4949	0.	134.47
1334	9.4949	-3.9931	0.	133.97
1335	9.4929	-4.4918	0.	133.32
1336	9.4919	-4.9911	0.	132.5
1337	9.4927	-5.4908	0.	131.5
1338	9.4961	-5.9914	0.	130.45
1339	9.4994	-6.4929	0.	129.62
1340	9.4982	-6.9951	0.	129.28
1341	9.4922	-7.4961	0.	129.5
1342	9.4881	-7.9959	0.	130.06
1343	9.4879	-8.4959	0.	130.69
1344	9.4908	-8.9967	0.	131.23
1345	8.9895	-9.4959	0.	131.42
1346	8.4829	-9.495	0.	131.35
1347	7.9735	-9.4948	0.	131.04
1348	7.4611	-9.4938	0.	130.3
1349	6.9418	-9.4865	0.	129.34
1350	6.4299	-9.4898	0.	128.51
1351	5.9322	-9.5392	0.	125.46
1352	5.4321	-9.5477	0.	118.04
1353	4.9403	-9.5214	0.	113.73
1354	4.4555	-9.5314	0.	121.65
1355	3.9684	-9.5282	0.	127.
1356	3.4786	-9.5246	0.	127.17
1357	2.9824	-9.5306	0.	125.91
1358	2.4785	-9.5264	0.	125.49
1359	1.9762	-9.5209	0.	124.02
1360	1.4787	-9.5509	0.	118.86
1361	0.98076	-9.5526	0.	115.41
1362	0.48377	-9.5433	0.	119.27
1363	-1.3808e-002	-9.5262	0.	125.63
1364	-0.51107	-9.5146	0.	128.51
1365	-1.0083	-9.5068	0.	129.42
1366	-1.5056	-9.5028	0.	129.35
1367	-2.0035	-9.5012	0.	128.92
1368	-2.5022	-9.5006	0.	128.34
1369	-3.0014	-9.5002	0.	127.69
1370	-3.5009	-9.5	0.	126.9
1371	-4.0005	-9.4999	0.	125.93
1372	-4.5003	-9.4998	0.	124.8
1373	-5.0001	-9.4999	0.	123.83
1374	-5.5001	-9.4999	0.	123.43
1375	-6.	-9.5	0.	123.8
1376	-6.5	-9.5	0.	124.7
1377	-7.	-9.5	0.	125.68
1378	-7.5	-9.5	0.	126.41
1379	-8.	-9.5	0.	126.85
1380	-8.5	-9.5	0.	127.07
1381	-9.	-9.5	0.	127.21
1382	-9.5	-9.5	0.	127.36
1383	-9.5	-9.	0.	127.28
1384	-9.5	-8.5	0.	127.15
1385	-9.5	-8.	0.	126.97
1386	-9.5	-7.5	0.	126.77
1387	-9.5001	-7.0001	0.	126.6
1388	-9.5001	-6.5001	0.	126.51
1389	-9.5002	-6.0002	0.	126.51
1390	-9.5003	-5.5003	0.	126.58
1391	-9.5005	-5.0005	0.	126.64
1392	-9.5009	-4.5009	0.	126.64
1393	-9.5015	-4.0013	0.	126.54
1394	-9.5018	-3.5018	0.	126.35
1395	-9.5017	-3.0019	0.	126.08
1396	-9.5011	-2.5019	0.	125.76
1397	-9.5001	-2.0019	0.	125.43
1398	-9.4993	-1.5023	0.	125.13
1399	-9.4994	-1.003	0.	124.91
1400	-9.5003	-0.50402	0.	124.79
1401	-9.5015	-5.0986e-003	0.	124.82
1402	-9.5023	0.49387	0.	124.97
1403	-9.5023	0.9936	0.	125.25
1404	-9.5016	1.4946	0.	125.61
1405	-9.4997	1.9954	0.	125.98
1406	-9.496	2.4959	0.	126.28
1407	-9.4902	2.9962	0.	126.45
1408	-9.4819	3.4962	0.	126.41
1409	-9.472	3.9956	0.	126.2
1410	-9.4678	4.4938	0.	125.99
1411	-9.4798	4.9931	0.	126.08
1412	-9.4936	5.4942	0.	126.6
1413	-9.4995	5.9988	0.	127.39
1414	-9.4972	6.5064	0.	127.96
1415	-9.5001	7.0121	0.	127.37
1416	-9.5372	7.5135	0.	125.58
1417	-9.5398	8.0141	0.	124.05
1418	-9.5302	8.5114	0.	124.2
1419	-9.5188	9.0084	0.	124.94
1420	-9.5087	9.5051	0.	125.13
1421	4.2542	-1.372	0.	113.47
1422	3.9184	-1.0779	0.	148.45
1423	-3.9622	7.9877	0.	125.05
1424	8.4991	3.5007	0.	129.5
1425	3.9553	2.539	0.	121.17
1426	-2.0002	-4.4898	0.	125.46
1427	5.0155	7.5316	0.	134.71
1428	5.504	8.5098	0.	125.81
1429	-3.4982	-4.9643	0.	127.33
1430	-6.3664	8.1687	0.	123.41
1431	7.4322	-8.9913	0.	129.6
1432	-4.4962	2.7414	0.	127.22
1433	-1.9944	6.5925	0.	126.24
1434	4.9717	5.1022	0.	131.
1435	2.5847e-002	3.7042	0.	116.82
1436	-0.5762	-0.34808	0.	132.7
1437	8.9996	3.5002	0.	129.75
1438	-1.1662	5.1446	0.	123.93
1439	-3.5385	6.8984	0.	125.91
1440	1.9341	-2.1844	0.	130.16
1441	-8.4717	2.9635	0.	127.33
1442	-2.0897	-1.3425	0.	111.16
1443	-0.79007	1.1379	0.	134.03
1444	-5.5001	-8.9998	0.	122.84
1445	-3.161	-1.8924	0.	116.16
1446	-3.9077	5.5678	0.	124.97
1447	-2.3083	4.7806	0.	124.32
1448	-6.9504	2.8325	0.	124.52
1449	-2.4928	-0.97786	0.	123.13
1450	-3.8586	4.099	0.	125.19
1451	5.9128	-4.5348	0.	121.6
1452	-0.87428	6.0164	0.	129.12
1453	6.4873	3.0184	0.	124.18
1454	-2.4731	7.0985	0.	125.8
1455	9.4948	-9.4976	0.	131.6
1456	7.0017	8.5016	0.	122.81
1457	-2.4696	8.5151	0.	125.27
1458	-3.0033	-6.9929	0.	125.28
1459	3.0283	-5.3857	0.	113.53
1460	-8.5006	-6.0011	0.	126.78
1461	-5.4305	8.5533	0.	124.24
1462	0.82746	-1.625	0.	119.03
1463	-1.9451	-3.496	0.	120.62
1464	4.6007	-4.7404	0.	125.36
1465	6.0382	-5.3405	0.	117.24
1466	-0.90854	6.9875	0.	125.45
1467	-4.219	-2.0479	0.	123.81
1468	5.9815	3.0284	0.	123.12
1469	-5.8835	3.6958	0.	120.12
1470	-1.1675	-1.7302	0.	131.54
1471	3.6182	-5.1681	0.	122.28
1472	1.1178	6.519	0.	128.61
1473	0.3298	-1.4788	0.	117.24
1474	-0.98377	-6.8725	0.	128.05
1475	-2.8412	4.8478	0.	123.93
1476	-3.002	-5.9826	0.	125.43
1477	-3.8736	4.5641	0.	124.39
1478	2.8081	-5.8567	0.	119.32
1479	-8.4517	5.0107	0.	124.54
1480	-1.1919	-7.4696	0.	126.56
1481	-6.019	-4.0414	0.	125.58
1482	4.4506	3.5799	0.	119.69
1483	-2.008	-9.0021	0.	128.3
1484	-0.15997	-0.96281	0.	129.57
1485	-3.3659	-2.9527	0.	128.
1486	-7.9187	7.2685	0.	119.94
1487	1.084	6.9965	0.	126.07
1488	6.3949	-5.1683	0.	117.53
1489	5.4684	4.0522	0.	130.14
1490	5.47	3.547	0.	124.84
1491	8.5001	7.	0.	127.28
1492	8.5	5.5001	0.	127.9
1493	-8.5089	0.9756	0.	125.37
1494	-4.6701	-2.9862	0.	126.15
1495	-8.5033	-4.5041	0.	127.23
1496	1.9072	3.7084	0.	133.72
1497	6.8988	-7.9988	0.	124.
1498	-4.5431	6.0497	0.	128.12
1499	6.3881	-4.0752	0.	123.02
1500	-3.9922	-4.4626	0.	127.58
1501	-6.9344	8.98	0.	128.77
1502	-1.376	3.2274	0.	130.84
1503	-7.0092	1.875	0.	125.47
1504	8.4765	-3.9594	0.	130.05
1505	5.4817	2.5329	0.	120.15
1506	2.5382	-2.6741	0.	120.97
1507	6.8906	-8.9787	0.	127.23
1508	-6.0419	1.3147	0.	127.01
1509	3.6616	-2.3028	0.	119.96
1510	-0.44377	3.2034	0.	125.68
1511	-3.9996	-5.9845	0.	127.23
1512	-8.4954	-1.016	0.	125.33
1513	-8.5	-2.0115	0.	125.92
1514	-5.0088	7.0584	0.	126.63
1515	-7.0225	0.41302	0.	124.85
1516	-0.96561	8.4936	0.	124.28
1517	-1.6952	5.1922	0.	124.37
1518	-1.9985	-7.004	0.	125.27
1519	8.4985	2.0012	0.	128.77
1520	-5.1931	-2.1306	0.	128.56
1521	0.17599	6.347	0.	115.01
1522	0.48913	3.2224	0.	120.64
1523	-3.9682	8.4967	0.	124.84
1524	-0.58225	-8.1048	0.	126.1
1525	-3.2171	5.8506	0.	124.75
1526	-1.3475	4.2265	0.	129.88
1527	3.5423	-5.648	0.	125.97
1528	3.0942	-3.2392	0.	119.45
1529	6.5016	9.0024	0.	122.93
1530	9.	5.5	0.	126.98
1531	-5.5003	-7.9996	0.	119.07
1532	-8.5049	-2.0335e-002	0.	125.07
1533	-4.3635	4.1413	0.	126.61
1534	-5.5362	1.7839	0.	129.21
1535	-8.0081	-2.5194	0.	126.46
1536	8.0006	8.5003	0.	126.28
1537	6.6261	-5.4545	0.	122.62
1538	-5.0768	1.2872	0.	132.68
1539	-6.6874	8.6423	0.	132.
1540	-5.5046	-4.517	0.	123.35
1541	-5.8809	-1.2634	0.	127.34
1542	-6.0205	-0.18452	0.	125.25
1543	3.9402	3.0611	0.	119.95
1544	-0.24037	-2.3154	0.	126.2
1545	-7.5022	-5.5047	0.	128.13
1546	-8.5011	-5.5017	0.	127.04
1547	-7.4552	2.8816	0.	126.55
1548	-8.0007	-2.0223	0.	126.12
1549	7.4113	-7.998	0.	132.28
1550	-1.4349	7.0234	0.	126.22
1551	6.3972	-7.9434	0.	112.92
1552	-4.5137	7.0249	0.	126.73
1553	-3.4815	8.9978	0.	125.18
1554	8.4988	1.0013	0.	129.78
1555	-4.8561	-1.1546	0.	130.61
1556	-1.4658	-7.0355	0.	126.03
1557	3.619	0.94873	0.	127.91
1558	1.7455	4.6959	0.	130.74
1559	1.9604	2.3856	0.	129.54
1560	1.5224	1.0184	0.	141.09
1561	3.4467	-8.5118	0.	118.35
1562	9.0168e-002	1.7171	0.	123.34
1563	-8.5982	8.5263	0.	130.
1564	-4.8508e-002	-0.58313	0.	132.76
1565	-4.2639	-2.95	0.	125.6
1566	-1.5094	-5.0124	0.	127.71
1567	-3.3675	4.4689	0.	124.2
1568	8.4519	-7.9772	0.	130.72
1569	-0.50757	-5.055	0.	129.34
1570	-6.4067	3.2593	0.	120.31
1571	-4.0203	6.9817	0.	126.32
1572	8.4986	2.5011	0.	128.99
1573	-7.009	-4.5173	0.	128.
1574	3.4344	3.5842	0.	120.19
1575	1.5696	7.0031	0.	130.69
1576	0.27445	-1.9277	0.	121.53
1577	3.9415	3.5848	0.	117.73
1578	-8.502	-5.0029	0.	127.23
1579	3.6241	-3.7711	0.	120.69
1580	1.426	-2.6826	0.	126.87
1581	-7.0005	-6.5023	0.	126.64
1582	7.479	-6.033	0.	132.42
1583	2.6492	5.9504	0.	132.64
1584	-7.5596	5.9914	0.	126.07
1585	-6.7849	5.4644	0.	133.14
1586	2.2476e-002	3.208	0.	121.01
1587	-1.3765	3.7334	0.	131.64
1588	4.7201	-3.3423	0.	122.65
1589	-5.9495	2.7471	0.	124.53
1590	-1.9788	-3.9929	0.	123.39
1591	-6.9098	-1.5805	0.	126.29
1592	-0.43514	3.7062	0.	126.04
1593	-8.5067	1.4738	0.	125.71
1594	-6.4517	7.7319	0.	125.96
1595	6.2271	-5.6968	0.	106.4
1596	9.0001	7.5	0.	126.18
1597	-7.0191	-7.2589e-002	0.	124.81
1598	8.487	-2.9785	0.	131.41
1599	5.4022	-1.4677	0.	113.25
1600	3.5261e-003	-4.6016	0.	125.46
1601	-1.7817	2.2096	0.	130.9
1602	0.88129	-1.1401	0.	106.8
1603	-3.9772	9.0003	0.	125.01
1604	5.0542	-4.7246	0.	124.68
1605	-3.7197	-2.0202	0.	117.61
1606	-5.1463	-2.5913	0.	127.42
1607	2.0773	6.4794	0.	135.42
1608	8.9992	1.0006	0.	131.49
1609	3.7311	-6.1108	0.	130.96
1610	-6.0001	-8.9999	0.	123.49
1611	8.	6.0001	0.	129.15
1612	-5.9	8.5821	0.	125.55
1613	-9.0001	-2.0056	0.	125.7
1614	6.5027	8.5034	0.	121.6
1615	-3.5007	-5.9825	0.	125.92
1616	1.986	1.9325	0.	130.13
1617	-3.4727	-3.9502	0.	127.41
1618	-4.3885	3.6686	0.	127.67
1619	-8.4887	2.4678	0.	126.72
1620	-5.0295	6.0747	0.	131.28
1621	4.1278	-4.2644	0.	122.89
1622	-1.9677	8.5084	0.	125.14
1623	1.9083	0.13148	0.	129.98
1624	0.59841	6.9619	0.	121.02
1625	5.036	7.0527	0.	137.95
1626	5.9902	2.0175	0.	123.71
1627	-7.0002	-7.0014	0.	127.92
1628	-8.4949	-1.5141	0.	125.6
1629	-3.4326	7.4248	0.	125.62
1630	0.49521	3.71	0.	116.63
1631	3.1589	-4.855	0.	119.53
1632	3.6427	-2.7887	0.	119.48
1633	3.9418	-9.0544	0.	130.53
1634	8.9995	0.50059	0.	132.45
1635	5.979	4.0296	0.	124.06
1636	-4.8829	4.1501	0.	129.66
1637	-5.5554	1.2961	0.	129.19
1638	-6.4218	9.0551	0.	129.75
1639	4.4664	2.5425	0.	118.78
1640	4.6905	-5.6943	0.	127.42
1641	-1.5117	-6.5023	0.	126.15
1642	1.9129	3.2812	0.	131.74
1643	1.0215	8.4938	0.	124.3
1644	-4.9506	8.532	0.	124.13
1645	5.9398	-4.9544	0.	119.86
1646	-7.0186	-3.531	0.	127.18
1647	-7.0307	6.3792	0.	123.37
1648	6.4891	2.5164	0.	125.52
1649	-4.4172	5.0884	0.	124.63
1650	8.5	5.0002	0.	128.78
1651	8.5002	7.5001	0.	127.48
1652	-8.5001	-0.5187	0.	125.14
1653	-3.997	-4.9711	0.	128.25
1654	-8.5002	1.9706	0.	126.16
1655	7.5011	8.5008	0.	125.04
1656	-6.9117	3.3077	0.	123.86
1657	2.9265	3.641	0.	125.51
1658	-8.5064	-3.0093	0.	126.55
1659	-3.4703	8.4945	0.	125.1
1660	-7.0154	-0.55659	0.	125.1
1661	-5.3746	-1.1888	0.	128.79
1662	-8.508	0.47604	0.	125.15
1663	-6.0092	-4.5253	0.	124.64
1664	0.97327	2.7674	0.	124.69
1665	5.4733	3.0395	0.	122.05
1666	-7.0218	1.3889	0.	125.41
1667	4.9542	4.0746	0.	128.38
1668	4.9585	4.5826	0.	140.91
1669	2.0549	-7.039	0.	147.46
1670	1.6998	-7.0396	0.	127.67
1671	2.0715	-6.5786	0.	137.44
1672	1.7376	-6.5579	0.	129.35
1673	2.2057	-6.1496	0.	128.66
1674	1.8125	-6.0868	0.	130.22
1675	5.3537	-1.9368	0.	117.69
1676	5.321	-2.407	0.	121.24
1677	-4.4352	3.2047	0.	127.65
1678	4.2306	-6.531	0.	124.02
1679	-6.0902	-2.2712	0.	127.49
1680	0.52123	2.256	0.	122.25
1681	-6.6088	5.8305	0.	120.66
1682	6.3475	-4.4413	0.	121.91
1683	-1.2106	0.15351	0.	125.36
1684	0.19989	-7.9354	0.	134.45
1685	6.0994e-002	-7.4897	0.	118.07
1686	7.5662	-6.5244	0.	127.8
1687	-6.3387	8.6152	0.	130.44
1688	3.7516	-0.56125	0.	151.32
1689	-1.1427	-0.80554	0.	134.65
1690	0.29305	-2.8338	0.	125.83
1691	7.5501e-002	-3.2748	0.	127.7
1692	1.025	1.846	0.	122.86
1693	0.99792	2.3034	0.	124.05
1694	1.5028	1.8952	0.	128.01
1695	1.4779	2.3449	0.	127.45
1696	-2.8657	3.8617	0.	125.31
1697	-2.8695	3.309	0.	125.66
1698	-3.3625	3.9851	0.	124.82
1699	-3.3923	3.5021	0.	125.05
1700	-3.892	3.6208	0.	125.85
1701	-3.9573	3.147	0.	125.71
1702	1.9473	-7.5403	0.	143.47
1703	2.2822	-7.653	0.	129.74
1704	1.8112	-7.9854	0.	149.53
1705	2.1994	-8.0921	0.	127.94
1706	1.8445e-002	-4.1502	0.	126.82
1707	4.0145e-002	-3.7061	0.	127.76
1708	0.52259	-4.1534	0.	124.9
1709	0.52875	-3.7046	0.	125.97
1710	1.0292	-4.1467	0.	124.34
1711	1.0233	-3.6784	0.	125.11
1712	5.8202	-3.7245	0.	123.64
1713	5.8208	-3.3094	0.	124.55
1714	6.3737	-3.7058	0.	123.96
1715	6.3726	-3.3019	0.	125.28
1716	6.9157	-3.7525	0.	123.99
1717	6.9156	-3.3335	0.	124.02
1718	7.4428	-3.8514	0.	125.11
1719	7.4464	-3.3882	0.	123.44
1720	2.7661	4.7396	0.	130.18
1721	-1.8168	2.739	0.	130.
1722	-1.3544	2.7096	0.	130.7
1723	-0.89024	2.7061	0.	129.34
1724	-0.43008	2.6983	0.	126.25
1725	-2.6018	6.2047	0.	125.22
1726	-2.5353	6.6544	0.	125.68
1727	2.8708	5.1835	0.	141.7
1728	3.3636	4.9844	0.	107.86
1729	-7.705	7.6625	0.	127.1
1730	-7.9	7.835	0.	150.9
1731	-8.1105	7.6604	0.	145.
1732	-7.9344	7.4242	0.	142.08
1733	-7.215	7.8275	0.	121.46
1734	-7.165	8.0825	0.	105.82
1735	-6.8811	8.1113	0.	144.56
1736	-6.9694	7.6209	0.	141.66
1737	-6.7108	7.821	0.	140.97
1738	-7.8	8.345	0.	133.32
1739	-7.555	8.4275	0.	88.449
1740	-7.9515	8.5847	0.	131.
1741	-7.6228	8.7766	0.	115.75
1742	3.2433	5.47	0.	124.08
1743	3.1867	5.73	0.	117.29
1744	2.8196	5.7502	0.	146.68
1745	2.9304	5.3668	0.	150.99
1746	4.2567	5.15	0.	129.13
1747	4.4533	5.33	0.	146.34
1748	4.4685	4.8403	0.	136.59
1749	4.7408	5.0861	0.	142.89
1750	4.085	6.815	0.	115.2
1751	3.9733	6.45	0.	100.37
1752	4.2267	6.37	0.	126.59
1753	4.3923	6.6135	0.	128.81
1754	3.8909	6.5994	0.	107.82
1755	-5.88	4.8175	0.	144.96
1756	-6.07	4.6275	0.	129.43
1757	-5.5926	4.5894	0.	142.77
1758	-5.8345	4.3557	0.	141.
1759	-6.02	5.3325	0.	122.99
1760	-6.28	5.4	0.	82.533
1761	-6.0673	5.8711	0.	116.11
1762	-5.8059	5.5957	0.	124.79
1763	-6.3494	5.7103	0.	116.56
1764	-6.59	4.7625	0.	124.8
1765	-6.66	5.02	0.	106.81
1766	-7.1115	4.7779	0.	141.53
1767	-6.8449	4.5565	0.	142.19
1768	-6.9666	5.0237	0.	142.18
1769	-0.15	4.695	0.	138.97
1770	-0.25167	4.8817	0.	144.11
1771	-0.57806	4.6876	0.	148.85
1772	-0.38492	4.4513	0.	154.45
1773	0.69	4.675	0.	139.67
1774	0.79863	4.8561	0.	146.16
1775	1.1128	4.6927	0.	149.19
1776	0.9341	4.4373	0.	156.68
1777	0.18167	5.6083	0.	103.07
1778	0.39181	5.6031	0.	103.34
1779	0.51187	5.8922	0.	118.18
1780	8.594e-004	5.8587	0.	118.54
1781	0.23299	6.0685	0.	112.04
1782	-4.1137	0.5775	0.	149.38
1783	-3.9213	0.73125	0.	131.03
1784	-4.1393	1.0265	0.	139.48
1785	-4.3745	0.808	0.	143.54
1786	-3.8963	-0.8775	0.	135.32
1787	-3.6675	-0.96625	0.	111.98
1788	-3.7517	-1.3389	0.	120.33
1789	-4.1026	-1.1245	0.	133.12
1790	-2.5487	0.19875	0.	124.12
1791	-2.5125	-4.375e-002	0.	120.3
1792	-2.0337	0.1327	0.	137.68
1793	-2.2364	-0.14613	0.	140.04
1794	-2.288	0.40124	0.	142.52
1795	0.87667	0.51833	0.	127.15
1796	1.0667	0.39333	0.	151.39
1797	1.0738	0.79885	0.	137.23
1798	1.2962	0.60674	0.	143.92
1799	6.3333e-002	0.11167	0.	121.26
1800	5.e-002	-0.115	0.	117.48
1801	-0.42028	7.6875e-002	0.	145.49
1802	-0.19502	0.291	0.	148.98
1803	-0.3581	-0.16904	0.	148.7
1804	1.0133	-0.51333	0.	138.37
1805	0.81	-0.615	0.	112.15
1806	1.2317	-0.75381	0.	134.09
1807	0.94065	-0.94004	0.	120.55
1808	2.45	-1.1117	0.	140.62
1809	2.37	-0.86833	0.	129.65
1810	2.0486	-0.97134	0.	152.16
1811	2.2254	-1.3378	0.	155.17
1812	3.6407	-1.1895	0.	158.99
1813	3.45	-1.3183	0.	143.28
1814	3.7001	-1.5982	0.	150.01
1815	3.9771	-1.371	0.	143.29
1816	3.05	-0.10167	0.	102.91
1817	3.281	-9.5592e-002	0.	128.06
1818	3.2338	0.30077	0.	115.62
1819	3.0207	0.26351	0.	115.65
1820	3.4179	2.2786e-002	0.	124.52
1821	-1.855	-1.705	0.	128.77
1822	-1.6575	-1.875	0.	154.06
1823	-1.6166	-1.4383	0.	145.07
1824	-1.3888	-1.6751	0.	148.14
1825	-2.345	-1.875	0.	119.17
1826	-2.3925	-2.13	0.	107.11
1827	-2.6971	-2.2278	0.	140.45
1828	-2.5657	-1.6973	0.	140.58
1829	-2.8755	-1.9262	0.	134.32
1830	-1.7525	-2.385	0.	140.07
1831	-1.9975	-2.47	0.	97.126
1832	-1.8472	-2.8294	0.	120.89
1833	-1.5503	-2.6484	0.	136.25
1834	2.4717	-7.27	0.	142.92
1835	2.395	-7.035	0.	129.69
1836	2.1425	-7.1295	0.	164.01
1837	2.2561	-7.4365	0.	154.16
1838	3.4383	-7.47	0.	136.6
1839	3.6033	-7.285	0.	149.96
1840	3.6391	-7.761	0.	140.3
1841	3.8732	-7.5256	0.	155.15
1842	3.055	-6.295	0.	101.47
1843	3.2967	-6.345	0.	121.94
1844	3.014	-5.9834	0.	117.79
1845	3.3811	-5.879	0.	121.74
1846	3.4755	-6.1104	0.	123.75
1847	5.2925	-8.4425	0.	124.16
1848	5.02	-8.5275	0.	82.985
1849	5.5088	-8.7219	0.	124.
1850	5.3017	-8.9245	0.	118.78
1851	5.0444	-8.864	0.	114.14
1852	5.4175	-7.8875	0.	146.69
1853	5.2075	-7.695	0.	138.
1854	5.6972	-7.719	0.	138.44
1855	5.4501	-7.4495	0.	151.14
1856	4.6	-8.1425	0.	116.02
1857	4.6625	-7.865	0.	140.64
1858	4.2475	-8.0358	0.	155.83
1859	4.4393	-7.7206	0.	152.19
1860	5.8083	-6.93	0.	130.99
1861	5.7498	-6.7469	0.	131.12
1862	5.3979	-6.7968	0.	142.23
1863	5.5201	-7.0895	0.	156.33
1864	6.5617	-7.09	0.	140.38
1865	6.6917	-6.9467	0.	155.
1866	6.8073	-7.3364	0.	153.36
1867	6.9869	-7.1022	0.	148.02
1868	6.2699	-6.1735	0.	101.03
1869	6.4583	-6.2133	0.	121.69
1870	6.6337	-5.9061	0.	130.68
1871	6.3135	-5.8634	0.	115.25
1872	0.35167	-7.24	0.	138.25
1873	0.47167	-7.6717	0.	131.05
1874	0.53242	-7.4862	0.	128.02
1875	0.2155	-7.4849	0.	137.98
1876	0.87833	-8.4383	0.	104.06
1877	1.095	-8.4467	0.	103.12
1878	0.72937	-8.6579	0.	116.29
1879	1.2305	-8.6949	0.	117.08
1880	0.97366	-8.8676	0.	108.92
1881	1.5074	-7.5237	0.	150.29
1882	1.555	-7.7133	0.	146.59
1883	1.6849	-7.2848	0.	157.68
1884	1.8087	-7.5352	0.	165.23
1885	3.	8.75	0.	138.76
1886	3.25	9.	0.	121.94
1887	2.7516	9.0003	0.	132.14
1888	3.0003	9.2501	0.	129.78
1889	3.	7.25	0.	136.94
1890	3.25	7.	0.	119.04
1891	3.0261	6.7906	0.	126.07
1892	2.7653	7.0007	0.	133.81
1893	3.75	9.	0.	121.15
1894	4.	8.75	0.	137.16
1895	4.2503	9.0019	0.	131.04
1896	4.	9.2502	0.	128.54
1897	3.75	7.	0.	110.59
1898	4.	7.25	0.	124.4
1899	4.2684	7.0262	0.	124.36
1900	6.	6.75	0.	138.53
1901	6.25	7.	0.	121.
1902	5.7608	7.016	0.	134.63
1903	6.0036	7.2541	0.	129.14
1904	6.	5.25	0.	136.75
1905	6.25	5.	0.	120.35
1906	5.9916	4.7612	0.	130.19
1907	5.7393	5.0296	0.	132.94
1908	6.75	7.	0.	120.27
1909	7.	6.75	0.	137.12
1910	7.2501	7.0001	0.	131.31
1911	7.0007	7.2505	0.	128.01
1912	6.75	5.	0.	118.66
1913	7.	5.25	0.	135.68
1914	7.2499	5.0004	0.	130.46
1915	6.9981	4.7521	0.	126.17
1916	4.	0.75	0.	141.93
1917	4.25	1.	0.	125.58
1918	3.991	1.248	0.	130.62
1919	3.8095	0.97436	0.	131.76
1920	4.0019	-0.74813	0.	147.8
1921	4.2519	-0.99813	0.	130.76
1922	3.9611	-1.0371	0.	151.75
1923	5.75	1.	0.	126.28
1924	6.	0.75	0.	142.86
1925	6.2491	1.0022	0.	135.05
1926	5.9973	1.2548	0.	132.
1927	5.75	-1.	0.	124.1
1928	6.	-0.75	0.	141.17
1929	6.2472	-0.9975	0.	138.02
1930	5.9714	-1.2378	0.	130.49
1931	7.	-0.25	0.	139.82
1932	7.25	0.	0.	122.03
1933	6.7499	5.6851e-004	0.	137.69
1934	6.9996	0.25102	0.	130.85
1935	7.	-1.75	0.	142.35
1936	7.25	-2.	0.	124.35
1937	6.724	-1.9796	0.	134.53
1938	6.9741	-2.2226	0.	132.85
1939	7.75	0.	0.	121.64
1940	8.	-0.25	0.	139.91
1941	8.2499	2.2237e-004	0.	133.83
1942	7.9995	0.25064	0.	129.76
1943	7.75	-2.	0.	123.06
1944	8.	-1.75	0.	140.33
1945	8.2491	-1.9978	0.	134.96
1946	7.9931	-2.2401	0.	130.27
1947	0.	-6.25	0.	138.71
1948	0.25	-6.	0.	121.27
1949	-4.575e-003	-5.7667	0.	129.81
1950	-0.25725	-6.0172	0.	132.51
1951	0.16667	-7.	0.	128.4
1952	0.	-6.75	0.	143.12
1953	-0.20828	-7.0484	0.	138.84
1954	3.0497e-002	-7.2449	0.	130.51
1955	0.75	-6.	0.	117.96
1956	1.	-6.25	0.	127.42
1957	0.98792	-5.7702	0.	124.5
1958	1.203	-6.0223	0.	127.43
1959	1.0098	-7.2525	0.	107.03
1960	0.83333	-7.	0.	105.05
1961	1.	-6.75	0.	120.28
1962	1.1763	-7.0105	0.	111.95
1963	-6.	-6.25	0.	137.95
1964	-5.75	-6.	0.	122.11
1965	-6.0008	-5.7535	0.	128.74
1966	-6.2505	-6.0021	0.	131.61
1967	-6.	-6.75	0.	137.83
1968	-5.75	-7.	0.	121.74
1969	-6.	-7.25	0.	128.24
1970	-6.25	-7.0004	0.	131.27
1971	-5.25	-6.	0.	122.12
1972	-5.	-6.25	0.	137.72
1973	-4.7497	-5.9954	0.	131.25
1974	-4.9995	-5.7481	0.	128.76
1975	-5.25	-7.	0.	121.41
1976	-5.	-6.75	0.	137.26
1977	-4.7501	-6.9979	0.	130.64
1978	-5.0002	-7.2495	0.	127.66
1979	9.75	10.	0.	125.02
1980	10.	9.75	0.	124.97
1981	-9.75	10.	0.	125.17
1982	-10.	9.75	0.	124.73
1983	10.	-9.75	0.	132.47
1984	9.75	-10.	0.	132.16
1985	-10.	-9.75	0.	127.67
1986	-9.75	-10.	0.	127.54
1987	0.5	-7.	0.	105.97
1988	3.5217	-0.82779	0.	142.18
1989	3.7499	-1.0434	0.	147.09
1990	0.85727	-7.4987	0.	99.509
1991	1.1823	-7.5112	0.	109.85
1992	-7.4546	7.5242	0.	96.742
1993	-8.028	8.1131	0.	138.55
1994	-7.2557	8.4192	0.	90.104
1995	3.75	5.31	0.	95.52
1996	3.4301	5.1872	0.	96.947
1997	3.9244	4.9588	0.	104.28
1998	3.58	6.09	0.	80.72
1999	3.266	6.0647	0.	96.106
2000	3.6942	6.4194	0.	92.831
2001	4.34	5.85	0.	138.07
2002	4.6649	5.625	0.	137.62
2003	4.4888	6.123	0.	134.93
2004	-5.6993	5.0901	0.	131.12
2005	-6.3423	4.457	0.	98.55
2006	-6.6274	5.3372	0.	94.086
2007	0.27	4.685	0.	103.47
2008	5.1875e-002	4.4426	0.	104.95
2009	0.48804	4.4368	0.	105.08
2010	-3.5e-002	5.245	0.	111.13
2011	-0.39523	5.0831	0.	126.63
2012	-0.19991	5.4705	0.	114.98
2013	0.59544	5.2292	0.	112.36
2014	0.98921	5.098	0.	127.82
2015	0.76957	5.509	0.	115.66
2016	-4.0413	9.25e-002	0.	143.96
2017	-4.3176	0.32432	0.	140.03
2018	-3.9688	-0.3925	0.	141.74
2019	-4.2528	-0.16063	0.	139.64
2020	-4.1824	-0.64452	0.	135.03
2021	-3.4637	0.55375	0.	108.81
2022	-3.6765	0.87421	0.	108.54
2023	-3.0062	0.37625	0.	104.16
2024	-3.2169	0.71081	0.	113.6
2025	-2.7547	0.5474	0.	105.74
2026	-3.2825	-0.65875	0.	100.3
2027	-3.3771	-0.99784	0.	108.44
2028	-2.8975	-0.35125	0.	97.212
2029	-2.9895	-0.70595	0.	113.9
2030	-2.6279	-0.3865	0.	103.92
2031	0.47	0.315	0.	89.334
2032	0.64879	0.6371	0.	103.93
2033	0.22754	0.46421	0.	98.814
2034	1.04	-6.e-002	0.	146.68
2035	1.2687	0.16945	0.	142.97
2036	1.3132	-0.27862	0.	138.06
2037	0.43	-0.365	0.	79.389
2038	9.5746e-002	-0.41157	0.	101.01
2039	0.49106	-0.72067	0.	102.44
2040	2.95	-1.215	0.	108.94
2041	2.6981	-1.4005	0.	109.13
2042	3.1867	-1.5058	0.	111.09
2043	2.71	-0.485	0.	89.129
2044	2.3275	-0.55709	0.	112.05
2045	2.647	-0.12928	0.	107.71
2046	3.4021	-0.46387	0.	140.63
2047	3.4789	-0.16281	0.	136.94
2048	3.6069	-0.60391	0.	144.44
2049	-2.0949	-1.5663	0.	98.3
2050	-1.467	-2.1622	0.	139.61
2051	-2.3065	-2.5727	0.	94.206
2052	2.955	-7.37	0.	106.85
2053	2.7017	-7.5354	0.	104.98
2054	3.1672	-7.6401	0.	106.12
2055	2.725	-6.665	0.	84.461
2056	2.4493	-6.7599	0.	105.31
2057	2.7299	-6.3786	0.	104.36
2058	3.45	-6.815	0.	133.72
2059	3.7823	-7.0101	0.	136.01
2060	3.5888	-6.556	0.	128.24
2061	5.6068	-8.2276	0.	127.4
2062	4.6269	-8.4678	0.	94.836
2063	4.9361	-7.6079	0.	103.7
2064	6.185	-7.01	0.	97.975
2065	5.9644	-7.1828	0.	106.23
2066	6.3842	-7.2711	0.	104.93
2067	6.0096	-6.4604	0.	83.593
2068	5.6348	-6.4324	0.	109.23
2069	5.9855	-6.1373	0.	101.93
2070	6.575	-6.58	0.	132.89
2071	6.8697	-6.6999	0.	138.03
2072	6.7575	-6.299	0.	126.49
2073	0.675	-8.055	0.	107.37
2074	0.38661	-7.8994	0.	120.46
2075	0.57479	-8.2849	0.	111.65
2076	0.68076	-7.2462	0.	97.081
2077	1.3487	-7.2692	0.	111.33
2078	1.325	-8.08	0.	108.36
2079	1.4277	-8.3276	0.	114.38
2080	1.6256	-7.9411	0.	128.45
2081	3.	8.25	0.	142.74
2082	2.7529	8.5005	0.	138.29
2083	3.	7.75	0.	142.68
2084	2.7552	8.0007	0.	139.56
2085	2.7588	7.5008	0.	139.23
2086	3.5001	9.25	0.	111.32
2087	3.5559	6.7844	0.	102.86
2088	4.	8.25	0.	140.17
2089	4.2508	8.5035	0.	136.67
2090	4.	7.75	0.	137.09
2091	4.2519	8.0065	0.	136.59
2092	4.2552	7.5124	0.	133.39
2093	6.	6.25	0.	141.91
2094	5.7667	6.5214	0.	139.95
2095	6.	5.75	0.	140.34
2096	5.7638	6.0259	0.	138.93
2097	5.7414	5.5304	0.	136.16
2098	6.5015	7.2513	0.	109.74
2099	6.4961	4.7545	0.	109.21
2100	7.	6.25	0.	141.58
2101	7.25	6.5	0.	137.19
2102	7.	5.75	0.	141.31
2103	7.25	6.0001	0.	137.86
2104	7.25	5.5002	0.	136.66
2105	4.	0.25	0.	147.19
2106	3.8121	0.48615	0.	142.83
2107	4.	-0.25	0.	144.56
2108	3.8079	-2.2214e-002	0.	140.1
2109	3.8758	-0.53062	0.	146.51
2110	4.75	1.	0.	117.57
2111	4.4935	1.2554	0.	114.87
2112	5.25	1.	0.	117.66
2113	4.9952	1.2563	0.	117.65
2114	5.4969	1.2559	0.	115.45
2115	4.75	-1.	0.	111.63
2116	4.3771	-1.186	0.	110.21
2117	5.25	-1.	0.	113.43
2118	4.9145	-1.2199	0.	114.03
2119	5.4511	-1.2339	0.	112.79
2120	6.	0.25	0.	148.24
2121	6.2498	0.50099	0.	143.4
2122	6.	-0.25	0.	147.16
2123	6.2499	5.6851e-004	0.	144.2
2124	6.2497	-0.49914	0.	143.7
2125	7.	-0.75	0.	145.36
2126	6.7497	-0.49914	0.	142.79
2127	7.	-1.25	0.	146.86
2128	6.7472	-0.9975	0.	143.31
2129	6.7367	-1.4921	0.	143.28
2130	7.4995	0.2508	0.	110.76
2131	7.4863	-2.2328	0.	112.34
2132	8.	-0.75	0.	145.56
2133	8.2499	-0.49982	0.	140.75
2134	8.	-1.25	0.	145.91
2135	8.2499	-0.9997	0.	142.25
2136	8.2498	-1.4992	0.	141.43
2137	-0.27478	-6.5395	0.	137.63
2138	0.49457	-5.7661	0.	109.62
2139	1.186	-6.5145	0.	125.65
2140	-6.2501	-6.5009	0.	136.34
2141	-5.5001	-5.7518	0.	112.15
2142	-5.5001	-7.2499	0.	111.48
2143	-4.7499	-6.4969	0.	135.76
2144	9.25	10.	0.	125.04
2145	9.5	9.75	0.	125.02
2146	8.75	10.	0.	125.02
2147	9.	9.75	0.	125.07
2148	8.25	10.	0.	124.86
2149	8.5001	9.75	0.	125.02
2150	7.75	10.	0.	124.56
2151	8.0001	9.7501	0.	124.8
2152	7.25	10.	0.	124.24
2153	7.5002	9.7501	0.	124.43
2154	6.75	10.	0.	124.09
2155	7.0003	9.7503	0.	124.07
2156	6.25	10.	0.	124.25
2157	6.5004	9.7506	0.	123.96
2158	5.75	10.	0.	124.69
2159	6.0005	9.751	0.	124.19
2160	5.25	10.	0.	125.1
2161	5.5004	9.7513	0.	124.63
2162	4.75	10.	0.	124.29
2163	5.0003	9.7513	0.	125.12
2164	4.25	10.	0.	120.81
2165	4.5001	9.7508	0.	125.33
2166	3.75	10.	0.	117.61
2167	4.	9.7502	0.	120.62
2168	3.25	10.	0.	117.91
2169	3.5001	9.75	0.	115.14
2170	2.75	10.	0.	121.72
2171	3.0003	9.7501	0.	121.34
2172	2.25	10.	0.	125.66
2173	2.5007	9.7501	0.	126.34
2174	1.75	10.	0.	126.69
2175	2.0013	9.75	0.	126.29
2176	1.25	10.	0.	126.35
2177	1.5018	9.7496	0.	125.93
2178	0.75	10.	0.	125.85
2179	1.0024	9.7491	0.	125.57
2180	0.25	10.	0.	125.45
2181	0.50298	9.7486	0.	125.24
2182	-0.25	10.	0.	125.23
2183	3.5801e-003	9.7483	0.	125.05
2184	-0.75	10.	0.	125.2
2185	-0.49592	9.7485	0.	125.02
2186	-1.25	10.	0.	125.29
2187	-0.99561	9.749	0.	125.11
2188	-1.75	10.	0.	125.44
2189	-1.4955	9.7498	0.	125.25
2190	-2.25	10.	0.	125.59
2191	-1.9952	9.7507	0.	125.4
2192	-2.75	10.	0.	125.71
2193	-2.4956	9.7508	0.	125.53
2194	-3.25	10.	0.	125.81
2195	-2.9958	9.7503	0.	125.61
2196	-3.75	10.	0.	125.89
2197	-3.4956	9.7496	0.	125.65
2198	-4.25	10.	0.	125.99
2199	-3.9944	9.7504	0.	125.68
2200	-4.75	10.	0.	126.14
2201	-4.4926	9.7525	0.	125.73
2202	-5.25	10.	0.	126.29
2203	-4.9902	9.7555	0.	125.84
2204	-5.75	10.	0.	126.16
2205	-5.4873	9.7588	0.	126.01
2206	-6.25	10.	0.	125.08
2207	-5.985	9.7609	0.	126.05
2208	-6.75	10.	0.	122.89
2209	-6.4851	9.757	0.	125.25
2210	-7.25	10.	0.	121.01
2211	-6.9889	9.7436	0.	122.52
2212	-7.75	10.	0.	121.
2213	-7.4969	9.741	0.	120.45
2214	-8.25	10.	0.	122.84
2215	-8.0048	9.7509	0.	122.36
2216	-8.75	10.	0.	124.85
2217	-8.5087	9.7544	0.	125.66
2218	-9.25	10.	0.	125.43
2219	-9.0076	9.754	0.	125.93
2220	-9.5043	9.7526	0.	125.2
2221	10.	9.25	0.	124.86
2222	9.75	9.5	0.	124.97
2223	10.	8.75	0.	124.67
2224	9.75	9.	0.	124.92
2225	10.	8.25	0.	124.36
2226	9.75	8.5	0.	124.82
2227	10.	7.75	0.	123.87
2228	9.75	8.	0.	124.6
2229	10.	7.25	0.	123.31
2230	9.75	7.5	0.	124.25
2231	10.	6.75	0.	122.92
2232	9.75	7.	0.	123.9
2233	10.	6.25	0.	123.02
2234	9.75	6.5	0.	123.82
2235	10.	5.75	0.	123.82
2236	9.75	6.	0.	124.23
2237	10.	5.25	0.	125.26
2238	9.75	5.5	0.	125.21
2239	10.	4.75	0.	127.08
2240	9.75	5.	0.	126.62
2241	10.	4.25	0.	128.89
2242	9.75	4.5	0.	128.16
2243	10.	3.75	0.	130.4
2244	9.75	4.	0.	129.54
2245	10.	3.25	0.	131.46
2246	9.7499	3.5	0.	130.57
2247	10.	2.75	0.	132.11
2248	9.7499	3.	0.	131.25
2249	10.	2.25	0.	132.42
2250	9.7499	2.5001	0.	131.64
2251	10.	1.75	0.	132.45
2252	9.7498	2.0001	0.	131.83
2253	10.	1.25	0.	132.08
2254	9.7498	1.5001	0.	131.86
2255	10.	0.75	0.	131.12
2256	9.7498	1.0001	0.	131.6
2257	10.	0.25	0.	129.63
2258	9.7499	0.50009	0.	130.88
2259	10.	-0.25	0.	128.26
2260	9.7499	6.392e-005	0.	129.83
2261	10.	-0.75	0.	127.88
2262	9.75	-0.49996	0.	129.24
2263	10.	-1.25	0.	128.97
2264	9.7499	-0.99996	0.	129.63
2265	10.	-1.75	0.	131.3
2266	9.7499	-1.4999	0.	131.02
2267	10.	-2.25	0.	134.03
2268	9.7496	-1.9997	0.	133.02
2269	10.	-2.75	0.	136.1
2270	9.7493	-2.4992	0.	134.87
2271	10.	-3.25	0.	136.96
2272	9.7488	-2.9984	0.	135.78
2273	10.	-3.75	0.	136.73
2274	9.7482	-3.4974	0.	135.77
2275	10.	-4.25	0.	135.79
2276	9.7474	-3.9966	0.	135.18
2277	10.	-4.75	0.	134.4
2278	9.7465	-4.4959	0.	134.25
2279	10.	-5.25	0.	132.7
2280	9.7459	-4.9956	0.	133.05
2281	10.	-5.75	0.	130.89
2282	9.7464	-5.4954	0.	131.64
2283	10.	-6.25	0.	129.32
2284	9.748	-5.9957	0.	130.22
2285	10.	-6.75	0.	128.39
2286	9.7497	-6.4965	0.	129.13
2287	10.	-7.25	0.	128.31
2288	9.7491	-6.9975	0.	128.7
2289	10.	-7.75	0.	128.98
2290	9.7461	-7.4981	0.	129.
2291	10.	-8.25	0.	130.06
2292	9.7441	-7.9979	0.	129.76
2293	10.	-8.75	0.	131.16
2294	9.744	-8.4979	0.	130.67
2295	10.	-9.25	0.	132.02
2296	9.7454	-8.9983	0.	131.45
2297	9.7474	-9.4988	0.	131.98
2298	-10.	9.25	0.	123.53
2299	-9.7543	9.5026	0.	124.76
2300	-10.	8.75	0.	121.8
2301	-9.7594	9.0042	0.	123.8
2302	-10.	8.25	0.	120.82
2303	-9.7651	8.5057	0.	122.56
2304	-10.	7.75	0.	121.82
2305	-9.7699	8.0071	0.	122.38
2306	-10.	7.25	0.	124.51
2307	-9.7686	7.5067	0.	124.24
2308	-10.	6.75	0.	126.98
2309	-9.7501	7.0061	0.	126.72
2310	-10.	6.25	0.	127.83
2311	-9.7486	6.5032	0.	127.91
2312	-10.	5.75	0.	127.29
2313	-9.7497	5.9994	0.	127.59
2314	-10.	5.25	0.	126.33
2315	-9.7468	5.4971	0.	126.69
2316	-10.	4.75	0.	125.73
2317	-9.7399	4.9966	0.	125.97
2318	-10.	4.25	0.	125.72
2319	-9.7339	4.4969	0.	125.79
2320	-10.	3.75	0.	126.06
2321	-9.736	3.9978	0.	126.02
2322	-10.	3.25	0.	126.39
2323	-9.7409	3.4981	0.	126.34
2324	-10.	2.75	0.	126.46
2325	-9.7451	2.9981	0.	126.48
2326	-10.	2.25	0.	126.22
2327	-9.748	2.4979	0.	126.35
2328	-10.	1.75	0.	125.77
2329	-9.7498	1.9977	0.	126.
2330	-10.	1.25	0.	125.23
2331	-9.7508	1.4973	0.	125.55
2332	-10.	0.75	0.	124.74
2333	-9.7512	0.9968	0.	125.11
2334	-10.	0.25	0.	124.39
2335	-9.7512	0.49693	0.	124.75
2336	-10.	-0.25	0.	124.23
2337	-9.7507	-2.5493e-003	0.	124.54
2338	-10.	-0.75	0.	124.27
2339	-9.7501	-0.50201	0.	124.5
2340	-10.	-1.25	0.	124.5
2341	-9.7497	-1.0015	0.	124.63
2342	-10.	-1.75	0.	124.86
2343	-9.7497	-1.5012	0.	124.89
2344	-10.	-2.25	0.	125.31
2345	-9.7501	-2.001	0.	125.25
2346	-10.	-2.75	0.	125.76
2347	-9.7505	-2.5009	0.	125.65
2348	-10.	-3.25	0.	126.16
2349	-9.7509	-3.0009	0.	126.03
2350	-10.	-3.75	0.	126.45
2351	-9.7509	-3.5009	0.	126.34
2352	-10.	-4.25	0.	126.59
2353	-9.7507	-4.0007	0.	126.55
2354	-10.	-4.75	0.	126.59
2355	-9.7505	-4.5004	0.	126.63
2356	-10.	-5.25	0.	126.47
2357	-9.7503	-5.0003	0.	126.59
2358	-10.	-5.75	0.	126.31
2359	-9.7501	-5.5002	0.	126.48
2360	-10.	-6.25	0.	126.22
2361	-9.7501	-6.0001	0.	126.37
2362	-10.	-6.75	0.	126.26
2363	-9.75	-6.5001	0.	126.36
2364	-10.	-7.25	0.	126.46
2365	-9.75	-7.	0.	126.46
2366	-10.	-7.75	0.	126.77
2367	-9.75	-7.5	0.	126.68
2368	-10.	-8.25	0.	127.09
2369	-9.75	-8.	0.	126.95
2370	-10.	-8.75	0.	127.38
2371	-9.75	-8.5	0.	127.2
2372	-10.	-9.25	0.	127.57
2373	-9.75	-9.	0.	127.39
2374	-9.75	-9.5	0.	127.5
2375	-9.25	-10.	0.	127.3
2376	-9.5	-9.75	0.	127.37
2377	-8.75	-10.	0.	127.13
2378	-9.	-9.75	0.	127.21
2379	-8.25	-10.	0.	126.91
2380	-8.5	-9.75	0.	127.06
2381	-7.75	-10.	0.	126.54
2382	-8.	-9.75	0.	126.81
2383	-7.25	-10.	0.	125.94
2384	-7.5	-9.75	0.	126.36
2385	-6.75	-10.	0.	125.12
2386	-7.	-9.75	0.	125.62
2387	-6.25	-10.	0.	124.28
2388	-6.5	-9.75	0.	124.69
2389	-5.75	-10.	0.	123.74
2390	-6.	-9.75	0.	123.85
2391	-5.25	-10.	0.	123.77
2392	-5.5	-9.75	0.	123.51
2393	-4.75	-10.	0.	124.39
2394	-5.0001	-9.7499	0.	123.89
2395	-4.25	-10.	0.	125.36
2396	-4.5001	-9.7499	0.	124.81
2397	-3.75	-10.	0.	126.4
2398	-4.0003	-9.7499	0.	125.91
2399	-3.25	-10.	0.	127.34
2400	-3.5004	-9.75	0.	126.9
2401	-2.75	-10.	0.	128.13
2402	-3.0007	-9.7501	0.	127.73
2403	-2.25	-10.	0.	128.82
2404	-2.5011	-9.7503	0.	128.42
2405	-1.75	-10.	0.	129.36
2406	-2.0017	-9.7506	0.	129.03
2407	-1.25	-10.	0.	129.55
2408	-1.5028	-9.7514	0.	129.47
2409	-0.75	-10.	0.	128.86
2410	-1.0042	-9.7534	0.	129.46
2411	-0.25	-10.	0.	126.4
2412	-0.50553	-9.7573	0.	128.36
2413	0.25	-10.	0.	121.9
2414	-6.9041e-003	-9.7631	0.	125.12
2415	0.75	-10.	0.	117.66
2416	0.49188	-9.7717	0.	119.23
2417	1.25	-10.	0.	117.53
2418	0.99038	-9.7763	0.	115.77
2419	1.75	-10.	0.	121.11
2420	1.4893	-9.7755	0.	118.88
2421	2.25	-10.	0.	124.48
2422	1.9881	-9.7605	0.	123.65
2423	2.75	-10.	0.	126.19
2424	2.4893	-9.7632	0.	125.58
2425	3.25	-10.	0.	127.02
2426	2.9912	-9.7653	0.	126.31
2427	3.75	-10.	0.	126.46
2428	3.4893	-9.7623	0.	127.24
2429	4.25	-10.	0.	122.62
2430	3.9842	-9.7641	0.	126.3
2431	4.75	-10.	0.	117.56
2432	4.4778	-9.7657	0.	120.63
2433	5.25	-10.	0.	116.95
2434	4.9701	-9.7607	0.	114.6
2435	5.75	-10.	0.	121.75
2436	5.466	-9.7739	0.	118.22
2437	6.25	-10.	0.	126.82
2438	5.9661	-9.7696	0.	125.27
2439	6.75	-10.	0.	129.25
2440	6.4649	-9.7449	0.	128.54
2441	7.25	-10.	0.	130.29
2442	6.9709	-9.7433	0.	129.64
2443	7.75	-10.	0.	130.9
2444	7.4806	-9.7469	0.	130.48
2445	8.25	-10.	0.	131.27
2446	7.9868	-9.7474	0.	131.1
2447	8.75	-10.	0.	131.43
2448	8.4915	-9.7475	0.	131.37
2449	9.25	-10.	0.	131.6
2450	8.9948	-9.748	0.	131.45
2451	9.4974	-9.7488	0.	131.66
2452	-3.2847	2.9598	0.	124.6
2453	-3.0975	2.6477	0.	123.79
2454	-2.8766	2.8369	0.	125.28
2455	-2.9733	3.0949	0.	125.15
2456	-3.5302	2.8011	0.	123.8
2457	-3.4423	3.2704	0.	124.82
2458	-3.7248	3.0928	0.	125.14
2459	-5.8091	-3.099	0.	126.81
2460	-5.5828	-2.8708	0.	127.11
2461	-5.3365	-3.0806	0.	126.69
2462	-5.5541	-3.3306	0.	126.37
2463	-2.4256	5.7202	0.	124.61
2464	-2.7567	5.5283	0.	124.24
2465	-2.9601	5.8005	0.	124.62
2466	-2.6524	5.9776	0.	124.86
2467	-3.3665	6.3575	0.	125.58
2468	-3.1039	6.5176	0.	125.46
2469	-3.1731	6.0731	0.	125.02
2470	-2.8655	6.2502	0.	125.26
2471	-6.0426	-2.8841	0.	127.08
2472	-5.8162	-2.656	0.	127.38
2473	-6.2671	-2.595	0.	127.21
2474	-6.0638	-2.4703	0.	127.4
2475	-6.0409	-3.3316	0.	126.59
2476	-6.288	-3.0746	0.	126.94
2477	-3.1315	2.1749	0.	121.6
2478	-2.896	2.3625	0.	124.09
2479	-3.343	2.489	0.	122.98
2480	-1.8666	5.6647	0.	125.19
2481	-2.1955	5.4673	0.	124.37
2482	-2.0995	5.914	0.	125.21
2483	-5.6228	-2.4172	0.	127.76
2484	-5.3707	-2.6169	0.	127.44
2485	-5.0674	-3.2986	0.	126.35
2486	-4.8863	-3.0241	0.	126.38
2487	-5.1244	-2.8267	0.	127.02
2488	2.3859	3.0927	0.	129.76
2489	2.4225	2.6603	0.	129.39
2490	2.1599	2.8564	0.	129.78
2491	2.6233	2.9842	0.	128.19
2492	-2.3058	3.0281	0.	127.76
2493	-2.0982	3.2703	0.	128.54
2494	-2.3542	3.543	0.	127.08
2495	-2.6063	3.2976	0.	126.57
2496	5.2602	-3.5911	0.	123.38
2497	5.1543	-4.0578	0.	123.56
2498	4.9696	-3.8243	0.	123.22
2499	5.3556	-4.0327	0.	123.28
2500	5.5362	-3.7799	0.	123.51
2501	0.74338	-3.2334	0.	125.94
2502	0.40166	-3.0502	0.	126.03
2503	0.29289	-3.2707	0.	126.97
2504	0.51951	-3.4856	0.	126.1
2505	-5.2851	-3.5486	0.	126.04
2506	-5.5268	-3.7987	0.	125.48
2507	-5.7859	-3.5633	0.	126.15
2508	-5.7524	2.2642	0.	127.13
2509	-6.0098	2.0342	0.	126.62
2510	-6.2416	2.2912	0.	125.58
2511	-5.972	2.508	0.	125.35
2512	-3.0893	5.3585	0.	124.09
2513	-2.5266	5.2755	0.	123.99
2514	-2.8257	5.077	0.	123.96
2515	3.8407e-002	2.4555	0.	123.56
2516	-0.17721	2.1967	0.	125.59
2517	6.9875e-002	1.9608	0.	123.62
2518	0.28541	2.2302	0.	123.09
2519	-2.5056	-5.2239	0.	125.84
2520	-2.7531	-4.9668	0.	126.11
2521	-2.2571	-4.9788	0.	126.07
2522	-2.5017	-4.7153	0.	125.51
2523	-3.6423	6.1977	0.	125.66
2524	-3.8408	6.459	0.	126.33
2525	-3.5712	6.6589	0.	125.89
2526	-3.3717	5.178	0.	124.06
2527	-3.638	5.4892	0.	124.58
2528	-3.2927	5.6307	0.	124.47
2529	2.3133	-3.6928	0.	122.14
2530	1.7919	-3.6675	0.	123.73
2531	2.0383	-3.4237	0.	123.39
2532	2.0565	-3.9252	0.	123.07
2533	-2.4722	2.7814	0.	126.99
2534	-2.6752	2.5517	0.	125.59
2535	-2.7728	3.0509	0.	125.8
2536	2.6164	3.1967	0.	128.44
2537	2.3906	3.555	0.	130.36
2538	2.1459	3.2932	0.	130.87
2539	-2.2495	2.5097	0.	128.2
2540	-2.0426	2.7545	0.	129.02
2541	2.5672	-3.455	0.	121.14
2542	2.8365	-3.7335	0.	120.75
2543	2.5807	-3.973	0.	121.31
2544	-3.8968	6.0063	0.	125.99
2545	-3.7942	5.7718	0.	125.21
2546	-3.4489	5.9132	0.	125.1
2547	-3.2441	-4.4509	0.	126.78
2548	-2.998	-4.7066	0.	126.31
2549	-2.7466	-4.4551	0.	125.7
2550	-2.9853	-4.1967	0.	126.15
2551	-2.607	4.3327	0.	124.94
2552	-2.8522	4.6069	0.	124.22
2553	-3.1153	4.4175	0.	124.36
2554	-2.8644	4.1138	0.	124.91
2555	-6.4264	-1.9395	0.	127.11
2556	-6.2984	-1.6365	0.	126.99
2557	-5.9871	-1.7982	0.	127.72
2558	-6.1553	-2.0644	0.	127.4
2559	-4.757	-3.4795	0.	126.23
2560	-4.2104	-3.4394	0.	126.67
2561	-4.4851	-3.6924	0.	126.45
2562	-4.5759	-3.2051	0.	126.26
2563	-4.3728	-3.1869	0.	125.99
2564	-5.0176	-3.7708	0.	125.79
2565	-2.5049	-5.7325	0.	125.59
2566	-2.2574	-5.4844	0.	126.07
2567	-2.754	-5.4768	0.	125.94
2568	-2.5029	-6.2392	0.	125.2
2569	-2.2559	-5.9898	0.	125.6
2570	-2.753	-5.9845	0.	125.4
2571	1.5123	-3.4172	0.	124.87
2572	1.5367	-3.9056	0.	124.3
2573	1.2777	-3.6702	0.	124.76
2574	1.2345	-3.1862	0.	125.48
2575	0.92186	-2.9575	0.	125.54
2576	0.99988	-3.4392	0.	125.38
2577	-3.6359	4.997	0.	123.99
2578	-3.1082	4.8966	0.	123.93
2579	-3.3713	4.7072	0.	124.06
2580	5.6765	-4.1729	0.	122.96
2581	5.9034	-4.3252	0.	122.17
2582	6.1411	-4.0954	0.	122.88
2583	5.8571	-3.9201	0.	123.2
2584	-1.8589	3.5086	0.	129.19
2585	-1.6145	3.2409	0.	130.22
2586	-1.835	2.9967	0.	129.79
2587	-5.483	2.4958	0.	127.56
2588	-5.2712	2.2662	0.	128.61
2589	-5.5232	2.0217	0.	128.65
2590	-3.4955	-4.7087	0.	127.31
2591	-3.7425	-4.4579	0.	127.44
2592	-3.4827	-4.2017	0.	127.36
2593	6.9672	-4.6077	0.	125.14
2594	6.8529	-4.2964	0.	123.93
2595	6.7189	-4.6861	0.	123.18
2596	6.5674	-4.4605	0.	122.81
2597	2.4635	2.2028	0.	129.27
2598	2.6955	2.4796	0.	128.27
2599	2.2063	2.413	0.	129.4
2600	5.2805	-3.1136	0.	123.18
2601	4.9942	-3.3446	0.	123.02
2602	5.5445	-3.3281	0.	123.96
2603	1.7587	-3.1734	0.	124.52
2604	1.4592	-2.9275	0.	126.09
2605	2.2923	-3.1858	0.	122.39
2606	2.0044	-2.9246	0.	124.76
2607	2.5489	-2.9356	0.	121.
2608	2.8269	-3.2182	0.	120.25
2609	-1.3055	5.6115	0.	127.
2610	-1.5242	5.8608	0.	126.5
2611	-1.6401	5.4158	0.	125.
2612	-3.1581	1.6918	0.	118.6
2613	-3.3779	2.0071	0.	120.24
2614	-2.915	1.877	0.	122.18
2615	-5.2563	-0.19472	0.	127.45
2616	-5.4904	-0.45107	0.	126.69
2617	-5.5244	5.2691e-002	0.	126.17
2618	-5.7657	-0.19207	0.	125.69
2619	4.972	2.7973	0.	119.52
2620	4.9808	2.2847	0.	117.25
2621	5.2293	2.5373	0.	119.27
2622	4.7216	2.5421	0.	118.59
2623	4.8358	-4.2767	0.	123.79
2624	5.2576	-4.2552	0.	123.46
2625	5.0552	-4.5025	0.	124.21
2626	-3.0213	6.9532	0.	125.66
2627	-3.3086	6.819	0.	125.77
2628	-2.807	6.6971	0.	125.65
2629	-2.4525	2.2801	0.	126.81
2630	-2.6796	2.0647	0.	124.69
2631	-1.0949	2.1834	0.	130.97
2632	-1.3104	1.9188	0.	132.46
2633	-1.5538	2.1964	0.	131.26
2634	-1.3402	2.4464	0.	131.17
2635	4.6511	-4.0431	0.	123.45
2636	4.6081	-4.5067	0.	124.6
2637	4.3716	-4.2687	0.	123.36
2638	4.4192	-3.8061	0.	122.53
2639	4.7035	-3.5778	0.	122.86
2640	3.1039	-4.0172	0.	120.33
2641	3.0963	-3.4967	0.	119.85
2642	3.3612	-3.7627	0.	120.47
2643	-4.0954	6.2677	0.	126.66
2644	-4.314	6.518	0.	127.41
2645	-4.0491	6.7401	0.	126.56
2646	-3.9586	-3.705	0.	127.13
2647	-3.8857	-3.2108	0.	126.39
2648	-3.6871	-3.4528	0.	127.37
2649	-2.358	4.0495	0.	126.01
2650	-2.1149	3.7813	0.	127.74
2651	-2.6154	3.8307	0.	125.99
2652	-2.2756	5.0126	0.	124.16
2653	-1.9691	5.2185	0.	124.18
2654	1.6885	2.8147	0.	129.11
2655	1.9437	2.609	0.	129.79
2656	1.9199	3.0568	0.	130.89
2657	0.26183	2.7207	0.	122.79
2658	2.4854e-002	2.9572	0.	122.11
2659	-0.20142	2.7024	0.	124.72
2660	0.49278	2.9787	0.	121.51
2661	0.73485	2.7512	0.	123.54
2662	0.50883	2.4955	0.	122.32
2663	-6.2801	0.34928	0.	125.11
2664	-6.0381	0.57514	0.	125.72
2665	-5.7853	0.31577	0.	125.75
2666	-6.0266	7.1018e-002	0.	125.26
2667	-6.2706	1.8154	0.	126.44
2668	-6.0335	1.5571	0.	127.04
2669	-5.7806	1.7917	0.	128.14
2670	-3.7961	2.6274	0.	123.98
2671	-3.5893	2.3212	0.	121.67
2672	-5.7021	-1.9652	0.	128.1
2673	-5.4218	-2.1612	0.	128.31
2674	-5.8703	-2.2315	0.	127.78
2675	-6.2682	-0.85846	0.	125.96
2676	-6.2873	-0.64895	0.	125.64
2677	-5.7532	-0.7194	0.	126.63
2678	-5.9587	-0.99984	0.	126.68
2679	-6.0285	-0.4604	0.	125.63
2680	3.1352	3.0773	0.	124.78
2681	2.8963	2.8035	0.	127.07
2682	2.8902	3.3646	0.	126.18
2683	-5.2594	-4.0209	0.	125.22
2684	-5.7674	-4.0384	0.	125.27
2685	-5.5102	-4.2762	0.	124.16
2686	-4.2333	-3.9579	0.	126.92
2687	-3.9852	-4.2088	0.	127.44
2688	-3.7254	-3.9526	0.	127.36
2689	-3.0015	-5.2197	0.	126.21
2690	-3.2494	-4.9644	0.	126.85
2691	-2.7516	-6.4904	0.	125.03
2692	-2.2521	-6.4958	0.	125.17
2693	-2.5026	-6.7438	0.	125.08
2694	-3.2509	-6.4884	0.	125.18
2695	-3.0023	-6.7409	0.	125.15
2696	-3.0017	-6.2357	0.	125.23
2697	-2.0051	-6.2463	0.	125.57
2698	-2.0004	-6.7518	0.	125.29
2699	-1.757	-6.5009	0.	125.73
2700	1.8012	-4.1633	0.	123.64
2701	2.3238	-4.2053	0.	122.24
2702	2.0543	-4.4244	0.	123.59
2703	-3.9022	5.3082	0.	124.51
2704	-3.8851	4.8064	0.	124.22
2705	-4.1569	5.0685	0.	124.34
2706	-5.2151	2.7417	0.	127.66
2707	-4.948	2.9803	0.	128.6
2708	-5.0033	2.5121	0.	128.72
2709	-4.7354	2.7463	0.	127.76
2710	-6.28	-3.5551	0.	126.57
2711	-6.0265	-3.8029	0.	125.95
2712	-6.5271	-3.2981	0.	126.91
2713	-6.5219	-3.7898	0.	126.76
2714	-6.7723	-3.5384	0.	127.
2715	-6.5125	-2.7854	0.	127.07
2716	-6.773	-3.0428	0.	127.02
2717	-6.5646	-2.271	0.	127.02
2718	-6.7578	-2.5325	0.	127.01
2719	-6.2935	-2.3959	0.	127.31
2720	-6.8398	-2.0454	0.	126.76
2721	-6.7711	-1.8009	0.	126.6
2722	-6.4381	-1.198	0.	126.29
2723	-6.1286	-1.3394	0.	127.
2724	-6.6431	-1.4979	0.	126.48
2725	-6.5189	-0.77113	0.	125.58
2726	-6.7398	-1.014	0.	125.77
2727	-6.5296	-0.33698	0.	125.08
2728	-6.7768	-0.5591	0.	125.18
2729	-6.5243	0.12982	0.	124.92
2730	-6.2708	-0.14843	0.	125.07
2731	-6.7701	-9.2467e-002	0.	124.85
2732	-6.5305	0.61662	0.	125.17
2733	-6.775	0.39251	0.	124.9
2734	-6.5313	1.1048	0.	125.62
2735	-6.2885	0.84248	0.	125.78
2736	-6.7798	0.88196	0.	125.26
2737	-6.5226	1.5898	0.	125.82
2738	-6.2855	1.3315	0.	126.43
2739	-6.7755	1.3686	0.	125.62
2740	-6.5024	2.0724	0.	125.4
2741	-6.7626	1.8531	0.	125.63
2742	-6.4668	2.5486	0.	124.16
2743	-6.7367	2.335	0.	125.09
2744	-6.6978	2.8081	0.	123.9
2745	-6.4259	3.0214	0.	121.81
2746	-6.1973	2.7653	0.	123.9
2747	0.52206	-2.2592	0.	123.43
2748	1.0566e-002	-2.3327	0.	125.
2749	0.26798	-2.1388	0.	122.66
2750	0.27727	-2.5919	0.	124.82
2751	-2.0089	-5.2392	0.	126.3
2752	-2.0045	-4.7391	0.	125.87
2753	-1.759	-5.0004	0.	126.99
2754	-2.4874	-4.2063	0.	124.54
2755	-2.249	-4.4756	0.	125.3
2756	-1.2542	-4.5398	0.	128.01
2757	-1.4939	-4.2818	0.	126.93
2758	-1.7525	-4.5065	0.	126.3
2759	-1.5071	-4.7679	0.	127.42
2760	-5.4327	2.9676	0.	127.07
2761	-5.7026	2.7396	0.	125.77
2762	4.7123	3.0561	0.	120.06
2763	4.454	3.3196	0.	119.59
2764	4.1988	3.0602	0.	119.72
2765	4.4619	2.8009	0.	119.14
2766	4.9648	3.3093	0.	122.07
2767	5.2203	3.0462	0.	121.32
2768	2.5003	4.0494	0.	130.4
2769	2.1906	3.9567	0.	132.1
2770	2.1547	3.7565	0.	132.21
2771	2.6644	3.7228	0.	128.12
2772	1.5345	-4.3883	0.	124.42
2773	1.2853	-4.1479	0.	124.26
2774	-0.73547	-4.1051	0.	129.12
2775	-0.46757	-3.8989	0.	129.5
2776	-0.49352	-4.3538	0.	128.71
2777	-0.23371	-4.1373	0.	127.92
2778	-2.0084	-5.7416	0.	126.08
2779	-1.7602	-5.4965	0.	126.99
2780	-1.7605	-5.9952	0.	126.34
2781	-3.2511	-5.4745	0.	126.5
2782	-3.0021	-5.7287	0.	125.75
2783	-4.7457	-3.9837	0.	126.01
2784	-4.4916	-4.218	0.	126.57
2785	-5.0009	-4.2524	0.	125.04
2786	-6.7658	-4.0289	0.	127.07
2787	-6.514	-4.2788	0.	126.77
2788	-6.2683	-4.0376	0.	126.14
2789	3.43	2.8002	0.	123.53
2790	3.6784	3.0638	0.	121.32
2791	3.4255	3.3253	0.	121.44
2792	-5.5107	-1.7023	0.	128.74
2793	-5.8173	-1.501	0.	127.73
2794	-4.0521	2.4461	0.	124.39
2795	-4.2601	2.7164	0.	126.09
2796	-3.9906	2.9192	0.	125.33
2797	-5.7996	0.81334	0.	126.83
2798	-6.0427	1.0692	0.	126.58
2799	1.4428	3.0277	0.	129.12
2800	1.2117	2.7822	0.	126.43
2801	1.464	2.5709	0.	127.81
2802	-2.0957	4.2774	0.	126.22
2803	-2.3295	4.5399	0.	124.84
2804	-2.7261	-3.9479	0.	124.98
2805	-2.9567	-3.6937	0.	126.77
2806	-3.224	-3.9475	0.	126.73
2807	-4.0103	5.8023	0.	125.75
2808	-4.328	6.0432	0.	127.32
2809	4.1627	-3.5606	0.	121.8
2810	3.8878	-3.785	0.	121.35
2811	4.1397	-4.0317	0.	122.45
2812	2.848	-4.2566	0.	120.89
2813	2.5857	-4.4901	0.	121.22
2814	3.3661	-4.2683	0.	120.83
2815	3.6369	-4.4869	0.	121.61
2816	3.6235	-4.0138	0.	120.97
2817	3.8753	-4.2605	0.	122.07
2818	3.1342	-4.5675	0.	119.97
2819	-2.2279	1.9937	0.	128.77
2820	-2.0062	2.2296	0.	129.64
2821	-0.634	2.1863	0.	128.79
2822	-0.38693	1.9386	0.	128.01
2823	-0.41704	2.4437	0.	126.75
2824	-0.84746	1.9205	0.	131.14
2825	-0.87711	2.4449	0.	129.83
2826	-1.7571	6.11	0.	126.53
2827	-2.0226	6.3652	0.	125.96
2828	-2.3263	6.1714	0.	125.45
2829	5.4716	-4.4416	0.	123.04
2830	5.5079	-4.8714	0.	122.85
2831	5.6985	-4.594	0.	122.25
2832	5.2692	-4.6889	0.	123.79
2833	-0.74955	5.5489	0.	129.68
2834	-1.0961	5.3641	0.	126.13
2835	-0.95011	5.8	0.	128.72
2836	-7.2347	2.3803	0.	125.6
2837	-6.9676	2.5945	0.	124.85
2838	-6.9969	2.1157	0.	125.33
2839	-7.2727	0.9194	0.	125.13
2840	-7.0242	0.65784	0.	124.98
2841	-7.0239	1.1458	0.	125.26
2842	-7.2313	-1.0457	0.	125.55
2843	-6.9449	-1.3139	0.	125.96
2844	-6.9977	-0.80192	0.	125.37
2845	-7.033	-2.307	0.	126.75
2846	-7.2773	-2.0536	0.	126.47
2847	-6.9786	-1.825	0.	126.45
2848	-7.0182	-2.7899	0.	126.96
2849	-7.2666	-2.5387	0.	126.78
2850	-7.266	-3.0307	0.	127.
2851	-7.0182	-3.2831	0.	127.11
2852	-7.2621	-4.0198	0.	127.52
2853	-7.0115	-4.2706	0.	127.72
2854	-7.0163	-3.7775	0.	127.31
2855	3.2467	4.102	0.	120.37
2856	3.6986	4.1024	0.	114.65
2857	3.3728	4.3085	0.	117.61
2858	3.4516	3.8337	0.	118.42
2859	4.7317	2.0274	0.	116.81
2860	5.2364	2.0255	0.	117.29
2861	4.9876	1.7702	0.	115.82
2862	-4.9716	-0.43381	0.	128.96
2863	-5.0234	5.7085e-002	0.	128.13
2864	-4.7511	-0.18055	0.	132.27
2865	-4.4585	-2.5223	0.	125.31
2866	-4.7013	-2.3141	0.	127.43
2867	-4.6795	-2.7649	0.	126.31
2868	-4.9176	-2.5675	0.	126.94
2869	-3.4054	1.5195	0.	116.21
2870	-2.9372	1.3832	0.	120.11
2871	-3.1849	1.2024	0.	115.88
2872	2.4702	1.7255	0.	128.95
2873	2.7194	1.9767	0.	128.67
2874	2.2304	1.9488	0.	129.71
2875	5.0188	-2.877	0.	122.72
2876	5.5667	-2.8731	0.	124.15
2877	5.3069	-2.6437	0.	122.11
2878	-2.5083	-7.247	0.	125.4
2879	-2.7534	-6.9943	0.	125.21
2880	-2.251	-6.9998	0.	125.2
2881	-0.99437	-4.321	0.	129.04
2882	-1.234	-4.0631	0.	127.97
2883	-0.96275	-3.8541	0.	130.45
2884	-2.459	-3.6921	0.	122.35
2885	-2.2279	-3.972	0.	123.64
2886	-0.41609	-3.4475	0.	130.12
2887	-0.69485	-3.6479	0.	130.83
2888	-0.20456	-3.6898	0.	128.87
2889	0.82493	-2.4417	0.	124.25
2890	1.1466	-2.6988	0.	126.15
2891	0.58015	-2.7744	0.	125.63
2892	-5.1656	3.2061	0.	128.01
2893	-4.8978	3.4423	0.	129.82
2894	-4.6783	3.207	0.	128.28
2895	2.8115	4.2075	0.	127.08
2896	3.1508	4.3273	0.	121.33
2897	2.9756	3.8809	0.	124.79
2898	-0.75242	-4.5698	0.	128.63
2899	-1.0066	-4.7954	0.	129.16
2900	0.76257	-4.6065	0.	123.08
2901	0.50175	-4.8334	0.	120.99
2902	0.25608	-4.6026	0.	124.15
2903	0.51561	-4.3785	0.	123.89
2904	6.9924	2.7602	0.	126.17
2905	7.2439	3.0074	0.	126.33
2906	6.9919	3.2601	0.	124.89
2907	6.7396	3.0144	0.	124.86
2908	7.244	2.5079	0.	127.08
2909	6.9935	2.2593	0.	127.42
2910	6.741	2.5132	0.	126.15
2911	-3.5011	-6.7402	0.	125.54
2912	-3.7503	-6.4886	0.	125.46
2913	-3.5006	-6.2352	0.	125.63
2914	3.1911	2.5263	0.	125.82
2915	2.9514	2.2535	0.	127.67
2916	6.233	3.5244	0.	123.17
2917	6.4877	3.7668	0.	121.14
2918	6.7396	3.514	0.	123.44
2919	6.4872	3.2683	0.	123.42
2920	-5.2056	-0.69015	0.	128.21
2921	-5.4222	-0.94568	0.	128.02
2922	-4.7923	2.2678	0.	128.42
2923	-5.0472	2.0261	0.	130.38
2924	-3.8454	2.1399	0.	122.07
2925	-3.6251	1.8349	0.	117.96
2926	-5.5468	0.55398	0.	126.85
2927	-5.2914	0.3045	0.	126.85
2928	0.57027	1.5475	0.	117.54
2929	0.32149	1.7489	0.	121.81
2930	0.53702	2.0183	0.	121.28
2931	0.78891	1.8133	0.	121.57
2932	-1.8526	4.0092	0.	127.94
2933	-1.6206	3.7481	0.	130.22
2934	-3.7937	-2.7227	0.	123.7
2935	-3.5991	-2.9597	0.	126.91
2936	-4.0482	-2.9583	0.	125.71
2937	-4.7916	6.5522	0.	128.47
2938	-4.5467	6.2936	0.	128.06
2939	-4.532	6.7812	0.	127.37
2940	2.3161	-4.7091	0.	122.58
2941	1.7876	-4.6494	0.	124.37
2942	2.0212	-4.9111	0.	125.18
2943	3.8891	-4.7261	0.	123.14
2944	4.125	-4.9673	0.	125.44
2945	4.3639	-4.7377	0.	124.83
2946	4.1275	-4.4997	0.	123.6
2947	-2.455	1.7783	0.	126.66
2948	-2.6942	1.5685	0.	123.73
2949	-1.0629	1.656	0.	132.61
2950	-1.5278	1.6686	0.	132.76
2951	-1.2824	1.3978	0.	133.59
2952	-2.9476	7.3703	0.	125.62
2953	-2.7185	7.1326	0.	125.74
2954	-3.1983	7.2958	0.	125.65
2955	-1.953	7.2917	0.	125.88
2956	-1.9768	6.8229	0.	126.17
2957	-2.2161	7.0759	0.	125.95
2958	-1.697	7.0384	0.	126.15
2959	5.5849	-5.3134	0.	122.89
2960	5.3151	-5.1429	0.	124.37
2961	5.7356	-5.022	0.	121.32
2962	-1.4534	6.314	0.	127.22
2963	-1.1668	6.5203	0.	127.36
2964	-1.7189	6.5692	0.	126.65
2965	-1.4392	6.7846	0.	126.64
2966	-1.1688	6.0493	0.	128.24
2967	-0.60039	1.6729	0.	130.34
2968	-0.34559	1.4175	0.	129.65
2969	-0.13984	1.7027	0.	126.04
2970	-0.8105	1.3976	0.	132.99
2971	-1.9929	1.7103	0.	130.7
2972	-1.7573	1.4265	0.	133.2
2973	-1.7712	1.9462	0.	131.57
2974	-2.229	1.4807	0.	129.33
2975	3.6346	-4.9426	0.	122.12
2976	3.405	-4.7861	0.	120.75
2977	2.5496	-4.9899	0.	121.75
2978	2.8718	-4.801	0.	120.29
2979	3.903	-3.3025	0.	120.81
2980	3.3632	-3.261	0.	119.74
2981	3.6281	-3.5269	0.	120.36
2982	3.6374	-3.0357	0.	119.76
2983	4.1843	-3.0816	0.	121.76
2984	4.447	-3.3323	0.	122.12
2985	-4.727	5.5771	0.	127.51
2986	-4.1864	5.5672	0.	125.67
2987	-4.5041	5.8082	0.	127.24
2988	-4.4412	5.3275	0.	125.5
2989	-3.1865	-3.4467	0.	127.64
2990	-3.4005	-3.2017	0.	127.88
2991	-3.4539	-3.7005	0.	127.6
2992	-2.6895	-3.4379	0.	124.14
2993	-2.9241	-3.2043	0.	128.12
2994	6.4781	-4.8607	0.	121.44
2995	6.3504	-4.9986	0.	118.89
2996	6.1228	-4.8917	0.	120.04
2997	6.3267	-4.6351	0.	121.08
2998	-0.90656	3.4659	0.	131.06
2999	-1.1425	3.2196	0.	130.25
3000	-0.67644	3.2076	0.	127.66
3001	-0.89967	2.9589	0.	129.5
3002	-1.8139	4.495	0.	125.78
3003	-1.5329	4.7153	0.	125.77
3004	-2.0478	4.7576	0.	124.4
3005	-1.7413	4.9634	0.	124.42
3006	-1.594	4.241	0.	128.48
3007	1.1972	3.2486	0.	127.7
3008	0.96474	3.4825	0.	126.12
3009	0.724	3.2306	0.	122.98
3010	0.96607	3.0031	0.	125.
3011	1.4395	3.4969	0.	132.48
3012	1.6742	3.2698	0.	130.89
3013	2.406	0.7762	0.	126.21
3014	2.4475	1.2475	0.	127.78
3015	2.2031	1.0164	0.	130.03
3016	2.6475	0.98995	0.	124.2
3017	-5.3142	0.8	0.	128.96
3018	-5.5555	1.0495	0.	128.34
3019	-4.3164	2.2318	0.	125.77
3020	-4.0943	1.9529	0.	123.53
3021	-4.5677	2.0105	0.	129.04
3022	-4.5244	2.5021	0.	127.46
3023	-5.0167	-1.6442	0.	130.25
3024	-5.2304	-1.8983	0.	128.95
3025	-5.3211	-1.4274	0.	129.07
3026	5.9803	3.2795	0.	123.39
3027	5.7245	3.5388	0.	124.25
3028	5.979	3.7801	0.	123.85
3029	3.4521	2.2615	0.	125.37
3030	3.6993	2.5365	0.	122.77
3031	-6.5079	-4.7695	0.	127.45
3032	-6.7597	-4.5206	0.	127.42
3033	-6.2598	-4.5246	0.	125.74
3034	-4.7468	-4.4868	0.	125.6
3035	-4.4961	-4.7287	0.	127.11
3036	-4.2435	-4.4689	0.	127.09
3037	-4.9988	-4.7471	0.	124.01
3038	-5.2517	-4.5077	0.	123.96
3039	-3.7494	-5.476	0.	127.72
3040	-3.499	-5.2192	0.	127.13
3041	-3.5003	-5.7283	0.	126.43
3042	1.5859	6.2896	0.	131.99
3043	1.3553	6.518	0.	130.3
3044	1.5812	6.7601	0.	131.35
3045	1.835	6.4983	0.	133.71
3046	5.9841	2.7763	0.	123.09
3047	5.7342	2.5286	0.	121.61
3048	5.9884	2.2709	0.	123.38
3049	6.2379	2.5203	0.	124.29
3050	-1.5122	-5.75	0.	127.25
3051	-1.2614	-5.5105	0.	128.68
3052	-1.5104	-5.2577	0.	127.68
3053	-1.2645	-5.9998	0.	127.83
3054	-1.5124	-6.2498	0.	126.5
3055	-0.50436	-4.8191	0.	128.87
3056	-0.24882	-4.5924	0.	126.93
3057	1.2721	-4.6185	0.	123.99
3058	1.5099	-4.8637	0.	125.55
3059	1.0054	-4.8421	0.	122.53
3060	1.0228	-4.3781	0.	123.82
3061	2.3827	4.4061	0.	130.94
3062	2.2454	4.7319	0.	132.35
3063	2.073	4.3134	0.	132.64
3064	1.9563	4.607	0.	131.26
3065	2.6822	4.5169	0.	130.12
3066	1.5868	5.8409	0.	130.65
3067	1.8216	5.9984	0.	130.81
3068	1.3636	6.0645	0.	130.92
3069	4.7064	3.5728	0.	121.6
3070	5.2161	3.5564	0.	124.15
3071	4.9582	3.8202	0.	125.94
3072	-4.6344	4.62	0.	125.59
3073	-4.1261	4.5899	0.	124.47
3074	-4.371	4.3785	0.	125.58
3075	-4.3979	4.8521	0.	124.59
3076	-5.656	3.2092	0.	124.78
3077	-5.8929	3.4556	0.	121.25
3078	-6.1545	3.2373	0.	121.34
3079	-5.9259	2.9812	0.	123.48
3080	-5.3928	3.4378	0.	128.62
3081	1.959	-2.4296	0.	127.97
3082	2.261	-2.6744	0.	123.37
3083	1.705	-2.6787	0.	126.31
3084	1.078	-2.1803	0.	126.04
3085	0.80504	-1.8967	0.	121.02
3086	0.52853	-2.0481	0.	122.3
3087	1.3558	-1.9492	0.	129.4
3088	1.6537	-2.1883	0.	129.49
3089	1.3997	-2.4374	0.	127.92
3090	-0.19961	-1.6267	0.	126.33
3091	-0.45679	-1.8236	0.	127.72
3092	-0.22802	-2.0856	0.	125.65
3093	2.9389e-002	-1.8918	0.	123.32
3094	-0.42827	-1.3611	0.	131.33
3095	7.3122e-002	-1.4382	0.	122.38
3096	-0.17176	-1.1802	0.	128.54
3097	-0.33022	-2.9977	0.	129.28
3098	-0.62939	-3.1934	0.	132.03
3099	-0.15371	-3.2482	0.	128.98
3100	-0.53761	-2.7432	0.	130.28
3101	-0.25894	-2.5446	0.	127.25
3102	7.7683e-003	-2.8038	0.	127.08
3103	-1.463	-3.8029	0.	126.86
3104	-1.7309	-4.0167	0.	125.05
3105	7.3297	-4.8242	0.	127.88
3106	7.2931	-4.5372	0.	126.59
3107	7.0538	-4.9404	0.	126.76
3108	7.4756	-4.6257	0.	127.9
3109	7.4377	-5.193	0.	130.64
3110	7.7397	-4.9277	0.	129.86
3111	7.1788	-4.2259	0.	125.38
3112	7.6996	-4.3799	0.	127.76
3113	7.4409	-4.095	0.	125.86
3114	6.6533	-4.0941	0.	123.58
3115	6.9171	-3.9328	0.	124.07
3116	1.7329	5.4145	0.	128.08
3117	1.8295	5.7772	0.	129.48
3118	1.3201	5.6108	0.	130.75
3119	0.36098	1.2656	0.	118.79
3120	-9.3553e-002	1.1817	0.	126.74
3121	0.16132	0.96596	0.	122.21
3122	0.1122	1.467	0.	123.12
3123	-3.8741	1.6479	0.	119.38
3124	-3.6501	1.3484	0.	114.
3125	-4.6869	-0.6659	0.	129.74
3126	-4.8988	-0.91618	0.	129.88
3127	4.2225	2.0199	0.	119.82
3128	4.4827	1.7689	0.	116.12
3129	4.4725	2.2848	0.	118.17
3130	4.1831	4.1121	0.	116.12
3131	3.887	4.4046	0.	110.54
3132	3.935	3.8533	0.	115.25
3133	-2.4296	-3.1392	0.	125.61
3134	-2.1931	-3.4645	0.	120.59
3135	-3.5027	-7.2439	0.	126.18
3136	-3.7513	-6.9928	0.	126.33
3137	-3.2525	-6.9927	0.	125.51
3138	-7.3963	3.5895	0.	129.3
3139	-7.6765	3.3833	0.	128.14
3140	-7.4373	3.1192	0.	127.12
3141	-7.1656	3.3322	0.	125.78
3142	-7.4953	2.1611	0.	125.87
3143	-7.7355	2.4226	0.	126.33
3144	-7.4699	2.6429	0.	126.29
3145	-7.5115	1.673	0.	125.58
3146	-7.7541	1.9336	0.	125.88
3147	-7.2576	1.8965	0.	125.6
3148	-7.5182	1.1821	0.	125.28
3149	-7.7639	1.4415	0.	125.51
3150	-7.2694	1.4084	0.	125.42
3151	-7.5185	0.68999	0.	125.02
3152	-7.7665	0.94782	0.	125.19
3153	-7.5152	0.19725	0.	124.89
3154	-7.7649	0.45373	0.	124.98
3155	-7.27	0.42843	0.	124.88
3156	-7.5082	-0.29735	0.	124.98
3157	-7.7604	-4.1078e-002	0.	124.93
3158	-7.266	-6.096e-002	0.	124.85
3159	-7.4931	-0.79474	0.	125.27
3160	-7.752	-0.53788	0.	125.1
3161	-7.2595	-0.55098	0.	125.09
3162	-7.4758	-1.2935	0.	125.7
3163	-7.7365	-1.0362	0.	125.43
3164	-7.4881	-1.7904	0.	126.13
3165	-7.7284	-1.534	0.	125.84
3166	-7.1894	-1.5617	0.	126.11
3167	-7.5109	-2.2854	0.	126.51
3168	-7.754	-2.03	0.	126.23
3169	-7.5143	-2.7795	0.	126.82
3170	-7.7613	-2.5262	0.	126.57
3171	-7.5137	-3.2733	0.	127.11
3172	-7.762	-3.021	0.	126.88
3173	-7.5118	-3.7681	0.	127.43
3174	-7.7613	-3.5167	0.	127.18
3175	-7.2659	-3.5258	0.	127.22
3176	-7.5084	-4.2633	0.	127.82
3177	-7.7587	-4.0127	0.	127.51
3178	-7.5052	-4.759	0.	128.19
3179	-7.7557	-4.5089	0.	127.85
3180	-7.2578	-4.5141	0.	128.02
3181	-7.2543	-5.0089	0.	128.65
3182	-7.7533	-5.0058	0.	128.03
3183	-7.5029	-5.2559	0.	128.24
3184	-7.5006	-6.2518	0.	126.99
3185	-7.251	-6.003	0.	127.75
3186	-7.7509	-6.0021	0.	127.1
3187	-7.5015	-5.7535	0.	127.69
3188	-7.5003	-6.751	0.	126.86
3189	-7.7504	-6.5013	0.	126.67
3190	-7.2505	-6.5018	0.	126.68
3191	-7.5045	6.6394	0.	118.01
3192	-7.2395	6.8464	0.	118.26
3193	-7.728	6.8615	0.	118.75
3194	-7.467	7.0809	0.	111.03
3195	-7.7681	6.4255	0.	123.25
3196	-7.5419	6.2059	0.	123.94
3197	-7.2774	6.3998	0.	122.52
3198	-7.1236	5.7846	0.	128.85
3199	-7.3256	5.987	0.	126.04
3200	-7.0611	6.1809	0.	124.75
3201	-6.8502	5.9066	0.	123.31
3202	-6.523	6.5171	0.	121.8
3203	-6.2922	6.2146	0.	118.1
3204	-6.7853	6.3282	0.	121.08
3205	-6.5743	6.0538	0.	119.67
3206	7.4955	2.7551	0.	127.24
3207	7.496	3.2543	0.	127.04
3208	7.7467	3.0034	0.	127.73
3209	7.4954	2.2555	0.	127.27
3210	7.7463	2.5041	0.	127.72
3211	7.4963	1.7549	0.	126.37
3212	7.245	2.007	0.	127.61
3213	7.7464	2.0042	0.	127.34
3214	-4.7317	7.5306	0.	125.19
3215	-5.225	7.5642	0.	124.51
3216	-4.9684	7.7928	0.	124.48
3217	-4.9945	7.3022	0.	125.78
3218	-4.228	7.4966	0.	125.53
3219	-4.4735	7.7642	0.	125.04
3220	-4.4985	7.2701	0.	126.08
3221	-3.9674	7.7328	0.	125.33
3222	-3.9965	7.2298	0.	125.97
3223	-3.7026	7.4514	0.	125.62
3224	-2.6896	7.563	0.	125.6
3225	-2.9458	7.7964	0.	125.47
3226	-3.1819	7.4993	0.	125.59
3227	-2.1975	7.5411	0.	125.66
3228	-2.4522	7.7915	0.	125.53
3229	-2.4606	7.3254	0.	125.72
3230	-1.692	7.52	0.	125.53
3231	-1.9508	7.7732	0.	125.5
3232	-1.1819	7.4993	0.	124.9
3233	-1.444	7.7575	0.	125.16
3234	-1.436	7.2667	0.	125.8
3235	-0.67438	7.4779	0.	123.6
3236	-0.93715	7.7397	0.	124.29
3237	-0.91755	7.238	0.	124.94
3238	-0.1736	7.4629	0.	122.13
3239	-0.40663	7.2074	0.	122.66
3240	-0.43482	7.7235	0.	122.97
3241	0.32081	7.4656	0.	121.92
3242	9.3079e-002	7.1907	0.	120.59
3243	6.201e-002	7.7172	0.	122.02
3244	0.81215	7.4822	0.	123.76
3245	0.55475	7.7275	0.	122.67
3246	0.58251	7.2174	0.	121.69
3247	1.3024	7.495	0.	126.96
3248	1.0469	7.7417	0.	124.89
3249	1.0709	7.244	0.	125.62
3250	1.7902	7.4996	0.	130.43
3251	1.5378	7.7481	0.	127.93
3252	1.5583	7.2508	0.	129.72
3253	2.0429	7.2483	0.	133.28
3254	2.0266	7.7509	0.	131.33
3255	2.2754	7.5012	0.	133.99
3256	-5.485	7.3402	0.	124.98
3257	-5.7136	7.6107	0.	124.33
3258	-5.4559	7.8251	0.	123.76
3259	2.1675	0.55742	0.	128.45
3260	2.602	0.4901	0.	120.74
3261	2.3982	0.28898	0.	124.52
3262	2.2284	1.482	0.	130.32
3263	2.7046	1.4804	0.	127.59
3264	7.4974	1.2538	0.	123.6
3265	7.2463	1.5056	0.	126.94
3266	7.7472	1.5037	0.	125.96
3267	4.3738	-5.2073	0.	126.89
3268	4.8618	-5.2056	0.	126.58
3269	4.6128	-4.9777	0.	126.3
3270	4.6577	-5.4546	0.	127.32
3271	0.34595	-1.2151	0.	116.84
3272	0.10107	-0.95707	0.	123.05
3273	0.1568	-0.76723	0.	124.57
3274	0.6217	-1.0457	0.	111.13
3275	-2.4682	1.2709	0.	126.42
3276	-2.7177	1.0628	0.	120.49
3277	-1.5119	1.1557	0.	134.02
3278	-1.2578	0.89201	0.	131.51
3279	-1.03	1.1395	0.	133.96
3280	4.1234	-5.4289	0.	127.96
3281	3.8705	-5.1838	0.	124.41
3282	-5.5124	6.8513	0.	126.41
3283	-5.7461	7.1286	0.	125.88
3284	-5.2545	7.0781	0.	126.25
3285	4.4699	-2.8572	0.	122.2
3286	4.7586	-2.6341	0.	122.19
3287	4.7325	-3.1079	0.	122.56
3288	3.0898	-2.4763	0.	115.81
3289	2.8144	-2.7009	0.	119.42
3290	3.0924	-2.9834	0.	118.67
3291	3.3666	-2.7582	0.	118.68
3292	-7.8454	4.4881	0.	126.53
3293	-8.0857	4.3919	0.	126.61
3294	-7.8598	4.0875	0.	128.64
3295	-7.5612	4.2874	0.	131.95
3296	-6.6254	3.7621	0.	118.86
3297	-6.3669	3.979	0.	109.28
3298	-6.1313	3.7174	0.	117.03
3299	-6.393	3.4992	0.	117.32
3300	-5.2787	6.5859	0.	127.93
3301	-5.0208	6.8127	0.	127.78
3302	-5.0312	6.3208	0.	130.09
3303	-3.9916	-2.4898	0.	122.85
3304	-4.2236	-2.2744	0.	123.96
3305	-4.2461	-2.7255	0.	124.87
3306	-3.5142	-2.4576	0.	122.85
3307	-3.7374	-2.2494	0.	119.57
3308	6.8054	-5.0187	0.	124.8
3309	6.5227	-5.0304	0.	120.09
3310	2.0974	5.0774	0.	129.86
3311	2.1231	5.3269	0.	126.37
3312	1.5761	5.1815	0.	132.98
3313	1.8083	4.9526	0.	128.71
3314	0.81851	1.3578	0.	118.27
3315	0.60599	1.086	0.	112.7
3316	1.984	1.2509	0.	132.54
3317	1.7551	1.4656	0.	131.44
3318	1.9887	1.7054	0.	131.08
3319	-5.0588	0.55052	0.	128.94
3320	-4.8013	0.30882	0.	131.74
3321	-4.8226	1.7688	0.	130.98
3322	-5.2993	1.7816	0.	130.41
3323	-5.0696	1.5332	0.	132.13
3324	-4.7398	-1.8534	0.	129.77
3325	-4.4664	-2.0662	0.	126.08
3326	-4.9535	-2.1076	0.	128.47
3327	6.7411	4.0114	0.	120.99
3328	6.4903	4.2622	0.	115.5
3329	6.2336	4.0225	0.	121.82
3330	7.2441	3.507	0.	125.59
3331	6.993	3.7587	0.	123.33
3332	7.4966	3.7537	0.	127.41
3333	7.7471	3.5029	0.	127.89
3334	3.2125	1.9886	0.	127.21
3335	2.9538	1.7316	0.	127.31
3336	-6.7552	-5.013	0.	128.5
3337	-7.0037	-5.2586	0.	129.18
3338	-7.0069	-4.764	0.	128.48
3339	-7.5001	-7.2506	0.	127.34
3340	-7.7502	-7.0007	0.	126.9
3341	-7.2502	-7.001	0.	127.46
3342	-7.2501	-7.5004	0.	128.22
3343	-7.7501	-7.5004	0.	127.43
3344	-7.5001	-7.7503	0.	127.69
3345	-4.0004	-6.7412	0.	126.26
3346	-4.2499	-6.4915	0.	127.42
3347	-3.9998	-6.2369	0.	126.4
3348	-1.8049	-7.5158	0.	125.82
3349	-1.5594	-7.7663	0.	126.25
3350	-1.3867	-7.4984	0.	126.25
3351	-1.5236	-7.2813	0.	125.99
3352	-2.2707	-7.5014	0.	125.68
3353	-2.0265	-7.7546	0.	126.06
3354	-2.0134	-7.2542	0.	125.48
3355	-2.7601	-7.4972	0.	125.82
3356	-2.5138	-7.7496	0.	126.06
3357	-3.2554	-7.4957	0.	126.3
3358	-3.0076	-7.7472	0.	126.31
3359	-3.0052	-7.2445	0.	125.63
3360	-3.7527	-7.4956	0.	127.29
3361	-3.5039	-7.7465	0.	126.83
3362	-5.2503	-5.0027	0.	121.87
3363	-5.7531	-5.0122	0.	121.89
3364	-5.501	-5.2565	0.	116.84
3365	-5.5032	-4.7633	0.	121.85
3366	5.4909	1.7675	0.	117.11
3367	5.4849	2.2781	0.	119.35
3368	5.7391	2.0204	0.	121.12
3369	6.7433	2.0107	0.	127.96
3370	6.995	1.7577	0.	128.17
3371	7.1916	-2.9121	0.	122.47
3372	7.7167	-2.9448	0.	122.68
3373	7.4648	-2.6976	0.	116.97
3374	7.4517	-3.159	0.	121.97
3375	6.1134	-2.8678	0.	126.57
3376	5.8549	-2.6373	0.	125.32
3377	5.8307	-3.0875	0.	124.93
3378	-1.0271	-6.2311	0.	128.11
3379	-0.79391	-6.5194	0.	129.7
3380	-1.011	-6.6661	0.	127.73
3381	-1.275	-6.481	0.	126.78
3382	-1.0105	-5.2764	0.	129.57
3383	-1.2595	-5.0235	0.	128.58
3384	-0.75859	-5.0447	0.	129.38
3385	0.74462	-5.069	0.	120.38
3386	0.24478	-5.0645	0.	121.52
3387	0.492	-5.2978	0.	115.02
3388	1.7435	-5.1254	0.	126.34
3389	2.2547	-5.1919	0.	124.35
3390	1.9507	-5.3856	0.	127.74
3391	-4.9137	4.8654	0.	125.35
3392	-4.963	5.3471	0.	126.39
3393	-5.1929	5.1059	0.	128.17
3394	-4.6772	5.0976	0.	124.39
3395	-5.125	3.6739	0.	130.39
3396	-4.6313	3.672	0.	129.19
3397	-4.8785	3.9127	0.	130.16
3398	2.8027	-2.169	0.	118.01
3399	2.3835	-1.8644	0.	128.58
3400	2.6063	-1.8754	0.	118.02
3401	2.2252	-2.1487	0.	126.26
3402	2.5273	-2.3936	0.	121.68
3403	-0.76886	-2.4837	0.	129.94
3404	-0.71897	-2.023	0.	128.99
3405	-0.98454	-2.2246	0.	131.24
3406	-0.4902	-2.2851	0.	126.94
3407	-1.1917	-3.594	0.	129.34
3408	-0.90815	-3.3938	0.	132.73
3409	-1.4112	-3.3359	0.	132.05
3410	-1.694	-3.5307	0.	123.81
3411	-0.83679	-2.939	0.	132.99
3412	-1.1277	-3.1358	0.	135.32
3413	-1.0491	-2.6847	0.	135.53
3414	-0.68545	-1.558	0.	132.76
3415	-0.93271	-1.7607	0.	130.85
3416	-0.66041	-1.0872	0.	136.52
3417	-0.90957	-1.2986	0.	141.27
3418	1.5831	-1.7221	0.	134.83
3419	1.8083	-1.5211	0.	142.07
3420	2.0393	-1.6768	0.	137.04
3421	1.881	-1.9612	0.	135.
3422	-5.3703	3.9097	0.	135.25
3423	-5.6296	3.6842	0.	125.12
3424	-5.1326	4.6215	0.	125.43
3425	-4.8866	4.3871	0.	128.13
3426	4.4324	4.3566	0.	117.77
3427	4.4442	3.8412	0.	119.61
3428	4.696	4.0886	0.	123.94
3429	2.2197	5.6896	0.	127.66
3430	2.3568	5.9426	0.	131.06
3431	2.0708	6.2071	0.	132.52
3432	2.3494	5.1951	0.	129.36
3433	2.5449	4.8426	0.	131.42
3434	1.2433	-5.0873	0.	124.1
3435	1.469	-5.3348	0.	128.18
3436	0.9851	-5.3076	0.	121.22
3437	-7.2233e-003	-5.2995	0.	124.48
3438	-0.25643	-5.0603	0.	126.68
3439	-8.8525e-004	-4.8336	0.	124.74
3440	-1.0137	-5.7603	0.	129.25
3441	-0.76116	-5.5271	0.	131.08
3442	-0.76518	-6.0185	0.	129.97
3443	6.6561	-2.8822	0.	126.14
3444	6.3991	-2.6449	0.	129.68
3445	6.3794	-3.0859	0.	126.56
3446	6.9372	-2.6698	0.	126.15
3447	6.9209	-3.114	0.	124.24
3448	6.4938	1.7606	0.	130.23
3449	6.2413	2.0151	0.	125.79
3450	6.4907	2.2646	0.	126.7
3451	2.2915	6.9986	0.	135.45
3452	1.8111	6.9994	0.	132.57
3453	2.0649	6.7376	0.	134.93
3454	-4.2488	-5.4824	0.	129.6
3455	-3.9993	-5.7312	0.	127.86
3456	-3.998	-5.2245	0.	128.37
3457	-4.748	-4.989	0.	125.53
3458	-4.4981	-5.2345	0.	129.16
3459	-4.2472	-4.9766	0.	127.92
3460	-4.9989	-5.246	0.	123.66
3461	-4.0013	-7.2445	0.	127.44
3462	-4.0018	-7.7468	0.	127.7
3463	-4.2513	-7.4965	0.	128.94
3464	-4.2506	-6.9944	0.	128.11
3465	-7.	-7.7503	0.	128.39
3466	-6.75	-7.5004	0.	129.64
3467	-7.0001	-7.2509	0.	128.34
3468	-6.2549	-5.015	0.	125.77
3469	-6.003	-5.2609	0.	123.7
3470	-6.0068	-4.7701	0.	124.06
3471	-6.504	-5.2619	0.	129.72
3472	-7.0018	-5.7551	0.	128.82
3473	-6.7525	-5.5075	0.	130.39
3474	-7.2523	-5.5056	0.	128.77
3475	-6.751	-6.0039	0.	129.28
3476	-7.0008	-6.253	0.	127.44
3477	3.7137	2.0009	0.	124.23
3478	3.9742	1.7544	0.	123.35
3479	3.9609	2.2759	0.	121.62
3480	3.4587	1.7046	0.	127.7
3481	7.2455	4.0054	0.	125.15
3482	6.9951	4.2558	0.	122.08
3483	7.7479	4.0022	0.	128.82
3484	7.4978	4.2526	0.	129.57
3485	-4.4996	-1.6077	0.	130.95
3486	-4.8109	-1.3884	0.	130.87
3487	-4.3456	1.7317	0.	126.82
3488	-4.1186	1.469	0.	122.7
3489	-4.593	1.517	0.	134.91
3490	-4.8359	0.79652	0.	131.31
3491	-5.0747	1.0421	0.	131.52
3492	1.3483	-1.4701	0.	131.8
3493	1.0828	-1.6657	0.	124.47
3494	1.9647	0.79762	0.	132.23
3495	1.7325	0.58258	0.	133.36
3496	1.9304	0.35158	0.	130.66
3497	1.7495	1.021	0.	137.
3498	1.2841	1.427	0.	126.42
3499	1.5206	1.2356	0.	135.99
3500	1.5109	1.674	0.	129.46
3501	1.0584	1.1894	0.	120.52
3502	1.0372	1.6236	0.	122.37
3503	1.207	3.7308	0.	130.88
3504	0.9694	3.9654	0.	131.47
3505	0.73291	3.7181	0.	121.78
3506	1.4656	3.9904	0.	137.25
3507	1.6753	3.7219	0.	134.27
3508	1.7334	4.177	0.	136.63
3509	1.9431	3.9086	0.	133.59
3510	-1.0373	4.6856	0.	124.16
3511	-1.2223	4.9203	0.	125.45
3512	-1.313	4.4613	0.	128.46
3513	-0.88765	3.965	0.	135.4
3514	-1.1403	3.7268	0.	132.04
3515	-0.66958	3.7132	0.	129.23
3516	7.1618	-5.3092	0.	129.49
3517	7.6528	-5.4702	0.	131.85
3518	7.1153	-5.6277	0.	133.98
3519	7.4211	-5.7531	0.	132.23
3520	6.7932	-5.2998	0.	124.73
3521	-2.8571	-2.7308	0.	128.88
3522	-2.6641	-2.9056	0.	129.53
3523	-3.138	-2.9593	0.	128.39
3524	-5.2553	5.5944	0.	132.25
3525	-5.0091	5.8311	0.	129.94
3526	-5.7713	6.6352	0.	125.49
3527	-5.5308	6.3529	0.	128.97
3528	-6.2621	6.7113	0.	124.37
3529	-6.005	6.9125	0.	124.96
3530	-6.0313	6.4089	0.	121.
3531	-7.1223	3.8037	0.	127.17
3532	-7.6322	3.8498	0.	130.25
3533	-7.3336	4.0497	0.	133.49
3534	-6.8557	4.0341	0.	126.19
3535	-6.8917	3.5465	0.	123.67
3536	-7.3629	5.5764	0.	129.25
3537	-7.1194	5.402	0.	129.65
3538	-6.9702	5.5255	0.	132.17
3539	-7.7974	5.5497	0.	125.87
3540	-7.5355	5.3545	0.	124.9
3541	-7.5649	5.7788	0.	126.43
3542	-7.9154	4.883	0.	124.36
3543	-7.9965	5.3104	0.	124.12
3544	-7.7346	5.1153	0.	123.19
3545	-8.21	5.0491	0.	123.94
3546	-8.1027	4.5823	0.	125.47
3547	-7.6177	4.7021	0.	125.7
3548	4.2074	-2.599	0.	123.14
3549	3.9188	-2.8148	0.	120.7
3550	-6.7502	6.7957	0.	123.59
3551	-6.9815	7.0831	0.	125.58
3552	-7.0125	6.6068	0.	122.88
3553	-6.4951	7.0034	0.	128.61
3554	5.5174	7.2773	0.	134.86
3555	5.5275	6.7873	0.	136.16
3556	5.2788	7.0423	0.	136.7
3557	2.4391	-5.4687	0.	123.67
3558	2.7714	-5.3093	0.	117.97
3559	2.1352	-5.6624	0.	127.04
3560	2.5859	-5.7806	0.	122.05
3561	2.2847	-5.9271	0.	126.77
3562	4.1713	-5.8724	0.	128.35
3563	4.5098	-6.1233	0.	124.
3564	3.9748	-6.0987	0.	129.18
3565	4.2246	-6.3088	0.	125.67
3566	3.8332	-5.6531	0.	127.54
3567	4.4073	-5.6763	0.	128.38
3568	-1.8602	-0.84248	0.	121.76
3569	-2.1197	-0.64046	0.	122.68
3570	-2.0882	-1.1106	0.	114.73
3571	-2.2898	-0.92826	0.	120.81
3572	-1.6617	-0.56193	0.	124.4
3573	-1.6285	-1.0315	0.	124.34
3574	-1.3882	-0.80592	0.	130.04
3575	-1.9934	1.1968	0.	131.82
3576	-1.7544	0.91402	0.	133.9
3577	-2.2445	0.95799	0.	131.09
3578	-0.61202	-0.59889	0.	135.13
3579	-0.40391	-0.90625	0.	133.69
3580	-0.89526	-0.82762	0.	136.23
3581	-0.28569	0.85931	0.	132.17
3582	-0.55571	1.1422	0.	132.26
3583	-1.4219	-0.32239	0.	124.34
3584	-0.86519	-0.33765	0.	128.77
3585	-1.1824	-8.6853e-002	0.	125.28
3586	-1.1484	-0.56638	0.	129.85
3587	-0.99437	0.63503	0.	131.56
3588	-1.5004	0.65036	0.	131.48
3589	-1.2282	0.39815	0.	127.25
3590	3.8517	-8.0618	0.	125.02
3591	3.368	-7.9311	0.	109.92
3592	3.5225	-8.2569	0.	116.97
3593	2.8257	-8.2218	0.	112.51
3594	3.0076	-8.4563	0.	113.71
3595	3.0876	-8.0618	0.	107.5
3596	3.2422	-8.3876	0.	114.05
3597	2.571	-8.3971	0.	118.54
3598	2.6519	-7.9654	0.	110.86
3599	2.4066	-8.1361	0.	121.62
3600	1.0969	5.8345	0.	130.99
3601	0.94098	6.0307	0.	128.55
3602	1.133	6.293	0.	129.25
3603	-0.61791	6.4615	0.	125.81
3604	-0.8822	6.2555	0.	128.39
3605	-0.89933	6.7411	0.	126.56
3606	-0.13995	6.9353	0.	121.12
3607	0.14357	6.635	0.	117.35
3608	0.35478	6.9425	0.	120.34
3609	-0.36838	6.6879	0.	123.27
3610	-0.6498	6.9675	0.	124.
3611	5.4222	-5.6262	0.	124.69
3612	5.7347	-5.7474	0.	124.17
3613	5.8382	-5.4388	0.	120.1
3614	5.1524	-5.4557	0.	126.18
3615	5.0764	-4.9604	0.	125.31
3616	4.7456	-6.3795	0.	118.7
3617	5.0956	-6.2105	0.	127.41
3618	4.7458	-5.9271	0.	123.99
3619	7.7482	1.0027	0.	123.03
3620	7.2479	1.0037	0.	124.02
3621	7.4985	0.75237	0.	117.27
3622	2.9046	1.2228	0.	123.99
3623	3.0641	0.95996	0.	122.62
3624	2.8435	0.70385	0.	118.65
3625	3.2	1.4475	0.	127.8
3626	3.2551	0.73039	0.	119.52
3627	3.3595	1.1847	0.	126.41
3628	3.4408	0.94898	0.	125.87
3629	3.1312	-1.985	0.	112.61
3630	3.3753	-2.2639	0.	116.8
3631	5.0815	6.3521	0.	135.02
3632	5.0122	5.8909	0.	135.52
3633	4.8928	6.1289	0.	133.81
3634	5.3095	6.0868	0.	135.56
3635	7.8589	-6.966	0.	128.16
3636	7.7788	-7.2042	0.	129.36
3637	7.439	-7.0283	0.	126.63
3638	7.6102	-6.7534	0.	128.09
3639	-7.9917	6.6476	0.	124.26
3640	-8.2205	6.8866	0.	128.79
3641	-7.945	7.0665	0.	121.69
3642	-8.0229	6.2075	0.	125.21
3643	-8.2587	6.4438	0.	126.99
3644	-8.0293	5.7588	0.	125.28
3645	-8.2749	5.9832	0.	126.28
3646	-7.7967	5.9879	0.	125.84
3647	-8.2631	5.5172	0.	125.11
3648	-8.3776	4.2214	0.	126.45
3649	-8.6335	4.4875	0.	125.66
3650	-8.3974	4.7484	0.	125.04
3651	-7.9124	3.6436	0.	129.11
3652	-8.1517	3.917	0.	128.49
3653	-7.9485	3.1694	0.	128.04
3654	-8.191	3.4347	0.	128.15
3655	-7.9749	2.6849	0.	127.06
3656	-8.2176	2.9461	0.	127.41
3657	-7.7094	2.9052	0.	127.02
3658	-7.9943	2.1951	0.	126.34
3659	-8.2375	2.4544	0.	126.68
3660	-8.0066	1.7021	0.	125.82
3661	-8.2512	1.9599	0.	126.1
3662	-8.0123	1.2073	0.	125.43
3663	-8.2588	1.4644	0.	125.65
3664	-8.0129	0.71156	0.	125.15
3665	-8.2612	0.96755	0.	125.31
3666	-8.0101	0.2154	0.	125.02
3667	-8.2601	0.46983	0.	125.1
3668	-8.0042	-0.28161	0.	125.05
3669	-8.2565	-2.658e-002	0.	125.03
3670	-7.9954	-0.77932	0.	125.25
3671	-8.2503	-0.52455	0.	125.13
3672	-7.9891	-1.2767	0.	125.57
3673	-8.2429	-1.0221	0.	125.36
3674	-7.9943	-1.7737	0.	125.93
3675	-8.2414	-1.5196	0.	125.68
3676	-8.0096	-3.2644	0.	126.95
3677	-8.009	-2.7677	0.	126.63
3678	-8.2582	-3.0126	0.	126.67
3679	-8.0082	-3.7613	0.	127.26
3680	-8.2578	-3.5103	0.	126.97
3681	-8.006	-4.2583	0.	127.53
3682	-8.256	-4.0077	0.	127.24
3683	-8.0038	-4.7558	0.	127.69
3684	-8.2541	-4.5055	0.	127.45
3685	-8.0022	-5.2537	0.	127.58
3686	-8.2524	-5.0037	0.	127.47
3687	-8.0012	-5.7524	0.	127.19
3688	-7.7518	-5.5038	0.	127.79
3689	-8.2513	-5.5023	0.	127.24
3690	-8.0006	-6.2516	0.	126.78
3691	-8.2507	-6.0015	0.	126.86
3692	-8.0003	-6.751	0.	126.71
3693	-8.2504	-6.5009	0.	126.63
3694	-8.0002	-7.2506	0.	126.99
3695	-8.2502	-7.0006	0.	126.76
3696	-8.0001	-7.7503	0.	127.28
3697	-8.2501	-7.5003	0.	127.07
3698	6.1407	-2.4144	0.	128.42
3699	5.8859	-2.1771	0.	124.85
3700	5.5951	-2.408	0.	123.28
3701	6.7455	1.5075	0.	130.43
3702	6.9968	1.2554	0.	127.37
3703	1.6762	-5.595	0.	129.55
3704	1.8595	-5.8535	0.	129.7
3705	-5.9747	7.3991	0.	125.22
3706	-6.238	7.2046	0.	129.21
3707	-5.9351	7.874	0.	123.79
3708	-6.2045	7.6854	0.	125.26
3709	-5.6774	8.0885	0.	123.23
3710	-6.1396	8.1389	0.	123.16
3711	-5.9064	8.3456	0.	124.28
3712	-5.1993	8.0537	0.	123.74
3713	-5.4362	8.3105	0.	123.84
3714	-4.7102	8.0264	0.	124.33
3715	-4.9537	8.2858	0.	124.08
3716	-4.4632	8.2621	0.	124.56
3717	-4.2129	8.0004	0.	124.85
3718	-3.211	7.9983	0.	125.33
3719	-3.7119	7.9826	0.	125.16
3720	-3.4471	7.7012	0.	125.45
3721	-3.466	8.236	0.	125.19
3722	-2.7083	8.0249	0.	125.4
3723	-2.9667	8.2623	0.	125.31
3724	-2.2055	8.0236	0.	125.37
3725	-2.463	8.2729	0.	125.34
3726	-1.7028	8.0106	0.	125.12
3727	-1.9612	8.2624	0.	125.23
3728	-1.1993	7.9979	0.	124.54
3729	-1.4586	8.253	0.	124.87
3730	-0.69759	7.9853	0.	123.65
3731	-0.95668	8.2423	0.	124.22
3732	-0.19921	7.9778	0.	122.85
3733	-0.45735	8.2336	0.	123.41
3734	0.29595	7.9791	0.	122.77
3735	3.9355e-002	8.231	0.	122.92
3736	0.78946	7.987	0.	123.8
3737	0.53425	8.2356	0.	123.23
3738	1.2823	7.9948	0.	125.87
3739	1.0287	8.2428	0.	124.46
3740	1.7742	7.9994	0.	128.83
3741	1.5222	8.2479	0.	126.51
3742	2.0155	8.2506	0.	129.41
3743	2.2652	8.0011	0.	133.44
3744	-1.2858	-7.9865	0.	126.54
3745	-0.85557	-7.8311	0.	126.55
3746	-1.0311	-8.2372	0.	127.05
3747	-1.1131	-7.7186	0.	126.54
3748	-0.80833	-8.0362	0.	126.31
3749	-1.7809	-8.0052	0.	126.5
3750	-1.5281	-8.254	0.	127.06
3751	-2.2696	-8.0028	0.	126.45
3752	-2.0192	-8.2539	0.	126.92
3753	-2.7613	-7.9996	0.	126.55
3754	-2.5118	-8.251	0.	126.84
3755	-3.256	-7.9981	0.	126.84
3756	-3.0068	-8.2491	0.	126.9
3757	-3.753	-7.9977	0.	127.25
3758	-3.5035	-8.2484	0.	127.03
3759	-4.2515	-7.998	0.	126.92
3760	-4.0017	-8.2484	0.	127.
3761	-4.7508	-7.9986	0.	124.17
3762	-4.5009	-8.2486	0.	125.72
3763	-4.5009	-7.7477	0.	128.16
3764	-5.0005	-8.2492	0.	122.38
3765	-5.0004	-7.7491	0.	122.3
3766	-5.2504	-7.9994	0.	120.49
3767	-6.25	-8.	0.	124.54
3768	-6.0001	-8.2499	0.	122.6
3769	-6.	-7.75	0.	122.68
3770	-5.7502	-7.9998	0.	120.64
3771	-6.75	-8.0002	0.	127.43
3772	-6.5	-8.2501	0.	126.07
3773	-6.5	-7.7503	0.	128.69
3774	-7.25	-8.0002	0.	127.87
3775	-7.	-8.2501	0.	127.42
3776	-7.75	-8.0002	0.	127.54
3777	-7.5	-8.2502	0.	127.47
3778	-8.25	-8.0002	0.	127.26
3779	-8.	-8.2502	0.	127.32
3780	8.0003	7.2501	0.	128.96
3781	8.0005	7.7502	0.	128.39
3782	7.7506	7.5003	0.	129.81
3783	8.2503	7.5001	0.	128.23
3784	8.0001	6.7501	0.	128.74
3785	7.7502	7.0001	0.	129.57
3786	8.2501	7.0001	0.	128.11
3787	8.25	6.5	0.	127.84
3788	7.75	6.5001	0.	130.65
3789	8.	6.2501	0.	128.84
3790	8.	5.2503	0.	129.5
3791	7.75	5.5002	0.	130.64
3792	8.25	5.5001	0.	128.47
3793	8.	5.7501	0.	129.1
3794	7.9997	4.7505	0.	130.24
3795	7.7498	5.0006	0.	130.46
3796	8.2499	5.0003	0.	129.37
3797	7.9991	4.2509	0.	130.15
3798	8.2497	4.5005	0.	130.06
3799	7.749	4.5013	0.	130.88
3800	7.9984	3.7514	0.	129.3
3801	8.2491	4.0008	0.	129.76
3802	7.9978	3.252	0.	128.59
3803	8.2486	3.5012	0.	129.16
3804	7.9975	2.7523	0.	128.22
3805	8.2481	3.0015	0.	128.79
3806	7.9973	2.2528	0.	127.8
3807	8.2481	2.5017	0.	128.53
3808	7.9973	1.753	0.	126.93
3809	8.2478	2.0022	0.	128.14
3810	7.998	1.2525	0.	125.42
3811	8.248	1.5021	0.	127.52
3812	7.9987	0.75173	0.	124.48
3813	8.2486	1.0018	0.	127.15
3814	5.2571	8.0169	0.	129.94
3815	5.005	8.2646	0.	129.66
3816	4.7553	8.0158	0.	132.59
3817	5.0112	7.7751	0.	132.98
3818	5.7565	8.0118	0.	125.7
3819	5.5103	7.769	0.	131.47
3820	5.5057	8.2626	0.	127.24
3821	6.2546	8.006	0.	120.84
3822	6.0046	8.2574	0.	122.9
3823	6.0064	7.7582	0.	123.25
3824	6.7528	8.0027	0.	120.45
3825	6.5033	7.7531	0.	115.29
3826	6.5031	8.2536	0.	120.29
3827	7.2516	8.0011	0.	124.35
3828	7.0017	7.7513	0.	122.41
3829	7.0018	8.2516	0.	122.39
3830	7.7509	8.0005	0.	127.26
3831	7.501	7.7505	0.	128.7
3832	7.5011	8.2507	0.	125.88
3833	8.2505	8.0002	0.	127.43
3834	8.0006	8.2503	0.	127.04
3835	7.9727	-3.1986	0.	125.58
3836	7.9813	-2.72	0.	125.12
3837	8.2317	-2.9692	0.	128.18
3838	7.9656	-3.6792	0.	126.86
3839	8.226	-3.4531	0.	128.13
3840	7.7077	-3.4128	0.	124.82
3841	7.9612	-4.171	0.	128.21
3842	8.2194	-3.9402	0.	128.76
3843	7.7025	-3.8862	0.	126.29
3844	7.9637	-4.6819	0.	129.74
3845	8.216	-4.4396	0.	129.75
3846	7.9549	-5.205	0.	131.08
3847	8.2201	-4.9532	0.	130.85
3848	7.9621	-5.7235	0.	131.13
3849	8.2066	-5.4693	0.	131.36
3850	8.0085	-6.2282	0.	129.64
3851	8.2348	-5.9773	0.	130.43
3852	7.7304	-6.0064	0.	131.55
3853	8.0494	-6.7131	0.	128.21
3854	8.274	-6.476	0.	128.77
3855	7.8008	-6.5005	0.	128.2
3856	7.9835	-7.1879	0.	129.04
3857	8.2875	-6.9637	0.	128.27
3858	7.918	-7.6997	0.	131.02
3859	7.6326	-7.4734	0.	133.49
3860	8.1823	-7.4506	0.	129.97
3861	7.9389	-8.2309	0.	131.49
3862	7.6719	-7.9857	0.	132.02
3863	8.1922	-7.9753	0.	131.25
3864	4.496	-2.3759	0.	123.13
3865	4.7865	-2.1541	0.	120.06
3866	5.0466	-2.4008	0.	121.57
3867	2.3032	-8.5742	0.	125.63
3868	1.8618	-8.4632	0.	128.92
3869	2.0039	-8.7728	0.	128.26
3870	2.1388	-8.3133	0.	128.58
3871	4.6192	-6.8165	0.	116.27
3872	4.9329	-6.6513	0.	110.03
3873	4.4604	-6.565	0.	120.47
3874	4.5184	-7.2625	0.	121.81
3875	4.293	-7.002	0.	126.29
3876	4.7769	-7.0599	0.	110.36
3877	5.2981	-5.9881	0.	130.26
3878	4.9483	-5.7048	0.	126.92
3879	-0.31699	6.1778	0.	125.99
3880	-8.486e-002	6.3877	0.	119.49
3881	0.69046	6.2269	0.	123.06
3882	0.88248	6.4892	0.	123.73
3883	0.41158	6.4033	0.	116.79
3884	0.62279	6.7107	0.	119.91
3885	2.7529	-8.6316	0.	119.6
3886	2.4991	-8.8373	0.	123.3
3887	2.9766	-8.8598	0.	120.05
3888	3.2122	-8.5805	0.	117.76
3889	4.0286	-8.3548	0.	133.83
3890	4.198	-8.5943	0.	135.7
3891	3.6995	-8.5499	0.	125.9
3892	3.947	-8.8212	0.	131.89
3893	-0.72173	0.3855	0.	129.93
3894	-0.49647	0.59963	0.	133.75
3895	-0.76649	0.88256	0.	133.91
3896	-0.63838	-0.10216	0.	129.14
3897	-0.95559	0.14863	0.	125.69
3898	-1.7512	0.40666	0.	127.71
3899	-2.0054	0.6752	0.	133.07
3900	-1.7186	-8.1088e-002	0.	122.56
3901	-1.9212	-0.35992	0.	124.98
3902	-1.4791	0.15445	0.	123.54
3903	-0.74644	-7.4852	0.	127.48
3904	-0.61635	-7.1864	0.	131.42
3905	-0.89996	-7.0743	0.	128.21
3906	-1.004	-7.3728	0.	127.47
3907	-0.48928	-7.6362	0.	127.12
3908	-0.62949	-7.8997	0.	126.33
3909	4.8431	6.5897	0.	138.24
3910	5.3025	6.5626	0.	136.45
3911	5.0538	6.8176	0.	136.91
3912	-6.7265	7.2909	0.	130.36
3913	-6.4679	7.4909	0.	129.16
3914	4.2328	-2.1137	0.	127.71
3915	3.9407	-2.3299	0.	122.14
3916	-7.4369	4.9344	0.	124.41
3917	-7.2921	5.1802	0.	125.38
3918	-7.3335	4.5014	0.	131.07
3919	-7.067	4.2801	0.	132.23
3920	-5.7908	6.1266	0.	124.46
3921	-5.5294	5.8512	0.	133.28
3922	-5.2833	6.0879	0.	131.08
3923	-2.7528	-1.4181	0.	131.81
3924	-2.9267	-1.1543	0.	127.13
3925	-3.1218	-1.2924	0.	129.15
3926	-3.0627	-1.647	0.	124.88
3927	-3.0388	-2.466	0.	126.63
3928	-3.2172	-2.1644	0.	120.12
3929	-3.3197	-2.6946	0.	126.03
3930	3.0345	0.47428	0.	115.28
3931	3.4359	0.49193	0.	126.57
3932	6.6354	-8.453	0.	121.76
3933	6.1158	-8.3569	0.	122.61
3934	6.3417	-8.6857	0.	122.85
3935	6.3851	-8.1835	0.	115.73
3936	7.1613	-8.4885	0.	127.04
3937	6.8983	-8.2407	0.	124.31
3938	6.8942	-8.7306	0.	125.99
3939	7.685	-8.4915	0.	130.26
3940	7.4285	-8.743	0.	129.46
3941	7.418	-8.2463	0.	130.8
3942	8.2026	-8.4874	0.	131.18
3943	7.9505	-8.7405	0.	131.05
3944	7.1132	-7.5317	0.	134.69
3945	7.2927	-7.2975	0.	130.66
3946	7.3865	-7.7593	0.	134.48
3947	-0.8337	4.4425	0.	129.63
3948	-0.64056	4.2062	0.	134.72
3949	-1.1094	4.2182	0.	134.14
3950	1.4067	4.4803	0.	130.56
3951	1.228	4.2249	0.	137.38
3952	1.6167	4.4706	0.	135.18
3953	8.5003	8.2501	0.	126.67
3954	8.7503	8.0001	0.	126.57
3955	8.5003	7.7501	0.	127.27
3956	8.5	6.25	0.	127.22
3957	8.75	6.5	0.	126.58
3958	8.5001	6.75	0.	127.21
3959	8.75	6.	0.	126.81
3960	8.5	5.7501	0.	127.6
3961	8.25	6.0001	0.	128.23
3962	8.4996	4.2503	0.	129.67
3963	8.7499	4.5002	0.	129.23
3964	8.4999	4.7502	0.	129.18
3965	8.7496	4.0003	0.	129.61
3966	8.4993	3.7506	0.	129.62
3967	8.7492	3.0005	0.	129.54
3968	8.499	3.2507	0.	129.36
3969	8.4987	2.751	0.	129.1
3970	8.7489	1.5009	0.	129.59
3971	8.4985	1.7513	0.	128.74
3972	8.4986	1.2514	0.	129.24
3973	8.7373	-3.4776	0.	131.34
3974	8.4797	-3.7141	0.	130.04
3975	8.485	-3.2237	0.	130.72
3976	8.4724	-4.7109	0.	130.86
3977	8.7281	-4.469	0.	131.26
3978	8.4742	-4.2088	0.	130.31
3979	8.4718	-5.2175	0.	131.13
3980	8.7277	-4.9717	0.	131.44
3981	8.4793	-5.7231	0.	130.64
3982	8.7274	-5.4762	0.	131.16
3983	8.5003	-6.2252	0.	129.56
3984	8.74	-5.9786	0.	130.26
3985	8.5121	-6.7266	0.	128.82
3986	8.7572	-6.4801	0.	129.21
3987	8.4863	-7.2264	0.	129.19
3988	8.7556	-6.9831	0.	128.96
3989	8.7216	-7.4825	0.	129.67
3990	8.4566	-7.7262	0.	130.2
3991	8.7173	-8.4885	0.	131.04
3992	8.4648	-8.7389	0.	131.22
3993	8.456	-8.2319	0.	130.94
3994	4.7524	8.5089	0.	130.17
3995	5.0023	8.7583	0.	127.28
3996	5.2536	8.5103	0.	126.93
3997	6.0027	8.7552	0.	123.24
3998	5.7538	8.5081	0.	124.44
3999	6.2531	8.5049	0.	122.32
4000	8.5002	8.7501	0.	125.91
4001	8.7502	8.5001	0.	126.01
4002	8.2504	8.5002	0.	126.28
4003	-8.5001	-7.7502	0.	127.06
4004	-8.5	-8.2501	0.	127.18
4005	-8.75	-8.0001	0.	127.09
4006	-8.5001	-7.2503	0.	126.85
4007	-8.7501	-7.5001	0.	126.91
4008	-8.5002	-6.7505	0.	126.68
4009	-8.7501	-7.0003	0.	126.71
4010	-8.7502	-6.5005	0.	126.62
4011	-8.5004	-6.2508	0.	126.7
4012	-8.5055	-3.7567	0.	126.96
4013	-8.7539	-4.0043	0.	126.92
4014	-8.504	-4.2549	0.	127.16
4015	-8.755	-3.5059	0.	126.69
4016	-8.5063	-3.2585	0.	126.69
4017	-8.7535	-2.5074	0.	126.12
4018	-8.5022	-2.2607	0.	126.08
4019	-8.2563	-2.5146	0.	126.35
4020	-8.5055	-2.7596	0.	126.39
4021	-8.4303	3.7081	0.	127.53
4022	-8.7064	3.4728	0.	127.3
4023	-8.46	3.2115	0.	127.52
4024	-8.6767	3.9718	0.	126.91
4025	-8.5087	5.7416	0.	126.11
4026	-8.747	5.4965	0.	125.72
4027	-8.4766	5.2559	0.	124.92
4028	-8.5106	6.2195	0.	128.06
4029	-8.7601	5.9882	0.	127.25
4030	-8.4875	6.6828	0.	131.54
4031	-8.752	6.4804	0.	129.44
4032	-8.4149	7.1264	0.	139.42
4033	-8.7208	6.9796	0.	132.7
4034	-8.6728	7.7491	0.	127.99
4035	-8.5476	7.4222	0.	137.49
4036	-8.8535	7.2754	0.	130.75
4037	-8.9227	7.5222	0.	128.58
4038	-8.4407	7.8694	0.	126.91
4039	-8.4082	8.0671	0.	131.31
4040	-8.8458	8.0112	0.	125.7
4041	-8.6043	8.2622	0.	128.03
4042	-0.27456	-8.5468	0.	127.6
4043	0.17925	-8.434	0.	123.77
4044	0.23217	-8.6153	0.	126.14
4045	-9.576e-002	-8.2975	0.	125.61
4046	-1.7973e-002	-8.7961	0.	127.48
4047	-0.78122	-8.5278	0.	127.77
4048	-0.52709	-8.7884	0.	128.34
4049	-0.55848	-8.3269	0.	127.02
4050	-1.2734	-8.5047	0.	127.58
4051	-1.022	-8.7588	0.	128.24
4052	-1.7664	-8.5027	0.	127.49
4053	-1.5152	-8.7532	0.	128.12
4054	-2.2615	-8.5021	0.	127.32
4055	-2.0109	-8.7525	0.	127.85
4056	-2.7572	-8.5005	0.	127.19
4057	-2.5069	-8.7511	0.	127.57
4058	-3.2542	-8.4994	0.	127.08
4059	-3.0042	-8.75	0.	127.31
4060	-3.7523	-8.499	0.	126.78
4061	-3.5024	-8.7494	0.	126.98
4062	-4.2512	-8.499	0.	125.81
4063	-4.0013	-8.7492	0.	126.31
4064	-4.7506	-8.4992	0.	123.94
4065	-4.5007	-8.7493	0.	124.94
4066	-5.2503	-8.4995	0.	122.22
4067	-5.0004	-8.7495	0.	123.13
4068	-5.7502	-8.4998	0.	122.29
4069	-5.5002	-8.7498	0.	122.24
4070	-5.5003	-8.2497	0.	120.35
4071	-6.2501	-8.5	0.	124.13
4072	-6.0001	-8.7499	0.	123.22
4073	-6.75	-8.5001	0.	126.05
4074	-6.5	-8.75	0.	125.08
4075	-7.25	-8.5001	0.	127.02
4076	-7.	-8.7501	0.	126.42
4077	-7.75	-8.5001	0.	127.26
4078	-7.5	-8.7501	0.	126.99
4079	-8.25	-8.5001	0.	127.23
4080	-8.	-8.7501	0.	127.15
4081	-8.75	-8.5	0.	127.17
4082	-8.5	-8.7501	0.	127.17
4083	1.5736	-1.2691	0.	139.1
4084	1.4109	-1.0008	0.	133.96
4085	1.1199	-1.187	0.	120.18
4086	-4.4668	8.7599	0.	124.64
4087	-4.2155	8.5039	0.	124.66
4088	-4.7067	8.5215	0.	124.3
4089	-2.9778	8.7538	0.	125.26
4090	-2.7213	8.5103	0.	125.26
4091	-3.2217	8.5	0.	125.18
4092	-1.4735	8.7504	0.	124.87
4093	-1.216	8.4974	0.	124.55
4094	-1.717	8.5048	0.	124.98
4095	-0.21878	8.4869	0.	123.48
4096	-0.47452	8.7404	0.	123.97
4097	-0.71643	8.4907	0.	123.97
4098	0.27766	8.4875	0.	123.38
4099	2.297e-002	8.7392	0.	123.67
4100	0.51965	8.7413	0.	123.77
4101	0.77355	8.4914	0.	123.88
4102	1.7636	8.4992	0.	127.08
4103	1.5122	8.7483	0.	125.51
4104	1.2687	8.4959	0.	125.1
4105	2.2585	8.5007	0.	131.06
4106	2.0085	8.7502	0.	127.65
4107	-4.366	1.2543	0.	130.61
4108	-4.6012	1.0358	0.	135.55
4109	-4.84	1.2814	0.	136.02
4110	-3.9384	-1.5754	0.	120.33
4111	-4.2893	-1.361	0.	133.17
4112	-4.2262	-1.8205	0.	127.36
4113	4.2744	-8.3611	0.	135.85
4114	4.0857	-7.8264	0.	139.45
4115	5.7601	7.5154	0.	128.98
4116	5.2643	7.5271	0.	134.46
4117	5.7277	4.5388	0.	130.53
4118	5.4754	4.8072	0.	133.59
4119	5.4703	4.3037	0.	132.66
4120	5.2153	4.5689	0.	137.92
4121	7.5005	7.2503	0.	130.41
4122	7.2511	7.5007	0.	126.74
4123	7.4991	4.7514	0.	131.08
4124	7.2474	4.503	0.	126.49
4125	3.7192	1.458	0.	126.75
4126	3.5377	1.1844	0.	128.39
4127	-6.2521	-5.5078	0.	127.62
4128	-6.5018	-5.7563	0.	130.81
4129	-6.25	-7.5002	0.	126.8
4130	-6.5001	-7.2506	0.	130.17
4131	-4.5005	-7.2464	0.	129.57
4132	-4.7506	-7.4981	0.	126.26
4133	-4.4991	-5.7388	0.	130.07
4134	-4.7489	-5.4915	0.	127.27
4135	2.8083	6.5383	0.	129.
4136	2.5474	6.7485	0.	136.88
4137	2.6068	6.223	0.	134.85
4138	2.3208	6.4875	0.	136.39
4139	6.4966	1.2564	0.	132.85
4140	6.2449	1.5091	0.	129.26
4141	6.7479	1.0043	0.	129.87
4142	6.9984	0.75314	0.	126.09
4143	6.43	-2.1895	0.	131.87
4144	6.6802	-2.4325	0.	129.55
4145	6.1753	-1.9522	0.	128.33
4146	5.9227	-1.7104	0.	124.33
4147	5.6282	-1.941	0.	121.02
4148	8.4995	0.25061	0.	133.4
4149	8.2492	0.50102	0.	128.95
4150	8.4991	0.75105	0.	131.64
4151	8.7494	0.50068	0.	132.96
4152	8.4958	-2.2428	0.	135.41
4153	8.2398	-2.4852	0.	130.38
4154	8.745	-2.4928	0.	135.14
4155	8.4902	-2.7343	0.	133.46
4156	-0.26001	-5.5346	0.	128.65
4157	-0.51269	-5.7852	0.	131.76
4158	-0.50922	-5.2955	0.	130.9
4159	1.2109	-5.5551	0.	125.29
4160	1.426	-5.8072	0.	128.35
4161	2.5122	5.6975	0.	128.79
4162	2.6229	5.314	0.	133.39
4163	-8.3155	7.5425	0.	136.14
4164	-8.1394	7.3063	0.	131.61
4165	4.5232	-1.892	0.	124.72
4166	4.8148	-1.6767	0.	116.02
4167	5.0772	-1.9252	0.	117.9
4168	-5.37	4.3828	0.	132.05
4169	-5.612	4.1491	0.	129.31
4170	-5.1239	4.1484	0.	135.03
4171	1.843	-1.0935	0.	135.32
4172	2.0198	-1.46	0.	138.67
4173	-1.3847	-1.2646	0.	134.97
4174	-1.1568	-1.5014	0.	139.16
4175	-1.1444	-1.039	0.	140.93
4176	-1.637	-3.0625	0.	122.
4177	-1.34	-2.8815	0.	137.66
4178	5.8865	-8.0591	0.	118.14
4179	5.8231	-8.507	0.	128.38
4180	4.6513	-8.8044	0.	124.88
4181	4.4242	-8.8382	0.	132.83
4182	4.7129	-7.4635	0.	116.72
4183	4.2775	-7.5112	0.	135.99
4184	4.9714	-7.2609	0.	104.94
4185	5.1787	-7.3625	0.	118.06
4186	5.9233	-7.6118	0.	118.81
4187	6.1558	-7.8857	0.	111.29
4188	6.049	-8.8358	0.	128.67
4189	5.8117	-8.9195	0.	129.79
4190	-2.6111	-2.6705	0.	129.45
4191	-2.1563	-2.9321	0.	118.42
4192	-1.9198	-3.2574	0.	113.84
4193	-1.2648	-2.4256	0.	136.72
4194	-1.1983	-1.9623	0.	132.94
4195	-2.3155	-1.3886	0.	120.8
4196	-2.5171	-1.2063	0.	126.7
4197	-1.8565	-1.2996	0.	115.86
4198	2.006	-0.66009	0.	133.96
4199	1.6803	-0.82515	0.	131.6
4200	2.6178	0.2359	0.	119.77
4201	2.2645	-0.20136	0.	132.19
4202	2.1612	8.3132e-002	0.	126.8
4203	1.8573	-0.35404	0.	136.74
4204	-5.4851	5.3532	0.	133.93
4205	-5.4118	4.862	0.	128.
4206	-6.1069	4.1852	0.	110.72
4207	-5.8713	3.9236	0.	119.53
4208	-6.5972	4.251	0.	116.63
4209	-6.934	5.3409	0.	129.93
4210	3.9729	-1.8485	0.	127.43
4211	4.25	-1.6212	0.	121.97
4212	3.4368	-1.7857	0.	117.87
4213	3.6809	-2.0646	0.	122.21
4214	2.9348	-1.6913	0.	112.54
4215	2.4735	-1.6267	0.	124.16
4216	-8.2385	7.9385	0.	132.03
4217	-8.1795	8.3528	0.	137.25
4218	-8.1005	8.7954	0.	134.65
4219	-8.3756	8.5478	0.	134.14
4220	-6.9718	8.4481	0.	130.34
4221	-6.5793	8.2407	0.	128.31
4222	-6.7398	8.4775	0.	132.65
4223	-7.3236	8.7683	0.	118.01
4224	-7.0429	8.7817	0.	128.32
4225	-7.209	7.3176	0.	118.44
4226	-7.684	7.2859	0.	112.56
4227	4.1363	4.6491	0.	111.75
4228	4.6927	4.5967	0.	128.14
4229	3.5612	4.6107	0.	113.41
4230	3.6046	4.836	0.	107.97
4231	3.0215	4.6367	0.	124.37
4232	3.3202	4.7591	0.	113.2
4233	4.8136	5.898	0.	135.19
4234	5.2079	5.6104	0.	134.66
4235	4.9524	5.3811	0.	133.76
4236	4.6544	6.3665	0.	136.91
4237	4.5757	6.8247	0.	137.92
4238	3.1004	6.4003	0.	119.74
4239	3.3802	6.3942	0.	109.2
4240	2.899	6.0849	0.	125.45
4241	0.73248	-5.5364	0.	115.65
4242	0.23999	-5.5328	0.	117.84
4243	8.4989	-1.747	0.	136.19
4244	8.7484	-1.9969	0.	134.94
4245	8.4997	-1.2489	0.	137.77
4246	8.7495	-1.4989	0.	135.31
4247	8.4999	-0.74953	0.	137.43
4248	8.7498	-0.99956	0.	136.
4249	8.4998	-0.2496	0.	134.81
4250	8.7499	-0.4997	0.	134.38
4251	8.7498	3.988e-004	0.	132.92
4252	6.4607	-1.7217	0.	135.77
4253	6.4839	-1.2396	0.	139.74
4254	6.2081	-1.4799	0.	131.67
4255	6.4969	-0.74664	0.	140.65
4256	6.4996	-0.24858	0.	140.71
4257	6.4997	0.25156	0.	139.35
4258	6.4988	0.7532	0.	135.88
4259	6.7493	0.50201	0.	132.04
4260	3.3319	6.575	0.	109.66
4261	-4.4996	-6.2422	0.	129.37
4262	-4.2495	-5.9876	0.	128.37
4263	-4.5	-6.7447	0.	129.25
4264	-5.7501	-7.4999	0.	117.75
4265	-5.2502	-7.4994	0.	117.51
4266	-5.5002	-7.7497	0.	115.81
4267	-5.751	-5.5053	0.	118.53
4268	-5.2496	-5.4999	0.	118.53
4269	-6.5006	-6.253	0.	130.1
4270	-6.5001	-6.7513	0.	129.88
4271	-6.7504	-6.5021	0.	128.28
4272	-6.7501	-7.0011	0.	128.89
4273	-0.53203	-6.3067	0.	131.56
4274	-0.48306	-6.838	0.	133.22
4275	-0.76667	-6.7258	0.	130.02
4276	-0.35919	-7.3374	0.	131.06
4277	7.7294	-2.4729	0.	119.23
4278	7.2104	-2.4554	0.	120.57
4279	7.749	0.50144	0.	118.57
4280	7.2491	0.50183	0.	119.21
4281	4.2344	1.5033	0.	119.63
4282	5.7442	1.5108	0.	120.86
4283	5.9924	1.7636	0.	124.89
4284	5.2421	1.5123	0.	115.59
4285	4.7387	1.5117	0.	115.1
4286	7.4998	5.2506	0.	131.58
4287	7.5	5.7502	0.	133.21
4288	7.5	6.2501	0.	133.47
4289	7.75	6.0001	0.	131.66
4290	7.5001	6.7501	0.	131.47
4291	6.2377	4.5157	0.	118.63
4292	5.9811	4.276	0.	125.02
4293	6.7443	4.5066	0.	116.41
4294	6.2551	7.5054	0.	117.58
4295	6.7523	7.5017	0.	117.14
4296	5.4807	5.31	0.	132.32
4297	5.2251	5.0807	0.	131.52
4298	5.5052	5.8063	0.	134.71
4299	5.5306	6.2972	0.	136.97
4300	2.4542	-6.4734	0.	126.19
4301	2.6889	-6.0669	0.	119.66
4302	2.3877	-6.2134	0.	124.47
4303	2.1968	-6.8544	0.	139.62
4304	2.2051	-6.6242	0.	134.66
4305	4.0521	-7.2507	0.	140.97
4306	3.921	-6.751	0.	132.95
4307	4.1342	-6.7506	0.	130.49
4308	3.7677	-6.3214	0.	130.02
4309	4.0174	-6.5315	0.	126.52
4310	2.9139	-7.8055	0.	105.72
4311	2.4861	-7.7018	0.	117.93
4312	-2.3518	-0.48888	0.	123.66
4313	-2.7199	-0.7412	0.	120.83
4314	-2.5218	-0.77668	0.	122.2
4315	-3.0841	-1.045	0.	122.26
4316	-2.6909	-0.94238	0.	121.82
4317	-3.4614	-1.3704	0.	116.97
4318	-3.4023	-1.725	0.	113.
4319	-3.6816	-1.7889	0.	113.76
4320	-3.8946	1.1694	0.	117.04
4321	-2.4939	0.74989	0.	125.15
4322	-2.9654	0.88196	0.	116.11
4323	-3.4296	1.0313	0.	113.66
4324	-4.3887	-0.89147	0.	133.03
4325	-4.6006	-1.1417	0.	133.23
4326	-4.4664	-0.41265	0.	133.07
4327	-4.5291	7.1189e-002	0.	135.87
4328	-4.5783	0.55482	0.	133.97
4329	5.6725	-1.4717	0.	118.67
4330	4.5416	-1.4059	0.	113.22
4331	5.1156	-1.4538	0.	113.46
4332	2.524	7.2516	0.	136.16
4333	2.514	7.7515	0.	136.09
4334	2.5082	8.2512	0.	135.1
4335	2.5045	8.7508	0.	131.7
4336	1.3891	-6.2869	0.	125.6
4337	1.6093	-6.0658	0.	128.53
4338	0.84588	0.91762	0.	114.45
4339	1.2949	0.99803	0.	129.83
4340	0.40633	0.78631	0.	116.04
4341	-3.0813e-002	0.64354	0.	127.56
4342	1.5315	-0.5191	0.	134.22
4343	1.5418	-4.9173e-002	0.	134.49
4344	1.754	-6.9544e-002	0.	131.39
4345	1.4982	0.38286	0.	135.39
4346	1.6961	0.15185	0.	132.94
4347	1.5174	0.80592	0.	137.87
4348	0.42582	-8.5045	0.	122.66
4349	0.2864	-8.1293	0.	127.37
4350	0.47691	-8.8899	0.	123.44
4351	-0.23948	-7.8141	0.	125.8
4352	-0.12042	-7.5339	0.	122.81
4353	-0.37968	-8.0776	0.	125.07
4354	1.1384e-002	-7.9928	0.	129.23
4355	1.5633	-8.5759	0.	127.47
4356	1.7053	-8.8855	0.	126.75
4357	1.4614	-8.9462	0.	123.22
4358	1.7283	-8.1887	0.	139.
4359	-9.	-8.25	0.	127.09
4360	-9.	-8.75	0.	127.17
4361	-9.25	-8.5	0.	127.15
4362	-9.	-7.7501	0.	126.95
4363	-9.25	-8.	0.	127.
4364	-9.0001	-7.2501	0.	126.78
4365	-9.25	-7.5001	0.	126.82
4366	-9.0001	-6.7502	0.	126.65
4367	-9.2501	-7.0001	0.	126.65
4368	-9.0002	-6.2503	0.	126.63
4369	-9.2501	-6.5002	0.	126.56
4370	-9.0004	-5.7506	0.	126.72
4371	-9.2502	-6.0003	0.	126.59
4372	-8.7504	-6.0007	0.	126.72
4373	-9.0008	-5.2509	0.	126.83
4374	-9.2504	-5.5005	0.	126.68
4375	-8.7508	-5.5012	0.	126.91
4376	-9.0015	-4.7516	0.	126.87
4377	-9.2508	-5.0009	0.	126.76
4378	-8.7516	-5.002	0.	127.05
4379	-9.0024	-4.2525	0.	126.81
4380	-9.2514	-4.5014	0.	126.76
4381	-8.7526	-4.503	0.	127.05
4382	-9.0034	-3.7535	0.	126.65
4383	-9.2522	-4.0022	0.	126.65
4384	-9.0038	-3.2543	0.	126.42
4385	-9.2528	-3.5029	0.	126.45
4386	-9.0031	-2.7547	0.	126.14
4387	-9.2527	-3.0032	0.	126.18
4388	-8.7551	-3.007	0.	126.42
4389	-9.2518	-2.5034	0.	125.88
4390	-9.0013	-2.2552	0.	125.85
4391	-8.9979	-1.2565	0.	125.31
4392	-9.2486	-1.5041	0.	125.27
4393	-8.999	-1.7557	0.	125.56
4394	-8.7464	-1.51	0.	125.51
4395	-8.9991	-0.75802	0.	125.13
4396	-9.2487	-1.0051	0.	125.05
4397	-8.7467	-1.0116	0.	125.26
4398	-9.0016	-0.25965	0.	125.05
4399	-9.2503	-0.5064	0.	124.93
4400	-8.7502	-0.51374	0.	125.1
4401	-9.004	0.2384	0.	125.09
4402	-9.2522	-7.809e-003	0.	124.93
4403	-8.754	-1.5427e-002	0.	125.05
4404	-9.0051	0.73695	0.	125.26
4405	-9.2536	0.4906	0.	125.06
4406	-8.7564	0.48168	0.	125.15
4407	-9.0046	1.2371	0.	125.54
4408	-9.2538	0.99009	0.	125.31
4409	-8.7571	0.98109	0.	125.37
4410	-9.002	1.7377	0.	125.9
4411	-9.2528	1.4911	0.	125.66
4412	-8.7553	1.4807	0.	125.71
4413	-8.9964	2.2378	0.	126.3
4414	-9.2498	1.9916	0.	126.04
4415	-8.7501	1.9793	0.	126.13
4416	-8.987	2.7374	0.	126.66
4417	-9.2443	2.4918	0.	126.39
4418	-8.7407	2.4778	0.	126.61
4419	-8.9729	3.2365	0.	126.86
4420	-9.2358	2.9916	0.	126.64
4421	-8.7265	2.9752	0.	127.08
4422	-8.9528	3.7365	0.	126.68
4423	-9.2231	3.4911	0.	126.65
4424	-8.9325	4.2378	0.	126.12
4425	-9.2066	3.9913	0.	126.34
4426	-8.9422	4.7394	0.	125.62
4427	-9.1959	4.4913	0.	125.88
4428	-8.9765	5.241	0.	125.8
4429	-9.2201	4.9916	0.	125.77
4430	-8.7061	5.0004	0.	125.01
4431	-8.9984	5.7431	0.	126.86
4432	-9.2431	5.493	0.	126.37
4433	-9.0014	6.2491	0.	128.64
4434	-9.2518	5.9966	0.	127.49
4435	-8.9852	6.7772	0.	130.66
4436	-9.2479	6.5051	0.	128.83
4437	-9.0411	7.2974	0.	129.46
4438	-9.236	7.0314	0.	129.51
4439	-9.0958	7.7843	0.	126.24
4440	-9.3238	7.5289	0.	126.42
4441	-9.0711	8.2714	0.	125.9
4442	-9.3105	8.0192	0.	124.64
4443	-9.0488	8.7667	0.	127.13
4444	-9.2957	8.515	0.	125.4
4445	-8.8297	8.5224	0.	128.3
4446	-8.7934	9.0176	0.	129.82
4447	-9.0259	9.2615	0.	126.97
4448	-9.2777	9.0116	0.	126.3
4449	-8.2991	9.021	0.	131.7
4450	-8.5338	9.2646	0.	129.6
4451	-8.5742	8.7733	0.	130.96
4452	-7.7718	8.9874	0.	119.48
4453	-8.0288	9.2616	0.	127.48
4454	-7.4948	9.2176	0.	114.38
4455	-7.2151	8.9666	0.	118.49
4456	-5.6897	9.0422	0.	126.15
4457	-5.9503	9.2855	0.	126.59
4458	-5.9153	8.8156	0.	126.29
4459	-6.1762	9.0521	0.	128.38
4460	-5.2056	9.0281	0.	125.01
4461	-5.4618	9.2764	0.	125.47
4462	-5.4396	8.7942	0.	124.75
4463	-4.7166	9.0148	0.	124.78
4464	-4.9713	9.266	0.	125.1
4465	-4.9564	8.7765	0.	124.44
4466	-4.478	9.2568	0.	125.11
4467	-4.2241	9.0045	0.	124.91
4468	-2.7321	9.0033	0.	125.27
4469	-2.9872	9.2513	0.	125.36
4470	-3.2321	8.9999	0.	125.23
4471	-2.2313	9.0034	0.	125.21
4472	-2.4864	9.2531	0.	125.33
4473	-2.4756	8.7599	0.	125.27
4474	-1.7309	9.0008	0.	125.04
4475	-1.9858	9.2518	0.	125.22
4476	-1.9744	8.7553	0.	125.15
4477	-1.2307	8.9977	0.	124.77
4478	-1.4858	9.2495	0.	125.04
4479	-0.73125	8.9945	0.	124.44
4480	-0.98597	9.247	0.	124.8
4481	-0.97316	8.7448	0.	124.44
4482	-0.23277	8.9927	0.	124.16
4483	-0.48681	9.245	0.	124.57
4484	0.26496	8.993	0.	124.06
4485	1.1702e-002	9.2445	0.	124.43
4486	0.76231	8.9949	0.	124.24
4487	0.50981	9.2454	0.	124.47
4488	1.2597	8.9974	0.	124.77
4489	1.0078	9.2472	0.	124.72
4490	1.0162	8.745	0.	124.35
4491	1.7571	8.9993	0.	126.07
4492	1.506	9.2489	0.	125.2
4493	2.2545	9.0003	0.	128.28
4494	2.0042	9.2501	0.	126.42
4495	2.5023	9.2504	0.	128.85
4496	4.5236	7.2886	0.	133.92
4497	4.7864	7.0526	0.	136.9
4498	4.5071	7.7689	0.	132.94
4499	4.763	7.5282	0.	133.33
4500	4.5027	8.26	0.	133.11
4501	4.5011	8.7554	0.	130.57
4502	4.751	9.0049	0.	127.69
4503	4.5004	9.2527	0.	128.11
4504	5.2517	9.0058	0.	125.54
4505	5.001	9.2543	0.	125.75
4506	5.752	9.0049	0.	124.
4507	5.5014	9.2542	0.	124.45
4508	5.503	8.7578	0.	125.2
4509	6.0015	9.2531	0.	123.69
4510	6.2518	9.0032	0.	123.17
4511	7.2508	9.0008	0.	124.04
4512	7.0008	9.2509	0.	123.77
4513	7.0013	8.7513	0.	123.15
4514	6.7513	9.0018	0.	123.21
4515	7.7505	9.0004	0.	124.96
4516	7.5005	9.2504	0.	124.52
4517	7.5009	8.7506	0.	124.81
4518	8.2503	9.0001	0.	125.44
4519	8.0003	9.2502	0.	125.1
4520	8.0005	8.7503	0.	125.81
4521	8.7501	9.0001	0.	125.45
4522	8.5001	9.2501	0.	125.3
4523	9.0001	8.75	0.	125.55
4524	9.0001	9.25	0.	125.22
4525	9.2501	9.	0.	125.2
4526	9.0002	8.25	0.	125.91
4527	9.2501	8.5	0.	125.41
4528	9.2501	8.	0.	125.56
4529	9.0001	7.75	0.	126.13
4530	9.	6.75	0.	126.05
4531	9.25	7.	0.	125.43
4532	8.7501	7.	0.	126.68
4533	9.0001	7.25	0.	126.13
4534	9.	6.25	0.	126.16
4535	9.25	6.5	0.	125.42
4536	9.25	6.	0.	125.76
4537	9.	5.75	0.	126.64
4538	9.	4.7501	0.	128.4
4539	9.25	5.	0.	127.54
4540	9.	5.25	0.	127.46
4541	8.75	5.0001	0.	128.36
4542	8.9999	4.2501	0.	129.16
4543	9.2499	4.5001	0.	128.58
4544	9.2499	4.0001	0.	129.39
4545	8.9997	3.7502	0.	129.61
4546	8.9995	2.7503	0.	129.9
4547	9.2497	3.0002	0.	130.24
4548	8.9995	3.2502	0.	129.81
4549	8.9994	2.2504	0.	129.99
4550	9.2496	2.5002	0.	130.44
4551	8.749	2.5007	0.	129.46
4552	8.9994	1.7504	0.	130.25
4553	9.2496	2.0003	0.	130.6
4554	8.749	2.0008	0.	129.41
4555	9.2495	1.5003	0.	130.89
4556	8.9993	1.2506	0.	130.97
4557	8.9998	-0.2497	0.	132.46
4558	9.2498	2.4036e-004	0.	131.68
4559	8.9996	0.25047	0.	132.47
4560	8.9998	-0.74973	0.	132.96
4561	9.2499	-0.49984	0.	131.61
4562	8.9997	-1.2495	0.	133.55
4563	9.2499	-0.99982	0.	132.35
4564	8.9991	-1.7487	0.	134.05
4565	9.2496	-1.4995	0.	132.88
4566	8.9976	-2.2469	0.	134.64
4567	9.2489	-1.9987	0.	133.92
4568	8.9955	-2.7435	0.	134.31
4569	9.2476	-2.497	0.	134.6
4570	8.993	-3.2389	0.	133.24
4571	9.246	-2.9941	0.	134.26
4572	8.7407	-2.985	0.	132.61
4573	8.9901	-3.7341	0.	132.4
4574	9.2441	-3.4906	0.	133.57
4575	8.9865	-4.2308	0.	132.03
4576	9.2417	-3.9875	0.	133.05
4577	8.7325	-3.9707	0.	131.09
4578	8.9835	-4.7298	0.	131.83
4579	9.2387	-4.4858	0.	132.63
4580	8.9833	-5.2304	0.	131.47
4581	9.2372	-4.9855	0.	132.11
4582	8.988	-5.7317	0.	130.77
4583	9.2384	-5.4859	0.	131.35
4584	8.9968	-6.2336	0.	129.91
4585	9.2441	-5.9869	0.	130.39
4586	9.0007	-6.7367	0.	129.35
4587	9.2505	-6.4888	0.	129.55
4588	8.9909	-7.2392	0.	129.44
4589	9.249	-6.9918	0.	129.25
4590	8.9776	-7.7393	0.	130.02
4591	9.2371	-7.493	0.	129.58
4592	8.9739	-8.2397	0.	130.64
4593	9.2307	-7.9924	0.	130.21
4594	8.7126	-7.983	0.	130.54
4595	8.978	-8.742	0.	131.07
4596	9.2312	-8.4932	0.	130.8
4597	8.7255	-8.9924	0.	131.25
4598	9.2361	-8.9951	0.	131.23
4599	8.9855	-9.2447	0.	131.32
4600	8.2127	-8.992	0.	131.09
4601	8.4763	-9.2432	0.	131.31
4602	7.9647	-9.2437	0.	130.97
4603	7.694	-8.992	0.	130.25
4604	6.0731	-9.0315	0.	128.08
4605	6.3701	-9.2188	0.	127.68
4606	6.6005	-8.9632	0.	127.05
4607	5.6047	-9.1221	0.	123.84
4608	5.884	-9.3273	0.	127.42
4609	5.1162	-9.0685	0.	113.98
4610	5.4028	-9.3383	0.	118.22
4611	4.6318	-9.042	0.	118.6
4612	4.8996	-9.2648	0.	112.08
4613	4.4301	-9.3036	0.	124.12
4614	4.1732	-9.0651	0.	128.49
4615	3.2197	-9.0544	0.	124.22
4616	3.4711	-9.2815	0.	126.47
4617	3.4552	-8.7752	0.	122.
4618	3.7027	-9.0465	0.	128.14
4619	2.7229	-9.0655	0.	123.74
4620	2.979	-9.3004	0.	124.29
4621	2.1998	-9.0359	0.	125.96
4622	2.4743	-9.2935	0.	125.15
4623	1.6857	-9.0718	0.	123.46
4624	1.9529	-9.266	0.	125.57
4625	1.2046	-9.1188	0.	115.05
4626	1.4602	-9.3417	0.	119.37
4627	0.7212	-9.0995	0.	116.04
4628	0.97404	-9.3289	0.	112.86
4629	0.22677	-9.0707	0.	124.77
4630	0.47943	-9.3186	0.	120.57
4631	-0.2705	-9.0377	0.	128.23
4632	-1.7676e-002	-9.2868	0.	126.68
4633	-0.76782	-9.0194	0.	128.82
4634	-0.51526	-9.2712	0.	128.62
4635	-1.2638	-9.0074	0.	128.78
4636	-1.0123	-9.2589	0.	129.16
4637	-1.5085	-9.2533	0.	129.
4638	-1.7597	-9.003	0.	128.48
4639	-2.7538	-9.0006	0.	127.69
4640	-2.5034	-9.2507	0.	128.12
4641	-2.2563	-9.0015	0.	128.1
4642	-3.2524	-9.	0.	127.21
4643	-3.0022	-9.2502	0.	127.58
4644	-3.7514	-8.9996	0.	126.51
4645	-3.5013	-9.2499	0.	126.92
4646	-4.2508	-8.9996	0.	125.45
4647	-4.0008	-9.2497	0.	126.01
4648	-4.7504	-8.9996	0.	124.13
4649	-4.5004	-9.2497	0.	124.81
4650	-5.0002	-9.2498	0.	123.64
4651	-5.2502	-8.9998	0.	123.14
4652	-6.75	-9.	0.	125.45
4653	-6.5	-9.25	0.	124.77
4654	-6.25	-9.	0.	124.17
4655	-7.25	-9.	0.	126.39
4656	-7.	-9.25	0.	125.86
4657	-7.75	-9.0001	0.	126.89
4658	-7.5	-9.25	0.	126.57
4659	-8.25	-9.0001	0.	127.09
4660	-8.	-9.2501	0.	126.94
4661	-8.75	-9.	0.	127.17
4662	-8.5	-9.25	0.	127.11
4663	-9.	-9.25	0.	127.2
4664	-9.25	-9.	0.	127.24
4665	3.62	0.21394	0.	135.59
4666	3.6216	0.71052	0.	132.96
4667	3.6837	-0.30284	0.	141.99
4668	0.88963	5.7982	0.	129.59
4669	1.1633	5.3779	0.	135.57
4670	1.3034	4.9345	0.	130.25
4671	1.5356	4.7056	0.	126.22
4672	-0.72163	4.889	0.	130.28
4673	-0.38072	5.7208	0.	129.46
4674	-0.58128	5.9719	0.	128.47
4675	-0.56014	5.3085	0.	135.25
4676	-0.90668	5.1237	0.	131.79
4677	-0.18305	4.1989	0.	120.16
4678	-0.42249	3.9544	0.	128.82
4679	0.26991	4.1944	0.	107.83
4680	3.4799e-002	3.9497	0.	112.76
4681	0.73214	4.199	0.	121.86
4682	0.49564	3.9518	0.	112.18
4683	5.6106	-6.1093	0.	129.59
4684	6.0291	-5.8272	0.	115.78
4685	5.0907	-6.8948	0.	104.15
4686	5.2129	-7.1875	0.	117.51
4687	5.2829	-6.4823	0.	118.77
4688	6.6298	-7.5175	0.	118.21
4689	6.8817	-7.7708	0.	128.74
4690	6.1636	-7.4439	0.	115.15
4691	6.3962	-7.7178	0.	107.85
4692	5.6762	-7.3424	0.	130.44
4693	6.9329	-5.9917	0.	134.55
4694	6.7467	-5.6183	0.	129.23
4695	7.0522	-6.419	0.	134.87
4696	7.2387	-6.1172	0.	132.94
4697	7.1649	-6.8554	0.	130.38
4698	7.3361	-6.5805	0.	132.11
4699	1.3623	-6.775	0.	118.52
4700	1.5548	-6.5435	0.	126.89
4701	1.5262	-7.0302	0.	120.2
4702	-8.7663	9.5085	0.	126.74
4703	-9.262	9.5066	0.	125.7
4704	-8.2635	9.5053	0.	125.24
4705	-7.7517	9.4918	0.	121.86
4706	-7.2358	9.4846	0.	122.02
4707	-6.724	9.5006	0.	124.95
4708	-6.9561	9.2336	0.	126.14
4709	-6.22	9.518	0.	126.23
4710	-6.446	9.2846	0.	128.04
4711	-5.7223	9.5197	0.	125.91
4712	-5.2275	9.5143	0.	125.56
4713	-4.7327	9.508	0.	125.43
4714	-4.237	9.5029	0.	125.42
4715	-3.74	9.5	0.	125.45
4716	-3.983	9.2505	0.	125.22
4717	-3.2414	9.4999	0.	125.46
4718	-3.4864	9.2485	0.	125.32
4719	-2.7415	9.501	0.	125.43
4720	-2.2409	9.5014	0.	125.35
4721	-1.7407	9.5005	0.	125.22
4722	-1.2411	9.4988	0.	125.07
4723	-0.74153	9.4975	0.	124.93
4724	-0.24234	9.4968	0.	124.84
4725	0.25656	9.4969	0.	124.85
4726	0.75534	9.4977	0.	124.96
4727	1.2542	9.4988	0.	125.16
4728	1.7531	9.4997	0.	125.54
4729	2.252	9.5002	0.	126.98
4730	2.7511	9.5002	0.	126.08
4731	3.2504	9.5001	0.	118.67
4732	3.7501	9.5002	0.	118.21
4733	4.2501	9.501	0.	125.25
4734	4.7503	9.5021	0.	126.16
4735	5.2507	9.5026	0.	124.66
4736	5.7509	9.5023	0.	124.14
4737	6.2509	9.5016	0.	123.9
4738	6.7506	9.5009	0.	123.94
4739	6.5012	9.2518	0.	123.38
4740	7.2504	9.5005	0.	124.26
4741	7.7503	9.5002	0.	124.67
4742	8.2502	9.5001	0.	124.96
4743	8.7501	9.5	0.	125.07
4744	9.25	9.5	0.	125.05
4745	9.5	9.25	0.	125.03
4746	9.5001	8.75	0.	125.06
4747	9.5001	8.25	0.	125.06
4748	9.5001	7.75	0.	124.98
4749	9.5	7.25	0.	124.85
4750	9.2501	7.5	0.	125.55
4751	9.5	6.75	0.	124.8
4752	9.5	6.25	0.	125.02
4753	9.5	5.75	0.	125.62
4754	9.5	5.25	0.	126.58
4755	9.25	5.5	0.	126.5
4756	9.5	4.75	0.	127.72
4757	9.4999	4.25	0.	128.82
4758	9.4999	3.75	0.	129.71
4759	9.4998	3.2501	0.	130.36
4760	9.2497	3.5001	0.	129.92
4761	9.4998	2.7501	0.	130.78
4762	9.4997	2.2501	0.	131.05
4763	9.4997	1.7502	0.	131.24
4764	9.4997	1.2502	0.	131.38
4765	9.4997	0.75021	0.	131.37
4766	9.2495	1.0004	0.	131.46
4767	9.4998	0.25015	0.	131.09
4768	9.2496	0.50039	0.	131.88
4769	9.4999	-0.2499	0.	130.82
4770	9.4999	-0.74993	0.	130.99
4771	9.4998	-1.2499	0.	131.68
4772	9.4995	-1.7496	0.	132.75
4773	9.4989	-2.2488	0.	133.87
4774	9.4981	-2.7476	0.	134.55
4775	9.4971	-3.2458	0.	134.59
4776	9.4957	-3.744	0.	134.22
4777	9.4939	-4.2425	0.	133.65
4778	9.4924	-4.7415	0.	132.91
4779	9.4923	-5.241	0.	132.
4780	9.4944	-5.7411	0.	130.98
4781	9.4977	-6.2421	0.	130.03
4782	9.4988	-6.744	0.	129.45
4783	9.4952	-7.2456	0.	129.39
4784	9.4902	-7.746	0.	129.78
4785	9.488	-8.2459	0.	130.37
4786	9.4893	-8.7463	0.	130.96
4787	9.4928	-9.2472	0.	131.41
4788	8.7362	-9.4955	0.	131.38
4789	9.2421	-9.4968	0.	131.5
4790	8.2282	-9.4949	0.	131.19
4791	7.7173	-9.4943	0.	130.67
4792	7.2015	-9.4901	0.	129.82
4793	7.4466	-9.2425	0.	129.95
4794	6.6859	-9.4881	0.	128.93
4795	6.9162	-9.2326	0.	128.28
4796	6.181	-9.5145	0.	126.98
4797	5.6822	-9.5435	0.	121.74
4798	5.1862	-9.5346	0.	115.85
4799	4.6979	-9.5264	0.	117.68
4800	4.212	-9.5298	0.	124.31
4801	3.7235	-9.5264	0.	127.08
4802	3.9551	-9.2913	0.	128.75
4803	3.2305	-9.5276	0.	126.54
4804	2.7305	-9.5285	0.	125.7
4805	2.2274	-9.5236	0.	124.75
4806	1.7275	-9.5359	0.	121.43
4807	1.2297	-9.5518	0.	117.12
4808	0.73227	-9.548	0.	117.33
4809	0.23498	-9.5347	0.	122.45
4810	-0.26244	-9.5204	0.	127.07
4811	-0.7597	-9.5107	0.	128.96
4812	-1.257	-9.5048	0.	129.39
4813	-1.7546	-9.502	0.	129.14
4814	-2.2528	-9.5009	0.	128.63
4815	-2.0057	-9.2516	0.	128.61
4816	-2.7518	-9.5004	0.	128.02
4817	-3.2511	-9.5001	0.	127.3
4818	-3.7507	-9.4999	0.	126.42
4819	-4.2504	-9.4998	0.	125.37
4820	-4.7502	-9.4999	0.	124.32
4821	-5.2501	-9.4999	0.	123.63
4822	-5.75	-9.4999	0.	123.61
4823	-5.5001	-9.2499	0.	123.14
4824	-6.25	-9.5	0.	124.25
4825	-6.0001	-9.25	0.	123.64
4826	-6.75	-9.5	0.	125.19
4827	-7.25	-9.5	0.	126.04
4828	-7.75	-9.5	0.	126.63
4829	-8.25	-9.5	0.	126.96
4830	-8.75	-9.5	0.	127.14
4831	-9.25	-9.5	0.	127.28
4832	-9.5	-9.25	0.	127.32
4833	-9.5	-8.75	0.	127.21
4834	-9.5	-8.25	0.	127.06
4835	-9.5	-7.75	0.	126.87
4836	-9.5	-7.2501	0.	126.68
4837	-9.5001	-6.7501	0.	126.55
4838	-9.5001	-6.2502	0.	126.51
4839	-9.5002	-5.7503	0.	126.55
4840	-9.5004	-5.2504	0.	126.61
4841	-9.5007	-4.7507	0.	126.64
4842	-9.5012	-4.2511	0.	126.59
4843	-9.5016	-3.7516	0.	126.45
4844	-9.5017	-3.2518	0.	126.21
4845	-9.5014	-2.7519	0.	125.92
4846	-9.5006	-2.2519	0.	125.59
4847	-9.4997	-1.7521	0.	125.28
4848	-9.2501	-2.0038	0.	125.56
4849	-9.4993	-1.2527	0.	125.02
4850	-9.4998	-0.75352	0.	124.85
4851	-9.5009	-0.25456	0.	124.8
4852	-9.5019	0.24439	0.	124.89
4853	-9.5023	0.74373	0.	125.11
4854	-9.502	1.2441	0.	125.43
4855	-9.5006	1.745	0.	125.79
4856	-9.4978	2.2456	0.	126.13
4857	-9.4931	2.746	0.	126.37
4858	-9.486	3.2462	0.	126.43
4859	-9.4769	3.7459	0.	126.3
4860	-9.4699	4.2447	0.	126.09
4861	-9.4738	4.7435	0.	126.03
4862	-9.4867	5.2437	0.	126.34
4863	-9.4966	5.7465	0.	127.
4864	-9.4983	6.2526	0.	127.67
4865	-9.4987	6.7593	0.	127.66
4866	-9.5187	7.2628	0.	126.47
4867	-9.5385	7.7638	0.	124.8
4868	-9.535	8.2628	0.	124.12
4869	-9.5245	8.7599	0.	124.57
4870	-9.5138	9.2567	0.	125.03
4871	4.0863	-1.2249	0.	130.7
4872	3.835	-0.81956	0.	149.84
4873	-3.9652	8.2422	0.	124.95
4874	8.7493	3.5005	0.	129.63
4875	3.9478	2.8001	0.	120.56
4876	4.2109	2.5408	0.	119.97
4877	-1.9895	-4.2414	0.	124.42
4878	5.0258	7.2922	0.	136.33
4879	-3.7476	-4.9677	0.	127.79
4880	-6.409	7.9503	0.	124.47
4881	-6.3525	8.3919	0.	126.82
4882	7.1614	-8.985	0.	128.41
4883	-4.4657	2.9731	0.	127.43
4884	-2.2648	6.6235	0.	125.96
4885	4.9651	4.8424	0.	135.54
4886	2.4161e-002	3.4561	0.	118.9
4887	-0.20465	3.7052	0.	121.41
4888	0.26053	3.7071	0.	116.54
4889	-0.31235	-0.46561	0.	132.11
4890	-1.4307	5.1684	0.	124.14
4891	-3.7794	6.94	0.	126.11
4892	-3.4856	7.1616	0.	125.76
4893	-8.4802	2.7156	0.	127.02
4894	-5.7501	-8.9999	0.	123.16
4895	-3.4404	-1.9563	0.	116.84
4896	-2.5747	4.8142	0.	124.12
4897	-7.2028	2.8571	0.	125.54
4898	-6.9311	3.0701	0.	124.19
4899	-3.8661	4.3315	0.	124.79
4900	-4.1111	4.1201	0.	125.9
4901	-3.6106	4.0421	0.	125.
4902	-3.8753	3.8599	0.	125.52
4903	5.9263	-4.7446	0.	120.73
4904	6.1301	-4.488	0.	121.75
4905	6.2344	3.0234	0.	123.65
4906	6.4882	2.7674	0.	124.85
4907	-2.5042	6.8765	0.	125.74
4908	6.7522	8.5025	0.	122.2
4909	7.2514	8.5012	0.	123.93
4910	-2.2186	8.5117	0.	125.21
4911	2.9182	-5.6212	0.	116.28
4912	3.2853	-5.5169	0.	119.66
4913	3.0936	-5.1203	0.	116.53
4914	-8.5008	-5.7514	0.	126.91
4915	-5.6652	8.5677	0.	124.89
4916	-5.1905	8.5426	0.	124.18
4917	0.57863	-1.5519	0.	118.
4918	0.85438	-1.3825	0.	112.85
4919	-1.9619	-3.7444	0.	121.99
4920	4.8275	-4.7325	0.	125.02
4921	6.2166	-5.2544	0.	117.35
4922	6.1326	-5.5186	0.	111.79
4923	5.989	-5.1474	0.	118.55
4924	-1.1717	7.0054	0.	125.83
4925	-3.9693	-2.034	0.	120.69
4926	5.7274	3.0339	0.	122.58
4927	3.5802	-5.4081	0.	124.1
4928	3.3886	-5.0115	0.	120.89
4929	1.1009	6.7577	0.	127.34
4930	0.30212	-1.7033	0.	119.37
4931	-1.2248	-6.954	0.	127.04
4932	-3.2514	-5.9825	0.	125.68
4933	-3.6206	4.5165	0.	124.3
4934	-1.3288	-7.2526	0.	126.29
4935	-6.0141	-4.2834	0.	125.11
4936	4.1961	3.5824	0.	118.7
4937	-0.10424	-0.77297	0.	131.09
4938	1.3268	6.9998	0.	128.38
4939	0.84121	6.9792	0.	123.54
4940	6.5105	-5.3114	0.	119.99
4941	5.4692	3.7996	0.	127.48
4942	5.7237	4.0409	0.	127.07
4943	5.2113	4.0634	0.	129.15
4944	5.4717	3.2933	0.	123.44
4945	8.5002	7.25	0.	127.38
4946	8.75	5.5001	0.	127.44
4947	8.5	5.2501	0.	128.34
4948	-8.5078	1.2247	0.	125.54
4949	-8.5084	0.72582	0.	125.26
4950	-4.467	-2.9681	0.	125.87
4951	-8.5027	-4.7535	0.	127.23
4952	1.91	3.4948	0.	132.73
4953	7.155	-7.9984	0.	128.08
4954	6.648	-7.9711	0.	118.41
4955	-4.7863	6.0622	0.	129.69
4956	6.3678	-4.2582	0.	122.47
4957	6.3809	-3.8905	0.	123.49
4958	-3.9946	-4.7168	0.	127.91
4959	-6.8109	8.8111	0.	130.32
4960	-6.6781	9.0176	0.	129.21
4961	-1.3762	3.4804	0.	131.24
4962	-1.3652	2.9685	0.	130.77
4963	-7.0155	1.6319	0.	125.44
4964	5.4775	2.7862	0.	121.1
4965	-5.7986	1.3054	0.	128.1
4966	3.6521	-2.5457	0.	119.71
4967	-0.21065	3.2057	0.	123.33
4968	-0.43946	3.4548	0.	125.84
4969	-0.43692	2.9509	0.	125.95
4970	-3.7502	-5.9835	0.	126.58
4971	-8.4952	-1.265	0.	125.46
4972	-8.4978	-0.76734	0.	125.23
4973	-8.2503	-2.0169	0.	126.02
4974	-8.75	-2.0085	0.	125.81
4975	-8.4975	-1.7628	0.	125.76
4976	-4.7613	7.0416	0.	126.67
4977	-7.0208	0.17022	0.	124.83
4978	-1.7321	-7.0197	0.	125.65
4979	8.4986	2.2512	0.	128.88
4980	-5.1697	-2.361	0.	127.99
4981	0.25581	3.2152	0.	120.8
4982	0.49217	3.4662	0.	118.61
4983	-3.9727	8.7485	0.	124.93
4984	-3.7193	8.4956	0.	124.97
4985	-1.362	3.98	0.	130.73
4986	3.6367	-5.8794	0.	128.23
4987	6.5021	8.7529	0.	122.26
4988	-8.5025	-0.26952	0.	125.1
4989	-8.5065	0.22785	0.	125.11
4990	-4.376	3.905	0.	127.13
4991	-4.6232	4.1457	0.	128.13
4992	-5.5458	1.54	0.	129.19
4993	-8.0044	-2.2708	0.	126.29
4994	7.7508	8.5005	0.	125.66
4995	6.4266	-5.5757	0.	114.17
4996	-5.3161	1.2916	0.	130.93
4997	-6.5131	8.6287	0.	131.2
4998	-5.7569	-4.5212	0.	123.98
4999	-5.6277	-1.2261	0.	128.06
5000	3.9408	3.3229	0.	118.84
5001	-8.5016	-5.2523	0.	127.14
5002	-4.267	7.0033	0.	126.52
5003	-3.7294	8.9991	0.	125.1
5004	-3.4759	8.7461	0.	125.14
5005	8.749	1.001	0.	130.63
5006	-5.1153	-1.1717	0.	129.7
5007	-1.4887	-6.7689	0.	126.09
5008	1.9732	2.159	0.	129.84
5009	1.7192	2.3652	0.	128.5
5010	-3.365	4.227	0.	124.51
5011	-6.6592	3.2835	0.	122.06
5012	3.6879	3.5845	0.	118.94
5013	3.1805	3.6126	0.	122.84
5014	-7.0004	-6.7519	0.	127.28
5015	7.5226	-6.2787	0.	130.07
5016	-6.6968	5.6475	0.	126.89
5017	-8.5034	1.7222	0.	125.94
5018	8.7502	7.5	0.	126.83
5019	-7.0172	-0.31459	0.	124.96
5020	5.378	-1.7023	0.	115.47
5021	1.0985e-002	-4.3759	0.	126.13
5022	-1.7992	2.4743	0.	130.44
5023	8.9994	0.75061	0.	131.97
5024	-6.1193	8.5986	0.	127.99
5025	1.7444	1.9139	0.	129.06
5026	-4.4118	3.4367	0.	127.65
5027	-4.1402	3.6447	0.	126.76
5028	-8.4945	2.2192	0.	126.44
5029	-6.3803	8.8351	0.	130.06
5030	0.98559	2.5354	0.	124.36
5031	4.9564	4.3286	0.	134.63
5032	1.8774	-7.0393	0.	137.33
5033	2.0632	-6.8088	0.	142.38
5034	2.0011	-7.2897	0.	144.97
5035	1.7187	-6.7988	0.	128.49
5036	1.9045	-6.5683	0.	133.26
5037	2.1386	-6.3641	0.	133.01
5038	1.775	-6.3224	0.	129.65
5039	2.0091	-6.1182	0.	129.41
5040	5.3374	-2.1719	0.	119.46
5041	-4.1962	3.1759	0.	126.67
5042	0.75957	2.2797	0.	123.15
5043	0.13044	-7.7126	0.	126.04
5044	0.18428	-3.0543	0.	126.76
5045	5.7823e-002	-3.4904	0.	127.73
5046	1.0115	2.0747	0.	123.45
5047	1.2639	1.8706	0.	125.43
5048	1.2379	2.3241	0.	125.75
5049	1.4904	2.12	0.	127.72
5050	-2.8676	3.5853	0.	125.49
5051	-3.1141	3.9234	0.	125.06
5052	-3.1309	3.4056	0.	125.35
5053	-3.3774	3.7436	0.	124.93
5054	-3.6421	3.5615	0.	125.45
5055	-3.9246	3.3839	0.	125.77
5056	2.1148	-7.5967	0.	135.24
5057	1.8793	-7.7629	0.	146.2
5058	2.2408	-7.8725	0.	128.81
5059	2.0053	-8.0387	0.	138.47
5060	2.9295e-002	-3.9281	0.	127.28
5061	0.27052	-4.1518	0.	125.85
5062	0.28445	-3.7054	0.	126.86
5063	0.52567	-3.929	0.	125.43
5064	0.77589	-4.1501	0.	124.61
5065	0.77602	-3.6915	0.	125.54
5066	1.0262	-3.9126	0.	124.72
5067	5.8205	-3.517	0.	124.09
5068	6.0969	-3.7152	0.	123.79
5069	6.0967	-3.3057	0.	124.91
5070	6.3732	-3.5039	0.	124.62
5071	6.6447	-3.7291	0.	123.97
5072	6.6441	-3.3177	0.	124.65
5073	6.9156	-3.543	0.	124.
5074	7.1792	-3.8019	0.	124.55
5075	7.181	-3.3609	0.	123.72
5076	7.4446	-3.6198	0.	124.27
5077	2.8185	4.9616	0.	135.88
5078	-1.5856	2.7243	0.	130.35
5079	-1.1223	2.7079	0.	130.02
5080	-0.66016	2.7022	0.	127.79
5081	-2.5685	6.4296	0.	125.45
5082	3.1172	5.0839	0.	124.6
5083	1.	-6.	0.	93.224
5084	0.	-6.	0.	97.078
5085	1.	-7.	0.	83.457
5086	0.	-7.	0.	107.42
5087	0.5	-6.	0.	110.14
5088	1.	-6.5	0.	93.83
5089	0.	-6.5	0.	105.49
5090	0.5	-7.	0.	105.38
5091	0.5	-6.5	0.	104.86
5092	0.75	-6.	0.	101.65
5093	1.	-6.25	0.	93.515
5094	0.25	-6.	0.	103.57
5095	0.	-6.25	0.	101.28
5096	1.	-6.75	0.	88.394
5097	0.75	-7.	0.	94.417
5098	0.	-6.75	0.	106.27
5099	0.25	-7.	0.	106.01
5100	0.5	-6.25	0.	107.44
5101	0.75	-6.5	0.	99.187
5102	0.25	-6.5	0.	105.18
5103	0.5	-6.75	0.	105.07
5104	8.	0.	0.	97.653
5105	7.	0.	0.	99.072
5106	8.	-2.	0.	100.01
5107	7.	-2.	0.	99.202
5108	7.5	0.	0.	112.36
5109	8.	-0.5	0.	102.21
5110	8.	-1.	0.	101.74
5111	8.	-1.5	0.	103.18
5112	7.	-0.5	0.	102.89
5113	7.	-1.	0.	102.41
5114	7.	-1.5	0.	104.05
5115	7.5	-2.	0.	113.71
5116	7.5	-0.5	0.	106.68
5117	7.5	-1.	0.	105.28
5118	7.5	-1.5	0.	108.29
5119	7.75	0.	0.	104.94
5120	8.	-0.25	0.	99.921
5121	7.25	0.	0.	105.67
5122	7.	-0.25	0.	100.98
5123	8.	-1.75	0.	101.6
5124	7.75	-2.	0.	106.83
5125	7.	-1.75	0.	101.62
5126	7.25	-2.	0.	106.4
5127	7.5	-0.25	0.	109.46
5128	8.	-0.75	0.	101.95
5129	7.75	-0.5	0.	104.4
5130	8.	-1.25	0.	102.43
5131	7.75	-1.	0.	103.51
5132	7.75	-1.5	0.	105.69
5133	7.	-0.75	0.	102.58
5134	7.25	-0.5	0.	104.72
5135	7.	-1.25	0.	103.2
5136	7.25	-1.	0.	103.84
5137	7.25	-1.5	0.	106.14
5138	7.5	-1.75	0.	110.97
5139	7.5	-0.75	0.	105.97
5140	7.5	-1.25	0.	106.78
5141	6.	1.	0.	98.256
5142	4.	1.	0.	97.225
5143	6.	-1.	0.	97.643
5144	4.	-1.	0.	98.354
5145	5.5	1.	0.	113.81
5146	5.	1.	0.	111.19
5147	4.5	1.	0.	113.34
5148	6.	0.5	0.	104.12
5149	6.	0.	0.	102.76
5150	6.	-0.5	0.	103.07
5151	4.	0.5	0.	103.7
5152	4.	0.	0.	102.86
5153	4.	-0.5	0.	103.68
5154	4.5	-1.	0.	111.16
5155	5.	-1.	0.	107.76
5156	5.5	-1.	0.	111.36
5157	5.	2.1096e-021	0.	111.83
5158	5.	0.5	0.	113.46
5159	5.5	0.5	0.	110.94
5160	5.5	4.2193e-022	0.	109.
5161	5.5	-0.5	0.	108.55
5162	5.	-0.5	0.	110.56
5163	4.5	-0.5	0.	108.39
5164	4.5	0.	0.	109.37
5165	4.5	0.5	0.	111.43
5166	5.75	1.	0.	105.99
5167	6.	0.75	0.	101.18
5168	4.25	1.	0.	105.25
5169	4.	0.75	0.	100.46
5170	6.	-0.75	0.	100.35
5171	5.75	-1.	0.	104.43
5172	4.	-0.75	0.	100.99
5173	4.25	-1.	0.	104.68
5174	5.25	1.	0.	112.5
5175	5.5	0.75	0.	112.36
5176	4.75	1.	0.	112.26
5177	5.	0.75	0.	112.32
5178	4.5	0.75	0.	112.36
5179	6.	0.25	0.	103.43
5180	5.75	0.5	0.	107.53
5181	6.	-0.25	0.	102.9
5182	5.75	2.1096e-022	0.	105.88
5183	5.75	-0.5	0.	105.8
5184	4.	0.25	0.	103.26
5185	4.25	0.5	0.	107.56
5186	4.	-0.25	0.	103.18
5187	4.25	0.	0.	106.11
5188	4.25	-0.5	0.	105.99
5189	4.75	-1.	0.	109.45
5190	4.5	-0.75	0.	109.73
5191	5.25	-1.	0.	109.56
5192	5.	-0.75	0.	109.13
5193	5.5	-0.75	0.	109.92
5194	5.	0.25	0.	112.65
5195	5.25	1.2658e-021	0.	110.42
5196	5.	-0.25	0.	111.19
5197	4.75	1.0548e-021	0.	110.6
5198	5.25	0.5	0.	112.19
5199	4.75	0.5	0.	112.44
5200	5.5	0.25	0.	109.96
5201	5.5	-0.25	0.	108.77
5202	5.25	-0.5	0.	109.55
5203	4.75	-0.5	0.	109.47
5204	4.5	-0.25	0.	108.85
5205	4.5	0.25	0.	110.39
5206	7.	7.	0.	95.991
5207	6.	7.	0.	97.833
5208	7.	5.	0.	96.574
5209	6.	5.	0.	95.629
5210	6.5	7.	0.	111.08
5211	7.	6.5	0.	100.05
5212	7.	6.	0.	98.58
5213	7.	5.5	0.	99.33
5214	6.	6.5	0.	101.16
5215	6.	6.	0.	98.934
5216	6.	5.5	0.	99.878
5217	6.5	5.	0.	110.13
5218	6.5	6.5	0.	104.83
5219	6.5	6.	0.	101.94
5220	6.5	5.5	0.	103.91
5221	6.75	7.	0.	103.48
5222	7.	6.75	0.	98.012
5223	6.25	7.	0.	104.41
5224	6.	6.75	0.	99.491
5225	7.	5.25	0.	97.948
5226	6.75	5.	0.	103.31
5227	6.	5.25	0.	97.731
5228	6.25	5.	0.	102.81
5229	6.5	6.75	0.	107.92
5230	7.	6.25	0.	99.286
5231	6.75	6.5	0.	102.38
5232	7.	5.75	0.	98.927
5233	6.75	6.	0.	100.26
5234	6.75	5.5	0.	101.57
5235	6.	6.25	0.	99.997
5236	6.25	6.5	0.	102.93
5237	6.	5.75	0.	99.335
5238	6.25	6.	0.	100.44
5239	6.25	5.5	0.	101.84
5240	6.5	5.25	0.	106.99
5241	6.5	6.25	0.	103.38
5242	6.5	5.75	0.	102.92
5243	4.	9.	0.	96.511
5244	3.	9.	0.	96.69
5245	4.	7.	0.	86.672
5246	3.	7.	0.	98.295
5247	3.5	9.	0.	112.07
5248	4.	8.5	0.	100.04
5249	4.	8.	0.	97.236
5250	4.	7.5	0.	95.133
5251	3.	8.5	0.	101.18
5252	3.	8.	0.	99.606
5253	3.	7.5	0.	100.86
5254	3.5	7.	0.	106.07
5255	3.5	8.5	0.	105.04
5256	3.5	8.	0.	101.5
5257	3.5	7.5	0.	101.82
5258	3.75	9.	0.	104.2
5259	4.	8.75	0.	98.272
5260	3.25	9.	0.	104.27
5261	3.	8.75	0.	98.93
5262	4.	7.25	0.	90.898
5263	3.75	7.	0.	96.361
5264	3.	7.25	0.	99.572
5265	3.25	7.	0.	102.14
5266	3.5	8.75	0.	108.48
5267	4.	8.25	0.	98.596
5268	3.75	8.5	0.	102.43
5269	4.	7.75	0.	96.151
5270	3.75	8.	0.	99.351
5271	3.75	7.5	0.	98.465
5272	3.	8.25	0.	100.36
5273	3.25	8.5	0.	103.02
5274	3.	7.75	0.	100.21
5275	3.25	8.	0.	100.55
5276	3.25	7.5	0.	101.31
5277	3.5	7.25	0.	103.92
5278	3.5	8.25	0.	103.27
5279	3.5	7.75	0.	101.66
5280	1.67	-7.53	0.	69.343
5281	0.37	-7.48	0.	58.773
5282	0.98	-8.63	0.	107.46
5283	1.2367	-7.5133	0.	110.09
5284	0.80333	-7.4967	0.	102.38
5285	1.44	-7.8967	0.	98.488
5286	1.21	-8.2633	0.	91.781
5287	0.57333	-7.8633	0.	89.413
5288	0.77667	-8.2467	0.	88.684
5289	0.85988	-7.7885	0.	96.793
5290	1.001	-8.0525	0.	99.503
5291	1.16	-7.7983	0.	100.37
5292	1.4533	-7.5217	0.	89.603
5293	1.555	-7.7133	0.	83.6
5294	0.58667	-7.4883	0.	80.532
5295	0.47167	-7.6717	0.	73.809
5296	1.095	-8.4467	0.	98.
5297	0.87833	-8.4383	0.	96.583
5298	1.02	-7.505	0.	106.22
5299	1.1984	-7.6558	0.	105.18
5300	0.83161	-7.6426	0.	99.547
5301	1.325	-8.08	0.	95.085
5302	1.3	-7.8475	0.	99.345
5303	1.1055	-8.1579	0.	95.609
5304	0.675	-8.055	0.	88.934
5305	0.71661	-7.8259	0.	92.963
5306	0.88884	-8.1496	0.	93.978
5307	0.93045	-7.9205	0.	98.059
5308	1.01	-7.7934	0.	98.343
5309	1.0805	-7.9254	0.	99.865
5310	6.4	-6.03	0.	106.84
5311	5.62	-6.89	0.	58.508
5312	6.75	-7.13	0.	52.809
5313	6.14	-6.3167	0.	87.445
5314	5.88	-6.6033	0.	90.071
5315	6.5167	-6.3967	0.	98.54
5316	6.6333	-6.7633	0.	98.819
5317	5.9967	-6.97	0.	112.44
5318	6.3733	-7.05	0.	111.64
5319	6.3709	-6.7872	0.	100.25
5320	6.2905	-6.5324	0.	100.91
5321	6.1098	-6.7316	0.	103.02
5322	6.27	-6.1733	0.	95.304
5323	6.4583	-6.2133	0.	99.687
5324	5.75	-6.7467	0.	68.056
5325	5.8083	-6.93	0.	79.155
5326	6.6917	-6.9467	0.	75.615
5327	6.5617	-7.09	0.	81.926
5328	6.01	-6.46	0.	88.518
5329	6.2152	-6.4245	0.	94.158
5330	5.9949	-6.6675	0.	96.06
5331	6.575	-6.58	0.	98.512
5332	6.4036	-6.4645	0.	99.557
5333	6.5021	-6.7753	0.	99.458
5334	6.185	-7.01	0.	111.99
5335	6.0532	-6.8508	0.	107.25
5336	6.3721	-6.9186	0.	105.93
5337	6.3307	-6.6598	0.	100.51
5338	6.2403	-6.7594	0.	101.44
5339	6.2001	-6.632	0.	101.78
5340	4.39	-7.95	0.	65.069
5341	5.23	-8.72	0.	102.53
5342	5.48	-7.61	0.	64.659
5343	4.81	-8.335	0.	86.906
5344	4.935	-7.78	0.	117.28
5345	5.355	-8.165	0.	99.764
5346	5.0334	-8.0934	0.	106.01
5347	4.6	-8.1425	0.	71.796
5348	4.6625	-7.865	0.	87.161
5349	5.02	-8.5275	0.	93.739
5350	5.2925	-8.4425	0.	99.159
5351	5.2075	-7.695	0.	90.391
5352	5.4175	-7.8875	0.	81.88
5353	4.9217	-8.2142	0.	95.753
5354	4.9842	-7.9367	0.	111.23
5355	5.1942	-8.1292	0.	102.72
5356	3.22	-6.11	0.	106.28
5357	2.23	-7.22	0.	72.807
5358	3.68	-7.52	0.	62.568
5359	2.89	-6.48	0.	93.865
5360	2.56	-6.85	0.	100.35
5361	3.3733	-6.58	0.	97.59
5362	3.5267	-7.05	0.	102.82
5363	2.7133	-7.32	0.	113.61
5364	3.1967	-7.42	0.	111.62
5365	3.0842	-6.7557	0.	103.77
5366	3.1905	-7.0818	0.	101.01
5367	2.8552	-7.0124	0.	104.75
5368	3.055	-6.295	0.	98.72
5369	3.2967	-6.345	0.	100.1
5370	2.395	-7.035	0.	84.023
5371	2.4717	-7.27	0.	90.236
5372	3.6033	-7.285	0.	82.549
5373	3.4383	-7.47	0.	86.822
5374	2.725	-6.665	0.	97.008
5375	2.9871	-6.6179	0.	98.813
5376	2.7076	-6.9312	0.	102.34
5377	3.45	-6.815	0.	100.06
5378	3.2288	-6.6679	0.	100.58
5379	3.3586	-7.0659	0.	101.91
5380	2.955	-7.37	0.	112.45
5381	2.7843	-7.1662	0.	108.83
5382	3.1936	-7.2509	0.	106.29
5383	3.1374	-6.9188	0.	102.37
5384	2.9697	-6.8841	0.	104.19
5385	3.0229	-7.0471	0.	102.78
5386	-1.8	-2.64	0.	96.501
5387	-1.61	-1.62	0.	71.109
5388	-2.59	-1.96	0.	62.431
5389	-1.705	-2.13	0.	105.29
5390	-2.195	-2.3	0.	88.91
5391	-2.1	-1.79	0.	111.4
5392	-1.9999	-2.0732	0.	105.68
5393	-1.7525	-2.385	0.	98.438
5394	-1.9975	-2.47	0.	91.12
5395	-1.6575	-1.875	0.	87.408
5396	-1.855	-1.705	0.	89.967
5397	-2.3925	-2.13	0.	69.986
5398	-2.345	-1.875	0.	81.564
5399	-1.8525	-2.1016	0.	105.4
5400	-2.0975	-2.1866	0.	96.413
5401	-2.05	-1.9316	0.	107.83
5402	3.22	9.e-002	0.	104.06
5403	2.2	-1.06	0.	66.838
5404	3.7	-1.37	0.	63.913
5405	2.88	-0.29333	0.	94.031
5406	2.54	-0.67667	0.	99.557
5407	3.38	-0.39667	0.	101.79
5408	3.54	-0.88333	0.	104.78
5409	2.7	-1.1633	0.	115.7
5410	3.2	-1.2667	0.	115.05
5411	3.0816	-0.5788	0.	103.98
5412	3.1926	-0.9164	0.	101.86
5413	2.8458	-0.84474	0.	105.5
5414	3.05	-0.10167	0.	97.86
5415	3.3	-0.15333	0.	101.23
5416	2.37	-0.86833	0.	80.108
5417	2.45	-1.1117	0.	88.394
5418	3.62	-1.1267	0.	84.28
5419	3.45	-1.3183	0.	89.273
5420	2.71	-0.485	0.	96.732
5421	2.9808	-0.43607	0.	98.992
5422	2.6929	-0.7607	0.	102.25
5423	3.46	-0.64	0.	103.25
5424	3.2308	-0.48773	0.	102.83
5425	3.3663	-0.89987	0.	103.29
5426	2.95	-1.215	0.	115.27
5427	2.7729	-1.004	0.	110.29
5428	3.1963	-1.0915	0.	108.4
5429	3.1371	-0.7476	0.	102.89
5430	2.9637	-0.71177	0.	104.63
5431	3.0192	-0.88057	0.	103.59
5432	1.	-0.74	0.	87.913
5433	1.08	0.62	0.	77.448
5434	-0.14	1.e-002	0.	68.765
5435	1.0267	-0.28667	0.	101.91
5436	1.0533	0.16667	0.	103.81
5437	0.62	-0.49	0.	96.782
5438	0.24	-0.24	0.	100.1
5439	0.67333	0.41667	0.	102.54
5440	0.26667	0.21333	0.	105.6
5441	0.46476	-2.5876e-002	0.	104.13
5442	0.74686	0.11516	0.	100.05
5443	0.72837	-0.19932	0.	100.16
5444	1.0133	-0.51333	0.	92.719
5445	0.81	-0.615	0.	90.426
5446	1.0667	0.39333	0.	89.13
5447	0.87667	0.51833	0.	88.305
5448	5.e-002	-0.115	0.	78.845
5449	6.3333e-002	0.11167	0.	81.191
5450	1.04	-6.e-002	0.	102.7
5451	0.87752	-0.24299	0.	100.98
5452	0.9001	0.14092	0.	101.92
5453	0.43	-0.365	0.	98.373
5454	0.67419	-0.34466	0.	98.395
5455	0.35238	-0.13294	0.	101.55
5456	0.47	0.315	0.	103.93
5457	0.71009	0.26592	0.	101.21
5458	0.36571	9.3729e-002	0.	104.28
5459	0.60581	4.4644e-002	0.	101.98
5460	0.59656	-0.1126	0.	102.
5461	0.73761	-4.2077e-002	0.	100.09
5462	-2.32	0.11	0.	78.403
5463	-4.15	0.82	0.	73.412
5464	-3.86	-1.12	0.	95.124
5465	-2.7775	0.2875	0.	114.08
5466	-3.235	0.465	0.	107.44
5467	-3.6925	0.6425	0.	109.47
5468	-2.705	-0.1975	0.	106.06
5469	-3.09	-0.505	0.	106.3
5470	-3.475	-0.8125	0.	103.05
5471	-4.0775	0.335	0.	105.87
5472	-4.005	-0.15	0.	101.88
5473	-3.9325	-0.635	0.	102.22
5474	-3.2723	-0.21931	0.	105.68
5475	-3.6115	-0.38772	0.	104.48
5476	-3.7297	0.11938	0.	102.07
5477	-3.3314	0.11838	0.	106.51
5478	-2.9862	4.6945e-003	0.	109.36
5479	-2.5487	0.19875	0.	93.294
5480	-2.5125	-4.375e-002	0.	89.52
5481	-3.9213	0.73125	0.	90.749
5482	-4.1137	0.5775	0.	89.016
5483	-3.6675	-0.96625	0.	97.433
5484	-3.8963	-0.8775	0.	96.986
5485	-3.0062	0.37625	0.	110.66
5486	-2.8818	0.1461	0.	111.46
5487	-3.4637	0.55375	0.	108.42
5488	-3.2832	0.29169	0.	106.97
5489	-3.7111	0.38094	0.	105.73
5490	-2.8975	-0.35125	0.	106.06
5491	-2.8456	-9.6403e-002	0.	107.51
5492	-3.2825	-0.65875	0.	104.65
5493	-3.1811	-0.36216	0.	105.98
5494	-3.5433	-0.60011	0.	103.71
5495	-4.0413	9.25e-002	0.	103.86
5496	-3.9036	0.22719	0.	103.96
5497	-3.9688	-0.3925	0.	101.99
5498	-3.8674	-1.5311e-002	0.	101.97
5499	-3.772	-0.51136	0.	103.3
5500	-3.4419	-0.30352	0.	105.08
5501	-3.3018	-5.0466e-002	0.	106.09
5502	-3.1292	-0.10731	0.	107.48
5503	-3.6706	-0.13417	0.	103.27
5504	-3.5306	0.11888	0.	104.28
5505	-3.1588	6.1538e-002	0.	107.88
5506	0.29	5.79	0.	110.89
5507	-0.36	4.7	0.	48.513
5508	0.9	4.67	0.	50.041
5509	7.3333e-002	5.4267	0.	89.798
5510	-0.14333	5.0633	0.	92.92
5511	0.49333	5.4167	0.	90.764
5512	0.69667	5.0433	0.	93.971
5513	6.e-002	4.69	0.	113.35
5514	0.48	4.68	0.	113.41
5515	0.42074	4.9627	0.	99.486
5516	0.27946	5.2223	0.	99.34
5517	0.12958	4.9705	0.	99.638
5518	0.18167	5.6083	0.	98.561
5519	0.39167	5.6033	0.	98.99
5520	-0.25167	4.8817	0.	69.049
5521	-0.15	4.695	0.	79.635
5522	0.79833	4.8567	0.	70.559
5523	0.69	4.675	0.	80.655
5524	-3.5e-002	5.245	0.	91.208
5525	0.1764	5.3245	0.	94.465
5526	-6.8788e-003	5.0169	0.	96.095
5527	0.595	5.23	0.	92.225
5528	0.3864	5.3195	0.	94.941
5529	0.5587	5.003	0.	96.548
5530	0.27	4.685	0.	113.27
5531	9.4788e-002	4.8303	0.	106.34
5532	0.45037	4.8213	0.	106.33
5533	0.3501	5.0925	0.	99.287
5534	0.27516	4.9666	0.	99.406
5535	0.20452	5.0964	0.	99.357
5536	-6.85	4.83	0.	59.593
5537	-5.81	4.56	0.	61.447
5538	-6.09	5.59	0.	102.17
5539	-6.33	4.695	0.	115.08
5540	-6.47	5.21	0.	83.345
5541	-5.95	5.075	0.	97.459
5542	-6.2498	4.9934	0.	102.15
5543	-6.59	4.7625	0.	84.016
5544	-6.66	5.02	0.	67.367
5545	-6.07	4.6275	0.	87.81
5546	-5.88	4.8175	0.	79.223
5547	-6.28	5.4	0.	91.983
5548	-6.02	5.3325	0.	97.798
5549	-6.2899	4.8442	0.	108.29
5550	-6.3599	5.1017	0.	92.104
5551	-6.0999	5.0342	0.	99.571
5552	4.17	6.63	0.	101.26
5553	2.99	5.55	0.	69.922
5554	4.51	5.07	0.	65.057
5555	3.7767	6.27	0.	87.735
5556	3.3833	5.91	0.	94.293
5557	4.2833	6.11	0.	97.589
5558	4.3967	5.59	0.	101.02
5559	3.4967	5.39	0.	105.69
5560	4.0033	5.23	0.	106.93
5561	3.9547	5.9535	0.	98.084
5562	4.0333	5.5928	0.	97.192
5563	3.6819	5.7038	0.	99.473
5564	3.9733	6.45	0.	93.294
5565	4.2267	6.37	0.	97.647
5566	3.1867	5.73	0.	78.838
5567	3.2433	5.47	0.	84.137
5568	4.4533	5.33	0.	82.675
5569	4.2567	5.15	0.	85.46
5570	3.58	6.09	0.	90.839
5571	3.8657	6.1118	0.	92.897
5572	3.5326	5.8069	0.	96.564
5573	4.34	5.85	0.	99.171
5574	4.119	6.0318	0.	97.719
5575	4.215	5.5914	0.	99.107
5576	3.75	5.31	0.	106.21
5577	3.5893	5.5469	0.	102.22
5578	4.0183	5.4114	0.	102.04
5579	3.994	5.7731	0.	97.629
5580	3.8183	5.8286	0.	98.679
5581	3.8576	5.6483	0.	98.238
5582	-7.75	8.6	0.	97.794
5583	-7.95	7.58	0.	68.883
5584	-6.97	7.91	0.	62.508
5585	-7.85	8.09	0.	102.17
5586	-7.36	8.255	0.	87.223
5587	-7.46	7.745	0.	111.03
5588	-7.5567	8.0298	0.	103.22
5589	-7.8	8.345	0.	97.751
5590	-7.555	8.4275	0.	91.286
5591	-7.9	7.835	0.	84.997
5592	-7.705	7.6625	0.	88.94
5593	-7.165	8.0825	0.	70.026
5594	-7.215	7.8275	0.	82.571
5595	-7.7033	8.0599	0.	102.58
5596	-7.4583	8.1424	0.	94.48
5597	-7.5083	7.8874	0.	106.53
5598	-5.	-6.	0.	97.908
5599	-6.	-6.	0.	98.381
5600	-5.	-7.	0.	97.79
5601	-6.	-7.	0.	97.901
5602	-5.5	-6.	0.	113.67
5603	-5.	-6.5	0.	103.02
5604	-6.	-6.5	0.	103.27
5605	-5.5	-7.	0.	113.29
5606	-5.5	-6.5	0.	110.81
5607	-5.25	-6.	0.	105.77
5608	-5.	-6.25	0.	100.45
5609	-5.75	-6.	0.	106.01
5610	-6.	-6.25	0.	100.82
5611	-5.	-6.75	0.	100.39
5612	-5.25	-7.	0.	105.52
5613	-6.	-6.75	0.	100.58
5614	-5.75	-7.	0.	105.57
5615	-5.5	-6.25	0.	112.2
5616	-5.25	-6.5	0.	106.89
5617	-5.75	-6.5	0.	107.02
5618	-5.5	-6.75	0.	112.
