Node Number	X Location (mm)	Y Location (mm)	Z Location (mm)	Equivalent (von-Mises) Stress (MPa)
1	6.32	-0.21	0.	178.49
2	5.07	-0.2	0.	171.87
3	5.69	-1.29	0.	111.05
4	7.96	-4.2	0.	150.86
5	6.99	-3.6	0.	142.19
6	6.95	-4.74	0.	146.26
7	8.62	2.94	0.	163.99
8	7.47	3.61	0.	146.71
9	7.46	2.28	0.	149.45
10	-1.38	-4.89	0.	168.57
11	-0.62	-5.98	0.	111.08
12	-5.e-002	-4.78	0.	173.99
13	0.81	-2.33	0.	126.26
14	0.56	-3.73	0.	157.98
15	1.89	-3.24	0.	153.46
16	-0.47	7.27	0.	109.78
17	-1.29	5.69	0.	160.49
18	0.49	5.76	0.	161.21
19	-7.97	-2.06	0.	119.21
20	-7.64	-0.93	0.	161.42
21	-8.79	-1.21	0.	177.28
22	-6.49	8.57	0.	148.15
23	-6.44	7.19	0.	139.6
24	-5.27	7.92	0.	161.62
25	-8.29	2.3	0.	177.21
26	-6.95	2.02	0.	160.35
27	-7.37	3.31	0.	121.98
28	4.	8.	0.	133.25
29	4.	6.	0.	131.3
30	5.	8.	0.	132.
31	5.	6.	0.	131.85
32	4.	2.	0.	134.98
33	4.	1.	0.	136.92
34	5.	2.	0.	129.68
35	5.	1.	0.	135.3
36	6.	-6.	0.	131.65
37	6.	-8.	0.	130.07
38	7.	-6.	0.	125.82
39	7.	-8.	0.	127.9
40	-1.	3.	0.	128.56
41	-1.	1.	0.	129.7
42	0.	3.	0.	129.47
43	0.	1.	0.	129.99
44	-2.	-7.	0.	132.1
45	-2.	-9.	0.	130.06
46	-1.	-7.	0.	126.37
47	-1.	-9.	0.	126.71
48	-2.	-2.	0.	132.95
49	-2.	-3.	0.	131.7
50	-1.	-2.	0.	131.54
51	-1.	-3.	0.	127.48
52	-7.	6.	0.	132.31
53	-7.	5.	0.	133.25
54	-5.	6.	0.	135.99
55	-5.	5.	0.	137.59
56	-8.	-7.	0.	124.93
57	-8.	-8.	0.	128.8
58	-6.	-7.	0.	139.72
59	-6.	-8.	0.	137.85
60	-9.	-4.	0.	135.33
61	-9.	-6.	0.	139.35
62	-7.	-4.	0.	132.61
63	-7.	-6.	0.	128.37
64	10.	10.	0.	125.01
65	-10.	10.	0.	125.04
66	10.	-10.	0.	128.81
67	-10.	-10.	0.	130.4
68	5.9033	-0.20667	0.	102.81
69	5.4867	-0.20333	0.	107.53
70	6.11	-0.57	0.	113.63
71	5.9	-0.93	0.	104.84
72	5.2767	-0.56333	0.	117.14
73	5.4833	-0.92667	0.	103.23
74	7.475	-3.9	0.	70.527
75	7.455	-4.47	0.	78.355
76	6.97	-4.17	0.	141.51
77	8.2367	3.1633	0.	74.42
78	7.8533	3.3867	0.	95.581
79	8.2333	2.72	0.	77.26
80	7.8467	2.5	0.	96.484
81	7.4667	3.1667	0.	146.87
82	7.4633	2.7233	0.	146.9
83	-1.1267	-5.2533	0.	103.86
84	-0.87333	-5.6167	0.	93.611
85	-0.93667	-4.8533	0.	102.28
86	-0.49333	-4.8167	0.	109.08
87	-0.43	-5.58	0.	109.97
88	-0.24	-5.18	0.	125.58
89	0.72667	-2.7967	0.	136.82
90	0.64333	-3.2633	0.	140.88
91	1.17	-2.6333	0.	98.392
92	1.53	-2.9367	0.	95.395
93	1.0033	-3.5667	0.	110.15
94	1.4467	-3.4033	0.	104.51
95	-0.675	6.875	0.	114.59
96	-0.88	6.48	0.	124.72
97	-1.085	6.085	0.	126.94
98	-0.23	6.8925	0.	106.13
99	1.e-002	6.515	0.	118.8
100	0.25	6.1375	0.	116.7
101	-0.845	5.7075	0.	106.82
102	-0.4	5.725	0.	116.89
103	4.5e-002	5.7425	0.	108.62
104	-7.86	-1.6833	0.	118.85
105	-7.75	-1.3067	0.	137.14
106	-8.2428	-1.7772	0.	82.779
107	-8.5164	-1.4936	0.	75.996
108	-8.0233	-1.0233	0.	100.54
109	-8.4067	-1.1167	0.	89.65
110	-6.4733	8.11	0.	145.19
111	-6.4567	7.65	0.	141.22
112	-6.0833	8.3533	0.	94.769
113	-5.6767	8.1367	0.	73.446
114	-6.05	7.4333	0.	91.143
115	-5.66	7.6767	0.	73.396
116	-7.8433	2.2067	0.	87.628
117	-7.3967	2.1133	0.	106.41
118	-7.9833	2.6367	0.	80.364
119	-7.6767	2.9733	0.	84.655
120	-7.09	2.45	0.	135.38
121	-7.23	2.88	0.	122.67
122	4.	7.5	0.	141.1
123	4.	7.	0.	141.01
124	4.	6.5	0.	140.33
125	4.5	8.	0.	108.07
126	4.5	6.	0.	107.08
127	5.	7.5	0.	140.8
128	5.	7.	0.	141.01
129	5.	6.5	0.	140.58
130	4.	1.5	0.	145.07
131	4.5	2.	0.	110.55
132	4.5	1.	0.	117.43
133	5.	1.5	0.	140.19
134	6.	-6.5	0.	139.8
135	6.	-7.	0.	139.55
136	6.	-7.5	0.	138.82
137	6.5	-6.	0.	106.23
138	6.5	-8.	0.	104.68
139	7.	-6.5	0.	135.13
140	7.	-7.	0.	136.34
141	7.	-7.5	0.	136.57
142	-1.	2.5	0.	138.74
143	-1.	2.	0.	139.18
144	-1.	1.5	0.	138.78
145	-0.5	3.	0.	105.15
146	-0.5	1.	0.	105.35
147	0.	2.5	0.	138.31
148	0.	2.	0.	138.84
149	0.	1.5	0.	138.52
150	-2.	-7.5	0.	140.42
151	-2.	-8.	0.	140.23
152	-2.	-8.5	0.	139.49
153	-1.5	-7.	0.	105.65
154	-1.5	-9.	0.	103.86
155	-1.	-7.5	0.	134.67
156	-1.	-8.	0.	136.03
157	-1.	-8.5	0.	136.07
158	-2.	-2.5	0.	142.13
159	-1.5	-2.	0.	109.42
160	-1.5	-3.	0.	107.59
161	-1.	-2.5	0.	137.29
162	-7.	5.5	0.	141.05
163	-6.5	6.	0.	114.37
164	-6.	6.	0.	116.6
165	-5.5	6.	0.	114.45
166	-6.5	5.	0.	115.22
167	-6.	5.	0.	121.68
168	-5.5	5.	0.	117.79
169	-5.	5.5	0.	145.03
170	-8.	-7.5	0.	135.36
171	-7.5	-7.	0.	109.53
172	-7.	-7.	0.	120.63
173	-6.5	-7.	0.	121.15
174	-7.5	-8.	0.	112.76
175	-7.	-8.	0.	119.53
176	-6.5	-8.	0.	116.48
177	-6.	-7.5	0.	147.
178	-9.	-4.5	0.	147.47
179	-9.	-5.	0.	149.91
180	-9.	-5.5	0.	148.89
181	-8.5	-4.	0.	111.48
182	-8.	-4.	0.	114.79
183	-7.5	-4.	0.	110.14
184	-8.5	-6.	0.	117.78
185	-8.	-6.	0.	117.83
186	-7.5	-6.	0.	108.84
187	-7.	-4.5	0.	140.98
188	-7.	-5.	0.	141.13
189	-7.	-5.5	0.	138.51
190	9.5	10.	0.	125.03
191	9.	10.	0.	125.15
192	8.5	10.	0.	125.33
193	8.	10.	0.	125.56
194	7.5	10.	0.	125.78
195	7.	10.	0.	125.91
196	6.5	10.	0.	125.78
197	6.	10.	0.	125.14
198	5.5	10.	0.	123.94
199	5.	10.	0.	122.7
200	4.5	10.	0.	122.32
201	4.	10.	0.	123.17
202	3.5	10.	0.	124.84
203	3.	10.	0.	126.38
204	2.5	10.	0.	127.18
205	2.	10.	0.	127.25
206	1.5	10.	0.	126.8
207	1.	10.	0.	126.03
208	0.5	10.	0.	125.18
209	-5.2042e-015	10.	0.	124.55
210	-0.5	10.	0.	124.4
211	-1.	10.	0.	124.83
212	-1.5	10.	0.	125.69
213	-2.	10.	0.	126.7
214	-2.5	10.	0.	127.64
215	-3.	10.	0.	128.38
216	-3.5	10.	0.	128.84
217	-4.	10.	0.	128.75
218	-4.5	10.	0.	127.51
219	-5.	10.	0.	124.49
220	-5.5	10.	0.	120.69
221	-6.	10.	0.	118.87
222	-6.5	10.	0.	120.21
223	-7.	10.	0.	123.57
224	-7.5	10.	0.	126.28
225	-8.	10.	0.	126.9
226	-8.5	10.	0.	126.38
227	-9.	10.	0.	125.69
228	-9.5	10.	0.	125.16
229	10.	9.5	0.	124.96
230	10.	9.	0.	124.73
231	10.	8.5	0.	124.45
232	10.	8.	0.	124.28
233	10.	7.5	0.	124.33
234	10.	7.	0.	124.73
235	10.	6.5	0.	125.56
236	10.	6.	0.	126.89
237	10.	5.5	0.	128.71
238	10.	5.	0.	130.74
239	10.	4.5	0.	132.02
240	10.	4.	0.	130.69
241	10.	3.5	0.	125.84
242	10.	3.	0.	121.47
243	10.	2.5	0.	124.57
244	10.	2.	0.	129.93
245	10.	1.5	0.	132.
246	10.	1.	0.	131.03
247	10.	0.5	0.	129.08
248	10.	-5.2042e-015	0.	127.45
249	10.	-0.5	0.	126.69
250	10.	-1.	0.	126.87
251	10.	-1.5	0.	127.73
252	10.	-2.	0.	128.77
253	10.	-2.5	0.	129.23
254	10.	-3.	0.	128.34
255	10.	-3.5	0.	126.23
256	10.	-4.	0.	124.43
257	10.	-4.5	0.	124.81
258	10.	-5.	0.	126.62
259	10.	-5.5	0.	128.25
260	10.	-6.	0.	128.45
261	10.	-6.5	0.	127.75
262	10.	-7.	0.	127.
263	10.	-7.5	0.	126.74
264	10.	-8.	0.	127.03
265	10.	-8.5	0.	127.64
266	10.	-9.	0.	128.25
267	10.	-9.5	0.	128.67
268	-10.	9.5	0.	124.73
269	-10.	9.	0.	123.77
270	-10.	8.5	0.	122.9
271	-10.	8.	0.	122.56
272	-10.	7.5	0.	122.85
273	-10.	7.	0.	123.57
274	-10.	6.5	0.	124.45
275	-10.	6.	0.	125.47
276	-10.	5.5	0.	126.79
277	-10.	5.	0.	128.48
278	-10.	4.5	0.	130.07
279	-10.	4.	0.	130.5
280	-10.	3.5	0.	128.77
281	-10.	3.	0.	125.32
282	-10.	2.5	0.	123.37
283	-10.	2.	0.	125.85
284	-10.	1.5	0.	130.61
285	-10.	1.	0.	134.38
286	-10.	0.5	0.	136.48
287	-10.	-5.2042e-015	0.	137.26
288	-10.	-0.5	0.	133.43
289	-10.	-1.	0.	125.64
290	-10.	-1.5	0.	123.84
291	-10.	-2.	0.	130.94
292	-10.	-2.5	0.	137.69
293	-10.	-3.	0.	141.62
294	-10.	-3.5	0.	141.63
295	-10.	-4.	0.	137.18
296	-10.	-4.5	0.	132.51
297	-10.	-5.	0.	131.92
298	-10.	-5.5	0.	132.02
299	-10.	-6.	0.	135.5
300	-10.	-6.5	0.	137.27
301	-10.	-7.	0.	134.15
302	-10.	-7.5	0.	129.95
303	-10.	-8.	0.	128.43
304	-10.	-8.5	0.	128.92
305	-10.	-9.	0.	129.81
306	-10.	-9.5	0.	130.28
307	-9.5	-10.	0.	128.37
308	-9.	-10.	0.	126.19
309	-8.5	-10.	0.	123.22
310	-8.	-10.	0.	119.73
311	-7.5	-10.	0.	117.1
312	-7.	-10.	0.	116.87
313	-6.5	-10.	0.	119.52
314	-6.	-10.	0.	124.1
315	-5.5	-10.	0.	128.74
316	-5.	-10.	0.	131.98
317	-4.5	-10.	0.	133.65
318	-4.	-10.	0.	134.32
319	-3.5	-10.	0.	134.41
320	-3.	-10.	0.	133.72
321	-2.5	-10.	0.	129.19
322	-2.	-10.	0.	117.68
323	-1.5	-10.	0.	110.09
324	-1.	-10.	0.	115.32
325	-0.5	-10.	0.	125.07
326	5.2042e-015	-10.	0.	128.58
327	0.5	-10.	0.	128.75
328	1.	-10.	0.	128.58
329	1.5	-10.	0.	128.46
330	2.	-10.	0.	128.49
331	2.5	-10.	0.	128.58
332	3.	-10.	0.	128.69
333	3.5	-10.	0.	128.69
334	4.	-10.	0.	128.44
335	4.5	-10.	0.	127.65
336	5.	-10.	0.	125.88
337	5.5	-10.	0.	122.97
338	6.	-10.	0.	119.72
339	6.5	-10.	0.	118.01
340	7.	-10.	0.	118.97
341	7.5	-10.	0.	121.65
342	8.	-10.	0.	124.24
343	8.5	-10.	0.	125.97
344	9.	-10.	0.	126.99
345	9.5	-10.	0.	127.78
346	-4.0389	-4.4466e-002	0.	129.54
347	-3.4936	2.0203	0.	127.84
348	-4.8336	-1.5188	0.	128.37
349	-4.8959	-2.0161	0.	128.66
350	-4.7404	-1.0198	0.	128.61
351	-4.6157	-0.52515	0.	129.11
352	-4.0043	1.0008	0.	128.48
353	-4.0181	0.48396	0.	129.13
354	2.3883	-6.2075	0.	127.02
355	2.1845	-0.51324	0.	128.56
356	2.5	3.9852	0.	130.2
357	-3.9924	2.5286	0.	127.77
358	-2.5774	6.7098	0.	127.72
359	4.0543	-4.4425	0.	127.43
360	2.9177	-1.0042	0.	129.97
361	-4.3092	-1.0794	0.	129.23
362	-4.4449	-5.0257	0.	129.9
363	-4.4414	-4.5304	0.	129.59
364	-5.061	1.3528e-002	0.	129.21
365	-5.3795	-1.9953	0.	128.1
366	-5.3064	-1.4936	0.	127.42
367	-4.5065	1.0093	0.	128.59
368	-3.5253	-3.3145e-002	0.	129.57
369	3.5054	-4.9264	0.	128.8
370	3.4261	-6.457	0.	127.67
371	2.8602	-6.4379	0.	127.39
372	2.3915	-6.6277	0.	127.2
373	1.9349	-5.7751	0.	125.89
374	2.432	-5.8023	0.	126.97
375	1.926	-6.6561	0.	127.22
376	1.927	-6.2162	0.	126.69
377	2.9634	-5.3882	0.	128.31
378	2.9834	-4.8933	0.	129.38
379	3.4776	-5.4304	0.	128.5
380	3.4486	-5.9413	0.	128.05
381	-3.5043	0.9979	0.	128.39
382	-3.5152	0.48299	0.	129.03
383	-4.5002	2.0246	0.	126.71
384	-5.2168	-0.99028	0.	127.68
385	-5.1255	-0.49034	0.	128.49
386	-4.4154	-2.0353	0.	128.95
387	-4.4545	-3.0306	0.	129.6
388	-4.451	-3.532	0.	129.79
389	3.2871	-1.4272	0.	130.58
390	4.0934	-3.9332	0.	126.62
391	4.0844	-3.4224	0.	126.54
392	-3.9182	-5.0404	0.	129.54
393	-3.9195	-4.5467	0.	129.5
394	-2.6116	7.2112	0.	128.19
395	-4.5013	2.5292	0.	126.49
396	4.6551	-3.9207	0.	124.83
397	-3.4765	3.0411	0.	129.72
398	-3.459	3.5529	0.	131.23
399	2.4914	4.4849	0.	130.41
400	1.6162	-0.4741	0.	126.66
401	-5.5298	0.53025	0.	129.82
402	1.995	4.4695	0.	131.6
403	-5.4273	-2.4997	0.	129.37
404	2.5025	3.4876	0.	129.9
405	4.5952	-3.377	0.	125.12
406	4.5622	-4.4716	0.	126.22
407	2.8419	-0.68201	0.	129.64
408	2.7024	-0.33609	0.	129.66
409	5.1132	-4.1155	0.	123.29
410	7.0039	7.0085	0.	124.51
411	7.0063	6.512	0.	124.45
412	2.444	-1.1928	0.	129.94
413	2.038	-1.0106	0.	127.97
414	1.6031	-0.91923	0.	125.62
415	6.5031	7.0083	0.	125.77
416	1.9925	7.0405	0.	127.21
417	1.5032	1.9897	0.	127.35
418	-2.4938	2.0172	0.	127.99
419	1.4791	-5.8026	0.	125.43
420	4.4748	-6.9879	0.	128.
421	3.9623	-6.9794	0.	127.63
422	3.4478	-6.974	0.	127.5
423	2.9377	-6.9903	0.	127.41
424	2.4419	-7.0642	0.	127.36
425	1.9474	-7.1051	0.	127.39
426	1.4543	-7.1152	0.	127.55
427	3.5289	-4.4283	0.	128.74
428	3.2469	-1.8119	0.	131.18
429	-3.9776	-6.0212	0.	131.09
430	-3.1371	7.1247	0.	128.47
431	-3.9846	3.0356	0.	128.92
432	-5.5892	3.0856	0.	123.11
433	3.9541	-6.4725	0.	127.92
434	-3.0116	-1.7089e-002	0.	129.24
435	-2.9983	1.5087	0.	127.82
436	-2.9841	2.5324	0.	128.65
437	-5.0137	2.5385	0.	124.73
438	-5.0089	1.0206	0.	128.96
439	-5.5651	3.0698e-002	0.	128.99
440	-5.7923	-1.4742	0.	125.99
441	-5.8716	-1.9783	0.	127.15
442	-4.9516	-3.0181	0.	129.91
443	-4.9622	-5.0151	0.	129.72
444	-4.9567	-4.5185	0.	129.4
445	2.9976	3.9941	0.	128.32
446	4.4965	4.0138	0.	120.53
447	2.0979	2.0911e-002	0.	128.55
448	2.0059	1.4998	0.	127.25
449	-3.9041	-1.085	0.	129.71
450	-3.9343	-4.046	0.	129.82
451	-3.9528	-2.5373	0.	129.06
452	1.5386	7.0306	0.	127.86
453	3.6519	-2.2962	0.	129.96
454	3.5346	-3.0725	0.	127.92
455	3.5686	-2.6861	0.	128.83
456	3.7209	-1.1072	0.	128.99
457	-3.9561	-3.0387	0.	129.5
458	-3.9481	-3.542	0.	129.88
459	-3.9357	-2.0428	0.	129.07
460	2.0032	2.4885	0.	128.32
461	2.0032	1.9943	0.	127.49
462	-4.9545	-3.5198	0.	130.01
463	-6.3734	-1.9595	0.	126.01
464	-5.7042	-0.97043	0.	126.43
465	-5.6245	-0.47009	0.	127.74
466	-5.0037	2.0318	0.	125.82
467	-2.952	3.5601	0.	131.37
468	-2.9712	3.0456	0.	129.98
469	-3.0032	0.99894	0.	128.24
470	-3.0095	0.48932	0.	128.8
471	2.0479	0.5186	0.	128.34
472	2.0198	1.0102	0.	127.74
473	2.0046	2.9833	0.	129.44
474	2.0055	3.4777	0.	130.46
475	1.9429	5.4776	0.	129.05
476	3.4966	4.0006	0.	125.43
477	3.9963	4.0064	0.	122.23
478	3.9868	-5.4598	0.	128.59
479	3.9641	-5.9653	0.	128.38
480	-5.0229	3.0436	0.	124.93
481	-4.4976	3.0339	0.	127.31
482	-3.9961	-7.007	0.	130.99
483	-3.9904	-6.5141	0.	131.4
484	1.9419	-1.4611	0.	127.92
485	2.9986	-4.4024	0.	130.35
486	3.552	-3.9424	0.	128.16
487	3.5863	-3.4828	0.	127.49
488	-3.2713	7.5811	0.	127.79
489	-2.8347	7.649	0.	127.79
490	1.461	-6.2273	0.	126.88
491	3.7019	-1.8868	0.	130.69
492	2.4399	-5.3406	0.	127.44
493	1.9032	-5.3271	0.	125.02
494	7.0093	6.016	0.	124.67
495	7.0118	5.521	0.	125.05
496	5.128	-3.6986	0.	123.18
497	7.7446	-2.0138	0.	122.75
498	3.2113	-0.28202	0.	129.65
499	3.8316	-0.73104	0.	126.93
500	0.99947	6.9962	0.	128.55
501	6.002	7.0065	0.	128.14
502	5.0502	-4.5537	0.	125.13
503	4.9842	-6.9959	0.	129.26
504	-2.0154	6.6748	0.	127.89
505	2.9723	6.9998	0.	128.93
506	1.5183	7.5174	0.	128.17
507	2.0016	7.522	0.	127.72
508	2.491	7.5095	0.	127.9
509	3.9759	-7.4863	0.	127.63
510	3.4708	-7.4878	0.	127.57
511	2.9682	-7.504	0.	127.53
512	2.4676	-7.5394	0.	127.48
513	1.9667	-7.5672	0.	127.39
514	1.467	-7.579	0.	127.22
515	0.96864	-7.5736	0.	126.79
516	4.4814	-7.4901	0.	127.9
517	0.47252	-7.5597	0.	125.99
518	7.6569	-2.5297	0.	119.94
519	4.5796	-2.8724	0.	126.1
520	5.572	-4.1432	0.	121.58
521	5.0995	-3.2863	0.	123.77
522	-3.4624	-1.0401	0.	130.2
523	-3.4241	-4.055	0.	130.09
524	-3.395	-4.5649	0.	129.
525	-3.4879	-6.0424	0.	130.78
526	3.0001	3.4955	0.	128.53
527	4.4957	3.5156	0.	119.76
528	2.5089	1.5133	0.	127.83
529	2.5028	2.991	0.	129.54
530	-5.4503	-3.0045	0.	130.42
531	-5.47	-4.5096	0.	129.16
532	-5.9257	-2.4845	0.	129.18
533	-6.2824	-1.4531	0.	124.16
534	6.5017	7.5053	0.	126.02
535	7.0023	7.5058	0.	124.83
536	7.5025	7.5051	0.	124.23
537	7.5041	7.0072	0.	123.85
538	7.5065	6.5093	0.	123.55
539	7.5094	6.0111	0.	123.24
540	7.5123	5.5123	0.	122.72
541	4.994	4.0258	0.	121.49
542	5.4922	4.0396	0.	124.42
543	1.3273	-5.3755	0.	123.01
544	-0.87324	4.3132	0.	115.98
545	1.5026	4.447	0.	132.15
546	1.8175	6.5357	0.	126.56
547	1.9765	4.9702	0.	130.97
548	-6.0286	0.54119	0.	129.5
549	1.5326	-1.3222	0.	123.98
550	-2.414	4.0852	0.	131.99
551	-2.5025	-8.1542e-003	0.	128.31
552	1.5062	1.4952	0.	127.17
553	1.5862	1.3168e-002	0.	127.52
554	1.5093	3.9563	0.	131.39
555	1.5044	2.4836	0.	128.08
556	2.475	4.9878	0.	130.16
557	2.4083	6.5086	0.	126.99
558	2.9899	4.4947	0.	128.66
559	5.9981	4.5408	0.	128.89
560	4.4957	4.5116	0.	119.99
561	6.505	6.5121	0.	125.92
562	6.5065	5.0319	0.	128.77
563	4.471	-6.4867	0.	128.45
564	-3.9677	3.5443	0.	130.73
565	-4.478	-6.012	0.	131.78
566	-3.4994	-7.507	0.	130.79
567	-3.9986	-7.5037	0.	130.53
568	-4.498	-7.5013	0.	130.62
569	3.1872	-2.2079	0.	130.98
570	1.0534	-5.7869	0.	125.91
571	0.96009	-7.1062	0.	127.69
572	4.124	-2.3832	0.	129.04
573	4.1361	-1.1143	0.	128.82
574	7.2043	-1.9611	0.	122.76
575	7.1955	-1.5215	0.	124.97
576	4.1678	-1.9299	0.	130.29
577	0.96057	-6.65	0.	128.48
578	0.98537	-6.2097	0.	128.5
579	-3.3622	8.0537	0.	126.89
580	-2.8824	8.0965	0.	127.16
581	-2.3961	8.1017	0.	127.61
582	-1.8758	8.0682	0.	127.58
583	-1.9845	7.5772	0.	128.78
584	-3.737	7.532	0.	128.4
585	-3.8378	8.0154	0.	126.46
586	-3.9191	8.5032	0.	127.1
587	3.0204	-3.4598	0.	128.75
588	1.8322	-1.9098	0.	128.54
589	2.4563	-4.8619	0.	128.82
590	-4.495	-7.0037	0.	131.29
591	-4.489	-6.5077	0.	132.08
592	-3.3803	6.1042	0.	129.14
593	-3.4259	4.5736	0.	131.87
594	-3.4089	5.0856	0.	130.34
595	-4.981	3.5396	0.	126.21
596	-4.4778	3.5373	0.	129.07
597	4.4785	-5.9871	0.	128.95
598	6.5071	6.017	0.	126.48
599	4.9965	4.5206	0.	121.72
600	5.4961	4.5315	0.	125.55
601	3.9922	4.5065	0.	121.96
602	5.3394e-002	4.3703	0.	117.33
603	1.5072	2.9751	0.	129.17
604	1.5096	3.4659	0.	130.45
605	1.5477	0.50698	0.	127.81
606	1.5197	1.0015	0.	127.44
607	5.8345e-002	-0.52904	0.	122.38
608	0.57551	-0.48481	0.	124.03
609	-2.5015	0.99994	0.	128.1
610	-2.5038	0.49431	0.	128.47
611	-2.469	3.0465	0.	129.93
612	1.1336	-1.0214	0.	122.87
613	0.61801	-0.9448	0.	123.18
614	-5.503	2.0344	0.	125.01
615	-7.0213	0.55469	0.	120.53
616	-6.5263	0.54997	0.	126.71
617	1.8886	5.9961	0.	126.6
618	1.0148	4.4193	0.	130.52
619	-1.3422	4.1017	0.	123.65
620	-2.8466	5.6525	0.	128.23
621	-2.8812	5.1182	0.	130.46
622	-2.8782	-4.5748	0.	127.98
623	-2.8197	-5.1322	0.	125.95
624	5.984	3.568	0.	126.03
625	7.0114	5.0275	0.	125.82
626	7.5911	-6.813e-002	0.	122.64
627	-7.5182	0.55104	0.	114.72
628	-6.1176	-0.45348	0.	127.03
629	-7.0008	-2.4681	0.	126.36
630	-5.4651	-4.0099	0.	129.84
631	-5.4589	-3.5083	0.	130.58
632	2.5025	2.4958	0.	128.91
633	2.5037	2.0033	0.	128.01
634	3.9975	3.5074	0.	122.09
635	3.4988	3.5015	0.	125.77
636	2.5566	0.55409	0.	129.54
637	-3.4961	-6.5266	0.	131.49
638	-3.4985	-7.0156	0.	131.21
639	-2.5757	-5.5877	0.	126.6
640	-8.0167	0.52581	0.	113.8
641	-8.0108	1.0634	0.	114.82
642	-3.4453	-1.5402	0.	129.92
643	-3.4549	-2.0362	0.	129.11
644	-1.9922	-0.50699	0.	124.87
645	-2.4961	-0.50943	0.	128.02
646	-3.4602	-3.0388	0.	129.64
647	-3.4467	-3.5453	0.	130.42
648	-0.45634	-0.52979	0.	120.47
649	5.5986	-3.2458	0.	123.69
650	5.5931	-3.6949	0.	122.11
651	5.6123	-2.7913	0.	123.17
652	7.1639	-2.4284	0.	119.2
653	-2.0782e-002	-7.5417	0.	124.86
654	6.0011	7.5044	0.	127.75
655	4.9877	-7.4948	0.	128.43
656	1.4509	-4.3796	0.	122.09
657	-5.4787	4.028	0.	122.33
658	-7.4713	7.5493	0.	126.96
659	2.9508	6.501	0.	128.25
660	1.0043	2.4814	0.	128.19
661	-1.9988	1.5053	0.	128.16
662	1.4186	-1.7389	0.	121.14
663	-7.5093	1.0694	0.	110.43
664	-6.3284	3.3616	0.	125.51
665	-2.2346	6.1717	0.	126.02
666	6.4736	2.6378	0.	126.12
667	7.1858	-1.061	0.	124.4
668	-6.7711	-1.4186	0.	121.74
669	-5.9804	-4.5031	0.	129.19
670	7.6019	-3.0122	0.	115.58
671	6.9898	1.2651	0.	128.27
672	8.0121	4.9963	0.	120.29
673	8.0098	5.5023	0.	121.84
674	8.0078	6.0045	0.	122.77
675	8.0056	6.5051	0.	123.29
676	8.0037	7.0047	0.	123.68
677	8.0023	7.5037	0.	124.05
678	-5.9842	-5.0029	0.	129.14
679	-5.4804	-5.5051	0.	130.19
680	-7.4803	8.0429	0.	124.72
681	-7.9785	7.5264	0.	126.69
682	-7.9848	8.0241	0.	124.95
683	3.9863	-7.9916	0.	127.94
684	3.4848	-7.9949	0.	127.85
685	2.9838	-8.0062	0.	127.77
686	2.4824	-8.0252	0.	127.66
687	1.9804	-8.0428	0.	127.45
688	1.4787	-8.0533	0.	127.09
689	0.97907	-8.0521	0.	126.49
690	0.48133	-8.0421	0.	125.79
691	-1.4295e-002	-8.0298	0.	125.87
692	4.4874	-7.9924	0.	128.09
693	8.0252	0.99063	0.	120.8
694	8.0408	0.48737	0.	122.28
695	8.0728	-6.6092e-003	0.	122.26
696	8.0926	-0.49529	0.	122.11
697	8.1445	-1.4269	0.	123.64
698	8.1928	-1.8623	0.	124.49
699	8.1846	-2.2711	0.	124.86
700	8.1215	-2.6978	0.	125.67
701	7.9996	-6.9751	0.	125.95
702	8.	-7.4861	0.	125.89
703	2.989	7.501	0.	128.83
704	1.0558	7.5108	0.	128.49
705	0.9883	7.9983	0.	127.64
706	1.4948	8.0081	0.	127.94
707	1.9956	8.0114	0.	127.95
708	2.4947	8.0073	0.	128.27
709	6.501	8.0035	0.	126.46
710	7.0013	8.0039	0.	125.33
711	7.5015	8.0036	0.	124.67
712	8.0013	8.0026	0.	124.42
713	8.4992	4.0188	0.	125.6
714	-4.998	-7.5003	0.	130.53
715	-2.9998	-8.0061	0.	131.47
716	-3.4998	-8.0036	0.	130.8
717	-3.9995	-8.0019	0.	130.82
718	-4.4993	-8.0006	0.	131.04
719	6.655	-2.3737	0.	122.79
720	4.62	-2.3895	0.	127.42
721	0.59944	-5.7213	0.	128.66
722	0.46501	-7.084	0.	127.15
723	-1.6394	7.0212	0.	129.7
724	-1.4197	8.2256	0.	125.91
725	3.1167	-2.6127	0.	129.81
726	-4.9818	-6.0065	0.	132.81
727	-4.1043	7.0032	0.	133.07
728	-3.9329	5.5534	0.	129.57
729	-3.9549	4.0487	0.	132.55
730	7.9988	-6.4602	0.	124.95
731	4.9825	-6.4984	0.	129.33
732	5.0166	-5.0299	0.	128.02
733	6.003	6.5102	0.	127.75
734	6.002	5.0297	0.	129.42
735	4.4944	5.0085	0.	117.39
736	2.9778	4.997	0.	129.38
737	-0.43068	3.9035	0.	112.23
738	1.0189	3.937	0.	130.11
739	1.0083	1.4941	0.	127.56
740	1.0635	7.6497e-003	0.	126.89
741	-0.47656	-1.6493e-002	0.	116.57
742	-1.996	-6.9281e-003	0.	126.86
743	-1.9879	2.5242	0.	128.84
744	-1.892	4.0924	0.	130.27
745	-6.0051	2.5034	0.	121.44
746	-6.0099	1.0398	0.	131.24
747	-5.9946	3.9871	0.	121.05
748	1.2339	6.4545	0.	126.91
749	1.4848	4.9394	0.	132.67
750	-0.89942	4.7455	0.	115.92
751	-2.3925	4.6065	0.	132.39
752	7.9999	1.5023	0.	115.82
753	-2.1343	-5.5206	0.	123.57
754	6.4748	3.1102	0.	125.61
755	6.501	4.5461	0.	130.95
756	-8.0178	4.3822e-003	0.	110.56
757	-6.5565	5.3786e-002	0.	127.33
758	-6.8764	-1.9222	0.	125.4
759	-5.9497	-2.9921	0.	131.01
760	3.1247	0.13884	0.	131.16
761	5.9795	3.0828	0.	124.98
762	5.9864	1.6381	0.	124.55
763	-2.9998	-7.5119	0.	131.25
764	-3.0079	-6.0607	0.	130.69
765	-2.9744	-2.5261	0.	128.37
766	-2.9801	-1.0205	0.	130.44
767	-2.9196	-4.0496	0.	130.55
768	0.11318	-1.0872	0.	125.14
769	-0.13399	-2.5699	0.	125.56
770	6.0415	-4.1571	0.	118.68
771	6.1155	-2.7899	0.	125.6
772	5.5361	-4.5976	0.	123.13
773	6.0171	-4.618	0.	122.25
774	7.1152	-2.8858	0.	114.08
775	6.616	-2.82	0.	123.98
776	6.0872	-3.2443	0.	126.09
777	6.0643	-3.6996	0.	123.44
778	-0.95101	-3.9241	0.	112.01
779	-8.1102e-003	-1.619	0.	128.44
780	-0.97447	-1.0189	0.	120.52
781	-2.9491	-3.5381	0.	131.71
782	-2.422	-4.0236	0.	130.5
783	-1.9301	-3.9872	0.	126.66
784	-1.9889	-1.0069	0.	123.09
785	-2.487	-1.0108	0.	128.72
786	-2.9715	-2.0244	0.	129.56
787	-8.5096	1.001	0.	122.9
788	-8.512	-5.581e-002	0.	115.34
789	-2.0741	-6.0141	0.	126.25
790	-2.5382	-6.0522	0.	129.57
791	-3.0053	-6.5375	0.	132.29
792	-3.0013	-7.022	0.	132.08
793	6.0086	0.69691	0.	120.06
794	5.9984	1.1644	0.	122.87
795	5.9816	2.1168	0.	126.56
796	5.4849	3.0542	0.	123.25
797	4.9903	3.0295	0.	119.33
798	3.0274	1.0493	0.	130.31
799	3.0635	0.58637	0.	131.64
800	3.9982	3.0073	0.	121.81
801	3.0026	2.5032	0.	129.88
802	-5.9749	-4.002	0.	130.55
803	-6.4451	-2.9821	0.	130.15
804	-6.9143	-2.9857	0.	125.43
805	-8.4449	-2.8576	0.	110.63
806	-7.9472	-3.0788	0.	108.
807	-7.3306	-2.9007	0.	119.95
808	-6.6791	-0.92902	0.	124.49
809	-6.6074	-0.43966	0.	127.32
810	-7.0477	5.6375e-002	0.	124.49
811	-7.535	4.2672e-002	0.	117.2
812	7.0042	0.78036	0.	129.69
813	3.6241	0.15787	0.	130.57
814	4.1108	0.17362	0.	125.41
815	7.5121	4.5145	0.	120.05
816	6.4917	4.0628	0.	131.77
817	6.481	3.5857	0.	129.22
818	0.88965	-4.8528	0.	121.93
819	0.95531	-4.4058	0.	118.88
820	-2.2828	-5.0372	0.	124.51
821	6.475	2.1627	0.	128.81
822	6.4826	1.6895	0.	129.4
823	7.4922	1.3627	0.	121.36
824	-2.3081	5.6513	0.	128.89
825	-2.3598	5.1308	0.	131.31
826	-1.3794	4.6559	0.	124.72
827	0.52406	4.8581	0.	125.82
828	1.0014	4.8982	0.	132.85
829	1.374	5.9429	0.	127.31
830	-6.558	3.8901	0.	124.53
831	-7.0084	1.0556	0.	118.64
832	-6.51	1.048	0.	128.62
833	-6.0002	1.539	0.	130.31
834	-6.0027	2.0346	0.	126.5
835	1.0033	-1.5175	0.	119.6
836	0.56156	-1.3673	0.	122.66
837	-0.46177	-3.9139	0.	116.24
838	-0.88887	3.9119	0.	115.81
839	-1.9681	3.0428	0.	129.95
840	-2.	0.99989	0.	128.44
841	-0.98058	-1.3261e-002	0.	118.95
842	3.3839e-002	-1.273e-002	0.	120.47
843	0.55218	2.4323e-003	0.	125.48
844	1.0384	0.50248	0.	128.
845	1.0207	0.99835	0.	127.92
846	1.0152	3.4549	0.	129.97
847	4.6091e-002	3.9115	0.	118.03
848	2.9509	6.0016	0.	128.88
849	3.4836	5.0015	0.	127.03
850	4.9974	5.015	0.	121.1
851	6.0041	5.5213	0.	129.37
852	6.0039	6.0147	0.	128.54
853	6.003	-5.0784	0.	124.22
854	4.997	-5.5144	0.	130.17
855	7.9968	-5.932	0.	125.38
856	-7.9683	6.524	0.	131.3
857	-7.9982	5.004	0.	125.07
858	-7.4868	4.1261	0.	118.47
859	-7.0335	4.1068	0.	122.96
860	-4.9715	4.0344	0.	127.36
861	-4.4653	4.0384	0.	131.78
862	-3.9447	4.5529	0.	132.82
863	-3.9375	5.0551	0.	131.1
864	-3.9502	6.0398	0.	131.52
865	-4.9953	-7.0017	0.	132.65
866	-4.99	-6.504	0.	133.92
867	1.9535	-4.3561	0.	128.68
868	2.6666	-2.5255	0.	132.28
869	2.2355	-2.4226	0.	133.74
870	3.0562	-3.0293	0.	128.12
871	-5.0215	6.9536	0.	130.86
872	-4.2018	7.4909	0.	129.
873	0.60525	7.4364	0.	128.48
874	0.48433	7.8871	0.	125.76
875	-1.4352	7.8492	0.	127.42
876	-1.5234	7.4531	0.	127.88
877	-6.6034e-002	8.1866	0.	120.35
878	-0.97227	8.221	0.	122.3
879	0.46371	-6.6158	0.	129.83
880	4.6341	-1.4825	0.	130.59
881	4.6483	-1.9253	0.	129.87
882	6.6817	-1.9393	0.	125.35
883	5.6325	-2.3329	0.	120.91
884	6.1423	-2.3431	0.	122.27
885	8.5057	4.4871	0.	123.23
886	8.5082	4.9908	0.	122.55
887	8.5061	6.0011	0.	123.39
888	8.5043	6.5026	0.	123.7
889	8.5029	7.0028	0.	123.95
890	2.9951	8.0016	0.	129.49
891	8.0001	-7.9923	0.	126.58
892	8.0755	-3.1715	0.	127.82
893	8.0001	-8.4956	0.	126.83
894	3.9927	-8.4953	0.	128.31
895	3.4926	-8.4981	0.	128.21
896	2.9922	-8.5051	0.	128.09
897	2.4912	-8.5156	0.	127.93
898	-9.0966e-003	-8.5198	0.	125.99
899	8.551	1.6634	0.	125.43
900	8.518	1.0995	0.	123.12
901	8.5715	-0.4692	0.	123.35
902	8.6329	-1.8896	0.	125.94
903	8.6253	-2.3531	0.	127.45
904	8.5529	-3.2997	0.	133.46
905	8.4964	-6.457	0.	126.4
906	8.4997	-7.9907	0.	126.35
907	8.4999	-8.4947	0.	126.77
908	-4.9846	8.4079	0.	137.65
909	-3.4213	8.533	0.	126.6
910	-2.9258	8.5603	0.	126.75
911	-2.4312	8.5704	0.	126.94
912	-1.9434	8.58	0.	126.68
913	-1.4635	8.6356	0.	125.44
914	-0.9852	8.6544	0.	123.41
915	-0.51633	8.6455	0.	121.82
916	-6.3484e-002	8.6186	0.	122.34
917	0.3931	8.4292	0.	124.47
918	0.95157	8.4788	0.	126.56
919	1.4781	8.4988	0.	127.35
920	1.9893	8.5042	0.	127.72
921	2.4942	8.5036	0.	128.35
922	2.9965	8.5012	0.	129.56
923	6.0001	8.5012	0.	128.49
924	6.5004	8.502	0.	126.8
925	7.0007	8.5024	0.	125.68
926	7.5008	8.5023	0.	125.04
927	8.0007	8.5017	0.	124.75
928	8.5006	8.5011	0.	124.69
929	-7.9879	8.5194	0.	125.27
930	-7.4813	8.5331	0.	127.52
931	-8.6566	3.023	0.	135.81
932	-8.5534	3.479	0.	131.94
933	-8.4959	4.998	0.	125.78
934	-8.4857	6.0102	0.	127.19
935	-8.4802	6.5136	0.	128.3
936	-8.4894	8.0126	0.	124.82
937	-8.492	8.5106	0.	124.68
938	-2.9999	-8.5031	0.	131.17
939	-3.5	-8.5018	0.	131.47
940	-3.9999	-8.5009	0.	131.79
941	-4.4998	-8.5002	0.	132.29
942	-4.9997	-8.4998	0.	133.21
943	-5.9876	-5.502	0.	128.64
944	-5.4866	-6.0032	0.	132.67
945	-1.6399	-5.9702	0.	122.28
946	-2.8129e-002	-7.0555	0.	124.93
947	5.1497	-1.8811	0.	124.15
948	-4.0462e-002	-6.5684	0.	126.94
949	-0.98317	7.7887	0.	123.14
950	-3.823e-002	7.667	0.	121.27
951	-4.6629	7.4522	0.	132.83
952	-4.4277	8.4713	0.	128.7
953	2.5726	-2.9472	0.	128.46
954	8.5149	-3.7985	0.	132.27
955	8.4828	-4.3147	0.	124.57
956	-5.9913	-6.0012	0.	129.7
957	-5.4998	-8.4997	0.	134.78
958	-5.4923	-6.5018	0.	137.07
959	-8.5	-8.5	0.	128.2
960	-4.5192	6.4882	0.	137.23
961	-4.4628	4.5356	0.	135.32
962	-7.502	4.5435	0.	126.14
963	-7.4453	6.5397	0.	136.36
964	7.4997	-5.4506	0.	117.02
965	7.5002	-8.497	0.	127.18
966	5.4963	-8.4977	0.	128.96
967	5.4984	-5.5339	0.	132.27
968	5.5	8.5006	0.	130.44
969	5.501	5.5156	0.	130.74
970	3.4774	5.5021	0.	130.42
971	3.4979	8.4997	0.	131.29
972	0.52096	3.4498	0.	129.31
973	0.52754	0.49893	0.	128.74
974	-1.4958	0.49472	0.	128.58
975	-1.4374	3.5461	0.	128.87
976	2.3087e-002	-3.9653	0.	136.1
977	0.44862	-1.7836	0.	127.01
978	-8.456	1.912	0.	141.65
979	-1.8497	5.141	0.	134.98
980	-1.8859	-4.4784	0.	133.69
981	0.46751	-4.4065	0.	137.83
982	6.9929	4.0626	0.	137.73
983	-7.0918	-0.43413	0.	131.44
984	-7.7273	-2.6797	0.	112.67
985	-4.	-9.0003	0.	133.
986	-4.4999	-9.0001	0.	133.17
987	-4.9999	-8.9999	0.	133.05
988	-5.4999	-8.9998	0.	131.05
989	-5.9999	-8.9999	0.	125.16
990	-6.4999	-9.	0.	118.57
991	-7.	-9.	0.	115.
992	-7.5	-9.	0.	115.63
993	-8.	-9.	0.	120.07
994	-8.5	-9.	0.	125.11
995	-9.	-9.	0.	127.49
996	-9.	-8.5	0.	127.85
997	-9.	-8.	0.	126.32
998	-9.	-7.5	0.	124.36
999	-9.	-7.	0.	125.93
1000	-6.4697	-3.4918	0.	132.76
1001	3.5018	2.5056	0.	131.28
1002	3.5611	0.59661	0.	135.89
1003	5.485	2.5593	0.	126.48
1004	5.5194	0.66723	0.	120.55
1005	-2.5131	-6.5299	0.	133.78
1006	-0.53386	-6.5317	0.	118.83
1007	-9.17	-1.9864	0.	134.77
1008	-9.045	-0.12958	0.	128.
1009	-8.9987	1.5114	0.	132.76
1010	-8.9453	2.0687	0.	129.92
1011	-9.0415	3.508	0.	132.09
1012	-9.0089	3.9973	0.	130.49
1013	-8.9968	4.9985	0.	126.98
1014	-8.9907	6.0053	0.	126.51
1015	-8.9889	6.5063	0.	126.62
1016	-8.9896	7.0066	0.	126.19
1017	-8.9914	7.5066	0.	125.31
1018	-8.9933	8.0061	0.	124.6
1019	-8.9951	8.5052	0.	124.41
1020	-7.9889	9.013	0.	126.2
1021	-6.9586	9.0237	0.	137.33
1022	-5.9287	9.1031	0.	114.52
1023	-5.4583	9.039	0.	125.39
1024	-4.9696	8.974	0.	131.42
1025	-4.4673	8.9788	0.	130.36
1026	-3.9624	8.9987	0.	127.73
1027	-3.461	9.0182	0.	126.85
1028	-2.9607	9.036	0.	126.7
1029	-2.4666	9.0455	0.	126.65
1030	-1.9745	9.059	0.	126.31
1031	-1.4837	9.0833	0.	125.47
1032	-0.99347	9.0962	0.	124.33
1033	-0.50602	9.0903	0.	123.59
1034	-1.9311e-002	9.0563	0.	123.84
1035	0.4669	8.9889	0.	124.89
1036	0.96943	8.9851	0.	126.04
1037	1.4799	8.9948	0.	126.73
1038	1.9879	9.0002	0.	127.16
1039	2.4938	9.0012	0.	127.65
1040	2.9968	9.0006	0.	128.25
1041	3.4982	8.9999	0.	127.45
1042	3.9989	8.9998	0.	122.88
1043	4.4994	8.9999	0.	119.5
1044	4.9997	9.0001	0.	122.32
1045	5.4999	9.0003	0.	126.63
1046	6.	9.0007	0.	127.27
1047	6.5001	9.0011	0.	126.42
1048	7.0003	9.0015	0.	125.7
1049	7.5004	9.0014	0.	125.25
1050	8.0004	9.001	0.	125.03
1051	8.5003	9.0007	0.	124.93
1052	9.0002	9.0004	0.	124.88
1053	9.0004	8.5006	0.	124.7
1054	9.0007	8.001	0.	124.55
1055	9.0012	7.5014	0.	124.47
1056	9.002	7.0016	0.	124.46
1057	9.0029	6.5013	0.	124.53
1058	9.004	5.9993	0.	124.68
1059	9.0049	5.4944	0.	125.01
1060	9.0046	4.9845	0.	125.89
1061	9.0017	4.4641	0.	128.18
1062	8.9843	3.9106	0.	133.04
1063	9.1225	3.4312	0.	135.85
1064	9.109	2.9666	0.	126.52
1065	9.1298	2.5056	0.	135.18
1066	9.0165	2.0157	0.	134.16
1067	9.0463	1.5255	0.	129.33
1068	9.0179	1.043	0.	126.77
1069	9.0191	0.53489	0.	125.49
1070	9.0327	2.8911e-002	0.	125.01
1071	9.0489	-0.46817	0.	124.97
1072	9.0634	-0.95789	0.	125.34
1073	9.0765	-1.4435	0.	126.07
1074	9.0846	-1.9279	0.	127.08
1075	9.0789	-2.4121	0.	128.37
1076	9.01	-3.8873	0.	126.73
1077	8.9865	-4.9082	0.	129.95
1078	8.9889	-5.4275	0.	130.82
1079	8.9924	-5.9475	0.	128.86
1080	8.9956	-6.4642	0.	127.28
1081	8.9989	-7.4864	0.	126.41
1082	8.9994	-7.9918	0.	126.68
1083	8.9997	-8.4949	0.	126.99
1084	8.9998	-8.997	0.	127.1
1085	8.5	-8.997	0.	126.6
1086	8.0001	-8.9972	0.	125.85
1087	7.5001	-8.998	0.	123.43
1088	6.9999	-8.9991	0.	117.87
1089	6.4994	-8.9994	0.	114.79
1090	5.9986	-8.9991	0.	118.87
1091	5.4978	-8.9983	0.	125.
1092	4.9969	-8.9975	0.	127.59
1093	4.4962	-8.997	0.	128.26
1094	3.9966	-8.9975	0.	128.48
1095	3.4968	-8.9994	0.	128.49
1096	2.9967	-9.0034	0.	128.39
1097	2.4963	-9.0089	0.	128.24
1098	1.9952	-9.0146	0.	128.03
1099	1.4937	-9.0196	0.	127.79
1100	0.99297	-9.0204	0.	127.53
1101	0.49347	-9.0166	0.	127.24
1102	-5.2894e-003	-9.0121	0.	127.17
1103	-2.9999	-9.0017	0.	132.19
1104	-2.4824	-1.5122	0.	131.94
1105	-2.4554	-3.5195	0.	133.13
1106	-0.49324	-1.5445	0.	129.27
1107	-0.42837	-3.417	0.	122.16
1108	6.5729	-3.2574	0.	135.9
1109	6.9931	-5.0725	0.	107.21
1110	7.4905	-4.946	0.	111.61
1111	6.4937	-4.6399	0.	122.23
1112	6.5338	-3.6972	0.	126.11
1113	6.5119	-4.1664	0.	125.86
1114	7.0666	-3.3071	0.	104.35
1115	8.0257	-3.6661	0.	133.9
1116	7.5496	-3.4733	0.	114.3
1117	-0.58255	-2.9629	0.	123.55
1118	-0.56619	-2.5104	0.	127.91
1119	-0.53548	-2.0353	0.	128.11
1120	-0.96257	-3.4575	0.	116.57
1121	-1.9632	-3.495	0.	122.56
1122	-1.4674	-3.4757	0.	109.63
1123	-0.99	-1.5145	0.	122.13
1124	-1.4907	-1.506	0.	111.71
1125	-1.9891	-1.5057	0.	123.09
1126	-2.4855	-2.0126	0.	130.74
1127	-2.4861	-2.514	0.	130.79
1128	-0.99918	-6.5685	0.	114.81
1129	-1.4849	-6.4583	0.	112.79
1130	-2.0146	-6.5054	0.	124.69
1131	5.5008	1.1113	0.	122.76
1132	5.4922	1.5795	0.	126.54
1133	5.4885	2.0656	0.	127.63
1134	3.522	1.0493	0.	133.46
1135	3.5036	2.0108	0.	131.06
1136	3.5089	1.5238	0.	132.4
1137	-6.4851	-3.9971	0.	131.08
1138	-6.4957	-6.0001	0.	126.25
1139	-6.494	-5.5005	0.	130.25
1140	-6.4917	-5.0006	0.	132.86
1141	-6.4894	-4.4998	0.	132.13
1142	-9.	-6.5	0.	129.07
1143	-8.5	-6.5	0.	119.95
1144	-8.9896	-3.4618	0.	123.71
1145	-8.4918	-3.4421	0.	110.73
1146	-6.9791	-3.4792	0.	124.46
1147	-7.5178	-3.4106	0.	111.68
1148	-8.0164	-3.5123	0.	108.98
1149	-5.4995	-7.9997	0.	133.56
1150	-5.4988	-7.5	0.	133.95
1151	-5.4968	-7.0008	0.	135.68
1152	-5.9999	-8.4999	0.	127.35
1153	-6.4999	-8.5	0.	116.27
1154	-8.	-8.5	0.	120.95
1155	-7.5	-8.5	0.	112.98
1156	-7.	-8.5	0.	114.97
1157	-7.9999	-6.5	0.	115.36
1158	-5.9951	-6.5006	0.	131.48
1159	-6.4974	-6.5	0.	123.87
1160	-6.999	-6.4999	0.	118.64
1161	-7.4997	-6.5	0.	108.04
1162	-8.5	-8.	0.	126.19
1163	-8.5	-7.	0.	122.21
1164	-8.5	-7.5	0.	124.02
1165	-4.4832	6.0078	0.	134.39
1166	-4.4668	5.0293	0.	132.85
1167	-4.4698	5.5209	0.	132.28
1168	-4.9793	4.5202	0.	129.31
1169	-5.4927	4.509	0.	118.58
1170	-6.0052	4.4878	0.	118.88
1171	-7.0044	4.5315	0.	123.73
1172	-6.5103	4.4726	0.	117.49
1173	-5.0111	6.492	0.	128.69
1174	-5.492	6.5281	0.	114.93
1175	-5.9651	6.4851	0.	108.16
1176	-6.4302	6.4358	0.	111.5
1177	-6.8924	6.569	0.	128.04
1178	-7.4778	6.0246	0.	132.72
1179	-7.4945	5.5135	0.	128.43
1180	-7.4998	5.0177	0.	126.24
1181	-0.51551	-7.0311	0.	122.01
1182	-0.50318	-9.0065	0.	126.73
1183	-0.50522	-8.5107	0.	128.25
1184	-0.50798	-8.016	0.	129.44
1185	-0.51134	-7.5226	0.	127.18
1186	-2.4999	-9.0008	0.	130.76
1187	-2.4998	-8.5024	0.	133.09
1188	-2.5023	-7.0159	0.	132.57
1189	-2.4999	-7.5087	0.	133.7
1190	-2.4997	-8.0049	0.	134.9
1191	7.5005	-5.9636	0.	122.03
1192	7.5003	-7.9941	0.	126.76
1193	7.5004	-7.4912	0.	128.68
1194	7.5004	-6.9848	0.	129.67
1195	7.5003	-6.4754	0.	126.77
1196	5.9981	-8.4991	0.	119.91
1197	6.4993	-8.4996	0.	107.51
1198	6.9999	-8.499	0.	118.41
1199	5.9986	-5.5394	0.	125.06
1200	7.0009	-5.5177	0.	114.68
1201	6.4992	-5.5392	0.	111.1
1202	5.4952	-7.9975	0.	128.69
1203	5.4938	-7.4979	0.	131.51
1204	5.4938	-6.0137	0.	131.36
1205	5.4924	-6.5037	0.	132.33
1206	5.4922	-6.9994	0.	133.42
1207	4.0508	0.59325	0.	128.09
1208	4.5383	0.60162	0.	119.46
1209	5.0315	0.6232	0.	128.67
1210	3.9999	2.5051	0.	123.45
1211	4.9918	2.5229	0.	119.48
1212	4.4969	2.5091	0.	111.76
1213	5.5001	8.0012	0.	129.95
1214	5.5015	6.0095	0.	129.75
1215	5.5013	6.506	0.	132.09
1216	5.5009	7.0039	0.	133.6
1217	5.5005	7.5023	0.	131.99
1218	3.9884	5.503	0.	121.98
1219	4.495	5.5045	0.	109.89
1220	3.9988	8.4999	0.	123.47
1221	4.9998	8.5002	0.	122.5
1222	4.4995	8.5	0.	111.31
1223	3.4759	6.0011	0.	129.76
1224	3.4778	6.4994	0.	131.83
1225	3.4968	7.9995	0.	130.46
1226	3.4932	7.4989	0.	132.81
1227	3.4857	6.9987	0.	133.88
1228	0.50772	2.9729	0.	128.5
1229	0.50229	2.4864	0.	130.94
1230	0.5016	1.9922	0.	132.39
1231	0.51237	0.99725	0.	128.27
1232	0.50577	1.4955	0.	130.61
1233	1.8581e-002	0.49433	0.	120.79
1234	-0.9917	0.4932	0.	119.6
1235	-0.48642	0.49223	0.	108.66
1236	-1.499	0.99871	0.	128.58
1237	-1.4993	1.5028	0.	131.13
1238	-1.4979	2.0071	0.	132.91
1239	-1.4783	3.0253	0.	129.44
1240	-1.4928	2.5141	0.	131.28
1241	-0.95291	3.4778	0.	117.24
1242	2.6853e-002	3.4528	0.	120.01
1243	-0.46391	3.4548	0.	106.28
1244	8.6047e-002	-3.5535	0.	124.96
1245	0.3654	-2.2268	0.	132.09
1246	0.29476	-2.679	0.	127.44
1247	0.20772	-3.1291	0.	133.37
1248	1.9526	-3.8259	0.	134.53
1249	1.4672	-3.8927	0.	121.9
1250	0.50738	-4.0163	0.	138.07
1251	0.99013	-3.9748	0.	115.69
1252	2.1245	-2.8127	0.	133.34
1253	1.7723	-2.4471	0.	132.65
1254	1.3208	-2.1962	0.	121.16
1255	0.89804	-1.9592	0.	111.41
1256	-5.5049	8.573	0.	124.66
1257	-5.9621	8.725	0.	113.14
1258	-6.4048	8.9983	0.	113.44
1259	-6.9456	7.0984	0.	133.06
1260	-6.9642	7.5904	0.	127.97
1261	-6.9773	8.549	0.	131.49
1262	-6.9762	8.0718	0.	130.21
1263	-5.1011	7.407	0.	132.1
1264	-6.4244	6.8261	0.	107.38
1265	-5.9705	6.9677	0.	106.61
1266	-5.4868	7.1167	0.	122.86
1267	-8.521	1.4838	0.	129.8
1268	-8.0225	1.6428	0.	117.64
1269	-7.4856	1.5918	0.	103.76
1270	-8.6353	2.5473	0.	126.94
1271	-7.6319	3.595	0.	109.91
1272	-8.0478	3.3627	0.	126.64
1273	-8.2923	2.9089	0.	138.
1274	-6.9707	3.5221	0.	133.45
1275	-6.7577	3.0935	0.	126.12
1276	-6.4929	2.0559	0.	124.22
1277	-6.5255	2.6016	0.	129.48
1278	0.21073	7.1841	0.	124.76
1279	0.89772	5.8528	0.	122.27
1280	0.72622	6.311	0.	137.47
1281	0.49285	6.7532	0.	127.73
1282	-1.358	5.1752	0.	129.06
1283	-0.88475	5.2205	0.	112.01
1284	-0.4184	5.2569	0.	111.73
1285	4.4794e-002	5.2845	0.	112.15
1286	0.50712	5.317	0.	131.06
1287	-1.7801	5.6451	0.	124.95
1288	-1.6452	6.1158	0.	134.92
1289	-1.442	6.5468	0.	131.17
1290	-1.029	7.3592	0.	127.86
1291	-1.1921	6.9449	0.	125.15
1292	7.4573	1.8411	0.	116.84
1293	7.9216	2.0034	0.	112.05
1294	8.3622	2.196	0.	126.06
1295	-1.0341e-002	-4.3797	0.	140.25
1296	-0.48038	-4.3713	0.	107.7
1297	-0.94641	-4.3901	0.	107.27
1298	7.4998	4.0308	0.	113.65
1299	8.0153	3.9174	0.	114.25
1300	8.7464	3.4478	0.	135.41
1301	8.3834	3.5981	0.	124.74
1302	6.9675	2.2155	0.	133.99
1303	6.9677	2.6784	0.	129.92
1304	6.9767	3.5986	0.	133.47
1305	6.9696	3.1381	0.	131.07
1306	-1.0717	-6.1772	0.	120.06
1307	-1.2628	-5.8158	0.	119.16
1308	-1.7946	-4.9726	0.	115.47
1309	-1.6126	-5.472	0.	132.61
1310	-4.6665e-002	-6.0921	0.	131.95
1311	9.0839e-002	-5.6592	0.	130.2
1312	0.25736	-5.2416	0.	137.59
1313	0.39784	-4.825	0.	119.94
1314	5.1325	-1.4215	0.	129.51
1315	4.8179	-0.61447	0.	139.17
1316	4.9981	-1.0063	0.	129.58
1317	7.1122	-0.15544	0.	125.12
1318	6.7851	-0.68522	0.	127.01
1319	5.0534	0.21578	0.	132.67
1320	6.5186	0.19054	0.	142.77
1321	5.9995	0.23611	0.	112.29
1322	5.5213	0.23193	0.	111.32
1323	-8.8797	-0.6935	0.	135.79
1324	-7.5639	-0.45392	0.	122.55
1325	-8.0163	-0.50953	0.	101.19
1326	-8.4579	-0.58536	0.	112.36
1327	-8.1308	-2.4629	0.	99.909
1328	-9.1226	-1.4431	0.	124.84
1329	-8.8035	-1.8201	0.	136.73
1330	-8.5489	-2.2852	0.	120.03
1331	9.5001	9.0002	0.	124.8
1332	9.5002	8.5003	0.	124.66
1333	9.5004	8.0005	0.	124.58
1334	9.5006	7.5007	0.	124.64
1335	9.501	7.0007	0.	124.88
1336	9.5014	6.5003	0.	125.34
1337	9.5018	5.9987	0.	126.05
1338	9.5017	5.4948	0.	127.01
1339	9.501	4.9885	0.	128.25
1340	9.499	4.4786	0.	129.75
1341	9.5056	3.9745	0.	131.07
1342	9.5462	3.4785	0.	129.43
1343	9.5568	2.9865	0.	127.73
1344	9.5509	2.4952	0.	128.96
1345	9.5233	2.0031	0.	131.18
1346	9.5192	1.5115	0.	130.26
1347	9.511	0.51771	0.	127.57
1348	9.5167	1.7886e-002	0.	126.73
1349	9.5248	-0.48062	0.	126.37
1350	9.5325	-0.9768	0.	126.51
1351	9.5386	-1.4714	0.	127.06
1352	9.5414	-1.9655	0.	127.78
1353	9.5382	-2.4599	0.	128.4
1354	9.529	-2.9551	0.	128.53
1355	9.5171	-3.4516	0.	127.78
1356	9.5053	-3.9505	0.	126.82
1357	9.4966	-4.4524	0.	126.69
1358	9.4933	-4.9571	0.	128.21
1359	9.4935	-5.4642	0.	128.66
1360	9.4951	-5.9723	0.	128.3
1361	9.4968	-6.48	0.	127.6
1362	9.4981	-6.9868	0.	127.07
1363	9.499	-7.4917	0.	126.89
1364	9.4994	-7.9948	0.	127.03
1365	9.4997	-8.4968	0.	127.31
1366	9.4998	-8.9981	0.	127.57
1367	9.4999	-9.4991	0.	127.73
1368	8.9999	-9.4985	0.	127.04
1369	8.5	-9.4986	0.	126.17
1370	8.	-9.4986	0.	124.66
1371	7.5	-9.499	0.	121.95
1372	6.9999	-9.4994	0.	118.71
1373	6.4996	-9.4996	0.	117.35
1374	5.9993	-9.4995	0.	119.52
1375	5.4989	-9.4991	0.	123.33
1376	4.9985	-9.4987	0.	126.32
1377	4.4985	-9.4986	0.	127.84
1378	3.9987	-9.499	0.	128.47
1379	3.4989	-9.4999	0.	128.65
1380	2.9989	-9.5017	0.	128.61
1381	2.4988	-9.5041	0.	128.49
1382	1.9983	-9.5068	0.	128.36
1383	1.4972	-9.5097	0.	128.27
1384	0.99675	-9.5098	0.	128.26
1385	0.49692	-9.508	0.	128.32
1386	-2.6052e-003	-9.5058	0.	128.24
1387	-0.50182	-9.5033	0.	127.29
1388	-1.0009	-9.5008	0.	116.71
1389	-1.5003	-9.5001	0.	105.71
1390	-2.0001	-9.5001	0.	119.36
1391	-2.5	-9.5003	0.	131.48
1392	-3.	-9.5007	0.	133.3
1393	-3.5	-9.5003	0.	133.89
1394	-4.	-9.5001	0.	133.95
1395	-4.5	-9.5	0.	133.55
1396	-5.	-9.5	0.	132.27
1397	-5.5	-9.4999	0.	129.22
1398	-6.	-9.4999	0.	124.37
1399	-6.5	-9.5	0.	119.3
1400	-7.	-9.5	0.	116.38
1401	-7.5	-9.5	0.	116.76
1402	-8.	-9.5	0.	119.83
1403	-8.5	-9.5	0.	123.63
1404	-9.	-9.5	0.	126.54
1405	-9.5	-9.5	0.	128.45
1406	-9.5	-9.	0.	128.56
1407	-9.5	-8.5	0.	128.42
1408	-9.5	-8.	0.	128.06
1409	-9.5	-7.5	0.	128.56
1410	-9.5	-7.	0.	130.85
1411	-9.5	-6.5	0.	135.97
1412	-9.5	-5.9999	0.	136.81
1413	-9.5	-5.4997	0.	139.13
1414	-9.5	-4.9992	0.	140.56
1415	-9.4998	-4.4975	0.	138.85
1416	-9.498	-3.9918	0.	136.66
1417	-9.4951	-3.4828	0.	136.15
1418	-9.5005	-2.9774	0.	133.09
1419	-9.529	-2.4799	0.	133.26
1420	-9.5664	-1.983	0.	131.79
1421	-9.5708	-1.4832	0.	129.06
1422	-9.5943	-1.0011	0.	130.27
1423	-9.5007	-0.50508	0.	134.31
1424	-9.5332	-3.4294e-003	0.	131.96
1425	-9.5072	0.48413	0.	131.31
1426	-9.5014	0.99416	0.	131.18
1427	-9.4946	1.5086	0.	130.61
1428	-9.4893	2.0173	0.	128.52
1429	-9.5265	2.5162	0.	126.82
1430	-9.535	3.0143	0.	128.31
1431	-9.5215	3.5081	0.	129.61
1432	-9.5074	4.0029	0.	129.67
1433	-9.5005	4.5002	0.	128.84
1434	-9.4981	5.0002	0.	127.74
1435	-9.4966	5.5014	0.	126.79
1436	-9.4955	6.0022	0.	126.11
1437	-9.4946	6.5028	0.	125.55
1438	-9.4951	7.0028	0.	124.95
1439	-9.4959	7.5027	0.	124.36
1440	-9.4968	8.0025	0.	123.99
1441	-9.4977	8.502	0.	123.99
1442	-9.4986	9.0014	0.	124.32
1443	-9.4994	9.5007	0.	124.85
1444	-8.9984	9.5018	0.	125.22
1445	-8.4967	9.5036	0.	125.59
1446	-7.9931	9.5061	0.	126.09
1447	-7.4863	9.5085	0.	127.42
1448	-6.9762	9.5081	0.	126.61
1449	-5.9696	9.5336	0.	119.33
1450	-5.4733	9.5186	0.	123.46
1451	-4.9797	9.4949	0.	127.
1452	-4.484	9.4915	0.	127.75
1453	-3.9848	9.4989	0.	127.6
1454	-3.4844	9.5083	0.	127.33
1455	-2.985	9.5169	0.	127.15
1456	-2.4873	9.5229	0.	126.84
1457	-1.9907	9.5305	0.	126.35
1458	-1.4929	9.5411	0.	125.66
1459	-0.99679	9.546	0.	124.97
1460	-0.50017	9.5422	0.	124.58
1461	-3.9737e-003	9.5256	0.	124.71
1462	0.49081	9.5015	0.	125.26
1463	0.98805	9.4945	0.	125.89
1464	1.4898	9.4967	0.	126.4
1465	1.9931	9.4992	0.	126.7
1466	2.496	9.5001	0.	126.8
1467	2.9977	9.5002	0.	126.58
1468	3.4988	9.5	0.	125.55
1469	3.9993	9.4999	0.	123.79
1470	4.4996	9.5	0.	122.63
1471	4.9998	9.5	0.	123.38
1472	5.4999	9.5002	0.	124.84
1473	5.9999	9.5003	0.	125.65
1474	6.5	9.5005	0.	125.73
1475	7.0001	9.5006	0.	125.59
1476	7.5002	9.5007	0.	125.43
1477	8.0002	9.5005	0.	125.28
1478	8.5001	9.5003	0.	125.16
1479	9.0001	9.5002	0.	125.06
1480	9.5001	9.5001	0.	124.96
1481	-7.1629	-0.90875	0.	121.86
1482	-7.5058	-2.258	0.	127.64
1483	-7.3675	-1.813	0.	125.55
1484	-7.2581	-1.3638	0.	128.13
1485	5.1012	-2.8266	0.	124.2
1486	-5.0019	1.5251	0.	127.56
1487	3.5001	3.0033	0.	127.35
1488	1.4487	-6.666	0.	127.68
1489	4.0143	-4.952	0.	128.25
1490	-8.9878	-2.933	0.	123.38
1491	4.5189	-4.9843	0.	127.95
1492	7.9783	-4.7899	0.	130.74
1493	-2.9925	2.0204	0.	127.91
1494	-4.7715	7.9202	0.	125.39
1495	4.9984	5.5085	0.	121.9
1496	1.0035	1.989	0.	128.26
1497	7.9913	-5.3788	0.	127.01
1498	-2.3731	-4.5327	0.	126.81
1499	8.5011	8.0018	0.	124.44
1500	-7.9065e-002	-2.1071	0.	128.36
1501	-6.469	9.5095	0.	121.84
1502	-0.51712	8.1975	0.	119.46
1503	8.4928	-5.9291	0.	128.15
1504	-3.4869	2.5308	0.	128.46
1505	6.511	0.71504	0.	128.83
1506	1.9268	-4.8539	0.	126.08
1507	5.9786	2.599	0.	125.85
1508	-4.501	1.5173	0.	127.61
1509	-9.2114	-0.90158	0.	138.14
1510	4.9922	3.5292	0.	120.56
1511	-0.42041	4.7977	0.	111.7
1512	8.4993	-7.4843	0.	125.93
1513	-2.4432	3.5654	0.	131.28
1514	0.98698	-8.5349	0.	126.79
1515	-4.4448	-4.0323	0.	129.69
1516	-7.9913	5.5115	0.	125.29
1517	-3.5208	6.5774	0.	130.22
1518	-9.0808	3.0269	0.	130.34
1519	0.53327	4.3914	0.	124.99
1520	6.4938	-5.0895	0.	129.5
1521	4.4927	-8.4949	0.	128.43
1522	2.4202	6.0034	0.	127.63
1523	-5.0279	0.51619	0.	129.45
1524	-4.441	-2.531	0.	129.22
1525	-3.5	-9.001	0.	132.62
1526	8.9976	-6.9764	0.	126.52
1527	0.53216	3.9214	0.	126.06
1528	-3.9998	1.5116	0.	127.8
1529	-7.2772	3.8097	0.	117.1
1530	7.0058	4.5395	0.	127.94
1531	2.5257	1.0311	0.	128.52
1532	7.0506	0.30716	0.	129.88
1533	-6.1942	-0.95207	0.	124.8
1534	-9.0819	2.5556	0.	127.42
1535	8.0091	4.4776	0.	116.46
1536	-0.52873	7.7549	0.	114.3
1537	1.4015	-4.8689	0.	121.03
1538	4.5862	0.19429	0.	131.88
1539	-3.4615	-2.5357	0.	128.91
1540	3.7151	-0.2771	0.	126.74
1541	-4.931	-2.5167	0.	129.32
1542	-4.0199	6.5223	0.	133.37
1543	-3.0042	-5.6009	0.	128.43
1544	-7.9571	3.9426	0.	122.64
1545	2.5513	-0.84083	0.	129.56
1546	4.6625	-0.21748	0.	117.72
1547	-5.8953	3.5271	0.	123.08
1548	2.7996	-1.7166	0.	131.72
1549	4.1698	-1.5088	0.	130.86
1550	8.5906	-2.8183	0.	129.66
1551	2.0033	3.9725	0.	131.23
1552	2.4648	7.009	0.	127.38
1553	4.5312	-1.0612	0.	130.4
1554	4.0227	-2.8918	0.	127.58
1555	-6.9865	1.5507	0.	118.9
1556	5.1089e-002	4.8275	0.	116.13
1557	8.5075	5.4967	0.	122.98
1558	7.6773	-1.4927	0.	123.33
1559	-4.0734	-0.61032	0.	129.64
1560	-4.9992	-8.0001	0.	131.85
1561	-6.1	2.927	0.	123.38
1562	1.9892	-8.5268	0.	127.68
1563	-8.9986	4.4961	0.	128.43
1564	-1.4833	-0.51031	0.	121.53
1565	4.986	-6.0037	0.	130.22
1566	1.4875	-8.5346	0.	127.31
1567	-0.19813	-3.0073	0.	124.22
1568	-1.8787	4.6201	0.	131.25
1569	-1.4842	-1.0095	0.	118.63
1570	9.5122	1.0157	0.	128.78
1571	-3.0019	-0.51981	0.	129.68
1572	8.5309	0.5399	0.	123.26
1573	5.5115	-5.0615	0.	127.41
1574	-9.0138	0.44934	0.	125.64
1575	2.6135	9.1815e-002	0.	129.81
1576	4.3416	-0.66215	0.	124.52
1577	1.4476	5.4371	0.	129.83
1578	-7.9797	6.0192	0.	129.04
1579	-4.9547	-4.0201	0.	129.69
1580	6.5077	5.5232	0.	127.54
1581	-8.5155	0.47668	0.	118.56
1582	2.45	5.4945	0.	129.05
1583	-5.5214	2.544	0.	123.24
1584	-3.6259	7.0605	0.	130.03
1585	-1.9952	2.0136	0.	128.89
1586	3.2798	-0.66673	0.	128.86
1587	4.4928	-5.4864	0.	129.
1588	-3.4402	4.064	0.	132.2
1589	-6.4395	-2.4704	0.	128.45
1590	6.0005	8.0025	0.	128.34
1591	-7.4562	7.049	0.	131.55
1592	5.4985	5.0234	0.	127.19
1593	4.9908	-7.9951	0.	128.66
1594	8.5903	-0.94999	0.	123.9
1595	-4.3129	7.9808	0.	126.96
1596	3.0118	1.5265	0.	128.3
1597	-2.0982	7.1425	0.	128.67
1598	-5.9639	-3.4985	0.	131.63
1599	7.5251	0.8931	0.	123.35
1600	-3.9517	-5.531	0.	130.22
1601	0.77557	-5.2975	0.	122.44
1602	-5.5112	1.0305	0.	129.77
1603	-4.9714	-5.5106	0.	130.9
1604	-1.4871	-9.1004e-003	0.	124.11
1605	8.48	-4.8499	0.	137.36
1606	-3.4989	1.5097	0.	127.89
1607	5.6575	-1.8434	0.	115.04
1608	-6.0649	4.3294e-002	0.	128.43
1609	2.862	-1.3414	0.	130.8
1610	3.4904	4.5012	0.	125.67
1611	-8.4815	7.0142	0.	127.69
1612	9.059	-2.8972	0.	129.78
1613	-4.524	0.49842	0.	129.22
1614	-8.4937	9.0074	0.	125.09
1615	2.7349	-2.1152	0.	132.47
1616	1.0089	2.9698	0.	129.11
1617	6.9741	1.7477	0.	134.82
1618	-1.4416	-3.9516	0.	118.15
1619	-0.41471	4.3487	0.	113.24
1620	-2.479	-3.0165	0.	131.87
1621	-2.4983	1.5079	0.	127.84
1622	-4.4613	-5.5187	0.	130.76
1623	-4.5727	6.9717	0.	135.03
1624	-3.9109	-1.5592	0.	129.42
1625	8.6132	-1.4277	0.	124.83
1626	6.1666	-1.8931	0.	121.77
1627	-8.9937	5.5028	0.	126.38
1628	5.9906	4.0532	0.	127.91
1629	4.4948	3.0147	0.	117.58
1630	-0.44809	-1.0426	0.	124.39
1631	-1.9987	0.49531	0.	128.32
1632	0.4894	-6.1615	0.	130.06
1633	7.563	0.43226	0.	124.33
1634	-8.9965	9.0038	0.	124.69
1635	-6.4944	1.5464	0.	138.76
1636	4.9941	-8.4961	0.	128.65
1637	-3.9968	2.0223	0.	127.45
1638	-2.9676	-1.5243	0.	130.75
1639	-2.4835	2.5312	0.	128.71
1640	-7.4787	9.0202	0.	129.19
1641	7.5126	5.0124	0.	121.56
1642	-8.4944	4.4864	0.	126.98
1643	0.4882	-8.5285	0.	126.29
1644	-8.4852	7.5142	0.	126.07
1645	-2.9667	-3.0308	0.	130.38
1646	7.6483	-1.0176	0.	122.5
1647	0.97079	5.3761	0.	137.26
1648	-1.414	-4.4248	0.	128.69
1649	-7.9942	4.4921	0.	124.73
1650	3.9891	5.0056	0.	121.16
1651	3.0046	2.0115	0.	129.23
1652	4.2014	-0.24867	0.	125.2
1653	8.992	-4.393	0.	128.06
1654	-3.0486	6.6712	0.	128.4
1655	-1.9343	3.566	0.	130.64
1656	-9.0486	-2.4319	0.	127.62
1657	3.0081	-3.9183	0.	129.94
1658	8.551	2.5209e-002	0.	123.24
1659	-9.0069	0.98559	0.	128.25
1660	9.0343	-3.3875	0.	130.01
1661	5.124	-2.3592	0.	123.76
1662	2.9634	5.4999	0.	129.63
1663	8.4983	-6.973	0.	125.83
1664	8.5019	7.5024	0.	124.19
1665	-3.5188	-0.54339	0.	129.99
1666	-5.5029	1.5321	0.	128.26
1667	-5.4515	3.565	0.	123.56
1668	3.0016	2.9988	0.	129.35
1669	-5.4741	-5.0078	0.	129.15
1670	-8.4964	3.9752	0.	129.42
1671	8.4868	-5.3922	0.	132.11
1672	-0.97085	-0.51856	0.	119.95
1673	-8.4916	5.5057	0.	125.91
1674	5.487	3.5476	0.	123.22
1675	3.723	-1.4878	0.	130.23
1676	-2.4186	7.6578	0.	128.12
1677	-7.9702	7.0269	0.	129.99
1678	8.1182	-0.96997	0.	122.76
1679	-2.9274	4.0767	0.	132.17
1680	-4.3712	-1.5512	0.	128.98
1681	-4.5546	-1.7145e-002	0.	129.37
1682	2.9333	-5.8948	0.	127.68
1683	-2.8101	6.2221	0.	127.55
1684	-3.3867	5.6057	0.	129.28
1685	-2.9053	4.5963	0.	131.86
1686	2.3646	-1.597	0.	131.06
1687	2.286	-2.0144	0.	132.69
1688	6.4979	1.2082	0.	127.77
1689	3.313	-1.0495	0.	129.51
1690	-3.4548	-5.5548	0.	129.38
1691	-3.3656	-5.0681	0.	128.47
1692	1.0946	-0.49032	0.	125.16
1693	2.4709	-4.3701	0.	131.98
1694	2.4686	-3.8695	0.	134.79
1695	2.4478	-3.3797	0.	129.95
1696	8.7436	2.4191	0.	135.88
1697	6.6745	-0.28571	0.	121.99
1698	6.4392	-0.66678	0.	142.06
1699	6.2063	-1.4507	0.	128.38
1700	6.3135	-1.0452	0.	125.2
1701	6.7052	-1.5069	0.	126.59
1702	6.7368	-1.0891	0.	128.31
1703	7.6312	-0.53921	0.	121.77
1704	7.1972	-0.60391	0.	121.77
1705	6.1117	-0.20833	0.	139.39
1706	6.215	-0.39	0.	141.52
1707	6.4193	-9.7295e-003	0.	160.47
1708	6.4972	-0.24786	0.	149.87
1709	5.2783	-0.20167	0.	138.33
1710	5.1733	-0.38167	0.	140.53
1711	5.0617	7.8925e-003	0.	151.93
1712	4.8662	-0.20874	0.	144.38
1713	5.795	-1.11	0.	105.17
1714	5.5867	-1.1083	0.	104.35
1715	5.4112	-1.3557	0.	119.9
1716	5.6738	-1.5667	0.	112.66
1717	5.9481	-1.3703	0.	119.38
1718	7.7175	-4.05	0.	107.64
1719	7.7075	-4.335	0.	111.33
1720	8.2214	-4.2574	0.	137.62
1721	7.9928	-3.9331	0.	141.76
1722	7.9691	-4.495	0.	140.04
1723	7.2325	-3.75	0.	103.98
1724	6.98	-3.885	0.	140.46
1725	6.7619	-3.6486	0.	132.32
1726	7.0283	-3.4535	0.	122.9
1727	7.2025	-4.605	0.	110.5
1728	6.96	-4.455	0.	142.18
1729	6.9716	-4.9062	0.	126.43
1730	6.7218	-4.6899	0.	132.35
1731	8.4283	3.0517	0.	118.66
1732	8.4267	2.83	0.	120.06
1733	8.8645	2.9533	0.	145.21
1734	8.6832	3.1939	0.	149.24
1735	8.6818	2.6795	0.	149.44
1736	7.6617	3.4983	0.	120.65
1737	7.4683	3.3883	0.	145.62
1738	7.4849	3.8204	0.	129.77
1739	7.2233	3.6043	0.	138.78
1740	7.6533	2.39	0.	122.46
1741	7.4617	2.5017	0.	146.83
1742	7.4587	2.0606	0.	132.71
1743	7.2138	2.2478	0.	140.49
1744	-1.2533	-5.0717	0.	132.55
1745	-1.1583	-4.8717	0.	133.92
1746	-1.5873	-4.9313	0.	141.83
1747	-1.397	-4.6574	0.	148.31
1748	-0.74667	-5.7983	0.	99.034
1749	-0.525	-5.78	0.	107.75
1750	-0.57693	-6.2559	0.	114.57
1751	-0.84585	-6.0786	0.	114.98
1752	-0.33333	-6.0361	0.	121.14
1753	-0.27167	-4.7983	0.	140.6
1754	-0.145	-4.98	0.	146.27
1755	-3.0171e-002	-4.5798	0.	156.92
1756	0.17392	-4.8025	0.	146.57
1757	0.76833	-2.5633	0.	130.76
1758	0.99	-2.4817	0.	111.25
1759	0.5877	-2.2784	0.	128.56
1760	0.85402	-2.1446	0.	118.27
1761	0.60167	-3.4967	0.	148.38
1762	0.78167	-3.6483	0.	134.05
1763	0.32302	-3.6417	0.	140.93
1764	0.53369	-3.8731	0.	147.98
1765	1.71	-3.0883	0.	124.42
1766	1.6683	-3.3217	0.	128.45
1767	1.9213	-3.5329	0.	143.64
1768	2.0072	-3.0263	0.	143.24
1769	2.1689	-3.3099	0.	141.66
1770	-0.5725	7.0725	0.	110.96
1771	-0.35	7.0813	0.	106.75
1772	-0.25412	7.4685	0.	115.22
1773	-0.74948	7.3146	0.	118.67
1774	-0.49936	7.5124	0.	111.85
1775	-1.1875	5.8875	0.	142.06
1776	-1.0675	5.6988	0.	133.25
1777	-1.324	5.4326	0.	144.76
1778	-1.535	5.6675	0.	142.35
1779	0.37	5.9488	0.	137.68
1780	0.2675	5.7512	0.	134.44
1781	0.69386	5.8064	0.	141.6
1782	0.49856	5.5385	0.	145.96
1783	-7.915	-1.8717	0.	116.15
1784	-8.1064	-1.9186	0.	98.411
1785	-8.0504	-2.2614	0.	108.26
1786	-7.7379	-2.159	0.	122.69
1787	-7.695	-1.1183	0.	146.38
1788	-7.8317	-0.97667	0.	130.63
1789	-7.602	-0.69196	0.	141.95
1790	-7.4014	-0.91937	0.	140.6
1791	-8.6532	-1.3518	0.	123.87
1792	-8.5983	-1.1633	0.	131.67
1793	-8.8349	-0.95175	0.	156.04
1794	-8.9563	-1.3265	0.	150.89
1795	-6.4817	8.34	0.	145.34
1796	-6.2867	8.4617	0.	121.07
1797	-6.4474	8.7841	0.	130.39
1798	-6.7336	8.5595	0.	138.44
1799	-6.4483	7.42	0.	139.02
1800	-6.245	7.3117	0.	114.33
1801	-6.6928	7.1442	0.	135.02
1802	-6.4322	7.0081	0.	123.02
1803	-5.4733	8.0283	0.	117.27
1804	-5.465	7.7983	0.	117.23
1805	-5.1273	8.1639	0.	149.26
1806	-5.1856	7.6635	0.	146.39
1807	-5.0207	7.9201	0.	143.48
1808	-8.0667	2.2533	0.	131.11
1809	-8.1367	2.4683	0.	126.72
1810	-8.373	2.106	0.	158.97
1811	-8.4626	2.4237	0.	151.95
1812	-7.1733	2.0667	0.	133.12
1813	-7.02	2.235	0.	145.36
1814	-6.7214	2.0379	0.	141.29
1815	-6.9682	1.7854	0.	139.5
1816	-7.5233	3.1417	0.	99.849
1817	-7.3	3.095	0.	119.46
1818	-7.5009	3.4525	0.	114.45
1819	-7.1703	3.416	0.	127.07
1820	4.	7.75	0.	136.89
1821	4.25	8.	0.	120.15
1822	3.9994	8.2499	0.	128.32
1823	3.7484	7.9997	0.	131.49
1824	4.	6.25	0.	135.56
1825	4.25	6.	0.	118.75
1826	3.9942	5.7515	0.	126.61
1827	3.738	6.0006	0.	130.17
1828	4.75	8.	0.	119.57
1829	5.	7.75	0.	136.15
1830	5.2501	8.0006	0.	130.62
1831	4.9999	8.2501	0.	127.21
1832	4.75	6.	0.	119.
1833	5.	6.25	0.	135.96
1834	5.2507	6.0047	0.	130.43
1835	4.9992	5.7543	0.	126.83
1836	4.	1.75	0.	139.73
1837	4.25	2.	0.	122.43
1838	3.7518	2.0054	0.	132.6
1839	4.	2.2526	0.	129.18
1840	4.	1.25	0.	140.77
1841	4.25	1.	0.	126.69
1842	3.761	1.0246	0.	134.92
1843	4.0254	0.79663	0.	132.5
1844	4.75	2.	0.	119.85
1845	5.	1.75	0.	134.73
1846	5.2442	2.0328	0.	128.35
1847	4.9959	2.2614	0.	124.56
1848	4.75	1.	0.	125.73
1849	5.	1.25	0.	137.36
1850	5.2504	1.0556	0.	128.57
1851	5.0158	0.8116	0.	131.95
1852	6.	-6.25	0.	135.53
1853	6.25	-6.	0.	118.47
1854	5.9993	-5.7697	0.	128.34
1855	5.7469	-6.0068	0.	131.24
1856	6.	-7.75	0.	134.18
1857	6.25	-8.	0.	116.91
1858	5.9991	-8.2495	0.	124.94
1859	5.7476	-7.9988	0.	128.98
1860	6.75	-6.	0.	115.47
1861	7.	-6.25	0.	130.12
1862	7.2502	-5.9818	0.	123.32
1863	7.0005	-5.7589	0.	120.24
1864	6.75	-8.	0.	115.86
1865	7.	-7.75	0.	131.99
1866	7.2502	-7.9971	0.	126.99
1867	7.	-8.2495	0.	123.12
1868	-1.	2.75	0.	133.43
1869	-0.75	3.	0.	116.45
1870	-1.2391	3.0127	0.	128.63
1871	-0.97646	3.2389	0.	122.85
1872	-1.	1.25	0.	133.99
1873	-0.75	1.	0.	117.08
1874	-0.99585	0.7466	0.	124.6
1875	-1.2495	0.99935	0.	128.76
1876	-0.25	3.	0.	116.89
1877	0.	2.75	0.	133.66
1878	0.25386	2.9865	0.	128.61
1879	1.3427e-002	3.2264	0.	124.7
1880	-0.25	1.	0.	117.22
1881	0.	1.25	0.	134.
1882	0.25619	0.99862	0.	128.76
1883	9.2904e-003	0.74716	0.	125.35
1884	-2.	-7.25	0.	136.06
1885	-1.75	-7.	0.	118.43
1886	-2.0073	-6.7527	0.	128.38
1887	-2.2512	-7.008	0.	132.07
1888	-2.	-8.75	0.	134.54
1889	-1.75	-9.	0.	116.56
1890	-2.25	-9.0004	0.	130.01
1891	-2.	-9.25	0.	124.63
1892	-1.25	-7.	0.	115.48
1893	-1.	-7.25	0.	130.17
1894	-0.99959	-6.7843	0.	120.57
1895	-0.75775	-7.0156	0.	123.63
1896	-1.25	-9.	0.	114.91
1897	-1.	-8.75	0.	131.17
1898	-0.75159	-9.0033	0.	126.36
1899	-1.0005	-9.2504	0.	121.66
1900	-2.	-2.25	0.	137.31
1901	-1.75	-2.	0.	120.83
1902	-1.9946	-1.7528	0.	127.98
1903	-2.2428	-2.0063	0.	131.5
1904	-2.	-2.75	0.	136.74
1905	-1.75	-3.	0.	119.37
1906	-1.9816	-3.2475	0.	127.08
1907	-2.2395	-3.0082	0.	131.49
1908	-1.25	-2.	0.	120.09
1909	-1.	-2.25	0.	134.16
1910	-0.76774	-2.0177	0.	129.51
1911	-0.995	-1.7572	0.	126.8
1912	-1.25	-3.	0.	117.18
1913	-1.	-2.75	0.	132.04
1914	-0.79127	-2.9814	0.	125.01
1915	-0.98129	-3.2287	0.	122.02
1916	-7.	5.75	0.	136.55
1917	-6.75	6.	0.	123.05
1918	-6.9462	6.2845	0.	130.09
1919	-7.2389	6.0123	0.	132.33
1920	-7.	5.25	0.	136.88
1921	-6.75	5.	0.	123.76
1922	-7.0022	4.7658	0.	128.46
1923	-7.2499	5.0088	0.	129.31
1924	-5.25	6.	0.	124.9
1925	-5.	5.75	0.	140.36
1926	-4.7416	6.0039	0.	134.93
1927	-5.0055	6.246	0.	132.31
1928	-5.25	5.	0.	127.22
1929	-5.	5.25	0.	141.11
1930	-4.7334	5.0146	0.	134.92
1931	-4.9896	4.7601	0.	133.43
1932	-8.	-7.25	0.	129.9
1933	-7.75	-7.	0.	116.97
1934	-8.	-6.75	0.	120.07
1935	-8.25	-7.	0.	122.97
1936	-8.	-7.75	0.	131.92
1937	-7.75	-8.	0.	120.36
1938	-8.	-8.25	0.	124.86
1939	-8.25	-8.	0.	127.26
1940	-6.25	-7.	0.	129.93
1941	-6.	-7.25	0.	143.19
1942	-5.7484	-7.0004	0.	137.45
1943	-5.9975	-6.7503	0.	135.6
1944	-6.25	-8.	0.	126.79
1945	-6.	-7.75	0.	142.19
1946	-5.7498	-7.9999	0.	135.31
1947	-5.9999	-8.25	0.	132.57
1948	-9.	-4.25	0.	141.23
1949	-8.75	-4.	0.	123.04
1950	-8.9948	-3.7309	0.	129.48
1951	-9.249	-3.9959	0.	135.58
1952	-9.	-5.75	0.	143.92
1953	-8.75	-6.	0.	127.99
1954	-9.	-6.25	0.	134.2
1955	-9.25	-6.	0.	137.72
1956	-7.25	-4.	0.	120.94
1957	-7.	-4.25	0.	136.59
1958	-6.7425	-3.9985	0.	131.51
1959	-6.9896	-3.7396	0.	128.49
1960	-7.25	-6.	0.	118.23
1961	-7.	-5.75	0.	133.16
1962	-6.7478	-6.0001	0.	126.69
1963	-6.9995	-6.25	0.	123.43
1964	9.75	10.	0.	125.02
1965	10.	9.75	0.	124.98
1966	-9.75	10.	0.	125.1
1967	-10.	9.75	0.	124.88
1968	10.	-9.75	0.	128.74
1969	9.75	-10.	0.	128.29
1970	-10.	-9.75	0.	130.34
1971	-9.75	-10.	0.	129.39
1972	5.695	-0.205	0.	104.85
1973	5.9514	1.4722e-002	0.	106.49
1974	5.504	1.4297e-002	0.	108.57
1975	6.005	-0.75	0.	108.65
1976	6.2746	-0.61839	0.	125.13
1977	6.1068	-0.98758	0.	113.63
1978	5.38	-0.745	0.	109.72
1979	5.0473	-0.5889	0.	125.33
1980	5.2407	-0.9665	0.	115.
1981	7.5123	-3.6867	0.	87.974
1982	7.4727	-4.708	0.	90.915
1983	6.7409	-4.1682	0.	133.66
1984	8.045	3.275	0.	84.838
1985	8.31	3.3807	0.	98.26
1986	7.9343	3.6521	0.	103.65
1987	8.04	2.61	0.	86.705
1988	8.2978	2.458	0.	100.36
1989	7.8842	2.2517	0.	102.9
1990	7.465	2.945	0.	146.84
1991	7.2181	3.1524	0.	138.96
1992	7.2155	2.7009	0.	138.4
1993	-1.	-5.435	0.	98.158
1994	-1.3696	-5.3627	0.	115.39
1995	-1.068	-5.7163	0.	104.96
1996	-0.715	-4.835	0.	105.27
1997	-0.94154	-4.6217	0.	103.37
1998	-0.48686	-4.594	0.	107.78
1999	-0.335	-5.38	0.	117.48
2000	-0.16958	-5.6196	0.	118.57
2001	8.6815e-003	-5.2108	0.	128.99
2002	0.685	-3.03	0.	138.82
2003	0.51072	-2.7378	0.	131.87
2004	0.42553	-3.1962	0.	136.84
2005	1.35	-2.785	0.	96.788
2006	1.2454	-2.4148	0.	109.23
2007	1.6511	-2.6919	0.	113.86
2008	1.225	-3.485	0.	107.32
2009	0.99673	-3.7707	0.	112.54
2010	1.4569	-3.648	0.	112.56
2011	-0.7775	6.6775	0.	119.55
2012	-0.93353	6.91	0.	119.22
2013	-0.9825	6.2825	0.	125.73
2014	-1.161	6.5134	0.	127.72
2015	-1.3651	6.1004	0.	129.98
2016	-0.11	6.7038	0.	112.39
2017	-9.6364e-003	7.0383	0.	114.86
2018	0.13	6.3263	0.	117.6
2019	0.25142	6.6341	0.	123.08
2020	0.48811	6.2243	0.	126.19
2021	-0.6225	5.7162	0.	111.8
2022	-0.86487	5.464	0.	109.06
2023	-0.1775	5.7337	0.	112.71
2024	-0.4092	5.491	0.	114.25
2025	4.4897e-002	5.5135	0.	109.99
2026	-7.805	-1.495	0.	127.77
2027	-7.6138	-1.7482	0.	120.63
2028	-7.504	-1.3352	0.	131.15
2029	-8.3796	-1.6354	0.	76.714
2030	-8.3959	-2.0312	0.	100.01
2031	-8.6599	-1.6568	0.	103.56
2032	-8.215	-1.07	0.	94.677
2033	-8.0198	-0.76643	0.	100.24
2034	-8.4323	-0.85102	0.	98.791
2035	-6.465	7.88	0.	143.17
2036	-6.7248	8.0909	0.	137.66
2037	-6.7104	7.6202	0.	134.48
2038	-5.88	8.245	0.	83.729
2039	-6.0227	8.5392	0.	102.54
2040	-5.5908	8.3548	0.	98.175
2041	-5.855	7.555	0.	82.108
2042	-6.0103	7.2005	0.	97.362
2043	-5.5734	7.3967	0.	97.184
2044	-7.62	2.16	0.	96.746
2045	-7.9329	1.9247	0.	100.61
2046	-7.4411	1.8526	0.	104.52
2047	-7.83	2.805	0.	81.003
2048	-8.1378	2.7728	0.	107.38
2049	-7.8623	3.168	0.	104.19
2050	-7.16	2.665	0.	128.86
2051	-6.8077	2.5258	0.	131.26
2052	-6.9939	2.9867	0.	123.04
2053	4.	7.25	0.	141.05
2054	3.7466	7.4995	0.	136.94
2055	4.	6.75	0.	140.66
2056	3.7429	6.9994	0.	137.44
2057	3.7389	6.4997	0.	136.07
2058	4.4997	8.25	0.	109.46
2059	4.4975	5.7522	0.	108.26
2060	5.	7.25	0.	140.9
2061	5.2502	7.5011	0.	136.38
2062	5.	6.75	0.	140.79
2063	5.2504	7.002	0.	137.3
2064	5.2506	6.503	0.	136.33
2065	3.7544	1.5119	0.	138.71
2066	4.4985	2.2546	0.	110.96
2067	4.5192	0.80081	0.	118.26
2068	5.2461	1.5397	0.	133.34
2069	6.	-6.75	0.	139.67
2070	5.7462	-6.5019	0.	136.06
2071	6.	-7.25	0.	139.18
2072	5.7461	-6.9997	0.	136.48
2073	5.7469	-7.499	0.	135.15
2074	6.4996	-5.7696	0.	108.47
2075	6.4997	-8.2498	0.	105.87
2076	7.	-6.75	0.	135.72
2077	7.2501	-6.4877	0.	130.94
2078	7.	-7.25	0.	136.44
2079	7.2502	-6.9924	0.	133.
2080	7.2502	-7.4956	0.	132.61
2081	-1.	2.25	0.	138.95
2082	-1.2464	2.5071	0.	135.
2083	-1.	1.75	0.	138.97
2084	-1.2489	2.0036	0.	136.04
2085	-1.2497	1.5014	0.	134.95
2086	-0.48195	3.2274	0.	105.5
2087	-0.49321	0.74612	0.	106.79
2088	0.	2.25	0.	138.57
2089	0.25114	2.4932	0.	134.62
2090	0.	1.75	0.	138.67
2091	0.2508	1.9961	0.	135.61
2092	0.25289	1.4978	0.	134.56
2093	-2.	-7.75	0.	140.32
2094	-2.25	-7.5043	0.	137.06
2095	-2.	-8.25	0.	139.85
2096	-2.2498	-8.0025	0.	137.56
2097	-2.2499	-8.5012	0.	136.28
2098	-1.4925	-6.7292	0.	109.04
2099	-1.5001	-9.2501	0.	104.58
2100	-1.	-7.75	0.	135.34
2101	-0.75567	-7.5113	0.	130.91
2102	-1.	-8.25	0.	136.04
2103	-0.75399	-8.008	0.	132.73
2104	-0.75261	-8.5054	0.	132.15
2105	-2.2431	-2.507	0.	136.44
2106	-1.4954	-1.753	0.	110.39
2107	-1.4837	-3.2378	0.	108.42
2108	-0.78309	-2.5052	0.	132.58
2109	-7.2472	5.5067	0.	134.73
2110	-6.25	6.	0.	115.44
2111	-6.4651	6.2179	0.	112.91
2112	-5.75	6.	0.	115.46
2113	-5.9825	6.2425	0.	112.36
2114	-5.496	6.2641	0.	114.64
2115	-6.25	5.	0.	118.45
2116	-6.5051	4.7363	0.	116.18
2117	-5.75	5.	0.	119.73
2118	-6.0026	4.7439	0.	120.25
2119	-5.4963	4.7545	0.	118.03
2120	-4.7349	5.5105	0.	138.65
2121	-8.25	-7.5	0.	129.67
2122	-7.25	-7.	0.	115.05
2123	-7.4998	-6.75	0.	108.67
2124	-6.75	-7.	0.	120.88
2125	-6.9995	-6.75	0.	119.58
2126	-6.4987	-6.75	0.	122.37
2127	-7.25	-8.	0.	116.13
2128	-7.5	-8.25	0.	112.74
2129	-6.75	-8.	0.	117.98
2130	-7.	-8.25	0.	117.22
2131	-6.5	-8.25	0.	116.25
2132	-5.7494	-7.5	0.	140.46
2133	-9.	-4.75	0.	148.69
2134	-9.2499	-4.4987	0.	143.16
2135	-9.	-5.25	0.	149.39
2136	-9.25	-4.9996	0.	145.23
2137	-9.25	-5.4998	0.	144.01
2138	-8.25	-4.	0.	113.12
2139	-8.4959	-3.7211	0.	110.96
2140	-7.75	-4.	0.	112.46
2141	-8.0082	-3.7561	0.	111.84
2142	-7.5089	-3.7053	0.	110.8
2143	-8.25	-6.	0.	117.8
2144	-8.5	-6.25	0.	118.66
2145	-7.75	-6.	0.	113.33
2146	-8.	-6.25	0.	116.54
2147	-7.4998	-6.25	0.	108.3
2148	-7.	-4.75	0.	141.04
2149	-6.7447	-4.4999	0.	136.55
2150	-7.	-5.25	0.	139.81
2151	-6.7459	-5.0003	0.	136.99
2152	-6.747	-5.5002	0.	134.37
2153	9.25	10.	0.	125.09
2154	9.5	9.75	0.	124.99
2155	8.75	10.	0.	125.24
2156	9.0001	9.7501	0.	125.1
2157	8.25	10.	0.	125.45
2158	8.5001	9.7502	0.	125.25
2159	7.75	10.	0.	125.67
2160	8.0001	9.7503	0.	125.42
2161	7.25	10.	0.	125.84
2162	7.5001	9.7503	0.	125.6
2163	6.75	10.	0.	125.84
2164	7.	9.7503	0.	125.75
2165	6.25	10.	0.	125.46
2166	6.5	9.7502	0.	125.75
2167	5.75	10.	0.	124.53
2168	6.	9.7502	0.	125.39
2169	5.25	10.	0.	123.32
2170	5.4999	9.7501	0.	124.38
2171	4.75	10.	0.	122.51
2172	4.9999	9.75	0.	123.03
2173	4.25	10.	0.	122.74
2174	4.4998	9.75	0.	122.47
2175	3.75	10.	0.	124.
2176	3.9996	9.75	0.	123.46
2177	3.25	10.	0.	125.6
2178	3.4994	9.75	0.	125.18
2179	2.75	10.	0.	126.78
2180	2.9988	9.7501	0.	126.47
2181	2.25	10.	0.	127.22
2182	2.498	9.75	0.	126.99
2183	1.75	10.	0.	127.03
2184	1.9966	9.7496	0.	126.97
2185	1.25	10.	0.	126.41
2186	1.4949	9.7483	0.	126.59
2187	0.75	10.	0.	125.6
2188	0.99402	9.7472	0.	125.96
2189	0.25	10.	0.	124.87
2190	0.4954	9.7507	0.	125.22
2191	-0.25	10.	0.	124.47
2192	-1.9868e-003	9.7628	0.	124.63
2193	-0.75	10.	0.	124.61
2194	-0.50009	9.7711	0.	124.49
2195	-1.25	10.	0.	125.25
2196	-0.99839	9.773	0.	124.89
2197	-1.75	10.	0.	126.19
2198	-1.4964	9.7705	0.	125.67
2199	-2.25	10.	0.	127.17
2200	-1.9953	9.7652	0.	126.52
2201	-2.75	10.	0.	128.01
2202	-2.4936	9.7614	0.	127.23
2203	-3.25	10.	0.	128.61
2204	-2.9925	9.7585	0.	127.76
2205	-3.75	10.	0.	128.8
2206	-3.4922	9.7541	0.	128.08
2207	-4.25	10.	0.	128.13
2208	-3.9924	9.7494	0.	128.16
2209	-4.75	10.	0.	125.98
2210	-4.492	9.7457	0.	127.61
2211	-5.25	10.	0.	122.54
2212	-4.9898	9.7475	0.	125.68
2213	-5.75	10.	0.	119.76
2214	-5.4867	9.7593	0.	121.95
2215	-6.25	10.	0.	119.53
2216	-5.9848	9.7668	0.	119.02
2217	-6.75	10.	0.	121.83
2218	-6.4845	9.7548	0.	120.91
2219	-7.25	10.	0.	124.91
2220	-6.9881	9.7541	0.	125.01
2221	-7.75	10.	0.	126.59
2222	-7.4932	9.7543	0.	126.84
2223	-8.25	10.	0.	126.64
2224	-7.9966	9.753	0.	126.49
2225	-8.75	10.	0.	126.04
2226	-8.4983	9.7518	0.	125.98
2227	-9.25	10.	0.	125.42
2228	-8.9992	9.7509	0.	125.45
2229	-9.4997	9.7503	0.	125.
2230	10.	9.25	0.	124.84
2231	9.75	9.5	0.	124.96
2232	10.	8.75	0.	124.59
2233	9.7501	9.0001	0.	124.76
2234	10.	8.25	0.	124.36
2235	9.7501	8.5001	0.	124.55
2236	10.	7.75	0.	124.31
2237	9.7502	8.0002	0.	124.43
2238	10.	7.25	0.	124.53
2239	9.7503	7.5003	0.	124.49
2240	10.	6.75	0.	125.15
2241	9.7505	7.0004	0.	124.8
2242	10.	6.25	0.	126.23
2243	9.7507	6.5001	0.	125.45
2244	10.	5.75	0.	127.8
2245	9.7509	5.9993	0.	126.47
2246	10.	5.25	0.	129.73
2247	9.7509	5.4974	0.	127.86
2248	10.	4.75	0.	131.38
2249	9.7505	4.9942	0.	129.49
2250	10.	4.25	0.	131.35
2251	9.7495	4.4893	0.	130.88
2252	10.	3.75	0.	128.26
2253	9.7528	3.9872	0.	130.87
2254	10.	3.25	0.	123.66
2255	9.7731	3.4893	0.	127.61
2256	10.	2.75	0.	123.02
2257	9.7784	2.9932	0.	124.59
2258	10.	2.25	0.	127.25
2259	9.7754	2.4976	0.	126.73
2260	10.	1.75	0.	130.96
2261	9.7617	2.0015	0.	130.54
2262	10.	1.25	0.	131.51
2263	9.7596	1.5058	0.	131.13
2264	10.	0.75	0.	130.05
2265	9.7561	1.0079	0.	129.9
2266	10.	0.25	0.	128.26
2267	9.7555	0.50886	0.	128.32
2268	10.	-0.25	0.	127.07
2269	9.7584	8.9431e-003	0.	127.09
2270	10.	-0.75	0.	126.78
2271	9.7624	-0.49031	0.	126.53
2272	10.	-1.25	0.	127.3
2273	9.7663	-0.9884	0.	126.69
2274	10.	-1.75	0.	128.25
2275	9.7693	-1.4857	0.	127.39
2276	10.	-2.25	0.	129.
2277	9.7707	-1.9827	0.	128.27
2278	10.	-2.75	0.	128.78
2279	9.7691	-2.48	0.	128.81
2280	10.	-3.25	0.	127.29
2281	9.7645	-2.9775	0.	128.43
2282	10.	-3.75	0.	125.33
2283	9.7585	-3.4758	0.	127.
2284	10.	-4.25	0.	124.62
2285	9.7526	-3.9753	0.	125.62
2286	10.	-4.75	0.	125.72
2287	9.7483	-4.4762	0.	125.75
2288	10.	-5.25	0.	127.44
2289	9.7466	-4.9785	0.	127.41
2290	10.	-5.75	0.	128.35
2291	9.7468	-5.4821	0.	128.45
2292	10.	-6.25	0.	128.1
2293	9.7476	-5.9862	0.	128.38
2294	10.	-6.75	0.	127.38
2295	9.7484	-6.49	0.	127.68
2296	10.	-7.25	0.	126.87
2297	9.749	-6.9934	0.	127.04
2298	10.	-7.75	0.	126.88
2299	9.7495	-7.4958	0.	126.82
2300	10.	-8.25	0.	127.34
2301	9.7497	-7.9974	0.	127.03
2302	10.	-8.75	0.	127.95
2303	9.7498	-8.4984	0.	127.48
2304	10.	-9.25	0.	128.46
2305	9.7499	-8.9991	0.	127.91
2306	9.7499	-9.4995	0.	128.2
2307	-10.	9.25	0.	124.25
2308	-9.7497	9.5003	0.	124.79
2309	-10.	8.75	0.	123.33
2310	-9.7493	9.0007	0.	124.05
2311	-10.	8.25	0.	122.73
2312	-9.7488	8.501	0.	123.44
2313	-10.	7.75	0.	122.71
2314	-9.7484	8.0012	0.	123.28
2315	-10.	7.25	0.	123.21
2316	-9.7479	7.5013	0.	123.61
2317	-10.	6.75	0.	124.01
2318	-9.7475	7.0014	0.	124.26
2319	-10.	6.25	0.	124.96
2320	-9.7473	6.5014	0.	125.
2321	-10.	5.75	0.	126.13
2322	-9.7477	6.0011	0.	125.78
2323	-10.	5.25	0.	127.64
2324	-9.7483	5.5007	0.	126.79
2325	-10.	4.75	0.	129.27
2326	-9.7491	5.0001	0.	128.1
2327	-10.	4.25	0.	130.28
2328	-9.7503	4.5001	0.	129.45
2329	-10.	3.75	0.	129.64
2330	-9.7537	4.0015	0.	130.09
2331	-10.	3.25	0.	127.04
2332	-9.7607	3.5041	0.	129.18
2333	-10.	2.75	0.	124.34
2334	-9.7675	3.0071	0.	126.8
2335	-10.	2.25	0.	124.61
2336	-9.7632	2.5081	0.	125.09
2337	-10.	1.75	0.	128.23
2338	-9.7447	2.0087	0.	127.16
2339	-10.	1.25	0.	132.5
2340	-9.7473	1.5043	0.	130.59
2341	-10.	0.75	0.	135.43
2342	-9.7507	0.99708	0.	132.78
2343	-10.	0.25	0.	136.87
2344	-9.7536	0.49206	0.	133.89
2345	-10.	-0.25	0.	135.35
2346	-9.7666	-1.7147e-003	0.	134.61
2347	-10.	-0.75	0.	129.54
2348	-9.7504	-0.50254	0.	133.86
2349	-10.	-1.25	0.	124.74
2350	-9.7971	-1.0006	0.	127.9
2351	-10.	-1.75	0.	127.39
2352	-9.7854	-1.4916	0.	126.43
2353	-10.	-2.25	0.	134.32
2354	-9.7832	-1.9915	0.	131.32
2355	-10.	-2.75	0.	139.65
2356	-9.7645	-2.49	0.	135.46
2357	-10.	-3.25	0.	141.62
2358	-9.7503	-2.9887	0.	137.34
2359	-10.	-3.75	0.	139.41
2360	-9.7475	-3.4914	0.	138.89
2361	-10.	-4.25	0.	134.84
2362	-9.749	-3.9959	0.	136.9
2363	-10.	-4.75	0.	132.21
2364	-9.7499	-4.4987	0.	135.68
2365	-10.	-5.25	0.	131.97
2366	-9.75	-4.9996	0.	136.24
2367	-10.	-5.75	0.	133.76
2368	-9.75	-5.4998	0.	135.57
2369	-10.	-6.25	0.	136.38
2370	-9.75	-6.	0.	136.14
2371	-10.	-6.75	0.	135.71
2372	-9.75	-6.5	0.	136.59
2373	-10.	-7.25	0.	132.05
2374	-9.75	-7.	0.	132.46
2375	-10.	-7.75	0.	129.19
2376	-9.75	-7.5	0.	129.24
2377	-10.	-8.25	0.	128.67
2378	-9.75	-8.	0.	128.24
2379	-10.	-8.75	0.	129.36
2380	-9.75	-8.5	0.	128.67
2381	-10.	-9.25	0.	130.04
2382	-9.75	-9.	0.	129.18
2383	-9.75	-9.5	0.	129.37
2384	-9.25	-10.	0.	127.28
2385	-9.5	-9.75	0.	128.41
2386	-8.75	-10.	0.	124.7
2387	-9.	-9.75	0.	126.36
2388	-8.25	-10.	0.	121.47
2389	-8.5	-9.75	0.	123.42
2390	-7.75	-10.	0.	118.41
2391	-8.	-9.75	0.	119.77
2392	-7.25	-10.	0.	116.98
2393	-7.5	-9.75	0.	116.93
2394	-6.75	-10.	0.	118.19
2395	-7.	-9.75	0.	116.62
2396	-6.25	-10.	0.	121.81
2397	-6.5	-9.75	0.	119.4
2398	-5.75	-10.	0.	126.42
2399	-6.	-9.75	0.	124.22
2400	-5.25	-10.	0.	130.36
2401	-5.5	-9.75	0.	128.98
2402	-4.75	-10.	0.	132.81
2403	-5.	-9.75	0.	132.12
2404	-4.25	-10.	0.	133.98
2405	-4.5	-9.75	0.	133.6
2406	-3.75	-10.	0.	134.36
2407	-4.	-9.7501	0.	134.13
2408	-3.25	-10.	0.	134.06
2409	-3.5	-9.7501	0.	134.15
2410	-2.75	-10.	0.	131.45
2411	-3.	-9.7504	0.	133.51
2412	-2.25	-10.	0.	123.42
2413	-2.5	-9.7502	0.	130.33
2414	-1.75	-10.	0.	113.88
2415	-2.	-9.75	0.	118.43
2416	-1.25	-10.	0.	112.7
2417	-1.5001	-9.7501	0.	107.9
2418	-0.75	-10.	0.	120.19
2419	-1.0005	-9.7504	0.	115.95
2420	-0.25	-10.	0.	126.83
2421	-0.50091	-9.7516	0.	126.18
2422	0.25	-10.	0.	128.66
2423	-1.3026e-003	-9.7529	0.	128.41
2424	0.75	-10.	0.	128.66
2425	0.49846	-9.754	0.	128.53
2426	1.25	-10.	0.	128.52
2427	0.99837	-9.7549	0.	128.42
2428	1.75	-10.	0.	128.48
2429	1.4986	-9.7548	0.	128.37
2430	2.25	-10.	0.	128.54
2431	1.9991	-9.7534	0.	128.42
2432	2.75	-10.	0.	128.64
2433	2.4994	-9.7521	0.	128.54
2434	3.25	-10.	0.	128.69
2435	2.9995	-9.7508	0.	128.65
2436	3.75	-10.	0.	128.57
2437	3.4994	-9.75	0.	128.67
2438	4.25	-10.	0.	128.05
2439	3.9993	-9.7495	0.	128.46
2440	4.75	-10.	0.	126.77
2441	4.4993	-9.7493	0.	127.75
2442	5.25	-10.	0.	124.43
2443	4.9992	-9.7493	0.	126.1
2444	5.75	-10.	0.	121.34
2445	5.4995	-9.7495	0.	123.15
2446	6.25	-10.	0.	118.87
2447	5.9996	-9.7497	0.	119.61
2448	6.75	-10.	0.	118.49
2449	6.4998	-9.7498	0.	117.68
2450	7.25	-10.	0.	120.31
2451	6.9999	-9.7497	0.	118.83
2452	7.75	-10.	0.	122.94
2453	7.5	-9.7495	0.	121.79
2454	8.25	-10.	0.	125.11
2455	8.	-9.7493	0.	124.45
2456	8.75	-10.	0.	126.48
2457	8.5	-9.7493	0.	126.07
2458	9.25	-10.	0.	127.38
2459	8.9999	-9.7493	0.	127.01
2460	9.4999	-9.7495	0.	127.75
2461	-4.0285	0.21975	0.	129.34
2462	-3.7821	-3.8806e-002	0.	129.56
2463	-4.0561	-0.32739	0.	129.59
2464	-4.2967	-3.0805e-002	0.	129.46
2465	-3.2431	2.0204	0.	127.87
2466	-3.4902	2.2756	0.	128.15
2467	-3.4963	1.765	0.	127.86
2468	-3.7452	2.0213	0.	127.64
2469	-4.8648	-1.7674	0.	128.51
2470	-4.787	-1.2693	0.	128.49
2471	-5.07	-1.5062	0.	127.89
2472	-4.6024	-1.535	0.	128.67
2473	-5.1377	-2.0057	0.	128.38
2474	-4.6556	-2.0257	0.	128.81
2475	-4.9134	-2.2664	0.	128.99
2476	-4.6781	-0.77246	0.	128.86
2477	-4.5248	-1.0496	0.	128.92
2478	-4.9786	-1.005	0.	128.15
2479	-4.8706	-0.50774	0.	128.8
2480	-4.3445	-0.56774	0.	129.38
2481	-4.5851	-0.27115	0.	129.24
2482	-4.0112	0.74236	0.	128.8
2483	-4.2554	1.005	0.	128.53
2484	-3.7543	0.99933	0.	128.43
2485	-4.002	1.2562	0.	128.14
2486	-3.7666	0.48347	0.	129.08
2487	-4.271	0.49119	0.	129.18
2488	2.6243	-6.3227	0.	127.21
2489	2.3899	-6.4176	0.	127.11
2490	2.4101	-6.0049	0.	126.99
2491	2.1576	-6.2118	0.	126.86
2492	1.9003	-0.49367	0.	127.6
2493	2.4434	-0.42467	0.	129.11
2494	2.1113	-0.76192	0.	128.26
2495	2.1412	-0.24617	0.	128.55
2496	2.3679	-0.67704	0.	129.06
2497	2.4957	4.2351	0.	130.31
2498	2.5012	3.7364	0.	130.05
2499	2.7488	3.9897	0.	129.26
2500	2.2516	3.9788	0.	130.72
2501	-4.2469	2.5289	0.	127.13
2502	-3.9885	2.7821	0.	128.35
2503	-3.7396	2.5297	0.	128.11
2504	-3.9946	2.2754	0.	127.61
2505	-2.5945	6.9605	0.	127.95
2506	-2.2964	6.6923	0.	127.8
2507	-2.813	6.6905	0.	128.06
2508	-2.6937	6.466	0.	127.63
2509	4.0738	-4.1879	0.	127.03
2510	4.3082	-4.457	0.	126.83
2511	3.7916	-4.4354	0.	128.08
2512	4.0343	-4.6973	0.	127.84
2513	2.8798	-0.8431	0.	129.81
2514	2.7345	-0.92251	0.	129.77
2515	2.8898	-1.1728	0.	130.38
2516	3.1154	-1.0268	0.	129.74
2517	-4.1067	-1.0822	0.	129.47
2518	-4.1913	-0.84487	0.	129.44
2519	-4.3402	-1.3153	0.	129.1
2520	-4.4432	-4.7781	0.	129.74
2521	-4.1815	-5.0331	0.	129.72
2522	-4.7035	-5.0204	0.	129.8
2523	-4.4531	-5.2722	0.	130.33
2524	-4.1804	-4.5386	0.	129.55
2525	-4.6991	-4.5244	0.	129.49
2526	-4.4431	-4.2813	0.	129.64
2527	-5.0933	-0.2384	0.	128.85
2528	-5.3131	2.2113e-002	0.	129.1
2529	-5.0444	0.26486	0.	129.33
2530	-4.8078	-1.8084e-003	0.	129.29
2531	-5.3429	-1.7444	0.	127.76
2532	-5.4034	-2.2475	0.	128.73
2533	-5.6255	-1.9868	0.	127.62
2534	-5.2616	-1.2419	0.	127.55
2535	-5.5493	-1.4839	0.	126.7
2536	-4.7577	1.0149	0.	128.77
2537	-4.5037	1.2633	0.	128.1
2538	-4.5152	0.75387	0.	128.9
2539	-3.5202	0.22492	0.	129.3
2540	-3.2684	-2.5117e-002	0.	129.41
2541	-3.5221	-0.28827	0.	129.78
2542	3.2444	-4.9098	0.	129.09
2543	3.4915	-5.1784	0.	128.65
2544	3.5171	-4.6773	0.	128.77
2545	3.7598	-4.9392	0.	128.53
2546	3.1432	-6.4474	0.	127.53
2547	3.4373	-6.1991	0.	127.86
2548	3.4369	-6.7155	0.	127.59
2549	3.6901	-6.4647	0.	127.8
2550	2.6259	-6.5328	0.	127.29
2551	2.899	-6.7141	0.	127.4
2552	2.8968	-6.1664	0.	127.54
2553	2.1588	-6.6419	0.	127.21
2554	2.4167	-6.846	0.	127.28
2555	2.1834	-5.7887	0.	126.43
2556	1.9309	-5.9956	0.	126.29
2557	1.707	-5.7888	0.	125.66
2558	1.919	-5.5511	0.	125.45
2559	2.4359	-5.5715	0.	127.2
2560	2.6826	-5.8486	0.	127.32
2561	1.9265	-6.4362	0.	126.96
2562	1.9367	-6.8806	0.	127.31
2563	1.6873	-6.6611	0.	127.45
2564	1.694	-6.2218	0.	126.79
2565	2.9734	-5.1408	0.	128.85
2566	3.2205	-5.4093	0.	128.41
2567	2.7017	-5.3644	0.	127.87
2568	2.9484	-5.6415	0.	128.
2569	2.991	-4.6478	0.	129.86
2570	2.7199	-4.8776	0.	129.1
2571	3.4631	-5.6858	0.	128.28
2572	3.7322	-5.4451	0.	128.54
2573	3.7063	-5.9533	0.	128.21
2574	3.1909	-5.918	0.	127.87
2575	-3.5097	0.74044	0.	128.71
2576	-3.2537	0.99842	0.	128.32
2577	-3.5016	1.2538	0.	128.14
2578	-3.2623	0.48616	0.	128.91
2579	-4.5007	2.2769	0.	126.6
2580	-4.7519	2.0282	0.	126.26
2581	-4.5006	1.7709	0.	127.16
2582	-4.2485	2.0234	0.	127.08
2583	-5.1711	-0.74031	0.	128.09
2584	-5.4605	-0.98036	0.	127.06
2585	-5.375	-0.48021	0.	128.11
2586	-4.1756	-2.0391	0.	129.01
2587	-4.4282	-2.2831	0.	129.09
2588	-4.3933	-1.7933	0.	128.96
2589	-4.4528	-3.2813	0.	129.69
2590	-4.7031	-3.0244	0.	129.75
2591	-4.2053	-3.0347	0.	129.55
2592	-4.4478	-2.7808	0.	129.41
2593	-4.1995	-3.537	0.	129.84
2594	-4.7027	-3.5259	0.	129.9
2595	-4.4479	-3.7822	0.	129.74
2596	3.267	-1.6196	0.	130.88
2597	3.0745	-1.3843	0.	130.69
2598	3.505	-1.4575	0.	130.4
2599	3.3001	-1.2384	0.	130.04
2600	4.0889	-3.6778	0.	126.58
2601	4.3742	-3.927	0.	125.73
2602	3.8227	-3.9378	0.	127.39
2603	4.3398	-3.3997	0.	125.83
2604	3.8353	-3.4526	0.	127.01
2605	4.0535	-3.1571	0.	127.06
2606	-3.9188	-4.7936	0.	129.52
2607	-3.9349	-5.2857	0.	129.88
2608	-3.6419	-5.0542	0.	129.
2609	-3.9269	-4.2964	0.	129.66
2610	-3.6572	-4.5558	0.	129.25
2611	-2.8744	7.168	0.	128.33
2612	-2.7232	7.4301	0.	127.99
2613	-2.3549	7.1769	0.	128.43
2614	-2.5151	7.4345	0.	128.15
2615	-4.7575	2.5339	0.	125.61
2616	-4.4995	2.7815	0.	126.9
2617	4.6252	-3.6488	0.	124.98
2618	4.6087	-4.1961	0.	125.53
2619	4.8841	-4.0181	0.	124.06
2620	4.8916	-3.8097	0.	124.01
2621	-3.4678	3.297	0.	130.47
2622	-3.7306	3.0384	0.	129.31
2623	-3.2239	3.0434	0.	129.84
2624	-3.4817	2.786	0.	129.08
2625	-3.2055	3.5565	0.	131.3
2626	-3.7133	3.5486	0.	130.98
2627	-3.4496	3.8084	0.	131.72
2628	2.2432	4.4772	0.	131.
2629	2.4832	4.7364	0.	130.28
2630	2.7407	4.4898	0.	129.53
2631	1.6097	-0.69667	0.	126.14
2632	1.6012	-0.23047	0.	127.09
2633	1.3554	-0.48221	0.	125.9
2634	-5.5475	0.28047	0.	129.4
2635	-5.7792	0.53572	0.	129.66
2636	-5.2788	0.52322	0.	129.63
2637	-5.5205	0.78039	0.	129.79
2638	1.7488	4.4582	0.	131.87
2639	1.9858	4.7198	0.	131.28
2640	1.9992	4.221	0.	131.42
2641	-5.4388	-2.7521	0.	129.89
2642	-5.6765	-2.4921	0.	129.27
2643	-5.1791	-2.5082	0.	129.35
2644	2.254	3.4826	0.	130.18
2645	2.7513	3.4915	0.	129.22
2646	2.5026	3.2393	0.	129.72
2647	4.5874	-3.1247	0.	125.61
2648	4.8473	-3.3316	0.	124.45
2649	4.8062	-4.5127	0.	125.67
2650	4.5405	-4.728	0.	127.09
2651	2.7721	-0.50905	0.	129.65
2652	2.6966	-0.76142	0.	129.6
2653	3.0608	-0.67437	0.	129.25
2654	2.9568	-0.30905	0.	129.65
2655	2.6579	-0.12214	0.	129.74
2656	5.1206	-3.9071	0.	123.23
2657	5.0817	-4.3346	0.	124.21
2658	5.3426	-4.1294	0.	122.43
2659	7.0051	6.7602	0.	124.48
2660	6.7535	7.0084	0.	125.14
2661	7.0031	7.2571	0.	124.67
2662	7.254	7.0078	0.	124.18
2663	7.0078	6.264	0.	124.56
2664	7.2564	6.5106	0.	124.
2665	6.7557	6.512	0.	125.18
2666	2.241	-1.1017	0.	128.96
2667	2.4976	-1.0168	0.	129.75
2668	2.653	-1.2671	0.	130.37
2669	2.4043	-1.3949	0.	130.5
2670	1.8206	-0.96492	0.	126.79
2671	1.99	-1.2358	0.	127.95
2672	1.5679	-1.1207	0.	124.8
2673	1.3684	-0.97031	0.	124.23
2674	6.2526	7.0074	0.	126.96
2675	6.5024	7.2568	0.	125.9
2676	6.5041	6.7602	0.	125.84
2677	1.7656	7.0355	0.	127.54
2678	1.997	7.2812	0.	127.46
2679	1.905	6.7881	0.	126.88
2680	2.2287	7.0247	0.	127.29
2681	1.7532	1.992	0.	127.42
2682	1.5047	1.7425	0.	127.26
2683	1.5038	2.2367	0.	127.71
2684	1.2534	1.9894	0.	127.81
2685	-2.7431	2.0188	0.	127.95
2686	-2.2445	2.0154	0.	128.44
2687	-2.496	1.7625	0.	127.91
2688	-2.4886	2.2742	0.	128.35
2689	1.47	-6.0149	0.	126.15
2690	1.4032	-5.589	0.	124.22
2691	1.2662	-5.7947	0.	125.66
2692	4.2185	-6.9837	0.	127.82
2693	4.7295	-6.9919	0.	128.63
2694	4.4781	-7.239	0.	127.95
2695	4.4729	-6.7373	0.	128.23
2696	3.705	-6.9767	0.	127.56
2697	3.9582	-6.726	0.	127.77
2698	3.9691	-7.2329	0.	127.63
2699	3.1927	-6.9821	0.	127.45
2700	3.4593	-7.2309	0.	127.53
2701	2.6898	-7.0272	0.	127.38
2702	2.9529	-7.2472	0.	127.47
2703	2.1947	-7.0847	0.	127.37
2704	2.4548	-7.3018	0.	127.42
2705	1.7009	-7.1102	0.	127.47
2706	1.9571	-7.3361	0.	127.39
2707	1.4607	-7.3471	0.	127.39
2708	1.2072	-7.1107	0.	127.62
2709	1.4515	-6.8906	0.	127.61
2710	3.2638	-4.4154	0.	129.54
2711	3.5405	-4.1854	0.	128.45
2712	3.4744	-1.8494	0.	130.94
2713	3.217	-2.0099	0.	131.08
2714	3.0232	-1.7642	0.	131.45
2715	-3.984	-6.2676	0.	131.25
2716	-3.7327	-6.0318	0.	130.93
2717	-4.2278	-6.0166	0.	131.43
2718	-3.9646	-5.7761	0.	130.66
2719	-3.2042	7.3529	0.	128.13
2720	-3.3815	7.0926	0.	129.25
2721	-3.0929	6.898	0.	128.43
2722	-4.2411	3.0347	0.	128.11
2723	-3.9761	3.29	0.	129.82
2724	-5.306	3.0646	0.	124.02
2725	-5.7423	3.3063	0.	123.09
2726	-5.8446	3.0063	0.	123.23
2727	-5.5553	2.8148	0.	123.16
2728	-5.5204	3.3253	0.	123.33
2729	3.9591	-6.2189	0.	128.15
2730	4.2125	-6.4796	0.	128.19
2731	-3.0105	0.23612	0.	129.02
2732	-2.757	-1.2622e-002	0.	128.78
2733	-3.0067	-0.26845	0.	129.46
2734	-3.0007	1.2538	0.	128.03
2735	-2.9954	1.7646	0.	127.86
2736	-3.2486	1.5092	0.	127.86
2737	-2.7483	1.5083	0.	127.83
2738	-2.9776	2.789	0.	129.32
2739	-2.9883	2.2764	0.	128.28
2740	-3.2355	2.5316	0.	128.55
2741	-2.7338	2.5318	0.	128.68
2742	-5.0087	2.2852	0.	125.27
2743	-5.0183	2.7911	0.	124.83
2744	-5.2675	2.5413	0.	123.98
2745	-5.0054	1.2728	0.	128.26
2746	-5.0184	0.76838	0.	129.21
2747	-5.26	1.0256	0.	129.37
2748	-5.5948	-0.21969	0.	128.36
2749	-5.815	3.6996e-002	0.	128.71
2750	-5.8319	-1.7262	0.	126.56
2751	-5.7483	-1.2223	0.	126.2
2752	-6.0373	-1.4636	0.	125.07
2753	-6.1225	-1.9689	0.	126.58
2754	-5.8986	-2.2314	0.	128.16
2755	-4.9531	-3.269	0.	129.96
2756	-5.201	-3.0113	0.	130.16
2757	-4.9413	-2.7674	0.	129.62
2758	-4.9594	-4.7668	0.	129.55
2759	-4.9668	-5.2629	0.	130.31
2760	-5.2181	-5.0114	0.	129.43
2761	-5.2134	-4.514	0.	129.28
2762	-4.9557	-4.2693	0.	129.54
2763	3.2471	3.9974	0.	126.87
2764	2.9989	3.7448	0.	128.42
2765	2.9938	4.2444	0.	128.48
2766	4.2464	4.0101	0.	121.38
2767	4.4961	3.7647	0.	120.15
2768	4.7453	4.0198	0.	121.01
2769	4.4961	4.2627	0.	120.26
2770	2.0729	0.26975	0.	128.44
2771	1.842	1.704e-002	0.	128.03
2772	2.3557	5.6363e-002	0.	129.18
2773	2.0045	1.7471	0.	127.37
2774	2.0128	1.255	0.	127.49
2775	2.2574	1.5065	0.	127.54
2776	1.756	1.4975	0.	127.21
2777	-3.6833	-1.0625	0.	129.96
2778	-3.9888	-0.84766	0.	129.68
2779	-3.9075	-1.3221	0.	129.57
2780	-3.9412	-3.794	0.	129.85
2781	-3.6792	-4.0505	0.	129.96
2782	-4.1896	-4.0392	0.	129.76
2783	-3.9544	-2.788	0.	129.28
2784	-3.9443	-2.2901	0.	129.06
2785	-4.1969	-2.5342	0.	129.14
2786	-3.7071	-2.5365	0.	128.98
2787	1.2691	7.0134	0.	128.2
2788	1.5285	7.274	0.	128.01
2789	1.6781	6.7831	0.	127.21
2790	3.6102	-2.4912	0.	129.39
2791	3.6769	-2.0915	0.	130.32
2792	3.4195	-2.2521	0.	130.47
2793	3.888	-2.3397	0.	129.5
2794	3.5516	-2.8793	0.	128.37
2795	3.5604	-3.2776	0.	127.7
2796	3.2954	-3.0509	0.	128.02
2797	3.7786	-2.9821	0.	127.75
2798	3.3426	-2.6494	0.	129.32
2799	3.7956	-2.789	0.	128.2
2800	3.7763	-0.91914	0.	127.96
2801	3.9285	-1.1108	0.	128.9
2802	3.722	-1.2975	0.	129.61
2803	3.517	-1.0784	0.	129.25
2804	-3.9521	-3.2903	0.	129.69
2805	-3.7081	-3.0387	0.	129.57
2806	-3.6974	-3.5437	0.	130.15
2807	-3.6953	-2.0395	0.	129.09
2808	-3.9233	-1.801	0.	129.24
2809	2.0032	2.2414	0.	127.9
2810	2.0039	2.7359	0.	128.88
2811	1.7538	2.4861	0.	128.2
2812	2.2528	2.4922	0.	128.61
2813	2.2534	1.9988	0.	127.75
2814	-5.2067	-3.5141	0.	130.29
2815	-4.9546	-3.77	0.	129.85
2816	-6.3279	-1.7063	0.	125.07
2817	-6.6249	-1.9408	0.	125.71
2818	-6.4064	-2.2149	0.	127.22
2819	-5.6644	-0.72026	0.	127.08
2820	-5.9492	-0.96125	0.	125.61
2821	-5.8711	-0.46178	0.	127.38
2822	-5.2533	2.0331	0.	125.41
2823	-5.0028	1.7785	0.	126.69
2824	-2.9616	3.3029	0.	130.67
2825	-2.6976	3.5628	0.	131.32
2826	-2.9397	3.8184	0.	131.77
2827	-2.7201	3.0461	0.	129.95
2828	-3.0063	0.74413	0.	128.52
2829	-2.7524	0.99944	0.	128.17
2830	-2.7566	0.49182	0.	128.63
2831	2.0339	0.76437	0.	128.04
2832	1.7978	0.51279	0.	128.07
2833	2.3023	0.53634	0.	128.94
2834	1.7698	1.0058	0.	127.59
2835	2.2727	1.0206	0.	128.13
2836	2.0051	3.2305	0.	129.95
2837	2.2537	2.9872	0.	129.49
2838	1.7559	2.9792	0.	129.3
2839	1.7576	3.4718	0.	130.45
2840	2.0044	3.7251	0.	130.85
2841	1.9597	5.2239	0.	130.
2842	1.9157	5.7369	0.	127.82
2843	1.6952	5.4574	0.	129.43
2844	2.1964	5.486	0.	129.05
2845	3.7465	4.0035	0.	123.83
2846	3.4977	3.7511	0.	125.59
2847	3.4935	4.2509	0.	125.55
2848	3.9943	4.2565	0.	122.09
2849	3.9969	3.7569	0.	122.16
2850	3.9755	-5.7125	0.	128.48
2851	4.0005	-5.2059	0.	128.42
2852	4.2398	-5.4731	0.	128.79
2853	4.2213	-5.9762	0.	128.66
2854	-4.7602	3.0387	0.	126.12
2855	-5.002	3.2916	0.	125.56
2856	-4.4877	3.2856	0.	128.19
2857	-3.9933	-6.7605	0.	131.2
2858	-3.9973	-7.2553	0.	130.76
2859	-4.2455	-7.0054	0.	131.14
2860	-3.7473	-7.0113	0.	131.1
2861	-4.2397	-6.5109	0.	131.74
2862	-3.7433	-6.5203	0.	131.45
2863	1.7372	-1.3917	0.	125.95
2864	1.887	-1.6854	0.	128.23
2865	2.1532	-1.529	0.	129.49
2866	3.0033	-4.1604	0.	130.14
2867	2.7348	-4.3862	0.	131.15
2868	3.5691	-3.7126	0.	127.82
2869	3.28	-3.9304	0.	129.05
2870	3.3034	-3.4713	0.	128.12
2871	-3.053	7.615	0.	127.79
2872	-3.3168	7.8174	0.	127.34
2873	-3.5042	7.5566	0.	128.09
2874	-2.8586	7.8727	0.	127.47
2875	-2.6267	7.6534	0.	127.95
2876	1.2232	-6.2185	0.	127.69
2877	1.4548	-6.4467	0.	127.28
2878	3.9349	-1.9084	0.	130.49
2879	3.7124	-1.6873	0.	130.46
2880	2.1715	-5.3339	0.	126.23
2881	2.4481	-5.1013	0.	128.13
2882	1.6152	-5.3513	0.	124.01
2883	1.915	-5.0905	0.	125.54
2884	7.0105	5.7685	0.	124.86
2885	7.2593	6.0136	0.	123.95
2886	6.7582	6.0165	0.	125.58
2887	7.262	5.5166	0.	123.88
2888	7.0116	5.2742	0.	125.43
2889	6.7598	5.5221	0.	126.29
2890	5.1138	-3.4925	0.	123.47
2891	5.3606	-3.6968	0.	122.64
2892	7.7008	-2.2718	0.	121.35
2893	7.4745	-1.9875	0.	122.73
2894	7.9687	-1.9381	0.	123.62
2895	7.9646	-2.1425	0.	123.8
2896	7.711	-1.7533	0.	123.04
2897	3.168	-7.1589e-002	0.	130.4
2898	3.4632	-0.27956	0.	128.19
2899	3.2455	-0.47437	0.	129.25
2900	3.9839	-0.92265	0.	127.86
2901	3.7734	-0.50407	0.	126.81
2902	4.0866	-0.69659	0.	125.7
2903	3.5557	-0.69888	0.	127.89
2904	1.0276	7.2535	0.	128.52
2905	1.1167	6.7253	0.	127.71
2906	0.80236	7.2163	0.	128.5
2907	0.74616	6.8747	0.	128.11
2908	6.0016	7.2555	0.	127.94
2909	6.0025	6.7584	0.	127.95
2910	5.7514	7.0052	0.	130.87
2911	5.0334	-4.7918	0.	126.57
2912	5.2931	-4.5757	0.	124.12
2913	4.9859	-7.2453	0.	128.84
2914	4.9834	-6.7471	0.	129.3
2915	5.2382	-6.9976	0.	131.34
2916	-2.125	6.4233	0.	126.95
2917	-1.8274	6.848	0.	128.78
2918	-1.7287	6.6108	0.	129.5
2919	-2.0568	6.9087	0.	128.27
2920	2.9616	6.7504	0.	128.59
2921	2.9807	7.2504	0.	128.88
2922	3.229	6.9992	0.	131.41
2923	2.7186	7.0044	0.	128.16
2924	1.7599	7.5197	0.	127.95
2925	1.287	7.5141	0.	128.33
2926	1.5066	7.7628	0.	128.05
2927	2.2463	7.5158	0.	127.81
2928	1.9986	7.7667	0.	127.83
2929	2.74	7.5053	0.	128.36
2930	2.4929	7.7584	0.	128.08
2931	2.4779	7.2593	0.	127.64
2932	3.7234	-7.487	0.	127.6
2933	4.2286	-7.4882	0.	127.76
2934	3.9811	-7.739	0.	127.79
2935	3.2195	-7.4959	0.	127.55
2936	3.4778	-7.7413	0.	127.71
2937	2.7179	-7.5217	0.	127.5
2938	2.976	-7.7551	0.	127.65
2939	2.2172	-7.5533	0.	127.43
2940	2.475	-7.7823	0.	127.57
2941	1.7169	-7.5731	0.	127.31
2942	1.9736	-7.805	0.	127.42
2943	1.2178	-7.5763	0.	127.
2944	1.4729	-7.8161	0.	127.15
2945	0.72058	-7.5667	0.	126.39
2946	0.96436	-7.3399	0.	127.24
2947	0.97386	-7.8128	0.	126.64
2948	4.7345	-7.4924	0.	128.16
2949	4.4844	-7.7413	0.	127.99
2950	0.22587	-7.5507	0.	125.42
2951	0.47692	-7.8009	0.	125.89
2952	0.46876	-7.3219	0.	126.57
2953	7.4104	-2.479	0.	119.51
2954	7.6294	-2.7709	0.	117.74
2955	7.8892	-2.6137	0.	122.79
2956	4.5998	-2.631	0.	126.76
2957	4.8404	-2.8495	0.	125.15
2958	4.3011	-2.8821	0.	126.84
2959	5.5826	-3.9191	0.	121.83
2960	5.8068	-4.1502	0.	120.12
2961	5.5541	-4.3704	0.	122.34
2962	5.349	-3.2661	0.	123.73
2963	5.1003	-3.0565	0.	123.98
2964	-3.4539	-1.2901	0.	130.06
2965	-3.2213	-1.0303	0.	130.32
2966	-3.4906	-0.79172	0.	130.09
2967	-3.4096	-4.31	0.	129.55
2968	-3.4354	-3.8002	0.	130.26
2969	-3.1719	-4.0523	0.	130.32
2970	-3.1366	-4.5699	0.	128.49
2971	-3.3803	-4.8165	0.	128.73
2972	-3.492	-6.2845	0.	131.13
2973	-3.2479	-6.0515	0.	130.73
2974	-3.4713	-5.7986	0.	130.08
2975	3.2495	3.4985	0.	127.15
2976	3.0009	3.2472	0.	128.94
2977	4.2466	3.5115	0.	120.92
2978	4.7439	3.5224	0.	120.15
2979	4.4952	3.2651	0.	118.67
2980	2.5063	1.7583	0.	127.92
2981	2.5173	1.2722	0.	128.17
2982	2.7603	1.5199	0.	128.07
2983	2.5026	2.7434	0.	129.22
2984	2.7522	2.9949	0.	129.44
2985	-5.4546	-3.2564	0.	130.49
2986	-5.7	-2.9983	0.	130.71
2987	-5.4676	-4.2598	0.	129.5
2988	-5.7252	-4.5064	0.	129.18
2989	-5.4721	-4.7587	0.	129.15
2990	-5.9377	-2.7383	0.	130.09
2991	-6.1826	-2.4774	0.	128.81
2992	-6.5267	-1.4359	0.	122.94
2993	-6.2383	-1.2026	0.	124.46
2994	6.752	7.5056	0.	125.43
2995	6.2514	7.5048	0.	126.88
2996	6.5014	7.7544	0.	126.24
2997	7.2524	7.5055	0.	124.53
2998	7.0018	7.7548	0.	125.08
2999	7.5033	7.2562	0.	124.04
3000	7.7524	7.5044	0.	124.14
3001	7.502	7.7543	0.	124.45
3002	7.5053	6.7582	0.	123.7
3003	7.7539	7.0059	0.	123.76
3004	7.5079	6.2602	0.	123.39
3005	7.756	6.5072	0.	123.42
3006	7.5108	5.7617	0.	122.98
3007	7.7586	6.0078	0.	123.
3008	7.761	5.5073	0.	122.27
3009	7.5124	5.2624	0.	122.13
3010	5.2431	4.0327	0.	122.96
3011	4.9953	4.2732	0.	121.6
3012	4.9931	3.7775	0.	121.02
3013	5.4941	4.2856	0.	124.98
3014	5.7414	4.0464	0.	126.16
3015	5.4896	3.7936	0.	123.82
3016	1.1903	-5.5812	0.	124.45
3017	1.3644	-5.1222	0.	122.
3018	1.0514	-5.3365	0.	122.69
3019	-1.1077	4.2075	0.	119.81
3020	-0.88633	4.5293	0.	115.93
3021	-0.88106	4.1126	0.	115.88
3022	-0.64398	4.331	0.	114.61
3023	1.5059	4.2017	0.	131.77
3024	1.2587	4.4331	0.	131.33
3025	1.4937	4.6932	0.	132.41
3026	2.1129	6.5222	0.	126.77
3027	1.8531	6.2659	0.	126.58
3028	1.5257	6.4951	0.	126.73
3029	2.2257	4.979	0.	130.56
3030	1.7306	4.9548	0.	131.82
3031	-6.2775	0.54558	0.	128.1
3032	-6.0192	0.79047	0.	130.37
3033	-6.0468	0.29224	0.	128.96
3034	1.3331	-1.1718	0.	123.41
3035	1.4756	-1.5306	0.	122.55
3036	-2.153	4.0888	0.	131.13
3037	-2.4033	4.3459	0.	132.19
3038	-2.4286	3.8253	0.	131.63
3039	-2.6707	4.081	0.	132.08
3040	-2.5031	0.24308	0.	128.39
3041	-2.4993	-0.25879	0.	128.17
3042	-2.2492	-7.5412e-003	0.	127.58
3043	1.5129	1.2483	0.	127.3
3044	1.2573	1.4946	0.	127.37
3045	1.567	0.26007	0.	127.66
3046	1.3249	1.0409e-002	0.	127.2
3047	1.5095	3.7111	0.	130.92
3048	1.2641	3.9467	0.	130.75
3049	1.7563	3.9644	0.	131.31
3050	1.5058	2.7294	0.	128.62
3051	1.2543	2.4825	0.	128.13
3052	2.7264	4.9924	0.	129.77
3053	2.4625	5.2411	0.	129.6
3054	2.6796	6.5048	0.	127.62
3055	2.4143	6.256	0.	127.31
3056	2.4366	6.7588	0.	127.18
3057	2.9839	4.7459	0.	129.02
3058	3.2401	4.498	0.	127.16
3059	5.7471	4.5362	0.	127.22
3060	6.	4.7853	0.	129.15
3061	6.2495	4.5435	0.	129.92
3062	5.9944	4.297	0.	128.39
3063	4.7461	4.5161	0.	120.85
3064	4.244	4.5091	0.	120.97
3065	4.4951	4.7601	0.	118.69
3066	6.506	6.2645	0.	126.2
3067	6.254	6.5111	0.	126.83
3068	6.7589	5.0297	0.	127.29
3069	6.2542	5.0308	0.	129.09
3070	6.5037	4.789	0.	129.86
3071	6.5071	5.2776	0.	128.15
3072	4.4747	-6.2369	0.	128.7
3073	4.7268	-6.4925	0.	128.89
3074	-4.2227	3.5408	0.	129.9
3075	-3.9613	3.7965	0.	131.64
3076	-4.4835	-6.2598	0.	131.93
3077	-4.7299	-6.0092	0.	132.29
3078	-4.4696	-5.7653	0.	131.27
3079	-3.749	-7.5054	0.	130.66
3080	-3.4989	-7.2613	0.	131.
3081	-3.4996	-7.7553	0.	130.79
3082	-3.2496	-7.5095	0.	131.02
3083	-4.2483	-7.5025	0.	130.58
3084	-3.9991	-7.7528	0.	130.68
3085	-4.4965	-7.2525	0.	130.96
3086	-4.748	-7.5008	0.	130.58
3087	-4.4986	-7.751	0.	130.83
3088	3.1519	-2.4103	0.	130.39
3089	2.9611	-2.1616	0.	131.72
3090	1.0194	-5.9983	0.	127.2
3091	0.82641	-5.7541	0.	127.28
3092	0.96033	-6.8781	0.	128.08
3093	0.71255	-7.0951	0.	127.42
3094	4.1459	-2.1566	0.	129.66
3095	4.372	-2.3864	0.	128.23
3096	4.0734	-2.6375	0.	128.31
3097	4.1529	-1.3115	0.	129.83
3098	4.3336	-1.0877	0.	129.61
3099	7.1999	-1.7413	0.	123.86
3100	7.1841	-2.1947	0.	120.97
3101	6.943	-1.9502	0.	124.02
3102	7.1907	-1.2912	0.	124.68
3103	7.4364	-1.5071	0.	124.15
3104	6.9504	-1.5142	0.	125.76
3105	4.4081	-1.9276	0.	130.08
3106	4.1688	-1.7194	0.	130.57
3107	0.97297	-6.4298	0.	128.48
3108	0.71214	-6.6329	0.	129.15
3109	1.2046	-6.658	0.	128.08
3110	0.73739	-6.1856	0.	129.28
3111	-3.1223	8.0751	0.	127.02
3112	-3.6	8.0346	0.	126.67
3113	-3.3918	8.2934	0.	126.74
3114	-2.6393	8.0991	0.	127.38
3115	-2.9041	8.3284	0.	126.95
3116	-2.136	8.0849	0.	127.59
3117	-2.4137	8.336	0.	127.27
3118	-2.4073	7.8797	0.	127.86
3119	-1.9301	7.8227	0.	128.17
3120	-1.6478	8.1469	0.	126.74
3121	-1.6555	7.9587	0.	127.49
3122	-1.9096	8.3241	0.	127.13
3123	-1.7539	7.5152	0.	128.33
3124	-2.0413	7.3599	0.	128.72
3125	-2.2015	7.6175	0.	128.44
3126	-3.7874	7.7737	0.	127.42
3127	-3.9694	7.5114	0.	128.69
3128	-3.6814	7.2962	0.	129.21
3129	-3.8784	8.2593	0.	126.77
3130	-4.0754	7.9981	0.	126.7
3131	-3.6702	8.5181	0.	126.85
3132	-4.1734	8.4873	0.	127.9
3133	-3.9407	8.751	0.	127.41
3134	3.0383	-3.2446	0.	128.43
3135	3.0143	-3.6891	0.	129.34
3136	2.7341	-3.4198	0.	129.34
3137	1.6254	-1.8244	0.	124.84
3138	1.8022	-2.1784	0.	130.57
3139	2.0591	-1.9621	0.	130.6
3140	2.1916	-4.8579	0.	127.44
3141	2.4636	-4.616	0.	130.4
3142	-4.492	-6.7557	0.	131.69
3143	-4.7451	-7.0027	0.	131.97
3144	-4.7395	-6.5058	0.	133.
3145	-3.6652	6.072	0.	130.32
3146	-3.4505	6.3408	0.	129.67
3147	-3.0952	6.1631	0.	128.34
3148	-3.3835	5.855	0.	129.21
3149	-3.4174	4.8296	0.	131.1
3150	-3.6853	4.5633	0.	132.34
3151	-3.433	4.3188	0.	132.04
3152	-3.1656	4.5849	0.	131.87
3153	-3.1451	5.1019	0.	130.4
3154	-3.6732	5.0704	0.	130.72
3155	-3.3978	5.3457	0.	129.81
3156	-4.7294	3.5384	0.	127.64
3157	-4.9763	3.787	0.	126.78
3158	-5.2163	3.5523	0.	124.88
3159	-4.4715	3.7878	0.	130.42
3160	4.7322	-5.9954	0.	129.58
3161	4.4856	-5.7368	0.	128.97
3162	6.2555	6.0159	0.	127.51
3163	6.5074	5.7701	0.	127.01
3164	5.2463	4.5261	0.	123.64
3165	4.997	4.7678	0.	121.4
3166	5.4973	4.7775	0.	126.36
3167	3.7413	4.5039	0.	123.81
3168	3.9907	4.7561	0.	121.55
3169	4.9743e-002	4.1409	0.	117.65
3170	0.29333	4.3809	0.	121.15
3171	5.2242e-002	4.5989	0.	116.71
3172	-0.18066	4.3595	0.	115.28
3173	1.5084	3.2205	0.	129.81
3174	1.258	2.9725	0.	129.14
3175	1.2624	3.4604	0.	130.21
3176	1.5337	0.75424	0.	127.62
3177	1.293	0.50473	0.	127.9
3178	1.2702	0.99992	0.	127.68
3179	0.31693	-0.50692	0.	123.21
3180	-0.199	-0.52941	0.	121.41
3181	8.5764e-002	-0.80814	0.	123.76
3182	4.6092e-002	-0.27088	0.	121.42
3183	0.59676	-0.71481	0.	123.61
3184	0.56385	-0.24119	0.	124.76
3185	0.83507	-0.48757	0.	124.59
3186	-2.5027	0.74713	0.	128.28
3187	-2.2508	0.99992	0.	128.27
3188	-2.4999	1.2539	0.	127.97
3189	-2.2512	0.49481	0.	128.39
3190	-2.2186	3.0446	0.	129.94
3191	-2.4561	3.3059	0.	130.6
3192	-2.4762	2.7888	0.	129.32
3193	0.87581	-0.9831	0.	123.01
3194	1.0684	-1.2695	0.	121.23
3195	1.1141	-0.75586	0.	124.01
3196	0.36559	-1.016	0.	124.16
3197	0.58978	-1.156	0.	122.92
3198	-5.7528	2.0345	0.	125.74
3199	-5.5122	2.2892	0.	124.11
3200	-5.5029	1.7832	0.	126.63
3201	-6.7738	0.55233	0.	123.61
3202	-7.2697	0.55286	0.	117.59
3203	-7.0345	0.30553	0.	122.5
3204	-7.0148	0.80516	0.	119.55
3205	-6.5414	0.30188	0.	127.02
3206	-6.5182	0.79899	0.	127.66
3207	1.6313	5.9695	0.	126.95
3208	2.1544	5.9997	0.	127.12
3209	1.0169	4.1781	0.	130.31
3210	1.0081	4.6588	0.	131.68
3211	0.77403	4.4054	0.	127.75
3212	-1.6171	4.0971	0.	126.96
3213	-1.3608	4.3788	0.	124.15
3214	-1.1155	4.0068	0.	119.72
3215	-1.3898	3.8239	0.	126.25
3216	-2.8639	5.3854	0.	129.34
3217	-2.5773	5.6519	0.	128.56
3218	-2.8283	5.9373	0.	127.88
3219	-3.1167	5.6291	0.	128.76
3220	-2.6205	5.1245	0.	130.88
3221	-2.8932	4.8572	0.	131.15
3222	-2.8489	-4.8535	0.	126.95
3223	-2.8989	-4.3122	0.	129.27
3224	-2.6256	-4.5538	0.	127.39
3225	-2.6977	-5.36	0.	126.26
3226	-2.5513	-5.0847	0.	125.21
3227	-2.9119	-5.3666	0.	127.18
3228	-3.0927	-5.1001	0.	127.2
3229	5.9818	3.3254	0.	125.5
3230	6.2325	3.5768	0.	127.62
3231	5.9873	3.8106	0.	126.96
3232	5.7355	3.5578	0.	124.63
3233	7.0086	4.7835	0.	126.87
3234	7.262	5.02	0.	123.68
3235	7.8319	-3.737e-002	0.	122.45
3236	7.3517	-0.11179	0.	123.87
3237	7.577	0.18206	0.	123.47
3238	7.6111	-0.30367	0.	122.2
3239	-7.7674	0.53842	0.	114.26
3240	-7.5137	0.8102	0.	112.57
3241	-7.5266	0.29685	0.	115.93
3242	-6.3625	-0.44657	0.	127.17
3243	-6.1559	-0.70278	0.	125.91
3244	-6.0913	-0.20509	0.	127.72
3245	-6.9386	-2.1951	0.	125.86
3246	-6.9575	-2.7269	0.	125.9
3247	-7.1657	-2.6844	0.	123.14
3248	-7.2533	-2.3631	0.	126.94
3249	-6.7201	-2.4692	0.	127.4
3250	-5.462	-3.7591	0.	130.21
3251	-5.72	-4.006	0.	130.19
3252	-5.2099	-4.015	0.	129.76
3253	-5.7114	-3.5034	0.	131.1
3254	2.5031	2.2495	0.	128.46
3255	2.7525	2.4995	0.	129.39
3256	2.7542	2.0074	0.	128.62
3257	3.7481	3.5044	0.	123.93
3258	3.9978	3.2573	0.	121.94
3259	3.4995	3.2524	0.	126.55
3260	2.8101	0.57023	0.	130.59
3261	2.5412	0.79261	0.	129.03
3262	2.5851	0.32295	0.	129.67
3263	-3.4973	-6.7711	0.	131.35
3264	-3.2507	-6.5321	0.	131.89
3265	-3.2499	-7.0188	0.	131.65
3266	-2.355	-5.5541	0.	125.07
3267	-2.557	-5.82	0.	128.07
3268	-2.79	-5.5943	0.	127.51
3269	-8.0137	0.79463	0.	114.3
3270	-8.0173	0.2651	0.	112.18
3271	-8.2661	0.50124	0.	116.16
3272	-7.76	1.0664	0.	112.58
3273	-8.2602	1.0322	0.	118.84
3274	-8.0166	1.3531	0.	116.12
3275	-3.4501	-1.7882	0.	129.51
3276	-3.6781	-1.5497	0.	129.67
3277	-3.2065	-1.5323	0.	130.34
3278	-3.2132	-2.0303	0.	129.33
3279	-3.4582	-2.2859	0.	129.01
3280	-2.2441	-0.50821	0.	126.44
3281	-1.9941	-0.25696	0.	125.86
3282	-1.9905	-0.75694	0.	123.97
3283	-1.7377	-0.50865	0.	123.19
3284	-2.4915	-0.76011	0.	128.37
3285	-2.749	-0.51462	0.	128.85
3286	-3.4535	-3.2921	0.	130.03
3287	-3.4609	-2.7873	0.	129.27
3288	-3.2135	-3.0348	0.	130.01
3289	-3.1979	-3.5417	0.	131.06
3290	-0.46645	-0.27314	0.	118.52
3291	-0.45221	-0.78618	0.	122.43
3292	-0.71359	-0.52418	0.	120.2
3293	5.5958	-3.4704	0.	122.89
3294	5.6054	-3.0186	0.	123.42
3295	5.8429	-3.2451	0.	124.88
3296	5.8287	-3.6973	0.	122.77
3297	5.8639	-2.7906	0.	124.36
3298	5.6224	-2.5621	0.	122.04
3299	5.3567	-2.809	0.	123.68
3300	6.9095	-2.4011	0.	120.96
3301	7.1396	-2.6571	0.	116.61
3302	-1.7538e-002	-7.7857	0.	125.36
3303	-2.4456e-002	-7.2986	0.	124.88
3304	-0.26606	-7.5322	0.	125.99
3305	5.7508	7.5033	0.	129.86
3306	6.0008	7.7534	0.	128.04
3307	5.2408	-7.4964	0.	129.95
3308	4.9892	-7.745	0.	128.54
3309	1.2031	-4.3927	0.	120.41
3310	1.7022	-4.3678	0.	125.38
3311	1.459	-4.1362	0.	121.99
3312	1.4262	-4.6243	0.	121.53
3313	-5.7366	4.0075	0.	121.64
3314	-5.2251	4.0312	0.	124.84
3315	-5.4857	4.2685	0.	120.45
3316	-5.4651	3.7965	0.	122.94
3317	-7.4758	7.7961	0.	125.81
3318	-7.7249	7.5379	0.	126.82
3319	-7.2177	7.5698	0.	127.44
3320	-7.4638	7.2991	0.	129.23
3321	2.9508	6.2513	0.	128.56
3322	3.2143	6.5002	0.	130.03
3323	0.75329	2.4839	0.	129.56
3324	1.0039	2.2352	0.	128.22
3325	1.0066	2.7256	0.	128.65
3326	-1.9994	1.2526	0.	128.3
3327	-1.7491	1.5041	0.	129.63
3328	-1.997	1.7594	0.	128.52
3329	-2.2486	1.5066	0.	128.
3330	1.2109	-1.6282	0.	120.3
3331	1.3697	-1.9676	0.	121.11
3332	-7.2588	1.0625	0.	114.46
3333	-7.4974	1.3306	0.	107.08
3334	-6.4432	3.6258	0.	124.93
3335	-6.5431	3.2275	0.	125.81
3336	-6.1119	3.4443	0.	124.29
3337	-6.2142	3.1443	0.	124.42
3338	-2.2714	5.9115	0.	127.43
3339	-1.9399	6.1437	0.	130.47
3340	-2.5224	6.1969	0.	126.78
3341	6.4742	2.874	0.	125.84
3342	6.4743	2.4003	0.	127.45
3343	6.7206	2.6581	0.	127.99
3344	6.2261	2.6184	0.	125.98
3345	7.4171	-1.0393	0.	123.45
3346	6.9613	-1.0751	0.	126.34
3347	7.1915	-0.83247	0.	123.07
3348	-6.8238	-1.6704	0.	123.54
3349	-6.7251	-1.1738	0.	123.06
3350	-7.0146	-1.3912	0.	124.9
3351	-5.9823	-4.753	0.	129.16
3352	-5.9777	-4.2526	0.	129.86
3353	-6.2349	-4.5015	0.	130.65
3354	7.3586	-2.949	0.	114.51
3355	7.8387	-3.0919	0.	121.7
3356	7.5758	-3.2428	0.	114.87
3357	6.997	1.0227	0.	128.97
3358	7.241	1.3139	0.	124.81
3359	6.982	1.5064	0.	131.53
3360	6.7438	1.2367	0.	128.01
3361	8.0109	5.2493	0.	121.07
3362	8.2601	4.9936	0.	121.41
3363	8.0106	4.7369	0.	118.37
3364	7.7623	5.0044	0.	120.91
3365	8.0088	5.7534	0.	122.31
3366	8.2586	5.4995	0.	122.41
3367	8.0067	6.2548	0.	123.03
3368	8.2569	6.0028	0.	123.07
3369	8.0047	6.7549	0.	123.49
3370	8.2549	6.5039	0.	123.5
3371	8.003	7.2542	0.	123.87
3372	8.2533	7.0037	0.	123.82
3373	8.0018	7.7532	0.	124.24
3374	8.2521	7.5031	0.	124.12
3375	-5.9859	-5.2524	0.	128.88
3376	-6.2379	-5.0017	0.	131.
3377	-5.7291	-5.0053	0.	129.14
3378	-5.734	-5.5036	0.	129.41
3379	-5.4835	-5.7542	0.	131.43
3380	-5.2259	-5.5079	0.	130.54
3381	-5.4772	-5.2565	0.	129.67
3382	-7.7325	8.0335	0.	124.83
3383	-7.4808	8.288	0.	126.09
3384	-7.2283	8.0573	0.	127.45
3385	-7.9817	7.7753	0.	125.81
3386	-8.2319	7.5203	0.	126.38
3387	-7.9744	7.2767	0.	128.33
3388	-7.9863	8.2718	0.	125.1
3389	-8.2371	8.0184	0.	124.88
3390	3.7356	-7.9933	0.	127.9
3391	4.2369	-7.992	0.	128.02
3392	3.9895	-8.2435	0.	128.12
3393	3.2343	-8.0005	0.	127.81
3394	3.4887	-8.2465	0.	128.03
3395	2.7331	-8.0157	0.	127.71
3396	2.988	-8.2556	0.	127.93
3397	2.2314	-8.034	0.	127.55
3398	2.4868	-8.2704	0.	127.79
3399	1.7296	-8.048	0.	127.27
3400	1.9848	-8.2848	0.	127.57
3401	1.2289	-8.0527	0.	126.79
3402	1.4831	-8.294	0.	127.2
3403	0.7302	-8.0471	0.	126.14
3404	0.98303	-8.2935	0.	126.64
3405	0.23352	-8.0359	0.	125.83
3406	0.48477	-8.2853	0.	126.04
3407	-1.1696e-002	-8.2748	0.	125.93
3408	-0.26114	-8.0229	0.	127.65
3409	4.4901	-8.2437	0.	128.26
3410	4.7391	-7.9938	0.	128.37
3411	8.033	0.739	0.	121.54
3412	8.0125	1.2465	0.	118.31
3413	8.2716	1.0451	0.	121.95
3414	7.7751	0.94186	0.	122.05
3415	8.0568	0.24038	0.	122.27
3416	8.2858	0.51364	0.	122.77
3417	7.8019	0.45982	0.	123.3
3418	8.0827	-0.25095	0.	122.18
3419	8.3119	9.2998e-003	0.	122.75
3420	8.3321	-0.48224	0.	122.73
3421	8.1054	-0.73263	0.	122.43
3422	7.8619	-0.51725	0.	121.94
3423	8.1686	-1.6446	0.	124.06
3424	7.9109	-1.4598	0.	123.48
3425	8.3788	-1.4273	0.	124.24
3426	8.1314	-1.1984	0.	123.2
3427	8.1887	-2.0667	0.	124.67
3428	8.4128	-1.8759	0.	125.21
3429	8.1531	-2.4845	0.	125.26
3430	8.4049	-2.3121	0.	126.16
3431	8.0985	-2.9346	0.	126.74
3432	8.3561	-2.758	0.	127.65
3433	7.9998	-7.2306	0.	125.92
3434	7.9992	-6.7176	0.	125.45
3435	7.75	-6.9799	0.	127.81
3436	8.2489	-6.974	0.	125.89
3437	8.0001	-7.7392	0.	126.23
3438	7.7502	-7.4886	0.	127.28
3439	8.2496	-7.4852	0.	125.91
3440	2.9921	7.7513	0.	129.15
3441	3.2411	7.5	0.	130.81
3442	1.022	7.7546	0.	128.06
3443	0.8305	7.4736	0.	128.48
3444	1.2416	8.0032	0.	127.79
3445	0.73632	7.9427	0.	126.7
3446	0.96994	8.2386	0.	127.1
3447	1.7452	8.0098	0.	127.94
3448	1.4865	8.2535	0.	127.64
3449	2.2451	8.0093	0.	128.11
3450	1.9925	8.2578	0.	127.83
3451	2.7449	8.0044	0.	128.88
3452	2.4945	8.2554	0.	128.31
3453	6.7512	8.0037	0.	125.89
3454	6.5007	8.2528	0.	126.63
3455	6.2508	8.003	0.	127.4
3456	7.2514	8.0037	0.	125.
3457	7.001	8.2532	0.	125.5
3458	7.7514	8.0031	0.	124.55
3459	7.5011	8.2529	0.	124.85
3460	8.001	8.2522	0.	124.59
3461	8.2512	8.0022	0.	124.43
3462	8.5024	4.2529	0.	124.41
3463	8.7418	3.9647	0.	129.29
3464	8.2572	3.9681	0.	119.92
3465	8.4413	3.8084	0.	125.15
3466	-4.9967	-7.251	0.	131.59
3467	-5.2484	-7.5002	0.	132.23
3468	-4.9986	-7.7502	0.	131.18
3469	-3.2498	-8.0048	0.	131.14
3470	-2.9998	-7.759	0.	131.36
3471	-2.9998	-8.2546	0.	131.32
3472	-2.7497	-8.0055	0.	133.18
3473	-3.7497	-8.0027	0.	130.81
3474	-3.4999	-8.2527	0.	131.13
3475	-4.2494	-8.0012	0.	130.93
3476	-3.9997	-8.2514	0.	131.3
3477	-4.4995	-8.2504	0.	131.66
3478	-4.7492	-8.0003	0.	131.45
3479	6.6355	-2.5969	0.	123.37
3480	6.6684	-2.1565	0.	124.07
3481	6.3986	-2.3584	0.	122.53
3482	4.6341	-2.1574	0.	128.65
3483	4.872	-2.3744	0.	125.59
3484	0.34514	-5.6902	0.	129.43
3485	0.6875	-5.5094	0.	125.53
3486	0.54442	-5.9414	0.	129.34
3487	0.46436	-6.8499	0.	128.49
3488	0.21844	-7.0698	0.	126.04
3489	-1.5814	7.2372	0.	128.78
3490	-1.4157	6.9831	0.	127.42
3491	-1.8688	7.0819	0.	129.18
3492	-1.4275	8.0374	0.	126.66
3493	-1.196	8.2233	0.	124.1
3494	-1.4416	8.4306	0.	125.68
3495	2.8916	-2.5691	0.	131.04
3496	3.0864	-2.821	0.	128.96
3497	-4.9859	-6.2552	0.	133.36
3498	-5.2342	-6.0048	0.	132.73
3499	-4.9766	-5.7586	0.	131.85
3500	-4.1531	7.2471	0.	131.01
3501	-4.0621	6.7628	0.	133.19
3502	-3.8651	7.0318	0.	131.54
3503	-4.3385	6.9874	0.	134.04
3504	-3.9352	5.3042	0.	130.33
3505	-3.9415	5.7966	0.	130.54
3506	-4.2014	5.5372	0.	130.92
3507	-3.6598	5.5796	0.	129.43
3508	-4.2101	4.0436	0.	132.15
3509	-3.9498	4.3008	0.	132.68
3510	-3.6976	4.0564	0.	132.37
3511	7.9978	-6.1961	0.	125.15
3512	8.2476	-6.4586	0.	125.67
3513	7.7496	-6.4678	0.	125.83
3514	5.2375	-6.5011	0.	130.83
3515	4.9843	-6.251	0.	129.77
3516	5.0068	-5.2721	0.	129.09
3517	4.7677	-5.0071	0.	127.98
3518	5.264	-5.0457	0.	127.7
3519	6.0035	6.2624	0.	128.14
3520	5.7521	6.5081	0.	129.91
3521	6.003	5.2755	0.	129.4
3522	5.7502	5.0266	0.	128.3
3523	4.7459	5.0118	0.	119.21
3524	4.4947	5.2565	0.	113.64
3525	4.2417	5.0071	0.	119.24
3526	3.2307	4.9992	0.	128.2
3527	2.9706	5.2484	0.	129.5
3528	-0.65977	3.9077	0.	114.
3529	-0.19229	3.9075	0.	115.12
3530	-0.44729	3.6791	0.	109.26
3531	-0.42269	4.1261	0.	112.74
3532	1.0171	3.6959	0.	130.04
3533	0.77553	3.9292	0.	128.08
3534	1.0145	1.2462	0.	127.74
3535	0.75706	1.4948	0.	129.08
3536	1.0059	1.7416	0.	127.91
3537	0.80784	5.041e-003	0.	126.17
3538	1.051	0.25506	0.	127.45
3539	1.0791	-0.24134	0.	126.03
3540	-0.72857	-1.4877e-002	0.	117.73
3541	-0.22136	-1.4611e-002	0.	118.49
3542	-0.48149	0.23787	0.	112.61
3543	-1.7415	-8.0143e-003	0.	125.47
3544	-1.9973	0.24419	0.	127.59
3545	-1.978	2.7835	0.	129.39
3546	-1.7403	2.5192	0.	130.05
3547	-1.9916	2.2689	0.	128.86
3548	-2.2357	2.5277	0.	128.77
3549	-1.8854	4.3562	0.	130.76
3550	-1.9132	3.8292	0.	130.46
3551	-6.0039	2.269	0.	123.93
3552	-6.2653	2.5525	0.	125.46
3553	-6.0525	2.7152	0.	122.4
3554	-5.7632	2.5237	0.	122.33
3555	-6.2599	1.0439	0.	129.91
3556	-6.0051	1.2894	0.	130.75
3557	-5.7605	1.0351	0.	130.5
3558	-6.2763	3.9386	0.	122.72
3559	-5.9999	4.2374	0.	119.95
3560	-5.9449	3.7571	0.	122.05
3561	1.3039	6.1987	0.	127.08
3562	0.98004	6.3828	0.	132.17
3563	1.2431	4.9188	0.	132.75
3564	1.4662	5.1883	0.	131.23
3565	-1.1394	4.7007	0.	120.31
3566	-0.89208	4.983	0.	113.96
3567	-0.65991	4.7716	0.	113.78
3568	-2.3761	4.8687	0.	131.84
3569	-2.1356	4.6133	0.	131.81
3570	-2.6489	4.6014	0.	132.12
3571	7.7461	1.4325	0.	118.47
3572	8.2754	1.5829	0.	120.59
3573	7.9608	1.7529	0.	113.85
3574	-2.1042	-5.7673	0.	124.88
3575	-2.2086	-5.2789	0.	123.96
3576	-1.8734	-5.4963	0.	128.04
3577	6.2272	3.0965	0.	125.29
3578	6.4779	3.3479	0.	127.39
3579	6.7222	3.1242	0.	128.33
3580	6.4963	4.3045	0.	131.34
3581	6.7534	4.5428	0.	129.42
3582	-8.2649	-2.5714e-002	0.	112.83
3583	-7.7764	2.3527e-002	0.	113.87
3584	-8.0171	-0.25257	0.	105.87
3585	-6.5819	-0.19294	0.	127.32
3586	-6.8021	5.5081e-002	0.	125.88
3587	-6.3107	4.854e-002	0.	127.88
3588	-7.122	-1.8676	0.	125.47
3589	-6.1974	-2.9871	0.	130.58
3590	-5.9568	-3.2453	0.	131.31
3591	3.0941	0.36261	0.	131.39
3592	3.3744	0.14836	0.	130.85
3593	2.8691	0.11533	0.	130.48
3594	5.7322	3.0685	0.	124.11
3595	5.9791	2.8409	0.	125.4
3596	5.9924	1.4013	0.	123.67
3597	5.984	1.8775	0.	125.54
3598	6.2345	1.6638	0.	126.95
3599	5.7393	1.6088	0.	125.53
3600	-3.0005	-7.267	0.	131.66
3601	-2.7499	-7.5103	0.	132.47
3602	-2.7731	-6.0564	0.	130.12
3603	-3.0066	-6.2991	0.	131.49
3604	-3.006	-5.8308	0.	129.56
3605	-2.9729	-2.2752	0.	128.96
3606	-2.7303	-2.5201	0.	129.57
3607	-3.2179	-2.5309	0.	128.64
3608	-2.9705	-2.7785	0.	129.37
3609	-2.7335	-1.0156	0.	129.57
3610	-2.991	-0.77014	0.	130.06
3611	-2.9739	-1.2724	0.	130.59
3612	-2.9343	-3.7938	0.	131.12
3613	-2.6708	-4.0366	0.	130.52
3614	5.2537e-002	-1.3531	0.	126.79
3615	0.33737	-1.2272	0.	123.9
3616	-0.16745	-1.0649	0.	124.73
3617	-0.35009	-2.5401	0.	126.73
3618	8.0386e-002	-2.6244	0.	126.49
3619	-0.10653	-2.3385	0.	126.92
3620	-0.16606	-2.7886	0.	124.88
3621	6.0293	-4.3875	0.	120.4
3622	6.0529	-3.9284	0.	121.02
3623	6.2767	-4.1618	0.	122.26
3624	6.3657	-2.805	0.	124.74
3625	6.1014	-3.0171	0.	125.8
3626	6.1289	-2.5665	0.	123.92
3627	5.7766	-4.6078	0.	122.68
3628	5.5238	-4.8296	0.	125.26
3629	6.01	-4.8482	0.	123.21
3630	6.2554	-4.6289	0.	122.22
3631	6.8656	-2.8529	0.	119.02
3632	7.0909	-3.0964	0.	109.14
3633	6.5944	-3.0387	0.	129.89
3634	6.0757	-3.472	0.	124.74
3635	6.3301	-3.2508	0.	130.87
3636	6.299	-3.6984	0.	124.74
3637	-0.70639	-3.919	0.	113.87
3638	-0.95679	-3.6908	0.	114.29
3639	-0.94871	-4.1571	0.	109.63
3640	-1.1963	-3.9378	0.	115.08
3641	0.22025	-1.7013	0.	127.68
3642	-0.25067	-1.5818	0.	128.83
3643	-4.3588e-002	-1.863	0.	128.37
3644	-0.98224	-1.2667	0.	121.3
3645	-1.2294	-1.0142	0.	119.56
3646	-0.71128	-1.0308	0.	122.44
3647	-0.97266	-0.76876	0.	120.23
3648	-2.7022	-3.5288	0.	132.41
3649	-2.9579	-3.2845	0.	131.04
3650	-2.1761	-4.0054	0.	128.55
3651	-2.4387	-3.7716	0.	131.81
3652	-2.3976	-4.2782	0.	128.63
3653	-1.908	-4.2328	0.	130.11
3654	-1.9467	-3.7411	0.	124.58
3655	-1.6859	-3.9694	0.	122.23
3656	-2.2379	-1.0088	0.	125.9
3657	-1.989	-1.2563	0.	123.06
3658	-1.7366	-1.0082	0.	120.83
3659	-2.4847	-1.2615	0.	130.33
3660	-2.7285	-2.0185	0.	130.15
3661	-2.9696	-1.7743	0.	130.15
3662	-8.5153	1.2424	0.	126.35
3663	-8.5125	0.73886	0.	120.72
3664	-8.7582	0.99332	0.	125.53
3665	-8.7785	-9.2696e-002	0.	121.66
3666	-8.4849	-0.32059	0.	113.74
3667	-8.5137	0.21043	0.	116.92
3668	-2.3062	-6.0332	0.	127.91
3669	-1.857	-5.9921	0.	124.23
3670	-2.0443	-6.2597	0.	125.45
3671	-2.5257	-6.2911	0.	131.66
3672	-3.0033	-6.7798	0.	132.18
3673	-2.7592	-6.5337	0.	133.02
3674	-2.7518	-7.0189	0.	132.32
3675	6.0035	0.93066	0.	121.42
3676	5.764	0.68207	0.	120.02
3677	6.004	0.46651	0.	116.16
3678	6.2598	0.70598	0.	124.44
3679	5.7496	1.1378	0.	122.78
3680	6.2482	1.1863	0.	125.3
3681	6.2283	2.1398	0.	127.68
3682	5.735	2.0912	0.	127.09
3683	5.9801	2.3579	0.	126.2
3684	5.2376	3.0418	0.	121.29
3685	5.485	2.8067	0.	124.85
3686	5.486	3.3009	0.	123.24
3687	4.9911	2.7762	0.	119.39
3688	4.9912	3.2793	0.	119.94
3689	4.7426	3.0221	0.	118.43
3690	3.0455	0.81784	0.	130.97
3691	3.2747	1.0493	0.	131.88
3692	2.7765	1.0402	0.	129.41
3693	3.0196	1.2879	0.	129.3
3694	3.3123	0.59149	0.	133.75
3695	3.9991	2.7562	0.	122.59
3696	3.7492	3.0053	0.	124.58
3697	4.2465	3.011	0.	119.68
3698	3.2522	2.5044	0.	130.57
3699	3.0036	2.2573	0.	129.55
3700	3.0021	2.751	0.	129.61
3701	-6.23	-3.9995	0.	130.81
3702	-5.9694	-3.7503	0.	131.08
3703	-6.6797	-2.9839	0.	127.79
3704	-6.4574	-3.2369	0.	131.45
3705	-6.4423	-2.7262	0.	129.29
3706	-7.1224	-2.9432	0.	122.67
3707	-6.9467	-3.2325	0.	124.93
3708	-8.1961	-2.9682	0.	109.31
3709	-8.4684	-3.1499	0.	110.67
3710	-8.2879	-2.6603	0.	105.23
3711	-8.4969	-2.5714	0.	115.23
3712	-8.7164	-2.8953	0.	116.99
3713	-7.8373	-2.8793	0.	110.28
3714	-7.7325	-3.2447	0.	109.82
3715	-7.9818	-3.2955	0.	108.48
3716	-7.5289	-2.7902	0.	116.19
3717	-7.4242	-3.1556	0.	115.81
3718	-6.6432	-0.68434	0.	125.89
3719	-6.921	-0.91888	0.	123.12
3720	-6.4367	-0.94054	0.	124.64
3721	-6.8496	-0.4369	0.	129.35
3722	-7.2914	4.9524e-002	0.	120.79
3723	-7.0697	-0.18888	0.	127.95
3724	-7.5495	-0.20562	0.	119.79
3725	6.7576	0.7477	0.	129.24
3726	7.0274	0.54376	0.	129.69
3727	7.2646	0.83673	0.	126.49
3728	3.8675	0.16575	0.	127.98
3729	3.5926	0.37724	0.	133.21
3730	3.6696	-5.9612e-002	0.	128.64
3731	4.0808	0.38343	0.	126.72
3732	4.3485	0.18395	0.	128.58
3733	4.1561	-3.7528e-002	0.	125.27
3734	7.5059	4.2727	0.	116.75
3735	7.2589	4.527	0.	123.99
3736	7.7606	4.496	0.	118.16
3737	7.5124	4.7634	0.	120.78
3738	6.4864	3.8242	0.	130.47
3739	6.7423	4.0627	0.	134.67
3740	6.2412	4.058	0.	129.84
3741	6.7289	3.5921	0.	131.32
3742	0.92248	-4.6293	0.	120.4
3743	0.64375	-4.8389	0.	120.91
3744	1.1456	-4.8608	0.	121.47
3745	0.83261	-5.0751	0.	122.14
3746	0.71141	-4.4062	0.	128.28
3747	0.97272	-4.1903	0.	117.2
3748	-2.0387	-5.0049	0.	119.91
3749	-2.328	-4.785	0.	125.63
3750	6.4788	1.9261	0.	129.06
3751	6.7212	2.1891	0.	131.39
3752	6.7284	1.7186	0.	132.04
3753	6.4903	1.4488	0.	128.54
3754	7.4748	1.6019	0.	119.01
3755	7.5086	1.1279	0.	122.32
3756	-2.3339	5.391	0.	130.09
3757	-2.0441	5.6482	0.	126.9
3758	-2.1047	5.1359	0.	133.14
3759	-1.3687	4.9156	0.	126.86
3760	-1.6291	4.638	0.	127.96
3761	0.76274	4.8782	0.	129.31
3762	0.51559	5.0875	0.	128.4
3763	0.52867	4.6248	0.	125.39
3764	0.28758	4.8428	0.	120.97
3765	0.9861	5.1372	0.	134.99
3766	1.1359	5.8978	0.	124.76
3767	1.4108	5.69	0.	128.55
3768	-6.7957	3.9984	0.	123.69
3769	-6.5341	4.1814	0.	121.01
3770	-6.7643	3.7061	0.	128.97
3771	-6.7592	1.0518	0.	123.62
3772	-6.9974	1.3032	0.	118.59
3773	-6.5022	1.2972	0.	133.65
3774	-6.0015	1.7868	0.	128.39
3775	-6.2473	1.5427	0.	134.48
3776	-5.7516	1.5355	0.	129.28
3777	-6.2478	2.0452	0.	125.26
3778	0.78242	-1.4424	0.	121.12
3779	0.95065	-1.7384	0.	115.5
3780	0.50509	-1.5754	0.	124.82
3781	-0.21934	-3.9396	0.	126.1
3782	-0.44507	-3.6655	0.	119.19
3783	-0.47107	-4.1426	0.	111.94
3784	-0.92089	3.6948	0.	116.47
3785	-1.7232	3.034	0.	129.69
3786	-1.9512	3.3044	0.	130.29
3787	-1.7495	0.9993	0.	128.51
3788	-1.9993	0.7476	0.	128.37
3789	-0.98614	0.23997	0.	119.24
3790	-1.2338	-1.1181e-002	0.	121.53
3791	-0.97572	-0.26591	0.	119.45
3792	0.29301	-5.1486e-003	0.	122.97
3793	2.621e-002	0.2408	0.	120.6
3794	0.53986	0.25068	0.	127.11
3795	1.0296	0.75041	0.	127.96
3796	0.78297	0.5007	0.	128.36
3797	0.76655	0.9978	0.	128.09
3798	0.76808	3.4523	0.	129.63
3799	1.012	3.2123	0.	129.54
3800	3.6472e-002	3.6821	0.	118.97
3801	0.28913	3.9164	0.	122.03
3802	3.2134	6.0014	0.	129.32
3803	2.6856	6.0025	0.	128.25
3804	2.9571	5.7508	0.	129.25
3805	3.4805	5.2518	0.	128.72
3806	3.487	4.7513	0.	126.35
3807	3.7364	5.0035	0.	124.09
3808	4.9979	5.2618	0.	121.46
3809	5.248	5.0192	0.	124.14
3810	6.004	5.768	0.	128.95
3811	5.7525	5.5184	0.	130.05
3812	6.2559	5.5222	0.	128.45
3813	5.7527	6.0121	0.	129.15
3814	6.0008	-5.3089	0.	124.62
3815	6.2484	-5.084	0.	126.67
3816	5.7573	-5.07	0.	125.81
3817	5.2477	-5.5241	0.	131.2
3818	4.9915	-5.759	0.	130.19
3819	4.7449	-5.5004	0.	129.58
3820	7.7487	-5.9478	0.	123.69
3821	7.9941	-5.6554	0.	126.18
3822	8.2448	-5.9306	0.	126.76
3823	-8.2243	6.5188	0.	129.8
3824	-7.7068	6.5318	0.	133.81
3825	-7.974	6.2716	0.	130.16
3826	-7.9693	6.7755	0.	130.63
3827	-8.247	5.001	0.	125.43
3828	-7.749	5.0108	0.	125.66
3829	-7.9947	5.2578	0.	125.17
3830	-7.9962	4.748	0.	124.9
3831	-7.2601	4.1165	0.	120.64
3832	-7.4944	4.3348	0.	122.29
3833	-7.382	3.9679	0.	117.63
3834	-7.7219	4.0344	0.	120.42
3835	-7.019	4.3192	0.	123.34
3836	-7.1553	3.9582	0.	120.01
3837	-4.7184	4.0364	0.	129.56
3838	-4.9754	4.2773	0.	128.32
3839	-4.4641	4.287	0.	133.54
3840	-3.9411	4.804	0.	131.95
3841	-4.2037	4.5442	0.	134.06
3842	-4.2021	5.0422	0.	131.97
3843	-4.2167	6.0238	0.	132.94
3844	-3.985	6.281	0.	132.42
3845	-4.9926	-6.7528	0.	133.28
3846	-5.2461	-7.0012	0.	134.16
3847	-5.2412	-6.5029	0.	135.48
3848	1.9531	-4.091	0.	131.58
3849	1.9401	-4.605	0.	127.37
3850	2.2122	-4.3631	0.	130.3
3851	2.451	-2.474	0.	133.01
3852	2.6196	-2.7364	0.	130.34
3853	2.7008	-2.3203	0.	132.37
3854	2.18	-2.6176	0.	133.52
3855	2.0039	-2.4348	0.	133.08
3856	2.2607	-2.2185	0.	133.2
3857	2.8144	-2.9883	0.	128.27
3858	-5.0163	6.7228	0.	129.77
3859	-5.0613	7.1803	0.	131.47
3860	-5.2542	7.0351	0.	126.66
3861	-4.7971	6.9626	0.	132.94
3862	-4.4324	7.4715	0.	130.87
3863	-4.2574	7.7358	0.	127.96
3864	0.54479	7.6618	0.	127.12
3865	0.40799	7.3103	0.	126.61
3866	0.43872	8.1581	0.	125.11
3867	0.22305	7.777	0.	123.49
3868	-1.4793	7.6511	0.	127.64
3869	-1.2092	7.8189	0.	125.26
3870	-1.2762	7.4061	0.	127.86
3871	-6.4759e-002	8.4026	0.	121.34
3872	0.16353	8.3079	0.	122.41
3873	-5.2132e-002	7.9268	0.	120.77
3874	-0.29158	8.192	0.	119.88
3875	-0.97874	8.4377	0.	122.85
3876	-0.97772	8.0048	0.	122.71
3877	-0.7447	8.2092	0.	120.86
3878	0.21162	-6.5921	0.	128.36
3879	0.47655	-6.3886	0.	129.93
3880	4.6412	-1.7039	0.	130.23
3881	4.8833	-1.452	0.	130.01
3882	4.4019	-1.4956	0.	130.72
3883	4.5827	-1.2718	0.	130.48
3884	4.899	-1.9032	0.	126.99
3885	6.4241	-1.9162	0.	123.52
3886	6.6935	-1.7231	0.	125.96
3887	5.8874	-2.338	0.	121.54
3888	5.645	-2.0881	0.	117.97
3889	5.3783	-2.3461	0.	122.31
3890	6.1544	-2.1181	0.	122.
3891	8.507	4.739	0.	122.88
3892	8.7537	4.4756	0.	125.7
3893	8.2574	4.4823	0.	119.83
3894	8.7564	4.9877	0.	124.22
3895	8.5078	5.2438	0.	122.76
3896	8.5052	6.2519	0.	123.54
3897	8.755	6.0002	0.	124.03
3898	8.5068	5.7489	0.	123.18
3899	8.5036	6.7527	0.	123.83
3900	8.7536	6.502	0.	124.12
3901	8.7524	7.0022	0.	124.21
3902	8.5024	7.2526	0.	124.07
3903	2.9958	8.2514	0.	129.52
3904	3.246	8.0005	0.	129.98
3905	8.0001	-8.2439	0.	126.7
3906	8.2499	-7.9915	0.	126.46
3907	7.7502	-7.9932	0.	126.67
3908	8.3142	-3.2356	0.	130.58
3909	8.0506	-3.4188	0.	130.84
3910	8.25	-8.4952	0.	126.8
3911	7.7502	-8.4963	0.	126.99
3912	8.0001	-8.7464	0.	126.34
3913	3.7427	-8.4967	0.	128.26
3914	3.9946	-8.7464	0.	128.39
3915	4.2427	-8.4951	0.	128.37
3916	3.2424	-8.5016	0.	128.15
3917	3.4947	-8.7488	0.	128.35
3918	2.7417	-8.5104	0.	128.01
3919	2.9945	-8.7542	0.	128.24
3920	2.4938	-8.7623	0.	128.08
3921	2.2402	-8.5212	0.	127.8
3922	-7.193e-003	-8.766	0.	126.58
3923	-0.25716	-8.5153	0.	127.11
3924	0.23955	-8.5242	0.	126.14
3925	8.5345	1.3815	0.	124.26
3926	8.7837	1.8396	0.	129.76
3927	8.7987	1.5945	0.	127.36
3928	8.4566	1.9297	0.	125.71
3929	8.768	1.0712	0.	124.95
3930	8.5244	0.8197	0.	123.19
3931	8.8102	-0.46869	0.	124.16
3932	8.5809	-0.7096	0.	123.62
3933	8.5613	-0.222	0.	123.29
3934	8.6291	-2.1213	0.	126.7
3935	8.8588	-1.9087	0.	126.51
3936	8.623	-1.6586	0.	125.39
3937	8.8521	-2.3826	0.	127.91
3938	8.6079	-2.5857	0.	128.55
3939	8.5339	-3.5491	0.	132.71
3940	8.5717	-3.059	0.	131.55
3941	8.7936	-3.3436	0.	131.72
3942	8.746	-6.4606	0.	126.84
3943	8.4946	-6.193	0.	127.27
3944	8.4974	-6.715	0.	126.11
3945	8.4998	-8.2427	0.	126.56
3946	8.7496	-7.9913	0.	126.51
3947	8.4995	-7.7375	0.	126.14
3948	8.7498	-8.4948	0.	126.88
3949	8.4999	-8.7459	0.	126.68
3950	-4.7062	8.4396	0.	133.15
3951	-4.9771	8.6909	0.	134.41
3952	-5.2448	8.4904	0.	130.74
3953	-4.878	8.164	0.	131.35
3954	-3.1736	8.5466	0.	126.67
3955	-3.4412	8.7756	0.	126.72
3956	-2.6785	8.5653	0.	126.84
3957	-2.9432	8.7981	0.	126.73
3958	-2.1873	8.5752	0.	126.81
3959	-2.4489	8.8079	0.	126.8
3960	-1.7035	8.6078	0.	126.06
3961	-1.959	8.8195	0.	126.5
3962	-1.2244	8.645	0.	124.42
3963	-1.4736	8.8594	0.	125.46
3964	-0.75077	8.65	0.	122.61
3965	-0.98934	8.8753	0.	123.87
3966	-0.28991	8.632	0.	122.07
3967	-0.51117	8.8679	0.	122.71
3968	-0.51673	8.4215	0.	120.64
3969	0.16481	8.5239	0.	123.4
3970	-4.1398e-002	8.8375	0.	123.09
3971	0.67234	8.454	0.	125.51
3972	0.43	8.709	0.	124.68
3973	1.2149	8.4888	0.	126.95
3974	0.9605	8.732	0.	126.3
3975	1.7337	8.5015	0.	127.53
3976	1.479	8.7468	0.	127.04
3977	2.2418	8.5039	0.	128.03
3978	1.9886	8.7522	0.	127.44
3979	2.7454	8.5024	0.	128.95
3980	2.494	8.7524	0.	128.
3981	3.2472	8.5005	0.	130.41
3982	2.9966	8.7509	0.	128.9
3983	6.2502	8.5016	0.	127.65
3984	5.75	8.5009	0.	129.45
3985	6.	8.751	0.	127.88
3986	6.0003	8.2519	0.	128.41
3987	6.7505	8.5022	0.	126.24
3988	6.5002	8.7515	0.	126.61
3989	7.2507	8.5024	0.	125.36
3990	7.0005	8.7519	0.	125.69
3991	7.7508	8.502	0.	124.9
3992	7.5006	8.7519	0.	125.14
3993	8.2506	8.5014	0.	124.72
3994	8.0005	8.7514	0.	124.89
3995	8.5004	8.7509	0.	124.81
3996	8.7505	8.5009	0.	124.69
3997	8.5008	8.2515	0.	124.56
3998	-7.7346	8.5262	0.	126.39
3999	-8.2399	8.515	0.	124.97
4000	-7.9884	8.7662	0.	125.73
4001	-7.2293	8.5411	0.	129.47
4002	-7.48	8.7767	0.	128.34
4003	-8.605	3.251	0.	133.81
4004	-8.6459	2.7852	0.	131.25
4005	-8.4744	2.966	0.	136.67
4006	-8.8687	3.025	0.	133.07
4007	-8.7974	3.4935	0.	131.99
4008	-8.3006	3.4209	0.	129.27
4009	-8.5249	3.7271	0.	130.67
4010	-8.7463	4.9982	0.	126.38
4011	-8.4951	4.7422	0.	126.38
4012	-8.4937	5.2518	0.	125.84
4013	-8.483	6.2619	0.	127.74
4014	-8.7382	6.0078	0.	126.85
4015	-8.2327	6.0147	0.	128.11
4016	-8.4886	5.7579	0.	126.55
4017	-8.7346	6.51	0.	127.46
4018	-8.4809	6.7639	0.	127.99
4019	-8.4907	8.2616	0.	124.74
4020	-8.7414	8.0094	0.	124.71
4021	-8.4873	7.7634	0.	125.44
4022	-8.7435	8.5079	0.	124.54
4023	-8.4928	8.759	0.	124.88
4024	-3.2499	-8.5025	0.	131.32
4025	-2.9999	-8.7524	0.	131.68
4026	-2.7499	-8.5028	0.	132.12
4027	-3.7499	-8.5013	0.	131.63
4028	-3.5	-8.7514	0.	132.04
4029	-4.2498	-8.5005	0.	132.04
4030	-3.9999	-8.7506	0.	132.39
4031	-4.7497	-8.5	0.	132.75
4032	-4.4998	-8.7501	0.	132.73
4033	-5.2497	-8.4998	0.	133.98
4034	-4.9998	-8.7499	0.	133.13
4035	-4.9995	-8.2499	0.	132.52
4036	-5.9895	-5.7516	0.	129.16
4037	-6.2408	-5.5012	0.	129.41
4038	-5.7389	-6.0022	0.	131.18
4039	-5.4895	-6.2525	0.	134.86
4040	-1.5624	-6.2143	0.	117.46
4041	-1.4513	-5.893	0.	120.65
4042	-1.6262	-5.7211	0.	127.43
4043	-3.4296e-002	-6.8119	0.	125.91
4044	-0.27182	-7.0433	0.	123.46
4045	5.1411	-1.6513	0.	126.82
4046	5.4036	-1.8622	0.	119.5
4047	5.1369	-2.1201	0.	123.94
4048	-0.28716	-6.5501	0.	122.83
4049	-4.3563e-002	-6.3302	0.	129.42
4050	-1.0061	7.5739	0.	125.49
4051	-0.75595	7.7718	0.	118.67
4052	8.6249e-002	7.4255	0.	122.94
4053	-0.28348	7.7109	0.	117.62
4054	-4.882	7.4296	0.	132.32
4055	-4.7172	7.6862	0.	128.93
4056	-4.6178	7.2119	0.	133.83
4057	-4.4475	8.7251	0.	129.5
4058	-4.3703	8.2261	0.	127.79
4059	2.3485	-2.88	0.	130.87
4060	2.5102	-3.1635	0.	129.12
4061	8.4988	-4.0566	0.	128.14
4062	8.7625	-3.8429	0.	129.45
4063	8.2703	-3.7323	0.	132.73
4064	8.4814	-4.5823	0.	130.85
4065	8.7374	-4.3539	0.	126.27
4066	-6.2435	-6.0007	0.	127.97
4067	-5.9932	-6.2509	0.	130.58
4068	-5.4998	-8.7498	0.	132.91
4069	-5.4996	-8.2497	0.	134.12
4070	-5.7498	-8.4998	0.	130.99
4071	-5.4946	-6.7513	0.	136.3
4072	-5.7437	-6.5012	0.	134.23
4073	-8.5	-8.75	0.	126.65
4074	-8.75	-8.5	0.	128.02
4075	-8.25	-8.5	0.	124.53
4076	-8.5	-8.25	0.	127.15
4077	-4.5012	6.248	0.	135.72
4078	-4.7651	6.4901	0.	132.95
4079	-4.2695	6.5052	0.	135.28
4080	-4.5459	6.7299	0.	136.1
4081	-4.4648	4.7824	0.	134.03
4082	-4.7211	4.5279	0.	132.24
4083	-7.2532	4.5375	0.	124.77
4084	-7.5009	4.7806	0.	126.13
4085	-7.7481	4.5178	0.	125.38
4086	-7.1689	6.5543	0.	132.17
4087	-7.4616	6.2822	0.	134.41
4088	-7.4508	6.7943	0.	133.91
4089	7.4951	-5.1983	0.	114.21
4090	7.5001	-5.7071	0.	119.52
4091	7.2503	-5.4842	0.	115.36
4092	7.7455	-5.4147	0.	121.98
4093	7.5001	-8.7475	0.	125.3
4094	7.5003	-8.2456	0.	126.94
4095	7.2501	-8.498	0.	122.74
4096	5.497	-8.748	0.	126.98
4097	5.7472	-8.4984	0.	124.37
4098	5.4957	-8.2476	0.	128.79
4099	5.2452	-8.4969	0.	128.79
4100	5.7485	-5.5367	0.	128.62
4101	5.4961	-5.7738	0.	131.76
4102	5.5049	-5.2977	0.	129.82
4103	5.4999	8.7505	0.	128.53
4104	5.5	8.2509	0.	130.15
4105	5.2499	8.5004	0.	126.42
4106	5.5012	5.7625	0.	130.22
4107	5.2497	5.5121	0.	126.26
4108	5.4997	5.2695	0.	128.97
4109	3.7329	5.5025	0.	126.14
4110	3.4767	5.7516	0.	130.05
4111	3.2204	5.501	0.	130.01
4112	3.498	8.7498	0.	129.37
4113	3.7483	8.4998	0.	127.32
4114	3.4973	8.2496	0.	130.84
4115	0.51434	3.2114	0.	128.88
4116	0.27391	3.4513	0.	124.57
4117	0.52656	3.6856	0.	127.69
4118	0.51995	0.74809	0.	128.47
4119	0.27306	0.49663	0.	124.71
4120	-1.2437	0.49396	0.	124.02
4121	-1.4974	0.74672	0.	128.54
4122	-1.4915	0.24281	0.	126.34
4123	-1.7472	0.49501	0.	128.43
4124	-1.4579	3.2857	0.	129.12
4125	-1.1952	3.5119	0.	123.
4126	-1.6859	3.556	0.	129.74
4127	5.4567e-002	-3.7594	0.	130.39
4128	0.26524	-3.9908	0.	136.84
4129	6.373e-003	-4.1725	0.	137.88
4130	0.40701	-2.0052	0.	129.43
4131	0.67333	-1.8714	0.	119.15
4132	-8.7006	1.9903	0.	135.36
4133	-8.4885	1.6979	0.	135.69
4134	-8.2392	1.7774	0.	129.25
4135	-1.6039	5.1581	0.	131.86
4136	-1.8149	5.393	0.	129.85
4137	-1.8642	4.8805	0.	133.1
4138	-1.8403	-4.7255	0.	124.29
4139	-2.1295	-4.5056	0.	130.23
4140	-1.65	-4.4516	0.	130.52
4141	0.48745	-4.2114	0.	137.63
4142	0.22858	-4.3931	0.	138.66
4143	0.43267	-4.6158	0.	128.61
4144	7.2464	4.0467	0.	125.49
4145	6.9848	3.8306	0.	135.28
4146	6.9993	4.3011	0.	132.82
4147	-7.3278	-0.44403	0.	126.62
4148	-7.1273	-0.67144	0.	126.4
4149	-7.9291	-2.5713	0.	106.1
4150	-7.6165	-2.4689	0.	120.09
4151	-4.25	-9.0002	0.	133.09
4152	-4.	-9.2502	0.	133.47
4153	-3.75	-9.0006	0.	132.81
4154	-4.7499	-9.	0.	133.11
4155	-4.5	-9.2501	0.	133.36
4156	-5.2499	-8.9999	0.	132.04
4157	-4.9999	-9.2499	0.	132.66
4158	-5.7499	-8.9999	0.	128.09
4159	-5.4999	-9.2499	0.	130.13
4160	-6.2499	-8.9999	0.	121.86
4161	-5.9999	-8.7499	0.	126.24
4162	-5.9999	-9.2499	0.	124.75
4163	-6.75	-9.	0.	116.77
4164	-6.4999	-8.75	0.	117.42
4165	-6.5	-9.25	0.	118.92
4166	-7.25	-9.	0.	115.3
4167	-7.	-8.75	0.	114.98
4168	-7.	-9.25	0.	115.69
4169	-7.75	-9.	0.	117.85
4170	-7.5	-8.75	0.	114.3
4171	-7.5	-9.25	0.	116.19
4172	-8.25	-9.	0.	122.59
4173	-8.	-8.75	0.	120.49
4174	-8.	-9.25	0.	119.94
4175	-8.75	-9.	0.	126.29
4176	-8.5	-9.25	0.	124.36
4177	-9.	-8.75	0.	127.67
4178	-9.	-9.25	0.	127.02
4179	-9.25	-9.	0.	128.02
4180	-9.	-8.25	0.	127.08
4181	-9.25	-8.5	0.	128.14
4182	-9.	-7.75	0.	125.32
4183	-8.75	-8.	0.	126.24
4184	-9.25	-8.	0.	127.19
4185	-9.	-7.25	0.	125.12
4186	-8.75	-7.5	0.	124.17
4187	-9.25	-7.5	0.	126.45
4188	-9.	-6.75	0.	127.47
4189	-8.75	-7.	0.	124.07
4190	-9.25	-7.	0.	128.38
4191	-6.4774	-3.7444	0.	131.87
4192	-6.7244	-3.4855	0.	128.57
4193	-6.2168	-3.4951	0.	132.18
4194	3.5027	2.2582	0.	131.13
4195	3.7509	2.5054	0.	127.29
4196	3.5009	2.7544	0.	129.31
4197	3.5415	0.82294	0.	134.61
4198	3.8059	0.59493	0.	131.92
4199	5.4867	2.3125	0.	127.
4200	5.2384	2.5411	0.	122.95
4201	5.7318	2.5791	0.	126.15
4202	5.5101	0.88925	0.	121.6
4203	5.2755	0.64522	0.	124.32
4204	5.5203	0.44958	0.	115.91
4205	-2.2638	-6.5176	0.	129.2
4206	-2.5077	-6.7729	0.	133.12
4207	-0.76652	-6.5501	0.	116.36
4208	-0.52469	-6.7814	0.	120.4
4209	-9.1463	-1.7147	0.	129.65
4210	-8.9868	-1.9032	0.	135.59
4211	-9.3682	-1.9847	0.	133.28
4212	-9.1093	-2.2091	0.	131.17
4213	-8.9624	-0.41154	0.	131.82
4214	-9.2729	-0.31733	0.	131.1
4215	-9.2891	-6.6506e-002	0.	129.97
4216	-9.0294	0.15988	0.	126.82
4217	-8.972	1.7901	0.	131.21
4218	-8.7599	1.4976	0.	131.22
4219	-9.2467	1.51	0.	131.67
4220	-9.0028	1.2485	0.	130.49
4221	-8.7903	2.308	0.	127.96
4222	-9.2173	2.043	0.	129.16
4223	-9.0136	2.3122	0.	128.46
4224	-9.0252	3.7527	0.	131.28
4225	-9.2815	3.5081	0.	130.84
4226	-9.0611	3.2675	0.	131.2
4227	-9.2582	4.0001	0.	130.08
4228	-9.0038	4.2467	0.	129.45
4229	-8.7526	3.9863	0.	129.94
4230	-9.2474	4.9994	0.	127.35
4231	-8.9977	4.7473	0.	127.7
4232	-8.9952	5.2507	0.	126.68
4233	-8.9898	6.2558	0.	126.56
4234	-9.2431	6.0037	0.	126.31
4235	-8.9922	5.7541	0.	126.44
4236	-8.9893	6.7565	0.	126.41
4237	-9.2418	6.5046	0.	126.09
4238	-8.9905	7.2566	0.	125.75
4239	-9.2423	7.0047	0.	125.57
4240	-8.7355	7.0104	0.	126.94
4241	-8.9924	7.7564	0.	124.95
4242	-9.2436	7.5046	0.	124.83
4243	-8.7383	7.5104	0.	125.68
4244	-8.9942	8.2557	0.	124.5
4245	-9.2451	8.0043	0.	124.29
4246	-9.2464	8.5036	0.	124.2
4247	-8.9958	8.7545	0.	124.55
4248	-7.991	9.2595	0.	126.15
4249	-8.2413	9.0102	0.	125.65
4250	-7.7338	9.0166	0.	127.69
4251	-6.6817	9.011	0.	125.27
4252	-6.9679	8.7864	0.	134.06
4253	-6.9674	9.2659	0.	131.94
4254	-7.2186	9.022	0.	133.17
4255	-5.6935	9.0711	0.	119.88
4256	-5.9454	8.9141	0.	113.74
4257	-6.1667	9.0507	0.	113.52
4258	-5.9491	9.3184	0.	116.9
4259	-5.214	9.0065	0.	128.38
4260	-5.4816	8.806	0.	125.
4261	-5.4658	9.2788	0.	124.39
4262	-4.7184	8.9764	0.	130.85
4263	-4.9746	9.2345	0.	129.21
4264	-4.2148	8.9888	0.	129.03
4265	-4.4757	9.2352	0.	129.05
4266	-3.7117	9.0085	0.	127.29
4267	-3.9736	9.2488	0.	127.66
4268	-3.2108	9.0271	0.	126.78
4269	-3.4727	9.2632	0.	127.09
4270	-2.7136	9.0407	0.	126.68
4271	-2.9728	9.2765	0.	126.93
4272	-2.2205	9.0522	0.	126.48
4273	-2.4769	9.2842	0.	126.75
4274	-1.7291	9.0711	0.	125.89
4275	-1.9826	9.2947	0.	126.33
4276	-1.2386	9.0897	0.	124.9
4277	-1.4883	9.3122	0.	125.57
4278	-0.74974	9.0932	0.	123.95
4279	-0.99513	9.3211	0.	124.65
4280	-0.26266	9.0733	0.	123.71
4281	-0.50309	9.3163	0.	124.09
4282	0.2238	9.0226	0.	124.36
4283	-1.1642e-002	9.291	0.	124.27
4284	0.71817	8.987	0.	125.47
4285	0.47886	9.2452	0.	125.07
4286	1.2247	8.99	0.	126.38
4287	0.97874	9.2398	0.	125.97
4288	1.7339	8.9975	0.	126.94
4289	1.4848	9.2458	0.	126.56
4290	2.2409	9.0007	0.	127.4
4291	1.9905	9.2497	0.	126.93
4292	2.7453	9.0009	0.	127.94
4293	2.4949	9.2507	0.	127.22
4294	3.2475	9.0002	0.	127.84
4295	2.9972	9.2504	0.	127.41
4296	3.7486	8.9999	0.	125.16
4297	3.4985	9.2499	0.	126.49
4298	4.2492	8.9999	0.	121.14
4299	3.9989	8.7498	0.	123.13
4300	3.9991	9.2499	0.	123.32
4301	4.7496	9.	0.	120.86
4302	4.4994	8.75	0.	115.4
4303	4.4995	9.25	0.	121.07
4304	5.2498	9.0002	0.	124.47
4305	4.9997	8.7501	0.	122.38
4306	4.9997	9.2501	0.	122.84
4307	5.7499	9.0005	0.	126.94
4308	5.4999	9.2502	0.	125.73
4309	6.25	9.0009	0.	126.84
4310	6.	9.2505	0.	126.46
4311	6.7502	9.0013	0.	126.06
4312	6.5001	9.2508	0.	126.08
4313	7.2504	9.0015	0.	125.48
4314	7.0002	9.2511	0.	125.65
4315	7.7504	9.0012	0.	125.14
4316	7.5003	9.251	0.	125.34
4317	8.2503	9.0009	0.	124.98
4318	8.0003	9.2508	0.	125.15
4319	8.7503	9.0005	0.	124.9
4320	8.5002	9.2505	0.	125.05
4321	9.0003	8.7505	0.	124.79
4322	9.2502	9.0003	0.	124.84
4323	9.0002	9.2503	0.	124.97
4324	9.0006	8.2508	0.	124.63
4325	9.2503	8.5005	0.	124.68
4326	9.001	7.7512	0.	124.51
4327	9.2505	8.0007	0.	124.57
4328	8.7509	8.0014	0.	124.5
4329	9.0016	7.2515	0.	124.47
4330	9.2509	7.501	0.	124.55
4331	8.7515	7.5019	0.	124.33
4332	9.0024	6.7515	0.	124.5
4333	9.2515	7.0012	0.	124.67
4334	9.0034	6.2503	0.	124.61
4335	9.2522	6.5008	0.	124.94
4336	9.0044	5.7468	0.	124.85
4337	9.2529	5.999	0.	125.37
4338	9.0047	5.2394	0.	125.45
4339	9.2533	5.4946	0.	126.01
4340	8.7562	5.4955	0.	123.99
4341	9.0031	4.7243	0.	127.03
4342	9.2528	4.9865	0.	127.07
4343	8.993	4.1874	0.	130.6
4344	9.2503	4.4714	0.	128.95
4345	9.0534	3.6709	0.	134.3
4346	8.8654	3.6792	0.	134.21
4347	9.2449	3.9425	0.	132.02
4348	9.1158	3.1989	0.	131.07
4349	8.9345	3.4395	0.	135.48
4350	9.3344	3.4549	0.	132.63
4351	9.1194	2.7361	0.	130.69
4352	9.3329	2.9765	0.	127.09
4353	9.0731	2.2607	0.	134.5
4354	9.3403	2.5004	0.	132.05
4355	8.9367	2.4623	0.	135.32
4356	9.0314	1.7706	0.	131.74
4357	9.2699	2.0094	0.	132.64
4358	8.88	2.2174	0.	135.01
4359	9.0321	1.2842	0.	128.05
4360	9.2827	1.5185	0.	129.78
4361	9.0185	0.78893	0.	126.13
4362	9.265	1.0293	0.	127.77
4363	9.0259	0.2819	0.	125.25
4364	9.265	0.5263	0.	126.53
4365	8.775	0.5374	0.	124.37
4366	9.0408	-0.21963	0.	124.99
4367	9.2747	2.3398e-002	0.	125.87
4368	8.7919	2.706e-002	0.	124.12
4369	9.0562	-0.71303	0.	125.16
4370	9.2868	-0.4744	0.	125.67
4371	9.07	-1.2007	0.	125.71
4372	9.298	-0.96734	0.	125.93
4373	8.8269	-0.95394	0.	124.62
4374	9.0806	-1.6857	0.	126.58
4375	9.3075	-1.4574	0.	126.56
4376	8.8448	-1.4356	0.	125.45
4377	9.0818	-2.17	0.	127.73
4378	9.313	-1.9467	0.	127.43
4379	9.3085	-2.436	0.	128.39
4380	9.0689	-2.6547	0.	129.07
4381	9.2577	-3.9189	0.	126.77
4382	9.001	-4.1402	0.	127.36
4383	9.0222	-3.6374	0.	128.36
4384	8.9877	-5.1679	0.	130.36
4385	9.2399	-4.9327	0.	129.07
4386	8.7333	-4.8791	0.	133.64
4387	8.9893	-4.6506	0.	128.99
4388	8.9906	-5.6875	0.	129.84
4389	9.2412	-5.4459	0.	129.74
4390	8.7378	-5.4098	0.	131.45
4391	8.994	-6.2058	0.	128.07
4392	9.2437	-5.9599	0.	128.58
4393	8.7426	-5.9383	0.	128.5
4394	9.2462	-6.4721	0.	127.44
4395	8.9966	-6.7203	0.	126.9
4396	8.9991	-7.7391	0.	126.54
4397	9.2489	-7.489	0.	126.65
4398	8.7491	-7.4853	0.	126.17
4399	8.9982	-7.2314	0.	126.46
4400	8.9996	-8.2434	0.	126.83
4401	9.2494	-7.9933	0.	126.85
4402	8.9997	-8.746	0.	127.04
4403	9.2497	-8.4959	0.	127.15
4404	8.7499	-8.997	0.	126.85
4405	9.2498	-8.9975	0.	127.34
4406	8.9998	-9.2477	0.	127.07
4407	8.25	-8.9971	0.	126.22
4408	8.5	-9.2478	0.	126.39
4409	7.7501	-8.9976	0.	124.63
4410	8.0001	-9.2479	0.	125.25
4411	7.25	-8.9986	0.	120.65
4412	7.5	-9.2485	0.	122.68
4413	6.7496	-8.9992	0.	116.3
4414	6.9999	-8.749	0.	118.11
4415	6.9999	-9.2492	0.	118.28
4416	6.249	-8.9993	0.	116.81
4417	6.4993	-8.7495	0.	111.15
4418	6.4995	-9.2495	0.	116.07
4419	5.7482	-8.9987	0.	121.93
4420	5.9983	-8.7491	0.	119.35
4421	5.9989	-9.2493	0.	119.18
4422	5.2474	-8.9979	0.	126.28
4423	5.4984	-9.2487	0.	124.16
4424	4.7466	-8.9973	0.	127.92
4425	4.9977	-9.2481	0.	126.96
4426	4.9955	-8.7468	0.	128.12
4427	4.2464	-8.9973	0.	128.37
4428	4.4974	-9.2478	0.	128.05
4429	4.4945	-8.746	0.	128.34
4430	3.7467	-8.9985	0.	128.49
4431	3.9976	-9.2482	0.	128.48
4432	3.2468	-9.0014	0.	128.44
4433	3.4978	-9.2497	0.	128.57
4434	2.7465	-9.0061	0.	128.32
4435	2.9978	-9.2525	0.	128.5
4436	2.2457	-9.0117	0.	128.13
4437	2.4975	-9.2565	0.	128.36
4438	1.7444	-9.0171	0.	127.91
4439	1.9967	-9.2607	0.	128.19
4440	1.9922	-8.7707	0.	127.86
4441	1.2433	-9.02	0.	127.66
4442	1.4954	-9.2646	0.	128.03
4443	1.4906	-8.7771	0.	127.55
4444	0.74322	-9.0185	0.	127.38
4445	0.99486	-9.2651	0.	127.9
4446	0.98998	-8.7776	0.	127.16
4447	0.24409	-9.0143	0.	127.21
4448	0.4952	-9.2623	0.	127.78
4449	0.49083	-8.7725	0.	126.76
4450	-0.25424	-9.0093	0.	126.95
4451	-3.9473e-003	-9.259	0.	127.7
4452	-2.7499	-9.0013	0.	131.47
4453	-3.	-9.2512	0.	132.75
4454	-3.25	-9.0013	0.	132.4
4455	-2.2358	-1.5089	0.	127.47
4456	-2.484	-1.7624	0.	131.3
4457	-2.725	-1.5183	0.	131.34
4458	-2.2093	-3.5073	0.	127.83
4459	-2.4672	-3.268	0.	132.45
4460	-0.51436	-1.7899	0.	128.66
4461	-0.74162	-1.5295	0.	125.61
4462	-0.47066	-1.2936	0.	126.83
4463	-0.50546	-3.19	0.	122.83
4464	-0.69547	-3.4373	0.	119.13
4465	-0.17116	-3.4853	0.	123.55
4466	-0.31325	-3.2122	0.	123.14
4467	6.5534	-3.4773	0.	130.55
4468	6.8198	-3.2822	0.	119.95
4469	7.2418	-5.0092	0.	108.13
4470	6.997	-5.2951	0.	110.91
4471	6.7435	-5.081	0.	117.7
4472	7.7344	-4.868	0.	121.17
4473	6.5028	-4.4031	0.	123.92
4474	6.4938	-4.8647	0.	125.49
4475	6.5229	-3.9318	0.	125.88
4476	7.3081	-3.3902	0.	108.34
4477	7.7877	-3.5697	0.	124.03
4478	-0.57437	-2.7366	0.	125.73
4479	-0.39034	-2.9851	0.	123.88
4480	-0.55083	-2.2728	0.	127.98
4481	-0.30727	-2.0712	0.	128.23
4482	-1.215	-3.4666	0.	113.07
4483	-1.7153	-3.4854	0.	115.89
4484	-1.4545	-3.7136	0.	113.87
4485	-1.2404	-1.5102	0.	116.82
4486	-1.7399	-1.5058	0.	117.28
4487	-1.4875	-1.2577	0.	115.16
4488	-2.4858	-2.2633	0.	130.74
4489	-2.4826	-2.7652	0.	131.3
4490	-1.242	-6.5134	0.	113.58
4491	-1.0354	-6.3729	0.	117.41
4492	-1.7497	-6.4818	0.	118.44
4493	-1.2783	-6.3178	0.	116.33
4494	5.4965	1.3454	0.	124.64
4495	5.4903	1.8226	0.	127.07
4496	3.5155	1.2865	0.	132.92
4497	3.5062	1.7673	0.	131.71
4498	3.2541	2.0111	0.	130.15
4499	3.2603	1.5252	0.	130.35
4500	-6.4873	-4.2484	0.	131.57
4501	-6.4948	-5.7503	0.	128.2
4502	-6.4965	-6.2501	0.	124.99
4503	-6.4928	-5.2505	0.	131.55
4504	-6.4906	-4.7502	0.	132.49
4505	-8.75	-6.5	0.	124.42
4506	-9.25	-6.5	0.	132.44
4507	-8.2499	-6.5	0.	117.47
4508	-8.5	-6.75	0.	121.01
4509	-8.7407	-3.452	0.	117.19
4510	-9.2423	-3.4723	0.	129.88
4511	-8.9887	-3.1974	0.	123.52
4512	-8.2541	-3.4772	0.	109.84
4513	-7.2485	-3.4449	0.	118.01
4514	-7.7671	-3.4614	0.	110.32
4515	-5.4991	-7.7499	0.	133.72
4516	-5.2494	-7.9999	0.	132.7
4517	-5.4978	-7.2504	0.	134.79
4518	-6.2499	-8.4999	0.	121.79
4519	-6.75	-8.5	0.	115.61
4520	-7.75	-8.5	0.	116.92
4521	-7.25	-8.5	0.	113.96
4522	-7.7498	-6.5	0.	111.69
4523	-6.2462	-6.5003	0.	127.57
4524	-6.7482	-6.5	0.	121.09
4525	-7.2493	-6.5	0.	113.33
4526	-8.5	-7.75	0.	125.06
4527	-8.5	-7.25	0.	123.05
4528	-4.4765	5.7644	0.	133.31
4529	-4.4683	5.2751	0.	132.53
4530	-5.236	4.5146	0.	123.9
4531	-5.7489	4.4984	0.	118.68
4532	-6.2577	4.4802	0.	118.12
4533	-6.7574	4.5021	0.	120.58
4534	-5.2515	6.5101	0.	121.75
4535	-5.7285	6.5066	0.	111.54
4536	-5.4894	6.8224	0.	118.87
4537	-6.1976	6.4605	0.	109.75
4538	-5.9678	6.7264	0.	107.32
4539	-6.6613	6.5024	0.	119.69
4540	-6.4273	6.631	0.	109.41
4541	-6.919	6.8337	0.	130.37
4542	-6.6584	6.6975	0.	117.49
4543	-7.4861	5.7691	0.	130.53
4544	-7.7287	6.0219	0.	130.86
4545	-7.4971	5.2656	0.	127.3
4546	-7.7429	5.5125	0.	126.85
4547	-0.51342	-7.2769	0.	124.56
4548	-0.5042	-8.7586	0.	127.46
4549	-0.5025	-9.2549	0.	126.98
4550	-0.5066	-8.2634	0.	128.84
4551	-0.50966	-7.7693	0.	128.29
4552	-2.4999	-8.7516	0.	131.89
4553	-2.4999	-9.2506	0.	131.09
4554	-2.4997	-8.2537	0.	133.99
4555	-2.5011	-7.2623	0.	133.12
4556	-2.4998	-7.7568	0.	134.29
4557	7.5004	-6.2195	0.	124.37
4558	7.5004	-7.7426	0.	127.7
4559	7.5004	-7.238	0.	129.16
4560	7.5003	-6.7301	0.	128.21
4561	6.2487	-8.4993	0.	113.58
4562	6.7496	-8.4993	0.	112.82
4563	6.2489	-5.5393	0.	117.66
4564	6.7501	-5.5285	0.	112.76
4565	6.4965	-5.3143	0.	120.23
4566	5.4945	-7.7477	0.	130.07
4567	5.243	-7.9963	0.	128.67
4568	5.493	-7.2487	0.	132.45
4569	5.4931	-6.2587	0.	131.83
4570	5.2399	-6.0087	0.	130.79
4571	5.4923	-6.7516	0.	132.87
4572	4.2946	0.59743	0.	123.42
4573	4.7849	0.61241	0.	123.79
4574	4.5623	0.39795	0.	125.58
4575	5.0425	0.41949	0.	130.65
4576	4.2484	2.5071	0.	117.53
4577	4.7444	2.516	0.	115.52
4578	4.4959	2.7619	0.	114.67
4579	5.5003	7.7517	0.	130.95
4580	5.7503	8.0019	0.	129.14
4581	5.5014	6.2578	0.	130.9
4582	5.5011	6.755	0.	132.83
4583	5.5007	7.2531	0.	132.78
4584	4.2417	5.5037	0.	115.8
4585	3.9887	5.2543	0.	121.54
4586	4.7467	5.5065	0.	115.75
4587	4.2491	8.4999	0.	117.24
4588	4.7496	8.5001	0.	116.74
4589	3.4768	6.2503	0.	130.78
4590	3.4818	6.7491	0.	132.84
4591	3.495	7.7492	0.	131.61
4592	3.4895	7.2488	0.	133.33
4593	0.505	2.7296	0.	129.7
4594	0.7583	2.9714	0.	128.81
4595	0.50194	2.2393	0.	131.66
4596	0.50368	1.7439	0.	131.49
4597	0.75255	1.9906	0.	130.32
4598	0.50907	1.2464	0.	129.42
4599	-0.23392	0.49328	0.	114.6
4600	-0.73906	0.49272	0.	113.98
4601	-1.4992	1.2507	0.	129.83
4602	-1.4986	1.7549	0.	132.01
4603	-1.4953	2.2606	0.	132.08
4604	-1.7466	2.0103	0.	130.9
4605	-1.4855	2.7697	0.	130.33
4606	-0.70841	3.4663	0.	111.63
4607	-0.21853	3.4538	0.	113.06
4608	0.14688	-3.3413	0.	129.14
4609	0.33008	-2.4529	0.	129.7
4610	0.14317	-2.167	0.	130.22
4611	0.25124	-2.9041	0.	130.39
4612	4.7954e-003	-3.0682	0.	128.79
4613	1.7099	-3.8593	0.	128.2
4614	2.2106	-3.8477	0.	134.52
4615	1.2286	-3.9337	0.	118.71
4616	0.74876	-3.9955	0.	126.36
4617	1.9484	-2.6299	0.	132.78
4618	1.5465	-2.3216	0.	126.85
4619	1.1094	-2.0777	0.	116.1
4620	-5.7335	8.649	0.	118.7
4621	-6.1834	8.8616	0.	112.66
4622	-6.4369	9.2539	0.	117.59
4623	-6.9549	7.3444	0.	130.36
4624	-7.2009	7.0737	0.	132.3
4625	-6.9702	7.8311	0.	129.09
4626	-6.9768	8.3104	0.	130.66
4627	-5.294	7.2618	0.	127.26
4628	-6.1975	6.8969	0.	106.59
4629	-5.7287	7.0422	0.	114.67
4630	-8.2717	1.5633	0.	123.44
4631	-7.754	1.6173	0.	110.47
4632	-7.236	1.5713	0.	110.83
4633	-8.4638	2.7281	0.	132.04
4634	-8.8586	2.5515	0.	127.12
4635	-7.8399	3.4789	0.	118.21
4636	-7.4545	3.7024	0.	112.86
4637	-7.7945	3.7688	0.	116.27
4638	-8.1701	3.1358	0.	132.16
4639	-8.0025	3.6527	0.	124.61
4640	-6.8642	3.3078	0.	129.56
4641	-7.1239	3.6659	0.	125.21
4642	-6.6416	2.8475	0.	127.76
4643	-6.5092	2.3287	0.	126.59
4644	-6.4936	1.8011	0.	131.04
4645	-6.3127	2.7643	0.	126.42
4646	0.35179	6.9687	0.	126.21
4647	0.81197	6.0819	0.	129.82
4648	0.93425	5.6145	0.	129.58
4649	0.60954	6.5321	0.	132.58
4650	-1.1214	5.1978	0.	120.52
4651	-0.65157	5.2387	0.	111.8
4652	-0.1868	5.2707	0.	111.89
4653	-0.41941	5.0273	0.	111.7
4654	0.27596	5.3007	0.	121.56
4655	4.7941e-002	5.056	0.	114.14
4656	0.73895	5.3465	0.	133.79
4657	-1.7126	5.8804	0.	129.82
4658	-1.5436	6.3313	0.	133.
4659	-1.317	6.7459	0.	128.15
4660	-1.1105	7.152	0.	126.48
4661	7.6895	1.9223	0.	113.83
4662	7.2157	1.7944	0.	125.68
4663	8.1419	2.0997	0.	118.98
4664	8.5529	2.3075	0.	130.83
4665	-0.24536	-4.3755	0.	123.58
4666	-0.71339	-4.3807	0.	107.24
4667	-1.1802	-4.4074	0.	117.94
4668	7.7576	3.9741	0.	113.33
4669	8.1993	3.7578	0.	119.46
4670	8.0122	4.1975	0.	115.28
4671	8.5649	3.5229	0.	129.91
4672	6.9676	2.447	0.	131.81
4673	6.9708	1.9816	0.	134.11
4674	6.9686	2.9083	0.	130.49
4675	6.9731	3.3684	0.	132.12
4676	-1.1672	-5.9965	0.	119.5
4677	-1.4377	-5.6439	0.	125.79
4678	-1.7036	-5.2223	0.	123.93
4679	2.2087e-002	-5.8756	0.	131.03
4680	0.22137	-6.1268	0.	130.99
4681	0.1741	-5.4504	0.	133.83
4682	0.3276	-5.0333	0.	128.65
4683	0.51647	-5.2695	0.	130.01
4684	5.0653	-1.2139	0.	129.5
4685	4.908	-0.8104	0.	134.31
4686	4.7402	-0.41598	0.	128.31
4687	4.5797	-0.63831	0.	131.84
4688	4.7647	-1.0338	0.	129.98
4689	7.0814	7.586e-002	0.	127.46
4690	6.8933	-0.22058	0.	123.46
4691	7.1547	-0.37968	0.	123.42
4692	6.7298	-0.48547	0.	124.34
4693	6.6122	-0.676	0.	134.44
4694	6.761	-0.88716	0.	127.6
4695	6.9912	-0.64457	0.	124.38
4696	5.2873	0.22386	0.	121.78
4697	4.8198	0.20504	0.	131.38
4698	6.259	0.21333	0.	127.45
4699	6.5148	0.45279	0.	135.73
4700	6.7846	0.24885	0.	136.17
4701	6.5965	-4.7585e-002	0.	131.62
4702	5.7604	0.23402	0.	111.26
4703	-8.6688	-0.63943	0.	123.94
4704	-9.0456	-0.79754	0.	136.45
4705	-7.7901	-0.48172	0.	111.74
4706	-8.2371	-0.54745	0.	106.38
4707	-8.3399	-2.374	0.	109.78
4708	-8.9631	-1.6316	0.	130.4
4709	-9.3467	-1.4632	0.	126.83
4710	-9.167	-1.1723	0.	130.77
4711	-8.6762	-2.0526	0.	128.34
4712	-8.7988	-2.3586	0.	123.76
4713	9.5002	8.7502	0.	124.73
4714	9.5001	9.2501	0.	124.88
4715	9.5003	8.2504	0.	124.62
4716	9.5005	7.7506	0.	124.61
4717	9.5008	7.2507	0.	124.76
4718	9.5012	6.7505	0.	125.11
4719	9.5016	6.2495	0.	125.7
4720	9.5018	5.7467	0.	126.53
4721	9.5014	5.2416	0.	127.63
4722	9.5	4.7335	0.	129.
4723	9.5023	4.2265	0.	130.4
4724	9.5259	3.7265	0.	130.24
4725	9.5515	3.2325	0.	128.55
4726	9.5538	2.7408	0.	128.29
4727	9.5371	2.2491	0.	130.06
4728	9.5213	1.7573	0.	130.71
4729	9.5157	1.2636	0.	129.52
4730	9.5139	0.2678	0.	127.15
4731	9.5116	0.76672	0.	128.17
4732	9.5208	-0.23137	0.	126.55
4733	9.5287	-0.72871	0.	126.44
4734	9.5356	-1.2241	0.	126.78
4735	9.54	-1.7184	0.	127.42
4736	9.5398	-2.2127	0.	128.09
4737	9.5336	-2.7075	0.	128.46
4738	9.5231	-3.2033	0.	128.15
4739	9.294	-2.9262	0.	129.15
4740	9.5112	-3.7011	0.	127.3
4741	9.2757	-3.4196	0.	128.89
4742	9.5009	-4.2015	0.	126.75
4743	9.4949	-4.7048	0.	127.45
4744	9.2443	-4.4227	0.	127.37
4745	9.4934	-5.2107	0.	128.43
4746	9.4943	-5.7183	0.	128.48
4747	9.4959	-6.2262	0.	127.95
4748	9.4974	-6.7334	0.	127.34
4749	9.4985	-7.2393	0.	126.98
4750	9.2478	-6.9816	0.	126.8
4751	9.4992	-7.7432	0.	126.96
4752	9.4995	-8.2458	0.	127.17
4753	9.4997	-8.7475	0.	127.44
4754	9.4998	-9.2486	0.	127.65
4755	9.2499	-9.4988	0.	127.38
4756	8.7499	-9.4985	0.	126.6
4757	8.25	-9.4986	0.	125.41
4758	7.75	-9.4988	0.	123.3
4759	7.2499	-9.4992	0.	120.32
4760	6.7497	-9.4995	0.	118.02
4761	6.2494	-9.4995	0.	118.43
4762	5.7491	-9.4993	0.	121.42
4763	5.2487	-9.4989	0.	124.83
4764	4.7485	-9.4987	0.	127.08
4765	4.2486	-9.4988	0.	128.16
4766	3.7488	-9.4994	0.	128.56
4767	3.2489	-9.5008	0.	128.63
4768	2.7489	-9.5029	0.	128.55
4769	2.2485	-9.5054	0.	128.42
4770	1.7477	-9.5082	0.	128.31
4771	1.247	-9.5097	0.	128.27
4772	0.74684	-9.5089	0.	128.29
4773	0.24716	-9.5069	0.	128.28
4774	-0.25221	-9.5046	0.	127.76
4775	-0.75136	-9.5021	0.	121.94
4776	-1.2506	-9.5005	0.	111.12
4777	-1.7502	-9.5001	0.	112.44
4778	-2.25	-9.5002	0.	125.35
4779	-2.75	-9.5005	0.	132.38
4780	-3.25	-9.5005	0.	133.6
4781	-3.75	-9.5002	0.	133.92
4782	-3.5	-9.2506	0.	133.25
4783	-4.25	-9.5001	0.	133.75
4784	-4.75	-9.5	0.	132.91
4785	-5.25	-9.4999	0.	130.74
4786	-5.75	-9.4999	0.	126.79
4787	-6.25	-9.5	0.	121.83
4788	-6.75	-9.5	0.	117.83
4789	-7.25	-9.5	0.	116.56
4790	-7.75	-9.5	0.	118.29
4791	-8.25	-9.5	0.	121.73
4792	-8.75	-9.5	0.	125.08
4793	-9.25	-9.5	0.	127.49
4794	-9.5	-9.25	0.	128.5
4795	-9.5	-8.75	0.	128.49
4796	-9.5	-8.25	0.	128.24
4797	-9.5	-7.75	0.	128.3
4798	-9.5	-7.25	0.	129.7
4799	-9.5	-6.75	0.	133.4
4800	-9.5	-6.2499	0.	136.32
4801	-9.5	-5.7498	0.	137.94
4802	-9.5	-5.2494	0.	139.84
4803	-9.4999	-4.7483	0.	139.7
4804	-9.4989	-4.2446	0.	137.71
4805	-9.4965	-3.7373	0.	136.36
4806	-9.4978	-3.2301	0.	134.61
4807	-9.5148	-2.7287	0.	133.17
4808	-9.2442	-2.9552	0.	128.23
4809	-9.5477	-2.2314	0.	132.52
4810	-9.2888	-2.4559	0.	130.43
4811	-9.5686	-1.7331	0.	130.4
4812	-9.5825	-1.2422	0.	129.53
4813	-9.5475	-0.7531	0.	132.26
4814	-9.4028	-0.95135	0.	134.16
4815	-9.517	-0.25425	0.	133.11
4816	-9.3561	-0.70333	0.	136.13
4817	-9.5202	0.24035	0.	131.63
4818	-9.5043	0.73914	0.	131.24
4819	-9.2605	0.46673	0.	128.48
4820	-9.498	1.2514	0.	130.89
4821	-9.2542	0.98988	0.	129.71
4822	-9.492	1.763	0.	129.57
4823	-9.5079	2.2668	0.	127.65
4824	-9.5307	2.7652	0.	127.55
4825	-9.3042	2.5359	0.	127.11
4826	-9.5283	3.2612	0.	128.96
4827	-9.3079	3.0206	0.	129.32
4828	-9.5144	3.7555	0.	129.63
4829	-9.504	4.2516	0.	129.25
4830	-9.4993	4.7502	0.	128.29
4831	-9.2496	4.4981	0.	128.63
4832	-9.4974	5.2508	0.	127.26
4833	-9.496	5.7518	0.	126.45
4834	-9.2451	5.5021	0.	126.58
4835	-9.495	6.2525	0.	125.83
4836	-9.4948	6.7528	0.	125.25
4837	-9.4955	7.2527	0.	124.65
4838	-9.4963	7.7526	0.	124.17
4839	-9.4972	8.2522	0.	123.99
4840	-9.4981	8.7517	0.	124.16
4841	-9.499	9.2511	0.	124.59
4842	-9.2475	9.0026	0.	124.51
4843	-9.2489	9.5012	0.	125.04
4844	-8.7476	9.5027	0.	125.4
4845	-8.9975	9.2528	0.	124.96
4846	-8.2449	9.5048	0.	125.84
4847	-8.4952	9.2555	0.	125.34
4848	-7.7397	9.5073	0.	126.75
4849	-7.2313	9.5083	0.	126.97
4850	-7.4825	9.2643	0.	128.3
4851	-6.7226	9.5088	0.	124.21
4852	-5.7214	9.5261	0.	121.33
4853	-6.2193	9.5216	0.	120.45
4854	-5.2265	9.5068	0.	125.22
4855	-4.7318	9.4932	0.	127.35
4856	-4.2344	9.4952	0.	127.66
4857	-3.7346	9.5036	0.	127.46
4858	-3.2347	9.5126	0.	127.24
4859	-2.7361	9.5199	0.	127.
4860	-2.239	9.5267	0.	126.59
4861	-1.7418	9.5358	0.	126.
4862	-1.2448	9.5435	0.	125.32
4863	-0.74848	9.5441	0.	124.77
4864	-0.25207	9.5339	0.	124.64
4865	0.24342	9.5135	0.	124.98
4866	0.73943	9.498	0.	125.57
4867	1.2389	9.4956	0.	126.15
4868	1.7415	9.498	0.	126.55
4869	2.2446	9.4997	0.	126.75
4870	2.7468	9.5001	0.	126.68
4871	3.2482	9.5001	0.	126.06
4872	3.749	9.4999	0.	124.67
4873	4.2494	9.5	0.	123.2
4874	4.7497	9.5	0.	122.99
4875	5.2498	9.5001	0.	124.11
4876	5.7499	9.5002	0.	125.24
4877	6.25	9.5004	0.	125.68
4878	6.75	9.5006	0.	125.66
4879	7.2501	9.5007	0.	125.51
4880	7.7502	9.5006	0.	125.35
4881	8.2502	9.5004	0.	125.22
4882	8.7501	9.5003	0.	125.11
4883	9.2501	9.5001	0.	125.01
4884	-7.2105	-1.1363	0.	124.63
4885	-7.4367	-2.0355	0.	126.49
4886	-7.3128	-1.5884	0.	126.78
4887	5.1126	-2.5929	0.	123.98
4888	-4.7515	1.5212	0.	127.58
4889	-5.2524	1.5286	0.	127.9
4890	3.2509	3.0011	0.	128.34
4891	4.2666	-4.9682	0.	128.1
4892	-9.0182	-2.6825	0.	125.49
4893	4.5058	-5.2354	0.	128.47
4894	7.9848	-5.0844	0.	128.85
4895	8.2291	-4.8199	0.	133.85
4896	-4.5422	7.9505	0.	126.14
4897	8.2391	-5.3855	0.	129.55
4898	8.5015	7.7521	0.	124.31
4899	-0.52292	7.9762	0.	116.88
4900	8.4898	-5.6606	0.	130.12
4901	6.5044	0.96164	0.	128.28
4902	1.6642	-4.8614	0.	123.55
4903	-4.2504	1.5144	0.	127.71
4904	5.2396	3.5384	0.	121.89
4905	-0.18466	4.8126	0.	113.89
4906	-0.41756	4.5732	0.	112.47
4907	8.4988	-7.2286	0.	125.88
4908	-2.1888	3.5657	0.	130.96
4909	1.2372	-8.5348	0.	127.05
4910	0.73759	-8.5317	0.	126.54
4911	-4.6998	-4.0262	0.	129.69
4912	-7.9855	5.7654	0.	127.16
4913	-8.2414	5.5086	0.	125.6
4914	-3.7703	6.5498	0.	131.79
4915	-3.5734	6.8189	0.	130.11
4916	-3.2847	6.6243	0.	129.3
4917	-9.0814	2.7913	0.	128.86
4918	0.53272	4.1564	0.	125.52
4919	4.7434	-8.4955	0.	128.54
4920	2.4351	5.7489	0.	128.34
4921	-4.7759	0.50731	0.	129.34
4922	-4.686	-2.5238	0.	129.27
4923	8.7479	-6.9747	0.	126.17
4924	-3.7493	1.5107	0.	127.85
4925	-3.9983	1.7669	0.	127.63
4926	7.3068	0.36971	0.	127.1
4927	4.6243	-1.1596e-002	0.	124.61
4928	3.9583	-0.26289	0.	125.96
4929	-3.2295	-5.5778	0.	128.9
4930	-7.9757	4.2174	0.	123.68
4931	-8.2267	3.9589	0.	126.03
4932	4.4319	-0.23308	0.	121.42
4933	-5.6734	3.546	0.	123.31
4934	2.8308	-1.529	0.	131.26
4935	2.7673	-1.9159	0.	132.1
4936	2.5821	-1.6568	0.	131.38
4937	3.9464	-1.4983	0.	130.54
4938	8.8248	-2.8578	0.	129.71
4939	4.4364	-0.86167	0.	127.43
4940	-6.7404	1.5486	0.	128.4
4941	7.6628	-1.2552	0.	122.91
4942	-3.7961	-0.57685	0.	129.81
4943	1.7384	-8.5307	0.	127.5
4944	-8.7465	4.4912	0.	127.7
4945	-1.4838	-0.7599	0.	120.08
4946	-1.4852	-0.25971	0.	122.82
4947	-1.2271	-0.51444	0.	120.74
4948	-3.2604	-0.5316	0.	129.83
4949	8.5409	0.28255	0.	123.25
4950	-8.7646	0.46301	0.	122.09
4951	-9.0104	0.71747	0.	126.95
4952	4.2715	-0.45541	0.	124.77
4953	1.2092	5.4066	0.	133.53
4954	2.7067	5.4972	0.	129.34
4955	3.2964	-0.85811	0.	129.18
4956	-3.1838	4.0703	0.	132.19
4957	-7.7132	7.0379	0.	130.76
4958	4.9924	-8.2456	0.	128.65
4959	8.6017	-1.1889	0.	124.37
4960	8.3543	-0.95998	0.	123.33
4961	3.0082	1.769	0.	128.77
4962	7.544	0.66268	0.	123.82
4963	-4.2065	-5.5249	0.	130.49
4964	-3.7032	-5.5429	0.	129.8
4965	-5.507	1.2813	0.	129.01
4966	-4.7164	-5.5147	0.	130.83
4967	8.4834	-5.121	0.	134.63
4968	5.9121	-1.8682	0.	118.29
4969	-8.4833	7.2642	0.	126.88
4970	-8.2258	7.0205	0.	128.83
4971	9.0467	-3.1424	0.	129.89
4972	-4.5393	0.24064	0.	129.29
4973	-8.7451	9.0056	0.	124.89
4974	2.5105	-2.0648	0.	132.57
4975	-1.4278	-4.1882	0.	123.36
4976	-2.7228	-3.0236	0.	131.12
4977	-4.1411	-1.5552	0.	129.2
4978	6.1864	-1.6719	0.	125.07
4979	-8.7426	5.5042	0.	126.14
4980	-8.2443	4.4893	0.	125.85
4981	-8.4954	4.2308	0.	128.19
4982	7.8833	-0.99379	0.	122.63
4983	7.6397	-0.77841	0.	122.13
4984	-2.9294	6.4467	0.	127.97
4985	2.7383	-3.8939	0.	132.37
4986	-2.9163	4.3365	0.	132.01
4987	2.3253	-1.8057	0.	131.87
4988	-3.4102	-5.3114	0.	128.92
4989	2.4698	-4.1198	0.	133.35
4990	2.4582	-3.6246	0.	132.35
4991	6.5568	-0.47624	0.	131.97
4992	6.3764	-0.85597	0.	133.61
4993	6.2599	-1.2479	0.	126.73
4994	6.4558	-1.4788	0.	127.43
4995	6.5252	-1.0671	0.	126.73
4996	6.721	-1.298	0.	127.43
4997	7.4142	-0.57156	0.	121.77
4998	-6.	-7.	0.	102.87
4999	-8.	-7.	0.	91.141
5000	-6.	-8.	0.	100.07
5001	-8.	-8.	0.	94.686
5002	-6.5	-7.	0.	118.09
5003	-7.	-7.	0.	112.54
5004	-7.5	-7.	0.	109.02
5005	-6.	-7.5	0.	106.43
5006	-8.	-7.5	0.	97.757
5007	-7.5	-8.	0.	111.05
5008	-7.	-8.	0.	111.71
5009	-6.5	-8.	0.	115.44
5010	-7.5	-7.5	0.	108.84
5011	-7.	-7.5	0.	115.1
5012	-6.5	-7.5	0.	115.12
5013	-6.25	-7.	0.	110.4
5014	-6.	-7.25	0.	104.63
5015	-7.75	-7.	0.	100.07
5016	-8.	-7.25	0.	94.418
5017	-6.	-7.75	0.	103.23
5018	-6.25	-8.	0.	107.71
5019	-8.	-7.75	0.	96.203
5020	-7.75	-8.	0.	102.82
5021	-6.75	-7.	0.	115.31
5022	-6.5	-7.25	0.	116.59
5023	-7.25	-7.	0.	110.76
5024	-7.	-7.25	0.	113.81
5025	-7.5	-7.25	0.	108.92
5026	-6.25	-7.5	0.	110.76
5027	-7.75	-7.5	0.	103.27
5028	-7.25	-8.	0.	111.38
5029	-7.5	-7.75	0.	109.93
5030	-6.75	-8.	0.	113.57
5031	-7.	-7.75	0.	113.4
5032	-6.5	-7.75	0.	115.25
5033	-7.25	-7.5	0.	111.97
5034	-6.75	-7.5	0.	115.11
5035	-5.	6.	0.	100.2
5036	-7.	6.	0.	99.046
5037	-5.	5.	0.	100.08
5038	-7.	5.	0.	96.128
5039	-5.5	6.	0.	113.26
5040	-6.	6.	0.	109.19
5041	-6.5	6.	0.	111.73
5042	-5.	5.5	0.	104.81
5043	-7.	5.5	0.	101.99
5044	-6.5	5.	0.	113.54
5045	-6.	5.	0.	112.93
5046	-5.5	5.	0.	115.52
5047	-6.5	5.5	0.	111.37
5048	-6.	5.5	0.	114.42
5049	-5.5	5.5	0.	113.09
5050	-5.25	6.	0.	106.69
5051	-5.	5.75	0.	102.49
5052	-6.75	6.	0.	105.35
5053	-7.	5.75	0.	100.51
5054	-5.	5.25	0.	102.43
5055	-5.25	5.	0.	107.73
5056	-7.	5.25	0.	99.032
5057	-6.75	5.	0.	104.77
5058	-5.75	6.	0.	111.2
5059	-5.5	5.75	0.	113.15
5060	-6.25	6.	0.	110.43
5061	-6.	5.75	0.	111.8
5062	-6.5	5.75	0.	111.53
5063	-5.25	5.5	0.	108.94
5064	-6.75	5.5	0.	106.67
5065	-6.25	5.	0.	113.23
5066	-6.5	5.25	0.	112.43
5067	-5.75	5.	0.	114.22
5068	-6.	5.25	0.	113.67
5069	-5.5	5.25	0.	114.28
5070	-6.25	5.5	0.	112.88
5071	-5.75	5.5	0.	113.75
5072	-1.	-2.	0.	96.07
5073	-2.	-2.	0.	97.595
5074	-1.	-3.	0.	93.345
5075	-2.	-3.	0.	97.934
5076	-1.5	-2.	0.	111.91
5077	-1.	-2.5	0.	99.774
5078	-2.	-2.5	0.	102.3
5079	-1.5	-3.	0.	110.32
5080	-1.5	-2.5	0.	108.29
5081	-1.25	-2.	0.	103.97
5082	-1.	-2.25	0.	97.904
5083	-1.75	-2.	0.	104.72
5084	-2.	-2.25	0.	99.943
5085	-1.	-2.75	0.	96.534
5086	-1.25	-3.	0.	101.83
5087	-2.	-2.75	0.	100.12
5088	-1.75	-3.	0.	104.11
5089	-1.5	-2.25	0.	110.06
5090	-1.25	-2.5	0.	103.99
5091	-1.75	-2.5	0.	105.28
5092	-1.5	-2.75	0.	109.25
5093	-1.	-7.	0.	90.647
5094	-2.	-7.	0.	97.005
5095	-1.	-9.	0.	92.625
5096	-2.	-9.	0.	94.037
5097	-1.5	-7.	0.	108.05
5098	-1.	-7.5	0.	95.824
5099	-1.	-8.	0.	95.334
5100	-1.	-8.5	0.	96.355
5101	-2.	-7.5	0.	99.303
5102	-2.	-8.	0.	97.795
5103	-2.	-8.5	0.	98.49
5104	-1.5	-9.	0.	106.39
5105	-1.5	-7.5	0.	102.03
5106	-1.5	-8.	0.	99.627
5107	-1.5	-8.5	0.	101.51
5108	-1.25	-7.	0.	99.285
5109	-1.	-7.25	0.	93.221
5110	-1.75	-7.	0.	102.46
5111	-2.	-7.25	0.	98.152
5112	-1.	-8.75	0.	94.489
5113	-1.25	-9.	0.	99.476
5114	-2.	-8.75	0.	96.258
5115	-1.75	-9.	0.	100.16
5116	-1.5	-7.25	0.	105.
5117	-1.	-7.75	0.	95.534
5118	-1.25	-7.5	0.	98.883
5119	-1.	-8.25	0.	95.801
5120	-1.25	-8.	0.	97.479
5121	-1.25	-8.5	0.	98.887
5122	-2.	-7.75	0.	98.518
5123	-1.75	-7.5	0.	100.61
5124	-2.	-8.25	0.	98.115
5125	-1.75	-8.	0.	98.711
5126	-1.75	-8.5	0.	99.962
5127	-1.5	-8.75	0.	103.9
5128	-1.5	-7.75	0.	100.83
5129	-1.5	-8.25	0.	100.57
5130	0.	3.	0.	93.815
5131	-1.	3.	0.	94.119
5132	0.	1.	0.	94.129
5133	-1.	1.	0.	94.201
5134	-0.5	3.	0.	107.17
5135	0.	2.5	0.	97.903
5136	0.	2.	0.	97.03
5137	0.	1.5	0.	98.116
5138	-1.	2.5	0.	98.071
5139	-1.	2.	0.	97.201
5140	-1.	1.5	0.	98.229
5141	-0.5	1.	0.	107.9
5142	-0.5	2.5	0.	102.19
5143	-0.5	2.	0.	100.27
5144	-0.5	1.5	0.	102.43
5145	-0.25	3.	0.	100.45
5146	0.	2.75	0.	95.856
5147	-0.75	3.	0.	100.6
5148	-1.	2.75	0.	96.093
5149	0.	1.25	0.	96.119
5150	-0.25	1.	0.	100.96
5151	-1.	1.25	0.	96.212
5152	-0.75	1.	0.	101.
5153	-0.5	2.75	0.	104.64
5154	0.	2.25	0.	97.43
5155	-0.25	2.5	0.	100.01
5156	0.	1.75	0.	97.534
5157	-0.25	2.	0.	98.649
5158	-0.25	1.5	0.	100.23
5159	-1.	2.25	0.	97.602
5160	-0.75	2.5	0.	100.09
5161	-1.	1.75	0.	97.68
5162	-0.75	2.	0.	98.735
5163	-0.75	1.5	0.	100.28
5164	-0.5	1.25	0.	105.12
5165	-0.5	2.25	0.	101.23
5166	-0.5	1.75	0.	101.35
5167	7.	-6.	0.	90.646
5168	6.	-6.	0.	96.774
5169	7.	-8.	0.	93.223
5170	6.	-8.	0.	93.837
5171	6.5	-6.	0.	107.87
5172	7.	-6.5	0.	95.999
5173	7.	-7.	0.	95.573
5174	7.	-7.5	0.	96.81
5175	6.	-6.5	0.	98.952
5176	6.	-7.	0.	97.416
5177	6.	-7.5	0.	98.218
5178	6.5	-8.	0.	107.12
5179	6.5	-6.5	0.	101.94
5180	6.5	-7.	0.	99.686
5181	6.5	-7.5	0.	101.75
5182	6.75	-6.	0.	99.206
5183	7.	-6.25	0.	93.312
5184	6.25	-6.	0.	102.26
5185	6.	-6.25	0.	97.862
5186	7.	-7.75	0.	95.015
5187	6.75	-8.	0.	100.13
5188	6.	-7.75	0.	96.023
5189	6.25	-8.	0.	100.42
5190	6.5	-6.25	0.	104.86
5191	7.	-6.75	0.	95.74
5192	6.75	-6.5	0.	98.927
5193	7.	-7.25	0.	96.146
5194	6.75	-7.	0.	97.628
5195	6.75	-7.5	0.	99.229
5196	6.	-6.75	0.	98.151
5197	6.25	-6.5	0.	100.39
5198	6.	-7.25	0.	97.785
5199	6.25	-7.	0.	98.55
5200	6.25	-7.5	0.	99.942
5201	6.5	-7.75	0.	104.39
5202	6.5	-6.75	0.	100.81
5203	6.5	-7.25	0.	100.72
5204	5.	2.	0.	97.071
5205	4.	2.	0.	98.36
5206	5.	1.	0.	97.906
5207	4.	1.	0.	102.32
5208	4.5	2.	0.	113.23
5209	5.	1.5	0.	102.37
5210	4.	1.5	0.	105.3
5211	4.5	1.	0.	116.89
5212	4.5	1.5	0.	112.17
5213	4.75	2.	0.	105.15
5214	5.	1.75	0.	99.707
5215	4.25	2.	0.	105.77
5216	4.	1.75	0.	101.81
5217	5.	1.25	0.	100.09
5218	4.75	1.	0.	107.33
5219	4.	1.25	0.	103.8
5220	4.25	1.	0.	109.57
5221	4.5	1.75	0.	112.63
5222	4.75	1.5	0.	107.24
5223	4.25	1.5	0.	108.7
5224	4.5	1.25	0.	114.49
5225	5.	8.	0.	96.074
5226	4.	8.	0.	95.999
5227	5.	6.	0.	95.467
5228	4.	6.	0.	95.52
5229	4.5	8.	0.	110.28
5230	5.	7.5	0.	99.767
5231	5.	7.	0.	98.611
5232	5.	6.5	0.	99.586
5233	4.	7.5	0.	100.13
5234	4.	7.	0.	98.722
5235	4.	6.5	0.	99.536
5236	4.5	6.	0.	109.45
5237	4.5	7.5	0.	104.47
5238	4.5	7.	0.	102.07
5239	4.5	6.5	0.	104.05
5240	4.75	8.	0.	103.13
5241	5.	7.75	0.	97.918
5242	4.25	8.	0.	103.08
5243	4.	7.75	0.	98.057
5244	5.	6.25	0.	97.523
5245	4.75	6.	0.	102.4
5246	4.	6.25	0.	97.527
5247	4.25	6.	0.	102.44
5248	4.5	7.75	0.	107.33
5249	5.	7.25	0.	99.149
5250	4.75	7.5	0.	102.06
5251	5.	6.75	0.	99.061
5252	4.75	7.	0.	100.34
5253	4.75	6.5	0.	101.77
5254	4.	7.25	0.	99.382
5255	4.25	7.5	0.	102.24
5256	4.	6.75	0.	99.084
5257	4.25	7.	0.	100.4
5258	4.25	6.5	0.	101.75
5259	4.5	6.25	0.	106.7
5260	4.5	7.25	0.	103.27
5261	4.5	6.75	0.	103.06
5262	-7.37	3.31	0.	104.18
5263	-8.29	2.3	0.	63.392
5264	-6.95	2.02	0.	55.28
5265	-7.6767	2.9733	0.	88.812
5266	-7.9833	2.6367	0.	92.626
5267	-7.23	2.88	0.	95.62
5268	-7.09	2.45	0.	97.276
5269	-7.8433	2.2067	0.	109.8
5270	-7.3967	2.1133	0.	107.98
5271	-7.7109	2.487	0.	100.95
5272	-7.4982	2.7206	0.	99.637
5273	-7.401	2.4223	0.	97.368
5274	-7.5233	3.1417	0.	94.922
5275	-7.3	3.095	0.	97.483
5276	-8.1367	2.4683	0.	73.703
5277	-8.0667	2.2533	0.	82.217
5278	-7.02	2.235	0.	76.081
5279	-7.1733	2.0667	0.	81.285
5280	-7.83	2.805	0.	90.619
5281	-7.5874	2.8469	0.	94.217
5282	-7.8471	2.5619	0.	96.464
5283	-7.16	2.665	0.	96.284
5284	-7.3641	2.8003	0.	97.454
5285	-7.2455	2.4361	0.	97.285
5286	-7.62	2.16	0.	108.75
5287	-7.7771	2.3469	0.	104.94
5288	-7.3988	2.2678	0.	102.65
5289	-7.6045	2.6038	0.	100.17
5290	-7.556	2.4547	0.	99.051
5291	-7.4496	2.5714	0.	98.465
5292	-5.27	7.92	0.	71.286
5293	-6.49	8.57	0.	78.608
5294	-6.44	7.19	0.	82.778
5295	-5.6767	8.1367	0.	101.59
5296	-6.0833	8.3533	0.	99.758
5297	-5.66	7.6767	0.	100.32
5298	-6.05	7.4333	0.	94.642
5299	-6.4733	8.11	0.	101.55
5300	-6.4567	7.65	0.	100.15
5301	-6.1646	8.0498	0.	98.293
5302	-5.8825	7.8995	0.	102.1
5303	-6.153	7.7307	0.	97.788
5304	-5.4733	8.0283	0.	80.706
5305	-5.465	7.7983	0.	79.886
5306	-6.2867	8.4617	0.	87.377
5307	-6.4817	8.34	0.	88.2
5308	-6.245	7.3117	0.	86.674
5309	-6.4483	7.42	0.	89.325
5310	-5.88	8.245	0.	100.6
5311	-5.7796	8.0181	0.	101.3
5312	-6.1239	8.2016	0.	98.963
5313	-5.855	7.555	0.	97.28
5314	-5.7712	7.7881	0.	100.59
5315	-6.1015	7.582	0.	96.138
5316	-6.465	7.88	0.	100.69
5317	-6.3189	8.0799	0.	99.88
5318	-6.3048	7.6904	0.	98.927
5319	-6.0235	7.9747	0.	100.08
5320	-6.1588	7.8903	0.	98.036
5321	-6.0177	7.8151	0.	99.833
5322	-8.79	-1.21	0.	58.47
5323	-7.97	-2.06	0.	100.34
5324	-7.64	-0.93	0.	50.849
5325	-8.5167	-1.4933	0.	88.054
5326	-8.2433	-1.7767	0.	84.694
5327	-8.4067	-1.1167	0.	107.33
5328	-8.0233	-1.0233	0.	104.11
5329	-7.86	-1.6833	0.	92.838
5330	-7.75	-1.3067	0.	93.457
5331	-8.0174	-1.2919	0.	94.176
5332	-8.2839	-1.3567	0.	97.751
5333	-8.0945	-1.5528	0.	96.
5334	-8.6533	-1.3517	0.	67.962
5335	-8.5983	-1.1633	0.	77.664
5336	-8.1067	-1.9183	0.	90.819
5337	-7.915	-1.8717	0.	93.82
5338	-7.8317	-0.97667	0.	77.075
5339	-7.695	-1.1183	0.	71.951
5340	-8.38	-1.635	0.	86.241
5341	-8.4003	-1.425	0.	92.476
5342	-8.1689	-1.6647	0.	90.321
5343	-8.215	-1.07	0.	105.62
5344	-8.3453	-1.2367	0.	102.09
5345	-8.0204	-1.1576	0.	99.118
5346	-7.805	-1.495	0.	93.002
5347	-7.9772	-1.6181	0.	94.253
5348	-7.8837	-1.2993	0.	93.751
5349	-8.1507	-1.3243	0.	95.826
5350	-8.056	-1.4223	0.	95.026
5351	-8.1892	-1.4547	0.	96.723
5352	0.49	5.76	0.	74.981
5353	-0.47	7.27	0.	102.03
5354	-1.29	5.69	0.	70.914
5355	0.25	6.1375	0.	109.14
5356	1.e-002	6.515	0.	102.58
5357	-0.23	6.8925	0.	96.675
5358	4.5e-002	5.7425	0.	116.83
5359	-0.4	5.725	0.	107.88
5360	-0.845	5.7075	0.	113.1
5361	-0.675	6.875	0.	96.913
5362	-0.88	6.48	0.	101.52
5363	-1.085	6.085	0.	108.33
5364	-0.68762	6.1518	0.	102.89
5365	-0.36891	6.514	0.	103.72
5366	-0.21334	6.0546	0.	104.92
5367	0.37	5.9488	0.	91.335
5368	0.2675	5.7512	0.	94.887
5369	-0.35	7.0813	0.	98.215
5370	-0.5725	7.0725	0.	98.391
5371	-1.0675	5.6988	0.	91.703
5372	-1.1875	5.8875	0.	89.354
5373	0.13	6.3263	0.	105.85
5374	1.8329e-002	6.0961	0.	107.01
5375	-0.11	6.7038	0.	99.612
5376	-0.17945	6.5145	0.	103.13
5377	-0.29945	6.7033	0.	100.18
5378	-0.1775	5.7337	0.	112.35
5379	-8.4171e-002	5.8986	0.	110.8
5380	-0.6225	5.7162	0.	110.49
5381	-0.30667	5.8898	0.	106.37
5382	-0.76631	5.9297	0.	107.98
5383	-0.7775	6.6775	0.	99.188
5384	-0.52195	6.6945	0.	100.31
5385	-0.9825	6.2825	0.	104.92
5386	-0.78381	6.3159	0.	102.2
5387	-0.88631	6.1184	0.	105.6
5388	-0.52827	6.3329	0.	103.27
5389	-0.45048	6.1032	0.	103.79
5390	-0.29112	6.2843	0.	104.3
5391	1.89	-3.24	0.	86.87
5392	0.81	-2.33	0.	98.408
5393	0.56	-3.73	0.	78.114
5394	1.53	-2.9367	0.	112.64
5395	1.17	-2.6333	0.	103.37
5396	1.4467	-3.4033	0.	117.13
5397	1.0033	-3.5667	0.	116.36
5398	0.72667	-2.7967	0.	101.36
5399	0.64333	-3.2633	0.	106.46
5400	1.1303	-3.1637	0.	106.14
5401	1.71	-3.0883	0.	97.93
5402	1.6683	-3.3217	0.	99.726
5403	0.99	-2.4817	0.	99.962
5404	0.76833	-2.5633	0.	99.066
5405	0.78167	-3.6483	0.	96.79
5406	0.60167	-3.4967	0.	92.042
5407	1.35	-2.785	0.	107.96
5408	1.3302	-3.0502	0.	109.25
5409	0.94833	-2.715	0.	102.35
5410	1.1502	-2.8985	0.	104.73
5411	1.225	-3.485	0.	116.64
5412	1.2885	-3.2835	0.	111.51
5413	1.0668	-3.3652	0.	111.23
5414	0.685	-3.03	0.	103.84
5415	0.88683	-3.2135	0.	106.23
5416	-5.e-002	-4.78	0.	53.905
5417	-1.38	-4.89	0.	54.525
5418	-0.62	-5.98	0.	108.98
5419	-0.49333	-4.8167	0.	113.59
5420	-0.93667	-4.8533	0.	111.39
5421	-0.24	-5.18	0.	97.052
5422	-0.43	-5.58	0.	92.042
5423	-1.1267	-5.2533	0.	92.301
5424	-0.87333	-5.6167	0.	88.196
5425	-0.53492	-5.1166	0.	99.198
5426	-0.84314	-5.142	0.	99.554
5427	-0.6675	-5.3936	0.	99.978
5428	-0.27167	-4.7983	0.	83.154
5429	-0.145	-4.98	0.	74.82
5430	-1.1583	-4.8717	0.	80.853
5431	-1.2533	-5.0717	0.	71.204
5432	-0.525	-5.78	0.	98.602
5433	-0.74667	-5.7983	0.	97.098
5434	-0.715	-4.835	0.	112.38
5435	-0.51413	-4.9666	0.	106.31
5436	-0.8899	-4.9977	0.	105.3
5437	-0.335	-5.38	0.	94.431
5438	-0.38746	-5.1483	0.	98.041
5439	-0.54875	-5.4868	0.	95.922
5440	-1.	-5.435	0.	90.055
5441	-0.9849	-5.1977	0.	95.731
5442	-0.77042	-5.5051	0.	94.03
5443	-0.68903	-5.1293	0.	99.243
5444	-0.60121	-5.2551	0.	99.519
5445	-0.75532	-5.2678	0.	99.661
5446	7.46	2.28	0.	80.919
5447	8.62	2.94	0.	72.825
5448	7.47	3.61	0.	82.482
5449	7.8467	2.5	0.	99.49
5450	8.2333	2.72	0.	103.35
5451	7.4633	2.7233	0.	103.29
5452	7.4667	3.1667	0.	103.16
5453	8.2367	3.1633	0.	102.81
5454	7.8533	3.3867	0.	98.897
5455	7.7622	3.0982	0.	100.43
5456	7.7592	2.7903	0.	100.15
5457	8.0279	2.9432	0.	104.31
5458	7.6533	2.39	0.	88.129
5459	7.4617	2.5017	0.	89.971
5460	8.4267	2.83	0.	81.762
5461	8.4283	3.0517	0.	81.566
5462	7.4683	3.3883	0.	90.614
5463	7.6617	3.4983	0.	88.622
5464	8.04	2.61	0.	101.29
5465	7.8029	2.6452	0.	99.74
5466	8.1306	2.8316	0.	103.21
5467	7.465	2.945	0.	103.06
5468	7.6112	2.7568	0.	101.68
5469	7.6144	3.1324	0.	101.75
5470	8.045	3.275	0.	100.73
5471	8.1323	3.0533	0.	102.94
5472	7.8078	3.2424	0.	99.588
5473	7.7607	2.9442	0.	100.28
5474	7.895	3.0207	0.	102.25
5475	7.8935	2.8667	0.	102.11
5476	6.95	-4.74	0.	76.4
5477	7.96	-4.2	0.	64.787
5478	6.99	-3.6	0.	84.272
5479	7.455	-4.47	0.	99.356
5480	6.97	-4.17	0.	100.44
5481	7.475	-3.9	0.	94.037
5482	7.2999	-4.1799	0.	100.64
5483	7.2025	-4.605	0.	86.132
5484	6.96	-4.455	0.	87.159
5485	7.7075	-4.335	0.	76.805
5486	7.7175	-4.05	0.	74.079
5487	6.98	-3.885	0.	90.779
5488	7.2325	-3.75	0.	87.443
5489	7.3775	-4.3249	0.	99.132
5490	7.135	-4.1749	0.	100.52
5491	7.3875	-4.0399	0.	96.391
5492	5.69	-1.29	0.	110.29
5493	6.32	-0.21	0.	55.508
5494	5.07	-0.2	0.	53.774
5495	5.9	-0.93	0.	91.598
5496	6.11	-0.57	0.	95.537
5497	5.4833	-0.92667	0.	91.186
5498	5.2767	-0.56333	0.	96.125
5499	5.9033	-0.20667	0.	114.08
5500	5.4867	-0.20333	0.	114.9
5501	5.8389	-0.48424	0.	100.67
5502	5.5495	-0.48125	0.	101.12
5503	5.6931	-0.73376	0.	101.28
5504	5.795	-1.11	0.	99.208
5505	5.5867	-1.1083	0.	99.045
5506	6.215	-0.39	0.	74.189
5507	6.1117	-0.20833	0.	83.696
5508	5.1733	-0.38167	0.	73.484
5509	5.2783	-0.20167	0.	82.99
5510	6.005	-0.75	0.	93.412
5511	5.7966	-0.83188	0.	96.352
5512	5.9744	-0.52712	0.	97.958
5513	5.38	-0.745	0.	93.52
5514	5.5882	-0.83021	0.	96.168
5515	5.4131	-0.52229	0.	98.489
5516	5.695	-0.205	0.	114.39
5517	5.8711	-0.34546	0.	107.26
5518	5.5181	-0.34229	0.	107.88
5519	5.6942	-0.48275	0.	100.75
5520	5.766	-0.609	0.	100.88
5521	5.6213	-0.60751	0.	101.1
5522	-7.	-4.	0.	96.246
5523	-9.	-4.	0.	98.795
5524	-7.	-6.	0.	92.599
5525	-9.	-6.	0.	101.63
5526	-7.5	-4.	0.	109.2
5527	-8.	-4.	0.	106.74
5528	-8.5	-4.	0.	110.38
5529	-7.	-4.5	0.	99.853
5530	-7.	-5.	0.	98.071
5531	-7.	-5.5	0.	98.283
5532	-9.	-4.5	0.	103.85
5533	-9.	-5.	0.	103.63
5534	-9.	-5.5	0.	105.34
5535	-8.5	-6.	0.	114.65
5536	-8.	-6.	0.	109.11
5537	-7.5	-6.	0.	107.81
5538	-8.	-5.	0.	110.78
5539	-8.	-4.5	0.	110.21
5540	-7.5	-4.5	0.	107.02
5541	-7.5	-5.	0.	106.19
5542	-7.5	-5.5	0.	106.39
5543	-8.	-5.5	0.	111.33
5544	-8.5	-5.5	0.	111.38
5545	-8.5	-5.	0.	109.83
5546	-8.5	-4.5	0.	109.45
5547	-7.25	-4.	0.	102.65
5548	-7.	-4.25	0.	98.04
5549	-8.75	-4.	0.	104.54
5550	-9.	-4.25	0.	101.32
5551	-7.	-5.75	0.	95.422
5552	-7.25	-6.	0.	100.16
5553	-9.	-5.75	0.	103.48
5554	-8.75	-6.	0.	108.04
5555	-7.75	-4.	0.	107.97
5556	-7.5	-4.25	0.	108.08
5557	-8.25	-4.	0.	108.56
5558	-8.	-4.25	0.	108.45
5559	-8.5	-4.25	0.	109.88
5560	-7.	-4.75	0.	98.932
5561	-7.25	-4.5	0.	103.42
5562	-7.	-5.25	0.	98.144
5563	-7.25	-5.	0.	102.12
5564	-7.25	-5.5	0.	102.32
5565	-9.	-4.75	0.	103.73
5566	-8.75	-4.5	0.	106.65
5567	-9.	-5.25	0.	104.47
5568	-8.75	-5.	0.	106.73
5569	-8.75	-5.5	0.	108.34
5570	-8.25	-6.	0.	111.87
5571	-8.5	-5.75	0.	112.98
5572	-7.75	-6.	0.	108.46
5573	-8.	-5.75	0.	110.2
5574	-7.5	-5.75	0.	107.08
5575	-8.	-4.75	0.	110.49
5576	-7.75	-5.	0.	108.48
5577	-8.	-5.25	0.	111.05
5578	-8.25	-5.	0.	110.3
5579	-7.75	-4.5	0.	108.61
5580	-8.25	-4.5	0.	109.83
5581	-7.5	-4.75	0.	106.59
5582	-7.5	-5.25	0.	106.27
5583	-7.75	-5.5	0.	108.85
5584	-8.25	-5.5	0.	111.34
5585	-8.5	-5.25	0.	110.6
5586	-8.5	-4.75	0.	109.64
