Node Number	X Location (mm)	Y Location (mm)	Z Location (mm)	Equivalent (von-Mises) Stress (MPa)
1	6.25	-7.62	0.	148.59
2	6.14	-6.06	0.	141.06
3	4.84	-6.93	0.	158.68
4	7.37	-3.24	0.	165.85
5	7.86	-4.53	0.	116.57
6	8.73	-3.46	0.	180.17
7	5.87	5.58	0.	137.08
8	4.21	4.57	0.	157.93
9	5.92	3.64	0.	143.8
10	0.5	-1.76	0.	120.69
11	5.e-002	-3.41	0.	165.68
12	1.7	-2.97	0.	176.49
13	0.3	6.26	0.	158.81
14	-1.11	7.21	0.	133.77
15	-1.23	5.52	0.	134.41
16	1.7	-7.66	0.	170.95
17	0.25	-7.31	0.	161.94
18	0.67	-8.74	0.	117.23
19	-6.68	4.2	0.	165.37
20	-7.85	5.5	0.	114.47
21	-8.39	3.84	0.	155.82
22	-7.28	-4.84	0.	125.04
23	-8.1	-5.49	0.	143.07
24	-7.13	-5.88	0.	150.26
25	-8.23	0.82	0.	167.15
26	-6.67	0.43	0.	162.51
27	-7.12	1.98	0.	113.24
28	4.	8.	0.	138.36
29	4.	7.	0.	135.29
30	6.	8.	0.	134.48
31	6.	7.	0.	132.06
32	5.	1.	0.	135.92
33	5.	0.	0.	136.81
34	7.	1.	0.	133.89
35	7.	0.	0.	130.09
36	7.	4.	0.	135.75
37	7.	2.	0.	137.39
38	9.	4.	0.	139.02
39	9.	2.	0.	140.
40	-2.	1.	0.	132.07
41	-2.	0.	0.	129.47
42	-1.	1.	0.	128.83
43	-1.	0.	0.	128.22
44	-1.	4.	0.	125.21
45	-1.	3.	0.	128.21
46	0.	4.	0.	128.9
47	0.	3.	0.	130.87
48	-2.	-1.	0.	129.58
49	-2.	-3.	0.	132.68
50	-1.	-1.	0.	130.37
51	-1.	-3.	0.	132.4
52	-9.	-7.	0.	138.55
53	-9.	-9.	0.	134.58
54	-7.	-7.	0.	130.85
55	-7.	-9.	0.	133.55
56	-6.	-8.	0.	137.33
57	-6.	-9.	0.	137.79
58	-5.	-8.	0.	136.6
59	-5.	-9.	0.	135.67
60	-8.	-2.	0.	127.07
61	-8.	-3.	0.	126.54
62	-7.	-2.	0.	126.53
63	-7.	-3.	0.	127.1
64	10.	10.	0.	125.01
65	-10.	10.	0.	124.99
66	10.	-10.	0.	127.16
67	-10.	-10.	0.	145.48
68	6.2133	-7.1	0.	144.28
69	6.1767	-6.58	0.	144.02
70	5.78	-7.39	0.	98.56
71	5.31	-7.16	0.	84.509
72	5.7067	-6.35	0.	92.041
73	5.2733	-6.64	0.	78.125
74	7.5333	-3.67	0.	132.64
75	7.6967	-4.1	0.	123.46
76	7.8233	-3.3133	0.	111.31
77	8.2767	-3.3867	0.	107.07
78	8.15	-4.1733	0.	91.153
79	8.44	-3.8167	0.	97.214
80	5.455	5.3275	0.	94.859
81	5.04	5.075	0.	105.37
82	4.625	4.8225	0.	86.558
83	5.8825	5.095	0.	145.07
84	5.895	4.61	0.	147.06
85	5.9075	4.125	0.	146.
86	4.6375	4.3375	0.	89.24
87	5.065	4.105	0.	107.81
88	5.4925	3.8725	0.	99.134
89	0.3875	-2.1725	0.	131.43
90	0.275	-2.585	0.	139.12
91	0.1625	-2.9975	0.	142.72
92	0.8	-2.0625	0.	94.821
93	1.1	-2.365	0.	105.62
94	1.4	-2.6675	0.	93.824
95	0.4625	-3.3	0.	107.96
96	0.875	-3.19	0.	115.01
97	1.2875	-3.08	0.	94.076
98	-5.2514e-002	6.4975	0.	81.688
99	-0.40503	6.735	0.	102.23
100	-0.75752	6.9725	0.	96.312
101	-8.25e-002	6.075	0.	87.945
102	-0.465	5.89	0.	105.1
103	-0.8475	5.705	0.	104.31
104	-1.14	6.7875	0.	140.01
105	-1.17	6.365	0.	142.09
106	-1.2	5.9425	0.	142.28
107	1.2167	-7.5433	0.	94.646
108	0.73333	-7.4267	0.	105.38
109	1.3567	-8.02	0.	84.936
110	1.0133	-8.38	0.	85.253
111	0.39	-7.7867	0.	135.27
112	0.53	-8.2633	0.	123.18
113	-6.9725	4.525	0.	100.45
114	-7.265	4.85	0.	108.07
115	-7.5575	5.175	0.	93.974
116	-7.1075	4.11	0.	98.335
117	-7.535	4.02	0.	112.16
118	-7.9625	3.93	0.	105.34
119	-7.985	5.085	0.	126.29
120	-8.12	4.67	0.	133.83
121	-8.255	4.255	0.	132.16
122	-7.69	-5.165	0.	61.468
123	-7.205	-5.36	0.	137.84
124	-7.615	-5.685	0.	79.203
125	-7.71	0.69	0.	100.42
126	-7.19	0.56	0.	105.78
127	-7.86	1.2067	0.	76.836
128	-7.49	1.5933	0.	84.089
129	-6.82	0.94667	0.	134.88
130	-6.97	1.4633	0.	128.71
131	4.	7.5	0.	145.2
132	4.5	8.	0.	117.57
133	5.	8.	0.	122.42
134	5.5	8.	0.	116.86
135	4.5	7.	0.	117.51
136	5.	7.	0.	119.25
137	5.5	7.	0.	112.42
138	6.	7.5	0.	141.91
139	5.	0.5	0.	144.96
140	5.5	1.	0.	118.28
141	6.	1.	0.	124.94
142	6.5	1.	0.	119.48
143	5.5	0.	0.	117.6
144	6.	0.	0.	122.02
145	6.5	0.	0.	115.71
146	7.	0.5	0.	138.82
147	7.	3.5	0.	148.62
148	7.	3.	0.	150.69
149	7.	2.5	0.	146.88
150	7.5	4.	0.	115.86
151	8.	4.	0.	120.15
152	8.5	4.	0.	116.03
153	7.5	2.	0.	119.68
154	8.	2.	0.	124.67
155	8.5	2.	0.	119.29
156	9.	3.5	0.	150.22
157	9.	3.	0.	152.49
158	9.	2.5	0.	150.95
159	-2.	0.5	0.	140.75
160	-1.5	1.	0.	107.96
161	-1.5	0.	0.	104.72
162	-1.	0.5	0.	138.06
163	-1.	3.5	0.	136.38
164	-0.5	4.	0.	105.34
165	-0.5	3.	0.	107.09
166	0.	3.5	0.	139.13
167	-2.	-1.5	0.	140.97
168	-2.	-2.	0.	141.64
169	-2.	-2.5	0.	141.47
170	-1.5	-1.	0.	103.95
171	-1.5	-3.	0.	107.42
172	-1.	-1.5	0.	142.42
173	-1.	-2.	0.	142.15
174	-1.	-2.5	0.	139.68
175	-9.	-7.5	0.	148.1
176	-9.	-8.	0.	149.21
177	-9.	-8.5	0.	146.98
178	-8.5	-7.	0.	115.32
179	-8.	-7.	0.	114.12
180	-7.5	-7.	0.	107.57
181	-8.5	-9.	0.	110.64
182	-8.	-9.	0.	113.05
183	-7.5	-9.	0.	109.36
184	-7.	-7.5	0.	143.43
185	-7.	-8.	0.	143.57
186	-7.	-8.5	0.	140.19
187	-6.	-8.5	0.	145.63
188	-5.5	-8.	0.	113.28
189	-5.5	-9.	0.	113.41
190	-5.	-8.5	0.	145.97
191	-8.	-2.5	0.	136.47
192	-7.5	-2.	0.	104.49
193	-7.5	-3.	0.	104.19
194	-7.	-2.5	0.	136.52
195	9.5	10.	0.	125.06
196	9.	10.	0.	125.26
197	8.5	10.	0.	125.49
198	8.	10.	0.	125.66
199	7.5	10.	0.	125.6
200	7.	10.	0.	125.04
201	6.5	10.	0.	123.78
202	6.	10.	0.	122.07
203	5.5	10.	0.	120.72
204	5.	10.	0.	120.48
205	4.5	10.	0.	121.66
206	4.	10.	0.	123.93
207	3.5	10.	0.	126.41
208	3.	10.	0.	128.19
209	2.5	10.	0.	128.93
210	2.	10.	0.	128.85
211	1.5	10.	0.	128.21
212	1.	10.	0.	127.19
213	0.5	10.	0.	126.
214	-5.2042e-015	10.	0.	124.93
215	-0.5	10.	0.	124.31
216	-1.	10.	0.	124.32
217	-1.5	10.	0.	124.92
218	-2.	10.	0.	125.8
219	-2.5	10.	0.	126.58
220	-3.	10.	0.	127.07
221	-3.5	10.	0.	127.21
222	-4.	10.	0.	127.09
223	-4.5	10.	0.	126.79
224	-5.	10.	0.	126.37
225	-5.5	10.	0.	125.89
226	-6.	10.	0.	125.4
227	-6.5	10.	0.	124.97
228	-7.	10.	0.	124.64
229	-7.5	10.	0.	124.47
230	-8.	10.	0.	124.47
231	-8.5	10.	0.	124.6
232	-9.	10.	0.	124.81
233	-9.5	10.	0.	124.97
234	10.	9.5	0.	124.89
235	10.	9.	0.	124.52
236	10.	8.5	0.	124.17
237	10.	8.	0.	124.05
238	10.	7.5	0.	124.3
239	10.	7.	0.	124.99
240	10.	6.5	0.	126.25
241	10.	6.	0.	128.25
242	10.	5.5	0.	131.23
243	10.	5.	0.	134.91
244	10.	4.5	0.	136.51
245	10.	4.	0.	133.89
246	10.	3.5	0.	130.76
247	10.	3.	0.	131.44
248	10.	2.5	0.	132.27
249	10.	2.	0.	136.43
250	10.	1.5	0.	139.31
251	10.	1.	0.	137.45
252	10.	0.5	0.	133.73
253	10.	-5.2042e-015	0.	131.45
254	10.	-0.5	0.	130.98
255	10.	-1.	0.	131.9
256	10.	-1.5	0.	133.71
257	10.	-2.	0.	135.65
258	10.	-2.5	0.	135.11
259	10.	-3.	0.	129.73
260	10.	-3.5	0.	122.36
261	10.	-4.	0.	123.5
262	10.	-4.5	0.	128.14
263	10.	-5.	0.	131.12
264	10.	-5.5	0.	130.19
265	10.	-6.	0.	127.82
266	10.	-6.5	0.	125.62
267	10.	-7.	0.	124.35
268	10.	-7.5	0.	124.12
269	10.	-8.	0.	124.64
270	10.	-8.5	0.	125.52
271	10.	-9.	0.	126.38
272	10.	-9.5	0.	126.96
273	-10.	9.5	0.	125.05
274	-10.	9.	0.	125.4
275	-10.	8.5	0.	126.02
276	-10.	8.	0.	126.86
277	-10.	7.5	0.	127.93
278	-10.	7.	0.	129.08
279	-10.	6.5	0.	129.82
280	-10.	6.	0.	129.41
281	-10.	5.5	0.	127.24
282	-10.	5.	0.	124.36
283	-10.	4.5	0.	122.99
284	-10.	4.	0.	125.35
285	-10.	3.5	0.	130.5
286	-10.	3.	0.	134.25
287	-10.	2.5	0.	134.07
288	-10.	2.	0.	130.39
289	-10.	1.5	0.	125.45
290	-10.	1.	0.	122.81
291	-10.	0.5	0.	124.52
292	-10.	-5.2042e-015	0.	128.5
293	-10.	-0.5	0.	131.26
294	-10.	-1.	0.	131.59
295	-10.	-1.5	0.	130.08
296	-10.	-2.	0.	128.03
297	-10.	-2.5	0.	126.97
298	-10.	-3.	0.	127.71
299	-10.	-3.5	0.	129.31
300	-10.	-4.	0.	130.15
301	-10.	-4.5	0.	129.51
302	-10.	-5.	0.	128.48
303	-10.	-5.5	0.	129.95
304	-10.	-6.	0.	134.64
305	-10.	-6.5	0.	138.31
306	-10.	-7.	0.	136.23
307	-10.	-7.5	0.	132.26
308	-10.	-8.	0.	131.78
309	-10.	-8.5	0.	132.57
310	-10.	-9.	0.	137.86
311	-10.	-9.5	0.	143.48
312	-9.5	-10.	0.	134.7
313	-9.	-10.	0.	122.06
314	-8.5	-10.	0.	110.69
315	-8.	-10.	0.	106.87
316	-7.5	-10.	0.	111.96
317	-7.	-10.	0.	123.95
318	-6.5	-10.	0.	132.55
319	-6.	-10.	0.	126.7
320	-5.5	-10.	0.	120.06
321	-5.	-10.	0.	124.75
322	-4.5	-10.	0.	132.92
323	-4.	-10.	0.	134.61
324	-3.5	-10.	0.	133.22
325	-3.	-10.	0.	132.
326	-2.5	-10.	0.	131.29
327	-2.	-10.	0.	131.1
328	-1.5	-10.	0.	131.21
329	-1.	-10.	0.	131.09
330	-0.5	-10.	0.	129.54
331	5.2042e-015	-10.	0.	124.18
332	0.5	-10.	0.	117.07
333	1.	-10.	0.	114.45
334	1.5	-10.	0.	120.19
335	2.	-10.	0.	127.
336	2.5	-10.	0.	131.05
337	3.	-10.	0.	132.01
338	3.5	-10.	0.	131.02
339	4.	-10.	0.	128.74
340	4.5	-10.	0.	125.53
341	5.	-10.	0.	122.11
342	5.5	-10.	0.	119.72
343	6.	-10.	0.	119.36
344	6.5	-10.	0.	121.03
345	7.	-10.	0.	123.48
346	7.5	-10.	0.	125.41
347	8.	-10.	0.	126.35
348	8.5	-10.	0.	126.57
349	9.	-10.	0.	126.51
350	9.5	-10.	0.	126.57
351	-4.8128	5.5438	0.	127.04
352	-4.6983	6.0382	0.	126.94
353	-4.2095	6.0065	0.	126.58
354	1.3041	-5.048	0.	119.89
355	-4.2807	5.5172	0.	126.82
356	-3.8843	3.5373	0.	129.15
357	1.289	-5.5032	0.	118.83
358	1.7275	-5.0643	0.	123.7
359	-3.051	-5.9815	0.	130.05
360	-3.9172	3.0463	0.	129.91
361	-3.3703	4.0037	0.	128.42
362	1.9731	0.49015	0.	127.44
363	-3.539	-5.4927	0.	130.31
364	-3.6465	6.4771	0.	126.13
365	4.1679	-3.5553	0.	125.64
366	-4.4019	3.0971	0.	130.62
367	-4.019	-4.9912	0.	130.25
368	4.6331	-3.4621	0.	123.71
369	-3.8613	4.029	0.	128.46
370	-2.5617	-5.9655	0.	129.66
371	-2.078	-5.9442	0.	129.31
372	-5.1039	6.0997	0.	127.27
373	-5.1839	6.5725	0.	126.99
374	-4.6534	6.5403	0.	126.72
375	-5.6376	6.7412	0.	126.67
376	-4.5059	2.2268	0.	130.98
377	-4.4507	2.6445	0.	131.14
378	-2.5602	-6.4674	0.	129.33
379	-4.0093	-1.9712	0.	130.15
380	1.8265	-5.5629	0.	123.81
381	-3.0476	-6.4824	0.	129.86
382	-3.9589	2.5484	0.	130.47
383	-3.4006	3.5131	0.	128.57
384	2.0028	1.521	0.	129.05
385	1.4797	0.53368	0.	126.24
386	1.9493	-9.5487e-002	0.	127.45
387	-3.5452	-5.9913	0.	130.24
388	-1.5964	-5.9177	0.	129.13
389	2.8691	-1.4461	0.	131.26
390	-3.5275	-4.9912	0.	130.56
391	-4.0072	-4.4838	0.	130.61
392	3.2567	-5.07	0.	132.
393	-4.0351	-5.4949	0.	129.97
394	-3.1486	6.4389	0.	125.91
395	-4.8855	3.1494	0.	131.47
396	-1.5769	-5.4254	0.	128.64
397	-3.0449	-5.4815	0.	130.17
398	-4.5074	-4.977	0.	129.63
399	-4.4945	-4.4715	0.	130.1
400	-4.4924	-3.9724	0.	130.28
401	-4.5083	-2.4714	0.	129.32
402	-4.5004	1.8368	0.	130.4
403	2.4702	0.51453	0.	128.4
404	2.5144	2.0218	0.	130.46
405	-2.0786	-6.445	0.	128.98
406	5.2043	-3.8752	0.	121.61
407	-4.3651	3.5736	0.	129.54
408	2.3471	-5.3187	0.	128.54
409	-3.8381	4.5153	0.	127.93
410	-3.7082	5.9782	0.	126.37
411	-3.7657	5.4877	0.	126.9
412	-3.8096	5.002	0.	127.44
413	2.8016	-5.0024	0.	131.2
414	3.1953	-4.6653	0.	131.71
415	4.0171	-3.0657	0.	125.53
416	3.9491	-2.5446	0.	126.04
417	2.4114	-1.4943	0.	132.14
418	-4.3479	4.0616	0.	128.37
419	5.0219	-2.9095	0.	122.77
420	2.5024	1.5182	0.	129.63
421	2.4613	4.3446e-002	0.	128.67
422	2.3749	-0.41513	0.	129.22
423	4.4661	-2.48	0.	124.89
424	-4.4451	1.4129	0.	129.61
425	-4.4087	0.94999	0.	129.26
426	-4.3461	-0.46763	0.	131.43
427	-4.3545	-0.93063	0.	131.46
428	-2.5527	-5.467	0.	129.69
429	-4.52	-1.9503	0.	129.76
430	-4.4949	-3.4756	0.	130.
431	-4.5004	-2.9756	0.	129.52
432	-4.3593	4.1726e-003	0.	130.68
433	-4.3834	0.48054	0.	129.7
434	4.8879	-4.4295	0.	123.88
435	4.0646	-4.5686	0.	129.23
436	-5.5526	6.003	0.	127.81
437	-5.6265	6.3773	0.	127.26
438	-4.9872	-4.9467	0.	128.88
439	-3.0747	6.9447	0.	126.48
440	-4.9901	1.8453	0.	130.49
441	-4.9445	1.3956	0.	129.09
442	-3.5782	6.9844	0.	126.4
443	-4.0898	7.006	0.	126.44
444	-4.5984	7.0343	0.	126.54
445	-5.098	7.077	0.	126.52
446	-5.5851	7.1473	0.	126.16
447	-6.0729	7.1673	0.	125.3
448	-6.5568	7.1517	0.	123.8
449	-4.5353	-5.4868	0.	129.22
450	3.2384	-5.5166	0.	132.04
451	-5.4972	-5.3494	0.	127.2
452	-3.5161	-4.4888	0.	130.93
453	-1.1163	-5.8902	0.	128.93
454	5.9628	-1.8851	0.	122.16
455	-7.0409	7.122	0.	121.85
456	-4.0484	-5.9968	0.	129.96
457	1.441	4.7968e-002	0.	125.56
458	0.9862	0.56628	0.	125.08
459	-3.4315	3.0164	0.	129.1
460	-3.4636	2.5137	0.	129.85
461	-3.5435	-6.4917	0.	130.33
462	-2.064	-6.9518	0.	128.19
463	-2.5472	-6.9728	0.	128.76
464	-3.0364	-6.9859	0.	129.52
465	7.0989	5.532	0.	127.66
466	1.2116	-5.9737	0.	116.58
467	-2.9151	3.4977	0.	127.6
468	2.2711	-5.8235	0.	127.77
469	-3.5011	-1.9888	0.	130.57
470	-2.6539	6.3935	0.	125.84
471	-6.0936	6.7337	0.	125.94
472	-5.8819	5.4824	0.	128.62
473	3.025	2.5212	0.	131.6
474	-4.9542	2.7145	0.	132.2
475	-4.8978	0.93716	0.	128.5
476	-4.7935	-0.47068	0.	131.54
477	-4.978	-4.45	0.	129.65
478	-4.9813	-3.958	0.	129.97
479	-5.0095	-2.4754	0.	128.5
480	-1.5481	-4.9357	0.	127.68
481	-3.0337	-4.9839	0.	130.34
482	-4.0067	-2.4747	0.	129.79
483	2.012	2.0224	0.	129.86
484	2.01	3.5444	0.	129.63
485	-3.9931	-1.4669	0.	130.96
486	-3.9065	0.48799	0.	130.04
487	-4.0346	2.0162	0.	130.49
488	3.9113	-2.0153	0.	127.57
489	2.777	-0.9593	0.	131.12
490	3.0155	2.0175	0.	130.93
491	-1.5999	-6.4143	0.	129.01
492	0.8172	-5.4062	0.	117.31
493	-4.8578	5.0528	0.	126.83
494	-4.8367	3.6108	0.	129.92
495	-1.0906	-5.4016	0.	128.05
496	3.3745	-2.0258	0.	128.52
497	2.1263	-4.8608	0.	128.
498	-3.3401	4.4931	0.	128.43
499	-3.2075	5.9485	0.	126.3
500	-3.2596	5.4631	0.	127.29
501	-3.3041	4.9795	0.	128.13
502	2.5387	-4.5999	0.	131.13
503	2.9499	-4.3161	0.	131.75
504	3.4648	-3.2005	0.	126.96
505	3.4303	-2.615	0.	126.76
506	1.7451	-1.3316	0.	129.9
507	-0.60657	-5.3804	0.	126.37
508	-4.8314	4.0883	0.	128.13
509	-4.848	4.5688	0.	127.1
510	5.512	-2.8582	0.	122.16
511	0.34987	-5.3673	0.	119.
512	-0.12483	-5.3663	0.	122.89
513	-1.585	-6.9164	0.	127.99
514	2.9903	1.0155	0.	129.14
515	2.8735	-0.46729	0.	130.21
516	4.4332	-1.9797	0.	126.22
517	-3.9603	1.4793	0.	130.02
518	-3.9276	0.97891	0.	129.71
519	-3.8948	1.9261e-003	0.	131.05
520	-3.9247	-0.97501	0.	131.81
521	2.0188	2.5238	0.	130.17
522	2.0199	3.0283	0.	129.98
523	-4.0006	-3.481	0.	130.51
524	-2.539	-4.9719	0.	129.51
525	-2.0431	-4.9546	0.	128.36
526	-5.0292	-1.97	0.	129.05
527	-5.0746	-1.4687	0.	130.22
528	-4.998	-2.9731	0.	128.86
529	-4.8235	-1.0422e-003	0.	130.67
530	-4.8608	0.47158	0.	129.29
531	-4.9943	2.2829	0.	131.84
532	4.1133	-5.0093	0.	130.96
533	3.5249	2.5129	0.	131.38
534	1.957	4.0978	0.	129.76
535	2.1814	5.1127	0.	130.57
536	2.0822	4.6062	0.	130.17
537	-5.9808	5.8945	0.	128.19
538	-6.0697	6.3108	0.	126.98
539	2.2915	6.5205	0.	130.05
540	2.2584	6.0691	0.	130.55
541	5.0454	3.0568	0.	115.49
542	8.0552	-5.9069	0.	121.03
543	2.727	-5.9543	0.	130.29
544	-2.8834	3.9907	0.	128.19
545	5.7611	-4.2858	0.	120.57
546	-2.1594	6.3655	0.	126.57
547	1.9997	-1.7625	0.	131.49
548	1.0731	-4.315	0.	116.64
549	-6.321	5.3718	0.	128.82
550	1.0967	-6.432	0.	111.69
551	5.0553	6.1418	0.	112.87
552	5.9714	-0.9474	0.	117.7
553	-2.9982	-1.9967	0.	131.62
554	7.5619	5.5211	0.	122.92
555	7.5656	5.0167	0.	118.97
556	-3.5308	-6.9941	0.	130.38
557	-2.0337	-7.4651	0.	127.37
558	-3.0219	-7.4898	0.	129.06
559	5.4147	-4.8436	0.	120.61
560	7.5854	-7.0165	0.	122.58
561	-2.9435	3.0013	0.	127.9
562	-2.9667	2.5023	0.	128.88
563	0.99304	1.043	0.	126.1
564	0.99956	1.529	0.	127.48
565	0.98714	0.10585	0.	124.4
566	7.1121	5.029	0.	124.49
567	0.49256	0.56016	0.	124.43
568	-2.4312	3.4895	0.	126.19
569	-4.0435	-6.4977	0.	130.36
570	6.2291	-4.223	0.	122.07
571	-2.8469	4.4792	0.	129.12
572	-2.7081	5.9208	0.	126.56
573	-2.5882	6.8605	0.	126.73
574	-7.5267	7.0922	0.	120.48
575	-7.5234	7.5706	0.	121.86
576	-7.0335	7.5937	0.	122.63
577	-6.542	7.6121	0.	123.87
578	-6.0491	7.6167	0.	125.
579	-5.5528	7.5988	0.	125.79
580	-5.0553	7.5613	0.	126.23
581	-4.5531	7.5291	0.	126.44
582	-4.042	7.5069	0.	126.62
583	-3.5161	7.4932	0.	126.95
584	-2.9548	7.4873	0.	127.76
585	3.1076	-3.6627	0.	129.75
586	1.862	-4.441	0.	127.44
587	2.7856	-1.9546	0.	130.62
588	1.686	-0.62417	0.	126.68
589	0.42446	-4.8585	0.	118.47
590	-1.0525	-4.9146	0.	127.63
591	-5.4165	5.0524	0.	127.29
592	-5.2862	3.642	0.	130.36
593	6.4654	-1.8758	0.	122.65
594	6.1323	-3.7583	0.	120.67
595	-0.6379	-5.8687	0.	127.68
596	0.75366	-5.8927	0.	115.57
597	-1.0076	-7.7722	0.	125.53
598	-1.1233	-6.38	0.	129.49
599	1.6745	-6.0935	0.	121.89
600	2.4904	7.4927	0.	128.62
601	7.5007	7.494	0.	125.48
602	7.5467	6.0177	0.	126.07
603	4.0223	2.5058	0.	129.17
604	3.5155	2.0113	0.	130.92
605	3.3637	-0.98068	0.	131.08
606	3.4766	0.51259	0.	128.77
607	5.4537	-1.4344	0.	121.91
608	3.8998	-1.496	0.	129.5
609	6.4715	-1.4116	0.	119.96
610	7.4708	-1.9032	0.	118.73
611	-3.4896	2.0069	0.	130.38
612	-3.4855	-1.4899	0.	131.53
613	1.5466	4.816	0.	131.54
614	1.5041	3.4868	0.	128.85
615	1.5089	2.0209	0.	129.36
616	-3.5084	-3.9863	0.	131.24
617	-3.504	-2.4874	0.	130.22
618	-1.5161	-4.4476	0.	125.84
619	-3.0216	-4.4859	0.	130.71
620	-5.9356	-5.2583	0.	126.
621	-7.5937	-0.44992	0.	109.45
622	-5.6403	-1.001	0.	130.99
623	-5.5105	-2.4809	0.	127.28
624	-5.4602	-4.8881	0.	128.15
625	-5.4595	-4.4165	0.	129.44
626	-5.4707	-3.9393	0.	129.95
627	-5.3871	0.9379	0.	127.65
628	-5.2407	-0.49453	0.	132.09
629	-5.4775	2.7784	0.	133.46
630	3.6891	-5.5056	0.	132.94
631	5.0375	-5.3818	0.	125.09
632	3.209	-5.9955	0.	131.24
633	2.6421	-6.4826	0.	130.46
634	4.521	3.005	0.	123.45
635	3.0289	3.0273	0.	132.08
636	2.5221	3.5472	0.	130.51
637	2.7028	6.0234	0.	132.43
638	2.6917	5.5464	0.	131.76
639	-6.5652	6.6914	0.	124.2
640	-5.0298	-5.4491	0.	128.25
641	-4.5693	-5.9952	0.	129.06
642	1.7657	5.2131	0.	131.13
643	1.7917	5.6714	0.	130.27
644	1.8182	6.1421	0.	128.87
645	1.8784	6.6394	0.	128.68
646	0.35337	7.526	0.	127.48
647	-0.35751	5.2067	0.	111.01
648	-7.5258	6.6197	0.	118.34
649	-6.4307	5.7974	0.	127.36
650	-6.5362	6.2356	0.	125.6
651	2.6485	5.0576	0.	130.24
652	2.5279	4.0588	0.	129.67
653	3.5289	3.0158	0.	132.1
654	4.0217	3.0032	0.	129.76
655	3.1915	-6.4853	0.	129.7
656	3.2095	-6.9794	0.	127.74
657	-5.9466	1.4193	0.	129.2
658	-5.4995	2.3303	0.	132.85
659	-5.285	-1.3162e-002	0.	131.32
660	-5.3316	0.4651	0.	128.82
661	-5.4963	-2.9711	0.	127.96
662	-5.5343	-1.9856	0.	127.87
663	-5.6111	-5.7575	0.	127.67
664	-2.524	-4.4777	0.	129.3
665	-3.5041	-2.9851	0.	130.5
666	1.5137	2.5146	0.	129.61
667	1.4694	3.9314	0.	129.45
668	1.4962	4.3587	0.	130.56
669	-3.4536	-0.99294	0.	132.63
670	6.9775	-1.4163	0.	120.5
671	4.4235	-1.4795	0.	127.99
672	4.9408	-1.456	0.	125.19
673	3.4442	1.5108e-002	0.	129.48
674	3.3984	-0.48272	0.	130.67
675	3.5054	1.5105	0.	130.29
676	3.4928	1.0112	0.	129.2
677	7.5282	6.5103	0.	127.15
678	7.5123	7.002	0.	126.34
679	2.4912	6.9558	0.	129.78
680	2.6841	6.4839	0.	131.86
681	2.1353	-6.2799	0.	128.1
682	-1.0761	-7.3419	0.	126.28
683	-0.16455	-5.8586	0.	124.18
684	5.9987	-2.8216	0.	123.13
685	6.0523	-3.2927	0.	121.12
686	6.9674	-1.8811	0.	122.07
687	-5.3004	4.0991	0.	127.93
688	-5.3538	4.5689	0.	126.19
689	-0.55886	-4.8936	0.	126.54
690	-6.7005e-002	-4.8726	0.	122.76
691	0.98829	-1.4481	0.	117.96
692	1.347	-1.0561	0.	124.06
693	2.9915	-3.0111	0.	127.32
694	2.9286	-2.5266	0.	127.18
695	2.2797	-4.205	0.	131.9
696	2.6962	-3.9505	0.	132.39
697	-2.4991	7.2893	0.	128.47
698	-2.8046	4.964	0.	129.29
699	5.4789	2.4625	0.	115.67
700	6.7098	-4.1783	0.	126.19
701	5.0521	-5.8231	0.	125.55
702	-4.5546	-6.5012	0.	129.27
703	-5.0602	-6.523	0.	127.63
704	-7.1308	-0.46479	0.	109.2
705	-3.002	-2.4941	0.	130.74
706	6.4791	-0.94464	0.	117.74
707	0.70448	-6.3614	0.	112.42
708	-5.7828	3.2823	0.	133.35
709	-6.0541	2.8979	0.	133.47
710	1.5828	-4.0378	0.	126.23
711	-2.2082	5.9057	0.	127.
712	-2.3986	3.9837	0.	127.64
713	0.51936	8.244e-002	0.	124.5
714	1.1625	-0.38374	0.	123.95
715	0.57352	-0.34016	0.	123.68
716	7.9492	-2.4165	0.	110.53
717	7.9787	-1.9432	0.	116.56
718	7.9886	-1.4579	0.	119.88
719	0.49312	1.0403	0.	124.9
720	0.49755	1.5263	0.	125.94
721	-2.4551	2.994	0.	126.16
722	-2.4724	2.4971	0.	126.99
723	7.5853	-7.524	0.	124.83
724	5.8603	-4.7647	0.	120.04
725	3.1655	-7.4781	0.	127.13
726	-3.5179	-7.4962	0.	130.06
727	-0.50512	-8.1779	0.	126.89
728	-0.98022	-8.1625	0.	126.19
729	-1.4728	-7.9795	0.	126.28
730	-2.001	-7.9813	0.	127.3
731	-2.5087	-7.9875	0.	128.1
732	-3.0096	-7.9932	0.	128.78
733	-3.5084	-7.9976	0.	129.41
734	8.0013	7.4971	0.	124.95
735	8.0096	7.0021	0.	125.17
736	8.0199	6.5075	0.	124.96
737	8.0309	6.0114	0.	123.5
738	8.0391	5.5118	0.	120.56
739	8.0403	5.0083	0.	116.85
740	2.9998	7.4963	0.	128.66
741	-8.0062	6.5659	0.	119.48
742	-8.014	7.0557	0.	120.93
743	-8.0143	7.5432	0.	122.15
744	-8.0118	8.0315	0.	123.07
745	-7.5177	8.0505	0.	122.91
746	-7.0246	8.0684	0.	123.35
747	-6.5295	8.0803	0.	124.14
748	-6.0312	8.0805	0.	124.96
749	-5.5314	8.0671	0.	125.6
750	-5.0303	8.0442	0.	126.05
751	-4.5269	8.0227	0.	126.39
752	-4.0194	8.0082	0.	126.75
753	-3.5068	8.0039	0.	127.29
754	-2.9965	8.0273	0.	128.18
755	-2.4975	8.1051	0.	129.15
756	-0.56831	8.076	0.	117.44
757	-8.329e-002	7.9187	0.	122.22
758	0.45362	8.0261	0.	127.21
759	0.95285	8.0317	0.	128.8
760	1.4682	8.0306	0.	128.93
761	1.9817	8.016	0.	128.47
762	2.4905	8.0007	0.	128.38
763	3.5993	-7.9848	0.	129.39
764	3.0739	-7.9738	0.	126.94
765	-5.5593	-6.5862	0.	127.63
766	1.3638	5.279	0.	132.04
767	3.1755	5.5189	0.	133.12
768	4.4669	3.4681	0.	124.31
769	3.0367	3.5349	0.	131.82
770	5.1645	-8.1509	0.	120.58
771	-8.1464	-3.3105e-002	0.	122.47
772	-8.0765	-0.49555	0.	118.08
773	-5.8716	0.94465	0.	126.38
774	-5.7043	-0.50671	0.	133.08
775	5.485	-5.3392	0.	117.32
776	6.324	-4.6947	0.	124.56
777	7.526	-6.0065	0.	124.04
778	7.1171	-7.0401	0.	123.99
779	8.054	-6.4736	0.	121.62
780	8.0604	-7.0002	0.	122.21
781	8.0603	-7.5125	0.	123.95
782	8.0521	-8.0171	0.	125.89
783	7.5711	-8.0249	0.	127.53
784	-7.9782	-4.0762	0.	112.93
785	-6.3405	-5.2502	0.	124.01
786	-6.0102	-2.4842	0.	125.28
787	-5.9259	-4.8345	0.	127.68
788	-5.9418	-4.3883	0.	129.5
789	-5.9626	-3.9259	0.	129.99
790	-6.12	-1.0029	0.	128.66
791	-1.4955	-3.9652	0.	121.43
792	-3.0125	-3.9877	0.	131.46
793	1.0001	3.464	0.	127.42
794	1.005	2.0181	0.	129.02
795	-0.4214	4.8192	0.	108.58
796	1.009	4.8229	0.	132.3
797	-1.9496	3.4867	0.	124.19
798	-2.988	-1.4981	0.	132.16
799	-2.957	0.49882	0.	129.48
800	-2.9799	2.0024	0.	130.2
801	6.6813	5.0477	0.	130.11
802	7.9946	-0.97021	0.	122.27
803	5.4595	-0.95822	0.	120.58
804	3.9038	-0.98832	0.	131.19
805	4.014	2.0061	0.	130.12
806	7.0013	7.4942	0.	125.72
807	7.0702	6.0249	0.	130.65
808	4.5598	5.9919	0.	118.49
809	3.1569	6.0124	0.	134.42
810	1.5106	-6.5796	0.	120.24
811	2.7553	-6.9787	0.	130.17
812	-0.54775	-7.7458	0.	124.31
813	-0.6489	-6.3548	0.	130.34
814	5.5319	2.8786	0.	113.29
815	6.6083	-3.7245	0.	121.52
816	-5.9891	5.0116	0.	128.24
817	-5.6908	3.6649	0.	131.81
818	-8.1584	1.9938	0.	121.82
819	0.50449	-4.3432	0.	115.88
820	-1.0084	-4.4293	0.	127.91
821	2.276	-2.1811	0.	132.33
822	2.8229	-3.3813	0.	129.87
823	7.4948	7.9909	0.	125.56
824	-2.1018	6.8181	0.	127.43
825	-1.9973	8.1367	0.	129.6
826	-2.3576	4.4744	0.	130.05
827	-2.3079	4.9594	0.	131.73
828	-1.5056	8.1403	0.	126.04
829	-2.0349	7.2603	0.	130.04
830	6.9952	7.9906	0.	126.92
831	2.0297	-3.8133	0.	133.92
832	2.441	-3.5932	0.	133.96
833	2.5952	-3.0312	0.	127.21
834	2.4657	-2.6174	0.	129.35
835	0.91615	-0.85862	0.	120.92
836	0.46991	-0.73702	0.	122.84
837	-0.50864	-4.409	0.	129.31
838	-1.0036e-002	-4.3796	0.	123.87
839	-6.4319	3.3225	0.	130.28
840	-6.0565	3.5492	0.	133.97
841	-5.7511	4.0676	0.	127.29
842	-5.8486	4.5158	0.	127.09
843	7.4481	-2.3635	0.	118.56
844	6.9562	-2.3407	0.	126.27
845	6.48	-2.8024	0.	126.44
846	6.5266	-3.2689	0.	124.27
847	-0.17914	-6.3463	0.	127.5
848	-0.63873	-6.8336	0.	130.98
849	-0.60295	-7.3016	0.	128.34
850	2.5505	-7.9457	0.	127.27
851	2.6772	-7.4525	0.	126.52
852	1.9492	-6.7372	0.	129.27
853	3.026	6.9985	0.	131.55
854	3.1066	6.5077	0.	134.26
855	3.6181	6.0213	0.	133.54
856	4.07	6.0781	0.	127.79
857	6.599	6.029	0.	135.45
858	3.9945	1.0065	0.	129.71
859	3.9237	-0.48734	0.	131.61
860	4.427	-0.98209	0.	130.46
861	4.9456	-0.97021	0.	126.17
862	6.9858	-0.94691	0.	120.27
863	7.4909	-0.95592	0.	122.35
864	7.9999	1.1714e-002	0.	121.14
865	-1.987	1.9978	0.	123.11
866	-2.4814	1.9992	0.	128.36
867	-2.9649	0.99965	0.	130.13
868	-2.9532	-6.2526e-004	0.	132.54
869	-2.9715	-0.99946	0.	134.
870	-5.4889e-003	1.0279	0.	124.3
871	-2.9892e-003	1.5193	0.	124.21
872	-0.49964	2.0067	0.	118.03
873	1.4682e-002	3.5706e-002	0.	126.61
874	4.4811e-002	-0.49269	0.	129.11
875	-0.87243	4.8969	0.	107.14
876	-1.92	3.9813	0.	126.79
877	-1.9798	2.4952	0.	124.78
878	-0.99679	2.0018	0.	116.83
879	0.99211	3.9241	0.	129.04
880	1.0058	4.3749	0.	131.06
881	0.52091	4.8233	0.	129.81
882	4.9538e-002	4.8177	0.	119.6
883	0.50168	2.0152	0.	127.44
884	1.0082	2.5068	0.	129.67
885	1.0071	2.9905	0.	128.73
886	-3.0042	-2.9918	0.	131.27
887	-3.0074	-3.4894	0.	131.88
888	-2.5137	-3.9838	0.	129.93
889	-2.0105	-3.9766	0.	124.62
890	-5.6176	-6.1522	0.	128.37
891	-0.9396	-3.9495	0.	128.36
892	-6.0348	-1.989	0.	126.66
893	-6.0705	-1.4959	0.	128.11
894	-7.0831	-0.98197	0.	112.56
895	-6.4586	-3.929	0.	128.37
896	-5.981	-3.4516	0.	129.17
897	-5.996	-2.9699	0.	127.12
898	-4.0065	-8.0012	0.	130.57
899	-4.5295	-7.0071	0.	130.44
900	-6.0993	-6.1546	0.	131.14
901	-6.3859	-4.825	0.	127.71
902	-6.4263	-4.3838	0.	129.39
903	-6.9606	-3.9545	0.	117.25
904	-7.4685	-4.0062	0.	108.08
905	7.0929	-8.0322	0.	130.74
906	7.1174	-7.5376	0.	127.47
907	7.042	-6.0561	0.	128.72
908	6.9551	-5.5813	0.	132.95
909	6.4062	-5.1656	0.	125.86
910	-6.6563	-0.49449	0.	120.55
911	-6.1784	-0.50908	0.	130.53
912	-5.7505	-2.0788e-002	0.	133.22
913	-5.8016	0.46387	0.	130.07
914	-6.0054	2.3708	0.	133.3
915	-8.0424	-0.99358	0.	116.5
916	-8.4884	-4.0503	0.	125.1
917	-8.5292	-1.0007	0.	124.73
918	-8.5544	-0.50595	0.	126.34
919	-8.6184	1.5399	0.	131.59
920	-8.5851	2.0101	0.	128.47
921	-8.5163	2.4851	0.	125.82
922	-6.8487	3.1325	0.	120.02
923	4.6186	-5.9099	0.	132.66
924	4.6348	-8.0379	0.	129.2
925	3.7037	-6.4844	0.	128.94
926	3.7143	-6.9812	0.	127.57
927	3.6736	-7.4829	0.	127.87
928	3.5365	3.5224	0.	133.78
929	4.0175	3.501	0.	130.96
930	4.1746	5.6685	0.	129.19
931	3.703	5.4879	0.	133.98
932	3.0589	4.0389	0.	129.83
933	3.0978	4.5346	0.	128.71
934	6.8028	-4.6399	0.	129.11
935	6.8736	-5.1093	0.	133.14
936	7.8268	-5.4591	0.	120.73
937	-6.8491	5.6818	0.	125.15
938	0.52747	7.082	0.	133.36
939	0.49329	5.2723	0.	129.67
940	0.941	5.2779	0.	133.55
941	1.4061	6.638	0.	127.78
942	1.3461	5.7229	0.	130.17
943	1.357	6.1794	0.	127.95
944	8.4828	-2.5214	0.	119.68
945	8.4874	-1.9868	0.	120.26
946	8.5004	0.50434	0.	120.32
947	-5.997	1.8902	0.	131.03
948	-6.4875	2.3564	0.	131.74
949	2.3964	-8.4433	0.	129.43
950	3.5278	-8.4851	0.	129.89
951	4.9981	-8.5909	0.	121.85
952	5.5868	-8.3518	0.	112.25
953	6.5625	-8.513	0.	123.81
954	7.0581	-8.5219	0.	129.08
955	7.5491	-8.5207	0.	127.94
956	2.9956	7.9982	0.	129.39
957	8.5003	1.0024	0.	119.48
958	5.5	1.9972	0.	117.64
959	8.5235	5.0039	0.	119.2
960	-0.49027	-8.6104	0.	129.04
961	-1.0006	-8.5837	0.	128.19
962	-7.5126	8.5343	0.	123.7
963	-6.5189	8.5549	0.	124.49
964	-5.0158	8.5297	0.	125.97
965	-4.5136	8.5166	0.	126.33
966	-3.5067	8.5102	0.	127.21
967	-3.0048	8.5299	0.	127.79
968	-2.5061	8.5671	0.	128.2
969	-1.5098	8.597	0.	125.18
970	-3.3532e-002	8.488	0.	123.33
971	0.46476	8.5058	0.	126.11
972	0.97116	8.5175	0.	127.71
973	1.9874	8.5084	0.	128.17
974	2.4925	8.5013	0.	128.61
975	6.9923	8.4903	0.	128.03
976	7.9941	8.4941	0.	125.29
977	8.4954	8.4962	0.	124.95
978	8.4785	-5.5009	0.	122.34
979	8.5499	-6.0069	0.	122.47
980	8.5391	-6.4948	0.	122.33
981	8.5416	-7.0005	0.	122.86
982	8.5409	-7.5073	0.	123.97
983	8.5361	-8.011	0.	125.27
984	8.5279	-8.5115	0.	126.19
985	0.88766	5.7446	0.	132.92
986	0.93898	6.651	0.	128.76
987	-8.4695	6.0289	0.	126.89
988	-7.5223	6.17	0.	114.36
989	-7.9725	6.0585	0.	117.41
990	8.1122	-5.1972	0.	116.11
991	7.333	-5.058	0.	130.
992	3.5931	4.9978	0.	131.82
993	3.575	4.0301	0.	133.01
994	-8.5509	-6.0206	0.	128.61
995	-8.5855	-5.04	0.	128.64
996	-8.574	-5.5271	0.	117.33
997	4.1979	-7.4838	0.	132.81
998	4.2063	-6.4628	0.	132.04
999	-6.9324	2.4807	0.	117.37
1000	-7.3464	2.8556	0.	106.66
1001	1.4572	-9.0924	0.	122.77
1002	1.9281	-8.9819	0.	129.01
1003	3.4953	-8.9875	0.	130.63
1004	4.9636	-9.0372	0.	122.26
1005	5.4475	-8.8912	0.	117.61
1006	5.9999	-8.9664	0.	117.09
1007	6.5212	-8.9997	0.	121.61
1008	7.528	-9.0141	0.	126.91
1009	8.9367	-4.0321	0.	142.68
1010	9.0243	-6.0019	0.	124.54
1011	8.5182	-9.0092	0.	126.56
1012	8.4951	8.9967	0.	125.06
1013	7.9933	8.9943	0.	125.37
1014	6.494	8.994	0.	127.31
1015	1.9927	9.0041	0.	127.8
1016	1.4879	9.009	0.	127.52
1017	0.98466	9.009	0.	127.01
1018	0.48416	9.0044	0.	125.95
1019	-1.3046e-002	9.0048	0.	124.41
1020	-2.5064	9.0414	0.	127.18
1021	-3.0057	9.0223	0.	127.18
1022	-3.5054	9.0099	0.	126.91
1023	-4.5065	9.0107	0.	126.29
1024	-5.0077	9.0182	0.	125.97
1025	-6.0101	9.0323	0.	125.22
1026	-6.511	9.0344	0.	124.81
1027	-7.0102	9.0291	0.	124.47
1028	-7.5081	9.021	0.	124.28
1029	-9.0028	7.5098	0.	125.06
1030	-8.9816	6.0189	0.	128.93
1031	-8.9758	5.5261	0.	128.86
1032	-8.9949	5.0374	0.	129.35
1033	-9.0167	4.5553	0.	129.12
1034	-8.9535	3.4978	0.	137.72
1035	-8.9822	2.9923	0.	132.51
1036	-9.0136	2.5	0.	130.56
1037	-9.0482	2.009	0.	130.46
1038	-9.0588	1.5145	0.	128.58
1039	-9.0385	1.0147	0.	125.73
1040	-9.0492	0.50645	0.	128.75
1041	-9.0318	-0.50194	0.	129.8
1042	-9.0187	-1.0021	0.	128.46
1043	-9.0089	-1.5029	0.	127.91
1044	-8.9974	-3.0147	0.	126.57
1045	-8.9954	-3.5217	0.	128.05
1046	-8.9984	-4.0268	0.	128.61
1047	-9.0133	-4.5264	0.	128.61
1048	-9.041	-5.0226	0.	125.03
1049	-9.0454	-5.5202	0.	124.38
1050	9.0003	3.5165e-003	0.	125.16
1051	9.0004	0.50234	0.	124.91
1052	-8.5991	0.4925	0.	139.7
1053	-6.217	-2.411e-002	0.	139.71
1054	6.4897	-5.6281	0.	137.51
1055	6.6179	-8.0341	0.	137.5
1056	-6.9144	-4.4088	0.	127.91
1057	-6.5902	-6.1809	0.	139.17
1058	0.33346	-8.9665	0.	130.73
1059	-6.6367e-002	-9.0658	0.	129.51
1060	-0.51991	-9.0619	0.	130.62
1061	-1.0114	-9.0471	0.	130.02
1062	-1.5069	-9.0183	0.	129.64
1063	-2.0036	-9.0021	0.	129.58
1064	-2.5023	-8.9977	0.	129.82
1065	-3.0016	-8.998	0.	130.26
1066	-3.5013	-8.9993	0.	130.85
1067	-4.001	-9.0003	0.	131.89
1068	-6.4812	-3.4583	0.	128.68
1069	-6.561	-1.4917	0.	126.12
1070	-8.4917	-3.532	0.	126.5
1071	-8.5143	-1.5017	0.	126.91
1072	-0.71739	-3.4464	0.	134.86
1073	-2.5089	-3.4892	0.	132.67
1074	0.50323	2.5039	0.	130.46
1075	0.51649	4.3841	0.	131.07
1076	-1.4878	2.4963	0.	124.36
1077	-1.4027	4.4697	0.	126.81
1078	-0.5018	1.5106	0.	124.25
1079	-2.4779	-0.50127	0.	137.04
1080	-2.4825	1.5003	0.	131.66
1081	9.0003	1.0014	0.	125.74
1082	9.0006	7.4995	0.	124.89
1083	9.0037	7.001	0.	125.01
1084	9.0072	6.5024	0.	125.04
1085	9.0107	6.0034	0.	124.85
1086	9.0143	5.5031	0.	124.64
1087	9.0135	5.0019	0.	124.94
1088	5.9953	2.0303	0.	119.68
1089	7.4965	-0.47433	0.	125.89
1090	8.	1.0038	0.	117.82
1091	4.446	-0.48749	0.	133.73
1092	4.5051	1.5018	0.	132.07
1093	-6.0268	-7.0658	0.	129.31
1094	-6.5513	-6.6118	0.	137.67
1095	-9.034	-6.0155	0.	126.63
1096	6.5427	6.5137	0.	134.51
1097	3.5691	6.5185	0.	136.53
1098	3.4976	8.4995	0.	133.34
1099	2.2225	-7.3664	0.	133.74
1100	-0.16991	-6.8255	0.	137.93
1101	6.1327	6.02	0.	133.31
1102	6.9507	-2.7965	0.	137.02
1103	-6.1738	3.9437	0.	133.48
1104	-0.44575	-3.9294	0.	138.23
1105	0.25259	-1.153	0.	125.48
1106	2.2304	-3.207	0.	133.45
1107	-1.4893	7.691	0.	132.7
1108	-1.8144	4.9674	0.	133.94
1109	-9.002	9.0027	0.	124.92
1110	9.0121	-9.006	0.	126.26
1111	-8.1799	1.5066	0.	129.07
1112	-7.5532	2.31	0.	109.35
1113	-7.8027	1.8601	0.	112.97
1114	-6.5421	1.9164	0.	129.94
1115	-6.4583	1.4407	0.	128.71
1116	-6.2587	0.46252	0.	128.6
1117	-6.3525	0.95251	0.	136.78
1118	-8.1819	0.39433	0.	129.68
1119	-7.7249	0.12589	0.	109.21
1120	-7.1931	5.3953e-002	0.	103.25
1121	-6.6956	-9.8953e-003	0.	120.7
1122	5.1256	-6.2306	0.	120.77
1123	6.0083	-5.7034	0.	107.29
1124	5.5096	-5.877	0.	117.44
1125	6.5788	-6.0881	0.	134.61
1126	6.6293	-6.5702	0.	130.59
1127	6.6641	-7.5556	0.	131.32
1128	6.6583	-7.0649	0.	132.85
1129	6.1416	-8.0034	0.	108.52
1130	5.6763	-7.8537	0.	110.91
1131	4.7227	-7.5	0.	134.67
1132	5.2108	-7.661	0.	117.22
1133	-8.2054	-5.0587	0.	122.4
1134	-7.4219	-4.4784	0.	96.237
1135	-7.9567	-4.6541	0.	121.75
1136	-6.8378	-4.8514	0.	129.93
1137	-6.6489	-5.7505	0.	124.27
1138	-6.759	-5.3071	0.	126.69
1139	-4.5006	-9.0005	0.	133.78
1140	-4.5016	-8.5014	0.	132.84
1141	-4.5042	-8.0035	0.	132.59
1142	-6.4968	-2.9773	0.	126.7
1143	-6.5078	-2.4872	0.	126.24
1144	-6.5252	-1.9907	0.	126.15
1145	-8.4971	-3.0162	0.	126.08
1146	-8.5002	-2.5074	0.	125.88
1147	-0.63402	-2.9757	0.	131.79
1148	-0.57734	-2.491	0.	136.85
1149	-0.52307	-1.9891	0.	137.79
1150	-0.44296	-1.4469	0.	135.52
1151	-0.54768	-0.95331	0.	134.38
1152	-1.0837	-3.4562	0.	122.16
1153	-2.0112	-3.4876	0.	123.87
1154	-1.523	-3.4817	0.	111.88
1155	-2.5036	-2.9934	0.	131.52
1156	-2.5009	-2.4965	0.	133.65
1157	-2.4983	-1.9988	0.	135.47
1158	-2.4856	-1.001	0.	133.8
1159	-2.4933	-1.5002	0.	134.2
1160	0.502	2.9908	0.	129.04
1161	0.4988	3.4716	0.	128.7
1162	0.50062	3.9381	0.	128.87
1163	-0.99432	2.5002	0.	118.07
1164	-0.4981	2.5032	0.	109.78
1165	2.8785e-002	4.4022	0.	120.34
1166	-0.45727	4.4156	0.	104.32
1167	-0.93415	4.4451	0.	112.27
1168	-1.4512	3.9814	0.	126.22
1169	-1.4723	3.489	0.	125.89
1170	-0.49341	1.8541e-002	0.	128.92
1171	-0.50085	0.5165	0.	126.36
1172	-0.50279	1.0139	0.	125.19
1173	-1.0008	-0.4928	0.	119.93
1174	-1.9912	-0.50026	0.	119.65
1175	-1.4975	-0.49922	0.	101.16
1176	-0.99908	1.5026	0.	118.49
1177	-1.4948	1.4996	0.	110.32
1178	-1.9895	1.4994	0.	122.44
1179	-2.4769	-8.0635e-004	0.	132.77
1180	-2.4815	1.0007	0.	130.63
1181	-2.479	0.50014	0.	130.92
1182	6.4954	2.0205	0.	126.03
1183	6.5012	2.5312	0.	132.62
1184	6.5557	3.0357	0.	141.36
1185	6.6409	4.0464	0.	135.91
1186	6.607	3.5403	0.	141.52
1187	7.4994	1.2814e-002	0.	124.25
1188	7.4998	0.50611	0.	123.09
1189	7.4997	1.0032	0.	121.99
1190	4.471	7.4271e-003	0.	132.03
1191	4.4976	1.0021	0.	131.62
1192	4.4878	0.50391	0.	131.25
1193	-7.9899	-3.5295	0.	115.67
1194	-7.4884	-3.5055	0.	104.94
1195	-6.984	-3.4783	0.	117.83
1196	-8.0208	-1.4976	0.	117.37
1197	-7.0471	-1.4905	0.	114.67
1198	-7.5314	-1.4925	0.	105.83
1199	-6.011	-7.5304	0.	128.02
1200	-5.5107	-7.5248	0.	115.75
1201	-6.5204	-7.0577	0.	134.07
1202	-6.5	-9.001	0.	133.89
1203	-6.5002	-8.5031	0.	136.84
1204	-6.5021	-8.0099	0.	137.93
1205	-6.5085	-7.526	0.	137.76
1206	-9.0183	-6.509	0.	130.14
1207	-8.5271	-6.513	0.	118.57
1208	-7.545	-6.5573	0.	101.78
1209	-8.0367	-6.5249	0.	111.14
1210	9.0002	1.5006	0.	128.68
1211	8.5001	1.5011	0.	117.97
1212	7.4995	1.5015	0.	121.77
1213	7.9999	1.5016	0.	119.12
1214	9.0074	4.5007	0.	127.42
1215	8.5148	4.5014	0.	115.79
1216	8.0261	4.5035	0.	115.23
1217	7.5475	4.5068	0.	115.16
1218	6.9932	-0.47344	0.	121.39
1219	5.9834	-0.47508	0.	117.61
1220	5.4746	-0.48015	0.	117.56
1221	6.9987	1.5024	0.	128.16
1222	6.4983	1.509	0.	123.62
1223	6.0002	1.5103	0.	120.29
1224	5.5022	1.5013	0.	117.36
1225	5.0033	1.4995	0.	125.31
1226	6.5122	7.0031	0.	130.16
1227	6.5014	7.4969	0.	128.9
1228	6.035	6.4983	0.	123.07
1229	5.4901	6.4403	0.	110.47
1230	4.0446	6.5278	0.	126.32
1231	4.5229	6.5172	0.	117.17
1232	4.9932	6.5526	0.	114.02
1233	3.9987	8.4997	0.	128.38
1234	5.9964	8.4969	0.	125.65
1235	5.498	8.4987	0.	117.35
1236	4.9988	8.4994	0.	118.54
1237	4.499	8.4997	0.	118.44
1238	3.4985	8.0002	0.	131.54
1239	3.5035	7.5026	0.	132.26
1240	3.5229	7.0083	0.	134.76
1241	-7.089	-6.1897	0.	117.14
1242	-7.585	-6.1148	0.	97.776
1243	1.3298	-8.6977	0.	119.73
1244	1.8113	-8.4006	0.	136.86
1245	2.0595	-7.8755	0.	121.84
1246	0.30697	-6.8417	0.	117.96
1247	1.7921	-7.2027	0.	137.74
1248	1.3303	-7.0499	0.	111.24
1249	0.83208	-6.8662	0.	105.98
1250	5.6125e-002	-8.5932	0.	127.49
1251	-2.4162e-002	-8.1729	0.	130.59
1252	-0.15092	-7.2964	0.	127.78
1253	-7.8e-002	-7.7523	0.	135.38
1254	5.7136	3.2649	0.	106.29
1255	5.3145	3.467	0.	114.06
1256	4.0662	4.0134	0.	135.57
1257	4.0122	5.0594	0.	135.18
1258	4.4076	5.2676	0.	125.35
1259	5.6744	5.9529	0.	104.45
1260	5.2444	5.7422	0.	114.12
1261	4.8132	5.5203	0.	113.99
1262	6.6552	5.5406	0.	132.22
1263	6.2736	5.0668	0.	135.3
1264	6.2312	3.5932	0.	140.96
1265	6.269	4.0871	0.	139.33
1266	6.2798	4.5789	0.	141.49
1267	7.0769	-3.6991	0.	135.7
1268	7.2008	-4.1434	0.	128.48
1269	7.3035	-4.5923	0.	133.67
1270	9.0675	-3.4876	0.	123.59
1271	8.2571	-4.8049	0.	119.95
1272	8.5799	-4.4769	0.	129.02
1273	8.6744	-2.9905	0.	127.05
1274	8.2928	-2.954	0.	109.65
1275	7.871	-2.8677	0.	106.27
1276	7.414	-2.8121	0.	121.71
1277	-7.4255	5.7824	0.	116.26
1278	-7.1985	5.4529	0.	120.23
1279	-6.8081	5.1899	0.	124.37
1280	-6.2985	4.3713	0.	120.91
1281	-6.5134	4.7813	0.	138.75
1282	-6.5798	3.7651	0.	135.51
1283	-7.0075	3.6032	0.	114.37
1284	-8.444	3.4304	0.	128.28
1285	-7.9382	3.4221	0.	107.47
1286	-7.4498	3.4343	0.	109.54
1287	-8.5565	4.5312	0.	137.95
1288	-8.4409	5.5328	0.	130.49
1289	-8.4926	5.0484	0.	127.21
1290	-0.34364	-3.4552	0.	135.29
1291	-0.2426	-2.9876	0.	141.57
1292	-0.15385	-2.528	0.	137.62
1293	5.5424e-002	-1.6009	0.	138.19
1294	-6.4044e-002	-2.0646	0.	130.94
1295	1.8357	-3.3975	0.	141.08
1296	2.4753e-002	-3.8902	0.	126.06
1297	0.49496	-3.8239	0.	111.9
1298	0.96308	-3.736	0.	115.02
1299	1.4091	-3.5735	0.	121.31
1300	0.6562	-1.2761	0.	114.42
1301	1.2829	-1.7104	0.	125.85
1302	2.0559	-2.798	0.	124.23
1303	1.8226	-2.4177	0.	143.74
1304	1.5519	-2.0594	0.	127.13
1305	-0.92847	7.6847	0.	109.72
1306	-0.43721	7.4603	0.	118.58
1307	-7.9287e-002	7.1607	0.	119.94
1308	0.51498	6.673	0.	133.09
1309	0.19045	6.8563	0.	130.68
1310	0.4335	5.7436	0.	134.19
1311	-1.3324	4.9702	0.	122.96
1312	-0.37416	5.5515	0.	109.25
1313	1.6846e-002	5.6584	0.	117.95
1314	-1.7494	5.4505	0.	132.07
1315	-1.7065	5.9115	0.	129.42
1316	-1.6656	6.3587	0.	132.7
1317	-9.0011	9.5014	0.	124.86
1318	-8.5019	9.503	0.	124.67
1319	-8.003	9.5059	0.	124.57
1320	-7.5041	9.5101	0.	124.58
1321	-7.0053	9.5146	0.	124.74
1322	-6.5052	9.5165	0.	125.01
1323	-6.0046	9.5156	0.	125.36
1324	-5.504	9.5131	0.	125.72
1325	-5.0031	9.5088	0.	126.08
1326	-4.5026	9.5055	0.	126.38
1327	-4.0027	9.5039	0.	126.62
1328	-3.5031	9.5059	0.	126.77
1329	-3.0036	9.5118	0.	126.77
1330	-2.5041	9.5198	0.	126.55
1331	-2.0033	9.5254	0.	126.02
1332	-1.5018	9.5272	0.	125.27
1333	-1.0009	9.5225	0.	124.66
1334	-0.5016	9.5134	0.	124.59
1335	-4.0434e-003	9.5049	0.	125.15
1336	0.49341	9.5032	0.	126.01
1337	0.99282	9.504	0.	126.82
1338	1.4946	9.5038	0.	127.39
1339	1.9964	9.5017	0.	127.73
1340	2.4977	9.5001	0.	127.86
1341	2.9984	9.4995	0.	127.73
1342	3.4989	9.4996	0.	126.86
1343	3.9992	9.4998	0.	125.03
1344	4.4989	9.4998	0.	122.83
1345	4.9989	9.4995	0.	121.6
1346	5.4984	9.499	0.	121.97
1347	5.998	9.4984	0.	123.47
1348	6.4972	9.4972	0.	124.87
1349	6.9962	9.4962	0.	125.47
1350	7.4954	9.4957	0.	125.46
1351	7.9958	9.4968	0.	125.32
1352	8.4967	9.498	0.	125.2
1353	8.9977	9.4988	0.	125.09
1354	9.4988	9.4994	0.	124.95
1355	9.4986	8.9992	0.	124.76
1356	9.4988	8.4993	0.	124.65
1357	9.4992	7.9996	0.	124.67
1358	9.5003	7.5	0.	124.89
1359	9.5018	7.0006	0.	125.33
1360	9.5034	6.5012	0.	126.01
1361	9.505	6.0015	0.	126.97
1362	9.5071	5.5013	0.	128.32
1363	9.5063	5.0006	0.	130.54
1364	9.5034	4.5002	0.	135.05
1365	9.5007	4.	0.	135.96
1366	9.5001	3.5	0.	139.34
1367	9.5	3.	0.	141.37
1368	9.5	2.5	0.	140.08
1369	9.5	2.0001	0.	137.69
1370	9.5001	1.5003	0.	136.93
1371	9.5002	1.0006	0.	132.27
1372	9.5002	0.50093	0.	130.1
1373	9.5002	1.3632e-003	0.	129.16
1374	9.4999	-0.49808	0.	129.
1375	9.4993	-0.99714	0.	129.35
1376	9.4987	-1.4954	0.	130.08
1377	9.5006	-1.9917	0.	131.24
1378	9.5112	-2.487	0.	133.71
1379	9.5273	-2.9871	0.	133.11
1380	9.5185	-3.4986	0.	129.97
1381	9.4907	-4.0065	0.	128.07
1382	9.5162	-4.5065	0.	131.04
1383	9.5215	-5.0069	0.	129.56
1384	9.5119	-5.5042	0.	127.99
1385	9.5115	-6.002	0.	126.43
1386	9.513	-6.5016	0.	125.3
1387	9.5126	-7.002	0.	124.72
1388	9.5121	-7.5029	0.	124.72
1389	9.5109	-8.0036	0.	125.11
1390	9.5088	-8.5037	0.	125.65
1391	9.5061	-9.0031	0.	126.14
1392	9.5031	-9.5018	0.	126.46
1393	9.0061	-9.5034	0.	126.46
1394	8.509	-9.5048	0.	126.6
1395	8.0111	-9.5066	0.	126.53
1396	7.5118	-9.5068	0.	125.8
1397	7.0099	-9.5045	0.	123.94
1398	6.5039	-9.4962	0.	121.07
1399	5.9936	-9.4787	0.	118.9
1400	5.4875	-9.4648	0.	119.2
1401	4.9905	-9.5031	0.	122.05
1402	4.492	-9.5085	0.	125.74
1403	3.9938	-9.5006	0.	128.86
1404	3.4907	-9.493	0.	130.95
1405	2.4746	-9.4852	0.	131.25
1406	1.9768	-9.5005	0.	127.78
1407	1.4906	-9.5335	0.	120.56
1408	0.95096	-9.1035	0.	109.33
1409	0.51847	-9.4445	0.	114.5
1410	-1.1337e-002	-9.5173	0.	126.84
1411	-0.51287	-9.5289	0.	129.98
1412	-1.0092	-9.5222	0.	130.91
1413	-1.5061	-9.5107	0.	130.82
1414	-2.0035	-9.5027	0.	130.68
1415	-2.5019	-9.4997	0.	130.87
1416	-3.001	-9.4993	0.	131.47
1417	-3.5006	-9.4997	0.	132.53
1418	-4.0004	-9.5001	0.	133.95
1419	-4.5003	-9.5002	0.	135.03
1420	-5.0001	-9.5001	0.	125.81
1421	-5.5	-9.5	0.	115.53
1422	-6.	-9.5001	0.	128.02
1423	-6.5	-9.5003	0.	136.71
1424	-7.	-9.5001	0.	124.94
1425	-7.5	-9.5	0.	110.01
1426	-8.	-9.5	0.	108.21
1427	-8.5	-9.5	0.	109.57
1428	-9.	-9.5	0.	123.62
1429	-9.5	-9.5	0.	137.13
1430	-9.5	-9.0001	0.	137.13
1431	-9.5	-8.5001	0.	138.73
1432	-9.5	-8.0003	0.	140.32
1433	-9.5003	-7.5009	0.	138.9
1434	-9.5023	-7.0027	0.	136.96
1435	-9.5093	-6.5056	0.	136.34
1436	-9.5169	-6.0084	0.	131.42
1437	-9.5212	-5.5098	0.	128.26
1438	-9.5184	-5.0103	0.	128.1
1439	-9.5076	-4.5107	0.	128.71
1440	-9.5006	-4.0111	0.	128.95
1441	-9.4981	-3.51	0.	128.4
1442	-9.4986	-3.0077	0.	127.47
1443	-9.4998	-2.5052	0.	127.07
1444	-9.5015	-2.0032	0.	127.62
1445	-9.5045	-1.502	0.	128.71
1446	-9.5091	-1.0014	0.	129.5
1447	-9.5155	-0.50094	0.	129.87
1448	-9.5186	8.4319e-004	0.	129.33
1449	-9.5232	0.50307	0.	127.27
1450	-9.5214	1.005	0.	126.12
1451	-9.5272	1.5055	0.	127.84
1452	-9.5214	2.0054	0.	129.99
1453	-9.507	2.5039	0.	131.5
1454	-9.4909	3.0038	0.	132.44
1455	-9.4736	3.5089	0.	130.95
1456	-9.4619	4.0152	0.	128.24
1457	-9.4937	4.5175	0.	126.84
1458	-9.4969	5.0178	0.	127.51
1459	-9.4911	5.5136	0.	128.38
1460	-9.4921	6.0092	0.	128.33
1461	-9.4964	6.5064	0.	127.96
1462	-9.4995	7.0048	0.	127.24
1463	-9.501	7.5037	0.	126.57
1464	-9.5013	8.0026	0.	126.03
1465	-9.5012	8.5017	0.	125.61
1466	-9.5009	9.0011	0.	125.3
1467	-9.5005	9.5006	0.	125.06
1468	-1.56	7.2459	0.	134.26
1469	-1.62	6.8009	0.	128.95
1470	-2.9745	1.5017	0.	130.89
1471	6.9772	-3.2534	0.	123.65
1472	-9.0029	8.5048	0.	124.93
1473	-3.4733	1.5013	0.	130.35
1474	5.5773	-3.3364	0.	121.11
1475	-3.4497	0.99677	0.	129.87
1476	-3.4332	0.49638	0.	130.18
1477	-3.4266	-7.8853e-005	0.	131.62
1478	-5.3571	3.2048	0.	132.56
1479	2.9829	-9.4868	0.	131.99
1480	3.9466	-4.1555	0.	128.25
1481	-6.6059	-0.99174	0.	121.6
1482	-4.7502	-0.92811	0.	131.4
1483	3.3578	-4.0364	0.	130.1
1484	9.0262	-7.0026	0.	123.9
1485	-4.341	4.5453	0.	127.5
1486	-0.52505	8.5425	0.	121.09
1487	-6.0192	8.5539	0.	125.06
1488	-7.0479	-6.5905	0.	119.32
1489	9.0155	-5.5051	0.	126.19
1490	3.4979	8.9995	0.	129.37
1491	-1.4917	1.9986	0.	118.37
1492	5.7822e-002	5.2367	0.	120.76
1493	-4.0016	-3.98	0.	130.76
1494	-9.0034	8.0076	0.	124.94
1495	2.4951	9.0009	0.	128.27
1496	-4.0059	9.0072	0.	126.6
1497	-8.5387	1.0467	0.	125.09
1498	3.0026	1.5154	0.	130.03
1499	-2.5273	-7.48	0.	128.21
1500	3.9546	1.0051e-002	0.	130.14
1501	3.624	4.5265	0.	127.36
1502	4.9744	-2.4268	0.	123.59
1503	-4.0027	-8.5006	0.	129.59
1504	-3.5035	-8.4985	0.	129.56
1505	3.6755	-5.0154	0.	131.95
1506	3.9781	0.50783	0.	128.29
1507	-3.4316	-0.4957	0.	132.95
1508	0.96476	7.1043	0.	131.29
1509	5.1059	-3.3935	0.	122.02
1510	-7.5627	-0.97861	0.	110.13
1511	2.9715	-8.9752	0.	131.36
1512	-8.5072	8.0169	0.	123.85
1513	4.5881	-5.4381	0.	130.75
1514	-2.9578	-0.49997	0.	134.9
1515	-8.4945	6.533	0.	123.72
1516	-6.1277	-5.6683	0.	126.91
1517	8.5245	5.5061	0.	121.42
1518	-4.0105	8.5091	0.	126.71
1519	-1.037	8.1454	0.	120.02
1520	6.9931	8.9928	0.	127.16
1521	7.0283	-9.0114	0.	125.44
1522	2.9955	8.4992	0.	130.16
1523	8.6229	-4.9867	0.	125.86
1524	-2.0066	8.5907	0.	127.59
1525	4.5388	-8.5323	0.	127.6
1526	-1.0063	9.0496	0.	123.73
1527	-4.989	-3.4659	0.	129.58
1528	0.86363	6.2047	0.	126.77
1529	8.4979	7.9975	0.	124.84
1530	-8.5072	-4.5547	0.	126.49
1531	-2.4673	7.6942	0.	129.35
1532	-8.006	9.0131	0.	124.3
1533	5.6667	-3.8131	0.	120.4
1534	0.28232	-6.3558	0.	119.37
1535	5.9963	8.997	0.	124.29
1536	4.9984	8.9993	0.	119.63
1537	1.4928	1.0296	0.	127.18
1538	-1.5978e-003	0.53464	0.	123.92
1539	-9.055	-3.2901e-003	0.	131.76
1540	4.9486	-1.9421	0.	124.38
1541	5.9726	-2.3548	0.	123.4
1542	-1.9999	-8.4948	0.	128.21
1543	7.9981	-0.48038	0.	122.95
1544	2.7967	-5.4837	0.	130.69
1545	9.0562	-4.5285	0.	131.36
1546	5.3253	-4.3576	0.	121.33
1547	4.498	3.9068	0.	121.21
1548	-7.017	8.5478	0.	123.98
1549	6.4973	7.9943	0.	129.58
1550	-8.504	-2.0038	0.	126.17
1551	-9.0034	-2.0051	0.	126.56
1552	-1.9922	7.6969	0.	131.44
1553	-1.1092	-6.8672	0.	128.7
1554	8.9959	-1.9891	0.	126.9
1555	8.4991	-0.48846	0.	123.16
1556	1.4785	8.5167	0.	128.1
1557	-2.7576	5.4449	0.	128.2
1558	8.9986	7.9987	0.	124.81
1559	-4.1487	6.5073	0.	126.41
1560	-8.9935	6.516	0.	126.8
1561	1.5132	3.0051	0.	129.07
1562	-5.443	1.404	0.	128.66
1563	2.4886	1.0151	0.	128.8
1564	-2.0068	9.0548	0.	126.56
1565	0.30095	-5.8645	0.	119.04
1566	-8.0685	-6.033	0.	118.09
1567	2.1836	-0.94776	0.	130.34
1568	6.9757e-005	2.0116	0.	122.49
1569	8.5132	6.5045	0.	124.41
1570	9.0227	-8.007	0.	125.16
1571	2.3541	-6.901	0.	132.64
1572	-4.003	-2.9781	0.	130.04
1573	8.4926	-1.4811	0.	121.99
1574	0.90523	-4.8752	0.	117.55
1575	-5.5091	9.0268	0.	125.61
1576	-7.0421	6.1226	0.	121.49
1577	1.5016	1.5254	0.	128.36
1578	9.0255	-7.5049	0.	124.41
1579	-5.0116	-7.5139	0.	126.4
1580	4.0051	1.5061	0.	130.79
1581	7.4929	8.4913	0.	126.15
1582	8.9996	-0.49438	0.	125.71
1583	6.4888	-0.47329	0.	115.16
1584	3.6199	-4.4906	0.	130.58
1585	5.9659	2.5882	0.	119.27
1586	-8.4666	2.96	0.	124.17
1587	8.5019	7.4995	0.	124.81
1588	2.524	3.0339	0.	131.
1589	5.9639	-1.4183	0.	120.
1590	2.5858	4.5602	0.	129.18
1591	2.9432	2.6988e-002	0.	129.25
1592	-2.2557	5.4378	0.	129.83
1593	-2.0635	-5.4479	0.	129.1
1594	8.507	7.0019	0.	124.78
1595	-0.75935	5.3378	0.	106.2
1596	-8.505	7.0295	0.	123.23
1597	4.4934	-9.0207	0.	126.22
1598	7.4831	-1.4328	0.	120.12
1599	-6.0579	-6.6083	0.	132.23
1600	8.9969	8.9982	0.	124.92
1601	8.5199	6.0062	0.	123.3
1602	3.3734	-1.4909	0.	130.4
1603	8.998	-0.99221	0.	125.96
1604	-8.504	9.007	0.	124.54
1605	4.5181	2.5087	0.	124.33
1606	0.92938	7.5598	0.	130.67
1607	8.0001	0.50689	0.	118.11
1608	-3.895	-0.48401	0.	131.89
1609	4.8853	3.618	0.	114.82
1610	8.9959	-1.4904	0.	126.
1611	4.6906	-6.3978	0.	136.27
1612	4.1388	-5.4822	0.	132.82
1613	-7.0425	6.6385	0.	121.18
1614	-3.0037	-8.4958	0.	129.14
1615	-2.0227	-4.4644	0.	126.93
1616	5.0081	2.5083	0.	118.44
1617	-1.9676	2.9915	0.	124.75
1618	7.0935	-6.544	0.	124.77
1619	-4.0155	-7.501	0.	131.56
1620	-8.5956	-1.3104e-002	0.	131.77
1621	-1.0178	8.5868	0.	122.
1622	-0.49689	-0.4754	0.	135.02
1623	7.0147	7.0036	0.	128.27
1624	7.5705	-6.5066	0.	122.48
1625	5.0041	2.0001	0.	121.55
1626	-4.5139	-7.5061	0.	133.86
1627	-4.3245	5.0326	0.	127.08
1628	-5.1755	-0.97982	0.	131.44
1629	-5.484	-3.4565	0.	129.29
1630	2.4433	-8.9639	0.	132.07
1631	2.9967	8.9995	0.	129.23
1632	4.4987	8.9996	0.	121.83
1633	-1.5064	9.0588	0.	125.17
1634	-1.4991	-8.5164	0.	127.86
1635	8.5001	7.8084e-003	0.	121.8
1636	4.9633	-0.48432	0.	128.3
1637	5.9384	-5.2453	0.	118.11
1638	9.0139	-2.4789	0.	130.57
1639	4.2509	-6.968	0.	125.75
1640	4.5444	-4.9726	0.	128.32
1641	-8.5078	7.5242	0.	123.43
1642	8.0239	-9.0122	0.	126.89
1643	-6.5791	2.7757	0.	125.42
1644	1.2978e-003	2.5048	0.	121.93
1645	-5.0303	-7.0233	0.	126.21
1646	-8.8912	4.0509	0.	125.97
1647	4.003	-9.0016	0.	129.21
1648	-1.4823	2.9933	0.	124.82
1649	2.5212	2.5259	0.	130.97
1650	6.4665	-2.3409	0.	125.98
1651	5.458	-1.9096	0.	122.7
1652	7.7521	-5.0217	0.	119.91
1653	-0.50935	9.0272	0.	123.38
1654	3.6891	-5.9925	0.	132.31
1655	1.49	-4.6673	0.	122.35
1656	-4.0324	-6.9983	0.	131.22
1657	-8.5058	8.5121	0.	124.25
1658	5.4767	-2.3855	0.	122.85
1659	-0.13728	-0.99415	0.	132.92
1660	9.0263	-6.5017	0.	123.9
1661	-9.	-2.5087	0.	125.12
1662	5.4977	8.9986	0.	120.7
1663	3.9985	8.9997	0.	126.13
1664	4.5094	2.0049	0.	127.18
1665	-8.0037	2.4588	0.	116.5
1666	1.9899	1.0134	0.	128.11
1667	3.1303	5.0278	0.	130.1
1668	7.4933	8.9933	0.	126.03
1669	8.9977	8.4984	0.	124.83
1670	3.7266	-3.7284	0.	127.77
1671	9.018	-8.5071	0.	125.83
1672	7.0382	6.5143	0.	130.76
1673	7.4111	-5.533	0.	126.37
1674	-9.0007	7.0141	0.	125.54
1675	9.0514	-5.0108	0.	129.54
1676	-5.5295	-7.0506	0.	123.91
1677	6.0593	-8.4852	0.	115.02
1678	-5.5786	-1.4905	0.	129.45
1679	4.1609	-5.9671	0.	134.92
1680	-1.8748	4.4748	0.	129.93
1681	2.9864	-8.4696	0.	129.55
1682	2.9727	0.51967	0.	128.77
1683	-8.0093	8.5225	0.	123.79
1684	8.0385	-8.5157	0.	126.92
1685	4.0444	-8.5016	0.	129.79
1686	4.9759	-4.9088	0.	124.2
1687	8.4965	-0.98346	0.	123.17
1688	-3.505	-3.4837	0.	131.12
1689	7.9974	7.9958	0.	125.03
1690	2.235	5.5975	0.	130.81
1691	-2.5027	-8.4933	0.	128.71
1692	-5.518	8.5447	0.	125.56
1693	-4.5369	-1.3934	0.	130.75
1694	4.5296	-2.9767	0.	124.08
1695	1.9755	7.5302	0.	128.68
1696	1.9534	7.0621	0.	128.75
1697	1.4567	7.5568	0.	129.49
1698	1.4466	7.0949	0.	129.31
1699	-1.547	-7.4299	0.	126.64
1700	-5.3903	5.5784	0.	127.73
1701	4.7671	-3.9462	0.	123.65
1702	6.4948	8.4939	0.	131.19
1703	6.1221	3.105	0.	130.95
1704	9.0738	-2.9452	0.	144.18
1705	6.2351	5.5481	0.	138.01
1706	6.6751	4.5487	0.	135.04
1707	7.0925	4.5187	0.	123.05
1708	-5.1323	-5.9803	0.	128.
1709	-7.9315	2.9243	0.	111.8
1710	-5.4864	1.8678	0.	131.16
1711	4.1192	-7.9978	0.	132.
1712	4.3414	-4.0351	0.	126.03
1713	4.4797	-4.5164	0.	126.82
1714	1.0108	-9.5555	0.	113.7
1715	6.2317	-7.36	0.	145.03
1716	6.015	-7.505	0.	123.27
1717	6.4571	-7.5878	0.	138.39
1718	6.1958	-7.8117	0.	128.26
1719	6.1583	-6.32	0.	141.34
1720	5.9233	-6.205	0.	115.63
1721	6.0741	-5.8817	0.	123.62
1722	6.3594	-6.074	0.	136.39
1723	5.075	-7.045	0.	120.91
1724	5.0567	-6.785	0.	118.11
1725	4.7814	-7.215	0.	146.18
1726	4.7653	-6.6639	0.	147.09
1727	4.5454	-6.949	0.	142.18
1728	7.4517	-3.455	0.	146.13
1729	7.5967	-3.2767	0.	138.19
1730	7.392	-3.026	0.	143.56
1731	7.1736	-3.2467	0.	143.88
1732	7.7783	-4.315	0.	118.
1733	8.005	-4.3517	0.	101.17
1734	7.5817	-4.5611	0.	124.68
1735	8.0586	-4.6674	0.	117.33
1736	7.806	-4.7758	0.	117.87
1737	8.5033	-3.4233	0.	141.88
1738	8.585	-3.6383	0.	135.65
1739	8.8987	-3.4738	0.	151.74
1740	8.7022	-3.2253	0.	153.18
1741	5.6625	5.4538	0.	115.44
1742	5.8762	5.3375	0.	140.21
1743	5.7722	5.7665	0.	120.13
1744	6.0526	5.5641	0.	136.31
1745	4.4175	4.6962	0.	122.18
1746	4.4237	4.4538	0.	123.31
1747	4.1381	4.2917	0.	146.43
1748	4.1111	4.8147	0.	146.26
1749	3.917	4.5482	0.	142.61
1750	5.9138	3.8825	0.	143.84
1751	5.7063	3.7562	0.	121.26
1752	5.8168	3.4524	0.	124.55
1753	6.0756	3.6166	0.	141.32
1754	0.44375	-1.9662	0.	124.83
1755	0.65	-1.9112	0.	106.53
1756	0.74414	-1.604	0.	118.39
1757	0.27771	-1.6804	0.	129.14
1758	0.5781	-1.5181	0.	117.15
1759	0.10625	-3.2037	0.	152.29
1760	0.25625	-3.355	0.	136.74
1761	-0.14682	-3.4326	0.	149.51
1762	3.7377e-002	-3.6501	0.	145.83
1763	1.55	-2.8187	0.	133.65
1764	1.4937	-3.025	0.	134.36
1765	1.7678	-3.1837	0.	158.45
1766	1.878	-2.884	0.	150.31
1767	0.12374	6.3788	0.	120.22
1768	0.10875	6.1675	0.	122.97
1769	0.40749	6.4665	0.	145.73
1770	0.36675	6.0018	0.	146.15
1771	0.58181	6.2323	0.	142.74
1772	-0.93376	7.0913	0.	114.66
1773	-1.125	6.9988	0.	136.06
1774	-1.0192	7.4474	0.	121.24
1775	-1.335	7.228	0.	133.18
1776	-1.0388	5.6125	0.	119.27
1777	-1.215	5.7312	0.	137.05
1778	-1.2812	5.2451	0.	128.36
1779	-1.4897	5.4852	0.	131.96
1780	-0.99468	5.4289	0.	119.54
1781	1.4583	-7.6017	0.	131.33
1782	1.5283	-7.84	0.	126.49
1783	1.8797	-7.7678	0.	146.29
1784	1.746	-7.4313	0.	153.83
1785	0.49167	-7.3683	0.	133.53
1786	0.32	-7.5483	0.	145.95
1787	0.27849	-7.0759	0.	139.82
1788	4.9539e-002	-7.3032	0.	143.88
1789	0.84167	-8.56	0.	98.037
1790	0.6	-8.5017	0.	118.18
1791	0.50173	-8.8533	0.	123.45
1792	0.81048	-8.9217	0.	112.04
1793	-6.8263	4.3625	0.	131.71
1794	-6.8938	4.155	0.	131.12
1795	-6.4893	4.2857	0.	143.11
1796	-6.6299	3.9826	0.	150.17
1797	-7.7038	5.3375	0.	102.84
1798	-7.9175	5.2925	0.	119.51
1799	-7.9112	5.7792	0.	115.7
1800	-7.6378	5.6412	0.	114.65
1801	-8.1454	5.5164	0.	122.15
1802	-8.1763	3.885	0.	130.44
1803	-8.3225	4.0475	0.	142.98
1804	-8.417	3.6352	0.	141.97
1805	-8.6406	3.9455	0.	140.56
1806	-7.485	-5.0025	0.	90.921
1807	-7.2425	-5.1	0.	130.46
1808	-7.3509	-4.6592	0.	109.73
1809	-7.0589	-4.8457	0.	126.18
1810	-7.895	-5.3275	0.	101.16
1811	-7.8575	-5.5875	0.	108.5
1812	-8.337	-5.5086	0.	130.12
1813	-8.1527	-5.2743	0.	132.3
1814	-8.0843	-5.7615	0.	129.73
1815	-7.1675	-5.62	0.	142.09
1816	-7.3725	-5.7825	0.	113.05
1817	-6.8895	-5.8152	0.	136.2
1818	-7.1095	-6.0349	0.	133.57
1819	-7.97	0.755	0.	132.47
1820	-8.045	1.0133	0.	121.37
1821	-8.2059	0.60717	0.	147.2
1822	-8.3844	0.93334	0.	145.84
1823	-6.93	0.495	0.	134.02
1824	-6.745	0.68833	0.	146.38
1825	-6.4644	0.44626	0.	144.59
1826	-6.6828	0.21005	0.	141.45
1827	-7.305	1.7867	0.	96.527
1828	-7.045	1.7217	0.	119.82
1829	-7.0262	2.2304	0.	115.03
1830	-7.3366	2.145	0.	110.46
1831	-6.8311	1.9482	0.	120.88
1832	4.	7.75	0.	141.49
1833	4.25	8.	0.	127.45
1834	3.9994	8.2499	0.	133.33
1835	3.7492	8.0001	0.	134.58
1836	4.	7.25	0.	140.13
1837	4.25	7.	0.	126.11
1838	4.0223	6.7639	0.	130.79
1839	3.7615	7.0042	0.	134.76
1840	5.75	8.	0.	125.2
1841	6.	7.75	0.	138.
1842	5.9982	8.2484	0.	130.05
1843	6.2486	7.9972	0.	131.74
1844	5.75	7.	0.	122.01
1845	6.	7.25	0.	136.84
1846	6.2561	7.0015	0.	130.77
1847	6.0175	6.7492	0.	127.48
1848	5.	0.75	0.	140.23
1849	5.25	1.	0.	126.71
1850	4.7488	1.0011	0.	133.4
1851	5.0017	1.2498	0.	130.6
1852	5.	0.25	0.	140.7
1853	5.25	0.	0.	126.82
1854	4.7355	3.7136e-003	0.	134.09
1855	4.9816	-0.24216	0.	132.53
1856	6.75	1.	0.	126.07
1857	7.	0.75	0.	136.02
1858	7.2498	1.0016	0.	127.56
1859	6.9994	1.2512	0.	130.97
1860	6.75	0.	0.	122.55
1861	7.	0.25	0.	134.26
1862	7.2497	6.4068e-003	0.	126.87
1863	6.9966	-0.23672	0.	125.73
1864	7.	3.75	0.	141.86
1865	7.25	4.	0.	125.28
1866	6.8205	4.0232	0.	135.5
1867	7.0463	4.2593	0.	129.39
1868	7.	2.25	0.	141.81
1869	7.25	2.	0.	127.95
1870	6.7477	2.0103	0.	131.15
1871	6.9994	1.7512	0.	132.74
1872	8.75	4.	0.	127.08
1873	9.	3.75	0.	144.4
1874	9.0037	4.2504	0.	133.19
1875	9.2504	4.	0.	137.03
1876	8.75	2.	0.	129.19
1877	9.	2.25	0.	145.27
1878	9.0001	1.7503	0.	134.33
1879	9.25	2.	0.	138.45
1880	-2.	0.75	0.	136.18
1881	-1.75	1.	0.	119.64
1882	-1.9948	1.2497	0.	127.22
1883	-2.2407	1.0004	0.	131.03
1884	-2.	0.25	0.	134.97
1885	-1.75	0.	0.	116.93
1886	-1.9956	-0.25013	0.	124.44
1887	-2.2385	-4.0317e-004	0.	130.82
1888	-1.25	1.	0.	118.02
1889	-1.	0.75	0.	133.19
1890	-0.7514	1.007	0.	126.62
1891	-0.99954	1.2513	0.	123.64
1892	-1.25	0.	0.	116.3
1893	-1.	0.25	0.	132.99
1894	-0.74671	9.2706e-003	0.	128.32
1895	-1.0004	-0.2464	0.	123.96
1896	-1.	3.75	0.	130.6
1897	-0.75	4.	0.	115.04
1898	-0.96708	4.2226	0.	118.7
1899	-1.2256	3.9907	0.	125.35
1900	-1.	3.25	0.	132.03
1901	-0.75	3.	0.	117.27
1902	-0.99716	2.7501	0.	123.12
1903	-1.2412	2.9966	0.	126.15
1904	-0.25	4.	0.	116.89
1905	0.	3.75	0.	133.86
1906	0.25031	3.969	0.	128.56
1907	1.4392e-002	4.2011	0.	124.59
1908	-0.25	3.	0.	118.62
1909	0.	3.25	0.	134.77
1910	0.251	2.9954	0.	129.64
1911	6.489e-004	2.7524	0.	126.37
1912	-2.	-1.25	0.	135.12
1913	-1.75	-1.	0.	116.54
1914	-2.2428	-1.0005	0.	131.36
1915	-1.9956	-0.75013	0.	124.49
1916	-2.	-2.75	0.	136.87
1917	-1.75	-3.	0.	119.58
1918	-2.0056	-3.2438	0.	128.21
1919	-2.2518	-2.9967	0.	131.75
1920	-1.25	-1.	0.	116.95
1921	-1.	-1.25	0.	136.27
1922	-0.77384	-0.97666	0.	131.91
1923	-1.0004	-0.7464	0.	124.96
1924	-1.25	-3.	0.	119.25
1925	-1.	-2.75	0.	135.52
1926	-0.81701	-2.9878	0.	131.71
1927	-1.0419	-3.2281	0.	127.24
1928	-9.	-7.25	0.	143.15
1929	-8.75	-7.	0.	126.41
1930	-9.0092	-6.7545	0.	134.34
1931	-9.2511	-7.0014	0.	137.41
1932	-9.	-8.75	0.	140.64
1933	-8.75	-9.	0.	122.26
1934	-9.	-9.25	0.	129.06
1935	-9.25	-9.	0.	135.48
1936	-7.25	-7.	0.	119.01
1937	-7.	-7.25	0.	137.05
1938	-6.7602	-7.0289	0.	132.07
1939	-7.024	-6.7953	0.	124.97
1940	-7.25	-9.	0.	120.98
1941	-7.	-8.75	0.	136.6
1942	-6.75	-9.0005	0.	133.4
1943	-7.	-9.25	0.	129.14
1944	-6.	-8.25	0.	141.2
1945	-5.75	-8.	0.	124.92
1946	-6.0055	-7.7652	0.	132.65
1947	-6.2511	-8.005	0.	137.29
1948	-6.	-8.75	0.	141.4
1949	-5.75	-9.	0.	125.24
1950	-6.25	-9.0005	0.	135.49
1951	-6.	-9.25	0.	132.83
1952	-5.25	-8.	0.	124.56
1953	-5.	-8.25	0.	141.02
1954	-4.7521	-8.0017	0.	134.24
1955	-5.0058	-7.757	0.	131.46
1956	-5.25	-9.	0.	124.26
1957	-5.	-8.75	0.	140.63
1958	-4.7503	-9.0003	0.	134.38
1959	-5.0001	-9.25	0.	130.71
1960	-8.	-2.25	0.	131.58
1961	-7.75	-2.	0.	115.51
1962	-8.0104	-1.7488	0.	122.17
1963	-8.252	-2.0019	0.	126.27
1964	-8.	-2.75	0.	131.29
1965	-7.75	-3.	0.	115.09
1966	-8.2486	-3.0081	0.	125.94
1967	-7.995	-3.2648	0.	121.05
1968	-7.25	-2.	0.	115.21
1969	-7.	-2.25	0.	131.3
1970	-6.7626	-1.9953	0.	125.96
1971	-7.0236	-1.7452	0.	120.55
1972	-7.25	-3.	0.	115.39
1973	-7.	-2.75	0.	131.63
1974	-6.7484	-2.9887	0.	126.58
1975	-6.992	-3.2392	0.	122.42
1976	9.75	10.	0.	125.04
1977	10.	9.75	0.	124.95
1978	-9.75	10.	0.	124.98
1979	-10.	9.75	0.	125.02
1980	10.	-9.75	0.	127.06
1981	9.75	-10.	0.	126.87
1982	-10.	-9.75	0.	144.48
1983	-9.75	-10.	0.	140.09
1984	6.195	-6.84	0.	144.15
1985	6.4358	-7.0824	0.	138.47
1986	6.403	-6.5751	0.	137.29
1987	5.545	-7.275	0.	91.515
1988	5.7282	-7.6218	0.	103.74
1989	5.2604	-7.4105	0.	99.598
1990	5.49	-6.495	0.	84.989
1991	5.6081	-6.1135	0.	103.63
1992	5.1995	-6.4353	0.	98.617
1993	7.615	-3.885	0.	127.93
1994	7.3051	-3.6845	0.	132.54
1995	7.4487	-4.1217	0.	124.91
1996	8.05	-3.35	0.	108.88
1997	7.8471	-3.0905	0.	108.4
1998	8.2847	-3.1703	0.	106.94
1999	8.295	-3.995	0.	92.906
2000	8.365	-4.3251	0.	108.88
2001	8.6884	-3.9244	0.	117.22
2002	5.2475	5.2013	0.	100.06
2003	5.3497	5.5348	0.	104.05
2004	4.8325	4.9488	0.	95.894
2005	4.9266	5.2977	0.	109.58
2006	4.5163	5.045	0.	105.46
2007	5.8888	4.8525	0.	146.05
2008	6.078	5.0809	0.	140.16
2009	5.9012	4.3675	0.	146.51
2010	6.0874	4.5944	0.	144.27
2011	6.0883	4.106	0.	142.64
2012	4.8513	4.2213	0.	98.459
2013	4.5677	4.1222	0.	104.49
2014	5.2787	3.9887	0.	103.38
2015	4.9751	3.8615	0.	111.18
2016	5.4035	3.6697	0.	106.25
2017	0.33125	-2.3788	0.	135.09
2018	0.16173	-2.1186	0.	130.55
2019	0.21875	-2.7912	0.	140.86
2020	6.0574e-002	-2.5565	0.	138.29
2021	-4.0052e-002	-2.9926	0.	141.56
2022	0.95	-2.2137	0.	100.04
2023	1.0414	-1.8865	0.	109.83
2024	1.25	-2.5162	0.	99.072
2025	1.326	-2.2122	0.	116.25
2026	1.6113	-2.5426	0.	117.58
2027	0.66875	-3.245	0.	111.41
2028	0.47873	-3.5619	0.	109.69
2029	1.0812	-3.135	0.	104.4
2030	0.91904	-3.463	0.	114.79
2031	1.3483	-3.3268	0.	106.34
2032	-0.22877	6.6163	0.	91.829
2033	6.897e-002	6.6769	0.	105.72
2034	-0.58127	6.8538	0.	99.136
2035	-0.24216	6.9479	0.	110.94
2036	-0.59736	7.2164	0.	106.91
2037	-0.27375	5.9825	0.	96.452
2038	-3.2827e-002	5.8667	0.	102.09
2039	-0.65625	5.7975	0.	104.63
2040	-0.41958	5.7207	0.	107.04
2041	-0.80343	5.5214	0.	104.77
2042	-1.155	6.5763	0.	140.98
2043	-1.38	6.7942	0.	134.38
2044	-1.185	6.1537	0.	142.15
2045	-1.4178	6.3619	0.	137.38
2046	-1.4532	5.927	0.	135.84
2047	0.975	-7.485	0.	99.735
2048	1.2735	-7.2966	0.	101.09
2049	0.78271	-7.1464	0.	105.28
2050	1.185	-8.2	0.	84.009
2051	1.584	-8.2103	0.	109.4
2052	1.1716	-8.5389	0.	101.17
2053	0.46	-8.025	0.	129.08
2054	0.156	-7.7695	0.	134.18
2055	0.29306	-8.4283	0.	124.3
2056	0.25292	-8.2181	0.	126.34
2057	-7.1188	4.6875	0.	103.86
2058	-6.7429	4.6532	0.	118.61
2059	-7.4113	5.0125	0.	100.89
2060	-7.0366	5.02	0.	116.13
2061	-7.378	5.3139	0.	106.58
2062	-7.3212	4.065	0.	105.1
2063	-7.0575	3.8566	0.	105.41
2064	-7.7488	3.975	0.	108.7
2065	-7.4924	3.7272	0.	110.71
2066	-7.9504	3.6761	0.	106.21
2067	-8.0525	4.8775	0.	129.99
2068	-8.2388	5.0667	0.	126.21
2069	-8.1875	4.4625	0.	132.98
2070	-8.3383	4.6006	0.	135.62
2071	-8.4058	4.3931	0.	134.72
2072	-7.8233	-4.9096	0.	89.089
2073	-6.982	-5.3336	0.	131.76
2074	-7.6	-5.8999	0.	85.006
2075	-7.45	0.625	0.	102.93
2076	-7.7175	0.40795	0.	103.36
2077	-7.1915	0.30698	0.	104.13
2078	-7.675	1.4	0.	80.113
2079	-8.02	1.3566	0.	102.21
2080	-7.6464	1.7267	0.	97.65
2081	-6.895	1.205	0.	131.75
2082	-6.5862	0.94959	0.	134.78
2083	-6.7142	1.452	0.	128.08
2084	3.7517	7.5013	0.	138.71
2085	4.75	8.	0.	119.99
2086	4.4995	8.2499	0.	117.83
2087	5.25	8.	0.	119.63
2088	4.9994	8.2497	0.	120.43
2089	5.499	8.2494	0.	116.95
2090	4.75	7.	0.	118.36
2091	4.5115	6.7586	0.	117.29
2092	5.25	7.	0.	115.79
2093	4.9966	6.7763	0.	116.62
2094	5.495	6.7201	0.	111.37
2095	6.2507	7.4985	0.	135.4
2096	4.7439	0.50196	0.	138.1
2097	5.75	1.	0.	121.6
2098	5.5011	1.2506	0.	117.64
2099	6.25	1.	0.	122.2
2100	6.0001	1.2552	0.	122.55
2101	6.4992	1.2545	0.	121.45
2102	5.75	0.	0.	119.79
2103	5.4873	-0.24008	0.	117.45
2104	6.25	0.	0.	118.85
2105	5.9917	-0.23754	0.	119.79
2106	6.4944	-0.23665	0.	115.31
2107	7.2499	0.50305	0.	130.93
2108	7.	3.25	0.	149.65
2109	6.8035	3.5201	0.	145.06
2110	7.	2.75	0.	148.78
2111	6.7779	3.0179	0.	146.01
2112	6.7506	2.5156	0.	139.72
2113	7.75	4.	0.	117.99
2114	7.5237	4.2534	0.	115.31
2115	8.25	4.	0.	118.08
2116	8.013	4.2518	0.	117.63
2117	8.5074	4.2507	0.	115.74
2118	7.75	2.	0.	122.17
2119	7.4997	1.7508	0.	120.57
2120	8.25	2.	0.	121.98
2121	8.	1.7508	0.	121.81
2122	8.5001	1.7506	0.	118.41
2123	9.	3.25	0.	151.35
2124	9.25	3.5	0.	144.78
2125	9.	2.75	0.	151.72
2126	9.25	3.	0.	146.93
2127	9.25	2.5	0.	145.51
2128	-2.2395	0.50007	0.	135.82
2129	-1.4974	1.2498	0.	108.95
2130	-1.4988	-0.24961	0.	102.8
2131	-0.75042	0.50825	0.	132.19
2132	-1.2362	3.4945	0.	131.12
2133	-0.47864	4.2078	0.	104.7
2134	-0.49905	2.7516	0.	108.26
2135	0.2494	3.4858	0.	133.9
2136	-2.	-1.75	0.	141.3
2137	-2.2466	-1.5001	0.	137.58
2138	-2.	-2.25	0.	141.55
2139	-2.2492	-1.9994	0.	138.55
2140	-2.2504	-2.4982	0.	137.55
2141	-1.4988	-0.74961	0.	102.4
2142	-1.5115	-3.2409	0.	109.45
2143	-1.	-1.75	0.	142.28
2144	-0.72148	-1.4734	0.	138.96
2145	-1.	-2.25	0.	140.91
2146	-0.76154	-1.9945	0.	139.97
2147	-0.78867	-2.4955	0.	138.23
2148	-9.	-7.75	0.	148.65
2149	-9.2501	-7.5005	0.	143.5
2150	-9.	-8.25	0.	148.09
2151	-9.25	-8.0002	0.	144.76
2152	-9.25	-8.5001	0.	142.85
2153	-8.25	-7.	0.	114.7
2154	-8.5135	-6.7565	0.	116.83
2155	-7.75	-7.	0.	110.8
2156	-8.0184	-6.7624	0.	112.57
2157	-7.5225	-6.7787	0.	104.57
2158	-8.25	-9.	0.	111.83
2159	-8.5	-9.25	0.	109.98
2160	-7.75	-9.	0.	111.19
2161	-8.	-9.25	0.	110.59
2162	-7.5	-9.25	0.	109.58
2163	-7.	-7.75	0.	143.49
2164	-6.7543	-7.513	0.	140.58
2165	-7.	-8.25	0.	141.86
2166	-6.7511	-8.005	0.	140.74
2167	-6.7501	-8.5016	0.	138.49
2168	-6.2501	-8.5016	0.	141.19
2169	-5.5054	-7.7624	0.	114.33
2170	-5.5	-9.25	0.	114.33
2171	-4.7508	-8.5007	0.	139.39
2172	-8.2501	-2.5037	0.	131.16
2173	-7.5157	-1.7463	0.	104.99
2174	-7.4942	-3.2527	0.	104.4
2175	-6.7539	-2.4936	0.	131.37
2176	9.25	10.	0.	125.16
2177	9.4994	9.7497	0.	125.
2178	8.75	10.	0.	125.37
2179	8.9989	9.7494	0.	125.17
2180	8.25	10.	0.	125.58
2181	8.4984	9.749	0.	125.35
2182	7.75	10.	0.	125.63
2183	7.9979	9.7484	0.	125.49
2184	7.25	10.	0.	125.32
2185	7.4977	9.7478	0.	125.53
2186	6.75	10.	0.	124.41
2187	6.9981	9.7481	0.	125.25
2188	6.25	10.	0.	122.91
2189	6.4986	9.7486	0.	124.31
2190	5.75	10.	0.	121.39
2191	5.999	9.7492	0.	122.74
2192	5.25	10.	0.	120.6
2193	5.4992	9.7495	0.	121.32
2194	4.75	10.	0.	121.06
2195	4.9994	9.7498	0.	121.01
2196	4.25	10.	0.	122.77
2197	4.4994	9.7499	0.	122.2
2198	3.75	10.	0.	125.15
2199	3.9996	9.7499	0.	124.43
2200	3.25	10.	0.	127.29
2201	3.4995	9.7498	0.	126.61
2202	2.75	10.	0.	128.56
2203	2.9992	9.7498	0.	127.94
2204	2.25	10.	0.	128.89
2205	2.4989	9.75	0.	128.39
2206	1.75	10.	0.	128.53
2207	1.9982	9.7509	0.	128.28
2208	1.25	10.	0.	127.7
2209	1.4973	9.7519	0.	127.79
2210	0.75	10.	0.	126.59
2211	0.99641	9.752	0.	127.
2212	0.25	10.	0.	125.46
2213	0.4967	9.7516	0.	125.99
2214	-0.25	10.	0.	124.62
2215	-2.0217e-003	9.7525	0.	125.03
2216	-0.75	10.	0.	124.31
2217	-0.5008	9.7567	0.	124.45
2218	-1.25	10.	0.	124.62
2219	-1.0005	9.7612	0.	124.49
2220	-1.75	10.	0.	125.36
2221	-1.5009	9.7636	0.	125.09
2222	-2.25	10.	0.	126.19
2223	-2.0017	9.7627	0.	125.9
2224	-2.75	10.	0.	126.82
2225	-2.502	9.7599	0.	126.56
2226	-3.25	10.	0.	127.14
2227	-3.0018	9.7559	0.	126.92
2228	-3.75	10.	0.	127.15
2229	-3.5015	9.7529	0.	126.99
2230	-4.25	10.	0.	126.94
2231	-4.0013	9.7519	0.	126.86
2232	-4.75	10.	0.	126.58
2233	-4.5013	9.7527	0.	126.58
2234	-5.25	10.	0.	126.13
2235	-5.0015	9.7544	0.	126.22
2236	-5.75	10.	0.	125.64
2237	-5.502	9.7565	0.	125.8
2238	-6.25	10.	0.	125.18
2239	-6.0023	9.7578	0.	125.38
2240	-6.75	10.	0.	124.8
2241	-6.5026	9.7583	0.	124.99
2242	-7.25	10.	0.	124.56
2243	-7.0026	9.7573	0.	124.69
2244	-7.75	10.	0.	124.47
2245	-7.502	9.755	0.	124.53
2246	-8.25	10.	0.	124.54
2247	-8.0015	9.7529	0.	124.52
2248	-8.75	10.	0.	124.71
2249	-8.501	9.7515	0.	124.64
2250	-9.25	10.	0.	124.89
2251	-9.0005	9.7507	0.	124.83
2252	-9.5003	9.7503	0.	125.01
2253	10.	9.25	0.	124.71
2254	9.7494	9.4997	0.	124.92
2255	10.	8.75	0.	124.35
2256	9.7493	8.9996	0.	124.64
2257	10.	8.25	0.	124.11
2258	9.7494	8.4997	0.	124.41
2259	10.	7.75	0.	124.17
2260	9.7496	7.9998	0.	124.36
2261	10.	7.25	0.	124.64
2262	9.7502	7.5	0.	124.59
2263	10.	6.75	0.	125.62
2264	9.7509	7.0003	0.	125.16
2265	10.	6.25	0.	127.25
2266	9.7517	6.5006	0.	126.13
2267	10.	5.75	0.	129.74
2268	9.7525	6.0008	0.	127.6
2269	10.	5.25	0.	133.07
2270	9.7535	5.5007	0.	129.76
2271	10.	4.75	0.	135.71
2272	9.7532	5.0003	0.	132.7
2273	10.	4.25	0.	135.2
2274	9.7517	4.5001	0.	135.77
2275	10.	3.75	0.	132.33
2276	9.7504	4.	0.	134.92
2277	10.	3.25	0.	131.1
2278	9.75	3.5	0.	135.04
2279	10.	2.75	0.	131.85
2280	9.75	3.	0.	136.4
2281	10.	2.25	0.	134.35
2282	9.75	2.5	0.	136.17
2283	10.	1.75	0.	137.87
2284	9.75	2.	0.	137.05
2285	10.	1.25	0.	138.38
2286	9.7501	1.5001	0.	138.11
2287	10.	0.75	0.	135.59
2288	9.7501	1.0003	0.	134.83
2289	10.	0.25	0.	132.59
2290	9.7501	0.50047	0.	131.9
2291	10.	-0.25	0.	131.22
2292	9.7501	6.8159e-004	0.	130.3
2293	10.	-0.75	0.	131.44
2294	9.75	-0.49904	0.	129.99
2295	10.	-1.25	0.	132.81
2296	9.7496	-0.99857	0.	130.62
2297	10.	-1.75	0.	134.68
2298	9.7493	-1.4977	0.	131.89
2299	10.	-2.25	0.	135.38
2300	9.7503	-1.9959	0.	133.44
2301	10.	-2.75	0.	132.42
2302	9.7556	-2.4935	0.	134.41
2303	10.	-3.25	0.	126.04
2304	9.7636	-2.9936	0.	131.35
2305	10.	-3.75	0.	122.93
2306	9.7593	-3.4993	0.	126.14
2307	10.	-4.25	0.	125.82
2308	9.7454	-4.0033	0.	125.75
2309	10.	-4.75	0.	129.63
2310	9.7581	-4.5033	0.	129.58
2311	10.	-5.25	0.	130.65
2312	9.7607	-5.0034	0.	130.34
2313	10.	-5.75	0.	129.
2314	9.756	-5.5021	0.	129.08
2315	10.	-6.25	0.	126.72
2316	9.7558	-6.001	0.	127.11
2317	10.	-6.75	0.	124.98
2318	9.7565	-6.5008	0.	125.45
2319	10.	-7.25	0.	124.23
2320	9.7563	-7.001	0.	124.54
2321	10.	-7.75	0.	124.38
2322	9.756	-7.5015	0.	124.42
2323	10.	-8.25	0.	125.08
2324	9.7554	-8.0018	0.	124.87
2325	10.	-8.75	0.	125.95
2326	9.7544	-8.5019	0.	125.59
2327	10.	-9.25	0.	126.67
2328	9.753	-9.0015	0.	126.26
2329	9.7516	-9.5009	0.	126.71
2330	-10.	9.25	0.	125.22
2331	-9.7503	9.5003	0.	125.05
2332	-10.	8.75	0.	125.71
2333	-9.7505	9.0006	0.	125.35
2334	-10.	8.25	0.	126.44
2335	-9.7506	8.5009	0.	125.81
2336	-10.	7.75	0.	127.39
2337	-9.7506	8.0013	0.	126.44
2338	-10.	7.25	0.	128.5
2339	-9.7505	7.5018	0.	127.25
2340	-10.	6.75	0.	129.45
2341	-9.7497	7.0024	0.	128.16
2342	-10.	6.25	0.	129.62
2343	-9.7482	6.5032	0.	128.89
2344	-10.	5.75	0.	128.33
2345	-9.746	6.0046	0.	128.87
2346	-10.	5.25	0.	125.8
2347	-9.7456	5.5068	0.	127.81
2348	-10.	4.75	0.	123.67
2349	-9.7484	5.0089	0.	125.93
2350	-10.	4.25	0.	124.17
2351	-9.7468	4.5087	0.	124.91
2352	-10.	3.75	0.	127.92
2353	-9.7309	4.0076	0.	126.77
2354	-10.	3.25	0.	132.38
2355	-9.7368	3.5044	0.	130.69
2356	-10.	2.75	0.	134.16
2357	-9.7455	3.0019	0.	133.34
2358	-10.	2.25	0.	132.23
2359	-9.7535	2.502	0.	132.78
2360	-10.	1.75	0.	127.92
2361	-9.7607	2.0027	0.	130.16
2362	-10.	1.25	0.	124.13
2363	-9.7636	1.5027	0.	126.62
2364	-10.	0.75	0.	123.66
2365	-9.7607	1.0025	0.	124.46
2366	-10.	0.25	0.	126.51
2367	-9.7616	0.50154	0.	125.88
2368	-10.	-0.25	0.	129.88
2369	-9.7593	4.2159e-004	0.	128.9
2370	-10.	-0.75	0.	131.43
2371	-9.7577	-0.50047	0.	130.56
2372	-10.	-1.25	0.	130.84
2373	-9.7545	-1.0007	0.	130.55
2374	-10.	-1.75	0.	129.06
2375	-9.7522	-1.501	0.	129.39
2376	-10.	-2.25	0.	127.5
2377	-9.7508	-2.0016	0.	127.82
2378	-10.	-2.75	0.	127.34
2379	-9.7499	-2.5026	0.	127.02
2380	-10.	-3.25	0.	128.51
2381	-9.7493	-3.0038	0.	127.59
2382	-10.	-3.75	0.	129.73
2383	-9.7491	-3.505	0.	128.86
2384	-10.	-4.25	0.	129.83
2385	-9.7503	-4.0056	0.	129.55
2386	-10.	-4.75	0.	128.99
2387	-9.7538	-4.5053	0.	129.11
2388	-10.	-5.25	0.	129.21
2389	-9.7592	-5.0051	0.	128.29
2390	-10.	-5.75	0.	132.3
2391	-9.7606	-5.5049	0.	129.09
2392	-10.	-6.25	0.	136.48
2393	-9.7584	-6.0042	0.	132.98
2394	-10.	-6.75	0.	137.27
2395	-9.7547	-6.5028	0.	137.3
2396	-10.	-7.25	0.	134.24
2397	-9.7511	-7.0014	0.	136.58
2398	-10.	-7.75	0.	132.02
2399	-9.7501	-7.5005	0.	135.58
2400	-10.	-8.25	0.	132.17
2401	-9.75	-8.0002	0.	136.05
2402	-10.	-8.75	0.	135.21
2403	-9.75	-8.5001	0.	135.65
2404	-10.	-9.25	0.	140.67
2405	-9.75	-9.	0.	137.46
2406	-9.75	-9.5	0.	140.3
2407	-9.25	-10.	0.	128.38
2408	-9.5	-9.75	0.	135.91
2409	-8.75	-10.	0.	116.37
2410	-9.	-9.75	0.	122.81
2411	-8.25	-10.	0.	108.78
2412	-8.5	-9.75	0.	110.13
2413	-7.75	-10.	0.	109.41
2414	-8.	-9.75	0.	107.53
2415	-7.25	-10.	0.	117.94
2416	-7.5	-9.75	0.	110.97
2417	-6.75	-10.	0.	128.24
2418	-7.	-9.75	0.	124.35
2419	-6.25	-10.	0.	129.62
2420	-6.5	-9.7502	0.	134.63
2421	-5.75	-10.	0.	123.37
2422	-6.	-9.75	0.	127.27
2423	-5.25	-10.	0.	122.41
2424	-5.5	-9.75	0.	117.79
2425	-4.75	-10.	0.	128.83
2426	-5.0001	-9.75	0.	125.24
2427	-4.25	-10.	0.	133.76
2428	-4.5001	-9.7501	0.	133.97
2429	-3.75	-10.	0.	133.91
2430	-4.0002	-9.75	0.	134.27
2431	-3.25	-10.	0.	132.61
2432	-3.5003	-9.7498	0.	132.87
2433	-2.75	-10.	0.	131.65
2434	-3.0005	-9.7496	0.	131.74
2435	-2.25	-10.	0.	131.2
2436	-2.5009	-9.7498	0.	131.08
2437	-1.75	-10.	0.	131.15
2438	-2.0018	-9.7514	0.	130.89
2439	-1.25	-10.	0.	131.15
2440	-1.5031	-9.7553	0.	131.01
2441	-0.75	-10.	0.	130.32
2442	-1.0046	-9.7611	0.	131.
2443	-0.25	-10.	0.	126.86
2444	-0.50644	-9.7645	0.	129.76
2445	0.25	-10.	0.	120.62
2446	-5.6686e-003	-9.7587	0.	125.5
2447	0.75	-10.	0.	115.76
2448	0.50924	-9.7222	0.	115.73
2449	1.25	-10.	0.	117.32
2450	1.0054	-9.7777	0.	114.06
2451	1.75	-10.	0.	123.59
2452	1.4953	-9.7668	0.	120.36
2453	2.25	-10.	0.	129.02
2454	1.9884	-9.7502	0.	127.38
2455	2.75	-10.	0.	131.53
2456	2.4873	-9.7426	0.	131.15
2457	3.25	-10.	0.	131.51
2458	2.9914	-9.7434	0.	132.
2459	3.75	-10.	0.	129.88
2460	3.4954	-9.7465	0.	130.98
2461	4.25	-10.	0.	127.13
2462	3.9969	-9.7503	0.	128.79
2463	4.75	-10.	0.	123.82
2464	4.496	-9.7542	0.	125.63
2465	5.25	-10.	0.	120.91
2466	4.9952	-9.7515	0.	122.07
2467	5.75	-10.	0.	119.54
2468	5.4938	-9.7324	0.	119.46
2469	6.25	-10.	0.	120.2
2470	5.9968	-9.7393	0.	119.13
2471	6.75	-10.	0.	122.25
2472	6.502	-9.7481	0.	121.05
2473	7.25	-10.	0.	124.44
2474	7.005	-9.7523	0.	123.71
2475	7.75	-10.	0.	125.88
2476	7.5059	-9.7534	0.	125.6
2477	8.25	-10.	0.	126.46
2478	8.0056	-9.7533	0.	126.44
2479	8.75	-10.	0.	126.54
2480	8.5045	-9.7524	0.	126.58
2481	9.25	-10.	0.	126.54
2482	9.0031	-9.7517	0.	126.49
2483	9.5016	-9.7509	0.	126.52
2484	-4.7556	5.791	0.	126.99
2485	-4.5468	5.5305	0.	126.93
2486	-4.8353	5.2983	0.	126.93
2487	-5.1016	5.5611	0.	127.38
2488	-4.4539	6.0224	0.	126.76
2489	-4.9011	6.0689	0.	127.11
2490	-4.6758	6.2892	0.	126.83
2491	-4.2451	5.7619	0.	126.7
2492	-3.9588	5.9924	0.	126.48
2493	-4.1791	6.2569	0.	126.5
2494	1.2965	-5.2756	0.	119.36
2495	1.5158	-5.0562	0.	121.79
2496	1.1047	-4.9616	0.	118.72
2497	1.3971	-4.8576	0.	121.12
2498	-4.0232	5.5025	0.	126.86
2499	-4.3026	5.2749	0.	126.95
2500	-3.9007	3.2918	0.	129.53
2501	-3.8728	3.7832	0.	128.81
2502	-3.6424	3.5252	0.	128.86
2503	-4.1247	3.5555	0.	129.34
2504	1.5577	-5.533	0.	121.32
2505	1.2503	-5.7385	0.	117.7
2506	1.0531	-5.4547	0.	118.07
2507	1.777	-5.3136	0.	123.75
2508	1.9269	-4.9625	0.	125.85
2509	1.6088	-4.8658	0.	123.02
2510	-2.8064	-5.9735	0.	129.85
2511	-3.0493	-6.232	0.	129.95
2512	-3.2981	-5.9864	0.	130.14
2513	-3.0479	-5.7315	0.	130.11
2514	-4.1595	3.0717	0.	130.26
2515	-3.938	2.7973	0.	130.19
2516	-3.6743	3.0313	0.	129.5
2517	-3.6158	4.0164	0.	128.44
2518	-3.3854	3.7584	0.	128.5
2519	-3.3552	4.2484	0.	128.43
2520	-3.1268	3.9972	0.	128.31
2521	1.7264	0.51192	0.	126.84
2522	1.9612	0.19733	0.	127.44
2523	2.2216	0.50234	0.	127.92
2524	1.9815	0.7518	0.	127.77
2525	-3.5421	-5.742	0.	130.27
2526	-3.5332	-5.242	0.	130.43
2527	-3.787	-5.4938	0.	130.14
2528	-3.2919	-5.4871	0.	130.24
2529	-3.3976	6.458	0.	126.02
2530	-3.6773	6.2277	0.	126.25
2531	-3.6123	6.7307	0.	126.27
2532	-3.8976	6.4922	0.	126.27
2533	4.4005	-3.5087	0.	124.68
2534	4.0925	-3.3105	0.	125.58
2535	3.9472	-3.6419	0.	126.71
2536	4.2546	-3.7952	0.	125.83
2537	-4.4263	2.8708	0.	130.88
2538	-4.6437	3.1232	0.	131.04
2539	-4.3835	3.3353	0.	130.08
2540	-3.7733	-4.9912	0.	130.4
2541	-4.0131	-4.7375	0.	130.43
2542	-4.0271	-5.2431	0.	130.11
2543	-4.2632	-4.9841	0.	129.94
2544	4.8695	-3.4278	0.	122.86
2545	4.5814	-3.2194	0.	123.89
2546	4.7001	-3.7041	0.	123.68
2547	-3.8497	4.2722	0.	128.2
2548	-4.1046	4.0453	0.	128.41
2549	-2.3198	-5.9549	0.	129.48
2550	-2.5609	-6.2164	0.	129.49
2551	-2.5572	-5.7162	0.	129.67
2552	-1.8372	-5.931	0.	129.22
2553	-2.0783	-6.1946	0.	129.14
2554	-2.0707	-5.696	0.	129.2
2555	-5.1439	6.3361	0.	127.13
2556	-5.3282	6.0513	0.	127.54
2557	-5.2471	5.839	0.	127.5
2558	-4.9187	6.5564	0.	126.85
2559	-5.4107	6.6569	0.	126.83
2560	-5.4052	6.4749	0.	127.12
2561	-5.141	6.8248	0.	126.75
2562	-4.6259	6.7873	0.	126.63
2563	-4.401	6.5238	0.	126.57
2564	-5.632	6.5593	0.	126.97
2565	-5.6113	6.9443	0.	126.42
2566	-5.8656	6.7375	0.	126.31
2567	-4.4783	2.4357	0.	131.06
2568	-4.5031	2.0318	0.	130.69
2569	-4.2703	2.1215	0.	130.74
2570	-4.7501	2.2548	0.	131.41
2571	-4.2048	2.5965	0.	130.81
2572	-4.7025	2.6795	0.	131.67
2573	-2.8039	-6.4749	0.	129.6
2574	-2.3194	-6.4562	0.	129.16
2575	-2.5537	-6.7201	0.	129.05
2576	-4.2647	-1.9607	0.	129.95
2577	-3.7552	-1.98	0.	130.36
2578	-4.008	-2.2229	0.	129.97
2579	-4.0012	-1.719	0.	130.56
2580	2.0868	-5.4408	0.	126.18
2581	2.0488	-5.6932	0.	125.79
2582	1.7505	-5.8282	0.	122.84
2583	-3.2955	-6.4871	0.	130.09
2584	-3.042	-6.7341	0.	129.69
2585	-3.7112	2.5311	0.	130.16
2586	-3.9968	2.2823	0.	130.48
2587	-3.4161	3.2648	0.	128.84
2588	-3.1579	3.5054	0.	128.09
2589	2.2526	1.5196	0.	129.34
2590	2.0074	1.7717	0.	129.45
2591	1.7522	1.5232	0.	128.7
2592	1.9963	1.2672	0.	128.58
2593	1.4603	0.29083	0.	125.9
2594	1.2329	0.54998	0.	125.66
2595	1.4862	0.78166	0.	126.71
2596	2.2053	-2.602e-002	0.	128.06
2597	2.1621	-0.25531	0.	128.33
2598	1.6951	-2.3759e-002	0.	126.5
2599	1.8177	-0.35983	0.	127.06
2600	-3.7968	-5.9941	0.	130.1
2601	-3.5444	-6.2415	0.	130.28
2602	-1.5866	-5.6716	0.	128.88
2603	-1.3564	-5.904	0.	129.02
2604	-1.5982	-6.166	0.	129.07
2605	2.6403	-1.4702	0.	131.7
2606	2.8231	-1.2027	0.	131.19
2607	2.8274	-1.7004	0.	130.93
2608	3.1213	-1.4685	0.	130.83
2609	-3.5218	-4.74	0.	130.74
2610	-3.2806	-4.9876	0.	130.45
2611	-4.2509	-4.4777	0.	130.35
2612	-3.7616	-4.4863	0.	130.77
2613	-4.0044	-4.2319	0.	130.68
2614	3.0292	-5.0362	0.	131.6
2615	3.226	-4.8676	0.	131.85
2616	3.2476	-5.2933	0.	132.02
2617	3.4661	-5.0427	0.	131.97
2618	-4.2852	-5.4908	0.	129.6
2619	-4.0418	-5.7459	0.	129.97
2620	-3.1116	6.6918	0.	126.19
2621	-2.9013	6.4162	0.	125.87
2622	-3.178	6.1937	0.	126.1
2623	-4.9199	2.932	0.	131.83
2624	-4.8611	3.3801	0.	130.69
2625	-5.1213	3.1771	0.	132.01
2626	-1.5625	-5.1806	0.	128.16
2627	-1.3337	-5.4135	0.	128.34
2628	-1.8202	-5.4366	0.	128.87
2629	-2.7988	-5.4743	0.	129.93
2630	-3.0393	-5.2327	0.	130.26
2631	-4.501	-4.7242	0.	129.86
2632	-4.7473	-4.9619	0.	129.25
2633	-4.5213	-5.2319	0.	129.42
2634	-4.4935	-4.2219	0.	130.19
2635	-4.7363	-4.4607	0.	129.88
2636	-4.4936	-3.724	0.	130.14
2637	-4.7369	-3.9652	0.	130.12
2638	-4.247	-3.9762	0.	130.52
2639	-4.5142	-2.2109	0.	129.54
2640	-4.5044	-2.7235	0.	129.42
2641	-4.7589	-2.4734	0.	128.91
2642	-4.2575	-2.4731	0.	129.56
2643	-4.4727	1.6249	0.	130.
2644	-4.7453	1.8411	0.	130.45
2645	-4.2675	1.9265	0.	130.45
2646	2.4657	0.27899	0.	128.53
2647	2.4794	0.76481	0.	128.6
2648	2.7214	0.5171	0.	128.58
2649	2.5084	1.77	0.	130.04
2650	2.2632	2.0221	0.	130.16
2651	2.7649	2.0197	0.	130.69
2652	2.5178	2.2739	0.	130.71
2653	-2.0713	-6.6984	0.	128.58
2654	-1.8393	-6.4297	0.	128.99
2655	5.1551	-3.6343	0.	121.81
2656	5.4355	-3.8441	0.	121.
2657	5.2648	-4.1164	0.	121.46
2658	4.9857	-3.9107	0.	122.63
2659	-4.3565	3.8176	0.	128.95
2660	-4.6009	3.5922	0.	129.73
2661	2.5743	-5.1606	0.	129.87
2662	2.3091	-5.5711	0.	128.15
2663	2.2367	-5.0897	0.	128.27
2664	2.5719	-5.4012	0.	129.62
2665	-3.8238	4.7586	0.	127.69
2666	-3.5891	4.5042	0.	128.18
2667	-4.0896	4.5303	0.	127.71
2668	-3.7369	5.733	0.	126.63
2669	-3.4578	5.9633	0.	126.33
2670	-3.7876	5.2448	0.	127.17
2671	-3.5126	5.4754	0.	127.09
2672	-3.5568	4.9907	0.	127.78
2673	-4.067	5.0173	0.	127.26
2674	2.9984	-4.8339	0.	131.45
2675	2.6701	-4.8012	0.	131.16
2676	2.7991	-5.243	0.	130.95
2677	3.0726	-4.4907	0.	131.73
2678	3.4076	-4.578	0.	131.14
2679	3.9831	-2.8051	0.	125.79
2680	3.741	-3.1331	0.	126.24
2681	4.2734	-3.0212	0.	124.8
2682	4.2076	-2.5123	0.	125.47
2683	3.9302	-2.2799	0.	126.8
2684	3.6897	-2.5798	0.	126.4
2685	2.2056	-1.6284	0.	131.81
2686	2.5985	-1.7245	0.	131.37
2687	2.2975	-1.221	0.	131.24
2688	-4.5897	4.075	0.	128.24
2689	-4.3444	4.3035	0.	127.93
2690	5.2669	-2.8838	0.	122.47
2691	4.9981	-2.6681	0.	123.18
2692	5.0639	-3.1515	0.	122.39
2693	4.7757	-2.9431	0.	123.43
2694	2.7525	1.5168	0.	129.83
2695	2.4955	1.2666	0.	129.21
2696	2.4181	-0.18584	0.	128.94
2697	2.7023	3.5217e-002	0.	128.96
2698	2.6242	-0.44121	0.	129.71
2699	2.2792	-0.68144	0.	129.78
2700	4.4496	-2.2299	0.	125.55
2701	4.7202	-2.4534	0.	124.24
2702	4.4978	-2.7283	0.	124.48
2703	-4.4269	1.1815	0.	129.44
2704	-4.6948	1.4043	0.	129.35
2705	-4.2027	1.4461	0.	129.82
2706	-4.396	0.71526	0.	129.48
2707	-4.6532	0.94358	0.	128.88
2708	-4.1681	0.96445	0.	129.48
2709	-4.3503	-0.69913	0.	131.45
2710	-4.3527	-0.23173	0.	131.06
2711	-4.5698	-0.46915	0.	131.49
2712	-4.1206	-0.47582	0.	131.66
2713	-4.1396	-0.95282	0.	131.64
2714	-4.5523	-0.92937	0.	131.43
2715	-4.4457	-1.162	0.	131.1
2716	-2.5458	-5.2194	0.	129.6
2717	-2.3081	-5.4574	0.	129.39
2718	-4.7746	-1.9601	0.	129.4
2719	-4.5285	-1.6719	0.	130.25
2720	-4.4976	-3.2256	0.	129.76
2721	-4.2477	-3.4783	0.	130.26
2722	-4.7419	-3.4708	0.	129.79
2723	-4.7492	-2.9744	0.	129.19
2724	-4.2517	-2.9769	0.	129.78
2725	-4.3714	0.24235	0.	130.19
2726	-4.1271	3.0494e-003	0.	130.87
2727	-4.5914	1.5652e-003	0.	130.68
2728	-4.145	0.48426	0.	129.87
2729	-4.6221	0.47606	0.	129.5
2730	5.1066	-4.3935	0.	122.6
2731	4.9319	-4.6691	0.	124.03
2732	4.8275	-4.1878	0.	123.76
2733	4.6838	-4.4729	0.	125.35
2734	4.0889	-4.7889	0.	130.09
2735	4.0056	-4.362	0.	128.74
2736	3.8422	-4.5296	0.	129.9
2737	4.2722	-4.5425	0.	128.02
2738	-5.5895	6.1902	0.	127.53
2739	-5.7667	5.9487	0.	128.
2740	-5.4714	5.7907	0.	127.77
2741	-5.8481	6.3441	0.	127.12
2742	-4.9826	-4.6983	0.	129.26
2743	-5.2237	-4.9174	0.	128.51
2744	-5.0085	-5.1979	0.	128.56
2745	-3.3264	6.9646	0.	126.44
2746	-2.8314	6.9026	0.	126.6
2747	-3.0147	7.216	0.	127.11
2748	-4.9673	1.6205	0.	129.79
2749	-4.9922	2.0641	0.	131.17
2750	-5.2383	1.8566	0.	130.82
2751	-4.9211	1.1664	0.	128.79
2752	-5.1937	1.3998	0.	128.87
2753	-3.834	6.9952	0.	126.42
2754	-3.5471	7.2388	0.	126.68
2755	-4.3441	7.0202	0.	126.49
2756	-4.0659	7.2565	0.	126.53
2757	-4.1192	6.7567	0.	126.42
2758	-4.8482	7.0557	0.	126.53
2759	-4.5757	7.2817	0.	126.49
2760	-5.3416	7.1122	0.	126.34
2761	-5.0766	7.3192	0.	126.37
2762	-5.829	7.1573	0.	125.73
2763	-5.569	7.3731	0.	125.97
2764	-6.3148	7.1595	0.	124.55
2765	-6.0832	6.9505	0.	125.62
2766	-6.061	7.392	0.	125.15
2767	-6.7989	7.1369	0.	122.82
2768	-6.5494	7.3819	0.	123.84
2769	-6.561	6.9216	0.	124.
2770	-4.7826	-5.4679	0.	128.73
2771	-4.5523	-5.741	0.	129.14
2772	3.4637	-5.5111	0.	132.49
2773	3.2237	-5.756	0.	131.64
2774	3.0175	-5.5001	0.	131.37
2775	-5.7164	-5.3038	0.	126.59
2776	-5.4787	-5.1187	0.	127.67
2777	-5.2635	-5.3992	0.	127.72
2778	-5.5542	-5.5534	0.	127.43
2779	-3.5123	-4.2375	0.	131.09
2780	-3.2688	-4.4873	0.	130.82
2781	-1.1034	-5.6459	0.	128.49
2782	-0.8771	-5.8795	0.	128.3
2783	-1.1198	-6.1351	0.	129.21
2784	6.2141	-1.8805	0.	122.38
2785	5.9677	-2.1199	0.	122.78
2786	5.9633	-1.6517	0.	121.08
2787	5.7104	-1.8973	0.	122.42
2788	-7.2838	7.1071	0.	121.16
2789	-7.0372	7.3579	0.	122.24
2790	-7.0417	6.8802	0.	121.51
2791	-4.0459	-6.2473	0.	130.16
2792	-4.3088	-5.996	0.	129.51
2793	1.214	7.6908e-002	0.	124.98
2794	1.3017	-0.16789	0.	124.75
2795	0.98962	0.80463	0.	125.59
2796	0.98667	0.33606	0.	124.74
2797	0.73938	0.56322	0.	124.75
2798	-3.4475	2.7651	0.	129.48
2799	-3.1875	3.0088	0.	128.5
2800	-3.2151	2.508	0.	129.37
2801	-3.4766	2.2603	0.	130.12
2802	-3.5372	-6.7429	0.	130.35
2803	-3.7935	-6.4947	0.	130.34
2804	-2.3056	-6.9623	0.	128.47
2805	-1.8245	-6.9341	0.	128.09
2806	-2.0488	-7.2084	0.	127.78
2807	-2.7918	-6.9794	0.	129.14
2808	-2.5372	-7.2264	0.	128.48
2809	-3.2836	-6.99	0.	129.95
2810	-3.0291	-7.2378	0.	129.29
2811	7.3304	5.5265	0.	125.28
2812	7.1055	5.2805	0.	126.07
2813	7.0845	5.7784	0.	129.13
2814	6.877	5.5363	0.	129.94
2815	1.1541	-6.2028	0.	114.14
2816	0.98262	-5.9332	0.	116.06
2817	1.443	-6.0336	0.	119.22
2818	-2.8993	3.7442	0.	127.9
2819	-2.9293	3.2495	0.	127.75
2820	-2.6732	3.4936	0.	126.9
2821	2.4991	-5.8889	0.	129.03
2822	2.2032	-6.0517	0.	127.94
2823	-3.2497	-1.9927	0.	131.1
2824	-3.4933	-1.7393	0.	131.05
2825	-3.5025	-2.2381	0.	130.39
2826	-2.4067	6.3795	0.	126.2
2827	-2.681	6.1572	0.	126.19
2828	-2.6211	6.627	0.	126.28
2829	-6.0816	6.5223	0.	126.46
2830	-6.3294	6.7126	0.	125.07
2831	-5.9313	5.6884	0.	128.4
2832	-6.1015	5.4271	0.	128.71
2833	-5.9355	5.247	0.	128.42
2834	-5.6361	5.5304	0.	128.17
2835	3.0202	2.2694	0.	131.27
2836	3.2749	2.5171	0.	131.49
2837	3.0269	2.7743	0.	131.84
2838	2.7731	2.5236	0.	131.29
2839	-4.9743	2.4987	0.	132.02
2840	-5.2159	2.7465	0.	132.83
2841	-4.8793	0.70437	0.	128.89
2842	-5.1424	0.93753	0.	128.07
2843	-4.8085	-0.23586	0.	131.1
2844	-5.0171	-0.48261	0.	131.81
2845	-4.7718	-0.6994	0.	131.47
2846	-4.9796	-4.204	0.	129.81
2847	-5.2188	-4.4332	0.	129.54
2848	-5.226	-3.9486	0.	129.96
2849	-4.9851	-3.712	0.	129.77
2850	-5.0194	-2.2227	0.	128.77
2851	-5.0038	-2.7242	0.	128.68
2852	-5.26	-2.4782	0.	127.89
2853	-1.7956	-4.9452	0.	128.02
2854	-1.3003	-4.9252	0.	127.66
2855	-1.5321	-4.6917	0.	126.76
2856	-2.7863	-4.9779	0.	129.93
2857	-3.0276	-4.7349	0.	130.53
2858	-3.7553	-2.4811	0.	130.01
2859	-4.0049	-2.7264	0.	129.92
2860	2.0154	2.2731	0.	130.01
2861	1.7604	2.0217	0.	129.61
2862	2.015	3.2864	0.	129.8
2863	1.9835	3.8211	0.	129.69
2864	1.757	3.5156	0.	129.24
2865	2.2661	3.5458	0.	130.07
2866	-3.9589	-1.221	0.	131.39
2867	-3.7393	-1.4784	0.	131.25
2868	-4.265	-1.4302	0.	130.85
2869	-3.9171	0.73345	0.	129.88
2870	-3.9007	0.24496	0.	130.55
2871	-3.6699	0.49218	0.	130.11
2872	-3.9975	1.7478	0.	130.26
2873	-3.7621	2.0116	0.	130.44
2874	3.6429	-2.0206	0.	128.04
2875	4.1722	-1.9975	0.	126.89
2876	3.9055	-1.7557	0.	128.53
2877	2.8252	-0.71329	0.	130.66
2878	3.0704	-0.96999	0.	131.1
2879	2.4803	-0.95353	0.	130.72
2880	3.2655	2.0144	0.	130.93
2881	3.009	1.7665	0.	130.48
2882	-1.5925	-6.6654	0.	128.5
2883	-1.3616	-6.3971	0.	129.25
2884	0.58354	-5.3868	0.	118.16
2885	0.78543	-5.6495	0.	116.44
2886	0.86121	-5.1407	0.	117.43
2887	-4.8529	4.8108	0.	126.96
2888	-5.1371	5.0526	0.	127.06
2889	-4.5911	5.0427	0.	126.95
2890	-4.834	3.8496	0.	129.02
2891	-5.0614	3.6264	0.	130.14
2892	-0.84857	-5.391	0.	127.21
2893	-1.0715	-5.1581	0.	127.84
2894	3.4024	-2.3204	0.	127.64
2895	3.0801	-1.9902	0.	129.57
2896	3.374	-1.7584	0.	129.46
2897	2.3325	-4.7303	0.	129.56
2898	1.9942	-4.6509	0.	127.71
2899	-3.3221	4.7363	0.	128.28
2900	-3.0935	4.4861	0.	128.77
2901	-3.2335	5.7058	0.	126.8
2902	-2.9578	5.9346	0.	126.43
2903	-3.2818	5.2213	0.	127.71
2904	-3.0086	5.454	0.	127.74
2905	-3.0543	4.9718	0.	128.71
2906	2.7443	-4.458	0.	131.43
2907	2.4092	-4.4025	0.	131.51
2908	2.823	-4.1333	0.	132.07
2909	3.1539	-4.1763	0.	130.92
2910	3.4475	-2.9078	0.	126.86
2911	3.2862	-3.4316	0.	128.35
2912	3.2281	-3.1058	0.	127.14
2913	3.5957	-3.4645	0.	127.36
2914	3.1794	-2.5708	0.	126.97
2915	1.8724	-1.547	0.	130.69
2916	1.546	-1.1939	0.	126.98
2917	1.514	-1.521	0.	127.86
2918	1.9643	-1.1397	0.	130.11
2919	-0.3657	-5.3734	0.	124.63
2920	-0.62224	-5.6246	0.	127.03
2921	-0.58271	-5.137	0.	126.45
2922	-4.8397	4.3286	0.	127.61
2923	-5.0659	4.0937	0.	128.02
2924	-5.1009	4.5689	0.	126.64
2925	-4.5945	4.5571	0.	127.3
2926	5.7554	-2.8399	0.	122.64
2927	5.5446	-3.0973	0.	121.63
2928	5.4943	-2.6218	0.	122.5
2929	0.11252	-5.3668	0.	120.94
2930	0.38717	-5.1129	0.	118.73
2931	0.32541	-5.6159	0.	119.01
2932	-0.14469	-5.6124	0.	123.52
2933	-9.592e-002	-5.1195	0.	122.82
2934	-1.3471	-6.8918	0.	128.35
2935	-1.566	-7.1732	0.	127.31
2936	3.2416	1.0133	0.	129.17
2937	2.9965	1.2655	0.	129.59
2938	2.7395	1.0153	0.	128.97
2939	2.9815	0.76758	0.	128.95
2940	3.136	-0.475	0.	130.44
2941	2.9084	-0.22015	0.	129.73
2942	4.4284	-1.7296	0.	127.1
2943	4.6909	-1.9609	0.	125.3
2944	-3.9439	1.2291	0.	129.86
2945	-3.7168	1.4903	0.	130.18
2946	-3.6887	0.98784	0.	129.79
2947	-3.6607	9.236e-004	0.	131.33
2948	-3.8949	-0.24104	0.	131.47
2949	-3.6891	-0.98398	0.	132.22
2950	-3.9098	-0.72951	0.	131.85
2951	2.0194	2.7761	0.	130.07
2952	1.7663	2.5192	0.	129.89
2953	2.27	2.5249	0.	130.57
2954	1.7666	3.0167	0.	129.52
2955	2.272	3.0311	0.	130.49
2956	-4.0011	-3.7305	0.	130.63
2957	-4.0018	-3.2296	0.	130.28
2958	-3.7528	-3.4824	0.	130.81
2959	-2.291	-4.9633	0.	128.93
2960	-2.5315	-4.7248	0.	129.4
2961	-2.0533	-5.2012	0.	128.73
2962	-2.0329	-4.7095	0.	127.64
2963	-5.0519	-1.7194	0.	129.63
2964	-5.2818	-1.9778	0.	128.46
2965	-5.125	-1.2243	0.	130.83
2966	-5.3266	-1.4796	0.	129.83
2967	-4.8058	-1.4311	0.	130.48
2968	-5.2472	-2.9721	0.	128.41
2969	-4.9935	-3.2195	0.	129.22
2970	-4.8421	0.23527	0.	129.98
2971	-5.0543	-7.1023e-003	0.	130.99
2972	-5.0962	0.46834	0.	129.05
2973	-5.2469	2.3066	0.	132.34
2974	3.8944	-5.0123	0.	131.45
2975	4.126	-5.2457	0.	131.89
2976	4.3288	-4.9909	0.	129.64
2977	3.7736	2.5093	0.	130.28
2978	3.5202	2.2621	0.	131.15
2979	3.5269	2.7643	0.	131.74
2980	2.0196	4.352	0.	129.96
2981	2.2424	4.0783	0.	129.71
2982	1.7132	4.0146	0.	129.6
2983	1.7266	4.2283	0.	130.16
2984	2.1318	4.8595	0.	130.37
2985	1.9736	5.1629	0.	130.85
2986	2.415	5.0852	0.	130.41
2987	2.2082	5.3551	0.	130.69
2988	1.8144	4.7111	0.	130.85
2989	2.334	4.5832	0.	129.67
2990	-6.0252	6.1027	0.	127.58
2991	-6.2058	5.846	0.	127.77
2992	-6.303	6.2732	0.	126.29
2993	2.2749	6.2948	0.	130.29
2994	2.0849	6.58	0.	129.36
2995	2.3913	6.7382	0.	129.91
2996	2.4878	6.5022	0.	130.95
2997	2.4806	6.0462	0.	131.49
2998	2.0383	6.1056	0.	129.71
2999	2.2467	5.8333	0.	130.67
3000	4.7832	3.0309	0.	119.46
3001	5.2886	2.9677	0.	114.29
3002	5.1799	3.2619	0.	114.72
3003	4.9653	3.3374	0.	115.15
3004	5.0267	2.7825	0.	116.93
3005	7.7906	-5.9567	0.	122.53
3006	8.0546	-6.1902	0.	121.32
3007	7.941	-5.683	0.	120.86
3008	8.2669	-5.7039	0.	121.67
3009	8.3025	-5.9569	0.	121.75
3010	2.968	-5.9749	0.	130.76
3011	2.6846	-6.2185	0.	130.37
3012	2.7618	-5.719	0.	130.49
3013	-2.8651	4.2349	0.	128.65
3014	-2.641	3.9872	0.	127.91
3015	5.9951	-4.2544	0.	121.32
3016	5.8107	-4.5253	0.	120.3
3017	5.7139	-4.0494	0.	120.48
3018	5.5432	-4.3217	0.	120.94
3019	-2.1838	6.1356	0.	126.77
3020	-2.1306	6.5918	0.	126.99
3021	-1.9125	6.3621	0.	129.63
3022	2.1379	-1.9718	0.	131.87
3023	1.7758	-1.911	0.	129.29
3024	1.328	-4.1764	0.	121.42
3025	0.78881	-4.3291	0.	116.21
3026	1.0181	-4.0255	0.	115.82
3027	0.98918	-4.5951	0.	117.09
3028	1.2816	-4.4911	0.	119.5
3029	-6.3759	5.5846	0.	128.08
3030	-6.1551	5.1917	0.	128.5
3031	-6.5646	5.2809	0.	126.57
3032	0.90058	-6.3967	0.	111.99
3033	1.3037	-6.5058	0.	115.92
3034	0.96438	-6.6491	0.	108.82
3035	4.8075	6.0669	0.	115.67
3036	5.2727	6.2911	0.	111.64
3037	5.0242	6.3472	0.	113.44
3038	5.1498	5.942	0.	113.44
3039	6.2253	-0.94602	0.	117.69
3040	5.7154	-0.95281	0.	119.12
3041	5.9774	-0.71124	0.	117.65
3042	5.9676	-1.1829	0.	118.85
3043	-3.0001	-2.2454	0.	131.18
3044	-2.9931	-1.7474	0.	131.89
3045	-2.7483	-1.9977	0.	133.54
3046	7.5637	5.2689	0.	120.94
3047	7.5543	5.7694	0.	124.49
3048	7.8005	5.5164	0.	121.72
3049	7.3389	5.0228	0.	121.71
3050	7.8029	5.0125	0.	117.87
3051	7.5565	4.7617	0.	117.06
3052	-3.5244	-7.2451	0.	130.22
3053	-3.7816	-6.9962	0.	130.8
3054	-2.0173	-7.7232	0.	127.33
3055	-2.2805	-7.4725	0.	127.79
3056	-1.7903	-7.4475	0.	127.01
3057	-3.2699	-7.493	0.	129.56
3058	-3.0157	-7.7415	0.	128.92
3059	-2.7746	-7.4849	0.	128.63
3060	5.6375	-4.8042	0.	120.31
3061	5.4498	-5.0914	0.	118.96
3062	5.37	-4.6006	0.	120.96
3063	5.1953	-4.8762	0.	122.4
3064	7.5853	-7.2702	0.	123.7
3065	7.3513	-7.0283	0.	123.28
3066	7.8229	-7.0084	0.	122.39
3067	7.578	-6.7615	0.	122.52
3068	-2.9551	2.7518	0.	128.39
3069	-2.6993	2.9977	0.	127.03
3070	-2.7195	2.4997	0.	127.93
3071	-2.9733	2.2524	0.	129.54
3072	0.9963	1.286	0.	126.79
3073	0.74308	1.0417	0.	125.5
3074	1.2429	1.0363	0.	126.63
3075	0.74856	1.5276	0.	126.71
3076	1.0023	1.7736	0.	128.25
3077	1.2506	1.5272	0.	127.92
3078	0.75325	9.4144e-002	0.	124.45
3079	1.0748	-0.13895	0.	124.17
3080	6.8967	5.0384	0.	127.3
3081	7.1023	4.7738	0.	123.77
3082	0.50596	0.3213	0.	124.46
3083	0.49284	0.80025	0.	124.66
3084	0.24548	0.5474	0.	124.17
3085	-2.4149	3.7366	0.	126.91
3086	-2.4432	3.2418	0.	126.17
3087	-2.1904	3.4881	0.	125.19
3088	-4.2991	-6.4994	0.	129.81
3089	-4.0379	-6.748	0.	130.79
3090	6.1807	-3.9906	0.	121.36
3091	6.4694	-4.2006	0.	124.13
3092	6.2765	-4.4588	0.	123.3
3093	-2.8257	4.7216	0.	129.2
3094	-2.6022	4.4768	0.	129.58
3095	-2.4581	5.9133	0.	126.77
3096	-2.7328	5.6829	0.	127.38
3097	-2.5437	7.0749	0.	127.59
3098	-2.345	6.8393	0.	127.08
3099	-7.525	7.3314	0.	121.17
3100	-7.5262	6.856	0.	119.41
3101	-7.7703	7.0739	0.	120.69
3102	-7.2784	7.5822	0.	122.24
3103	-7.7688	7.5569	0.	122.
3104	-7.5206	7.8106	0.	122.38
3105	-6.7877	7.6029	0.	123.25
3106	-7.029	7.8311	0.	122.99
3107	-6.2956	7.6144	0.	124.44
3108	-6.5358	7.8462	0.	124.01
3109	-5.801	7.6077	0.	125.39
3110	-6.0402	7.8486	0.	124.98
3111	-5.304	7.58	0.	126.01
3112	-5.5421	7.8329	0.	125.69
3113	-4.8042	7.5452	0.	126.33
3114	-5.0428	7.8028	0.	126.14
3115	-4.2975	7.518	0.	126.53
3116	-4.54	7.7759	0.	126.42
3117	-3.7791	7.5001	0.	126.79
3118	-4.0307	7.7575	0.	126.68
3119	-3.2354	7.4903	0.	127.35
3120	-3.5115	7.7486	0.	127.12
3121	-2.727	7.3883	0.	128.11
3122	-2.9756	7.7573	0.	127.97
3123	-2.7111	7.5908	0.	128.55
3124	2.9019	-3.8066	0.	131.06
3125	2.9653	-3.522	0.	129.81
3126	3.2327	-3.8496	0.	129.93
3127	2.0708	-4.323	0.	129.66
3128	1.7224	-4.2394	0.	126.82
3129	1.676	-4.5541	0.	124.89
3130	2.8571	-2.2406	0.	128.89
3131	2.5308	-2.0679	0.	131.47
3132	1.5165	-0.84015	0.	125.37
3133	1.4242	-0.50395	0.	125.31
3134	1.9348	-0.78596	0.	128.51
3135	0.17873	-4.8655	0.	120.61
3136	0.46448	-4.6008	0.	117.17
3137	0.66484	-4.8669	0.	118.01
3138	-0.80569	-4.9041	0.	127.09
3139	-1.0305	-4.672	0.	127.77
3140	-5.3851	4.8106	0.	126.73
3141	-5.7028	5.032	0.	127.76
3142	-5.4034	5.3154	0.	127.51
3143	-5.2933	3.8705	0.	129.14
3144	-5.4885	3.6534	0.	131.08
3145	-5.3216	3.4234	0.	131.45
3146	6.4685	-1.6437	0.	121.3
3147	6.7164	-1.8785	0.	122.34
3148	6.466	-2.1084	0.	124.31
3149	6.0923	-3.5255	0.	120.89
3150	6.3703	-3.7414	0.	121.09
3151	5.8995	-3.7857	0.	120.53
3152	-0.40123	-5.8636	0.	125.92
3153	-0.6434	-6.1118	0.	129.01
3154	0.72907	-6.1271	0.	113.99
3155	0.5273	-5.8786	0.	117.3
3156	-1.0419	-7.5571	0.	125.9
3157	-0.99393	-7.9674	0.	125.85
3158	-1.2402	-7.8759	0.	125.9
3159	-0.77769	-7.759	0.	124.91
3160	-0.88608	-6.3674	0.	129.9
3161	-1.1162	-6.6236	0.	129.09
3162	1.9049	-6.1867	0.	124.99
3163	1.5926	-6.3366	0.	121.05
3164	2.4908	7.2243	0.	129.2
3165	2.7451	7.4945	0.	128.64
3166	2.4905	7.7467	0.	128.5
3167	2.233	7.5114	0.	128.65
3168	7.5065	7.248	0.	125.91
3169	7.751	7.4955	0.	125.22
3170	7.251	7.4941	0.	125.6
3171	7.4978	7.7425	0.	125.52
3172	7.5374	6.264	0.	126.6
3173	7.7888	6.0145	0.	124.77
3174	7.3085	6.0213	0.	128.35
3175	4.022	2.7545	0.	129.46
3176	4.0181	2.256	0.	129.64
3177	4.2702	2.5072	0.	126.74
3178	3.5105	1.7609	0.	130.61
3179	3.7647	2.0087	0.	130.52
3180	3.3811	-0.7317	0.	130.87
3181	3.6338	-0.9845	0.	131.13
3182	3.3686	-1.2358	0.	130.74
3183	3.4604	0.26385	0.	129.12
3184	3.4847	0.76188	0.	128.98
3185	3.7274	0.51021	0.	128.53
3186	3.2246	0.51613	0.	128.77
3187	5.1973	-1.4452	0.	123.55
3188	5.4566	-1.1963	0.	121.24
3189	5.7088	-1.4264	0.	120.94
3190	5.4559	-1.672	0.	122.31
3191	4.1617	-1.4877	0.	128.74
3192	3.9018	-1.2422	0.	130.34
3193	3.6366	-1.4935	0.	129.94
3194	6.7245	-1.4139	0.	120.22
3195	6.4753	-1.1781	0.	118.85
3196	6.2177	-1.415	0.	119.95
3197	7.2191	-1.8922	0.	120.4
3198	7.7248	-1.9232	0.	117.61
3199	7.4595	-2.1333	0.	118.62
3200	7.477	-1.668	0.	119.42
3201	-3.2347	2.0047	0.	130.29
3202	-3.4815	1.7541	0.	130.36
3203	-3.4695	-1.2414	0.	132.08
3204	-3.2367	-1.494	0.	131.85
3205	1.6562	5.0145	0.	131.33
3206	1.5214	4.5874	0.	131.05
3207	1.4552	5.0475	0.	131.79
3208	1.2778	4.8194	0.	131.92
3209	1.4867	3.7091	0.	129.15
3210	1.2521	3.4754	0.	128.14
3211	1.5087	3.2459	0.	128.96
3212	1.5113	2.2677	0.	129.48
3213	1.2569	2.0195	0.	129.19
3214	1.5052	1.7732	0.	128.86
3215	-3.2605	-3.987	0.	131.35
3216	-3.755	-3.9831	0.	131.
3217	-3.5067	-3.735	0.	131.18
3218	-3.5041	-2.7362	0.	130.36
3219	-3.253	-2.4908	0.	130.48
3220	-1.5058	-4.2064	0.	123.63
3221	-1.2623	-4.4384	0.	126.87
3222	-1.7694	-4.456	0.	126.37
3223	-2.7728	-4.4818	0.	130.
3224	-3.017	-4.2368	0.	131.08
3225	-6.1381	-5.2543	0.	125.
3226	-5.9307	-5.0464	0.	126.83
3227	-6.0317	-5.4633	0.	126.42
3228	-7.3623	-0.45735	0.	109.25
3229	-7.8351	-0.47274	0.	113.75
3230	-7.6593	-0.16201	0.	109.3
3231	-7.5782	-0.71426	0.	109.77
3232	-5.6723	-0.75388	0.	132.03
3233	-5.8801	-1.002	0.	129.82
3234	-5.4079	-0.99043	0.	131.21
3235	-5.6094	-1.2458	0.	130.22
3236	-5.5034	-2.726	0.	127.62
3237	-5.5224	-2.2333	0.	127.57
3238	-5.7604	-2.4825	0.	126.27
3239	-5.4599	-4.6523	0.	128.79
3240	-5.693	-4.8613	0.	127.91
3241	-5.4651	-4.1779	0.	129.69
3242	-5.7007	-4.4024	0.	129.47
3243	-5.7167	-3.9326	0.	129.97
3244	-5.4773	-3.6979	0.	129.62
3245	-5.3594	0.7015	0.	128.22
3246	-5.6294	0.94127	0.	127.01
3247	-5.415	1.171	0.	128.14
3248	-5.2628	-0.25385	0.	131.7
3249	-5.4725	-0.50062	0.	132.58
3250	-5.2081	-0.73717	0.	131.76
3251	-5.4885	2.5543	0.	133.15
3252	-5.7658	2.8382	0.	133.46
3253	-5.4173	2.9916	0.	133.
3254	3.6823	-5.2605	0.	132.44
3255	3.9139	-5.4939	0.	132.87
3256	3.6891	-5.749	0.	132.62
3257	5.0448	-5.6024	0.	125.32
3258	5.2612	-5.3605	0.	121.2
3259	4.8128	-5.4099	0.	127.91
3260	5.0067	-5.1453	0.	124.64
3261	3.2002	-6.2404	0.	130.46
3262	3.449	-5.994	0.	131.77
3263	2.9168	-6.484	0.	130.07
3264	2.3887	-6.3812	0.	129.27
3265	2.6987	-6.7307	0.	130.29
3266	2.4981	-6.6918	0.	131.54
3267	4.2713	3.0041	0.	126.6
3268	4.4939	3.2365	0.	123.87
3269	4.5195	2.7568	0.	123.88
3270	3.2789	3.0215	0.	132.08
3271	3.0328	3.2811	0.	131.95
3272	2.7765	3.0306	0.	131.54
3273	2.525	3.803	0.	130.09
3274	2.7794	3.541	0.	131.17
3275	2.5231	3.2905	0.	130.75
3276	2.6973	5.7849	0.	132.09
3277	2.6934	6.2537	0.	132.13
3278	2.9298	6.0179	0.	133.42
3279	2.6701	5.302	0.	131.
3280	2.9336	5.5327	0.	132.44
3281	2.4634	5.5719	0.	131.28
3282	-6.5507	6.4635	0.	124.9
3283	-6.8039	6.6649	0.	122.69
3284	-5.0811	-5.7147	0.	128.12
3285	-4.562	-6.2482	0.	129.16
3286	-4.8508	-5.9878	0.	128.53
3287	1.7787	5.4422	0.	130.7
3288	1.5647	5.246	0.	131.59
3289	1.8049	5.9068	0.	129.57
3290	1.5689	5.6972	0.	130.22
3291	2.0134	5.6344	0.	130.54
3292	1.8483	6.3908	0.	128.77
3293	1.5876	6.1608	0.	128.41
3294	1.6422	6.6387	0.	128.23
3295	1.9159	6.8508	0.	128.72
3296	0.13504	7.7223	0.	124.85
3297	0.40349	7.7761	0.	127.34
3298	0.44042	7.304	0.	130.39
3299	0.13704	7.3434	0.	123.71
3300	0.64137	7.5429	0.	129.04
3301	-0.38946	5.013	0.	109.79
3302	-0.36583	5.3791	0.	110.12
3303	-0.14985	5.2217	0.	115.88
3304	-0.55843	5.2723	0.	108.6
3305	-7.766	6.5928	0.	118.89
3306	-7.5241	6.3949	0.	116.35
3307	-7.2842	6.6291	0.	119.75
3308	-6.4835	6.0165	0.	126.48
3309	-6.6399	5.7396	0.	126.25
3310	-6.7891	6.1791	0.	123.54
3311	2.6172	4.8089	0.	129.71
3312	2.8894	5.0427	0.	130.17
3313	2.7934	4.0489	0.	129.75
3314	2.5569	4.3095	0.	129.42
3315	3.7753	3.0095	0.	130.92
3316	3.5327	3.2691	0.	132.94
3317	4.0196	3.2521	0.	130.36
3318	3.2005	-6.7324	0.	128.7
3319	3.4476	-6.4848	0.	129.31
3320	3.1875	-7.2288	0.	127.43
3321	2.9824	-6.9791	0.	128.95
3322	3.4619	-6.9803	0.	127.65
3323	-5.9091	1.1819	0.	127.77
3324	-5.9718	1.6547	0.	130.1
3325	-6.2025	1.43	0.	128.92
3326	-5.6948	1.4116	0.	128.93
3327	-5.7525	2.3505	0.	133.07
3328	-5.493	2.0991	0.	132.
3329	-5.3083	0.22597	0.	130.06
3330	-5.5178	-1.6975e-002	0.	132.27
3331	-5.5666	0.46449	0.	129.43
3332	-5.7462	-2.9705	0.	127.54
3333	-5.4902	-3.2138	0.	128.62
3334	-5.7846	-1.9873	0.	127.26
3335	-5.5565	-1.7381	0.	128.66
3336	-5.6144	-5.9548	0.	128.02
3337	-5.8694	-5.7129	0.	127.28
3338	-5.3717	-5.8689	0.	127.84
3339	-2.5189	-4.2307	0.	129.61
3340	-2.2734	-4.471	0.	128.11
3341	-3.2542	-2.9884	0.	130.88
3342	-3.7536	-2.9816	0.	130.27
3343	-3.5046	-3.2344	0.	130.81
3344	1.2609	2.5107	0.	129.64
3345	1.5135	2.7598	0.	129.34
3346	1.4828	4.1451	0.	130.
3347	1.2308	3.9277	0.	129.24
3348	1.251	4.3668	0.	130.81
3349	-3.2125	-0.9962	0.	133.32
3350	-3.4426	-0.74432	0.	132.79
3351	6.9724	-1.6487	0.	121.28
3352	6.9817	-1.1816	0.	120.38
3353	7.2303	-1.4245	0.	120.31
3354	4.6822	-1.4677	0.	126.58
3355	4.4253	-1.2308	0.	129.22
3356	4.9432	-1.2131	0.	125.67
3357	4.9447	-1.6991	0.	124.78
3358	3.4213	-0.23381	0.	130.07
3359	3.6994	1.258e-002	0.	129.81
3360	3.1937	2.1048e-002	0.	129.36
3361	3.6611	-0.48503	0.	131.14
3362	3.4991	1.2608	0.	129.74
3363	3.254	1.513	0.	130.16
3364	3.7553	1.5083	0.	130.54
3365	3.7437	1.0088	0.	129.46
3366	7.5202	6.7561	0.	126.74
3367	7.7741	6.5089	0.	126.05
3368	7.2832	6.5123	0.	128.95
3369	7.7609	7.002	0.	125.76
3370	7.2635	7.0028	0.	127.3
3371	2.5876	6.7199	0.	130.81
3372	2.7586	6.9771	0.	130.66
3373	2.2223	7.009	0.	129.26
3374	2.8953	6.4958	0.	133.05
3375	2.0423	-6.5085	0.	128.68
3376	-0.83953	-7.3218	0.	127.3
3377	-1.0926	-7.1046	0.	127.49
3378	-1.3115	-7.3859	0.	126.46
3379	-0.17184	-6.1024	0.	125.83
3380	6.8198e-002	-5.8615	0.	121.6
3381	6.0255	-3.0572	0.	122.12
3382	6.2393	-2.812	0.	124.78
3383	5.9857	-2.5882	0.	123.26
3384	6.2895	-3.2808	0.	122.69
3385	5.8148	-3.3146	0.	121.11
3386	6.9618	-2.1109	0.	124.16
3387	-5.3271	4.334	0.	127.05
3388	-5.5258	4.0833	0.	127.59
3389	-5.6012	4.5424	0.	126.63
3390	-0.31293	-4.8831	0.	124.65
3391	-0.53375	-4.6513	0.	127.92
3392	-3.852e-002	-4.6261	0.	123.29
3393	1.1676	-1.2521	0.	120.97
3394	0.82224	-1.3621	0.	115.97
3395	1.1356	-1.5792	0.	121.83
3396	1.1316	-0.95738	0.	122.48
3397	2.96	-2.7688	0.	127.24
3398	2.9072	-3.1962	0.	128.59
3399	2.7934	-3.0211	0.	127.26
3400	2.6971	-2.572	0.	128.26
3401	2.4879	-4.0777	0.	132.13
3402	2.1547	-4.0091	0.	132.9
3403	2.5686	-3.7719	0.	133.17
3404	-2.267	7.2748	0.	129.26
3405	-2.4832	7.4918	0.	128.9
3406	-2.5562	4.9617	0.	130.51
3407	-2.7811	5.2045	0.	128.74
3408	5.5054	2.6705	0.	114.48
3409	5.4895	2.2298	0.	116.65
3410	5.7224	2.5253	0.	117.46
3411	5.2435	2.4854	0.	117.03
3412	6.659	-3.9514	0.	123.83
3413	6.7563	-4.4091	0.	127.62
3414	6.9553	-4.1609	0.	127.33
3415	4.8354	-5.8665	0.	129.09
3416	5.0889	-6.0269	0.	123.13
3417	5.2809	-5.8501	0.	121.46
3418	-4.8074	-6.5121	0.	128.45
3419	-4.5421	-6.7542	0.	129.85
3420	-5.3097	-6.5546	0.	127.62
3421	-5.0453	-6.7732	0.	126.91
3422	-5.0962	-6.2517	0.	127.82
3423	-7.107	-0.72338	0.	110.86
3424	-6.8935	-0.47964	0.	114.84
3425	-7.1619	-0.20542	0.	106.18
3426	-3.0031	-2.7429	0.	131.
3427	-2.7514	-2.4953	0.	132.18
3428	6.7325	-0.94578	0.	119.
3429	6.4839	-0.70897	0.	116.44
3430	0.76828	-6.6138	0.	109.17
3431	0.4934	-6.3586	0.	115.87
3432	-5.9185	3.0901	0.	133.4
3433	-5.7368	3.4736	0.	132.57
3434	-5.9197	3.4158	0.	133.66
3435	-5.5699	3.2436	0.	132.95
3436	-6.243	3.1102	0.	131.87
3437	-6.0298	2.6344	0.	133.37
3438	-6.3166	2.8368	0.	129.44
3439	1.8062	-3.9256	0.	130.05
3440	1.4959	-3.8057	0.	123.71
3441	-1.9573	5.9086	0.	128.19
3442	-2.232	5.6718	0.	128.4
3443	-2.3781	4.2291	0.	128.84
3444	-2.1593	3.9825	0.	127.21
3445	0.54644	-0.12886	0.	124.09
3446	0.26702	5.9073e-002	0.	125.55
3447	0.86801	-0.36195	0.	123.8
3448	1.0393	-0.62118	0.	122.43
3449	0.52171	-0.53859	0.	123.25
3450	0.30916	-0.41642	0.	126.38
3451	7.964	-2.1799	0.	113.54
3452	7.6987	-2.39	0.	114.46
3453	8.216	-2.469	0.	114.94
3454	7.9101	-2.6421	0.	108.37
3455	7.9837	-1.7006	0.	118.22
3456	8.2331	-1.965	0.	118.36
3457	7.9916	-1.2141	0.	121.07
3458	8.2406	-1.4695	0.	120.92
3459	7.7359	-1.4453	0.	119.98
3460	0.49534	1.2833	0.	125.42
3461	0.24382	1.0341	0.	124.6
3462	0.24728	1.5228	0.	125.07
3463	0.49962	1.7707	0.	126.69
3464	-2.4638	2.7456	0.	126.57
3465	-2.2114	2.9928	0.	125.45
3466	-2.4769	2.2481	0.	127.67
3467	-2.2261	2.4961	0.	125.88
3468	7.8228	-7.5182	0.	124.39
3469	7.5782	-7.7744	0.	126.17
3470	7.3513	-7.5308	0.	126.15
3471	6.0921	-4.7297	0.	122.29
3472	5.8994	-5.005	0.	119.05
3473	3.1197	-7.7259	0.	127.03
3474	2.9213	-7.4653	0.	126.82
3475	3.4195	-7.4805	0.	127.5
3476	-3.5131	-7.7469	0.	129.74
3477	-3.7667	-7.4986	0.	130.81
3478	-0.74267	-8.1702	0.	126.54
3479	-0.52644	-7.9618	0.	125.59
3480	-0.4977	-8.3942	0.	127.95
3481	-0.26464	-8.1754	0.	128.72
3482	-1.2265	-8.071	0.	126.23
3483	-0.99043	-8.3731	0.	127.18
3484	-1.7369	-7.9804	0.	126.79
3485	-1.4859	-8.248	0.	127.06
3486	-1.5099	-7.7047	0.	126.45
3487	-2.2548	-7.9844	0.	127.7
3488	-2.0004	-8.238	0.	127.75
3489	-2.7592	-7.9904	0.	128.44
3490	-2.518	-7.7337	0.	128.15
3491	-2.5057	-8.2404	0.	128.4
3492	-3.259	-7.9954	0.	129.1
3493	-3.0067	-8.2445	0.	128.96
3494	-3.7574	-7.9994	0.	129.99
3495	-3.5059	-8.2481	0.	129.49
3496	8.0055	7.2496	0.	125.06
3497	8.2516	7.4983	0.	124.88
3498	7.9994	7.7464	0.	124.99
3499	8.0148	6.7548	0.	125.07
3500	8.2583	7.002	0.	124.98
3501	8.0254	6.2594	0.	124.23
3502	8.2666	6.506	0.	124.69
3503	8.035	5.7616	0.	122.03
3504	8.2754	6.0088	0.	123.39
3505	8.0397	5.26	0.	118.71
3506	8.2818	5.509	0.	120.97
3507	8.2819	5.0061	0.	117.99
3508	8.0332	4.7559	0.	116.03
3509	3.0129	7.2474	0.	130.1
3510	2.9977	7.7473	0.	129.02
3511	3.2517	7.4994	0.	130.46
3512	-8.0101	6.8108	0.	120.2
3513	-7.9894	6.3122	0.	118.43
3514	-8.2504	6.5494	0.	121.6
3515	-8.0141	7.2994	0.	121.54
3516	-8.2595	7.0426	0.	122.08
3517	-8.013	7.7873	0.	122.61
3518	-8.261	7.5337	0.	122.79
3519	-7.7647	8.041	0.	122.99
3520	-8.2595	8.0242	0.	123.46
3521	-8.0105	8.277	0.	123.43
3522	-7.2712	8.0595	0.	123.13
3523	-7.5152	8.2924	0.	123.3
3524	-6.7771	8.0744	0.	123.75
3525	-7.0208	8.3081	0.	123.67
3526	-6.2804	8.0804	0.	124.55
3527	-6.5242	8.3176	0.	124.32
3528	-5.7813	8.0738	0.	125.28
3529	-6.0252	8.3172	0.	125.
3530	-5.2809	8.0557	0.	125.83
3531	-5.5247	8.3059	0.	125.58
3532	-4.7786	8.0335	0.	126.22
3533	-5.023	8.2869	0.	126.01
3534	-4.2731	8.0154	0.	126.57
3535	-4.5203	8.2697	0.	126.36
3536	-3.7631	8.0061	0.	127.02
3537	-4.0149	8.2586	0.	126.73
3538	-3.2516	8.0156	0.	127.73
3539	-3.5067	8.2571	0.	127.25
3540	-2.747	8.0662	0.	128.66
3541	-3.0007	8.2786	0.	127.99
3542	-2.2474	8.1209	0.	129.36
3543	-2.5018	8.3361	0.	128.67
3544	-2.4824	7.8996	0.	129.24
3545	-0.3258	7.9973	0.	119.8
3546	-0.74839	7.8804	0.	113.52
3547	-0.54668	8.3093	0.	119.26
3548	-0.80264	8.1107	0.	118.67
3549	0.18516	7.9724	0.	124.71
3550	-5.8411e-002	8.2033	0.	122.77
3551	-0.26025	7.6895	0.	120.38
3552	0.70323	8.0289	0.	128.
3553	0.45919	8.266	0.	126.66
3554	1.2105	8.0312	0.	128.86
3555	0.96201	8.2746	0.	128.25
3556	0.94112	7.7957	0.	129.73
3557	1.725	8.0233	0.	128.69
3558	1.4734	8.2737	0.	128.51
3559	1.4624	7.7937	0.	129.2
3560	2.2361	8.0083	0.	128.42
3561	1.9846	8.2622	0.	128.32
3562	1.9786	7.7731	0.	128.57
3563	2.7431	7.9994	0.	128.89
3564	2.4915	8.251	0.	128.49
3565	3.3366	-7.9793	0.	128.16
3566	3.6365	-7.7338	0.	128.61
3567	3.5635	-8.2349	0.	129.63
3568	3.8592	-7.9913	0.	130.68
3569	2.8122	-7.9597	0.	127.1
3570	3.0302	-8.2217	0.	128.23
3571	-5.5884	-6.3692	0.	128.
3572	-5.8086	-6.5972	0.	129.92
3573	-5.5444	-6.8184	0.	125.77
3574	1.1524	5.2784	0.	132.79
3575	1.3549	5.501	0.	131.1
3576	3.1662	5.7657	0.	133.76
3577	3.4393	5.5034	0.	133.54
3578	3.1529	5.2734	0.	131.6
3579	4.2422	3.4845	0.	127.63
3580	4.4824	3.6874	0.	122.7
3581	4.6761	3.543	0.	119.55
3582	3.2866	3.5286	0.	132.8
3583	3.0478	3.7869	0.	130.82
3584	4.8997	-8.0944	0.	124.88
3585	5.0813	-8.3709	0.	121.21
3586	5.3757	-8.2514	0.	116.38
3587	5.1877	-7.9059	0.	118.89
3588	-8.1114	-0.26433	0.	120.27
3589	-8.1641	0.18061	0.	125.93
3590	-7.9356	4.6395e-002	0.	115.84
3591	-8.371	-2.3105e-002	0.	127.09
3592	-8.0595	-0.74457	0.	117.25
3593	-8.3155	-0.50075	0.	122.2
3594	-5.8366	0.70426	0.	128.17
3595	-6.112	0.94858	0.	131.57
3596	-5.9414	-0.50789	0.	131.78
3597	-5.7274	-0.26375	0.	133.12
3598	5.4973	-5.6081	0.	117.32
3599	5.7117	-5.2923	0.	117.6
3600	6.3651	-4.9302	0.	125.16
3601	6.5634	-4.6673	0.	126.83
3602	7.284	-6.0313	0.	126.38
3603	7.5483	-6.2565	0.	123.25
3604	7.4686	-5.7698	0.	125.17
3605	7.1173	-7.2888	0.	125.7
3606	6.8877	-7.0525	0.	128.39
3607	7.1053	-6.792	0.	124.37
3608	8.0572	-6.7369	0.	121.91
3609	8.2966	-6.4842	0.	121.98
3610	7.8123	-6.4901	0.	122.05
3611	8.0603	-7.2564	0.	123.08
3612	8.301	-7.0004	0.	122.53
3613	8.0562	-7.7648	0.	124.92
3614	8.3006	-7.5099	0.	123.96
3615	7.8116	-8.021	0.	126.71
3616	8.2941	-8.014	0.	125.58
3617	8.0453	-8.2664	0.	126.4
3618	7.332	-8.0286	0.	129.13
3619	7.5601	-8.2728	0.	127.72
3620	-7.7233	-4.0412	0.	110.48
3621	-8.2333	-4.0633	0.	119.
3622	-7.9674	-4.3651	0.	117.23
3623	-7.9841	-3.8029	0.	114.21
3624	-6.3632	-5.0376	0.	125.84
3625	-6.5497	-5.2787	0.	125.33
3626	-6.2341	-5.4593	0.	125.42
3627	-6.0225	-2.2366	0.	125.96
3628	-6.0031	-2.727	0.	126.19
3629	-6.259	-2.4857	0.	125.75
3630	-5.9338	-4.6114	0.	128.58
3631	-6.1559	-4.8298	0.	127.69
3632	-5.9522	-4.1571	0.	129.74
3633	-6.184	-4.3861	0.	129.44
3634	-6.2106	-3.9275	0.	129.18
3635	-5.9718	-3.6888	0.	129.58
3636	-6.0952	-1.2494	0.	128.38
3637	-6.1492	-0.75598	0.	129.59
3638	-6.3629	-0.99731	0.	125.13
3639	-1.753	-3.9709	0.	122.96
3640	-1.2176	-3.9574	0.	124.84
3641	-1.5093	-3.7235	0.	116.64
3642	-3.0099	-3.7386	0.	131.67
3643	-2.7631	-3.9858	0.	130.69
3644	0.99608	3.694	0.	128.23
3645	1.0036	3.2273	0.	128.07
3646	0.74943	3.4678	0.	128.06
3647	0.75335	2.0167	0.	128.23
3648	1.0066	2.2624	0.	129.34
3649	-0.64692	4.8581	0.	107.85
3650	-0.18593	4.8185	0.	114.08
3651	-0.43934	4.6174	0.	106.45
3652	1.0074	4.5989	0.	131.67
3653	0.76495	4.8231	0.	131.05
3654	0.97499	5.0504	0.	132.92
3655	-1.9348	3.734	0.	125.48
3656	-1.711	3.4878	0.	125.04
3657	-1.9586	3.2391	0.	124.46
3658	-2.9797	-1.2488	0.	133.08
3659	-2.7406	-1.4991	0.	133.17
3660	-2.961	0.74923	0.	129.8
3661	-2.9551	0.2491	0.	131.01
3662	-2.718	0.49948	0.	130.19
3663	-3.1951	0.4976	0.	129.83
3664	-2.7306	2.0008	0.	129.28
3665	-2.9772	1.7521	0.	130.54
3666	6.6683	5.2942	0.	131.15
3667	6.4775	5.0573	0.	132.63
3668	6.6782	4.7982	0.	132.57
3669	7.7428	-0.96306	0.	122.29
3670	7.9964	-0.7253	0.	122.61
3671	8.2455	-0.97684	0.	122.72
3672	5.2026	-0.96421	0.	123.37
3673	5.467	-0.71918	0.	119.07
3674	3.9138	-0.73783	0.	131.4
3675	4.1654	-0.98521	0.	130.81
3676	4.0095	1.7561	0.	130.46
3677	4.2617	2.0055	0.	128.64
3678	6.9983	7.7424	0.	126.32
3679	6.7514	7.4956	0.	127.31
3680	7.008	7.2489	0.	126.99
3681	6.8346	6.0269	0.	133.04
3682	7.0542	6.2696	0.	130.67
3683	4.3149	6.035	0.	123.12
3684	4.3672	5.8302	0.	123.83
3685	4.5414	6.2546	0.	117.83
3686	4.6865	5.7561	0.	116.24
3687	3.1317	6.26	0.	134.32
3688	3.3875	6.0168	0.	133.98
3689	1.7299	-6.6584	0.	124.75
3690	1.4204	-6.8148	0.	115.72
3691	2.7163	-7.2156	0.	128.32
3692	2.5547	-6.9398	0.	131.39
3693	-0.57535	-7.5237	0.	126.27
3694	-0.31288	-7.749	0.	129.83
3695	-0.41402	-6.3505	0.	128.88
3696	-0.64381	-6.5942	0.	130.63
3697	5.6228	3.0717	0.	109.78
3698	5.7489	2.7334	0.	116.28
3699	6.5675	-3.4967	0.	122.85
3700	6.8426	-3.7118	0.	128.6
3701	-5.9189	4.7637	0.	127.64
3702	-6.2512	4.8964	0.	133.44
3703	-5.8737	3.607	0.	132.89
3704	-5.7209	3.8662	0.	129.53
3705	-8.3717	2.0019	0.	125.14
3706	-8.1692	1.7502	0.	125.31
3707	-7.9805	1.927	0.	117.4
3708	-8.081	2.2263	0.	119.16
3709	0.24723	-4.3614	0.	119.86
3710	0.49973	-4.0835	0.	113.87
3711	-0.75852	-4.4191	0.	128.6
3712	-0.97399	-4.1894	0.	128.09
3713	2.3708	-2.3993	0.	130.81
3714	2.0493	-2.2994	0.	137.92
3715	2.632	-3.4873	0.	131.91
3716	2.7091	-3.2062	0.	128.53
3717	7.245	7.9908	0.	126.24
3718	7.4939	8.2411	0.	125.85
3719	7.7461	7.9934	0.	125.3
3720	-2.0684	7.0392	0.	128.72
3721	-1.8609	6.8095	0.	128.17
3722	-1.7515	8.1385	0.	127.8
3723	-2.0019	8.3637	0.	128.59
3724	-1.9947	7.9168	0.	130.51
3725	-2.3328	4.7169	0.	130.88
3726	-2.1162	4.4746	0.	129.98
3727	-2.0612	4.9634	0.	132.81
3728	-2.2818	5.1986	0.	130.76
3729	-1.5077	8.3687	0.	125.6
3730	-1.4974	7.9156	0.	129.35
3731	-1.2713	8.1428	0.	123.03
3732	-1.7975	7.2531	0.	132.14
3733	-2.0136	7.4786	0.	130.72
3734	6.9937	8.2405	0.	127.47
3735	6.7463	7.9925	0.	128.24
3736	2.2354	-3.7033	0.	133.87
3737	1.9327	-3.6054	0.	137.49
3738	2.3357	-3.4001	0.	133.63
3739	2.5304	-2.8243	0.	128.26
3740	2.4128	-3.1191	0.	130.28
3741	2.2608	-2.7077	0.	126.7
3742	0.69303	-0.79782	0.	121.84
3743	0.78618	-1.0674	0.	117.63
3744	0.25736	-0.61485	0.	125.97
3745	0.36125	-0.94503	0.	124.09
3746	-0.25934	-4.3943	0.	126.56
3747	-0.4772	-4.1692	0.	133.75
3748	7.3588e-003	-4.1349	0.	124.88
3749	-6.2442	3.4358	0.	132.09
3750	-6.6403	3.2275	0.	125.15
3751	-6.5059	3.5438	0.	132.88
3752	-6.1152	3.7464	0.	133.64
3753	-5.7999	4.2917	0.	127.17
3754	-5.9625	4.0056	0.	130.34
3755	-6.0736	4.4436	0.	123.94
3756	7.2022	-2.3521	0.	122.39
3757	7.4311	-2.5878	0.	120.02
3758	6.9534	-2.5686	0.	131.57
3759	6.7114	-2.3408	0.	126.06
3760	6.5033	-3.0357	0.	125.33
3761	6.7153	-2.7994	0.	131.65
3762	6.4732	-2.5716	0.	126.17
3763	6.7519	-3.2612	0.	123.92
3764	-0.17452	-6.5859	0.	132.69
3765	5.1589e-002	-6.3511	0.	123.41
3766	-0.62084	-7.0676	0.	129.63
3767	-0.40432	-6.8295	0.	134.37
3768	-0.87395	-6.8504	0.	129.84
3769	-0.37694	-7.299	0.	128.02
3770	2.6138	-7.6991	0.	126.86
3771	2.4734	-8.1945	0.	128.29
3772	2.305	-7.9106	0.	124.44
3773	2.4498	-7.4095	0.	130.09
3774	1.8707	-6.9699	0.	133.47
3775	2.1517	-6.8191	0.	130.88
3776	3.0663	6.7531	0.	132.89
3777	3.2745	7.0034	0.	133.14
3778	3.3379	6.5131	0.	135.38
3779	3.844	6.0497	0.	130.65
3780	3.6605	5.7546	0.	133.75
3781	3.5936	6.2699	0.	135.02
3782	4.1223	5.8733	0.	128.49
3783	4.0573	6.303	0.	127.04
3784	6.5709	6.2713	0.	134.93
3785	6.3659	6.0245	0.	134.23
3786	6.6271	5.7848	0.	133.77
3787	4.2461	1.0043	0.	130.66
3788	3.9863	0.75714	0.	128.99
3789	3.9998	1.2563	0.	130.25
3790	4.1848	-0.48741	0.	132.66
3791	3.9392	-0.23864	0.	130.87
3792	4.6863	-0.97615	0.	128.3
3793	4.4365	-0.73479	0.	132.09
3794	4.9545	-0.72727	0.	127.22
3795	7.2384	-0.95142	0.	121.3
3796	6.9895	-0.71018	0.	120.83
3797	7.4937	-0.71512	0.	124.1
3798	7.487	-1.1943	0.	121.23
3799	7.7496	1.2264e-002	0.	122.68
3800	7.999	-0.23433	0.	122.04
3801	8.	0.2593	0.	119.62
3802	8.25	9.761e-003	0.	121.46
3803	-2.2342	1.9985	0.	125.74
3804	-1.9834	2.2465	0.	123.95
3805	-1.9883	1.7486	0.	122.75
3806	-1.7394	1.9982	0.	120.68
3807	-2.482	1.7497	0.	130.01
3808	-2.7232	1.0002	0.	130.37
3809	-2.9697	1.2507	0.	130.5
3810	-3.2073	0.99821	0.	130.
3811	-2.7151	-7.1581e-004	0.	132.64
3812	-3.1899	-3.5206e-004	0.	132.08
3813	-2.9555	-0.2503	0.	133.71
3814	-2.7286	-1.0002	0.	133.9
3815	-2.9646	-0.74972	0.	134.44
3816	-4.2391e-003	1.2736	0.	124.25
3817	-0.25414	1.0209	0.	124.75
3818	-3.5434e-003	0.78128	0.	124.11
3819	-0.25239	1.5149	0.	124.2
3820	-1.4597e-003	1.7654	0.	123.35
3821	-0.74822	2.0043	0.	117.39
3822	-0.50072	1.7587	0.	121.13
3823	-0.49887	2.2549	0.	113.9
3824	-0.24978	2.0091	0.	120.2
3825	2.9746e-002	-0.22849	0.	127.84
3826	-0.23937	2.7124e-002	0.	127.74
3827	6.542e-003	0.28517	0.	125.26
3828	-0.22604	-0.48405	0.	132.04
3829	-4.6232e-002	-0.74342	0.	130.99
3830	-0.90329	4.671	0.	109.67
3831	-1.1024	4.9336	0.	114.94
3832	-0.81589	5.1174	0.	106.64
3833	-1.6856	3.9814	0.	126.5
3834	-1.8974	4.2281	0.	128.35
3835	-1.7338	2.4957	0.	124.54
3836	-1.9737	2.7433	0.	124.77
3837	-0.99556	2.251	0.	117.44
3838	-0.99794	1.7522	0.	117.65
3839	-1.2442	2.0002	0.	117.56
3840	0.99895	4.1495	0.	130.04
3841	0.74636	3.9311	0.	128.94
3842	0.76115	4.3795	0.	131.06
3843	0.28522	4.8205	0.	124.7
3844	0.5071	5.0478	0.	129.74
3845	0.5187	4.6037	0.	130.43
3846	3.9161e-002	4.61	0.	119.93
3847	5.368e-002	5.0272	0.	120.16
3848	0.50246	2.2595	0.	128.95
3849	0.25087	2.0134	0.	124.97
3850	1.0077	2.7487	0.	129.2
3851	0.7557	2.5053	0.	130.06
3852	0.75457	2.9907	0.	128.88
3853	1.2602	2.9978	0.	128.9
3854	-3.0058	-3.2406	0.	131.57
3855	-2.7539	-2.9926	0.	131.39
3856	-2.7581	-3.4893	0.	132.27
3857	-3.2562	-3.4866	0.	131.5
3858	-2.2621	-3.9802	0.	127.27
3859	-2.5113	-3.7365	0.	131.3
3860	-2.0109	-3.7321	0.	124.21
3861	-2.0166	-4.2205	0.	125.77
3862	-5.8585	-6.1534	0.	129.75
3863	-5.3749	-6.0662	0.	128.19
3864	-0.82849	-3.698	0.	131.59
3865	-0.69267	-3.9395	0.	133.21
3866	-1.0117	-3.7029	0.	125.2
3867	-6.0526	-1.7424	0.	127.38
3868	-6.28	-1.9898	0.	126.4
3869	-6.3157	-1.4938	0.	127.1
3870	-5.8245	-1.4932	0.	128.78
3871	-7.0651	-1.2362	0.	113.57
3872	-6.8445	-0.98686	0.	117.06
3873	-7.3229	-0.98029	0.	111.34
3874	-6.4425	-4.1564	0.	128.87
3875	-6.7096	-3.9417	0.	122.79
3876	-6.4699	-3.6937	0.	128.52
3877	-5.9885	-3.2107	0.	128.14
3878	-6.2311	-3.455	0.	128.92
3879	-5.7325	-3.4541	0.	129.23
3880	-6.2464	-2.9736	0.	126.9
3881	-4.2553	-8.0023	0.	131.58
3882	-4.0046	-8.2509	0.	130.07
3883	-4.011	-7.7511	0.	131.06
3884	-4.5217	-7.2566	0.	132.15
3885	-4.7799	-7.0152	0.	128.32
3886	-4.2809	-7.0027	0.	130.82
3887	-6.3448	-6.1678	0.	135.11
3888	-6.1135	-5.9115	0.	129.01
3889	-6.0786	-6.3814	0.	131.64
3890	-6.4061	-4.6044	0.	128.53
3891	-6.6119	-4.8382	0.	128.82
3892	-6.6703	-4.3963	0.	128.5
3893	-7.2145	-3.9803	0.	112.65
3894	-6.9375	-4.1816	0.	122.51
3895	-6.9723	-3.7164	0.	117.46
3896	-7.4452	-4.2423	0.	102.14
3897	-7.4785	-3.7559	0.	106.51
3898	7.1052	-7.7849	0.	129.07
3899	7.0755	-8.277	0.	129.87
3900	6.8554	-8.0332	0.	133.95
3901	6.8908	-7.5466	0.	129.37
3902	6.9986	-5.8187	0.	130.78
3903	6.8104	-6.0721	0.	131.64
3904	7.0677	-6.3	0.	126.72
3905	6.9143	-5.3453	0.	133.03
3906	6.7224	-5.6047	0.	135.11
3907	7.1831	-5.5571	0.	129.65
3908	6.6399	-5.1374	0.	129.49
3909	6.448	-5.3969	0.	131.64
3910	6.1723	-5.2055	0.	121.96
3911	-6.4173	-0.50179	0.	125.52
3912	-6.6759	-0.25219	0.	120.46
3913	-6.6311	-0.74311	0.	121.03
3914	-6.1977	-0.2666	0.	135.09
3915	-5.7761	0.22154	0.	131.62
3916	-5.9838	-2.2449e-002	0.	136.41
3917	-6.0302	0.46319	0.	129.29
3918	-6.0012	2.1305	0.	132.15
3919	-6.2465	2.3636	0.	132.48
3920	-8.2858	-0.99716	0.	120.61
3921	-8.0316	-1.2456	0.	116.89
3922	-7.8026	-0.98609	0.	113.31
3923	-8.7434	-4.0386	0.	126.86
3924	-8.4901	-3.7912	0.	125.8
3925	-8.4978	-4.3025	0.	125.8
3926	-8.5418	-0.75334	0.	125.53
3927	-8.7739	-1.0014	0.	126.6
3928	-8.5218	-1.2512	0.	125.82
3929	-8.7931	-0.50394	0.	128.06
3930	-8.575	-0.25953	0.	129.05
3931	-8.6018	1.775	0.	130.
3932	-8.8386	1.5272	0.	130.08
3933	-8.3992	1.5233	0.	129.98
3934	-8.5786	1.2933	0.	128.22
3935	-8.5507	2.2476	0.	127.15
3936	-8.8167	2.0095	0.	129.45
3937	-8.7649	2.4926	0.	128.19
3938	-8.4914	2.7225	0.	124.99
3939	-8.26	2.4719	0.	121.14
3940	-7.0975	2.9941	0.	113.33
3941	-6.9281	3.3679	0.	117.12
3942	-6.7139	2.9541	0.	122.69
3943	4.6034	-5.674	0.	131.7
3944	4.6546	-6.1539	0.	134.44
3945	4.3898	-5.9385	0.	133.76
3946	4.6788	-7.769	0.	131.92
3947	4.5868	-8.2851	0.	128.4
3948	4.377	-8.0178	0.	130.56
3949	3.709	-6.7328	0.	128.23
3950	3.955	-6.4736	0.	130.45
3951	3.6964	-6.2384	0.	130.61
3952	3.694	-7.2321	0.	127.71
3953	3.9826	-6.9746	0.	126.65
3954	3.9358	-7.4833	0.	130.33
3955	3.777	3.5117	0.	132.35
3956	3.5558	3.7763	0.	133.34
3957	4.0418	3.7572	0.	133.25
3958	3.9388	5.5782	0.	131.56
3959	4.2911	5.468	0.	127.14
3960	3.6481	5.2428	0.	132.82
3961	3.8576	5.2737	0.	134.58
3962	3.0783	4.2868	0.	129.25
3963	3.317	4.0345	0.	131.41
3964	3.3609	4.5306	0.	128.02
3965	2.8418	4.5474	0.	128.94
3966	3.114	4.7812	0.	129.39
3967	6.8382	-4.8746	0.	131.1
3968	7.0531	-4.6161	0.	131.39
3969	7.1033	-5.0836	0.	131.56
3970	7.9695	-5.3282	0.	118.39
3971	7.7894	-5.2404	0.	120.27
3972	7.619	-5.4961	0.	123.54
3973	-7.0238	5.5673	0.	122.67
3974	-6.8286	5.4359	0.	124.75
3975	-6.9456	5.9022	0.	123.32
3976	0.52122	6.8775	0.	133.19
3977	0.35896	6.9692	0.	131.75
3978	0.74612	7.0932	0.	132.31
3979	0.71715	5.2751	0.	131.6
3980	0.46339	5.5079	0.	131.92
3981	0.27555	5.2545	0.	125.21
3982	0.91433	5.5112	0.	133.18
3983	1.3815	6.4087	0.	127.85
3984	1.1725	6.6445	0.	128.26
3985	1.4263	6.8665	0.	128.54
3986	1.3515	5.9512	0.	129.05
3987	1.1169	5.7338	0.	131.54
3988	1.1103	6.1921	0.	127.34
3989	8.4851	-2.2541	0.	119.94
3990	8.5786	-2.756	0.	123.26
3991	8.3878	-2.7377	0.	114.66
3992	8.7484	-2.5002	0.	125.11
3993	8.7416	-1.988	0.	123.58
3994	8.49	-1.734	0.	121.12
3995	8.5004	0.75337	0.	119.89
3996	8.7504	0.50334	0.	122.61
3997	8.2503	0.50561	0.	119.2
3998	8.5003	0.25607	0.	121.05
3999	-6.2696	1.9033	0.	130.48
4000	-5.7417	1.879	0.	131.09
4001	-6.7099	2.4186	0.	124.53
4002	-6.5148	2.1364	0.	130.72
4003	-6.5333	2.5661	0.	128.57
4004	2.1038	-8.422	0.	133.02
4005	2.4198	-8.7036	0.	130.71
4006	2.6914	-8.4564	0.	129.48
4007	3.5115	-8.7363	0.	130.25
4008	3.2571	-8.4773	0.	129.72
4009	3.7861	-8.4934	0.	129.84
4010	4.9808	-8.8141	0.	122.05
4011	5.2228	-8.7411	0.	119.71
4012	4.7685	-8.5616	0.	124.72
4013	5.5172	-8.6215	0.	114.93
4014	5.6316	-8.1027	0.	111.5
4015	5.8231	-8.4185	0.	113.53
4016	6.8103	-8.5174	0.	126.39
4017	6.5419	-8.7563	0.	122.69
4018	6.5902	-8.2735	0.	130.62
4019	6.3109	-8.4991	0.	119.41
4020	7.3036	-8.5213	0.	128.49
4021	7.0432	-8.7666	0.	127.26
4022	7.5385	-8.7674	0.	127.42
4023	7.7938	-8.5182	0.	127.43
4024	3.247	7.9992	0.	130.46
4025	2.9956	8.2487	0.	129.77
4026	8.7503	1.0019	0.	122.61
4027	8.2502	1.0031	0.	118.63
4028	8.5002	1.2518	0.	118.71
4029	5.7477	2.0137	0.	118.66
4030	5.5011	1.7493	0.	117.49
4031	5.2521	1.9986	0.	119.59
4032	8.7685	5.0029	0.	122.06
4033	8.5192	4.7527	0.	117.49
4034	8.524	5.255	0.	120.3
4035	-0.74546	-8.5971	0.	128.61
4036	-0.50509	-8.8362	0.	129.82
4037	-0.21707	-8.6018	0.	128.27
4038	-1.006	-8.8154	0.	129.1
4039	-1.2499	-8.55	0.	128.02
4040	-7.5104	8.7776	0.	123.99
4041	-7.2648	8.541	0.	123.84
4042	-7.761	8.5284	0.	123.75
4043	-6.5149	8.7946	0.	124.65
4044	-6.2691	8.5544	0.	124.77
4045	-6.7679	8.5514	0.	124.23
4046	-4.7647	8.5231	0.	126.15
4047	-5.0117	8.7739	0.	125.97
4048	-5.2669	8.5372	0.	125.77
4049	-4.51	8.7636	0.	126.3
4050	-4.2621	8.5129	0.	126.52
4051	-3.2557	8.52	0.	127.5
4052	-3.506	8.76	0.	127.06
4053	-3.7586	8.5097	0.	126.96
4054	-2.7554	8.5485	0.	127.99
4055	-3.0052	8.7761	0.	127.49
4056	-2.5062	8.8042	0.	127.69
4057	-2.2563	8.5789	0.	127.89
4058	-1.7582	8.5939	0.	126.39
4059	-1.2638	8.5919	0.	123.58
4060	-1.5081	8.8279	0.	125.17
4061	0.21562	8.4969	0.	124.72
4062	-2.3289e-002	8.7464	0.	123.87
4063	-0.27929	8.5153	0.	122.2
4064	0.71796	8.5117	0.	126.91
4065	0.47446	8.7551	0.	126.03
4066	0.97791	8.7633	0.	127.36
4067	1.2249	8.5171	0.	127.9
4068	2.24	8.5048	0.	128.39
4069	1.99	8.7563	0.	127.98
4070	1.733	8.5125	0.	128.13
4071	2.4938	8.7511	0.	128.44
4072	2.744	8.5002	0.	129.38
4073	6.9927	8.7416	0.	127.6
4074	7.2426	8.4908	0.	127.09
4075	6.7435	8.4921	0.	129.6
4076	8.2447	8.4951	0.	125.12
4077	7.9937	8.7442	0.	125.33
4078	7.7435	8.4927	0.	125.72
4079	7.9957	8.2449	0.	125.16
4080	8.4953	8.7465	0.	125.01
4081	8.4966	8.2468	0.	124.89
4082	8.7465	8.4973	0.	124.89
4083	8.5142	-5.7539	0.	122.4
4084	8.2954	-5.3491	0.	119.22
4085	8.747	-5.503	0.	124.26
4086	8.5507	-5.2438	0.	124.09
4087	8.5445	-6.2509	0.	122.4
4088	8.7871	-6.0044	0.	123.5
4089	8.5403	-6.7477	0.	122.59
4090	8.7827	-6.4982	0.	123.12
4091	8.5412	-7.2539	0.	123.41
4092	8.7839	-7.0015	0.	123.38
4093	8.5385	-7.7592	0.	124.61
4094	8.7832	-7.5061	0.	124.18
4095	8.532	-8.2612	0.	125.73
4096	8.7794	-8.009	0.	125.21
4097	8.5231	-8.7603	0.	126.37
4098	8.773	-8.5093	0.	126.01
4099	8.2832	-8.5136	0.	126.55
4100	0.66058	5.7441	0.	133.44
4101	0.87565	5.9747	0.	129.8
4102	0.72698	6.662	0.	130.89
4103	0.95187	6.8776	0.	129.98
4104	0.9013	6.4278	0.	127.68
4105	-8.221	6.0437	0.	122.14
4106	-8.7255	6.0239	0.	127.87
4107	-8.4552	5.7808	0.	128.65
4108	-8.482	6.281	0.	125.3
4109	-7.7474	6.1142	0.	115.76
4110	-7.4739	5.9762	0.	115.26
4111	-7.2822	6.1463	0.	117.91
4112	8.1847	-5.001	0.	117.96
4113	7.9321	-5.1094	0.	117.86
4114	7.3182	-4.8251	0.	131.77
4115	7.5425	-5.0399	0.	124.94
4116	7.372	-5.2955	0.	128.13
4117	3.8026	5.0286	0.	133.43
4118	3.6085	4.7622	0.	129.51
4119	3.3617	5.0128	0.	130.95
4120	3.8206	4.0218	0.	134.19
4121	3.5995	4.2783	0.	130.12
4122	-8.5625	-5.7739	0.	122.82
4123	-8.7924	-6.018	0.	127.62
4124	-8.539	-6.2668	0.	123.45
4125	-8.3097	-6.0268	0.	122.75
4126	-8.5798	-5.2836	0.	122.73
4127	-8.8133	-5.0313	0.	126.81
4128	-8.3954	-5.0493	0.	125.46
4129	-8.5464	-4.7974	0.	127.49
4130	-8.8097	-5.5236	0.	120.8
4131	4.4603	-7.4919	0.	133.51
4132	4.2244	-7.2259	0.	129.22
4133	4.1586	-7.7408	0.	132.32
4134	4.4485	-6.4303	0.	134.02
4135	4.2286	-6.7154	0.	128.75
4136	4.1836	-6.215	0.	133.39
4137	-7.1394	2.6682	0.	111.93
4138	-6.7557	2.6282	0.	121.38
4139	-7.4498	2.5828	0.	107.95
4140	-7.3981	3.145	0.	108.09
4141	-7.639	2.89	0.	109.22
4142	1.6926	-9.0371	0.	125.86
4143	1.3935	-8.895	0.	121.24
4144	1.4739	-9.3129	0.	121.65
4145	1.2041	-9.0979	0.	116.04
4146	1.8697	-8.6913	0.	132.91
4147	1.9525	-9.2412	0.	128.39
4148	2.1857	-8.9729	0.	130.53
4149	3.493	-9.2402	0.	130.79
4150	3.2334	-8.9813	0.	130.99
4151	3.7492	-8.9945	0.	129.92
4152	5.2055	-8.9642	0.	119.93
4153	4.977	-9.2702	0.	122.15
4154	4.7285	-9.029	0.	124.24
4155	5.7237	-8.9288	0.	117.32
4156	5.4675	-9.178	0.	118.4
4157	6.2606	-8.9831	0.	119.34
4158	5.9968	-9.2226	0.	117.99
4159	6.0296	-8.7258	0.	116.03
4160	6.5126	-9.2479	0.	121.33
4161	6.7748	-9.0055	0.	123.52
4162	7.5199	-9.2605	0.	126.35
4163	7.2781	-9.0128	0.	126.17
4164	7.7759	-9.0131	0.	126.9
4165	9.0021	-3.7598	0.	132.97
4166	8.7583	-4.2545	0.	135.79
4167	9.2137	-4.0193	0.	135.33
4168	8.9964	-4.2803	0.	137.01
4169	9.2679	-6.002	0.	125.48
4170	9.0199	-5.7535	0.	125.36
4171	9.0253	-6.2518	0.	124.22
4172	8.7652	-9.0076	0.	126.41
4173	8.5136	-9.257	0.	126.58
4174	8.2711	-9.0107	0.	126.73
4175	8.2442	8.9955	0.	125.22
4176	8.4959	9.2474	0.	125.13
4177	8.746	8.9975	0.	124.99
4178	7.9945	9.2456	0.	125.34
4179	7.7433	8.9938	0.	125.7
4180	6.4956	9.2456	0.	126.08
4181	6.7436	8.9934	0.	127.22
4182	6.2452	8.9955	0.	125.79
4183	6.4944	8.7439	0.	129.24
4184	1.7403	9.0066	0.	127.66
4185	1.9945	9.2529	0.	127.76
4186	2.2439	9.0025	0.	128.03
4187	1.2363	9.009	0.	127.26
4188	1.4912	9.2564	0.	127.46
4189	1.4832	8.7629	0.	127.81
4190	0.73441	9.0067	0.	126.48
4191	0.98874	9.2565	0.	126.91
4192	0.23556	9.0046	0.	125.18
4193	0.48878	9.2538	0.	125.97
4194	-8.5448e-003	9.2548	0.	124.78
4195	-0.2612	9.016	0.	123.89
4196	-2.756	9.0318	0.	127.18
4197	-2.5052	9.2806	0.	126.86
4198	-2.2566	9.0481	0.	126.87
4199	-3.2555	9.0161	0.	127.05
4200	-3.0046	9.2671	0.	126.98
4201	-3.5042	9.2579	0.	126.84
4202	-3.7556	9.0086	0.	126.75
4203	-4.7571	9.0144	0.	126.13
4204	-4.5045	9.2581	0.	126.33
4205	-4.2562	9.0089	0.	126.44
4206	-5.0054	9.2635	0.	126.02
4207	-5.2584	9.0225	0.	125.79
4208	-6.2605	9.0333	0.	125.01
4209	-6.0073	9.2739	0.	125.28
4210	-6.0147	8.7931	0.	125.13
4211	-5.7596	9.0295	0.	125.41
4212	-6.7606	9.0318	0.	124.64
4213	-6.5081	9.2755	0.	124.91
4214	-7.2592	9.0251	0.	124.37
4215	-7.0078	9.2719	0.	124.6
4216	-7.0136	8.7885	0.	124.22
4217	-7.5061	9.2655	0.	124.43
4218	-7.757	9.0171	0.	124.29
4219	-9.2519	7.5067	0.	125.81
4220	-9.0031	7.7587	0.	125.
4221	-8.7553	7.517	0.	124.24
4222	-9.0017	7.2619	0.	125.3
4223	-8.9787	5.7725	0.	128.89
4224	-9.2368	6.0141	0.	128.63
4225	-8.9875	6.2675	0.	127.86
4226	-8.9854	5.2818	0.	129.1
4227	-8.7084	5.5294	0.	129.67
4228	-9.2335	5.5198	0.	128.62
4229	-9.0058	4.7964	0.	129.22
4230	-8.7437	5.0429	0.	128.26
4231	-9.2459	5.0276	0.	128.43
4232	-8.7866	4.5433	0.	133.51
4233	-9.2552	4.5364	0.	127.97
4234	-8.954	4.3031	0.	127.49
4235	-8.9678	3.245	0.	135.03
4236	-8.6987	3.4641	0.	132.55
4237	-9.2135	3.5033	0.	134.32
4238	-8.9223	3.7743	0.	131.72
4239	-8.9979	2.7462	0.	131.53
4240	-9.2365	2.9981	0.	132.46
4241	-8.7244	2.9762	0.	128.33
4242	-9.0309	2.2545	0.	130.5
4243	-9.2603	2.502	0.	131.03
4244	-9.0535	1.7617	0.	129.51
4245	-9.2848	2.0072	0.	130.22
4246	-9.0487	1.2646	0.	127.11
4247	-9.293	1.51	0.	128.2
4248	-9.0438	0.7606	0.	127.15
4249	-9.2799	1.0099	0.	125.91
4250	-8.7886	1.0307	0.	125.3
4251	-8.8242	0.49947	0.	134.2
4252	-9.2862	0.50476	0.	128.
4253	-9.0521	0.25158	0.	130.22
4254	-9.0253	-0.752	0.	129.13
4255	-9.2737	-0.50144	0.	129.83
4256	-9.0434	-0.25262	0.	130.77
4257	-9.0138	-1.2525	0.	128.18
4258	-9.2639	-1.0017	0.	128.98
4259	-8.7616	-1.5023	0.	127.4
4260	-9.2567	-1.5024	0.	128.31
4261	-9.0062	-1.754	0.	127.23
4262	-8.9964	-3.2682	0.	127.31
4263	-8.7473	-3.0154	0.	126.33
4264	-9.248	-3.0112	0.	127.02
4265	-8.9987	-2.7617	0.	125.84
4266	-8.9969	-3.7743	0.	128.33
4267	-8.7436	-3.5268	0.	127.27
4268	-9.2468	-3.5158	0.	128.23
4269	-9.0058	-4.2766	0.	128.61
4270	-9.2495	-4.019	0.	128.78
4271	-9.0272	-4.7745	0.	126.81
4272	-9.2605	-4.5185	0.	128.66
4273	-8.7603	-4.5406	0.	127.55
4274	-9.0432	-5.2714	0.	124.65
4275	-9.2797	-5.0164	0.	126.56
4276	-9.0397	-5.7678	0.	125.46
4277	-9.2833	-5.515	0.	126.31
4278	9.0003	0.25293	0.	125.02
4279	9.2502	2.4398e-003	0.	127.16
4280	8.9999	-0.24543	0.	125.43
4281	8.7502	5.6624e-003	0.	123.47
4282	9.0003	0.75186	0.	125.31
4283	9.2503	0.50164	0.	127.5
4284	-8.3905	0.44341	0.	133.63
4285	-8.5689	0.76959	0.	131.77
4286	-8.5974	0.2397	0.	135.48
4287	-6.2379	0.2192	0.	133.8
4288	-6.4563	-1.7003e-002	0.	129.72
4289	6.249	-5.6658	0.	122.32
4290	6.5343	-5.8581	0.	135.56
4291	6.641	-7.7949	0.	133.84
4292	6.3797	-8.0188	0.	122.82
4293	-7.1681	-4.4436	0.	111.92
4294	-6.8761	-4.6301	0.	128.63
4295	-6.5708	-6.3964	0.	138.29
4296	-6.6196	-5.9657	0.	131.51
4297	-6.8396	-6.1853	0.	127.7
4298	0.13355	-9.0161	0.	130.08
4299	0.19479	-8.7799	0.	128.89
4300	0.42597	-9.2055	0.	122.59
4301	-0.29314	-9.0638	0.	130.04
4302	-5.1212e-003	-8.8295	0.	128.43
4303	-3.8852e-002	-9.2915	0.	128.17
4304	-0.76565	-9.0545	0.	130.32
4305	-0.51639	-9.2954	0.	130.29
4306	-1.2591	-9.0327	0.	129.83
4307	-1.0103	-9.2847	0.	130.46
4308	-1.7552	-9.0102	0.	129.6
4309	-1.5065	-9.2645	0.	130.22
4310	-1.503	-8.7673	0.	128.74
4311	-2.2529	-8.9999	0.	129.69
4312	-2.0036	-9.2524	0.	130.13
4313	-2.0017	-8.7484	0.	128.89
4314	-2.752	-8.9978	0.	130.04
4315	-2.5021	-9.2487	0.	130.34
4316	-2.5025	-8.7455	0.	129.26
4317	-3.2514	-8.9986	0.	130.55
4318	-3.0013	-9.2486	0.	130.87
4319	-3.0027	-8.7469	0.	129.7
4320	-3.7511	-8.9998	0.	131.37
4321	-3.5009	-9.2495	0.	131.69
4322	-3.5024	-8.7489	0.	130.2
4323	-4.2508	-9.0004	0.	132.83
4324	-4.0007	-9.2502	0.	132.91
4325	-4.0018	-8.7504	0.	130.73
4326	-6.489	-3.2178	0.	127.66
4327	-6.7326	-3.4683	0.	123.2
4328	-6.5431	-1.7412	0.	126.1
4329	-6.804	-1.4911	0.	120.33
4330	-6.5834	-1.2417	0.	123.86
4331	-8.4944	-3.2741	0.	126.26
4332	-8.2408	-3.5307	0.	121.02
4333	-8.2676	-1.4996	0.	122.09
4334	-8.5092	-1.7527	0.	126.51
4335	-0.67571	-3.211	0.	133.12
4336	-0.90055	-3.4513	0.	128.5
4337	-0.53052	-3.4508	0.	135.07
4338	-2.2601	-3.4884	0.	128.22
4339	-2.5062	-3.2413	0.	132.07
4340	0.50262	2.7474	0.	129.71
4341	0.25227	2.5043	0.	126.16
4342	0.50855	4.1611	0.	129.94
4343	0.27264	4.3932	0.	125.63
4344	-1.241	2.4983	0.	121.13
4345	-1.4897	2.2475	0.	121.36
4346	-1.485	2.7448	0.	124.56
4347	-1.1684	4.4574	0.	119.45
4348	-1.4269	4.2255	0.	126.48
4349	-1.3676	4.72	0.	124.85
4350	-1.6388	4.4723	0.	128.37
4351	-0.5023	1.2623	0.	124.68
4352	-0.75044	1.5066	0.	121.28
4353	-2.4818	-0.75112	0.	135.36
4354	-2.2346	-0.50077	0.	128.34
4355	-2.4774	-0.25104	0.	134.84
4356	-2.7179	-0.50062	0.	135.96
4357	-2.236	1.4999	0.	127.01
4358	-2.482	1.2505	0.	131.1
4359	-2.7285	1.501	0.	131.26
4360	9.0002	1.251	0.	127.19
4361	9.2502	1.001	0.	129.
4362	9.0021	7.2502	0.	124.95
4363	9.2504	7.4997	0.	124.89
4364	8.9996	7.7491	0.	124.85
4365	8.7512	7.4995	0.	124.85
4366	9.0055	6.7517	0.	125.03
4367	9.2528	7.0008	0.	125.17
4368	8.7553	7.0015	0.	124.9
4369	9.009	6.2529	0.	124.94
4370	9.2553	6.5018	0.	125.53
4371	8.7602	6.5035	0.	124.73
4372	9.0125	5.7533	0.	124.74
4373	9.2579	6.0025	0.	125.91
4374	8.7653	6.0048	0.	124.07
4375	9.0139	5.2525	0.	124.78
4376	9.2607	5.5022	0.	126.48
4377	8.7694	5.5046	0.	123.02
4378	9.0104	4.7513	0.	126.16
4379	9.2599	5.0013	0.	127.73
4380	6.2453	2.0254	0.	122.84
4381	5.9977	1.7703	0.	119.95
4382	5.9806	2.3092	0.	119.47
4383	7.4979	-0.23076	0.	125.
4384	7.2448	-0.47388	0.	123.58
4385	7.7473	-0.47735	0.	124.41
4386	7.7498	1.0035	0.	119.9
4387	8.	1.2527	0.	118.43
4388	8.0001	0.75537	0.	117.95
4389	4.4585	-0.24003	0.	132.83
4390	4.7046	-0.4859	0.	130.94
4391	4.5013	1.252	0.	131.79
4392	4.7542	1.5007	0.	128.59
4393	4.2551	1.5039	0.	131.41
4394	4.5073	1.7534	0.	129.62
4395	-6.0189	-7.2981	0.	128.64
4396	-6.2736	-7.0618	0.	131.69
4397	-6.0423	-6.8371	0.	130.74
4398	-5.7782	-7.0582	0.	126.57
4399	-6.5358	-6.8347	0.	135.81
4400	-6.7996	-6.6011	0.	128.47
4401	-6.3046	-6.61	0.	134.93
4402	-9.0261	-6.2623	0.	128.36
4403	-9.2754	-6.0119	0.	129.01
4404	6.5275	6.7584	0.	132.26
4405	6.2888	6.506	0.	128.77
4406	6.7905	6.514	0.	132.62
4407	3.8069	6.5232	0.	131.41
4408	3.546	6.7634	0.	135.55
4409	3.7482	8.4996	0.	130.78
4410	3.498	8.2498	0.	132.38
4411	3.4977	8.7495	0.	131.35
4412	3.2466	8.4993	0.	131.73
4413	2.141	-7.621	0.	127.29
4414	2.0073	-7.2845	0.	135.12
4415	2.2883	-7.1337	0.	133.04
4416	6.8531e-002	-6.8336	0.	127.53
4417	-0.16042	-7.0609	0.	132.46
4418	6.0838	6.2592	0.	128.08
4419	5.9036	5.9864	0.	118.73
4420	6.1839	5.7841	0.	135.18
4421	7.1823	-2.8043	0.	128.79
4422	6.9639	-3.0249	0.	129.93
4423	-6.2362	4.1575	0.	126.89
4424	-6.3768	3.8544	0.	134.14
4425	-0.3947	-3.6923	0.	136.57
4426	-0.2105	-3.9098	0.	131.82
4427	0.15401	-1.377	0.	131.77
4428	0.45439	-1.2146	0.	119.88
4429	5.7656e-002	-1.0736	0.	129.17
4430	2.033	-3.3022	0.	136.91
4431	2.1431	-3.0025	0.	128.43
4432	-1.2089	7.6879	0.	121.13
4433	-1.5246	7.4685	0.	133.22
4434	-1.7407	7.6939	0.	131.97
4435	-1.5734	4.9688	0.	128.39
4436	-1.7819	5.209	0.	132.84
4437	-1.8446	4.7211	0.	131.92
4438	-9.0016	9.252	0.	124.89
4439	-9.2515	9.0019	0.	125.11
4440	-9.0025	8.7537	0.	124.93
4441	-8.753	9.0048	0.	124.73
4442	9.2591	-9.0045	0.	126.2
4443	9.0091	-9.2547	0.	126.36
4444	9.0151	-8.7566	0.	126.05
4445	-7.9913	1.6834	0.	120.87
4446	-8.3593	1.2766	0.	126.55
4447	-7.678	2.0851	0.	111.06
4448	-7.7785	2.3844	0.	112.86
4449	-6.5002	1.6785	0.	129.25
4450	-6.4054	1.1966	0.	132.71
4451	-6.3056	0.70751	0.	132.47
4452	-7.9534	0.26011	0.	119.31
4453	-7.459	8.9924e-002	0.	106.14
4454	-6.9443	2.2029e-002	0.	111.56
4455	5.3176	-6.0538	0.	118.97
4456	4.9081	-6.3142	0.	128.37
4457	5.7589	-5.7902	0.	112.01
4458	5.9733	-5.4744	0.	112.64
4459	6.604	-6.3292	0.	132.39
4460	6.6438	-6.8176	0.	131.67
4461	6.8614	-6.5571	0.	127.64
4462	6.6612	-7.3103	0.	131.86
4463	5.9089	-7.9286	0.	109.17
4464	6.1004	-8.2443	0.	111.66
4465	5.4436	-7.7573	0.	113.96
4466	4.9668	-7.5805	0.	125.85
4467	-8.081	-4.8564	0.	121.9
4468	-7.6893	-4.5663	0.	108.67
4469	-8.2319	-4.6044	0.	123.99
4470	-6.7984	-5.0793	0.	128.2
4471	-6.704	-5.5288	0.	125.32
4472	-6.3883	-5.7094	0.	125.52
4473	-4.5011	-8.751	0.	133.28
4474	-4.5004	-9.2504	0.	134.35
4475	-4.5029	-8.2525	0.	132.69
4476	-4.2522	-8.501	0.	131.21
4477	-4.5091	-7.7548	0.	133.18
4478	-6.5023	-2.7323	0.	126.44
4479	-6.5165	-2.2389	0.	126.16
4480	-8.4987	-2.7618	0.	125.94
4481	-8.5021	-2.2556	0.	125.99
4482	-8.7501	-2.5081	0.	125.49
4483	-0.60568	-2.7334	0.	134.32
4484	-0.43831	-2.9817	0.	136.66
4485	-0.5502	-2.2401	0.	137.26
4486	-0.36559	-2.5095	0.	137.23
4487	-0.48302	-1.718	0.	136.65
4488	-0.29356	-2.0268	0.	134.35
4489	-0.49532	-1.2001	0.	134.88
4490	-0.19377	-1.5239	0.	136.81
4491	-0.29012	-1.2205	0.	134.13
4492	-0.52228	-0.71436	0.	134.66
4493	-0.34248	-0.97373	0.	133.64
4494	-1.3034	-3.469	0.	116.82
4495	-1.7671	-3.4847	0.	117.68
4496	-2.5022	-2.7449	0.	132.55
4497	-2.4996	-2.2477	0.	134.55
4498	-2.4958	-1.7495	0.	134.83
4499	-2.4895	-1.2506	0.	133.96
4500	0.5004	3.2312	0.	128.84
4501	0.49971	3.7048	0.	128.76
4502	-0.74621	2.5017	0.	113.83
4503	-0.2484	2.504	0.	115.71
4504	-0.21424	4.4089	0.	112.27
4505	-0.69571	4.4304	0.	108.27
4506	-1.4618	3.7352	0.	126.03
4507	-1.4773	3.2411	0.	125.33
4508	-0.49713	0.26752	0.	127.6
4509	-0.49515	-0.22843	0.	131.9
4510	-0.50182	0.76522	0.	125.75
4511	-0.25122	0.52557	0.	125.13
4512	-1.2492	-0.49601	0.	110.5
4513	-0.74886	-0.4841	0.	127.47
4514	-1.7444	-0.49974	0.	110.37
4515	-1.2469	1.5011	0.	114.31
4516	-1.7421	1.4995	0.	116.23
4517	-1.4932	1.7491	0.	114.34
4518	-2.478	0.24967	0.	131.81
4519	-2.4803	0.75044	0.	130.75
4520	6.4983	2.2759	0.	129.32
4521	6.4968	1.7648	0.	124.75
4522	6.5285	2.7834	0.	136.98
4523	6.2336	2.5597	0.	125.86
4524	6.5813	3.288	0.	141.42
4525	6.3389	3.0704	0.	135.96
4526	6.624	3.7934	0.	138.71
4527	6.455	4.0668	0.	137.57
4528	6.658	4.2975	0.	135.34
4529	6.4191	3.5668	0.	141.21
4530	7.4996	0.25946	0.	123.65
4531	7.4997	0.75465	0.	122.51
4532	7.7499	0.5065	0.	120.59
4533	7.4996	1.2524	0.	121.79
4534	4.4794	0.25567	0.	131.6
4535	4.2128	8.739e-003	0.	131.07
4536	4.4927	0.75301	0.	131.4
4537	4.233	0.50587	0.	129.76
4538	-7.7392	-3.5175	0.	110.26
4539	-7.2362	-3.4919	0.	111.31
4540	-7.7761	-1.495	0.	111.54
4541	-7.2893	-1.4915	0.	110.18
4542	-7.5471	-1.2356	0.	107.97
4543	-5.7609	-7.5276	0.	121.76
4544	-6.2597	-7.5282	0.	132.78
4545	-5.2612	-7.5194	0.	120.93
4546	-5.5201	-7.2877	0.	119.82
4547	-6.5144	-7.2919	0.	135.86
4548	-6.5001	-8.7521	0.	135.33
4549	-6.5	-9.2507	0.	135.23
4550	-6.5012	-8.2565	0.	137.34
4551	-6.5053	-7.7679	0.	137.82
4552	-8.7727	-6.511	0.	124.22
4553	-9.2638	-6.5073	0.	133.18
4554	-8.2819	-6.519	0.	114.75
4555	-7.7909	-6.5411	0.	106.42
4556	-7.565	-6.336	0.	99.651
4557	-7.2965	-6.5739	0.	110.5
4558	-8.0526	-6.2789	0.	114.6
4559	8.7502	1.5009	0.	123.3
4560	9.2501	1.5005	0.	132.72
4561	8.25	1.5014	0.	118.51
4562	7.7497	1.5016	0.	120.38
4563	7.2491	1.502	0.	124.8
4564	8.7611	4.5011	0.	121.58
4565	9.2554	4.5004	0.	131.15
4566	8.2705	4.5025	0.	115.48
4567	7.7868	4.5052	0.	115.16
4568	7.32	4.5127	0.	119.05
4569	6.741	-0.47337	0.	118.24
4570	5.729	-0.47762	0.	117.57
4571	6.2361	-0.47419	0.	116.37
4572	5.2189	-0.48224	0.	122.9
4573	6.7485	1.5057	0.	125.66
4574	6.2493	1.5097	0.	121.89
4575	5.7512	1.5058	0.	118.81
4576	5.2527	1.5004	0.	121.32
4577	5.0037	1.7498	0.	123.41
4578	6.5068	7.25	0.	129.48
4579	6.7635	7.0034	0.	129.2
4580	6.4993	7.7456	0.	129.21
4581	5.7625	6.4693	0.	116.76
4582	5.2416	6.4964	0.	112.23
4583	5.5822	6.1966	0.	107.45
4584	4.2838	6.5225	0.	121.67
4585	4.7581	6.5349	0.	115.6
4586	4.2489	8.4997	0.	123.37
4587	3.9986	8.7497	0.	127.24
4588	5.7472	8.4978	0.	121.45
4589	5.9963	8.7469	0.	124.95
4590	6.2456	8.4954	0.	128.37
4591	5.2484	8.4991	0.	117.9
4592	5.4978	8.7487	0.	119.02
4593	4.7489	8.4996	0.	118.44
4594	4.9986	8.7494	0.	119.07
4595	4.4989	8.7497	0.	120.13
4596	3.501	7.7514	0.	131.86
4597	3.5132	7.2555	0.	133.48
4598	-7.337	-6.1522	0.	106.66
4599	-7.0685	-6.3901	0.	118.03
4600	-7.8268	-6.0739	0.	107.91
4601	1.5706	-8.5492	0.	128.26
4602	1.1404	-8.9006	0.	114.48
4603	1.9354	-8.1381	0.	129.
4604	0.56953	-6.854	0.	111.53
4605	0.29464	-6.5988	0.	118.52
4606	1.5612	-7.1263	0.	124.4
4607	1.0812	-6.9581	0.	108.43
4608	1.5982e-002	-8.383	0.	128.96
4609	-5.1081e-002	-7.9626	0.	132.95
4610	-0.11446	-7.5243	0.	131.35
4611	5.5141	3.3659	0.	109.98
4612	5.9179	3.1849	0.	118.55
4613	5.0999	3.5425	0.	114.41
4614	4.2821	3.9601	0.	128.21
4615	4.2099	5.1635	0.	129.95
4616	4.6104	5.394	0.	119.6
4617	5.4594	5.8475	0.	109.21
4618	5.0288	5.6313	0.	114.
4619	6.4452	5.5444	0.	135.11
4620	6.2767	4.8228	0.	138.39
4621	6.2544	5.3075	0.	136.47
4622	6.2501	3.8401	0.	139.99
4623	6.1767	3.3491	0.	135.5
4624	6.2744	4.333	0.	140.37
4625	6.4774	4.5638	0.	138.23
4626	7.1388	-3.9213	0.	132.04
4627	7.0271	-3.4762	0.	129.49
4628	7.2521	-4.3679	0.	131.03
4629	9.293	-3.4931	0.	126.69
4630	9.0707	-3.2164	0.	133.51
4631	8.4185	-4.6409	0.	124.39
4632	8.44	-4.8958	0.	122.89
4633	8.6014	-4.7318	0.	127.41
4634	8.818	-4.5027	0.	130.16
4635	8.4836	-2.9722	0.	118.23
4636	8.8741	-2.9679	0.	135.17
4637	8.0819	-2.9108	0.	107.87
4638	7.6425	-2.8399	0.	113.59
4639	-7.312	5.6177	0.	118.15
4640	-7.2338	5.9525	0.	118.85
4641	-7.0033	5.3214	0.	122.25
4642	-6.6608	4.9856	0.	131.55
4643	-6.4059	4.5763	0.	129.68
4644	-6.7937	3.6842	0.	124.84
4645	-7.2287	3.5188	0.	111.9
4646	-8.1911	3.4263	0.	117.73
4647	-8.4553	3.1952	0.	126.15
4648	-7.694	3.4282	0.	108.49
4649	-7.9349	3.1732	0.	109.63
4650	-8.5246	4.7898	0.	132.57
4651	-8.7239	4.291	0.	131.95
4652	-8.4668	5.2906	0.	128.82
4653	-0.29312	-3.2214	0.	138.14
4654	-0.19823	-2.7578	0.	139.53
4655	-0.10895	-2.2963	0.	134.25
4656	-4.3097e-003	-1.8327	0.	134.47
4657	1.6224	-3.4855	0.	131.
4658	0.25986	-3.857	0.	118.85
4659	0.72902	-3.7799	0.	113.43
4660	1.1861	-3.6547	0.	118.03
4661	1.4174	-1.8849	0.	126.44
4662	1.9393	-2.6078	0.	133.69
4663	1.6873	-2.2386	0.	135.43
4664	-0.68284	7.5725	0.	113.96
4665	-0.98271	7.9151	0.	114.87
4666	-0.25825	7.3105	0.	119.24
4667	5.5584e-002	7.0085	0.	125.18
4668	0.35272	6.7646	0.	131.42
4669	0.22517	5.701	0.	125.9
4670	-0.17866	5.605	0.	113.46
4671	-0.56675	5.4447	0.	107.7
4672	3.7334e-002	5.4476	0.	119.3
4673	-1.728	5.681	0.	130.61
4674	-2.0026	5.4442	0.	130.93
4675	-1.686	6.1351	0.	131.05
4676	-1.6428	6.5798	0.	130.82
4677	-8.7515	9.5022	0.	124.77
4678	-9.2508	9.501	0.	124.96
4679	-8.2525	9.5044	0.	124.62
4680	-8.5029	9.255	0.	124.61
4681	-7.7535	9.508	0.	124.57
4682	-8.0045	9.2595	0.	124.43
4683	-7.2547	9.5123	0.	124.66
4684	-6.7552	9.5155	0.	124.87
4685	-6.2549	9.5161	0.	125.18
4686	-5.7543	9.5143	0.	125.54
4687	-5.2535	9.5109	0.	125.9
4688	-5.5066	9.2699	0.	125.67
4689	-4.7528	9.5071	0.	126.23
4690	-4.2527	9.5047	0.	126.5
4691	-3.7529	9.5049	0.	126.7
4692	-4.0043	9.2555	0.	126.61
4693	-3.2533	9.5088	0.	126.77
4694	-2.7538	9.5158	0.	126.66
4695	-2.2537	9.5226	0.	126.28
4696	-1.7526	9.5263	0.	125.64
4697	-2.005	9.2901	0.	126.29
4698	-1.2514	9.5248	0.	124.96
4699	-1.5041	9.293	0.	125.22
4700	-0.75126	9.5179	0.	124.62
4701	-1.0036	9.286	0.	124.19
4702	-0.25282	9.5092	0.	124.87
4703	-0.50547	9.2703	0.	123.99
4704	0.24468	9.504	0.	125.58
4705	0.74311	9.5036	0.	126.41
4706	1.2437	9.5039	0.	127.11
4707	1.7455	9.5027	0.	127.56
4708	2.2471	9.5009	0.	127.79
4709	2.7481	9.4998	0.	127.79
4710	2.4964	9.2505	0.	128.06
4711	3.2487	9.4996	0.	127.29
4712	2.9976	9.2495	0.	128.48
4713	3.749	9.4997	0.	125.94
4714	3.4984	9.2495	0.	128.11
4715	4.249	9.4998	0.	123.92
4716	3.9988	9.2497	0.	125.56
4717	4.7489	9.4997	0.	122.19
4718	4.4988	9.2497	0.	122.31
4719	5.2486	9.4993	0.	121.76
4720	4.9986	9.2494	0.	120.61
4721	5.7482	9.4987	0.	122.71
4722	5.498	9.2488	0.	121.33
4723	6.2476	9.4978	0.	124.17
4724	5.9972	9.2477	0.	123.87
4725	6.7467	9.4967	0.	125.16
4726	7.2458	9.4959	0.	125.46
4727	6.9946	9.2445	0.	126.32
4728	7.7456	9.4962	0.	125.39
4729	7.4943	9.2445	0.	125.74
4730	8.2463	9.4974	0.	125.26
4731	8.7472	9.4984	0.	125.15
4732	9.2483	9.4991	0.	125.02
4733	8.9973	9.2485	0.	125.01
4734	9.4987	9.2493	0.	124.86
4735	9.4987	8.7493	0.	124.71
4736	9.2477	8.9987	0.	124.84
4737	9.499	8.2495	0.	124.66
4738	9.2483	8.4988	0.	124.74
4739	9.4998	7.7498	0.	124.78
4740	9.2489	7.9992	0.	124.74
4741	9.5011	7.2503	0.	125.11
4742	9.5026	6.7509	0.	125.67
4743	9.5042	6.2514	0.	126.49
4744	9.506	5.7514	0.	127.65
4745	9.5067	5.251	0.	129.43
4746	9.5048	4.7504	0.	132.78
4747	9.502	4.2501	0.	135.46
4748	9.5004	3.75	0.	137.61
4749	9.5	3.25	0.	140.35
4750	9.5	2.75	0.	140.72
4751	9.5	2.2501	0.	138.85
4752	9.5001	1.7502	0.	137.25
4753	9.5001	1.2504	0.	134.59
4754	9.5002	0.75075	0.	131.18
4755	9.5002	0.25115	0.	129.62
4756	9.5	-0.24836	0.	129.08
4757	9.4996	-0.74761	0.	129.17
4758	9.2497	-0.49623	0.	127.35
4759	9.499	-1.2463	0.	129.71
4760	9.2486	-0.99468	0.	127.65
4761	9.4996	-1.7436	0.	130.66
4762	9.2473	-1.4929	0.	128.04
4763	9.5059	-2.2394	0.	132.46
4764	9.2482	-1.9904	0.	129.06
4765	9.5192	-2.737	0.	133.35
4766	9.2625	-2.4829	0.	132.1
4767	9.5229	-3.2428	0.	131.52
4768	9.3005	-2.9662	0.	138.57
4769	9.5046	-3.7526	0.	128.9
4770	9.5034	-4.2565	0.	129.54
4771	9.5188	-4.7567	0.	130.28
4772	9.2862	-4.5175	0.	131.19
4773	9.5167	-5.2555	0.	128.76
4774	9.2864	-5.0088	0.	129.54
4775	9.5117	-5.7531	0.	127.21
4776	9.2637	-5.5046	0.	127.08
4777	9.5123	-6.2518	0.	125.86
4778	9.5128	-6.7518	0.	125.01
4779	9.2696	-6.5016	0.	124.6
4780	9.5123	-7.2525	0.	124.72
4781	9.2694	-7.0023	0.	124.31
4782	9.5115	-7.7533	0.	124.91
4783	9.2688	-7.5039	0.	124.56
4784	9.5098	-8.2537	0.	125.38
4785	9.2668	-8.0053	0.	125.13
4786	9.5074	-8.7534	0.	125.9
4787	9.2634	-8.5054	0.	125.74
4788	9.5046	-9.2525	0.	126.3
4789	9.2546	-9.5026	0.	126.46
4790	8.7576	-9.5041	0.	126.53
4791	8.2601	-9.5057	0.	126.56
4792	7.7615	-9.5067	0.	126.16
4793	8.0175	-9.2594	0.	126.71
4794	7.2609	-9.5057	0.	124.87
4795	6.7569	-9.5004	0.	122.5
4796	7.0191	-9.258	0.	124.69
4797	6.2488	-9.4874	0.	119.98
4798	5.7406	-9.4717	0.	119.05
4799	5.239	-9.4839	0.	120.62
4800	4.7412	-9.5058	0.	123.89
4801	4.2429	-9.5046	0.	127.3
4802	4.4927	-9.2646	0.	125.97
4803	3.7423	-9.4968	0.	129.9
4804	3.9984	-9.2511	0.	129.03
4805	3.2368	-9.4899	0.	131.47
4806	2.2257	-9.4929	0.	129.51
4807	2.7287	-9.486	0.	131.62
4808	2.4589	-9.2245	0.	131.66
4809	1.7337	-9.517	0.	124.16
4810	1.2507	-9.5445	0.	117.12
4811	0.73472	-9.274	0.	111.65
4812	0.98088	-9.3295	0.	111.48
4813	0.25357	-9.4809	0.	120.64
4814	0.76463	-9.5	0.	113.98
4815	-0.2621	-9.5231	0.	128.4
4816	-0.76106	-9.5256	0.	130.45
4817	-1.2577	-9.5165	0.	130.86
4818	-1.7548	-9.5067	0.	130.75
4819	-2.2527	-9.5012	0.	130.78
4820	-2.7514	-9.4995	0.	131.17
4821	-3.2508	-9.4995	0.	132.
4822	-3.7505	-9.4999	0.	133.24
4823	-4.2503	-9.5001	0.	134.48
4824	-4.7502	-9.5001	0.	130.36
4825	-5.2501	-9.5	0.	120.59
4826	-5.75	-9.5001	0.	121.7
4827	-6.25	-9.5002	0.	132.26
4828	-6.75	-9.5002	0.	130.73
4829	-7.25	-9.5	0.	117.43
4830	-7.75	-9.5	0.	109.1
4831	-8.25	-9.5	0.	108.88
4832	-8.75	-9.5	0.	116.56
4833	-9.25	-9.5	0.	130.32
4834	-9.5	-9.25	0.	137.1
4835	-9.5	-8.7501	0.	137.88
4836	-9.5	-8.2502	0.	139.53
4837	-9.5002	-7.7506	0.	139.61
4838	-9.5013	-7.2518	0.	137.9
4839	-9.5058	-6.7542	0.	136.58
4840	-9.5131	-6.257	0.	133.86
4841	-9.5191	-5.7591	0.	129.83
4842	-9.5198	-5.26	0.	128.17
4843	-9.513	-4.7605	0.	128.4
4844	-9.5041	-4.2609	0.	128.83
4845	-9.4994	-3.7605	0.	128.68
4846	-9.4983	-3.2588	0.	127.94
4847	-9.4992	-2.7564	0.	127.27
4848	-9.5007	-2.2542	0.	127.34
4849	-9.2499	-2.5069	0.	126.09
4850	-9.503	-1.7526	0.	128.17
4851	-9.2525	-2.0041	0.	127.09
4852	-9.5068	-1.2517	0.	129.11
4853	-9.5123	-0.75118	0.	129.68
4854	-9.517	-0.25005	0.	129.59
4855	-9.5209	0.25196	0.	128.3
4856	-9.2868	-1.2235e-003	0.	130.54
4857	-9.5223	0.75406	0.	126.67
4858	-9.5243	1.2553	0.	126.96
4859	-9.5243	1.7554	0.	128.91
4860	-9.5142	2.2546	0.	130.74
4861	-9.4989	2.7539	0.	131.95
4862	-9.4822	3.2563	0.	131.67
4863	-9.4677	3.762	0.	129.59
4864	-9.4778	4.2663	0.	127.51
4865	-9.1765	4.033	0.	127.08
4866	-9.4953	4.7676	0.	127.16
4867	-9.494	5.2657	0.	127.94
4868	-9.4916	5.7614	0.	128.35
4869	-9.4942	6.2578	0.	128.14
4870	-9.4979	6.7556	0.	127.6
4871	-9.2449	6.5112	0.	127.38
4872	-9.5002	7.2543	0.	126.9
4873	-9.2501	7.0095	0.	126.39
4874	-9.5011	7.7531	0.	126.3
4875	-9.5012	8.2521	0.	125.82
4876	-9.2523	8.0051	0.	125.48
4877	-9.5011	8.7514	0.	125.46
4878	-9.252	8.5032	0.	125.27
4879	-9.5007	9.2509	0.	125.18
4880	-1.59	7.0234	0.	131.5
4881	-3.2239	1.5015	0.	130.62
4882	-9.0032	8.2562	0.	124.93
4883	-8.7544	8.5084	0.	124.59
4884	-3.4615	1.249	0.	130.11
4885	5.3416	-3.365	0.	121.56
4886	5.622	-3.5747	0.	120.75
4887	-3.4415	0.74657	0.	130.03
4888	-3.4299	0.24815	0.	130.9
4889	-3.4291	-0.24789	0.	132.28
4890	2.9772	-9.231	0.	131.67
4891	3.7832	-4.3231	0.	129.41
4892	3.8366	-3.942	0.	128.01
4893	4.144	-4.0953	0.	127.14
4894	-4.9628	-0.95397	0.	131.42
4895	-4.6435	-1.1608	0.	131.07
4896	3.4888	-4.2635	0.	130.34
4897	3.5422	-3.8824	0.	128.94
4898	9.0258	-7.2537	0.	124.15
4899	9.0262	-6.7521	0.	123.9
4900	-4.3327	4.789	0.	127.29
4901	-0.77142	8.5646	0.	121.52
4902	-0.5172	8.7848	0.	122.24
4903	-5.7686	8.5493	0.	125.31
4904	9.0334	-5.258	0.	127.86
4905	3.2473	8.9995	0.	129.28
4906	3.7482	8.9996	0.	127.74
4907	-8.7553	8.0123	0.	124.39
4908	2.7459	9.0002	0.	128.74
4909	-4.0082	8.7582	0.	126.65
4910	3.9664	0.25894	0.	129.2
4911	4.9615	-2.1845	0.	123.99
4912	5.2255	-2.4061	0.	123.22
4913	-3.7531	-8.4995	0.	129.57
4914	-3.2536	-8.4971	0.	129.35
4915	3.6477	-4.753	0.	131.26
4916	-3.1947	-0.49784	0.	133.92
4917	-3.6633	-0.48986	0.	132.42
4918	0.94707	7.3321	0.	130.97
4919	1.2057	7.0996	0.	130.3
4920	2.7074	-8.9695	0.	131.71
4921	2.9789	-8.7224	0.	130.45
4922	-8.5075	7.7706	0.	123.64
4923	-8.5065	8.2645	0.	124.05
4924	4.3635	-5.4601	0.	131.77
4925	4.5663	-5.2053	0.	129.53
4926	-8.744	6.5245	0.	125.26
4927	-8.4998	6.7813	0.	123.48
4928	8.5222	5.7562	0.	122.36
4929	-1.0274	8.3661	0.	121.
4930	7.2432	8.993	0.	126.59
4931	2.9961	8.7493	0.	129.69
4932	8.8372	-4.9988	0.	127.68
4933	-2.0067	8.8228	0.	127.08
4934	4.5161	-8.7765	0.	126.91
4935	4.2916	-8.517	0.	128.69
4936	-1.012	8.8182	0.	122.86
4937	-1.2563	9.0542	0.	124.45
4938	-0.75782	9.0384	0.	123.55
4939	-5.2365	-3.4612	0.	129.43
4940	8.7482	7.9981	0.	124.82
4941	8.4999	7.7485	0.	124.82
4942	8.2476	7.9966	0.	124.93
4943	-2.2297	7.6956	0.	130.39
4944	-8.255	9.01	0.	124.42
4945	-8.0077	8.7678	0.	124.05
4946	0.29163	-6.1101	0.	119.18
4947	5.747	8.9978	0.	122.48
4948	4.7486	8.9995	0.	120.69
4949	5.248	8.999	0.	120.12
4950	1.4972	1.2775	0.	127.77
4951	1.7413	1.0215	0.	127.64
4952	-8.8253	-8.1972e-003	0.	131.72
4953	5.2033	-1.9259	0.	123.54
4954	6.2196	-2.3478	0.	124.67
4955	5.7247	-2.3701	0.	123.12
4956	-1.7495	-8.5056	0.	128.03
4957	-2.2513	-8.494	0.	128.46
4958	8.2486	-0.48442	0.	123.06
4959	9.0538	-4.7696	0.	130.44
4960	4.6916	3.7624	0.	117.89
4961	6.4961	8.2441	0.	130.33
4962	-8.7537	-2.0044	0.	126.36
4963	-9.0017	-2.2569	0.	125.83
4964	8.9959	-1.7397	0.	126.45
4965	9.0049	-2.234	0.	128.73
4966	8.7493	-0.49142	0.	124.43
4967	8.4996	-0.24033	0.	122.48
4968	8.4978	-0.73596	0.	123.16
4969	-2.5066	5.4414	0.	129.02
4970	8.9981	8.2485	0.	124.82
4971	-8.9971	6.7651	0.	126.17
4972	-5.4647	1.6359	0.	129.9
4973	2.2392	1.0143	0.	128.45
4974	-1.7566	9.0568	0.	125.86
4975	6.8378e-004	2.2582	0.	122.19
4976	8.5101	6.7532	0.	124.6
4977	8.5166	6.2554	0.	123.85
4978	9.0241	-7.7559	0.	124.78
4979	9.0204	-8.257	0.	125.49
4980	8.7442	-1.4857	0.	123.99
4981	8.4945	-1.2323	0.	122.58
4982	-5.5136	8.7857	0.	125.59
4983	-7.0423	6.3805	0.	121.33
4984	-4.7627	-7.51	0.	130.07
4985	-5.021	-7.2686	0.	126.27
4986	7.4931	8.7423	0.	126.09
4987	8.9988	-0.7433	0.	125.83
4988	6.044	2.8466	0.	125.04
4989	-8.1991	2.9421	0.	117.95
4990	8.5044	7.2507	0.	124.8
4991	2.5226	2.7799	0.	130.98
4992	2.958	0.27333	0.	129.01
4993	-8.5064	7.2768	0.	123.33
4994	-8.7529	7.0218	0.	124.39
4995	4.2482	-9.0112	0.	127.71
4996	8.9973	8.7483	0.	124.88
4997	8.9969	-1.2413	0.	125.98
4998	8.7472	-0.98784	0.	124.57
4999	-8.5049	8.7595	0.	124.4
5000	4.7631	2.5085	0.	121.36
5001	4.5137	2.2568	0.	125.75
5002	1.193	7.5583	0.	130.07
5003	4.1498	-5.7246	0.	133.87
5004	-2.7532	-8.4945	0.	128.92
5005	5.0061	2.2542	0.	119.97
5006	-1.725	2.9924	0.	124.79
5007	7.332	-6.5253	0.	123.63
5008	-4.2647	-7.5036	0.	132.7
5009	-4.024	-7.2497	0.	131.39
5010	7.0265	6.759	0.	129.5
5011	4.7568	2.0025	0.	124.34
5012	4.2486	8.9997	0.	123.97
5013	9.0439	-2.7121	0.	137.28
5014	4.7602	-4.9407	0.	126.26
5015	4.5121	-4.7445	0.	127.57
5016	8.0312	-8.7639	0.	126.9
5017	-5.2799	-7.037	0.	125.02
5018	4.0237	-8.7516	0.	129.5
5019	5.4674	-2.1475	0.	122.77
5020	3.925	-5.9798	0.	133.61
5021	-8.2576	8.5173	0.	124.02
5022	-7.9676	2.6916	0.	114.14
5023	4.0818	-8.2497	0.	130.89
5024	1.9645	7.2961	0.	128.72
5025	1.7161	7.5435	0.	129.08
5026	1.7	7.0785	0.	129.03
5027	1.4516	7.3259	0.	129.4
5028	4.5542	-3.9906	0.	124.84
5029	6.8838	4.5337	0.	129.03
5030	4.4106	-4.2757	0.	126.42
5031	-5.	-8.	0.	99.98
5032	-6.	-8.	0.	101.2
5033	-5.	-9.	0.	100.63
5034	-6.	-9.	0.	100.71
5035	-5.5	-8.	0.	116.17
5036	-5.	-8.5	0.	105.23
5037	-6.	-8.5	0.	105.89
5038	-5.5	-9.	0.	116.1
5039	-5.5	-8.5	0.	113.06
5040	-5.25	-8.	0.	108.04
5041	-5.	-8.25	0.	102.6
5042	-5.75	-8.	0.	108.66
5043	-6.	-8.25	0.	103.53
5044	-5.	-8.75	0.	102.92
5045	-5.25	-9.	0.	108.35
5046	-6.	-8.75	0.	103.27
5047	-5.75	-9.	0.	108.38
5048	-5.5	-8.25	0.	114.56
5049	-5.25	-8.5	0.	109.13
5050	-5.75	-8.5	0.	109.44
5051	-5.5	-8.75	0.	114.55
5052	-7.	-7.	0.	96.213
5053	-9.	-7.	0.	101.33
5054	-7.	-9.	0.	96.565
5055	-9.	-9.	0.	98.695
5056	-7.5	-7.	0.	106.14
5057	-8.	-7.	0.	106.48
5058	-8.5	-7.	0.	112.73
5059	-7.	-7.5	0.	100.5
5060	-7.	-8.	0.	99.367
5061	-7.	-8.5	0.	99.996
5062	-9.	-7.5	0.	104.48
5063	-9.	-8.	0.	102.85
5064	-9.	-8.5	0.	103.18
5065	-8.5	-9.	0.	109.44
5066	-8.	-9.	0.	105.71
5067	-7.5	-9.	0.	108.4
5068	-8.	-8.	0.	109.38
5069	-8.	-7.5	0.	109.49
5070	-7.5	-7.5	0.	106.15
5071	-7.5	-8.	0.	105.69
5072	-7.5	-8.5	0.	106.04
5073	-8.	-8.5	0.	108.94
5074	-8.5	-8.5	0.	108.32
5075	-8.5	-8.	0.	108.53
5076	-8.5	-7.5	0.	109.82
5077	-7.25	-7.	0.	101.15
5078	-7.	-7.25	0.	98.357
5079	-8.75	-7.	0.	106.94
5080	-9.	-7.25	0.	102.9
5081	-7.	-8.75	0.	98.258
5082	-7.25	-9.	0.	102.41
5083	-9.	-8.75	0.	100.94
5084	-8.75	-9.	0.	104.01
5085	-7.75	-7.	0.	106.29
5086	-7.5	-7.25	0.	106.12
5087	-8.25	-7.	0.	109.6
5088	-8.	-7.25	0.	107.97
5089	-8.5	-7.25	0.	111.24
5090	-7.	-7.75	0.	99.922
5091	-7.25	-7.5	0.	103.33
5092	-7.	-8.25	0.	99.644
5093	-7.25	-8.	0.	102.52
5094	-7.25	-8.5	0.	103.
5095	-9.	-7.75	0.	103.66
5096	-8.75	-7.5	0.	107.14
5097	-9.	-8.25	0.	103.01
5098	-8.75	-8.	0.	105.69
5099	-8.75	-8.5	0.	105.75
5100	-8.25	-9.	0.	107.57
5101	-8.5	-8.75	0.	108.84
5102	-7.75	-9.	0.	107.06
5103	-8.	-8.75	0.	107.31
5104	-7.5	-8.75	0.	107.2
5105	-8.	-7.75	0.	109.43
5106	-7.75	-8.	0.	107.53
5107	-8.	-8.25	0.	109.15
5108	-8.25	-8.	0.	108.95
5109	-7.75	-7.5	0.	107.82
5110	-8.25	-7.5	0.	109.65
5111	-7.5	-7.75	0.	105.91
5112	-7.5	-8.25	0.	105.85
5113	-7.75	-8.5	0.	107.48
5114	-8.25	-8.5	0.	108.63
5115	-8.5	-8.25	0.	108.42
5116	-8.5	-7.75	0.	109.17
5117	-1.	-1.	0.	95.629
5118	-2.	-1.	0.	95.233
5119	-1.	-3.	0.	95.651
5120	-2.	-3.	0.	95.994
5121	-1.5	-1.	0.	106.87
5122	-1.	-1.5	0.	100.13
5123	-1.	-2.	0.	99.117
5124	-1.	-2.5	0.	99.516
5125	-2.	-1.5	0.	99.283
5126	-2.	-2.	0.	98.505
5127	-2.	-2.5	0.	99.537
5128	-1.5	-3.	0.	109.81
5129	-1.5	-1.5	0.	103.45
5130	-1.5	-2.	0.	101.55
5131	-1.5	-2.5	0.	103.44
5132	-1.25	-1.	0.	101.23
5133	-1.	-1.25	0.	97.864
5134	-1.75	-1.	0.	101.04
5135	-2.	-1.25	0.	97.256
5136	-1.	-2.75	0.	97.574
5137	-1.25	-3.	0.	102.66
5138	-2.	-2.75	0.	97.755
5139	-1.75	-3.	0.	102.83
5140	-1.5	-1.25	0.	105.13
5141	-1.	-1.75	0.	99.6
5142	-1.25	-1.5	0.	101.77
5143	-1.	-2.25	0.	99.255
5144	-1.25	-2.	0.	100.33
5145	-1.25	-2.5	0.	101.41
5146	-2.	-1.75	0.	98.869
5147	-1.75	-1.5	0.	101.34
5148	-2.	-2.25	0.	98.995
5149	-1.75	-2.	0.	100.03
5150	-1.75	-2.5	0.	101.43
5151	-1.5	-2.75	0.	106.57
5152	-1.5	-1.75	0.	102.49
5153	-1.5	-2.25	0.	102.49
5154	0.	4.	0.	95.249
5155	-1.	4.	0.	93.27
5156	0.	3.	0.	95.861
5157	-1.	3.	0.	93.792
5158	-0.5	4.	0.	107.54
5159	0.	3.5	0.	100.21
5160	-1.	3.5	0.	98.435
5161	-0.5	3.	0.	109.73
5162	-0.5	3.5	0.	106.21
5163	-0.25	4.	0.	101.38
5164	0.	3.75	0.	97.722
5165	-0.75	4.	0.	100.4
5166	-1.	3.75	0.	95.842
5167	0.	3.25	0.	98.03
5168	-0.25	3.	0.	102.77
5169	-1.	3.25	0.	96.104
5170	-0.75	3.	0.	101.74
5171	-0.5	3.75	0.	106.83
5172	-0.25	3.5	0.	103.19
5173	-0.75	3.5	0.	102.29
5174	-0.5	3.25	0.	107.93
5175	-1.	1.	0.	94.305
5176	-2.	1.	0.	96.713
5177	-1.	0.	0.	94.52
5178	-2.	0.	0.	95.824
5179	-1.5	1.	0.	110.36
5180	-1.	0.5	0.	99.47
5181	-2.	0.5	0.	101.17
5182	-1.5	0.	0.	107.78
5183	-1.5	0.5	0.	106.94
5184	-1.25	1.	0.	102.31
5185	-1.	0.75	0.	96.88
5186	-1.75	1.	0.	103.51
5187	-2.	0.75	0.	98.939
5188	-1.	0.25	0.	96.99
5189	-1.25	0.	0.	101.14
5190	-2.	0.25	0.	98.496
5191	-1.75	0.	0.	101.8
5192	-1.5	0.75	0.	108.6
5193	-1.25	0.5	0.	103.18
5194	-1.75	0.5	0.	104.04
5195	-1.5	0.25	0.	107.32
5196	9.	4.	0.	100.59
5197	7.	4.	0.	99.921
5198	9.	2.	0.	102.28
5199	7.	2.	0.	98.947
5200	8.5	4.	0.	114.58
5201	8.	4.	0.	111.72
5202	7.5	4.	0.	113.71
5203	9.	3.5	0.	106.19
5204	9.	3.	0.	105.78
5205	9.	2.5	0.	106.96
5206	7.	3.5	0.	105.11
5207	7.	3.	0.	104.59
5208	7.	2.5	0.	104.63
5209	7.5	2.	0.	116.69
5210	8.	2.	0.	114.75
5211	8.5	2.	0.	116.67
5212	8.	3.5	0.	115.64
5213	8.5	3.5	0.	113.55
5214	8.5	2.5	0.	114.88
5215	8.	2.5	0.	117.48
5216	7.5	2.5	0.	114.23
5217	7.5	3.5	0.	112.75
5218	7.5	3.	0.	113.23
5219	8.5	3.	0.	113.87
5220	8.	3.	0.	116.74
5221	8.75	4.	0.	107.52
5222	9.	3.75	0.	103.39
5223	7.25	4.	0.	106.76
5224	7.	3.75	0.	102.5
5225	9.	2.25	0.	104.61
5226	8.75	2.	0.	109.41
5227	7.	2.25	0.	101.77
5228	7.25	2.	0.	107.73
5229	8.25	4.	0.	113.15
5230	8.5	3.75	0.	114.02
5231	7.75	4.	0.	112.71
5232	8.	3.75	0.	113.65
5233	7.5	3.75	0.	113.19
5234	9.	3.25	0.	105.96
5235	8.75	3.5	0.	109.86
5236	9.	2.75	0.	106.35
5237	8.75	3.	0.	109.83
5238	8.75	2.5	0.	110.91
5239	7.	3.25	0.	104.82
5240	7.25	3.5	0.	108.92
5241	7.	2.75	0.	104.59
5242	7.25	3.	0.	108.91
5243	7.25	2.5	0.	109.42
5244	7.75	2.	0.	115.72
5245	7.5	2.25	0.	115.43
5246	8.25	2.	0.	115.71
5247	8.	2.25	0.	116.09
5248	8.5	2.25	0.	115.74
5249	8.25	3.5	0.	114.59
5250	7.75	3.5	0.	114.19
5251	8.	3.25	0.	116.18
5252	8.5	3.25	0.	113.71
5253	8.25	2.5	0.	116.17
5254	8.5	2.75	0.	114.37
5255	7.75	2.5	0.	115.84
5256	8.	2.75	0.	117.11
5257	7.5	2.75	0.	113.72
5258	7.5	3.25	0.	112.98
5259	7.75	3.	0.	114.98
5260	8.25	3.	0.	115.31
5261	7.	1.	0.	96.724
5262	5.	1.	0.	99.449
5263	7.	0.	0.	96.077
5264	5.	0.	0.	99.964
5265	6.5	1.	0.	116.82
5266	6.	1.	0.	115.66
5267	5.5	1.	0.	116.41
5268	7.	0.5	0.	101.2
5269	5.	0.5	0.	104.84
5270	5.5	0.	0.	116.11
5271	6.	0.	0.	114.03
5272	6.5	0.	0.	113.82
5273	5.5	0.5	0.	115.05
5274	6.	0.5	0.	117.93
5275	6.5	0.5	0.	113.54
5276	6.75	1.	0.	106.69
5277	7.	0.75	0.	98.91
5278	5.25	1.	0.	107.89
5279	5.	0.75	0.	102.12
5280	7.	0.25	0.	98.603
5281	6.75	0.	0.	104.92
5282	5.	0.25	0.	102.38
5283	5.25	0.	0.	108.
5284	6.25	1.	0.	116.24
5285	6.5	0.75	0.	115.17
5286	5.75	1.	0.	116.03
5287	6.	0.75	0.	116.79
5288	5.5	0.75	0.	115.71
5289	6.75	0.5	0.	107.35
5290	5.25	0.5	0.	109.93
5291	5.75	0.	0.	115.06
5292	5.5	0.25	0.	115.56
5293	6.25	0.	0.	113.92
5294	6.	0.25	0.	115.97
5295	6.5	0.25	0.	113.66
5296	5.75	0.5	0.	116.49
5297	6.25	0.5	0.	115.73
5298	6.	8.	0.	98.146
5299	4.	8.	0.	99.336
5300	6.	7.	0.	97.007
5301	4.	7.	0.	101.16
5302	5.5	8.	0.	114.72
5303	5.	8.	0.	113.84
5304	4.5	8.	0.	116.14
5305	6.	7.5	0.	102.3
5306	4.	7.5	0.	105.
5307	4.5	7.	0.	115.11
5308	5.	7.	0.	111.65
5309	5.5	7.	0.	111.86
5310	4.5	7.5	0.	114.3
5311	5.	7.5	0.	115.95
5312	5.5	7.5	0.	112.22
5313	5.75	8.	0.	106.37
5314	6.	7.75	0.	100.21
5315	4.25	8.	0.	107.67
5316	4.	7.75	0.	102.14
5317	6.	7.25	0.	99.635
5318	5.75	7.	0.	104.42
5319	4.	7.25	0.	103.06
5320	4.25	7.	0.	108.1
5321	5.25	8.	0.	114.28
5322	5.5	7.75	0.	113.45
5323	4.75	8.	0.	114.99
5324	5.	7.75	0.	114.89
5325	4.5	7.75	0.	115.19
5326	5.75	7.5	0.	107.24
5327	4.25	7.5	0.	109.64
5328	4.75	7.	0.	113.37
5329	4.5	7.25	0.	114.69
5330	5.25	7.	0.	111.73
5331	5.	7.25	0.	113.79
5332	5.5	7.25	0.	112.02
5333	4.75	7.5	0.	115.12
5334	5.25	7.5	0.	114.08
5335	-7.12	1.98	0.	100.4
5336	-8.23	0.82	0.	67.786
5337	-6.67	0.43	0.	61.188
5338	-7.49	1.5933	0.	89.23
5339	-7.86	1.2067	0.	95.111
5340	-6.97	1.4633	0.	94.902
5341	-6.82	0.94667	0.	99.543
5342	-7.71	0.69	0.	108.69
5343	-7.19	0.56	0.	107.68
5344	-7.185	0.92713	0.	96.864
5345	-7.5457	1.0173	0.	100.62
5346	-7.2891	1.2856	0.	99.07
5347	-7.305	1.7867	0.	93.402
5348	-7.045	1.7217	0.	95.614
5349	-8.045	1.0133	0.	78.386
5350	-7.97	0.755	0.	84.818
5351	-6.745	0.68833	0.	80.17
5352	-6.93	0.495	0.	84.074
5353	-7.675	1.4	0.	92.083
5354	-7.3896	1.4395	0.	94.143
5355	-7.7029	1.112	0.	97.608
5356	-6.895	1.205	0.	97.08
5357	-7.1295	1.3745	0.	96.882
5358	-7.0025	0.9369	0.	98.198
5359	-7.45	0.625	0.	108.07
5360	-7.6279	0.85366	0.	104.31
5361	-7.1875	0.74356	0.	102.25
5362	-7.3654	0.97223	0.	98.649
5363	-7.2371	1.1064	0.	97.947
5364	-7.4174	1.1515	0.	99.761
5365	-7.13	-5.88	0.	68.669
5366	-7.28	-4.84	0.	87.225
5367	-8.1	-5.49	0.	58.523
5368	-7.205	-5.36	0.	96.823
5369	-7.615	-5.685	0.	99.631
5370	-7.69	-5.165	0.	84.614
5371	-7.5035	-5.4034	0.	96.34
5372	-7.1675	-5.62	0.	81.938
5373	-7.3725	-5.7825	0.	82.663
5374	-7.2425	-5.1	0.	90.03
5375	-7.485	-5.0025	0.	84.579
5376	-7.8575	-5.5875	0.	74.818
5377	-7.895	-5.3275	0.	66.649
5378	-7.3542	-5.3817	0.	96.529
5379	-7.5592	-5.5442	0.	97.247
5380	-7.5967	-5.2842	0.	89.71
5381	-8.39	3.84	0.	67.947
5382	-6.68	4.2	0.	74.949
5383	-7.85	5.5	0.	101.25
5384	-7.9625	3.93	0.	111.42
5385	-7.535	4.02	0.	104.27
5386	-7.1075	4.11	0.	114.34
5387	-8.255	4.255	0.	103.56
5388	-8.12	4.67	0.	98.31
5389	-7.985	5.085	0.	98.527
5390	-6.9725	4.525	0.	106.5
5391	-7.265	4.85	0.	101.3
5392	-7.5575	5.175	0.	98.068
5393	-7.9739	4.2902	0.	99.406
5394	-7.3166	4.5014	0.	103.94
5395	-7.6409	4.3567	0.	104.1
5396	-7.6822	4.7146	0.	101.69
5397	-8.1763	3.885	0.	89.492
5398	-8.3225	4.0475	0.	85.571
5399	-6.8938	4.155	0.	92.675
5400	-6.8263	4.3625	0.	88.699
5401	-7.9175	5.2925	0.	98.628
5402	-7.7038	5.3375	0.	98.523
5403	-7.7488	3.975	0.	107.83
5404	-7.9682	4.1101	0.	105.4
5405	-7.3212	4.065	0.	109.28
5406	-7.5879	4.1884	0.	104.19
5407	-7.2121	4.3057	0.	109.
5408	-8.1875	4.4625	0.	100.93
5409	-8.1144	4.2726	0.	101.46
5410	-8.0525	4.8775	0.	98.387
5411	-8.0469	4.4801	0.	98.849
5412	-7.9011	4.6923	0.	99.99
5413	-7.7712	5.13	0.	98.294
5414	-7.1188	4.6875	0.	103.86
5415	-7.1446	4.5132	0.	105.13
5416	-7.4113	5.0125	0.	99.674
5417	-7.2908	4.6757	0.	102.61
5418	-7.6198	4.9448	0.	99.875
5419	-7.8074	4.3235	0.	101.73
5420	-7.4788	4.4291	0.	103.98
5421	-7.4994	4.608	0.	102.77
5422	-7.6615	4.5357	0.	102.89
5423	0.67	-8.74	0.	102.76
5424	1.7	-7.66	0.	65.257
5425	0.25	-7.31	0.	58.76
5426	1.0133	-8.38	0.	89.76
5427	1.3567	-8.02	0.	95.005
5428	0.53	-8.2633	0.	95.297
5429	0.39	-7.7867	0.	98.884
5430	1.2167	-7.5433	0.	109.79
5431	0.73333	-7.4267	0.	108.65
5432	1.0645	-7.8471	0.	101.15
5433	0.82632	-8.0968	0.	99.763
5434	0.72921	-7.7661	0.	97.762
5435	0.84167	-8.56	0.	94.764
5436	0.6	-8.5017	0.	96.91
5437	1.5283	-7.84	0.	76.678
5438	1.4583	-7.6017	0.	83.911
5439	0.32	-7.5483	0.	78.655
5440	0.49167	-7.3683	0.	83.386
5441	1.185	-8.2	0.	92.295
5442	0.91983	-8.2384	0.	94.757
5443	1.2106	-7.9335	0.	97.804
5444	0.46	-8.025	0.	96.939
5445	0.67816	-8.1801	0.	97.401
5446	0.55961	-7.7764	0.	98.306
5447	0.975	-7.485	0.	109.1
5448	1.1406	-7.6952	0.	105.09
5449	0.73127	-7.5964	0.	103.19
5450	0.9454	-7.9719	0.	100.35
5451	0.89685	-7.8066	0.	99.349
5452	0.77777	-7.9315	0.	98.735
5453	-1.23	5.52	0.	76.155
5454	0.3	6.26	0.	78.864
5455	-1.11	7.21	0.	86.867
5456	-0.8475	5.705	0.	101.93
5457	-0.465	5.89	0.	104.29
5458	-8.25e-002	6.075	0.	111.01
5459	-1.2	5.9425	0.	99.764
5460	-1.17	6.365	0.	98.838
5461	-1.14	6.7875	0.	101.26
5462	-5.25e-002	6.4975	0.	107.74
5463	-0.405	6.735	0.	104.04
5464	-0.7575	6.9725	0.	101.07
5465	-0.28366	6.3009	0.	108.46
5466	-0.88704	6.5401	0.	100.06
5467	-0.55152	6.4635	0.	102.86
5468	-0.88439	6.0892	0.	99.278
5469	-0.56628	6.167	0.	103.26
5470	-1.0388	5.6125	0.	87.816
5471	-1.215	5.7312	0.	86.907
5472	0.10875	6.1675	0.	91.336
5473	0.12375	6.3787	0.	89.794
5474	-1.125	6.9988	0.	92.294
5475	-0.93375	7.0912	0.	92.346
5476	-0.65625	5.7975	0.	103.08
5477	-0.86595	5.8971	0.	100.55
5478	-0.27375	5.9825	0.	107.52
5479	-0.51564	6.0285	0.	103.77
5480	-0.18308	6.1879	0.	109.4
5481	-1.185	6.1537	0.	99.287
5482	-1.0422	6.0158	0.	99.517
5483	-1.155	6.5763	0.	99.989
5484	-1.0285	6.4525	0.	99.448
5485	-1.0135	6.6638	0.	100.59
5486	-0.22875	6.6163	0.	105.79
5487	-0.16808	6.3992	0.	107.83
5488	-0.58125	6.8538	0.	102.54
5489	-0.47826	6.5992	0.	103.44
5490	-0.82227	6.7563	0.	100.5
5491	-0.41759	6.3822	0.	105.61
5492	-0.42497	6.234	0.	105.8
5493	-0.71928	6.5018	0.	101.46
5494	-0.88572	6.3146	0.	99.665
5495	-0.5589	6.3152	0.	103.05
5496	-0.72534	6.1281	0.	101.26
5497	1.7	-2.97	0.	74.658
5498	0.5	-1.76	0.	102.2
5499	5.e-002	-3.41	0.	66.228
5500	1.4	-2.6675	0.	106.5
5501	1.1	-2.365	0.	103.23
5502	0.8	-2.0625	0.	97.489
5503	1.2875	-3.08	0.	116.83
5504	0.875	-3.19	0.	107.47
5505	0.4625	-3.3	0.	113.75
5506	0.3875	-2.1725	0.	101.7
5507	0.275	-2.585	0.	101.45
5508	0.1625	-2.9975	0.	104.9
5509	0.46668	-2.9972	0.	101.69
5510	1.0629	-2.7634	0.	108.12
5511	0.56465	-2.697	0.	104.32
5512	0.77012	-2.418	0.	103.13
5513	0.77004	-2.9131	0.	107.22
5514	1.55	-2.8187	0.	87.413
5515	1.4937	-3.025	0.	92.484
5516	0.65	-1.9112	0.	98.21
5517	0.44375	-1.9662	0.	100.14
5518	0.25625	-3.355	0.	89.682
5519	0.10625	-3.2037	0.	85.355
5520	1.25	-2.5162	0.	104.83
5521	1.2314	-2.7154	0.	107.17
5522	0.95	-2.2137	0.	100.36
5523	0.93506	-2.3915	0.	103.15
5524	0.78506	-2.2403	0.	100.27
5525	1.0812	-3.135	0.	112.11
5526	1.1752	-2.9217	0.	112.23
5527	0.66875	-3.245	0.	110.59
5528	0.82252	-3.0516	0.	107.34
5529	0.46459	-3.1486	0.	107.7
5530	0.33125	-2.3788	0.	101.5
5531	0.57881	-2.2953	0.	102.36
5532	0.21875	-2.7912	0.	103.17
5533	0.41983	-2.641	0.	102.88
5534	0.31459	-2.9973	0.	103.28
5535	0.51567	-2.8471	0.	102.96
5536	0.61836	-2.9551	0.	104.44
5537	0.91649	-2.5907	0.	105.53
5538	0.91645	-2.8382	0.	107.58
5539	0.66739	-2.5575	0.	103.72
5540	0.66735	-2.805	0.	105.75
5541	5.92	3.64	0.	82.146
5542	5.87	5.58	0.	86.006
5543	4.21	4.57	0.	83.242
5544	5.9075	4.125	0.	104.49
5545	5.895	4.61	0.	101.45
5546	5.8825	5.095	0.	103.14
5547	5.4925	3.8725	0.	106.25
5548	5.065	4.105	0.	105.46
5549	4.6375	4.3375	0.	112.66
5550	5.455	5.3275	0.	102.25
5551	5.04	5.075	0.	105.73
5552	4.625	4.8225	0.	111.64
5553	5.5157	4.2992	0.	101.45
5554	4.9103	4.5182	0.	108.64
5555	5.2692	4.701	0.	105.36
5556	5.5965	4.9355	0.	100.98
5557	5.9138	3.8825	0.	92.099
5558	5.7063	3.7562	0.	92.959
5559	5.8762	5.3375	0.	93.072
5560	5.6625	5.4538	0.	92.723
5561	4.4237	4.4538	0.	94.535
5562	4.4175	4.6962	0.	94.443
5563	5.9012	4.3675	0.	102.96
5564	5.7116	4.2121	0.	102.93
5565	5.8888	4.8525	0.	102.25
5566	5.7053	4.4546	0.	101.44
5567	5.7458	4.7727	0.	101.21
5568	5.7395	5.0152	0.	102.01
5569	5.2787	3.9887	0.	105.83
5570	5.5041	4.0858	0.	103.77
5571	4.8513	4.2213	0.	108.98
5572	5.2903	4.2021	0.	103.44
5573	4.9877	4.3116	0.	107.
5574	4.7739	4.4278	0.	110.4
5575	5.2475	5.2013	0.	103.98
5576	5.5258	5.1315	0.	101.56
5577	4.8325	4.9488	0.	108.56
5578	5.1546	4.888	0.	105.55
5579	4.7677	4.6703	0.	109.88
5580	5.3924	4.5001	0.	103.39
5581	5.0898	4.6096	0.	106.97
5582	5.4329	4.8182	0.	103.16
5583	8.73	-3.46	0.	61.768
5584	7.37	-3.24	0.	55.744
5585	7.86	-4.53	0.	108.02
5586	8.2767	-3.3867	0.	114.31
5587	7.8233	-3.3133	0.	111.62
5588	8.44	-3.8167	0.	97.017
5589	8.15	-4.1733	0.	91.309
5590	7.5333	-3.67	0.	98.975
5591	7.6967	-4.1	0.	95.983
5592	7.9574	-3.9252	0.	102.15
5593	7.8441	-3.627	0.	99.723
5594	8.1585	-3.6778	0.	103.25
5595	8.5033	-3.4233	0.	84.913
5596	8.585	-3.6383	0.	76.404
5597	7.5967	-3.2767	0.	83.475
5598	7.4517	-3.455	0.	77.188
5599	8.005	-4.3517	0.	98.096
5600	7.7783	-4.315	0.	99.763
5601	8.05	-3.35	0.	112.83
5602	8.2176	-3.5322	0.	108.45
5603	7.8337	-3.4701	0.	105.65
5604	8.295	-3.995	0.	94.077
5605	8.2993	-3.7472	0.	99.927
5606	8.0537	-4.0493	0.	96.724
5607	7.615	-3.885	0.	97.308
5608	7.6887	-3.6485	0.	99.3
5609	7.827	-4.0126	0.	98.913
5610	7.9007	-3.7761	0.	100.89
5611	8.058	-3.8015	0.	102.6
5612	8.0013	-3.6524	0.	101.37
5613	4.84	-6.93	0.	75.687
5614	6.25	-7.62	0.	76.515
5615	6.14	-6.06	0.	88.166
5616	5.31	-7.16	0.	105.98
5617	5.78	-7.39	0.	102.56
5618	5.2733	-6.64	0.	102.32
5619	5.7067	-6.35	0.	98.868
5620	6.2133	-7.1	0.	101.82
5621	6.1767	-6.58	0.	101.51
5622	5.8605	-7.0434	0.	99.523
5623	5.5345	-6.8839	0.	104.6
5624	5.835	-6.6827	0.	100.69
5625	5.075	-7.045	0.	86.256
5626	5.0567	-6.785	0.	84.548
5627	6.015	-7.505	0.	88.054
5628	6.2317	-7.36	0.	87.815
5629	5.9233	-6.205	0.	91.79
5630	6.1583	-6.32	0.	92.907
5631	5.545	-7.275	0.	104.14
5632	5.4222	-7.0219	0.	104.79
5633	5.8202	-7.2167	0.	100.98
5634	5.49	-6.495	0.	100.5
5635	5.4039	-6.7619	0.	103.03
5636	5.7709	-6.5164	0.	99.716
5637	6.195	-6.84	0.	101.48
5638	6.0369	-7.0717	0.	100.65
5639	6.0059	-6.6314	0.	101.01
5640	5.6975	-6.9636	0.	101.98
5641	5.8478	-6.8631	0.	100.1
5642	5.6847	-6.7833	0.	102.56
5643	-7.	-2.	0.	93.148
5644	-8.	-2.	0.	93.447
5645	-7.	-3.	0.	93.678
5646	-8.	-3.	0.	93.05
5647	-7.5	-2.	0.	107.47
5648	-7.	-2.5	0.	98.339
5649	-8.	-2.5	0.	98.244
5650	-7.5	-3.	0.	107.27
5651	-7.5	-2.5	0.	104.97
5652	-7.25	-2.	0.	100.29
5653	-7.	-2.25	0.	95.737
5654	-7.75	-2.	0.	100.44
5655	-8.	-2.25	0.	95.84
5656	-7.	-2.75	0.	96.003
5657	-7.25	-3.	0.	100.46
5658	-8.	-2.75	0.	95.64
5659	-7.75	-3.	0.	100.15
5660	-7.5	-2.25	0.	106.18
5661	-7.25	-2.5	0.	101.63
5662	-7.75	-2.5	0.	101.59
5663	-7.5	-2.75	0.	106.08
